Image X[Pixel],Image Y[Pixel],X[mm],Y[mm],Z[mm],Horizontal Displacement U[mm],Vertical Displacement V[mm],Out-Of-Plane: W[mm],Horizontal: u[Pixel],Vertical: v[Pixel],Horizontal: q[Pixel],Vertical: r[Pixel],Correlation Value 2D,Correlation Value Persp,Sigma,Epipolar Distance,Strain-global frame: Exx,Strain-global frame: Eyy,Strain-global frame: Exy,Maximum Principal Strain: EI,Minimum Principal Strain: EII,Shear Angle Gamma,Von Mises Equivalent Strain,
2071,2293,-4.02220274226973,-7.75791164499282,-0.0198259647152099,0.001807,-0.077293,-0.018285,0.110159,-3.597397,326.989622,20.816526,0.999739,0.993368,0.003849,0.437260,0.000657,0.000571,0.000095,0.000718,0.000509,32.931560,0.001234,
2086,2368,-3.7060390554888,-6.1188443040715,-0.0213416608441435,0.003330,-0.077443,-0.015707,0.172953,-3.606516,325.754552,20.767418,0.998081,0.982225,0.005490,0.420554,0.000487,0.000347,0.000058,0.000508,0.000326,19.715749,0.000841,
2011,1993,-5.29062831115958,-14.3343355971433,-0.00243075413771976,-0.005966,-0.082101,-0.032846,-0.209521,-3.906472,331.982919,20.999996,0.997848,0.981854,0.005796,0.372883,0.001540,0.001177,0.000164,0.001603,0.001114,21.072865,0.002732,
2056,2218,-4.33747649752847,-9.39869520130097,-0.0119712692110738,0.000979,-0.077568,-0.022526,0.083730,-3.620585,328.315979,20.939146,0.998142,0.982257,0.005483,0.368241,0.000810,0.000798,0.000140,0.000944,0.000664,43.730934,0.001616,
2026,2068,-4.97216515613485,-12.6895414689306,0.00476246223382759,-0.003540,-0.081172,-0.024224,-0.120863,-3.827961,330.836188,20.932252,0.999353,0.991403,0.004138,0.381584,0.001217,0.001089,0.000160,0.001325,0.000980,34.090766,0.002314,
2041,2143,-4.65443471626529,-11.0433644171667,-0.00629225440428627,-0.001019,-0.079050,-0.025490,-0.000652,-3.726623,329.570567,20.906344,0.997724,0.982167,0.006001,0.391837,0.000986,0.000997,0.000144,0.001136,0.000847,46.075218,0.001990,
2101,2443,-3.39045732786718,-4.48003295487327,-0.015644813927679,0.004525,-0.076811,-0.006510,0.201444,-3.525996,324.546566,20.802900,0.999204,0.988586,0.004445,0.428837,0.000361,0.000180,0.000033,0.000367,0.000175,10.011689,0.000553,
2011,2008,-5.29325273898056,-14.0037517611531,-0.0103424368292622,-0.005589,-0.082955,-0.026439,-0.209845,-3.916902,331.676511,21.057055,0.997531,0.982412,0.005859,0.297496,0.001484,0.001200,0.000199,0.001586,0.001098,27.209460,0.002699,
2266,3268,0.0615868632135381,13.4638282944404,0.0229481080613141,0.011304,-0.077256,0.010700,0.455977,-3.509099,311.167025,21.747750,0.999587,0.993323,0.003395,0.458784,-0.000001,0.000023,0.000015,0.000030,-0.000009,64.675833,0.000031,
2491,2998,4.99950568727284,7.62298746518123,0.00310105778521574,0.009427,-0.078143,0.003899,0.384390,-3.575400,315.463776,21.950452,0.999399,0.988410,0.004092,0.375904,0.000021,-0.000015,0.000034,0.000041,-0.000035,30.914468,0.000044,
2116,2518,-3.07595176951128,-2.8418787969643,-0.0288872213792501,0.005481,-0.076669,-0.007706,0.248906,-3.535529,323.202589,20.819303,0.999074,0.987843,0.004479,0.386950,0.000248,0.000140,0.000021,0.000252,0.000136,10.727333,0.000394,
2296,2023,0.932258764691333,-13.6881126991798,-0.00199237826325316,0.002861,-0.086011,-0.029017,0.196083,-4.037849,330.883091,18.769948,0.998459,0.980576,0.005929,0.521002,0.001235,0.001346,-0.000053,0.001367,0.001214,-68.151466,0.002583,
2251,3193,-0.249370058835513,11.8360557013128,0.0445560769334179,0.010620,-0.077416,0.009568,0.428655,-3.514792,312.578060,21.614631,0.999521,0.992525,0.003458,0.394485,0.000004,0.000008,0.000003,0.000009,0.000003,64.926387,0.000013,
2506,3073,5.31107369229531,9.25331524629828,0.00645933313160185,0.010037,-0.078471,0.007904,0.396485,-3.569449,314.318340,22.226773,0.999621,0.992267,0.003875,0.448710,0.000024,0.000005,0.000023,0.000039,-0.000010,33.648320,0.000040,
2146,2668,-2.44657909643517,0.427601867260677,-0.0255344805815412,0.006974,-0.076089,-0.004888,0.309204,-3.492451,320.736391,20.807692,0.999562,0.991668,0.003721,0.470413,0.000132,0.000061,0.000002,0.000132,0.000061,1.788144,0.000198,
2371,2398,2.49953989214517,-5.46262339642426,-0.0165907930282856,0.005264,-0.079294,-0.011781,0.251360,-3.671468,324.744846,19.817618,0.999173,0.987796,0.004790,0.419781,0.000442,0.000380,-0.000002,0.000442,0.000380,-1.884341,0.000823,
2026,2083,-4.97440536181638,-12.3591947928365,-0.00465206060925993,-0.003246,-0.080428,-0.027832,-0.097306,-3.832171,330.540618,20.974991,0.998800,0.987321,0.004831,0.328510,0.001171,0.001092,0.000169,0.001306,0.000958,38.461885,0.002272,
2071,2323,-4.02623857882458,-7.10202607769696,-0.0159290109998551,0.002459,-0.077300,-0.012921,0.124842,-3.582156,326.553472,20.855353,0.999116,0.987804,0.004641,0.411392,0.000573,0.000436,0.000067,0.000600,0.000409,22.184511,0.001016,
2026,2098,-4.9754165560108,-12.029162251958,-0.0059705233375098,-0.002205,-0.079223,-0.031376,-0.039519,-3.760329,330.345744,21.008614,0.998534,0.981723,0.005549,0.359965,0.001127,0.001073,0.000165,0.001268,0.000933,40.349093,0.002209,
2011,2023,-5.29402075749212,-13.6754064377161,-0.0080965786996785,-0.004310,-0.082211,-0.025642,-0.153102,-3.882388,331.511639,20.986749,0.997757,0.982133,0.005775,0.393493,0.001390,0.001060,0.000161,0.001455,0.000995,22.115191,0.002464,
2131,2608,-2.7634600920919,-0.879340512978253,-0.0290929454803859,0.006366,-0.076174,-0.007811,0.290038,-3.513544,321.720544,20.829147,0.999407,0.989780,0.004273,0.409498,0.000163,0.000066,0.000011,0.000164,0.000065,6.724329,0.000236,
2056,2248,-4.34256945505333,-8.74335304389122,-0.0150947905756311,0.000841,-0.078730,-0.018576,0.065899,-3.686361,327.790992,20.885276,0.998771,0.985728,0.005011,0.350585,0.000746,0.000708,0.000116,0.000844,0.000610,40.345521,0.001460,
2086,2383,-3.70815029125741,-5.78940429519336,-0.0286945992895085,0.003850,-0.076913,-0.018456,0.204930,-3.618310,325.482675,20.875952,0.997782,0.981592,0.005647,0.301142,0.000464,0.000311,0.000053,0.000480,0.000295,17.394545,0.000782,
2236,3133,-0.566208069079728,10.5360036193065,0.0181857737855466,0.010238,-0.076581,0.006570,0.421733,-3.479777,313.363208,21.490538,0.999603,0.993299,0.003551,0.403196,-0.000002,-0.000011,-0.000004,0.000000,-0.000013,-19.606053,0.000015,
2161,2758,-2.13519118799248,2.38726813667098,-0.0236032909027131,0.007793,-0.077019,0.003748,0.320036,-3.501073,319.246180,20.884939,0.999148,0.986267,0.004436,0.439830,0.000075,0.000071,-0.000010,0.000084,0.000063,-39.533568,0.000147,
2416,2623,3.43718941801466,-0.545361186328407,-0.0301418180858946,0.007144,-0.078450,-0.004672,0.312540,-3.598608,321.081059,20.471991,0.999110,0.988772,0.004275,0.430518,0.000161,0.000102,0.000011,0.000163,0.000100,9.858160,0.000265,
2161,2743,-2.13272276536962,2.0615508056354,-0.0321399677276304,0.007941,-0.076621,-0.002007,0.344605,-3.509141,319.442804,20.877550,0.999366,0.989260,0.004194,0.429065,0.000078,0.000068,-0.000008,0.000083,0.000063,-29.421079,0.000146,
2071,2308,-4.02487864675356,-7.42850968497532,-0.0286827343460345,0.002182,-0.077160,-0.015128,0.118431,-3.592655,326.682179,20.861805,0.999772,0.992862,0.003980,0.396004,0.000612,0.000503,0.000077,0.000652,0.000463,27.233959,0.001120,
2356,2323,2.1864598834391,-7.1053962927695,-0.0122173363504885,0.004955,-0.080988,-0.009640,0.228883,-3.746256,325.968550,19.567516,0.999556,0.994108,0.003846,0.438571,0.000552,0.000479,-0.000023,0.000559,0.000473,-15.954123,0.001033,
2431,2698,3.74960363241117,1.09209811796983,-0.0280742445694955,0.007610,-0.078237,-0.001938,0.323832,-3.592721,319.910248,20.860548,0.999744,0.992266,0.003655,0.286348,0.000110,0.000107,0.000011,0.000119,0.000098,41.019266,0.000218,
2041,2173,-4.65987141307227,-10.3857936562105,-0.00875369728890973,-0.001304,-0.079865,-0.016404,-0.039222,-3.722576,329.030013,20.938111,0.998907,0.988246,0.004729,0.355165,0.000909,0.000875,0.000130,0.001023,0.000761,41.270975,0.001791,
2206,2968,-1.18965057009565,6.95365126520741,0.00129702849818614,0.009871,-0.076497,0.001496,0.421794,-3.495648,315.992875,21.203440,0.999306,0.991554,0.003786,0.376374,0.000027,0.000007,0.000009,0.000031,0.000004,20.955265,0.000038,
2266,3298,0.0556879018987075,14.1147781137823,0.018336347957586,0.010999,-0.077240,0.008163,0.450319,-3.523138,310.630174,21.874127,0.999532,0.993397,0.003400,0.366468,-0.000006,0.000016,0.000010,0.000020,-0.000010,68.279077,0.000020,
2341,2248,1.87327781756564,-8.74652910792208,-0.0171738818710878,0.004912,-0.081210,-0.015413,0.246833,-3.774290,327.155796,19.457340,0.998655,0.982078,0.005395,0.384970,0.000717,0.000697,-0.000039,0.000747,0.000666,-37.717196,0.001415,
2296,2053,0.927593395702939,-13.0268771347431,0.00255808523007772,0.003459,-0.084644,-0.026837,0.216702,-3.976612,330.457205,19.076916,0.998080,0.983053,0.005650,0.341936,0.001164,0.001284,-0.000045,0.001299,0.001149,-71.616330,0.002450,
2221,3058,-0.878310797575104,8.90689111688224,0.0194968622145666,0.010243,-0.076697,0.004965,0.427508,-3.488510,314.642405,21.295017,0.999739,0.994718,0.002971,0.438551,0.000015,-0.000018,-0.000010,0.000018,-0.000021,-16.200433,0.000023,
2176,2818,-1.81891417643905,3.69492974677662,-0.032053656776327,0.008629,-0.076286,0.000192,0.369296,-3.503670,318.196244,21.043684,0.999371,0.990825,0.003900,0.334358,0.000054,0.000082,0.000000,0.000082,0.000054,-89.244297,0.000137,
2176,2833,-1.82209720124078,4.0211571938042,-0.0396238949663825,0.008423,-0.076179,-0.000899,0.363263,-3.502661,317.883130,21.002676,0.999600,0.994235,0.003394,0.388719,0.000053,0.000075,0.000005,0.000076,0.000052,77.484721,0.000129,
2251,3223,-0.253861957914335,12.4855824239899,0.0552226752164415,0.010754,-0.077305,0.009658,0.434684,-3.500095,312.182260,21.626027,0.999631,0.994773,0.003210,0.441928,0.000001,0.000012,0.000004,0.000013,0.000000,72.332754,0.000015,
2011,2038,-5.29597218265434,-13.3447994882642,-0.0185773146359907,-0.003804,-0.081179,-0.030905,-0.115441,-3.840008,331.221299,20.976924,0.997143,0.980875,0.005955,0.437510,0.001320,0.000999,0.000141,0.001373,0.000946,20.659537,0.002332,
2191,2893,-1.50465853021083,5.32441473858162,-0.0117757193961552,0.008546,-0.076316,0.001268,0.361872,-3.485422,317.089884,21.098375,0.999782,0.995230,0.003096,0.384415,0.000033,0.000044,0.000007,0.000048,0.000029,64.726059,0.000078,
2116,2548,-3.08094496993192,-2.18734099933581,-0.0351748719897955,0.005797,-0.076357,-0.006299,0.259372,-3.508952,322.675337,20.780802,0.998993,0.987892,0.004571,0.461104,0.000216,0.000116,0.000026,0.000222,0.000110,13.615229,0.000338,
2026,2113,-4.97786506841579,-11.6996225176847,-0.012667895352763,-0.001758,-0.079322,-0.026277,-0.033009,-3.740576,330.055807,20.996573,0.997575,0.978380,0.006287,0.385236,0.001085,0.001041,0.000163,0.001228,0.000898,41.141812,0.002135,
2026,2128,-4.97990670509472,-11.3706636996811,-0.0158024674961439,-0.001392,-0.079448,-0.025797,-0.017588,-3.780238,329.804652,21.035544,0.997890,0.978100,0.006369,0.300023,0.001040,0.001025,0.000161,0.001193,0.000872,43.655828,0.002074,
2506,3088,5.30899216414972,9.578981679512,0.013422798678846,0.010145,-0.078509,0.004199,0.415817,-3.585883,314.150334,22.326132,0.999656,0.993015,0.003479,0.393191,0.000025,0.000006,0.000024,0.000041,-0.000010,34.401836,0.000043,
2116,2533,-3.0784239137205,-2.51528748373729,-0.0300479024886044,0.005484,-0.076828,-0.007751,0.249144,-3.535685,322.950939,20.766542,0.998844,0.986508,0.004825,0.443921,0.000226,0.000127,0.000026,0.000233,0.000121,13.686346,0.000359,
2056,2233,-4.34038063110035,-9.07015109029848,-0.0144857036586359,0.000894,-0.078013,-0.015991,0.061289,-3.622031,328.031589,20.948067,0.998780,0.987470,0.004940,0.355105,0.000782,0.000731,0.000122,0.000881,0.000631,39.067425,0.001519,
2461,2848,4.37332708635782,4.36082325441393,-0.0335404763662268,0.008702,-0.078088,0.001725,0.360024,-3.565079,317.510969,21.321374,0.999685,0.993332,0.003372,0.392638,0.000036,0.000032,0.000029,0.000063,0.000005,43.224839,0.000075,
2491,3013,4.9965667105947,7.94957393744903,-0.00176990669717725,0.009858,-0.078202,0.002562,0.409301,-3.590412,315.202165,22.035904,0.999556,0.992823,0.003492,0.333786,0.000025,-0.000011,0.000032,0.000044,-0.000029,30.535181,0.000044,
2221,3043,-0.876952244196513,8.58254087512802,0.0100073734890316,0.009703,-0.076689,0.005914,0.399554,-3.486522,314.779579,21.326114,0.999697,0.994134,0.003158,0.391414,0.000015,-0.000010,-0.000004,0.000015,-0.000011,-9.482370,0.000016,
2266,3283,0.0581418042354329,13.7892801752589,0.0102328760761452,0.011217,-0.077182,0.006788,0.464921,-3.523694,310.823263,21.757587,0.999477,0.993083,0.003372,0.458678,-0.000007,0.000037,0.000014,0.000041,-0.000011,73.928534,0.000042,
2311,2098,1.24656087789339,-12.0374594832303,-0.00904807775941663,0.003982,-0.083653,-0.025514,0.237119,-3.927158,329.644666,19.129185,0.998883,0.982204,0.005663,0.348186,0.001075,0.001224,-0.000043,0.001236,0.001064,-75.034664,0.002302,
2011,2053,-5.29908563574924,-13.015701595271,-0.0136639716864124,-0.004695,-0.081916,-0.024849,-0.172924,-3.850273,330.964546,21.061192,0.998881,0.991497,0.004243,0.334577,0.001268,0.001013,0.000138,0.001329,0.000953,23.602566,0.002292,
2086,2398,-3.71056842910517,-5.46225843272076,-0.0233432850492363,0.003619,-0.076750,-0.015410,0.185599,-3.586838,325.266067,20.859464,0.998359,0.984479,0.005140,0.349609,0.000435,0.000265,0.000049,0.000449,0.000252,15.074498,0.000710,
2161,2773,-2.13807933084962,2.7142718748532,-0.0297758098759004,0.007793,-0.077071,0.003200,0.321697,-3.502944,318.952440,20.908323,0.999426,0.990416,0.003931,0.425056,0.000073,0.000065,-0.000006,0.000076,0.000062,-29.463920,0.000138,
2041,2158,-4.6582964877937,-10.7131668057532,-0.0126943244901554,-0.001373,-0.080833,-0.010983,-0.057684,-3.728303,329.219278,20.996881,0.998929,0.986611,0.005037,0.295450,0.000936,0.000924,0.000127,0.001057,0.000803,43.577724,0.001866,
2011,2083,-5.30257814042311,-12.3572912203685,-0.0111765227466663,-0.004005,-0.080370,-0.024314,-0.142280,-3.809205,330.534437,21.120833,0.997983,0.984548,0.005481,0.298462,0.001174,0.001085,0.000158,0.001294,0.000965,37.075470,0.002267,
2416,2638,3.4349295531368,-0.217432798041997,-0.0296124138581604,0.007571,-0.078017,-0.007444,0.342438,-3.594264,320.871049,20.590024,0.999242,0.989181,0.004248,0.365309,0.000145,0.000100,0.000006,0.000146,0.000099,7.058802,0.000247,
2146,2698,-2.45217517470082,1.08200651741695,-0.0332989403867714,0.007326,-0.076690,0.002336,0.303370,-3.481551,320.178760,20.859426,0.999318,0.990315,0.003992,0.446102,0.000119,0.000067,-0.000001,0.000119,0.000067,-1.307472,0.000188,
2131,2593,-2.7613866498104,-1.20581205718371,-0.032457326492306,0.006338,-0.076180,-0.006008,0.283440,-3.466678,321.928421,20.782821,0.999326,0.990395,0.004224,0.496447,0.000170,0.000081,0.000014,0.000173,0.000079,8.487648,0.000257,
2146,2683,-2.44943261664388,0.754968218499478,-0.0307457271450176,0.007289,-0.076942,0.000295,0.307706,-3.513242,320.448021,20.861218,0.999252,0.990636,0.003918,0.404310,0.000127,0.000061,0.000002,0.000127,0.000061,1.324626,0.000192,
2101,2458,-3.3929007182098,-4.15210320247644,-0.0216891852011258,0.004744,-0.076644,-0.007990,0.215910,-3.521959,324.268315,20.797142,0.999214,0.989187,0.004313,0.441237,0.000342,0.000150,0.000023,0.000344,0.000148,6.757084,0.000505,
2476,2923,4.68610474669653,5.99294789675221,-0.0168529480058623,0.008861,-0.078270,0.003464,0.360408,-3.558617,316.460182,21.661511,0.999217,0.987323,0.004389,0.360035,0.000019,-0.000014,0.000029,0.000036,-0.000031,29.722388,0.000039,
2251,3208,-0.252034835891788,12.1606808427213,0.0443561016056719,0.010508,-0.077788,0.007429,0.430415,-3.533080,312.332856,21.599536,0.999705,0.995225,0.003085,0.413187,0.000003,0.000010,0.000006,0.000013,0.000000,59.670165,0.000015,
2191,2908,-1.50680078277683,5.64852955511972,-0.00542246554971371,0.008695,-0.076607,0.003621,0.361282,-3.490019,316.898994,20.992068,0.999778,0.994986,0.003178,0.500064,0.000033,0.000031,0.000005,0.000037,0.000027,40.022204,0.000064,
2236,3118,-0.563340966664665,10.2106246796759,0.0202815043852524,0.010203,-0.076305,0.005287,0.424340,-3.470165,313.628613,21.474379,0.999556,0.992934,0.003518,0.408904,0.000003,-0.000018,-0.000006,0.000004,-0.000019,-14.392001,0.000020,
2206,2983,-1.19287585898341,7.28005905276441,-0.00484942162523794,0.009499,-0.076286,-0.001040,0.412847,-3.492229,315.687658,21.232510,0.999389,0.992063,0.003624,0.367079,0.000026,0.000006,0.000007,0.000028,0.000004,17.598623,0.000035,
2326,2173,1.56044847134654,-10.3905363216645,-0.0118369356177936,0.004721,-0.082232,-0.020847,0.256113,-3.842471,328.423311,19.362629,0.998387,0.979771,0.005623,0.295148,0.000900,0.000973,-0.000044,0.000994,0.000880,-65.094404,0.001875,
2236,3148,-0.567851655992126,10.8600355877397,0.029283981643232,0.010546,-0.076950,0.007622,0.432310,-3.500764,313.221954,21.478332,0.999285,0.991863,0.003738,0.414461,0.000001,-0.000005,-0.000003,0.000002,-0.000006,-21.853889,0.000006,
2041,2188,-4.66151478366548,-10.0560040625826,-0.0138771491249372,-0.000677,-0.078426,-0.020782,0.002120,-3.687825,328.786964,20.979935,0.998817,0.986489,0.004938,0.343188,0.000887,0.000853,0.000140,0.001011,0.000729,41.540512,0.001747,
2206,2998,-1.19550304635424,7.60521441846686,-0.00122610540921642,0.009622,-0.076786,0.004703,0.400114,-3.501435,315.460863,21.230216,0.999431,0.991903,0.003666,0.376200,0.000025,0.000005,0.000004,0.000025,0.000004,9.625807,0.000032,
2071,2338,-4.02782114364393,-6.77474227110382,-0.0118986561858492,0.002699,-0.076880,-0.016508,0.146207,-3.582766,326.366865,20.850431,0.998539,0.985894,0.004940,0.414321,0.000537,0.000389,0.000063,0.000560,0.000366,20.228586,0.000933,
2506,3103,5.30632897707025,9.90450182356977,0.0113173928792207,0.010372,-0.078122,-0.000271,0.443721,-3.585647,313.914831,22.341220,0.999645,0.992563,0.003494,0.438441,0.000019,-0.000008,0.000027,0.000036,-0.000025,31.697204,0.000037,
2296,2038,0.930223882525578,-13.3558005086485,0.00398633213450239,0.003047,-0.084278,-0.029903,0.208260,-3.968043,330.701662,19.077732,0.998590,0.983971,0.005408,0.316338,0.001201,0.001306,-0.000052,0.001327,0.001180,-67.420545,0.002509,
2386,2473,2.81359350484292,-3.82120992726424,-0.0247936628957177,0.007178,-0.078400,-0.012824,0.343454,-3.614473,323.561471,20.055518,0.999068,0.989308,0.004607,0.415794,0.000336,0.000249,0.000012,0.000337,0.000248,7.587119,0.000587,
2446,2773,4.06110249091745,2.72598767677017,-0.0339968796724861,0.007771,-0.078003,-0.002156,0.332000,-3.573622,318.673276,20.959756,0.999437,0.988990,0.004276,0.465818,0.000068,0.000085,0.000016,0.000095,0.000058,59.155205,0.000155,
2011,2098,-5.3041238019347,-12.0278433468596,-0.00958802968011696,-0.003203,-0.080371,-0.019535,-0.118461,-3.740273,330.330200,21.136214,0.997672,0.978525,0.006167,0.342864,0.001132,0.001060,0.000153,0.001253,0.000939,38.311446,0.002200,
2221,3073,-0.881206367045422,9.23243863097899,0.0220232248216234,0.009874,-0.076921,0.005932,0.407266,-3.507741,314.398394,21.349393,0.999625,0.993493,0.003250,0.382883,0.000013,-0.000019,-0.000012,0.000017,-0.000023,-18.165434,0.000024,
2431,2713,3.7476894489192,1.4169018850699,-0.0192168498096521,0.007955,-0.078266,-0.001770,0.339045,-3.597597,319.756298,20.791365,0.999656,0.991973,0.003729,0.400683,0.000098,0.000103,0.000014,0.000115,0.000087,50.189316,0.000202,
2026,2143,-4.98138611954949,-11.0424700091198,-0.0136647966120336,-0.000827,-0.078617,-0.025952,0.009018,-3.729868,329.608152,20.977518,0.997572,0.979737,0.006076,0.401358,0.001001,0.001006,0.000151,0.001154,0.000853,45.564081,0.002014,
2116,2563,-3.08289177169079,-1.85961546290311,-0.0344029003395576,0.006082,-0.075895,-0.008290,0.278532,-3.504745,322.457798,20.854665,0.999090,0.986938,0.004738,0.395687,0.000202,0.000112,0.000020,0.000206,0.000108,11.859679,0.000319,
2056,2263,-4.34464333932239,-8.41404311428475,-0.0157583073087721,0.001376,-0.078321,-0.013690,0.076843,-3.628810,327.554272,20.935004,0.998938,0.984922,0.005205,0.355272,0.000713,0.000676,0.000119,0.000815,0.000574,40.497099,0.001396,
2101,2503,-3.39947588346836,-3.16935928748336,-0.0293033924785391,0.005555,-0.076280,-0.011490,0.263523,-3.525673,323.525148,20.829862,0.999128,0.989581,0.004179,0.412471,0.000279,0.000145,0.000029,0.000285,0.000139,11.751249,0.000432,
2086,2428,-3.71483902052902,-4.80725627791434,-0.0212645110785843,0.004053,-0.076581,-0.012888,0.198300,-3.553839,324.811905,20.852433,0.998953,0.987213,0.004575,0.390675,0.000390,0.000194,0.000058,0.000406,0.000178,15.185237,0.000599,
2251,3238,-0.256961379295138,12.810498268332,0.0456231716091224,0.010770,-0.077009,0.005960,0.447585,-3.510639,311.869152,21.583598,0.999752,0.996019,0.002873,0.495866,-0.000001,0.000006,0.000008,0.000011,-0.000006,56.288657,0.000011,
2356,2338,2.18396366993442,-6.77456219354587,-0.0202442579419539,0.005401,-0.079886,-0.016452,0.273679,-3.718300,325.702483,19.744353,0.999160,0.989049,0.004588,0.330730,0.000526,0.000454,-0.000015,0.000529,0.000451,-11.023609,0.000981,
2401,2548,3.12619215694447,-2.18358994568553,-0.0185722680781168,0.007446,-0.078570,-0.004816,0.326901,-3.590927,322.393495,20.237655,0.999155,0.989744,0.004649,0.454440,0.000235,0.000148,0.000009,0.000236,0.000147,5.955783,0.000387,
2341,2263,1.87076521685939,-8.41870686200107,-0.00798283802600963,0.004861,-0.081186,-0.010694,0.228131,-3.748797,326.971427,19.508711,0.998808,0.983531,0.005202,0.397720,0.000676,0.000641,-0.000048,0.000710,0.000608,-35.045433,0.001319,
2491,3028,4.99354752953802,8.27567585253419,-0.00171649013242359,0.010075,-0.078036,0.004600,0.411560,-3.576548,314.959094,22.085449,0.999674,0.994158,0.003294,0.356204,0.000027,-0.000002,0.000029,0.000045,-0.000019,31.785479,0.000045,
2296,2068,0.925066908003142,-12.6980366872286,0.00600288127913018,0.003559,-0.084563,-0.024521,0.213539,-3.969075,330.241426,19.112269,0.998571,0.982673,0.005509,0.347561,0.001127,0.001255,-0.000038,0.001265,0.001117,-74.560639,0.002384,
2281,2008,0.607130904649512,-14.0151384208909,-4.85365854387965E-05,0.002510,-0.085349,-0.030033,0.183018,-4.015932,331.141251,19.013954,0.998672,0.982969,0.005664,0.369855,0.001236,0.001331,-0.000053,0.001354,0.001212,-66.014936,0.002568,
2461,2863,4.37085118790008,4.68686242869244,-0.0270105938155325,0.008687,-0.077986,0.001439,0.360421,-3.565521,317.321255,21.383042,0.999509,0.991321,0.003658,0.384788,0.000034,0.000023,0.000032,0.000061,-0.000004,40.343956,0.000068,
2026,2158,-4.9844317535196,-10.7126876391715,-0.00874999411558974,-0.001449,-0.079520,-0.017426,-0.043213,-3.699031,329.355416,21.118721,0.998769,0.986124,0.005033,0.284131,0.000941,0.000925,0.000125,0.001059,0.000807,43.113971,0.001872,
2101,2473,-3.39548804263712,-3.8238453348641,-0.0252855577423929,0.004715,-0.076261,-0.008704,0.216790,-3.515990,323.996590,20.847850,0.999153,0.989309,0.004344,0.399132,0.000323,0.000150,0.000028,0.000327,0.000145,9.035151,0.000484,
2161,2803,-2.14176841766799,3.36695361221356,-0.0246552873477981,0.008330,-0.076003,-0.003526,0.367366,-3.495129,318.553056,20.971950,0.999589,0.992070,0.003692,0.389211,0.000057,0.000073,-0.000003,0.000073,0.000056,-79.083198,0.000130,
2086,2413,-3.71219229855964,-5.13508029466161,-0.0206238201612905,0.004174,-0.076482,-0.015170,0.210472,-3.563393,325.071540,20.832978,0.998511,0.985643,0.004865,0.399932,0.000417,0.000233,0.000053,0.000432,0.000219,15.110334,0.000662,
2071,2353,-4.03074170129133,-6.44568530839341,-0.0180388919743564,0.002569,-0.076944,-0.014922,0.135703,-3.563021,326.063097,20.892471,0.998278,0.983308,0.005286,0.390743,0.000506,0.000364,0.000070,0.000535,0.000336,22.261349,0.000878,
2176,2878,-1.82757611908894,4.99735200949596,-0.0102161609166274,0.008724,-0.076476,0.001281,0.370307,-3.497835,317.404282,21.064223,0.999460,0.993249,0.003412,0.367674,0.000043,0.000062,0.000002,0.000063,0.000043,82.903677,0.000106,
2476,2938,4.68359875983105,6.3187536573758,-0.013872949071299,0.009026,-0.078046,0.001948,0.373844,-3.554966,316.253531,21.690571,0.999339,0.989931,0.003967,0.390705,0.000016,-0.000015,0.000024,0.000029,-0.000028,28.242906,0.000033,
2041,2203,-4.66304094264231,-9.72635813019006,-0.0196343865046629,0.000273,-0.077640,-0.022471,0.050671,-3.646166,328.545774,21.001148,0.998267,0.983481,0.005407,0.358621,0.000847,0.000823,0.000134,0.000969,0.000700,42.466411,0.001677,
2011,2068,-5.29978729415863,-12.6873835911319,-0.00776430976338816,-0.003777,-0.080539,-0.027745,-0.122592,-3.818479,330.823239,21.047829,0.999039,0.991437,0.004186,0.370548,0.001222,0.001079,0.000149,0.001316,0.000985,32.175325,0.002309,
2056,2278,-4.34686146948775,-8.08411866322229,-0.0197585402961522,0.001536,-0.077467,-0.015959,0.090835,-3.603726,327.292662,21.044683,0.999574,0.991496,0.004169,0.267784,0.000687,0.000613,0.000109,0.000765,0.000535,35.581119,0.001307,
2131,2623,-2.76581352498961,-0.55271966598481,-0.0256630869212131,0.006441,-0.076353,-0.004575,0.283778,-3.510024,321.500002,20.843765,0.999407,0.990164,0.004136,0.404683,0.000156,0.000056,0.000007,0.000157,0.000055,3.916900,0.000220,
2506,3118,5.30306108413799,10.2309239392662,0.0137488613446521,0.010137,-0.078264,0.001422,0.426430,-3.574218,313.671417,22.461009,0.999494,0.991893,0.003690,0.390046,0.000003,-0.000008,0.000024,0.000022,-0.000027,38.638368,0.000029,
2191,2923,-1.50924396939985,5.97577174836594,-0.00691094276641024,0.008884,-0.076540,0.002923,0.372209,-3.489941,316.652467,21.115995,0.999389,0.991496,0.003775,0.390185,0.000031,0.000019,0.000009,0.000036,0.000014,28.243764,0.000051,
2236,3178,-0.572375569673692,11.5097676355103,0.0381056924295535,0.010593,-0.076855,0.005727,0.440648,-3.510995,312.813569,21.503472,0.999426,0.991480,0.003651,0.418805,0.000003,0.000002,-0.000002,0.000004,0.000000,-39.231034,0.000005,
2071,2383,-4.03474268886263,-5.78947614376622,-0.0165219951060749,0.003295,-0.076386,-0.011581,0.159685,-3.522876,325.615459,20.952317,0.998167,0.984452,0.005270,0.368182,0.000467,0.000301,0.000063,0.000489,0.000280,18.618147,0.000778,
2416,2653,3.43197647544445,0.10959907743765,-0.0259259646997521,0.007687,-0.078075,-0.002238,0.328747,-3.560593,320.643980,20.627723,0.999383,0.989387,0.004250,0.409503,0.000131,0.000097,0.000006,0.000132,0.000096,9.842796,0.000229,
2251,3253,-0.260271096784631,13.1373424086382,0.0346156403768418,0.011097,-0.076957,0.008064,0.455874,-3.493914,311.538441,21.689055,0.999616,0.994201,0.003241,0.429151,-0.000005,0.000006,0.000016,0.000017,-0.000016,54.840719,0.000019,
2251,3283,-0.266898706041758,13.7882799148579,0.0119350150485502,0.011345,-0.076852,0.006093,0.473830,-3.506793,310.874109,21.704688,0.999403,0.992490,0.003562,0.444404,-0.000019,0.000033,0.000015,0.000037,-0.000023,75.033555,0.000037,
2281,1993,0.610058318409987,-14.3455404973558,0.00783820210580188,0.002778,-0.086954,-0.021935,0.167722,-4.054169,331.433022,19.017625,0.997854,0.969483,0.007515,0.296018,0.001254,0.001353,-0.000070,0.001389,0.001218,-62.540512,0.002609,
2026,2218,-4.99248752857943,-9.3983202598977,-0.0205303123801741,-0.000197,-0.077590,-0.020397,0.022930,-3.654347,328.359643,21.046238,0.998263,0.982783,0.005495,0.372966,0.000822,0.000806,0.000134,0.000948,0.000680,43.361452,0.001635,
2296,2083,0.921546054880228,-12.3674536354109,-0.00131241394086601,0.003345,-0.084601,-0.023946,0.201794,-3.973292,329.926901,19.204591,0.998987,0.983671,0.005271,0.284617,0.001092,0.001244,-0.000039,0.001253,0.001083,-76.491003,0.002338,
2386,2488,2.81048778572627,-3.49353649617724,-0.0220541094534497,0.007054,-0.078320,-0.008953,0.323933,-3.595398,323.321387,20.107694,0.999097,0.988862,0.004519,0.427223,0.000317,0.000220,0.000012,0.000318,0.000218,7.073581,0.000540,
2326,2188,1.55909827797167,-10.0630995503899,-0.00466578038208354,0.005234,-0.081139,-0.025573,0.296264,-3.825857,328.281686,19.342519,0.998677,0.982518,0.005422,0.368703,0.000852,0.000931,-0.000044,0.000950,0.000832,-65.976847,0.001784,
2086,2458,-3.71992904499869,-4.15242371409947,-0.024462095464628,0.004218,-0.077128,-0.007048,0.188900,-3.530489,324.291723,20.809751,0.999224,0.989566,0.004333,0.457641,0.000343,0.000138,0.000036,0.000349,0.000132,9.586229,0.000496,
2161,2788,-2.14031500502226,3.04041112965569,-0.0253243442083431,0.007639,-0.076715,0.001275,0.320588,-3.512410,318.744868,20.947679,0.999546,0.991083,0.003900,0.385999,0.000063,0.000069,-0.000005,0.000071,0.000061,-60.561255,0.000132,
2041,2233,-4.66737154271226,-9.06998951880787,-0.0167871156217529,0.000454,-0.078063,-0.018816,0.048668,-3.652873,328.085438,21.033462,0.998762,0.982607,0.005396,0.309313,0.000782,0.000729,0.000114,0.000872,0.000639,38.439740,0.001517,
2281,2023,0.604166614171973,-13.6854158994215,-0.00458722229285513,0.002561,-0.085099,-0.029988,0.185314,-4.007283,330.864612,19.022472,0.998483,0.981627,0.005846,0.401578,0.001207,0.001316,-0.000030,0.001323,0.001200,-75.654155,0.002524,
2461,2878,4.36756453388616,5.01387857713627,-0.0315689865319655,0.008742,-0.077748,0.000737,0.365808,-3.544526,317.043106,21.435123,0.999356,0.992247,0.003651,0.407869,0.000030,0.000027,0.000037,0.000066,-0.000008,43.583787,0.000071,
2401,2563,3.12224281745108,-1.85539467123034,-0.026357738295701,0.006954,-0.078315,-0.005860,0.308220,-3.600155,322.065921,20.296145,0.999016,0.988065,0.004592,0.433443,0.000216,0.000145,0.000013,0.000218,0.000142,10.204052,0.000363,
2311,2113,1.24454707188469,-11.7095698853078,-0.00365617578557931,0.004268,-0.083352,-0.025935,0.251796,-3.921370,329.463070,19.117308,0.998794,0.981858,0.005598,0.400931,0.001034,0.001194,-0.000035,0.001202,0.001027,-78.249103,0.002231,
2146,2713,-2.45479684803249,1.40850709077247,-0.0323504512060708,0.007123,-0.076929,0.002378,0.293727,-3.522625,319.933931,20.914139,0.999395,0.991493,0.003995,0.358584,0.000110,0.000072,-0.000006,0.000111,0.000071,-9.159286,0.000184,
2371,2413,2.49762062700426,-5.13367227125597,-0.0159180032467248,0.006118,-0.078822,-0.012350,0.292743,-3.656079,324.548305,19.946066,0.999416,0.988798,0.004528,0.349244,0.000411,0.000351,0.000004,0.000412,0.000350,3.501588,0.000763,
2011,2113,-5.30487520463215,-11.6999938859437,-0.00524318535190105,-0.002298,-0.079670,-0.023525,-0.065976,-3.732922,330.178266,21.102359,0.997774,0.979547,0.006124,0.374838,0.001095,0.001022,0.000153,0.001215,0.000901,38.259013,0.002124,
2206,3013,-1.19752227954546,7.93033232668085,0.00543623329400589,0.009761,-0.076756,0.004931,0.405745,-3.514108,315.277727,21.251864,0.999400,0.991705,0.003660,0.357515,0.000026,-0.000006,0.000001,0.000026,-0.000006,1.241255,0.000027,
2506,3133,5.29995771932179,10.556858884786,0.0126895451230098,0.010318,-0.077994,0.002640,0.430196,-3.555390,313.419994,22.510513,0.999511,0.991898,0.003642,0.419750,0.000001,-0.000024,0.000018,0.000011,-0.000034,27.512686,0.000034,
2176,2893,-1.82956012830278,5.3218260023855,0.00224861695426171,0.008386,-0.076405,0.000545,0.357024,-3.510839,317.251699,21.039605,0.999785,0.995619,0.003046,0.390961,0.000038,0.000047,0.000006,0.000050,0.000035,63.461294,0.000086,
2221,3088,-0.883877886022795,9.55823768225327,0.0155380735380959,0.010048,-0.076852,0.002434,0.426537,-3.516238,314.118206,21.362415,0.999435,0.993340,0.003320,0.379337,0.000014,-0.000016,-0.000011,0.000017,-0.000019,-18.327500,0.000021,
2116,2578,-3.08475003675891,-1.53327833958962,-0.0290408293099063,0.006383,-0.076159,-0.006805,0.287866,-3.516542,322.269355,20.862067,0.999348,0.989603,0.004265,0.380703,0.000184,0.000087,0.000016,0.000186,0.000085,9.174198,0.000277,
2161,2818,-2.14448599766303,3.69366597309852,-0.0180393360149083,0.007910,-0.076185,-0.000172,0.337708,-3.495419,318.334592,21.079238,0.999700,0.993537,0.003362,0.291513,0.000058,0.000078,-0.000004,0.000078,0.000057,-79.832756,0.000136,
2446,2788,4.05877699132577,3.05245668258208,-0.0283381989337386,0.008169,-0.078097,0.000134,0.341691,-3.585279,318.485833,21.045531,0.999438,0.989125,0.004125,0.420468,0.000060,0.000077,0.000013,0.000084,0.000053,61.520808,0.000138,
2146,2728,-2.45647244071706,1.73423330578855,-0.0277087302961263,0.007309,-0.076439,-0.002226,0.316452,-3.509147,319.752132,20.877413,0.999365,0.990084,0.004149,0.416694,0.000095,0.000068,-0.000008,0.000098,0.000066,-15.810683,0.000164,
2176,2848,-1.82358720433568,4.34622126785967,-0.0266539390021308,0.008754,-0.076586,0.001461,0.371073,-3.507817,317.755649,21.019963,0.999287,0.992040,0.003665,0.378083,0.000046,0.000078,0.000008,0.000079,0.000044,77.348948,0.000125,
2476,2953,4.68128922704607,6.64450427395574,-0.0120630399827064,0.009366,-0.077914,-0.000992,0.400691,-3.568832,316.050571,21.727619,0.999232,0.989734,0.004081,0.395939,0.000018,-0.000023,0.000024,0.000030,-0.000034,24.929217,0.000037,
2221,3103,-0.885595314715982,9.88262522671738,0.0240482038021241,0.010425,-0.077006,0.003240,0.441200,-3.541977,313.959480,21.361892,0.999467,0.992822,0.003520,0.371989,0.000005,-0.000013,-0.000009,0.000009,-0.000016,-21.878768,0.000016,
2026,2233,-4.99451176449562,-9.06870258566173,-0.0225017102048923,0.000125,-0.077442,-0.020116,0.036945,-3.625481,328.115382,21.128299,0.999256,0.985818,0.004841,0.312521,0.000789,0.000734,0.000111,0.000876,0.000647,38.056124,0.001529,
2281,2038,0.600599138386492,-13.3535916598702,-0.0125768439902458,0.002517,-0.084699,-0.026671,0.172368,-3.954888,330.542731,19.146321,0.998438,0.984169,0.005511,0.362169,0.001177,0.001277,-0.000030,0.001286,0.001168,-74.533545,0.002455,
2041,2218,-4.66502051757051,-9.39832295863699,-0.0220065537400274,0.000577,-0.077415,-0.023890,0.068625,-3.660645,328.303193,20.972738,0.997618,0.978650,0.005906,0.367382,0.000812,0.000798,0.000135,0.000940,0.000670,43.552171,0.001618,
2116,2608,-3.08905336272051,-0.879869457367207,-0.0295340517766931,0.006769,-0.075806,-0.009347,0.313314,-3.499038,321.805103,20.818681,0.999138,0.988480,0.004480,0.449992,0.000159,0.000060,0.000015,0.000162,0.000058,8.515271,0.000228,
2131,2638,-2.7671158225864,-0.227803513245384,-0.00873563911784458,0.006459,-0.076695,-0.004759,0.285000,-3.530148,321.400131,20.843959,0.999705,0.992920,0.003479,0.390084,0.000149,0.000050,0.000009,0.000150,0.000050,5.399283,0.000208,
2251,3268,-0.263819822329111,13.462987922686,0.0219695228030901,0.011234,-0.076947,0.009239,0.458384,-3.489540,311.188792,21.692552,0.999450,0.992590,0.003547,0.451877,-0.000011,0.000019,0.000017,0.000027,-0.000018,65.856469,0.000028,
2236,3163,-0.570467213230646,11.1851424100689,0.0285872979742976,0.010478,-0.076767,0.005282,0.436846,-3.503988,312.975313,21.478880,0.999426,0.991173,0.003765,0.430533,0.000001,-0.000001,-0.000002,0.000002,-0.000002,-32.648039,0.000002,
2491,3043,4.9902156186361,8.60198648031766,-0.00185866846032923,0.009926,-0.078362,0.005765,0.400205,-3.571749,314.700591,22.166148,0.999682,0.993369,0.003532,0.338441,0.000022,0.000009,0.000040,0.000055,-0.000025,40.469297,0.000056,
2251,3298,-0.268892556546543,14.1130971810207,0.0190609000235895,0.011617,-0.076897,0.007168,0.482823,-3.506938,310.696743,21.753407,0.999311,0.991503,0.003671,0.417595,-0.000023,0.000015,0.000008,0.000016,-0.000025,78.827915,0.000025,
2431,2728,3.7445744466193,1.74305896885185,-0.0196649660859975,0.008089,-0.078585,0.001220,0.334016,-3.600392,319.503584,20.772922,0.999645,0.992433,0.003631,0.466673,0.000083,0.000097,0.000018,0.000109,0.000071,56.272338,0.000181,
2056,2308,-4.35034103415355,-7.43039721144992,-0.0122834488195167,0.002193,-0.077409,-0.014782,0.117684,-3.590597,326.899683,20.913113,0.999567,0.990753,0.004217,0.405531,0.000627,0.000499,0.000089,0.000672,0.000454,27.173090,0.001133,
2191,2953,-1.51393321577152,6.62614089935511,0.00499953721447355,0.008751,-0.076994,0.006202,0.355649,-3.500538,316.247257,21.113703,0.999307,0.992125,0.003697,0.409715,0.000026,0.000006,0.000003,0.000027,0.000006,8.177392,0.000035,
2296,2098,0.918936322224393,-12.0374092758598,-0.00986650221284435,0.003857,-0.084079,-0.027007,0.235750,-3.969054,329.647907,19.232062,0.998543,0.980671,0.005752,0.294672,0.001054,0.001207,-0.000037,0.001216,0.001046,-77.048784,0.002264,
2071,2398,-4.03699530588843,-5.46245426535095,-0.0181334429590834,0.003523,-0.076770,-0.010383,0.166652,-3.541892,325.367595,20.906929,0.998497,0.985940,0.005120,0.393004,0.000438,0.000254,0.000060,0.000456,0.000236,16.571213,0.000704,
2011,2128,-5.30733625499239,-11.369600859051,-0.0134250531639282,-0.002111,-0.079396,-0.023581,-0.057186,-3.740604,329.877932,21.184787,0.997663,0.978218,0.006376,0.275994,0.001055,0.001007,0.000152,0.001184,0.000877,40.560498,0.002069,
2296,2113,0.915512236780028,-11.7084713562284,-0.0115479596649379,0.003526,-0.083769,-0.023492,0.208876,-3.937188,329.365495,19.212775,0.998355,0.979398,0.005921,0.379411,0.001016,0.001175,-0.000029,0.001180,0.001011,-79.873225,0.002193,
2356,2353,2.18158256642615,-6.44844678517849,-0.0185634717438461,0.005604,-0.079135,-0.017768,0.287916,-3.693513,325.489007,19.593994,0.999251,0.988623,0.004745,0.546474,0.000501,0.000420,-0.000006,0.000501,0.000419,-4.364764,0.000922,
2206,3028,-1.20014149442363,8.25573243714143,0.010192934604845,0.009636,-0.076815,0.008071,0.390029,-3.502568,315.057036,21.265909,0.999615,0.993643,0.003344,0.371066,0.000024,-0.000006,-0.000002,0.000024,-0.000006,-3.767814,0.000025,
2071,2368,-4.03269319399713,-6.11803843530841,-0.0189097616298568,0.003005,-0.076998,-0.014462,0.154393,-3.558637,325.832784,20.877897,0.997348,0.981107,0.005770,0.408338,0.000490,0.000336,0.000068,0.000516,0.000310,20.727171,0.000834,
2011,2143,-5.3093738441632,-11.0405311852676,-0.0171984894303137,-0.001690,-0.078600,-0.022253,-0.041226,-3.684743,329.621508,21.137224,0.997661,0.980379,0.005957,0.370528,0.001017,0.001003,0.000147,0.001157,0.000863,43.616348,0.002027,
2461,2893,4.36522541399941,5.34058607281607,-0.0259753423387679,0.009026,-0.077847,0.001429,0.376193,-3.548760,316.855092,21.562841,0.999043,0.990012,0.004110,0.329891,0.000032,0.000017,0.000038,0.000063,-0.000014,39.559087,0.000066,
2086,2443,-3.71756358745917,-4.47903235838864,-0.0275056946937866,0.004124,-0.076732,-0.011976,0.198912,-3.557612,324.518255,20.874318,0.999242,0.988429,0.004430,0.365804,0.000363,0.000168,0.000048,0.000375,0.000157,13.075816,0.000546,
2476,2968,4.67930105781277,6.97090293875965,-0.00424016152095419,0.009794,-0.077647,-0.000764,0.419651,-3.550015,315.889460,21.837322,0.999359,0.991119,0.003913,0.361183,0.000014,-0.000018,0.000035,0.000036,-0.000040,32.762571,0.000044,
2146,2758,-2.46102070694251,2.38697480710244,-0.0210944795863384,0.007543,-0.076660,0.001651,0.315395,-3.502362,319.319189,20.932967,0.999409,0.990530,0.003899,0.383975,0.000080,0.000066,-0.000014,0.000089,0.000058,-31.293199,0.000147,
2236,3193,-0.575301487802623,11.8347446243683,0.0377354148916424,0.010556,-0.077267,0.008490,0.429902,-3.517328,312.554330,21.504291,0.999372,0.991322,0.003706,0.431521,0.000003,0.000008,-0.000002,0.000008,0.000002,-70.608758,0.000011,
2041,2293,-4.6744398074694,-7.75897359980595,-0.0113891530225487,0.001928,-0.077187,-0.019839,0.119440,-3.604868,327.236209,20.936496,0.999752,0.993105,0.004005,0.432596,0.000681,0.000570,0.000099,0.000739,0.000512,30.390993,0.001258,
2026,2173,-4.985954593475,-10.3851294240414,-0.00635552653488958,-0.001094,-0.079060,-0.020184,-0.019242,-3.707127,329.158837,21.073583,0.998908,0.987217,0.004779,0.313826,0.000920,0.000872,0.000131,0.001029,0.000763,39.837998,0.001799,
2101,2518,-3.40240501061942,-2.84182654728478,-0.0300211149401548,0.005356,-0.076656,-0.006714,0.240328,-3.528147,323.253513,20.864519,0.999517,0.992816,0.003655,0.377718,0.000252,0.000133,0.000033,0.000261,0.000125,14.363719,0.000393,
2416,2668,3.42913436802595,0.437218058769716,-0.0275746624767521,0.007648,-0.077898,-0.005723,0.339771,-3.584659,320.397033,20.736628,0.999341,0.989290,0.004327,0.324805,0.000118,0.000096,0.000010,0.000121,0.000093,20.619326,0.000215,
2041,2248,-4.66891777084701,-8.74253808772761,-0.0202428032062016,0.001156,-0.077845,-0.021922,0.089567,-3.650885,327.856742,20.934751,0.998815,0.984949,0.005035,0.404965,0.000745,0.000702,0.000102,0.000828,0.000619,38.985556,0.001452,
2056,2293,-4.34829506357587,-7.75806793657386,-0.0151285706467661,0.001930,-0.077099,-0.018268,0.115512,-3.592318,327.115206,20.906760,0.999800,0.994239,0.003634,0.413541,0.000670,0.000574,0.000108,0.000740,0.000503,32.954424,0.001251,
2161,2833,-2.14631528755069,4.01819714339242,-0.0116347610018579,0.008275,-0.076282,0.001540,0.349246,-3.490662,318.156401,20.982870,0.999631,0.993738,0.003363,0.402438,0.000055,0.000069,0.000000,0.000069,0.000055,-89.238203,0.000124,
2446,2803,4.05581580480292,3.38010674946436,-0.0325184092311019,0.008391,-0.078028,-0.001850,0.359388,-3.578123,318.223399,21.149009,0.999595,0.990457,0.003835,0.376369,0.000055,0.000062,0.000012,0.000072,0.000046,52.905353,0.000119,
2341,2278,1.86795875245123,-8.09017815761969,-0.0129950744288294,0.005067,-0.081227,-0.013020,0.245615,-3.736070,326.704829,19.497240,0.998757,0.983420,0.005241,0.461121,0.000640,0.000620,-0.000039,0.000671,0.000590,-37.797329,0.001261,
2131,2653,-2.76982101717875,0.10038702654569,-0.0217552072085709,0.006841,-0.075991,-0.007990,0.312498,-3.507395,321.075267,20.852624,0.999609,0.991428,0.003737,0.410767,0.000138,0.000049,0.000010,0.000139,0.000048,6.112061,0.000194,
2221,3133,-0.890743552989672,10.5331387543943,0.0304323983578456,0.010308,-0.076389,0.006139,0.426864,-3.482422,313.507843,21.353206,0.999579,0.993515,0.003438,0.476162,-0.000003,-0.000006,-0.000008,0.000004,-0.000012,-39.645191,0.000012,
2326,2203,1.5554702301333,-9.73380433542156,-0.00724691005285649,0.004709,-0.081336,-0.023890,0.266367,-3.826827,327.988081,19.412074,0.998780,0.981830,0.005646,0.335456,0.000809,0.000882,-0.000042,0.000901,0.000789,-65.488605,0.001692,
2371,2428,2.49468145190686,-4.80654947752001,-0.0219043059015007,0.006452,-0.078469,-0.012956,0.310393,-3.620049,324.273377,19.828608,0.999617,0.992131,0.004174,0.545593,0.000391,0.000326,0.000007,0.000392,0.000325,6.337332,0.000718,
2116,2623,-3.09246942895428,-0.55207614159567,-0.0371161615726692,0.006519,-0.076193,-0.005384,0.289975,-3.508299,321.475450,20.859403,0.998942,0.986257,0.004847,0.404114,0.000153,0.000048,0.000011,0.000154,0.000047,5.661525,0.000210,
2191,2938,-1.51109961798901,6.3008278618473,-0.00185445565239206,0.009103,-0.076769,0.000712,0.389161,-3.510142,316.467698,21.109780,0.999427,0.992619,0.003606,0.390305,0.000026,0.000012,0.000004,0.000028,0.000011,15.237022,0.000039,
2071,2413,-4.03887230640064,-5.13544366727637,-0.0157426464248829,0.003903,-0.076696,-0.008801,0.179596,-3.535279,325.158680,20.878145,0.998438,0.985358,0.005001,0.426777,0.000419,0.000221,0.000065,0.000439,0.000202,16.700891,0.000655,
2476,2983,4.67537090928533,7.29747374486359,-0.00971750650194281,0.009510,-0.078028,0.000932,0.400040,-3.564784,315.578347,21.908487,0.999411,0.989955,0.004016,0.331009,0.000013,-0.000016,0.000036,0.000037,-0.000040,34.245473,0.000045,
2401,2578,3.11947722891351,-1.52754487041382,-0.0286300410901958,0.007124,-0.078449,-0.007997,0.323750,-3.612675,321.818658,20.380177,0.999033,0.987327,0.004653,0.383082,0.000203,0.000144,0.000015,0.000207,0.000140,13.240789,0.000349,
2506,3148,5.2976346080829,10.8819819662252,0.022910866715506,0.010500,-0.078325,0.005933,0.425588,-3.573354,313.255283,22.594629,0.999456,0.991080,0.003764,0.377307,0.000005,-0.000034,0.000020,0.000013,-0.000042,23.184935,0.000043,
2311,2128,1.24160160052048,-11.3781683507068,-0.00620597279169033,0.003968,-0.082235,-0.029983,0.252283,-3.894823,329.199363,19.323877,0.998895,0.983664,0.005316,0.256215,0.000996,0.001155,-0.000036,0.001163,0.000988,-77.878188,0.002154,
2386,2503,2.80780907775351,-3.16605817953128,-0.0142063227373228,0.006976,-0.078553,-0.004848,0.305583,-3.602591,323.125180,20.219152,0.999291,0.990108,0.004239,0.353001,0.000291,0.000211,0.000010,0.000292,0.000209,7.314735,0.000503,
2296,2173,0.904807708648814,-10.3909337425416,-0.0198414258432535,0.003969,-0.081437,-0.027920,0.244982,-3.822961,328.364468,19.350706,0.999107,0.982159,0.005514,0.487595,0.000864,0.000958,-0.000023,0.000964,0.000858,-76.972535,0.001823,
2176,2863,-1.82561404694804,4.67124675992554,-0.0162063406586981,0.008552,-0.076616,0.001345,0.362132,-3.499221,317.590314,21.003862,0.998860,0.989147,0.004056,0.414853,0.000043,0.000069,0.000004,0.000069,0.000042,80.484336,0.000113,
2101,2488,-3.39777380483763,-3.49735579843516,-0.0269417349446144,0.004779,-0.076247,-0.010659,0.225443,-3.527279,323.749626,20.777047,0.999008,0.989472,0.004303,0.461279,0.000300,0.000148,0.000029,0.000305,0.000143,10.555700,0.000458,
2041,2308,-4.67694625634688,-7.43003995899985,-0.0134143310527861,0.002136,-0.077192,-0.014143,0.113174,-3.573543,326.971179,20.979524,0.999650,0.991298,0.004291,0.415340,0.000634,0.000491,0.000080,0.000670,0.000455,24.117334,0.001132,
2011,2203,-5.31733455503287,-9.72454394376226,-0.0296830657283635,-0.000379,-0.076834,-0.024520,0.025538,-3.613749,328.620081,21.157955,0.999440,0.992079,0.004229,0.383906,0.000863,0.000830,0.000125,0.000972,0.000721,41.328800,0.001699,
2011,2158,-5.3121161416588,-10.7111986995165,-0.0151362412556182,-0.002142,-0.078963,-0.018177,-0.073132,-3.680522,329.365781,21.233337,0.997694,0.980555,0.006052,0.269666,0.000946,0.000926,0.000119,0.001056,0.000816,42.618134,0.001878,
2431,2743,3.74149113528346,2.07112308020018,-0.0220344044357716,0.008180,-0.078533,0.001252,0.338183,-3.584725,319.242862,20.900521,0.999477,0.990760,0.003902,0.404971,0.000077,0.000103,0.000019,0.000113,0.000067,62.286707,0.000182,
2491,3058,4.98791787705577,8.92649585312689,0.0102062664299751,0.009676,-0.078383,0.005716,0.388891,-3.574742,314.545288,22.172070,0.999651,0.992030,0.003811,0.387292,0.000020,0.000010,0.000036,0.000052,-0.000021,41.177433,0.000052,
2206,3043,-1.20223032771665,8.58100228142052,0.0175356601926069,0.009481,-0.076647,0.005694,0.390526,-3.496477,314.874136,21.293735,0.999813,0.995634,0.002929,0.365023,0.000019,-0.000010,-0.000002,0.000019,-0.000010,-4.068009,0.000019,
2041,2263,-4.67068189343003,-8.41382205389545,-0.0176424406444653,0.001460,-0.076961,-0.022058,0.104173,-3.600727,327.651087,20.970916,0.998783,0.986186,0.004994,0.413266,0.000715,0.000668,0.000107,0.000801,0.000583,38.814965,0.001389,
2086,2518,-3.72768302039368,-2.84326359130196,-0.0202765103541083,0.005396,-0.076144,-0.010080,0.252068,-3.524990,323.420157,20.875441,0.999330,0.991873,0.003854,0.398213,0.000252,0.000124,0.000040,0.000263,0.000112,16.159449,0.000385,
2236,3208,-0.57724685845405,12.16003632504,0.0454037119657187,0.010560,-0.076832,0.005990,0.438335,-3.505638,312.381148,21.566591,0.999418,0.992718,0.003581,0.400938,0.000002,0.000008,0.000002,0.000009,0.000002,73.756744,0.000011,
2086,2473,-3.72211925040487,-3.82427208447786,-0.0282039263970546,0.004621,-0.076922,-0.006899,0.207024,-3.542328,324.036132,20.866944,0.999178,0.989926,0.004344,0.388985,0.000324,0.000137,0.000040,0.000332,0.000129,11.720809,0.000476,
2026,2188,-4.98821143050302,-10.0558920320152,-0.0105100959810329,-0.000985,-0.078122,-0.021488,-0.010410,-3.671524,328.891832,21.074072,0.998868,0.986407,0.004947,0.341978,0.000900,0.000859,0.000146,0.001027,0.000733,41.057099,0.001767,
2176,2908,-1.83303141156285,5.64807135553163,-0.00388212185862358,0.008228,-0.076960,0.005699,0.333584,-3.514947,316.932843,21.037558,0.999513,0.992533,0.003597,0.400973,0.000037,0.000031,0.000005,0.000040,0.000028,29.365166,0.000069,
2131,2683,-2.77408124295823,0.752726433364415,-0.0165929231073392,0.007195,-0.076386,-0.007072,0.325950,-3.519845,320.645905,20.833908,0.999422,0.991291,0.003803,0.429332,0.000123,0.000057,0.000008,0.000124,0.000056,6.574219,0.000185,
2161,2893,-2.15634072368787,5.32301128120317,-0.0176679829596083,0.008655,-0.076263,0.000447,0.370093,-3.501297,317.150474,21.045720,0.999525,0.992616,0.003599,0.368196,0.000040,0.000047,0.000000,0.000047,0.000040,89.753522,0.000086,
2416,2683,3.42656731315085,0.762788048665087,-0.0205531900110145,0.007844,-0.078490,-0.000942,0.331028,-3.604851,320.203622,20.729989,0.999321,0.987707,0.004575,0.359056,0.000109,0.000101,0.000014,0.000120,0.000090,37.392081,0.000211,
2281,2053,0.598530938125084,-13.0245322998347,-0.0147523995333358,0.003260,-0.084184,-0.026984,0.207672,-3.943377,330.318779,19.130360,0.998188,0.982658,0.005641,0.420675,0.001143,0.001262,-0.000024,0.001266,0.001138,-78.950463,0.002406,
2281,2098,0.590724162106572,-12.0372494542187,-0.00816548648128901,0.003284,-0.084169,-0.023449,0.197070,-3.959167,329.638844,19.321085,0.997949,0.977410,0.006153,0.306893,0.001039,0.001187,-0.000021,0.001190,0.001036,-81.989323,0.002228,
2191,2968,-1.51577799769679,6.95206848120011,0.00249126231534547,0.009343,-0.076598,0.001653,0.397293,-3.504097,316.023271,21.125421,0.999151,0.991396,0.003876,0.408479,0.000023,0.000006,0.000008,0.000026,0.000003,21.290516,0.000032,
2236,3268,-0.589082529398397,13.4612931101911,0.0252116395147937,0.011039,-0.076720,0.008797,0.451575,-3.473119,311.241491,21.584543,0.999436,0.993342,0.003423,0.494660,-0.000009,0.000020,0.000014,0.000026,-0.000014,67.911969,0.000026,
2221,3118,-0.887833208458698,10.2089248897471,0.0303388958834603,0.010390,-0.076249,0.003306,0.439735,-3.495542,313.764689,21.454525,0.999581,0.992853,0.003522,0.343852,0.000002,-0.000011,-0.000008,0.000006,-0.000015,-26.159988,0.000015,
2356,2368,2.17860503508306,-6.11757138234842,-0.0217418960701821,0.005838,-0.078541,-0.016292,0.293717,-3.634347,325.223897,19.802514,0.998915,0.984833,0.005029,0.438196,0.000473,0.000404,-0.000003,0.000473,0.000404,-2.647035,0.000878,
2101,2533,-3.40538382823845,-2.51434165835871,-0.0377333134044875,0.005264,-0.076563,-0.006464,0.235389,-3.528593,322.941842,20.835085,0.999347,0.991447,0.003993,0.409341,0.000230,0.000122,0.000038,0.000242,0.000110,17.388227,0.000360,
2476,2998,4.67286866862664,7.62221326662742,-0.00124706809003783,0.009728,-0.078351,0.005539,0.392378,-3.576773,315.396836,21.907678,0.999421,0.989724,0.003929,0.375922,0.000010,-0.000013,0.000042,0.000042,-0.000045,37.357754,0.000050,
2206,3058,-1.2043122034176,8.90633676270547,0.0174825548987201,0.009992,-0.076617,0.005414,0.415008,-3.487355,314.653234,21.279332,0.999761,0.994869,0.003035,0.404396,0.000019,-0.000019,-0.000009,0.000021,-0.000021,-12.285583,0.000024,
2026,2248,-4.99603214939608,-8.74172041767803,-0.0229631115706184,0.000715,-0.077119,-0.021982,0.069262,-3.628412,327.903257,21.022502,0.999309,0.987289,0.004573,0.407813,0.000750,0.000704,0.000097,0.000826,0.000627,38.318914,0.001458,
2131,2668,-2.77020087871526,0.423844348170014,-0.00218968792819396,0.007454,-0.075781,-0.010439,0.348149,-3.493255,321.032077,20.713306,0.999628,0.991701,0.003743,0.569993,0.000128,0.000057,0.000009,0.000129,0.000056,6.901387,0.000190,
2161,2848,-2.14895293065658,4.34370652177812,-0.0146397348016194,0.008348,-0.076326,0.001477,0.352793,-3.485803,317.891224,20.909328,0.999659,0.994053,0.003239,0.490816,0.000047,0.000073,0.000000,0.000073,0.000047,-89.910447,0.000122,
2296,2128,0.913275138260911,-11.378728196544,-0.00715774362413413,0.003459,-0.082408,-0.026458,0.216328,-3.880514,329.167104,19.313386,0.998622,0.981383,0.005570,0.368204,0.000979,0.001137,-0.000030,0.001143,0.000974,-79.441154,0.002119,
2056,2323,-4.35162685787765,-7.10250400174375,-0.00642271438567832,0.002612,-0.076546,-0.018086,0.146484,-3.568631,326.735343,20.954096,0.999046,0.984614,0.004964,0.382833,0.000585,0.000426,0.000077,0.000616,0.000394,22.045254,0.001018,
2071,2443,-4.04326135149275,-4.48011542938658,-0.0150335231033409,0.003904,-0.076121,-0.011877,0.188576,-3.524636,324.689301,20.918449,0.999077,0.988398,0.004459,0.393585,0.000362,0.000157,0.000058,0.000378,0.000142,14.807879,0.000537,
2401,2593,3.11672709857168,-1.20072958524091,-0.024004101016601,0.007267,-0.078454,-0.003687,0.314675,-3.608454,321.604663,20.417575,0.999262,0.988986,0.004345,0.396307,0.000189,0.000123,0.000018,0.000193,0.000119,14.722482,0.000315,
2431,2758,3.73882861672984,2.39832949023265,-0.0247521119845828,0.008423,-0.078036,-0.002301,0.362695,-3.577303,319.000007,20.959557,0.999410,0.989425,0.004080,0.403611,0.000074,0.000104,0.000020,0.000114,0.000064,62.997938,0.000180,
2491,3073,4.98501268108996,9.25199601478315,0.009387468523812,0.009936,-0.078265,0.006073,0.399579,-3.565710,314.303461,22.176652,0.999597,0.991510,0.003871,0.450027,0.000020,0.000002,0.000031,0.000043,-0.000021,36.778332,0.000043,
2116,2593,-3.08666272308502,-1.20777464184279,-0.0236578096534004,0.006534,-0.076332,-0.006717,0.294562,-3.502619,322.078685,20.771645,0.999527,0.991095,0.003993,0.489081,0.000168,0.000075,0.000018,0.000171,0.000072,10.442834,0.000249,
2266,2023,0.27650576756761,-13.6848364542632,-1.5957081416218E-05,0.002034,-0.084875,-0.032162,0.167691,-3.990294,330.904219,19.176749,0.998361,0.978793,0.006278,0.366411,0.001181,0.001310,0.000012,0.001311,0.001180,84.938037,0.002492,
2326,2218,1.55255508415647,-9.40530971798929,-0.00806132779558766,0.004795,-0.081303,-0.021689,0.262771,-3.797928,327.735638,19.402601,0.998479,0.979140,0.005892,0.410972,0.000770,0.000829,-0.000042,0.000851,0.000749,-62.646328,0.001600,
2116,2638,-3.09473873903162,-0.224998636160265,-0.0388296106897315,0.006771,-0.076080,-0.005495,0.301948,-3.499163,321.229948,20.871416,0.999250,0.989433,0.004152,0.405389,0.000146,0.000046,0.000014,0.000148,0.000044,7.519445,0.000201,
2221,3148,-0.893151215975468,10.8583106620161,0.0349901915027431,0.010297,-0.076785,0.007202,0.422822,-3.496916,313.296737,21.398681,0.999565,0.993421,0.003372,0.433854,0.000000,-0.000001,-0.000006,0.000006,-0.000006,-43.100965,0.000007,
2206,3118,-1.21369975567334,10.206867850088,0.0328263111563842,0.010034,-0.076715,0.006068,0.414845,-3.496317,313.801658,21.329884,0.999469,0.993086,0.003559,0.407791,0.000001,-0.000012,-0.000008,0.000005,-0.000016,-23.777021,0.000016,
2011,2173,-5.31379222276331,-10.3840103808181,-0.0110551038461608,-0.001936,-0.078699,-0.018741,-0.062117,-3.679612,329.170473,21.163579,0.998301,0.985244,0.005488,0.330809,0.000926,0.000870,0.000125,0.001026,0.000769,38.723977,0.001801,
2506,3163,5.2944656437332,11.2071042722748,0.0231303106562564,0.010364,-0.078372,0.005496,0.421048,-3.580766,313.006649,22.610429,0.999569,0.992158,0.003538,0.414013,0.000000,-0.000032,0.000020,0.000009,-0.000042,25.264373,0.000044,
2056,2368,-4.35972543206146,-6.11601490528534,-0.0285067010371449,0.002803,-0.075862,-0.016505,0.151029,-3.518830,325.830081,20.990854,0.998503,0.985187,0.005057,0.386319,0.000502,0.000327,0.000077,0.000531,0.000298,20.667831,0.000840,
2011,2218,-5.31886970149586,-9.39726636956549,-0.0184140305364053,-0.000083,-0.077314,-0.018986,0.024006,-3.611716,328.471471,21.185896,0.998931,0.987415,0.004885,0.348296,0.000822,0.000808,0.000117,0.000932,0.000698,43.265896,0.001636,
2146,2743,-2.45834295953872,2.06031883108493,-0.0221256701857442,0.007657,-0.076389,-0.000588,0.327505,-3.497798,319.566299,20.887169,0.999392,0.990101,0.004172,0.426319,0.000085,0.000064,-0.000012,0.000090,0.000058,-24.192910,0.000150,
2236,3283,-0.592287276931756,13.7873236233047,0.0187465046428201,0.010927,-0.076441,0.008228,0.448319,-3.477408,310.937643,21.670887,0.999218,0.993064,0.003562,0.423545,-0.000016,0.000034,0.000012,0.000036,-0.000019,77.128449,0.000036,
2071,2428,-4.04134388335629,-4.80722894915692,-0.0144486341353058,0.003632,-0.076358,-0.009332,0.168790,-3.513766,324.916253,20.938986,0.998828,0.986855,0.004547,0.385789,0.000392,0.000184,0.000070,0.000413,0.000163,16.941371,0.000593,
2461,2908,4.36275620780457,5.66559417391605,-0.0170306379654903,0.008761,-0.078001,0.000502,0.367508,-3.550584,316.676795,21.559429,0.998894,0.988805,0.004360,0.385426,0.000026,-0.000007,0.000038,0.000051,-0.000032,33.336330,0.000052,
2101,2548,-3.40784444550437,-2.18808052579874,-0.0401812330244979,0.005606,-0.076914,-0.002237,0.238670,-3.518385,322.682586,20.735519,0.999496,0.994025,0.003680,0.521308,0.000221,0.000112,0.000037,0.000232,0.000101,17.055970,0.000342,
2371,2443,2.49169592885361,-4.47853569357425,-0.00998204124465474,0.006032,-0.079219,-0.004997,0.262633,-3.627884,324.081722,20.010414,0.998919,0.987296,0.004836,0.398315,0.000370,0.000296,0.000013,0.000372,0.000293,9.641710,0.000667,
2221,3193,-0.900157148565246,11.8336439522539,0.0428958479235462,0.010540,-0.076680,0.005405,0.439920,-3.487111,312.643650,21.450588,0.999466,0.992762,0.003507,0.444802,-0.000002,0.000006,-0.000006,0.000009,-0.000005,-62.904500,0.000009,
2236,3223,-0.580161789771122,12.4858367640206,0.0403055051568231,0.010776,-0.076734,0.007399,0.443868,-3.486597,312.097874,21.598031,0.999322,0.992464,0.003756,0.408217,0.000001,0.000010,0.000000,0.000010,0.000001,-87.381408,0.000012,
2041,2323,-4.67886424812701,-7.10097971078534,-0.0182204141298712,0.002631,-0.076643,-0.016207,0.141809,-3.570079,326.717761,21.039567,0.998787,0.983921,0.005047,0.353346,0.000589,0.000409,0.000070,0.000613,0.000385,18.895807,0.001007,
2281,2068,0.596907850153041,-12.6959882414783,-0.00510377601551681,0.003686,-0.084562,-0.026045,0.223934,-3.959287,330.174106,19.231877,0.998427,0.982761,0.005469,0.333697,0.001109,0.001233,-0.000018,0.001235,0.001106,-81.686014,0.002343,
2191,2983,-1.51840505549548,7.27784663557429,0.00435643379148587,0.009182,-0.076440,0.001897,0.389227,-3.494751,315.786158,21.145180,0.999315,0.991886,0.003720,0.411985,0.000020,0.000002,0.000006,0.000022,0.000000,17.230331,0.000026,
2071,2458,-4.04543181978768,-4.15377962388752,-0.015776269742787,0.004159,-0.076706,-0.010803,0.197067,-3.537248,324.450125,20.832079,0.999261,0.990721,0.004246,0.465607,0.000338,0.000126,0.000043,0.000347,0.000118,11.131827,0.000483,
2086,2488,-3.72425983561538,-3.49758152216489,-0.0268017577546402,0.004668,-0.076656,-0.007942,0.212304,-3.524611,323.811009,20.813535,0.999143,0.990340,0.004216,0.460513,0.000300,0.000138,0.000041,0.000309,0.000128,13.334208,0.000450,
2191,3043,-1.52732054372145,8.58005850543023,0.0236432954449697,0.009524,-0.076757,0.005556,0.393439,-3.494102,314.972699,21.294082,0.999719,0.995033,0.003153,0.318360,0.000012,-0.000017,-0.000002,0.000012,-0.000017,-4.420523,0.000018,
2101,2593,-3.41360378658719,-1.20760041825187,-0.0238878731969976,0.005813,-0.076320,-0.004488,0.254938,-3.504921,322.106392,20.844532,0.999109,0.988764,0.004364,0.431541,0.000172,0.000069,0.000028,0.000179,0.000062,14.127435,0.000251,
2296,2188,0.903393313775954,-10.0622536290513,-0.00291031497971517,0.004444,-0.081201,-0.022231,0.247723,-3.788733,328.265763,19.529768,0.998454,0.980430,0.005734,0.374567,0.000818,0.000913,-0.000027,0.000920,0.000810,-75.058987,0.001732,
2026,2263,-4.99765726417441,-8.41150688873791,-0.0241757203180555,0.001261,-0.075994,-0.023905,0.099951,-3.580409,327.681258,21.158428,0.998698,0.982438,0.005194,0.312152,0.000720,0.000673,0.000105,0.000804,0.000588,38.723103,0.001398,
2011,2188,-5.31678444558471,-10.0518467144329,-0.0377703231167175,-0.001380,-0.078224,-0.022377,-0.026633,-3.690902,328.741938,21.239882,0.999350,0.992228,0.004303,0.234937,0.000907,0.000866,0.000142,0.001030,0.000743,40.798545,0.001781,
2281,2113,0.587773741625494,-11.7080555150693,-0.00891899606875768,0.002979,-0.083133,-0.024655,0.187503,-3.923426,329.381318,19.330990,0.998268,0.979178,0.005860,0.363743,0.001002,0.001155,-0.000016,0.001157,0.001000,-84.256442,0.002159,
2311,2143,1.23975071919339,-11.0496745135235,-0.00151654981061711,0.004803,-0.082239,-0.026048,0.277146,-3.872128,329.021552,19.352486,0.999013,0.984138,0.005333,0.285322,0.000959,0.001085,-0.000035,0.001094,0.000950,-75.631714,0.002045,
2446,2818,4.05352763799864,3.70551085304999,-0.0270359462508623,0.008698,-0.077682,-0.001214,0.371275,-3.554530,318.036909,21.108227,0.999465,0.990172,0.004007,0.492962,0.000042,0.000054,0.000016,0.000065,0.000031,55.195842,0.000098,
2041,2278,-4.67237491298514,-8.08539158371931,-0.0129861307650003,0.001985,-0.077007,-0.017768,0.116363,-3.587999,327.460294,21.043918,0.999720,0.992187,0.004166,0.347524,0.000696,0.000607,0.000097,0.000759,0.000544,32.637262,0.001309,
2266,1993,0.28072461817564,-14.3440629963434,-0.00320056505489674,0.001510,-0.085844,-0.027596,0.128331,-4.015486,331.320940,19.054576,0.997741,0.965044,0.007960,0.405373,0.001241,0.001351,-0.000016,0.001354,0.001239,-81.675662,0.002593,
2161,2863,-2.1521635185889,4.67132821095021,-0.0194126091919884,0.008126,-0.076458,0.003659,0.335855,-3.490878,317.589789,21.031474,0.999353,0.992237,0.003577,0.373421,0.000043,0.000065,-0.000002,0.000065,0.000043,-85.542740,0.000109,
2011,2233,-5.32135859198068,-9.06863676576648,-0.0170634017680413,-0.000332,-0.077079,-0.016536,0.005996,-3.574020,328.223427,21.202999,0.999141,0.984850,0.005017,0.359369,0.000787,0.000737,0.000091,0.000857,0.000667,37.312066,0.001528,
2386,2518,2.8047290629637,-2.8387972661177,-0.0175209791997304,0.006789,-0.078005,-0.008092,0.308871,-3.587000,322.857557,20.190877,0.999261,0.988635,0.004510,0.441244,0.000265,0.000202,0.000011,0.000266,0.000200,9.491317,0.000468,
2491,3088,4.98265881632846,9.57808753659361,0.0155170709376193,0.010100,-0.078148,0.005619,0.408929,-3.563889,314.118166,22.291343,0.999428,0.991190,0.003791,0.394741,0.000019,0.000002,0.000028,0.000040,-0.000019,36.773760,0.000040,
2266,2038,0.273097707858188,-13.355366779281,0.00226958665376742,0.001714,-0.085082,-0.023853,0.125643,-3.970828,330.639879,19.233938,0.998158,0.981034,0.005911,0.358009,0.001153,0.001275,0.000007,0.001276,0.001152,86.764339,0.002429,
2161,2908,-2.15809587802858,5.64769250370856,-0.00884293927038016,0.008838,-0.076321,0.000616,0.378039,-3.494463,316.988413,20.997717,0.999481,0.991617,0.003790,0.432678,0.000037,0.000031,-0.000001,0.000037,0.000031,-5.954819,0.000068,
2476,3013,4.66973451669056,7.94815995365194,0.00282214944235193,0.009434,-0.078467,0.007121,0.372828,-3.572973,315.165782,21.975735,0.999496,0.992056,0.003569,0.367421,0.000011,-0.000009,0.000042,0.000044,-0.000042,38.344332,0.000049,
2176,2923,-1.83571561416564,5.97550172556712,-0.0104544049200399,0.008504,-0.076275,0.005169,0.348231,-3.472775,316.647317,21.100168,0.999006,0.987909,0.004373,0.392428,0.000035,0.000017,0.000011,0.000040,0.000012,24.751200,0.000055,
2236,3298,-0.595312733592909,14.1125602804502,0.00904153223581261,0.011215,-0.076519,0.007530,0.463876,-3.480625,310.625716,21.670042,0.999306,0.993054,0.003472,0.440896,-0.000018,0.000014,0.000005,0.000014,-0.000019,81.807865,0.000020,
2086,2533,-3.730232879804,-2.51620163829581,-0.0197203022214012,0.005373,-0.076494,-0.006750,0.241305,-3.544517,323.171775,20.899236,0.999532,0.992441,0.003813,0.355037,0.000229,0.000112,0.000045,0.000244,0.000097,18.773299,0.000352,
2341,2293,1.865686049483,-7.75963050356969,-0.0203198413548762,0.005634,-0.079599,-0.019978,0.296427,-3.701963,326.451063,19.631476,0.998692,0.985590,0.004988,0.399794,0.000605,0.000582,-0.000031,0.000627,0.000560,-34.904007,0.001188,
2116,2668,-3.09964977353475,0.428548179912525,-0.0418643134656804,0.006986,-0.076123,-0.004087,0.307676,-3.497307,320.724194,20.873998,0.999468,0.991338,0.003779,0.412786,0.000122,0.000050,0.000013,0.000124,0.000048,10.227669,0.000177,
2461,2923,4.35940452873701,5.99213892752476,-0.0169760589150201,0.008722,-0.078205,0.004047,0.352295,-3.547537,316.416684,21.632198,0.999301,0.990182,0.004074,0.369780,0.000022,-0.000014,0.000031,0.000040,-0.000033,29.952206,0.000043,
2416,2698,3.42287073080266,1.09010293989873,-0.027473776074487,0.007732,-0.078246,0.000114,0.322217,-3.576381,319.892536,20.724462,0.999454,0.990338,0.004078,0.441476,0.000099,0.000110,0.000015,0.000121,0.000088,55.369197,0.000210,
2176,2968,-1.84101546333015,6.95120509827198,0.00333825616274908,0.009685,-0.076583,0.001719,0.413231,-3.507210,316.095038,21.105398,0.999318,0.992078,0.003666,0.388024,0.000027,0.000003,0.000008,0.000030,0.000000,17.315233,0.000035,
2056,2338,-4.35441775340553,-6.77301523221918,-0.0183765173163124,0.002759,-0.075966,-0.019295,0.156815,-3.543284,326.404001,20.966508,0.998849,0.985552,0.004875,0.392694,0.000546,0.000375,0.000070,0.000571,0.000350,19.644324,0.000930,
2356,2383,2.17558533219765,-5.78881019232931,-0.0188743173976604,0.005976,-0.079439,-0.009398,0.275538,-3.644217,324.986453,19.950451,0.999081,0.982477,0.005206,0.320849,0.000452,0.000395,-0.000006,0.000453,0.000395,-6.408217,0.000848,
2266,2008,0.279473946428624,-14.0148731603902,0.00185125781302986,0.002263,-0.085415,-0.031489,0.175763,-4.013250,331.169258,19.123984,0.998858,0.983550,0.005446,0.366960,0.001211,0.001329,-0.000005,0.001329,0.001211,-87.356946,0.002541,
2071,2503,-4.05218127030894,-3.17091480724586,-0.0220059672867592,0.004885,-0.076342,-0.008756,0.224714,-3.537189,323.698786,20.881584,0.999225,0.990961,0.004078,0.410691,0.000271,0.000132,0.000048,0.000286,0.000117,17.170785,0.000415,
2011,2248,-5.32280356514129,-8.74149494195505,-0.01532696885522,0.000204,-0.076846,-0.017973,0.034571,-3.601544,328.025853,21.158092,0.999115,0.984772,0.004920,0.367083,0.000749,0.000703,0.000072,0.000801,0.000651,36.068184,0.001455,
2131,2698,-2.77727896363642,1.08051486866907,-0.0247932595271436,0.007403,-0.076597,-0.000722,0.316485,-3.495631,320.324237,20.860905,0.999388,0.990230,0.003976,0.432555,0.000116,0.000064,0.000004,0.000117,0.000063,4.251767,0.000183,
2086,2503,-3.72611139525464,-3.17022776429983,-0.0268831617410683,0.005075,-0.076491,-0.009442,0.235416,-3.525515,323.590961,20.830465,0.999023,0.990371,0.004062,0.442772,0.000279,0.000137,0.000038,0.000288,0.000127,14.180022,0.000426,
2191,3058,-1.5296606362699,8.9047412475162,0.0188418042930039,0.009854,-0.076374,0.002065,0.419753,-3.491701,314.714343,21.194800,0.999803,0.995857,0.002925,0.434043,0.000013,-0.000028,-0.000008,0.000014,-0.000029,-10.095215,0.000029,
2011,2323,-5.3322041959448,-7.10043212490397,-0.0161040165749569,0.001555,-0.075164,-0.021456,0.106481,-3.513671,326.883905,21.177844,0.998675,0.985068,0.005142,0.385837,0.000591,0.000381,0.000064,0.000610,0.000363,15.725458,0.000983,
2206,3073,-1.20663797636582,9.23099739884026,0.0237771696035338,0.009894,-0.077017,0.006195,0.407836,-3.509747,314.454239,21.279265,0.999688,0.993266,0.003315,0.398088,0.000016,-0.000020,-0.000010,0.000019,-0.000023,-15.092966,0.000024,
2326,2233,1.54901072813739,-9.07552382334334,-0.0139877389800631,0.004448,-0.080702,-0.022083,0.248474,-3.788753,327.429349,19.483347,0.997881,0.975318,0.006427,0.376488,0.000726,0.000773,-0.000041,0.000797,0.000702,-59.950719,0.001500,
2401,2608,3.11383455098849,-0.87335136825287,-0.0193397762847098,0.007016,-0.078414,-0.002559,0.299168,-3.582321,321.384072,20.489166,0.999202,0.989532,0.004258,0.397073,0.000168,0.000111,0.000023,0.000176,0.000103,19.190994,0.000282,
2116,2653,-3.09690970133768,0.102156012755827,-0.0364897099985342,0.007090,-0.076177,-0.002101,0.306548,-3.483096,321.010672,20.922502,0.999425,0.990040,0.003939,0.374326,0.000135,0.000044,0.000015,0.000137,0.000042,8.934523,0.000187,
2281,2128,0.586012654906373,-11.3788408098691,-0.00181418610105766,0.003368,-0.082156,-0.024851,0.206319,-3.858150,329.217077,19.403736,0.998095,0.979167,0.005721,0.386974,0.000965,0.001119,-0.000018,0.001121,0.000963,-83.622920,0.002086,
2086,2548,-3.7328605625877,-2.18935811911911,-0.0254042013668254,0.005504,-0.076496,-0.005974,0.245118,-3.517384,322.885833,20.805857,0.999277,0.991244,0.004061,0.475838,0.000220,0.000103,0.000043,0.000234,0.000089,18.213997,0.000334,
2041,2338,-4.68128711990843,-6.77306495648785,-0.0171762352165388,0.002543,-0.076321,-0.013656,0.130772,-3.533825,326.473750,21.025854,0.999022,0.987669,0.004515,0.397694,0.000549,0.000354,0.000063,0.000568,0.000335,16.473669,0.000913,
2296,2143,0.9109697754932,-11.0470585535457,-0.0107564927830595,0.004252,-0.081979,-0.025133,0.248378,-3.856743,328.926056,19.541422,0.999145,0.983305,0.005323,0.197041,0.000942,0.001068,-0.000026,0.001073,0.000937,-78.656921,0.002012,
2101,2563,-3.4096467701173,-1.86049229007816,-0.034014167035366,0.005698,-0.076676,-0.003770,0.247428,-3.524081,322.499692,20.854233,0.999164,0.989164,0.004346,0.398740,0.000204,0.000107,0.000030,0.000212,0.000098,15.654036,0.000317,
2071,2473,-4.04682216565334,-3.8258191903186,-0.0164775972417601,0.004930,-0.076069,-0.014015,0.241882,-3.530641,324.246394,20.880391,0.999195,0.990207,0.004390,0.421959,0.000319,0.000127,0.000048,0.000330,0.000115,13.385929,0.000462,
2101,2608,-3.41566042183515,-0.880649961615958,-0.0234721179459143,0.005889,-0.075868,-0.008036,0.268977,-3.493149,321.880939,20.849736,0.998674,0.986789,0.004808,0.440114,0.000164,0.000057,0.000024,0.000169,0.000051,12.132352,0.000230,
2296,2203,0.900479929051755,-9.73274787946178,-0.00687558180231918,0.004856,-0.081187,-0.018034,0.252477,-3.776997,327.995235,19.590693,0.997640,0.977639,0.006161,0.358336,0.000777,0.000873,-0.000029,0.000881,0.000768,-74.301171,0.001651,
2026,2203,-4.99083964611469,-9.72589913593398,-0.0226770341693623,-0.000614,-0.077556,-0.020354,0.003653,-3.632460,328.563179,21.062049,0.998607,0.985210,0.005245,0.386378,0.000857,0.000829,0.000136,0.000980,0.000706,41.982355,0.001694,
2221,3163,-0.895206006784999,11.1837599636055,0.037243542651936,0.010488,-0.076595,0.003801,0.442740,-3.478867,313.089860,21.426587,0.999543,0.992970,0.003434,0.441913,-0.000001,0.000001,-0.000006,0.000006,-0.000006,-49.791353,0.000007,
2341,2308,1.86345582213579,-7.43317151923579,-0.00234223384154575,0.005587,-0.080870,-0.010165,0.259706,-3.725191,326.322422,19.708521,0.997823,0.982357,0.005418,0.337743,0.000571,0.000528,-0.000024,0.000582,0.000517,-23.957075,0.001100,
2146,2773,-2.46318553561546,2.71409715368613,-0.0260625295974819,0.008071,-0.076378,-0.000164,0.345359,-3.489046,319.063587,20.960971,0.999634,0.993975,0.003257,0.377114,0.000077,0.000060,-0.000009,0.000081,0.000056,-23.434210,0.000138,
2116,2683,-3.10154082977406,0.754025369542845,-0.0414806156497889,0.007295,-0.076345,-0.007084,0.330644,-3.525287,320.507827,20.808046,0.999421,0.992597,0.003575,0.454691,0.000116,0.000049,0.000011,0.000118,0.000048,9.089732,0.000170,
2056,2353,-4.35740286588207,-6.44444819556601,-0.0267185843232483,0.002703,-0.075893,-0.017024,0.147894,-3.512131,326.083802,20.931069,0.998787,0.984030,0.005082,0.456062,0.000515,0.000354,0.000079,0.000548,0.000322,22.243588,0.000879,
2221,3208,-0.902790497040346,12.159154711253,0.0483155667026267,0.010299,-0.076439,0.007216,0.423149,-3.470226,312.426403,21.514301,0.999274,0.991860,0.003777,0.415553,-0.000003,0.000006,-0.000002,0.000006,-0.000004,-76.691422,0.000006,
2506,3178,5.29239712340667,11.5328141807694,0.031311893632278,0.010635,-0.078140,0.004807,0.436355,-3.564367,312.844186,22.707747,0.999614,0.992847,0.003460,0.393161,-0.000007,-0.000025,0.000020,0.000005,-0.000038,32.846390,0.000041,
2431,2773,3.73572832443845,2.72509352714386,-0.0240753642027016,0.008262,-0.077996,-0.002042,0.354420,-3.568357,318.752806,21.008010,0.999407,0.989324,0.004174,0.414073,0.000065,0.000086,0.000019,0.000097,0.000054,59.371105,0.000153,
2266,2083,0.265056500937916,-12.364527925673,-0.0165661061517426,0.002739,-0.083383,-0.027529,0.185342,-3.921092,329.817704,19.382615,0.998940,0.983185,0.005368,0.346369,0.001057,0.001214,0.000004,0.001214,0.001057,88.433451,0.002273,
2476,3028,4.6671047540175,8.27390860540136,0.0081319645972826,0.009481,-0.078407,0.008001,0.371705,-3.561632,314.963577,22.029716,0.999657,0.993269,0.003386,0.380466,0.000011,-0.000002,0.000038,0.000043,-0.000034,40.027698,0.000045,
2131,2743,-2.78432622741683,2.06017103303282,-0.0258186268166014,0.007678,-0.076096,-0.002280,0.333945,-3.495457,319.602882,20.895718,0.999366,0.990191,0.004070,0.415875,0.000088,0.000056,-0.000006,0.000089,0.000055,-10.946790,0.000146,
2161,2923,-2.16084597809573,5.97459572664096,-0.00990636138436685,0.008634,-0.075924,-0.000143,0.371130,-3.475278,316.727798,21.074191,0.999224,0.989044,0.004184,0.385006,0.000034,0.000018,0.000006,0.000036,0.000016,17.195935,0.000053,
2176,2938,-1.83722464646083,6.30089419663192,-0.00631124246820036,0.009048,-0.076294,0.002001,0.383125,-3.485228,316.472618,21.110618,0.999264,0.990538,0.003926,0.381361,0.000031,0.000009,0.000005,0.000032,0.000008,12.599714,0.000042,
2311,2158,1.23690910175254,-10.7222720125956,-0.000490069370641777,0.004854,-0.082836,-0.022942,0.268694,-3.876495,328.780677,19.274201,0.998995,0.985129,0.005359,0.394082,0.000913,0.001017,-0.000033,0.001027,0.000903,-73.551736,0.001931,
2446,2833,4.0508476946068,4.03420091120503,-0.0230512482831955,0.008571,-0.077309,-0.002822,0.371671,-3.537157,317.824637,21.368292,0.999638,0.992265,0.003636,0.302086,0.000041,0.000046,0.000021,0.000064,0.000023,48.997600,0.000090,
2146,2818,-2.47072710864519,3.69248833684984,-0.0227255499793273,0.007921,-0.076481,0.002171,0.331351,-3.482051,318.346433,20.974765,0.999551,0.992747,0.003540,0.393844,0.000062,0.000071,-0.000005,0.000073,0.000060,-64.906374,0.000133,
2026,2278,-4.99982582714102,-8.08488939270156,-0.0192845601401359,0.001092,-0.076219,-0.022391,0.087948,-3.582970,327.469426,21.083821,0.998087,0.983464,0.005433,0.376868,0.000702,0.000611,0.000095,0.000762,0.000551,32.212176,0.001319,
2461,2938,4.35703204955331,6.31798714675111,-0.0155618009796399,0.009057,-0.078236,0.001662,0.376668,-3.567661,316.208020,21.677682,0.999432,0.991212,0.003978,0.357919,0.000022,-0.000017,0.000027,0.000036,-0.000030,27.087081,0.000039,
2011,2263,-5.32470812349161,-8.41366278643498,-0.0143126982098352,0.000426,-0.076892,-0.017827,0.044311,-3.602770,327.803012,21.147634,0.998760,0.980735,0.005188,0.366422,0.000720,0.000677,0.000087,0.000788,0.000609,37.961801,0.001401,
2086,2578,-3.73741549464789,-1.53465094111293,-0.0256715357557482,0.005676,-0.076429,-0.006080,0.253329,-3.515212,322.406230,20.877967,0.998998,0.988421,0.004429,0.405678,0.000185,0.000072,0.000027,0.000192,0.000066,12.909188,0.000267,
2491,3103,4.98004131112495,9.90414930173823,0.0160400275371444,0.010238,-0.077616,0.002414,0.427827,-3.546677,313.895322,22.355716,0.999398,0.990279,0.003795,0.405884,0.000017,-0.000012,0.000030,0.000036,-0.000031,32.146032,0.000039,
2236,3238,-0.582942188054457,12.8102646016056,0.0354922763783634,0.010842,-0.076944,0.005084,0.454313,-3.513013,311.822725,21.554329,0.999579,0.994191,0.003265,0.445506,-0.000001,0.000005,0.000003,0.000006,-0.000002,64.810437,0.000006,
2371,2458,2.48930543210797,-4.14973408844227,-0.020955500807986,0.006931,-0.078724,-0.010551,0.323744,-3.668849,323.808045,20.087386,0.998764,0.986036,0.004966,0.322977,0.000349,0.000276,0.000015,0.000352,0.000273,11.441315,0.000626,
2401,2623,3.11096914712963,-0.546083867708376,-0.0197041981404595,0.007169,-0.078361,-0.001694,0.303092,-3.578324,321.141078,20.533765,0.999073,0.988439,0.004354,0.402761,0.000154,0.000105,0.000018,0.000160,0.000098,18.346715,0.000261,
2176,2983,-1.84436236606414,7.27751016617329,0.000209383981541578,0.009345,-0.076588,0.005258,0.386625,-3.488547,315.797476,21.129838,0.999267,0.991981,0.003687,0.393782,0.000023,-0.000002,0.000006,0.000024,-0.000003,13.438055,0.000026,
2041,2473,-4.70028441777599,-3.82464118047371,-0.0279391452384061,0.004620,-0.076013,-0.011578,0.220479,-3.535455,324.297235,21.004420,0.998204,0.984183,0.005331,0.363768,0.000336,0.000101,0.000054,0.000347,0.000089,12.368033,0.000461,
2281,2143,0.583371503723974,-11.048031670644,-0.00395578652660333,0.003743,-0.082169,-0.022690,0.216323,-3.838941,328.966617,19.572968,0.998914,0.982761,0.005398,0.267586,0.000927,0.001052,-0.000013,0.001053,0.000926,-84.103510,0.001980,
2041,2353,-4.68374006257885,-6.44479724763497,-0.0224170956525995,0.002693,-0.076257,-0.013067,0.136016,-3.519924,326.193643,21.010085,0.998832,0.985840,0.004904,0.421928,0.000519,0.000341,0.000077,0.000548,0.000312,20.401154,0.000871,
2071,2518,-4.05439582003332,-2.84316303053843,-0.0261640437319102,0.005271,-0.076237,-0.008495,0.241726,-3.537222,323.438549,20.901553,0.999247,0.991865,0.003884,0.388638,0.000241,0.000117,0.000049,0.000258,0.000100,19.132179,0.000369,
2131,2713,-2.78022273603938,1.40756124338836,-0.0274703992495233,0.007159,-0.076734,0.000364,0.301933,-3.511182,320.043970,20.909974,0.999318,0.989881,0.004134,0.374007,0.000111,0.000068,-0.000001,0.000111,0.000068,-1.794455,0.000181,
2191,2998,-1.52107595420288,7.60385341243244,0.0039127916377879,0.009353,-0.076447,0.005274,0.386545,-3.480034,315.534907,21.168821,0.999454,0.992106,0.003694,0.416814,0.000019,0.000000,0.000004,0.000020,-0.000001,10.615328,0.000022,
2266,2053,0.27037161822502,-13.0249537831979,-0.00677050528838663,0.002096,-0.084090,-0.026596,0.152519,-3.949474,330.349921,19.253644,0.997806,0.980649,0.005934,0.388964,0.001121,0.001258,0.000009,0.001258,0.001120,86.439715,0.002380,
2206,3133,-1.21545717491975,10.5322898281805,0.0367381663186279,0.010545,-0.076389,0.004984,0.442022,-3.481324,313.616104,21.360892,0.999565,0.994488,0.003306,0.407681,-0.000001,-0.000007,-0.000007,0.000004,-0.000012,-34.184058,0.000013,
2056,2383,-4.36192479836639,-5.78803659604503,-0.0335217525606026,0.003244,-0.075901,-0.015649,0.168877,-3.527113,325.564376,20.984783,0.999043,0.989168,0.004543,0.380448,0.000478,0.000294,0.000067,0.000499,0.000272,18.032898,0.000782,
2386,2533,2.8012371977202,-2.51004593429859,-0.0237848067524169,0.006864,-0.077821,-0.005856,0.304402,-3.558668,322.556658,20.265449,0.999331,0.989567,0.004409,0.439729,0.000252,0.000178,0.000016,0.000256,0.000175,11.563702,0.000433,
2191,3073,-1.53171363026304,9.22947276885914,0.0241150001291999,0.009920,-0.076461,0.000531,0.427554,-3.503164,314.521673,21.183365,0.999645,0.994236,0.003237,0.447584,0.000011,-0.000028,-0.000010,0.000013,-0.000031,-13.163062,0.000031,
2086,2563,-3.73448950057946,-1.86216581479356,-0.018899774345698,0.005526,-0.076256,-0.010674,0.259744,-3.532958,322.711881,20.899734,0.998769,0.987367,0.004681,0.365936,0.000202,0.000097,0.000033,0.000212,0.000087,16.095548,0.000307,
2011,2278,-5.32659491279325,-8.08573814304297,-0.0179166486340137,0.000921,-0.077147,-0.018024,0.067507,-3.611612,327.555183,21.111451,0.998493,0.981790,0.005476,0.383944,0.000709,0.000612,0.000079,0.000753,0.000568,29.217306,0.001325,
2116,2728,-3.10879814016332,1.73362939523583,-0.0276750959579317,0.006968,-0.076375,0.001357,0.290648,-3.484717,319.852909,20.906180,0.999272,0.989400,0.004182,0.407868,0.000091,0.000053,-0.000003,0.000091,0.000053,-4.085812,0.000146,
2221,3223,-0.905786734190453,12.4847153525116,0.045722963953267,0.010311,-0.076398,0.009770,0.415518,-3.460664,312.151175,21.547008,0.999517,0.993619,0.003415,0.409979,-0.000004,0.000005,-0.000005,0.000008,-0.000006,-67.018780,0.000008,
2011,2338,-5.3347021332836,-6.77291960486928,-0.0211194133664208,0.001626,-0.075400,-0.020010,0.105760,-3.528061,326.600470,21.117355,0.998747,0.986664,0.004885,0.422048,0.000556,0.000309,0.000058,0.000569,0.000296,12.575229,0.000879,
2446,2848,4.04855174601282,4.35810722333942,-0.00996688634558041,0.008619,-0.077734,0.002381,0.354287,-3.539996,317.673136,21.280479,0.999586,0.991817,0.003606,0.439054,0.000036,0.000029,0.000022,0.000054,0.000011,40.262680,0.000070,
2251,1993,-0.0484099620846727,-14.3406451042852,-0.0325099878284618,0.001882,-0.086450,-0.031010,0.155757,-4.106713,331.128162,19.188657,0.999221,0.989864,0.004827,0.287651,0.001249,0.001352,-0.000001,0.001352,0.001249,-89.476993,0.002602,
2026,2398,-5.01560213486894,-5.46265144423164,-0.0168298611782234,0.003506,-0.075661,-0.012423,0.171666,-3.498536,325.640937,21.038466,0.999262,0.990370,0.004030,0.443118,0.000457,0.000225,0.000047,0.000466,0.000216,11.014410,0.000698,
2416,2713,3.42093027591016,1.41685587510992,-0.0239747488637931,0.007951,-0.077617,-0.006194,0.355628,-3.564029,319.710998,20.773369,0.999549,0.991202,0.003903,0.453068,0.000091,0.000107,0.000018,0.000119,0.000079,56.465628,0.000200,
2356,2398,2.17324919484029,-5.46210351022872,-0.0144433103760662,0.005927,-0.079086,-0.011976,0.282497,-3.640642,324.788101,19.916389,0.999334,0.987026,0.004733,0.398865,0.000428,0.000377,-0.000002,0.000428,0.000377,-2.695955,0.000806,
2326,2248,1.54627062750847,-8.74635725478107,-0.0150584167860188,0.004633,-0.080437,-0.021221,0.254133,-3.778723,327.183568,19.562520,0.998477,0.980562,0.005594,0.344358,0.000691,0.000690,-0.000041,0.000731,0.000649,-44.774272,0.001381,
2116,2698,-3.1035659874038,1.08108872790581,-0.0295674818328848,0.007219,-0.076167,-0.002548,0.313813,-3.500558,320.346654,20.933978,0.999310,0.990718,0.003930,0.356836,0.000110,0.000055,0.000005,0.000111,0.000055,5.112842,0.000168,
2026,2293,-5.00209373146639,-7.75669497741116,-0.017168012674631,0.001257,-0.076552,-0.016624,0.079583,-3.547015,327.237132,21.091346,0.997906,0.983720,0.005477,0.397541,0.000683,0.000576,0.000098,0.000741,0.000518,30.583053,0.001266,
2206,3088,-1.20906065709643,9.55732819379868,0.0257159455040892,0.009955,-0.076691,0.006267,0.410646,-3.480445,314.227605,21.356813,0.999467,0.992690,0.003538,0.365374,0.000015,-0.000017,-0.000010,0.000017,-0.000019,-15.676151,0.000021,
2221,3178,-0.897730450013942,11.5084564153288,0.0430624058357694,0.010164,-0.076787,0.003299,0.429249,-3.504500,312.880020,21.453506,0.999448,0.991723,0.003596,0.406755,0.000000,0.000003,-0.000006,0.000007,-0.000005,-51.952866,0.000007,
2461,2953,4.35468055907164,6.64374550004852,-0.010052630632913,0.009351,-0.078104,0.002622,0.386598,-3.564757,316.019000,21.724599,0.999425,0.991214,0.003921,0.367981,0.000021,-0.000025,0.000029,0.000035,-0.000039,25.427372,0.000043,
2476,3043,4.66403288193915,8.60001679354843,0.00736443649407192,0.009565,-0.078491,0.008549,0.373553,-3.548576,314.713181,22.078486,0.999669,0.993078,0.003479,0.400621,0.000008,0.000008,0.000046,0.000053,-0.000038,45.152418,0.000055,
2311,2173,1.23316877723991,-10.3917405196001,-0.00491556780684732,0.004182,-0.081837,-0.023120,0.238888,-3.806610,328.471129,19.354801,0.998766,0.982340,0.005478,0.419048,0.000879,0.000969,-0.000032,0.000980,0.000868,-72.193598,0.001849,
2071,2488,-4.04958374311387,-3.4980346428496,-0.0186152531431389,0.004874,-0.076009,-0.009975,0.227809,-3.510060,323.972093,20.890775,0.999362,0.991592,0.004154,0.430414,0.000293,0.000129,0.000051,0.000308,0.000115,15.837242,0.000437,
2011,2293,-5.32941368520971,-7.75471628911401,-0.0322807593701668,0.001102,-0.076330,-0.018757,0.078039,-3.566109,327.203650,21.201469,0.998827,0.986694,0.004871,0.330286,0.000690,0.000570,0.000089,0.000736,0.000523,27.942836,0.001265,
2131,2758,-2.78710392092449,2.38698490876612,-0.0263960185160386,0.007575,-0.076538,0.000440,0.320950,-3.499966,319.341448,20.943212,0.999461,0.991778,0.003732,0.369626,0.000084,0.000060,-0.000010,0.000087,0.000057,-19.491353,0.000145,
2056,2428,-4.36782532502739,-4.80707714102599,-0.0201453764137227,0.003959,-0.076607,-0.005971,0.174286,-3.511883,324.956010,20.956803,0.998521,0.985471,0.004935,0.411728,0.000394,0.000178,0.000070,0.000414,0.000157,16.368432,0.000591,
2341,2323,1.85987801574624,-7.10331793821724,-0.0157173692977608,0.005388,-0.079981,-0.016079,0.271528,-3.702906,325.979616,19.741821,0.998679,0.986916,0.004888,0.365741,0.000541,0.000486,-0.000021,0.000548,0.000479,-18.491192,0.001028,
2146,2833,-2.47164027304954,4.01755412393241,-0.0124383534972026,0.008501,-0.075940,-0.002519,0.372417,-3.484657,318.229816,20.964086,0.999565,0.993124,0.003457,0.409759,0.000057,0.000062,-0.000003,0.000063,0.000056,-68.398409,0.000119,
2101,2578,-3.41128971151069,-1.53529893056307,-0.0237148403211904,0.005808,-0.076918,-0.003263,0.250871,-3.545664,322.347104,20.809416,0.999301,0.988326,0.004285,0.423775,0.000186,0.000080,0.000026,0.000192,0.000075,13.040031,0.000275,
2281,2083,0.59391175793758,-12.3671553504075,-0.00660916568051562,0.003461,-0.084375,-0.026297,0.214553,-3.960746,329.911074,19.226511,0.998576,0.981757,0.005565,0.368931,0.001075,0.001224,-0.000021,0.001227,0.001072,-82.233006,0.002301,
2011,2353,-5.33642651267328,-6.44343008877541,-0.0281974606303947,0.002638,-0.075255,-0.018018,0.146881,-3.524818,326.340285,21.205300,0.999066,0.989686,0.004488,0.327263,0.000522,0.000316,0.000071,0.000544,0.000294,17.381129,0.000851,
2431,2788,3.73277954381332,3.05207603419311,-0.0216086791217549,0.008208,-0.078147,-0.000584,0.346484,-3.578968,318.520803,21.114368,0.999455,0.990275,0.004018,0.347184,0.000059,0.000077,0.000017,0.000088,0.000049,58.912774,0.000138,
2266,2098,0.262601922467123,-12.034657820796,-0.0167393807144549,0.003094,-0.083366,-0.025659,0.195461,-3.916434,329.584549,19.486393,0.998638,0.980573,0.005720,0.276009,0.001023,0.001178,0.000001,0.001178,0.001023,89.539233,0.002203,
2176,2953,-1.83995128238606,6.62584217368612,-0.00256462384459155,0.008843,-0.076595,0.005340,0.363224,-3.484006,316.240067,21.067592,0.999294,0.992110,0.003612,0.437259,0.000031,0.000002,0.000004,0.000031,0.000002,8.521658,0.000037,
2296,2158,0.908088877465417,-10.7193230173774,-0.014667066859829,0.004193,-0.081588,-0.027429,0.253572,-3.853772,328.657672,19.433878,0.999130,0.983474,0.005388,0.340446,0.000897,0.001006,-0.000024,0.001010,0.000892,-78.288231,0.001903,
2146,2788,-2.46584326744665,3.04006022037048,-0.028668818840913,0.008047,-0.076402,-0.000495,0.345210,-3.501881,318.798298,20.932191,0.999599,0.992915,0.003473,0.401151,0.000070,0.000063,-0.000007,0.000074,0.000059,-32.928256,0.000133,
2131,2728,-2.7821695533181,1.73289676481942,-0.02587871493904,0.007379,-0.076414,-0.002325,0.320216,-3.501624,319.832598,20.816170,0.999223,0.988536,0.004375,0.483189,0.000098,0.000062,-0.000003,0.000098,0.000062,-4.606013,0.000161,
2281,2158,0.580442015812903,-10.7197075894486,-0.0065357034545741,0.003684,-0.081998,-0.022677,0.213631,-3.835427,328.701140,19.532156,0.999273,0.983303,0.005357,0.342699,0.000886,0.000995,-0.000006,0.000995,0.000886,-86.991970,0.001882,
2071,2533,-4.05643020872025,-2.51613481137063,-0.0214441119124444,0.005392,-0.076409,-0.006512,0.241606,-3.523825,323.235240,20.926750,0.999214,0.991012,0.004065,0.374407,0.000215,0.000106,0.000054,0.000238,0.000083,22.328008,0.000333,
2191,3088,-1.53425319988789,9.55559784054688,0.0242680113540246,0.010191,-0.076335,0.003911,0.429450,-3.493514,314.279447,21.249886,0.999409,0.992418,0.003650,0.404120,0.000010,-0.000023,-0.000010,0.000013,-0.000026,-15.466950,0.000026,
2386,2548,2.79939693963556,-2.18365881542716,-0.0185944655065668,0.007364,-0.078224,-0.007681,0.333695,-3.605155,322.386511,20.305271,0.999208,0.988930,0.004546,0.397424,0.000235,0.000145,0.000018,0.000238,0.000141,10.706114,0.000384,
2296,2218,0.89730398386375,-9.40353595190218,-0.00995764353973527,0.004402,-0.080548,-0.021068,0.242154,-3.750796,327.716968,19.625447,0.998333,0.979359,0.005787,0.382626,0.000736,0.000819,-0.000030,0.000829,0.000726,-72.295906,0.001556,
2041,2368,-4.68565115899888,-6.117638047628,-0.0171349531145211,0.002802,-0.076435,-0.011537,0.136699,-3.534267,325.996871,21.029038,0.998836,0.986442,0.004834,0.382701,0.000511,0.000317,0.000076,0.000537,0.000291,19.066785,0.000840,
2401,2638,3.10794352034487,-0.218348695087023,-0.0252787360216189,0.007359,-0.078105,-0.003565,0.318734,-3.576687,320.866030,20.584238,0.999074,0.987660,0.004388,0.400088,0.000138,0.000101,0.000013,0.000142,0.000096,17.619767,0.000240,
2011,2368,-5.33811775181899,-6.11713525272781,-0.0246973074622474,0.002952,-0.075622,-0.017594,0.160077,-3.537283,326.141689,21.125840,0.999135,0.989165,0.004528,0.383790,0.000522,0.000289,0.000066,0.000540,0.000271,14.752082,0.000826,
2086,2698,-3.75582846644772,1.08022175371245,-0.0322242211926209,0.006745,-0.075483,-0.003718,0.296028,-3.473187,320.450314,20.914059,0.999300,0.991248,0.003828,0.408462,0.000110,0.000040,0.000004,0.000110,0.000040,3.051925,0.000156,
2476,3058,4.66207837929092,8.92532533969024,0.0170896985973741,0.009526,-0.078293,0.004723,0.386395,-3.563276,314.562172,22.153676,0.999614,0.990685,0.003951,0.366536,0.000010,0.000008,0.000044,0.000053,-0.000034,44.334596,0.000054,
2011,2308,-5.3318005961976,-7.42812691429842,-0.0253185551376305,0.000636,-0.076898,-0.016203,0.049493,-3.579733,326.992467,21.165820,0.998930,0.987674,0.004724,0.342061,0.000641,0.000477,0.000075,0.000670,0.000448,21.214869,0.001125,
2101,2623,-3.41873953933738,-0.552755106408128,-0.0389152232496599,0.006268,-0.076084,-0.006789,0.282686,-3.508248,321.522815,20.837690,0.998886,0.987579,0.004590,0.439324,0.000158,0.000042,0.000019,0.000161,0.000039,8.957399,0.000213,
2161,2938,-2.16281618993106,6.29988393238533,-0.00533540597348292,0.008947,-0.076004,0.000842,0.382477,-3.483164,316.533256,21.073275,0.999330,0.989514,0.004112,0.387741,0.000030,0.000008,0.000002,0.000030,0.000008,4.152790,0.000040,
2116,2743,-3.11124158455965,2.0612843230122,-0.032698740952867,0.007405,-0.076321,0.003268,0.305152,-3.478637,319.581472,20.980066,0.999386,0.990349,0.003999,0.343931,0.000079,0.000049,-0.000007,0.000081,0.000047,-12.164182,0.000129,
2056,2443,-4.36999625861214,-4.47926306674857,-0.0219147458436737,0.004059,-0.076232,-0.007998,0.184680,-3.512335,324.709505,20.978989,0.998975,0.987586,0.004614,0.385252,0.000365,0.000149,0.000057,0.000379,0.000135,13.919290,0.000533,
2176,2998,-1.84647134189525,7.60282808394071,0.00730083539997395,0.009319,-0.076433,0.005392,0.385100,-3.473278,315.610665,21.140665,0.999421,0.991773,0.003735,0.409711,0.000021,-0.000004,0.000005,0.000022,-0.000005,10.765829,0.000023,
2446,2863,4.04587790229558,4.6839572359717,-0.0080437754456284,0.008617,-0.077846,0.000329,0.361779,-3.563978,317.452272,21.312231,0.999746,0.993452,0.003279,0.435135,0.000033,0.000020,0.000024,0.000052,0.000001,37.373827,0.000060,
2506,3193,5.28936752873895,11.8577956876195,0.0347292644464119,0.010618,-0.078299,0.007323,0.425784,-3.562657,312.616192,22.727339,0.999575,0.993023,0.003475,0.435167,-0.000011,-0.000045,0.000020,-0.000001,-0.000055,24.956903,0.000064,
2266,2068,0.268088881820017,-12.6948321482978,-0.0056988453085296,0.002412,-0.083591,-0.026344,0.166374,-3.916301,330.130748,19.354032,0.998392,0.981918,0.005613,0.350570,0.001089,0.001222,0.000009,0.001222,0.001088,85.968806,0.002312,
2101,2653,-3.42293297205978,0.101164347162779,-0.0337493031532858,0.006820,-0.076209,-0.002265,0.294820,-3.493841,321.091673,20.920583,0.999293,0.989931,0.004009,0.374232,0.000139,0.000041,0.000024,0.000145,0.000035,12.721514,0.000191,
2251,2008,-0.0506583645362788,-14.0121295406462,-0.024058114247282,0.001647,-0.086039,-0.030963,0.144900,-4.055899,330.946612,19.188948,0.999100,0.986745,0.005214,0.365005,0.001213,0.001328,0.000005,0.001329,0.001212,87.452699,0.002542,
2161,2878,-2.15387529645953,4.99682075762423,-0.0134476758652795,0.008462,-0.076302,0.002612,0.354556,-3.494110,317.414391,21.039853,0.999417,0.992995,0.003514,0.371478,0.000045,0.000061,-0.000004,0.000061,0.000044,-77.878394,0.000106,
2026,2413,-5.01874761413088,-5.13463766372107,-0.0193262889178527,0.003019,-0.076026,-0.007792,0.136431,-3.497277,325.343217,21.059442,0.998934,0.987876,0.004542,0.415253,0.000435,0.000193,0.000054,0.000447,0.000182,12.093666,0.000647,
2221,3238,-0.908364355580776,12.80959320993,0.0347725543730917,0.010743,-0.076815,0.003993,0.453799,-3.509426,311.852384,21.531598,0.999672,0.994182,0.003224,0.394389,-0.000005,-0.000001,-0.000002,0.000000,-0.000006,-72.240057,0.000007,
2491,3118,4.97709050544955,10.2293449726459,0.0181183075002309,0.010283,-0.078123,0.003637,0.424991,-3.577271,313.664336,22.401651,0.999486,0.991446,0.003603,0.386821,0.000006,-0.000013,0.000027,0.000025,-0.000032,35.016961,0.000034,
2431,2803,3.73069332978693,3.37921121087773,-0.0210382909472742,0.008628,-0.077732,-0.005808,0.385280,-3.574806,318.319530,21.209336,0.999456,0.990140,0.004055,0.306205,0.000054,0.000062,0.000017,0.000076,0.000040,51.845210,0.000118,
2266,2113,0.261205291269285,-11.7068641155633,-0.00402070830671164,0.003232,-0.082310,-0.028275,0.210797,-3.886549,329.464400,19.521446,0.998676,0.980738,0.005644,0.298994,0.000987,0.001143,0.000004,0.001143,0.000987,88.467362,0.002132,
2221,3253,-0.911355625196233,13.1344873980753,0.0290296560655747,0.010918,-0.076741,0.005649,0.456566,-3.506958,311.561339,21.501121,0.999634,0.994367,0.003162,0.445023,-0.000007,0.000000,0.000007,0.000004,-0.000011,59.198000,0.000011,
2041,2488,-4.7016129686013,-3.49787551236049,-0.0229103290017747,0.005136,-0.075512,-0.013402,0.249451,-3.514128,324.125833,20.986402,0.999253,0.988547,0.004498,0.396668,0.000310,0.000105,0.000060,0.000326,0.000089,15.080329,0.000437,
2026,2308,-5.00425265643964,-7.42776740344075,-0.0266667454696972,0.001828,-0.076527,-0.017554,0.108386,-3.579928,326.945367,21.123166,0.998311,0.984757,0.005210,0.325412,0.000632,0.000489,0.000077,0.000665,0.000455,23.630713,0.001127,
2206,3148,-1.2184301795602,10.8573583957703,0.0351342658995009,0.010456,-0.076842,0.007226,0.430620,-3.498317,313.346239,21.361169,0.999475,0.993847,0.003411,0.405912,0.000000,-0.000001,-0.000006,0.000005,-0.000006,-40.945083,0.000007,
2071,2623,-4.06989421350204,-0.553523556160599,-0.0361876792161979,0.006733,-0.075653,-0.008117,0.308169,-3.494418,321.722616,20.887894,0.999026,0.989492,0.004220,0.428997,0.000150,0.000029,0.000025,0.000155,0.000024,11.362675,0.000194,
2086,2593,-3.73994078369747,-1.20770520756082,-0.020937394315979,0.005536,-0.076432,-0.000925,0.232042,-3.485896,322.181570,20.897948,0.998934,0.988847,0.004369,0.414599,0.000174,0.000062,0.000029,0.000181,0.000055,13.726748,0.000247,
2041,2383,-4.68784354202502,-5.79010826736591,-0.0211784370892474,0.002889,-0.076212,-0.015074,0.150586,-3.543371,325.735586,20.991037,0.999091,0.988996,0.004335,0.405837,0.000490,0.000285,0.000066,0.000509,0.000266,16.260927,0.000788,
2131,2803,-2.79385214731812,3.36527415436163,-0.0217376915989576,0.007869,-0.075954,0.000034,0.335862,-3.481506,318.664463,20.932418,0.999513,0.992772,0.003516,0.415906,0.000070,0.000063,0.000000,0.000070,0.000063,0.663988,0.000134,
2206,3103,-1.21116132215499,9.88160673355538,0.02839178248189,0.010228,-0.076646,0.005538,0.425496,-3.495676,314.020318,21.298081,0.999334,0.991734,0.003868,0.424806,0.000006,-0.000014,-0.000007,0.000008,-0.000016,-18.303735,0.000016,
2056,2398,-4.36337363556476,-5.46235152367939,-0.0232656515868825,0.003488,-0.075600,-0.014783,0.177707,-3.507083,325.417366,20.892696,0.998610,0.986889,0.004854,0.488392,0.000447,0.000247,0.000061,0.000464,0.000230,15.688164,0.000707,
2191,3013,-1.52281869708673,7.9283976685896,0.0156314994348463,0.009420,-0.076454,0.005771,0.388015,-3.490441,315.390152,21.168734,0.999453,0.991678,0.003744,0.420260,0.000019,-0.000009,0.000001,0.000019,-0.000009,2.444578,0.000019,
2341,2338,1.85837877933663,-6.77545039238681,-0.00980041557227196,0.006122,-0.079246,-0.017632,0.310861,-3.681827,325.825665,19.791661,0.999091,0.987938,0.004759,0.375408,0.000515,0.000463,-0.000016,0.000520,0.000459,-15.319441,0.000979,
2116,2713,-3.10578578424716,1.40670324796702,-0.0227340453718625,0.007317,-0.076845,0.002626,0.302740,-3.520022,320.149821,20.932732,0.999266,0.989264,0.004190,0.342216,0.000106,0.000059,-0.000001,0.000106,0.000059,-1.619296,0.000167,
2296,2233,0.895095976870259,-9.07429029670011,-0.0090303722301428,0.004938,-0.080054,-0.019833,0.262755,-3.712298,327.502716,19.698020,0.998629,0.980922,0.005500,0.381056,0.000687,0.000768,-0.000033,0.000780,0.000675,-70.417023,0.001456,
2416,2728,3.41752399217599,1.7442677346404,-0.0278506414440471,0.008054,-0.077622,-0.003084,0.349033,-3.539660,319.427339,20.815689,0.999506,0.991017,0.003924,0.483340,0.000080,0.000100,0.000022,0.000114,0.000066,57.557820,0.000182,
2056,2458,-4.37239867848644,-4.15267224685068,-0.020072293913131,0.003836,-0.076391,-0.007877,0.174039,-3.498365,324.472538,20.913730,0.998964,0.987629,0.004740,0.460485,0.000341,0.000116,0.000043,0.000349,0.000108,10.475972,0.000478,
2191,3103,-1.53623040797749,9.88038531721309,0.0304263875975721,0.010413,-0.076556,0.004391,0.438088,-3.507738,314.094841,21.258764,0.999409,0.992851,0.003589,0.394649,0.000002,-0.000021,-0.000008,0.000005,-0.000024,-17.840590,0.000025,
2476,3073,4.65946452075108,9.25074907490581,0.0183330577059451,0.009827,-0.078030,0.004436,0.401413,-3.561863,314.342078,22.171453,0.999596,0.991033,0.003829,0.406001,0.000010,0.000001,0.000038,0.000043,-0.000033,41.287720,0.000045,
2146,2848,-2.47441320555431,4.34406880112663,-0.0203942262782562,0.008806,-0.076223,-0.001621,0.383684,-3.491910,317.930647,20.957665,0.999570,0.993297,0.003414,0.416517,0.000048,0.000068,-0.000002,0.000068,0.000048,-83.198211,0.000116,
2146,2803,-2.46742596575359,3.3655687295217,-0.0251914399864859,0.008506,-0.076126,-0.003673,0.376089,-3.501347,318.614686,20.899803,0.999626,0.993113,0.003430,0.441924,0.000064,0.000067,-0.000004,0.000070,0.000061,-55.272396,0.000130,
2326,2263,1.54397303744682,-8.41828686715427,-0.0117598260462159,0.004930,-0.080310,-0.020316,0.264663,-3.760460,326.979409,19.583217,0.998772,0.983430,0.005108,0.378525,0.000652,0.000635,-0.000048,0.000692,0.000595,-40.015167,0.001288,
2116,2758,-3.11218685023497,2.3858275592703,-0.0199426565209819,0.007771,-0.076149,-0.001193,0.335237,-3.488038,319.475186,20.929408,0.999482,0.991316,0.003762,0.388563,0.000074,0.000053,-0.000010,0.000078,0.000049,-22.830298,0.000128,
2101,2668,-3.42510587649761,0.426808287453902,-0.0300008532547622,0.006860,-0.076427,-0.001299,0.293762,-3.501581,320.879333,20.872403,0.999400,0.991015,0.003861,0.416350,0.000124,0.000044,0.000022,0.000130,0.000039,14.676967,0.000177,
2356,2413,2.17064332827615,-5.13330700577647,-0.0187451607358184,0.006471,-0.078717,-0.012256,0.308557,-3.655056,324.535089,20.012876,0.999609,0.989807,0.004326,0.328395,0.000397,0.000351,0.000002,0.000397,0.000351,2.381687,0.000749,
2026,2323,-5.00572395860507,-7.10038031806192,-0.0233298972258353,0.002255,-0.075910,-0.019422,0.133278,-3.537488,326.756446,21.072943,0.998625,0.985189,0.005047,0.410005,0.000579,0.000398,0.000064,0.000599,0.000378,17.616071,0.000985,
2161,2953,-2.16514013360887,6.62483786785211,0.000155498767639983,0.008840,-0.076247,0.001741,0.374754,-3.481927,316.327429,21.042579,0.999442,0.991519,0.003713,0.428912,0.000030,0.000002,0.000001,0.000030,0.000002,1.846791,0.000036,
2071,2548,-4.05914664771158,-2.18862035181243,-0.0280250160259925,0.005426,-0.076084,-0.006270,0.242633,-3.496239,322.938771,20.886216,0.999312,0.991142,0.004072,0.440766,0.000208,0.000098,0.000052,0.000229,0.000078,21.574353,0.000318,
2131,2773,-2.78942237167262,2.7128888734941,-0.0251274263803225,0.007611,-0.076479,0.000152,0.323456,-3.498547,319.111171,20.920234,0.999587,0.993044,0.003428,0.399661,0.000081,0.000055,-0.000005,0.000082,0.000054,-11.151257,0.000137,
2176,3013,-1.84881761052978,7.92843401440648,0.00997967587431958,0.009351,-0.076272,0.005447,0.386485,-3.464459,315.389727,21.157903,0.999374,0.989911,0.003971,0.412850,0.000021,-0.000012,0.000003,0.000021,-0.000012,4.820536,0.000021,
2491,3133,4.9741275932468,10.5548587898027,0.0201850094090901,0.010478,-0.078454,0.006761,0.421862,-3.575021,313.432544,22.447683,0.999444,0.991444,0.003579,0.400956,0.000006,-0.000030,0.000022,0.000016,-0.000040,25.098538,0.000040,
2311,2188,1.23139844830767,-10.063717821668,0.00525593493398446,0.004399,-0.081418,-0.023052,0.248770,-3.799624,328.323917,19.428881,0.998575,0.982302,0.005419,0.386517,0.000831,0.000927,-0.000034,0.000938,0.000821,-72.520639,0.001760,
2236,3253,-0.585776528944034,13.1357479032521,0.029686236108148,0.011157,-0.076668,0.006010,0.465955,-3.493113,311.539580,21.560636,0.999571,0.994098,0.003207,0.478948,-0.000004,0.000007,0.000012,0.000014,-0.000012,57.410246,0.000015,
2446,2878,4.04221842584965,5.01157970778102,-0.0191339977637313,0.008871,-0.078011,0.000376,0.373229,-3.571870,317.125468,21.399450,0.999484,0.992293,0.003576,0.391979,0.000030,0.000023,0.000030,0.000057,-0.000004,41.823764,0.000064,
2461,2968,4.35242898031573,6.9694231425274,-0.00485381902967674,0.009674,-0.077950,0.002425,0.402352,-3.543235,315.833092,21.746722,0.999363,0.990537,0.004071,0.421353,0.000016,-0.000020,0.000037,0.000039,-0.000043,31.994106,0.000048,
2011,2383,-5.34000432765164,-5.78921287029186,-0.0189276585439302,0.003143,-0.075475,-0.013839,0.158740,-3.509990,325.946347,21.181907,0.999110,0.988928,0.004355,0.344652,0.000504,0.000253,0.000046,0.000512,0.000245,10.128520,0.000773,
2401,2653,3.10544960332188,0.108684934435118,-0.0229273518170316,0.007756,-0.078079,-0.001591,0.329851,-3.557669,320.652768,20.624951,0.999196,0.988277,0.004385,0.424667,0.000124,0.000099,0.000014,0.000130,0.000092,24.069806,0.000223,
2296,2353,0.873316414267723,-6.44775244487571,-0.00751965127591347,0.005317,-0.079078,-0.013046,0.257735,-3.666012,325.571938,19.986084,0.999442,0.988397,0.004342,0.396141,0.000447,0.000426,-0.000010,0.000451,0.000422,-22.272969,0.000873,
2026,2428,-5.02050800864385,-4.80712952590402,-0.0261212189006983,0.003709,-0.076209,-0.010913,0.176638,-3.529361,325.085139,21.031893,0.998677,0.985492,0.004927,0.402763,0.000404,0.000164,0.000061,0.000419,0.000150,13.446082,0.000589,
2011,2443,-5.34792847642457,-4.47898374477975,-0.0187049964383164,0.004073,-0.075170,-0.012758,0.198639,-3.485113,325.020706,21.184470,0.999178,0.989927,0.004204,0.324964,0.000394,0.000096,0.000041,0.000400,0.000090,7.736454,0.000522,
2161,3073,-2.18240319526083,9.22750549708669,0.0304657612107349,0.009846,-0.075947,0.002339,0.419418,-3.476838,314.668924,21.113627,0.999620,0.994572,0.003248,0.437440,0.000008,-0.000028,-0.000013,0.000013,-0.000032,-17.893553,0.000032,
2281,2278,0.558585047819957,-8.08806316578992,-0.021252020743816,0.004656,-0.079648,-0.019538,0.248672,-3.715620,326.676485,19.838249,0.999478,0.988387,0.004611,0.399353,0.000590,0.000615,-0.000018,0.000625,0.000581,-62.545926,0.001206,
2176,3028,-1.851091832193,8.25348603169908,0.0105454466029755,0.009597,-0.076580,0.005476,0.397695,-3.470797,315.161210,21.128924,0.999481,0.992072,0.003762,0.447106,0.000018,-0.000013,0.000000,0.000018,-0.000013,-0.062736,0.000018,
2251,2023,-0.0525023519977132,-13.6831957991766,-0.0112112252729162,0.001459,-0.085095,-0.031533,0.138547,-4.025855,330.805745,19.302072,0.998427,0.981896,0.005831,0.308376,0.001184,0.001308,0.000019,0.001311,0.001181,81.360571,0.002493,
2101,2638,-3.42119697608851,-0.225698114573802,-0.0391773448569097,0.006259,-0.076111,-0.006179,0.280473,-3.498618,321.275314,20.859468,0.998927,0.988514,0.004344,0.428984,0.000153,0.000042,0.000022,0.000157,0.000038,10.916315,0.000207,
2191,3118,-1.53907818721279,10.2051229639151,0.0384044545609186,0.009850,-0.076785,0.007917,0.400995,-3.508361,313.879728,21.264043,0.999395,0.993269,0.003540,0.401895,-0.000001,-0.000019,-0.000009,0.000002,-0.000023,-22.702841,0.000025,
2371,2473,2.48646270331323,-3.82269688918382,-0.0159833919678931,0.006617,-0.078621,-0.009861,0.306949,-3.647227,323.589731,20.094156,0.999106,0.987819,0.004615,0.380213,0.000327,0.000253,0.000017,0.000331,0.000249,12.323097,0.000582,
2266,2203,0.244887233247457,-9.73218034189779,-0.0155190874390883,0.004070,-0.081006,-0.023115,0.232733,-3.800289,327.939769,19.703313,0.998491,0.981907,0.005548,0.373965,0.000767,0.000854,-0.000008,0.000854,0.000767,-84.920277,0.001622,
2506,3208,5.28610379162587,12.183986266621,0.0315761331942781,0.010871,-0.078692,0.009157,0.430094,-3.588527,312.347459,22.851287,0.999311,0.991661,0.003762,0.344937,-0.000010,-0.000059,0.000012,-0.000007,-0.000061,12.791133,0.000075,
2236,2053,-0.384406367628827,-13.0246925248041,-0.00142100280112345,0.001941,-0.084426,-0.026325,0.143288,-3.962081,330.437643,19.482535,0.998153,0.978216,0.005972,0.342478,0.001116,0.001250,0.000024,0.001254,0.001112,80.307792,0.002368,
2131,2818,-2.79579240448889,3.69123554181102,-0.0180903195080759,0.007997,-0.075645,-0.002316,0.348923,-3.473379,318.464204,20.938775,0.999314,0.991215,0.003913,0.423077,0.000070,0.000066,-0.000002,0.000071,0.000065,-22.261552,0.000136,
2221,3268,-0.913932620869844,13.4592680731142,0.0254841447410286,0.011255,-0.076720,0.005879,0.471431,-3.498978,311.300680,21.471302,0.999503,0.993614,0.003377,0.500367,-0.000008,0.000012,0.000009,0.000016,-0.000012,69.136821,0.000016,
2206,3163,-1.22132277895821,11.1828899998991,0.0328426032398283,0.010218,-0.076560,0.005462,0.425298,-3.504033,313.076307,21.392819,0.999733,0.995562,0.003004,0.383843,-0.000002,0.000000,-0.000006,0.000005,-0.000008,-50.364501,0.000008,
2281,2173,0.576925423347614,-10.3917019615981,-0.0125959243646889,0.003355,-0.081935,-0.021771,0.195547,-3.826605,328.391472,19.425778,0.999068,0.982226,0.005475,0.488924,0.000855,0.000947,-0.000005,0.000948,0.000855,-86.684841,0.001803,
2191,3028,-1.52578542700085,8.25403822342712,0.0150658972626729,0.009281,-0.076768,0.008771,0.372114,-3.487729,315.124792,21.177348,0.999583,0.992990,0.003650,0.427861,0.000017,-0.000010,-0.000002,0.000017,-0.000010,-3.316312,0.000017,
2146,2878,-2.47927165538129,4.99574423680824,-0.012135450851531,0.008525,-0.075960,0.000490,0.364423,-3.478156,317.492471,20.986184,0.999448,0.992106,0.003655,0.416886,0.000045,0.000057,-0.000005,0.000059,0.000044,-70.516206,0.000103,
2071,2638,-4.072174556058,-0.226802232027083,-0.0257348794514769,0.006446,-0.075784,-0.003221,0.280967,-3.473299,321.539568,20.957316,0.999052,0.988428,0.004306,0.377980,0.000146,0.000033,0.000026,0.000152,0.000027,12.284947,0.000193,
2026,2338,-5.00795544614275,-6.77364233376905,-0.0164038844685024,0.002087,-0.076220,-0.014976,0.113298,-3.535928,326.553122,21.044236,0.998959,0.987496,0.004569,0.432221,0.000537,0.000333,0.000054,0.000551,0.000320,14.046741,0.000881,
2011,2398,-5.34176338540751,-5.4625361151728,-0.0149392608943799,0.003557,-0.075650,-0.010197,0.167861,-3.490284,325.747232,21.118840,0.998979,0.988511,0.004460,0.416830,0.000468,0.000203,0.000037,0.000473,0.000198,7.836756,0.000689,
2326,2278,1.54094746643155,-8.08865886584245,-0.0191688578315734,0.005260,-0.080178,-0.020146,0.279295,-3.757331,326.689543,19.657621,0.998781,0.983888,0.005106,0.344218,0.000619,0.000614,-0.000038,0.000654,0.000578,-43.216502,0.001233,
2461,2983,4.34945776249664,7.29584216569557,-0.00108109648124355,0.009498,-0.078034,0.003414,0.390492,-3.551551,315.607271,21.860729,0.999432,0.990360,0.003993,0.352551,0.000014,-0.000015,0.000037,0.000039,-0.000040,33.974307,0.000046,
2116,2773,-3.11490056208856,2.7119433808818,-0.0203882070799182,0.007639,-0.076349,0.000695,0.323545,-3.487244,319.216433,20.912370,0.999659,0.992936,0.003416,0.409849,0.000068,0.000049,-0.000007,0.000071,0.000047,-17.565134,0.000119,
2476,3088,4.65621209412944,9.57696658168682,0.0181775317775532,0.009756,-0.078070,0.005892,0.392648,-3.548431,314.085872,22.245435,0.999407,0.991952,0.003708,0.401168,0.000008,0.000001,0.000032,0.000037,-0.000028,41.646021,0.000038,
2056,2473,-4.37366784311046,-3.8240536888901,-0.022935004394526,0.004818,-0.076067,-0.011463,0.229398,-3.508064,324.261112,21.018509,0.998979,0.988588,0.004819,0.341662,0.000323,0.000116,0.000050,0.000334,0.000104,12.827577,0.000458,
2011,2458,-5.34931852684777,-4.1529105119626,-0.0162027474985393,0.004698,-0.074982,-0.013369,0.229056,-3.491466,324.830506,21.096881,0.999250,0.990453,0.004078,0.395587,0.000367,0.000036,0.000030,0.000370,0.000033,5.131682,0.000447,
2431,2818,3.72735220821675,3.70552400456259,-0.024247702697096,0.008685,-0.077408,-0.003709,0.380303,-3.549200,318.043055,21.182931,0.999469,0.991272,0.003947,0.408559,0.000039,0.000055,0.000019,0.000068,0.000027,56.816178,0.000097,
2086,2713,-3.75759172079539,1.40575962866463,-0.0274243886506724,0.007234,-0.075988,-0.000811,0.309951,-3.492337,320.261527,20.888456,0.999381,0.990700,0.003853,0.414260,0.000106,0.000047,-0.000002,0.000106,0.000047,-2.407211,0.000157,
2041,2398,-4.68968653289742,-5.46225524372711,-0.0254801724847766,0.003551,-0.075376,-0.015147,0.181501,-3.495257,325.488551,20.928628,0.998984,0.989454,0.004283,0.510585,0.000462,0.000238,0.000061,0.000477,0.000223,14.240785,0.000715,
2446,2893,4.03828099159792,5.33887360246558,-0.0306685122660042,0.008966,-0.078247,0.001466,0.373522,-3.570268,316.783780,21.449643,0.999376,0.991674,0.003811,0.395682,0.000032,0.000013,0.000030,0.000053,-0.000009,36.227783,0.000057,
2296,2248,0.892369134357164,-8.74645094332917,-0.0127781871062211,0.005132,-0.080240,-0.020801,0.274837,-3.735768,327.242071,19.661111,0.998876,0.983071,0.005253,0.426811,0.000656,0.000697,-0.000031,0.000714,0.000639,-61.751651,0.001353,
2056,2413,-4.36520711255299,-5.13538298469231,-0.0165145739861146,0.003876,-0.076316,-0.009039,0.179169,-3.522865,325.233368,20.923848,0.997915,0.982995,0.005471,0.437448,0.000425,0.000213,0.000066,0.000444,0.000195,15.930578,0.000655,
2206,3178,-1.22378451317218,11.5084358472674,0.0295286453866765,0.010409,-0.076472,0.002631,0.443249,-3.493690,312.820843,21.407818,0.999691,0.994998,0.003105,0.395162,-0.000003,0.000002,-0.000007,0.000007,-0.000008,-55.341627,0.000009,
2386,2563,2.79593770092365,-1.85542248067311,-0.0233339284545195,0.007261,-0.078440,-0.006602,0.325063,-3.611281,322.094405,20.391059,0.999293,0.989757,0.004260,0.349901,0.000214,0.000143,0.000022,0.000220,0.000137,15.646903,0.000361,
2266,2128,0.258270891187003,-11.3776804292301,-0.0108979532093372,0.003551,-0.082381,-0.026893,0.220833,-3.876593,329.175749,19.494770,0.998428,0.981244,0.005629,0.364252,0.000950,0.001110,0.000001,0.001110,0.000950,89.728416,0.002062,
2026,2443,-5.02196920179777,-4.47856982792259,-0.0280170605791454,0.004487,-0.075726,-0.012750,0.217567,-3.536751,324.867659,21.127605,0.999305,0.990104,0.004148,0.291283,0.000380,0.000127,0.000049,0.000390,0.000118,10.638476,0.000531,
2506,3223,5.28290278932045,12.5095735622471,0.0304684180677555,0.010759,-0.078279,0.008066,0.429416,-3.573727,312.090886,22.894886,0.999487,0.991481,0.003793,0.375803,-0.000011,-0.000078,0.000004,-0.000011,-0.000078,3.153921,0.000097,
2101,2773,-3.44071681713278,2.71247404148438,-0.0284318906551562,0.008070,-0.076097,0.000499,0.344400,-3.474349,319.239463,20.938025,0.999519,0.991441,0.003784,0.388257,0.000065,0.000043,-0.000005,0.000066,0.000042,-13.433483,0.000109,
2146,2863,-2.47754006127242,4.67086678099665,-0.0262419893342098,0.008676,-0.076141,0.000133,0.372442,-3.478904,317.626282,20.978244,0.999478,0.992751,0.003502,0.416767,0.000044,0.000061,-0.000003,0.000061,0.000043,-81.154667,0.000105,
2011,2413,-5.34496419350251,-5.13553062693537,-0.0150252736299308,0.002602,-0.075822,-0.009469,0.121889,-3.516707,325.459552,21.097670,0.998931,0.988755,0.004424,0.401403,0.000441,0.000167,0.000042,0.000447,0.000161,8.629593,0.000630,
2116,2848,-3.12643828801086,4.34286344731328,-0.018608893185899,0.008310,-0.076110,0.002868,0.348116,-3.470011,318.037169,20.942044,0.999667,0.993406,0.003386,0.414346,0.000049,0.000061,-0.000005,0.000063,0.000047,-69.359818,0.000110,
2491,3148,4.97151022757201,10.8805049828454,0.0269199036066539,0.010596,-0.078483,0.009534,0.416708,-3.560267,313.237644,22.525473,0.999395,0.990906,0.003746,0.395502,0.000006,-0.000038,0.000024,0.000017,-0.000048,23.909672,0.000049,
2401,2668,3.10257141159535,0.436004956853452,-0.0278187137627128,0.007740,-0.077997,-0.007242,0.349625,-3.586276,320.387738,20.683512,0.999235,0.989367,0.004311,0.383554,0.000109,0.000100,0.000015,0.000120,0.000089,37.517880,0.000210,
2311,2203,1.22749631718636,-9.73477495931905,0.00282230673661843,0.003972,-0.082082,-0.015779,0.204252,-3.797282,328.017165,19.463659,0.998382,0.979910,0.005774,0.389309,0.000788,0.000883,-0.000033,0.000893,0.000778,-72.572096,0.001673,
2236,2068,-0.38652604419358,-12.6959707271162,0.00560438690115461,0.002042,-0.084085,-0.024526,0.142239,-3.935668,330.253791,19.527366,0.998433,0.980413,0.005741,0.348369,0.001086,0.001209,0.000027,0.001215,0.001080,78.160335,0.002296,
2086,2608,-3.74182728621913,-0.879792483572068,-0.0292360007827028,0.006143,-0.075785,-0.007144,0.278156,-3.470998,321.915102,20.912682,0.998904,0.988620,0.004419,0.414723,0.000165,0.000052,0.000025,0.000171,0.000046,11.763241,0.000229,
2506,3238,5.27975698461052,12.8346646896756,0.0282608025906939,0.010981,-0.078281,0.009162,0.435404,-3.568553,311.831991,22.899985,0.999567,0.991127,0.003771,0.435918,-0.000013,-0.000091,-0.000004,-0.000013,-0.000091,-2.938185,0.000114,
2296,2368,0.870624008348042,-6.12023770010321,-0.00611781771817732,0.005087,-0.078744,-0.015118,0.254318,-3.658099,325.337908,19.981229,0.999119,0.985742,0.004839,0.440645,0.000419,0.000406,-0.000010,0.000425,0.000401,-28.183744,0.000826,
2446,2908,4.03575281389321,5.66436884069677,-0.0220620838872492,0.008782,-0.078376,0.002095,0.362700,-3.569189,316.600270,21.485913,0.999387,0.991313,0.003846,0.411991,0.000025,-0.000006,0.000029,0.000042,-0.000023,31.162043,0.000042,
2176,3148,-1.86962227910291,10.8552194586595,0.0321756160707878,0.010262,-0.076829,0.007644,0.421514,-3.498044,313.406601,21.240604,0.999389,0.993658,0.003527,0.398556,-0.000002,-0.000005,-0.000010,0.000007,-0.000013,-40.197269,0.000013,
2161,3088,-2.18529128692166,9.55367601287545,0.0250904690281573,0.010120,-0.076612,0.006218,0.419998,-3.487511,314.379373,21.168376,0.999461,0.991494,0.003692,0.381161,0.000007,-0.000026,-0.000016,0.000013,-0.000033,-21.844476,0.000033,
2476,3103,4.65393552069668,9.9023775506332,0.0225995355031046,0.010045,-0.078071,0.004569,0.411005,-3.552683,313.895635,22.295448,0.999366,0.991118,0.003847,0.402458,0.000009,-0.000013,0.000031,0.000031,-0.000035,35.301173,0.000039,
2281,2293,0.556072830627443,-7.75977591188197,-0.0197818505087639,0.004858,-0.079828,-0.017802,0.252085,-3.708921,326.449902,19.881658,0.999214,0.985822,0.004963,0.392429,0.000560,0.000576,-0.000010,0.000580,0.000555,-64.004733,0.001136,
2041,2503,-4.7047498464105,-3.17055126954856,-0.0234170266236333,0.004696,-0.075578,-0.006820,0.210913,-3.484570,323.840948,20.965448,0.999239,0.990272,0.004185,0.440808,0.000281,0.000114,0.000052,0.000296,0.000099,15.986185,0.000411,
2131,2833,-2.79790209875456,4.01764788863352,-0.020272749081073,0.008551,-0.076057,-0.001470,0.371839,-3.477527,318.224925,20.958592,0.999521,0.992652,0.003596,0.404558,0.000065,0.000057,-0.000002,0.000066,0.000057,-12.888395,0.000123,
2116,2788,-3.11745044144462,3.03832007840951,-0.0194856203910376,0.007711,-0.076247,0.004518,0.315608,-3.461962,318.972302,20.909831,0.999562,0.992749,0.003508,0.441186,0.000062,0.000056,-0.000003,0.000063,0.000055,-25.907549,0.000118,
2056,2548,-4.38530396693042,-2.18838165719615,-0.0313688817043953,0.005377,-0.075515,-0.008183,0.245999,-3.481904,322.996136,20.921093,0.999181,0.989766,0.004177,0.444362,0.000206,0.000088,0.000049,0.000224,0.000070,19.762934,0.000307,
2206,3298,-1.24556175792203,14.1091937538766,0.0124852198005101,0.011364,-0.076855,0.010558,0.462102,-3.493943,310.730936,21.482353,0.999421,0.993600,0.003192,0.442874,-0.000010,0.000013,-0.000008,0.000016,-0.000012,-72.572999,0.000017,
2071,2563,-4.06147715530568,-1.86098220616093,-0.0328867467673604,0.005723,-0.076204,-0.006392,0.256589,-3.496913,322.669419,20.905922,0.999083,0.989188,0.004340,0.418151,0.000190,0.000091,0.000040,0.000204,0.000076,19.388574,0.000290,
2131,2788,-2.79173731938305,3.03902919437949,-0.019516320669311,0.007559,-0.076336,0.002783,0.313263,-3.479641,318.904134,20.939529,0.999592,0.993488,0.003306,0.404821,0.000074,0.000060,-0.000003,0.000074,0.000060,-10.555248,0.000134,
2191,3223,-1.5561842721904,12.4822538770902,0.0410728364757347,0.010897,-0.076559,0.010301,0.442067,-3.477767,312.224793,21.403250,0.999684,0.994911,0.003127,0.386714,-0.000005,0.000007,-0.000014,0.000016,-0.000015,-56.294165,0.000018,
2191,3133,-1.54110035018894,10.5312559754526,0.0357301050973433,0.010459,-0.076567,0.005790,0.435930,-3.484270,313.646479,21.310251,0.999332,0.993270,0.003611,0.393473,-0.000002,-0.000011,-0.000009,0.000004,-0.000017,-31.637245,0.000018,
2101,2683,-3.42719419377853,0.753275352293457,-0.0321504899225715,0.007047,-0.076001,-0.005300,0.314183,-3.502683,320.638751,20.848420,0.999341,0.991532,0.003779,0.440941,0.000117,0.000041,0.000018,0.000120,0.000037,12.460698,0.000165,
2251,2038,-0.0555445662229026,-13.3544987272981,-0.0045795712996437,0.001187,-0.085507,-0.022813,0.097495,-4.002418,330.578845,19.334288,0.998028,0.980525,0.005919,0.326446,0.001154,0.001274,0.000016,0.001276,0.001152,82.597041,0.002429,
2176,3043,-1.85289119835702,8.57988335915586,0.0197945087683706,0.009750,-0.076025,0.005730,0.404011,-3.474358,314.999585,21.282047,0.999679,0.995650,0.003106,0.301692,0.000012,-0.000019,-0.000002,0.000012,-0.000019,-4.531389,0.000019,
2011,2473,-5.35236573756367,-3.82541491483341,-0.0190898914096351,0.004281,-0.075565,-0.009180,0.198341,-3.497183,324.534022,21.093816,0.998915,0.987691,0.004517,0.382329,0.000346,0.000032,0.000048,0.000353,0.000025,8.476827,0.000423,
2356,2428,2.16766728663756,-4.80704933729348,-0.0227346537685662,0.006501,-0.078351,-0.013848,0.315712,-3.623905,324.266803,19.839986,0.999320,0.989367,0.004468,0.573136,0.000377,0.000324,0.000005,0.000378,0.000323,5.657754,0.000702,
2266,2218,0.24205886192625,-9.40357357983466,-0.0113452961127223,0.003608,-0.080565,-0.023003,0.211328,-3.765241,327.711032,19.749694,0.998409,0.980245,0.005694,0.390969,0.000729,0.000804,-0.000010,0.000805,0.000728,-82.475388,0.001533,
2296,2263,0.888240661742721,-8.41568534609977,-0.0226362190364284,0.004621,-0.080195,-0.018708,0.244412,-3.730642,326.886428,19.806628,0.999402,0.988189,0.004658,0.319164,0.000620,0.000646,-0.000034,0.000669,0.000597,-55.921381,0.001267,
2416,2743,3.41460545507426,2.0713600329133,-0.02562534869503,0.008066,-0.077899,-0.001116,0.342269,-3.554149,319.194728,20.921219,0.999331,0.990051,0.004069,0.411134,0.000076,0.000106,0.000023,0.000119,0.000063,61.726786,0.000185,
2026,2458,-5.02475721706374,-4.15149250761014,-0.0380245112218631,0.004619,-0.075793,-0.011242,0.219515,-3.509883,324.544630,20.983711,0.999312,0.990357,0.004096,0.453801,0.000352,0.000081,0.000035,0.000357,0.000077,7.317421,0.000463,
2506,3253,5.27644466374154,13.1606511563336,0.0239391181185624,0.011097,-0.078320,0.008820,0.442111,-3.564756,311.555538,22.981396,0.999706,0.993070,0.003441,0.418121,-0.000016,-0.000080,-0.000013,-0.000013,-0.000082,-11.354291,0.000104,
2161,2968,-2.16750320378661,6.95047108941536,0.00309161813066794,0.009016,-0.076872,0.004815,0.373196,-3.503153,316.106132,21.082424,0.999559,0.992826,0.003488,0.377209,0.000027,0.000002,0.000004,0.000028,0.000001,9.402254,0.000033,
2086,2728,-3.75954333474603,1.73244441532105,-0.0295480726199457,0.007626,-0.075924,-0.003441,0.335655,-3.492052,320.026068,20.896854,0.999264,0.989857,0.004061,0.405506,0.000088,0.000042,-0.000003,0.000088,0.000042,-3.087002,0.000133,
2251,2128,-0.0693467120482794,-11.3782779117481,-0.00598725164962843,0.003271,-0.082929,-0.022277,0.192149,-3.879059,329.212560,19.561170,0.997795,0.979803,0.005959,0.381998,0.000946,0.001102,0.000015,0.001103,0.000944,84.677385,0.002049,
2026,2353,-5.01046303450093,-6.44529599730646,-0.0167185595952333,0.002063,-0.076530,-0.010962,0.101065,-3.529832,326.296529,21.091222,0.998980,0.987833,0.004669,0.383567,0.000506,0.000327,0.000068,0.000529,0.000304,18.662529,0.000844,
2221,3283,-0.917113739082243,13.7862062853582,0.0119065727525935,0.011544,-0.076964,0.003931,0.490966,-3.512487,310.959675,21.611416,0.999449,0.992843,0.003371,0.364162,-0.000012,0.000028,0.000007,0.000030,-0.000013,79.805912,0.000030,
2491,3163,4.96848518441234,11.2060933371177,0.0238535654444263,0.010465,-0.078100,0.004424,0.430447,-3.571983,312.979611,22.568329,0.999478,0.991801,0.003579,0.398840,0.000000,-0.000033,0.000023,0.000012,-0.000045,27.243958,0.000046,
2071,2653,-4.0744963218907,0.0997569526687059,-0.0301139755908366,0.006950,-0.076343,0.000193,0.294231,-3.498917,321.273661,20.937099,0.999164,0.989625,0.004147,0.369959,0.000130,0.000036,0.000025,0.000136,0.000030,13.780000,0.000177,
2371,2488,2.4831555356107,-3.49511697614668,-0.0125110111584377,0.006137,-0.078508,-0.006874,0.274428,-3.598373,323.342705,20.113972,0.999138,0.987429,0.004593,0.451688,0.000308,0.000223,0.000017,0.000311,0.000220,10.815031,0.000534,
2236,2083,-0.39032384085451,-12.3651388062699,-0.00331567764197871,0.001479,-0.083805,-0.024535,0.116584,-3.915929,329.912088,19.599985,0.998926,0.982978,0.005430,0.320567,0.001053,0.001194,0.000025,0.001198,0.001049,80.113692,0.002249,
2101,2788,-3.44263291465731,3.03813682811136,-0.0219240939518386,0.008178,-0.075724,0.001039,0.347883,-3.459064,319.053830,20.923627,0.999477,0.991303,0.003894,0.419307,0.000057,0.000053,-0.000002,0.000058,0.000052,-22.196637,0.000110,
2146,2998,-2.49675453334989,7.60031933311763,0.0114804322338955,0.009528,-0.075953,0.001217,0.408561,-3.470644,315.780033,21.034363,0.999593,0.993212,0.003471,0.434824,0.000019,-0.000005,0.000002,0.000019,-0.000005,5.360984,0.000020,
2056,2563,-4.38657948691949,-1.86239417871533,-0.0235466563383397,0.005968,-0.075905,-0.007394,0.270890,-3.488890,322.843973,20.907443,0.999264,0.989102,0.004223,0.446381,0.000190,0.000080,0.000038,0.000201,0.000068,17.216571,0.000280,
2401,2683,3.09935680624191,0.763182280555583,-0.0266233536439131,0.007731,-0.078136,-0.002483,0.331923,-3.573135,320.135767,20.742968,0.999266,0.988840,0.004326,0.383155,0.000098,0.000105,0.000018,0.000120,0.000083,50.773519,0.000204,
2056,2488,-4.37608431552173,-3.4971823721574,-0.0212107280166265,0.004747,-0.076158,-0.008840,0.218699,-3.517254,324.022894,21.010453,0.999216,0.989686,0.004420,0.336678,0.000297,0.000120,0.000054,0.000312,0.000105,15.536838,0.000434,
2266,2143,0.255728204366871,-11.0466800520257,-0.00913580098875855,0.003834,-0.082484,-0.023063,0.221145,-3.849333,328.947890,19.715845,0.999145,0.985270,0.005191,0.199168,0.000911,0.001040,0.000004,0.001040,0.000911,88.431817,0.001953,
2131,2848,-2.80104735673023,4.34416075417391,-0.0273073836803519,0.008413,-0.076481,-0.000264,0.361711,-3.493632,317.912215,20.968041,0.999579,0.993259,0.003458,0.384715,0.000056,0.000062,-0.000003,0.000063,0.000055,-68.668474,0.000118,
2176,3163,-1.87151131377079,11.1804980363806,0.0397076970000398,0.010417,-0.076508,0.007402,0.429517,-3.491501,313.232201,21.295364,0.999820,0.996640,0.002784,0.361325,-0.000006,-0.000002,-0.000012,0.000008,-0.000016,-48.654478,0.000016,
2011,2428,-5.3461949972092,-4.80738541703072,-0.021709110082611,0.003629,-0.075276,-0.015223,0.184867,-3.500751,325.224507,21.080847,0.998745,0.986962,0.004715,0.423753,0.000409,0.000134,0.000047,0.000417,0.000126,9.495707,0.000569,
2116,2863,-3.12843856842982,4.66838156808871,-0.0107182692522656,0.008364,-0.076167,0.004777,0.344888,-3.478422,317.856161,20.967424,0.999666,0.992770,0.003466,0.383534,0.000043,0.000052,-0.000005,0.000054,0.000041,-67.762345,0.000096,
2446,2923,4.03365817217403,5.99103804397405,-0.0147172418829769,0.009172,-0.078135,0.003133,0.376909,-3.545250,316.430494,21.601372,0.999660,0.993391,0.003571,0.372352,0.000022,-0.000013,0.000023,0.000033,-0.000024,26.381186,0.000034,
2281,2188,0.575132250005737,-10.061734630007,-0.00805227283615295,0.003984,-0.081287,-0.020965,0.221967,-3.800131,328.213004,19.598630,0.998495,0.979620,0.005842,0.372601,0.000812,0.000902,-0.000012,0.000903,0.000811,-82.691278,0.001715,
2026,2473,-5.027192416926,-3.82433942776903,-0.0326976260674314,0.004411,-0.076294,-0.006094,0.195672,-3.496415,324.323154,21.007765,0.998704,0.985562,0.004878,0.434770,0.000332,0.000077,0.000047,0.000340,0.000068,10.133765,0.000438,
2431,2833,3.72396405677869,4.03323997263731,-0.0248608668758266,0.008431,-0.077443,-0.002415,0.363853,-3.548854,317.776105,21.335352,0.999244,0.989605,0.004090,0.306132,0.000035,0.000048,0.000021,0.000064,0.000019,53.935373,0.000087,
2026,2368,-5.01232523588132,-6.11862513951626,-0.0136531069761077,0.002284,-0.076561,-0.010112,0.108852,-3.534664,326.088695,21.033831,0.999040,0.988167,0.004631,0.427825,0.000507,0.000303,0.000064,0.000525,0.000284,16.082504,0.000821,
2476,3118,4.65103187274481,10.227446182535,0.0253343229658185,0.010125,-0.078362,0.006590,0.406849,-3.568794,313.668854,22.318663,0.999484,0.991443,0.003635,0.418763,0.000003,-0.000014,0.000028,0.000023,-0.000035,36.419261,0.000035,
2461,2998,4.34668304371334,7.62056481713292,0.00129860965512307,0.009676,-0.078101,0.005040,0.392530,-3.559144,315.384510,21.811837,0.999372,0.989726,0.004038,0.447660,0.000012,-0.000012,0.000041,0.000042,-0.000043,36.837245,0.000049,
2146,2893,-2.48160898906997,5.32126539511871,-0.0105929555709281,0.008588,-0.076258,0.000612,0.366901,-3.486571,317.263991,20.973312,0.999416,0.990234,0.004044,0.428772,0.000040,0.000042,-0.000002,0.000044,0.000039,-57.137457,0.000083,
2506,3268,5.27276088002987,13.4871837824768,0.0188852005109084,0.011120,-0.078300,0.011028,0.434748,-3.546562,311.258379,23.099237,0.999817,0.995750,0.002840,0.378089,-0.000015,-0.000090,-0.000021,-0.000010,-0.000096,-14.444329,0.000117,
2341,2353,1.85493331411609,-6.44710780431754,-0.00921358126419136,0.005597,-0.078860,-0.015550,0.279717,-3.656025,325.556571,19.832636,0.999020,0.986020,0.004872,0.398856,0.000488,0.000429,-0.000008,0.000489,0.000428,-7.310919,0.000918,
2221,3298,-0.920578816240958,14.1110059252157,0.00606290144503419,0.011373,-0.076917,0.007272,0.472403,-3.506610,310.646236,21.582272,0.999468,0.993347,0.003214,0.416618,-0.000009,0.000011,-0.000001,0.000011,-0.000009,-87.225779,0.000012,
2041,2413,-4.69288405761747,-5.13368124962569,-0.0294326547439141,0.003211,-0.075849,-0.009297,0.149441,-3.496356,325.181554,20.990263,0.998365,0.984803,0.005057,0.442150,0.000442,0.000206,0.000066,0.000459,0.000189,14.633474,0.000666,
2041,2518,-4.70698286138855,-2.84352485691647,-0.0236481146047822,0.004825,-0.075755,-0.005521,0.213180,-3.482877,323.599115,20.952205,0.999118,0.990409,0.004219,0.449384,0.000246,0.000092,0.000053,0.000262,0.000076,17.218447,0.000355,
2161,2983,-2.1703920976077,7.27694624605642,-0.000210492597773282,0.009029,-0.076471,0.007079,0.367035,-3.477349,315.827418,21.113862,0.999528,0.993050,0.003486,0.381173,0.000022,-0.000003,0.000002,0.000022,-0.000003,3.863915,0.000024,
2491,3178,4.9667212176009,11.5312581892632,0.035888752261144,0.010698,-0.077898,0.003723,0.444025,-3.550702,312.848001,22.633181,0.999612,0.991541,0.003625,0.413080,-0.000005,-0.000027,0.000021,0.000008,-0.000040,31.786945,0.000042,
2116,2803,-3.11915467048166,3.36457301112691,-0.0154016933182675,0.007829,-0.075755,-0.000871,0.337123,-3.469562,318.784147,20.957339,0.999519,0.993271,0.003417,0.389375,0.000061,0.000060,0.000000,0.000062,0.000060,13.371257,0.000121,
2056,2578,-4.38929968207185,-1.53509434842108,-0.0265670911384746,0.005890,-0.075860,-0.004929,0.260354,-3.479419,322.565648,20.906680,0.998962,0.989181,0.004287,0.452162,0.000173,0.000059,0.000030,0.000180,0.000052,13.981117,0.000243,
2161,3103,-2.18742078599068,9.87843965366813,0.0292245461916423,0.010137,-0.076314,0.004479,0.426155,-3.490215,314.175375,21.150211,0.999577,0.993949,0.003252,0.405686,0.000001,-0.000028,-0.000014,0.000007,-0.000034,-22.459270,0.000035,
2356,2443,2.16460133522711,-4.47927243746852,-0.0141487744287474,0.005792,-0.078771,-0.011574,0.275054,-3.644700,324.054705,19.981605,0.998391,0.982288,0.005457,0.450800,0.000354,0.000296,0.000011,0.000356,0.000294,10.745063,0.000651,
2221,1993,-0.702102623684109,-14.3445317202778,0.0116187506982897,0.000447,-0.086344,-0.027211,0.076465,-4.061558,331.477310,19.429682,0.999297,0.988265,0.004879,0.303119,0.001224,0.001328,0.000002,0.001328,0.001224,88.626160,0.002552,
2206,3193,-1.22572458675196,11.8330131807121,0.035776749171589,0.010620,-0.076240,0.002113,0.454700,-3.482617,312.639257,21.393304,0.999769,0.996141,0.002950,0.436064,-0.000005,0.000006,-0.000008,0.000010,-0.000009,-62.628866,0.000011,
2086,2743,-3.76153495126922,2.05817525942385,-0.0234284155553155,0.007752,-0.076221,-0.001410,0.335500,-3.500628,319.833946,20.897137,0.999330,0.990167,0.004042,0.395633,0.000076,0.000041,-0.000007,0.000077,0.000040,-11.563646,0.000119,
2071,2578,-4.06405843943453,-1.53416721544903,-0.0325491493815662,0.005691,-0.076496,-0.002542,0.244049,-3.496152,322.417245,20.899746,0.998989,0.989142,0.004383,0.422921,0.000172,0.000068,0.000034,0.000182,0.000058,16.666303,0.000250,
2191,3148,-1.54407199158959,10.8566397721992,0.034714621037665,0.010271,-0.076773,0.007552,0.421691,-3.489223,313.378519,21.330939,0.999039,0.991918,0.003962,0.381166,0.000000,-0.000004,-0.000008,0.000007,-0.000011,-39.422898,0.000011,
2296,2383,0.86748856297589,-5.79050510001542,-0.0165351012061024,0.005383,-0.078906,-0.016135,0.271275,-3.668499,325.024791,20.088346,0.998749,0.982636,0.005425,0.355207,0.000397,0.000391,-0.000011,0.000406,0.000383,-37.954176,0.000789,
2131,2923,-2.81120736331135,5.97170062498959,-0.00487996212967801,0.009097,-0.076241,-0.000767,0.394792,-3.505358,316.913141,20.974869,0.999265,0.989616,0.004127,0.392285,0.000045,0.000012,0.000001,0.000045,0.000012,1.258481,0.000059,
2011,2488,-5.35438315619676,-3.49727094877923,-0.02803077889007,0.004970,-0.074924,-0.009727,0.231753,-3.468045,324.250407,21.065027,0.999204,0.987591,0.004444,0.429850,0.000318,0.000042,0.000061,0.000331,0.000029,11.939804,0.000400,
2071,2668,-4.07721440842968,0.426228086989568,-0.0275223607727639,0.006643,-0.076407,0.003900,0.269484,-3.483485,321.027670,20.931250,0.998984,0.989251,0.004297,0.388649,0.000113,0.000038,0.000025,0.000120,0.000030,16.932609,0.000159,
2326,2293,1.53775484394314,-7.75980459550765,-0.0178503268633676,0.004914,-0.079728,-0.017926,0.255999,-3.699974,326.434349,19.701357,0.998686,0.983815,0.005193,0.394425,0.000585,0.000577,-0.000030,0.000610,0.000551,-41.124946,0.001162,
2506,3283,5.26962457405599,13.8119114936003,0.0116883327362984,0.011412,-0.078469,0.007869,0.460343,-3.570066,310.977343,23.084677,0.999836,0.996072,0.002676,0.428807,-0.000017,-0.000101,-0.000026,-0.000009,-0.000108,-15.761568,0.000131,
2236,2098,-0.392246813809283,-12.035633526112,-0.00518792870775542,0.001999,-0.082359,-0.028473,0.153633,-3.869197,329.691847,19.608388,0.998754,0.981318,0.005674,0.383226,0.001019,0.001165,0.000027,0.001170,0.001014,79.751294,0.002187,
2026,2383,-5.01414182348286,-5.79039046244543,-0.0161325026114696,0.002567,-0.076038,-0.014668,0.134517,-3.528491,325.851694,21.059456,0.999243,0.990185,0.004053,0.400292,0.000489,0.000270,0.000052,0.000500,0.000259,12.704095,0.000771,
2146,3013,-2.49888950029042,7.92641462795102,0.0106288065731519,0.009858,-0.075992,-0.000316,0.428331,-3.491593,315.547927,21.101629,0.999350,0.991041,0.003927,0.353719,0.000020,-0.000010,0.000001,0.000020,-0.000010,2.024732,0.000020,
2266,2233,0.239240190493138,-9.07485338311111,-0.0130718213357568,0.003709,-0.080605,-0.021171,0.209925,-3.752279,327.453250,19.772074,0.998485,0.979240,0.005667,0.409554,0.000683,0.000755,-0.000017,0.000759,0.000679,-77.396116,0.001438,
2296,2278,0.886529850851467,-8.08919130846377,-0.012530962545668,0.005103,-0.080673,-0.015630,0.255990,-3.726842,326.740739,19.771738,0.999248,0.987033,0.004720,0.389811,0.000590,0.000621,-0.000028,0.000638,0.000573,-59.661079,0.001212,
2476,3133,4.64830201451673,10.5536215380835,0.0264507732223933,0.010392,-0.078548,0.007108,0.417140,-3.574761,313.442293,22.427372,0.999492,0.990662,0.003687,0.359599,0.000004,-0.000027,0.000022,0.000015,-0.000039,27.705691,0.000039,
2176,3178,-1.87318508380124,11.5040984783848,0.0502987014480141,0.010740,-0.076738,0.009522,0.437748,-3.491477,313.084381,21.222988,0.999766,0.995243,0.003020,0.445018,-0.000008,0.000001,-0.000013,0.000010,-0.000017,-54.139184,0.000018,
2236,1993,-0.374212581273927,-14.3442818563372,0.000866843590472399,0.001280,-0.085690,-0.030767,0.126936,-4.059715,331.405854,19.259913,0.999284,0.988234,0.004954,0.368494,0.001235,0.001337,-0.000004,0.001337,0.001235,-88.030291,0.002572,
2086,2623,-3.74440024981299,-0.553459339790962,-0.0377615737487531,0.006436,-0.075940,-0.007637,0.292973,-3.500234,321.616530,20.830675,0.999001,0.988756,0.004362,0.467448,0.000160,0.000035,0.000018,0.000162,0.000033,8.204672,0.000209,
2101,2698,-3.42942392773255,1.08072451933336,-0.028927905748219,0.007058,-0.075685,-0.004578,0.312749,-3.466801,320.420350,20.926540,0.999164,0.990782,0.003978,0.400209,0.000110,0.000046,0.000009,0.000111,0.000045,7.837362,0.000161,
2371,2503,2.48061716370357,-3.16685352657114,-0.0151825697893742,0.006731,-0.078576,-0.006182,0.299190,-3.611313,323.101667,20.206452,0.999213,0.988216,0.004528,0.388335,0.000283,0.000214,0.000015,0.000287,0.000211,11.759087,0.000499,
2311,2218,1.22408902964549,-9.40485313127435,-0.00951603022269865,0.003968,-0.081109,-0.019332,0.216517,-3.767914,327.684192,19.463160,0.998533,0.977869,0.005870,0.454319,0.000751,0.000828,-0.000032,0.000840,0.000739,-70.293614,0.001580,
2056,2593,-4.3924323683303,-1.20658797792046,-0.0321133890402621,0.005689,-0.076196,-0.000437,0.238328,-3.480399,322.254242,21.010141,0.998628,0.988405,0.004400,0.343293,0.000163,0.000053,0.000031,0.000171,0.000045,14.887826,0.000228,
2221,2008,-0.7057432667787,-14.012850026159,-0.000282677547829735,0.000359,-0.086117,-0.025120,0.065811,-4.027483,331.125964,19.500019,0.999114,0.986281,0.005304,0.290235,0.001191,0.001310,0.000014,0.001312,0.001189,83.258798,0.002502,
2041,2533,-4.70886401437813,-2.51547034893746,-0.0272722760495299,0.005267,-0.075358,-0.008337,0.241466,-3.471511,323.354297,20.997832,0.998863,0.989504,0.004265,0.408377,0.000219,0.000076,0.000054,0.000237,0.000057,18.598192,0.000312,
2251,2053,-0.0568178330336018,-13.0242700073255,-0.00675762744197073,0.002282,-0.084044,-0.028533,0.166809,-3.959885,330.388150,19.392756,0.998095,0.980117,0.005876,0.336949,0.001121,0.001252,0.000019,0.001255,0.001118,82.089321,0.002374,
2416,2758,3.41201631668731,2.39765964565932,-0.0263410391129923,0.008335,-0.077857,-0.002908,0.361200,-3.569418,318.963621,20.935518,0.999333,0.989004,0.004224,0.429470,0.000073,0.000105,0.000024,0.000118,0.000060,61.888833,0.000181,
2146,2908,-2.48365545095404,5.64677009434027,-0.00477792184983628,0.008680,-0.076433,0.001012,0.369869,-3.490486,317.071539,20.989252,0.999342,0.989537,0.004113,0.416391,0.000038,0.000028,-0.000003,0.000039,0.000027,-14.392863,0.000066,
2281,2308,0.554408049599875,-7.43248920764665,-0.0138255828921388,0.005353,-0.080054,-0.019105,0.279074,-3.734680,326.284727,19.915648,0.998990,0.983890,0.005345,0.362378,0.000527,0.000526,-0.000003,0.000530,0.000523,-38.584295,0.001053,
2251,2143,-0.0718518435665452,-11.048466924065,-0.00657360226944093,0.003430,-0.082242,-0.022393,0.200067,-3.829915,328.973404,19.626024,0.998306,0.981720,0.005577,0.392706,0.000909,0.001036,0.000020,0.001040,0.000906,81.100989,0.001947,
2266,2158,0.252978327016155,-10.7193033675093,-0.00585242371721506,0.003412,-0.082038,-0.024150,0.205571,-3.842370,328.718713,19.647988,0.998975,0.983472,0.005308,0.302372,0.000876,0.000984,0.000009,0.000985,0.000876,85.411056,0.001861,
2116,2878,-3.13110223278779,4.9937367618085,-0.00902721019423325,0.008164,-0.076359,0.006810,0.329548,-3.496832,317.611472,20.945528,0.999521,0.992554,0.003658,0.390177,0.000046,0.000050,-0.000007,0.000055,0.000040,-52.842403,0.000096,
2026,2518,-5.03368084402804,-2.84307263618055,-0.0352102024195347,0.004606,-0.075385,-0.009097,0.213153,-3.477048,323.593363,20.941007,0.999589,0.993791,0.003538,0.494946,0.000240,0.000071,0.000050,0.000253,0.000058,15.340557,0.000331,
2011,2683,-5.38196092706406,0.750207909607532,-0.0235657904127606,0.006408,-0.075373,-0.003828,0.281728,-3.470993,321.186294,20.930433,0.999781,0.996125,0.002876,0.415915,0.000101,0.000019,0.000036,0.000114,0.000005,20.675263,0.000135,
2131,2938,-2.81290103913928,6.29807666075089,0.00323726350211473,0.009429,-0.075843,0.000448,0.406603,-3.473459,316.747944,21.058393,0.999645,0.992623,0.003598,0.345906,0.000041,0.000004,0.000000,0.000041,0.000004,0.698758,0.000049,
2161,2998,-2.17241811871617,7.60220802546431,0.00620474258715831,0.008935,-0.076145,0.004582,0.370489,-3.472234,315.640033,21.124781,0.999590,0.993095,0.003587,0.384744,0.000022,-0.000004,0.000002,0.000022,-0.000004,4.665324,0.000023,
2176,3058,-1.85486179612264,8.90325331467521,0.025382637146663,0.009928,-0.076564,0.005298,0.413402,-3.492598,314.811941,21.150107,0.999696,0.995501,0.003110,0.427037,0.000012,-0.000028,-0.000008,0.000013,-0.000029,-10.778891,0.000029,
2281,2203,0.572437928128302,-9.7324499634958,-0.0105837319248963,0.004201,-0.080992,-0.020491,0.230432,-3.783627,327.958221,19.649760,0.998289,0.980043,0.005792,0.368576,0.000775,0.000867,-0.000015,0.000869,0.000772,-81.191648,0.001642,
2476,3148,4.64512392463779,10.8791891609614,0.0293616932275427,0.010144,-0.078534,0.008649,0.399939,-3.560309,313.203337,22.474402,0.999515,0.990192,0.003727,0.382700,0.000001,-0.000033,0.000024,0.000014,-0.000045,27.210311,0.000047,
2116,2818,-3.1215206808259,3.69076690434822,-0.0206411247283995,0.008175,-0.075833,-0.001852,0.355917,-3.481853,318.515570,20.936905,0.999460,0.992671,0.003601,0.401082,0.000062,0.000064,-0.000003,0.000066,0.000060,-50.415329,0.000126,
2386,2578,2.79289284183345,-1.52865107676427,-0.0185836405636337,0.007109,-0.078899,-0.001862,0.300935,-3.597027,321.866477,20.410594,0.999178,0.988257,0.004533,0.388799,0.000202,0.000144,0.000023,0.000210,0.000136,19.652258,0.000349,
2446,2938,4.03045472371761,6.31697105684179,-0.0197509970772671,0.009147,-0.078058,0.000346,0.386178,-3.565548,316.152730,21.609005,0.999613,0.992443,0.003699,0.396212,0.000023,-0.000016,0.000020,0.000032,-0.000024,22.552187,0.000033,
2026,2488,-5.0282337276482,-3.49799822835375,-0.0278015683236958,0.005064,-0.075343,-0.010118,0.237042,-3.481349,324.163248,20.955895,0.999270,0.986711,0.004479,0.492872,0.000304,0.000081,0.000056,0.000318,0.000068,13.310687,0.000412,
2161,3118,-2.18966586111974,10.2039341121901,0.0347654914104965,0.010234,-0.076328,0.007016,0.422928,-3.471380,313.973224,21.190022,0.999530,0.993583,0.003377,0.393787,-0.000003,-0.000024,-0.000015,0.000005,-0.000032,-27.186430,0.000035,
2041,2428,-4.69448246477568,-4.80619615187874,-0.032252042521236,0.003780,-0.076064,-0.013607,0.187528,-3.535351,324.954345,21.006007,0.998364,0.984446,0.005107,0.381221,0.000411,0.000174,0.000072,0.000431,0.000154,15.639536,0.000606,
2401,2698,3.09575330757468,1.09027710026191,-0.0323765999419265,0.007803,-0.078465,0.001267,0.321556,-3.575443,319.833174,20.757800,0.999203,0.990175,0.004182,0.411910,0.000089,0.000114,0.000019,0.000125,0.000079,62.096994,0.000205,
2191,3238,-1.55770403836125,12.8056544488332,0.0493719510508868,0.011205,-0.076857,0.007337,0.465443,-3.506793,312.072850,21.340744,0.999729,0.994923,0.003046,0.433260,-0.000006,0.000002,-0.000013,0.000012,-0.000016,-53.303647,0.000016,
2236,2008,-0.377139091423093,-14.0150057877167,0.00173920668311212,0.001233,-0.086001,-0.025821,0.108681,-4.024775,331.153896,19.256560,0.999176,0.986651,0.005178,0.431780,0.001198,0.001316,0.000005,0.001316,0.001197,87.518007,0.002514,
2131,2863,-2.80304903082078,4.66900894639369,-0.0119115701959913,0.008127,-0.076525,0.003699,0.336658,-3.486044,317.772260,20.972554,0.999551,0.992806,0.003497,0.392760,0.000051,0.000055,-0.000003,0.000057,0.000049,-57.887707,0.000106,
2341,2368,1.85094827211268,-6.11738517971495,-0.0270798506194296,0.005633,-0.078573,-0.017570,0.288547,-3.652432,325.173256,19.847605,0.998794,0.985000,0.004995,0.426538,0.000460,0.000413,-0.000005,0.000460,0.000412,-5.489049,0.000873,
2011,2503,-5.35735081955523,-3.16863237072671,-0.0351613172258567,0.004585,-0.075137,-0.010747,0.216720,-3.473703,323.933487,21.138846,0.999471,0.992320,0.003933,0.339712,0.000289,0.000065,0.000062,0.000305,0.000049,14.491194,0.000383,
2506,3298,5.26677236247591,14.1368540526829,0.0161424888466968,0.011301,-0.078535,0.008247,0.453757,-3.579322,310.761556,23.143220,0.999771,0.994298,0.003054,0.420532,-0.000020,-0.000127,-0.000038,-0.000008,-0.000139,-17.817818,0.000165,
2071,2683,-4.07932935595722,0.752583724461829,-0.0287921085492258,0.006569,-0.076049,-0.002184,0.283577,-3.487569,320.788261,20.906496,0.999248,0.991072,0.003913,0.406471,0.000106,0.000032,0.000020,0.000111,0.000027,14.347016,0.000147,
2146,2923,-2.48580907412733,5.97269520703048,-0.00400674126967715,0.008748,-0.076022,-0.002385,0.383419,-3.491173,316.847247,21.008039,0.999079,0.987135,0.004459,0.404397,0.000035,0.000016,0.000004,0.000036,0.000015,10.275243,0.000053,
2431,2848,3.72128831000308,4.35830250432787,-0.0184695624927826,0.008459,-0.077735,0.000721,0.353441,-3.553685,317.575070,21.305736,0.999276,0.988219,0.004136,0.380532,0.000028,0.000030,0.000021,0.000050,0.000008,46.351751,0.000063,
2086,2638,-3.74644432743283,-0.226375305954427,-0.0310536057363038,0.006587,-0.076016,-0.003655,0.288384,-3.494083,321.424685,20.916932,0.999100,0.988964,0.004226,0.386839,0.000155,0.000038,0.000020,0.000159,0.000034,9.538276,0.000206,
2236,2113,-0.395177126682384,-11.7083194220538,-0.0018915154989827,0.001689,-0.082803,-0.024714,0.127126,-3.895771,329.452415,19.552351,0.998911,0.981373,0.005591,0.436836,0.000983,0.001133,0.000032,0.001140,0.000977,78.363877,0.002119,
2281,2323,0.551383195307402,-7.1035170239531,-0.0127322251570945,0.005072,-0.079277,-0.017335,0.260593,-3.689736,326.032444,19.989400,0.998856,0.983585,0.005319,0.363557,0.000504,0.000487,-0.000003,0.000504,0.000486,-9.474001,0.000990,
2191,3163,-1.54733604548793,11.1828774699523,0.0226496120866386,0.010309,-0.076704,0.005799,0.428884,-3.515229,313.039157,21.388819,0.999602,0.995172,0.003155,0.310537,-0.000004,-0.000002,-0.000010,0.000007,-0.000012,-48.004232,0.000012,
2461,3013,4.34431791423055,7.94693576508694,0.0093341987364397,0.009506,-0.078023,0.003002,0.392425,-3.559699,315.205994,21.949569,0.999400,0.989987,0.003908,0.362748,0.000012,-0.000009,0.000040,0.000043,-0.000040,37.780541,0.000048,
2221,2023,-0.707770671916354,-13.6831073311217,-0.00574144009385691,0.000926,-0.085108,-0.030039,0.107855,-4.025593,330.881593,19.505678,0.998530,0.981480,0.005739,0.308922,0.001168,0.001294,0.000027,0.001299,0.001163,78.259292,0.002463,
2416,2773,3.4087280856129,2.72389845227914,-0.0220566184096924,0.007699,-0.077660,-0.002270,0.329761,-3.555381,318.723647,20.958905,0.999328,0.988606,0.004320,0.467821,0.000064,0.000086,0.000021,0.000099,0.000052,59.115897,0.000153,
2026,2533,-5.03512444457968,-2.51565349490819,-0.0314189660591069,0.005190,-0.075497,-0.008971,0.239617,-3.491530,323.408794,21.020973,0.999183,0.990047,0.004142,0.391707,0.000217,0.000051,0.000052,0.000231,0.000036,16.010979,0.000290,
2056,2503,-4.37913089010299,-3.17064181291947,-0.0263773813161379,0.004588,-0.076522,-0.004310,0.198469,-3.521090,323.718030,20.908882,0.999268,0.990017,0.004211,0.430157,0.000272,0.000125,0.000048,0.000287,0.000110,16.620147,0.000410,
2146,3028,-2.50133382767902,8.2512058270886,0.0154462288651303,0.009961,-0.076458,0.005098,0.416549,-3.492146,315.332163,21.070564,0.999347,0.991463,0.003851,0.391177,0.000019,-0.000009,0.000001,0.000019,-0.000009,1.426919,0.000019,
2491,3193,4.96398796864993,11.8561025233628,0.043808102307878,0.010564,-0.078046,0.006095,0.428747,-3.547172,312.653137,22.664282,0.999509,0.991589,0.003668,0.443064,-0.000004,-0.000042,0.000020,0.000004,-0.000051,23.101871,0.000056,
2056,2608,-4.39413473666167,-0.881142991254663,-0.0286431353325156,0.005862,-0.075994,-0.003876,0.256029,-3.494861,322.058825,20.929433,0.998858,0.989374,0.004275,0.404559,0.000156,0.000040,0.000027,0.000162,0.000034,12.663943,0.000209,
2281,2218,0.569090956949317,-9.40279587931185,-0.0158333363373231,0.003598,-0.080262,-0.025035,0.218235,-3.770330,327.659961,19.715271,0.998529,0.981006,0.005617,0.347027,0.000735,0.000815,-0.000015,0.000818,0.000732,-79.713173,0.001551,
2356,2458,2.1612973489188,-4.14920061545022,-0.0226522568196401,0.006065,-0.078399,-0.010636,0.284448,-3.619589,323.748912,20.132220,0.998997,0.986235,0.004786,0.365908,0.000330,0.000275,0.000013,0.000333,0.000272,12.917069,0.000606,
2101,2803,-3.44569158506872,3.36439644081123,-0.0240930432766504,0.007740,-0.075889,0.002175,0.324318,-3.476040,318.768791,20.933028,0.999415,0.992222,0.003675,0.394076,0.000058,0.000057,0.000001,0.000059,0.000056,29.980496,0.000114,
2071,2593,-4.06626373463938,-1.20727144521146,-0.0289831281157831,0.005799,-0.076447,0.000726,0.239697,-3.496510,322.199929,20.934688,0.998890,0.989121,0.004323,0.385064,0.000164,0.000059,0.000035,0.000175,0.000049,16.865380,0.000235,
2041,2443,-4.69539753040403,-4.4802610274108,-0.0179495011443578,0.004359,-0.075773,-0.011787,0.209137,-3.530752,324.853346,21.002185,0.998632,0.983968,0.005176,0.383055,0.000382,0.000142,0.000059,0.000396,0.000128,13.037410,0.000546,
2266,2248,0.236457148618577,-8.74598243368471,-0.0142496725995898,0.004111,-0.080800,-0.015154,0.208460,-3.740252,327.199790,19.820262,0.998643,0.981961,0.005470,0.401472,0.000655,0.000691,-0.000015,0.000697,0.000650,-69.510820,0.001346,
2476,3163,4.64233908761417,11.2053615365665,0.0242520465055236,0.010458,-0.078161,0.004198,0.431490,-3.563712,312.945723,22.550162,0.999490,0.990977,0.003734,0.359022,-0.000003,-0.000026,0.000024,0.000012,-0.000041,31.906612,0.000042,
2011,2518,-5.3593398196671,-2.84352011074655,-0.0289227646244399,0.004477,-0.075242,-0.010000,0.209691,-3.466700,323.737163,21.003658,0.999521,0.993007,0.003753,0.470856,0.000257,0.000049,0.000063,0.000275,0.000031,15.593400,0.000337,
2011,2698,-5.38382107837826,1.07681806930976,-0.0248376926340939,0.006844,-0.075003,-0.004155,0.302824,-3.448156,320.953621,20.905191,0.999788,0.995818,0.002944,0.452439,0.000102,0.000018,0.000025,0.000109,0.000011,15.524486,0.000133,
2176,3193,-1.87496650999385,11.8274740702822,0.0631297578271983,0.010597,-0.076630,0.008591,0.433998,-3.507150,312.943483,21.161046,0.999834,0.996586,0.002770,0.502352,-0.000010,0.000004,-0.000015,0.000014,-0.000020,-57.331719,0.000020,
2296,2398,0.864428578197099,-5.46287506607023,-0.0123052520360716,0.005073,-0.078874,-0.011538,0.241602,-3.634493,324.787684,20.105673,0.999008,0.985764,0.005035,0.403562,0.000375,0.000369,-0.000013,0.000385,0.000358,-38.779603,0.000743,
2116,2833,-3.12423819537525,4.01753760078265,-0.0217149146789666,0.008264,-0.076207,0.002713,0.346398,-3.477320,318.253048,20.989335,0.999626,0.993009,0.003555,0.356211,0.000058,0.000056,-0.000004,0.000061,0.000053,-39.595609,0.000114,
2326,2308,1.53516528072127,-7.43104471873237,-0.0199082711892515,0.005293,-0.079698,-0.017512,0.271960,-3.698773,326.190555,19.763601,0.998479,0.984249,0.005248,0.370087,0.000551,0.000526,-0.000022,0.000564,0.000514,-30.161125,0.001078,
2116,2893,-3.1337393917336,5.3206140840536,-0.01968374185725,0.008382,-0.076100,0.002469,0.352593,-3.486140,317.301041,20.948638,0.999330,0.992427,0.003956,0.400905,0.000043,0.000036,-0.000006,0.000046,0.000033,-29.743051,0.000079,
2446,2953,4.02774886506321,6.64294979535415,-0.0168769293575224,0.009345,-0.078035,0.002085,0.388785,-3.567968,315.934258,21.663263,0.999672,0.993373,0.003553,0.391013,0.000022,-0.000025,0.000022,0.000031,-0.000034,21.819551,0.000037,
2371,2518,2.47761026436718,-2.83949744251792,-0.0213081965208062,0.006819,-0.078433,-0.009322,0.314463,-3.619858,322.822724,20.185482,0.999146,0.986666,0.004841,0.443371,0.000260,0.000206,0.000016,0.000264,0.000202,15.064332,0.000467,
2026,2503,-5.0317160228891,-3.16811842161651,-0.0373013408231486,0.004542,-0.075164,-0.007794,0.206723,-3.445046,323.810561,21.080379,0.999526,0.992382,0.003832,0.396462,0.000273,0.000094,0.000051,0.000287,0.000081,14.955241,0.000386,
2206,3208,-1.22852867551285,12.1579361831234,0.0415211994222773,0.010559,-0.076548,0.009615,0.428012,-3.475763,312.415207,21.414981,0.999585,0.994328,0.003307,0.436446,-0.000005,0.000005,-0.000005,0.000007,-0.000007,-67.910132,0.000008,
2221,2038,-0.710538983351281,-13.3527961264746,-0.0131592003689889,0.001022,-0.084080,-0.033129,0.122466,-3.990296,330.593074,19.514215,0.998201,0.977309,0.006078,0.358572,0.001143,0.001260,0.000024,0.001265,0.001138,78.858798,0.002404,
2431,2863,3.71875866454356,4.6842289853543,-0.0156042525018734,0.008653,-0.078092,0.000513,0.363018,-3.569070,317.364114,21.343358,0.999473,0.990837,0.003729,0.377289,0.000025,0.000021,0.000023,0.000046,0.000000,42.248490,0.000053,
2386,2593,2.79015003118478,-1.20109261167595,-0.018484327452768,0.007388,-0.078490,-0.000111,0.307659,-3.580268,321.630146,20.463441,0.999351,0.987668,0.004559,0.396812,0.000190,0.000124,0.000026,0.000199,0.000115,19.374023,0.000318,
2086,2758,-3.76452187235509,2.38476693634772,-0.030915167541707,0.007732,-0.076532,0.000415,0.329239,-3.502336,319.521911,20.865746,0.999408,0.990881,0.003921,0.424608,0.000069,0.000045,-0.000013,0.000075,0.000039,-23.611744,0.000116,
2401,2713,3.09232950545988,1.41724025494808,-0.0376186664922216,0.007417,-0.078177,-0.002483,0.317587,-3.567213,319.541175,20.759515,0.999446,0.990880,0.003955,0.464520,0.000081,0.000112,0.000022,0.000123,0.000070,63.003961,0.000195,
2251,2068,-0.058636242758066,-12.6947867674639,-0.00344994333562454,0.002782,-0.082907,-0.029421,0.193053,-3.908922,330.200182,19.441737,0.998393,0.981078,0.005679,0.365471,0.001088,0.001213,0.000020,0.001216,0.001085,80.971115,0.002302,
2476,3178,4.63959772668467,11.5308585000726,0.0265622485048311,0.010637,-0.077836,0.005047,0.436724,-3.535052,312.724018,22.580355,0.999616,0.992608,0.003482,0.413065,-0.000007,-0.000022,0.000021,0.000008,-0.000036,35.254989,0.000038,
2281,2338,0.548590735430167,-6.77463053974064,-0.0140284569588403,0.005125,-0.078609,-0.016575,0.260754,-3.669040,325.778993,20.060868,0.998989,0.985857,0.004877,0.342496,0.000478,0.000463,-0.000004,0.000479,0.000462,-14.943990,0.000941,
2056,2623,-4.39543410044035,-0.554392884790374,-0.0300925733518511,0.006668,-0.075710,-0.008620,0.306598,-3.500947,321.854400,20.922064,0.999043,0.990695,0.004075,0.401129,0.000150,0.000019,0.000024,0.000154,0.000015,9.944934,0.000187,
2236,2023,-0.378624652678962,-13.6850213074087,0.00457851110564889,0.001622,-0.084273,-0.033068,0.150464,-3.987802,330.977656,19.343094,0.998220,0.981520,0.005914,0.406701,0.001172,0.001299,0.000021,0.001302,0.001169,80.673560,0.002472,
2101,2713,-3.4317696325157,1.40656496597219,-0.0268537551536951,0.007220,-0.076107,-0.000781,0.308928,-3.489572,320.191052,20.910350,0.999256,0.990049,0.004046,0.395054,0.000105,0.000051,0.000002,0.000105,0.000051,2.425717,0.000159,
2251,2158,-0.074362907033386,-10.7203659044215,-0.00195672689113735,0.003094,-0.082010,-0.024052,0.190182,-3.841901,328.760715,19.656961,0.998086,0.981495,0.005498,0.375923,0.000873,0.000986,0.000022,0.000990,0.000869,79.280118,0.001861,
2041,2548,-4.71158440830758,-2.18810858983779,-0.0354870383800971,0.005353,-0.075464,-0.007772,0.243819,-3.486058,323.045952,20.970543,0.999382,0.990221,0.003921,0.414837,0.000217,0.000071,0.000049,0.000232,0.000057,16.940715,0.000305,
2311,2233,1.22203231367607,-9.07485274564197,-0.0102922035362667,0.004677,-0.080534,-0.019973,0.251428,-3.749751,327.469746,19.607469,0.998411,0.978882,0.005811,0.362827,0.000704,0.000772,-0.000032,0.000785,0.000692,-68.413165,0.001478,
2296,2293,0.883822846183872,-7.7600734625906,-0.00955718974603315,0.005065,-0.080189,-0.013414,0.246963,-3.692806,326.513623,19.878561,0.999202,0.986669,0.004732,0.349116,0.000559,0.000580,-0.000020,0.000592,0.000547,-59.238666,0.001139,
2191,3178,-1.54890359622028,11.5071761219742,0.0297849707298496,0.010915,-0.076652,0.006791,0.453819,-3.491255,312.878586,21.337813,0.999815,0.996568,0.002869,0.399133,-0.000005,0.000002,-0.000010,0.000009,-0.000012,-53.566696,0.000013,
2191,3253,-1.5611956051702,13.1316319151548,0.0381341976272438,0.011144,-0.076471,0.008177,0.460187,-3.483258,311.727274,21.356843,0.999668,0.994496,0.003118,0.454043,-0.000006,0.000004,-0.000005,0.000006,-0.000008,-67.386547,0.000009,
2056,2518,-4.38020174553491,-2.84297185226317,-0.0254627205221141,0.005388,-0.075603,-0.010292,0.252398,-3.507285,323.536648,20.953126,0.999100,0.990223,0.004201,0.395578,0.000238,0.000107,0.000049,0.000255,0.000091,18.337058,0.000358,
2356,2473,2.15862906278251,-3.82200321629774,-0.0180857866137103,0.006102,-0.078817,-0.007792,0.276029,-3.620815,323.535662,20.172651,0.999453,0.988501,0.004295,0.364238,0.000308,0.000251,0.000015,0.000312,0.000248,13.976602,0.000561,
2011,2923,-5.41514480030564,5.96620505493361,-0.000892783286076337,0.008401,-0.075122,0.002882,0.355537,-3.418088,317.555508,20.803650,0.999317,0.992918,0.003392,0.402792,0.000036,0.000005,-0.000012,0.000040,0.000001,-18.574645,0.000047,
2026,2758,-5.06694806182014,2.3825330397279,-0.0257496261644974,0.007473,-0.075591,0.000046,0.319954,-3.448351,319.895299,20.857255,0.999013,0.990021,0.004265,0.459941,0.000051,0.000030,-0.000007,0.000053,0.000028,-16.612582,0.000083,
2161,3133,-2.19222600138832,10.5289332255784,0.0328500381760364,0.010282,-0.076391,0.006064,0.428045,-3.479576,313.717397,21.168412,0.999418,0.993430,0.003545,0.416232,-0.000002,-0.000013,-0.000016,0.000009,-0.000024,-34.744426,0.000025,
2131,2953,-2.81572888159495,6.62306848876122,0.00611519473017097,0.009165,-0.075981,0.004705,0.381690,-3.463583,316.503201,21.003167,0.999634,0.992524,0.003492,0.415885,0.000040,-0.000002,0.000000,0.000040,-0.000002,0.318698,0.000045,
2266,2173,0.249343173564288,-10.3912612651169,-0.0113667629248653,0.003095,-0.082385,-0.020459,0.178731,-3.838250,328.404886,19.555211,0.999398,0.983822,0.005186,0.427953,0.000846,0.000936,0.000009,0.000937,0.000845,84.605894,0.001782,
2116,2908,-3.13496882920232,5.64566793485074,-0.00445737353703635,0.008833,-0.076312,0.005858,0.363333,-3.472683,317.194985,20.973613,0.999216,0.990908,0.004082,0.392311,0.000041,0.000021,-0.000007,0.000043,0.000019,-18.402943,0.000063,
2131,2878,-2.80485550459519,4.99328092877654,-0.00271680137058183,0.008071,-0.076302,0.002012,0.339161,-3.496070,317.608362,20.898194,0.999480,0.992445,0.003562,0.462377,0.000054,0.000052,-0.000006,0.000060,0.000047,-40.592412,0.000106,
2026,2548,-5.03665954933367,-2.18901898811455,-0.0252234013453858,0.005651,-0.075420,-0.006915,0.255207,-3.484393,323.233606,21.033233,0.999450,0.990982,0.003733,0.377491,0.000218,0.000050,0.000047,0.000230,0.000037,14.698624,0.000290,
2146,2938,-2.48788541740715,6.29920713804501,-0.00215142675051538,0.009180,-0.075969,-0.000437,0.397421,-3.488549,316.632060,21.089248,0.999409,0.990224,0.003953,0.332918,0.000032,0.000008,0.000002,0.000032,0.000008,4.482875,0.000042,
2176,3073,-1.85754669180455,9.22772474251409,0.0259399635075397,0.009708,-0.076438,0.004470,0.405873,-3.494957,314.564703,21.074624,0.999682,0.995403,0.003058,0.511519,0.000010,-0.000030,-0.000010,0.000012,-0.000032,-13.965645,0.000032,
2221,2053,-0.713318019820267,-13.0230036589272,-0.0146668951734341,0.001170,-0.084100,-0.029495,0.117681,-3.995088,330.334493,19.588094,0.998029,0.977871,0.006068,0.302389,0.001112,0.001241,0.000027,0.001246,0.001106,78.676942,0.002354,
2296,2413,0.861969673076157,-5.13366904598593,-0.0197148526586375,0.005518,-0.077882,-0.016575,0.279360,-3.634102,324.520385,20.194291,0.999167,0.987517,0.004718,0.347031,0.000349,0.000342,-0.000017,0.000362,0.000328,-39.107843,0.000691,
2476,3193,4.63661767103822,11.8557198016991,0.0304380425275781,0.010670,-0.078149,0.008575,0.424715,-3.537771,312.498571,22.596026,0.999506,0.992398,0.003485,0.450094,-0.000006,-0.000033,0.000018,0.000003,-0.000042,26.510599,0.000046,
2071,2698,-4.08143315184458,1.07902756423237,-0.0272353365144227,0.006808,-0.075901,-0.000661,0.290246,-3.479399,320.564788,20.905503,0.999278,0.991777,0.003778,0.412826,0.000103,0.000034,0.000010,0.000104,0.000033,7.974180,0.000143,
2326,2323,1.53240780629261,-7.1027622530987,-0.020829200858941,0.005429,-0.079463,-0.016892,0.276175,-3.685370,325.944576,19.786756,0.998247,0.983262,0.005529,0.396749,0.000523,0.000489,-0.000017,0.000530,0.000482,-22.261347,0.001013,
2491,3208,4.96081589396793,12.1819900656702,0.0401520338558043,0.010943,-0.078314,0.008177,0.438034,-3.560381,312.385308,22.743866,0.999390,0.992005,0.003703,0.407741,0.000000,-0.000051,0.000010,0.000002,-0.000053,10.510557,0.000060,
2086,2653,-3.74815845303369,0.0993286583353736,-0.0219984801426563,0.006959,-0.076514,0.000993,0.291941,-3.495654,321.261140,20.907745,0.999419,0.990158,0.003891,0.393655,0.000141,0.000038,0.000021,0.000145,0.000034,11.038800,0.000190,
2146,3043,-2.50403701880097,8.57692430057752,0.0143145711431885,0.009894,-0.076487,0.005843,0.411212,-3.484587,315.072567,21.081000,0.999404,0.993139,0.003395,0.395586,0.000014,-0.000014,-0.000003,0.000014,-0.000014,-6.543625,0.000016,
2461,3028,4.34143910862811,8.27286126788103,0.0144318205954619,0.009341,-0.078069,0.004363,0.379752,-3.552008,314.990399,22.021516,0.999647,0.991905,0.003705,0.352088,0.000012,-0.000002,0.000038,0.000043,-0.000033,39.582456,0.000045,
2011,2713,-5.38673426105945,1.40449010841427,-0.0347606353385004,0.006728,-0.074779,-0.004774,0.299223,-3.446502,320.623944,20.933084,0.999658,0.994369,0.003393,0.414624,0.000098,0.000038,0.000014,0.000101,0.000035,12.143254,0.000142,
2416,2788,3.40547136598778,3.05237921703793,-0.0261714111926494,0.007829,-0.077873,-0.001042,0.331162,-3.564684,318.445263,21.150234,0.999381,0.988950,0.004271,0.315188,0.000060,0.000078,0.000020,0.000091,0.000047,57.214127,0.000140,
2431,2878,3.71601059555404,5.01109286212888,-0.0177962031714856,0.008968,-0.077899,-0.000585,0.381664,-3.556566,317.119249,21.406110,0.999456,0.991798,0.003561,0.377021,0.000023,0.000023,0.000028,0.000051,-0.000005,45.287511,0.000056,
2356,2488,2.1563366529355,-3.49523308477296,-0.013658861864144,0.006328,-0.078499,-0.007430,0.285267,-3.593544,323.338923,20.148366,0.999285,0.988049,0.004428,0.455865,0.000289,0.000222,0.000015,0.000293,0.000219,12.457697,0.000513,
2191,3268,-1.56458895589223,13.4569586348083,0.0255439176434038,0.011204,-0.076576,0.007972,0.463534,-3.493306,311.379358,21.344236,0.999445,0.992442,0.003539,0.469666,-0.000006,0.000012,-0.000004,0.000013,-0.000006,-77.816866,0.000013,
2086,2773,-3.76601966297519,2.7117536542649,-0.0265787844185184,0.008277,-0.075886,-0.000615,0.357560,-3.469133,319.342254,20.933780,0.999520,0.991325,0.003924,0.388828,0.000065,0.000041,-0.000011,0.000069,0.000037,-21.409860,0.000107,
2176,3208,-1.87876094539192,12.1552028819993,0.0434925402942667,0.010630,-0.076578,0.007379,0.439390,-3.502694,312.537896,21.293808,0.999660,0.995010,0.003094,0.384953,-0.000009,0.000004,-0.000013,0.000012,-0.000017,-57.928551,0.000017,
2056,2533,-4.38228309163071,-2.51684715376891,-0.0202859699836608,0.005416,-0.075876,-0.008122,0.247544,-3.486790,323.332895,20.892293,0.998766,0.988600,0.004492,0.472353,0.000211,0.000094,0.000053,0.000232,0.000073,21.059205,0.000319,
2236,2128,-0.397463524905667,-11.37692287959,-0.0046337139087882,0.002240,-0.082063,-0.024269,0.151236,-3.865822,329.210921,19.751611,0.998259,0.980633,0.005712,0.291551,0.000946,0.001100,0.000029,0.001105,0.000941,79.525587,0.002048,
2011,2938,-5.41730607048961,6.29179598848108,-0.00427613099833479,0.008724,-0.075316,0.002994,0.370091,-3.422442,317.297982,20.766959,0.999559,0.993795,0.003281,0.422882,0.000030,-0.000005,-0.000001,0.000030,-0.000005,-2.174194,0.000032,
2056,2638,-4.3978867189073,-0.226791685012586,-0.0334196164306491,0.006798,-0.075358,-0.007582,0.309730,-3.485418,321.586556,20.960322,0.999058,0.989884,0.004198,0.373777,0.000146,0.000027,0.000025,0.000151,0.000022,11.505630,0.000188,
2281,2233,0.567100435491728,-9.07450071116743,-0.00987147140949673,0.004173,-0.080732,-0.020824,0.230385,-3.759096,327.479723,19.780513,0.998629,0.980729,0.005548,0.322916,0.000687,0.000763,-0.000020,0.000767,0.000682,-76.169400,0.001451,
2071,2608,-4.06852399412541,-0.879313764171613,-0.035088652289005,0.006098,-0.076209,-0.001822,0.260832,-3.484522,321.926869,20.975626,0.999009,0.990088,0.004137,0.353677,0.000156,0.000048,0.000031,0.000164,0.000040,14.913995,0.000216,
2371,2533,2.47427156789582,-2.51102271354518,-0.0207855655085041,0.006520,-0.078208,-0.006631,0.291330,-3.592456,322.559893,20.296524,0.999174,0.987593,0.004683,0.401760,0.000248,0.000185,0.000019,0.000253,0.000179,15.913647,0.000434,
2026,2773,-5.06959453513557,2.71052852310697,-0.0335717172857244,0.007494,-0.075282,-0.001358,0.324870,-3.449146,319.590977,20.954882,0.999329,0.990862,0.004123,0.352010,0.000053,0.000024,-0.000006,0.000054,0.000023,-10.640906,0.000080,
2116,2923,-3.13686868871715,5.97164454939524,-0.00747372205540842,0.008980,-0.075476,-0.003350,0.397628,-3.470459,316.959779,20.966525,0.998945,0.989544,0.004291,0.404924,0.000038,0.000010,0.000001,0.000038,0.000010,1.362830,0.000051,
2401,2728,3.09009757640453,1.74421540051324,-0.0301737674815854,0.007722,-0.078110,0.000093,0.322308,-3.549863,319.363655,20.860561,0.999502,0.990383,0.004093,0.426588,0.000069,0.000105,0.000024,0.000117,0.000057,63.375191,0.000177,
2011,2533,-5.36076514650606,-2.51649001513177,-0.0268119982785606,0.005110,-0.075341,-0.010579,0.240353,-3.487653,323.543082,21.038637,0.999091,0.988960,0.004401,0.403892,0.000232,0.000031,0.000067,0.000253,0.000010,16.902849,0.000298,
2236,2038,-0.381820957471472,-13.3556416510588,0.00227764957804766,0.001605,-0.084742,-0.027093,0.130279,-3.979275,330.697367,19.350593,0.998151,0.979392,0.005970,0.432620,0.001147,0.001269,0.000020,0.001272,0.001144,81.169944,0.002417,
2251,2173,-0.0776070196062051,-10.3911701002664,-0.00686913449419535,0.003013,-0.082083,-0.021529,0.178223,-3.816903,328.466093,19.654464,0.998824,0.984533,0.005142,0.429828,0.000842,0.000942,0.000023,0.000946,0.000837,77.830413,0.001784,
2101,2818,-3.44750451362844,3.69044635207204,-0.0252858559061337,0.008212,-0.075940,-0.000996,0.355326,-3.488224,318.546186,20.930353,0.999383,0.993190,0.003520,0.385733,0.000057,0.000061,-0.000004,0.000063,0.000054,-59.468493,0.000117,
2161,3013,-2.17455183430588,7.92788993662371,0.00557060216874561,0.009335,-0.075921,0.003977,0.390884,-3.457986,315.410335,21.121090,0.999401,0.990947,0.003951,0.412141,0.000022,-0.000011,0.000000,0.000022,-0.000011,0.854584,0.000022,
2266,2263,0.234811265554011,-8.41725230134597,-0.00462562079013651,0.004183,-0.079838,-0.018607,0.223504,-3.714601,327.052423,19.957455,0.999493,0.989422,0.004506,0.317291,0.000621,0.000644,-0.000020,0.000655,0.000609,-59.908207,0.001265,
2221,2068,-0.71540451384551,-12.6929763245474,-0.0121916013106329,0.001587,-0.083256,-0.027911,0.132026,-3.930073,330.127470,19.663556,0.998261,0.979381,0.005881,0.313956,0.001081,0.001200,0.000030,0.001207,0.001074,76.492090,0.002282,
2251,2083,-0.0624259668289966,-12.3644835962743,-0.0111196079237175,0.002645,-0.083760,-0.022893,0.165184,-3.912749,329.866936,19.504346,0.998812,0.982050,0.005548,0.326192,0.001055,0.001201,0.000016,0.001203,0.001053,83.797045,0.002258,
2386,2608,2.78720673977968,-0.874447774371298,-0.0176292184365821,0.007272,-0.078710,-0.000083,0.302161,-3.583754,321.388377,20.463939,0.999082,0.988008,0.004482,0.436908,0.000170,0.000110,0.000031,0.000183,0.000097,22.837714,0.000284,
2041,2563,-4.71297176579518,-1.86206530110329,-0.0278596466520753,0.005850,-0.075766,-0.006555,0.263187,-3.484155,322.886628,20.951424,0.999438,0.990480,0.003851,0.429027,0.000200,0.000066,0.000035,0.000208,0.000057,13.791402,0.000279,
2491,3223,4.95769526238695,12.5081014547494,0.0359997459725037,0.011128,-0.078169,0.006867,0.451729,-3.555471,312.117437,22.827480,0.999387,0.991721,0.003763,0.386799,0.000002,-0.000066,0.000001,0.000002,-0.000066,0.654993,0.000075,
2281,2353,0.545783871028906,-6.44804544202659,-0.0081165196415327,0.005114,-0.079364,-0.009212,0.235415,-3.671940,325.561213,20.021286,0.999007,0.985613,0.004921,0.408653,0.000446,0.000425,-0.000004,0.000447,0.000425,-10.615067,0.000872,
2191,3193,-1.55106077052298,11.8314035356814,0.0390961169060233,0.010621,-0.076441,0.005425,0.444681,-3.484503,312.702308,21.313108,0.999730,0.995659,0.003047,0.443671,-0.000007,0.000005,-0.000012,0.000013,-0.000015,-57.664078,0.000016,
2026,2563,-5.03882751241609,-1.86268794519762,-0.0225319601731258,0.005634,-0.075771,-0.005834,0.251343,-3.482324,323.010080,20.995890,0.999481,0.990309,0.003857,0.407985,0.000201,0.000047,0.000032,0.000207,0.000041,11.247505,0.000266,
2131,2968,-2.81824949525791,6.94893010696219,0.00324872202611459,0.009057,-0.076083,0.000809,0.388300,-3.489067,316.241602,21.027038,0.999771,0.994331,0.003051,0.371749,0.000036,-0.000004,0.000000,0.000036,-0.000004,-0.055374,0.000039,
2476,3208,4.63423632971816,12.1806605091263,0.0359342278314898,0.010883,-0.078251,0.008689,0.434008,-3.551550,312.308008,22.642680,0.999377,0.991812,0.003641,0.444958,-0.000002,-0.000040,0.000009,0.000000,-0.000042,12.197084,0.000048,
2266,2188,0.247925760592352,-10.0608195270194,-0.00953522103327487,0.004046,-0.081209,-0.022750,0.230320,-3.797145,328.228769,19.727755,0.998948,0.983613,0.005274,0.324386,0.000802,0.000890,-0.000001,0.000890,0.000802,-89.355231,0.001693,
2026,2788,-5.07139097804118,3.03624918283769,-0.0321555851295443,0.007806,-0.075101,-0.002760,0.343187,-3.441822,319.377856,20.912895,0.999451,0.991934,0.003747,0.391390,0.000054,0.000041,0.000005,0.000056,0.000039,18.248694,0.000095,
2446,2968,4.02521328783375,6.96957094053097,-0.0101740751791795,0.009178,-0.077568,0.001067,0.385178,-3.534695,315.741013,21.771366,0.999571,0.992656,0.003677,0.367815,0.000017,-0.000021,0.000029,0.000033,-0.000037,28.815938,0.000040,
2341,2383,1.8484278115778,-5.78872341588741,-0.0252974385433049,0.006145,-0.078959,-0.012948,0.295829,-3.650983,324.952282,19.964742,0.999190,0.985815,0.004859,0.349363,0.000437,0.000401,-0.000009,0.000439,0.000399,-13.461197,0.000839,
2206,3223,-1.23197154969435,12.4845936553314,0.0319693172079383,0.010526,-0.076653,0.011368,0.420848,-3.484180,312.081826,21.527030,0.999798,0.995969,0.002903,0.331373,-0.000005,0.000006,-0.000009,0.000011,-0.000010,-60.936108,0.000012,
2416,2803,3.4029113986576,3.37842818434086,-0.0273476043353185,0.008104,-0.077378,-0.003543,0.353182,-3.552454,318.213136,21.124037,0.999304,0.988556,0.004421,0.401431,0.000059,0.000064,0.000020,0.000082,0.000041,48.751380,0.000125,
2086,2668,-3.75044529930907,0.425737579857383,-0.0242096406312271,0.007077,-0.076325,-0.000592,0.302030,-3.491091,321.009903,20.866700,0.999295,0.990540,0.003938,0.438900,0.000124,0.000041,0.000020,0.000129,0.000036,12.696534,0.000174,
2296,2308,0.880681435798394,-7.43269641182105,-0.0160715045261099,0.005109,-0.080328,-0.013545,0.249388,-3.711726,326.220196,19.788995,0.999062,0.985606,0.005049,0.452004,0.000527,0.000530,-0.000013,0.000541,0.000515,-49.199536,0.001057,
2461,3043,4.338770558114,8.5977789645954,0.0155961617080607,0.009606,-0.078263,0.004514,0.391312,-3.563755,314.766695,21.997411,0.999529,0.990740,0.003844,0.418304,0.000007,0.000011,0.000044,0.000053,-0.000035,46.256696,0.000054,
2116,2968,-3.14374573825165,6.94822540438198,0.00220570558212785,0.009112,-0.076011,0.000953,0.390785,-3.484857,316.301410,20.999992,0.999638,0.992862,0.003377,0.365258,0.000033,-0.000007,0.000000,0.000033,-0.000007,-0.137150,0.000035,
2146,2953,-2.49053838579425,6.62448539668257,-0.00129362349042594,0.009279,-0.076153,0.004236,0.387835,-3.468935,316.385486,21.037162,0.999584,0.991626,0.003642,0.412189,0.000031,0.000003,0.000002,0.000031,0.000002,3.380520,0.000038,
2041,2458,-4.69774262600894,-4.15289429114789,-0.0208636445920547,0.004503,-0.075836,-0.010943,0.213390,-3.515951,324.591349,20.962224,0.998641,0.983621,0.005283,0.431637,0.000356,0.000104,0.000045,0.000364,0.000096,9.764898,0.000485,
2356,2503,2.15349926387249,-3.16741000530183,-0.0169259380993481,0.006661,-0.078842,-0.006438,0.296890,-3.626582,323.080145,20.215084,0.999278,0.988661,0.004438,0.396199,0.000267,0.000213,0.000013,0.000270,0.000210,13.327062,0.000481,
2326,2338,1.53103274151718,-6.77625758478074,-0.00302563310407322,0.005777,-0.079543,-0.013000,0.278714,-3.653715,325.853355,19.818824,0.998840,0.984664,0.005026,0.432097,0.000497,0.000467,-0.000012,0.000501,0.000462,-19.684121,0.000964,
2146,3058,-2.50617043512236,8.90163349523194,0.0208416842975794,0.009884,-0.076667,0.006516,0.408599,-3.507122,314.880221,21.082527,0.999502,0.994279,0.003345,0.378286,0.000011,-0.000021,-0.000009,0.000014,-0.000024,-14.423728,0.000024,
2311,2248,1.21977626264421,-8.7462683349983,-0.0130837498830374,0.005045,-0.079828,-0.024377,0.283556,-3.750203,327.236530,19.625678,0.998602,0.981421,0.005446,0.378573,0.000672,0.000696,-0.000030,0.000716,0.000652,-56.055014,0.001368,
2011,2728,-5.38855327735675,1.7298915496965,-0.0302482731053715,0.007092,-0.075281,-0.001278,0.306403,-3.447394,320.426098,20.877197,0.999515,0.992552,0.003699,0.457853,0.000078,0.000035,0.000015,0.000083,0.000030,17.889248,0.000117,
2431,2893,3.71276565029453,5.3373166750669,-0.0177785510956028,0.008779,-0.077986,0.000475,0.369089,-3.556574,316.861898,21.443279,0.999478,0.991421,0.003714,0.389187,0.000024,0.000012,0.000026,0.000045,-0.000009,38.379792,0.000047,
2056,2668,-4.40250456528847,0.425141079906211,-0.0208390452467029,0.006507,-0.075946,0.000141,0.274408,-3.477479,321.170988,20.935578,0.999172,0.990103,0.004159,0.396413,0.000107,0.000033,0.000027,0.000116,0.000024,18.049310,0.000150,
2131,2893,-2.80738043807398,5.31995441512989,-0.00536428954586654,0.008156,-0.076442,0.001443,0.344721,-3.502119,317.347466,20.957397,0.999404,0.991067,0.003930,0.402516,0.000050,0.000038,-0.000005,0.000052,0.000036,-21.024908,0.000088,
2041,2578,-4.71533019486097,-1.53530657857156,-0.0332066238211723,0.006152,-0.076102,-0.005583,0.274270,-3.501876,322.610920,20.907766,0.998968,0.990074,0.004140,0.448354,0.000182,0.000049,0.000027,0.000187,0.000044,10.913218,0.000246,
2296,2428,0.859730514294885,-4.80614969715985,-0.016665792389972,0.006001,-0.078060,-0.013583,0.291372,-3.623386,324.315099,20.223030,0.999375,0.989205,0.004391,0.360404,0.000335,0.000304,-0.000016,0.000342,0.000297,-23.587512,0.000639,
2161,3148,-2.195287285443,10.8540815642343,0.0301808887497828,0.010111,-0.076790,0.008535,0.412391,-3.503573,313.434507,21.175940,0.999369,0.992671,0.003728,0.393495,0.000001,-0.000006,-0.000014,0.000012,-0.000017,-37.942701,0.000018,
2176,3223,-1.88083420599213,12.4807475482413,0.0476183565430688,0.010788,-0.076282,0.006378,0.449980,-3.472850,312.337017,21.342740,0.999710,0.995413,0.002962,0.377021,-0.000006,0.000005,-0.000017,0.000017,-0.000018,-54.672875,0.000021,
2101,2728,-3.4348063432151,1.73336857704292,-0.0329892867330841,0.006957,-0.076217,-0.001097,0.297736,-3.486388,319.885365,20.894931,0.999214,0.989450,0.004164,0.415438,0.000089,0.000045,0.000002,0.000089,0.000045,2.378723,0.000136,
2176,3088,-1.86031053528709,9.55490632910555,0.0216861272099322,0.009994,-0.076670,0.007323,0.410206,-3.488497,314.287618,21.213117,0.999513,0.993324,0.003425,0.390790,0.000008,-0.000025,-0.000012,0.000012,-0.000028,-17.542913,0.000028,
2086,2788,-3.76821397361594,3.03703652426027,-0.0231676535636893,0.008209,-0.075790,-0.001211,0.356136,-3.472132,319.126267,20.878269,0.999379,0.990796,0.003953,0.440448,0.000058,0.000052,-0.000006,0.000062,0.000048,-30.914852,0.000110,
2056,2653,-4.40053794458614,0.0995866904782261,-0.0370690854313125,0.006913,-0.075775,-0.003856,0.304392,-3.499169,321.308283,20.918115,0.999200,0.990662,0.004095,0.397606,0.000124,0.000033,0.000023,0.000130,0.000027,13.569171,0.000167,
2071,2743,-4.08733112196159,2.05788276146992,-0.0277619916807339,0.007814,-0.075817,-0.003443,0.344557,-3.495034,319.885171,20.883180,0.999293,0.990615,0.003970,0.410811,0.000076,0.000040,-0.000001,0.000076,0.000040,-1.555228,0.000119,
2221,2083,-0.718628592240169,-12.363816159977,-0.0132817989152159,0.000922,-0.082928,-0.029086,0.105365,-3.907911,329.850560,19.668733,0.998446,0.980403,0.005791,0.353489,0.001048,0.001184,0.000029,0.001190,0.001042,78.595817,0.002234,
2026,2578,-5.04151506800206,-1.53487887216351,-0.0283302535948451,0.005622,-0.075604,-0.004567,0.247393,-3.475127,322.715071,21.019003,0.998899,0.989448,0.004331,0.383373,0.000187,0.000038,0.000024,0.000191,0.000034,8.887478,0.000243,
2011,2953,-5.41878897915407,6.61724404913716,0.00147292441454283,0.009123,-0.075130,0.002026,0.391103,-3.428748,317.122962,20.787545,0.999679,0.994769,0.002985,0.383263,0.000037,-0.000026,-0.000004,0.000038,-0.000026,-3.753932,0.000039,
2011,2548,-5.36285344106959,-2.1900647761689,-0.0241849262224605,0.005368,-0.075549,-0.005775,0.239105,-3.486108,323.321700,21.005057,0.999313,0.989690,0.004006,0.428030,0.000234,0.000035,0.000067,0.000254,0.000014,16.923254,0.000302,
2446,2983,4.02205728420022,7.29524862708012,-0.0096319503571749,0.009274,-0.078017,0.004736,0.375748,-3.542820,315.490996,21.794949,0.999584,0.991222,0.003845,0.387626,0.000015,-0.000013,0.000029,0.000033,-0.000031,32.131190,0.000037,
2401,2743,3.08711679645113,2.0709476762978,-0.0326675521415609,0.007911,-0.078072,0.000743,0.328617,-3.561964,319.104936,20.892917,0.999418,0.989988,0.004100,0.427767,0.000063,0.000111,0.000025,0.000122,0.000052,66.724297,0.000178,
2071,2713,-4.0838529682133,1.40605765602213,-0.0348813498691811,0.007256,-0.076205,0.000010,0.308853,-3.498363,320.276364,20.914982,0.999231,0.990334,0.003955,0.381643,0.000102,0.000044,0.000002,0.000102,0.000043,2.216396,0.000149,
2491,3238,4.9535689341346,12.833903981753,0.0244907322015706,0.010914,-0.078329,0.005419,0.447348,-3.574520,311.769917,22.869325,0.999627,0.992235,0.003589,0.383168,0.000002,-0.000077,-0.000007,0.000002,-0.000077,-4.955421,0.000088,
2206,3238,-1.23382583828066,12.8083191691723,0.0341100121185605,0.010791,-0.076631,0.006254,0.449311,-3.501621,311.883177,21.448984,0.999747,0.995162,0.003003,0.407620,-0.000007,0.000000,-0.000007,0.000004,-0.000011,-57.658696,0.000011,
2011,2743,-5.39121811315523,2.05808852228544,-0.0402173873852689,0.007354,-0.075322,0.000110,0.314685,-3.446243,320.107379,20.964139,0.999552,0.992947,0.003472,0.360496,0.000055,0.000040,0.000008,0.000058,0.000036,22.784905,0.000095,
2251,2098,-0.064632957263111,-12.0355336627721,-0.0088115628847163,0.002725,-0.082993,-0.025253,0.176810,-3.880975,329.656278,19.523735,0.998989,0.980960,0.005716,0.365039,0.001020,0.001167,0.000014,0.001168,0.001018,84.597577,0.002188,
2296,2323,0.878448971381278,-7.1036800214986,-0.017338817476741,0.005395,-0.079491,-0.017603,0.276474,-3.689631,325.993850,19.866353,0.998895,0.984301,0.005265,0.428940,0.000503,0.000491,-0.000010,0.000509,0.000485,-28.565044,0.000994,
2281,2368,0.543239510437555,-6.12035235210946,-0.005943918114383,0.004982,-0.079128,-0.010892,0.235051,-3.660519,325.336570,20.036543,0.998782,0.983350,0.005273,0.434403,0.000418,0.000409,-0.000003,0.000419,0.000408,-16.533514,0.000827,
2041,2833,-4.7521766839901,4.01406520349185,-0.0206372433245292,0.007931,-0.075205,0.000557,0.339398,-3.446876,318.648612,20.903790,0.998936,0.988759,0.004240,0.383754,0.000041,0.000041,-0.000006,0.000047,0.000035,-45.062199,0.000083,
2101,2833,-3.44969224668782,4.01635683757774,-0.0213936718758987,0.008421,-0.076182,0.002639,0.354279,-3.479179,318.333919,20.936770,0.999648,0.994014,0.003266,0.389301,0.000051,0.000053,-0.000007,0.000059,0.000045,-49.335511,0.000104,
2026,2803,-5.07342507805635,3.36168389316214,-0.0300622774543626,0.008088,-0.075339,-0.000079,0.348720,-3.443209,319.157771,20.862792,0.999517,0.992425,0.003563,0.430269,0.000061,0.000031,0.000011,0.000065,0.000027,18.064154,0.000095,
2341,2398,1.84589977620815,-5.46095053372754,-0.0244128429001194,0.006095,-0.078464,-0.016368,0.305607,-3.639649,324.726676,19.986820,0.999472,0.988022,0.004611,0.376669,0.000411,0.000384,-0.000008,0.000413,0.000382,-15.378021,0.000795,
2116,2983,-3.14533338018369,7.27259867390078,0.0140078476491112,0.009355,-0.075882,0.003137,0.395602,-3.458540,316.160806,20.940223,0.999718,0.994145,0.003130,0.454489,0.000026,-0.000009,0.000000,0.000026,-0.000009,0.515811,0.000027,
2281,2248,0.564718205231198,-8.74679819985823,-0.0106976801926635,0.004527,-0.080494,-0.020913,0.247030,-3.752716,327.247876,19.731134,0.998873,0.981750,0.005407,0.408766,0.000656,0.000694,-0.000019,0.000702,0.000648,-67.589264,0.001351,
2086,2683,-3.753211821432,0.752930732504389,-0.0312902499481424,0.006857,-0.075790,-0.004863,0.304403,-3.490757,320.710000,20.866541,0.999378,0.991735,0.003702,0.439083,0.000116,0.000036,0.000014,0.000119,0.000034,9.375618,0.000160,
2176,3238,-1.88337766991071,12.8052877633549,0.0452217989463861,0.011123,-0.076495,0.008434,0.458998,-3.480586,312.080641,21.302819,0.999705,0.995077,0.003014,0.420251,-0.000005,0.000000,-0.000015,0.000013,-0.000018,-50.197826,0.000019,
2191,3283,-1.56686156623348,13.7819746569465,0.0288680600192492,0.011272,-0.076580,0.007426,0.468458,-3.489946,311.166169,21.381822,0.999570,0.994851,0.003091,0.448475,-0.000006,0.000030,-0.000004,0.000031,-0.000007,-84.305998,0.000032,
2431,2908,3.709769314633,5.66291336053627,-0.0184059516279262,0.008987,-0.078253,0.002746,0.370147,-3.565729,316.613094,21.431441,0.999617,0.991381,0.003645,0.441585,0.000018,-0.000004,0.000025,0.000035,-0.000020,33.045493,0.000035,
2476,3223,4.63127756255939,12.5069751354164,0.0304940978898003,0.011030,-0.077951,0.003979,0.458885,-3.547017,312.040472,22.738151,0.999310,0.991977,0.003669,0.409448,-0.000002,-0.000052,0.000001,-0.000002,-0.000052,0.929913,0.000061,
2266,2278,0.232189616005282,-8.08806411987172,-0.0184842659211313,0.004949,-0.079101,-0.022428,0.271510,-3.702285,326.742718,19.915697,0.999336,0.986999,0.004788,0.399622,0.000590,0.000615,-0.000016,0.000623,0.000582,-63.478983,0.001205,
2236,2173,-0.405119906174541,-10.3891720951788,-0.0107885074755245,0.002850,-0.080934,-0.023832,0.178197,-3.796499,328.461300,19.839383,0.998404,0.983712,0.005360,0.345253,0.000845,0.000944,0.000033,0.000953,0.000835,73.339242,0.001790,
2461,3058,4.3357938834254,8.92418840031859,0.0159080667508533,0.009590,-0.077841,0.004080,0.392373,-3.552117,314.524361,22.085824,0.999503,0.989686,0.004092,0.394920,0.000008,0.000013,0.000042,0.000053,-0.000032,46.831254,0.000053,
2131,2983,-2.82051622722742,7.27433847725495,0.00354581151549382,0.009387,-0.076007,0.002914,0.397258,-3.476811,316.008662,20.997859,0.999730,0.994297,0.003138,0.418317,0.000029,-0.000006,-0.000001,0.000029,-0.000006,-1.400623,0.000030,
2026,2593,-5.04428051327744,-1.20734062950844,-0.0333743699999332,0.005570,-0.075731,-0.001978,0.237850,-3.454909,322.420741,21.016459,0.998596,0.989049,0.004595,0.397293,0.000175,0.000040,0.000031,0.000182,0.000033,12.384916,0.000232,
2116,2938,-3.13930264002365,6.29778641220642,-0.0104078724389751,0.009168,-0.075490,-0.003640,0.407182,-3.469295,316.700459,20.980993,0.999325,0.991168,0.003893,0.394484,0.000035,0.000003,0.000001,0.000035,0.000003,2.155942,0.000042,
2161,3028,-2.17656541664052,8.25267816369677,0.0129959187725035,0.009562,-0.076397,0.007032,0.391761,-3.480382,315.229050,21.129453,0.999289,0.989739,0.004320,0.390537,0.000019,-0.000011,-0.000001,0.000019,-0.000011,-2.318867,0.000019,
2191,3208,-1.55337848541437,12.1566100435416,0.0394792693011823,0.010982,-0.076524,0.006965,0.456466,-3.483299,312.471700,21.334801,0.999499,0.993340,0.003598,0.436453,-0.000006,0.000004,-0.000010,0.000011,-0.000013,-58.650821,0.000014,
2416,2818,3.40079682636208,3.70413047174732,-0.0209083159307966,0.008621,-0.077690,-0.001016,0.367605,-3.549032,318.037183,21.137439,0.999188,0.989001,0.004335,0.438927,0.000046,0.000059,0.000021,0.000075,0.000031,53.773264,0.000108,
2371,2548,2.47165143047209,-2.18432508817323,-0.0196609337700124,0.006652,-0.078585,-0.006953,0.298368,-3.626580,322.333406,20.316042,0.999052,0.986651,0.004865,0.390133,0.000230,0.000154,0.000021,0.000236,0.000148,14.523047,0.000387,
2056,2908,-4.43681103929795,5.64310140106194,-0.00966304282303554,0.008934,-0.075442,0.001960,0.381369,-3.439190,317.476206,20.865445,0.999452,0.992727,0.003588,0.419115,0.000019,0.000006,-0.000016,0.000030,-0.000005,-34.752601,0.000032,
2161,3163,-2.19724406495143,11.1796253792948,0.033878121384646,0.010305,-0.076268,0.006301,0.428432,-3.474629,313.235820,21.209575,0.999590,0.993147,0.003438,0.398086,-0.000002,-0.000002,-0.000017,0.000015,-0.000019,-45.260040,0.000020,
2251,2188,-0.0801168697316434,-10.0594196222958,-0.0144335789619845,0.003668,-0.081299,-0.021867,0.209623,-3.791761,328.191285,19.862874,0.999406,0.989103,0.004522,0.272903,0.000798,0.000892,0.000012,0.000893,0.000796,82.635332,0.001691,
2071,2758,-4.09006624902475,2.38458179128061,-0.0308866481319683,0.007650,-0.075830,-0.003094,0.335971,-3.497400,319.607134,20.896729,0.999359,0.991833,0.003818,0.391924,0.000071,0.000042,-0.000008,0.000073,0.000040,-14.610061,0.000114,
2236,2143,-0.399844915717598,-11.0491734429085,-0.000122063147898643,0.002520,-0.082616,-0.018808,0.146239,-3.849556,329.002433,19.715751,0.998200,0.980311,0.005659,0.367738,0.000911,0.001036,0.000036,0.001045,0.000902,74.966158,0.001949,
2311,2263,1.21686298516996,-8.41806672390506,-0.00678761270131645,0.005004,-0.080528,-0.016470,0.254528,-3.734853,327.017719,19.691681,0.998921,0.984482,0.005023,0.362603,0.000635,0.000643,-0.000033,0.000672,0.000606,-48.509725,0.001278,
2146,3073,-2.50918179856432,9.22788771985332,0.0136447270390931,0.009917,-0.076418,0.007311,0.407813,-3.490424,314.574017,21.101988,0.999717,0.996299,0.002892,0.382548,0.000007,-0.000025,-0.000011,0.000010,-0.000028,-17.453173,0.000029,
2101,2743,-3.43667608604294,2.05967167917248,-0.0261257145073159,0.007209,-0.076326,0.001357,0.302142,-3.478422,319.703566,20.937713,0.999338,0.990042,0.004027,0.381729,0.000077,0.000042,-0.000003,0.000077,0.000042,-4.660286,0.000120,
2011,2758,-5.39296920062105,2.38356916126877,-0.0381491616409448,0.007611,-0.075107,-0.001854,0.331903,-3.444381,319.898941,20.902163,0.999444,0.992268,0.003667,0.412479,0.000048,0.000027,-0.000007,0.000050,0.000025,-15.924194,0.000076,
2026,2608,-5.04603846813576,-0.87938233695634,-0.0444540446968631,0.006415,-0.075268,-0.007279,0.291477,-3.452073,322.138802,21.023019,0.998712,0.986907,0.004788,0.384768,0.000173,0.000024,0.000031,0.000179,0.000018,11.192174,0.000218,
2251,2113,-0.0672710769029372,-11.7069237267481,-0.00591069366618058,0.002597,-0.082936,-0.023946,0.166704,-3.879310,329.429067,19.553804,0.998593,0.980718,0.005727,0.363065,0.000983,0.001133,0.000018,0.001135,0.000981,83.395799,0.002118,
2086,2803,-3.77063185694472,3.36358900994413,-0.0215967097742578,0.008014,-0.075726,-0.002216,0.350078,-3.478951,318.889644,20.932888,0.999283,0.991124,0.003870,0.377830,0.000061,0.000055,-0.000002,0.000062,0.000054,-16.947027,0.000116,
2266,2323,0.223866625908929,-7.10305377483517,-0.00837059481449387,0.004530,-0.079259,-0.013665,0.223334,-3.662144,326.051728,20.109875,0.998550,0.980293,0.005792,0.328398,0.000503,0.000494,0.000000,0.000503,0.000494,-0.788357,0.000997,
2041,2593,-4.71711644602497,-1.20741356966577,-0.0322965280795984,0.006397,-0.075416,-0.008788,0.294723,-3.464486,322.395566,20.972740,0.998708,0.989799,0.004250,0.413791,0.000170,0.000047,0.000029,0.000176,0.000041,12.835682,0.000231,
2476,3238,4.62716068379515,12.8328675393269,0.0180553994526349,0.011020,-0.078228,0.004316,0.457044,-3.563113,311.687676,22.780302,0.999676,0.993679,0.003275,0.406377,-0.000003,-0.000060,-0.000005,-0.000002,-0.000061,-5.351258,0.000071,
2011,2968,-5.42089341612787,6.94242666845886,0.00689973042415204,0.009197,-0.075192,0.005733,0.384439,-3.427559,316.917770,20.777502,0.999635,0.994850,0.002970,0.381829,0.000037,-0.000045,-0.000014,0.000039,-0.000047,-9.686922,0.000050,
2281,2263,0.560310429669077,-8.41486679154648,-0.0226344725859917,0.003998,-0.080207,-0.016892,0.209496,-3.728891,326.867238,19.942969,0.999312,0.986937,0.004795,0.251758,0.000619,0.000645,-0.000023,0.000658,0.000606,-59.883457,0.001264,
2056,2683,-4.40433525219703,0.75135399197832,-0.0173594105492612,0.006589,-0.075517,-0.002916,0.286964,-3.453178,320.969528,20.907840,0.999352,0.991525,0.003875,0.443453,0.000103,0.000027,0.000025,0.000110,0.000019,16.657711,0.000139,
2146,2968,-2.49295954285588,6.94962854064092,0.00279476226467068,0.009169,-0.076646,0.005427,0.378953,-3.497585,316.166826,21.047142,0.999652,0.993271,0.003341,0.380581,0.000027,0.000000,0.000003,0.000028,0.000000,6.808311,0.000032,
2386,2623,2.78391168925926,-0.547069147769143,-0.0251087665884029,0.007285,-0.078705,-0.002295,0.310700,-3.600022,321.090741,20.477927,0.998906,0.987792,0.004495,0.450777,0.000156,0.000104,0.000026,0.000167,0.000093,22.692327,0.000263,
2491,3253,4.94952922264403,13.1594459881916,0.0157203644467359,0.010856,-0.078503,0.007570,0.436426,-3.575812,311.438746,22.890090,0.999750,0.993357,0.003334,0.418806,0.000000,-0.000069,-0.000017,0.000004,-0.000073,-13.124185,0.000082,
2326,2353,1.5271126686189,-6.44673910319317,-0.0125369108326936,0.005290,-0.079420,-0.013951,0.259727,-3.646691,325.511974,19.886590,0.998945,0.982519,0.004989,0.408092,0.000470,0.000432,-0.000007,0.000471,0.000431,-9.942947,0.000902,
2296,2338,0.875205774997713,-6.77500034759436,-0.0174286084782693,0.005252,-0.079549,-0.012630,0.253161,-3.665338,325.727015,19.927837,0.999101,0.985873,0.004827,0.423844,0.000478,0.000465,-0.000010,0.000484,0.000459,-27.794825,0.000943,
2356,2518,2.1505728502157,-2.83971732518487,-0.0198750879002318,0.006438,-0.078348,-0.011120,0.303334,-3.630084,322.818671,20.248554,0.999073,0.986979,0.004670,0.399130,0.000246,0.000206,0.000015,0.000251,0.000201,18.563867,0.000453,
2236,2188,-0.407094901730915,-10.0591530423892,-0.0106636893208929,0.003502,-0.080336,-0.023442,0.207051,-3.774165,328.248709,19.973686,0.998858,0.985760,0.005021,0.257306,0.000800,0.000893,0.000020,0.000897,0.000796,78.386341,0.001694,
2131,2908,-2.80908695267157,5.64490408202017,0.00262413548063023,0.008648,-0.076584,0.005302,0.355802,-3.499108,317.181488,20.930374,0.999391,0.989163,0.004159,0.437661,0.000047,0.000023,-0.000007,0.000049,0.000022,-14.809145,0.000072,
2461,3073,4.33243401736658,9.25003165743869,0.0102168210816558,0.009853,-0.077941,0.005700,0.398321,-3.559166,314.236946,22.106072,0.999607,0.992046,0.003693,0.421220,0.000008,0.000007,0.000037,0.000044,-0.000030,44.639983,0.000045,
2041,2848,-4.7541396748327,4.34011077124359,-0.0281149940351497,0.008607,-0.075111,-0.001558,0.376460,-3.455981,318.379610,20.857955,0.999122,0.991300,0.003938,0.412561,0.000031,0.000046,-0.000012,0.000053,0.000024,-60.061506,0.000079,
2206,2023,-1.03431702403991,-13.6845510579127,0.00468359420443676,0.000916,-0.084418,-0.032573,0.114922,-4.003692,331.012759,19.537189,0.998584,0.980810,0.005661,0.400827,0.001201,0.001283,0.000024,0.001289,0.001194,74.635705,0.002484,
2191,3298,-1.57090947702865,14.1086485180367,0.0084421096661913,0.011221,-0.076584,0.007257,0.466629,-3.495106,310.746616,21.456261,0.999770,0.996404,0.002709,0.381742,-0.000003,0.000028,-0.000009,0.000030,-0.000005,-75.262126,0.000032,
2281,2383,0.540517381375754,-5.79137167676409,-0.0155093833016053,0.005581,-0.079237,-0.012002,0.266224,-3.656068,325.045113,20.067959,0.998565,0.982980,0.005405,0.437088,0.000393,0.000392,-0.000004,0.000397,0.000388,-38.986403,0.000785,
2011,2563,-5.36507271195665,-1.8624042047465,-0.0267879729585161,0.005354,-0.075053,-0.008664,0.246465,-3.469369,323.064638,21.027763,0.999151,0.988727,0.004242,0.410968,0.000210,0.000032,0.000045,0.000221,0.000021,13.476904,0.000269,
2266,2293,0.229070026978757,-7.75946043491305,-0.0205186635103587,0.004652,-0.078954,-0.022287,0.257506,-3.688769,326.469483,19.945629,0.999186,0.984341,0.005166,0.411063,0.000559,0.000577,-0.000007,0.000579,0.000556,-70.095300,0.001136,
2011,2983,-5.42364387211802,7.26816340208396,0.00190845277251128,0.009143,-0.075442,0.007683,0.376590,-3.425915,316.624216,20.749961,0.999299,0.992489,0.003432,0.398595,0.000022,-0.000057,-0.000019,0.000026,-0.000061,-13.117799,0.000061,
2176,3103,-1.86250268797106,9.87972599627859,0.026427557436989,0.009995,-0.076497,0.006583,0.412508,-3.497017,314.084830,21.210276,0.999499,0.993983,0.003299,0.396304,0.000000,-0.000024,-0.000010,0.000004,-0.000028,-19.115849,0.000030,
2026,2818,-5.07571390025069,3.68706638767238,-0.0256431952317371,0.007939,-0.075573,0.001947,0.336187,-3.447464,318.939055,20.832611,0.999333,0.992256,0.003628,0.446302,0.000055,0.000031,0.000008,0.000058,0.000028,17.414318,0.000088,
2116,2998,-3.14830902843249,7.5989986006086,0.00564454350808319,0.009268,-0.075882,0.001418,0.396694,-3.465313,315.847342,20.965518,0.999493,0.992728,0.003471,0.425203,0.000023,-0.000007,0.000003,0.000024,-0.000007,5.292003,0.000024,
2431,2923,3.70716841764593,5.99013106270679,-0.0168788127469952,0.009045,-0.077844,0.000347,0.381882,-3.552916,316.391974,21.566572,0.999664,0.992210,0.003618,0.368792,0.000017,-0.000011,0.000020,0.000027,-0.000022,27.555554,0.000029,
2131,2998,-2.82242677156756,7.59944286913888,0.00497614824814718,0.009642,-0.075582,-0.000457,0.419283,-3.459727,315.798231,20.947639,0.999736,0.994414,0.003187,0.490812,0.000025,-0.000005,0.000001,0.000025,-0.000005,2.823455,0.000027,
2296,2443,0.856326959212655,-4.47961633896528,-0.0245833172915582,0.006334,-0.079026,-0.007755,0.286671,-3.641841,324.002457,20.092470,0.999500,0.989346,0.004303,0.504300,0.000319,0.000279,-0.000006,0.000320,0.000278,-8.567760,0.000599,
2371,2563,2.46868118341981,-1.85632429894016,-0.0197006507276569,0.006778,-0.078577,-0.004085,0.294007,-3.614078,322.084823,20.402906,0.999105,0.988674,0.004548,0.357803,0.000210,0.000151,0.000024,0.000219,0.000142,19.609153,0.000364,
2446,2998,4.02007003262788,7.62053113815356,0.000956766940078069,0.009418,-0.077807,0.004762,0.382353,-3.541502,315.341216,21.844878,0.999348,0.988095,0.004181,0.390542,0.000013,-0.000009,0.000032,0.000036,-0.000032,35.543536,0.000040,
2206,3253,-1.23644773984941,13.1331886940526,0.0332615649324453,0.010945,-0.076495,0.007573,0.452252,-3.494328,311.633286,21.438554,0.999790,0.995575,0.002841,0.440613,-0.000009,0.000000,0.000001,0.000000,-0.000009,84.314253,0.000010,
2041,2608,-4.71930390543674,-0.880975524061007,-0.0316205290550897,0.006496,-0.075342,-0.007979,0.297071,-3.458874,322.161084,20.938739,0.998753,0.988308,0.004488,0.446561,0.000165,0.000033,0.000026,0.000170,0.000028,10.739886,0.000215,
2086,3058,-3.80699894180532,8.89693197955726,0.0247117351990482,0.009929,-0.076100,0.004084,0.420061,-3.484009,315.198322,20.840693,0.999457,0.992630,0.003480,0.440314,0.000006,-0.000013,-0.000008,0.000009,-0.000015,-19.479155,0.000015,
2101,2848,-3.45197866857317,4.34233834991868,-0.025099025769066,0.008559,-0.075496,-0.000873,0.371126,-3.462584,318.075987,20.889111,0.999798,0.994586,0.003064,0.454925,0.000043,0.000057,-0.000009,0.000061,0.000038,-63.611412,0.000100,
2161,3043,-2.17813695147883,8.57775768360608,0.0263164075344093,0.009659,-0.076288,0.007416,0.395114,-3.469473,315.099061,21.173177,0.999498,0.993405,0.003543,0.366729,0.000012,-0.000016,-0.000005,0.000013,-0.000017,-9.612805,0.000018,
2056,2698,-4.40682568728333,1.07831747145148,-0.0225963635540438,0.006833,-0.075532,-0.001415,0.293979,-3.453884,320.689711,20.906655,0.999258,0.991043,0.003898,0.439221,0.000102,0.000027,0.000015,0.000105,0.000025,11.069533,0.000138,
2101,2758,-3.43806818883116,2.38497484299149,-0.0205528981078942,0.007705,-0.076108,-0.001088,0.332217,-3.469048,319.536988,20.880581,0.999422,0.990201,0.003901,0.449654,0.000071,0.000047,-0.000008,0.000073,0.000045,-16.632579,0.000119,
2206,1993,-1.03063078408241,-14.3422724777312,-0.00797865114344631,0.000299,-0.085421,-0.034414,0.092150,-4.070687,331.366611,19.487831,0.999046,0.982958,0.005323,0.343142,0.001261,0.001311,-0.000006,0.001312,0.001260,-83.294432,0.002572,
2071,2728,-4.0855862082389,1.73224681199837,-0.0313212142172006,0.007516,-0.075812,-0.002100,0.327020,-3.481494,320.080906,20.907315,0.999132,0.989111,0.004184,0.403240,0.000087,0.000038,0.000003,0.000087,0.000038,3.419980,0.000128,
2476,3253,4.6235901720547,13.1581402861266,0.01580643022902,0.010933,-0.078410,0.007378,0.441379,-3.559893,311.406614,22.808476,0.999705,0.993370,0.003239,0.436827,-0.000005,-0.000052,-0.000013,-0.000002,-0.000055,-14.468667,0.000064,
2341,2413,1.84487183895024,-5.1346080223532,-0.00692265634188516,0.006617,-0.078558,-0.015326,0.325883,-3.671633,324.650608,20.083901,0.999499,0.989651,0.004408,0.285175,0.000380,0.000360,-0.000006,0.000382,0.000358,-16.234434,0.000740,
2206,2038,-1.03788007683276,-13.3542050733136,-0.00337279325793816,0.000591,-0.084609,-0.030545,0.093579,-4.009545,330.683315,19.581936,0.998247,0.980224,0.005772,0.370875,0.001170,0.001244,0.000023,0.001251,0.001163,73.752378,0.002415,
2281,2398,0.536881991282282,-5.46267919920489,-0.014351648553486,0.005014,-0.079553,-0.005874,0.219630,-3.649890,324.765177,20.180639,0.998941,0.985573,0.005119,0.360343,0.000371,0.000366,-0.000006,0.000375,0.000362,-32.987485,0.000737,
2071,2773,-4.09150016426996,2.71079753634002,-0.0251623323438253,0.008164,-0.075501,-0.003886,0.362061,-3.471717,319.437267,20.912053,0.999271,0.990406,0.004043,0.399078,0.000067,0.000038,-0.000006,0.000069,0.000037,-11.747940,0.000107,
2086,2818,-3.77274082310818,3.68971613555576,-0.0236895044161543,0.008257,-0.075703,-0.004849,0.368934,-3.471320,318.647339,20.910258,0.999471,0.992733,0.003560,0.407209,0.000058,0.000059,-0.000006,0.000065,0.000052,-45.338928,0.000117,
2401,2758,3.08476754005539,2.39729512747645,-0.0299944752773058,0.008145,-0.077897,-0.000810,0.345061,-3.575087,318.899630,20.936593,0.999265,0.987933,0.004425,0.416577,0.000059,0.000108,0.000025,0.000118,0.000048,66.936258,0.000171,
2011,2773,-5.39499167904161,2.70979232938313,-0.0341716281714639,0.007563,-0.075097,-0.002579,0.331677,-3.438674,319.688585,20.923622,0.999514,0.991601,0.003804,0.384711,0.000050,0.000022,-0.000006,0.000051,0.000021,-12.366604,0.000074,
2416,2833,3.39789649890118,4.03128263243572,-0.021353437132916,0.008883,-0.077778,0.001179,0.371583,-3.555186,317.792460,21.245262,0.998595,0.986664,0.004643,0.372669,0.000042,0.000052,0.000023,0.000071,0.000024,51.168322,0.000098,
2386,2638,2.78143916418869,-0.219894788468892,-0.0219801481201216,0.007554,-0.078845,-0.001134,0.318843,-3.607294,320.881155,20.559709,0.998983,0.987577,0.004493,0.405503,0.000140,0.000100,0.000021,0.000150,0.000090,23.204357,0.000242,
2266,2338,0.22062557483159,-6.77412616073716,-0.0194173100467196,0.004510,-0.078733,-0.017036,0.233793,-3.641579,325.727572,20.088620,0.998695,0.984036,0.005288,0.398065,0.000477,0.000470,0.000000,0.000477,0.000470,1.419288,0.000948,
2026,2623,-5.04754378260553,-0.554327188556471,-0.0350802685017015,0.006559,-0.075374,-0.007937,0.299823,-3.476464,321.983370,20.971450,0.998749,0.987739,0.004728,0.402493,0.000165,0.000001,0.000027,0.000170,-0.000003,8.997412,0.000194,
2026,2833,-5.07782512245907,4.01353159794178,-0.025830679291289,0.008007,-0.075464,-0.000051,0.344840,-3.453619,318.702427,20.872599,0.999646,0.994267,0.003418,0.390324,0.000038,0.000033,-0.000006,0.000042,0.000029,-33.911495,0.000071,
2206,3268,-1.23955874521609,13.4589450047995,0.0202084049597602,0.011385,-0.076681,0.007851,0.471746,-3.487292,311.297234,21.446569,0.999528,0.993654,0.003280,0.454919,-0.000009,0.000008,0.000002,0.000008,-0.000010,83.819180,0.000011,
2161,3178,-2.19946027752105,11.5042645505914,0.0412709907147359,0.010439,-0.076518,0.010727,0.420982,-3.465445,313.045098,21.204933,0.999595,0.991178,0.003656,0.420616,-0.000005,0.000002,-0.000018,0.000017,-0.000020,-50.149037,0.000022,
2056,2923,-4.43859644178637,5.96864776149722,-0.00868899860842021,0.009238,-0.075231,-0.001271,0.404575,-3.440183,317.263579,20.849570,0.999472,0.992815,0.003552,0.428268,0.000010,-0.000001,-0.000007,0.000014,-0.000005,-25.225117,0.000014,
2176,3253,-1.88646958136511,13.1304927617003,0.0385273298266497,0.011235,-0.076744,0.010945,0.456318,-3.480524,311.776196,21.296489,0.999709,0.995046,0.003044,0.437466,-0.000002,0.000005,-0.000007,0.000009,-0.000006,-58.581853,0.000009,
2011,2578,-5.36758420557146,-1.53539221222137,-0.0309144507515384,0.005270,-0.075126,-0.009362,0.244433,-3.475879,322.785945,21.006087,0.998497,0.987078,0.004926,0.415350,0.000197,0.000028,0.000035,0.000204,0.000021,11.217641,0.000249,
2446,3013,4.01731135718802,7.94686746716718,-0.00349835827154266,0.009512,-0.077323,-0.001458,0.410136,-3.535087,315.086078,21.888330,0.999086,0.986262,0.004321,0.405063,0.000013,-0.000007,0.000032,0.000036,-0.000030,36.439590,0.000039,
2266,2308,0.227335933491567,-7.43241576737578,-0.0127119791597465,0.005158,-0.079516,-0.020329,0.274044,-3.713425,326.309394,19.974752,0.998753,0.982270,0.005492,0.384488,0.000526,0.000528,0.000000,0.000528,0.000526,-78.694195,0.001055,
2476,3268,4.62029320849538,13.4841575994836,0.0156026714724931,0.011097,-0.078462,0.012185,0.430577,-3.561379,311.147147,22.925446,0.999843,0.995491,0.002801,0.373241,-0.000009,-0.000061,-0.000022,-0.000001,-0.000069,-20.545806,0.000080,
2236,2158,-0.403195864566417,-10.7178464364397,-0.012647347950292,0.002503,-0.081506,-0.021078,0.153181,-3.814998,328.662521,19.810743,0.998298,0.982592,0.005464,0.331905,0.000876,0.000988,0.000035,0.000998,0.000866,74.085988,0.001866,
2011,2998,-5.42512352321568,7.5930841287016,0.00711324050524809,0.009412,-0.075361,0.003815,0.399458,-3.445362,316.446594,20.742252,0.999379,0.993058,0.003359,0.374142,0.000013,-0.000043,-0.000020,0.000019,-0.000049,-17.773295,0.000050,
2431,2938,3.70433087551527,6.31596909634771,-0.0152442417181078,0.008957,-0.077630,-0.000747,0.381999,-3.543347,316.160763,21.582762,0.999687,0.991798,0.003696,0.411701,0.000020,-0.000015,0.000018,0.000028,-0.000023,23.465804,0.000030,
2461,3088,4.32937975469268,9.57637368828814,0.00853559724515662,0.009977,-0.078089,0.005903,0.403260,-3.565112,313.981758,22.201557,0.999650,0.994085,0.003427,0.373357,0.000006,0.000007,0.000030,0.000036,-0.000024,45.130707,0.000037,
2101,2893,-3.45835680828777,5.31868735519588,-0.00870780578839003,0.008593,-0.075938,0.002352,0.363097,-3.477225,317.473805,20.892883,0.999369,0.992751,0.003809,0.438816,0.000036,0.000034,-0.000008,0.000043,0.000027,-40.804045,0.000071,
2356,2533,2.14784717191442,-2.51229058940211,-0.0198914910508279,0.006800,-0.078200,-0.007876,0.308660,-3.600159,322.580400,20.255767,0.999168,0.987489,0.004616,0.461763,0.000233,0.000183,0.000019,0.000240,0.000177,18.631747,0.000418,
2041,2863,-4.75588585785043,4.66555983326384,-0.0177153351517632,0.008682,-0.075233,0.000713,0.373592,-3.448895,318.219941,20.879174,0.999119,0.991483,0.004068,0.390438,0.000021,0.000036,-0.000006,0.000039,0.000019,-70.048169,0.000059,
2041,2623,-4.72146898681571,-0.554432219838482,-0.033730862025493,0.006618,-0.075252,-0.010007,0.308283,-3.485647,321.912275,20.927411,0.998613,0.988237,0.004590,0.424223,0.000159,0.000011,0.000022,0.000162,0.000008,8.124170,0.000192,
2116,3013,-3.15023083759848,7.9235571062999,0.0134926043384667,0.009433,-0.076283,0.003538,0.397937,-3.473060,315.670134,20.936505,0.998929,0.989209,0.004164,0.448913,0.000024,-0.000007,0.000003,0.000025,-0.000007,4.864510,0.000025,
2371,2578,2.4660565370331,-1.52964760286429,-0.0186998237642229,0.007020,-0.078913,-0.003070,0.301392,-3.608928,321.857307,20.389495,0.999033,0.988275,0.004662,0.418385,0.000199,0.000151,0.000025,0.000209,0.000140,23.204861,0.000352,
2251,2248,-0.0909248489639758,-8.74405683353149,-0.0143443836632287,0.003830,-0.080198,-0.015626,0.197129,-3.714627,327.211329,20.033012,0.997722,0.977433,0.006299,0.283414,0.000659,0.000694,0.000005,0.000695,0.000658,81.691036,0.001353,
2206,2008,-1.03239227060206,-14.0140080556845,-0.00070179778020929,0.000705,-0.085335,-0.032273,0.104041,-4.057421,331.198464,19.486812,0.998619,0.978843,0.005899,0.377481,0.001226,0.001300,0.000011,0.001302,0.001225,81.812334,0.002527,
2326,2368,1.52402556248201,-6.11827904364105,-0.0226881502780429,0.005531,-0.078941,-0.016793,0.280775,-3.671564,325.205889,19.889393,0.999164,0.985966,0.004731,0.416971,0.000443,0.000415,-0.000005,0.000444,0.000414,-8.782874,0.000858,
2206,2053,-1.04160078033456,-13.0232536153899,-0.00773621935712754,0.000153,-0.084724,-0.024266,0.053665,-3.989576,330.365384,19.704046,0.997501,0.976577,0.006342,0.289468,0.001136,0.001227,0.000030,0.001236,0.001127,73.105816,0.002363,
2011,2788,-5.39665962781313,3.03554456473279,-0.0305128196794158,0.007764,-0.074811,-0.005388,0.348691,-3.432057,319.492852,20.902323,0.999445,0.991523,0.003838,0.400580,0.000054,0.000042,0.000003,0.000055,0.000042,12.856568,0.000097,
2491,3268,4.94598279501647,13.4857129450619,0.0147869847057223,0.010864,-0.078576,0.012419,0.418143,-3.565859,311.165428,23.014847,0.999833,0.995221,0.002890,0.361126,-0.000002,-0.000082,-0.000029,0.000008,-0.000091,-17.841132,0.000101,
2116,2953,-3.14176296609788,6.62322879129826,-0.00214116535818221,0.009152,-0.075922,0.004489,0.382206,-3.461557,316.500423,21.007640,0.999538,0.991514,0.003676,0.378278,0.000036,-0.000003,0.000002,0.000036,-0.000003,2.445095,0.000041,
2221,2098,-0.720395573276964,-12.0358579354093,-0.00208697438642957,0.001477,-0.083341,-0.021338,0.105924,-3.884041,329.703141,19.702690,0.998192,0.979963,0.005960,0.364934,0.001013,0.001157,0.000031,0.001163,0.001007,78.202600,0.002172,
2176,3268,-1.89006710970132,13.4562592510135,0.0214366508564581,0.011236,-0.076693,0.008870,0.462797,-3.495656,311.393610,21.304315,0.999618,0.994358,0.003170,0.425357,0.000002,0.000011,-0.000005,0.000014,-0.000001,-66.082498,0.000015,
2236,2203,-0.40933452399781,-9.73366749674825,-0.00795575888736266,0.003627,-0.080584,-0.023787,0.213790,-3.783354,328.037942,19.758043,0.999290,0.988385,0.004615,0.487207,0.000766,0.000854,0.000015,0.000856,0.000763,80.419252,0.001621,
2281,2638,0.495166851850474,-0.221833337133894,-0.0284080260122437,0.007508,-0.077425,-0.006830,0.338388,-3.561067,320.876103,20.688589,0.999172,0.986684,0.004412,0.403256,0.000123,0.000087,0.000012,0.000127,0.000084,16.408095,0.000212,
2056,2713,-4.40904832395944,1.40521476924378,-0.0278910076984289,0.007289,-0.075878,-0.000941,0.313520,-3.476278,320.421915,20.925767,0.999132,0.989748,0.004006,0.392464,0.000104,0.000040,0.000007,0.000104,0.000039,6.555046,0.000148,
2011,2593,-5.36927858666845,-1.20830411054683,-0.0289673489644429,0.005890,-0.075151,-0.005919,0.263687,-3.459676,322.578605,21.026585,0.998494,0.987273,0.005055,0.399658,0.000186,0.000033,0.000045,0.000199,0.000020,15.212612,0.000242,
2296,2458,0.853475052117872,-4.14977628317661,-0.0267398570578621,0.006244,-0.078320,-0.009594,0.289043,-3.605337,323.742709,20.269410,0.999203,0.987939,0.004601,0.395503,0.000299,0.000249,-0.000001,0.000299,0.000249,-1.266868,0.000549,
2056,2938,-4.4409895284529,6.29407644912094,-0.0045985956946879,0.009065,-0.075255,0.000696,0.391025,-3.440668,317.040352,20.848572,0.999308,0.991870,0.003721,0.422517,0.000008,-0.000008,-0.000001,0.000008,-0.000008,-4.649394,0.000009,
2146,3088,-2.51106311367188,9.55361505100002,0.0171079208574838,0.010359,-0.076520,0.007855,0.426655,-3.471527,314.376555,21.143535,0.999694,0.995102,0.003065,0.366997,0.000004,-0.000023,-0.000013,0.000009,-0.000029,-22.461223,0.000029,
2161,3058,-2.17976938518414,8.90133521018095,0.0386710821688325,0.009653,-0.076380,0.006244,0.398302,-3.501072,314.961753,21.116915,0.999620,0.995094,0.003349,0.400580,0.000011,-0.000024,-0.000011,0.000014,-0.000027,-15.991840,0.000027,
2026,2638,-5.04912525444747,-0.228813929021349,-0.0268490122270464,0.006674,-0.075052,-0.008980,0.308073,-3.477396,321.817921,20.932154,0.999096,0.990759,0.004105,0.431674,0.000159,0.000018,0.000030,0.000165,0.000011,11.681937,0.000198,
2131,3013,-2.8246725431334,7.92544891046371,0.00692417776406273,0.009679,-0.075969,-0.001617,0.424368,-3.477810,315.574921,21.022819,0.999340,0.991649,0.003760,0.402203,0.000025,-0.000007,0.000001,0.000026,-0.000007,2.057548,0.000026,
2101,2863,-3.45358465295647,4.66812883110812,-0.0158142690158343,0.008775,-0.075622,-0.000918,0.381143,-3.471285,317.919668,20.950220,0.999635,0.992810,0.003509,0.385698,0.000036,0.000049,-0.000007,0.000052,0.000033,-65.656757,0.000086,
2461,3103,4.32702590391905,9.90100135862142,0.0200752382165774,0.009729,-0.078247,0.006377,0.389982,-3.577887,313.819915,22.233300,0.999575,0.992460,0.003613,0.382258,0.000007,-0.000006,0.000030,0.000031,-0.000030,38.915000,0.000035,
2011,3013,-5.42723007867592,7.91795651695606,0.010446114850879,0.009422,-0.075404,0.004258,0.398684,-3.451206,316.229746,20.707439,0.999527,0.993776,0.003325,0.390382,0.000011,-0.000037,-0.000002,0.000012,-0.000037,-2.106555,0.000038,
2146,2983,-2.49543035880544,7.27530600353825,0.00291019119833891,0.009239,-0.076360,0.006106,0.380235,-3.481206,315.924536,21.037716,0.999695,0.994298,0.003183,0.413770,0.000021,-0.000004,0.000001,0.000021,-0.000005,3.028384,0.000022,
2446,3028,4.01515300424617,8.27260497293674,0.00566265464749449,0.009763,-0.077486,0.000500,0.414320,-3.539309,314.921575,21.982550,0.999372,0.988551,0.004086,0.358020,0.000012,0.000000,0.000031,0.000037,-0.000026,39.653080,0.000038,
2476,3283,4.61861210286085,13.8085176863424,0.0236709410875164,0.011351,-0.078421,0.006974,0.462161,-3.572441,311.000396,22.947609,0.999847,0.995885,0.002819,0.395289,-0.000014,-0.000065,-0.000022,-0.000006,-0.000073,-20.100555,0.000088,
2131,3043,-2.82921555312868,8.576132666145,0.0180921319284835,0.009773,-0.076088,0.004436,0.410579,-3.455603,315.165236,21.052125,0.999396,0.992812,0.003570,0.404720,0.000018,-0.000009,-0.000003,0.000019,-0.000009,-5.692039,0.000019,
2086,3073,-3.80962602749603,9.22313503992136,0.022203345602918,0.009855,-0.075999,0.003695,0.417861,-3.477579,314.930111,20.894250,0.999397,0.991456,0.003615,0.391063,0.000002,-0.000013,-0.000006,0.000004,-0.000015,-19.915950,0.000015,
2056,2728,-4.41141022696745,1.7321285547618,-0.0335664301745169,0.007489,-0.075699,-0.002755,0.327910,-3.468095,320.145562,20.918185,0.999234,0.990340,0.003942,0.403259,0.000088,0.000035,0.000008,0.000089,0.000034,8.048169,0.000127,
2011,2608,-5.37247849310826,-0.880011455357341,-0.0425937609428502,0.005917,-0.075639,-0.002794,0.256286,-3.468237,322.214807,21.052793,0.999362,0.991809,0.003996,0.353947,0.000181,0.000016,0.000047,0.000194,0.000003,14.888679,0.000226,
2311,2278,1.21470763516207,-8.0891187174089,-0.00780855563232308,0.005507,-0.080273,-0.018750,0.285477,-3.733810,326.797655,19.770115,0.998909,0.984887,0.004880,0.319389,0.000604,0.000620,-0.000026,0.000639,0.000584,-53.823864,0.001224,
2161,3193,-2.20201568816753,11.8286113313825,0.0401621757849284,0.010378,-0.076703,0.008801,0.423963,-3.492575,312.793972,21.162379,0.999643,0.993929,0.003191,0.445009,-0.000006,0.000006,-0.000021,0.000021,-0.000022,-53.186047,0.000025,
2176,3118,-1.86455751134053,10.2046783023714,0.0313975310233445,0.010080,-0.076415,0.005274,0.420599,-3.489712,313.889490,21.208558,0.999438,0.993560,0.003463,0.416547,-0.000003,-0.000022,-0.000010,0.000001,-0.000026,-23.964351,0.000030,
2026,2848,-5.08057954765279,4.33872456451886,-0.0466946759354983,0.008232,-0.074636,-0.009283,0.380780,-3.473577,318.321341,20.659210,0.999661,0.995486,0.003192,0.574253,0.000026,0.000039,-0.000013,0.000048,0.000018,-57.880653,0.000068,
2251,2203,-0.0826527645718542,-9.73236612000557,-0.0168335633776451,0.003795,-0.080719,-0.023565,0.221240,-3.772718,327.942003,19.709161,0.998829,0.984556,0.005157,0.471521,0.000766,0.000854,0.000006,0.000854,0.000765,86.113121,0.001621,
2206,3283,-1.2423300613513,13.7845336154615,0.015924977301097,0.011435,-0.076677,0.006323,0.478873,-3.495334,311.022318,21.507533,0.999374,0.992986,0.003363,0.401314,-0.000012,0.000025,0.000000,0.000025,-0.000012,-89.864371,0.000025,
2071,2983,-4.12202184696305,7.27059499122704,0.00229789714313711,0.009546,-0.075920,0.003358,0.404933,-3.486821,316.296722,20.848527,0.999291,0.991554,0.003691,0.398577,0.000010,-0.000025,-0.000009,0.000013,-0.000027,-14.011171,0.000027,
2416,2848,3.3952042635701,4.35717638372323,-0.0171845601211658,0.008850,-0.077776,0.001777,0.367852,-3.562114,317.579157,21.277120,0.999191,0.988794,0.004167,0.381258,0.000037,0.000035,0.000023,0.000059,0.000013,43.518279,0.000076,
2176,3283,-1.89265807218088,13.7817107575216,0.0189003945872628,0.011364,-0.076388,0.008336,0.470545,-3.472982,311.133891,21.330861,0.999675,0.995227,0.002970,0.432191,0.000006,0.000028,-0.000004,0.000028,0.000005,-80.611281,0.000036,
2071,2788,-4.09357599142294,3.03582573543893,-0.0188779734055515,0.008251,-0.075856,-0.000668,0.356771,-3.473042,319.241513,20.853381,0.999238,0.989434,0.004123,0.453062,0.000061,0.000050,-0.000001,0.000061,0.000050,-7.140151,0.000111,
2281,2413,0.53466255711368,-5.13490340726085,-0.0163500129029899,0.005324,-0.079006,-0.010124,0.248267,-3.661607,324.534617,20.201828,0.999121,0.987409,0.004720,0.356725,0.000348,0.000341,-0.000009,0.000354,0.000334,-34.105173,0.000688,
2116,3028,-3.15257372319461,8.24937401045201,0.0161300249029637,0.009628,-0.076245,0.007356,0.395654,-3.456285,315.445095,20.967199,0.999266,0.991614,0.003750,0.437838,0.000023,-0.000004,0.000004,0.000024,-0.000004,7.447296,0.000025,
2476,3298,4.61435147171287,14.1347742563993,0.00864119822597331,0.011182,-0.078019,0.004551,0.463792,-3.563140,310.628622,23.002987,0.999598,0.993362,0.003495,0.404528,-0.000022,-0.000072,-0.000016,-0.000018,-0.000076,-16.568459,0.000100,
2116,3208,-3.17894109190231,12.1498842990584,0.0513322630258131,0.010762,-0.076320,0.009062,0.442930,-3.467005,312.848091,20.993392,0.999624,0.994096,0.003232,0.429571,-0.000001,0.000006,-0.000020,0.000023,-0.000017,-49.804310,0.000024,
2296,2473,0.850531514370772,-3.82255343488638,-0.0240762545595317,0.006073,-0.078498,-0.006316,0.270045,-3.616278,323.503236,20.303821,0.998582,0.983292,0.005311,0.381328,0.000283,0.000225,0.000002,0.000284,0.000225,2.115387,0.000510,
2341,2428,1.84202211590199,-4.80826917038394,-0.000294197922528383,0.006252,-0.078436,-0.012815,0.300514,-3.625906,324.438094,20.003227,0.999661,0.993240,0.003917,0.449583,0.000361,0.000330,-0.000004,0.000362,0.000330,-7.265849,0.000692,
2491,3283,4.94311376678347,13.8103407637562,0.00883794118090009,0.011226,-0.078462,0.008486,0.449994,-3.571620,310.901121,22.980244,0.999856,0.995803,0.002799,0.447696,-0.000005,-0.000089,-0.000034,0.000007,-0.000100,-19.446001,0.000112,
2086,2833,-3.77525417184528,4.01562079909539,-0.0172577824233713,0.007977,-0.075818,-0.000867,0.344471,-3.468942,318.433006,20.941597,0.999783,0.995271,0.002925,0.377058,0.000053,0.000051,-0.000012,0.000064,0.000040,-42.041261,0.000105,
2266,2353,0.217614693226892,-6.44679136373698,-0.0146611997046193,0.004392,-0.079246,-0.009139,0.202103,-3.640694,325.493472,20.102710,0.998816,0.984849,0.005191,0.412247,0.000445,0.000431,0.000002,0.000446,0.000431,6.396067,0.000877,
2026,2863,-5.08138482241739,4.66551489317707,-0.0250950897816438,0.009045,-0.075429,0.000992,0.389856,-3.448988,318.266074,20.870030,0.999315,0.992948,0.003765,0.377530,0.000016,0.000030,-0.000005,0.000031,0.000015,-72.979824,0.000047,
2206,2068,-1.04262752345524,-12.6953200104744,0.00238438416943154,0.001012,-0.084229,-0.023388,0.090401,-3.948370,330.245286,19.696431,0.998203,0.979859,0.005920,0.357772,0.001103,0.001191,0.000037,0.001204,0.001090,70.049721,0.002295,
2266,2563,0.182042617913613,-1.85919032018741,-0.02373128172934,0.006859,-0.077370,-0.009624,0.317802,-3.568127,322.133719,20.472067,0.999361,0.990578,0.004111,0.492399,0.000192,0.000137,0.000010,0.000193,0.000135,9.708711,0.000330,
2401,2773,3.08231195671462,2.72348871163337,-0.022859274812788,0.007949,-0.077641,-0.001992,0.340427,-3.571582,318.710412,20.988667,0.999320,0.988407,0.004323,0.413621,0.000048,0.000088,0.000020,0.000097,0.000040,67.450138,0.000141,
2056,2953,-4.44292301587113,6.61949957562632,-0.00172548319670796,0.009197,-0.075155,-0.001111,0.402200,-3.444644,316.831504,20.845565,0.999171,0.992139,0.003748,0.415736,0.000012,-0.000021,-0.000004,0.000012,-0.000021,-6.269267,0.000021,
2356,2548,2.14475915489609,-2.18461464172579,-0.0207465310730868,0.006557,-0.077755,-0.008656,0.300398,-3.587742,322.321417,20.300726,0.998970,0.987221,0.004712,0.469256,0.000218,0.000152,0.000022,0.000224,0.000145,16.736459,0.000372,
2491,1993,5.21012878094198,-14.3534092690424,0.00126458136298879,0.010328,-0.087399,-0.033254,0.561136,-4.133806,331.961147,17.375214,0.997721,0.964171,0.007801,0.355894,0.001738,0.001284,-0.000160,0.001788,0.001234,-17.577390,0.003039,
2011,2803,-5.39916454476581,3.36116303197267,-0.0323313814209882,0.007852,-0.075112,-0.001511,0.342065,-3.450352,319.228163,20.855414,0.999418,0.992195,0.003708,0.417238,0.000065,0.000030,0.000010,0.000068,0.000027,14.188358,0.000098,
2281,2653,0.49291527036053,0.1051010862979,-0.0288910034893206,0.007895,-0.077281,-0.008277,0.361005,-3.580221,320.651203,20.733062,0.999354,0.989419,0.004116,0.367984,0.000113,0.000084,0.000013,0.000118,0.000079,20.395330,0.000198,
2371,2593,2.46312396940857,-1.2019851540652,-0.0231084048164121,0.007093,-0.078374,-0.005685,0.314238,-3.602468,321.589552,20.422858,0.999072,0.987723,0.004594,0.433415,0.000188,0.000129,0.000027,0.000199,0.000119,21.482955,0.000321,
2176,3298,-1.89587866543124,14.106947114449,0.0101160543219407,0.011264,-0.076408,0.007469,0.468647,-3.476339,310.812431,21.333958,0.999800,0.996514,0.002564,0.436699,0.000011,0.000025,-0.000007,0.000028,0.000008,-68.305660,0.000037,
2251,2263,-0.092893475125436,-8.4164864253072,-0.0129340664208826,0.004092,-0.079516,-0.019724,0.222788,-3.705535,327.007088,19.996776,0.998842,0.984131,0.005235,0.354253,0.000624,0.000647,0.000000,0.000647,0.000624,-89.512318,0.001271,
2176,3133,-1.86646520833213,10.5302184313296,0.0354016714559862,0.010324,-0.076287,0.003110,0.438694,-3.471274,313.695619,21.247138,0.999328,0.993405,0.003635,0.407693,-0.000003,-0.000012,-0.000011,0.000004,-0.000019,-33.056642,0.000020,
2071,2803,-4.09623132135402,3.36268970076978,-0.0225976058447941,0.008340,-0.076056,0.001759,0.353900,-3.471064,318.963839,20.886508,0.999288,0.990559,0.003996,0.418802,0.000065,0.000052,0.000002,0.000065,0.000052,9.754184,0.000117,
2041,2638,-4.72376746111118,-0.227644344997138,-0.0313560704232714,0.006543,-0.074869,-0.008617,0.301100,-3.467303,321.682021,20.936501,0.998937,0.989750,0.004317,0.426751,0.000155,0.000023,0.000024,0.000159,0.000019,10.097741,0.000196,
2491,3298,4.94012434316472,14.1360537932162,0.00868247160155988,0.011232,-0.078170,0.007505,0.454196,-3.566519,310.657014,23.070831,0.999731,0.993821,0.003277,0.419484,-0.000012,-0.000101,-0.000039,0.000003,-0.000115,-20.725539,0.000131,
2251,2218,-0.0845396528226168,-9.40294237712877,-0.00919852578596192,0.003986,-0.079718,-0.023713,0.230852,-3.727887,327.772511,19.856122,0.998129,0.978829,0.005943,0.395175,0.000729,0.000802,0.000005,0.000802,0.000729,86.185713,0.001532,
2176,2113,-1.70518708261173,-11.7040104450977,-0.0164747947342789,0.001409,-0.081371,-0.028650,0.124896,-3.845447,329.485166,19.998782,0.998807,0.979975,0.005718,0.395754,0.001016,0.001092,0.000068,0.001132,0.000977,59.585767,0.002111,
2446,3043,4.01219999371004,8.59755323560956,0.0106457731018281,0.009631,-0.078017,0.003352,0.397347,-3.569222,314.701362,22.005098,0.999297,0.988292,0.004099,0.356550,0.000006,0.000014,0.000037,0.000047,-0.000027,48.048823,0.000047,
2386,2653,2.77857581808606,0.106953503154251,-0.0193580509370008,0.007661,-0.078962,0.002459,0.310823,-3.597386,320.651177,20.594431,0.999093,0.986696,0.004590,0.424472,0.000126,0.000099,0.000022,0.000138,0.000087,29.600519,0.000227,
2071,2998,-4.12356705753234,7.59554822961595,0.0211700048348575,0.009322,-0.075644,0.005192,0.389573,-3.441810,316.194606,20.873790,0.999575,0.992587,0.003377,0.414000,0.000006,-0.000017,-0.000007,0.000008,-0.000019,-16.097456,0.000019,
2236,2413,-0.447530388211259,-5.13092557678908,-0.0425863072672996,0.005377,-0.078508,-0.010641,0.252536,-3.611860,324.394185,20.449293,0.999487,0.990961,0.003950,0.293508,0.000331,0.000324,-0.000007,0.000335,0.000320,-30.923346,0.000655,
2431,2953,3.70101103097688,6.64224186115929,-0.019578560476134,0.009076,-0.077912,0.000678,0.382103,-3.562026,315.879438,21.629430,0.999631,0.993259,0.003599,0.395813,0.000017,-0.000024,0.000021,0.000026,-0.000033,22.885466,0.000035,
2341,2443,1.83772669832378,-4.47874588808251,-0.00999847651360142,0.005915,-0.079093,-0.007632,0.266800,-3.623345,324.079761,20.108304,0.999134,0.987932,0.004621,0.385654,0.000339,0.000302,0.000002,0.000339,0.000302,3.392150,0.000642,
2026,2653,-5.05192213634769,0.0984968544412581,-0.033091996161545,0.006761,-0.075332,-0.004879,0.300746,-3.470669,321.515633,20.932122,0.999122,0.991278,0.003955,0.429257,0.000124,0.000028,0.000021,0.000128,0.000024,11.989413,0.000163,
2416,2863,3.39229292305916,4.68336849460093,-0.0136201982917328,0.008637,-0.078037,0.002227,0.356383,-3.564088,317.352796,21.330784,0.999416,0.989879,0.003940,0.373005,0.000033,0.000026,0.000023,0.000053,0.000006,40.070100,0.000065,
2041,2878,-4.75869310518743,4.99205856891697,-0.0192900517836847,0.008487,-0.075349,0.003953,0.355603,-3.434479,317.944855,20.904513,0.998826,0.988054,0.004515,0.371800,0.000025,0.000029,-0.000006,0.000033,0.000021,-54.259503,0.000054,
2011,2623,-5.37355044293192,-0.554962771125723,-0.0318321213841841,0.006399,-0.075455,-0.003332,0.280007,-3.457983,322.086038,20.977447,0.999439,0.992134,0.003799,0.428032,0.000169,-0.000012,0.000043,0.000178,-0.000021,12.641582,0.000195,
2506,1993,5.5381000301349,-14.3529874911296,-0.00390040658595581,0.009754,-0.086806,-0.040795,0.564943,-4.147585,331.967982,17.302830,0.998049,0.971713,0.006975,0.306902,0.001701,0.001214,-0.000154,0.001745,0.001169,-16.152984,0.002933,
2056,2743,-4.41398853056051,2.05810436149063,-0.0330190815383844,0.007329,-0.075717,-0.000665,0.314639,-3.464572,319.893891,20.884183,0.999353,0.991350,0.003837,0.435707,0.000074,0.000041,0.000003,0.000074,0.000041,5.707370,0.000116,
2326,2383,1.52119851996065,-5.78923070182142,-0.0213466203132384,0.005705,-0.078891,-0.012624,0.274437,-3.667268,324.967460,20.034347,0.999413,0.987761,0.004624,0.312367,0.000423,0.000401,-0.000008,0.000426,0.000399,-18.041412,0.000825,
2281,2428,0.532690836829094,-4.80722636304704,-0.0125300799234083,0.005985,-0.078832,-0.007200,0.268893,-3.629051,324.344198,20.229978,0.999374,0.989293,0.004394,0.390015,0.000332,0.000302,-0.000010,0.000336,0.000299,-17.117380,0.000635,
2101,2908,-3.46003359790123,5.64437298134391,-0.000630326762347977,0.008884,-0.076123,0.003307,0.373752,-3.458845,317.307739,20.918440,0.999200,0.992496,0.003922,0.432611,0.000033,0.000019,-0.000009,0.000038,0.000014,-26.483610,0.000054,
2131,3028,-2.82733642466902,8.25053346435439,0.0130346241627421,0.009578,-0.076231,0.005691,0.397732,-3.464634,315.354968,21.013654,0.999343,0.991934,0.003762,0.429374,0.000023,-0.000005,0.000002,0.000023,-0.000005,3.641541,0.000025,
2491,2008,5.20571181646813,-14.0235881509089,0.000851667714641735,0.008996,-0.087098,-0.033851,0.502736,-4.127353,331.657217,17.438399,0.998464,0.970819,0.006891,0.362063,0.001644,0.001270,-0.000164,0.001706,0.001208,-20.645718,0.002928,
2011,3028,-5.42880429698157,8.24293116179635,0.0206484644833722,0.009645,-0.075621,0.006129,0.403946,-3.435052,316.075912,20.709328,0.999490,0.993936,0.003410,0.391801,0.000021,-0.000011,0.000013,0.000025,-0.000016,18.857043,0.000026,
2236,2218,-0.412485885721921,-9.40247690620216,-0.015131324672609,0.003697,-0.079965,-0.022423,0.212833,-3.751590,327.734183,19.924440,0.998656,0.983626,0.005233,0.376577,0.000728,0.000801,0.000015,0.000803,0.000725,78.979388,0.001529,
2026,2878,-5.08342248258895,4.99131996994271,-0.0227428261098339,0.009009,-0.075008,-0.001488,0.395125,-3.449452,318.047275,20.875391,0.998915,0.989152,0.004327,0.361705,0.000023,0.000022,-0.000004,0.000026,0.000018,-41.516624,0.000045,
2206,2263,-1.07494417178412,-8.41687881574979,-0.0122800961517555,0.003185,-0.079713,-0.017367,0.172603,-3.708172,327.063207,20.159743,0.998618,0.982490,0.005381,0.388436,0.000645,0.000643,0.000036,0.000680,0.000608,44.404801,0.001289,
2221,2113,-0.723203966549161,-11.7069134679942,-0.00353789819519079,0.001263,-0.082817,-0.022345,0.099542,-3.893680,329.443551,19.726197,0.998437,0.981442,0.005610,0.353792,0.000978,0.001122,0.000035,0.001131,0.000969,76.975894,0.002102,
2146,3118,-2.51538285982114,10.203278674749,0.0293437704872304,0.010167,-0.076024,0.006405,0.422409,-3.450135,313.984954,21.121692,0.999616,0.995007,0.003132,0.423831,-0.000004,-0.000022,-0.000014,0.000003,-0.000029,-28.959943,0.000032,
2146,3103,-2.51336906671519,9.87764224875813,0.0231694196976377,0.010263,-0.076382,0.009314,0.417832,-3.459324,314.174031,21.055160,0.999816,0.996736,0.002639,0.474470,-0.000001,-0.000025,-0.000012,0.000004,-0.000030,-22.724794,0.000033,
2266,2578,0.178749079007044,-1.5309804643438,-0.0278439373934134,0.006779,-0.077642,-0.006431,0.303492,-3.576965,321.841475,20.567392,0.999096,0.988856,0.004410,0.414866,0.000176,0.000127,0.000009,0.000178,0.000125,9.737870,0.000305,
2311,2293,1.21101733210633,-7.76094055114003,-0.00813452813667936,0.004948,-0.080036,-0.013904,0.243451,-3.695518,326.510585,19.753612,0.998989,0.985733,0.004915,0.409015,0.000571,0.000581,-0.000019,0.000595,0.000557,-52.467184,0.001152,
2296,2488,0.848307396824072,-3.49530719024283,-0.0234732880347792,0.006361,-0.078184,-0.008599,0.291099,-3.614772,323.286472,20.313427,0.999239,0.988749,0.004376,0.404265,0.000265,0.000203,0.000001,0.000265,0.000203,0.685685,0.000470,
2086,2848,-3.77728228671438,4.34041241591022,-0.0103913790081833,0.007999,-0.075702,0.000691,0.341015,-3.460645,318.243643,20.871460,0.999667,0.993791,0.003283,0.454224,0.000045,0.000054,-0.000015,0.000065,0.000034,-52.727117,0.000100,
2041,2653,-4.72623024385812,0.0995162125953684,-0.0403922480688834,0.007070,-0.075359,-0.006144,0.318287,-3.487692,321.381034,20.926858,0.999199,0.990255,0.004126,0.409005,0.000129,0.000032,0.000021,0.000133,0.000027,11.729879,0.000171,
2071,3013,-4.12583954064876,7.92037221716065,0.0259746031363761,0.009263,-0.075861,0.007238,0.380891,-3.452600,315.982110,20.849760,0.999403,0.991830,0.003610,0.423505,0.000006,-0.000011,-0.000004,0.000007,-0.000012,-12.997277,0.000012,
2191,1993,-1.35812128855021,-14.3416087342095,-0.00467832729555084,0.000073,-0.084881,-0.034085,0.080137,-4.045863,331.422858,19.628992,0.999081,0.984321,0.005322,0.333014,0.001295,0.001280,0.000017,0.001307,0.001269,33.191837,0.002575,
2011,2638,-5.3759111714383,-0.22740975079779,-0.0410015104839658,0.006588,-0.075167,-0.007169,0.299188,-3.469298,321.785873,20.987668,0.999008,0.987363,0.004485,0.395228,0.000164,0.000013,0.000051,0.000180,-0.000002,16.901767,0.000206,
2221,2338,-0.761409344470291,-6.77192907740978,-0.0401886076947449,0.004577,-0.078275,-0.018003,0.239306,-3.664724,325.647655,20.293745,0.999517,0.989937,0.004296,0.337071,0.000469,0.000465,0.000011,0.000479,0.000455,39.034090,0.000934,
2281,2668,0.489864720007628,0.433023742524398,-0.0280685745499341,0.007637,-0.077424,-0.006410,0.342945,-3.557353,320.395755,20.842014,0.999601,0.991706,0.003888,0.310171,0.000102,0.000101,0.000009,0.000111,0.000093,42.439859,0.000204,
2131,3058,-2.83157433343285,8.90091461956259,0.0216250902874435,0.009676,-0.076395,0.004517,0.405630,-3.499465,314.945679,21.061562,0.999267,0.992586,0.003745,0.356077,0.000016,-0.000017,-0.000009,0.000018,-0.000019,-14.304687,0.000021,
2461,3118,4.32459986569321,10.2266605298268,0.0182952271164822,0.010346,-0.077984,0.004885,0.424114,-3.568427,313.593265,22.257203,0.999569,0.991002,0.003754,0.421232,0.000003,-0.000007,0.000028,0.000026,-0.000031,39.963645,0.000033,
2041,2893,-4.7606241206869,5.31667096329447,-0.00884244731855688,0.008226,-0.075526,0.003735,0.344069,-3.451291,317.777369,20.879561,0.999159,0.992109,0.003768,0.371749,0.000022,0.000020,-0.000009,0.000030,0.000011,-42.137501,0.000043,
2116,3223,-3.18145168857185,12.4743306614021,0.0489860411994982,0.010831,-0.076613,0.008204,0.448528,-3.492659,312.589105,20.957524,0.999626,0.994829,0.003127,0.442086,0.000001,0.000005,-0.000023,0.000026,-0.000020,-47.639642,0.000027,
2356,2563,2.14157101370494,-1.85599100988069,-0.0226828574147362,0.006510,-0.077843,-0.006780,0.291671,-3.581322,322.052403,20.433971,0.999041,0.990014,0.004405,0.382266,0.000197,0.000149,0.000025,0.000208,0.000138,23.271343,0.000349,
2266,2368,0.215405428524395,-6.1178753379296,-0.0199703076409037,0.005311,-0.079046,-0.008143,0.241050,-3.634871,325.245311,20.162841,0.998637,0.984355,0.005253,0.385444,0.000414,0.000415,0.000001,0.000416,0.000413,66.069257,0.000829,
2206,2083,-1.04578542167718,-12.3652062555611,-0.00648329307699669,0.000969,-0.083671,-0.023902,0.090260,-3.923106,329.929955,19.698284,0.998404,0.979288,0.005891,0.401637,0.001067,0.001177,0.000037,0.001188,0.001056,73.003149,0.002246,
2386,2668,2.77550412549798,0.434612850940724,-0.0254279143405256,0.007572,-0.078416,-0.002484,0.324733,-3.598780,320.370178,20.646728,0.999210,0.988330,0.004391,0.414746,0.000110,0.000105,0.000023,0.000130,0.000085,41.692566,0.000217,
2506,2008,5.53465997296408,-14.0239686620617,-7.35704920202807E-05,0.009558,-0.086806,-0.035548,0.535850,-4.127040,331.728949,17.327389,0.998224,0.973879,0.006870,0.367857,0.001606,0.001209,-0.000158,0.001661,0.001154,-19.252649,0.002830,
2296,2713,0.806872427395476,1.41388618625332,-0.0391335858543584,0.007692,-0.077395,-0.000525,0.325523,-3.541578,319.537187,20.815383,0.999745,0.993496,0.003445,0.437162,0.000076,0.000124,0.000020,0.000131,0.000069,70.558939,0.000203,
2176,2128,-1.70822015237908,-11.3751081047774,-0.0140129422773043,0.001015,-0.082020,-0.023934,0.092038,-3.860745,329.231690,20.072284,0.998523,0.981249,0.005629,0.322551,0.000975,0.001062,0.000068,0.001099,0.000938,61.249995,0.002039,
2416,2878,3.38944514495833,5.01045826283117,-0.0168590386845153,0.008933,-0.077479,0.001428,0.373191,-3.529778,317.097145,21.384540,0.999456,0.991127,0.003732,0.401286,0.000030,0.000026,0.000027,0.000055,0.000001,42.604013,0.000064,
2101,2878,-3.45631390286987,4.99330049127244,-0.0161402823244998,0.008604,-0.076071,0.000971,0.367543,-3.500383,317.660081,20.907344,0.999609,0.992575,0.003649,0.400526,0.000038,0.000046,-0.000009,0.000052,0.000032,-56.873641,0.000085,
2026,2668,-5.05381177024137,0.424554615990232,-0.0339370593777062,0.007111,-0.075348,-0.006086,0.320127,-3.482123,321.285397,20.885627,0.999157,0.990281,0.004041,0.455046,0.000104,0.000027,0.000022,0.000110,0.000021,14.587258,0.000141,
2086,3088,-3.81203712721486,9.54840449873851,0.0221275779760504,0.009829,-0.075807,0.003078,0.418559,-3.465716,314.685420,20.876313,0.999374,0.991473,0.003677,0.419011,-0.000008,-0.000013,-0.000006,-0.000004,-0.000017,-32.388315,0.000022,
2131,3283,-2.86784775856128,13.777675392878,0.0226008311053079,0.011169,-0.075960,0.009097,0.461152,-3.461524,311.330514,21.098551,0.999736,0.995584,0.002811,0.424285,0.000022,0.000014,-0.000017,0.000035,0.000000,-38.666925,0.000041,
2026,2893,-5.08603361389818,5.3161994714051,-0.0116228767035409,0.008287,-0.075500,0.002868,0.349668,-3.459847,317.851536,20.873472,0.999173,0.992922,0.003617,0.342770,0.000021,0.000012,-0.000010,0.000027,0.000006,-32.670682,0.000035,
2056,2758,-4.41563715286709,2.38360746265659,-0.0224058261674145,0.007469,-0.075843,0.001220,0.315711,-3.467622,319.740455,20.897189,0.999227,0.990897,0.004002,0.414274,0.000066,0.000040,-0.000006,0.000067,0.000039,-12.324771,0.000107,
2491,2023,5.20315510222435,-13.6936197151282,0.00996777524511572,0.008829,-0.086209,-0.033204,0.493053,-4.075946,331.480884,17.583335,0.998716,0.971731,0.006590,0.330922,0.001577,0.001316,-0.000180,0.001669,0.001224,-27.000881,0.002904,
2506,2023,5.53143338469964,-13.6922349375061,-0.00158335113695784,0.009996,-0.085933,-0.030880,0.538283,-4.041246,331.475416,17.478804,0.998618,0.970929,0.006892,0.367210,0.001545,0.001273,-0.000180,0.001635,0.001184,-26.455520,0.002831,
2371,2608,2.46053140446999,-0.874354713192282,-0.0248891882517341,0.007379,-0.077976,-0.007325,0.333375,-3.586925,321.349880,20.472146,0.998868,0.987042,0.004617,0.441727,0.000168,0.000112,0.000030,0.000181,0.000099,23.046405,0.000284,
2401,2788,3.07893137815725,3.05105274032724,-0.0246655035517733,0.007955,-0.078021,0.001988,0.326207,-3.565623,318.436115,21.098328,0.999439,0.988361,0.004324,0.355425,0.000045,0.000080,0.000019,0.000089,0.000036,66.212444,0.000128,
2161,2038,-2.02186681516554,-13.3509092889442,-0.0128791503516368,-0.000610,-0.084544,-0.028772,0.030980,-3.978221,330.677912,19.945473,0.998437,0.984093,0.005357,0.338501,0.001196,0.001194,0.000058,0.001253,0.001137,44.393961,0.002391,
2251,2233,-0.0877638187350058,-9.07422021264328,-0.0144524063281892,0.004068,-0.080246,-0.019597,0.220998,-3.743272,327.477194,19.870176,0.998252,0.979900,0.005750,0.391579,0.000685,0.000755,0.000001,0.000755,0.000685,89.207903,0.001441,
2041,2908,-4.76216380446543,5.64187233894237,-0.00513419155794281,0.008736,-0.075642,0.002979,0.369663,-3.458463,317.590219,20.853253,0.999338,0.992431,0.003610,0.382941,0.000021,0.000003,-0.000011,0.000026,-0.000002,-25.685313,0.000029,
2341,2458,1.83348180359631,-4.15046858144405,-0.0185850162365,0.005264,-0.079171,-0.005965,0.231098,-3.626010,323.729317,20.121205,0.999381,0.988113,0.004425,0.408437,0.000316,0.000278,0.000006,0.000317,0.000277,8.540752,0.000594,
2236,2428,-0.448935214535499,-4.80630420336051,-0.0255253828024706,0.005612,-0.078656,-0.007145,0.251927,-3.613428,324.294492,20.358008,0.999313,0.990245,0.004129,0.405296,0.000313,0.000286,-0.000005,0.000314,0.000285,-10.441301,0.000599,
2101,2923,-3.46253573436632,5.97019793439759,-0.000661040074646735,0.008796,-0.076107,0.003123,0.370174,-3.476153,317.059955,20.937689,0.999141,0.991089,0.004021,0.396653,0.000030,0.000008,-0.000002,0.000031,0.000008,-4.082091,0.000040,
2431,2968,3.69797744688489,6.96805428193235,-0.0197917183248251,0.008854,-0.077600,-0.001490,0.380021,-3.567698,315.630489,21.654068,0.999667,0.995491,0.003238,0.414883,0.000012,-0.000020,0.000027,0.000028,-0.000036,29.804933,0.000037,
2116,3238,-3.18421699349092,12.7997335960186,0.04300721607882,0.011053,-0.076681,0.009971,0.453508,-3.494234,312.298444,20.969338,0.999631,0.995194,0.002931,0.430983,0.000002,-0.000001,-0.000023,0.000023,-0.000023,-42.829501,0.000027,
2116,3043,-3.15421924344205,8.57557980465885,0.024350782372494,0.009908,-0.076385,0.007210,0.408876,-3.474664,315.282034,21.109023,0.999571,0.993592,0.003377,0.279972,0.000018,-0.000007,-0.000002,0.000018,-0.000008,-4.125124,0.000018,
2296,2503,0.844582125072581,-3.16583752066048,-0.0331294629352215,0.006131,-0.077975,-0.008021,0.278704,-3.590808,322.949534,20.416003,0.999599,0.992682,0.003762,0.357294,0.000250,0.000193,0.000000,0.000250,0.000193,0.218387,0.000444,
2491,2038,5.20047880600765,-13.3644233269936,0.0114243810443213,0.009240,-0.085538,-0.031782,0.506758,-4.060390,331.264917,17.611714,0.998565,0.971716,0.006801,0.380519,0.001505,0.001296,-0.000170,0.001601,0.001201,-29.207111,0.002811,
2011,3043,-5.43095280658752,8.56798522148712,0.0215440279769723,0.009654,-0.075242,0.004741,0.408153,-3.438877,315.843431,20.679881,0.999438,0.993984,0.003501,0.404800,0.000021,-0.000001,0.000006,0.000022,-0.000003,14.620699,0.000024,
2011,2653,-5.37826079707644,0.0990129716279924,-0.0430518515760809,0.006690,-0.075111,-0.005534,0.299439,-3.460266,321.526439,20.939750,0.998915,0.986770,0.004598,0.440846,0.000129,0.000024,0.000035,0.000140,0.000013,16.917085,0.000169,
2206,2098,-1.04789574135299,-12.035923091725,-0.00439946579524531,0.001453,-0.083562,-0.021030,0.103382,-3.907670,329.718951,19.760831,0.998482,0.982043,0.005641,0.373971,0.001031,0.001149,0.000040,0.001161,0.001019,73.096551,0.002181,
2311,2308,1.20660319907858,-7.43058956418198,-0.0257751699185178,0.004590,-0.079912,-0.014188,0.228053,-3.698091,326.105183,19.808634,0.999161,0.987563,0.004854,0.386474,0.000537,0.000529,-0.000013,0.000547,0.000520,-36.750994,0.001066,
2386,2683,2.77203981553677,0.76399405665574,-0.0357027408181239,0.007813,-0.077841,-0.002571,0.336369,-3.559814,320.050620,20.787620,0.999305,0.988111,0.004236,0.357007,0.000098,0.000111,0.000024,0.000129,0.000079,52.638277,0.000211,
2191,2008,-1.36050771145223,-14.0137803066985,-0.00349648392636936,0.000532,-0.086132,-0.027801,0.081115,-4.061045,331.193785,19.546933,0.998575,0.982742,0.005699,0.418046,0.001255,0.001266,0.000035,0.001297,0.001225,49.392653,0.002522,
2236,2233,-0.415975648206253,-9.07346621375856,-0.0179825311154787,0.003475,-0.080224,-0.015938,0.181644,-3.743950,327.437303,19.966976,0.998671,0.984100,0.005091,0.365615,0.000683,0.000755,0.000012,0.000756,0.000681,80.949888,0.001438,
2221,2353,-0.763671171899524,-6.44594467904289,-0.0303162787146789,0.004498,-0.078762,-0.013719,0.221817,-3.673390,325.471099,20.244623,0.999175,0.988599,0.004560,0.398129,0.000443,0.000421,0.000009,0.000447,0.000417,19.734316,0.000864,
2191,2188,-1.38978853412752,-10.0593399654496,-0.0111241771662662,0.002279,-0.080345,-0.022061,0.145177,-3.756334,328.296096,20.127260,0.998267,0.978330,0.005836,0.354469,0.000826,0.000887,0.000054,0.000918,0.000795,59.763497,0.001714,
2251,2278,-0.0951826408964642,-8.08845189658908,-0.0108329901860884,0.004513,-0.079486,-0.016538,0.231727,-3.680212,326.791489,19.998786,0.999187,0.985847,0.004870,0.403137,0.000592,0.000617,-0.000001,0.000618,0.000592,-87.856364,0.001210,
2041,2668,-4.72797943793817,0.425065548594411,-0.0296306300198808,0.007070,-0.075575,-0.004229,0.312891,-3.488499,321.222851,20.920605,0.999153,0.988972,0.004368,0.407134,0.000109,0.000030,0.000024,0.000116,0.000023,15.887544,0.000149,
2506,2038,5.52810644970668,-13.3643326840828,0.00735815635931658,0.009435,-0.086432,-0.026123,0.494199,-4.062484,331.264429,17.511314,0.998243,0.968446,0.007192,0.378036,0.001481,0.001269,-0.000173,0.001578,0.001172,-29.250010,0.002759,
2011,2818,-5.40194120372065,3.68600099200035,-0.0265609085678307,0.007454,-0.075920,0.006304,0.302230,-3.464194,318.993928,20.794992,0.999098,0.991198,0.003864,0.451583,0.000062,0.000028,0.000007,0.000064,0.000027,10.329752,0.000093,
2206,2278,-1.07705468714486,-8.08874349544975,-0.0083434507396305,0.003575,-0.079911,-0.014171,0.180294,-3.717743,326.861818,20.223575,0.998628,0.983329,0.005290,0.333644,0.000610,0.000608,0.000029,0.000639,0.000580,44.126806,0.001219,
2086,2863,-3.77935036690083,4.66742863347073,-0.0134224623899968,0.008447,-0.075564,-0.000412,0.364922,-3.453484,317.997847,20.936684,0.999467,0.991307,0.003856,0.395028,0.000037,0.000045,-0.000013,0.000055,0.000028,-54.113270,0.000084,
2131,3298,-2.87001174101956,14.1020210449257,0.0240563504164015,0.011385,-0.076119,0.008487,0.472967,-3.466649,311.108944,21.075125,0.999674,0.994084,0.003145,0.446989,0.000034,0.000018,-0.000018,0.000046,0.000006,-32.810688,0.000056,
2161,3208,-2.20395976311732,12.1538880292582,0.0443021944757334,0.010628,-0.076371,0.007588,0.439350,-3.478971,312.598318,21.199290,0.999597,0.994701,0.003047,0.430358,-0.000005,0.000006,-0.000018,0.000020,-0.000019,-53.268161,0.000022,
2266,2383,0.212826111103585,-5.79014942676387,-0.0226084467414012,0.005643,-0.079214,-0.007412,0.253843,-3.623860,324.993743,20.140579,0.997789,0.980360,0.005802,0.446141,0.000388,0.000396,0.000000,0.000396,0.000388,87.991867,0.000785,
2071,2818,-4.09848613737083,3.68863527831173,-0.0187402316232124,0.008100,-0.075611,0.000108,0.347736,-3.457302,318.746299,20.886263,0.999437,0.991347,0.003924,0.429537,0.000063,0.000056,-0.000002,0.000064,0.000056,-17.755446,0.000119,
2281,2443,0.529288254450059,-4.47991605263251,-0.0149765263774384,0.005650,-0.079241,-0.004591,0.244682,-3.636548,324.057176,20.210430,0.999460,0.989666,0.004319,0.431599,0.000314,0.000279,-0.000003,0.000315,0.000279,-5.402979,0.000594,
2056,2773,-4.41724822546012,2.70954274705191,-0.01893283718681,0.007801,-0.075512,-0.001544,0.338891,-3.472455,319.549285,20.898622,0.998968,0.989031,0.004307,0.402568,0.000062,0.000037,-0.000005,0.000063,0.000036,-9.745981,0.000100,
2461,3133,4.32193919214043,10.5526876682807,0.0225152274499578,0.010544,-0.077981,0.007123,0.424818,-3.561477,313.383135,22.358806,0.999534,0.989990,0.003831,0.379958,0.000002,-0.000020,0.000023,0.000017,-0.000034,32.381454,0.000034,
2266,2593,0.175771248488001,-1.20395606317349,-0.0280545157178835,0.006720,-0.077849,-0.003334,0.290495,-3.563490,321.583459,20.570920,0.998902,0.988003,0.004574,0.451309,0.000166,0.000106,0.000009,0.000167,0.000105,8.492786,0.000275,
2326,2398,1.51939021564061,-5.46331359880224,-0.0105606959214697,0.005655,-0.078498,-0.015219,0.281221,-3.652584,324.822226,19.977571,0.999328,0.987662,0.004723,0.419624,0.000401,0.000382,-0.000008,0.000404,0.000379,-20.456873,0.000783,
2101,3133,-3.49310307731092,10.5250973661209,0.0344851405752138,0.010288,-0.075880,0.005983,0.430777,-3.465603,313.991077,20.995412,0.999798,0.995728,0.002776,0.356009,-0.000002,-0.000002,-0.000007,0.000005,-0.000009,-43.878849,0.000009,
2056,2968,-4.44523664557961,6.94449764493233,0.00389297796931487,0.009174,-0.075387,0.003470,0.388081,-3.455436,316.620562,20.833117,0.999199,0.991469,0.003741,0.411397,0.000010,-0.000029,-0.000009,0.000012,-0.000031,-12.224473,0.000032,
2146,3133,-2.51791667527975,10.527583794935,0.0322338521606866,0.010054,-0.076420,0.007804,0.412760,-3.475756,313.755040,21.083220,0.999444,0.994061,0.003441,0.443419,-0.000003,-0.000012,-0.000015,0.000009,-0.000023,-36.529663,0.000023,
2086,3103,-3.81409968071958,9.87356524979158,0.0258050585076717,0.010069,-0.075792,0.004857,0.424473,-3.460573,314.477260,20.882639,0.999693,0.994240,0.003119,0.415885,-0.000007,-0.000015,-0.000003,-0.000006,-0.000016,-19.659270,0.000023,
2026,2683,-5.05789689088473,0.752793822638765,-0.0428666323244897,0.006388,-0.076267,0.003137,0.261310,-3.462553,320.908859,20.946528,0.999767,0.995687,0.003037,0.404501,0.000100,0.000018,0.000025,0.000107,0.000011,15.758215,0.000130,
2176,2143,-1.71026531000805,-11.0466471917266,-0.00571056897450717,0.001212,-0.081619,-0.019125,0.086325,-3.808173,329.053521,20.105535,0.998002,0.981468,0.005734,0.356654,0.000938,0.001003,0.000076,0.001053,0.000888,56.568620,0.001944,
2041,2683,-4.73053069256165,0.752422452559571,-0.03437424029471,0.007201,-0.075447,-0.002563,0.314393,-3.460563,320.941433,20.926645,0.999360,0.991427,0.003903,0.422028,0.000106,0.000021,0.000024,0.000112,0.000015,14.806468,0.000139,
2236,2443,-0.450926088061546,-4.47804977221372,-0.0181511151999985,0.005726,-0.078529,-0.007076,0.256997,-3.614145,324.117963,20.510186,0.999458,0.992101,0.004010,0.274580,0.000291,0.000274,0.000000,0.000291,0.000274,-1.548032,0.000565,
2296,2728,0.804930239880303,1.73980907498535,-0.0288805271264891,0.007904,-0.077774,0.001830,0.327213,-3.539934,319.380878,20.856748,0.999569,0.991804,0.003710,0.427211,0.000070,0.000115,0.000018,0.000122,0.000064,70.317805,0.000188,
2011,3058,-5.43228383306833,8.89284661223787,0.031202423498371,0.009987,-0.074900,0.003744,0.426280,-3.435933,315.697826,20.686793,0.999238,0.993089,0.003500,0.387883,0.000015,0.000000,0.000007,0.000018,-0.000003,22.264646,0.000019,
2221,2128,-0.72482139370144,-11.3771021683208,-0.00229745450570817,0.002029,-0.081668,-0.023744,0.139530,-3.840620,329.251698,19.800724,0.998130,0.981045,0.005640,0.354302,0.000941,0.001089,0.000033,0.001096,0.000933,77.889712,0.002032,
2101,2938,-3.46502563901575,6.29628912217065,-0.00333817607565834,0.008758,-0.075935,0.000852,0.375143,-3.474398,316.798283,20.947934,0.999174,0.990990,0.004006,0.388982,0.000027,0.000001,0.000000,0.000027,0.000001,-0.844490,0.000032,
2026,2908,-5.08732790322408,5.64111209158784,0.000676468989183832,0.008625,-0.075465,0.004117,0.361900,-3.439263,317.722691,20.854752,0.999177,0.992602,0.003656,0.371723,0.000021,-0.000001,-0.000013,0.000027,-0.000007,-24.654325,0.000028,
2491,2053,5.19500456985289,-13.0315717827763,-0.0116953468280485,0.008852,-0.086026,-0.031567,0.488079,-4.094897,330.810573,17.754355,0.998478,0.977687,0.006202,0.266548,0.001447,0.001276,-0.000170,0.001551,0.001172,-31.619731,0.002732,
2161,2053,-2.02324434027293,-13.0223582769136,-0.00466599320100158,-0.000062,-0.083722,-0.028210,0.054635,-3.931997,330.528792,19.962713,0.998436,0.983908,0.005358,0.380378,0.001157,0.001183,0.000061,0.001233,0.001108,51.012296,0.002342,
2281,2683,0.487230803315757,0.758545492639712,-0.0251229228107377,0.007813,-0.077776,-0.002021,0.336246,-3.560846,320.170637,20.778903,0.999582,0.992037,0.003746,0.398002,0.000096,0.000107,0.000010,0.000112,0.000090,59.988393,0.000203,
2071,3028,-4.12834989456379,8.24632408799898,0.0181713128024512,0.009508,-0.075789,0.005328,0.397649,-3.468814,315.689139,20.854450,0.999536,0.993316,0.003359,0.398795,0.000005,0.000000,-0.000001,0.000005,-0.000001,-10.310346,0.000005,
2251,2488,-0.131728031082599,-3.49708678654446,-0.0177850481721862,0.005962,-0.078025,-0.009278,0.275160,-3.604319,323.382042,20.371440,0.999542,0.990462,0.003925,0.457098,0.000251,0.000212,0.000009,0.000253,0.000210,12.389020,0.000464,
2011,2668,-5.37992379605194,0.424621574348635,-0.0344737782716038,0.006886,-0.075447,-0.003299,0.302306,-3.469637,321.358378,20.928771,0.999014,0.987484,0.004392,0.430775,0.000103,0.000026,0.000033,0.000115,0.000014,20.025335,0.000141,
2311,2323,1.20463367347367,-7.10259742109933,-0.0224372610208547,0.005037,-0.079723,-0.015312,0.252456,-3.687647,325.914981,19.850581,0.998845,0.985015,0.005118,0.388916,0.000509,0.000488,-0.000010,0.000514,0.000484,-22.325717,0.000998,
2401,2803,3.07640408167339,3.37713257397386,-0.0245553175237205,0.008250,-0.077967,0.000885,0.343834,-3.557464,318.210377,21.088667,0.999491,0.990434,0.004092,0.418657,0.000045,0.000066,0.000019,0.000078,0.000034,59.019378,0.000114,
2116,3253,-3.18697174394341,13.1258303686384,0.0394234688606048,0.010933,-0.076251,0.008640,0.452176,-3.462574,312.020895,21.029994,0.999693,0.996508,0.002605,0.403814,0.000008,-0.000004,-0.000019,0.000021,-0.000018,-36.278366,0.000023,
2296,2518,0.841635020360815,-2.83810923811109,-0.0390361574184794,0.006290,-0.077528,-0.008804,0.288829,-3.580400,322.667178,20.412506,0.999526,0.991746,0.003832,0.402491,0.000241,0.000184,0.000005,0.000242,0.000183,4.901983,0.000426,
2236,2248,-0.418209838276102,-8.74571391814419,-0.00977314350535607,0.003461,-0.080154,-0.013126,0.171922,-3.719836,327.254140,19.997225,0.998527,0.982261,0.005462,0.382623,0.000655,0.000697,0.000019,0.000704,0.000648,69.254819,0.001352,
2056,2788,-4.4198851634182,3.03631235658245,-0.0221050334445749,0.007951,-0.075963,0.002633,0.333895,-3.469343,319.274232,20.921204,0.999120,0.989410,0.004163,0.377960,0.000055,0.000050,0.000001,0.000055,0.000049,14.628864,0.000105,
2161,3223,-2.2062770858955,12.4788450563272,0.0486275661648392,0.010621,-0.076286,0.008286,0.437011,-3.462800,312.386614,21.208512,0.999637,0.994933,0.003005,0.446090,-0.000003,0.000006,-0.000023,0.000025,-0.000022,-50.437236,0.000027,
2446,3058,4.0095002953609,8.92392693586635,0.00930528889119842,0.009997,-0.077778,0.002839,0.416211,-3.559581,314.463085,22.081591,0.999527,0.990491,0.003881,0.341290,0.000005,0.000016,0.000035,0.000046,-0.000025,49.261641,0.000046,
2506,2053,5.52379328946657,-13.0338040148848,0.00503577447221915,0.008961,-0.087233,-0.020257,0.449631,-4.078776,330.957918,17.656833,0.998444,0.980636,0.006053,0.280986,0.001429,0.001249,-0.000177,0.001537,0.001141,-31.561724,0.002688,
2206,2113,-1.05043838237197,-11.7068187576644,-0.00354550346895621,0.001381,-0.082847,-0.021091,0.100549,-3.874459,329.481776,19.781162,0.998516,0.983388,0.005248,0.406836,0.000994,0.001114,0.000044,0.001128,0.000979,71.790819,0.002110,
2416,2893,3.38675789173151,5.33650569216424,-0.0146688196878131,0.008989,-0.077749,0.001069,0.377014,-3.543608,316.874582,21.434797,0.999462,0.990833,0.003838,0.384656,0.000032,0.000014,0.000026,0.000050,-0.000004,35.157828,0.000056,
2371,2623,2.4571797406186,-0.547241644478234,-0.0260369666420388,0.007316,-0.078317,-0.003062,0.315261,-3.580620,321.078445,20.493690,0.998846,0.987744,0.004551,0.468048,0.000154,0.000105,0.000024,0.000164,0.000095,22.456647,0.000261,
2041,2923,-4.76397479156332,5.96686196411767,-0.0058455352603346,0.009119,-0.075636,0.000142,0.395174,-3.470762,317.366206,20.784796,0.999397,0.992870,0.003509,0.431281,0.000012,0.000001,-0.000002,0.000012,0.000001,-8.578569,0.000014,
2356,2578,2.13913811351705,-1.5294771725957,-0.0206007506677679,0.006692,-0.078129,-0.007587,0.302784,-3.588918,321.837807,20.427819,0.998963,0.988190,0.004558,0.420425,0.000185,0.000151,0.000025,0.000199,0.000138,27.923523,0.000338,
2086,2878,-3.7816208814794,4.99224707140696,-0.00903311959160646,0.008408,-0.075861,0.001469,0.357571,-3.477015,317.783966,20.889916,0.999396,0.991762,0.003871,0.416948,0.000038,0.000041,-0.000015,0.000055,0.000024,-48.269629,0.000081,
2221,2143,-0.726937532749314,-11.0484431237611,-0.00340558880100161,0.002705,-0.082034,-0.021681,0.163809,-3.843355,329.025475,19.805857,0.998449,0.982979,0.005401,0.368182,0.000908,0.001022,0.000041,0.001035,0.000895,72.000605,0.001932,
2026,2923,-5.08959521347267,5.96678386372342,-0.00166890830195143,0.008739,-0.075315,0.003147,0.369918,-3.426910,317.467242,20.812079,0.999337,0.993113,0.003516,0.416642,0.000011,0.000001,-0.000003,0.000012,0.000000,-17.948684,0.000014,
2296,2743,0.803408947487725,2.06579137784673,-0.0200652585677972,0.008524,-0.077691,0.002586,0.353162,-3.545994,319.236750,20.902773,0.999454,0.990485,0.003918,0.405363,0.000065,0.000107,0.000019,0.000114,0.000058,69.042957,0.000175,
2266,2398,0.209958919619162,-5.46172281618136,-0.021884102169679,0.005259,-0.078854,-0.009298,0.242596,-3.627809,324.745731,20.235024,0.998698,0.985717,0.005005,0.374962,0.000367,0.000368,0.000000,0.000368,0.000367,65.465451,0.000735,
2071,3043,-4.1310326644568,8.57260274229145,0.0122040293696273,0.009435,-0.075634,0.002854,0.401525,-3.441506,315.398161,20.863136,0.999506,0.993264,0.003377,0.413542,0.000002,-0.000003,-0.000008,0.000007,-0.000009,-36.172531,0.000009,
2026,2698,-5.05970398719008,1.07890510765297,-0.0431069338739576,0.006717,-0.075657,0.000773,0.283112,-3.451675,320.685725,20.897604,0.999793,0.995461,0.003055,0.454964,0.000099,0.000017,0.000016,0.000102,0.000014,10.513449,0.000126,
2011,2833,-5.40272934442465,4.01265549749247,-0.016562906591048,0.007999,-0.075424,0.000602,0.342993,-3.463295,318.873906,20.921791,0.999610,0.994441,0.003472,0.313394,0.000046,0.000029,-0.000009,0.000050,0.000025,-23.526002,0.000076,
2086,3118,-3.81649177517925,10.1988319740076,0.0278195881754186,0.010005,-0.075749,0.005343,0.420151,-3.451161,314.244875,20.887583,0.999725,0.994491,0.002987,0.418257,-0.000011,-0.000010,-0.000006,-0.000005,-0.000017,-47.933532,0.000022,
2386,2698,2.76969134611793,1.08953706312621,-0.0294872910081381,0.007805,-0.078057,-0.003333,0.338671,-3.580543,319.861534,20.776712,0.999338,0.990130,0.003977,0.390645,0.000088,0.000120,0.000024,0.000133,0.000075,61.635427,0.000210,
2146,1993,-2.342201037486,-14.3401280174857,-0.000182572108542445,-0.001697,-0.085091,-0.027518,-0.023390,-3.999720,331.506043,19.973389,0.998631,0.981955,0.005445,0.353607,0.001355,0.001265,0.000064,0.001388,0.001231,27.443113,0.002621,
2221,2368,-0.765379925168009,-6.11748277924026,-0.0214769260795151,0.004760,-0.078467,-0.013712,0.233936,-3.645881,325.313956,20.379469,0.999411,0.989537,0.004391,0.311238,0.000414,0.000397,0.000005,0.000415,0.000395,15.385532,0.000810,
2341,2473,1.83179603860107,-3.82254591635502,-0.0191651888335969,0.006142,-0.078607,-0.009771,0.284849,-3.617822,323.534999,20.170438,0.999296,0.987990,0.004410,0.405192,0.000296,0.000253,0.000008,0.000298,0.000251,9.968395,0.000550,
2191,2203,-1.39233504071267,-9.73016824775023,-0.0159570825448441,0.002502,-0.079646,-0.023159,0.159084,-3.719423,328.027901,20.122422,0.998373,0.979439,0.005776,0.413494,0.000793,0.000855,0.000053,0.000885,0.000763,60.189396,0.001650,
2461,3148,4.3193325364076,10.8781554924463,0.0249727340513459,0.010582,-0.077832,0.005033,0.434576,-3.552308,313.167508,22.399176,0.999532,0.989585,0.003779,0.402019,0.000000,-0.000026,0.000025,0.000015,-0.000041,31.256053,0.000041,
2506,2068,5.52211696368453,-12.7052515742301,0.0239342391378159,0.008841,-0.086345,-0.019828,0.442897,-4.019945,330.866248,17.788334,0.999079,0.983470,0.005404,0.272400,0.001372,0.001255,-0.000204,0.001526,0.001102,-36.991963,0.002639,
2311,2338,1.20168240131619,-6.77541855676984,-0.0148941609912185,0.004874,-0.080341,-0.007233,0.217262,-3.669440,325.700489,19.856708,0.999078,0.984936,0.004825,0.435018,0.000482,0.000461,-0.000010,0.000486,0.000457,-22.613272,0.000944,
2251,2293,-0.0983619795478639,-7.75944907480235,-0.0154018652447121,0.004197,-0.078739,-0.017933,0.222030,-3.648750,326.501273,20.021015,0.998932,0.984166,0.005102,0.437930,0.000560,0.000579,0.000005,0.000580,0.000559,76.409957,0.001139,
2266,2608,0.172931911044131,-0.876264878949883,-0.0295641199998613,0.006679,-0.077817,-0.003264,0.288365,-3.572706,321.325148,20.651763,0.999071,0.987869,0.004511,0.387508,0.000149,0.000093,0.000013,0.000152,0.000090,12.256745,0.000245,
2116,3268,-3.18899378325661,13.4508302552376,0.0338073103015404,0.011520,-0.076052,0.004880,0.490467,-3.472655,311.766475,21.024033,0.999736,0.996021,0.002733,0.402170,0.000015,0.000003,-0.000015,0.000025,-0.000008,-34.205462,0.000026,
2431,2983,3.69648258711345,7.29245200877358,-0.00252149447175043,0.009289,-0.078078,0.002937,0.383521,-3.560780,315.534030,21.659871,0.999608,0.991633,0.003703,0.465063,0.000011,-0.000012,0.000027,0.000029,-0.000030,33.848112,0.000034,
2296,2758,0.800112047803893,2.39284114260843,-0.027602552979431,0.008286,-0.077482,-0.000639,0.353155,-3.577394,318.929775,20.946242,0.999450,0.990484,0.003948,0.360719,0.000061,0.000105,0.000020,0.000112,0.000053,68.762842,0.000169,
2026,2938,-5.0922361857251,6.29179811525334,0.00347205684522578,0.008518,-0.076221,0.010240,0.339898,-3.449494,317.236806,20.801271,0.999269,0.991735,0.003758,0.394512,0.000008,-0.000007,0.000007,0.000011,-0.000010,20.372061,0.000012,
2071,2833,-4.10081530731285,4.01476630713447,-0.010870657453836,0.007821,-0.075839,0.002934,0.326693,-3.468427,318.547348,20.961987,0.999456,0.991976,0.003644,0.339044,0.000057,0.000049,-0.000010,0.000064,0.000042,-34.061038,0.000107,
2206,2128,-1.05249887956888,-11.3769167038669,-0.00636407437309572,0.001839,-0.081793,-0.024214,0.131778,-3.835191,329.247596,19.833606,0.998429,0.982934,0.005382,0.413403,0.000955,0.001081,0.000044,0.001095,0.000941,72.500122,0.002038,
2326,2413,1.51590009586571,-5.13546485124871,-0.0196388036612802,0.005703,-0.078392,-0.014218,0.280008,-3.658604,324.502761,19.932927,0.999253,0.987535,0.004778,0.494488,0.000372,0.000356,-0.000008,0.000375,0.000353,-22.876702,0.000728,
2296,2533,0.838928941459461,-2.51213050802265,-0.043396696933371,0.006741,-0.078027,-0.007289,0.304229,-3.612723,322.403988,20.310769,0.999665,0.993948,0.003414,0.503012,0.000228,0.000166,0.000006,0.000229,0.000166,5.305198,0.000396,
2491,2068,5.19046115740923,-12.7005830026344,-0.016057656638452,0.007982,-0.085104,-0.029124,0.439419,-4.011530,330.482274,17.826465,0.999000,0.979521,0.005891,0.340921,0.001389,0.001284,-0.000184,0.001527,0.001145,-37.029929,0.002681,
2446,3073,4.00610389314225,9.24908242633466,0.00940205797849103,0.009994,-0.078152,0.007817,0.397349,-3.561013,314.199645,22.070467,0.999678,0.993382,0.003425,0.402197,0.000006,0.000010,0.000032,0.000040,-0.000024,46.806053,0.000040,
2056,2803,-4.42217478471022,3.36258050216319,-0.0234638659595703,0.008205,-0.076192,0.004687,0.339788,-3.462767,319.025244,20.913091,0.999193,0.990331,0.004066,0.387190,0.000060,0.000049,0.000005,0.000062,0.000047,21.529039,0.000109,
2056,2983,-4.44742065447524,7.27045516874797,0.0045229987981088,0.009394,-0.075323,0.004844,0.394407,-3.443929,316.387678,20.855783,0.999105,0.990035,0.003905,0.394069,-0.000005,-0.000033,-0.000012,0.000000,-0.000037,-20.369914,0.000043,
2176,2158,-1.71533723400608,-10.7109365459554,-0.0541571935855814,0.001739,-0.080596,-0.021972,0.119654,-3.797301,328.440193,20.239766,0.999026,0.961619,0.006990,0.250320,0.000900,0.000951,0.000071,0.001001,0.000851,54.881710,0.001853,
2281,2698,0.48469200253847,1.0854050919617,-0.0212751358878336,0.007641,-0.077470,-0.002884,0.331321,-3.556883,319.954007,20.842678,0.999772,0.993636,0.003473,0.366026,0.000088,0.000118,0.000016,0.000125,0.000081,66.682168,0.000208,
2131,3073,-2.83423738276091,9.22637938970657,0.0248356898133011,0.009443,-0.076049,0.006831,0.388113,-3.476767,314.710122,21.069012,0.999605,0.994601,0.003317,0.376209,0.000011,-0.000019,-0.000010,0.000014,-0.000022,-17.526414,0.000022,
2041,2698,-4.73292036751216,1.07864526348713,-0.0314848656466893,0.007069,-0.075850,-0.000263,0.301813,-3.466457,320.710161,20.930084,0.999270,0.991121,0.003931,0.405171,0.000104,0.000020,0.000016,0.000107,0.000017,10.709152,0.000134,
2236,2458,-0.454031463702993,-4.15160790531858,-0.0140074671821253,0.004995,-0.078692,-0.006294,0.220841,-3.606137,323.874260,20.461783,0.999365,0.990236,0.004267,0.353444,0.000274,0.000251,0.000006,0.000275,0.000249,14.713372,0.000525,
2251,2503,-0.134960204124564,-3.16765604845537,-0.0214334997941705,0.005816,-0.077635,-0.006924,0.260945,-3.568914,323.093419,20.512518,0.999384,0.989659,0.004180,0.376145,0.000238,0.000194,0.000009,0.000240,0.000193,10.853743,0.000433,
2191,2023,-1.36267344887476,-13.6822809842324,-0.00362363850598513,0.000815,-0.084362,-0.028795,0.097766,-3.995619,330.967088,19.709273,0.998293,0.983491,0.005515,0.339107,0.001226,0.001251,0.000048,0.001288,0.001189,52.219407,0.002477,
2281,2458,0.526823075951288,-4.15080387439976,-0.0178210343154888,0.005894,-0.078317,-0.007368,0.265528,-3.590684,323.810551,20.304005,0.999585,0.990619,0.004189,0.413289,0.000295,0.000250,0.000001,0.000295,0.000250,0.860790,0.000545,
2356,2593,2.13655881349858,-1.20149682793608,-0.0283729807293867,0.007308,-0.078243,-0.010816,0.342347,-3.618643,321.568784,20.497148,0.999034,0.987908,0.004537,0.361073,0.000177,0.000129,0.000028,0.000190,0.000116,24.739274,0.000309,
2506,2083,5.51909497071134,-12.3751568375251,0.00626096654275443,0.009432,-0.084233,-0.031567,0.516095,-3.957502,330.550094,17.655640,0.999064,0.985091,0.005076,0.532506,0.001312,0.001257,-0.000212,0.001498,0.001070,-41.282773,0.002581,
2071,3058,-4.13289066664093,8.89688051486687,0.0153167325573236,0.009862,-0.076064,0.004281,0.417024,-3.457023,315.195638,20.794275,0.999232,0.992620,0.003516,0.462867,0.000000,-0.000013,-0.000009,0.000005,-0.000018,-27.616737,0.000018,
2161,2068,-2.02539101998299,-12.6936139295897,-0.000299946711038501,0.000227,-0.083672,-0.023967,0.054938,-3.911459,330.324483,19.984938,0.998840,0.984316,0.005298,0.391930,0.001122,0.001161,0.000068,0.001213,0.001070,53.016694,0.002285,
2011,3073,-5.43492567936972,9.21792824601451,0.0268994336652213,0.009935,-0.075312,0.004360,0.422218,-3.426246,315.413516,20.620204,0.999187,0.993440,0.003577,0.451386,0.000010,-0.000008,0.000011,0.000015,-0.000013,25.028156,0.000016,
2221,2158,-0.729515971405906,-10.7181702084011,-0.00849765597956775,0.002881,-0.080933,-0.024189,0.180262,-3.790090,328.757215,19.865357,0.998500,0.984850,0.005341,0.383928,0.000877,0.000977,0.000038,0.000990,0.000864,71.191647,0.001855,
2116,3058,-3.15671686787567,8.89920720049525,0.0218749547682364,0.009978,-0.076226,0.006436,0.414412,-3.489880,315.023182,20.943849,0.999534,0.993471,0.003496,0.432739,0.000016,-0.000017,-0.000008,0.000018,-0.000019,-13.040048,0.000021,
2386,2713,2.7675830412894,1.41553922766807,-0.0224280509532946,0.008037,-0.078052,-0.003293,0.349172,-3.583121,319.687294,20.800341,0.999533,0.991761,0.003644,0.407868,0.000078,0.000118,0.000026,0.000131,0.000065,63.624316,0.000200,
2461,3163,4.31689466611516,11.2033465242961,0.0300696681192676,0.010675,-0.078040,0.004196,0.441965,-3.561351,312.971789,22.451641,0.999544,0.991044,0.003739,0.393882,-0.000002,-0.000019,0.000024,0.000015,-0.000036,35.619383,0.000036,
2041,2938,-4.76706301440538,6.29297749144894,-0.00761530720757264,0.008716,-0.075474,0.004274,0.365158,-3.450712,317.077353,20.784594,0.999268,0.991543,0.003762,0.443403,0.000009,-0.000007,0.000006,0.000011,-0.000009,18.959697,0.000012,
2161,3238,-2.20900247251054,12.804410858921,0.0407455232652296,0.010907,-0.076246,0.007198,0.453519,-3.470053,312.091360,21.231185,0.999672,0.994924,0.003003,0.425218,-0.000002,0.000001,-0.000022,0.000022,-0.000023,-46.787781,0.000026,
2146,2008,-2.34244519457035,-14.011382854677,-3.49322529018536E-05,-0.000012,-0.083700,-0.034464,0.075227,-3.976120,331.365179,19.922859,0.998059,0.981286,0.005775,0.438652,0.001306,0.001247,0.000079,0.001361,0.001193,34.743410,0.002556,
2401,2818,3.07433806295457,3.70373526335685,-0.0206390789892339,0.008706,-0.077740,-0.000246,0.368967,-3.552806,318.023619,21.163980,0.999382,0.989512,0.004329,0.393518,0.000034,0.000062,0.000020,0.000073,0.000024,62.375392,0.000101,
2206,2293,-1.07864213204943,-7.75934031032109,-0.0147472729739206,0.004428,-0.078502,-0.022149,0.245186,-3.689346,326.630727,20.265777,0.998877,0.985698,0.004942,0.338881,0.000579,0.000568,0.000031,0.000605,0.000542,40.165545,0.001147,
2236,2263,-0.420498509683444,-8.41663512742328,-0.00739798345085774,0.003524,-0.079574,-0.014374,0.179087,-3.679427,327.038552,20.076884,0.998967,0.983821,0.005264,0.366919,0.000621,0.000649,0.000014,0.000655,0.000615,67.210950,0.001271,
2086,3133,-3.81842933505327,10.5239372084088,0.0319379577149448,0.010214,-0.075548,0.005045,0.430735,-3.446349,314.044911,20.898778,0.999714,0.994182,0.002976,0.409939,-0.000007,0.000000,-0.000008,0.000005,-0.000013,-56.306738,0.000013,
2086,2893,-3.78355290621868,5.31816327372623,-0.00773639319857011,0.008776,-0.075883,0.001243,0.375178,-3.472392,317.568361,20.897044,0.999337,0.993504,0.003709,0.412916,0.000034,0.000030,-0.000016,0.000048,0.000016,-41.040694,0.000067,
2296,2773,0.797683071959035,2.71972286905413,-0.0276570637784062,0.008324,-0.077086,-0.004404,0.367850,-3.550775,318.699615,20.980488,0.999364,0.989642,0.004106,0.383215,0.000058,0.000089,0.000016,0.000096,0.000051,67.433957,0.000150,
2341,2488,1.82965787503146,-3.49579274427752,-0.0157779668812736,0.006530,-0.078435,-0.010030,0.303670,-3.608382,323.339311,20.152724,0.999270,0.987607,0.004385,0.470284,0.000277,0.000223,0.000010,0.000278,0.000222,9.904384,0.000501,
2026,2953,-5.09329272930558,6.61779409019767,0.00395598207535386,0.009185,-0.075148,0.001063,0.396184,-3.440865,317.052590,20.820243,0.999480,0.992509,0.003484,0.373818,0.000013,-0.000024,0.000002,0.000013,-0.000024,3.009788,0.000024,
2026,2713,-5.06132323551259,1.4056035939002,-0.0397893991674323,0.007143,-0.075442,0.000338,0.303981,-3.443987,320.490891,20.939099,0.999657,0.994281,0.003416,0.411542,0.000096,0.000035,0.000009,0.000098,0.000033,7.903374,0.000136,
2491,2083,5.18876067091213,-12.3720127174509,-0.010973655264479,0.008756,-0.084291,-0.031337,0.483625,-3.994817,330.327069,17.854512,0.999155,0.979049,0.005690,0.391412,0.001329,0.001282,-0.000188,0.001495,0.001117,-41.465750,0.002621,
2431,2998,3.6941456886047,7.6188938951782,0.00325476571521222,0.009592,-0.078231,0.004552,0.391398,-3.568048,315.344720,21.791837,0.999350,0.985169,0.004519,0.375098,0.000009,-0.000008,0.000029,0.000031,-0.000030,36.918911,0.000035,
2266,2413,0.207934885989609,-5.13523973317947,-0.0132941692465351,0.005158,-0.078611,-0.010929,0.243434,-3.635834,324.576142,20.235280,0.999001,0.987254,0.004649,0.393519,0.000347,0.000345,-0.000002,0.000348,0.000344,-36.875876,0.000692,
2416,2908,3.38376065156227,5.66221582580444,-0.0156805663377781,0.009101,-0.077992,0.002094,0.378237,-3.570398,316.622800,21.447861,0.999576,0.991459,0.003703,0.392093,0.000027,0.000000,0.000023,0.000040,-0.000013,30.485371,0.000041,
2101,3148,-3.49527398840353,10.848739782074,0.0404952656923001,0.010311,-0.076100,0.008000,0.425868,-3.468622,313.792145,20.894749,0.999867,0.996688,0.002632,0.453790,0.000003,0.000000,-0.000007,0.000009,-0.000006,-39.358956,0.000009,
2281,2713,0.482007869187822,1.4113685328315,-0.0165234343957081,0.007521,-0.077523,-0.000109,0.316507,-3.547804,319.735397,20.830473,0.999711,0.993299,0.003494,0.415442,0.000077,0.000115,0.000016,0.000121,0.000072,70.382352,0.000195,
2206,2143,-1.05460852796693,-11.046965578602,-0.00941524919079484,0.002415,-0.081761,-0.025304,0.161622,-3.848495,329.010209,19.946258,0.998966,0.985709,0.004966,0.306944,0.000920,0.001014,0.000054,0.001039,0.000895,65.486814,0.001936,
2251,2308,-0.100408699906978,-7.43168561332593,-0.0149676401106262,0.004512,-0.078924,-0.021333,0.247549,-3.685376,326.288627,20.053514,0.998286,0.980555,0.005665,0.394233,0.000531,0.000529,0.000008,0.000538,0.000522,42.550144,0.001060,
2071,3073,-4.13494985298374,9.22220627202271,0.0184255339137849,0.009981,-0.075864,0.003929,0.423541,-3.460559,314.983487,20.813458,0.999281,0.991839,0.003703,0.435869,-0.000002,-0.000014,-0.000008,0.000002,-0.000018,-25.424360,0.000020,
2071,2848,-4.10363672773342,4.34197600558299,-0.020553307133639,0.007977,-0.075536,0.003059,0.333669,-3.446607,318.229245,20.975855,0.999620,0.994001,0.003288,0.344047,0.000050,0.000051,-0.000015,0.000065,0.000036,-46.528713,0.000102,
2326,2428,1.51199674628085,-4.80482473538206,-0.0306718196554243,0.005805,-0.078782,-0.009292,0.267620,-3.631247,324.154114,20.098380,0.999369,0.989882,0.004382,0.393032,0.000353,0.000326,-0.000006,0.000355,0.000324,-11.927280,0.000679,
2056,2998,-4.44941230515136,7.59558227476967,0.00948261194560018,0.009491,-0.075664,0.005406,0.397266,-3.444894,316.187847,20.847932,0.999144,0.990197,0.003955,0.395001,-0.000010,-0.000022,-0.000011,-0.000003,-0.000029,-30.856999,0.000036,
2011,3163,-5.4474782941952,11.1680020767124,0.0436296406605265,0.010297,-0.075150,0.005467,0.435927,-3.431919,314.099178,20.596944,0.999586,0.994496,0.003187,0.390944,0.000012,0.000000,-0.000029,0.000035,-0.000024,-39.025897,0.000036,
2191,2218,-1.39444439804342,-9.40158842009763,-0.016557232540606,0.002808,-0.079216,-0.025210,0.179704,-3.715149,327.801857,20.146047,0.998424,0.981607,0.005682,0.411268,0.000756,0.000805,0.000053,0.000840,0.000722,57.329874,0.001563,
2146,3148,-2.5208170827579,10.8534019266134,0.0284178206966885,0.010032,-0.076139,0.009360,0.407103,-3.463891,313.472029,21.109432,0.999497,0.993248,0.003475,0.435877,0.000000,-0.000006,-0.000014,0.000012,-0.000018,-38.375302,0.000018,
2491,2098,5.18674865973964,-12.0444721463999,0.0139060727331639,0.008142,-0.084150,-0.026615,0.437619,-3.974266,330.246292,18.007046,0.999357,0.984992,0.005067,0.320755,0.001274,0.001272,-0.000187,0.001460,0.001086,-44.859315,0.002555,
2146,2023,-2.34666301243415,-13.6804937665749,-0.0022578452359312,-0.001063,-0.084137,-0.025490,-0.000196,-3.947188,331.030036,20.041729,0.997399,0.980725,0.005920,0.360935,0.001258,0.001216,0.000071,0.001311,0.001163,36.773754,0.002475,
2356,2608,2.13417079813205,-0.8749424035705,-0.0220156274163514,0.007541,-0.078189,-0.007254,0.340616,-3.584468,321.376588,20.499392,0.998951,0.987588,0.004572,0.432671,0.000160,0.000110,0.000030,0.000174,0.000096,25.411851,0.000274,
2281,2473,0.523980394878926,-3.8232489001946,-0.0194369029933341,0.005993,-0.078209,-0.005659,0.264437,-3.582598,323.553142,20.309435,0.999348,0.989320,0.004368,0.445040,0.000277,0.000226,0.000002,0.000277,0.000226,2.669177,0.000504,
2011,3088,-5.4368694358922,9.54292965993221,0.032500776934512,0.009926,-0.075327,0.003788,0.423347,-3.433450,315.217023,20.630597,0.999556,0.994994,0.003082,0.420936,0.000000,-0.000032,-0.000002,0.000000,-0.000032,-3.181631,0.000038,
2116,3283,-3.19232269780961,13.775222540658,0.0329737983321934,0.010960,-0.076211,0.008345,0.454279,-3.474500,311.478057,20.984620,0.999805,0.995738,0.002789,0.441488,0.000030,0.000013,-0.000012,0.000036,0.000006,-27.582550,0.000046,
2296,2548,0.837017642773386,-2.18452072119624,-0.027793354144876,0.006642,-0.077996,-0.004190,0.289268,-3.586739,322.275494,20.483132,0.999246,0.989732,0.004235,0.387200,0.000214,0.000144,0.000010,0.000215,0.000142,7.662639,0.000360,
2191,2038,-1.36567685697356,-13.3512769445757,-0.0149373144660103,0.000926,-0.084496,-0.031369,0.110835,-4.012414,330.644738,19.788497,0.998703,0.986199,0.005006,0.261780,0.001194,0.001220,0.000047,0.001256,0.001158,52.606171,0.002415,
2101,2953,-3.46753367466195,6.62230435845836,-0.00401808502766698,0.008993,-0.075992,0.005112,0.373530,-3.461250,316.546601,20.958414,0.999345,0.991570,0.003785,0.392490,0.000029,-0.000006,0.000000,0.000029,-0.000006,0.666482,0.000031,
2311,2353,1.19935711574425,-6.44611958736082,-0.0194554397066327,0.005242,-0.079417,-0.012614,0.252829,-3.668737,325.454968,19.959538,0.999242,0.986109,0.004618,0.366969,0.000453,0.000423,-0.000010,0.000456,0.000420,-17.033750,0.000877,
2236,2473,-0.456198541200525,-3.82517993177053,-0.0121058241264222,0.005226,-0.078076,-0.007346,0.235089,-3.599504,323.662144,20.396894,0.999417,0.991248,0.004053,0.447291,0.000261,0.000232,0.000011,0.000264,0.000228,17.899114,0.000493,
2251,2518,-0.137690509368237,-2.84005140947947,-0.0243767449404686,0.005818,-0.077305,-0.008691,0.266927,-3.556332,322.831794,20.520754,0.999029,0.987282,0.004628,0.405046,0.000229,0.000186,0.000011,0.000231,0.000184,13.395962,0.000416,
2446,3088,4.00440233947435,9.57501819524015,0.0196398778408025,0.010333,-0.077980,0.006330,0.418631,-3.550402,314.060826,22.187645,0.999687,0.993539,0.003436,0.346732,0.000006,0.000009,0.000026,0.000034,-0.000018,46.424804,0.000034,
2056,2818,-4.42431991875763,3.68875291395339,-0.0225773815500929,0.008218,-0.075715,0.002719,0.346132,-3.437147,318.795257,20.898922,0.999208,0.989881,0.004090,0.421573,0.000056,0.000053,0.000002,0.000057,0.000052,24.615796,0.000109,
2041,2713,-4.73536101915172,1.40533270451894,-0.0306506961952664,0.007186,-0.076115,0.004865,0.292854,-3.459640,320.465007,20.950940,0.999066,0.989663,0.004188,0.384034,0.000105,0.000035,0.000010,0.000106,0.000034,8.254284,0.000146,
2086,3148,-3.82019426816048,10.8485791001277,0.0387019576726289,0.010402,-0.075566,0.004294,0.441655,-3.438804,313.867504,20.884004,0.999781,0.995602,0.002798,0.430276,0.000000,0.000001,-0.000009,0.000009,-0.000009,-46.567694,0.000011,
2131,3088,-2.83561921825247,9.5508403167924,0.0311742838947566,0.010013,-0.076266,0.004932,0.420050,-3.485043,314.550520,21.038209,0.999781,0.995879,0.003039,0.403332,0.000006,-0.000017,-0.000012,0.000011,-0.000022,-22.334958,0.000022,
2266,2428,0.205457891568987,-4.80639701097523,-0.0151296132694938,0.005701,-0.078167,-0.007994,0.258838,-3.592734,324.332853,20.305832,0.999118,0.988232,0.004501,0.393163,0.000330,0.000305,-0.000003,0.000330,0.000305,-6.628616,0.000635,
2236,2278,-0.423250975500014,-8.08847031396922,-0.0107671766274393,0.003919,-0.080145,-0.010125,0.183258,-3.696551,326.772951,20.077145,0.998926,0.984885,0.005027,0.373048,0.000587,0.000616,0.000009,0.000619,0.000585,73.198083,0.001203,
2401,2833,3.07104100480607,4.03104859093788,-0.0254320986645666,0.008721,-0.077490,-0.000146,0.369453,-3.537214,317.738909,21.231864,0.999249,0.988727,0.004288,0.386755,0.000031,0.000054,0.000022,0.000067,0.000018,59.310141,0.000090,
2161,2083,-2.02774418446697,-12.3627825277704,-0.000337442115096565,0.000165,-0.082526,-0.026449,0.060075,-3.881577,330.087286,20.144312,0.998777,0.984162,0.005385,0.275953,0.001084,0.001154,0.000069,0.001196,0.001042,58.368323,0.002240,
2176,2173,-1.72030750117487,-10.3774415839414,-0.0882891263151464,0.001538,-0.080539,-0.022711,0.112726,-3.762966,327.906213,20.312743,0.999667,0.929311,0.008902,0.228325,0.000866,0.000915,0.000068,0.000963,0.000818,54.980154,0.001783,
2266,2623,0.17030222431837,-0.550016421191842,-0.0252856206994352,0.006658,-0.078353,0.000031,0.276342,-3.572059,321.105791,20.644771,0.999372,0.988407,0.004303,0.421207,0.000134,0.000090,0.000011,0.000137,0.000087,12.820606,0.000226,
2056,3013,-4.45200193028448,7.92088768652982,0.00962178300704863,0.009348,-0.075688,0.006931,0.386340,-3.446075,315.933939,20.827791,0.998798,0.987584,0.004615,0.407805,-0.000010,-0.000014,-0.000005,-0.000007,-0.000018,-33.871300,0.000025,
2026,2968,-5.09537878879136,6.94286133097346,0.00684824877413348,0.009293,-0.075092,0.002109,0.398288,-3.441175,316.835021,20.783708,0.999475,0.992436,0.003445,0.399674,0.000013,-0.000038,-0.000006,0.000014,-0.000039,-6.981201,0.000040,
2461,3178,4.31383518066412,11.5292736226673,0.0313239964732475,0.010611,-0.077859,0.005150,0.435607,-3.540562,312.729473,22.522585,0.999590,0.992363,0.003585,0.396742,-0.000005,-0.000015,0.000021,0.000011,-0.000032,38.427491,0.000033,
2251,2323,-0.103607098500689,-7.10276941055212,-0.0195094672268965,0.004567,-0.079065,-0.017331,0.236973,-3.662763,325.997652,20.088132,0.998393,0.983134,0.005420,0.407716,0.000505,0.000495,0.000005,0.000507,0.000493,20.710716,0.001000,
2221,2383,-0.768100526660678,-5.79080646627653,-0.0208333193542671,0.004674,-0.078614,-0.012263,0.225283,-3.645178,325.068985,20.302620,0.999259,0.989165,0.004400,0.409401,0.000388,0.000378,0.000003,0.000389,0.000377,17.674310,0.000765,
2086,2908,-3.78581560019083,5.64407843033861,-0.00562265991572986,0.008925,-0.076057,0.003570,0.375251,-3.472928,317.342066,20.919235,0.999323,0.992518,0.003762,0.389099,0.000030,0.000014,-0.000018,0.000041,0.000003,-32.920373,0.000050,
2506,2098,5.51479847797902,-12.0412021220583,-0.000491569864493613,0.009400,-0.083867,-0.025348,0.490909,-3.921579,330.223876,18.030105,0.999194,0.986748,0.005007,0.258908,0.001258,0.001260,-0.000209,0.001468,0.001050,-45.079145,0.002530,
2026,2728,-5.06260438918531,1.73061954384064,-0.028959870320648,0.007440,-0.075444,-0.000314,0.319465,-3.446893,320.354020,20.901300,0.999544,0.992544,0.003622,0.436573,0.000077,0.000031,0.000011,0.000079,0.000028,12.845602,0.000112,
2011,2848,-5.40509601999571,4.33768924737279,-0.0215663508544708,0.008046,-0.075223,-0.001795,0.351730,-3.462632,318.597890,20.790965,0.999662,0.995089,0.003361,0.432976,0.000038,0.000036,-0.000018,0.000055,0.000019,-43.817321,0.000077,
2011,3103,-5.43897830531473,9.86788561164915,0.0366421930009437,0.009957,-0.075489,0.005178,0.421042,-3.423001,315.004779,20.613246,0.999533,0.994842,0.003090,0.435609,0.000001,-0.000026,-0.000003,0.000001,-0.000027,-7.317853,0.000030,
2371,2638,2.45455466496699,-0.219122875811642,-0.0260302772582008,0.007652,-0.078057,-0.001919,0.326771,-3.553942,320.845563,20.601692,0.998860,0.988159,0.004501,0.428545,0.000138,0.000098,0.000019,0.000146,0.000090,21.312899,0.000238,
2416,2923,3.38129018540984,5.98868169924685,-0.010794352841117,0.009247,-0.078096,0.002823,0.382267,-3.577962,316.422587,21.557768,0.999693,0.992271,0.003560,0.321901,0.000025,-0.000007,0.000018,0.000033,-0.000015,24.137028,0.000033,
2116,3073,-3.15978291217938,9.22621316320915,0.0126667027562348,0.009789,-0.075595,0.003551,0.414486,-3.468203,314.700734,21.013881,0.999654,0.993641,0.003594,0.387122,0.000011,-0.000018,-0.000009,0.000014,-0.000020,-16.088446,0.000021,
2221,2173,-0.731956818362793,-10.389677042285,-0.00777427906433559,0.002829,-0.080231,-0.025998,0.183878,-3.766351,328.525346,19.859749,0.998523,0.984313,0.005300,0.434870,0.000844,0.000937,0.000036,0.000950,0.000831,71.092088,0.001783,
2146,3163,-2.52229884458204,11.1781002272237,0.0385306801739489,0.010301,-0.076224,0.007791,0.424258,-3.469931,313.328707,21.138424,0.999578,0.992097,0.003582,0.407470,-0.000002,-0.000002,-0.000018,0.000015,-0.000020,-45.299106,0.000021,
2041,2953,-4.76853988262957,6.61889865938847,-0.00347573827582437,0.009013,-0.075028,-0.000716,0.392912,-3.447530,316.895285,20.828888,0.999493,0.993219,0.003334,0.394062,0.000014,-0.000021,0.000002,0.000014,-0.000021,3.060376,0.000022,
2341,2503,1.82597376772663,-3.16732192844692,-0.0216714231293054,0.006271,-0.078292,-0.007921,0.284494,-3.603723,323.027385,20.217354,0.999112,0.987486,0.004459,0.448371,0.000253,0.000209,0.000008,0.000255,0.000208,10.392055,0.000463,
2041,2728,-4.73686378291771,1.73153502746856,-0.0306837988794655,0.007617,-0.075547,-0.001112,0.329509,-3.457907,320.258165,20.929655,0.999318,0.991151,0.003740,0.399764,0.000088,0.000032,0.000011,0.000090,0.000030,10.969931,0.000125,
2431,3013,3.6913538215752,7.94541477198228,0.000994633523475841,0.009597,-0.077738,0.000110,0.408322,-3.548975,315.096953,21.854090,0.999352,0.986469,0.004318,0.381267,0.000010,-0.000007,0.000029,0.000032,-0.000029,36.824867,0.000035,
2251,2533,-0.140996583371003,-2.51203459492586,-0.0309829976775973,0.005938,-0.078055,-0.004538,0.258598,-3.573129,322.525229,20.568582,0.999479,0.992050,0.003792,0.364986,0.000213,0.000169,0.000010,0.000215,0.000166,12.560060,0.000382,
2161,3253,-2.2122936103427,13.1296360572856,0.0298412290465535,0.011025,-0.076404,0.009030,0.453289,-3.478746,311.754219,21.211910,0.999649,0.994735,0.003072,0.444469,0.000001,0.000005,-0.000013,0.000017,-0.000010,-48.716825,0.000017,
2206,2308,-1.08132772474477,-7.43183767952637,-0.0122009518525488,0.004118,-0.078289,-0.022079,0.230811,-3.656779,326.395760,20.225915,0.998615,0.985802,0.004920,0.430143,0.000553,0.000521,0.000029,0.000570,0.000504,30.384424,0.001075,
2011,3178,-5.44931708316793,11.4925461358972,0.0441665343483919,0.010576,-0.075160,0.002687,0.456324,-3.451143,313.879370,20.566960,0.999771,0.995830,0.002653,0.388413,0.000008,0.000003,-0.000035,0.000041,-0.000029,-42.842546,0.000042,
2101,3163,-3.49787049969911,11.1748058538942,0.0334856716073091,0.010471,-0.075686,0.005727,0.440031,-3.464854,313.502147,20.935196,0.999763,0.995395,0.002904,0.417194,-0.000001,0.000006,-0.000013,0.000016,-0.000011,-52.477249,0.000017,
2116,3298,-3.19460197725502,14.1004216170924,0.0275567618734271,0.011430,-0.076030,0.006880,0.480421,-3.464600,311.212803,20.986832,0.999709,0.993693,0.003282,0.451336,0.000044,0.000019,-0.000012,0.000049,0.000014,-22.240609,0.000067,
2071,2863,-4.10505121378069,4.66672655840413,-0.0149602468691796,0.008483,-0.075517,0.001550,0.361262,-3.454549,318.060207,20.912332,0.999366,0.991727,0.003804,0.396119,0.000041,0.000043,-0.000012,0.000054,0.000030,-47.140199,0.000085,
2281,2488,0.520835800876366,-3.49661601653705,-0.022138822756574,0.006071,-0.078398,-0.001145,0.252848,-3.591697,323.276690,20.242756,0.999584,0.991268,0.004029,0.531764,0.000258,0.000208,-0.000001,0.000258,0.000208,-0.831906,0.000467,
2281,2728,0.478895650558723,1.73861631885485,-0.0205499981381649,0.007706,-0.077766,0.003825,0.311855,-3.530378,319.452948,20.861091,0.999685,0.992875,0.003465,0.430568,0.000072,0.000108,0.000014,0.000113,0.000067,70.576536,0.000182,
2266,2443,0.20301949215893,-4.47837331900137,-0.0113479709710305,0.005747,-0.078440,-0.006876,0.257160,-3.609207,324.119847,20.418754,0.999381,0.989405,0.004389,0.290627,0.000310,0.000284,0.000002,0.000310,0.000283,4.434508,0.000593,
2446,3103,4.00137712798616,9.89945460674179,0.0238206712397755,0.009901,-0.078017,0.005629,0.401343,-3.562875,313.833445,22.154201,0.999716,0.993635,0.003425,0.419135,0.000009,0.000000,0.000028,0.000032,-0.000024,40.502220,0.000033,
2296,2563,0.834901786932946,-1.85775955163309,-0.0178075848921253,0.006604,-0.078213,-0.003064,0.283656,-3.579407,322.110029,20.549390,0.998838,0.988120,0.004795,0.358783,0.000193,0.000144,0.000011,0.000195,0.000141,12.216850,0.000338,
2491,2113,5.1836573693487,-11.7162926755467,0.0172743889768299,0.007839,-0.083983,-0.026807,0.424604,-3.947864,330.019477,17.979302,0.999326,0.984305,0.005201,0.436910,0.001222,0.001235,-0.000184,0.001413,0.001044,-46.012499,0.002467,
2356,2623,2.13075260009277,-0.546827998326762,-0.0255374460086273,0.007213,-0.077697,-0.007579,0.326895,-3.560116,321.089190,20.574133,0.998750,0.987984,0.004591,0.422140,0.000144,0.000107,0.000026,0.000158,0.000093,27.091442,0.000254,
2086,2923,-3.78814657442371,5.97017179172962,-0.00973930492222053,0.009112,-0.075968,0.001336,0.390358,-3.481009,317.078653,20.924793,0.999245,0.991327,0.003866,0.374128,0.000025,0.000003,-0.000010,0.000029,-0.000001,-20.336414,0.000033,
2506,2113,5.51128157466777,-11.7132514223533,-0.000823182549993362,0.008986,-0.083617,-0.025781,0.473815,-3.919552,329.962391,17.966683,0.999268,0.986127,0.005118,0.388702,0.001210,0.001217,-0.000209,0.001422,0.001005,-45.456223,0.002438,
2131,3103,-2.83807737389922,9.87610571679482,0.0344583525608755,0.009996,-0.076293,0.007404,0.411873,-3.469040,314.324855,21.041252,0.999767,0.996060,0.002916,0.421086,0.000002,-0.000021,-0.000010,0.000006,-0.000025,-21.184501,0.000026,
2026,2983,-5.09794759255733,7.26887668511385,0.00341413126932366,0.009226,-0.074713,0.001906,0.395965,-3.414246,316.559615,20.767622,0.999291,0.992380,0.003613,0.432393,0.000001,-0.000046,-0.000012,0.000004,-0.000049,-13.156173,0.000055,
2041,2743,-4.73960911667156,2.05753246942505,-0.0298335531359726,0.007266,-0.075751,0.001314,0.306541,-3.452339,319.999399,20.897510,0.999474,0.991656,0.003722,0.430111,0.000072,0.000039,0.000006,0.000073,0.000038,10.553957,0.000113,
2191,2053,-1.36899159265542,-13.0221539170211,-0.0135327171628887,0.000372,-0.083944,-0.026114,0.069275,-3.972224,330.373872,19.788831,0.998263,0.982930,0.005546,0.319754,0.001158,0.001209,0.000051,0.001241,0.001126,58.284191,0.002367,
2386,2728,2.76470847930872,1.74254561797929,-0.0208254213342798,0.008207,-0.078098,0.000204,0.344488,-3.562232,319.451599,20.852490,0.999505,0.991081,0.003864,0.420226,0.000067,0.000112,0.000029,0.000126,0.000053,63.959449,0.000184,
2461,3193,4.31120202877103,11.8537829496215,0.0346455958821252,0.010838,-0.078255,0.006557,0.440612,-3.549791,312.516679,22.508469,0.999543,0.991592,0.003656,0.455081,-0.000005,-0.000023,0.000019,0.000007,-0.000034,31.960277,0.000036,
2416,2938,3.37823341294305,6.31417896441858,-0.0052064970980723,0.008959,-0.078089,0.006207,0.356702,-3.545436,316.198824,21.547078,0.999603,0.991970,0.003738,0.412372,0.000027,-0.000011,0.000016,0.000033,-0.000017,19.803340,0.000033,
2311,2368,1.19664235245315,-6.11832079679395,-0.0232281697583403,0.005417,-0.079017,-0.014478,0.267356,-3.658333,325.195629,19.928901,0.999503,0.988584,0.004314,0.442011,0.000429,0.000405,-0.000011,0.000433,0.000401,-21.503011,0.000834,
2146,2038,-2.34940621125912,-13.3505366416565,-0.00807220149704335,-0.001125,-0.083843,-0.027293,0.002514,-3.944981,330.743535,20.067571,0.998282,0.982889,0.005549,0.348883,0.001216,0.001177,0.000066,0.001264,0.001128,36.776631,0.002394,
2431,3028,3.68853926842879,8.27092071378416,0.00711420051055711,0.009428,-0.077977,0.002194,0.392783,-3.552803,314.887376,21.905946,0.999457,0.987746,0.004220,0.374777,0.000009,0.000000,0.000029,0.000033,-0.000025,40.449287,0.000035,
2236,2293,-0.426215294052508,-7.75984944266005,-0.0185727098482289,0.003833,-0.079532,-0.014063,0.192271,-3.695920,326.474929,20.062354,0.999071,0.985920,0.004708,0.411877,0.000554,0.000575,0.000013,0.000581,0.000547,64.730557,0.001128,
2206,2158,-1.05718158458066,-10.7179617202141,-0.0147441327522984,0.002574,-0.080576,-0.027756,0.177071,-3.803304,328.739740,19.895705,0.998780,0.985917,0.005061,0.422521,0.000890,0.000969,0.000051,0.000994,0.000864,63.811523,0.001860,
2071,3088,-4.13747800462516,9.54726749290313,0.0179276557127537,0.009885,-0.075915,0.004007,0.418826,-3.469021,314.730139,20.793856,0.999171,0.991077,0.003852,0.443062,-0.000010,-0.000017,-0.000009,-0.000004,-0.000023,-33.708663,0.000029,
2056,3028,-4.45426083869383,8.24656924067692,0.00581316475296489,0.009492,-0.075224,0.003771,0.402001,-3.449149,315.673276,20.821885,0.999386,0.991939,0.003713,0.404605,-0.000007,-0.000001,0.000000,-0.000001,-0.000007,-85.808320,0.000009,
2086,3163,-3.82339943272789,11.1743696863365,0.0309403135150887,0.010230,-0.075772,0.006072,0.428480,-3.450283,313.544286,20.909622,0.999785,0.995509,0.002894,0.391115,-0.000003,0.000007,-0.000017,0.000020,-0.000016,-52.885738,0.000021,
2056,2833,-4.4267007179888,4.01480038102622,-0.0182273773455108,0.007907,-0.075464,0.002738,0.331786,-3.443744,318.573697,20.935817,0.998982,0.987285,0.004441,0.372354,0.000046,0.000048,-0.000008,0.000055,0.000039,-47.825890,0.000095,
2011,3118,-5.44103319047372,10.1935804103886,0.0313257344514,0.010557,-0.075269,0.005747,0.447186,-3.424583,314.741526,20.620292,0.999680,0.995217,0.002934,0.414058,0.000006,0.000000,-0.000009,0.000013,-0.000007,-37.023899,0.000013,
2026,2743,-5.06478472159296,2.05681082573322,-0.026415552423714,0.007488,-0.075499,0.001483,0.316732,-3.442530,320.129413,20.901086,0.999381,0.990668,0.003978,0.431644,0.000058,0.000039,0.000006,0.000060,0.000037,16.442681,0.000097,
2011,2863,-5.40681292988792,4.66407345145838,-0.0176503683280202,0.008670,-0.075356,0.003349,0.366512,-3.441415,318.401277,20.834712,0.999341,0.991983,0.003933,0.398032,0.000033,0.000028,-0.000007,0.000038,0.000023,-35.976919,0.000062,
2011,3193,-5.45156078979275,11.8174174816877,0.0445174236519392,0.010751,-0.075266,0.004741,0.458841,-3.440945,313.639823,20.540532,0.999765,0.995710,0.002625,0.412061,0.000010,0.000010,-0.000041,0.000051,-0.000031,-44.970510,0.000052,
2296,2788,0.794813447797001,3.04637394384106,-0.0252771651186663,0.008159,-0.076847,-0.002516,0.354040,-3.517723,318.461295,21.010600,0.999307,0.990425,0.004000,0.416197,0.000057,0.000083,0.000015,0.000089,0.000051,65.227046,0.000142,
2176,2188,-1.71779256965388,-10.0584687375693,-0.0174544626466968,0.001887,-0.080611,-0.019890,0.120002,-3.767233,328.264435,20.215408,0.998909,0.950533,0.007569,0.333357,0.000829,0.000875,0.000061,0.000918,0.000787,55.370246,0.001706,
2266,2638,0.168337731387002,-0.222285261943227,-0.0301740530447319,0.007319,-0.077430,-0.005625,0.325773,-3.556570,320.870495,20.685247,0.999154,0.988077,0.004339,0.422322,0.000123,0.000079,0.000010,0.000125,0.000077,12.407002,0.000204,
2326,2443,1.51012526246183,-4.47764641956169,-0.0243367927538429,0.006123,-0.078198,-0.010727,0.287427,-3.602437,323.983897,20.114504,0.999103,0.988086,0.004687,0.441219,0.000334,0.000296,0.000001,0.000334,0.000296,1.094860,0.000630,
2236,2488,-0.459108035736488,-3.4961887666826,-0.0229608498200378,0.005793,-0.078449,-0.006235,0.257396,-3.612968,323.350632,20.474539,0.999407,0.989539,0.004154,0.379008,0.000243,0.000208,0.000009,0.000245,0.000206,13.546137,0.000451,
2461,3208,4.30813345803492,12.1794357119502,0.036710949915971,0.010773,-0.078133,0.008420,0.430597,-3.551891,312.277602,22.588877,0.999433,0.989489,0.004029,0.425396,-0.000002,-0.000028,0.000011,0.000002,-0.000032,19.278101,0.000036,
2071,2878,-4.10753967950703,4.9928937884904,-0.0209529029271494,0.008497,-0.075362,-0.002288,0.372902,-3.467242,317.778001,20.902182,0.999173,0.989661,0.004268,0.390174,0.000041,0.000037,-0.000014,0.000053,0.000025,-40.833888,0.000079,
2356,2638,2.12847254029976,-0.219997679139247,-0.02023129154054,0.007375,-0.077673,-0.007450,0.333878,-3.571642,320.896868,20.646682,0.998953,0.987806,0.004568,0.377222,0.000128,0.000099,0.000019,0.000137,0.000090,26.096791,0.000229,
2116,3088,-3.16137565648416,9.55145401267126,0.0169384096752196,0.010265,-0.075575,0.001634,0.442132,-3.465718,314.519166,21.031556,0.999617,0.993654,0.003417,0.374432,0.000005,-0.000016,-0.000010,0.000009,-0.000020,-22.107121,0.000021,
2446,3118,3.99884083980059,10.2253744790444,0.022316205154425,0.010304,-0.077890,0.003421,0.428252,-3.557143,313.601783,22.207184,0.999658,0.992177,0.003589,0.423034,0.000004,-0.000001,0.000027,0.000029,-0.000026,42.387312,0.000032,
2086,2938,-3.78964685206168,6.29546654550512,-0.00178971436827169,0.009288,-0.075347,-0.002156,0.408856,-3.446598,316.919293,20.904623,0.999221,0.991405,0.003876,0.427259,0.000022,-0.000003,-0.000007,0.000024,-0.000005,-14.483503,0.000026,
2041,2758,-4.74130482122722,2.38214262223637,-0.0231601731409228,0.007562,-0.076198,0.002954,0.315452,-3.463731,319.821486,20.805213,0.999230,0.991376,0.004047,0.503570,0.000064,0.000034,-0.000005,0.000065,0.000033,-9.755936,0.000100,
2371,2653,2.45131580175549,0.108558158926208,-0.0316298312891377,0.007680,-0.077810,-0.002399,0.329882,-3.558843,320.557813,20.658703,0.999075,0.987911,0.004534,0.408457,0.000124,0.000097,0.000019,0.000134,0.000087,27.448711,0.000223,
2041,2968,-4.77075154195719,6.94350935055862,0.000645377231364819,0.008925,-0.075107,0.000035,0.386716,-3.455256,316.679937,20.767180,0.999506,0.993142,0.003305,0.439854,0.000009,-0.000033,-0.000006,0.000010,-0.000034,-7.488719,0.000035,
2221,2398,-0.76996292886173,-5.46166121957782,-0.0182533432643481,0.005170,-0.078160,-0.013043,0.250734,-3.612079,324.872592,20.442604,0.999526,0.991788,0.003866,0.322985,0.000366,0.000342,0.000003,0.000367,0.000342,6.645664,0.000709,
2161,3268,-2.21495405939764,13.4547668036417,0.0276985925301574,0.011127,-0.076313,0.009931,0.455274,-3.471936,311.492429,21.222098,0.999645,0.994718,0.003125,0.449612,0.000006,0.000011,-0.000012,0.000021,-0.000004,-50.511858,0.000022,
2056,3043,-4.45662367589058,8.57173382548088,0.0110600819274396,0.009462,-0.075711,0.008458,0.387310,-3.434885,315.458040,20.815361,0.999700,0.994745,0.003115,0.419001,-0.000008,-0.000002,-0.000008,0.000004,-0.000013,-54.262350,0.000014,
2431,3043,3.68542120185224,8.59667484699247,0.00762205325395371,0.009547,-0.078154,0.005985,0.384188,-3.555791,314.637566,21.946127,0.999514,0.989307,0.004007,0.380632,0.000006,0.000013,0.000034,0.000043,-0.000025,48.266725,0.000044,
2191,2233,-1.39646447407959,-9.07336771254504,-0.0127189451164895,0.003284,-0.079659,-0.021728,0.190508,-3.722770,327.602992,20.199973,0.998572,0.983452,0.005367,0.366398,0.000713,0.000745,0.000042,0.000775,0.000684,55.459357,0.001460,
2251,2338,-0.106330877289775,-6.77436851377425,-0.0190787171085276,0.004589,-0.078959,-0.015428,0.231787,-3.672522,325.753689,20.162640,0.998424,0.985147,0.005291,0.348822,0.000477,0.000470,0.000003,0.000478,0.000469,19.997176,0.000947,
2131,1993,-2.6701522930945,-14.3401044045235,-0.000405817462706182,-0.002284,-0.085761,-0.026913,-0.052939,-4.044672,331.533665,20.086063,0.998173,0.979326,0.005936,0.302249,0.001348,0.001268,0.000076,0.001394,0.001223,31.035735,0.002619,
2416,2953,3.37513240911246,6.64090835756464,-0.00975379985038671,0.009167,-0.078407,0.006129,0.366453,-3.565920,315.925205,21.635180,0.999500,0.992375,0.003909,0.350906,0.000025,-0.000021,0.000018,0.000031,-0.000027,19.015496,0.000033,
2491,2128,5.18109528339968,-11.3879344292759,0.0257594338717695,0.007946,-0.084125,-0.023377,0.416353,-3.913786,329.839744,18.020538,0.999338,0.987156,0.004908,0.491503,0.001183,0.001188,-0.000175,0.001360,0.001011,-45.424126,0.002380,
2011,3133,-5.4435663630257,10.5188793021351,0.0276783570681687,0.010459,-0.075269,0.004244,0.446750,-3.430279,314.465912,20.610016,0.999664,0.994253,0.003111,0.405664,0.000012,0.000015,-0.000013,0.000027,0.000000,-47.965877,0.000031,
2251,2548,-0.143003434589581,-2.18567951870364,-0.0275476215601316,0.006300,-0.077954,-0.004954,0.276628,-3.576714,322.329263,20.545727,0.999643,0.993839,0.003471,0.408487,0.000200,0.000145,0.000012,0.000203,0.000143,11.651734,0.000347,
2056,2848,-4.42862543166189,4.34051196566493,-0.020750243508985,0.008290,-0.075378,-0.000285,0.357949,-3.452093,318.335262,20.895829,0.999232,0.991131,0.003868,0.398445,0.000037,0.000050,-0.000014,0.000059,0.000028,-56.708719,0.000089,
2101,2968,-3.46910418660788,6.94752715981155,0.00128741671062471,0.009216,-0.075929,0.000467,0.397383,-3.477566,316.370661,20.971001,0.999525,0.991458,0.003648,0.364131,0.000027,-0.000012,-0.000002,0.000027,-0.000012,-2.473108,0.000027,
2086,3178,-3.82451391925488,11.4974068248996,0.0438202585855834,0.010767,-0.076039,0.006611,0.451568,-3.461376,313.430793,20.808768,0.999721,0.995532,0.002843,0.478762,-0.000004,0.000008,-0.000018,0.000021,-0.000017,-54.034408,0.000022,
2401,2848,3.06862544297619,4.35618678320523,-0.0175445610332758,0.008701,-0.077745,0.001159,0.363649,-3.559144,317.555104,21.237168,0.999476,0.990415,0.003949,0.404761,0.000027,0.000038,0.000022,0.000055,0.000010,52.056805,0.000069,
2101,3178,-3.50021077904635,11.4992841773418,0.0301832195594898,0.010824,-0.075839,0.006168,0.455051,-3.458390,313.244622,20.853612,0.999815,0.995708,0.002776,0.505428,-0.000003,0.000007,-0.000015,0.000018,-0.000013,-54.336815,0.000018,
2071,3103,-4.13902386413289,9.87214254817593,0.0296985552820388,0.010049,-0.075758,0.004751,0.424361,-3.458739,314.589294,20.819640,0.999480,0.993067,0.003384,0.423235,-0.000007,-0.000017,-0.000006,-0.000005,-0.000020,-25.366024,0.000026,
2206,2323,-1.08395472147944,-7.10384652986637,-0.0129188479891695,0.004283,-0.078478,-0.019351,0.229671,-3.673197,326.146773,20.251868,0.998765,0.985846,0.004730,0.406612,0.000525,0.000479,0.000020,0.000533,0.000471,20.747364,0.001005,
2026,2998,-5.09931056408447,7.59392970633812,0.00802234911350297,0.009835,-0.075105,0.000862,0.426764,-3.445445,316.384883,20.779956,0.999350,0.992630,0.003527,0.378458,-0.000006,-0.000033,-0.000013,0.000000,-0.000039,-22.006797,0.000045,
2236,2308,-0.428683981300324,-7.4309098761348,-0.0250777131703899,0.004168,-0.079358,-0.017870,0.219998,-3.705595,326.206149,20.106117,0.998595,0.984943,0.004999,0.381687,0.000522,0.000526,0.000015,0.000539,0.000510,48.728329,0.001049,
2191,2068,-1.37235354184282,-12.6940909813098,-0.0151270047359162,-0.000026,-0.084741,-0.020941,0.034589,-3.975267,330.085693,19.707664,0.998647,0.984191,0.005567,0.416086,0.001122,0.001177,0.000056,0.001213,0.001087,57.987459,0.002301,
2296,2803,0.791454563684766,3.37347798987953,-0.0291433234536953,0.007988,-0.077141,-0.000400,0.338976,-3.513728,318.169426,21.067388,0.999197,0.989514,0.004125,0.393487,0.000050,0.000075,0.000015,0.000082,0.000044,64.792859,0.000127,
2011,3208,-5.45357856240693,12.1420096324044,0.0463731961762051,0.010994,-0.075583,0.005599,0.467695,-3.444787,313.419269,20.514830,0.999642,0.994082,0.003071,0.420561,0.000019,0.000020,-0.000034,0.000053,-0.000014,-45.386719,0.000055,
2146,3178,-2.52432949385016,11.5026560893365,0.0449238520574795,0.010565,-0.076398,0.010709,0.427579,-3.462850,313.140439,21.121598,0.999497,0.991349,0.003617,0.438265,-0.000003,0.000000,-0.000020,0.000018,-0.000022,-46.876784,0.000023,
2221,2188,-0.734293276065024,-10.059954528785,-0.0121030783213314,0.003407,-0.080000,-0.025513,0.208951,-3.767466,328.272347,19.942982,0.998332,0.981840,0.005586,0.372132,0.000801,0.000890,0.000026,0.000896,0.000794,75.006924,0.001691,
2056,3058,-4.45834306485365,8.89720540286765,0.0101906878192608,0.009970,-0.075672,0.005303,0.419688,-3.441143,315.238465,20.820898,0.999487,0.993558,0.003388,0.401282,-0.000009,-0.000011,-0.000009,-0.000001,-0.000019,-42.668708,0.000023,
2371,2668,2.44841285574559,0.435072854637937,-0.0306092874603792,0.007450,-0.077984,-0.003873,0.324468,-3.585749,320.317382,20.691181,0.999205,0.989145,0.004427,0.390508,0.000109,0.000106,0.000019,0.000127,0.000088,42.538207,0.000217,
2266,2458,0.199150381700615,-4.14857919469407,-0.0300393598353139,0.005715,-0.077948,-0.009573,0.264804,-3.586149,323.728016,20.449819,0.999559,0.990909,0.004150,0.310318,0.000291,0.000254,0.000007,0.000293,0.000253,10.529975,0.000546,
2491,2143,5.17662016846338,-11.0546134198031,0.00882185823826376,0.008331,-0.083895,-0.019666,0.419929,-3.888478,329.457920,18.254328,0.998533,0.981373,0.005768,0.345608,0.001120,0.001159,-0.000157,0.001297,0.000982,-48.492417,0.002286,
2161,2098,-2.0294263032096,-12.0337297014475,-0.00665780670499316,0.001030,-0.081631,-0.031191,0.114537,-3.881312,329.848207,20.107587,0.999021,0.984584,0.005359,0.326097,0.001047,0.001122,0.000070,0.001164,0.001006,59.118185,0.002172,
2011,3148,-5.44565539031269,10.8429765211564,0.0343194520612542,0.010409,-0.075319,0.006332,0.438807,-3.419642,314.269081,20.539887,0.999692,0.993930,0.003232,0.473316,0.000016,-0.000006,-0.000015,0.000024,-0.000014,-27.261975,0.000024,
2281,2743,0.476749366265576,2.06517438386454,-0.0203699971790456,0.008248,-0.077760,0.003663,0.337303,-3.537725,319.236034,20.891609,0.999474,0.990451,0.003851,0.420353,0.000066,0.000103,0.000016,0.000109,0.000060,70.003924,0.000172,
2311,2383,1.19511997007853,-5.79114420389732,-0.0121985055326377,0.005887,-0.078984,-0.013590,0.285933,-3.659304,325.063717,20.000993,0.999210,0.986577,0.004811,0.402593,0.000408,0.000393,-0.000014,0.000416,0.000384,-30.534497,0.000801,
2131,2008,-2.67003671945915,-14.0125870910171,0.00728984280965506,-0.000114,-0.086090,-0.024061,0.037869,-4.005964,331.448071,19.994259,0.998373,0.983723,0.005725,0.441119,0.001300,0.001252,0.000092,0.001371,0.001181,37.706334,0.002554,
2011,2878,-5.40873149432115,4.99068661350198,-0.0204928547206578,0.008987,-0.074697,-0.000045,0.390601,-3.412283,318.157386,20.845755,0.999107,0.990983,0.004005,0.404033,0.000043,0.000021,-0.000008,0.000045,0.000019,-18.529336,0.000066,
2161,3283,-2.21745044462441,13.779744858269,0.0307872825078448,0.011085,-0.076200,0.011451,0.448783,-3.459051,311.265913,21.244692,0.999684,0.995309,0.002931,0.448612,0.000016,0.000025,-0.000010,0.000032,0.000009,-57.829391,0.000043,
2116,3103,-3.1630651421786,9.87591456303219,0.0289930311958528,0.010490,-0.075991,0.005108,0.442125,-3.466014,314.375386,21.032596,0.999797,0.995976,0.002913,0.375354,0.000001,-0.000019,-0.000009,0.000004,-0.000023,-20.382272,0.000024,
2026,3238,-5.13286890656623,12.7922201358087,0.0605431147350828,0.010735,-0.075472,0.006298,0.453404,-3.428907,312.936346,20.563798,0.999646,0.995170,0.002898,0.438098,0.000008,-0.000016,-0.000039,0.000038,-0.000045,-36.436331,0.000048,
2206,2173,-1.05977750135586,-10.389809186579,-0.0117895868721689,0.002430,-0.080999,-0.026109,0.165130,-3.818088,328.511240,19.921364,0.998854,0.986849,0.004914,0.401525,0.000856,0.000932,0.000048,0.000955,0.000833,64.025063,0.001789,
2431,3058,3.68275804701179,8.92321345353438,0.00622423843594788,0.009760,-0.077898,0.003369,0.403750,-3.561189,314.399532,22.052512,0.999629,0.990605,0.003908,0.317955,0.000005,0.000014,0.000033,0.000042,-0.000024,48.704101,0.000043,
2011,3223,-5.45606185961716,12.4677181645502,0.0452738929386669,0.011099,-0.075518,0.008968,0.463443,-3.426767,313.160278,20.556789,0.999431,0.993369,0.003375,0.383467,0.000027,0.000004,-0.000036,0.000054,-0.000023,-36.106958,0.000054,
2326,2458,1.50679725889541,-4.14933637148552,-0.0301316141633379,0.005876,-0.078048,-0.012599,0.282615,-3.606981,323.687599,20.158930,0.999177,0.988109,0.004562,0.428226,0.000312,0.000266,0.000005,0.000313,0.000266,5.720935,0.000579,
2251,2563,-0.145534830117104,-1.85851453984071,-0.0273353568884431,0.006274,-0.077351,-0.006724,0.281473,-3.549904,322.092656,20.542721,0.999448,0.991743,0.003824,0.462707,0.000185,0.000141,0.000011,0.000187,0.000139,13.116722,0.000327,
2266,2653,0.165860407931167,0.105758859998367,-0.0318919397290642,0.007748,-0.077367,-0.004324,0.341188,-3.575035,320.627571,20.820400,0.999416,0.990454,0.004066,0.294780,0.000117,0.000076,0.000012,0.000120,0.000073,14.763887,0.000195,
2011,2893,-5.41115373176384,5.31537395950517,-0.0132768945677526,0.008602,-0.075404,0.003262,0.363608,-3.451556,317.947765,20.825980,0.999169,0.992740,0.003623,0.372048,0.000045,0.000011,-0.000014,0.000050,0.000006,-20.164555,0.000062,
2086,3193,-3.82708824588128,11.823192230572,0.047233063292822,0.010591,-0.075706,0.009447,0.435310,-3.450102,313.197550,20.885275,0.999483,0.994382,0.003057,0.411135,-0.000003,0.000010,-0.000022,0.000026,-0.000020,-53.314915,0.000028,
2281,2503,0.518240336306658,-3.16633696105217,-0.0260623040124415,0.006136,-0.077942,-0.005861,0.271817,-3.565078,323.018408,20.468470,0.999626,0.992261,0.003853,0.361664,0.000245,0.000197,-0.000001,0.000245,0.000197,-1.177372,0.000444,
2041,2773,-4.7437785921785,2.71024809509377,-0.0311615198912705,0.007655,-0.075539,-0.000779,0.330311,-3.464763,319.525454,20.911892,0.998948,0.990243,0.004184,0.388327,0.000060,0.000031,-0.000004,0.000061,0.000031,-7.815724,0.000093,
2026,3253,-5.13587689088828,13.1182578255056,0.0445359156564678,0.010824,-0.074870,0.002732,0.467459,-3.426640,312.570766,20.575411,0.999840,0.996415,0.002575,0.417744,0.000022,-0.000019,-0.000045,0.000051,-0.000048,-32.857891,0.000057,
2386,2743,2.76197432741856,2.06875366037013,-0.0166991196177833,0.008047,-0.078075,0.000273,0.336858,-3.581564,319.234559,20.895903,0.999573,0.991587,0.003812,0.400759,0.000061,0.000117,0.000030,0.000130,0.000049,66.454660,0.000184,
2086,2953,-3.79277621356225,6.62110113689163,-0.0006448492078448,0.008768,-0.075755,0.002250,0.372023,-3.449724,316.648105,20.908756,0.999145,0.992320,0.003809,0.418316,0.000026,-0.000011,-0.000006,0.000027,-0.000012,-8.853936,0.000027,
2341,2518,1.82344260079666,-2.83886816626912,-0.0217574494542419,0.006429,-0.077903,-0.009675,0.298010,-3.600837,322.796436,20.340145,0.998701,0.985100,0.004786,0.366313,0.000235,0.000199,0.000011,0.000238,0.000196,16.258466,0.000435,
2161,3298,-2.22012967464827,14.1046572690402,0.0271833593027395,0.011122,-0.076073,0.010160,0.454428,-3.471951,310.995590,21.254122,0.999789,0.996567,0.002561,0.434774,0.000025,0.000023,-0.000012,0.000036,0.000012,-41.625031,0.000050,
2401,2863,3.06595554097193,4.68329482451134,-0.0201366164403112,0.009036,-0.077492,-0.000419,0.384911,-3.548444,317.309547,21.316497,0.999460,0.990592,0.003841,0.381367,0.000023,0.000029,0.000021,0.000048,0.000004,49.504559,0.000058,
2491,2158,5.17335568828224,-10.7243736027742,-0.00052216803948113,0.008478,-0.082606,-0.025221,0.448483,-3.877491,329.165840,18.309908,0.998765,0.980053,0.005773,0.363240,0.001086,0.001079,-0.000174,0.001256,0.000909,-44.428978,0.002175,
2266,2473,0.197194321165767,-3.82334286289937,-0.020360527174546,0.005719,-0.077904,-0.009563,0.264978,-3.590520,323.567140,20.360200,0.999643,0.992099,0.003942,0.422106,0.000276,0.000229,0.000010,0.000277,0.000228,11.244458,0.000506,
2071,2893,-4.11005399048777,5.31881150208939,-0.0166721719747329,0.008346,-0.075688,0.001866,0.354011,-3.463053,317.550985,20.932210,0.999377,0.992206,0.003792,0.360733,0.000036,0.000026,-0.000016,0.000048,0.000014,-36.399986,0.000065,
2191,2083,-1.37418838051034,-12.3625249787927,-0.0147608958021692,0.000198,-0.082919,-0.027264,0.065199,-3.915041,329.876602,19.909637,0.998736,0.983639,0.005546,0.291690,0.001083,0.001166,0.000055,0.001193,0.001055,63.449136,0.002250,
2176,2203,-1.71993086670556,-9.73070997423979,-0.0108230983544786,0.001932,-0.080425,-0.017668,0.115250,-3.752648,328.073580,20.224178,0.998169,0.976686,0.006018,0.353637,0.000795,0.000844,0.000059,0.000883,0.000756,56.262964,0.001640,
2056,2863,-4.43014072306744,4.66570659516942,-0.0130353756484283,0.008592,-0.075382,-0.001048,0.374018,-3.458904,318.172238,20.887390,0.999204,0.991939,0.003805,0.394431,0.000026,0.000041,-0.000010,0.000046,0.000021,-62.245003,0.000069,
2506,2128,5.50732208758366,-11.3848465483715,0.000191282726973441,0.008619,-0.084763,-0.019291,0.431521,-3.918446,329.686491,17.965777,0.999310,0.984251,0.005326,0.455062,0.001171,0.001169,-0.000200,0.001370,0.000971,-44.860222,0.002352,
2011,3238,-5.45775087153881,12.7914430450017,0.053915564629051,0.011108,-0.075389,0.007049,0.469102,-3.432032,312.993463,20.498268,0.999522,0.993968,0.003304,0.423381,0.000035,-0.000012,-0.000051,0.000068,-0.000045,-32.650333,0.000069,
2296,2818,0.789596686958113,3.69896973834601,-0.0230597062817992,0.008401,-0.077171,-0.000658,0.358768,-3.533990,317.996292,21.080892,0.999408,0.990683,0.003895,0.389280,0.000045,0.000074,0.000013,0.000079,0.000040,68.590580,0.000121,
2221,2413,-0.772437939006977,-5.13409601680016,-0.0171867542768496,0.005210,-0.077820,-0.012957,0.252449,-3.583667,324.640711,20.433084,0.999519,0.991531,0.003920,0.381470,0.000346,0.000316,0.000000,0.000346,0.000316,-0.483721,0.000662,
2026,3268,-5.13891887413963,13.4429475257002,0.0382710498436722,0.010905,-0.075325,0.009299,0.452957,-3.430689,312.258748,20.528958,0.999823,0.996959,0.002488,0.448872,0.000039,-0.000033,-0.000044,0.000060,-0.000054,-25.454887,0.000066,
2071,3118,-4.1406986182582,10.1964965613633,0.0444457537595326,0.010073,-0.076084,0.008232,0.415387,-3.460362,314.459118,20.830168,0.999734,0.994675,0.002933,0.406931,-0.000011,-0.000010,-0.000010,-0.000001,-0.000020,-47.345430,0.000024,
2056,3073,-4.46016251567572,9.22150466689909,0.015728865278561,0.010101,-0.075557,0.004062,0.429307,-3.435234,315.050138,20.751888,0.999323,0.992204,0.003830,0.469790,-0.000009,-0.000014,-0.000008,-0.000003,-0.000020,-37.326364,0.000025,
2206,2338,-1.0869155316901,-6.77426776128659,-0.0173907638468336,0.004337,-0.078295,-0.017288,0.225703,-3.648590,325.862676,20.350273,0.999340,0.988875,0.004419,0.351684,0.000490,0.000454,0.000014,0.000495,0.000449,19.605242,0.000944,
2041,2983,-4.77259399745433,7.26940543492347,0.00493877615883775,0.009311,-0.075233,0.002584,0.397479,-3.431461,316.481998,20.796922,0.999279,0.992346,0.003597,0.425857,-0.000003,-0.000039,-0.000011,0.000000,-0.000042,-15.068611,0.000049,
2146,2053,-2.35116112113506,-13.0217325814363,-0.00333407693199206,-0.000772,-0.083144,-0.027126,0.018358,-3.897097,330.557769,20.066866,0.998265,0.982470,0.005508,0.408565,0.001175,0.001167,0.000067,0.001238,0.001104,43.211561,0.002343,
2251,2353,-0.108202965348731,-6.44771642447956,-0.00804716205215072,0.004864,-0.079270,-0.011204,0.230494,-3.657579,325.602412,20.161270,0.998661,0.986006,0.005118,0.389828,0.000447,0.000429,0.000004,0.000448,0.000428,11.774873,0.000876,
2446,3133,3.99571694475159,10.5518248427275,0.0223410439071472,0.010386,-0.077727,0.005980,0.422571,-3.539579,313.349865,22.310973,0.999545,0.988708,0.004105,0.387864,0.000003,-0.000013,0.000023,0.000020,-0.000030,35.936444,0.000030,
2026,3013,-5.10199409595481,7.92009572941357,0.00633432172310222,0.009506,-0.075037,-0.000173,0.414444,-3.444121,316.113999,20.823584,0.999528,0.993575,0.003433,0.325683,-0.000005,-0.000023,0.000000,-0.000005,-0.000023,-0.385747,0.000030,
2296,2578,0.832265166057347,-1.53035601727498,-0.0222432107001964,0.006694,-0.077937,-0.007572,0.303139,-3.576368,321.849129,20.556040,0.999177,0.989550,0.004291,0.386198,0.000180,0.000140,0.000012,0.000183,0.000136,15.805061,0.000321,
2236,2503,-0.461774953327133,-3.16822509599835,-0.0250529165800231,0.005991,-0.077832,-0.004854,0.262267,-3.575302,323.094804,20.493182,0.999333,0.988488,0.004301,0.420325,0.000232,0.000192,0.000011,0.000234,0.000189,14.388494,0.000425,
2191,2248,-1.39855845857967,-8.74549904707413,-0.00987714477167856,0.003650,-0.079578,-0.019699,0.200977,-3.711144,327.395546,20.197021,0.998482,0.984430,0.005234,0.397586,0.000680,0.000698,0.000044,0.000734,0.000644,50.800209,0.001379,
2431,3073,3.67982535926987,9.24781499951684,0.00725879560098974,0.009803,-0.078091,0.004498,0.401528,-3.558126,314.160905,21.991860,0.999673,0.992076,0.003634,0.430791,0.000006,0.000009,0.000030,0.000037,-0.000022,46.660726,0.000038,
2116,3118,-3.16578882757396,10.2010251880527,0.0275792602110982,0.010288,-0.075831,0.004490,0.434780,-3.450099,314.111334,20.995815,0.999770,0.995917,0.002871,0.430672,-0.000002,-0.000015,-0.000011,0.000004,-0.000022,-30.217471,0.000023,
2416,2968,3.3729242237222,6.96656772021914,-0.00241005244981807,0.009164,-0.078030,0.004240,0.373426,-3.554782,315.748586,21.680371,0.999675,0.994432,0.003430,0.363967,0.000019,-0.000018,0.000023,0.000030,-0.000029,25.650460,0.000034,
2311,2398,1.19398397088957,-5.46584373910181,0.00666223621669815,0.006075,-0.078944,-0.013698,0.294907,-3.668436,324.988295,19.988012,0.999174,0.987329,0.004879,0.439588,0.000385,0.000374,-0.000015,0.000395,0.000364,-34.993779,0.000760,
2026,3283,-5.14072804162501,13.7672461705375,0.0479480768464668,0.011001,-0.075707,0.011476,0.451261,-3.446195,312.092813,20.549281,0.999788,0.996684,0.002553,0.401706,0.000066,-0.000047,-0.000051,0.000085,-0.000067,-21.175943,0.000090,
2491,2173,5.17123935295904,-10.3970638855455,0.00729933673619598,0.008937,-0.082899,-0.023470,0.462712,-3.889694,329.003653,18.310083,0.997853,0.971153,0.006622,0.412005,0.001032,0.001051,-0.000184,0.001226,0.000857,-46.467973,0.002093,
2101,3193,-3.50250780001221,11.8244275092457,0.0418789462953555,0.010407,-0.075781,0.008814,0.428066,-3.452968,313.070212,20.926772,0.999632,0.994309,0.003121,0.437687,-0.000004,0.000010,-0.000019,0.000023,-0.000017,-54.854641,0.000024,
2071,2908,-4.11202233016732,5.64380172200329,-0.0118846701199686,0.008660,-0.076070,0.005238,0.358736,-3.470184,317.352122,20.895534,0.999510,0.992744,0.003549,0.386655,0.000032,0.000010,-0.000019,0.000042,-0.000001,-29.695163,0.000048,
2506,2143,5.50406853980254,-11.0531402064225,-0.00375468095825227,0.008459,-0.082913,-0.023708,0.442120,-3.888014,329.420438,18.188735,0.998631,0.976891,0.006137,0.326656,0.001117,0.001149,-0.000179,0.001313,0.000953,-47.555966,0.002275,
2161,2113,-2.03229238187602,-11.7039335160082,-0.00738301500155103,0.000924,-0.081164,-0.027317,0.097996,-3.832506,329.583997,20.157723,0.999030,0.982864,0.005395,0.338112,0.001012,0.001084,0.000073,0.001129,0.000967,58.298176,0.002098,
2371,2683,2.44474943492731,0.763349953527921,-0.0393502202645095,0.007635,-0.078024,-0.000093,0.319555,-3.563306,319.994762,20.760092,0.999304,0.989582,0.004125,0.385952,0.000098,0.000113,0.000021,0.000128,0.000083,55.107967,0.000212,
2086,3208,-3.82858226622517,12.1478888108294,0.049072669662678,0.011123,-0.075642,0.004799,0.473313,-3.468283,313.005763,20.884884,0.999540,0.994129,0.003174,0.391223,-0.000001,0.000006,-0.000019,0.000022,-0.000017,-50.390479,0.000023,
2281,2758,0.473196250954587,2.3925404831607,-0.0278053559158593,0.007847,-0.077582,0.002180,0.323860,-3.547231,318.916262,20.942932,0.999425,0.989689,0.003961,0.387660,0.000062,0.000102,0.000018,0.000109,0.000055,68.964803,0.000167,
2461,3223,4.30495613481338,12.50568478129,0.0279227233425559,0.010935,-0.077744,0.003504,0.456823,-3.546643,311.983403,22.658168,0.999523,0.991666,0.003675,0.414626,-0.000001,-0.000039,0.000005,0.000000,-0.000040,7.173504,0.000046,
2146,3193,-2.52671290492179,11.8277567943548,0.0412223740157174,0.010694,-0.076631,0.006766,0.445329,-3.497102,312.882065,21.139764,0.999546,0.993250,0.003293,0.392449,-0.000004,0.000003,-0.000023,0.000022,-0.000024,-49.024129,0.000027,
2131,2023,-2.67409343750896,-13.6782599716024,-0.0115382089756508,-0.000771,-0.084062,-0.027632,0.019094,-3.978835,331.030228,20.239313,0.998456,0.983305,0.005678,0.233535,0.001251,0.001214,0.000083,0.001317,0.001147,38.778922,0.002467,
2221,2203,-0.737165360557555,-9.73170374578687,-0.0126070738077715,0.003347,-0.080217,-0.022579,0.196759,-3.746387,328.014484,19.915869,0.998696,0.983637,0.005263,0.441939,0.000767,0.000853,0.000023,0.000859,0.000762,76.059502,0.001621,
2341,2533,1.82053831176191,-2.51183254945781,-0.0205375398567753,0.006476,-0.078243,-0.006609,0.289413,-3.601442,322.554928,20.353061,0.998923,0.986236,0.004683,0.390583,0.000223,0.000176,0.000014,0.000227,0.000173,15.051517,0.000400,
2236,2323,-0.431072346876942,-7.10230669108921,-0.028489866353425,0.004689,-0.078837,-0.017019,0.241374,-3.673462,325.956604,20.114172,0.998311,0.986543,0.004933,0.428991,0.000494,0.000492,0.000009,0.000502,0.000484,41.387558,0.000986,
2281,2518,0.515808220612907,-2.84077675369429,-0.0213306269930627,0.006090,-0.078028,-0.005318,0.267812,-3.594127,322.811872,20.400967,0.999687,0.992693,0.003756,0.428902,0.000238,0.000186,0.000004,0.000238,0.000186,3.817698,0.000425,
2041,3073,-4.78488808843953,9.2195029355758,0.0305139293552656,0.009914,-0.075728,0.009320,0.406345,-3.437576,315.239194,20.710389,0.999404,0.992333,0.003712,0.455761,-0.000011,-0.000010,-0.000003,-0.000008,-0.000014,-49.018137,0.000022,
2071,3133,-4.14327066052966,10.5220909061595,0.0373148390063989,0.010184,-0.075729,0.005610,0.428118,-3.456390,314.167176,20.816507,0.999574,0.994419,0.003000,0.420281,-0.000007,0.000001,-0.000012,0.000010,-0.000016,-54.366109,0.000016,
2176,1993,-1.68524575892827,-14.3432412824807,0.00961233536338568,-0.000272,-0.086042,-0.029383,0.048557,-4.066167,331.556285,19.731992,0.998647,0.982300,0.005575,0.315372,0.001328,0.001294,0.000032,0.001347,0.001274,31.246055,0.002622,
2011,2908,-5.41295591548207,5.64077066936529,-0.00480866694232418,0.008584,-0.075314,0.003491,0.362240,-3.429778,317.773267,20.822760,0.999176,0.992267,0.003649,0.384586,0.000047,0.000000,-0.000018,0.000053,-0.000006,-18.948996,0.000058,
2101,2983,-3.47120935383062,7.27289583972505,0.00353858313900446,0.009531,-0.075930,0.002574,0.405801,-3.466760,316.153576,20.952517,0.999576,0.992945,0.003414,0.394135,0.000020,-0.000014,-0.000001,0.000020,-0.000014,-1.332666,0.000021,
2026,3298,-5.14323466888816,14.0924641290822,0.0402478875965357,0.011099,-0.075174,0.007898,0.465804,-3.434858,311.797138,20.536376,0.999440,0.994488,0.003159,0.415013,0.000077,-0.000040,-0.000038,0.000089,-0.000051,-16.575918,0.000089,
2176,2218,-1.72219684711968,-9.40135547702202,-0.0135815061170774,0.002328,-0.079902,-0.017887,0.134278,-3.722627,327.827574,20.269775,0.998407,0.980811,0.005589,0.353167,0.000758,0.000795,0.000059,0.000838,0.000715,53.690368,0.001555,
2356,2653,2.12507721085317,0.107568014828828,-0.0288770931553586,0.007344,-0.077395,-0.009297,0.339082,-3.582608,320.585947,20.672976,0.999140,0.987644,0.004618,0.379626,0.000114,0.000097,0.000018,0.000125,0.000085,32.588342,0.000212,
2386,2758,2.75829730982146,2.39619458822985,-0.0257842268762261,0.008080,-0.078216,0.001516,0.333877,-3.584414,318.911059,20.935603,0.999262,0.988689,0.004208,0.401795,0.000057,0.000112,0.000029,0.000125,0.000044,66.442133,0.000175,
2041,2998,-4.77444455838609,7.59438361989979,0.0109179105210728,0.009562,-0.075856,0.004705,0.402951,-3.449959,316.293467,20.799355,0.999097,0.990581,0.003924,0.396603,-0.000010,-0.000028,-0.000012,-0.000004,-0.000034,-25.914403,0.000042,
2086,2968,-3.79496756445113,6.94601007882303,0.00474604075611751,0.008699,-0.076140,0.003180,0.365998,-3.472742,316.443366,20.899284,0.999288,0.991843,0.003735,0.403044,0.000024,-0.000017,-0.000008,0.000026,-0.000018,-9.942810,0.000027,
2131,3118,-2.8407180995411,10.2020342417833,0.0291650432945971,0.010151,-0.076010,0.006695,0.421258,-3.458606,314.044658,21.060967,0.999672,0.995648,0.003072,0.416396,-0.000001,-0.000018,-0.000013,0.000006,-0.000024,-28.239767,0.000025,
2266,2488,0.193971311033291,-3.49631957623377,-0.0263347204531215,0.005855,-0.078603,-0.006060,0.259369,-3.621560,323.269373,20.321026,0.999601,0.991558,0.003941,0.457247,0.000256,0.000208,0.000006,0.000257,0.000207,7.212572,0.000465,
2026,3028,-5.10376978446761,8.24406277399758,0.0149110929585845,0.009606,-0.075209,0.001121,0.415520,-3.431825,315.942935,20.726553,0.999464,0.992484,0.003708,0.424324,0.000001,-0.000003,0.000010,0.000009,-0.000011,39.063921,0.000012,
2116,3133,-3.16869213648721,10.5271548786705,0.0229909802378643,0.010212,-0.075706,0.005356,0.428687,-3.457793,313.821566,21.060963,0.999855,0.997177,0.002576,0.360130,0.000000,-0.000005,-0.000014,0.000011,-0.000017,-39.425064,0.000017,
2011,3253,-5.46024705388743,13.1168908514293,0.048599695446967,0.010996,-0.075011,0.002680,0.475905,-3.429432,312.710288,20.515085,0.999841,0.996153,0.002652,0.395781,0.000053,-0.000012,-0.000063,0.000091,-0.000050,-31.408276,0.000091,
2506,2158,5.50154379332094,-10.7238990625323,-0.00182628644188298,0.008821,-0.082273,-0.024562,0.462284,-3.872766,329.214105,18.270431,0.998989,0.978762,0.005667,0.324105,0.001083,0.001084,-0.000203,0.001286,0.000880,-45.045445,0.002179,
2236,2518,-0.464389761809787,-2.83933311217214,-0.0341622303150189,0.006185,-0.076972,-0.011360,0.292592,-3.552846,322.805482,20.553815,0.999270,0.988523,0.004309,0.404851,0.000222,0.000189,0.000014,0.000227,0.000184,20.804499,0.000412,
2041,2788,-4.74583968080766,3.03644715877636,-0.0247814237540069,0.007708,-0.075645,0.002429,0.323812,-3.444556,319.328653,20.939731,0.999079,0.988844,0.004158,0.372988,0.000054,0.000046,0.000005,0.000057,0.000044,25.518456,0.000101,
2191,2098,-1.37665477746151,-12.0339959748699,-0.0270772224148459,0.001188,-0.082748,-0.025554,0.105298,-3.902112,329.573665,19.748430,0.998818,0.985533,0.005466,0.483848,0.001044,0.001136,0.000056,0.001162,0.001018,64.915995,0.002182,
2146,2068,-2.35293435960665,-12.692040271928,-0.0029611032672392,-0.000071,-0.082946,-0.025945,0.046989,-3.890041,330.348221,20.144126,0.998177,0.981124,0.005699,0.349326,0.001138,0.001151,0.000074,0.001219,0.001071,47.536325,0.002291,
2161,2128,-2.03555660566034,-11.3746912696562,-0.0136951395394931,0.000770,-0.081338,-0.023803,0.080125,-3.819315,329.272538,20.137968,0.999178,0.981958,0.005388,0.384426,0.000970,0.001058,0.000071,0.001098,0.000930,60.718861,0.002030,
2296,2593,0.830459405766376,-1.20420558949517,-0.0113720088749005,0.006718,-0.077266,-0.008818,0.308735,-3.539354,321.702264,20.552003,0.999552,0.991989,0.003672,0.457757,0.000171,0.000119,0.000013,0.000174,0.000115,13.237247,0.000291,
2041,1993,-4.63589830470571,-14.3349983032834,-0.00941686324534885,-0.004803,-0.082932,-0.032256,-0.156458,-3.898008,331.796023,20.713248,0.997414,0.981159,0.006126,0.457246,0.001491,0.001217,0.000138,0.001548,0.001160,22.584920,0.002718,
2101,3208,-3.50419864241548,12.1496686231636,0.0479286255547322,0.010749,-0.075933,0.008168,0.445692,-3.461715,312.892989,20.992339,0.999593,0.994288,0.003170,0.363111,-0.000004,0.000006,-0.000015,0.000017,-0.000015,-54.358886,0.000019,
2281,2773,0.470849687155823,2.71881741705047,-0.0217173241975388,0.007641,-0.077365,0.000431,0.320391,-3.524511,318.719573,20.973480,0.999288,0.988771,0.004159,0.407836,0.000059,0.000090,0.000015,0.000096,0.000053,67.733575,0.000151,
2461,3238,4.30228164175945,12.8310640222047,0.0294666359857274,0.011229,-0.078121,0.004417,0.466812,-3.557987,311.760020,22.727330,0.999751,0.993771,0.003249,0.387309,0.000000,-0.000047,0.000000,0.000000,-0.000047,0.253636,0.000055,
2401,2878,3.06244571896774,5.01016364212512,-0.022838261108916,0.008835,-0.077593,0.001725,0.367951,-3.531444,317.024815,21.371575,0.999490,0.991998,0.003587,0.388659,0.000018,0.000028,0.000026,0.000049,-0.000003,50.620996,0.000055,
2431,3088,3.67869199939893,9.57296417849694,0.0280862859425497,0.010094,-0.077713,0.006198,0.408773,-3.534644,314.097063,22.091089,0.999702,0.993056,0.003465,0.404024,0.000006,0.000008,0.000025,0.000032,-0.000018,46.110475,0.000032,
2146,3208,-2.52899178985216,12.1528797910494,0.0444275343734262,0.010754,-0.076157,0.007115,0.447280,-3.466382,312.665209,21.139699,0.999588,0.994263,0.003124,0.429886,-0.000002,0.000004,-0.000021,0.000022,-0.000020,-49.029981,0.000024,
2056,1993,-4.30837865311971,-14.3366242057006,-0.00416278507560719,-0.004516,-0.083747,-0.029655,-0.149976,-3.951032,331.762307,20.609329,0.997378,0.979399,0.006231,0.402259,0.001478,0.001237,0.000121,0.001528,0.001187,22.534651,0.002722,
2296,2833,0.78733788894246,4.02504031849182,-0.0187835523225885,0.008430,-0.077227,-0.002540,0.366459,-3.546764,317.795572,21.130040,0.999676,0.993171,0.003537,0.357273,0.000038,0.000064,0.000016,0.000071,0.000030,64.977415,0.000104,
2131,2038,-2.67721014898703,-13.3504043200845,-0.0117276772753598,-0.001241,-0.084344,-0.023638,-0.014471,-3.954791,330.755223,20.115731,0.999029,0.984266,0.005409,0.390614,0.001209,0.001174,0.000079,0.001272,0.001111,38.691658,0.002385,
2041,3088,-4.78755826677154,9.54603892304969,0.0195133240163727,0.009968,-0.075762,0.004464,0.422402,-3.449979,314.918254,20.761970,0.999584,0.994060,0.003231,0.383509,-0.000019,-0.000022,-0.000009,-0.000012,-0.000029,-40.366165,0.000043,
2206,2188,-1.06248118514338,-10.0607430435978,-0.00553647427130954,0.002407,-0.081235,-0.017960,0.138230,-3.794117,328.294429,20.031461,0.998521,0.982038,0.005475,0.334889,0.000818,0.000888,0.000040,0.000906,0.000800,65.657478,0.001707,
2056,3088,-4.462644445426,9.54671319232533,0.0184673517987903,0.009810,-0.075828,0.003847,0.416320,-3.468654,314.815682,20.791136,0.999350,0.992404,0.003636,0.390911,-0.000016,-0.000020,-0.000011,-0.000007,-0.000029,-40.267385,0.000038,
2251,2578,-0.147593368504239,-1.53159489359776,-0.0226137531661834,0.006670,-0.077485,-0.004756,0.293212,-3.544714,321.900621,20.582897,0.999209,0.989678,0.004201,0.451570,0.000169,0.000129,0.000010,0.000172,0.000127,13.292694,0.000299,
2266,2668,0.163059273399263,0.431829892001822,-0.0329165534114395,0.007695,-0.077581,-0.004404,0.339009,-3.561309,320.373621,20.753115,0.999442,0.991634,0.003873,0.402211,0.000109,0.000091,0.000006,0.000111,0.000089,15.722556,0.000201,
2221,2218,-0.739881927965929,-9.40186219087846,-0.011864229631783,0.003156,-0.079663,-0.022640,0.188381,-3.717544,327.769791,20.044525,0.998532,0.983190,0.005284,0.363815,0.000729,0.000799,0.000023,0.000805,0.000722,73.558159,0.001528,
2251,2368,-0.111795008274218,-6.11771511227099,-0.0204417224846338,0.005023,-0.079320,-0.008227,0.228056,-3.648548,325.253523,20.248121,0.999160,0.988863,0.004745,0.337904,0.000415,0.000409,0.000003,0.000416,0.000408,19.551924,0.000824,
2326,2473,1.50497835288874,-3.82315446479775,-0.0191100600482628,0.006086,-0.078209,-0.011501,0.288359,-3.633123,323.542960,20.190854,0.999080,0.987737,0.004533,0.405466,0.000295,0.000240,0.000007,0.000296,0.000239,6.992777,0.000535,
2056,2878,-4.43243150540787,4.99159622350383,-0.0133716185791286,0.008725,-0.075348,-0.000062,0.377414,-3.451871,317.929037,20.873169,0.999173,0.990643,0.004058,0.410081,0.000027,0.000033,-0.000011,0.000042,0.000018,-53.400596,0.000062,
2416,2983,3.37032319991917,7.29189078447954,-0.00318175971909795,0.009483,-0.077794,0.003180,0.392100,-3.546517,315.515893,21.644907,0.999831,0.994651,0.003209,0.454842,0.000018,-0.000011,0.000024,0.000032,-0.000024,29.335549,0.000033,
2221,2428,-0.774253143892068,-4.81015545621717,-0.00392203732263852,0.005127,-0.077500,-0.011560,0.244259,-3.612308,324.502427,20.268687,0.999591,0.990941,0.003982,0.537112,0.000326,0.000277,0.000001,0.000326,0.000277,1.448553,0.000604,
2041,2008,-4.63917191550929,-14.0048873578988,-0.00979992900192883,-0.005386,-0.083617,-0.024748,-0.204199,-3.919385,331.504843,20.825049,0.996581,0.979664,0.006442,0.320513,0.001447,0.001236,0.000168,0.001540,0.001144,28.955479,0.002693,
2041,3013,-4.77749680388538,7.92104008921222,0.00643382450209629,0.009167,-0.075551,0.005443,0.382700,-3.447583,315.991099,20.868446,0.999339,0.991871,0.003800,0.321441,-0.000010,-0.000018,-0.000003,-0.000009,-0.000019,-18.691008,0.000029,
2011,3268,-5.46251640470335,13.440690873772,0.054014094268382,0.010999,-0.075303,0.007134,0.463894,-3.423771,312.498703,20.440816,0.999834,0.996205,0.002647,0.462473,0.000074,-0.000029,-0.000064,0.000105,-0.000060,-25.787792,0.000105,
2446,3148,3.99338814874408,10.8771258314277,0.0258520854931135,0.010547,-0.077482,0.003307,0.440095,-3.536258,313.150989,22.348030,0.999579,0.990777,0.003749,0.405347,0.000000,-0.000020,0.000024,0.000016,-0.000036,33.409304,0.000036,
2206,2353,-1.08993831559696,-6.44738728964532,-0.0152084540735018,0.003975,-0.078659,-0.013492,0.196983,-3.656338,325.610630,20.305153,0.999529,0.989754,0.004305,0.407673,0.000463,0.000413,0.000012,0.000466,0.000411,12.730351,0.000877,
2056,2008,-4.31013437716558,-14.0084790219791,0.00592141001408208,-0.004280,-0.084446,-0.023467,-0.156757,-3.957576,331.599312,20.646142,0.998036,0.980954,0.005936,0.356889,0.001431,0.001248,0.000141,0.001508,0.001171,28.527155,0.002685,
2041,2803,-4.74757162105,3.36214375743231,-0.0257049385431287,0.008261,-0.075612,0.001161,0.352803,-3.456605,319.106670,20.900829,0.999300,0.990628,0.003819,0.392403,0.000060,0.000040,0.000009,0.000063,0.000037,21.945453,0.000101,
2461,3253,4.29845515160769,13.1564666649803,0.0233487666265546,0.011102,-0.078249,0.006550,0.452918,-3.551553,311.448247,22.741680,0.999749,0.994049,0.003114,0.432251,-0.000001,-0.000041,-0.000005,0.000000,-0.000042,-7.380727,0.000049,
2146,2083,-2.35595362321473,-12.3611044531998,-0.0120138852201421,0.000031,-0.082577,-0.024484,0.047415,-3.869693,330.031731,20.223117,0.998171,0.982202,0.005625,0.302239,0.001098,0.001144,0.000075,0.001199,0.001043,53.546994,0.002244,
2191,2263,-1.40190896407659,-8.41595015271542,-0.017116677330705,0.003382,-0.079334,-0.018801,0.185960,-3.701788,327.078082,20.251919,0.998624,0.982192,0.005438,0.369206,0.000651,0.000648,0.000038,0.000688,0.000611,44.177209,0.001300,
2026,3043,-5.10570012923536,8.56846728556264,0.0157914785408479,0.009818,-0.075307,-0.000885,0.430855,-3.432081,315.721643,20.634459,0.999424,0.992834,0.003676,0.505943,-0.000002,0.000002,0.000002,0.000003,-0.000003,65.361450,0.000004,
2266,2503,0.191691249847992,-3.16714538991574,-0.0268711426836603,0.006027,-0.077677,-0.009754,0.279890,-3.578269,323.041366,20.459723,0.999634,0.992403,0.003867,0.388306,0.000245,0.000192,0.000006,0.000245,0.000191,6.941529,0.000438,
2311,2413,1.18990749230462,-5.13551103434213,-0.00952076129021862,0.005993,-0.078247,-0.013374,0.290333,-3.637826,324.604969,20.065222,0.999264,0.988261,0.004631,0.427275,0.000357,0.000349,-0.000016,0.000369,0.000337,-37.117340,0.000706,
2161,2143,-2.03796137287446,-11.0458468894862,-0.0149691348634065,0.000975,-0.081058,-0.022694,0.086252,-3.814136,329.026873,20.150200,0.999000,0.973825,0.006193,0.390443,0.000933,0.001006,0.000076,0.001054,0.000885,57.927300,0.001941,
2011,3283,-5.46518007223269,13.7653686057904,0.0522544088842665,0.010960,-0.075627,0.010307,0.453410,-3.424361,312.228257,20.417431,0.999819,0.996442,0.002611,0.471802,0.000101,-0.000046,-0.000074,0.000132,-0.000077,-22.563976,0.000132,
2146,3223,-2.53114450462777,12.4776634116019,0.0496159781239385,0.010938,-0.076030,0.009378,0.449009,-3.443513,312.464844,21.130889,0.999570,0.994695,0.003008,0.468152,0.000000,0.000004,-0.000025,0.000027,-0.000023,-47.401147,0.000029,
2491,2188,5.16649739563941,-10.0648846676775,-0.00393421186021214,0.008383,-0.082172,-0.021914,0.431768,-3.830984,328.634746,18.487600,0.997311,0.972036,0.006734,0.355522,0.000999,0.001035,-0.000167,0.001185,0.000849,-48.134644,0.002043,
2371,2698,2.44236592406192,1.08914494088537,-0.0346329661429081,0.007550,-0.077865,-0.002627,0.324733,-3.563453,319.795844,20.739567,0.999309,0.990473,0.003845,0.447777,0.000088,0.000121,0.000022,0.000132,0.000077,63.740298,0.000211,
2281,2788,0.468335826374219,3.04536856616764,-0.0157787553013691,0.007633,-0.077157,0.003503,0.309832,-3.506598,318.514367,21.036482,0.999079,0.987952,0.004350,0.390288,0.000056,0.000083,0.000014,0.000089,0.000050,67.275307,0.000141,
2086,3223,-3.83080834185985,12.4728308168627,0.0509808750259708,0.011197,-0.075491,0.004520,0.477606,-3.459557,312.780651,20.884321,0.999517,0.993465,0.003382,0.398372,0.000001,0.000003,-0.000022,0.000024,-0.000020,-46.130373,0.000026,
2206,2203,-1.06506608379312,-9.7299557590688,-0.0132745038562234,0.002765,-0.080073,-0.020034,0.161625,-3.727962,328.010572,20.114299,0.998630,0.981134,0.005565,0.337741,0.000786,0.000853,0.000039,0.000871,0.000768,65.165311,0.001640,
2356,2668,2.12222046733704,0.433953905357185,-0.0230803053220257,0.007452,-0.077786,-0.001880,0.317832,-3.569636,320.369429,20.693237,0.999329,0.989869,0.004241,0.411624,0.000099,0.000108,0.000018,0.000122,0.000085,51.500333,0.000208,
2281,2533,0.513966441817534,-2.51485697226546,-0.0167643978819569,0.006493,-0.078189,-0.006934,0.291644,-3.615538,322.631460,20.361318,0.999557,0.993119,0.003656,0.475637,0.000226,0.000168,0.000004,0.000226,0.000167,4.324509,0.000395,
2176,2008,-1.68900452580253,-14.0125525006471,-0.00440664744974129,-0.000386,-0.086106,-0.026109,0.033213,-4.041082,331.183517,19.696234,0.998297,0.983679,0.005556,0.393076,0.001282,0.001273,0.000048,0.001325,0.001229,42.288667,0.002555,
2326,2488,1.50232739343527,-3.49543424257632,-0.0151637213832032,0.006138,-0.078130,-0.008633,0.280958,-3.589628,323.325075,20.232765,0.999184,0.987919,0.004388,0.442767,0.000276,0.000212,0.000008,0.000277,0.000211,6.571008,0.000490,
2056,2023,-4.31162345243902,-13.6766500329248,-0.00573115411418712,-0.003041,-0.083063,-0.027204,-0.089115,-3.888236,331.328295,20.701000,0.997731,0.984203,0.005664,0.369640,0.001354,0.001142,0.000118,0.001407,0.001089,24.097571,0.002503,
2041,2023,-4.6391920839704,-13.6757474146646,-0.011233250083535,-0.003503,-0.082415,-0.031016,-0.100147,-3.877457,331.356075,20.778518,0.996533,0.980901,0.006321,0.404455,0.001363,0.001117,0.000139,0.001426,0.001054,24.218656,0.002489,
2011,3298,-5.46760038580589,14.09065488265,0.0465589888452769,0.011084,-0.075182,0.008148,0.464958,-3.442925,311.946557,20.450672,0.999441,0.993312,0.003430,0.406631,0.000113,-0.000057,-0.000053,0.000129,-0.000073,-16.014783,0.000129,
2506,2173,5.49860205873659,-10.3954316889992,0.0002361343525763,0.008867,-0.082181,-0.024057,0.462515,-3.865440,328.989255,18.295938,0.998533,0.977854,0.005882,0.369962,0.001024,0.001059,-0.000212,0.001254,0.000828,-47.358170,0.002097,
2071,2923,-4.11345880726121,5.96877982619463,-0.00580177750447319,0.009021,-0.076054,0.002088,0.384352,-3.479421,317.184778,20.872560,0.999387,0.991967,0.003697,0.396735,0.000024,-0.000001,-0.000010,0.000027,-0.000004,-19.277881,0.000030,
2461,3268,4.29373531922286,13.4828357054861,0.00389607598327757,0.011109,-0.078341,0.007807,0.448492,-3.561755,311.033587,22.792844,0.999779,0.994594,0.002934,0.423946,-0.000003,-0.000051,-0.000014,0.000000,-0.000054,-14.818617,0.000063,
2041,3103,-4.78938907130765,9.8708749745593,0.0233493851227422,0.010109,-0.075215,0.002091,0.435698,-3.432527,314.718918,20.726296,0.999608,0.994498,0.003138,0.428014,-0.000016,-0.000020,-0.000007,-0.000011,-0.000025,-36.539027,0.000037,
2041,2818,-4.74986600290908,3.68783669581142,-0.0230270963281782,0.008086,-0.075534,0.000734,0.345998,-3.444922,318.878876,20.870035,0.999221,0.990563,0.003928,0.427018,0.000054,0.000043,0.000007,0.000057,0.000040,25.094647,0.000097,
2131,2053,-2.67855151787692,-13.0202333800294,-0.00968430932704223,-0.000480,-0.083362,-0.025985,0.027700,-3.910152,330.572690,20.212543,0.998198,0.980763,0.005730,0.347284,0.001170,0.001164,0.000080,0.001247,0.001087,43.853762,0.002336,
2416,2998,3.36776759339283,7.61782255814557,0.00132416622739129,0.009705,-0.078159,0.005533,0.393497,-3.567138,315.309822,21.734495,0.999551,0.989209,0.003991,0.391716,0.000015,-0.000008,0.000025,0.000031,-0.000024,32.622708,0.000033,
2266,2683,0.160187645399141,0.758422109346242,-0.0310560557994677,0.007591,-0.077906,-0.001398,0.324154,-3.572825,320.130837,20.787429,0.999313,0.992576,0.003752,0.382142,0.000102,0.000098,0.000003,0.000104,0.000096,28.061770,0.000200,
2236,2338,-0.43330035138634,-6.77463825875575,-0.01743946626857,0.004584,-0.079086,-0.012887,0.223082,-3.681368,325.788188,20.224905,0.998624,0.986698,0.004942,0.333231,0.000461,0.000468,0.000003,0.000469,0.000460,66.112017,0.000929,
2251,2593,-0.150363707440523,-1.20440563886243,-0.0273021411338732,0.006881,-0.077658,-0.004874,0.303184,-3.563435,321.628361,20.594145,0.999040,0.987972,0.004529,0.446046,0.000159,0.000107,0.000009,0.000161,0.000105,9.334908,0.000268,
2146,2098,-2.35811832670281,-12.0322043209803,-0.0127022521334084,0.000173,-0.081724,-0.026788,0.061148,-3.850643,329.798735,20.216168,0.998666,0.984142,0.005335,0.339236,0.001060,0.001112,0.000073,0.001164,0.001008,54.911194,0.002174,
2056,2893,-4.43487360448583,5.31793720458728,-0.0112301035513269,0.008569,-0.075268,0.001088,0.367041,-3.431478,317.692409,20.909491,0.999490,0.992916,0.003642,0.388551,0.000021,0.000024,-0.000014,0.000036,0.000009,-47.152721,0.000048,
2266,2518,0.189422747143997,-2.8416929864613,-0.0160877443896652,0.005792,-0.077906,-0.007728,0.262267,-3.604448,322.871678,20.433931,0.999495,0.991925,0.003894,0.414486,0.000237,0.000182,0.000010,0.000239,0.000180,9.928018,0.000421,
2296,2848,0.784447436019349,4.35018014878564,-0.0141191658846651,0.008310,-0.077379,0.002551,0.343705,-3.530679,317.567929,21.071604,0.999611,0.993095,0.003628,0.461520,0.000036,0.000057,0.000017,0.000066,0.000027,61.345296,0.000096,
2296,2608,0.826717906798965,-0.875919074983209,-0.01748107108358,0.006647,-0.077723,-0.002351,0.283470,-3.544855,321.382126,20.643563,0.999372,0.990397,0.003951,0.391672,0.000153,0.000103,0.000018,0.000159,0.000097,17.842536,0.000258,
2386,2773,2.75528616916516,2.72267298580987,-0.0229934969512442,0.007853,-0.078222,0.002903,0.318524,-3.575273,318.674691,20.973740,0.999250,0.988729,0.004222,0.416127,0.000048,0.000093,0.000023,0.000103,0.000038,67.312883,0.000145,
2191,2113,-1.37709614924522,-11.7052953110834,-0.00710032472130706,0.001909,-0.082129,-0.025296,0.137731,-3.869521,329.530316,19.941923,0.998562,0.982623,0.005527,0.339592,0.001007,0.001101,0.000060,0.001130,0.000978,64.164333,0.002110,
2056,3103,-4.46398239313329,9.87122551016571,0.0280079363620871,0.010283,-0.075798,0.004242,0.437075,-3.455020,314.671528,20.765753,0.999321,0.992275,0.003631,0.423406,-0.000011,-0.000018,-0.000008,-0.000006,-0.000024,-33.887538,0.000031,
2056,2038,-4.31416556790535,-13.346415030475,-0.0130021629865382,-0.003079,-0.081815,-0.030060,-0.082445,-3.866347,331.033794,20.714676,0.997600,0.981219,0.005895,0.376273,0.001296,0.001083,0.000114,0.001345,0.001034,23.454599,0.002386,
2146,3238,-2.53432602823677,12.8036820276342,0.0402155474947676,0.010958,-0.076303,0.010070,0.447731,-3.463652,312.139075,21.199207,0.999591,0.994635,0.003026,0.386107,0.000001,-0.000001,-0.000025,0.000025,-0.000025,-43.696863,0.000029,
2341,2548,1.81778294269761,-2.18441999796809,-0.0191796563322555,0.006451,-0.077926,-0.006318,0.287382,-3.567199,322.320687,20.371568,0.998620,0.984729,0.004960,0.443848,0.000208,0.000147,0.000017,0.000212,0.000142,14.136431,0.000357,
2131,3133,-2.84297137785675,10.5270162867505,0.0319777111798771,0.010162,-0.076064,0.005953,0.423914,-3.476039,313.826006,21.075856,0.999642,0.995262,0.003060,0.388688,0.000001,-0.000008,-0.000015,0.000012,-0.000019,-36.131458,0.000019,
2041,3118,-4.79153260119596,10.1956151698666,0.0273678579166017,0.010342,-0.075414,0.006503,0.434036,-3.438414,314.506339,20.709607,0.999616,0.994620,0.003087,0.430267,-0.000015,-0.000004,-0.000013,0.000004,-0.000024,-56.913641,0.000025,
2086,3238,-3.83397098624904,12.7979019380081,0.0460983480045911,0.011024,-0.075885,0.008338,0.458507,-3.456272,312.475404,20.866196,0.999615,0.994231,0.003145,0.417481,0.000004,-0.000005,-0.000025,0.000025,-0.000026,-39.618410,0.000029,
2206,2218,-1.06784076669691,-9.40159107057663,-0.0145172478041218,0.002567,-0.079958,-0.020802,0.155011,-3.730168,327.752143,20.118252,0.998602,0.982452,0.005485,0.350965,0.000749,0.000798,0.000040,0.000821,0.000726,60.651921,0.001549,
2176,2023,-1.69040143382214,-13.6816408230018,-0.00251559703531257,0.000312,-0.083890,-0.029778,0.077245,-3.961979,331.001121,19.813915,0.997309,0.984211,0.005694,0.370037,0.001245,0.001244,0.000052,0.001297,0.001192,44.739543,0.002490,
2026,3058,-5.10750878376751,8.8939127856016,0.0216401247218414,0.010152,-0.075560,0.001984,0.438205,-3.451554,315.533378,20.693429,0.999169,0.991336,0.003843,0.416488,-0.000009,-0.000001,0.000001,-0.000001,-0.000009,85.771223,0.000011,
2311,2428,1.18584490352177,-4.80582260333398,-0.0190469554652282,0.005635,-0.078225,-0.010305,0.263491,-3.620951,324.255042,20.167366,0.999460,0.990664,0.004147,0.376330,0.000340,0.000314,-0.000015,0.000347,0.000307,-24.531215,0.000655,
2371,2713,2.43947416313047,1.41607812380414,-0.0330445768166214,0.007459,-0.078212,-0.001941,0.318054,-3.570018,319.558316,20.808540,0.999431,0.991117,0.003773,0.413487,0.000078,0.000119,0.000023,0.000130,0.000068,65.716361,0.000200,
2356,2683,2.11935258896552,0.761904635772588,-0.0287219003306518,0.007831,-0.077883,-0.002342,0.336844,-3.576169,320.096969,20.785873,0.999398,0.990598,0.003992,0.351708,0.000087,0.000115,0.000021,0.000126,0.000076,62.270488,0.000205,
2431,3103,3.67514707949095,9.89918462275364,0.0187643863844187,0.010091,-0.077868,0.003897,0.417094,-3.556953,313.781418,22.146116,0.999752,0.994331,0.003267,0.375877,0.000009,0.000002,0.000027,0.000032,-0.000022,41.563696,0.000033,
2071,3148,-4.14534990390745,10.8471123535196,0.0399150663172918,0.010406,-0.075640,0.006565,0.435735,-3.441095,313.951512,20.802927,0.999757,0.996030,0.002688,0.444983,-0.000001,0.000001,-0.000013,0.000013,-0.000013,-46.443725,0.000015,
2236,2533,-0.466006032488689,-2.51327158634303,-0.0203621445959925,0.006376,-0.077261,-0.009038,0.293692,-3.571668,322.679213,20.607499,0.999612,0.991758,0.003742,0.353991,0.000207,0.000173,0.000015,0.000213,0.000167,20.983792,0.000381,
2191,2278,-1.40414678035638,-8.08703207202181,-0.0179203763037208,0.003656,-0.078817,-0.019761,0.201738,-3.688567,326.844938,20.316590,0.998542,0.981175,0.005570,0.334533,0.000614,0.000609,0.000028,0.000640,0.000583,42.429717,0.001223,
2401,2893,3.05986386513385,5.3354342594804,-0.012398583368963,0.008458,-0.077669,0.003168,0.345410,-3.523800,316.845149,21.389266,0.999489,0.991688,0.003708,0.423791,0.000020,0.000016,0.000025,0.000043,-0.000007,42.328181,0.000046,
2206,2368,-1.09220857148978,-6.11816144178755,-0.0207577164678696,0.004581,-0.078104,-0.014491,0.228134,-3.637553,325.352630,20.377445,0.999283,0.988578,0.004516,0.372706,0.000435,0.000391,0.000008,0.000436,0.000389,10.496649,0.000826,
2251,2383,-0.114319750408772,-5.79205433989318,-0.0184120217006694,0.004948,-0.079412,-0.008656,0.226016,-3.641224,325.027097,20.085493,0.998807,0.986805,0.004907,0.532615,0.000390,0.000387,0.000001,0.000390,0.000387,23.338757,0.000777,
2326,2503,1.49881253567273,-3.16682174534741,-0.0216750821588789,0.006139,-0.078617,-0.005560,0.270242,-3.599509,323.016511,20.319005,0.999196,0.988579,0.004229,0.382473,0.000255,0.000198,0.000006,0.000256,0.000198,6.122532,0.000455,
2116,3148,-3.17072804472408,10.8511426202673,0.0253912731262744,0.010465,-0.075753,0.004911,0.441647,-3.463321,313.610078,20.973723,0.999726,0.995426,0.002919,0.444165,0.000004,-0.000002,-0.000013,0.000015,-0.000012,-38.774910,0.000016,
2446,3163,3.99090148483356,11.2024361543946,0.0322074297151289,0.010722,-0.077818,0.005555,0.439681,-3.537032,312.957920,22.410611,0.999567,0.991250,0.003857,0.393015,0.000000,-0.000013,0.000023,0.000017,-0.000031,37.318589,0.000031,
2176,2233,-1.72434623906091,-9.07281159833442,-0.0153174254435839,0.002764,-0.079551,-0.018176,0.155285,-3.673521,327.592271,20.238549,0.998560,0.983894,0.005145,0.448285,0.000717,0.000736,0.000048,0.000775,0.000678,50.488093,0.001454,
2026,1993,-4.9629368172047,-14.3346002578111,-0.00329700951516543,-0.005287,-0.082364,-0.034043,-0.174365,-3.916728,331.917606,20.907032,0.998270,0.982117,0.005724,0.350004,0.001501,0.001217,0.000180,0.001588,0.001129,25.906568,0.002730,
2041,2038,-4.64103076870152,-13.3475594964545,-0.00635078196933136,-0.003298,-0.082130,-0.028688,-0.097145,-3.871293,331.159606,20.757982,0.997647,0.980953,0.005942,0.426858,0.001304,0.001055,0.000129,0.001359,0.001000,23.055074,0.002367,
2221,2443,-0.776689546615952,-4.4800913053518,-0.0117624710518385,0.006009,-0.078260,-0.009263,0.277187,-3.599412,324.226238,20.428540,0.999104,0.988565,0.004520,0.410775,0.000303,0.000266,0.000004,0.000303,0.000265,6.701479,0.000569,
2041,3028,-4.77955691298255,8.24510537184732,0.0136782495548005,0.009130,-0.075479,0.007532,0.375140,-3.448915,315.800347,20.785531,0.999510,0.992112,0.003764,0.394777,-0.000006,-0.000002,0.000003,0.000000,-0.000008,62.902674,0.000009,
2056,3148,-4.47016694727081,10.8463475952514,0.0378981596759331,0.010545,-0.075302,0.002939,0.453013,-3.438325,314.035572,20.761325,0.999510,0.993904,0.003177,0.425410,0.000001,0.000002,-0.000016,0.000017,-0.000015,-45.307302,0.000019,
2461,3283,4.29061991242112,13.8085749527559,-0.000680670248186743,0.011363,-0.077995,0.007481,0.461576,-3.547938,310.761362,22.849339,0.999568,0.992169,0.003534,0.434251,-0.000003,-0.000058,-0.000013,0.000000,-0.000061,-12.660348,0.000071,
2101,3223,-3.50604640760523,12.4739364832964,0.0501112783138069,0.011098,-0.075949,0.006214,0.467511,-3.463622,312.687967,20.942203,0.999597,0.994338,0.003174,0.411301,-0.000003,0.000004,-0.000018,0.000018,-0.000018,-50.328705,0.000021,
2056,3118,-4.46638232334498,10.1963045612349,0.0331836343370355,0.010140,-0.075929,0.007476,0.421300,-3.457449,314.454369,20.784065,0.999440,0.993590,0.003264,0.396294,-0.000011,-0.000007,-0.000013,0.000004,-0.000022,-49.324936,0.000024,
2491,2203,5.16242839694037,-9.73543844823305,-0.00876123003052953,0.007569,-0.081549,-0.024815,0.405927,-3.810765,328.325748,18.527922,0.997325,0.973112,0.006622,0.397536,0.000961,0.000926,-0.000152,0.001096,0.000790,-41.742839,0.001895,
2071,2068,-3.98932281605069,-12.6895924902742,0.00802167435426782,-0.001782,-0.081145,-0.026169,-0.033139,-3.811500,330.695680,20.745333,0.997575,0.965064,0.007380,0.300762,0.001181,0.001116,0.000115,0.001268,0.001029,37.100449,0.002301,
2416,3013,3.36489692653714,7.94457023688896,-0.00249947839506603,0.009663,-0.077629,0.000200,0.411352,-3.557500,315.049865,21.816523,0.999515,0.986699,0.004212,0.366356,0.000015,-0.000010,0.000025,0.000031,-0.000025,31.954083,0.000033,
2086,2983,-3.7970978139113,7.27125196622275,0.00549629684400088,0.009064,-0.076423,0.005350,0.376425,-3.492216,316.216027,20.888430,0.999470,0.993033,0.003474,0.392904,0.000016,-0.000020,-0.000007,0.000017,-0.000021,-11.011769,0.000022,
2251,2608,-0.152860192721032,-0.877949818120364,-0.0261158020263679,0.006892,-0.077994,-0.005701,0.306308,-3.590168,321.398519,20.602045,0.998992,0.986788,0.004689,0.435225,0.000146,0.000092,0.000011,0.000148,0.000090,11.054320,0.000240,
2296,2863,0.781794136971303,4.67750807371227,-0.0167687334314337,0.008527,-0.077547,0.001525,0.357154,-3.533892,317.314286,21.182920,0.999532,0.992985,0.003622,0.376586,0.000034,0.000049,0.000013,0.000056,0.000027,60.222104,0.000085,
2086,3253,-3.83635575304462,13.122291104002,0.0527190004603995,0.010862,-0.075960,0.011493,0.441880,-3.453357,312.268993,20.854322,0.999749,0.994986,0.002953,0.429819,0.000013,-0.000007,-0.000025,0.000030,-0.000024,-34.107441,0.000032,
2506,2188,5.49427644669479,-10.0654858387812,-0.00260766630765374,0.008212,-0.082492,-0.020573,0.419026,-3.849571,328.678839,18.401447,0.998098,0.976394,0.006313,0.344559,0.000984,0.001043,-0.000198,0.001214,0.000813,-49.254919,0.002040,
2131,2068,-2.67991805377579,-12.6911468023295,-0.0021488734811328,0.000009,-0.082352,-0.026525,0.052056,-3.865453,330.418358,20.276719,0.997431,0.975506,0.006363,0.336243,0.001135,0.001150,0.000087,0.001229,0.001055,47.407407,0.002287,
2266,2698,0.158224314827173,1.08528996220731,-0.0282731359010313,0.007855,-0.077239,-0.004908,0.348219,-3.541834,319.934164,20.816358,0.999504,0.992698,0.003643,0.410238,0.000092,0.000111,0.000009,0.000115,0.000089,68.772264,0.000204,
2281,2548,0.510898526556716,-2.18466784972973,-0.0275758097860148,0.006997,-0.077891,-0.006075,0.312072,-3.584753,322.317052,20.528497,0.999246,0.990511,0.004126,0.368253,0.000212,0.000144,0.000007,0.000213,0.000143,5.924677,0.000358,
2146,3253,-2.53706142885487,13.1287512045291,0.0318048955174959,0.011221,-0.076251,0.008683,0.464090,-3.468602,311.839411,21.175445,0.999570,0.994252,0.003118,0.411414,0.000006,0.000001,-0.000018,0.000022,-0.000015,-40.886430,0.000022,
2056,2053,-4.31537881362643,-13.0170292994666,-0.0149674442156993,-0.001984,-0.081468,-0.030878,-0.029820,-3.876421,330.829342,20.748357,0.996808,0.976024,0.006498,0.330460,0.001250,0.001086,0.000117,0.001311,0.001025,27.508640,0.002341,
2101,2998,-3.47340220696949,7.59934717825155,-0.00334005989748221,0.009917,-0.075396,-0.002035,0.437267,-3.456996,315.882643,20.976463,0.999590,0.993144,0.003403,0.380596,0.000018,-0.000009,0.000003,0.000018,-0.000010,6.342969,0.000018,
2071,2938,-4.11550454950759,6.29455555040364,-0.00227638543526609,0.009033,-0.075718,0.000516,0.389577,-3.455553,316.975175,20.875286,0.999320,0.990982,0.003822,0.414407,0.000020,-0.000007,-0.000006,0.000021,-0.000008,-11.415638,0.000022,
2281,2803,0.465393173048344,3.37265522014084,-0.0224821571109715,0.007939,-0.077214,0.004034,0.322165,-3.499344,318.226129,21.083967,0.999157,0.988973,0.004260,0.378030,0.000048,0.000076,0.000013,0.000081,0.000043,68.512196,0.000125,
2296,2623,0.823738952173233,-0.549244069771653,-0.0218772285663817,0.006723,-0.077871,-0.002376,0.286992,-3.556102,321.105786,20.613109,0.999344,0.989425,0.004014,0.441621,0.000139,0.000103,0.000017,0.000145,0.000096,21.521610,0.000243,
2431,3118,3.67172479347694,10.2256456937446,0.0140730786375798,0.010381,-0.077977,0.008325,0.414053,-3.549249,313.492798,22.227506,0.999801,0.995362,0.003070,0.350853,0.000006,0.000003,0.000028,0.000032,-0.000024,43.333501,0.000033,
2146,2113,-2.35986233801727,-11.705315685397,0.00616508230984891,-0.000117,-0.081521,-0.022382,0.034588,-3.814976,329.688441,20.227794,0.999115,0.984939,0.005116,0.373699,0.001022,0.001076,0.000074,0.001128,0.000970,54.926158,0.002100,
2041,3043,-4.78103652411718,8.57010647838307,0.017573890653523,0.009635,-0.075473,0.005561,0.404014,-3.438319,315.617283,20.757707,0.999716,0.995129,0.002982,0.424837,-0.000008,0.000000,-0.000004,0.000002,-0.000010,-65.352581,0.000010,
2446,3178,3.98763259740426,11.5282786978856,0.0289945102462639,0.010624,-0.077943,0.004455,0.439205,-3.551528,312.684322,22.482125,0.999601,0.991993,0.003622,0.357872,-0.000004,-0.000011,0.000020,0.000013,-0.000028,39.986074,0.000028,
2191,2128,-1.37937823807695,-11.3760833518193,-0.00992190579557928,0.002203,-0.081470,-0.027123,0.157122,-3.850650,329.284804,19.951814,0.998106,0.981595,0.005674,0.366085,0.000967,0.001070,0.000061,0.001098,0.000939,65.134653,0.002039,
2236,2353,-0.435233872713557,-6.44682804314507,-0.0140116906478056,0.005127,-0.078956,-0.011340,0.243060,-3.670964,325.594413,20.259159,0.998243,0.985167,0.005246,0.332146,0.000432,0.000425,0.000001,0.000433,0.000424,8.084146,0.000857,
2326,2518,1.49599978457109,-2.83836202115567,-0.0278308688097013,0.006266,-0.077619,-0.009648,0.290541,-3.584983,322.741774,20.375747,0.999063,0.987242,0.004446,0.375847,0.000240,0.000189,0.000009,0.000242,0.000187,10.104985,0.000430,
2071,3163,-4.14761880723306,11.1725634953637,0.0430516915822068,0.010421,-0.075854,0.007716,0.433045,-3.454749,313.729963,20.864491,0.999735,0.995190,0.002900,0.365463,-0.000003,0.000007,-0.000021,0.000024,-0.000020,-51.244322,0.000025,
2131,3148,-2.84530857803995,10.8519894143104,0.0342248488668133,0.010118,-0.075790,0.005075,0.424638,-3.464266,313.600459,21.060902,0.999599,0.994165,0.003150,0.420131,0.000004,-0.000004,-0.000014,0.000015,-0.000015,-36.846970,0.000017,
2086,3268,-3.83884736081373,13.4482523824101,0.0415494550472886,0.011352,-0.075448,0.008847,0.472381,-3.437109,311.959856,20.878490,0.999731,0.995668,0.002837,0.419665,0.000023,-0.000008,-0.000026,0.000038,-0.000022,-29.434125,0.000038,
2026,2008,-4.96566041576903,-14.0044138190241,-0.0114163092067088,-0.004830,-0.083278,-0.025467,-0.177199,-3.906142,331.607056,20.905064,0.997685,0.982593,0.005913,0.356868,0.001452,0.001235,0.000207,0.001577,0.001110,31.140033,0.002701,
2176,2038,-1.69342065658435,-13.3516188017184,-0.006069450173527,-0.000124,-0.083971,-0.031825,0.063553,-3.987740,330.716951,19.899555,0.998162,0.984814,0.005331,0.274764,0.001210,0.001208,0.000050,0.001259,0.001159,44.569637,0.002419,
2101,3238,-3.50867541421166,12.7986922396837,0.048311774740057,0.011213,-0.076184,0.008817,0.465141,-3.465863,312.425276,20.918324,0.999650,0.994771,0.003018,0.433115,-0.000001,-0.000004,-0.000019,0.000016,-0.000022,-43.349094,0.000023,
2071,2083,-3.9949579590141,-12.3588393123985,-0.0154576661999499,-0.003053,-0.082660,-0.016205,-0.120241,-3.831916,330.173380,20.687568,0.997957,0.967430,0.007136,0.339892,0.001134,0.001108,0.000123,0.001245,0.000997,42.000489,0.002247,
2266,2533,0.186614912214534,-2.51459565651668,-0.0202901195078198,0.006130,-0.078197,-0.005427,0.270078,-3.609272,322.601620,20.406639,0.999631,0.995323,0.003327,0.463693,0.000223,0.000165,0.000011,0.000224,0.000163,10.019631,0.000389,
2386,2788,2.75234738340255,3.05039552419141,-0.027693285664327,0.008061,-0.078028,0.001327,0.333810,-3.569176,318.405715,21.075067,0.999586,0.991752,0.003790,0.364463,0.000043,0.000083,0.000022,0.000093,0.000033,65.742446,0.000131,
2026,3073,-5.11008846690965,9.21832582833061,0.0279573336525232,0.009838,-0.076048,0.007377,0.408802,-3.445629,315.312772,20.638481,0.999124,0.992209,0.003772,0.466797,-0.000012,-0.000008,0.000003,-0.000007,-0.000014,64.009702,0.000021,
2371,2728,2.437145240124,1.74312431059585,-0.0277701701601814,0.007719,-0.077889,-0.000282,0.324226,-3.546465,319.364123,20.891754,0.999413,0.990592,0.003909,0.395047,0.000068,0.000111,0.000025,0.000122,0.000057,65.606445,0.000183,
2206,2233,-1.06991760034111,-9.07527116660774,-0.00639579530519541,0.002897,-0.080974,-0.014595,0.150168,-3.766867,327.574309,20.072065,0.998822,0.983875,0.005408,0.379178,0.000706,0.000742,0.000033,0.000761,0.000686,59.339046,0.001448,
2221,2458,-0.780005242158754,-4.15211945316322,-0.0148857494995696,0.005307,-0.077757,-0.012050,0.254018,-3.593966,323.934338,20.454448,0.998958,0.986082,0.004922,0.410818,0.000287,0.000243,0.000010,0.000289,0.000241,12.230018,0.000531,
2176,2248,-1.7266370696883,-8.74461754701411,-0.0129988170430124,0.002824,-0.079303,-0.017900,0.157250,-3.673676,327.371924,20.271645,0.998595,0.982234,0.005338,0.429460,0.000684,0.000692,0.000049,0.000737,0.000639,47.413840,0.001377,
2116,3163,-3.17270197923354,11.1760766514637,0.033237693245951,0.010480,-0.075813,0.005200,0.441417,-3.472816,313.430449,21.013875,0.999583,0.993674,0.003316,0.396670,0.000002,0.000004,-0.000017,0.000021,-0.000014,-47.062504,0.000021,
2221,2233,-0.742206325135051,-9.07445846825198,-0.0108540729780202,0.003386,-0.079846,-0.021834,0.196307,-3.750096,327.545067,20.019687,0.998693,0.983714,0.005244,0.377390,0.000685,0.000749,0.000020,0.000754,0.000679,74.278705,0.001435,
2356,2698,2.11658687213871,1.0871031764193,-0.0233159217416983,0.007644,-0.078343,-0.000272,0.320841,-3.575187,319.882957,20.714224,0.999449,0.991384,0.003820,0.463714,0.000080,0.000125,0.000023,0.000135,0.000071,67.213121,0.000209,
2296,2878,0.779185273797157,5.00348183212016,-0.0173349154127891,0.008618,-0.077000,0.000390,0.365373,-3.519411,317.073325,21.172092,0.999563,0.992452,0.003650,0.431724,0.000030,0.000047,0.000015,0.000056,0.000021,59.679105,0.000079,
2071,3178,-4.14971301622302,11.4972544493223,0.0433840204318585,0.010689,-0.075744,0.007317,0.446609,-3.448851,313.501322,20.823311,0.999800,0.996530,0.002644,0.408071,-0.000002,0.000009,-0.000022,0.000026,-0.000020,-51.791922,0.000027,
2086,3283,-3.84156887753661,13.7727544149871,0.0407636653477539,0.011142,-0.075909,0.009095,0.461829,-3.456474,311.697489,20.865611,0.999607,0.995295,0.002912,0.410597,0.000046,-0.000004,-0.000028,0.000059,-0.000017,-24.341519,0.000060,
2311,2443,1.18391976100461,-4.4799902367311,-0.00904826932247715,0.005923,-0.078691,-0.007452,0.266816,-3.619248,324.099711,20.120660,0.999302,0.989149,0.004435,0.458118,0.000323,0.000286,-0.000007,0.000324,0.000284,-9.842674,0.000609,
2191,2293,-1.40650473147656,-7.75857858703959,-0.015750548076312,0.003826,-0.078376,-0.017502,0.202628,-3.622344,326.621541,20.321219,0.998489,0.983760,0.005308,0.412778,0.000581,0.000563,0.000029,0.000602,0.000541,36.227560,0.001144,
2071,2953,-4.1183054130845,6.62062428583636,-0.0054239453260152,0.008881,-0.075601,0.001713,0.379200,-3.450355,316.694294,20.880642,0.999162,0.991500,0.003846,0.410571,0.000024,-0.000016,-0.000005,0.000025,-0.000016,-7.303559,0.000025,
2041,3133,-4.79332984614262,10.5205363773318,0.0348991521214543,0.010411,-0.075498,0.005990,0.438634,-3.444587,314.329141,20.734794,0.999363,0.993054,0.003431,0.390361,-0.000010,0.000010,-0.000015,0.000018,-0.000018,-61.936847,0.000021,
2431,3133,3.66936508638854,10.5506420341043,0.0190396855881545,0.010512,-0.077679,0.007377,0.423784,-3.531326,313.298485,22.227607,0.999715,0.993326,0.003321,0.417756,0.000005,-0.000008,0.000025,0.000025,-0.000027,37.719370,0.000030,
2026,2023,-4.96638985935881,-13.6750795965457,-0.00763133918889025,-0.003683,-0.081786,-0.026520,-0.121282,-3.841443,331.453385,20.912455,0.997500,0.982062,0.006072,0.407506,0.001362,0.001098,0.000166,0.001442,0.001018,25.735224,0.002472,
2506,2203,5.49054021482098,-9.73657987996629,0.0022713807876471,0.007353,-0.081641,-0.018519,0.372241,-3.791704,328.429619,18.456630,0.998244,0.974454,0.006464,0.411138,0.000944,0.000923,-0.000185,0.001119,0.000748,-43.386453,0.001879,
2041,2053,-4.64552364906524,-13.012561196899,-0.0429857874780168,-0.003286,-0.081452,-0.027897,-0.098577,-3.848613,330.611661,20.882822,0.999444,0.991778,0.004029,0.322313,0.001256,0.001062,0.000130,0.001322,0.000997,26.643538,0.002326,
2491,2218,5.15862448103273,-9.40428806795669,-0.01690284311303,0.007407,-0.080877,-0.026589,0.405630,-3.796541,328.013820,18.701381,0.998652,0.981342,0.005676,0.300249,0.000932,0.000856,-0.000146,0.001045,0.000743,-37.789669,0.001796,
2266,2713,0.155727500237941,1.41163358597404,-0.0200248385244777,0.007471,-0.076999,-0.004557,0.329464,-3.542176,319.740654,20.877094,0.999641,0.993189,0.003594,0.374711,0.000081,0.000108,0.000008,0.000110,0.000079,74.002894,0.000190,
2401,2908,3.05717986643267,5.66212644166095,-0.012811099424141,0.008786,-0.077883,0.003838,0.357894,-3.553026,316.609198,21.499084,0.999534,0.991350,0.003768,0.329596,0.000015,0.000004,0.000023,0.000033,-0.000014,37.827613,0.000033,
2326,2533,1.49301422748229,-2.51180066480251,-0.0259768831738256,0.006141,-0.078177,-0.006750,0.274644,-3.606055,322.498631,20.371559,0.999201,0.987628,0.004371,0.394466,0.000229,0.000166,0.000009,0.000230,0.000165,8.399665,0.000397,
2236,2548,-0.469749866012169,-2.18480861991193,-0.0342244016353561,0.006228,-0.077141,-0.009210,0.287518,-3.567539,322.314036,20.615656,0.999619,0.992623,0.003585,0.372285,0.000195,0.000149,0.000016,0.000200,0.000144,17.940397,0.000346,
2341,2563,1.81500550662463,-1.85652043225667,-0.0235054922272866,0.006695,-0.078139,-0.007956,0.304249,-3.591252,322.057927,20.447376,0.998702,0.986438,0.004771,0.381455,0.000189,0.000146,0.000022,0.000198,0.000136,22.814513,0.000337,
2176,2053,-1.69570173508539,-13.0219353470296,-0.00719832239610696,0.000363,-0.083610,-0.028608,0.076067,-3.937151,330.478737,19.911185,0.998200,0.984752,0.005267,0.329456,0.001171,0.001196,0.000054,0.001239,0.001128,51.377683,0.002368,
2461,3298,4.2878882227723,14.1334194552903,0.00342876680548443,0.011323,-0.078060,0.007627,0.459177,-3.550357,310.546967,22.890544,0.999532,0.993681,0.003405,0.443540,-0.000006,-0.000071,-0.000009,-0.000005,-0.000072,-8.117967,0.000086,
2056,3133,-4.468714595719,10.5214169615011,0.0309283891926384,0.010230,-0.075733,0.005937,0.429841,-3.459006,314.199254,20.761998,0.999089,0.992791,0.003404,0.410306,-0.000006,0.000005,-0.000015,0.000015,-0.000017,-55.195031,0.000019,
2161,2158,-2.04200277060687,-10.7087108792981,-0.0588117397659289,0.002262,-0.079927,-0.024196,0.150274,-3.802940,328.481607,20.463519,0.999638,0.949439,0.008302,0.102936,0.000897,0.000954,0.000070,0.001001,0.000849,56.090419,0.001853,
2251,2398,-0.116593367781242,-5.4630258121465,-0.0156824768044999,0.005148,-0.078946,-0.008368,0.234414,-3.639639,324.815064,20.248047,0.999063,0.989681,0.004449,0.396672,0.000368,0.000356,0.000001,0.000368,0.000355,6.186429,0.000724,
2251,2623,-0.15521189463589,-0.551308561852004,-0.0191768671572277,0.006977,-0.078094,-0.001805,0.297436,-3.563233,321.204176,20.627044,0.999015,0.986916,0.004585,0.461110,0.000132,0.000088,0.000009,0.000133,0.000086,11.511028,0.000222,
2116,3178,-3.17445156624322,11.5000656999343,0.0444750870726125,0.010716,-0.076300,0.008830,0.441470,-3.474334,313.279771,20.981942,0.999577,0.992778,0.003378,0.429321,0.000001,0.000005,-0.000019,0.000023,-0.000016,-48.455194,0.000023,
2146,2128,-2.36179524121469,-11.3761771088476,0.00380041809842169,0.000455,-0.081608,-0.023538,0.064298,-3.828668,329.457326,20.266629,0.998966,0.982600,0.005366,0.331923,0.000981,0.001050,0.000073,0.001096,0.000935,57.772571,0.002033,
2056,2068,-4.31776363857164,-12.6868138333692,-0.0148854668942136,-0.001972,-0.080580,-0.028272,-0.036375,-3.792678,330.582024,20.792865,0.997972,0.978240,0.005917,0.367684,0.001205,0.001100,0.000133,0.001296,0.001010,34.284144,0.002311,
2236,2368,-0.438175860825606,-6.11745247305419,-0.0205010688893026,0.005134,-0.078391,-0.013136,0.249434,-3.638786,325.303656,20.323186,0.999007,0.987971,0.004754,0.323509,0.000401,0.000401,-0.000002,0.000403,0.000399,-46.640485,0.000802,
2506,2218,5.48752462583256,-9.40703431728917,-0.00499051766848879,0.007871,-0.081372,-0.020965,0.405517,-3.803808,328.159625,18.518055,0.998747,0.976165,0.006054,0.401552,0.000918,0.000851,-0.000177,0.001065,0.000704,-39.637087,0.001781,
2071,2968,-4.12072551500033,6.94612842040774,-0.00580615879317747,0.009003,-0.075829,0.003924,0.378411,-3.456623,316.446258,20.869243,0.999012,0.990560,0.004007,0.411798,0.000023,-0.000023,-0.000008,0.000024,-0.000024,-9.736122,0.000028,
2131,2083,-2.68371422831865,-12.3610448038705,-0.0130533980489531,-0.000377,-0.082495,-0.021863,0.020377,-3.853231,330.055113,20.267253,0.997914,0.980167,0.005900,0.367504,0.001097,0.001141,0.000090,0.001211,0.001027,51.907520,0.002240,
2071,3193,-4.15214953203197,11.8227132364634,0.0442130189373415,0.010716,-0.075597,0.008984,0.443116,-3.443086,313.259416,20.859712,0.999583,0.994878,0.002997,0.373153,0.000000,0.000011,-0.000026,0.000033,-0.000022,-50.943694,0.000033,
2041,3058,-4.78240010001801,8.89465189574834,0.0269571088021507,0.010104,-0.075613,0.006553,0.422856,-3.443863,315.470258,20.743216,0.999695,0.994663,0.003093,0.425210,-0.000010,-0.000005,-0.000005,-0.000002,-0.000013,-57.439369,0.000016,
2446,3193,3.98533450785315,11.8530978843895,0.0352589283067459,0.010866,-0.077993,0.005159,0.447760,-3.545981,312.499541,22.499116,0.999643,0.992120,0.003526,0.397480,-0.000003,-0.000015,0.000017,0.000009,-0.000027,35.283184,0.000028,
2101,3013,-3.47610717131553,7.92371968503215,0.00300204598823939,0.009489,-0.075603,0.001885,0.406016,-3.453882,315.660578,20.909849,0.999360,0.991976,0.003588,0.450828,0.000019,-0.000007,0.000004,0.000020,-0.000007,9.013893,0.000020,
2281,2563,0.508394433430158,-1.85765089176595,-0.029834692126542,0.007219,-0.077405,-0.007972,0.328839,-3.563679,322.071799,20.496297,0.999089,0.989093,0.004447,0.450533,0.000191,0.000140,0.000006,0.000192,0.000140,6.999571,0.000333,
2266,2548,0.184548037554368,-2.18539449955378,-0.0237843462066394,0.006847,-0.077889,-0.007586,0.310306,-3.589771,322.368513,20.559431,0.999470,0.992563,0.003759,0.356963,0.000209,0.000142,0.000012,0.000211,0.000140,9.609895,0.000354,
2101,3253,-3.51149035286989,13.124594304897,0.0462603175852223,0.011043,-0.075835,0.009569,0.455238,-3.446938,312.152221,20.981600,0.999718,0.995638,0.002826,0.388489,0.000004,-0.000007,-0.000017,0.000017,-0.000020,-35.582032,0.000021,
2071,2098,-3.99496215349121,-12.0304730465588,0.00226965277244062,-0.002278,-0.080862,-0.022351,-0.066689,-3.776166,330.132702,20.795632,0.997971,0.976178,0.006090,0.286511,0.001092,0.001086,0.000121,0.001210,0.000968,44.262056,0.002182,
2191,2143,-1.38230495304606,-11.0467128827066,-0.00876580441939723,0.001903,-0.081239,-0.024317,0.134684,-3.819166,329.030308,20.012285,0.998468,0.983758,0.005350,0.354750,0.000931,0.001009,0.000069,0.001049,0.000890,59.570270,0.001942,
2476,1993,4.88179092372556,-14.3537051520972,0.00900337904158732,0.009597,-0.087312,-0.033832,0.529211,-4.128380,331.951825,17.497157,0.996965,0.970363,0.007086,0.346783,0.001751,0.001315,-0.000107,0.001776,0.001291,-13.057953,0.003079,
2086,2998,-3.79897972801879,7.59732882709197,0.00919852572104674,0.009262,-0.076041,0.003820,0.390109,-3.472460,316.015839,20.939313,0.999584,0.993148,0.003336,0.360186,0.000013,-0.000013,-0.000004,0.000014,-0.000014,-7.945479,0.000016,
2131,3163,-2.84739301803657,11.1763791870922,0.0378624940399845,0.010431,-0.076501,0.007138,0.432643,-3.491948,313.394213,21.043419,0.999508,0.992202,0.003496,0.414216,0.000001,0.000001,-0.000018,0.000019,-0.000017,-45.430822,0.000021,
2041,2068,-4.64713578458484,-12.6850078392752,-0.0358728934161263,-0.002990,-0.080949,-0.025552,-0.091381,-3.815539,330.437825,20.814933,0.999281,0.991144,0.004174,0.418580,0.001212,0.001093,0.000145,0.001310,0.000995,33.876671,0.002312,
2431,3148,3.66619022456236,10.8767483110812,0.0122823671401875,0.010525,-0.077581,0.003263,0.439605,-3.552226,313.011603,22.300742,0.999673,0.993567,0.003254,0.372751,0.000004,-0.000015,0.000025,0.000021,-0.000033,34.729731,0.000033,
2146,3268,-2.53974814877597,13.4540757786554,0.0289275990986653,0.011158,-0.075953,0.007136,0.465998,-3.459967,311.571332,21.197182,0.999626,0.994796,0.003026,0.404805,0.000011,0.000007,-0.000017,0.000026,-0.000008,-41.769340,0.000026,
2026,3088,-5.11220233766666,9.54466684362731,0.0290251855299175,0.009803,-0.075634,0.004317,0.415676,-3.448834,315.083476,20.739559,0.999587,0.994460,0.003200,0.351558,-0.000022,-0.000026,-0.000006,-0.000017,-0.000030,-35.821176,0.000048,
2206,2248,-1.07274959241361,-8.74469524153938,-0.0168341793406057,0.003352,-0.080330,-0.014473,0.170903,-3.727310,327.265326,20.151927,0.998667,0.983622,0.005304,0.358375,0.000675,0.000693,0.000040,0.000725,0.000643,51.545189,0.001368,
2311,2458,1.18053569642682,-4.15123004626945,-0.01911518141128,0.006000,-0.078703,-0.008136,0.272719,-3.602004,323.778301,20.143495,0.999146,0.988500,0.004601,0.486447,0.000302,0.000256,-0.000003,0.000302,0.000256,-3.742511,0.000559,
2221,2248,-0.744746651931795,-8.74566881544844,-0.0206612394687227,0.003990,-0.079430,-0.023485,0.229443,-3.730595,327.254677,19.963415,0.998747,0.983691,0.005193,0.474595,0.000657,0.000698,0.000028,0.000712,0.000642,62.950981,0.001355,
2086,3298,-3.84492842244868,14.098019588931,0.0286586404209856,0.010967,-0.075806,0.008668,0.455077,-3.448508,311.343638,20.838729,0.999533,0.994930,0.003003,0.443087,0.000064,0.000007,-0.000034,0.000080,-0.000009,-25.297191,0.000087,
2026,2038,-4.96765842916782,-13.3480075997137,-0.000493267846138679,-0.003114,-0.082291,-0.024874,-0.099859,-3.843701,331.294555,20.823404,0.997611,0.979483,0.006073,0.487588,0.001300,0.001032,0.000147,0.001365,0.000967,23.854078,0.002343,
2491,2233,5.15525985857252,-9.07582126877921,-0.0189963279074732,0.007607,-0.080895,-0.023009,0.401144,-3.769209,327.749264,18.685409,0.998762,0.980751,0.005820,0.404951,0.000905,0.000811,-0.000124,0.000990,0.000725,-34.651285,0.001722,
2056,3163,-4.47260746214291,11.1712199441733,0.0398559186891703,0.010537,-0.075614,0.005707,0.444751,-3.447455,313.798915,20.757824,0.999599,0.992691,0.003373,0.413251,0.000000,0.000007,-0.000025,0.000029,-0.000022,-48.823212,0.000030,
2041,3148,-4.79486531559185,10.8448815358688,0.0422318202391239,0.010830,-0.075477,0.006715,0.455984,-3.439601,314.163094,20.697448,0.999594,0.994105,0.003244,0.424018,-0.000002,0.000003,-0.000016,0.000016,-0.000016,-49.329633,0.000018,
2266,2728,0.152343683341805,1.73888019901678,-0.0270794299074169,0.007542,-0.077193,-0.001033,0.321021,-3.529400,319.429235,20.887926,0.999492,0.991499,0.003721,0.402693,0.000078,0.000101,0.000006,0.000103,0.000077,75.407633,0.000180,
2356,2713,2.1134213036215,1.41539831615771,-0.0264080281085057,0.007479,-0.077862,-0.001395,0.317400,-3.557690,319.608834,20.845260,0.999469,0.991642,0.003694,0.389331,0.000072,0.000123,0.000024,0.000133,0.000063,68.143425,0.000200,
2206,2383,-1.09511530643546,-5.79049352693011,-0.0230714638414042,0.004550,-0.078498,-0.012204,0.219371,-3.635501,325.082500,20.361132,0.998882,0.987019,0.004710,0.409531,0.000408,0.000372,0.000007,0.000409,0.000370,10.481014,0.000780,
2116,3193,-3.17714817048487,11.8254233511072,0.0436757322937638,0.010558,-0.076205,0.008916,0.433935,-3.473300,313.020212,21.005127,0.999638,0.992860,0.003482,0.409542,0.000000,0.000008,-0.000023,0.000027,-0.000020,-50.165356,0.000028,
2176,2068,-1.69739134592613,-12.6941711143563,-0.000188351112115015,0.000958,-0.083947,-0.024333,0.090003,-3.931097,330.310450,19.888262,0.998691,0.984701,0.005348,0.373571,0.001135,0.001168,0.000062,0.001215,0.001087,52.551156,0.002304,
2371,2743,2.43419225314824,2.06940256326533,-0.027687536267706,0.007724,-0.078092,0.000964,0.319932,-3.564126,319.116648,20.907994,0.999368,0.990063,0.003939,0.402469,0.000062,0.000114,0.000026,0.000125,0.000052,67.624999,0.000182,
2101,3028,-3.47786714542088,8.24911385207385,0.00768297535006468,0.010019,-0.075534,0.004264,0.423482,-3.444815,315.472520,20.923267,0.999221,0.991721,0.003695,0.446878,0.000018,-0.000001,0.000006,0.000020,-0.000003,16.355265,0.000022,
2221,2473,-0.78292029297933,-3.82373303079276,-0.0210041872580291,0.005327,-0.076961,-0.013238,0.259037,-3.584533,323.645320,20.491945,0.999222,0.987470,0.004614,0.402987,0.000275,0.000227,0.000013,0.000278,0.000224,13.961004,0.000503,
2296,2638,0.821783225238523,-0.222120841048792,-0.0236131732884246,0.007241,-0.077200,-0.007609,0.328710,-3.559254,320.889407,20.643337,0.999256,0.988452,0.004147,0.438857,0.000126,0.000092,0.000017,0.000133,0.000085,22.362069,0.000219,
2416,3028,3.36158027706145,8.27012341689632,-0.000467435273492356,0.009478,-0.078040,0.004534,0.386919,-3.547868,314.797101,21.832227,0.999553,0.988613,0.004070,0.407239,0.000013,-0.000003,0.000026,0.000032,-0.000022,36.594883,0.000033,
2026,2053,-4.97072139200156,-13.0166187289914,0.00345757222368093,-0.004004,-0.082056,-0.021310,-0.150384,-3.845835,331.035447,21.096386,0.999446,0.992721,0.003872,0.206301,0.001257,0.001040,0.000145,0.001330,0.000967,26.625748,0.002307,
2326,2548,1.49042614438916,-2.18426314435276,-0.0276651253886371,0.006569,-0.078138,-0.005391,0.289659,-3.569072,322.256011,20.371852,0.998866,0.985788,0.004757,0.466757,0.000215,0.000140,0.000012,0.000217,0.000138,8.745596,0.000358,
2101,1993,-3.32412878848799,-14.3382694750129,0.00675817341118545,-0.002557,-0.084038,-0.032134,-0.050913,-3.980322,331.724077,20.407406,0.999289,0.990312,0.004656,0.256630,0.001406,0.001264,0.000083,0.001444,0.001226,24.690965,0.002673,
2266,2803,0.139875488442957,3.37205798584882,-0.0250933851333457,0.008548,-0.076812,0.001340,0.359687,-3.501755,318.264031,21.066244,0.999111,0.988635,0.004564,0.380331,0.000049,0.000076,0.000009,0.000078,0.000046,73.871545,0.000126,
2086,2143,-3.67349363233514,-11.0436571766248,-0.0216773272897512,0.000210,-0.079587,-0.029624,0.069197,-3.765121,329.270602,20.555836,0.998534,0.984948,0.005237,0.453557,0.000956,0.000998,0.000118,0.001097,0.000857,50.010029,0.001959,
2086,3013,-3.8014954222277,7.92194904624839,0.0113214266053774,0.009195,-0.076109,0.006594,0.379002,-3.464978,315.778511,20.861541,0.999701,0.993830,0.003088,0.443701,0.000014,-0.000009,-0.000002,0.000014,-0.000009,-4.564193,0.000014,
2491,2248,5.1519272067116,-8.74857018501348,-0.0132118455896943,0.007523,-0.081829,-0.015306,0.367498,-3.791060,327.521786,18.694064,0.998655,0.981157,0.005686,0.435565,0.000860,0.000736,-0.000124,0.000936,0.000660,-31.597249,0.001604,
2161,2173,-2.04511005083942,-10.3826041695771,-0.0677689060447051,0.002395,-0.079909,-0.021049,0.146751,-3.759023,328.163683,20.120019,0.999612,0.936324,0.008687,0.503601,0.000865,0.000921,0.000069,0.000968,0.000818,56.042736,0.001788,
2176,2263,-1.72895209698254,-8.41567715289577,-0.00972177226464055,0.002821,-0.079090,-0.017344,0.155478,-3.687777,327.155386,20.401458,0.998853,0.980673,0.005570,0.299993,0.000656,0.000648,0.000042,0.000695,0.000610,42.323725,0.001305,
2341,2578,1.811995148636,-1.52919785310779,-0.0261055172159672,0.006528,-0.077621,-0.010126,0.304311,-3.583328,321.792799,20.458875,0.998744,0.986563,0.004627,0.415592,0.000179,0.000143,0.000023,0.000190,0.000133,25.756703,0.000324,
2296,2893,0.776932643402748,5.32954635642903,-0.014739668932009,0.008877,-0.077134,-0.000201,0.379204,-3.536824,316.864412,21.228791,0.999575,0.992464,0.003534,0.387289,0.000027,0.000028,0.000015,0.000042,0.000013,46.197064,0.000058,
2146,3283,-2.54281686052418,13.7795471471063,0.0211029708791557,0.011262,-0.075918,0.008910,0.465446,-3.454740,311.259271,21.213002,0.999628,0.994662,0.003052,0.400605,0.000020,0.000021,-0.000014,0.000035,0.000007,-45.999515,0.000044,
2236,2563,-0.471465693592613,-1.86023525512054,-0.0183925850808464,0.006235,-0.077227,-0.005924,0.277200,-3.550334,322.193742,20.522582,0.999579,0.992877,0.003511,0.504439,0.000181,0.000146,0.000016,0.000187,0.000140,21.298745,0.000328,
2476,2008,4.87625886947115,-14.0227979996075,-0.000825096255482549,0.008261,-0.087286,-0.030200,0.454513,-4.114517,331.552872,17.544156,0.998260,0.976120,0.006249,0.375076,0.001661,0.001289,-0.000113,0.001692,0.001258,-15.612731,0.002960,
2071,3223,-4.15616727843696,12.4717277707429,0.0496307983827364,0.011081,-0.075630,0.007282,0.464870,-3.444484,312.836329,20.802632,0.999563,0.993890,0.003184,0.420001,0.000008,0.000004,-0.000026,0.000032,-0.000020,-42.540858,0.000032,
2041,2083,-4.64729538054069,-12.3585069773964,-0.010790903022837,-0.002734,-0.080498,-0.029915,-0.067423,-3.828604,330.429922,20.899385,0.998811,0.987120,0.004778,0.315476,0.001164,0.001093,0.000153,0.001286,0.000971,38.521205,0.002264,
2071,3208,-4.15389777095787,12.1469704997883,0.0447766279498296,0.010995,-0.075480,0.003377,0.472045,-3.456352,313.048140,20.806465,0.999566,0.994381,0.003088,0.408744,0.000004,0.000007,-0.000023,0.000029,-0.000017,-46.954501,0.000029,
2056,3178,-4.47439403290253,11.495676376226,0.0472928627276588,0.010740,-0.075609,0.006725,0.451298,-3.435713,313.622730,20.731331,0.999644,0.994416,0.003100,0.445049,0.000001,0.000010,-0.000027,0.000033,-0.000022,-49.530822,0.000033,
2281,2818,0.464018485031215,3.69762015040116,-0.0149363434240968,0.008461,-0.077295,0.000436,0.358149,-3.534299,318.081744,21.074103,0.999241,0.989790,0.003998,0.380442,0.000043,0.000076,0.000013,0.000080,0.000039,71.440727,0.000121,
2026,3103,-5.11423082429213,9.86955945963113,0.0293060173870572,0.010041,-0.075301,0.003613,0.428759,-3.426640,314.854239,20.680985,0.999566,0.993985,0.003308,0.421912,-0.000020,-0.000023,-0.000006,-0.000016,-0.000028,-37.572906,0.000044,
2506,2233,5.48522274543574,-9.07699692686084,-0.00296043682436675,0.008345,-0.080983,-0.023150,0.435836,-3.795709,327.963510,18.706726,0.998746,0.980771,0.005577,0.284294,0.000895,0.000820,-0.000145,0.001007,0.000707,-37.760941,0.001723,
2251,2413,-0.11904681939286,-5.13435096245695,-0.0176734293985987,0.005076,-0.077833,-0.013998,0.249951,-3.608827,324.570887,20.308838,0.999067,0.988718,0.004405,0.391438,0.000347,0.000334,-0.000002,0.000347,0.000334,-8.644220,0.000681,
2131,2098,-2.68496198077396,-12.0301324414266,-0.0226977937542188,0.000964,-0.081371,-0.028563,0.102220,-3.835396,329.814773,20.346306,0.998357,0.984841,0.005241,0.315149,0.001060,0.001110,0.000088,0.001176,0.000994,53.047263,0.002172,
2386,2803,2.74951379487526,3.37707396243728,-0.0354344321543181,0.008504,-0.077738,-0.001532,0.364628,-3.561137,318.127309,21.060118,0.999839,0.995305,0.003296,0.430952,0.000043,0.000069,0.000022,0.000081,0.000030,60.608394,0.000116,
2056,2083,-4.32153608395984,-12.3586698533305,-0.012636288914905,-0.002874,-0.082485,-0.015868,-0.113180,-3.831248,330.284304,20.800186,0.998222,0.980728,0.005617,0.320212,0.001157,0.001096,0.000143,0.001273,0.000980,38.955166,0.002259,
2431,3163,3.66387916403321,11.2016304646096,0.0232558329200288,0.010623,-0.077943,0.007272,0.429210,-3.544302,312.847425,22.343732,0.999639,0.992701,0.003458,0.386353,0.000004,-0.000009,0.000025,0.000023,-0.000029,37.972773,0.000030,
2101,3268,-3.51369086889722,13.4494151547525,0.0410527514163732,0.011429,-0.075765,0.006241,0.482797,-3.461403,311.890685,20.964977,0.999781,0.996287,0.002730,0.390588,0.000012,-0.000005,-0.000016,0.000021,-0.000015,-31.240736,0.000022,
2311,2473,1.17782396813521,-3.8235157681753,-0.0146709629239012,0.005759,-0.078628,-0.007529,0.259606,-3.616022,323.559246,20.242062,0.998999,0.986821,0.004712,0.407175,0.000285,0.000232,-0.000002,0.000285,0.000232,-1.677289,0.000518,
2101,2218,-3.35761397908536,-9.4004331141782,-0.0154603154142592,0.001354,-0.079846,-0.016694,0.084596,-3.712494,328.059106,20.644028,0.997934,0.982824,0.005565,0.353730,0.000778,0.000794,0.000104,0.000890,0.000681,47.161345,0.001576,
2206,2503,-1.11499020085656,-3.16889121305497,-0.0212606615062327,0.005467,-0.077357,-0.006121,0.242678,-3.560806,323.179835,20.570523,0.999497,0.988431,0.004313,0.419769,0.000255,0.000187,0.000014,0.000257,0.000184,11.237223,0.000443,
2446,3208,3.98197379142177,12.1783169733107,0.0348374838286531,0.010516,-0.077922,0.004939,0.432523,-3.552933,312.234664,22.529732,0.999552,0.990830,0.003810,0.410733,-0.000002,-0.000020,0.000010,0.000002,-0.000025,23.954732,0.000028,
2146,3298,-2.54533319607994,14.1034603542683,0.0228726029293966,0.011256,-0.076292,0.010259,0.460850,-3.484507,311.024313,21.176412,0.999659,0.995331,0.002829,0.413731,0.000032,0.000020,-0.000015,0.000042,0.000010,-34.498853,0.000055,
2476,2023,4.87325390890654,-13.691847452463,0.00400078166910589,0.008309,-0.086572,-0.025679,0.439954,-4.053338,331.335508,17.720358,0.998828,0.981991,0.005571,0.320382,0.001591,0.001317,-0.000129,0.001642,0.001266,-21.660888,0.002916,
2356,2728,2.1113618126422,1.74174277713296,-0.0174092863727537,0.007788,-0.077758,0.001474,0.321595,-3.538555,319.444166,20.897731,0.999420,0.990772,0.003852,0.395067,0.000065,0.000114,0.000026,0.000125,0.000054,66.961102,0.000184,
2071,3238,-4.15845753206332,12.7962776858659,0.051141299881067,0.011135,-0.075929,0.007624,0.466336,-3.449810,312.605297,20.780938,0.999543,0.993704,0.003230,0.431994,0.000013,-0.000005,-0.000030,0.000035,-0.000027,-36.701615,0.000037,
2071,2113,-3.99642424476338,-11.7013822067935,-0.00352415594323929,-0.001213,-0.080794,-0.024096,-0.012877,-3.787003,329.897510,20.783150,0.998446,0.981120,0.005616,0.287826,0.001052,0.001053,0.000122,0.001175,0.000930,45.019897,0.002110,
2416,3043,3.35932362914592,8.59538325601451,0.00957924758466788,0.009336,-0.077866,0.004193,0.381722,-3.534773,314.630746,21.873859,0.999672,0.990587,0.003802,0.425648,0.000010,0.000009,0.000031,0.000040,-0.000021,44.870720,0.000040,
2296,2653,0.818276744286077,0.105634908068964,-0.032721016322796,0.007134,-0.077358,-0.007788,0.324352,-3.568202,320.565160,20.680601,0.999228,0.988832,0.004098,0.423446,0.000113,0.000087,0.000016,0.000120,0.000079,24.853853,0.000201,
2176,2278,-1.73090110855604,-8.08837329613222,-0.0103535033372282,0.003325,-0.079019,-0.018470,0.182085,-3.701899,326.935490,20.346873,0.998481,0.980894,0.005640,0.355082,0.000622,0.000608,0.000032,0.000647,0.000582,39.063626,0.001230,
2191,2158,-1.38388872863551,-10.7186596320559,-0.000781010663502002,0.001989,-0.080054,-0.028499,0.152095,-3.782091,328.872732,20.024974,0.998799,0.986259,0.005024,0.396099,0.000897,0.000960,0.000064,0.001000,0.000857,57.971027,0.001859,
2041,2098,-4.64849054307127,-12.0295581199894,-0.0041944542220449,-0.002000,-0.079627,-0.027946,-0.038985,-3.740818,330.271801,20.905943,0.998775,0.981641,0.005389,0.391902,0.001119,0.001073,0.000150,0.001247,0.000944,40.651530,0.002199,
2236,2383,-0.440447459095747,-5.79102324332416,-0.0140933446688791,0.005058,-0.078396,-0.012518,0.243920,-3.627152,325.109753,20.268564,0.999215,0.988317,0.004633,0.412337,0.000375,0.000381,-0.000004,0.000383,0.000373,-63.993814,0.000756,
2221,2263,-0.747925248333399,-8.4158322198951,-0.0192061067781992,0.003596,-0.079486,-0.019240,0.197782,-3.698796,326.992381,20.112180,0.998702,0.983489,0.005276,0.378992,0.000626,0.000649,0.000025,0.000665,0.000610,57.657628,0.001276,
2266,2743,0.150425614442252,2.06503169926733,-0.0242502419649782,0.008204,-0.077315,0.000339,0.346890,-3.536133,319.235062,20.901845,0.999331,0.988756,0.004060,0.407761,0.000072,0.000098,0.000008,0.000100,0.000070,74.790904,0.000170,
2326,2563,1.48787572113959,-1.85705049949728,-0.0227225215962221,0.006548,-0.078437,-0.003881,0.283367,-3.585224,322.047668,20.458933,0.998405,0.984448,0.005092,0.398767,0.000196,0.000142,0.000016,0.000200,0.000137,15.598151,0.000339,
2056,3193,-4.47672009747557,11.8209241016524,0.0451167561320744,0.011037,-0.075859,0.008355,0.460231,-3.455412,313.368371,20.755334,0.999484,0.994218,0.003196,0.394617,0.000003,0.000012,-0.000032,0.000040,-0.000025,-49.243962,0.000040,
2131,2128,-2.68965370274617,-11.374011191131,-0.0164542094792637,0.000854,-0.081418,-0.025267,0.087335,-3.831624,329.370537,20.313518,0.998389,0.981067,0.005612,0.369004,0.000983,0.001048,0.000088,0.001109,0.000922,55.249668,0.002034,
2251,2638,-0.158028817554346,-0.222869172049812,-0.0266328922492107,0.007285,-0.077838,-0.002779,0.314900,-3.559671,320.915312,20.722102,0.998657,0.986765,0.004576,0.393632,0.000121,0.000077,0.000007,0.000122,0.000076,8.707042,0.000200,
2296,2908,0.774656520707854,5.65514650359241,-0.00490095844355665,0.008817,-0.077241,0.002474,0.367416,-3.525485,316.690420,21.270275,0.999551,0.992942,0.003467,0.386578,0.000023,0.000024,0.000013,0.000036,0.000011,45.588959,0.000049,
2401,2923,3.05494981307214,5.98731209696761,-0.00800260960733112,0.009038,-0.077682,0.003165,0.372023,-3.547953,316.419065,21.477554,0.999515,0.991403,0.003779,0.401435,0.000014,-0.000005,0.000017,0.000023,-0.000015,30.403506,0.000024,
2101,3283,-3.51704375520931,13.7741956745895,0.0305430825620761,0.011206,-0.075903,0.006097,0.472903,-3.470901,311.547434,20.915320,0.999727,0.996320,0.002744,0.430504,0.000028,0.000002,-0.000015,0.000035,-0.000005,-24.756725,0.000038,
2206,2398,-1.09697690913903,-5.46204631024347,-0.019072798975003,0.004923,-0.077866,-0.012915,0.238976,-3.579930,324.892356,20.428359,0.999224,0.989405,0.004352,0.416053,0.000385,0.000334,0.000005,0.000386,0.000334,5.211464,0.000720,
2116,2053,-3.00633935150391,-13.0193763971242,-0.0138883699227677,-0.000980,-0.082554,-0.027839,0.009933,-3.893219,330.582931,20.293990,0.998066,0.980809,0.005640,0.379984,0.001181,0.001164,0.000078,0.001251,0.001094,41.866760,0.002347,
2371,2758,2.43140217279277,2.39705107019847,-0.0325822013523407,0.007966,-0.077631,-0.001864,0.341309,-3.565086,318.852423,20.998514,0.998960,0.986508,0.004374,0.352284,0.000058,0.000109,0.000026,0.000120,0.000047,67.323197,0.000172,
2281,2578,0.506581442767775,-1.53154819367523,-0.0197585609164435,0.007150,-0.077368,-0.010990,0.335786,-3.571490,321.919998,20.522007,0.998911,0.987165,0.004755,0.445080,0.000177,0.000134,0.000007,0.000178,0.000133,8.491398,0.000312,
2086,3028,-3.80336382483631,8.24742917299,0.0129974934604888,0.009610,-0.076009,0.006224,0.399156,-3.479027,315.568176,20.884997,0.999503,0.992811,0.003415,0.404506,0.000013,0.000000,0.000001,0.000013,0.000000,4.605621,0.000015,
2251,2428,-0.121401332933278,-4.80795711676208,-0.0143362904598234,0.005523,-0.077867,-0.008320,0.251898,-3.588026,324.358604,20.226440,0.998718,0.986975,0.004573,0.519586,0.000330,0.000298,-0.000002,0.000330,0.000298,-2.922790,0.000628,
2041,3163,-4.79752089713152,11.1701117313591,0.0383974667283837,0.010766,-0.075416,0.006699,0.453099,-3.439606,313.883237,20.682315,0.999608,0.993882,0.003307,0.430384,-0.000004,0.000006,-0.000026,0.000028,-0.000025,-50.488118,0.000031,
2176,2083,-1.70064801043104,-12.3630057038323,-0.00725450805606442,0.000529,-0.082872,-0.026321,0.076864,-3.902243,329.996614,20.001976,0.999075,0.985545,0.005259,0.304802,0.001093,0.001159,0.000061,0.001196,0.001057,59.121781,0.002254,
2071,2128,-3.9993132965989,-11.3716723163625,-0.0111913535895951,-0.001288,-0.080394,-0.023143,-0.018938,-3.753608,329.586624,20.769232,0.998676,0.983567,0.005361,0.335496,0.001008,0.001029,0.000122,0.001141,0.000896,47.478415,0.002042,
2131,3178,-2.84972056701387,11.5011566962139,0.0437009404896003,0.010452,-0.076780,0.010626,0.423165,-3.475903,313.188427,21.034554,0.999270,0.988871,0.003938,0.443633,0.000000,0.000002,-0.000020,0.000021,-0.000019,-46.481213,0.000023,
2161,1993,-2.0140168465277,-14.3382150110268,-0.00758345704400654,-0.000828,-0.084084,-0.034617,0.039015,-3.996530,331.451565,19.991408,0.998412,0.982649,0.005560,0.232735,0.001323,0.001276,0.000056,0.001361,0.001239,33.678288,0.002601,
2506,2248,5.48169813855122,-8.74934722502113,-0.00423278510470482,0.008259,-0.081061,-0.020552,0.421899,-3.796527,327.696748,18.657164,0.998685,0.980679,0.005721,0.396580,0.000853,0.000752,-0.000141,0.000952,0.000652,-35.189689,0.001614,
2146,2143,-2.36487208143086,-11.0457304701926,-0.0139815864427533,0.000798,-0.080563,-0.026257,0.088533,-3.788677,329.092026,20.211314,0.999183,0.982436,0.005349,0.438736,0.000941,0.001005,0.000077,0.001057,0.000889,56.142731,0.001949,
2281,2833,0.460798933714674,4.02408611436358,-0.0213124523717738,0.008265,-0.077241,-0.001765,0.356469,-3.552177,317.782611,21.083444,0.999403,0.991627,0.003832,0.380847,0.000036,0.000063,0.000016,0.000071,0.000029,65.213669,0.000103,
2026,3118,-5.11657564971248,10.1950803618845,0.0295254666813207,0.010136,-0.075339,0.005658,0.427473,-3.426717,314.609959,20.705937,0.999683,0.994492,0.003135,0.385969,-0.000016,-0.000001,-0.000010,0.000004,-0.000021,-63.045625,0.000022,
2206,2518,-1.11719806755023,-2.84127314793317,-0.0291430111939235,0.006033,-0.076955,-0.010988,0.284295,-3.540875,322.912752,20.527231,0.999297,0.987988,0.004446,0.500937,0.000240,0.000176,0.000019,0.000245,0.000171,15.143666,0.000419,
2116,2293,-3.0415022689446,-7.75662185503694,-0.0248282032849829,0.002798,-0.076985,-0.022801,0.170074,-3.603152,326.789222,20.702241,0.998679,0.985813,0.005004,0.360862,0.000636,0.000560,0.000066,0.000674,0.000522,30.008571,0.001200,
2101,2008,-3.32638745483467,-14.0122049644975,0.014138320978077,-0.002572,-0.084783,-0.025654,-0.070736,-3.965624,331.526681,20.203197,0.999403,0.990211,0.004781,0.480214,0.001345,0.001259,0.000099,0.001410,0.001194,33.291556,0.002607,
2056,3208,-4.47918957390917,12.145803640647,0.0474072138576958,0.010674,-0.075461,0.006055,0.450118,-3.442860,313.132272,20.743406,0.999568,0.994067,0.003125,0.412473,0.000008,0.000009,-0.000028,0.000037,-0.000019,-45.528307,0.000037,
2431,3178,3.66171540782607,11.5261619624641,0.0315866613904632,0.010814,-0.078096,0.007985,0.435224,-3.562679,312.677789,22.367200,0.999603,0.992238,0.003519,0.393211,0.000003,-0.000007,0.000023,0.000022,-0.000025,38.942240,0.000028,
2476,2038,4.8705319058055,-13.3622795685268,0.00311825494509321,0.008570,-0.085429,-0.027492,0.459241,-4.014362,331.105452,17.733186,0.998884,0.979809,0.005883,0.406765,0.001519,0.001295,-0.000129,0.001578,0.001237,-24.510670,0.002822,
2236,2398,-0.443646017207268,-5.46173392747713,-0.0244507292271692,0.005116,-0.078119,-0.013875,0.251096,-3.633953,324.787684,20.337547,0.999323,0.990187,0.004225,0.359820,0.000354,0.000349,-0.000004,0.000356,0.000347,-29.013420,0.000703,
2161,2188,-2.04459217995881,-10.0609578212035,-0.0220032526246996,0.002097,-0.079605,-0.023645,0.141065,-3.737210,328.299622,19.974771,0.999531,0.917805,0.009519,0.681613,0.000833,0.000879,0.000064,0.000924,0.000788,54.887840,0.001713,
2221,2278,-0.749451268019726,-8.08829594139529,-0.00991614694271448,0.004341,-0.079973,-0.014332,0.216134,-3.694567,326.846272,20.162433,0.998477,0.983953,0.005266,0.353751,0.000593,0.000616,0.000020,0.000627,0.000581,60.123691,0.001209,
2086,2158,-3.67602552074927,-10.7139238463332,-0.0219194323747161,0.000239,-0.079843,-0.026012,0.060058,-3.779844,329.018032,20.684593,0.998594,0.984071,0.005320,0.311962,0.000917,0.000936,0.000112,0.001039,0.000814,47.385119,0.001857,
2416,3058,3.35660032613213,8.92114611566421,0.0101462482422789,0.009622,-0.077993,0.005526,0.389909,-3.553439,314.398269,21.934499,0.999672,0.991248,0.003747,0.393198,0.000010,0.000009,0.000030,0.000039,-0.000021,44.529281,0.000039,
2266,2818,0.137987403692481,3.69757240226576,-0.0205731187462561,0.008859,-0.076788,-0.000906,0.381373,-3.526670,318.079806,21.073796,0.999284,0.989890,0.004167,0.373269,0.000046,0.000080,0.000011,0.000083,0.000042,74.002532,0.000127,
2131,2143,-2.69263530139465,-11.0444501473977,-0.0198600900764063,0.000371,-0.080420,-0.027069,0.070825,-3.785271,329.084202,20.326898,0.998644,0.982925,0.005432,0.410771,0.000945,0.001005,0.000090,0.001070,0.000880,54.190021,0.001953,
2206,2413,-1.09781924593027,-5.13433832130268,0.00212470431517886,0.005489,-0.077039,-0.008326,0.250758,-3.531991,324.837666,20.603449,0.999471,0.992435,0.003884,0.306651,0.000366,0.000307,0.000001,0.000366,0.000307,1.200733,0.000674,
2311,2488,1.17547924212916,-3.49607112474443,-0.0115772610648719,0.005829,-0.078291,-0.008986,0.267924,-3.605421,323.350316,20.283171,0.999190,0.987754,0.004403,0.409982,0.000266,0.000207,-0.000002,0.000266,0.000207,-2.355733,0.000474,
2101,3298,-3.51991086906969,14.0993039897835,0.0235883396842382,0.011234,-0.075705,0.005789,0.475233,-3.454645,311.245655,20.894469,0.999556,0.994837,0.003100,0.467417,0.000043,0.000011,-0.000018,0.000051,0.000003,-24.137599,0.000061,
2056,2098,-4.32301895826329,-12.0299175182667,-0.00949921521026909,-0.002473,-0.081213,-0.018436,-0.087187,-3.774646,330.095340,20.782492,0.998373,0.980159,0.005674,0.391984,0.001114,0.001075,0.000142,0.001238,0.000951,41.092250,0.002196,
2236,2578,-0.474328488909233,-1.53201291469403,-0.0245261276753013,0.006638,-0.077711,-0.003110,0.286471,-3.561680,321.908317,20.602928,0.999203,0.989810,0.004146,0.434752,0.000164,0.000132,0.000015,0.000170,0.000126,21.213151,0.000297,
2101,3043,-3.48024350299868,8.57456150605167,0.016473582147853,0.009624,-0.075894,0.005870,0.400410,-3.463459,315.278479,20.999737,0.999497,0.992939,0.003465,0.352134,0.000012,-0.000004,0.000000,0.000012,-0.000004,1.105900,0.000013,
2116,2068,-3.00868895142051,-12.6906099284709,-0.0101256307395374,-0.001051,-0.082594,-0.025292,-0.000857,-3.893214,330.362780,20.331888,0.997828,0.970879,0.006883,0.348936,0.001144,0.001152,0.000088,0.001236,0.001060,46.296337,0.002298,
2041,2113,-4.6498365472032,-11.7008041184837,-0.0110996781785957,-0.001066,-0.079374,-0.033751,0.020043,-3.756783,330.032879,20.855595,0.998212,0.980704,0.005867,0.421625,0.001075,0.001040,0.000150,0.001209,0.000907,41.667066,0.002122,
2056,3223,-4.48171762821708,12.4704947601721,0.0503483497858497,0.010536,-0.075478,0.008979,0.435508,-3.436695,312.897182,20.727680,0.999625,0.994011,0.003036,0.427611,0.000013,0.000002,-0.000032,0.000040,-0.000024,-40.363397,0.000040,
2041,3178,-4.79999236748522,11.4946492686393,0.0393897463815733,0.010561,-0.075359,0.006129,0.445253,-3.435602,313.638961,20.632500,0.999692,0.994227,0.003186,0.475509,-0.000006,0.000010,-0.000029,0.000032,-0.000028,-52.318847,0.000035,
2221,2488,-0.785759736626702,-3.49679091064618,-0.0167606122094526,0.005381,-0.078190,-0.004753,0.233920,-3.597085,323.413177,20.519851,0.999336,0.987959,0.004338,0.382838,0.000257,0.000207,0.000011,0.000260,0.000205,12.244391,0.000466,
2506,2263,5.47785041738824,-8.41947103257437,-0.00678746588556578,0.008241,-0.081409,-0.014881,0.399093,-3.774804,327.409044,18.781046,0.998124,0.977172,0.006071,0.358438,0.000824,0.000700,-0.000149,0.000924,0.000601,-33.735701,0.001536,
2281,2848,0.457306510444045,4.35179679129672,-0.021404920944633,0.007920,-0.077082,0.003934,0.321643,-3.518465,317.501834,21.208150,0.999464,0.993136,0.003782,0.317433,0.000034,0.000057,0.000018,0.000066,0.000025,61.202538,0.000094,
2491,2263,5.14973677014813,-8.41938728605728,-0.00971683921522981,0.008037,-0.081401,-0.016479,0.395706,-3.787750,327.336071,18.835004,0.998373,0.979974,0.005534,0.358904,0.000828,0.000681,-0.000132,0.000906,0.000603,-30.406037,0.001519,
2071,3253,-4.16117854155683,13.1219213759507,0.0463734755024348,0.011178,-0.075727,0.008383,0.466194,-3.446545,312.319546,20.819892,0.999710,0.995102,0.002951,0.391697,0.000022,-0.000007,-0.000030,0.000041,-0.000025,-32.074305,0.000042,
2101,2023,-3.32956275655387,-13.6788505337491,-0.00175128673851077,-0.002489,-0.083411,-0.027153,-0.062126,-3.929920,331.161051,20.383139,0.998951,0.985889,0.005390,0.341652,0.001278,0.001205,0.000086,0.001335,0.001148,33.494739,0.002485,
2191,2308,-1.40933533145642,-7.43143024401088,-0.0143985833350939,0.003418,-0.078608,-0.017563,0.183993,-3.645325,326.372898,20.292292,0.998102,0.984907,0.005321,0.435383,0.000556,0.000514,0.000026,0.000568,0.000501,25.769356,0.001070,
2161,2008,-2.01638036722055,-14.0099164668003,-0.00592117567134665,-0.000580,-0.084265,-0.030279,0.037082,-3.980263,331.223269,19.926007,0.998186,0.984272,0.005471,0.328104,0.001277,0.001259,0.000068,0.001336,0.001200,41.143700,0.002538,
2371,2773,2.42891679777314,2.72272044180112,-0.0258390965772719,0.007927,-0.077878,-0.000527,0.334672,-3.571405,318.658306,21.008976,0.999367,0.990134,0.003921,0.376477,0.000050,0.000091,0.000020,0.000099,0.000041,67.642857,0.000145,
2161,2203,-2.04734818531625,-9.72935436701361,-0.0156690273654476,0.001867,-0.080255,-0.016747,0.109212,-3.727589,328.077274,20.336343,0.998598,0.963255,0.006740,0.342170,0.000799,0.000846,0.000062,0.000889,0.000756,55.383307,0.001647,
2191,2173,-1.38716715025237,-10.3886401933064,-0.0140091724921945,0.002273,-0.080152,-0.026489,0.158800,-3.760745,328.527590,20.011945,0.998897,0.970187,0.006169,0.448155,0.000864,0.000925,0.000062,0.000963,0.000825,58.242842,0.001791,
2401,2938,3.05238452925459,6.31286775002166,-0.00309858745549718,0.009066,-0.077581,0.003957,0.370579,-3.523545,316.213779,21.475052,0.999532,0.991437,0.003788,0.473522,0.000016,-0.000010,0.000013,0.000022,-0.000015,22.806022,0.000022,
2476,2053,4.86683694013255,-13.0333653341597,0.000671169622648904,0.008277,-0.086629,-0.026009,0.439785,-4.076569,330.824260,17.775878,0.998847,0.982866,0.005586,0.362060,0.001460,0.001276,-0.000135,0.001531,0.001204,-27.856405,0.002742,
2221,2293,-0.751827504890148,-7.75990589151124,-0.0119835591455626,0.004286,-0.078553,-0.019981,0.232142,-3.670821,326.602934,20.160879,0.998785,0.985582,0.004901,0.400215,0.000560,0.000575,0.000023,0.000592,0.000543,53.735096,0.001136,
2026,3133,-5.1189765529258,10.5195166485872,0.0360526411716364,0.009821,-0.075614,0.008099,0.406157,-3.426493,314.398845,20.673525,0.999599,0.994143,0.003215,0.407690,-0.000009,0.000014,-0.000012,0.000019,-0.000014,-66.496735,0.000020,
2431,3193,3.65944210344481,11.8514002070595,0.035785695875802,0.010979,-0.078003,0.005589,0.451780,-3.564007,312.483560,22.417210,0.999578,0.991665,0.003615,0.390664,0.000005,-0.000009,0.000020,0.000019,-0.000024,35.597068,0.000025,
2086,2173,-3.67801570640899,-10.3863026223354,-0.0136280527107147,0.000249,-0.079990,-0.022576,0.050577,-3.757890,328.836665,20.680086,0.998757,0.983989,0.005141,0.339975,0.000884,0.000899,0.000114,0.001006,0.000777,46.941332,0.001788,
2326,2578,1.48523947359463,-1.52923150280073,-0.024521327623745,0.006562,-0.077637,-0.007459,0.296674,-3.574771,321.802228,20.520125,0.999028,0.988472,0.004346,0.383359,0.000185,0.000140,0.000018,0.000191,0.000134,19.181631,0.000327,
2131,2158,-2.69298043206213,-10.7177063654614,0.00236056034236753,0.000920,-0.080424,-0.027740,0.098035,-3.808558,329.055379,20.431961,0.999644,0.991558,0.004186,0.289841,0.000905,0.000950,0.000087,0.001017,0.000838,52.179413,0.001858,
2251,2653,-0.160515091284037,0.103888749464353,-0.0234183330797464,0.007231,-0.077613,-0.002670,0.312124,-3.567192,320.695976,20.769294,0.999195,0.989667,0.004182,0.362909,0.000118,0.000073,0.000009,0.000120,0.000071,11.399569,0.000193,
2041,3193,-4.80177262225452,11.8199058286961,0.0445982936913083,0.010777,-0.075537,0.005273,0.457636,-3.436130,313.449603,20.681767,0.999607,0.994029,0.003217,0.417055,-0.000005,0.000011,-0.000036,0.000040,-0.000033,-51.406476,0.000043,
2071,2143,-4.00067627065448,-11.0424466819815,-0.00973778208856402,-0.000473,-0.079323,-0.023242,0.019072,-3.694402,329.395104,20.789675,0.998553,0.984016,0.005410,0.373792,0.000965,0.000994,0.000119,0.001099,0.000860,48.482285,0.001965,
2296,2923,0.772190739268265,5.97937988547478,0.00184454586906213,0.008838,-0.077538,0.005777,0.357079,-3.533854,316.492767,21.186480,0.999467,0.993213,0.003432,0.491359,0.000021,0.000014,0.000010,0.000028,0.000007,35.239193,0.000037,
2086,3043,-3.80534973440717,8.57208201128294,0.0236841152977263,0.009288,-0.075915,0.005054,0.387794,-3.471547,315.401878,20.874050,0.999554,0.992376,0.003519,0.420868,0.000008,-0.000003,-0.000005,0.000010,-0.000005,-21.182998,0.000010,
2131,3193,-2.85229583639563,11.8267187542199,0.0399508041489867,0.010457,-0.076365,0.008056,0.431213,-3.480992,312.919622,21.065676,0.999523,0.992348,0.003465,0.411928,-0.000001,0.000004,-0.000024,0.000025,-0.000022,-48.383757,0.000028,
2251,2443,-0.123940796362298,-4.47849578661266,-0.0156587992594268,0.005866,-0.078585,-0.006560,0.261631,-3.600160,324.113800,20.418473,0.999296,0.989998,0.004263,0.340235,0.000308,0.000284,0.000003,0.000308,0.000284,6.830633,0.000592,
2101,2233,-3.35922856057226,-9.07151135313573,-0.0155260030553563,0.001877,-0.078557,-0.019960,0.118557,-3.668208,327.850567,20.668042,0.998184,0.984268,0.005298,0.377386,0.000749,0.000732,0.000090,0.000831,0.000650,42.453119,0.001485,
2236,2653,-0.486312361138527,0.103898831147795,-0.0150634043618538,0.007145,-0.076902,-0.002858,0.309288,-3.525504,320.792775,20.855649,0.999267,0.989648,0.004298,0.327178,0.000121,0.000078,0.000018,0.000127,0.000072,19.646690,0.000202,
2176,2098,-1.70315746035255,-12.0332190177158,-0.0241097350825044,0.001392,-0.081844,-0.029857,0.127678,-3.872321,329.666078,19.887931,0.998930,0.983909,0.005450,0.464709,0.001054,0.001129,0.000063,0.001164,0.001018,60.353443,0.002184,
2341,2593,1.80969227308477,-1.20149922778329,-0.0263084972053775,0.007372,-0.078076,-0.006021,0.328618,-3.589716,321.571674,20.544957,0.999121,0.988460,0.004357,0.360561,0.000170,0.000122,0.000024,0.000180,0.000112,22.395852,0.000295,
2491,2278,5.14708817639273,-8.0896774101342,-0.00830763720063032,0.008202,-0.080487,-0.018428,0.411148,-3.736146,327.119620,18.959495,0.998879,0.981348,0.005280,0.347215,0.000789,0.000628,-0.000121,0.000854,0.000563,-28.100229,0.001427,
2131,2113,-2.68745845682834,-11.7023207749218,-0.0145448815766827,0.000590,-0.081434,-0.024443,0.072722,-3.801339,329.612385,20.327534,0.998640,0.984200,0.005275,0.376680,0.001023,0.001074,0.000088,0.001140,0.000956,53.042522,0.002099,
2071,3268,-4.16422321713793,13.4472386796453,0.0366594334761317,0.011197,-0.075417,0.008982,0.465454,-3.434776,311.991863,20.797404,0.999788,0.996104,0.002752,0.421547,0.000032,-0.000009,-0.000030,0.000047,-0.000024,-27.860325,0.000047,
2356,2743,2.10860258639206,2.06771088600951,-0.0151317021966406,0.007684,-0.078007,0.001334,0.317187,-3.556181,319.215107,20.902020,0.999527,0.991567,0.003663,0.412174,0.000061,0.000115,0.000028,0.000127,0.000049,66.824030,0.000182,
2281,2593,0.503239891664045,-1.20350463067725,-0.0235335067051778,0.006984,-0.077390,-0.008411,0.319549,-3.560896,321.628504,20.590630,0.999096,0.988859,0.004370,0.415884,0.000168,0.000114,0.000007,0.000169,0.000113,7.677656,0.000284,
2101,2038,-3.33231862354722,-13.3497709854356,-0.0145354199422627,-0.002203,-0.083287,-0.028596,-0.044835,-3.913306,330.832013,20.235557,0.999167,0.985888,0.005335,0.510997,0.001226,0.001162,0.000085,0.001284,0.001104,34.687114,0.002390,
2386,2818,2.74680304979954,3.70385238856019,-0.0349379158574266,0.008488,-0.077476,-0.003608,0.371441,-3.565072,317.893614,21.134746,0.999651,0.992088,0.003791,0.395613,0.000031,0.000066,0.000022,0.000076,0.000020,64.806652,0.000102,
2116,2083,-3.01090676560296,-12.3607373229234,-0.00910826125692665,-0.000846,-0.082274,-0.023359,0.002941,-3.859674,330.133612,20.411750,0.997699,0.978118,0.006370,0.309322,0.001104,0.001142,0.000094,0.001219,0.001027,50.669856,0.002249,
2176,2293,-1.732660937091,-7.75859023337479,-0.0149447874487691,0.004090,-0.078052,-0.022675,0.230558,-3.640500,326.702786,20.408793,0.998435,0.983261,0.005398,0.369010,0.000590,0.000563,0.000033,0.000613,0.000541,33.793663,0.001154,
2116,2308,-3.04346667612443,-7.42986022732715,-0.0226385550429882,0.003073,-0.077285,-0.022725,0.182394,-3.622642,326.578768,20.642029,0.998867,0.985608,0.005031,0.407176,0.000603,0.000504,0.000052,0.000625,0.000482,23.030830,0.001110,
2431,3208,3.65578768860559,12.1768998319465,0.0321853802936403,0.010669,-0.077995,0.006593,0.433820,-3.567015,312.189183,22.451124,0.999532,0.990286,0.003931,0.402304,0.000006,-0.000013,0.000014,0.000014,-0.000021,27.965460,0.000021,
2266,2758,0.146924957737202,2.39250109528523,-0.033185898022225,0.008076,-0.077323,0.000815,0.339448,-3.532468,318.908694,20.937673,0.999304,0.988870,0.004108,0.401405,0.000068,0.000098,0.000011,0.000101,0.000064,72.233454,0.000167,
2206,2533,-1.11924583803664,-2.51375547778031,-0.0209820897412669,0.006039,-0.076797,-0.010295,0.282411,-3.542159,322.735799,20.645506,0.999417,0.988678,0.004286,0.399033,0.000222,0.000162,0.000022,0.000230,0.000154,18.324039,0.000387,
2476,2068,4.864149194214,-12.7030258933554,0.00331704648033337,0.008311,-0.085295,-0.027519,0.447681,-4.013428,330.611378,17.885567,0.998886,0.980048,0.005869,0.375669,0.001399,0.001278,-0.000148,0.001499,0.001179,-33.934037,0.002684,
2146,2158,-2.36734652038187,-10.7150016271446,-0.0164798066808203,0.000976,-0.080376,-0.025528,0.094563,-3.791623,328.835102,20.395618,0.999520,0.968043,0.006465,0.262373,0.000902,0.000953,0.000073,0.001005,0.000850,54.500255,0.001857,
2116,1993,-2.99818605271151,-14.3348467893328,-0.0226601456594153,-0.001799,-0.084828,-0.030144,-0.021490,-4.003755,331.441014,20.337458,0.999215,0.989843,0.004674,0.198553,0.001382,0.001269,0.000071,0.001416,0.001235,25.645582,0.002653,
2191,2428,-1.42818940040218,-4.80786894750201,-0.0187544549657446,0.005332,-0.077697,-0.014044,0.261217,-3.604616,324.475821,20.450880,0.998464,0.987032,0.004963,0.447515,0.000350,0.000258,0.000002,0.000350,0.000258,1.296305,0.000610,
2311,2503,1.17311289277704,-3.16844320608392,-0.0161793951160689,0.006539,-0.078142,-0.009282,0.301606,-3.611850,323.102571,20.292456,0.999285,0.989169,0.004198,0.427799,0.000247,0.000195,-0.000003,0.000247,0.000194,-2.822195,0.000442,
2221,2503,-0.788356507472688,-3.16895235304671,-0.0184449698863318,0.005727,-0.077984,-0.001440,0.239320,-3.577342,323.161468,20.547928,0.999318,0.987861,0.004379,0.394572,0.000245,0.000192,0.000014,0.000249,0.000189,13.822165,0.000439,
2056,3238,-4.48332744972734,12.7950835521529,0.0534996020306835,0.011023,-0.075742,0.007295,0.462712,-3.443700,312.705471,20.720051,0.999634,0.994643,0.002999,0.421734,0.000018,-0.000008,-0.000037,0.000044,-0.000034,-35.270927,0.000046,
2221,2308,-0.75497308730802,-7.43226908020603,-0.010963107165594,0.003926,-0.079182,-0.016030,0.202781,-3.668673,326.340374,20.148485,0.998714,0.986755,0.004688,0.435767,0.000532,0.000528,0.000024,0.000554,0.000506,42.503826,0.001060,
2296,2938,0.76947474819449,6.30712059401406,0.00194382314617769,0.008909,-0.077317,0.006313,0.358696,-3.511628,316.249511,21.351116,0.999229,0.990929,0.003876,0.378775,0.000021,0.000005,0.000005,0.000022,0.000003,16.069686,0.000028,
2416,3073,3.35406612456505,9.24620056912255,0.0162176064494588,0.009712,-0.078217,0.007578,0.386482,-3.556858,314.200451,21.954032,0.999684,0.991261,0.003738,0.416957,0.000011,0.000005,0.000028,0.000035,-0.000020,42.052778,0.000036,
2071,2158,-4.00273448335697,-10.7151373315994,-0.0102791332362244,-0.000127,-0.080059,-0.021698,0.030364,-3.763142,329.161979,20.746855,0.998647,0.984105,0.005377,0.347617,0.000922,0.000929,0.000109,0.001034,0.000816,45.949933,0.001855,
2086,2188,-3.68050117582073,-10.0572907952718,-0.0120119942988026,0.000108,-0.079305,-0.020426,0.038123,-3.705729,328.596106,20.706137,0.998432,0.984021,0.005328,0.367865,0.000855,0.000866,0.000116,0.000977,0.000744,46.400628,0.001726,
2446,3223,3.97859314466487,12.5039836597842,0.0334031338787213,0.010373,-0.077972,0.006448,0.420270,-3.556138,311.963953,22.595964,0.999599,0.991426,0.003755,0.391970,-0.000003,-0.000030,0.000005,-0.000002,-0.000031,10.003409,0.000037,
2161,2023,-2.01908066053683,-13.6805578910721,-0.00850358862589928,-0.000718,-0.084009,-0.031041,0.033155,-3.968870,330.957223,19.919325,0.997833,0.983325,0.005611,0.360073,0.001235,0.001232,0.000062,0.001295,0.001171,44.170252,0.002468,
2296,2668,0.815779848257311,0.432563213449228,-0.023463364335214,0.006937,-0.077610,-0.004470,0.304059,-3.553090,320.378307,20.776743,0.999557,0.990852,0.003855,0.372554,0.000102,0.000105,0.000012,0.000116,0.000092,49.360000,0.000208,
2041,3208,-4.80403039786515,12.1444418375896,0.0473754007052207,0.010750,-0.075500,0.005828,0.454836,-3.437891,313.225119,20.654932,0.999595,0.993658,0.003179,0.433054,0.000002,0.000011,-0.000030,0.000037,-0.000024,-49.312541,0.000038,
2071,3283,-4.16709385811868,13.772060906779,0.0283808686429552,0.011284,-0.075611,0.009287,0.468607,-3.436613,311.680262,20.755708,0.999738,0.996274,0.002750,0.456747,0.000054,-0.000008,-0.000034,0.000069,-0.000023,-23.525689,0.000070,
2266,2833,0.134506921755879,4.0243888968172,-0.0276221213388226,0.008474,-0.076812,-0.002403,0.368690,-3.520853,317.763807,21.086836,0.999233,0.990410,0.004009,0.391731,0.000041,0.000069,0.000014,0.000075,0.000035,67.461476,0.000112,
2251,2458,-0.12677090680975,-4.15144486973847,-0.0158792159415952,0.005685,-0.078602,-0.006673,0.253694,-3.602640,323.861657,20.395671,0.999627,0.991513,0.004082,0.385234,0.000289,0.000259,0.000009,0.000291,0.000256,15.314878,0.000548,
2041,2128,-4.65267723213566,-11.3719115879899,-0.0127126101484123,-0.001262,-0.079781,-0.028366,-0.004012,-3.777313,329.754969,20.886302,0.997936,0.977812,0.006404,0.366211,0.001028,0.001021,0.000149,0.001174,0.000875,44.312230,0.002056,
2506,2278,5.47436361326843,-8.09028305932199,-0.00946574255192445,0.007948,-0.080654,-0.016680,0.392974,-3.746758,327.137297,18.839906,0.998230,0.977904,0.005822,0.390984,0.000787,0.000638,-0.000138,0.000870,0.000555,-30.794209,0.001437,
2326,2593,1.48284284122424,-1.20175481452251,-0.0287729234101448,0.007274,-0.077491,-0.007443,0.329394,-3.561104,321.555826,20.530373,0.999556,0.991949,0.003721,0.421999,0.000174,0.000120,0.000019,0.000180,0.000114,17.666489,0.000297,
2176,2353,-1.7433929774889,-6.44512043462202,-0.0291574432719699,0.004618,-0.077645,-0.018133,0.240939,-3.615625,325.626525,20.458270,0.998387,0.982090,0.005465,0.401761,0.000472,0.000401,0.000006,0.000473,0.000400,4.779224,0.000874,
2371,2788,2.42665352497661,3.05037256218024,-0.0207067267033949,0.008124,-0.077569,-0.000736,0.344599,-3.556586,318.466111,21.171508,0.999818,0.994613,0.003318,0.269906,0.000047,0.000081,0.000021,0.000091,0.000037,65.156912,0.000132,
2026,3148,-5.12026786859033,10.8439023201045,0.0411688116656705,0.010485,-0.075362,0.006931,0.440062,-3.427560,314.230785,20.631971,0.999645,0.995133,0.003017,0.437407,-0.000002,0.000000,-0.000013,0.000011,-0.000014,-47.372128,0.000015,
2236,2593,-0.476462022808406,-1.20523416756713,-0.0213957086209007,0.006805,-0.077457,-0.004545,0.298888,-3.554270,321.703725,20.618134,0.999059,0.987418,0.004652,0.448854,0.000155,0.000110,0.000014,0.000159,0.000107,15.796521,0.000268,
2236,2668,-0.488755806423544,0.430332614100244,-0.0130171960979624,0.007090,-0.076592,-0.004188,0.311209,-3.506366,320.568389,20.840126,0.999367,0.991072,0.003962,0.383430,0.000115,0.000089,0.000011,0.000119,0.000085,20.269495,0.000206,
2131,3208,-2.85390961605072,12.1517611193851,0.0459325854009762,0.010842,-0.076115,0.006276,0.454469,-3.457566,312.747299,21.081269,0.999639,0.994409,0.003148,0.424291,-0.000001,0.000003,-0.000021,0.000022,-0.000020,-47.946399,0.000024,
2101,3058,-3.48191530850917,8.89841330978808,0.0235131822563517,0.009990,-0.076000,0.006674,0.414936,-3.465472,315.107847,20.904127,0.999644,0.994066,0.003269,0.446013,0.000011,-0.000014,-0.000004,0.000012,-0.000015,-9.308202,0.000015,
2101,2248,-3.36140584869363,-8.74290162308508,-0.0226624585002355,0.002203,-0.078059,-0.024629,0.147290,-3.678059,327.578536,20.650249,0.998379,0.986248,0.005106,0.389155,0.000716,0.000703,0.000088,0.000798,0.000621,42.881523,0.001423,
2056,3253,-4.48577191241018,13.1203849491371,0.0520688778049134,0.011048,-0.075784,0.007047,0.464550,-3.450069,312.449835,20.755184,0.999761,0.995616,0.002870,0.373231,0.000029,-0.000010,-0.000038,0.000052,-0.000033,-31.220907,0.000053,
2281,2608,0.499781471751692,-0.875662674925486,-0.0260832593104396,0.007045,-0.078285,0.000038,0.293782,-3.570891,321.337810,20.677147,0.999018,0.988279,0.004478,0.347957,0.000151,0.000100,0.000012,0.000153,0.000097,12.850645,0.000253,
2491,2293,5.14372062549346,-7.76187628340168,-0.00961367372150335,0.008089,-0.080566,-0.017711,0.403250,-3.738281,326.858341,18.940838,0.998964,0.981616,0.005253,0.425027,0.000744,0.000563,-0.000117,0.000802,0.000505,-26.131526,0.001318,
2191,2323,-1.4114323151546,-7.10320865181714,-0.0169159669415535,0.003842,-0.078165,-0.020110,0.211571,-3.652705,326.137485,20.312230,0.998667,0.986129,0.004929,0.424563,0.000531,0.000472,0.000019,0.000537,0.000467,16.613738,0.001004,
2116,2008,-3.00131756248315,-14.0095791553964,-0.0115385759561377,-0.002917,-0.085793,-0.023894,-0.091487,-4.018669,331.225077,20.135311,0.999308,0.990617,0.004774,0.392878,0.001327,0.001259,0.000087,0.001386,0.001200,34.243019,0.002589,
2161,2218,-2.04949880752588,-9.40079990489191,-0.0140116785805162,0.001918,-0.079662,-0.018910,0.118363,-3.727620,327.858634,20.384928,0.998475,0.981057,0.005511,0.306143,0.000764,0.000794,0.000061,0.000842,0.000717,51.953769,0.001560,
2506,2293,5.47068508323143,-7.76211642116539,-0.00259519529163299,0.007335,-0.081374,-0.010492,0.340796,-3.742979,326.899390,18.931508,0.998700,0.978262,0.005753,0.366437,0.000741,0.000569,-0.000132,0.000812,0.000498,-28.434528,0.001322,
2116,2323,-3.04591144003314,-7.10179207015919,-0.0191776556671357,0.003171,-0.077848,-0.016866,0.169414,-3.629738,326.352839,20.706297,0.999111,0.987392,0.004661,0.340963,0.000567,0.000451,0.000040,0.000579,0.000439,17.217753,0.001021,
2281,2863,0.454921791321045,4.67794561679798,-0.0236688037495014,0.008309,-0.077302,0.002412,0.344556,-3.540517,317.261593,21.232977,0.999579,0.993447,0.003604,0.298108,0.000032,0.000049,0.000012,0.000055,0.000026,62.475194,0.000083,
2131,2368,-2.72607440100616,-6.11801769568785,-0.0216421167047542,0.003781,-0.077121,-0.017246,0.199058,-3.588831,325.571967,20.639442,0.999060,0.986584,0.004641,0.413902,0.000466,0.000363,0.000019,0.000469,0.000359,10.104430,0.000831,
2131,2173,-2.69599882120217,-10.3879885578579,-0.0158761725415388,0.001725,-0.080154,-0.024135,0.124272,-3.764926,328.688513,20.314737,0.999085,0.977274,0.005712,0.459776,0.000875,0.000918,0.000087,0.000986,0.000807,52.058433,0.001796,
2251,2668,-0.163515414254963,0.430420733456273,-0.0221433394850692,0.006891,-0.077689,-0.001340,0.292112,-3.558702,320.443230,20.767888,0.999439,0.991800,0.003788,0.396570,0.000112,0.000087,0.000003,0.000112,0.000087,6.597222,0.000199,
2116,2098,-3.01209931766259,-12.0304546599844,-0.0110800247103384,0.000075,-0.081014,-0.029210,0.062819,-3.840710,329.935292,20.515843,0.998428,0.976545,0.006287,0.230468,0.001067,0.001112,0.000094,0.001187,0.000993,51.712931,0.002182,
2266,2773,0.144654874640473,2.7184816050746,-0.0250394949885617,0.008005,-0.077575,0.002188,0.331592,-3.521481,318.725034,20.968986,0.999282,0.987803,0.004217,0.406622,0.000063,0.000086,0.000009,0.000090,0.000060,70.904875,0.000150,
2401,2953,3.04897408871043,6.63932871785569,-0.00819666674169639,0.008997,-0.078054,0.004093,0.366703,-3.556027,315.922151,21.546278,0.999507,0.992028,0.003808,0.414603,0.000016,-0.000019,0.000016,0.000021,-0.000025,20.833313,0.000027,
2056,2113,-4.32406676705181,-11.701313193267,-0.0182827244337318,-0.001326,-0.080726,-0.027964,-0.007660,-3.821192,329.861426,20.729119,0.998526,0.982090,0.005602,0.396366,0.001074,0.001043,0.000144,0.001203,0.000914,41.937053,0.002124,
2386,2833,2.7436083921772,4.03092656464983,-0.0339056441239904,0.008139,-0.077233,-0.003249,0.354249,-3.548344,317.640034,21.224412,0.999541,0.988318,0.004232,0.365784,0.000026,0.000058,0.000022,0.000069,0.000015,63.267965,0.000090,
2431,3223,3.65283174570472,12.502439893652,0.0331694910738634,0.010564,-0.078116,0.006056,0.431009,-3.563719,311.948268,22.513012,0.999535,0.991551,0.003713,0.392392,0.000004,-0.000023,0.000009,0.000007,-0.000026,17.152494,0.000027,
2101,2053,-3.33296368834884,-13.0189855055326,-0.00767765703267287,-0.001121,-0.082174,-0.031285,0.012998,-3.895367,330.704730,20.468177,0.998366,0.974050,0.006475,0.300498,0.001183,0.001154,0.000088,0.001257,0.001079,40.258032,0.002339,
2251,2473,-0.128978839506079,-3.82507315581061,-0.00995003728007759,0.005598,-0.078221,-0.007952,0.254043,-3.599899,323.669180,20.367088,0.999557,0.991331,0.004000,0.441204,0.000272,0.000236,0.000012,0.000276,0.000232,16.990408,0.000509,
2221,2323,-0.757767972911051,-7.10267393877204,-0.0256684913497907,0.004642,-0.078788,-0.017508,0.240532,-3.666806,326.013057,20.164083,0.998827,0.987270,0.004662,0.443486,0.000504,0.000490,0.000018,0.000516,0.000478,34.731797,0.000994,
2086,2203,-3.68220737294302,-9.72826883815785,-0.0167721196391426,0.000921,-0.078976,-0.021952,0.079911,-3.704587,328.356834,20.722051,0.998280,0.982299,0.005405,0.354635,0.000824,0.000835,0.000114,0.000944,0.000715,46.312260,0.001664,
2041,3223,-4.80658559988418,12.4691630371268,0.0488872196223156,0.010689,-0.075817,0.009394,0.441940,-3.445813,312.979899,20.647444,0.999611,0.993721,0.003090,0.423777,0.000007,0.000000,-0.000033,0.000037,-0.000030,-41.935792,0.000040,
2371,2803,2.42426571304284,3.37473347193784,-0.0143501196214402,0.008489,-0.078268,0.004218,0.343552,-3.556139,318.274849,21.059032,0.999827,0.995043,0.003289,0.423801,0.000046,0.000069,0.000020,0.000080,0.000035,60.380146,0.000118,
2176,2308,-1.73565828910879,-7.43114532309906,-0.011639384239345,0.003532,-0.078143,-0.020149,0.197090,-3.641708,326.455364,20.404506,0.998244,0.983820,0.005370,0.386320,0.000562,0.000510,0.000025,0.000572,0.000500,21.959800,0.001073,
2326,2608,1.48003481549151,-0.874612137090793,-0.0300158102966748,0.007474,-0.078016,-0.005797,0.332716,-3.576796,321.305336,20.570604,0.999416,0.990208,0.003996,0.401171,0.000157,0.000106,0.000021,0.000165,0.000098,19.870321,0.000266,
2491,2308,5.1402000583384,-7.43202645822385,-0.00988555444143913,0.007528,-0.079859,-0.019641,0.385264,-3.714037,326.594254,19.099001,0.998308,0.980130,0.005671,0.352441,0.000720,0.000524,-0.000111,0.000770,0.000474,-24.207564,0.001256,
2341,2608,1.80569436193016,-0.873484949321792,-0.0358593427559413,0.007131,-0.078137,-0.003239,0.307905,-3.561824,321.227192,20.550294,0.999152,0.987419,0.004541,0.421003,0.000153,0.000105,0.000027,0.000165,0.000093,23.871806,0.000261,
2356,2758,2.10479082260754,2.39630071841695,-0.0321682583168013,0.007801,-0.077321,-0.001660,0.333418,-3.539615,318.843852,20.964476,0.999361,0.989888,0.003929,0.405557,0.000058,0.000107,0.000029,0.000121,0.000044,65.145820,0.000171,
2071,3298,-4.1695745956815,14.0967229512749,0.0269285109272914,0.011303,-0.075879,0.009024,0.470178,-3.446206,311.424178,20.748524,0.999489,0.995106,0.003011,0.449556,0.000068,0.000006,-0.000037,0.000086,-0.000011,-25.230443,0.000093,
2446,3238,3.9754935967364,12.8298395322466,0.0265602950797756,0.010883,-0.078014,0.007102,0.441336,-3.548895,311.681027,22.642476,0.999665,0.993130,0.003383,0.403818,-0.000005,-0.000039,0.000001,-0.000005,-0.000039,1.474448,0.000049,
2071,2173,-4.00525940527207,-10.386834636208,-0.00490570747234642,-0.000378,-0.080323,-0.016465,0.003824,-3.738361,328.939159,20.769675,0.998648,0.985366,0.005175,0.348824,0.000888,0.000889,0.000111,0.001000,0.000778,45.139801,0.001782,
2296,2683,0.813108787110156,0.758140425268934,-0.0200937749140735,0.007172,-0.078275,0.001247,0.295285,-3.573755,320.154678,20.739252,0.999640,0.990231,0.003873,0.419771,0.000094,0.000115,0.000014,0.000122,0.000087,63.884571,0.000210,
2116,2338,-3.04886081652946,-6.77421678848378,-0.0230760133206331,0.003089,-0.078120,-0.013260,0.154919,-3.624202,326.064464,20.645125,0.999184,0.987011,0.004673,0.413289,0.000527,0.000415,0.000032,0.000536,0.000407,14.973422,0.000946,
2146,2443,-2.41130116592393,-4.47914334962648,-0.0228614045514064,0.004843,-0.077057,-0.009336,0.224278,-3.551501,324.315813,20.663387,0.999068,0.987946,0.004701,0.423766,0.000350,0.000218,0.000002,0.000350,0.000218,0.875744,0.000573,
2236,2683,-0.491505972515409,0.756820091898696,-0.0183835860180466,0.007515,-0.077085,-0.001878,0.323054,-3.535917,320.292273,20.821205,0.999280,0.989685,0.004102,0.394407,0.000108,0.000091,0.000008,0.000111,0.000087,22.288333,0.000199,
2206,2548,-1.12187876902699,-2.18547864987706,-0.0298112564384496,0.006426,-0.076468,-0.012654,0.307806,-3.538711,322.444204,20.681376,0.999470,0.990707,0.003962,0.384530,0.000208,0.000141,0.000022,0.000215,0.000135,16.826356,0.000352,
2056,3268,-4.48872895402483,13.4451409218897,0.0512801048257643,0.010744,-0.075585,0.010412,0.441066,-3.439788,312.174450,20.731025,0.999720,0.995564,0.002837,0.400977,0.000040,-0.000015,-0.000035,0.000057,-0.000032,-26.123195,0.000057,
2131,2383,-2.72849201208738,-5.79027507248189,-0.0189991370341431,0.003780,-0.077134,-0.014625,0.191196,-3.556758,325.343947,20.646525,0.998668,0.985786,0.004855,0.446201,0.000440,0.000331,0.000016,0.000443,0.000329,7.946261,0.000774,
2161,2278,-2.05843114217239,-8.08741906830519,-0.0161533892414809,0.003190,-0.079499,-0.015746,0.167125,-3.693285,326.922848,20.429586,0.998094,0.978466,0.006022,0.345221,0.000635,0.000603,0.000034,0.000657,0.000581,32.331739,0.001238,
2206,2428,-1.10093689612387,-4.80965949192067,-0.00210460915405974,0.005331,-0.078349,-0.006594,0.237613,-3.550565,324.548672,20.330017,0.998984,0.988886,0.004499,0.579929,0.000345,0.000267,0.000004,0.000345,0.000267,2.920993,0.000614,
2146,2173,-2.36738749443651,-10.3917392100414,0.0181475324774283,0.001287,-0.080666,-0.021860,0.097640,-3.767955,328.886602,20.271856,0.999614,0.948739,0.008024,0.418842,0.000873,0.000921,0.000073,0.000974,0.000821,54.122406,0.001797,
2101,3073,-3.48433958729581,9.22466081993318,0.0221571838274031,0.009863,-0.075652,0.003025,0.419931,-3.452680,314.856318,20.963253,0.999482,0.992070,0.003650,0.400063,0.000007,-0.000013,-0.000004,0.000008,-0.000014,-9.684869,0.000014,
2236,2608,-0.479050400895741,-0.877972496482073,-0.0246644405090706,0.006909,-0.077125,-0.006886,0.311320,-3.565206,321.445621,20.645160,0.998970,0.985912,0.004765,0.432718,0.000146,0.000094,0.000015,0.000150,0.000091,14.963891,0.000243,
2416,3088,3.35177036395041,9.57250497898887,0.0177409965457969,0.010057,-0.077778,0.005236,0.411071,-3.549342,313.991833,22.051972,0.999677,0.992800,0.003504,0.373317,0.000010,0.000003,0.000023,0.000029,-0.000017,40.767544,0.000029,
2191,2443,-1.43138938785939,-4.47926530752661,-0.0217179266715561,0.004996,-0.077684,-0.012261,0.240260,-3.582702,324.187234,20.514499,0.998674,0.986531,0.004951,0.421973,0.000327,0.000244,0.000004,0.000327,0.000244,2.927268,0.000573,
2296,2953,0.767465062247918,6.63380062078969,-0.00168610924055201,0.009578,-0.076830,0.001717,0.405243,-3.501290,316.020494,21.408007,0.999027,0.989214,0.004186,0.361594,0.000018,-0.000001,0.000007,0.000020,-0.000003,18.000283,0.000021,
2116,2113,-3.0149919861564,-11.7036737616953,-0.00378596796912234,-0.000274,-0.081615,-0.018905,0.016233,-3.805779,329.709384,20.391902,0.998697,0.985952,0.005131,0.395965,0.001030,0.001076,0.000097,0.001153,0.000953,51.707887,0.002109,
2266,2848,0.132627073736785,4.34990647281555,-0.0177689791219109,0.008831,-0.076945,0.001162,0.373287,-3.503134,317.606647,21.100396,0.999425,0.992503,0.003754,0.420797,0.000038,0.000063,0.000016,0.000072,0.000030,63.769539,0.000104,
2431,3238,3.64927140773448,12.8280722861789,0.0263168659748203,0.010764,-0.078098,0.008940,0.429581,-3.552176,311.642856,22.534461,0.999550,0.992860,0.003495,0.431185,0.000003,-0.000033,0.000006,0.000003,-0.000034,8.828031,0.000037,
2086,2218,-3.68421931276868,-9.39989244468455,-0.014423750081562,0.001127,-0.078791,-0.021141,0.087081,-3.658503,328.142047,20.714276,0.998113,0.982917,0.005376,0.410163,0.000792,0.000796,0.000117,0.000911,0.000677,45.450921,0.001594,
2131,3223,-2.85638476542048,12.4765206299539,0.0470274847734231,0.010896,-0.076039,0.007717,0.452653,-3.457185,312.509354,21.068773,0.999597,0.994650,0.003064,0.441559,0.000000,0.000003,-0.000025,0.000026,-0.000023,-46.232060,0.000029,
2401,2968,3.04726316167046,6.96477945815669,0.00675284158575096,0.009108,-0.078088,0.005170,0.367917,-3.548015,315.803541,21.627783,0.999701,0.995211,0.003362,0.385784,0.000011,-0.000016,0.000021,0.000023,-0.000028,28.306860,0.000029,
2146,2203,-2.37410059551432,-9.72906049807771,-0.0200710906609061,0.002010,-0.079886,-0.021417,0.129772,-3.738726,328.116216,20.392256,0.998218,0.977471,0.005912,0.350449,0.000808,0.000847,0.000066,0.000896,0.000759,53.197872,0.001657,
2086,1993,-3.65204825187065,-14.338105352811,0.00211516403510359,-0.002749,-0.084809,-0.028364,-0.071591,-3.997728,331.736792,20.455180,0.998766,0.983094,0.005384,0.297555,0.001406,0.001259,0.000092,0.001451,0.001214,25.669949,0.002669,
2221,2518,-0.790430834621741,-2.84161106475189,-0.0205997345268543,0.005961,-0.077221,-0.007630,0.270152,-3.553574,322.931366,20.527189,0.999105,0.986566,0.004564,0.459291,0.000233,0.000186,0.000018,0.000239,0.000180,18.647306,0.000420,
2056,2128,-4.3272707642787,-11.371447021248,-0.0166293054513176,-0.001835,-0.081081,-0.019181,-0.055862,-3.780629,329.585679,20.823924,0.998373,0.981729,0.005758,0.340157,0.001029,0.001022,0.000144,0.001170,0.000881,44.320374,0.002058,
2161,2233,-2.05149145158445,-9.07385734297043,-0.0067866219404209,0.001965,-0.079885,-0.017880,0.117275,-3.724027,327.676709,20.345335,0.998479,0.981262,0.005403,0.361458,0.000727,0.000732,0.000049,0.000779,0.000681,46.518054,0.001461,
2476,2083,4.86042398462999,-12.3726203254383,-0.00286855504805317,0.008401,-0.085087,-0.024793,0.441596,-3.996693,330.311219,17.955387,0.999178,0.979977,0.005626,0.382985,0.001337,0.001277,-0.000154,0.001464,0.001150,-39.491942,0.002620,
2446,3253,3.97283129221997,13.1548790901626,0.0311685444614795,0.010868,-0.078038,0.007446,0.439349,-3.554908,311.471437,22.695708,0.999762,0.994462,0.003035,0.395220,-0.000007,-0.000036,-0.000005,-0.000006,-0.000037,-8.400592,0.000047,
2311,2518,1.16973221687761,-2.83945491352864,-0.0240341724884274,0.006294,-0.077451,-0.012135,0.300369,-3.583406,322.791871,20.367894,0.999154,0.987663,0.004396,0.414552,0.000234,0.000186,0.000002,0.000234,0.000186,1.863535,0.000421,
2266,2788,0.142312925554005,3.04469100465984,-0.022558326657304,0.008088,-0.077285,0.001037,0.339317,-3.520059,318.509528,20.990132,0.999219,0.988375,0.004312,0.412504,0.000058,0.000080,0.000008,0.000083,0.000055,71.906180,0.000139,
2116,2023,-3.00241309396823,-13.6783064087931,-0.0101880037493629,-0.001822,-0.083809,-0.025101,-0.037123,-3.930914,331.048397,20.270500,0.999025,0.984506,0.005660,0.352119,0.001270,0.001214,0.000077,0.001324,0.001160,35.096161,0.002486,
2221,2578,-0.800252422822208,-1.53221996974269,-0.0222268149564115,0.006997,-0.077502,-0.002590,0.301575,-3.544697,321.976947,20.645009,0.998964,0.989264,0.004222,0.429805,0.000172,0.000133,0.000021,0.000182,0.000124,23.751933,0.000307,
2281,2878,0.452986851220224,5.00239343112015,-0.0161820990905994,0.008444,-0.076827,0.001134,0.355221,-3.526749,317.091123,21.141942,0.999665,0.993418,0.003552,0.430456,0.000027,0.000048,0.000014,0.000055,0.000020,64.101052,0.000078,
2191,2338,-1.41314366640491,-6.77492141111425,-0.00309959870611465,0.004033,-0.078269,-0.015483,0.205870,-3.629221,326.004232,20.473817,0.999551,0.989963,0.004343,0.302397,0.000496,0.000449,0.000013,0.000499,0.000445,14.564834,0.000945,
2131,2188,-2.69789038821654,-10.0591803434861,-0.00162199386460316,0.001506,-0.079793,-0.021056,0.105155,-3.735989,328.546087,20.479550,0.998752,0.984083,0.005265,0.331897,0.000845,0.000878,0.000085,0.000948,0.000774,50.409682,0.001725,
2041,3238,-4.80874356862039,12.7938919315979,0.04698077136959,0.010868,-0.075870,0.006940,0.457063,-3.455902,312.733902,20.626937,0.999606,0.995240,0.002860,0.425452,0.000013,-0.000011,-0.000041,0.000043,-0.000041,-36.746054,0.000049,
2206,2443,-1.10569468072291,-4.47836185541124,-0.0276050564438606,0.004731,-0.077788,-0.009259,0.218672,-3.571499,324.073517,20.470979,0.998408,0.985134,0.005166,0.437023,0.000321,0.000256,0.000007,0.000321,0.000255,6.012551,0.000578,
2431,3253,3.64585052182526,13.1542370097856,0.0185567924631869,0.011129,-0.078251,0.011203,0.437988,-3.550039,311.339366,22.614075,0.999552,0.992995,0.003404,0.402302,0.000000,-0.000031,0.000000,0.000000,-0.000031,-0.008324,0.000036,
2506,2308,5.46771784265262,-7.43406995014794,-0.000897648501563708,0.007096,-0.080922,-0.013340,0.341070,-3.746334,326.671061,18.971478,0.998552,0.979899,0.005730,0.386362,0.000714,0.000537,-0.000121,0.000775,0.000475,-26.994110,0.001263,
2146,2458,-2.41406962182901,-4.14984666775712,-0.0289080138611553,0.004934,-0.076382,-0.009320,0.228660,-3.517990,324.026494,20.754742,0.999007,0.988356,0.004711,0.375370,0.000328,0.000191,-0.000001,0.000328,0.000191,-0.565524,0.000525,
2026,3163,-5.12231850585685,11.1691147678448,0.0430952079336748,0.010617,-0.075247,0.006290,0.447912,-3.432013,314.009758,20.653931,0.999596,0.994727,0.003137,0.399890,-0.000005,0.000002,-0.000024,0.000023,-0.000026,-49.498273,0.000029,
2086,2008,-3.65433269902428,-14.0085605246831,0.00102313964794121,-0.002808,-0.083898,-0.030428,-0.068083,-3.961259,331.490641,20.449681,0.998825,0.986072,0.005212,0.342236,0.001348,0.001261,0.000107,0.001419,0.001189,33.883573,0.002612,
2101,2263,-3.36426818460194,-8.41561254968532,-0.0153869674825842,0.001766,-0.078672,-0.016122,0.102224,-3.653453,327.352955,20.630907,0.998429,0.984468,0.005220,0.436645,0.000693,0.000667,0.000090,0.000771,0.000589,40.994698,0.001364,
2206,2563,-1.12424006331005,-1.85950589907718,-0.0217413357621012,0.006517,-0.077026,-0.006246,0.291487,-3.539232,322.252742,20.665085,0.999513,0.991796,0.003765,0.417628,0.000197,0.000141,0.000021,0.000204,0.000134,18.535652,0.000340,
2446,3268,3.96814962104461,13.4808093625399,0.0102406763256795,0.010866,-0.078257,0.007135,0.440355,-3.570459,311.050166,22.702805,0.999730,0.994062,0.003121,0.423489,-0.000010,-0.000044,-0.000012,-0.000006,-0.000048,-18.058481,0.000059,
2176,2368,-1.74540512578219,-6.11719995305819,-0.0263252778651122,0.005112,-0.077646,-0.015232,0.254636,-3.594170,325.421471,20.490463,0.998837,0.987138,0.004768,0.405180,0.000451,0.000381,0.000004,0.000451,0.000381,3.002630,0.000832,
2101,3088,-3.48632254309186,9.54921514533886,0.0249184376058906,0.010079,-0.075861,0.001964,0.432860,-3.478357,314.648018,20.935236,0.999234,0.989118,0.004123,0.402908,0.000000,-0.000012,-0.000004,0.000001,-0.000013,-16.412762,0.000015,
2251,2683,-0.165616159745213,0.756671874721867,-0.0190264489036167,0.007276,-0.077724,-0.000585,0.307374,-3.556885,320.241137,20.766848,0.999330,0.991363,0.003848,0.423102,0.000104,0.000092,0.000000,0.000104,0.000092,-2.064093,0.000197,
2056,3283,-4.49135003763794,13.7697749675577,0.0430109995086809,0.011016,-0.075643,0.010152,0.454386,-3.437373,311.873158,20.666391,0.999714,0.995915,0.002776,0.461403,0.000061,-0.000019,-0.000039,0.000077,-0.000035,-22.073729,0.000077,
2041,3253,-4.81102575613485,13.1187777980741,0.0484282476933799,0.010941,-0.075424,0.008093,0.457373,-3.430807,312.500820,20.608663,0.999630,0.995035,0.002875,0.459884,0.000025,-0.000014,-0.000044,0.000054,-0.000042,-32.925619,0.000056,
2101,2068,-3.33521549585082,-12.6915962678796,-0.00509725009607109,-0.001060,-0.082801,-0.028825,0.008392,-3.903449,330.481786,20.374843,0.998115,0.949084,0.009159,0.390283,0.001144,0.001144,0.000100,0.001244,0.001044,44.967061,0.002291,
2386,2848,2.74174392967155,4.35623307724769,-0.0257802488606558,0.008579,-0.077495,-0.002624,0.372119,-3.556834,317.481773,21.233886,0.999513,0.989845,0.003980,0.390895,0.000023,0.000043,0.000022,0.000057,0.000009,57.115972,0.000072,
2056,2143,-4.3283542109534,-11.0435457068973,-0.0152231529971232,-0.001016,-0.080202,-0.023241,-0.006599,-3.766092,329.405891,20.767662,0.998356,0.983446,0.005666,0.408076,0.000987,0.000991,0.000141,0.001129,0.000848,45.380661,0.001984,
2116,2128,-3.0175430091152,-11.375189795288,-0.00322347897156305,-0.000465,-0.081574,-0.018366,0.005877,-3.799920,329.462953,20.383544,0.998247,0.982637,0.005641,0.416562,0.000989,0.001050,0.000097,0.001121,0.000917,53.645790,0.002042,
2086,2233,-3.68672852148679,-9.07029909806187,-0.0197445115634878,0.001454,-0.078395,-0.018296,0.094006,-3.630967,327.862820,20.761742,0.998501,0.985617,0.004920,0.391892,0.000762,0.000733,0.000101,0.000850,0.000645,40.870531,0.001500,
2311,2533,1.16703694850691,-2.51276134931022,-0.0216177235025725,0.006416,-0.078021,-0.008910,0.294747,-3.605464,322.563662,20.381317,0.999314,0.988897,0.004197,0.412209,0.000223,0.000167,0.000002,0.000223,0.000166,2.511927,0.000391,
2416,3103,3.34929415561469,9.89836946008647,0.0186262006759534,0.010255,-0.077682,0.002698,0.429598,-3.549151,313.771984,22.116466,0.999788,0.995272,0.003109,0.355908,0.000013,0.000001,0.000025,0.000033,-0.000019,38.385701,0.000033,
2131,2398,-2.72997268861408,-5.46388909617548,-0.00667792130082034,0.003991,-0.077223,-0.013365,0.197081,-3.567415,325.210791,20.669310,0.998048,0.984949,0.005160,0.419767,0.000415,0.000287,0.000013,0.000416,0.000286,5.536029,0.000706,
2431,3268,3.64225245679622,13.4804397528448,0.00925796688244418,0.011099,-0.078107,0.009251,0.444001,-3.542402,311.020423,22.688068,0.999641,0.993736,0.003289,0.384494,-0.000005,-0.000036,-0.000007,-0.000004,-0.000038,-12.429990,0.000046,
2476,2098,4.85716119939557,-12.0422554781978,-0.00262299713779157,0.008097,-0.084520,-0.025937,0.432336,-3.973928,330.061188,18.092385,0.999061,0.979808,0.005695,0.328593,0.001279,0.001260,-0.000159,0.001428,0.001110,-43.287297,0.002545,
2236,2698,-0.494498009083689,1.08411695808316,-0.0266527151753166,0.007623,-0.077025,-0.003564,0.333534,-3.539291,319.989959,20.832037,0.999274,0.991294,0.003799,0.401865,0.000099,0.000098,0.000011,0.000110,0.000087,43.731476,0.000197,
2356,2773,2.10247861238035,2.72285818386504,-0.0273195185598638,0.007839,-0.077343,-0.003243,0.340722,-3.545793,318.647434,21.041294,0.999441,0.990687,0.003769,0.361358,0.000053,0.000088,0.000023,0.000099,0.000041,63.490716,0.000144,
2491,2323,5.13660881884229,-7.10261991131433,-0.0162922790246967,0.007904,-0.079887,-0.015666,0.387319,-3.685513,326.299320,19.156510,0.998217,0.982031,0.005524,0.384693,0.000669,0.000475,-0.000102,0.000713,0.000431,-23.250059,0.001156,
2236,2623,-0.481477996467579,-0.550644119247885,-0.0217478345238078,0.007115,-0.077304,-0.003936,0.311213,-3.545281,321.226238,20.705482,0.999041,0.985702,0.004774,0.414093,0.000134,0.000091,0.000014,0.000138,0.000087,16.750752,0.000227,
2296,2698,0.8101367735424,1.08586410872582,-0.0271321062674588,0.007300,-0.077887,-0.000917,0.308652,-3.558163,319.865009,20.781466,0.999725,0.992418,0.003612,0.423674,0.000087,0.000127,0.000020,0.000135,0.000078,67.480941,0.000216,
2446,3283,3.964595716996,13.8069446178866,0.000331084267884307,0.011072,-0.078014,0.006571,0.452074,-3.563732,310.731709,22.773269,0.999738,0.993458,0.003225,0.410447,-0.000006,-0.000052,-0.000013,-0.000003,-0.000055,-15.014790,0.000065,
2056,3298,-4.49392488859706,14.0950378345866,0.0333795657928704,0.011304,-0.075506,0.007998,0.473802,-3.443030,311.566189,20.665220,0.999551,0.994697,0.002997,0.449902,0.000069,-0.000004,-0.000036,0.000084,-0.000019,-22.474553,0.000088,
2161,2293,-2.06011357238579,-7.75833376124011,-0.0230520194609198,0.003777,-0.077632,-0.025497,0.224502,-3.645764,326.680337,20.418517,0.998141,0.982505,0.005552,0.416051,0.000608,0.000555,0.000037,0.000627,0.000536,27.088214,0.001164,
2176,2323,-1.73823385338866,-7.10250112109282,-0.0226538054135972,0.004052,-0.077871,-0.022309,0.227744,-3.627260,326.152211,20.356585,0.998248,0.983801,0.005321,0.463401,0.000536,0.000466,0.000015,0.000539,0.000463,11.296606,0.001003,
2026,3178,-5.12435940522966,11.4936844310724,0.0473706824952274,0.010622,-0.075162,0.005706,0.449810,-3.429184,313.802603,20.627028,0.999665,0.994235,0.003120,0.418838,-0.000009,0.000006,-0.000028,0.000028,-0.000030,-52.062491,0.000034,
2266,2863,0.130987797713406,4.67469256920253,-0.00483195849778895,0.008848,-0.077061,-0.000181,0.378439,-3.531306,317.476329,21.118294,0.999654,0.994249,0.003459,0.399998,0.000035,0.000056,0.000011,0.000061,0.000030,67.249650,0.000093,
2086,2023,-3.65768236178239,-13.6762495983387,-0.0145019037752832,-0.002922,-0.082514,-0.031124,-0.070872,-3.920364,331.117280,20.534298,0.998210,0.982950,0.005784,0.302108,0.001280,0.001191,0.000091,0.001337,0.001135,31.983795,0.002475,
2341,2623,1.80359347799864,-0.547286512709817,-0.0268417334655169,0.007295,-0.078128,-0.001368,0.308932,-3.565577,321.060249,20.585022,0.999087,0.988102,0.004445,0.419447,0.000138,0.000105,0.000025,0.000151,0.000091,27.940231,0.000245,
2116,2353,-3.05138577780032,-6.44512767117943,-0.0237544150348299,0.003326,-0.078168,-0.008245,0.150988,-3.593495,325.812311,20.734240,0.999209,0.985131,0.004867,0.360268,0.000495,0.000384,0.000032,0.000504,0.000376,15.066632,0.000883,
2251,2728,-0.174186716255587,1.73794060479459,-0.028484906230176,0.007220,-0.077206,-0.002606,0.311659,-3.528365,319.434733,20.845271,0.999311,0.991176,0.003765,0.444453,0.000081,0.000095,0.000001,0.000095,0.000080,85.830309,0.000175,
2206,2578,-1.12684494866996,-1.5329250570611,-0.0186585128540173,0.006576,-0.077449,-0.001818,0.280028,-3.541198,322.024244,20.665972,0.999169,0.990056,0.004081,0.432268,0.000180,0.000126,0.000022,0.000188,0.000119,19.530552,0.000309,
2281,2893,0.450303429528706,5.32930680318945,-0.0201768416313257,0.008785,-0.077211,0.001220,0.370531,-3.532464,316.828189,21.216772,0.999623,0.992528,0.003526,0.377291,0.000023,0.000030,0.000014,0.000041,0.000012,52.063760,0.000056,
2281,2623,0.496997610854624,-0.549333659733378,-0.025626252589916,0.006919,-0.078369,-0.000132,0.288570,-3.567037,321.093323,20.641707,0.999226,0.988199,0.004302,0.415704,0.000136,0.000098,0.000011,0.000139,0.000095,14.967659,0.000236,
2506,2323,5.46458835639395,-7.10510522550845,-0.00448561425582739,0.007436,-0.080200,-0.012751,0.354722,-3.690753,326.411310,18.988892,0.998478,0.983847,0.005285,0.488115,0.000655,0.000488,-0.000117,0.000716,0.000427,-27.302430,0.001155,
2131,3238,-2.85931547700882,12.8018345923386,0.0391306518905594,0.011043,-0.076441,0.008508,0.456868,-3.490905,312.202088,21.094029,0.999553,0.994669,0.002974,0.386704,0.000001,-0.000005,-0.000025,0.000024,-0.000027,-41.526209,0.000030,
2146,2218,-2.37594779580057,-9.40055679025293,-0.0115669233476297,0.002085,-0.078869,-0.020539,0.130898,-3.680364,327.946142,20.449268,0.998225,0.979400,0.005701,0.361701,0.000773,0.000797,0.000064,0.000850,0.000720,50.506309,0.001572,
2071,1993,-3.98066488787895,-14.3362938238541,-0.00787467492449423,-0.003783,-0.083981,-0.031435,-0.110658,-3.976706,331.690315,20.553655,0.997340,0.978362,0.006314,0.326526,0.001448,0.001252,0.000115,0.001501,0.001198,24.830651,0.002705,
2191,2353,-1.41573346243792,-6.44804783465445,-0.0080835884946282,0.004376,-0.078150,-0.014395,0.218239,-3.636124,325.733712,20.355735,0.999194,0.987452,0.004693,0.430099,0.000469,0.000408,0.000011,0.000471,0.000406,10.080216,0.000877,
2371,2818,2.42124978719565,3.70135691603729,-0.0219982124260127,0.008728,-0.077883,0.001542,0.364170,-3.567018,317.987103,21.062488,0.999843,0.995219,0.003306,0.450565,0.000034,0.000068,0.000020,0.000078,0.000025,65.200872,0.000107,
2401,2983,3.04423241288972,7.29089982367162,0.00345296630564462,0.009217,-0.077901,0.004619,0.375055,-3.541950,315.537792,21.649830,0.999635,0.992571,0.003672,0.414904,0.000011,-0.000010,0.000021,0.000025,-0.000023,31.934445,0.000028,
2116,2038,-3.00508395226777,-13.3501579754908,-0.0115465957162542,-0.002030,-0.084080,-0.024671,-0.048017,-3.940348,330.786340,20.193343,0.998822,0.983867,0.005511,0.426896,0.001223,0.001174,0.000075,0.001277,0.001119,36.129846,0.002399,
2146,2188,-2.37008298634075,-10.0619409120388,0.0096552537013963,0.001493,-0.079621,-0.023170,0.111402,-3.721701,328.587850,20.267805,0.999029,0.957025,0.007180,0.480023,0.000843,0.000880,0.000070,0.000934,0.000789,52.486988,0.001725,
2221,2593,-0.803049644648059,-1.20469977993424,-0.0266404662248192,0.007050,-0.077372,-0.003428,0.306787,-3.538525,321.702020,20.663645,0.998933,0.987064,0.004567,0.437149,0.000161,0.000113,0.000021,0.000169,0.000105,20.438465,0.000276,
2116,2143,-3.02010151849592,-11.0450817745994,-0.00967851186743474,-0.000356,-0.081052,-0.020238,0.016513,-3.785179,329.178311,20.444197,0.997357,0.976637,0.006581,0.377384,0.000948,0.001005,0.000099,0.001079,0.000874,53.115269,0.001957,
2431,3283,3.63928128182629,13.8056872731757,0.00451094509833183,0.011308,-0.077783,0.007082,0.461751,-3.543926,310.751848,22.712814,0.999759,0.994345,0.003087,0.406919,-0.000004,-0.000044,-0.000010,-0.000002,-0.000046,-13.004648,0.000054,
2446,3298,3.96158785024748,14.1315779108655,-0.00101293084537701,0.011304,-0.077999,0.008250,0.456502,-3.564201,310.478519,22.763411,0.999757,0.994095,0.003125,0.470592,-0.000005,-0.000067,-0.000011,-0.000003,-0.000069,-9.998621,0.000082,
2476,2113,4.85305653249768,-11.7113280905316,-0.0133439625394658,0.007789,-0.083587,-0.027948,0.426264,-3.920873,329.722725,18.136309,0.998863,0.976510,0.006167,0.398319,0.001227,0.001230,-0.000156,0.001385,0.001072,-45.324680,0.002463,
2131,2413,-2.73297313138266,-5.13408737704557,-0.0219934690945252,0.004645,-0.077313,-0.009947,0.216932,-3.553672,324.860101,20.720858,0.998586,0.987041,0.004893,0.389539,0.000396,0.000261,0.000012,0.000397,0.000260,4.987041,0.000662,
2296,2968,0.76472001269676,6.95948819654883,-0.00343630263955674,0.009582,-0.076852,-0.000038,0.411310,-3.516403,315.767294,21.416830,0.999357,0.991818,0.003624,0.367134,0.000013,0.000000,0.000012,0.000020,-0.000007,31.333705,0.000021,
2161,2248,-2.05417179744948,-8.74491993986963,-0.0123804431171379,0.002272,-0.079954,-0.015658,0.124550,-3.701150,327.395593,20.341249,0.998485,0.979936,0.005405,0.401209,0.000695,0.000690,0.000050,0.000743,0.000642,43.539899,0.001387,
2506,2338,5.46201168807853,-6.77533380349115,-0.00419857970575777,0.007802,-0.079815,-0.014670,0.379037,-3.699569,326.194288,19.188379,0.998882,0.986763,0.005183,0.342514,0.000615,0.000445,-0.000110,0.000669,0.000391,-26.062399,0.001072,
2071,2188,-4.00725465077128,-10.0571905891887,-0.0172473612780664,0.000332,-0.079069,-0.021983,0.052490,-3.723804,328.643711,20.742646,0.998418,0.985391,0.005353,0.390298,0.000859,0.000859,0.000117,0.000975,0.000742,44.999950,0.001723,
2266,3043,0.100703515046835,8.58474909225654,0.0127448533907,0.009845,-0.077041,0.001979,0.417362,-3.528881,314.725953,21.437977,0.999462,0.992474,0.003593,0.382641,0.000011,-0.000012,0.000004,0.000011,-0.000013,10.392327,0.000014,
2236,2638,-0.484048208167476,-0.223319954039106,-0.0233561651314744,0.007280,-0.076885,-0.004031,0.319297,-3.522631,320.977246,20.728662,0.998958,0.987263,0.004597,0.435441,0.000124,0.000080,0.000014,0.000128,0.000076,15.889567,0.000206,
2416,3118,3.34635244146268,10.2236305298171,0.022967037930016,0.010198,-0.078147,0.006238,0.413818,-3.564318,313.547037,22.166140,0.999812,0.995541,0.002969,0.337491,0.000011,0.000002,0.000027,0.000035,-0.000021,40.392599,0.000035,
2341,2638,1.80133355375509,-0.220735108101266,-0.0227976042431237,0.007287,-0.077784,-0.004654,0.320118,-3.584564,320.861819,20.628614,0.999062,0.987437,0.004564,0.393915,0.000122,0.000097,0.000020,0.000132,0.000086,28.692477,0.000220,
2281,2908,0.44772014951894,5.65545504237924,-0.0173383402424747,0.008860,-0.077029,0.003201,0.367485,-3.508763,316.604139,21.246029,0.999687,0.993387,0.003254,0.399089,0.000020,0.000025,0.000012,0.000035,0.000010,51.484589,0.000047,
2311,2548,1.16388443285964,-2.18503941273361,-0.0218319103212821,0.006475,-0.078090,-0.003065,0.277580,-3.565791,322.301092,20.408530,0.999237,0.986347,0.004605,0.457799,0.000208,0.000143,0.000006,0.000209,0.000143,5.493363,0.000353,
2056,2158,-4.33056058588523,-10.7134425098421,-0.0174073021152594,-0.000769,-0.079858,-0.022261,0.002054,-3.738642,329.154672,20.866243,0.998676,0.985535,0.005228,0.334472,0.000939,0.000923,0.000129,0.001060,0.000802,43.222318,0.001867,
2101,3103,-3.48838268772204,9.87493964626106,0.0296598686954326,0.010296,-0.075868,0.004042,0.436782,-3.473943,314.446468,21.001007,0.999620,0.993550,0.003269,0.341597,-0.000001,-0.000015,-0.000002,-0.000001,-0.000016,-7.815012,0.000019,
2251,2698,-0.167852824292606,1.08396680900353,-0.0249646792592557,0.007844,-0.077140,-0.004482,0.346474,-3.540473,319.986673,20.777014,0.999288,0.991390,0.003752,0.453285,0.000094,0.000104,0.000003,0.000105,0.000093,73.006080,0.000199,
2401,2998,3.04147635805773,7.61801683832767,-0.00162799923288048,0.009574,-0.077539,0.001890,0.401466,-3.555130,315.275936,21.775362,0.999508,0.990315,0.004023,0.321180,0.000010,-0.000007,0.000022,0.000025,-0.000021,33.983930,0.000027,
2176,2338,-1.74146234374357,-6.77291797511739,-0.0266346522935237,0.003928,-0.077821,-0.017441,0.207059,-3.624185,325.855712,20.481926,0.998816,0.986055,0.004905,0.355599,0.000500,0.000440,0.000007,0.000501,0.000439,6.958551,0.000941,
2146,2473,-2.41573066196027,-3.82423496620701,-0.0197476657087918,0.005131,-0.076647,-0.009066,0.236837,-3.529194,323.869356,20.699407,0.998941,0.987479,0.005013,0.428519,0.000310,0.000185,0.000002,0.000310,0.000185,0.800675,0.000501,
2356,2788,2.10037942697531,3.04904175701616,-0.026606412584556,0.008302,-0.077144,-0.006153,0.372353,-3.549004,318.440917,21.052358,0.999659,0.993519,0.003440,0.386124,0.000049,0.000079,0.000023,0.000091,0.000037,61.353252,0.000132,
2221,2533,-0.792675652770289,-2.51302539296033,-0.0237127162437218,0.006420,-0.077118,-0.009289,0.296628,-3.551399,322.688307,20.638550,0.999444,0.989755,0.004051,0.369982,0.000215,0.000170,0.000021,0.000224,0.000162,21.354070,0.000387,
2251,2743,-0.175888257497409,2.06410896394517,-0.0225994103271887,0.007990,-0.077638,0.000616,0.336325,-3.551134,319.264944,20.900954,0.999167,0.989236,0.004146,0.389488,0.000076,0.000091,0.000002,0.000091,0.000075,82.164251,0.000167,
2071,2008,-3.98303361328636,-14.0058843946256,-0.0112366414819007,-0.003549,-0.083707,-0.029418,-0.105631,-3.960855,331.426569,20.621988,0.998174,0.982413,0.005653,0.274732,0.001393,0.001257,0.000126,0.001468,0.001182,30.822726,0.002655,
2191,2458,-1.43375948139422,-4.15130389253434,-0.0261591040112421,0.005419,-0.077169,-0.012914,0.261910,-3.573656,323.929147,20.523629,0.998786,0.987020,0.004916,0.437790,0.000310,0.000221,0.000007,0.000311,0.000221,4.739214,0.000534,
2326,2623,1.47782025977228,-0.548720878237233,-0.0231540915991673,0.007336,-0.077739,-0.008262,0.334974,-3.585092,321.121867,20.562661,0.999384,0.989569,0.004082,0.435887,0.000142,0.000110,0.000019,0.000151,0.000102,24.738881,0.000254,
2086,2248,-3.68945106670401,-8.74316575699668,-0.0190613892181091,0.001099,-0.078789,-0.016756,0.073143,-3.654699,327.607128,20.703457,0.998558,0.985547,0.004956,0.427871,0.000729,0.000706,0.000100,0.000818,0.000617,41.755615,0.001439,
2491,2338,5.13289711093654,-6.77379674799406,-0.0133776394336564,0.007080,-0.079587,-0.015187,0.347943,-3.689407,326.040810,19.291167,0.998675,0.986155,0.005326,0.306868,0.000631,0.000437,-0.000093,0.000669,0.000400,-21.926817,0.001080,
2206,2593,-1.12949860783799,-1.20584245013211,-0.0135174915404832,0.006424,-0.077824,0.002262,0.260012,-3.536480,321.803968,20.728345,0.998919,0.987834,0.004447,0.392035,0.000166,0.000108,0.000023,0.000174,0.000100,18.906752,0.000278,
2161,2518,-2.09788678523499,-2.84042398503822,-0.0392764613972645,0.005505,-0.077049,-0.006620,0.246386,-3.560042,322.932190,20.708663,0.998684,0.986866,0.004865,0.387274,0.000251,0.000169,0.000013,0.000253,0.000166,9.010484,0.000422,
2116,2158,-3.02198232613793,-10.7155245680516,-0.0145405065190971,0.000605,-0.080976,-0.017805,0.053454,-3.779748,328.933280,20.487071,0.998443,0.984038,0.005416,0.346281,0.000908,0.000947,0.000095,0.001024,0.000831,50.749372,0.001858,
2476,2128,4.85061893297094,-11.3831397813632,-0.00472061877428587,0.007992,-0.083902,-0.024422,0.422090,-3.915843,329.548457,18.194628,0.998295,0.973934,0.006592,0.404341,0.001186,0.001186,-0.000148,0.001334,0.001037,-44.948170,0.002378,
2506,2353,5.45930717071035,-6.44783447580198,-0.000566795659665331,0.007986,-0.079992,-0.013688,0.383647,-3.687383,325.986384,19.196736,0.998836,0.985770,0.005356,0.409391,0.000606,0.000434,-0.000108,0.000659,0.000382,-25.725534,0.001053,
2236,2713,-0.497781397403557,1.41104975049474,-0.0291766034329157,0.007307,-0.077173,-0.001390,0.311953,-3.531516,319.703566,20.850782,0.998970,0.990306,0.003973,0.412412,0.000088,0.000094,0.000010,0.000101,0.000081,53.743421,0.000183,
2206,2458,-1.10680318384952,-4.15134996858224,-0.0201945910594077,0.005447,-0.077193,-0.012454,0.261848,-3.557566,323.935850,20.499053,0.998832,0.985707,0.005037,0.440691,0.000304,0.000233,0.000013,0.000306,0.000230,9.797472,0.000538,
2461,1993,4.55086467095351,-14.3520460167618,-0.00347147315204666,0.007979,-0.087926,-0.033769,0.454037,-4.169701,331.734989,17.612815,0.997644,0.969039,0.007011,0.298348,0.001689,0.001361,-0.000117,0.001726,0.001324,-17.723487,0.003059,
2116,2368,-3.05234723384559,-6.11870435774387,-0.0162997097791617,0.003968,-0.077764,-0.012816,0.194105,-3.595501,325.675956,20.696208,0.999012,0.985106,0.004907,0.400997,0.000472,0.000358,0.000028,0.000478,0.000352,13.127989,0.000833,
2431,3298,3.63579034510679,14.1304606179185,-0.00210603749093252,0.011369,-0.077926,0.007643,0.462402,-3.556261,310.450665,22.698923,0.999753,0.994478,0.003022,0.456891,-0.000004,-0.000061,-0.000008,-0.000003,-0.000062,-7.779543,0.000074,
2161,2263,-2.05732061911719,-8.41452943164931,-0.0222519438656832,0.002355,-0.079530,-0.014166,0.123976,-3.689394,327.070349,20.443366,0.998460,0.980320,0.005639,0.323474,0.000667,0.000647,0.000044,0.000702,0.000612,38.540022,0.001316,
2041,3268,-4.81369538436513,13.4445805468895,0.0431759870073734,0.011000,-0.075405,0.008627,0.458602,-3.429580,312.212306,20.665141,0.999618,0.994622,0.002949,0.395555,0.000040,-0.000023,-0.000042,0.000061,-0.000043,-26.382067,0.000063,
2086,2038,-3.65939298481076,-13.3486428127811,-0.0102084941518115,-0.002628,-0.082866,-0.031332,-0.056958,-3.929852,330.927042,20.470947,0.998426,0.983238,0.005590,0.358343,0.001231,0.001142,0.000090,0.001287,0.001087,31.832050,0.002376,
2026,3193,-5.12668361805727,11.8184099634639,0.0507481263854856,0.010524,-0.075379,0.007162,0.441232,-3.427891,313.577397,20.613978,0.999594,0.993708,0.003206,0.422279,-0.000008,0.000010,-0.000034,0.000036,-0.000034,-52.450721,0.000040,
2101,2083,-3.34005204186394,-12.3600506331656,-0.0202040933641001,-0.002192,-0.082047,-0.022476,-0.061793,-3.848271,330.044621,20.407574,0.998208,0.958056,0.008348,0.418305,0.001103,0.001133,0.000107,0.001227,0.001010,48.938154,0.002240,
2401,3013,3.03855919654737,7.94355630989484,-0.000129434109283011,0.009499,-0.077599,0.002371,0.396265,-3.547828,315.038098,21.784279,0.999540,0.989387,0.004020,0.364351,0.000010,-0.000011,0.000022,0.000024,-0.000025,32.186244,0.000029,
2416,3133,3.34342023266356,10.548110551617,0.0258614110870212,0.010201,-0.077886,0.009034,0.403967,-3.517302,313.315899,22.076077,0.999842,0.995668,0.002856,0.521703,0.000009,-0.000006,0.000026,0.000029,-0.000026,36.711670,0.000032,
2386,2863,2.73965966146843,4.68237166661535,-0.0163428117947433,0.008931,-0.077419,0.000968,0.375515,-3.529976,317.319317,21.297576,0.999457,0.990074,0.003888,0.396953,0.000018,0.000034,0.000021,0.000049,0.000004,55.274554,0.000059,
2266,2878,0.128261134951227,5.00069829905919,-0.00761321037379048,0.009073,-0.076964,0.000606,0.386166,-3.543632,317.216589,21.119564,0.999595,0.992358,0.003643,0.411535,0.000029,0.000054,0.000013,0.000060,0.000024,67.267312,0.000086,
2071,2203,-4.00903008519995,-9.72846310039505,-0.015662447937359,0.000646,-0.078448,-0.023520,0.071473,-3.690077,328.434352,20.765788,0.998218,0.982650,0.005461,0.400273,0.000827,0.000829,0.000115,0.000943,0.000713,45.243399,0.001661,
2101,3118,-3.49109833339331,10.1999284025869,0.0271277313742075,0.010265,-0.075870,0.005234,0.431922,-3.461638,314.175665,20.949269,0.999757,0.994866,0.002922,0.405918,-0.000004,-0.000012,-0.000005,-0.000002,-0.000014,-25.335423,0.000018,
2041,3283,-4.81615276114837,13.7686749028209,0.0394033336980897,0.011160,-0.075781,0.008814,0.465365,-3.448803,311.942487,20.597050,0.999618,0.994665,0.002931,0.435460,0.000065,-0.000033,-0.000046,0.000083,-0.000051,-21.589261,0.000084,
2176,2383,-1.7479974289361,-5.79004618814057,-0.029407091844007,0.005143,-0.077575,-0.016435,0.259791,-3.625373,325.159350,20.452710,0.998843,0.988818,0.004610,0.425815,0.000423,0.000357,0.000002,0.000423,0.000357,1.713760,0.000781,
2101,2278,-3.36597273063642,-8.08739927696086,-0.0137464574098658,0.002327,-0.078355,-0.015803,0.127148,-3.642919,327.149815,20.656786,0.998262,0.982750,0.005434,0.424585,0.000668,0.000611,0.000079,0.000724,0.000555,35.015183,0.001283,
2191,2668,-1.46889317017,0.429888080889434,-0.0306807361610595,0.006531,-0.076715,-0.008313,0.298889,-3.539490,320.526293,20.854323,0.999695,0.994498,0.003269,0.356681,0.000125,0.000083,0.000018,0.000132,0.000076,20.183472,0.000211,
2086,2263,-3.69097961928643,-8.41580434626361,-0.0161986954167332,0.001649,-0.078587,-0.017644,0.101010,-3.664634,327.417713,20.679308,0.998798,0.984752,0.004934,0.443082,0.000703,0.000672,0.000103,0.000791,0.000584,40.594166,0.001380,
2176,2593,-1.78238054764001,-1.20601293456977,-0.0259848905627109,0.006427,-0.077291,-0.005447,0.284970,-3.563743,321.815916,20.746403,0.998902,0.988189,0.004419,0.382536,0.000166,0.000098,0.000013,0.000168,0.000096,10.734700,0.000267,
2476,2143,4.84743460935879,-11.0529715848684,-0.00234456610837697,0.008125,-0.083839,-0.019137,0.408275,-3.880226,329.311345,18.340162,0.997350,0.975940,0.006297,0.354183,0.001128,0.001155,-0.000139,0.001282,0.001002,-47.805976,0.002289,
2341,2653,1.7975201310665,0.106875700132981,-0.029651868146118,0.007121,-0.078309,-0.000650,0.298393,-3.580327,320.538858,20.658986,0.999287,0.989282,0.004287,0.405104,0.000106,0.000094,0.000020,0.000121,0.000079,36.742601,0.000201,
2371,2833,2.41785672369429,4.02969330347507,-0.0274673309532432,0.008418,-0.077168,-0.001273,0.360278,-3.537585,317.691851,21.205241,0.999651,0.991351,0.003812,0.378314,0.000030,0.000061,0.000021,0.000072,0.000019,63.419351,0.000096,
2281,3118,0.412716122167279,10.2133509930693,0.0161018621021753,0.009980,-0.077836,0.008449,0.401385,-3.535514,313.488918,21.615746,0.999752,0.994874,0.003112,0.380794,0.000008,-0.000005,0.000004,0.000009,-0.000007,15.712625,0.000009,
2086,2053,-3.65995787501938,-13.0191142387955,-0.00339732367638135,-0.001369,-0.082179,-0.032054,0.003072,-3.902543,330.802239,20.578653,0.998115,0.980418,0.005768,0.279629,0.001191,0.001135,0.000093,0.001260,0.001066,36.669474,0.002329,
2461,2008,4.54766549994332,-14.022579623587,0.0043381818431385,0.007822,-0.087962,-0.025931,0.417518,-4.113649,331.521317,17.687682,0.997902,0.973910,0.006582,0.337788,0.001618,0.001331,-0.000115,0.001659,0.001290,-19.374357,0.002956,
2236,2893,-0.526116851938607,5.32567712250113,-0.00187699948827458,0.008859,-0.076656,0.000669,0.377037,-3.503557,317.068546,21.147158,0.999692,0.992180,0.003572,0.396731,0.000027,0.000042,0.000013,0.000049,0.000019,59.923014,0.000070,
2146,2488,-2.41791099247596,-3.49656992580703,-0.0294266413848732,0.005896,-0.076877,-0.011373,0.278879,-3.548875,323.588283,20.671485,0.998877,0.986682,0.004940,0.445862,0.000289,0.000178,-0.000002,0.000289,0.000178,-0.802247,0.000471,
2251,2758,-0.179638852633691,2.39233324479196,-0.0337955887306975,0.007830,-0.077254,0.002329,0.323556,-3.523940,318.913953,20.964430,0.999179,0.989231,0.004194,0.376918,0.000073,0.000093,0.000007,0.000095,0.000070,71.891445,0.000166,
2491,2353,5.13030402623139,-6.44643306320182,-0.0111602047597898,0.007112,-0.078766,-0.018345,0.361866,-3.658165,325.830479,19.254701,0.998441,0.985700,0.005581,0.435355,0.000616,0.000426,-0.000092,0.000653,0.000388,-22.112599,0.001052,
2146,2233,-2.37867680432758,-9.0724616467837,-0.0148498610178649,0.001936,-0.079112,-0.021579,0.127090,-3.713756,327.673985,20.442776,0.998398,0.980161,0.005551,0.345436,0.000736,0.000736,0.000052,0.000788,0.000684,45.232666,0.001473,
2191,2368,-1.41837822595594,-6.11857676365346,-0.0161088774898417,0.004727,-0.077608,-0.015668,0.238549,-3.616614,325.444258,20.424968,0.999310,0.988001,0.004657,0.397059,0.000444,0.000384,0.000009,0.000446,0.000383,8.441661,0.000829,
2131,2203,-2.70123992360605,-9.73020097781477,-0.0139907475235077,0.001538,-0.080442,-0.018455,0.098663,-3.757005,328.195694,20.434375,0.997976,0.979747,0.005753,0.364875,0.000812,0.000842,0.000080,0.000909,0.000745,50.410731,0.001657,
2026,3208,-5.12859514906356,12.1426743650059,0.0544195407346137,0.010814,-0.075738,0.008486,0.450896,-3.439853,313.372991,20.576639,0.999564,0.993528,0.003223,0.436422,-0.000001,0.000013,-0.000027,0.000033,-0.000022,-52.408645,0.000034,
2296,2983,0.762450894116451,7.28506227348986,0.00509130635185784,0.009565,-0.076932,0.001749,0.404471,-3.513283,315.586982,21.471909,0.999213,0.989944,0.003923,0.344452,0.000012,0.000003,0.000008,0.000017,-0.000002,30.358077,0.000019,
2416,3148,3.34136358216664,10.873548572343,0.0339011996362046,0.010350,-0.077939,0.007779,0.415306,-3.542827,313.148903,22.181550,0.999757,0.994574,0.003046,0.437140,0.000008,-0.000013,0.000027,0.000027,-0.000031,34.521187,0.000034,
2131,3253,-2.86179532388501,13.126971495427,0.0367473619490397,0.011206,-0.076266,0.008132,0.465636,-3.471317,311.945125,21.085534,0.999620,0.995245,0.002876,0.419268,0.000006,-0.000006,-0.000021,0.000021,-0.000022,-36.685822,0.000025,
2161,2308,-2.06278184261632,-7.42974117506681,-0.0160454118997677,0.003522,-0.078004,-0.019399,0.194039,-3.628267,326.465971,20.537673,0.998191,0.983311,0.005438,0.326469,0.000579,0.000501,0.000026,0.000587,0.000493,16.989761,0.001082,
2041,3298,-4.81849979453061,14.0941016019853,0.0351574456055346,0.011315,-0.075458,0.006572,0.478917,-3.438127,311.674558,20.623598,0.999555,0.995143,0.003033,0.410602,0.000076,-0.000019,-0.000039,0.000090,-0.000033,-19.601345,0.000091,
2311,2563,1.16140440938789,-1.85817090542513,-0.0184128397239078,0.006525,-0.078387,-0.002722,0.278556,-3.583913,322.087554,20.451945,0.998972,0.987461,0.004609,0.429464,0.000188,0.000145,0.000010,0.000190,0.000143,13.065695,0.000334,
2251,2713,-0.171318901066844,1.41113702310115,-0.0283821429011937,0.007382,-0.077262,-0.003117,0.320760,-3.540500,319.688576,20.818225,0.999303,0.991515,0.003771,0.435827,0.000084,0.000102,0.000003,0.000102,0.000083,79.692718,0.000186,
2386,2878,2.73677180929476,5.00902782394768,-0.0171654261401954,0.008873,-0.077553,-0.000745,0.378978,-3.536822,317.071009,21.370175,0.999481,0.992035,0.003654,0.360552,0.000012,0.000031,0.000025,0.000048,-0.000005,55.337549,0.000053,
2221,2608,-0.805776861801487,-0.877628668871694,-0.032506020231267,0.007120,-0.077313,-0.006470,0.319771,-3.555280,321.423005,20.656796,0.998790,0.983738,0.004947,0.446920,0.000153,0.000095,0.000021,0.000160,0.000088,17.823283,0.000251,
2191,2473,-1.43683267383544,-3.82336940086765,-0.0230865073268092,0.005241,-0.077375,-0.004647,0.227827,-3.525234,323.677686,20.566089,0.998989,0.985036,0.005127,0.459509,0.000295,0.000210,0.000009,0.000296,0.000209,6.062002,0.000508,
2281,2923,0.445313610836919,5.9808563906441,-0.0087830028718372,0.008835,-0.077293,0.007102,0.353148,-3.514247,316.417021,21.280380,0.999585,0.992977,0.003477,0.386618,0.000019,0.000015,0.000010,0.000027,0.000007,38.670071,0.000036,
2446,1993,4.22144740079716,-14.35053085012,-0.00731030469211191,0.007341,-0.087877,-0.030683,0.412686,-4.139004,331.627907,17.742230,0.998677,0.976994,0.006084,0.307769,0.001614,0.001378,-0.000095,0.001647,0.001344,-19.459418,0.002996,
2206,2473,-1.10975005597194,-3.82306069933142,-0.0286513149668508,0.005479,-0.076506,-0.014899,0.271305,-3.554841,323.631941,20.512888,0.999176,0.984591,0.005145,0.447654,0.000288,0.000220,0.000014,0.000291,0.000217,11.117502,0.000510,
2071,2023,-3.98537755152192,-13.6759512298626,-0.0134831747443513,-0.003424,-0.082592,-0.028291,-0.102783,-3.890954,331.169807,20.611776,0.998083,0.983315,0.005644,0.355436,0.001321,0.001170,0.000103,0.001374,0.001117,26.897490,0.002495,
2116,2383,-3.05488809473663,-5.79161580422917,-0.0190465083460936,0.004006,-0.077920,-0.012578,0.195084,-3.623342,325.412674,20.650556,0.999023,0.984709,0.004927,0.424083,0.000446,0.000326,0.000025,0.000451,0.000321,11.338021,0.000776,
2476,2158,4.84403318590387,-10.7243550226754,-0.000931839709778615,0.007698,-0.083568,-0.018766,0.387501,-3.896768,329.060228,18.390902,0.997801,0.973484,0.006522,0.346379,0.001087,0.001068,-0.000153,0.001231,0.000924,-43.225847,0.002162,
2101,2293,-3.3688584730954,-7.75749149203376,-0.0216683650417053,0.002037,-0.077265,-0.019986,0.126351,-3.618552,326.840741,20.732551,0.998887,0.985996,0.004965,0.376941,0.000646,0.000563,0.000079,0.000694,0.000515,31.229512,0.001213,
2056,2173,-4.33243506089757,-10.3841887479424,-0.0265502549086705,-0.000134,-0.079106,-0.027192,0.045294,-3.734455,328.880701,20.842303,0.998773,0.987979,0.004830,0.360097,0.000905,0.000880,0.000131,0.001024,0.000761,42.200171,0.001792,
2236,2728,-0.500059305679265,1.73771041382567,-0.0259373463768497,0.007411,-0.076958,-0.001718,0.317906,-3.513430,319.492688,20.885403,0.999069,0.989965,0.004047,0.417098,0.000082,0.000086,0.000005,0.000089,0.000079,54.944837,0.000168,
2116,2173,-3.02390081683899,-10.3871131697821,-0.00706774862806014,0.000521,-0.080520,-0.018582,0.052013,-3.747161,328.752594,20.535376,0.998331,0.984715,0.005375,0.336503,0.000876,0.000914,0.000095,0.000992,0.000798,50.716786,0.001793,
2176,2398,-1.75057245652976,-5.46223348991334,-0.0221688815395282,0.004750,-0.077359,-0.013947,0.234140,-3.573166,324.951416,20.496366,0.998808,0.987088,0.004784,0.448085,0.000398,0.000317,-0.000002,0.000398,0.000317,-1.143304,0.000717,
2221,2548,-0.794817408852733,-2.18629434543734,-0.0208503161726981,0.006561,-0.076801,-0.010846,0.308219,-3.537460,322.480938,20.626611,0.999643,0.992019,0.003613,0.415770,0.000201,0.000149,0.000022,0.000209,0.000141,19.990582,0.000352,
2176,2608,-1.78503159773384,-0.877542715753378,-0.0343637067791747,0.006638,-0.076456,-0.008821,0.305467,-3.515347,321.522559,20.780379,0.998844,0.988503,0.004470,0.410024,0.000156,0.000080,0.000012,0.000158,0.000078,8.819305,0.000241,
2296,3193,0.726854857702357,11.8403856650788,0.037090906947185,0.010662,-0.077410,0.008220,0.433192,-3.522128,312.449843,21.830599,0.999657,0.992974,0.003402,0.383039,0.000012,0.000007,0.000011,0.000021,-0.000002,37.741120,0.000023,
2326,2638,1.47445629322256,-0.220954829831371,-0.0259999848752273,0.007249,-0.077844,-0.004670,0.318609,-3.575623,320.837720,20.630628,0.999275,0.988958,0.004187,0.412411,0.000126,0.000101,0.000016,0.000133,0.000094,25.895905,0.000228,
2461,2023,4.54437220250056,-13.6914376967086,0.000546401078338477,0.007850,-0.087198,-0.026410,0.420940,-4.087393,331.250557,17.818157,0.998579,0.978991,0.005908,0.291879,0.001556,0.001346,-0.000126,0.001615,0.001287,-25.066943,0.002908,
2236,2908,-0.529091796779095,5.65234337276501,-0.0047999362773794,0.008709,-0.076686,0.000225,0.371584,-3.503038,316.793975,21.203637,0.999625,0.992565,0.003613,0.361397,0.000025,0.000034,0.000012,0.000042,0.000017,56.015255,0.000061,
2206,2743,-1.15478848109569,2.06347970712474,-0.0302682585799516,0.007788,-0.076862,-0.001979,0.336584,-3.533806,319.305966,20.930453,0.999412,0.990359,0.004012,0.364579,0.000077,0.000080,0.000001,0.000080,0.000077,79.097906,0.000158,
2266,3058,0.0979335758432853,8.91055607273251,0.015181051716695,0.009803,-0.076855,0.004722,0.406495,-3.497348,314.490102,21.462417,0.999427,0.992608,0.003596,0.414364,0.000011,-0.000017,0.000000,0.000011,-0.000017,0.280631,0.000018,
2086,2068,-3.66381233304949,-12.6890662246472,-0.0136771736889045,-0.002097,-0.081933,-0.029210,-0.038453,-3.869323,330.434626,20.543329,0.997966,0.960579,0.007941,0.351351,0.001153,0.001131,0.000107,0.001250,0.001035,42.102392,0.002288,
2191,2683,-1.47027975650242,0.755104870795115,-0.0203296591124058,0.007174,-0.076859,-0.005519,0.319686,-3.525523,320.390556,20.805527,0.999608,0.993443,0.003450,0.434129,0.000117,0.000083,0.000015,0.000123,0.000077,21.145473,0.000202,
2131,2218,-2.7036953649299,-9.40090216312149,-0.0128224488826163,0.001470,-0.079536,-0.017513,0.093012,-3.700506,327.957698,20.488834,0.997810,0.978911,0.005829,0.375090,0.000777,0.000796,0.000078,0.000865,0.000708,48.338330,0.001576,
2086,2278,-3.69344284631297,-8.08624734276312,-0.0162060418014107,0.001682,-0.078335,-0.015022,0.095029,-3.627720,327.169368,20.784787,0.999111,0.988468,0.004537,0.375868,0.000679,0.000613,0.000093,0.000745,0.000547,35.223081,0.001297,
2101,2098,-3.33968589275342,-12.028926711733,-0.00674820910404605,-0.000603,-0.080842,-0.026649,0.023639,-3.825614,329.998975,20.753894,0.998957,0.957271,0.008407,0.097961,0.001064,0.001104,0.000107,0.001194,0.000975,50.268125,0.002173,
2161,2533,-2.09978917973024,-2.51386644248414,-0.0302488223075557,0.005606,-0.077173,-0.004802,0.245403,-3.557277,322.763912,20.742612,0.998779,0.987592,0.004601,0.366638,0.000230,0.000154,0.000017,0.000234,0.000150,11.884486,0.000387,
2506,2368,5.45607932802233,-6.11935672434203,-0.00645154454986141,0.008202,-0.079171,-0.015640,0.401465,-3.651607,325.711762,19.183064,0.998190,0.980847,0.005960,0.521946,0.000579,0.000413,-0.000108,0.000632,0.000360,-26.283581,0.001004,
2341,2668,1.79497729827657,0.434353424807149,-0.0236019522835136,0.007137,-0.078071,0.001995,0.289996,-3.563351,320.336755,20.777390,0.999574,0.992089,0.003929,0.340824,0.000094,0.000105,0.000020,0.000120,0.000079,52.740139,0.000200,
2356,2803,2.09804573162109,3.37438657220724,-0.0159084132110365,0.008306,-0.077581,-0.002004,0.357768,-3.552569,318.271911,21.068014,0.999809,0.995034,0.003238,0.405406,0.000046,0.000069,0.000022,0.000082,0.000033,58.695541,0.000119,
2266,2893,0.12519379408894,5.32769433113015,-0.0125179940499152,0.008938,-0.077053,-0.001093,0.385592,-3.540420,316.930156,21.185668,0.999564,0.990844,0.003762,0.374007,0.000026,0.000037,0.000015,0.000047,0.000016,54.947296,0.000066,
2416,3163,3.3385252707547,11.1990450191263,0.0346411956801944,0.010384,-0.077935,0.007573,0.417698,-3.542227,312.911552,22.225222,0.999715,0.993750,0.003203,0.440866,0.000008,-0.000007,0.000027,0.000029,-0.000028,37.458054,0.000033,
2116,2398,-3.05705994678219,-5.46314636959453,-0.0193271746760502,0.004198,-0.077243,-0.013313,0.206298,-3.569990,325.178853,20.679177,0.998705,0.985508,0.004921,0.454121,0.000421,0.000282,0.000022,0.000424,0.000279,8.826344,0.000708,
2131,2428,-2.73610450715577,-4.80532902724138,-0.0288382351183714,0.004613,-0.077170,-0.006500,0.205200,-3.538940,324.548721,20.763126,0.999036,0.988625,0.004536,0.369605,0.000371,0.000223,0.000016,0.000372,0.000222,6.024894,0.000600,
2071,2218,-4.01084106179518,-9.39913711494773,-0.0140926005594224,0.001064,-0.077962,-0.022957,0.089172,-3.646669,328.223138,20.838779,0.997737,0.980927,0.005613,0.369835,0.000796,0.000796,0.000120,0.000916,0.000676,44.998329,0.001598,
2056,2188,-4.33450363903863,-10.0559624312535,-0.0175084354179376,-0.000198,-0.078318,-0.022130,0.028342,-3.680531,328.697645,20.873496,0.998611,0.985461,0.005148,0.380046,0.000876,0.000853,0.000138,0.001003,0.000726,42.630193,0.001737,
2131,3268,-2.86480075484213,13.4527561359213,0.0277910871232621,0.011290,-0.075916,0.008003,0.470068,-3.459558,311.628518,21.112331,0.999663,0.995551,0.002808,0.408483,0.000011,0.000001,-0.000019,0.000026,-0.000014,-37.611379,0.000026,
2116,2188,-3.02663986320862,-10.0579230608907,-0.0143473595671253,0.000528,-0.080148,-0.020032,0.056758,-3.759079,328.455560,20.547880,0.998120,0.982931,0.005515,0.318430,0.000846,0.000876,0.000096,0.000958,0.000764,49.363366,0.001726,
2206,2488,-1.11266314690147,-3.4947221090879,-0.0336759160626912,0.005556,-0.076952,-0.013891,0.271503,-3.565058,323.347265,20.581678,0.999223,0.986055,0.004788,0.386890,0.000269,0.000202,0.000012,0.000271,0.000200,10.059291,0.000473,
2101,2308,-3.37043843165335,-7.42959327138432,-0.0231235374701555,0.002603,-0.076817,-0.024653,0.166116,-3.613117,326.626705,20.714298,0.999059,0.983683,0.005314,0.403909,0.000610,0.000505,0.000063,0.000639,0.000476,24.887580,0.001119,
2446,2008,4.21946032505462,-14.0230289947233,0.00201650308292756,0.007511,-0.087523,-0.031588,0.423981,-4.133763,331.476051,17.705986,0.998422,0.977859,0.006233,0.404627,0.001553,0.001351,-0.000100,0.001594,0.001310,-22.287236,0.002909,
2281,2938,0.442596005476126,6.30642481098234,-0.00678288478428613,0.008652,-0.077097,0.006552,0.346614,-3.515969,316.182758,21.283036,0.999521,0.992261,0.003622,0.409477,0.000019,0.000006,0.000005,0.000021,0.000004,18.634066,0.000026,
2161,2323,-2.06501783670934,-7.10264782734711,-0.0207353002450077,0.003789,-0.077679,-0.023434,0.218742,-3.654027,326.210421,20.450914,0.998632,0.985049,0.005094,0.399783,0.000551,0.000454,0.000017,0.000554,0.000452,9.412760,0.001007,
2236,2743,-0.502843635805132,2.06384549369946,-0.0242638385092846,0.007360,-0.077636,0.001324,0.305433,-3.550226,319.250840,20.918154,0.998847,0.987779,0.004565,0.368885,0.000076,0.000081,0.000005,0.000084,0.000073,57.343944,0.000157,
2281,3133,0.410688766150148,10.5380029448075,0.0209683359562405,0.010197,-0.077396,0.006666,0.417513,-3.526499,313.300617,21.590159,0.999629,0.994648,0.003275,0.442268,0.000005,-0.000002,0.000006,0.000008,-0.000006,29.274370,0.000009,
2191,2383,-1.42151979684082,-5.79141435498555,-0.0146514870623946,0.004388,-0.078229,-0.010212,0.205674,-3.624599,325.181778,20.408299,0.999013,0.987554,0.004732,0.421626,0.000417,0.000362,0.000008,0.000419,0.000361,8.517405,0.000780,
2251,2968,-0.212973813835479,6.95715897226369,-0.00300704305016097,0.009446,-0.076301,-0.000583,0.408004,-3.497773,315.835450,21.344169,0.999512,0.993650,0.003429,0.346153,0.000014,0.000004,0.000013,0.000023,-0.000005,34.719629,0.000024,
2401,3028,3.03610418441916,8.26856813765754,0.00490505646968131,0.009722,-0.078027,0.004342,0.399267,-3.558632,314.838350,21.790022,0.999570,0.989419,0.004045,0.392425,0.000010,-0.000004,0.000023,0.000027,-0.000022,36.739619,0.000029,
2146,2248,-2.38066571723088,-8.7437248142586,-0.0161771671620841,0.002544,-0.078739,-0.020436,0.151644,-3.673860,327.445529,20.447426,0.998401,0.981118,0.005516,0.390623,0.000703,0.000695,0.000051,0.000751,0.000647,42.619823,0.001399,
2311,2578,1.15772038356281,-1.52865400343336,-0.0323430443777966,0.006444,-0.077873,-0.005469,0.284430,-3.576158,321.732788,20.564994,0.999409,0.990927,0.003943,0.357618,0.000176,0.000144,0.000014,0.000181,0.000139,19.948992,0.000320,
2026,3223,-5.13113971363762,12.4680209634078,0.0534502105218735,0.010735,-0.075838,0.009495,0.444406,-3.445119,313.113146,20.608998,0.999591,0.993884,0.003108,0.387815,0.000003,-0.000003,-0.000030,0.000030,-0.000030,-41.913103,0.000035,
2491,2368,5.12718037594747,-6.11768428525897,-0.0154175045761917,0.007780,-0.079400,-0.014321,0.376825,-3.664979,325.566618,19.324917,0.997955,0.983442,0.005637,0.419123,0.000586,0.000409,-0.000090,0.000623,0.000371,-22.734513,0.001005,
2071,2038,-3.9870455246368,-13.3470706424944,-0.0127769963459059,-0.003141,-0.081861,-0.032556,-0.077495,-3.881771,330.960501,20.605107,0.998215,0.983696,0.005474,0.371497,0.001267,0.001115,0.000100,0.001317,0.001066,26.306630,0.002387,
2506,2383,5.45231957842641,-5.79017774990002,-0.00925310698687554,0.007861,-0.079486,-0.015000,0.383264,-3.689133,325.426549,19.342729,0.998397,0.981562,0.005498,0.387510,0.000543,0.000395,-0.000119,0.000609,0.000330,-29.036013,0.000953,
2146,2503,-2.41995370367367,-3.16842142635648,-0.0380923885404059,0.006688,-0.076571,-0.014354,0.324410,-3.563395,323.318718,20.698076,0.998705,0.985124,0.005070,0.414054,0.000272,0.000169,0.000001,0.000272,0.000169,0.382309,0.000445,
2221,2818,-0.840397090639637,3.69487205547973,-0.0130635951329623,0.008338,-0.077226,0.003327,0.344579,-3.522260,318.199012,21.041355,0.999480,0.990828,0.003939,0.363852,0.000053,0.000073,0.000004,0.000074,0.000052,78.371881,0.000127,
2476,2173,4.8412027243074,-10.3943182996958,-0.00389261851717038,0.007957,-0.082989,-0.021515,0.410014,-3.883105,328.815182,18.499682,0.997244,0.965054,0.007242,0.310703,0.001031,0.001038,-0.000161,0.001195,0.000874,-45.610482,0.002078,
2371,2848,2.41507425981326,4.35560076713628,-0.0254997851586154,0.008353,-0.077308,-0.001260,0.357232,-3.537239,317.460886,21.214499,0.999581,0.990574,0.003852,0.410252,0.000027,0.000048,0.000022,0.000062,0.000013,57.816925,0.000080,
2206,2758,-1.15678478232412,2.38945389259321,-0.0245054894213581,0.007999,-0.076791,-0.001639,0.345281,-3.517963,319.119119,20.932334,0.999370,0.990306,0.004007,0.395318,0.000073,0.000081,0.000001,0.000081,0.000072,80.029909,0.000153,
2086,2293,-3.69620803945827,-7.75755940615481,-0.0216490008166375,0.001452,-0.077705,-0.017095,0.090648,-3.613904,326.878026,20.784486,0.999546,0.991738,0.004110,0.391335,0.000655,0.000568,0.000093,0.000714,0.000509,32.432707,0.001230,
2206,2608,-1.13234326251538,-0.878056672698932,-0.024109957548319,0.006568,-0.077287,-0.002340,0.281395,-3.535432,321.493583,20.727409,0.998713,0.985973,0.004782,0.411757,0.000158,0.000091,0.000023,0.000165,0.000084,17.009576,0.000253,
2056,2203,-4.33636000527747,-9.726452330923,-0.0223871840398147,0.000411,-0.077907,-0.023665,0.060748,-3.649739,328.447748,20.902976,0.998435,0.981983,0.005473,0.378602,0.000839,0.000824,0.000134,0.000966,0.000698,43.456229,0.001670,
2176,2413,-1.7528410182317,-5.13481171956338,-0.0194640692888015,0.004805,-0.077410,-0.013890,0.236493,-3.592807,324.734198,20.536689,0.998684,0.985813,0.004882,0.401821,0.000381,0.000292,-0.000006,0.000381,0.000291,-3.571665,0.000675,
2296,2998,0.759731695315715,7.60989030273821,0.0101644742376266,0.009498,-0.077155,0.005535,0.388571,-3.505052,315.369018,21.432750,0.999359,0.991474,0.003698,0.421039,0.000012,0.000001,0.000005,0.000014,-0.000001,20.813656,0.000016,
2311,2803,1.11826849471912,3.37315715078432,-0.0236250242929827,0.008071,-0.077240,-0.001719,0.346863,-3.540236,318.210480,21.051306,0.999409,0.991913,0.003794,0.395908,0.000048,0.000067,0.000020,0.000080,0.000036,57.706797,0.000118,
2236,2923,-0.53238891587937,5.97757436572464,-0.0117665457457861,0.008781,-0.076897,0.003502,0.364209,-3.507877,316.484381,21.109302,0.999536,0.992894,0.003637,0.471838,0.000023,0.000020,0.000012,0.000033,0.000010,41.394617,0.000045,
2311,3283,1.03459971012521,13.7938985750594,0.0135239590239848,0.011274,-0.077231,0.008332,0.460594,-3.525066,310.788488,22.059255,0.999556,0.994437,0.002958,0.407280,-0.000010,0.000010,0.000010,0.000014,-0.000014,66.556198,0.000016,
2191,2488,-1.43933181277051,-3.49545049077238,-0.0319326821950767,0.005377,-0.077071,-0.012077,0.257430,-3.561132,323.390949,20.586306,0.998882,0.983238,0.005357,0.419484,0.000276,0.000195,0.000008,0.000276,0.000195,5.661742,0.000473,
2131,2443,-2.73805284785211,-4.47984513225529,-0.023793727526197,0.004607,-0.076981,-0.008632,0.211353,-3.551177,324.355640,20.649836,0.999085,0.988683,0.004595,0.477602,0.000348,0.000204,0.000011,0.000349,0.000203,4.449220,0.000559,
2251,2773,-0.181240457530521,2.71719160568781,-0.022264662783698,0.007963,-0.077244,0.000975,0.334086,-3.539659,318.777614,20.945556,0.999265,0.988498,0.004193,0.403238,0.000068,0.000082,0.000007,0.000085,0.000065,67.417771,0.000150,
2386,2893,2.73417399461635,5.33484664882818,-0.0176215109836448,0.008977,-0.077119,-0.003639,0.394331,-3.525784,316.837916,21.354917,0.999470,0.992569,0.003640,0.430046,0.000014,0.000017,0.000024,0.000040,-0.000008,46.652220,0.000042,
2221,2623,-0.808536268588089,-0.550630730525235,-0.0281791522397725,0.007044,-0.077636,-0.001010,0.298659,-3.545469,321.194662,20.709312,0.998927,0.985646,0.004816,0.423770,0.000141,0.000089,0.000019,0.000147,0.000082,18.156764,0.000233,
2221,2563,-0.798042761195848,-1.85931411261929,-0.0230523890890595,0.006603,-0.077631,-0.003510,0.286369,-3.540692,322.197932,20.614521,0.999425,0.991489,0.003778,0.444580,0.000188,0.000147,0.000021,0.000197,0.000138,22.857975,0.000337,
2191,2698,-1.47304241340355,1.08132409168202,-0.0213334573727479,0.007120,-0.076283,-0.004189,0.313210,-3.502818,320.132419,20.750318,0.999665,0.994793,0.003163,0.526917,0.000108,0.000088,0.000015,0.000116,0.000080,28.686874,0.000197,
2461,2038,4.54192292333604,-13.3612009372058,-0.00113135370321515,0.008503,-0.086061,-0.027282,0.454587,-4.038769,331.027929,17.873463,0.998846,0.979164,0.005908,0.343144,0.001491,0.001316,-0.000124,0.001555,0.001252,-27.394628,0.002813,
2176,2623,-1.78731194694531,-0.551320333373724,-0.0313876311026888,0.006847,-0.076826,-0.006284,0.307131,-3.525596,321.306293,20.769527,0.999123,0.988618,0.004400,0.423736,0.000148,0.000071,0.000010,0.000149,0.000070,7.248231,0.000224,
2071,2053,-3.98825449462793,-13.0176444128748,-0.0109883255374825,-0.002219,-0.081027,-0.032922,-0.033918,-3.859605,330.777896,20.652562,0.997678,0.976300,0.006280,0.346050,0.001224,0.001112,0.000102,0.001284,0.001052,30.654945,0.002340,
2266,2908,0.122987409163809,5.65403496407061,-0.00758367208874233,0.009167,-0.076612,0.000242,0.391929,-3.513299,316.732901,21.243487,0.999662,0.992618,0.003494,0.368371,0.000024,0.000031,0.000013,0.000041,0.000014,52.482793,0.000057,
2311,2593,1.15591061582279,-1.20271672330419,-0.0226678884097282,0.006770,-0.077635,-0.004040,0.294680,-3.549852,321.580740,20.542640,0.999522,0.991690,0.003744,0.438873,0.000166,0.000122,0.000015,0.000170,0.000117,17.356726,0.000289,
2101,2113,-3.34130726296164,-11.7040223875187,0.00285666930750494,-0.000369,-0.081160,-0.024136,0.026927,-3.832486,329.843064,20.524961,0.998702,0.978190,0.006047,0.323897,0.001028,0.001069,0.000110,0.001161,0.000936,50.288925,0.002101,
2161,2338,-2.06805718681642,-6.77340508413155,-0.0249131955324629,0.003740,-0.077557,-0.019930,0.205808,-3.617905,325.920097,20.509818,0.999076,0.988366,0.004492,0.389183,0.000515,0.000426,0.000011,0.000516,0.000425,6.824284,0.000942,
2281,3148,0.408757285730015,10.8627133780394,0.0369304680006053,0.010384,-0.077751,0.014191,0.400735,-3.527591,313.172249,21.650860,0.999465,0.993532,0.003671,0.406755,0.000004,-0.000001,0.000007,0.000009,-0.000006,35.861200,0.000009,
2266,3073,0.0958444303639787,9.23521776824937,0.0289803804336657,0.009652,-0.077009,0.007920,0.388840,-3.505190,314.343194,21.497464,0.999324,0.991621,0.003814,0.396170,0.000010,-0.000019,-0.000002,0.000010,-0.000019,-3.951086,0.000019,
2221,2833,-0.84318439595096,4.02063311984783,-0.0136837380372299,0.008122,-0.077168,0.002100,0.338545,-3.539659,317.944093,21.027799,0.999297,0.990720,0.003931,0.378909,0.000052,0.000065,0.000011,0.000071,0.000045,60.375727,0.000117,
2116,2203,-3.0279881244753,-9.72945504637271,-0.0173996111693668,0.001600,-0.079926,-0.022316,0.112719,-3.764953,328.244792,20.538814,0.997124,0.978523,0.006005,0.327584,0.000813,0.000841,0.000092,0.000920,0.000734,49.224562,0.001657,
2191,2398,-1.42309221609918,-5.4639592047324,-0.00679217287176925,0.004731,-0.077701,-0.011284,0.225011,-3.587217,325.024084,20.439012,0.999016,0.986377,0.004950,0.444349,0.000393,0.000323,0.000004,0.000393,0.000323,3.649655,0.000717,
2206,2773,-1.15905601526125,2.71601790924446,-0.0192870019715201,0.008129,-0.076924,0.000884,0.343258,-3.503280,318.916677,20.988965,0.999299,0.989978,0.004180,0.370163,0.000068,0.000070,0.000004,0.000073,0.000065,53.746583,0.000138,
2326,3118,1.39127066711504,10.2166076513671,0.021966663272508,0.010391,-0.077022,0.001548,0.442578,-3.521918,313.535862,21.786026,0.999409,0.992634,0.003572,0.403112,0.000005,-0.000005,0.000012,0.000013,-0.000014,34.250149,0.000015,
2071,2233,-4.01368532709881,-9.07048829118383,-0.0137274807694894,0.000763,-0.078161,-0.018541,0.062730,-3.631363,327.958431,20.870773,0.998392,0.984896,0.005084,0.352704,0.000766,0.000731,0.000105,0.000855,0.000642,40.324146,0.001502,
2086,2083,-3.66872746162633,-12.3557323495568,-0.0431596160875642,-0.002262,-0.082054,-0.020135,-0.072206,-3.828146,329.913939,20.594709,0.998061,0.947750,0.009455,0.344880,0.001111,0.001121,0.000116,0.001232,0.001000,46.309061,0.002236,
2146,2263,-2.38315330555904,-8.41454710221473,-0.0209826749706963,0.002913,-0.078771,-0.018939,0.164052,-3.655161,327.175895,20.483458,0.998408,0.982204,0.005561,0.383876,0.000676,0.000653,0.000046,0.000712,0.000617,38.118729,0.001330,
2506,2398,5.44776302459231,-5.46039481014779,-0.0217444735358754,0.007463,-0.079281,-0.015279,0.366262,-3.689419,325.061223,19.433055,0.998277,0.983977,0.005212,0.360328,0.000515,0.000361,-0.000105,0.000568,0.000308,-26.790566,0.000889,
2116,2413,-3.05896228390407,-5.13392012501257,-0.0229990599314647,0.004701,-0.076566,-0.016885,0.240198,-3.566668,324.939209,20.799595,0.999102,0.987635,0.004668,0.341991,0.000401,0.000255,0.000022,0.000405,0.000252,8.375788,0.000662,
2086,2308,-3.69781392611063,-7.42935283923365,-0.0250853315096151,0.002397,-0.077497,-0.016948,0.133686,-3.608252,326.650692,20.774086,0.999371,0.989032,0.004521,0.408585,0.000616,0.000506,0.000075,0.000654,0.000468,26.843647,0.001127,
2371,2863,2.41275913626984,4.68156358372094,-0.0170822095361132,0.008598,-0.077453,0.003165,0.352733,-3.526118,317.282204,21.269992,0.999505,0.991268,0.003777,0.406655,0.000022,0.000039,0.000020,0.000052,0.000009,56.828758,0.000066,
2131,2233,-2.70511420753728,-9.07219148799358,-0.00987609420309354,0.002128,-0.079044,-0.019582,0.129530,-3.677173,327.776805,20.545953,0.998111,0.980907,0.005633,0.349257,0.000743,0.000735,0.000064,0.000803,0.000675,43.153311,0.001481,
2311,3298,1.03126487008733,14.1187815923107,0.00781192158268595,0.011129,-0.077106,0.007988,0.455155,-3.518341,310.488963,22.039053,0.999611,0.994789,0.002911,0.464858,-0.000014,-0.000013,0.000017,0.000004,-0.000030,45.885689,0.000033,
2491,2383,5.12349644207078,-5.78999974088723,-0.0109896450759948,0.007463,-0.080188,-0.006599,0.332452,-3.669758,325.316065,19.385366,0.998198,0.981444,0.005635,0.414275,0.000556,0.000390,-0.000098,0.000602,0.000345,-24.833174,0.000958,
2176,2428,-1.75502898310339,-4.80661847606795,-0.0227029143205755,0.005431,-0.077604,-0.012628,0.261289,-3.585499,324.489354,20.569170,0.998787,0.986805,0.004814,0.390520,0.000357,0.000255,-0.000001,0.000357,0.000255,-0.562313,0.000616,
2251,2983,-0.215516247312937,7.28220281937344,0.00373314911547595,0.009315,-0.076650,0.002469,0.391828,-3.507586,315.631300,21.350377,0.999557,0.992786,0.003556,0.352570,0.000015,0.000007,0.000010,0.000022,0.000000,33.736862,0.000025,
2236,2758,-0.505110471307162,2.39100155395716,-0.0270669639808716,0.007862,-0.077114,0.000388,0.331778,-3.526783,319.009483,20.953319,0.999154,0.988691,0.004249,0.378587,0.000071,0.000083,0.000009,0.000087,0.000067,61.647498,0.000154,
2356,2818,2.09525132762814,3.70084242625095,-0.0166932892820455,0.008392,-0.077442,-0.002316,0.362867,-3.557059,318.026058,21.101995,0.999625,0.992750,0.003603,0.405671,0.000036,0.000069,0.000022,0.000080,0.000025,63.021811,0.000109,
2101,2323,-3.37161725017279,-7.10245180344755,-0.0106497420192113,0.003369,-0.076982,-0.018589,0.183542,-3.592163,326.506193,20.754914,0.999123,0.986900,0.004780,0.386975,0.000572,0.000451,0.000050,0.000589,0.000433,19.643742,0.001026,
2281,2953,0.44089204494102,6.63286709382128,-0.00934988504144485,0.009363,-0.076650,-0.000244,0.402331,-3.509972,315.971939,21.330158,0.999257,0.989980,0.004007,0.395765,0.000017,-0.000002,0.000007,0.000019,-0.000004,18.704805,0.000021,
2476,2188,4.83857676379308,-10.0652341844602,-0.00250465675736677,0.008007,-0.082558,-0.024808,0.425012,-3.870313,328.599172,18.573986,0.997495,0.970413,0.007028,0.308410,0.000993,0.001018,-0.000148,0.001154,0.000857,-47.427755,0.002019,
2461,2053,4.53877718775462,-13.0331555676953,0.00323594886731371,0.007949,-0.086707,-0.028311,0.432892,-4.106940,330.801602,17.919209,0.998542,0.980343,0.005881,0.286726,0.001435,0.001292,-0.000127,0.001509,0.001218,-30.276868,0.002732,
2101,2128,-3.34465732677616,-11.37549441114,0.000886219325366255,-0.001017,-0.081635,-0.020339,-0.014021,-3.836039,329.545292,20.501988,0.998544,0.986892,0.005239,0.347913,0.000986,0.001043,0.000111,0.001129,0.000900,52.185414,0.002033,
2131,2458,-2.74045035206324,-4.14965641750354,-0.028531686388078,0.004965,-0.076561,-0.008531,0.227649,-3.516559,324.088635,20.833580,0.999111,0.989358,0.004564,0.335464,0.000327,0.000176,0.000005,0.000327,0.000176,1.727716,0.000511,
2251,2788,-0.183592860989226,3.04390833158801,-0.021446819429741,0.008123,-0.077003,-0.000340,0.345859,-3.527623,318.551994,20.989348,0.999402,0.989111,0.004117,0.394695,0.000062,0.000078,0.000006,0.000080,0.000060,71.322656,0.000140,
2191,2503,-1.44122911590145,-3.16894954276629,-0.0218053995845935,0.005663,-0.077319,-0.007107,0.254920,-3.554057,323.230402,20.612419,0.999095,0.986217,0.004852,0.415553,0.000260,0.000181,0.000011,0.000262,0.000180,7.996740,0.000444,
2341,2683,1.79210388511355,0.76135429798461,-0.0304078992905374,0.007391,-0.077961,-0.000706,0.311150,-3.565178,320.057230,20.768341,0.999565,0.991846,0.003878,0.385258,0.000084,0.000113,0.000023,0.000126,0.000072,61.021774,0.000200,
2221,2638,-0.811569178706918,-0.223475111895652,-0.0372907163115883,0.007068,-0.077362,-0.003607,0.308210,-3.536348,320.884830,20.667249,0.998867,0.986936,0.004739,0.494703,0.000129,0.000077,0.000020,0.000136,0.000070,18.516266,0.000209,
2341,2713,1.78683837279911,1.41472968790892,-0.0323021636208978,0.007611,-0.077833,-0.004500,0.334609,-3.557976,319.577075,20.793644,0.999370,0.990311,0.004007,0.441205,0.000072,0.000125,0.000029,0.000138,0.000059,65.799771,0.000202,
2311,2608,1.1531847669334,-0.875994491959439,-0.0221786880760533,0.006909,-0.078129,-0.002158,0.294442,-3.575370,321.341440,20.568376,0.999574,0.991896,0.003639,0.420540,0.000149,0.000107,0.000019,0.000156,0.000099,20.914520,0.000258,
2266,3088,0.0933627429156552,9.56064506611747,0.0264387054764939,0.009874,-0.077374,0.005322,0.407554,-3.536755,314.095640,21.524646,0.999572,0.992595,0.003557,0.362070,0.000012,-0.000017,-0.000005,0.000013,-0.000018,-9.041544,0.000018,
2161,2548,-2.10179472892674,-2.18690684187134,-0.0304692695834206,0.005990,-0.076733,-0.006441,0.268268,-3.528030,322.542074,20.708353,0.998857,0.987730,0.004470,0.441492,0.000220,0.000135,0.000017,0.000223,0.000131,10.877000,0.000358,
2146,2278,-2.38539534920794,-8.0878157040019,-0.0198486839360044,0.003188,-0.079271,-0.016467,0.169050,-3.680807,326.949539,20.406300,0.998187,0.982264,0.005600,0.445284,0.000645,0.000604,0.000037,0.000667,0.000582,30.332850,0.001250,
2311,2818,1.11575166652507,3.69993050780155,-0.0225599319133494,0.008269,-0.077195,-0.001387,0.354870,-3.542856,317.982907,21.126612,0.999519,0.990256,0.003920,0.349867,0.000040,0.000066,0.000018,0.000076,0.000031,62.525621,0.000110,
2446,2023,4.21653458039073,-13.6910371444712,-0.000766027382894663,0.007826,-0.086189,-0.031677,0.439305,-4.055603,331.224957,17.873458,0.998739,0.980899,0.005572,0.371407,0.001495,0.001356,-0.000113,0.001558,0.001293,-29.149406,0.002855,
2086,2323,-3.6993695077015,-7.10162135027115,-0.0210599616975173,0.003185,-0.077271,-0.012634,0.157499,-3.561931,326.466074,20.759406,0.999107,0.987847,0.004682,0.470354,0.000577,0.000447,0.000064,0.000603,0.000421,22.149497,0.001029,
2386,2908,2.73024085743883,5.66141673690489,-0.0188238681949997,0.008759,-0.077811,0.005529,0.351109,-3.538504,316.539619,21.431705,0.999407,0.991351,0.003823,0.383292,0.000009,0.000006,0.000022,0.000029,-0.000014,42.623117,0.000029,
2266,2923,0.120236929670842,5.97891884216647,-0.00297053124830882,0.009061,-0.077218,0.004156,0.373846,-3.539004,316.509524,21.221369,0.999663,0.993047,0.003601,0.389877,0.000023,0.000019,0.000013,0.000034,0.000008,40.139368,0.000044,
2326,2653,1.47100764922438,0.10740270833201,-0.0371639359941014,0.007418,-0.077734,-0.004924,0.327299,-3.567065,320.508866,20.688950,0.999372,0.989958,0.004039,0.397941,0.000110,0.000098,0.000016,0.000121,0.000087,34.147698,0.000209,
2296,3208,0.723814165052779,12.1656950914742,0.0353601362589302,0.010597,-0.077260,0.009386,0.426280,-3.520515,312.182605,21.851182,0.999730,0.994064,0.003155,0.392824,0.000014,0.000011,0.000014,0.000026,-0.000001,42.045261,0.000030,
2341,2038,1.91282871147427,-13.3577287684092,-0.0109611849120483,0.003994,-0.086496,-0.025069,0.236054,-4.089249,330.587026,18.656339,0.998557,0.982078,0.005618,0.316189,0.001301,0.001303,-0.000074,0.001376,0.001228,-45.333179,0.002605,
2176,2638,-1.78941390983696,-0.224929760932476,-0.029059507348677,0.007283,-0.077036,-0.003720,0.319123,-3.538114,321.094770,20.775072,0.999431,0.990243,0.004084,0.418477,0.000137,0.000062,0.000011,0.000139,0.000060,7.932484,0.000204,
2506,2413,5.44532968263846,-5.13289635143675,-0.0178838024487504,0.007502,-0.078612,-0.018913,0.382407,-3.670273,324.866425,19.456864,0.998853,0.984415,0.005136,0.418229,0.000479,0.000323,-0.000083,0.000515,0.000287,-23.438504,0.000813,
2161,2353,-2.07018587315612,-6.4452602645343,-0.0277302099123631,0.004371,-0.077381,-0.018427,0.230239,-3.607244,325.678900,20.512580,0.998866,0.986558,0.004747,0.408996,0.000483,0.000390,0.000009,0.000484,0.000389,5.680938,0.000875,
2356,2833,2.09214250936786,4.02801284000392,-0.0194835884241797,0.008426,-0.077302,-0.001277,0.360895,-3.534190,317.755787,21.163743,0.999641,0.991294,0.003859,0.405712,0.000032,0.000062,0.000023,0.000075,0.000019,61.394230,0.000099,
2206,2788,-1.16164517647282,3.04180488856075,-0.023414995544897,0.008287,-0.077031,-0.000889,0.356078,-3.535004,318.651664,20.951629,0.999104,0.988384,0.004394,0.392516,0.000061,0.000069,0.000003,0.000070,0.000060,71.686991,0.000130,
2311,3043,1.07809454487004,8.5878975129429,0.0181991138123294,0.009721,-0.077302,0.006151,0.396194,-3.515680,314.694585,21.595800,0.999560,0.991989,0.003600,0.383534,0.000003,-0.000002,0.000013,0.000014,-0.000013,40.040947,0.000016,
2191,2713,-1.47606893808089,1.41010586038111,-0.0362088062577754,0.007683,-0.076769,-0.004119,0.338747,-3.532310,319.789482,20.874369,0.999238,0.990587,0.003914,0.388483,0.000098,0.000086,0.000012,0.000105,0.000078,31.169412,0.000184,
2221,2848,-0.846120610220666,4.34764674527841,-0.0200578193619663,0.008199,-0.077003,0.001356,0.344601,-3.526125,317.652343,21.059847,0.999181,0.990794,0.003879,0.379339,0.000047,0.000063,0.000015,0.000072,0.000038,58.849091,0.000112,
2206,2623,-1.13453815158853,-0.551249107141636,-0.0221135398163597,0.006802,-0.077131,-0.002424,0.292479,-3.542066,321.278172,20.758022,0.999012,0.986208,0.004804,0.391591,0.000147,0.000086,0.000021,0.000153,0.000079,17.198854,0.000236,
2131,2248,-2.70748453588038,-8.74374699749922,-0.0178940684010627,0.002664,-0.079001,-0.019898,0.155092,-3.701813,327.494376,20.518966,0.998314,0.982172,0.005549,0.359700,0.000711,0.000699,0.000061,0.000766,0.000643,42.177134,0.001411,
2146,2518,-2.42317771898181,-2.84061659837604,-0.0417192907709705,0.006402,-0.076840,-0.010780,0.300374,-3.563009,323.021745,20.730092,0.998841,0.986550,0.004786,0.391567,0.000253,0.000159,0.000008,0.000254,0.000158,4.838393,0.000415,
2281,3163,0.406163061415779,11.189048003818,0.0333010741078965,0.010507,-0.077303,0.010290,0.419741,-3.509056,312.914696,21.725419,0.999484,0.992332,0.003658,0.377526,0.000006,0.000003,0.000010,0.000014,-0.000005,41.016395,0.000015,
2326,3133,1.38808039466809,10.541960665803,0.0196770431692244,0.010216,-0.077132,0.002051,0.432700,-3.544731,313.261434,21.813156,0.999233,0.991507,0.003722,0.386295,0.000002,-0.000005,0.000014,0.000013,-0.000016,38.614341,0.000017,
2446,2038,4.21397941682816,-13.3616034869538,0.00324956180435265,0.008149,-0.085804,-0.029249,0.445247,-4.030687,331.022386,17.943328,0.998332,0.978983,0.006014,0.382155,0.001432,0.001322,-0.000113,0.001503,0.001252,-31.998968,0.002758,
2116,2218,-3.03029614063688,-9.40068823772092,-0.0133246895036905,0.001608,-0.079601,-0.019135,0.103806,-3.707382,328.027956,20.573852,0.997697,0.980661,0.005750,0.355835,0.000780,0.000795,0.000091,0.000879,0.000696,47.390806,0.001579,
2296,3013,0.756644584983768,7.93609492208045,0.00473608679607196,0.009536,-0.077221,0.005130,0.391624,-3.518186,315.081540,21.474463,0.999056,0.988545,0.004213,0.395399,0.000011,-0.000013,0.000006,0.000012,-0.000014,14.132408,0.000015,
2236,2773,-0.507499013493796,2.71727831110537,-0.0278651713016416,0.007973,-0.076693,-0.002324,0.345774,-3.533429,318.773038,20.958365,0.999198,0.987846,0.004246,0.388019,0.000065,0.000073,0.000009,0.000079,0.000059,56.634937,0.000139,
2491,2398,5.1201166713184,-5.46111287976969,-0.0168560351970086,0.007259,-0.079976,-0.011473,0.341877,-3.696576,325.033090,19.483514,0.999202,0.987822,0.004657,0.350185,0.000528,0.000366,-0.000089,0.000567,0.000326,-23.761212,0.000905,
2191,2413,-1.4265251363462,-5.13434346526745,-0.0212113430618501,0.004608,-0.077347,-0.014458,0.229374,-3.603209,324.665408,20.512885,0.998909,0.987914,0.004670,0.371098,0.000374,0.000296,-0.000001,0.000374,0.000296,-0.370220,0.000671,
2191,2518,-1.44329221222898,-2.84302915049997,-0.0160726987155044,0.005743,-0.077358,-0.007063,0.258468,-3.548824,323.039591,20.550968,0.999170,0.988277,0.004621,0.497890,0.000244,0.000172,0.000019,0.000249,0.000168,13.624898,0.000420,
2236,2938,-0.53484510482323,6.30411245330617,-0.00552721899407516,0.008740,-0.076657,0.006408,0.352975,-3.489254,316.280332,21.210274,0.999473,0.993253,0.003528,0.409931,0.000020,0.000014,0.000005,0.000023,0.000011,30.710208,0.000035,
2401,3043,3.03399707446744,8.59412075554034,0.0129256197710106,0.009777,-0.077679,0.002776,0.407678,-3.535082,314.668479,21.834256,0.999653,0.991082,0.003769,0.416658,0.000007,0.000007,0.000028,0.000034,-0.000021,44.883677,0.000035,
2326,2878,1.43202828255482,5.00457448151474,-0.0158492195022291,0.008941,-0.077292,-0.001821,0.387078,-3.542553,317.084649,21.197432,0.999472,0.991493,0.003805,0.431387,0.000015,0.000043,0.000024,0.000057,0.000001,60.078800,0.000066,
2416,3178,3.33578746484119,11.5245822080363,0.0339988725887679,0.010606,-0.077832,0.007064,0.429783,-3.549474,312.672263,22.276013,0.999585,0.992759,0.003422,0.429056,0.000008,-0.000004,0.000027,0.000029,-0.000026,38.723233,0.000032,
2131,2473,-2.74245007956986,-3.8236773098898,-0.0229482633684484,0.005110,-0.077148,-0.007196,0.230127,-3.545021,323.896024,20.795802,0.999081,0.988171,0.004702,0.351625,0.000309,0.000173,0.000008,0.000309,0.000172,3.500877,0.000488,
2311,2833,1.11369060025013,4.02582863933593,-0.0127669057897606,0.008208,-0.077227,-0.001880,0.353763,-3.541791,317.819449,21.188001,0.999696,0.992491,0.003624,0.321601,0.000031,0.000059,0.000020,0.000070,0.000021,62.869821,0.000095,
2086,2338,-3.70069408129158,-6.77408228599256,-0.0165828541989868,0.003431,-0.076568,-0.020134,0.190649,-3.571108,326.294762,20.791355,0.998825,0.986155,0.004859,0.429815,0.000538,0.000404,0.000058,0.000560,0.000382,20.463775,0.000948,
2266,2938,0.11679030881637,6.30452944749111,-0.00364936524675841,0.008631,-0.077283,0.007889,0.341650,-3.529788,316.227225,21.197501,0.999501,0.991844,0.003695,0.448183,0.000022,0.000010,0.000008,0.000026,0.000006,26.086829,0.000034,
2101,2338,-3.37409921275541,-6.77477286189659,-0.0182442122746806,0.003642,-0.077385,-0.019949,0.199900,-3.626135,326.218058,20.705175,0.999215,0.988680,0.004465,0.406092,0.000531,0.000412,0.000042,0.000545,0.000399,17.622513,0.000948,
2176,2443,-1.75808668720238,-4.47908733100373,-0.0262793080092933,0.005006,-0.077450,-0.014313,0.247031,-3.596239,324.203116,20.561463,0.999039,0.986939,0.004759,0.401335,0.000334,0.000238,0.000001,0.000334,0.000238,0.750264,0.000575,
2341,2698,1.79017748967514,1.08662312817448,-0.02203883366235,0.007575,-0.078100,-0.001501,0.322377,-3.561244,319.895148,20.724271,0.999620,0.992823,0.003750,0.470100,0.000080,0.000125,0.000027,0.000138,0.000067,64.722460,0.000209,
2161,2563,-2.10388608950884,-1.86080325437941,-0.0181169220858806,0.005825,-0.077202,-0.002492,0.248416,-3.534533,322.382779,20.746964,0.998872,0.987092,0.004539,0.406860,0.000209,0.000132,0.000013,0.000211,0.000130,9.682607,0.000344,
2266,3103,0.090970397115381,9.88679688992041,0.0225512483071952,0.010289,-0.076764,0.002797,0.435350,-3.502275,313.845079,21.548537,0.999700,0.994072,0.003287,0.397378,0.000009,-0.000013,-0.000003,0.000009,-0.000014,-6.869909,0.000014,
2236,2788,-0.509640908500071,3.04347680475122,-0.0231341233795774,0.008205,-0.076732,-0.001332,0.353226,-3.527161,318.576065,20.990846,0.999372,0.989313,0.004120,0.382913,0.000059,0.000071,0.000007,0.000075,0.000055,66.061822,0.000130,
2251,2803,-0.186553121866179,3.37098711598934,-0.0283283776530538,0.008305,-0.076799,-0.000567,0.355125,-3.510429,318.259340,21.006363,0.999391,0.989475,0.004222,0.418501,0.000053,0.000075,0.000006,0.000076,0.000051,75.448074,0.000129,
2176,2653,-1.79292831905074,0.103954681615434,-0.0439547192834766,0.007003,-0.076184,-0.008196,0.320411,-3.520478,320.727658,20.839139,0.999542,0.989935,0.004102,0.385186,0.000127,0.000060,0.000012,0.000129,0.000058,9.756173,0.000191,
2476,2203,4.8350622569233,-9.73552258590311,-0.00716331103592438,0.008068,-0.081904,-0.023335,0.422514,-3.821270,328.314764,18.611180,0.997309,0.971146,0.006827,0.379939,0.000947,0.000921,-0.000137,0.001072,0.000797,-42.224496,0.001875,
2506,2428,5.44311796658044,-4.806184877219,-0.00643940384213693,0.007945,-0.079482,-0.012879,0.379060,-3.678719,324.715746,19.512290,0.998625,0.982046,0.005549,0.416585,0.000445,0.000309,-0.000062,0.000469,0.000285,-21.204217,0.000761,
2251,2998,-0.21778188528009,7.60670436595043,0.0103198876423107,0.009558,-0.077087,0.006743,0.388917,-3.503257,315.439229,21.294662,0.999592,0.992182,0.003585,0.435348,0.000018,0.000002,0.000005,0.000019,0.000000,16.649544,0.000022,
2206,2638,-1.13717091784758,-0.224389844671805,-0.0232572365875967,0.006842,-0.077088,-0.002160,0.293506,-3.536176,321.026414,20.758752,0.999057,0.987430,0.004636,0.414218,0.000135,0.000075,0.000022,0.000142,0.000068,18.196417,0.000214,
2326,1993,1.59413223771352,-14.3469285502222,-0.0032438970658859,0.003764,-0.087304,-0.030230,0.242368,-4.128469,331.384157,18.637515,0.997123,0.972242,0.006953,0.281407,0.001353,0.001395,-0.000105,0.001481,0.001267,-50.550795,0.002751,
2296,3028,0.754861193324661,8.26200960367825,0.00770871621824654,0.010079,-0.076754,0.002356,0.426270,-3.500472,314.895750,21.519278,0.999259,0.989921,0.003949,0.397782,0.000009,-0.000012,0.000007,0.000011,-0.000013,16.064692,0.000014,
2326,2668,1.46844153554288,0.435536408939377,-0.0340751225204485,0.007391,-0.077177,-0.005213,0.327284,-3.539085,320.290082,20.832234,0.999594,0.991640,0.003843,0.317431,0.000098,0.000110,0.000015,0.000120,0.000088,55.968695,0.000209,
2341,2728,1.78438042112734,1.74262848930791,-0.0343399977393233,0.008124,-0.077652,-0.004582,0.358527,-3.568916,319.339400,20.930264,0.999271,0.989286,0.004144,0.330513,0.000068,0.000116,0.000029,0.000130,0.000054,64.748236,0.000189,
2236,2953,-0.536266738452667,6.62971806878635,-0.0005988201868945,0.009396,-0.076649,0.003264,0.393375,-3.504803,316.117437,21.253544,0.999307,0.992217,0.003785,0.371749,0.000015,0.000009,0.000006,0.000019,0.000005,30.595115,0.000025,
2416,3193,3.33352585619642,11.8500343166181,0.0389304052754937,0.010934,-0.077808,0.007502,0.443358,-3.538164,312.481036,22.337092,0.999535,0.992015,0.003486,0.425984,0.000009,-0.000005,0.000025,0.000028,-0.000024,37.631288,0.000031,
2131,2263,-2.70927962610884,-8.41605538288826,-0.0125651336558121,0.002822,-0.078517,-0.021423,0.167066,-3.701733,327.309261,20.540979,0.998350,0.982975,0.005497,0.345457,0.000684,0.000660,0.000058,0.000732,0.000613,39.214478,0.001346,
2191,2533,-1.44645307621559,-2.51407387674602,-0.0249029776258567,0.005840,-0.077207,-0.005541,0.258190,-3.540161,322.722158,20.637814,0.999116,0.988809,0.004423,0.435383,0.000228,0.000159,0.000024,0.000235,0.000152,17.393670,0.000390,
2101,2143,-3.34679085438449,-11.044678977045,-0.00867336272506236,-0.000153,-0.080774,-0.019632,0.023795,-3.775296,329.261484,20.547243,0.998218,0.982930,0.005645,0.367735,0.000945,0.001001,0.000109,0.001086,0.000861,52.187754,0.001951,
2086,2098,-3.669254108185,-12.0257352127613,-0.0349496635381001,-0.001455,-0.080138,-0.027302,-0.013986,-3.765620,329.798221,20.742685,0.998400,0.965961,0.007341,0.261039,0.001072,0.001096,0.000116,0.001200,0.000967,47.897551,0.002172,
2386,2923,2.7283322029392,5.98662646065206,-0.00902740005653868,0.009031,-0.078000,0.006229,0.361002,-3.551548,316.387057,21.466336,0.999301,0.990554,0.003999,0.378356,0.000007,-0.000003,0.000015,0.000018,-0.000014,35.948355,0.000019,
2401,3058,3.03117790619958,8.9202685195525,0.0116295438100451,0.009993,-0.077650,0.002870,0.417311,-3.536225,314.421599,21.900319,0.999701,0.992539,0.003541,0.394077,0.000008,0.000006,0.000028,0.000035,-0.000021,44.063993,0.000035,
2086,2353,-3.70355408523257,-6.44590063379677,-0.01734338590677,0.003233,-0.076938,-0.015705,0.168645,-3.579511,326.024704,20.834723,0.998439,0.982200,0.005350,0.379049,0.000506,0.000376,0.000061,0.000530,0.000352,21.702638,0.000888,
2206,2803,-1.16489800233067,3.3681241034423,-0.0222017259195582,0.007900,-0.077268,0.004316,0.321677,-3.527181,318.383532,20.969996,0.998683,0.985364,0.004842,0.398586,0.000055,0.000068,0.000002,0.000069,0.000054,80.180057,0.000123,
2371,2878,2.41050362804264,5.00814468035555,-0.017471028020509,0.008914,-0.077536,-0.001116,0.382409,-3.561294,317.063968,21.366918,0.999507,0.993499,0.003500,0.315217,0.000015,0.000035,0.000023,0.000050,0.000000,57.033721,0.000058,
2356,2848,2.08866915477401,4.35461799643015,-0.024554928646296,0.008391,-0.077561,0.001331,0.350001,-3.543649,317.457903,21.193525,0.999582,0.991117,0.003817,0.405162,0.000030,0.000052,0.000023,0.000066,0.000015,57.622969,0.000087,
2296,3223,0.721148878694521,12.4899393168884,0.0324802401896704,0.010753,-0.077423,0.007328,0.440455,-3.521343,311.927263,21.773345,0.999799,0.995036,0.002954,0.498758,0.000014,0.000009,0.000011,0.000022,0.000000,38.224709,0.000026,
2116,2428,-3.06179448200056,-4.80777668432923,-0.0165775835154705,0.004235,-0.077299,-0.010842,0.200692,-3.573131,324.711857,20.748778,0.999124,0.988247,0.004560,0.391288,0.000375,0.000215,0.000026,0.000379,0.000210,8.943610,0.000598,
2341,2953,1.7453443861097,6.63569253484154,-0.00322989857579614,0.009503,-0.077508,0.001864,0.399810,-3.540903,315.973985,21.450020,0.999354,0.991123,0.003782,0.385430,0.000003,-0.000009,0.000012,0.000011,-0.000016,32.617660,0.000017,
2266,2953,0.115377180362191,6.63127009754251,-0.000712036203765365,0.009470,-0.076927,0.004608,0.391333,-3.512127,316.056179,21.298481,0.999202,0.987882,0.004312,0.389809,0.000019,0.000001,0.000010,0.000024,-0.000003,24.787218,0.000026,
2326,2893,1.42902529233891,5.33088321481906,-0.0131829518181235,0.008737,-0.077497,0.000853,0.368364,-3.549715,316.843565,21.267342,0.999152,0.991018,0.003935,0.388188,0.000012,0.000026,0.000022,0.000042,-0.000005,53.816612,0.000046,
2101,2353,-3.37713070602527,-6.44507559335374,-0.0279964741052368,0.003828,-0.077069,-0.016354,0.198065,-3.584742,325.892393,20.749883,0.998905,0.985003,0.004969,0.406092,0.000499,0.000383,0.000043,0.000513,0.000369,18.144614,0.000885,
2116,2233,-3.03230833998271,-9.07177005086751,-0.0125836847494725,0.001928,-0.079109,-0.019066,0.118453,-3.682789,327.806928,20.625718,0.997921,0.982384,0.005602,0.334556,0.000747,0.000734,0.000077,0.000818,0.000663,42.520819,0.001484,
2311,2623,1.15065417696057,-0.549631092323736,-0.015328552001904,0.006715,-0.078243,-0.000957,0.281401,-3.578406,321.142351,20.597692,0.999396,0.989940,0.003950,0.420966,0.000135,0.000109,0.000017,0.000144,0.000100,26.147482,0.000245,
2491,2413,5.11686356566915,-5.13326276517796,-0.0256415903144216,0.007285,-0.079081,-0.017853,0.367898,-3.690671,324.742735,19.431947,0.999314,0.987987,0.004583,0.468359,0.000493,0.000328,-0.000073,0.000520,0.000300,-20.674308,0.000830,
2476,2218,4.83189146568705,-9.40530365752715,-0.00832112589347389,0.008115,-0.081292,-0.022736,0.422727,-3.784213,328.061871,18.749154,0.998620,0.979896,0.005950,0.338599,0.000913,0.000859,-0.000135,0.001023,0.000748,-39.296564,0.001779,
2071,2248,-4.01570201898015,-8.74334769770683,-0.0147535325269246,0.001041,-0.078545,-0.019416,0.077862,-3.662282,327.724470,20.801903,0.998552,0.985569,0.004864,0.389770,0.000730,0.000708,0.000102,0.000822,0.000616,41.838359,0.001443,
2311,3058,1.07541076798465,8.91297901800431,0.0189335614122683,0.009732,-0.077362,0.005797,0.397936,-3.516400,314.457543,21.574820,0.999704,0.993381,0.003316,0.435165,0.000003,-0.000006,0.000013,0.000012,-0.000015,35.532069,0.000016,
2341,2743,1.78186965273115,2.06786472295133,-0.0251003307119504,0.007899,-0.077769,-0.002241,0.339982,-3.558491,319.154565,20.895888,0.999465,0.990643,0.003897,0.412036,0.000063,0.000114,0.000032,0.000129,0.000048,64.228941,0.000183,
2311,2848,1.11108121723187,4.35029817434189,-0.00766698820365264,0.008111,-0.077346,-0.000114,0.343225,-3.542144,317.608044,21.087354,0.999771,0.993088,0.003572,0.453692,0.000028,0.000053,0.000020,0.000065,0.000016,61.248829,0.000086,
2221,2653,-0.813674217210586,0.103056134868488,-0.0333058690836765,0.007291,-0.077232,-0.003518,0.318245,-3.541410,320.684854,20.697853,0.999167,0.989286,0.004352,0.478366,0.000125,0.000074,0.000023,0.000134,0.000065,21.354691,0.000203,
2161,2368,-2.07208541595213,-6.11728107077784,-0.020489158608882,0.004752,-0.077153,-0.014055,0.234468,-3.570930,325.500955,20.577794,0.998806,0.989641,0.004338,0.391869,0.000460,0.000370,0.000005,0.000460,0.000370,3.423083,0.000832,
2146,2533,-2.42556690833135,-2.51474970483024,-0.0264565406119459,0.005813,-0.077046,-0.005424,0.257022,-3.550904,322.863446,20.747299,0.999007,0.987826,0.004468,0.394902,0.000233,0.000144,0.000014,0.000235,0.000142,8.459127,0.000381,
2146,2293,-2.38785209970591,-7.75927336750493,-0.0143271272443712,0.002846,-0.078747,-0.015841,0.151638,-3.655399,326.735974,20.492819,0.997844,0.984981,0.005348,0.394004,0.000619,0.000554,0.000039,0.000637,0.000536,25.300483,0.001174,
2446,2053,4.21045535548776,-13.0337433866253,0.00617754529361036,0.007677,-0.086806,-0.025743,0.410291,-4.088651,330.770929,17.945484,0.997887,0.978603,0.006207,0.377484,0.001380,0.001299,-0.000116,0.001462,0.001217,-35.339510,0.002682,
2326,2008,1.59166291571855,-14.0172051397925,0.00404696463658638,0.003651,-0.086366,-0.028382,0.231264,-4.080678,331.191921,18.736604,0.997520,0.973121,0.006873,0.268114,0.001334,0.001373,-0.000085,0.001440,0.001266,-51.427858,0.002708,
2356,2113,2.22723090132824,-11.7083143702054,-0.0106879222375369,0.004794,-0.083536,-0.024493,0.272393,-3.913133,329.416955,18.951602,0.999220,0.981315,0.005373,0.307654,0.001098,0.001200,-0.000061,0.001228,0.001069,-64.917446,0.002299,
2251,3013,-0.220370189137597,7.93236346574155,0.0108814871028926,0.009612,-0.077207,0.006796,0.391125,-3.527310,315.201420,21.336504,0.999394,0.990925,0.003776,0.391960,0.000017,-0.000012,0.000001,0.000017,-0.000012,2.596166,0.000018,
2296,3043,0.752494490101796,8.58713802076681,0.0182205185186604,0.009962,-0.077106,0.006048,0.408250,-3.505827,314.720833,21.568105,0.999310,0.990402,0.003892,0.372424,0.000008,-0.000007,0.000008,0.000011,-0.000010,22.543316,0.000012,
2281,3178,0.403985118078928,11.513689332701,0.039804986114973,0.010606,-0.077377,0.010518,0.423488,-3.516298,312.727606,21.734257,0.999561,0.992837,0.003427,0.388147,0.000008,0.000005,0.000009,0.000016,-0.000003,39.255080,0.000017,
2176,2458,-1.76006784300039,-4.15183456711456,-0.0221229604757127,0.005313,-0.077049,-0.013359,0.258296,-3.579247,324.006501,20.577799,0.998961,0.986974,0.004833,0.415528,0.000316,0.000214,0.000003,0.000316,0.000214,1.421495,0.000533,
2341,3193,1.70353778797108,11.8443664972519,0.0353881007496852,0.010506,-0.077412,0.008629,0.422716,-3.530250,312.394255,22.045259,0.999610,0.993616,0.003447,0.372382,0.000008,0.000002,0.000017,0.000023,-0.000012,39.956478,0.000023,
2386,2938,2.72560944999504,6.31263715435332,-0.00703740848109646,0.009056,-0.077978,0.006317,0.361875,-3.549241,316.159631,21.507088,0.999360,0.990252,0.003983,0.382562,0.000009,-0.000008,0.000011,0.000015,-0.000014,25.792782,0.000016,
2461,2068,4.53657405359443,-12.7032236877054,0.00780670427900532,0.008324,-0.085005,-0.029238,0.454246,-4.008890,330.618299,17.977821,0.998590,0.980738,0.005825,0.384129,0.001377,0.001289,-0.000135,0.001475,0.001191,-36.018103,0.002671,
2236,2803,-0.512543341156199,3.3702643466073,-0.0292217369253649,0.008273,-0.076467,-0.002746,0.361070,-3.514758,318.288830,20.991864,0.999502,0.989430,0.004110,0.415584,0.000051,0.000071,0.000006,0.000073,0.000049,75.646542,0.000122,
2101,2158,-3.34824057598739,-10.7162706980906,-0.00379100491790041,0.000339,-0.080492,-0.020950,0.050272,-3.791524,329.087480,20.610618,0.998439,0.983242,0.005524,0.291931,0.000905,0.000940,0.000104,0.001028,0.000818,49.762617,0.001850,
2191,2728,-1.47792042664332,1.73610096583531,-0.0318720263925911,0.007931,-0.076552,-0.006426,0.357440,-3.528932,319.600957,20.871055,0.999239,0.990111,0.003976,0.409983,0.000089,0.000080,0.000006,0.000092,0.000077,25.736195,0.000169,
2311,2638,1.14785373259836,-0.222000483260352,-0.017330189824122,0.006745,-0.077771,-0.002049,0.286684,-3.562187,320.886968,20.652785,0.999282,0.988869,0.004065,0.414941,0.000120,0.000097,0.000016,0.000128,0.000089,26.764019,0.000219,
2071,2263,-4.01737092211914,-8.41464027086647,-0.0169246860476164,0.001794,-0.078124,-0.019516,0.112836,-3.646551,327.499623,20.823126,0.999032,0.987469,0.004669,0.383366,0.000701,0.000675,0.000106,0.000795,0.000581,41.510863,0.001381,
2341,2053,1.91122773985222,-13.0288985682898,0.00404718184574904,0.003923,-0.085403,-0.026674,0.238782,-4.023134,330.472719,18.757680,0.998594,0.981690,0.005571,0.320346,0.001259,0.001286,-0.000065,0.001338,0.001207,-50.744368,0.002546,
2131,2488,-2.74470722135825,-3.49732303976939,-0.0262227911215973,0.005418,-0.077190,-0.008288,0.247520,-3.549637,323.644271,20.691547,0.999063,0.987193,0.004815,0.458159,0.000288,0.000167,0.000006,0.000288,0.000166,3.032463,0.000460,
2341,2968,1.74247712607434,6.96235450552015,-0.00777011563667429,0.009598,-0.077600,-0.000903,0.413818,-3.555179,315.704791,21.529124,0.999912,0.997777,0.002498,0.328241,-0.000002,-0.000008,0.000016,0.000011,-0.000022,39.727502,0.000022,
2506,2443,5.43924717958112,-4.47727275780906,-0.0132195166174256,0.007515,-0.079012,-0.015847,0.371038,-3.672112,324.407172,19.586859,0.998640,0.982337,0.005469,0.411519,0.000429,0.000278,-0.000047,0.000443,0.000264,-15.823685,0.000714,
2266,3118,0.0884661896873489,10.2112211197257,0.0325520920879399,0.010042,-0.077185,0.006565,0.411342,-3.509023,313.659961,21.545493,0.999654,0.994144,0.003273,0.418081,0.000009,-0.000011,0.000002,0.000009,-0.000011,5.142572,0.000012,
2101,2368,-3.37856261609489,-6.1188966853563,-0.0180543260675563,0.004060,-0.077061,-0.017203,0.211234,-3.579086,325.746984,20.706143,0.998757,0.984002,0.005195,0.458169,0.000478,0.000354,0.000039,0.000489,0.000343,15.978921,0.000837,
2326,2908,1.42631486838063,5.65667798670791,-0.00654261327753147,0.008665,-0.077957,0.005381,0.349299,-3.545243,316.635457,21.310901,0.999074,0.990847,0.003992,0.383224,0.000008,0.000021,0.000019,0.000035,-0.000006,54.227791,0.000037,
2086,2113,-3.66965160690152,-11.7013087218819,-0.0140187995190786,-0.000725,-0.081276,-0.024766,0.011824,-3.836954,329.759014,20.659229,0.998612,0.982646,0.005413,0.274206,0.001037,0.001061,0.000119,0.001169,0.000929,47.932152,0.002103,
2416,3208,3.33054789668337,12.1753167676735,0.0395692292933632,0.010818,-0.077783,0.007059,0.439678,-3.541560,312.236644,22.375495,0.999483,0.991588,0.003683,0.430597,0.000008,-0.000008,0.000021,0.000023,-0.000022,34.645251,0.000026,
2116,2248,-3.03443021474475,-8.74377876536389,-0.0148824320164067,0.002333,-0.078884,-0.018967,0.136810,-3.684918,327.564919,20.593539,0.998222,0.983731,0.005416,0.370385,0.000714,0.000701,0.000074,0.000782,0.000633,42.510973,0.001417,
2446,2068,4.20663938997992,-12.7022581405555,0.00347308585247674,0.007236,-0.085444,-0.024037,0.384409,-3.997041,330.479134,18.071307,0.997959,0.976471,0.006438,0.399509,0.001327,0.001293,-0.000122,0.001433,0.001187,-40.974103,0.002624,
2176,2668,-1.79437492501645,0.428836034102105,-0.0266873677433068,0.007015,-0.076512,-0.006597,0.315935,-3.524112,320.624675,20.831561,0.999592,0.992161,0.003667,0.401386,0.000117,0.000071,0.000009,0.000119,0.000069,11.009126,0.000191,
2296,3238,0.718320297789678,12.8161336244022,0.0276537334214026,0.010944,-0.077032,0.005943,0.454136,-3.504775,311.653969,21.851172,0.999643,0.993123,0.003319,0.466231,0.000014,0.000002,0.000011,0.000021,-0.000005,31.186085,0.000022,
2401,3073,3.02824951669947,9.24568731296184,0.0159241822825607,0.009983,-0.077843,0.007098,0.401406,-3.539911,314.196262,21.942029,0.999634,0.991850,0.003654,0.393167,0.000009,0.000002,0.000026,0.000032,-0.000020,40.853240,0.000032,
2221,2863,-0.848635483243658,4.67413630021547,-0.0196957253951382,0.008313,-0.076785,0.001856,0.348319,-3.514587,317.414648,21.100911,0.999254,0.991902,0.003642,0.368273,0.000042,0.000057,0.000008,0.000061,0.000039,65.037684,0.000100,
2371,2893,2.40796572674056,5.33360072595706,-0.0136422990513552,0.008893,-0.076970,-0.001775,0.384056,-3.526531,316.853070,21.325649,0.999451,0.992242,0.003671,0.432117,0.000015,0.000020,0.000021,0.000039,-0.000003,48.606777,0.000043,
2341,2758,1.77921402956104,2.39481018160321,-0.0215159116503969,0.007881,-0.077268,-0.000998,0.335079,-3.532048,318.935139,20.960984,0.999518,0.990789,0.003912,0.410124,0.000060,0.000108,0.000032,0.000124,0.000044,63.636485,0.000174,
2311,2863,1.10850735757363,4.67744839937632,-0.00951566460906861,0.008452,-0.077300,-0.000077,0.358814,-3.540730,317.363265,21.183416,0.999618,0.992334,0.003681,0.391119,0.000024,0.000046,0.000016,0.000055,0.000015,61.752973,0.000074,
2221,2668,-0.816016254055,0.429802491160757,-0.0258170536681064,0.007296,-0.077429,0.000260,0.306259,-3.541695,320.491889,20.776724,0.999481,0.993153,0.003661,0.418525,0.000119,0.000088,0.000017,0.000127,0.000080,23.723777,0.000209,
2326,3148,1.38597283838463,10.8669981015817,0.0273692738110753,0.010572,-0.077399,0.005194,0.438195,-3.532793,313.085809,21.841414,0.999497,0.992835,0.003557,0.403422,0.000001,-0.000007,0.000017,0.000014,-0.000020,38.599497,0.000021,
2206,2818,-1.16701701702755,3.6939011880191,-0.0203759442345017,0.008047,-0.077071,0.001514,0.337447,-3.520258,318.170737,20.948180,0.998977,0.987837,0.004418,0.443919,0.000058,0.000074,0.000003,0.000074,0.000057,78.876913,0.000132,
2476,2233,4.82859831350808,-9.07753209496235,-0.00628182832451785,0.007668,-0.081227,-0.023227,0.404186,-3.801581,327.818225,18.756403,0.998801,0.981455,0.005770,0.372951,0.000882,0.000810,-0.000118,0.000969,0.000723,-36.532661,0.001698,
2131,2278,-2.71186014099472,-8.088010191492,-0.0142738847812325,0.003046,-0.079216,-0.017104,0.164195,-3.699331,327.050722,20.526219,0.998402,0.983404,0.005470,0.370573,0.000654,0.000609,0.000050,0.000686,0.000576,32.835429,0.001264,
2491,2428,5.11420217447334,-4.80434565986546,-0.0228388852366379,0.007739,-0.078951,-0.014791,0.377104,-3.644879,324.531232,19.554006,0.999157,0.986630,0.004796,0.452662,0.000461,0.000309,-0.000057,0.000480,0.000290,-18.421819,0.000778,
2326,2023,1.58810318402469,-13.6871909660105,-0.00392026016396585,0.003514,-0.086150,-0.027704,0.222744,-4.060632,330.875695,18.721897,0.998226,0.976834,0.006379,0.341390,0.001300,0.001358,-0.000069,0.001404,0.001254,-56.319943,0.002660,
2071,2278,-4.01978704437231,-8.08512137321667,-0.0149959682011627,0.001749,-0.077593,-0.016439,0.102190,-3.596864,327.262695,20.931764,0.999839,0.994634,0.003670,0.323364,0.000676,0.000613,0.000097,0.000747,0.000542,35.985439,0.001295,
2251,2818,-0.187977820159723,3.6967096829375,-0.0206218688891795,0.008722,-0.076255,-0.004326,0.386792,-3.506977,318.111431,21.028977,0.999550,0.990725,0.004098,0.422423,0.000051,0.000080,0.000009,0.000083,0.000049,74.150632,0.000133,
2296,3058,0.749654383435974,8.91194574464702,0.0162827148021165,0.009943,-0.077285,0.005056,0.410719,-3.511644,314.462368,21.509385,0.999502,0.992922,0.003509,0.454798,0.000009,-0.000010,0.000007,0.000011,-0.000012,17.523090,0.000013,
2161,2578,-2.10663174120377,-1.53329507858845,-0.0239924315714006,0.006022,-0.076994,-0.001607,0.254877,-3.524135,322.097196,20.741108,0.998836,0.987077,0.004529,0.434278,0.000190,0.000110,0.000012,0.000192,0.000108,8.577943,0.000304,
2416,3223,3.32742248964516,12.5007867825773,0.034054265966347,0.010797,-0.077899,0.003465,0.451874,-3.551833,311.956426,22.406462,0.999460,0.991633,0.003673,0.435918,0.000005,-0.000016,0.000016,0.000014,-0.000024,28.000224,0.000024,
2101,2383,-3.38120725254036,-5.7902157469135,-0.023923510114912,0.004302,-0.077376,-0.014963,0.215674,-3.608102,325.460447,20.776941,0.998552,0.983761,0.005174,0.361560,0.000455,0.000320,0.000035,0.000463,0.000311,13.798316,0.000779,
2266,2968,0.112543454940209,6.95737340362729,-0.00527685044164627,0.009362,-0.076885,0.000391,0.400428,-3.512818,315.782271,21.311114,0.999402,0.991263,0.003805,0.401529,0.000014,0.000001,0.000015,0.000023,-0.000009,33.256038,0.000024,
2191,2548,-1.44858525247369,-2.1865645415986,-0.0248384700021802,0.005999,-0.076419,-0.009103,0.276969,-3.517231,322.498298,20.662915,0.999307,0.990335,0.004183,0.448797,0.000215,0.000141,0.000024,0.000222,0.000134,16.326211,0.000360,
2236,2968,-0.53892715037497,6.95537867991614,0.00141139451261552,0.009260,-0.076476,0.003505,0.386432,-3.490513,315.882663,21.255569,0.999413,0.992150,0.003701,0.404436,0.000010,0.000008,0.000011,0.000020,-0.000002,42.389542,0.000022,
2176,2473,-1.76320441187001,-3.82340610176013,-0.0228366596882097,0.005057,-0.077101,-0.008659,0.232019,-3.538273,323.731179,20.637398,0.999112,0.985296,0.005091,0.410690,0.000299,0.000204,0.000004,0.000299,0.000204,2.248832,0.000506,
2101,2173,-3.35099603408633,-10.3859430938103,-0.0107939513932251,0.000368,-0.079497,-0.021024,0.052126,-3.706900,328.788991,20.627268,0.998450,0.984087,0.005363,0.364337,0.000871,0.000906,0.000104,0.000994,0.000783,49.747348,0.001781,
2251,3028,-0.223128997963531,8.25857164587374,0.0084838107565588,0.009535,-0.076871,0.004421,0.395551,-3.510231,314.940510,21.372221,0.999217,0.990059,0.003918,0.396158,0.000014,-0.000014,0.000000,0.000014,-0.000014,0.649691,0.000016,
2221,2683,-0.818627849422857,0.756564936959393,-0.0262923930761758,0.007325,-0.077302,0.000303,0.307548,-3.529000,320.245668,20.781931,0.999487,0.992547,0.003659,0.445465,0.000110,0.000089,0.000015,0.000118,0.000081,26.821590,0.000200,
2311,3073,1.07302941414666,9.23890346201942,0.0236392808945425,0.009716,-0.077430,0.004937,0.400045,-3.541366,314.253716,21.685153,0.999660,0.994682,0.003130,0.330967,0.000002,-0.000010,0.000011,0.000008,-0.000017,31.166058,0.000017,
2341,3208,1.7014770371438,12.1686384716947,0.0375419196383291,0.010878,-0.077243,0.005583,0.450603,-3.521540,312.194712,21.986299,0.999610,0.993456,0.003381,0.475638,0.000012,0.000007,0.000018,0.000027,-0.000009,41.119852,0.000028,
2491,2443,5.11139773079468,-4.47651567771874,-0.0163493112092397,0.007756,-0.079430,-0.011512,0.365153,-3.658399,324.330011,19.674985,0.998683,0.983015,0.005160,0.378261,0.000444,0.000269,-0.000043,0.000454,0.000259,-13.062971,0.000722,
2326,3163,1.38340611391156,11.1923219637579,0.0320466436045876,0.010553,-0.077409,0.006440,0.433031,-3.533165,312.874144,21.893080,0.999689,0.993905,0.003343,0.384540,0.000003,-0.000004,0.000018,0.000018,-0.000019,39.085778,0.000022,
2176,2683,-1.79683317157123,0.75482417657274,-0.027745270651053,0.007370,-0.077052,-0.003400,0.322165,-3.541733,320.379194,20.790399,0.999440,0.990927,0.003862,0.437752,0.000109,0.000074,0.000009,0.000111,0.000072,13.172677,0.000185,
2116,2443,-3.06459461977315,-4.48183485752146,-0.0141002096145257,0.004024,-0.077597,-0.005257,0.174369,-3.562066,324.464825,20.629103,0.999126,0.988802,0.004579,0.526925,0.000352,0.000193,0.000020,0.000355,0.000190,7.067363,0.000553,
2356,2863,2.08609911299849,4.68055642301572,-0.0230783135548904,0.008673,-0.077737,0.002909,0.357416,-3.538051,317.233211,21.200506,0.999477,0.990925,0.003870,0.442512,0.000026,0.000043,0.000021,0.000057,0.000012,56.020102,0.000074,
2206,2653,-1.14000545944125,0.102732857550301,-0.0290727203836241,0.007071,-0.077312,-0.000978,0.300197,-3.543637,320.741237,20.762548,0.999052,0.987406,0.004712,0.420321,0.000129,0.000073,0.000024,0.000138,0.000064,20.547841,0.000207,
2101,2398,-3.38346614960008,-5.46350146745055,-0.015254617133337,0.004089,-0.077264,-0.011193,0.194926,-3.579808,325.270169,20.755862,0.998647,0.984741,0.004928,0.413640,0.000429,0.000276,0.000033,0.000436,0.000269,11.572081,0.000712,
2146,2308,-2.38954711460562,-7.43174970577061,-0.0102746733937238,0.003302,-0.078523,-0.016083,0.173375,-3.649886,326.549772,20.495658,0.998417,0.984639,0.005264,0.406439,0.000587,0.000500,0.000027,0.000595,0.000492,16.270483,0.001089,
2416,3238,3.32381721945943,12.8272206378799,0.0244266220411191,0.010909,-0.077489,0.003406,0.457499,-3.525356,311.634365,22.470987,0.999417,0.992100,0.003593,0.444282,0.000003,-0.000025,0.000012,0.000008,-0.000029,20.527516,0.000030,
2281,2968,0.438689358109837,6.95874549839588,-0.0065185406978685,0.009510,-0.076748,-0.002567,0.416843,-3.515938,315.765342,21.379408,0.999278,0.990563,0.003909,0.367618,0.000012,-0.000002,0.000012,0.000018,-0.000009,29.761817,0.000018,
2341,2068,1.90802650842526,-12.7004438454014,0.000651315449999856,0.003849,-0.085386,-0.025672,0.231956,-4.024049,330.196666,18.690837,0.998194,0.976629,0.006156,0.426528,0.001216,0.001264,-0.000057,0.001301,0.001178,-56.297887,0.002481,
2356,2128,2.2247776179393,-11.380312391229,-0.00583318704946123,0.005069,-0.083575,-0.020892,0.272353,-3.907465,329.215928,18.950048,0.998964,0.982253,0.005380,0.356444,0.001059,0.001161,-0.000062,0.001190,0.001030,-64.858830,0.002222,
2131,2503,-2.74708665387684,-3.16917299975166,-0.0369587761786647,0.006018,-0.076549,-0.010609,0.282252,-3.539248,323.346671,20.674177,0.998926,0.986092,0.004830,0.492918,0.000270,0.000158,0.000008,0.000271,0.000158,3.851705,0.000433,
2221,2878,-0.850442784894032,4.99874670161906,-0.00880689403459201,0.008584,-0.077080,0.005088,0.350365,-3.514798,317.264063,21.062528,0.999405,0.993360,0.003330,0.425003,0.000037,0.000053,0.000007,0.000055,0.000035,68.924104,0.000091,
2446,2083,4.20276506154157,-12.3725325447025,0.00324084811228431,0.006987,-0.086675,-0.016893,0.345991,-4.009385,330.196602,18.173734,0.997796,0.975244,0.006719,0.340581,0.001276,0.001288,-0.000124,0.001406,0.001158,-46.421305,0.002568,
2386,2953,2.72277824678993,6.63842847208518,-0.00682753968050065,0.008996,-0.078006,0.004935,0.364065,-3.568744,315.918782,21.540901,0.999294,0.989088,0.004171,0.371983,0.000009,-0.000018,0.000013,0.000014,-0.000024,22.484703,0.000024,
2506,2458,5.43572194670929,-4.14853317026363,-0.0165616722716777,0.007804,-0.079078,-0.010972,0.365517,-3.629407,324.129593,19.647413,0.998759,0.985671,0.004948,0.456500,0.000411,0.000281,-0.000044,0.000424,0.000267,-17.107896,0.000697,
2161,2593,-2.10910986975471,-1.20626503311919,-0.024604369754627,0.006119,-0.077439,-0.001029,0.257387,-3.542665,321.851759,20.771452,0.998964,0.988752,0.004418,0.396228,0.000173,0.000091,0.000013,0.000175,0.000089,9.056030,0.000269,
2326,2038,1.58488026000223,-13.3553541851298,-0.0122015838953189,0.003507,-0.085168,-0.030256,0.231545,-4.017535,330.572990,18.853355,0.998818,0.983656,0.005339,0.291440,0.001263,0.001320,-0.000070,0.001367,0.001216,-55.923272,0.002585,
2191,2743,-1.48032042702138,2.06191585924613,-0.0214408385800766,0.007662,-0.076897,-0.002208,0.331756,-3.530181,319.419017,20.908442,0.999376,0.990479,0.003987,0.385657,0.000080,0.000076,0.000001,0.000081,0.000076,15.780470,0.000156,
2236,2983,-0.540927306485617,7.2809679401422,0.00785662540363319,0.009368,-0.076443,0.002273,0.395448,-3.488001,315.700880,21.296989,0.999509,0.992353,0.003637,0.385881,0.000011,0.000009,0.000008,0.000018,0.000001,41.693394,0.000022,
2491,2458,5.10748234595678,-4.14848647015353,-0.0165019075141686,0.007243,-0.079501,-0.007905,0.327851,-3.643547,324.047695,19.728188,0.998831,0.984925,0.004931,0.400234,0.000420,0.000267,-0.000041,0.000430,0.000257,-14.027105,0.000695,
2161,2383,-2.07530145704382,-5.789161006269,-0.0259155319084812,0.004429,-0.077178,-0.013224,0.217084,-3.582061,325.196358,20.585211,0.998720,0.988177,0.004583,0.385292,0.000433,0.000343,0.000003,0.000433,0.000343,1.635681,0.000778,
2311,2653,1.14518907985943,0.104932885063306,-0.019357126371176,0.006964,-0.077974,-0.002454,0.298071,-3.573539,320.637882,20.676125,0.999410,0.990075,0.003941,0.413017,0.000105,0.000092,0.000015,0.000114,0.000082,33.068273,0.000197,
2341,2773,1.77706107745803,2.72069504304818,-0.0136472237020371,0.008175,-0.077974,0.001978,0.337900,-3.559657,318.759942,21.020104,0.999541,0.992519,0.003616,0.359858,0.000055,0.000090,0.000026,0.000104,0.000041,61.889431,0.000149,
2266,3133,0.0862786856884519,10.5357505892906,0.034663108425832,0.010148,-0.076775,0.002965,0.428282,-3.510828,313.449578,21.501050,0.999641,0.995402,0.003063,0.485165,0.000006,-0.000007,0.000003,0.000007,-0.000008,14.057862,0.000008,
2266,2983,0.109944791837577,7.2831967826112,-0.00426302463239381,0.009451,-0.076869,0.001220,0.401779,-3.515376,315.547305,21.342920,0.999616,0.992957,0.003571,0.392275,0.000014,0.000005,0.000012,0.000022,-0.000003,33.985012,0.000024,
2251,2833,-0.19083516748606,4.02292680091828,-0.0182182321502751,0.008640,-0.076904,-0.000447,0.370099,-3.518605,317.870757,21.075498,0.999404,0.991109,0.003913,0.387463,0.000048,0.000071,0.000014,0.000077,0.000041,64.790366,0.000121,
2131,2293,-2.71514874690959,-7.75887690671831,-0.0185106397032655,0.002510,-0.078513,-0.016089,0.136813,-3.651191,326.745929,20.545333,0.998386,0.984935,0.005242,0.407681,0.000627,0.000559,0.000052,0.000656,0.000531,28.556091,0.001189,
2236,2818,-0.514287678454874,3.69579187510415,-0.0199550844115493,0.008558,-0.076421,-0.002071,0.372036,-3.507412,318.133378,21.004452,0.999504,0.990517,0.003981,0.431078,0.000051,0.000077,0.000008,0.000080,0.000048,74.427842,0.000129,
2086,2128,-3.67241433099759,-11.3710158688265,-0.0219930905543606,-0.000665,-0.080536,-0.024571,0.014252,-3.785952,329.453570,20.678573,0.998591,0.984513,0.005312,0.308295,0.000995,0.001036,0.000120,0.001137,0.000894,49.824109,0.002036,
2311,2878,1.10537574666492,5.00486241152493,-0.0192908080446159,0.008653,-0.077004,-0.002362,0.376035,-3.534666,317.053663,21.245483,0.999479,0.990939,0.003891,0.367333,0.000019,0.000044,0.000021,0.000056,0.000008,60.396928,0.000070,
2416,3253,3.32074389497229,13.153011123945,0.0208554009013255,0.011436,-0.077674,0.007941,0.465135,-3.513364,311.365399,22.529586,0.999256,0.990921,0.003795,0.444281,0.000000,-0.000022,0.000006,0.000002,-0.000023,15.481348,0.000026,
2146,2548,-2.42742238664456,-2.18782912396613,-0.0254385305244682,0.006151,-0.076450,-0.008391,0.281775,-3.526921,322.653872,20.725145,0.998794,0.986562,0.004656,0.449904,0.000225,0.000127,0.000015,0.000227,0.000125,8.551772,0.000357,
2281,3193,0.401470187503765,11.8388027418442,0.0384307547187177,0.010691,-0.077270,0.007275,0.438374,-3.517232,312.485357,21.736948,0.999643,0.993214,0.003303,0.411097,0.000010,0.000013,0.000009,0.000020,0.000003,48.984843,0.000025,
2461,2083,4.53227956898737,-12.3732844552254,0.00458495767344402,0.007703,-0.085608,-0.024866,0.409270,-4.014989,330.304177,18.060354,0.998672,0.979570,0.005930,0.353502,0.001318,0.001287,-0.000139,0.001442,0.001163,-41.787678,0.002609,
2326,3178,1.38065564635114,11.5178221141956,0.027816154030063,0.010869,-0.077365,0.005649,0.450424,-3.525454,312.610232,21.903138,0.999671,0.994107,0.003378,0.415586,0.000005,-0.000002,0.000017,0.000019,-0.000016,38.800683,0.000021,
2371,2908,2.40453815622294,5.65998403251491,-0.012494373367133,0.008686,-0.077230,0.003834,0.354575,-3.504130,316.588135,21.366581,0.999322,0.990930,0.003885,0.454360,0.000010,0.000009,0.000018,0.000028,-0.000009,44.719629,0.000028,
2116,2263,-3.03723212067913,-8.41517699086887,-0.0199979067928098,0.002271,-0.078764,-0.018482,0.132554,-3.689941,327.276635,20.596874,0.998276,0.984121,0.005406,0.368071,0.000689,0.000663,0.000073,0.000751,0.000601,39.949013,0.001355,
2326,2683,1.4658196209969,0.761304911665121,-0.03019887631865,0.007705,-0.077550,0.000681,0.321310,-3.527322,320.073132,20.785299,0.999669,0.991871,0.003840,0.411205,0.000090,0.000117,0.000017,0.000125,0.000082,63.826746,0.000208,
2446,2098,4.19980703886267,-12.0415719610789,-0.00748405303824029,0.007155,-0.085051,-0.026192,0.388949,-3.997316,329.907626,18.254517,0.998794,0.979727,0.006016,0.327442,0.001226,0.001266,-0.000128,0.001376,0.001116,-49.380933,0.002497,
2401,3088,3.02585223789337,9.5713985193909,0.021453768055494,0.010114,-0.077761,0.007641,0.405561,-3.531974,314.001058,22.010277,0.999534,0.991611,0.003702,0.377310,0.000007,-0.000001,0.000020,0.000024,-0.000017,39.363352,0.000025,
2206,2833,-1.1685614893114,4.01964989028359,-0.00690396339774679,0.008300,-0.077218,0.003526,0.342574,-3.541981,318.044555,21.044422,0.999045,0.990174,0.004126,0.342205,0.000057,0.000065,0.000009,0.000071,0.000051,57.123727,0.000122,
2341,2983,1.74012091791019,7.28701283739475,0.00230017004486172,0.009589,-0.077816,0.002959,0.399848,-3.555797,315.530647,21.515200,0.999801,0.995340,0.002952,0.377320,-0.000005,-0.000003,0.000011,0.000007,-0.000016,47.504857,0.000016,
2356,3028,2.05788498054089,8.26550860362088,0.0113752984655662,0.009390,-0.077858,0.006233,0.378827,-3.542718,314.848975,21.697275,0.999574,0.992262,0.003626,0.362342,-0.000002,-0.000008,0.000013,0.000008,-0.000018,38.805665,0.000018,
2341,3223,1.69842262679859,12.4950673416492,0.0348282728624554,0.010942,-0.077209,0.006581,0.450146,-3.514789,311.924911,22.103946,0.999505,0.992829,0.003392,0.399939,0.000011,0.000001,0.000014,0.000021,-0.000009,34.371648,0.000021,
2176,2488,-1.7656252602452,-3.49611489406591,-0.027259665013446,0.005189,-0.077178,-0.012451,0.249785,-3.557422,323.469709,20.623697,0.998906,0.985097,0.005107,0.418748,0.000279,0.000190,0.000001,0.000279,0.000190,0.545509,0.000472,
2356,2878,2.0841443539984,5.00605310499191,-0.0123869766430289,0.008887,-0.078005,0.004816,0.360379,-3.563396,317.081373,21.269562,0.999514,0.992022,0.003697,0.386547,0.000018,0.000040,0.000024,0.000055,0.000002,57.213402,0.000065,
2206,2668,-1.14240720377734,0.430169596142726,-0.0280890804226033,0.006893,-0.076739,-0.005128,0.305371,-3.537666,320.510854,20.843770,0.999465,0.992153,0.003787,0.362263,0.000122,0.000087,0.000018,0.000130,0.000079,23.552208,0.000211,
2341,2083,1.90522914603666,-12.3680783289873,-0.00230141188478683,0.004199,-0.084515,-0.024358,0.243762,-3.950947,329.940400,18.917498,0.998918,0.981927,0.005487,0.313208,0.001174,0.001256,-0.000057,0.001285,0.001145,-62.616798,0.002431,
2221,2698,-0.821073913205549,1.08342284749756,-0.0278345500030355,0.007430,-0.076956,-0.002016,0.319937,-3.526589,320.001546,20.802033,0.999557,0.993797,0.003369,0.446861,0.000101,0.000094,0.000016,0.000114,0.000082,38.616122,0.000197,
2311,3088,1.07075451415689,9.56371094896608,0.0250744536181742,0.010078,-0.077439,0.004491,0.418201,-3.550002,314.038954,21.658769,0.999701,0.995431,0.002988,0.379948,0.000001,-0.000013,0.000004,0.000002,-0.000014,14.963915,0.000015,
2356,2143,2.22215161613526,-11.0506201295315,-0.00443678975693729,0.005226,-0.083014,-0.020169,0.277236,-3.843498,328.989882,19.012015,0.998212,0.980116,0.005825,0.400461,0.001013,0.001094,-0.000060,0.001126,0.000981,-62.072792,0.002108,
2341,2788,1.77434774351382,3.04729799135647,-0.0164781083087746,0.008306,-0.077709,-0.000496,0.352653,-3.562741,318.506786,21.040952,0.999568,0.993741,0.003436,0.372740,0.000052,0.000080,0.000025,0.000094,0.000038,59.615988,0.000135,
2191,2758,-1.48258423636235,2.38858277474926,-0.0220645309826182,0.007899,-0.076613,-0.003689,0.347407,-3.514179,319.185557,20.922383,0.999378,0.990983,0.003847,0.402320,0.000074,0.000077,0.000000,0.000077,0.000074,88.026596,0.000151,
2236,2998,-0.54356822676819,7.60612672877995,0.0088632100241739,0.009496,-0.076571,0.004935,0.392688,-3.476310,315.462003,21.256024,0.999486,0.991529,0.003717,0.459169,0.000013,0.000004,0.000004,0.000015,0.000002,20.778587,0.000019,
2326,2053,1.58280569890328,-13.027192822542,-0.00907316321848839,0.004014,-0.084748,-0.029471,0.252268,-4.008129,330.378808,18.817489,0.999107,0.987625,0.004820,0.374193,0.001226,0.001300,-0.000061,0.001334,0.001191,-60.659208,0.002527,
2251,3043,-0.225172087453206,8.58430432169417,0.0143469711014177,0.009859,-0.076997,0.005892,0.405645,-3.508042,314.754537,21.437710,0.999441,0.991894,0.003636,0.355191,0.000010,-0.000013,0.000000,0.000010,-0.000013,-1.042044,0.000014,
2176,2698,-1.79968146548479,1.08261521348493,-0.0287796164172391,0.007290,-0.076596,-0.000926,0.311059,-3.491270,320.115272,20.851746,0.999443,0.991279,0.003735,0.439552,0.000099,0.000082,0.000007,0.000101,0.000079,19.249042,0.000181,
2476,2248,4.82611433767243,-8.75026714164114,-0.00340313514459467,0.008086,-0.081206,-0.022156,0.419283,-3.809542,327.615434,18.721330,0.998753,0.981536,0.005590,0.458960,0.000836,0.000731,-0.000121,0.000916,0.000651,-33.278564,0.001574,
2461,2098,4.52892516256135,-12.0426867119337,0.000952300319852384,0.007861,-0.085596,-0.022890,0.409126,-4.020867,330.031134,18.203994,0.999124,0.982322,0.005550,0.261700,0.001263,0.001266,-0.000143,0.001407,0.001122,-45.290982,0.002535,
2296,3253,0.715262507292845,13.1418419777527,0.0245367541674568,0.011156,-0.077350,0.009643,0.451246,-3.517994,311.378757,21.927952,0.999619,0.990962,0.003659,0.404745,0.000013,0.000005,0.000017,0.000026,-0.000008,38.616161,0.000027,
2101,2413,-3.38558794489601,-5.13477798051718,-0.0181112336920819,0.004417,-0.076534,-0.012756,0.214832,-3.548005,325.023539,20.809141,0.998873,0.986486,0.004729,0.395101,0.000411,0.000246,0.000035,0.000418,0.000239,11.597639,0.000665,
2296,3073,0.747238184670309,9.23739740627419,0.027083659506502,0.009442,-0.077520,0.004464,0.389555,-3.522495,314.286454,21.601323,0.999583,0.994669,0.003295,0.380804,0.000008,-0.000012,0.000005,0.000009,-0.000013,13.694978,0.000014,
2311,2668,1.1422871494608,0.433367199431459,-0.025774156408545,0.007032,-0.077488,-0.006178,0.314120,-3.550350,320.355812,20.771111,0.999761,0.992640,0.003563,0.374042,0.000095,0.000108,0.000013,0.000115,0.000087,58.598017,0.000203,
2326,2923,1.42402683035897,5.98219769412469,-0.00483873015974723,0.008926,-0.077476,0.003848,0.366775,-3.530359,316.422637,21.286725,0.998492,0.988549,0.004470,0.456366,0.000006,0.000016,0.000017,0.000029,-0.000006,53.400735,0.000030,
2506,2473,5.43169461361711,-3.81981136817171,-0.0206255524762469,0.007307,-0.079163,-0.010197,0.339701,-3.650344,323.825849,19.768815,0.999073,0.985588,0.004745,0.376726,0.000384,0.000284,-0.000040,0.000398,0.000269,-19.388621,0.000672,
2101,2188,-3.35363048685545,-10.0577562629557,-0.0117555128392723,0.000349,-0.079721,-0.017656,0.041346,-3.707842,328.529374,20.603932,0.998274,0.984403,0.005414,0.390828,0.000841,0.000871,0.000105,0.000962,0.000750,49.015641,0.001716,
2116,2458,-3.0662420364808,-4.15219205615864,-0.0211347069948715,0.004886,-0.077097,-0.010729,0.230307,-3.563264,324.218721,20.776083,0.999165,0.989000,0.004468,0.383474,0.000333,0.000164,0.000011,0.000334,0.000163,3.815059,0.000507,
2266,3148,0.0835993358920071,10.8616489141279,0.0331070528900455,0.010626,-0.077241,0.007536,0.435009,-3.517633,313.197587,21.569071,0.999218,0.992137,0.003769,0.434820,0.000006,-0.000002,0.000005,0.000008,-0.000004,23.974055,0.000008,
2491,2473,5.10453035970476,-3.82038488314203,-0.0183212650541122,0.007245,-0.079050,-0.011292,0.341076,-3.650009,323.802129,19.798686,0.999003,0.985546,0.004828,0.383559,0.000386,0.000273,-0.000043,0.000400,0.000258,-18.483942,0.000664,
2446,2113,4.19765499680135,-11.7120530678885,-0.00243638078683261,0.007419,-0.083629,-0.028335,0.409590,-3.944739,329.727758,18.342196,0.999106,0.979796,0.005861,0.347256,0.001180,0.001236,-0.000128,0.001339,0.001078,-51.177871,0.002422,
2221,2893,-0.852365199576699,5.32475668815751,-0.00511118318701165,0.008762,-0.076719,0.001358,0.370681,-3.496003,317.070792,21.084225,0.999606,0.993152,0.003478,0.440638,0.000031,0.000036,0.000010,0.000044,0.000023,52.401727,0.000069,
2371,2923,2.40210724512706,5.98589631126102,-0.00676123076323165,0.008869,-0.077622,0.006229,0.354355,-3.511100,316.391118,21.430207,0.999324,0.990620,0.003918,0.424319,0.000006,0.000001,0.000013,0.000017,-0.000010,39.825271,0.000017,
2386,2968,2.71978633330439,6.96510239324289,-0.00952905641713642,0.009136,-0.078152,0.005164,0.369685,-3.561936,315.656342,21.613691,0.999521,0.991051,0.003930,0.348716,0.000005,-0.000014,0.000020,0.000017,-0.000026,32.520167,0.000027,
2356,3268,2.01348955524854,13.4734888285154,0.0100105052590607,0.010915,-0.077364,0.008237,0.442618,-3.511489,310.968491,22.276921,0.999581,0.993245,0.003290,0.417772,0.000002,-0.000003,0.000008,0.000008,-0.000010,36.343341,0.000010,
2131,2308,-2.71689310685808,-7.43050594272512,-0.0175534660725134,0.003090,-0.078259,-0.016468,0.164662,-3.634178,326.539666,20.583199,0.998619,0.985543,0.005144,0.394402,0.000595,0.000505,0.000040,0.000610,0.000490,20.905312,0.001102,
2326,3193,1.3784748363543,11.8415547857587,0.0386843221078266,0.010746,-0.077842,0.006604,0.441178,-3.562549,312.447168,21.888108,0.999721,0.994858,0.003134,0.426408,0.000007,0.000002,0.000016,0.000021,-0.000012,40.010074,0.000021,
2161,2398,-2.07705516142701,-5.46339036449653,-0.0182815676797645,0.004423,-0.077356,-0.016325,0.226233,-3.602158,325.027840,20.517332,0.998689,0.987344,0.004694,0.444403,0.000408,0.000302,0.000000,0.000408,0.000302,0.012083,0.000713,
2356,3043,2.0552877772076,8.59137094879447,0.00448843447475156,0.009906,-0.077427,0.002783,0.414974,-3.523979,314.582055,21.675700,0.999535,0.992509,0.003594,0.441011,-0.000003,-0.000002,0.000016,0.000013,-0.000019,46.081312,0.000019,
2161,2608,-2.11064778883432,-0.878865393678687,-0.0234981228227866,0.006653,-0.076526,-0.006201,0.298131,-3.510899,321.658187,20.804961,0.999221,0.991094,0.004133,0.405311,0.000164,0.000074,0.000011,0.000166,0.000073,7.094528,0.000245,
2116,2278,-3.03818895825625,-8.08641517037221,-0.0182360643692618,0.003269,-0.077919,-0.023296,0.192875,-3.665430,327.109349,20.660617,0.998405,0.984022,0.005329,0.334240,0.000661,0.000609,0.000065,0.000705,0.000565,34.010521,0.001273,
2311,3103,1.06784182823932,9.88992107114892,0.0246645681023097,0.009930,-0.077140,0.003856,0.413784,-3.522896,313.785222,21.718199,0.999457,0.993329,0.003476,0.379005,0.000000,-0.000012,0.000006,0.000002,-0.000014,21.729955,0.000015,
2191,2563,-1.45073782919471,-1.86092234322657,-0.0154394616483273,0.005958,-0.076948,-0.005957,0.265021,-3.527815,322.322512,20.637439,0.999283,0.990106,0.004088,0.478878,0.000207,0.000141,0.000022,0.000214,0.000135,16.837334,0.000351,
2251,2848,-0.193670546669313,4.34912214010534,-0.0182393693483505,0.008635,-0.077009,0.001808,0.362509,-3.507022,317.618743,21.082717,0.999348,0.992216,0.003766,0.415112,0.000046,0.000067,0.000016,0.000076,0.000037,61.839624,0.000115,
2281,3208,0.399386932494899,12.1637917611321,0.0496892183893465,0.010594,-0.077361,0.008226,0.430615,-3.526643,312.326266,21.813999,0.999810,0.995193,0.002880,0.350850,0.000012,0.000017,0.000011,0.000026,0.000003,50.861340,0.000032,
2311,2683,1.14015597034941,0.759033888310725,-0.019560279556913,0.007523,-0.077618,-0.001771,0.321597,-3.541393,320.171908,20.736064,0.999703,0.991763,0.003733,0.450717,0.000087,0.000118,0.000016,0.000125,0.000080,66.666157,0.000206,
2416,3268,3.31691327210536,13.4783959801482,0.0113879084701125,0.011369,-0.077886,0.008638,0.459477,-3.517800,311.033880,22.538886,0.999547,0.992264,0.003555,0.476727,-0.000005,-0.000027,-0.000001,-0.000005,-0.000027,-1.896121,0.000035,
2236,2833,-0.517385303338017,4.02237964649569,-0.0170768907435104,0.008181,-0.076985,0.001867,0.341798,-3.501961,317.882911,21.071330,0.999483,0.991083,0.003778,0.390603,0.000048,0.000069,0.000015,0.000077,0.000040,62.662023,0.000119,
2131,2518,-2.74936611553819,-2.84289464837679,-0.0220121042041796,0.005516,-0.077098,-0.005661,0.244205,-3.543187,323.190998,20.737808,0.998970,0.986385,0.004740,0.431822,0.000248,0.000147,0.000014,0.000250,0.000145,7.695119,0.000399,
2146,2323,-2.39233323793644,-7.10299743969763,-0.0125163963585351,0.003169,-0.078189,-0.015132,0.164523,-3.635656,326.280102,20.544324,0.999013,0.984719,0.005126,0.381981,0.000554,0.000452,0.000017,0.000557,0.000449,9.394820,0.001008,
2461,2113,4.52471078628414,-11.7109613799077,-0.0141290797536158,0.007468,-0.083452,-0.028458,0.412966,-3.925312,329.665834,18.230315,0.999041,0.978712,0.005947,0.389653,0.001214,0.001236,-0.000140,0.001366,0.001084,-47.220676,0.002456,
2311,2893,1.10242873456167,5.3314436636022,-0.0212765907293715,0.008735,-0.077359,-0.000941,0.374777,-3.559427,316.791151,21.324149,0.999420,0.991782,0.003752,0.295572,0.000017,0.000026,0.000020,0.000042,0.000001,51.466882,0.000049,
2326,2698,1.46353928471675,1.08670355827326,-0.0284421542832547,0.007829,-0.077661,-0.002578,0.338220,-3.545875,319.861645,20.721249,0.999538,0.991124,0.003921,0.491263,0.000084,0.000128,0.000024,0.000138,0.000074,66.570291,0.000216,
2296,3268,0.712268027260919,13.4670984844371,0.0205591729448997,0.011124,-0.077188,0.008340,0.454280,-3.514147,311.102290,21.945426,0.999591,0.992628,0.003393,0.419513,0.000011,0.000012,0.000014,0.000025,-0.000002,45.758276,0.000028,
2326,2068,1.58016060997434,-12.6982284419232,-0.011047842531184,0.004448,-0.084629,-0.027315,0.264782,-4.007201,330.133628,18.811718,0.998848,0.982506,0.005473,0.418754,0.001186,0.001276,-0.000053,0.001301,0.001161,-65.063595,0.002463,
2146,2563,-2.42962981304514,-1.86103354214226,-0.0193938468655688,0.006155,-0.076611,-0.006149,0.275132,-3.518759,322.454881,20.756305,0.998767,0.986596,0.004645,0.435526,0.000212,0.000124,0.000011,0.000214,0.000122,7.269161,0.000340,
2191,2773,-1.48622925661217,2.71623256692212,-0.0343610306093751,0.007988,-0.076829,0.001095,0.336497,-3.498852,318.827727,20.940498,0.999275,0.989657,0.004176,0.414372,0.000069,0.000066,0.000001,0.000070,0.000066,24.584071,0.000135,
2341,3238,1.6951302728824,12.8208731444522,0.0282606621183845,0.010889,-0.076996,0.005339,0.452207,-3.503164,311.625534,22.141603,0.999476,0.991999,0.003457,0.409174,0.000012,-0.000007,0.000013,0.000019,-0.000014,27.397975,0.000020,
2116,2473,-3.06852991164346,-3.82369318295948,-0.0275005836624587,0.005224,-0.076400,-0.013606,0.254604,-3.551396,323.947104,20.817604,0.999210,0.988653,0.004417,0.358605,0.000315,0.000162,0.000016,0.000316,0.000160,5.838163,0.000485,
2266,3163,0.0810159830991708,11.1875856627901,0.0389354378657458,0.010477,-0.077038,0.009498,0.421695,-3.509802,312.987189,21.674618,0.999223,0.990055,0.004076,0.361337,0.000008,0.000003,0.000008,0.000014,-0.000003,35.864321,0.000015,
2101,2428,-3.38861872547474,-4.80723251774056,-0.0184057114789198,0.004006,-0.076943,-0.009127,0.185198,-3.546796,324.749537,20.814906,0.999232,0.987927,0.004457,0.393395,0.000385,0.000205,0.000040,0.000394,0.000197,11.957384,0.000601,
2236,3013,-0.545829054008543,7.93186659603682,0.0083354126705899,0.009857,-0.076646,0.003946,0.412407,-3.507305,315.232593,21.304693,0.999362,0.989843,0.003956,0.399746,0.000015,-0.000011,0.000001,0.000015,-0.000011,2.041491,0.000016,
2341,2803,1.77129341503574,3.37450216949148,-0.020679551182468,0.008422,-0.077625,-0.000118,0.356779,-3.544073,318.231050,21.089678,0.999479,0.992880,0.003599,0.379535,0.000048,0.000069,0.000023,0.000084,0.000033,57.453380,0.000120,
2506,2488,5.42878535532873,-3.49229948033135,-0.0177206940771839,0.007398,-0.079036,-0.008585,0.337731,-3.634712,323.604516,19.811964,0.999262,0.985881,0.004705,0.411626,0.000362,0.000244,-0.000036,0.000373,0.000234,-15.710133,0.000612,
2476,2263,4.82264563222776,-8.42019733057139,-0.00354777658589001,0.007779,-0.080641,-0.021219,0.401973,-3.776596,327.353239,18.875951,0.998681,0.980152,0.005483,0.396440,0.000802,0.000676,-0.000132,0.000885,0.000593,-32.283070,0.001488,
2206,2848,-1.17134578166293,4.34681680301971,-0.0174192763985275,0.008649,-0.076800,0.000811,0.367481,-3.516902,317.736968,21.047249,0.999108,0.990949,0.003906,0.381208,0.000050,0.000064,0.000012,0.000071,0.000043,59.356338,0.000115,
2341,2098,1.90200571494088,-12.0389058316333,-0.00472366603167984,0.004261,-0.084619,-0.020425,0.232931,-3.937383,329.667772,18.924199,0.999053,0.983806,0.005270,0.359970,0.001130,0.001224,-0.000059,0.001252,0.001102,-64.293326,0.002355,
2221,2713,-0.823456806005574,1.41006001671752,-0.025470456516075,0.007541,-0.077134,-0.001291,0.322695,-3.522346,319.780385,20.836546,0.999073,0.990414,0.003977,0.435827,0.000091,0.000091,0.000012,0.000103,0.000078,44.632441,0.000182,
2266,2998,0.107854397741239,7.60834376624646,0.00263196403653865,0.009613,-0.076953,0.001925,0.406909,-3.513468,315.365494,21.351897,0.999478,0.991890,0.003656,0.410015,0.000016,0.000000,0.000008,0.000020,-0.000003,21.925070,0.000021,
2356,2158,2.22000704557708,-10.721853618267,-0.00190577666376157,0.005518,-0.082928,-0.022809,0.299895,-3.875302,328.791866,19.102357,0.998811,0.982097,0.005557,0.319782,0.000970,0.001023,-0.000060,0.001062,0.000931,-57.016660,0.001995,
2341,2998,1.73711993255722,7.61285714078577,0.00682942958513877,0.009346,-0.077811,0.006613,0.375951,-3.543110,315.299501,21.562345,0.999887,0.997343,0.002712,0.378848,-0.000007,-0.000003,0.000008,0.000003,-0.000013,52.221255,0.000013,
2206,2683,-1.14473715818892,0.75670871536925,-0.028557694908784,0.007248,-0.076816,-0.004048,0.318305,-3.528022,320.276468,20.831451,0.999632,0.993555,0.003506,0.401339,0.000113,0.000088,0.000015,0.000121,0.000081,25.480880,0.000203,
2371,2938,2.39947872363614,6.31160417423809,-0.00347502603392513,0.008852,-0.077794,0.006164,0.353676,-3.539559,316.173328,21.482617,0.999313,0.989929,0.003973,0.383909,0.000008,-0.000005,0.000009,0.000013,-0.000010,27.380694,0.000013,
2101,2203,-3.3552068460115,-9.7295757794644,-0.0120539393271315,0.001166,-0.079948,-0.017152,0.077312,-3.745231,328.321847,20.628466,0.997903,0.982012,0.005597,0.332706,0.000809,0.000837,0.000103,0.000927,0.000720,48.863710,0.001651,
2386,2983,2.71773877203963,7.29027038858502,-0.000987236935202418,0.009451,-0.078093,0.006922,0.377844,-3.562506,315.491217,21.636806,0.999499,0.990109,0.004095,0.367747,0.000005,-0.000008,0.000020,0.000019,-0.000022,35.935852,0.000024,
2491,2488,5.1020711727409,-3.49271186251478,-0.0131432795633373,0.007391,-0.078618,-0.011799,0.349948,-3.619276,323.610504,19.862012,0.999219,0.985884,0.004664,0.410994,0.000362,0.000238,-0.000043,0.000376,0.000224,-17.468236,0.000606,
2131,2323,-2.7187156766592,-7.10259308825416,-0.0129542334508415,0.003448,-0.077945,-0.015399,0.177980,-3.620238,326.349316,20.623425,0.998986,0.986124,0.004908,0.375655,0.000561,0.000454,0.000030,0.000569,0.000446,14.615174,0.001017,
2326,3208,1.37597501695299,12.1672896587758,0.0430585503490306,0.010815,-0.077237,0.007797,0.440498,-3.529106,312.236824,21.951907,0.999605,0.993595,0.003306,0.429407,0.000009,0.000007,0.000018,0.000026,-0.000010,43.047967,0.000026,
2446,2128,4.19478688886031,-11.3828204563636,-0.00253458596807832,0.007674,-0.083465,-0.027022,0.416490,-3.934809,329.491644,18.395408,0.999083,0.978630,0.006083,0.359514,0.001141,0.001191,-0.000124,0.001292,0.001040,-50.634377,0.002336,
2296,3088,0.744804627831272,9.56249966749614,0.0225243027672377,0.010037,-0.077389,0.003639,0.419775,-3.532282,314.033491,21.564582,0.999574,0.993785,0.003413,0.436991,0.000009,-0.000013,-0.000001,0.000009,-0.000013,-1.492095,0.000013,
2146,2338,-2.39483718063585,-6.77433005785799,-0.0149139016744471,0.003409,-0.077796,-0.012988,0.169162,-3.600902,326.022433,20.568612,0.999121,0.986515,0.004752,0.402338,0.000517,0.000421,0.000011,0.000518,0.000419,6.662734,0.000939,
2356,3283,2.01014483061859,13.7987925067226,1.0793578439916E-06,0.011170,-0.077591,0.007861,0.455605,-3.528322,310.651256,22.292424,0.999499,0.993018,0.003378,0.423019,0.000000,-0.000002,0.000001,0.000000,-0.000003,27.171519,0.000003,
2416,3283,3.31338810280177,13.8043725232642,0.00568082369210288,0.011370,-0.077970,0.010106,0.454027,-3.540422,310.733806,22.646531,0.999674,0.992257,0.003551,0.392414,-0.000005,-0.000033,-0.000005,-0.000005,-0.000034,-9.767313,0.000042,
2251,3058,-0.226209231934725,8.90804661475413,0.0328106261512744,0.010056,-0.076703,0.004212,0.420350,-3.495429,314.679353,21.394682,0.999512,0.993102,0.003443,0.433448,0.000011,-0.000020,-0.000005,0.000012,-0.000021,-9.102978,0.000021,
2161,2623,-2.11394751846237,-0.550750735683195,-0.0301150171487734,0.006517,-0.076502,-0.002900,0.281789,-3.494047,321.343080,20.857790,0.999419,0.991166,0.004005,0.380206,0.000157,0.000064,0.000008,0.000158,0.000063,4.961889,0.000228,
2221,2908,-0.854728298522947,5.65078134448718,-0.00156145756710657,0.008689,-0.076666,0.000165,0.371176,-3.496651,316.856549,21.129433,0.999537,0.991992,0.003887,0.413340,0.000032,0.000027,0.000007,0.000037,0.000021,35.845818,0.000059,
2191,2578,-1.45330041706216,-1.53417711803389,-0.0164862898129741,0.006252,-0.077328,-0.002433,0.267388,-3.531434,322.073405,20.618190,0.999281,0.991331,0.003891,0.509910,0.000190,0.000124,0.000023,0.000197,0.000117,17.199282,0.000318,
2356,2893,2.081847869819,5.33261859020492,-0.00620058703867699,0.008771,-0.077362,0.002344,0.364040,-3.529416,316.891665,21.347730,0.999505,0.991972,0.003661,0.380807,0.000015,0.000023,0.000022,0.000041,-0.000003,49.739381,0.000046,
2176,2713,-1.80184564729452,1.40911846524408,-0.0265850742860039,0.007394,-0.076727,-0.002607,0.320940,-3.524116,319.900161,20.908802,0.999429,0.990491,0.003834,0.362143,0.000089,0.000082,0.000003,0.000090,0.000081,21.437160,0.000171,
2281,2983,0.435607669169286,7.28389742559919,-0.00532883077306678,0.009279,-0.076733,0.000375,0.396345,-3.515721,315.510315,21.348264,0.999351,0.991067,0.003806,0.426061,0.000010,0.000001,0.000008,0.000015,-0.000004,29.552041,0.000016,
2281,3223,0.39670663537327,12.488491317995,0.0483964434922655,0.010633,-0.077088,0.006694,0.437804,-3.499902,312.076897,21.758523,0.999781,0.994893,0.003046,0.459800,0.000012,0.000016,0.000009,0.000023,0.000005,49.953424,0.000030,
2176,2503,-1.7682395853485,-3.16919073682701,-0.0255321169863123,0.005197,-0.077532,-0.009066,0.239567,-3.573878,323.231566,20.635150,0.998830,0.984923,0.005117,0.404339,0.000263,0.000179,0.000003,0.000263,0.000179,2.231787,0.000445,
2506,2503,5.42555247911352,-3.16353387273519,-0.0218094393387673,0.007536,-0.078726,-0.009675,0.348419,-3.643748,323.336928,19.935573,0.999127,0.985620,0.004996,0.341180,0.000324,0.000231,-0.000028,0.000332,0.000223,-15.227429,0.000559,
2311,3118,1.06530339464231,10.2155035355464,0.0252727765156919,0.010091,-0.077067,0.003366,0.422911,-3.521292,313.553912,21.755559,0.999306,0.992063,0.003752,0.374473,0.000005,-0.000007,0.000010,0.000011,-0.000013,30.018547,0.000014,
2401,3103,3.02346950254742,9.89636431706933,0.0242851268624804,0.010109,-0.077655,0.003611,0.420037,-3.535302,313.793956,22.007250,0.999539,0.992934,0.003457,0.421610,0.000010,-0.000001,0.000024,0.000029,-0.000019,38.303932,0.000030,
2326,2938,1.42164008102529,6.30794497762702,-0.000307289339730232,0.009041,-0.077775,0.004448,0.369816,-3.564913,316.219081,21.356849,0.998866,0.988543,0.004376,0.385304,0.000007,0.000008,0.000013,0.000021,-0.000005,45.080575,0.000021,
2116,2488,-3.07090207575996,-3.49791263119425,-0.024075409676243,0.005190,-0.077089,-0.011084,0.245347,-3.570079,323.724885,20.736296,0.999062,0.987746,0.004558,0.425842,0.000293,0.000158,0.000016,0.000295,0.000157,6.641738,0.000458,
2356,3058,2.05296239902476,8.91670295478234,0.0128363635341771,0.010070,-0.077840,0.006420,0.409493,-3.541915,314.401354,21.746146,0.999563,0.993464,0.003383,0.390393,-0.000003,-0.000006,0.000018,0.000014,-0.000022,42.454213,0.000022,
2371,2188,2.54161682582025,-10.0629140137165,-0.00781679658172152,0.005772,-0.081752,-0.021951,0.309458,-3.807826,328.273336,19.115825,0.998949,0.982497,0.005283,0.379101,0.000892,0.000936,-0.000065,0.000983,0.000845,-54.369073,0.001830,
2341,3253,1.69143473644031,13.1460830766362,0.0180222889260904,0.010954,-0.077406,0.007252,0.448362,-3.518917,311.289844,22.135788,0.999505,0.992666,0.003367,0.434492,0.000010,-0.000008,0.000015,0.000018,-0.000016,29.964850,0.000020,
2131,2533,-2.75208467907079,-2.51547780824684,-0.0200406514300653,0.005253,-0.076954,-0.003350,0.225266,-3.520991,322.945716,20.766248,0.998841,0.986203,0.004769,0.432260,0.000227,0.000132,0.000019,0.000231,0.000129,10.944390,0.000364,
2266,3178,0.0785343961534331,11.5122560357365,0.0384943323555262,0.010718,-0.077077,0.009210,0.433758,-3.513191,312.750277,21.640348,0.999447,0.991611,0.003636,0.416874,0.000009,0.000004,0.000007,0.000014,-0.000001,36.371153,0.000016,
2371,2953,2.39675309345138,6.63796010792837,-0.00768630857152175,0.009032,-0.077746,0.002363,0.375519,-3.554503,315.914896,21.532408,0.999408,0.989734,0.004024,0.359893,0.000007,-0.000014,0.000012,0.000012,-0.000019,23.622467,0.000019,
2326,2083,1.57654618845357,-12.3661154891376,-0.0119093655246161,0.003912,-0.084435,-0.024441,0.230454,-3.949845,329.848821,19.054985,0.999301,0.984560,0.005269,0.270997,0.001146,0.001266,-0.000055,0.001287,0.001124,-68.850253,0.002413,
2146,2578,-2.43275797582495,-1.53269672285763,-0.0280113658293999,0.006207,-0.076461,-0.004011,0.271140,-3.487957,322.135596,20.781931,0.998994,0.988594,0.004451,0.449689,0.000194,0.000102,0.000010,0.000195,0.000101,5.813359,0.000301,
2161,2413,-2.0801686104233,-5.13501831206137,-0.0183703779330244,0.004236,-0.078075,-0.009809,0.197466,-3.598808,324.755847,20.594685,0.998623,0.986887,0.004859,0.382314,0.000392,0.000279,-0.000002,0.000392,0.000279,-0.780308,0.000675,
2461,2128,4.5227662994532,-11.3824552417173,-0.00555891670575193,0.008214,-0.083802,-0.024102,0.430650,-3.909167,329.512848,18.305799,0.999072,0.976221,0.006211,0.387343,0.001174,0.001190,-0.000135,0.001317,0.001047,-46.695539,0.002369,
2311,2698,1.13747660998433,1.08542822112285,-0.0216680088178691,0.007664,-0.077845,-0.003095,0.332556,-3.554785,319.921745,20.725705,0.999744,0.992310,0.003658,0.480193,0.000080,0.000129,0.000023,0.000139,0.000071,68.277933,0.000213,
2281,3238,0.393182012945264,12.8148687372866,0.0355653027406788,0.010745,-0.077024,0.006086,0.445024,-3.504096,311.730209,21.827283,0.999774,0.993959,0.003225,0.413110,0.000013,0.000008,0.000011,0.000022,-0.000001,38.362403,0.000025,
2326,2713,1.46049933759147,1.4159709955233,-0.0348925694815989,0.007754,-0.076996,-0.006863,0.349781,-3.538417,319.574129,20.924235,0.999119,0.987493,0.004438,0.330531,0.000075,0.000126,0.000025,0.000137,0.000065,67.621929,0.000206,
2356,3298,2.00742459895011,14.1247655753784,-0.00391426243527349,0.011582,-0.077452,0.007477,0.476018,-3.521987,310.391975,22.384462,0.999677,0.993383,0.003358,0.374509,-0.000008,-0.000025,0.000002,-0.000007,-0.000026,7.756108,0.000035,
2221,2728,-0.82577828801168,1.73696395184659,-0.025512216385323,0.007620,-0.076535,-0.004288,0.336143,-3.515113,319.549601,20.877389,0.999146,0.990601,0.003883,0.421497,0.000084,0.000083,0.000005,0.000089,0.000079,42.658851,0.000168,
2446,2143,4.19090273847299,-11.0520133319085,-0.0146623904777243,0.007755,-0.083060,-0.027528,0.422272,-3.914736,329.153497,18.458217,0.998896,0.978452,0.006092,0.372404,0.001088,0.001146,-0.000126,0.001246,0.000988,-51.508678,0.002239,
2281,2998,0.433455210565128,7.60986683064331,0.00196954472033894,0.009550,-0.076882,0.003510,0.398382,-3.493863,315.328240,21.416105,0.999297,0.990803,0.003822,0.407211,0.000011,-0.000003,0.000005,0.000013,-0.000004,17.235320,0.000013,
2206,2698,-1.14799300642292,1.08354103581074,-0.036781478272701,0.007394,-0.076908,-0.000402,0.313432,-3.520574,319.959483,20.789495,0.999369,0.992275,0.003680,0.468084,0.000105,0.000093,0.000016,0.000116,0.000082,35.069073,0.000199,
2311,2908,1.10037648323127,5.65634612367184,-0.00913753297572839,0.008603,-0.077438,-0.000157,0.366005,-3.558030,316.639765,21.328630,0.999475,0.992706,0.003648,0.324276,0.000014,0.000022,0.000017,0.000036,0.000000,52.186848,0.000042,
2341,3268,1.68782796390168,13.4716794898034,0.00937096811202309,0.011123,-0.077697,0.010942,0.443146,-3.529971,310.965759,22.174889,0.999541,0.992934,0.003290,0.419479,0.000006,-0.000005,0.000012,0.000013,-0.000013,32.922503,0.000015,
2341,2113,1.90027215452792,-11.7098424633191,-0.0025769991612492,0.004756,-0.083707,-0.025757,0.274475,-3.925792,329.485396,18.978221,0.999159,0.983540,0.005234,0.357137,0.001087,0.001196,-0.000052,0.001217,0.001066,-68.028959,0.002284,
2191,2593,-1.45618591750002,-1.20633644364005,-0.0192027048498176,0.006267,-0.077798,-0.000065,0.260488,-3.551741,321.800585,20.706411,0.998808,0.988366,0.004422,0.416488,0.000174,0.000107,0.000023,0.000181,0.000100,17.082699,0.000285,
2386,2023,2.90192579229128,-13.6878602890306,-0.00948819284337787,0.005901,-0.085606,-0.033606,0.355576,-4.063112,330.979885,18.335266,0.997344,0.970667,0.007195,0.314500,0.001410,0.001347,-0.000081,0.001466,0.001291,-34.353165,0.002759,
2266,3193,0.0756669130766205,11.8381840153438,0.0344338891551388,0.010709,-0.076904,0.007129,0.440402,-3.501525,312.476874,21.689662,0.999546,0.991852,0.003502,0.403299,0.000009,0.000013,0.000007,0.000018,0.000003,52.775818,0.000023,
2356,2173,2.21654086935501,-10.3936583788371,-0.00500555689166049,0.005021,-0.082251,-0.023978,0.281533,-3.862745,328.506094,19.041596,0.998940,0.981824,0.005542,0.434964,0.000929,0.000970,-0.000060,0.001013,0.000887,-54.490611,0.001901,
2236,3028,-0.548270347796954,8.25753439295799,0.012427556158741,0.009691,-0.076498,0.002680,0.408990,-3.497927,315.018434,21.341408,0.999454,0.991521,0.003651,0.392860,0.000013,-0.000013,-0.000001,0.000013,-0.000013,-1.240646,0.000015,
2326,2953,1.41907340874733,6.63540581351231,-0.00297449341707079,0.009321,-0.076965,0.002388,0.390236,-3.519534,315.971359,21.458061,0.998986,0.988159,0.004578,0.363591,0.000006,-0.000001,0.000014,0.000017,-0.000012,37.806305,0.000017,
2386,2998,2.71555549969235,7.61561081112772,0.00640388494088029,0.009553,-0.078033,0.006535,0.383968,-3.564451,315.314278,21.672309,0.999537,0.990713,0.003919,0.372981,0.000005,-0.000007,0.000020,0.000020,-0.000021,36.632572,0.000024,
2146,2353,-2.39675262242896,-6.44677742064952,-0.0161018276488676,0.003845,-0.077657,-0.015518,0.196886,-3.593437,325.798419,20.535365,0.999194,0.986135,0.004692,0.452805,0.000485,0.000387,0.000010,0.000486,0.000386,5.928592,0.000874,
2251,2863,-0.196346818684486,4.67498018916267,-0.0174652932952313,0.008615,-0.077160,0.002408,0.359486,-3.530280,317.378193,21.103903,0.999438,0.992185,0.003684,0.393766,0.000042,0.000059,0.000010,0.000063,0.000037,65.699836,0.000102,
2371,2203,2.53883451281873,-9.73397111054386,-0.0113595021696256,0.006026,-0.081465,-0.023244,0.325806,-3.810530,328.018037,19.145448,0.998423,0.980974,0.005650,0.390580,0.000853,0.000882,-0.000057,0.000926,0.000809,-52.254855,0.001737,
2326,3223,1.37288945909637,12.4928510172239,0.0392270364128535,0.010773,-0.077222,0.007068,0.441131,-3.532759,311.959284,21.992882,0.999434,0.993012,0.003326,0.417760,0.000009,0.000001,0.000014,0.000019,-0.000010,36.885335,0.000019,
2116,2503,-3.07291794557118,-3.17026716036612,-0.0286848993562785,0.005758,-0.076684,-0.012881,0.276906,-3.552462,323.475312,20.720739,0.998965,0.985664,0.004696,0.463811,0.000273,0.000152,0.000016,0.000275,0.000149,7.594269,0.000431,
2416,3298,3.30929708270958,14.1294466043431,-0.00896112389983728,0.011443,-0.078178,0.010645,0.455369,-3.552024,310.365876,22.616236,0.999682,0.992758,0.003442,0.457727,-0.000007,-0.000054,-0.000003,-0.000007,-0.000054,-3.693402,0.000066,
2236,2848,-0.520382068388802,4.34864375688054,-0.0264004705177854,0.008376,-0.077203,0.000295,0.355755,-3.528059,317.574970,21.052430,0.999317,0.991362,0.003783,0.404433,0.000045,0.000067,0.000018,0.000078,0.000035,60.937939,0.000115,
2296,3103,0.742508950900646,9.88846412566046,0.0252684940194285,0.010265,-0.077123,0.003220,0.431774,-3.529430,313.822833,21.645311,0.999330,0.991871,0.003826,0.388118,0.000007,-0.000010,0.000001,0.000007,-0.000010,2.455250,0.000010,
2311,3133,1.06218337804484,10.5406809554496,0.026677773843403,0.009851,-0.077311,0.006095,0.402476,-3.523375,313.299871,21.768125,0.999431,0.992726,0.003595,0.390801,0.000003,-0.000006,0.000013,0.000012,-0.000015,35.496822,0.000016,
2296,3283,0.709341121494997,13.7925500392517,0.0138780756025767,0.011251,-0.076981,0.005562,0.469774,-3.496754,310.815352,21.956877,0.999468,0.992756,0.003350,0.454259,0.000007,0.000024,0.000012,0.000030,0.000001,63.472480,0.000035,
2326,2098,1.57378498352295,-12.0401380148313,-0.0063243854075381,0.003626,-0.084477,-0.022459,0.210533,-3.957959,329.635374,18.880204,0.999070,0.983184,0.005424,0.475103,0.001102,0.001231,-0.000055,0.001251,0.001082,-69.648214,0.002335,
2356,3073,2.05073155944676,9.24208894213489,0.0184646417955037,0.010298,-0.077785,0.006956,0.418124,-3.537708,314.211791,21.784764,0.999510,0.993246,0.003435,0.394083,0.000000,-0.000011,0.000015,0.000011,-0.000022,34.453612,0.000022,
2341,2818,1.76824684491364,3.70116342418749,-0.0221290933462797,0.008329,-0.077199,0.000218,0.351521,-3.529968,317.969121,21.119088,0.999207,0.989454,0.004008,0.400789,0.000037,0.000069,0.000023,0.000081,0.000025,61.922655,0.000111,
2401,3118,3.02092344116948,10.2218783887459,0.0333070176029082,0.009847,-0.077672,0.004543,0.404562,-3.539033,313.608363,22.097370,0.999818,0.995861,0.002842,0.371995,0.000009,0.000001,0.000026,0.000032,-0.000022,40.763418,0.000032,
2281,3253,0.389520816281401,13.1408520392203,0.0224654776508828,0.011027,-0.077213,0.009402,0.446827,-3.511296,311.375959,21.866784,0.999703,0.993135,0.003386,0.392988,0.000012,0.000011,0.000018,0.000029,-0.000007,43.748608,0.000031,
2176,2728,-1.80468655923163,1.73515103591266,-0.0323214685365087,0.007444,-0.076828,-0.002972,0.324370,-3.529035,319.612558,20.835317,0.999398,0.990318,0.003994,0.443443,0.000079,0.000076,-0.000001,0.000080,0.000076,-23.390922,0.000156,
2341,3283,1.68487608126656,13.7970028578171,0.000215974904222094,0.011524,-0.077704,0.008583,0.469826,-3.546589,310.669405,22.196422,0.999563,0.993715,0.003182,0.416504,0.000002,-0.000001,0.000008,0.000009,-0.000008,39.612602,0.000009,
2461,2143,4.51908685409149,-11.0524170586223,-0.011933978203615,0.008128,-0.083477,-0.023773,0.425669,-3.891308,329.212071,18.362913,0.998492,0.976764,0.006152,0.405694,0.001120,0.001152,-0.000132,0.001269,0.001003,-48.405529,0.002277,
2371,3103,2.37118828109551,9.8946303991214,0.0207039948885495,0.010163,-0.077709,0.004410,0.420508,-3.543948,313.744928,21.939993,0.999380,0.990916,0.003866,0.365746,0.000005,-0.000012,0.000018,0.000016,-0.000024,32.565440,0.000024,
2386,2038,2.8989338195081,-13.3580267737874,-0.0101664720562553,0.006078,-0.085393,-0.030747,0.353546,-4.010183,330.730215,18.360891,0.997837,0.975328,0.006622,0.388816,0.001353,0.001303,-0.000085,0.001417,0.001239,-36.737253,0.002658,
2191,2788,-1.48844113435038,3.04198354215511,-0.0293475972300143,0.008038,-0.076723,0.001773,0.336658,-3.511364,318.626249,20.952488,0.999049,0.987331,0.004548,0.404292,0.000061,0.000067,0.000002,0.000068,0.000061,72.301600,0.000128,
2491,2503,5.09839294926402,-3.16485004442933,-0.0122378233008931,0.007245,-0.079076,-0.005598,0.319349,-3.630757,323.343694,19.950317,0.999245,0.986375,0.004701,0.371268,0.000326,0.000226,-0.000038,0.000339,0.000213,-18.575690,0.000556,
2161,2428,-2.08211620007189,-4.80742154346362,-0.0166784919337033,0.004814,-0.078293,-0.007410,0.216632,-3.602330,324.546761,20.629559,0.998959,0.987438,0.004653,0.355469,0.000369,0.000245,0.000004,0.000369,0.000245,2.028082,0.000618,
2506,2518,5.42195606968628,-2.83632955003755,-0.0225547321857107,0.007381,-0.079198,-0.006513,0.328954,-3.632858,323.067619,19.931792,0.999148,0.986535,0.004898,0.418423,0.000276,0.000239,-0.000026,0.000290,0.000225,-27.095103,0.000517,
2146,2593,-2.43504608437334,-1.20527238353142,-0.0351418217878745,0.006420,-0.075793,-0.010582,0.301069,-3.481161,321.862950,20.766586,0.998897,0.988649,0.004590,0.480765,0.000179,0.000086,0.000010,0.000180,0.000085,6.220713,0.000271,
2356,2908,2.07852164973264,5.65932248745036,-0.0125001574573957,0.008882,-0.077334,0.003692,0.364469,-3.514681,316.594323,21.371318,0.999341,0.991270,0.003819,0.410514,0.000010,0.000013,0.000019,0.000031,-0.000008,46.760885,0.000032,
2281,3013,0.430480134149306,7.93554534512216,-0.00045315380214106,0.009507,-0.077107,0.003882,0.395066,-3.508273,315.059830,21.431201,0.999210,0.990072,0.003924,0.404697,0.000011,-0.000016,0.000004,0.000012,-0.000017,9.015968,0.000017,
2206,2863,-1.1734319010652,4.6726097625679,-0.0119668790118794,0.008601,-0.076140,-0.001702,0.373501,-3.490277,317.544347,21.046519,0.999176,0.992102,0.003649,0.424935,0.000047,0.000058,0.000006,0.000060,0.000044,66.499640,0.000105,
2131,2548,-2.75397512378868,-2.18805591917597,-0.0223751520970836,0.005714,-0.076377,-0.006935,0.257370,-3.512602,322.715444,20.775028,0.998544,0.984096,0.005042,0.438604,0.000217,0.000119,0.000020,0.000221,0.000115,10.861410,0.000341,
2341,3013,1.73505078409642,7.9385304474318,0.00792024656084322,0.009745,-0.077442,0.003046,0.406982,-3.525985,315.094504,21.569518,0.999638,0.993337,0.003388,0.424865,-0.000008,-0.000011,0.000009,-0.000001,-0.000019,40.676513,0.000022,
2221,2743,-0.828956380728943,2.06347362617612,-0.028803325437309,0.007664,-0.077535,0.001114,0.320488,-3.547093,319.263017,20.899874,0.999199,0.989661,0.004113,0.386178,0.000076,0.000078,0.000003,0.000080,0.000074,52.558640,0.000154,
2146,2368,-2.39884164775911,-6.11884216171055,-0.0146664790225373,0.004359,-0.077894,-0.011712,0.208910,-3.596824,325.580295,20.578637,0.998901,0.987316,0.004590,0.415589,0.000463,0.000365,0.000006,0.000463,0.000365,3.662991,0.000830,
2131,2338,-2.72175571087387,-6.77444402445345,-0.0111073165150515,0.002974,-0.077775,-0.011220,0.143773,-3.593622,326.088537,20.650156,0.999202,0.986840,0.004699,0.383181,0.000521,0.000421,0.000023,0.000527,0.000416,12.387379,0.000944,
2266,3013,0.105615440367888,7.93327028504141,0.00803760075069704,0.009801,-0.077119,0.003549,0.410096,-3.527830,315.169422,21.349954,0.999405,0.991617,0.003643,0.422260,0.000016,-0.000013,0.000005,0.000017,-0.000014,10.243660,0.000018,
2296,3298,0.70517842092034,14.1183066523849,0.00174556995796138,0.011127,-0.077327,0.010625,0.446757,-3.509858,310.444190,22.002329,0.999624,0.994318,0.003150,0.423915,0.000005,-0.000003,0.000016,0.000018,-0.000016,38.020092,0.000020,
2161,2638,-2.11651951928177,-0.224048337334537,-0.031408158005263,0.006616,-0.076856,-0.001589,0.282227,-3.506160,321.089775,20.860583,0.999758,0.993251,0.003544,0.376015,0.000148,0.000056,0.000010,0.000149,0.000055,5.983044,0.000211,
2251,3073,-0.230130645719509,9.23438909223775,0.0247395404970234,0.009790,-0.076919,0.009703,0.390037,-3.491750,314.336110,21.430876,0.999513,0.992223,0.003558,0.423124,0.000011,-0.000021,-0.000006,0.000012,-0.000022,-10.504759,0.000022,
2251,2878,-0.198665852302838,5.0013614944423,-0.0152270616544001,0.008814,-0.077086,0.002516,0.368285,-3.543396,317.161266,21.177995,0.999499,0.990920,0.003800,0.329490,0.000035,0.000056,0.000011,0.000060,0.000031,66.354429,0.000092,
2326,3238,1.3695322142401,12.8194973197856,0.0315114452343437,0.010951,-0.077043,0.008922,0.443114,-3.501372,311.649728,22.081312,0.999416,0.992548,0.003418,0.393998,0.000009,-0.000006,0.000014,0.000017,-0.000014,31.034862,0.000018,
2311,2923,1.09808113942173,5.98247259708402,-0.0141281880337374,0.009307,-0.076702,-0.002052,0.405237,-3.521555,316.392347,21.290864,0.999084,0.990874,0.003954,0.430514,0.000012,0.000015,0.000015,0.000029,-0.000001,47.634113,0.000033,
2236,3043,-0.550457646383773,8.58327735810108,0.0170271771582406,0.009893,-0.076503,0.003501,0.415685,-3.489134,314.818496,21.392426,0.999572,0.991939,0.003592,0.371035,0.000008,-0.000015,-0.000001,0.000008,-0.000015,-3.591920,0.000015,
2386,2263,2.85285747550015,-8.41613543950435,-0.0300649195183951,0.005856,-0.080461,-0.019259,0.304711,-3.748167,326.880312,19.327996,0.998870,0.984582,0.005127,0.378354,0.000714,0.000658,-0.000064,0.000756,0.000616,-33.184359,0.001374,
2491,2518,5.09525146902167,-2.83703242399726,-0.0212850632177606,0.007784,-0.078854,-0.007518,0.351502,-3.629656,323.056689,19.936625,0.999200,0.986254,0.004649,0.446451,0.000285,0.000222,-0.000036,0.000301,0.000206,-24.316673,0.000510,
2461,2158,4.51581864960105,-10.7225520126843,-0.0124018684110752,0.007764,-0.082660,-0.025881,0.417309,-3.893074,328.957074,18.493301,0.998649,0.976445,0.006008,0.331110,0.001079,0.001063,-0.000141,0.001212,0.000930,-43.374464,0.002148,
2221,2923,-0.857280829386692,5.9770825626974,-0.00421678691202487,0.008964,-0.076601,0.000434,0.383061,-3.491161,316.601616,21.153410,0.999462,0.992268,0.003728,0.413416,0.000031,0.000014,0.000009,0.000035,0.000010,23.984627,0.000047,
2311,3148,1.05988497568869,10.8661857644536,0.0278275268274797,0.010359,-0.077285,0.007557,0.420933,-3.507718,313.082212,21.795196,0.999526,0.992551,0.003651,0.410605,0.000001,-0.000008,0.000015,0.000012,-0.000019,36.372949,0.000019,
2506,2533,5.41886253117336,-2.50760401026897,-0.0231585446872487,0.007416,-0.078716,-0.006968,0.332556,-3.611975,322.821693,20.063694,0.999450,0.988410,0.004423,0.369702,0.000256,0.000217,-0.000010,0.000259,0.000215,-13.426093,0.000474,
2401,3133,3.0177281188801,10.5482242985124,0.0231822376420041,0.010370,-0.077441,0.004418,0.429292,-3.517524,313.302025,22.123701,0.999770,0.995112,0.002990,0.412055,0.000007,-0.000006,0.000026,0.000027,-0.000026,38.043442,0.000031,
2371,3118,2.36812410169883,10.2201356679566,0.0204750329837111,0.010173,-0.077754,0.006727,0.412788,-3.527899,313.489590,21.951813,0.999600,0.992301,0.003599,0.409858,0.000003,-0.000007,0.000022,0.000021,-0.000024,38.442861,0.000026,
2191,2803,-1.49056315329995,3.36864920513818,-0.0270763397631413,0.008199,-0.076388,-0.000048,0.349917,-3.501510,318.414308,21.008769,0.998979,0.987055,0.004558,0.372351,0.000055,0.000070,0.000002,0.000070,0.000054,81.896350,0.000124,
2476,2278,4.81850243442291,-8.08939270307881,-0.0108993974736222,0.007611,-0.080519,-0.017796,0.381396,-3.750621,327.027359,19.036966,0.999075,0.980652,0.005438,0.320752,0.000761,0.000629,-0.000118,0.000830,0.000559,-30.439661,0.001398,
2446,2158,4.18752736820831,-10.7230194328185,-0.00812443386882933,0.007104,-0.082683,-0.024446,0.381243,-3.889916,328.924367,18.557559,0.998985,0.979635,0.005718,0.352943,0.001049,0.001060,-0.000132,0.001186,0.000923,-46.141511,0.002114,
2296,3118,0.739515856663772,10.2137215948791,0.0273770276918981,0.010097,-0.077463,0.006246,0.413718,-3.531922,313.577137,21.665956,0.999512,0.993398,0.003486,0.393815,0.000012,-0.000007,0.000005,0.000013,-0.000008,15.309551,0.000013,
2176,2518,-1.77024187068451,-2.84170943360076,-0.0264912818570338,0.005755,-0.077132,-0.009304,0.266076,-3.563932,323.007187,20.651530,0.998813,0.987003,0.004801,0.411074,0.000245,0.000170,0.000010,0.000246,0.000169,7.571499,0.000417,
2431,1993,3.89331769240533,-14.3521736207065,0.00726726978376746,0.006600,-0.089316,-0.025604,0.358892,-4.200676,331.667624,17.887217,0.998902,0.976568,0.006030,0.207935,0.001594,0.001395,-0.000091,0.001629,0.001360,-21.090082,0.002993,
2326,2968,1.41609984900851,6.96206015484719,-0.00606711550636874,0.009223,-0.077060,0.000256,0.393014,-3.538838,315.703113,21.551314,0.999679,0.995188,0.003023,0.284878,-0.000001,-0.000001,0.000018,0.000017,-0.000019,44.541111,0.000021,
2341,2128,1.89717148328215,-11.379690677354,-0.00923561249004479,0.004888,-0.082937,-0.026801,0.284457,-3.916472,329.197736,19.043763,0.999319,0.986872,0.004801,0.340925,0.001049,0.001158,-0.000052,0.001179,0.001028,-68.272400,0.002209,
2371,2968,2.39402438717675,6.96503400367209,-0.00917890180755876,0.009189,-0.077436,0.000980,0.387816,-3.539183,315.669035,21.641742,0.999591,0.989796,0.004091,0.306286,0.000004,-0.000010,0.000019,0.000017,-0.000023,35.091740,0.000024,
2266,3208,0.0727869857241004,12.1635092890585,0.0348117827697934,0.010653,-0.077344,0.008979,0.431542,-3.510840,312.225466,21.734537,0.999701,0.994413,0.003148,0.373571,0.000008,0.000017,0.000010,0.000023,0.000002,56.172425,0.000028,
2386,3013,2.71351378308136,7.94149527622645,0.00955650690127641,0.009752,-0.077518,0.001320,0.412169,-3.533680,315.123448,21.699788,0.999567,0.991117,0.003799,0.418984,0.000005,-0.000014,0.000020,0.000018,-0.000027,32.794443,0.000027,
2176,2743,-1.80605105093573,2.06110994975696,-0.0163584297681041,0.007850,-0.076951,0.001735,0.328376,-3.521262,319.506214,20.920660,0.999475,0.990463,0.004113,0.377998,0.000072,0.000073,-0.000006,0.000078,0.000067,-49.214891,0.000145,
2311,3163,1.05794651016485,11.1910043244306,0.0324721470844338,0.010675,-0.077226,0.005141,0.443765,-3.517804,312.898582,21.809422,0.999646,0.993193,0.003473,0.417422,0.000003,-0.000005,0.000016,0.000015,-0.000017,38.355856,0.000019,
2191,2608,-1.45830311936573,-0.878632068020949,-0.025819620177117,0.006747,-0.077095,-0.005952,0.301264,-3.528742,321.542598,20.710361,0.998131,0.986110,0.004929,0.450999,0.000163,0.000090,0.000021,0.000169,0.000084,15.281858,0.000258,
2326,2113,1.57185665846863,-11.7105567673441,-0.00269653329138464,0.004099,-0.084348,-0.023848,0.237048,-3.955058,329.450046,19.006249,0.999042,0.982167,0.005492,0.389237,0.001058,0.001200,-0.000048,0.001215,0.001043,-72.958106,0.002260,
2461,2173,4.51243546104476,-10.3927352005006,-0.0163358435742111,0.007734,-0.082098,-0.025996,0.416643,-3.860147,328.680764,18.553175,0.998677,0.978613,0.005729,0.361592,0.001025,0.001027,-0.000148,0.001175,0.000878,-45.157686,0.002060,
2236,2863,-0.522377045751664,4.67469398297037,-0.017959965010732,0.008557,-0.076997,0.002144,0.358201,-3.509678,317.403574,21.106886,0.999253,0.991353,0.003710,0.389234,0.000040,0.000061,0.000012,0.000067,0.000035,65.789582,0.000103,
2476,2293,4.81502168424317,-7.76291198124538,-0.00770662426828039,0.007167,-0.080869,-0.014731,0.349371,-3.744220,326.780036,18.934426,0.999169,0.982219,0.005289,0.488540,0.000717,0.000568,-0.000112,0.000778,0.000508,-28.254679,0.001295,
2356,2923,2.07574643383751,5.98506827419487,-0.0104582401769449,0.008783,-0.077682,0.003514,0.360417,-3.538446,316.362821,21.409865,0.999360,0.991066,0.003816,0.386598,0.000006,0.000006,0.000015,0.000021,-0.000009,44.460097,0.000021,
2341,3028,1.73257695218912,8.26437748772277,0.0159690050107884,0.009631,-0.077537,0.004959,0.395057,-3.518380,314.904638,21.652528,0.999717,0.994317,0.003282,0.385265,-0.000008,-0.000008,0.000010,0.000002,-0.000018,44.133130,0.000020,
2326,3253,1.36577599988329,13.1445126995396,0.0215167505730278,0.010902,-0.077417,0.010819,0.434159,-3.519426,311.311132,22.060766,0.999377,0.992646,0.003448,0.429532,0.000005,-0.000007,0.000016,0.000016,-0.000018,34.032074,0.000020,
2341,2833,1.76580934925287,4.02795246103744,-0.0195120670969118,0.008536,-0.077233,0.000500,0.360050,-3.532914,317.754876,21.212543,0.999574,0.991469,0.003755,0.340972,0.000031,0.000063,0.000025,0.000077,0.000017,61.510956,0.000100,
2341,3298,1.68182213536319,14.1223649326346,-0.00189963488281819,0.011424,-0.077596,0.008020,0.467355,-3.527611,310.402596,22.228951,0.999659,0.993532,0.003215,0.438144,-0.000008,-0.000024,0.000014,0.000001,-0.000032,30.360061,0.000037,
2326,2728,1.45816000642465,1.74196017249602,-0.0339549071767919,0.008188,-0.077111,-0.006109,0.367065,-3.552601,319.355681,20.912645,0.999331,0.989517,0.004115,0.362571,0.000070,0.000116,0.000026,0.000128,0.000058,65.622830,0.000190,
2311,1993,1.26607931894347,-14.3475886135788,0.00431037202878315,0.003317,-0.088122,-0.025352,0.204381,-4.149362,331.415765,18.751659,0.998775,0.979601,0.006328,0.253157,0.001317,0.001397,-0.000088,0.001454,0.001260,-57.191401,0.002716,
2386,2278,2.85127481432507,-8.08832488447946,-0.0147394153381128,0.005909,-0.080116,-0.019902,0.309618,-3.741245,326.770464,19.464938,0.999501,0.991930,0.003899,0.293433,0.000682,0.000630,-0.000051,0.000713,0.000598,-31.673176,0.001313,
2281,3028,0.428549737311087,8.26107622881644,0.00521208307662846,0.009734,-0.076826,0.001757,0.412743,-3.506166,314.879898,21.474325,0.999083,0.989325,0.004017,0.390803,0.000009,-0.000014,0.000004,0.000010,-0.000014,9.438955,0.000015,
2311,2938,1.0954580158048,6.30817069056758,-0.0109471326337029,0.009418,-0.077054,0.000597,0.401146,-3.529668,316.170288,21.320998,0.998903,0.989029,0.004264,0.423889,0.000014,0.000005,0.000011,0.000021,-0.000003,34.484349,0.000023,
2206,2713,-1.15016002341846,1.40938231976443,-0.0317898457716979,0.007353,-0.077264,-0.001975,0.316346,-3.561379,319.761035,20.817559,0.998620,0.986954,0.004684,0.416083,0.000094,0.000090,0.000012,0.000104,0.000080,39.803405,0.000185,
2356,2188,2.21357813962569,-10.0631475129168,0.000303552696607312,0.004993,-0.082069,-0.017535,0.257738,-3.804273,328.283175,19.240921,0.998926,0.983541,0.005266,0.335806,0.000881,0.000932,-0.000058,0.000970,0.000843,-56.984673,0.001814,
2131,2353,-2.72380542771167,-6.4460131945403,-0.0162286845139761,0.003565,-0.077642,-0.012907,0.176035,-3.594903,325.836018,20.666871,0.999166,0.986172,0.004725,0.372834,0.000489,0.000387,0.000022,0.000494,0.000383,11.851232,0.000879,
2371,1993,2.57893329422815,-14.3490984981307,0.00437832392429982,0.004410,-0.087101,-0.028596,0.268217,-4.097098,331.480775,18.295935,0.997953,0.947155,0.009086,0.332910,0.001487,0.001383,-0.000085,0.001535,0.001335,-29.202364,0.002872,
2221,2758,-0.831218316687359,2.39033412160401,-0.0250490254526881,0.007890,-0.077124,0.003107,0.324670,-3.509437,319.054331,20.945684,0.999391,0.989907,0.003990,0.396978,0.000070,0.000078,0.000006,0.000082,0.000067,62.110109,0.000149,
2311,2713,1.13438452373772,1.41320505300307,-0.0242849763072286,0.007463,-0.077324,-0.004050,0.326741,-3.555512,319.649703,20.830437,0.999500,0.990915,0.003888,0.407518,0.000071,0.000127,0.000024,0.000136,0.000062,69.505226,0.000202,
2356,3088,2.04799135008251,9.56781246736043,0.0210621645878746,0.010142,-0.077630,0.006084,0.414142,-3.531350,313.983993,21.836313,0.999502,0.992481,0.003566,0.386677,0.000001,-0.000014,0.000009,0.000006,-0.000018,25.319083,0.000018,
2191,2818,-1.49299594908418,3.69394607321745,-0.0218397436163968,0.008096,-0.076714,0.001803,0.339247,-3.514158,318.203969,20.988526,0.998699,0.984981,0.004767,0.394346,0.000056,0.000076,0.000002,0.000076,0.000055,84.925963,0.000132,
2491,2533,5.09227953701096,-2.50898717179199,-0.0225536662632067,0.007943,-0.078693,-0.008240,0.361660,-3.646651,322.812370,20.037780,0.999563,0.989399,0.004046,0.388132,0.000267,0.000201,-0.000023,0.000274,0.000194,-17.363975,0.000470,
2251,2893,-0.200977729771608,5.32683896698068,-0.0112881578650104,0.008743,-0.077008,0.000484,0.371845,-3.512543,316.953448,21.141505,0.999622,0.991785,0.003623,0.419692,0.000031,0.000039,0.000014,0.000049,0.000020,52.788594,0.000071,
2281,3268,0.38659347530302,13.4658462227707,0.0175686305481122,0.011321,-0.077138,0.011076,0.454857,-3.500713,311.096905,21.848148,0.999730,0.993523,0.003325,0.448605,0.000010,0.000020,0.000016,0.000032,-0.000002,53.462631,0.000036,
2311,2008,1.26390340704992,-14.0169912369345,0.00267342076023169,0.003871,-0.086585,-0.027086,0.236221,-4.081142,331.191967,18.807488,0.998647,0.980024,0.006339,0.301468,0.001296,0.001371,-0.000073,0.001416,0.001251,-58.553743,0.002668,
2221,2938,-0.85994895494829,6.30304439612824,-0.00599434025428991,0.009266,-0.076712,0.003589,0.386775,-3.490735,316.345969,21.162059,0.999430,0.993716,0.003446,0.423596,0.000027,0.000009,0.000003,0.000028,0.000008,9.849352,0.000038,
2131,2563,-2.75661185417925,-1.85949685555053,-0.0313223497815898,0.006160,-0.076529,-0.006098,0.275340,-3.516423,322.415489,20.847080,0.998969,0.987421,0.004617,0.369600,0.000204,0.000116,0.000015,0.000207,0.000113,9.471824,0.000325,
2506,2548,5.41733488645737,-2.18114238680631,-0.00700833575223214,0.007694,-0.078839,-0.006179,0.342224,-3.609425,322.722835,20.159992,0.999672,0.990460,0.004079,0.337386,0.000231,0.000165,-0.000006,0.000232,0.000165,-5.424964,0.000398,
2266,3223,0.0701268825536445,12.4885429917347,0.0305825206688155,0.010819,-0.077046,0.006294,0.448273,-3.501698,311.960993,21.711375,0.999743,0.995384,0.003126,0.430114,0.000007,0.000018,0.000007,0.000021,0.000003,63.120085,0.000026,
2386,3028,2.71015174703806,8.26753585759303,0.00698106262223064,0.009655,-0.077790,0.003395,0.400163,-3.549248,314.844539,21.753670,0.999567,0.990697,0.003873,0.392072,0.000004,-0.000008,0.000022,0.000021,-0.000024,37.034452,0.000026,
2146,2383,-2.40089741116051,-5.79115396766755,-0.0138032003980584,0.004499,-0.077433,-0.014583,0.224193,-3.604819,325.360733,20.603217,0.998543,0.986903,0.004691,0.392640,0.000437,0.000335,0.000003,0.000437,0.000335,1.444434,0.000774,
2161,2653,-2.11897906232319,0.103220897637549,-0.0386587555123583,0.006995,-0.076283,-0.003724,0.306390,-3.499244,320.810036,20.851152,0.999668,0.991881,0.003717,0.403101,0.000136,0.000055,0.000010,0.000137,0.000054,6.599749,0.000198,
2431,2008,3.89092789279067,-14.0229342120819,0.00569678868095025,0.006931,-0.088261,-0.030237,0.391515,-4.166260,331.445721,17.854896,0.998597,0.975021,0.006433,0.328374,0.001537,0.001371,-0.000090,0.001576,0.001331,-23.594184,0.002911,
2161,2443,-2.08449325727137,-4.48025453827876,-0.0160385340516882,0.004822,-0.077894,-0.008105,0.219261,-3.584227,324.312492,20.598484,0.998993,0.987741,0.004670,0.415948,0.000346,0.000228,0.000006,0.000346,0.000228,2.665286,0.000578,
2206,2878,-1.17586550819214,4.99897922285329,-0.0144671644355867,0.009110,-0.076668,0.000786,0.388839,-3.514618,317.294566,21.094714,0.999537,0.993944,0.003284,0.368805,0.000043,0.000054,0.000004,0.000055,0.000041,70.104558,0.000097,
2296,3133,0.736684689759461,10.539241551733,0.0265705725612406,0.010164,-0.077341,0.007337,0.413147,-3.527038,313.324264,21.689076,0.999658,0.994785,0.003255,0.404487,0.000009,-0.000005,0.000008,0.000013,-0.000008,24.822507,0.000013,
2176,2758,-1.80917741187056,2.38841816355572,-0.0254816137228318,0.007864,-0.076739,0.001555,0.329707,-3.502337,319.187350,20.922828,0.999344,0.989513,0.004131,0.407407,0.000068,0.000076,-0.000007,0.000080,0.000064,-59.758422,0.000145,
2311,3178,1.05525788529644,11.516176186537,0.0335759508967612,0.010751,-0.077419,0.005987,0.444320,-3.525543,312.662786,21.836121,0.999683,0.993410,0.003442,0.413991,0.000003,-0.000003,0.000015,0.000015,-0.000015,39.059543,0.000018,
2146,2608,-2.43750164908421,-0.877562704657862,-0.0336867518539634,0.006578,-0.076058,-0.006999,0.297374,-3.490881,321.628075,20.873486,0.999274,0.990306,0.004235,0.372431,0.000171,0.000070,0.000008,0.000172,0.000070,4.677644,0.000249,
2371,2218,2.53610533243108,-9.40498370008032,-0.00919642554333677,0.005893,-0.081057,-0.024531,0.324434,-3.809765,327.792273,19.240928,0.997854,0.976678,0.006360,0.339378,0.000821,0.000835,-0.000051,0.000879,0.000777,-49.055216,0.001657,
2341,2143,1.89282777683438,-11.0479612994462,-0.0257459373040092,0.004762,-0.082188,-0.024892,0.272347,-3.854352,328.805036,19.101043,0.998887,0.984042,0.005299,0.386264,0.001006,0.001091,-0.000050,0.001114,0.000983,-65.158681,0.002098,
2386,3178,2.68389418732241,11.5225960241758,0.0332958306488536,0.010630,-0.077605,0.007178,0.431715,-3.535473,312.640338,22.180136,0.999410,0.992352,0.003578,0.402154,0.000004,-0.000005,0.000030,0.000030,-0.000031,40.820938,0.000035,
2461,2188,4.50846382557055,-10.0624127089226,-0.025326413953735,0.007859,-0.082014,-0.022211,0.408250,-3.841892,328.354372,18.626486,0.999463,0.988245,0.004724,0.364329,0.000982,0.001000,-0.000137,0.001128,0.000854,-46.829974,0.001988,
2386,2053,2.8962384465897,-13.0292964220103,0.00623404565317287,0.005199,-0.084863,-0.027987,0.303710,-3.971680,330.574935,18.496988,0.998292,0.979888,0.006199,0.337679,0.001306,0.001283,-0.000080,0.001375,0.001214,-40.807764,0.002590,
2236,3058,-0.552064357754176,8.90782446064467,0.0223444999953699,0.010372,-0.076511,0.000783,0.446545,-3.502566,314.649307,21.363493,0.999615,0.993102,0.003350,0.406775,0.000009,-0.000023,-0.000008,0.000011,-0.000024,-12.944965,0.000024,
2176,2533,-1.77257977270054,-2.51421535274543,-0.024900575341519,0.005909,-0.076845,-0.008035,0.269350,-3.543427,322.780708,20.686407,0.998568,0.987947,0.004602,0.410088,0.000225,0.000155,0.000014,0.000228,0.000152,11.190992,0.000383,
2371,2983,2.39196912328075,7.28964170370008,-0.000692039797911548,0.009445,-0.077420,0.002303,0.394873,-3.539350,315.502651,21.612281,0.999540,0.990046,0.004002,0.375940,0.000003,-0.000004,0.000017,0.000017,-0.000018,38.866803,0.000021,
2371,2008,2.57643044666579,-14.0178124374146,-0.0053471836312724,0.005721,-0.087636,-0.026270,0.319786,-4.102914,331.209446,18.397083,0.997292,0.971809,0.007050,0.270832,0.001441,0.001357,-0.000077,0.001487,0.001311,-30.659676,0.002800,
2401,3148,3.01579967016751,10.8723692057471,0.033313900631299,0.010506,-0.077642,0.003741,0.437881,-3.538893,313.150455,22.118515,0.999799,0.995311,0.002872,0.440238,0.000006,-0.000012,0.000027,0.000026,-0.000032,35.810645,0.000034,
2266,3028,0.102882460241613,8.2593554124123,0.0101409594781217,0.009514,-0.076952,0.002067,0.401854,-3.525989,314.933594,21.419939,0.999292,0.990869,0.003793,0.378865,0.000013,-0.000014,0.000005,0.000014,-0.000015,10.202709,0.000017,
2206,2728,-1.15216295847825,1.73697122429537,-0.0331899678718059,0.007802,-0.076539,-0.005288,0.347833,-3.517303,319.536410,20.873728,0.999104,0.989506,0.004139,0.421088,0.000086,0.000084,0.000004,0.000089,0.000080,37.059772,0.000170,
2251,3088,-0.232718946693137,9.56017022839483,0.0161822201825998,0.010139,-0.077091,0.004663,0.422509,-3.525211,314.051848,21.454259,0.999580,0.991519,0.003582,0.388904,0.000014,-0.000020,-0.000007,0.000015,-0.000021,-10.796591,0.000022,
2476,2308,4.81271515028346,-7.43198620629644,-0.00541243623314358,0.007508,-0.079863,-0.017625,0.376385,-3.682736,326.581725,19.179004,0.998839,0.978600,0.005895,0.364238,0.000691,0.000525,-0.000104,0.000741,0.000475,-25.698266,0.001225,
2281,3043,0.426041975813437,8.58682226783039,0.00854163247851147,0.009774,-0.076880,0.002592,0.411773,-3.505084,314.661639,21.526271,0.999316,0.991359,0.003759,0.366672,0.000007,-0.000008,0.000004,0.000009,-0.000009,14.064971,0.000010,
2311,2023,1.26036800757974,-13.6880930546843,0.00335307376928995,0.003146,-0.086428,-0.025401,0.197344,-4.057887,330.917703,18.785688,0.998678,0.981381,0.005797,0.382638,0.001263,0.001354,-0.000057,0.001381,0.001236,-64.472164,0.002619,
2311,2953,1.09330457984323,6.63461948072126,-0.00856376505095113,0.009631,-0.076508,-0.002482,0.421724,-3.506124,315.965584,21.386723,0.999206,0.990988,0.003877,0.413541,0.000011,-0.000002,0.000012,0.000018,-0.000009,31.793559,0.000018,
2491,2548,5.0890199506817,-2.18125160542039,-0.0231195191362872,0.007876,-0.078812,-0.007538,0.355848,-3.645906,322.557892,20.104095,0.999610,0.988920,0.004181,0.382435,0.000242,0.000154,-0.000021,0.000247,0.000149,-12.746802,0.000400,
2356,3103,2.04508415728853,9.89393840021015,0.0190503201600905,0.010208,-0.077460,0.005627,0.418860,-3.530706,313.726063,21.905242,0.999538,0.991961,0.003720,0.356318,0.000005,-0.000011,0.000012,0.000011,-0.000017,28.408662,0.000017,
2386,2293,2.84887743144596,-7.76095852214389,-0.0121562858168431,0.006448,-0.080293,-0.016667,0.322661,-3.725716,326.562943,19.427388,0.999750,0.994666,0.003380,0.391931,0.000649,0.000594,-0.000042,0.000672,0.000571,-28.398362,0.001245,
2251,2908,-0.202275663471902,5.65277444682037,-2.0015596930989E-05,0.008951,-0.076454,-0.004528,0.398050,-3.500057,316.829221,21.221878,0.999733,0.993194,0.003357,0.374703,0.000029,0.000032,0.000013,0.000043,0.000017,48.239919,0.000062,
2371,3133,2.36596224392261,10.5454236109949,0.0252445600800115,0.010547,-0.077981,0.007097,0.428559,-3.543056,313.299804,22.009403,0.999572,0.992328,0.003593,0.377219,0.000002,-0.000009,0.000022,0.000019,-0.000027,38.186350,0.000027,
2326,3268,1.36261148283507,13.4705513837322,0.0129842618687235,0.011089,-0.077473,0.009415,0.447632,-3.523893,311.006515,22.134221,0.999522,0.993400,0.003227,0.384568,0.000002,-0.000005,0.000012,0.000011,-0.000014,36.680459,0.000014,
2311,2728,1.1319698729559,1.7396772244349,-0.0236116652625924,0.007859,-0.077481,-0.002758,0.340468,-3.560270,319.425243,20.850703,0.999391,0.990360,0.004011,0.414882,0.000065,0.000116,0.000025,0.000126,0.000055,68.037580,0.000186,
2341,2848,1.76230592923858,4.35394270008342,-0.0232520165193932,0.008409,-0.077506,0.004079,0.341603,-3.547025,317.460946,21.200219,0.999631,0.991678,0.003686,0.375654,0.000029,0.000055,0.000025,0.000069,0.000014,58.963336,0.000089,
2356,2203,2.20978127130792,-9.7337795050731,-0.00931910133328984,0.005066,-0.082265,-0.013716,0.247650,-3.799847,327.950735,19.237903,0.998847,0.983674,0.005236,0.385228,0.000839,0.000882,-0.000052,0.000917,0.000804,-56.008540,0.001722,
2236,2878,-0.523927996104735,4.99955603320309,-0.00429308534927486,0.008739,-0.076866,0.002995,0.363813,-3.513315,317.279604,21.115570,0.999462,0.991953,0.003603,0.397611,0.000033,0.000058,0.000011,0.000062,0.000029,69.314125,0.000093,
2341,3043,1.72954488432098,8.58960654088293,0.00781348859993614,0.009801,-0.077392,0.001782,0.414028,-3.528708,314.610448,21.592820,0.999626,0.993506,0.003386,0.470642,-0.000008,-0.000002,0.000012,0.000007,-0.000017,52.738760,0.000017,
2386,3043,2.70713260160406,8.59365710838277,0.00276381942217085,0.009711,-0.077435,0.001425,0.410032,-3.531700,314.573473,21.775489,0.999667,0.991785,0.003688,0.430422,0.000001,0.000001,0.000026,0.000027,-0.000025,44.827817,0.000030,
2386,2068,2.89262897384667,-12.6997863575099,-0.00211068875125875,0.005420,-0.084954,-0.024325,0.300760,-3.976926,330.261001,18.476124,0.998575,0.978775,0.006091,0.400376,0.001257,0.001265,-0.000078,0.001339,0.001183,-46.315461,0.002524,
2356,2938,2.07275384064085,6.31094430964537,-0.00914282449411985,0.008687,-0.078027,0.005451,0.348987,-3.563017,316.117726,21.460042,0.999298,0.989888,0.003961,0.349977,0.000008,0.000000,0.000011,0.000015,-0.000008,35.083022,0.000015,
2221,2953,-0.862399251041239,6.62857315212241,-3.0839035275676E-05,0.009172,-0.077038,0.005717,0.375536,-3.499782,316.140227,21.198959,0.999355,0.992172,0.003719,0.395936,0.000024,0.000007,0.000003,0.000025,0.000006,9.570477,0.000033,
2506,2563,5.41430915203433,-1.85500318349291,-0.00210134821867314,0.007905,-0.078730,0.000365,0.326670,-3.581308,322.504855,20.104605,0.999697,0.991412,0.003954,0.483223,0.000223,0.000157,-0.000004,0.000223,0.000157,-3.399409,0.000382,
2356,1993,2.24887269505338,-14.3485627075935,-0.0012035753978239,0.002648,-0.087502,-0.029572,0.190334,-4.147716,331.349973,18.398206,0.997799,0.949271,0.009107,0.287804,0.001465,0.001402,-0.000094,0.001533,0.001334,-35.817107,0.002869,
2326,2743,1.4553716832421,2.06778038372238,-0.0250599608773996,0.007902,-0.077433,-0.001003,0.336266,-3.537978,319.155431,20.924790,0.999543,0.990929,0.003868,0.399660,0.000065,0.000109,0.000029,0.000124,0.000050,63.840210,0.000179,
2221,2773,-0.833443142772804,2.71622385236913,-0.0206131411841852,0.007817,-0.076805,0.001026,0.328116,-3.502032,318.851166,20.941808,0.999318,0.989648,0.004106,0.427280,0.000065,0.000069,0.000007,0.000074,0.000060,53.619990,0.000134,
2326,2128,1.56963630730088,-11.3806173037968,0.00103937602438009,0.004117,-0.083004,-0.027223,0.249979,-3.914298,329.251601,19.133324,0.999069,0.984289,0.005236,0.340035,0.001019,0.001160,-0.000048,0.001175,0.001004,-72.798458,0.002182,
2266,3238,0.067550314533694,12.8129810798801,0.0298549891565472,0.010898,-0.077179,0.004734,0.456955,-3.530487,311.718218,21.695328,0.999739,0.994865,0.003140,0.441455,0.000006,0.000009,0.000010,0.000018,-0.000003,50.333942,0.000019,
2146,2398,-2.40397776638526,-5.4632622000028,-0.0154319158381782,0.004147,-0.077615,-0.011995,0.200109,-3.591307,325.080970,20.606179,0.998359,0.986537,0.004938,0.412843,0.000412,0.000292,0.000000,0.000412,0.000292,-0.043851,0.000707,
2431,2023,3.88730768618391,-13.691121486827,0.00169490217757584,0.006842,-0.087337,-0.027560,0.378010,-4.095437,331.155808,17.999291,0.998337,0.977096,0.006189,0.308877,0.001478,0.001364,-0.000098,0.001535,0.001308,-29.909711,0.002846,
2191,2623,-1.46079374723266,-0.551861367387907,-0.0218742109293544,0.006601,-0.076968,-0.004961,0.291498,-3.526260,321.322632,20.745055,0.998891,0.987526,0.004606,0.433985,0.000153,0.000084,0.000019,0.000158,0.000079,14.409069,0.000241,
2461,2203,4.50478442807792,-9.73350560589618,-0.0277224376714571,0.007572,-0.082078,-0.020277,0.387892,-3.825516,328.071470,18.648108,0.998872,0.982854,0.005382,0.416366,0.000936,0.000913,-0.000126,0.001051,0.000798,-42.430418,0.001855,
2236,3073,-0.556007641364648,9.23371948375112,0.0166169482585019,0.009897,-0.076941,0.006463,0.406090,-3.504543,314.315829,21.379709,0.999638,0.992650,0.003394,0.408733,0.000009,-0.000024,-0.000010,0.000012,-0.000027,-15.228175,0.000027,
2296,3148,0.734266882263913,10.8644543794593,0.0336437274071386,0.010180,-0.077551,0.010008,0.404781,-3.529934,313.129657,21.743635,0.999584,0.993444,0.003508,0.375656,0.000007,-0.000005,0.000010,0.000013,-0.000011,29.077468,0.000014,
2401,3163,3.01223012327982,11.1982539324616,0.0333943883820211,0.010168,-0.077970,0.007654,0.407999,-3.545905,312.875150,22.201605,0.999591,0.993448,0.003330,0.394139,0.000008,-0.000008,0.000028,0.000029,-0.000029,37.356018,0.000034,
2311,2038,1.25833353555273,-13.3560311421559,-0.00181651858957821,0.003751,-0.084452,-0.032049,0.248402,-3.993550,330.682874,18.950519,0.999381,0.988088,0.004541,0.317912,0.001228,0.001312,-0.000059,0.001342,0.001198,-62.866588,0.002542,
2371,2998,2.38977708592531,7.61530415328583,0.00889880671894616,0.009380,-0.077205,0.002307,0.391955,-3.538505,315.334915,21.689402,0.999572,0.991310,0.003759,0.339860,0.000003,-0.000005,0.000015,0.000015,-0.000017,37.866520,0.000018,
2491,2563,5.0851965329382,-1.8534010780401,-0.0240645805226336,0.007558,-0.078926,-0.003476,0.325705,-3.630708,322.275636,20.168143,0.999386,0.989253,0.004439,0.393655,0.000233,0.000152,-0.000017,0.000236,0.000148,-11.428588,0.000388,
2131,2578,-2.7595463415759,-1.5315632175844,-0.036681406627963,0.006194,-0.076667,-0.003403,0.268828,-3.493117,322.121075,20.872274,0.999474,0.992054,0.004041,0.374249,0.000186,0.000093,0.000012,0.000188,0.000092,7.475630,0.000285,
2251,3103,-0.234483388757592,9.88538445392797,0.0221581403987443,0.010396,-0.076839,0.001386,0.445248,-3.513717,313.879335,21.477260,0.999580,0.992794,0.003467,0.399806,0.000009,-0.000017,-0.000004,0.000010,-0.000018,-9.252604,0.000018,
2311,3193,1.05288867564756,11.8411718684579,0.0365726028316544,0.010910,-0.077449,0.005561,0.453121,-3.528942,312.451059,21.857019,0.999679,0.993573,0.003341,0.420646,0.000004,0.000003,0.000014,0.000018,-0.000010,43.991351,0.000018,
2176,2773,-1.81195894389285,2.71490142514466,-0.0296982483768033,0.008030,-0.077060,0.003420,0.331505,-3.495110,318.910218,20.905100,0.999374,0.990338,0.004130,0.444743,0.000065,0.000068,-0.000003,0.000070,0.000063,-56.627985,0.000133,
2206,2893,-1.17948703480112,5.32610939346988,-0.0259990974766993,0.008832,-0.076344,0.000025,0.378638,-3.488225,316.943195,21.101323,0.999788,0.995078,0.003125,0.405335,0.000038,0.000039,0.000009,0.000047,0.000029,47.375312,0.000077,
2386,3193,2.68173407413257,11.847580347436,0.0386957744124743,0.010936,-0.077646,0.007033,0.446349,-3.531073,312.454415,22.207384,0.999361,0.992464,0.003468,0.421329,0.000006,-0.000003,0.000030,0.000031,-0.000029,40.852649,0.000035,
2191,2833,-1.49473279964379,4.0195960526262,-0.0186859876414474,0.008768,-0.077095,0.002674,0.367233,-3.549077,318.014661,21.010685,0.999094,0.990029,0.004065,0.351456,0.000052,0.000068,0.000007,0.000071,0.000049,68.610884,0.000121,
2446,2173,4.18506548727604,-10.3938703874014,-0.00136028903796159,0.007188,-0.082684,-0.023403,0.381248,-3.867723,328.738089,18.680365,0.999354,0.984708,0.004942,0.307234,0.001000,0.001019,-0.000139,0.001149,0.000870,-47.002436,0.002025,
2281,3283,0.383607157651753,13.7911004342565,0.0103933970896719,0.011393,-0.077045,0.008214,0.467821,-3.507205,310.803566,21.862493,0.999459,0.992761,0.003379,0.454263,0.000006,0.000031,0.000014,0.000037,0.000000,65.351558,0.000043,
2431,2038,3.88518604610012,-13.3617795432767,0.00953314366626046,0.007508,-0.086701,-0.022036,0.388428,-4.033258,330.989369,18.066199,0.997856,0.977266,0.006368,0.357409,0.001417,0.001328,-0.000100,0.001482,0.001263,-33.075062,0.002748,
2266,3253,0.0647937692660641,13.1386781359508,0.0308937955090869,0.011181,-0.077345,0.010184,0.451957,-3.507464,311.475576,21.757486,0.999689,0.994098,0.003335,0.426625,0.000003,0.000011,0.000016,0.000024,-0.000010,51.633663,0.000024,
2326,3283,1.35926872841512,13.7957568699834,0.00233224448010105,0.011233,-0.077541,0.007715,0.460147,-3.533535,310.683515,22.129320,0.999626,0.994745,0.002935,0.412687,-0.000003,0.000002,0.000008,0.000008,-0.000009,53.260489,0.000010,
2356,2008,2.24769018819402,-14.0178583102484,-0.0024908752256465,0.004716,-0.087189,-0.025495,0.270729,-4.083302,331.177475,18.472295,0.997585,0.973648,0.007020,0.320316,0.001423,0.001366,-0.000079,0.001479,0.001311,-35.080185,0.002791,
2221,2968,-0.864686243766155,6.95453377194103,0.0014003481720124,0.009298,-0.076647,0.004117,0.386625,-3.490260,315.918516,21.228961,0.999326,0.990382,0.003954,0.393906,0.000020,0.000009,0.000007,0.000024,0.000005,25.255348,0.000031,
2311,2743,1.12974207801296,2.06570036688581,-0.0147527303867037,0.008061,-0.077773,0.001626,0.334707,-3.555958,319.249702,20.890440,0.999487,0.990974,0.003901,0.411712,0.000060,0.000108,0.000026,0.000120,0.000049,66.222279,0.000174,
2476,2323,4.80912774614885,-7.1036433148142,-0.0136497909906552,0.007660,-0.079780,-0.017666,0.383581,-3.693531,326.277507,19.159833,0.998724,0.980804,0.005582,0.431503,0.000650,0.000481,-0.000091,0.000689,0.000441,-23.525936,0.001140,
2401,2338,3.16690167280172,-6.77497299935168,-0.0129357892320172,0.005676,-0.078829,-0.019136,0.297093,-3.658280,325.816316,19.531861,0.998604,0.982069,0.005197,0.435075,0.000559,0.000467,-0.000030,0.000568,0.000458,-16.311595,0.001028,
2341,3058,1.72669629461909,8.91497641636584,0.00736602665881492,0.009972,-0.077620,0.003878,0.414501,-3.540547,314.362088,21.602982,0.999614,0.994441,0.003151,0.484395,-0.000007,-0.000004,0.000013,0.000007,-0.000019,48.000291,0.000019,
2326,2983,1.41366697617471,7.28641374441455,0.00277786464033625,0.009292,-0.077490,0.005214,0.378966,-3.530466,315.518779,21.491639,0.999909,0.997268,0.002537,0.386543,-0.000001,0.000002,0.000013,0.000014,-0.000012,48.381493,0.000015,
2401,3253,2.99442381387678,13.151764968821,0.015148995176105,0.011311,-0.077560,0.006976,0.463410,-3.537950,311.300125,22.459305,0.999479,0.992256,0.003511,0.410105,0.000001,-0.000018,0.000013,0.000008,-0.000025,26.449277,0.000026,
2386,3058,2.70487832241333,8.91913016515537,0.013047279358716,0.009741,-0.077489,0.003876,0.402585,-3.530429,314.406778,21.852878,0.999645,0.992493,0.003554,0.396472,0.000003,0.000000,0.000027,0.000028,-0.000025,43.693463,0.000031,
2161,2668,-2.11959463608029,0.427297779483155,-0.0129119889138565,0.007241,-0.076453,-0.002322,0.313310,-3.506219,320.789452,20.842961,0.999692,0.993285,0.003434,0.414278,0.000126,0.000065,0.000007,0.000127,0.000064,6.838931,0.000194,
2356,2953,2.07041660456831,6.63713266965399,-0.013602015471804,0.009159,-0.077692,0.000508,0.388351,-3.551020,315.874714,21.465907,0.999432,0.990123,0.003861,0.394743,0.000006,-0.000010,0.000013,0.000014,-0.000017,29.414905,0.000018,
2371,2233,2.53271228803497,-9.07566742923458,-0.0109481379608951,0.005688,-0.081076,-0.022158,0.306676,-3.795546,327.517271,19.317569,0.998286,0.979710,0.006021,0.320738,0.000783,0.000784,-0.000045,0.000829,0.000738,-45.204447,0.001568,
2161,2458,-2.08719901041468,-4.15190366066155,-0.0225427970966052,0.004815,-0.077053,-0.011344,0.229122,-3.550287,324.025283,20.598377,0.998907,0.988640,0.004566,0.461577,0.000327,0.000203,0.000006,0.000327,0.000203,2.979736,0.000535,
2506,2578,5.41012044387316,-1.52438882618892,-0.0217411435845065,0.008066,-0.078259,-0.004829,0.354374,-3.585901,322.123133,20.281851,0.999412,0.988092,0.004608,0.363672,0.000210,0.000138,0.000002,0.000210,0.000138,1.978110,0.000351,
2281,3298,0.380352099614765,14.1167586113986,0.00573641489768306,0.011342,-0.077443,0.009815,0.459943,-3.524101,310.510277,21.942804,0.999564,0.994020,0.003204,0.382983,0.000008,0.000002,0.000014,0.000019,-0.000010,39.202227,0.000019,
2491,2578,5.08334592404797,-1.52577780641138,-0.0208990492692465,0.008263,-0.078476,-0.006571,0.370170,-3.604179,322.102480,20.240574,0.998434,0.981959,0.005443,0.407421,0.000223,0.000137,-0.000011,0.000225,0.000135,-7.034604,0.000364,
2356,2218,2.20767507831529,-9.40491607066446,-0.00859185419113828,0.005236,-0.081294,-0.020194,0.278548,-3.782674,327.745360,19.290258,0.998274,0.979179,0.005913,0.391136,0.000806,0.000837,-0.000047,0.000871,0.000772,-54.325300,0.001644,
2356,3118,2.04290519312103,10.2185541041232,0.0242557304802062,0.010365,-0.077327,0.004165,0.431337,-3.523954,313.536951,21.878010,0.999566,0.992248,0.003636,0.428283,0.000004,-0.000006,0.000015,0.000015,-0.000016,35.910492,0.000018,
2386,2308,2.84523102457623,-7.43155715753803,-0.0244052314330929,0.006461,-0.079602,-0.019138,0.332416,-3.698236,326.227573,19.420551,0.999673,0.994199,0.003541,0.472061,0.000616,0.000540,-0.000035,0.000630,0.000526,-21.583408,0.001157,
2176,2788,-1.8142686683243,3.04153028192931,-0.0301816021794252,0.007907,-0.076528,-0.002209,0.343447,-3.509684,318.674261,20.956444,0.999363,0.989824,0.004164,0.391011,0.000057,0.000071,-0.000001,0.000072,0.000057,-84.769507,0.000129,
2476,2338,4.80572602353324,-6.77511481577502,-0.0100238276191931,0.007384,-0.080324,-0.013351,0.354385,-3.713610,326.035407,19.290335,0.998516,0.982201,0.005537,0.339507,0.000617,0.000445,-0.000082,0.000650,0.000412,-21.885132,0.001071,
2371,3013,2.38716672726901,7.94104707129405,0.00722462271465929,0.009622,-0.077132,0.000362,0.410172,-3.514956,315.093850,21.678319,0.999546,0.991162,0.003797,0.415187,0.000003,-0.000014,0.000016,0.000012,-0.000024,31.283326,0.000024,
2341,2863,1.76018056469715,4.67912382310818,-0.0142170282210827,0.008399,-0.077799,0.003896,0.341720,-3.546548,317.292548,21.198443,0.999591,0.991654,0.003738,0.413948,0.000024,0.000045,0.000021,0.000058,0.000011,57.731511,0.000074,
2176,2548,-1.77514522910052,-2.18657298897349,-0.0296589993884027,0.006160,-0.076776,-0.008373,0.281958,-3.532124,322.510603,20.692237,0.998940,0.988244,0.004442,0.429126,0.000212,0.000138,0.000015,0.000215,0.000135,11.211326,0.000353,
2296,3163,0.732311921807113,11.1900087221022,0.0375129903193283,0.010295,-0.077039,0.004554,0.428776,-3.521903,312.940259,21.802298,0.999687,0.992907,0.003456,0.353870,0.000008,-0.000001,0.000012,0.000016,-0.000009,33.654733,0.000016,
2281,3058,0.423051283518756,8.91199866411531,0.0123657153976637,0.009463,-0.076840,0.005762,0.386948,-3.482582,314.423782,21.511271,0.999410,0.993235,0.003533,0.431031,0.000007,-0.000012,0.000002,0.000008,-0.000012,6.187044,0.000012,
2371,3148,2.3636038259311,10.8706621632289,0.0305099411014567,0.010642,-0.077845,0.006923,0.433638,-3.536170,313.103303,22.046730,0.999551,0.991686,0.003631,0.386677,0.000002,-0.000012,0.000023,0.000019,-0.000029,36.481185,0.000029,
2461,2218,4.50242064734505,-9.40560639674948,-0.0203483986093715,0.007585,-0.081985,-0.020855,0.390676,-3.817981,327.893488,18.693725,0.999215,0.985977,0.005179,0.434759,0.000904,0.000856,-0.000124,0.001007,0.000754,-39.553558,0.001767,
2146,2623,-2.44006905726472,-0.550839019753376,-0.031371756545866,0.006707,-0.076298,-0.001230,0.285775,-3.487114,321.392842,20.888431,0.999573,0.991699,0.003943,0.369874,0.000164,0.000061,0.000003,0.000164,0.000061,1.930981,0.000232,
2401,3268,2.99015473750761,13.4777809382486,-0.000513668605776729,0.011287,-0.077901,0.007907,0.458820,-3.549094,310.917480,22.499572,0.999617,0.992141,0.003584,0.402839,-0.000002,-0.000024,0.000008,0.000000,-0.000027,17.054478,0.000030,
2386,2083,2.89003260810905,-12.3693763951956,-0.00525474445964846,0.005780,-0.084223,-0.026694,0.326015,-3.950688,330.017719,18.569803,0.998404,0.975404,0.006242,0.379516,0.001210,0.001259,-0.000079,0.001318,0.001152,-53.563759,0.002471,
2221,2788,-0.835376438273258,3.04192495853508,-0.0165283121219773,0.007953,-0.076766,-0.002609,0.346022,-3.528398,318.659691,20.955322,0.999385,0.990863,0.004007,0.406036,0.000058,0.000067,0.000005,0.000069,0.000056,67.677686,0.000125,
2506,2593,5.40587294226647,-1.19486293802662,-0.0368710426683379,0.007666,-0.077829,-0.011365,0.361522,-3.590884,321.758877,20.406370,0.999786,0.994408,0.003556,0.296503,0.000189,0.000128,0.000012,0.000191,0.000126,10.484024,0.000319,
2371,2023,2.57338138511709,-13.6893062284221,0.00142752782562638,0.004895,-0.086961,-0.027557,0.286859,-4.099875,330.991732,18.429940,0.997602,0.973025,0.006959,0.285555,0.001389,0.001333,-0.000075,0.001441,0.001281,-34.821372,0.002723,
2401,3178,3.00957878899981,11.5235842234024,0.0314085946213254,0.010554,-0.077757,0.007101,0.427834,-3.549900,312.632478,22.221955,0.999489,0.993031,0.003479,0.414394,0.000007,-0.000005,0.000028,0.000030,-0.000027,38.864902,0.000033,
2296,1993,0.937566840747866,-14.3467587488552,0.000728965025700745,0.002768,-0.087659,-0.026236,0.181848,-4.104764,331.373854,18.808736,0.997600,0.966709,0.007845,0.347828,0.001286,0.001390,-0.000094,0.001446,0.001230,-59.558845,0.002679,
2401,2098,3.21454644852586,-12.0400176562434,-0.00886075508765316,0.005685,-0.084436,-0.026424,0.321178,-3.961769,329.756095,18.540783,0.998127,0.974359,0.006694,0.352515,0.001180,0.001245,-0.000098,0.001316,0.001109,-54.095983,0.002428,
2311,2053,1.25576827528073,-13.027606360798,-0.00158971674312625,0.004010,-0.084593,-0.030625,0.255418,-4.013086,330.450972,18.934292,0.998840,0.984994,0.005164,0.350191,0.001192,0.001290,-0.000051,0.001312,0.001170,-66.948409,0.002484,
2311,2968,1.09109955034124,6.96040826519311,0.00478957047675976,0.009317,-0.076723,-0.000978,0.402012,-3.527681,315.812814,21.516676,0.999909,0.997549,0.002479,0.293229,0.000006,0.000000,0.000017,0.000020,-0.000014,40.336436,0.000021,
2356,2233,2.20476059353191,-9.07561163439389,-0.0158861166501651,0.005468,-0.080970,-0.023461,0.300771,-3.790506,327.464457,19.330127,0.997673,0.974823,0.006428,0.385171,0.000765,0.000783,-0.000043,0.000818,0.000730,-50.742769,0.001549,
2341,3073,1.7239401219528,9.24143887506293,0.0109780472041052,0.009869,-0.077769,0.005152,0.405279,-3.543946,314.137322,21.735635,0.999593,0.994309,0.003162,0.384075,-0.000005,-0.000010,0.000011,0.000004,-0.000018,37.800721,0.000019,
2251,2923,-0.205383165799443,5.97802027108422,-0.00142650185614457,0.009202,-0.077273,0.003665,0.382442,-3.522646,316.557888,21.186214,0.999638,0.993330,0.003460,0.410665,0.000026,0.000018,0.000013,0.000036,0.000008,35.758750,0.000047,
2236,3088,-0.55810789913523,9.55950292225117,0.0180340469631233,0.010128,-0.076845,0.003229,0.427237,-3.517641,314.103570,21.446807,0.999542,0.992717,0.003417,0.348756,0.000010,-0.000024,-0.000010,0.000013,-0.000027,-15.720394,0.000027,
2416,2173,3.52687364433052,-10.3932572075658,-0.0161722203502563,0.005949,-0.083255,-0.020762,0.313815,-3.908170,328.495899,18.747990,0.998368,0.980700,0.005464,0.361350,0.000963,0.000997,-0.000111,0.001093,0.000868,-49.372988,0.001965,
2386,3208,2.67838156889247,12.1728296992955,0.0358569473408465,0.010716,-0.077741,0.007138,0.435847,-3.539516,312.174166,22.227254,0.999430,0.992742,0.003501,0.435272,0.000006,-0.000003,0.000028,0.000030,-0.000027,40.702478,0.000033,
2146,2413,-2.40723678993533,-5.13460018352119,-0.0253781206314443,0.004134,-0.077969,-0.009966,0.193279,-3.602755,324.748938,20.630604,0.998157,0.986953,0.005208,0.386738,0.000395,0.000268,-0.000001,0.000395,0.000268,-0.440043,0.000667,
2416,2413,3.48077634606302,-5.13337156700879,-0.0174397234662251,0.007568,-0.079235,-0.015555,0.371013,-3.677946,324.656134,19.796210,0.999477,0.988025,0.004573,0.342184,0.000431,0.000353,-0.000018,0.000434,0.000349,-12.219659,0.000785,
2491,2593,5.07975526519272,-1.19798070641489,-0.0205736134479935,0.007598,-0.078122,-0.008128,0.345771,-3.603229,321.836516,20.334486,0.999761,0.994594,0.003541,0.374072,0.000202,0.000122,-0.000002,0.000202,0.000122,-1.170073,0.000327,
2326,2758,1.45184265543037,2.39474320192561,-0.0286322533624457,0.007514,-0.077220,0.000058,0.314899,-3.519774,318.859889,20.942991,0.999564,0.992175,0.003733,0.434274,0.000060,0.000103,0.000029,0.000117,0.000046,63.358122,0.000168,
2446,2188,4.18198106633234,-10.0647283187811,0.00137455268514941,0.007170,-0.082159,-0.019928,0.367730,-3.830784,328.504637,18.749716,0.999466,0.986793,0.004733,0.329855,0.000958,0.000988,-0.000127,0.001101,0.000845,-48.375751,0.001951,
2326,2998,1.41116491944572,7.61149671338265,0.00882733661558177,0.009253,-0.077720,0.006818,0.371563,-3.534373,315.317341,21.495258,0.999759,0.995288,0.002993,0.412892,-0.000001,0.000002,0.000010,0.000010,-0.000009,49.520863,0.000011,
2146,2638,-2.44269039711665,-0.225011373810659,-0.0334591696212101,0.006644,-0.076716,-0.001929,0.284855,-3.510249,321.132117,20.815106,0.999679,0.992230,0.003689,0.428545,0.000155,0.000053,0.000005,0.000156,0.000053,2.741770,0.000217,
2401,2353,3.16335859768895,-6.4461995051245,-0.0165581631995906,0.005644,-0.079419,-0.015396,0.281921,-3.672131,325.527935,19.611563,0.998383,0.981694,0.005365,0.389061,0.000535,0.000436,-0.000024,0.000540,0.000431,-13.219816,0.000973,
2161,2683,-2.12250870361212,0.754319209877885,-0.0213998449647761,0.007504,-0.077023,-0.000738,0.320389,-3.530210,320.482508,20.840388,0.999405,0.990938,0.003824,0.403444,0.000118,0.000067,0.000007,0.000119,0.000066,7.483319,0.000188,
2341,2158,1.89044148220556,-10.7212881461926,-0.0217318947951526,0.004836,-0.082200,-0.025153,0.276663,-3.863332,328.602026,18.994729,0.998997,0.984729,0.005236,0.522844,0.000961,0.001024,-0.000049,0.001051,0.000934,-61.240991,0.001986,
2191,2848,-1.49706371037046,4.34514100766152,-0.0115642995508551,0.008618,-0.077253,0.004189,0.355567,-3.545082,317.818684,21.018138,0.999030,0.990726,0.003971,0.362365,0.000044,0.000070,0.000010,0.000073,0.000041,70.660097,0.000116,
2326,2143,1.56642983103007,-11.0493695093678,-0.0103695942277682,0.004695,-0.082251,-0.025341,0.270310,-3.855002,328.934020,19.203277,0.999019,0.984452,0.005333,0.367604,0.000980,0.001093,-0.000046,0.001110,0.000964,-70.431291,0.002075,
2476,2353,4.8028233635807,-6.44676095296482,-0.0101616126079875,0.007614,-0.080033,-0.012607,0.362260,-3.688597,325.798943,19.327346,0.998569,0.983769,0.005567,0.386278,0.000597,0.000428,-0.000080,0.000628,0.000396,-21.669081,0.001033,
2431,2053,3.88186826767044,-13.0315684348964,0.00114618606755812,0.007593,-0.086654,-0.025260,0.404249,-4.053299,330.693510,18.117634,0.997690,0.975526,0.006567,0.339597,0.001364,0.001305,-0.000103,0.001442,0.001228,-36.973063,0.002672,
2461,2233,4.49887183336226,-9.07644676196537,-0.00840886553146447,0.006608,-0.081759,-0.014603,0.322644,-3.774562,327.681589,18.870459,0.998809,0.981282,0.005617,0.358463,0.000870,0.000808,-0.000111,0.000954,0.000724,-37.183844,0.001683,
2371,2248,2.52921267448708,-8.74526892906423,-0.0248190028881368,0.006078,-0.080340,-0.022887,0.327433,-3.748737,327.179273,19.341411,0.998912,0.983762,0.005534,0.387815,0.000745,0.000707,-0.000045,0.000775,0.000678,-33.514182,0.001453,
2311,3208,1.05044323279759,12.1667308244783,0.0439862814840239,0.010840,-0.077084,0.007472,0.443440,-3.516623,312.257404,21.943264,0.999654,0.993052,0.003384,0.377579,0.000005,0.000008,0.000017,0.000024,-0.000010,47.584600,0.000024,
2386,2098,2.88607493256285,-12.0394857603279,-0.0104062213937937,0.005353,-0.084280,-0.023750,0.295957,-3.944360,329.702685,18.620133,0.998341,0.974750,0.006350,0.382693,0.001163,0.001236,-0.000081,0.001288,0.001110,-57.114547,0.002400,
2161,2473,-2.08963749368078,-3.82454671396604,-0.016290389596179,0.004716,-0.077259,-0.007237,0.211944,-3.540597,323.817679,20.655040,0.998940,0.987087,0.004883,0.425829,0.000308,0.000197,0.000009,0.000309,0.000196,4.501846,0.000509,
2386,2323,2.84198675703855,-7.10228087501049,-0.0300542006753517,0.006678,-0.079473,-0.017598,0.336942,-3.690774,325.941902,19.494671,0.999599,0.992332,0.003953,0.450969,0.000578,0.000494,-0.000030,0.000588,0.000484,-17.869104,0.001074,
2296,2008,0.934220035689155,-14.0159177579132,-0.00197626879833024,0.002068,-0.086135,-0.029801,0.162407,-4.068527,331.090012,18.906823,0.998176,0.977472,0.006348,0.319974,0.001266,0.001360,-0.000077,0.001403,0.001223,-60.809862,0.002628,
2281,3073,0.420103639953521,9.23804567935754,0.0109393775255739,0.009484,-0.077136,0.007563,0.381824,-3.489177,314.161337,21.575129,0.999500,0.993173,0.003547,0.387480,0.000006,-0.000012,0.000001,0.000006,-0.000013,1.953814,0.000013,
2296,3178,0.729317024283453,11.5150835910589,0.0373239437158759,0.010343,-0.077288,0.008189,0.418650,-3.512950,312.682961,21.795165,0.999647,0.993032,0.003432,0.398874,0.000010,-0.000001,0.000011,0.000017,-0.000008,32.181303,0.000017,
2401,3283,2.98688369707038,13.803075539665,-0.00680300136070855,0.011521,-0.077917,0.008916,0.465932,-3.553458,310.625366,22.523445,0.999608,0.991588,0.003742,0.418579,0.000000,-0.000028,0.000003,0.000000,-0.000028,5.313883,0.000033,
2506,2608,5.40310738989135,-0.869166286899365,-0.033087698384179,0.007708,-0.077998,-0.011011,0.362036,-3.590421,321.547733,20.343568,0.999796,0.993987,0.003653,0.421685,0.000188,0.000104,0.000011,0.000189,0.000103,7.336704,0.000296,
2386,3073,2.70198979264925,9.24482242371172,0.0111700032081785,0.010074,-0.077539,0.006091,0.409881,-3.533841,314.152887,21.879430,0.999617,0.991992,0.003633,0.408979,0.000005,-0.000006,0.000026,0.000026,-0.000027,38.651042,0.000030,
2401,3193,3.00680676364974,11.8490652268654,0.0346188499072468,0.010447,-0.077832,0.007019,0.423311,-3.535577,312.408702,22.272645,0.999447,0.992481,0.003519,0.422399,0.000009,-0.000004,0.000027,0.000030,-0.000025,38.408810,0.000033,
2311,2068,1.25291982595504,-12.6978225426125,-0.0050489913512024,0.004468,-0.084407,-0.026538,0.262570,-3.989985,330.187642,18.963925,0.998791,0.981209,0.005645,0.379437,0.001154,0.001266,-0.000044,0.001282,0.001139,-70.857456,0.002422,
2206,2908,-1.18097922737883,5.65036603953557,-0.0106424279964017,0.008798,-0.076432,-0.000987,0.380239,-3.497594,316.829552,21.078922,0.999612,0.993131,0.003533,0.434447,0.000038,0.000028,0.000007,0.000041,0.000025,26.987268,0.000067,
2356,3133,2.04016553274923,10.5439012309656,0.0284609697116025,0.010359,-0.077774,0.006797,0.421603,-3.538614,313.316926,21.936698,0.999519,0.991715,0.003752,0.392458,0.000002,-0.000007,0.000015,0.000013,-0.000018,36.853745,0.000019,
2461,2248,4.49688723143878,-8.74851415265428,-0.00699745760539372,0.007103,-0.081358,-0.019845,0.365183,-3.789845,327.493806,18.888596,0.998691,0.978784,0.005653,0.381479,0.000824,0.000727,-0.000116,0.000901,0.000650,-33.686243,0.001558,
2326,3298,1.35646508794325,14.1205764181935,0.00246698657542765,0.011247,-0.077355,0.007935,0.460187,-3.516204,310.438394,22.125140,0.999695,0.994996,0.002917,0.467364,-0.000008,-0.000018,0.000016,0.000004,-0.000030,36.602755,0.000032,
2371,3163,2.36112045786981,11.1958254148985,0.0302100125038578,0.010821,-0.077612,0.003880,0.452811,-3.542232,312.874326,22.059678,0.999437,0.991910,0.003720,0.407725,0.000003,-0.000008,0.000023,0.000021,-0.000026,38.182930,0.000028,
2176,2803,-1.81627396633714,3.36733160842324,-0.0231660619118088,0.007803,-0.075876,-0.004525,0.346075,-3.490116,318.491694,20.959966,0.999484,0.990546,0.004077,0.419269,0.000052,0.000076,0.000000,0.000076,0.000052,-89.941694,0.000129,
2371,3028,2.38379927836383,8.26697078757351,0.00683587998878465,0.009309,-0.077360,0.002265,0.388889,-3.525363,314.824027,21.730817,0.999463,0.990468,0.003961,0.392492,0.000002,-0.000010,0.000017,0.000014,-0.000022,35.462338,0.000022,
2356,2968,2.06801720636243,6.96365470184581,-0.0105409582521361,0.009313,-0.077508,-0.000301,0.398375,-3.538376,315.664981,21.558857,0.999608,0.991667,0.003628,0.352755,0.000002,-0.000007,0.000019,0.000017,-0.000022,38.003087,0.000023,
2146,2653,-2.44483488031474,0.101224600478744,-0.0310932819421055,0.006716,-0.076631,-0.003390,0.292569,-3.519027,320.916688,20.807135,0.999678,0.991052,0.003788,0.436135,0.000143,0.000052,0.000004,0.000143,0.000052,2.538478,0.000203,
2371,2038,2.57072380372246,-13.3586015577281,-0.00878952046525683,0.005595,-0.085550,-0.031330,0.332800,-4.031223,330.710480,18.410889,0.998187,0.976736,0.006388,0.418358,0.001338,0.001291,-0.000077,0.001395,0.001234,-36.639066,0.002631,
2176,2563,-1.77808103932707,-1.85941095260987,-0.0281655298211945,0.005781,-0.077063,-0.006311,0.258049,-3.543126,322.256373,20.736931,0.999029,0.986964,0.004512,0.386322,0.000201,0.000137,0.000013,0.000204,0.000134,11.088761,0.000340,
2221,2803,-0.838727377349347,3.36905750744482,-0.025499216037133,0.008092,-0.077124,0.000872,0.341110,-3.540926,318.335690,20.990028,0.999263,0.989121,0.004224,0.377977,0.000050,0.000067,0.000003,0.000068,0.000050,81.592925,0.000118,
2236,3103,-0.560665561318004,9.88387778443834,0.0191584181202984,0.010301,-0.077122,0.005377,0.428116,-3.529463,313.869246,21.384902,0.999517,0.993361,0.003371,0.418898,0.000004,-0.000021,-0.000008,0.000006,-0.000024,-15.861761,0.000024,
2311,2758,1.12625195708379,2.3926685134789,-0.018623272245577,0.007574,-0.077614,0.000919,0.314811,-3.546566,318.953243,20.914606,0.999559,0.992121,0.003806,0.429329,0.000057,0.000103,0.000026,0.000115,0.000045,65.836692,0.000165,
2341,2878,1.75703836593643,5.00522798860668,-0.0228502318030905,0.008604,-0.077730,0.002192,0.357115,-3.553603,316.991307,21.162287,0.999567,0.991693,0.003756,0.479700,0.000016,0.000042,0.000025,0.000057,0.000000,58.715411,0.000066,
2416,2428,3.47652987893941,-4.80504547262866,-0.0215193154399458,0.006631,-0.079278,-0.015150,0.326602,-3.680006,324.334345,19.845879,0.999317,0.986944,0.004724,0.339992,0.000408,0.000326,-0.000013,0.000410,0.000324,-8.609053,0.000735,
2221,2983,-0.867200931486362,7.28034394691832,0.00187535273704498,0.009218,-0.076405,0.001844,0.390305,-3.490208,315.681472,21.252002,0.999426,0.991634,0.003726,0.389068,0.000020,0.000010,0.000005,0.000023,0.000008,22.437531,0.000032,
2491,2608,5.07739008027807,-0.872215978851266,-0.011863320473708,0.007883,-0.078746,-0.004485,0.344709,-3.585440,321.664848,20.301738,0.999782,0.994338,0.003599,0.484085,0.000195,0.000104,0.000003,0.000195,0.000104,1.611142,0.000303,
2356,2023,2.24473107295297,-13.6895211134935,-5.42074334362042E-05,0.004427,-0.086852,-0.024986,0.255895,-4.091759,330.942086,18.451706,0.997586,0.972888,0.007204,0.374953,0.001375,0.001339,-0.000072,0.001431,0.001282,-38.021675,0.002715,
2401,2113,3.21233236107118,-11.7107945412011,-0.00334981819207769,0.005964,-0.083940,-0.026299,0.333705,-3.931760,329.572305,18.628756,0.998395,0.975661,0.006309,0.343027,0.001134,0.001217,-0.000094,0.001278,0.001073,-56.873158,0.002354,
2191,2863,-1.50004233388532,4.67214183560069,-0.0168744999966179,0.008384,-0.076624,0.001446,0.353692,-3.506927,317.527774,21.036479,0.999211,0.991803,0.003677,0.396360,0.000041,0.000064,0.000005,0.000065,0.000040,78.021293,0.000106,
2311,2983,1.08864806312676,7.28477824942773,0.00905637830112482,0.009409,-0.077151,0.000248,0.401908,-3.543527,315.604299,21.450268,0.999726,0.995341,0.002943,0.375371,0.000006,0.000004,0.000012,0.000018,-0.000007,43.397588,0.000018,
2386,3223,2.67512323736939,12.4988531123981,0.0329177405887435,0.010678,-0.077678,0.008218,0.430272,-3.531765,311.897440,22.305988,0.999531,0.993644,0.003270,0.406210,0.000003,-0.000008,0.000023,0.000021,-0.000026,37.893604,0.000028,
2251,2938,-0.208260926919412,6.3036271561265,-0.00354820838543901,0.009149,-0.076982,0.003700,0.379922,-3.535918,316.293327,21.173781,0.999619,0.994186,0.003245,0.432663,0.000024,0.000011,0.000007,0.000027,0.000008,23.475285,0.000036,
2161,2488,-2.09199046730444,-3.4961179697885,-0.0301142699112233,0.005472,-0.076719,-0.011718,0.260601,-3.528196,323.508156,20.627123,0.998800,0.986932,0.004863,0.478076,0.000287,0.000188,0.000006,0.000287,0.000188,3.205664,0.000479,
2356,2248,2.20167021388575,-8.74673614333425,-0.014018340413827,0.005546,-0.080998,-0.017275,0.282658,-3.768711,327.219326,19.401754,0.998572,0.981465,0.005605,0.376437,0.000728,0.000702,-0.000044,0.000761,0.000669,-36.544447,0.001431,
2146,2428,-2.40900635141213,-4.80661300725256,-0.0211889987705263,0.004589,-0.077506,-0.009201,0.212007,-3.579508,324.559854,20.698272,0.998805,0.987741,0.004774,0.351569,0.000372,0.000234,0.000003,0.000372,0.000234,1.415875,0.000611,
2326,2773,1.45031290308859,2.72196079424479,-0.0250768682697071,0.008260,-0.077104,-0.003291,0.360778,-3.531079,318.690983,21.074635,0.999636,0.994860,0.003345,0.325844,0.000055,0.000085,0.000022,0.000097,0.000043,62.146030,0.000144,
2311,3223,1.04762313243746,12.4912815112762,0.0422973388878631,0.010839,-0.077314,0.006248,0.447527,-3.531297,312.001859,21.913994,0.999566,0.993408,0.003276,0.423137,0.000003,0.000002,0.000013,0.000016,-0.000011,43.830731,0.000017,
2191,2638,-1.46291195191591,-0.225005983573631,-0.024585076371693,0.007195,-0.076678,-0.005265,0.319829,-3.531990,321.085147,20.743371,0.999299,0.989168,0.004291,0.445072,0.000141,0.000075,0.000020,0.000147,0.000069,15.205230,0.000221,
2371,2053,2.56792768977593,-13.0279103276163,-0.00359796604055873,0.005459,-0.084864,-0.028837,0.318044,-3.983768,330.496280,18.591187,0.998449,0.979450,0.005961,0.330039,0.001294,0.001275,-0.000069,0.001355,0.001214,-41.095338,0.002570,
2341,2173,1.88763859513287,-10.3917027806254,-0.0134929685838188,0.004801,-0.082469,-0.017526,0.248485,-3.836675,328.399789,19.168456,0.998823,0.983123,0.005351,0.415012,0.000922,0.000973,-0.000049,0.001002,0.000893,-58.922014,0.001896,
2431,2068,3.87805788208563,-12.7009048604914,0.000176011024791478,0.007090,-0.085814,-0.022229,0.370445,-3.993748,330.408803,18.220073,0.997565,0.971299,0.007000,0.350653,0.001311,0.001293,-0.000109,0.001411,0.001193,-42.657258,0.002608,
2401,3208,3.0044409364263,12.1738479408084,0.0386857346430816,0.010685,-0.077917,0.007039,0.434074,-3.556103,312.207871,22.302004,0.999405,0.992416,0.003642,0.416688,0.000008,-0.000006,0.000024,0.000027,-0.000024,36.865182,0.000029,
2371,2263,2.52634610832479,-8.41734362260689,-0.0151437856606549,0.005728,-0.080729,-0.017680,0.292805,-3.743945,326.982951,19.428809,0.999135,0.986916,0.004833,0.348457,0.000708,0.000654,-0.000051,0.000739,0.000623,-31.074301,0.001364,
2356,3148,2.03761040841362,10.8690373046617,0.0328415935217095,0.010402,-0.077906,0.007871,0.419763,-3.546898,313.106261,21.973927,0.999504,0.992205,0.003694,0.384674,0.000001,-0.000010,0.000017,0.000013,-0.000022,36.070308,0.000022,
2341,1993,1.92182729136676,-14.3487356879541,0.00174393043533883,0.003646,-0.088556,-0.024724,0.218068,-4.141968,331.400035,18.476883,0.997583,0.978019,0.006607,0.321520,0.001408,0.001393,-0.000104,0.001505,0.001296,-42.973492,0.002804,
2446,2203,4.17803432568532,-9.73504705968088,-0.00618267528915339,0.006750,-0.081338,-0.021095,0.353225,-3.792534,328.184273,18.764056,0.999500,0.986047,0.004797,0.409039,0.000916,0.000910,-0.000113,0.001026,0.000800,-44.198345,0.001831,
2416,2188,3.52560485298836,-10.0639829025606,-0.00167205727802866,0.006177,-0.081935,-0.024413,0.338109,-3.835794,328.397915,18.918740,0.998917,0.983701,0.005179,0.312759,0.000917,0.000964,-0.000101,0.001044,0.000837,-51.499493,0.001885,
2311,2773,1.12450010992989,2.71892193223881,-0.013331465314991,0.007993,-0.077537,-0.001752,0.343291,-3.538643,318.781869,20.951199,0.999536,0.992804,0.003668,0.432806,0.000055,0.000085,0.000020,0.000095,0.000045,63.282469,0.000142,
2506,2623,5.4007290364096,-0.544703117358537,-0.0193731120558596,0.007793,-0.078666,-0.004725,0.341371,-3.610900,321.398942,20.277455,0.999834,0.994672,0.003337,0.528679,0.000174,0.000073,0.000005,0.000174,0.000073,2.990305,0.000253,
2251,3118,-0.23721539665048,10.2108531096645,0.0258307822591632,0.010196,-0.076796,0.002920,0.431131,-3.495546,313.650537,21.505949,0.999523,0.992226,0.003630,0.411593,0.000008,-0.000015,-0.000001,0.000008,-0.000015,-2.879574,0.000015,
2311,2083,1.24950673828025,-12.3662657961205,-0.00516435124160353,0.004079,-0.084088,-0.023126,0.233286,-3.927116,329.914404,19.158547,0.998990,0.982911,0.005462,0.283332,0.001116,0.001258,-0.000045,0.001271,0.001103,-73.835848,0.002376,
2446,2323,4.15280984343844,-7.10366857845994,-0.013036699321674,0.006577,-0.079487,-0.015776,0.326556,-3.682133,326.157314,19.277793,0.999045,0.980925,0.005350,0.442343,0.000633,0.000494,-0.000074,0.000666,0.000462,-23.424693,0.001133,
2401,3298,2.98352866901354,14.1282725061756,-0.0130626309426702,0.011674,-0.077736,0.010004,0.469175,-3.539769,310.329482,22.525024,0.999655,0.992814,0.003553,0.475056,-0.000001,-0.000050,0.000005,-0.000001,-0.000051,6.168898,0.000059,
2386,2338,2.83995005785713,-6.77483224417126,-0.0179799839986572,0.006396,-0.079096,-0.019962,0.332639,-3.696510,325.795759,19.595403,0.998852,0.985486,0.004898,0.389428,0.000550,0.000461,-0.000022,0.000555,0.000456,-13.331533,0.001013,
2326,3013,1.40896565691623,7.93768246649402,0.0081842935751979,0.009763,-0.077494,0.004955,0.401595,-3.527724,315.096668,21.548079,0.999368,0.989936,0.003892,0.400541,-0.000002,-0.000007,0.000012,0.000008,-0.000017,39.894700,0.000017,
2431,2488,3.79138316046933,-3.4942457436493,-0.0181696033557728,0.006541,-0.079400,-0.006740,0.291694,-3.670772,323.376906,19.971498,0.999022,0.983641,0.004908,0.386322,0.000341,0.000218,-0.000026,0.000347,0.000213,-11.662106,0.000565,
2461,2263,4.49380995336464,-8.41850151970402,-0.00977255642317232,0.007495,-0.081076,-0.017454,0.374310,-3.759749,327.236317,19.014009,0.998840,0.979900,0.005588,0.343056,0.000788,0.000675,-0.000129,0.000872,0.000591,-33.132310,0.001472,
2176,2578,-1.78022296687225,-1.53316124093051,-0.0287937112660188,0.006181,-0.077174,-0.006519,0.277039,-3.555705,322.027643,20.685441,0.999012,0.988390,0.004338,0.438370,0.000183,0.000117,0.000013,0.000185,0.000115,10.549516,0.000303,
2476,2368,4.7990993731866,-6.11672035814753,-0.0168371988440867,0.007511,-0.079512,-0.012657,0.358001,-3.656324,325.494856,19.453141,0.999399,0.986607,0.005060,0.351518,0.000570,0.000409,-0.000075,0.000599,0.000379,-21.547059,0.000987,
2386,3238,2.67131908893966,12.8244880338702,0.0197280705548337,0.010715,-0.077878,0.006963,0.436366,-3.556701,311.546760,22.327646,0.999564,0.993519,0.003243,0.401542,0.000002,-0.000017,0.000021,0.000015,-0.000030,32.699373,0.000030,
2356,2038,2.24287617237345,-13.3586566309811,-0.00442202217192289,0.005352,-0.085704,-0.030071,0.316511,-4.059791,330.724129,18.549484,0.998212,0.978033,0.006225,0.351459,0.001325,0.001298,-0.000074,0.001387,0.001236,-39.742273,0.002624,
2431,2248,3.84096837868856,-8.74717517998995,-0.0114620099135436,0.006708,-0.080394,-0.022080,0.355062,-3.752057,327.385892,19.054144,0.998882,0.981099,0.005517,0.393349,0.000784,0.000724,-0.000096,0.000855,0.000654,-36.373503,0.001513,
2461,2638,4.41539064962263,-0.215909168790901,-0.0310029750607441,0.007517,-0.078246,-0.006540,0.336285,-3.581237,320.932233,20.526869,0.999495,0.989834,0.004034,0.406388,0.000162,0.000093,-0.000016,0.000165,0.000089,-12.236451,0.000258,
2386,2113,2.8837817535666,-11.7096696593606,-0.0130265882244771,0.005846,-0.083601,-0.027729,0.333029,-3.933587,329.475767,18.692674,0.998053,0.970629,0.006630,0.367164,0.001117,0.001207,-0.000077,0.001252,0.001073,-60.134539,0.002327,
2491,2623,5.07360389609442,-0.545082457437388,-0.0180941930055951,0.007660,-0.078804,-0.004947,0.336234,-3.603714,321.360409,20.306647,0.999819,0.994295,0.003445,0.520601,0.000180,0.000081,-0.000003,0.000180,0.000081,-1.954154,0.000267,
2341,3088,1.72091528479983,9.56700825122607,0.00943496425361445,0.009974,-0.077815,0.007570,0.401657,-3.537916,313.875337,21.747273,0.999591,0.994303,0.003141,0.414133,-0.000003,-0.000013,0.000004,-0.000002,-0.000015,20.701133,0.000018,
2161,2698,-2.12538548011011,1.08152224265636,-0.0257948057837325,0.007428,-0.076717,-0.000678,0.316862,-3.500911,320.198610,20.840646,0.999237,0.988904,0.004081,0.443121,0.000109,0.000075,0.000005,0.000110,0.000074,7.866971,0.000185,
2206,2923,-1.18343222214295,5.97676175091025,-0.0080940126402993,0.008960,-0.076633,0.001775,0.378876,-3.502780,316.604883,21.159762,0.999344,0.990471,0.003942,0.364733,0.000037,0.000015,0.000011,0.000041,0.000011,22.716197,0.000055,
2401,2368,3.16036430914342,-6.11953053600683,-0.0110578478095817,0.005798,-0.080703,-0.006990,0.258082,-3.725641,325.307998,19.632529,0.998454,0.981442,0.005327,0.361624,0.000504,0.000417,-0.000022,0.000510,0.000411,-13.411110,0.000923,
2506,2638,5.39725308605486,-0.21608797289592,-0.0190257100421718,0.007621,-0.078577,-0.002161,0.323653,-3.594096,321.139060,20.444896,0.999646,0.992128,0.003864,0.439846,0.000159,0.000081,0.000002,0.000159,0.000081,1.511666,0.000244,
2416,1993,3.56564088239277,-14.352767175926,0.0155832547041541,0.006066,-0.088184,-0.029292,0.347883,-4.157546,331.701609,17.951285,0.998658,0.974652,0.006408,0.294151,0.001544,0.001398,-0.000099,0.001594,0.001348,-26.843039,0.002946,
2416,2443,3.4731189930939,-4.47790436841984,-0.0165081586594624,0.006311,-0.079509,-0.008299,0.286854,-3.659734,324.093367,19.855381,0.999322,0.987293,0.004665,0.400065,0.000390,0.000286,-0.000007,0.000390,0.000285,-3.952312,0.000678,
2281,3088,0.418588784744003,9.56240479437252,0.0171304735645208,0.009796,-0.077039,0.001419,0.416736,-3.513384,314.003439,21.553618,0.999685,0.993167,0.003545,0.411666,0.000008,-0.000012,-0.000003,0.000008,-0.000013,-9.486568,0.000013,
2311,3238,1.04416380380463,12.8176457261508,0.0338496206225045,0.010950,-0.077259,0.008266,0.445806,-3.523641,311.682790,21.995491,0.999378,0.992534,0.003440,0.380054,0.000002,-0.000005,0.000014,0.000013,-0.000016,38.143763,0.000017,
2446,2338,4.15044073338028,-6.77590381349663,-0.00522040688349534,0.006706,-0.080211,-0.014228,0.326419,-3.715755,325.979764,19.392787,0.998887,0.981128,0.005378,0.347654,0.000604,0.000459,-0.000064,0.000628,0.000435,-20.727498,0.001069,
2326,2158,1.56351261494422,-10.7218190135861,-0.00778831355296461,0.004676,-0.082760,-0.021021,0.254413,-3.866489,328.698504,19.163065,0.998849,0.983520,0.005388,0.433402,0.000936,0.001025,-0.000044,0.001044,0.000918,-67.647420,0.001963,
2371,3043,2.38120340201356,8.59265509906445,0.00890624756578973,0.009451,-0.077131,0.002587,0.394427,-3.504224,314.601482,21.749969,0.999564,0.992105,0.003649,0.434770,-0.000001,-0.000003,0.000021,0.000019,-0.000022,43.771322,0.000024,
2371,2068,2.5645559629817,-12.6988933712367,-0.00271152808824127,0.005183,-0.084385,-0.024829,0.291438,-3.943422,330.235366,18.582939,0.998801,0.980746,0.005564,0.423162,0.001248,0.001256,-0.000066,0.001318,0.001186,-46.739638,0.002505,
2191,2653,-1.46599998540946,0.102388061726636,-0.0278692081416239,0.006876,-0.076856,-0.005408,0.305575,-3.536654,320.800056,20.790399,0.999397,0.990252,0.004093,0.408301,0.000133,0.000071,0.000022,0.000140,0.000064,17.240158,0.000209,
2356,2983,2.06561017336445,7.28891423149026,-0.00404228575229126,0.009396,-0.077496,0.001578,0.395625,-3.531680,315.471817,21.568864,0.999498,0.988972,0.004062,0.387495,0.000000,-0.000001,0.000016,0.000016,-0.000016,44.381868,0.000018,
2491,2638,5.06937546448295,-0.21474394400326,-0.0340693517218824,0.007806,-0.078257,-0.005685,0.346051,-3.580152,320.990961,20.487046,0.999472,0.989250,0.004128,0.424012,0.000165,0.000085,-0.000008,0.000166,0.000084,-5.756525,0.000254,
2356,2053,2.24050278271247,-13.0295656813859,0.00751304940303044,0.004857,-0.084700,-0.030456,0.295601,-4.003725,330.560569,18.650130,0.998516,0.980429,0.005691,0.348808,0.001281,0.001284,-0.000065,0.001348,0.001218,-45.639557,0.002567,
2371,3178,2.35787767356915,11.5213905176886,0.0284022525873411,0.010720,-0.077572,0.005465,0.442567,-3.537942,312.602946,22.094407,0.999428,0.992214,0.003598,0.417172,0.000004,-0.000004,0.000023,0.000023,-0.000023,40.278798,0.000027,
2431,2083,3.87445125741176,-12.3691965249042,-0.0100819888267552,0.007284,-0.085197,-0.022495,0.380613,-3.975080,330.090569,18.361653,0.997993,0.975805,0.006648,0.281272,0.001259,0.001287,-0.000112,0.001386,0.001160,-48.472015,0.002549,
2446,2218,4.17428747890154,-9.40515871545467,-0.0159510852889753,0.006540,-0.080903,-0.024420,0.356201,-3.796391,327.863012,18.822668,0.999133,0.984155,0.005203,0.401729,0.000887,0.000857,-0.000111,0.000984,0.000760,-41.063759,0.001749,
2191,2878,-1.50233047879833,4.99894018259207,-0.0120858567869959,0.008471,-0.076783,0.003354,0.351712,-3.505650,317.321222,21.152197,0.999778,0.995236,0.003033,0.295903,0.000039,0.000058,0.000003,0.000059,0.000038,81.585102,0.000098,
2386,3253,2.66798923808129,13.1503962287613,0.012980262083147,0.011021,-0.077806,0.009531,0.441333,-3.537499,311.248460,22.372097,0.999641,0.992977,0.003256,0.418304,-0.000001,-0.000010,0.000018,0.000012,-0.000024,37.970122,0.000024,
2161,2503,-2.09446353174221,-3.16852706619672,-0.0356915069490924,0.006155,-0.077431,-0.007308,0.278258,-3.555991,323.236807,20.644391,0.998755,0.985961,0.004979,0.443994,0.000270,0.000178,0.000007,0.000270,0.000178,4.436766,0.000451,
2416,2008,3.56344346613937,-14.025178633983,0.0225253686343194,0.006739,-0.088538,-0.023160,0.356172,-4.130281,331.526909,17.871897,0.998655,0.971943,0.006596,0.452046,0.001492,0.001378,-0.000094,0.001545,0.001325,-29.325303,0.002873,
2356,2263,2.19862986895153,-8.41883637668356,-0.00700447179576713,0.005111,-0.080990,-0.013188,0.248426,-3.739970,327.001241,19.434787,0.999049,0.985195,0.005064,0.413441,0.000690,0.000645,-0.000053,0.000725,0.000610,-33.615047,0.001337,
2341,2008,1.91912779780263,-14.0176294761543,0.00040292182217172,0.003731,-0.086905,-0.026284,0.227991,-4.059690,331.156358,18.569055,0.997678,0.975596,0.006825,0.352213,0.001382,0.001365,-0.000084,0.001458,0.001289,-42.201061,0.002749,
2356,3163,2.03514217866048,11.1943103485452,0.0342268384247859,0.010431,-0.077424,0.004639,0.432665,-3.538608,312.885019,21.992451,0.999407,0.992040,0.003882,0.412146,0.000003,-0.000007,0.000019,0.000017,-0.000022,38.154353,0.000023,
2386,2353,2.83647293915118,-6.44756308845003,-0.0128763326454759,0.005915,-0.079386,-0.013474,0.287257,-3.672468,325.550410,19.585293,0.998465,0.982015,0.005440,0.468679,0.000525,0.000430,-0.000017,0.000528,0.000427,-9.696166,0.000957,
2431,2503,3.78904299008812,-3.1671825327936,-0.0136281103304441,0.006733,-0.079135,-0.007628,0.303894,-3.642542,323.183690,19.979538,0.999162,0.986937,0.004564,0.457488,0.000315,0.000211,-0.000027,0.000322,0.000204,-13.632929,0.000530,
2476,2713,4.72727294628674,1.4189826622699,-0.0280239516552001,0.007791,-0.078366,-0.002078,0.331869,-3.586843,319.766840,20.723732,0.999628,0.989838,0.004131,0.477702,0.000094,0.000075,0.000018,0.000104,0.000064,30.893862,0.000170,
2371,2278,2.52449491086575,-8.08965247257407,-0.00232839740368718,0.005526,-0.080316,-0.020439,0.293499,-3.735278,326.848109,19.526430,0.999709,0.994124,0.003606,0.302194,0.000674,0.000626,-0.000039,0.000696,0.000605,-29.172444,0.001302,
2311,3253,1.04100536584557,13.1433776958658,0.0234675741347701,0.011323,-0.077310,0.007831,0.464489,-3.525926,311.368172,22.022663,0.999480,0.992354,0.003446,0.381484,-0.000001,-0.000004,0.000018,0.000015,-0.000021,42.436522,0.000021,
2401,2383,3.15789771045168,-5.79004598202712,-0.0140573032766156,0.006244,-0.079692,-0.010141,0.290318,-3.699340,325.071524,19.753518,0.998943,0.985093,0.004975,0.314229,0.000481,0.000403,-0.000025,0.000488,0.000396,-16.407832,0.000886,
2401,2128,3.21077711841685,-11.3815306572741,0.00619167747379379,0.006779,-0.083395,-0.023700,0.361893,-3.906628,329.437582,18.773548,0.998919,0.980261,0.005633,0.271485,0.001095,0.001173,-0.000092,0.001234,0.001035,-56.519319,0.002272,
2341,2893,1.7554260873818,5.3319507568995,-0.0117262332318546,0.008951,-0.077368,0.001979,0.374007,-3.536597,316.856113,21.308271,0.999351,0.991449,0.003816,0.387018,0.000012,0.000024,0.000022,0.000041,-0.000005,52.987712,0.000045,
2311,2788,1.12217307402327,3.04500127859075,-0.0134271663637264,0.008320,-0.077179,-0.003313,0.363730,-3.548678,318.557600,20.951628,0.999587,0.994592,0.003417,0.454698,0.000055,0.000076,0.000020,0.000088,0.000043,58.845002,0.000134,
2476,2473,4.77620061161236,-3.81977039367783,-0.0299079959950745,0.007467,-0.079342,-0.008447,0.340299,-3.655109,323.664243,19.814526,0.999291,0.990462,0.004237,0.399254,0.000378,0.000266,-0.000042,0.000392,0.000252,-18.396213,0.000649,
2461,2398,4.46449617923132,-5.46207173435256,-0.0127367798855289,0.006346,-0.080149,-0.009990,0.294325,-3.679574,324.943713,19.542417,0.999501,0.986431,0.004844,0.403296,0.000509,0.000376,-0.000068,0.000537,0.000347,-22.776108,0.000891,
2311,2998,1.08609155867369,7.61015533588356,0.0144705306035462,0.009482,-0.077341,0.003714,0.393416,-3.526748,315.396237,21.455346,0.999873,0.996604,0.002833,0.418414,0.000006,0.000004,0.000009,0.000014,-0.000004,41.721840,0.000014,
2221,2998,-0.869554070718504,7.60551306176172,0.0066906904232269,0.009441,-0.076664,0.005927,0.387414,-3.485062,315.474339,21.244509,0.999480,0.991737,0.003689,0.419916,0.000021,0.000007,0.000001,0.000021,0.000007,5.428765,0.000030,
2326,2788,1.44739868978035,3.04682948458859,-0.0280718403794822,0.008488,-0.077456,-0.001547,0.365060,-3.562714,318.427049,20.963980,0.999531,0.994121,0.003478,0.439295,0.000052,0.000077,0.000022,0.000090,0.000039,59.213922,0.000132,
2356,2068,2.23732564961864,-12.7002632264284,0.0107999565656769,0.004622,-0.084704,-0.025735,0.268316,-3.972177,330.318833,18.702392,0.998659,0.980130,0.005666,0.370497,0.001236,0.001262,-0.000060,0.001311,0.001187,-51.327651,0.002499,
2251,3133,-0.239860332744467,10.5354748043589,0.0336940380925057,0.010222,-0.077385,0.010567,0.407070,-3.493350,313.447294,21.501766,0.999328,0.992621,0.003627,0.440174,0.000003,-0.000009,0.000001,0.000003,-0.000009,3.834080,0.000009,
2491,2788,5.03884625497055,3.05583352764759,-0.0301571109437191,0.008127,-0.078140,-0.001023,0.343276,-3.561737,318.575368,21.143293,0.999222,0.988035,0.004270,0.377697,0.000053,0.000069,0.000005,0.000071,0.000052,74.398190,0.000123,
2491,2653,5.06635790184624,0.112211301945798,-0.029009547927501,0.007656,-0.078516,-0.003163,0.329426,-3.589395,320.772474,20.573221,0.999310,0.988753,0.004340,0.387806,0.000155,0.000084,-0.000010,0.000156,0.000083,-8.158302,0.000243,
2431,2263,3.83695513189589,-8.41745080152957,-0.0159405630851097,0.006774,-0.081100,-0.013079,0.324668,-3.751883,327.075018,19.165916,0.998865,0.980937,0.005569,0.334317,0.000748,0.000672,-0.000106,0.000823,0.000598,-35.140908,0.001427,
2446,2353,4.14828678662196,-6.44845587176007,-0.00669688049049455,0.007485,-0.080247,-0.016509,0.370613,-3.729370,325.769290,19.371600,0.999022,0.981860,0.005518,0.409098,0.000579,0.000436,-0.000062,0.000602,0.000413,-20.328260,0.001021,
2506,2863,5.35072490075259,4.68931128992683,-0.0262583513738264,0.008770,-0.078229,0.003786,0.353978,-3.552723,317.437429,21.427393,0.999696,0.993098,0.003421,0.418206,0.000037,0.000018,0.000033,0.000062,-0.000007,37.140295,0.000068,
2476,2383,4.7952081262986,-5.78918268713399,-0.0175954188074456,0.007215,-0.080207,-0.006966,0.322624,-3.651235,325.210208,19.440154,0.999426,0.985390,0.005128,0.428194,0.000542,0.000387,-0.000080,0.000576,0.000353,-22.888126,0.000938,
2416,2203,3.52254953071455,-9.73522889384418,-0.00857679089006069,0.006562,-0.081161,-0.025064,0.358456,-3.816844,328.118565,18.874261,0.998890,0.982353,0.005488,0.426912,0.000878,0.000898,-0.000089,0.000978,0.000798,-48.326959,0.001779,
2371,2083,2.56152387269166,-12.3686765651007,-0.00456085678075624,0.005310,-0.084149,-0.022921,0.290626,-3.914130,329.976875,18.670227,0.998777,0.979368,0.005723,0.409791,0.001201,0.001251,-0.000067,0.001298,0.001155,-55.092631,0.002454,
2416,2458,3.47024079131252,-4.14921004926807,-0.0235064846576165,0.006862,-0.079122,-0.009316,0.316027,-3.639737,323.820472,19.899710,0.999248,0.986683,0.004767,0.424954,0.000368,0.000268,-0.000009,0.000368,0.000267,-5.379624,0.000638,
2506,2653,5.39314518885095,0.112461834696134,-0.0267158615251901,0.007489,-0.079119,0.000274,0.308024,-3.591597,320.814172,20.557778,0.999436,0.988303,0.004505,0.391323,0.000152,0.000080,0.000004,0.000152,0.000080,3.059973,0.000236,
2461,2278,4.49125239382545,-8.0894463430516,-0.00680318919893352,0.007513,-0.079985,-0.020026,0.385274,-3.727093,327.028864,19.113140,0.999081,0.980493,0.005602,0.333299,0.000748,0.000632,-0.000114,0.000818,0.000563,-31.454850,0.001388,
2461,2653,4.41277095808184,0.111169497452721,-0.0259919471175749,0.007727,-0.078208,-0.003924,0.336107,-3.571961,320.729744,20.604886,0.999494,0.989944,0.003994,0.392523,0.000144,0.000091,-0.000016,0.000149,0.000087,-15.442305,0.000238,
2341,3103,1.71930926314283,9.89177099989809,0.0231848149025495,0.010068,-0.077743,0.006548,0.409589,-3.543551,313.753281,21.796626,0.999557,0.993308,0.003419,0.394586,0.000000,-0.000010,0.000006,0.000003,-0.000013,26.241590,0.000013,
2356,2998,2.06279076663633,7.6145950876152,0.00618308711210602,0.009120,-0.077658,0.007823,0.360849,-3.524253,315.277503,21.645563,0.999635,0.992344,0.003550,0.356294,-0.000001,-0.000001,0.000012,0.000011,-0.000013,44.319447,0.000014,
2446,2563,4.10360157155339,-1.85416679359181,-0.0200071264105759,0.006991,-0.078768,-0.003786,0.301615,-3.607948,322.178893,20.292431,0.999426,0.989608,0.004348,0.360657,0.000254,0.000145,-0.000008,0.000255,0.000145,-4.401061,0.000404,
2386,2128,2.88104329398169,-11.3801151280465,-0.0133039879939361,0.006141,-0.083053,-0.026186,0.341265,-3.913336,329.239442,18.763155,0.998690,0.976508,0.005963,0.363129,0.001078,0.001166,-0.000076,0.001210,0.001034,-59.995070,0.002247,
2401,2143,3.20678595770768,-11.0530734426516,-0.00138955463035018,0.006229,-0.083231,-0.024601,0.340037,-3.891962,329.110983,18.675199,0.998907,0.978889,0.005634,0.433598,0.001046,0.001115,-0.000095,0.001182,0.000979,-54.972927,0.002164,
2416,2023,3.55814277744129,-13.6900766053555,0.00785371682798086,0.005562,-0.086938,-0.023603,0.304661,-4.074422,331.108806,18.209251,0.998157,0.975196,0.006381,0.223045,0.001437,0.001365,-0.000097,0.001505,0.001298,-34.805692,0.002805,
2341,2188,1.88580649883807,-10.061855512312,-0.0120322561460853,0.005447,-0.081931,-0.020435,0.288441,-3.849661,328.209378,19.338094,0.998967,0.986168,0.005002,0.271447,0.000873,0.000934,-0.000048,0.000960,0.000846,-61.387140,0.001808,
2401,3223,3.00104999131233,12.4997436961176,0.0331706632160262,0.010550,-0.077658,0.005674,0.432951,-3.547603,311.914036,22.353427,0.999450,0.992670,0.003498,0.417951,0.000006,-0.000013,0.000019,0.000018,-0.000025,32.058168,0.000026,
2326,3028,1.40623306105014,8.26340595381094,0.0111455723248923,0.009555,-0.077343,0.004257,0.394511,-3.526444,314.869219,21.591965,0.999578,0.992106,0.003592,0.391588,-0.000002,-0.000005,0.000013,0.000009,-0.000017,41.625136,0.000017,
2311,3268,1.03790252735253,13.4687999869001,0.0185903603654651,0.011349,-0.077240,0.007516,0.466861,-3.519328,311.083371,22.048043,0.999546,0.993274,0.003237,0.393729,-0.000005,-0.000001,0.000014,0.000011,-0.000017,48.875845,0.000017,
2341,2023,1.91637033029448,-13.689220934124,0.00125897839637901,0.003715,-0.086724,-0.026061,0.226637,-4.088258,330.921445,18.556739,0.998012,0.976849,0.006506,0.376167,0.001344,0.001342,-0.000072,0.001415,0.001271,-44.610153,0.002687,
2251,2953,-0.210247279996377,6.63106153853156,-0.00312509175620335,0.009625,-0.076630,0.001088,0.410592,-3.518921,316.081978,21.321469,0.999410,0.991984,0.003693,0.324757,0.000019,0.000004,0.000009,0.000024,0.000000,24.908055,0.000027,
2446,2233,4.17185293273736,-9.0768990343537,-0.00402660746709671,0.006437,-0.080647,-0.020735,0.337943,-3.763772,327.701440,18.927107,0.998530,0.978912,0.005864,0.384225,0.000854,0.000809,-0.000099,0.000933,0.000730,-38.613421,0.001667,
2371,3058,2.37853836121782,8.91837034631171,0.0128139784029599,0.009801,-0.077826,0.008270,0.390040,-3.529779,314.384541,21.834347,0.999593,0.993658,0.003353,0.364824,0.000001,-0.000005,0.000022,0.000020,-0.000024,41.459485,0.000026,
2491,2803,5.03600131663921,3.38209346279464,-0.0270718316190255,0.008411,-0.078342,0.002710,0.341901,-3.567347,318.355234,21.188268,0.999184,0.987294,0.004537,0.386003,0.000058,0.000056,0.000008,0.000065,0.000049,40.366546,0.000114,
2281,3103,0.41609962957514,9.88826797580638,0.0150733258246873,0.010320,-0.076959,0.003201,0.434963,-3.508768,313.758901,21.593165,0.999617,0.993496,0.003442,0.403553,0.000005,-0.000008,-0.000001,0.000005,-0.000008,-4.744964,0.000008,
2356,2278,2.19466900889951,-8.08844451514258,-0.0258750910147683,0.005047,-0.080429,-0.018353,0.263852,-3.748963,326.616464,19.475038,0.999254,0.988877,0.004503,0.405900,0.000655,0.000620,-0.000043,0.000684,0.000591,-33.888513,0.001276,
2386,3268,2.66479967722649,13.4758825312822,0.0100806944353167,0.010926,-0.077754,0.009058,0.438761,-3.527818,310.975046,22.413081,0.999634,0.992747,0.003407,0.428917,-0.000005,-0.000012,0.000011,0.000003,-0.000020,36.817747,0.000021,
2431,2098,3.87120880414131,-12.0404358894377,-0.00374424572896714,0.006740,-0.085305,-0.019621,0.345134,-3.957345,329.865868,18.424316,0.999148,0.981546,0.005934,0.289704,0.001208,0.001264,-0.000117,0.001357,0.001115,-51.694292,0.002476,
2206,2938,-1.1855642726964,6.30172146190677,-0.0027881211407248,0.009205,-0.076857,0.003914,0.383297,-3.509521,316.409649,21.133427,0.999389,0.992295,0.003671,0.400292,0.000033,0.000009,0.000006,0.000034,0.000008,12.834459,0.000044,
2506,2878,5.34918362012718,5.01419686713984,-0.0117735232886957,0.008885,-0.078023,0.001336,0.368798,-3.570759,317.329278,21.462643,0.999644,0.993556,0.003382,0.425552,0.000032,0.000024,0.000034,0.000062,-0.000006,41.678494,0.000068,
2401,2398,3.15523797808736,-5.46171954031044,-0.0167554909911019,0.006393,-0.078984,-0.014217,0.312206,-3.668360,324.827694,19.772197,0.999103,0.986300,0.004833,0.373770,0.000456,0.000385,-0.000019,0.000461,0.000381,-14.247688,0.000843,
2386,3088,2.6995308693838,9.56950918140634,0.0186402157268617,0.010013,-0.077960,0.007198,0.402924,-3.561299,313.963542,21.901132,0.999384,0.990752,0.003870,0.401973,0.000004,-0.000010,0.000021,0.000019,-0.000024,35.858485,0.000026,
2431,2518,3.78697471163752,-2.83948540714516,-0.0146162256644971,0.007219,-0.078393,-0.013777,0.349199,-3.639466,322.977249,20.025015,0.998853,0.985516,0.004815,0.466167,0.000288,0.000204,-0.000024,0.000294,0.000197,-14.843974,0.000495,
2491,2668,5.06385992407777,0.438784731612259,-0.0297600889614955,0.007949,-0.078086,-0.007284,0.358816,-3.598447,320.551730,20.579479,0.999225,0.988055,0.004402,0.431783,0.000139,0.000065,-0.000005,0.000139,0.000065,-4.062540,0.000208,
2221,3013,-0.8714146987523,7.93101329611693,0.00967569249229427,0.009848,-0.076484,0.003754,0.413141,-3.499141,315.280324,21.277703,0.999477,0.991882,0.003611,0.390916,0.000022,-0.000005,-0.000002,0.000022,-0.000005,-4.043761,0.000023,
2371,3193,2.35578135606005,11.8462818821268,0.0369491717690948,0.010997,-0.077768,0.007513,0.447922,-3.545413,312.434233,22.143590,0.999433,0.992254,0.003593,0.400282,0.000006,-0.000001,0.000023,0.000026,-0.000020,40.686340,0.000027,
2446,2368,4.14472300358987,-6.11831899943174,-0.0134851282149384,0.007274,-0.079045,-0.019093,0.371111,-3.684660,325.469029,19.492107,0.999207,0.985353,0.005062,0.387546,0.000549,0.000416,-0.000057,0.000570,0.000394,-20.368336,0.000970,
2416,2038,3.55505384938735,-13.3610770099215,0.000569398137884036,0.006118,-0.086896,-0.022088,0.324648,-4.065484,330.826937,18.127491,0.997747,0.975355,0.006537,0.365370,0.001381,0.001327,-0.000098,0.001456,0.001252,-37.442985,0.002710,
2461,2413,4.46243700277337,-5.13399417811451,-0.0120627564932647,0.006964,-0.079110,-0.013537,0.336435,-3.648154,324.748134,19.575555,0.999432,0.986707,0.004806,0.457417,0.000476,0.000340,-0.000057,0.000496,0.000319,-19.905849,0.000822,
2446,2578,4.09962624707167,-1.5253399051279,-0.0292898548829612,0.007277,-0.078927,0.002280,0.292151,-3.581829,321.847307,20.366360,0.999540,0.992068,0.003969,0.366384,0.000240,0.000138,-0.000006,0.000240,0.000138,-3.230865,0.000383,
2386,2143,2.87702772837668,-11.0508611437428,-0.0121918689957852,0.005215,-0.083082,-0.022577,0.285975,-3.892719,328.951144,18.826491,0.998683,0.974433,0.006065,0.367029,0.001031,0.001106,-0.000079,0.001156,0.000981,-57.739201,0.002140,
2416,2473,3.46762338426871,-3.8231012715531,-0.0135601483524397,0.006346,-0.079162,-0.009836,0.294246,-3.641670,323.639089,19.891560,0.999035,0.986152,0.004840,0.479970,0.000344,0.000248,-0.000008,0.000345,0.000247,-4.929799,0.000595,
2161,2713,-2.12784442701639,1.40889494065334,-0.0290086255403139,0.007519,-0.076661,-0.003250,0.328937,-3.514018,319.940129,20.913437,0.999378,0.990274,0.003991,0.367736,0.000100,0.000077,0.000000,0.000100,0.000077,-0.669511,0.000178,
2371,2098,2.55788189879221,-12.0395009504225,-0.00557469472227012,0.004940,-0.084754,-0.018710,0.258565,-3.933553,329.694727,18.726211,0.998781,0.978609,0.005834,0.378927,0.001155,0.001226,-0.000068,0.001268,0.001113,-58.748257,0.002383,
2356,3178,2.03236276424262,11.5198412303204,0.0352392477363992,0.010465,-0.077332,0.005121,0.432634,-3.530181,312.647510,22.036123,0.999486,0.992601,0.003688,0.414696,0.000004,-0.000004,0.000019,0.000020,-0.000019,38.851125,0.000023,
2311,3013,1.08242540335141,7.93734436433739,0.00246798416389993,0.009503,-0.077483,0.003843,0.393909,-3.535035,315.050676,21.538659,0.999471,0.991625,0.003653,0.358470,0.000005,-0.000007,0.000011,0.000011,-0.000013,31.001150,0.000014,
2416,2218,3.51864779830278,-9.40533711282406,-0.0136754080874084,0.006107,-0.081582,-0.024105,0.333986,-3.820231,327.808731,18.981322,0.998961,0.984311,0.005316,0.367098,0.000848,0.000849,-0.000087,0.000935,0.000762,-45.116899,0.001700,
2326,2803,1.44436430073202,3.37372529689142,-0.0265247430025966,0.008021,-0.077398,-0.003024,0.348776,-3.553422,318.179141,21.038634,0.999332,0.993289,0.003714,0.408384,0.000046,0.000065,0.000021,0.000079,0.000033,56.986048,0.000115,
2431,2278,3.83358337022257,-8.09023744570963,-0.0144053455434801,0.006297,-0.081025,-0.012427,0.300471,-3.746965,326.821586,19.110072,0.998729,0.978395,0.005986,0.447462,0.000709,0.000637,-0.000091,0.000771,0.000576,-34.210970,0.001351,
2476,2728,4.72491372902347,1.74728280297521,-0.0272453330179019,0.008248,-0.078035,-0.004229,0.361154,-3.584383,319.557501,20.907833,0.999604,0.991110,0.003694,0.352780,0.000074,0.000074,0.000022,0.000096,0.000053,44.960218,0.000151,
2386,2368,2.83279992839148,-6.11891370919096,-0.0151689435284652,0.005847,-0.080318,-0.006811,0.259918,-3.695213,325.260983,19.680627,0.998538,0.982870,0.005285,0.395857,0.000497,0.000413,-0.000014,0.000499,0.000410,-9.371333,0.000911,
2461,2668,4.40986929560757,0.43755755049132,-0.0260879415637305,0.008024,-0.078256,-0.001866,0.341986,-3.582113,320.491068,20.600269,0.999365,0.987803,0.004275,0.441840,0.000128,0.000080,-0.000009,0.000130,0.000078,-10.369557,0.000210,
2386,3283,2.66206404667344,13.8008291257957,0.00993851562981263,0.011062,-0.077639,0.008521,0.447002,-3.530129,310.735822,22.435330,0.999619,0.991923,0.003568,0.445958,-0.000005,-0.000014,0.000004,-0.000003,-0.000015,20.595498,0.000020,
2461,2293,4.48747759450271,-7.76228747136043,-0.00788958455257216,0.007009,-0.080374,-0.018138,0.354948,-3.746687,326.747446,19.055129,0.998950,0.980451,0.005585,0.428556,0.000709,0.000578,-0.000105,0.000767,0.000520,-29.075176,0.001295,
2371,3073,2.37638544811896,9.24365995312766,0.0130456216402877,0.010074,-0.077533,0.002738,0.422334,-3.545832,314.173614,21.849716,0.999522,0.992327,0.003597,0.373823,0.000003,-0.000012,0.000020,0.000016,-0.000026,34.613088,0.000026,
2476,2398,4.79251461483243,-5.46144860263041,-0.0109445932490075,0.007021,-0.080369,-0.007063,0.314052,-3.685528,325.014141,19.560544,0.999427,0.986132,0.004896,0.331590,0.000514,0.000369,-0.000072,0.000543,0.000339,-22.487872,0.000890,
2341,2908,1.75285981626896,5.65854212990399,-0.01239972145504,0.009188,-0.077137,0.001037,0.388299,-3.521593,316.619742,21.361906,0.999179,0.991113,0.003912,0.384710,0.000007,0.000016,0.000019,0.000031,-0.000009,51.949866,0.000032,
2356,2083,2.23344924364187,-12.3682140996506,-0.0055856997349224,0.004943,-0.084442,-0.024589,0.279120,-3.954595,329.950513,18.806937,0.999123,0.982714,0.005253,0.326446,0.001190,0.001257,-0.000062,0.001294,0.001153,-59.138205,0.002448,
2341,3118,1.71756227697579,10.2170369104936,0.0300127096073766,0.010473,-0.077502,0.004506,0.435480,-3.535175,313.590852,21.837246,0.999608,0.993015,0.003476,0.398129,0.000002,-0.000003,0.000010,0.000010,-0.000011,37.627712,0.000012,
2491,2818,5.03338421708611,3.70828140402712,-0.0239083624358614,0.008551,-0.078107,0.002123,0.350701,-3.559382,318.145852,21.217587,0.999251,0.988289,0.004492,0.423424,0.000053,0.000051,0.000019,0.000071,0.000033,43.726669,0.000106,
2401,2158,3.20454931039901,-10.7235200740082,0.00104491846002475,0.007015,-0.082994,-0.020912,0.362867,-3.884201,328.911638,18.797124,0.998985,0.979578,0.005509,0.367343,0.001002,0.001038,-0.000095,0.001117,0.000924,-50.443749,0.002043,
2386,3103,2.69713623525055,9.89477580438176,0.0232227965901757,0.010130,-0.077950,0.006836,0.409722,-3.537588,313.763145,21.909886,0.999016,0.988991,0.004176,0.459535,0.000008,-0.000007,0.000024,0.000026,-0.000025,36.481125,0.000029,
2506,2668,5.39124926547944,0.438867164330993,-0.0258068450227142,0.008228,-0.078518,-0.004286,0.359767,-3.600342,320.629773,20.561984,0.999362,0.986931,0.004642,0.439876,0.000138,0.000051,0.000009,0.000139,0.000050,5.915887,0.000196,
2446,2248,4.16922589151832,-8.74750870773953,-0.00888651876493896,0.007099,-0.080611,-0.022203,0.373748,-3.765676,327.453957,19.000286,0.998753,0.979742,0.005662,0.363788,0.000809,0.000727,-0.000104,0.000880,0.000657,-34.227975,0.001542,
2206,2953,-1.18869196908252,6.62770481534418,-0.00765570231152424,0.009145,-0.076865,0.005795,0.374611,-3.494746,316.115699,21.112141,0.999358,0.992374,0.003692,0.452687,0.000031,0.000006,0.000005,0.000032,0.000005,10.905706,0.000040,
2251,3148,-0.242062061729303,10.8603915882025,0.0339052689332107,0.010442,-0.077491,0.007073,0.428545,-3.528226,313.225484,21.517848,0.998544,0.989559,0.004266,0.411269,0.000003,-0.000004,0.000002,0.000004,-0.000005,11.185383,0.000005,
2461,2428,4.45818153966929,-4.80529469098128,-0.0203247436256788,0.006473,-0.078994,-0.012936,0.311742,-3.644866,324.410872,19.614582,0.999246,0.984754,0.004963,0.477872,0.000449,0.000320,-0.000048,0.000465,0.000304,-18.362306,0.000775,
2491,2683,5.06005475442936,0.766279584160138,-0.0298348191261084,0.007829,-0.078642,-0.000197,0.326003,-3.584150,320.273572,20.657601,0.999526,0.990858,0.003885,0.427206,0.000127,0.000062,0.000005,0.000127,0.000061,4.575954,0.000192,
2506,2893,5.34670068986052,5.34140529758752,-0.00822527949293317,0.008996,-0.077744,-0.001122,0.383607,-3.553771,317.128152,21.599392,0.999568,0.991040,0.003878,0.366437,0.000036,0.000023,0.000036,0.000066,-0.000007,39.807296,0.000073,
2326,3043,1.40380858199633,8.58872692561243,0.0173588595385468,0.009578,-0.077362,0.005781,0.390318,-3.518491,314.671949,21.617147,0.999638,0.992758,0.003518,0.407712,-0.000003,0.000000,0.000014,0.000013,-0.000016,48.015588,0.000017,
2401,3238,2.99812475581053,12.8256642061486,0.0251629166105545,0.011012,-0.077540,0.003466,0.462319,-3.549268,311.629775,22.407638,0.999403,0.992987,0.003409,0.406351,0.000004,-0.000023,0.000017,0.000012,-0.000031,25.662651,0.000031,
2161,2728,-2.13065606442221,1.73472590492105,-0.0314280046996487,0.007331,-0.076718,-0.003844,0.322066,-3.524685,319.670069,20.853777,0.999451,0.990208,0.004055,0.427112,0.000087,0.000072,-0.000004,0.000088,0.000071,-12.572649,0.000159,
2356,2293,2.19207204299317,-7.75857040189993,-0.0339107067197801,0.005252,-0.080202,-0.026972,0.303593,-3.732823,326.346101,19.559638,0.999502,0.992770,0.004101,0.378619,0.000621,0.000582,-0.000035,0.000641,0.000562,-30.422949,0.001204,
2446,2593,4.09680490939115,-1.19862502999096,-0.0354466657487365,0.007225,-0.078446,-0.006627,0.323149,-3.609689,321.583601,20.333436,0.999656,0.992768,0.003809,0.424552,0.000219,0.000120,-0.000001,0.000219,0.000120,-0.571983,0.000345,
2416,2488,3.46420969938423,-3.49506833764022,-0.0188334768971572,0.006615,-0.079770,-0.005982,0.292290,-3.678150,323.349827,19.958226,0.999084,0.987024,0.004658,0.426099,0.000326,0.000218,-0.000009,0.000327,0.000218,-4.760870,0.000548,
2221,3028,-0.874220539829302,8.25653865881402,0.00868117471452479,0.009817,-0.076681,0.004812,0.408272,-3.501105,315.022382,21.278472,0.999665,0.994244,0.003139,0.406148,0.000019,-0.000006,-0.000004,0.000020,-0.000007,-9.382900,0.000020,
2341,2203,1.88270509613369,-9.73321768615207,-0.0117248881318233,0.005130,-0.081371,-0.020328,0.273772,-3.793169,327.955014,19.321153,0.998829,0.983304,0.005378,0.384644,0.000830,0.000884,-0.000045,0.000909,0.000804,-60.317161,0.001715,
2311,3028,1.08042896834914,8.26234973333299,0.0121157434315364,0.009567,-0.077248,0.003938,0.396669,-3.518983,314.889287,21.546246,0.999589,0.991414,0.003675,0.398335,0.000004,-0.000006,0.000012,0.000012,-0.000014,33.383896,0.000015,
2476,2743,4.72130999420862,2.07395799935732,-0.0314870038631057,0.008132,-0.078232,-0.003204,0.351952,-3.577841,319.268376,20.903027,0.999675,0.992422,0.003585,0.421162,0.000070,0.000092,0.000019,0.000102,0.000059,60.279196,0.000164,
2416,2233,3.51604863844554,-9.07663962786384,-0.00792301387929228,0.006309,-0.081186,-0.020175,0.329092,-3.781097,327.609047,19.054894,0.999033,0.985799,0.005150,0.382892,0.000815,0.000801,-0.000080,0.000888,0.000728,-42.359579,0.001618,
2371,2113,2.55538986741689,-11.7094268752394,-0.0113621185371926,0.005211,-0.083612,-0.025768,0.296409,-3.922340,329.442200,18.786830,0.998790,0.977816,0.005840,0.373749,0.001111,0.001197,-0.000064,0.001231,0.001077,-61.836721,0.002310,
2461,2683,4.40637896314493,0.765362347299003,-0.0303873172807698,0.007923,-0.078442,-0.001825,0.337204,-3.574268,320.205694,20.677767,0.999443,0.988846,0.004173,0.427419,0.000116,0.000085,0.000000,0.000116,0.000085,0.049783,0.000201,
2356,3013,2.06038563795681,7.9401036971353,0.00575190284718019,0.009492,-0.077549,0.006470,0.382776,-3.524831,315.050822,21.645315,0.999582,0.991752,0.003667,0.394201,-0.000001,-0.000011,0.000012,0.000007,-0.000019,34.383868,0.000019,
2386,3298,2.65798397362087,14.1272777135608,-0.00878198395650998,0.011324,-0.077389,0.008101,0.460748,-3.522066,310.345403,22.489632,0.999692,0.992959,0.003476,0.441614,-0.000008,-0.000036,0.000004,-0.000007,-0.000037,8.358372,0.000047,
2476,2488,4.77399566234923,-3.49217935605964,-0.0255374253989658,0.007398,-0.078156,-0.015073,0.362788,-3.627695,323.479618,19.866886,0.999322,0.988044,0.004396,0.432099,0.000357,0.000234,-0.000043,0.000371,0.000220,-17.587970,0.000598,
2476,2413,4.79002675908751,-5.13373328165557,-0.0093859889229293,0.007036,-0.079282,-0.012090,0.334266,-3.655352,324.804149,19.570263,0.999375,0.987215,0.004748,0.410103,0.000479,0.000333,-0.000060,0.000500,0.000312,-19.692884,0.000819,
2416,2053,3.55307706190377,-13.0312382469999,0.00131927377321972,0.006546,-0.086165,-0.028183,0.366713,-4.063123,330.633319,18.225049,0.997451,0.974935,0.006693,0.321002,0.001333,0.001305,-0.000098,0.001418,0.001220,-40.882344,0.002641,
2431,2293,3.83101675730914,-7.76198003906718,-0.0110018379004941,0.006261,-0.081284,-0.014584,0.306704,-3.774822,326.613686,19.206096,0.998766,0.981251,0.005563,0.375300,0.000675,0.000593,-0.000082,0.000726,0.000543,-31.721366,0.001273,
2446,2383,4.14119596158573,-5.79014463058628,-0.00925225369894633,0.006914,-0.079628,-0.012928,0.331477,-3.673651,325.221415,19.579172,0.999630,0.988664,0.004595,0.365596,0.000522,0.000397,-0.000061,0.000547,0.000372,-22.157397,0.000925,
2461,2443,4.45663354311243,-4.47743175266933,-0.0142274737941079,0.007460,-0.078990,-0.012888,0.356782,-3.658394,324.263559,19.734209,0.998843,0.985140,0.005008,0.400245,0.000434,0.000274,-0.000037,0.000442,0.000266,-12.579436,0.000715,
2401,2413,3.15291297498764,-5.13366547217196,-0.0187097629613504,0.006937,-0.078703,-0.016807,0.346648,-3.668092,324.602819,19.809026,0.999272,0.986409,0.004756,0.384239,0.000423,0.000352,-0.000012,0.000425,0.000350,-9.012779,0.000776,
2371,2293,2.52216845768192,-7.76179439183338,-0.00214604134475849,0.005993,-0.080158,-0.021086,0.317293,-3.714215,326.631150,19.503062,0.999674,0.994305,0.003571,0.389838,0.000641,0.000588,-0.000030,0.000654,0.000575,-24.458350,0.001230,
2341,2923,1.74983218449225,5.98438444458748,-0.00994070317983642,0.009069,-0.077752,0.004613,0.370219,-3.521109,316.377559,21.387941,0.999029,0.989791,0.004098,0.395198,0.000004,0.000010,0.000016,0.000023,-0.000009,50.675750,0.000023,
2356,2098,2.22949924132572,-12.038369068053,-0.00865206228877469,0.004432,-0.084545,-0.019826,0.239011,-3.937262,329.642821,18.864707,0.999044,0.981611,0.005432,0.328401,0.001143,0.001229,-0.000065,0.001264,0.001108,-61.869224,0.002374,
2371,3088,2.37380747724656,9.56848579329381,0.0193986263709576,0.010047,-0.077829,0.004936,0.413154,-3.557404,313.972566,21.860944,0.999368,0.990413,0.003968,0.390964,0.000001,-0.000016,0.000014,0.000009,-0.000024,29.992540,0.000024,
2461,2308,4.48402414148076,-7.43193780910696,-0.0133175633164342,0.007205,-0.080627,-0.016293,0.356971,-3.723187,326.460339,19.207724,0.998560,0.977708,0.005929,0.356227,0.000680,0.000532,-0.000100,0.000730,0.000481,-26.769526,0.001220,
2506,2683,5.38687227142625,0.767742182145135,-0.0364434739414037,0.008006,-0.078496,-0.002649,0.343308,-3.595593,320.279063,20.689033,0.999562,0.990936,0.003872,0.379514,0.000123,0.000039,0.000021,0.000128,0.000034,13.393187,0.000171,
2431,2113,3.8688919963092,-11.7119336095029,0.00010823594084286,0.006851,-0.084053,-0.022406,0.361012,-3.916346,329.671936,18.417368,0.998998,0.979697,0.006061,0.390475,0.001160,0.001236,-0.000117,0.001321,0.001075,-53.978627,0.002400,
2431,2533,3.78375415529755,-2.51065074132463,-0.0142365591287898,0.007080,-0.078370,-0.012192,0.337022,-3.635208,322.723944,20.191094,0.999148,0.988336,0.004443,0.355480,0.000278,0.000181,-0.000016,0.000280,0.000179,-9.055397,0.000463,
2386,2158,2.87448319192656,-10.7215513176079,-0.00894479399352122,0.005416,-0.083097,-0.021250,0.290450,-3.885950,328.740337,18.936544,0.999017,0.979593,0.005626,0.309935,0.000988,0.001034,-0.000080,0.001094,0.000927,-53.046840,0.002024,
2446,2263,4.16659124774398,-8.41914187141398,-0.00411129947542577,0.007375,-0.081211,-0.018659,0.372972,-3.762193,327.250377,19.078902,0.998909,0.980172,0.005613,0.342995,0.000772,0.000676,-0.000114,0.000848,0.000600,-33.530532,0.001455,
2491,2833,5.03020869725843,4.03447912029586,-0.0241674446220941,0.008344,-0.078286,0.000609,0.346953,-3.576177,317.895304,21.250686,0.999265,0.988928,0.004280,0.432211,0.000058,0.000047,0.000028,0.000081,0.000023,39.815049,0.000110,
2491,2698,5.05697886748387,1.09417973806761,-0.0344768678353375,0.007892,-0.078543,-0.004186,0.344233,-3.602740,320.008309,20.772867,0.999665,0.990453,0.003885,0.352705,0.000111,0.000062,0.000005,0.000112,0.000061,5.528161,0.000175,
2401,2173,3.20042342778381,-10.3937547350589,-0.00548460274904983,0.006278,-0.082735,-0.021589,0.331680,-3.885170,328.583602,18.857180,0.998881,0.981624,0.005394,0.355182,0.000953,0.000988,-0.000097,0.001069,0.000871,-50.088319,0.001943,
2506,2908,5.34227289645988,5.66831773798924,-0.02060956482552,0.008498,-0.077705,-0.003711,0.370755,-3.575755,316.766208,21.636923,0.999532,0.989662,0.004026,0.367859,0.000040,-0.000016,0.000032,0.000054,-0.000031,24.440783,0.000054,
2356,3193,2.02924973432262,11.8457087652961,0.0323178442845915,0.010546,-0.077503,0.006579,0.431198,-3.532270,312.375453,22.101959,0.999519,0.991895,0.003681,0.384395,0.000007,-0.000001,0.000019,0.000023,-0.000016,38.938689,0.000024,
2476,2758,4.71907933529051,2.39822585519138,-0.0171434377761557,0.008232,-0.079005,0.002591,0.334228,-3.582096,319.127248,20.839789,0.999499,0.990609,0.003906,0.536730,0.000069,0.000096,0.000019,0.000105,0.000059,63.074486,0.000167,
2386,3118,2.69420547350061,10.2211280904588,0.0219645522540191,0.010052,-0.077706,0.004948,0.413033,-3.540011,313.509865,22.011807,0.999513,0.992691,0.003501,0.397364,0.000007,-0.000003,0.000028,0.000031,-0.000026,40.094019,0.000033,
2446,2398,4.13759653567661,-5.4619247181711,-0.0174994017923495,0.007124,-0.079750,-0.011298,0.335013,-3.676853,324.913096,19.569290,0.999587,0.987922,0.004679,0.426499,0.000496,0.000380,-0.000053,0.000517,0.000360,-21.277273,0.000881,
2356,2308,2.1901236547113,-7.43226794916767,-0.0160658455952216,0.005433,-0.079803,-0.018077,0.280855,-3.739933,326.230314,19.606040,0.999154,0.991223,0.004141,0.365493,0.000586,0.000525,-0.000027,0.000596,0.000514,-21.041694,0.001111,
2251,3163,-0.244233051780089,11.1862062719027,0.0401589562193863,0.010551,-0.077232,0.007599,0.431928,-3.520804,313.035402,21.614736,0.999163,0.990622,0.003911,0.343838,0.000003,0.000000,0.000004,0.000006,-0.000002,34.389595,0.000006,
2461,2698,4.40390137982422,1.09258058193728,-0.0275390722486577,0.007998,-0.078168,-0.004735,0.351700,-3.589063,319.999659,20.787668,0.999669,0.988955,0.004208,0.357311,0.000100,0.000092,0.000001,0.000100,0.000092,7.528996,0.000192,
2446,2608,4.09454743769254,-0.8714989911686,-0.022396112775823,0.007125,-0.078400,-0.003927,0.308548,-3.592095,321.433941,20.463893,0.999211,0.988919,0.004325,0.364187,0.000201,0.000107,0.000002,0.000201,0.000107,1.038642,0.000312,
2506,2698,5.3847346704371,1.09344998993944,-0.0275377617026606,0.008200,-0.078835,-0.002810,0.352712,-3.616340,320.119255,20.716562,0.999558,0.991143,0.003809,0.392409,0.000108,0.000035,0.000016,0.000112,0.000031,12.002514,0.000150,
2401,1993,3.23679402459043,-14.3513429281952,0.00546221259492086,0.005741,-0.087437,-0.033892,0.349265,-4.142002,331.598532,18.015756,0.997891,0.966704,0.007209,0.353147,0.001543,0.001395,-0.000103,0.001596,0.001342,-27.120505,0.002942,
2326,3058,1.40089110218056,8.91425808231777,0.0137167637758466,0.009753,-0.077561,0.005991,0.397668,-3.514960,314.403619,21.605141,0.999653,0.993956,0.003226,0.457097,-0.000001,-0.000003,0.000015,0.000013,-0.000017,43.360591,0.000018,
2326,2818,1.4422193426852,3.69938357867982,-0.0176943752796888,0.008268,-0.077746,0.000487,0.347873,-3.552073,318.008014,21.067140,0.999469,0.991612,0.003777,0.415110,0.000036,0.000064,0.000021,0.000075,0.000025,61.753273,0.000104,
2341,2218,1.88028956172598,-9.40458454737219,-0.0138251517914227,0.005268,-0.080821,-0.025689,0.298934,-3.770971,327.720553,19.318029,0.998722,0.981542,0.005627,0.448880,0.000795,0.000835,-0.000041,0.000861,0.000769,-57.762937,0.001631,
2386,2383,2.83061978073779,-5.79061146474215,-0.0135951265082781,0.006404,-0.080108,-0.007232,0.287046,-3.705045,325.058278,19.773742,0.998699,0.984788,0.005205,0.337770,0.000475,0.000401,-0.000018,0.000479,0.000397,-12.686306,0.000877,
2371,3208,2.35257314115126,12.1715312915228,0.0322378450493375,0.010932,-0.077625,0.006217,0.449616,-3.547216,312.150498,22.145849,0.999422,0.992443,0.003625,0.436156,0.000008,0.000002,0.000022,0.000027,-0.000018,40.893612,0.000028,
2431,2308,3.82848442418372,-7.43223399224407,-0.00542066231173521,0.006189,-0.080145,-0.015455,0.307116,-3.712916,326.416794,19.375076,0.998925,0.983350,0.005161,0.320427,0.000645,0.000543,-0.000076,0.000685,0.000503,-28.072167,0.001192,
2476,2503,4.77118354348906,-3.16535293108491,-0.0167017851060223,0.007466,-0.078793,-0.008348,0.340173,-3.630947,323.287477,19.924847,0.999369,0.988589,0.004362,0.428556,0.000324,0.000224,-0.000039,0.000338,0.000210,-18.864118,0.000553,
2371,2128,2.5527752117886,-11.3804168138974,-0.0121472794886586,0.005426,-0.083113,-0.026914,0.310521,-3.904402,329.207888,18.804114,0.999104,0.980710,0.005522,0.418488,0.001073,0.001158,-0.000064,0.001193,0.001038,-61.712582,0.002232,
2431,2128,3.86695346884046,-11.3829201672485,0.00734453199856944,0.007061,-0.083025,-0.025389,0.382030,-3.895089,329.510987,18.518304,0.999258,0.980051,0.006168,0.363351,0.001119,0.001190,-0.000114,0.001274,0.001035,-53.532915,0.002313,
2461,2458,4.4536701819855,-4.14894692969611,-0.0128106612331749,0.007227,-0.078205,-0.015112,0.354848,-3.631435,324.029575,19.831099,0.999077,0.986274,0.004864,0.386429,0.000408,0.000265,-0.000039,0.000418,0.000255,-14.327050,0.000679,
2341,3133,1.71418368941776,10.5426974785061,0.0270297180076682,0.010306,-0.077549,0.006529,0.420704,-3.535626,313.305414,21.865809,0.999474,0.992404,0.003615,0.404434,0.000000,-0.000003,0.000012,0.000011,-0.000014,41.882604,0.000015,
2506,2923,5.33845793440413,5.99565184068965,-0.0292579297679367,0.009017,-0.078244,0.002152,0.371708,-3.577340,316.448951,21.725532,0.999396,0.987021,0.004248,0.338423,0.000031,-0.000023,0.000021,0.000039,-0.000030,19.198186,0.000041,
2491,2848,5.02759917491634,4.36186990750988,-0.0218651896184383,0.008473,-0.078246,-0.001158,0.359683,-3.588561,317.681979,21.412702,0.999452,0.992423,0.003691,0.316491,0.000051,0.000030,0.000029,0.000072,0.000010,35.218053,0.000089,
2416,2248,3.51333681438883,-8.74737962388068,-0.00910753296602707,0.006286,-0.080063,-0.024589,0.344593,-3.742308,327.371744,19.113311,0.998954,0.983662,0.005294,0.413488,0.000775,0.000719,-0.000084,0.000836,0.000659,-35.822274,0.001498,
2506,2713,5.38180166825739,1.42135264644584,-0.0244244210801412,0.008160,-0.078395,-0.002247,0.348903,-3.589091,319.896343,20.854170,0.999550,0.990616,0.003898,0.343469,0.000092,0.000023,0.000025,0.000100,0.000015,17.901798,0.000125,
2401,2428,3.14970112763361,-4.80595402489627,-0.0201129463345069,0.006742,-0.078904,-0.016996,0.338341,-3.663160,324.339808,19.820446,0.999244,0.985856,0.004797,0.424981,0.000401,0.000326,-0.000006,0.000401,0.000325,-4.347321,0.000728,
2416,2503,3.46129414999817,-3.16545734344353,-0.0278648748619048,0.007371,-0.079044,-0.006075,0.327584,-3.647602,323.065303,20.073891,0.999389,0.989699,0.004247,0.390134,0.000300,0.000211,-0.000010,0.000301,0.000210,-6.598577,0.000514,
2341,2938,1.74736342096493,6.30918193855464,-0.00266571538082871,0.009010,-0.078048,0.006522,0.360670,-3.551454,316.184777,21.386474,0.999086,0.988435,0.004193,0.402398,0.000005,0.000002,0.000012,0.000015,-0.000009,41.878442,0.000016,
2461,2323,4.4807871900871,-7.10404961265872,-0.015872206912718,0.007156,-0.080172,-0.016879,0.357110,-3.716333,326.196545,19.186171,0.998762,0.979466,0.005622,0.441213,0.000643,0.000487,-0.000089,0.000684,0.000446,-24.472651,0.001138,
2371,2308,2.51848211485408,-7.43311075926101,-0.00688206856642637,0.006065,-0.080166,-0.014306,0.296567,-3.699602,326.328260,19.517777,0.999734,0.995659,0.003197,0.433283,0.000605,0.000534,-0.000024,0.000612,0.000527,-16.650779,0.001140,
2491,2713,5.05347290668434,1.42077263049945,-0.0358955424993042,0.007763,-0.078407,-0.001994,0.330013,-3.586215,319.737857,20.764421,0.999622,0.989914,0.004167,0.437016,0.000094,0.000054,0.000016,0.000100,0.000049,19.038906,0.000151,
2401,2008,3.23396329163419,-14.0210808922493,0.00216128749826794,0.006456,-0.087881,-0.029402,0.365642,-4.134999,331.345661,18.084264,0.997720,0.965230,0.007292,0.340858,0.001490,0.001374,-0.000097,0.001545,0.001319,-29.573981,0.002867,
2386,2173,2.87185755469864,-10.3929026999136,-0.0140332951001483,0.005988,-0.082504,-0.022320,0.320739,-3.866048,328.486349,18.889352,0.999308,0.982640,0.005309,0.423203,0.000939,0.000983,-0.000083,0.001047,0.000875,-52.267600,0.001925,
2401,2188,3.19776699167226,-10.0637194615291,-0.00616102349727043,0.006237,-0.081533,-0.026143,0.346748,-3.831309,328.350007,18.954927,0.998863,0.983578,0.005295,0.359607,0.000906,0.000953,-0.000090,0.001022,0.000836,-52.292638,0.001861,
2476,2428,4.78647889453142,-4.80553634793844,-0.00859312698372605,0.006844,-0.079385,-0.007747,0.309015,-3.631296,324.541889,19.627947,0.999322,0.986955,0.004677,0.435084,0.000449,0.000316,-0.000050,0.000466,0.000299,-18.577512,0.000771,
2416,2068,3.54940428640231,-12.7017374568619,0.000947682790354065,0.006212,-0.086188,-0.023691,0.335130,-4.040021,330.356641,18.264312,0.997821,0.975107,0.006747,0.356363,0.001284,0.001289,-0.000101,0.001388,0.001186,-45.687643,0.002576,
2356,3208,2.02702915601231,12.1704711861614,0.0342778374010777,0.010882,-0.077412,0.004669,0.453406,-3.537042,312.168414,22.101019,0.999513,0.992661,0.003522,0.418236,0.000010,0.000002,0.000019,0.000026,-0.000014,39.095756,0.000026,
2431,2548,3.78087236964499,-2.18344044341807,-0.00425901213344559,0.006890,-0.078567,-0.005724,0.304396,-3.605303,322.530827,20.272696,0.999547,0.990859,0.003942,0.354668,0.000261,0.000147,-0.000012,0.000262,0.000146,-5.804730,0.000413,
2251,3178,-0.246442911448401,11.5106699108902,0.044790833439265,0.010744,-0.077165,0.008249,0.438676,-3.523993,312.835760,21.591031,0.999459,0.991703,0.003539,0.386494,0.000004,0.000002,0.000003,0.000006,0.000000,32.916048,0.000006,
2446,2278,4.16320514138583,-8.08962116854098,-0.00539921178278746,0.007135,-0.080552,-0.018260,0.360825,-3.738276,326.984189,19.185739,0.998928,0.980111,0.005680,0.314788,0.000732,0.000636,-0.000098,0.000793,0.000575,-31.933188,0.001374,
2446,2623,4.09197821806553,-0.544822256247329,-0.0163859607993686,0.007256,-0.078558,-0.001577,0.305766,-3.585085,321.237599,20.506404,0.999319,0.989101,0.004203,0.381447,0.000188,0.000098,-0.000004,0.000188,0.000098,-2.299248,0.000290,
2476,2518,4.76799283137855,-2.83741175079543,-0.0174037087401189,0.007318,-0.078826,-0.009255,0.336839,-3.637807,323.034492,20.006096,0.999092,0.984612,0.004783,0.398093,0.000289,0.000219,-0.000033,0.000302,0.000206,-21.754386,0.000511,
2431,2323,3.8252591256348,-7.10453141141813,-0.00862098032735048,0.006190,-0.079959,-0.015476,0.307330,-3.702071,326.147882,19.325306,0.998848,0.982896,0.005167,0.433427,0.000607,0.000499,-0.000064,0.000637,0.000469,-24.950946,0.001110,
2506,2938,5.33691409432148,6.32041615851493,-0.0102463189807054,0.009236,-0.078488,0.005463,0.368823,-3.580495,316.360652,21.780005,0.999559,0.990531,0.003825,0.341131,0.000025,-0.000017,0.000013,0.000029,-0.000021,16.196380,0.000030,
2386,3133,2.69224989092134,10.5463787689204,0.0296025183890833,0.010440,-0.077662,0.005491,0.428971,-3.532322,313.344140,22.060892,0.999620,0.993610,0.003390,0.398077,0.000005,-0.000007,0.000028,0.000028,-0.000030,39.096529,0.000034,
2446,2413,4.13531083077515,-5.13341948732692,-0.0143160423280051,0.007383,-0.078996,-0.013746,0.356333,-3.632647,324.717321,19.652975,0.999606,0.988426,0.004669,0.440663,0.000466,0.000344,-0.000044,0.000480,0.000330,-17.855454,0.000815,
2431,2143,3.86222626962695,-11.0521392338525,-0.00665930600820275,0.006783,-0.083535,-0.021370,0.354369,-3.902873,329.123965,18.585689,0.999060,0.979680,0.005854,0.342026,0.001067,0.001138,-0.000117,0.001225,0.000980,-53.383074,0.002210,
2461,2713,4.40068498300029,1.4194005795476,-0.0269334978017923,0.008043,-0.078251,-0.001266,0.340710,-3.571221,319.749319,20.814429,0.999643,0.990763,0.003918,0.403282,0.000085,0.000090,0.000008,0.000096,0.000079,53.199422,0.000175,
2371,2143,2.54987565035539,-11.0504743869191,-0.00835491177349468,0.005341,-0.082753,-0.023813,0.295823,-3.865915,328.982068,18.940848,0.998773,0.979245,0.005759,0.364278,0.001027,0.001096,-0.000065,0.001135,0.000988,-58.937689,0.002125,
2386,2398,2.82802340862206,-5.46338655856827,-0.00883416783244684,0.006079,-0.079557,-0.010274,0.283316,-3.688100,324.851577,19.776937,0.999060,0.986085,0.004913,0.396136,0.000450,0.000381,-0.000012,0.000452,0.000379,-9.856904,0.000833,
2476,2773,4.71502772095235,2.72795857528029,-0.0284703323861777,0.007966,-0.078287,-0.000059,0.332387,-3.571800,318.784502,21.065678,0.999076,0.987158,0.004400,0.378123,0.000058,0.000077,0.000015,0.000086,0.000050,60.853244,0.000137,
2461,2473,4.45034981947012,-3.82009644394832,-0.0220511513683732,0.007637,-0.078033,-0.015921,0.376783,-3.611085,323.730446,19.874346,0.999271,0.988040,0.004539,0.419574,0.000376,0.000257,-0.000041,0.000389,0.000244,-17.139589,0.000638,
2416,2263,3.5101657496603,-8.41956471802558,-0.00132574952255027,0.006199,-0.081178,-0.015162,0.305783,-3.766233,327.155567,19.199400,0.998939,0.984082,0.005160,0.353228,0.000740,0.000666,-0.000092,0.000802,0.000604,-34.070966,0.001411,
2461,2338,4.47779787279216,-6.77542382840108,-0.0128361719440591,0.007170,-0.080478,-0.014280,0.347899,-3.715704,325.969461,19.298981,0.998721,0.978427,0.005629,0.385251,0.000613,0.000451,-0.000080,0.000646,0.000418,-22.374999,0.001072,
2491,2728,5.05081757087625,1.74870767738386,-0.0376558473844284,0.008150,-0.078103,-0.004246,0.356538,-3.576953,319.504654,20.888454,0.999550,0.991493,0.003719,0.381429,0.000074,0.000059,0.000016,0.000083,0.000049,32.568560,0.000134,
2326,2833,1.43884673567483,4.02823151398819,-0.0300033060592,0.008531,-0.077285,-0.000777,0.364580,-3.532018,317.676162,21.213597,0.999816,0.993450,0.003466,0.323282,0.000028,0.000058,0.000022,0.000069,0.000017,62.063001,0.000091,
2506,2728,5.37883509218966,1.7478072472945,-0.0229899164869494,0.007975,-0.078235,-0.004572,0.349555,-3.577013,319.664631,20.864437,0.999388,0.989492,0.004092,0.406698,0.000072,0.000033,0.000020,0.000080,0.000025,22.877788,0.000109,
2491,2863,5.02448575627873,4.6878481038696,-0.0194237447903447,0.008379,-0.078019,0.000674,0.348449,-3.567740,317.446275,21.416683,0.999546,0.991938,0.003648,0.392105,0.000047,0.000024,0.000031,0.000068,0.000002,34.753075,0.000080,
2401,2443,3.14695483783336,-4.47860347906899,-0.0106954951086209,0.006649,-0.079137,-0.010939,0.312096,-3.646282,324.148993,19.893494,0.999202,0.987169,0.004753,0.415852,0.000382,0.000289,0.000001,0.000382,0.000289,0.347052,0.000674,
2371,3223,2.34949809371684,12.4972827716072,0.0334138247907276,0.010843,-0.077695,0.008751,0.436550,-3.537469,311.900921,22.221159,0.999534,0.993351,0.003334,0.410213,0.000007,-0.000004,0.000017,0.000019,-0.000016,36.631028,0.000021,
2401,2023,3.22939996709481,-13.6895979398277,-0.00322996514910301,0.005384,-0.086249,-0.027602,0.310838,-4.079741,331.003226,18.198568,0.997686,0.971279,0.006893,0.331816,0.001431,0.001356,-0.000098,0.001498,0.001289,-34.405439,0.002789,
2506,2953,5.33485639519504,6.64542261421315,0.000385751961061942,0.009368,-0.078759,0.005442,0.374868,-3.604998,316.211082,21.820978,0.999519,0.991090,0.003866,0.335983,0.000027,-0.000022,0.000011,0.000029,-0.000024,11.822101,0.000031,
2326,3073,1.39833325477654,9.24074644706758,0.016172771539857,0.009820,-0.077412,0.006045,0.400543,-3.530953,314.181369,21.744599,0.999655,0.995246,0.002920,0.335008,0.000000,-0.000008,0.000013,0.000009,-0.000018,37.011160,0.000018,
2446,2293,4.15958055991747,-7.76251896656896,-0.00930350831663418,0.006762,-0.080684,-0.019011,0.346494,-3.770300,326.695494,19.106292,0.998991,0.981385,0.005518,0.416628,0.000698,0.000587,-0.000089,0.000748,0.000537,-29.091408,0.001291,
2341,3148,1.71191023627884,10.8678937994304,0.0345707820017083,0.010449,-0.077720,0.008648,0.419854,-3.539382,313.122170,21.923179,0.999538,0.993378,0.003511,0.378887,-0.000001,-0.000006,0.000015,0.000012,-0.000019,40.619368,0.000020,
2431,2563,3.7778436060311,-1.85558902391116,-0.014951771407425,0.007457,-0.078577,-0.008747,0.341579,-3.623198,322.235099,20.281783,0.999293,0.989955,0.004175,0.378689,0.000246,0.000144,-0.000003,0.000246,0.000144,-1.933462,0.000395,
2476,2533,4.76471507016247,-2.50871055206027,-0.0237197954960493,0.007471,-0.078403,-0.011126,0.351123,-3.641254,322.751846,20.108243,0.999523,0.988048,0.004186,0.350623,0.000276,0.000197,-0.000020,0.000281,0.000192,-13.562615,0.000475,
2356,3223,2.02370811440517,12.4965123184793,0.0301904649383005,0.010649,-0.077135,0.003587,0.446698,-3.521045,311.880955,22.166272,0.999501,0.992850,0.003403,0.406427,0.000010,-0.000003,0.000014,0.000019,-0.000012,33.019191,0.000019,
2416,2518,3.45900816412852,-2.83827803635812,-0.0291952772176955,0.007450,-0.078330,-0.014607,0.362715,-3.636052,322.846067,20.061229,0.999161,0.988000,0.004538,0.463270,0.000271,0.000204,-0.000009,0.000273,0.000203,-7.724945,0.000477,
2446,2638,4.08876669972179,-0.21666636307922,-0.0241965218587552,0.007421,-0.078122,-0.004819,0.325612,-3.579831,320.947747,20.573213,0.999450,0.990249,0.004044,0.372968,0.000169,0.000098,-0.000008,0.000170,0.000097,-6.399126,0.000270,
2476,2443,4.78294667413234,-4.47685452938237,-0.0144431192894103,0.006943,-0.079719,-0.006796,0.309825,-3.663510,324.250322,19.728809,0.999045,0.986001,0.004874,0.360137,0.000435,0.000270,-0.000038,0.000443,0.000261,-12.352942,0.000712,
2431,2158,3.86049568504172,-10.7244777652057,0.00117854806489959,0.006875,-0.082287,-0.027624,0.382129,-3.885269,328.975342,18.583441,0.999043,0.978935,0.005830,0.414261,0.001023,0.001053,-0.000121,0.001160,0.000917,-48.556135,0.002082,
2401,2203,3.1954827115132,-9.7352023760841,-0.00889370128339806,0.006904,-0.081074,-0.028401,0.385685,-3.836295,328.124206,18.956534,0.998608,0.982596,0.005539,0.401175,0.000866,0.000893,-0.000080,0.000961,0.000798,-49.794924,0.001761,
2476,2788,4.71260320453779,3.05513771444519,-0.0276168632433951,0.008425,-0.077767,-0.001210,0.358039,-3.569797,318.572406,21.165651,0.999093,0.986181,0.004487,0.336953,0.000055,0.000071,0.000013,0.000078,0.000048,61.522234,0.000127,
2371,2323,2.51495723188246,-7.10558056143825,-0.00355270525108153,0.005594,-0.080825,-0.008514,0.254210,-3.727720,326.071503,19.555600,0.999407,0.991907,0.004000,0.410435,0.000570,0.000487,-0.000019,0.000575,0.000483,-12.265310,0.001059,
2431,2338,3.82181888961334,-6.77597565616424,-0.00933797431520134,0.006126,-0.080834,-0.011359,0.288883,-3.741341,325.880625,19.433804,0.998760,0.983301,0.005013,0.337259,0.000578,0.000465,-0.000054,0.000599,0.000443,-21.741732,0.001046,
2341,2233,1.8774034213313,-9.07574316879871,-0.0128809423528082,0.005108,-0.080325,-0.025774,0.292097,-3.773603,327.479288,19.395887,0.998233,0.978440,0.005969,0.407528,0.000754,0.000779,-0.000039,0.000807,0.000726,-53.898792,0.001534,
2386,2188,2.86885618289261,-10.0631883418043,-0.00748719225123295,0.005675,-0.082527,-0.018487,0.292717,-3.823829,328.269875,19.046242,0.998791,0.982441,0.005402,0.354612,0.000891,0.000945,-0.000080,0.001003,0.000833,-54.226301,0.001838,
2416,2083,3.54691535012585,-12.3706687710825,0.00234220319913447,0.006651,-0.085079,-0.022673,0.351984,-3.992420,330.142095,18.446966,0.997464,0.975131,0.006939,0.272093,0.001237,0.001282,-0.000104,0.001366,0.001153,-51.044548,0.002522,
2506,2743,5.37433174203969,2.07664673050375,-0.0315917145119329,0.007865,-0.078402,0.001915,0.319363,-3.564581,319.316764,21.017996,0.999628,0.990166,0.003922,0.327255,0.000060,0.000061,0.000010,0.000071,0.000050,47.132209,0.000122,
2491,2878,5.0223423348928,5.01273058083308,-0.0132996040838975,0.008661,-0.078042,-0.000828,0.367152,-3.585297,317.272089,21.389093,0.999437,0.993355,0.003486,0.460575,0.000041,0.000029,0.000033,0.000069,0.000002,39.782907,0.000081,
2461,2488,4.44756020892831,-3.49310367016759,-0.0159797464950202,0.007723,-0.078224,-0.011680,0.364746,-3.596700,323.525808,19.899917,0.999343,0.986999,0.004609,0.463802,0.000356,0.000227,-0.000043,0.000369,0.000214,-16.986562,0.000590,
2461,2353,4.47390974173187,-6.44590860098847,-0.0211342548443554,0.007074,-0.080214,-0.013421,0.340468,-3.700774,325.649185,19.372618,0.998932,0.982935,0.005420,0.383255,0.000591,0.000431,-0.000077,0.000621,0.000400,-21.892861,0.001029,
2371,3238,2.34659580839498,12.8228971727908,0.031903482399855,0.010906,-0.077447,0.008340,0.441054,-3.526670,311.646388,22.271128,0.999682,0.994468,0.003037,0.410727,0.000006,-0.000011,0.000014,0.000015,-0.000019,29.307336,0.000020,
2416,2533,3.45561374508233,-2.51016934963527,-0.0242196412269209,0.007157,-0.078877,-0.007812,0.324242,-3.641212,322.605196,20.212268,0.999126,0.988586,0.004537,0.355658,0.000260,0.000182,-0.000003,0.000260,0.000182,-1.959617,0.000444,
2461,2728,4.39838027870156,1.74677407456146,-0.0236539944530705,0.008455,-0.077907,-0.001753,0.361588,-3.576034,319.552998,20.940569,0.999590,0.992268,0.003605,0.326869,0.000066,0.000087,0.000014,0.000095,0.000059,63.230395,0.000155,
2476,2458,4.78001971058636,-4.14942444477914,-0.00956232016511649,0.006918,-0.079849,-0.003780,0.297196,-3.654953,324.035090,19.779854,0.998969,0.986798,0.004822,0.375574,0.000410,0.000267,-0.000040,0.000420,0.000257,-14.521457,0.000683,
2416,2278,3.5066659636804,-8.09014213716031,-0.0113371736802605,0.006157,-0.080681,-0.018837,0.317506,-3.767907,326.841005,19.233800,0.998940,0.984674,0.005053,0.367623,0.000702,0.000635,-0.000075,0.000751,0.000586,-32.959322,0.001340,
2326,2848,1.43643370641031,4.35241953401734,-0.0209849145382464,0.008329,-0.077384,0.000630,0.350353,-3.550169,317.493985,21.135602,0.999727,0.992634,0.003591,0.417378,0.000025,0.000052,0.000022,0.000064,0.000013,60.686919,0.000082,
2401,2458,3.14401290282754,-4.1498183750274,-0.0194325496331089,0.007337,-0.078567,-0.010730,0.343178,-3.622297,323.863510,19.925399,0.999336,0.986799,0.004801,0.454912,0.000362,0.000270,0.000001,0.000362,0.000270,0.334286,0.000634,
2491,2743,5.04731018862814,2.07537118539395,-0.0377386997113831,0.007989,-0.078413,-0.001120,0.337088,-3.578963,319.240002,20.925223,0.999617,0.991560,0.003746,0.401921,0.000065,0.000084,0.000010,0.000088,0.000061,67.518305,0.000150,
2386,2413,2.82589405817456,-5.1347616452882,-0.013152706232006,0.006646,-0.078441,-0.017066,0.334095,-3.666348,324.623014,19.821283,0.999265,0.985456,0.004822,0.418671,0.000419,0.000349,-0.000005,0.000419,0.000348,-3.791502,0.000769,
2506,2968,5.33194911565823,6.97212489210144,0.000537240324149479,0.009482,-0.078216,0.004703,0.383258,-3.573344,315.974881,21.892114,0.999445,0.990161,0.004137,0.357116,0.000025,-0.000011,0.000021,0.000035,-0.000020,24.164940,0.000035,
2386,3148,2.68983978405432,10.8711137432179,0.0362967494769464,0.010407,-0.077756,0.005542,0.427224,-3.545900,313.153119,22.080820,0.999583,0.993077,0.003415,0.406839,0.000004,-0.000012,0.000030,0.000027,-0.000034,37.446272,0.000036,
2446,2428,4.13069163169552,-4.8042750049546,-0.0250626736651611,0.006866,-0.079435,-0.011150,0.322811,-3.653677,324.350445,19.733676,0.999020,0.985828,0.004956,0.393071,0.000444,0.000322,-0.000036,0.000454,0.000312,-15.346006,0.000770,
2401,2038,3.22693372717084,-13.3597437948494,-0.00227061255526451,0.005794,-0.085357,-0.027155,0.328343,-4.021682,330.786625,18.238976,0.997525,0.974021,0.006705,0.398662,0.001373,0.001314,-0.000100,0.001447,0.001239,-36.829516,0.002690,
2446,2308,4.15610444839323,-7.43101708813592,-0.012749897745266,0.006821,-0.080062,-0.016205,0.339090,-3.706377,326.414683,19.343707,0.998880,0.980842,0.005489,0.297849,0.000670,0.000539,-0.000086,0.000712,0.000496,-26.277178,0.001215,
2371,2158,2.54795757576403,-10.7216722469766,-0.00455309406618198,0.006012,-0.082687,-0.023526,0.325595,-3.873216,328.801553,19.023980,0.999094,0.981720,0.005623,0.317487,0.000985,0.001025,-0.000066,0.001074,0.000936,-53.420050,0.002012,
2476,2548,4.76173141582887,-2.1815573764878,-0.024278717838456,0.007542,-0.078258,-0.011651,0.356482,-3.630870,322.508926,20.111455,0.999493,0.987418,0.004364,0.415282,0.000256,0.000152,-0.000017,0.000259,0.000149,-8.877715,0.000413,
2326,3088,1.39627451144809,9.5645994442339,0.0210513833679329,0.010140,-0.077646,0.005365,0.417611,-3.533547,313.994747,21.646906,0.999609,0.994733,0.003097,0.463710,0.000000,-0.000012,0.000006,0.000003,-0.000015,23.646051,0.000016,
2446,2653,4.08594558554672,0.110805220159634,-0.0262256272177979,0.007735,-0.077731,-0.005192,0.341579,-3.569602,320.702498,20.626548,0.999586,0.991155,0.003862,0.382628,0.000153,0.000094,-0.000008,0.000154,0.000093,-7.647770,0.000249,
2341,3163,1.70941636853471,11.1938005621007,0.0345005092516431,0.010504,-0.076964,0.004889,0.435885,-3.503986,312.891432,21.963985,0.999556,0.993394,0.003582,0.409132,0.000002,-0.000004,0.000018,0.000017,-0.000019,40.666570,0.000021,
2431,2578,3.77454762841185,-1.5272536850963,-0.0134576903738548,0.007473,-0.078656,-0.003157,0.321727,-3.586359,321.983255,20.393657,0.999615,0.993921,0.003602,0.354700,0.000232,0.000140,0.000000,0.000232,0.000140,-0.140718,0.000376,
2506,2758,5.37116482802499,2.40249124054507,-0.032606568606127,0.008052,-0.078643,0.003936,0.320093,-3.562732,319.064851,20.972369,0.999652,0.990968,0.003772,0.435988,0.000057,0.000067,0.000012,0.000075,0.000049,55.871798,0.000125,
2401,2218,3.19175999645913,-9.4039127518531,-0.0140940912353926,0.006293,-0.080169,-0.031379,0.368853,-3.812006,327.820364,19.162448,0.998636,0.983405,0.005651,0.268056,0.000836,0.000844,-0.000077,0.000917,0.000763,-46.617172,0.001682,
2371,2338,2.51219035320806,-6.77594522596464,-0.0112082471167128,0.005946,-0.080049,-0.012948,0.286396,-3.714804,325.796586,19.641081,0.998739,0.985527,0.005003,0.381169,0.000543,0.000457,-0.000011,0.000545,0.000455,-7.059947,0.001001,
2356,3238,2.02057810243226,12.8215648144362,0.0297607515483378,0.010575,-0.077302,0.005751,0.435608,-3.523383,311.620267,22.183699,0.999571,0.993100,0.003293,0.424111,0.000010,-0.000011,0.000013,0.000016,-0.000017,25.623661,0.000019,
2431,2353,3.81893211012459,-6.44686059540575,-0.016756807474394,0.006348,-0.080054,-0.017157,0.320748,-3.735756,325.607396,19.488045,0.998638,0.982403,0.005299,0.340586,0.000553,0.000439,-0.000051,0.000572,0.000420,-20.740502,0.000996,
2431,2173,3.85663235416083,-10.394671832268,-0.0011634204748816,0.006393,-0.082789,-0.025127,0.350709,-3.890752,328.681742,18.696496,0.999078,0.983129,0.005176,0.348666,0.000975,0.001008,-0.000127,0.001119,0.000864,-48.761305,0.001988,
2386,2203,2.86600616370027,-9.73314999175063,-0.0162733592514996,0.006271,-0.081952,-0.020264,0.326603,-3.799794,327.987819,19.094347,0.998043,0.981048,0.005720,0.376646,0.000852,0.000889,-0.000072,0.000944,0.000796,-52.322214,0.001743,
2491,2893,5.01885128366994,5.34091038458862,-0.0198619830011921,0.009179,-0.078474,0.003617,0.373751,-3.584632,316.977734,21.557994,0.998792,0.988547,0.004275,0.350924,0.000044,0.000027,0.000035,0.000072,-0.000001,38.021183,0.000083,
2476,2803,4.70931349174444,3.38151817218026,-0.0253144199057829,0.008293,-0.078292,0.002373,0.338197,-3.574910,318.327186,21.214941,0.999086,0.985542,0.004709,0.339043,0.000056,0.000060,0.000015,0.000073,0.000042,48.989342,0.000117,
2371,3253,2.34365713288747,13.1483042735942,0.0234093904411452,0.011363,-0.077436,0.006478,0.468802,-3.525781,311.356647,22.276710,0.999652,0.993618,0.003197,0.445883,0.000004,-0.000006,0.000013,0.000013,-0.000014,34.115209,0.000016,
2416,2098,3.54303942149317,-12.0409769578521,-0.00508734583405612,0.006198,-0.084539,-0.024162,0.336919,-3.969021,329.823085,18.436821,0.998305,0.977108,0.006462,0.357173,0.001189,0.001258,-0.000108,0.001337,0.001111,-53.908173,0.002451,
2461,2503,4.44406708264662,-3.16601024422543,-0.0104286581519091,0.007221,-0.078823,-0.006596,0.322445,-3.596575,323.286441,19.948375,0.999213,0.987220,0.004524,0.471137,0.000325,0.000220,-0.000041,0.000339,0.000206,-18.915206,0.000550,
2491,2758,5.04475584260693,2.40086653940465,-0.0282391189169857,0.008059,-0.078681,0.003053,0.324183,-3.580057,319.062531,20.933942,0.999443,0.988989,0.004090,0.450852,0.000065,0.000090,0.000010,0.000093,0.000062,70.712897,0.000156,
2461,2743,4.39422807763778,2.07352165151515,-0.0300199418836087,0.008097,-0.078195,0.001209,0.333907,-3.569074,319.227614,20.924728,0.999585,0.991519,0.003735,0.404452,0.000062,0.000099,0.000013,0.000103,0.000057,71.921625,0.000163,
2416,2548,3.45206434534381,-2.18267267550185,-0.0256228333383888,0.006948,-0.078962,-0.004304,0.301851,-3.619172,322.327366,20.227389,0.999103,0.988655,0.004484,0.411601,0.000241,0.000149,0.000000,0.000241,0.000149,-0.287928,0.000393,
2401,2053,3.22334807116913,-13.028201618232,-0.0078927538945095,0.005739,-0.085635,-0.025354,0.319214,-4.010500,330.487962,18.412154,0.998018,0.976977,0.006488,0.285819,0.001324,0.001293,-0.000096,0.001406,0.001212,-40.409191,0.002620,
2476,2563,4.75842566369112,-1.8528949544124,-0.0264479227531638,0.008008,-0.078437,-0.005302,0.353748,-3.610235,322.243530,20.233614,0.998310,0.982590,0.005311,0.371470,0.000248,0.000150,-0.000012,0.000249,0.000148,-6.873172,0.000402,
2416,2293,3.50378983561413,-7.76173193050514,-0.0130357997322221,0.006435,-0.081057,-0.018003,0.327067,-3.788571,326.593929,19.284860,0.998420,0.981873,0.005587,0.345651,0.000667,0.000594,-0.000065,0.000706,0.000556,-30.361230,0.001264,
2506,2983,5.32868237163774,7.29805131648946,-0.00292500425973685,0.009510,-0.078458,0.003590,0.388814,-3.582353,315.706101,21.911815,0.999348,0.988668,0.004207,0.388864,0.000029,-0.000012,0.000025,0.000041,-0.000024,24.953044,0.000041,
2371,2173,2.54466862670115,-10.3939422964264,-0.00834784420254664,0.005704,-0.082102,-0.025584,0.319051,-3.865697,328.522051,18.918690,0.999073,0.982170,0.005439,0.474421,0.000940,0.000975,-0.000067,0.001027,0.000888,-52.330792,0.001916,
2461,2368,4.47170072094352,-6.11730149308674,-0.0137339073068006,0.007058,-0.079171,-0.016197,0.350619,-3.659379,325.477501,19.495451,0.999417,0.987684,0.004966,0.358017,0.000565,0.000412,-0.000072,0.000593,0.000384,-21.662348,0.000985,
2326,3103,1.39384836871191,9.89031552580775,0.0247770074309983,0.010166,-0.077458,0.004416,0.422153,-3.533263,313.784929,21.714082,0.999490,0.993952,0.003339,0.430052,0.000001,-0.000011,0.000008,0.000005,-0.000015,27.385467,0.000016,
2386,2428,2.8233050998165,-4.80644611434985,-0.0123721270559827,0.007013,-0.078580,-0.015537,0.345438,-3.643073,324.397495,19.889673,0.999258,0.988043,0.004636,0.418336,0.000398,0.000324,0.000001,0.000398,0.000324,0.702086,0.000724,
2446,2443,4.12893961295698,-4.4782202449169,-0.00750900115241393,0.007097,-0.079459,-0.005962,0.314110,-3.648531,324.245615,19.776744,0.998002,0.983532,0.005331,0.408377,0.000428,0.000277,-0.000027,0.000433,0.000272,-9.985408,0.000711,
2476,2818,4.70672427717404,3.70773600153566,-0.0244452724079451,0.008467,-0.077992,-0.000163,0.355990,-3.560724,318.107619,21.222991,0.999234,0.986797,0.004631,0.401718,0.000045,0.000053,0.000023,0.000073,0.000026,49.788201,0.000102,
2431,2188,3.85456843645888,-10.0656748235489,0.00600671634742866,0.006714,-0.082568,-0.025333,0.366298,-3.888028,328.514580,18.833301,0.999548,0.988173,0.004468,0.267010,0.000930,0.000975,-0.000115,0.001070,0.000836,-50.550984,0.001910,
2371,3268,2.33972493767909,13.4741214726728,0.0134881759347536,0.010950,-0.077386,0.004758,0.455996,-3.523310,311.014056,22.315757,0.999658,0.993946,0.003221,0.448906,0.000001,-0.000003,0.000005,0.000005,-0.000007,33.937017,0.000007,
2461,2518,4.44133292895247,-2.83871840765191,-0.00798202259483105,0.007215,-0.078926,-0.007800,0.326651,-3.627045,323.067767,20.021471,0.998755,0.984402,0.004839,0.422923,0.000292,0.000214,-0.000036,0.000306,0.000200,-21.495727,0.000510,
2386,2218,2.86362780031053,-9.4046726962309,-0.0111261286978674,0.006045,-0.081251,-0.024482,0.331656,-3.808395,327.793550,19.184149,0.998309,0.981177,0.005874,0.323862,0.000822,0.000843,-0.000066,0.000899,0.000765,-49.482880,0.001666,
2446,2668,4.08369685251112,0.437466865937388,-0.0236665024731906,0.008220,-0.077729,-0.005868,0.366415,-3.564276,320.504797,20.653496,0.999406,0.989617,0.004121,0.413727,0.000138,0.000087,-0.000001,0.000138,0.000086,-1.620918,0.000226,
2461,2758,4.39110975745356,2.40049898577382,-0.0302358623033001,0.008115,-0.078099,0.002349,0.330568,-3.554629,318.977762,20.976471,0.999550,0.990256,0.003924,0.421754,0.000063,0.000103,0.000014,0.000107,0.000058,72.072452,0.000168,
2341,3178,1.70638434023373,11.5194295202973,0.0302110159962012,0.010543,-0.076818,0.003746,0.441791,-3.493057,312.615429,21.982451,0.999589,0.994254,0.003591,0.437054,0.000005,-0.000002,0.000018,0.000020,-0.000016,39.601922,0.000021,
2356,3253,2.01802603417697,13.146617498868,0.0303985347490539,0.010975,-0.077336,0.007627,0.447427,-3.517804,311.391305,22.202943,0.999627,0.993083,0.003273,0.447977,0.000007,-0.000008,0.000013,0.000014,-0.000016,29.797062,0.000017,
2491,2908,5.01595269285227,5.66763744310579,-0.0149345671816263,0.008787,-0.078069,0.001784,0.362986,-3.569589,316.762709,21.666897,0.998978,0.987586,0.004455,0.315436,0.000042,-0.000008,0.000033,0.000059,-0.000024,26.250245,0.000059,
2401,2473,3.1409541525096,-3.82230704212463,-0.0140108424977825,0.006710,-0.078532,-0.011477,0.317148,-3.627479,323.639496,20.006822,0.999083,0.987716,0.004721,0.414957,0.000339,0.000248,0.000002,0.000339,0.000248,1.015404,0.000590,
2326,2863,1.43423371009235,4.67813597115136,-0.0184909044462529,0.008629,-0.077828,-0.000793,0.368887,-3.576642,317.289253,21.161009,0.999691,0.992321,0.003639,0.399680,0.000021,0.000044,0.000019,0.000054,0.000011,60.502660,0.000070,
2506,2773,5.36887288860288,2.72911264190303,-0.0336610894029263,0.008402,-0.078222,-0.002526,0.361292,-3.586755,318.852837,21.028206,0.999609,0.991545,0.003767,0.417135,0.000046,0.000056,0.000011,0.000064,0.000039,56.705019,0.000103,
2431,2368,3.81667137613996,-6.11844376179572,-0.0119300594800507,0.006697,-0.079292,-0.016832,0.335902,-3.700563,325.419493,19.574002,0.998759,0.983203,0.005168,0.341571,0.000524,0.000418,-0.000046,0.000541,0.000400,-20.528342,0.000945,
2416,2113,3.54174204491845,-11.7121716422538,0.0022298668560552,0.006941,-0.083471,-0.028108,0.385757,-3.919934,329.690764,18.487007,0.998480,0.977396,0.006279,0.406667,0.001143,0.001231,-0.000106,0.001301,0.001072,-56.263820,0.002377,
2401,2068,3.22009703470537,-12.6981289118604,-0.0224536987905708,0.006171,-0.084673,-0.030207,0.356948,-3.998828,330.162719,18.357648,0.998802,0.979061,0.006356,0.401472,0.001275,0.001276,-0.000095,0.001370,0.001180,-45.171331,0.002553,
2401,2233,3.18826738248382,-9.07619792867447,-0.00721975984976098,0.005981,-0.081059,-0.021200,0.317476,-3.784019,327.584078,19.169032,0.998833,0.984112,0.005479,0.337447,0.000801,0.000796,-0.000070,0.000868,0.000729,-43.949083,0.001599,
2386,3163,2.68659496186622,11.1969024385057,0.0317843934797679,0.010375,-0.077652,0.004985,0.427811,-3.543033,312.869872,22.117057,0.999362,0.991701,0.003768,0.415640,0.000004,-0.000008,0.000030,0.000029,-0.000033,39.079004,0.000036,
2506,2998,5.3256599206344,7.6245829252857,-0.00189267109783486,0.009341,-0.078119,0.001747,0.388274,-3.589684,315.468439,22.020782,0.999441,0.990056,0.003924,0.332870,0.000027,-0.000013,0.000030,0.000042,-0.000028,28.190543,0.000043,
2416,2563,3.44951874460905,-1.85495866287396,-0.0264975651514305,0.007323,-0.078521,-0.005509,0.323659,-3.599728,322.098011,20.274509,0.998584,0.985431,0.004808,0.432676,0.000224,0.000145,0.000005,0.000224,0.000145,3.819266,0.000372,
2431,2593,3.77152570195548,-1.20217270885284,-0.00687368124164323,0.006970,-0.078687,-0.002035,0.294458,-3.600591,321.768309,20.306665,0.999501,0.991651,0.003921,0.478119,0.000215,0.000122,0.000005,0.000215,0.000122,2.800045,0.000341,
2371,2353,2.50945954043469,-6.44796827883464,-0.00829612998734319,0.005727,-0.079249,-0.014484,0.282168,-3.665885,325.573750,19.648613,0.998747,0.984850,0.005089,0.465660,0.000519,0.000424,-0.000004,0.000519,0.000423,-2.695334,0.000944,
2491,2773,5.04180635571271,2.72869693666959,-0.0295646966195591,0.008013,-0.078181,-0.000377,0.335514,-3.562588,318.817494,21.057022,0.999042,0.987309,0.004408,0.404234,0.000055,0.000072,0.000009,0.000076,0.000052,67.070472,0.000129,
2416,2308,3.50128836014673,-7.43320384657814,-0.0101459143639318,0.006288,-0.079834,-0.022461,0.337124,-3.739304,326.385047,19.328083,0.998904,0.985842,0.004882,0.401744,0.000636,0.000542,-0.000058,0.000664,0.000515,-25.448354,0.001182,
2476,2578,4.75414823083904,-1.52461174975412,-0.029649724509909,0.006886,-0.078000,-0.007339,0.310271,-3.577794,321.928726,20.305405,0.997892,0.983510,0.005364,0.390053,0.000238,0.000138,-0.000006,0.000238,0.000137,-3.568159,0.000380,
2476,2833,4.70463428853312,4.03356367243587,-0.0192972572158396,0.008773,-0.077864,-0.002828,0.380239,-3.562970,317.930510,21.248157,0.999405,0.988007,0.004178,0.430941,0.000045,0.000048,0.000031,0.000077,0.000015,46.500803,0.000099,
2461,2383,4.46761464082795,-5.78986448228431,-0.0121047052955419,0.006528,-0.080330,-0.008244,0.295989,-3.668075,325.193610,19.509795,0.999493,0.987042,0.004883,0.391063,0.000537,0.000392,-0.000076,0.000569,0.000360,-23.149020,0.000937,
2446,2683,4.07986215256852,0.764823750226441,-0.0256925299896693,0.007755,-0.078102,-0.003411,0.335808,-3.567927,320.212867,20.719891,0.999248,0.988811,0.004172,0.396474,0.000127,0.000091,0.000006,0.000127,0.000090,9.266926,0.000219,
2431,2203,3.8512400270164,-9.73703540457679,0.00139878698473694,0.006958,-0.081934,-0.022471,0.367201,-3.851465,328.234786,18.784499,0.999306,0.985565,0.004932,0.405393,0.000889,0.000903,-0.000102,0.000998,0.000794,-46.957722,0.001796,
2491,2923,5.01189044800731,5.99511403726437,-0.028167857544986,0.008917,-0.077843,0.001850,0.368904,-3.545290,316.411900,21.709465,0.999375,0.987831,0.004184,0.355969,0.000033,-0.000016,0.000025,0.000043,-0.000026,22.723265,0.000043,
2461,2533,4.43788841412421,-2.51035933821584,-0.0112204200023029,0.007181,-0.079012,-0.006479,0.320101,-3.638847,322.790179,20.127415,0.999252,0.988271,0.004298,0.360737,0.000279,0.000190,-0.000026,0.000286,0.000183,-15.232167,0.000473,
2371,3283,2.33663358490584,13.7991605252856,0.00945154729242859,0.011100,-0.077606,0.005353,0.460642,-3.542902,310.738667,22.342131,0.999582,0.993421,0.003350,0.442594,0.000003,-0.000001,-0.000003,0.000004,-0.000003,-27.900422,0.000004,
2446,2458,4.12561649166939,-4.14923406387893,-0.0148974588407782,0.006781,-0.078442,-0.013324,0.327481,-3.614571,323.953351,19.829977,0.998937,0.986179,0.004851,0.443082,0.000401,0.000264,-0.000028,0.000407,0.000258,-11.218739,0.000670,
2506,2788,5.36586710943424,3.05608443612841,-0.0331440680117794,0.008257,-0.078042,-0.004868,0.363812,-3.584555,318.614769,21.107031,0.999456,0.990817,0.003986,0.401631,0.000042,0.000058,0.000005,0.000060,0.000041,74.786731,0.000101,
2461,2773,4.38798050129849,2.72743283664072,-0.0347172751684184,0.007979,-0.078079,-0.002537,0.342735,-3.569221,318.707884,21.024267,0.999332,0.988296,0.004243,0.414020,0.000055,0.000085,0.000014,0.000091,0.000050,68.572987,0.000143,
2506,3013,5.32315328548712,7.95063393405812,7.87775338153551E-05,0.009668,-0.077903,0.000639,0.407740,-3.575615,315.258769,22.074287,0.999407,0.990966,0.003749,0.354229,0.000030,-0.000012,0.000025,0.000042,-0.000024,25.049867,0.000042,
2416,2128,3.53689177059301,-11.3805630913465,-0.0102903914580565,0.006370,-0.083681,-0.024263,0.345571,-3.924041,329.303225,18.636209,0.998925,0.979748,0.005852,0.304779,0.001105,0.001185,-0.000103,0.001256,0.001034,-55.653795,0.002293,
2401,2488,3.13787167516671,-3.4946217022088,-0.0120979612663632,0.006773,-0.079194,-0.006784,0.302793,-3.652239,323.397866,20.095689,0.998891,0.988604,0.004637,0.348058,0.000321,0.000218,0.000002,0.000321,0.000218,1.072916,0.000542,
2386,2443,2.81889030477124,-4.47844847254823,-0.0167095456853303,0.006518,-0.079494,-0.006856,0.291292,-3.652807,324.064058,19.919087,0.998905,0.988727,0.004749,0.424372,0.000379,0.000292,0.000008,0.000380,0.000292,5.055892,0.000673,
2401,2248,3.18467326021796,-8.74763168650054,-0.0107035238883668,0.005855,-0.080523,-0.017687,0.299232,-3.718588,327.294175,19.113725,0.998959,0.983668,0.005350,0.506439,0.000761,0.000715,-0.000072,0.000814,0.000663,-36.048248,0.001479,
2431,2383,3.8133000245028,-5.78957037266747,-0.0165456859353412,0.006776,-0.079331,-0.015653,0.335176,-3.682995,325.136837,19.632701,0.999379,0.986969,0.004727,0.352564,0.000500,0.000401,-0.000049,0.000521,0.000381,-22.402647,0.000905,
2386,2233,2.86051246275278,-9.07759122037439,0.00742938164040652,0.005324,-0.082433,-0.012256,0.254443,-3.779604,327.628861,19.252590,0.998704,0.983577,0.005764,0.329629,0.000787,0.000792,-0.000059,0.000848,0.000731,-46.204204,0.001581,
2431,2608,3.76767810359254,-0.872535843556598,-0.0248294135005835,0.007377,-0.078377,-0.004289,0.321622,-3.591464,321.400595,20.406831,0.999272,0.988496,0.004364,0.438309,0.000195,0.000109,0.000008,0.000196,0.000108,5.180404,0.000308,
2416,2578,3.44656123481973,-1.52662636964843,-0.0265429274571716,0.007482,-0.078861,-0.003552,0.323718,-3.601743,321.853487,20.412037,0.999174,0.989524,0.004243,0.341702,0.000211,0.000142,0.000007,0.000212,0.000142,6.153234,0.000356,
2401,2083,3.21861819664689,-12.3693412939167,-0.00688198176402466,0.006379,-0.084072,-0.030186,0.366615,-3.973130,330.059971,18.512079,0.998200,0.975989,0.006558,0.320668,0.001227,0.001268,-0.000097,0.001347,0.001149,-50.947619,0.002498,
2476,2593,4.75153374554009,-1.19750137152825,-0.0309162515708863,0.007107,-0.077814,-0.011215,0.335207,-3.588017,321.699387,20.333928,0.998066,0.983189,0.005174,0.408780,0.000215,0.000121,0.000000,0.000215,0.000121,-0.168912,0.000341,
2476,2848,4.70094307325099,4.36098402204614,-0.0283366509679581,0.008950,-0.077885,-0.002063,0.385432,-3.583528,317.614834,21.335664,0.999236,0.987691,0.004263,0.379362,0.000037,0.000032,0.000032,0.000067,0.000002,42.648898,0.000079,
2491,2938,5.00959240934632,6.32079991059152,-0.018593543112047,0.009101,-0.078214,0.004391,0.367483,-3.548128,316.245610,21.781589,0.999444,0.990350,0.003782,0.339362,0.000027,-0.000016,0.000018,0.000033,-0.000022,20.352679,0.000034,
2371,3298,2.33325069626047,14.1249983018908,-0.00016772135853671,0.011416,-0.077581,0.006237,0.472082,-3.543041,310.422663,22.397021,0.999640,0.993683,0.003315,0.427094,0.000000,-0.000022,-0.000004,0.000001,-0.000023,-8.726758,0.000026,
2371,2368,2.50580953754794,-6.11835959604053,-0.0164804359685036,0.005701,-0.079133,-0.013003,0.275807,-3.642899,325.255637,19.728223,0.998534,0.983234,0.005169,0.452131,0.000491,0.000408,-0.000002,0.000491,0.000408,-1.164562,0.000901,
2446,2698,4.07596968482295,1.09285266142983,-0.0387392758121905,0.007821,-0.077974,-0.004769,0.343918,-3.580561,319.867302,20.771512,0.999586,0.990506,0.003941,0.385062,0.000112,0.000101,0.000007,0.000115,0.000097,24.535163,0.000213,
2461,2548,4.43484319422012,-2.18154465693477,-0.0137956110107211,0.007136,-0.078376,-0.009471,0.329582,-3.611798,322.533674,20.247439,0.999663,0.992251,0.003691,0.323365,0.000259,0.000149,-0.000022,0.000263,0.000145,-11.096292,0.000414,
2431,2218,3.84873979992668,-9.40833207994937,0.00328616420108574,0.007127,-0.081552,-0.024384,0.382169,-3.845642,328.023076,18.845763,0.999287,0.985686,0.004973,0.402271,0.000859,0.000853,-0.000100,0.000955,0.000756,-44.063505,0.001715,
2506,2803,5.36244292422699,3.38304666106563,-0.0285159318980845,0.008325,-0.078338,0.004335,0.331184,-3.575834,318.375717,21.214628,0.998988,0.986878,0.004878,0.363753,0.000048,0.000045,0.000002,0.000050,0.000044,29.559185,0.000094,
2416,2323,3.49821932074474,-7.10430026676664,-0.0049116215294589,0.006262,-0.079742,-0.016097,0.312796,-3.683221,326.160925,19.427005,0.998663,0.984007,0.005145,0.408561,0.000598,0.000499,-0.000048,0.000617,0.000479,-22.058018,0.001100,
2506,3028,5.32060659472982,8.27601551747743,0.00667623437914244,0.009857,-0.077835,0.003038,0.407253,-3.553664,315.068065,22.092861,0.999520,0.992727,0.003559,0.418016,0.000032,-0.000003,0.000023,0.000043,-0.000015,25.966905,0.000044,
2446,2473,4.12271565975285,-3.8211747262479,-0.00992465231809092,0.006731,-0.078468,-0.010253,0.313770,-3.611927,323.737492,19.949788,0.999372,0.988424,0.004445,0.379304,0.000372,0.000251,-0.000029,0.000379,0.000244,-12.835145,0.000628,
2461,2788,4.38594312691665,3.05348214479756,-0.0248564200014698,0.008040,-0.077627,-0.003854,0.350671,-3.571856,318.553951,21.095297,0.999266,0.986779,0.004373,0.394640,0.000052,0.000078,0.000012,0.000083,0.000047,69.129491,0.000131,
2401,2503,3.13428096913417,-3.16486925906082,-0.0252845074429615,0.006941,-0.078443,-0.009494,0.320640,-3.633054,323.061286,20.197331,0.999212,0.989152,0.004419,0.312851,0.000294,0.000211,0.000000,0.000294,0.000211,-0.242111,0.000507,
2431,2398,3.81023283061738,-5.46217558979905,-0.0157612192497822,0.006945,-0.079663,-0.011608,0.327908,-3.677215,324.893331,19.625223,0.999612,0.988167,0.004608,0.417430,0.000475,0.000386,-0.000041,0.000491,0.000369,-21.409647,0.000864,
2386,2458,2.81682767282096,-4.14881287651556,-0.0241140737262526,0.007700,-0.078580,-0.009862,0.356654,-3.625774,323.823550,20.038376,0.999018,0.987718,0.004781,0.377030,0.000358,0.000273,0.000010,0.000359,0.000272,6.531953,0.000633,
2431,2623,3.7642725856333,-0.545247247224729,-0.0253208457720007,0.007169,-0.078788,-0.002047,0.303662,-3.609858,321.134636,20.475463,0.999275,0.989319,0.004230,0.401654,0.000181,0.000101,0.000003,0.000181,0.000101,1.830394,0.000285,
2416,2143,3.53335484516645,-11.0513576750475,-0.0131496978834775,0.005948,-0.082978,-0.024993,0.329230,-3.898700,329.020837,18.647601,0.999043,0.981283,0.005327,0.369642,0.001057,0.001128,-0.000107,0.001205,0.000979,-54.211042,0.002188,
2401,2263,3.18099806903365,-8.41692677771115,-0.0181669321578966,0.005889,-0.080885,-0.015438,0.292561,-3.743381,326.981936,19.309144,0.999110,0.986670,0.004779,0.334411,0.000726,0.000662,-0.000077,0.000778,0.000611,-33.741426,0.001392,
2476,2608,4.74825656305842,-0.870267220144783,-0.027798600209394,0.007167,-0.078156,-0.004715,0.313152,-3.583902,321.459310,20.402305,0.998693,0.985454,0.004684,0.402003,0.000199,0.000107,0.000003,0.000199,0.000107,2.018952,0.000310,
2491,2953,5.00742758626012,6.6458433470734,-0.0136153590790968,0.009433,-0.078362,0.002575,0.389602,-3.578541,316.064854,21.792712,0.999250,0.989974,0.004001,0.356062,0.000028,-0.000023,0.000017,0.000033,-0.000028,16.858417,0.000035,
2386,2248,2.85657114212498,-8.74629440644211,-0.0144303578769041,0.005700,-0.081110,-0.016030,0.285711,-3.742240,327.234527,19.284730,0.998861,0.983897,0.005444,0.381401,0.000749,0.000712,-0.000059,0.000792,0.000669,-36.137555,0.001463,
2476,2863,4.69785450868005,4.68699574217109,-0.0216232109796692,0.008458,-0.077868,-0.000766,0.357926,-3.581578,317.398660,21.393663,0.999248,0.986252,0.004330,0.379554,0.000033,0.000025,0.000034,0.000064,-0.000006,41.319981,0.000070,
2386,1993,2.90811993909845,-14.3508132573647,0.00976398272518963,0.005215,-0.087604,-0.028185,0.303937,-4.105426,331.573062,18.143163,0.997802,0.936349,0.009407,0.369631,0.001523,0.001391,-0.000088,0.001567,0.001347,-26.651670,0.002916,
2506,2818,5.36048192686536,3.70963993104391,-0.0265997751037617,0.009198,-0.078475,0.003087,0.376099,-3.572899,318.191910,21.276853,0.999264,0.989268,0.004293,0.365643,0.000044,0.000045,0.000017,0.000062,0.000027,45.109847,0.000091,
2416,2593,3.44280484080263,-1.19987273978796,-0.0272385268322068,0.006759,-0.078695,-0.003116,0.288984,-3.609586,321.569471,20.409798,0.999462,0.991418,0.003910,0.384731,0.000195,0.000122,0.000011,0.000196,0.000121,8.818163,0.000320,
2506,3043,5.31716566453084,8.60266902039894,0.00788600699308972,0.009663,-0.078256,0.005984,0.386800,-3.558920,314.811607,22.223695,0.999681,0.992872,0.003694,0.341820,0.000025,0.000007,0.000036,0.000053,-0.000021,37.844123,0.000053,
2461,2563,4.43086228999122,-1.85308749179014,-0.0322857218890817,0.007806,-0.078394,-0.008297,0.355916,-3.621732,322.161577,20.236437,0.999215,0.989106,0.004367,0.380204,0.000245,0.000147,-0.000017,0.000248,0.000144,-9.417695,0.000396,
2446,2713,4.0727543717981,1.42004448404725,-0.0418122311116349,0.007807,-0.077806,-0.005368,0.345621,-3.578118,319.598868,20.818562,0.999685,0.991991,0.003729,0.393180,0.000099,0.000098,0.000011,0.000110,0.000087,43.358680,0.000197,
2461,2803,4.38198113435043,3.38100241365575,-0.0306274521739169,0.008006,-0.078555,0.001224,0.329642,-3.586964,318.239555,21.196913,0.999276,0.987368,0.004382,0.332383,0.000051,0.000065,0.000014,0.000074,0.000043,58.405774,0.000118,
2431,2233,3.84464087289969,-9.07702454464314,-0.00462506352033643,0.006724,-0.080825,-0.023594,0.361133,-3.793791,327.692165,19.002860,0.998933,0.982874,0.005376,0.350040,0.000825,0.000805,-0.000091,0.000907,0.000723,-41.927516,0.001633,
2416,2338,3.49519607449493,-6.77448406822594,-0.0145983831527019,0.006510,-0.078939,-0.021820,0.345398,-3.693754,325.869407,19.533078,0.998509,0.982656,0.005213,0.342135,0.000568,0.000466,-0.000038,0.000580,0.000453,-18.349436,0.001036,
2371,2383,2.50276665924004,-5.79057858479082,-0.0133175002742973,0.005477,-0.079724,-0.010473,0.256320,-3.676771,325.019930,19.813079,0.998872,0.984574,0.005093,0.376074,0.000468,0.000399,-0.000006,0.000469,0.000399,-4.644659,0.000868,
2491,2968,5.00517040080844,6.97130198846591,-0.00781834348896382,0.009458,-0.078132,-0.000981,0.404556,-3.576911,315.883316,21.819233,0.999124,0.988197,0.004379,0.389366,0.000023,-0.000017,0.000026,0.000036,-0.000029,26.028722,0.000038,
2476,2623,4.74563113108312,-0.543242701787356,-0.0273486150754252,0.007520,-0.078797,-0.005217,0.330960,-3.630653,321.237207,20.483619,0.999563,0.991196,0.003765,0.330894,0.000184,0.000090,-0.000003,0.000184,0.000089,-1.892851,0.000279,
2431,2413,3.80724910941568,-5.13387115961302,-0.019209424861856,0.007021,-0.079183,-0.014004,0.340466,-3.644049,324.633748,19.638232,0.999480,0.987805,0.004678,0.489291,0.000445,0.000350,-0.000033,0.000455,0.000340,-17.280830,0.000798,
2446,2488,4.12013970422789,-3.4951535362997,-0.00627198612352231,0.007026,-0.078885,-0.008100,0.319088,-3.648471,323.530883,19.913953,0.999280,0.986989,0.004562,0.431653,0.000352,0.000222,-0.000033,0.000360,0.000215,-13.342259,0.000580,
2431,2638,3.76097501618618,-0.217767119026419,-0.0281996054214915,0.006881,-0.078375,-0.004484,0.299583,-3.614435,320.862408,20.532361,0.999400,0.990906,0.004078,0.390877,0.000163,0.000100,-0.000002,0.000163,0.000100,-1.857211,0.000265,
2401,2518,3.13154689828243,-2.83857686035429,-0.0247879064715448,0.006991,-0.078007,-0.010567,0.327028,-3.603005,322.828914,20.101141,0.999275,0.988198,0.004553,0.485726,0.000266,0.000203,0.000000,0.000266,0.000203,0.439320,0.000471,
2416,2158,3.53068520877416,-10.7220526914601,-0.0135510602296449,0.006136,-0.082327,-0.026523,0.343709,-3.898034,328.789692,18.724658,0.998860,0.980124,0.005532,0.343989,0.001012,0.001046,-0.000107,0.001138,0.000921,-49.538598,0.002062,
2401,2278,3.17660253709257,-8.08647691153356,-0.0306266807260727,0.005529,-0.080990,-0.013997,0.270851,-3.760400,326.613098,19.429194,0.999673,0.994347,0.003481,0.245732,0.000691,0.000633,-0.000062,0.000730,0.000594,-32.329400,0.001327,
2476,2878,4.69436475572564,5.01441270120085,-0.0275228556930642,0.008744,-0.077998,0.002016,0.360494,-3.570556,317.106275,21.482528,0.998617,0.987047,0.004640,0.358148,0.000029,0.000029,0.000037,0.000066,-0.000008,44.940541,0.000072,
2506,2833,5.35720009228271,4.03527081656149,-0.0190688954236862,0.008254,-0.078357,0.001675,0.338313,-3.569573,317.972534,21.297021,0.999536,0.990496,0.003951,0.409692,0.000050,0.000044,0.000030,0.000077,0.000017,41.715467,0.000100,
2386,2008,2.9054813239998,-14.0195480032087,0.000964986937106005,0.006101,-0.087522,-0.029071,0.347712,-4.120038,331.301628,18.261558,0.997657,0.968724,0.007021,0.283793,0.001470,0.001370,-0.000081,0.001515,0.001325,-29.207983,0.002842,
2461,2578,4.42648319327085,-1.5254953451655,-0.0360809431437588,0.007437,-0.078822,-0.000198,0.308424,-3.587571,321.838202,20.238178,0.999463,0.991976,0.004118,0.468219,0.000232,0.000137,-0.000014,0.000234,0.000135,-8.332351,0.000374,
2506,3058,5.31468718120974,8.92694636457914,0.0134795429198107,0.009781,-0.078526,0.005781,0.392895,-3.578847,314.619733,22.182429,0.999696,0.992718,0.003796,0.423475,0.000021,0.000013,0.000029,0.000046,-0.000012,41.017345,0.000047,
2416,2608,3.43996669047225,-0.872111063579332,-0.0307393132700327,0.007000,-0.078454,-0.004983,0.307031,-3.601850,321.314217,20.464969,0.999262,0.989554,0.004202,0.385888,0.000174,0.000109,0.000015,0.000178,0.000106,12.633849,0.000286,
2446,2728,4.0703370069148,1.74547290484021,-0.0353731758792719,0.007970,-0.078239,-0.003995,0.347811,-3.599576,319.411323,20.808969,0.999611,0.991955,0.003698,0.433383,0.000081,0.000093,0.000016,0.000104,0.000070,55.006540,0.000176,
2461,2818,4.37980762501675,3.70665755401635,-0.0240231640549382,0.008322,-0.078400,0.001404,0.343561,-3.575371,318.064383,21.199785,0.999159,0.986693,0.004612,0.395156,0.000041,0.000056,0.000020,0.000070,0.000027,55.350962,0.000100,
2491,2983,5.00168339436666,7.29816135113401,-0.00636116495036276,0.009222,-0.078195,0.002567,0.380103,-3.566556,315.625085,21.939837,0.999279,0.988168,0.004163,0.337310,0.000024,-0.000017,0.000028,0.000038,-0.000031,26.601016,0.000041,
2476,2638,4.74241283311284,-0.21606093064203,-0.0306818881083473,0.007491,-0.078384,-0.006870,0.336186,-3.597951,320.970356,20.472574,0.999647,0.991030,0.003701,0.432184,0.000169,0.000093,-0.000008,0.000169,0.000092,-5.747271,0.000265,
2416,2353,3.49191910687761,-6.44592462321203,-0.0162593830717128,0.006451,-0.078681,-0.020117,0.336611,-3.663675,325.603602,19.568755,0.998011,0.981249,0.005495,0.386169,0.000543,0.000438,-0.000034,0.000553,0.000428,-16.441144,0.000984,
2446,2503,4.11694078008962,-3.16696122657109,-0.00784205946195016,0.007158,-0.079107,-0.005701,0.316203,-3.617612,323.270984,19.966677,0.999383,0.988891,0.004284,0.463446,0.000324,0.000215,-0.000031,0.000333,0.000206,-14.907208,0.000544,
2506,2848,5.35446114981193,4.36271418208698,-0.0193620739784137,0.008538,-0.078254,0.000416,0.356322,-3.568159,317.742669,21.430410,0.999640,0.992778,0.003486,0.338629,0.000044,0.000025,0.000033,0.000069,0.000000,37.010124,0.000080,
2431,2428,3.80373592040916,-4.80457943533823,-0.0218511971198723,0.006592,-0.079191,-0.015442,0.326112,-3.676269,324.353607,19.820233,0.999225,0.986602,0.004861,0.326682,0.000424,0.000323,-0.000027,0.000431,0.000317,-14.174851,0.000751,
2431,2653,3.75921339590402,0.108962793202195,-0.0200829357939938,0.007609,-0.078280,-0.002336,0.325158,-3.582407,320.711772,20.581070,0.999449,0.990537,0.004091,0.424876,0.000146,0.000096,-0.000002,0.000146,0.000096,-1.959518,0.000244,
2476,2893,4.69219134279527,5.34100104285622,-0.025512718335051,0.009376,-0.077810,0.001098,0.393192,-3.543002,316.910523,21.541204,0.998547,0.987321,0.004620,0.383524,0.000031,0.000022,0.000038,0.000065,-0.000012,41.765687,0.000069,
2461,2593,4.42487731143472,-1.19916682455949,-0.0264918750665402,0.007662,-0.078710,-0.005086,0.337163,-3.611434,321.703755,20.303047,0.998945,0.988311,0.004506,0.434581,0.000210,0.000119,-0.000009,0.000211,0.000118,-5.623381,0.000333,
2401,2293,3.17406151674961,-7.75947902487744,-0.026130758580905,0.005905,-0.081294,-0.009424,0.271449,-3.749189,326.409188,19.382853,0.999363,0.991256,0.004021,0.350834,0.000658,0.000595,-0.000052,0.000688,0.000566,-29.344535,0.001255,
2461,2833,4.37635433037979,4.0351708421761,-0.0356186057418313,0.008514,-0.077897,-0.002736,0.368228,-3.569274,317.746282,21.336971,0.999472,0.990074,0.003950,0.318693,0.000041,0.000049,0.000027,0.000072,0.000018,49.483105,0.000095,
2401,2533,3.12884858265462,-2.51009721297365,-0.0204330136143653,0.007044,-0.078115,-0.008458,0.321821,-3.588742,322.615930,20.260615,0.999222,0.989023,0.004537,0.387015,0.000254,0.000181,0.000007,0.000255,0.000181,5.362525,0.000437,
2446,2743,4.06801279802023,2.07174292940945,-0.022144802688274,0.007876,-0.078341,-0.000180,0.329238,-3.591063,319.259033,20.904626,0.999524,0.991130,0.003827,0.398412,0.000076,0.000101,0.000016,0.000109,0.000068,63.465572,0.000179,
2476,2653,4.73957067789651,0.1111681777653,-0.0290406093611182,0.007575,-0.078183,-0.006763,0.339694,-3.595687,320.743350,20.543220,0.999528,0.990984,0.003806,0.421006,0.000155,0.000091,-0.000008,0.000156,0.000090,-6.878093,0.000249,
2416,2368,3.48928057010663,-6.11987996165968,-0.00595279754242029,0.006496,-0.079912,-0.013046,0.312369,-3.707240,325.423506,19.569496,0.998685,0.983434,0.005131,0.391198,0.000512,0.000418,-0.000030,0.000521,0.000409,-16.176068,0.000932,
2431,2443,3.80060031972068,-4.47702011192744,-0.0200425710720538,0.006757,-0.079366,-0.009587,0.312052,-3.650176,324.111388,19.832300,0.998962,0.985978,0.004905,0.392182,0.000408,0.000281,-0.000020,0.000411,0.000278,-8.768625,0.000693,
2446,2518,4.11328420691612,-2.83878970373512,-0.0143473441643778,0.006956,-0.079067,-0.006701,0.310673,-3.636674,322.967450,20.027950,0.999014,0.986798,0.004604,0.436620,0.000296,0.000209,-0.000027,0.000303,0.000201,-15.961944,0.000508,
2476,2908,4.68948160506307,5.66654147788453,-0.0198367849038732,0.009175,-0.078010,0.000316,0.386890,-3.546960,316.706972,21.565478,0.998599,0.985711,0.004815,0.411434,0.000027,-0.000008,0.000037,0.000051,-0.000032,32.625540,0.000051,
2461,2608,4.42229193048295,-0.87168565259794,-0.0204552430521403,0.007737,-0.078468,-0.003514,0.334861,-3.580097,321.507618,20.391466,0.998597,0.985313,0.004923,0.432402,0.000192,0.000105,-0.000005,0.000192,0.000104,-3.488900,0.000301,
2431,2668,3.75504622807753,0.438656515166507,-0.0370843045672586,0.007518,-0.078034,-0.005855,0.334154,-3.584641,320.333419,20.730632,0.999426,0.990699,0.004174,0.323883,0.000133,0.000092,0.000004,0.000133,0.000092,5.555718,0.000226,
2401,2308,3.17123730562955,-7.43146818330236,-0.027332267175268,0.005973,-0.080449,-0.010864,0.280110,-3.699631,326.165177,19.338354,0.999609,0.994137,0.003634,0.492723,0.000626,0.000543,-0.000045,0.000646,0.000523,-23.561519,0.001171,
2476,2668,4.73660518835878,0.437878585647645,-0.0310004132821859,0.008010,-0.078130,-0.004488,0.351102,-3.583796,320.494339,20.530984,0.999293,0.988678,0.004196,0.502388,0.000137,0.000076,-0.000002,0.000138,0.000076,-1.735581,0.000216,
2446,2758,4.06413537856797,2.39957782365362,-0.032219296101573,0.007833,-0.078021,-0.000050,0.326984,-3.569670,318.927467,20.949575,0.999480,0.989950,0.004027,0.427480,0.000076,0.000103,0.000017,0.000111,0.000067,63.975949,0.000180,
2431,2458,3.79787563801972,-4.14894894825801,-0.0235704557431973,0.007060,-0.078654,-0.012424,0.336729,-3.630149,323.863188,19.852211,0.999299,0.986486,0.004763,0.443629,0.000384,0.000265,-0.000023,0.000388,0.000261,-10.389784,0.000653,
2416,2383,3.48704995673082,-5.79133927244499,0.00100881163979238,0.006616,-0.079690,-0.013612,0.320040,-3.700493,325.245908,19.719637,0.999516,0.987842,0.004535,0.296850,0.000489,0.000403,-0.000032,0.000500,0.000392,-18.623005,0.000894,
2446,2533,4.1103731197143,-2.50923069194609,-0.0143184039692414,0.007012,-0.078538,-0.007245,0.315502,-3.617042,322.727764,20.242043,0.999066,0.988384,0.004477,0.295291,0.000285,0.000185,-0.000018,0.000288,0.000182,-9.978308,0.000474,
2461,2623,4.41859600817491,-0.543148330430093,-0.0296381518907083,0.007749,-0.078463,-0.004529,0.339229,-3.599999,321.190765,20.501980,0.999244,0.988861,0.004231,0.357296,0.000179,0.000092,-0.000011,0.000180,0.000091,-6.835501,0.000276,
2431,2683,3.75237334660852,0.764631010422377,-0.0314769837445397,0.007584,-0.078328,-0.003100,0.326894,-3.591666,320.129373,20.737148,0.999435,0.989871,0.004144,0.360528,0.000123,0.000098,0.000010,0.000127,0.000094,18.890431,0.000222,
2476,2683,4.73301585947955,0.765976137013766,-0.0307120105389913,0.007766,-0.078398,-0.000791,0.325795,-3.567762,320.226459,20.665654,0.999488,0.989814,0.004037,0.440840,0.000126,0.000076,0.000007,0.000127,0.000075,7.865417,0.000204,
2431,2473,3.79487502279423,-3.82131390093674,-0.0184595197899284,0.006610,-0.078527,-0.012570,0.316680,-3.641682,323.642453,19.949055,0.999182,0.986176,0.004739,0.386650,0.000360,0.000248,-0.000023,0.000364,0.000243,-11.267587,0.000611,
2401,2323,3.16956205687523,-7.1030297662159,-0.0112653897309656,0.005796,-0.079485,-0.012733,0.279176,-3.648206,326.054876,19.507873,0.999119,0.988136,0.004482,0.421702,0.000588,0.000499,-0.000039,0.000603,0.000484,-20.400246,0.001089,
2446,2548,4.10681184588303,-2.18152041921635,-0.0165891710601613,0.006967,-0.078452,-0.003208,0.298484,-3.578055,322.447804,20.251717,0.999426,0.990275,0.004114,0.378197,0.000268,0.000149,-0.000015,0.000270,0.000147,-7.061680,0.000423,
2416,2398,3.48345763148075,-5.4635906538944,-0.00724524221499223,0.006849,-0.079952,-0.010867,0.320625,-3.692339,324.934883,19.654165,0.999427,0.987583,0.004637,0.420311,0.000464,0.000388,-0.000025,0.000471,0.000380,-16.846818,0.000853,
2476,2698,4.73024003548449,1.09304262005204,-0.0298014368681265,0.007737,-0.078356,-0.003567,0.335025,-3.586408,319.999027,20.749790,0.999650,0.989433,0.004102,0.395001,0.000109,0.000080,0.000008,0.000111,0.000078,14.087167,0.000190,
