Image X[Pixel],Image Y[Pixel],X[mm],Y[mm],Z[mm],Horizontal Displacement U[mm],Vertical Displacement V[mm],Out-Of-Plane: W[mm],Horizontal: u[Pixel],Vertical: v[Pixel],Horizontal: q[Pixel],Vertical: r[Pixel],Correlation Value 2D,Correlation Value Persp,Sigma,Epipolar Distance,Strain-global frame: Exx,Strain-global frame: Eyy,Strain-global frame: Exy,Maximum Principal Strain: EI,Minimum Principal Strain: EII,Shear Angle Gamma,Von Mises Equivalent Strain,
2011,1993,-5.28549402439169,-14.2534557074248,0.0227740869779041,-0.000831,-0.001221,-0.007641,-0.017940,-0.058640,332.321811,24.812183,0.998570,0.980399,0.005598,0.403870,0.000505,0.000185,0.000119,0.000545,0.000145,18.338622,0.000728,
2026,2068,-4.96839326660371,-12.6097424607241,0.0280776916159198,0.000232,-0.001373,-0.000909,0.012688,-0.033040,331.102679,24.676142,0.999648,0.992044,0.003758,0.429164,0.000364,0.000301,0.000121,0.000457,0.000208,37.741135,0.000680,
2071,2293,-4.02216817297623,-7.68076184344712,-0.00419795591983529,0.001841,-0.000143,-0.002657,0.092103,0.019298,327.044010,24.415412,0.999755,0.992953,0.003893,0.454401,0.000108,0.000090,0.000039,0.000139,0.000059,38.442638,0.000203,
2041,2143,-4.65277496556459,-10.9646779843527,0.0151942565206582,0.000641,-0.000363,-0.004003,0.040365,-0.000144,329.730895,24.596605,0.998447,0.980959,0.005782,0.425868,0.000239,0.000251,0.000101,0.000346,0.000144,46.659594,0.000503,
2056,2218,-4.3366755581495,-9.32135866878343,0.00903073044571556,0.001780,-0.000232,-0.001524,0.085956,0.027671,328.434818,24.578411,0.998239,0.981570,0.005472,0.375386,0.000160,0.000141,0.000073,0.000224,0.000077,41.265046,0.000313,
2101,2443,-3.39239343916595,-4.40344752306081,-0.00756770677236318,0.002588,-0.000225,0.001567,0.114394,0.052221,324.470029,24.319309,0.999316,0.987552,0.004497,0.491074,0.000044,0.000016,0.000001,0.000044,0.000016,1.444233,0.000062,
2131,2593,-2.76506736884762,-1.12961140893078,-0.0241612663702426,0.002657,0.000020,0.002289,0.115532,0.084491,321.773343,24.299167,0.999411,0.989807,0.004250,0.532868,0.000011,0.000022,0.000002,0.000022,0.000011,78.190128,0.000034,
2026,2083,-4.97113972975202,-12.2799774115229,0.0223021877625342,0.000020,-0.001210,-0.000878,0.002903,-0.029722,330.804342,24.698466,0.999227,0.986332,0.004700,0.404059,0.000339,0.000308,0.000123,0.000447,0.000199,41.414649,0.000662,
2191,2893,-1.51024445553096,5.40023898720305,-0.00880687133764013,0.002960,-0.000492,0.004236,0.122986,0.036123,316.819516,24.580489,0.999791,0.994885,0.003153,0.426752,-0.000003,0.000011,0.000020,0.000025,-0.000017,54.782868,0.000025,
2341,2248,1.87068126663243,-8.66676163221216,0.00425302502952718,0.002316,-0.001443,0.006014,0.084658,0.009317,327.112181,23.189464,0.999200,0.981550,0.005144,0.446161,0.000123,0.000094,-0.000003,0.000123,0.000094,-6.550782,0.000218,
2116,2518,-3.07895209579523,-2.76527874608107,-0.0198580525465104,0.002481,-0.000069,0.001323,0.110193,0.033483,323.082479,24.358149,0.999226,0.987084,0.004463,0.418309,0.000036,0.000006,-0.000005,0.000037,0.000005,-10.219537,0.000045,
2011,2038,-5.29190092159774,-13.2643659163768,0.00768608848244412,0.000267,-0.000746,-0.004642,0.024543,-0.026930,331.518074,24.794358,0.998252,0.979425,0.005671,0.428801,0.000412,0.000238,0.000137,0.000487,0.000163,28.816101,0.000676,
2011,2008,-5.28831339856614,-13.9224242474803,0.0143297324465834,-0.000650,-0.001627,-0.001767,-0.025610,-0.034418,332.003328,24.869235,0.998516,0.982339,0.005451,0.363196,0.000473,0.000277,0.000147,0.000552,0.000198,28.081285,0.000777,
2146,2668,-2.45088099731783,0.503875316234101,-0.0221546729845272,0.002672,0.000185,-0.001509,0.127684,0.047782,320.526739,24.303324,0.999623,0.991482,0.003686,0.516945,0.000003,0.000027,-0.000004,0.000028,0.000002,-81.628896,0.000033,
2266,3283,0.0500552604402706,13.8660817149804,0.0117948924928442,0.003130,-0.000381,0.008350,0.116711,0.045889,310.430418,25.293194,0.999538,0.992179,0.003468,0.496376,-0.000010,0.000006,0.000010,0.000011,-0.000014,64.560945,0.000015,
2506,3073,5.30404188939349,9.33122744663468,0.00508311935539041,0.003005,-0.000559,0.006528,0.112671,0.015776,313.963345,25.819849,0.999646,0.991770,0.003924,0.454305,0.000019,0.000017,0.000040,0.000058,-0.000021,44.303590,0.000059,
2446,2773,4.05574185626864,2.80348024378347,-0.029805075496995,0.002410,-0.000510,0.002036,0.102920,0.006279,318.420666,24.541282,0.999469,0.987784,0.004421,0.476477,0.000022,0.000029,0.000012,0.000038,0.000013,53.563143,0.000053,
2296,2038,0.929212670230022,-13.2733275231947,0.0305153239857532,0.002036,-0.001805,-0.003374,0.103827,-0.069723,330.756125,23.000963,0.999204,0.983239,0.005152,0.299561,0.000328,0.000367,-0.000017,0.000373,0.000321,-68.936418,0.000695,
2146,2683,-2.4537711323032,0.83124751854109,-0.027229447968466,0.002950,-0.000663,0.003811,0.124082,0.023170,320.237408,24.363244,0.999446,0.989991,0.003872,0.440704,0.000000,0.000029,-0.000007,0.000031,-0.000002,-76.573956,0.000035,
2191,2908,-1.51287180283365,5.72473854867694,-0.00146025357048529,0.002624,-0.000398,0.007583,0.097079,0.050263,316.611369,24.498774,0.999778,0.994613,0.003255,0.536409,0.000001,0.000003,0.000016,0.000018,-0.000014,46.942933,0.000019,
2176,2818,-1.82509439927425,3.77085925149915,-0.0261515164250454,0.002448,-0.000356,0.006095,0.093788,0.031921,317.913865,24.540203,0.999322,0.990303,0.004001,0.375975,-0.000009,0.000020,0.000005,0.000021,-0.000009,80.326965,0.000021,
2026,2098,-4.97286695816451,-11.9507772357161,0.0238887393973641,0.000345,-0.000838,-0.001517,0.019686,-0.008075,330.593399,24.737651,0.999036,0.981026,0.005343,0.379764,0.000310,0.000300,0.000124,0.000429,0.000180,43.884658,0.000626,
2131,2608,-2.76720271635015,-0.803547419291078,-0.0190320240405981,0.002623,-0.000381,0.002249,0.113884,0.030624,321.572166,24.330748,0.999393,0.989249,0.004369,0.453472,0.000014,0.000013,0.000004,0.000017,0.000010,42.380884,0.000027,
2476,2923,4.67994200769551,6.07069809001812,-0.0154213400005005,0.002698,-0.000520,0.004895,0.105229,0.018950,316.157898,25.256710,0.999234,0.985677,0.004572,0.355072,0.000008,-0.000007,0.000017,0.000019,-0.000018,32.702276,0.000021,
2251,3193,-0.256813496260143,11.9130486431232,0.0431495377509918,0.003176,-0.000423,0.008162,0.119690,0.045924,312.199719,25.153956,0.999508,0.991966,0.003542,0.419553,0.000005,-0.000002,0.000009,0.000011,-0.000008,34.370726,0.000012,
2491,2998,4.9930535261018,7.70052924832063,0.00459389310083225,0.002975,-0.000602,0.005392,0.115857,0.017259,315.148478,25.516003,0.999409,0.987456,0.004188,0.416251,0.000023,-0.000022,0.000030,0.000038,-0.000037,26.581306,0.000043,
2086,2368,-3.7071805901322,-6.0416342758685,-0.00745226358827722,0.002189,-0.000233,-0.001818,0.105764,0.032101,325.745478,24.333991,0.998375,0.980824,0.005494,0.492381,0.000074,0.000054,0.000007,0.000076,0.000051,18.014572,0.000128,
2416,2623,3.4323747965949,-0.467811400911302,-0.0181432400779613,0.002330,-0.000901,0.007327,0.079863,0.036947,320.889971,24.061653,0.999317,0.988100,0.004227,0.488095,0.000038,0.000031,0.000013,0.000048,0.000021,37.039614,0.000071,
2071,2323,-4.02659657331266,-7.02518677338506,-0.000376338417083844,0.002101,-0.000460,0.002632,0.088914,0.029146,326.589635,24.430753,0.999220,0.987181,0.004644,0.446679,0.000091,0.000056,0.000017,0.000098,0.000049,22.563223,0.000149,
2086,2383,-3.70988915215713,-5.71280090779906,-0.0103323645036539,0.002111,-0.000309,-0.000094,0.097234,0.029873,325.470674,24.421071,0.998119,0.980387,0.005604,0.403960,0.000070,0.000047,0.000007,0.000072,0.000045,15.083632,0.000118,
2071,2308,-4.02564166938921,-7.35117416142113,-0.0150556892416489,0.001419,0.000175,-0.001501,0.069511,0.039229,326.689108,24.442991,0.999797,0.992631,0.003990,0.446048,0.000099,0.000071,0.000027,0.000115,0.000055,31.634212,0.000174,
2041,2158,-4.65611601705291,-10.6336625374162,0.00186961277040609,0.000808,-0.001328,0.003581,0.026731,-0.010707,329.365071,24.696517,0.999266,0.986658,0.004803,0.311252,0.000216,0.000209,0.000080,0.000292,0.000133,43.596050,0.000435,
2161,2743,-2.13780669090879,2.13771012770702,-0.0250538108997489,0.002858,-0.000462,0.005079,0.115896,0.033976,319.216914,24.393767,0.999373,0.988759,0.004243,0.458321,-0.000011,0.000019,-0.000006,0.000020,-0.000012,-79.612340,0.000020,
2431,2698,3.74449116211536,1.17008748917292,-0.0220135926451235,0.002498,-0.000247,0.004123,0.099403,0.032591,319.677562,24.453575,0.999744,0.991913,0.003703,0.330649,0.000027,0.000046,0.000001,0.000046,0.000027,86.113270,0.000073,
2056,2233,-4.3398490066905,-8.99263381284602,0.00243327209398103,0.001426,-0.000496,0.000928,0.062697,0.033007,328.115673,24.554813,0.999019,0.987447,0.004779,0.401970,0.000149,0.000131,0.000066,0.000207,0.000073,41.164111,0.000291,
2026,2113,-4.9755212612414,-11.6218998185783,0.0159523964974255,0.000586,-0.001600,0.002344,0.019975,-0.028011,330.287575,24.690720,0.998490,0.978450,0.005877,0.400335,0.000284,0.000287,0.000117,0.000403,0.000169,45.375815,0.000587,
2041,2173,-4.65765399947491,-10.3067211408379,0.0090618059755343,0.000914,-0.000792,0.001412,0.037760,0.013024,329.195473,24.615113,0.999257,0.987802,0.004569,0.411373,0.000204,0.000174,0.000077,0.000268,0.000111,39.382234,0.000389,
2236,3118,-0.570655479900907,10.2865573205618,0.0230458688035355,0.002888,-0.000373,0.008051,0.107034,0.047894,313.277789,24.979757,0.999579,0.991765,0.003694,0.425084,-0.000004,-0.000008,0.000003,-0.000003,-0.000009,28.355799,0.000013,
2311,2098,1.24506068610284,-11.9554887799787,0.0152017452129485,0.002482,-0.001682,-0.001264,0.117244,-0.034090,329.665118,22.985411,0.999228,0.981499,0.005500,0.393930,0.000262,0.000326,-0.000019,0.000331,0.000256,-74.681122,0.000589,
2266,3268,0.053335682442043,13.5407613906735,0.0198671729187367,0.003053,-0.000323,0.007619,0.115601,0.046591,310.743151,25.282801,0.999632,0.992629,0.003471,0.483461,-0.000004,0.000001,0.000009,0.000008,-0.000011,51.632326,0.000011,
2506,3088,5.30185380720657,9.6572735003462,0.0129762658486925,0.003007,-0.000217,0.003752,0.123687,0.027289,313.794430,25.933151,0.999699,0.992735,0.003474,0.412704,0.000021,0.000021,0.000041,0.000062,-0.000020,45.273818,0.000064,
2221,3043,-0.883879180423314,8.65873810399222,0.0131823911288507,0.002776,-0.000492,0.009089,0.098764,0.055273,314.448575,24.831265,0.999717,0.993565,0.003252,0.431384,0.000000,-0.000012,0.000002,0.000000,-0.000013,7.274442,0.000014,
2011,2023,-5.29008428587809,-13.5945419240627,0.0143744407637882,-0.000373,-0.001347,-0.003171,-0.008972,-0.072545,331.780972,24.804130,0.998526,0.981896,0.005474,0.381837,0.000436,0.000230,0.000136,0.000504,0.000162,26.447959,0.000695,
2341,2263,1.86823502864057,-8.33857536936842,0.00763676779791922,0.002331,-0.001054,0.004926,0.089311,-0.002987,326.902890,23.252223,0.999184,0.982428,0.005095,0.409828,0.000108,0.000083,-0.000004,0.000109,0.000082,-9.825014,0.000191,
2131,2623,-2.76966136790077,-0.476180504025464,-0.0192440940206779,0.002594,0.000187,0.001844,0.113909,0.038861,321.327165,24.378358,0.999456,0.989532,0.004192,0.420380,0.000009,0.000013,0.000001,0.000014,0.000009,81.143291,0.000023,
2251,3208,-0.259516551342749,12.237641550745,0.0420458356273343,0.003026,-0.000827,0.005119,0.122615,0.021085,311.948146,25.138186,0.999706,0.995005,0.003129,0.432613,0.000004,0.000001,0.000012,0.000015,-0.000009,41.593222,0.000015,
2476,2938,4.67732415853193,6.39635777597918,-0.0101391122432233,0.002751,-0.000442,0.005682,0.104665,0.016134,315.956573,25.295923,0.999375,0.988635,0.004117,0.369225,0.000010,-0.000019,0.000015,0.000017,-0.000026,23.261329,0.000026,
2101,2458,-3.3952107575587,-4.07565285660837,-0.0130603855545814,0.002434,-0.000194,0.000639,0.110023,0.044789,324.177724,24.318493,0.999394,0.987751,0.004376,0.487427,0.000042,0.000002,-0.000009,0.000043,0.000000,-12.343228,0.000050,
2491,3013,4.98972474135769,8.02726945208141,0.00159471743103268,0.003016,-0.000507,0.005927,0.115738,0.020154,314.877253,25.611315,0.999640,0.992139,0.003535,0.382190,0.000024,-0.000004,0.000026,0.000040,-0.000020,31.022318,0.000040,
2251,3223,-0.261625335076268,12.5624651016082,0.0513750198167031,0.002991,-0.000422,0.005810,0.118890,0.041782,311.776795,25.161848,0.999660,0.994302,0.003268,0.451577,0.000003,0.000011,0.000010,0.000017,-0.000004,56.533839,0.000018,
2236,3133,-0.573455764689644,10.6120934844892,0.0189464413176097,0.002991,-0.000491,0.007331,0.114051,0.039021,313.005130,24.998090,0.999644,0.992191,0.003708,0.417889,-0.000006,-0.000007,0.000006,-0.000001,-0.000012,43.374432,0.000015,
2386,2473,2.80862549152304,-3.74315287257458,-0.00842127830384243,0.002210,-0.000343,0.003548,0.088581,0.050395,323.384389,23.699656,0.999400,0.988938,0.004423,0.447485,0.000060,0.000008,0.000037,0.000079,-0.000011,27.453417,0.000086,
2101,2473,-3.39792397391239,-3.74816009134986,-0.0126093624510872,0.002279,-0.000576,0.003973,0.093079,0.045764,323.922287,24.342084,0.999355,0.988395,0.004321,0.467223,0.000042,-0.000001,-0.000007,0.000043,-0.000002,-9.047412,0.000049,
2326,2173,1.55783844990798,-10.3098745018915,0.0146720230973187,0.002111,-0.001571,0.005661,0.076632,0.004047,328.403837,23.168430,0.998743,0.978312,0.005571,0.345373,0.000189,0.000187,-0.000013,0.000202,0.000174,-42.246837,0.000376,
2176,2833,-1.82771177206971,4.09716999929167,-0.0310243689033314,0.002808,-0.000167,0.007701,0.105462,0.046794,317.640765,24.514017,0.999629,0.993860,0.003433,0.429364,-0.000001,0.000025,0.000010,0.000028,-0.000004,70.468273,0.000030,
2116,2533,-3.08171901071532,-2.43834333400427,-0.0218946183213689,0.002189,0.000116,0.000402,0.099582,0.040036,322.812527,24.322948,0.999024,0.985362,0.004834,0.464457,0.000030,0.000008,-0.000001,0.000030,0.000008,-1.989228,0.000040,
2191,2953,-1.52007480000209,6.70272755735608,0.00600999955520365,0.002609,-0.000407,0.007213,0.097580,0.044797,315.940842,24.631434,0.999364,0.991689,0.003713,0.440162,0.000004,0.000001,0.000015,0.000018,-0.000012,42.112246,0.000018,
2041,2203,-4.66193582567103,-9.64847591072873,-0.00098513705336245,0.001378,0.000242,-0.003822,0.073962,0.033805,328.665634,24.634205,0.998559,0.981770,0.005450,0.403541,0.000168,0.000154,0.000073,0.000234,0.000088,42.101269,0.000333,
2161,2758,-2.14046586294458,2.46365441803307,-0.0198337758031357,0.002519,-0.000633,0.007517,0.092788,0.038383,318.994000,24.399891,0.999101,0.985960,0.004478,0.466577,-0.000011,0.000014,-0.000006,0.000016,-0.000012,-77.541290,0.000017,
2191,2923,-1.51515104135163,6.05187095402145,-0.00231812031296386,0.002977,-0.000441,0.007516,0.113532,0.046577,316.375672,24.621563,0.999386,0.990769,0.003872,0.423817,0.000003,0.000004,0.000018,0.000022,-0.000015,46.065811,0.000022,
2266,3298,0.0477895359393479,14.1916930727944,0.0174638733707866,0.003101,-0.000325,0.007290,0.118888,0.043541,310.233629,25.410602,0.999586,0.992912,0.003436,0.400356,-0.000010,0.000014,-0.000002,0.000014,-0.000010,-85.029223,0.000015,
2296,2023,0.931447390032151,-13.6044709595786,0.023593205954171,0.002049,-0.002370,-0.003432,0.104406,-0.087203,330.941625,22.737304,0.998957,0.980296,0.005674,0.512554,0.000348,0.000381,-0.000016,0.000388,0.000342,-68.068847,0.000730,
2416,2638,3.42983814388232,-0.139965046300979,-0.0179395598837004,0.002480,-0.000549,0.004229,0.098181,0.025414,320.665758,24.185570,0.999411,0.988354,0.004235,0.400933,0.000036,0.000035,0.000008,0.000043,0.000028,43.078717,0.000072,
2026,2188,-4.98675182019878,-9.97813723206698,0.0100809384042577,0.000475,-0.000367,-0.000897,0.024116,0.026326,329.038897,24.697879,0.999048,0.985589,0.004940,0.413334,0.000201,0.000178,0.000090,0.000281,0.000098,41.428402,0.000394,
2071,2353,-4.03114418233549,-6.36890062519079,-0.00436387260833726,0.002167,-0.000160,-0.001247,0.103108,0.048683,326.087021,24.444407,0.998517,0.982257,0.005280,0.449895,0.000070,0.000043,0.000008,0.000073,0.000041,16.034937,0.000115,
2116,2548,-3.08427233814391,-2.11114221589628,-0.0282148710599017,0.002469,-0.000159,0.000661,0.111610,0.029708,322.529352,24.295935,0.999068,0.987326,0.004570,0.485599,0.000026,0.000015,0.000004,0.000027,0.000014,18.716882,0.000042,
2011,2083,-5.29864935199223,-12.2782369774467,0.0128098784650206,-0.000076,-0.001315,-0.000328,-0.003035,-0.017354,330.812502,24.807240,0.998544,0.980255,0.005598,0.399688,0.000351,0.000312,0.000121,0.000454,0.000209,40.481414,0.000678,
2221,3058,-0.885385390596355,8.98342767868846,0.0198600274990213,0.003169,-0.000160,0.005329,0.129054,0.058409,314.290021,24.808614,0.999764,0.994230,0.003039,0.474974,0.000004,-0.000020,0.000000,0.000004,-0.000020,0.276498,0.000021,
2356,2323,2.18330402684563,-7.02582038911374,0.00456979049567963,0.001799,-0.001412,0.007147,0.056846,0.001215,325.876738,23.271059,0.999732,0.993995,0.003664,0.492749,0.000080,0.000075,0.000015,0.000093,0.000062,39.981018,0.000156,
2056,2248,-4.34200464212036,-8.66520429084137,0.00262478206457217,0.001406,-0.000581,-0.000856,0.066811,-0.008002,327.880771,24.534687,0.998985,0.984929,0.004967,0.378222,0.000130,0.000127,0.000054,0.000183,0.000075,44.167041,0.000265,
2296,2053,0.926310052707993,-12.94399939926,0.0288087227102096,0.002176,-0.001766,-0.000587,0.100877,-0.041236,330.497610,22.996570,0.999127,0.982000,0.005243,0.366065,0.000310,0.000352,-0.000019,0.000359,0.000302,-69.161542,0.000662,
2086,2428,-3.71688857687036,-4.7310018262003,-0.00305565678985431,0.002003,-0.000326,0.005321,0.076688,0.056682,324.785137,24.401305,0.999066,0.986234,0.004618,0.452104,0.000059,0.000019,0.000015,0.000064,0.000014,18.026367,0.000083,
2476,2953,4.67460022956933,6.7217920008783,-0.00414980179965596,0.002677,-0.000627,0.006921,0.096471,0.012294,315.753567,25.323819,0.999338,0.988528,0.004167,0.393235,0.000014,-0.000021,0.000020,0.000023,-0.000031,24.293249,0.000032,
2206,2968,-1.1964696559859,7.02978635343649,0.00447405175503945,0.003052,-0.000362,0.004673,0.125802,0.049633,315.666858,24.695812,0.999332,0.990969,0.003838,0.432456,0.000004,0.000002,0.000011,0.000014,-0.000008,42.656884,0.000014,
2011,2053,-5.29470888677875,-12.9356516520127,0.0136166051742066,-0.000318,-0.001866,0.002432,-0.021765,-0.030768,331.281014,24.848028,0.999378,0.991132,0.003971,0.362880,0.000391,0.000273,0.000112,0.000458,0.000206,31.041374,0.000680,
2206,2983,-1.19964314618489,7.35648438650482,0.000341826953103919,0.002732,0.000140,0.004151,0.112892,0.059281,315.374316,24.760003,0.999369,0.991349,0.003737,0.394063,0.000003,0.000003,0.000012,0.000015,-0.000009,45.278210,0.000015,
2026,2128,-4.9777888176385,-11.2925508537498,0.0105954397127448,0.000726,-0.001335,0.000601,0.031231,-0.026094,330.013522,24.699239,0.998603,0.977734,0.006056,0.387436,0.000257,0.000269,0.000118,0.000382,0.000144,46.369200,0.000544,
2101,2488,-3.40027858268697,-3.42172393040212,-0.013498268372075,0.002275,-0.000615,0.002785,0.096310,0.024823,323.676367,24.283309,0.999294,0.988781,0.004203,0.507651,0.000037,-0.000002,-0.000006,0.000038,-0.000003,-9.025791,0.000042,
2086,2398,-3.71202886475422,-5.38552979322454,-0.00908706642707102,0.002159,-0.000021,-0.001154,0.102585,0.038461,325.244591,24.399326,0.998655,0.983676,0.005066,0.435040,0.000068,0.000043,0.000001,0.000068,0.000043,1.892875,0.000112,
2446,2788,4.05321581484754,3.13010219392121,-0.02517994084252,0.002608,-0.000452,0.003293,0.107374,0.020342,318.219118,24.608095,0.999369,0.988103,0.004302,0.475827,0.000023,0.000029,0.000005,0.000032,0.000020,58.992625,0.000052,
2041,2188,-4.65977594871526,-9.97764969664635,0.00511517455583999,0.001062,-0.000072,-0.001790,0.053664,0.044891,328.937270,24.606948,0.999123,0.985219,0.004916,0.446489,0.000186,0.000172,0.000085,0.000265,0.000093,42.674730,0.000371,
2116,2578,-3.08888550745141,-1.45764728749172,-0.0192047367492592,0.002247,-0.000528,0.003031,0.094295,0.024329,322.101936,24.349372,0.999380,0.989388,0.004262,0.435139,0.000020,0.000014,0.000004,0.000022,0.000012,25.587404,0.000035,
2296,2083,0.920128437286557,-12.2850058513475,0.0243470739063127,0.001927,-0.002153,0.001713,0.081637,-0.045692,329.958358,23.085505,0.999291,0.982795,0.005152,0.339429,0.000277,0.000327,-0.000013,0.000330,0.000274,-76.703718,0.000604,
2221,3073,-0.888206385443461,9.30909359151418,0.0214506085391122,0.002874,-0.000266,0.005360,0.115337,0.051813,314.044549,24.856140,0.999584,0.993132,0.003338,0.438928,0.000004,-0.000017,-0.000001,0.000004,-0.000018,-3.333719,0.000018,
2161,2803,-2.1472615646848,3.44294354553434,-0.0203307004957196,0.002837,-0.000013,0.000798,0.128253,0.037681,318.293869,24.463760,0.999531,0.991437,0.003829,0.432270,-0.000010,0.000009,-0.000002,0.000009,-0.000010,-85.329148,0.000011,
2386,2488,2.8057257005186,-3.41603991169747,-0.00691243400842723,0.002292,-0.000823,0.006189,0.082684,0.044151,323.148099,23.714418,0.999452,0.988761,0.004282,0.470842,0.000054,0.000006,0.000029,0.000068,-0.000008,25.043936,0.000074,
2071,2368,-4.03361365333318,-6.04152450317228,-0.00617079249434482,0.002085,-0.000484,-0.001723,0.100573,0.002722,325.828199,24.446495,0.997999,0.980229,0.005595,0.400521,0.000072,0.000049,0.000004,0.000073,0.000048,10.313130,0.000122,
2176,2848,-1.82947738020152,4.42229136301528,-0.0215756899335702,0.002864,-0.000516,0.006539,0.111578,0.047009,317.482156,24.505128,0.999406,0.991332,0.003688,0.450138,-0.000001,0.000018,0.000013,0.000025,-0.000008,62.991601,0.000026,
2236,3148,-0.5753892787416,10.9367156046706,0.0282534937177843,0.003008,-0.000270,0.006592,0.117314,0.042554,312.841150,25.005641,0.999291,0.990688,0.003904,0.433772,-0.000003,-0.000003,0.000009,0.000006,-0.000012,45.313063,0.000012,
2296,2068,0.923704044907009,-12.6153061994026,0.0285156757875598,0.002196,-0.001833,-0.002008,0.106597,-0.060168,330.259924,23.002966,0.999225,0.982184,0.005190,0.374013,0.000292,0.000341,-0.000016,0.000346,0.000287,-73.232564,0.000635,
2086,2443,-3.71959198010066,-4.40224882391701,-0.0172263188718489,0.002096,0.000051,-0.001697,0.101304,0.029149,324.449377,24.421076,0.999330,0.987170,0.004525,0.405796,0.000057,0.000016,0.000008,0.000059,0.000014,10.169896,0.000077,
2056,2263,-4.34391207403351,-8.33631963983479,-0.00318675995271178,0.002107,-0.000598,-0.001119,0.099757,0.005036,327.623702,24.537510,0.999016,0.983465,0.005300,0.385256,0.000120,0.000110,0.000052,0.000167,0.000063,42.385376,0.000238,
2251,3253,-0.2683085247977,13.2142378854863,0.0307232020895754,0.003059,-0.000062,0.004172,0.127546,0.045586,311.120046,25.230864,0.999661,0.993595,0.003312,0.430192,-0.000004,-0.000004,0.000011,0.000006,-0.000015,45.557231,0.000015,
2221,3103,-0.892904035255064,9.95933375367775,0.0246427001727056,0.003116,-0.000297,0.003834,0.131348,0.030153,313.597375,24.870326,0.999427,0.991960,0.003687,0.438845,-0.000002,-0.000004,0.000002,-0.000001,-0.000005,25.447307,0.000006,
2431,2713,3.74252662236553,1.49469029724092,-0.0115684039998882,0.002793,-0.000478,0.005879,0.106366,0.030861,319.528685,24.376185,0.999712,0.991522,0.003736,0.456426,0.000020,0.000048,0.000002,0.000048,0.000020,85.167391,0.000070,
2251,3238,-0.264703771581033,12.8876054519144,0.0427149782320839,0.003027,0.000098,0.003052,0.129772,0.048817,311.469299,25.129214,0.999773,0.995485,0.002979,0.513283,0.000000,0.000003,0.000010,0.000011,-0.000008,49.175172,0.000011,
2011,2098,-5.30088202424364,-11.9482155120404,0.0105760247157036,0.000039,-0.000743,0.000629,-0.000169,0.018260,330.555679,24.865983,0.998463,0.977725,0.005888,0.367901,0.000320,0.000300,0.000127,0.000437,0.000183,42.737434,0.000637,
2071,2338,-4.02842380735161,-6.69777744178797,0.000850537883479774,0.002097,0.000084,-0.003759,0.107085,0.038589,326.376487,24.399802,0.998705,0.985585,0.004884,0.485479,0.000080,0.000043,0.000009,0.000082,0.000041,13.252135,0.000126,
2506,3103,5.2993367819566,9.98231417110271,0.0140250800350827,0.003379,-0.000310,0.002437,0.145855,0.014803,313.579906,25.937576,0.999666,0.992458,0.003478,0.455811,0.000019,0.000008,0.000043,0.000057,-0.000030,41.413557,0.000057,
2146,2728,-2.46116659109393,1.8103712861137,-0.0202675972302018,0.002615,-0.000301,0.005215,0.104564,0.041088,319.546006,24.386672,0.999445,0.989588,0.004148,0.459463,-0.000001,0.000026,-0.000003,0.000027,-0.000002,-83.063185,0.000030,
2356,2338,2.18026824090446,-6.69547942394367,-0.00150799124776313,0.001705,-0.000803,0.002285,0.069860,0.009769,325.595439,23.441675,0.999426,0.988257,0.004484,0.371535,0.000073,0.000081,0.000019,0.000096,0.000058,50.540068,0.000156,
2026,2203,-4.98921553696029,-9.64864186534299,-0.00436583959492509,0.001010,-0.000299,-0.002043,0.051868,0.010920,328.705488,24.670885,0.998954,0.984327,0.005161,0.418190,0.000185,0.000158,0.000077,0.000250,0.000094,39.876446,0.000355,
2026,2143,-4.97946617198487,-10.9640534483234,0.00886947236665492,0.001093,-0.000200,-0.003418,0.059457,0.013420,329.786563,24.637693,0.998318,0.977702,0.005948,0.481401,0.000244,0.000259,0.000105,0.000357,0.000147,47.026395,0.000518,
2101,2533,-3.40849583637521,-2.43808768590529,-0.0285406816548743,0.002152,-0.000309,0.002729,0.090985,0.036002,322.817656,24.348697,0.999462,0.990767,0.003995,0.460857,0.000030,0.000007,0.000006,0.000032,0.000005,14.541824,0.000040,
2101,2503,-3.40288459922217,-3.09340972308773,-0.0164493015145695,0.002146,-0.000331,0.001364,0.094663,0.038683,323.407222,24.348031,0.999265,0.988778,0.004182,0.459219,0.000040,-0.000001,-0.000005,0.000041,-0.000001,-7.324776,0.000047,
2131,2638,-2.77056567080436,-0.151621611253326,-0.00332461366417647,0.003009,-0.000513,0.000652,0.136393,0.019332,321.240247,24.336980,0.999692,0.992382,0.003577,0.448096,0.000008,0.000018,0.000003,0.000019,0.000007,75.903396,0.000027,
2281,1993,0.609172675675982,-14.2609691235624,0.0268487330144467,0.001892,-0.002382,-0.002924,0.095386,-0.081364,331.455821,22.972804,0.999253,0.968723,0.006825,0.321751,0.000360,0.000396,-0.000024,0.000408,0.000348,-63.200364,0.000757,
2041,2233,-4.66619009278184,-8.99248850500406,0.00229040895266053,0.001636,-0.000562,0.000262,0.074220,0.009297,328.211366,24.653731,0.998850,0.982899,0.005281,0.349247,0.000146,0.000123,0.000068,0.000203,0.000065,40.198191,0.000280,
2416,2653,3.42744207244727,0.186540950118861,-0.0127030101982655,0.003152,-0.001133,0.010985,0.104159,0.041712,320.471672,24.205471,0.999472,0.988540,0.004292,0.445376,0.000028,0.000037,0.000008,0.000042,0.000023,59.143050,0.000067,
2251,3283,-0.274891743652855,13.8647068696735,0.0113298998198843,0.003352,-0.000425,0.005488,0.136628,0.033896,310.474556,25.222642,0.999437,0.991713,0.003654,0.470523,-0.000019,0.000006,0.000013,0.000012,-0.000025,66.681253,0.000025,
2341,2278,1.86477329289462,-8.01000535102191,-0.000514202314889189,0.001881,-0.001054,-0.000540,0.087676,-0.044690,326.591312,23.267479,0.999150,0.982292,0.005123,0.391885,0.000096,0.000083,0.000002,0.000096,0.000083,7.438177,0.000179,
2161,2773,-2.14316584087591,2.79091463899871,-0.0264948723705629,0.002706,-0.000428,0.006480,0.104650,0.031588,318.706232,24.448754,0.999399,0.989878,0.004012,0.421250,-0.000009,0.000013,-0.000004,0.000014,-0.000010,-79.827291,0.000015,
2011,2113,-5.30220802005355,-11.6213870271988,0.0173141442361384,0.000369,-0.001063,-0.000968,0.019212,-0.020817,330.391382,24.811323,0.998391,0.979417,0.005837,0.374135,0.000292,0.000283,0.000123,0.000410,0.000165,44.033993,0.000592,
2191,2938,-1.51702198038691,6.37749564087292,-0.00108508088527515,0.003181,-0.000101,0.001481,0.141976,0.039265,316.170075,24.628381,0.999433,0.992019,0.003689,0.423935,0.000001,0.000006,0.000017,0.000021,-0.000014,48.679021,0.000021,
2326,2188,1.55632726351767,-9.98246195977406,0.0148790926696734,0.002463,-0.000502,-0.006028,0.133335,-0.028773,328.221187,23.121404,0.999073,0.981509,0.005291,0.396429,0.000172,0.000172,-0.000012,0.000184,0.000160,-44.522605,0.000344,
2236,3178,-0.579875351930202,11.5864083820614,0.0392709021658106,0.003093,-0.000214,0.006892,0.120222,0.031853,312.445700,25.042464,0.999398,0.990771,0.003761,0.425960,0.000002,-0.000002,0.000012,0.000011,-0.000012,39.683443,0.000014,
2221,3088,-0.89104880337494,9.63459624490749,0.0173834778709647,0.002877,-0.000494,0.004280,0.118811,0.027451,313.769030,24.874161,0.999349,0.992873,0.003451,0.414480,0.000002,-0.000014,0.000000,0.000002,-0.000014,-1.600138,0.000016,
2251,3268,-0.271859091677641,13.5398906597822,0.0166243015686973,0.003195,-0.000044,0.003894,0.134776,0.056071,310.762875,25.222282,0.999496,0.991876,0.003624,0.471314,-0.000009,0.000002,0.000011,0.000009,-0.000016,58.225862,0.000016,
2296,2113,0.914053532945037,-11.6259478463785,0.00998845190309794,0.002067,-0.001246,-0.001955,0.100735,-0.015087,329.374772,23.060561,0.999049,0.979991,0.005492,0.461930,0.000242,0.000293,-0.000009,0.000295,0.000240,-80.564655,0.000536,
2041,2218,-4.66406481077036,-9.32073147079061,0.000726599663494198,0.001533,0.000177,-0.001157,0.073658,0.047799,328.438745,24.593373,0.997474,0.976513,0.006100,0.453216,0.000156,0.000135,0.000078,0.000224,0.000066,41.173230,0.000305,
2116,2593,-3.09086905997655,-1.13207166770091,-0.0143191747476976,0.002328,-0.000629,0.002621,0.099194,0.017752,321.905394,24.281978,0.999537,0.990742,0.004030,0.500086,0.000013,0.000020,0.000008,0.000025,0.000008,56.905837,0.000035,
2086,2413,-3.71395703874558,-5.05902970208147,-0.0038911398351047,0.002409,-0.000432,0.001562,0.106120,0.029471,325.049888,24.366839,0.998747,0.984896,0.004820,0.458661,0.000068,0.000030,0.000004,0.000069,0.000029,6.605060,0.000101,
2446,2803,4.05008356163694,3.4578371834628,-0.0277620331495427,0.002659,-0.000297,0.002907,0.111237,0.024422,317.956132,24.735688,0.999504,0.989662,0.004013,0.404362,0.000023,0.000018,0.000008,0.000029,0.000013,36.653656,0.000042,
2161,2818,-2.14985755310132,3.76963418932057,-0.0134137621943751,0.002539,-0.000217,0.004454,0.103253,0.032805,318.082573,24.576504,0.999662,0.993438,0.003413,0.324412,-0.000008,0.000019,0.000002,0.000020,-0.000009,84.936187,0.000020,
2506,3118,5.29598129278832,10.3087681814114,0.0161442659410227,0.003058,-0.000420,0.003817,0.125806,0.040857,313.331000,26.044470,0.999488,0.991544,0.003729,0.435111,0.000014,0.000025,0.000031,0.000051,-0.000012,50.302173,0.000053,
2371,2398,2.49632343218157,-5.38414671703355,-0.00133051521902416,0.002047,-0.000817,0.003479,0.081229,0.014065,324.643050,23.468186,0.999401,0.987708,0.004611,0.465405,0.000078,0.000065,0.000040,0.000112,0.000031,40.249129,0.000151,
2311,2113,1.24238151276511,-11.6279184316384,0.0222090915905255,0.002103,-0.001701,-0.000070,0.095841,-0.037188,329.461072,22.970578,0.999222,0.981631,0.005357,0.440812,0.000246,0.000310,-0.000017,0.000314,0.000242,-76.283235,0.000557,
2056,2278,-4.34674879133213,-8.007196217627,-0.00119901292390523,0.001649,-0.000545,0.002601,0.068282,0.036763,327.366880,24.628545,0.999624,0.990809,0.004208,0.322894,0.000109,0.000083,0.000044,0.000142,0.000050,36.731865,0.000199,
2206,3028,-1.2069761335251,8.33200144985567,0.012260314852881,0.002802,-0.000546,0.010139,0.096858,0.040669,314.724440,24.768071,0.999572,0.992858,0.003518,0.414859,-0.000001,-0.000006,0.000003,0.000001,-0.000007,23.194866,0.000008,
2071,2383,-4.03626970687662,-5.71334667861698,-0.00414226802541862,0.001768,-0.000256,0.000799,0.078916,0.036357,325.581291,24.484798,0.998566,0.983559,0.005163,0.394421,0.000070,0.000041,0.000004,0.000071,0.000041,7.761122,0.000113,
2011,2068,-5.29585055558392,-12.6081384221178,0.0199437872456087,0.000160,-0.001294,-0.000037,0.007010,-0.029402,331.122385,24.795871,0.999354,0.990509,0.004076,0.407191,0.000376,0.000311,0.000114,0.000462,0.000225,37.058679,0.000701,
2026,2158,-4.98211788792639,-10.6341333148308,0.00936901242351951,0.000865,-0.000966,0.000693,0.037498,0.001712,329.527491,24.786288,0.999239,0.986052,0.004756,0.314331,0.000222,0.000212,0.000083,0.000301,0.000134,43.292101,0.000445,
2071,2443,-4.04493708663852,-4.40416822860031,-0.00414172266005153,0.002228,-0.000174,-0.000985,0.105214,0.013810,324.640365,24.442221,0.999214,0.987003,0.004537,0.407809,0.000054,0.000014,0.000010,0.000056,0.000011,13.610522,0.000072,
2221,3118,-0.895141919311623,10.2850769446936,0.0323718770320056,0.003082,-0.000097,0.005339,0.125016,0.046483,313.410183,24.951438,0.999549,0.991507,0.003773,0.391770,-0.000008,-0.000003,0.000001,-0.000003,-0.000008,75.314887,0.000012,
2101,2518,-3.40539303224374,-2.76578099275093,-0.0216246121815971,0.002368,-0.000610,0.001683,0.103868,0.022044,323.130806,24.365604,0.999627,0.992218,0.003652,0.427288,0.000034,0.000003,0.000000,0.000034,0.000003,0.577065,0.000042,
2176,2878,-1.83352911808494,5.07347972451466,-0.00545380590131117,0.002771,-0.000348,0.006043,0.108932,0.059016,317.126211,24.551379,0.999527,0.992623,0.003458,0.439809,0.000002,0.000016,0.000015,0.000025,-0.000008,57.407617,0.000026,
2431,2728,3.73921466111073,1.82072608132839,-0.0120969541112572,0.002729,-0.000917,0.008788,0.092510,0.015410,319.266574,24.359180,0.999736,0.991883,0.003626,0.508009,0.000012,0.000045,0.000013,0.000049,0.000008,70.183747,0.000062,
2296,2098,0.917237173734886,-11.9551118615824,0.0179642820633603,0.002158,-0.001782,0.000823,0.095319,-0.018446,329.677104,23.099888,0.999059,0.980589,0.005474,0.385992,0.000258,0.000309,-0.000011,0.000311,0.000255,-78.770328,0.000567,
2356,2353,2.17842154113771,-6.37041799379603,0.00160345327026334,0.002443,-0.001106,0.002399,0.103154,0.002862,325.413632,23.240314,0.999456,0.988323,0.004614,0.606417,0.000066,0.000074,0.000025,0.000095,0.000045,49.301463,0.000143,
2056,2308,-4.35059679619343,-7.35342842315648,0.00659012317373708,0.001937,-0.000440,0.004091,0.077385,0.055001,326.958806,24.499030,0.999664,0.990142,0.004210,0.463751,0.000095,0.000069,0.000027,0.000113,0.000052,32.202883,0.000168,
2101,2548,-3.41112900376869,-2.11172051354101,-0.0340606521868949,0.002322,-0.000554,0.003884,0.095323,0.025111,322.533955,24.253161,0.999593,0.993380,0.003702,0.547637,0.000027,0.000014,0.000010,0.000032,0.000009,28.456443,0.000043,
2251,3298,-0.277188305759925,14.1896387151149,0.0186779132932315,0.003321,-0.000355,0.006785,0.130944,0.034628,310.284324,25.283076,0.999275,0.990658,0.003813,0.432571,-0.000027,0.000013,0.000000,0.000013,-0.000027,89.340962,0.000027,
2041,2248,-4.66838087264279,-8.66505316143488,-0.000971546304072035,0.001693,-0.000361,-0.002651,0.084998,0.003865,327.954373,24.563022,0.999044,0.984444,0.004945,0.429306,0.000128,0.000118,0.000053,0.000176,0.000070,42.394708,0.000253,
2086,2458,-3.72199450141072,-4.07579168401703,-0.0134850046747488,0.002153,-0.000496,0.003929,0.087520,0.030193,324.225077,24.375492,0.999405,0.988211,0.004388,0.452607,0.000054,-0.000002,-0.000003,0.000054,-0.000002,-3.026203,0.000062,
2386,2503,2.80330375888518,-3.08810741527163,-0.00363964506573211,0.002471,-0.000602,0.005718,0.092693,0.047215,322.941865,23.815591,0.999600,0.990067,0.003996,0.417153,0.000047,0.000007,0.000024,0.000058,-0.000004,24.939469,0.000065,
2086,2518,-3.73058858001633,-2.76724983067427,-0.0120284610850945,0.002490,-0.000130,-0.001832,0.119815,0.023329,323.300465,24.373897,0.999446,0.991015,0.003886,0.448158,0.000042,-0.000002,0.000003,0.000042,-0.000002,3.646846,0.000047,
2011,2143,-5.30679894242461,-10.9623274620296,0.0036348186123405,0.000885,-0.000396,-0.001420,0.044314,0.030340,329.820931,24.787681,0.998076,0.978690,0.005935,0.431332,0.000260,0.000261,0.000112,0.000372,0.000149,45.147694,0.000537,
2266,2023,0.275943994796325,-13.6015393850431,0.0270548762446197,0.001472,-0.001578,-0.005092,0.083510,-0.045769,330.982766,23.135383,0.998985,0.977708,0.006031,0.359145,0.000327,0.000378,0.000009,0.000380,0.000325,79.944801,0.000705,
2041,2293,-4.67460356924397,-7.68239205356582,0.0106378020697662,0.001765,-0.000605,0.002188,0.074827,0.020731,327.317464,24.538638,0.999809,0.992906,0.003940,0.454119,0.000111,0.000082,0.000041,0.000140,0.000053,35.045706,0.000199,
2131,2683,-2.7785279216689,0.828537625285321,-0.00560909167484169,0.002749,-0.000575,0.003912,0.114696,0.031732,320.470158,24.339153,0.999506,0.990805,0.003806,0.476714,-0.000002,0.000031,-0.000006,0.000032,-0.000003,-80.280094,0.000036,
2326,2203,1.55305384666049,-9.653163010593,0.0108930220003458,0.002292,-0.000695,-0.005750,0.124509,-0.023067,327.936951,23.169837,0.999135,0.981365,0.005467,0.390713,0.000155,0.000154,-0.000007,0.000162,0.000147,-41.890353,0.000309,
2296,2128,0.911675307290967,-11.2974505757042,0.0178289917796519,0.001859,-0.001131,-0.001471,0.089666,-0.022790,329.187436,23.148900,0.999078,0.980866,0.005365,0.398668,0.000229,0.000280,-0.000008,0.000281,0.000227,-81.418514,0.000509,
2506,3133,5.29272381464362,10.6345896897525,0.0175997838227318,0.003084,-0.000263,0.007550,0.112664,0.060245,313.083740,26.099233,0.999502,0.991575,0.003686,0.459787,0.000021,0.000018,0.000022,0.000042,-0.000003,42.866722,0.000046,
2116,2608,-3.0933161806197,-0.804531047776123,-0.0193568264716646,0.002506,-0.000467,0.000830,0.112762,0.014900,321.633837,24.309761,0.999260,0.987802,0.004493,0.473803,0.000015,0.000010,0.000009,0.000022,0.000003,36.743288,0.000028,
2266,1993,0.28088217251025,-14.2601849215516,0.0200415584480425,0.001668,-0.001966,-0.004354,0.089915,-0.079824,331.413195,23.032018,0.999118,0.964616,0.007260,0.370378,0.000366,0.000388,-0.000007,0.000390,0.000364,-73.160871,0.000754,
2161,2833,-2.15192248699088,4.09431629060535,-0.00799277046746738,0.002668,-0.000163,0.005182,0.106999,0.036473,317.888334,24.488284,0.999596,0.993593,0.003411,0.426075,-0.000003,0.000022,0.000005,0.000023,-0.000004,78.990915,0.000025,
2416,2668,3.42418704687601,0.514273522508709,-0.0127608764022398,0.002701,-0.000842,0.009091,0.090438,0.024971,320.213121,24.330997,0.999407,0.988024,0.004441,0.351292,0.000026,0.000036,0.000005,0.000038,0.000024,66.527309,0.000063,
2311,2128,1.23943109829691,-11.2971332960221,0.0231830346301081,0.001798,-0.001200,-0.000594,0.083884,-0.024805,329.214555,23.172764,0.999276,0.983464,0.005085,0.286113,0.000233,0.000296,-0.000014,0.000299,0.000230,-78.099287,0.000530,
2026,2173,-4.98384779974769,-10.3065408211264,0.011624706493194,0.001013,-0.000471,-0.002204,0.052381,0.005918,329.320653,24.730577,0.999148,0.987655,0.004570,0.367035,0.000216,0.000176,0.000080,0.000278,0.000114,37.947303,0.000402,
2056,2293,-4.34861382390108,-7.68137040314976,0.00479648969593427,0.001611,-0.000402,0.001657,0.069252,0.038940,327.177326,24.492920,0.999848,0.993861,0.003633,0.457233,0.000105,0.000090,0.000041,0.000139,0.000056,39.843352,0.000201,
2236,3193,-0.582831496514874,11.911588856112,0.0369149480519582,0.003026,-0.000423,0.007670,0.114632,0.036653,312.174810,25.040117,0.999337,0.990440,0.003844,0.452930,0.000001,-0.000002,0.000010,0.000010,-0.000011,40.660928,0.000012,
2071,2458,-4.04697795339737,-4.07756147611602,-0.00473332767194279,0.002613,-0.000487,0.000240,0.119322,-0.000360,324.407889,24.383954,0.999519,0.989156,0.004287,0.450013,0.000049,-0.000005,-0.000002,0.000049,-0.000005,-1.974061,0.000054,
2341,2293,1.86246943563541,-7.68080214578492,0.0012695386325845,0.002417,-0.000771,0.001611,0.104883,0.003174,326.380294,23.357212,0.999076,0.984753,0.004861,0.388822,0.000087,0.000083,0.000007,0.000092,0.000078,37.826376,0.000170,
2206,3043,-1.20914358458878,8.65727148828903,0.019153373087363,0.002568,-0.000378,0.007312,0.095166,0.046605,314.535585,24.793806,0.999784,0.995105,0.003089,0.410983,0.000002,-0.000011,0.000004,0.000003,-0.000012,14.560061,0.000012,
2176,2893,-1.83517936259297,5.39833050997893,0.00341158297356969,0.002767,0.000100,0.001708,0.122301,0.045787,316.969960,24.535865,0.999789,0.995413,0.003080,0.453935,-0.000001,0.000009,0.000017,0.000021,-0.000013,52.983842,0.000022,
2071,2398,-4.03841546208924,-5.38607274189171,-0.00805476657427562,0.002103,-0.000388,-0.000304,0.097450,0.025777,325.325663,24.432360,0.998882,0.984920,0.005009,0.434892,0.000068,0.000038,-0.000001,0.000068,0.000038,-1.890447,0.000107,
2011,2158,-5.30932164841395,-10.6330057973178,0.00435685412395515,0.000653,-0.000770,0.001316,0.026158,0.016790,329.567857,24.885964,0.998259,0.978886,0.005963,0.310582,0.000233,0.000212,0.000090,0.000313,0.000132,41.749392,0.000457,
2371,2413,2.4940950224931,-5.05555062122876,-0.00201654534964746,0.002592,-0.000700,0.001551,0.113099,-0.002062,324.426011,23.582865,0.999560,0.988537,0.004420,0.376991,0.000073,0.000063,0.000043,0.000111,0.000025,41.853033,0.000145,
2221,3133,-0.897896268625264,10.6092743482953,0.031678498791166,0.003155,-0.000254,0.007386,0.121734,0.034446,313.156456,24.869590,0.999606,0.992435,0.003603,0.479383,-0.000010,-0.000004,0.000004,-0.000002,-0.000012,64.384215,0.000015,
2221,3193,-0.907500840512522,11.9099879490751,0.0425678657446724,0.003196,-0.000336,0.005077,0.131134,0.041859,312.275208,24.967949,0.999423,0.992036,0.003647,0.459270,-0.000003,-0.000007,0.000011,0.000006,-0.000016,40.014632,0.000017,
2146,2743,-2.46355600138212,2.13624360661713,-0.0154443304518281,0.002444,-0.000465,0.006093,0.093965,0.038670,319.332443,24.385049,0.999448,0.989845,0.004158,0.466475,-0.000005,0.000020,-0.000007,0.000022,-0.000006,-75.782676,0.000023,
2101,2563,-3.4128702136165,-1.78461516706565,-0.0240683705231959,0.002475,-0.000799,0.006176,0.095605,0.029256,322.374609,24.352068,0.999255,0.988883,0.004316,0.454630,0.000027,0.000014,0.000010,0.000032,0.000009,28.176199,0.000043,
2191,2983,-1.52472222904239,7.35393435994289,0.00927024719123892,0.002865,-0.000353,0.006811,0.110658,0.044110,315.492145,24.652031,0.999334,0.991368,0.003776,0.446644,0.000005,0.000002,0.000013,0.000017,-0.000010,41.828458,0.000017,
2506,3148,5.290172131909,10.9598678905939,0.0262294432556587,0.003037,-0.000439,0.009251,0.103784,0.047880,312.901275,26.182838,0.999520,0.990556,0.003782,0.423564,0.000019,-0.000002,0.000022,0.000032,-0.000015,32.546811,0.000032,
2101,2593,-3.4172234641095,-1.13198572747167,-0.012873851101233,0.002193,-0.000705,0.006526,0.081656,0.015048,321.969113,24.361515,0.999224,0.988142,0.004369,0.434867,0.000014,0.000019,0.000014,0.000030,0.000003,49.835519,0.000037,
2041,2263,-4.67019321293695,-8.33731779652028,0.00226913871534862,0.001949,-0.000457,-0.002146,0.095332,0.018923,327.750449,24.551019,0.999195,0.985546,0.004818,0.450814,0.000118,0.000098,0.000051,0.000160,0.000056,39.633506,0.000224,
2386,2518,2.80035968341626,-2.76091148753472,-0.0074963680331166,0.002420,-0.000119,0.001932,0.104109,0.048192,322.677957,23.791512,0.999523,0.988501,0.004319,0.486808,0.000040,-0.000002,0.000023,0.000051,-0.000012,23.753513,0.000053,
2026,2278,-4.99912887527431,-8.00894987551811,-0.000793156999179701,0.001789,-0.000279,-0.003899,0.092821,0.006018,327.571079,24.628289,0.998458,0.982865,0.005328,0.418615,0.000138,0.000065,0.000037,0.000153,0.000049,22.735433,0.000211,
2041,2308,-4.6774289828865,-7.35362179774945,0.00704675185380665,0.001654,-0.000774,0.006318,0.058222,0.039988,327.029325,24.562914,0.999753,0.990655,0.004264,0.443696,0.000105,0.000060,0.000028,0.000119,0.000046,25.786944,0.000170,
2356,2368,2.17495270391061,-6.04013597507839,0.000881666819338989,0.002185,-0.001106,0.006331,0.077556,0.028969,325.138013,23.451353,0.999093,0.984820,0.004907,0.462526,0.000064,0.000068,0.000033,0.000099,0.000033,46.709670,0.000137,
2086,2473,-3.72481797556603,-3.74806515452509,-0.0152060778602845,0.001922,-0.000715,0.006099,0.070615,0.042624,323.951512,24.388793,0.999377,0.988765,0.004363,0.452212,0.000055,-0.000007,-0.000001,0.000055,-0.000007,-0.983746,0.000060,
2266,2038,0.272880599751371,-13.2719947209504,0.026175594930578,0.001497,-0.001710,0.000053,0.067681,-0.020520,330.718333,23.157503,0.998998,0.979602,0.005626,0.391696,0.000309,0.000370,0.000008,0.000371,0.000308,82.619198,0.000680,
2086,2533,-3.73318350267299,-2.43977622612007,-0.0115858513137255,0.002423,-0.000068,0.001384,0.107485,0.039206,323.049180,24.399639,0.999604,0.992107,0.003792,0.438380,0.000036,0.000003,0.000010,0.000039,0.000000,15.362422,0.000045,
2296,2173,0.903001218702101,-10.3102469756076,0.00354345385653687,0.002162,-0.000751,-0.004536,0.114025,-0.005128,328.367736,23.154153,0.999411,0.981489,0.005345,0.509965,0.000182,0.000171,-0.000005,0.000184,0.000169,-22.026504,0.000353,
2131,2698,-2.78212098946965,1.15633916987252,-0.0175489730467575,0.002561,-0.000772,0.006522,0.098187,0.025169,320.110486,24.367951,0.999454,0.989947,0.003955,0.447574,0.000000,0.000025,-0.000004,0.000026,-0.000001,-80.987604,0.000029,
2296,2143,0.908662946021625,-10.966070398307,0.0131722946828177,0.001945,-0.000991,-0.001204,0.092780,-0.019948,328.908956,23.359841,0.999308,0.982654,0.005257,0.223433,0.000213,0.000237,-0.000003,0.000237,0.000213,-82.431389,0.000450,
2266,2008,0.278851728533965,-13.9314956029201,0.0296471631576196,0.001641,-0.002037,-0.003693,0.086465,-0.071840,331.248661,23.101746,0.999256,0.981608,0.005397,0.337475,0.000345,0.000374,0.000001,0.000374,0.000345,87.475185,0.000720,
2206,3058,-1.21155485201362,8.98251077736652,0.0193982545339395,0.002749,-0.000443,0.007330,0.103446,0.043581,314.301114,24.785562,0.999740,0.994485,0.003139,0.431803,0.000006,-0.000017,0.000002,0.000006,-0.000018,5.176421,0.000018,
2071,2473,-4.04917430283626,-3.7498274492211,-0.0045789119130859,0.002578,-0.000077,-0.002116,0.124616,0.030339,324.171946,24.395973,0.999418,0.988657,0.004448,0.467002,0.000050,-0.000011,0.000001,0.000050,-0.000011,0.573861,0.000053,
2161,2848,-2.15464933686431,4.41940446113229,-0.0098022644110074,0.002651,-0.000628,0.006314,0.102630,0.027665,317.625508,24.399418,0.999632,0.993968,0.003273,0.516134,-0.000004,0.000016,0.000007,0.000019,-0.000006,71.885052,0.000019,
2236,3208,-0.584664156728763,12.2368817067578,0.0449516356219419,0.003142,0.000013,0.005538,0.127128,0.060994,312.008672,25.092852,0.999401,0.991994,0.003697,0.444405,0.000001,0.000000,0.000013,0.000013,-0.000012,44.938071,0.000015,
2116,2623,-3.09643955563321,-0.47614941191874,-0.0297947896810342,0.002549,-0.000266,0.001937,0.111556,0.032334,321.302015,24.353917,0.999178,0.985039,0.004844,0.451198,0.000009,0.000008,0.000004,0.000013,0.000004,39.264931,0.000018,
2071,2413,-4.0406824029968,-5.05945566435069,-0.00323157780326255,0.002093,-0.000708,0.003711,0.085432,0.019380,325.112358,24.404127,0.998661,0.984425,0.004978,0.454895,0.000067,0.000025,0.000004,0.000068,0.000025,5.755047,0.000095,
2041,2323,-4.67944004890181,-7.02450585289473,-0.00209005033019594,0.002056,-0.000169,-0.000076,0.094645,0.042147,326.747732,24.586328,0.999162,0.983328,0.004898,0.417119,0.000096,0.000043,0.000018,0.000101,0.000037,17.360040,0.000144,
2056,2368,-4.36073861716062,-6.04022372206013,-0.0130129405261528,0.001790,-0.000070,-0.001012,0.085125,0.036286,325.836747,24.526445,0.998738,0.984103,0.005058,0.404472,0.000063,0.000047,0.000001,0.000063,0.000047,2.337285,0.000110,
2041,2278,-4.67245844762837,-8.00856197879295,0.00435686251796596,0.001901,-0.000177,-0.000425,0.088488,0.042485,327.519230,24.616816,0.999777,0.991792,0.004144,0.403329,0.000114,0.000073,0.000044,0.000142,0.000045,32.302604,0.000195,
2341,2308,1.86030563673312,-7.35413862206202,0.0148603246788639,0.002437,-0.001837,0.007037,0.086534,-0.010971,326.233405,23.399470,0.998623,0.980677,0.005258,0.370671,0.000080,0.000080,0.000011,0.000091,0.000069,46.014052,0.000161,
2026,2293,-5.00207616648718,-7.68088181571136,0.00375024371078325,0.001274,-0.000739,0.004295,0.046574,0.037731,327.321324,24.652873,0.998272,0.983087,0.005379,0.418130,0.000134,0.000071,0.000032,0.000147,0.000057,22.536415,0.000211,
2506,3163,5.28707001164419,11.2849989350171,0.0250114031510975,0.002968,-0.000478,0.007377,0.107860,0.035000,312.649236,26.196948,0.999616,0.991757,0.003545,0.456452,0.000013,-0.000009,0.000018,0.000023,-0.000019,29.556756,0.000025,
2311,2143,1.23739165230719,-10.9685476032675,0.0238341596123632,0.002444,-0.001112,-0.000697,0.113866,-0.001331,329.008314,23.164806,0.999328,0.983761,0.005151,0.352722,0.000218,0.000251,-0.000009,0.000253,0.000215,-75.104598,0.000469,
2266,2053,0.269741714093868,-12.9424043876423,0.0185275126552824,0.001466,-0.001541,-0.001298,0.070786,-0.041560,330.416805,23.160070,0.998808,0.978365,0.005691,0.397280,0.000291,0.000353,0.000007,0.000354,0.000291,83.484240,0.000646,
2101,2578,-3.41491483599087,-1.4590113499838,-0.0144010179860175,0.002182,-0.000631,0.006051,0.082546,0.011855,322.200100,24.335469,0.999356,0.987757,0.004315,0.455667,0.000021,0.000012,0.000009,0.000027,0.000007,31.000477,0.000036,
2221,3148,-0.900587885985257,10.9348325479982,0.0363951108418519,0.002860,-0.000263,0.008607,0.104239,0.038837,312.932945,24.933579,0.999579,0.992422,0.003533,0.437418,-0.000007,-0.000003,0.000008,0.000003,-0.000013,52.637340,0.000013,
2191,2998,-1.52745437389007,7.68004158677066,0.00549542920839485,0.002975,-0.000259,0.006856,0.115646,0.054861,315.220678,24.666926,0.999459,0.991465,0.003789,0.456001,0.000002,0.000001,0.000012,0.000014,-0.000010,44.769994,0.000014,
2101,2608,-3.41933975447781,-0.805072377793628,-0.0122144051621831,0.002210,-0.000290,0.003222,0.092254,0.035849,321.742229,24.356738,0.998934,0.986176,0.004727,0.462475,0.000017,0.000009,0.000014,0.000028,-0.000002,37.193690,0.000031,
2146,2758,-2.46611213460388,2.46321205885285,-0.0176277528525475,0.002451,-0.000422,0.005118,0.097296,0.035810,319.073752,24.432990,0.999405,0.990181,0.003942,0.423765,-0.000005,0.000015,-0.000008,0.000018,-0.000008,-70.841330,0.000018,
2416,2683,3.42121502355402,0.840920976686398,-0.0146991513620378,0.002492,-0.000357,0.004912,0.096324,0.028207,319.958892,24.325964,0.999357,0.985662,0.004793,0.407803,0.000026,0.000044,0.000004,0.000045,0.000025,77.077659,0.000071,
2131,2713,-2.78494445828884,1.4838825262256,-0.0230165842490351,0.002438,-0.000412,0.004818,0.097744,0.040292,319.820609,24.410012,0.999405,0.989639,0.004090,0.426855,0.000002,0.000022,-0.000002,0.000023,0.000002,-84.007239,0.000027,
2086,2488,-3.72678029502709,-3.42126897091349,-0.0153539161400431,0.002148,-0.000344,0.003505,0.088597,0.047828,323.726152,24.343511,0.999331,0.989281,0.004230,0.502870,0.000047,-0.000006,-0.000001,0.000047,-0.000006,-0.951500,0.000051,
2071,2488,-4.05222269339697,-3.42212139647166,-0.00785178050426794,0.002235,-0.000096,0.000789,0.100583,0.048030,323.878358,24.392063,0.999541,0.990135,0.004235,0.486749,0.000041,-0.000009,0.000003,0.000042,-0.000009,3.618895,0.000044,
2086,2548,-3.73595388175243,-2.11302022515962,-0.0182578090442576,0.002411,-0.000158,0.001172,0.107539,0.041244,322.751446,24.315147,0.999410,0.990699,0.004040,0.525187,0.000032,0.000009,0.000012,0.000037,0.000004,23.031342,0.000046,
2386,2533,2.79666301732113,-2.43195011217193,-0.0172838455974897,0.002290,0.000275,0.000645,0.102945,0.071864,322.350905,23.859052,0.999577,0.989108,0.004266,0.487565,0.000040,0.000000,0.000026,0.000053,-0.000013,26.307674,0.000055,
2296,2158,0.905998377685016,-10.6386130745829,0.01066774862187,0.002103,-0.000878,-0.002094,0.103033,-0.002234,328.657384,23.226897,0.999396,0.983000,0.005228,0.407144,0.000194,0.000195,-0.000004,0.000199,0.000190,-48.924505,0.000389,
2506,3178,5.28491946883107,11.6104948472805,0.0309006340611973,0.003158,-0.000460,0.004396,0.128161,0.033237,312.472747,26.279722,0.999663,0.992314,0.003491,0.431776,0.000010,-0.000013,0.000017,0.000020,-0.000022,27.717717,0.000024,
2236,3223,-0.58807961904272,12.5624434364621,0.0416263455232411,0.002858,-0.000128,0.008720,0.103702,0.068078,311.711506,25.125434,0.999373,0.991470,0.003872,0.438603,0.000000,0.000008,0.000011,0.000016,-0.000008,56.301473,0.000016,
2041,2353,-4.68429309596513,-6.36904696648421,-0.00416399244534205,0.002140,-0.000507,0.005186,0.083819,0.053740,326.236762,24.550064,0.998996,0.983868,0.005028,0.453577,0.000068,0.000036,0.000008,0.000070,0.000034,13.897467,0.000106,
2071,2428,-4.04300265365202,-4.73120006763332,0.000156505759491665,0.001974,-0.000329,0.005274,0.075663,0.064416,324.888202,24.465235,0.998885,0.985458,0.004665,0.437131,0.000056,0.000018,0.000017,0.000063,0.000011,20.626953,0.000080,
2296,2188,0.901275093943767,-9.9819485745051,0.0165984154758689,0.002326,-0.000896,-0.002723,0.115395,-0.010091,328.235865,23.296059,0.999046,0.978966,0.005561,0.395280,0.000166,0.000161,-0.000008,0.000172,0.000155,-35.538986,0.000327,
2266,2068,0.267113980773178,-12.6123755075437,0.0189038508773365,0.001437,-0.001134,-0.001742,0.071099,-0.013204,330.178424,23.248772,0.999066,0.980815,0.005362,0.365829,0.000275,0.000337,0.000009,0.000338,0.000274,81.749242,0.000614,
2341,2323,1.85660299234156,-7.02450437245292,0.00346564686924467,0.002113,-0.001167,0.003104,0.085655,0.005240,325.894510,23.438716,0.999190,0.985690,0.004746,0.386798,0.000073,0.000074,0.000015,0.000088,0.000059,45.528865,0.000148,
2041,2338,-4.68194573830718,-6.69709250167419,-0.0022851129905348,0.001885,-0.000349,0.001235,0.083101,0.032052,326.493417,24.560845,0.999334,0.986686,0.004446,0.426896,0.000079,0.000027,0.000004,0.000079,0.000026,4.733597,0.000110,
2206,3073,-1.21375952340619,9.30756214807333,0.0238035535555241,0.002772,-0.000452,0.006221,0.108042,0.044221,314.097726,24.787045,0.999625,0.993223,0.003369,0.446699,0.000007,-0.000015,0.000001,0.000007,-0.000015,1.549868,0.000015,
2116,2638,-3.0987269107588,-0.149405643360851,-0.0315459214683642,0.002783,-0.000487,0.001788,0.122712,0.029388,321.055606,24.347656,0.999417,0.988294,0.004192,0.458696,0.000008,0.000014,0.000006,0.000018,0.000005,57.468107,0.000024,
2056,2383,-4.36363670114899,-5.71238038701783,-0.0159700510033645,0.001532,-0.000245,0.001902,0.065056,0.049336,325.550376,24.506908,0.999265,0.988700,0.004444,0.433434,0.000065,0.000039,-0.000001,0.000065,0.000039,-2.657891,0.000105,
2161,2863,-2.15780787803534,4.74731309117611,-0.0149542712210859,0.002482,-0.000474,0.008117,0.089365,0.039202,317.324322,24.529302,0.999404,0.991583,0.003635,0.407504,-0.000003,0.000013,0.000007,0.000016,-0.000005,69.570181,0.000016,
2026,2308,-5.00458965512729,-7.35244831831947,-0.00207924417418326,0.001491,-0.001208,0.007034,0.048898,0.002481,327.033923,24.678462,0.998564,0.983341,0.005235,0.349889,0.000125,0.000046,0.000018,0.000129,0.000042,12.162038,0.000179,
2146,2773,-2.46837838497455,2.79057355559955,-0.0248857057829923,0.002878,0.000099,0.001013,0.129561,0.035679,318.801294,24.479326,0.999606,0.993679,0.003326,0.385316,-0.000004,0.000015,-0.000006,0.000017,-0.000006,-74.429243,0.000017,
2071,2503,-4.05465463987453,-3.09470191759381,-0.0122333211550654,0.002412,-0.000129,0.001017,0.108048,0.037074,323.607082,24.385597,0.999372,0.989523,0.004173,0.480276,0.000044,-0.000008,0.000000,0.000044,-0.000008,-0.006893,0.000047,
2101,2623,-3.42294144107768,-0.476751812416438,-0.0281462591931927,0.002066,-0.000080,0.003980,0.083527,0.055812,321.357310,24.345256,0.999124,0.986567,0.004570,0.496265,0.000011,0.000004,0.000009,0.000017,-0.000003,34.281121,0.000018,
2131,2728,-2.7869559797291,1.80918469947501,-0.023262650162394,0.002593,-0.000127,0.000291,0.118531,0.037127,319.596496,24.311786,0.999374,0.988186,0.004298,0.527638,-0.000004,0.000027,0.000000,0.000027,-0.000004,-89.666490,0.000029,
2086,2503,-3.72898794012456,-3.09381129164827,-0.0172328297042554,0.002199,-0.000075,0.000208,0.100556,0.037152,323.480059,24.363770,0.999113,0.989441,0.004118,0.472164,0.000050,-0.000006,-0.000002,0.000050,-0.000006,-2.553242,0.000055,
2191,3013,-1.52921468351181,8.00457609574164,0.0156789979384371,0.003024,-0.000276,0.005818,0.121124,0.039102,315.067116,24.661632,0.999420,0.991034,0.003862,0.459320,0.000002,0.000002,0.000008,0.000010,-0.000007,45.088511,0.000010,
2086,2563,-3.7373337402217,-1.78618228053232,-0.00734892293445455,0.002682,-0.000272,0.000877,0.120819,0.028454,322.612915,24.413002,0.998965,0.987009,0.004600,0.414043,0.000030,0.000009,0.000011,0.000035,0.000004,23.643295,0.000043,
2041,2473,-4.70281878170113,-3.74909080743983,-0.0147254938230503,0.002086,-0.000462,0.001636,0.091290,0.028329,324.222122,24.489028,0.998479,0.982672,0.005361,0.441400,0.000060,-0.000014,0.000002,0.000060,-0.000014,1.304587,0.000063,
2386,2548,2.79466902743111,-2.1059812160855,-0.0105714085950126,0.002636,-0.000546,0.000342,0.119550,0.010069,322.181024,23.889952,0.999505,0.988478,0.004375,0.438646,0.000041,0.000002,0.000024,0.000053,-0.000009,25.316711,0.000056,
2236,3238,-0.590723387933195,12.8867748365675,0.0383040051913213,0.003061,-0.000433,0.007895,0.115549,0.039702,311.450274,25.084069,0.999608,0.993571,0.003352,0.471462,-0.000002,0.000001,0.000011,0.000011,-0.000012,48.156296,0.000013,
2311,2158,1.23424555741073,-10.641181596077,0.0265721011306823,0.002191,-0.001746,0.004120,0.085630,0.002422,328.761860,23.092972,0.999378,0.985073,0.005087,0.463335,0.000200,0.000206,-0.000010,0.000213,0.000192,-53.714580,0.000406,
2296,2233,0.892864821761901,-8.99474972920163,0.00821107533153054,0.002707,-0.000513,-0.002591,0.132599,0.017606,327.456793,23.419625,0.998915,0.979885,0.005444,0.397198,0.000118,0.000119,-0.000012,0.000131,0.000107,-46.551864,0.000238,
2266,2203,0.243284297854171,-9.65181270537045,0.00481116411248195,0.002467,-0.000639,-0.002785,0.122037,-0.013550,327.938275,23.475793,0.998755,0.981154,0.005476,0.395113,0.000140,0.000138,0.000006,0.000145,0.000133,40.347070,0.000278,
2341,2338,1.85453510372831,-6.69649371424029,0.00485104904475975,0.002278,-0.000289,-0.002980,0.114719,0.018942,325.692570,23.464265,0.999437,0.986517,0.004703,0.413268,0.000065,0.000082,0.000015,0.000091,0.000056,59.769684,0.000149,
2056,2398,-4.36486508418266,-5.38688384056065,-0.00833824925302906,0.001996,-0.000132,0.000144,0.091337,0.018680,325.399279,24.422698,0.998888,0.986079,0.004784,0.482984,0.000063,0.000035,-0.000008,0.000065,0.000033,-14.584453,0.000099,
2026,2323,-5.00596421433336,-7.0251492821677,-0.0014634621835512,0.002014,-0.000679,0.002444,0.085688,0.025496,326.834416,24.611988,0.998989,0.984631,0.004907,0.431523,0.000113,0.000031,0.000008,0.000113,0.000030,5.440130,0.000151,
2116,2653,-3.10147861855457,0.178075432888029,-0.0308974240259658,0.002521,-0.000257,0.003491,0.105685,0.043356,320.800554,24.417204,0.999597,0.988937,0.003955,0.407216,0.000006,0.000023,0.000007,0.000025,0.000004,70.920522,0.000031,
2206,3088,-1.21613269951078,9.63348418171901,0.0281052806354296,0.002883,-0.000535,0.008657,0.105430,0.050985,313.885742,24.865332,0.999417,0.992312,0.003628,0.390762,0.000006,-0.000011,0.000001,0.000006,-0.000011,3.610389,0.000011,
2146,2788,-2.47099854440232,3.11649074963977,-0.0270088165220272,0.002892,0.000028,0.001165,0.129716,0.039362,318.540251,24.434610,0.999574,0.992341,0.003581,0.441661,-0.000009,0.000015,-0.000004,0.000016,-0.000009,-81.323348,0.000016,
2296,2203,0.897994248948518,-9.65235050366987,0.010253166642201,0.002370,-0.000789,-0.000905,0.111360,-0.008568,327.936800,23.350765,0.998580,0.975328,0.005974,0.374910,0.000150,0.000149,-0.000006,0.000155,0.000144,-44.750944,0.000299,
2071,2518,-4.05718387062374,-2.76751067514577,-0.0169284717317169,0.002483,-0.000585,0.000740,0.111947,0.008040,323.329760,24.378873,0.999439,0.990293,0.003984,0.456017,0.000035,-0.000004,0.000004,0.000035,-0.000005,6.236577,0.000038,
2041,2488,-4.70393224142073,-3.42255396523418,-0.00948676056896147,0.002817,-0.000191,0.000021,0.129522,0.042036,324.061817,24.459664,0.999311,0.987386,0.004601,0.477805,0.000050,-0.000012,0.000003,0.000050,-0.000012,3.128775,0.000053,
2191,3028,-1.53217850062331,8.33042950057921,0.0136868718150822,0.002888,-0.000377,0.007392,0.109915,0.048962,314.794353,24.674198,0.999518,0.992111,0.003837,0.470323,0.000000,-0.000007,0.000004,0.000002,-0.000009,26.753766,0.000010,
2086,2578,-3.74046213029664,-1.4586096498228,-0.0166723693723725,0.002629,-0.000388,0.002919,0.112469,0.030636,322.284168,24.390201,0.999117,0.987725,0.004440,0.439225,0.000024,0.000009,0.000010,0.000029,0.000003,27.163178,0.000036,
2236,3253,-0.593854678062147,13.2120264302772,0.0298863156026528,0.003078,-0.000390,0.006211,0.121843,0.036278,311.140162,25.078495,0.999631,0.993546,0.003253,0.493428,-0.000004,-0.000006,0.000013,0.000008,-0.000018,43.297287,0.000018,
2086,2698,-3.76017696684578,1.15532452938936,-0.0204064529784205,0.002396,-0.000380,0.008099,0.086919,0.053938,320.284288,24.385829,0.999366,0.990884,0.003825,0.463650,0.000009,0.000010,0.000000,0.000010,0.000009,-80.352740,0.000019,
2161,2878,-2.15974285257063,5.07285452050307,-0.00744834521947269,0.002594,-0.000268,0.008612,0.093139,0.057642,317.146747,24.532504,0.999474,0.992658,0.003521,0.432366,0.000000,0.000016,0.000009,0.000020,-0.000004,65.208331,0.000021,
2386,2563,2.79102392890242,-1.77740469532213,-0.012747594939583,0.002348,-0.000422,0.003985,0.093336,0.034692,321.892350,23.999503,0.999524,0.989299,0.004139,0.398181,0.000040,0.000008,0.000021,0.000050,-0.000002,26.209907,0.000057,
2311,2173,1.23107381708069,-10.311254683221,0.0178101570464264,0.002087,-0.001352,-0.000395,0.096406,-0.008939,328.457574,23.152878,0.999167,0.981374,0.005322,0.427242,0.000188,0.000179,-0.000010,0.000194,0.000173,-33.819062,0.000367,
2101,2638,-3.42509690126988,-0.149988836856558,-0.0302130484642475,0.002359,-0.000402,0.002785,0.100377,0.038528,321.114045,24.351927,0.999201,0.986818,0.004394,0.473957,0.000011,0.000011,0.000010,0.000021,0.000001,44.267915,0.000025,
2026,2338,-5.00853045199663,-6.69805458173259,-8.57155202993454E-06,0.001512,-0.000632,0.001419,0.065448,0.010710,326.585374,24.577933,0.999252,0.986130,0.004553,0.442711,0.000096,0.000013,-0.000006,0.000096,0.000012,-4.436472,0.000119,
2056,2413,-4.36686642619608,-5.05955354464535,-0.00282141737375241,0.002217,-0.000486,0.004654,0.088688,0.016382,325.200693,24.461809,0.998131,0.982427,0.005419,0.437710,0.000062,0.000021,-0.000003,0.000062,0.000021,-4.398909,0.000087,
2341,2353,1.8519242450134,-6.36836000076274,0.00546477265663725,0.002588,-0.000112,-0.000872,0.121664,0.042503,325.461903,23.488662,0.999253,0.985456,0.004786,0.450942,0.000058,0.000076,0.000019,0.000088,0.000046,58.128435,0.000136,
2071,2533,-4.05947446903565,-2.44036163586548,-0.0102286709552573,0.002348,-0.000636,0.004704,0.094439,0.023537,323.125519,24.431159,0.999392,0.989942,0.004091,0.416985,0.000029,0.000001,0.000012,0.000034,-0.000004,21.135350,0.000037,
2206,3103,-1.21838301264843,9.95782523735021,0.0313519121812647,0.003006,-0.000428,0.008498,0.111626,0.047218,313.674486,24.805249,0.999301,0.990944,0.004005,0.462983,0.000001,-0.000001,0.000002,0.000003,-0.000003,33.374523,0.000003,
2266,2218,0.240988537864634,-9.32357097137732,0.00976306574369801,0.002537,-0.000562,-0.001894,0.122349,0.022811,327.737869,23.495324,0.998736,0.979390,0.005605,0.440050,0.000128,0.000124,0.000001,0.000128,0.000124,17.412625,0.000252,
2236,3268,-0.597000245037165,13.5376332840963,0.023416661161491,0.003121,-0.000379,0.007002,0.121306,0.047302,310.839183,25.106932,0.999463,0.992773,0.003491,0.495553,-0.000006,-0.000002,0.000014,0.000010,-0.000018,49.115724,0.000018,
2296,2218,0.89509142244804,-9.32394865330124,0.010932090060578,0.002190,-0.000961,-0.000178,0.100580,0.001901,327.689798,23.366465,0.998872,0.978026,0.005646,0.402220,0.000138,0.000136,-0.000009,0.000146,0.000127,-42.391582,0.000274,
2146,2803,-2.47295155676543,3.44142224127901,-0.0190472088739284,0.002981,-0.000272,0.002471,0.129762,0.027902,318.363639,24.396561,0.999591,0.992632,0.003539,0.475693,-0.000007,0.000011,-0.000002,0.000011,-0.000008,-82.786984,0.000011,
2086,2593,-3.7434330303454,-1.13178775833858,-0.0157820402095581,0.002044,-0.000515,0.004230,0.081732,0.033683,322.018332,24.392190,0.999068,0.987895,0.004404,0.439879,0.000017,0.000017,0.000016,0.000033,0.000001,45.428316,0.000039,
2191,3043,-1.53387113492963,8.65662324126658,0.0208238052113074,0.002973,-0.000192,0.002736,0.128554,0.042923,314.627441,24.798035,0.999700,0.994439,0.003292,0.353850,0.000002,-0.000012,0.000005,0.000003,-0.000014,18.220699,0.000015,
2161,2893,-2.16216916392448,5.39913119186063,-0.0134116678398186,0.002826,-0.000143,0.004704,0.115832,0.043987,316.875398,24.540707,0.999569,0.992221,0.003618,0.420304,-0.000003,0.000009,0.000011,0.000016,-0.000010,59.122933,0.000016,
2086,2713,-3.76209681379803,1.48139054468035,-0.0218205165853078,0.002728,-0.000357,0.004793,0.111772,0.040439,320.054351,24.352866,0.999398,0.990266,0.003895,0.482373,0.000010,0.000014,0.000001,0.000014,0.000010,81.148535,0.000024,
2026,2353,-5.01090231911794,-6.36939653419346,-0.00122695762001968,0.001624,-0.000631,0.004530,0.062057,0.037110,326.329816,24.624362,0.999159,0.986041,0.004771,0.414910,0.000088,0.000032,0.000000,0.000088,0.000032,0.452485,0.000124,
2386,2578,2.78811807673926,-1.45086815918761,-0.010491131758215,0.002334,-0.001116,0.006231,0.084398,0.014319,321.659115,24.010565,0.999412,0.987691,0.004433,0.410704,0.000039,0.000022,0.000024,0.000056,0.000005,34.980962,0.000068,
2056,2428,-4.36952999974462,-4.73104108669688,-0.00736207240396425,0.002255,-0.000571,0.006812,0.084381,0.054372,324.916117,24.478455,0.998745,0.984443,0.004930,0.455307,0.000052,0.000017,0.000011,0.000055,0.000014,16.468050,0.000073,
2101,2773,-3.44629911973312,2.78819919792105,-0.0226639414609053,0.002488,-0.000372,0.006267,0.096254,0.046820,318.983820,24.426769,0.999581,0.990750,0.003826,0.420654,-0.000009,0.000007,-0.000003,0.000008,-0.000010,-80.066171,0.000010,
2311,2188,1.22907279057681,-9.98327375643564,0.0245052040634732,0.002073,-0.000974,-0.003803,0.107531,-0.022068,328.282861,23.206160,0.999138,0.980622,0.005283,0.395337,0.000172,0.000167,-0.000010,0.000180,0.000159,-37.146356,0.000339,
2071,2548,-4.06239589769053,-2.11314952679196,-0.01500003320308,0.002177,-0.000613,0.006755,0.080791,0.044472,322.829671,24.386078,0.999477,0.990298,0.004066,0.481023,0.000028,0.000005,0.000013,0.000034,-0.000001,24.512539,0.000039,
2341,2368,1.8475852577845,-6.03921858227177,-0.00771568163588654,0.002270,-0.000406,0.001794,0.097736,0.031832,325.085178,23.510771,0.999030,0.985147,0.004831,0.456976,0.000053,0.000071,0.000026,0.000089,0.000035,55.143390,0.000128,
2236,3283,-0.59994167739384,13.8637551101001,0.0158519845371643,0.003273,-0.000009,0.005334,0.133820,0.051027,310.541748,25.188782,0.999163,0.992553,0.003674,0.437101,-0.000015,0.000001,0.000017,0.000012,-0.000026,57.955431,0.000026,
2206,3118,-1.22065018820622,10.2831890283447,0.03482069628609,0.003083,-0.000394,0.008062,0.116540,0.041182,313.463237,24.846481,0.999487,0.992234,0.003684,0.431286,-0.000007,0.000000,0.000001,0.000001,-0.000007,80.570539,0.000008,
2296,2353,0.870221952886851,-6.36954303612851,0.009116337101716,0.002223,-0.000869,0.003590,0.089534,0.014048,325.483886,23.630287,0.999584,0.988329,0.004229,0.439881,0.000051,0.000080,0.000007,0.000082,0.000050,77.918802,0.000133,
2026,2368,-5.01284339279885,-6.04246662531704,-0.00023850495847455,0.001766,-0.000403,0.003303,0.072025,0.049552,326.106710,24.553360,0.999119,0.986436,0.004788,0.490101,0.000098,0.000038,0.000001,0.000099,0.000038,1.366951,0.000141,
2056,2443,-4.37188212914367,-4.40369082327197,-0.0107210305171748,0.002173,-0.000659,0.003196,0.090779,0.021207,324.652835,24.476257,0.999121,0.986229,0.004672,0.420263,0.000051,0.000014,0.000005,0.000052,0.000013,6.813451,0.000069,
2191,3058,-1.53663004153164,8.98106686056904,0.0212945657313526,0.002885,-0.000049,0.004517,0.118900,0.042838,314.377387,24.714748,0.999787,0.995381,0.003059,0.450697,0.000006,-0.000019,0.000004,0.000007,-0.000020,9.366325,0.000020,
2086,2608,-3.74542512391106,-0.804257311460034,-0.0177766007745959,0.002545,-0.000250,0.004315,0.104672,0.052387,321.781387,24.423130,0.999113,0.988047,0.004364,0.427554,0.000019,0.000009,0.000017,0.000031,-0.000003,36.473934,0.000034,
2086,2728,-3.76428808134522,1.8084460693929,-0.0254585307152411,0.002881,0.000077,0.000648,0.130952,0.054280,319.799523,24.370336,0.999352,0.989432,0.004049,0.477889,-0.000003,0.000020,0.000002,0.000020,-0.000003,84.292324,0.000022,
2101,2788,-3.44804830308324,3.1135575265634,-0.0165289181126127,0.002762,-0.000303,0.006434,0.108429,0.050416,318.803934,24.393663,0.999606,0.990670,0.003870,0.458639,-0.000016,0.000009,-0.000004,0.000009,-0.000016,-81.592895,0.000016,
2146,2818,-2.47599911348374,3.76880508611674,-0.0207840998339748,0.002649,-0.000164,0.004112,0.109567,0.044657,318.084565,24.485103,0.999474,0.992534,0.003625,0.411634,-0.000007,0.000019,0.000001,0.000019,-0.000007,88.273780,0.000019,
2386,2593,2.78548772987232,-1.12362266893273,-0.0102395543743228,0.002726,-0.001021,0.008134,0.095593,0.014123,321.428763,24.053488,0.999441,0.987458,0.004505,0.411719,0.000038,0.000020,0.000026,0.000057,0.000001,35.684408,0.000066,
2236,3298,-0.603604532564656,14.1888411733696,0.00913299881540297,0.002923,-0.000238,0.007622,0.110201,0.046095,310.215801,25.193111,0.999175,0.992104,0.003707,0.447096,-0.000026,0.000008,0.000006,0.000009,-0.000027,81.067057,0.000027,
2071,2563,-4.06457681232207,-1.78497541042155,-0.0222765477344637,0.002623,-0.000197,0.004219,0.108711,0.066539,322.553747,24.411221,0.999225,0.988302,0.004359,0.475593,0.000025,0.000005,0.000012,0.000031,-0.000001,25.605602,0.000036,
2026,2383,-5.01496295025086,-5.71448519890638,-0.00105883599854906,0.001746,-0.000133,0.000406,0.079148,0.036306,325.865253,24.591479,0.999370,0.989071,0.004113,0.430845,0.000109,0.000032,0.000002,0.000109,0.000031,1.327429,0.000147,
2206,3133,-1.2227233599059,10.6085221646224,0.0365014514828772,0.003279,-0.000156,0.004747,0.136185,0.040708,313.251633,24.871769,0.999653,0.993620,0.003399,0.421046,-0.000008,0.000000,0.000004,0.000002,-0.000009,69.022045,0.000010,
2056,2458,-4.37432315275239,-4.07680304565417,-0.00944187388301998,0.001912,-0.000522,0.002753,0.080038,0.024868,324.410978,24.443523,0.999155,0.986099,0.004800,0.452809,0.000047,-0.000007,-0.000008,0.000049,-0.000008,-8.445269,0.000052,
2101,2803,-3.45094619239558,3.439974807467,-0.0210564236776349,0.002485,-0.000311,0.005211,0.099226,0.033948,318.513443,24.399561,0.999470,0.991235,0.003779,0.437416,-0.000014,0.000009,-0.000001,0.000009,-0.000015,-87.685138,0.000015,
2296,2368,0.867349657341975,-6.04201675219541,0.0104723161954325,0.001813,-0.000523,0.001472,0.078017,0.009282,325.241431,23.638753,0.999311,0.985306,0.004736,0.458537,0.000044,0.000075,0.000011,0.000078,0.000040,71.781119,0.000121,
2251,1993,-0.0488377749975264,-14.2570942609665,-0.00135352784394627,0.001455,-0.002899,0.000146,0.065000,-0.084921,331.233525,23.141478,0.999682,0.989840,0.004404,0.363053,0.000376,0.000397,0.000013,0.000404,0.000370,64.302639,0.000774,
2086,2623,-3.74841938675259,-0.478015726767673,-0.0236459872190267,0.002417,-0.000496,0.006478,0.092438,0.041759,321.477937,24.337318,0.999185,0.988233,0.004314,0.502472,0.000014,0.000001,0.000011,0.000020,-0.000005,29.824028,0.000021,
2191,3073,-1.5388109016458,9.30589330976131,0.0275176163775086,0.002823,-0.000040,0.003934,0.117914,0.049269,314.183729,24.701014,0.999617,0.993962,0.003317,0.484462,0.000008,-0.000018,0.000003,0.000008,-0.000018,6.998288,0.000018,
2086,2743,-3.76674440661788,2.13404359853698,-0.0180082818179699,0.002543,-0.000353,0.004010,0.105509,0.039422,319.593402,24.375969,0.999396,0.989438,0.004078,0.456582,-0.000009,0.000013,-0.000004,0.000014,-0.000010,-81.266071,0.000014,
2026,2398,-5.01695267187626,-5.38735733442032,-0.00291950102371175,0.002156,-0.000367,0.001488,0.094964,0.018342,325.624186,24.551443,0.999381,0.989294,0.004094,0.444934,0.000109,0.000025,-0.000001,0.000109,0.000025,-1.015610,0.000143,
2146,2833,-2.47740218693026,4.09320327828988,-0.00604570307785934,0.002739,-0.000290,0.003873,0.114396,0.036310,317.969310,24.453197,0.999462,0.993107,0.003526,0.442906,-0.000004,0.000019,0.000002,0.000019,-0.000004,85.548187,0.000021,
2386,2608,2.78246850336044,-0.796530464422887,-0.0111725757197405,0.002534,-0.000792,0.006374,0.093203,0.029687,321.174858,24.061167,0.999298,0.987495,0.004405,0.463803,0.000031,0.000019,0.000025,0.000051,0.000000,38.218058,0.000059,
2251,2008,-0.0512008774970418,-13.9290001625016,0.00553703634051317,0.001104,-0.002909,-0.001368,0.053882,-0.091908,331.039261,23.142431,0.999589,0.987087,0.004757,0.381852,0.000350,0.000379,0.000020,0.000389,0.000340,62.926942,0.000730,
2101,2818,-3.45298502527207,3.76631323002965,-0.0198085778988002,0.002732,-0.000073,0.004482,0.112800,0.044363,318.293540,24.420303,0.999426,0.991937,0.003697,0.428425,-0.000015,0.000019,-0.000001,0.000019,-0.000015,-88.813384,0.000020,
2056,2473,-4.3762499258076,-3.74811920496121,-0.0127472684973782,0.002236,-0.000133,-0.001275,0.106464,0.041169,324.166937,24.524867,0.999236,0.986573,0.004909,0.383744,0.000050,-0.000014,-0.000005,0.000051,-0.000015,-4.341471,0.000052,
2206,3148,-1.2258958856645,10.9341035595805,0.0340597151434849,0.002990,-0.000097,0.006151,0.118463,0.051848,312.968029,24.887136,0.999508,0.993121,0.003521,0.432428,-0.000005,0.000001,0.000008,0.000007,-0.000011,54.649163,0.000011,
2296,2383,0.864461372840847,-5.71171727783121,-0.00396795166994934,0.002356,-0.000119,-0.003568,0.120077,-0.000823,324.919646,23.758839,0.998940,0.981670,0.005349,0.360184,0.000041,0.000073,0.000013,0.000078,0.000036,70.888805,0.000117,
2026,2413,-5.01954904809802,-5.05852695168895,-0.0107388162617781,0.002218,0.000085,0.000795,0.099862,0.046096,325.321644,24.570302,0.999168,0.986941,0.004521,0.445755,0.000108,0.000013,0.000012,0.000109,0.000011,6.809566,0.000133,
2086,2638,-3.75066877719123,-0.151368485200749,-0.0179291930249974,0.002362,-0.001009,0.009470,0.081147,0.033502,321.271469,24.389531,0.999234,0.987703,0.004298,0.441449,0.000016,0.000010,0.000011,0.000025,0.000001,37.083244,0.000029,
2251,2023,-0.0528320251733199,-13.6005313684272,0.0202750730597927,0.001130,-0.002431,-0.000047,0.050937,-0.061440,330.917706,23.233212,0.999166,0.981007,0.005491,0.347763,0.000331,0.000382,0.000026,0.000393,0.000320,67.293727,0.000714,
2086,2758,-3.76943508033773,2.4605807861192,-0.0271379842159831,0.002819,-0.000718,0.004192,0.117564,0.009885,319.286068,24.355058,0.999481,0.990135,0.003963,0.447218,-0.000010,0.000006,-0.000007,0.000008,-0.000013,-68.320206,0.000013,
2386,2623,2.77905501786821,-0.469288156741847,-0.0168359087859358,0.002428,-0.000924,0.005978,0.089728,0.016166,320.880391,24.076208,0.999163,0.986835,0.004458,0.479229,0.000031,0.000039,0.000019,0.000054,0.000015,50.795159,0.000073,
2101,2833,-3.45541522500281,4.09202136779533,-0.0173195984766608,0.002698,-0.000518,0.006713,0.104611,0.035524,318.062656,24.415968,0.999667,0.993273,0.003383,0.424821,-0.000014,0.000013,-0.000004,0.000014,-0.000015,-80.992395,0.000016,
2056,2488,-4.37875217991591,-3.42128692659005,-0.0110869261928315,0.002080,-0.000262,0.001283,0.092014,0.037405,323.924441,24.507657,0.999371,0.988079,0.004525,0.392925,0.000039,-0.000011,-0.000002,0.000039,-0.000011,-2.722732,0.000041,
2026,2428,-5.02214424855064,-4.73097971267646,-0.0135378120231735,0.002073,-0.000059,0.001671,0.090774,0.054687,325.047500,24.544289,0.999022,0.984711,0.004843,0.472328,0.000096,0.000020,0.000026,0.000105,0.000012,17.258761,0.000128,
2206,3163,-1.22885546405285,11.2590895563977,0.0358161313340588,0.002685,-0.000360,0.008436,0.097054,0.043422,312.716169,24.896556,0.999732,0.994871,0.003159,0.429976,-0.000002,0.000000,0.000013,0.000012,-0.000014,46.835678,0.000015,
2296,2398,0.861405965613933,-5.38360981353616,-0.00751929771308824,0.002051,0.000391,-0.006752,0.117040,0.031931,324.644190,23.746886,0.999182,0.985113,0.004965,0.436637,0.000034,0.000074,0.000013,0.000078,0.000030,73.238606,0.000111,
2086,2653,-3.75248725835056,0.174676281137906,-0.0118122173952315,0.002630,-0.001167,0.011179,0.088502,0.033754,321.087069,24.385160,0.999524,0.989003,0.003973,0.445495,0.000013,0.000020,0.000012,0.000029,0.000004,53.543090,0.000036,
2086,2773,-3.77130438020125,2.78749250927768,-0.0221995154223009,0.002993,-0.000147,0.003765,0.127024,0.043354,319.092680,24.421412,0.999555,0.990670,0.003978,0.413405,-0.000008,0.000008,-0.000005,0.000009,-0.000009,-75.175086,0.000011,
2071,2623,-4.07390416525983,-0.478264571806207,-0.0238416238034347,0.002723,-0.000394,0.004229,0.113255,0.041426,321.575075,24.368570,0.999171,0.988806,0.004213,0.483612,0.000011,-0.000001,0.000014,0.000021,-0.000010,34.124586,0.000021,
2206,2998,-1.20218023861286,7.68182798750947,8.79813870824364E-06,0.002945,-0.000172,0.005938,0.116951,0.052470,315.131099,24.746356,0.999399,0.991120,0.003805,0.416854,-0.000001,0.000002,0.000011,0.000011,-0.000011,48.968848,0.000013,
2296,2248,0.889688098757876,-8.66686672381041,0.00436359062194924,0.002451,-0.000656,-0.003659,0.124412,-0.010166,327.175064,23.390197,0.999084,0.981988,0.005241,0.431326,0.000110,0.000096,-0.000007,0.000113,0.000093,-22.689181,0.000207,
2131,2743,-2.78937712690837,2.13606647631871,-0.0205015009260592,0.002627,-0.000201,0.003037,0.111871,0.034610,319.369198,24.386387,0.999445,0.989775,0.004060,0.456413,-0.000007,0.000019,-0.000003,0.000020,-0.000008,-83.487394,0.000020,
2386,2638,2.77643105449052,-0.141905742192939,-0.0172364708610075,0.002546,-0.000856,0.003610,0.103666,0.011942,320.647030,24.144684,0.999230,0.986482,0.004477,0.450245,0.000030,0.000040,0.000014,0.000050,0.000020,54.988301,0.000072,
2491,3028,4.98654054411857,8.35337257897723,-0.000392882745927636,0.003068,-0.000339,0.005923,0.118254,0.033926,314.617329,25.648269,0.999739,0.993560,0.003346,0.417054,0.000025,0.000005,0.000022,0.000040,-0.000009,32.844742,0.000042,
2506,3193,5.28177667173521,11.9355889489121,0.0346121515953541,0.003027,-0.000506,0.007206,0.111222,0.031244,312.240776,26.316039,0.999668,0.992569,0.003462,0.453003,0.000008,-0.000013,0.000018,0.000018,-0.000024,29.894519,0.000025,
2401,2548,3.12123180646882,-2.10537540472263,-0.00998721683652093,0.002485,-0.000356,0.003769,0.100310,0.047704,322.179779,23.853273,0.999533,0.989485,0.004386,0.488985,0.000045,0.000002,0.000022,0.000055,-0.000007,22.892319,0.000059,
2221,3208,-0.910105573048707,12.2355133086728,0.0467710224619964,0.002984,-0.000081,0.005672,0.119629,0.063212,312.052982,25.022321,0.999188,0.991064,0.003945,0.443666,-0.000003,-0.000003,0.000014,0.000011,-0.000017,45.504416,0.000017,
2281,2008,0.606432194411177,-13.9317930409048,0.0256778083947324,0.001811,-0.002004,-0.004306,0.096448,-0.071375,331.206240,22.962228,0.999262,0.982266,0.005371,0.373739,0.000348,0.000381,-0.000015,0.000386,0.000342,-68.629962,0.000729,
2011,2128,-5.30457030137717,-11.2910902944027,0.00825068528104111,0.000655,-0.000886,-0.001905,0.034905,-0.009561,330.090594,24.856463,0.998313,0.978905,0.006000,0.331562,0.000267,0.000266,0.000123,0.000390,0.000143,44.843356,0.000552,
2101,2848,-3.45787017092067,4.41803241260894,-0.0197690427630732,0.002667,0.000198,0.004457,0.110088,0.073316,317.803732,24.360100,0.999829,0.994067,0.003125,0.519699,-0.000015,0.000000,-0.000002,0.000000,-0.000016,-81.287436,0.000018,
2056,2323,-4.35180090943916,-7.02584333281318,0.0108185201947322,0.002438,0.000114,-0.000844,0.114452,0.049908,326.789436,24.522430,0.999258,0.983420,0.004955,0.431825,0.000086,0.000052,0.000016,0.000093,0.000046,21.469461,0.000141,
2461,2848,4.36736810080731,4.43833840674789,-0.0303443965053702,0.002743,-0.000572,0.004921,0.107346,0.025593,317.226171,24.890653,0.999768,0.992485,0.003434,0.426578,0.000010,0.000026,0.000008,0.000030,0.000006,66.767768,0.000038,
2266,2233,0.238073889709856,-8.99451116758708,0.00346767127854264,0.002543,-0.000263,-0.004631,0.131752,0.015829,327.452865,23.521277,0.998693,0.978637,0.005613,0.435334,0.000111,0.000110,-0.000004,0.000114,0.000107,-37.584488,0.000221,
2026,2443,-5.02420763353692,-4.40230438248742,-0.0188977395957863,0.002248,0.000539,-0.003631,0.113560,0.034074,324.783239,24.631765,0.999356,0.989199,0.004230,0.355897,0.000089,0.000020,0.000014,0.000092,0.000017,11.079198,0.000117,
2431,2743,3.73598131898484,2.14886722316542,-0.0166230879718228,0.002670,-0.000789,0.006663,0.097759,0.022433,318.988910,24.485908,0.999602,0.989995,0.003901,0.438517,0.000013,0.000038,0.000016,0.000046,0.000006,63.788843,0.000057,
2161,2908,-2.16400979229939,5.72390044081881,-0.00438944466839075,0.002924,-0.000113,0.005070,0.119283,0.057689,316.710408,24.495929,0.999523,0.991049,0.003829,0.488432,0.000001,0.000000,0.000011,0.000011,-0.000010,44.299370,0.000012,
2041,2368,-4.68636339984763,-6.04080523223941,-0.0064414920138347,0.002089,0.000398,-0.000844,0.098548,0.075242,325.990531,24.558779,0.998830,0.984248,0.005072,0.460646,0.000071,0.000045,0.000006,0.000073,0.000044,12.261170,0.000118,
2326,2218,1.5500349115872,-9.32529171826121,0.0122500362894016,0.002275,-0.001285,-0.001378,0.108456,-0.027305,327.690564,23.159175,0.998915,0.978540,0.005701,0.434211,0.000142,0.000135,-0.000006,0.000146,0.000131,-30.320915,0.000277,
2236,3163,-0.578101265678622,11.2615278647444,0.0308809520289515,0.002844,-0.000381,0.007575,0.106533,0.040946,312.607148,24.998402,0.999390,0.990554,0.003865,0.459200,0.000001,-0.000002,0.000011,0.000011,-0.000012,42.279502,0.000013,
2041,2503,-4.70704648988769,-3.09515185768942,-0.0135987132605919,0.002400,-0.000178,0.002998,0.102073,0.050538,323.758077,24.434275,0.999418,0.988973,0.004235,0.505431,0.000053,-0.000013,-0.000008,0.000054,-0.000014,-6.511215,0.000056,
2221,3163,-0.902836433637045,11.2598966456413,0.0414282029366859,0.002858,-0.000459,0.007986,0.106130,0.041875,312.731592,24.958447,0.999528,0.992175,0.003575,0.433365,-0.000003,-0.000004,0.000010,0.000007,-0.000014,44.715126,0.000014,
2491,3043,4.98361689907966,8.68019313916746,-0.00307728628115456,0.003328,-0.000156,0.004546,0.135540,0.036303,314.365979,25.762498,0.999741,0.992972,0.003531,0.363122,0.000023,0.000013,0.000034,0.000053,-0.000017,40.779020,0.000054,
2176,2863,-1.83170349830251,4.7475325951749,-0.0126965296698813,0.002462,-0.000330,0.004855,0.098319,0.034926,317.299422,24.518352,0.999044,0.987583,0.004145,0.436775,0.000001,0.000015,0.000013,0.000023,-0.000007,59.833776,0.000024,
2101,2653,-3.42732421884748,0.17709348777008,-0.0280990198947961,0.002429,-0.000280,0.003385,0.101873,0.037852,320.889944,24.411295,0.999456,0.988723,0.004056,0.415648,0.000009,0.000021,0.000011,0.000027,0.000003,59.069367,0.000033,
2296,2263,0.885683863768445,-8.33634415534925,-0.0046408397620894,0.002064,-0.000854,-0.000712,0.096711,0.001992,326.829330,23.515409,0.999426,0.987289,0.004748,0.351091,0.000097,0.000088,-0.000004,0.000099,0.000087,-21.826334,0.000185,
2296,2413,0.858634504544145,-5.05632603720838,-0.00157095726240186,0.002183,-0.000539,0.001569,0.094692,0.014539,324.429019,23.805289,0.999364,0.986211,0.004731,0.392460,0.000028,0.000069,0.000013,0.000073,0.000024,74.197737,0.000101,
2161,2788,-2.14492274585117,3.11736426779956,-0.0257960377713857,0.003031,0.000238,0.000803,0.137261,0.045885,318.500681,24.464482,0.999512,0.990190,0.004045,0.429873,-0.000012,0.000013,-0.000002,0.000013,-0.000013,-85.760427,0.000015,
2086,2668,-3.75486815480012,0.501712681281653,-0.0177646487288143,0.002654,-0.000350,0.005853,0.105260,0.045796,320.810976,24.363504,0.999421,0.989747,0.003960,0.478699,0.000006,0.000021,0.000008,0.000024,0.000002,66.228485,0.000030,
2011,2173,-5.31093353469959,-10.3058655672541,0.00747078060976492,0.000922,-0.000554,-0.000215,0.042755,0.018440,329.370113,24.800680,0.998626,0.984906,0.005345,0.388106,0.000225,0.000172,0.000084,0.000287,0.000110,36.333261,0.000410,
2146,2698,-2.45674719248101,1.15842032824517,-0.0314681960653616,0.002754,-0.000276,0.004167,0.114129,0.044410,319.948484,24.371328,0.999417,0.989557,0.004014,0.462267,0.000001,0.000025,-0.000006,0.000027,0.000000,-76.695216,0.000031,
2206,3013,-1.2041289065262,8.00675220374074,0.00662622805083402,0.003155,-0.000336,0.006121,0.125936,0.037872,314.951021,24.752548,0.999330,0.990776,0.003846,0.411811,0.000000,0.000000,0.000007,0.000007,-0.000007,46.303529,0.000008,
2221,3223,-0.913411401172983,12.5608853098324,0.0461169823308865,0.002686,-0.000228,0.010164,0.091414,0.067623,311.773544,25.054949,0.999496,0.992953,0.003545,0.432809,-0.000004,0.000004,0.000012,0.000012,-0.000013,54.049773,0.000015,
2281,2023,0.603168878567789,-13.6021867358384,0.0210452768411642,0.001564,-0.001869,-0.004355,0.085326,-0.067287,330.915513,22.963421,0.999090,0.980983,0.005560,0.408354,0.000332,0.000378,-0.000006,0.000379,0.000332,-82.741284,0.000711,
2056,2503,-4.38179652517808,-3.09475440506094,-0.0185085844103128,0.001922,-0.000634,0.003559,0.078252,0.030416,323.607296,24.388533,0.999397,0.988222,0.004358,0.501331,0.000043,-0.000011,-0.000008,0.000044,-0.000013,-8.444056,0.000046,
2401,2563,3.11772884172096,-1.77743885386071,-0.0151265501409057,0.002440,-0.000359,0.005372,0.092453,0.063253,321.885109,23.887187,0.999353,0.987316,0.004454,0.517060,0.000044,0.000009,0.000020,0.000053,0.000000,24.437167,0.000062,
2191,2968,-1.52203832184709,7.02807170228574,0.00598621095804219,0.003082,-0.000594,0.005148,0.125765,0.026722,315.724532,24.622103,0.999233,0.990894,0.003883,0.445251,0.000007,0.000002,0.000013,0.000018,-0.000009,39.858367,0.000018,
2041,2383,-4.68873218192835,-5.71425556374804,-0.00450558786263855,0.002000,-0.000360,0.001599,0.087432,0.036973,325.754618,24.518346,0.999234,0.987639,0.004412,0.456980,0.000077,0.000038,0.000005,0.000077,0.000038,7.397195,0.000117,
2281,2038,0.599949262945369,-13.2704074724301,0.00890132309694991,0.001867,-0.001515,-0.005192,0.102138,-0.049667,330.589118,23.070920,0.999158,0.983661,0.005164,0.350358,0.000316,0.000366,-0.000006,0.000367,0.000315,-83.030330,0.000683,
2371,2428,2.49067270911575,-4.72824890019655,-0.0080345659790737,0.002443,-0.000169,0.000914,0.108772,0.044966,324.128685,23.470917,0.999738,0.992055,0.004035,0.578912,0.000071,0.000051,0.000045,0.000107,0.000015,38.640856,0.000133,
2086,2788,-3.77347336621996,3.112716444783,-0.0172929539131133,0.002949,-0.000110,0.004664,0.122470,0.053985,318.885976,24.359166,0.999440,0.990000,0.004009,0.485224,-0.000013,0.000011,-0.000005,0.000012,-0.000014,-79.243965,0.000015,
2431,2758,3.73330332119476,2.47604875606518,-0.017837114474446,0.002898,-0.000316,0.004614,0.115974,0.032322,318.752297,24.552817,0.999513,0.988242,0.004146,0.431750,0.000023,0.000039,0.000018,0.000050,0.000011,57.296935,0.000066,
2026,2218,-4.99101177390927,-9.32093284081399,-0.00167431911654603,0.001279,-0.000202,-0.001541,0.062909,0.003359,328.498140,24.658303,0.998342,0.981154,0.005609,0.416004,0.000174,0.000137,0.000079,0.000237,0.000074,38.403530,0.000325,
2206,3178,-1.2309997980095,11.5849404253484,0.0307179670193705,0.003194,0.000033,0.003820,0.135357,0.053927,312.465910,24.929609,0.999676,0.994427,0.003236,0.423198,-0.000001,-0.000002,0.000015,0.000013,-0.000017,44.163953,0.000018,
2176,2908,-1.8386687565307,5.7246167877274,-0.00257092727446206,0.002591,-0.000415,0.007010,0.097605,0.050784,316.651000,24.530589,0.999514,0.991923,0.003674,0.475756,0.000004,0.000001,0.000014,0.000017,-0.000012,42.433794,0.000017,
2011,2203,-5.31588830137345,-9.64780986032726,-0.00548100808174468,0.001067,-0.000099,-0.000318,0.049836,0.043128,328.787579,24.767309,0.999549,0.991790,0.004173,0.428013,0.000196,0.000164,0.000079,0.000260,0.000099,39.176533,0.000372,
2416,2698,3.41770646943001,1.1682868259557,-0.0263703311490531,0.002568,-0.000062,0.001218,0.113482,0.024187,319.634271,24.319465,0.999532,0.989442,0.004129,0.458738,0.000022,0.000044,0.000007,0.000046,0.000019,73.396713,0.000068,
2326,2233,1.5465402677214,-8.99628320076668,0.010911508074912,0.001977,-0.001461,0.002816,0.080356,-0.008458,327.408954,23.206627,0.998556,0.974584,0.006169,0.442812,0.000125,0.000112,-0.000007,0.000128,0.000109,-23.651256,0.000237,
2056,2338,-4.35483165332902,-6.69701926717419,-0.00130113657547781,0.002345,0.000030,-0.002220,0.114037,0.041920,326.446539,24.505933,0.999039,0.984731,0.004852,0.437282,0.000073,0.000038,0.000004,0.000074,0.000038,6.465936,0.000113,
2041,2518,-4.70940840072915,-2.76798154090357,-0.0153152796774521,0.002400,-0.000212,0.002812,0.102580,0.037652,323.502143,24.435794,0.999214,0.989216,0.004313,0.484778,0.000040,-0.000013,-0.000005,0.000041,-0.000014,-5.179776,0.000042,
2356,2383,2.1718327627163,-5.71031363028795,-0.00428351843993369,0.002224,-0.000942,0.005193,0.083386,0.021297,324.857189,23.616336,0.999203,0.982328,0.005127,0.330459,0.000067,0.000060,0.000032,0.000096,0.000031,42.186990,0.000132,
2461,2863,4.36480646706623,4.76492104883297,-0.0290997848720167,0.002642,0.000072,-0.000650,0.123919,0.030270,317.008140,24.958737,0.999563,0.990445,0.003744,0.417426,0.000008,0.000020,0.000010,0.000025,0.000003,60.480012,0.000031,
2026,2458,-5.0272494122659,-4.07576161067484,-0.0266576889907242,0.002127,-0.000062,0.000125,0.097498,0.026913,324.461395,24.494434,0.999371,0.989549,0.004156,0.477931,0.000079,-0.000007,-0.000003,0.000079,-0.000007,-1.937265,0.000088,
2386,2653,2.77342936583544,0.184777507110283,-0.0141825212479603,0.002514,-0.001138,0.007634,0.087675,0.018345,320.412768,24.172133,0.999210,0.985629,0.004641,0.473234,0.000024,0.000041,0.000015,0.000050,0.000015,59.617682,0.000068,
2011,2188,-5.31554470351905,-9.97387982495536,-0.0137757828612735,-0.000141,-0.000257,0.001618,-0.010924,0.043038,328.898186,24.883350,0.999436,0.991555,0.004338,0.321941,0.000209,0.000183,0.000096,0.000293,0.000099,41.072172,0.000407,
2221,3178,-0.904955581602355,11.5847286780534,0.0439955983157461,0.002938,-0.000515,0.004232,0.121772,0.008292,312.523580,24.986933,0.999412,0.990853,0.003744,0.389030,-0.000002,-0.000006,0.000012,0.000008,-0.000016,40.312029,0.000016,
2101,2863,-3.45932378590651,4.74357870188429,-0.0103176738853108,0.003035,-0.000172,0.004579,0.126540,0.046981,317.655406,24.418026,0.999650,0.992316,0.003570,0.436165,-0.000014,-0.000001,-0.000002,0.000000,-0.000014,-80.166985,0.000017,
2491,3058,4.98141926436454,9.00440203663763,0.0103285860168398,0.003177,-0.000477,0.005838,0.123566,0.029927,314.221403,25.753649,0.999676,0.991554,0.003849,0.423539,0.000026,0.000009,0.000033,0.000051,-0.000017,37.988043,0.000052,
2206,3238,-1.24160515313533,12.8846770348928,0.0336277116756492,0.003012,-0.000273,0.005772,0.120673,0.039432,311.493606,24.957556,0.999719,0.994650,0.003146,0.441902,-0.000006,-0.000003,0.000015,0.000011,-0.000020,47.384454,0.000020,
2086,2683,-3.75746342941576,0.828483442723211,-0.0214733151802307,0.002606,-0.000237,0.004954,0.105656,0.043324,320.537380,24.355897,0.999480,0.991577,0.003651,0.483562,0.000005,0.000020,-0.000002,0.000020,0.000005,-84.238420,0.000026,
2281,2098,0.589163292707926,-11.9551790177994,0.0182114741739952,0.001723,-0.002099,0.002928,0.068371,-0.039610,329.667981,23.183163,0.998670,0.978071,0.005752,0.372071,0.000254,0.000307,0.000001,0.000307,0.000254,88.855989,0.000562,
2011,2218,-5.31749664849808,-9.32024784846939,0.00216218907337407,0.001290,-0.000295,0.001590,0.054865,0.035434,328.615362,24.792595,0.999034,0.987099,0.004849,0.385340,0.000187,0.000138,0.000077,0.000243,0.000082,36.122133,0.000338,
2296,2278,0.883801124459158,-8.00997180477916,0.00685998620446071,0.002375,-0.001453,0.003761,0.095661,0.003096,326.682689,23.486078,0.999392,0.985642,0.004776,0.413311,0.000090,0.000084,-0.000005,0.000092,0.000081,-29.826421,0.000174,
2446,2818,4.04751740979429,3.78320288285506,-0.0244429618529125,0.002688,0.000010,0.001379,0.118397,0.038743,317.746877,24.684811,0.999438,0.989164,0.004162,0.521835,0.000019,0.000012,0.000007,0.000023,0.000008,31.760307,0.000033,
2131,2758,-2.7920940775063,2.46293932124776,-0.0223339557260829,0.002585,-0.000584,0.004502,0.105425,0.018927,319.103845,24.441185,0.999465,0.991238,0.003807,0.391599,-0.000007,0.000013,-0.000005,0.000015,-0.000008,-77.568052,0.000015,
2101,2668,-3.42955446430532,0.503175954421827,-0.0281530118724618,0.002411,-0.000060,0.000549,0.109429,0.030126,320.654299,24.372328,0.999501,0.990133,0.003903,0.448539,0.000004,0.000022,0.000007,0.000024,0.000002,71.361906,0.000029,
2296,2428,0.856353137822023,-4.72846614587267,-0.00506141043200614,0.002623,-0.000376,-0.001979,0.126943,0.007096,324.189461,23.821507,0.999543,0.988102,0.004395,0.400224,0.000027,0.000047,0.000011,0.000052,0.000022,66.181444,0.000076,
2026,2233,-4.99289450299731,-8.99140748838452,-0.00417583138528244,0.001742,-0.000147,-0.001790,0.084882,0.021946,328.257491,24.736643,0.999155,0.985327,0.004941,0.348604,0.000166,0.000124,0.000065,0.000213,0.000077,36.053999,0.000300,
2401,2578,3.11490595206045,-1.44978364525529,-0.0171958793859517,0.002553,-0.000688,0.003437,0.104505,0.028529,321.636255,23.977719,0.999315,0.986594,0.004552,0.438238,0.000044,0.000021,0.000024,0.000059,0.000006,31.845263,0.000072,
2206,3193,-1.23297554874674,11.9090483055025,0.0382563228625372,0.003369,-0.000205,0.004593,0.140972,0.061473,312.289530,24.883624,0.999754,0.995789,0.003053,0.492146,-0.000003,-0.000003,0.000014,0.000011,-0.000017,44.178425,0.000017,
2116,2668,-3.10419631789287,0.504640331589847,-0.0350012340380772,0.002440,-0.000030,0.002777,0.104149,0.042016,320.521832,24.383040,0.999556,0.990588,0.003814,0.443793,0.000002,0.000025,0.000003,0.000025,0.000002,83.546986,0.000030,
2161,2923,-2.16695350921541,6.05008263823166,-0.0020203017456879,0.002526,-0.000437,0.007743,0.092622,0.041274,316.459291,24.566774,0.999238,0.988237,0.004261,0.410351,0.000005,-0.000001,0.000015,0.000017,-0.000013,39.320320,0.000018,
2026,2473,-5.02976310492467,-3.74870131734345,-0.0183391514092364,0.001840,-0.000656,0.008265,0.061818,0.040664,324.253021,24.537534,0.998860,0.984901,0.004845,0.440043,0.000082,-0.000020,0.000004,0.000083,-0.000021,2.439426,0.000086,
2221,3238,-0.916251291546612,12.8858465050104,0.0370946446834068,0.002856,-0.000561,0.006315,0.111412,0.025011,311.472555,25.053057,0.999655,0.993784,0.003305,0.409749,-0.000006,-0.000006,0.000013,0.000007,-0.000019,45.847763,0.000020,
2056,2353,-4.35791136837791,-6.36866800182113,-0.00876103353772351,0.002195,-0.000112,0.000934,0.098238,0.057443,326.127000,24.475107,0.998859,0.983233,0.005122,0.480383,0.000062,0.000040,0.000005,0.000063,0.000039,12.006724,0.000103,
2161,3013,-2.18108848286822,8.00353427898382,0.0101096262540068,0.002798,-0.000277,0.008516,0.102985,0.068199,315.104321,24.598363,0.999459,0.990646,0.003934,0.462421,0.000011,0.000002,0.000006,0.000014,-0.000001,27.058185,0.000016,
2191,3163,-1.55485687172309,11.2591253593828,0.0271458348463511,0.002788,-0.000456,0.010295,0.096256,0.043999,312.687384,24.894516,0.999604,0.994739,0.003258,0.365931,-0.000003,0.000001,0.000015,0.000014,-0.000016,48.775371,0.000017,
2461,2878,4.36138357768774,5.09163379047862,-0.0309779418796552,0.002561,0.000007,0.001328,0.112780,0.038724,316.736047,25.016393,0.999474,0.991249,0.003720,0.422391,0.000009,0.000012,0.000012,0.000023,-0.000002,49.006479,0.000026,
2086,2803,-3.77580409212137,3.43927236886604,-0.0168670787525116,0.002842,-0.000043,0.002513,0.123748,0.045308,318.647107,24.407725,0.999284,0.989955,0.004025,0.426875,-0.000010,0.000011,-0.000001,0.000011,-0.000010,-86.511381,0.000012,
2326,2248,1.54360745083311,-8.66666163625813,0.00635486495878013,0.001970,-0.000741,0.000192,0.089342,0.008047,327.137279,23.284710,0.998910,0.979528,0.005465,0.418124,0.000114,0.000086,-0.000005,0.000115,0.000085,-10.298506,0.000201,
2281,2053,0.597296036661721,-12.9419096045865,0.00902894971630985,0.002025,-0.001562,-0.003203,0.102756,-0.032159,330.349887,23.023567,0.999034,0.981625,0.005317,0.446303,0.000299,0.000351,-0.000007,0.000352,0.000298,-82.574883,0.000651,
2176,2923,-1.84138934845022,6.05145727880062,-0.00667360634838587,0.002830,-0.000319,0.008949,0.102642,0.057781,316.376970,24.592637,0.998967,0.986619,0.004533,0.432645,0.000007,0.000001,0.000018,0.000022,-0.000014,40.169163,0.000022,
2491,3073,4.97813556219612,9.3297599691952,0.00859165471479173,0.003059,-0.000501,0.005277,0.120257,0.020009,313.958000,25.759182,0.999633,0.991127,0.003887,0.465982,0.000027,0.000014,0.000034,0.000056,-0.000014,39.628742,0.000058,
2431,2773,3.7302047903827,2.8024527443069,-0.0160739580046538,0.002739,-0.000637,0.005959,0.103634,0.039691,318.510284,24.578823,0.999441,0.988321,0.004273,0.463049,0.000025,0.000027,0.000014,0.000040,0.000011,46.531683,0.000054,
2011,2233,-5.31949917546104,-8.99149864463816,-0.00191450899097845,0.001528,0.000059,-0.001387,0.073947,0.044021,328.359307,24.793284,0.999028,0.984414,0.005111,0.383931,0.000177,0.000127,0.000060,0.000217,0.000087,33.704369,0.000313,
2011,2323,-5.33191874031975,-7.0252994703209,0.00367875967299369,0.001841,-0.000032,-0.001673,0.089137,0.035803,326.974768,24.700424,0.998911,0.984236,0.005088,0.409393,0.000117,0.000023,0.000000,0.000117,0.000023,-0.169492,0.000150,
2266,2248,0.234632963712457,-8.6661290911573,0.0022955379523637,0.002287,-0.000947,0.001392,0.099928,0.012370,327.169466,23.540596,0.998857,0.981171,0.005425,0.440580,0.000103,0.000089,0.000000,0.000103,0.000089,-1.765004,0.000191,
2041,2533,-4.71215459642878,-2.44003767321434,-0.0195635251745898,0.001976,0.000075,-0.000628,0.092762,0.031589,323.214393,24.483809,0.999113,0.988506,0.004244,0.424163,0.000035,-0.000011,0.000002,0.000035,-0.000011,1.879147,0.000036,
2206,3253,-1.24433165920671,13.209409940412,0.0328563144738041,0.003061,-0.000274,0.007168,0.118541,0.049883,311.239329,24.932743,0.999749,0.994953,0.003031,0.492689,-0.000007,-0.000010,0.000018,0.000009,-0.000026,42.738570,0.000027,
2086,2818,-3.77810995864077,3.76525700820996,-0.0154588668875135,0.002888,-0.000162,0.003382,0.123347,0.048955,318.414885,24.403379,0.999463,0.991721,0.003727,0.433750,-0.000012,0.000020,-0.000002,0.000020,-0.000012,-86.929245,0.000020,
2446,2833,4.04502914875571,4.11141513148828,-0.0177548132301126,0.002753,-0.000095,0.002474,0.117308,0.046906,317.555993,24.931311,0.999648,0.991314,0.003771,0.335158,0.000014,0.000021,0.000008,0.000026,0.000009,58.162187,0.000036,
2281,2113,0.586828829199238,-11.6262302405612,0.0124747728353896,0.002034,-0.001308,-0.003261,0.103531,-0.041918,329.414116,23.153847,0.998895,0.979032,0.005551,0.429886,0.000240,0.000291,0.000002,0.000291,0.000240,88.140323,0.000532,
2131,2773,-2.79451241550446,2.78894731040761,-0.021026932505265,0.002520,-0.000421,0.004252,0.103253,0.023513,318.869144,24.425646,0.999587,0.992518,0.003510,0.417475,-0.000006,0.000014,-0.000002,0.000014,-0.000006,-84.559037,0.000014,
2371,2443,2.48821131876354,-4.39987944542749,-0.00278026291226752,0.002548,-0.000563,0.002205,0.108838,0.023286,323.929236,23.636582,0.999323,0.987052,0.004609,0.433602,0.000073,0.000032,0.000043,0.000101,0.000004,32.206127,0.000119,
2101,2683,-3.43181908623957,0.828977649224889,-0.023541896406698,0.002422,-0.000299,0.003308,0.101788,0.033509,320.442350,24.339581,0.999409,0.990913,0.003810,0.486081,0.000003,0.000022,-0.000002,0.000022,0.000003,-85.213350,0.000027,
2206,3208,-1.23593888209503,12.2341511406091,0.0395456514581269,0.003149,-0.000333,0.007640,0.121150,0.064070,312.034978,24.900943,0.999541,0.993795,0.003444,0.492759,-0.000003,0.000002,0.000017,0.000016,-0.000017,49.086710,0.000019,
2101,2878,-3.46212797137087,5.06868221862159,-0.00981687370642703,0.002790,-0.000689,0.007295,0.107060,0.020181,317.396866,24.373285,0.999643,0.992152,0.003684,0.455007,-0.000007,0.000007,0.000003,0.000008,-0.000007,77.898611,0.000009,
2221,3253,-0.919262349862027,13.2107210873539,0.0291030696754433,0.003011,-0.000507,0.005723,0.120481,0.023297,311.168990,25.013190,0.999649,0.993850,0.003251,0.465483,-0.000009,-0.000013,0.000015,0.000004,-0.000027,41.146044,0.000028,
2296,2293,0.881021978185561,-7.68150119165082,0.0101207107929326,0.002264,-0.001617,0.006264,0.082113,0.002221,326.453939,23.571327,0.999407,0.984852,0.004794,0.359194,0.000081,0.000086,0.000001,0.000086,0.000081,83.080693,0.000167,
2056,2548,-4.38854768535318,-2.11344680919515,-0.0174231285935207,0.002133,-0.000580,0.005763,0.081784,0.027127,322.892799,24.411573,0.999353,0.988578,0.004220,0.461709,0.000028,-0.000002,0.000002,0.000028,-0.000002,2.860581,0.000031,
2461,2893,4.3590486799919,5.41795678954807,-0.0216292704498642,0.002849,-0.000477,0.005775,0.109115,0.050510,316.565464,25.120910,0.999123,0.988897,0.004206,0.383558,0.000014,-0.000003,0.000012,0.000021,-0.000009,28.349018,0.000021,
2011,2248,-5.32163921987449,-8.66479236635979,0.00105276548237043,0.001369,-0.000143,-0.001593,0.067156,0.020497,328.136992,24.717557,0.998995,0.983793,0.005082,0.426436,0.000162,0.000121,0.000043,0.000189,0.000094,32.012688,0.000288,
2026,2248,-4.99521034655345,-8.66486318839244,-0.00286958429558126,0.001537,-0.000262,-0.001889,0.075707,0.007225,328.019052,24.620873,0.999236,0.986502,0.004703,0.442348,0.000149,0.000119,0.000049,0.000185,0.000083,36.336072,0.000274,
2281,2068,0.595521295677909,-12.6128690192181,0.0160776148976538,0.002300,-0.001442,-0.004863,0.120916,-0.033067,330.185227,23.126116,0.999043,0.982472,0.005168,0.373592,0.000284,0.000338,-0.000004,0.000338,0.000283,-85.915840,0.000622,
2296,2443,0.85221837201577,-4.40185694973187,-0.0116901451988838,0.002226,-0.001266,0.005138,0.084370,0.004820,323.849588,23.694442,0.999616,0.988528,0.004301,0.556784,0.000026,0.000034,0.000011,0.000042,0.000018,54.994273,0.000061,
2041,2548,-4.7146962813929,-2.11302823256061,-0.0250640395797177,0.002242,-0.000384,0.002651,0.095721,0.028247,322.929312,24.437838,0.999506,0.989281,0.003964,0.460287,0.000040,-0.000008,-0.000001,0.000040,-0.000008,-0.723086,0.000042,
2326,2263,1.54112674242204,-8.3389798924667,0.0105288005056536,0.002083,-0.001003,0.001972,0.088318,-0.002359,326.929179,23.307190,0.999031,0.981999,0.005109,0.421788,0.000099,0.000077,-0.000005,0.000100,0.000076,-13.424724,0.000176,
2116,2683,-3.10635887434999,0.829990518679992,-0.0312549850761457,0.002477,-0.000380,0.003142,0.104676,0.035093,320.311060,24.312799,0.999481,0.991780,0.003658,0.510923,0.000000,0.000026,-0.000005,0.000027,-0.000001,-80.294931,0.000031,
2401,2593,3.11211608429899,-1.12301877970027,-0.0145698322373846,0.002656,-0.000743,0.005747,0.100816,0.021211,321.411047,24.004927,0.999419,0.988539,0.004286,0.449893,0.000041,0.000017,0.000026,0.000058,0.000001,32.758999,0.000067,
2086,2833,-3.78058564871323,4.09102804641937,-0.0101149650221828,0.002645,-0.000411,0.006276,0.103741,0.046132,318.196404,24.419742,0.999768,0.994561,0.003097,0.413245,-0.000011,0.000013,-0.000008,0.000015,-0.000013,-73.314848,0.000016,
2161,2938,-2.1693194570202,6.37536432381317,0.00292216337618356,0.002444,-0.000523,0.009100,0.084644,0.045148,316.248521,24.556568,0.999321,0.988844,0.004196,0.434201,0.000004,0.000000,0.000015,0.000017,-0.000013,40.397161,0.000018,
2236,2053,-0.384639114491041,-12.9419652110749,0.0217795903195679,0.001708,-0.001699,-0.003125,0.087691,-0.082113,330.513267,23.409343,0.998925,0.976520,0.005724,0.301408,0.000286,0.000345,0.000026,0.000355,0.000276,69.210987,0.000633,
2176,2938,-1.84345022456975,6.37710176712666,-0.00135499616226298,0.002822,-0.000086,0.006957,0.108540,0.053687,316.182996,24.626956,0.999271,0.989855,0.003999,0.405964,0.000006,0.000003,0.000017,0.000021,-0.000012,42.131273,0.000021,
2206,3268,-1.24765766416823,13.5354303510551,0.0178980113095122,0.003286,-0.000196,0.005541,0.134165,0.049545,310.883364,24.963099,0.999510,0.992745,0.003451,0.477181,-0.000007,-0.000010,0.000021,0.000013,-0.000029,43.388897,0.000029,
2191,3178,-1.55663625571297,11.5836409862228,0.0304934372292678,0.003182,-0.000187,0.007500,0.123317,0.052930,312.497226,24.856509,0.999807,0.996196,0.002989,0.425969,-0.000003,0.000000,0.000017,0.000016,-0.000019,47.901895,0.000020,
2281,2128,0.58460568157793,-11.2978946610507,0.0225607512048782,0.001961,-0.001210,-0.000476,0.090944,-0.020073,329.243888,23.221812,0.998679,0.977354,0.005625,0.414344,0.000226,0.000277,0.000002,0.000277,0.000226,87.353588,0.000504,
2011,2338,-5.33496888118697,-6.69764697542241,-0.0016811113578683,0.001360,-0.000127,-0.000572,0.064034,0.029266,326.664145,24.641495,0.999111,0.985343,0.004823,0.452180,0.000098,0.000007,-0.000015,0.000101,0.000005,-9.116529,0.000119,
2386,2668,2.77055015545318,0.512704919425239,-0.0196344785771316,0.002618,-0.000323,0.003309,0.108292,0.026893,320.143432,24.245063,0.999341,0.987143,0.004450,0.452715,0.000023,0.000041,0.000011,0.000046,0.000018,65.242543,0.000066,
2131,2788,-2.79710016935524,3.11489178706172,-0.0163919332368891,0.002196,-0.000473,0.005907,0.083408,0.045290,318.644431,24.417228,0.999585,0.992865,0.003412,0.453173,-0.000011,0.000014,0.000000,0.000014,-0.000011,88.935257,0.000015,
2431,2788,3.72742334695916,3.12978291987315,-0.0167695614749164,0.002852,-0.000440,0.004255,0.115200,0.035008,318.271168,24.687092,0.999309,0.989312,0.004241,0.400070,0.000026,0.000028,0.000010,0.000037,0.000018,47.957876,0.000055,
2011,2263,-5.32364384532184,-8.33699531693861,0.00197470579240644,0.001490,-0.000224,-0.001539,0.072570,0.018448,327.909105,24.703858,0.998726,0.980026,0.005257,0.428243,0.000149,0.000092,0.000046,0.000175,0.000067,28.982178,0.000249,
2446,2848,4.04261768042101,4.43577029671142,-0.00799721010429266,0.002685,-0.000071,0.004350,0.107212,0.054231,317.383684,24.850194,0.999612,0.990766,0.003722,0.475693,0.000008,0.000023,0.000006,0.000025,0.000006,69.369011,0.000033,
2371,2458,2.48483627462954,-4.0717886027036,-0.00951053350723896,0.002462,-0.000778,0.000894,0.109451,-0.027837,323.630769,23.699086,0.999202,0.985451,0.004772,0.362735,0.000067,0.000026,0.000042,0.000093,0.000000,31.873649,0.000107,
2461,2908,4.35672908085547,5.74298451497381,-0.0118355521926787,0.002734,-0.000611,0.005697,0.104033,0.033606,316.397935,25.141023,0.999014,0.987103,0.004500,0.400338,0.000015,-0.000008,0.000016,0.000023,-0.000017,27.509390,0.000024,
2041,2563,-4.71605035481987,-1.78629378370352,-0.0235365554602254,0.002771,0.000005,-0.002232,0.133794,0.025775,322.737561,24.432942,0.999576,0.989033,0.003944,0.456020,0.000035,-0.000003,0.000000,0.000035,-0.000003,-0.460750,0.000039,
2281,2083,0.592316795644049,-12.2847471200738,0.0193723752253163,0.001866,-0.001967,-0.000316,0.085750,-0.046231,329.936663,23.120509,0.999074,0.981408,0.005321,0.397027,0.000270,0.000324,-0.000001,0.000324,0.000270,-89.315236,0.000596,
2296,2308,0.877612295776327,-7.35414929939571,0.00398136915742953,0.002040,-0.001781,0.006508,0.070962,-0.002241,326.150018,23.468803,0.999288,0.984395,0.005024,0.489586,0.000073,0.000084,0.000004,0.000086,0.000072,72.594294,0.000158,
2101,2698,-3.43433894391182,1.15552781777889,-0.0172897703353669,0.002143,-0.000881,0.007060,0.077806,0.021696,320.227414,24.407963,0.999174,0.990163,0.004030,0.407415,0.000007,0.000014,0.000000,0.000014,0.000007,88.664019,0.000021,
2101,2893,-3.46397482768946,5.3944818863049,-0.00409959302101015,0.002975,-0.000143,0.006960,0.116793,0.051136,317.210141,24.376917,0.999448,0.992404,0.003807,0.482891,-0.000008,-0.000002,0.000003,-0.000001,-0.000010,66.929376,0.000012,
2026,2263,-4.99719232242373,-8.33591199590518,-0.000887767311212428,0.001726,-0.000399,-0.000617,0.080887,0.016241,327.798999,24.712853,0.998917,0.982134,0.005099,0.351837,0.000139,0.000094,0.000049,0.000171,0.000063,32.753057,0.000242,
2161,2953,-2.1712935310067,6.70058673485309,0.00715934859977096,0.002687,-0.000499,0.008744,0.096978,0.053960,316.052029,24.534495,0.999477,0.991055,0.003743,0.474471,0.000006,-0.000004,0.000014,0.000016,-0.000014,35.008576,0.000017,
2206,3223,-1.23983929098712,12.5608539913021,0.0298141772763074,0.002658,-0.000392,0.009213,0.093490,0.061617,311.679571,25.011447,0.999768,0.995496,0.003058,0.394743,-0.000004,0.000007,0.000014,0.000017,-0.000013,55.857790,0.000018,
2086,2848,-3.78261296990631,4.41626184330578,-0.00571796797265733,0.002668,0.000147,0.005364,0.107642,0.074365,317.993445,24.352292,0.999670,0.993267,0.003374,0.507620,-0.000013,-0.000002,-0.000007,0.000001,-0.000016,-64.185967,0.000018,
2056,2563,-4.38997025024376,-1.78678626405671,-0.0147681012186354,0.002578,-0.000297,0.001385,0.114673,0.023174,322.705286,24.411099,0.999381,0.987661,0.004327,0.453666,0.000026,0.000000,0.000002,0.000027,-0.000001,5.051826,0.000030,
2266,2263,0.232765283638447,-8.33800355348284,0.0139755444961338,0.002137,-0.000589,-0.000006,0.097804,0.024308,327.022398,23.657182,0.999591,0.988427,0.004551,0.363354,0.000090,0.000081,0.000000,0.000090,0.000081,-2.088070,0.000172,
2401,2608,3.1093719166752,-0.795218218771979,-0.0148391978437417,0.002553,-0.000281,0.001941,0.110131,0.040240,321.173960,24.080286,0.999410,0.989240,0.004144,0.439708,0.000034,0.000016,0.000023,0.000050,0.000001,34.217976,0.000058,
2296,2458,0.849757003676334,-4.07184147047745,-0.0133326805260481,0.002526,-0.000385,0.003813,0.102984,0.040339,323.610245,23.893443,0.999399,0.986945,0.004566,0.424457,0.000021,0.000029,0.000013,0.000039,0.000012,53.811301,0.000053,
2431,2803,3.72495010127392,3.45662295702843,-0.0128842791304464,0.002885,-0.000320,0.002346,0.123866,0.045845,318.067521,24.774529,0.999393,0.989105,0.004233,0.373355,0.000025,0.000019,0.000012,0.000035,0.000009,37.859721,0.000046,
2446,2863,4.0401356475151,4.7616669620569,-0.00598854326671017,0.002875,-0.000136,0.002384,0.123234,0.042974,317.171978,24.874984,0.999764,0.992688,0.003393,0.491518,0.000006,0.000017,0.000006,0.000020,0.000003,65.276009,0.000025,
2221,3268,-0.921882439280555,13.5357078310994,0.0244373985368043,0.003305,-0.000280,0.004832,0.137028,0.038895,310.900468,24.989528,0.999562,0.993117,0.003415,0.522494,-0.000010,-0.000010,0.000017,0.000008,-0.000027,44.702334,0.000028,
2011,2278,-5.32594035367378,-8.00857751547044,-0.00284979575303623,0.001576,0.000014,-0.002957,0.080422,0.028471,327.635573,24.681782,0.998640,0.979334,0.005646,0.450848,0.000148,0.000056,0.000031,0.000157,0.000047,16.877882,0.000214,
2101,2908,-3.46611889122651,5.72029316826727,0.000643751105940282,0.002799,-0.000203,0.004582,0.115686,0.055082,317.004573,24.405013,0.999365,0.992091,0.003874,0.459535,-0.000005,-0.000017,0.000005,-0.000003,-0.000019,19.583084,0.000024,
2191,3193,-1.55877306822261,11.9076308457081,0.0415137102218637,0.002909,-0.000213,0.007842,0.109691,0.057827,312.330878,24.822468,0.999707,0.995268,0.003165,0.478156,-0.000006,-0.000001,0.000016,0.000013,-0.000020,48.740378,0.000020,
2041,2578,-4.71879331580244,-1.45922123368689,-0.0266378810053425,0.002689,-0.000017,0.000986,0.121046,0.028279,322.456543,24.418425,0.999253,0.988818,0.004135,0.466425,0.000028,-0.000001,-0.000003,0.000028,-0.000002,-5.238757,0.000032,
2236,2068,-0.386904431376486,-12.613216682372,0.0269935939165293,0.001664,-0.001331,-0.003136,0.085800,-0.035081,330.313466,23.415624,0.999125,0.978932,0.005497,0.366334,0.000272,0.000329,0.000028,0.000340,0.000261,67.944358,0.000602,
2056,2578,-4.39233142785411,-1.45926937646551,-0.0193879547666711,0.002858,-0.000035,0.002250,0.125250,0.040103,322.434503,24.409301,0.999155,0.987988,0.004327,0.467844,0.000019,0.000001,0.000002,0.000019,0.000001,6.143858,0.000023,
2371,2473,2.48217254282799,-3.74472914562168,-0.00215337945547844,0.002327,-0.000653,0.003969,0.092414,0.010270,323.431978,23.713689,0.999391,0.987598,0.004447,0.428673,0.000061,0.000016,0.000039,0.000084,-0.000007,30.149251,0.000093,
2176,2953,-1.84589457700958,6.70222762642061,-0.00122685099228192,0.002899,-0.000209,0.006678,0.112903,0.045475,315.944372,24.584932,0.999364,0.991939,0.003580,0.451594,0.000008,-0.000001,0.000016,0.000020,-0.000013,36.379762,0.000020,
2206,3283,-1.25017566880088,13.860870017679,0.0138210098915579,0.003589,-0.000341,0.004219,0.152255,0.035512,310.621192,25.018482,0.999348,0.991616,0.003596,0.422809,-0.000015,-0.000009,0.000027,0.000015,-0.000039,47.980615,0.000039,
2281,2158,0.578685244715263,-10.6388270673757,0.0143456748587596,0.001927,-0.001117,-0.001796,0.093844,-0.010249,328.694670,23.319225,0.999487,0.982783,0.005224,0.388303,0.000193,0.000194,0.000009,0.000202,0.000185,45.675382,0.000387,
2026,2638,-5.05320525311245,-0.153350260745349,-0.0185277955295646,0.002594,0.000411,-0.000659,0.121487,0.059116,321.645231,24.396765,0.999246,0.990086,0.004095,0.501129,0.000024,0.000016,0.000015,0.000036,0.000004,38.132206,0.000044,
2161,2968,-2.17355879209391,7.02663341405616,0.00421758223137658,0.002960,-0.000710,0.005941,0.118111,0.035998,315.804042,24.568874,0.999614,0.992584,0.003464,0.431559,0.000009,-0.000002,0.000011,0.000016,-0.000009,31.666189,0.000016,
2086,2863,-3.78479062427642,4.74305103501604,-0.00951024763537589,0.003006,0.000058,0.003500,0.128609,0.062894,317.738577,24.410326,0.999442,0.990950,0.003917,0.437080,-0.000012,-0.000003,-0.000007,0.000001,-0.000016,-60.996151,0.000018,
2461,2923,4.35310691302636,6.06996604595962,-0.0150999468169175,0.002424,-0.000378,0.005923,0.089069,0.047915,316.110005,25.219763,0.999306,0.989074,0.004221,0.390099,0.000016,-0.000011,0.000012,0.000021,-0.000015,21.246416,0.000022,
2221,3283,-0.925333819397817,13.8630589632476,0.0112287429736853,0.003324,-0.000111,0.003253,0.143163,0.064264,310.548731,25.132181,0.999303,0.991916,0.003608,0.422250,-0.000019,-0.000007,0.000022,0.000010,-0.000035,52.529830,0.000037,
2101,2713,-3.43658017694426,1.48214739818538,-0.0204928971671734,0.002409,-0.000524,0.005579,0.094498,0.020566,319.974088,24.399104,0.999308,0.989597,0.004057,0.416934,0.000007,0.000014,0.000001,0.000014,0.000007,82.882713,0.000022,
2401,2623,3.10636999220795,-0.468277192283963,-0.0130369563692057,0.002570,-0.000554,0.004973,0.099803,0.038310,320.934956,24.120163,0.999300,0.987640,0.004305,0.444020,0.000034,0.000035,0.000017,0.000051,0.000018,46.108167,0.000071,
2386,2683,2.76723285093962,0.842007279653018,-0.0319680656079981,0.003006,0.000172,0.001164,0.134016,0.054760,319.820872,24.373653,0.999396,0.986575,0.004355,0.395936,0.000024,0.000049,0.000008,0.000051,0.000022,74.107147,0.000075,
2281,2143,0.581698640682269,-10.9671261719196,0.0196348779288655,0.002071,-0.001264,0.000900,0.091369,-0.011814,328.977431,23.389558,0.999235,0.981867,0.005280,0.285516,0.000210,0.000233,0.000008,0.000235,0.000208,73.044440,0.000443,
2446,2878,4.03614188869618,5.08898479720261,-0.0148027928379406,0.002794,-0.000606,0.004707,0.110673,0.024431,316.840342,24.962654,0.999533,0.991295,0.003696,0.437233,0.000006,0.000009,0.000010,0.000017,-0.000002,49.418435,0.000019,
2011,2293,-5.32919229993113,-7.67848411608519,-0.0109654375239643,0.001323,-0.000098,0.002558,0.053892,0.071893,327.299474,24.752354,0.998969,0.985000,0.005002,0.414347,0.000140,0.000063,0.000027,0.000149,0.000055,17.554187,0.000211,
2266,2278,0.229351832185053,-8.00982895408119,0.00659751187151869,0.002111,-0.000866,0.002654,0.087739,0.022053,326.709134,23.603310,0.999414,0.986095,0.004825,0.443135,0.000082,0.000077,0.000002,0.000083,0.000076,17.558080,0.000159,
2296,2473,0.847159453517634,-3.74395110565437,-0.0160858650192495,0.002701,0.000104,0.001674,0.118389,0.034528,323.359682,23.934029,0.998800,0.981982,0.005308,0.409454,0.000021,0.000026,0.000015,0.000039,0.000008,49.584405,0.000050,
2026,2653,-5.05615611496438,0.173889985616839,-0.0258894050931531,0.002527,0.000061,0.002323,0.110104,0.046926,321.329732,24.400341,0.999351,0.991018,0.003840,0.476302,0.000016,0.000026,0.000010,0.000033,0.000010,57.913907,0.000045,
2191,3208,-1.56128324400927,12.2329015034252,0.0390293414038183,0.003077,-0.000233,0.006515,0.121636,0.056523,312.076410,24.836696,0.999456,0.992831,0.003722,0.476046,-0.000007,0.000004,0.000018,0.000018,-0.000021,53.310100,0.000022,
2101,2923,-3.46863263038914,6.04626135588019,-0.00258167697688805,0.002699,-0.000044,0.001203,0.121018,0.046204,316.738879,24.407165,0.999174,0.990367,0.004082,0.449330,-0.000001,-0.000021,0.000009,0.000003,-0.000024,21.763125,0.000027,
2221,3298,-0.929005027461461,14.1877544988665,0.00650388539520463,0.002947,-0.000168,0.007713,0.111444,0.067537,310.231585,25.103075,0.999324,0.992461,0.003449,0.471872,-0.000028,0.000002,0.000010,0.000005,-0.000032,72.876365,0.000034,
2041,2593,-4.72071436552491,-1.13192886465671,-0.0231632233155779,0.002799,0.000069,0.000346,0.127993,0.051856,322.249438,24.464984,0.999108,0.988857,0.004161,0.436488,0.000020,0.000012,0.000004,0.000021,0.000011,22.282959,0.000032,
2056,2593,-4.39563186165232,-1.13113619346118,-0.023510580910056,0.002489,-0.000744,0.008166,0.091390,0.029858,322.123388,24.500842,0.998906,0.987231,0.004404,0.361782,0.000013,0.000014,0.000009,0.000022,0.000005,46.553568,0.000029,
2236,2083,-0.390591011965739,-12.2828020560802,0.0201952156822927,0.001212,-0.001468,-0.001024,0.058247,-0.012960,329.987667,23.471246,0.999449,0.981730,0.005198,0.357730,0.000261,0.000315,0.000028,0.000327,0.000249,67.126429,0.000578,
2281,2173,0.575474697482228,-10.3109710056263,0.0083437799813737,0.001904,-0.001204,-0.000831,0.089544,-0.019763,328.399419,23.218027,0.999381,0.981741,0.005294,0.510897,0.000182,0.000170,0.000007,0.000185,0.000167,24.539825,0.000352,
2386,2698,2.76427992526923,1.16711342867536,-0.0219511472300837,0.002394,-0.000481,0.004203,0.094732,0.025335,319.622152,24.363242,0.999454,0.989357,0.003988,0.420306,0.000022,0.000049,0.000011,0.000052,0.000018,70.512003,0.000073,
2011,2308,-5.33113608869514,-7.35176079589215,-0.00965597987084266,0.001300,-0.000531,-0.000541,0.061070,0.009354,327.077103,24.720775,0.998966,0.986455,0.004841,0.373393,0.000128,0.000035,0.000010,0.000129,0.000034,6.289600,0.000173,
2101,2728,-3.43902721196843,1.80973935016035,-0.0319585359926577,0.002736,0.000154,-0.000066,0.126315,0.045219,319.666302,24.392417,0.999339,0.988517,0.004193,0.449732,-0.000004,0.000020,0.000003,0.000021,-0.000004,82.326624,0.000022,
2221,2218,-0.740886797472893,-9.3228378822079,0.005574469068506,0.002151,-0.000639,-0.005201,0.115017,-0.003146,327.782646,23.735970,0.999025,0.982242,0.005115,0.391849,0.000131,0.000127,0.000013,0.000142,0.000116,41.011935,0.000259,
2371,2488,2.47921958738296,-3.4176364987139,0.000326811468255528,0.002201,-0.001028,0.005964,0.079436,0.014010,323.196704,23.724893,0.999449,0.987633,0.004343,0.463464,0.000054,0.000013,0.000032,0.000072,-0.000004,28.339076,0.000080,
2086,2878,-3.7874371527946,5.06751006721863,-0.00269961374010563,0.002592,-0.000598,0.007802,0.096850,0.038413,317.520761,24.349949,0.999403,0.991266,0.003929,0.471548,-0.000005,0.000005,-0.000002,0.000005,-0.000006,-80.358670,0.000006,
2401,2638,3.10311622111079,-0.14073408898988,-0.018980865233118,0.002532,-0.000490,0.002733,0.106201,0.021048,320.647752,24.169536,0.999310,0.986386,0.004392,0.423782,0.000032,0.000037,0.000011,0.000046,0.000023,52.104804,0.000070,
2461,2938,4.35095231062496,6.39612897783699,-0.0152104863058184,0.002977,-0.000094,0.002013,0.129296,0.032711,315.904263,25.279355,0.999440,0.990711,0.004035,0.369176,0.000020,-0.000018,0.000011,0.000023,-0.000021,15.365285,0.000026,
2026,2668,-5.05838951376466,0.499274101684435,-0.024018381522751,0.002533,-0.000629,0.003833,0.105983,0.011003,321.099178,24.339653,0.999337,0.990467,0.003886,0.491607,0.000006,0.000025,0.000009,0.000029,0.000002,68.184619,0.000035,
2236,1993,-0.3740532995328,-14.261624524151,0.0328448146939877,0.001440,-0.003032,0.001211,0.060849,-0.079922,331.543268,23.181859,0.999665,0.988047,0.004629,0.431920,0.000363,0.000392,0.000017,0.000400,0.000355,64.500462,0.000755,
2191,3223,-1.56417472020443,12.5584473397174,0.039059309162667,0.002906,-0.000366,0.008287,0.108173,0.056872,311.817414,24.893226,0.999653,0.994391,0.003269,0.432643,-0.000008,0.000010,0.000015,0.000019,-0.000017,60.049131,0.000021,
2281,2278,0.555961675784175,-8.00972388176777,0.00138125027342539,0.002032,-0.001309,0.003096,0.082382,0.005909,326.639953,23.513450,0.999608,0.987243,0.004637,0.453022,0.000085,0.000081,0.000001,0.000085,0.000081,10.287565,0.000166,
2296,2488,0.844622391786501,-3.41749989554454,-0.011078893238107,0.002676,-0.000377,0.003795,0.109926,0.024624,323.150543,23.923168,0.999384,0.987694,0.004409,0.441631,0.000018,0.000018,0.000009,0.000027,0.000010,44.259364,0.000037,
2101,2938,-3.47106174767974,6.37255395112697,-0.00341718018057691,0.002722,0.000329,0.000773,0.123440,0.054966,316.489870,24.443080,0.999179,0.990325,0.004073,0.423057,-0.000001,-0.000017,0.000010,0.000004,-0.000022,25.883325,0.000024,
2266,2293,0.226601950673693,-7.68120179687811,0.00128143840481698,0.002184,-0.000696,-0.000487,0.101526,0.016223,326.436477,23.621145,0.999267,0.984012,0.005124,0.447123,0.000074,0.000080,0.000008,0.000085,0.000069,56.383093,0.000155,
2041,2608,-4.72309591725424,-0.805997151918561,-0.0216932025766141,0.002704,-0.000364,0.001948,0.119049,0.037409,322.010680,24.411855,0.998946,0.987220,0.004507,0.468309,0.000023,0.000008,0.000007,0.000026,0.000005,22.378315,0.000033,
2446,2893,4.03224295403602,5.41643906863919,-0.0272279673317257,0.002928,-0.000682,0.004907,0.116106,0.031673,316.496227,25.016398,0.999366,0.990762,0.003948,0.442869,0.000010,-0.000005,0.000011,0.000016,-0.000010,27.834371,0.000016,
2011,2443,-5.35022360661304,-4.40388835099665,-0.00335783372349852,0.001778,-0.000074,0.002590,0.074820,0.058803,324.969029,24.666436,0.999235,0.989223,0.004256,0.384389,0.000089,0.000006,0.000014,0.000091,0.000004,9.302073,0.000108,
2386,2713,2.76212316473529,1.49306688319458,-0.01548519480491,0.002577,-0.000524,0.003649,0.105097,0.013898,319.442881,24.386873,0.999626,0.991293,0.003632,0.428730,0.000016,0.000045,0.000009,0.000048,0.000014,73.897998,0.000065,
2281,2188,0.57308227532646,-9.98169410627805,0.0142949590077137,0.001934,-0.001246,0.001382,0.083556,-0.017863,328.200737,23.367097,0.999056,0.978425,0.005641,0.394066,0.000166,0.000159,0.000002,0.000166,0.000159,11.867758,0.000325,
2101,2743,-3.44125959237156,2.13566988953656,-0.0227527767283959,0.002625,-0.000328,0.004730,0.107080,0.050088,319.480664,24.423671,0.999425,0.989290,0.004053,0.424450,-0.000009,0.000013,-0.000001,0.000013,-0.000009,-86.505288,0.000013,
2086,2893,-3.7891002299272,5.39361879698697,-0.00353125389432307,0.003229,-0.000428,0.005448,0.133020,0.030885,317.305840,24.371882,0.999387,0.993089,0.003748,0.440662,-0.000008,-0.000005,-0.000002,-0.000003,-0.000009,-64.095452,0.000013,
2236,2008,-0.377185588148002,-13.931949586439,0.02838233906499,0.001187,-0.002945,0.000822,0.050552,-0.072734,331.255001,23.181097,0.999595,0.986961,0.004777,0.464983,0.000337,0.000370,0.000026,0.000385,0.000323,61.156026,0.000709,
2371,2503,2.47642642125938,-3.08901166040317,-0.00446597484278755,0.002540,-0.000734,0.004535,0.100183,0.017931,322.933704,23.814725,0.999496,0.988067,0.004332,0.419831,0.000046,0.000015,0.000027,0.000062,-0.000001,30.140714,0.000072,
2221,2233,-0.743206777574787,-8.99493348531546,0.00641476213576198,0.002386,-0.000321,-0.004565,0.123880,-0.015453,327.557088,23.734935,0.998991,0.982350,0.005219,0.401752,0.000115,0.000115,0.000011,0.000126,0.000105,45.783604,0.000230,
2011,2458,-5.351719808363,-4.07752835209286,-0.0041774688128271,0.002297,0.000400,-0.001344,0.109450,0.045103,324.755337,24.581596,0.999348,0.989489,0.004141,0.444841,0.000078,-0.000029,-0.000005,0.000078,-0.000029,-2.586557,0.000079,
2041,2623,-4.72518663076427,-0.479109750061674,-0.0259182259922568,0.002900,0.000071,-0.002194,0.139692,0.020932,321.753429,24.404192,0.998862,0.986925,0.004615,0.452303,0.000015,-0.000005,0.000004,0.000016,-0.000005,10.995835,0.000016,
2401,2653,3.10068932634586,0.186052736875922,-0.0156139156065365,0.002996,-0.000712,0.005722,0.116596,0.028527,320.442414,24.208249,0.999336,0.987180,0.004429,0.438304,0.000025,0.000039,0.000012,0.000046,0.000018,60.196768,0.000066,
2026,2683,-5.06238943439056,0.828602926010376,-0.0406281423165638,0.001896,-0.000458,0.005375,0.072499,0.037333,320.683350,24.430923,0.999807,0.995844,0.002928,0.417961,0.000004,0.000013,0.000000,0.000013,0.000004,-88.190232,0.000018,
2191,3238,-1.56553059335731,12.8821765110876,0.0472657864723374,0.003379,-0.000335,0.005231,0.139500,0.039045,311.672379,24.850178,0.999702,0.994366,0.003189,0.471216,-0.000009,-0.000001,0.000017,0.000012,-0.000022,51.876297,0.000022,
2446,2908,4.02961418574495,5.74203653269544,-0.0174612511118539,0.002643,-0.000708,0.006695,0.096315,0.027617,316.313396,25.076214,0.999380,0.990249,0.004010,0.430345,0.000010,-0.000008,0.000014,0.000018,-0.000016,28.633173,0.000019,
2266,2308,0.224248665168385,-7.35319881203581,0.00527513695277548,0.002071,-0.000299,-0.002342,0.102611,0.036779,326.228574,23.654372,0.998962,0.981331,0.005442,0.462132,0.000066,0.000082,0.000011,0.000088,0.000060,63.347906,0.000149,
2101,2953,-3.47362759008987,6.69821110492775,-0.00391809253972042,0.002899,-0.000085,0.005212,0.118511,0.050265,316.236637,24.440670,0.999377,0.991025,0.003828,0.421305,0.000002,-0.000018,0.000011,0.000007,-0.000023,23.345462,0.000024,
2386,2728,2.75932325806744,1.81998445655822,-0.0173467948899884,0.002822,-0.000659,0.003682,0.116217,0.015758,319.194211,24.422553,0.999578,0.990469,0.003886,0.438412,0.000010,0.000040,0.000016,0.000047,0.000003,66.354452,0.000056,
2281,2203,0.570383671326887,-9.65243872431799,0.0095184847289147,0.002146,-0.000981,-0.000389,0.099300,-0.023831,327.934712,23.414255,0.998844,0.978886,0.005625,0.371421,0.000150,0.000145,0.000002,0.000151,0.000145,15.819621,0.000295,
2011,2473,-5.35474388151259,-3.7500395682902,-0.00677159617220013,0.001903,-0.000190,0.003138,0.079029,0.045565,324.461542,24.574786,0.999044,0.986714,0.004544,0.441573,0.000080,-0.000040,0.000005,0.000080,-0.000041,2.504846,0.000080,
2296,2503,0.840878863155343,-3.08840309460695,-0.0196968367825434,0.002428,-0.000541,0.005411,0.093036,0.032643,322.818024,24.017384,0.999655,0.991712,0.003871,0.386697,0.000013,0.000019,0.000010,0.000027,0.000006,53.994457,0.000035,
2041,2638,-4.72781262706098,-0.152548639311824,-0.0224968221702397,0.002498,0.000227,0.000243,0.114487,0.045151,321.514035,24.396036,0.999110,0.988935,0.004321,0.477794,0.000021,0.000011,0.000008,0.000025,0.000007,29.647873,0.000034,
2236,2023,-0.378963386657784,-13.6020857283987,0.0299345356621075,0.001283,-0.001337,-0.007712,0.083094,-0.066690,331.059080,23.272525,0.999052,0.980557,0.005557,0.404022,0.000321,0.000376,0.000031,0.000390,0.000307,65.790739,0.000699,
2101,2758,-3.44301312044085,2.4605624888116,-0.0153782823660435,0.002760,-0.000521,0.004087,0.115072,0.031201,319.307452,24.371999,0.999473,0.989374,0.003963,0.458482,-0.000010,0.000006,-0.000004,0.000007,-0.000011,-75.283114,0.000011,
2401,2668,3.0975687961935,0.513688427836819,-0.0174539812402941,0.002738,-0.000313,0.003123,0.114305,0.023969,320.180463,24.297877,0.999353,0.988164,0.004391,0.390094,0.000024,0.000038,0.000008,0.000042,0.000020,66.310748,0.000063,
2191,3253,-1.56921052289283,13.2078534157953,0.0382170297509674,0.003129,-0.000250,0.008260,0.118577,0.057930,311.329650,24.856658,0.999632,0.993804,0.003283,0.496848,-0.000009,-0.000006,0.000019,0.000012,-0.000027,47.500316,0.000027,
2221,2248,-0.746729654838166,-8.66689184101681,-0.000887361199374936,0.002007,-0.000653,-0.003711,0.103685,-0.017509,327.234776,23.657982,0.998780,0.981768,0.005359,0.498139,0.000104,0.000097,0.000015,0.000116,0.000085,37.798433,0.000202,
2371,2518,2.47314820593688,-2.76184467347214,-0.00783581401282163,0.002357,-0.000780,0.004150,0.093148,0.017548,322.655456,23.793680,0.999436,0.986712,0.004615,0.482665,0.000040,0.000006,0.000026,0.000054,-0.000008,28.596546,0.000059,
2446,2923,4.02702647983515,6.06876459818774,-0.0125258439207414,0.002540,-0.000409,0.005324,0.096849,0.040318,316.109773,25.191784,0.999538,0.992806,0.003779,0.379141,0.000011,-0.000011,0.000009,0.000015,-0.000014,20.109285,0.000017,
2011,2488,-5.35680959560002,-3.42179599966013,-0.0178188479194432,0.002544,0.000551,0.000485,0.115962,0.063415,324.163941,24.547510,0.999203,0.986823,0.004514,0.476334,0.000065,-0.000037,0.000013,0.000066,-0.000039,7.062979,0.000067,
2101,2968,-3.47558991716393,7.02298406903086,0.00880349982327289,0.002730,-0.000472,0.007983,0.102522,0.051567,316.083012,24.446555,0.999533,0.990922,0.003707,0.417279,0.000002,-0.000018,0.000006,0.000004,-0.000020,14.240578,0.000021,
2041,2653,-4.73054385704311,0.174623222279891,-0.0289582688746464,0.002756,-0.000252,0.005290,0.112163,0.034209,321.214997,24.400228,0.999329,0.989679,0.004123,0.455848,0.000018,0.000024,0.000007,0.000029,0.000013,56.261711,0.000043,
2266,2323,0.221389357529475,-7.02434186899187,0.00669237276588319,0.002052,-0.000547,0.001398,0.089347,0.043204,325.984471,23.758872,0.998690,0.978693,0.005846,0.391579,0.000062,0.000077,0.000013,0.000084,0.000055,60.172903,0.000140,
2386,2743,2.75640085925227,2.14667259274214,-0.0191070094503516,0.002474,-0.000156,-0.002135,0.121292,0.012926,318.940393,24.447455,0.999632,0.990969,0.003844,0.454177,0.000009,0.000037,0.000020,0.000048,-0.000001,62.311189,0.000055,
2236,2038,-0.38168427469218,-13.2725848920928,0.0262569099626262,0.001742,-0.001685,-0.003113,0.089191,-0.068859,330.793604,23.285861,0.998987,0.978189,0.005661,0.413200,0.000304,0.000367,0.000027,0.000377,0.000294,69.583203,0.000672,
2401,2683,3.09463844620075,0.841596969493281,-0.0238447109454683,0.003012,0.000278,0.000295,0.137424,0.044447,319.905616,24.354849,0.999376,0.987501,0.004413,0.399752,0.000025,0.000046,0.000006,0.000047,0.000023,75.925835,0.000072,
2191,3268,-1.57266685078745,13.533158056221,0.0265840165693021,0.003126,-0.000377,0.009012,0.115943,0.041687,310.983808,24.854542,0.999379,0.991293,0.003761,0.495593,-0.000008,-0.000006,0.000023,0.000016,-0.000030,45.936953,0.000030,
2011,2503,-5.35966820566572,-3.0935668382909,-0.0220426823508433,0.002268,-0.000072,0.002372,0.097964,0.051343,323.868437,24.617125,0.999643,0.992075,0.003805,0.383911,0.000067,-0.000029,0.000001,0.000067,-0.000029,0.539769,0.000067,
2446,2938,4.02400887497751,6.39461514849423,-0.0166788385619157,0.002701,-0.000414,0.003418,0.111333,0.024011,315.844608,25.194960,0.999570,0.992007,0.003801,0.411499,0.000016,-0.000015,0.000008,0.000018,-0.000017,13.425240,0.000021,
2101,3133,-3.49991064694739,10.6009618640358,0.0326526100353135,0.003481,-0.000016,0.004150,0.148600,0.048510,313.637722,24.469933,0.999800,0.995257,0.002875,0.394331,0.000012,0.000009,0.000001,0.000012,0.000009,20.951323,0.000021,
2041,2668,-4.73231490699644,0.50042745218613,-0.0231932868317131,0.002734,-0.000213,0.002208,0.119751,0.024222,321.028077,24.385050,0.999354,0.988394,0.004309,0.453693,0.000008,0.000022,0.000008,0.000026,0.000004,64.996027,0.000032,
2371,2533,2.47003903085416,-2.43302424589631,-0.0130018695104468,0.002288,-0.000210,0.001152,0.100863,0.035491,322.375945,23.895105,0.999428,0.986992,0.004566,0.441461,0.000039,0.000007,0.000028,0.000055,-0.000009,30.042355,0.000059,
2101,2983,-3.4778454519583,7.34833710789984,0.00742255032048433,0.002895,-0.000489,0.006458,0.114636,0.050771,315.839365,24.413744,0.999587,0.992452,0.003476,0.449630,0.000000,-0.000019,0.000001,0.000000,-0.000019,4.451944,0.000022,
2011,2518,-5.36173905894374,-2.76887759924873,-0.0129774402835778,0.002078,-0.000599,0.005945,0.079390,0.042461,323.684396,24.484587,0.999679,0.992809,0.003622,0.496479,0.000057,-0.000020,0.000007,0.000057,-0.000021,5.001277,0.000058,
2236,2173,-0.406247305661307,-10.3084997497713,0.00726862879565715,0.001723,-0.000261,-0.005775,0.097501,-0.010307,328.470767,23.616037,0.998751,0.982764,0.005238,0.360588,0.000182,0.000161,0.000025,0.000198,0.000144,33.721410,0.000344,
2386,2758,2.75291810448953,2.47404408186598,-0.0249543888476182,0.002701,-0.000367,0.002346,0.115563,0.015373,318.641164,24.502428,0.999383,0.988323,0.004167,0.445118,0.000015,0.000038,0.000022,0.000052,0.000001,58.899855,0.000060,
2041,2683,-4.73489070779488,0.827915114412093,-0.0303310462001036,0.002841,0.000046,0.001480,0.126833,0.049115,320.732229,24.387071,0.999405,0.990613,0.003991,0.469588,0.000004,0.000015,-0.000001,0.000015,0.000004,-87.197715,0.000021,
2446,2953,4.02123307402644,6.72070267618536,-0.0157188273075235,0.002829,-0.000282,0.003243,0.117960,0.036312,315.613999,25.231887,0.999683,0.993061,0.003582,0.438649,0.000015,-0.000017,0.000011,0.000019,-0.000020,17.625100,0.000022,
2266,2338,0.21784752569091,-6.69633321580886,-0.00137953569992533,0.001732,-0.000940,0.001002,0.075836,0.011663,325.661824,23.735293,0.998959,0.982197,0.005327,0.411320,0.000056,0.000088,0.000010,0.000091,0.000053,74.783795,0.000146,
2401,2698,3.09067028500773,1.16798433253763,-0.0278191071400897,0.002720,-0.000757,0.005824,0.103593,0.027433,319.594808,24.335008,0.999398,0.989604,0.004114,0.448766,0.000022,0.000045,0.000010,0.000049,0.000019,70.059395,0.000070,
2101,2998,-3.48027355274558,7.6747875580452,0.000314989212483852,0.003046,0.000045,0.001620,0.135891,0.052327,315.556391,24.445056,0.999624,0.992852,0.003406,0.420591,0.000001,-0.000014,0.000002,0.000001,-0.000014,8.454308,0.000016,
2101,3148,-3.5022921505687,10.9247298348333,0.038266271622831,0.003293,-0.000110,0.005771,0.135181,0.048893,313.426909,24.375991,0.999874,0.996392,0.002702,0.488675,0.000013,0.000011,0.000003,0.000015,0.000009,36.301510,0.000025,
2011,2533,-5.36365300583866,-2.44144733743174,-0.0143542768140605,0.002222,-0.000298,0.001878,0.097176,0.039360,323.448266,24.507306,0.999277,0.987798,0.004420,0.459654,0.000047,-0.000024,0.000012,0.000049,-0.000026,9.271322,0.000049,
2371,2548,2.46728644433887,-2.10626452666621,-0.00983507549926799,0.002287,-0.000525,0.002873,0.094599,0.016286,322.153052,23.924153,0.999385,0.986021,0.004708,0.435176,0.000040,0.000009,0.000026,0.000055,-0.000005,29.501040,0.000060,
2041,2698,-4.73729305666346,1.15447436977206,-0.0290702275890453,0.002697,-0.000021,0.002151,0.118311,0.048330,320.491229,24.403690,0.999273,0.991160,0.003895,0.444926,0.000004,0.000000,0.000001,0.000004,0.000000,9.320971,0.000005,
2236,2188,-0.40871642120403,-9.97987980971926,0.0119348900350928,0.001881,-0.001063,-0.000843,0.088532,0.000362,328.258890,23.682282,0.999140,0.985344,0.004889,0.328678,0.000164,0.000149,0.000014,0.000172,0.000141,30.168516,0.000314,
2011,2548,-5.36535872949271,-2.11470046656503,-0.0138034616815617,0.002863,-0.000185,0.004607,0.119297,0.057711,323.232607,24.468155,0.999411,0.988581,0.004073,0.505949,0.000059,-0.000017,0.000013,0.000061,-0.000019,9.566276,0.000063,
2386,2773,2.74997956907243,2.80053588076569,-0.0212308459751966,0.002547,-0.000359,0.004666,0.100187,0.025585,318.412531,24.548980,0.999332,0.988372,0.004200,0.452086,0.000016,0.000028,0.000018,0.000040,0.000003,54.408362,0.000048,
2401,2713,3.08712156232431,1.49493350245126,-0.0301119407692454,0.002209,-0.000483,0.005024,0.083160,0.036208,319.310938,24.359696,0.999556,0.990267,0.003948,0.478510,0.000016,0.000043,0.000009,0.000046,0.000013,73.411432,0.000062,
2266,2353,0.214995127696039,-6.36875544408543,-0.00153578100241702,0.001772,-0.001210,0.003987,0.067725,0.001851,325.410364,23.734081,0.999070,0.982631,0.005279,0.430334,0.000047,0.000082,0.000006,0.000083,0.000046,79.703859,0.000130,
2041,2713,-4.73990129897283,1.48086646095794,-0.0295086855180102,0.002646,-0.000581,0.006007,0.105062,0.026730,320.231502,24.416340,0.999122,0.989847,0.004152,0.403222,0.000005,0.000007,0.000001,0.000007,0.000005,66.003033,0.000012,
2491,3088,4.97556106858431,9.65606215548814,0.0151575493696896,0.003003,-0.000174,0.005260,0.117905,0.041593,313.764398,25.877268,0.999538,0.990752,0.003760,0.427292,0.000029,0.000018,0.000034,0.000058,-0.000011,40.066099,0.000061,
2371,2563,2.46416827518471,-1.77839293501159,-0.00968370201940161,0.002266,-0.000646,0.005932,0.082723,0.030290,321.898593,23.999832,0.999415,0.987938,0.004423,0.415425,0.000038,0.000013,0.000022,0.000050,0.000001,30.440414,0.000058,
2101,3163,-3.50517378492971,11.2505035114678,0.0314951590805777,0.003168,0.000012,0.003736,0.135412,0.044697,313.125203,24.400083,0.999750,0.994884,0.003021,0.460736,0.000010,0.000016,0.000006,0.000019,0.000007,58.463477,0.000027,
2206,3298,-1.25356410730468,14.1856809571763,0.00817605304808922,0.003361,-0.000368,0.006249,0.135315,0.040014,310.311065,24.993340,0.999323,0.992594,0.003417,0.467641,-0.000023,0.000002,0.000017,0.000011,-0.000032,63.282721,0.000033,
2011,2563,-5.36779077563584,-1.7872764814479,-0.0165176242948064,0.002636,0.000075,0.001606,0.117108,0.061793,322.965308,24.481276,0.999300,0.987073,0.004356,0.486011,0.000045,0.000001,0.000008,0.000046,0.000000,10.385943,0.000053,
2236,2203,-0.411233909227189,-9.65390717850785,0.014556170783294,0.001727,-0.000824,-0.001275,0.082998,0.002278,328.034856,23.498834,0.999399,0.988296,0.004536,0.537754,0.000147,0.000133,0.000009,0.000151,0.000128,26.219169,0.000279,
2266,2083,0.263848652698325,-12.282679041483,0.0127892287649729,0.001531,-0.001534,0.001826,0.063523,-0.028742,329.878648,23.284974,0.999291,0.982296,0.005213,0.343368,0.000263,0.000324,0.000011,0.000326,0.000261,79.856261,0.000588,
2506,3208,5.27815224782511,12.2624594413864,0.0284363579740443,0.002919,-0.000219,0.006018,0.110981,0.037479,311.941582,26.454166,0.999343,0.991203,0.003804,0.380981,0.000009,-0.000020,0.000010,0.000012,-0.000022,17.093009,0.000022,
2041,2398,-4.69096112501049,-5.38707839315769,-0.00915546967195269,0.002276,-0.000199,0.001178,0.101362,0.034055,325.488401,24.441791,0.999273,0.988269,0.004264,0.525021,0.000076,0.000034,-0.000001,0.000076,0.000034,-1.123833,0.000113,
2176,2968,-1.84731468580133,7.02735828069637,0.00551943878235761,0.003386,-0.000430,0.003901,0.143880,0.029414,315.787477,24.600925,0.999371,0.991795,0.003656,0.431050,0.000011,0.000002,0.000013,0.000020,-0.000008,34.888916,0.000020,
2056,2518,-4.38321569178965,-2.76734351537591,-0.0162599490004141,0.002374,0.000025,-0.001090,0.112330,0.032822,323.417429,24.433044,0.999275,0.988700,0.004294,0.454699,0.000032,-0.000010,-0.000004,0.000033,-0.000011,-5.805145,0.000033,
2026,2488,-5.03080993833666,-3.42278320508538,-0.0157829657087518,0.002488,-0.000128,0.001901,0.109250,0.036662,324.080022,24.444600,0.999221,0.986701,0.004482,0.520051,0.000071,-0.000019,0.000009,0.000071,-0.000020,5.474331,0.000074,
2251,2038,-0.0553614381371581,-13.2711592782285,0.0206198173826806,0.001370,-0.002167,0.002386,0.054124,-0.043988,330.682565,23.261290,0.999040,0.978676,0.005617,0.363929,0.000310,0.000372,0.000023,0.000380,0.000302,71.943926,0.000683,
2176,3028,-1.85775802167888,8.32950587699838,0.0147787455066464,0.002931,-0.000560,0.009710,0.105033,0.068720,314.847537,24.626067,0.999510,0.991564,0.003816,0.491245,0.000007,-0.000005,0.000005,0.000008,-0.000007,20.836601,0.000009,
2476,2968,4.67240684508152,7.04851321984147,-0.00301203694107244,0.002900,-0.000036,0.000465,0.131598,0.038279,315.552484,25.410117,0.999484,0.989673,0.004026,0.389290,0.000014,-0.000015,0.000025,0.000028,-0.000029,29.519360,0.000033,
2431,2818,3.72132424909094,3.78314096941435,-0.0206986013911887,0.002657,0.000209,-0.000160,0.122875,0.059222,317.756498,24.744683,0.999414,0.990099,0.004151,0.466604,0.000019,0.000015,0.000011,0.000028,0.000006,40.069235,0.000036,
2461,2953,4.3480840114048,6.72139620174081,-0.00726037671961421,0.002754,-0.000454,0.005415,0.106096,0.030215,315.702735,25.304483,0.999498,0.990563,0.003949,0.395220,0.000021,-0.000019,0.000016,0.000027,-0.000025,19.528618,0.000030,
2116,2563,-3.08650431767392,-1.78422907225482,-0.0241233490902459,0.002470,-0.000509,0.001990,0.107590,0.016234,322.316829,24.342868,0.999107,0.987384,0.004646,0.429451,0.000025,0.000015,0.000005,0.000027,0.000013,23.335063,0.000041,
2071,2578,-4.06725634758913,-1.45804615620768,-0.0235628370152199,0.002493,-0.000375,0.006445,0.096324,0.063342,322.288179,24.405653,0.999079,0.988241,0.004442,0.475647,0.000019,0.000006,0.000012,0.000026,0.000000,30.231264,0.000030,
2341,2383,1.84469470950372,-5.71052440308447,-0.00823313064279318,0.002412,-0.000760,0.004117,0.096043,0.018420,324.836150,23.623424,0.999348,0.985742,0.004741,0.369289,0.000053,0.000067,0.000024,0.000085,0.000035,52.534865,0.000123,
2011,2353,-5.33711318001204,-6.36833229346804,-0.00935496127755187,0.001951,-0.000157,0.000825,0.087434,0.028687,326.381525,24.711471,0.999179,0.988527,0.004562,0.371651,0.000089,0.000038,-0.000006,0.000090,0.000037,-6.377656,0.000131,
2251,2068,-0.0597125489024926,-12.6126660902011,0.0206157762338535,0.001706,-0.000787,-0.005355,0.095271,-0.017089,330.241142,23.311056,0.999122,0.980125,0.005377,0.394428,0.000271,0.000334,0.000021,0.000341,0.000264,72.810671,0.000607,
2326,2278,1.53773490416062,-8.00922622698788,-0.000847864256456887,0.002048,-0.000745,-0.001825,0.099847,-0.021986,326.603288,23.375519,0.999052,0.982603,0.005080,0.370673,0.000089,0.000079,-0.000001,0.000089,0.000079,-5.315739,0.000168,
2131,2653,-2.77381886548852,0.176143703552107,-0.0129204485895116,0.002843,-0.000234,0.000845,0.128259,0.019660,320.908708,24.358707,0.999650,0.990955,0.003765,0.433158,0.000005,0.000027,0.000003,0.000027,0.000005,82.598220,0.000035,
2131,2803,-2.79935979328242,3.44115328509329,-0.0157639260751807,0.002361,-0.000075,0.006007,0.090802,0.049082,318.413308,24.428755,0.999481,0.992208,0.003624,0.451034,-0.000010,0.000009,0.000003,0.000010,-0.000010,81.630963,0.000012,
2056,2608,-4.39752740511655,-0.805852878562341,-0.0201773098297622,0.002469,-0.000704,0.004590,0.100560,0.013482,321.918430,24.406509,0.999081,0.988670,0.004235,0.434893,0.000016,0.000008,0.000012,0.000025,-0.000001,36.235705,0.000029,
2191,3088,-1.54139752073703,9.63162556864896,0.0274997184149584,0.003046,-0.000308,0.007143,0.118037,0.041932,313.938581,24.747908,0.999391,0.992207,0.003685,0.443674,0.000007,-0.000014,0.000002,0.000007,-0.000014,6.777464,0.000014,
2386,2788,2.74687815399503,3.12807019697225,-0.0234567832942503,0.002591,-0.000353,0.005564,0.099031,0.031433,318.147844,24.653504,0.999625,0.991347,0.003819,0.396731,0.000017,0.000032,0.000014,0.000041,0.000009,58.912926,0.000053,
2311,2203,1.22561898449692,-9.65398049769598,0.0178239337203649,0.002095,-0.001288,-0.000778,0.098136,-0.013701,327.975739,23.222347,0.998965,0.978393,0.005620,0.422781,0.000155,0.000151,-0.000006,0.000160,0.000147,-35.565952,0.000307,
2296,2323,0.875662546647501,-7.0257633157365,0.00246090341204308,0.002608,-0.001574,0.002197,0.111618,-0.027158,325.935674,23.532727,0.998991,0.983008,0.005338,0.432655,0.000068,0.000076,0.000007,0.000081,0.000064,59.174401,0.000145,
2356,2398,2.1694126990094,-5.38381439320229,0.000140847871307415,0.002091,-0.000796,0.002608,0.086434,0.017881,324.655008,23.570324,0.999482,0.986910,0.004613,0.413360,0.000063,0.000064,0.000035,0.000099,0.000028,45.447920,0.000133,
2266,2368,0.212425993989367,-6.03948997508412,-0.0104064977319354,0.002331,-0.000661,0.001421,0.102052,0.015027,325.127767,23.784710,0.998931,0.982876,0.005240,0.420267,0.000036,0.000080,0.000008,0.000082,0.000035,79.713622,0.000120,
2416,2713,3.4155519503508,1.49418243347373,-0.0171931156265259,0.002573,-0.000290,0.000588,0.115920,0.013571,319.469668,24.359616,0.999627,0.990589,0.003907,0.455729,0.000015,0.000044,0.000007,0.000046,0.000013,76.863672,0.000062,
2116,2698,-3.10847483958332,1.15661903041017,-0.0203417580887049,0.002310,-0.000636,0.006677,0.086464,0.027481,320.140562,24.423058,0.999358,0.990333,0.003938,0.396497,0.000003,0.000019,-0.000003,0.000020,0.000002,-80.604095,0.000024,
2026,2503,-5.03410953764849,-3.09299256655228,-0.0252279375339413,0.002148,-0.000038,0.004279,0.087171,0.067695,323.736044,24.567070,0.999655,0.992406,0.003689,0.420209,0.000073,-0.000017,-0.000001,0.000073,-0.000017,-0.342247,0.000076,
2401,2728,3.08499561733151,1.82156499684473,-0.0252876405134543,0.002620,-0.000760,0.004979,0.102070,0.020100,319.126073,24.441917,0.999573,0.989583,0.004138,0.425676,0.000009,0.000039,0.000018,0.000047,0.000000,65.035311,0.000054,
2476,2983,4.66873770771125,7.3753936125113,-0.00842526800107635,0.002877,-0.000108,0.002224,0.123827,0.033859,315.253545,25.500854,0.999395,0.989096,0.004136,0.349909,0.000018,-0.000019,0.000025,0.000030,-0.000032,26.748990,0.000036,
2011,2578,-5.37101185563827,-1.45979503403147,-0.0239000848912383,0.001842,0.000472,-0.002348,0.091377,0.052596,322.635785,24.477411,0.998981,0.985455,0.004866,0.469799,0.000038,0.000006,0.000005,0.000039,0.000005,8.236631,0.000048,
2176,2983,-1.85083787323566,7.35336072959582,0.00281569269350257,0.002869,-0.000737,0.007865,0.107689,0.027905,315.484155,24.621434,0.999273,0.991763,0.003697,0.420563,0.000010,0.000001,0.000012,0.000018,-0.000007,34.754154,0.000019,
2371,2578,2.46138878612855,-1.45142885989532,-0.0127728029928562,0.002352,-0.000695,0.002857,0.097594,0.013347,321.644422,23.999540,0.999369,0.987414,0.004536,0.440798,0.000036,0.000026,0.000024,0.000056,0.000006,38.629333,0.000068,
2506,3223,5.27499963159471,12.5872773693277,0.030520532248886,0.002856,-0.000576,0.008118,0.099804,0.027435,311.701762,26.470995,0.999438,0.990952,0.003902,0.413619,0.000005,-0.000045,0.000005,0.000006,-0.000046,5.539636,0.000050,
2236,2098,-0.39277560255314,-11.954562438728,0.0193167199000186,0.001470,-0.001287,-0.003969,0.079666,-0.029448,329.761019,23.438031,0.999256,0.980688,0.005425,0.398724,0.000250,0.000301,0.000029,0.000314,0.000237,65.609575,0.000553,
2431,2833,3.71832240355984,4.11019723492225,-0.013654980000922,0.002789,-0.000486,0.008790,0.095571,0.050396,317.543049,24.904162,0.999288,0.988441,0.004206,0.348169,0.000011,0.000023,0.000011,0.000030,0.000004,58.754832,0.000037,
2146,2713,-2.45937618715039,1.48507783896065,-0.029549874622262,0.002543,-0.000358,0.005179,0.101365,0.048939,319.708289,24.403776,0.999471,0.990978,0.003999,0.442307,0.000005,0.000022,-0.000005,0.000023,0.000003,-75.487166,0.000029,
2221,1993,-0.701408101543368,-14.2609340202562,0.0379282235799678,0.001141,-0.002746,-0.000901,0.054096,-0.081523,331.610902,23.371815,0.999639,0.988159,0.004581,0.345919,0.000362,0.000376,0.000026,0.000396,0.000342,52.626095,0.000738,
2071,2638,-4.07625120053636,-0.151518564976534,-0.0159029410600056,0.002370,-0.000500,0.006611,0.090171,0.051837,321.375245,24.429725,0.999029,0.986759,0.004511,0.430081,0.000015,0.000010,0.000015,0.000027,-0.000003,40.182053,0.000030,
2041,2413,-4.69400368014928,-5.05793192988985,-0.0174602129001755,0.002091,-0.000100,0.002675,0.088726,0.053058,325.164212,24.494493,0.998924,0.984023,0.004875,0.485431,0.000076,0.000021,0.000007,0.000077,0.000020,7.243075,0.000102,
2071,2593,-4.06962559925949,-1.13112303800262,-0.022655177827005,0.002437,-0.000299,0.007054,0.092042,0.060510,322.048819,24.422992,0.999080,0.988313,0.004316,0.453095,0.000014,0.000017,0.000017,0.000033,-0.000002,47.095109,0.000037,
2251,2053,-0.0574614673469576,-12.9421065755723,0.0193107441091342,0.001638,-0.001881,-0.002465,0.082338,-0.067524,330.458961,23.288065,0.998974,0.978422,0.005602,0.340466,0.000289,0.000350,0.000021,0.000357,0.000282,72.738018,0.000640,
2461,2968,4.34579667779343,7.04716981374239,-0.00286299742737128,0.003042,-0.000203,0.004415,0.123236,0.049523,315.511454,25.332825,0.999532,0.989950,0.004014,0.440031,0.000018,-0.000016,0.000019,0.000027,-0.000024,23.977130,0.000029,
2086,3058,-3.81373509017794,8.97297625045192,0.0233571789449911,0.003192,-0.000056,0.002730,0.139501,0.043609,314.850598,24.316251,0.999528,0.992235,0.003485,0.490957,0.000007,-0.000005,-0.000004,0.000008,-0.000007,-16.751526,0.000009,
2131,2668,-2.77456317585124,0.499531524330806,0.00718305296504695,0.003092,-0.000094,-0.001067,0.145493,0.019398,320.851751,24.232021,0.999643,0.991501,0.003741,0.565200,0.000001,0.000029,-0.000001,0.000029,0.000001,-88.680906,0.000034,
2506,3238,5.27193764656232,12.9125556070051,0.0260982714113993,0.003162,-0.000390,0.007000,0.118245,0.027280,311.436688,26.487085,0.999535,0.990610,0.003863,0.457218,0.000000,-0.000046,0.000000,0.000000,-0.000046,-0.397978,0.000053,
2491,3103,4.97293342142853,9.98166670093739,0.017941157252892,0.003130,-0.000099,0.004316,0.127394,0.035321,313.551405,25.938138,0.999468,0.989969,0.003771,0.417878,0.000028,0.000007,0.000034,0.000053,-0.000018,36.381406,0.000054,
2326,2293,1.53484151383012,-7.68079224338006,-0.0011833143585136,0.002001,-0.000716,-0.001259,0.095791,0.012624,326.353908,23.386797,0.998901,0.982934,0.005162,0.430732,0.000082,0.000078,0.000004,0.000084,0.000076,33.511268,0.000160,
2341,2398,1.84196134790973,-5.38313766226458,-0.003719100748242,0.002156,-0.000651,0.004325,0.083639,0.040111,324.618711,23.634593,0.999637,0.987862,0.004473,0.418033,0.000047,0.000071,0.000026,0.000087,0.000031,57.144291,0.000122,
2026,2518,-5.03640310942381,-2.76817522513211,-0.021619687883117,0.001884,-0.000487,0.004494,0.074252,0.028377,323.512360,24.428021,0.999680,0.993586,0.003472,0.511247,0.000060,-0.000015,0.000004,0.000060,-0.000015,2.684778,0.000063,
2116,2788,-3.12257658635675,3.11412582856395,-0.0175396374834236,0.002585,-0.000442,0.006464,0.099897,0.045910,318.717052,24.390059,0.999612,0.992050,0.003574,0.469292,-0.000016,0.000010,-0.000002,0.000011,-0.000016,-85.749816,0.000016,
2011,2368,-5.33889779898647,-6.04156464246734,-0.00914438225896674,0.002172,-0.000052,-0.002041,0.105411,0.025448,326.160117,24.633937,0.999182,0.987869,0.004658,0.435706,0.000098,0.000038,-0.000002,0.000098,0.000038,-1.948448,0.000141,
2011,2593,-5.37323862343613,-1.13304760128685,-0.0222196348365173,0.001930,0.000105,0.000828,0.086724,0.036982,322.402797,24.496728,0.998963,0.985827,0.004969,0.423582,0.000026,0.000022,0.000015,0.000039,0.000009,41.637107,0.000051,
2266,2098,0.261018766380193,-11.9531977534682,0.0109339963349271,0.001511,-0.001906,0.002014,0.061841,-0.041044,329.620060,23.351194,0.999108,0.980369,0.005461,0.293417,0.000248,0.000307,0.000012,0.000309,0.000246,78.852025,0.000556,
2476,2998,4.66611289452483,7.70016990568304,-0.00183273271790085,0.002973,-0.000395,0.004954,0.117733,0.031517,315.057797,25.481821,0.999339,0.989094,0.004065,0.422661,0.000021,-0.000020,0.000027,0.000034,-0.000033,26.131011,0.000039,
2146,2848,-2.48044283666458,4.41987072833383,-0.0139633912777413,0.002776,-0.000421,0.004810,0.113264,0.035187,317.657988,24.455718,0.999537,0.992912,0.003496,0.446982,-0.000004,0.000011,0.000004,0.000012,-0.000005,76.629052,0.000012,
2296,2338,0.872438219017607,-6.6964636812577,-0.00150450440150962,0.002484,-0.001012,0.003294,0.102468,0.014272,325.650375,23.595464,0.999242,0.985008,0.004823,0.443498,0.000061,0.000087,0.000007,0.000089,0.000059,76.684923,0.000149,
2176,3043,-1.85942121652287,8.65621394947164,0.017721038412617,0.003220,0.000306,0.003656,0.137308,0.060542,314.658959,24.771457,0.999710,0.995158,0.003183,0.349013,0.000007,-0.000009,0.000005,0.000009,-0.000010,16.134387,0.000011,
2251,2083,-0.0634289663052634,-12.2820925586304,0.0116744750828843,0.001642,-0.001369,-0.000099,0.075016,-0.020230,329.904820,23.383434,0.999288,0.981137,0.005333,0.346005,0.000257,0.000321,0.000021,0.000328,0.000251,73.101831,0.000580,
2311,2218,1.22202559331554,-9.32502254023193,0.0101306109112898,0.001904,-0.001279,0.000315,0.085699,-0.006569,327.657256,23.204848,0.999008,0.976256,0.005755,0.482587,0.000144,0.000137,-0.000007,0.000147,0.000133,-30.894649,0.000280,
2221,2008,-0.705208089838106,-13.9292923446001,0.0240392083667871,0.000894,-0.002559,-0.000798,0.042520,-0.084091,331.242375,23.452323,0.999564,0.986871,0.004853,0.286279,0.000339,0.000361,0.000038,0.000389,0.000311,53.140980,0.000701,
2386,2803,2.74376953595244,3.45441458998821,-0.0297811050390351,0.002760,-0.000397,0.004121,0.111975,0.029155,317.863596,24.629977,0.999839,0.994935,0.003383,0.461374,0.000016,0.000022,0.000015,0.000034,0.000004,49.667309,0.000042,
2506,3253,5.26859627951209,13.2385552109464,0.022768935123338,0.003248,-0.000416,0.007650,0.119738,0.032803,311.163295,26.574657,0.999748,0.992489,0.003492,0.434880,-0.000004,-0.000043,-0.000002,-0.000004,-0.000043,-2.469196,0.000053,
2371,2593,2.45851656865902,-1.1246574412211,-0.0136109433865954,0.002485,-0.001046,0.003813,0.100176,-0.000610,321.396716,24.003285,0.999296,0.987177,0.004508,0.464896,0.000036,0.000023,0.000025,0.000055,0.000003,37.754649,0.000065,
2131,2818,-2.80153491686323,3.76686893050276,-0.0107471521616276,0.002254,-0.000011,0.005027,0.088850,0.045551,318.209684,24.435162,0.999182,0.990958,0.004023,0.446605,-0.000009,0.000017,0.000005,0.000017,-0.000010,79.070219,0.000018,
2026,2533,-5.03803632759546,-2.44038638707741,-0.0209470235433287,0.002278,-0.000230,0.001501,0.100701,0.031372,323.301595,24.496693,0.999321,0.989176,0.004161,0.436762,0.000054,-0.000017,0.000010,0.000055,-0.000019,8.035562,0.000056,
2191,3103,-1.54365605632993,9.95651311655641,0.0350384496875336,0.002987,-0.000428,0.009003,0.109468,0.047222,313.748181,24.755862,0.999420,0.992383,0.003647,0.454431,0.000002,-0.000005,0.000004,0.000004,-0.000007,22.008286,0.000007,
2491,3118,4.96994912031927,10.3068868347766,0.0202752549482739,0.003142,-0.000581,0.005794,0.122157,0.033874,313.319972,25.959561,0.999512,0.990980,0.003645,0.453013,0.000027,0.000023,0.000026,0.000051,-0.000002,42.724633,0.000058,
2011,2383,-5.3407668441729,-5.71353463757127,-0.00539322537628095,0.002381,0.000203,-0.000305,0.110405,0.054173,325.954262,24.678963,0.999211,0.987867,0.004411,0.408817,0.000112,0.000028,-0.000001,0.000112,0.000028,-0.884056,0.000148,
2356,2413,2.16675891265285,-5.05501452389648,-0.00483467065885179,0.002587,-0.000425,0.001654,0.112669,0.018164,324.396489,23.646297,0.999686,0.989742,0.004242,0.378177,0.000058,0.000064,0.000037,0.000098,0.000024,47.487808,0.000130,
2461,2983,4.34300211799701,7.37352145308414,0.00154579467096028,0.003042,-0.000354,0.006041,0.117046,0.038615,315.296671,25.448332,0.999482,0.989938,0.004002,0.367165,0.000022,-0.000020,0.000019,0.000029,-0.000028,21.423233,0.000033,
2146,2938,-2.49419428584541,6.37496753726148,0.00400549420754714,0.002871,-0.000209,0.005720,0.115033,0.052719,316.345053,24.570401,0.999417,0.989449,0.004052,0.394263,0.000001,-0.000007,0.000013,0.000010,-0.000016,36.528257,0.000016,
2251,2128,-0.0709216069372935,-11.2964946577758,0.0148007694687067,0.001696,-0.001146,-0.001489,0.082110,-0.014094,329.214431,23.389971,0.998769,0.978888,0.005623,0.424719,0.000219,0.000273,0.000020,0.000280,0.000212,71.625570,0.000494,
2506,3268,5.26494177629119,13.5645895853519,0.0193622055168134,0.003301,-0.000894,0.011505,0.107093,0.033311,310.874990,26.674298,0.999853,0.995305,0.002893,0.395160,-0.000007,-0.000076,-0.000004,-0.000007,-0.000076,-3.577907,0.000092,
2011,2608,-5.37633524105394,-0.804676456936207,-0.0350159446342104,0.002060,-0.000304,0.004784,0.081891,0.049662,322.048287,24.516924,0.999477,0.991218,0.003987,0.405137,0.000021,0.000023,0.000019,0.000041,0.000003,46.818698,0.000049,
2431,2848,3.71557100387911,4.43560979219996,-0.0110844575171427,0.002741,-0.000427,0.008106,0.095938,0.049129,317.320664,24.874738,0.999269,0.986577,0.004290,0.425895,0.000006,0.000023,0.000009,0.000026,0.000002,66.969049,0.000032,
2116,2713,-3.11071439501448,1.48307494903224,-0.0213555990132477,0.002388,-0.000473,0.004004,0.097955,0.006943,319.900426,24.436781,0.999322,0.989443,0.004108,0.365996,0.000004,0.000018,-0.000001,0.000018,0.000004,-85.226089,0.000024,
2041,2428,-4.69588842991221,-4.73027917283547,-0.0160877060638995,0.002374,-0.000147,0.002558,0.102094,0.057903,324.946907,24.521811,0.998841,0.983660,0.004966,0.456983,0.000067,0.000022,0.000023,0.000076,0.000012,22.863638,0.000096,
2416,2728,3.4122540801729,1.82134173240105,-0.0209751192318777,0.002784,-0.000548,0.003791,0.113792,0.009438,319.191526,24.408602,0.999614,0.990353,0.003923,0.450676,0.000009,0.000040,0.000017,0.000048,0.000001,66.151369,0.000056,
2071,2608,-4.07201478250964,-0.803346099742171,-0.028955304882345,0.002607,-0.000241,0.004311,0.107722,0.049030,321.768910,24.469842,0.999266,0.989883,0.004012,0.392468,0.000016,0.000010,0.000019,0.000033,-0.000007,40.075358,0.000035,
2086,3073,-3.81658541416681,9.29889833573595,0.0219546597884346,0.002896,-0.000236,0.003447,0.123725,0.043084,314.578265,24.359081,0.999473,0.991137,0.003598,0.445724,0.000007,0.000004,-0.000001,0.000007,0.000004,-13.571196,0.000011,
2236,2113,-0.395398345876142,-11.6276026346029,0.0255182547251707,0.001467,-0.002086,0.002696,0.057753,-0.043660,329.550388,23.368489,0.999273,0.981279,0.005351,0.478175,0.000239,0.000287,0.000028,0.000299,0.000226,65.508553,0.000527,
2116,2803,-3.12438557035415,3.44051427859931,-0.0121965512578299,0.002598,0.000187,0.002334,0.112942,0.056955,318.530771,24.441945,0.999565,0.992378,0.003523,0.431840,-0.000014,0.000008,0.000001,0.000008,-0.000014,86.591113,0.000014,
2341,2413,1.84075306472096,-5.05591617131621,0.00518891480152206,0.002498,0.000134,-0.003215,0.125826,0.012289,324.492657,23.725897,0.999609,0.989658,0.004286,0.336743,0.000042,0.000071,0.000025,0.000086,0.000027,59.528038,0.000118,
2326,2308,1.53183086334101,-7.35237960229393,0.000308668842535553,0.001959,-0.001033,0.002705,0.080103,0.027318,326.108100,23.439476,0.998974,0.983052,0.005130,0.429219,0.000077,0.000079,0.000009,0.000087,0.000069,47.714351,0.000156,
2476,3013,4.66315899827931,8.0259268519878,0.00469965929801219,0.002858,-0.000700,0.008999,0.096999,0.033894,314.846269,25.551276,0.999541,0.991039,0.003695,0.411423,0.000021,-0.000004,0.000024,0.000035,-0.000019,31.285168,0.000035,
2266,2113,0.260150293578715,-11.6251706860938,0.0176462761742187,0.002177,-0.000617,-0.006608,0.121257,-0.025585,329.494069,23.355631,0.999183,0.980712,0.005337,0.332677,0.000235,0.000289,0.000011,0.000292,0.000233,78.538130,0.000526,
2146,2863,-2.48359332442734,4.74616439956727,-0.0171433001341939,0.002623,-0.000843,0.009232,0.092652,0.029003,317.366878,24.469491,0.999467,0.992121,0.003602,0.434618,-0.000003,0.000008,0.000003,0.000009,-0.000004,77.046130,0.000009,
2221,2023,-0.707384332559219,-13.6002353997889,0.0218475069722217,0.001312,-0.002236,-0.002450,0.067084,-0.087053,331.008009,23.437127,0.999117,0.981148,0.005424,0.320966,0.000324,0.000368,0.000041,0.000392,0.000300,59.329374,0.000694,
2311,2233,1.21954815903134,-8.99546544720888,0.0113144959294118,0.002193,-0.001147,0.001634,0.094485,0.018190,327.433184,23.322340,0.998833,0.977676,0.005702,0.424459,0.000126,0.000115,-0.000008,0.000131,0.000111,-28.249336,0.000242,
2296,2713,0.801689487595777,1.49057744183631,-0.032287608488673,0.002509,-0.000704,0.006321,0.093783,0.028010,319.305289,24.351641,0.999751,0.992825,0.003558,0.477530,0.000003,0.000037,-0.000002,0.000037,0.000003,-87.391201,0.000044,
2371,2608,2.45612519305043,-0.796965300084423,-0.0133631113155275,0.002972,-0.000586,0.004201,0.121359,0.024754,321.175915,24.066317,0.999179,0.986445,0.004511,0.469105,0.000029,0.000021,0.000023,0.000048,0.000002,39.589447,0.000056,
2011,2623,-5.3775418420107,-0.479615226778165,-0.0247388999060831,0.002408,-0.000107,0.003762,0.100724,0.047037,321.910681,24.451807,0.999506,0.991398,0.003848,0.455936,0.000007,0.000005,0.000012,0.000019,-0.000007,41.700362,0.000019,
2011,2398,-5.34287387646996,-5.38676506793729,-0.00592745475540823,0.002447,0.000121,-0.001186,0.115809,0.043068,325.714041,24.612041,0.999222,0.987432,0.004445,0.454473,0.000113,0.000015,-0.000003,0.000113,0.000015,-1.524365,0.000140,
2506,3283,5.26145880995221,13.8895279785729,0.0115408363320739,0.003246,-0.000853,0.007721,0.119230,0.018751,310.575038,26.667881,0.999847,0.995614,0.002771,0.446955,-0.000014,-0.000104,-0.000013,-0.000012,-0.000106,-7.955270,0.000130,
2251,2098,-0.06562087343125,-11.9539363454138,0.0147372829673031,0.001737,-0.001396,-0.001704,0.084591,-0.022585,329.698946,23.372510,0.999289,0.980397,0.005544,0.380934,0.000244,0.000305,0.000021,0.000312,0.000237,72.650349,0.000551,
2131,2833,-2.80404698187474,4.09375193744128,-0.0177005003377531,0.002407,0.000047,0.001102,0.107655,0.038160,317.926313,24.466041,0.999470,0.992261,0.003687,0.413755,-0.000006,0.000014,0.000004,0.000015,-0.000007,78.418564,0.000015,
2191,3118,-1.54597895093822,10.2814442471957,0.0401532911269555,0.002949,-0.000464,0.009666,0.105600,0.042144,313.542174,24.765987,0.999447,0.992865,0.003560,0.452480,-0.000006,-0.000004,0.000003,-0.000001,-0.000008,54.377830,0.000010,
2431,2863,3.71258027620501,4.76190209938295,-0.0124351893298353,0.002475,-0.000419,0.003682,0.100078,0.043378,317.068761,24.905675,0.999495,0.989557,0.003881,0.439070,0.000003,0.000017,0.000007,0.000020,0.000001,68.100294,0.000024,
2461,2998,4.34018803044876,7.69834120492113,0.00329262429625032,0.003181,-0.000325,0.007034,0.119705,0.038776,315.069129,25.397108,0.999374,0.989691,0.004028,0.472510,0.000026,-0.000020,0.000021,0.000035,-0.000029,21.353084,0.000037,
2116,2728,-3.1132404845207,1.8097713030545,-0.0242376792112964,0.002525,-0.000233,0.004795,0.102083,0.039303,319.636919,24.409576,0.999382,0.988994,0.004144,0.429231,-0.000005,0.000024,0.000001,0.000024,-0.000005,87.204683,0.000025,
2491,3133,4.96668303305123,10.6327826175445,0.0192736470809791,0.003033,-0.000530,0.005849,0.116987,0.038399,313.060188,26.020483,0.999498,0.990863,0.003622,0.454319,0.000034,0.000016,0.000019,0.000046,0.000004,32.931561,0.000056,
2146,2953,-2.49700282549745,6.70045139952018,0.00182387740437662,0.002815,-0.000187,0.007354,0.107487,0.053051,316.075142,24.535748,0.999610,0.990852,0.003731,0.436457,0.000002,-0.000010,0.000012,0.000009,-0.000017,31.344660,0.000017,
2356,2428,2.16359336570307,-4.72879286056415,-0.00824192174860627,0.002427,-0.000094,0.000644,0.109060,0.044308,324.122325,23.480925,0.999519,0.989431,0.004305,0.610477,0.000057,0.000050,0.000039,0.000093,0.000015,42.329708,0.000116,
2506,3298,5.25863522751365,14.214612089341,0.0163657837534288,0.003164,-0.000777,0.008470,0.112580,0.019933,310.362153,26.731866,0.999744,0.993523,0.003229,0.443546,-0.000027,-0.000118,-0.000038,-0.000013,-0.000131,-19.812815,0.000160,
2071,2743,-4.0922040405381,2.13329624137073,-0.0209575462459384,0.002942,-0.000403,0.003362,0.125838,0.024246,319.667769,24.351929,0.999415,0.990121,0.003951,0.460367,-0.000007,0.000013,-0.000003,0.000014,-0.000007,-82.217388,0.000014,
2416,2743,3.40957632724697,2.14848726596252,-0.0199988805543398,0.003037,-0.000772,0.004510,0.122696,0.006180,318.964078,24.498347,0.999519,0.989359,0.004020,0.405419,0.000010,0.000036,0.000021,0.000047,-0.000002,60.674691,0.000054,
2086,3088,-3.81912280007314,9.62397300624101,0.0238737100391404,0.002744,-0.000239,0.004824,0.112745,0.047619,314.338726,24.344148,0.999455,0.990444,0.003771,0.463031,0.000002,0.000010,-0.000002,0.000010,0.000001,-76.184135,0.000012,
2011,2413,-5.34583620839023,-5.05958269274524,-0.00600492688181475,0.001730,0.000126,-0.000449,0.080867,0.032040,325.437214,24.592274,0.999145,0.987557,0.004451,0.453018,0.000108,0.000000,0.000013,0.000109,-0.000002,6.634029,0.000125,
2011,2638,-5.38037060579327,-0.152193625170185,-0.0296404450167529,0.002129,0.000049,0.004192,0.086785,0.061202,321.613007,24.461476,0.999117,0.986480,0.004496,0.449201,0.000013,0.000029,0.000022,0.000044,-0.000003,55.066084,0.000049,
2296,2728,0.799724442619446,1.81688318769071,-0.0240678289602556,0.002698,-0.000700,0.006642,0.101420,0.032781,319.137735,24.409113,0.999600,0.990962,0.003813,0.454769,0.000004,0.000034,0.000002,0.000034,0.000004,85.714255,0.000041,
2221,2038,-0.710195731786257,-13.2702788965122,0.0156006226565637,0.001365,-0.001563,-0.004369,0.075879,-0.066772,330.723651,23.441107,0.998933,0.977005,0.005745,0.359800,0.000307,0.000359,0.000036,0.000377,0.000288,62.881906,0.000667,
2431,2878,3.70976075652124,5.08836746456608,-0.0128801162894661,0.002718,-0.000624,0.004331,0.108776,0.036284,316.828830,24.965018,0.999526,0.990480,0.003723,0.422159,0.000003,0.000009,0.000009,0.000016,-0.000004,53.007903,0.000016,
2476,3028,4.66064818192914,8.35151983257501,0.00982750813466282,0.003024,-0.000795,0.009697,0.101962,0.039520,314.648734,25.596144,0.999729,0.992293,0.003487,0.427971,0.000021,0.000004,0.000019,0.000033,-0.000009,33.108722,0.000034,
2236,2128,-0.398091897413593,-11.2959881473584,0.0192440806802097,0.001612,-0.001129,-0.000391,0.074681,-0.012529,329.272336,23.547807,0.998916,0.979690,0.005486,0.354445,0.000225,0.000270,0.000028,0.000283,0.000212,64.574181,0.000497,
2116,2818,-3.12692088142642,3.76667409051129,-0.0151647144548406,0.002775,0.000074,0.003624,0.117197,0.047361,318.266633,24.433891,0.999455,0.991950,0.003714,0.433750,-0.000013,0.000018,0.000002,0.000018,-0.000013,85.400944,0.000018,
2356,2443,2.16116215971477,-4.40106492097232,-0.00287381470946002,0.002353,-0.000563,-0.000299,0.108800,0.013461,323.923913,23.597862,0.998949,0.982440,0.005156,0.502722,0.000057,0.000032,0.000038,0.000085,0.000004,35.965698,0.000101,
2461,3013,4.3379441410349,8.02473882452336,0.0117648550383933,0.003132,-0.000219,0.005432,0.123563,0.049885,314.898148,25.529257,0.999443,0.989414,0.003957,0.404781,0.000026,-0.000006,0.000019,0.000034,-0.000015,24.510994,0.000035,
2326,2323,1.5288579233168,-7.02425473218956,-0.00176571837704387,0.001879,-0.000956,0.002171,0.078335,0.011186,325.846773,23.466141,0.998968,0.981569,0.005360,0.422983,0.000072,0.000073,0.000015,0.000087,0.000058,46.669194,0.000146,
2266,2128,0.256722621297818,-11.2962930017974,0.0138075523075827,0.002003,-0.000994,-0.002187,0.098563,-0.006402,329.198061,23.324764,0.999024,0.980408,0.005400,0.411638,0.000222,0.000275,0.000012,0.000277,0.000219,77.472055,0.000497,
2131,2848,-2.80698014289703,4.42026810999847,-0.0230970823542407,0.002480,-0.000373,0.003947,0.102424,0.038558,317.632026,24.472508,0.999588,0.992454,0.003584,0.413116,-0.000007,0.000005,0.000006,0.000007,-0.000009,68.134195,0.000010,
2146,2878,-2.48513288602893,5.07155087675459,-0.00611417717874474,0.002663,-0.000154,0.006512,0.103046,0.058345,317.225323,24.473230,0.999499,0.991526,0.003700,0.467674,0.000000,0.000011,0.000006,0.000014,-0.000002,67.668330,0.000015,
2311,2248,1.2165607841832,-8.6668854730404,0.00872671477026188,0.001829,-0.000445,-0.002567,0.092397,0.024162,327.167443,23.335777,0.998851,0.979978,0.005438,0.451706,0.000117,0.000090,-0.000005,0.000118,0.000089,-9.506397,0.000208,
2071,2758,-4.09479691979947,2.46002012568255,-0.0265101799385548,0.002919,-0.000392,0.001282,0.130748,0.015009,319.382951,24.356025,0.999499,0.991059,0.003834,0.444054,-0.000006,0.000005,-0.000007,0.000009,-0.000009,-63.201687,0.000010,
2491,3148,4.96404338220959,10.9586643891628,0.024352283089911,0.003129,-0.000323,0.006967,0.117172,0.042741,312.856671,26.121234,0.999516,0.989593,0.003838,0.415395,0.000032,0.000001,0.000021,0.000043,-0.000009,27.034143,0.000045,
2011,2683,-5.38583634788035,0.825105492803971,-0.0154231381811201,0.002532,-0.000476,0.004314,0.104899,0.033630,321.022277,24.374701,0.999796,0.995837,0.002926,0.473266,-0.000009,0.000018,0.000000,0.000018,-0.000009,89.426036,0.000018,
2251,2113,-0.0680131528713268,-11.6251934535318,0.0170824017369,0.001855,-0.001206,-0.000953,0.087619,-0.016938,329.480151,23.404292,0.999129,0.980319,0.005464,0.381110,0.000232,0.000288,0.000020,0.000294,0.000226,72.410292,0.000521,
2011,2428,-5.34815817962411,-4.73186688808602,-0.0043003649552702,0.001666,0.000243,0.002186,0.070848,0.075102,325.199305,24.589042,0.998985,0.986219,0.004671,0.488635,0.000092,0.000005,0.000025,0.000099,-0.000002,14.789542,0.000113,
2116,2743,-3.11621386473315,2.13704260250231,-0.0281168804334584,0.002433,-0.000563,0.007850,0.088696,0.038295,319.347460,24.465412,0.999492,0.989829,0.003977,0.376062,-0.000010,0.000016,-0.000002,0.000016,-0.000010,-84.760198,0.000017,
2146,2968,-2.49918404913702,7.0257222986332,0.00370561909699063,0.002945,-0.000553,0.006338,0.116491,0.045966,315.855682,24.521375,0.999679,0.992870,0.003373,0.451081,0.000003,-0.000009,0.000008,0.000007,-0.000013,26.847849,0.000013,
2011,2653,-5.38211433297672,0.174171129971739,-0.0366783962500676,0.002836,0.000047,0.000839,0.128441,0.042999,321.353410,24.393779,0.998994,0.985907,0.004629,0.487403,0.000004,0.000040,0.000014,0.000045,-0.000001,70.880830,0.000051,
2086,3103,-3.82149147975266,9.94906261804804,0.0288593179419649,0.002677,-0.000294,0.007911,0.100752,0.056594,314.123666,24.349102,0.999703,0.993289,0.003288,0.465011,0.000007,0.000015,0.000001,0.000015,0.000006,80.534404,0.000022,
2116,2833,-3.12986195051293,4.09367623834353,-0.020623572306647,0.002640,-0.000068,0.003805,0.110428,0.044042,317.970213,24.483005,0.999646,0.992527,0.003615,0.384669,-0.000011,0.000014,0.000001,0.000014,-0.000011,88.055126,0.000015,
2431,2893,3.70679747920424,5.41498024799409,-0.0137582009530206,0.002811,-0.000323,0.004495,0.112571,0.043090,316.580134,25.025287,0.999493,0.990403,0.003853,0.418424,0.000006,-0.000005,0.000010,0.000012,-0.000011,31.147566,0.000013,
2491,3163,4.96109470151208,11.2840873480234,0.0251853194711202,0.003075,-0.000106,0.005756,0.119388,0.042000,312.619783,26.162446,0.999568,0.990996,0.003619,0.431269,0.000025,-0.000004,0.000020,0.000035,-0.000014,26.857648,0.000035,
2356,2458,2.15778661876139,-4.07172872862768,-0.0110529674523718,0.002554,-0.000927,0.000964,0.113450,-0.014408,323.616702,23.737559,0.999286,0.985969,0.004642,0.375458,0.000051,0.000029,0.000037,0.000078,0.000001,36.823745,0.000091,
2476,3043,4.65746151268008,8.67798054534688,0.00682433666133875,0.002993,-0.000528,0.008009,0.107102,0.046623,314.382743,25.669548,0.999729,0.992459,0.003521,0.417473,0.000016,0.000013,0.000028,0.000042,-0.000013,43.245026,0.000043,
2071,2773,-4.09667834623646,2.78621398641143,-0.0202009115175201,0.002986,-0.000085,0.001075,0.134517,0.027137,319.195820,24.388110,0.999361,0.989614,0.004086,0.420850,-0.000004,0.000009,-0.000005,0.000010,-0.000005,-70.001891,0.000010,
2296,2743,0.797707438122639,2.1429828481775,-0.01719412704864,0.002822,-0.000500,0.005457,0.111207,0.032730,318.961159,24.445109,0.999442,0.989547,0.004055,0.448735,0.000003,0.000030,0.000006,0.000031,0.000002,77.137615,0.000037,
2266,2143,0.253875005176585,-10.9657039235117,0.0172447508520577,0.001981,-0.001507,0.003317,0.079241,-0.000124,328.964800,23.546898,0.999465,0.984678,0.005015,0.224244,0.000202,0.000229,0.000019,0.000239,0.000192,62.509098,0.000432,
2116,2758,-3.11722367885721,2.46169462028654,-0.0152539432261847,0.002734,-0.000282,0.003496,0.115538,0.032987,319.238745,24.422016,0.999530,0.990682,0.003810,0.417376,-0.000011,0.000010,-0.000005,0.000011,-0.000012,-76.172323,0.000013,
2461,3028,4.3351659439418,8.35057363184919,0.0157358498437361,0.003068,-0.000357,0.005667,0.119713,0.051214,314.682024,25.592421,0.999677,0.991147,0.003794,0.396656,0.000027,0.000002,0.000015,0.000034,-0.000005,25.408000,0.000036,
2011,2698,-5.38771843103966,1.15189505376472,-0.0204813604423748,0.002946,0.000073,0.000201,0.135307,0.044996,320.767328,24.346896,0.999778,0.995652,0.002988,0.501185,-0.000010,-0.000008,0.000000,-0.000008,-0.000010,81.907961,0.000018,
2011,2923,-5.42072359625643,6.04158926089727,-0.000319332395861238,0.002822,0.000262,0.003455,0.121066,0.071338,317.270810,24.260711,0.999296,0.992174,0.003519,0.431935,0.000003,-0.000048,-0.000006,0.000004,-0.000049,-6.736192,0.000054,
2326,2338,1.52755464559204,-6.69765873005543,0.0119177987533021,0.002299,-0.000944,0.001943,0.098371,0.016494,325.738857,23.491851,0.999167,0.983561,0.004971,0.438256,0.000063,0.000082,0.000015,0.000090,0.000055,61.528243,0.000146,
2011,2668,-5.38397815948522,0.499975419372845,-0.0311065432034638,0.002832,-0.000093,0.000068,0.130297,0.034856,321.159233,24.375043,0.998914,0.986489,0.004540,0.486287,-0.000009,0.000038,0.000011,0.000040,-0.000011,77.813095,0.000041,
2146,2893,-2.48744440399973,5.39709588172302,-0.00699743870927705,0.002753,-0.000428,0.004208,0.114035,0.032330,316.985157,24.463002,0.999491,0.989763,0.004042,0.459314,-0.000004,0.000003,0.000007,0.000007,-0.000008,58.722722,0.000009,
2086,3118,-3.82366311569074,10.2744328751073,0.0284667898382622,0.002833,-0.000148,0.005990,0.113537,0.051508,313.888220,24.363684,0.999725,0.993745,0.003127,0.443323,0.000005,0.000019,0.000001,0.000019,0.000005,86.922159,0.000025,
2116,2848,-3.13203002146351,4.41875311799108,-0.0166746090467313,0.002718,-0.000220,0.004802,0.111060,0.046727,317.760411,24.424627,0.999687,0.992786,0.003469,0.448739,-0.000012,0.000003,0.000003,0.000004,-0.000013,79.976221,0.000013,
2431,2908,3.70355129528915,5.74054424760141,-0.0146061318030775,0.002769,-0.000622,0.006546,0.102913,0.025900,316.318796,25.017666,0.999604,0.990324,0.003812,0.458245,0.000005,-0.000007,0.000013,0.000013,-0.000016,32.858569,0.000017,
2491,3178,4.95938602793114,11.6089693210438,0.0358753226119575,0.003363,-0.000187,0.003709,0.140545,0.047476,312.484705,26.209614,0.999633,0.990787,0.003708,0.447297,0.000024,-0.000007,0.000019,0.000033,-0.000017,25.911233,0.000033,
2251,2368,-0.114877183805081,-6.0394444256784,-0.00734953627170398,0.001940,-0.001050,0.004866,0.072790,0.011065,325.149115,23.884034,0.999410,0.987280,0.004767,0.367417,0.000039,0.000078,0.000008,0.000079,0.000038,78.944471,0.000120,
2461,3043,4.33219590055983,8.67563117688636,0.0176070611266823,0.003031,-0.000411,0.006525,0.114800,0.049637,314.447590,25.576596,0.999562,0.990106,0.003902,0.464451,0.000021,0.000013,0.000022,0.000039,-0.000005,39.821248,0.000043,
2476,3058,4.65514662491568,9.00311079401151,0.0179210750364405,0.002595,-0.000507,0.005554,0.098050,0.022970,314.221397,25.747070,0.999638,0.990394,0.003960,0.371656,0.000020,0.000007,0.000027,0.000042,-0.000015,38.461971,0.000043,
2011,2713,-5.39103831148521,1.47931810911926,-0.027801480664948,0.002424,0.000049,0.002185,0.105839,0.043171,320.433727,24.377465,0.999680,0.994045,0.003424,0.457152,-0.000011,-0.000005,0.000001,-0.000005,-0.000012,77.655687,0.000017,
2146,2983,-2.50162502767914,7.3510716455969,0.00323539615158097,0.003044,-0.000594,0.006432,0.120758,0.033316,315.611782,24.507577,0.999695,0.994306,0.003167,0.459607,0.000001,-0.000007,0.000006,0.000004,-0.000010,28.101387,0.000010,
2071,2788,-4.09891728325202,3.11162184853936,-0.0149226708072661,0.002909,-0.000060,0.003287,0.124745,0.047661,318.986910,24.335322,0.999317,0.988704,0.004161,0.490932,-0.000009,0.000014,-0.000006,0.000015,-0.000010,-75.440845,0.000016,
2011,3163,-5.45495075984521,11.2428310987397,0.045967504558007,0.002824,-0.000321,0.007805,0.109332,0.052666,313.737677,24.032030,0.999480,0.993883,0.003380,0.435779,-0.000003,0.000032,-0.000006,0.000033,-0.000004,-80.440956,0.000036,
2011,2938,-5.4230978720686,6.36709700520949,-0.00178112979244816,0.002933,-0.000015,0.005489,0.120565,0.070560,317.014340,24.227379,0.999370,0.993067,0.003550,0.451892,0.000003,-0.000048,0.000003,0.000003,-0.000048,2.815370,0.000054,
2266,2158,0.251458729404106,-10.6383710162448,0.0164618769099434,0.001893,-0.001105,-0.001836,0.092343,-0.008048,328.730628,23.445848,0.999257,0.983137,0.005146,0.345787,0.000187,0.000191,0.000021,0.000210,0.000168,47.748914,0.000378,
2116,2773,-3.11970121080575,2.7880244806457,-0.016487312790332,0.002839,-0.000268,0.004596,0.117100,0.031197,318.986516,24.421707,0.999690,0.992288,0.003493,0.419472,-0.000010,0.000010,-0.000003,0.000011,-0.000010,-81.779340,0.000012,
2116,2863,-3.13387925598134,4.74410086375472,-0.00791633866913344,0.002923,-0.000448,0.007579,0.112204,0.042411,317.591033,24.437413,0.999687,0.992097,0.003553,0.434596,-0.000012,0.000002,0.000002,0.000002,-0.000012,81.078232,0.000013,
2476,3073,4.65272085173261,9.32824338112351,0.0210258581284961,0.003084,-0.000536,0.007129,0.114502,0.019651,314.018491,25.755551,0.999587,0.990787,0.003864,0.415715,0.000022,0.000011,0.000029,0.000046,-0.000013,39.663906,0.000047,
2086,3133,-3.82565618098973,10.5996250343949,0.0322118388627928,0.002987,0.000140,0.005318,0.122643,0.053047,313.683626,24.384645,0.999707,0.993376,0.003127,0.421687,0.000009,0.000013,-0.000001,0.000013,0.000009,-77.829308,0.000022,
2011,2728,-5.39302268065356,1.80509491330795,-0.0240666072047588,0.002623,-0.000078,0.004904,0.107628,0.050697,320.223811,24.341873,0.999538,0.992236,0.003723,0.488541,-0.000021,0.000012,0.000006,0.000013,-0.000022,80.006362,0.000022,
2491,3193,4.95672193541455,11.9335900193188,0.0457577519537722,0.003298,-0.000558,0.008045,0.120771,0.041758,312.301942,26.241611,0.999582,0.991160,0.003666,0.466877,0.000022,-0.000008,0.000021,0.000033,-0.000019,27.053489,0.000033,
2146,2908,-2.48936256451104,5.72293212039857,-0.00122684157099684,0.002973,-0.000271,0.004563,0.123201,0.051821,316.798200,24.486391,0.999393,0.988885,0.004148,0.462620,-0.000002,-0.000007,0.000007,0.000002,-0.000012,34.718090,0.000013,
2011,2953,-5.42489308319401,6.6924534789764,0.00384135520988593,0.003019,0.000079,0.004395,0.127555,0.072510,316.824314,24.231189,0.999587,0.994255,0.003162,0.437392,0.000009,-0.000053,0.000009,0.000010,-0.000054,7.890393,0.000057,
2326,2353,1.5240050834888,-6.36798534505616,0.00400461618073678,0.002182,-0.000666,0.002591,0.090927,0.038241,325.422152,23.574991,0.999090,0.981838,0.004996,0.413642,0.000056,0.000078,0.000017,0.000087,0.000047,61.218348,0.000136,
2251,2383,-0.116832579787541,-5.71396135881569,-0.00836565001134204,0.002435,-0.001319,0.001390,0.106754,-0.023849,324.933595,23.718074,0.999098,0.985616,0.004861,0.523632,0.000030,0.000077,0.000010,0.000079,0.000028,78.767607,0.000111,
2461,3058,4.32862670588936,9.00169679463731,0.0182151035239713,0.002422,-0.000332,0.006387,0.087326,0.042942,314.179396,25.654482,0.999533,0.989315,0.004116,0.433249,0.000022,0.000007,0.000022,0.000038,-0.000009,35.790191,0.000040,
2011,3178,-5.45694410732362,11.5677602177822,0.0467201066545044,0.002949,0.000054,0.005240,0.122207,0.063755,313.511812,24.009334,0.999731,0.995417,0.002773,0.456599,-0.000002,0.000036,-0.000007,0.000037,-0.000004,-79.630298,0.000041,
2431,2923,3.70079578458396,6.06751186798238,-0.0111820748469427,0.002672,-0.000463,0.006043,0.100413,0.034548,316.099421,25.148212,0.999595,0.991579,0.003778,0.385906,0.000005,-0.000010,0.000008,0.000009,-0.000013,23.960294,0.000013,
2071,2803,-4.1018749079131,3.43860537332282,-0.02138820626908,0.002696,-0.000140,0.002969,0.115800,0.036927,318.680315,24.371840,0.999285,0.989789,0.004095,0.440385,-0.000005,0.000013,-0.000002,0.000013,-0.000005,-82.203737,0.000013,
2011,2743,-5.39627097834389,2.13299417789145,-0.0319073361681603,0.002301,-0.000417,0.008420,0.083179,0.050472,319.890422,24.420679,0.999576,0.992572,0.003506,0.397550,-0.000032,0.000012,-0.000004,0.000013,-0.000032,-84.394692,0.000033,
2266,2173,0.247877862430194,-10.310160912152,0.00936567353596729,0.001629,-0.001285,0.000273,0.073275,-0.005432,328.411365,23.352979,0.999569,0.984266,0.004968,0.469801,0.000174,0.000166,0.000017,0.000188,0.000152,38.306634,0.000341,
2476,3088,4.6497273130807,9.65469368619524,0.0208682106448919,0.003271,-0.000342,0.008583,0.117771,0.053642,313.774087,25.831159,0.999460,0.991904,0.003661,0.429899,0.000024,0.000014,0.000027,0.000046,-0.000008,39.225025,0.000049,
2116,2968,-3.15002809239797,7.0240294744661,0.00760432452352688,0.002830,-0.000207,0.006352,0.111719,0.053990,316.011512,24.483179,0.999658,0.992219,0.003461,0.421201,0.000002,-0.000016,0.000010,0.000006,-0.000020,23.649206,0.000021,
2491,3208,4.95304511529323,12.2601446672961,0.0393889637990696,0.003172,-0.000160,0.007414,0.117521,0.050432,311.998315,26.346089,0.999417,0.991535,0.003751,0.428741,0.000024,-0.000013,0.000015,0.000029,-0.000019,19.464890,0.000030,
2011,2968,-5.42710996606332,7.01752144858294,0.00648740523882907,0.002981,-0.000098,0.005320,0.123235,0.061176,316.598386,24.204570,0.999628,0.994453,0.003048,0.440040,0.000007,-0.000052,-0.000004,0.000007,-0.000053,-3.408022,0.000057,
2116,2878,-3.13680342389912,5.06950578561474,-0.007615243406633,0.002463,-0.000590,0.008222,0.089003,0.022740,317.326896,24.411958,0.999573,0.992023,0.003699,0.443472,-0.000006,0.000009,0.000007,0.000012,-0.000009,68.559592,0.000012,
2011,3193,-5.45927448659476,11.8924939807778,0.0467713466728128,0.003037,-0.000190,0.006995,0.121432,0.055348,313.266656,23.987694,0.999711,0.995149,0.002800,0.456464,0.000005,0.000030,-0.000008,0.000032,0.000003,-72.928266,0.000039,
2461,3073,4.32544606369983,9.32753727127269,0.0124779377156869,0.002865,-0.000436,0.007962,0.101637,0.030223,313.899990,25.680702,0.999592,0.991697,0.003760,0.447920,0.000021,0.000010,0.000024,0.000040,-0.000009,38.296542,0.000042,
2431,2938,3.69836873968367,6.39325894797398,-0.00758506677203741,0.002995,-0.000340,0.006912,0.112070,0.041730,315.896232,25.172778,0.999619,0.991451,0.003806,0.418010,0.000011,-0.000012,0.000006,0.000013,-0.000014,13.538423,0.000015,
2011,2758,-5.39810155185353,2.45843529458841,-0.0306232229821717,0.002478,-0.000241,0.005672,0.098869,0.050597,319.673959,24.351041,0.999434,0.991784,0.003736,0.455394,-0.000030,-0.000002,-0.000015,0.000005,-0.000037,-66.835109,0.000040,
2326,2368,1.52074376686185,-6.04001278007868,-0.0054155455454179,0.002250,-0.000674,0.000480,0.101283,0.012375,325.111722,23.541551,0.999310,0.985819,0.004644,0.457684,0.000051,0.000075,0.000023,0.000089,0.000036,58.565596,0.000129,
2491,3223,4.94971133212936,12.585998978086,0.0351403558327092,0.003145,-0.000272,0.006008,0.121658,0.045686,311.720213,26.416136,0.999395,0.991063,0.003847,0.411190,0.000023,-0.000033,0.000012,0.000025,-0.000035,11.838064,0.000036,
2146,2923,-2.49181169891121,6.04866022398328,0.0023004144393326,0.002745,-0.000057,0.003923,0.114714,0.049839,316.575039,24.508765,0.999138,0.986437,0.004488,0.445851,0.000001,-0.000008,0.000011,0.000008,-0.000015,32.948258,0.000015,
2071,2818,-4.10388207355191,3.76411247984457,-0.0143399937129516,0.002705,-0.000133,0.004508,0.111805,0.042740,318.491755,24.364374,0.999374,0.990431,0.004089,0.450301,-0.000008,0.000021,-0.000003,0.000021,-0.000008,-83.973895,0.000022,
2476,3103,4.64719275433151,9.97994566689868,0.0244790623754625,0.003302,-0.000503,0.006449,0.127194,0.023752,313.568296,25.887757,0.999368,0.990987,0.003841,0.398813,0.000027,0.000004,0.000026,0.000044,-0.000013,32.947689,0.000045,
2011,3208,-5.46119255465057,12.2176191163308,0.0463388977617001,0.003380,0.000026,0.005565,0.141278,0.067743,313.037547,23.982325,0.999556,0.993214,0.003301,0.461002,0.000011,0.000021,-0.000011,0.000029,0.000004,-56.984896,0.000036,
2266,2188,0.245901846417699,-9.98064939154463,0.0134623079014773,0.002022,-0.001039,0.000248,0.091456,-0.003758,328.221349,23.503777,0.999229,0.983203,0.005126,0.348744,0.000156,0.000154,0.000008,0.000163,0.000147,41.512714,0.000310,
2116,2983,-3.15141786590809,7.34844592386062,0.0149585811529391,0.003270,-0.000035,0.004088,0.138799,0.055805,315.856060,24.421699,0.999730,0.993419,0.003252,0.487148,0.000000,-0.000015,0.000006,0.000002,-0.000017,19.683103,0.000019,
2461,3088,4.3220576484037,9.65393667258218,0.0105119909013638,0.002655,-0.000526,0.007879,0.092303,0.029122,313.628039,25.775701,0.999596,0.993658,0.003555,0.405174,0.000023,0.000012,0.000021,0.000039,-0.000004,37.995930,0.000043,
2116,2893,-3.13952656228718,5.39625692148433,-0.0130330381054478,0.002595,-0.000457,0.009119,0.092518,0.040356,317.040711,24.435711,0.999396,0.992284,0.003924,0.440571,-0.000010,-0.000001,0.000007,0.000003,-0.000014,61.356140,0.000014,
2011,2773,-5.39995256251485,2.7851535905919,-0.0287708024715698,0.002602,0.000265,0.002822,0.112534,0.089295,319.459282,24.368873,0.999485,0.991092,0.003893,0.464422,-0.000024,0.000000,-0.000014,0.000006,-0.000030,-65.247468,0.000032,
2476,3118,4.64399008566887,10.3050346744143,0.0274938848150441,0.003083,-0.000774,0.008750,0.108322,0.031865,313.328956,25.891193,0.999515,0.990809,0.003694,0.459176,0.000031,0.000016,0.000021,0.000045,0.000001,34.904656,0.000053,
2011,3223,-5.46393360532771,12.5430674407956,0.0437987946470457,0.003227,-0.000169,0.007493,0.128918,0.063330,312.758711,24.015323,0.999316,0.992717,0.003555,0.410138,0.000019,0.000000,-0.000016,0.000028,-0.000009,-29.092107,0.000029,
2431,2953,3.69470216860894,6.71980648085784,-0.0139656236407291,0.002767,-0.000347,0.006291,0.103947,0.041779,315.589296,25.212317,0.999724,0.992859,0.003556,0.427901,0.000008,-0.000014,0.000008,0.000011,-0.000016,17.755381,0.000016,
2146,3118,-2.52274404082057,10.2791129646295,0.0295293601238313,0.002806,-0.000189,0.006591,0.109591,0.060786,313.617721,24.608518,0.999634,0.994617,0.003188,0.448254,0.000001,0.000006,0.000004,0.000008,-0.000002,59.778544,0.000009,
2011,3238,-5.465731361114,12.8666428305835,0.053225525485459,0.003128,-0.000190,0.006359,0.127353,0.047984,312.591389,23.958333,0.999481,0.993216,0.003463,0.438547,0.000028,-0.000034,-0.000018,0.000033,-0.000039,-15.282839,0.000042,
2326,2383,1.51768393410897,-5.71155740983653,-0.00185912426564983,0.002191,-0.001217,0.006863,0.076427,0.017254,324.873507,23.653032,0.999524,0.987630,0.004531,0.387127,0.000051,0.000072,0.000023,0.000087,0.000036,56.909323,0.000126,
2461,3103,4.31992725170705,9.97869259668674,0.0212378925826897,0.002631,-0.000556,0.007540,0.092434,0.025097,313.472689,25.805980,0.999534,0.991994,0.003722,0.424052,0.000027,0.000006,0.000020,0.000039,-0.000007,31.451583,0.000042,
2476,3133,4.64104580001561,10.6316256578092,0.0260287244458368,0.003136,-0.000543,0.006686,0.118760,0.042550,313.080586,26.006523,0.999547,0.990064,0.003725,0.409907,0.000036,0.000009,0.000014,0.000042,0.000004,23.009644,0.000051,
2116,2998,-3.15453618511883,7.67488011570335,0.00774623867403079,0.003040,0.000000,0.003520,0.129929,0.057499,315.542200,24.450557,0.999524,0.992333,0.003508,0.462698,0.000000,-0.000012,0.000006,0.000002,-0.000014,23.450707,0.000015,
2116,2908,-3.14102353144813,5.7216354242708,-0.0049389286339192,0.002779,-0.000344,0.005376,0.112165,0.044465,316.883922,24.448830,0.999267,0.990285,0.004116,0.434490,-0.000007,-0.000014,0.000009,-0.000001,-0.000020,33.553823,0.000023,
2266,2563,0.177589810012478,-1.78261603770136,-0.0119308353053498,0.002406,-0.000796,0.002177,0.103092,0.010964,321.960354,24.025150,0.999459,0.990153,0.004092,0.524835,0.000003,0.000023,0.000008,0.000025,0.000000,70.724454,0.000029,
2011,3253,-5.46821702146429,13.1921899088484,0.0492016924127938,0.003026,0.000288,0.003281,0.131199,0.064710,312.315912,23.978437,0.999826,0.995598,0.002809,0.421763,0.000041,-0.000038,-0.000022,0.000047,-0.000044,-14.642831,0.000053,
2431,2968,3.69168287961557,7.04527681065615,-0.0119810372216307,0.002560,-0.000378,0.006320,0.094248,0.030393,315.351302,25.226972,0.999849,0.995153,0.003080,0.451199,0.000007,-0.000014,0.000009,0.000010,-0.000017,19.933223,0.000017,
2461,3118,4.31732774533244,10.304249544575,0.0208054143417939,0.003074,-0.000395,0.007395,0.113469,0.038471,313.244219,25.825845,0.999507,0.990356,0.003892,0.471057,0.000033,0.000014,0.000018,0.000044,0.000004,31.040252,0.000053,
2476,3148,4.6376936013504,10.9573709357225,0.0280098276877538,0.002713,-0.000352,0.007297,0.097055,0.043713,312.829282,26.078516,0.999533,0.989184,0.003836,0.394403,0.000033,-0.000002,0.000014,0.000038,-0.000007,19.643900,0.000041,
2146,3133,-2.52512979336496,10.6033892195722,0.0345787268446998,0.002841,-0.000614,0.010149,0.100239,0.045900,313.406079,24.570783,0.999499,0.993457,0.003495,0.477921,0.000003,0.000004,0.000004,0.000008,-0.000001,48.127528,0.000008,
2326,2398,1.51591765987171,-5.38528142946261,0.00635068168384123,0.002183,-0.000466,0.001692,0.094130,0.019879,324.717626,23.616119,0.999479,0.987718,0.004579,0.462436,0.000044,0.000074,0.000024,0.000088,0.000031,60.946826,0.000123,
2266,2578,0.174173433889532,-1.45379196338472,-0.0177289867332888,0.002204,-0.000454,0.003684,0.088961,0.038390,321.653751,24.126261,0.999289,0.988219,0.004365,0.477718,-0.000001,0.000031,0.000004,0.000032,-0.000002,82.862840,0.000036,
2116,2923,-3.14282023183525,6.04702912838572,-0.00312666159408082,0.003029,-0.000091,0.000997,0.136719,0.035407,316.679620,24.434852,0.998887,0.988470,0.004434,0.442407,-0.000002,-0.000016,0.000014,0.000006,-0.000025,31.089833,0.000026,
2116,3013,-3.15640348544995,7.99969781832533,0.0151694581720676,0.003261,-0.000142,0.005215,0.135014,0.054353,315.365101,24.438616,0.998977,0.989123,0.004129,0.474178,0.000005,-0.000004,0.000003,0.000006,-0.000005,17.981833,0.000007,
2431,2983,3.68997940284136,7.37004484791883,0.00332221936952237,0.002786,-0.000485,0.008781,0.095547,0.039569,315.235963,25.251326,0.999656,0.991404,0.003676,0.485029,0.000010,-0.000017,0.000010,0.000013,-0.000020,18.966329,0.000021,
2461,3133,4.31457574292448,10.6303516652284,0.0216713751282782,0.003180,-0.000317,0.006279,0.122630,0.038788,313.014437,25.921065,0.999507,0.989259,0.003944,0.429527,0.000036,0.000007,0.000012,0.000041,0.000003,20.037418,0.000049,
2476,3163,4.63468595081398,11.2831645400733,0.0265620132622075,0.002805,-0.000358,0.006508,0.104242,0.034464,312.578146,26.148331,0.999513,0.990082,0.003827,0.370936,0.000027,-0.000004,0.000014,0.000032,-0.000009,20.761714,0.000033,
2146,3148,-2.52808386968077,10.929433822622,0.0284668789964826,0.002765,-0.000107,0.009409,0.099122,0.056902,313.108281,24.605575,0.999512,0.992547,0.003575,0.460839,0.000005,0.000005,0.000008,0.000013,-0.000003,45.012020,0.000014,
2116,2938,-3.14551181605655,6.37362019640891,-0.00544088076156868,0.002959,0.000343,0.001327,0.132759,0.068666,316.411603,24.463769,0.999309,0.990314,0.004014,0.449739,-0.000002,-0.000013,0.000015,0.000008,-0.000024,34.607711,0.000024,
2476,3178,4.63208609291919,11.6084424576915,0.0279834224654678,0.003126,-0.000252,0.006468,0.119274,0.055097,312.358950,26.161745,0.999628,0.991834,0.003590,0.433609,0.000025,-0.000006,0.000013,0.000030,-0.000011,19.602380,0.000030,
2461,3148,4.3117644903364,10.9558399207576,0.0254072854453398,0.003014,-0.000148,0.005468,0.118113,0.045005,312.795203,25.975026,0.999429,0.988752,0.003946,0.434961,0.000033,-0.000003,0.000013,0.000037,-0.000007,18.242953,0.000040,
2326,2413,1.51252948566701,-5.05754548859683,-0.00442066277963704,0.002332,-0.000473,0.001000,0.103371,0.003896,324.394634,23.555149,0.999410,0.987541,0.004643,0.543650,0.000039,0.000072,0.000024,0.000085,0.000026,62.395804,0.000116,
2266,2593,0.171342765589852,-1.12671860426762,-0.0184646008080449,0.002292,-0.000611,0.006256,0.084466,0.045544,321.399846,24.136419,0.999124,0.986618,0.004621,0.501072,-0.000002,0.000028,0.000003,0.000028,-0.000002,85.192546,0.000031,
2431,2998,3.68747796499953,7.69667111247324,0.00799126858129284,0.002924,-0.000454,0.009289,0.100060,0.047441,315.033828,25.378146,0.999310,0.985075,0.004540,0.415456,0.000013,-0.000016,0.000012,0.000017,-0.000020,19.288927,0.000022,
2476,3193,4.62902358624251,11.933718096037,0.02906304427637,0.003076,-0.000151,0.007200,0.114290,0.066812,312.116793,26.185581,0.999570,0.991533,0.003570,0.476978,0.000023,-0.000007,0.000015,0.000029,-0.000013,22.362446,0.000029,
2461,3163,4.30933400281605,11.2810121855503,0.0313305001583331,0.003114,-0.000374,0.005457,0.122685,0.034325,312.603588,26.033169,0.999505,0.990269,0.003870,0.419224,0.000030,-0.000003,0.000012,0.000034,-0.000007,18.209542,0.000036,
2146,3163,-2.52969007473022,11.2539095626858,0.0416268414040246,0.002910,-0.000414,0.010887,0.101249,0.054434,312.975526,24.629549,0.999562,0.991302,0.003714,0.440944,0.000006,0.000007,0.000012,0.000019,-0.000005,45.986927,0.000019,
2266,2608,0.168830028192342,-0.799023416855441,-0.0216221148237423,0.002577,-0.000575,0.004678,0.102805,0.038298,321.148222,24.201906,0.999184,0.986964,0.004548,0.454568,-0.000006,0.000020,0.000004,0.000020,-0.000007,81.717660,0.000020,
2431,3013,3.68443667547606,8.02249566473525,0.00854176672243057,0.002680,-0.000657,0.007657,0.094800,0.040308,314.787848,25.422019,0.999343,0.986116,0.004348,0.413651,0.000016,-0.000009,0.000008,0.000018,-0.000011,15.836954,0.000018,
2476,3208,4.62654028687416,12.2590286849993,0.0329232327301838,0.003187,0.000117,0.005678,0.125230,0.059530,311.913917,26.251329,0.999420,0.991072,0.003717,0.459251,0.000023,-0.000014,0.000010,0.000026,-0.000016,14.713812,0.000026,
2461,3178,4.30658383884515,11.606866964745,0.0319765430353414,0.003360,-0.000266,0.005802,0.132744,0.040103,312.372724,26.109585,0.999565,0.991613,0.003719,0.401775,0.000028,-0.000005,0.000011,0.000032,-0.000008,17.122861,0.000033,
2476,3223,4.62348115251261,12.5848846264427,0.0301088889628431,0.003233,-0.000041,0.003594,0.135329,0.060781,311.653818,26.324012,0.999351,0.991223,0.003745,0.442983,0.000022,-0.000028,0.000009,0.000023,-0.000030,9.425928,0.000031,
2431,3028,3.68172609991905,8.34809652187776,0.0115484935187169,0.002615,-0.000801,0.006628,0.095528,0.019456,314.568533,25.479267,0.999437,0.986972,0.004297,0.384555,0.000016,-0.000001,0.000005,0.000017,-0.000002,14.758232,0.000019,
2461,3193,4.30353088317857,11.9316287120274,0.0346793454143608,0.003167,-0.000410,0.006591,0.120886,0.045422,312.137620,26.101475,0.999569,0.990764,0.003759,0.468408,0.000025,-0.000005,0.000014,0.000030,-0.000010,21.012084,0.000031,
2146,3178,-2.53196091139946,11.5787041252943,0.0450416870251047,0.002934,-0.000350,0.010827,0.102591,0.059766,312.760272,24.619382,0.999462,0.990631,0.003739,0.463182,0.000009,0.000008,0.000013,0.000021,-0.000005,43.420999,0.000023,
2266,2623,0.166183059898017,-0.47239089138241,-0.0211719656472269,0.002538,-0.000728,0.004145,0.102727,0.010578,320.908827,24.226279,0.999340,0.987962,0.004358,0.428750,-0.000008,0.000035,0.000003,0.000035,-0.000008,85.752846,0.000036,
2461,3208,4.30046386511686,12.2572261372786,0.035997434114563,0.003103,-0.000343,0.007707,0.113779,0.050414,311.895162,26.166227,0.999515,0.988693,0.004067,0.461645,0.000024,-0.000012,0.000010,0.000027,-0.000015,14.753421,0.000027,
2431,3043,3.67883144322051,8.67418716031667,0.00940233272098112,0.002958,-0.000641,0.007765,0.107208,0.038349,314.316508,25.511761,0.999495,0.988724,0.004087,0.420179,0.000012,0.000008,0.000010,0.000020,0.000000,40.112398,0.000023,
2146,3193,-2.5344508003441,11.9038392605257,0.0427796323315874,0.002956,-0.000549,0.008323,0.111149,0.045358,312.504620,24.630345,0.999525,0.992392,0.003444,0.444284,0.000011,0.000006,0.000011,0.000019,-0.000003,38.201404,0.000021,
2266,2638,0.163778162242291,-0.145440976995147,-0.0202997028725349,0.002759,-0.000586,0.004249,0.112585,0.017404,320.682450,24.253424,0.999237,0.987169,0.004388,0.434341,-0.000010,0.000032,0.000005,0.000033,-0.000011,83.328741,0.000033,
2461,3223,4.29705601549918,12.5831639383995,0.0303556434629968,0.003035,-0.000265,0.005937,0.117388,0.052880,311.604836,26.228731,0.999546,0.991064,0.003739,0.454749,0.000022,-0.000023,0.000009,0.000024,-0.000025,10.969606,0.000028,
2431,3058,3.67595762864023,9.00045396868989,0.0105976173629756,0.002960,-0.000657,0.007743,0.107382,0.032943,314.080888,25.610857,0.999614,0.990492,0.003928,0.364436,0.000012,-0.000001,0.000010,0.000017,-0.000007,28.691478,0.000017,
2461,3238,4.29433086629201,12.9087094437822,0.0300172594785977,0.003278,-0.000475,0.004967,0.132118,0.029895,311.370378,26.314933,0.999744,0.993597,0.003276,0.398344,0.000021,-0.000022,0.000005,0.000022,-0.000023,6.897616,0.000026,
2266,2653,0.160622071831778,0.182298349128871,-0.020802935788538,0.002510,-0.000827,0.006765,0.092761,0.029806,320.414455,24.340553,0.999493,0.989089,0.004185,0.385825,-0.000012,0.000033,0.000008,0.000035,-0.000013,80.232031,0.000035,
2431,3073,3.67287908144632,9.32532549872156,0.00882565973500959,0.002857,-0.000581,0.006065,0.108857,0.024142,313.822372,25.569545,0.999651,0.991783,0.003696,0.446136,0.000012,0.000002,0.000010,0.000019,-0.000004,32.285358,0.000020,
2461,3253,4.29045552352173,13.2342466305352,0.0237554929786938,0.003102,-0.000469,0.006957,0.116516,0.036531,311.055598,26.341664,0.999769,0.993631,0.003160,0.431301,0.000022,-0.000023,0.000005,0.000022,-0.000023,6.063257,0.000026,
2461,3268,4.28569817271017,13.5607512887632,0.0041867635413837,0.003072,-0.000426,0.008098,0.110877,0.042371,310.638570,26.389876,0.999794,0.994089,0.003004,0.441890,0.000022,-0.000042,0.000006,0.000022,-0.000043,5.255161,0.000043,
2431,3088,3.67154589006391,9.65049526537378,0.0266004400164093,0.002948,-0.000182,0.004712,0.118216,0.040917,313.735092,25.658475,0.999680,0.992652,0.003552,0.422904,0.000014,0.000005,0.000008,0.000019,0.000000,30.885641,0.000021,
2266,2668,0.157897509067755,0.508259050690029,-0.021870490094102,0.002533,-0.001151,0.006642,0.094143,0.015307,320.163895,24.291252,0.999543,0.990482,0.003968,0.446604,-0.000010,0.000035,0.000002,0.000035,-0.000010,87.769724,0.000036,
2431,3103,3.66794295512139,9.97674943433499,0.0192569370959177,0.002887,-0.000303,0.004389,0.116573,0.033145,313.425920,25.715751,0.999738,0.993805,0.003386,0.406936,0.000020,0.000006,0.000010,0.000025,0.000001,26.562060,0.000030,
2266,2683,0.155071416418153,0.835971272512303,-0.0263708713702613,0.002475,-0.000357,0.003287,0.102848,0.035670,319.890867,24.344354,0.999521,0.991614,0.003759,0.439897,-0.000010,0.000038,-0.000004,0.000038,-0.000010,-85.451674,0.000040,
2431,3118,3.66472852362843,10.3031238980064,0.0113080161887638,0.003385,-0.000499,0.005560,0.135093,0.028579,313.131692,25.782096,0.999810,0.994881,0.003168,0.385055,0.000031,0.000011,0.000010,0.000035,0.000007,22.705404,0.000045,
2431,3133,3.66210606390652,10.6278954199324,0.0176214993889516,0.003253,-0.000426,0.005959,0.127599,0.030668,312.931592,25.786652,0.999719,0.992761,0.003417,0.431057,0.000035,0.000005,0.000007,0.000037,0.000003,12.746217,0.000044,
2266,2698,0.152834821526923,1.16231780263137,-0.0203702932053034,0.002466,-0.000211,0.002994,0.103477,0.041419,319.697999,24.377682,0.999613,0.992154,0.003640,0.438067,-0.000008,0.000037,-0.000003,0.000037,-0.000008,-86.048857,0.000039,
2431,3148,3.65856582038792,10.9539211484063,0.0152531755975929,0.002901,-0.000408,0.006234,0.110314,0.018926,312.648301,25.871094,0.999665,0.993209,0.003318,0.383704,0.000034,-0.000003,0.000009,0.000036,-0.000005,12.334678,0.000038,
2431,3163,3.65631945654044,11.2790279073125,0.0249208144130648,0.003063,-0.000545,0.008937,0.107846,0.040575,312.480917,25.913757,0.999627,0.992197,0.003545,0.411441,0.000032,-0.000003,0.000007,0.000033,-0.000005,10.166734,0.000036,
2026,2548,-5.03979096087802,-2.11377476779908,-0.014408754454621,0.002520,-0.000176,0.003900,0.105285,0.053950,323.118239,24.494830,0.999508,0.989803,0.003854,0.452213,0.000061,-0.000015,0.000008,0.000062,-0.000016,6.227672,0.000064,
2131,2923,-2.81718119163925,6.04784887050107,-0.00456531860874065,0.003123,-0.000092,-0.000453,0.145371,0.029379,316.610171,24.455932,0.999260,0.988716,0.004237,0.446850,0.000002,-0.000014,0.000013,0.000010,-0.000022,29.938114,0.000022,
2041,2443,-4.69739022087225,-4.40473745853227,-0.00271331543319775,0.002366,-0.000249,0.003449,0.099199,0.040721,324.814145,24.494912,0.998788,0.982527,0.005244,0.460078,0.000061,0.000021,0.000013,0.000065,0.000017,16.958473,0.000087,
2011,2788,-5.4017568313453,3.11084630038074,-0.0244142180280278,0.002667,0.000491,0.000711,0.121312,0.077701,319.261287,24.366243,0.999433,0.991018,0.003913,0.443200,-0.000031,0.000018,-0.000018,0.000024,-0.000037,-71.446764,0.000038,
2071,2833,-4.10582016551631,4.0899585903877,-0.00538017200040031,0.002816,-0.000646,0.008425,0.105634,0.036500,318.316776,24.417806,0.999396,0.991296,0.003782,0.387189,-0.000006,0.000013,-0.000010,0.000017,-0.000010,-67.016202,0.000017,
2431,3178,3.65408317607135,11.6036213561534,0.0302651765626933,0.003181,-0.000637,0.006663,0.121625,0.023756,312.293971,25.924316,0.999602,0.991716,0.003597,0.432812,0.000034,-0.000005,0.000005,0.000035,-0.000006,7.721071,0.000037,
2131,2863,-2.80849679428262,4.74511159884381,-0.0091483662673113,0.002679,-0.000422,0.006462,0.104054,0.040977,317.506593,24.471401,0.999577,0.992058,0.003594,0.421976,-0.000006,0.000003,0.000004,0.000004,-0.000008,67.409440,0.000008,
2176,2998,-1.85315649408138,7.67886319465665,0.00822130554746536,0.002633,-0.000398,0.006312,0.101802,0.045963,315.278798,24.635723,0.999434,0.991488,0.003755,0.436005,0.000008,0.000000,0.000012,0.000017,-0.000008,35.513257,0.000017,
2011,2983,-5.42990413514896,7.34293181148286,0.00564245004733266,0.002883,-0.000673,0.011417,0.101971,0.051335,316.326269,24.187890,0.999324,0.991508,0.003559,0.434288,0.000005,-0.000058,-0.000006,0.000005,-0.000059,-5.320776,0.000065,
2491,3238,4.9458354494946,12.9118367132717,0.0231396216013877,0.003180,-0.000396,0.004068,0.130691,0.031338,311.381952,26.454865,0.999583,0.991795,0.003686,0.415825,0.000019,-0.000033,0.000008,0.000020,-0.000034,8.755908,0.000035,
2011,3268,-5.47046587853751,13.5159613466502,0.0530154566445162,0.003050,-0.000032,0.006136,0.124487,0.065374,312.096248,23.898400,0.999824,0.995545,0.002826,0.489052,0.000054,-0.000048,-0.000021,0.000058,-0.000052,-11.343477,0.000064,
2071,2653,-4.07869443713961,0.175605538291663,-0.0254675678146441,0.002752,-0.000494,0.004839,0.112821,0.031892,321.075218,24.412660,0.999255,0.988394,0.004249,0.424696,0.000010,0.000021,0.000014,0.000031,0.000000,55.331293,0.000036,
2401,2743,3.08211175424171,2.14855451538686,-0.0302988622541989,0.002906,-0.000465,0.003111,0.122079,0.023544,318.859821,24.463061,0.999533,0.989454,0.004079,0.454084,0.000008,0.000035,0.000022,0.000047,-0.000004,61.221026,0.000052,
2221,2263,-0.749549642947787,-8.33718099282641,-0.000338930369821355,0.001971,-0.000835,-0.000373,0.091333,0.000253,326.984346,23.799799,0.998840,0.982013,0.005343,0.395650,0.000094,0.000092,0.000014,0.000107,0.000079,43.342359,0.000187,
2281,2218,0.567421257573162,-9.32328030540456,0.00864211040516238,0.001928,-0.000747,-0.000560,0.089964,0.011773,327.675774,23.457636,0.998983,0.980636,0.005411,0.393857,0.000137,0.000131,-0.000002,0.000138,0.000130,-17.606477,0.000269,
2011,3283,-5.47313672059983,13.8407205302145,0.0496325822475683,0.003003,-0.000276,0.007685,0.118026,0.050382,311.816270,23.888957,0.999793,0.995727,0.002826,0.469786,0.000070,-0.000036,-0.000018,0.000073,-0.000039,-9.189935,0.000073,
2101,3013,-3.48216013754701,7.99951401355634,0.00385985151399382,0.003436,0.000191,0.002743,0.150595,0.043018,315.356597,24.405076,0.999389,0.991650,0.003607,0.451727,0.000007,-0.000005,0.000001,0.000007,-0.000005,3.079543,0.000008,
2161,3028,-2.18319280288014,8.3286874046191,0.01344292753339,0.002935,-0.000388,0.007479,0.112369,0.051062,314.897118,24.608425,0.999438,0.989202,0.004270,0.444358,0.000010,-0.000004,0.000004,0.000011,-0.000005,13.973755,0.000011,
2341,2428,1.83823174479746,-4.72918469821077,0.00639939376702614,0.002462,0.000649,-0.006122,0.134501,0.043399,324.268957,23.644823,0.999702,0.993488,0.003787,0.486899,0.000044,0.000054,0.000026,0.000076,0.000022,50.327937,0.000103,
2026,2698,-5.0641519369264,1.1545528141268,-0.0424594035977179,0.002269,-0.000009,0.001421,0.100712,0.045353,320.453433,24.357947,0.999782,0.995393,0.003071,0.489528,0.000002,-0.000007,0.000001,0.000002,-0.000007,4.289065,0.000007,
2191,3283,-1.57541368959406,13.8582782150119,0.0255506271346349,0.002720,-0.000277,0.004109,0.112694,0.035842,310.725986,24.887982,0.999610,0.993135,0.003348,0.469020,-0.000012,-0.000005,0.000030,0.000022,-0.000039,48.548674,0.000039,
2086,3148,-3.82772407698064,10.9244045296163,0.0398316225301869,0.002873,0.000259,0.005424,0.117190,0.074468,313.496911,24.374728,0.999766,0.995121,0.002915,0.451122,0.000010,0.000014,0.000000,0.000014,0.000010,88.058803,0.000024,
2491,3253,4.94164394724352,13.2375136703841,0.0146422947780138,0.002971,-0.000435,0.006492,0.111757,0.035329,311.044918,26.485502,0.999753,0.992970,0.003388,0.446433,0.000018,-0.000030,0.000008,0.000019,-0.000031,9.493013,0.000032,
2146,2998,-2.50322604777026,7.67645781213358,0.0125506113017764,0.003057,0.000186,0.002287,0.134168,0.054434,315.458380,24.533880,0.999621,0.992960,0.003476,0.461232,0.000000,-0.000006,0.000005,0.000003,-0.000009,31.343674,0.000010,
2311,2263,1.21395554308503,-8.33888417803207,0.0158159032814069,0.002097,-0.001345,0.006133,0.074714,0.017739,326.966758,23.412867,0.999109,0.983113,0.005055,0.402442,0.000104,0.000082,-0.000003,0.000104,0.000081,-7.698922,0.000186,
2191,3133,-1.5485589177134,10.6073913841885,0.0386045869997247,0.003000,-0.000432,0.008665,0.111176,0.052535,313.289217,24.816566,0.999397,0.992774,0.003640,0.425750,-0.000007,-0.000002,0.000005,0.000001,-0.000010,56.593171,0.000011,
2041,2458,-4.70005412197958,-4.07740909214588,-0.00557783963648717,0.002191,-0.000351,0.004343,0.088646,0.043416,324.537915,24.464133,0.998743,0.982440,0.005332,0.487222,0.000055,-0.000003,-0.000002,0.000056,-0.000003,-2.317581,0.000063,
2011,2998,-5.43169316484939,7.66826478345745,0.0120595150467011,0.002842,-0.000180,0.008762,0.107418,0.054097,316.141102,24.204818,0.999416,0.992098,0.003483,0.407106,0.000004,-0.000041,-0.000007,0.000005,-0.000042,-8.316762,0.000046,
2116,3028,-3.15908078800958,8.32523805697425,0.0160883475066953,0.003121,-0.000381,0.007315,0.122275,0.045349,315.115574,24.458972,0.999320,0.991255,0.003760,0.447394,0.000004,-0.000008,0.000002,0.000004,-0.000008,9.647136,0.000008,
2056,2533,-4.38568469742892,-2.44175452863561,-0.00505345379752953,0.002015,-0.000783,0.007111,0.072498,0.040624,323.229306,24.390128,0.999049,0.987071,0.004521,0.500674,0.000027,-0.000005,0.000003,0.000027,-0.000005,4.713337,0.000028,
2116,2953,-3.14804016966992,6.69911107031874,-0.00147428152331486,0.002874,-0.000040,0.005156,0.117356,0.053368,316.185314,24.488283,0.999571,0.990795,0.003753,0.412709,0.000000,-0.000016,0.000015,0.000009,-0.000024,30.919036,0.000025,
2236,2218,-0.413965909101879,-9.32374940959119,0.00601030165296379,0.002217,-0.001238,-0.001281,0.105325,-0.021557,327.743765,23.611906,0.999009,0.982588,0.005145,0.424643,0.000135,0.000122,0.000007,0.000138,0.000119,22.996012,0.000258,
2011,2803,-5.40418456008635,3.43635897724599,-0.0276701577171252,0.002832,0.000084,0.003150,0.122092,0.041124,318.992129,24.317384,0.999414,0.991643,0.003786,0.443765,-0.000025,0.000007,-0.000014,0.000012,-0.000030,-69.563115,0.000030,
2446,2968,4.01865093021447,7.04688196358958,-0.00734543269902588,0.002616,-0.000257,0.003896,0.105745,0.046328,315.426441,25.334906,0.999673,0.992294,0.003626,0.396854,0.000014,-0.000015,0.000013,0.000019,-0.000020,20.316477,0.000022,
2251,2143,-0.0733029195611721,-10.9674812159395,0.0142359675186299,0.001979,-0.001256,-0.001584,0.095358,-0.016651,328.981425,23.433765,0.998882,0.981063,0.005361,0.404644,0.000199,0.000230,0.000026,0.000245,0.000184,60.368078,0.000431,
2131,2878,-2.81025449498621,5.06919753558142,0.000551745640052559,0.002672,-0.000386,0.005281,0.107252,0.029255,317.347688,24.385987,0.999565,0.991560,0.003636,0.500727,-0.000001,0.000008,0.000008,0.000012,-0.000006,59.263574,0.000012,
2161,2983,-2.17662663912113,7.35271412933876,0.000814189796585651,0.002794,-0.000703,0.008103,0.103834,0.034140,315.516725,24.591870,0.999553,0.992897,0.003472,0.416258,0.000009,-0.000002,0.000009,0.000014,-0.000007,29.215864,0.000014,
2296,2518,0.837783821118702,-2.7612365198555,-0.0254987582370632,0.002439,-0.000655,0.004734,0.095802,0.023161,322.529574,23.983541,0.999633,0.990642,0.003924,0.442405,0.000016,0.000012,0.000012,0.000026,0.000002,39.920998,0.000032,
2191,3298,-1.57932474179264,14.1848236115292,0.0100707491934031,0.002805,-0.000409,0.008885,0.101588,0.040134,310.338566,24.969135,0.999781,0.995944,0.002810,0.405049,-0.000019,0.000014,0.000022,0.000025,-0.000030,64.062090,0.000032,
2011,3298,-5.47565177198621,14.1655556761164,0.046252498599415,0.003033,-0.000281,0.007842,0.118936,0.046091,311.543442,23.879993,0.999402,0.992396,0.003599,0.461223,0.000088,-0.000037,-0.000015,0.000090,-0.000038,-6.836749,0.000090,
2251,2398,-0.119099695690988,-5.38546630257192,-0.00357387555300193,0.002642,-0.001387,0.003740,0.108538,-0.013108,324.732330,23.842865,0.999372,0.988654,0.004383,0.434391,0.000023,0.000079,0.000008,0.000080,0.000022,82.172034,0.000108,
2401,2758,3.07940367437242,2.4751564711969,-0.0277263172267794,0.002781,-0.000036,0.001459,0.122502,0.022113,318.637431,24.518572,0.999411,0.987906,0.004315,0.442547,0.000014,0.000036,0.000023,0.000051,-0.000001,57.636717,0.000059,
2356,2473,2.15516268733706,-3.74406367771276,-0.00565148050003472,0.002636,-0.000878,0.004643,0.104334,0.025488,323.409259,23.787741,0.999512,0.988371,0.004249,0.405253,0.000046,0.000020,0.000036,0.000071,-0.000005,34.949071,0.000079,
2176,3058,-1.86151602167595,8.97938799378085,0.027648967041614,0.003274,-0.000430,0.007564,0.127440,0.045741,314.488433,24.647253,0.999712,0.995071,0.003187,0.469919,0.000012,-0.000014,0.000004,0.000013,-0.000014,9.432499,0.000016,
2491,3268,4.93804656107206,13.563523310897,0.0139627657919164,0.002927,-0.000766,0.011595,0.090028,0.036094,310.770436,26.598071,0.999856,0.994684,0.002973,0.392013,0.000017,-0.000056,0.000008,0.000018,-0.000057,6.025759,0.000059,
2296,2758,0.794528964865318,2.47023867151278,-0.0228974994338387,0.002703,-0.000085,0.004066,0.110618,0.053268,318.668516,24.471130,0.999492,0.989711,0.004010,0.473354,0.000002,0.000032,0.000009,0.000034,0.000000,74.041403,0.000040,
2101,3028,-3.48469003633235,8.32455993035001,0.00919170609648745,0.003196,-0.000088,0.005773,0.130595,0.049979,315.136853,24.393794,0.999243,0.991244,0.003745,0.470388,0.000005,-0.000007,-0.000001,0.000005,-0.000007,-2.556971,0.000007,
2026,2713,-5.0659641764163,1.48094013569364,-0.0376131680218919,0.002502,-0.000106,0.002514,0.108397,0.040890,320.258413,24.396365,0.999668,0.993969,0.003458,0.436839,0.000002,0.000002,0.000003,0.000004,-0.000001,43.575545,0.000005,
2266,2383,0.210070381661136,-5.71200040344431,-0.0139769957408475,0.002887,-0.001065,0.001220,0.128089,-0.008073,324.881944,23.766409,0.998120,0.979031,0.005764,0.442731,0.000030,0.000079,0.000012,0.000082,0.000027,77.092706,0.000113,
2431,3193,3.65155851780278,11.9287061026777,0.0362898700248024,0.003096,-0.000697,0.006093,0.119744,0.013683,312.096684,25.980587,0.999580,0.990908,0.003726,0.415100,0.000034,-0.000004,0.000006,0.000035,-0.000005,9.269128,0.000038,
2026,1993,-4.95821628789222,-14.2536471792037,0.0239120802550588,-0.000567,-0.001411,-0.006834,-0.007786,-0.062153,332.248210,24.742240,0.998789,0.980986,0.005547,0.365309,0.000490,0.000238,0.000138,0.000551,0.000177,23.771271,0.000759,
2041,2833,-4.75731914849491,4.08923439724462,-0.0161561073098255,0.002788,-0.000036,0.005038,0.114611,0.058305,318.406070,24.349652,0.998931,0.988247,0.004291,0.440864,-0.000023,0.000013,-0.000014,0.000018,-0.000028,-71.669941,0.000028,
2011,2818,-5.407161177352,3.76144012034445,-0.0267919725276897,0.002234,-0.000480,0.006073,0.086393,0.018359,318.721190,24.251544,0.999047,0.990535,0.003956,0.474647,-0.000029,0.000004,-0.000016,0.000011,-0.000035,-68.206253,0.000036,
2071,2668,-4.08137640646494,0.502460475667675,-0.0265220738600647,0.002481,-0.000175,0.004900,0.100237,0.036865,320.810837,24.422807,0.999177,0.988276,0.004312,0.416702,0.000002,0.000021,0.000012,0.000027,-0.000004,64.328825,0.000029,
2041,2728,-4.74140444662299,1.80700895531282,-0.0257281435873438,0.003077,-0.000073,0.003844,0.131087,0.041817,320.045767,24.407855,0.999389,0.991094,0.003690,0.419338,-0.000006,0.000016,0.000004,0.000017,-0.000007,79.273007,0.000017,
2416,2758,3.40658678421443,2.47513754693952,-0.021084381720641,0.002906,-0.000379,0.002349,0.124753,0.015935,318.712666,24.517702,0.999478,0.988364,0.004191,0.443812,0.000018,0.000037,0.000023,0.000052,0.000002,55.996513,0.000062,
2086,2908,-3.79174982482663,5.71994065698405,-0.00468000341112429,0.002990,-0.000195,0.004512,0.124865,0.046238,317.043856,24.392864,0.999387,0.991975,0.003800,0.433844,-0.000006,-0.000021,0.000001,-0.000006,-0.000021,2.767249,0.000028,
2071,2848,-4.10893140272951,4.41758858412993,-0.0186486358913385,0.002683,0.000077,0.004964,0.109642,0.068063,317.965569,24.434593,0.999641,0.993491,0.003357,0.398832,-0.000007,-0.000004,-0.000009,0.000004,-0.000014,-49.511829,0.000015,
2056,2623,-4.39930500793202,-0.479199140355902,-0.0186206182162323,0.002798,-0.000517,0.002852,0.120654,0.024240,321.708645,24.399731,0.999206,0.990348,0.004017,0.447553,0.000012,-0.000003,0.000009,0.000016,-0.000008,25.348174,0.000016,
2341,2443,1.8344245774539,-4.39962257302813,-0.00660495529990612,0.002613,0.000030,-0.004239,0.134654,0.021034,323.917105,23.748241,0.999375,0.987777,0.004474,0.399734,0.000043,0.000038,0.000027,0.000067,0.000014,42.120359,0.000086,
2026,2563,-5.04192043920113,-1.7871610260241,-0.0147142067828554,0.002541,-0.000244,0.001984,0.111498,0.041942,322.879749,24.471313,0.999558,0.988783,0.004003,0.454806,0.000052,-0.000002,0.000006,0.000053,-0.000003,6.533562,0.000060,
2221,2278,-0.751481628935057,-8.00923216855037,0.00417585749153204,0.002311,-0.000910,-0.000240,0.106473,0.012629,326.795140,23.831130,0.998747,0.982546,0.005261,0.397333,0.000082,0.000084,0.000009,0.000092,0.000074,47.123509,0.000167,
2281,2233,0.564940081593118,-8.99466415500086,0.00853377855258941,0.002013,-0.000895,-0.002419,0.099980,0.001670,327.442943,23.510327,0.998934,0.979989,0.005451,0.361460,0.000118,0.000114,-0.000006,0.000122,0.000110,-36.709241,0.000232,
2176,3013,-1.85536716796252,8.00426150924532,0.0126260185290903,0.002801,-0.000444,0.008093,0.104026,0.055459,315.073189,24.645581,0.999374,0.989785,0.003975,0.447025,0.000009,0.000003,0.000009,0.000015,-0.000004,36.174322,0.000016,
2161,2998,-2.17870434827615,7.67802520144701,0.00856132185805336,0.002649,-0.000328,0.006939,0.100862,0.050040,315.333955,24.606386,0.999630,0.992937,0.003560,0.426747,0.000009,-0.000001,0.000009,0.000014,-0.000007,30.187164,0.000014,
2086,3163,-3.83090352061309,11.2499710437437,0.0308327994379169,0.002726,-0.000170,0.005965,0.108705,0.050671,313.168185,24.385493,0.999787,0.995055,0.002995,0.414157,0.000008,0.000018,0.000003,0.000018,0.000007,75.574714,0.000026,
2131,2893,-2.81291294981189,5.39620340781809,-0.00296952519664728,0.002623,-0.000193,0.003838,0.109367,0.027513,317.075866,24.465923,0.999467,0.990475,0.003959,0.424507,-0.000005,-0.000001,0.000008,0.000005,-0.000012,51.462095,0.000012,
2026,2008,-4.96161018067804,-13.9237539348457,0.0190824077906768,-0.000780,-0.002618,0.005031,-0.050431,-0.032625,331.925359,24.731863,0.998296,0.981515,0.005752,0.399699,0.000462,0.000307,0.000156,0.000559,0.000210,31.744979,0.000795,
2386,2818,2.7409290058581,3.78072572937126,-0.0229235313056506,0.002614,-0.000603,0.008407,0.089805,0.031824,317.654237,24.704192,0.999670,0.991467,0.003860,0.432800,0.000011,0.000021,0.000013,0.000030,0.000002,55.581618,0.000036,
2491,3283,4.93480935457595,13.8880675690337,0.00812000291625736,0.002921,-0.000735,0.007768,0.104417,0.017792,310.489599,26.569965,0.999860,0.995289,0.002916,0.459009,0.000015,-0.000078,0.000004,0.000015,-0.000078,2.512320,0.000083,
2281,2293,0.553382909011987,-7.68164228295411,0.00246116526631113,0.002168,-0.001695,0.004441,0.083965,-0.017176,326.408546,23.563505,0.999408,0.984700,0.004945,0.409498,0.000077,0.000085,0.000006,0.000088,0.000074,62.442988,0.000162,
2116,3043,-3.16136004468023,8.65104192803924,0.0279422703401906,0.002767,-0.000923,0.010802,0.095475,0.038498,314.943109,24.577084,0.999578,0.993105,0.003451,0.324782,0.000004,-0.000008,0.000002,0.000004,-0.000008,7.091014,0.000008,
2251,2413,-0.121649938673986,-5.05747098584315,0.00101354863204506,0.002473,-0.000953,0.004689,0.097899,0.022453,324.517041,23.899613,0.999287,0.988134,0.004334,0.438055,0.000018,0.000076,0.000004,0.000076,0.000017,86.131326,0.000100,
2146,3013,-2.50559642076943,8.00245328301035,0.0143429362640859,0.003151,0.000047,0.003398,0.135087,0.048243,315.229515,24.595915,0.999396,0.990660,0.003933,0.399967,0.000003,-0.000002,0.000003,0.000004,-0.000003,27.086108,0.000004,
2041,2848,-4.75964359021055,4.41517730598971,-0.0249285437128037,0.003103,-0.000045,0.001628,0.138581,0.037559,318.113369,24.297166,0.999192,0.989817,0.004105,0.464953,-0.000020,-0.000003,-0.000013,0.000004,-0.000028,-61.987386,0.000030,
2296,2773,0.792053631776195,2.79652356121846,-0.0215685255720359,0.002695,-0.000285,0.001684,0.118200,0.032201,318.443327,24.509695,0.999431,0.988495,0.004198,0.443948,0.000003,0.000021,0.000006,0.000023,0.000002,72.903194,0.000027,
2026,2023,-4.96304324837617,-13.5947274615533,0.0193060560920344,-0.000337,-0.001433,0.000418,-0.017076,-0.023041,331.720239,24.725286,0.998489,0.980918,0.005765,0.409534,0.000427,0.000262,0.000146,0.000512,0.000177,30.242660,0.000716,
2116,3208,-3.18670317206168,12.2258954961068,0.050600482918469,0.003000,-0.000309,0.008331,0.113867,0.055077,312.456951,24.484893,0.999613,0.993413,0.003359,0.459331,0.000013,0.000010,0.000010,0.000022,0.000002,41.006373,0.000026,
2431,3208,3.64806814509139,12.2540619640553,0.0343370881572582,0.002950,-0.000833,0.008744,0.103175,0.013283,311.817552,26.009083,0.999561,0.989547,0.004008,0.434752,0.000035,-0.000010,0.000005,0.000035,-0.000011,6.385560,0.000036,
2176,3073,-1.86429278204365,9.30376916084928,0.0287149517453713,0.002962,-0.000394,0.007245,0.114090,0.046098,314.239657,24.564799,0.999665,0.995038,0.003155,0.563899,0.000014,-0.000012,0.000004,0.000014,-0.000013,9.046847,0.000016,
2101,3043,-3.48709200522766,8.64999395647295,0.0174631253759685,0.002775,-0.000461,0.006860,0.107944,0.046375,314.938799,24.451312,0.999532,0.992523,0.003501,0.409514,0.000005,-0.000006,-0.000002,0.000005,-0.000007,-9.196764,0.000007,
2311,2278,1.21184912052951,-8.00979728133213,0.0108092770530561,0.002649,-0.000951,-0.000132,0.121521,0.004838,326.729427,23.477240,0.999128,0.983185,0.004925,0.359547,0.000096,0.000080,-0.000003,0.000096,0.000080,-9.182884,0.000176,
2356,2488,2.15284342860406,-3.41796478815712,-0.00148150045566808,0.002835,-0.001230,0.004747,0.112961,0.010785,323.210314,23.741733,0.999471,0.987723,0.004326,0.476243,0.000041,0.000014,0.000029,0.000059,-0.000004,32.670086,0.000066,
2296,2533,0.834622149375914,-2.43464337600349,-0.0361147819716052,0.002434,-0.000540,-0.000007,0.111637,0.003634,322.214345,23.869724,0.999722,0.992994,0.003533,0.567991,0.000014,0.000008,0.000010,0.000022,0.000001,35.735713,0.000025,
2206,1993,-1.02970783492911,-14.2590854249982,0.0222353676821854,0.001222,-0.002234,-0.004200,0.068344,-0.077865,331.531252,23.424720,0.999367,0.983048,0.005078,0.403116,0.000370,0.000372,0.000032,0.000403,0.000339,46.207572,0.000743,
2041,2743,-4.74421933416859,2.13306002418611,-0.0269380958797001,0.002656,-0.000224,0.004209,0.110663,0.038109,319.772391,24.374151,0.999511,0.990991,0.003788,0.442027,-0.000015,0.000013,-0.000002,0.000013,-0.000015,-85.334651,0.000016,
2251,2158,-0.0751321850707534,-10.6387554460457,0.0123356082734176,0.002325,-0.000399,-0.009760,0.138216,-0.034071,328.767030,23.457201,0.998507,0.980822,0.005377,0.389701,0.000185,0.000191,0.000024,0.000212,0.000164,48.400553,0.000377,
2086,2923,-3.79458160295135,6.04578661597958,-0.00552723007740497,0.002677,-0.000353,0.005548,0.107387,0.044539,316.775351,24.393677,0.999263,0.990582,0.003949,0.429710,-0.000004,-0.000025,0.000005,-0.000003,-0.000026,12.148963,0.000032,
2071,2683,-4.08347601956718,0.828375105025664,-0.0221438012561634,0.002423,-0.000258,0.004464,0.098845,0.053673,320.603113,24.384364,0.999370,0.990410,0.003926,0.469168,0.000002,0.000020,0.000002,0.000020,0.000002,84.552080,0.000024,
2446,2983,4.01556394362316,7.37264308514684,-0.00637356481905726,0.002781,-0.000623,0.007994,0.097869,0.035804,315.181532,25.372284,0.999627,0.991013,0.003830,0.400518,0.000019,-0.000019,0.000014,0.000023,-0.000023,18.156740,0.000027,
2491,3298,4.93182432878254,14.2140543155134,0.00652199777908891,0.002932,-0.000169,0.005344,0.114488,0.037098,310.239032,26.664814,0.999695,0.992899,0.003482,0.441032,0.000007,-0.000080,-0.000011,0.000008,-0.000081,-7.458423,0.000089,
2401,2773,3.07689654133779,2.80100500886527,-0.0189021688904063,0.002533,-0.000125,0.001965,0.109251,0.023221,318.453869,24.555347,0.999429,0.987997,0.004285,0.452132,0.000016,0.000025,0.000019,0.000040,0.000001,51.846066,0.000047,
2056,2668,-4.40627176458036,0.50125333629363,-0.0212541074436672,0.002740,0.000167,-0.000274,0.127020,0.030996,320.964300,24.415936,0.999309,0.989116,0.004210,0.423469,0.000005,0.000021,0.000010,0.000026,0.000000,63.896392,0.000029,
2191,3148,-1.5513430455899,10.9327896788487,0.0383485938873491,0.003000,-0.000623,0.011186,0.103202,0.051759,313.033805,24.839733,0.999069,0.991570,0.003992,0.414871,-0.000004,0.000001,0.000010,0.000008,-0.000012,52.777603,0.000012,
2161,3073,-2.18914837417072,9.30330763353313,0.0326846566672998,0.003101,-0.000145,0.004557,0.129050,0.040070,314.340986,24.601844,0.999626,0.994106,0.003327,0.467272,0.000014,-0.000011,0.000003,0.000015,-0.000012,7.590734,0.000016,
2026,2038,-4.96472110095402,-13.2671038891053,0.0244321590041636,-0.000176,-0.001387,0.000051,-0.008693,-0.032810,331.531554,24.670798,0.998569,0.978418,0.005770,0.447772,0.000402,0.000258,0.000142,0.000489,0.000170,31.597436,0.000685,
2116,3058,-3.1638486156979,8.97478717053954,0.024060246381282,0.002847,-0.000646,0.008621,0.105676,0.033975,314.677031,24.403683,0.999586,0.992908,0.003550,0.496308,0.000008,-0.000009,0.000002,0.000008,-0.000009,6.647046,0.000010,
2131,2908,-2.81469766717284,5.72118630314657,0.000848800588585163,0.003038,-0.000301,0.003526,0.129392,0.028323,316.883997,24.414848,0.999418,0.988294,0.004233,0.481519,-0.000002,-0.000012,0.000009,0.000003,-0.000018,30.591906,0.000019,
2266,2398,0.207076464854378,-5.38388853469817,-0.00990776233300039,0.002377,-0.001020,0.002679,0.099882,0.007747,324.644869,23.844943,0.998945,0.984804,0.004956,0.407133,0.000023,0.000081,0.000012,0.000084,0.000021,78.582568,0.000111,
2056,2638,-4.40224986378502,-0.151714531044234,-0.0220114238193787,0.002434,-0.000281,0.003826,0.101281,0.035733,321.417964,24.431192,0.999159,0.988895,0.004262,0.422833,0.000017,0.000009,0.000010,0.000025,0.000002,34.276317,0.000030,
2026,2578,-5.04486796570042,-1.45943449404786,-0.0195967024793617,0.002270,-0.000159,0.004167,0.093039,0.039991,322.578005,24.504651,0.999210,0.988116,0.004322,0.410565,0.000045,0.000000,0.000002,0.000045,0.000000,3.194047,0.000051,
2506,1993,5.53249134280274,-14.2687895104917,0.0309774711096225,0.004146,-0.002608,-0.005917,0.210963,-0.111176,331.839692,21.343925,0.999082,0.970999,0.006485,0.320482,0.000630,0.000447,-0.000104,0.000677,0.000400,-24.379106,0.001089,
2416,2773,3.40363327535293,2.80111319656661,-0.0158106028723068,0.002604,-0.000446,0.003977,0.104956,0.024778,318.492762,24.530397,0.999472,0.987948,0.004285,0.487590,0.000020,0.000024,0.000020,0.000042,0.000003,47.954320,0.000050,
2176,3148,-1.87706021838794,10.9315740826438,0.0348714777062469,0.002824,-0.000474,0.010340,0.098151,0.049580,313.049143,24.755931,0.999414,0.993251,0.003581,0.432030,0.000001,0.000002,0.000008,0.000010,-0.000007,45.728737,0.000010,
2116,3223,-3.18932084159188,12.5500276642899,0.0531337706108275,0.002962,-0.000916,0.012351,0.099981,0.033584,312.219461,24.444834,0.999625,0.994052,0.003281,0.479731,0.000015,0.000010,0.000008,0.000021,0.000004,36.646594,0.000027,
2281,2308,0.551196919615155,-7.35381537939081,0.00721753095240274,0.002142,-0.001381,0.001938,0.091258,-0.011747,326.213304,23.603445,0.999349,0.982693,0.005227,0.404836,0.000068,0.000084,0.000008,0.000087,0.000064,67.573598,0.000152,
2101,3058,-3.48901721644791,8.97425356272474,0.022819337244016,0.002888,-0.000160,0.005980,0.115824,0.050529,314.747252,24.376926,0.999685,0.993677,0.003299,0.488520,0.000009,-0.000007,-0.000001,0.000009,-0.000007,-2.937789,0.000009,
2251,2428,-0.124542086923771,-4.73014195302422,-0.00626483586353288,0.002382,-0.000052,-0.000249,0.110193,0.032732,324.226384,23.813105,0.998936,0.986403,0.004527,0.559798,0.000015,0.000055,0.000002,0.000055,0.000015,87.538694,0.000074,
2146,3028,-2.50802920628212,8.32741706999512,0.0151908775337688,0.003266,-0.000247,0.004843,0.135923,0.040709,314.993118,24.561952,0.999455,0.990997,0.003830,0.433669,0.000002,-0.000006,0.000002,0.000003,-0.000007,13.017367,0.000007,
2041,2863,-4.76155780113578,4.74073366150034,-0.0156836868760593,0.003010,-0.000060,0.002745,0.131211,0.039623,317.939563,24.325311,0.999214,0.989626,0.004277,0.430630,-0.000020,-0.000008,-0.000014,0.000001,-0.000029,-56.698890,0.000033,
2026,2053,-4.96692673908395,-12.9361545006157,0.0266170872488374,-0.000209,-0.001592,0.001849,-0.015186,-0.034088,331.301855,24.882632,0.999697,0.992757,0.003617,0.228204,0.000380,0.000274,0.000121,0.000459,0.000195,33.123302,0.000672,
2506,2008,5.52928960131556,-13.9397930163979,0.0305434399722913,0.004188,-0.002630,-0.004931,0.209131,-0.119209,331.592791,21.345408,0.999209,0.974060,0.006260,0.375707,0.000584,0.000384,-0.000084,0.000615,0.000354,-19.937326,0.000980,
2221,2293,-0.754108131255233,-7.68177761610329,0.00592246759424597,0.002005,-0.000424,-0.002075,0.098485,0.018066,326.560098,23.801044,0.999013,0.984873,0.004838,0.454015,0.000074,0.000085,0.000014,0.000094,0.000065,55.169875,0.000160,
2086,2938,-3.79616697022991,6.37107711131004,0.00281041953064687,0.002768,0.000264,0.002444,0.120796,0.066492,316.614220,24.388815,0.999260,0.990929,0.003900,0.455122,-0.000004,-0.000023,0.000006,-0.000002,-0.000024,15.741456,0.000029,
2056,2683,-4.40800332340575,0.827273385158144,-0.016840433502864,0.002921,0.000402,-0.002397,0.141496,0.063765,320.772554,24.370801,0.999412,0.990255,0.004019,0.496477,0.000004,0.000018,0.000001,0.000018,0.000004,84.167143,0.000023,
2206,2023,-1.03348720982424,-13.60185995647,0.0303319158295494,0.001746,-0.001727,-0.006924,0.101151,-0.083728,331.150199,23.448424,0.998919,0.980158,0.005541,0.413717,0.000341,0.000368,0.000046,0.000402,0.000307,53.448551,0.000711,
2041,2758,-4.74575027501562,2.45823576445586,-0.0221916331409489,0.003116,-0.000105,0.003922,0.132753,0.056079,319.591089,24.289996,0.999347,0.990577,0.004079,0.536553,-0.000013,0.000001,-0.000008,0.000005,-0.000017,-65.802318,0.000018,
2086,3178,-3.83227340372094,11.5730669496398,0.044983377662561,0.003007,-0.000379,0.007775,0.116358,0.044874,313.049875,24.293029,0.999715,0.995040,0.002954,0.498715,0.000010,0.000020,0.000006,0.000023,0.000007,64.435059,0.000031,
2446,2998,4.01367209056349,7.69784024089938,0.00463836471669765,0.003020,-0.000498,0.008443,0.107258,0.040568,315.038094,25.414332,0.999373,0.987889,0.004177,0.414516,0.000024,-0.000018,0.000015,0.000029,-0.000023,17.765498,0.000031,
2296,2788,0.789404603031088,3.12268534781939,-0.0179267385145749,0.002750,-0.000536,0.004834,0.110079,0.048823,318.221544,24.521574,0.999385,0.989525,0.004056,0.478704,0.000008,0.000023,0.000007,0.000026,0.000005,67.462067,0.000033,
2206,2008,-1.03167406782402,-13.9308351162347,0.0263936185754119,0.001423,-0.002162,-0.005177,0.080723,-0.092966,331.337911,23.414496,0.999190,0.979788,0.005473,0.418337,0.000355,0.000361,0.000043,0.000402,0.000315,47.212927,0.000718,
2251,2173,-0.0786419285729103,-10.3098198590568,0.00838405423547783,0.001978,-0.000733,-0.006275,0.110865,-0.020080,328.465195,23.452603,0.999090,0.984205,0.005000,0.434732,0.000172,0.000166,0.000020,0.000190,0.000149,40.358997,0.000339,
2506,2023,5.52560849719741,-13.6088118355507,0.029582625445812,0.004171,-0.002510,0.000286,0.188345,-0.079816,331.321142,21.480221,0.999180,0.970701,0.006535,0.345326,0.000561,0.000430,-0.000101,0.000616,0.000375,-28.607884,0.001000,
2266,2413,0.205059979343652,-5.05764042028085,0.00326075856924035,0.002283,-0.001011,0.005626,0.085871,0.015594,324.498562,23.851558,0.999209,0.986797,0.004567,0.435225,0.000019,0.000078,0.000009,0.000079,0.000017,81.279952,0.000103,
2071,2698,-4.0859518422479,1.15463329515212,-0.0201444655766636,0.002289,-0.000295,0.006430,0.087108,0.068718,320.365061,24.363746,0.999411,0.991532,0.003723,0.502023,0.000008,0.000008,0.000003,0.000011,0.000005,47.079188,0.000016,
2056,2653,-4.40458785221537,0.175302193822432,-0.0325916313411199,0.002863,-0.000059,0.000621,0.130090,0.021724,321.115677,24.389953,0.999291,0.989539,0.004199,0.445497,0.000014,0.000021,0.000010,0.000028,0.000007,55.211973,0.000037,
2026,2593,-5.04770942156479,-1.13204304897382,-0.0249494892299822,0.002141,-0.000433,0.006447,0.080814,0.053505,322.278542,24.493237,0.999054,0.988115,0.004468,0.426929,0.000033,0.000014,0.000010,0.000038,0.000009,23.607378,0.000050,
2356,2503,2.14949982704068,-3.08979037708141,-0.00511993214814765,0.002661,-0.001222,0.005368,0.102816,0.008384,322.926335,23.807126,0.999499,0.987855,0.004375,0.448762,0.000033,0.000016,0.000025,0.000051,-0.000002,35.427371,0.000058,
2161,3088,-2.19263765608911,9.62955421848388,0.0261782012041181,0.002774,-0.000734,0.007306,0.105431,0.034151,314.017791,24.652616,0.999408,0.990864,0.003823,0.419788,0.000012,-0.000010,0.000001,0.000012,-0.000011,3.374604,0.000013,
2101,3073,-3.49123810571097,9.30017986690281,0.0230311269089043,0.002965,-0.000133,0.003899,0.125521,0.057755,314.513657,24.423080,0.999561,0.991139,0.003733,0.449736,0.000010,0.000001,0.000003,0.000011,0.000001,15.911074,0.000013,
2116,3073,-3.16672702581675,9.30168478646483,0.0150502362006364,0.002845,-0.000123,0.005935,0.113746,0.045952,314.364285,24.475575,0.999708,0.992742,0.003716,0.438954,0.000009,-0.000002,0.000004,0.000010,-0.000004,18.157058,0.000010,
2086,2953,-3.79877798608229,6.69670129621417,0.00209518127974206,0.002766,-0.000154,0.004991,0.113211,0.051974,316.356672,24.390894,0.999225,0.992059,0.003779,0.436635,-0.000001,-0.000023,0.000007,0.000001,-0.000025,15.692187,0.000028,
2206,2038,-1.03708907953427,-13.2708768550519,0.02085284563492,0.001382,-0.001281,-0.006319,0.082732,-0.047020,330.811383,23.492561,0.998929,0.979633,0.005498,0.427191,0.000322,0.000357,0.000041,0.000384,0.000295,56.425092,0.000681,
2041,2878,-4.76437746926158,5.06718164572365,-0.0179791223347934,0.002803,-0.000226,0.005264,0.114629,0.044648,317.659929,24.350924,0.998755,0.985963,0.004777,0.402104,-0.000013,0.000001,-0.000009,0.000005,-0.000017,-63.834586,0.000018,
2116,3238,-3.19218723797522,12.8758810596096,0.041509011069877,0.003083,-0.000534,0.008473,0.117156,0.033255,311.893500,24.465690,0.999640,0.994493,0.003065,0.460930,0.000017,-0.000003,0.000011,0.000022,-0.000008,23.900385,0.000023,
2026,2758,-5.07126999578913,2.45780775483921,-0.0205679939487027,0.003151,-0.000316,0.005228,0.130838,0.046645,319.694184,24.324845,0.999040,0.989261,0.004334,0.484967,-0.000017,0.000002,-0.000008,0.000005,-0.000020,-69.568177,0.000021,
2311,2293,1.2082520153444,-7.68195949140961,0.0102243791928913,0.002183,-0.001055,0.004454,0.084517,0.026379,326.445482,23.443678,0.999210,0.984500,0.004905,0.449152,0.000088,0.000079,0.000000,0.000088,0.000079,1.947241,0.000167,
2056,2698,-4.41088669106403,1.1538039644461,-0.0190935697197006,0.002772,-0.000045,0.002088,0.121892,0.057513,320.491317,24.360990,0.999319,0.990643,0.003903,0.494917,0.000008,0.000005,0.000004,0.000011,0.000002,31.436134,0.000014,
2041,2773,-4.74849680854303,2.78555634088985,-0.0273334599060604,0.002937,-0.000231,0.003049,0.126882,0.042910,319.298688,24.360249,0.999088,0.989614,0.004188,0.445587,-0.000012,0.000005,-0.000005,0.000007,-0.000013,-74.479785,0.000013,
2506,2038,5.52234837613906,-13.2806955929604,0.035236432520378,0.003677,-0.002795,0.001756,0.160017,-0.087377,331.098496,21.480654,0.999090,0.969226,0.006644,0.401809,0.000537,0.000430,-0.000114,0.000609,0.000358,-32.449231,0.000978,
2251,2443,-0.127249376220608,-4.40025137045252,-0.00831795191635365,0.002557,-0.000340,0.000781,0.114761,0.027534,323.970076,24.031341,0.999442,0.989217,0.004261,0.361310,0.000007,0.000051,0.000000,0.000051,0.000007,89.500970,0.000063,
2446,3013,4.01046035081141,8.02419000090099,0.00081320846595645,0.002661,-0.000001,0.002854,0.111816,0.042182,314.764964,25.468917,0.999181,0.985779,0.004309,0.413284,0.000026,-0.000008,0.000012,0.000030,-0.000011,17.771330,0.000030,
2086,3193,-3.83457184823606,11.8986757886107,0.0445125372087887,0.003107,-0.000223,0.006726,0.124071,0.048755,312.808144,24.338576,0.999478,0.993670,0.003179,0.454769,0.000012,0.000015,0.000004,0.000017,0.000009,57.759144,0.000027,
2131,3163,-2.8550231496423,11.2525805815637,0.0369085806395901,0.002800,-0.000299,0.006184,0.110786,0.052279,313.008126,24.526518,0.999490,0.991324,0.003637,0.475285,0.000009,0.000010,0.000010,0.000019,0.000000,46.255798,0.000023,
2146,3043,-2.51115073677671,8.65312380207943,0.0156517913512744,0.002780,-0.000287,0.007180,0.106476,0.054008,314.722758,24.577086,0.999507,0.992580,0.003401,0.438534,0.000002,-0.000007,0.000002,0.000002,-0.000008,14.362810,0.000008,
2071,2713,-4.08857825234848,1.48206828418978,-0.029704686865955,0.002530,-0.000195,0.005187,0.101772,0.049703,320.056566,24.395617,0.999316,0.990233,0.003906,0.448306,0.000011,0.000013,0.000003,0.000015,0.000009,56.511758,0.000025,
2296,2803,0.785992114451847,3.45038414537313,-0.0237430258954987,0.002526,-0.000235,0.005001,0.099364,0.073713,317.917318,24.597765,0.999265,0.988851,0.004156,0.457096,0.000008,0.000012,0.000009,0.000019,0.000000,50.675908,0.000023,
2506,2053,5.51821119691631,-12.9494248481022,0.0321564558011005,0.003379,-0.002854,0.006864,0.126677,-0.053237,330.796349,21.634447,0.999240,0.980738,0.005556,0.347182,0.000508,0.000399,-0.000110,0.000576,0.000331,-31.797639,0.000919,
2056,2908,-4.44288310263192,5.7182421616093,-0.00462094400313617,0.002862,-0.000301,0.007002,0.112270,0.051877,317.194226,24.330180,0.999431,0.992072,0.003709,0.443364,0.000002,-0.000027,-0.000004,0.000002,-0.000028,-6.845859,0.000031,
2251,2188,-0.0820241369824437,-9.97953679606935,0.00796262345153309,0.001760,-0.001416,0.000529,0.078432,-0.012546,328.186778,23.620479,0.999535,0.988969,0.004418,0.300532,0.000155,0.000153,0.000010,0.000164,0.000144,41.236932,0.000308,
2041,2893,-4.76624488312818,5.39187402910317,-0.00455454789857868,0.002605,-0.000323,0.008023,0.097849,0.059884,317.511798,24.323743,0.999117,0.991117,0.003931,0.436635,-0.000015,-0.000010,-0.000011,-0.000001,-0.000024,-51.168967,0.000028,
2356,2518,2.14633296640125,-2.76230412328044,-0.00711883346690456,0.002198,-0.000934,0.001636,0.094791,-0.005913,322.658457,23.841441,0.999333,0.986062,0.004605,0.440227,0.000029,0.000006,0.000024,0.000044,-0.000009,32.322941,0.000047,
2086,3208,-3.83648389911274,12.2233532869075,0.0505047153399119,0.003222,-0.000177,0.006231,0.130821,0.050710,312.619827,24.341521,0.999536,0.993508,0.003278,0.451646,0.000012,0.000010,0.000003,0.000014,0.000007,38.110730,0.000022,
2176,3163,-1.87880808442551,11.256381035757,0.0424374655452766,0.003120,-0.000625,0.010132,0.112434,0.043263,312.881572,24.780830,0.999809,0.996319,0.002893,0.411988,0.000003,0.000001,0.000014,0.000016,-0.000012,43.489327,0.000016,
2116,3253,-3.19491293026883,13.2019542788749,0.03761081195222,0.002992,-0.000128,0.006827,0.118083,0.063075,311.615571,24.525282,0.999718,0.995934,0.002719,0.433130,0.000021,-0.000010,0.000012,0.000025,-0.000014,19.518586,0.000025,
2281,2323,0.54872428781735,-7.02517331227453,0.00529640745531879,0.002413,-0.000933,0.000694,0.108033,0.001713,325.971508,23.648176,0.999062,0.982192,0.005327,0.403405,0.000064,0.000076,0.000010,0.000081,0.000058,60.511143,0.000140,
2206,2263,-1.07626467042545,-8.33866626262236,0.00638294125803895,0.001865,-0.001501,0.001296,0.080928,-0.019419,327.068508,23.815242,0.998922,0.981339,0.005321,0.426149,0.000094,0.000092,0.000016,0.000109,0.000077,42.964682,0.000188,
2266,2428,0.202186927837072,-4.7282630967396,-0.00797103744002925,0.002430,-0.000033,-0.000835,0.114311,0.026917,324.190019,23.914262,0.999325,0.987598,0.004428,0.411202,0.000017,0.000056,0.000005,0.000057,0.000016,82.666805,0.000077,
2026,2773,-5.07426771893906,2.78585138271689,-0.0294822070363239,0.002821,0.000041,0.002732,0.122628,0.055253,319.367636,24.409838,0.999325,0.990987,0.004083,0.398907,-0.000012,0.000005,-0.000006,0.000007,-0.000014,-72.512652,0.000014,
2146,3058,-2.5133594475158,8.97792296717429,0.0212801935936113,0.002695,-0.000378,0.006954,0.103152,0.032717,314.522130,24.580562,0.999577,0.993802,0.003367,0.420860,0.000005,-0.000009,0.000003,0.000006,-0.000010,11.833465,0.000010,
2506,2068,5.51738403064367,-12.6212063670494,0.0495005672881348,0.004108,-0.002300,0.005738,0.164567,-0.007773,330.736769,21.730574,0.999478,0.983183,0.005136,0.360001,0.000480,0.000409,-0.000109,0.000559,0.000330,-36.051657,0.000899,
2071,2728,-4.0901071119596,1.80782528672459,-0.0253483543414745,0.002995,-0.000233,0.003873,0.126933,0.043977,319.875012,24.377799,0.999277,0.989508,0.004031,0.457423,-0.000001,0.000019,0.000004,0.000020,-0.000002,79.551994,0.000022,
2131,3178,-2.85736015072826,11.5774988524775,0.0414295427075899,0.002812,-0.000438,0.008354,0.104812,0.059566,312.794783,24.532390,0.999207,0.987906,0.004085,0.480884,0.000012,0.000011,0.000011,0.000022,0.000000,43.235489,0.000026,
2251,2458,-0.129889239636846,-4.07343543533222,-0.00651899194838279,0.002566,-0.000593,0.002687,0.108871,0.019711,323.736907,24.011746,0.999739,0.990718,0.004083,0.397686,0.000006,0.000047,0.000003,0.000047,0.000005,85.320096,0.000058,
2086,2968,-3.80110282803669,7.02171585759388,0.0118493369575958,0.002564,-0.000435,0.010284,0.088533,0.064245,316.169500,24.386855,0.999298,0.991567,0.003756,0.451294,-0.000002,-0.000022,0.000002,-0.000002,-0.000022,4.974318,0.000027,
2086,3223,-3.83879440321563,12.5483033964155,0.0526391485188924,0.003211,-0.000018,0.006178,0.130580,0.062500,312.392054,24.340697,0.999489,0.992578,0.003547,0.461941,0.000013,0.000005,0.000001,0.000013,0.000005,9.669102,0.000019,
2446,3028,4.00835011319625,8.34977148291398,0.00819875971006923,0.002960,-0.000320,0.003036,0.124730,0.018166,314.594510,25.557245,0.999401,0.987850,0.004145,0.351938,0.000027,0.000001,0.000009,0.000030,-0.000002,17.700369,0.000033,
2161,3103,-2.19472332763483,9.9545206584637,0.0301786404709219,0.002834,-0.000233,0.005433,0.114128,0.047664,313.814997,24.636891,0.999565,0.993487,0.003340,0.457938,0.000010,-0.000004,0.000003,0.000011,-0.000005,10.428875,0.000011,
2206,2053,-1.04060504493627,-12.9404435070197,0.0158626034994427,0.001149,-0.001914,-0.000667,0.054010,-0.049824,330.499804,23.582943,0.998821,0.975719,0.005826,0.354552,0.000303,0.000338,0.000041,0.000366,0.000275,56.596502,0.000643,
2041,2908,-4.76789465254341,5.71725259790474,-0.00351618638342188,0.003006,-0.000262,0.004597,0.125840,0.043955,317.304728,24.303858,0.999392,0.991391,0.003738,0.432461,-0.000009,-0.000031,-0.000004,-0.000008,-0.000032,-11.012890,0.000042,
2356,2533,2.14345590608917,-2.43484466485946,-0.00795135322471197,0.002409,-0.000754,0.004064,0.096036,0.018072,322.409311,23.850558,0.999313,0.986127,0.004677,0.495068,0.000030,0.000005,0.000024,0.000044,-0.000009,31.485935,0.000047,
2311,2308,1.20349287672866,-7.35164210438209,-0.00928243023446385,0.001479,-0.000964,0.002304,0.059636,0.025493,326.015113,23.475639,0.999405,0.987027,0.004739,0.451367,0.000080,0.000078,0.000003,0.000083,0.000075,33.596351,0.000158,
2101,3088,-3.49335298255399,9.62473944048117,0.026211384464375,0.003049,-0.000336,0.003257,0.131150,0.034332,314.301556,24.396792,0.999377,0.987002,0.004318,0.452913,0.000007,0.000007,0.000002,0.000009,0.000005,45.395214,0.000014,
2506,2083,5.51354977732239,-12.2922813796533,0.0361240715427584,0.003887,-0.001357,-0.001704,0.183570,-0.001827,330.402836,21.595175,0.999516,0.984424,0.004835,0.566433,0.000447,0.000366,-0.000110,0.000523,0.000289,-34.854394,0.000824,
2206,2278,-1.07840857895443,-8.00994612729863,0.0066456862654718,0.002221,-0.001114,0.000818,0.098917,0.019359,326.846371,23.846977,0.998895,0.982332,0.005235,0.452109,0.000083,0.000080,0.000011,0.000092,0.000071,41.164664,0.000164,
2026,2788,-5.07628347585957,3.11143574038504,-0.0288252048810591,0.002914,0.000086,0.000571,0.132884,0.050875,319.140301,24.361851,0.999462,0.991838,0.003737,0.432824,-0.000021,0.000019,-0.000009,0.000021,-0.000023,-78.315688,0.000026,
2176,3178,-1.88072450823855,11.5803202760773,0.0496401917225171,0.003200,-0.000516,0.008864,0.120105,0.046422,312.704669,24.716996,0.999745,0.994924,0.003123,0.490187,0.000003,0.000001,0.000017,0.000019,-0.000015,43.615737,0.000020,
2071,2983,-4.12851795391713,7.34589105661627,0.00428373713856445,0.003050,-0.000624,0.005344,0.125272,0.016710,315.978447,24.297196,0.999298,0.991238,0.003726,0.451810,-0.000001,-0.000028,-0.000007,0.000000,-0.000029,-14.129009,0.000034,
2281,2338,0.545835507716095,-6.69661565358867,0.00281992521973962,0.002370,-0.000594,0.000273,0.107594,0.012184,325.707869,23.688158,0.999221,0.984376,0.004899,0.403619,0.000056,0.000088,0.000007,0.000089,0.000055,78.639182,0.000145,
2251,2203,-0.0846032450366145,-9.65258279850955,0.00484715541387004,0.001845,-0.000936,-0.001884,0.090372,-0.005523,327.931995,23.461969,0.999051,0.983888,0.005087,0.492219,0.000139,0.000135,0.000006,0.000143,0.000131,36.539068,0.000275,
2086,2983,-3.80324574310479,7.34673333145959,0.00863240092826345,0.002916,-0.000942,0.008487,0.109793,0.026807,315.920045,24.346557,0.999460,0.992614,0.003539,0.452663,-0.000005,-0.000023,-0.000003,-0.000004,-0.000024,-8.591129,0.000030,
2086,3238,-3.84204294256839,12.8733674453992,0.0464907234960492,0.002952,-0.000420,0.008730,0.111076,0.045621,312.075932,24.335678,0.999583,0.993619,0.003281,0.447464,0.000015,-0.000009,0.000004,0.000015,-0.000010,9.239056,0.000016,
2146,3073,-2.51658011878291,9.30388997168898,0.0138930177633938,0.002518,-0.000416,0.007559,0.093157,0.030090,314.205394,24.592670,0.999745,0.995814,0.002982,0.413028,0.000006,-0.000005,0.000004,0.000007,-0.000007,18.786079,0.000008,
2506,2098,5.50887033267884,-11.9586769147346,0.0250526803810658,0.003472,-0.001341,0.000196,0.157344,-0.021107,330.040141,21.944990,0.999577,0.985670,0.004835,0.262095,0.000414,0.000339,-0.000115,0.000497,0.000256,-35.972658,0.000766,
2131,3193,-2.85989543628665,11.9025353092395,0.0402639091783499,0.002858,-0.000548,0.008369,0.106765,0.037420,312.541841,24.548343,0.999490,0.991539,0.003608,0.447319,0.000012,0.000008,0.000009,0.000020,0.000001,38.656588,0.000023,
2206,2068,-1.0422783841142,-12.6127471779051,0.0249848218145416,0.001361,-0.001656,-0.000788,0.064212,-0.032368,330.345200,23.566016,0.999035,0.978759,0.005595,0.408420,0.000286,0.000323,0.000042,0.000351,0.000258,57.021832,0.000612,
2296,2818,0.783848167074105,3.77595920410819,-0.018218140224235,0.002652,-0.000182,0.004184,0.107895,0.047938,317.728242,24.620771,0.999399,0.989997,0.003990,0.438257,0.000007,0.000016,0.000011,0.000023,0.000000,56.484669,0.000027,
2041,2923,-4.77011551911368,6.0425340621934,-0.00145431991364831,0.002978,0.000036,0.004534,0.124795,0.044109,317.077199,24.270498,0.999432,0.991730,0.003674,0.457943,-0.000006,-0.000033,-0.000001,-0.000006,-0.000033,-2.292505,0.000042,
2251,2473,-0.132165727275513,-3.74726885586573,-0.00147660710234732,0.002411,-0.000416,0.000521,0.108907,0.015860,323.536870,23.963200,0.999662,0.990388,0.004033,0.466612,0.000007,0.000038,0.000006,0.000039,0.000006,79.033827,0.000048,
2446,3043,4.00548197577107,8.67504606260331,0.0112121084582668,0.002913,-0.000524,0.003918,0.119262,0.026131,314.368948,25.559757,0.999310,0.987503,0.004178,0.408933,0.000022,0.000011,0.000015,0.000033,0.000000,35.807078,0.000038,
2506,2113,5.50541966848159,-11.6307718628475,0.0247397471200657,0.003125,-0.001137,-0.000218,0.143140,0.000414,329.781658,21.857688,0.999567,0.985878,0.004891,0.435084,0.000388,0.000331,-0.000107,0.000470,0.000248,-37.558399,0.000730,
2101,3103,-3.4956980556588,9.95045863105656,0.0340695782043667,0.002981,-0.000349,0.008452,0.112823,0.050009,314.103807,24.471228,0.999668,0.992508,0.003410,0.393991,0.000011,0.000012,0.000004,0.000015,0.000007,49.821600,0.000023,
2356,2548,2.14070069558462,-2.10762170667255,-0.00696696262468777,0.002498,-0.000762,0.005123,0.096384,0.010506,322.174592,23.890523,0.999252,0.985730,0.004705,0.487325,0.000033,0.000010,0.000022,0.000047,-0.000003,31.337484,0.000052,
2026,2803,-5.07861872101662,3.43685730723497,-0.0262634162978088,0.002894,-0.000166,0.003719,0.123194,0.030690,318.909080,24.333638,0.999496,0.992118,0.003618,0.430967,-0.000019,0.000014,-0.000005,0.000015,-0.000020,-81.671405,0.000020,
2071,2998,-4.12981691986266,7.67088884208228,0.0209934730527266,0.003072,-0.000304,0.005015,0.127410,0.042439,315.875770,24.331571,0.999586,0.992225,0.003420,0.439135,-0.000001,-0.000018,-0.000006,0.000001,-0.000020,-17.047999,0.000023,
2086,2998,-3.80528484876701,7.67283321728303,0.0117543597294798,0.002956,-0.000536,0.006376,0.117902,0.041094,315.709472,24.401765,0.999596,0.992768,0.003378,0.410037,-0.000003,-0.000016,-0.000002,-0.000003,-0.000016,-8.947412,0.000021,
2161,3118,-2.19677009871954,10.2800894327712,0.0313056789967732,0.003130,-0.000173,0.003557,0.133544,0.043330,313.598602,24.679928,0.999496,0.993278,0.003440,0.419543,0.000005,-0.000002,0.000002,0.000006,-0.000003,14.034624,0.000006,
2206,2293,-1.08076762167584,-7.68129542785202,0.00390672820441296,0.002303,-0.000457,-0.003495,0.116564,0.017558,326.599110,23.887834,0.999148,0.985019,0.004844,0.428129,0.000077,0.000080,0.000014,0.000093,0.000064,47.737035,0.000157,
2176,3193,-1.88256006247368,11.9036937392089,0.0624690733585567,0.003003,-0.000411,0.007930,0.113932,0.041683,312.561260,24.644677,0.999811,0.996255,0.002896,0.568833,0.000001,-0.000001,0.000016,0.000016,-0.000016,43.194927,0.000019,
2251,2218,-0.0863061207594136,-9.3238056007326,0.0108313981001515,0.002220,-0.000582,-0.003684,0.113571,0.016728,327.762812,23.554857,0.998514,0.977132,0.005919,0.447125,0.000127,0.000122,0.000002,0.000128,0.000122,18.512154,0.000250,
2206,2083,-1.04548859727585,-12.2834097286814,0.019124002598403,0.001266,-0.001874,0.001705,0.051927,-0.026227,330.043169,23.549302,0.998989,0.977896,0.005705,0.451735,0.000271,0.000311,0.000041,0.000337,0.000245,58.035728,0.000584,
2281,2353,0.542793805842887,-6.3698119206264,0.00655284313006632,0.002124,-0.001130,0.005458,0.078835,0.005729,325.468463,23.650790,0.999250,0.984474,0.004889,0.464252,0.000046,0.000081,0.000004,0.000081,0.000045,83.473781,0.000128,
2041,2938,-4.77316776660913,6.36772520759259,-0.00112114022073229,0.002611,-0.000726,0.010768,0.090336,0.041684,316.802021,24.223248,0.999214,0.991224,0.003828,0.494596,-0.000005,-0.000034,0.000001,-0.000005,-0.000034,1.153226,0.000043,
2146,3088,-2.51851979469003,9.62987520491027,0.0148591423004518,0.002903,-0.000260,0.005607,0.116917,0.042166,313.991866,24.649746,0.999703,0.994562,0.003169,0.374759,0.000004,-0.000003,0.000003,0.000005,-0.000004,21.002210,0.000005,
2506,2128,5.50194360371416,-11.3017656897758,0.0209877489744486,0.003240,-0.001682,0.001506,0.141554,-0.003966,329.506695,21.865022,0.999605,0.983796,0.005113,0.487750,0.000363,0.000309,-0.000105,0.000444,0.000228,-37.662659,0.000684,
2026,2818,-5.08103506988217,3.76223618349646,-0.0233324018442431,0.002617,-0.000403,0.004258,0.108902,0.026734,318.676210,24.292189,0.999234,0.991702,0.003755,0.458241,-0.000025,0.000015,-0.000009,0.000017,-0.000027,-78.400055,0.000027,
2131,3208,-2.86166662392469,12.2275391151437,0.0470060513562771,0.003085,-0.000337,0.007349,0.120449,0.057648,312.366362,24.568755,0.999682,0.993678,0.003239,0.451354,0.000012,0.000009,0.000011,0.000021,0.000000,40.588753,0.000024,
2446,3058,4.00251942008485,9.00110736813557,0.013413292451844,0.003016,-0.000597,0.006947,0.112669,0.032626,314.134984,25.634614,0.999527,0.990085,0.003932,0.391689,0.000021,0.000003,0.000016,0.000031,-0.000006,30.233612,0.000032,
2251,2488,-0.134993301283348,-3.41988597521728,-0.00495894885784764,0.002697,-0.000824,0.003548,0.111977,0.004470,323.268266,23.959787,0.999685,0.989195,0.003974,0.483527,0.000006,0.000027,0.000001,0.000027,0.000006,88.440696,0.000036,
2296,2833,0.781541675281975,4.10179736306387,-0.0118190040151944,0.002634,-0.000470,0.004424,0.106115,0.029301,317.535919,24.671060,0.999647,0.992433,0.003669,0.398767,0.000003,0.000024,0.000015,0.000031,-0.000005,62.542339,0.000034,
2356,2563,2.13711623178729,-1.7788131844548,-0.00986862555214429,0.002055,-0.000665,0.006034,0.072962,0.044116,321.882603,24.005334,0.999384,0.989016,0.004309,0.446054,0.000031,0.000014,0.000020,0.000044,0.000001,33.633033,0.000051,
2086,3013,-3.80789082466924,7.99786188809926,0.0109192689153019,0.002799,-0.000196,0.006192,0.111248,0.040103,315.451726,24.350906,0.999712,0.993383,0.003146,0.458179,0.000003,-0.000006,-0.000003,0.000004,-0.000007,-13.985679,0.000007,
2251,2233,-0.0894726756714341,-8.99467759478276,0.00287734103721959,0.002360,-0.000703,-0.002267,0.115325,0.008594,327.456428,23.570798,0.998576,0.978818,0.005686,0.449311,0.000112,0.000109,-0.000001,0.000112,0.000108,-19.331708,0.000221,
2161,3133,-2.19956444478664,10.6048891788577,0.033706215636073,0.002944,-0.000435,0.006920,0.114534,0.036498,313.354873,24.666337,0.999443,0.992963,0.003593,0.435226,0.000006,-0.000003,0.000002,0.000006,-0.000003,14.111986,0.000006,
2071,3013,-4.13189744611396,7.99628523741891,0.0235248499084832,0.003205,0.000052,0.004788,0.134292,0.055437,315.659358,24.322101,0.999483,0.991345,0.003625,0.457518,0.000006,-0.000008,-0.000005,0.000008,-0.000009,-16.849154,0.000010,
2206,2308,-1.08306360795271,-7.35392122638474,0.00398963838290456,0.002382,-0.000372,-0.005889,0.127811,0.006500,326.369513,23.854957,0.998962,0.984544,0.004873,0.468618,0.000070,0.000082,0.000013,0.000090,0.000061,57.609352,0.000152,
2506,2143,5.49896142344018,-10.9717752261565,0.0224636264587161,0.003352,-0.001548,0.002511,0.142894,-0.022802,329.277555,22.038807,0.999225,0.974710,0.005985,0.359086,0.000339,0.000292,-0.000090,0.000408,0.000223,-37.725737,0.000640,
2026,2833,-5.08314959080167,4.08853842902735,-0.0202291951950428,0.002682,-0.000457,0.005550,0.108335,0.030673,318.457831,24.332828,0.999654,0.994002,0.003451,0.411723,-0.000030,0.000012,-0.000018,0.000019,-0.000037,-69.369427,0.000037,
2206,2098,-1.04785054210292,-11.9540070288177,0.0166039234092636,0.001498,-0.001646,-0.000027,0.068107,-0.031836,329.797106,23.592913,0.999062,0.981120,0.005401,0.422324,0.000257,0.000299,0.000043,0.000326,0.000230,57.720482,0.000558,
2446,3073,3.99922188271627,9.32645721680849,0.00991931122649703,0.003112,-0.000777,0.008334,0.111781,0.019749,313.859423,25.630393,0.999653,0.993030,0.003507,0.434262,0.000021,0.000007,0.000017,0.000033,-0.000005,33.698770,0.000035,
2146,3103,-2.52081909080566,9.95361464288641,0.0219869267786521,0.002813,-0.000410,0.008132,0.105095,0.050242,313.795409,24.546667,0.999819,0.996291,0.002760,0.492827,0.000004,0.000003,0.000005,0.000008,-0.000002,41.053240,0.000009,
2296,2848,0.778720749498635,4.42715416176582,-0.0108434465815321,0.002583,-0.000405,0.005826,0.099052,0.026350,317.293127,24.624416,0.999662,0.992480,0.003676,0.472267,0.000006,0.000020,0.000016,0.000030,-0.000004,57.149808,0.000033,
2131,3223,-2.86435828367609,12.5520838843705,0.049453666045963,0.002922,-0.000476,0.010143,0.104530,0.055272,312.125784,24.547768,0.999618,0.993800,0.003207,0.474208,0.000014,0.000009,0.000009,0.000020,0.000003,37.949975,0.000025,
2281,2368,0.540367860267512,-6.04235217919612,0.00813929985343975,0.002110,-0.001128,0.003192,0.085768,-0.003536,325.246449,23.659775,0.999124,0.982562,0.005151,0.475337,0.000037,0.000078,0.000007,0.000079,0.000036,80.895176,0.000117,
2251,2503,-0.13834712359203,-3.09069346905746,-0.00960054216892559,0.002430,-0.000672,0.004909,0.095318,0.013823,322.969183,24.096346,0.999526,0.988532,0.004221,0.380997,0.000002,0.000025,0.000006,0.000027,0.000001,75.909334,0.000032,
2506,2158,5.49605139848562,-10.6425571043412,0.0229113515839003,0.003329,-0.000931,0.000176,0.151113,-0.018951,329.047000,22.113512,0.999258,0.977195,0.005636,0.352124,0.000317,0.000267,-0.000093,0.000388,0.000196,-37.415693,0.000595,
2251,2248,-0.0924234738403023,-8.66415233011544,0.000680891972308473,0.002331,-0.000293,-0.000601,0.108757,0.067450,327.188373,23.712918,0.998002,0.976821,0.006201,0.391924,0.000103,0.000088,0.000004,0.000104,0.000087,13.907926,0.000192,
2026,2848,-5.08630102536022,4.41365335199617,-0.0405788617047733,0.002510,0.000292,-0.003167,0.124603,0.029493,318.061406,24.098428,0.999681,0.995027,0.003274,0.635427,-0.000027,-0.000002,-0.000017,0.000007,-0.000035,-63.007170,0.000037,
2206,2113,-1.05019421734226,-11.6249335745792,0.0145907166393613,0.001625,-0.000962,-0.002955,0.083451,-0.017107,329.554404,23.597502,0.998830,0.981536,0.005265,0.452419,0.000244,0.000283,0.000041,0.000309,0.000219,57.739737,0.000531,
2071,3028,-4.1350830547553,8.32194026537899,0.0199846828973591,0.002775,-0.000173,0.007141,0.107681,0.048758,315.358884,24.319616,0.999581,0.992826,0.003392,0.449502,0.000005,-0.000007,-0.000004,0.000007,-0.000008,-16.613955,0.000009,
2161,3148,-2.20282582449361,10.9304225008914,0.0313312739623939,0.002573,-0.000449,0.009685,0.088925,0.038826,313.064163,24.685795,0.999357,0.992076,0.003828,0.426984,0.000008,0.000000,0.000006,0.000011,-0.000003,27.367376,0.000012,
2206,2323,-1.0858659141708,-7.02610959498186,0.00714999040076236,0.002371,-0.000741,0.000718,0.106313,-0.003137,326.132480,23.896321,0.999021,0.984893,0.004697,0.436470,0.000062,0.000074,0.000008,0.000078,0.000058,61.968533,0.000136,
2506,2173,5.49258407864645,-10.3141158421498,0.0251152794918426,0.002849,-0.000865,0.000822,0.126718,0.005475,328.798567,22.120700,0.998945,0.975459,0.005874,0.433257,0.000286,0.000253,-0.000092,0.000363,0.000176,-39.881290,0.000550,
2161,2038,-2.02067929445175,-13.2681196576714,0.0134260728898425,0.000577,-0.001754,-0.002466,0.033340,-0.051392,330.836752,23.865865,0.998856,0.984059,0.005125,0.347051,0.000358,0.000350,0.000072,0.000425,0.000282,43.453220,0.000712,
2296,2863,0.775934898196841,4.75416939545008,-0.0115721865969363,0.002668,-0.000886,0.006722,0.099817,0.026117,317.042980,24.719098,0.999658,0.992237,0.003618,0.407198,0.000008,0.000016,0.000012,0.000025,-0.000001,54.427546,0.000028,
2176,3088,-1.86737892526536,9.63069599151304,0.0254856091633542,0.002926,-0.000880,0.011122,0.100245,0.034185,313.953225,24.705512,0.999501,0.992906,0.003501,0.422530,0.000012,-0.000010,0.000002,0.000012,-0.000010,5.594635,0.000013,
2386,2833,2.73815931833566,4.10783605559882,-0.0256289585314562,0.002690,-0.000323,0.005028,0.105535,0.029175,317.402443,24.788401,0.999549,0.987486,0.004316,0.389148,0.000004,0.000030,0.000015,0.000037,-0.000003,66.224963,0.000041,
2116,3268,-3.19730773530219,13.5267216096479,0.0343203106251053,0.003206,-0.000160,0.005393,0.132195,0.049477,311.356641,24.515336,0.999712,0.995550,0.002864,0.431321,0.000025,-0.000012,0.000015,0.000030,-0.000017,19.783868,0.000030,
2026,2863,-5.08733548986269,4.7409113127411,-0.0225995214735804,0.003094,-0.000033,0.003488,0.133198,0.051608,317.975269,24.328099,0.999336,0.991563,0.003986,0.417263,-0.000023,-0.000010,-0.000016,0.000001,-0.000034,-56.100918,0.000039,
2056,2713,-4.41332051201922,1.48091775961768,-0.0232377993249884,0.003017,-0.000175,0.003713,0.128541,0.046909,320.220085,24.398458,0.999180,0.989625,0.003977,0.442023,0.000011,0.000011,0.000004,0.000015,0.000008,45.397895,0.000023,
2236,2143,-0.400384954866521,-10.9678817334905,0.0163596586598942,0.001980,-0.001324,-0.002326,0.097746,-0.029088,329.030496,23.497357,0.998786,0.979865,0.005428,0.412154,0.000206,0.000226,0.000034,0.000251,0.000181,53.577037,0.000434,
2281,2248,0.562293078260947,-8.66775230818597,0.00947614884438508,0.002102,-0.001448,-0.000739,0.098297,-0.017884,327.208010,23.432809,0.999143,0.980800,0.005335,0.449275,0.000108,0.000093,-0.000002,0.000108,0.000092,-7.662910,0.000201,
2026,2608,-5.04988417177832,-0.804415624451593,-0.0338987020156765,0.002569,-0.000301,0.003276,0.109339,0.064492,321.989479,24.480415,0.998856,0.986190,0.004772,0.441511,0.000033,0.000013,0.000014,0.000041,0.000005,27.063722,0.000050,
2221,2053,-0.713246720811512,-12.9404183239758,0.0127086508911134,0.001241,-0.001515,-0.002120,0.063054,-0.048494,330.445460,23.482207,0.998921,0.976649,0.005746,0.359688,0.000288,0.000338,0.000035,0.000356,0.000270,62.487019,0.000628,
2116,3088,-3.16844589658418,9.62687362760619,0.0194321796827808,0.003194,-0.000155,0.004128,0.135228,0.044892,314.177530,24.493395,0.999690,0.992600,0.003540,0.422471,0.000006,0.000002,0.000003,0.000008,0.000000,29.562892,0.000009,
2056,2923,-4.44484301022193,6.04361002681132,-0.00132195380388112,0.002992,-0.000269,0.006096,0.120827,0.051347,316.986481,24.314630,0.999435,0.992314,0.003660,0.452486,0.000002,-0.000031,0.000001,0.000003,-0.000031,1.952038,0.000035,
2461,3283,4.28245098186708,13.8862461305979,0.0011524255007771,0.003194,-0.000324,0.009314,0.111930,0.046137,310.367390,26.443205,0.999628,0.991243,0.003612,0.445328,0.000030,-0.000054,0.000006,0.000030,-0.000055,4.045019,0.000055,
2371,2623,2.45263015909606,-0.469460300258753,-0.0179497618665891,0.002766,-0.000536,0.005026,0.109008,0.028929,320.881368,24.096967,0.999173,0.986761,0.004485,0.484618,0.000029,0.000040,0.000017,0.000052,0.000017,54.006410,0.000072,
2101,3178,-3.50798199347527,11.5748270906312,0.0298481429187518,0.003053,-0.000296,0.005833,0.123903,0.041855,312.855217,24.324479,0.999779,0.995354,0.002901,0.533322,0.000012,0.000017,0.000008,0.000023,0.000006,53.516202,0.000031,
2161,3043,-2.18485964826911,8.65384921176725,0.0239741049933286,0.002936,-0.000197,0.005073,0.119882,0.048299,314.747998,24.655737,0.999585,0.992912,0.003551,0.403475,0.000009,-0.000007,0.000004,0.000010,-0.000008,11.594469,0.000011,
2026,2728,-5.06702525540366,1.80614420717868,-0.024548726707053,0.003019,0.000081,0.004097,0.127965,0.057617,320.143980,24.374889,0.999549,0.992325,0.003640,0.465182,-0.000008,0.000016,0.000008,0.000019,-0.000010,73.145510,0.000019,
2311,2323,1.20180000582924,-7.02414417588135,-0.00320303348757989,0.002203,-0.001270,0.003922,0.087192,-0.001658,325.851274,23.537086,0.999134,0.983981,0.005065,0.396683,0.000073,0.000071,0.000008,0.000080,0.000064,40.458859,0.000145,
2251,2518,-0.141271712523487,-2.76330270242609,-0.0106943947450873,0.002237,-0.000556,0.004991,0.086261,0.031676,322.708016,24.096794,0.999258,0.986331,0.004589,0.422823,0.000003,0.000021,0.000007,0.000023,0.000001,70.318713,0.000027,
2431,3223,3.64510241089431,12.5799995452415,0.0345374943074717,0.002835,-0.000557,0.007424,0.103050,0.048861,311.572363,26.071652,0.999519,0.990667,0.003851,0.456447,0.000033,-0.000016,0.000003,0.000033,-0.000016,3.852802,0.000033,
2176,3208,-1.88640933566552,12.2313444456033,0.0439462644619653,0.002982,-0.000436,0.007833,0.113278,0.043659,312.158991,24.780438,0.999631,0.994447,0.003240,0.445784,0.000000,0.000002,0.000019,0.000020,-0.000018,47.127116,0.000022,
2116,3283,-3.20037628239127,13.8510097937675,0.0362705260617986,0.002906,-0.000424,0.011642,0.099693,0.043482,311.095228,24.486404,0.999740,0.995461,0.002926,0.456089,0.000028,-0.000010,0.000026,0.000042,-0.000023,27.185705,0.000042,
2416,2788,3.40064639014832,3.12978450035247,-0.018765874919211,0.003004,-0.000468,0.006364,0.114635,0.049547,318.232069,24.714846,0.999406,0.988092,0.004349,0.375918,0.000022,0.000028,0.000016,0.000041,0.000009,50.425096,0.000053,
2266,2443,0.199174943505835,-4.39991107842432,-0.00979849674496336,0.001902,0.000022,-0.005326,0.104965,0.012071,323.922511,24.003830,0.999571,0.988818,0.004288,0.333649,0.000010,0.000050,0.000003,0.000050,0.000010,85.208731,0.000064,
2071,2863,-4.11054317378364,4.74238800248834,-0.0157105495570704,0.002991,0.000144,0.000800,0.135733,0.049021,317.772934,24.367758,0.999372,0.991015,0.003895,0.443252,-0.000006,-0.000006,-0.000009,0.000003,-0.000015,-44.912173,0.000016,
2131,2938,-2.81911681145045,6.37384847451562,0.00697654716748275,0.003213,-0.000072,0.004188,0.135654,0.055486,316.452305,24.535642,0.999598,0.991665,0.003794,0.398015,0.000002,-0.000011,0.000015,0.000011,-0.000020,32.988878,0.000020,
2251,2263,-0.0945722392956618,-8.33749757535627,0.00525733492560221,0.002413,-0.000527,-0.001533,0.115494,0.023445,326.992247,23.678509,0.998923,0.983086,0.005293,0.407687,0.000091,0.000081,0.000004,0.000092,0.000080,17.572261,0.000173,
2326,2428,1.50874096321215,-4.72640232269907,-0.0190496603873385,0.002549,-0.000359,0.002330,0.108817,0.038152,324.033593,23.726139,0.999523,0.989473,0.004302,0.443207,0.000040,0.000056,0.000024,0.000074,0.000023,54.196786,0.000101,
2011,2833,-5.4079851230401,4.08779715319085,-0.0126512423179861,0.002743,-0.000283,0.004513,0.114200,0.023707,318.622889,24.378712,0.999662,0.994135,0.003472,0.340435,-0.000036,0.000002,-0.000026,0.000015,-0.000049,-63.274619,0.000050,
2086,3253,-3.84428895643992,13.1977296604539,0.0534382881749025,0.002929,-0.000522,0.012213,0.099956,0.056956,311.877675,24.315465,0.999690,0.994670,0.003074,0.476726,0.000017,-0.000017,0.000004,0.000018,-0.000017,6.216968,0.000020,
2041,2788,-4.7507179259759,3.11167860022911,-0.0235052353834249,0.002829,-0.000413,0.003705,0.120085,0.045366,319.080462,24.379605,0.999178,0.988736,0.004108,0.421166,-0.000021,0.000017,-0.000008,0.000018,-0.000023,-79.148523,0.000024,
2236,2233,-0.417224593168331,-8.99468963115773,1.68182984907617E-05,0.002226,-0.001448,0.002061,0.094902,-0.022172,327.441549,23.634493,0.999096,0.982682,0.005009,0.425431,0.000119,0.000111,0.000005,0.000121,0.000108,23.611170,0.000230,
2161,2053,-2.02203026928479,-12.9402038764016,0.019819887521578,0.001152,-0.001568,-0.003724,0.063567,-0.044496,330.679632,23.843567,0.999037,0.983641,0.005063,0.389200,0.000336,0.000330,0.000071,0.000404,0.000262,43.747596,0.000671,
2281,2263,0.558083485567206,-8.33581898622826,-0.0033347706930158,0.001771,-0.001159,0.002407,0.072763,0.004029,326.832110,23.637838,0.999442,0.985940,0.004818,0.296875,0.000094,0.000086,0.000000,0.000094,0.000086,-2.170071,0.000180,
2386,2848,2.73602942882406,4.43338820425333,-0.0195576580932766,0.002864,-0.000340,0.003599,0.118707,0.034667,317.222107,24.791487,0.999529,0.988961,0.004088,0.434552,0.000000,0.000028,0.000013,0.000033,-0.000005,68.046175,0.000036,
2026,2623,-5.0513090870046,-0.478935592794137,-0.0263622974335362,0.002793,0.000018,0.000781,0.126584,0.052574,321.827329,24.439870,0.998947,0.986923,0.004701,0.461062,0.000021,-0.000003,0.000009,0.000024,-0.000006,18.872999,0.000025,
2026,2878,-5.089434165448,5.06663255227805,-0.0183057065909225,0.002998,0.000305,0.002949,0.130308,0.056292,317.764530,24.335655,0.998841,0.987732,0.004522,0.404437,-0.000013,-0.000004,-0.000012,0.000004,-0.000021,-54.544348,0.000023,
2221,2068,-0.715688993341114,-12.6112050176894,0.0152426981953226,0.001303,-0.001485,-0.000477,0.060643,-0.027864,330.222839,23.527916,0.999005,0.977354,0.005689,0.356718,0.000273,0.000322,0.000036,0.000341,0.000254,62.191962,0.000597,
2026,2743,-5.06953852702031,2.13183998234715,-0.0197992840994061,0.002734,-0.000469,0.008099,0.103701,0.051080,319.916613,24.358368,0.999408,0.990009,0.004042,0.465399,-0.000018,0.000016,0.000001,0.000016,-0.000018,88.777102,0.000020,
2476,3238,4.61949468645632,12.9107795441687,0.0174457799701599,0.003354,-0.000316,0.003706,0.140335,0.048676,311.305958,26.362252,0.999664,0.993581,0.003289,0.448063,0.000020,-0.000028,0.000005,0.000021,-0.000028,5.841073,0.000029,
2281,2383,0.537251206205791,-5.71267416969489,-0.00461362281851052,0.002315,-0.000539,-0.001106,0.109721,-0.002369,324.920926,23.727998,0.998816,0.981999,0.005344,0.438115,0.000032,0.000075,0.000009,0.000077,0.000030,78.811076,0.000110,
2071,3043,-4.13776422019471,8.64805825370152,0.0161843989741328,0.002703,-0.000178,0.006834,0.105380,0.073776,315.079917,24.330932,0.999554,0.992824,0.003411,0.459081,0.000005,-0.000005,-0.000006,0.000007,-0.000008,-25.579084,0.000009,
2431,3238,3.64141920741107,12.9055721528326,0.0293626608670365,0.002912,-0.000598,0.011986,0.089623,0.046824,311.269088,26.111576,0.999539,0.991792,0.003679,0.462975,0.000032,-0.000018,0.000000,0.000032,-0.000018,-0.446521,0.000032,
2161,3163,-2.20467593959872,11.2555658881285,0.0364162641823214,0.002873,-0.000328,0.008839,0.105478,0.052797,312.877851,24.706541,0.999571,0.992656,0.003537,0.429115,0.000011,0.000001,0.000011,0.000018,-0.000006,33.268986,0.000018,
2176,3223,-1.88858563934329,12.556765821169,0.0473380862393356,0.003036,-0.000264,0.006098,0.121303,0.057514,311.949551,24.830534,0.999684,0.994870,0.003107,0.420508,-0.000001,0.000009,0.000017,0.000022,-0.000014,52.782232,0.000022,
2296,2548,0.832517773403616,-2.1068786443934,-0.0184550533883225,0.002142,-0.000354,0.005148,0.080946,0.051501,322.087058,24.053102,0.999386,0.988537,0.004298,0.462899,0.000018,0.000021,0.000012,0.000032,0.000008,48.521545,0.000042,
2101,3193,-3.51022946309614,11.9000400713268,0.0411627229642022,0.002686,-0.000169,0.008098,0.100377,0.053752,312.680974,24.396080,0.999600,0.993737,0.003249,0.473475,0.000012,0.000013,0.000006,0.000019,0.000007,47.981717,0.000027,
2116,3298,-3.20258151179913,14.1763705538793,0.027775228157509,0.003450,-0.000081,0.007099,0.138479,0.061218,310.816671,24.479877,0.999633,0.993243,0.003429,0.482620,0.000033,0.000007,0.000023,0.000046,-0.000007,30.361464,0.000050,
2011,3013,-5.43409289368241,7.99277760281876,0.0172249476925117,0.002559,-0.000583,0.011037,0.088076,0.046204,315.921256,24.151848,0.999592,0.992860,0.003432,0.439545,0.000009,-0.000025,0.000006,0.000011,-0.000026,10.127134,0.000027,
2056,2728,-4.41594965338357,1.80748777953362,-0.0263391134349718,0.002949,-0.000340,0.004472,0.123249,0.041889,319.945808,24.394017,0.999334,0.990176,0.003890,0.436218,-0.000001,0.000018,0.000005,0.000019,-0.000002,77.373760,0.000020,
2146,3208,-2.53660426361697,12.2291094449502,0.0433907681847359,0.003141,0.000073,0.006079,0.126791,0.072782,312.279645,24.632802,0.999591,0.993395,0.003277,0.475969,0.000011,0.000007,0.000012,0.000021,-0.000004,40.083577,0.000023,
2086,3268,-3.84702002680227,13.5236887480746,0.0409556698653546,0.003180,-0.000011,0.008253,0.123136,0.060206,311.550337,24.346154,0.999709,0.995419,0.002912,0.446902,0.000022,-0.000023,0.000006,0.000023,-0.000024,7.072164,0.000027,
2401,2788,3.07345564073879,3.12876075180008,-0.0199033343257611,0.002480,-0.000313,0.006750,0.089426,0.046833,318.180482,24.672071,0.999499,0.987760,0.004340,0.404654,0.000017,0.000030,0.000015,0.000039,0.000007,56.337554,0.000050,
2296,2878,0.773167520750562,5.08005542026741,-0.0124833324709357,0.002600,-0.000426,0.005241,0.101875,0.037025,316.793033,24.701917,0.999624,0.991616,0.003716,0.464897,0.000006,0.000005,0.000012,0.000017,-0.000006,43.153190,0.000018,
2116,3103,-3.17047406519413,9.95135756748,0.0314870530411326,0.003081,-0.000548,0.007602,0.119583,0.038328,314.018194,24.503419,0.999834,0.995376,0.003017,0.408245,0.000009,0.000008,0.000006,0.000014,0.000002,42.966364,0.000018,
2131,2953,-2.82195957905394,6.69894798602069,0.00781110453829115,0.002935,-0.000102,0.006401,0.116158,0.049646,316.195926,24.492362,0.999644,0.991762,0.003602,0.440531,0.000004,-0.000014,0.000013,0.000011,-0.000021,28.004484,0.000021,
2206,2128,-1.05262174252497,-11.295910380335,0.0161039465465365,0.001717,-0.000787,-0.001746,0.083892,-0.001815,329.325984,23.640763,0.998922,0.981101,0.005315,0.443958,0.000227,0.000264,0.000041,0.000290,0.000201,57.407575,0.000494,
2476,3253,4.61575332344334,13.2361990906396,0.0150386797876649,0.003096,-0.000351,0.006611,0.117408,0.050532,311.016202,26.405465,0.999734,0.993019,0.003258,0.461766,0.000021,-0.000025,0.000005,0.000021,-0.000025,5.576264,0.000027,
2041,2803,-4.75294675435899,3.43758276364046,-0.0231335551429765,0.002885,-0.000173,0.003732,0.122620,0.037171,318.842822,24.366877,0.999312,0.990352,0.003840,0.417999,-0.000018,0.000013,-0.000003,0.000013,-0.000018,-84.221529,0.000019,
2326,2443,1.50630267952372,-4.39977344401409,-0.0113473480344624,0.002301,-0.000325,0.002262,0.097690,0.039774,323.844240,23.732261,0.999369,0.987566,0.004563,0.474370,0.000037,0.000042,0.000024,0.000064,0.000015,48.209603,0.000084,
2161,2068,-2.02444363889137,-12.6119287219184,0.0243219413338238,0.001174,-0.001987,0.000655,0.051092,-0.044339,330.464056,23.844523,0.999339,0.984285,0.004983,0.401929,0.000317,0.000318,0.000072,0.000389,0.000246,45.255706,0.000641,
2416,2803,3.39757228982076,3.45585032828962,-0.0224158916684019,0.002765,0.000044,0.001388,0.122060,0.045261,317.964723,24.688303,0.999345,0.987347,0.004529,0.445984,0.000021,0.000019,0.000019,0.000039,0.000001,44.116583,0.000045,
2311,2338,1.19923849541224,-6.69625901871299,-0.00163124870766751,0.002430,-0.001182,0.006030,0.090476,0.021189,325.625204,23.544039,0.999173,0.984319,0.004824,0.446611,0.000066,0.000080,0.000007,0.000083,0.000063,67.751458,0.000146,
2341,2458,1.83064333928275,-4.07207523789135,-0.0116600852502415,0.002425,-0.000778,0.000960,0.107661,0.008312,323.605177,23.738159,0.999481,0.987615,0.004390,0.435291,0.000037,0.000035,0.000027,0.000063,0.000009,43.759791,0.000078,
2011,2848,-5.41049225494339,4.41230367073538,-0.01370770950831,0.002650,-0.000609,0.006064,0.105643,0.028019,318.362781,24.226164,0.999700,0.994791,0.003380,0.485078,-0.000027,-0.000011,-0.000022,0.000005,-0.000043,-55.176942,0.000047,
2431,3253,3.63792526068357,13.2319815715196,0.0170091670183297,0.003203,-0.000507,0.009656,0.111731,0.045171,310.940676,26.192720,0.999581,0.992093,0.003521,0.428697,0.000030,-0.000022,-0.000002,0.000030,-0.000022,-2.367037,0.000031,
2161,3058,-2.18628643991454,8.97756959885884,0.0383389620350272,0.003136,-0.000145,0.005912,0.126469,0.035100,314.630672,24.608207,0.999684,0.994707,0.003350,0.446896,0.000013,-0.000012,0.000003,0.000013,-0.000013,6.664512,0.000015,
2281,2398,0.533991321083047,-5.38417324892941,-0.00506161306924469,0.002123,-0.001047,0.003416,0.085664,0.016309,324.650182,23.795659,0.999078,0.984732,0.005111,0.418686,0.000025,0.000075,0.000009,0.000076,0.000024,80.141422,0.000105,
2371,2638,2.44964462355614,-0.141380172279078,-0.0214723982647342,0.002742,-0.000314,0.002638,0.116469,0.036526,320.615101,24.191224,0.999235,0.987077,0.004418,0.439701,0.000029,0.000041,0.000012,0.000048,0.000021,58.098176,0.000071,
2251,2278,-0.0975424855072013,-8.01022316786812,0.00985495400004766,0.002154,-0.001258,0.004150,0.084772,-0.003541,326.758421,23.688604,0.999189,0.984696,0.004986,0.395876,0.000082,0.000078,0.000003,0.000084,0.000076,27.880932,0.000160,
2026,2893,-5.09182288564112,5.39146857037745,-0.00899855059338961,0.002497,-0.000231,0.005492,0.100130,0.048530,317.568863,24.314416,0.999195,0.991927,0.003755,0.407315,-0.000012,-0.000015,-0.000014,0.000000,-0.000028,-41.599318,0.000032,
2176,3103,-1.86984973145718,9.95585005344859,0.0273451730787997,0.002648,-0.000373,0.007501,0.098823,0.044053,313.722359,24.697636,0.999539,0.993514,0.003340,0.451351,0.000008,-0.000004,0.000003,0.000009,-0.000004,13.800442,0.000009,
2266,2458,0.195758500948354,-4.07121749770495,-0.019199306700898,0.002323,-0.000587,0.001267,0.102289,0.026379,323.598258,24.030485,0.999700,0.990353,0.004082,0.348666,0.000008,0.000045,0.000005,0.000046,0.000008,82.006480,0.000058,
2131,1993,-2.66773275669001,-14.2565151000415,0.0214843493308763,0.000135,-0.002172,-0.005023,0.020383,-0.087453,331.726045,23.999115,0.998981,0.979608,0.005508,0.347254,0.000427,0.000330,0.000071,0.000464,0.000292,27.890404,0.000763,
2266,2713,0.150609976276726,1.48821206860753,-0.0102430291245241,0.002354,-0.000420,0.005225,0.090844,0.029013,319.526546,24.424767,0.999692,0.992875,0.003589,0.404296,-0.000002,0.000026,-0.000002,0.000026,-0.000002,-84.951633,0.000029,
2086,3283,-3.84961879773325,13.8480368239006,0.0405725376885471,0.003092,-0.000627,0.008903,0.117028,0.034317,311.295850,24.328654,0.999635,0.995157,0.002904,0.435982,0.000029,-0.000021,0.000017,0.000034,-0.000026,17.143273,0.000035,
2011,3028,-5.43566474994963,8.31792526338189,0.0216115530270145,0.002785,-0.000627,0.007092,0.109280,0.046390,315.734764,24.147253,0.999567,0.992945,0.003514,0.431492,0.000015,-0.000011,0.000017,0.000023,-0.000020,26.165877,0.000025,
2431,3268,3.63419147087562,13.5577702924002,0.00820796760893927,0.003038,-0.000777,0.008201,0.109386,0.023383,310.617883,26.261800,0.999687,0.993004,0.003370,0.386310,0.000027,-0.000035,0.000000,0.000027,-0.000035,-0.413665,0.000037,
2476,3268,4.61244262344563,13.5622003483982,0.015317098992,0.003246,-0.000419,0.011899,0.104119,0.051494,310.758262,26.522119,0.999863,0.995012,0.002875,0.401079,0.000021,-0.000046,0.000006,0.000022,-0.000047,4.840411,0.000047,
2101,3208,-3.51212481539091,12.2252810835236,0.0485178388929626,0.002823,-0.000320,0.008758,0.104803,0.058271,312.501424,24.456843,0.999598,0.993743,0.003254,0.416914,0.000011,0.000010,0.000007,0.000017,0.000004,43.511415,0.000023,
2146,3223,-2.53888740113497,12.5536125617844,0.0476003382242993,0.003195,-0.000081,0.007362,0.125306,0.067843,312.068175,24.621127,0.999585,0.993677,0.003190,0.489213,0.000013,0.000009,0.000010,0.000021,0.000000,39.489169,0.000025,
2236,2158,-0.40389994294749,-10.6364849525024,0.00102981304195282,0.001799,-0.000144,-0.007401,0.106254,-0.001217,328.668883,23.575883,0.998740,0.981945,0.005311,0.386321,0.000194,0.000186,0.000029,0.000219,0.000161,41.325472,0.000381,
2071,2878,-4.11344939283132,5.0678150724356,-0.0139932469230644,0.002587,-0.000441,0.004672,0.105885,0.032321,317.514083,24.351350,0.999142,0.988873,0.004366,0.439191,0.000001,0.000003,-0.000004,0.000006,-0.000002,-51.758280,0.000006,
2056,2743,-4.41863877603475,2.13377626572644,-0.0304291764746836,0.002679,-0.000045,0.001924,0.118021,0.032318,319.663436,24.365356,0.999488,0.990479,0.003861,0.450172,-0.000008,0.000014,-0.000003,0.000014,-0.000008,-82.995938,0.000014,
2221,2083,-0.71820069782277,-12.2823811048903,0.013377023798796,0.001350,-0.001493,-0.002427,0.068999,-0.031955,329.974743,23.519422,0.999113,0.979081,0.005550,0.383537,0.000260,0.000308,0.000035,0.000326,0.000242,62.242495,0.000570,
2386,2863,2.73364954846178,4.7594329715037,-0.0118186640566478,0.002921,-0.000358,0.005492,0.114539,0.042383,317.038019,24.853552,0.999516,0.989059,0.003983,0.423420,-0.000001,0.000022,0.000011,0.000026,-0.000005,68.239639,0.000027,
2206,2338,-1.08926438657259,-6.69681481613062,0.00159447915740429,0.001988,-0.000842,0.001697,0.085586,0.001655,325.822914,23.977831,0.999467,0.988264,0.004398,0.378730,0.000054,0.000080,0.000004,0.000080,0.000053,80.744544,0.000134,
2281,2638,0.490254049860265,-0.144742408617674,-0.0196266047611857,0.002596,-0.000334,0.001951,0.112683,0.022178,320.666217,24.260987,0.999274,0.985311,0.004490,0.420829,-0.000001,0.000038,0.000007,0.000039,-0.000002,80.114018,0.000045,
2176,3238,-1.89117586165877,12.8815364737597,0.0433840667906225,0.003325,-0.000246,0.006597,0.133023,0.046843,311.682727,24.806909,0.999693,0.994503,0.003148,0.444554,-0.000001,-0.000001,0.000020,0.000019,-0.000021,44.770340,0.000023,
2431,3283,3.63115370584125,13.8830802132412,0.00351223477338181,0.003180,-0.000390,0.006083,0.123950,0.036657,310.346414,26.278846,0.999803,0.993705,0.003155,0.431291,0.000030,-0.000040,-0.000001,0.000030,-0.000041,-1.101531,0.000042,
2161,3178,-2.20714314417268,11.5802433725053,0.0419799774264789,0.002756,-0.000539,0.011436,0.092067,0.055763,312.665901,24.701398,0.999554,0.990925,0.003714,0.446014,0.000013,0.000003,0.000013,0.000022,-0.000006,34.406566,0.000022,
2416,2818,3.39491953020876,3.7816206642294,-0.0178405531113413,0.002744,-0.000200,0.002051,0.118571,0.035605,317.755274,24.707501,0.999255,0.987942,0.004419,0.464610,0.000016,0.000019,0.000017,0.000035,0.000000,47.432023,0.000040,
2236,2248,-0.419646184994996,-8.66637669650314,0.00535867915948529,0.002024,-0.000817,0.002006,0.086062,-0.002462,327.235185,23.690812,0.998697,0.980917,0.005500,0.412030,0.000110,0.000092,0.000011,0.000115,0.000087,24.851675,0.000203,
2011,2863,-5.41236957274036,4.73906701602991,-0.0140725553949324,0.003113,-0.000362,0.006927,0.124749,0.043724,318.134646,24.278921,0.999340,0.990942,0.004087,0.435774,-0.000019,-0.000021,-0.000021,0.000001,-0.000041,-43.126170,0.000047,
2476,3283,4.61045860723662,13.8865578768625,0.0245203801566731,0.003198,-0.000381,0.007823,0.117364,0.032353,310.602680,26.559119,0.999857,0.995602,0.002866,0.399895,0.000023,-0.000060,0.000007,0.000024,-0.000061,4.436412,0.000061,
2401,2803,3.07088623823241,3.4547440240468,-0.0220708677695143,0.002733,-0.000356,0.003369,0.113297,0.034300,317.942106,24.657398,0.999531,0.989648,0.004159,0.452513,0.000016,0.000021,0.000017,0.000036,0.000001,48.471401,0.000042,
2131,2968,-2.8245244220542,7.02472063658441,0.00827643264437938,0.002782,-0.000292,0.005837,0.110765,0.042414,315.950100,24.513808,0.999796,0.993737,0.003132,0.416835,0.000005,-0.000013,0.000008,0.000008,-0.000016,20.735317,0.000016,
2011,3043,-5.43760034639146,8.64267393857037,0.0226814650482083,0.003006,-0.000554,0.005879,0.122779,0.036310,315.513134,24.097908,0.999441,0.993067,0.003653,0.458016,0.000010,0.000001,0.000015,0.000022,-0.000010,36.367703,0.000022,
2041,2818,-4.75529350056234,3.7631874214369,-0.017964830283745,0.002658,-0.000183,0.005797,0.106459,0.056299,318.626455,24.340319,0.999123,0.990227,0.004014,0.455985,-0.000023,0.000018,-0.000006,0.000019,-0.000024,-82.157306,0.000025,
2431,3298,3.6275420402135,14.2081035406017,-0.00395429938669167,0.003120,-0.000283,0.005794,0.122256,0.031720,310.035565,26.277155,0.999793,0.993695,0.003127,0.476229,0.000034,-0.000038,-0.000010,0.000035,-0.000040,-7.641064,0.000043,
2116,3118,-3.17317795636463,10.2765986609128,0.0293857738768111,0.002899,-0.000257,0.006296,0.115218,0.055734,313.751277,24.473643,0.999793,0.995520,0.002936,0.457788,0.000006,0.000011,0.000004,0.000014,0.000004,60.147977,0.000018,
2086,3298,-3.85298552309275,14.1733990483999,0.0278921754473345,0.002910,-0.000426,0.007902,0.111610,0.041663,310.938451,24.309296,0.999585,0.994675,0.003005,0.460140,0.000035,-0.000002,0.000013,0.000039,-0.000006,17.543658,0.000042,
2206,2143,-1.05525712773736,-10.966585330643,0.0167159361276958,0.001766,-0.001381,0.000827,0.077854,-0.015025,329.083505,23.735500,0.999294,0.984012,0.004942,0.355721,0.000209,0.000221,0.000046,0.000262,0.000168,48.652159,0.000433,
2251,2293,-0.100548955148373,-7.6817915245245,0.00357656426126596,0.002010,-0.001081,0.001046,0.088373,-0.017162,326.467796,23.686262,0.999041,0.983584,0.005084,0.410416,0.000075,0.000082,0.000009,0.000088,0.000069,55.486129,0.000157,
2476,3298,4.60619551140595,14.2124529076051,0.0106305974361476,0.003026,-0.000340,0.006541,0.114367,0.031140,310.236054,26.598811,0.999581,0.993064,0.003563,0.414228,0.000019,-0.000056,0.000000,0.000019,-0.000056,-0.155802,0.000057,
2026,2908,-5.09321009496334,5.71633102371817,0.000405332387060753,0.002743,-0.000246,0.003846,0.116008,0.049459,317.419637,24.290432,0.999260,0.991554,0.003769,0.422153,-0.000008,-0.000034,-0.000007,-0.000006,-0.000036,-13.446953,0.000045,
2296,2563,0.830406554859945,-1.78042859347202,-0.00777202309211589,0.002109,-0.000882,0.006972,0.073036,0.023863,321.925423,24.132184,0.999063,0.986880,0.004815,0.386730,0.000012,0.000023,0.000009,0.000029,0.000007,60.034958,0.000038,
2131,2008,-2.66920831551122,-13.9284336019392,0.0236511139264621,0.000715,-0.001936,-0.007700,0.054995,-0.081496,331.538587,23.928596,0.999046,0.983007,0.005394,0.432807,0.000401,0.000335,0.000091,0.000464,0.000271,35.082553,0.000744,
2161,2083,-2.02663947452547,-12.2815212286945,0.0237497345678435,0.001270,-0.001264,-0.002362,0.064939,-0.028097,330.231402,23.972600,0.999283,0.983368,0.005145,0.303395,0.000299,0.000312,0.000071,0.000377,0.000235,47.641531,0.000617,
2281,2413,0.531530841308992,-5.05717894799854,0.000489576330267028,0.002193,-0.001282,0.006715,0.077761,0.007683,324.446291,23.814594,0.999309,0.986528,0.004685,0.420320,0.000021,0.000070,0.000007,0.000071,0.000020,81.778411,0.000095,
2146,3238,-2.5422569040608,12.8796194650801,0.0395759279868457,0.003027,-0.000366,0.009430,0.111233,0.062686,311.741061,24.682413,0.999617,0.993752,0.003172,0.429090,0.000015,-0.000004,0.000012,0.000020,-0.000010,25.538270,0.000020,
2056,2758,-4.42039209077718,2.45921473457449,-0.0202161577448692,0.002714,-0.000235,0.003409,0.115420,0.034506,319.503005,24.364755,0.999352,0.990034,0.004036,0.447429,-0.000005,0.000005,-0.000008,0.000009,-0.000009,-61.246701,0.000010,
2101,3223,-3.51411334942107,12.5493218407756,0.0544286689922728,0.003031,-0.000564,0.010532,0.109053,0.042272,312.310251,24.421961,0.999587,0.993642,0.003306,0.435685,0.000012,0.000008,0.000005,0.000015,0.000005,34.002048,0.000021,
2176,3118,-1.87170967292105,10.2808061445267,0.0321995981072973,0.002928,-0.000288,0.006076,0.116173,0.034357,313.535358,24.713232,0.999476,0.993174,0.003487,0.437395,0.000000,-0.000002,0.000003,0.000002,-0.000004,36.735401,0.000004,
2236,2413,-0.451110878900867,-5.0533693294386,-0.0278691822724682,0.001797,-0.000952,0.004076,0.069025,0.030172,324.275580,24.054069,0.999633,0.990680,0.003861,0.336349,0.000014,0.000070,-0.000005,0.000071,0.000014,-84.679288,0.000091,
2341,2473,1.8280144424563,-3.74450876744206,-0.00610717397802318,0.002360,-0.000570,0.003287,0.096686,0.041568,323.397256,23.787190,0.999455,0.987566,0.004336,0.457354,0.000035,0.000027,0.000025,0.000056,0.000005,40.293937,0.000068,
2266,2728,0.147393050040986,1.81562348205229,-0.0201768411827175,0.002591,-0.000450,0.005870,0.099670,0.045936,319.208247,24.423915,0.999464,0.990749,0.003836,0.448146,0.000004,0.000024,-0.000001,0.000024,0.000004,-86.018871,0.000031,
2176,3253,-1.89455303911116,13.2068051594721,0.036484726264348,0.003151,-0.000431,0.008902,0.117819,0.046928,311.364033,24.806432,0.999699,0.994606,0.003153,0.455751,0.000001,-0.000004,0.000022,0.000021,-0.000024,41.907226,0.000026,
2491,1993,5.20406743089412,-14.2686586141207,0.0302601202004098,0.004267,-0.002648,-0.004259,0.209984,-0.100591,331.786670,21.402471,0.998954,0.964501,0.007150,0.379663,0.000592,0.000464,-0.000106,0.000652,0.000404,-29.477568,0.001066,
2386,2878,2.73073306542527,5.08648826181204,-0.011660867495948,0.002834,-0.000093,0.004759,0.113280,0.047381,316.792900,24.958964,0.999503,0.991288,0.003749,0.365871,-0.000001,0.000009,0.000012,0.000017,-0.000008,56.722010,0.000017,
2071,2893,-4.11579887690969,5.39408739150817,-0.00977213940109323,0.002601,-0.000412,0.008766,0.094876,0.049466,317.294149,24.401017,0.999356,0.991636,0.003888,0.402989,-0.000002,-0.000007,-0.000005,0.000001,-0.000010,-32.711990,0.000011,
2446,1993,4.21717071047148,-14.266293941111,0.0239336032701658,0.003065,-0.003640,0.000561,0.136426,-0.126708,331.547741,21.769014,0.999357,0.975488,0.005826,0.308599,0.000564,0.000469,-0.000089,0.000617,0.000415,-31.004123,0.001039,
2011,3058,-5.43936039166887,8.96747530845226,0.0345052734198248,0.002910,-0.000271,0.007047,0.115242,0.046506,315.360060,24.106879,0.999197,0.992061,0.003683,0.446179,0.000009,0.000011,0.000019,0.000028,-0.000009,46.114059,0.000029,
2236,2263,-0.422027920735253,-8.33792486326908,0.00958111631211978,0.001995,-0.000864,0.002605,0.082774,0.012882,327.024937,23.757212,0.998910,0.982397,0.005432,0.384341,0.000098,0.000086,0.000009,0.000103,0.000081,28.293943,0.000185,
2371,2653,2.4459330417964,0.1854434162247,-0.0225467946020785,0.002298,-0.000924,0.006684,0.081514,0.040961,320.327401,24.199133,0.999288,0.986974,0.004515,0.477698,0.000022,0.000042,0.000014,0.000050,0.000015,62.947983,0.000068,
2101,1993,-3.3212876200632,-14.2561835178532,0.0353782477305344,0.000284,-0.001952,-0.003514,0.022552,-0.065643,331.973140,24.302563,0.999507,0.989814,0.004533,0.275485,0.000462,0.000298,0.000087,0.000499,0.000261,23.365133,0.000772,
2221,2098,-0.720199899231474,-11.954538705354,0.0190614567017064,0.001672,-0.002022,-0.000189,0.076475,-0.043284,329.788783,23.516928,0.999010,0.979346,0.005608,0.396322,0.000247,0.000295,0.000037,0.000315,0.000227,61.603365,0.000545,
2266,2473,0.193612433396307,-3.74610967219034,-0.00800544958957516,0.002137,-0.000671,0.002792,0.088700,0.028950,323.436269,23.936413,0.999765,0.991593,0.003878,0.471677,0.000010,0.000036,0.000008,0.000038,0.000008,74.744161,0.000050,
2011,2878,-5.41459981066469,5.06565913566361,-0.015594225768325,0.003118,0.000275,0.004853,0.130835,0.063163,317.883918,24.308186,0.999020,0.990257,0.004138,0.413583,-0.000002,-0.000018,-0.000016,0.000008,-0.000028,-31.817834,0.000029,
2491,2008,5.20098257026925,-13.9383690165375,0.026933831598285,0.004267,-0.001879,-0.007768,0.223744,-0.092723,331.530685,21.472965,0.999212,0.970686,0.006445,0.379615,0.000566,0.000413,-0.000095,0.000611,0.000367,-25.553142,0.000989,
2026,2923,-5.09575160523105,6.04213385523047,0.00137402384530105,0.002583,0.000035,0.006190,0.102275,0.067320,317.170073,24.278984,0.999392,0.991956,0.003676,0.440914,-0.000007,-0.000038,-0.000004,-0.000006,-0.000038,-6.749018,0.000048,
2161,3193,-2.20970379553842,11.9047225403704,0.0399999956738952,0.002690,-0.000592,0.008639,0.097547,0.036744,312.409851,24.658705,0.999616,0.993351,0.003322,0.478419,0.000013,0.000000,0.000012,0.000019,-0.000007,31.100987,0.000020,
2236,2428,-0.452364892609676,-4.72844406231489,-0.0156260261085208,0.002182,-0.000796,0.002755,0.091034,0.022429,324.158266,23.951155,0.999442,0.989499,0.004146,0.453451,0.000011,0.000047,-0.000007,0.000048,0.000010,-79.599894,0.000062,
2056,2773,-4.4226875061246,2.78487084398718,-0.0146140583889292,0.002362,-0.000184,0.002775,0.101021,0.033325,319.292297,24.354513,0.999074,0.988021,0.004371,0.450997,-0.000003,0.000009,-0.000004,0.000010,-0.000005,-71.843788,0.000010,
2491,2023,5.19820014877351,-13.6089326223779,0.0369618054191392,0.003874,-0.001521,-0.006210,0.200021,-0.060932,331.348210,21.598811,0.999215,0.970634,0.006358,0.347988,0.000544,0.000441,-0.000107,0.000612,0.000373,-32.116855,0.000995,
2131,2023,-2.6725164415981,-13.5962655028095,0.0147607493110513,0.000806,-0.002067,-0.001333,0.040152,-0.045410,331.207989,24.080836,0.998972,0.982959,0.005433,0.326391,0.000376,0.000337,0.000086,0.000444,0.000269,38.674002,0.000720,
2176,3268,-1.89832864174029,13.5324507502808,0.0199016308501427,0.002974,-0.000502,0.007335,0.114462,0.030799,310.975929,24.808217,0.999605,0.993633,0.003313,0.448492,0.000004,-0.000008,0.000025,0.000024,-0.000028,38.269287,0.000030,
2401,2818,3.06830583032218,3.78127875117437,-0.0200677102118902,0.002674,-0.000197,0.000325,0.121734,0.041729,317.722653,24.710002,0.999440,0.988549,0.004384,0.452571,0.000012,0.000021,0.000016,0.000032,0.000000,53.113110,0.000037,
2206,2353,-1.09186032492392,-6.36940245097735,0.000263158830364318,0.002053,-0.000674,0.001980,0.087774,0.024520,325.572093,23.916228,0.999624,0.989257,0.004277,0.481570,0.000046,0.000075,-0.000001,0.000075,0.000046,-88.749002,0.000122,
2101,3238,-3.51663219015042,12.8744662296663,0.0476261393354775,0.003256,-0.000410,0.008132,0.126510,0.037572,312.025287,24.408635,0.999638,0.994194,0.003142,0.444426,0.000013,-0.000005,0.000008,0.000016,-0.000008,20.153326,0.000016,
2146,3253,-2.54505492794166,13.2048054773403,0.0304397355805008,0.003227,-0.000197,0.007317,0.126885,0.052337,311.434578,24.671803,0.999620,0.993371,0.003236,0.435831,0.000018,-0.000008,0.000014,0.000024,-0.000014,23.362154,0.000024,
2101,2008,-3.32343021932483,-13.929785618727,0.0388237394039379,0.000385,-0.002363,-0.000968,0.019673,-0.078706,331.760020,24.110932,0.999594,0.990609,0.004498,0.458859,0.000431,0.000324,0.000104,0.000494,0.000261,31.304523,0.000767,
2176,3283,-1.90111986826759,13.8577815962929,0.0160462551938281,0.002902,-0.000317,0.005482,0.116955,0.034698,310.700083,24.836201,0.999710,0.994480,0.003089,0.435292,0.000005,-0.000008,0.000034,0.000033,-0.000036,39.303985,0.000040,
2026,2938,-5.09820306170448,6.36759338518202,0.00310636666768005,0.002551,-0.000425,0.009874,0.090529,0.055908,316.929093,24.274572,0.999144,0.990810,0.003967,0.423524,-0.000007,-0.000041,-0.000001,-0.000007,-0.000041,-1.499944,0.000052,
2011,3073,-5.44194978843365,9.29260731403354,0.0300573214337305,0.002911,-0.000633,0.007518,0.113960,0.047140,315.077315,24.053740,0.999304,0.993125,0.003550,0.487223,0.000007,0.000027,0.000021,0.000040,-0.000007,57.427190,0.000043,
2161,2098,-2.02882258086221,-11.9531942233212,0.0212741821570148,0.001634,-0.001095,-0.003259,0.084463,-0.032740,329.989762,23.916604,0.999499,0.983872,0.005088,0.367979,0.000284,0.000301,0.000074,0.000366,0.000218,48.210510,0.000591,
2371,2668,2.44320659695098,0.512649154509027,-0.0238666742949363,0.002244,-0.000408,0.002870,0.092767,0.028150,320.083679,24.261909,0.999407,0.988205,0.004414,0.443753,0.000021,0.000044,0.000009,0.000047,0.000017,70.762526,0.000066,
2176,3133,-1.87384922385033,10.6063346356888,0.0369331229680938,0.002940,-0.000171,0.004641,0.121285,0.049224,313.334652,24.759604,0.999421,0.993040,0.003611,0.417045,-0.000001,-0.000001,0.000004,0.000003,-0.000005,42.899069,0.000005,
2221,2113,-0.723112848199865,-11.6257723042286,0.0205159535237271,0.001354,-0.001675,0.001709,0.055979,-0.044149,329.539248,23.546988,0.998988,0.980222,0.005442,0.387314,0.000235,0.000280,0.000034,0.000299,0.000217,61.563205,0.000518,
2071,2908,-4.11787870834234,5.71960006937795,-0.0098622830870454,0.002804,-0.000272,0.007260,0.108589,0.055145,317.063226,24.364937,0.999532,0.992139,0.003630,0.441265,0.000000,-0.000024,-0.000001,0.000000,-0.000024,-2.234950,0.000028,
2011,2893,-5.41708243844747,5.39086346861919,-0.0134831218381919,0.002674,0.000086,0.003056,0.115138,0.043640,317.642618,24.279694,0.999173,0.992006,0.003720,0.410306,0.000002,-0.000030,-0.000017,0.000010,-0.000037,-23.712882,0.000039,
2146,3268,-2.54768950576402,13.5297774009729,0.0281165562324759,0.003217,-0.000252,0.006325,0.129365,0.043095,311.171959,24.682890,0.999617,0.994063,0.003174,0.421996,0.000022,-0.000009,0.000016,0.000030,-0.000016,23.277708,0.000030,
2446,2008,4.21500505432356,-13.9387350367913,0.0326369073893602,0.003056,-0.003229,-0.000967,0.141867,-0.113483,331.384788,21.722017,0.999437,0.975840,0.005828,0.424318,0.000539,0.000432,-0.000076,0.000578,0.000393,-27.399722,0.000977,
2266,2743,0.145257432766339,2.14208329739796,-0.0204584053253711,0.003036,-0.000264,0.004131,0.125970,0.051848,318.988327,24.429310,0.999260,0.987954,0.004189,0.474249,0.000004,0.000022,0.000004,0.000023,0.000003,78.147879,0.000028,
2341,2488,1.82554144011102,-3.41794065611607,-0.00317741391012305,0.002414,-0.000583,0.002571,0.101650,0.034120,323.184074,23.765447,0.999423,0.987032,0.004335,0.509314,0.000030,0.000019,0.000018,0.000044,0.000005,36.726558,0.000054,
2116,3133,-3.1756322522019,10.6024439835933,0.0265358382060299,0.003272,-0.000417,0.008901,0.124610,0.045813,313.491577,24.526296,0.999860,0.996897,0.002653,0.397580,0.000009,0.000007,0.000003,0.000011,0.000005,36.487363,0.000017,
2206,2368,-1.09437401720796,-6.04049880177431,-0.00362598677799042,0.002415,-0.000442,0.002641,0.102391,0.029901,325.311620,23.988802,0.999438,0.987734,0.004507,0.432935,0.000037,0.000075,-0.000003,0.000075,0.000037,-85.310377,0.000114,
2491,2038,5.1947973853565,-13.2800147695671,0.0359019789108856,0.003559,-0.001130,-0.007304,0.189977,-0.064255,331.087775,21.592030,0.999219,0.971326,0.006416,0.413869,0.000520,0.000428,-0.000114,0.000598,0.000351,-34.041280,0.000959,
2296,2578,0.827927396983146,-1.45273628053674,-0.0126260507644815,0.002356,-0.000317,0.002045,0.101279,0.044995,321.669542,24.144070,0.999335,0.989044,0.004251,0.427051,0.000010,0.000034,0.000008,0.000037,0.000008,73.824658,0.000048,
2386,2893,2.72795636268312,5.41214515427764,-0.0128336307776067,0.002759,0.000180,0.001149,0.122950,0.061731,316.548181,24.920954,0.999494,0.991991,0.003710,0.461366,0.000004,-0.000001,0.000013,0.000014,-0.000012,39.114084,0.000015,
2251,2308,-0.102755607296704,-7.35293926294275,0.00177966778699101,0.002165,-0.000178,-0.004586,0.114247,0.008165,326.236118,23.734115,0.998545,0.979927,0.005571,0.413287,0.000069,0.000084,0.000012,0.000091,0.000062,59.976449,0.000154,
2161,3208,-2.21162703144216,12.2301437782986,0.0430727677534151,0.002960,-0.000115,0.006358,0.117214,0.052522,312.209434,24.701411,0.999572,0.993831,0.003235,0.460209,0.000012,0.000002,0.000013,0.000021,-0.000007,35.194266,0.000022,
2056,2788,-4.42534533385019,3.11217246980279,-0.0201407456889342,0.002490,-0.000103,0.004597,0.101878,0.052197,319.003092,24.392750,0.999183,0.988882,0.004186,0.426509,-0.000011,0.000016,-0.000007,0.000018,-0.000012,-76.086048,0.000019,
2176,3298,-1.90415653583505,14.1828181812969,0.00901785623540263,0.002986,-0.000537,0.006371,0.117966,0.020880,310.396354,24.841901,0.999814,0.996110,0.002649,0.426467,0.000002,0.000011,0.000027,0.000034,-0.000021,49.496135,0.000035,
2266,2488,0.19050421294348,-3.41887411773416,-0.0150168078658339,0.002387,-0.001158,0.005258,0.091878,0.013183,323.138458,23.892318,0.999715,0.990665,0.003961,0.527061,0.000009,0.000027,0.000002,0.000027,0.000009,82.759345,0.000038,
2101,3253,-3.519352441789,13.2004021630751,0.0460302268355122,0.003181,-0.000027,0.009339,0.119765,0.078562,311.759012,24.456538,0.999698,0.995231,0.002935,0.437074,0.000015,-0.000013,0.000008,0.000018,-0.000015,15.383894,0.000019,
2011,3088,-5.44384053857383,9.61774375056206,0.036260354377589,0.002955,-0.000512,0.007547,0.116022,0.061231,314.886561,24.059772,0.999595,0.994811,0.003078,0.482345,0.000001,0.000028,0.000013,0.000033,-0.000005,67.551644,0.000036,
2236,2278,-0.425030444896585,-8.00986792979172,0.00444423382168679,0.002139,-0.001542,0.005087,0.081152,-0.006490,326.738948,23.732135,0.999003,0.983835,0.005083,0.413635,0.000088,0.000080,0.000005,0.000090,0.000077,27.634982,0.000168,
2101,2023,-3.32657863737554,-13.5968949078143,0.0242143662354692,0.000495,-0.001456,-0.001187,0.025649,-0.040056,331.402608,24.260150,0.999294,0.985874,0.005140,0.353938,0.000403,0.000313,0.000093,0.000462,0.000254,32.241195,0.000726,
2146,3283,-2.55099652783727,13.8553041218371,0.018603229242558,0.003082,-0.000161,0.006410,0.122960,0.048123,310.839892,24.695890,0.999574,0.994050,0.003205,0.420209,0.000025,-0.000007,0.000025,0.000039,-0.000021,28.514045,0.000039,
2026,2953,-5.09918139262623,6.69310408670325,0.00473894832981614,0.003296,0.000162,0.001846,0.147139,0.051740,316.755060,24.270682,0.999370,0.992163,0.003598,0.413181,-0.000004,-0.000043,0.000002,-0.000004,-0.000043,2.526401,0.000053,
2011,2908,-5.41849875490656,5.71655518903817,-0.00925549736155062,0.003041,0.000471,-0.000956,0.143214,0.073183,317.461839,24.266148,0.999201,0.991833,0.003699,0.441006,0.000004,-0.000046,-0.000009,0.000006,-0.000047,-9.678271,0.000052,
2191,1993,-1.35732031471061,-14.2586540844522,0.0256135080826425,0.000874,-0.001927,-0.003793,0.051144,-0.067085,331.583133,23.559514,0.999480,0.984615,0.004982,0.384817,0.000387,0.000353,0.000039,0.000413,0.000327,33.254817,0.000741,
2491,2053,5.18992981349003,-12.9469566612798,0.0144825759676337,0.003777,-0.001411,-0.005389,0.192573,-0.073405,330.668684,21.747198,0.999208,0.977246,0.005813,0.312581,0.000493,0.000399,-0.000110,0.000566,0.000327,-33.478610,0.000903,
2401,2833,3.06542148864662,4.10785009756292,-0.019305593704587,0.003102,-0.000689,0.005980,0.120681,0.028927,317.483333,24.780975,0.999316,0.987842,0.004353,0.414307,0.000004,0.000029,0.000017,0.000038,-0.000005,63.028575,0.000041,
2341,2503,1.82185055629942,-3.08978709260722,-0.0117452782755549,0.002148,-0.000757,0.002005,0.091350,0.027357,322.858969,23.788482,0.999345,0.986438,0.004432,0.517586,0.000023,0.000019,0.000016,0.000037,0.000005,41.738688,0.000046,
2011,3103,-5.44592528391125,9.94319606268729,0.0363772842139269,0.003010,-0.000178,0.004913,0.125829,0.062325,314.652577,24.072680,0.999580,0.994645,0.003080,0.457355,0.000005,0.000040,0.000018,0.000048,-0.000003,66.886762,0.000054,
2056,1993,-4.30427720891078,-14.2548381406425,0.0223015594431786,-0.000414,-0.001961,-0.003191,-0.010705,-0.074646,332.059199,24.490408,0.998823,0.979872,0.005563,0.394875,0.000479,0.000272,0.000132,0.000543,0.000208,25.994553,0.000776,
2446,2023,4.21207291708614,-13.6076929088069,0.029101566901204,0.003365,-0.002845,-0.001809,0.159280,-0.088786,331.130295,21.847167,0.999331,0.978664,0.005444,0.379782,0.000510,0.000433,-0.000084,0.000564,0.000380,-32.597199,0.000950,
2371,2683,2.43994087104865,0.84087220569905,-0.0354049819967486,0.002826,-0.000502,0.003853,0.116007,0.032733,319.765986,24.321304,0.999426,0.988525,0.004174,0.430610,0.000022,0.000051,0.000005,0.000052,0.000021,79.969862,0.000075,
2071,2923,-4.11947748529154,6.04445401140855,-0.00253752884077585,0.003002,-0.000380,0.005352,0.123158,0.046996,316.895285,24.339077,0.999401,0.991446,0.003759,0.455364,0.000000,-0.000029,0.000003,0.000001,-0.000029,6.246932,0.000033,
2101,3268,-3.52164380863491,13.5251411128534,0.0419173417936349,0.003476,-0.000039,0.007105,0.139875,0.060254,311.499257,24.443196,0.999747,0.996124,0.002805,0.432196,0.000019,-0.000018,0.000011,0.000022,-0.000021,15.337231,0.000025,
2191,2188,-1.39073773902448,-9.98007776479092,0.0144329696325372,0.001329,-0.001083,0.003496,0.049648,0.023926,328.353762,23.859999,0.998702,0.977702,0.005689,0.405781,0.000172,0.000154,0.000030,0.000194,0.000132,36.792898,0.000328,
2221,2128,-0.72548742802579,-11.2959251879313,0.0192214795286532,0.001363,-0.000491,-0.002225,0.069372,0.005493,329.299853,23.600575,0.998837,0.978728,0.005545,0.405659,0.000221,0.000263,0.000034,0.000282,0.000202,61.017916,0.000487,
2161,3223,-2.21396681453971,12.5548553186923,0.0472980766710407,0.002932,-0.000276,0.006957,0.114041,0.054290,311.996247,24.702684,0.999632,0.994137,0.003169,0.469696,0.000013,0.000006,0.000011,0.000021,-0.000002,36.914534,0.000023,
2206,2383,-1.09750571259213,-5.71302255124161,-0.00304523044070493,0.002160,-0.001027,0.007822,0.074080,0.023744,325.046177,23.991116,0.999190,0.985933,0.004652,0.443007,0.000026,0.000073,-0.000001,0.000073,0.000026,-88.214145,0.000103,
2191,2008,-1.36004230478703,-13.9304070150326,0.0229200022568534,0.000998,-0.002759,-0.001384,0.049012,-0.091821,331.318716,23.480426,0.999314,0.983862,0.005112,0.457496,0.000367,0.000345,0.000050,0.000407,0.000305,38.914796,0.000714,
2146,3298,-2.55357799874677,14.179440191831,0.0212381207082899,0.003011,-0.000312,0.008624,0.112878,0.042177,310.606440,24.661768,0.999615,0.995040,0.002919,0.454767,0.000028,0.000008,0.000020,0.000040,-0.000004,31.875944,0.000044,
2101,2038,-3.32978763555993,-13.2680819146077,0.0119583939181211,0.000328,-0.001598,-0.002102,0.020529,-0.002020,331.055707,24.072796,0.999408,0.985298,0.005214,0.584599,0.000377,0.000312,0.000093,0.000444,0.000246,35.409438,0.000699,
2056,2803,-4.42761570209535,3.43886546732041,-0.0251085166560188,0.002764,0.000093,0.003043,0.118927,0.050473,318.734958,24.405075,0.999164,0.990066,0.004106,0.406952,-0.000005,0.000014,-0.000004,0.000015,-0.000006,-79.345205,0.000015,
2266,2758,0.141704217274597,2.46986620504943,-0.0290839974234132,0.002855,0.000042,0.004917,0.115182,0.065803,318.660973,24.487066,0.999264,0.988147,0.004202,0.456274,0.000003,0.000023,0.000007,0.000025,0.000001,72.738917,0.000029,
2056,2008,-4.30604293022981,-13.9260010395363,0.0264855489740512,-0.000188,-0.001968,-0.002902,-0.001139,-0.083038,331.863337,24.524411,0.998814,0.980337,0.005626,0.350515,0.000458,0.000327,0.000146,0.000552,0.000232,32.941592,0.000806,
2296,2593,0.826722743996189,-1.1270021993762,-0.00126507182869773,0.002981,-0.000063,0.001289,0.132617,0.035446,321.552906,24.152722,0.999601,0.991646,0.003680,0.439181,0.000009,0.000030,0.000007,0.000032,0.000007,72.798763,0.000042,
2266,2503,0.188106775526993,-3.0898295648331,-0.0154406836513772,0.002443,-0.000362,0.001677,0.106557,0.026763,322.905753,24.050196,0.999722,0.991491,0.003931,0.409429,0.000006,0.000026,0.000007,0.000028,0.000003,72.168222,0.000035,
2386,2908,2.72414020796159,5.73848752754638,-0.0162870610444088,0.002658,-0.000740,0.008065,0.093105,0.037372,316.244612,24.972869,0.999433,0.990528,0.003924,0.427777,0.000005,-0.000001,0.000013,0.000016,-0.000012,37.937688,0.000016,
2446,2038,4.20889413941142,-13.2781223775096,0.0308251729634321,0.003064,-0.002323,-0.001674,0.145246,-0.062337,330.888618,21.901597,0.999219,0.978041,0.005637,0.407592,0.000484,0.000408,-0.000085,0.000539,0.000352,-32.915825,0.000898,
2491,2068,5.18619602012295,-12.6171302871708,0.00952588179649183,0.003717,-0.001652,-0.003541,0.182668,-0.049570,330.375212,21.765676,0.999368,0.979114,0.005664,0.380596,0.000465,0.000406,-0.000106,0.000546,0.000325,-37.244739,0.000881,
2071,2938,-4.12154536520276,6.37014489810608,-0.000707270560155848,0.002992,-0.000129,0.002085,0.132143,0.051895,316.675420,24.341626,0.999373,0.990749,0.003799,0.453987,0.000000,-0.000027,0.000004,0.000001,-0.000028,8.636712,0.000032,
2101,3283,-3.52514721545332,13.8495371997882,0.0337295773577466,0.003103,-0.000561,0.009284,0.116042,0.031662,311.161829,24.390732,0.999732,0.996393,0.002710,0.455744,0.000023,-0.000016,0.000022,0.000033,-0.000026,23.994464,0.000035,
2161,3238,-2.21676813246094,12.8804157713453,0.0407498199862175,0.003141,-0.000241,0.007202,0.122923,0.047335,311.704528,24.733213,0.999685,0.994171,0.003144,0.440735,0.000013,-0.000004,0.000013,0.000020,-0.000011,28.479799,0.000020,
2191,2023,-1.36236322616826,-13.6001243979365,0.024122044141393,0.001125,-0.002206,-0.001049,0.053981,-0.061211,331.092179,23.581306,0.998956,0.983526,0.005176,0.405197,0.000350,0.000352,0.000051,0.000402,0.000300,45.595772,0.000705,
2056,2023,-4.30830038821611,-13.5950768861256,0.0172507474621852,0.000282,-0.001490,-0.004222,0.024224,-0.032814,331.570830,24.543591,0.998588,0.982488,0.005480,0.380152,0.000430,0.000285,0.000130,0.000506,0.000209,30.487248,0.000735,
2056,2818,-4.42986238850322,3.764469882751,-0.0199308568712127,0.002676,0.000002,0.005366,0.108338,0.071061,318.524162,24.377573,0.999115,0.989356,0.004199,0.449596,-0.000009,0.000022,-0.000004,0.000022,-0.000009,-82.194155,0.000022,
2221,2143,-0.727956110261456,-10.9675052550928,0.0181957129484545,0.001687,-0.001097,-0.000080,0.077151,-0.003617,329.058010,23.591068,0.998959,0.981733,0.005279,0.427686,0.000204,0.000220,0.000041,0.000253,0.000170,50.600803,0.000426,
2446,2053,4.20598389751884,-12.9495970757335,0.0321336468613822,0.003205,-0.002660,0.000213,0.144596,-0.073610,330.657545,21.898970,0.999105,0.978518,0.005623,0.454391,0.000458,0.000382,-0.000080,0.000508,0.000332,-32.227334,0.000846,
2341,2518,1.81915697510749,-2.76124784398876,-0.0116846691790897,0.002143,-0.000282,0.000398,0.096924,0.028594,322.621249,23.922561,0.999083,0.983555,0.004754,0.422475,0.000021,0.000007,0.000016,0.000032,-0.000004,33.935295,0.000035,
2401,2848,3.063024770074,4.43337033709194,-0.0116715817101181,0.003100,-0.000561,0.007032,0.116840,0.032546,317.299035,24.794464,0.999455,0.989560,0.004099,0.449633,0.000000,0.000026,0.000015,0.000033,-0.000007,65.700870,0.000035,
2101,2053,-3.33138281948809,-12.9379906728373,0.0219494009460277,0.000460,-0.001179,-0.001658,0.025478,-0.000872,330.902138,24.293466,0.998985,0.973431,0.006208,0.369399,0.000353,0.000305,0.000089,0.000422,0.000237,37.386179,0.000667,
2161,1993,-2.01241681421302,-14.2556130054348,0.0200431615962202,0.000772,-0.001482,-0.006990,0.056107,-0.064213,331.636073,23.905432,0.999032,0.982077,0.005308,0.253134,0.000431,0.000347,0.000065,0.000466,0.000312,28.613827,0.000783,
2266,2773,0.139219955182948,2.7957135060376,-0.0228135792024773,0.002570,-0.000343,0.004414,0.103544,0.033531,318.458162,24.535277,0.999204,0.987402,0.004284,0.401230,0.000001,0.000017,0.000005,0.000019,-0.000001,72.750899,0.000021,
2206,2398,-1.09917155875427,-5.38430678776599,-0.00570461261185073,0.002728,-0.000126,0.000453,0.123810,0.038308,324.830808,24.059793,0.999353,0.988176,0.004435,0.407299,0.000020,0.000073,-0.000006,0.000074,0.000020,-84.104756,0.000099,
2101,3298,-3.52813507981396,14.1747742815251,0.0249635669953818,0.003010,-0.000234,0.007165,0.118155,0.051649,310.844586,24.369052,0.999534,0.994564,0.003164,0.497132,0.000029,0.000002,0.000018,0.000038,-0.000007,26.493624,0.000041,
2056,2038,-4.31056656320897,-13.2655912542037,0.0126786729845207,0.000520,-0.000991,-0.004379,0.035779,-0.026172,331.303973,24.534370,0.998408,0.980619,0.005618,0.394287,0.000405,0.000276,0.000125,0.000481,0.000200,31.295638,0.000700,
2371,2698,2.43739293645128,1.16647784498718,-0.0285213801480495,0.002577,-0.000532,0.003484,0.105835,0.024151,319.569916,24.310295,0.999395,0.989958,0.003850,0.474464,0.000019,0.000050,0.000007,0.000051,0.000018,77.649635,0.000072,
2071,2953,-4.12446545547598,6.69601449506047,-0.00270468452544037,0.002721,-0.000210,0.004432,0.112898,0.045838,316.395451,24.348842,0.999172,0.991481,0.003819,0.436967,0.000004,-0.000027,0.000005,0.000005,-0.000027,9.029090,0.000029,
2491,2083,5.18371010533462,-12.2890244595852,0.0133291630822896,0.003705,-0.001303,-0.007034,0.195649,-0.072073,330.178478,21.776082,0.999399,0.978509,0.005562,0.409434,0.000435,0.000375,-0.000102,0.000512,0.000298,-36.742781,0.000819,
2056,2833,-4.43203723315766,4.0897115872887,-0.0119757774952518,0.002571,-0.000553,0.008989,0.093098,0.049846,318.332203,24.382955,0.998799,0.986700,0.004587,0.417138,-0.000007,0.000015,-0.000011,0.000019,-0.000012,-67.201574,0.000020,
2191,2038,-1.36560663823207,-13.268590510545,0.0131169462695198,0.000996,-0.001809,-0.003315,0.055294,-0.055073,330.760294,23.689106,0.999042,0.985650,0.004879,0.322108,0.000332,0.000347,0.000048,0.000388,0.000291,49.670445,0.000681,
2161,3253,-2.22035865163479,13.2058031329498,0.0283438898905501,0.002960,-0.000236,0.007532,0.113592,0.051701,311.345581,24.708578,0.999658,0.994075,0.003195,0.478383,0.000015,-0.000008,0.000016,0.000023,-0.000016,27.573791,0.000024,
2296,2608,0.82269922203449,-0.798376870837622,-0.0112593317431902,0.002628,-0.000181,0.003871,0.107694,0.059494,321.200410,24.213026,0.999416,0.989791,0.003999,0.433969,0.000004,0.000024,0.000008,0.000027,0.000001,70.358170,0.000032,
2446,2068,4.20235326407104,-12.6191624281443,0.0287325902252178,0.002950,-0.002348,0.001223,0.129348,-0.061436,330.371539,22.000231,0.998897,0.977430,0.005900,0.421153,0.000431,0.000381,-0.000075,0.000485,0.000327,-35.747969,0.000818,
2161,2008,-2.0149948582373,-13.9276649998152,0.0238679051480517,0.000805,-0.002013,-0.000490,0.037633,-0.038510,331.409339,23.822784,0.998996,0.984230,0.005076,0.375285,0.000405,0.000345,0.000078,0.000458,0.000292,34.526695,0.000756,
2221,2158,-0.730483665219172,-10.6371384043407,0.00875351453072426,0.001914,0.000098,-0.006938,0.109869,0.028123,328.769962,23.634072,0.998918,0.984328,0.005200,0.438415,0.000193,0.000181,0.000035,0.000222,0.000152,40.486247,0.000376,
2056,2053,-4.31285811450469,-12.9359735594902,0.00926874408384037,0.000537,-0.000412,-0.006642,0.043085,-0.023746,331.042335,24.560456,0.997784,0.976780,0.006085,0.368861,0.000381,0.000279,0.000111,0.000452,0.000208,32.713725,0.000675,
2101,2068,-3.33299738907924,-12.6098833735985,0.0185175217612255,0.001158,-0.001088,-0.005210,0.067875,-0.019295,330.675910,24.208343,0.999044,0.949682,0.008548,0.440545,0.000334,0.000299,0.000091,0.000409,0.000225,39.599035,0.000642,
2056,2848,-4.43431789047663,4.41561354539483,-0.0151606042800267,0.002597,-0.000277,0.005304,0.104797,0.048912,318.073723,24.348769,0.999224,0.990188,0.003997,0.444959,-0.000006,-0.000002,-0.000011,0.000007,-0.000015,-49.763532,0.000015,
2401,2863,3.06007030503411,4.76055572999478,-0.0148123451151605,0.003150,-0.000231,0.004905,0.127027,0.043390,317.037750,24.877404,0.999463,0.989601,0.003978,0.422831,-0.000003,0.000021,0.000012,0.000026,-0.000008,66.787820,0.000027,
2206,2413,-1.1006687689257,-5.05713130450622,0.0111492784752727,0.002639,0.000168,0.000699,0.119095,0.062423,324.723953,24.168687,0.999589,0.990812,0.004063,0.340106,0.000019,0.000063,-0.000007,0.000064,0.000018,-81.420801,0.000087,
2071,2968,-4.1271565646781,7.02134777554895,-0.00153642942154875,0.002572,-0.000609,0.008193,0.095169,0.045134,316.143532,24.327728,0.998976,0.990672,0.003999,0.453423,0.000002,-0.000025,-0.000001,0.000002,-0.000025,-2.721621,0.000028,
2491,2098,5.18233366669605,-11.9616084308208,0.0348791514798563,0.003727,-0.001286,-0.005642,0.191354,-0.080237,330.112058,21.908535,0.999600,0.983714,0.005023,0.329870,0.000407,0.000348,-0.000105,0.000486,0.000268,-37.208228,0.000765,
2191,2053,-1.36848855394216,-12.9399791870847,0.0116982312639493,0.000875,-0.001769,-0.000883,0.042201,-0.039361,330.494826,23.635063,0.999062,0.982410,0.005193,0.409923,0.000313,0.000329,0.000048,0.000370,0.000272,49.666391,0.000645,
2161,2023,-2.01772780523856,-13.598582872598,0.0233528262904201,0.000635,-0.002034,0.000816,0.025829,-0.024947,331.152700,23.811495,0.998698,0.983326,0.005227,0.413855,0.000380,0.000352,0.000074,0.000441,0.000291,39.583216,0.000737,
2266,2788,0.136896273345815,3.12152637772897,-0.0202861621087891,0.002671,-0.000449,0.003309,0.111847,0.031586,318.243822,24.524559,0.999240,0.987633,0.004372,0.435533,0.000004,0.000020,0.000008,0.000024,0.000001,66.568368,0.000028,
2371,2713,2.43463567517155,1.49403668598566,-0.0282368858149766,0.002621,-0.000254,0.002866,0.110199,0.037165,319.332117,24.407208,0.999483,0.990575,0.003806,0.431739,0.000015,0.000043,0.000006,0.000045,0.000014,79.077137,0.000061,
2341,2533,1.81642650837394,-2.43383521325126,-0.0124988149416367,0.002365,-0.000246,0.001430,0.103523,0.035763,322.377748,23.944463,0.999179,0.984195,0.004769,0.445393,0.000022,0.000004,0.000015,0.000030,-0.000005,29.017102,0.000033,
2056,2068,-4.3150680780643,-12.6072046358012,0.00986865495434586,0.000723,-0.000971,-0.003518,0.042722,-0.036459,330.806646,24.574687,0.998562,0.978583,0.005606,0.339862,0.000359,0.000285,0.000109,0.000437,0.000207,35.584247,0.000658,
2221,2173,-0.73268479650115,-10.309592123168,0.0108029929301097,0.002101,-0.000146,-0.007420,0.119927,-0.006677,328.556273,23.614575,0.998958,0.983624,0.005135,0.444734,0.000178,0.000159,0.000030,0.000200,0.000137,35.796878,0.000339,
2296,2623,0.819343811909068,-0.471583637741617,-0.0174805011491799,0.002328,-0.000210,0.002021,0.100099,0.033714,320.897752,24.193170,0.999351,0.988644,0.004105,0.458837,0.000003,0.000044,0.000006,0.000045,0.000003,81.492305,0.000053,
2056,2863,-4.43586285520022,4.74093109119263,-0.00922577799144619,0.002870,-0.000158,0.002761,0.124542,0.034540,317.899491,24.346447,0.999263,0.990746,0.003940,0.427030,-0.000005,-0.000006,-0.000012,0.000006,-0.000017,-43.244751,0.000018,
2491,2113,5.17910617921502,-11.6335108496699,0.0394960905603057,0.003288,-0.001201,-0.004586,0.167291,-0.049929,329.884562,21.882898,0.999616,0.983859,0.004994,0.447968,0.000381,0.000342,-0.000096,0.000459,0.000264,-39.166695,0.000732,
2071,3223,-4.16409937599946,12.5474482220357,0.048395847048937,0.003149,0.000091,0.006047,0.128386,0.068589,312.434084,24.274159,0.999538,0.993289,0.003299,0.458924,0.000015,0.000003,-0.000002,0.000016,0.000003,-10.268110,0.000020,
2161,2278,-2.05974929044026,-8.00954867277041,0.00245072534556812,0.001872,-0.001629,0.002858,0.076645,-0.004462,326.929076,24.052989,0.998476,0.977813,0.005892,0.413430,0.000106,0.000066,0.000020,0.000114,0.000058,22.586793,0.000175,
2206,2428,-1.10391172276865,-4.73179414652665,0.00476327797497333,0.002357,-0.000484,0.000274,0.107213,0.014105,324.418076,23.965448,0.999122,0.987473,0.004614,0.513598,0.000014,0.000036,-0.000006,0.000038,0.000013,-75.586983,0.000053,
2401,2878,3.05646094906849,5.08758602981943,-0.019325138163083,0.002850,-0.000170,0.005238,0.112084,0.054045,316.739831,24.941087,0.999460,0.991302,0.003712,0.414989,-0.000003,0.000009,0.000014,0.000018,-0.000012,56.578587,0.000019,
2191,2068,-1.37148492981403,-12.6113290264592,0.00481147417974626,0.000843,-0.001979,-0.001002,0.041034,-0.063483,330.196025,23.569325,0.999325,0.984066,0.005160,0.469709,0.000296,0.000315,0.000049,0.000356,0.000256,50.348819,0.000614,
2056,2083,-4.31821293413595,-12.2773785055033,0.003798479147747,0.000449,-0.001193,0.000567,0.018602,-0.022307,330.491394,24.590559,0.998860,0.979497,0.005438,0.336526,0.000335,0.000292,0.000108,0.000423,0.000203,39.335910,0.000639,
2371,2728,2.43205327700013,1.82066769915206,-0.02136638946007,0.002627,-0.000345,0.006122,0.098867,0.041504,319.134031,24.485004,0.999481,0.990031,0.003931,0.399493,0.000010,0.000038,0.000012,0.000042,0.000006,69.982143,0.000052,
2266,2803,0.13378760594097,3.44866234060186,-0.0200900782355689,0.002460,-0.000208,0.006343,0.092206,0.047349,317.981281,24.604013,0.999160,0.987761,0.004631,0.397274,0.000005,0.000012,0.000010,0.000019,-0.000002,54.721971,0.000021,
2071,3238,-4.16654201382599,12.8719959267706,0.0480147964057664,0.003051,-0.000210,0.004497,0.128163,0.047489,312.185643,24.258220,0.999516,0.993032,0.003360,0.449189,0.000018,-0.000012,0.000000,0.000018,-0.000012,0.740903,0.000019,
2056,2878,-4.43852993723756,5.06652706650252,-0.00721490759735843,0.002627,-0.000417,0.006095,0.103906,0.041272,317.652081,24.323546,0.999131,0.989506,0.004223,0.450968,0.000002,0.000003,-0.000006,0.000009,-0.000004,-47.020199,0.000009,
2491,2128,5.1767450587055,-11.3047860711835,0.0433917211273069,0.003596,-0.000977,-0.005745,0.185901,-0.033571,329.693519,21.925238,0.999618,0.986881,0.004680,0.483682,0.000359,0.000323,-0.000092,0.000435,0.000247,-39.439776,0.000690,
2296,2638,0.817159009115773,-0.144992606236052,-0.0151660040602337,0.002617,-0.000072,0.000839,0.117412,0.023434,320.691046,24.216809,0.999342,0.987356,0.004216,0.455418,0.000003,0.000040,0.000007,0.000041,0.000002,79.348984,0.000049,
2221,2188,-0.735136306135683,-9.9800149422619,0.00704925181872795,0.002564,-0.000060,-0.006361,0.137838,0.008203,328.300905,23.674755,0.998876,0.981348,0.005364,0.421184,0.000161,0.000150,0.000020,0.000176,0.000135,36.738296,0.000312,
2401,2893,3.05433436450283,5.41278333473566,-0.0113851882302924,0.002929,-0.000319,0.004182,0.119494,0.050098,316.569330,24.945943,0.999486,0.991009,0.003805,0.451177,0.000001,-0.000002,0.000014,0.000014,-0.000015,41.648367,0.000017,
2161,2293,-2.06171873029159,-7.68126882389668,-0.0033948850096408,0.002172,-0.000567,-0.005840,0.117360,-0.020871,326.679414,24.042756,0.998637,0.981075,0.005464,0.419397,0.000098,0.000062,0.000022,0.000108,0.000052,24.900146,0.000164,
2206,2443,-1.10830402426585,-4.40110144294458,-0.0182508486126949,0.002122,-0.000527,0.000095,0.097004,0.010909,323.972523,24.057688,0.998542,0.983278,0.005345,0.436966,0.000008,0.000032,-0.000006,0.000033,0.000006,-77.440873,0.000043,
2191,2083,-1.37319468567584,-12.2812356653051,0.0112763903136965,0.001192,-0.001630,-0.001226,0.057842,-0.028861,330.024576,23.729780,0.999320,0.983137,0.005217,0.361236,0.000281,0.000305,0.000049,0.000343,0.000243,52.088530,0.000589,
2266,2818,0.131823505267537,3.77443774652095,-0.0163640215785108,0.002695,0.000077,0.003303,0.113134,0.036172,317.789452,24.616407,0.999321,0.989048,0.004239,0.399114,0.000007,0.000021,0.000013,0.000029,-0.000001,59.048796,0.000033,
2071,3253,-4.16926738683894,13.1975658643109,0.0455594462200679,0.003089,-0.000082,0.007569,0.121246,0.064517,311.912406,24.290744,0.999673,0.994647,0.003079,0.428985,0.000022,-0.000020,0.000000,0.000022,-0.000020,-0.151023,0.000024,
2371,2743,2.42932320813185,2.146885965487,-0.0245030386378176,0.002855,-0.000608,0.004148,0.116273,0.029837,318.881379,24.464661,0.999454,0.989470,0.003958,0.449389,0.000009,0.000035,0.000016,0.000043,0.000002,64.111161,0.000050,
2056,2893,-4.44061427899979,5.39303075562523,-0.00519567105328633,0.002828,-0.000175,0.007122,0.110375,0.054359,317.431126,24.381657,0.999363,0.992443,0.003809,0.400224,-0.000001,-0.000007,-0.000008,0.000004,-0.000013,-34.815853,0.000013,
2296,2653,0.813518853266245,0.182811807700475,-0.0229419970562503,0.002376,-0.000181,0.001991,0.102433,0.026213,320.367197,24.258688,0.999359,0.986878,0.004247,0.446941,0.000001,0.000041,0.000009,0.000043,-0.000001,77.661604,0.000049,
2401,2908,3.05132995037563,5.73922879627583,-0.00700223800379263,0.002936,-0.000781,0.009647,0.099788,0.036494,316.341281,25.052996,0.999514,0.990696,0.003870,0.375625,0.000002,-0.000003,0.000016,0.000016,-0.000016,40.466179,0.000019,
2221,2203,-0.738260598267939,-9.65154208347051,0.00456960148085273,0.002252,-0.000056,-0.005402,0.120487,0.014146,328.021457,23.662346,0.999027,0.983236,0.005120,0.461194,0.000144,0.000135,0.000015,0.000155,0.000124,36.252988,0.000279,
2161,2308,-2.06420497186226,-7.35233455875219,0.00418504742384584,0.002099,-0.000598,0.000831,0.093633,0.017263,326.476239,24.177965,0.998680,0.981647,0.005370,0.334497,0.000088,0.000062,0.000013,0.000093,0.000056,22.357804,0.000151,
2266,2833,0.128894504509219,4.10066862288188,-0.0168293814530784,0.002862,-0.000532,0.008390,0.103812,0.043106,317.532035,24.624967,0.999291,0.989511,0.004064,0.422915,0.000006,0.000026,0.000019,0.000038,-0.000005,58.731426,0.000041,
2206,2458,-1.10992904489467,-4.07447269999673,-0.0121639816752008,0.002321,-0.000316,-0.004424,0.120529,0.016781,323.804484,24.046912,0.998892,0.984006,0.005194,0.471502,0.000009,0.000029,-0.000003,0.000029,0.000009,-82.323611,0.000040,
2191,2098,-1.37617281456303,-11.9526389559562,-0.00203009963678369,0.001670,-0.001391,-0.000507,0.077620,-0.022993,329.693189,23.570817,0.999420,0.985701,0.005023,0.544404,0.000267,0.000293,0.000050,0.000332,0.000228,52.167309,0.000563,
2056,3148,-4.47771752993708,10.9217676417007,0.0392021301363457,0.002994,0.000118,0.004243,0.126455,0.056118,313.664858,24.234377,0.999485,0.993258,0.003310,0.443992,0.000007,0.000020,-0.000002,0.000020,0.000006,-81.837527,0.000028,
2371,2758,2.42611813772266,2.47451300598665,-0.0270739074913422,0.002682,-0.000169,0.003644,0.110322,0.041259,318.609147,24.560204,0.999159,0.986045,0.004307,0.406530,0.000014,0.000036,0.000019,0.000047,0.000003,59.853866,0.000056,
2296,2668,0.811407173127648,0.509754830147877,-0.0160954247905352,0.002564,-0.000419,0.002898,0.107960,0.021436,320.186119,24.356155,0.999603,0.989670,0.003986,0.375026,0.000004,0.000048,0.000003,0.000048,0.000003,85.664057,0.000057,
2161,2323,-2.06683930406767,-7.02501726804396,-0.00336453677380177,0.001968,-0.000048,-0.006063,0.108876,-0.000654,326.187381,24.075468,0.998965,0.983398,0.005088,0.431149,0.000080,0.000057,0.000005,0.000081,0.000056,12.802764,0.000138,
2221,2338,-0.76395814690612,-6.6942990294285,-0.0216726150634372,0.002028,-0.000644,0.000513,0.091221,-0.000032,325.595871,23.918955,0.999613,0.989564,0.004253,0.381620,0.000054,0.000086,0.000005,0.000086,0.000053,80.821707,0.000141,
2161,3268,-2.22306881972465,13.5307278685982,0.0263619257922869,0.003012,-0.000352,0.008594,0.112708,0.049268,311.082409,24.710876,0.999630,0.994152,0.003247,0.482160,0.000019,-0.000010,0.000019,0.000028,-0.000019,25.967109,0.000029,
2026,2998,-5.10632807428165,7.66894243308717,0.0138571124305145,0.002818,-0.000092,0.006697,0.111678,0.047608,316.063930,24.239612,0.999383,0.992075,0.003583,0.408612,-0.000006,-0.000034,-0.000013,-0.000001,-0.000039,-21.915756,0.000046,
2251,2533,-0.144635425499672,-2.43457888088757,-0.0228931724268477,0.002299,-0.000599,0.003551,0.093848,0.036873,322.370313,24.137744,0.999601,0.991570,0.003753,0.411784,0.000002,0.000017,0.000006,0.000019,0.000000,70.882469,0.000023,
2011,3118,-5.44834159227956,10.268942636907,0.0315201997570966,0.003248,0.000094,0.005941,0.134087,0.069238,314.375292,24.079947,0.999658,0.995064,0.002980,0.444057,0.000008,0.000058,0.000017,0.000063,0.000003,72.920624,0.000074,
2206,2473,-1.11283862885557,-3.74608250696817,-0.0179363398158898,0.002390,0.000472,-0.004184,0.123253,0.040539,323.516014,24.074485,0.999240,0.982416,0.005328,0.485705,0.000008,0.000025,0.000000,0.000025,0.000008,88.818773,0.000034,
2101,2083,-3.33715878022259,-12.2792735244986,0.00192784966532145,0.000701,-0.001270,-0.000344,0.032713,-0.018368,330.262082,24.193415,0.998881,0.956952,0.008038,0.462029,0.000314,0.000299,0.000091,0.000397,0.000215,42.585648,0.000622,
2221,2308,-0.756865934068372,-7.35354532915524,0.00295754673658166,0.002033,-0.000459,-0.002109,0.099870,0.018394,326.294814,23.804985,0.998993,0.986226,0.004592,0.471379,0.000066,0.000087,0.000014,0.000094,0.000060,63.694201,0.000155,
2191,2113,-1.37713595461024,-11.6243906892455,0.0173668954481627,0.001869,-0.001225,-0.000829,0.087809,-0.020162,329.623216,23.745780,0.998982,0.981611,0.005372,0.388723,0.000254,0.000279,0.000048,0.000316,0.000217,52.450894,0.000536,
2371,2773,2.423693755432,2.80017599336996,-0.0196412997581206,0.002704,-0.000423,0.005671,0.104030,0.037470,318.421109,24.573500,0.999462,0.989648,0.003918,0.430445,0.000016,0.000026,0.000016,0.000037,0.000004,54.359882,0.000046,
2056,3163,-4.47995740778227,11.2465863261664,0.0396667949846687,0.003188,-0.000247,0.005518,0.131634,0.037168,313.429165,24.227486,0.999584,0.991732,0.003533,0.425347,0.000003,0.000024,-0.000001,0.000024,0.000003,-87.233476,0.000029,
2281,2653,0.487524707585731,0.18195442866584,-0.0169199430731055,0.002504,-0.000428,0.003694,0.102661,0.035199,320.435255,24.278882,0.999446,0.988025,0.004223,0.444263,-0.000004,0.000041,0.000010,0.000043,-0.000006,77.860524,0.000046,
2416,2833,3.39171062473764,4.10835588493354,-0.0166780273463587,0.002698,-0.000704,0.005855,0.102322,0.022790,317.503967,24.796657,0.998820,0.985774,0.004612,0.410181,0.000008,0.000027,0.000018,0.000038,-0.000003,58.780660,0.000043,
2266,2848,0.126799689620388,4.42648802624119,-0.0119630181218326,0.003003,-0.000363,0.006968,0.115122,0.052205,317.339835,24.637704,0.999514,0.992052,0.003736,0.444593,0.000010,0.000020,0.000022,0.000038,-0.000008,51.402456,0.000040,
2071,3058,-4.13988984939999,8.97247030774482,0.0186408617480538,0.002863,-0.000474,0.007605,0.110419,0.053525,314.861460,24.275508,0.999332,0.992059,0.003534,0.490089,0.000008,-0.000004,-0.000005,0.000010,-0.000006,-18.227515,0.000010,
2311,2353,1.19629989939379,-6.36749508428546,-0.00423631506032507,0.002185,-0.000793,0.002605,0.091057,0.026853,325.361237,23.612602,0.999360,0.985787,0.004566,0.417818,0.000058,0.000075,0.000007,0.000078,0.000055,69.697776,0.000134,
2131,3238,-2.8674216495696,12.8778622479507,0.0381744783376234,0.002937,-0.000413,0.007552,0.112982,0.044099,311.794080,24.575086,0.999578,0.993791,0.003118,0.439950,0.000015,-0.000004,0.000010,0.000020,-0.000009,22.997435,0.000020,
2161,3283,-2.22554855423855,13.8558153449977,0.0268064957662659,0.002987,-0.000129,0.007470,0.115165,0.064527,310.842597,24.727698,0.999713,0.994540,0.003062,0.489431,0.000022,-0.000011,0.000027,0.000037,-0.000027,29.195859,0.000038,
2251,2323,-0.105972136563516,-7.02449162983454,-0.00178009311770211,0.002202,-0.000787,0.000398,0.099457,-0.001174,325.949486,23.767658,0.998666,0.981919,0.005392,0.395870,0.000066,0.000078,0.000013,0.000086,0.000057,57.494567,0.000144,
2026,2968,-5.10164396320698,7.01786575413146,0.00906662062533314,0.003027,-0.000088,0.004327,0.127819,0.036762,316.528380,24.231491,0.999415,0.992106,0.003522,0.426850,-0.000006,-0.000043,-0.000008,-0.000004,-0.000045,-12.092270,0.000055,
2236,2443,-0.454391804280274,-4.40044934818202,-0.00546260113793551,0.002260,-0.000929,0.005613,0.085346,0.024191,323.994302,24.103558,0.999524,0.990929,0.004147,0.325233,0.000003,0.000044,-0.000007,0.000045,0.000002,-80.370749,0.000053,
2446,2083,4.19885313119672,-12.288221490445,0.0230780011833644,0.003075,-0.002364,0.002944,0.128669,-0.051145,330.081064,22.130651,0.998608,0.975610,0.006315,0.356897,0.000405,0.000361,-0.000067,0.000454,0.000313,-35.973990,0.000771,
2446,3088,3.99733222093026,9.6523269868987,0.0215315321750609,0.003263,-0.000671,0.008221,0.119253,0.033668,313.718279,25.747696,0.999648,0.993078,0.003554,0.381957,0.000022,0.000009,0.000015,0.000032,-0.000001,33.482473,0.000036,
2281,2428,0.529092565847442,-4.72892907844176,-0.00400464142916235,0.002386,-0.000535,0.001326,0.104926,0.016557,324.193063,23.840420,0.999584,0.988372,0.004331,0.432615,0.000019,0.000048,0.000004,0.000049,0.000019,81.643476,0.000070,
2326,2458,1.50328236488712,-4.07191017438172,-0.0151607914629608,0.002361,-0.000622,0.002372,0.099998,0.027172,323.571818,23.762534,0.999428,0.987354,0.004475,0.467497,0.000031,0.000039,0.000025,0.000060,0.000010,49.330458,0.000076,
2341,2548,1.81367282297601,-2.10701989388508,-0.00659520993860951,0.002340,-0.000526,0.006267,0.085525,0.068799,322.165721,23.950331,0.998924,0.981755,0.005127,0.510284,0.000026,0.000011,0.000014,0.000035,0.000003,31.084552,0.000042,
2116,3148,-3.17822803666605,10.9267079905138,0.030346178161949,0.002965,-0.000188,0.009866,0.107699,0.063036,313.261852,24.451084,0.999731,0.994844,0.003026,0.492191,0.000012,0.000009,0.000006,0.000016,0.000005,38.980026,0.000022,
2386,2923,2.72217837069171,6.06416052714708,-0.00708832490386158,0.002877,-0.000466,0.008168,0.102863,0.038452,316.086590,25.032440,0.999381,0.989643,0.004079,0.411969,0.000005,-0.000002,0.000008,0.000010,-0.000007,33.943945,0.000010,
2296,2683,0.808242817576687,0.835819919168515,-0.0172931669687841,0.002306,-0.000595,0.004047,0.092174,0.025082,319.917018,24.302108,0.999633,0.989275,0.004011,0.463116,0.000005,0.000052,0.000000,0.000052,0.000005,-89.890354,0.000063,
2191,2203,-1.39302242911059,-9.65094458456126,0.00575478554071651,0.001814,-0.000422,-0.001447,0.087576,0.023331,328.077831,23.848338,0.998575,0.978741,0.005725,0.434110,0.000155,0.000140,0.000025,0.000173,0.000122,36.704021,0.000296,
2131,2038,-2.67541379652013,-13.268432276813,0.0134328452169825,0.000556,-0.002372,0.001523,0.020090,-0.051710,330.937163,23.972201,0.999158,0.983768,0.005359,0.438069,0.000355,0.000336,0.000085,0.000431,0.000260,41.767238,0.000698,
2236,2293,-0.428212791359858,-7.68132610778496,-0.00301094905330501,0.001836,-0.001009,0.001499,0.079009,-0.003189,326.432730,23.711335,0.999166,0.985702,0.004653,0.461401,0.000078,0.000082,0.000010,0.000090,0.000070,49.635241,0.000160,
2056,2938,-4.4473024152798,6.36893170543722,0.000983586272411685,0.002753,-0.000400,0.006278,0.109190,0.031722,316.750424,24.310654,0.999284,0.991683,0.003746,0.430892,0.000003,-0.000031,0.000003,0.000003,-0.000032,4.439325,0.000035,
2086,3028,-3.81004255125043,8.32331487139533,0.0126732088011181,0.002931,-0.000124,0.005900,0.118202,0.046000,315.228789,24.353508,0.999539,0.992380,0.003448,0.459721,0.000003,-0.000007,-0.000003,0.000004,-0.000008,-16.956489,0.000008,
2041,2953,-4.7747636379213,6.69377902961833,0.00293474062834775,0.002790,-0.000148,0.005695,0.112933,0.061151,316.613957,24.263390,0.999433,0.993000,0.003398,0.465723,-0.000001,-0.000035,0.000001,-0.000001,-0.000035,1.103480,0.000041,
2506,2188,5.48884953062874,-9.98392389893331,0.0181635197803871,0.002785,-0.000930,0.000198,0.126176,0.005762,328.497023,22.220447,0.998838,0.973932,0.006164,0.397894,0.000276,0.000237,-0.000087,0.000345,0.000167,-38.703413,0.000523,
2161,3298,-2.2281180027234,14.1802872136006,0.0260303701956559,0.003134,-0.000443,0.009007,0.117039,0.040628,310.592434,24.723826,0.999805,0.996184,0.002637,0.477774,0.000023,0.000006,0.000020,0.000037,-0.000007,33.772960,0.000039,
2101,3118,-3.49847342870603,10.2754440075223,0.0295500367579962,0.002890,-0.000355,0.007657,0.110977,0.047489,313.819481,24.422240,0.999758,0.994365,0.003016,0.440852,0.000009,0.000015,0.000003,0.000016,0.000008,69.312898,0.000024,
2026,3238,-5.14078939344051,12.8675237586474,0.0614583196160652,0.002815,-0.000168,0.007213,0.110321,0.054136,312.546181,24.039465,0.999598,0.994877,0.002992,0.441289,0.000012,-0.000027,-0.000011,0.000015,-0.000030,-14.914454,0.000030,
2281,2668,0.485180295539067,0.509854792643473,-0.0176649342933501,0.002953,-0.000593,0.003993,0.122199,0.018008,320.204495,24.412832,0.999660,0.990822,0.003971,0.321188,-0.000002,0.000044,0.000005,0.000045,-0.000003,83.463364,0.000050,
2221,2323,-0.760012799021389,-7.02441894265739,-0.00889848158016093,0.002397,-0.000533,-0.000738,0.112197,0.005433,325.966107,23.821354,0.999050,0.986663,0.004602,0.463238,0.000061,0.000081,0.000010,0.000085,0.000057,67.512353,0.000143,
2071,3073,-4.1422868375565,9.29760030274899,0.0206283412109656,0.002644,-0.000470,0.006132,0.104522,0.043103,314.627722,24.277021,0.999365,0.991294,0.003713,0.473964,0.000008,0.000006,-0.000002,0.000009,0.000005,-29.244136,0.000014,
2116,1993,-2.99643335132761,-14.2519555930507,0.00729821253963792,-0.000046,-0.001937,-0.000186,-0.002274,-0.043017,331.646571,24.276138,0.999517,0.989644,0.004441,0.220929,0.000438,0.000321,0.000065,0.000467,0.000291,24.017041,0.000766,
2011,3133,-5.45081274248071,10.5941712641947,0.0293808947313323,0.003212,0.000023,0.005947,0.132410,0.067067,314.111021,24.069896,0.999616,0.994265,0.003143,0.439043,0.000010,0.000049,0.000009,0.000051,0.000008,78.140756,0.000064,
2131,3253,-2.87000903952049,13.203120184728,0.0347266139920066,0.002992,-0.000117,0.006111,0.119949,0.054385,311.526398,24.582055,0.999640,0.994444,0.003020,0.447715,0.000018,-0.000010,0.000011,0.000022,-0.000014,19.151412,0.000022,
2371,2788,2.42121650275664,3.12782697685152,-0.0157432574619634,0.002687,-0.000114,0.004227,0.108486,0.041639,318.213172,24.737554,0.999831,0.994323,0.003353,0.311561,0.000019,0.000031,0.000014,0.000041,0.000010,57.040563,0.000053,
2176,1993,-1.68365199738656,-14.2588467433016,0.0313285260210705,0.001322,-0.001647,-0.007667,0.083572,-0.083175,331.708600,23.690856,0.999278,0.982167,0.005218,0.342418,0.000425,0.000357,0.000054,0.000455,0.000327,28.916031,0.000785,
2221,2353,-0.765976775345433,-6.36805981514592,-0.0143835682223425,0.002192,-0.000877,0.002214,0.093263,0.013778,325.417100,23.845159,0.999364,0.987945,0.004513,0.489789,0.000047,0.000078,0.000001,0.000078,0.000047,88.718333,0.000126,
2026,2983,-5.10433808330388,7.34325967414528,0.00859255813946902,0.002836,-0.000330,0.007084,0.111363,0.041431,316.264019,24.201557,0.999296,0.991613,0.003719,0.450875,-0.000005,-0.000051,-0.000013,-0.000002,-0.000054,-15.106846,0.000064,
2056,3178,-4.48207167044326,11.5709773080603,0.0500874447403135,0.003063,-0.000308,0.009520,0.114610,0.051967,313.254454,24.210439,0.999681,0.993772,0.003185,0.450389,0.000003,0.000028,0.000002,0.000028,0.000003,86.449935,0.000034,
2281,2443,0.525837184337252,-4.40158755444642,-0.00804258757858634,0.002199,-0.000913,0.002343,0.092788,-0.001910,323.904886,23.820375,0.999623,0.989000,0.004250,0.463577,0.000015,0.000040,0.000004,0.000041,0.000015,82.173260,0.000057,
2416,2848,3.38906751281229,4.43445031539797,-0.013390100858544,0.002713,-0.000502,0.005572,0.104182,0.033398,317.288690,24.823485,0.999241,0.987599,0.004280,0.441462,0.000003,0.000026,0.000015,0.000033,-0.000005,63.312843,0.000036,
2161,2113,-2.03181867671229,-11.624110770005,0.017420951564759,0.001398,-0.001342,-0.002513,0.071282,-0.032018,329.703593,23.915113,0.999243,0.981680,0.005358,0.383567,0.000269,0.000283,0.000070,0.000347,0.000206,47.855616,0.000559,
2251,2548,-0.14694233031906,-2.10845996273564,-0.0174349709179751,0.002361,-0.000734,0.005159,0.091409,0.038975,322.170838,24.106086,0.999702,0.993500,0.003470,0.469562,0.000004,0.000024,0.000008,0.000027,0.000001,71.746372,0.000032,
2101,2098,-3.33780135471539,-11.9488665756101,0.0167680352259936,0.001282,-0.000782,-0.003132,0.067648,-0.033471,330.178164,24.526949,0.999195,0.956425,0.008240,0.116805,0.000296,0.000289,0.000092,0.000384,0.000201,44.015907,0.000594,
2311,2368,1.19321539627503,-6.039893910815,-0.00787407159089071,0.001990,-0.000590,0.000876,0.088086,0.027047,325.085683,23.575673,0.999595,0.988662,0.004217,0.489255,0.000053,0.000070,0.000012,0.000077,0.000047,62.866292,0.000125,
2296,2698,0.805358855660394,1.16308084774227,-0.0209967697030606,0.002522,-0.000670,0.005218,0.098133,0.029575,319.648035,24.341183,0.999738,0.991745,0.003702,0.458890,0.000003,0.000048,0.000000,0.000048,0.000003,-89.549618,0.000058,
2386,2938,2.71938360444806,6.39013777844298,-0.00589660092987287,0.002830,-0.000477,0.007458,0.103210,0.021759,315.852061,25.084295,0.999401,0.989472,0.004056,0.386006,0.000009,-0.000004,0.000004,0.000010,-0.000005,15.480783,0.000010,
2086,3043,-3.81178581636208,8.64782852378259,0.02307789319741,0.002852,-0.000169,0.004448,0.118814,0.047339,315.072135,24.334770,0.999620,0.992066,0.003508,0.477999,0.000002,-0.000006,-0.000005,0.000005,-0.000008,-26.295339,0.000008,
2056,2953,-4.44927141181576,6.69469384270728,0.00290257319204557,0.002848,0.000039,0.003517,0.121624,0.061465,316.534504,24.299099,0.999112,0.992445,0.003698,0.466173,0.000008,-0.000032,0.000003,0.000008,-0.000032,4.214281,0.000033,
2116,2008,-2.99868456870498,-13.9272693052321,0.0170172519461858,-0.000284,-0.003484,0.004662,-0.027930,-0.101768,331.463681,24.047783,0.999564,0.991051,0.004441,0.397353,0.000411,0.000336,0.000086,0.000467,0.000280,33.130230,0.000755,
2266,2863,0.125113951876418,4.7511480132715,0.00177560819025757,0.002974,-0.000606,0.006427,0.115474,0.031434,317.211427,24.642962,0.999741,0.994072,0.003390,0.443545,0.000010,0.000018,0.000018,0.000033,-0.000005,50.800772,0.000035,
2131,2983,-2.82689551095636,7.35018628523687,0.00612897461604689,0.003008,-0.000159,0.005497,0.122229,0.042661,315.699281,24.485745,0.999746,0.993850,0.003199,0.450354,0.000003,-0.000011,0.000006,0.000005,-0.000013,18.573989,0.000013,
2116,2053,-3.00446983081205,-12.9387311757987,0.0142812247834172,0.000890,-0.001909,0.000331,0.039165,-0.062052,330.785450,24.134427,0.998820,0.979126,0.005477,0.371053,0.000342,0.000319,0.000080,0.000412,0.000250,40.863734,0.000668,
2326,2473,1.50098863864605,-3.74525551859922,-0.00650833967569042,0.002096,-0.000310,0.001101,0.092311,0.026060,323.393659,23.790935,0.999406,0.987247,0.004371,0.473538,0.000031,0.000030,0.000023,0.000054,0.000007,44.880761,0.000067,
2071,2068,-3.98712908036816,-12.6096708811454,0.0299718385265919,0.000411,-0.001223,-0.004218,0.030426,-0.043178,330.881474,24.512266,0.998007,0.966004,0.007141,0.300756,0.000357,0.000285,0.000105,0.000432,0.000210,35.489840,0.000655,
2341,2563,1.81066172404462,-1.77885774067134,-0.0118932686058884,0.002352,-0.000476,0.003656,0.095144,0.051711,321.887434,24.035067,0.999018,0.985094,0.004749,0.445854,0.000024,0.000016,0.000013,0.000034,0.000006,35.834689,0.000043,
2011,3148,-5.45311700014811,10.918025995994,0.0346608877566155,0.002948,-0.000269,0.006674,0.118111,0.053464,313.896761,23.993995,0.999640,0.993949,0.003266,0.487806,0.000003,0.000037,0.000002,0.000037,0.000003,86.990856,0.000045,
2191,2128,-1.37942229573133,-11.2961111113582,0.0164048865096333,0.002158,-0.001497,-0.000796,0.100884,-0.027457,329.387432,23.716535,0.998726,0.980126,0.005506,0.428247,0.000234,0.000260,0.000048,0.000297,0.000198,52.583800,0.000498,
2191,2218,-1.39521560954146,-9.32295816171678,0.00616635401109988,0.002037,-0.000586,-0.002487,0.100993,0.008135,327.853401,23.847521,0.998599,0.980989,0.005634,0.436526,0.000138,0.000133,0.000021,0.000157,0.000114,41.274300,0.000272,
2506,2203,5.48632478882071,-9.65545697338379,0.0208804644817064,0.003138,-0.000519,0.000091,0.142930,0.024621,328.293973,22.251388,0.999067,0.972355,0.006221,0.449303,0.000267,0.000203,-0.000076,0.000318,0.000153,-33.571544,0.000480,
2041,2968,-4.77714710650963,7.01844098053734,0.007485135014349,0.002530,-0.000176,0.006875,0.097627,0.052969,316.393098,24.210272,0.999510,0.992796,0.003351,0.502468,-0.000002,-0.000034,-0.000007,0.000000,-0.000036,-12.385708,0.000041,
2281,2683,0.48209901039866,0.835884966537691,-0.0191691384397359,0.002682,-0.000437,0.003932,0.110019,0.028142,319.936467,24.346465,0.999658,0.991206,0.003813,0.425963,-0.000002,0.000046,0.000002,0.000046,-0.000002,87.872975,0.000052,
2026,3253,-5.14394398313829,13.193188500814,0.0469188298259269,0.002757,0.000060,0.005114,0.113498,0.054630,312.182218,24.027750,0.999826,0.995946,0.002715,0.442279,0.000022,-0.000035,-0.000013,0.000024,-0.000038,-12.345852,0.000038,
2296,2893,0.770808357762302,5.40635215136314,-0.0105224916172801,0.002753,-0.000328,0.004016,0.113036,0.029055,316.575971,24.766577,0.999595,0.991657,0.003637,0.421915,0.000006,-0.000005,0.000013,0.000015,-0.000014,34.011551,0.000017,
2131,3268,-2.87305218571294,13.5284130420511,0.0269646755540975,0.003039,-0.000259,0.007176,0.118831,0.040078,311.214623,24.597222,0.999644,0.994678,0.003009,0.422268,0.000021,-0.000011,0.000013,0.000026,-0.000016,19.891483,0.000026,
2446,2098,4.19541598923962,-11.9581798616097,0.0158316778395147,0.002764,-0.001659,-0.002876,0.136381,-0.052628,329.786211,22.179571,0.999244,0.978241,0.005879,0.362076,0.000378,0.000337,-0.000069,0.000430,0.000285,-36.726237,0.000720,
2056,3193,-4.48468045798766,11.896055333664,0.0483992857455178,0.003076,-0.000727,0.011637,0.109166,0.045146,312.989861,24.209613,0.999611,0.993497,0.003218,0.437775,0.000002,0.000020,-0.000003,0.000020,0.000002,-81.661459,0.000024,
2071,3088,-4.14471477297129,9.62273081602874,0.0210845029005782,0.002648,-0.000451,0.007164,0.101699,0.034598,314.384168,24.270652,0.999265,0.990346,0.003879,0.467692,0.000003,0.000011,-0.000004,0.000013,0.000002,-69.403251,0.000016,
2251,2338,-0.109139469775887,-6.69700829887003,0.00164252054543113,0.001780,-0.001598,0.005293,0.063827,-0.009920,325.700466,23.786775,0.998856,0.983089,0.005284,0.393144,0.000059,0.000086,0.000010,0.000089,0.000056,72.240032,0.000146,
2221,2368,-0.767751881357121,-6.03982080173436,-0.00755834434033886,0.002388,-0.000805,0.000206,0.108703,0.017274,325.246755,23.963974,0.999503,0.988488,0.004459,0.394786,0.000037,0.000076,-0.000002,0.000076,0.000037,-86.519176,0.000115,
2161,2128,-2.03534697676394,-11.2947656991611,0.0112652540825593,0.000980,-0.001412,0.001158,0.040877,-0.012736,329.380870,23.900112,0.999250,0.980159,0.005500,0.431279,0.000248,0.000264,0.000070,0.000327,0.000185,48.264737,0.000519,
2116,3163,-3.18038894127016,11.251608974386,0.0360733678075462,0.002793,-0.000281,0.008036,0.105171,0.055917,313.062215,24.473544,0.999559,0.992734,0.003487,0.464834,0.000011,0.000013,0.000009,0.000021,0.000003,49.402446,0.000026,
2266,2878,0.122215982808704,5.07723645519977,-0.00293395768608207,0.003028,-0.000426,0.005285,0.121728,0.016934,316.934074,24.640472,0.999667,0.991974,0.003629,0.456803,0.000008,0.000010,0.000018,0.000028,-0.000009,46.332884,0.000028,
2446,3103,3.99434329703951,9.97700137051541,0.0247777452761966,0.002867,-0.000470,0.006586,0.107247,0.037653,313.488137,25.714601,0.999664,0.992974,0.003601,0.470205,0.000027,0.000006,0.000016,0.000035,-0.000002,28.263327,0.000039,
2056,2968,-4.45173228412615,7.01971042237808,0.00835850625253443,0.002678,-0.000175,0.007936,0.101179,0.048398,316.315905,24.290053,0.999192,0.991339,0.003749,0.456316,0.000005,-0.000030,-0.000005,0.000006,-0.000031,-7.299785,0.000032,
2131,2998,-2.82887137420972,7.67532764911363,0.00868776090231904,0.003197,0.000303,0.003254,0.137854,0.059592,315.491861,24.447481,0.999764,0.993937,0.003246,0.510613,0.000002,-0.000009,0.000005,0.000004,-0.000012,21.869640,0.000012,
2416,2863,3.38643951846669,4.76118034348761,-0.0140066749527819,0.002784,-0.000225,0.001841,0.121232,0.037422,317.055610,24.890302,0.999421,0.988485,0.004118,0.426363,0.000001,0.000021,0.000012,0.000027,-0.000005,63.934879,0.000028,
2101,2218,-3.35785643627885,-9.32158562069804,0.00232548435383251,0.001111,-0.000999,0.001092,0.047487,0.006689,328.111081,24.317562,0.998354,0.981713,0.005491,0.399716,0.000159,0.000140,0.000064,0.000214,0.000085,40.845441,0.000308,
2041,2983,-4.77920327238739,7.3440565538623,0.0116120221267693,0.002702,-0.000582,0.009257,0.098798,0.036266,316.184588,24.253828,0.999395,0.991802,0.003599,0.433941,-0.000002,-0.000040,-0.000013,0.000001,-0.000044,-17.077091,0.000050,
2251,2563,-0.149412926898083,-1.78202395077465,-0.0144804043035265,0.002396,-0.000860,0.006131,0.089766,0.017587,321.951187,24.108892,0.999562,0.991278,0.003802,0.469527,0.000001,0.000021,0.000005,0.000022,0.000000,77.444101,0.000026,
2116,2023,-2.99981786912334,-13.5965681705409,0.0154938894364136,0.000773,-0.002071,0.000581,0.032992,-0.046402,331.270216,24.130166,0.999291,0.984482,0.005443,0.377122,0.000385,0.000333,0.000080,0.000443,0.000275,36.097722,0.000725,
2221,2578,-0.804327568581495,-1.45502114219057,-0.0178589104528442,0.002922,-0.000304,0.001778,0.128524,0.023756,321.783164,24.201058,0.999237,0.988353,0.004180,0.446929,0.000007,0.000025,0.000005,0.000027,0.000005,75.380151,0.000035,
2101,2113,-3.3398100918847,-11.6239054655575,0.0266084714124872,0.001128,-0.001043,-0.000385,0.052511,-0.019376,330.005742,24.284466,0.999081,0.977756,0.005838,0.377352,0.000277,0.000275,0.000087,0.000363,0.000190,44.725200,0.000562,
2071,2083,-3.99200872720109,-12.2774250622012,0.00187078891195824,-0.000104,-0.001246,0.001123,-0.008399,0.007922,330.367878,24.468407,0.998580,0.967200,0.006853,0.397253,0.000331,0.000290,0.000103,0.000416,0.000206,39.370673,0.000633,
2116,2068,-3.00666151038861,-12.6093103747192,0.0134069181805216,0.000976,-0.001294,-0.001759,0.049496,-0.037599,330.547513,24.155472,0.998616,0.969797,0.006605,0.381222,0.000324,0.000310,0.000082,0.000399,0.000235,42.507977,0.000642,
2026,3268,-5.14709678983927,13.5181428646639,0.0370198198600065,0.002727,-0.000130,0.008048,0.104054,0.067636,311.844616,23.969475,0.999822,0.996442,0.002635,0.502403,0.000035,-0.000048,-0.000013,0.000037,-0.000050,-8.678052,0.000052,
2296,2953,0.761237997687079,6.71096487462182,-0.00070784849657457,0.003351,0.000334,0.002695,0.145434,0.075480,315.711038,24.947867,0.999089,0.988007,0.004295,0.404951,0.000006,0.000001,0.000006,0.000010,-0.000003,34.562675,0.000010,
2071,3103,-4.14618986532583,9.94763402678041,0.0323474941489508,0.002883,-0.000266,0.007400,0.112063,0.063051,314.243751,24.278234,0.999524,0.992300,0.003479,0.484325,0.000010,0.000017,0.000001,0.000018,0.000010,81.917003,0.000028,
2176,2113,-1.70505996335805,-11.623841386098,0.00882743957129151,0.001537,-0.001202,-0.003348,0.080321,-0.022128,329.590821,23.770700,0.998951,0.979081,0.005694,0.450184,0.000263,0.000280,0.000059,0.000331,0.000212,48.905030,0.000547,
2506,2218,5.48281489226631,-9.32691442536227,0.0164668300553217,0.003161,-0.001252,0.000493,0.142156,-0.022459,328.014204,22.285997,0.999091,0.974037,0.006037,0.431421,0.000242,0.000169,-0.000056,0.000273,0.000139,-28.576597,0.000419,
2041,2998,-4.78128162142212,7.66965880349353,0.0141981932651447,0.002725,-0.000580,0.007985,0.103375,0.023814,315.966523,24.285042,0.999266,0.990020,0.003896,0.381755,-0.000005,-0.000026,-0.000012,0.000001,-0.000032,-24.194830,0.000036,
2446,3118,3.99188570149726,10.3028933360902,0.0229249528995865,0.003349,-0.000371,0.004030,0.138955,0.022544,313.258470,25.784553,0.999631,0.991519,0.003718,0.436351,0.000036,0.000013,0.000014,0.000043,0.000006,25.120421,0.000053,
2131,3283,-2.87606000771839,13.8533892690516,0.0225452999105755,0.002956,-0.000246,0.009042,0.109460,0.048865,310.922500,24.583167,0.999651,0.995050,0.003011,0.449378,0.000023,-0.000009,0.000023,0.000035,-0.000021,27.277618,0.000035,
2086,2143,-3.67235752660745,-10.9644828427413,0.00491666686838244,0.001346,-0.000413,-0.003030,0.070303,0.017472,329.433086,24.290110,0.998994,0.984133,0.005078,0.501196,0.000240,0.000235,0.000092,0.000330,0.000145,44.352902,0.000487,
2296,2908,0.768527063114615,5.73187411619833,-0.00179810327063024,0.002688,-0.000513,0.005577,0.104730,0.028823,316.396235,24.804934,0.999534,0.992214,0.003597,0.412652,0.000006,-0.000002,0.000010,0.000013,-0.000009,34.761654,0.000013,
2191,2143,-1.38236849717325,-10.9670038578104,0.0175697802345098,0.001839,-0.001530,0.002018,0.077458,-0.019955,329.132275,23.776476,0.998998,0.982173,0.005233,0.393250,0.000216,0.000218,0.000052,0.000269,0.000165,45.359831,0.000438,
2371,2803,2.41851752302358,3.45249404532143,-0.012578478307546,0.002741,-0.000507,0.005989,0.104577,0.036750,317.992246,24.634642,0.999828,0.994693,0.003360,0.450733,0.000019,0.000020,0.000015,0.000035,0.000004,45.869031,0.000043,
2326,2488,1.49854886333687,-3.41789432380384,-0.00383763578832941,0.002359,-0.000590,0.002693,0.098826,0.027633,323.179445,23.830298,0.999400,0.987072,0.004341,0.471263,0.000027,0.000021,0.000015,0.000040,0.000009,39.324296,0.000052,
2311,2383,1.19113022044679,-5.7120395154521,-0.00112763583604192,0.001898,0.000121,-0.002519,0.095693,0.028700,324.906812,23.665921,0.999351,0.986450,0.004692,0.434155,0.000051,0.000070,0.000013,0.000076,0.000044,63.368658,0.000122,
2341,2578,1.80782641947649,-1.45152779522626,-0.0156035131000749,0.002359,0.000049,0.000376,0.107096,0.052232,321.624968,24.045260,0.999033,0.985878,0.004548,0.473740,0.000023,0.000025,0.000014,0.000038,0.000010,46.457909,0.000051,
2191,2233,-1.39765646920052,-8.99434433271692,0.0079921662494371,0.002092,-0.000636,-0.001017,0.098931,0.003093,327.624796,23.913676,0.998814,0.981908,0.005399,0.382409,0.000122,0.000119,0.000018,0.000138,0.000102,42.517519,0.000241,
2116,2038,-3.00231699632542,-13.2679841760358,0.0117556312812894,0.000737,-0.001907,-0.001369,0.037138,-0.035727,331.003139,24.045520,0.999169,0.983168,0.005373,0.479503,0.000363,0.000332,0.000082,0.000431,0.000264,39.722390,0.000702,
2386,2953,2.71646917539161,6.71564979527853,-0.00309897198047793,0.002687,-0.000785,0.008663,0.092205,0.011962,315.619725,25.101721,0.999346,0.988398,0.004209,0.401515,0.000009,-0.000007,0.000004,0.000010,-0.000007,13.297373,0.000010,
2056,3208,-4.4869650205663,12.2209844548395,0.0479372112616261,0.002898,-0.000281,0.006585,0.115361,0.049515,312.746995,24.195030,0.999573,0.993544,0.003206,0.450125,0.000001,0.000012,-0.000004,0.000013,0.000000,-69.528330,0.000015,
2026,3283,-5.14870536964137,13.8426135438336,0.0450491547480283,0.003023,-0.000339,0.008577,0.116136,0.040709,311.678575,24.008794,0.999779,0.995912,0.002763,0.424689,0.000052,-0.000041,-0.000007,0.000052,-0.000041,-4.055755,0.000055,
2251,2353,-0.11101054377885,-6.36954746205009,0.00835726538355175,0.002056,-0.001101,0.005201,0.076975,0.009529,325.527289,23.812227,0.999013,0.984367,0.005099,0.412021,0.000051,0.000079,0.000007,0.000080,0.000049,77.120921,0.000131,
2056,2983,-4.45398102410212,7.34556408445788,0.00669268740620055,0.002833,-0.000214,0.007014,0.110946,0.043430,316.067426,24.304500,0.999168,0.989443,0.003947,0.430605,0.000003,-0.000034,-0.000011,0.000006,-0.000037,-15.200058,0.000040,
2161,2143,-2.03757933357591,-10.9654957893472,0.00618921893277502,0.001357,-0.000707,-0.001535,0.066675,0.000598,329.123054,23.901750,0.999321,0.971423,0.006177,0.456275,0.000229,0.000225,0.000070,0.000297,0.000156,44.195571,0.000461,
2221,2593,-0.807355438598396,-1.12771729710857,-0.0208051958713895,0.002744,-0.000389,0.002407,0.118381,0.036755,321.505198,24.206689,0.999164,0.986264,0.004520,0.473913,0.000006,0.000027,0.000004,0.000028,0.000006,80.465924,0.000036,
2416,2878,3.38319472813942,5.08793396288601,-0.015117409410152,0.002683,-0.000003,0.003170,0.111817,0.053824,316.791740,24.947824,0.999471,0.990078,0.003871,0.432657,0.000002,0.000010,0.000014,0.000021,-0.000009,53.162958,0.000021,
2101,2233,-3.35951259486757,-8.99344585795886,0.00290190215957864,0.001593,-0.000492,-0.001532,0.077434,0.015827,327.904436,24.311895,0.998644,0.982795,0.005241,0.418146,0.000148,0.000132,0.000059,0.000199,0.000081,41.219809,0.000288,
2506,2233,5.48001038939262,-8.99682653181941,0.0184448010921301,0.003133,-0.000812,-0.001744,0.149681,-0.012298,327.794755,22.476534,0.998893,0.979329,0.005612,0.314262,0.000233,0.000170,-0.000027,0.000242,0.000161,-20.227709,0.000406,
2221,2383,-0.770598322510164,-5.7131407607352,-0.00631183781462141,0.002176,-0.000948,0.002259,0.092346,0.007309,324.999152,23.904150,0.999453,0.988150,0.004398,0.465364,0.000027,0.000074,-0.000002,0.000074,0.000027,-87.546252,0.000105,
2026,3298,-5.15147581096445,14.1673536867366,0.0399984938944726,0.002858,-0.000284,0.007649,0.111098,0.046710,311.385816,23.972598,0.999437,0.993500,0.003335,0.455678,0.000066,-0.000030,-0.000005,0.000067,-0.000030,-3.021519,0.000067,
2251,2578,-0.151829755960076,-1.45473078696762,-0.012503299902221,0.002434,-0.000621,0.005355,0.094160,0.029818,321.728734,24.152509,0.999409,0.989306,0.004108,0.462258,-0.000002,0.000031,0.000001,0.000031,-0.000002,87.723902,0.000034,
2041,3013,-4.78395618646642,7.99636291970822,0.00983509823726081,0.002707,-0.000228,0.008845,0.100347,0.056279,315.682069,24.330108,0.999486,0.991384,0.003759,0.360822,0.000002,-0.000012,-0.000005,0.000004,-0.000014,-18.576258,0.000014,
2101,2128,-3.34306819763669,-11.2954114506416,0.0224371371933216,0.000573,-0.001552,0.001212,0.022211,-0.037177,329.700436,24.248502,0.999082,0.986880,0.004904,0.400105,0.000254,0.000257,0.000088,0.000344,0.000167,45.578496,0.000521,
2131,3298,-2.87794091094673,14.178150306628,0.0198395399733045,0.003456,0.000011,0.004270,0.146995,0.056276,310.691434,24.563986,0.999579,0.993439,0.003340,0.479976,0.000026,0.000007,0.000019,0.000038,-0.000004,31.068499,0.000041,
2266,2893,0.119232122446167,5.40455165133699,-0.0068173031029346,0.002976,-0.000195,0.004608,0.121738,0.041546,316.656462,24.722750,0.999587,0.990442,0.003789,0.424354,0.000008,0.000002,0.000020,0.000026,-0.000015,40.854411,0.000026,
2071,2098,-3.99280380149287,-11.9509326682607,0.0260192796339993,-0.000120,-0.001322,0.001399,-0.009925,-0.007136,330.326822,24.546544,0.998633,0.976471,0.005786,0.303188,0.000307,0.000284,0.000101,0.000398,0.000194,41.778628,0.000603,
2056,3223,-4.48922613339845,12.5458553952087,0.0478456696131389,0.003028,-0.000117,0.006477,0.121661,0.049149,312.507298,24.185759,0.999570,0.993506,0.003159,0.452295,0.000003,0.000001,-0.000008,0.000009,-0.000006,-41.822124,0.000010,
2296,2968,0.758435538913279,7.03642925326712,-0.00189167127177825,0.003297,0.000089,0.001507,0.146851,0.052687,315.458062,24.948682,0.999390,0.990821,0.003737,0.410710,0.000006,0.000000,0.000003,0.000007,-0.000001,19.695136,0.000008,
2041,1993,-4.63198005158743,-14.2538991114388,0.0191591152204182,-0.000884,-0.001832,-0.003680,-0.031020,-0.051348,332.097040,24.585608,0.998880,0.980766,0.005513,0.428321,0.000529,0.000270,0.000159,0.000604,0.000195,25.453483,0.000833,
2446,3133,3.98851860319996,10.6292549820934,0.0207634986114726,0.003188,-0.000297,0.004402,0.130228,0.035945,312.985229,25.871803,0.999544,0.987865,0.004212,0.413613,0.000040,0.000005,0.000009,0.000042,0.000003,13.916012,0.000050,
2116,2293,-3.04300772849765,-7.67985728342602,-0.00146284817691367,0.001292,-0.000220,0.000564,0.057605,0.033950,326.813901,24.323940,0.998938,0.984934,0.004952,0.377139,0.000111,0.000073,0.000035,0.000131,0.000052,30.593544,0.000189,
2386,2968,2.71358302409467,7.04249381900046,-0.00604709038941564,0.002933,-0.000760,0.008646,0.103629,0.025980,315.360889,25.182022,0.999590,0.990750,0.003885,0.377974,0.000007,-0.000006,0.000003,0.000007,-0.000007,13.903826,0.000008,
2041,3028,-4.78568334471457,8.32049075969924,0.0130765141607299,0.003003,-0.000094,0.006930,0.119337,0.047695,315.484319,24.234144,0.999555,0.991635,0.003779,0.439894,0.000006,-0.000007,-0.000003,0.000006,-0.000007,-11.362761,0.000008,
2221,2398,-0.772364279656326,-5.38387638074535,-0.00527932145757859,0.002768,-0.000375,-0.000069,0.127220,0.035406,324.799253,24.045331,0.999630,0.990676,0.003950,0.372733,0.000022,0.000075,-0.000005,0.000075,0.000021,-84.317365,0.000102,
2056,2998,-4.45608404004112,7.6711766592226,0.0102148215656825,0.002820,-0.000069,0.006138,0.112851,0.050524,315.854357,24.324250,0.999269,0.989658,0.003951,0.411863,0.000001,-0.000023,-0.000010,0.000005,-0.000027,-20.047622,0.000028,
2251,2728,-0.178754596757955,1.81474567742448,-0.0203870532854467,0.002652,-0.000401,0.005492,0.103925,0.042728,319.237356,24.400674,0.999217,0.990071,0.003972,0.465550,0.000002,0.000026,-0.000003,0.000026,0.000002,-83.284742,0.000031,
2326,2503,1.49498430501153,-3.08916808013561,-0.0120891871263211,0.002310,-0.000963,0.004026,0.091867,0.022107,322.860059,23.907281,0.999376,0.987309,0.004264,0.424666,0.000021,0.000023,0.000013,0.000035,0.000009,46.830577,0.000046,
2071,3118,-4.14769663873689,10.2720457733308,0.0444503597522612,0.003075,-0.000534,0.008237,0.118343,0.039992,314.106752,24.299442,0.999733,0.993951,0.003077,0.435800,0.000007,0.000024,0.000001,0.000024,0.000007,87.884352,0.000032,
2311,2398,1.19000845914066,-5.3874404968509,0.0191168167830256,0.002099,-0.000541,-0.001243,0.100353,0.009509,324.838993,23.612134,0.999347,0.987840,0.004669,0.501868,0.000043,0.000073,0.000014,0.000079,0.000037,68.208018,0.000118,
2161,2158,-2.04272752931407,-10.6298612785682,-0.0333841551872069,0.001538,-0.001077,0.001232,0.066385,-0.011432,328.549995,24.147671,0.999853,0.944885,0.008339,0.213001,0.000213,0.000182,0.000059,0.000259,0.000137,37.632828,0.000402,
2191,2158,-1.38403999571819,-10.6388772413414,0.0215754443109404,0.001837,-0.000271,-0.006142,0.103313,-0.003124,328.950194,23.772925,0.999192,0.984961,0.004936,0.430709,0.000203,0.000180,0.000043,0.000236,0.000147,37.771271,0.000386,
2371,2818,2.4152276783469,3.77856357814528,-0.0144629253406379,0.002706,-0.000676,0.009077,0.091890,0.024149,317.719603,24.633919,0.999854,0.994897,0.003356,0.479880,0.000014,0.000022,0.000014,0.000032,0.000003,52.940519,0.000039,
2221,2608,-0.810063621749524,-0.800782029023104,-0.0231404140004656,0.002834,-0.000466,0.002896,0.120878,0.022442,321.245161,24.216081,0.998957,0.983415,0.004880,0.470179,0.000006,0.000018,0.000005,0.000020,0.000005,70.859065,0.000026,
2296,2923,0.766241460700467,6.05636874417778,0.00382817939146207,0.002889,-0.000550,0.007761,0.106575,0.031458,316.201196,24.726845,0.999413,0.992422,0.003604,0.523015,0.000006,-0.000001,0.000008,0.000011,-0.000006,34.056656,0.000011,
2041,2008,-4.63479558133862,-13.9229829307569,0.0145025071208238,-0.001009,-0.001712,-0.000445,-0.045668,-0.030367,331.802852,24.679292,0.997680,0.978345,0.006185,0.352047,0.000498,0.000333,0.000172,0.000606,0.000225,32.210362,0.000859,
2506,2248,5.47689524400967,-8.66937932888653,0.018643200029544,0.003456,-0.001094,0.002324,0.148693,-0.008594,327.553313,22.418779,0.998903,0.979711,0.005657,0.439349,0.000219,0.000172,-0.000014,0.000223,0.000168,-15.902448,0.000392,
2041,3043,-4.78777196168802,8.64521021018071,0.0207703146063523,0.002899,-0.000369,0.008757,0.109432,0.052214,315.294541,24.212385,0.999717,0.994668,0.003076,0.457622,0.000003,-0.000003,-0.000008,0.000008,-0.000008,-34.937289,0.000010,
2176,2128,-1.70825144485074,-11.2953430966943,0.014913464206245,0.000984,-0.002255,0.004993,0.028887,-0.032165,329.349047,23.840847,0.998927,0.979740,0.005562,0.385467,0.000242,0.000260,0.000059,0.000310,0.000192,49.303906,0.000507,
2056,3238,-4.49113764859542,12.8704839547224,0.0536865615254101,0.003213,-0.000341,0.007482,0.127341,0.047303,312.316585,24.192882,0.999595,0.994152,0.003119,0.436487,0.000005,-0.000016,-0.000005,0.000006,-0.000018,-13.147409,0.000018,
2251,2593,-0.154631175509664,-1.12710939878168,-0.0212118573073781,0.002613,-0.000362,0.001216,0.116032,0.027698,321.434562,24.152469,0.999269,0.987005,0.004499,0.484495,-0.000003,0.000028,-0.000001,0.000028,-0.000003,-88.683076,0.000031,
2116,2308,-3.04444558350964,-7.35296581082549,-0.00223252943789021,0.002094,-0.000390,-0.002319,0.102893,-0.002297,326.611736,24.262201,0.998982,0.984518,0.005073,0.408055,0.000101,0.000066,0.000023,0.000113,0.000055,26.361904,0.000171,
2266,2908,0.116823753599604,5.73066884269458,-0.00514476817994591,0.003004,0.000022,0.002681,0.129480,0.044027,316.433599,24.761669,0.999639,0.992013,0.003612,0.413017,0.000010,0.000003,0.000016,0.000022,-0.000010,38.400059,0.000022,
2101,2143,-3.34558178091465,-10.9649157014556,0.0139417066447436,0.001056,-0.001011,0.002983,0.039419,0.006994,329.405174,24.292615,0.998735,0.982324,0.005438,0.404744,0.000235,0.000232,0.000085,0.000319,0.000148,44.533837,0.000478,
2101,2248,-3.36149117570871,-8.66458657601426,-0.00557447256210253,0.002118,0.000256,-0.007541,0.119297,0.016671,327.634190,24.292534,0.998800,0.984676,0.005068,0.441979,0.000132,0.000121,0.000052,0.000179,0.000074,42.135957,0.000260,
2446,3148,3.98593341439907,10.9547340666114,0.0261629663505119,0.003092,0.000126,0.003618,0.128997,0.059249,312.783172,25.917827,0.999537,0.990114,0.003866,0.441948,0.000038,-0.000004,0.000010,0.000040,-0.000006,12.234201,0.000043,
2071,2113,-3.99443310959905,-11.6214115194903,0.0200225127107956,0.000778,-0.000823,-0.000549,0.036947,0.012327,330.082693,24.540687,0.998906,0.981420,0.005349,0.328350,0.000284,0.000273,0.000094,0.000373,0.000185,43.356783,0.000568,
2041,2023,-4.63564849527638,-13.5949795903387,0.0159984334175078,0.000041,-0.001647,-0.003784,0.011777,-0.037741,331.632776,24.611384,0.997986,0.979226,0.005971,0.408176,0.000460,0.000285,0.000156,0.000551,0.000194,30.363052,0.000774,
2386,2983,2.71150709119187,7.36770775642185,-0.000969926430684609,0.003219,-0.000656,0.006939,0.122991,0.028818,315.177935,25.182824,0.999559,0.990029,0.004043,0.422647,0.000010,-0.000008,0.000005,0.000011,-0.000010,13.449314,0.000012,
2221,2413,-0.775109027221522,-5.05653006183688,-0.00266583769769113,0.002539,-0.000254,0.001564,0.111520,0.044913,324.563051,24.049640,0.999632,0.990538,0.003981,0.398396,0.000018,0.000068,-0.000008,0.000069,0.000017,-80.683246,0.000091,
2326,2518,1.49192703568555,-2.76109657311705,-0.0173195090775948,0.002193,-0.000353,0.000864,0.097593,0.019013,322.578739,23.955005,0.999321,0.985660,0.004473,0.409383,0.000021,0.000013,0.000015,0.000032,0.000002,37.362407,0.000038,
2506,2263,5.4728646053642,-8.33960425265928,0.0154925021246299,0.003255,-0.001542,0.007399,0.119749,0.006708,327.254580,22.533508,0.998644,0.975257,0.005991,0.403687,0.000202,0.000156,-0.000026,0.000214,0.000144,-24.346968,0.000361,
2296,2983,0.756105784450973,7.36224190827598,0.00558593466462298,0.003219,0.000247,0.002243,0.140844,0.058754,315.269650,25.016327,0.999263,0.988233,0.004120,0.378250,0.000008,0.000001,0.000007,0.000012,-0.000003,32.508224,0.000013,
2371,2833,2.41219814444885,4.10658729471159,-0.0216572209903347,0.002760,-0.000274,0.004537,0.110685,0.029962,317.432903,24.759014,0.999676,0.990649,0.003887,0.401603,0.000008,0.000032,0.000016,0.000039,0.000000,63.975527,0.000045,
2176,2143,-1.71017306638339,-10.966827023632,0.0182209804906392,0.001304,-0.001799,0.004807,0.044308,-0.021256,329.150717,23.866146,0.998780,0.979592,0.005546,0.386134,0.000224,0.000218,0.000060,0.000281,0.000160,43.605610,0.000447,
2446,3163,3.98319915770211,11.2800899214332,0.0331294046271751,0.003020,-0.000164,0.006477,0.114923,0.063975,312.581470,25.983621,0.999511,0.990628,0.003989,0.431790,0.000037,-0.000004,0.000007,0.000038,-0.000005,9.888115,0.000041,
2041,3058,-4.78960352317463,8.9697603325608,0.0284223216040118,0.002901,-0.000504,0.008018,0.111570,0.052176,315.116421,24.182218,0.999694,0.994239,0.003174,0.479354,0.000004,0.000000,-0.000006,0.000008,-0.000004,-37.384181,0.000008,
2056,3253,-4.49350574836274,13.1957763836626,0.052272364853593,0.003314,-0.000392,0.007250,0.132705,0.048881,312.064528,24.220229,0.999722,0.995163,0.003014,0.403822,0.000009,-0.000025,-0.000005,0.000009,-0.000026,-8.861236,0.000026,
2041,2038,-4.63821241449041,-13.2665795839275,0.0206330080397947,-0.000480,-0.001150,-0.001704,-0.017709,-0.019592,331.401797,24.594977,0.998423,0.979082,0.005785,0.438780,0.000428,0.000274,0.000148,0.000518,0.000184,31.237846,0.000728,
2161,2173,-2.04589164636468,-10.3032686754044,-0.0488313314364746,0.001614,-0.000574,-0.002112,0.080256,0.000456,328.195524,23.811303,0.999810,0.931448,0.008730,0.574448,0.000200,0.000161,0.000055,0.000239,0.000122,35.215700,0.000367,
2311,2413,1.18600135917771,-5.05795729509229,0.00425113160764568,0.002087,-0.000693,0.000398,0.094124,-0.007801,324.465635,23.672526,0.999433,0.987723,0.004565,0.458501,0.000036,0.000070,0.000015,0.000076,0.000031,69.132447,0.000110,
2251,2743,-0.180826762712396,2.14149654502071,-0.0200992913399318,0.003051,-0.000251,0.003116,0.130120,0.037345,319.022017,24.448359,0.999155,0.988005,0.004300,0.435949,0.000003,0.000022,0.000002,0.000022,0.000003,85.497112,0.000027,
2266,2923,0.114094214986721,6.05618135377892,-0.0028500216961902,0.002919,0.000045,0.004276,0.120270,0.038786,316.199274,24.761175,0.999650,0.992264,0.003747,0.433289,0.000011,0.000004,0.000014,0.000023,-0.000007,38.247527,0.000023,
2296,2938,0.763468789008833,6.38416328231343,0.00203656737471647,0.002903,-0.000275,0.006406,0.111977,0.046521,315.945913,24.891097,0.999237,0.989961,0.004007,0.403228,0.000007,0.000005,0.000008,0.000014,-0.000002,40.569129,0.000015,
2116,2323,-3.04735914432578,-7.02443869531751,-0.00166724907774096,0.001723,-0.000495,0.000644,0.077103,0.024937,326.348634,24.305315,0.999196,0.986375,0.004714,0.397629,0.000091,0.000058,0.000012,0.000095,0.000054,18.152614,0.000151,
2101,2263,-3.3641325681717,-8.3376009589262,0.000669291268593497,0.001902,-0.000661,-0.000066,0.087309,0.007200,327.413380,24.268820,0.998703,0.983375,0.005192,0.459705,0.000126,0.000110,0.000052,0.000170,0.000065,40.566323,0.000243,
2251,2608,-0.157402991494688,-0.800463520687849,-0.017468760634415,0.002350,-0.000507,0.002946,0.098238,0.032225,321.204868,24.169304,0.999178,0.985494,0.004723,0.496108,-0.000006,0.000019,0.000000,0.000019,-0.000006,88.872007,0.000019,
2101,2158,-3.34751791860478,-10.6365800641563,0.019284645794869,0.001061,-0.000802,0.002126,0.042222,0.010712,329.211370,24.334152,0.998776,0.981652,0.005517,0.370774,0.000218,0.000195,0.000075,0.000282,0.000131,40.652363,0.000422,
2041,2053,-4.64238801222408,-12.932873816368,-0.0134624101346503,-0.000150,-0.001765,0.001626,-0.011975,-0.043301,330.882898,24.676740,0.999648,0.992881,0.003617,0.330767,0.000397,0.000279,0.000128,0.000479,0.000197,32.686897,0.000695,
2071,2128,-3.99703534559209,-11.2922348009239,0.0121770172154925,0.000990,-0.000956,0.000225,0.044421,0.018124,329.784209,24.503509,0.999074,0.984426,0.005035,0.371457,0.000257,0.000256,0.000095,0.000352,0.000161,44.946835,0.000525,
2506,2278,5.46918595899907,-8.01074377566306,0.0106068095310548,0.002770,-0.001114,0.003392,0.113196,-0.004604,326.964386,22.579183,0.998827,0.976555,0.005662,0.410150,0.000183,0.000140,-0.000015,0.000188,0.000136,-17.815982,0.000325,
2056,3268,-4.49648805470854,13.5205547689123,0.0480806192371119,0.002985,-0.000171,0.007212,0.117667,0.050782,311.769125,24.188573,0.999708,0.995054,0.002960,0.430808,0.000013,-0.000034,-0.000003,0.000013,-0.000034,-4.134514,0.000034,
2386,2998,2.70886962611465,7.6928575203972,0.00817837971095514,0.002867,-0.000787,0.008309,0.101805,0.017967,314.988495,25.222507,0.999582,0.990335,0.003923,0.414443,0.000013,-0.000008,0.000005,0.000014,-0.000009,13.392714,0.000015,
2296,2998,0.753204053056606,7.68710254024956,0.00862125044852746,0.002971,0.000057,0.003992,0.123393,0.050070,315.033159,24.984114,0.999442,0.990180,0.003819,0.431036,0.000007,-0.000002,0.000006,0.000010,-0.000005,26.683764,0.000010,
2131,2128,-2.68889613287046,-11.2936586098944,0.00696045247974553,0.001612,-0.001065,-0.001852,0.079081,-0.019371,329.496668,24.092026,0.998766,0.980567,0.005453,0.404017,0.000252,0.000263,0.000083,0.000340,0.000174,46.924630,0.000524,
2371,2848,2.409620864172,4.43271182575292,-0.0215282590665424,0.002900,-0.000197,0.002712,0.123723,0.045622,317.202464,24.759735,0.999597,0.989738,0.003956,0.457326,0.000005,0.000030,0.000015,0.000036,-0.000002,65.267273,0.000041,
2041,2068,-4.64410185283334,-12.6054129931925,-0.0101665586958575,0.000044,-0.001354,0.000154,0.001125,-0.023559,330.683483,24.570606,0.999595,0.992050,0.003759,0.452230,0.000372,0.000294,0.000124,0.000463,0.000203,36.288668,0.000683,
2176,2158,-1.71593064560468,-10.6310769077115,-0.0322334453195481,0.001145,-0.000737,-0.000049,0.052398,0.007252,328.495525,23.965605,0.999410,0.958502,0.006941,0.332258,0.000207,0.000178,0.000051,0.000246,0.000139,37.042922,0.000390,
2056,3283,-4.49918880447306,13.8452861974056,0.0410329039995077,0.003177,-0.000131,0.008174,0.123897,0.062113,311.470866,24.131899,0.999733,0.995361,0.002880,0.491798,0.000017,-0.000031,0.000008,0.000018,-0.000033,8.788922,0.000033,
2101,2173,-3.35027771827527,-10.3075939166274,0.0129169776061531,0.001086,-0.001148,0.002687,0.041633,0.003768,328.916833,24.326258,0.998896,0.982684,0.005294,0.376001,0.000205,0.000171,0.000073,0.000263,0.000112,38.529167,0.000385,
2311,2428,1.1823838507448,-4.72836179436717,-0.00471925168938014,0.002174,-0.000764,0.004023,0.085774,0.017413,324.138819,23.763376,0.999609,0.989298,0.004215,0.426977,0.000036,0.000052,0.000015,0.000061,0.000027,59.043455,0.000091,
2506,2293,5.46566711772466,-7.68151740278345,0.00959833268791499,0.002317,-0.000775,0.001702,0.099156,0.006214,326.698560,22.681080,0.999062,0.977101,0.005651,0.382427,0.000164,0.000100,0.000003,0.000164,0.000100,2.746476,0.000267,
2251,2623,-0.15967011029645,-0.473967354395292,-0.0116806027696725,0.002518,-0.000753,0.005691,0.096913,0.022352,321.008716,24.208272,0.999158,0.986214,0.004572,0.471337,-0.000008,0.000032,0.000000,0.000032,-0.000008,-89.620212,0.000034,
2266,2938,0.110785501740509,6.38115476179175,-0.00420000520284702,0.002626,-0.000657,0.007338,0.096390,0.015393,315.920148,24.707452,0.999488,0.991172,0.003804,0.488769,0.000014,0.000010,0.000013,0.000025,-0.000001,41.520546,0.000028,
2161,2188,-2.04507630140552,-9.98182660792571,-0.00269493939015319,0.001613,-0.000474,-0.004337,0.087044,0.006601,328.347122,23.666047,0.999742,0.911753,0.009587,0.736533,0.000183,0.000152,0.000051,0.000221,0.000114,36.570575,0.000341,
2101,2278,-3.36630956022491,-8.00986984312085,0.0016910430721282,0.001990,-0.000825,-0.000366,0.092204,0.009868,327.185464,24.252436,0.998523,0.982323,0.005328,0.482052,0.000116,0.000085,0.000043,0.000147,0.000055,35.030831,0.000208,
2296,3193,0.719174549639636,11.9173458096158,0.0364991776884267,0.002982,-0.000450,0.007628,0.111574,0.039745,312.065394,25.370885,0.999683,0.992595,0.003436,0.410053,0.000012,-0.000007,0.000004,0.000012,-0.000008,10.787438,0.000012,
2071,2143,-3.99885184875962,-10.9635317414314,0.0110509780359962,0.001351,-0.000408,-0.002453,0.068814,0.039282,329.558240,24.486280,0.999030,0.984096,0.005128,0.409748,0.000238,0.000238,0.000087,0.000325,0.000151,45.051513,0.000486,
2041,2083,-4.6442067592127,-12.2785409257239,0.0154191083682917,0.000354,-0.000532,-0.003705,0.026320,0.002300,330.680596,24.654734,0.999298,0.985936,0.004615,0.388259,0.000343,0.000301,0.000122,0.000446,0.000198,40.122771,0.000660,
2116,2338,-3.0500481276275,-6.69702281976558,-0.00660926199049072,0.001902,-0.000926,0.003207,0.077608,0.011226,326.066708,24.238489,0.999218,0.986074,0.004750,0.456270,0.000080,0.000055,0.000006,0.000081,0.000053,11.895401,0.000135,
2056,3298,-4.50203829431042,14.1703753049099,0.0342294776646668,0.003191,-0.000169,0.008848,0.122625,0.062886,311.166985,24.124674,0.999588,0.993891,0.003122,0.492961,0.000018,-0.000011,0.000004,0.000019,-0.000012,7.415764,0.000019,
2101,2188,-3.35298328685652,-9.97935953650612,0.0105759989043577,0.000996,-0.001324,0.004675,0.031645,-0.000208,328.646573,24.295414,0.998865,0.982162,0.005380,0.406943,0.000188,0.000169,0.000073,0.000252,0.000105,41.287466,0.000367,
2296,3013,0.749927424483086,8.01274850268994,0.00750702217163735,0.002818,-0.000568,0.007901,0.102959,0.038764,314.758537,25.002711,0.999347,0.987075,0.004207,0.430379,0.000007,-0.000007,0.000002,0.000007,-0.000008,9.241312,0.000008,
2371,2863,2.40691977129902,4.75851877550977,-0.0125441404827598,0.002759,-0.000498,0.007703,0.099353,0.037948,317.008797,24.824527,0.999552,0.990436,0.003863,0.425660,0.000003,0.000022,0.000012,0.000028,-0.000002,65.013731,0.000031,
2506,2308,5.4632122012731,-7.35400202584133,0.014103152027019,0.002591,-0.000854,0.001661,0.111802,0.001195,326.506294,22.702466,0.998989,0.978725,0.005604,0.419017,0.000149,0.000108,0.000006,0.000150,0.000107,8.660314,0.000258,
2071,1993,-3.97710858912715,-14.2544554300653,0.0198038791978092,-0.000226,-0.002142,-0.003756,-0.000443,-0.080906,331.968292,24.434294,0.998620,0.979052,0.005717,0.339688,0.000488,0.000277,0.000125,0.000546,0.000219,24.933508,0.000789,
2071,2158,-4.00127884541174,-10.6356652248097,0.00761876900963898,0.001329,-0.000587,-0.003800,0.071595,-0.003157,329.292309,24.437155,0.999104,0.984070,0.005106,0.416063,0.000217,0.000201,0.000072,0.000281,0.000136,41.671073,0.000426,
2041,2098,-4.64586953818344,-11.9503737232706,0.0191727829540582,0.000621,-0.000442,-0.004579,0.041003,0.009029,330.486056,24.639209,0.999217,0.981036,0.005198,0.405789,0.000313,0.000295,0.000121,0.000425,0.000183,42.853302,0.000623,
2176,2173,-1.72094226459301,-10.2972667211622,-0.0678118189618431,0.000903,-0.000364,-0.002233,0.048176,0.016461,327.952216,24.077448,0.999814,0.924571,0.008943,0.246357,0.000192,0.000158,0.000046,0.000223,0.000126,34.701001,0.000354,
2311,2443,1.17995048686288,-4.40229904667073,0.00477675827039548,0.001953,-0.001000,0.006373,0.067579,0.023653,323.957651,23.728624,0.999513,0.988095,0.004414,0.501167,0.000034,0.000039,0.000015,0.000052,0.000021,49.412927,0.000075,
2251,2638,-0.162415136947512,-0.145743958529025,-0.0188722922894158,0.002899,-0.000713,0.004981,0.116725,0.015273,320.724551,24.297059,0.998841,0.986313,0.004519,0.399197,-0.000011,0.000029,0.000002,0.000029,-0.000011,87.502151,0.000030,
2101,2293,-3.36942675834292,-7.68067999500929,-0.000666966844164563,0.001469,-0.000453,0.001015,0.064344,0.027061,326.895993,24.326005,0.998953,0.985339,0.004993,0.429322,0.000110,0.000081,0.000041,0.000139,0.000052,35.430948,0.000197,
2296,3208,0.716178392600256,12.2426287597885,0.032554516154164,0.002961,-0.000326,0.006581,0.114220,0.040735,311.789164,25.377776,0.999764,0.993720,0.003175,0.432750,0.000013,-0.000003,0.000008,0.000016,-0.000006,22.038140,0.000016,
2161,2203,-2.0476917130685,-9.65036800544206,0.00102846954922597,0.001523,-0.001268,-0.000050,0.069587,-0.011465,328.117665,24.014477,0.998787,0.960352,0.006805,0.382737,0.000165,0.000134,0.000043,0.000196,0.000104,35.097588,0.000304,
2116,2353,-3.05268432540851,-6.36779825325114,-0.0113614346538498,0.002028,-0.000839,0.004148,0.080647,0.021993,325.787708,24.320133,0.999225,0.984354,0.004928,0.391061,0.000072,0.000054,0.000000,0.000072,0.000054,1.127384,0.000126,
2071,2008,-3.97954309128746,-13.9238518977559,0.0141557082774852,-0.000059,-0.001674,-0.004026,0.008147,-0.060719,331.689081,24.489565,0.998864,0.982009,0.005350,0.305456,0.000462,0.000322,0.000139,0.000548,0.000236,31.646170,0.000805,
2101,2203,-3.35521497852585,-9.65055820695277,0.00726498983306101,0.001158,-0.000930,0.002167,0.046524,-0.001343,328.392614,24.308803,0.998497,0.980205,0.005525,0.396377,0.000171,0.000152,0.000063,0.000226,0.000098,40.678066,0.000332,
2041,2113,-4.64755504844193,-11.6226330196329,0.019821483615317,0.001216,-0.001202,-0.002830,0.063238,-0.023998,330.273655,24.595535,0.999030,0.980149,0.005515,0.411860,0.000286,0.000283,0.000113,0.000397,0.000172,44.551217,0.000584,
2071,2173,-4.00379884494434,-10.3074804387837,0.0109692070953429,0.001082,-0.000969,-0.000590,0.051023,0.013906,329.058768,24.435433,0.999088,0.984964,0.004968,0.434444,0.000203,0.000172,0.000069,0.000259,0.000116,38.587788,0.000384,
2071,2023,-3.98217404732376,-13.5952770689442,0.014980789059905,-0.000221,-0.001918,0.000173,-0.011285,-0.034618,331.436469,24.433752,0.998793,0.982933,0.005340,0.387972,0.000434,0.000290,0.000125,0.000507,0.000218,30.122308,0.000743,
2296,3028,0.747987102393484,8.33858787586412,0.0107633864473087,0.003205,-0.000176,0.005410,0.129374,0.051504,314.566945,25.048175,0.999393,0.988709,0.004011,0.426885,0.000009,-0.000009,0.000001,0.000009,-0.000009,2.911980,0.000010,
2251,2653,-0.165286270835306,0.180330537526231,-0.012081901513568,0.002460,-0.001171,0.008666,0.084369,0.017862,320.505772,24.302019,0.999307,0.988552,0.004255,0.420810,-0.000011,0.000031,0.000006,0.000032,-0.000011,82.332687,0.000032,
2101,2308,-3.37110440173476,-7.35352424326297,0.000865863085607543,0.001937,-0.000748,-0.000664,0.090682,0.000245,326.693911,24.301667,0.998830,0.982892,0.005498,0.429912,0.000101,0.000070,0.000028,0.000118,0.000053,30.467549,0.000175,
2176,2188,-1.7182610298794,-9.97839584239004,0.00111974373078283,0.001419,-0.000538,-0.001316,0.068941,0.011912,328.308128,23.949624,0.999112,0.947310,0.007582,0.381553,0.000176,0.000151,0.000039,0.000204,0.000123,35.861331,0.000330,
2296,3223,0.71318905141937,12.5670575325766,0.0318766820184919,0.002793,-0.000305,0.006724,0.106014,0.044464,311.529765,25.326205,0.999834,0.994770,0.002958,0.516683,0.000012,0.000005,0.000005,0.000015,0.000003,26.771909,0.000019,
2311,2458,1.17649636477956,-4.07369644691202,-0.0036126763383777,0.001960,-0.001170,0.007366,0.064470,0.030791,323.641322,23.763094,0.999458,0.986988,0.004578,0.507856,0.000028,0.000035,0.000017,0.000049,0.000015,50.819049,0.000066,
2116,2368,-3.05403732984876,-6.04173095514086,-0.0020764158896327,0.002278,-0.000791,0.001408,0.100269,0.004989,325.643398,24.282532,0.999037,0.984641,0.004924,0.416327,0.000067,0.000058,-0.000004,0.000068,0.000056,-18.818770,0.000125,
2161,2218,-2.05000747432024,-9.32210313564289,0.00462821324003926,0.001409,-0.000965,-0.000270,0.065148,-0.018014,327.901764,24.063430,0.998519,0.978248,0.005734,0.339858,0.000150,0.000124,0.000038,0.000177,0.000096,35.619272,0.000277,
2041,2128,-4.65033050266586,-11.2933668413642,0.0150355539163343,0.001085,-0.001236,-0.000617,0.051098,-0.016836,329.981039,24.597605,0.998753,0.977899,0.005997,0.412770,0.000257,0.000264,0.000115,0.000376,0.000145,45.786112,0.000538,
2131,2368,-2.72776731481726,-6.04124633982179,-0.00548058011702324,0.002088,-0.000349,-0.001085,0.099049,0.021780,325.549391,24.216174,0.998934,0.986570,0.004675,0.449433,0.000064,0.000056,-0.000004,0.000065,0.000055,-22.028994,0.000120,
2071,2038,-3.98389845204402,-13.266110884056,0.0148640375583113,0.000006,-0.000901,-0.004915,0.013874,-0.014384,331.220038,24.432234,0.998836,0.984125,0.005122,0.409935,0.000408,0.000285,0.000120,0.000481,0.000211,31.459429,0.000710,
2071,2188,-4.00603099100081,-9.97839209934769,0.00351301121020242,0.001555,-0.000271,-0.001223,0.074777,0.027253,328.779294,24.410808,0.998977,0.984663,0.005138,0.472423,0.000186,0.000170,0.000070,0.000249,0.000107,41.798423,0.000365,
2296,3238,0.710309404028362,12.8928133757955,0.0296008813920707,0.002933,-0.000352,0.007891,0.108504,0.045327,311.266939,25.394701,0.999672,0.992645,0.003361,0.477654,0.000011,-0.000004,0.000002,0.000012,-0.000004,9.168048,0.000012,
2101,2323,-3.37268591309496,-7.02561935104667,0.00514040178865116,0.002300,-0.000149,-0.002799,0.113783,0.010062,326.510696,24.341272,0.999091,0.985959,0.004893,0.403383,0.000090,0.000059,0.000016,0.000096,0.000052,23.234862,0.000151,
2251,2668,-0.16810616747453,0.507188776960355,-0.0143974814986905,0.002300,-0.000921,0.006406,0.084513,0.025413,320.243055,24.301856,0.999497,0.990402,0.003956,0.452170,-0.000008,0.000034,0.000000,0.000034,-0.000008,89.799333,0.000036,
2296,3043,0.745777236727822,8.66375596516061,0.0184453269941969,0.003245,-0.000488,0.006272,0.128174,0.042357,314.385153,25.086387,0.999456,0.989206,0.003950,0.408346,0.000008,-0.000006,0.000001,0.000008,-0.000006,3.423105,0.000009,
2071,2053,-3.98607785572151,-12.9374830274773,0.0176427802903163,-0.000043,-0.000866,-0.004291,0.009912,-0.029541,330.998920,24.454829,0.998323,0.976632,0.005985,0.372130,0.000381,0.000284,0.000108,0.000451,0.000214,32.909997,0.000679,
2311,2473,1.17392096537576,-3.7453860578916,-0.00374984798838796,0.001856,-0.000498,0.003392,0.073457,0.028404,323.405849,23.862369,0.999264,0.985730,0.004663,0.439616,0.000028,0.000029,0.000018,0.000046,0.000011,46.314965,0.000060,
2161,2233,-2.05180566513095,-8.99493741146441,0.0118203216313759,0.001650,-0.000965,0.000727,0.073179,-0.009415,327.728507,24.038676,0.998718,0.979451,0.005455,0.385366,0.000135,0.000112,0.000033,0.000159,0.000089,35.491830,0.000250,
2131,2383,-2.73024036109715,-5.71332347649088,-0.00669485499207667,0.002031,-0.000182,-0.002320,0.100225,0.026972,325.298377,24.229390,0.998750,0.985613,0.004816,0.448769,0.000055,0.000053,-0.000003,0.000058,0.000050,-34.621245,0.000108,
2071,2203,-4.00811921949834,-9.65030810611668,0.00715832379006542,0.001557,-0.000293,-0.000699,0.073373,0.021276,328.567231,24.436214,0.998510,0.981997,0.005381,0.440120,0.000171,0.000155,0.000060,0.000224,0.000102,41.152767,0.000333,
2146,2203,-2.37479780913696,-9.65079537995722,0.00406477586739129,0.001313,-0.001621,0.002719,0.051488,-0.018938,328.180115,24.078836,0.998697,0.976193,0.005789,0.385389,0.000170,0.000142,0.000047,0.000205,0.000107,36.788729,0.000317,
2101,2338,-3.37521618615773,-6.69761256276794,-0.00132083561186391,0.002525,-0.000225,-0.003026,0.124749,0.012040,326.226255,24.297054,0.999215,0.987481,0.004611,0.452709,0.000077,0.000054,0.000008,0.000079,0.000051,17.959627,0.000131,
2251,2683,-0.170455450223979,0.834119891685503,-0.0161999610132852,0.002437,-0.000276,0.002242,0.104715,0.045753,320.004441,24.304698,0.999478,0.990485,0.003870,0.493670,-0.000009,0.000039,-0.000005,0.000039,-0.000009,-84.008488,0.000041,
2146,2443,-2.41359250210199,-4.40215063170675,-0.0130580730356655,0.002552,-0.000064,0.000468,0.115865,0.034493,324.232010,24.225836,0.999200,0.986152,0.004842,0.449647,0.000037,0.000022,-0.000012,0.000044,0.000016,-29.367734,0.000062,
2296,3058,0.742866429272954,8.9892255513298,0.0130602281697634,0.003155,-0.000005,0.001834,0.139290,0.054485,314.106045,25.049294,0.999563,0.992147,0.003587,0.486930,0.000009,-0.000015,0.000002,0.000009,-0.000015,3.677227,0.000015,
2461,3298,4.27984329655198,14.2110634591759,0.0037229440688975,0.003278,-0.000416,0.007921,0.121052,0.045363,310.151614,26.472637,0.999541,0.992896,0.003534,0.468132,0.000034,-0.000051,0.000000,0.000034,-0.000051,-0.218161,0.000052,
2236,2308,-0.430700672012559,-7.35165765041819,-0.0112117944198076,0.002151,-0.000105,-0.004005,0.111607,0.022066,326.154182,23.770204,0.998819,0.984456,0.004920,0.451131,0.000070,0.000084,0.000012,0.000091,0.000063,60.354416,0.000155,
2446,3178,3.98013647027845,11.6057852703016,0.029554925752791,0.003127,-0.000436,0.005016,0.125201,0.042258,312.315708,26.047496,0.999576,0.991293,0.003747,0.397101,0.000036,-0.000005,0.000005,0.000037,-0.000006,6.720252,0.000040,
2356,2578,2.13474763663968,-1.45192967095301,-0.00944296136606226,0.002302,-0.000582,0.003571,0.092964,0.032103,321.662913,24.023202,0.999245,0.987424,0.004468,0.455894,0.000030,0.000026,0.000021,0.000049,0.000007,42.032577,0.000061,
2116,3178,-3.18230218878368,11.5761911593724,0.0431969752797272,0.002866,-0.000174,0.007552,0.109962,0.048432,312.881612,24.478300,0.999523,0.992043,0.003534,0.454996,0.000014,0.000014,0.000011,0.000025,0.000003,45.885658,0.000030,
2026,3013,-5.10864705818457,7.99527356083375,0.0122269035431373,0.002853,0.000141,0.005720,0.116103,0.063490,315.809989,24.284823,0.999577,0.992795,0.003527,0.368590,-0.000001,-0.000018,-0.000003,-0.000001,-0.000019,-9.409491,0.000022,
2206,2158,-1.05826400492585,-10.6381839959014,0.00960781158289592,0.001492,-0.000798,-0.003404,0.078828,-0.010014,328.784362,23.650745,0.999173,0.984839,0.004954,0.465239,0.000197,0.000184,0.000040,0.000231,0.000151,40.234986,0.000384,
2131,2398,-2.73226218489177,-5.38700376776796,0.00589756628943405,0.001701,-0.000338,-0.000790,0.080440,0.027673,325.141882,24.237601,0.998105,0.984437,0.005171,0.448174,0.000051,0.000051,-0.000010,0.000061,0.000041,-45.089778,0.000103,
2236,2458,-0.457175392745793,-4.0739929704628,-0.00226436850448408,0.001851,-0.001077,0.005449,0.067022,0.018931,323.760580,24.061085,0.999421,0.989028,0.004381,0.384768,0.000003,0.000039,-0.000004,0.000039,0.000002,-84.058461,0.000047,
2146,1993,-2.34000573837331,-14.2571324172047,0.0228614192935197,0.000499,-0.002095,-0.004474,0.035560,-0.072539,331.694129,23.875650,0.999143,0.981608,0.005194,0.380066,0.000429,0.000331,0.000070,0.000466,0.000295,27.620484,0.000767,
2041,3073,-4.79191010724096,9.29521805766812,0.0270352114516754,0.002892,-0.000013,0.005841,0.117408,0.071180,314.865941,24.161519,0.999520,0.992125,0.003645,0.510739,0.000004,0.000013,-0.000002,0.000013,0.000003,-76.948595,0.000017,
2266,2518,0.186031364242702,-2.76477131624595,-0.00362140277792378,0.002401,-0.000984,0.004738,0.094259,0.003228,322.750187,23.995115,0.999614,0.991075,0.003925,0.467285,0.000007,0.000019,0.000009,0.000024,0.000002,61.832327,0.000029,
2491,2143,5.17184975626833,-10.9716323307538,0.0269412292174138,0.003560,-0.000914,-0.001547,0.168294,-0.005152,329.294579,22.146411,0.999201,0.979721,0.005543,0.353600,0.000334,0.000306,-0.000081,0.000403,0.000238,-40.060612,0.000647,
2446,2113,4.19334860525322,-11.6291767053167,0.0208841171139511,0.003113,-0.000753,-0.005015,0.160636,-0.012890,329.610339,22.232701,0.999450,0.977696,0.005795,0.403586,0.000357,0.000329,-0.000063,0.000407,0.000279,-38.585469,0.000690,
2131,2053,-2.67727724662772,-12.9388431727077,0.0165217973501512,0.000795,-0.001972,0.000221,0.035062,-0.045464,330.736669,24.065648,0.998751,0.980104,0.005537,0.359789,0.000334,0.000320,0.000082,0.000409,0.000245,42.526811,0.000661,
2341,2593,1.80487894764297,-1.1239619042139,-0.0161185781848303,0.002558,-0.000539,0.004169,0.102813,0.026229,321.372809,24.136552,0.999308,0.987690,0.004329,0.393893,0.000025,0.000021,0.000015,0.000038,0.000008,41.328124,0.000049,
2071,3268,-4.17225264614099,13.5226166634664,0.035288076408392,0.003167,-0.000039,0.007610,0.124680,0.052168,311.584468,24.265698,0.999766,0.995725,0.002867,0.437099,0.000027,-0.000027,0.000001,0.000027,-0.000027,0.708688,0.000032,
2311,2488,1.17193332862752,-3.41842944499663,0.000571018178902705,0.002283,-0.000650,0.003163,0.093799,0.028297,323.219447,23.880974,0.999393,0.986701,0.004395,0.454168,0.000025,0.000020,0.000010,0.000033,0.000012,39.059046,0.000046,
2071,3133,-4.15043776036606,10.5975430421144,0.0373160726745709,0.003017,-0.000277,0.005612,0.123205,0.031304,313.807056,24.290470,0.999551,0.993791,0.003137,0.431928,0.000010,0.000017,-0.000002,0.000017,0.000010,-77.203434,0.000027,
2056,3013,-4.45860796254275,7.99653701649662,0.00958286510228845,0.002742,-0.000038,0.006892,0.107174,0.054468,315.599162,24.299771,0.999054,0.986945,0.004540,0.434163,0.000008,-0.000010,-0.000007,0.000010,-0.000013,-18.600768,0.000013,
2206,2488,-1.11585118954162,-3.41789219251071,-0.0192681615845913,0.002368,-0.000122,0.000516,0.107141,0.032629,323.245838,24.161687,0.999231,0.984545,0.004944,0.408633,0.000007,0.000017,0.000000,0.000017,0.000007,89.439935,0.000025,
2161,2248,-2.05455578240619,-8.66605714889737,0.00466071011942404,0.001888,-0.001092,0.001383,0.082031,0.009022,327.436029,24.017817,0.998812,0.978778,0.005350,0.437150,0.000126,0.000093,0.000032,0.000145,0.000074,31.283907,0.000222,
2221,2623,-0.813266796361624,-0.474023734470336,-0.0186675072546905,0.002313,-0.001029,0.008502,0.078810,0.020004,320.997303,24.260531,0.999109,0.984863,0.004788,0.442563,0.000002,0.000027,0.000003,0.000027,0.000001,82.549215,0.000032,
2086,2158,-3.67503263678379,-10.6349858776958,0.00204435281875703,0.001232,-0.000905,-0.002048,0.062105,-0.011557,329.159869,24.382996,0.998996,0.983261,0.005183,0.381467,0.000222,0.000199,0.000080,0.000291,0.000130,40.912554,0.000431,
2146,2458,-2.41665985322542,-4.07400385803267,-0.0164269039732972,0.002344,-0.000540,0.003161,0.098033,0.030245,323.943582,24.275091,0.999253,0.986951,0.004725,0.405292,0.000035,0.000019,-0.000018,0.000046,0.000008,-33.251724,0.000058,
2071,2218,-4.00999798889361,-9.32125447330121,0.00687044705296103,0.001907,-0.000079,-0.001994,0.093181,0.044626,328.342964,24.484698,0.997952,0.981427,0.005461,0.414391,0.000159,0.000142,0.000064,0.000216,0.000086,41.255449,0.000311,
2116,2083,-3.00902043178644,-12.2794716975855,0.0100902004214163,0.001041,-0.001008,-0.004160,0.059602,-0.020933,330.288852,24.201061,0.998467,0.974874,0.006319,0.359245,0.000306,0.000307,0.000083,0.000389,0.000224,45.066112,0.000621,
2131,3013,-2.83133912630561,8.00120354485282,0.0155216229782695,0.003012,-0.000214,0.006980,0.118050,0.056682,315.284510,24.529023,0.999404,0.991317,0.003756,0.430859,0.000006,-0.000003,0.000003,0.000007,-0.000004,16.756585,0.000007,
2476,1993,4.8765290749592,-14.2685513843542,0.0380455877246959,0.004335,-0.002158,-0.004790,0.215211,-0.074667,331.814755,21.540861,0.998506,0.969679,0.006524,0.373976,0.000622,0.000459,-0.000087,0.000659,0.000422,-23.469137,0.001090,
2236,2323,-0.433429242815581,-7.02382453264505,-0.0143416353452608,0.002332,-0.000355,-0.002871,0.116180,-0.002888,325.890875,23.768004,0.998573,0.985967,0.004865,0.451398,0.000064,0.000078,0.000009,0.000083,0.000059,63.661027,0.000143,
2416,2893,3.38066165582526,5.4140580472655,-0.0123635723941788,0.002893,-0.000197,0.003374,0.120660,0.039770,316.578861,25.010290,0.999477,0.990048,0.003930,0.403170,0.000005,-0.000002,0.000014,0.000016,-0.000013,37.739992,0.000017,
2191,2173,-1.38769343621915,-10.3089623189406,0.0088777390820951,0.001746,-0.000474,-0.003602,0.091148,0.004570,328.590758,23.769653,0.999249,0.968322,0.006076,0.459658,0.000187,0.000161,0.000037,0.000213,0.000135,35.335312,0.000351,
2446,3193,3.97752294022796,11.9304827479553,0.0351739818672741,0.003054,-0.000608,0.005074,0.121520,0.027321,312.113413,26.070752,0.999627,0.991216,0.003682,0.409700,0.000035,-0.000004,0.000006,0.000036,-0.000005,8.432808,0.000038,
2281,2698,0.479536054165145,1.16210955951497,-0.0124399105701514,0.002485,-0.000766,0.005951,0.094135,0.024358,319.733268,24.383846,0.999818,0.993114,0.003510,0.412853,-0.000003,0.000041,0.000002,0.000041,-0.000003,87.572365,0.000046,
2161,2338,-2.06975035262424,-6.69596042474042,-0.00769713209706424,0.002047,-0.000112,-0.002714,0.102256,0.036269,325.902159,24.115106,0.999275,0.987488,0.004465,0.440914,0.000072,0.000060,0.000002,0.000073,0.000060,10.838701,0.000133,
2191,2248,-1.40044146091028,-8.66679764325141,0.00769284743324761,0.001767,-0.000877,-0.002129,0.087408,-0.020980,327.369699,23.884601,0.998837,0.982513,0.005265,0.404314,0.000109,0.000098,0.000018,0.000122,0.000085,36.339955,0.000208,
2146,2008,-2.34117099794275,-13.9293117234099,0.0304322960049603,0.001263,-0.001629,-0.003997,0.069276,-0.036326,331.550458,23.812721,0.998848,0.981481,0.005378,0.490220,0.000403,0.000332,0.000087,0.000462,0.000274,33.841633,0.000743,
2146,2218,-2.37692248294844,-9.32228635680088,0.0106506408321252,0.001111,-0.000598,0.001679,0.045691,0.030561,327.987279,24.124716,0.998630,0.977793,0.005656,0.399212,0.000155,0.000130,0.000042,0.000186,0.000099,37.014623,0.000289,
2131,2413,-2.73530995897655,-5.05762270494296,-0.00898632778307729,0.002309,-0.000848,0.003060,0.096709,0.042863,324.791418,24.253894,0.998680,0.986134,0.004949,0.454799,0.000049,0.000040,-0.000009,0.000055,0.000034,-31.857312,0.000090,
2401,2923,3.04887169736827,6.06457705613479,-0.0049506715677694,0.002960,-0.000417,0.006217,0.113470,0.036838,316.127574,25.032043,0.999504,0.990764,0.003883,0.441987,0.000003,-0.000004,0.000010,0.000010,-0.000011,35.121388,0.000012,
2446,2128,4.19025096653923,-11.3004414084599,0.0210684065140185,0.003138,-0.001085,-0.003419,0.155773,-0.039583,329.365216,22.279967,0.999428,0.977456,0.005910,0.384853,0.000337,0.000319,-0.000056,0.000385,0.000271,-40.476974,0.000659,
2251,2698,-0.173031350001612,1.16102540839016,-0.0188112368297197,0.002666,-0.000081,0.001672,0.117144,0.040962,319.751374,24.328519,0.999423,0.991013,0.003701,0.488800,-0.000007,0.000039,-0.000004,0.000040,-0.000007,-85.626362,0.000042,
2041,3088,-4.79456533500923,9.62142498414369,0.0228143271203862,0.002961,-0.000376,0.007765,0.115083,0.049469,314.583486,24.236497,0.999668,0.993779,0.003194,0.405351,0.000002,0.000016,-0.000005,0.000017,0.000000,-73.603046,0.000020,
2026,3028,-5.11018132561131,8.31906720823553,0.0189435456811111,0.003194,-0.000205,0.005154,0.133351,0.053774,315.639682,24.181764,0.999479,0.991564,0.003823,0.451261,0.000003,-0.000010,0.000004,0.000004,-0.000011,13.875764,0.000011,
2071,3283,-4.17520040006913,13.8474826061935,0.0276302663974093,0.003178,-0.000190,0.008536,0.122523,0.056678,311.272692,24.226177,0.999755,0.996079,0.002771,0.476526,0.000034,-0.000025,0.000010,0.000036,-0.000027,9.693968,0.000037,
2131,2068,-2.67897569685392,-12.61038681792,0.0243464754389606,0.000952,-0.001592,-0.000029,0.043151,-0.030173,330.568995,24.104408,0.998133,0.975507,0.006077,0.344830,0.000317,0.000311,0.000082,0.000397,0.000232,43.960145,0.000636,
2206,2173,-1.0606503605674,-10.3097675269384,0.0107268534677019,0.001557,-0.000957,-0.003593,0.082400,-0.026995,328.555988,23.682723,0.999287,0.986055,0.004738,0.435696,0.000183,0.000162,0.000032,0.000206,0.000139,35.935320,0.000347,
2116,3193,-3.18493597610707,11.901590345985,0.0417659320274311,0.002770,-0.000038,0.007007,0.107241,0.055494,312.621489,24.496586,0.999546,0.992180,0.003664,0.445795,0.000014,0.000011,0.000009,0.000022,0.000004,40.297883,0.000028,
2056,2098,-4.32010615515941,-11.9500771491057,0.00937749761988016,0.000440,-0.001373,0.000440,0.018502,-0.026525,330.297711,24.528219,0.998936,0.979636,0.005452,0.392407,0.000309,0.000286,0.000107,0.000406,0.000190,41.866861,0.000608,
2236,2473,-0.459095983120758,-3.74737943008442,-0.00380337469516689,0.002329,-0.000275,0.000956,0.103808,0.038947,323.542175,23.968375,0.999460,0.990043,0.004196,0.519878,0.000005,0.000031,0.000000,0.000031,0.000005,89.544266,0.000040,
2491,2158,5.16813653571635,-10.6422217190863,0.0207533243431612,0.003259,-0.000454,-0.003946,0.163880,-0.002641,328.996152,22.168816,0.999064,0.978662,0.005714,0.395663,0.000312,0.000276,-0.000083,0.000379,0.000209,-38.879012,0.000596,
2281,2458,0.52341116215176,-4.07316802064757,-0.00762757843563122,0.002482,-0.000681,0.002825,0.104297,0.034276,323.676450,23.891207,0.999723,0.990281,0.004079,0.457997,0.000012,0.000037,0.000005,0.000038,0.000011,78.727758,0.000051,
2071,2233,-4.01293967702298,-8.99260310356637,0.00562759344722963,0.001509,-0.000275,0.000814,0.066867,0.048290,328.065116,24.511729,0.998639,0.984394,0.005007,0.390380,0.000148,0.000134,0.000060,0.000202,0.000081,41.659342,0.000291,
2296,3073,0.740329293150772,9.31470876148021,0.0223308973929761,0.002533,-0.000208,-0.000288,0.117660,0.022611,313.916947,25.156291,0.999623,0.994029,0.003388,0.376795,0.000008,-0.000015,-0.000001,0.000008,-0.000015,-2.627332,0.000015,
2206,2503,-1.11784613906539,-3.09208135089987,-0.0108368544280779,0.002611,-0.000547,0.004303,0.106179,0.019080,323.073151,24.130134,0.999451,0.987708,0.004427,0.444221,0.000008,0.000017,0.000008,0.000022,0.000003,59.957646,0.000027,
2356,2593,2.13180601521232,-1.12416318204749,-0.0142043407730625,0.002555,-0.000909,0.003352,0.105232,0.015097,321.391731,24.086855,0.999194,0.987390,0.004479,0.414844,0.000031,0.000023,0.000022,0.000050,0.000005,40.009597,0.000060,
2071,3148,-4.1529258217805,10.9228345113643,0.0409484149075183,0.002830,0.000082,0.007599,0.109112,0.063349,313.578170,24.292248,0.999697,0.995662,0.002836,0.457698,0.000010,0.000016,-0.000001,0.000016,0.000010,-76.691837,0.000026,
2446,3208,3.97454570491466,12.2557893233993,0.0360091638651738,0.003088,-0.000450,0.006111,0.119329,0.043387,311.871955,26.094584,0.999570,0.990050,0.003906,0.452950,0.000034,-0.000012,0.000003,0.000034,-0.000012,3.988740,0.000035,
2341,2608,1.80108391918069,-0.796020525401687,-0.0260561356676021,0.002520,-0.000673,0.006564,0.092701,0.040081,321.035804,24.146422,0.999387,0.986240,0.004526,0.435371,0.000021,0.000018,0.000013,0.000033,0.000006,42.003071,0.000042,
2146,2023,-2.34472325895863,-13.5986555680603,0.0257553007064075,0.000876,-0.002299,0.002523,0.031698,-0.025679,331.232930,23.900082,0.998393,0.980581,0.005536,0.425476,0.000379,0.000338,0.000081,0.000443,0.000275,37.968879,0.000724,
2056,3028,-4.46080752860716,8.32177151577535,0.00754909976132012,0.002946,-0.000022,0.005507,0.120482,0.050275,315.351168,24.266635,0.999468,0.991438,0.003730,0.457044,0.000009,-0.000007,-0.000005,0.000010,-0.000008,-16.817885,0.000011,
2116,2098,-3.01056300700477,-11.9502048677308,0.011289260705837,0.001611,-0.000764,-0.006840,0.093779,-0.034584,330.091868,24.279918,0.998950,0.974782,0.006168,0.272974,0.000290,0.000295,0.000085,0.000377,0.000208,45.944457,0.000593,
2086,2173,-3.6768749603183,-10.3074721670215,0.00725692506409814,0.001390,-0.001160,-0.001691,0.068259,-0.000391,328.968671,24.346254,0.999111,0.983187,0.005030,0.430667,0.000208,0.000172,0.000079,0.000270,0.000109,38.536062,0.000390,
2161,2263,-2.05811799496068,-8.33580229221232,-0.00687025575319922,0.001558,-0.000803,0.001215,0.067522,0.016196,327.083227,24.095528,0.998779,0.979616,0.005533,0.379674,0.000117,0.000086,0.000029,0.000135,0.000068,30.733373,0.000206,
2146,2473,-2.41849812008399,-3.74726093721358,-0.0122831488984616,0.002364,0.000328,-0.001601,0.113633,0.048272,323.751415,24.248062,0.999267,0.986475,0.004907,0.459524,0.000034,0.000020,-0.000016,0.000044,0.000010,-32.531282,0.000058,
2131,2428,-2.73883027187386,-4.72879774154242,-0.015868135703613,0.001887,-0.000639,0.006470,0.067238,0.049304,324.462062,24.310607,0.999053,0.987393,0.004685,0.411866,0.000043,0.000022,-0.000002,0.000043,0.000022,-6.174279,0.000066,
2131,2083,-2.68216022563817,-12.2797844754758,0.00760601714654285,0.001177,-0.001235,-0.001203,0.057101,-0.018044,330.202637,24.075926,0.998580,0.978540,0.005755,0.395155,0.000301,0.000307,0.000083,0.000387,0.000221,46.074264,0.000615,
2071,3298,-4.17766784092444,14.1721694118379,0.0272017966666454,0.003210,-0.000433,0.009297,0.121743,0.043707,311.022821,24.231052,0.999570,0.994671,0.003032,0.453787,0.000040,-0.000006,0.000005,0.000041,-0.000007,6.423121,0.000044,
2446,2143,4.18586375804124,-10.9701113284647,0.009913562578447,0.002716,-0.001158,-0.002952,0.134694,-0.026946,329.008537,22.317144,0.999211,0.977637,0.005929,0.416009,0.000314,0.000295,-0.000053,0.000359,0.000250,-40.138883,0.000612,
2071,2248,-4.01543122498826,-8.66536400396031,0.00822119873913607,0.001312,-0.000562,0.003559,0.049954,0.044652,327.829092,24.461788,0.998861,0.984361,0.004844,0.435980,0.000131,0.000129,0.000050,0.000180,0.000080,44.495255,0.000266,
2281,2473,0.520616679144187,-3.74543796831095,-0.011432061082985,0.002630,-0.000398,0.002346,0.112791,0.041181,323.410309,23.894132,0.999494,0.988559,0.004331,0.491114,0.000012,0.000031,0.000007,0.000034,0.000010,71.422428,0.000046,
2191,2263,-1.40358980506471,-8.3371934226136,0.000972087345189721,0.001701,-0.000578,-0.000713,0.080072,0.008111,327.064081,23.930273,0.998880,0.981054,0.005408,0.404796,0.000100,0.000093,0.000018,0.000114,0.000078,39.115103,0.000193,
2416,2908,3.37765372133526,5.73957026948571,-0.0121379260385197,0.002994,-0.000638,0.005637,0.116809,0.020598,316.332392,25.007310,0.999554,0.990701,0.003831,0.434255,0.000006,-0.000004,0.000016,0.000017,-0.000016,36.511960,0.000019,
2236,2338,-0.435985939621393,-6.69658646053738,-0.000462771970148879,0.001898,-0.001034,0.004089,0.073526,0.000642,325.721807,23.855936,0.998939,0.985773,0.004867,0.389804,0.000055,0.000085,0.000005,0.000085,0.000055,81.417848,0.000141,
2221,2638,-0.816023585557655,-0.146777497536469,-0.0292840178050255,0.002613,-0.000664,0.004400,0.105919,0.036330,320.692361,24.207400,0.998930,0.985960,0.004811,0.531889,-0.000003,0.000026,0.000006,0.000027,-0.000004,79.296398,0.000029,
2146,2233,-2.37926649913215,-8.99371953591614,0.00694137015364049,0.001346,-0.000370,0.000212,0.061011,0.029201,327.730253,24.124639,0.998784,0.979354,0.005432,0.408473,0.000141,0.000119,0.000036,0.000168,0.000092,36.524439,0.000263,
2056,2113,-4.32160470742173,-11.6214661405449,0.00440701133197763,0.001137,-0.000879,-0.005274,0.066655,-0.030248,330.063957,24.474518,0.999034,0.981540,0.005387,0.439958,0.000286,0.000275,0.000101,0.000382,0.000179,43.473004,0.000573,
2446,3223,3.97123814659446,12.581825773475,0.0328298205229771,0.003018,-0.000130,0.005875,0.117183,0.068615,311.596378,26.157373,0.999576,0.990744,0.003867,0.466277,0.000032,-0.000019,0.000001,0.000032,-0.000019,1.357450,0.000032,
2026,3043,-5.11250279372,8.64322514357702,0.0246017101137568,0.003016,-0.000549,0.007925,0.117390,0.049174,315.427266,24.103352,0.999430,0.991792,0.003832,0.514534,-0.000002,-0.000003,0.000000,-0.000002,-0.000003,14.580935,0.000006,
2041,3103,-4.79692236541859,9.94610770486709,0.0267177607457256,0.002576,0.000018,0.005460,0.103835,0.054037,314.360448,24.200648,0.999662,0.994188,0.003137,0.436913,0.000007,0.000023,0.000001,0.000023,0.000007,87.742793,0.000032,
2491,2173,5.16526854285302,-10.3153328368629,0.0327558312746987,0.002966,-0.001168,0.001986,0.127555,0.003749,328.818160,22.156223,0.998467,0.969094,0.006506,0.476002,0.000284,0.000261,-0.000080,0.000353,0.000192,-40.927364,0.000552,
2311,2503,1.16900147243411,-3.0908280462945,-0.00662910463989874,0.002428,-0.000527,0.000268,0.110360,0.006102,322.933048,23.880447,0.999464,0.988039,0.004222,0.466009,0.000018,0.000024,0.000011,0.000033,0.000009,52.506652,0.000044,
2146,2038,-2.34758668760807,-13.2684612687785,0.0168592102098728,0.000695,-0.001768,-0.002362,0.038320,-0.046830,330.924810,23.935795,0.998825,0.982606,0.005314,0.380252,0.000358,0.000336,0.000079,0.000427,0.000267,41.185025,0.000700,
2071,3163,-4.15500493066304,11.2484230312474,0.0416394816878096,0.003035,0.000006,0.006303,0.122218,0.049238,313.351826,24.352980,0.999721,0.994632,0.003027,0.378506,0.000008,0.000020,0.000000,0.000020,0.000007,88.299850,0.000028,
2191,2428,-1.43111207216608,-4.73116767259089,-0.00246620637585693,0.002409,-0.000995,0.002245,0.103292,-0.013254,324.396591,24.042203,0.998682,0.985818,0.004999,0.451280,0.000017,0.000029,-0.000011,0.000036,0.000011,-58.527526,0.000048,
2086,2188,-3.67923478128005,-9.97883911873312,0.00893595274766312,0.001375,-0.000853,0.000522,0.061311,0.012360,328.734484,24.377456,0.998889,0.982754,0.005231,0.414008,0.000191,0.000170,0.000078,0.000259,0.000102,41.040553,0.000372,
2086,1993,-3.64888542443246,-14.2552499069657,0.0250892271933481,0.000414,-0.001954,-0.005390,0.033771,-0.075773,331.970447,24.348539,0.998988,0.983053,0.005225,0.325017,0.000467,0.000286,0.000102,0.000513,0.000240,24.337942,0.000769,
2251,2713,-0.176011183270294,1.48809842652192,-0.0214159288299243,0.002690,-0.000301,0.003850,0.111069,0.033311,319.479730,24.375617,0.999393,0.990865,0.003797,0.457587,-0.000001,0.000028,-0.000003,0.000028,-0.000001,-84.970429,0.000032,
2206,2188,-1.06348292637114,-9.98071859261652,0.0133479834538548,0.001405,-0.001210,0.000925,0.061059,-0.005644,328.314627,23.755240,0.998918,0.981541,0.005314,0.403852,0.000168,0.000153,0.000023,0.000185,0.000136,36.457178,0.000322,
2161,2518,-2.10090735813387,-2.76402999266251,-0.0300507515532331,0.002484,-0.000655,0.002606,0.106049,0.013698,322.812067,24.226075,0.998985,0.985802,0.004823,0.446076,0.000024,0.000017,0.000003,0.000026,0.000016,19.684099,0.000042,
2446,3238,3.96772026665433,12.9075430582814,0.0279724363898595,0.003109,-0.000311,0.008515,0.111340,0.045975,311.303354,26.233306,0.999666,0.992488,0.003482,0.418275,0.000030,-0.000020,-0.000003,0.000030,-0.000020,-3.819783,0.000030,
2446,2158,4.18311764271929,-10.6412682410892,0.0131317963417814,0.002694,-0.000932,-0.003190,0.134712,-0.029954,328.793160,22.394424,0.999268,0.978518,0.005620,0.390721,0.000291,0.000259,-0.000052,0.000329,0.000221,-36.316963,0.000554,
2296,3088,0.73797199667894,9.63966271076642,0.0234761261102108,0.003204,-0.000226,0.004591,0.132054,0.030459,313.695846,25.125902,0.999590,0.993031,0.003529,0.444266,0.000007,-0.000015,-0.000006,0.000008,-0.000016,-14.831651,0.000016,
2056,2128,-4.32481612572311,-11.2916863331985,0.00366037106368822,0.000619,-0.001320,0.001108,0.024858,-0.004253,329.774831,24.549750,0.998952,0.981905,0.005428,0.388603,0.000258,0.000257,0.000105,0.000363,0.000152,44.897675,0.000529,
2191,2278,-1.40576809937233,-8.00918003998688,0.00240981216040836,0.002035,-0.000965,0.000569,0.091270,0.007340,326.845509,23.948930,0.998762,0.980425,0.005511,0.401916,0.000088,0.000076,0.000010,0.000093,0.000070,29.591259,0.000164,
2491,2188,5.16117194098786,-9.98423754728051,0.0204360691755028,0.003057,-0.001525,0.002457,0.129787,-0.016715,328.474441,22.302025,0.998373,0.969463,0.006507,0.371708,0.000278,0.000243,-0.000072,0.000335,0.000186,-38.138574,0.000528,
2026,3058,-5.11481765469908,8.96894618463418,0.0251564651193803,0.002843,-0.000527,0.005500,0.116023,0.022075,315.186083,24.161161,0.999237,0.990484,0.003918,0.418798,-0.000005,0.000002,0.000001,0.000002,-0.000005,79.969125,0.000005,
2116,2113,-3.01376258735613,-11.6230655018115,0.0153339095871843,0.000956,-0.001007,0.000215,0.042843,-0.007091,329.834572,24.160428,0.999164,0.984480,0.005021,0.426837,0.000274,0.000281,0.000082,0.000359,0.000196,46.352309,0.000563,
2161,2353,-2.0724437244464,-6.36785778179863,-0.0102656817101661,0.002113,0.000022,-0.000962,0.099993,0.045918,325.636451,24.117604,0.999068,0.985796,0.004708,0.459850,0.000064,0.000058,-0.000002,0.000065,0.000057,-16.529315,0.000122,
2071,2263,-4.01666201465697,-8.3370235546321,0.00178008639466043,0.002503,-0.000507,-0.000811,0.117103,0.011260,327.601287,24.454564,0.999109,0.986364,0.004748,0.408780,0.000122,0.000115,0.000048,0.000167,0.000071,42.811977,0.000244,
2416,2923,3.3749878155164,6.06621388025798,-0.00797967034162639,0.002945,-0.000564,0.005638,0.114644,0.034488,316.119668,25.107663,0.999620,0.991736,0.003714,0.395074,0.000006,-0.000006,0.000010,0.000012,-0.000012,28.996490,0.000014,
2206,2518,-1.12072688543102,-2.76443803370362,-0.0166704196357728,0.002505,-0.000120,0.001484,0.110393,0.037676,322.785793,24.109608,0.999397,0.987360,0.004443,0.501408,0.000010,0.000015,0.000012,0.000025,0.000000,50.983733,0.000029,
2221,2653,-0.818257155147933,0.179746755417561,-0.0257504410259912,0.002708,-0.000541,0.004038,0.111480,0.025055,320.484185,24.240255,0.999296,0.988178,0.004398,0.506899,-0.000004,0.000029,0.000010,0.000031,-0.000007,73.961206,0.000033,
2146,2488,-2.42136752539836,-3.41979308774606,-0.0171999556037576,0.002439,-0.000100,0.000854,0.109557,0.050389,323.463968,24.224835,0.999153,0.985935,0.004845,0.493950,0.000031,0.000015,-0.000017,0.000042,0.000004,-32.091954,0.000051,
2356,2608,2.12938166466299,-0.79737696577655,-0.0109990920356609,0.002752,-0.000623,0.003762,0.112969,0.030778,321.182689,24.101745,0.999219,0.986691,0.004517,0.454984,0.000026,0.000021,0.000020,0.000044,0.000003,40.885231,0.000052,
2086,2008,-3.65119898461671,-13.926521144893,0.0270584265315392,0.000326,-0.001859,-0.004393,0.026930,-0.067213,331.739861,24.331185,0.999269,0.985936,0.004923,0.353660,0.000440,0.000321,0.000118,0.000513,0.000248,31.703731,0.000776,
2131,2443,-2.74053150897079,-4.40374902659109,-0.0090281916401409,0.002129,-0.000884,0.006134,0.079243,0.020805,324.290020,24.190623,0.999200,0.987346,0.004688,0.510137,0.000038,0.000019,-0.000008,0.000041,0.000016,-19.177089,0.000059,
2086,2203,-3.6818610892551,-9.6500177244602,0.00727355892888681,0.001267,-0.000725,0.002093,0.051901,0.026028,328.469980,24.395074,0.998601,0.981006,0.005378,0.411628,0.000177,0.000154,0.000069,0.000235,0.000096,40.285715,0.000340,
2446,3253,3.96513533037172,13.2326546337171,0.0301739469159088,0.003172,-0.000263,0.006452,0.121954,0.042872,311.086132,26.277533,0.999805,0.993819,0.003103,0.421857,0.000028,-0.000023,-0.000005,0.000028,-0.000023,-5.531572,0.000030,
2191,2443,-1.43433452779163,-4.40239384924514,-0.00570602573282031,0.002051,-0.000813,0.003751,0.082230,0.014357,324.105485,24.113205,0.998824,0.985206,0.005026,0.423913,0.000011,0.000025,-0.000011,0.000031,0.000005,-61.259610,0.000038,
2236,2353,-0.438206213246094,-6.36858392119233,0.000661504774484456,0.002155,-0.000712,0.003334,0.087861,0.006654,325.503180,23.889659,0.998715,0.984470,0.005065,0.384922,0.000046,0.000077,0.000001,0.000077,0.000046,88.797523,0.000125,
2056,2143,-4.32657943912998,-10.963986073587,0.00617057174179081,0.000759,-0.000643,-0.001848,0.039792,-0.002761,329.570201,24.500020,0.998948,0.983757,0.005294,0.437266,0.000239,0.000241,0.000095,0.000335,0.000146,45.222238,0.000493,
2071,2278,-4.01957406527698,-8.0080449686083,-0.000224724002862331,0.001962,-0.000516,-0.001668,0.094720,0.019039,327.320557,24.515832,0.999854,0.994116,0.003754,0.354649,0.000113,0.000087,0.000041,0.000143,0.000056,36.125026,0.000205,
2146,2248,-2.38162005279719,-8.66546488771713,0.00487662709446113,0.001589,-0.000479,0.000618,0.070907,0.037550,327.481482,24.108985,0.998857,0.980439,0.005345,0.442806,0.000130,0.000099,0.000033,0.000151,0.000078,32.513783,0.000233,
2146,2053,-2.34957084514054,-12.9402198485205,0.0213144897734878,0.000818,-0.001631,-0.002477,0.044358,-0.037809,330.727403,23.919038,0.998894,0.982014,0.005234,0.417281,0.000336,0.000319,0.000075,0.000404,0.000252,41.687798,0.000661,
2446,2173,4.18090305394944,-10.3122831376075,0.0213887887503006,0.003026,-0.001097,-0.000654,0.140409,-0.018555,328.625124,22.528579,0.999513,0.984025,0.004881,0.322436,0.000271,0.000237,-0.000045,0.000302,0.000206,-34.680326,0.000511,
2161,2368,-2.07401637342639,-6.04006751413171,-0.00943379859552351,0.002821,0.000061,-0.003000,0.138763,0.031422,325.440042,24.153800,0.999018,0.989327,0.004252,0.420857,0.000058,0.000064,-0.000005,0.000067,0.000055,-60.872710,0.000122,
2296,3103,0.735349710002442,9.96521464607919,0.0266387369492236,0.003106,-0.000373,0.004590,0.127481,0.026354,313.472360,25.179070,0.999361,0.990862,0.003953,0.415767,0.000005,-0.000003,-0.000005,0.000008,-0.000006,-24.458924,0.000008,
2281,2488,0.517247200508248,-3.41937007265111,-0.0139206707591484,0.002482,-0.001152,0.007073,0.089971,0.022965,323.124747,23.787436,0.999687,0.990380,0.004061,0.608743,0.000011,0.000022,0.000001,0.000022,0.000011,84.141891,0.000033,
2251,2968,-0.219318551135718,7.03378072595436,-0.000136554230778074,0.003101,0.000320,0.002287,0.135588,0.065946,315.529790,24.860998,0.999516,0.993175,0.003500,0.397544,0.000004,-0.000002,0.000008,0.000010,-0.000008,35.249680,0.000010,
2161,2533,-2.10293059355883,-2.43708130112024,-0.0222847169746387,0.002464,-0.000388,0.003162,0.103537,0.040453,322.631443,24.261009,0.999096,0.986419,0.004565,0.448894,0.000019,0.000015,0.000004,0.000021,0.000013,31.323738,0.000034,
2086,2023,-3.65481722479345,-13.5954451370615,0.0159016446040141,-0.000056,-0.001709,-0.000721,-0.001116,-0.041831,331.378229,24.368081,0.998884,0.983109,0.005406,0.345588,0.000411,0.000300,0.000107,0.000476,0.000235,31.269192,0.000724,
2191,2293,-1.40873198845702,-7.68137162140758,0.00418924481027716,0.001599,-0.001169,0.002438,0.065352,0.014854,326.592750,23.949130,0.998828,0.982273,0.005284,0.426005,0.000080,0.000071,0.000012,0.000088,0.000062,34.549755,0.000151,
2311,2518,1.16562059951404,-2.76240645433055,-0.0105926545540456,0.002182,-0.000403,0.001306,0.095604,0.012012,322.641631,23.962140,0.999430,0.986435,0.004358,0.423750,0.000020,0.000016,0.000014,0.000032,0.000003,41.039784,0.000039,
2491,2203,5.15772464577489,-9.65459658498578,0.0151258052391654,0.002865,-0.000707,-0.000928,0.134291,0.006205,328.191750,22.351954,0.998459,0.971543,0.006304,0.406495,0.000272,0.000209,-0.000058,0.000307,0.000174,-30.730653,0.000487,
2056,2158,-4.32884736234343,-10.6349496263726,0.00752950952852416,0.000944,-0.001365,0.002675,0.035367,-0.006715,329.336008,24.570287,0.999119,0.985606,0.004951,0.360458,0.000217,0.000203,0.000077,0.000287,0.000133,42.354960,0.000429,
2356,2623,2.12598149498426,-0.469464086082702,-0.0155034561519187,0.002442,-0.000333,0.002455,0.103448,0.047084,320.891436,24.158043,0.999116,0.986689,0.004551,0.454701,0.000027,0.000042,0.000015,0.000052,0.000017,58.017631,0.000072,
2026,3073,-5.11704144594199,9.29360298485941,0.0272702910328917,0.002885,-0.000771,0.006689,0.114719,0.032238,314.958178,24.097937,0.999361,0.991993,0.003649,0.481510,-0.000005,0.000015,0.000006,0.000017,-0.000007,74.428923,0.000017,
2446,3268,3.9603005311522,13.5586787012177,0.00989422581307053,0.003017,-0.000388,0.006789,0.113526,0.039226,310.660709,26.286310,0.999766,0.993380,0.003201,0.460230,0.000026,-0.000039,-0.000004,0.000026,-0.000039,-3.585987,0.000040,
2236,2368,-0.441243815188972,-6.0398451821581,-0.00509698563655547,0.002066,-0.000783,0.002268,0.087259,0.021811,325.211945,23.919829,0.999279,0.986935,0.004705,0.393122,0.000035,0.000075,-0.000001,0.000075,0.000035,-88.858521,0.000112,
2206,2533,-1.12282523056055,-2.43695517687869,-0.0102571697541407,0.002460,0.000004,0.000430,0.111723,0.037776,322.597510,24.207818,0.999524,0.988216,0.004251,0.420772,0.000010,0.000014,0.000013,0.000025,-0.000001,49.681343,0.000028,
2161,2383,-2.07747509513296,-5.7125232456624,-0.0119553509218235,0.002255,-0.000540,0.000736,0.101169,0.012424,325.139758,24.144942,0.998976,0.987522,0.004520,0.422813,0.000049,0.000063,-0.000006,0.000065,0.000047,-70.922433,0.000113,
2416,2938,3.37221874287677,6.39179206914905,-0.00371808251469474,0.002944,-0.000476,0.007696,0.107078,0.039340,315.902920,25.123363,0.999622,0.991484,0.003786,0.431548,0.000012,-0.000008,0.000007,0.000014,-0.000010,16.375408,0.000014,
2086,2038,-3.65668151567845,-13.2672533407973,0.0173187097472578,0.000084,-0.001477,-0.003804,0.014230,-0.032777,331.165249,24.306467,0.998949,0.983037,0.005333,0.418737,0.000385,0.000296,0.000105,0.000455,0.000227,33.503478,0.000694,
2146,2503,-2.42410263827988,-3.09181000511894,-0.0275090520448771,0.002539,0.000041,-0.003770,0.128197,0.035863,323.154035,24.221925,0.999007,0.984506,0.004962,0.491685,0.000035,0.000014,-0.000014,0.000042,0.000007,-26.040240,0.000053,
2146,2263,-2.38400258648685,-8.3365315951909,-0.00340004282480777,0.002063,-0.000756,-0.001357,0.098551,0.009260,327.198584,24.134017,0.998829,0.981934,0.005358,0.399778,0.000121,0.000088,0.000030,0.000139,0.000070,30.412621,0.000213,
2191,2458,-1.43682941932946,-4.07497156986071,-0.0122102838633964,0.002349,-0.000837,0.001035,0.104432,0.008231,323.831153,24.069092,0.998826,0.985906,0.005006,0.477754,0.000013,0.000024,-0.000009,0.000029,0.000008,-60.857497,0.000039,
2086,2218,-3.68394060767018,-9.32173975538105,0.00666655341314026,0.001406,-0.000639,-0.000051,0.064472,0.040147,328.236283,24.379017,0.998408,0.982122,0.005318,0.443618,0.000165,0.000142,0.000070,0.000225,0.000082,40.287297,0.000318,
2446,2188,4.17753313832686,-9.98383335917477,0.0226840331288827,0.002722,-0.001264,0.001382,0.118864,-0.003582,328.372135,22.541189,0.999610,0.985855,0.004714,0.379801,0.000257,0.000219,-0.000038,0.000280,0.000195,-31.956022,0.000478,
2446,3283,3.95637168754115,13.8846201197968,-3.63814415891284E-05,0.002848,-0.000339,0.006204,0.107941,0.034617,310.324878,26.351220,0.999776,0.992606,0.003326,0.441172,0.000032,-0.000047,-0.000006,0.000033,-0.000047,-4.352754,0.000048,
2056,2173,-4.33120302876316,-10.3053364761727,-0.000970149286615651,0.001098,-0.000254,-0.001612,0.054845,0.027666,329.043419,24.555664,0.999159,0.987937,0.004600,0.407131,0.000204,0.000172,0.000074,0.000264,0.000112,38.973859,0.000386,
2026,3088,-5.11899635111686,9.62006091502564,0.0299005192205186,0.003009,-0.000240,0.005192,0.124772,0.058531,314.744823,24.191266,0.999631,0.994296,0.003182,0.403795,-0.000007,0.000019,0.000003,0.000019,-0.000008,83.512621,0.000019,
2131,2458,-2.74306258017625,-4.0737956071748,-0.0164865355608868,0.002353,-0.000701,0.003514,0.097459,0.034542,324.002545,24.348604,0.999311,0.987967,0.004599,0.372971,0.000036,0.000013,-0.000016,0.000044,0.000005,-27.274168,0.000054,
2296,3118,0.732527034426067,10.2906447605568,0.028189529622864,0.003108,-0.000540,0.007059,0.119233,0.033241,313.231639,25.203566,0.999529,0.992660,0.003596,0.426923,0.000010,-0.000002,0.000000,0.000010,-0.000002,-0.154935,0.000011,
2491,2218,5.1537189953467,-9.32478700799751,0.0117315570985284,0.002501,-0.001376,0.002046,0.106019,-0.011153,327.892116,22.483685,0.999015,0.979845,0.005616,0.319116,0.000247,0.000174,-0.000042,0.000266,0.000155,-24.426320,0.000426,
2281,2503,0.514591870188383,-3.08911978148679,-0.0149221744221109,0.002488,-0.000725,0.005279,0.096398,0.039880,322.878301,24.047394,0.999698,0.991253,0.003949,0.394641,0.000008,0.000023,0.000004,0.000024,0.000006,75.246061,0.000032,
2251,2983,-0.221975622212941,7.3587665504976,0.00672519974091301,0.002856,-0.000086,0.005461,0.113725,0.056882,315.320989,24.862627,0.999518,0.992027,0.003709,0.409558,0.000004,0.000003,0.000010,0.000013,-0.000007,43.140274,0.000013,
2161,2548,-2.1053248848417,-2.11075154333304,-0.0200014728470137,0.002460,-0.000578,0.004027,0.100631,0.033324,322.405241,24.228156,0.999140,0.986180,0.004493,0.485566,0.000015,0.000025,0.000005,0.000026,0.000013,67.660262,0.000041,
2086,2053,-3.65811417593545,-12.9384933984661,0.0271067833435268,0.000475,-0.001558,-0.001550,0.025671,-0.014999,331.017167,24.386385,0.998667,0.979617,0.005591,0.358423,0.000361,0.000293,0.000098,0.000431,0.000223,35.283701,0.000665,
2356,2638,2.12365190446552,-0.142649872383743,-0.0117074955003886,0.002554,-0.000325,0.001074,0.113455,0.028844,320.689576,24.223361,0.999245,0.987022,0.004489,0.410527,0.000027,0.000042,0.000010,0.000047,0.000022,63.870278,0.000070,
2056,2188,-4.33315122524816,-9.97828645460027,0.00737379369684277,0.001154,-0.000642,0.002753,0.045039,0.023431,328.862575,24.529492,0.998942,0.984678,0.005050,0.426067,0.000186,0.000171,0.000079,0.000258,0.000099,42.361169,0.000368,
2146,2278,-2.38609079392864,-8.00942734606761,-0.00467459400806547,0.002492,-0.000883,-0.001293,0.118027,0.001420,326.966396,24.048755,0.998706,0.981204,0.005456,0.487316,0.000111,0.000067,0.000020,0.000119,0.000059,21.506377,0.000182,
2206,2548,-1.12598277748109,-2.10937166931043,-0.0146375743854037,0.002322,-0.000361,0.002519,0.098688,0.032580,322.304998,24.228868,0.999576,0.990183,0.003943,0.412361,0.000008,0.000022,0.000015,0.000031,-0.000001,57.367626,0.000036,
2491,2233,5.14993248304848,-8.99654661293153,0.00928383075103056,0.002280,-0.001621,0.005271,0.083460,0.000138,327.606695,22.458790,0.998967,0.980056,0.005760,0.416825,0.000233,0.000169,-0.000014,0.000236,0.000166,-12.016628,0.000405,
2446,3298,3.95328456019508,14.2091991622875,-0.00273107423436159,0.003001,-0.000378,0.006531,0.113741,0.031169,310.061754,26.333000,0.999761,0.993273,0.003274,0.506658,0.000037,-0.000045,-0.000014,0.000039,-0.000047,-9.669232,0.000051,
2416,2953,3.3687433843482,6.7187555877678,-0.0108017965203544,0.002778,-0.000560,0.005081,0.109023,0.030183,315.600067,25.205006,0.999746,0.991770,0.003754,0.387927,0.000011,-0.000010,0.000007,0.000013,-0.000012,18.052391,0.000015,
2161,2398,-2.07890484875907,-5.38598702204424,-0.00553107179837298,0.002573,0.000047,-0.003574,0.129172,0.019329,324.979446,24.108601,0.998928,0.986195,0.004698,0.477343,0.000044,0.000063,-0.000011,0.000068,0.000039,-65.082612,0.000108,
2026,3103,-5.12135795262434,9.94472727043809,0.0306383880126191,0.002914,-0.000134,0.004945,0.121077,0.055822,314.502966,24.140414,0.999577,0.993902,0.003298,0.441205,-0.000002,0.000029,0.000009,0.000031,-0.000004,74.876767,0.000034,
2236,2383,-0.443578008695578,-5.71363678011407,0.000824306826928023,0.001927,-0.001010,0.002399,0.080366,0.016558,325.012815,23.857183,0.999487,0.987501,0.004529,0.473055,0.000024,0.000073,0.000000,0.000073,0.000024,89.746964,0.000101,
2311,2533,1.16312514493143,-2.43554884987289,-0.0109146650532921,0.002504,-0.000808,0.001793,0.108578,0.004954,322.409039,23.951245,0.999464,0.987252,0.004301,0.460715,0.000020,0.000010,0.000013,0.000030,0.000001,35.252061,0.000035,
2251,2998,-0.224500283730105,7.68327243206723,0.0103930540018382,0.002840,-0.000519,0.006816,0.108385,0.035922,315.102224,24.813434,0.999542,0.991153,0.003798,0.460385,0.000001,-0.000002,0.000008,0.000008,-0.000009,39.423631,0.000010,
2146,2518,-2.42687208724584,-2.76459369230079,-0.0278003864521565,0.002708,-0.000817,0.003139,0.114763,0.016615,322.895744,24.250037,0.999119,0.985842,0.004703,0.453193,0.000031,0.000014,-0.000009,0.000036,0.000010,-23.556144,0.000048,
2191,2473,-1.43973832795866,-3.74631616563931,-0.0177591601065501,0.002335,-0.000322,0.000680,0.105114,0.039254,323.542380,24.115503,0.999024,0.983583,0.005250,0.478492,0.000013,0.000023,-0.000004,0.000024,0.000012,-70.640543,0.000037,
2446,2203,4.1734781848304,-9.6540188943323,0.0141765275064927,0.002193,-0.000310,-0.000736,0.102975,0.027224,328.042456,22.565163,0.999658,0.984770,0.004800,0.441918,0.000242,0.000199,-0.000026,0.000255,0.000186,-25.301869,0.000443,
2086,2068,-3.66104599348746,-12.6083628337344,0.00995082667083125,0.000670,-0.001230,-0.005582,0.046341,-0.045286,330.654812,24.344895,0.998634,0.960533,0.007582,0.372708,0.000342,0.000290,0.000099,0.000418,0.000214,37.603648,0.000643,
2131,2473,-2.74527207608253,-3.74686208834414,-0.0146777971849588,0.002288,-0.000332,0.001075,0.101908,0.028622,323.779920,24.341158,0.999304,0.987414,0.004630,0.381648,0.000036,0.000013,-0.000014,0.000043,0.000006,-25.631198,0.000053,
2461,1993,4.54639351659243,-14.2670215046142,0.0274576179878636,0.003508,-0.002902,-0.002840,0.169683,-0.119945,331.643455,21.670348,0.998907,0.967490,0.006571,0.306803,0.000599,0.000472,-0.000090,0.000645,0.000425,-27.326917,0.001078,
2296,3133,0.729576369618762,10.616104705034,0.0287703908331309,0.003055,-0.000478,0.009536,0.108453,0.043976,312.980156,25.224745,0.999677,0.994351,0.003321,0.445498,0.000008,-0.000003,0.000002,0.000008,-0.000003,10.591895,0.000008,
2026,3118,-5.12391890866075,10.2705117256367,0.0310351146305834,0.002792,0.000093,0.007167,0.109445,0.073351,314.249635,24.174032,0.999667,0.994322,0.003173,0.414001,-0.000002,0.000044,0.000008,0.000045,-0.000003,80.020023,0.000050,
2491,2248,5.14679443473753,-8.66761221132842,0.00571775976197841,0.002390,-0.000871,0.003624,0.095151,0.019595,327.345823,22.483140,0.998882,0.980316,0.005646,0.473363,0.000218,0.000168,-0.000003,0.000218,0.000168,-3.304415,0.000387,
2161,2413,-2.08220306522908,-5.05780702868238,-0.00730939174081868,0.002201,-0.000864,0.001252,0.097034,0.012659,324.690200,24.162659,0.998821,0.985591,0.004893,0.428386,0.000045,0.000056,-0.000012,0.000063,0.000037,-57.486229,0.000102,
2416,2968,3.36635359111098,7.04396695230192,-0.000369276666901897,0.002594,-0.000631,0.006281,0.096121,0.026232,315.429681,25.246372,0.999826,0.994053,0.003318,0.389598,0.000010,-0.000010,0.000008,0.000012,-0.000013,18.685075,0.000014,
2251,3013,-0.227285412653206,8.00918986514978,0.0126712556653388,0.002697,-0.000381,0.008585,0.096091,0.051164,314.863922,24.852356,0.999356,0.989806,0.003956,0.459189,0.000001,-0.000009,0.000003,0.000002,-0.000010,13.029539,0.000010,
2236,2398,-0.446493578949674,-5.38435411590157,-0.0083324834553764,0.002269,-0.000740,0.002243,0.096662,0.030137,324.709731,23.916983,0.999531,0.989378,0.004181,0.449863,0.000019,0.000076,-0.000002,0.000076,0.000019,-88.279176,0.000100,
2461,2008,4.54299245769874,-13.9376671515814,0.0289072039280995,0.003149,-0.003050,-0.001362,0.147694,-0.101430,331.391805,21.699319,0.999107,0.971907,0.006169,0.354553,0.000570,0.000429,-0.000076,0.000603,0.000396,-23.651348,0.001006,
2146,2293,-2.38876960648568,-7.68105333443116,-0.00186720056791501,0.001929,-0.000527,-0.003381,0.098578,-0.001897,326.728498,24.121382,0.998679,0.983229,0.005169,0.421043,0.000104,0.000062,0.000021,0.000113,0.000053,23.005667,0.000170,
2206,2563,-1.12856567694434,-1.7830039341971,-0.00954095255497123,0.002191,-0.000524,0.005955,0.081735,0.034499,322.087941,24.220120,0.999616,0.991024,0.003793,0.440406,0.000010,0.000017,0.000013,0.000027,0.000000,51.577403,0.000031,
2311,2548,1.15980764634987,-2.10799520201955,-0.0113276265889795,0.002399,-0.001046,0.007440,0.084449,0.037639,322.137970,23.968658,0.999308,0.984238,0.004796,0.509126,0.000024,0.000022,0.000014,0.000038,0.000009,43.130725,0.000049,
2086,2083,-3.66587973317164,-12.2751837488975,-0.0232330756455781,0.000586,-0.001505,-0.000209,0.026967,-0.036388,330.118049,24.373794,0.998819,0.946827,0.009046,0.356724,0.000321,0.000293,0.000099,0.000407,0.000207,40.980913,0.000625,
2446,2218,4.17035036328393,-9.32489095793954,0.009001979653533,0.002603,-0.000635,0.000533,0.116869,0.017488,327.770763,22.607927,0.999419,0.983708,0.005052,0.444358,0.000222,0.000170,-0.000020,0.000229,0.000163,-18.994406,0.000394,
2146,2533,-2.4289178629989,-2.43805240849717,-0.0165488612375952,0.002462,-0.000348,0.004484,0.099592,0.052309,322.731692,24.269472,0.999259,0.986974,0.004414,0.478134,0.000026,0.000012,-0.000006,0.000029,0.000009,-20.981409,0.000040,
2296,3148,0.726684624887003,10.9418126890087,0.0291238496434971,0.002598,-0.000193,0.005488,0.101204,0.047409,312.730130,25.278510,0.999610,0.992849,0.003586,0.423880,0.000007,-0.000003,0.000003,0.000008,-0.000004,16.332716,0.000008,
2191,2488,-1.44241546708028,-3.41846454948856,-0.0201066050181566,0.002294,-0.000085,-0.000250,0.106188,0.028655,323.281134,24.164747,0.998872,0.982068,0.005471,0.434553,0.000013,0.000017,-0.000001,0.000017,0.000012,-73.866308,0.000029,
2461,2023,4.53988097162246,-13.6070547123683,0.0256697291109163,0.003359,-0.002815,-0.001287,0.157083,-0.081615,331.131946,21.793983,0.999291,0.977429,0.005650,0.337980,0.000540,0.000438,-0.000084,0.000588,0.000391,-29.476554,0.000985,
2491,2263,5.14422287150815,-8.33905809293795,0.00901116249156075,0.002523,-0.001072,0.002249,0.106397,0.000801,327.141852,22.586589,0.998769,0.978350,0.005492,0.411780,0.000200,0.000152,-0.000011,0.000203,0.000149,-12.568349,0.000353,
2161,2428,-2.0843507509707,-4.72955787796857,-0.00924715816250909,0.002580,-0.000430,0.000021,0.118337,0.014741,324.452712,24.217824,0.999196,0.985958,0.004684,0.386866,0.000037,0.000033,-0.000007,0.000043,0.000028,-37.283492,0.000071,
2251,3028,-0.229974032235582,8.3352181829688,0.00961778396185764,0.002690,-0.000224,0.005555,0.105770,0.046080,314.602967,24.890128,0.999251,0.989138,0.004010,0.439073,0.000002,-0.000013,0.000001,0.000002,-0.000013,2.698897,0.000014,
2416,2983,3.3637401220122,7.36910209648214,0.00217186474731079,0.002900,-0.000583,0.008534,0.102000,0.037752,315.211962,25.213906,0.999840,0.994375,0.003252,0.480551,0.000013,-0.000014,0.000010,0.000016,-0.000017,18.112829,0.000019,
2131,2488,-2.74794240966675,-3.42081134136245,-0.0147543318956309,0.002183,-0.000678,0.003180,0.090651,0.019936,323.526378,24.243120,0.999284,0.986931,0.004670,0.477811,0.000033,0.000008,-0.000015,0.000040,0.000001,-24.675634,0.000047,
2086,2098,-3.66732679506586,-11.9468529120607,-0.00677623349366741,0.000472,-0.001256,0.000871,0.018727,-0.008126,330.005476,24.494325,0.998882,0.965741,0.007065,0.266087,0.000302,0.000286,0.000100,0.000394,0.000194,42.800400,0.000599,
2446,2233,4.16790461238163,-8.99712399251736,0.019557384828147,0.002489,-0.000872,0.002849,0.102973,0.007838,327.602630,22.694750,0.999049,0.978949,0.005572,0.401953,0.000209,0.000156,-0.000006,0.000209,0.000155,-5.931778,0.000366,
2206,2578,-1.13076563012507,-1.45552765052026,-0.014139163789423,0.002655,-0.000051,0.002702,0.113525,0.042733,321.838126,24.225962,0.999352,0.989153,0.004081,0.460345,0.000005,0.000021,0.000010,0.000026,0.000001,64.854605,0.000030,
2146,2308,-2.39058629425677,-7.35360943943784,0.00443539593760534,0.002263,-0.000383,-0.001373,0.107922,0.010543,326.548619,24.132794,0.998894,0.983064,0.005190,0.431850,0.000094,0.000062,0.000013,0.000098,0.000057,19.452446,0.000158,
2461,2038,4.53680014469383,-13.2771102240662,0.0230528188055814,0.003380,-0.001970,-0.003098,0.165243,-0.058914,330.876254,21.837822,0.999281,0.978699,0.005667,0.374761,0.000513,0.000416,-0.000088,0.000565,0.000364,-30.523212,0.000936,
2146,2548,-2.43112272547777,-2.11181669081576,-0.0150435847166364,0.002451,-0.000438,0.002004,0.106557,0.031962,322.509011,24.233561,0.998964,0.985353,0.004685,0.502443,0.000023,0.000019,-0.000001,0.000024,0.000019,-16.155969,0.000042,
2491,2278,5.14178440098148,-8.00965382864959,0.00897610414233441,0.002898,-0.000463,-0.001144,0.136819,0.011190,326.928755,22.709595,0.999101,0.980789,0.005200,0.360479,0.000180,0.000137,-0.000002,0.000181,0.000137,-2.274494,0.000319,
2296,3163,0.724960908739742,11.2667756958512,0.0383732385905091,0.002944,-0.000272,0.005414,0.117468,0.055902,312.578307,25.315654,0.999690,0.992471,0.003515,0.424137,0.000010,-0.000006,0.000004,0.000011,-0.000007,12.516356,0.000011,
2416,2998,3.36111349275561,7.6954352858745,0.00286997825838853,0.003051,-0.000546,0.007079,0.114259,0.030031,314.984612,25.302298,0.999542,0.988981,0.004010,0.431346,0.000016,-0.000013,0.000011,0.000019,-0.000017,18.254308,0.000021,
2161,2443,-2.08666881785594,-4.40278650342542,-0.00756995791169857,0.002647,-0.000426,0.000364,0.120385,0.024691,324.226716,24.169014,0.999219,0.986285,0.004708,0.457069,0.000031,0.000027,-0.000008,0.000037,0.000021,-38.471414,0.000059,
2461,2053,4.53406332558658,-12.9488703707649,0.0299413980514487,0.003235,-0.002422,-0.001606,0.152829,-0.079537,330.679848,21.881517,0.999272,0.980020,0.005498,0.368115,0.000486,0.000386,-0.000083,0.000534,0.000339,-29.488401,0.000880,
2086,2113,-3.66771435907485,-11.6211396692074,0.00862372620582619,0.001212,-0.001107,-0.002123,0.061328,-0.030936,329.936301,24.418623,0.998883,0.983241,0.005186,0.320021,0.000282,0.000274,0.000095,0.000373,0.000183,43.734728,0.000567,
2446,2248,4.16493285136238,-8.66770753934507,0.0101864413108501,0.002806,-0.000810,-0.003130,0.139755,-0.020418,327.318728,22.750096,0.999065,0.978256,0.005614,0.373243,0.000199,0.000146,0.000001,0.000199,0.000146,0.859532,0.000347,
2146,2323,-2.3935690485055,-7.02541777976086,0.00281245921007667,0.001934,-0.000610,0.000197,0.088000,0.011665,326.273406,24.149707,0.999254,0.983509,0.005095,0.426098,0.000086,0.000056,0.000004,0.000086,0.000056,8.124467,0.000143,
2131,2503,-2.75055159855445,-3.09283714235949,-0.0269090024480647,0.002553,-0.000214,-0.000560,0.119008,0.018365,323.210782,24.209247,0.999136,0.985548,0.004749,0.517281,0.000038,0.000007,-0.000012,0.000042,0.000003,-19.138575,0.000051,
2491,2293,5.13806931791047,-7.681911202123,0.00602968926898484,0.002438,-0.000601,-0.002068,0.119235,-0.011291,326.644232,22.689560,0.999174,0.981471,0.005127,0.419080,0.000167,0.000103,0.000011,0.000168,0.000101,9.303301,0.000272,
2206,2593,-1.13334047930026,-1.12853838918812,-0.00885509826701991,0.002582,-0.000519,0.006925,0.096678,0.058324,321.622182,24.270877,0.999094,0.986686,0.004475,0.448517,0.000004,0.000023,0.000009,0.000027,0.000001,68.553867,0.000031,
2461,2068,4.53146797101322,-12.6202998174877,0.037522314553712,0.003218,-0.002082,0.000478,0.144394,-0.041517,330.492673,21.908913,0.999287,0.980769,0.005414,0.436068,0.000458,0.000386,-0.000080,0.000510,0.000335,-32.854804,0.000851,
2146,2563,-2.43338102970861,-1.78453501020243,-0.0117900924232686,0.002404,-0.000113,0.001455,0.106175,0.039470,322.292786,24.285628,0.998910,0.985081,0.004736,0.466494,0.000022,0.000017,0.000000,0.000022,0.000017,1.797325,0.000039,
2161,2458,-2.08998237255541,-4.07552012298554,-0.00902983681891101,0.002031,-0.000670,0.002169,0.086528,0.033245,323.938539,24.142603,0.999232,0.987209,0.004551,0.503700,0.000030,0.000023,-0.000009,0.000036,0.000017,-35.563154,0.000054,
2416,3013,3.35814428353856,8.02157794194621,0.0041984845692582,0.002910,-0.000621,0.006898,0.108475,0.035918,314.744418,25.367865,0.999442,0.986637,0.004244,0.418873,0.000019,-0.000009,0.000006,0.000020,-0.000010,11.836261,0.000020,
2296,3178,0.721978527775526,11.5918165374,0.0357763898311987,0.003005,-0.000555,0.006641,0.115919,0.032854,312.309601,25.323863,0.999669,0.992639,0.003471,0.421397,0.000011,-0.000009,0.000003,0.000012,-0.000010,8.025317,0.000012,
2491,2308,5.13525070599232,-7.35266414544083,0.00955703704346433,0.002578,-0.000497,-0.000199,0.118578,0.018356,326.429439,22.825180,0.998763,0.978509,0.005607,0.374084,0.000154,0.000103,0.000014,0.000158,0.000099,13.981427,0.000259,
2461,2083,4.52791729126565,-12.2893897134378,0.0280617290868577,0.003341,-0.001714,-0.001390,0.157198,-0.040714,330.184130,22.003519,0.999225,0.979003,0.005662,0.400397,0.000429,0.000365,-0.000074,0.000477,0.000317,-33.211633,0.000799,
2446,2263,4.16224142700963,-8.33848475301318,0.0117631538868181,0.003025,-0.000553,-0.002784,0.148613,0.007462,327.097634,22.849823,0.999099,0.977762,0.005710,0.355830,0.000186,0.000132,-0.000008,0.000187,0.000131,-8.097237,0.000319,
2131,2518,-2.75252838005816,-2.76649648820299,-0.0113408312609522,0.002354,-0.000700,0.005011,0.093043,0.012334,323.072271,24.286383,0.999226,0.986086,0.004610,0.440355,0.000034,0.000008,-0.000008,0.000036,0.000006,-16.353573,0.000046,
2416,3028,3.35480469599952,8.34760498509448,0.0015437145587498,0.002703,-0.000558,0.006545,0.100275,0.038342,314.468459,25.403764,0.999520,0.988258,0.004122,0.432173,0.000018,-0.000001,0.000003,0.000019,-0.000002,8.818693,0.000021,
2146,2578,-2.4366284405706,-1.45627811500225,-0.0216561039528074,0.002337,-0.000043,0.002344,0.100459,0.065595,321.961451,24.298438,0.999168,0.987647,0.004459,0.488869,0.000018,0.000017,-0.000002,0.000020,0.000015,-42.930880,0.000035,
2206,2608,-1.13630549666142,-0.801290567531225,-0.0162256304412836,0.002605,-0.000521,0.005544,0.102118,0.038956,321.323081,24.269648,0.998962,0.984981,0.004758,0.447935,0.000006,0.000013,0.000010,0.000020,-0.000002,54.619338,0.000022,
2491,2323,5.13162065323985,-7.02401712180901,0.00620058636008025,0.002916,-0.001284,0.006827,0.106840,0.020679,326.146594,22.869664,0.998843,0.980112,0.005432,0.392824,0.000143,0.000102,0.000016,0.000149,0.000097,19.607371,0.000247,
2461,2098,4.52413492993824,-11.958583100194,0.0224244093719221,0.003070,-0.001493,-0.001418,0.145055,-0.035560,329.882255,22.133119,0.999532,0.979841,0.005500,0.334013,0.000401,0.000340,-0.000077,0.000453,0.000288,-34.321383,0.000747,
2446,2278,4.15889945847614,-8.00972480551157,0.00908971903845668,0.002830,-0.000656,-0.003771,0.143303,-0.006840,326.827346,22.911422,0.999177,0.978483,0.005665,0.334200,0.000168,0.000126,0.000001,0.000168,0.000126,1.883073,0.000295,
2311,2803,1.11267946042823,3.44998277509894,-0.0159787723945897,0.002482,-0.000415,0.005927,0.093845,0.050013,317.963681,24.588730,0.999422,0.991445,0.003845,0.455963,0.000008,0.000013,0.000011,0.000022,-0.000001,51.113479,0.000025,
2416,3043,3.35273912220176,8.67301631902778,0.00948626055162549,0.002751,-0.000233,0.004100,0.111609,0.047932,314.300966,25.449652,0.999617,0.989927,0.003945,0.442865,0.000015,0.000006,0.000007,0.000019,0.000002,28.572605,0.000024,
2491,2338,5.12833162107468,-6.69432901346318,0.00184717717360172,0.002515,-0.000119,0.000038,0.114960,0.033588,325.874668,22.994561,0.998916,0.984369,0.005386,0.341783,0.000132,0.000098,0.000020,0.000141,0.000088,24.836950,0.000231,
2146,2593,-2.43905669296376,-1.12943946165647,-0.0246077829625619,0.002410,0.000040,-0.000048,0.111089,0.055438,321.704717,24.283306,0.999194,0.987568,0.004546,0.502562,0.000013,0.000023,-0.000001,0.000023,0.000013,-85.461084,0.000036,
2131,2533,-2.7552634183805,-2.43863208325937,-0.0143881896516405,0.002074,-0.000108,0.002302,0.088522,0.041301,322.799352,24.304553,0.999014,0.985400,0.004739,0.457948,0.000027,0.000007,-0.000005,0.000028,0.000006,-12.052292,0.000036,
2206,2623,-1.13885076556038,-0.474409129902583,-0.0143047560075615,0.002490,-0.000291,0.005385,0.097378,0.042546,321.091160,24.296771,0.999276,0.984990,0.004773,0.441708,0.000003,0.000021,0.000009,0.000025,-0.000001,68.721552,0.000028,
2446,2293,4.15532231731223,-7.68267701482123,0.00975534588826577,0.002504,-0.000842,0.000048,0.114117,-0.000365,326.561638,22.834825,0.999267,0.979668,0.005511,0.471944,0.000158,0.000112,0.000011,0.000161,0.000109,12.818767,0.000271,
2416,3058,3.34997848964927,8.99855953992144,0.0123346409476426,0.003000,-0.000579,0.007714,0.109621,0.027851,314.077503,25.507261,0.999634,0.990868,0.003834,0.411962,0.000015,-0.000005,0.000007,0.000017,-0.000007,17.240310,0.000017,
2491,2353,5.12567383460155,-6.36800998933532,0.00815573272217307,0.002482,-0.000342,0.000971,0.109816,0.046860,325.679918,22.920611,0.998854,0.984879,0.005431,0.489705,0.000129,0.000107,0.000026,0.000146,0.000090,33.837153,0.000239,
2311,2818,1.11005286087875,3.77685905399126,-0.0159127003286699,0.002570,-0.000266,0.005260,0.100193,0.030788,317.726128,24.682955,0.999430,0.989765,0.004043,0.374527,0.000005,0.000018,0.000012,0.000025,-0.000002,59.563982,0.000027,
2206,2638,-1.14155957111656,-0.147829759726967,-0.0145926895642674,0.002453,-0.000528,0.006505,0.092109,0.042958,320.840409,24.285109,0.999253,0.986297,0.004636,0.471049,-0.000002,0.000022,0.000010,0.000025,-0.000005,70.137802,0.000027,
2131,2548,-2.75711389271234,-2.11149935300678,-0.0152683844924013,0.002575,0.000179,0.000172,0.118013,0.033875,322.578781,24.316265,0.998547,0.983178,0.005097,0.445353,0.000023,0.000014,0.000001,0.000023,0.000014,3.977363,0.000037,
2491,2368,5.12238334025978,-6.03805286758835,-0.00484042690874276,0.002983,0.000231,-0.003744,0.151045,0.042969,325.368968,23.013578,0.998438,0.982180,0.005565,0.453640,0.000128,0.000090,0.000043,0.000156,0.000063,33.101420,0.000225,
2416,3073,3.34716730947315,9.32391480546611,0.0146759281561799,0.002814,-0.000502,0.006036,0.107214,0.022504,313.849313,25.533200,0.999658,0.990958,0.003799,0.427308,0.000016,-0.000002,0.000007,0.000018,-0.000004,18.429626,0.000019,
2446,2308,4.1516993631897,-7.35202007122381,0.0055686072574872,0.002416,-0.001065,0.002114,0.102369,0.010622,326.271002,23.040457,0.999124,0.978945,0.005520,0.331937,0.000147,0.000106,0.000011,0.000150,0.000103,14.345532,0.000255,
2311,2833,1.10831808937272,4.10261999856279,-0.00757220115184509,0.002835,-0.000436,0.003314,0.119012,0.025786,317.570541,24.727164,0.999665,0.991921,0.003734,0.357210,-0.000002,0.000026,0.000015,0.000033,-0.000008,66.611577,0.000034,
2206,2653,-1.14440731281733,0.179506670402958,-0.0237878892883145,0.002669,-0.000538,0.004307,0.108950,0.022610,320.537150,24.293598,0.999297,0.985730,0.004743,0.459738,-0.000001,0.000026,0.000013,0.000032,-0.000006,68.410794,0.000033,
2491,2383,5.11880715196098,-5.70993767757728,-0.00402750907539939,0.002774,-0.000126,0.000364,0.125604,0.044625,325.107023,23.072533,0.998422,0.980064,0.005677,0.457250,0.000127,0.000054,0.000037,0.000142,0.000038,22.820147,0.000191,
2416,3088,3.34465282369017,9.64986758220468,0.017127463684119,0.002939,-0.000415,0.004623,0.118199,0.021024,313.635054,25.614686,0.999675,0.992282,0.003593,0.391090,0.000017,0.000000,0.000004,0.000018,0.000000,11.533727,0.000020,
2446,2323,4.14860748320126,-7.02479465475371,0.00462871850027113,0.002374,-0.000613,0.001889,0.101478,0.019555,326.020002,22.972024,0.999218,0.979221,0.005389,0.463439,0.000139,0.000097,0.000016,0.000144,0.000092,18.680627,0.000238,
2311,2848,1.1057914172757,4.42717364444454,-0.00354113623109242,0.002821,-0.000470,0.004011,0.115934,0.018938,317.357643,24.633293,0.999779,0.992454,0.003669,0.476100,0.000000,0.000024,0.000015,0.000031,-0.000007,64.217539,0.000032,
2491,2398,5.11501772297808,-5.38202883615389,-0.000814642902696505,0.002160,-0.000892,0.004569,0.081103,0.017821,324.846112,23.168990,0.999315,0.987459,0.004623,0.394273,0.000124,0.000044,0.000039,0.000140,0.000029,21.969160,0.000180,
2416,3103,3.34202669615017,9.97572996395409,0.0203436125614189,0.002988,-0.000322,0.004415,0.121321,0.038449,313.419191,25.677430,0.999798,0.994714,0.003221,0.392699,0.000024,0.000004,0.000006,0.000025,0.000002,15.375342,0.000031,
2446,2338,4.14607709856425,-6.69640397890496,0.0104463206729406,0.002342,-0.000712,0.001439,0.101642,0.015197,325.825648,23.095241,0.999100,0.979702,0.005375,0.389816,0.000133,0.000093,0.000021,0.000141,0.000084,23.207519,0.000228,
2311,2863,1.10296552473617,4.75416000285709,-0.00441532610244622,0.002910,-0.000589,0.005023,0.116562,0.024830,317.106097,24.717845,0.999666,0.991434,0.003773,0.429389,0.000001,0.000019,0.000012,0.000025,-0.000005,64.189885,0.000026,
2491,2413,5.11203723709517,-5.05467933257442,-0.0105663470304194,0.002459,-0.000497,-0.002778,0.123068,-0.000194,324.564075,23.086470,0.999334,0.988157,0.004537,0.519461,0.000117,0.000023,0.000049,0.000137,0.000002,23.008953,0.000160,
2416,3118,3.33921705071249,10.3011576515563,0.0221286683809581,0.003063,-0.000620,0.005400,0.121073,0.030902,313.188245,25.719679,0.999829,0.995002,0.003070,0.389521,0.000034,0.000009,0.000008,0.000036,0.000007,15.839233,0.000046,
2446,2353,4.14345236376718,-6.36841842889672,0.00801040967365907,0.002651,-0.000210,-0.001801,0.128054,0.030447,325.588953,23.085280,0.999246,0.981168,0.005426,0.469073,0.000127,0.000088,0.000024,0.000139,0.000077,25.466229,0.000219,
2311,2878,1.09946229115741,5.08156634954209,-0.01283729533327,0.002740,-0.000300,0.004091,0.112044,0.032781,316.786055,24.788138,0.999533,0.989549,0.004037,0.399009,-0.000002,0.000007,0.000011,0.000015,-0.000009,56.535947,0.000015,
2416,3133,3.33631634481322,10.6254539220094,0.0240595409125604,0.003097,-0.000542,0.007232,0.115993,0.042579,312.954077,25.642979,0.999858,0.995091,0.002970,0.524623,0.000037,0.000004,0.000006,0.000039,0.000003,10.338293,0.000046,
2311,2893,1.09630650011242,5.40851618986157,-0.01404938973252,0.002613,-0.000287,0.006286,0.098761,0.051287,316.517559,24.863775,0.999483,0.990721,0.003858,0.373861,-0.000002,-0.000003,0.000013,0.000011,-0.000015,44.214797,0.000015,
2446,2368,4.14030444864246,-6.04013937721619,0.00575791344965637,0.002856,-0.000865,0.000150,0.129919,-0.013355,325.329208,23.168493,0.999384,0.984459,0.005016,0.396025,0.000124,0.000075,0.000037,0.000144,0.000056,28.099302,0.000206,
2416,3148,3.33403689388542,10.9510194825619,0.0340642190064386,0.003023,-0.000468,0.007942,0.109976,0.039722,312.785960,25.750474,0.999761,0.994027,0.003150,0.460672,0.000035,-0.000003,0.000008,0.000037,-0.000005,10.869050,0.000040,
2176,2008,-1.68749229943062,-13.9284348944335,0.0166765907639501,0.001127,-0.001988,-0.005026,0.066366,-0.067871,331.328939,23.632652,0.999201,0.984271,0.005005,0.432870,0.000396,0.000348,0.000065,0.000441,0.000303,34.790368,0.000748,
2161,2473,-2.09209583601801,-3.74760100859588,-0.00908488608871494,0.002257,-0.000313,-0.000032,0.103774,0.034855,323.712554,24.200673,0.999178,0.985863,0.004874,0.458491,0.000028,0.000023,-0.000005,0.000031,0.000020,-31.137233,0.000051,
2131,2098,-2.68437261154951,-11.9499735614373,0.00367835696914653,0.001553,-0.001213,-0.002186,0.077314,-0.020140,329.948924,24.137326,0.998976,0.983348,0.005094,0.340588,0.000286,0.000296,0.000085,0.000377,0.000206,46.738108,0.000590,
2371,2878,2.4046740796181,5.0852612662997,-0.0102877364928986,0.003085,-0.000419,0.006067,0.120136,0.021565,316.803576,24.937661,0.999544,0.992800,0.003590,0.336618,0.000001,0.000010,0.000011,0.000018,-0.000006,55.557579,0.000018,
2386,3013,2.70672216412786,8.01836405010524,0.0150974800737345,0.002960,-0.000650,0.006861,0.111345,0.019989,314.810832,25.269975,0.999622,0.990537,0.003831,0.411572,0.000016,-0.000008,0.000001,0.000016,-0.000008,2.623921,0.000016,
2326,2533,1.48928466431195,-2.43405299122666,-0.01785511342473,0.002412,-0.000429,0.001372,0.105883,0.022313,322.339493,23.949617,0.999396,0.985341,0.004517,0.453361,0.000022,0.000007,0.000013,0.000030,-0.000001,29.997627,0.000034,
2056,2203,-4.33521795905166,-9.64887270065705,0.000795425058072396,0.001553,-0.000327,-0.000483,0.072563,0.026466,328.593930,24.559708,0.998510,0.980892,0.005547,0.396430,0.000171,0.000156,0.000067,0.000231,0.000096,41.708970,0.000336,
2161,2563,-2.10715384007795,-1.78424666954174,-0.0112671507329765,0.002557,-0.000646,0.004357,0.104094,0.046563,322.238768,24.252141,0.999054,0.985955,0.004563,0.485729,0.000017,0.000020,0.000005,0.000024,0.000013,54.939396,0.000038,
2146,2338,-2.39628889369182,-6.69733562726729,0.000661450267728014,0.001957,-0.000802,0.002587,0.081794,0.021798,326.007398,24.147700,0.999263,0.985759,0.004735,0.448100,0.000075,0.000056,-0.000001,0.000076,0.000056,-3.617761,0.000132,
2176,2593,-1.78632434221897,-1.12935316752696,-0.0186082099834834,0.002483,-0.000631,0.001930,0.107999,-0.001737,321.643719,24.286194,0.999102,0.987315,0.004415,0.407770,0.000002,0.000027,0.000008,0.000029,0.000000,74.021468,0.000033,
2506,2323,5.45977723464742,-7.02576464301226,0.0121836657739891,0.002625,-0.000859,0.003918,0.104696,0.024242,326.240143,22.702737,0.998954,0.982571,0.005176,0.505127,0.000138,0.000113,0.000006,0.000140,0.000112,12.576973,0.000252,
2401,2938,3.04625619244551,6.39006650148276,-0.000637089650524558,0.002938,-0.000383,0.006418,0.111777,0.044630,315.917206,25.036582,0.999501,0.990980,0.003869,0.490254,0.000008,-0.000006,0.000006,0.000010,-0.000009,21.023244,0.000011,
2131,2143,-2.69167390688154,-10.9649771922818,0.00683805375558677,0.001332,-0.000947,-0.000371,0.061862,-0.000177,329.237412,24.087247,0.998995,0.982310,0.005302,0.436631,0.000233,0.000231,0.000082,0.000314,0.000150,44.739791,0.000473,
2476,2008,4.87169974040065,-13.9377098289857,0.0233779531404821,0.003702,-0.002198,-0.005997,0.190861,-0.088606,331.426300,21.554067,0.999173,0.974484,0.005909,0.407971,0.000588,0.000415,-0.000079,0.000618,0.000384,-21.134714,0.001011,
2281,2713,0.477092474634048,1.48807231127262,-0.0110912423126024,0.002605,-0.000819,0.005323,0.101731,0.013047,319.508755,24.364656,0.999736,0.992728,0.003563,0.448602,0.000000,0.000030,0.000000,0.000030,0.000000,89.887013,0.000034,
2116,2383,-3.05646589187701,-5.71472947411714,-0.00544536540536456,0.002429,-0.001034,0.001023,0.108233,-0.023893,325.381952,24.224181,0.999113,0.984939,0.004837,0.450985,0.000060,0.000053,-0.000003,0.000060,0.000052,-19.130482,0.000113,
2071,3178,-4.15727860393361,11.572858406291,0.0439034532577125,0.003124,-0.000140,0.007837,0.121946,0.058069,313.125642,24.297810,0.999815,0.996081,0.002742,0.438173,0.000010,0.000023,0.000004,0.000024,0.000009,75.509994,0.000034,
2251,3043,-0.232207093149082,8.66112000521671,0.0163211687883518,0.002824,-0.000181,0.007866,0.104398,0.053272,314.412443,24.972524,0.999495,0.991126,0.003704,0.385996,0.000004,-0.000013,-0.000001,0.000004,-0.000013,-1.938097,0.000013,
2041,3118,-4.79926307124906,10.2707481091192,0.0297886697095464,0.002611,-0.000281,0.008924,0.095732,0.049732,314.133581,24.167942,0.999653,0.994311,0.003105,0.456728,0.000004,0.000034,-0.000001,0.000035,0.000004,-87.552666,0.000042,
2266,2953,0.108954256154806,6.70801033333355,0.000243049093171521,0.003047,-0.000187,0.005563,0.121900,0.047728,315.737391,24.815933,0.999199,0.987265,0.004369,0.437588,0.000013,0.000006,0.000010,0.000020,-0.000001,34.676223,0.000022,
2221,2428,-0.776933065109571,-4.7332427508527,0.00879327611505687,0.002447,-0.000587,0.001155,0.108502,0.015203,324.415267,23.809445,0.999674,0.989984,0.004048,0.629019,0.000014,0.000042,-0.000010,0.000045,0.000011,-72.736410,0.000059,
2251,2758,-0.184834231150717,2.46926599416756,-0.0308793455419618,0.002635,-0.000321,0.005245,0.103957,0.031370,318.661511,24.507552,0.999136,0.988203,0.004322,0.394589,0.000001,0.000021,0.000005,0.000023,0.000000,76.755135,0.000026,
2341,2623,1.79877775546261,-0.469821316883056,-0.0182339997529084,0.002479,-0.000662,0.007240,0.088489,0.046016,320.853598,24.161658,0.999348,0.987265,0.004380,0.463510,0.000022,0.000040,0.000010,0.000045,0.000017,65.325565,0.000064,
2026,3133,-5.12590953701492,10.5950468223804,0.0357315763043289,0.002888,-0.000083,0.007778,0.112162,0.076176,314.047044,24.137513,0.999560,0.993713,0.003325,0.442523,0.000000,0.000037,0.000004,0.000038,0.000000,84.044687,0.000044,
2176,2353,-1.74564122160956,-6.3668765435342,-0.0145862287808427,0.002370,0.000599,-0.003562,0.120070,0.057019,325.568841,24.092601,0.998691,0.980415,0.005479,0.443635,0.000048,0.000058,-0.000007,0.000062,0.000044,-63.667987,0.000107,
2086,2128,-3.67092558935949,-11.2919104837689,0.00427811741258211,0.000824,-0.001431,0.001700,0.032424,-0.010344,329.630421,24.410511,0.999008,0.984670,0.005051,0.351101,0.000257,0.000256,0.000097,0.000354,0.000160,44.811385,0.000526,
2101,2353,-3.37844542611684,-6.36829120433389,-0.0109086736238737,0.002513,-0.000284,0.000734,0.113241,0.037411,325.892599,24.325197,0.998955,0.983629,0.005079,0.453359,0.000067,0.000053,0.000004,0.000068,0.000052,13.827441,0.000120,
2176,2023,-1.6895033379524,-13.5996789824462,0.0257561609504364,0.001210,-0.001928,-0.001507,0.059349,-0.038396,331.156512,23.684739,0.998547,0.984434,0.005172,0.425750,0.000374,0.000352,0.000063,0.000426,0.000299,40.069363,0.000729,
2191,2308,-1.4108698634512,-7.35378962931109,0.00209992638644962,0.001883,-0.000967,-0.001065,0.089426,0.000067,326.357863,23.916977,0.998688,0.982037,0.005358,0.459901,0.000070,0.000069,0.000008,0.000078,0.000061,43.422697,0.000139,
2281,2518,0.512112902805942,-2.76380700329739,-0.00978183497909413,0.002395,-0.001058,0.006231,0.088803,0.013923,322.671688,23.958108,0.999726,0.991428,0.003935,0.486893,0.000011,0.000015,0.000006,0.000020,0.000006,52.961205,0.000027,
2416,3163,3.33129272687733,11.2765062116016,0.03372674489151,0.003152,-0.000473,0.006659,0.120651,0.041321,312.547855,25.786659,0.999729,0.993237,0.003275,0.472672,0.000032,-0.000004,0.000005,0.000033,-0.000005,8.254510,0.000035,
2311,2563,1.15720521655645,-1.78105070245162,-0.00812464994311313,0.002325,-0.001267,0.007566,0.080562,0.018086,321.917728,24.018918,0.999153,0.986424,0.004623,0.472133,0.000019,0.000026,0.000012,0.000035,0.000010,53.164266,0.000047,
2086,2233,-3.68637040913318,-8.9925472554066,-0.000382682030874548,0.001812,-0.000643,0.001066,0.079911,0.049183,327.951507,24.390360,0.998723,0.984340,0.004945,0.442977,0.000154,0.000134,0.000066,0.000211,0.000077,40.622259,0.000298,
2311,2908,1.09413488488631,5.73354500143884,-0.00561603252589293,0.002361,-0.000239,0.003365,0.097154,0.032360,316.342405,24.873794,0.999512,0.992032,0.003727,0.376467,-0.000002,0.000000,0.000010,0.000009,-0.000011,47.511568,0.000012,
2296,3253,0.706893074538709,13.2187527723002,0.0222427695994725,0.002786,-0.000440,0.007349,0.103589,0.042454,310.953990,25.459631,0.999633,0.990441,0.003709,0.438482,0.000009,-0.000006,0.000003,0.000010,-0.000006,10.985270,0.000010,
2221,2668,-0.820805470420193,0.50682007142612,-0.0200829227795225,0.002506,-0.000411,0.005995,0.095978,0.038760,320.272289,24.320490,0.999561,0.992618,0.003677,0.459779,-0.000002,0.000032,0.000006,0.000033,-0.000003,80.377231,0.000037,
2041,3133,-4.80076905714536,10.5959168955582,0.035155895197704,0.002972,-0.000117,0.006247,0.119865,0.043618,313.957602,24.203127,0.999383,0.992277,0.003544,0.406676,0.000006,0.000029,-0.000004,0.000029,0.000005,-81.609198,0.000037,
2326,2548,1.48629138840291,-2.10676913685415,-0.0162852507846765,0.002434,-0.000644,0.005989,0.090970,0.060137,322.094216,23.955412,0.999089,0.983765,0.004863,0.520763,0.000027,0.000017,0.000013,0.000036,0.000008,34.354273,0.000047,
2176,2608,-1.7892556953747,-0.801531074650377,-0.0211393775638271,0.002413,-0.000445,0.004404,0.097276,0.040058,321.368269,24.318357,0.999081,0.987604,0.004446,0.430432,0.000004,0.000016,0.000007,0.000020,0.000001,65.613939,0.000023,
2476,2023,4.86845167023652,-13.6072687259932,0.0261788296903092,0.003507,-0.001994,-0.003501,0.172606,-0.056352,331.188824,21.689531,0.999444,0.980448,0.005321,0.365088,0.000558,0.000434,-0.000091,0.000606,0.000387,-27.817459,0.001000,
2356,2653,2.12014813870676,0.184713305507174,-0.0183952349380547,0.002415,-0.000250,0.001185,0.106743,0.035675,320.383075,24.230392,0.999299,0.986985,0.004588,0.449888,0.000021,0.000044,0.000011,0.000048,0.000016,67.770196,0.000067,
2161,2578,-2.1103143103497,-1.45678132107948,-0.0172998054433151,0.002340,-0.000480,0.005085,0.091944,0.047872,321.933388,24.250848,0.999050,0.986271,0.004499,0.499281,0.000012,0.000020,0.000003,0.000021,0.000011,71.510127,0.000032,
2506,2338,5.45677663416364,-6.69583471308783,0.0108195687815851,0.002567,-0.000316,0.000348,0.116026,0.024652,325.996217,22.891374,0.999172,0.985491,0.005139,0.379907,0.000130,0.000106,0.000010,0.000133,0.000102,20.021515,0.000236,
2371,2893,2.40216519565599,5.41077467955111,-0.0112600343506415,0.003092,0.000204,0.000607,0.140203,0.042737,316.571007,24.880766,0.999478,0.991430,0.003774,0.455489,0.000005,0.000000,0.000012,0.000015,-0.000010,39.354530,0.000015,
2266,2533,0.183206594519461,-2.43735213674918,-0.0121280459762261,0.002721,-0.000954,0.002735,0.115638,-0.002508,322.457680,23.960060,0.999751,0.995048,0.003245,0.523513,0.000004,0.000017,0.000009,0.000022,0.000000,62.282200,0.000025,
2161,2488,-2.09500117786197,-3.41969708948444,-0.0177927834677689,0.002461,-0.000298,0.000603,0.111222,0.045266,323.404766,24.174469,0.999054,0.985827,0.004839,0.506569,0.000024,0.000017,-0.000005,0.000027,0.000015,-27.276900,0.000042,
2176,2038,-1.69220833456527,-13.2691330297813,0.0213466172418748,0.001088,-0.001486,-0.004409,0.062911,-0.054603,330.882146,23.798392,0.998876,0.984587,0.005021,0.311921,0.000352,0.000347,0.000060,0.000410,0.000290,43.845377,0.000703,
2191,2503,-1.4442905032473,-3.09203652760525,-0.0139988414223353,0.002602,-0.000406,0.000699,0.117253,0.010146,323.100847,24.173335,0.999180,0.985385,0.004883,0.422770,0.000015,0.000017,0.000007,0.000023,0.000009,48.500562,0.000033,
2236,2653,-0.490779706192992,0.180242360555248,-0.00588383307814411,0.002678,-0.000558,0.006322,0.102489,0.025279,320.605797,24.395206,0.999398,0.988405,0.004360,0.343228,-0.000002,0.000032,0.000009,0.000034,-0.000004,76.482634,0.000038,
2191,2668,-1.47306499141422,0.506086897397765,-0.0170650412246687,0.002359,-0.000517,0.005303,0.091788,0.024414,320.376131,24.404867,0.999746,0.994145,0.003271,0.373339,-0.000001,0.000036,0.000008,0.000037,-0.000003,78.884447,0.000042,
2236,2488,-0.462388316431756,-3.41841095248142,-0.0140923339679375,0.002513,-0.000671,0.002633,0.106699,0.028485,323.215981,24.046963,0.999487,0.988084,0.004277,0.453473,0.000007,0.000023,-0.000004,0.000024,0.000006,-77.572773,0.000032,
2266,2968,0.106237943953953,7.03414716904737,-0.00168809903101419,0.003057,-0.000111,0.003979,0.127680,0.056851,315.482089,24.841055,0.999391,0.990549,0.003912,0.446560,0.000014,0.000001,0.000006,0.000016,-0.000001,23.204596,0.000018,
2191,2323,-1.41326616622523,-7.02590019590095,0.00505353423113775,0.002008,-0.000857,0.001860,0.086058,0.002340,326.137139,23.951327,0.998993,0.984305,0.004961,0.444114,0.000061,0.000063,0.000003,0.000065,0.000059,49.978021,0.000124,
2026,3148,-5.12810529290235,10.9190630387975,0.0434725329236016,0.002647,-0.000201,0.009234,0.097033,0.074590,313.852327,24.079360,0.999651,0.994651,0.003109,0.488239,-0.000003,0.000029,0.000002,0.000029,-0.000003,86.914417,0.000032,
2251,2773,-0.186592899416159,2.79425831154857,-0.0189393312662105,0.002611,-0.000178,0.004300,0.105988,0.026892,318.519960,24.493648,0.999219,0.988019,0.004254,0.426998,-0.000001,0.000017,0.000005,0.000018,-0.000002,76.231833,0.000020,
2476,2038,4.86554724734884,-13.2782446472104,0.0253545941914695,0.003585,-0.001394,-0.005256,0.183108,-0.063235,330.950938,21.699204,0.999372,0.978585,0.005671,0.408500,0.000531,0.000418,-0.000097,0.000586,0.000362,-29.903381,0.000957,
2056,3043,-4.46340673580001,8.64714150395908,0.0127244295381388,0.002679,-0.000304,0.010122,0.095163,0.072954,315.124602,24.270911,0.999684,0.994345,0.003209,0.469096,0.000006,-0.000004,-0.000009,0.000011,-0.000009,-29.493908,0.000012,
2176,2368,-1.74802014580679,-6.03943506542561,-0.0130355414147516,0.002497,0.000119,-0.001942,0.120728,0.049327,325.340530,24.097831,0.999063,0.986265,0.004729,0.444605,0.000042,0.000063,-0.000008,0.000066,0.000039,-70.725836,0.000107,
2071,3193,-4.15984880972145,11.8981351015796,0.0429236227712408,0.003017,-0.000175,0.007694,0.117414,0.054396,312.867717,24.317083,0.999620,0.994323,0.003067,0.410693,0.000012,0.000017,0.000001,0.000017,0.000011,83.452161,0.000029,
2416,3178,3.32821815959887,11.6020699356418,0.0322696910470199,0.003037,-0.000344,0.005335,0.120220,0.033192,312.289178,25.836986,0.999611,0.992102,0.003502,0.460600,0.000033,-0.000006,0.000005,0.000033,-0.000007,7.356859,0.000036,
2341,2638,1.79655038718474,-0.143258934511451,-0.0161593106107603,0.002504,-0.000308,0.001985,0.108040,0.026442,320.647095,24.190608,0.999329,0.987338,0.004400,0.451901,0.000022,0.000039,0.000006,0.000041,0.000020,72.683582,0.000062,
2251,3058,-0.232940828812577,8.98483780888714,0.0354132115385255,0.003325,0.000088,0.006814,0.130992,0.061921,314.354397,24.935729,0.999588,0.992290,0.003517,0.453965,0.000008,-0.000021,-0.000001,0.000008,-0.000021,-2.740776,0.000022,
2311,2923,1.09144321026072,6.05930458780581,-0.00832168669819566,0.002670,0.000130,0.003754,0.110181,0.056607,316.088131,24.831671,0.999161,0.989846,0.004059,0.474760,-0.000001,0.000000,0.000008,0.000007,-0.000008,46.277066,0.000009,
2101,2368,-3.37998483058334,-6.04204040017702,-0.0030136387262587,0.002638,-0.000205,-0.002163,0.127477,0.022906,325.731314,24.288104,0.998876,0.982702,0.005257,0.478801,0.000063,0.000057,0.000000,0.000063,0.000057,0.705451,0.000120,
2116,2398,-3.05928613583913,-5.38627547693644,-0.00589539970837905,0.001972,-0.000372,0.000118,0.090148,0.008112,325.117657,24.271391,0.998806,0.985164,0.004898,0.440880,0.000055,0.000052,-0.000010,0.000063,0.000044,-40.175459,0.000107,
2146,2353,-2.39828504429775,-6.36944829958361,-0.00103973145724012,0.002312,-0.000327,-0.000456,0.107484,0.026876,325.776927,24.142548,0.999287,0.985953,0.004636,0.468073,0.000066,0.000053,-0.000007,0.000069,0.000051,-23.252924,0.000120,
2281,2728,0.473906717396165,1.81567079996465,-0.0194337083221399,0.002717,-0.000711,0.004941,0.108240,0.026049,319.201289,24.397958,0.999685,0.992097,0.003594,0.456573,0.000004,0.000027,0.000002,0.000028,0.000003,84.071092,0.000034,
2041,3148,-4.80278628103401,10.920250873068,0.0428831529360423,0.002909,-0.000107,0.007367,0.113959,0.062732,313.771635,24.153906,0.999594,0.993462,0.003360,0.466414,0.000004,0.000024,-0.000003,0.000025,0.000004,-80.796752,0.000031,
2086,2248,-3.68924664245901,-8.66508345727544,-0.000490143385320607,0.001304,-0.000707,0.001815,0.054400,0.030190,327.684441,24.349319,0.998773,0.984223,0.004988,0.466427,0.000138,0.000126,0.000059,0.000191,0.000072,42.186494,0.000272,
2026,3163,-5.12998406185195,11.2442137426105,0.0433861339152486,0.002951,-0.000148,0.006581,0.118324,0.058407,313.627935,24.095899,0.999562,0.994001,0.003305,0.444484,-0.000006,0.000029,-0.000002,0.000029,-0.000006,-87.042927,0.000031,
2161,2593,-2.11277614216308,-1.12955529878849,-0.0184560601124986,0.002452,-0.000729,0.005119,0.096926,0.025855,321.685785,24.298555,0.999169,0.987849,0.004404,0.440358,0.000009,0.000022,0.000005,0.000024,0.000007,72.029765,0.000033,
2131,2158,-2.69230156054788,-10.6380231506036,0.0242187496552901,0.001599,-0.000741,-0.005881,0.090633,-0.031911,329.169973,24.167372,0.999728,0.990987,0.004178,0.332287,0.000217,0.000192,0.000072,0.000278,0.000131,40.014462,0.000418,
2326,2563,1.48389799182183,-1.77938091278178,-0.0144163812646525,0.002570,-0.000768,0.004425,0.102550,0.044103,321.878028,24.031623,0.998729,0.983728,0.005011,0.463772,0.000024,0.000020,0.000011,0.000034,0.000011,40.459735,0.000047,
2176,2623,-1.79154179028481,-0.47504248306759,-0.0222250495585854,0.002617,-0.000548,0.002878,0.111337,0.020384,321.130453,24.306804,0.999372,0.988029,0.004308,0.435278,0.000000,0.000024,0.000005,0.000025,-0.000001,78.546822,0.000028,
2266,2983,0.103372136257835,7.35956975135821,0.00205494426967334,0.002878,-0.000496,0.007538,0.107527,0.042635,315.248709,24.867042,0.999553,0.992115,0.003771,0.431184,0.000014,0.000005,0.000009,0.000019,-0.000001,32.153926,0.000022,
2266,2548,0.180641008367733,-2.10786312824891,-0.0145326130813146,0.002940,-0.000358,0.001666,0.129471,0.035586,322.207035,24.131066,0.999591,0.992184,0.003714,0.417072,0.000007,0.000026,0.000012,0.000032,0.000001,64.505980,0.000037,
2176,2053,-1.69458592589543,-12.9399662039315,0.0187497709982267,0.001479,-0.001641,-0.002660,0.075387,-0.045786,330.632205,23.787760,0.999060,0.984206,0.004908,0.346940,0.000331,0.000327,0.000060,0.000389,0.000269,44.020544,0.000662,
2476,2053,4.86188218921229,-12.9493834739961,0.0281164479013114,0.003322,-0.002647,0.001436,0.145260,-0.089242,330.694425,21.758984,0.999412,0.982096,0.005289,0.382953,0.000504,0.000389,-0.000094,0.000557,0.000336,-29.358404,0.000902,
2221,2443,-0.780106182879202,-4.40226256899425,-0.00195918175438692,0.002593,-0.000431,0.000540,0.117206,0.013979,324.090277,24.040508,0.999175,0.987153,0.004659,0.417180,0.000006,0.000038,-0.000010,0.000041,0.000003,-73.614652,0.000048,
2311,2578,1.15359146113927,-1.45131669467504,-0.021521183929849,0.002315,-0.000536,0.005353,0.087915,0.037378,321.568710,24.145648,0.999511,0.990852,0.003869,0.398174,0.000018,0.000035,0.000011,0.000041,0.000012,64.409322,0.000055,
2296,3268,0.704189537773043,13.5440124338982,0.0178932076765363,0.003045,-0.000274,0.005675,0.121318,0.052693,310.689024,25.470026,0.999609,0.992185,0.003439,0.466887,0.000008,-0.000001,0.000006,0.000011,-0.000004,26.838357,0.000011,
2356,2668,2.11726150015074,0.511157750780228,-0.014978854154549,0.002494,-0.000582,0.006222,0.092479,0.029007,320.153747,24.256096,0.999465,0.989025,0.004256,0.456758,0.000021,0.000047,0.000007,0.000048,0.000019,76.371736,0.000069,
2191,2518,-1.44662328294259,-2.76618151674397,-0.00573153936164772,0.002412,-0.000510,0.003278,0.100466,0.024790,322.910817,24.119890,0.999358,0.987679,0.004551,0.506069,0.000015,0.000017,0.000012,0.000028,0.000004,47.297919,0.000035,
2221,2683,-0.82361397206741,0.834054955040656,-0.0244468177045292,0.002339,0.000188,0.002149,0.100826,0.053972,319.996950,24.335193,0.999573,0.991930,0.003689,0.479703,-0.000005,0.000037,0.000004,0.000037,-0.000005,84.614469,0.000040,
2281,2533,0.510050061398978,-2.43759491986777,-0.00694876016785884,0.002576,-0.000927,0.002881,0.108382,-0.001887,322.472413,23.924441,0.999663,0.992377,0.003690,0.533069,0.000010,0.000012,0.000005,0.000016,0.000006,50.005057,0.000022,
2251,3073,-0.237110218023954,9.31106359194234,0.0245070279915467,0.002811,-0.000245,0.009471,0.098508,0.054892,313.985386,24.954567,0.999491,0.991253,0.003718,0.450476,0.000008,-0.000018,-0.000003,0.000008,-0.000018,-5.848760,0.000018,
2026,3178,-5.13201205852532,11.5686909905844,0.0488495062737684,0.002969,-0.000156,0.007185,0.117542,0.063274,313.428047,24.066292,0.999659,0.993724,0.003215,0.468038,-0.000006,0.000034,-0.000001,0.000034,-0.000006,-88.683213,0.000036,
2101,2383,-3.38295913743086,-5.71303560523658,-0.0101780870735979,0.002550,-0.000196,-0.001218,0.120682,0.023814,325.422534,24.346515,0.998745,0.983132,0.005132,0.424361,0.000057,0.000051,0.000001,0.000058,0.000050,11.518647,0.000108,
2056,3058,-4.46560380640825,8.97247099019569,0.0139391635958077,0.002709,-0.000406,0.009052,0.099618,0.073631,314.894662,24.270897,0.999525,0.993069,0.003439,0.463678,0.000008,-0.000003,-0.000007,0.000012,-0.000006,-25.551555,0.000012,
2086,2263,-3.690706635629,-8.33772818010761,0.000503365688246049,0.001922,-0.000511,-0.000942,0.090820,0.015090,327.488069,24.310610,0.998707,0.983514,0.005095,0.491328,0.000132,0.000114,0.000058,0.000182,0.000065,40.674705,0.000255,
2116,2413,-3.06119291805904,-5.05748634539211,-0.00991322122229121,0.002471,-0.000132,-0.003799,0.124760,0.027587,324.875997,24.332758,0.999133,0.986780,0.004752,0.404191,0.000052,0.000039,-0.000009,0.000057,0.000034,-27.595237,0.000092,
2236,2503,-0.465526655623933,-3.09077243688282,-0.0163390534425503,0.002239,-0.000379,0.003860,0.090287,0.040209,322.937912,24.060950,0.999441,0.987110,0.004389,0.473626,0.000005,0.000024,0.000003,0.000024,0.000004,80.326515,0.000031,
2251,2788,-0.189038999397059,3.12037498358229,-0.0157678868664561,0.002677,-0.000536,0.005339,0.105534,0.025328,318.302129,24.514957,0.999417,0.988741,0.004134,0.427213,0.000001,0.000021,0.000008,0.000024,-0.000002,69.512387,0.000027,
2041,3163,-4.80516472121665,11.2452528503432,0.0386683245398558,0.003122,-0.000275,0.006970,0.124779,0.038315,313.502460,24.140644,0.999611,0.993183,0.003428,0.446539,0.000002,0.000027,-0.000004,0.000027,0.000002,-81.580919,0.000033,
2476,2068,4.85908210457059,-12.620315789325,0.0338470733949521,0.003244,-0.002585,0.003011,0.135781,-0.060521,330.490575,21.820775,0.999381,0.979544,0.005584,0.409655,0.000476,0.000393,-0.000091,0.000535,0.000334,-32.707937,0.000876,
2176,2383,-1.75084310146462,-5.7131657703912,-0.00905860210752962,0.002297,-0.000695,0.003913,0.093178,0.029451,325.104843,24.036272,0.999109,0.988062,0.004548,0.500260,0.000031,0.000063,-0.000009,0.000065,0.000028,-75.400487,0.000096,
2341,2653,1.79297179545205,0.184576608312234,-0.0243385499829856,0.002573,-0.000608,0.004664,0.101772,0.027014,320.328428,24.234859,0.999422,0.988777,0.004255,0.445479,0.000018,0.000039,0.000008,0.000042,0.000015,72.255514,0.000059,
2191,2683,-1.47490097316265,0.831921696345603,-0.0124272366651894,0.002553,-0.000042,0.002383,0.110024,0.039206,320.189925,24.364864,0.999624,0.992979,0.003513,0.442988,-0.000006,0.000039,0.000004,0.000040,-0.000006,85.167705,0.000043,
2371,2908,2.39862278246654,5.73687843470437,-0.0102356990958583,0.002771,-0.000336,0.006092,0.105741,0.047794,316.300273,24.913242,0.999345,0.989782,0.004036,0.468683,0.000005,0.000000,0.000013,0.000016,-0.000010,39.527743,0.000016,
2071,3208,-4.16187834455769,12.2223344135263,0.0461924263291849,0.003014,-0.000116,0.004792,0.125668,0.055873,312.658396,24.260480,0.999578,0.994041,0.003131,0.464428,0.000013,0.000010,0.000000,0.000013,0.000010,3.136541,0.000023,
2161,2608,-2.11468731022056,-0.802509418890835,-0.0139095297457175,0.002613,-0.000170,0.003387,0.109862,0.056258,321.493308,24.331273,0.999330,0.990241,0.004157,0.448447,0.000009,0.000013,0.000005,0.000017,0.000006,56.173119,0.000023,
2236,2668,-0.493356182574889,0.506651272280685,-0.00418323118998387,0.002490,-0.000273,0.004646,0.099410,0.044290,320.373544,24.375078,0.999482,0.990085,0.004014,0.403997,0.000001,0.000034,0.000004,0.000034,0.000000,83.268057,0.000040,
2266,3043,0.093803378944596,8.66155544944427,0.0151973044841611,0.002945,-0.000234,0.004431,0.120927,0.024557,314.392617,24.982996,0.999478,0.991590,0.003711,0.395863,0.000012,-0.000009,-0.000001,0.000012,-0.000009,-1.377343,0.000013,
2281,2743,0.471315104506235,2.14220005795788,-0.0191303669801073,0.002814,-0.000734,0.004903,0.112794,0.019702,318.964525,24.426872,0.999461,0.989657,0.003963,0.449318,0.000003,0.000025,0.000007,0.000027,0.000001,74.178351,0.000033,
2146,2368,-2.40061929125419,-6.04157722366764,-0.00203938672461845,0.002581,-0.000629,0.000915,0.115604,0.028070,325.534709,24.151929,0.999022,0.987089,0.004536,0.469641,0.000061,0.000059,-0.000010,0.000070,0.000050,-42.264169,0.000120,
2191,2338,-1.41495902770655,-6.69779324401769,0.0179354833586558,0.002218,-0.001141,0.005552,0.084073,0.009777,325.999996,24.102668,0.999610,0.989341,0.004368,0.316247,0.000052,0.000069,-0.000001,0.000069,0.000052,-87.451318,0.000122,
2086,2278,-3.69340324834465,-8.00900426957075,0.00125145266588333,0.001721,-0.001092,0.002436,0.071699,0.016376,327.233507,24.383280,0.999151,0.987789,0.004593,0.421370,0.000124,0.000088,0.000050,0.000160,0.000053,35.005002,0.000221,
2476,2083,4.85526445191342,-12.2894330419532,0.0216289532336873,0.003241,-0.001899,-0.000296,0.148465,-0.058138,330.158964,21.881299,0.999472,0.979791,0.005417,0.411749,0.000446,0.000368,-0.000086,0.000502,0.000312,-32.734122,0.000821,
2296,3283,0.701217083618992,13.8691783961849,0.0139928493632624,0.003127,-0.000353,0.005677,0.125033,0.041424,310.413899,25.500032,0.999474,0.992296,0.003411,0.454241,0.000006,0.000006,0.000008,0.000014,-0.000002,46.646155,0.000015,
2266,2998,0.101211226567706,7.68470736511238,0.00879408292644257,0.002970,-0.000589,0.008087,0.109892,0.036901,315.062868,24.882139,0.999412,0.990688,0.003885,0.434990,0.000011,0.000000,0.000007,0.000015,-0.000003,25.886766,0.000016,
2311,2593,1.15163541596939,-1.12566483234208,-0.0151913206170207,0.002495,-0.000583,0.003437,0.102705,0.015111,321.393700,24.116824,0.999588,0.991210,0.003759,0.437627,0.000016,0.000028,0.000011,0.000034,0.000010,59.999764,0.000047,
2191,2533,-1.45013215243878,-2.43740177280985,-0.0130627400660046,0.002161,-0.000535,0.006299,0.079459,0.043223,322.585224,24.194939,0.999335,0.988110,0.004365,0.465420,0.000013,0.000020,0.000012,0.000029,0.000004,53.296982,0.000036,
2026,3193,-5.13439012569031,11.8935117451381,0.0523538159218333,0.002817,-0.000277,0.008767,0.106166,0.069059,313.201029,24.059004,0.999573,0.992956,0.003352,0.469956,-0.000002,0.000026,-0.000003,0.000026,-0.000002,-83.723778,0.000029,
2176,2638,-1.79373922896966,-0.148465041741375,-0.0210376537767729,0.002958,-0.000571,0.004302,0.122578,0.029356,320.908471,24.298842,0.999556,0.989798,0.004049,0.464932,-0.000003,0.000024,0.000006,0.000025,-0.000005,78.461177,0.000027,
2041,3178,-4.80757113946365,11.5698635755733,0.0426033497300864,0.002982,-0.000145,0.009342,0.111765,0.054632,313.277492,24.103602,0.999715,0.993775,0.003248,0.491106,0.000002,0.000032,-0.000002,0.000032,0.000002,-87.074256,0.000038,
2281,2548,0.506473618805888,-2.10705549744208,-0.0198721169745681,0.002572,-0.000279,0.001629,0.112636,0.035788,322.124039,24.098831,0.999452,0.990036,0.004047,0.425660,0.000013,0.000022,0.000008,0.000027,0.000008,60.492484,0.000037,
2356,2683,2.11401059356924,0.83919229013172,-0.0208194587478943,0.002489,-0.000596,0.005561,0.094637,0.032442,319.862664,24.345514,0.999506,0.989361,0.004078,0.410182,0.000021,0.000055,0.000003,0.000055,0.000021,84.910224,0.000079,
2056,3073,-4.46757220573649,9.29685388409611,0.0202467265596624,0.002691,-0.000208,0.008579,0.100160,0.071143,314.703724,24.223464,0.999391,0.991634,0.003841,0.502132,0.000008,0.000009,-0.000003,0.000012,0.000005,-48.925861,0.000017,
2236,2518,-0.468467777591822,-2.76265626869977,-0.0187258314035148,0.002107,-0.000295,0.004076,0.083580,0.045170,322.668050,24.129296,0.999412,0.987670,0.004308,0.432443,0.000007,0.000023,0.000005,0.000025,0.000005,72.908816,0.000032,
2326,2578,1.48111729800699,-1.45184488883348,-0.0154282640032193,0.002440,-0.000250,0.001634,0.106394,0.041350,321.629885,24.087528,0.999223,0.987928,0.004298,0.440547,0.000024,0.000029,0.000012,0.000038,0.000015,50.524806,0.000055,
2251,3088,-0.240045413846904,9.63674375201867,0.0199882881150302,0.002812,-0.000518,0.008469,0.101763,0.040005,313.705657,24.976946,0.999548,0.989978,0.003830,0.435501,0.000008,-0.000017,-0.000004,0.000008,-0.000017,-8.588407,0.000017,
2221,2698,-0.825721299436534,1.16007275544705,-0.0225838401323131,0.002783,-0.000307,0.003234,0.117569,0.026334,319.786110,24.336923,0.999588,0.993414,0.003406,0.469406,-0.000002,0.000036,0.000006,0.000037,-0.000003,80.654355,0.000041,
2371,2923,2.39608282305096,6.06341497838837,-0.00754998674108265,0.002845,-0.000103,0.005440,0.111560,0.051894,316.083426,25.002298,0.999379,0.989657,0.004016,0.424496,0.000003,0.000001,0.000008,0.000010,-0.000006,41.161845,0.000010,
2341,2668,1.79067881057149,0.511694003694821,-0.0176171448568994,0.002838,-0.000730,0.007980,0.102354,0.024135,320.141174,24.346175,0.999646,0.991548,0.003942,0.368200,0.000019,0.000042,0.000004,0.000043,0.000018,80.458366,0.000062,
2176,2398,-1.75302080528417,-5.38530937861727,-0.00577531329491876,0.002301,-0.000434,0.002447,0.098020,0.052985,324.894559,24.074242,0.998942,0.985956,0.004830,0.499484,0.000027,0.000063,-0.000016,0.000068,0.000021,-69.550344,0.000094,
2296,3298,0.697216542181867,14.1949151762107,0.000786006830082897,0.003166,-0.000718,0.009666,0.113155,0.034598,310.044814,25.532646,0.999680,0.993969,0.003161,0.442782,0.000007,0.000010,0.000002,0.000011,0.000006,64.282792,0.000017,
2086,2293,-3.696179961877,-7.68060953449449,-0.0031730894482962,0.001480,-0.000755,0.001381,0.063781,0.006586,326.947349,24.390047,0.999521,0.991205,0.004195,0.406099,0.000120,0.000087,0.000048,0.000154,0.000053,35.729138,0.000215,
2236,2683,-0.496461237230772,0.833661135595989,-0.0126518133326954,0.002559,-0.000244,0.003854,0.105205,0.042031,320.065127,24.351895,0.999473,0.988913,0.004062,0.446649,-0.000001,0.000037,0.000000,0.000037,-0.000001,89.399727,0.000042,
2476,2098,4.85222742607071,-11.9592594307004,0.0215733729304475,0.003164,-0.001524,-0.001741,0.150560,-0.043392,329.917958,22.005182,0.999430,0.978496,0.005559,0.362535,0.000417,0.000342,-0.000090,0.000477,0.000282,-33.753244,0.000767,
2191,2353,-1.4179978382743,-6.37056237916467,0.00782067111327933,0.002112,-0.000665,0.001509,0.092009,0.014684,325.682219,23.955231,0.999340,0.986568,0.004691,0.485149,0.000046,0.000065,-0.000006,0.000066,0.000044,-74.709716,0.000111,
2026,3208,-5.13644891342053,12.2182098910103,0.0546548572285701,0.002960,-0.000203,0.008721,0.112930,0.069001,312.982002,24.042534,0.999475,0.992810,0.003415,0.475395,0.000000,0.000015,-0.000006,0.000018,-0.000002,-70.203040,0.000019,
2191,2548,-1.45254142762886,-2.11099752073288,-0.00871952028762735,0.002043,-0.000852,0.007016,0.071714,0.028813,322.371261,24.194324,0.999458,0.989824,0.004131,0.466967,0.000010,0.000033,0.000014,0.000039,0.000003,64.604635,0.000047,
2221,2818,-0.845991460674572,3.77154337241832,-0.0117373634678302,0.002744,-0.000554,0.004653,0.111224,0.017830,317.919871,24.566465,0.999579,0.990429,0.003911,0.383102,-0.000001,0.000031,0.000012,0.000035,-0.000005,71.596058,0.000038,
2191,2698,-1.47750422789208,1.15746702354937,-0.014634969285396,0.002658,-0.000140,0.002510,0.114444,0.040197,319.933067,24.260136,0.999643,0.994246,0.003292,0.563717,-0.000005,0.000035,0.000004,0.000035,-0.000005,83.751832,0.000038,
2146,2383,-2.40272092547084,-5.71395044821596,-0.00254313397192618,0.002676,-0.000229,-0.003323,0.132902,0.008782,325.305883,24.169280,0.998848,0.986507,0.004581,0.442460,0.000053,0.000056,-0.000010,0.000065,0.000045,-48.944325,0.000110,
2056,3088,-4.46958585102636,9.62181567660744,0.0231463255435642,0.002869,-0.000726,0.008526,0.108235,0.024866,314.491732,24.254320,0.999430,0.991843,0.003647,0.418457,0.000004,0.000013,-0.000005,0.000015,0.000001,-65.988403,0.000018,
2266,3058,0.0910298291900062,8.9871860258718,0.0167696542965245,0.002899,-0.000225,0.006311,0.112634,0.035135,314.152300,25.007217,0.999437,0.991767,0.003715,0.406938,0.000015,-0.000019,0.000000,0.000015,-0.000019,-0.226526,0.000020,
2311,1993,1.26476811320776,-14.2623598719227,0.0284402234235017,0.002006,-0.002894,-0.001222,0.094776,-0.099111,331.443022,22.748231,0.999266,0.978391,0.006070,0.316077,0.000387,0.000433,-0.000053,0.000467,0.000353,-56.825864,0.000823,
2236,2533,-0.470121439487063,-2.43649296638852,-0.00760399644792642,0.002260,-0.000482,0.003720,0.091689,0.033464,322.526392,24.161079,0.999692,0.991402,0.003709,0.410795,0.000007,0.000021,0.000005,0.000023,0.000006,72.437938,0.000030,
2266,3013,0.0986689074509925,8.00970793356559,0.0143973502879362,0.002855,-0.000681,0.009908,0.098559,0.044392,314.853783,24.867024,0.999292,0.990396,0.003885,0.482377,0.000011,-0.000007,0.000002,0.000011,-0.000007,5.628579,0.000011,
2026,3223,-5.1388870728062,12.5435525003298,0.0525581366729853,0.002987,-0.000306,0.008603,0.114452,0.059778,312.720711,24.072868,0.999446,0.993450,0.003282,0.424560,0.000005,-0.000003,-0.000011,0.000013,-0.000011,-35.641317,0.000014,
2236,2698,-0.499491497082118,1.16075245427425,-0.0185989388265284,0.002629,-0.000389,0.004489,0.106322,0.034872,319.772932,24.367440,0.999431,0.990711,0.003774,0.445641,0.000002,0.000037,0.000002,0.000037,0.000002,86.379964,0.000043,
2356,2698,2.11137601396949,1.16451247377084,-0.0166619541830642,0.002434,-0.000933,0.006382,0.089062,0.022722,319.648645,24.285919,0.999496,0.990693,0.003877,0.499218,0.000019,0.000055,0.000005,0.000056,0.000019,82.174417,0.000078,
2176,2653,-1.79744238364154,0.179674463917358,-0.0327470749026588,0.002489,-0.000464,0.003012,0.105043,0.021380,320.549625,24.347633,0.999619,0.989477,0.004088,0.421489,-0.000005,0.000027,0.000006,0.000029,-0.000006,79.068672,0.000030,
2476,2113,4.84809023001868,-11.6292671959617,0.0142217011069192,0.002823,-0.001526,-0.000383,0.129828,-0.017239,329.593418,22.027245,0.999358,0.976199,0.005865,0.427030,0.000390,0.000337,-0.000081,0.000449,0.000278,-35.909132,0.000733,
2086,2308,-3.69845606591336,-7.35218653290323,-0.00744345247790079,0.001755,-0.000331,0.000694,0.078525,0.018543,326.684804,24.384921,0.999317,0.988454,0.004608,0.424217,0.000111,0.000072,0.000036,0.000132,0.000051,30.694962,0.000189,
2251,2803,-0.192235423740662,3.44752725882157,-0.0215759995625717,0.002623,-0.000259,0.006185,0.100444,0.050589,318.004009,24.539722,0.999405,0.988893,0.004278,0.451372,0.000003,0.000015,0.000009,0.000020,-0.000002,62.635807,0.000022,
2341,2683,1.78728452614353,0.838459834575076,-0.0227531019224898,0.002571,-0.000855,0.006949,0.093680,0.024375,319.845853,24.328135,0.999626,0.991228,0.003908,0.423768,0.000019,0.000050,0.000001,0.000050,0.000019,88.382030,0.000071,
2176,2413,-1.75578205819753,-5.05804869061315,-0.00384027129115339,0.001864,-0.000647,0.001734,0.080083,0.029291,324.650821,24.096636,0.998731,0.984283,0.005000,0.467350,0.000028,0.000053,-0.000016,0.000061,0.000020,-63.475582,0.000085,
2281,2563,0.503244815472755,-1.78109751211131,-0.016551457407445,0.002070,-0.000852,0.005312,0.077057,0.019809,321.873692,24.056416,0.999285,0.988467,0.004399,0.480733,0.000008,0.000022,0.000005,0.000024,0.000006,71.782026,0.000032,
2311,2008,1.26249760402773,-13.9327835720284,0.0274899828315824,0.002465,-0.002377,-0.002269,0.119578,-0.081721,331.218652,22.769413,0.999183,0.979035,0.006066,0.348097,0.000373,0.000408,-0.000044,0.000438,0.000342,-55.760884,0.000782,
2191,2368,-1.4208894715046,-6.04104738392421,-0.000901920354181129,0.002216,-0.000079,-0.000461,0.103187,0.033253,325.377849,24.022924,0.999435,0.987259,0.004639,0.452652,0.000039,0.000066,-0.000007,0.000068,0.000038,-75.852204,0.000107,
2056,3103,-4.47130819548953,9.94662139909835,0.0312245205547015,0.002957,-0.000402,0.007459,0.115504,0.050505,314.321738,24.235274,0.999396,0.991614,0.003673,0.456811,0.000011,0.000020,0.000000,0.000020,0.000011,89.613070,0.000032,
2221,2833,-0.848406707948659,4.09774569055855,-0.0124221190975504,0.002899,-0.000055,0.003361,0.122760,0.044746,317.681464,24.549658,0.999440,0.990129,0.003913,0.445686,0.000004,0.000034,0.000019,0.000043,-0.000005,64.208834,0.000046,
2326,2593,1.47829567489357,-1.12463457353137,-0.0183203600354886,0.002727,-0.000371,0.003009,0.114776,0.033058,321.370719,24.107680,0.999620,0.991253,0.003763,0.447108,0.000024,0.000024,0.000011,0.000035,0.000013,44.739281,0.000050,
2191,2713,-1.48128732675791,1.48669003339693,-0.0273030999632624,0.002465,-0.000185,0.004787,0.098457,0.055061,319.566657,24.399319,0.999188,0.989479,0.004086,0.454107,-0.000001,0.000025,0.000005,0.000026,-0.000002,79.847229,0.000029,
2146,2398,-2.40587640093017,-5.38618942155949,-0.00238501068440655,0.002248,-0.000542,0.001052,0.099934,0.020660,325.032174,24.179438,0.998578,0.985766,0.004910,0.453728,0.000049,0.000054,-0.000015,0.000067,0.000036,-49.192750,0.000105,
2236,2548,-0.47389105268039,-2.10853357366734,-0.0179163540334457,0.002087,-0.000866,0.007098,0.072667,0.035554,322.178209,24.157094,0.999695,0.992180,0.003579,0.439268,0.000008,0.000027,0.000006,0.000029,0.000006,73.855904,0.000037,
2251,2818,-0.194387042302708,3.77293939476819,-0.0126076148787888,0.002313,-0.000026,0.003688,0.094460,0.056244,317.829184,24.541773,0.999579,0.989982,0.004170,0.478038,0.000004,0.000026,0.000013,0.000032,-0.000002,64.421500,0.000036,
2341,2698,1.78497025738706,1.16381415761605,-0.0129678302967022,0.002368,-0.000909,0.007570,0.082171,0.030677,319.672784,24.301606,0.999654,0.992436,0.003769,0.493365,0.000016,0.000050,0.000003,0.000050,0.000016,85.035376,0.000069,
2311,2608,1.14876932737275,-0.798496135059715,-0.0146787078213038,0.002494,-0.000631,0.005342,0.096163,0.035389,321.147829,24.138607,0.999621,0.991089,0.003722,0.469094,0.000012,0.000024,0.000011,0.000030,0.000006,59.867917,0.000038,
2056,3118,-4.47353952810371,10.2715830167705,0.0347798216817523,0.002983,-0.000650,0.009072,0.112045,0.037382,314.103400,24.243928,0.999462,0.993013,0.003341,0.428452,0.000008,0.000029,-0.000001,0.000029,0.000008,-87.972695,0.000038,
2476,2128,4.84565438745935,-11.3013759966963,0.0209724907649047,0.003027,-0.002139,0.001271,0.132680,-0.043056,329.410934,22.068272,0.999154,0.973832,0.006122,0.419513,0.000366,0.000323,-0.000077,0.000424,0.000264,-37.165371,0.000695,
2221,2713,-0.828392987405302,1.48680324768038,-0.0198223891010798,0.002605,-0.000391,0.004357,0.105817,0.039971,319.553676,24.374563,0.999160,0.989476,0.004039,0.464604,0.000004,0.000026,0.000006,0.000027,0.000002,74.710410,0.000033,
2176,2428,-1.7581922495294,-4.72966565121202,-0.00720470774228943,0.002268,-0.000651,0.002870,0.095102,0.014092,324.395192,24.167903,0.998964,0.985471,0.004860,0.394704,0.000020,0.000028,-0.000013,0.000038,0.000010,-53.884841,0.000051,
2176,2668,-1.79860026487063,0.505190859711661,-0.0179424001507869,0.002790,-0.000157,0.002148,0.121718,0.040705,320.446763,24.354890,0.999634,0.991953,0.003646,0.445830,-0.000005,0.000031,0.000003,0.000031,-0.000005,84.524507,0.000034,
2236,2893,-0.532079665383481,5.40203933604136,0.00277250163725284,0.002897,-0.000294,0.005318,0.116117,0.041959,316.789604,24.667130,0.999693,0.991427,0.003690,0.426606,-0.000001,0.000012,0.000022,0.000028,-0.000018,53.457728,0.000029,
2086,2323,-3.70039574497304,-7.02456341686533,-0.00682765395202978,0.002158,-0.000213,0.001599,0.094493,0.026086,326.464336,24.365175,0.999121,0.987088,0.004749,0.452743,0.000100,0.000059,0.000025,0.000112,0.000047,25.286447,0.000163,
2266,3028,0.0962796118750333,8.33603373766805,0.0120131808249653,0.002911,-0.000274,0.003940,0.121079,0.040267,314.611053,24.935750,0.999286,0.989821,0.003932,0.434327,0.000012,-0.000010,0.000000,0.000012,-0.000010,0.633636,0.000013,
2191,2383,-1.42386028265001,-5.71423369184187,0.00220356174980907,0.002047,-0.001049,0.006643,0.072886,0.017407,325.131839,23.998154,0.999184,0.986634,0.004728,0.477875,0.000028,0.000065,-0.000006,0.000066,0.000027,-80.505091,0.000096,
2311,2023,1.25904732918601,-13.6039893486194,0.0264195320493172,0.001825,-0.002325,-0.002334,0.090527,-0.085340,330.939882,22.744860,0.999068,0.980580,0.005635,0.405124,0.000354,0.000408,-0.000033,0.000424,0.000338,-64.877275,0.000763,
2326,2608,1.47518528899504,-0.79719401393573,-0.0183609928670876,0.002624,-0.000598,0.005858,0.100191,0.041736,321.112066,24.161702,0.999547,0.989344,0.004014,0.437152,0.000019,0.000020,0.000010,0.000030,0.000010,45.940551,0.000041,
2221,2848,-0.85174319616161,4.42435851967183,-0.0165957365259715,0.002577,-0.000291,0.004818,0.103193,0.048047,317.382751,24.572639,0.999337,0.989916,0.003902,0.444770,0.000003,0.000024,0.000021,0.000037,-0.000010,58.337528,0.000038,
2146,2413,-2.40871404249337,-5.05713503544277,-0.016947909393366,0.002657,-0.000504,-0.001535,0.126574,0.020713,324.694877,24.184812,0.998430,0.985927,0.005189,0.458266,0.000049,0.000045,-0.000014,0.000062,0.000032,-41.522833,0.000095,
2236,2563,-0.475066023578833,-1.78386625057389,-0.00488735070820212,0.002635,-0.000858,0.007581,0.096284,0.031420,322.068496,24.068850,0.999680,0.992152,0.003539,0.545145,0.000007,0.000023,0.000005,0.000024,0.000005,72.576998,0.000032,
2281,2578,0.502070503760425,-1.45456011583627,-0.00798256403447795,0.002639,-0.000380,0.000786,0.118556,0.035424,321.743497,24.085337,0.999165,0.986798,0.004640,0.495570,0.000005,0.000033,0.000004,0.000034,0.000005,82.341262,0.000042,
2191,2728,-1.48315197057103,1.81226196990683,-0.0208360154492198,0.002699,-0.000391,0.004610,0.109694,0.036508,319.388767,24.396510,0.999241,0.989213,0.004082,0.453229,-0.000002,0.000025,0.000003,0.000025,-0.000002,82.747145,0.000028,
2251,2833,-0.196821464212288,4.09974486571925,-0.0142419318514158,0.002654,-0.000086,0.003529,0.110644,0.051736,317.587280,24.605131,0.999470,0.990444,0.003945,0.433293,0.000005,0.000029,0.000019,0.000040,-0.000006,60.727322,0.000043,
2341,2713,1.78156777499603,1.49189593235379,-0.0221620747333873,0.002340,-0.000666,0.005640,0.087728,0.031153,319.356975,24.380787,0.999338,0.989537,0.004116,0.451870,0.000013,0.000039,0.000002,0.000040,0.000012,84.881036,0.000054,
2056,3133,-4.47598681319889,10.5968838801997,0.0307428082904835,0.002958,-0.000266,0.005751,0.120346,0.034682,313.833070,24.230240,0.999065,0.992176,0.003508,0.433063,0.000010,0.000022,-0.000003,0.000023,0.000009,-79.121504,0.000033,
2476,2143,4.842731359938,-10.9710077672095,0.021174150645777,0.003422,-0.001876,0.004381,0.139108,-0.012615,329.175973,22.213310,0.998618,0.974310,0.005923,0.364436,0.000342,0.000305,-0.000070,0.000396,0.000251,-37.533761,0.000652,
2311,2038,1.25610058264423,-13.2729147268381,0.0246642697364905,0.001518,-0.001335,-0.005568,0.087844,-0.046506,330.680284,22.883621,0.999574,0.987000,0.004527,0.340905,0.000334,0.000388,-0.000032,0.000403,0.000319,-65.399343,0.000723,
2086,2338,-3.7018541419444,-6.6973450871417,-0.000136122501942282,0.002271,0.000170,-0.003687,0.115041,0.045770,326.298882,24.361015,0.998887,0.985033,0.004941,0.477204,0.000086,0.000050,0.000016,0.000093,0.000044,20.839815,0.000139,
2236,2578,-0.478327761335631,-1.45495918330338,-0.0162630340044529,0.002639,-0.000658,0.005153,0.104412,0.018354,321.737938,24.168230,0.999423,0.989104,0.004093,0.454958,0.000004,0.000031,0.000002,0.000031,0.000004,85.532461,0.000038,
2221,2728,-0.830953496567208,1.81337090335643,-0.0181538792177207,0.002445,-0.000128,0.003070,0.102678,0.041679,319.320788,24.404498,0.999221,0.989643,0.003968,0.455515,0.000004,0.000025,0.000004,0.000026,0.000003,78.703077,0.000032,
2176,2443,-1.76085786461712,-4.4021474886657,-0.00988317329108668,0.002235,-0.000510,0.002083,0.096099,0.025365,324.131519,24.145534,0.999248,0.985823,0.004756,0.442270,0.000013,0.000023,-0.000013,0.000032,0.000004,-55.457445,0.000039,
2146,2428,-2.41104025155708,-4.72920773594819,-0.010780748533648,0.002555,-0.000101,0.001208,0.113738,0.042723,324.490803,24.267495,0.998970,0.986357,0.004850,0.406792,0.000042,0.000026,-0.000009,0.000046,0.000022,-24.228073,0.000069,
2221,2863,-0.85435679942054,4.75089956929008,-0.0187236142173219,0.002592,-0.000022,0.002828,0.110333,0.044123,317.127730,24.616193,0.999408,0.990910,0.003689,0.415778,0.000002,0.000021,0.000018,0.000032,-0.000009,58.696107,0.000033,
2476,2158,4.83937776342493,-10.6420155813879,0.0190868624251834,0.003043,-0.001228,0.001253,0.133894,-0.010114,328.911090,22.241566,0.998385,0.971783,0.006391,0.398090,0.000315,0.000271,-0.000071,0.000367,0.000218,-36.315691,0.000592,
2341,2728,1.77891548972473,1.8194859073535,-0.0219567613886511,0.002659,-0.000794,0.007801,0.094817,0.032156,319.121282,24.495583,0.999197,0.988251,0.004310,0.374846,0.000011,0.000036,0.000007,0.000038,0.000009,75.032569,0.000050,
2281,2593,0.498747606629465,-1.12613115148472,-0.0164857458308347,0.002492,-0.000017,-0.001364,0.119111,0.044348,321.429188,24.150340,0.999246,0.988211,0.004358,0.468383,0.000005,0.000030,0.000004,0.000031,0.000004,80.567015,0.000038,
2281,2878,0.447093824079634,5.07881416256899,-0.0117853725546411,0.002551,-0.000406,0.005531,0.098838,0.034262,316.814272,24.649711,0.999710,0.993021,0.003572,0.489869,0.000007,0.000006,0.000015,0.000021,-0.000008,43.660863,0.000021,
2191,2398,-1.42529743789956,-5.38651329112062,0.00196704884677956,0.002526,-0.000255,-0.002525,0.123842,0.016336,324.938453,24.013873,0.999000,0.985283,0.005074,0.476839,0.000023,0.000065,-0.000012,0.000068,0.000020,-75.118427,0.000092,
2281,3118,0.40564002115843,10.2907444466597,0.0154073955618514,0.002904,-0.000442,0.007755,0.107784,0.037074,313.131510,25.180056,0.999763,0.994214,0.003238,0.394256,0.000010,-0.000001,0.000002,0.000011,-0.000002,8.890124,0.000012,
2191,2743,-1.48508417526575,2.13856958686657,-0.0141789310943636,0.002898,-0.000244,0.005054,0.117552,0.048331,319.208486,24.436058,0.999410,0.990001,0.004015,0.439868,-0.000003,0.000017,0.000002,0.000017,-0.000003,83.520382,0.000018,
2251,2848,-0.199515581406803,4.42606159658215,-0.0165291293928931,0.002790,-0.000069,0.003518,0.117003,0.057439,317.330228,24.613146,0.999461,0.991830,0.003740,0.454092,0.000007,0.000023,0.000021,0.000038,-0.000008,54.971726,0.000040,
2311,2053,1.25372110114639,-12.9444600886402,0.0276411539708761,0.001963,-0.001447,-0.001394,0.093998,-0.026186,330.470136,22.860547,0.999432,0.984290,0.004887,0.420110,0.000316,0.000368,-0.000031,0.000383,0.000301,-64.923222,0.000686,
2086,2353,-3.70440789172565,-6.3685317148493,-0.00449689490545779,0.002379,0.000431,-0.002859,0.117719,0.073151,326.023019,24.391295,0.998506,0.979978,0.005521,0.475130,0.000075,0.000049,0.000012,0.000080,0.000044,21.799913,0.000126,
2236,2593,-0.480443804969571,-1.12817816668727,-0.0144126490102963,0.002824,-0.000401,0.002439,0.121783,0.024065,321.527628,24.174727,0.999367,0.986603,0.004545,0.475784,0.000004,0.000031,0.000000,0.000031,0.000004,88.981203,0.000039,
2476,2173,4.83602064585609,-10.3122330114634,0.0175369280955806,0.002775,-0.000903,-0.000085,0.126839,0.015270,328.648211,22.330497,0.997858,0.964111,0.007047,0.394357,0.000286,0.000256,-0.000064,0.000337,0.000205,-38.256536,0.000547,
2311,3043,1.07140387644764,8.66467922568629,0.0175400952234668,0.003030,-0.000520,0.005492,0.120649,0.022183,314.355925,25.133713,0.999616,0.991069,0.003691,0.389918,0.000004,-0.000005,0.000000,0.000004,-0.000005,1.206936,0.000005,
2221,2878,-0.856353602024413,5.07555072203166,-0.00840465319379291,0.002674,-0.000276,0.005490,0.105482,0.038125,316.965503,24.583933,0.999475,0.992301,0.003449,0.460674,-0.000002,0.000018,0.000019,0.000029,-0.000013,58.274545,0.000029,
2221,2743,-0.834124635019013,2.14039738767097,-0.0242545624889772,0.002496,-0.000612,0.005663,0.096540,0.026960,319.019910,24.435427,0.999278,0.988698,0.004182,0.428991,0.000002,0.000020,0.000005,0.000021,0.000000,74.389409,0.000025,
2176,2458,-1.76333605259405,-4.0755585426367,-0.00584878946193612,0.002045,-0.000773,0.002916,0.084686,0.015580,323.911757,24.126714,0.999117,0.985720,0.004878,0.464500,0.000013,0.000022,-0.000013,0.000031,0.000004,-54.492137,0.000038,
2281,2893,0.444358976706496,5.40609537907056,-0.016390115980812,0.002841,-0.000422,0.005007,0.113922,0.033804,316.545785,24.749462,0.999628,0.991967,0.003604,0.416915,0.000006,-0.000002,0.000016,0.000019,-0.000015,38.238995,0.000020,
2281,2608,0.495368945016136,-0.797985686336268,-0.0208964746113907,0.002632,-0.000608,0.005225,0.103350,0.047906,321.132747,24.235821,0.999092,0.987783,0.004489,0.414975,0.000001,0.000022,0.000006,0.000024,-0.000001,74.725103,0.000027,
2281,3133,0.40326938157185,10.6150435128172,0.0214057824092038,0.002778,-0.000355,0.007104,0.104210,0.041831,312.933186,25.134101,0.999666,0.994057,0.003361,0.471705,0.000008,-0.000003,0.000004,0.000009,-0.000004,20.074196,0.000009,
2191,2758,-1.48730595727237,2.46500787120316,-0.0151152636478287,0.003177,-0.000188,0.003261,0.136015,0.045649,318.975424,24.445712,0.999479,0.990662,0.003801,0.442238,-0.000005,0.000013,0.000003,0.000013,-0.000005,80.883992,0.000014,
2311,3283,1.02642878496367,13.8709517484031,0.0119878971066214,0.003103,-0.000178,0.006796,0.119916,0.048820,310.376740,25.597076,0.999609,0.994129,0.002965,0.448879,-0.000001,0.000000,0.000006,0.000006,-0.000007,46.029526,0.000007,
2476,2188,4.83352969452657,-9.98342344472204,0.0181832206979493,0.002960,-0.000748,-0.004120,0.150696,-0.019663,328.435278,22.419393,0.998193,0.967457,0.006932,0.329508,0.000278,0.000237,-0.000057,0.000318,0.000197,-35.295669,0.000520,
2236,2608,-0.483249900350142,-0.801149782118934,-0.0179972579624064,0.002709,-0.000302,-0.000219,0.125175,0.016253,321.257965,24.175244,0.999194,0.985149,0.004709,0.489453,0.000004,0.000022,0.000002,0.000022,0.000004,83.535232,0.000028,
2311,2068,1.25076321521115,-12.6149695293848,0.0204033857022523,0.002311,-0.001554,-0.001086,0.108889,-0.053038,330.183603,22.870836,0.999440,0.981469,0.005198,0.418605,0.000299,0.000361,-0.000028,0.000372,0.000288,-69.119495,0.000662,
2221,2893,-0.858454514019865,5.40109891625295,-0.000635030521834778,0.002672,-0.000376,0.005834,0.104313,0.038712,316.785115,24.611881,0.999617,0.992469,0.003581,0.451615,-0.000004,0.000009,0.000020,0.000023,-0.000019,54.126697,0.000025,
2311,3058,1.06856557583059,8.99025716231113,0.0170519150664177,0.002887,-0.000084,0.003915,0.119648,0.041840,314.105536,25.131187,0.999722,0.992708,0.003411,0.443363,0.000004,-0.000015,0.000000,0.000004,-0.000015,0.820929,0.000016,
2221,2758,-0.836569041174297,2.46692052334071,-0.0226100197112373,0.002539,-0.000537,0.005546,0.098961,0.040984,318.792157,24.457868,0.999421,0.989113,0.004068,0.439586,-0.000002,0.000018,0.000007,0.000021,-0.000005,71.859296,0.000022,
2176,2473,-1.76647027257333,-3.74695815753935,-0.00971410457378852,0.001791,-0.000653,0.004464,0.068304,0.028241,323.620144,24.201239,0.999160,0.983941,0.005197,0.416645,0.000011,0.000021,-0.000007,0.000025,0.000007,-61.999396,0.000034,
2311,3298,1.02313201382119,14.1956416594259,0.00679221626813842,0.002996,-0.000246,0.006968,0.114343,0.043246,310.081552,25.575159,0.999668,0.994482,0.002912,0.495806,0.000001,0.000007,0.000002,0.000007,0.000000,76.859991,0.000009,
2476,2203,4.83005633236616,-9.65441353143585,0.0144147676271018,0.003062,-0.000795,-0.001757,0.146389,-0.006593,328.156998,22.437712,0.997999,0.968997,0.006718,0.383875,0.000268,0.000208,-0.000047,0.000294,0.000182,-28.484147,0.000480,
2281,2623,0.492613833926896,-0.471570583963256,-0.0230380831816888,0.002535,-0.000606,0.002456,0.108119,0.019606,320.876675,24.218936,0.999264,0.987425,0.004361,0.431969,0.000001,0.000040,0.000005,0.000041,0.000000,82.861574,0.000047,
2191,2773,-1.49124676101243,2.79256530171936,-0.0290782952873201,0.002970,-0.000496,0.006377,0.116665,0.046198,318.595398,24.457845,0.999288,0.988981,0.004230,0.445304,-0.000007,0.000010,0.000002,0.000010,-0.000008,83.584195,0.000011,
2221,2908,-0.860679468689998,5.72714712688252,0.00408078895134167,0.002737,-0.000300,0.005807,0.107466,0.051216,316.583160,24.655132,0.999504,0.991472,0.003990,0.439397,-0.000001,0.000003,0.000016,0.000017,-0.000015,48.906949,0.000019,
2311,2083,1.24746240491104,-12.284145204595,0.0198853010781477,0.002035,-0.001967,0.001924,0.085848,-0.038880,329.913873,23.042447,0.999361,0.982217,0.005281,0.296603,0.000282,0.000346,-0.000022,0.000353,0.000275,-72.663005,0.000629,
2311,3073,1.06615864671939,9.31605069658842,0.022851869163901,0.002846,-0.000283,0.004149,0.116861,0.031753,313.905933,25.222655,0.999696,0.994180,0.003190,0.373189,0.000004,-0.000016,-0.000002,0.000004,-0.000016,-5.245211,0.000017,
2176,2488,-1.76895861812407,-3.4193171536846,-0.0124368576334177,0.001855,-0.000380,0.002372,0.077827,0.026703,323.364321,24.217869,0.999031,0.983980,0.005148,0.411960,0.000010,0.000016,-0.000006,0.000019,0.000006,-59.079625,0.000026,
2221,2773,-0.83867175593446,2.79278922657124,-0.0183927510360036,0.002588,-0.000240,0.003247,0.108724,0.048385,318.593465,24.451131,0.999323,0.989256,0.004137,0.472669,-0.000005,0.000017,0.000007,0.000019,-0.000007,74.596316,0.000019,
2326,1993,1.5923118778646,-14.2624532052169,0.0259278181661671,0.001943,-0.002829,-0.001058,0.091406,-0.099563,331.412327,22.644756,0.998101,0.971619,0.006586,0.313041,0.000415,0.000461,-0.000047,0.000490,0.000386,-58.073417,0.000879,
2476,2218,4.82672819253363,-9.324869145151,0.0135222864791444,0.002952,-0.000857,-0.000892,0.138085,0.007942,327.898236,22.539159,0.998871,0.979289,0.005849,0.356207,0.000240,0.000174,-0.000038,0.000257,0.000157,-24.290289,0.000419,
2191,2788,-1.49372912021845,3.1187384717133,-0.0281252220752322,0.002750,0.000032,0.002995,0.117289,0.048353,318.360224,24.463122,0.998939,0.985967,0.004751,0.456639,-0.000010,0.000009,0.000003,0.000009,-0.000011,80.483060,0.000012,
2326,2638,1.4696033939304,-0.143288471941425,-0.0184346265098156,0.002397,-0.000178,0.002895,0.100115,0.042646,320.624240,24.210688,0.999421,0.988490,0.004139,0.458918,0.000018,0.000041,0.000006,0.000042,0.000016,75.543278,0.000060,
2221,2923,-0.863501479729944,6.05331038272743,0.00356409279578429,0.002744,-0.000373,0.008215,0.100019,0.054146,316.326866,24.684899,0.999518,0.991725,0.003765,0.430792,-0.000001,0.000004,0.000016,0.000018,-0.000015,49.516438,0.000019,
2311,3088,1.06382976579232,9.64075498092863,0.0278718378650638,0.003153,-0.000395,0.007288,0.120244,0.032716,313.706382,25.200957,0.999722,0.995229,0.003001,0.427011,0.000005,-0.000016,-0.000006,0.000006,-0.000017,-15.829297,0.000017,
2176,2503,-1.77153002733938,-3.09266632375969,-0.0107279649247403,0.001907,-0.001008,0.005738,0.069579,0.020117,323.128076,24.194356,0.999037,0.984084,0.005083,0.442081,0.000013,0.000015,0.000002,0.000016,0.000012,61.659403,0.000029,
2221,2788,-0.840471119831495,3.11849053303899,-0.0124387946901265,0.002859,-0.000200,0.001480,0.126841,0.040273,318.417675,24.461751,0.999395,0.990568,0.004032,0.472712,-0.000004,0.000020,0.000008,0.000022,-0.000007,73.218687,0.000022,
2326,2008,1.59007673846448,-13.9330739633086,0.0318245007743485,0.002065,-0.002235,-0.000604,0.095687,-0.085286,331.224252,22.729320,0.998091,0.971618,0.006731,0.280436,0.000402,0.000431,-0.000039,0.000458,0.000375,-55.394910,0.000835,
2476,2233,4.82350227035207,-8.99696246582268,0.0148598323532383,0.002572,-0.000658,-0.002085,0.125310,0.015633,327.654354,22.526163,0.999088,0.981471,0.005573,0.436096,0.000226,0.000162,-0.000015,0.000230,0.000159,-12.615066,0.000391,
2326,2023,1.58649668786583,-13.603477360271,0.0242166935659611,0.001908,-0.002436,0.000433,0.084844,-0.085497,330.909008,22.700500,0.998560,0.975987,0.006272,0.347601,0.000382,0.000428,-0.000031,0.000444,0.000366,-63.168214,0.000811,
2191,2803,-1.49620697779639,3.44489339256506,-0.0223410644800879,0.002555,-0.000143,0.004688,0.102977,0.046391,318.150389,24.512241,0.998947,0.986176,0.004679,0.419918,-0.000010,0.000008,0.000003,0.000008,-0.000010,81.293133,0.000011,
2311,3103,1.0605340133338,9.96683542202229,0.0259297798438638,0.002623,-0.000225,0.005121,0.103383,0.052515,313.427483,25.246903,0.999486,0.992639,0.003561,0.432168,0.000004,-0.000004,-0.000005,0.000006,-0.000006,-25.110752,0.000007,
2326,2653,1.46629508439332,0.185049969793432,-0.0306382012899462,0.002705,-0.000086,0.001602,0.118826,0.051568,320.296731,24.258910,0.999412,0.989235,0.004089,0.455043,0.000014,0.000042,0.000009,0.000044,0.000012,73.804094,0.000059,
2476,2248,4.82070853523182,-8.66945325599784,0.0147111289886084,0.002680,-0.000392,-0.004042,0.137779,0.005148,327.423633,22.484661,0.999075,0.981225,0.005425,0.525874,0.000211,0.000157,-0.000005,0.000211,0.000157,-5.287232,0.000369,
2176,2518,-1.77371312192093,-2.76512267691705,-0.0152187966752422,0.002284,-0.000545,0.001969,0.098731,0.017171,322.876989,24.197623,0.999095,0.986071,0.004747,0.449518,0.000012,0.000016,0.000006,0.000021,0.000008,53.383443,0.000029,
2221,2938,-0.866425191938784,6.37938756638147,-0.00112203195777738,0.002789,-0.000369,0.008461,0.101346,0.055363,316.044479,24.683350,0.999584,0.993051,0.003441,0.452096,-0.000002,0.000007,0.000014,0.000017,-0.000012,54.113774,0.000018,
2326,2038,1.58307035403796,-13.2717986016351,0.0129257942959953,0.001697,-0.001613,-0.005128,0.094593,-0.058028,330.582472,22.799001,0.999174,0.982326,0.005250,0.314996,0.000359,0.000404,-0.000032,0.000420,0.000342,-62.396873,0.000764,
2191,2818,-1.49811215045388,3.77023179544763,-0.0187706859773584,0.002980,-0.000428,0.004872,0.121813,0.024120,317.955586,24.493233,0.998639,0.984425,0.004841,0.430871,-0.000007,0.000021,0.000009,0.000024,-0.000009,74.516023,0.000024,
2311,3118,1.05787437685692,10.2923315266437,0.027070992213396,0.002662,-0.000239,0.005164,0.105021,0.043375,313.193233,25.291188,0.999315,0.991215,0.003871,0.409668,0.000010,-0.000001,0.000001,0.000010,-0.000001,3.211023,0.000011,
2326,2668,1.4635952044534,0.512618150054493,-0.0269437730164555,0.002544,-0.000095,0.001919,0.110317,0.040377,320.074979,24.395035,0.999630,0.991015,0.003897,0.342301,0.000016,0.000045,0.000004,0.000046,0.000015,81.902290,0.000064,
2176,2533,-1.77612890131769,-2.43784255249579,-0.0132157873217693,0.002360,-0.000472,0.003650,0.097086,0.033024,322.649161,24.221552,0.998998,0.986720,0.004529,0.454513,0.000009,0.000019,0.000005,0.000022,0.000007,66.237092,0.000030,
2221,2953,-0.868760724032594,6.70536622151544,0.000672558037933868,0.002811,-0.000245,0.006420,0.108943,0.058208,315.822409,24.721166,0.999429,0.991637,0.003733,0.435424,-0.000002,0.000004,0.000011,0.000012,-0.000010,52.536428,0.000013,
2326,2053,1.5810623591304,-12.9443614859297,0.0184414094389922,0.002271,-0.001917,-0.001957,0.109866,-0.052172,330.403042,22.726895,0.999588,0.986692,0.004579,0.430560,0.000337,0.000379,-0.000032,0.000397,0.000320,-61.437637,0.000718,
2191,2833,-1.5003734369736,4.09666229127043,-0.0187060514866744,0.003127,-0.000029,0.002654,0.135679,0.029502,317.725811,24.524452,0.999220,0.989479,0.004051,0.419513,0.000000,0.000026,0.000015,0.000033,-0.000007,65.604633,0.000034,
2326,2683,1.46056105918203,0.838456667160258,-0.0256045554638149,0.002447,-0.000398,0.005275,0.094172,0.045721,319.826687,24.340593,0.999698,0.991569,0.003841,0.437000,0.000015,0.000051,0.000001,0.000051,0.000015,88.140803,0.000070,
2176,2548,-1.77888640676365,-2.11051342863746,-0.0182580685166158,0.002419,-0.000716,0.003028,0.101602,0.007741,322.368964,24.233054,0.999179,0.987253,0.004419,0.431238,0.000006,0.000032,0.000008,0.000034,0.000004,74.590744,0.000042,
2326,2068,1.57780191835615,-12.6158540076867,0.0163318293691646,0.002089,-0.002254,0.000065,0.094499,-0.075269,330.129230,22.701591,0.999306,0.982034,0.005232,0.470640,0.000317,0.000372,-0.000031,0.000385,0.000303,-65.959470,0.000690,
2221,2968,-0.871398942487122,7.03083357875756,0.00353860058004329,0.002586,-0.000347,0.006255,0.099077,0.050848,315.592098,24.733508,0.999302,0.989729,0.004034,0.434127,0.000000,0.000002,0.000009,0.000010,-0.000008,47.311546,0.000010,
2326,2698,1.45814404098417,1.16394699615736,-0.0203594670068128,0.002434,-0.000418,0.005505,0.092809,0.045504,319.625880,24.295944,0.999544,0.990553,0.003978,0.516274,0.000011,0.000049,0.000002,0.000049,0.000011,86.873919,0.000064,
2176,2563,-1.78126575765247,-1.78246599778653,-0.0211578840859943,0.002596,-0.000118,0.000697,0.117226,0.040838,322.116904,24.276435,0.999119,0.986290,0.004524,0.434037,0.000008,0.000028,0.000008,0.000031,0.000005,69.918088,0.000038,
2326,2083,1.57469384639479,-12.2837424442048,0.0103541242061738,0.002060,-0.002062,-0.002177,0.100937,-0.059108,329.842934,22.928825,0.999486,0.983108,0.005274,0.297621,0.000297,0.000355,-0.000025,0.000365,0.000287,-69.569899,0.000653,
2176,2578,-1.78382003673216,-1.45596166594505,-0.0230388446810821,0.002584,0.000025,-0.000765,0.121215,0.024929,321.862672,24.241365,0.999183,0.987606,0.004329,0.466380,0.000004,0.000027,0.000007,0.000029,0.000002,75.010794,0.000034,
2326,2713,1.45507632816354,1.492821973213,-0.0250680685508087,0.002331,-0.000145,0.002961,0.096940,0.048985,319.345678,24.481610,0.999072,0.986443,0.004574,0.368685,0.000008,0.000038,0.000001,0.000038,0.000008,88.299172,0.000050,
2326,2098,1.5724160124636,-11.9574708491943,0.0133409963076474,0.002257,-0.001809,-0.002794,0.112172,-0.051097,329.638862,22.735920,0.999351,0.982168,0.005330,0.535849,0.000272,0.000334,-0.000025,0.000342,0.000263,-70.511853,0.000608,
2326,2728,1.45265584097575,1.81871325106569,-0.0233073081940915,0.002683,-0.000358,0.004539,0.107629,0.040670,319.127518,24.462164,0.999338,0.988602,0.004215,0.414378,0.000008,0.000036,0.000007,0.000037,0.000007,77.233018,0.000048,
2326,3118,1.38392678851318,10.2936688469866,0.0246369871984484,0.003047,0.000039,0.004219,0.125929,0.057608,313.183427,25.333842,0.999407,0.991946,0.003678,0.441590,0.000013,-0.000002,-0.000001,0.000013,-0.000002,-2.819894,0.000015,
2326,2113,1.56972607076836,-11.6284255882846,0.0211968584785609,0.001969,-0.002217,0.000045,0.089087,-0.050903,329.439314,22.861897,0.999337,0.981569,0.005350,0.447250,0.000253,0.000318,-0.000022,0.000325,0.000247,-72.852024,0.000573,
2326,2743,1.45014762927709,2.14484020315345,-0.0183796014858331,0.002678,-0.000373,0.005678,0.103461,0.040586,318.920689,24.485660,0.999562,0.990337,0.003930,0.425221,0.000008,0.000033,0.000012,0.000037,0.000003,68.574349,0.000045,
2326,2128,1.56741491021239,-11.2991145932088,0.0264704111981473,0.001895,-0.001501,-0.001792,0.092349,-0.048334,329.244461,22.986037,0.999348,0.983807,0.005096,0.362992,0.000238,0.000304,-0.000018,0.000309,0.000234,-75.482818,0.000544,
2326,2758,1.44660933825254,2.47154643073348,-0.0207712663650454,0.002281,-0.000416,0.007919,0.077484,0.050845,318.630552,24.498196,0.999604,0.991620,0.003773,0.457727,0.000008,0.000029,0.000015,0.000037,0.000000,62.377188,0.000043,
2326,2143,1.56406627260785,-10.9682713178602,0.0144366454852047,0.002332,-0.001152,-0.000535,0.108140,0.005971,328.917412,23.017142,0.999347,0.983855,0.005176,0.423930,0.000222,0.000261,-0.000015,0.000266,0.000217,-71.500344,0.000484,
2326,2773,1.44468188089233,2.79891046356657,-0.0188042069509038,0.002629,-0.000154,0.002982,0.110609,0.039443,318.435553,24.631464,0.999695,0.994365,0.003379,0.347510,0.000008,0.000016,0.000011,0.000024,0.000001,55.679842,0.000028,
2326,2158,1.56083217534846,-10.6407689506959,0.0174311988079694,0.001996,-0.001710,0.004199,0.076284,0.003361,328.669366,22.967706,0.999205,0.982922,0.005216,0.508096,0.000203,0.000215,-0.000015,0.000226,0.000193,-55.238130,0.000419,
2341,2038,1.91085374567604,-13.2731229310847,0.0095336327896689,0.002019,-0.001890,-0.004574,0.107501,-0.106202,330.565814,22.622225,0.998974,0.979625,0.005622,0.343852,0.000374,0.000392,-0.000042,0.000426,0.000340,-51.051715,0.000768,
2341,2053,1.90956720742562,-12.945466445786,0.0285026829942581,0.002262,-0.001971,-0.002219,0.110437,-0.079677,330.485345,22.699972,0.999078,0.980622,0.005395,0.331761,0.000353,0.000373,-0.000041,0.000405,0.000321,-51.832916,0.000727,
2341,2068,1.9058444834356,-12.6174609674392,0.0274861483562177,0.001667,-0.002403,0.001162,0.071309,-0.087107,330.196999,22.624942,0.998709,0.976866,0.005877,0.439838,0.000332,0.000366,-0.000039,0.000391,0.000307,-56.911595,0.000700,
2341,2083,1.90324848627731,-12.2850585024472,0.0201939130104165,0.002219,-0.001495,-0.001863,0.107381,-0.020245,329.929024,22.812874,0.999211,0.981045,0.005394,0.358680,0.000312,0.000351,-0.000033,0.000370,0.000293,-60.262145,0.000664,
2341,2098,1.89986074741737,-11.9558018166404,0.01561035342678,0.002116,-0.001515,-0.000091,0.096561,-0.016544,329.638482,22.813309,0.999354,0.982497,0.005195,0.402118,0.000287,0.000330,-0.000032,0.000348,0.000269,-62.096563,0.000619,
2341,2113,1.89775627866545,-11.6276332676083,0.0231054134649185,0.002241,-0.001498,-0.000074,0.102213,-0.016903,329.465116,22.855866,0.999348,0.982815,0.005171,0.398620,0.000267,0.000317,-0.000028,0.000330,0.000254,-65.865901,0.000586,
2236,2623,-0.485899074745188,-0.473536362653178,-0.0151632042299639,0.002694,-0.000196,0.002648,0.115210,0.025391,321.027949,24.272383,0.999272,0.985086,0.004689,0.423238,0.000001,0.000033,0.000002,0.000033,0.000001,86.849949,0.000039,
2356,2713,2.10856581631754,1.49270052872157,-0.0183312453656868,0.002623,-0.000560,0.006682,0.096888,0.041397,319.397700,24.418089,0.999430,0.991019,0.003810,0.424875,0.000016,0.000046,0.000005,0.000047,0.000016,80.727239,0.000065,
2311,2623,1.14661713186572,-0.471973021645219,-0.0113690963501085,0.002678,-0.000585,0.003002,0.112630,0.020685,320.948681,24.164427,0.999479,0.989280,0.003973,0.461206,0.000011,0.000045,0.000008,0.000047,0.000009,76.736507,0.000059,
2116,2428,-3.06392334281935,-4.73065834338163,-0.00644884252386646,0.002107,-0.000181,-0.000714,0.098893,0.022872,324.637296,24.315064,0.999182,0.987365,0.004631,0.422142,0.000045,0.000022,-0.000001,0.000045,0.000022,-1.946233,0.000068,
2041,3193,-4.80988422723892,11.8951574854004,0.0493613284241974,0.002666,-0.000285,0.010036,0.095273,0.063806,313.072277,24.156370,0.999635,0.993478,0.003303,0.438492,0.000002,0.000022,-0.000006,0.000023,0.000001,-73.832499,0.000027,
2416,3193,3.32592093462238,11.9275145988341,0.0366302361776434,0.003329,-0.000327,0.005201,0.134201,0.036691,312.093598,25.902785,0.999528,0.991155,0.003617,0.444925,0.000031,-0.000005,0.000006,0.000032,-0.000006,8.949042,0.000034,
2341,2128,1.89437260663758,-11.2980221211501,0.0150331562718975,0.002089,-0.001269,-0.002532,0.103937,-0.055793,329.157980,22.904664,0.999434,0.986340,0.004772,0.350889,0.000250,0.000305,-0.000023,0.000314,0.000241,-70.261487,0.000557,
2281,3148,0.40098230704481,10.9401977463008,0.0285477371303386,0.002609,-0.000266,0.005808,0.100823,0.046851,312.744117,25.176684,0.999544,0.992813,0.003737,0.460622,0.000008,-0.000002,0.000006,0.000011,-0.000005,24.829383,0.000011,
2371,2938,2.39339773947593,6.38894694669403,-0.00201610893424231,0.002771,-0.000451,0.007623,0.100290,0.045071,315.873792,25.033796,0.999375,0.988866,0.004067,0.426652,0.000008,0.000000,0.000004,0.000009,-0.000002,23.807067,0.000010,
2131,2113,-2.68700801686404,-11.622316978596,0.0117654804902827,0.001040,-0.001430,0.001867,0.041627,-0.010894,329.740017,24.127810,0.999044,0.983001,0.005179,0.368000,0.000271,0.000281,0.000082,0.000358,0.000194,46.756541,0.000560,
2131,3028,-2.83415398767871,8.3261916381448,0.0168202749541138,0.002760,-0.000573,0.009477,0.098836,0.049046,315.031934,24.500054,0.999480,0.991548,0.003716,0.456848,0.000005,-0.000008,0.000002,0.000005,-0.000008,10.262792,0.000008,
2131,2173,-2.69623801309493,-10.3085531645328,0.00468768261714558,0.001486,-0.000718,-0.003571,0.078551,-0.015399,328.754489,24.041138,0.999409,0.975415,0.005660,0.484538,0.000205,0.000172,0.000071,0.000262,0.000116,38.458356,0.000387,
2266,3073,0.0889874517240123,9.31192052769641,0.0286018587977992,0.002795,-0.000306,0.007541,0.103742,0.038639,313.997579,25.025600,0.999230,0.990542,0.004031,0.416678,0.000014,-0.000016,-0.000002,0.000014,-0.000016,-3.141234,0.000018,
2506,2353,5.45395037464138,-6.36837270552002,0.0134760067094248,0.002629,-0.000530,0.000355,0.118790,0.029067,325.778390,22.894680,0.999264,0.985275,0.005114,0.443864,0.000134,0.000123,0.000018,0.000148,0.000109,36.419885,0.000258,
2281,2908,0.441554382372171,5.73193280890779,-0.0133620622077615,0.002695,-0.000551,0.007177,0.099925,0.041396,316.312609,24.768292,0.999619,0.992747,0.003419,0.433217,0.000006,0.000000,0.000012,0.000016,-0.000009,38.765104,0.000016,
2176,2683,-1.8016147005002,0.83132098403081,-0.0183579137185461,0.002589,-0.000555,0.005988,0.100430,0.032919,320.179072,24.322816,0.999437,0.990752,0.003880,0.482861,-0.000009,0.000036,0.000000,0.000036,-0.000009,89.899856,0.000037,
2206,2203,-1.06618073151877,-9.65048623281064,0.00721512112454548,0.001650,-0.000603,0.000455,0.074031,0.014182,328.034188,23.850571,0.998808,0.981058,0.005467,0.348000,0.000151,0.000138,0.000019,0.000164,0.000124,35.329225,0.000289,
2116,2128,-3.01610603004818,-11.2951024099455,0.0159053646802363,0.000972,-0.001487,0.000763,0.041842,-0.028735,329.597925,24.132044,0.998775,0.982139,0.005408,0.439840,0.000253,0.000263,0.000084,0.000342,0.000174,46.653396,0.000525,
2326,3133,1.38043186079707,10.6189949733798,0.0227889299655999,0.002568,-0.000098,0.005162,0.100487,0.037526,312.897119,25.359306,0.999181,0.991075,0.003802,0.429271,0.000011,-0.000001,0.000002,0.000012,-0.000002,10.895381,0.000013,
2191,2413,-1.42918112396942,-5.05756722125697,-0.00750135123564633,0.001952,-0.000571,-0.000748,0.091810,0.014319,324.584899,24.060460,0.999001,0.986549,0.004784,0.444815,0.000024,0.000055,-0.000013,0.000060,0.000019,-70.131642,0.000082,
2146,2068,-2.35209636256422,-12.6106001844532,0.0224475482556841,0.000767,-0.001506,-0.000536,0.036188,-0.015202,330.487460,23.982405,0.998778,0.980560,0.005456,0.387630,0.000319,0.000310,0.000075,0.000390,0.000239,43.319320,0.000634,
2191,2563,-1.45447815576618,-1.78425789730233,-0.0063452546931444,0.002217,-0.000284,0.003137,0.092079,0.044732,322.168543,24.180931,0.999414,0.989422,0.004081,0.511518,0.000012,0.000028,0.000014,0.000036,0.000004,59.194411,0.000044,
2251,2863,-0.202278050883521,4.75184334451914,-0.0141765380667493,0.002683,-0.000297,0.005697,0.104864,0.051137,317.093687,24.622998,0.999555,0.991650,0.003666,0.461026,0.000006,0.000020,0.000018,0.000032,-0.000006,56.146649,0.000034,
2146,2608,-2.44176726336954,-0.801784907838737,-0.0227498993361337,0.002312,-0.000281,0.003938,0.094439,0.048311,321.460295,24.386402,0.999369,0.989629,0.004263,0.400704,0.000015,0.000014,0.000000,0.000015,0.000014,12.260072,0.000029,
2326,2878,1.42607729505495,5.08155707726944,-0.0116908381032772,0.002990,-0.000310,0.002337,0.129454,0.025578,316.804010,24.748184,0.999527,0.990254,0.003944,0.456618,-0.000006,0.000011,0.000012,0.000017,-0.000013,63.082907,0.000018,
2206,2743,-1.15993826108954,2.13981620482772,-0.0224652433483357,0.002638,-0.000525,0.005824,0.102801,0.020018,319.080646,24.458146,0.999465,0.990242,0.003977,0.394422,0.000001,0.000019,0.000003,0.000020,0.000000,81.217704,0.000023,
2176,2068,-1.69682038773626,-12.6121684996651,0.0228896485017458,0.001529,-0.001945,-0.001255,0.073235,-0.051663,330.424156,23.747520,0.999318,0.984360,0.005008,0.396786,0.000312,0.000314,0.000061,0.000374,0.000253,45.501771,0.000630,
2251,3103,-0.24187868394581,9.96200239419139,0.0256517033243426,0.003000,-0.000221,0.004879,0.122337,0.045842,313.528363,25.008289,0.999597,0.991560,0.003654,0.432231,0.000006,-0.000006,-0.000002,0.000006,-0.000006,-8.403531,0.000007,
2236,2908,-0.534994015770589,5.72857059594263,0.000785232578834894,0.002807,-0.000459,0.005810,0.110380,0.043464,316.522607,24.717656,0.999628,0.992013,0.003698,0.398188,0.000002,0.000008,0.000019,0.000023,-0.000014,49.747254,0.000024,
2206,2668,-1.14695603142554,0.506997329886637,-0.0218563644296523,0.002344,0.000088,0.001105,0.104402,0.041615,320.304858,24.375375,0.999568,0.991317,0.003825,0.413977,0.000000,0.000030,0.000008,0.000032,-0.000002,76.132708,0.000036,
2461,2113,4.52030309111511,-11.6284914921877,0.0104144300736948,0.003060,-0.000982,-0.003915,0.154164,-0.005207,329.548923,22.109052,0.999459,0.977290,0.005775,0.446361,0.000376,0.000333,-0.000069,0.000426,0.000282,-36.273654,0.000714,
2416,3208,3.32274698816975,12.2526070247105,0.03874649373887,0.003018,-0.000493,0.006237,0.115964,0.024269,311.847139,25.942322,0.999476,0.990705,0.003811,0.439005,0.000030,-0.000010,0.000005,0.000031,-0.000011,6.940103,0.000032,
2161,2623,-2.11791283786425,-0.474601508174992,-0.0222691176926446,0.002551,-0.000353,0.004946,0.102173,0.045756,321.172552,24.378081,0.999496,0.990726,0.004007,0.402250,0.000002,0.000019,0.000003,0.000019,0.000002,79.677535,0.000023,
2221,2458,-0.78334457982135,-4.07482488059679,-0.00275176918751185,0.001967,-0.000463,0.000084,0.089955,0.017935,323.813961,24.041179,0.998961,0.984422,0.005096,0.440831,0.000007,0.000032,-0.000007,0.000034,0.000005,-74.980484,0.000043,
2326,2623,1.47304788310197,-0.471309367631619,-0.0110503016340999,0.002564,-0.000328,0.003842,0.104466,0.048414,320.934279,24.142197,0.999561,0.988794,0.004043,0.498078,0.000019,0.000042,0.000008,0.000045,0.000016,72.894673,0.000063,
2176,2203,-1.72016898832662,-9.65117272080438,0.0063895793696247,0.001694,-0.000888,-0.000455,0.078794,-0.011617,328.120993,23.933102,0.998188,0.975214,0.006111,0.389277,0.000159,0.000134,0.000032,0.000180,0.000113,34.382302,0.000296,
2116,2443,-3.0665360316247,-4.40494489506246,-0.00667980936106005,0.002082,-0.000707,0.002163,0.089110,0.001635,324.384502,24.181725,0.999237,0.987873,0.004626,0.539015,0.000042,0.000018,-0.000006,0.000044,0.000017,-13.894016,0.000063,
2236,2638,-0.488271423382255,-0.146364839072803,-0.0175733071349669,0.003057,0.000070,0.001752,0.134949,0.048654,320.783972,24.274802,0.999110,0.986441,0.004595,0.465792,-0.000002,0.000030,0.000004,0.000031,-0.000002,82.929534,0.000034,
2191,2848,-1.50302568023618,4.4217960797392,-0.00855256055979225,0.002656,-0.000598,0.007201,0.099595,0.031535,317.530980,24.519704,0.999320,0.989917,0.003900,0.440163,-0.000001,0.000020,0.000017,0.000030,-0.000011,60.740748,0.000030,
2341,2143,1.89018129617817,-10.9669867333681,-0.00143719942008147,0.002115,-0.001213,-0.000583,0.098367,-0.000188,328.772569,22.905457,0.999226,0.983137,0.005185,0.446105,0.000231,0.000264,-0.000019,0.000273,0.000222,-64.973862,0.000496,
2041,3208,-4.81200893156315,12.219705203668,0.0490250596134274,0.002772,-0.000236,0.007477,0.107321,0.057441,312.836557,24.117636,0.999534,0.993133,0.003315,0.462036,0.000002,0.000013,-0.000009,0.000018,-0.000003,-60.495030,0.000019,
2386,3028,2.7034304446656,8.3447452157419,0.0105340458861178,0.002934,-0.000581,0.006948,0.109926,0.034535,314.525536,25.312563,0.999583,0.990267,0.003909,0.426150,0.000016,-0.000003,-0.000001,0.000016,-0.000003,-3.436755,0.000017,
2131,2563,-2.75962305687502,-1.78255087748823,-0.0284458719014538,0.003149,0.000417,-0.003221,0.154667,0.047417,322.261955,24.370212,0.999021,0.986828,0.004634,0.411905,0.000022,0.000014,0.000003,0.000022,0.000013,16.497550,0.000036,
2311,2638,1.14360333244957,-0.144455920687783,-0.0140046719020006,0.002495,-0.000226,0.001276,0.110229,0.029707,320.680413,24.211827,0.999383,0.988592,0.004022,0.455692,0.000010,0.000040,0.000008,0.000042,0.000008,76.136169,0.000054,
2131,3043,-2.83622502716146,8.65164436795668,0.0234921755587152,0.002763,-0.000576,0.009836,0.097966,0.059676,314.842067,24.534669,0.999484,0.992335,0.003576,0.437541,0.000005,-0.000008,0.000002,0.000005,-0.000008,10.367404,0.000008,
2221,2803,-0.844174425721409,3.4455841073964,-0.0223587584762868,0.002645,-0.000597,0.004012,0.108716,0.015465,318.072643,24.498782,0.999323,0.988727,0.004232,0.429799,-0.000003,0.000019,0.000006,0.000020,-0.000005,76.601627,0.000021,
2281,3163,0.398691414364425,11.2660995964389,0.0307955528496677,0.003035,-0.000251,0.007784,0.113920,0.058856,312.530068,25.254693,0.999552,0.991853,0.003674,0.421203,0.000011,-0.000005,0.000007,0.000014,-0.000008,20.930610,0.000014,
2206,2218,-1.06874436719769,-9.32253599257538,0.00736568474479782,0.001664,-0.000903,0.001081,0.072555,0.017305,327.792637,23.825696,0.998874,0.981749,0.005402,0.395200,0.000136,0.000130,0.000017,0.000150,0.000116,39.361384,0.000267,
2476,2263,4.81739296657272,-8.33964470893437,0.0138496505098828,0.002526,-0.000088,-0.003822,0.130061,0.024409,327.165290,22.621747,0.999009,0.979055,0.005403,0.467224,0.000195,0.000141,-0.000013,0.000198,0.000139,-12.533288,0.000338,
2401,2953,3.04279152331486,6.71692051208464,-0.00798832728634125,0.002814,-0.000462,0.004301,0.113750,0.029800,315.612275,25.111526,0.999616,0.991515,0.003755,0.445496,0.000007,-0.000008,0.000007,0.000010,-0.000010,20.884898,0.000012,
2341,2743,1.77663868703788,2.14500428768686,-0.0187580207204974,0.002668,-0.000630,0.004101,0.108156,0.027504,318.917834,24.454021,0.999456,0.989858,0.004000,0.448342,0.000011,0.000035,0.000012,0.000040,0.000006,67.269005,0.000050,
2491,2428,5.10930694460295,-4.72583223948261,-0.00898806564129018,0.002844,-0.000437,-0.000940,0.133740,0.020892,324.343984,23.215360,0.999326,0.986783,0.004671,0.471902,0.000111,0.000019,0.000060,0.000140,-0.000010,26.301788,0.000156,
2236,2923,-0.53859958755125,6.05394642044738,-0.0068226139305807,0.002571,-0.000525,0.008446,0.090911,0.038540,316.195507,24.632915,0.999617,0.992552,0.003618,0.498870,0.000002,0.000006,0.000017,0.000021,-0.000014,48.761294,0.000022,
2221,2983,-0.873675724849992,7.35644732476694,0.00783019320846279,0.002743,-0.000301,0.007799,0.101356,0.044749,315.385650,24.771513,0.999393,0.990909,0.003846,0.407978,-0.000001,0.000004,0.000010,0.000012,-0.000009,52.614725,0.000012,
2326,2788,1.44162610122722,3.12410257492677,-0.0230649629634172,0.002716,-0.000183,0.003460,0.112915,0.034844,318.158763,24.514399,0.999570,0.993588,0.003535,0.494292,0.000010,0.000022,0.000009,0.000027,0.000005,61.629809,0.000035,
2281,2923,0.439246138335236,6.05764214468863,-0.00620759068345933,0.002767,-0.000508,0.009677,0.094938,0.051607,316.122873,24.805884,0.999541,0.992227,0.003635,0.432929,0.000007,0.000003,0.000011,0.000016,-0.000006,38.834593,0.000016,
2236,2713,-0.50264219718343,1.48753614352665,-0.0223483009872325,0.002446,-0.000687,0.005438,0.094726,0.021558,319.486460,24.384120,0.999240,0.989502,0.003926,0.437137,0.000007,0.000025,0.000003,0.000025,0.000007,81.770452,0.000034,
2341,2953,1.73896675191353,6.71321200514607,-0.0033939248344268,0.003125,0.000012,0.001700,0.137968,0.039777,315.652498,25.010896,0.999348,0.990606,0.003848,0.413539,0.000005,-0.000003,0.000000,0.000005,-0.000003,2.060803,0.000005,
2326,2893,1.42305105988691,5.40792668418827,-0.0113284585046927,0.002763,-0.000454,0.002707,0.117679,0.024773,316.550532,24.801276,0.999294,0.989649,0.004030,0.436490,-0.000005,0.000001,0.000014,0.000012,-0.000016,51.038964,0.000017,
2176,2698,-1.80455773856828,1.1590426924817,-0.0247119147728085,0.002414,-0.000169,0.003142,0.101391,0.049424,319.883065,24.368614,0.999414,0.990356,0.003879,0.466321,-0.000009,0.000032,-0.000001,0.000032,-0.000009,-88.953020,0.000033,
2131,2188,-2.697686344018,-9.98039190198574,0.0183219082092592,0.001710,-0.001005,-0.001112,0.081428,-0.024415,328.629333,24.177751,0.999249,0.982358,0.005164,0.346489,0.000189,0.000167,0.000070,0.000249,0.000107,40.434924,0.000366,
2281,2758,0.467823052350433,2.46953667619673,-0.0220980643231883,0.002473,-0.000586,0.007887,0.087237,0.038191,318.669779,24.483930,0.999457,0.989031,0.004013,0.438744,0.000002,0.000027,0.000009,0.000031,-0.000001,71.941146,0.000035,
2176,2083,-1.69976513094376,-12.2816245467746,0.0170356771066622,0.001412,-0.001491,-0.002031,0.070443,-0.030292,330.131043,23.825247,0.999548,0.984884,0.004980,0.356468,0.000294,0.000307,0.000059,0.000360,0.000241,48.203598,0.000605,
2311,2938,1.08873410858831,6.38525135081856,-0.00984407043790725,0.002694,0.000026,0.001701,0.118253,0.034107,315.838855,24.866383,0.998965,0.987942,0.004361,0.449361,0.000001,0.000002,0.000006,0.000007,-0.000004,46.711882,0.000007,
2146,2083,-2.35528957177153,-12.2800834221807,0.0133629881834167,0.000695,-0.001556,0.000893,0.028615,-0.014778,330.163059,24.042519,0.998746,0.980432,0.005528,0.339744,0.000301,0.000305,0.000075,0.000379,0.000228,45.789337,0.000613,
2251,3118,-0.244710553711336,10.2875793995847,0.0271350178313696,0.002701,-0.000070,0.004225,0.110822,0.060488,313.283802,25.037497,0.999613,0.990846,0.003777,0.439971,0.000004,-0.000006,0.000001,0.000004,-0.000006,3.213786,0.000006,
2461,2128,4.51788218591943,-11.3003654159273,0.0196112322347517,0.003330,-0.001712,0.001068,0.147546,-0.017845,329.377112,22.184983,0.999497,0.975425,0.005939,0.414705,0.000354,0.000322,-0.000064,0.000403,0.000272,-37.952774,0.000679,
2356,2788,2.09464981502994,3.12615549699876,-0.0173998525619936,0.002573,-0.000030,0.003053,0.107580,0.046274,318.195008,24.623070,0.999685,0.992905,0.003523,0.419584,0.000021,0.000029,0.000013,0.000038,0.000012,54.050728,0.000053,
2266,3088,0.0861426946291353,9.63743927902759,0.0297219287542703,0.002654,-0.000580,0.008605,0.093654,0.027726,313.751710,25.064947,0.999537,0.991357,0.003781,0.390968,0.000014,-0.000016,-0.000005,0.000014,-0.000017,-9.021807,0.000018,
2341,3193,1.69607287973296,11.921141823704,0.0357908272870873,0.003041,-0.000636,0.009032,0.108460,0.032842,312.025274,25.573295,0.999621,0.993283,0.003493,0.414515,0.000012,-0.000001,0.000007,0.000015,-0.000005,24.369148,0.000015,
2341,2158,1.88735791474025,-10.6406064484442,0.00399127975924785,0.001752,-0.001518,0.000570,0.077630,-0.003535,328.556388,22.781543,0.999352,0.984449,0.005030,0.605941,0.000211,0.000220,-0.000020,0.000236,0.000196,-51.275590,0.000432,
2311,3133,1.05497439968957,10.6178501620534,0.0281869483028458,0.002642,-0.000142,0.007604,0.095823,0.054827,312.947739,25.320659,0.999425,0.992100,0.003691,0.422539,0.000008,-0.000001,0.000003,0.000009,-0.000002,17.172818,0.000009,
2386,3043,2.70057533464193,8.67058201817078,0.00772818070061021,0.003154,-0.000510,0.006390,0.122125,0.041192,314.268801,25.329079,0.999671,0.991516,0.003717,0.458962,0.000013,0.000001,0.000002,0.000014,0.000001,7.581961,0.000017,
2191,2863,-1.50563887294417,4.7484445789012,-0.0143845013741952,0.002787,-0.000321,0.003936,0.115944,0.022163,317.254298,24.550011,0.999400,0.990856,0.003692,0.414937,0.000000,0.000019,0.000016,0.000028,-0.000010,60.363166,0.000029,
2131,2578,-2.76320665724776,-1.45508568409448,-0.0295243915814467,0.002534,-0.000190,0.003754,0.105369,0.077016,321.960728,24.384699,0.999519,0.991670,0.004057,0.433519,0.000017,0.000015,0.000000,0.000017,0.000015,13.447650,0.000031,
2101,2398,-3.38547848315695,-5.38621382427213,-0.00351495965264803,0.002076,0.000024,0.000547,0.093862,0.035882,325.209575,24.332374,0.998874,0.984500,0.004831,0.453468,0.000054,0.000048,-0.000005,0.000057,0.000045,-27.547283,0.000102,
2206,2758,-1.16219888379876,2.46577340870377,-0.0173527914556075,0.002585,-0.000472,0.005514,0.101395,0.033399,318.878314,24.456235,0.999430,0.989907,0.004004,0.426531,-0.000002,0.000017,0.000004,0.000018,-0.000003,77.185428,0.000019,
2206,2233,-1.07047139734103,-8.99534937656817,0.0103087756730247,0.002343,-0.001052,0.002110,0.100436,-0.007096,327.603969,23.792428,0.999064,0.982710,0.005392,0.422836,0.000118,0.000117,0.000014,0.000132,0.000103,43.603760,0.000236,
2176,2218,-1.72281690676285,-9.32232241266532,0.00332264341909649,0.001708,-0.000869,-0.000983,0.081095,-0.011253,327.856154,23.959244,0.998516,0.978968,0.005696,0.378416,0.000141,0.000126,0.000027,0.000161,0.000106,37.057458,0.000269,
2326,3148,1.3783336429483,10.943926302112,0.0294374453814044,0.002932,-0.000470,0.007262,0.109925,0.033106,312.716826,25.388335,0.999417,0.992334,0.003690,0.428919,0.000009,-0.000002,0.000005,0.000011,-0.000004,21.922153,0.000011,
2281,3178,0.396363301509314,11.5906901441653,0.0370022758569348,0.002984,-0.000377,0.007715,0.111658,0.036705,312.334579,25.272953,0.999623,0.992534,0.003412,0.407267,0.000013,-0.000007,0.000008,0.000015,-0.000010,18.446187,0.000015,
2041,3223,-4.81439461637943,12.5448189667058,0.047218674512294,0.002880,-0.000161,0.007726,0.111602,0.052759,312.580472,24.124796,0.999473,0.993611,0.003201,0.441121,0.000006,-0.000001,-0.000013,0.000015,-0.000011,-37.515937,0.000016,
2476,2278,4.8136160317918,-8.00935275219707,0.00628384466489251,0.002724,-0.000479,-0.000613,0.126818,0.020271,326.855414,22.763924,0.999371,0.979906,0.005300,0.380072,0.000175,0.000128,-0.000004,0.000176,0.000127,-5.181399,0.000304,
2116,2458,-3.06879439190846,-4.0757515874369,-0.00937951340659993,0.002333,-0.000656,0.001026,0.104040,0.010234,324.133750,24.318932,0.999324,0.987968,0.004486,0.415347,0.000040,0.000009,-0.000015,0.000046,0.000003,-21.860754,0.000055,
2341,2758,1.77386767429394,2.47172432071044,-0.0141672034741305,0.002535,-0.000354,0.006351,0.094366,0.053253,318.698029,24.507624,0.999522,0.990007,0.004011,0.457397,0.000015,0.000033,0.000016,0.000042,0.000006,59.903401,0.000052,
2356,2113,2.22429421655837,-11.626383819569,0.0156029105673383,0.001858,-0.001605,0.001798,0.078074,-0.013864,329.379825,22.820335,0.999267,0.980855,0.005365,0.348881,0.000284,0.000314,-0.000028,0.000331,0.000267,-58.955269,0.000599,
2191,2578,-1.45649981425446,-1.45669987634795,-0.0151541674722466,0.003053,0.000149,-0.001101,0.143882,0.035306,321.903728,24.174578,0.999462,0.990550,0.003876,0.524032,0.000007,0.000029,0.000012,0.000035,0.000001,66.118463,0.000041,
2221,2473,-0.786075603010097,-3.74661560363165,-0.00712028271959753,0.002172,0.000157,0.000646,0.097788,0.044141,323.542308,24.062245,0.999255,0.985718,0.004793,0.466485,0.000008,0.000027,-0.000004,0.000028,0.000007,-79.207682,0.000037,
2206,2683,-1.14927604259536,0.833905554569789,-0.0264485013585158,0.002709,0.000381,-0.001939,0.130971,0.044954,320.049546,24.369856,0.999669,0.992774,0.003611,0.440040,-0.000003,0.000035,0.000005,0.000035,-0.000003,82.544553,0.000039,
2326,2908,1.42019126591299,5.73396957907515,-0.00687996863001672,0.002541,-0.000666,0.005044,0.099363,0.023369,316.324746,24.858533,0.999220,0.989620,0.004077,0.411882,-0.000004,0.000001,0.000012,0.000011,-0.000013,51.656156,0.000014,
2131,3058,-2.83834370706623,8.97691853697023,0.022966537809566,0.002906,-0.000392,0.005858,0.116485,0.039350,314.611601,24.540053,0.999373,0.992108,0.003735,0.416564,0.000008,-0.000008,0.000003,0.000008,-0.000009,9.322751,0.000010,
2281,2938,0.436714809517081,6.38297621322497,-0.00591031017694377,0.002771,-0.000545,0.007425,0.102569,0.030711,315.888733,24.794831,0.999482,0.991476,0.003769,0.450155,0.000010,0.000009,0.000010,0.000020,-0.000001,43.231456,0.000023,
2491,2443,5.10636708620251,-4.39750979387484,-0.0023973829024726,0.002726,-0.000424,0.002440,0.115398,0.032718,324.136811,23.357213,0.999019,0.982728,0.005007,0.402046,0.000119,-0.000012,0.000060,0.000142,-0.000035,21.260574,0.000148,
2236,2938,-0.541059155709839,6.38024990228604,-0.00480249845037406,0.002526,-0.000519,0.007132,0.093097,0.030079,315.969864,24.710074,0.999556,0.992788,0.003537,0.433569,0.000001,0.000009,0.000015,0.000021,-0.000010,52.583263,0.000021,
2236,2728,-0.505161467350835,1.81424946468833,-0.0180550842385969,0.002309,-0.000419,0.006164,0.086183,0.044704,319.269837,24.427565,0.999171,0.988752,0.004146,0.438157,0.000008,0.000023,0.000001,0.000023,0.000008,86.513953,0.000032,
2176,2098,-1.70276393084339,-11.9524315337282,0.00155043457647253,0.001786,-0.001057,-0.004197,0.094416,-0.027674,329.785551,23.699386,0.999354,0.983385,0.005196,0.500865,0.000279,0.000295,0.000062,0.000349,0.000225,48.733114,0.000578,
2311,3148,1.05215265594903,10.9432759209682,0.026998155948263,0.002627,-0.000195,0.006728,0.098109,0.055055,312.694455,25.342504,0.999528,0.991760,0.003771,0.432091,0.000007,-0.000002,0.000005,0.000009,-0.000004,23.882360,0.000009,
2266,3103,0.0837147336559347,9.96347142741264,0.0247432365953273,0.003033,-0.000090,0.004989,0.123362,0.052372,313.494029,25.081533,0.999718,0.992901,0.003490,0.423569,0.000012,-0.000005,-0.000003,0.000013,-0.000005,-9.437736,0.000013,
2356,3028,2.05128513247407,8.34304171002052,0.0116160210075122,0.002790,-0.000325,0.006474,0.105648,0.050538,314.519282,25.254342,0.999579,0.991418,0.003749,0.406691,0.000011,-0.000002,-0.000002,0.000011,-0.000003,-9.383332,0.000011,
2101,2413,-3.387675326492,-5.05821386916821,-0.00509087518935303,0.002330,0.000030,0.000265,0.106371,0.055136,324.966643,24.344572,0.999014,0.985897,0.004716,0.463359,0.000053,0.000034,-0.000003,0.000053,0.000034,-8.700025,0.000087,
2191,2878,-1.50784407146365,5.07510480176613,-0.00854720691233979,0.002958,-0.000618,0.006893,0.114514,0.039270,317.057010,24.645686,0.999801,0.994839,0.003086,0.350444,-0.000001,0.000018,0.000018,0.000029,-0.000012,59.095937,0.000029,
2311,2653,1.14095121951419,0.182365773562935,-0.0125038813597484,0.002726,-0.000541,0.004399,0.110125,0.033590,320.449219,24.240205,0.999479,0.989103,0.004019,0.463950,0.000006,0.000039,0.000010,0.000042,0.000003,74.033007,0.000050,
2311,2953,1.08666315033287,6.7111925786219,-0.00549845120872305,0.002989,0.000065,0.000583,0.135725,0.043858,315.647761,24.913735,0.999269,0.990228,0.003934,0.443240,0.000000,-0.000002,0.000003,0.000002,-0.000004,38.279747,0.000004,
2176,2233,-1.72527205807396,-8.99409741217985,0.00185611294563159,0.001838,-0.000837,-0.001003,0.087150,0.000440,327.608514,23.939168,0.998757,0.981423,0.005304,0.424794,0.000125,0.000115,0.000022,0.000143,0.000097,38.720593,0.000242,
2041,3238,-4.81665025032607,12.8692907430135,0.047303282593532,0.002962,-0.000471,0.007262,0.116633,0.045403,312.341160,24.090163,0.999574,0.994907,0.002945,0.459609,0.000011,-0.000020,-0.000011,0.000015,-0.000023,-18.180610,0.000023,
2341,2968,1.73608639493177,7.0397823281671,-0.0049723204965062,0.003207,-0.000172,0.001895,0.141011,0.035040,315.397081,25.093622,0.999908,0.997641,0.002554,0.362040,0.000003,-0.000005,-0.000002,0.000004,-0.000006,-15.012050,0.000006,
2461,2143,4.51391257821286,-10.9708373504702,0.015575075436459,0.002954,-0.001898,0.003736,0.120283,-0.015122,329.073787,22.235580,0.999085,0.975496,0.005933,0.424872,0.000331,0.000300,-0.000059,0.000377,0.000254,-37.613048,0.000635,
2281,3193,0.39381972411184,11.9155706354585,0.0398979129874419,0.003041,-0.000502,0.008742,0.110829,0.038859,312.112453,25.277262,0.999667,0.992817,0.003339,0.431397,0.000012,-0.000004,0.000008,0.000016,-0.000008,21.902552,0.000016,
2116,2473,-3.07146950441833,-3.74762752431971,-0.0122401908947722,0.002285,-0.000334,0.001654,0.100085,0.034044,323.863254,24.347056,0.999354,0.988281,0.004343,0.415722,0.000040,0.000007,-0.000013,0.000044,0.000003,-19.138845,0.000053,
2341,2773,1.77167714156743,2.79828937206025,-0.0106368400959127,0.002791,-0.000380,0.004989,0.110848,0.044212,318.499818,24.577148,0.999584,0.991763,0.003695,0.415469,0.000016,0.000020,0.000012,0.000030,0.000006,50.288078,0.000039,
2401,2968,3.0410599741196,7.04231608826475,0.00607434902997284,0.002905,-0.000552,0.004491,0.117189,0.028095,315.488534,25.192248,0.999869,0.994914,0.003186,0.407749,0.000006,-0.000008,0.000007,0.000009,-0.000010,22.180690,0.000011,
2221,2998,-0.87609295808096,7.68190757053283,0.00747687014614939,0.002902,-0.000269,0.006713,0.112198,0.047397,315.148893,24.758744,0.999439,0.990890,0.003849,0.441530,-0.000005,0.000002,0.000009,0.000008,-0.000011,56.721171,0.000011,
2476,2293,4.81035351729968,-7.68308832637059,0.0080561571915041,0.002499,-0.001045,0.001032,0.110053,-0.001196,326.611812,22.655121,0.999438,0.980941,0.005220,0.526202,0.000161,0.000098,0.000004,0.000162,0.000098,3.670520,0.000262,
2356,3268,2.00549937632533,13.5501990837768,0.0111051638142499,0.002925,-0.000654,0.009331,0.101882,0.048838,310.578679,25.810373,0.999621,0.992583,0.003360,0.451700,0.000005,-0.000011,0.000006,0.000007,-0.000014,18.990819,0.000014,
2146,2098,-2.35730243737975,-11.9519184567413,0.0156996507565168,0.000989,-0.001439,0.001614,0.039962,-0.016338,329.953219,24.021796,0.999123,0.982815,0.005215,0.369557,0.000285,0.000295,0.000077,0.000367,0.000213,46.724275,0.000587,
2341,3208,1.69369310641374,12.2455142708205,0.0375973568403651,0.003094,-0.000367,0.005639,0.122819,0.030904,311.809289,25.533097,0.999633,0.992966,0.003439,0.488087,0.000013,0.000001,0.000010,0.000018,-0.000005,28.941045,0.000019,
2386,3058,2.69833942626065,8.99627792447952,0.0163399697847808,0.003203,-0.000341,0.007168,0.121607,0.045909,314.094900,25.413124,0.999661,0.991891,0.003633,0.421702,0.000014,-0.000009,0.000002,0.000014,-0.000009,6.098028,0.000014,
2251,3133,-0.247283444944649,10.6125480376318,0.0294566065774688,0.002799,-0.000311,0.006330,0.108294,0.045989,313.055605,25.048554,0.999371,0.991368,0.003786,0.436570,0.000002,-0.000005,0.000005,0.000004,-0.000007,26.502446,0.000007,
2491,2458,5.10282698333016,-4.06958751604913,-0.00407222968641463,0.002588,-0.000602,0.004525,0.101049,0.036775,323.864926,23.397392,0.999185,0.984918,0.004721,0.426273,0.000117,-0.000027,0.000056,0.000136,-0.000046,18.872956,0.000138,
2356,2128,2.22198967918408,-11.2982421488783,0.0137769440586908,0.002281,-0.001505,-0.001282,0.108323,-0.052527,329.153779,22.802907,0.999175,0.981470,0.005327,0.369475,0.000264,0.000303,-0.000026,0.000316,0.000251,-63.807003,0.000569,
2281,2773,0.465723825636747,2.7955550134727,-0.0169370477095754,0.002515,-0.000627,0.005211,0.098081,0.025468,318.479950,24.519333,0.999318,0.987889,0.004234,0.418124,0.000001,0.000019,0.000007,0.000021,-0.000001,71.377951,0.000024,
2326,3163,1.3759712399334,11.2692702239341,0.031856720879091,0.003118,-0.000460,0.006250,0.122013,0.035905,312.503455,25.425778,0.999623,0.993380,0.003500,0.427344,0.000011,-0.000003,0.000005,0.000013,-0.000005,16.226060,0.000013,
2041,3253,-4.81889465725451,13.1940707238183,0.0465502172282868,0.003072,-0.000131,0.006215,0.124784,0.058696,312.097591,24.062403,0.999612,0.994532,0.002988,0.491817,0.000017,-0.000028,-0.000012,0.000020,-0.000031,-13.771794,0.000032,
2326,2923,1.417654442657,6.05962890007159,-0.0025571948031029,0.002553,-0.000044,0.006130,0.096397,0.051409,316.113220,24.853786,0.998756,0.986988,0.004543,0.478647,-0.000004,0.000003,0.000008,0.000008,-0.000009,56.951532,0.000010,
2206,2773,-1.16456850020128,2.79266019923332,-0.0179228657602835,0.002617,-0.000281,0.002249,0.113311,0.043686,318.641357,24.502056,0.999355,0.989612,0.004171,0.407658,-0.000004,0.000016,0.000004,0.000016,-0.000005,79.240972,0.000017,
2206,2248,-1.07423824300723,-8.66560625558002,-0.000726052281322609,0.001864,-0.001241,0.001635,0.079885,-0.010387,327.249496,23.833326,0.998901,0.982082,0.005334,0.398378,0.000105,0.000097,0.000017,0.000119,0.000084,38.320789,0.000204,
2221,2488,-0.788856685096803,-3.41922961788318,-0.00768142131414606,0.002284,-0.000629,0.004326,0.090885,0.029987,323.288145,24.088525,0.999362,0.985989,0.004550,0.446163,0.000009,0.000019,-0.000006,0.000022,0.000006,-65.117993,0.000030,
2281,3208,0.391822437368194,12.2407880297192,0.0489692734175264,0.003029,-0.000365,0.007506,0.114478,0.040196,311.946255,25.352565,0.999825,0.994961,0.002906,0.383940,0.000012,0.000000,0.000012,0.000020,-0.000007,31.304066,0.000020,
2371,2188,2.53833285554804,-9.98236894617337,0.0123472745201525,0.002488,-0.001207,-0.001787,0.119779,-0.018240,328.191193,22.900577,0.999129,0.981235,0.005295,0.395257,0.000205,0.000178,-0.000023,0.000218,0.000165,-29.856553,0.000385,
2356,3043,2.04836633242664,8.66863846421545,0.00735318661878637,0.002985,-0.000160,0.005648,0.117600,0.058918,314.250292,25.236998,0.999605,0.991448,0.003699,0.470809,0.000009,0.000000,0.000000,0.000009,0.000000,2.003987,0.000011,
2311,2968,1.08525432864558,7.03709782835028,0.00822866225564667,0.003472,-0.000033,0.002461,0.151486,0.046021,315.533358,25.033736,0.999910,0.997404,0.002522,0.356777,0.000000,-0.000003,0.000000,0.000000,-0.000003,-8.575181,0.000003,
2266,3118,0.0814289716756456,10.2882781477881,0.0326042391371288,0.003005,-0.000128,0.006618,0.116639,0.054565,313.308014,25.092078,0.999693,0.993202,0.003413,0.439725,0.000012,-0.000005,0.000001,0.000012,-0.000005,2.997629,0.000012,
2491,2473,5.09986754652207,-3.74143428912438,-0.00703226326135109,0.002582,-0.000099,-0.000003,0.118306,0.032551,323.613850,23.460200,0.999239,0.984963,0.004738,0.419496,0.000092,-0.000041,0.000046,0.000107,-0.000055,17.232530,0.000107,
2206,2698,-1.15267534807585,1.16031983596577,-0.0352030584701879,0.002712,-0.000130,0.001176,0.121012,0.025197,319.723400,24.313415,0.999373,0.991445,0.003791,0.493991,-0.000001,0.000032,0.000006,0.000033,-0.000002,79.925523,0.000037,
2461,2158,4.51079780985953,-10.6408089175483,0.0119492253292606,0.002743,-0.000917,-0.001530,0.130827,-0.023566,328.811447,22.353205,0.999016,0.974610,0.005940,0.355915,0.000306,0.000263,-0.000059,0.000347,0.000222,-35.031970,0.000574,
2131,3073,-2.84090170134667,9.30232201129748,0.0252837125554493,0.002779,-0.000106,0.007279,0.106462,0.054681,314.376100,24.544229,0.999667,0.993986,0.003386,0.432407,0.000008,-0.000003,0.000004,0.000009,-0.000004,16.704008,0.000009,
2236,2953,-0.542742632675843,6.70650899799219,-0.000646227062759408,0.002920,0.000141,0.003216,0.124225,0.051306,315.790723,24.772277,0.999403,0.991865,0.003756,0.413318,0.000000,0.000005,0.000012,0.000014,-0.000010,50.813446,0.000015,
2311,3163,1.05023814480212,11.2678942753248,0.0340388596471826,0.002967,-0.000336,0.006708,0.113812,0.052260,312.523800,25.346281,0.999631,0.992641,0.003576,0.456569,0.000010,-0.000004,0.000004,0.000011,-0.000005,14.748684,0.000011,
2281,2953,0.434536358700871,6.70962013233342,-0.00671758164008907,0.003008,0.000103,0.002388,0.130625,0.050595,315.664799,24.859994,0.999267,0.989097,0.004111,0.432164,0.000010,0.000005,0.000008,0.000016,-0.000001,34.595224,0.000018,
2101,2428,-3.39064286964903,-4.73053129212043,-0.00415890534219443,0.001982,-0.000242,0.005119,0.076125,0.066144,324.702090,24.364914,0.999304,0.987413,0.004461,0.456834,0.000045,0.000020,0.000007,0.000047,0.000018,14.085197,0.000067,
2176,2248,-1.72771289552416,-8.66605649239853,0.00364474064610931,0.001748,-0.000742,-0.001257,0.083825,0.013254,327.378520,23.939965,0.998852,0.980663,0.005363,0.451537,0.000113,0.000097,0.000023,0.000129,0.000081,35.265643,0.000212,
2281,2788,0.463554368251863,3.12165391447575,-0.012424739546816,0.002851,-0.000872,0.006857,0.107984,0.027671,318.283575,24.545942,0.999180,0.986629,0.004440,0.421539,0.000005,0.000021,0.000008,0.000025,0.000002,66.758828,0.000030,
2401,2983,3.03815237496865,7.3685600380191,0.00135523195598353,0.003137,-0.000240,0.002521,0.135196,0.041232,315.221671,25.209956,0.999711,0.992289,0.003622,0.448200,0.000009,-0.000011,0.000008,0.000012,-0.000014,19.818559,0.000015,
2356,3283,2.00180210170803,13.8757356596203,0.000883672692509663,0.002828,-0.000648,0.008744,0.099422,0.038214,310.244048,25.841034,0.999558,0.992333,0.003444,0.447762,0.000001,-0.000012,0.000005,0.000003,-0.000014,17.359193,0.000015,
2386,3073,2.69486732765768,9.32222861530597,0.0124994786459638,0.002951,-0.000132,0.007420,0.109257,0.060537,313.804672,25.433698,0.999641,0.991256,0.003717,0.458272,0.000015,-0.000008,0.000004,0.000016,-0.000008,8.858135,0.000016,
2341,3223,1.69050539549584,12.5721074370401,0.033111000839483,0.003025,-0.000169,0.004864,0.122486,0.045323,311.524617,25.649050,0.999534,0.992172,0.003469,0.421762,0.000010,0.000004,0.000008,0.000015,-0.000001,33.489326,0.000017,
2116,2488,-3.07378108702993,-3.42155827819072,-0.0103032309144169,0.002311,-0.000734,0.002688,0.098090,0.000675,323.635817,24.293190,0.999239,0.987166,0.004493,0.440865,0.000036,0.000004,-0.000012,0.000040,-0.000001,-18.520854,0.000046,
2146,2113,-2.3588597170204,-11.6249343610296,0.0276096215702069,0.000885,-0.001140,-0.000938,0.043010,-0.016671,329.814916,24.001313,0.999271,0.983608,0.005149,0.400063,0.000270,0.000278,0.000073,0.000347,0.000201,46.574629,0.000554,
2326,3178,1.37313298153257,11.594589159665,0.0298663689553109,0.003347,-0.000598,0.007699,0.127451,0.025362,312.246523,25.451648,0.999656,0.993654,0.003474,0.424179,0.000011,-0.000005,0.000004,0.000013,-0.000006,14.268948,0.000013,
2311,2668,1.13822468605351,0.510838981405811,-0.0189710417917013,0.002969,-0.000016,0.000625,0.134398,0.052081,320.174939,24.343727,0.999762,0.991706,0.003717,0.411752,0.000010,0.000045,0.000005,0.000046,0.000009,82.589341,0.000059,
2341,2788,1.76890710775328,3.12490326256475,-0.0106553976406758,0.002865,-0.000104,0.005326,0.113188,0.049981,318.257662,24.612891,0.999593,0.992824,0.003580,0.422078,0.000018,0.000026,0.000009,0.000032,0.000012,57.298526,0.000045,
2251,3148,-0.249632873904392,10.9374539697811,0.0318396727589061,0.002871,-0.000429,0.005007,0.115840,0.018932,312.837999,25.070268,0.998551,0.987586,0.004510,0.409946,0.000005,-0.000001,0.000008,0.000010,-0.000007,34.448377,0.000010,
2356,2143,2.21960939625678,-10.9690660510576,0.013795497544038,0.002684,-0.001460,-0.001937,0.129079,-0.019734,328.932586,22.833985,0.998770,0.977903,0.005761,0.412844,0.000245,0.000262,-0.000022,0.000277,0.000229,-55.656552,0.000507,
2371,2203,2.53566690648279,-9.65352175544106,0.00882013384619995,0.002859,-0.001016,-0.003064,0.141346,-0.005526,327.941231,22.906157,0.998868,0.979149,0.005603,0.446129,0.000191,0.000162,-0.000014,0.000197,0.000156,-22.093665,0.000354,
2491,2488,5.09733780085165,-3.41446897791998,0.000911505473482066,0.002657,-0.000376,0.002256,0.113029,0.033037,323.431604,23.514536,0.999414,0.985020,0.004628,0.425498,0.000079,-0.000036,0.000039,0.000091,-0.000048,17.118220,0.000091,
2281,3223,0.388880927669184,12.5653979456462,0.0496072048056249,0.002807,-0.000182,0.007904,0.103071,0.059759,311.694544,25.308037,0.999814,0.994607,0.003059,0.474424,0.000011,0.000009,0.000009,0.000019,0.000001,40.937046,0.000023,
2386,2023,2.89872015236854,-13.604647835327,0.021269973712549,0.002695,-0.002394,-0.002848,0.132461,-0.107890,330.949932,22.318354,0.998636,0.968652,0.006784,0.299142,0.000456,0.000412,-0.000054,0.000493,0.000375,-33.888788,0.000870,
2281,2803,0.460407949719947,3.44940923619244,-0.0198481185973947,0.002954,-0.000460,0.006668,0.113527,0.054002,317.982193,24.612865,0.999215,0.988045,0.004329,0.408796,0.000005,0.000010,0.000010,0.000018,-0.000002,51.942907,0.000020,
2221,2503,-0.791668590314696,-3.09164094889897,-0.0113040403152809,0.002415,-0.000672,0.005701,0.092512,0.026186,323.016782,24.100179,0.999377,0.986661,0.004477,0.450643,0.000008,0.000020,0.000003,0.000020,0.000008,78.007810,0.000029,
2326,2938,1.41545180114437,6.38535954926545,0.0014061172221318,0.002853,-0.000361,0.006161,0.109888,0.023288,315.915318,24.912680,0.998962,0.987567,0.004440,0.425250,-0.000001,0.000005,0.000005,0.000008,-0.000003,60.484371,0.000008,
2131,3088,-2.84260528435915,9.62708830432724,0.0288396586327622,0.003027,-0.000018,0.002597,0.131968,0.041796,314.186713,24.529277,0.999841,0.995280,0.003111,0.439403,0.000006,0.000000,0.000002,0.000007,-0.000001,19.960326,0.000008,
2311,3178,1.0475781142307,11.5931061983695,0.0354094129913847,0.003071,-0.000489,0.007821,0.114739,0.040008,312.290596,25.383534,0.999682,0.992954,0.003520,0.437970,0.000010,-0.000007,0.000003,0.000010,-0.000007,10.199998,0.000011,
2341,3238,1.68713492524931,12.89797971324,0.028981886018471,0.002894,0.000110,0.006060,0.112452,0.068460,311.233458,25.696274,0.999471,0.991291,0.003563,0.432914,0.000008,-0.000004,0.000006,0.000011,-0.000006,22.822740,0.000011,
2311,2983,1.08239090713075,7.36164773572499,0.0136277489351073,0.003152,-0.000282,0.004820,0.128614,0.039669,315.311402,24.982897,0.999746,0.994752,0.003025,0.432689,0.000004,-0.000001,0.000004,0.000006,-0.000004,28.818684,0.000006,
2461,2173,4.5074173284802,-10.3114806371055,0.00859334887235264,0.002716,-0.000844,-0.001067,0.127887,-0.011939,328.538027,22.395589,0.998998,0.977509,0.005647,0.382450,0.000281,0.000245,-0.000052,0.000317,0.000208,-35.295135,0.000529,
2356,3298,1.9989576360396,14.2018268865145,-0.0044444859040027,0.003115,-0.000391,0.006947,0.119173,0.054733,309.972122,25.927108,0.999711,0.992359,0.003510,0.415457,-0.000002,-0.000005,-0.000005,0.000002,-0.000009,-38.250390,0.000010,
2236,2968,-0.545262527936554,7.03193122745478,0.00359423480176702,0.002925,0.000077,0.005688,0.116420,0.059506,315.573852,24.774796,0.999421,0.991609,0.003764,0.439370,0.000000,0.000000,0.000010,0.000010,-0.000010,45.004950,0.000012,
2326,3193,1.37097928802662,11.918516944992,0.040864963711158,0.003251,-0.000880,0.008785,0.119172,0.015692,312.085252,25.428576,0.999731,0.994536,0.003188,0.470612,0.000011,-0.000005,0.000005,0.000012,-0.000006,15.326080,0.000012,
2146,2128,-2.36074694600527,-11.2953566611376,0.0242858833044579,0.001504,-0.000787,-0.003052,0.077883,-0.019441,329.580720,24.058796,0.999172,0.981347,0.005356,0.350741,0.000249,0.000260,0.000072,0.000327,0.000182,47.014601,0.000516,
2116,2503,-3.07635053574659,-3.09369510242651,-0.0167993630623755,0.002325,-0.000112,-0.000996,0.109847,0.017558,323.350739,24.281516,0.999025,0.984670,0.004754,0.474069,0.000040,0.000004,-0.000010,0.000043,0.000002,-14.820579,0.000050,
2341,2803,1.76559752741447,3.45172931988969,-0.0153130726880022,0.002726,-0.000398,0.005249,0.107015,0.051463,317.968088,24.641265,0.999484,0.992293,0.003692,0.432057,0.000017,0.000016,0.000010,0.000027,0.000006,42.833606,0.000035,
2281,3238,0.385334981314305,12.8915226365532,0.0375546031321505,0.002898,-0.000370,0.008075,0.106612,0.051973,311.350827,25.362491,0.999808,0.993450,0.003279,0.438815,0.000010,-0.000001,0.000007,0.000014,-0.000004,26.049022,0.000014,
2491,2503,5.09392252491995,-3.08627118942071,-0.00243495806620331,0.002775,-0.000497,0.004205,0.110908,0.039407,323.157630,23.577249,0.999457,0.985747,0.004624,0.429367,0.000072,-0.000031,0.000028,0.000079,-0.000039,14.424421,0.000079,
2371,1993,2.57696693010712,-14.2649125652897,0.0340263039208821,0.002443,-0.002915,0.001052,0.106819,-0.086520,331.502615,22.300604,0.998882,0.962542,0.007393,0.350508,0.000490,0.000450,-0.000051,0.000525,0.000416,-34.105976,0.000942,
2386,2038,2.89545417673688,-13.2746954693618,0.0191526690790624,0.002598,-0.002062,-0.001428,0.123089,-0.070017,330.680991,22.353020,0.998848,0.973289,0.006301,0.349327,0.000430,0.000383,-0.000058,0.000469,0.000344,-33.863983,0.000816,
2341,3253,1.68331518071722,13.2229593917775,0.0185853455658389,0.002834,-0.000530,0.007815,0.103310,0.039841,310.891314,25.682191,0.999508,0.991994,0.003467,0.453320,0.000005,-0.000009,0.000007,0.000008,-0.000012,22.797546,0.000012,
2386,3088,2.69214485880316,9.64680112756948,0.0194843434340441,0.002627,-0.000668,0.008042,0.091844,0.022528,313.600898,25.453089,0.999429,0.990015,0.003932,0.442953,0.000016,-0.000008,0.000000,0.000016,-0.000008,0.199246,0.000016,
2356,2158,2.21686364356426,-10.640174681068,0.0189782645771288,0.002374,-0.001249,-0.001925,0.114948,-0.014943,328.719551,22.927644,0.999207,0.981113,0.005401,0.365563,0.000223,0.000218,-0.000023,0.000243,0.000198,-41.958741,0.000442,
2311,3193,1.04487716389345,11.9183505822957,0.0396837223748321,0.002899,-0.000271,0.008672,0.104028,0.061194,312.069792,25.411103,0.999703,0.993159,0.003386,0.462419,0.000010,-0.000005,0.000004,0.000011,-0.000006,14.369310,0.000011,
2401,2998,3.03483675708454,7.69525321532026,-0.00034509348819256,0.002935,-0.000302,0.003173,0.123465,0.029484,314.950107,25.319257,0.999578,0.989838,0.004005,0.371673,0.000012,-0.000011,0.000009,0.000015,-0.000014,19.075286,0.000017,
2251,3163,-0.25171388885439,11.2630336990355,0.0393219986417535,0.003070,-0.000405,0.006762,0.119355,0.040085,312.658345,25.140130,0.999186,0.989743,0.003999,0.383241,0.000006,-0.000001,0.000009,0.000013,-0.000007,34.601293,0.000013,
2326,2953,1.41290544249463,6.71250084300289,-0.000839438467892251,0.003153,0.000130,0.004523,0.129647,0.054610,315.670678,25.002377,0.999111,0.987560,0.004559,0.401069,-0.000002,0.000000,0.000002,0.000001,-0.000003,60.120963,0.000003,
2176,2263,-1.72996865891452,-8.33711639728887,0.00783993919304748,0.001804,-0.000529,0.000218,0.081951,0.035214,327.169326,24.043175,0.999001,0.979940,0.005534,0.384632,0.000105,0.000092,0.000022,0.000121,0.000076,36.640748,0.000198,
2311,2683,1.1356305754645,0.836614161193197,-0.0167868243817111,0.002997,-0.000037,0.001002,0.134407,0.054937,319.949932,24.292073,0.999711,0.991079,0.003824,0.498905,0.000011,0.000051,0.000001,0.000051,0.000011,88.119924,0.000066,
2461,2188,4.50361647569984,-9.98165567647427,-0.0035607624676004,0.003012,-0.001257,-0.000445,0.138929,-0.018622,328.205208,22.414693,0.999604,0.987290,0.004719,0.414246,0.000270,0.000226,-0.000045,0.000298,0.000197,-31.967656,0.000499,
2281,2818,0.458482721278244,3.77467249195223,-0.0122172594158201,0.002926,-0.000243,0.003155,0.123986,0.022083,317.812842,24.628850,0.999255,0.988938,0.004090,0.388421,0.000006,0.000017,0.000012,0.000025,-0.000002,57.318113,0.000027,
2221,2518,-0.793971220841566,-2.76463177348213,-0.00934394536534455,0.002420,-0.000241,0.003626,0.099563,0.043022,322.797382,24.093731,0.999256,0.985839,0.004543,0.494197,0.000011,0.000018,0.000007,0.000023,0.000006,59.330422,0.000031,
2281,3253,0.381583231860702,13.2176379072636,0.020208287145465,0.003089,-0.000427,0.007145,0.118514,0.042085,310.971029,25.394099,0.999734,0.992588,0.003445,0.423549,0.000009,-0.000004,0.000008,0.000013,-0.000008,25.489524,0.000013,
2386,2053,2.89359655270939,-12.9462931000584,0.0336664696533262,0.002557,-0.001860,-0.000554,0.118163,-0.041353,330.555228,22.446848,0.999213,0.977524,0.005907,0.330301,0.000405,0.000362,-0.000055,0.000443,0.000325,-34.429606,0.000770,
2131,3103,-2.84529534579589,9.95198855270748,0.0342076247756609,0.002778,-0.000411,0.007153,0.106712,0.044546,313.961681,24.526067,0.999804,0.995598,0.002986,0.449804,0.000008,0.000006,0.000005,0.000012,0.000002,39.221782,0.000015,
2386,2263,2.84939175726584,-8.335895782619,-0.0143856062187524,0.002390,-0.000222,-0.003579,0.122211,0.025401,326.768284,23.054984,0.999054,0.982400,0.005239,0.436719,0.000140,0.000106,-0.000002,0.000140,0.000106,-2.897092,0.000247,
2236,2983,-0.547210948384368,7.35735278783897,0.0104662070810946,0.003085,-0.000058,0.004883,0.126368,0.054827,315.396669,24.811581,0.999463,0.991666,0.003766,0.418216,0.000000,0.000003,0.000012,0.000013,-0.000010,49.283815,0.000014,
2491,2518,5.0902853996777,-2.75876619198149,-0.00827673306156385,0.002817,-0.000588,0.005490,0.107921,0.040201,322.862280,23.564844,0.999512,0.986097,0.004442,0.502725,0.000059,-0.000025,0.000031,0.000070,-0.000035,18.257347,0.000070,
2341,3268,1.67983001136177,13.5489624841476,0.00807907109594908,0.003125,-0.000414,0.009651,0.110389,0.055698,310.563600,25.722694,0.999527,0.992397,0.003381,0.464153,0.000001,-0.000011,0.000010,0.000007,-0.000017,28.887884,0.000017,
2146,2143,-2.36412392151332,-10.9660882878234,0.00939300544928301,0.001546,-0.000921,-0.002882,0.079255,-0.013156,329.217362,23.960952,0.999399,0.981055,0.005322,0.466465,0.000229,0.000226,0.000072,0.000300,0.000155,44.223261,0.000463,
2311,2998,1.07969755670294,7.68727172117817,0.0171154461658602,0.003088,-0.000225,0.006359,0.120491,0.059813,315.087447,24.994870,0.999897,0.996322,0.002863,0.472434,0.000003,-0.000003,0.000003,0.000004,-0.000004,21.161165,0.000005,
2311,3208,1.04250593695924,12.2436638385601,0.0434967060241434,0.002902,-0.000151,0.006983,0.109994,0.055380,311.861828,25.472457,0.999716,0.992553,0.003399,0.426170,0.000009,-0.000002,0.000008,0.000013,-0.000006,26.921480,0.000013,
2356,2173,2.21366760742101,-10.3125924976292,0.0176161364507266,0.002148,-0.001185,-0.001357,0.102618,-0.026804,328.454680,22.853618,0.999306,0.980888,0.005389,0.469518,0.000206,0.000192,-0.000022,0.000222,0.000176,-36.439796,0.000399,
2341,2818,1.76279503836591,3.77765240786436,-0.0155638324504821,0.002877,-0.000710,0.006783,0.108490,0.033887,317.723429,24.644222,0.999225,0.988689,0.004090,0.447880,0.000013,0.000020,0.000009,0.000026,0.000006,56.515916,0.000035,
2281,3268,0.378395934348095,13.5426620233973,0.0140372850670474,0.003123,-0.000323,0.007544,0.118810,0.047533,310.673571,25.377469,0.999751,0.992987,0.003397,0.471939,0.000007,0.000002,0.000009,0.000014,-0.000005,36.646683,0.000014,
2386,3103,2.68992202388702,9.97199350826048,0.0222812056914563,0.002916,-0.000732,0.005895,0.112830,0.018148,313.399917,25.472594,0.999114,0.988350,0.004185,0.461298,0.000021,0.000000,0.000002,0.000021,-0.000001,6.274690,0.000024,
2401,3013,3.03206705187586,8.02056284456647,0.00440107823698099,0.003006,-0.000592,0.006902,0.113112,0.026497,314.734445,25.339908,0.999556,0.989127,0.004020,0.392816,0.000016,-0.000008,0.000004,0.000016,-0.000009,9.622215,0.000016,
2341,3283,1.67659666100754,13.8741408540656,-0.000225344455088816,0.003244,-0.000566,0.008141,0.121032,0.031428,310.258435,25.744273,0.999615,0.993314,0.003207,0.453335,-0.000001,-0.000010,0.000012,0.000007,-0.000019,35.325816,0.000019,
2386,2068,2.88951572087821,-12.6167723153041,0.0219057422180526,0.002307,-0.001940,-0.000309,0.105834,-0.052958,330.203605,22.395128,0.999220,0.977844,0.005796,0.417615,0.000380,0.000358,-0.000050,0.000420,0.000318,-38.842357,0.000741,
2461,2203,4.49959141405527,-9.65227137632908,-0.00897475276616433,0.002379,-0.000843,-0.001529,0.114261,-0.020418,327.892727,22.466356,0.999180,0.981785,0.005301,0.418063,0.000259,0.000202,-0.000035,0.000275,0.000185,-25.411131,0.000463,
2281,2833,0.455478431759683,4.10093272979931,-0.0145226820818039,0.002944,-0.000394,0.005025,0.118546,0.022295,317.543927,24.632874,0.999439,0.990919,0.003893,0.412162,0.000003,0.000022,0.000017,0.000032,-0.000006,59.556684,0.000034,
2251,3178,-0.254012885159622,11.5876089467505,0.0444049017668249,0.003174,-0.000226,0.007863,0.120585,0.048864,312.456828,25.118353,0.999453,0.991238,0.003592,0.436123,0.000007,-0.000002,0.000009,0.000013,-0.000008,31.745536,0.000013,
2311,3223,1.03965583633049,12.5684202801349,0.0423598925331135,0.002872,-0.000175,0.006311,0.110887,0.053330,311.607523,25.453687,0.999619,0.992898,0.003306,0.473769,0.000007,0.000004,0.000005,0.000011,0.000001,34.722367,0.000013,
2491,2533,5.08717733766967,-2.43085646007089,-0.010371966674029,0.002841,-0.000562,0.003941,0.114936,0.019007,322.607998,23.650652,0.999676,0.988976,0.003991,0.455655,0.000058,-0.000010,0.000036,0.000073,-0.000025,23.090029,0.000074,
2311,3013,1.07586849781479,8.01416395326362,0.00664180502087675,0.002946,-0.000663,0.008017,0.108082,0.031906,314.742012,25.081703,0.999571,0.990674,0.003711,0.389029,0.000003,-0.000005,0.000000,0.000003,-0.000005,2.139248,0.000005,
2326,2968,1.4100025807738,7.03913513849582,-0.00340037585050368,0.003125,0.000015,0.002922,0.133881,0.050318,315.408242,25.083357,0.999711,0.994913,0.003058,0.349421,-0.000003,-0.000002,-0.000001,-0.000001,-0.000004,-56.222246,0.000005,
2176,2278,-1.73219719068535,-8.01088233321804,0.0104578517492655,0.002028,-0.001528,0.002342,0.085331,0.003538,326.953886,23.941348,0.998738,0.979948,0.005590,0.469252,0.000093,0.000073,0.000013,0.000099,0.000067,26.030842,0.000167,
2281,3283,0.375559066877695,13.867856650772,0.00992802300595486,0.003345,-0.000289,0.007749,0.128316,0.041105,310.402468,25.404158,0.999479,0.991947,0.003490,0.464991,0.000004,0.000006,0.000010,0.000015,-0.000005,47.198157,0.000015,
2356,2188,2.21083866799344,-9.98237129683436,0.0203373560551086,0.002253,-0.001293,0.002499,0.093915,-0.015832,328.225734,23.046254,0.999207,0.982598,0.005181,0.329362,0.000189,0.000178,-0.000022,0.000207,0.000160,-37.936704,0.000368,
2131,3118,-2.84830515298659,10.2777946380325,0.0303744143102449,0.002564,-0.000249,0.007905,0.094684,0.060052,313.672368,24.539600,0.999721,0.995443,0.003057,0.456322,0.000005,0.000009,0.000004,0.000011,0.000003,57.760916,0.000015,
2146,2158,-2.36689910744141,-10.6358590302234,0.0088595880978346,0.001423,-0.001234,-0.000188,0.065402,-0.013152,328.957162,24.117503,0.999703,0.965377,0.006472,0.320526,0.000214,0.000185,0.000061,0.000263,0.000137,38.476378,0.000406,
2236,2998,-0.55005594139271,7.68245555103379,0.00930685875863446,0.003008,-0.000243,0.005378,0.121148,0.043021,315.137381,24.775006,0.999445,0.990562,0.003886,0.463325,-0.000005,-0.000001,0.000010,0.000008,-0.000013,50.493262,0.000013,
2341,2833,1.76035705268844,4.10452088614901,-0.0135477058443598,0.003084,-0.000665,0.006464,0.119097,0.026759,317.506210,24.745141,0.999602,0.990890,0.003813,0.376209,0.000007,0.000032,0.000012,0.000037,0.000002,67.525731,0.000044,
2386,2083,2.88667863964141,-12.2868209542759,0.0216988510190959,0.002426,-0.001667,0.000259,0.109367,-0.019228,329.963173,22.471708,0.999036,0.975166,0.005937,0.421514,0.000356,0.000343,-0.000044,0.000394,0.000305,-41.021488,0.000701,
2341,3298,1.6733750489759,14.1995011545802,-0.00334140897359703,0.002977,-0.000459,0.006578,0.114282,0.042827,309.978984,25.779784,0.999693,0.992601,0.003346,0.464324,-0.000005,-0.000001,0.000005,0.000003,-0.000008,56.449880,0.000009,
2386,3118,2.68719178760078,10.2984252178536,0.0223183371432469,0.003039,-0.000409,0.005302,0.120760,0.030114,313.161968,25.576516,0.999563,0.991976,0.003578,0.411416,0.000029,0.000006,0.000006,0.000030,0.000005,14.015041,0.000038,
2311,3238,1.03607561218246,12.8946315989586,0.0347675473848312,0.002862,-0.000273,0.009184,0.100555,0.050013,311.287130,25.537912,0.999414,0.991918,0.003499,0.416863,0.000005,-0.000005,0.000003,0.000006,-0.000006,14.560857,0.000007,
2401,3028,3.02946005447234,8.34605051680787,0.00689682248184909,0.003078,-0.000545,0.006334,0.118535,0.033286,314.515523,25.355645,0.999582,0.989494,0.004000,0.428583,0.000016,-0.000002,0.000001,0.000016,-0.000002,4.429307,0.000017,
2281,2848,0.451999071735031,4.4285392077437,-0.0154976837249023,0.002612,-0.000340,0.009842,0.087234,0.050367,317.259362,24.747577,0.999563,0.992795,0.003748,0.353137,0.000007,0.000018,0.000019,0.000032,-0.000008,52.619138,0.000034,
2386,3178,2.67618987719044,11.5996752350502,0.0357209851235893,0.002926,-0.000526,0.009603,0.100096,0.036843,312.270448,25.738365,0.999527,0.991503,0.003618,0.424779,0.000024,-0.000008,0.000005,0.000025,-0.000009,8.716051,0.000026,
2491,2548,5.08372701671932,-2.10314776598886,-0.0119238393920114,0.002583,-0.000708,0.003658,0.104129,0.015899,322.340311,23.709933,0.999673,0.988441,0.004175,0.453157,0.000055,-0.000021,0.000029,0.000065,-0.000031,18.777617,0.000065,
2281,3298,0.372328324221812,14.1938386077073,0.00240427707581148,0.003318,-0.000363,0.006483,0.131342,0.042533,310.095761,25.481634,0.999640,0.993711,0.003193,0.415158,0.000006,0.000009,0.000001,0.000009,0.000005,66.284294,0.000015,
2356,1993,2.24812386227189,-14.2642723862462,0.0275677867194872,0.001900,-0.003211,-0.000801,0.088382,-0.113777,331.423884,22.378828,0.998813,0.963279,0.007456,0.351817,0.000472,0.000448,-0.000032,0.000494,0.000426,-34.976178,0.000921,
2311,3028,1.07388846779367,8.33891188178975,0.0155829647000587,0.003026,-0.000686,0.007405,0.113843,0.019242,314.577984,25.090051,0.999646,0.990396,0.003766,0.399339,0.000006,-0.000007,0.000000,0.000006,-0.000007,-1.424417,0.000007,
2311,3253,1.03251081298295,13.2204266404449,0.0237270903570561,0.002828,-0.000261,0.008091,0.102835,0.060194,310.950483,25.555837,0.999504,0.991894,0.003488,0.440115,0.000002,-0.000009,0.000003,0.000003,-0.000009,12.455741,0.000010,
2356,2203,2.20694206291905,-9.6527009296471,0.00679944751487938,0.002227,-0.001187,0.002402,0.093094,0.001015,327.869836,23.017533,0.999116,0.982536,0.005198,0.416858,0.000174,0.000162,-0.000016,0.000185,0.000151,-34.461698,0.000337,
2341,2848,1.7568263184601,4.4308450725769,-0.019698026815206,0.002929,-0.000604,0.007633,0.107927,0.023101,317.199184,24.735726,0.999676,0.991364,0.003690,0.418465,0.000008,0.000031,0.000012,0.000036,0.000002,67.035966,0.000043,
2176,2293,-1.73492727363029,-7.68174982920483,0.00996179456325308,0.001824,-0.001212,0.002232,0.076398,0.018916,326.698496,24.030912,0.998715,0.981613,0.005424,0.409337,0.000083,0.000068,0.000014,0.000091,0.000060,29.955261,0.000152,
2146,2173,-2.3668518444134,-10.3119748105064,0.0377795342922127,0.001822,-0.000901,-0.002228,0.089988,-0.001087,328.982514,24.000417,0.999831,0.944582,0.008051,0.459203,0.000202,0.000167,0.000059,0.000246,0.000123,36.523513,0.000376,
2491,2563,5.08015866543259,-1.7749493511033,-0.0150123677181568,0.002520,-0.000474,0.005577,0.094015,0.036940,322.060037,23.781495,0.999528,0.988831,0.004367,0.462527,0.000060,-0.000002,0.000028,0.000071,-0.000013,21.196382,0.000075,
2296,1993,0.936438826548628,-14.2620158003691,0.0261053480217583,0.001640,-0.002917,-0.000859,0.076762,-0.087824,331.416373,22.808552,0.999156,0.965539,0.007157,0.373523,0.000386,0.000398,-0.000033,0.000426,0.000358,-50.227075,0.000785,
2236,3013,-0.552668552848683,8.00845939997985,0.0100667263924947,0.003017,-0.000054,0.005678,0.120693,0.053429,314.898224,24.816312,0.999337,0.988538,0.004132,0.453058,-0.000005,-0.000008,0.000005,-0.000001,-0.000012,37.306463,0.000015,
2386,3133,2.68496398734629,10.6237140979608,0.0300107810021473,0.003154,-0.000327,0.005899,0.123961,0.035742,312.983928,25.632338,0.999683,0.992732,0.003482,0.403567,0.000030,0.000003,0.000006,0.000032,0.000002,11.407389,0.000038,
2281,2863,0.449385886686162,4.75454995033935,-0.016336002096125,0.002773,-0.000697,0.009745,0.094876,0.045634,317.015736,24.753670,0.999668,0.993031,0.003582,0.369799,0.000009,0.000015,0.000015,0.000027,-0.000004,50.325535,0.000029,
2401,3043,3.02719316279206,8.67132761744977,0.0152196837348129,0.002973,-0.000472,0.005070,0.118338,0.036188,314.339799,25.397816,0.999629,0.990758,0.003832,0.433876,0.000014,0.000004,0.000005,0.000016,0.000002,23.390510,0.000020,
2386,3193,2.67403203479846,11.9248534640426,0.0403427718861167,0.003234,-0.000373,0.008680,0.117722,0.052232,312.080824,25.768604,0.999506,0.991778,0.003475,0.452108,0.000022,-0.000008,0.000006,0.000024,-0.000009,11.145023,0.000024,
2311,3268,1.0296560366466,13.5459779870237,0.0156786311659971,0.003103,-0.000062,0.004604,0.127551,0.069684,310.661338,25.573651,0.999580,0.993018,0.003241,0.462581,0.000001,-0.000007,0.000005,0.000003,-0.000009,26.481598,0.000010,
2401,2098,3.21151961881315,-11.9569989315646,0.0157309419100216,0.002658,-0.001417,-0.001832,0.127621,-0.028945,329.704776,22.457247,0.998814,0.972257,0.006515,0.381815,0.000335,0.000323,-0.000058,0.000387,0.000271,-42.162002,0.000661,
2491,2578,5.07826016213619,-1.44796352050569,-0.00929844552376835,0.003178,-0.000662,0.005030,0.126188,0.016597,321.896367,23.865035,0.998933,0.981456,0.005242,0.417983,0.000058,-0.000006,0.000035,0.000073,-0.000021,23.623332,0.000076,
2341,2863,1.75447752673949,4.75646384229915,-0.01229028326253,0.002696,-0.000459,0.005823,0.103605,0.035513,317.012453,24.750881,0.999627,0.990832,0.003831,0.452013,0.000007,0.000025,0.000010,0.000029,0.000003,66.076289,0.000036,
2296,2008,0.933933041061419,-13.9320999157149,0.0251149438007019,0.001781,-0.002317,-0.002710,0.089688,-0.072666,331.179669,22.862456,0.998976,0.976972,0.005976,0.368404,0.000368,0.000380,-0.000025,0.000400,0.000348,-51.671379,0.000748,
2356,2218,2.20474578245366,-9.32495345826432,0.0145293425591149,0.002307,-0.001331,0.002927,0.094863,-0.004372,327.694179,23.063530,0.998665,0.978463,0.005779,0.406616,0.000161,0.000142,-0.000011,0.000166,0.000137,-24.462178,0.000304,
2176,2308,-1.73754659348017,-7.35338606730182,0.00755292263147567,0.001643,-0.000384,-0.000956,0.078270,0.032240,326.438332,24.038404,0.998684,0.981562,0.005393,0.429616,0.000072,0.000064,0.000007,0.000076,0.000060,30.328647,0.000136,
2146,2188,-2.36982636200763,-9.98353812177597,0.033326568303039,0.001750,-0.001218,0.000501,0.078325,-0.011197,328.692877,23.971010,0.999380,0.953721,0.007148,0.489142,0.000187,0.000162,0.000057,0.000232,0.000116,38.764945,0.000355,
2401,3253,2.98656230464093,13.2292649971861,0.0135875592865773,0.003450,-0.000060,0.005415,0.139373,0.053691,310.903892,26.018808,0.999529,0.991659,0.003557,0.451147,0.000019,-0.000021,0.000002,0.000019,-0.000021,2.628814,0.000023,
2236,3028,-0.55504216786905,8.33375158549615,0.0153180892254454,0.002919,-0.000281,0.005570,0.116505,0.052334,314.693210,24.837344,0.999477,0.990650,0.003755,0.451027,-0.000005,-0.000014,0.000003,-0.000004,-0.000015,18.712277,0.000020,
2386,3148,2.68255161859518,10.9484216624733,0.0353323623616006,0.003119,-0.000448,0.004577,0.127010,0.014936,312.786247,25.649394,0.999626,0.992114,0.003537,0.407789,0.000028,-0.000003,0.000007,0.000030,-0.000005,12.239233,0.000032,
2401,2338,3.16365467079407,-6.69667832964518,0.00815985987628665,0.002429,-0.000535,0.001960,0.103992,0.022250,325.740119,23.227729,0.998793,0.979670,0.005337,0.431204,0.000100,0.000094,0.000021,0.000119,0.000076,40.751031,0.000196,
2491,2593,5.07491128163169,-1.12069796046086,-0.00954627677219833,0.002754,-0.000839,0.002899,0.114849,0.006223,321.639043,23.916764,0.999816,0.994173,0.003539,0.415709,0.000059,-0.000008,0.000037,0.000075,-0.000025,24.170106,0.000077,
2401,2113,3.20886524035179,-11.6283505484386,0.0233349991631826,0.002497,-0.001496,0.000386,0.112201,-0.010966,329.510744,22.527239,0.998898,0.973960,0.006188,0.378353,0.000313,0.000313,-0.000052,0.000364,0.000261,-45.125066,0.000629,
2341,2878,1.75102691134034,5.08275739120505,-0.0227885890011521,0.002592,-0.000200,0.002253,0.111399,0.036329,316.687874,24.711676,0.999587,0.990321,0.003943,0.528529,0.000003,0.000014,0.000010,0.000020,-0.000003,60.036599,0.000022,
2401,3268,2.98188662602315,13.5551389207684,-0.000740656034281528,0.003019,-0.000543,0.007680,0.111150,0.043979,310.508821,26.053214,0.999654,0.991955,0.003568,0.451050,0.000015,-0.000031,0.000005,0.000015,-0.000031,5.638100,0.000031,
2416,2173,3.52331329775019,-10.3118598637067,0.0054570233074287,0.002389,-0.001858,0.000868,0.105406,-0.055049,328.406311,22.563089,0.998936,0.979211,0.005335,0.412526,0.000242,0.000216,-0.000031,0.000263,0.000195,-33.565758,0.000460,
2176,2323,-1.7406042772143,-7.02457396623143,-0.0067171360126963,0.001681,0.000056,-0.006373,0.096911,0.017437,326.096232,24.002880,0.998652,0.980950,0.005422,0.465016,0.000063,0.000058,0.000000,0.000063,0.000058,-1.411236,0.000121,
2266,3133,0.0790595894023909,10.6121744520606,0.0396024232692298,0.002929,-0.000351,0.007905,0.108748,0.036267,313.114112,25.036693,0.999678,0.994849,0.003147,0.501162,0.000009,-0.000006,0.000004,0.000010,-0.000007,13.598490,0.000010,
2446,2383,4.13656908427984,-5.71126936579861,0.00603931608077346,0.002287,-0.000753,0.002363,0.095719,0.015151,325.053691,23.263468,0.999782,0.987544,0.004565,0.383464,0.000124,0.000050,0.000029,0.000134,0.000041,19.011146,0.000183,
2176,2713,-1.80660190960052,1.48572213954145,-0.0212676780557217,0.002638,-0.000124,0.002711,0.113013,0.038400,319.679881,24.430934,0.999279,0.989114,0.004116,0.405448,-0.000005,0.000024,0.000000,0.000024,-0.000005,-89.934086,0.000025,
2506,2368,5.4509741581668,-6.04064202361116,0.00891019769380819,0.003097,-0.000456,-0.000278,0.142679,0.019262,325.521446,22.871298,0.998699,0.978884,0.005899,0.520407,0.000137,0.000098,0.000034,0.000157,0.000078,30.055123,0.000239,
2041,3268,-4.82202454375411,13.5197013308037,0.0437214939085493,0.002670,-0.000284,0.009173,0.098025,0.071844,311.801490,24.105639,0.999609,0.993966,0.003080,0.452359,0.000026,-0.000040,-0.000011,0.000028,-0.000041,-9.105652,0.000042,
2161,2638,-2.12049405820338,-0.147632391074829,-0.0249659874481267,0.002641,-0.000440,0.004853,0.106605,0.050707,320.911308,24.377015,0.999720,0.993179,0.003583,0.419047,-0.000001,0.000019,0.000004,0.000020,-0.000002,78.359994,0.000022,
2476,2308,4.80784116424737,-7.35245189632253,0.0108637370996689,0.002634,-0.000329,-0.001349,0.125556,0.043237,326.406459,22.895557,0.999102,0.975894,0.005975,0.388849,0.000146,0.000094,0.000005,0.000146,0.000094,5.266411,0.000242,
2416,3223,3.31970231201213,12.5779492931666,0.0370001392290646,0.003077,-0.000736,0.006411,0.118039,0.028839,311.588341,25.969296,0.999401,0.990587,0.003850,0.463217,0.000028,-0.000014,0.000003,0.000028,-0.000014,4.353047,0.000028,
2221,2533,-0.796493564809435,-2.43629579297757,-0.0129869310793538,0.002602,-0.000388,0.001437,0.114879,0.022278,322.539012,24.200782,0.999545,0.989281,0.004025,0.386269,0.000011,0.000016,0.000008,0.000022,0.000005,53.423020,0.000029,
2206,2713,-1.15483713321617,1.48614504983507,-0.0268499358691088,0.002676,-0.000501,0.002965,0.113565,0.014729,319.542468,24.337874,0.998591,0.985345,0.004857,0.475719,0.000004,0.000023,0.000006,0.000025,0.000002,74.164923,0.000030,
2251,2878,-0.20467167441727,5.07801321302446,-0.0127309060839593,0.002808,-0.000434,0.005012,0.112738,0.023710,316.869384,24.686865,0.999633,0.990359,0.003766,0.392718,0.000002,0.000014,0.000018,0.000027,-0.000011,54.239969,0.000027,
2386,2098,2.88310419439537,-11.9568363783279,0.0139402384753566,0.002382,-0.001631,0.000596,0.106196,-0.028062,329.653441,22.516692,0.998846,0.973179,0.006226,0.414394,0.000328,0.000324,-0.000046,0.000372,0.000280,-43.616877,0.000655,
2131,2203,-2.70126762150405,-9.65110439217772,0.00648812176564206,0.001511,-0.001346,0.002024,0.062823,-0.015096,328.271018,24.136204,0.998658,0.977968,0.005618,0.406211,0.000172,0.000146,0.000059,0.000219,0.000098,38.713517,0.000325,
2371,2218,2.53325943205374,-9.32464345495961,0.0116882283713835,0.003047,-0.000717,-0.003646,0.152163,-0.008061,327.733591,23.002090,0.998537,0.974581,0.006233,0.391167,0.000178,0.000143,-0.000008,0.000179,0.000142,-11.862666,0.000321,
2326,2803,1.43852248463778,3.4509323930435,-0.0201587724956767,0.002180,-0.000191,0.003342,0.088722,0.043742,317.914315,24.594514,0.999330,0.993038,0.003749,0.457492,0.000008,0.000013,0.000011,0.000022,-0.000001,51.757906,0.000025,
2371,2008,2.57334535197469,-13.9330814186121,0.0232490769674314,0.002636,-0.002905,0.002326,0.111131,-0.066833,331.174899,22.413772,0.998691,0.971575,0.006455,0.302311,0.000468,0.000423,-0.000042,0.000493,0.000398,-30.928183,0.000893,
2191,2593,-1.45993342353171,-1.12900343624855,-0.0154403292248162,0.002519,-0.000465,0.003697,0.104152,0.029077,321.618389,24.257761,0.999045,0.987346,0.004417,0.449793,0.000005,0.000029,0.000013,0.000035,0.000000,66.562012,0.000040,
2356,2803,2.09243168007744,3.45195276459348,-0.0111996083706458,0.002692,-0.000015,0.002704,0.114341,0.057099,318.009474,24.631552,0.999788,0.994619,0.003347,0.460613,0.000021,0.000018,0.000014,0.000033,0.000005,41.854946,0.000042,
2356,2233,2.20115337559906,-8.99583437791601,0.00934830379020468,0.001860,-0.001192,0.001773,0.078532,-0.006723,327.392352,23.102770,0.998044,0.974779,0.006271,0.406605,0.000146,0.000121,-0.000007,0.000148,0.000119,-14.342195,0.000267,
2401,2128,3.20675824477001,-11.2998754112842,0.0313992921932709,0.002760,-0.001739,0.001508,0.120134,-0.016917,329.344037,22.614532,0.999188,0.978774,0.005609,0.332966,0.000295,0.000303,-0.000047,0.000346,0.000252,-47.685550,0.000600,
2341,2893,1.74914001513098,5.40896257880998,-0.00957611173981832,0.002665,-0.000356,0.004129,0.108211,0.046467,316.550335,24.832962,0.999432,0.990233,0.003935,0.453406,0.000004,0.000002,0.000011,0.000014,-0.000008,43.194386,0.000014,
2461,2218,4.49763843512855,-9.32460863913511,0.000959486931151332,0.002802,-0.000988,0.000453,0.126122,0.001168,327.745191,22.502761,0.999459,0.986081,0.004968,0.459984,0.000234,0.000171,-0.000029,0.000245,0.000160,-21.087585,0.000408,
2311,2698,1.13262295206323,1.16288504826535,-0.0155519430280719,0.002810,-0.000388,0.003021,0.118803,0.040418,319.701154,24.299829,0.999753,0.991766,0.003729,0.508947,0.000008,0.000048,0.000002,0.000049,0.000008,87.506530,0.000061,
2356,2728,2.10625165091978,1.81885487283055,-0.0102772594841554,0.002678,-0.000646,0.008606,0.092612,0.042343,319.216853,24.464058,0.999413,0.990034,0.003950,0.418672,0.000014,0.000041,0.000011,0.000045,0.000010,70.635121,0.000058,
2281,2968,0.432503776594853,7.0356143853543,-0.00544993301224395,0.003324,0.000121,-0.001498,0.158226,0.041913,315.458145,24.912517,0.999299,0.989641,0.004011,0.398260,0.000011,0.000001,0.000005,0.000013,-0.000001,21.680190,0.000015,
2146,2623,-2.44443223690633,-0.474756565124004,-0.0246628416734893,0.002344,-0.000216,0.005479,0.091257,0.049608,321.198110,24.396007,0.999560,0.991456,0.003979,0.401031,0.000010,0.000016,-0.000003,0.000017,0.000009,-70.481628,0.000026,
2416,3238,3.31604185770544,12.9044272808265,0.027653723527294,0.003133,-0.000283,0.006633,0.120078,0.057042,311.264998,26.038617,0.999426,0.991118,0.003732,0.468621,0.000026,-0.000016,0.000000,0.000026,-0.000016,0.438316,0.000026,
2116,2143,-3.01837329508121,-10.9650381725974,0.00886539780589146,0.001372,-0.001008,-0.001694,0.067573,-0.013892,329.323493,24.182366,0.998088,0.976630,0.006254,0.410864,0.000234,0.000233,0.000083,0.000316,0.000151,44.772758,0.000477,
2401,2353,3.15988908564227,-6.3675283217881,0.000866972998096571,0.002175,-0.000748,0.002029,0.092033,0.010520,325.424210,23.303701,0.998566,0.980372,0.005394,0.391277,0.000095,0.000087,0.000027,0.000118,0.000064,40.415007,0.000184,
2236,3043,-0.557233991284857,8.65953370899125,0.0200439331927669,0.003117,-0.000246,0.006518,0.122549,0.053232,314.493684,24.901337,0.999663,0.991484,0.003578,0.408180,-0.000002,-0.000016,0.000003,-0.000002,-0.000017,12.825297,0.000020,
2326,3208,1.36828180625887,12.2442606107681,0.0405588035269489,0.003122,-0.000266,0.005297,0.125534,0.032824,311.842820,25.483035,0.999647,0.993102,0.003348,0.466643,0.000011,-0.000002,0.000007,0.000015,-0.000006,23.448297,0.000015,
2206,2788,-1.16720262535341,3.11851214564466,-0.0192120776447382,0.002730,-0.000324,0.003314,0.115114,0.033924,318.388862,24.471827,0.999136,0.987742,0.004440,0.444967,-0.000005,0.000017,0.000005,0.000018,-0.000006,77.576481,0.000018,
2476,2323,4.80396866487272,-7.02474993287741,0.00650353333094245,0.002501,-0.000887,0.002487,0.104716,0.028398,326.106766,22.860572,0.999091,0.977827,0.005652,0.467911,0.000132,0.000092,0.000009,0.000134,0.000091,11.983301,0.000226,
2161,2653,-2.12334404682706,0.179292967610067,-0.0309139109868966,0.002630,-0.000211,0.004021,0.108706,0.048885,320.620639,24.356496,0.999685,0.991773,0.003701,0.448362,-0.000004,0.000023,0.000005,0.000024,-0.000005,80.417967,0.000026,
2386,2278,2.84762486715239,-8.00896135253343,0.00607493336036669,0.002259,-0.000752,0.000912,0.099950,0.012060,326.674480,23.184025,0.999614,0.991022,0.003914,0.338895,0.000127,0.000104,0.000007,0.000129,0.000102,15.879135,0.000231,
2386,2113,2.88015006543673,-11.6278287933316,0.0174161496138936,0.002214,-0.001760,0.002713,0.090887,-0.018026,329.425139,22.582450,0.998572,0.968455,0.006562,0.404969,0.000306,0.000314,-0.000042,0.000352,0.000268,-47.756587,0.000622,
2356,3058,2.04575618934198,8.99379458405848,0.016600114349842,0.002864,-0.000748,0.010183,0.095791,0.040055,314.060860,25.298667,0.999661,0.992561,0.003450,0.427744,0.000010,-0.000012,0.000002,0.000010,-0.000012,5.194336,0.000013,
2401,3283,2.97855577184093,13.8802715122159,-0.00614192233382482,0.003193,-0.000721,0.009577,0.112174,0.031581,310.218167,26.075996,0.999701,0.991377,0.003671,0.459677,0.000014,-0.000034,0.000004,0.000015,-0.000034,4.820553,0.000034,
2461,2233,4.49419720087607,-8.99608349257329,0.0108302237621274,0.001933,-0.001395,0.004636,0.070495,0.004951,327.529033,22.639288,0.999134,0.981082,0.005422,0.383671,0.000220,0.000158,-0.000011,0.000222,0.000156,-9.513130,0.000379,
2311,2713,1.12946778179683,1.49026925554681,-0.0169687817323734,0.002546,-0.000260,0.003266,0.105874,0.041900,319.432191,24.376740,0.999524,0.990103,0.003976,0.466273,0.000006,0.000039,0.000001,0.000039,0.000006,88.072290,0.000049,
2161,2503,-2.09786932299044,-3.09163648752855,-0.0277735803182964,0.002749,-0.000541,0.000610,0.124377,0.032865,323.091997,24.179858,0.999021,0.985054,0.004927,0.500328,0.000027,0.000017,0.000000,0.000027,0.000017,0.099034,0.000044,
2371,2023,2.57057858930795,-13.6051307025629,0.0278525087110211,0.002092,-0.002786,-0.001132,0.098573,-0.100301,330.960022,22.407175,0.998783,0.972125,0.006473,0.319811,0.000444,0.000414,-0.000042,0.000474,0.000384,-35.130337,0.000860,
2266,3148,0.0758673816825493,10.9386869651584,0.0319953450530193,0.002894,-0.000203,0.006424,0.112124,0.039745,312.807773,25.114959,0.999281,0.991211,0.003856,0.450702,0.000011,-0.000004,0.000006,0.000013,-0.000006,20.165975,0.000013,
2206,2728,-1.1572961650124,1.81308270583514,-0.0237088018500344,0.002668,-0.000428,0.004193,0.109395,0.025590,319.320618,24.404691,0.999130,0.988611,0.004221,0.436649,0.000003,0.000024,0.000003,0.000025,0.000002,81.941541,0.000030,
2371,3103,2.36402282563038,9.97169981139784,0.0231065984680185,0.002998,-0.000640,0.006813,0.113626,0.028467,313.399783,25.493395,0.999419,0.990164,0.003938,0.392888,0.000016,-0.000003,-0.000001,0.000016,-0.000003,-2.039023,0.000017,
2416,3253,3.31267220565079,13.2307408955738,0.0177338221269565,0.003364,0.000056,0.004820,0.137485,0.064998,310.952321,26.114834,0.999294,0.989757,0.003934,0.446629,0.000022,-0.000020,-0.000001,0.000022,-0.000020,-1.252566,0.000025,
2176,2728,-1.80931884825008,1.81148401552383,-0.0265367196175816,0.002812,-0.000495,0.002813,0.120579,0.014208,319.400518,24.356330,0.999365,0.989389,0.004134,0.468411,-0.000006,0.000025,-0.000001,0.000025,-0.000006,-88.346786,0.000026,
2176,2338,-1.74324370935713,-6.69556361188754,-0.00927678713492242,0.002147,-0.000466,-0.000083,0.098696,0.027896,325.834193,24.082553,0.999057,0.984548,0.004933,0.410277,0.000055,0.000062,-0.000003,0.000064,0.000054,-68.657119,0.000117,
2341,2983,1.73350051660583,7.36417030807077,0.00554877974445844,0.002968,-0.000658,0.006208,0.114766,0.017459,315.214646,25.075481,0.999784,0.994936,0.003048,0.398168,0.000006,-0.000006,0.000001,0.000006,-0.000006,5.300075,0.000007,
2251,2893,-0.207028524541844,5.40338268850581,-0.00685574982702519,0.002692,-0.000465,0.004916,0.107771,0.036434,316.669358,24.673370,0.999653,0.991207,0.003684,0.441875,0.000001,0.000006,0.000020,0.000023,-0.000016,48.604843,0.000024,
2236,2743,-0.507716172849396,2.14097303979213,-0.0183605678830077,0.002488,-0.000509,0.007227,0.090936,0.042424,319.028188,24.464595,0.999006,0.985794,0.004717,0.419933,0.000008,0.000017,0.000004,0.000018,0.000007,70.221518,0.000026,
2356,2743,2.10339380774037,2.14549627961086,-0.0141267676993948,0.002475,-0.000222,0.002339,0.105510,0.040417,318.953523,24.466228,0.999545,0.990836,0.003750,0.453548,0.000014,0.000039,0.000016,0.000047,0.000006,64.314994,0.000058,
2326,2818,1.43631479146368,3.7765569454342,-0.0125077956766404,0.002363,-0.000573,0.005674,0.088930,0.021937,317.734574,24.634497,0.999448,0.991131,0.003859,0.429672,0.000004,0.000018,0.000010,0.000023,-0.000002,62.258160,0.000026,
2341,2908,1.74675107810156,5.73535126428173,-0.00778271880653847,0.003079,-0.000328,0.005654,0.121969,0.061056,316.334135,24.886963,0.999319,0.989813,0.004007,0.450184,0.000003,0.000002,0.000009,0.000011,-0.000006,42.563187,0.000011,
2341,2173,1.88448926090233,-10.3107889574708,0.00931517312181995,0.001651,-0.001555,0.005282,0.056653,0.015722,328.337058,22.952299,0.999170,0.982346,0.005209,0.493796,0.000196,0.000195,-0.000017,0.000213,0.000178,-43.764157,0.000392,
2281,2983,0.429379137584178,7.36052957065468,-0.00129347304789462,0.003050,-0.000101,0.004410,0.125742,0.045004,315.216029,24.877921,0.999344,0.989770,0.003997,0.463006,0.000012,0.000003,0.000008,0.000017,-0.000002,30.493215,0.000019,
2356,2248,2.1984894997752,-8.6670563315126,0.00878921642038222,0.002365,-0.001318,0.005532,0.088425,0.006558,327.155166,23.148473,0.998952,0.980754,0.005466,0.415524,0.000132,0.000100,-0.000004,0.000133,0.000099,-7.592419,0.000233,
2371,2953,2.39026633815828,6.71534657847968,-0.00524182552766206,0.002546,-0.000359,0.004807,0.100004,0.043579,315.601351,25.082100,0.999416,0.989091,0.004091,0.417284,0.000007,-0.000003,0.000004,0.000008,-0.000005,18.031384,0.000008,
2146,2638,-2.44663189316927,-0.148778484903168,-0.0278432783346716,0.002703,-0.000483,0.003686,0.113109,0.033697,320.950846,24.320609,0.999660,0.992004,0.003732,0.468923,0.000008,0.000019,-0.000001,0.000019,0.000008,-85.816434,0.000027,
2401,2143,3.20313711307769,-10.9708434073901,0.0207111467640857,0.002580,-0.001001,-0.002501,0.126654,-0.004881,329.019769,22.537525,0.999161,0.977311,0.005615,0.470885,0.000274,0.000273,-0.000043,0.000317,0.000231,-44.416325,0.000549,
2401,2368,3.15709467102063,-6.03994391495658,0.00010324095381975,0.002529,-0.001116,0.004171,0.100384,0.005262,325.183664,23.299255,0.998544,0.980719,0.005328,0.437663,0.000092,0.000077,0.000038,0.000123,0.000046,39.268395,0.000175,
2116,2158,-3.0205445055669,-10.6355891641616,0.00111800903687254,0.002043,-0.001041,-0.002146,0.099684,-0.021687,329.049872,24.197936,0.998856,0.983251,0.005300,0.394076,0.000218,0.000194,0.000072,0.000280,0.000132,40.146122,0.000421,
2206,2803,-1.17013182080016,3.4447469169482,-0.0195578822715561,0.002666,-0.000646,0.006960,0.100530,0.037007,318.127543,24.475845,0.998853,0.984822,0.004807,0.460522,-0.000005,0.000016,0.000004,0.000016,-0.000006,80.153432,0.000017,
2386,3163,2.67933033908161,11.2739456417492,0.0349063545450576,0.003110,-0.000609,0.008107,0.113943,0.033190,312.523595,25.671463,0.999467,0.990604,0.003845,0.446212,0.000025,-0.000007,0.000005,0.000026,-0.000007,8.628518,0.000027,
2326,3223,1.36518728909077,12.5699193055668,0.0375404864777806,0.003071,-0.000154,0.005381,0.123024,0.046061,311.568783,25.521924,0.999511,0.992353,0.003367,0.474004,0.000010,0.000003,0.000005,0.000012,0.000001,25.450085,0.000015,
2161,2668,-2.1239521297286,0.503979619386435,-0.00992476795067887,0.002883,0.000228,0.000666,0.130761,0.048647,320.575167,24.358066,0.999735,0.993437,0.003343,0.456651,-0.000006,0.000026,0.000002,0.000026,-0.000006,85.543625,0.000027,
2461,2248,4.49236580695201,-8.66762938069497,0.0092447129335369,0.002582,-0.000473,-0.003603,0.131491,-0.002088,327.334512,22.665962,0.998939,0.977826,0.005577,0.406707,0.000206,0.000151,-0.000001,0.000206,0.000151,-1.172510,0.000359,
2356,2818,2.08943581852732,3.77781561563558,-0.00802938445713153,0.002576,-0.000469,0.006348,0.096018,0.040565,317.773579,24.653945,0.999642,0.992170,0.003678,0.460467,0.000015,0.000019,0.000013,0.000030,0.000004,49.435393,0.000037,
2386,2293,2.84473342248762,-7.68153094711884,0.00440706627460941,0.002304,-0.000866,-0.000104,0.105587,0.013225,326.424238,23.123755,0.999845,0.994136,0.003363,0.445875,0.000116,0.000105,0.000014,0.000126,0.000095,33.957005,0.000222,
2401,3298,2.97516144194939,14.2055647755066,-0.0148325633685431,0.003307,-0.000444,0.008234,0.122402,0.034691,309.908873,26.084894,0.999708,0.992461,0.003553,0.498056,0.000017,-0.000030,-0.000005,0.000017,-0.000031,-6.437137,0.000031,
2356,3073,2.04348271926353,9.31957569824431,0.0182278792747184,0.003049,-0.000299,0.006719,0.116674,0.043656,313.849860,25.349173,0.999660,0.992601,0.003407,0.418857,0.000012,-0.000010,0.000001,0.000012,-0.000011,2.114163,0.000013,
2236,3058,-0.559072960400599,8.98441049665255,0.0251552317456571,0.003364,0.000075,0.003594,0.143490,0.051912,314.312630,24.890019,0.999653,0.992551,0.003407,0.438421,0.000001,-0.000024,0.000001,0.000001,-0.000024,2.129973,0.000027,
2371,2233,2.52968804017731,-8.99576010045188,0.0109760237490946,0.002664,-0.001169,-0.000234,0.122377,-0.025428,327.455566,23.081367,0.998747,0.978615,0.005883,0.338104,0.000164,0.000125,-0.000003,0.000164,0.000125,-3.722555,0.000290,
2416,3268,3.30879683580851,13.5557253618504,0.00962978170127826,0.003252,-0.000557,0.006880,0.124563,0.044084,310.625231,26.112419,0.999586,0.991592,0.003620,0.474271,0.000017,-0.000032,0.000001,0.000018,-0.000032,1.418766,0.000032,
2431,2248,3.83699897426083,-8.66744287604926,0.00894376467067559,0.002739,-0.000661,-0.001674,0.131273,0.009171,327.271989,22.795335,0.999172,0.978489,0.005598,0.426742,0.000180,0.000142,-0.000001,0.000180,0.000142,-1.223573,0.000322,
2131,2218,-2.7037518496868,-9.32176457593025,0.00523699870745986,0.001414,-0.000398,0.000546,0.063106,0.024107,328.018935,24.186328,0.998520,0.977379,0.005670,0.403689,0.000158,0.000134,0.000054,0.000201,0.000091,38.642648,0.000299,
2311,2728,1.12690700145427,1.81684729944911,-0.016766280917011,0.002796,-0.000311,0.004088,0.114520,0.036788,319.198660,24.403868,0.999522,0.989378,0.004045,0.466198,0.000006,0.000036,0.000007,0.000038,0.000005,77.313075,0.000047,
2476,2338,4.80087455489478,-6.69551476053655,0.00428485943700707,0.002532,-0.000724,0.000958,0.112035,0.020179,325.852188,22.985980,0.998792,0.979645,0.005638,0.392684,0.000121,0.000088,0.000013,0.000125,0.000084,19.546642,0.000210,
2356,2263,2.19576085182124,-8.33844903053822,0.00633814148687861,0.002242,-0.000602,0.000155,0.101955,0.022086,326.905890,23.162330,0.999354,0.983870,0.005005,0.458157,0.000117,0.000085,-0.000007,0.000118,0.000084,-11.737734,0.000203,
2371,2038,2.56756146274177,-13.2750021531488,0.0193070779471896,0.002433,-0.001951,-0.003233,0.121937,-0.072689,330.670543,22.395233,0.999014,0.975738,0.006028,0.404187,0.000420,0.000388,-0.000047,0.000453,0.000355,-35.524527,0.000810,
2356,2758,2.09937463143563,2.47344815797486,-0.024817837975263,0.002385,-0.000173,0.005691,0.089630,0.057562,318.603432,24.520949,0.999438,0.989185,0.003970,0.455400,0.000018,0.000038,0.000019,0.000050,0.000006,58.589609,0.000061,
2371,3118,2.36089646677666,10.2974165328076,0.0222479437101697,0.002946,-0.000473,0.008500,0.105322,0.045455,313.138460,25.520632,0.999603,0.991499,0.003722,0.422694,0.000023,0.000003,0.000003,0.000023,0.000003,9.537551,0.000029,
2371,2968,2.38764912167822,7.04183746741168,-0.00558575665911576,0.002814,-0.000632,0.004573,0.113085,0.033768,315.366291,25.171626,0.999585,0.989658,0.004102,0.358262,0.000005,-0.000003,0.000003,0.000006,-0.000004,18.602564,0.000006,
2416,1993,3.56239201499571,-14.2669559951981,0.0394065523439053,0.002818,-0.002373,-0.005469,0.147728,-0.119221,331.635264,22.009849,0.999012,0.974161,0.006250,0.288015,0.000514,0.000456,-0.000084,0.000573,0.000396,-35.467400,0.000975,
2401,2383,3.15419974939311,-5.71105572044537,0.000593388316190158,0.002546,-0.000702,0.004510,0.100124,0.020876,324.944056,23.410564,0.999131,0.984099,0.004954,0.389168,0.000093,0.000061,0.000036,0.000116,0.000037,33.365002,0.000160,
2146,2653,-2.44877254322925,0.17753873820746,-0.0248669701900894,0.002778,-0.000317,0.002836,0.119200,0.035585,320.738771,24.315221,0.999668,0.990999,0.003788,0.484525,0.000005,0.000026,-0.000001,0.000026,0.000005,-87.499838,0.000033,
2341,2188,1.88243227231503,-9.98101069273079,0.00960754091147464,0.002073,-0.001087,0.001205,0.090335,-0.011236,328.130768,23.117010,0.999278,0.985735,0.004844,0.341270,0.000179,0.000182,-0.000016,0.000196,0.000164,-47.963125,0.000361,
2176,2743,-1.81099558388616,2.1377582716916,-0.0131281922203925,0.002905,-0.000303,0.004965,0.118317,0.049362,319.266325,24.423413,0.999453,0.989885,0.004201,0.448646,-0.000007,0.000017,-0.000003,0.000018,-0.000007,-84.054330,0.000018,
2431,2488,3.78692135458342,-3.41582161748971,-0.00846179064399166,0.002079,-0.000976,0.002968,0.084030,0.000326,323.191153,23.581933,0.999139,0.982839,0.004907,0.459425,0.000075,-0.000011,0.000014,0.000078,-0.000014,9.231944,0.000083,
2206,2818,-1.1721795125141,3.7703274657979,-0.0169458350334821,0.002885,-0.000645,0.004944,0.116974,0.023581,317.922168,24.463051,0.999091,0.987348,0.004397,0.476533,-0.000002,0.000029,0.000010,0.000032,-0.000005,73.321026,0.000034,
2341,2923,1.74366628582664,6.06208325262001,-0.00867531233916452,0.002903,-0.000054,0.005878,0.113266,0.084524,316.072725,24.948665,0.999126,0.988730,0.004182,0.448230,0.000001,0.000003,0.000005,0.000007,-0.000003,48.615075,0.000007,
2236,2758,-0.510513134181604,2.46788332553341,-0.0206161708721879,0.002460,-0.000233,0.006839,0.091017,0.051714,318.765375,24.496411,0.999171,0.987710,0.004346,0.418810,0.000005,0.000016,0.000006,0.000019,0.000002,65.904139,0.000024,
2356,2833,2.08680370609225,4.10519898887541,-0.0146630812586181,0.003087,-0.000116,0.003544,0.129472,0.033577,317.506668,24.736451,0.999703,0.990475,0.003919,0.409697,0.000010,0.000029,0.000014,0.000037,0.000002,62.301857,0.000044,
2401,2158,3.20020047293101,-10.6418543271638,0.0216228025947771,0.002667,-0.001328,-0.000334,0.122704,-0.034981,328.781436,22.629377,0.999251,0.977765,0.005501,0.397118,0.000252,0.000235,-0.000038,0.000282,0.000205,-38.721545,0.000490,
2461,2263,4.48892227098029,-8.33769451702704,0.00461326975715792,0.002608,-0.000269,-0.003068,0.130766,0.013125,327.051812,22.780469,0.999106,0.978480,0.005546,0.364480,0.000191,0.000136,-0.000010,0.000193,0.000135,-10.272073,0.000329,
2326,3238,1.36169922892855,12.8964950333624,0.0302267086324264,0.003118,-0.000045,0.007637,0.117460,0.060121,311.255159,25.624565,0.999446,0.991940,0.003483,0.418232,0.000009,-0.000005,0.000002,0.000009,-0.000005,8.578729,0.000009,
2266,3163,0.0735564259034156,11.264474176169,0.0355496400019319,0.003017,-0.000150,0.006113,0.118919,0.050617,312.598459,25.190885,0.999351,0.989594,0.004031,0.409904,0.000013,-0.000005,0.000007,0.000015,-0.000008,20.090246,0.000015,
2386,2308,2.84115109066645,-7.35238391335672,-0.00673130413537137,0.002381,-0.000429,-0.001464,0.114182,0.026503,326.097146,23.119236,0.999783,0.993901,0.003460,0.509594,0.000109,0.000100,0.000016,0.000121,0.000087,37.082331,0.000210,
2416,3283,3.30539425541133,13.8819743010986,0.00276799754334434,0.003376,-0.000368,0.007194,0.129226,0.056379,310.325245,26.205129,0.999708,0.991651,0.003610,0.440230,0.000017,-0.000036,0.000000,0.000017,-0.000036,0.252412,0.000036,
2401,2398,3.15136712260774,-5.38318942940077,-0.00229502194605402,0.002522,-0.000454,0.000244,0.114569,0.018272,324.691588,23.419107,0.999303,0.984742,0.004875,0.425402,0.000086,0.000060,0.000040,0.000114,0.000031,36.131026,0.000154,
2356,2278,2.19158034068853,-8.00879345038079,-0.00761441345724734,0.001958,-0.000778,-0.000092,0.089760,0.004122,326.534791,23.194767,0.999485,0.988234,0.004403,0.449563,0.000103,0.000083,0.000000,0.000103,0.000083,-1.115911,0.000187,
2476,2353,4.79792745015675,-6.36757104810113,0.008716714008699,0.002718,-0.000843,0.006271,0.100366,0.044672,325.634393,23.030944,0.998865,0.982277,0.005549,0.430813,0.000116,0.000091,0.000018,0.000125,0.000081,27.831208,0.000208,
2416,2008,3.55984072775729,-13.9392825655259,0.0412415013106511,0.003136,-0.002642,-0.004444,0.158433,-0.096140,331.420605,21.884003,0.999046,0.971721,0.006399,0.488310,0.000488,0.000430,-0.000069,0.000534,0.000384,-33.549629,0.000922,
2371,2248,2.52561764521082,-8.6657049041046,-0.00335988052847824,0.002483,-0.000776,-0.001428,0.118483,0.000069,327.089330,23.090448,0.999209,0.982816,0.005442,0.398466,0.000151,0.000110,0.000002,0.000151,0.000110,2.343421,0.000261,
2431,2263,3.83293161377661,-8.3371537404794,-0.000922724062093039,0.002750,-0.000803,0.001939,0.118460,0.009830,326.933622,22.903219,0.999065,0.978931,0.005635,0.372231,0.000167,0.000129,-0.000010,0.000169,0.000126,-13.550113,0.000297,
2116,2173,-3.02276002166454,-10.3078135142312,0.0128264059857202,0.001661,-0.001220,0.001312,0.071949,-0.007454,328.878500,24.251583,0.998830,0.983734,0.005249,0.360594,0.000207,0.000171,0.000072,0.000263,0.000114,38.115413,0.000387,
2356,3088,2.04065997638882,9.6451024321436,0.0228288379033188,0.002811,-0.000340,0.007850,0.101713,0.040962,313.627980,25.405298,0.999562,0.991810,0.003610,0.397866,0.000013,-0.000010,-0.000004,0.000013,-0.000011,-9.647582,0.000014,
2461,2398,4.46025106770605,-5.38300152152352,0.00187522374585569,0.002101,-0.001079,0.004622,0.078471,0.015727,324.790082,23.231725,0.999612,0.985629,0.004807,0.423050,0.000113,0.000044,0.000026,0.000122,0.000035,18.503359,0.000164,
2431,2503,3.78469171748359,-3.08885807412219,-0.00324198656852559,0.002381,-0.000810,0.002758,0.098725,0.010550,323.006217,23.605382,0.999345,0.986401,0.004494,0.497343,0.000071,-0.000008,0.000008,0.000071,-0.000009,5.496417,0.000078,
2371,2053,2.56512570112481,-12.9446930511125,0.0239870065061609,0.002657,-0.001647,-0.001252,0.125307,-0.037374,330.470501,22.546378,0.999144,0.978155,0.005690,0.332930,0.000396,0.000365,-0.000045,0.000428,0.000333,-35.692064,0.000763,
2416,3298,3.30118044456915,14.2072257757076,-0.011628212744256,0.003327,-0.000399,0.007977,0.124027,0.048712,309.952691,26.189951,0.999723,0.992114,0.003503,0.493791,0.000019,-0.000033,-0.000009,0.000021,-0.000034,-9.828374,0.000035,
2161,2683,-2.12726315876171,0.830995173905301,-0.0170197711706237,0.002750,-0.000347,0.003642,0.115318,0.032036,320.257326,24.360152,0.999479,0.990373,0.003831,0.448628,-0.000010,0.000030,-0.000001,0.000030,-0.000010,-88.728266,0.000031,
2356,2773,2.09713927702731,2.79999648708056,-0.0187201720951862,0.002499,-0.000205,0.005356,0.096044,0.049659,318.416551,24.608876,0.999528,0.989854,0.003812,0.398341,0.000018,0.000025,0.000015,0.000037,0.000007,51.044921,0.000046,
2236,3073,-0.563043197444291,9.31057664586621,0.0165897789678411,0.002861,-0.000084,0.006436,0.111099,0.056593,313.963286,24.907165,0.999598,0.992202,0.003495,0.446089,0.000002,-0.000021,-0.000001,0.000002,-0.000021,-1.882405,0.000023,
2131,2233,-2.70578425892628,-8.99356689544042,0.00740984814984813,0.001458,-0.000420,-0.002296,0.073617,0.020237,327.806121,24.215832,0.998752,0.979718,0.005451,0.378294,0.000146,0.000124,0.000048,0.000184,0.000085,38.599740,0.000275,
2326,3253,1.35767838500211,13.2214109345123,0.0219282827690108,0.002804,-0.000519,0.011230,0.090398,0.043542,310.912696,25.604020,0.999388,0.992198,0.003505,0.455199,0.000006,-0.000010,0.000001,0.000006,-0.000010,4.586049,0.000010,
2341,2203,1.87973084451455,-9.65272510213275,0.00691034957401371,0.002156,-0.000878,-0.001693,0.104283,-0.001614,327.880473,23.082942,0.999123,0.982898,0.005231,0.424162,0.000163,0.000163,-0.000010,0.000173,0.000153,-44.040449,0.000327,
2371,2983,2.38553657127829,7.36676175761327,0.00265383722830848,0.003012,-0.000300,0.005648,0.118489,0.042772,315.195963,25.161056,0.999535,0.989652,0.004048,0.418256,0.000007,-0.000005,0.000004,0.000009,-0.000007,16.912608,0.000009,
2461,2278,4.48641251447586,-8.00961016672839,0.00980339692074494,0.002673,-0.000148,-0.003419,0.135159,0.015801,326.856894,22.843491,0.999375,0.979276,0.005496,0.360486,0.000172,0.000127,-0.000002,0.000172,0.000127,-2.457185,0.000300,
2356,2848,2.08317716123047,4.43180688191452,-0.0208385839410425,0.002899,-0.000372,0.005047,0.115475,0.039779,317.196360,24.743389,0.999632,0.990431,0.003872,0.447605,0.000008,0.000027,0.000014,0.000034,0.000001,62.134897,0.000040,
2401,2173,3.19667836103745,-10.3123548821693,0.0159439564209833,0.002533,-0.001335,-0.000160,0.115952,-0.030637,328.485052,22.668769,0.999180,0.980593,0.005318,0.410783,0.000234,0.000208,-0.000032,0.000255,0.000187,-33.914641,0.000444,
2341,2938,1.74145543211714,6.38675152733329,-0.00397031233313783,0.003102,-0.000478,0.005218,0.124486,0.040540,315.879346,24.931519,0.999015,0.987780,0.004296,0.457483,0.000005,0.000003,0.000002,0.000006,0.000001,30.027588,0.000008,
2476,2368,4.7942371526748,-6.03760528389132,-0.00180761081412584,0.002649,-0.000397,0.002373,0.112173,0.046609,325.314545,23.142822,0.999541,0.985848,0.005023,0.379490,0.000115,0.000077,0.000035,0.000136,0.000057,30.528077,0.000198,
2176,2758,-1.81434204122811,2.4646852040031,-0.0196505362620201,0.002699,-0.000472,0.007386,0.101305,0.054011,318.951105,24.426354,0.999353,0.989047,0.004170,0.462903,-0.000008,0.000014,-0.000003,0.000014,-0.000008,-83.151142,0.000014,
2236,2773,-0.51290846706156,2.79383056560496,-0.0212957729639243,0.002564,-0.000141,0.004245,0.104216,0.039007,318.529310,24.478776,0.999121,0.987732,0.004276,0.444706,0.000002,0.000015,0.000006,0.000018,-0.000001,68.543324,0.000020,
2371,2068,2.56136093645918,-12.6163120288476,0.0224577032984143,0.001988,-0.001804,0.000340,0.089012,-0.045040,330.180411,22.500815,0.999308,0.980052,0.005325,0.415460,0.000372,0.000359,-0.000042,0.000408,0.000324,-40.518410,0.000733,
2431,1993,3.88990545530697,-14.2654255220866,0.0277404665457084,0.003188,-0.002568,-0.005131,0.163482,-0.117500,331.577512,21.948225,0.999229,0.975262,0.005944,0.245141,0.000538,0.000465,-0.000077,0.000587,0.000416,-32.295117,0.001008,
2116,2188,-3.02574865734572,-9.9791667495162,0.00837722037294952,0.001420,-0.001392,0.002693,0.056733,-0.012166,328.585300,24.237233,0.998778,0.981049,0.005411,0.376683,0.000191,0.000167,0.000072,0.000251,0.000106,40.334290,0.000367,
2371,2263,2.52295006215811,-8.33708930070481,0.00067843950932911,0.002332,-0.000475,-0.001858,0.113214,0.017354,326.875107,23.170532,0.999355,0.985687,0.004817,0.379082,0.000138,0.000098,-0.000001,0.000138,0.000098,-1.058235,0.000236,
2266,3178,0.0709451041494802,11.5891869152759,0.0354578280407623,0.003129,-0.000146,0.006173,0.123817,0.043035,312.357297,25.167945,0.999491,0.991137,0.003659,0.449789,0.000012,-0.000007,0.000007,0.000015,-0.000010,17.826523,0.000015,
2461,2413,4.45787424846361,-5.05521889725518,0.00174732363831254,0.002402,-0.000335,0.000273,0.108906,0.038512,324.576314,23.239083,0.999536,0.986048,0.004775,0.494436,0.000106,0.000034,0.000033,0.000119,0.000021,21.048431,0.000151,
2326,3268,1.35458595587219,13.5476110186012,0.0126078005720842,0.003063,-0.000414,0.009038,0.110017,0.054634,310.607429,25.673476,0.999541,0.993031,0.003266,0.429732,0.000003,-0.000009,0.000003,0.000004,-0.000010,14.660045,0.000010,
2386,2323,2.83721381641815,-7.02363217317292,-0.0110568753962639,0.001905,-0.000824,0.001400,0.081993,0.030120,325.786035,23.162579,0.999662,0.991997,0.003947,0.515453,0.000100,0.000089,0.000020,0.000115,0.000073,37.267683,0.000190,
2356,2293,2.18923134052358,-7.67944359284587,-0.00133597793916351,0.002411,-0.001075,0.005603,0.090412,0.016693,326.344613,23.379084,0.999632,0.993110,0.003902,0.318391,0.000094,0.000084,0.000006,0.000096,0.000081,25.616091,0.000178,
2341,2218,1.87720018668006,-9.32496206059424,0.012683828013337,0.002179,-0.001199,0.000820,0.096490,0.002906,327.678989,23.099980,0.998961,0.981955,0.005414,0.450753,0.000152,0.000142,-0.000006,0.000155,0.000139,-26.388670,0.000294,
2356,3103,2.0376723906158,9.9707895319636,0.0224617039765462,0.002796,-0.000609,0.009039,0.096813,0.041172,313.374403,25.445421,0.999560,0.991158,0.003815,0.395796,0.000018,-0.000002,-0.000002,0.000018,-0.000002,-4.460460,0.000020,
2431,2518,3.78181373377157,-2.76142028123576,-0.00076092130689176,0.002058,-0.000328,0.000078,0.094000,0.027018,322.778646,23.645595,0.999154,0.984781,0.004729,0.524762,0.000061,-0.000014,0.000009,0.000062,-0.000015,6.429801,0.000065,
2461,2638,4.41034877779981,-0.13774268216882,-0.0237461439381264,0.002475,-0.000080,0.000716,0.110889,0.036591,320.708427,24.151171,0.999585,0.988793,0.004090,0.413263,0.000052,0.000031,0.000000,0.000052,0.000031,0.236294,0.000084,
2356,2863,2.08028368562153,4.75780052097416,-0.0187976380680652,0.002858,-0.000493,0.007189,0.106020,0.041721,316.959487,24.764072,0.999552,0.990147,0.003922,0.467623,0.000007,0.000020,0.000011,0.000027,0.000001,59.959619,0.000032,
2161,2698,-2.13002627269043,1.15781694618921,-0.0190907254842614,0.002787,-0.000422,0.006026,0.109757,0.046745,319.991010,24.359786,0.999297,0.987312,0.004229,0.473850,-0.000009,0.000027,-0.000002,0.000027,-0.000009,-87.555852,0.000028,
2326,3283,1.35121048191549,13.8726613761727,0.0017703000110032,0.003174,-0.000637,0.007153,0.121498,0.023152,310.282020,25.676121,0.999670,0.994510,0.002937,0.428525,0.000000,-0.000006,0.000005,0.000003,-0.000009,30.349358,0.000009,
2131,2248,-2.7087289954118,-8.66550273841374,0.00276113350986407,0.001419,-0.000757,0.000757,0.062643,0.016289,327.515348,24.168358,0.999005,0.981690,0.005240,0.430127,0.000134,0.000106,0.000043,0.000165,0.000075,35.808350,0.000245,
2236,3088,-0.565252726827442,9.63587438402577,0.0209342576608265,0.002983,-0.000474,0.006129,0.117535,0.030828,313.761114,24.961702,0.999501,0.991892,0.003573,0.385969,0.000002,-0.000020,-0.000001,0.000002,-0.000021,-2.095035,0.000023,
2371,2998,2.38323555424181,7.69241175499667,0.0109164449926311,0.002839,-0.000098,0.004325,0.115320,0.049853,315.016822,25.222394,0.999571,0.990936,0.003812,0.404142,0.000010,-0.000007,0.000004,0.000011,-0.000008,13.201065,0.000011,
2476,2473,4.7712178396551,-3.74085492785722,-0.0183771668048394,0.002484,-0.000426,0.003084,0.102008,0.036946,323.462458,23.465791,0.999509,0.989168,0.004257,0.454521,0.000087,-0.000028,0.000027,0.000092,-0.000034,12.445265,0.000093,
2371,2083,2.55841631936127,-12.2862551628349,0.0208208040655222,0.002203,-0.001728,0.002460,0.091364,-0.010484,329.926919,22.570241,0.999151,0.978441,0.005595,0.425002,0.000349,0.000342,-0.000036,0.000381,0.000310,-42.470626,0.000692,
2476,2383,4.79034681255939,-5.70928024164504,-0.00961295925918648,0.002354,-0.000305,0.001016,0.103860,0.052761,324.997912,23.133054,0.999563,0.984817,0.005073,0.454085,0.000115,0.000045,0.000029,0.000125,0.000035,19.588168,0.000168,
2461,2293,4.48295459408096,-7.68274682872848,0.0111647547363418,0.002486,-0.000833,0.000916,0.110013,0.006365,326.601145,22.772987,0.999254,0.978736,0.005547,0.478198,0.000159,0.000106,0.000007,0.000160,0.000105,6.956474,0.000267,
2461,2428,4.45438603875463,-4.72683599749827,-0.00315432945978955,0.002677,-0.000535,0.004234,0.106595,0.042018,324.289642,23.280843,0.999362,0.983999,0.004949,0.512360,0.000099,0.000032,0.000040,0.000118,0.000013,25.064082,0.000145,
2176,2773,-1.81721685947118,2.79125321152061,-0.0263379430592749,0.002772,-0.000709,0.006780,0.106422,0.031271,318.656785,24.427656,0.999377,0.989682,0.004199,0.451203,-0.000009,0.000012,-0.000002,0.000012,-0.000009,-84.872613,0.000013,
2326,3298,1.34806443038506,14.1975287671122,0.0023546138711481,0.002846,-0.000402,0.007823,0.104185,0.039615,310.023285,25.680591,0.999705,0.994589,0.002989,0.473406,-0.000002,0.000003,0.000002,0.000003,-0.000003,73.352529,0.000003,
2461,2653,4.40770819182723,0.189033330516253,-0.0196086439823944,0.002664,-0.000344,0.002459,0.112888,0.024984,320.501075,24.215451,0.999565,0.988894,0.004076,0.392059,0.000044,0.000037,-0.000004,0.000045,0.000035,-24.274433,0.000081,
2476,2713,4.72197884824133,1.49679908863763,-0.0204479689522259,0.002497,-0.000550,0.005498,0.093578,0.040299,319.532788,24.312132,0.999637,0.989088,0.004216,0.529922,0.000017,0.000046,0.000015,0.000052,0.000010,67.296313,0.000066,
2236,2788,-0.51503767822722,3.12011969003724,-0.0190101978321309,0.002808,-0.000089,0.002792,0.120212,0.042673,318.320421,24.503704,0.999349,0.989033,0.004155,0.444735,0.000003,0.000021,0.000009,0.000024,-0.000001,67.053742,0.000028,
2341,2233,1.87444696049702,-8.99642949134456,0.0150558635627931,0.002151,-0.001011,0.002163,0.090651,0.021559,327.450659,23.142517,0.998690,0.978217,0.005750,0.465726,0.000136,0.000118,-0.000005,0.000137,0.000117,-14.528132,0.000254,
2476,2398,4.78797496117553,-5.38195046164538,-0.000767096305025916,0.002481,-0.000871,0.003115,0.101523,0.018129,324.826582,23.238267,0.999544,0.985999,0.004807,0.372126,0.000112,0.000040,0.000028,0.000121,0.000031,18.709374,0.000161,
2356,2308,2.18711215085895,-7.3535589168754,0.00647120572307358,0.002422,-0.001094,0.004460,0.094922,0.021132,326.172805,23.274146,0.999461,0.990828,0.003968,0.468478,0.000087,0.000083,0.000010,0.000095,0.000074,39.937359,0.000170,
2431,2533,3.77885796844403,-2.43279445339529,-0.00117620434696164,0.002184,-0.000514,0.000868,0.096794,0.015590,322.533884,23.801206,0.999398,0.987335,0.004404,0.408405,0.000057,-0.000007,0.000011,0.000059,-0.000009,9.721226,0.000063,
2356,3118,2.03563930956702,10.2955033588256,0.0269249780501468,0.003099,-0.000378,0.006834,0.118603,0.040819,313.188366,25.430289,0.999562,0.991488,0.003753,0.448322,0.000023,0.000003,0.000002,0.000023,0.000003,6.903517,0.000028,
2131,2263,-2.7101560442486,-8.33861108660698,0.00920481156958886,0.001946,-0.001072,0.000347,0.087934,-0.017512,327.353310,24.162096,0.998864,0.982113,0.005320,0.410065,0.000127,0.000094,0.000040,0.000154,0.000067,33.815086,0.000226,
2386,2338,2.8356041199356,-6.69630035842028,0.00499599104017534,0.002050,-0.000564,0.003014,0.082964,0.034331,325.678272,23.281501,0.999052,0.984089,0.004926,0.445310,0.000091,0.000090,0.000022,0.000113,0.000069,44.092300,0.000183,
2461,2308,4.47943265355683,-7.35168676516551,0.000923893811034304,0.002614,-0.000376,-0.002051,0.127242,0.032251,326.288841,22.940113,0.998937,0.975058,0.005961,0.393633,0.000144,0.000101,0.000006,0.000145,0.000101,7.833839,0.000247,
2356,2878,2.0780282448289,5.08376598976907,-0.0126465979882369,0.002771,-0.000292,0.004556,0.111355,0.030204,316.771753,24.829701,0.999553,0.991104,0.003804,0.428797,0.000004,0.000009,0.000011,0.000018,-0.000005,52.062017,0.000019,
2476,2488,4.76911684592958,-3.41412748952557,-0.0116579880968857,0.002519,-0.000104,-0.001194,0.119957,0.023537,323.293501,23.501577,0.999513,0.986391,0.004467,0.462852,0.000076,-0.000023,0.000021,0.000080,-0.000027,11.313545,0.000082,
2371,3013,2.38041193143406,8.01838663135335,0.00921303377867844,0.002867,0.000208,0.002351,0.123824,0.063671,314.765713,25.243090,0.999553,0.990467,0.003885,0.437829,0.000012,-0.000008,0.000000,0.000012,-0.000008,0.539890,0.000012,
2341,1993,1.91987404594781,-14.2635150836097,0.0267582648463645,0.001693,-0.003336,0.000290,0.075077,-0.102680,331.401259,22.494065,0.998551,0.976293,0.006310,0.354259,0.000431,0.000448,-0.000049,0.000489,0.000390,-49.765406,0.000881,
2461,2443,4.45210683429739,-4.39850604813822,-7.15865260758619E-05,0.002933,-0.000065,0.001268,0.129644,0.042667,324.094854,23.400863,0.999142,0.983828,0.004973,0.448706,0.000106,0.000000,0.000040,0.000119,-0.000013,18.413594,0.000131,
2236,3103,-0.567980023965646,9.9604648047046,0.0212312838414732,0.002986,-0.000535,0.007450,0.113373,0.029692,313.514660,24.904524,0.999510,0.992516,0.003518,0.462188,-0.000001,-0.000009,0.000002,0.000000,-0.000009,11.299162,0.000011,
2161,2713,-2.13269531154667,1.4853165624587,-0.0208763852828042,0.002668,-0.000239,0.004882,0.107854,0.051295,319.730328,24.438878,0.999384,0.989187,0.004120,0.409796,-0.000005,0.000023,-0.000002,0.000023,-0.000006,-85.893790,0.000024,
2176,2788,-1.81939206860207,3.11785709866352,-0.025675765638141,0.002784,-0.000201,0.002297,0.121029,0.030767,318.432957,24.472354,0.999297,0.988832,0.004328,0.418417,-0.000012,0.000011,0.000000,0.000011,-0.000012,-89.821255,0.000014,
2506,2383,5.44768714426492,-5.71090098227675,0.00679460874891902,0.003228,-0.000209,0.001048,0.143708,0.029416,325.260719,23.041484,0.998626,0.979760,0.005567,0.423121,0.000138,0.000054,0.000026,0.000145,0.000047,15.957704,0.000200,
2476,2728,4.71957824070818,1.82482253274122,-0.0183519113660395,0.002912,-0.000495,0.004664,0.115812,0.029173,319.327582,24.495528,0.999619,0.990803,0.003724,0.392275,0.000007,0.000045,0.000027,0.000059,-0.000007,62.573752,0.000064,
2491,2788,5.03324417286555,3.13357847991156,-0.0222302369176077,0.002525,-0.000395,0.006904,0.089356,0.036311,318.328627,24.759757,0.999133,0.987002,0.004436,0.373325,0.000019,0.000022,0.000000,0.000022,0.000019,-84.639531,0.000041,
2236,2803,-0.51815838232416,3.44652999561925,-0.0221903602570706,0.002658,-0.000202,0.004285,0.108444,0.045920,318.038094,24.502432,0.999464,0.989089,0.004178,0.470303,0.000004,0.000019,0.000008,0.000023,0.000000,65.865266,0.000026,
2341,2008,1.91715224210515,-13.9334188361452,0.0280684327718745,0.001755,-0.002695,0.001382,0.074420,-0.072064,331.169742,22.575696,0.998492,0.974608,0.006520,0.343555,0.000415,0.000420,-0.000041,0.000459,0.000376,-46.532780,0.000837,
2356,3133,2.03278592206159,10.6213976496063,0.0292318247090861,0.002979,-0.000278,0.007567,0.110561,0.051317,312.953710,25.503318,0.999501,0.991048,0.003854,0.423590,0.000022,0.000002,0.000004,0.000023,0.000001,10.315583,0.000028,
2431,2548,3.77651306420276,-2.10558089653595,0.0061353158713473,0.002531,-0.000708,0.004670,0.098579,0.011152,322.353161,23.893704,0.999683,0.989767,0.003971,0.362233,0.000055,-0.000006,0.000012,0.000057,-0.000008,10.639536,0.000062,
2506,2398,5.44267478918546,-5.38170339139092,-0.00256090914240303,0.002375,-0.000589,0.003905,0.093466,0.038347,324.888446,23.099415,0.998586,0.981729,0.005325,0.437454,0.000136,0.000036,0.000028,0.000143,0.000028,14.748441,0.000184,
2506,2623,5.39533368187099,-0.466391499371163,-0.0127796559219178,0.002398,-0.000354,0.001868,0.102628,0.018123,321.155893,23.897585,0.999857,0.994021,0.003440,0.552616,0.000044,-0.000001,-0.000001,0.000044,-0.000001,-1.301127,0.000050,
2461,2458,4.4491677541517,-4.0707211625972,0.00355398486482272,0.002725,0.000021,0.001253,0.120218,0.049739,323.872224,23.474197,0.999476,0.985605,0.004657,0.437993,0.000101,-0.000012,0.000033,0.000110,-0.000021,15.158809,0.000117,
2476,2503,4.76652904480062,-3.08702593807791,-0.0060898900857751,0.002812,-0.000466,0.002263,0.120140,0.034302,323.096754,23.541035,0.999587,0.987450,0.004342,0.491909,0.000072,-0.000020,0.000013,0.000073,-0.000022,7.679251,0.000075,
2461,2323,4.47604452492513,-7.02422840692471,-9.34359164830312E-05,0.002413,-0.000350,-0.001100,0.114486,0.019969,326.025231,22.913950,0.999048,0.977106,0.005672,0.464071,0.000132,0.000096,0.000009,0.000135,0.000094,13.337152,0.000230,
2386,2353,2.83256665018318,-6.36931618489331,0.0047382755211629,0.002009,-0.001139,0.004141,0.076797,0.014731,325.427924,23.235889,0.998676,0.980496,0.005465,0.516629,0.000085,0.000082,0.000027,0.000111,0.000056,43.700367,0.000170,
2341,2023,1.91453948901484,-13.6049426371519,0.0258345064124796,0.001885,-0.002446,-0.001485,0.090422,-0.110467,330.926586,22.543896,0.998704,0.975689,0.006259,0.377134,0.000396,0.000415,-0.000039,0.000445,0.000365,-51.700782,0.000812,
2356,2893,2.07556323723422,5.40996309581633,-0.00396550683251462,0.002486,-0.000018,0.004579,0.098325,0.054627,316.586421,24.902624,0.999529,0.991148,0.003759,0.418752,0.000006,-0.000002,0.000012,0.000015,-0.000011,35.626931,0.000015,
2491,2803,5.0304203292983,3.46005162852925,-0.023151028561756,0.002830,-0.000384,0.006631,0.104422,0.039176,318.091319,24.785480,0.999112,0.985906,0.004744,0.409353,0.000019,0.000017,0.000001,0.000019,0.000017,31.837183,0.000036,
2161,2728,-2.13504948816326,1.81129150410849,-0.024431991367976,0.002937,-0.000153,0.003152,0.125563,0.041690,319.475204,24.382694,0.999488,0.989345,0.004137,0.466787,-0.000009,0.000025,-0.000003,0.000026,-0.000009,-85.539661,0.000026,
2506,2413,5.44042398739106,-5.05432619943203,0.000334555861570607,0.002597,-0.000042,-0.000695,0.121611,0.030289,324.697832,23.129896,0.998926,0.982642,0.005286,0.461372,0.000129,0.000008,0.000038,0.000140,-0.000003,16.120971,0.000160,
2506,2638,5.39216236215165,-0.13803436545026,-0.0127966308958776,0.002531,-0.000523,0.004068,0.100145,0.016533,320.908459,24.057231,0.999744,0.991713,0.003819,0.452967,0.000032,0.000027,-0.000007,0.000037,0.000022,-35.648798,0.000059,
2476,2743,4.71582189773654,2.15169547296607,-0.0243134623228229,0.002644,-0.000494,0.003970,0.106190,0.033583,319.023564,24.497860,0.999709,0.992316,0.003561,0.451269,0.000005,0.000037,0.000026,0.000051,-0.000009,60.699835,0.000055,
2176,2803,-1.82175800772852,3.44347606069681,-0.0189281126084779,0.002319,0.000268,-0.000287,0.107844,0.046048,318.232496,24.461998,0.999357,0.989490,0.004317,0.456088,-0.000011,0.000008,0.000000,0.000008,-0.000011,89.743633,0.000011,
2236,2818,-0.520435260020399,3.77207997013466,-0.0143943129646686,0.002410,-0.000133,0.003490,0.099645,0.036988,317.850710,24.522580,0.999543,0.989989,0.004016,0.462049,0.000006,0.000031,0.000014,0.000037,0.000000,66.256574,0.000043,
2356,3148,2.03020194558296,10.9463841084606,0.0322745580114088,0.002994,-0.000559,0.007304,0.112000,0.024853,312.735278,25.537570,0.999451,0.991598,0.003812,0.400402,0.000019,-0.000001,0.000006,0.000021,-0.000002,14.787464,0.000023,
2461,2338,4.47314564123535,-6.69575314989594,0.00311940618013296,0.002517,-0.000807,0.001676,0.108670,0.007016,325.803158,23.028374,0.998947,0.976317,0.005686,0.392807,0.000125,0.000091,0.000014,0.000130,0.000085,19.941536,0.000217,
2506,2863,5.34465546372531,4.76723688054666,-0.023755639890453,0.002700,-0.000304,0.006289,0.099630,0.042561,317.144667,25.025509,0.999686,0.992400,0.003549,0.429434,-0.000001,0.000041,0.000019,0.000048,-0.000009,69.036219,0.000051,
2461,2473,4.44531102440063,-3.7422441398407,-0.00415143097887949,0.002598,-0.000180,0.001979,0.111600,0.039510,323.555609,23.528240,0.999525,0.986949,0.004487,0.429918,0.000082,-0.000024,0.000025,0.000088,-0.000030,12.590254,0.000090,
2431,2563,3.77368556163888,-1.77793883416568,0.000647973069817454,0.003299,-0.000927,0.006853,0.125714,0.022232,322.090740,23.901060,0.999499,0.988592,0.004228,0.417023,0.000054,0.000006,0.000013,0.000057,0.000003,13.845063,0.000068,
2491,2818,5.02772455946162,3.78626520032959,-0.0217516555148904,0.002891,-0.000123,0.004280,0.116401,0.052359,317.870319,24.799220,0.999264,0.986968,0.004644,0.467413,0.000016,0.000012,0.000006,0.000020,0.000008,35.324290,0.000029,
2506,2653,5.38820059193278,0.190952481586947,-0.0231211454852769,0.002545,-0.000628,0.003868,0.101568,0.028912,320.578385,24.179040,0.999573,0.987528,0.004485,0.405545,0.000025,0.000033,-0.000008,0.000038,0.000020,-57.931998,0.000059,
2386,2368,2.82895269106798,-6.03994679914516,-6.55422272188844E-05,0.001999,-0.001352,0.008293,0.061443,0.025482,325.129060,23.339275,0.998727,0.982140,0.005246,0.469230,0.000081,0.000074,0.000038,0.000116,0.000040,42.339494,0.000162,
2356,2908,2.07249593376026,5.73628525078182,-0.00931372410963149,0.002856,-0.000371,0.006879,0.107150,0.057551,316.305666,24.910645,0.999402,0.990270,0.003921,0.452310,0.000005,-0.000002,0.000012,0.000014,-0.000010,36.157435,0.000014,
2476,2758,4.71371720607477,2.47654649230707,-0.0126327225256659,0.002870,-0.000685,0.007101,0.104580,0.037979,318.875977,24.458836,0.999561,0.990473,0.003861,0.551337,0.000019,0.000036,0.000024,0.000053,0.000002,54.787432,0.000062,
2506,2878,5.34303768398381,5.09174212382305,-0.00481955886800733,0.002739,-0.000478,0.008290,0.093575,0.034566,317.052955,25.049028,0.999668,0.993025,0.003454,0.458469,-0.000002,0.000033,0.000023,0.000045,-0.000014,63.759746,0.000046,
2461,2353,4.4690562099696,-6.36654965938258,-0.00336827419914698,0.002221,-0.000855,0.004345,0.085072,0.023528,325.481909,23.089919,0.999170,0.981615,0.005392,0.404470,0.000120,0.000088,0.000019,0.000129,0.000079,25.035775,0.000210,
2506,2668,5.38588176291153,0.517005701121313,-0.0186742781003204,0.002860,-0.000380,0.002847,0.120094,0.028696,320.390344,24.172747,0.999445,0.985571,0.004738,0.473018,0.000018,0.000012,-0.000005,0.000021,0.000009,-31.798542,0.000031,
2491,2833,5.02466262505264,4.1126637264132,-0.0220755563125294,0.002798,-0.000101,0.002700,0.118178,0.042170,317.624614,24.844583,0.999342,0.987908,0.004351,0.470681,0.000017,0.000029,0.000011,0.000035,0.000011,59.668909,0.000049,
2236,2833,-0.522820113751397,4.09925243461292,-0.0141291056170303,0.002746,-0.000113,0.004815,0.110890,0.062776,317.619416,24.603648,0.999548,0.990454,0.003807,0.427847,0.000008,0.000033,0.000021,0.000045,-0.000003,60.555495,0.000050,
2356,3163,2.02763110188454,11.2714660367449,0.0350954392466178,0.002920,-0.000269,0.005508,0.115108,0.044358,312.516280,25.536852,0.999407,0.991677,0.003921,0.458484,0.000019,-0.000002,0.000004,0.000020,-0.000003,11.113266,0.000021,
2461,2488,4.44266924026341,-3.41499798372634,-0.00345645713065323,0.002832,-0.000118,0.000843,0.126625,0.037761,323.333219,23.543685,0.999566,0.985615,0.004604,0.468199,0.000074,-0.000019,0.000017,0.000077,-0.000022,9.976693,0.000079,
2476,2773,4.70966724315469,2.80561828053848,-0.023746837339047,0.002605,-0.000627,0.004665,0.101737,0.032374,318.534413,24.642462,0.999114,0.986420,0.004453,0.418944,0.000017,0.000026,0.000018,0.000040,0.000003,52.262451,0.000048,
2506,2893,5.34085393080769,5.41919876785449,-0.00172911424937183,0.003150,0.000049,0.005374,0.123948,0.051587,316.863467,25.205687,0.999551,0.990317,0.004001,0.379535,0.000007,0.000015,0.000021,0.000032,-0.000010,50.825933,0.000033,
2506,2683,5.38154271099168,0.845751000912415,-0.0286926909600993,0.002676,-0.000488,0.005102,0.102913,0.034355,320.044127,24.292848,0.999665,0.989806,0.003931,0.420305,0.000014,0.000014,0.000007,0.000022,0.000007,44.396783,0.000030,
2461,2368,4.46727994880436,-6.038682463976,0.00507048311015978,0.002638,-0.000552,0.002607,0.110813,0.026703,325.335059,23.193076,0.999624,0.986699,0.004905,0.360303,0.000119,0.000075,0.000034,0.000138,0.000057,28.573361,0.000200,
2386,2383,2.82668743234759,-5.71140773758897,-0.00254461482529678,0.002471,-0.000904,0.003819,0.099273,0.012191,324.903223,23.418580,0.999002,0.983862,0.005132,0.421605,0.000082,0.000062,0.000037,0.000111,0.000034,37.291127,0.000151,
2356,2923,2.0698799838951,6.06245239811143,-0.00904854982280767,0.002917,-0.000298,0.004924,0.116880,0.058251,316.072736,24.951586,0.999413,0.990337,0.003882,0.450224,0.000003,-0.000001,0.000007,0.000009,-0.000006,37.336292,0.000009,
2461,2503,4.43967494818145,-3.08736208742442,-0.00324984724636579,0.002829,-0.000175,0.000583,0.127476,0.032023,323.092281,23.599245,0.999472,0.986221,0.004472,0.462455,0.000070,-0.000017,0.000010,0.000071,-0.000018,6.294851,0.000074,
2356,3178,2.02509189622477,11.5968116411694,0.0372194682731788,0.003195,-0.000361,0.007101,0.122055,0.033194,312.295241,25.590390,0.999519,0.992158,0.003725,0.431210,0.000018,-0.000004,0.000005,0.000019,-0.000005,11.810093,0.000020,
2506,2908,5.33662072150011,5.74603294264939,-0.0125798062931608,0.002846,0.000010,0.004319,0.114064,0.039965,316.517312,25.237441,0.999535,0.988742,0.004139,0.397034,0.000012,0.000003,0.000028,0.000036,-0.000021,40.014039,0.000036,
2506,2698,5.37924136037152,1.17178447025341,-0.02100455582206,0.002707,-0.000500,0.003723,0.109639,0.023041,319.871232,24.331334,0.999618,0.990887,0.003778,0.431766,0.000011,0.000018,0.000012,0.000027,0.000002,53.120641,0.000032,
2476,2788,4.70691416920959,3.13230226598188,-0.0211865711751784,0.002736,-0.000602,0.005220,0.105614,0.023883,318.315049,24.721411,0.999132,0.984490,0.004642,0.388012,0.000017,0.000022,0.000010,0.000029,0.000009,53.023878,0.000040,
2236,2848,-0.52612031613803,4.42511841643301,-0.0212381515785864,0.002637,-0.000729,0.005457,0.103549,0.025126,317.308950,24.577257,0.999433,0.990634,0.003804,0.437637,0.000008,0.000026,0.000022,0.000041,-0.000007,55.674986,0.000044,
2506,2713,5.37637373725424,1.49937354784228,-0.0192863039814597,0.002732,-0.000375,0.002891,0.114072,0.031164,319.645174,24.448489,0.999602,0.990337,0.003878,0.384020,0.000004,0.000024,0.000017,0.000034,-0.000006,60.151758,0.000036,
2506,2923,5.33257801504599,6.07341564882893,-0.0258872918437305,0.003137,-0.000480,0.005523,0.122607,0.029394,316.168674,25.306898,0.999364,0.986197,0.004350,0.377740,0.000008,0.000005,0.000021,0.000027,-0.000015,43.081237,0.000027,
2356,2938,2.06693655168899,6.38845358968359,-0.00855673832012371,0.002869,-0.000518,0.006038,0.110659,0.038170,315.825859,25.003854,0.999291,0.989106,0.004057,0.416146,0.000008,-0.000001,0.000004,0.000009,-0.000002,21.761567,0.000010,
2476,2803,4.70395577221493,3.45913420222003,-0.0198178048655677,0.002936,-0.000676,0.007870,0.104683,0.028432,318.080686,24.795884,0.999213,0.983629,0.004841,0.374559,0.000014,0.000014,0.000011,0.000025,0.000003,44.635684,0.000031,
2461,2518,4.43665860923678,-2.76057895397084,0.00464331243460947,0.002541,-0.000786,0.004825,0.098061,0.009267,322.885540,23.667793,0.999247,0.983739,0.004641,0.426517,0.000060,-0.000020,0.000011,0.000061,-0.000022,7.788093,0.000062,
2386,2398,2.824238649065,-5.38427949458194,0.00122875144097634,0.002295,-0.000450,-0.000211,0.105795,0.012823,324.698683,23.420089,0.999280,0.985239,0.004853,0.465295,0.000077,0.000063,0.000041,0.000111,0.000028,40.175464,0.000148,
2506,2728,5.37341083609389,1.82546957715901,-0.0145861075260996,0.002551,-0.000573,0.003832,0.102070,0.031058,319.428293,24.464954,0.999467,0.988949,0.004094,0.428750,-0.000005,0.000032,0.000026,0.000046,-0.000018,62.967195,0.000046,
2506,2938,5.33069967482646,6.39840826462857,-0.00806205172921182,0.003021,-0.000496,0.007648,0.109053,0.034821,316.059566,25.365943,0.999537,0.989941,0.003921,0.384626,0.000007,-0.000016,0.000017,0.000017,-0.000025,28.293644,0.000026,
2236,2863,-0.528197573900929,4.75148298566798,-0.0144023870287242,0.002736,-0.000208,0.005702,0.107527,0.052173,317.125469,24.640602,0.999386,0.990338,0.003767,0.421826,0.000006,0.000024,0.000019,0.000036,-0.000005,57.761096,0.000039,
2476,2818,4.70103115781126,3.78521071838412,-0.0169161431956013,0.002774,-0.000518,0.007367,0.099278,0.043366,317.854916,24.806392,0.999335,0.985597,0.004696,0.435519,0.000011,0.000007,0.000011,0.000020,-0.000002,39.825662,0.000022,
2356,2953,2.06393620071001,6.71446707410807,-0.0111188404349605,0.002679,-0.000357,0.002991,0.112654,0.021429,315.561557,25.036717,0.999360,0.989441,0.003985,0.404891,0.000007,-0.000005,0.000003,0.000008,-0.000005,12.964679,0.000008,
2506,2743,5.36881700356075,2.15444058256649,-0.0269079320701167,0.002350,-0.000608,0.006599,0.082150,0.037488,319.059586,24.607579,0.999710,0.989687,0.003904,0.354092,-0.000009,0.000027,0.000023,0.000038,-0.000021,64.096066,0.000038,
2461,2533,4.43347204867539,-2.43193709407134,-0.0016569138590512,0.002765,-0.000590,0.003084,0.114972,0.015020,322.605696,23.754991,0.999478,0.987485,0.004255,0.400710,0.000058,-0.000009,0.000012,0.000060,-0.000011,9.728672,0.000063,
2506,2953,5.32860019783348,6.72368368977101,0.000884860765779649,0.003112,-0.000498,0.005941,0.119823,0.021103,315.900417,25.409799,0.999582,0.990523,0.003888,0.387169,0.000011,-0.000020,0.000023,0.000023,-0.000033,27.906934,0.000034,
2386,2413,2.8217315398174,-5.0563796436221,0.0026525650827125,0.002484,-0.000059,-0.001261,0.118380,0.015686,324.480154,23.472150,0.999415,0.984645,0.004793,0.460916,0.000070,0.000061,0.000044,0.000110,0.000021,42.016216,0.000141,
2476,2833,4.69886661872929,4.11113332403265,-0.0106242153033236,0.003005,-0.000294,0.005845,0.115801,0.054675,317.679498,24.835825,0.999477,0.987494,0.004175,0.474007,0.000008,0.000021,0.000013,0.000028,0.000000,58.166284,0.000033,
2506,2758,5.36547764212661,2.48033513130922,-0.0283610914636938,0.002365,-0.000800,0.008181,0.076653,0.035786,318.797742,24.567428,0.999718,0.990432,0.003782,0.454039,0.000004,0.000022,0.000018,0.000033,-0.000007,58.651790,0.000035,
2506,2968,5.32527914536507,7.05033418472766,-0.000974924311776704,0.002812,-0.000007,0.003191,0.116933,0.038691,315.636140,25.477339,0.999547,0.989222,0.004173,0.397937,0.000010,-0.000014,0.000032,0.000033,-0.000036,35.093928,0.000040,
2461,2548,4.43055029021069,-2.10376246378347,-0.00130796976139891,0.002843,-0.000594,0.003016,0.118835,0.023659,322.368361,23.861180,0.999725,0.991506,0.003755,0.358606,0.000056,-0.000012,0.000010,0.000058,-0.000013,8.184589,0.000061,
2476,2848,4.69501618658349,4.4382472148471,-0.0201023326386007,0.003023,-0.000622,0.006171,0.115216,0.025063,317.354555,24.901507,0.999347,0.987331,0.004226,0.435237,0.000000,0.000030,0.000011,0.000034,-0.000004,72.095804,0.000037,
2506,2773,5.36324184620912,2.80715628706776,-0.0298682999909943,0.002771,-0.000179,0.001267,0.122276,0.029773,318.586173,24.620855,0.999659,0.990936,0.003809,0.455556,0.000005,0.000025,0.000012,0.000030,-0.000001,65.524589,0.000035,
2506,2983,5.32200135428313,7.37630399337404,-0.00339017587890567,0.002829,-0.000206,0.003125,0.117921,0.034732,315.371477,25.504329,0.999424,0.987528,0.004281,0.427454,0.000012,-0.000019,0.000033,0.000033,-0.000040,32.850479,0.000043,
2386,2428,2.81897273311804,-4.72801170946715,0.00231696291137951,0.002681,-0.000146,-0.000848,0.125940,0.031566,324.241560,23.542296,0.999511,0.987550,0.004495,0.451586,0.000069,0.000052,0.000047,0.000108,0.000013,39.605391,0.000133,
2461,2563,4.42611307120784,-1.77558960193776,-0.0166635752077013,0.003057,-0.000896,0.007326,0.112336,0.024495,321.989602,23.841617,0.999392,0.988176,0.004378,0.434865,0.000060,0.000004,0.000012,0.000063,0.000001,11.524077,0.000073,
2506,2788,5.36039136785064,3.13354518241792,-0.0222335770284872,0.002781,-0.000581,0.006043,0.104094,0.023538,318.387185,24.710545,0.999479,0.990343,0.004033,0.420767,0.000006,0.000023,0.000003,0.000024,0.000005,80.258946,0.000031,
2506,2998,5.31919783479114,7.7020014396764,0.00142145845381947,0.002879,-0.000700,0.005061,0.112463,0.011909,315.161027,25.578520,0.999506,0.989292,0.003960,0.390554,0.000013,-0.000023,0.000035,0.000034,-0.000044,31.437714,0.000046,
2386,2443,2.81499653752177,-4.39953135188039,-0.00850035140098271,0.002624,-0.000577,0.001353,0.115311,0.027473,323.897438,23.549743,0.999404,0.988264,0.004472,0.485111,0.000073,0.000031,0.000045,0.000102,0.000003,32.338597,0.000119,
2506,2803,5.3567619346597,3.46061493264805,-0.0238894476171936,0.002644,-0.000769,0.008962,0.086437,0.031348,318.110539,24.780818,0.999000,0.986264,0.004932,0.419216,0.000008,0.000024,0.000002,0.000025,0.000008,84.645064,0.000034,
2506,3013,5.31654004472714,8.02817581748952,0.00416982500945551,0.003055,-0.000361,0.004730,0.121979,0.026365,314.947803,25.648964,0.999528,0.990198,0.003768,0.394918,0.000014,-0.000006,0.000031,0.000037,-0.000028,36.246766,0.000039,
2461,2578,4.42135328772874,-1.44722751042274,-0.0299622388759531,0.002307,-0.000554,0.005921,0.083387,0.036573,321.605226,23.853156,0.999537,0.991286,0.004152,0.490954,0.000062,0.000007,0.000019,0.000068,0.000001,17.486321,0.000079,
2506,3028,5.31366444710496,8.35372186058888,0.00804083119612642,0.002915,-0.000129,0.004403,0.116945,0.035600,314.729663,25.677926,0.999555,0.991705,0.003691,0.435637,0.000015,0.000005,0.000026,0.000037,-0.000017,39.452157,0.000037,
2461,2593,4.4197909949268,-1.12129116144058,-0.0150479592894612,0.002576,-0.000834,0.006358,0.093933,0.019303,321.497139,23.922167,0.999281,0.987483,0.004436,0.459410,0.000062,0.000004,0.000024,0.000071,-0.000005,19.892273,0.000080,
2386,2458,2.81196199542518,-4.07092322670199,-0.0103967690910167,0.002834,-0.000690,0.003856,0.115942,0.029012,323.638666,23.652501,0.999369,0.987227,0.004604,0.428787,0.000067,0.000021,0.000041,0.000091,-0.000003,30.416222,0.000104,
2506,3043,5.31057181121507,8.68060912862962,0.00844774848781071,0.003069,-0.000316,0.006546,0.115687,0.039312,314.485548,25.816863,0.999706,0.992311,0.003759,0.360505,0.000018,0.000012,0.000041,0.000056,-0.000026,42.842268,0.000056,
2461,2608,4.41699984960746,-0.794381330414218,-0.00955377405358604,0.002445,-0.001163,0.007388,0.083956,0.011217,321.289263,23.993130,0.999209,0.984061,0.004744,0.435256,0.000058,0.000004,0.000017,0.000062,-0.000001,16.084868,0.000072,
2506,3058,5.30795913366789,9.00500273415841,0.0158053955091191,0.003053,-0.000470,0.008107,0.108849,0.037624,314.295312,25.780408,0.999721,0.992213,0.003847,0.455446,0.000018,0.000011,0.000037,0.000052,-0.000023,42.205625,0.000052,
2461,2623,4.4134992546902,-0.465167845091486,-0.0213007245604899,0.002652,-0.000482,0.003809,0.107224,0.029779,320.969406,24.105862,0.999491,0.987869,0.004204,0.396539,0.000057,0.000020,0.000009,0.000059,0.000019,12.761771,0.000081,
2116,2203,-3.02819279825195,-9.65053859976237,0.00586999113943421,0.001395,-0.001009,0.000954,0.060870,-0.018652,328.327372,24.249050,0.998168,0.975941,0.005850,0.364462,0.000173,0.000147,0.000061,0.000223,0.000098,39.026312,0.000329,
2461,2668,4.40459738239251,0.515488741844933,-0.0207859796534535,0.002752,-0.000325,0.003436,0.113254,0.015356,320.247795,24.208187,0.999468,0.986658,0.004344,0.444573,0.000040,0.000030,-0.000004,0.000041,0.000028,-19.387028,0.000070,
2446,2563,4.09948917282869,-1.77591851625765,-0.0118114765795667,0.002878,-0.000519,0.004409,0.115476,0.058878,322.002099,23.880057,0.999582,0.988274,0.004392,0.452822,0.000060,0.000003,0.000016,0.000064,-0.000001,14.888955,0.000073,
2131,3133,-2.85040023744619,10.6028731963481,0.0338086689840225,0.002733,-0.000207,0.007784,0.102856,0.058608,313.464244,24.552019,0.999678,0.994787,0.003117,0.446869,0.000008,0.000005,0.000003,0.000010,0.000003,33.968324,0.000014,
2371,2278,2.52105844281032,-8.01033393194436,0.0193150597151543,0.002089,-0.000997,0.001205,0.091053,-0.000919,326.766394,23.268425,0.999804,0.993663,0.003580,0.305466,0.000125,0.000095,0.000007,0.000127,0.000093,12.016236,0.000221,
2041,3283,-4.82445695665054,13.844181681466,0.0385827120621229,0.002856,-0.000274,0.007993,0.109802,0.054330,311.525028,24.064840,0.999600,0.993715,0.003122,0.466734,0.000035,-0.000037,0.000000,0.000035,-0.000037,-0.242595,0.000042,
2386,2128,2.87735672296932,-11.2983438368323,0.0114452005466319,0.002454,-0.001281,-0.001436,0.116928,-0.037783,329.159597,22.624167,0.998959,0.975253,0.005912,0.389967,0.000286,0.000304,-0.000039,0.000335,0.000255,-51.350790,0.000592,
2326,2833,1.43322129103149,4.1052072250033,-0.0250393195762513,0.002906,-0.000309,0.004187,0.119158,0.037189,317.414488,24.766725,0.999806,0.993031,0.003553,0.347195,-0.000002,0.000028,0.000014,0.000033,-0.000007,68.804917,0.000035,
2506,2428,5.43804498320606,-4.72702103124009,0.00571503155811115,0.002872,-0.000319,-0.000725,0.134253,0.020053,324.512345,23.184007,0.998806,0.980456,0.005610,0.459364,0.000120,0.000007,0.000048,0.000138,-0.000011,20.025292,0.000153,
2416,2413,3.4758221012507,-5.0551280044786,-0.000300872121499651,0.002613,-0.000992,0.001584,0.113623,-0.000384,324.482632,23.451849,0.999676,0.987148,0.004499,0.376262,0.000084,0.000054,0.000043,0.000115,0.000023,35.366611,0.000147,
2371,3028,2.37739544772046,8.34443053368083,0.00682067921638918,0.002905,0.000100,0.002250,0.125879,0.059450,314.502361,25.287952,0.999457,0.989521,0.004088,0.428895,0.000013,-0.000005,-0.000002,0.000013,-0.000005,-5.040936,0.000013,
2491,2608,5.07187253292254,-0.794013865117499,-0.00402366946786969,0.002365,-0.000543,0.003355,0.095455,0.033031,321.421850,23.932292,0.999839,0.993847,0.003604,0.486428,0.000054,-0.000010,0.000026,0.000063,-0.000019,19.262183,0.000065,
2401,2413,3.14850794303107,-5.05544058854018,0.000263966479508326,0.002532,-0.000478,0.002167,0.108070,0.027950,324.463415,23.461816,0.999471,0.985443,0.004712,0.439419,0.000077,0.000057,0.000042,0.000110,0.000023,38.100297,0.000143,
2431,2008,3.88723756569809,-13.93695473096,0.0303225195040113,0.003241,-0.002281,-0.005611,0.167795,-0.096278,331.362165,21.906418,0.999301,0.974861,0.006035,0.361680,0.000512,0.000434,-0.000064,0.000548,0.000398,-29.416229,0.000950,
2131,2278,-2.71218656341766,-8.01020775752818,0.00618220212351162,0.002719,-0.001414,0.003352,0.114372,-0.019656,327.112899,24.170913,0.998842,0.981839,0.005406,0.407039,0.000117,0.000072,0.000031,0.000133,0.000057,26.844376,0.000194,
2206,2833,-1.17369020000659,4.09654680289253,-0.0045028458424099,0.003171,-0.000321,0.005927,0.127212,0.054087,317.791969,24.543250,0.999294,0.989716,0.004031,0.443015,0.000004,0.000032,0.000017,0.000039,-0.000004,64.882538,0.000043,
2446,2578,4.09532660575465,-1.44730423748371,-0.0220216659079142,0.002978,-0.000891,0.009548,0.100757,0.061310,321.657725,23.950797,0.999625,0.991053,0.004054,0.438173,0.000059,0.000010,0.000021,0.000066,0.000003,20.011886,0.000078,
2476,2518,4.76333100471986,-2.75944166955412,-0.00481448504797299,0.002656,-0.000856,0.003334,0.108786,0.007315,322.852491,23.627945,0.999376,0.983916,0.004671,0.435636,0.000061,-0.000019,0.000016,0.000064,-0.000022,10.850508,0.000065,
2416,2188,3.52191996205581,-9.98318682993703,0.0193807436712063,0.002492,-0.001139,-0.003361,0.125855,-0.028205,328.300204,22.717903,0.999276,0.982952,0.005038,0.334414,0.000226,0.000199,-0.000026,0.000242,0.000184,-31.431463,0.000427,
2416,2023,3.55518170527111,-13.6059447086403,0.0318303729030731,0.002601,-0.002806,0.000374,0.116366,-0.092434,331.056766,22.172432,0.998798,0.973649,0.006206,0.255664,0.000463,0.000419,-0.000073,0.000517,0.000364,-36.688825,0.000886,
2281,2998,0.426758493326897,7.6863651301398,0.00507616886545748,0.002853,-0.000383,0.006617,0.109160,0.029045,315.007853,24.965511,0.999261,0.989089,0.004085,0.386196,0.000011,-0.000002,0.000007,0.000014,-0.000005,24.380027,0.000014,
2401,2188,3.19388312586321,-9.98280371258112,0.0166868126543704,0.002353,-0.000618,-0.003296,0.119335,0.002902,328.251900,22.757438,0.999187,0.983226,0.005129,0.403957,0.000218,0.000192,-0.000028,0.000236,0.000174,-32.893636,0.000411,
2251,2908,-0.208332541661044,5.72924754901607,0.00724430958234734,0.002894,0.000019,0.002737,0.124400,0.056515,316.559197,24.760559,0.999698,0.992600,0.003493,0.397455,0.000003,0.000003,0.000016,0.000020,-0.000013,44.724276,0.000020,
2311,2743,1.12442543934386,2.14311676165794,-0.0121814200682024,0.002744,-0.000357,0.004197,0.111753,0.027818,318.990381,24.445900,0.999541,0.990258,0.003951,0.447593,0.000006,0.000032,0.000011,0.000036,0.000002,69.263703,0.000043,
2431,2278,3.82970034328654,-8.01014472582051,-0.000752719872991747,0.002414,-0.000933,0.001226,0.105628,-0.001235,326.680398,22.830992,0.998966,0.977226,0.005943,0.485597,0.000151,0.000125,-0.000001,0.000151,0.000125,-2.253407,0.000276,
2371,3133,2.35844394779098,10.6230497026775,0.0259555172161186,0.003028,-0.000355,0.007808,0.111643,0.046943,312.930046,25.587674,0.999586,0.991457,0.003711,0.397004,0.000025,0.000002,0.000004,0.000025,0.000001,9.697990,0.000030,
2476,2413,4.78554078704743,-5.05481652690704,0.00121591257141063,0.002550,-0.000365,-0.001488,0.122328,0.027619,324.621114,23.219902,0.999447,0.987364,0.004649,0.458044,0.000106,0.000027,0.000035,0.000119,0.000013,20.849144,0.000146,
2041,3298,-4.82678010359551,14.1691973040684,0.0369054597961167,0.003035,-0.000362,0.008320,0.117148,0.051728,311.272652,24.081480,0.999560,0.994396,0.003180,0.438425,0.000039,-0.000021,0.000001,0.000039,-0.000021,0.605224,0.000039,
2341,2998,1.73061952229852,7.69008382170788,0.00779844117192852,0.002845,-0.000584,0.007582,0.104353,0.024951,314.977895,25.119381,0.999887,0.997073,0.002808,0.397727,0.000006,-0.000008,0.000001,0.000006,-0.000008,5.875917,0.000008,
2431,2023,3.88355512027824,-13.6065960085628,0.0279064947288816,0.003090,-0.002811,-0.001349,0.145008,-0.092882,331.077190,22.003402,0.999147,0.975864,0.005875,0.321910,0.000485,0.000427,-0.000071,0.000533,0.000379,-33.986048,0.000917,
2371,2098,2.55526255342592,-11.9566715048141,0.0170620733273381,0.002321,-0.001925,0.003927,0.091516,-0.026355,329.654000,22.629343,0.998963,0.976840,0.005889,0.394567,0.000322,0.000321,-0.000036,0.000358,0.000285,-44.666446,0.000645,
2326,2848,1.43073248518307,4.4295425845693,-0.0167207138022718,0.002628,-0.000261,0.004894,0.103948,0.033128,317.225324,24.683516,0.999739,0.992087,0.003670,0.460449,-0.000001,0.000026,0.000014,0.000032,-0.000006,67.315003,0.000034,
2491,2623,5.06851758532534,-0.466754887981828,-0.0103344966592545,0.002573,-0.000477,0.002812,0.107116,0.032118,321.136777,23.931279,0.999845,0.993942,0.003471,0.546313,0.000052,0.000001,0.000014,0.000055,-0.000002,14.219853,0.000062,
2461,2683,4.4011666760861,0.843384944649166,-0.0238443237770412,0.002711,-0.000420,0.004718,0.106576,0.038960,319.970745,24.289367,0.999496,0.987694,0.004279,0.441955,0.000039,0.000040,0.000001,0.000041,0.000039,59.878981,0.000080,
2461,2383,4.4632977356131,-5.71024875173267,-0.000583017290409771,0.002211,-0.000715,0.003277,0.088698,0.039585,325.022484,23.206697,0.999645,0.986172,0.004838,0.416159,0.000118,0.000047,0.000026,0.000127,0.000039,18.258790,0.000173,
2221,2548,-0.798622208496621,-2.10998396771294,-0.00889488715540665,0.002756,-0.000490,0.001109,0.122997,0.027458,322.338662,24.170398,0.999707,0.991666,0.003599,0.441541,0.000010,0.000024,0.000010,0.000029,0.000005,62.398004,0.000037,
2116,2218,-3.03057161465768,-9.3213481691589,0.00300749791938415,0.001332,-0.000261,-0.002803,0.069325,0.022563,328.070191,24.266542,0.998436,0.978871,0.005618,0.394286,0.000160,0.000136,0.000059,0.000208,0.000088,39.247409,0.000304,
2221,3013,-0.878322988209515,8.00733718550187,0.0132756991948213,0.002940,-0.000161,0.007354,0.111942,0.058423,314.952348,24.780192,0.999440,0.990911,0.003782,0.449233,-0.000005,-0.000002,0.000004,0.000001,-0.000008,53.859221,0.000009,
2416,2428,3.47250474070002,-4.72653697019992,-0.0075404389830851,0.002606,-0.000769,-0.001171,0.123428,-0.008287,324.188705,23.501684,0.999524,0.986255,0.004637,0.368202,0.000084,0.000048,0.000047,0.000116,0.000015,34.540158,0.000144,
2506,2443,5.43427540458513,-4.39859101386771,0.00411326800667666,0.002543,-0.000330,0.001486,0.110647,0.033048,324.231522,23.256990,0.998986,0.981587,0.005350,0.462227,0.000125,-0.000017,0.000048,0.000140,-0.000032,16.855754,0.000147,
2266,3193,0.0680736380026978,11.9147390611504,0.0356079586983924,0.003116,-0.000349,0.008303,0.116174,0.051106,312.105052,25.212079,0.999538,0.991180,0.003603,0.437881,0.000011,-0.000006,0.000008,0.000014,-0.000009,20.804230,0.000014,
2476,2533,4.7600466322846,-2.43069439968536,-0.0114575216092589,0.002802,-0.000387,0.001136,0.124018,0.012275,322.567999,23.723365,0.999608,0.987845,0.004128,0.402920,0.000059,-0.000005,0.000020,0.000064,-0.000011,15.660570,0.000069,
2446,2593,4.09190984937311,-1.12078637565129,-0.0244545406097245,0.002330,-0.000608,0.004365,0.090472,0.037100,321.383800,23.929280,0.999691,0.992210,0.003860,0.488427,0.000057,0.000008,0.000024,0.000067,-0.000002,22.028060,0.000076,
2431,2293,3.82675576406903,-7.68236579604005,0.0101851767803964,0.002000,-0.001670,0.006603,0.066597,-0.002530,326.489953,22.932861,0.999013,0.979512,0.005586,0.434346,0.000140,0.000115,0.000009,0.000143,0.000113,18.142569,0.000256,
2401,3058,3.02440960672566,8.99768271436798,0.0139820820423324,0.003225,-0.000235,0.005222,0.129445,0.040554,314.094732,25.478676,0.999645,0.992095,0.003665,0.402233,0.000014,-0.000006,0.000005,0.000016,-0.000008,13.270188,0.000016,
2416,2038,3.55130161790689,-13.2769056853121,0.0243515342472733,0.002366,-0.002725,0.001695,0.100867,-0.070914,330.737682,22.079556,0.998803,0.973891,0.006169,0.422001,0.000439,0.000391,-0.000074,0.000493,0.000337,-36.062451,0.000835,
2131,2293,-2.71591608214926,-7.68145742050118,0.000610501602352542,0.001743,-0.001094,0.003032,0.070619,-0.002073,326.781074,24.172052,0.998856,0.983468,0.005163,0.431593,0.000110,0.000067,0.000031,0.000127,0.000051,27.626450,0.000182,
2401,2428,3.14558203548955,-4.72755030672879,-0.00257493640168605,0.002623,-0.000500,0.000542,0.118108,0.015764,324.206800,23.493003,0.999488,0.985235,0.004681,0.443008,0.000077,0.000049,0.000045,0.000110,0.000015,36.565379,0.000137,
2386,2143,2.87380952280904,-10.9687745119629,0.00726147085396178,0.001996,-0.000995,-0.003123,0.102126,-0.028254,328.867739,22.669917,0.998847,0.973002,0.006068,0.400217,0.000266,0.000269,-0.000036,0.000304,0.000232,-46.165626,0.000537,
2371,2293,2.51872981182809,-7.68267478897901,0.0234253670609519,0.002554,-0.001038,0.004486,0.100738,0.020844,326.568075,23.265428,0.999784,0.994109,0.003473,0.373360,0.000116,0.000097,0.000014,0.000124,0.000089,27.482002,0.000214,
2416,2203,3.51870089451719,-9.65522882091698,0.0162955996983669,0.002714,-0.001161,-0.000192,0.124436,-0.026979,328.031306,22.658434,0.999316,0.982033,0.005229,0.445564,0.000211,0.000185,-0.000015,0.000218,0.000178,-24.637648,0.000396,
2371,3043,2.37475615911127,8.66944221218492,0.0117029702694822,0.003003,-0.000344,0.005384,0.119085,0.048093,314.291506,25.296994,0.999605,0.991296,0.003735,0.448669,0.000011,-0.000001,0.000001,0.000011,-0.000001,4.069016,0.000013,
2131,3148,-2.85299975736605,10.9278124917066,0.0356140219218446,0.002426,0.000033,0.006464,0.092812,0.070621,313.224281,24.531799,0.999631,0.993354,0.003263,0.483552,0.000010,0.000007,0.000006,0.000015,0.000002,38.353603,0.000018,
2431,2578,3.77055134310347,-1.44994424977909,0.000443175660564066,0.003477,-0.001346,0.010744,0.119381,0.027919,321.838593,23.997928,0.999691,0.992442,0.003811,0.376773,0.000054,0.000015,0.000017,0.000060,0.000009,20.317068,0.000075,
2491,2638,5.06414145908931,-0.13715546758921,-0.0227026385879299,0.002572,-0.000668,0.005682,0.096022,0.048053,320.776891,24.082842,0.999527,0.988892,0.004119,0.470543,0.000046,0.000022,0.000003,0.000047,0.000022,6.664915,0.000070,
2371,2113,2.55247090800437,-11.6274968124323,0.0163523942825918,0.002292,-0.001682,0.001947,0.097296,-0.020362,329.412041,22.668378,0.999008,0.976733,0.005806,0.405682,0.000300,0.000311,-0.000033,0.000339,0.000272,-49.530516,0.000612,
2191,2608,-1.46268903201356,-0.802185791698818,-0.0143227837625091,0.002361,-0.000648,0.005544,0.091006,0.021837,321.371613,24.278098,0.998522,0.984833,0.004903,0.437276,0.000007,0.000019,0.000013,0.000027,-0.000001,58.131766,0.000031,
2431,2038,3.88051224902794,-13.2779037596908,0.0330055342427613,0.002834,-0.002825,0.001437,0.123102,-0.081787,330.856216,22.030962,0.999161,0.976283,0.005816,0.359065,0.000460,0.000400,-0.000074,0.000510,0.000350,-33.939625,0.000865,
2281,3013,0.423534786682175,8.01203597842751,0.00491948451929147,0.002561,-0.000616,0.009254,0.086915,0.048514,314.739286,24.962127,0.999256,0.988680,0.004075,0.436015,0.000010,-0.000008,0.000003,0.000010,-0.000008,8.172793,0.000011,
2371,3148,2.35582974227426,10.9481408011828,0.0304826220376526,0.002868,-0.000366,0.006895,0.107422,0.028657,312.718254,25.632878,0.999559,0.990549,0.003787,0.373360,0.000023,-0.000004,0.000006,0.000024,-0.000005,11.597571,0.000025,
2476,2428,4.78228859489831,-4.72671718493085,0.00104790549136169,0.002654,-0.000566,0.001894,0.114196,0.028654,324.368160,23.282975,0.999390,0.986370,0.004680,0.454265,0.000099,0.000025,0.000044,0.000120,0.000005,24.941198,0.000141,
2326,2863,1.42835000903088,4.75522496818204,-0.0125447717015845,0.002745,-0.000739,0.005153,0.108301,0.020545,317.020397,24.705103,0.999695,0.991497,0.003767,0.460429,-0.000002,0.000021,0.000012,0.000026,-0.000007,67.470748,0.000027,
2476,2548,4.75699985597158,-2.10353881680438,-0.0123727660999293,0.002810,-0.000240,0.000255,0.127812,0.015587,322.320564,23.731010,0.999599,0.987270,0.004280,0.456475,0.000056,-0.000010,0.000017,0.000060,-0.000013,13.283318,0.000063,
2431,2308,3.82466832643872,-7.35272230472005,0.0115039776891308,0.002373,-0.000633,0.001470,0.103024,0.013471,326.293942,23.095320,0.999074,0.981835,0.005219,0.339646,0.000130,0.000108,0.000012,0.000135,0.000103,23.253806,0.000239,
2506,2458,5.43082260039951,-4.06981264555714,-0.00575030691084066,0.002905,-0.000358,-0.000161,0.133596,0.028326,323.928336,23.307868,0.999136,0.985953,0.004695,0.469289,0.000124,-0.000035,0.000043,0.000135,-0.000046,14.332412,0.000137,
2311,2758,1.1211944236374,2.46998804668966,-0.0145944278201,0.002516,-0.000294,0.004948,0.098759,0.043017,318.712984,24.467789,0.999637,0.991772,0.003773,0.473072,0.000006,0.000031,0.000014,0.000038,0.000000,66.341578,0.000043,
2251,2923,-0.211625994622882,6.05506412952685,0.000685310021253827,0.002959,-0.000229,0.005776,0.117323,0.043637,316.253001,24.731510,0.999646,0.992775,0.003548,0.436620,0.000005,0.000003,0.000016,0.000020,-0.000012,43.114324,0.000020,
2416,2053,3.54941366750516,-12.9470208372866,0.0280478628807828,0.002882,-0.001948,-0.001454,0.136266,-0.048959,330.561728,22.194385,0.998723,0.974391,0.006171,0.379792,0.000415,0.000372,-0.000069,0.000466,0.000321,-36.222214,0.000791,
2416,2443,3.46904850006957,-4.39950866270361,-0.00374723027283608,0.002241,-0.001113,0.004462,0.085998,0.005558,323.939989,23.495995,0.999550,0.986813,0.004536,0.436712,0.000088,0.000022,0.000044,0.000111,0.000000,26.650642,0.000128,
2116,2233,-3.03290050692232,-8.99341458895071,0.00674914616502065,0.001336,-0.000754,0.000267,0.060280,0.010028,327.851127,24.296703,0.998700,0.980449,0.005462,0.357280,0.000147,0.000127,0.000053,0.000190,0.000083,39.600162,0.000280,
2266,3208,0.0651158619116927,12.2401666160656,0.0348930763273643,0.002982,-0.000687,0.009060,0.107332,0.035110,311.844485,25.267528,0.999714,0.994099,0.003182,0.390431,0.000010,-0.000002,0.000011,0.000016,-0.000008,31.191108,0.000016,
2341,3013,1.72788865947754,8.0156275327337,0.00866291917242279,0.002583,-0.000345,0.003788,0.105627,0.026620,314.741383,25.129522,0.999633,0.992670,0.003506,0.425084,0.000006,-0.000006,-0.000002,0.000007,-0.000007,-9.416222,0.000008,
2416,2218,3.51505622877704,-9.32464416291386,0.00910456869394238,0.002516,-0.000889,-0.001325,0.119629,0.006352,327.723250,22.769936,0.999397,0.983424,0.005112,0.418090,0.000195,0.000161,-0.000008,0.000197,0.000159,-12.632254,0.000357,
2431,2053,3.87775097355308,-12.9468681916167,0.0225643058203673,0.003476,-0.001954,-0.003842,0.172228,-0.062976,330.576072,22.095637,0.998894,0.976004,0.005964,0.366440,0.000435,0.000378,-0.000071,0.000483,0.000330,-33.976747,0.000818,
2491,2653,5.06137495809412,0.190045689272551,-0.0194463688542328,0.002673,-0.000682,0.006400,0.097918,0.045266,320.561745,24.170181,0.999494,0.987664,0.004345,0.439808,0.000042,0.000029,-0.000002,0.000042,0.000029,-6.824679,0.000071,
2371,2308,2.51504723169736,-7.35374974001606,0.0100980872944092,0.002630,-0.000805,0.002674,0.110719,0.028709,326.224395,23.222662,0.999856,0.995529,0.003047,0.467636,0.000109,0.000094,0.000018,0.000120,0.000082,33.512874,0.000204,
2446,2608,4.08988690539622,-0.793973046666096,-0.0109022662941243,0.002465,-0.000874,0.007567,0.084608,0.035149,321.247326,24.054969,0.999449,0.988144,0.004279,0.413220,0.000050,0.000007,0.000017,0.000056,0.000002,18.938526,0.000066,
2221,3028,-0.881235506134384,8.33282020921796,0.0105301412577319,0.002802,-0.000399,0.006661,0.107745,0.046986,314.680503,24.775618,0.999656,0.993440,0.003301,0.460806,-0.000005,-0.000009,0.000001,-0.000005,-0.000009,12.129936,0.000013,
2221,2563,-0.801809618066706,-1.78257860769439,-0.0142958388279339,0.002836,-0.000895,0.005247,0.113266,0.021396,322.040909,24.172237,0.999560,0.990799,0.003778,0.453656,0.000011,0.000019,0.000009,0.000025,0.000005,57.661370,0.000032,
2431,2593,3.76717586972491,-1.1242389931343,1.98483592726006E-05,0.002620,-0.000753,0.004859,0.102022,0.025947,321.574737,23.895295,0.999555,0.990885,0.004001,0.528167,0.000052,0.000012,0.000019,0.000060,0.000004,21.688322,0.000071,
2131,2308,-2.71783327014591,-7.35302676950774,-0.00203678377829419,0.002150,-0.000779,-0.000951,0.101321,-0.023624,326.547897,24.217734,0.998964,0.983870,0.005127,0.372087,0.000100,0.000064,0.000022,0.000110,0.000054,25.311602,0.000167,
2401,2443,3.14273424427202,-4.40027033463938,0.00457317734844764,0.002428,-0.000804,0.004329,0.095397,0.036133,324.000643,23.534654,0.999478,0.986642,0.004610,0.468594,0.000082,0.000026,0.000043,0.000105,0.000003,28.795460,0.000123,
2386,2158,2.87127675373478,-10.6398880715709,0.0126424635362241,0.002209,-0.001434,0.000337,0.099334,-0.029884,328.667637,22.772431,0.999211,0.978538,0.005574,0.342082,0.000244,0.000230,-0.000032,0.000270,0.000204,-38.866221,0.000475,
2401,3073,3.02129613837579,9.32344636775363,0.0149408672107256,0.003029,-0.000084,0.006115,0.117320,0.055392,313.844959,25.512964,0.999627,0.991278,0.003745,0.427207,0.000015,-0.000003,0.000006,0.000017,-0.000005,15.587854,0.000017,
2281,3028,0.42164447343783,8.33781814370225,0.00668475066845531,0.002829,-0.000084,0.003229,0.119597,0.053099,314.541581,25.000502,0.999122,0.988160,0.004122,0.429437,0.000011,-0.000009,0.000001,0.000011,-0.000009,2.854122,0.000012,
2476,2563,4.75350643552153,-1.77524707933476,-0.0125334585226256,0.003089,-0.000789,0.008612,0.108684,0.031540,322.055700,23.841918,0.998725,0.981639,0.005216,0.419107,0.000062,0.000008,0.000019,0.000068,0.000001,17.813418,0.000079,
2476,2443,4.77830720287569,-4.39781504099887,-0.00320674355356232,0.002304,-0.000680,0.004440,0.088467,0.026171,324.063016,23.389961,0.999229,0.984840,0.004884,0.403050,0.000108,-0.000008,0.000043,0.000123,-0.000022,18.238700,0.000131,
2431,2068,3.87391977246873,-12.6165569241039,0.0184500355259729,0.002952,-0.001466,-0.003955,0.148876,-0.038575,330.276084,22.166102,0.998588,0.974824,0.006246,0.374259,0.000409,0.000376,-0.000067,0.000461,0.000324,-38.129724,0.000789,
2116,2248,-3.03553289312608,-8.66573711495124,0.00722180771685998,0.001230,-0.000843,0.003137,0.046939,0.023491,327.600627,24.248806,0.998822,0.982451,0.005262,0.424511,0.000132,0.000113,0.000046,0.000170,0.000075,38.988756,0.000251,
2251,2938,-0.214583296027925,6.38013635648966,-0.00337610681310707,0.002827,-0.000473,0.003872,0.117372,0.021143,315.975106,24.666293,0.999620,0.993684,0.003332,0.502072,0.000005,0.000007,0.000014,0.000020,-0.000007,46.957038,0.000020,
2491,2668,5.05878989064824,0.516488136698356,-0.0182146334131517,0.002879,-0.000382,0.004261,0.115636,0.034134,320.345923,24.183452,0.999377,0.986247,0.004531,0.474474,0.000035,0.000014,-0.000003,0.000035,0.000014,-7.894515,0.000051,
2341,3028,1.72577121921248,8.34144141668978,0.01839381744918,0.002825,-0.000473,0.007384,0.104214,0.038730,314.576074,25.216869,0.999688,0.993830,0.003400,0.385425,0.000009,-0.000004,-0.000004,0.000010,-0.000006,-16.802340,0.000010,
2311,2773,1.11915895347499,2.79619049972068,-0.00953304066052851,0.002652,-0.000268,0.002046,0.114909,0.028032,318.527491,24.521490,0.999607,0.992189,0.003695,0.436773,0.000007,0.000019,0.000010,0.000024,0.000002,60.154886,0.000029,
2266,3223,0.0622166245344253,12.5651505870208,0.0330065352561633,0.002909,-0.000438,0.008718,0.105246,0.048752,311.580817,25.249691,0.999788,0.995248,0.003092,0.446211,0.000007,0.000008,0.000008,0.000016,-0.000001,45.473743,0.000018,
2431,2608,3.7629971531325,-0.794895172058432,-0.0149339550665673,0.002696,-0.000737,0.005606,0.102745,0.017878,321.205805,24.012583,0.999329,0.988024,0.004388,0.453911,0.000046,0.000011,0.000014,0.000051,0.000006,19.180258,0.000062,
2431,2323,3.82151954516247,-7.02475476198209,0.00578349678050927,0.002450,-0.000182,-0.001071,0.116125,0.034050,326.016786,23.035155,0.999064,0.981219,0.005212,0.472689,0.000122,0.000097,0.000016,0.000130,0.000089,26.668963,0.000220,
2416,2458,3.46569888384825,-4.07084182577461,-0.0102082414602478,0.002320,-0.000753,0.003982,0.091559,0.017338,323.647974,23.551510,0.999403,0.986170,0.004701,0.442372,0.000080,0.000008,0.000037,0.000096,-0.000008,22.677903,0.000106,
2371,3163,2.35342645958815,11.2731146159096,0.0327600884524486,0.003127,-0.000322,0.006430,0.121130,0.044275,312.505353,25.623111,0.999495,0.991039,0.003797,0.438804,0.000021,-0.000007,0.000004,0.000021,-0.000007,7.634154,0.000022,
2371,2323,2.51112100596137,-7.02638863991861,0.0129090838925094,0.001758,-0.001633,0.007948,0.051735,-0.004210,325.946801,23.244743,0.999582,0.991428,0.003903,0.455735,0.000101,0.000085,0.000022,0.000117,0.000069,34.799126,0.000188,
2401,2458,3.13942058443063,-4.0717618124596,-0.0059430850891431,0.002745,-0.000511,0.002760,0.115738,0.036482,323.689846,23.548617,0.999469,0.986254,0.004750,0.502115,0.000075,0.000013,0.000038,0.000093,-0.000005,25.527425,0.000105,
2386,2173,2.8681411943085,-10.3118665473188,0.0112289958301517,0.002272,-0.001468,0.002942,0.092859,0.002055,328.407667,22.694982,0.999348,0.982172,0.005305,0.497730,0.000225,0.000202,-0.000030,0.000245,0.000182,-34.355515,0.000428,
2416,2233,3.51200739702059,-8.99628960048763,0.013797884567964,0.002268,-0.000836,0.001546,0.097859,0.022271,327.498151,22.824098,0.999493,0.984418,0.004962,0.429959,0.000183,0.000145,0.000001,0.000183,0.000145,1.824978,0.000329,
2281,3043,0.418750665551517,8.66328801541033,0.0126667299000474,0.002482,-0.000414,0.006717,0.091852,0.048014,314.318915,25.051448,0.999377,0.990400,0.003846,0.399919,0.000011,-0.000007,0.000001,0.000011,-0.000007,1.784417,0.000011,
2491,2683,5.05487372495299,0.844541871847468,-0.0236790690430553,0.002648,-0.000380,0.005959,0.098582,0.043493,320.038272,24.273669,0.999659,0.989797,0.003925,0.453233,0.000033,0.000023,0.000004,0.000035,0.000021,20.270840,0.000056,
2476,2578,4.74986554080278,-1.44738644646061,-0.0151782519167227,0.002603,-0.000774,0.007132,0.092034,0.020211,321.772865,23.923649,0.998472,0.982831,0.005213,0.383344,0.000062,0.000007,0.000029,0.000074,-0.000006,23.280692,0.000082,
2401,3088,3.01893037362455,9.64893666325759,0.0192859002748946,0.003193,-0.000223,0.005473,0.127145,0.054828,313.645651,25.562727,0.999563,0.990805,0.003798,0.421332,0.000016,-0.000002,0.000002,0.000016,-0.000003,6.506861,0.000017,
2431,2083,3.87044563408056,-12.2859181440594,0.0131917891422972,0.003278,-0.001918,0.000778,0.146242,-0.032948,329.987161,22.278592,0.998766,0.976680,0.006202,0.320932,0.000384,0.000357,-0.000061,0.000432,0.000308,-38.836478,0.000744,
2476,2458,4.7753633146123,-4.07017912053228,-0.000803301571238535,0.002261,-0.000604,0.004979,0.084526,0.030286,323.835752,23.441591,0.999314,0.985892,0.004706,0.413634,0.000107,-0.000018,0.000036,0.000116,-0.000028,14.954622,0.000122,
2251,2953,-0.216915466177223,6.70760616796319,-0.000243109250220641,0.002957,-0.000085,0.003970,0.123263,0.050737,315.761552,24.824635,0.999434,0.991497,0.003739,0.396098,0.000003,0.000003,0.000011,0.000014,-0.000007,44.529649,0.000014,
2311,2788,1.11683125818153,3.12180792510526,-0.00442267314480205,0.002978,-0.000372,0.005691,0.117422,0.037396,318.328884,24.501297,0.999664,0.994125,0.003430,0.498379,0.000010,0.000023,0.000010,0.000028,0.000005,60.525815,0.000036,
2431,2338,3.81805849878683,-6.69538729592738,0.000943415154324612,0.002365,-0.000246,-0.001078,0.112250,0.034788,325.729196,23.137568,0.998991,0.982102,0.004999,0.423126,0.000115,0.000095,0.000020,0.000127,0.000083,32.142117,0.000211,
2371,3178,2.35031178485113,11.5985050886218,0.0306223532806484,0.003154,-0.000457,0.007686,0.117811,0.028606,312.238318,25.660444,0.999549,0.991328,0.003634,0.425756,0.000021,-0.000008,0.000004,0.000021,-0.000009,7.455335,0.000021,
2371,2338,2.50808945330917,-6.69687724779389,0.00451112551400001,0.001845,-0.000981,0.002772,0.074359,-0.002272,325.656258,23.322803,0.999078,0.984192,0.004954,0.422860,0.000093,0.000087,0.000024,0.000114,0.000066,41.944320,0.000182,
2431,2623,3.7593633753194,-0.46740732477906,-0.0171657081036756,0.002260,-0.000948,0.006109,0.080824,0.012194,320.921184,24.072425,0.999439,0.988699,0.004192,0.438914,0.000045,0.000028,0.000007,0.000048,0.000026,20.141676,0.000074,
2266,3238,0.0597286805679751,12.88979420573,0.0309678652581056,0.003077,-0.000366,0.005847,0.122443,0.028904,311.335397,25.236975,0.999778,0.994414,0.003186,0.463257,0.000004,-0.000001,0.000007,0.000010,-0.000006,35.187416,0.000010,
2341,3043,1.72252381301337,8.66688696577656,0.0104888588704171,0.002780,-0.000111,0.004457,0.112514,0.048962,314.273073,25.159186,0.999656,0.992685,0.003499,0.489463,0.000007,-0.000002,-0.000003,0.000008,-0.000003,-16.369055,0.000008,
2401,2473,3.1366612395802,-3.74391176638988,-0.00176918330498665,0.002417,-0.000137,0.000765,0.108073,0.034625,323.473621,23.646320,0.999359,0.987319,0.004577,0.449176,0.000066,-0.000001,0.000033,0.000080,-0.000014,22.294684,0.000085,
2416,2248,3.50938035219551,-8.66794857518752,0.0144223598571784,0.002329,-0.000632,-0.001059,0.110252,0.029435,327.273410,22.848463,0.999227,0.981912,0.005285,0.462548,0.000173,0.000135,0.000004,0.000173,0.000134,6.228417,0.000308,
2491,2698,5.05163798914785,1.17254092602815,-0.0279554582624542,0.002551,-0.000182,0.002336,0.108087,0.025941,319.767243,24.400757,0.999691,0.989807,0.003940,0.367741,0.000028,0.000026,0.000005,0.000032,0.000021,40.155266,0.000054,
2386,2188,2.86518877519577,-9.98235604989826,0.0157642334589241,0.002008,-0.001695,0.004764,0.074189,0.009676,328.184111,22.846033,0.999089,0.981219,0.005354,0.400106,0.000208,0.000184,-0.000028,0.000227,0.000166,-33.701949,0.000394,
2416,2473,3.46333605663465,-3.74408191367914,-0.00221315314746562,0.002058,-0.000142,0.001511,0.088828,0.027821,323.469001,23.572644,0.999207,0.985678,0.004768,0.480643,0.000071,-0.000007,0.000030,0.000081,-0.000017,18.662950,0.000086,
2431,2098,3.86711069018837,-11.9572162195724,0.0196661500169739,0.002642,-0.002085,0.003790,0.105998,-0.021425,329.758881,22.343270,0.999388,0.979819,0.005907,0.320818,0.000356,0.000333,-0.000064,0.000410,0.000279,-40.025316,0.000693,
2401,3103,3.01649363583952,9.97381406339716,0.0250671024014082,0.003133,-0.000206,0.004393,0.128358,0.051222,313.450001,25.571441,0.999581,0.992298,0.003532,0.453756,0.000022,0.000003,0.000005,0.000023,0.000002,13.228057,0.000028,
2281,3058,0.416290808973972,8.98863010031765,0.0132670988466543,0.002703,-0.000209,0.006663,0.102328,0.070153,314.089258,25.031628,0.999452,0.992645,0.003600,0.468880,0.000012,-0.000016,0.000002,0.000012,-0.000016,3.434336,0.000017,
2371,3193,2.34794972924852,11.9233186125182,0.0369463713196296,0.003165,-0.000731,0.007511,0.118866,0.022730,312.046695,25.688457,0.999489,0.991723,0.003628,0.431555,0.000019,-0.000008,0.000005,0.000020,-0.000009,9.906376,0.000020,
2431,2638,3.7561854840005,-0.140077531900296,-0.019237524413029,0.002091,-0.000685,0.004478,0.079195,0.010223,320.658197,24.120313,0.999545,0.990391,0.004031,0.439926,0.000042,0.000035,0.000001,0.000042,0.000034,8.979965,0.000076,
2491,2713,5.04839937792673,1.4988365984952,-0.0283193899666685,0.002690,-0.000343,0.005582,0.101953,0.036330,319.513886,24.380298,0.999650,0.989550,0.004172,0.457716,0.000017,0.000033,0.000010,0.000038,0.000012,63.618424,0.000053,
2371,2353,2.50601702334327,-6.36973009956886,0.00880995337274726,0.002285,-0.001010,0.002622,0.095053,0.011995,325.470485,23.302535,0.998974,0.984123,0.005022,0.500212,0.000085,0.000080,0.000029,0.000111,0.000054,42.770430,0.000168,
2386,2203,2.86190934918528,-9.65242678775571,0.0046891033230736,0.002174,-0.001229,0.000698,0.096543,0.000446,327.871716,22.893348,0.998690,0.978245,0.005687,0.389680,0.000194,0.000169,-0.000019,0.000204,0.000159,-28.341685,0.000364,
2416,2488,3.45966091703437,-3.41637881683076,-0.00839716633447551,0.002067,-0.001081,0.004454,0.078096,0.002964,323.163477,23.589646,0.999326,0.986707,0.004520,0.487977,0.000068,-0.000006,0.000022,0.000074,-0.000012,15.672065,0.000079,
2431,2113,3.86472041888066,-11.6297951521323,0.0256668946534546,0.002680,-0.001914,0.003153,0.110160,-0.030250,329.571850,22.310528,0.999353,0.978233,0.005936,0.397472,0.000334,0.000325,-0.000059,0.000389,0.000270,-42.876385,0.000663,
2401,2488,3.13325563328606,-3.41640047052703,-0.000969022785739071,0.002157,-0.000973,0.004345,0.082867,0.014698,323.211918,23.704555,0.999360,0.988407,0.004366,0.417736,0.000061,-0.000001,0.000026,0.000071,-0.000010,20.040894,0.000077,
2416,2263,3.5064581025667,-8.33944095392858,0.0181979089338142,0.002491,-0.001055,0.004362,0.097725,0.000861,327.049896,22.961098,0.999024,0.982248,0.005288,0.371307,0.000161,0.000124,-0.000003,0.000161,0.000123,-3.821767,0.000285,
2401,3118,3.01414916586461,10.29924245416,0.0346568925093607,0.003072,-0.000308,0.005893,0.120043,0.043596,313.276379,25.661780,0.999851,0.995324,0.002923,0.399709,0.000030,0.000008,0.000008,0.000033,0.000006,16.811887,0.000041,
2281,3073,0.413461780010326,9.31502498942256,0.00712963452741633,0.002843,-0.000156,0.003753,0.118507,0.053031,313.808552,25.108631,0.999489,0.992306,0.003699,0.401765,0.000011,-0.000013,0.000000,0.000011,-0.000013,-0.936631,0.000014,
2491,2728,5.04552221013779,1.82643877709253,-0.0296457477471108,0.002854,-0.000371,0.003764,0.116488,0.037344,319.272489,24.486095,0.999591,0.991417,0.003682,0.412128,0.000007,0.000038,0.000020,0.000048,-0.000003,63.682016,0.000053,
2371,3208,2.34473856196861,12.248543851995,0.034813537489697,0.003097,-0.000613,0.008792,0.111184,0.021586,311.775173,25.703755,0.999367,0.991905,0.003746,0.454698,0.000020,-0.000008,0.000007,0.000021,-0.000009,13.269291,0.000022,
2371,2368,2.50246242467899,-6.04000850435798,0.00255780808817008,0.002354,-0.000782,0.006036,0.086245,0.040845,325.165912,23.405532,0.998685,0.983481,0.005057,0.469039,0.000082,0.000074,0.000038,0.000116,0.000040,41.879570,0.000162,
2386,2218,2.86005615783804,-9.32439830050181,0.0114130406923323,0.002473,-0.000977,-0.001942,0.119814,-0.013984,327.709042,22.964020,0.998923,0.979330,0.005724,0.350277,0.000179,0.000148,-0.000011,0.000183,0.000144,-18.009236,0.000328,
2491,2743,5.04187967137693,2.15312267125129,-0.0314702811884899,0.002558,-0.000662,0.005148,0.097512,0.033461,318.993744,24.513254,0.999705,0.991445,0.003666,0.440332,0.000004,0.000032,0.000017,0.000041,-0.000005,64.814803,0.000045,
2416,2278,3.50314365369215,-8.01061937635506,0.00891561650820449,0.002634,-0.001158,0.001415,0.115014,-0.005736,326.747318,22.952894,0.999122,0.983170,0.005094,0.423231,0.000147,0.000121,0.000007,0.000148,0.000119,14.149968,0.000268,
2416,2503,3.45678417932221,-3.08692274746401,-0.0201307381396987,0.002861,-0.000509,0.001659,0.124954,0.009552,322.868200,23.691070,0.999596,0.989903,0.004040,0.442261,0.000063,-0.000002,0.000016,0.000066,-0.000006,12.928188,0.000073,
2401,2503,3.13015505867577,-3.08692326597594,-0.0145178674222848,0.002815,-0.000497,0.001272,0.124368,0.014533,322.896228,23.797525,0.999509,0.989124,0.004200,0.371568,0.000055,0.000002,0.000020,0.000061,-0.000005,18.445024,0.000068,
2401,3133,3.0105021580693,10.6253606473869,0.0257660981316121,0.003144,-0.000305,0.007002,0.119359,0.051134,312.955109,25.689736,0.999796,0.994430,0.003102,0.423760,0.000033,0.000003,0.000007,0.000035,0.000002,11.889155,0.000041,
2281,3088,0.411730316274742,9.63912100672074,0.020007856993459,0.002937,-0.000323,0.004297,0.120968,0.041158,313.674221,25.094229,0.999653,0.992006,0.003775,0.430903,0.000009,-0.000013,-0.000005,0.000010,-0.000014,-11.890539,0.000015,
2491,2758,5.03946974821858,2.47908364946207,-0.0265981092319976,0.002773,-0.000463,0.004694,0.109153,0.033933,318.801947,24.527075,0.999535,0.988675,0.004050,0.485746,0.000019,0.000030,0.000014,0.000039,0.000009,56.053309,0.000052,
2371,3223,2.34160948344663,12.5744343385404,0.0336498760353265,0.002955,-0.000544,0.008987,0.104043,0.038971,311.511789,25.771568,0.999540,0.992616,0.003448,0.444112,0.000017,-0.000006,0.000004,0.000018,-0.000007,10.350551,0.000018,
2416,2293,3.49960295160029,-7.6820378783132,0.0083578087172782,0.002248,-0.001363,0.003391,0.090033,-0.006745,326.474963,23.011463,0.998743,0.979318,0.005670,0.413823,0.000136,0.000116,0.000017,0.000145,0.000106,29.593680,0.000253,
2371,2383,2.49949184239763,-5.71144752804695,0.000297042749082266,0.002202,-0.000593,0.003142,0.089615,0.028200,324.907435,23.488078,0.999073,0.984345,0.004982,0.416751,0.000083,0.000063,0.000036,0.000111,0.000036,37.155057,0.000153,
2401,3148,3.00844973107342,10.949632088406,0.0354940624372944,0.003156,-0.000379,0.005921,0.123768,0.037564,312.795852,25.686564,0.999794,0.994572,0.003035,0.457902,0.000032,-0.000003,0.000008,0.000033,-0.000005,12.083172,0.000036,
2416,2518,3.45381886874986,-2.76082008259765,-0.0127396759029352,0.002260,-0.000872,0.001848,0.096594,-0.003561,322.658749,23.683780,0.999413,0.987686,0.004396,0.485184,0.000054,-0.000009,0.000015,0.000057,-0.000012,12.867340,0.000061,
2401,2518,3.12713787605216,-2.7607679848273,-0.0131077076846395,0.002582,-0.000199,0.001114,0.114393,0.037677,322.655189,23.704345,0.999480,0.988118,0.004397,0.534570,0.000048,-0.000005,0.000020,0.000054,-0.000012,18.289875,0.000057,
2281,3103,0.409007400932502,9.96510686338165,0.0158304045826299,0.003228,-0.000120,0.003959,0.135576,0.047170,313.408246,25.131156,0.999624,0.992496,0.003614,0.426810,0.000008,-0.000002,-0.000003,0.000009,-0.000003,-16.375934,0.000009,
2491,2773,5.03640948276002,2.80681298172553,-0.0261942162409241,0.002616,-0.000065,0.002993,0.108684,0.044261,318.559603,24.662555,0.999051,0.986886,0.004439,0.419684,0.000019,0.000025,0.000008,0.000030,0.000013,55.088523,0.000044,
2416,2308,3.49763356149177,-7.35361778298881,0.00872903644443568,0.002633,-0.000248,-0.003586,0.133591,0.005887,326.278905,23.055848,0.999140,0.984204,0.004903,0.431746,0.000126,0.000108,0.000020,0.000139,0.000095,32.146676,0.000235,
2371,3238,2.33890260530466,12.9003688136839,0.0291189826083951,0.003213,0.000025,0.005555,0.128460,0.064482,311.251602,25.820166,0.999750,0.993750,0.003106,0.460956,0.000014,-0.000012,0.000002,0.000014,-0.000012,3.939799,0.000015,
2416,2533,3.4508264498755,-2.43246793741003,-0.010283764436906,0.002369,-0.001176,0.006124,0.085861,-0.002636,322.424490,23.828341,0.999420,0.987944,0.004419,0.390227,0.000049,-0.000002,0.000018,0.000055,-0.000007,17.762294,0.000060,
2401,2533,3.12428483002903,-2.43213748054765,-0.00986067983058092,0.002480,-0.000155,0.002114,0.106151,0.054485,322.429831,23.865478,0.999503,0.988664,0.004367,0.436742,0.000046,0.000000,0.000023,0.000056,-0.000010,22.728295,0.000059,
2371,3253,2.3356245033785,13.2252767352576,0.0245223374687953,0.003331,-0.000464,0.007591,0.126400,0.040257,310.965075,25.827803,0.999712,0.992985,0.003246,0.468490,0.000010,-0.000015,0.000002,0.000010,-0.000016,4.247187,0.000016,
2416,2323,3.49467958514943,-7.02474476684534,0.008374169165279,0.002722,-0.000186,-0.002812,0.134909,0.038999,326.034088,23.119267,0.998974,0.981720,0.005239,0.451088,0.000118,0.000096,0.000024,0.000134,0.000081,33.121572,0.000216,
2416,2548,3.44769132855167,-2.10455834390313,-0.0162815746554656,0.002575,-0.000848,0.005037,0.099413,0.016268,322.144141,23.843773,0.999420,0.987770,0.004379,0.442382,0.000047,0.000000,0.000018,0.000053,-0.000006,18.447746,0.000058,
2416,2338,3.49109956279354,-6.69581226911706,0.00678533728955699,0.002413,-0.000267,-0.000437,0.112081,0.041393,325.754844,23.211953,0.998752,0.981023,0.005255,0.410599,0.000109,0.000097,0.000027,0.000131,0.000075,38.630767,0.000208,
2416,2563,3.44502995646949,-1.77655264167892,-0.0200109865576223,0.002834,-0.000115,0.000978,0.126471,0.049226,321.896014,23.879515,0.999041,0.983886,0.004739,0.488530,0.000046,0.000009,0.000017,0.000053,0.000003,21.350220,0.000062,
2416,2353,3.48773199441957,-6.36770096735134,0.00241156200343084,0.002264,-0.000457,-0.001446,0.108837,0.021030,325.472489,23.230243,0.998252,0.980601,0.005446,0.421593,0.000103,0.000090,0.000031,0.000128,0.000065,39.363612,0.000197,
2416,2578,3.4422136971611,-1.44869711082222,-0.0178920341926982,0.003135,-0.000932,0.005099,0.124878,0.025383,321.668225,24.014693,0.999389,0.988446,0.004261,0.378065,0.000046,0.000019,0.000021,0.000057,0.000007,28.733825,0.000071,
2416,2368,3.48518783152369,-6.0408198136499,0.00773788687638444,0.002403,-0.000852,0.000644,0.107437,-0.001002,325.273273,23.237357,0.998838,0.982704,0.005106,0.441835,0.000098,0.000079,0.000042,0.000132,0.000045,38.451530,0.000184,
2416,2593,3.4385370864673,-1.1216604068109,-0.0211775193046719,0.002491,-0.000483,0.002945,0.103393,0.028742,321.375662,24.005294,0.999510,0.990863,0.003943,0.439177,0.000043,0.000014,0.000023,0.000056,0.000002,28.870801,0.000065,
2416,2608,3.43550808724571,-0.793906482653625,-0.0240286662772746,0.002542,-0.000250,0.001727,0.110292,0.037230,321.114651,24.065387,0.999391,0.989057,0.004176,0.436184,0.000037,0.000013,0.000019,0.000048,0.000002,28.609246,0.000057,
2416,2383,3.48312552597804,-5.71216324612662,0.0158767931959574,0.002691,-0.000514,0.001256,0.118565,0.017223,325.108811,23.398102,0.999675,0.987071,0.004479,0.348647,0.000098,0.000060,0.000039,0.000122,0.000036,31.880117,0.000166,
2491,2848,5.02206622018097,4.44000768641048,-0.0179530017895217,0.002940,-0.000108,0.002754,0.124510,0.038802,317.420058,25.007762,0.999550,0.991407,0.003774,0.362503,0.000009,0.000042,0.000009,0.000044,0.000007,76.318295,0.000055,
2386,3208,2.67062015000494,12.2501278888706,0.0370042069696979,0.002955,-0.000443,0.008285,0.106224,0.034329,311.795413,25.798179,0.999451,0.991986,0.003607,0.446489,0.000022,-0.000010,0.000007,0.000023,-0.000012,12.057080,0.000023,
2506,2818,5.35443390711314,3.78742161914705,-0.0224207853332814,0.003150,-0.000693,0.007266,0.116326,0.046471,317.907730,24.847835,0.999246,0.988180,0.004444,0.428337,0.000006,0.000019,0.000010,0.000024,0.000001,62.864821,0.000029,
2431,2653,3.75432711955247,0.186525341186943,-0.0114281611636216,0.002722,-0.000717,0.006319,0.101394,0.030657,320.501727,24.166718,0.999521,0.989786,0.004133,0.464034,0.000033,0.000038,0.000000,0.000038,0.000033,85.273593,0.000072,
2431,2128,3.86215998406239,-11.3009131436721,0.0314072887425709,0.002267,-0.001018,-0.001326,0.108157,-0.018061,329.375531,22.391895,0.999556,0.979065,0.005976,0.381269,0.000315,0.000316,-0.000054,0.000369,0.000261,-45.250749,0.000633,
2371,3268,2.33186832300395,13.5509764433491,0.016126411747905,0.003094,-0.000531,0.007396,0.116170,0.037292,310.637917,25.870783,0.999753,0.993511,0.003196,0.462078,0.000006,-0.000020,0.000003,0.000007,-0.000020,5.613898,0.000021,
2386,2233,2.85723815957317,-8.99630108598311,0.0214221298905954,0.002050,-0.001143,0.001736,0.087200,0.006254,327.517468,23.044791,0.999197,0.982283,0.005587,0.335045,0.000167,0.000130,-0.000005,0.000167,0.000130,-7.186153,0.000298,
2446,2398,4.13271479207914,-5.38309530562545,-0.00209944351234981,0.002243,-0.000921,0.004102,0.087143,0.021849,324.734117,23.240860,0.999713,0.986768,0.004683,0.466983,0.000117,0.000048,0.000031,0.000128,0.000036,20.986597,0.000173,
2341,3058,1.71943034594673,8.99223701334413,0.00967574452613462,0.002706,-0.000360,0.006188,0.103026,0.047376,314.011634,25.155725,0.999691,0.993497,0.003258,0.527128,0.000006,-0.000014,0.000000,0.000006,-0.000014,0.186369,0.000014,
2416,2068,3.54593916387128,-12.617531966584,0.0234780419156095,0.002747,-0.001982,-0.001160,0.129033,-0.052961,330.274731,22.212553,0.998779,0.976080,0.006193,0.408963,0.000391,0.000369,-0.000064,0.000445,0.000315,-40.110381,0.000764,
2266,3253,0.0567434465537353,13.2154585311727,0.0291747098830228,0.003130,-0.000565,0.008465,0.116233,0.036211,311.067919,25.296790,0.999744,0.993474,0.003394,0.434983,0.000000,-0.000006,0.000008,0.000006,-0.000011,34.773234,0.000012,
2356,2008,2.24555151372369,-13.9331946342578,0.0241247868034407,0.002577,-0.002525,0.001120,0.112919,-0.064690,331.177520,22.477471,0.998719,0.974072,0.006444,0.344967,0.000452,0.000423,-0.000026,0.000467,0.000408,-29.940889,0.000876,
2131,2323,-2.72014154701904,-7.02525978433349,0.00336091214398948,0.002022,-0.000612,0.000916,0.089926,0.017880,326.339505,24.225222,0.999162,0.984960,0.004921,0.413568,0.000091,0.000056,0.000012,0.000095,0.000053,17.482184,0.000149,
2206,2848,-1.17746630604724,4.42312883178101,-0.0113562475285676,0.002529,-0.000488,0.006874,0.094595,0.050851,317.457994,24.549130,0.999346,0.990159,0.003868,0.450569,0.000002,0.000023,0.000019,0.000034,-0.000009,59.872929,0.000035,
2371,2128,2.5497998454844,-11.2985873377913,0.0131125731625161,0.002450,-0.001284,-0.001654,0.117475,-0.030497,329.163612,22.677405,0.999229,0.980781,0.005408,0.430587,0.000281,0.000300,-0.000030,0.000322,0.000259,-53.707364,0.000583,
2401,3163,3.00497567946371,11.2756209927113,0.032365386768447,0.002913,-0.000603,0.006625,0.110032,0.041366,312.509694,25.749929,0.999644,0.992678,0.003419,0.442547,0.000029,-0.000006,0.000005,0.000030,-0.000006,8.440106,0.000032,
2401,2203,3.19123774126223,-9.65512091600318,0.0181323660975181,0.002659,-0.000993,-0.001374,0.126292,-0.009784,328.029282,22.734138,0.999115,0.981429,0.005358,0.462584,0.000203,0.000179,-0.000018,0.000213,0.000169,-28.471839,0.000382,
2356,2968,2.0615734321846,7.04070617002267,-0.00649664146010309,0.002869,-0.000456,0.003743,0.118737,0.025423,315.361110,25.123818,0.999570,0.991181,0.003719,0.359934,0.000005,-0.000004,0.000001,0.000005,-0.000004,3.198665,0.000005,
2476,2863,4.69216273826315,4.76468643365624,-0.0180083052393343,0.002766,-0.000177,0.002849,0.116203,0.022412,317.128095,24.969485,0.999247,0.985358,0.004430,0.421024,-0.000001,0.000025,0.000013,0.000030,-0.000006,68.099440,0.000031,
2506,2473,5.42689471830643,-3.74108323921549,-0.00815471190378503,0.002507,-0.000435,0.002274,0.105936,0.037959,323.636425,23.415198,0.999233,0.984755,0.004725,0.434273,0.000099,-0.000053,0.000034,0.000106,-0.000060,12.152897,0.000107,
2326,2983,1.40715137203856,7.36354929294633,0.00442910250239947,0.002776,-0.000355,0.006865,0.104091,0.053038,315.199668,25.028654,0.999915,0.997048,0.002595,0.440722,0.000001,-0.000002,0.000004,0.000003,-0.000004,34.118143,0.000004,
2356,3193,2.02159768044295,11.9226376522607,0.0340050910247101,0.002894,-0.000574,0.008266,0.104129,0.040042,312.004192,25.642629,0.999535,0.991882,0.003657,0.423352,0.000017,-0.000004,0.000006,0.000019,-0.000006,14.334014,0.000019,
2491,2863,5.01916722661403,4.76552108593928,-0.0156710324794176,0.003060,-0.000346,0.004427,0.123527,0.040866,317.193623,24.987213,0.999546,0.991182,0.003774,0.443794,0.000009,0.000035,0.000011,0.000038,0.000005,70.480107,0.000048,
2446,2623,4.08705566553578,-0.466954635800626,-0.00711303541839925,0.002334,-0.000690,0.007696,0.078204,0.044670,321.028623,24.107638,0.999566,0.988283,0.004124,0.422729,0.000048,0.000024,0.000009,0.000051,0.000021,18.508658,0.000074,
2461,2698,4.3989862335796,1.17031887542081,-0.0209418050880572,0.003083,-0.000429,0.001862,0.134419,0.032407,319.778635,24.365884,0.999646,0.988093,0.004340,0.413664,0.000033,0.000043,0.000003,0.000044,0.000032,74.980838,0.000077,
2416,2083,3.54372846038875,-12.2874048277666,0.0269956538214728,0.003464,-0.001815,0.001981,0.150485,-0.040011,330.083065,22.367110,0.998480,0.976468,0.006340,0.318076,0.000368,0.000351,-0.000058,0.000418,0.000301,-40.850255,0.000722,
2416,2398,3.4792428584759,-5.38435556673906,0.00328044986451914,0.002634,-0.000717,-0.000341,0.121703,0.007330,324.764249,23.314854,0.999597,0.986415,0.004629,0.471735,0.000091,0.000059,0.000041,0.000119,0.000032,34.352816,0.000159,
2371,3283,2.32866925122009,13.8763605231156,0.0113537382067648,0.003136,-0.000406,0.007255,0.118620,0.035561,310.353871,25.907937,0.999719,0.992977,0.003294,0.462819,0.000006,-0.000022,0.000000,0.000006,-0.000022,0.924681,0.000023,
2191,2623,-1.46522124612064,-0.475413623889693,-0.0136382485069362,0.002173,-0.000520,0.003275,0.089539,0.011142,321.132831,24.298503,0.999170,0.986590,0.004550,0.421411,0.000004,0.000028,0.000011,0.000032,0.000000,69.282344,0.000037,
2431,2353,3.81495993720382,-6.36761205857354,0.000955342047689101,0.002375,-0.000806,0.000556,0.106468,0.015071,325.480919,23.167886,0.998843,0.981574,0.005260,0.424732,0.000109,0.000089,0.000023,0.000124,0.000074,33.660327,0.000200,
2236,2878,-0.529564629223525,5.07606053017712,-0.00290776550235705,0.003102,-0.000362,0.004380,0.128537,0.027507,316.998973,24.628664,0.999546,0.991106,0.003668,0.429953,0.000002,0.000021,0.000020,0.000033,-0.000011,58.082723,0.000034,
2116,2263,-3.03788995709403,-8.33715903963367,0.000919454740198944,0.001613,-0.000746,0.002435,0.066615,0.010749,327.326384,24.245287,0.998781,0.982987,0.005277,0.421284,0.000126,0.000100,0.000044,0.000160,0.000067,36.800994,0.000233,
2401,2218,3.18816306173801,-9.32409713639171,0.014959522654749,0.002696,-0.000353,-0.002326,0.131686,0.009299,327.764713,22.941440,0.999268,0.982211,0.005388,0.322424,0.000188,0.000156,-0.000011,0.000191,0.000152,-17.717923,0.000344,
2476,2593,4.74703734023242,-1.12049526230192,-0.0140173099508161,0.002611,-0.000808,0.005684,0.097844,0.008309,321.544729,23.954957,0.998686,0.982374,0.004988,0.397659,0.000063,0.000003,0.000034,0.000079,-0.000012,24.388940,0.000085,
2491,2878,5.01660623093988,5.0904932533522,-0.0093049717016811,0.002925,-0.000279,0.003167,0.122136,0.022988,317.001252,24.970709,0.999440,0.992443,0.003640,0.501049,0.000010,0.000028,0.000014,0.000036,0.000002,61.137260,0.000042,
2431,2143,3.85798686902241,-10.9703760100763,0.0180512821474963,0.002544,-0.001772,0.003341,0.103326,-0.018984,329.016874,22.436949,0.999364,0.978551,0.005729,0.388705,0.000291,0.000289,-0.000051,0.000341,0.000239,-44.508406,0.000583,
2386,3223,2.66716755871783,12.5761559480106,0.0327713208817499,0.002722,-0.000375,0.008071,0.096349,0.040727,311.503529,25.872181,0.999518,0.992729,0.003436,0.420820,0.000018,-0.000011,0.000005,0.000019,-0.000012,9.436316,0.000019,
2206,2863,-1.17945742947531,4.74878974632586,-0.00685459165907787,0.002576,0.000040,0.003411,0.107890,0.049903,317.264895,24.557190,0.999432,0.991086,0.003638,0.457924,0.000001,0.000021,0.000016,0.000030,-0.000008,60.319695,0.000031,
2131,2338,-2.72280556774985,-6.69732072878013,0.00322342504676953,0.001924,-0.000652,0.003111,0.078859,0.023977,326.085505,24.233650,0.999234,0.986085,0.004746,0.418882,0.000079,0.000054,0.000005,0.000080,0.000053,11.266814,0.000134,
2341,3073,1.71682396199152,9.31892658010167,0.0107848024261443,0.002753,-0.000282,0.004959,0.109504,0.045633,313.781478,25.292261,0.999675,0.993671,0.003204,0.424345,0.000007,-0.000013,-0.000001,0.000007,-0.000013,-3.127247,0.000013,
2446,2638,4.08382851605228,-0.138404085014287,-0.0176058134153436,0.002483,0.000140,0.001772,0.107472,0.056699,320.725577,24.181809,0.999579,0.989488,0.004042,0.413783,0.000043,0.000033,0.000001,0.000043,0.000032,7.161344,0.000076,
2476,2878,4.68828644353889,5.0924245224331,-0.025851098618773,0.002666,0.000014,0.003687,0.108519,0.040897,316.808956,25.067120,0.998559,0.986528,0.004708,0.398298,0.000000,0.000018,0.000016,0.000027,-0.000009,59.683773,0.000028,
2401,3178,3.00171002969321,11.600875262319,0.0317887397815753,0.002685,-0.000466,0.007481,0.096428,0.037313,312.245377,25.772811,0.999587,0.992301,0.003519,0.459857,0.000030,-0.000007,0.000005,0.000030,-0.000008,8.207247,0.000032,
2506,2488,5.42421340359632,-3.41381854938442,-0.00548571734987036,0.002826,-0.000555,0.003650,0.115186,0.032317,323.424604,23.455002,0.999371,0.985000,0.004720,0.450925,0.000087,-0.000043,0.000029,0.000093,-0.000049,11.914573,0.000093,
2446,2413,4.13034945294078,-5.05485598286418,0.00265505978023839,0.002422,-0.000433,0.003225,0.098836,0.052983,324.541977,23.328282,0.999721,0.987199,0.004695,0.464263,0.000110,0.000040,0.000037,0.000126,0.000024,23.165822,0.000161,
2356,3208,2.01920044227539,12.2473799039098,0.0374378803738296,0.003053,-0.000503,0.007829,0.112938,0.028853,311.796119,25.655545,0.999514,0.992208,0.003587,0.436779,0.000018,-0.000003,0.000009,0.000021,-0.000006,19.685853,0.000022,
2356,2023,2.24265557142981,-13.604977819754,0.023141569588006,0.002351,-0.002309,-0.001790,0.112907,-0.098483,330.928784,22.432076,0.998792,0.972536,0.006624,0.398943,0.000432,0.000418,-0.000025,0.000451,0.000399,-37.217426,0.000850,
2371,3058,2.37171095642173,8.99527727360683,0.0146042528800763,0.002974,-0.000919,0.010060,0.100863,0.032979,314.052167,25.376195,0.999688,0.992698,0.003434,0.394472,0.000012,-0.000012,0.000001,0.000012,-0.000012,3.360572,0.000014,
2371,3298,2.32508825674052,14.2021838238829,0.00222310751792065,0.003253,-0.000395,0.008628,0.119234,0.047982,310.031051,25.952504,0.999696,0.993263,0.003328,0.470360,0.000005,-0.000018,-0.000010,0.000009,-0.000021,-20.352063,0.000021,
2371,2143,2.54699718927888,-10.9689997143957,0.0122220154561887,0.002462,-0.001279,-0.003236,0.123635,-0.020014,328.920105,22.758856,0.999062,0.978225,0.005665,0.403559,0.000262,0.000261,-0.000027,0.000289,0.000235,-44.453240,0.000524,
2356,2983,2.05917833691434,7.36589783978895,0.00188434556491757,0.002965,-0.000512,0.007505,0.109867,0.034355,315.177576,25.138824,0.999427,0.987984,0.004235,0.391829,0.000007,-0.000005,0.000003,0.000008,-0.000006,11.559597,0.000008,
2446,2653,4.08127932623801,0.188457738428241,-0.0175717823370292,0.003069,-0.000079,0.003462,0.127965,0.050016,320.502472,24.214003,0.999619,0.990484,0.003924,0.427627,0.000034,0.000037,-0.000001,0.000037,0.000034,-75.857399,0.000071,
2401,2233,3.18452188287201,-8.99635854882009,0.0156486013050881,0.002236,-0.001219,0.001669,0.095850,0.000418,327.492744,22.922236,0.999294,0.982851,0.005307,0.380863,0.000174,0.000139,-0.000004,0.000175,0.000138,-5.712770,0.000314,
2476,2608,4.74336371199577,-0.792758942239345,-0.0174322300385938,0.002274,-0.000648,0.005651,0.082642,0.032842,321.256638,23.992755,0.999153,0.983672,0.004653,0.441812,0.000059,0.000003,0.000025,0.000068,-0.000007,20.913303,0.000075,
2191,2638,-1.46733748507764,-0.1484371884113,-0.0175607728916702,0.002769,-0.000109,0.001759,0.121839,0.025615,320.889041,24.278092,0.999511,0.988508,0.004217,0.471304,0.000000,0.000028,0.000011,0.000032,-0.000004,71.585517,0.000035,
2386,3238,2.6634289893559,12.9018400486217,0.0197990524729335,0.002825,-0.000526,0.007034,0.104754,0.033417,311.156839,25.883119,0.999610,0.992851,0.003317,0.444442,0.000015,-0.000016,0.000003,0.000015,-0.000016,4.649446,0.000018,
2356,2038,2.24030870914232,-13.2743547679317,0.0188653124532152,0.002784,-0.001402,-0.006784,0.150587,-0.074529,330.688813,22.516872,0.998955,0.976801,0.005944,0.380513,0.000408,0.000393,-0.000029,0.000431,0.000370,-37.570567,0.000802,
2386,1993,2.90520990854248,-14.2658405569808,0.0342201463467404,0.002305,-0.002631,-0.003729,0.117564,-0.082287,331.526362,22.147686,0.998718,0.954400,0.007752,0.401034,0.000507,0.000452,-0.000060,0.000546,0.000413,-32.638560,0.000962,
2116,2278,-3.03939940233834,-8.0087898625158,0.00498275567650808,0.002059,-0.000293,-0.000077,0.094660,0.028481,327.146283,24.303067,0.998771,0.983021,0.005241,0.386668,0.000118,0.000077,0.000035,0.000138,0.000057,30.144459,0.000200,
2446,2428,4.12606987734874,-4.72607046969474,-0.00678850459797786,0.002244,-0.001230,0.007125,0.075847,0.013937,324.196786,23.406535,0.999242,0.984472,0.004969,0.401176,0.000107,0.000038,0.000044,0.000128,0.000016,25.937176,0.000158,
2491,2893,5.01264106235517,5.41914578933766,-0.0199070535719557,0.002969,-0.000238,0.003572,0.122631,0.029194,316.666681,25.149143,0.998772,0.987596,0.004389,0.387299,0.000016,0.000010,0.000014,0.000027,-0.000002,38.815132,0.000031,
2506,2503,5.42102317492241,-3.08512240771219,-0.0099010992530566,0.003007,-0.000315,0.002233,0.129054,0.029285,323.157482,23.563638,0.999309,0.985537,0.004868,0.401702,0.000077,-0.000037,0.000020,0.000080,-0.000040,9.533085,0.000080,
2431,2158,3.85617164866721,-10.6433700744195,0.0255885247402148,0.002551,-0.001179,-0.003214,0.128040,-0.041008,328.863229,22.410718,0.999330,0.977800,0.005729,0.445077,0.000268,0.000252,-0.000047,0.000308,0.000212,-40.334187,0.000523,
2206,2878,-1.18216391268973,5.07518602180264,-0.0100597084589822,0.002812,-0.000461,0.005194,0.112919,0.027787,316.998911,24.601190,0.999626,0.993225,0.003342,0.408149,-0.000001,0.000019,0.000018,0.000029,-0.000011,59.899213,0.000030,
2431,2368,3.81216651565771,-6.03993863351588,0.00698636141424913,0.002192,-0.000787,0.002085,0.092444,-0.005638,325.274460,23.253360,0.998882,0.982425,0.005169,0.370093,0.000105,0.000076,0.000035,0.000128,0.000053,33.604641,0.000187,
2446,2668,4.07863636845562,0.515004527112829,-0.0135219016967199,0.003160,-0.000191,0.004276,0.129082,0.050322,320.293526,24.248349,0.999452,0.988610,0.004214,0.446037,0.000031,0.000033,-0.000002,0.000034,0.000030,-60.949857,0.000064,
2401,3193,2.99923043811284,11.9263328861293,0.0354650882731562,0.002871,-0.000564,0.007865,0.103620,0.046703,312.037252,25.829787,0.999509,0.991691,0.003595,0.456594,0.000028,-0.000007,0.000007,0.000029,-0.000008,10.276360,0.000030,
2476,2893,4.68609387446977,5.41855534932839,-0.021750686309133,0.003278,-0.000255,0.004860,0.132125,0.039005,316.621947,25.129195,0.998638,0.986475,0.004656,0.390420,0.000006,0.000002,0.000016,0.000020,-0.000012,41.450131,0.000020,
2356,3223,2.0158983719971,12.573370766762,0.0346464248142979,0.002839,-0.000277,0.008043,0.102490,0.045356,311.515783,25.723813,0.999524,0.992079,0.003506,0.422496,0.000016,0.000000,0.000007,0.000018,-0.000002,20.066853,0.000020,
2341,3088,1.71365592003424,9.64424123690307,0.00946023655990302,0.002714,-0.000582,0.007595,0.098358,0.028996,313.514031,25.305450,0.999629,0.993831,0.003191,0.430089,0.000009,-0.000013,-0.000006,0.000010,-0.000014,-14.653817,0.000015,
2356,2998,2.056343799269,7.69193960575429,0.00530856823871773,0.002673,-0.000313,0.006948,0.098557,0.052657,314.949591,25.192172,0.999612,0.991717,0.003666,0.394831,0.000008,-0.000006,0.000002,0.000008,-0.000006,9.577645,0.000009,
2386,2008,2.90248504974765,-13.9347006318821,0.0276032853241759,0.003104,-0.002675,-0.002433,0.149529,-0.086717,331.261234,22.269243,0.998535,0.969019,0.006595,0.322112,0.000481,0.000425,-0.000052,0.000513,0.000394,-30.894396,0.000909,
2476,2623,4.74064549340767,-0.464846940286996,-0.0202594836388243,0.002534,-0.000401,0.001872,0.108999,0.014973,321.015134,24.099108,0.999603,0.990339,0.003856,0.375035,0.000057,0.000017,0.000015,0.000062,0.000013,17.962993,0.000080,
2356,2053,2.23819761706408,-12.9460458876615,0.0316564057731057,0.002552,-0.001180,-0.006312,0.138385,-0.060276,330.541659,22.597052,0.999040,0.979306,0.005501,0.356397,0.000385,0.000371,-0.000029,0.000408,0.000348,-38.469262,0.000757,
2506,2518,5.41732130860916,-2.75807677556517,-0.00980838451840782,0.002746,-0.000945,0.006233,0.101422,0.028770,322.887103,23.564629,0.999436,0.986090,0.004735,0.462316,0.000061,-0.000018,0.000025,0.000069,-0.000025,16.097356,0.000069,
2401,2248,3.18122809455727,-8.66797542665476,0.00692107328859493,0.002410,-0.000867,-0.000062,0.110215,0.021882,327.192205,22.839943,0.999219,0.982492,0.005292,0.533037,0.000161,0.000127,0.000000,0.000161,0.000127,-0.592641,0.000288,
2386,3253,2.66015003113666,13.2275928099463,0.0120943091704362,0.003181,-0.000610,0.008645,0.115414,0.041855,310.856330,25.919614,0.999698,0.992587,0.003264,0.458488,0.000011,-0.000019,0.000003,0.000011,-0.000020,5.153081,0.000020,
2446,2443,4.12431924757092,-4.39975945198605,0.00402585269318934,0.002477,-0.000999,0.005573,0.092397,0.009333,324.061017,23.419277,0.998502,0.980870,0.005400,0.437099,0.000113,0.000009,0.000043,0.000129,-0.000007,19.857942,0.000145,
2191,2653,-1.47042797766692,0.179087545577666,-0.0215413550888002,0.002448,-0.000156,0.000920,0.109688,0.019337,320.600176,24.333523,0.999543,0.989465,0.004080,0.424876,-0.000001,0.000032,0.000012,0.000035,-0.000005,72.186370,0.000038,
2431,2383,3.80894766404986,-5.7110327597493,0.00122891015206505,0.002423,-0.000794,0.002122,0.102907,0.005193,324.993522,23.310689,0.999519,0.985935,0.004720,0.375567,0.000107,0.000055,0.000029,0.000119,0.000042,24.098436,0.000167,
2476,2908,4.68346926776873,5.74370473989347,-0.0160886841914589,0.003162,-0.000846,0.004064,0.129546,0.001682,316.422370,25.151352,0.998981,0.984298,0.004773,0.387154,0.000008,-0.000006,0.000021,0.000023,-0.000021,35.507218,0.000025,
2431,2173,3.85274815905554,-10.3135679479603,0.0245538512332359,0.002509,-0.001685,0.000590,0.111919,-0.043824,328.595812,22.534223,0.999361,0.982093,0.005101,0.371524,0.000250,0.000228,-0.000040,0.000280,0.000197,-37.225810,0.000480,
2446,2683,4.07476941986312,0.842593543528636,-0.0167573683131081,0.002663,-0.000332,0.005524,0.101577,0.049719,319.994460,24.323460,0.999275,0.987569,0.004303,0.423052,0.000031,0.000043,0.000001,0.000043,0.000031,87.295500,0.000075,
2206,2893,-1.18557568322969,5.40201881437875,-0.0217417783372298,0.002743,-0.000434,0.004282,0.112660,0.021086,316.656513,24.613208,0.999797,0.994676,0.003193,0.405960,-0.000003,0.000010,0.000019,0.000023,-0.000017,54.745681,0.000024,
2401,3208,2.99678684724796,12.2512792803917,0.0378224389137927,0.003031,-0.000485,0.006176,0.117036,0.023860,311.824662,25.867436,0.999413,0.991531,0.003769,0.440237,0.000027,-0.000011,0.000006,0.000028,-0.000012,9.088762,0.000028,
2506,2533,5.41403418766425,-2.42957933393505,-0.010527061229709,0.002588,-0.000691,0.005663,0.096460,0.026275,322.631852,23.698263,0.999584,0.987383,0.004430,0.388449,0.000060,-0.000003,0.000031,0.000073,-0.000015,22.118209,0.000077,
2356,2068,2.23485744985522,-12.6170936437255,0.0344736178732319,0.002154,-0.001535,-0.002061,0.105141,-0.044441,330.290325,22.627550,0.999088,0.979483,0.005483,0.384114,0.000360,0.000364,-0.000029,0.000391,0.000333,-46.711966,0.000725,
2446,2458,4.12126218634794,-4.07083983550299,-0.00105873842716164,0.002427,-0.000047,0.000514,0.109329,0.037874,323.791570,23.493708,0.999228,0.984954,0.004809,0.444716,0.000105,-0.000005,0.000038,0.000117,-0.000017,17.365589,0.000127,
2386,3268,2.65687760128763,13.55312575729,0.00941445168916744,0.003003,-0.000511,0.008392,0.108242,0.055467,310.580090,25.963194,0.999708,0.992400,0.003386,0.470048,0.000006,-0.000025,0.000004,0.000007,-0.000026,7.234176,0.000027,
2431,2398,3.80565855913601,-5.38311051694942,-0.00161780614212148,0.002370,-0.000598,0.002536,0.099063,0.026595,324.722862,23.301111,0.999736,0.986700,0.004665,0.458236,0.000100,0.000054,0.000031,0.000116,0.000038,26.733371,0.000161,
2356,3013,2.05342508344095,8.01741361326073,0.0040865514411621,0.002531,-0.000239,0.004804,0.099588,0.041265,314.695451,25.195351,0.999564,0.990874,0.003809,0.418588,0.000009,-0.000006,-0.000001,0.000009,-0.000006,-3.157740,0.000009,
2341,3103,1.71229433293699,9.9688254929023,0.0242969315607979,0.003053,-0.000688,0.007660,0.113775,0.039241,313.408542,25.330003,0.999580,0.992621,0.003511,0.451394,0.000013,-0.000003,-0.000004,0.000014,-0.000004,-13.960432,0.000014,
2401,2263,3.17744355334453,-8.33699266355202,-0.000587790797965226,0.002334,-0.000951,0.002142,0.098801,0.030072,326.874542,23.027539,0.999263,0.985257,0.004823,0.401800,0.000149,0.000117,-0.000004,0.000150,0.000117,-6.971215,0.000267,
2446,2698,4.07074216295137,1.17039839883391,-0.0303205199145395,0.002593,-0.000429,0.003649,0.105326,0.032127,319.640347,24.355935,0.999602,0.989819,0.004014,0.425920,0.000026,0.000045,0.000002,0.000045,0.000026,83.702709,0.000072,
2431,2188,3.85035109747374,-9.98476334339224,0.0314976496370036,0.002497,-0.001657,0.000158,0.112999,-0.042172,328.412343,22.651592,0.999664,0.987337,0.004458,0.308370,0.000234,0.000210,-0.000034,0.000258,0.000186,-35.247114,0.000446,
2386,3283,2.65403654541996,13.8779437270742,0.0110704785745384,0.003034,-0.000525,0.009653,0.105059,0.046614,310.344594,25.990832,0.999725,0.991546,0.003517,0.475459,0.000005,-0.000027,0.000002,0.000005,-0.000027,3.338103,0.000028,
2506,2548,5.41210742730594,-2.10301468696458,0.00405092912404825,0.002466,-0.000712,0.004881,0.093935,0.021216,322.507617,23.797713,0.999796,0.990303,0.003942,0.345463,0.000056,-0.000023,0.000020,0.000061,-0.000027,13.483018,0.000061,
2206,2908,-1.18685906819571,5.72656942294354,-0.00638978496402842,0.002918,-0.000228,0.003266,0.124077,0.044639,316.552281,24.585380,0.999612,0.992647,0.003612,0.473583,0.000000,0.000004,0.000015,0.000017,-0.000013,48.272342,0.000018,
2431,2413,3.80277679638784,-5.05541654138732,-0.00325358098183415,0.002548,-0.000729,0.001952,0.109338,0.032728,324.476529,23.302714,0.999629,0.986717,0.004672,0.514276,0.000095,0.000047,0.000036,0.000114,0.000027,28.072036,0.000150,
2356,2083,2.23035302855427,-12.2856252736416,0.0226212915160318,0.001847,-0.001853,0.003618,0.071058,-0.012450,329.914972,22.714902,0.999295,0.981708,0.005231,0.371711,0.000336,0.000347,-0.000026,0.000368,0.000315,-50.888491,0.000683,
2341,3118,1.71033301936475,10.2941263064643,0.0316068309799675,0.003244,-0.000412,0.006100,0.128093,0.043895,313.238561,25.381327,0.999586,0.992245,0.003620,0.440268,0.000018,0.000002,0.000001,0.000018,0.000002,1.938967,0.000022,
2446,2713,4.06755157311536,1.49745468402511,-0.0314744970669949,0.002604,-0.000395,0.004970,0.100933,0.034026,319.381895,24.407186,0.999743,0.991702,0.003708,0.428865,0.000019,0.000049,0.000004,0.000050,0.000018,82.541526,0.000071,
2431,2203,3.84676610427832,-9.65648413862812,0.0254715179837604,0.002484,-0.001383,0.001601,0.107214,-0.042887,328.114435,22.591936,0.999537,0.984793,0.004839,0.419958,0.000219,0.000193,-0.000022,0.000232,0.000180,-29.596855,0.000413,
2506,2563,5.40874386308041,-1.77615229693748,-0.000988977467670793,0.002339,0.000121,0.001478,0.101618,0.038786,322.229611,23.731893,0.999804,0.990964,0.003882,0.491109,0.000060,-0.000002,0.000016,0.000064,-0.000006,13.462246,0.000070,
2386,3298,2.64977313882782,14.2044277571684,-0.00792301415015118,0.003113,-0.000239,0.008960,0.111318,0.054556,309.944354,26.048194,0.999722,0.992716,0.003475,0.467664,0.000006,-0.000023,-0.000009,0.000009,-0.000025,-15.516864,0.000026,
2401,2278,3.1731246399145,-8.00624252167883,-0.0147214989676172,0.002051,-0.000756,0.001909,0.086756,0.006208,326.501334,23.165170,0.999753,0.993887,0.003475,0.288469,0.000136,0.000115,0.000006,0.000137,0.000113,13.982531,0.000251,
2431,2428,3.79945326741001,-4.72597683496327,-0.00595457527487042,0.002309,-0.000588,0.000455,0.103947,0.014722,324.204726,23.483595,0.999384,0.985823,0.004830,0.366881,0.000094,0.000042,0.000042,0.000117,0.000019,29.057772,0.000148,
2356,2098,2.2269358473381,-11.955739091796,0.0143084569277789,0.001868,-0.001915,0.003135,0.073739,-0.029240,329.606696,22.752364,0.999220,0.980475,0.005420,0.359864,0.000308,0.000325,-0.000030,0.000347,0.000286,-53.257457,0.000634,
2341,3133,1.70684980516156,10.619912270205,0.027462978026449,0.002972,-0.000334,0.006963,0.112540,0.036695,312.942584,25.421929,0.999401,0.991872,0.003740,0.427999,0.000016,0.000004,0.000004,0.000017,0.000003,14.922976,0.000021,
2446,2728,4.06517059058348,1.82302802471495,-0.0265377149793835,0.002804,-0.000684,0.004840,0.110460,0.020432,319.189030,24.391200,0.999690,0.991486,0.003691,0.483595,0.000010,0.000048,0.000015,0.000053,0.000004,70.593174,0.000064,
2431,2218,3.84431907604969,-9.3280283581563,0.0293223960798059,0.002706,-0.001248,0.001652,0.117267,-0.027965,327.914216,22.641504,0.999510,0.985032,0.004869,0.437890,0.000201,0.000166,-0.000016,0.000207,0.000160,-21.556507,0.000368,
2506,2578,5.40491917919492,-1.44655398947883,-0.0122260774069787,0.002865,-0.000424,0.004686,0.113118,0.049301,321.902203,23.875599,0.999608,0.987398,0.004518,0.420443,0.000059,-0.000008,0.000021,0.000066,-0.000014,16.302661,0.000069,
2401,1993,3.23360445758822,-14.2667017939752,0.0343753405210805,0.002551,-0.002796,-0.004979,0.133400,-0.100475,331.559323,22.022893,0.998550,0.967323,0.006858,0.400959,0.000508,0.000446,-0.000086,0.000569,0.000385,-35.035047,0.000960,
2431,2443,3.79625834709432,-4.39837146630954,-0.00740535952928667,0.002415,-0.000718,0.003050,0.099187,0.024558,323.944721,23.485644,0.999205,0.984860,0.004879,0.426207,0.000100,0.000016,0.000040,0.000116,0.000000,21.485894,0.000134,
2506,2593,5.40078339886313,-1.11785981122027,-0.0202768022938926,0.002576,-0.000826,0.005229,0.097626,0.026656,321.574843,24.003546,0.999830,0.993777,0.003618,0.331764,0.000060,-0.000005,0.000022,0.000067,-0.000012,17.103497,0.000071,
2431,2233,3.84022890276815,-8.99708882173969,0.0203598402493412,0.002312,-0.000889,0.001391,0.100326,0.005274,327.578962,22.772302,0.999306,0.981722,0.005250,0.393109,0.000189,0.000151,-0.000005,0.000190,0.000150,-7.627058,0.000341,
2446,2743,4.06281275819727,2.14930122085005,-0.0178763123383874,0.002676,-0.000783,0.004089,0.107363,0.011793,319.014165,24.468099,0.999639,0.990496,0.003813,0.450247,0.000008,0.000041,0.000016,0.000047,0.000001,67.602400,0.000056,
2341,3148,1.70453712459324,10.945124630223,0.0344423951891031,0.003076,-0.000489,0.008519,0.111832,0.030124,312.754770,25.480945,0.999337,0.993120,0.003685,0.397790,0.000013,0.000003,0.000007,0.000016,-0.000001,27.172830,0.000018,
2401,2008,3.2306495941046,-13.935574467334,0.0242935775515889,0.003143,-0.002375,-0.007270,0.168927,-0.113262,331.269027,22.112412,0.998130,0.964647,0.007132,0.347920,0.000483,0.000421,-0.000074,0.000532,0.000372,-33.504887,0.000909,
2506,2608,5.39762902755021,-0.791440552178351,-0.0194404094666538,0.002229,-0.000273,0.002637,0.091980,0.038104,321.332483,23.970704,0.999828,0.993441,0.003716,0.437856,0.000052,-0.000007,0.000010,0.000054,-0.000008,8.942912,0.000058,
2446,2758,4.05891983674041,2.47712350177626,-0.028649092656849,0.002618,-0.000475,0.003520,0.106932,0.014153,318.678677,24.526330,0.999556,0.989088,0.004076,0.446940,0.000018,0.000042,0.000017,0.000050,0.000010,62.336210,0.000064,
2401,2023,3.22647842690703,-13.605661194566,0.0196757499344926,0.002463,-0.002312,-0.004696,0.128626,-0.130100,330.948685,22.164328,0.998523,0.969548,0.006651,0.328769,0.000458,0.000407,-0.000076,0.000512,0.000353,-35.747447,0.000870,
2341,3163,1.70197827148946,11.2709450333744,0.0346224545913287,0.003066,0.000181,0.005011,0.123995,0.071038,312.522254,25.510724,0.999488,0.992981,0.003699,0.444608,0.000013,0.000001,0.000006,0.000016,-0.000001,22.749459,0.000018,
2341,3178,1.6991664462509,11.5961545227417,0.033625132802797,0.003325,-0.000093,0.007160,0.128283,0.056362,312.272535,25.536551,0.999586,0.993746,0.003689,0.439527,0.000013,-0.000001,0.000007,0.000016,-0.000004,22.563044,0.000016,
2401,2038,3.22368195125396,-13.2762546617528,0.021791724039872,0.002542,-0.001868,-0.003092,0.126657,-0.082995,330.722473,22.187740,0.998530,0.971242,0.006483,0.401637,0.000434,0.000379,-0.000076,0.000487,0.000325,-35.111177,0.000818,
2401,2053,3.22027178389027,-12.9449727136666,0.0201371828834453,0.002662,-0.002406,0.002676,0.111111,-0.054695,330.450375,22.364202,0.998947,0.975448,0.006144,0.302620,0.000410,0.000361,-0.000070,0.000460,0.000312,-35.385603,0.000776,
2401,3223,2.99353656213208,12.5767601280813,0.0357898073112324,0.003036,-0.000641,0.008293,0.109573,0.027128,311.553887,25.906772,0.999451,0.991796,0.003630,0.448172,0.000025,-0.000014,0.000004,0.000025,-0.000014,6.625613,0.000025,
2206,2923,-1.18948476215305,6.05320469477148,-0.00456639666850833,0.002908,-0.000190,0.005303,0.117157,0.050288,316.315822,24.672955,0.999367,0.989826,0.004012,0.407644,0.000001,0.000005,0.000017,0.000020,-0.000014,48.335868,0.000021,
2416,2098,3.53969336657464,-11.957838713788,0.0156860300623975,0.002852,-0.001401,-0.003389,0.142201,-0.032272,329.738786,22.318435,0.998925,0.976225,0.006207,0.425981,0.000342,0.000329,-0.000060,0.000396,0.000275,-41.711714,0.000675,
2491,2908,5.00962635202971,5.74546623278456,-0.0126737328483273,0.002460,-0.000240,0.004044,0.097497,0.033883,316.456789,25.248536,0.999171,0.986561,0.004463,0.350917,0.000018,-0.000001,0.000020,0.000031,-0.000014,32.577703,0.000031,
2431,2458,3.79331745107698,-4.07059108473151,-0.00852280076588841,0.002502,-0.000296,0.002624,0.104931,0.042318,323.697796,23.503995,0.999386,0.985933,0.004749,0.477019,0.000091,0.000001,0.000032,0.000101,-0.000010,17.884794,0.000112,
2401,2293,3.1701686911204,-7.67942642944404,-0.013341385139654,0.002012,-0.001242,0.003365,0.079526,0.003740,326.263831,23.084665,0.999527,0.990321,0.003998,0.414097,0.000125,0.000113,0.000014,0.000134,0.000104,32.921975,0.000239,
2386,2248,2.8531703987201,-8.66631648428336,0.00462155216678184,0.002299,-0.001132,0.003021,0.094031,0.021880,327.141521,23.031400,0.999170,0.982498,0.005390,0.410512,0.000153,0.000116,0.000000,0.000153,0.000116,-0.370699,0.000270,
2371,3073,2.36954988648045,9.32092134823954,0.0155510362610016,0.003238,-0.000272,0.005244,0.130390,0.040434,313.844135,25.406174,0.999597,0.991551,0.003647,0.412112,0.000012,-0.000011,0.000001,0.000012,-0.000011,3.030641,0.000013,
2371,2158,2.54458262284221,-10.6403274242613,0.0165872396025861,0.002637,-0.001342,-0.002386,0.128626,-0.034065,328.719571,22.842824,0.999401,0.981212,0.005421,0.349292,0.000240,0.000219,-0.000025,0.000257,0.000202,-33.694331,0.000460,
2476,2638,4.73745092639325,-0.138147525571242,-0.0208114702423359,0.002529,-0.000471,0.003001,0.104519,0.030027,320.762100,24.085629,0.999625,0.990016,0.003862,0.460756,0.000052,0.000032,0.000005,0.000053,0.000031,13.085560,0.000085,
2326,2998,1.40467119371707,7.68885304298626,0.00886463206211374,0.002759,-0.000364,0.006855,0.103312,0.045884,314.991246,25.045651,0.999773,0.994836,0.003068,0.450088,0.000001,-0.000003,0.000003,0.000002,-0.000005,27.367233,0.000005,
2131,2353,-2.72526159925693,-6.36884597818808,-0.000895067601504707,0.002109,-0.000475,0.002427,0.089493,0.028575,325.819716,24.258676,0.999170,0.985740,0.004746,0.406145,0.000070,0.000052,0.000000,0.000070,0.000052,-1.570266,0.000122,
2356,3238,2.01303094848484,12.898661116474,0.0298517661888127,0.003028,-0.000206,0.005842,0.118992,0.047360,311.245955,25.734699,0.999598,0.992303,0.003399,0.451262,0.000013,-0.000006,0.000005,0.000014,-0.000007,12.640577,0.000014,
2431,2668,3.75023078347788,0.516099375641637,-0.0258143332291638,0.002703,-0.000591,0.005415,0.103889,0.022797,320.138774,24.333448,0.999447,0.989729,0.004286,0.340516,0.000032,0.000036,-0.000002,0.000037,0.000031,-70.680324,0.000068,
2446,2473,4.11830804329103,-3.74316907869611,0.00327609180806121,0.002324,-0.000463,0.002948,0.095382,0.027787,323.570417,23.584868,0.999548,0.987409,0.004430,0.396930,0.000090,-0.000018,0.000030,0.000098,-0.000026,14.604507,0.000102,
2506,2833,5.35162820532664,4.11319299053116,-0.0148130458541118,0.002682,-0.000435,0.005931,0.100067,0.032004,317.710591,24.899842,0.999507,0.989510,0.004109,0.422626,0.000010,0.000038,0.000016,0.000046,0.000003,64.852321,0.000054,
2401,3238,2.99031302934192,12.9028334399778,0.0286443972272536,0.003200,-0.000371,0.006948,0.122155,0.041681,311.259868,25.964656,0.999472,0.992336,0.003464,0.449002,0.000022,-0.000017,0.000002,0.000023,-0.000017,2.956107,0.000024,
2491,2923,5.00586804978487,6.07253201129478,-0.0228124977546145,0.002895,-0.000425,0.007205,0.105311,0.053230,316.134004,25.281329,0.999348,0.986494,0.004359,0.396013,0.000015,0.000000,0.000017,0.000026,-0.000011,33.463781,0.000026,
2461,2713,4.39576660307197,1.4970639217562,-0.0208003179376419,0.003125,-0.000588,0.004867,0.124971,0.040948,319.526038,24.391898,0.999667,0.990187,0.003971,0.450950,0.000026,0.000049,0.000007,0.000051,0.000024,75.166381,0.000077,
2416,2113,3.53774905969199,-11.6299332780566,0.0275689767130416,0.002948,-0.001233,-0.002769,0.144451,-0.030651,329.598400,22.383593,0.999018,0.976354,0.006068,0.412753,0.000322,0.000320,-0.000054,0.000375,0.000267,-44.419888,0.000644,
2206,2938,-1.19199829205019,6.37854002974341,-0.00149294675935607,0.002771,-0.000039,0.005209,0.111216,0.049989,316.091379,24.659697,0.999452,0.991700,0.003710,0.436753,0.000000,0.000007,0.000016,0.000020,-0.000013,51.846725,0.000020,
2401,2068,3.21627321053157,-12.615585072837,0.00849897910910613,0.002347,-0.002129,0.000745,0.103800,-0.056995,330.104739,22.293486,0.999323,0.978635,0.006016,0.420450,0.000386,0.000359,-0.000063,0.000437,0.000308,-39.061649,0.000748,
2476,2653,4.73444514813145,0.188694333432792,-0.0182347051772354,0.002449,-0.000657,0.004043,0.096791,0.019149,320.531898,24.142117,0.999589,0.989642,0.003945,0.450521,0.000044,0.000037,0.000001,0.000044,0.000037,8.818134,0.000081,
2356,3253,2.01001604257395,13.2232050364836,0.0329619233805829,0.002965,-0.000749,0.010191,0.100554,0.035765,311.007786,25.738886,0.999647,0.992090,0.003420,0.472660,0.000009,-0.000009,0.000005,0.000010,-0.000010,14.110935,0.000012,
2326,3013,1.40210611412173,8.01478802170308,0.00860358614136203,0.002903,-0.000388,0.005374,0.115018,0.027235,314.755692,25.104231,0.999394,0.988902,0.004007,0.406484,0.000002,-0.000004,0.000001,0.000002,-0.000004,6.381610,0.000004,
2491,2938,5.0034073354555,6.39855768566697,-0.0153723244755497,0.002916,-0.000456,0.007612,0.104711,0.051581,315.950476,25.368977,0.999409,0.988993,0.003989,0.365009,0.000013,-0.000015,0.000014,0.000019,-0.000021,22.226001,0.000023,
2371,2173,2.54130097883632,-10.3133141991195,0.0162542961573422,0.002337,-0.001474,-0.000981,0.109857,-0.032147,328.456998,22.714351,0.999296,0.981377,0.005353,0.523588,0.000221,0.000194,-0.000024,0.000235,0.000181,-30.119925,0.000417,
2446,2488,4.11559141036211,-3.41689665754333,0.00418238696659046,0.002478,-0.000628,0.002354,0.104591,0.011297,323.344588,23.527062,0.999436,0.985986,0.004560,0.491582,0.000083,-0.000014,0.000021,0.000088,-0.000019,11.795303,0.000092,
2371,3088,2.36663862286472,9.64589835948176,0.0207871085766556,0.002878,-0.000417,0.006324,0.109882,0.028499,313.622314,25.425309,0.999399,0.989649,0.004028,0.420946,0.000012,-0.000012,-0.000003,0.000012,-0.000012,-8.312442,0.000014,
2506,2848,5.34861890670377,4.44041215552891,-0.0138978462550199,0.002696,-0.000556,0.005880,0.100852,0.021823,317.473718,25.034034,0.999641,0.991849,0.003641,0.339090,0.000001,0.000051,0.000015,0.000055,-0.000003,74.138112,0.000062,
2416,2128,3.5331923135561,-11.2981397420977,0.0126996340218852,0.002671,-0.001257,-0.001273,0.126291,-0.011075,329.213225,22.500345,0.999280,0.978474,0.005734,0.367115,0.000304,0.000310,-0.000048,0.000355,0.000259,-46.576831,0.000617,
2476,2668,4.73126448297768,0.51539069458417,-0.0212387151873372,0.002670,-0.000618,0.005273,0.102245,0.016387,320.268269,24.134957,0.999434,0.986959,0.004319,0.512023,0.000037,0.000026,0.000001,0.000037,0.000026,4.178617,0.000063,
2461,2728,4.39336545266579,1.82447058494378,-0.0171159944555939,0.003441,-0.000211,0.004785,0.139906,0.040802,319.327086,24.520291,0.999642,0.991865,0.003619,0.376967,0.000017,0.000048,0.000019,0.000057,0.000008,64.646173,0.000072,
2206,2953,-1.19528705776967,6.70452904783026,-0.00840966512799923,0.002550,-0.000041,0.005041,0.101630,0.064462,315.779403,24.625915,0.999425,0.991904,0.003700,0.501358,0.000001,0.000003,0.000012,0.000014,-0.000010,46.902448,0.000015,
2491,2953,5.0008497539969,6.72347255304592,-0.0091819708001708,0.002855,-0.000733,0.007008,0.104066,0.019107,315.757102,25.379554,0.999365,0.988792,0.004069,0.379997,0.000017,-0.000020,0.000020,0.000026,-0.000029,23.242776,0.000032,
2326,3028,1.39950252565343,8.3403434837262,0.0141392258307746,0.002825,-0.000405,0.007251,0.104891,0.025844,314.546814,25.153267,0.999592,0.991274,0.003703,0.389546,0.000006,-0.000004,-0.000001,0.000006,-0.000004,-5.803944,0.000006,
2446,2503,4.1122861201462,-3.08883377289606,0.00404864593787124,0.002504,-0.000980,0.006190,0.091392,0.024722,323.086468,23.598883,0.999490,0.988082,0.004300,0.486603,0.000079,-0.000011,0.000014,0.000081,-0.000014,8.825626,0.000087,
2476,2683,4.72800580699029,0.843920548534541,-0.0249166068039699,0.002756,-0.000453,0.005004,0.107328,0.035459,319.997479,24.273905,0.999597,0.988458,0.004129,0.449371,0.000034,0.000036,0.000007,0.000042,0.000028,49.351458,0.000070,
2416,2143,3.52986371260953,-10.9695846096866,0.0117799539853536,0.002457,-0.001205,-0.000064,0.112127,0.002894,328.949532,22.484356,0.999359,0.979703,0.005283,0.447983,0.000283,0.000281,-0.000045,0.000327,0.000237,-44.151165,0.000566,
2491,2968,4.99847490947667,7.0492357678248,-0.00698668153944482,0.002763,-0.000199,-0.000149,0.127573,0.028932,315.553773,25.401605,0.999309,0.986644,0.004442,0.426136,0.000017,-0.000013,0.000027,0.000032,-0.000029,30.500663,0.000036,
2476,2698,4.72510261340607,1.1710936488506,-0.0235248636643632,0.002599,-0.000305,0.002709,0.108960,0.041267,319.766260,24.348026,0.999668,0.988411,0.004214,0.438088,0.000027,0.000039,0.000009,0.000044,0.000022,61.744968,0.000067,
2446,2518,4.10847980189088,-2.76060320976725,-0.00208411720296908,0.002152,-0.000881,0.005562,0.077635,0.022790,322.777677,23.652276,0.999306,0.985863,0.004542,0.484807,0.000068,-0.000017,0.000016,0.000071,-0.000020,10.304871,0.000074,
2326,3043,1.39696877851104,8.66588955717521,0.0169727660288004,0.002738,-0.000199,0.005394,0.107474,0.045548,314.327854,25.165910,0.999641,0.991967,0.003637,0.430085,0.000005,-0.000004,0.000000,0.000005,-0.000004,-3.165168,0.000005,
2416,2158,3.52681771153363,-10.6414799495964,0.0134716033433619,0.002268,-0.001754,0.000499,0.101263,-0.064682,328.711339,22.542047,0.999219,0.978620,0.005462,0.373020,0.000261,0.000243,-0.000039,0.000292,0.000212,-38.649291,0.000506,
2491,2983,4.99519602772872,7.37605983949165,-0.0072482015717128,0.002735,-0.000297,0.001680,0.119218,0.026268,315.297357,25.521067,0.999254,0.987140,0.004307,0.362203,0.000020,-0.000019,0.000028,0.000035,-0.000034,27.520332,0.000040,
2446,2533,4.10563712895845,-2.43091154878697,-0.00444287496907236,0.002276,-0.000219,0.002631,0.094538,0.042574,322.530101,23.857290,0.999334,0.986850,0.004497,0.352893,0.000063,-0.000009,0.000018,0.000067,-0.000013,13.045753,0.000071,
2446,2548,4.10236811067285,-2.10366493954813,-0.00735369317254708,0.002523,-0.000597,0.006028,0.093072,0.043046,322.260806,23.857681,0.999581,0.989099,0.004154,0.406185,0.000060,-0.000011,0.000015,0.000063,-0.000014,11.842072,0.000066,
2461,2743,4.38862242801288,2.15079036123639,-0.0252736045027859,0.002491,-0.000926,0.005955,0.091626,0.013497,318.966470,24.485910,0.999648,0.991126,0.003730,0.438611,0.000016,0.000041,0.000019,0.000051,0.000005,61.811301,0.000062,
2401,2083,3.21514513961519,-12.2865551505949,0.0201805730660567,0.002905,-0.001286,-0.003123,0.143635,-0.032082,329.999782,22.426751,0.998913,0.975632,0.006202,0.360034,0.000361,0.000343,-0.000056,0.000409,0.000296,-40.353341,0.000708,
2431,2683,3.74742377212251,0.842476165489494,-0.0212452463849218,0.002635,-0.000483,0.007132,0.094512,0.050489,319.923551,24.333888,0.999456,0.988718,0.004271,0.418082,0.000032,0.000045,-0.000001,0.000045,0.000032,-84.791717,0.000078,
2401,2308,3.1675663127943,-7.35170215882607,-0.0152607889480691,0.002302,-0.000683,0.001208,0.100815,0.022084,326.026780,23.038305,0.999767,0.993944,0.003485,0.526269,0.000117,0.000105,0.000015,0.000127,0.000095,33.731894,0.000223,
2431,2473,3.79070771680478,-3.74278335802862,-0.00601921539742989,0.002442,0.000004,-0.000129,0.112495,0.043801,323.482838,23.579551,0.999320,0.985465,0.004714,0.454309,0.000080,-0.000013,0.000024,0.000085,-0.000019,13.457844,0.000090,
2326,3058,1.39386268028189,8.99161129298591,0.0134967821397254,0.002725,-0.000208,0.005771,0.105663,0.065503,314.051552,25.157218,0.999693,0.993232,0.003317,0.492632,0.000005,-0.000015,0.000000,0.000005,-0.000015,1.168708,0.000015,
2461,2758,4.38559387235233,2.4781118615174,-0.0272454641416289,0.002600,-0.000486,0.005340,0.099138,0.034772,318.712592,24.549303,0.999602,0.989829,0.003927,0.451263,0.000027,0.000042,0.000019,0.000055,0.000014,55.505266,0.000073,
2401,2323,3.16595067378949,-7.02417333406468,0.00353745796240901,0.002184,-0.000629,0.002070,0.092361,0.023295,325.932370,23.201995,0.999299,0.986833,0.004502,0.410720,0.000108,0.000093,0.000018,0.000120,0.000081,33.725137,0.000203,
2461,2773,4.38241426103342,2.80532196910465,-0.0323454591027144,0.002413,-0.000190,-0.000165,0.111434,0.035533,318.437437,24.603246,0.999345,0.987422,0.004334,0.452691,0.000028,0.000031,0.000015,0.000044,0.000015,47.834031,0.000061,
2461,2788,4.38028313524208,3.13076913641398,-0.0189115988717958,0.002380,-0.000340,0.002091,0.101363,0.021690,318.295674,24.658594,0.999195,0.985654,0.004533,0.437529,0.000028,0.000028,0.000008,0.000036,0.000021,44.421337,0.000057,
2461,2803,4.37655156364331,3.45884731011147,-0.0249231686025269,0.002576,-0.000710,0.006929,0.092004,0.020908,317.990587,24.796045,0.999275,0.986131,0.004525,0.353871,0.000027,0.000018,0.000011,0.000034,0.000011,33.472167,0.000047,
2461,2818,4.37413961572569,3.78441784197607,-0.0197672695682627,0.002654,-0.000639,0.005660,0.100397,0.029426,317.797815,24.783741,0.999188,0.985579,0.004713,0.428870,0.000022,0.000010,0.000009,0.000027,0.000005,29.408366,0.000034,
2461,2833,4.37067695859576,4.11250019560687,-0.0261147877719736,0.002837,-0.000568,0.006768,0.104671,0.034661,317.503370,24.922738,0.999520,0.989218,0.004023,0.349393,0.000016,0.000021,0.000010,0.000028,0.000009,51.382519,0.000039,
2326,3073,1.39105038180176,9.31773870692921,0.0171572565138831,0.002537,-0.000420,0.007029,0.092559,0.046437,313.823585,25.275200,0.999718,0.994756,0.002960,0.388712,0.000006,-0.000015,-0.000002,0.000007,-0.000015,-5.074904,0.000015,
2326,3088,1.38903493840256,9.64152043813207,0.0245367620906904,0.002901,-0.000725,0.008850,0.102882,0.034432,313.651219,25.197016,0.999654,0.994266,0.003143,0.488440,0.000007,-0.000015,-0.000007,0.000009,-0.000017,-15.229337,0.000017,
2326,3103,1.38677674090365,9.96734038136513,0.0266672770709988,0.003095,-0.000433,0.006306,0.120737,0.043436,313.441244,25.255631,0.999547,0.993249,0.003420,0.472211,0.000009,-0.000005,-0.000005,0.000010,-0.000007,-19.122722,0.000011,
