Image X[Pixel],Image Y[Pixel],X[mm],Y[mm],Z[mm],Horizontal Displacement U[mm],Vertical Displacement V[mm],Out-Of-Plane: W[mm],Horizontal: u[Pixel],Vertical: v[Pixel],Horizontal: q[Pixel],Vertical: r[Pixel],Correlation Value 2D,Correlation Value Persp,Sigma,Epipolar Distance,Strain-global frame: Exx,Strain-global frame: Eyy,Strain-global frame: Exy,Maximum Principal Strain: EI,Minimum Principal Strain: EII,Shear Angle Gamma,Von Mises Equivalent Strain,
2011,1993,-5.28095583145824,-14.2501865648237,0.0235339946342492,0.003707,0.002048,-0.006881,0.189239,0.057368,332.531697,25.001732,0.998798,0.982258,0.005313,0.328789,-0.000017,-0.000155,0.000008,-0.000016,-0.000155,3.391374,0.000190,
2056,2218,-4.33451147916539,-9.31887542669817,0.00447952736959678,0.003944,0.002251,-0.006076,0.198908,0.114142,328.507750,24.671109,0.998592,0.981379,0.005340,0.369066,0.000005,0.000007,0.000022,0.000028,-0.000016,45.954532,0.000028,
2026,2068,-4.96478536687934,-12.6070262324375,0.0239263702409289,0.003840,0.001343,-0.005060,0.190474,0.045082,331.243276,24.798918,0.999704,0.992223,0.003678,0.383588,0.000002,-0.000007,0.000018,0.000016,-0.000021,38.322168,0.000022,
2041,2143,-4.64909070109494,-10.963066859014,0.0142457461415688,0.004325,0.001248,-0.004952,0.212637,0.059461,329.893197,24.673151,0.998009,0.981019,0.005986,0.407954,-0.000008,0.000013,0.000006,0.000015,-0.000010,74.838489,0.000015,
2101,2443,-3.39080674134373,-4.40226083400758,-0.00863354137203487,0.004175,0.000962,0.000501,0.190808,0.076113,324.536498,24.393794,0.999334,0.987623,0.004483,0.440389,0.000006,-0.000015,0.000008,0.000009,-0.000018,19.571509,0.000018,
2071,2293,-4.02014153806909,-7.67913426793291,-0.00761308445453324,0.003868,0.001484,-0.006072,0.195440,0.044098,327.117520,24.504626,0.999803,0.993230,0.003786,0.389588,0.000000,-0.000006,0.000015,0.000012,-0.000018,39.530506,0.000018,
2146,2668,-2.44944115823072,0.504718355301272,-0.0241703555670369,0.004112,0.001028,-0.003524,0.200273,0.057232,320.581784,24.354219,0.999610,0.991683,0.003677,0.475396,0.000004,-0.000017,0.000004,0.000005,-0.000018,10.745435,0.000018,
2116,2518,-3.07739453738245,-2.7644193166827,-0.0235331115731015,0.004038,0.000791,-0.002352,0.192932,0.039027,323.133835,24.397931,0.999258,0.987570,0.004392,0.383947,0.000012,0.000006,0.000015,0.000025,-0.000006,39.491678,0.000026,
2296,2023,0.933236355412244,-13.6019088375175,0.0290080878256163,0.003838,0.000192,0.001983,0.169069,0.046177,331.049143,22.898455,0.999160,0.981607,0.005421,0.484384,-0.000015,-0.000001,-0.000008,0.000002,-0.000019,-65.992339,0.000020,
2176,2818,-1.82359676213899,3.77233026028534,-0.0353930722955056,0.003946,0.001115,-0.003147,0.191842,0.049384,317.933695,24.587295,0.999392,0.990689,0.003912,0.346618,0.000001,-0.000025,0.000003,0.000002,-0.000026,5.944910,0.000029,
2056,2233,-4.33718021907074,-8.99104760144944,-0.00059491101956155,0.004094,0.001090,-0.002100,0.194280,0.073501,328.220422,24.627434,0.999330,0.987726,0.004560,0.369429,0.000001,0.000019,0.000018,0.000030,-0.000011,58.361399,0.000030,
2491,2998,4.99396850013493,7.70191557082283,-0.00061041183693078,0.003890,0.000785,0.000187,0.178317,0.027880,315.166756,25.597674,0.999353,0.988423,0.004107,0.345309,0.000001,-0.000025,0.000003,0.000002,-0.000026,5.951067,0.000029,
2206,2968,-1.19512271791262,7.03148212796739,-0.00299837327190744,0.004399,0.001334,-0.002800,0.212033,0.073684,315.689473,24.775936,0.999396,0.991145,0.003783,0.376500,-0.000007,-0.000015,0.000005,-0.000005,-0.000018,26.284830,0.000024,
2221,3043,-0.88293251786968,8.65979160003898,0.00582496712303282,0.003722,0.000562,0.001732,0.166232,0.052294,314.453885,24.882758,0.999721,0.993664,0.003231,0.376934,-0.000004,-0.000034,-0.000002,-0.000004,-0.000034,-3.420124,0.000042,
2431,2698,3.74573232542579,1.17147189552226,-0.0276254560373559,0.003739,0.001137,-0.001489,0.177630,0.057022,319.708217,24.510199,0.999793,0.991976,0.003635,0.298590,0.000007,0.000010,-0.000015,0.000024,-0.000007,-47.868584,0.000025,
2191,2893,-1.50916748820345,5.4016360999921,-0.0149921549048599,0.004037,0.000905,-0.001949,0.192377,0.053130,316.836289,24.646848,0.999790,0.994948,0.003150,0.377520,-0.000005,-0.000014,0.000005,-0.000002,-0.000016,24.314177,0.000020,
2341,2248,1.87206060370176,-8.66466248712017,-0.000352621952742993,0.003695,0.000656,0.001409,0.164682,0.054478,327.152618,23.288642,0.999132,0.982275,0.005117,0.392014,-0.000023,-0.000008,-0.000008,-0.000004,-0.000026,-65.803733,0.000033,
2461,2848,4.36850984142918,4.43977506629709,-0.0353924888516417,0.003885,0.000864,-0.000127,0.179342,0.055978,317.255208,24.954497,0.999783,0.992858,0.003353,0.393697,-0.000012,-0.000012,-0.000013,0.000001,-0.000024,-45.100317,0.000028,
2011,2008,-5.2838404099887,-13.919545536141,0.0139142644168828,0.003823,0.001251,-0.002182,0.181647,0.062576,332.203876,25.028885,0.998758,0.984270,0.005130,0.299076,0.000005,-0.000072,0.000045,0.000026,-0.000093,24.964531,0.000096,
2041,2188,-4.65727734067056,-9.97615597641214,0.00662928812124619,0.003560,0.001422,-0.000276,0.164683,0.086489,329.059194,24.717158,0.999195,0.985587,0.004837,0.377326,-0.000003,0.000004,0.000020,0.000020,-0.000020,49.639193,0.000023,
2086,2368,-3.70550814474842,-6.04014469713228,-0.00991001267976799,0.003861,0.001257,-0.004276,0.190170,0.058626,325.808165,24.419548,0.998289,0.980682,0.005563,0.433256,0.000009,0.000002,0.000002,0.000009,0.000001,11.804807,0.000011,
2401,2548,3.12296962736756,-2.10389512775669,-0.017399641957752,0.004223,0.001125,-0.003643,0.207415,0.051663,322.224412,23.918932,0.999370,0.989657,0.004498,0.427190,-0.000002,-0.000037,0.000002,-0.000002,-0.000037,3.116945,0.000044,
2131,2593,-2.76344479844565,-1.12821033071557,-0.029697242074235,0.004280,0.001422,-0.003247,0.207130,0.090039,321.817758,24.373798,0.999425,0.990226,0.004185,0.463634,0.000006,-0.000002,0.000012,0.000015,-0.000011,35.233934,0.000015,
2251,3193,-0.256046358030638,11.913978402633,0.0360607019683243,0.003944,0.000507,0.001073,0.178419,0.027329,312.198664,25.216517,0.999498,0.992390,0.003487,0.338626,-0.000001,-0.000021,0.000002,0.000000,-0.000022,5.982204,0.000025,
2191,2908,-1.51163430086056,5.72606404504356,-0.0101223203521386,0.003862,0.000927,-0.001079,0.181624,0.060681,316.622644,24.547715,0.999797,0.994709,0.003215,0.498303,-0.000003,-0.000017,0.000005,-0.000001,-0.000019,19.162625,0.000022,
2041,2158,-4.65265467503693,-10.6313445991152,-0.00431005578570876,0.004269,0.000990,-0.002599,0.203516,0.052648,329.488175,24.778120,0.999367,0.986845,0.004727,0.292358,-0.000004,-0.000008,0.000001,-0.000004,-0.000008,13.751125,0.000012,
2071,2308,-4.02309803899169,-7.34939182687138,-0.0216621633037448,0.003962,0.001958,-0.008107,0.205742,0.060925,326.768809,24.517766,0.999814,0.992917,0.003913,0.392795,0.000001,-0.000016,0.000007,0.000003,-0.000019,19.634057,0.000020,
2011,2023,-5.28600776499539,-13.5916717038808,0.0138182612288347,0.003703,0.001524,-0.003727,0.180456,0.045494,331.962558,24.940634,0.998653,0.983889,0.005214,0.361932,0.000016,-0.000096,0.000044,0.000031,-0.000111,19.138823,0.000114,
2266,3283,0.0507901222586788,13.8673017760833,0.00184942463681637,0.003865,0.000839,-0.001595,0.183828,0.040138,310.413550,25.357245,0.999552,0.992824,0.003354,0.426797,0.000010,-0.000006,0.000024,0.000028,-0.000023,36.121166,0.000030,
2326,2173,1.55971822169042,-10.3072982224943,0.00987329634011758,0.003991,0.001006,0.000863,0.180246,0.054281,328.465993,23.302186,0.998800,0.978773,0.005511,0.261559,-0.000018,-0.000028,-0.000001,-0.000018,-0.000028,-4.980453,0.000046,
2296,2053,0.928388436262061,-12.9410941501764,0.026515560963503,0.004254,0.001139,-0.002880,0.204874,0.055028,330.580537,23.139277,0.999198,0.982808,0.005121,0.319193,-0.000017,-0.000006,-0.000010,0.000000,-0.000022,-59.472363,0.000026,
2116,2533,-3.08005043745905,-2.43706309011215,-0.024507616317635,0.003858,0.001396,-0.002211,0.184449,0.076697,322.874453,24.380002,0.999198,0.986231,0.004644,0.443936,0.000009,0.000002,0.000018,0.000024,-0.000014,39.721355,0.000024,
2221,3058,-0.884625623153514,8.98438241302935,0.0156710532174316,0.003928,0.000795,0.001140,0.177720,0.062231,314.303061,24.865375,0.999747,0.994264,0.003054,0.422469,-0.000001,-0.000037,-0.000005,0.000000,-0.000038,-8.210264,0.000044,
2491,3013,4.99060749370117,8.02865423484511,-0.00637467292699512,0.003899,0.000878,-0.002043,0.187376,0.032637,314.881561,25.672806,0.999610,0.992560,0.003492,0.333240,0.000001,-0.000027,0.000004,0.000002,-0.000027,7.576310,0.000031,
2236,3133,-0.572380469965498,10.6133350934255,0.0172833309987368,0.004066,0.000750,0.005668,0.169331,0.065614,313.045614,25.075587,0.999670,0.992101,0.003707,0.367065,-0.000012,-0.000038,-0.000003,-0.000011,-0.000038,-7.097518,0.000052,
2446,2773,4.05716488097975,2.80516323515433,-0.0380388231328084,0.003833,0.001173,-0.006198,0.199601,0.029388,318.447733,24.608165,0.999460,0.988612,0.004320,0.432964,-0.000001,-0.000007,-0.000014,0.000010,-0.000018,-39.499495,0.000019,
2266,3268,0.0540260043730463,13.5417811626699,0.0153919110758238,0.003744,0.000697,0.003144,0.162476,0.051031,310.751941,25.347669,0.999649,0.993247,0.003349,0.423275,0.000011,-0.000010,0.000022,0.000025,-0.000024,32.410094,0.000028,
2116,2548,-3.08264315774943,-2.11010261989794,-0.0262712118438344,0.004098,0.000881,0.002604,0.181137,0.079874,322.613944,24.358112,0.999223,0.987782,0.004432,0.473417,0.000011,0.000005,0.000022,0.000031,-0.000015,40.729444,0.000031,
2356,2323,2.1849303168678,-7.02373869630082,-0.00187382543356307,0.003426,0.000669,0.000704,0.154822,0.051158,325.919828,23.347349,0.999713,0.994455,0.003591,0.466318,-0.000034,0.000002,-0.000001,0.000002,-0.000034,-88.375292,0.000039,
2146,2698,-2.45584386633329,1.15915263891618,-0.0315219187255025,0.003657,0.000456,0.004113,0.156060,0.055880,319.989370,24.426486,0.999439,0.990219,0.003906,0.418567,0.000010,-0.000027,0.000004,0.000011,-0.000027,5.508982,0.000028,
2431,2713,3.74387070846094,1.49641881867521,-0.0201310695350685,0.004137,0.001251,-0.002684,0.200344,0.053710,319.550301,24.442454,0.999729,0.991822,0.003669,0.413164,0.000003,0.000009,-0.000016,0.000023,-0.000010,-50.598612,0.000023,
2206,2998,-1.20082536981248,7.68288347778584,-0.00716225442886298,0.004300,0.000884,-0.001233,0.202392,0.054525,315.155866,24.792624,0.999459,0.991191,0.003764,0.372874,-0.000009,-0.000020,0.000005,-0.000007,-0.000021,19.401185,0.000030,
2416,2623,3.43400157297311,-0.465958902553965,-0.0263150588697272,0.003957,0.000952,-0.000845,0.185097,0.060417,320.926085,24.138227,0.999348,0.988364,0.004183,0.435138,0.000004,-0.000014,-0.000006,0.000006,-0.000016,-17.658426,0.000016,
2161,2743,-2.13645929728044,2.13917378789483,-0.0320456259207731,0.004205,0.001002,-0.001913,0.199803,0.062927,319.241369,24.443344,0.999499,0.989480,0.004062,0.437734,0.000002,-0.000034,0.000000,0.000002,-0.000034,0.042231,0.000038,
2311,2098,1.2465784284674,-11.9526151495066,0.0136354541455148,0.003999,0.001192,-0.002830,0.193198,0.057181,329.726099,23.138932,0.999395,0.981629,0.005381,0.331454,-0.000015,-0.000006,-0.000005,-0.000004,-0.000017,-67.307224,0.000022,
2101,2458,-3.39356952558307,-4.07416749169207,-0.0167575932658792,0.004075,0.001291,-0.003058,0.196731,0.073779,324.232404,24.390880,0.999390,0.988157,0.004329,0.443850,0.000008,-0.000019,0.000005,0.000009,-0.000020,9.073369,0.000020,
2011,2053,-5.29038980794865,-12.9334904982682,0.014147154637044,0.004001,0.000295,0.002962,0.175709,0.038747,331.480156,24.980541,0.999399,0.990804,0.003971,0.298540,0.000002,-0.000026,0.000014,0.000008,-0.000032,21.902615,0.000033,
2236,3118,-0.569488546614483,10.2880058027508,0.0148132629080919,0.004055,0.001076,-0.000181,0.187878,0.056021,313.288846,25.053741,0.999582,0.991981,0.003663,0.359518,-0.000010,-0.000039,-0.000004,-0.000010,-0.000040,-7.915386,0.000053,
2506,3073,5.30494333950592,9.33225447096479,0.00177887174419311,0.003907,0.000468,0.003224,0.167312,0.045247,313.989777,25.863685,0.999637,0.991836,0.003930,0.440505,0.000013,-0.000005,0.000005,0.000014,-0.000007,15.194978,0.000014,
2341,2263,1.86944489821212,-8.33662730819675,0.00382921785222834,0.003541,0.000894,0.001118,0.158742,0.052300,326.939397,23.336004,0.999178,0.983164,0.005037,0.381093,-0.000029,-0.000009,-0.000012,-0.000003,-0.000034,-65.479040,0.000042,
2041,2203,-4.65986228187162,-9.64721196226431,-0.000230243485248138,0.003452,0.001506,-0.003067,0.167502,0.064141,328.764070,24.726746,0.998694,0.981844,0.005387,0.340877,-0.000001,-0.000004,0.000016,0.000014,-0.000018,42.222833,0.000019,
2491,3028,4.98727547008592,8.35470477348439,-0.00562485887525099,0.003803,0.000993,0.000691,0.172575,0.053472,314.627184,25.716643,0.999714,0.994017,0.003282,0.368471,0.000005,-0.000021,0.000002,0.000005,-0.000021,3.725039,0.000021,
2281,2008,0.609056983611858,-13.9283716069797,0.0249223313580273,0.004436,0.001418,-0.005062,0.220433,0.055605,331.321441,23.138044,0.999470,0.982646,0.005176,0.324389,-0.000003,-0.000004,-0.000001,-0.000002,-0.000004,-24.344288,0.000007,
2176,2848,-1.82813279099407,4.42364024828239,-0.0302124577415839,0.004209,0.000833,-0.002098,0.200612,0.042179,317.498203,24.569094,0.999334,0.991812,0.003665,0.381746,-0.000004,-0.000013,0.000008,0.000000,-0.000018,30.142288,0.000021,
2401,2563,3.11898366232429,-1.77565523850976,-0.0219119696877215,0.003695,0.001425,-0.001414,0.175253,0.079791,321.910409,23.974258,0.999397,0.987892,0.004373,0.446543,-0.000006,-0.000035,-0.000005,-0.000005,-0.000036,-8.963169,0.000044,
2296,2068,0.925754260934639,-12.6122531847413,0.0281523918002335,0.004247,0.001220,-0.002371,0.202868,0.059659,330.350942,23.157248,0.999258,0.982673,0.005123,0.339184,-0.000016,0.000002,-0.000003,0.000002,-0.000016,-80.360212,0.000018,
2386,2473,2.81048813615323,-3.74135024436185,-0.0159627633651098,0.004073,0.001459,-0.003993,0.201735,0.081467,323.433723,23.763860,0.999402,0.988687,0.004467,0.414349,-0.000008,-0.000038,0.000003,-0.000008,-0.000038,5.548205,0.000049,
2086,2398,-3.71015291967447,-5.38403122978507,-0.0132191723612323,0.004035,0.001477,-0.005286,0.201197,0.076716,325.307455,24.458368,0.998640,0.983968,0.005054,0.414117,0.000010,-0.000003,-0.000001,0.000010,-0.000003,-3.415052,0.000011,
2056,2263,-4.34140368927634,-8.33486446011241,-0.00496669610936351,0.004616,0.000858,-0.002899,0.220445,0.037643,327.728056,24.619239,0.999187,0.983122,0.005214,0.335776,-0.000009,0.000003,0.000014,0.000013,-0.000018,56.670443,0.000019,
2026,2083,-4.96749674379828,-12.2775649629276,0.0192449733331728,0.003663,0.001202,-0.003935,0.179236,0.033164,330.952762,24.821122,0.999263,0.986497,0.004669,0.343097,-0.000002,0.000025,0.000018,0.000034,-0.000010,63.851994,0.000035,
2296,2038,0.930904167393965,-13.2706770309917,0.0319621899766389,0.003727,0.000845,-0.001927,0.177406,0.051136,330.839686,23.137780,0.999319,0.984078,0.004989,0.283378,-0.000016,-0.000004,-0.000007,-0.000001,-0.000019,-65.737802,0.000022,
2131,2608,-2.76552680848124,-0.801986262034418,-0.0264439004421888,0.004299,0.001181,-0.005162,0.213638,0.053368,321.608927,24.387198,0.999452,0.989501,0.004298,0.420002,0.000006,-0.000006,0.000013,0.000014,-0.000014,32.624390,0.000016,
2056,2248,-4.33926795850839,-8.66365933775637,-0.00104836237244399,0.004143,0.000964,-0.004530,0.203321,0.031129,327.985102,24.598513,0.999155,0.985147,0.004844,0.352905,-0.000005,0.000027,0.000015,0.000033,-0.000011,68.337683,0.000034,
2371,2398,2.49799478934775,-5.38199686837354,-0.0074921719688632,0.003719,0.001333,-0.002682,0.180557,0.066205,324.689774,23.553619,0.999419,0.988211,0.004539,0.432140,-0.000013,-0.000001,0.000003,0.000000,-0.000013,78.580400,0.000015,
2221,3073,-0.887335382305789,9.31016881637014,0.015028715985693,0.003745,0.000809,-0.001062,0.176308,0.048411,314.051177,24.917136,0.999586,0.993340,0.003305,0.374712,-0.000002,-0.000033,-0.000006,-0.000001,-0.000034,-10.656682,0.000040,
2326,2188,1.55801197963221,-9.98067370614965,0.0173219355303331,0.004148,0.001286,-0.003585,0.202815,0.050810,328.309615,23.230663,0.999038,0.981968,0.005281,0.366316,-0.000020,-0.000012,-0.000001,-0.000012,-0.000020,-81.020407,0.000033,
2191,2953,-1.51894561926179,6.70337184248962,0.00298400518795461,0.003739,0.000237,0.004187,0.159219,0.042121,315.976724,24.672040,0.999416,0.991712,0.003687,0.396892,-0.000006,-0.000010,0.000005,-0.000002,-0.000014,33.094856,0.000018,
2026,2113,-4.9724456011526,-11.6197566494439,0.0139470073555685,0.003662,0.000544,0.000338,0.167320,0.043917,330.415980,24.791903,0.998440,0.977958,0.005966,0.370477,0.000002,-0.000009,0.000015,0.000013,-0.000019,35.533179,0.000020,
2206,2983,-1.1980738877395,7.35768940949294,-0.00714469391903094,0.004301,0.001345,-0.003336,0.209289,0.074382,315.407235,24.804315,0.999413,0.991606,0.003678,0.365078,-0.000007,-0.000018,0.000008,-0.000003,-0.000022,27.382003,0.000027,
2191,2923,-1.51411841257996,6.05344888205634,-0.00899326254398147,0.004010,0.001137,0.000841,0.182522,0.079251,316.387770,24.686349,0.999428,0.990972,0.003824,0.392158,-0.000003,-0.000009,0.000007,0.000001,-0.000013,33.072485,0.000015,
2476,2923,4.68105790090563,6.07234726556574,-0.0230310844687551,0.003814,0.001129,-0.002714,0.186041,0.046753,316.174230,25.326297,0.999357,0.986213,0.004436,0.313796,-0.000013,-0.000038,-0.000008,-0.000011,-0.000040,-17.582363,0.000054,
2416,2638,3.4314575787215,-0.138066053138139,-0.0263160528764956,0.004099,0.001350,-0.004147,0.203841,0.046163,320.700575,24.267999,0.999470,0.988772,0.004146,0.339311,0.000003,-0.000008,-0.000008,0.000007,-0.000013,-28.884018,0.000013,
2266,3298,0.048699588638744,14.1926625390513,0.00914803226538652,0.004011,0.000645,-0.001026,0.188532,0.023062,310.233141,25.475666,0.999618,0.993164,0.003370,0.315159,0.000007,0.000006,0.000027,0.000034,-0.000021,44.268339,0.000034,
2161,2758,-2.13900109768178,2.46504671763932,-0.0248460728815871,0.003983,0.000760,0.002505,0.175983,0.061269,319.034302,24.465077,0.999284,0.987485,0.004200,0.424469,0.000000,-0.000033,-0.000003,0.000000,-0.000033,-5.756332,0.000038,
2101,2473,-3.39630405966846,-3.74662766256345,-0.0182655094680513,0.003899,0.000957,-0.001684,0.184524,0.052014,323.965491,24.423665,0.999371,0.988780,0.004265,0.391866,0.000011,-0.000016,0.000010,0.000015,-0.000019,18.388788,0.000020,
2251,3223,-0.260719673754981,12.5637225798226,0.0463107183219904,0.003897,0.000835,0.000746,0.177580,0.060583,311.792259,25.229921,0.999704,0.994663,0.003154,0.402489,0.000004,-0.000008,0.000006,0.000006,-0.000011,23.136208,0.000011,
2011,2038,-5.28791324025785,-13.2621781466265,0.00966099349568594,0.004255,0.001442,-0.002667,0.202905,0.049832,331.710114,24.938339,0.998310,0.980588,0.005552,0.360338,0.000006,-0.000078,0.000028,0.000014,-0.000087,16.757550,0.000093,
2116,2578,-3.08732353734384,-1.45632685555606,-0.0228797515567862,0.003809,0.000792,-0.000644,0.177433,0.061382,322.153279,24.401070,0.999387,0.989881,0.004191,0.420524,0.000009,-0.000005,0.000010,0.000015,-0.000010,27.998455,0.000015,
2131,2623,-2.76824062652415,-0.474862429685523,-0.0248529756850644,0.004014,0.001505,-0.003765,0.196489,0.073801,321.361881,24.416323,0.999463,0.989625,0.004176,0.417549,0.000009,-0.000015,0.000008,0.000012,-0.000017,17.598548,0.000018,
2146,2713,-2.4583459769268,1.48632148163333,-0.0330080651752951,0.003574,0.000886,0.001721,0.159589,0.059149,319.736799,24.479509,0.999529,0.991745,0.003833,0.376783,0.000010,-0.000027,0.000000,0.000010,-0.000027,-0.049722,0.000027,
2011,2068,-5.29200646258935,-12.6056977115668,0.0167867024601378,0.004004,0.001147,-0.003194,0.192732,0.043723,331.279207,24.909501,0.999360,0.991265,0.003965,0.365805,0.000004,0.000004,0.000006,0.000010,-0.000003,44.759894,0.000010,
2146,2683,-2.45259138565243,0.832718172711338,-0.0308642920489319,0.004130,0.000808,0.000176,0.189832,0.056816,320.271713,24.434446,0.999412,0.990510,0.003825,0.403217,0.000005,-0.000020,0.000002,0.000006,-0.000020,4.775258,0.000021,
2176,2833,-1.82601274059042,4.09855214378637,-0.0409200272515591,0.004507,0.001215,-0.002195,0.214744,0.044178,317.666470,24.568656,0.999594,0.994160,0.003411,0.372294,0.000000,-0.000017,0.000007,0.000003,-0.000020,19.022331,0.000021,
2296,2083,0.922197451602656,-12.2818871041158,0.022866371207158,0.003996,0.000966,0.000232,0.182551,0.082000,330.044682,23.225685,0.999331,0.983186,0.005090,0.326725,-0.000014,0.000002,-0.000003,0.000003,-0.000015,-79.544953,0.000016,
2221,3103,-0.892048435985416,9.96016571364011,0.0193134456297912,0.003972,0.000535,-0.001495,0.188042,0.024470,313.608994,24.918988,0.999461,0.992144,0.003637,0.384635,-0.000011,-0.000038,-0.000003,-0.000011,-0.000038,-6.302639,0.000052,
2116,2563,-3.084793945966,-1.78265200022605,-0.0275772175642715,0.004180,0.001068,-0.001464,0.197005,0.078518,322.376007,24.394582,0.999250,0.987970,0.004488,0.439932,0.000013,0.000008,0.000018,0.000028,-0.000007,40.382003,0.000029,
2236,3148,-0.574266725628615,10.9377887843242,0.0217552491653805,0.004131,0.000803,0.000094,0.190383,0.045276,312.859158,25.062165,0.999359,0.990705,0.003877,0.380292,-0.000011,-0.000032,-0.000002,-0.000010,-0.000032,-5.326689,0.000045,
2056,2278,-4.34408088827082,-8.00547753393619,-0.00726700160527116,0.004317,0.001174,-0.003467,0.208438,0.050304,327.455008,24.710073,0.999676,0.990897,0.004137,0.254588,-0.000013,-0.000009,0.000014,0.000004,-0.000025,48.696050,0.000027,
2491,3043,4.98417083438717,8.68113503156417,-0.00532163629139859,0.003882,0.000786,0.002302,0.169930,0.052284,314.381093,25.818509,0.999741,0.993249,0.003484,0.323323,0.000006,-0.000009,0.000008,0.000010,-0.000013,23.379058,0.000013,
2281,2023,0.605672517850365,-13.598986565679,0.0233388472026377,0.004067,0.001331,-0.002062,0.193530,0.075361,331.040259,23.138033,0.999264,0.981859,0.005360,0.375860,-0.000005,-0.000006,0.000007,0.000002,-0.000013,42.902907,0.000014,
2476,2938,4.67834000296606,6.39801554552795,-0.0186853977152168,0.003767,0.001216,-0.002864,0.184473,0.047681,315.964029,25.356513,0.999489,0.988984,0.004000,0.340416,-0.000014,-0.000054,-0.000010,-0.000012,-0.000057,-13.294541,0.000073,
2371,2413,2.49536033629121,-5.05366245185255,-0.00820009595247484,0.003857,0.001188,-0.004632,0.193803,0.054821,324.454029,23.639930,0.999543,0.989017,0.004369,0.377007,-0.000017,-0.000009,0.000003,-0.000008,-0.000018,71.646804,0.000026,
2206,3028,-1.20553571922803,8.3334518108224,0.00288893681215541,0.004242,0.000905,0.000767,0.193407,0.062545,314.741586,24.817339,0.999639,0.992961,0.003449,0.387841,-0.000009,-0.000026,-0.000002,-0.000009,-0.000026,-6.411040,0.000037,
2221,3088,-0.890008293197731,9.63588227864577,0.0108949659792188,0.003917,0.000792,-0.002209,0.187886,0.033874,313.783020,24.944792,0.999330,0.993187,0.003411,0.350502,-0.000006,-0.000039,-0.000004,-0.000005,-0.000039,-6.549264,0.000049,
2386,2488,2.80731897875437,-3.41382917390305,-0.0141120144259048,0.003885,0.001388,-0.001011,0.182424,0.090896,323.186560,23.804104,0.999477,0.988837,0.004263,0.428227,-0.000002,-0.000030,0.000004,-0.000002,-0.000031,7.333028,0.000037,
2011,2113,-5.29869839130926,-11.6195812127355,0.0162999300677598,0.003879,0.000742,-0.001982,0.183641,0.036821,330.545160,24.906684,0.998418,0.979110,0.005872,0.335621,0.000002,-0.000009,0.000005,0.000004,-0.000011,19.615931,0.000011,
2041,2218,-4.66154054466749,-9.31901995098861,-0.00419262718020263,0.004057,0.001888,-0.006076,0.203782,0.083920,328.526307,24.661924,0.998133,0.975301,0.005990,0.420262,-0.000001,0.000003,0.000025,0.000026,-0.000024,47.277448,0.000028,
2161,2773,-2.1418181365173,2.79232742247914,-0.0322943666371316,0.004054,0.000985,0.000681,0.184924,0.066855,318.736982,24.497713,0.999530,0.990587,0.003830,0.407601,0.000001,-0.000028,-0.000004,0.000001,-0.000028,-7.158726,0.000032,
2011,2083,-5.29456666176369,-12.2757976508546,0.0112524915942913,0.004007,0.001124,-0.001885,0.189338,0.060845,330.989130,24.933513,0.998557,0.981570,0.005476,0.350393,-0.000001,0.000032,0.000009,0.000034,-0.000004,75.451164,0.000037,
2431,2728,3.74072210421467,1.82259852030523,-0.0218550558091124,0.004236,0.000955,-0.000970,0.198483,0.046189,319.290095,24.421726,0.999713,0.992330,0.003573,0.476713,-0.000001,-0.000005,-0.000009,0.000006,-0.000012,-39.191782,0.000012,
2296,2143,0.910793201208541,-10.9642627553776,0.0096518699367607,0.004076,0.000816,-0.004724,0.202909,0.035695,328.988573,23.430988,0.999400,0.981828,0.005281,0.207624,-0.000016,-0.000015,-0.000003,-0.000012,-0.000019,-51.934884,0.000031,
2251,3238,-0.263771672416379,12.8884210156029,0.0389619758034883,0.003959,0.000914,-0.000701,0.185162,0.041563,311.492804,25.190300,0.999797,0.995875,0.002851,0.445044,0.000005,-0.000010,0.000007,0.000008,-0.000013,21.060757,0.000013,
2506,3088,5.30263815894059,9.65836228982501,0.00795302232359063,0.003791,0.000872,-0.001271,0.179581,0.042695,313.807750,25.986071,0.999701,0.992846,0.003459,0.375467,0.000012,0.000009,0.000010,0.000020,0.000001,39.989064,0.000024,
2251,3208,-0.258676409135337,12.2390360726704,0.0339494193806331,0.003866,0.000567,-0.002978,0.188209,0.024456,311.945149,25.216349,0.999739,0.995257,0.003040,0.357908,0.000002,-0.000020,0.000005,0.000003,-0.000021,11.986767,0.000023,
2341,2278,1.86648190864726,-8.00762415738076,-0.00191299964620839,0.003590,0.001327,-0.001938,0.171773,0.049746,326.662088,23.376365,0.999034,0.983315,0.005100,0.377521,-0.000029,-0.000002,-0.000012,0.000002,-0.000034,-69.174775,0.000038,
2041,2173,-4.65476222327905,-10.3046791358087,0.00555325742755031,0.003805,0.001250,-0.002097,0.180919,0.064282,329.307445,24.712480,0.999327,0.988385,0.004453,0.364604,-0.000005,-0.000014,0.000005,-0.000002,-0.000016,24.613854,0.000020,
2101,2503,-3.40086456367293,-3.09176789192005,-0.0237271616191492,0.004166,0.001311,-0.005914,0.209298,0.051900,323.459931,24.418732,0.999293,0.989120,0.004132,0.401766,0.000014,-0.000006,0.000014,0.000021,-0.000013,27.158383,0.000021,
2086,2383,-3.7080322836564,-5.71099538570479,-0.0145063284494427,0.003968,0.001496,-0.004268,0.195186,0.086147,325.532293,24.489512,0.997977,0.980377,0.005685,0.391695,0.000012,0.000005,0.000003,0.000014,0.000003,20.036190,0.000018,
2071,2353,-4.02941095627487,-6.36759188856493,-0.00716539550904827,0.003900,0.001149,-0.004049,0.191140,0.067369,326.150578,24.517680,0.998564,0.982225,0.005265,0.395155,-0.000004,-0.000019,0.000002,-0.000003,-0.000019,8.402015,0.000024,
2281,1993,0.611029803964414,-14.2575764405375,0.0277945165985329,0.003749,0.001010,-0.001978,0.178548,0.052632,331.544325,23.158503,0.999397,0.969521,0.006655,0.269561,-0.000012,-0.000013,-0.000016,0.000003,-0.000028,-44.807349,0.000031,
2446,2788,4.05470876518006,3.13183247234899,-0.0326839516748691,0.004101,0.001279,-0.004211,0.204562,0.046073,318.252747,24.682960,0.999378,0.988718,0.004219,0.426930,-0.000003,-0.000003,-0.000015,0.000012,-0.000018,-44.314827,0.000018,
2071,2323,-4.02435585311477,-7.02317191194128,-0.00678780773654353,0.004342,0.001554,-0.003780,0.210756,0.072501,326.656414,24.507667,0.999325,0.987970,0.004489,0.412887,0.000001,-0.000021,0.000000,0.000001,-0.000021,1.289343,0.000024,
2356,2338,2.18230856371121,-6.69357662501709,-0.00518194873268385,0.003746,0.001100,-0.001389,0.177030,0.062120,325.670833,23.526887,0.999421,0.989317,0.004348,0.338616,-0.000032,-0.000001,-0.000003,-0.000001,-0.000032,-84.781686,0.000038,
2401,2578,3.11614378493999,-1.44841174980023,-0.0214871432822292,0.003791,0.000684,-0.000854,0.177340,0.041481,321.672604,24.052906,0.999431,0.987120,0.004413,0.375988,-0.000003,-0.000017,-0.000004,-0.000002,-0.000018,-13.841535,0.000022,
2161,2803,-2.14620119558941,3.44418611894375,-0.0240483950106523,0.003897,0.001229,-0.002920,0.188836,0.061884,318.322486,24.525007,0.999606,0.991737,0.003725,0.395437,0.000000,-0.000030,0.000002,0.000000,-0.000030,3.445138,0.000035,
2206,3013,-1.20311166550193,8.00796847308579,7.91107885333986E-05,0.004172,0.000880,-0.000427,0.193878,0.043143,314.963449,24.815158,0.999473,0.990929,0.003736,0.354910,-0.000009,-0.000022,0.000002,-0.000008,-0.000022,8.940716,0.000032,
2131,2638,-2.76970608296147,-0.150266568142953,-0.00764217764572095,0.003869,0.000842,-0.003665,0.189272,0.043569,321.256163,24.400411,0.999714,0.992389,0.003562,0.408947,0.000010,-0.000017,0.000010,0.000013,-0.000021,18.810665,0.000021,
2146,2728,-2.45994982479362,1.81218561173165,-0.0291921387552634,0.003832,0.001513,-0.003709,0.188163,0.071142,319.553865,24.451312,0.999491,0.990087,0.004043,0.424870,0.000008,-0.000034,-0.000002,0.000008,-0.000034,-2.860852,0.000036,
2506,3103,5.30008973622401,9.9834392325821,0.0103805256520104,0.004132,0.000815,-0.001208,0.194988,0.037276,313.597940,25.995824,0.999712,0.992500,0.003433,0.420294,0.000013,0.000004,0.000018,0.000028,-0.000010,38.236617,0.000028,
2041,2293,-4.67235818800585,-7.68121259210803,0.0101824218073716,0.004010,0.000574,0.001732,0.179630,0.059619,327.417081,24.602582,0.999827,0.993313,0.003828,0.428707,-0.000015,-0.000009,0.000019,0.000007,-0.000032,49.566496,0.000033,
2116,2608,-3.09154887894762,-0.802640811832028,-0.0273186643790382,0.004274,0.001423,-0.007131,0.218217,0.057792,321.671410,24.371552,0.999228,0.988059,0.004479,0.455088,0.000007,-0.000006,0.000016,0.000018,-0.000016,33.913942,0.000020,
2026,2098,-4.96941091524982,-11.9487709231331,0.0229856198741913,0.003801,0.001168,-0.002420,0.181428,0.051516,330.745356,24.850451,0.998984,0.981268,0.005363,0.325629,-0.000001,0.000015,0.000017,0.000026,-0.000013,57.644645,0.000026,
2326,2203,1.55480850108959,-9.65090089755356,0.00925081878926903,0.004047,0.001567,-0.007392,0.211427,0.049848,328.008674,23.286091,0.999053,0.982090,0.005453,0.347262,-0.000025,0.000002,-0.000003,0.000002,-0.000026,-83.635456,0.000028,
2176,2878,-1.83201228226166,5.07473391697655,-0.0112178569179946,0.004288,0.000906,0.000279,0.196950,0.056845,317.165232,24.626280,0.999455,0.993052,0.003448,0.362829,-0.000002,-0.000010,0.000000,-0.000002,-0.000010,-0.780067,0.000013,
2266,1993,0.282479853771964,-14.2567896337972,0.0225622905352338,0.003265,0.001429,-0.001833,0.156016,0.082774,331.497554,23.207474,0.998989,0.965847,0.007242,0.357256,-0.000021,-0.000029,-0.000004,-0.000019,-0.000030,-21.449194,0.000050,
2191,2968,-1.52102400811102,7.02943315463332,0.000660522143391518,0.004097,0.000767,-0.000178,0.189621,0.056958,315.742882,24.680204,0.999372,0.990925,0.003804,0.417607,-0.000004,-0.000015,0.000006,-0.000001,-0.000018,23.078455,0.000022,
2056,2293,-4.34609486646346,-7.67996720611755,0.000263101167035984,0.004130,0.001002,-0.002877,0.198164,0.055494,327.267133,24.558530,0.999869,0.994284,0.003501,0.407860,-0.000001,-0.000006,0.000020,0.000016,-0.000024,41.484281,0.000025,
2461,2863,4.36603856228902,4.7659224754716,-0.0311946646712613,0.003874,0.001074,-0.002745,0.188804,0.062979,317.054960,25.002459,0.999530,0.990784,0.003715,0.406727,-0.000012,-0.000009,-0.000013,0.000003,-0.000023,-48.397917,0.000025,
2056,2308,-4.348394439788,-7.35201664257635,0.0015079920945027,0.004140,0.000972,-0.000991,0.193302,0.064760,327.031164,24.567116,0.999692,0.990953,0.004070,0.405428,0.000002,-0.000016,0.000013,0.000009,-0.000023,27.863928,0.000023,
2206,3043,-1.20792129911521,8.65859835530554,0.0113087962001828,0.003790,0.000949,-0.000532,0.176744,0.059968,314.550661,24.850927,0.999817,0.995124,0.003046,0.367379,-0.000007,-0.000032,-0.000002,-0.000007,-0.000032,-3.574057,0.000041,
2236,3178,-0.578976662042923,11.5873852598051,0.0322361100519402,0.003992,0.000763,-0.000143,0.184744,0.040417,312.450695,25.082072,0.999416,0.991001,0.003725,0.395068,-0.000004,-0.000023,0.000001,-0.000004,-0.000023,3.487233,0.000029,
2101,2518,-3.4039360082294,-2.76428426235867,-0.0257067135315765,0.003825,0.000887,-0.002399,0.183237,0.038495,323.175022,24.449211,0.999647,0.992252,0.003636,0.360348,0.000012,0.000002,0.000018,0.000025,-0.000011,37.240165,0.000025,
2251,3253,-0.267311079268751,13.2151855580121,0.0265697169048735,0.004057,0.000886,0.000018,0.187384,0.055636,311.144470,25.284909,0.999674,0.994051,0.003213,0.386359,0.000005,-0.000017,0.000013,0.000011,-0.000023,24.766892,0.000023,
2491,3058,4.9822607145044,9.00553793310304,0.00413891618154594,0.004019,0.000659,-0.000351,0.186357,0.033435,314.231904,25.814476,0.999688,0.991809,0.003802,0.366398,0.000006,-0.000008,0.000006,0.000008,-0.000010,20.015181,0.000011,
2011,2098,-5.29697940185433,-11.9457425957565,0.00819367659835279,0.003942,0.001729,-0.001753,0.186181,0.106317,330.719441,24.976671,0.998245,0.978205,0.005961,0.344047,0.000001,0.000019,0.000006,0.000021,-0.000001,74.116499,0.000024,
2041,2233,-4.66377738860922,-8.99069960805004,-0.00250983061300758,0.004048,0.001227,-0.004538,0.198921,0.058776,328.294417,24.717659,0.999186,0.983012,0.005092,0.334251,-0.000005,0.000015,0.000020,0.000027,-0.000017,58.432517,0.000027,
2026,2128,-4.97460061353382,-11.2902064103501,0.00755353106148959,0.003914,0.001009,-0.002441,0.186662,0.043870,330.141287,24.809676,0.998393,0.978199,0.006115,0.346008,0.000003,-0.000017,0.000018,0.000013,-0.000027,30.990543,0.000027,
2086,2428,-3.71497508677163,-4.72960798913263,-0.00891903998740418,0.003917,0.001067,-0.000542,0.181982,0.069065,324.840446,24.460843,0.999063,0.986321,0.004619,0.404743,0.000013,-0.000005,0.000014,0.000020,-0.000013,29.031318,0.000021,
2191,2938,-1.51630895090682,6.37818890463377,-0.00157839888447597,0.003894,0.000592,0.000988,0.176539,0.050830,316.200004,24.677012,0.999476,0.991999,0.003671,0.386647,-0.000006,-0.000005,0.000005,-0.000001,-0.000010,48.049913,0.000012,
2101,2488,-3.39852709027335,-3.41993837560824,-0.0202543350062001,0.004026,0.001170,-0.003972,0.197128,0.056155,323.719505,24.353404,0.999278,0.988992,0.004197,0.468762,0.000008,-0.000009,0.000010,0.000012,-0.000014,24.100983,0.000015,
2416,2653,3.42860507439743,0.188684178528675,-0.0240773716680565,0.004315,0.001010,-0.000389,0.199938,0.062189,320.471441,24.286128,0.999542,0.988900,0.004191,0.385569,0.000000,-0.000013,-0.000008,0.000004,-0.000018,-26.381475,0.000018,
2116,2593,-3.0891888722163,-1.13042715126734,-0.0194926078495996,0.004008,0.001016,-0.002552,0.192314,0.063401,321.954000,24.342085,0.999536,0.991299,0.003945,0.485596,0.000007,-0.000004,0.000015,0.000017,-0.000014,35.607547,0.000019,
2011,2128,-5.30106753601589,-11.2889570329337,0.00601663942620689,0.004157,0.001248,-0.004139,0.202427,0.062781,330.237117,24.953952,0.998330,0.979288,0.005972,0.305655,0.000003,-0.000017,0.000007,0.000005,-0.000019,17.482508,0.000020,
2146,2788,-2.47001358707441,3.11735324329593,-0.0282330659729269,0.003877,0.000891,-0.000059,0.179014,0.055939,318.578630,24.487628,0.999628,0.992596,0.003499,0.405176,-0.000005,-0.000028,-0.000003,-0.000004,-0.000028,-6.312882,0.000035,
2341,2293,1.86404549887377,-7.67878592813068,-0.000143495813517802,0.003993,0.001245,0.000198,0.182817,0.073323,326.445091,23.456995,0.999095,0.985451,0.004782,0.359109,-0.000027,0.000006,-0.000010,0.000009,-0.000030,-74.632876,0.000031,
2371,2428,2.49180044912492,-4.72658694911242,-0.01468468638069,0.003571,0.001493,-0.005737,0.184731,0.080470,324.148280,23.524699,0.999677,0.992583,0.004006,0.560894,-0.000015,-0.000015,-0.000001,-0.000014,-0.000016,-34.572571,0.000030,
2266,2008,0.280895789134661,-13.9277103235292,0.0285304890273892,0.003685,0.001748,-0.004810,0.185137,0.085036,331.335238,23.276872,0.999309,0.982218,0.005294,0.318853,-0.000018,-0.000016,0.000007,-0.000010,-0.000024,50.600494,0.000035,
2476,2953,4.67583454523252,6.72328806660135,-0.0129274545268458,0.003911,0.000869,-0.001857,0.187168,0.045817,315.770068,25.366503,0.999410,0.988859,0.004084,0.384687,-0.000013,-0.000056,-0.000004,-0.000012,-0.000056,-4.993250,0.000073,
2221,3133,-0.896906591631176,10.6105591978049,0.023279812263695,0.004145,0.001031,-0.001013,0.194726,0.060222,313.158254,24.910494,0.999632,0.992324,0.003610,0.464593,-0.000014,-0.000035,-0.000003,-0.000013,-0.000035,-8.862566,0.000050,
2176,2863,-1.82999039745748,4.7486257809344,-0.0199536878855611,0.004175,0.000763,-0.002402,0.200013,0.040068,317.339665,24.559662,0.998844,0.988537,0.004129,0.400920,-0.000003,-0.000015,0.000002,-0.000003,-0.000015,9.121904,0.000019,
2041,2308,-4.67508608825464,-7.35222609302571,0.00167056587332581,0.003996,0.000622,0.000942,0.181242,0.069904,327.106199,24.606501,0.999746,0.991198,0.004189,0.429895,-0.000008,-0.000018,0.000013,0.000001,-0.000027,35.550493,0.000031,
2086,2413,-3.71240071542562,-5.05754262434987,-0.00825753386726547,0.003965,0.001055,-0.002804,0.190708,0.053289,325.096921,24.437354,0.998797,0.985005,0.004799,0.412172,0.000010,-0.000008,0.000002,0.000011,-0.000008,6.552623,0.000011,
2506,3118,5.29696954485852,10.3100108217461,0.0113773797017984,0.004046,0.000823,-0.000950,0.190060,0.045398,313.354822,26.124741,0.999569,0.991575,0.003676,0.359537,0.000008,0.000019,0.000021,0.000035,-0.000008,52.463654,0.000037,
2296,2098,0.918929970762807,-11.9526075643011,0.0179129754232576,0.003850,0.000722,0.000772,0.173995,0.061823,329.753594,23.247261,0.999098,0.981262,0.005387,0.318423,-0.000015,-0.000005,-0.000005,-0.000003,-0.000017,-65.509734,0.000022,
2446,2803,4.05158024291353,3.45941733583892,-0.0354081087936606,0.004156,0.001283,-0.004739,0.209071,0.044167,317.989323,24.802185,0.999533,0.990242,0.003916,0.358154,-0.000003,-0.000005,-0.000012,0.000008,-0.000016,-41.648770,0.000016,
2281,2038,0.602048561524168,-13.2673451805896,0.00991946959049983,0.003966,0.001548,-0.004174,0.196040,0.075316,330.689164,23.236260,0.999284,0.984328,0.005015,0.309289,-0.000006,-0.000006,0.000007,0.000002,-0.000013,45.164002,0.000014,
2206,3058,-1.21034054311263,8.98367489333603,0.0130151542498425,0.003964,0.000722,0.000947,0.179936,0.048103,314.323451,24.846573,0.999759,0.994545,0.003108,0.375626,-0.000003,-0.000034,-0.000006,-0.000002,-0.000035,-10.521279,0.000042,
2071,2338,-4.0265312872776,-6.69627212075886,0.000168888001837786,0.003989,0.001590,-0.004440,0.196461,0.076774,326.458769,24.492216,0.998877,0.985847,0.004777,0.431006,0.000003,-0.000020,0.000001,0.000003,-0.000020,1.814260,0.000022,
2206,3118,-1.22007570312812,10.2838852531731,0.0313576436381027,0.003658,0.000302,0.004599,0.154136,0.037976,313.471453,24.892193,0.999525,0.992108,0.003690,0.382336,-0.000016,-0.000033,-0.000004,-0.000015,-0.000034,-11.650145,0.000050,
2191,3043,-1.53314321443625,8.65753045548258,0.0171099824470389,0.003701,0.000715,-0.000978,0.174004,0.057485,314.641197,24.842528,0.999728,0.994469,0.003257,0.324278,-0.000003,-0.000033,0.000000,-0.000003,-0.000033,0.852869,0.000040,
2131,2653,-2.77275886981934,0.177341825511071,-0.0170320187722837,0.003903,0.000964,-0.003267,0.189726,0.052546,320.934922,24.401149,0.999645,0.991277,0.003729,0.423521,0.000005,-0.000012,0.000008,0.000008,-0.000015,21.853673,0.000015,
2266,2023,0.278271440200026,-13.5981784282736,0.0269803818919172,0.003799,0.001783,-0.005166,0.191594,0.085410,331.087708,23.309357,0.999143,0.978855,0.005829,0.315958,-0.000026,-0.000013,0.000010,-0.000007,-0.000032,60.670179,0.000041,
2236,3163,-0.57706928152027,11.2627085207697,0.0247489872658093,0.003876,0.000799,0.001443,0.174236,0.041065,312.622823,25.070108,0.999425,0.990154,0.003910,0.387901,-0.000006,-0.000027,0.000000,-0.000006,-0.000027,-0.913326,0.000035,
2086,2443,-3.71797755700334,-4.40122539793993,-0.0171171484620913,0.003710,0.001075,-0.001588,0.175529,0.059766,324.523457,24.484912,0.999284,0.987359,0.004538,0.372148,0.000006,-0.000015,0.000010,0.000010,-0.000019,21.088992,0.000019,
2011,2263,-5.32135072932033,-8.33575503858093,0.000926684768955965,0.003783,0.001016,-0.002587,0.181157,0.046238,328.007534,24.778249,0.998624,0.980272,0.005279,0.381120,-0.000019,-0.000012,0.000001,-0.000012,-0.000019,84.084806,0.000031,
2356,2353,2.18026294784644,-6.36788945480522,-0.00499936778129495,0.004284,0.001423,-0.004204,0.211737,0.054268,325.465741,23.355392,0.999479,0.989293,0.004462,0.542842,-0.000028,0.000005,0.000003,0.000005,-0.000029,84.288967,0.000031,
2041,2248,-4.665755847987,-8.6641053918907,0.000412086311314397,0.004318,0.000587,-0.001268,0.202044,0.040426,328.081528,24.626763,0.999174,0.984956,0.004825,0.401545,-0.000014,0.000027,0.000015,0.000032,-0.000019,71.886692,0.000032,
2401,2593,3.1134309249092,-1.1211453901772,-0.0229602239650148,0.003970,0.001130,-0.002643,0.192252,0.051123,321.431484,24.073945,0.999485,0.988782,0.004214,0.411015,0.000002,-0.000019,-0.000002,0.000002,-0.000020,-6.666037,0.000022,
2071,2368,-4.03174649961025,-6.03944280752567,-0.0118215760436442,0.003952,0.001598,-0.007374,0.203140,0.066857,325.881961,24.517699,0.997812,0.978305,0.005874,0.393384,0.000008,0.000001,0.000006,0.000011,-0.000002,28.968967,0.000012,
2491,3073,4.97914607129952,9.33074297738974,0.00436072182617409,0.004070,0.000482,0.001046,0.183284,0.033363,313.985171,25.809088,0.999607,0.991109,0.003923,0.429589,0.000006,-0.000001,0.000004,0.000008,-0.000003,22.844164,0.000008,
2026,2158,-4.97888208816969,-10.6324866785906,0.00718806376011116,0.004101,0.000681,-0.001488,0.192573,0.035151,329.662551,24.879164,0.999284,0.986198,0.004727,0.254141,0.000001,0.000000,-0.000003,0.000003,-0.000002,-36.836238,0.000003,
2056,2323,-4.34991633892314,-7.02439113108153,0.00582504545064921,0.004323,0.001566,-0.005838,0.215542,0.079229,326.847671,24.576041,0.999339,0.985414,0.004677,0.407236,0.000001,-0.000021,0.000005,0.000002,-0.000022,11.663044,0.000024,
2131,2683,-2.77739361022637,0.830220320075647,-0.0112965539451579,0.003883,0.001108,-0.001775,0.184427,0.062380,320.491239,24.415871,0.999518,0.991271,0.003731,0.430849,0.000005,-0.000017,0.000006,0.000006,-0.000019,14.584821,0.000019,
2011,2143,-5.3032293345264,-10.9601938670618,0.00016395364428945,0.004455,0.001737,-0.004891,0.218259,0.105354,329.963589,24.869452,0.997992,0.978806,0.005971,0.424008,0.000004,0.000031,-0.000005,0.000032,0.000003,-80.713056,0.000039,
2326,2218,1.55179995796983,-9.32339275303147,0.0121460304264929,0.004040,0.000614,-0.001482,0.190430,0.025287,327.770399,23.278702,0.998813,0.979442,0.005679,0.366923,-0.000026,0.000008,-0.000003,0.000008,-0.000026,-84.819924,0.000027,
2176,2893,-1.83416539175554,5.39892370001955,0.00205057236661332,0.003781,0.000693,0.000347,0.173296,0.033498,317.009198,24.592584,0.999772,0.995409,0.003117,0.384770,-0.000001,-0.000011,0.000005,0.000001,-0.000014,22.472501,0.000015,
2296,2158,0.908141797097315,-10.6363116321711,0.00909389909554648,0.004246,0.001424,-0.003668,0.207428,0.053573,328.747152,23.364008,0.999386,0.983150,0.005218,0.325369,-0.000024,-0.000019,-0.000007,-0.000015,-0.000029,-54.524526,0.000044,
2101,2533,-3.40703126149261,-2.43645235895005,-0.0345820201354172,0.003617,0.001326,-0.003312,0.176491,0.062124,322.851571,24.418160,0.999536,0.991043,0.003913,0.417370,0.000008,-0.000001,0.000022,0.000026,-0.000019,39.294759,0.000027,
2026,2143,-4.97611551881256,-10.9625972683752,0.00998523310892097,0.004444,0.001256,-0.002302,0.210692,0.079763,329.945039,24.715629,0.997944,0.977880,0.006093,0.468872,0.000001,0.000022,0.000003,0.000023,0.000000,82.191709,0.000026,
2236,3193,-0.5820718134018,11.9125998066945,0.0298773940713772,0.003786,0.000588,0.000632,0.172685,0.031065,312.173385,25.097488,0.999381,0.991251,0.003706,0.390314,-0.000004,-0.000024,0.000001,-0.000003,-0.000024,2.626195,0.000030,
2101,2593,-3.41551641344114,-1.12998666761366,-0.021696669136702,0.003900,0.001294,-0.002297,0.186607,0.061049,321.998945,24.422151,0.999190,0.988342,0.004367,0.420434,0.000007,-0.000004,0.000017,0.000020,-0.000016,35.709216,0.000021,
2461,2878,4.36255000484744,5.09272446899157,-0.0338010764771752,0.003728,0.001098,-0.001495,0.177421,0.069619,316.776491,25.064967,0.999417,0.991378,0.003741,0.405000,-0.000016,-0.000007,-0.000007,-0.000003,-0.000020,-61.452820,0.000025,
2011,2278,-5.32345054456239,-8.00687195126205,-0.00852866679224462,0.004066,0.001720,-0.008636,0.210726,0.053231,327.716991,24.754897,0.998576,0.980956,0.005525,0.402100,-0.000019,-0.000026,0.000001,-0.000019,-0.000026,11.155418,0.000046,
2161,2788,-2.14421610317892,3.11811904079786,-0.027509454133849,0.003738,0.000993,-0.000910,0.175244,0.054449,318.523818,24.511849,0.999614,0.990579,0.003910,0.391114,-0.000003,-0.000027,-0.000001,-0.000003,-0.000027,-1.547882,0.000032,
2416,2668,3.42565278870348,0.516076521730099,-0.0224994081488035,0.004166,0.000961,-0.000648,0.194014,0.044955,320.234521,24.395289,0.999456,0.988333,0.004373,0.307292,0.000001,-0.000011,-0.000009,0.000006,-0.000016,-28.536762,0.000017,
2176,2908,-1.83767751335742,5.72557967944785,-0.00811533092775107,0.003582,0.000548,0.001465,0.160654,0.040378,316.667147,24.589423,0.999513,0.992272,0.003641,0.406766,0.000000,-0.000016,0.000004,0.000001,-0.000017,13.271927,0.000019,
2161,2818,-2.14857220756059,3.77057423267682,-0.0152833654065603,0.003824,0.000723,0.002584,0.168497,0.071469,318.131314,24.609866,0.999686,0.993629,0.003358,0.329755,0.000003,-0.000026,0.000001,0.000003,-0.000026,1.230106,0.000029,
2431,2743,3.73725055050443,2.15025655334267,-0.0210650737373612,0.003939,0.000601,0.002221,0.172963,0.049591,319.026276,24.550817,0.999592,0.990538,0.003833,0.401203,-0.000003,-0.000013,-0.000011,0.000004,-0.000020,-32.629355,0.000021,
2056,2368,-4.35830349693139,-6.03877950920977,-0.0160139737206464,0.004225,0.001374,-0.004013,0.205937,0.061305,325.931122,24.603939,0.998769,0.983911,0.005064,0.351800,0.000008,0.000004,0.000008,0.000014,-0.000003,38.252913,0.000015,
2386,2503,2.80472823618274,-3.08636142192786,-0.00877979757700587,0.003896,0.001144,0.000578,0.177141,0.091054,322.982430,23.884862,0.999583,0.990287,0.003986,0.391868,-0.000005,-0.000022,0.000005,-0.000003,-0.000024,13.491237,0.000029,
2221,3148,-0.899531191620202,10.9359045210498,0.027773401241916,0.003917,0.000809,-0.000014,0.180963,0.055274,312.936752,24.963420,0.999618,0.992230,0.003541,0.424463,-0.000012,-0.000029,-0.000001,-0.000012,-0.000029,-3.942097,0.000043,
2401,2608,3.11072858123235,-0.793428079310267,-0.0227536911726816,0.003910,0.001509,-0.005973,0.201736,0.068649,321.198577,24.147865,0.999460,0.989069,0.004146,0.400698,0.000002,-0.000015,-0.000002,0.000002,-0.000015,-6.130124,0.000016,
2251,3268,-0.271263107276873,13.5407563643537,0.014229764750894,0.003791,0.000822,0.001499,0.170195,0.047977,310.777797,25.296922,0.999547,0.992700,0.003451,0.388674,0.000006,-0.000016,0.000017,0.000015,-0.000025,28.661831,0.000025,
2146,2743,-2.46197208559647,2.13803145492482,-0.0236174773524453,0.004027,0.001323,-0.002080,0.192191,0.073700,319.361112,24.448870,0.999556,0.990113,0.004040,0.437932,0.000003,-0.000036,-0.000002,0.000003,-0.000036,-2.407858,0.000040,
2311,2113,1.24424055123501,-11.6255977694922,0.0202728690185836,0.003962,0.000620,-0.002006,0.188474,0.028223,329.536061,23.095527,0.999334,0.981909,0.005259,0.380832,-0.000016,-0.000006,-0.000003,-0.000005,-0.000017,-72.987267,0.000023,
2056,2338,-4.35339602014253,-6.69577378973835,-0.00236089411697549,0.003781,0.001275,-0.003280,0.183382,0.077839,326.505889,24.573233,0.999117,0.985536,0.004724,0.405586,0.000001,-0.000020,0.000003,0.000002,-0.000021,7.797574,0.000023,
2011,2293,-5.32662526758272,-7.67710155951877,-0.0169828529454321,0.003891,0.001285,-0.003460,0.188569,0.055645,327.382782,24.833814,0.998976,0.986061,0.004867,0.316203,-0.000012,-0.000028,0.000008,-0.000009,-0.000031,23.256117,0.000042,
2221,3118,-0.894362218817129,10.2861844554171,0.0250833480751567,0.003861,0.001010,-0.001949,0.184612,0.049911,313.408125,25.004616,0.999584,0.991447,0.003763,0.342211,-0.000013,-0.000035,-0.000004,-0.000012,-0.000036,-9.632021,0.000050,
2281,2053,0.599308101910026,-12.9393463804964,0.0108478576769357,0.004037,0.001002,-0.001384,0.189831,0.064427,330.450138,23.180700,0.999090,0.982330,0.005215,0.385289,-0.000008,-0.000006,0.000004,-0.000003,-0.000011,50.648148,0.000015,
2506,3133,5.29390952142569,10.6358130023869,0.00805677131614857,0.004270,0.000960,-0.001993,0.204539,0.059127,313.095256,26.154311,0.999542,0.991728,0.003643,0.403869,0.000016,0.000016,0.000016,0.000032,0.000000,45.017277,0.000037,
2116,2623,-3.09492039387591,-0.474853645509562,-0.0364826839419266,0.004068,0.001030,-0.004751,0.201613,0.042321,321.335315,24.405486,0.999046,0.985347,0.004894,0.409947,0.000010,-0.000016,0.000010,0.000013,-0.000019,18.985854,0.000020,
2086,2458,-3.72038726334219,-4.07418979990864,-0.0181283032936221,0.003760,0.001106,-0.000714,0.175310,0.066144,324.272866,24.442826,0.999370,0.988593,0.004366,0.421262,0.000009,-0.000021,0.000006,0.000010,-0.000022,10.676046,0.000022,
2026,2173,-4.98088355148809,-10.3049665687436,0.0106380278866141,0.003977,0.001103,-0.003191,0.191701,0.048820,329.449930,24.820319,0.999280,0.988368,0.004404,0.319443,0.000002,-0.000008,0.000001,0.000002,-0.000008,5.353708,0.000008,
2146,2803,-2.47196799457537,3.44261474852156,-0.0211838240165321,0.003964,0.000920,0.000334,0.181862,0.051816,318.396999,24.465657,0.999605,0.993000,0.003466,0.430677,-0.000002,-0.000032,0.000000,-0.000002,-0.000032,-0.247334,0.000038,
2491,3088,4.9765329661057,9.65709861940558,0.00895648724366538,0.003974,0.000863,-0.000941,0.186677,0.036691,313.780884,25.938134,0.999485,0.990796,0.003805,0.361602,0.000008,0.000010,0.000006,0.000015,0.000004,50.184915,0.000020,
2131,2698,-2.78079811182454,1.15778657961814,-0.022482060553159,0.003884,0.000675,0.001589,0.174266,0.048981,320.144315,24.436454,0.999490,0.990608,0.003835,0.403160,0.000010,-0.000025,0.000008,0.000012,-0.000027,12.264252,0.000027,
2266,2038,0.275238933717336,-13.2684613970916,0.0198348006775859,0.003855,0.001824,-0.006288,0.197924,0.063640,330.793599,23.323793,0.999107,0.980356,0.005490,0.308967,-0.000026,-0.000006,0.000009,-0.000002,-0.000030,69.315320,0.000036,
2446,2818,4.04892878455631,3.78469816330631,-0.0341019486133405,0.004099,0.001506,-0.008280,0.219802,0.050757,317.766890,24.736446,0.999529,0.989867,0.004001,0.482366,-0.000009,-0.000012,-0.000013,0.000002,-0.000024,-41.489341,0.000026,
2281,2098,0.591231642945477,-11.9523176399817,0.0143456505757626,0.003792,0.000762,-0.000938,0.177082,0.041422,329.742630,23.320467,0.998577,0.979524,0.005668,0.315617,-0.000007,-0.000005,0.000004,-0.000002,-0.000011,52.009963,0.000014,
2026,2218,-4.98837887219379,-9.31939880110768,-0.00377658242462076,0.003912,0.001332,-0.003644,0.190087,0.046414,328.606129,24.732996,0.998592,0.980804,0.005563,0.383787,0.000016,0.000004,0.000019,0.000030,-0.000010,36.739640,0.000030,
2101,2608,-3.41771325638588,-0.803632725368089,-0.0158501687923831,0.003837,0.001150,-0.000414,0.178180,0.082027,321.796540,24.411145,0.998880,0.986089,0.004781,0.454180,0.000008,-0.000004,0.000016,0.000019,-0.000016,35.439241,0.000020,
2101,2548,-3.40929472476511,-2.1101687912381,-0.0405094548247575,0.004156,0.000997,-0.002565,0.199021,0.056409,322.582598,24.306577,0.999665,0.993655,0.003588,0.525587,0.000011,0.000003,0.000025,0.000033,-0.000019,40.122775,0.000033,
2086,2518,-3.729302470782,-2.7659250535697,-0.0159239375672087,0.003776,0.001195,-0.005727,0.190595,0.038754,323.337764,24.444490,0.999464,0.991220,0.003851,0.392959,0.000016,-0.000002,0.000019,0.000028,-0.000015,32.366161,0.000028,
2041,2323,-4.67719151415938,-7.02297467732092,-0.00699696356042523,0.004304,0.001362,-0.004983,0.212077,0.068889,326.822876,24.650507,0.999182,0.984231,0.004792,0.379404,-0.000008,-0.000023,0.000003,-0.000007,-0.000024,12.142947,0.000032,
2326,2233,1.54820752427202,-8.99393391293294,0.00629908294052939,0.003645,0.000888,-0.001796,0.173527,0.046662,327.462289,23.318230,0.998457,0.975928,0.006105,0.386154,-0.000026,0.000002,-0.000003,0.000002,-0.000026,-84.627860,0.000029,
2191,2983,-1.5236040345747,7.35525221608484,0.00361277942499783,0.003983,0.000965,0.001153,0.180340,0.074493,315.513549,24.704078,0.999386,0.991407,0.003749,0.424985,-0.000003,-0.000018,0.000008,0.000000,-0.000021,23.420061,0.000025,
2296,2113,0.915691400647862,-11.6235761945564,0.00902357404225995,0.003705,0.001126,-0.002920,0.179928,0.054579,329.444315,23.196532,0.999089,0.980710,0.005409,0.395260,-0.000016,-0.000008,-0.000004,-0.000006,-0.000018,-66.418300,0.000025,
2206,3073,-1.21253410943442,9.30864605100569,0.0161272992225463,0.003997,0.000632,-0.001455,0.189084,0.033776,314.113913,24.847741,0.999664,0.993288,0.003328,0.376010,-0.000005,-0.000030,-0.000007,-0.000004,-0.000032,-13.994798,0.000039,
2056,2353,-4.3560332365265,-6.36740178999124,-0.010882650046824,0.004073,0.001154,-0.001188,0.190914,0.080936,326.200791,24.546319,0.999001,0.983821,0.004992,0.432431,-0.000005,-0.000016,0.000006,-0.000002,-0.000019,23.948833,0.000023,
2356,2368,2.17674582337629,-6.03804755215104,-0.00589468845544161,0.003978,0.000983,-0.000445,0.184380,0.088256,325.187116,23.517107,0.999169,0.985362,0.004805,0.455975,-0.000025,0.000003,0.000006,0.000004,-0.000026,78.161105,0.000028,
2281,2068,0.597528186049598,-12.6097354815362,0.0137070150328782,0.004307,0.001691,-0.007234,0.221934,0.054935,330.264418,23.297246,0.999030,0.983001,0.005127,0.290122,-0.000008,-0.000001,0.000009,0.000005,-0.000015,55.934210,0.000015,
2026,2188,-4.98329622901709,-9.97583854489665,0.00397164468205347,0.003930,0.001932,-0.007006,0.200267,0.073404,329.161977,24.795602,0.999170,0.986365,0.004785,0.362119,0.000008,0.000011,0.000016,0.000026,-0.000007,47.310487,0.000027,
2176,2923,-1.84045211111545,6.05252423634641,-0.010971429664437,0.003767,0.000748,0.004652,0.159450,0.075222,316.397094,24.642579,0.998998,0.987401,0.004437,0.400368,0.000001,-0.000011,0.000005,0.000003,-0.000013,19.546644,0.000014,
2176,2968,-1.84625202963679,7.02854821795156,0.000230046893705094,0.004449,0.000760,-0.001389,0.209591,0.048967,315.808111,24.654139,0.999422,0.991890,0.003615,0.397555,0.000001,-0.000016,0.000005,0.000002,-0.000017,14.231424,0.000019,
2476,2968,4.67374518494776,7.04982331252721,-0.00919965840972736,0.004238,0.001274,-0.005723,0.217069,0.050925,315.585625,25.475090,0.999494,0.990125,0.003960,0.337122,-0.000010,-0.000047,0.000003,-0.000010,-0.000047,4.623060,0.000061,
2161,2893,-2.1612619623155,5.40003436276561,-0.0174203327765099,0.003734,0.000760,0.000695,0.170125,0.045606,316.895591,24.592835,0.999535,0.992642,0.003589,0.369973,0.000000,-0.000009,0.000003,0.000001,-0.000010,18.986598,0.000011,
2236,3208,-0.583899198011057,12.238222063215,0.0367847668702552,0.003907,0.001353,-0.002629,0.189233,0.071265,312.001584,25.158738,0.999505,0.992617,0.003529,0.389105,-0.000001,-0.000022,0.000003,-0.000001,-0.000022,8.930811,0.000026,
2251,3283,-0.27410667733901,13.8660163095479,0.00352833321034041,0.004137,0.000885,-0.002314,0.198720,0.039563,310.470513,25.295211,0.999494,0.992280,0.003528,0.403746,0.000003,-0.000014,0.000018,0.000014,-0.000025,31.854953,0.000025,
2461,2893,4.35998056996123,5.41952007832257,-0.0283907752695427,0.003781,0.001087,-0.000986,0.177943,0.069097,316.576974,25.196894,0.999193,0.989025,0.004152,0.326535,-0.000014,-0.000012,-0.000006,-0.000007,-0.000019,-47.998376,0.000027,
2236,3268,-0.596227337594858,13.5388437414969,0.0172230332950107,0.003894,0.000831,0.000808,0.177207,0.036102,310.842576,25.195486,0.999523,0.993033,0.003414,0.395827,0.000004,-0.000017,0.000016,0.000013,-0.000025,27.726306,0.000025,
2296,2173,0.905011113675915,-10.3079250190812,0.00149646715618701,0.004172,0.001571,-0.006583,0.213906,0.063354,328.448994,23.275641,0.999331,0.982009,0.005353,0.456561,-0.000021,-0.000021,-0.000003,-0.000018,-0.000024,-48.379519,0.000042,
2131,2668,-2.77357008994499,0.50048802283284,0.0051384085202244,0.004085,0.000863,-0.003111,0.197654,0.064875,320.885959,24.257252,0.999654,0.991722,0.003705,0.585326,0.000004,-0.000013,0.000009,0.000008,-0.000017,22.621112,0.000017,
2341,2308,1.8623385562061,-7.35113935338379,0.00598121065365831,0.004470,0.001162,-0.001842,0.211732,0.050231,326.282925,23.523534,0.998643,0.981216,0.005178,0.307583,-0.000028,0.000002,-0.000005,0.000003,-0.000029,-80.569923,0.000032,
2011,2308,-5.32858511734369,-7.35036342134902,-0.0108343614191426,0.003851,0.000866,-0.001719,0.181935,0.044847,327.186530,24.800775,0.999076,0.986624,0.004762,0.328407,-0.000003,-0.000033,0.000006,-0.000002,-0.000034,10.794032,0.000041,
2071,2383,-4.03418779653179,-5.71164774429145,-0.00909072783827014,0.003849,0.001443,-0.004150,0.189237,0.084812,325.648860,24.543783,0.998458,0.983002,0.005285,0.383836,0.000014,0.000005,0.000006,0.000017,0.000002,28.491712,0.000021,
2161,2833,-2.15054213868734,4.09534980448865,-0.0117989655390147,0.004049,0.000870,0.001376,0.182542,0.058705,317.931229,24.532124,0.999613,0.993702,0.003383,0.404595,0.000001,-0.000018,0.000004,0.000002,-0.000019,12.224671,0.000020,
2026,2233,-4.99061153675792,-8.99001089901152,-0.00381277427385385,0.004025,0.001249,-0.001427,0.189199,0.063889,328.363249,24.825580,0.999449,0.985441,0.004740,0.301160,0.000015,0.000016,0.000014,0.000029,0.000002,45.206400,0.000035,
2266,2053,0.271858399443829,-12.9394550797514,0.0159140064675398,0.003582,0.001408,-0.003912,0.177451,0.057381,330.499650,23.300533,0.998850,0.979183,0.005597,0.355520,-0.000026,-0.000005,0.000006,-0.000003,-0.000028,75.758223,0.000034,
2146,2818,-2.47472296997876,3.76971085597234,-0.0220106475185275,0.003925,0.000741,0.002886,0.172314,0.068116,318.136262,24.535368,0.999539,0.992696,0.003559,0.385003,0.000000,-0.000029,-0.000002,0.000001,-0.000029,-3.036714,0.000034,
2206,3133,-1.22180982345339,10.6094138494681,0.0308744771461988,0.004193,0.000735,-0.000880,0.196381,0.046861,313.264143,24.913060,0.999653,0.993519,0.003428,0.386368,-0.000017,-0.000032,-0.000002,-0.000016,-0.000033,-8.772458,0.000050,
2206,3088,-1.21510812655272,9.63450061619059,0.0209873744633455,0.003908,0.000481,0.001539,0.175449,0.045119,313.895608,24.919383,0.999459,0.992408,0.003586,0.331311,-0.000009,-0.000036,-0.000004,-0.000008,-0.000036,-8.267779,0.000048,
2221,3193,-0.906687034568559,11.911023374922,0.0379106062902679,0.004010,0.000699,0.000419,0.183793,0.041911,312.288265,25.035899,0.999503,0.992643,0.003501,0.391520,-0.000007,-0.000026,0.000003,-0.000006,-0.000027,9.703501,0.000035,
2431,2758,3.73423236698188,2.4772524396053,-0.0221563497069042,0.003827,0.000887,0.000295,0.175061,0.061828,318.774625,24.599675,0.999527,0.989004,0.004043,0.414495,0.000002,-0.000007,-0.000008,0.000006,-0.000011,-30.734946,0.000011,
2041,2263,-4.6676957292049,-8.33589107217624,0.00140591008340607,0.004446,0.000970,-0.003010,0.212912,0.055240,327.859271,24.635784,0.999112,0.985745,0.004863,0.402043,-0.000022,-0.000002,0.000013,0.000005,-0.000029,63.581695,0.000031,
2041,2338,-4.67976219716574,-6.69580332415395,-0.00410892859162004,0.004068,0.000940,-0.000589,0.188921,0.066335,326.582662,24.626108,0.999251,0.987062,0.004452,0.395582,-0.000008,-0.000024,0.000000,-0.000008,-0.000024,1.158315,0.000034,
2116,2668,-3.10284260983769,0.505989490227819,-0.0398012450652914,0.003794,0.001319,-0.002023,0.181084,0.078877,320.557597,24.429907,0.999557,0.991094,0.003743,0.434015,0.000001,-0.000017,0.000009,0.000005,-0.000020,22.671718,0.000021,
2011,2158,-5.30577591669458,-10.6312560726484,-0.000928224595156735,0.004198,0.000979,-0.003969,0.203822,0.044323,329.699611,24.960959,0.998281,0.978716,0.006004,0.262369,-0.000005,0.000009,-0.000011,0.000014,-0.000011,-61.303260,0.000015,
2086,2533,-3.73175257729827,-2.43853678069836,-0.0156054717139114,0.003854,0.001171,-0.002636,0.185282,0.064576,323.092421,24.451672,0.999635,0.992035,0.003783,0.411594,0.000011,-0.000004,0.000025,0.000030,-0.000022,36.652581,0.000031,
2446,2833,4.04635551309208,4.1131714705186,-0.025353565997591,0.004079,0.001661,-0.005125,0.207221,0.073678,317.581505,25.008498,0.999719,0.992005,0.003594,0.285074,-0.000008,-0.000014,-0.000006,-0.000004,-0.000018,-32.445664,0.000023,
2386,2518,2.80194114949999,-2.75927537509463,-0.0142426520545769,0.004001,0.001517,-0.004814,0.201473,0.077388,322.718185,23.851204,0.999497,0.988760,0.004314,0.456276,-0.000008,-0.000026,0.000003,-0.000008,-0.000027,10.068699,0.000036,
2086,2473,-3.72310312058299,-3.74664813810098,-0.0199666079799385,0.003637,0.000702,0.001339,0.163625,0.059774,324.003701,24.457188,0.999380,0.989188,0.004310,0.400967,0.000012,-0.000020,0.000011,0.000016,-0.000023,16.596295,0.000024,
2221,3163,-0.902044192132717,11.2611299243,0.034457659993393,0.003650,0.000775,0.001016,0.165360,0.057404,312.731679,25.014632,0.999563,0.992256,0.003534,0.392954,-0.000007,-0.000026,0.000000,-0.000007,-0.000026,1.088959,0.000035,
2371,2443,2.48954287531908,-4.39823444639737,-0.00737408179787735,0.003879,0.001082,-0.002389,0.186849,0.067727,323.967965,23.699596,0.999160,0.987695,0.004632,0.415269,-0.000010,-0.000032,-0.000001,-0.000010,-0.000032,-3.393538,0.000044,
2071,2443,-4.04341316509028,-4.4030614422778,-0.00452001202557994,0.003752,0.000933,-0.001363,0.176690,0.037290,324.707634,24.516240,0.999146,0.987451,0.004529,0.356985,0.000003,-0.000018,0.000014,0.000010,-0.000025,26.434087,0.000025,
2416,2683,3.42262603991334,0.842395361357639,-0.0193064833170524,0.003903,0.001118,0.000305,0.178503,0.056394,320.001816,24.394943,0.999411,0.985948,0.004736,0.367287,0.000001,-0.000003,-0.000009,0.000008,-0.000010,-39.487764,0.000011,
2011,2323,-5.32997743115772,-7.02466709341166,0.00423570416637631,0.003782,0.000601,-0.001116,0.177051,0.040815,327.066376,24.758318,0.998958,0.984252,0.005066,0.356115,-0.000001,-0.000033,-0.000004,0.000000,-0.000033,-6.462489,0.000038,
2341,2323,1.85858851725086,-7.02207629669299,-0.00456012042872089,0.004099,0.001261,-0.004922,0.205504,0.048787,325.946145,23.537309,0.999195,0.986367,0.004655,0.331639,-0.000031,0.000003,0.000003,0.000003,-0.000031,85.347876,0.000035,
2506,3148,5.29112797969469,10.9612182315263,0.0175140133344485,0.003993,0.000911,0.000536,0.181935,0.053950,312.905857,26.248210,0.999499,0.991015,0.003737,0.364607,0.000018,0.000004,0.000013,0.000026,-0.000004,31.263411,0.000029,
2056,2383,-4.36114155967287,-5.71070016773505,-0.0218984399882061,0.004028,0.001436,-0.004026,0.196939,0.066389,325.631386,24.585941,0.999254,0.988422,0.004501,0.371438,0.000014,0.000009,0.000005,0.000017,0.000006,29.332336,0.000023,
2071,2398,-4.03657770473635,-5.38459429133499,-0.0101047144251538,0.003941,0.001090,-0.002354,0.188218,0.054645,325.398031,24.518819,0.998789,0.984904,0.005079,0.377064,0.000012,-0.000005,0.000002,0.000012,-0.000005,7.406380,0.000012,
2116,2638,-3.09747902922989,-0.147878313583192,-0.0366135600379494,0.004031,0.001041,-0.003279,0.195566,0.049657,321.085084,24.424431,0.999337,0.988763,0.004184,0.402190,0.000011,-0.000018,0.000012,0.000015,-0.000023,20.121613,0.000023,
2191,3058,-1.53557311281581,8.9816683410808,0.0171324465080716,0.003942,0.000553,0.000355,0.180781,0.036460,314.404042,24.749277,0.999809,0.995504,0.003002,0.410139,0.000002,-0.000036,-0.000004,0.000002,-0.000036,-6.462175,0.000041,
2476,2983,4.66965543303749,7.37637998609992,-0.0140546822280498,0.003795,0.000878,-0.003405,0.187735,0.038840,315.269943,25.548012,0.999390,0.989418,0.004099,0.308021,-0.000006,-0.000032,0.000006,-0.000004,-0.000033,12.930756,0.000041,
2161,2848,-2.15361106569576,4.42067253014742,-0.0154210476660523,0.003690,0.000640,0.000696,0.168045,0.048315,317.643081,24.453169,0.999647,0.993976,0.003264,0.483008,-0.000003,-0.000013,0.000005,-0.000001,-0.000015,21.267573,0.000017,
2251,3298,-0.276045959339555,14.1908882296037,0.00921363105430828,0.004464,0.000895,-0.002679,0.214981,0.039787,310.288284,25.342200,0.999370,0.991284,0.003663,0.378860,0.000000,-0.000004,0.000017,0.000016,-0.000019,41.459621,0.000020,
2296,2188,0.903124318793846,-9.97988241494322,0.0157763545347507,0.004175,0.001170,-0.003545,0.203691,0.058884,328.315850,23.406820,0.998890,0.979858,0.005567,0.353117,-0.000024,-0.000003,-0.000007,-0.000001,-0.000026,-73.559493,0.000030,
2041,2278,-4.67010397657261,-8.00728470585694,0.00273764981028535,0.004256,0.001100,-0.002044,0.201555,0.063003,327.617453,24.696139,0.999778,0.991952,0.004124,0.344007,-0.000026,-0.000013,0.000014,-0.000004,-0.000035,57.867683,0.000042,
2281,2113,0.588566310919251,-11.6235812251247,0.0104854482264614,0.003772,0.001341,-0.005250,0.190757,0.048510,329.482931,23.283216,0.998853,0.979781,0.005515,0.390921,-0.000009,-0.000006,0.000005,-0.000003,-0.000012,54.728614,0.000016,
2026,2203,-4.98654585461357,-9.64697708390391,-0.00675732587791344,0.003679,0.001366,-0.004434,0.181562,0.048911,328.813537,24.759339,0.998956,0.984716,0.005132,0.367302,0.000015,-0.000002,0.000013,0.000022,-0.000008,28.057351,0.000022,
2026,2248,-4.99306756996578,-8.66381905723551,-0.000588994344184357,0.003680,0.000782,0.000392,0.168230,0.042220,328.129182,24.704247,0.999382,0.986942,0.004560,0.393562,0.000006,0.000030,0.000011,0.000034,0.000002,69.093501,0.000041,
2326,2248,1.54538027119232,-8.66462044782104,0.00131078948362529,0.003743,0.001300,-0.004852,0.188723,0.041902,327.193490,23.385298,0.998944,0.980273,0.005386,0.351204,-0.000027,-0.000009,-0.000006,-0.000008,-0.000029,-73.277052,0.000038,
2086,2548,-3.73431555854267,-2.11206356060948,-0.0211107463237568,0.004049,0.000799,-0.001680,0.191421,0.056283,322.810627,24.362183,0.999407,0.990961,0.003997,0.492978,0.000013,0.000001,0.000028,0.000035,-0.000021,38.454979,0.000036,
2296,2128,0.913925001154926,-11.2949675236119,0.0148649899006728,0.004109,0.001352,-0.004435,0.203666,0.029602,329.275193,23.290633,0.999134,0.981028,0.005323,0.308717,-0.000013,-0.000007,-0.000005,-0.000004,-0.000016,-59.729399,0.000022,
2401,2623,3.10787934999813,-0.466244438267346,-0.0209933464743131,0.004079,0.001478,-0.002983,0.198662,0.073077,320.966319,24.203852,0.999365,0.987936,0.004241,0.395350,0.000000,-0.000012,-0.000005,0.000002,-0.000014,-20.996406,0.000016,
2461,2908,4.35786679408235,5.74459586379123,-0.0191667173402834,0.003872,0.001001,-0.001634,0.184526,0.063938,316.416278,25.206043,0.999151,0.987366,0.004397,0.366264,-0.000013,-0.000023,-0.000003,-0.000012,-0.000024,-17.046129,0.000037,
2011,2338,-5.33289151955376,-6.6965257768184,-0.00299151955783827,0.003437,0.000994,-0.001882,0.163413,0.048218,326.751348,24.711740,0.998967,0.985566,0.004887,0.400499,-0.000008,-0.000036,-0.000009,-0.000005,-0.000038,-15.853180,0.000047,
2431,2773,3.73130795112505,2.80402591820503,-0.02358217152522,0.003842,0.000936,-0.001549,0.182610,0.059481,318.525740,24.644663,0.999480,0.988900,0.004177,0.417247,-0.000003,-0.000009,-0.000012,0.000006,-0.000018,-37.810660,0.000019,
2206,3103,-1.21746554523342,9.9583888130567,0.0270147299774521,0.003924,0.000136,0.004161,0.167756,0.035972,313.693990,24.840961,0.999413,0.991010,0.003927,0.416219,-0.000014,-0.000035,-0.000003,-0.000014,-0.000036,-7.567602,0.000051,
2131,2713,-2.78349228748537,1.48525198597824,-0.0260291181838852,0.003890,0.000957,0.001805,0.174013,0.071281,319.870618,24.480120,0.999413,0.990284,0.003995,0.387507,0.000010,-0.000027,0.000005,0.000010,-0.000027,7.379012,0.000027,
2056,2428,-4.36759452910195,-4.72959924537429,-0.0116579258236698,0.004190,0.000871,0.002516,0.185904,0.086607,324.980519,24.537369,0.998762,0.984934,0.004878,0.428524,0.000009,-0.000005,0.000014,0.000017,-0.000013,32.087662,0.000018,
2311,2128,1.24147652916424,-11.2949777516293,0.017671779770069,0.003843,0.000956,-0.006106,0.197151,0.016091,329.280709,23.268579,0.999331,0.983463,0.005057,0.231069,-0.000013,-0.000005,-0.000003,-0.000004,-0.000014,-68.056619,0.000019,
2356,2383,2.17333253237456,-5.70825405799492,-0.011673157380983,0.003723,0.001117,-0.002196,0.178897,0.057337,324.889989,23.697313,0.999256,0.982696,0.005066,0.285525,-0.000021,0.000004,0.000001,0.000004,-0.000021,88.305296,0.000022,
2011,2173,-5.3080647947063,-10.3040122064689,0.00246789697246186,0.003791,0.001300,-0.005218,0.188609,0.051174,329.472510,24.883460,0.998668,0.985587,0.005262,0.337612,-0.000008,-0.000006,-0.000009,0.000002,-0.000016,-47.473835,0.000017,
2176,2983,-1.84988756936234,7.35465692273025,-0.00148015485996211,0.003820,0.000559,0.003569,0.165186,0.056160,315.504792,24.682955,0.999294,0.991844,0.003681,0.387542,0.000001,-0.000020,0.000006,0.000002,-0.000022,15.623427,0.000024,
2371,2458,2.48640812589106,-4.06975735050256,-0.0134736465747665,0.004034,0.001253,-0.003069,0.196420,0.048243,323.683354,23.772052,0.998996,0.986410,0.004785,0.365963,-0.000009,-0.000037,-0.000001,-0.000009,-0.000037,-2.827568,0.000049,
2491,3103,4.97391666330139,9.98294820191074,0.0107618533183427,0.004113,0.001183,-0.002864,0.200613,0.051830,313.563907,25.994494,0.999456,0.989915,0.003799,0.378573,0.000012,0.000007,0.000013,0.000023,-0.000003,39.160856,0.000024,
2206,3148,-1.22471444804413,10.9351690230885,0.0244410043541166,0.004171,0.000969,-0.003467,0.203723,0.050562,312.972104,24.927969,0.999551,0.993090,0.003497,0.390561,-0.000014,-0.000026,0.000000,-0.000014,-0.000026,1.358256,0.000040,
2506,3163,5.28807922169015,11.2864577834802,0.0164006748386782,0.003978,0.000981,-0.001234,0.188065,0.037734,312.656708,26.276920,0.999540,0.991844,0.003605,0.379543,0.000020,0.000022,0.000007,0.000028,0.000014,50.204615,0.000043,
2146,2758,-2.46477783779099,2.46451940937924,-0.021350909884859,0.003786,0.000885,0.001395,0.170406,0.068687,319.114722,24.490618,0.999507,0.990641,0.003822,0.399100,-0.000001,-0.000035,-0.000006,0.000000,-0.000036,-8.967973,0.000042,
2296,2203,0.900021910523119,-9.65039165201768,0.00775143777747189,0.004398,0.001169,-0.003407,0.213458,0.042582,328.016769,23.451988,0.998391,0.976696,0.005953,0.324457,-0.000026,0.000009,-0.000008,0.000011,-0.000028,-77.727629,0.000028,
2101,2623,-3.42111242987235,-0.475547684015076,-0.0344040761336828,0.003895,0.001124,-0.002277,0.186359,0.080195,321.406861,24.377696,0.999028,0.986948,0.004586,0.488145,0.000009,-0.000015,0.000009,0.000012,-0.000018,18.346324,0.000019,
2101,2563,-3.41104578238639,-1.78256930285922,-0.0338069788941198,0.004299,0.001247,-0.003563,0.208591,0.050521,322.404939,24.432268,0.999259,0.989257,0.004260,0.396024,0.000014,0.000006,0.000020,0.000031,-0.000011,39.941314,0.000031,
2041,2353,-4.68228596528325,-6.36773005196093,-0.00902909902509919,0.004147,0.000810,0.000321,0.189985,0.062205,326.301237,24.614051,0.999048,0.984853,0.004889,0.397988,-0.000013,-0.000014,0.000006,-0.000008,-0.000020,42.218796,0.000029,
2461,2923,4.35444248600561,6.07142845993152,-0.0206469053893557,0.003760,0.001084,0.000376,0.171863,0.074876,316.145670,25.287671,0.999407,0.989377,0.004111,0.349287,-0.000010,-0.000038,-0.000005,-0.000009,-0.000039,-10.414695,0.000051,
2176,2938,-1.84223541063139,6.37776928851821,-0.00682731481111887,0.004037,0.000582,0.001485,0.181627,0.047453,316.209866,24.655748,0.999312,0.990153,0.003947,0.371137,-0.000001,-0.000007,0.000003,0.000000,-0.000008,23.544823,0.000009,
2026,2278,-4.99658880853067,-8.00696033796752,-0.0038596495787715,0.004329,0.001710,-0.006966,0.218557,0.072648,327.669289,24.712040,0.998402,0.983613,0.005276,0.401092,-0.000007,-0.000017,0.000009,-0.000001,-0.000022,31.531564,0.000027,
2281,2128,0.586551858904386,-11.2957553877208,0.0196303042382624,0.003907,0.000929,-0.003406,0.190674,0.050375,329.317745,23.314574,0.998715,0.978113,0.005544,0.391839,-0.000009,-0.000007,0.000003,-0.000004,-0.000011,53.901174,0.000016,
2041,2473,-4.70121909051961,-3.74804705164627,-0.0187018201086744,0.003685,0.000582,-0.002340,0.176198,0.016958,324.273038,24.558907,0.998786,0.982797,0.005228,0.360046,0.000014,-0.000041,0.000008,0.000015,-0.000042,8.089112,0.000043,
2236,3283,-0.599386945092935,13.8647937768056,0.0104611500617011,0.003827,0.001029,-0.000057,0.177061,0.046267,310.539274,25.259919,0.999374,0.992570,0.003542,0.361301,0.000003,-0.000014,0.000017,0.000014,-0.000024,31.977329,0.000024,
2011,2353,-5.3349605020908,-6.36699692033834,-0.0156407187608352,0.004104,0.001178,-0.005461,0.203817,0.040188,326.444306,24.760220,0.999034,0.988548,0.004656,0.334134,-0.000012,-0.000011,-0.000004,-0.000008,-0.000015,-48.829225,0.000023,
2386,2533,2.798431585509,-2.43089841819896,-0.0207516014639282,0.004058,0.001327,-0.002823,0.196894,0.074384,322.415462,23.921608,0.999504,0.989358,0.004301,0.427526,-0.000008,-0.000022,0.000001,-0.000008,-0.000022,2.214615,0.000031,
2431,2788,3.72830744871744,3.13084131072644,-0.0218795234787876,0.003736,0.000619,-0.000855,0.175058,0.044624,318.287827,24.734971,0.999463,0.989416,0.004134,0.362071,-0.000003,-0.000005,-0.000011,0.000007,-0.000015,-43.443848,0.000015,
2296,2233,0.894523743533252,-8.99276772214353,0.00665565264500856,0.004366,0.001469,-0.004147,0.214632,0.077348,327.524513,23.524650,0.999048,0.979495,0.005421,0.351693,-0.000026,0.000009,-0.000008,0.000011,-0.000028,-77.436603,0.000028,
2446,2848,4.04391113870405,4.43714023372576,-0.0145557854501135,0.003979,0.001299,-0.002208,0.191590,0.071757,317.412586,24.909409,0.999660,0.991385,0.003602,0.434138,-0.000009,-0.000015,-0.000014,0.000002,-0.000026,-38.701990,0.000029,
2401,2638,3.1044906150693,-0.138973299846334,-0.024590489282275,0.003907,0.001270,-0.002877,0.190270,0.056237,320.684019,24.248307,0.999417,0.987197,0.004233,0.380226,-0.000002,-0.000006,-0.000008,0.000004,-0.000012,-37.698538,0.000012,
2056,2398,-4.36256717757061,-5.38557913535723,-0.0109086204436721,0.004294,0.001173,-0.002426,0.204603,0.041478,325.489797,24.494256,0.998907,0.986192,0.004776,0.434003,0.000010,-0.000005,-0.000003,0.000011,-0.000005,-10.996303,0.000011,
2221,3178,-0.904119114422617,11.5858963394558,0.0385073362220965,0.003775,0.000653,-0.001256,0.178311,0.034477,312.533347,25.035741,0.999451,0.991339,0.003652,0.366424,-0.000006,-0.000023,0.000003,-0.000006,-0.000024,9.419156,0.000031,
2371,2473,2.48368473892961,-3.74324730154482,-0.0063427962297169,0.003839,0.000829,-0.000220,0.177233,0.059522,323.480940,23.761337,0.999395,0.987716,0.004430,0.430083,-0.000010,-0.000036,0.000001,-0.000010,-0.000036,3.221414,0.000048,
2206,3178,-1.23007413532683,11.586147785549,0.0225857249567412,0.004120,0.001240,-0.004312,0.204119,0.054605,312.465867,24.991797,0.999692,0.994765,0.003154,0.362034,-0.000011,-0.000022,0.000005,-0.000009,-0.000023,20.161663,0.000033,
2161,2908,-2.16306128935044,5.72501636055149,-0.01027016089688,0.003873,0.001003,-0.000811,0.181284,0.060172,316.722548,24.553567,0.999486,0.991568,0.003795,0.433234,0.000000,-0.000014,0.000003,0.000000,-0.000015,11.594602,0.000017,
2221,3208,-0.909302356291061,12.2367083809593,0.0409426018793511,0.003788,0.001114,-0.000157,0.175589,0.062283,312.059459,25.099520,0.999424,0.991890,0.003670,0.365899,-0.000005,-0.000023,0.000007,-0.000002,-0.000025,18.212324,0.000031,
2071,2413,-4.03925923941213,-5.0581613134887,-0.00602048565195901,0.003516,0.000586,0.000922,0.159192,0.039978,325.161810,24.475219,0.998649,0.984720,0.004968,0.404378,0.000010,-0.000011,0.000005,0.000011,-0.000013,12.930219,0.000014,
2041,2368,-4.6845026888359,-6.04033214429631,-0.00361549608180667,0.003950,0.000871,0.001982,0.176369,0.079444,326.091060,24.624869,0.999011,0.985096,0.004888,0.398698,0.000003,0.000008,0.000007,0.000013,-0.000001,54.858248,0.000014,
2056,2443,-4.37017606465233,-4.40211433839104,-0.0152217961389169,0.003879,0.000917,-0.001305,0.182363,0.042763,324.705629,24.556564,0.999081,0.986817,0.004631,0.361437,0.000000,-0.000019,0.000009,0.000003,-0.000023,21.328813,0.000024,
2071,2458,-4.04564160252355,-4.07631477038924,-0.00605910617804284,0.003949,0.000759,-0.001086,0.184939,0.040099,324.461309,24.445147,0.999427,0.989668,0.004288,0.429251,0.000004,-0.000025,0.000009,0.000006,-0.000027,17.006671,0.000029,
2011,2188,-5.31188258483928,-9.97229488671841,-0.0195332696374635,0.003522,0.001328,-0.004140,0.173350,0.058156,329.032723,24.951483,0.999481,0.991812,0.004267,0.268254,0.000000,0.000012,0.000007,0.000015,-0.000003,66.199352,0.000015,
2266,2083,0.266219302738342,-12.2794628454465,0.00677629728704687,0.003902,0.001682,-0.004187,0.193123,0.081570,329.956020,23.401363,0.999247,0.983816,0.005090,0.336925,-0.000019,0.000002,0.000007,0.000004,-0.000021,73.000812,0.000023,
2281,2143,0.583481790501292,-10.9650266846757,0.0160002107606942,0.003854,0.000836,-0.002734,0.185972,0.046821,329.040398,23.483183,0.999248,0.981874,0.005280,0.250503,-0.000012,-0.000014,0.000006,-0.000007,-0.000019,40.593753,0.000027,
2101,2578,-3.41333714249162,-1.45754828756915,-0.0201060501036636,0.003760,0.000832,0.000346,0.172257,0.047278,322.241024,24.384133,0.999264,0.988120,0.004332,0.442549,0.000009,-0.000008,0.000013,0.000016,-0.000015,28.364137,0.000018,
2026,2293,-4.99935636158079,-7.67939828453837,0.00225631607781906,0.003994,0.000745,0.002801,0.176113,0.089523,327.436672,24.721208,0.998500,0.983655,0.005226,0.401296,0.000002,-0.000015,0.000013,0.000009,-0.000023,28.507706,0.000023,
2131,2743,-2.78783732491408,2.13750998785628,-0.0277197845676938,0.004167,0.001243,-0.004181,0.204769,0.043827,319.400803,24.451936,0.999429,0.990054,0.004042,0.400161,0.000002,-0.000038,0.000004,0.000002,-0.000038,6.142127,0.000043,
2431,2803,3.72599602595169,3.45779913632855,-0.0178484687043579,0.003931,0.000856,-0.002618,0.190628,0.048370,318.092285,24.841792,0.999469,0.989525,0.004129,0.308972,-0.000004,-0.000007,-0.000008,0.000003,-0.000014,-40.145501,0.000015,
2161,2863,-2.15653703215273,4.74827691797581,-0.0211868988311608,0.003753,0.000490,0.001885,0.167251,0.039654,317.349458,24.571055,0.999358,0.992007,0.003600,0.366438,-0.000002,-0.000014,-0.000001,-0.000002,-0.000014,-3.218752,0.000017,
2416,2698,3.4188632936754,1.1695929346606,-0.0281816896113583,0.003725,0.001244,-0.000594,0.173709,0.058054,319.678608,24.390585,0.999593,0.989662,0.004052,0.421396,0.000000,0.000006,-0.000008,0.000012,-0.000005,-55.322214,0.000012,
2146,2833,-2.47565112812227,4.09461270363473,-0.0132486449604698,0.004490,0.001119,-0.003330,0.217289,0.060242,318.010916,24.504184,0.999526,0.993043,0.003498,0.416188,-0.000001,-0.000021,0.000002,-0.000001,-0.000021,7.000508,0.000024,
2116,2683,-3.10501967518371,0.831314596824107,-0.0356712129174639,0.003816,0.000944,-0.001274,0.179773,0.059230,320.348261,24.373560,0.999516,0.992242,0.003557,0.474288,0.000001,-0.000021,0.000005,0.000002,-0.000022,11.604632,0.000024,
2026,2263,-4.99503057670198,-8.33445944464066,-0.00213995461706418,0.003888,0.001054,-0.001870,0.184091,0.044879,327.890303,24.803721,0.998828,0.982756,0.005086,0.289367,-0.000005,-0.000005,0.000010,0.000005,-0.000015,45.541219,0.000016,
2191,3073,-1.53776086541527,9.30690364335249,0.0203918810623236,0.003873,0.000970,-0.003192,0.188892,0.045251,314.194470,24.752089,0.999641,0.993988,0.003295,0.429519,0.000000,-0.000032,-0.000005,0.000001,-0.000033,-9.199557,0.000037,
2086,2488,-3.72506284944814,-3.41969225824376,-0.0203548623091478,0.003865,0.001233,-0.001496,0.182489,0.079380,323.777063,24.410328,0.999343,0.989677,0.004174,0.467479,0.000010,-0.000016,0.000010,0.000014,-0.000019,19.320427,0.000020,
2086,2563,-3.73584379049609,-1.78471070414174,-0.0160733515146489,0.004172,0.001199,-0.007847,0.214971,0.034457,322.633293,24.464783,0.998857,0.987284,0.004633,0.368431,0.000014,0.000006,0.000021,0.000032,-0.000012,39.622945,0.000032,
2176,2998,-1.85176810019674,7.68006566011905,0.00292210248676383,0.004022,0.000805,0.001013,0.182529,0.059103,315.314335,24.697136,0.999429,0.991503,0.003770,0.387844,0.000001,-0.000022,0.000005,0.000002,-0.000023,12.663711,0.000025,
2191,2998,-1.52650362255423,7.68116456550344,-0.000330423358605003,0.003926,0.000864,0.001030,0.178043,0.068212,315.233597,24.717317,0.999466,0.991251,0.003831,0.419348,-0.000004,-0.000020,0.000005,-0.000003,-0.000021,17.001541,0.000026,
2041,2488,-4.70228401450393,-3.42123742278153,-0.016077973646702,0.004465,0.001126,-0.006570,0.224036,0.045160,324.100357,24.516448,0.999377,0.988266,0.004446,0.424196,0.000014,-0.000034,0.000008,0.000016,-0.000036,9.541718,0.000036,
2056,2458,-4.37263907146795,-4.07537942295311,-0.0150261609582003,0.003596,0.000902,-0.002831,0.173637,0.053951,324.456820,24.492640,0.999188,0.986654,0.004729,0.432698,0.000002,-0.000026,0.000006,0.000003,-0.000028,11.660684,0.000030,
2281,2083,0.594451650852189,-12.2814057428988,0.0158234997721252,0.004001,0.001374,-0.003865,0.196628,0.053572,330.015769,23.286010,0.999046,0.982382,0.005244,0.331137,-0.000007,0.000002,0.000007,0.000006,-0.000011,60.287818,0.000011,
2131,2728,-2.78557553096266,1.81085569460445,-0.0274553075490189,0.003973,0.001544,-0.003902,0.195131,0.074065,319.636816,24.394395,0.999305,0.988858,0.004265,0.482216,0.000008,-0.000035,0.000003,0.000008,-0.000036,3.848537,0.000037,
2116,2653,-3.10000028144114,0.179901711003147,-0.0390153828825532,0.003999,0.001569,-0.004627,0.198262,0.063558,320.824127,24.496228,0.999541,0.989796,0.003886,0.348420,0.000004,-0.000014,0.000009,0.000008,-0.000018,23.426910,0.000018,
2236,3223,-0.587146488026061,12.5637666617749,0.033396635683232,0.003791,0.001196,0.000490,0.173692,0.065754,311.711832,25.202505,0.999477,0.992071,0.003700,0.359385,0.000001,-0.000010,0.000004,0.000002,-0.000011,18.377027,0.000012,
2506,3178,5.28585004032711,11.6119747606265,0.0242219407872426,0.004088,0.001020,-0.002283,0.197303,0.048608,312.485243,26.361116,0.999615,0.992464,0.003518,0.366110,0.000022,0.000029,0.000007,0.000034,0.000017,57.578083,0.000051,
2236,3298,-0.602468990250934,14.1901523641278,0.00185444264360513,0.004059,0.001074,0.000343,0.186501,0.056076,310.230274,25.264860,0.999378,0.992420,0.003538,0.385689,0.000003,-0.000002,0.000016,0.000017,-0.000016,41.271828,0.000019,
2326,2263,1.54322146323201,-8.33668997516354,0.00467661985175027,0.004178,0.001287,-0.003880,0.205333,0.041378,326.996122,23.412722,0.999212,0.982743,0.004950,0.359704,-0.000034,-0.000011,-0.000009,-0.000008,-0.000037,-71.712862,0.000048,
2266,2068,0.269437071230062,-12.6099732970057,0.0181174255904466,0.003760,0.001268,-0.002528,0.180991,0.081492,330.279940,23.364056,0.999078,0.981872,0.005254,0.344849,-0.000024,-0.000002,0.000009,0.000001,-0.000028,69.683940,0.000032,
2026,2398,-5.01482923820422,-5.38586299069999,-0.00562989753854026,0.004279,0.001128,-0.001223,0.200487,0.053753,325.705633,24.626460,0.999479,0.989743,0.003967,0.405129,0.000018,0.000000,-0.000019,0.000030,-0.000012,-32.694440,0.000031,
2446,2863,4.04122446232595,4.76287379150096,-0.0107483674121909,0.003963,0.001071,-0.002375,0.191423,0.055063,317.199806,24.938474,0.999778,0.993054,0.003313,0.440202,-0.000010,-0.000012,-0.000014,0.000003,-0.000025,-42.426836,0.000027,
2146,2773,-2.46720322018211,2.79161692419216,-0.027036503089505,0.004054,0.001142,-0.001138,0.190496,0.062106,318.843403,24.531754,0.999698,0.993702,0.003248,0.359318,-0.000001,-0.000030,-0.000006,0.000001,-0.000031,-11.819823,0.000036,
2176,2953,-1.8449344102159,6.70314804581423,-0.0069579830514499,0.003859,0.000711,0.000947,0.175171,0.053308,315.958091,24.621584,0.999388,0.991834,0.003593,0.422763,-0.000002,-0.000012,0.000005,0.000000,-0.000014,21.655478,0.000016,
2221,3223,-0.912452841171334,12.561950089566,0.0390749395638181,0.003645,0.000836,0.003122,0.158436,0.067025,311.780956,25.113261,0.999591,0.993474,0.003383,0.374212,-0.000003,-0.000013,0.000007,0.000001,-0.000017,27.643648,0.000019,
2416,2713,3.41711007006719,1.49638937924671,-0.0259097964016632,0.004131,0.001917,-0.008129,0.220198,0.060493,319.499924,24.444500,0.999674,0.990947,0.003807,0.418188,-0.000003,0.000006,-0.000008,0.000011,-0.000008,-58.791879,0.000011,
2131,2758,-2.7907360260468,2.46469176423436,-0.0288742497081671,0.003943,0.001169,-0.002038,0.188069,0.055673,319.130580,24.513568,0.999488,0.991263,0.003800,0.356224,-0.000003,-0.000038,-0.000001,-0.000003,-0.000038,-1.675654,0.000046,
2491,3118,4.9708889442728,10.3083782088802,0.0123930918544488,0.004082,0.000910,-0.002088,0.196103,0.043807,313.327232,26.038005,0.999525,0.990869,0.003663,0.384647,0.000009,0.000018,0.000016,0.000030,-0.000002,53.155690,0.000034,
2116,2698,-3.10733569082772,1.15781881229071,-0.0250561523633905,0.003450,0.000563,0.001963,0.153210,0.050767,320.167033,24.471189,0.999407,0.990864,0.003837,0.371745,0.000008,-0.000026,0.000006,0.000009,-0.000027,10.139916,0.000028,
2461,2938,4.35197273427297,6.39720565875392,-0.018979492121332,0.003998,0.000982,-0.001756,0.190774,0.053569,315.933671,25.330861,0.999458,0.990747,0.004018,0.338747,-0.000010,-0.000052,-0.000007,-0.000009,-0.000053,-8.771236,0.000067,
2026,2308,-5.00195586578934,-7.35088057709251,-0.00599521687638571,0.004125,0.000360,0.003118,0.181162,0.055040,327.131860,24.729719,0.998766,0.982935,0.005192,0.350827,0.000008,-0.000022,0.000008,0.000010,-0.000024,14.758396,0.000024,
2086,2578,-3.73911935165697,-1.45710862161653,-0.0252585692194884,0.003972,0.001113,-0.005667,0.199474,0.041352,322.298532,24.441848,0.999052,0.988001,0.004449,0.398272,0.000009,-0.000008,0.000014,0.000017,-0.000016,29.602872,0.000019,
2041,2503,-4.70543258189864,-3.09369163666638,-0.0215333157285613,0.004014,0.001282,-0.004937,0.198802,0.061314,323.787545,24.484886,0.999445,0.989670,0.004123,0.465638,0.000017,-0.000022,0.000007,0.000018,-0.000023,9.977642,0.000024,
2311,2143,1.23879736742483,-10.9660713940467,0.0182617275533516,0.003850,0.001365,-0.006269,0.198170,0.056340,329.044761,23.273022,0.999344,0.983902,0.005125,0.301864,-0.000014,-0.000013,-0.000003,-0.000010,-0.000017,-49.922473,0.000027,
2506,3193,5.28292819471767,11.936875793448,0.0261841420536371,0.004179,0.000781,-0.001222,0.197202,0.029352,312.255672,26.387050,0.999619,0.992880,0.003461,0.380486,0.000022,0.000023,0.000010,0.000033,0.000013,47.527166,0.000047,
2476,2998,4.66711621054459,7.70140027201231,-0.00622324618643688,0.003976,0.000836,0.000563,0.180929,0.041984,315.083695,25.554777,0.999344,0.989917,0.003948,0.360253,0.000000,-0.000026,0.000008,0.000003,-0.000028,15.149437,0.000031,
2296,2248,0.891518389529747,-8.66486678233933,0.00147183319012356,0.004281,0.001344,-0.006551,0.218815,0.047100,327.244046,23.485722,0.999201,0.982105,0.005161,0.393024,-0.000027,-0.000004,-0.000009,-0.000001,-0.000030,-70.538475,0.000035,
2401,2653,3.10170860333362,0.18768621755121,-0.0225649298408825,0.004015,0.000922,-0.001229,0.189179,0.054698,320.456094,24.273562,0.999364,0.987817,0.004335,0.399332,-0.000006,-0.000011,-0.000008,0.000000,-0.000016,-36.593872,0.000019,
2296,2218,0.897115602919488,-9.32151318684074,0.00675239434752939,0.004214,0.001474,-0.004358,0.208358,0.064284,327.761205,23.482755,0.998818,0.978456,0.005642,0.348024,-0.000024,0.000014,-0.000009,0.000016,-0.000026,-77.225062,0.000026,
2071,2428,-4.04136340051007,-4.73000508657527,-0.00539601346582685,0.003613,0.000866,-0.000279,0.167200,0.069887,324.932521,24.516449,0.998791,0.985959,0.004660,0.391277,0.000012,-0.000005,0.000019,0.000024,-0.000018,33.048920,0.000025,
2131,2803,-2.79780119094739,3.44216408642365,-0.0220699723910229,0.003919,0.000936,-0.000299,0.181720,0.048359,318.450788,24.473579,0.999520,0.992474,0.003562,0.405539,-0.000006,-0.000031,0.000004,-0.000006,-0.000032,9.113052,0.000040,
2086,2503,-3.72743984642752,-3.09253087872939,-0.0211688255893705,0.003747,0.001206,-0.003728,0.183496,0.058846,323.529116,24.423355,0.999155,0.989688,0.004075,0.434365,0.000016,-0.000012,0.000014,0.000022,-0.000018,22.562133,0.000024,
2026,2413,-5.01768141933069,-5.05736053474019,-0.0133116070929304,0.004085,0.001251,-0.001778,0.193160,0.077870,325.392268,24.620534,0.999272,0.987312,0.004419,0.427101,0.000012,-0.000008,-0.000013,0.000018,-0.000014,-25.167787,0.000019,
2056,2413,-4.36484948545514,-5.05802330090324,-0.00659299865162666,0.004234,0.001044,0.000883,0.192495,0.047007,325.271683,24.535044,0.998220,0.983014,0.005332,0.395027,0.000007,-0.000013,-0.000001,0.000007,-0.000013,-3.448264,0.000013,
2221,3253,-0.918622139069711,13.2119415965773,0.0222825255361272,0.003652,0.000713,-0.001098,0.172221,0.038127,311.162828,25.072779,0.999653,0.994042,0.003209,0.421039,0.000001,-0.000025,0.000017,0.000009,-0.000034,26.194375,0.000035,
2281,2158,0.580670789979983,-10.6369078127023,0.015187697731335,0.003913,0.000802,-0.000954,0.182750,0.058048,328.789128,23.434814,0.999485,0.983107,0.005188,0.340799,-0.000018,-0.000016,0.000005,-0.000012,-0.000022,50.645907,0.000035,
2356,2398,2.17128917398581,-5.38189423240755,-0.00305614217580796,0.003967,0.001124,-0.000589,0.184458,0.078089,324.725158,23.655018,0.999511,0.987139,0.004564,0.388786,-0.000018,0.000002,0.000001,0.000002,-0.000018,86.747709,0.000020,
2176,3013,-1.85426804382551,8.00562513300318,0.00530849694570179,0.003900,0.000919,0.000775,0.177750,0.070377,315.084798,24.706947,0.999376,0.989793,0.003991,0.400737,0.000001,-0.000021,0.000005,0.000002,-0.000022,13.206860,0.000025,
2506,3208,5.2790303648706,12.2634760330721,0.0211452656982374,0.003797,0.000798,-0.001273,0.179953,0.042622,311.949048,26.500444,0.999323,0.991980,0.003702,0.340206,0.000022,0.000017,0.000006,0.000026,0.000013,32.621413,0.000040,
2266,2203,0.245214336552436,-9.64994634077455,0.00493496079036504,0.004397,0.001228,-0.002661,0.210796,0.065399,328.026583,23.568335,0.998440,0.981429,0.005614,0.381220,-0.000026,0.000010,-0.000002,0.000010,-0.000026,-86.991925,0.000026,
2491,3133,4.96771355196458,10.6339952707543,0.00960077119168545,0.004064,0.000682,-0.003824,0.201906,0.039441,313.063619,26.071641,0.999478,0.991024,0.003619,0.404511,0.000016,0.000014,0.000011,0.000026,0.000004,42.307303,0.000033,
2056,2473,-4.37479997090405,-3.74711745606064,-0.0167539148307583,0.003686,0.000869,-0.005282,0.184704,0.038356,324.210972,24.582137,0.999224,0.987460,0.004811,0.323520,0.000009,-0.000033,0.000009,0.000011,-0.000035,11.951904,0.000036,
2011,2368,-5.33689826482999,-6.0402820578837,-0.0118059041732863,0.004172,0.001231,-0.004702,0.204933,0.046320,326.236166,24.704152,0.999154,0.988547,0.004591,0.386037,0.000003,0.000012,-0.000004,0.000013,0.000001,-68.958570,0.000016,
2191,3013,-1.52830555910807,8.00590329071696,0.0103358644162199,0.003933,0.001052,0.000475,0.180127,0.055012,315.080565,24.731930,0.999470,0.991028,0.003838,0.405089,-0.000005,-0.000021,0.000004,-0.000004,-0.000022,13.466944,0.000027,
2146,2848,-2.47919788153422,4.42104145046358,-0.0207430807394076,0.004021,0.000749,-0.001970,0.191494,0.050284,317.678714,24.497348,0.999580,0.993002,0.003452,0.420554,-0.000002,-0.000017,0.000003,-0.000002,-0.000017,11.058638,0.000021,
2191,3088,-1.54036557302328,9.63281439901141,0.0203019672318874,0.004078,0.000881,-0.000055,0.188542,0.059962,313.948031,24.793500,0.999429,0.992145,0.003677,0.416306,-0.000003,-0.000037,-0.000004,-0.000003,-0.000037,-6.193667,0.000045,
2251,1993,-0.0464874454342556,-14.2524471002764,-0.00667580260244449,0.003805,0.001748,-0.005176,0.191704,0.067335,331.312791,23.351423,0.999670,0.989937,0.004421,0.305034,-0.000019,-0.000030,-0.000020,-0.000003,-0.000045,-37.460885,0.000054,
2161,2878,-2.15855942578922,5.07397550179557,-0.0135154572557781,0.003778,0.000853,0.002545,0.166537,0.062304,317.168686,24.586179,0.999429,0.993218,0.003462,0.383496,0.000001,-0.000006,-0.000002,0.000002,-0.000007,-16.953083,0.000008,
2011,2203,-5.31287658249971,-9.64691461754147,-0.00704621120672755,0.004079,0.000796,-0.001883,0.192695,0.060117,328.916015,24.815070,0.999542,0.991930,0.004170,0.396474,0.000009,-0.000008,0.000002,0.000009,-0.000008,5.822832,0.000010,
2476,3013,4.66408974871706,8.02753552693741,-0.00493304569749853,0.003789,0.000909,-0.000634,0.176992,0.052647,314.844863,25.615954,0.999563,0.991639,0.003586,0.365782,0.000001,-0.000028,0.000010,0.000004,-0.000031,17.935458,0.000034,
2281,2278,0.557626546238829,-8.00747748743155,-0.00336690724509481,0.003697,0.000937,-0.001652,0.175399,0.068337,326.691946,23.608044,0.999631,0.987830,0.004540,0.420658,-0.000030,-0.000007,-0.000009,-0.000004,-0.000033,-70.366122,0.000040,
2446,2878,4.03703613950356,5.09026020672628,-0.0187572685639452,0.003688,0.000670,0.000753,0.166972,0.048499,316.862892,25.026786,0.999570,0.991659,0.003607,0.397404,-0.000013,-0.000011,-0.000008,-0.000004,-0.000021,-48.786229,0.000027,
2326,2278,1.53976143923499,-8.00703798188158,-0.00297843680823462,0.004074,0.001443,-0.003955,0.200911,0.055657,326.685101,23.476059,0.999152,0.983549,0.004939,0.347706,-0.000033,-0.000002,-0.000010,0.000001,-0.000035,-73.564385,0.000040,
2116,2713,-3.1096167210411,1.4839679804867,-0.0221007660538817,0.003486,0.000420,0.003259,0.150993,0.046181,319.946366,24.473393,0.999329,0.989923,0.004046,0.368760,0.000006,-0.000026,0.000003,0.000006,-0.000027,5.630750,0.000028,
2041,2518,-4.70782634421622,-2.76639585296558,-0.0222996333682204,0.003982,0.001374,-0.004172,0.195254,0.061308,323.535335,24.494198,0.999329,0.989836,0.004155,0.449829,0.000014,-0.000009,0.000014,0.000021,-0.000015,24.691532,0.000021,
2101,2653,-3.42570958073714,0.178717268730963,-0.0344263926461394,0.004043,0.001343,-0.002942,0.195146,0.058591,320.929194,24.486197,0.999390,0.989410,0.004010,0.361555,0.000001,-0.000011,0.000009,0.000006,-0.000016,28.519030,0.000016,
2401,2668,3.09869096437063,0.515112010659088,-0.0251201452176133,0.003860,0.001111,-0.004543,0.194141,0.047393,320.195551,24.341199,0.999365,0.988479,0.004352,0.370526,-0.000006,-0.000008,-0.000009,0.000002,-0.000016,-42.382067,0.000018,
2071,2503,-4.05329736564825,-3.09321282336467,-0.0179206686487987,0.003769,0.001360,-0.004671,0.187143,0.067560,323.637600,24.439662,0.999393,0.990116,0.004080,0.456813,0.000010,-0.000016,0.000016,0.000018,-0.000024,25.705895,0.000025,
2311,2158,1.23630130449541,-10.6388888583258,0.0220272218415971,0.004246,0.000547,-0.000425,0.196150,0.060870,328.833117,23.194936,0.999327,0.985657,0.005051,0.419503,-0.000021,-0.000019,-0.000008,-0.000012,-0.000028,-47.920855,0.000041,
2146,2878,-2.48398619180145,5.07270510559083,-0.0117408521573452,0.003810,0.001001,0.000885,0.173218,0.065842,317.247676,24.530368,0.999510,0.991923,0.003630,0.418183,0.000002,-0.000010,-0.000005,0.000003,-0.000012,-19.688968,0.000012,
2431,2818,3.72238047889442,3.78429723066049,-0.0268257999636603,0.003713,0.001366,-0.006287,0.194408,0.057819,317.776340,24.805532,0.999498,0.990628,0.004017,0.404675,-0.000010,-0.000012,-0.000010,-0.000002,-0.000021,-41.695092,0.000025,
2101,2638,-3.42365771987834,-0.14875194475961,-0.0342612728197196,0.003798,0.000835,-0.001263,0.178799,0.057094,321.157688,24.412353,0.999049,0.987520,0.004396,0.432299,0.000011,-0.000016,0.000012,0.000016,-0.000021,21.367424,0.000022,
2341,2338,1.85613529775646,-6.69456253310699,0.00250756703530897,0.003879,0.001642,-0.005324,0.196972,0.072711,325.754063,23.563844,0.999420,0.987911,0.004535,0.367468,-0.000030,0.000001,0.000000,0.000001,-0.000030,-89.142400,0.000034,
2221,3238,-0.915458659403793,12.8869979774488,0.0295665129545455,0.003649,0.000590,-0.001213,0.172403,0.031304,311.469793,25.110275,0.999664,0.994007,0.003256,0.359085,0.000000,-0.000016,0.000010,0.000005,-0.000021,26.756366,0.000022,
2131,2818,-2.80007073251822,3.768009686743,-0.0159917462456747,0.003718,0.001130,-0.000218,0.172321,0.063843,318.248423,24.481528,0.999338,0.991113,0.003913,0.418668,-0.000003,-0.000030,0.000002,-0.000003,-0.000030,3.962873,0.000037,
2506,3223,5.27581148945407,12.588882853361,0.0219718576986452,0.003668,0.001030,-0.000431,0.170849,0.053894,311.700335,26.543670,0.999409,0.991474,0.003843,0.367864,0.000024,-0.000017,0.000006,0.000025,-0.000017,7.869518,0.000025,
2176,3028,-1.8565059524177,8.33053270061666,0.0085974397075006,0.004183,0.000467,0.003528,0.182146,0.068472,314.872257,24.679599,0.999485,0.991540,0.003844,0.437878,-0.000001,-0.000026,0.000002,0.000000,-0.000026,4.628452,0.000031,
2041,2383,-4.68687483025171,-5.71338286997213,-0.00422241797519973,0.003857,0.000513,0.001882,0.172298,0.060911,325.840765,24.576638,0.999304,0.988033,0.004327,0.422523,0.000012,0.000014,0.000001,0.000015,0.000012,67.440877,0.000027,
2011,2218,-5.31474901784347,-9.31913359814622,0.000349518609596089,0.004038,0.000819,-0.000223,0.186338,0.051015,328.730328,24.859334,0.999079,0.986934,0.004871,0.333613,0.000007,-0.000005,0.000005,0.000009,-0.000007,20.227098,0.000010,
2086,2593,-3.74206823687089,-1.12988385947547,-0.0251178165006536,0.003408,0.001389,-0.005106,0.172071,0.070853,322.029435,24.448523,0.999079,0.987859,0.004409,0.420998,0.000006,0.000000,0.000017,0.000020,-0.000014,39.263248,0.000021,
2416,2728,3.41348184243821,1.82315669971175,-0.0287608602685054,0.004012,0.001267,-0.003994,0.199354,0.047125,319.211054,24.474882,0.999608,0.990897,0.003843,0.422193,-0.000006,-0.000006,0.000000,-0.000006,-0.000007,-51.672306,0.000012,
2026,2428,-5.0206033000687,-4.73021867208758,-0.0134123281523557,0.003614,0.000702,0.001796,0.161520,0.071009,325.118376,24.598512,0.999086,0.984884,0.004787,0.434176,0.000017,0.000010,0.000006,0.000020,0.000007,28.583641,0.000028,
2221,3268,-0.921147301204442,13.5369138821241,0.0170183899674612,0.004040,0.000926,-0.002587,0.194953,0.032861,310.895586,25.065763,0.999571,0.993298,0.003379,0.440347,0.000004,-0.000022,0.000023,0.000018,-0.000036,30.063773,0.000036,
2176,3148,-1.87561760926683,10.9329079679757,0.022812147430443,0.004266,0.000859,-0.001719,0.202461,0.055115,313.051607,24.799820,0.999487,0.993168,0.003554,0.394057,-0.000005,-0.000026,0.000000,-0.000005,-0.000026,1.055252,0.000034,
2386,2548,2.79618094493027,-2.1045148238124,-0.0146630896580859,0.004148,0.000920,-0.003749,0.204126,0.026270,322.230716,23.971637,0.999445,0.988842,0.004382,0.373295,-0.000005,-0.000031,0.000003,-0.000005,-0.000031,6.325149,0.000039,
2206,3193,-1.23223313136905,11.9101223003941,0.0305505708643636,0.004111,0.000869,-0.003113,0.199757,0.034175,312.283325,24.964518,0.999755,0.996092,0.002976,0.384137,-0.000011,-0.000024,0.000005,-0.000009,-0.000026,18.310147,0.000037,
2461,2953,4.34938559665815,6.72264480097143,-0.0140462066048599,0.004056,0.000795,-0.001371,0.191903,0.041165,315.731233,25.360854,0.999498,0.990800,0.003924,0.350019,-0.000010,-0.000055,-0.000001,-0.000010,-0.000055,-1.833190,0.000070,
2356,2413,2.1682550128776,-5.05354208872712,-0.00790616132610467,0.004083,0.001048,-0.001417,0.192637,0.056498,324.449958,23.713358,0.999732,0.990033,0.004149,0.349523,-0.000022,-0.000006,0.000000,-0.000006,-0.000022,88.819352,0.000029,
2056,2488,-4.37681441876393,-3.41993119405085,-0.0160231406339335,0.004017,0.001094,-0.003653,0.195448,0.064392,323.985477,24.559351,0.999400,0.988900,0.004398,0.368369,0.000008,-0.000027,0.000010,0.000011,-0.000030,15.362649,0.000031,
2071,2473,-4.04782992655918,-3.74893896397086,-0.00538057297598016,0.003923,0.000811,-0.002918,0.188978,0.041064,324.228796,24.458945,0.999397,0.989289,0.004381,0.414518,0.000008,-0.000027,0.000013,0.000012,-0.000031,18.238587,0.000031,
2146,2893,-2.48623396774499,5.39819602226763,-0.0119810290661917,0.003963,0.000672,-0.000776,0.185190,0.042590,317.013860,24.517487,0.999454,0.990372,0.003982,0.415428,-0.000001,-0.000014,0.000000,-0.000001,-0.000014,-1.446612,0.000017,
2236,3238,-0.59000361327552,12.8879713318153,0.0306859007180265,0.003781,0.000763,0.000277,0.173682,0.035032,311.443955,25.155876,0.999634,0.993879,0.003273,0.395048,0.000002,-0.000012,0.000006,0.000004,-0.000014,18.927709,0.000014,
2011,2233,-5.31764128114159,-8.99067230723074,0.000869880506115805,0.003386,0.000885,0.001398,0.152033,0.071151,328.459384,24.870006,0.999298,0.984222,0.004990,0.333856,0.000007,0.000008,0.000002,0.000009,0.000006,51.788220,0.000015,
2281,2173,0.57715193239946,-10.3089606389692,0.00778401087677594,0.003581,0.000806,-0.001391,0.169033,0.051216,328.472779,23.324420,0.999233,0.982220,0.005344,0.475101,-0.000016,-0.000018,0.000008,-0.000009,-0.000025,42.298485,0.000036,
2026,2323,-5.00388337040366,-7.02355999219136,-0.00776870001755015,0.004095,0.000910,-0.003861,0.199097,0.046696,326.893941,24.673172,0.999001,0.984123,0.004971,0.391191,0.000007,-0.000026,-0.000001,0.000007,-0.000026,-2.252014,0.000026,
2086,2698,-3.75931647720467,1.15694901737813,-0.0308157137594662,0.003257,0.001244,-0.002310,0.157099,0.078461,320.266535,24.425191,0.999405,0.991174,0.003768,0.448783,0.000001,-0.000022,0.000005,0.000002,-0.000023,12.629402,0.000025,
2326,2293,1.53678932899976,-7.6786019335229,-0.00314637486752645,0.003949,0.001474,-0.003222,0.192677,0.080828,326.432975,23.498833,0.999053,0.984085,0.004971,0.386788,-0.000030,0.000008,-0.000007,0.000009,-0.000032,-79.624312,0.000033,
2041,2533,-4.7104904332496,-2.43912720164818,-0.0214243095709321,0.003641,0.000986,-0.002489,0.174771,0.048827,323.279909,24.533066,0.999231,0.989097,0.004111,0.391924,0.000014,-0.000004,0.000025,0.000032,-0.000021,34.901518,0.000032,
2491,3148,4.96495177999543,10.9596388106871,0.0188366618984901,0.004038,0.000651,0.001451,0.180388,0.040821,312.873327,26.179368,0.999506,0.990121,0.003780,0.355685,0.000020,0.000002,0.000011,0.000025,-0.000003,25.231246,0.000027,
2431,2833,3.71936529641804,4.11186076861435,-0.0266564847959216,0.003832,0.001177,-0.004211,0.192095,0.045947,317.530211,24.963236,0.999360,0.989275,0.004059,0.284964,-0.000009,-0.000014,-0.000004,-0.000007,-0.000016,-30.128052,0.000023,
2131,2833,-2.80240277109804,4.09499857864276,-0.0221329141063507,0.004051,0.001294,-0.003330,0.197046,0.069363,317.977588,24.515751,0.999538,0.992378,0.003626,0.395671,-0.000005,-0.000024,0.000005,-0.000004,-0.000025,13.551010,0.000031,
2206,3163,-1.22791558807917,11.2603260511037,0.0255349582158715,0.003625,0.000876,-0.001845,0.173288,0.037210,312.705640,24.954803,0.999757,0.995303,0.003033,0.365774,-0.000010,-0.000023,0.000002,-0.000010,-0.000023,7.233830,0.000034,
2191,3028,-1.53118500657766,8.33155764955232,0.00701256743440126,0.003881,0.000751,0.000718,0.176955,0.061329,314.804806,24.721253,0.999565,0.992137,0.003794,0.435871,-0.000006,-0.000026,0.000001,-0.000006,-0.000026,2.297962,0.000034,
2371,2488,2.48086824855337,-3.41564317172459,-0.00718316049238865,0.003850,0.000965,-0.001546,0.182487,0.055698,323.236013,23.796847,0.999550,0.987624,0.004278,0.433295,-0.000004,-0.000025,0.000002,-0.000004,-0.000025,6.029341,0.000032,
2056,2548,-4.38656351088832,-2.11159205891873,-0.025055863766454,0.004117,0.001275,-0.001870,0.195151,0.074564,322.940927,24.466136,0.999358,0.989535,0.004096,0.454765,0.000009,0.000003,0.000027,0.000033,-0.000021,41.834062,0.000034,
2131,2773,-2.79307275417811,2.79059330587968,-0.027872241405305,0.003960,0.001225,-0.002593,0.190542,0.056664,318.898030,24.489920,0.999614,0.992599,0.003484,0.386247,-0.000004,-0.000031,-0.000002,-0.000004,-0.000031,-4.968846,0.000038,
2401,2683,3.09558289890164,0.842839479613815,-0.0279841880163758,0.003957,0.001521,-0.003844,0.196254,0.071395,319.929179,24.407715,0.999407,0.987946,0.004344,0.374181,-0.000006,-0.000001,-0.000010,0.000007,-0.000014,-52.282546,0.000014,
2266,2218,0.242420037790144,-9.32170446956908,0.00722679929742753,0.003969,0.001304,-0.004431,0.197041,0.063690,327.790222,23.598317,0.998723,0.979725,0.005594,0.377769,-0.000024,0.000013,-0.000003,0.000013,-0.000024,-84.680133,0.000024,
2296,2353,0.871783817477702,-6.36780548148998,0.00482675449632097,0.003784,0.000869,-0.000700,0.176278,0.046406,325.533826,23.714680,0.999627,0.988852,0.004122,0.387901,-0.000025,-0.000005,-0.000003,-0.000005,-0.000026,-82.105782,0.000032,
2011,2383,-5.33876514494192,-5.71230859464448,-0.00726017722257666,0.004383,0.001430,-0.002172,0.207870,0.084359,326.034838,24.742594,0.999274,0.988644,0.004279,0.375355,0.000003,0.000022,-0.000016,0.000031,-0.000006,-60.621519,0.000032,
2281,2293,0.555311367465006,-7.67892127090728,-0.00545886777831583,0.004096,0.001026,-0.003479,0.199829,0.043384,326.456765,23.671764,0.999422,0.985374,0.004865,0.361898,-0.000028,0.000003,-0.000004,0.000004,-0.000028,-82.563098,0.000031,
2041,2398,-4.68896446594044,-5.38618229683754,-0.0109321540845713,0.004273,0.000697,-0.000599,0.198360,0.039155,325.569597,24.501262,0.999365,0.988430,0.004191,0.470353,0.000011,-0.000002,-0.000006,0.000013,-0.000004,-22.215395,0.000014,
2071,2518,-4.05553878703785,-2.76551575004862,-0.0232503154725237,0.004128,0.001410,-0.005581,0.206255,0.056012,323.369786,24.456477,0.999419,0.990904,0.003912,0.426394,0.000008,-0.000004,0.000021,0.000023,-0.000020,37.049641,0.000025,
2296,2263,0.887440817605476,-8.33450785213476,-0.00601771285448649,0.003821,0.000983,-0.002089,0.182594,0.062797,326.902449,23.608145,0.999565,0.987778,0.004576,0.318872,-0.000031,-0.000006,-0.000010,-0.000003,-0.000035,-71.330332,0.000042,
2266,2098,0.263146799927501,-11.9507230180461,0.00889458586135561,0.003639,0.000569,-0.000025,0.166978,0.045668,329.706436,23.467567,0.999041,0.981275,0.005420,0.263624,-0.000017,-0.000005,0.000004,-0.000003,-0.000018,72.015325,0.000023,
2506,3238,5.27275720771399,12.9139839942903,0.0181375934569132,0.003981,0.001039,-0.000961,0.187291,0.047308,311.438304,26.553781,0.999462,0.991096,0.003850,0.411089,0.000023,-0.000022,0.000002,0.000023,-0.000022,2.171668,0.000026,
2161,2923,-2.16578522304789,6.05153633186916,-0.00893859988906343,0.003695,0.001016,0.000825,0.168111,0.072023,316.475886,24.620297,0.999246,0.988636,0.004216,0.387957,0.000001,-0.000010,0.000004,0.000003,-0.000011,19.516660,0.000012,
2101,2773,-3.44461440944528,2.78963491470402,-0.0314996281352364,0.004173,0.001064,-0.002569,0.200097,0.062647,319.012768,24.473386,0.999568,0.991076,0.003798,0.390178,-0.000011,-0.000032,-0.000006,-0.000009,-0.000034,-14.296667,0.000045,
2236,3253,-0.592839583874127,13.2133894601918,0.0217935862867762,0.004093,0.000974,-0.001882,0.195252,0.047648,311.144926,25.147523,0.999599,0.993564,0.003285,0.435799,0.000003,-0.000019,0.000012,0.000008,-0.000024,23.003263,0.000025,
2011,2248,-5.31930138358778,-8.66375970821705,0.00148256334051666,0.003707,0.000889,-0.001163,0.173730,0.041546,328.245798,24.794757,0.999110,0.984079,0.005001,0.369597,-0.000003,0.000028,0.000002,0.000028,-0.000003,86.886566,0.000031,
2311,2173,1.23299402932417,-10.308892656675,0.015575831196827,0.004007,0.001011,-0.002629,0.192895,0.058295,328.533902,23.277299,0.999143,0.981986,0.005283,0.369960,-0.000018,-0.000019,-0.000003,-0.000015,-0.000021,-40.393545,0.000037,
2056,2503,-4.38012239187275,-3.09327533815862,-0.0220360821854229,0.003596,0.000845,0.000031,0.165651,0.073484,323.663935,24.448691,0.999441,0.989033,0.004220,0.483983,0.000011,-0.000018,0.000012,0.000016,-0.000023,19.610518,0.000023,
2026,2443,-5.02243239418156,-4.40111506583362,-0.0186437795313168,0.004023,0.001729,-0.003377,0.194883,0.083234,324.865314,24.693622,0.999394,0.989733,0.004134,0.343068,0.000010,-0.000009,0.000002,0.000010,-0.000009,5.436760,0.000011,
2056,2563,-4.38860870549025,-1.78553749463502,-0.0175604523318498,0.003939,0.000951,-0.001408,0.185578,0.062911,322.751751,24.461079,0.999318,0.989013,0.004196,0.443339,0.000012,0.000012,0.000021,0.000033,-0.000009,44.578926,0.000034,
2431,2848,3.71669169512528,4.43735410678635,-0.0219234714026584,0.003862,0.001317,-0.002733,0.188122,0.067411,317.321384,24.935634,0.999361,0.987625,0.004149,0.383664,-0.000010,-0.000015,-0.000011,-0.000001,-0.000024,-38.533475,0.000029,
2236,2053,-0.382495863512414,-12.9390671642694,0.0210167955727911,0.003851,0.001199,-0.003888,0.189391,0.034880,330.606383,23.547761,0.998898,0.977874,0.005635,0.279587,-0.000019,-0.000018,-0.000004,-0.000015,-0.000023,-47.283579,0.000038,
2251,2008,-0.0488077251032273,-13.924857454374,0.00220857528182705,0.003497,0.001234,-0.004696,0.175865,0.053366,331.130620,23.336490,0.999647,0.988038,0.004574,0.332618,-0.000016,-0.000018,-0.000003,-0.000014,-0.000020,-37.782410,0.000034,
2386,2563,2.79260703939572,-1.7756359611206,-0.0185564129862428,0.003931,0.001347,-0.001824,0.187477,0.067704,321.937058,24.077295,0.999553,0.989756,0.004057,0.353481,-0.000009,-0.000030,-0.000004,-0.000008,-0.000030,-9.919075,0.000040,
2041,2548,-4.71295190181346,-2.11174340101515,-0.0283572505221628,0.003986,0.000901,-0.000642,0.185520,0.051379,322.990448,24.502932,0.999508,0.990183,0.003842,0.418166,0.000020,0.000003,0.000024,0.000037,-0.000014,35.018945,0.000037,
2011,2398,-5.34076388236193,-5.38573135479131,-0.00676393927449226,0.004557,0.001155,-0.002022,0.215397,0.049239,325.805482,24.691975,0.999315,0.988188,0.004295,0.380367,0.000001,-0.000007,-0.000023,0.000020,-0.000026,-39.722836,0.000027,
2071,2488,-4.05041708432391,-3.42098564636444,-0.00934031315824768,0.004041,0.001040,-0.000700,0.188208,0.074438,323.952439,24.455748,0.999557,0.990840,0.004114,0.449207,0.000006,-0.000022,0.000013,0.000011,-0.000027,22.188679,0.000027,
2446,2893,4.03278315898236,5.41764608768512,-0.0321441487654965,0.003468,0.000525,-0.000010,0.159701,0.049039,316.498067,25.074293,0.999491,0.991209,0.003799,0.402591,-0.000014,-0.000016,-0.000007,-0.000008,-0.000022,-41.890307,0.000031,
2191,3103,-1.54234521048466,9.9575213121546,0.0268335327945692,0.004298,0.000580,0.000798,0.195868,0.042692,313.765270,24.801453,0.999456,0.992265,0.003654,0.404611,-0.000009,-0.000036,-0.000002,-0.000008,-0.000036,-4.439105,0.000047,
2071,2533,-4.05739672280917,-2.43809013961235,-0.0187492443679957,0.004425,0.001636,-0.003817,0.215038,0.092098,323.173179,24.494328,0.999415,0.990471,0.004010,0.422226,0.000003,-0.000003,0.000029,0.000029,-0.000029,41.907381,0.000033,
2161,2953,-2.1703704636628,6.70202827088828,-0.00316620949041635,0.003610,0.000943,-0.001581,0.171524,0.049727,316.039433,24.598999,0.999495,0.991401,0.003685,0.406132,-0.000001,-0.000009,0.000005,0.000001,-0.000011,24.004893,0.000012,
2131,2848,-2.80574792164219,4.42156776879492,-0.0277741998525016,0.003712,0.000926,-0.000730,0.173587,0.068173,317.663086,24.527235,0.999636,0.992690,0.003500,0.388241,-0.000006,-0.000021,0.000005,-0.000004,-0.000022,16.270714,0.000029,
2116,2728,-3.11232123485344,1.81079705015828,-0.0270525655282654,0.003445,0.000793,0.001980,0.153038,0.062208,319.663567,24.458106,0.999314,0.989525,0.004131,0.403861,0.000003,-0.000035,0.000002,0.000003,-0.000035,3.025298,0.000039,
2206,3298,-1.25266983709068,14.1864328858695,0.0021696996608398,0.004255,0.000384,0.000242,0.195678,0.019109,310.320727,25.051144,0.999392,0.992675,0.003367,0.389156,0.000000,-0.000004,0.000024,0.000021,-0.000026,42.922643,0.000028,
2221,3283,-0.924349696382446,13.864387303017,0.00111483474887564,0.004308,0.001217,-0.006861,0.221279,0.058314,310.541357,25.205449,0.999492,0.992044,0.003469,0.343522,0.000005,-0.000015,0.000027,0.000024,-0.000034,34.817138,0.000035,
2266,2233,0.239551280684307,-8.99301534357565,0.00334818752583033,0.004020,0.001233,-0.004751,0.200444,0.044940,327.519534,23.627326,0.998832,0.978422,0.005581,0.357976,-0.000024,0.000011,-0.000004,0.000012,-0.000024,-83.548434,0.000024,
2506,3253,5.26955879088802,13.2398334244723,0.0142081919751149,0.004211,0.000863,-0.000911,0.197617,0.043434,311.168853,26.634079,0.999687,0.992762,0.003514,0.386424,0.000021,-0.000019,0.000001,0.000021,-0.000019,1.105003,0.000024,
2416,2743,3.41025754622632,2.15020343105717,-0.0265141699432547,0.003718,0.000944,-0.002005,0.178475,0.043555,318.964440,24.566656,0.999494,0.989860,0.003965,0.374789,-0.000008,-0.000013,-0.000002,-0.000007,-0.000014,-19.492852,0.000021,
2341,2353,1.85370407869293,-6.36626962811037,-0.00241143912626285,0.004368,0.001978,-0.008748,0.231442,0.062504,325.504978,23.582562,0.999331,0.986393,0.004627,0.376905,-0.000028,0.000006,0.000005,0.000007,-0.000029,81.749063,0.000030,
2296,2368,0.869131050656158,-6.04029874205064,0.0061552642827678,0.003594,0.001195,-0.002845,0.174929,0.052881,325.301255,23.710155,0.999356,0.985746,0.004668,0.430444,-0.000029,-0.000002,-0.000002,-0.000002,-0.000029,-86.707343,0.000034,
2026,2338,-5.00629113324487,-6.69651768905337,-0.00331386885574148,0.003752,0.000905,-0.001886,0.177914,0.053079,326.668749,24.643188,0.999071,0.986076,0.004674,0.419583,0.000003,-0.000029,-0.000005,0.000004,-0.000030,-8.634356,0.000032,
2176,3043,-1.85840169366755,8.65699320003295,0.0154719811584982,0.004239,0.001085,0.001407,0.191445,0.067159,314.693708,24.821663,0.999720,0.995113,0.003187,0.305629,0.000001,-0.000032,0.000001,0.000001,-0.000033,1.581439,0.000037,
2251,2023,-0.0505674660426116,-13.5970013928221,0.0193864546303644,0.003394,0.001099,-0.000935,0.158877,0.056883,331.015695,23.426226,0.999251,0.981807,0.005356,0.272565,-0.000024,-0.000013,0.000000,-0.000013,-0.000024,-89.029875,0.000037,
2086,2713,-3.76121060380347,1.4826017441077,-0.0261616416848938,0.003615,0.000854,0.000451,0.165472,0.064077,320.070910,24.405101,0.999396,0.990631,0.003849,0.453741,-0.000001,-0.000021,0.000001,-0.000001,-0.000022,2.288683,0.000026,
2116,2848,-3.13093916773228,4.41984229176832,-0.0200487771057283,0.003809,0.000869,0.001428,0.171592,0.063249,317.791912,24.482820,0.999688,0.992910,0.003453,0.407281,-0.000010,-0.000017,0.000003,-0.000009,-0.000019,20.771122,0.000028,
2326,2308,1.53401941677669,-7.35013188949603,-0.0041575847373565,0.004147,0.001215,-0.001762,0.196658,0.066043,326.186126,23.561311,0.999017,0.983585,0.005057,0.345980,-0.000029,0.000002,-0.000002,0.000002,-0.000029,-86.871564,0.000033,
2101,2668,-3.4280136039732,0.504229385294735,-0.0318320275778206,0.003952,0.000994,-0.003130,0.191418,0.049569,320.704645,24.418713,0.999515,0.990617,0.003824,0.421761,-0.000002,-0.000014,0.000010,0.000003,-0.000020,30.082396,0.000021,
2371,2503,2.4778040689141,-3.08739475509812,-0.00904041341061657,0.003917,0.000883,-0.000040,0.180245,0.057855,322.974663,23.881224,0.999537,0.988227,0.004288,0.393201,-0.000006,-0.000014,0.000005,-0.000004,-0.000017,24.534256,0.000022,
2281,2188,0.57489133711508,-9.97968905932629,0.0138888486724795,0.003743,0.000759,0.000976,0.168575,0.056078,328.280886,23.471712,0.998729,0.979222,0.005745,0.363003,-0.000020,-0.000001,0.000002,-0.000001,-0.000020,82.878207,0.000024,
2461,2968,4.34723901507204,7.0482498919752,-0.00843809030982356,0.004484,0.000877,-0.001160,0.210857,0.050709,315.552035,25.392281,0.999473,0.990401,0.003996,0.381991,-0.000009,-0.000048,0.000005,-0.000009,-0.000048,6.727561,0.000061,
2251,2128,-0.0689516063632034,-11.294064796855,0.0128408844359456,0.003666,0.001284,-0.003449,0.179699,0.043140,329.294048,23.532913,0.998752,0.979177,0.005610,0.338706,-0.000014,-0.000009,0.000000,-0.000009,-0.000014,-86.264868,0.000023,
2506,3268,5.26582912228399,13.5659647129115,0.0107560107239806,0.004188,0.000481,0.002899,0.181694,0.041226,310.876836,26.745769,0.999859,0.995596,0.002815,0.332057,0.000024,-0.000017,0.000009,0.000026,-0.000019,12.102349,0.000027,
2296,2278,0.885439045477607,-8.0076241211444,0.00135103912811019,0.004013,0.000895,-0.001748,0.190208,0.069033,326.729844,23.578730,0.999481,0.986383,0.004632,0.386470,-0.000029,-0.000003,-0.000011,0.000001,-0.000034,-69.859193,0.000038,
2191,3223,-1.56294135591809,12.5594552470271,0.032337044270605,0.004140,0.000642,0.001565,0.186321,0.049133,311.838642,24.955194,0.999705,0.994728,0.003144,0.363429,-0.000007,-0.000007,0.000002,-0.000005,-0.000009,46.513156,0.000015,
2476,3028,4.66140923202351,8.35326184479884,0.000803146855560044,0.003785,0.000947,0.000672,0.171932,0.073688,314.642220,25.662471,0.999741,0.992762,0.003393,0.396136,0.000006,-0.000023,0.000009,0.000008,-0.000025,15.579086,0.000026,
2071,2623,-4.07235458561711,-0.47665760240632,-0.0312080234793939,0.004273,0.001213,-0.003138,0.206065,0.068035,321.605179,24.426309,0.999163,0.989294,0.004161,0.452353,0.000003,-0.000007,0.000011,0.000010,-0.000015,33.066438,0.000015,
2401,2698,3.09169800080217,1.17004486268932,-0.0362728409992314,0.003748,0.001303,-0.002630,0.182179,0.061684,319.601666,24.420709,0.999493,0.989775,0.004029,0.397364,-0.000007,0.000005,-0.000009,0.000009,-0.000012,-61.396348,0.000012,
2131,2788,-2.79545006685974,3.11629658850723,-0.0234501789719275,0.003846,0.000932,-0.001151,0.180940,0.065244,318.681926,24.471322,0.999597,0.993103,0.003370,0.419130,-0.000009,-0.000027,0.000001,-0.000009,-0.000028,4.113022,0.000038,
2041,2563,-4.71471366806295,-1.78533125039381,-0.0230544437189906,0.004108,0.000968,-0.001750,0.194259,0.060937,322.801005,24.490070,0.999508,0.990158,0.003846,0.433915,0.000022,0.000017,0.000018,0.000038,0.000002,40.687826,0.000045,
2026,2458,-5.02546348534538,-4.07438578080173,-0.0283375161826029,0.003913,0.001314,-0.001555,0.184680,0.072828,324.533163,24.558636,0.999486,0.990018,0.004015,0.459532,0.000011,-0.000026,-0.000002,0.000012,-0.000026,-3.131684,0.000026,
2056,2578,-4.39075044440328,-1.45790182939149,-0.0236904076621158,0.004439,0.001333,-0.002053,0.210545,0.077300,322.482677,24.459688,0.999060,0.988808,0.004280,0.454694,0.000006,-0.000004,0.000012,0.000013,-0.000012,33.397247,0.000015,
2086,2608,-3.74429407545766,-0.802819453485931,-0.0241233418240085,0.003676,0.001188,-0.002032,0.175483,0.080387,321.798189,24.472283,0.999093,0.988254,0.004356,0.406347,0.000006,0.000002,0.000016,0.000020,-0.000013,41.703094,0.000020,
2146,2863,-2.48218172346648,4.74764029253024,-0.0243335594719269,0.004034,0.000632,0.002041,0.179911,0.056369,317.392948,24.524357,0.999512,0.992297,0.003546,0.407317,-0.000001,-0.000019,-0.000003,-0.000001,-0.000019,-9.065441,0.000023,
2101,2788,-3.44686310768686,3.11470797054272,-0.0212049765333404,0.003947,0.000848,0.001758,0.177014,0.067599,318.832570,24.445707,0.999616,0.991159,0.003792,0.423882,-0.000015,-0.000027,-0.000003,-0.000015,-0.000028,-11.966636,0.000043,
2506,3283,5.26229141183213,13.8908533541063,0.00446343855037412,0.004079,0.000473,0.000644,0.185342,0.024162,310.581229,26.746220,0.999860,0.995934,0.002673,0.374086,0.000032,-0.000026,0.000018,0.000037,-0.000031,15.619373,0.000040,
2416,2758,3.4074593362382,2.47684208615905,-0.0270213564232904,0.003778,0.001326,-0.003588,0.187207,0.056810,318.724522,24.586464,0.999466,0.988894,0.004132,0.416207,-0.000005,-0.000007,0.000000,-0.000005,-0.000007,14.526932,0.000012,
2056,2518,-4.38175751516565,-2.76606188875968,-0.0187742673871867,0.003832,0.001307,-0.003604,0.186874,0.062972,323.469861,24.497422,0.999330,0.989462,0.004162,0.420280,0.000008,-0.000006,0.000017,0.000019,-0.000018,34.086967,0.000021,
2251,2038,-0.0528451233067315,-13.2678550687164,0.0177174820927348,0.003886,0.001137,-0.000516,0.180090,0.048107,330.782100,23.437360,0.999151,0.979058,0.005519,0.279463,-0.000027,-0.000003,-0.000001,-0.000003,-0.000027,-87.004358,0.000033,
2491,3163,4.96189560381635,11.2849656160695,0.0187956847303781,0.003876,0.000773,-0.000634,0.180952,0.028222,312.627560,26.218725,0.999540,0.991237,0.003616,0.361427,0.000018,0.000016,0.000007,0.000025,0.000010,41.862222,0.000036,
2161,2938,-2.16791716381208,6.37663769075417,-0.00512610244567213,0.003846,0.000750,0.001052,0.174259,0.049869,316.269988,24.611940,0.999385,0.989376,0.004086,0.383742,0.000000,-0.000006,0.000004,0.000002,-0.000008,25.358887,0.000008,
2221,3298,-0.927998399243307,14.1885705930824,-0.00011231353715857,0.003954,0.000648,0.001097,0.179155,0.043758,310.243463,25.166376,0.999468,0.992565,0.003347,0.385214,0.000009,-0.000002,0.000027,0.000031,-0.000024,39.482077,0.000032,
2356,2428,2.16513316590379,-4.72723926262588,-0.0126441500130454,0.003967,0.001459,-0.003758,0.195745,0.079697,324.171400,23.546030,0.999470,0.989790,0.004280,0.580745,-0.000020,-0.000012,-0.000004,-0.000010,-0.000022,-68.333355,0.000033,
2236,2068,-0.384554611150929,-12.6105957227196,0.0265236822547763,0.004013,0.001290,-0.003606,0.195946,0.053102,330.417707,23.560836,0.999091,0.979678,0.005454,0.308705,-0.000016,-0.000017,0.000000,-0.000016,-0.000017,23.853427,0.000033,
2431,2863,3.71421050772463,4.76328350508795,-0.0176286433062955,0.004105,0.000962,-0.001511,0.194635,0.057068,317.119262,24.980319,0.999550,0.990206,0.003760,0.378304,-0.000011,-0.000012,-0.000013,0.000002,-0.000025,-43.633150,0.000028,
2011,2413,-5.34368539010693,-5.0587117686562,-0.00769708835656502,0.003881,0.000997,-0.002141,0.184627,0.053189,325.525717,24.634376,0.999186,0.987999,0.004374,0.431635,-0.000006,-0.000015,-0.000014,0.000004,-0.000025,-35.246713,0.000027,
2386,2578,2.78971197802611,-1.44895664769815,-0.0176463660056925,0.003928,0.000796,-0.000924,0.183946,0.060040,321.697865,24.077420,0.999464,0.988048,0.004358,0.389712,-0.000006,-0.000012,-0.000003,-0.000004,-0.000013,-23.987647,0.000018,
2056,2593,-4.39394018071761,-1.12949014083615,-0.0312507235310022,0.004181,0.000902,0.000426,0.191546,0.061441,322.157645,24.552876,0.998780,0.987945,0.004383,0.341111,0.000002,0.000007,0.000016,0.000021,-0.000011,49.583368,0.000021,
2131,2863,-2.80732127507111,4.74646303776704,-0.0142819751305865,0.003855,0.000929,0.001329,0.173974,0.066656,317.532603,24.531778,0.999613,0.992202,0.003544,0.387348,-0.000004,-0.000023,-0.000001,-0.000004,-0.000023,-3.041885,0.000030,
2026,2353,-5.00839420570324,-6.3676212955637,-0.0111616309932288,0.004132,0.001144,-0.005405,0.205135,0.056778,326.388634,24.669466,0.999088,0.986451,0.004768,0.389238,0.000000,-0.000012,0.000002,0.000000,-0.000013,9.712858,0.000014,
2311,2188,1.23079525549106,-9.98136598676794,0.0262625712293243,0.003796,0.000934,-0.002046,0.181206,0.056322,328.369709,23.320279,0.999112,0.981506,0.005218,0.359489,-0.000020,0.000000,-0.000005,0.000001,-0.000021,-76.447114,0.000024,
2266,2248,0.236418475583687,-8.66453640808589,0.00249358404090572,0.004073,0.000646,0.001590,0.181740,0.049137,327.251785,23.651087,0.998978,0.981718,0.005311,0.366444,-0.000023,-0.000002,-0.000006,-0.000001,-0.000025,-75.148647,0.000029,
2491,3178,4.96010793915054,11.6099908186835,0.0297158666047608,0.004085,0.000835,-0.002450,0.197639,0.038036,312.489831,26.276617,0.999611,0.990737,0.003745,0.370878,0.000019,0.000022,0.000009,0.000030,0.000012,49.368237,0.000043,
2326,2323,1.53057058411873,-7.02161303986105,-0.00944553482798938,0.003592,0.001686,-0.005508,0.184293,0.073092,325.887172,23.569423,0.999006,0.981885,0.005316,0.381663,-0.000030,0.000001,0.000006,0.000002,-0.000031,79.533657,0.000035,
2071,2548,-4.06033385988181,-2.11117424517138,-0.0247521679088436,0.004239,0.001363,-0.002997,0.204074,0.084182,322.870050,24.440570,0.999473,0.990871,0.003985,0.466052,0.000006,0.000002,0.000032,0.000036,-0.000027,42.993786,0.000037,
2446,2908,4.03057704966104,5.74355214284186,-0.0236645890145155,0.003606,0.000808,0.000492,0.164248,0.050831,316.328660,25.147688,0.999494,0.990648,0.003868,0.382475,-0.000014,-0.000023,-0.000004,-0.000012,-0.000025,-20.478992,0.000038,
2176,3163,-1.87772557191853,11.2574868575822,0.0318170968249092,0.004203,0.000481,-0.000488,0.195596,0.042675,312.875129,24.819366,0.999815,0.996318,0.002888,0.373288,-0.000003,-0.000022,0.000001,-0.000003,-0.000022,2.375675,0.000027,
2281,2203,0.572359432134455,-9.65054498590717,0.00777286573628544,0.004122,0.000913,-0.002135,0.196388,0.041808,328.015895,23.502996,0.998632,0.979425,0.005692,0.347929,-0.000024,0.000011,-0.000001,0.000011,-0.000024,-88.052470,0.000024,
2116,2863,-3.13290328207275,4.74533637291611,-0.0116786247460254,0.003899,0.000788,0.003817,0.168640,0.062962,317.615123,24.502428,0.999658,0.992015,0.003601,0.390469,-0.000008,-0.000019,-0.000002,-0.000008,-0.000020,-8.725017,0.000028,
2341,2368,1.84957073794688,-6.03719819344622,-0.0132779962751783,0.004256,0.001614,-0.003769,0.208898,0.084159,325.148758,23.589007,0.999169,0.985514,0.004714,0.431195,-0.000026,0.000004,0.000007,0.000006,-0.000027,77.687372,0.000029,
2251,2143,-0.0713725145170692,-10.9656277581213,0.0145176305150585,0.003909,0.000597,-0.001302,0.183606,0.039233,329.070616,23.549741,0.998771,0.981068,0.005428,0.344221,-0.000018,-0.000014,0.000004,-0.000011,-0.000021,59.238904,0.000032,
2161,2968,-2.17253250775664,7.02811125096103,-0.00249293793507377,0.003986,0.000768,-0.000769,0.186378,0.053885,315.815216,24.640401,0.999636,0.992955,0.003383,0.378188,0.000002,-0.000014,0.000003,0.000002,-0.000015,9.757473,0.000016,
2281,2308,0.553014308326414,-7.35142533745932,0.00143239952899421,0.003959,0.001009,-0.003847,0.194794,0.051553,326.267100,23.700645,0.999306,0.983202,0.005217,0.370887,-0.000028,-0.000005,-0.000001,-0.000005,-0.000028,-87.466861,0.000036,
2131,2923,-2.81622459254213,6.04901742107188,-0.00827906724322247,0.004080,0.001076,-0.004167,0.200898,0.050400,316.633789,24.515795,0.999233,0.989189,0.004192,0.407971,-0.000001,-0.000016,0.000001,-0.000001,-0.000016,3.325469,0.000019,
2506,3298,5.25937743160782,14.216233343227,0.00613722858571464,0.003906,0.000844,-0.001758,0.186908,0.035357,310.349919,26.811115,0.999783,0.993653,0.003165,0.380199,0.000032,-0.000036,0.000010,0.000033,-0.000038,7.963140,0.000041,
2116,2743,-3.11504786981049,2.138524690726,-0.0366205400537751,0.003599,0.000919,-0.000653,0.167969,0.051556,319.354739,24.520299,0.999365,0.989981,0.004065,0.334519,-0.000004,-0.000037,0.000004,-0.000003,-0.000038,6.821255,0.000045,
2041,2413,-4.69205915331789,-5.05653960546548,-0.0223276488361535,0.004035,0.001292,-0.002192,0.192075,0.066506,325.225780,24.561838,0.999066,0.984232,0.004790,0.431444,0.000007,-0.000011,-0.000003,0.000007,-0.000012,-8.098207,0.000012,
2266,2113,0.261624976303256,-11.6224899352723,0.0149982500205965,0.003652,0.002064,-0.009256,0.198555,0.062287,329.547483,23.483321,0.999030,0.980776,0.005437,0.292690,-0.000016,-0.000005,0.000005,-0.000003,-0.000018,67.265716,0.000023,
2251,2053,-0.0551641237324283,-12.9390157605886,0.0192614453395663,0.003935,0.001210,-0.002514,0.188881,0.049751,330.562746,23.451707,0.999022,0.979400,0.005488,0.293448,-0.000027,-0.000004,-0.000002,-0.000004,-0.000028,-84.966769,0.000034,
2086,2623,-3.74699932705188,-0.476686972619476,-0.0289310160541163,0.003837,0.000833,0.001193,0.173445,0.064106,321.513789,24.391559,0.999135,0.988837,0.004275,0.470600,0.000006,-0.000012,0.000008,0.000009,-0.000015,20.676364,0.000015,
2146,2908,-2.48819980358659,5.72400326484829,-0.00831592843002227,0.004135,0.000801,-0.002526,0.198500,0.045160,316.813569,24.540291,0.999359,0.989236,0.004129,0.402421,-0.000001,-0.000019,-0.000002,-0.000001,-0.000020,-4.881029,0.000023,
2011,2428,-5.34619229713067,-4.73121134576861,-0.00545141620978029,0.003632,0.000898,0.001035,0.164571,0.080306,325.282508,24.632587,0.999072,0.986666,0.004575,0.450220,0.000000,0.000007,0.000002,0.000008,-0.000001,76.158139,0.000009,
2491,3193,4.95745270357553,11.9349573302136,0.0377664568561613,0.004029,0.000809,0.000054,0.185469,0.045507,312.299078,26.317038,0.999501,0.991373,0.003704,0.395590,0.000022,0.000017,0.000011,0.000031,0.000009,39.187688,0.000041,
2071,2638,-4.07448227690832,-0.14958485539546,-0.0245325750470329,0.004139,0.001433,-0.002019,0.196782,0.085368,321.408365,24.500341,0.998960,0.987204,0.004512,0.392822,0.000007,-0.000006,0.000016,0.000018,-0.000017,34.403621,0.000020,
2191,3118,-1.54480835684295,10.2823333390258,0.0338390689193488,0.004120,0.000426,0.003351,0.179535,0.032864,313.562720,24.817702,0.999452,0.992458,0.003643,0.391801,-0.000010,-0.000032,-0.000002,-0.000010,-0.000033,-6.239581,0.000045,
2191,3238,-1.56479069039486,12.8831709949927,0.0415136421498232,0.004119,0.000659,-0.000521,0.191799,0.026036,311.675986,24.922198,0.999756,0.994541,0.003097,0.386383,-0.000008,-0.000010,0.000004,-0.000005,-0.000014,38.129298,0.000019,
2296,2293,0.882538026847623,-7.67893564258441,0.00335691581960873,0.003780,0.000948,-0.000500,0.175385,0.062531,326.489303,23.677334,0.999420,0.985871,0.004678,0.313487,-0.000028,0.000006,-0.000007,0.000007,-0.000029,-79.267439,0.000030,
2026,2368,-5.01061699499671,-6.04055279510006,-0.00738892039305483,0.003992,0.001511,-0.003848,0.194573,0.090674,326.168026,24.617529,0.999151,0.987213,0.004673,0.467079,0.000015,0.000013,0.000000,0.000016,0.000013,-9.421744,0.000029,
2176,3058,-1.86042526406911,8.98036307019828,0.0228742643542432,0.004364,0.000546,0.002789,0.192737,0.047056,314.513135,24.704517,0.999710,0.995097,0.003186,0.413983,0.000005,-0.000034,-0.000003,0.000005,-0.000034,-5.009586,0.000037,
2056,2533,-4.38367031477192,-2.43987125227916,-0.0115148981792004,0.004029,0.001100,0.000649,0.183951,0.091291,323.285241,24.453982,0.999132,0.988073,0.004360,0.487596,0.000005,-0.000003,0.000027,0.000029,-0.000026,40.768463,0.000032,
2461,2983,4.34409602810015,7.37497354934811,-0.00783289964363121,0.004136,0.001098,-0.003337,0.203179,0.052948,315.303657,25.503319,0.999479,0.990354,0.003949,0.326755,-0.000005,-0.000036,0.000007,-0.000004,-0.000038,12.359667,0.000046,
2236,2083,-0.387832853528316,-12.2797158507028,0.0171972799335549,0.003970,0.001618,-0.004022,0.195440,0.077175,330.097696,23.629059,0.999395,0.981940,0.005230,0.289578,-0.000011,-0.000007,0.000001,-0.000007,-0.000011,74.494139,0.000018,
2026,2473,-5.02803152117083,-3.7472522424538,-0.0260050694052438,0.003572,0.000793,0.000599,0.162940,0.057482,324.289061,24.582418,0.999076,0.985366,0.004698,0.411802,0.000023,-0.000050,0.000003,0.000023,-0.000050,2.347028,0.000050,
2311,2203,1.22747276733642,-9.6517166011655,0.014982233591013,0.003949,0.000976,-0.003619,0.193623,0.045913,328.046105,23.339452,0.998855,0.979394,0.005591,0.364928,-0.000023,0.000011,-0.000006,0.000012,-0.000024,-79.802724,0.000024,
2416,2773,3.40481519683263,2.80272739058672,-0.0234760072119116,0.003786,0.001169,-0.003689,0.187880,0.045718,318.510817,24.597610,0.999469,0.988568,0.004210,0.441655,-0.000010,-0.000011,-0.000006,-0.000004,-0.000016,-42.810072,0.000022,
2101,2803,-3.4495192510348,3.44088710515742,-0.0243725457272603,0.003912,0.000601,0.001895,0.174883,0.042370,318.560608,24.449220,0.999509,0.991824,0.003665,0.396404,-0.000011,-0.000028,0.000001,-0.000010,-0.000028,3.434450,0.000040,
2176,3178,-1.87980108094163,11.5813677069837,0.0423051019734544,0.004124,0.000532,0.001529,0.185629,0.036484,312.708191,24.779743,0.999753,0.995096,0.003090,0.417919,-0.000005,-0.000021,0.000002,-0.000005,-0.000021,9.026521,0.000028,
2206,3208,-1.23523779051901,12.2351444676694,0.0317853722483505,0.003850,0.000661,-0.000121,0.178289,0.054231,312.026607,24.957242,0.999623,0.994333,0.003280,0.426729,-0.000008,-0.000020,0.000008,-0.000004,-0.000024,27.361695,0.000030,
2011,2443,-5.34808096912947,-4.4024410291284,-0.00701898086236952,0.003921,0.001373,-0.001072,0.183726,0.095238,325.045936,24.727880,0.999348,0.989699,0.004126,0.359126,0.000000,-0.000009,0.000003,0.000002,-0.000011,17.392271,0.000011,
2041,2428,-4.69442284781552,-4.72888863108079,-0.0218837221467538,0.003840,0.001244,-0.003238,0.185999,0.063127,324.981476,24.588883,0.998957,0.983944,0.004890,0.394943,0.000012,0.000002,0.000015,0.000023,-0.000009,35.680601,0.000023,
2161,2983,-2.17555617639842,7.35427751466171,-0.0061319212116473,0.003865,0.000861,0.001157,0.174920,0.061769,315.528637,24.660429,0.999556,0.993120,0.003435,0.375565,0.000002,-0.000018,0.000004,0.000002,-0.000019,10.349714,0.000021,
2011,2923,-5.41957308685566,6.04225986761669,-0.00355291252742518,0.003973,0.000932,0.000221,0.182983,0.058485,317.305129,24.311904,0.999361,0.992753,0.003389,0.367941,0.000006,-0.000036,-0.000018,0.000012,-0.000042,-20.208521,0.000044,
2296,2383,0.86590796839317,-5.71051655434017,-0.00545768830102134,0.003802,0.001082,-0.005058,0.191919,0.043890,324.978192,23.809448,0.999026,0.982222,0.005317,0.354316,-0.000029,-0.000001,-0.000005,-0.000001,-0.000030,-80.559534,0.000034,
2341,2383,1.84605760656739,-5.70864412774218,-0.0145674978728607,0.003775,0.001121,-0.002218,0.181295,0.068132,324.867480,23.684538,0.999399,0.985758,0.004718,0.358050,-0.000022,0.000004,0.000000,0.000004,-0.000022,-89.472131,0.000023,
2116,2758,-3.11599220633342,2.46332105066966,-0.023321789453405,0.003965,0.001344,-0.004572,0.196615,0.063298,319.251281,24.477206,0.999491,0.990892,0.003823,0.392778,-0.000009,-0.000039,-0.000002,-0.000009,-0.000039,-3.326734,0.000051,
2266,2263,0.234545674610832,-8.33688248601536,0.0174195517376461,0.003918,0.000532,0.003438,0.168496,0.046948,327.120882,23.771777,0.999650,0.989005,0.004412,0.271089,-0.000024,-0.000006,-0.000006,-0.000004,-0.000026,-72.700429,0.000033,
2491,3208,4.95401857079321,12.261178043626,0.0317449681809308,0.004145,0.000874,-0.000230,0.191915,0.042194,312.008313,26.405223,0.999330,0.992240,0.003701,0.361598,0.000025,0.000010,0.000005,0.000027,0.000008,17.681702,0.000036,
2281,2323,0.550537451964605,-7.02277835839851,0.000215773710408484,0.004226,0.001462,-0.004387,0.209025,0.042017,326.028712,23.776202,0.999174,0.982241,0.005276,0.315614,-0.000023,-0.000007,0.000003,-0.000007,-0.000024,78.789368,0.000032,
2041,2578,-4.71715689643218,-1.45857238388068,-0.0287696200259688,0.004325,0.000632,-0.001146,0.202501,0.051942,322.519354,24.435404,0.999135,0.989534,0.004118,0.472891,0.000016,0.000000,0.000008,0.000019,-0.000003,22.856909,0.000021,
2146,2923,-2.49068523330502,6.04971580953406,-0.00319225053442551,0.003872,0.000998,-0.001570,0.183555,0.062196,316.597192,24.554178,0.999114,0.986197,0.004545,0.412835,0.000001,-0.000013,0.000000,0.000001,-0.000013,0.987393,0.000015,
2221,1993,-0.698709654272232,-14.2564669466263,0.0342042256893365,0.003840,0.001721,-0.004625,0.191175,0.079830,331.713755,23.574444,0.999660,0.988550,0.004502,0.304091,-0.000008,-0.000074,-0.000017,-0.000004,-0.000078,-13.548689,0.000092,
2056,2608,-4.39623671200497,-0.804409865429008,-0.0248708645918327,0.003760,0.000739,-0.000104,0.173621,0.047117,321.951156,24.464688,0.999088,0.989244,0.004160,0.410214,0.000004,0.000012,0.000016,0.000024,-0.000009,52.450844,0.000024,
2281,2218,0.569349932778191,-9.32097867579014,0.00164775563035846,0.003857,0.001555,-0.007554,0.202550,0.062948,327.728717,23.543625,0.998969,0.980352,0.005456,0.359039,-0.000023,0.000015,-0.000004,0.000015,-0.000024,-84.436854,0.000024,
2146,2998,-2.5021739023966,7.6776096574073,0.00622063241775095,0.004109,0.001338,-0.004043,0.202155,0.064964,315.472631,24.586297,0.999622,0.993142,0.003442,0.419577,-0.000001,-0.000018,0.000000,-0.000001,-0.000018,1.574757,0.000022,
2041,2443,-4.69565460344421,-4.4030616954969,-0.0105466789275965,0.004102,0.001427,-0.004384,0.201274,0.051218,324.849696,24.564139,0.998888,0.982677,0.005193,0.401210,0.000001,-0.000015,0.000010,0.000006,-0.000020,24.542692,0.000020,
2086,2638,-3.74902279680051,-0.149512481721914,-0.0246059200707123,0.004008,0.000847,0.002793,0.176747,0.074567,321.309896,24.462043,0.999150,0.988317,0.004279,0.410147,0.000010,-0.000011,0.000012,0.000015,-0.000017,24.339718,0.000019,
2086,2728,-3.76322635662985,1.80952236315812,-0.0277308853569593,0.003943,0.001154,-0.001624,0.186705,0.074698,319.835426,24.430308,0.999337,0.989929,0.003997,0.438355,-0.000005,-0.000031,0.000000,-0.000005,-0.000031,0.461183,0.000039,
2161,3073,-2.18811957197804,9.30456026877901,0.025397191832667,0.004130,0.001108,-0.002730,0.199178,0.055501,314.349280,24.654797,0.999594,0.994173,0.003349,0.430023,0.000007,-0.000032,-0.000005,0.000008,-0.000033,-7.708301,0.000034,
2236,1993,-0.371606031377116,-14.2574245763963,0.030317577321739,0.003887,0.001168,-0.001317,0.182627,0.062996,331.641010,23.392303,0.999658,0.988483,0.004578,0.363897,-0.000015,-0.000049,-0.000031,0.000003,-0.000067,-30.544344,0.000076,
2266,2128,0.25873061708506,-11.2938781832592,0.0101617990840168,0.004011,0.001421,-0.005833,0.203502,0.054520,329.271056,23.444421,0.998972,0.980628,0.005425,0.352637,-0.000015,-0.000007,0.000004,-0.000006,-0.000016,68.215251,0.000023,
2191,3133,-1.54723353436039,10.6086671737534,0.0294176485127764,0.004325,0.000844,-0.000522,0.201431,0.057670,313.301740,24.872312,0.999433,0.992508,0.003677,0.375447,-0.000010,-0.000031,-0.000002,-0.000010,-0.000031,-4.508771,0.000043,
2101,2683,-3.43041228126288,0.830385195003686,-0.0306690568769454,0.003828,0.001109,-0.003819,0.187790,0.049989,320.467825,24.393267,0.999466,0.991335,0.003717,0.449122,-0.000002,-0.000019,0.000006,0.000000,-0.000021,16.552222,0.000025,
2056,2668,-4.40467590831953,0.502311054845421,-0.0255709132475772,0.004335,0.001224,-0.004590,0.212948,0.042043,321.013246,24.465758,0.999339,0.989771,0.004096,0.384862,-0.000015,-0.000001,0.000012,0.000005,-0.000022,60.808160,0.000022,
2041,2593,-4.71901526064709,-1.1307603641476,-0.0263904620753124,0.004498,0.001237,-0.002882,0.215494,0.065284,322.308937,24.530408,0.998954,0.989399,0.004196,0.384511,0.000010,0.000012,0.000014,0.000025,-0.000003,47.204465,0.000027,
2491,3223,4.95087984129686,12.5872874717695,0.0271910979356562,0.004313,0.001017,-0.001941,0.206312,0.049002,311.737737,26.486047,0.999345,0.991691,0.003786,0.345266,0.000027,-0.000017,0.000005,0.000028,-0.000017,5.945322,0.000028,
2131,2938,-2.81790456568722,6.37487906169624,0.00162285873608425,0.004425,0.000959,-0.001166,0.207809,0.060947,316.478952,24.586989,0.999621,0.992235,0.003687,0.352428,0.000000,-0.000010,0.000002,0.000000,-0.000010,12.077984,0.000012,
2071,2653,-4.07729316557599,0.17717981739235,-0.031482139316779,0.004154,0.001080,-0.001175,0.194963,0.067745,321.105909,24.470622,0.999234,0.989069,0.004177,0.402583,-0.000006,0.000000,0.000012,0.000009,-0.000015,52.448839,0.000015,
2371,2518,2.47469177300487,-2.76042625713337,-0.011184392978862,0.003900,0.000638,0.000802,0.176395,0.050217,322.709944,23.860596,0.999455,0.986792,0.004602,0.448417,-0.000009,-0.000017,0.000004,-0.000007,-0.000019,20.095294,0.000027,
2026,2383,-5.01283444315291,-5.71286921485311,-0.00406774216116901,0.003874,0.001483,-0.002603,0.185761,0.087526,325.945174,24.658786,0.999392,0.989722,0.004012,0.414586,0.000021,0.000021,-0.000011,0.000032,0.000010,-44.316981,0.000044,
2041,2458,-4.69850779242616,-4.07599080641091,-0.0123944662739177,0.003737,0.001067,-0.002473,0.179122,0.051987,324.570506,24.521769,0.999019,0.982671,0.005186,0.438270,0.000003,-0.000026,0.000005,0.000004,-0.000027,9.011700,0.000029,
2146,2938,-2.49294950271665,6.37620422898001,-0.00449532403428066,0.004116,0.001028,-0.002781,0.198467,0.053200,316.356615,24.623456,0.999422,0.989812,0.003999,0.341998,0.000001,-0.000007,0.000002,0.000001,-0.000007,12.409117,0.000008,
2131,2878,-2.80912780146564,5.0703587438757,-0.0031408322810762,0.003799,0.000776,0.001588,0.170573,0.058919,317.379211,24.435866,0.999646,0.991806,0.003529,0.480739,0.000000,-0.000013,-0.000003,0.000000,-0.000014,-11.707739,0.000016,
2206,3223,-1.23876749356449,12.5617336596057,0.020752885967056,0.003730,0.000487,0.000152,0.171776,0.037343,311.681537,25.064716,0.999800,0.995926,0.002906,0.317607,-0.000007,-0.000009,0.000007,-0.000001,-0.000015,40.585968,0.000017,
2296,2308,0.879311298321607,-7.3518223196314,-0.00295533397678582,0.003739,0.000546,-0.000429,0.173126,0.051109,326.192975,23.558692,0.999319,0.984737,0.004983,0.452884,-0.000028,-0.000002,-0.000003,-0.000002,-0.000028,-83.907503,0.000034,
2251,2068,-0.057444016828196,-12.6100014634048,0.0208090223722479,0.003975,0.001878,-0.005162,0.199555,0.082584,330.344984,23.456165,0.999187,0.981485,0.005203,0.348400,-0.000025,-0.000002,0.000002,-0.000002,-0.000025,85.859891,0.000030,
2251,2158,-0.0738350408468129,-10.636932765863,0.0173291099553694,0.003622,0.001424,-0.004766,0.182049,0.070144,328.850763,23.572592,0.998447,0.980443,0.005454,0.378244,-0.000019,-0.000016,0.000004,-0.000013,-0.000022,56.208595,0.000035,
2056,2623,-4.39778106848172,-0.477609309741013,-0.025767129788278,0.004321,0.001073,-0.004295,0.211397,0.048671,321.738527,24.459942,0.999282,0.990904,0.003898,0.411791,0.000004,-0.000005,0.000007,0.000008,-0.000009,28.704484,0.000010,
2446,2923,4.02832053658993,6.07030707049842,-0.0177567099686939,0.003834,0.001134,0.000094,0.176389,0.069573,316.144754,25.267030,0.999663,0.993180,0.003595,0.333562,-0.000011,-0.000037,-0.000006,-0.000010,-0.000038,-12.961619,0.000051,
2026,2488,-5.02908103344795,-3.42165872542043,-0.0203727268550438,0.004217,0.000996,-0.002689,0.201710,0.048095,324.133174,24.493821,0.999327,0.987512,0.004322,0.482364,0.000020,-0.000047,0.000001,0.000020,-0.000047,1.083723,0.000047,
2011,2683,-5.38401296282296,0.826987353024485,-0.0247295039941946,0.004356,0.001406,-0.004992,0.214664,0.065761,321.052834,24.438248,0.999817,0.995986,0.002863,0.442251,-0.000031,0.000008,0.000016,0.000014,-0.000037,70.096966,0.000038,
2401,2713,3.08901253144221,1.49702859790197,-0.0413569781960632,0.004100,0.001612,-0.006221,0.211525,0.064107,319.344324,24.432736,0.999588,0.990733,0.003851,0.433873,-0.000010,0.000003,-0.000009,0.000008,-0.000015,-63.241873,0.000015,
2236,2008,-0.37497339060522,-13.9283380328124,0.0277503458397632,0.003399,0.000667,0.000191,0.155246,0.057799,331.351748,23.372150,0.999600,0.988119,0.004607,0.403993,-0.000013,-0.000035,-0.000008,-0.000010,-0.000037,-18.753502,0.000050,
2236,2098,-0.390280588436983,-11.952138532901,0.0206323063034688,0.003965,0.001136,-0.002653,0.190652,0.058839,329.880996,23.584857,0.999258,0.980908,0.005417,0.339559,-0.000009,-0.000011,0.000002,-0.000007,-0.000013,31.037812,0.000020,
2071,2563,-4.06325854757368,-1.78390330270842,-0.0285063389534912,0.003941,0.000875,-0.002011,0.187410,0.056530,322.579749,24.464338,0.999164,0.988977,0.004309,0.412652,0.000008,0.000008,0.000024,0.000032,-0.000016,45.297341,0.000032,
2011,2458,-5.35001591394654,-4.07622215976672,-0.00729948718054629,0.004000,0.001706,-0.004466,0.196682,0.081498,324.815251,24.635533,0.999459,0.989769,0.004031,0.427218,0.000004,-0.000035,0.000001,0.000004,-0.000035,1.435637,0.000038,
2476,3043,4.6583074611384,8.67933368750543,-0.000672494903028564,0.003839,0.000825,0.000512,0.174973,0.061404,314.387210,25.730088,0.999744,0.992635,0.003479,0.372069,0.000007,-0.000011,0.000013,0.000014,-0.000018,28.145837,0.000019,
2221,2008,-0.702761092620943,-13.9260037346515,0.0270518940997704,0.003341,0.000729,0.002215,0.146184,0.066378,331.368328,23.635447,0.999605,0.987570,0.004713,0.252995,-0.000006,-0.000055,0.000002,-0.000006,-0.000055,2.525599,0.000067,
2356,2443,2.16282061928344,-4.3991398155063,-0.00893884058723415,0.004012,0.001362,-0.006364,0.206914,0.053135,323.970360,23.677449,0.998765,0.982986,0.005192,0.462749,-0.000015,-0.000025,-0.000004,-0.000014,-0.000027,-17.148192,0.000041,
2386,2593,2.78665857377366,-1.12175073382289,-0.0173333794186306,0.003897,0.000851,0.001040,0.175489,0.054529,321.448397,24.123157,0.999504,0.987719,0.004431,0.382488,-0.000001,-0.000014,-0.000003,0.000000,-0.000015,-12.821842,0.000018,
2116,2878,-3.13518364233014,5.07104224998193,-0.0151295055638911,0.004083,0.000947,0.000708,0.186332,0.050593,317.360220,24.470012,0.999590,0.992148,0.003667,0.413468,-0.000004,-0.000009,-0.000003,-0.000003,-0.000011,-25.856844,0.000014,
2161,2998,-2.17749951116925,7.67954055699035,-0.000343952365028599,0.003854,0.001188,-0.001966,0.184133,0.069317,315.341716,24.666060,0.999579,0.993123,0.003577,0.386811,0.000002,-0.000020,0.000003,0.000003,-0.000021,8.139018,0.000022,
2281,2233,0.56665852232307,-8.99266418870817,0.00667604040387459,0.003731,0.001105,-0.004277,0.185702,0.066465,327.511785,23.608809,0.999017,0.979817,0.005433,0.327415,-0.000026,0.000011,-0.000004,0.000012,-0.000027,-83.749710,0.000027,
2431,2878,3.71091722852102,5.08987730468017,-0.0177072347979106,0.003874,0.000886,-0.000496,0.180302,0.066350,316.859172,25.038275,0.999594,0.990997,0.003574,0.379266,-0.000013,-0.000013,-0.000009,-0.000005,-0.000022,-45.437563,0.000028,
2026,2503,-5.03239806711179,-3.09198798052148,-0.0309922120656552,0.003860,0.000967,-0.001485,0.182031,0.075880,323.781902,24.598245,0.999671,0.992660,0.003630,0.397445,0.000022,-0.000028,0.000002,0.000022,-0.000029,2.062131,0.000030,
2311,2218,1.22405630679899,-9.32250625410649,0.00664904292278834,0.003935,0.001238,-0.003167,0.191578,0.055014,327.732545,23.336586,0.998863,0.977283,0.005739,0.412018,-0.000021,0.000016,-0.000006,0.000017,-0.000022,-81.582634,0.000023,
2416,2788,3.40175027624167,3.13096317911842,-0.0248196015409121,0.004108,0.000711,0.000310,0.187906,0.058566,318.254204,24.767014,0.999466,0.988534,0.004254,0.333022,-0.000010,-0.000006,-0.000005,-0.000003,-0.000013,-55.281617,0.000017,
2176,3193,-1.88155892328368,11.904616910541,0.0553214098566741,0.004004,0.000513,0.000783,0.182443,0.032285,312.569378,24.697049,0.999792,0.996303,0.002917,0.507305,-0.000008,-0.000024,0.000002,-0.000008,-0.000024,6.072191,0.000033,
2056,2683,-4.4068709778063,0.828280248751028,-0.0207623621001289,0.004053,0.001409,-0.006319,0.204911,0.055352,320.802519,24.438981,0.999394,0.991194,0.003888,0.419733,-0.000014,-0.000012,0.000007,-0.000006,-0.000021,49.004859,0.000028,
2101,2818,-3.45166734040426,3.76726477600124,-0.0245625708179773,0.004049,0.000878,-0.000272,0.187691,0.063251,318.327884,24.452457,0.999481,0.992709,0.003530,0.415143,-0.000008,-0.000024,-0.000002,-0.000008,-0.000024,-6.475449,0.000034,
2191,3253,-1.56833114421761,13.2086650345833,0.03349233911581,0.004009,0.000562,0.003535,0.174070,0.048599,311.345098,24.914285,0.999696,0.994122,0.003168,0.429949,-0.000009,-0.000021,0.000009,-0.000004,-0.000025,27.843433,0.000032,
2041,2608,-4.72182253554972,-0.804915501229608,-0.0232600120692155,0.003978,0.000718,0.000381,0.182328,0.060730,322.059892,24.474046,0.999014,0.987894,0.004400,0.429308,0.000009,0.000017,0.000013,0.000027,0.000000,53.784655,0.000031,
2461,2998,4.34109414584249,7.69950760478307,-0.00208915082748717,0.004088,0.000842,0.001652,0.182014,0.048936,315.085860,25.457763,0.999414,0.990392,0.003905,0.422077,-0.000001,-0.000031,0.000007,0.000001,-0.000033,13.068018,0.000038,
2296,2398,0.863680234861278,-5.38285974156219,-0.00609701074279201,0.004325,0.001141,-0.005329,0.216869,0.063218,324.755209,23.797492,0.999227,0.985045,0.004979,0.417254,-0.000026,-0.000005,-0.000007,-0.000003,-0.000029,-73.259925,0.000035,
2491,3238,4.94679600081238,12.9132376870511,0.0165118914649156,0.004141,0.001005,-0.002560,0.200756,0.043540,311.395818,26.534370,0.999557,0.992105,0.003663,0.348939,0.000026,-0.000023,0.000001,0.000026,-0.000023,0.729786,0.000028,
2086,2653,-3.75087493285324,0.176708683894979,-0.0193407367090117,0.004242,0.000866,0.003651,0.185044,0.066718,321.119295,24.475269,0.999454,0.989709,0.003935,0.388358,-0.000001,-0.000006,0.000008,0.000005,-0.000012,37.496669,0.000012,
2371,2533,2.4717117485959,-2.43163552938245,-0.016492350525823,0.003960,0.001179,-0.002338,0.190544,0.072852,322.435678,23.953575,0.999427,0.987332,0.004537,0.420506,-0.000008,-0.000014,0.000002,-0.000007,-0.000014,13.858584,0.000022,
2281,2338,0.547726325543742,-6.69407812253257,-0.00493821997116584,0.004261,0.001944,-0.007485,0.221147,0.065213,325.755229,23.790532,0.999318,0.984259,0.004854,0.354330,-0.000020,-0.000008,-0.000002,-0.000008,-0.000021,-82.037095,0.000030,
2326,2338,1.52908684455689,-6.695226890566,0.00542154898579383,0.003831,0.001487,-0.004553,0.191902,0.066051,325.776837,23.600529,0.999232,0.984084,0.004876,0.379250,-0.000029,-0.000002,0.000002,-0.000002,-0.000029,85.640103,0.000035,
2131,2953,-2.82098402043651,6.70001416127863,0.00134430303779709,0.003910,0.000964,-0.000066,0.180808,0.065569,316.205731,24.529209,0.999644,0.992400,0.003502,0.419744,0.000000,-0.000014,0.000002,0.000000,-0.000014,10.101939,0.000016,
2071,2668,-4.07995605101303,0.503512518380333,-0.0309004069044363,0.003901,0.000877,0.000522,0.178454,0.066725,320.851525,24.452898,0.999143,0.989063,0.004233,0.416535,-0.000015,-0.000005,0.000014,0.000005,-0.000025,55.122935,0.000027,
2236,2023,-0.376406219417351,-13.5993778471,0.0334798981142512,0.003840,0.001370,-0.004166,0.189798,0.046243,331.192981,23.446046,0.999064,0.981280,0.005502,0.342713,-0.000022,-0.000027,-0.000007,-0.000017,-0.000032,-34.475505,0.000049,
2161,3088,-2.1911499194218,9.63096001838498,0.0191373346308978,0.004262,0.000672,0.000265,0.195961,0.046268,314.048409,24.725000,0.999354,0.990980,0.003845,0.359682,0.000001,-0.000039,-0.000005,0.000001,-0.000039,-6.829465,0.000044,
2146,2953,-2.49596849881995,6.70176234688336,-0.00621418728263734,0.003849,0.001123,-0.000684,0.179886,0.066806,316.079453,24.586280,0.999569,0.991440,0.003678,0.400055,0.000000,-0.000010,0.000003,0.000001,-0.000011,16.695330,0.000012,
2476,3058,4.65631835558765,9.00416967048457,0.0113074363015926,0.003766,0.000552,-0.001060,0.177405,0.026060,314.244984,25.798394,0.999628,0.990261,0.004000,0.323778,0.000008,-0.000011,0.000011,0.000013,-0.000016,24.419092,0.000017,
2386,2608,2.78381581063222,-0.79468253652783,-0.0199275465046185,0.003881,0.001056,-0.002381,0.187123,0.048891,321.194780,24.136012,0.999331,0.987638,0.004378,0.408201,-0.000001,-0.000012,-0.000002,-0.000001,-0.000013,-11.358898,0.000015,
2236,2113,-0.393252154804856,-11.6245979166413,0.0200873023115946,0.003613,0.000918,-0.002735,0.174733,0.041614,329.620136,23.497879,0.999303,0.981377,0.005337,0.433818,-0.000007,-0.000011,0.000004,-0.000005,-0.000013,28.214278,0.000019,
2086,2743,-3.76550595672682,2.13539684055253,-0.022952813728466,0.003781,0.001000,-0.000934,0.177192,0.056062,319.622786,24.443982,0.999435,0.990230,0.003945,0.405215,-0.000010,-0.000033,0.000002,-0.000010,-0.000034,4.712736,0.000046,
2446,2938,4.02539705041623,6.39603766389693,-0.0228553115559862,0.004090,0.001009,-0.002758,0.198689,0.046601,315.879595,25.259510,0.999607,0.992245,0.003730,0.369820,-0.000009,-0.000048,-0.000007,-0.000008,-0.000049,-9.657947,0.000062,
2041,2833,-4.75613997225776,4.09035268112238,-0.0210176655907617,0.003967,0.001083,0.000177,0.182790,0.074337,318.432713,24.399508,0.999060,0.988505,0.004201,0.407088,-0.000023,-0.000008,-0.000009,-0.000004,-0.000028,-64.263499,0.000034,
2011,2938,-5.42206924148852,6.36818822990368,-0.00896734707464475,0.003961,0.001077,-0.001697,0.187759,0.071535,317.020676,24.275840,0.999497,0.993605,0.003359,0.404518,0.000015,-0.000029,0.000000,0.000015,-0.000029,0.145361,0.000029,
2071,2578,-4.06570954878392,-1.45664792482057,-0.0297101643552082,0.004040,0.001024,0.000297,0.185445,0.084987,322.324902,24.458247,0.999007,0.988740,0.004421,0.444985,0.000004,-0.000006,0.000016,0.000015,-0.000018,36.605164,0.000019,
2146,3013,-2.50474799723655,8.00371767887976,0.0067717561883569,0.003999,0.001311,-0.004173,0.197515,0.066135,315.227767,24.643518,0.999395,0.990711,0.003934,0.370541,0.000002,-0.000019,0.000000,0.000002,-0.000019,0.918135,0.000021,
2341,2398,1.843371409309,-5.38156605117494,-0.00705626891368638,0.003566,0.000921,0.000988,0.160504,0.069851,324.666839,23.716549,0.999638,0.987615,0.004504,0.365713,-0.000020,0.000004,-0.000003,0.000004,-0.000021,-83.666350,0.000022,
2011,2698,-5.38633008994348,1.15346997420923,-0.0272715624181501,0.004335,0.001648,-0.006589,0.218115,0.070226,320.792205,24.410471,0.999829,0.995836,0.002873,0.462756,-0.000017,0.000001,0.000015,0.000009,-0.000026,60.184039,0.000026,
2191,3148,-1.55000003393396,10.9342580088305,0.0268209149595577,0.004343,0.000845,-0.000341,0.201696,0.060164,313.034850,24.896396,0.999175,0.991308,0.003985,0.367134,-0.000008,-0.000024,0.000000,-0.000008,-0.000024,1.389245,0.000034,
2026,2758,-5.07057401005134,2.4591324726043,-0.0242566850003527,0.003847,0.001009,0.001539,0.173385,0.067185,319.704997,24.396702,0.999249,0.989758,0.004147,0.433642,-0.000036,-0.000035,-0.000013,-0.000023,-0.000048,-45.437673,0.000072,
2266,2278,0.231145986643146,-8.00801332083174,0.00270077447487438,0.003905,0.000949,-0.001243,0.183547,0.053628,326.771333,23.697919,0.999471,0.986524,0.004732,0.379845,-0.000023,-0.000006,-0.000008,-0.000003,-0.000026,-68.663199,0.000032,
2101,2698,-3.43303579950483,1.15751615469218,-0.0268085574815586,0.003446,0.001107,-0.002458,0.166262,0.070706,320.234958,24.463507,0.999296,0.990681,0.003908,0.401113,0.000007,-0.000023,0.000007,0.000008,-0.000025,12.413227,0.000026,
2176,3073,-1.86347358813689,9.30495236809201,0.0199519654329947,0.003781,0.000790,-0.001518,0.179316,0.043465,314.230882,24.619915,0.999662,0.995014,0.003172,0.506535,0.000004,-0.000032,-0.000004,0.000005,-0.000032,-6.436656,0.000035,
2296,2323,0.876918084819305,-7.0229343352091,-0.00226910783248968,0.003864,0.001255,-0.002533,0.186204,0.051487,325.969026,23.665764,0.999186,0.982721,0.005275,0.378294,-0.000025,-0.000005,0.000003,-0.000005,-0.000026,82.589527,0.000033,
2251,2083,-0.0611786160617918,-12.2796538211799,0.011435883160118,0.003893,0.001070,-0.000338,0.179801,0.068173,330.005754,23.514475,0.999284,0.982056,0.005253,0.302812,-0.000019,0.000004,0.000001,0.000004,-0.000019,87.245564,0.000020,
2056,2698,-4.40955036009435,1.15557630494814,-0.0280351012744973,0.004108,0.001727,-0.006854,0.209095,0.066733,320.502693,24.441051,0.999354,0.991028,0.003827,0.424303,0.000000,-0.000018,0.000010,0.000004,-0.000022,23.543000,0.000024,
2026,2518,-5.0345078416286,-2.76668559940256,-0.0256654817504227,0.003779,0.001002,0.000448,0.173030,0.077113,323.575927,24.479065,0.999723,0.993630,0.003423,0.508873,0.000018,-0.000016,0.000010,0.000020,-0.000019,15.283930,0.000023,
2266,2143,0.256253933331056,-10.9630618730508,0.0113678603397602,0.004360,0.001135,-0.002560,0.208620,0.059258,329.043585,23.665065,0.999392,0.984448,0.005108,0.165099,-0.000019,-0.000014,0.000007,-0.000009,-0.000024,55.999140,0.000034,
2401,2728,3.08641818948275,1.82311970258958,-0.032188348630882,0.004043,0.000795,-0.001922,0.193000,0.051439,319.158516,24.497708,0.999551,0.990452,0.004026,0.401796,-0.000014,-0.000008,-0.000002,-0.000007,-0.000015,-72.788251,0.000022,
2281,2248,0.56403527410918,-8.6654956722175,0.00748527897246731,0.003845,0.000808,-0.002730,0.185655,0.057765,327.277192,23.542697,0.999218,0.980998,0.005275,0.414870,-0.000027,-0.000004,-0.000007,-0.000002,-0.000029,-74.793215,0.000035,
2131,2893,-2.81170935998022,5.39726447819535,-0.00872354677164822,0.003827,0.000868,-0.001916,0.182312,0.029397,317.099980,24.519563,0.999472,0.990852,0.003900,0.372816,-0.000002,-0.000018,0.000001,-0.000002,-0.000018,2.631366,0.000022,
2071,2683,-4.08225811418833,0.829586145695892,-0.0289767439026605,0.003641,0.000953,-0.002369,0.174760,0.066293,320.621094,24.426329,0.999366,0.990910,0.003859,0.440040,-0.000016,-0.000014,0.000008,-0.000007,-0.000024,47.593577,0.000032,
2356,2458,2.15942410029865,-4.06921025110123,-0.0200530218085646,0.004192,0.001591,-0.008036,0.221168,0.051785,323.647875,23.818194,0.999228,0.986247,0.004640,0.361061,-0.000016,-0.000028,-0.000003,-0.000016,-0.000028,-12.631412,0.000045,
2116,2893,-3.13784979954389,5.39767911920897,-0.0222262758625789,0.004272,0.000965,-0.000074,0.197378,0.049086,317.067683,24.490656,0.999406,0.992424,0.003893,0.394734,-0.000006,-0.000014,0.000000,-0.000006,-0.000014,0.284496,0.000021,
2116,2773,-3.11847264733343,2.78966798672075,-0.0250802758342275,0.004067,0.001375,-0.003997,0.199611,0.061633,318.996086,24.474817,0.999671,0.992326,0.003516,0.397078,-0.000010,-0.000032,-0.000004,-0.000010,-0.000032,-10.903142,0.000044,
2131,2968,-2.82345262992765,7.02587841606258,-0.000200834256190774,0.003854,0.000866,-0.002640,0.185851,0.042644,315.953557,24.561262,0.999779,0.994243,0.003055,0.369955,0.000001,-0.000019,-0.000002,0.000001,-0.000019,-6.351518,0.000022,
2206,3238,-1.24066352815241,12.8856254324565,0.0287843073655267,0.003954,0.000675,0.000928,0.179638,0.037878,311.511425,25.019027,0.999750,0.994943,0.003044,0.379153,-0.000006,-0.000013,0.000009,0.000000,-0.000019,33.389655,0.000022,
2176,3208,-1.88557193318415,12.2326108333351,0.0367424149338262,0.003819,0.000830,0.000629,0.174490,0.041047,312.159151,24.857892,0.999665,0.994722,0.003162,0.366080,-0.000006,-0.000020,0.000004,-0.000005,-0.000020,14.696182,0.000027,
2056,2638,-4.40053662540886,-0.150438231251677,-0.0264897200648306,0.004148,0.000995,-0.000652,0.193111,0.048772,321.471324,24.497042,0.999243,0.989406,0.004144,0.370156,0.000011,-0.000002,0.000013,0.000020,-0.000010,31.783362,0.000020,
2146,2968,-2.49819304340791,7.02707480662673,-0.00350942109253083,0.003936,0.000800,-0.000878,0.184360,0.050934,315.862371,24.590760,0.999675,0.993298,0.003303,0.386974,0.000001,-0.000014,0.000000,0.000001,-0.000014,0.754735,0.000016,
2011,2473,-5.35269795611929,-3.74870755863516,-0.012758064818172,0.003949,0.001142,-0.002848,0.189753,0.057854,324.521126,24.628876,0.999106,0.987214,0.004462,0.399815,0.000014,-0.000063,0.000006,0.000015,-0.000063,4.214095,0.000066,
2491,3253,4.94259308830668,13.2390104309194,0.00607845491572334,0.003920,0.001062,-0.002072,0.188848,0.059081,311.049463,26.551974,0.999719,0.993078,0.003416,0.404453,0.000025,-0.000017,-0.000001,0.000025,-0.000017,-1.309894,0.000025,
2296,2413,0.860273430517623,-5.05482536923976,-0.00514842393954495,0.003822,0.000962,-0.002009,0.182515,0.053271,324.486034,23.869694,0.999379,0.986124,0.004748,0.366707,-0.000028,-0.000011,-0.000010,-0.000006,-0.000032,-64.618234,0.000042,
2266,2293,0.228459261405145,-7.67963726431339,-0.00166197528369594,0.004041,0.000869,-0.003430,0.196999,0.039841,326.506422,23.710618,0.999332,0.984593,0.005026,0.381123,-0.000020,0.000004,-0.000002,0.000004,-0.000020,-84.860380,0.000021,
2011,2953,-5.42370895073423,6.69371900330385,-0.005066965202559,0.004203,0.001345,-0.004514,0.206623,0.068929,316.828033,24.288671,0.999656,0.994659,0.003022,0.376594,0.000022,-0.000034,0.000002,0.000022,-0.000034,2.227703,0.000034,
2461,3013,4.33884538733025,8.02601533623492,0.00414349339968112,0.004033,0.001057,-0.002189,0.194115,0.053616,314.904363,25.591842,0.999504,0.990036,0.003829,0.346306,-0.000001,-0.000032,0.000009,0.000001,-0.000035,14.951340,0.000040,
2026,2773,-5.07305252485975,2.78682664435662,-0.0349103957935881,0.004036,0.001016,-0.002697,0.193731,0.041834,319.392705,24.470028,0.999443,0.991330,0.003952,0.325253,-0.000035,-0.000032,-0.000019,-0.000014,-0.000052,-47.607138,0.000070,
2236,2038,-0.379275437300901,-13.2695881042426,0.0257071131031807,0.004151,0.001312,-0.003663,0.202402,0.048485,330.899918,23.435157,0.999003,0.978812,0.005606,0.380868,-0.000021,-0.000017,-0.000006,-0.000013,-0.000025,-52.372795,0.000039,
2101,2713,-3.4353541475744,1.48352230891715,-0.02529768514745,0.003635,0.000851,0.000775,0.165456,0.069875,320.003758,24.436977,0.999319,0.990143,0.003988,0.428151,0.000005,-0.000023,0.000003,0.000005,-0.000024,6.442196,0.000025,
2221,2023,-0.704791065210539,-13.597018618123,0.0223511900325661,0.003905,0.000981,-0.001946,0.185455,0.031010,331.128042,23.617515,0.999141,0.981395,0.005386,0.257955,-0.000016,-0.000046,-0.000001,-0.000016,-0.000046,-2.644028,0.000065,
2086,2668,-3.75347472248604,0.502959933540268,-0.0229203420591375,0.004048,0.000897,0.000698,0.184665,0.069220,320.846330,24.411443,0.999412,0.990297,0.003893,0.454404,-0.000008,-0.000010,0.000010,0.000001,-0.000019,41.970903,0.000021,
2251,2173,-0.0770287761109536,-10.3074568405885,0.00938500830949351,0.003592,0.001630,-0.005275,0.182413,0.084262,328.543195,23.574453,0.999006,0.984278,0.005066,0.417078,-0.000015,-0.000017,0.000011,-0.000005,-0.000027,43.131394,0.000034,
2071,2698,-4.08473793688173,1.15627937471946,-0.0289008770572536,0.003503,0.001351,-0.002326,0.168444,0.082988,320.372191,24.428739,0.999390,0.991583,0.003733,0.451332,-0.000004,-0.000020,0.000010,0.000001,-0.000024,25.267774,0.000028,
2041,2623,-4.72384258196465,-0.477942766768528,-0.0272319975127857,0.004244,0.001238,-0.003508,0.205560,0.052759,321.807230,24.468001,0.999014,0.987738,0.004442,0.420480,0.000008,-0.000002,0.000003,0.000009,-0.000003,13.148248,0.000009,
2446,2953,4.02242393979398,6.72198868069611,-0.0228881472866647,0.004020,0.001004,-0.003927,0.199863,0.039741,315.635376,25.296552,0.999651,0.993193,0.003598,0.377580,-0.000009,-0.000053,-0.000004,-0.000009,-0.000053,-4.556751,0.000067,
2101,2833,-3.45404046994316,4.09306740123322,-0.0230417953081314,0.004073,0.000528,0.000991,0.184962,0.044520,318.094366,24.459685,0.999678,0.993632,0.003317,0.390196,-0.000009,-0.000020,0.000000,-0.000009,-0.000020,-2.617707,0.000030,
2041,2848,-4.75810567464424,4.41629980323454,-0.0312004307511984,0.004641,0.001078,-0.004644,0.227197,0.040297,318.148643,24.350405,0.999278,0.990603,0.003944,0.414587,-0.000020,0.000000,-0.000007,0.000002,-0.000023,-72.198299,0.000025,
2056,2713,-4.41204263659664,1.48235886534891,-0.0323344912972061,0.004295,0.001266,-0.005384,0.213422,0.054258,320.228029,24.449409,0.999210,0.989986,0.003916,0.398409,-0.000001,-0.000018,0.000004,-0.000001,-0.000019,12.224826,0.000022,
2086,2758,-3.76815099036716,2.46217652469936,-0.0338772547456756,0.004103,0.000877,-0.002547,0.196672,0.049618,319.307645,24.408520,0.999469,0.990684,0.003899,0.433689,-0.000016,-0.000038,-0.000006,-0.000014,-0.000039,-15.433159,0.000055,
2191,3268,-1.57188374979899,13.5340789033611,0.0198045534085054,0.003909,0.000544,0.002233,0.173489,0.031926,310.984050,24.911697,0.999489,0.991941,0.003586,0.428713,-0.000007,-0.000019,0.000013,0.000001,-0.000028,32.637991,0.000031,
2206,3253,-1.24356236990232,13.2103272752196,0.0271481270913227,0.003830,0.000643,0.001460,0.172331,0.050715,311.244745,24.984518,0.999780,0.995297,0.002918,0.441662,-0.000005,-0.000024,0.000014,0.000003,-0.000032,27.743512,0.000035,
2056,2653,-4.40323189482109,0.1764024940193,-0.0368729686959455,0.004219,0.001041,-0.003660,0.204879,0.032308,321.153825,24.444160,0.999379,0.990301,0.004030,0.401792,-0.000004,0.000004,0.000008,0.000009,-0.000009,59.339932,0.000010,
2011,2488,-5.35511503843644,-3.42104637922986,-0.0197368622497152,0.004239,0.001300,-0.001433,0.199322,0.060662,324.230469,24.600985,0.999288,0.987518,0.004382,0.419692,0.000010,-0.000062,0.000002,0.000010,-0.000062,1.344006,0.000067,
2236,2128,-0.395994482989199,-11.2934071265409,0.0160964896737141,0.003709,0.001452,-0.003539,0.181905,0.076128,329.351482,23.660310,0.998800,0.980170,0.005504,0.330181,-0.000007,-0.000015,0.000002,-0.000006,-0.000015,13.154994,0.000022,
2461,3028,4.33606652006616,8.35181048588718,0.00978888605686734,0.003968,0.000880,-0.000280,0.183923,0.061794,314.695884,25.656179,0.999746,0.991493,0.003669,0.343543,0.000004,-0.000028,0.000007,0.000006,-0.000029,12.436324,0.000031,
2476,3073,4.65374556948838,9.3292260413454,0.0152815718442412,0.004108,0.000447,0.001384,0.183808,0.031905,314.039272,25.796783,0.999576,0.990226,0.003970,0.387129,0.000008,-0.000006,0.000009,0.000013,-0.000011,26.122978,0.000014,
2176,3223,-1.88749371974105,12.557818665773,0.0406330710081306,0.004128,0.000789,-0.000607,0.192625,0.046378,311.964108,24.900141,0.999750,0.995020,0.003006,0.340067,-0.000005,-0.000010,0.000003,-0.000004,-0.000011,23.251518,0.000016,
2281,2353,0.544582609410387,-6.36782128838519,0.000898217834730985,0.003913,0.000861,-0.000197,0.180493,0.045597,325.521765,23.737440,0.999289,0.984843,0.004821,0.417381,-0.000022,-0.000007,-0.000003,-0.000006,-0.000022,-79.837686,0.000030,
2161,3013,-2.18005354893656,8.00516804561292,-4.61575568238004E-05,0.003833,0.001357,-0.001639,0.182294,0.086242,315.097633,24.662443,0.999407,0.990687,0.003976,0.416644,0.000004,-0.000020,0.000003,0.000004,-0.000020,6.264528,0.000021,
2311,2233,1.22127099471967,-8.99340164014691,0.00848483550714718,0.003916,0.000917,-0.001196,0.183868,0.059671,327.497729,23.439888,0.998836,0.978214,0.005659,0.347970,-0.000022,0.000010,-0.000004,0.000011,-0.000022,-82.165409,0.000022,
2116,2788,-3.12132862153996,3.11516799739417,-0.0207093988623228,0.003833,0.000600,0.003294,0.167028,0.059643,318.756876,24.447270,0.999606,0.992317,0.003544,0.425964,-0.000015,-0.000027,-0.000001,-0.000015,-0.000027,-2.932312,0.000043,
2431,2893,3.70789514104048,5.41633333748717,-0.0202180082387713,0.003909,0.001030,-0.001965,0.187399,0.069385,316.600223,25.076376,0.999587,0.990901,0.003706,0.393980,-0.000014,-0.000017,-0.000008,-0.000008,-0.000024,-40.143372,0.000033,
2011,2713,-5.38982538350424,1.48029296950719,-0.0299213665509797,0.003637,0.001024,0.000065,0.167749,0.070146,320.476970,24.422633,0.999698,0.994170,0.003387,0.439046,-0.000025,-0.000001,0.000008,0.000002,-0.000027,72.075065,0.000031,
2401,2743,3.0833669400911,2.15002745662439,-0.0348274039979515,0.004161,0.001008,-0.001417,0.196665,0.047445,318.895783,24.538217,0.999520,0.990024,0.004004,0.402972,-0.000015,-0.000014,-0.000004,-0.000010,-0.000018,-50.120558,0.000029,
2296,2338,0.873829103041079,-6.69395724551848,-0.00781428418844143,0.003875,0.001495,-0.003016,0.188473,0.079486,325.682231,23.697198,0.999344,0.984880,0.004777,0.407090,-0.000025,-0.000008,-0.000002,-0.000008,-0.000025,-83.019789,0.000034,
2146,3028,-2.50703025005572,8.3285762451302,0.00819058233764736,0.004265,0.000912,-0.002157,0.203504,0.051207,315.001354,24.611550,0.999378,0.990947,0.003900,0.394578,0.000004,-0.000022,0.000000,0.000004,-0.000022,-0.219196,0.000024,
2161,3103,-2.19360462057704,9.9557309405924,0.0223217634768389,0.003953,0.000978,-0.002423,0.190059,0.044011,313.824432,24.702422,0.999558,0.993567,0.003333,0.389082,-0.000003,-0.000039,-0.000003,-0.000002,-0.000040,-5.078925,0.000047,
2176,3088,-1.86615713328486,9.63230399277476,0.0148888941824907,0.004148,0.000728,0.000526,0.189938,0.059318,313.953139,24.760987,0.999494,0.992896,0.003515,0.392485,0.000000,-0.000038,-0.000003,0.000000,-0.000038,-4.959567,0.000044,
2326,2353,1.52585989032522,-6.3652341743295,-0.0065709219596215,0.004037,0.002085,-0.007985,0.213412,0.072230,325.455051,23.688958,0.999258,0.982852,0.004796,0.333543,-0.000026,0.000003,0.000006,0.000004,-0.000027,79.657065,0.000029,
2116,2908,-3.13970037934678,5.72306172640184,-0.0119209899448833,0.004102,0.001082,-0.001606,0.194186,0.059443,316.906557,24.514552,0.999221,0.990746,0.004085,0.384023,-0.000007,-0.000021,-0.000003,-0.000006,-0.000021,-11.061799,0.000029,
2446,2968,4.02006563905807,7.04828806728812,-0.0134614157250326,0.004030,0.001149,-0.002220,0.194085,0.066225,315.462932,25.401953,0.999651,0.992448,0.003631,0.350176,-0.000007,-0.000047,0.000001,-0.000007,-0.000047,2.018821,0.000058,
2341,2413,1.84227885708506,-5.05486871198461,0.00333150678915217,0.004024,0.001181,-0.005072,0.202657,0.031315,324.553389,23.784859,0.999653,0.989592,0.004257,0.296581,-0.000024,-0.000001,-0.000005,0.000000,-0.000025,-78.691139,0.000029,
2071,2593,-4.06808945402942,-1.12978746199225,-0.0305463215086093,0.003973,0.001037,-0.000837,0.185620,0.068902,322.075572,24.468399,0.999036,0.988694,0.004293,0.416144,0.000003,0.000004,0.000019,0.000023,-0.000016,46.093669,0.000023,
2371,2548,2.46888701305722,-2.10467155633526,-0.0152405661155512,0.003888,0.001068,-0.002532,0.187841,0.047175,322.200310,23.991090,0.999353,0.986600,0.004671,0.399253,-0.000006,-0.000022,0.000004,-0.000005,-0.000023,13.261354,0.000030,
2251,2098,-0.063290465322094,-11.9515106389617,0.0135808691292141,0.004068,0.001030,-0.002860,0.196045,0.055404,329.798980,23.502740,0.999308,0.980983,0.005487,0.328112,-0.000017,-0.000004,0.000000,-0.000004,-0.000017,-89.544614,0.000022,
2131,2908,-2.81369978915376,5.72230105300044,-0.0052230447815873,0.004035,0.000813,-0.002546,0.193805,0.024149,316.896963,24.477617,0.999383,0.988808,0.004196,0.414845,-0.000003,-0.000023,-0.000002,-0.000003,-0.000023,-4.986673,0.000029,
2026,2533,-5.03649284635678,-2.43958634433235,-0.0219682241126975,0.003822,0.000570,0.000480,0.174762,0.049221,323.366217,24.542753,0.999400,0.989320,0.004101,0.408324,0.000019,-0.000011,0.000021,0.000030,-0.000022,27.516069,0.000031,
2476,3088,4.65055908583674,9.65584270305902,0.0113155949156862,0.004103,0.000807,-0.000970,0.192661,0.038799,313.768607,25.891035,0.999401,0.991434,0.003790,0.355430,0.000011,0.000004,0.000008,0.000017,-0.000001,33.788129,0.000019,
2176,3238,-1.89052155008198,12.8823958521831,0.0391156308877498,0.003979,0.000613,0.002328,0.176584,0.043305,311.690041,24.865430,0.999746,0.994683,0.003055,0.382540,-0.000005,-0.000013,0.000006,-0.000002,-0.000016,28.603789,0.000019,
2191,3163,-1.55358277081395,11.2602833026636,0.0167819991160627,0.004062,0.000702,-0.000069,0.187788,0.037383,312.691446,24.945380,0.999638,0.994814,0.003215,0.308685,-0.000006,-0.000021,0.000001,-0.000006,-0.000021,5.400530,0.000029,
2056,2728,-4.41453796523697,1.80915992051311,-0.0350765863594802,0.004361,0.001332,-0.004265,0.213392,0.072210,319.961726,24.446805,0.999330,0.990527,0.003844,0.413798,-0.000001,-0.000027,0.000003,-0.000001,-0.000028,5.632439,0.000032,
2026,2788,-5.07492588705175,3.11258244082351,-0.0327403740629393,0.004272,0.001232,-0.003344,0.206504,0.067764,319.180210,24.419702,0.999574,0.992085,0.003616,0.391929,-0.000038,-0.000026,-0.000010,-0.000020,-0.000043,-60.378927,0.000065,
2461,3043,4.3331939693716,8.67675072385154,0.0113403368625313,0.004029,0.000709,0.000258,0.184612,0.045477,314.464516,25.642587,0.999590,0.990099,0.003880,0.394480,0.000002,-0.000013,0.000011,0.000008,-0.000018,27.356434,0.000018,
2416,2803,3.39867003238021,3.45698245950134,-0.0248876444089206,0.003863,0.001176,-0.001083,0.181926,0.064509,318.003329,24.753972,0.999383,0.987812,0.004449,0.399760,-0.000011,-0.000009,-0.000002,-0.000008,-0.000011,-60.310252,0.000019,
2071,2713,-4.0872668785423,1.4832740059503,-0.0350866531926499,0.003842,0.001011,-0.000195,0.177853,0.064370,320.086762,24.447781,0.999314,0.990430,0.003886,0.410847,-0.000005,-0.000020,0.000004,-0.000004,-0.000021,15.670053,0.000027,
2356,2473,2.15645423869286,-3.7423143874214,-0.0121329819402263,0.003928,0.000871,-0.001839,0.187037,0.068156,323.436890,23.845360,0.999630,0.988144,0.004190,0.390382,-0.000017,-0.000028,0.000001,-0.000017,-0.000028,4.290261,0.000045,
2266,2158,0.253548367391545,-10.6359755518674,0.0142744973710478,0.003982,0.001290,-0.004023,0.196216,0.068427,328.814589,23.564359,0.999177,0.983135,0.005209,0.303216,-0.000023,-0.000016,0.000006,-0.000013,-0.000026,60.157494,0.000040,
2491,3268,4.93914268056119,13.5649406259182,0.00471622267076555,0.004024,0.000652,0.002348,0.176413,0.044139,310.778688,26.669736,0.999841,0.994995,0.002929,0.328663,0.000024,-0.000016,0.000005,0.000025,-0.000016,7.326375,0.000025,
2206,3268,-1.24674294149181,13.5366153917056,0.0111524132326508,0.004201,0.000989,-0.001205,0.197989,0.048152,310.889976,25.036454,0.999566,0.993179,0.003336,0.402601,-0.000002,-0.000023,0.000020,0.000010,-0.000035,31.010876,0.000036,
2011,2968,-5.42595072855244,7.01856623328623,0.000147979213579674,0.004140,0.000947,-0.001019,0.194119,0.057536,316.615484,24.260221,0.999667,0.994900,0.002923,0.380932,0.000021,-0.000040,-0.000009,0.000022,-0.000041,-8.446692,0.000041,
2236,2173,-0.404068668216276,-10.3066404594686,0.00847024198463942,0.003901,0.001598,-0.004573,0.194186,0.053623,328.575943,23.734247,0.998715,0.982823,0.005295,0.305825,-0.000006,-0.000017,0.000014,0.000003,-0.000027,34.083252,0.000029,
2281,2263,0.55978340228901,-8.33372421389171,-0.00693006977729738,0.003471,0.000935,-0.001188,0.163477,0.058050,326.891505,23.738352,0.999516,0.986403,0.004701,0.250443,-0.000032,-0.000008,-0.000008,-0.000005,-0.000034,-72.536200,0.000043,
2221,2038,-0.707963991488089,-13.2673214842616,0.016395061490698,0.003597,0.001394,-0.003575,0.176662,0.053901,330.828673,23.598624,0.998899,0.977038,0.005770,0.322458,-0.000015,-0.000035,-0.000002,-0.000014,-0.000035,-4.535952,0.000051,
2251,2188,-0.0799377446241145,-9.97690274132842,0.00501415831575969,0.003847,0.001218,-0.002420,0.184670,0.071443,328.266593,23.745633,0.999476,0.989303,0.004427,0.259202,-0.000019,0.000001,0.000005,0.000002,-0.000020,75.449957,0.000023,
2041,2863,-4.76023431552895,4.7421605451053,-0.0225228278446821,0.004334,0.001367,-0.004094,0.211626,0.055212,317.961736,24.389997,0.999299,0.990776,0.004062,0.381730,-0.000018,-0.000005,-0.000013,0.000003,-0.000026,-57.851859,0.000029,
2266,2308,0.226213740658071,-7.35159676552511,0.00479075578192578,0.004036,0.001303,-0.002826,0.194932,0.078511,326.315692,23.753963,0.999079,0.981648,0.005368,0.404109,-0.000021,-0.000004,0.000001,-0.000004,-0.000021,88.005973,0.000027,
2161,3028,-2.18194127506563,8.33010752335846,0.00635148749375958,0.004186,0.001032,0.000388,0.192186,0.068333,314.916626,24.674646,0.999279,0.989119,0.004403,0.395732,0.000004,-0.000024,0.000000,0.000004,-0.000024,0.572719,0.000026,
2236,2143,-0.398283103022301,-10.9653681540344,0.0162004339948112,0.004082,0.001189,-0.002486,0.195516,0.072615,329.124954,23.623062,0.998492,0.980205,0.005539,0.387804,-0.000010,-0.000017,0.000008,-0.000005,-0.000022,33.253941,0.000028,
2011,2728,-5.39178743988223,1.8062418873779,-0.0302310879508809,0.003858,0.001069,-0.001261,0.181593,0.071055,320.245334,24.377098,0.999561,0.992127,0.003728,0.473561,-0.000025,-0.000011,0.000010,-0.000006,-0.000030,62.528205,0.000039,
2191,3283,-1.57402429103101,13.8592935411429,0.01850400037182,0.004109,0.000739,-0.002938,0.199127,0.037058,310.752671,24.941860,0.999586,0.994409,0.003166,0.416771,-0.000008,-0.000015,0.000018,0.000007,-0.000030,39.880433,0.000031,
2011,2503,-5.35808828378268,-3.09266703304175,-0.0261219103852,0.003847,0.000828,-0.001708,0.181955,0.047238,323.917580,24.666250,0.999667,0.992548,0.003695,0.330618,0.000011,-0.000035,0.000003,0.000011,-0.000036,4.155338,0.000036,
2041,2638,-4.7262473299319,-0.151306788292345,-0.0255679322373794,0.004063,0.001468,-0.002828,0.195438,0.065072,321.568240,24.463786,0.999353,0.989215,0.004136,0.429859,0.000016,0.000002,0.000013,0.000024,-0.000005,30.856563,0.000025,
2101,2728,-3.43813474807736,1.81066810394537,-0.0338193696546227,0.003628,0.001083,-0.001927,0.173112,0.064521,319.696812,24.443302,0.999255,0.989337,0.004148,0.418136,0.000002,-0.000032,0.000003,0.000002,-0.000033,4.924972,0.000037,
2086,2683,-3.75637314545269,0.829788092338489,-0.0297781730689621,0.003696,0.001067,-0.003351,0.180222,0.057976,320.541725,24.392316,0.999536,0.991800,0.003580,0.461798,-0.000009,-0.000018,0.000004,-0.000007,-0.000019,21.860697,0.000027,
2026,2548,-5.03823681272063,-2.11256654386746,-0.0202756238505231,0.004074,0.001032,-0.001967,0.193243,0.056187,323.156294,24.550929,0.999526,0.990601,0.003729,0.398372,0.000025,-0.000006,0.000021,0.000036,-0.000017,26.681391,0.000036,
2146,2983,-2.50061989267092,7.35247572598362,-0.0032068608313125,0.004050,0.000810,-0.000011,0.186963,0.044963,315.623194,24.580861,0.999717,0.994555,0.003098,0.397936,-0.000001,-0.000018,0.000001,-0.000001,-0.000018,3.880652,0.000021,
2161,3118,-2.1960793481758,10.2812696230877,0.025704196973777,0.003821,0.001007,-0.002045,0.182836,0.049001,313.600298,24.748043,0.999544,0.993301,0.003408,0.357286,-0.000004,-0.000036,-0.000004,-0.000004,-0.000036,-6.270446,0.000044,
2431,2908,3.70450403901001,5.74187202762334,-0.0215197099275315,0.003722,0.000706,-0.000367,0.172728,0.042839,316.330121,25.072997,0.999671,0.990836,0.003680,0.420146,-0.000014,-0.000023,-0.000005,-0.000012,-0.000025,-25.325726,0.000038,
2011,2983,-5.42909801643406,7.34416109071525,-0.00318698405874329,0.003689,0.000556,0.002587,0.163399,0.050894,316.313103,24.240787,0.999386,0.992114,0.003439,0.381085,0.000011,-0.000045,-0.000016,0.000015,-0.000049,-15.040633,0.000050,
2386,2623,2.78022705261498,-0.467539692141294,-0.0223091675771343,0.003600,0.000824,0.000505,0.163829,0.057713,320.907782,24.148275,0.999237,0.987114,0.004400,0.448879,-0.000005,-0.000010,-0.000007,0.000000,-0.000015,-33.362414,0.000017,
2056,2743,-4.41744478139477,2.13526829218552,-0.0366654594318447,0.003873,0.001447,-0.004312,0.191046,0.066699,319.683210,24.418157,0.999470,0.991485,0.003721,0.431650,-0.000006,-0.000029,0.000004,-0.000005,-0.000030,10.254058,0.000038,
2176,3253,-1.8940255577441,13.2073812502658,0.0337932452413838,0.003679,0.000145,0.006211,0.150539,0.035827,311.373912,24.855505,0.999757,0.994707,0.003069,0.395690,-0.000004,-0.000021,0.000010,0.000001,-0.000026,25.437810,0.000029,
2281,2368,0.541918037030406,-6.0403138149311,0.00346976438862612,0.003661,0.000910,-0.001478,0.173215,0.038970,325.293701,23.758192,0.999107,0.982889,0.005130,0.419462,-0.000026,-0.000003,-0.000002,-0.000002,-0.000027,-84.326108,0.000032,
2491,3283,4.9358637118963,13.8893989368125,0.00138019742041706,0.003976,0.000597,0.001028,0.179217,0.029065,310.507290,26.644793,0.999858,0.995637,0.002836,0.395904,0.000028,-0.000026,0.000010,0.000030,-0.000028,10.148144,0.000034,
2401,2758,3.08066584788546,2.4766671917198,-0.0320279744321965,0.004044,0.001475,-0.002843,0.196628,0.056253,318.674751,24.589103,0.999374,0.988142,0.004310,0.406332,-0.000012,-0.000007,-0.000001,-0.000007,-0.000012,-77.185783,0.000019,
2131,3043,-2.83495466282413,8.65276101020464,0.0165511194445003,0.004034,0.000541,0.002895,0.177573,0.057904,314.862850,24.593427,0.999417,0.992385,0.003619,0.377213,0.000005,-0.000025,-0.000002,0.000006,-0.000026,-4.282906,0.000027,
2146,3043,-2.50990300733753,8.65404145299781,0.00879957156826094,0.004028,0.000631,0.000328,0.184942,0.043438,314.743305,24.626890,0.999404,0.992854,0.003435,0.378582,0.000006,-0.000026,0.000000,0.000006,-0.000026,-0.194590,0.000028,
2206,3283,-1.24935866517323,13.8623047262887,0.0043006964302208,0.004406,0.001094,-0.005301,0.220532,0.047563,310.608810,25.086863,0.999424,0.992178,0.003462,0.367018,-0.000002,-0.000017,0.000024,0.000016,-0.000035,36.163856,0.000035,
2071,2608,-4.07066749485445,-0.802300386573577,-0.0320939970523,0.003955,0.000805,0.001173,0.178981,0.066814,321.813069,24.520753,0.999277,0.990232,0.003958,0.359211,0.000003,0.000008,0.000019,0.000025,-0.000014,48.354153,0.000025,
2026,2803,-5.0776790045182,3.43796766052003,-0.031967137336494,0.003834,0.000944,-0.001984,0.182493,0.049039,318.919874,24.373319,0.999527,0.992182,0.003594,0.409672,-0.000030,-0.000030,-0.000010,-0.000020,-0.000040,-45.538944,0.000061,
2191,3298,-1.57827803746578,14.1858138416373,0.00122046471534532,0.003852,0.000581,0.000035,0.177826,0.028350,310.340070,25.024521,0.999745,0.996126,0.002810,0.338039,-0.000008,0.000001,0.000019,0.000016,-0.000023,51.960374,0.000023,
2116,2803,-3.12298724378385,3.44116672687412,-0.0142997603746835,0.003997,0.000839,0.000231,0.183678,0.046712,318.583393,24.495665,0.999542,0.992680,0.003498,0.367888,-0.000011,-0.000029,0.000003,-0.000010,-0.000029,8.563947,0.000041,
2296,2428,0.857883903805018,-4.72667903451324,-0.00588458532666891,0.004154,0.001411,-0.002802,0.200641,0.080562,324.254956,23.903741,0.999542,0.988315,0.004373,0.391284,-0.000025,-0.000021,-0.000018,-0.000006,-0.000041,-47.817128,0.000050,
2176,3103,-1.86845156738496,9.95708805193949,0.0177091788017947,0.004046,0.000865,-0.002135,0.193493,0.046882,313.735561,24.748043,0.999531,0.993446,0.003368,0.404464,-0.000005,-0.000038,-0.000002,-0.000005,-0.000038,-3.253598,0.000047,
2056,2758,-4.41945450452097,2.46018063114502,-0.0221264279981028,0.003651,0.000731,0.001499,0.164263,0.056739,319.535068,24.416009,0.999321,0.990732,0.003954,0.418514,-0.000011,-0.000035,-0.000006,-0.000010,-0.000037,-14.145149,0.000049,
2011,2743,-5.39472664545506,2.13413829925717,-0.0408930326750578,0.003845,0.000728,-0.000566,0.179024,0.054088,319.910294,24.450251,0.999602,0.992524,0.003495,0.371865,-0.000039,-0.000022,0.000007,-0.000020,-0.000042,69.081631,0.000063,
2131,2983,-2.82579610782471,7.35143406155017,-0.00137355332088873,0.004107,0.001089,-0.002006,0.195683,0.045665,315.709178,24.545987,0.999768,0.994237,0.003102,0.393211,-0.000003,-0.000021,-0.000002,-0.000003,-0.000021,-5.517060,0.000026,
2041,2653,-4.72922638004823,0.17610792740814,-0.0378428580791592,0.004073,0.001232,-0.003595,0.197982,0.054783,321.225570,24.441160,0.999467,0.989687,0.004024,0.435525,0.000000,0.000011,0.000008,0.000015,-0.000004,62.647055,0.000016,
2086,2773,-3.77010460008788,2.78867113794331,-0.028903615936315,0.004192,0.001031,-0.002939,0.201994,0.058510,319.110768,24.461853,0.999547,0.990823,0.003973,0.388081,-0.000017,-0.000032,-0.000010,-0.000012,-0.000037,-26.650594,0.000051,
2341,2428,1.83985936424067,-4.72777321736987,0.00626441887737883,0.004090,0.002060,-0.006257,0.210167,0.091073,324.342526,23.724888,0.999704,0.993557,0.003774,0.454381,-0.000021,-0.000010,-0.000010,-0.000004,-0.000027,-59.906974,0.000033,
2476,3103,4.64819752399403,9.98138428244973,0.0169607270846086,0.004307,0.000935,-0.001069,0.202503,0.045173,313.579936,25.951553,0.999365,0.990526,0.003925,0.357066,0.000017,0.000002,0.000014,0.000025,-0.000006,30.821958,0.000026,
2311,2248,1.21837971144869,-8.66501273011815,0.00614984919917561,0.003648,0.001428,-0.005143,0.185256,0.060081,327.237684,23.444227,0.998973,0.980147,0.005371,0.378735,-0.000023,-0.000003,-0.000006,-0.000002,-0.000024,-74.744410,0.000029,
2371,2563,2.4657403665152,-1.77655446633005,-0.0155699082116598,0.003838,0.001193,0.000046,0.176477,0.075651,321.942153,24.071003,0.999405,0.988319,0.004390,0.389894,-0.000010,-0.000023,-0.000003,-0.000010,-0.000023,-13.478663,0.000034,
2071,2728,-4.08875239320835,1.80918768706984,-0.030679350911555,0.004350,0.001129,-0.001458,0.204934,0.071205,319.907394,24.432620,0.999260,0.989519,0.004045,0.429835,-0.000006,-0.000030,0.000004,-0.000005,-0.000030,9.289512,0.000038,
2101,2848,-3.45651541382878,4.41902537148228,-0.0256806988626863,0.004022,0.001191,-0.001455,0.190019,0.067669,317.833542,24.412528,0.999807,0.994268,0.003120,0.461665,-0.000010,-0.000017,0.000000,-0.000010,-0.000017,-1.974271,0.000027,
2296,2473,0.848269840913932,-3.74268010164805,-0.0226680057824638,0.003811,0.001375,-0.004908,0.192030,0.051507,323.377728,23.972582,0.998835,0.982689,0.005232,0.388022,-0.000014,-0.000018,-0.000006,-0.000010,-0.000023,-34.391155,0.000033,
2191,3178,-1.55554801348604,11.5847649321338,0.0236045253568591,0.004270,0.000937,0.000611,0.195326,0.047716,312.510884,24.924233,0.999806,0.996326,0.002957,0.353581,-0.000008,-0.000020,0.000004,-0.000007,-0.000021,15.562708,0.000028,
2101,2743,-3.43993527887977,2.13714661064716,-0.0305148854502022,0.003950,0.001149,-0.003032,0.191156,0.058992,319.498913,24.488278,0.999373,0.989886,0.004017,0.369094,-0.000004,-0.000035,0.000005,-0.000003,-0.000036,8.894715,0.000043,
2011,2518,-5.36000203700286,-2.76713865717778,-0.0193466269126361,0.003815,0.001140,-0.000424,0.177097,0.078979,323.727519,24.549717,0.999693,0.992995,0.003580,0.467701,0.000008,-0.000019,0.000014,0.000013,-0.000025,22.791030,0.000025,
2446,2983,4.01650647457602,7.37421558326501,-0.0146678322151956,0.003723,0.000950,-0.000300,0.172717,0.057705,315.186170,25.438255,0.999638,0.991207,0.003795,0.356702,-0.000001,-0.000036,0.000004,-0.000001,-0.000037,5.851985,0.000043,
2026,2563,-5.04053522437937,-1.78593929033255,-0.0184709520167416,0.003926,0.000977,-0.001773,0.185911,0.060114,322.921778,24.531797,0.999580,0.990014,0.003816,0.412537,0.000022,0.000016,0.000016,0.000035,0.000002,39.324686,0.000042,
2266,2323,0.223513927153796,-7.02241474126657,0.00271961560270029,0.004177,0.001380,-0.002575,0.200615,0.064703,326.061452,23.873811,0.998887,0.978782,0.005757,0.297970,-0.000017,-0.000003,0.000005,-0.000002,-0.000018,72.577950,0.000022,
2221,2053,-0.71117787801791,-12.9379580941306,0.0135043304393321,0.003310,0.000945,-0.001324,0.156194,0.055934,330.543203,23.610672,0.998870,0.976853,0.005767,0.335275,-0.000013,-0.000033,0.000000,-0.000013,-0.000033,0.328985,0.000048,
2131,3058,-2.83708951999187,8.97840329415614,0.0133398028514193,0.004161,0.001093,-0.003768,0.203567,0.054548,314.617117,24.598844,0.999263,0.992380,0.003770,0.373457,0.000008,-0.000027,-0.000007,0.000009,-0.000029,-10.906927,0.000029,
2476,3118,4.64503980785965,10.3064674018168,0.0208573558033436,0.004133,0.000659,0.002113,0.182295,0.045757,313.346681,25.967995,0.999429,0.990720,0.003781,0.396673,0.000014,0.000012,0.000017,0.000030,-0.000004,43.034901,0.000032,
2086,2788,-3.77233742771687,3.11418186422191,-0.0244798280098166,0.004085,0.001355,-0.002523,0.195981,0.076408,318.898402,24.415443,0.999465,0.990419,0.003937,0.451480,-0.000020,-0.000028,-0.000006,-0.000017,-0.000031,-28.751972,0.000048,
2236,2188,-0.40676512547055,-9.97775438866244,0.0101301962885145,0.003832,0.001062,-0.002648,0.184605,0.046021,328.338464,23.811321,0.999115,0.985530,0.004898,0.245126,-0.000010,0.000002,0.000009,0.000007,-0.000015,61.173867,0.000015,
2041,2878,-4.76321825923704,5.06816321003231,-0.02272444831857,0.003962,0.000756,0.000519,0.181505,0.048519,317.686366,24.402249,0.999070,0.986853,0.004534,0.354934,-0.000009,0.000001,-0.000016,0.000012,-0.000021,-53.945509,0.000021,
2236,2158,-0.401939982847722,-10.6348296151639,0.00263235093007097,0.003759,0.001511,-0.005798,0.191546,0.049152,328.766181,23.693391,0.998603,0.981913,0.005404,0.318534,-0.000010,-0.000018,0.000008,-0.000005,-0.000022,31.517517,0.000029,
2326,2368,1.52249332860055,-6.03737457648624,-0.0123647087665404,0.003999,0.001964,-0.006469,0.206446,0.083778,325.157332,23.643846,0.999407,0.986148,0.004550,0.426848,-0.000025,0.000004,0.000007,0.000006,-0.000026,76.488786,0.000028,
2416,2818,3.39589976060423,3.78304022825296,-0.0236130692077268,0.003724,0.001219,-0.003721,0.185243,0.057612,317.772946,24.771891,0.999322,0.988513,0.004305,0.422467,-0.000015,-0.000011,-0.000002,-0.000011,-0.000016,-70.397967,0.000027,
2176,3268,-1.89758655340115,13.5334544678665,0.0146066242807592,0.003716,0.000502,0.002040,0.165321,0.032299,310.981815,24.869978,0.999657,0.994025,0.003198,0.388546,0.000000,-0.000020,0.000014,0.000007,-0.000028,27.226010,0.000028,
2071,2983,-4.12708946186517,7.34733421282963,-0.00215297744739473,0.004478,0.000820,-0.001093,0.209891,0.036199,316.008107,24.366214,0.999296,0.991136,0.003750,0.402534,0.000006,-0.000027,-0.000020,0.000016,-0.000036,-25.245862,0.000036,
2461,3058,4.32988493533528,9.00281396747522,0.0119711242148242,0.003681,0.000785,0.000143,0.169049,0.046931,314.208401,25.712667,0.999556,0.989034,0.004151,0.379261,0.000001,-0.000013,0.000009,0.000005,-0.000018,25.291168,0.000018,
2116,2923,-3.14188651040307,6.04827623345196,-0.00795464580551197,0.003962,0.001156,-0.003831,0.194406,0.061172,316.696019,24.489272,0.998816,0.989516,0.004340,0.413904,-0.000002,-0.000015,0.000000,-0.000002,-0.000015,1.430987,0.000019,
2161,3043,-2.1838765074617,8.65501270065024,0.019824238924798,0.003919,0.000967,0.000924,0.178207,0.061048,314.770809,24.722714,0.999513,0.992960,0.003602,0.349362,0.000005,-0.000030,-0.000001,0.000005,-0.000030,-1.302397,0.000031,
2146,3118,-2.52162611081852,10.2803303011892,0.0224777105884186,0.003924,0.001028,-0.000461,0.182802,0.065381,313.631105,24.672046,0.999659,0.994769,0.003140,0.389517,-0.000005,-0.000029,-0.000002,-0.000005,-0.000029,-4.495437,0.000037,
2431,2923,3.70194595188395,6.06878524127281,-0.0174768344147651,0.003823,0.000810,-0.000251,0.176983,0.048488,316.122727,25.206415,0.999674,0.992011,0.003636,0.341928,-0.000012,-0.000034,-0.000008,-0.000010,-0.000037,-17.508722,0.000049,
2491,3298,4.9327256713565,14.2151548634322,-0.000363364583506609,0.003833,0.000931,-0.001541,0.182738,0.042247,310.249076,26.724173,0.999740,0.993313,0.003360,0.386961,0.000019,-0.000033,0.000002,0.000019,-0.000033,1.750944,0.000033,
2101,2758,-3.44152066630238,2.46233417102948,-0.024759414291907,0.004252,0.001251,-0.005294,0.211762,0.060179,319.324510,24.431435,0.999437,0.989998,0.003911,0.428366,-0.000009,-0.000038,-0.000002,-0.000009,-0.000038,-3.532743,0.000051,
2251,2113,-0.0660807877827558,-11.6223094152716,0.0122049391570727,0.003787,0.001678,-0.005831,0.193144,0.062989,329.543168,23.534088,0.999098,0.980578,0.005468,0.330936,-0.000015,-0.000006,0.000001,-0.000006,-0.000015,82.190006,0.000022,
2356,2488,2.15421752997949,-3.41579995675105,-0.00873361688121577,0.004209,0.000935,-0.002505,0.202316,0.059048,323.237929,23.825246,0.999563,0.987864,0.004243,0.441355,-0.000012,-0.000018,0.000002,-0.000011,-0.000019,17.800179,0.000030,
2041,2668,-4.73088486405347,0.50158811080842,-0.0275325641572977,0.004164,0.000947,-0.002131,0.197992,0.039102,321.069102,24.440330,0.999440,0.988526,0.004233,0.413264,-0.000013,0.000006,0.000011,0.000011,-0.000019,64.882024,0.000019,
2281,2383,0.538913071597161,-5.71135714486451,-0.00636996376886145,0.003977,0.000778,-0.002862,0.192323,0.042724,324.987920,23.786257,0.998873,0.982507,0.005293,0.424761,-0.000026,-0.000003,-0.000003,-0.000003,-0.000027,-81.866235,0.000033,
2281,2398,0.535905620959017,-5.38238455934471,-0.010486940427711,0.004037,0.000741,-0.002010,0.192269,0.056995,324.710413,23.866461,0.999093,0.984918,0.005094,0.388523,-0.000023,-0.000005,-0.000004,-0.000004,-0.000024,-77.912943,0.000031,
2341,2443,1.83595544733432,-4.39823645089942,-0.00733027852049872,0.004144,0.001416,-0.004964,0.207926,0.059757,323.983422,23.829446,0.999349,0.987898,0.004474,0.356995,-0.000015,-0.000022,-0.000009,-0.000009,-0.000028,-35.461566,0.000039,
2476,3133,4.64204414595617,10.6328288150241,0.0188475890514042,0.004134,0.000660,-0.000495,0.192334,0.042074,313.093535,26.073651,0.999481,0.990446,0.003726,0.342631,0.000018,0.000007,0.000010,0.000025,0.000001,31.059099,0.000029,
2386,2638,2.77767007663267,-0.140105426328589,-0.0234597511707193,0.003785,0.000944,-0.002613,0.183554,0.051550,320.673934,24.217497,0.999226,0.987266,0.004393,0.417457,-0.000006,-0.000005,-0.000009,0.000004,-0.000015,-45.851156,0.000016,
2086,2803,-3.77452513902196,3.44032758488149,-0.0200713438601952,0.004121,0.001012,-0.000691,0.192226,0.068206,318.687895,24.456967,0.999397,0.990747,0.003842,0.400501,-0.000015,-0.000028,-0.000002,-0.000015,-0.000028,-8.332230,0.000044,
2116,2818,-3.12579059697999,3.76764356941194,-0.0188677904549195,0.003905,0.001043,-0.000079,0.180499,0.065416,318.298208,24.476553,0.999503,0.992292,0.003633,0.409245,-0.000008,-0.000027,0.000000,-0.000008,-0.000027,-0.743052,0.000037,
2461,3073,4.32647398769243,9.32868171825278,0.00775521105981625,0.003893,0.000709,0.003239,0.167094,0.048995,313.925339,25.736907,0.999593,0.991488,0.003800,0.410667,0.000002,-0.000009,0.000007,0.000006,-0.000012,24.894267,0.000012,
2056,2908,-4.4418545968841,5.71970092407907,-0.0116196133122344,0.003891,0.001158,0.000004,0.179813,0.073501,317.202217,24.392177,0.999495,0.992064,0.003671,0.403040,-0.000012,-0.000023,-0.000021,0.000005,-0.000039,-37.863262,0.000043,
2146,3058,-2.51222656036302,8.97912170897681,0.0132366530356194,0.003828,0.000821,-0.001089,0.180090,0.042580,314.530946,24.628649,0.999507,0.993983,0.003396,0.382745,0.000008,-0.000029,-0.000005,0.000009,-0.000029,-7.792064,0.000030,
2251,2203,-0.0822477617039219,-9.65035798965394,0.00410768935228134,0.004201,0.001289,-0.002624,0.201597,0.076403,328.035334,23.575140,0.998998,0.984463,0.005067,0.460424,-0.000020,0.000013,0.000002,0.000013,-0.000020,86.660772,0.000020,
2371,2578,2.46280776813786,-1.44959629604232,-0.0182333681366345,0.003771,0.001138,-0.002603,0.182825,0.065354,321.682965,24.067717,0.999366,0.987597,0.004530,0.424808,-0.000008,-0.000007,-0.000002,-0.000005,-0.000010,-49.100926,0.000016,
2431,2938,3.69948152657249,6.39442426425722,-0.0165244156140147,0.004107,0.000825,-0.002028,0.196662,0.043630,315.905559,25.214842,0.999656,0.991858,0.003708,0.377955,-0.000010,-0.000045,-0.000009,-0.000008,-0.000047,-13.223867,0.000059,
2026,2578,-5.04334500113802,-1.45835332896385,-0.0243704055195622,0.003793,0.000922,-0.000607,0.176560,0.056145,322.620715,24.545659,0.999191,0.988969,0.004227,0.385737,0.000015,0.000000,0.000006,0.000017,-0.000002,19.937033,0.000018,
2161,3058,-2.1851368057957,8.97886599599299,0.0299404880332759,0.004286,0.001151,-0.002487,0.205601,0.052551,314.638634,24.655415,0.999650,0.994756,0.003381,0.417572,0.000009,-0.000032,-0.000005,0.000009,-0.000033,-7.235131,0.000034,
2221,2068,-0.71330742723001,-12.6086326020956,0.0131577500716276,0.003684,0.001088,-0.002562,0.177358,0.058523,330.320260,23.652579,0.998886,0.977413,0.005750,0.318047,-0.000012,-0.000029,0.000002,-0.000012,-0.000029,7.250192,0.000043,
2041,2683,-4.73380653802852,0.82878960761866,-0.032514124096565,0.003925,0.000920,-0.000703,0.183049,0.053954,320.769484,24.444253,0.999497,0.991038,0.003857,0.417236,-0.000012,-0.000008,0.000007,-0.000002,-0.000017,53.078329,0.000022,
2071,2743,-4.09089902521141,2.13496790686514,-0.0282050960049105,0.004247,0.001268,-0.003886,0.207085,0.045161,319.687297,24.426549,0.999405,0.990730,0.003869,0.406826,-0.000009,-0.000032,0.000006,-0.000007,-0.000033,13.318736,0.000043,
2191,3193,-1.55786275520481,11.9087061975981,0.0343204558714092,0.003819,0.000862,0.000649,0.174413,0.045906,312.334784,24.891135,0.999717,0.995536,0.003104,0.397961,-0.000009,-0.000022,0.000002,-0.000009,-0.000023,10.491883,0.000032,
2056,2773,-4.42110388172173,2.78621635516299,-0.020618716019726,0.003945,0.001161,-0.003229,0.191271,0.052198,319.331273,24.411968,0.999017,0.988627,0.004329,0.412546,-0.000012,-0.000029,-0.000010,-0.000007,-0.000034,-25.630455,0.000044,
2086,2818,-3.77674166420318,3.76667001303171,-0.0228231482519732,0.004256,0.001251,-0.003983,0.208091,0.076345,318.436994,24.449554,0.999517,0.992373,0.003588,0.415123,-0.000014,-0.000022,-0.000004,-0.000012,-0.000024,-22.536140,0.000037,
2131,2998,-2.82796985011949,7.67662131983058,0.00150150293586648,0.004098,0.001596,-0.003932,0.201296,0.074344,315.494333,24.502955,0.999797,0.994180,0.003159,0.469950,-0.000002,-0.000020,-0.000002,-0.000002,-0.000021,-6.948600,0.000025,
2131,3073,-2.83959087390178,9.30385227539542,0.0143296579574326,0.004090,0.001424,-0.003675,0.200172,0.072129,314.377087,24.597125,0.999616,0.994145,0.003401,0.397474,0.000006,-0.000026,-0.000007,0.000007,-0.000027,-12.401345,0.000028,
2356,2503,2.15084170287547,-3.08796977941516,-0.0102620133092159,0.004003,0.000598,0.000226,0.183138,0.042740,322.962726,23.892698,0.999558,0.988207,0.004286,0.397607,-0.000014,-0.000007,0.000005,-0.000004,-0.000017,61.423340,0.000023,
2176,3283,-1.90009149991135,13.8588823068101,0.00914517862156572,0.003930,0.000783,-0.001420,0.186101,0.045640,310.710642,24.889101,0.999687,0.994955,0.003017,0.393657,0.000003,-0.000015,0.000019,0.000016,-0.000028,32.299504,0.000028,
2446,2998,4.01459883334864,7.69912329751453,-0.00112329267852829,0.003947,0.000785,0.002682,0.171767,0.048386,315.053794,25.485491,0.999412,0.988494,0.004083,0.351632,0.000005,-0.000032,0.000003,0.000005,-0.000032,5.353181,0.000034,
2416,2833,3.392963443236,4.11002465599453,-0.0251046760682243,0.003950,0.000964,-0.002572,0.191291,0.032857,317.521709,24.876225,0.998861,0.986844,0.004477,0.341052,-0.000014,-0.000011,0.000003,-0.000009,-0.000016,57.368140,0.000025,
2266,2173,0.249827928097371,-10.3078140834624,0.00707089192945887,0.003580,0.001062,-0.002021,0.171096,0.069674,328.488419,23.467498,0.999385,0.984542,0.005088,0.430200,-0.000020,-0.000018,0.000010,-0.000009,-0.000029,48.738767,0.000040,
2401,2773,3.07838106475506,2.80261655672268,-0.0257018951731425,0.004018,0.001486,-0.004835,0.202692,0.054577,318.489616,24.618638,0.999437,0.988529,0.004210,0.420681,-0.000016,-0.000012,-0.000009,-0.000005,-0.000023,-51.578898,0.000030,
2011,2533,-5.36195043647113,-2.44027562067681,-0.0181257493132421,0.003925,0.000874,-0.001893,0.186090,0.061110,323.504581,24.558902,0.999249,0.987745,0.004457,0.429643,0.000006,-0.000012,0.000025,0.000023,-0.000030,35.161638,0.000032,
2236,2413,-0.449217032866873,-5.05170476363741,-0.0331369847470455,0.003691,0.000712,-0.001192,0.173578,0.049181,324.335159,24.137040,0.999643,0.991128,0.003788,0.272135,-0.000018,-0.000014,-0.000002,-0.000014,-0.000018,-68.921169,0.000032,
2476,3148,4.63883817820167,10.9584070798347,0.0206544404217652,0.003858,0.000684,-0.000059,0.177969,0.039800,312.848226,26.133106,0.999546,0.989646,0.003769,0.336412,0.000020,-0.000004,0.000010,0.000024,-0.000007,19.806934,0.000024,
2281,2638,0.49184019058821,-0.143469774007258,-0.0242585476887598,0.004182,0.000939,-0.002681,0.201492,0.046580,320.715532,24.313943,0.999340,0.986056,0.004373,0.392354,-0.000020,-0.000016,-0.000003,-0.000015,-0.000021,-64.370648,0.000036,
2266,2338,0.219939124407031,-6.69344309119316,-0.0108414546704694,0.003824,0.001950,-0.008460,0.204090,0.077945,325.709433,23.839868,0.999077,0.982467,0.005241,0.373125,-0.000015,-0.000003,0.000001,-0.000003,-0.000015,84.562107,0.000019,
2011,2998,-5.43082903572036,7.66945244852907,0.00306540172499581,0.003706,0.001007,-0.000232,0.172031,0.068068,316.129658,24.239059,0.999429,0.992452,0.003431,0.387209,0.000009,-0.000032,-0.000013,0.000013,-0.000036,-15.762048,0.000036,
2146,3133,-2.52412927782058,10.6047144468232,0.0271535356707773,0.003842,0.000711,0.002724,0.169246,0.061734,313.412031,24.631280,0.999550,0.993657,0.003427,0.433595,-0.000006,-0.000029,-0.000002,-0.000006,-0.000029,-4.962557,0.000038,
2026,2593,-5.04638681170666,-1.13080572264896,-0.0287036491573076,0.003463,0.000804,0.002693,0.152352,0.072595,322.317714,24.554830,0.999097,0.988822,0.004364,0.384293,0.000009,0.000012,0.000017,0.000028,-0.000006,47.732671,0.000029,
2296,2488,0.846174898884257,-3.41559043733459,-0.0210105556831195,0.004228,0.001533,-0.006136,0.215406,0.053609,323.172121,23.977957,0.999437,0.988257,0.004295,0.415788,-0.000015,-0.000012,-0.000009,-0.000004,-0.000022,-50.443089,0.000029,
2011,2758,-5.39676906368136,2.45962256925213,-0.0377817171901711,0.003811,0.000946,-0.001487,0.180004,0.058861,319.694364,24.395033,0.999511,0.992060,0.003640,0.419912,-0.000047,-0.000040,-0.000016,-0.000028,-0.000060,-50.925410,0.000089,
2326,2383,1.51923811581037,-5.70924948955876,-0.00894929685142642,0.003745,0.001091,-0.000227,0.172999,0.084049,324.909547,23.728902,0.999534,0.987208,0.004587,0.378061,-0.000021,0.000004,0.000001,0.000004,-0.000021,88.800017,0.000022,
2296,2443,0.853949939228833,-4.39982938506664,-0.0154634175343062,0.003957,0.000761,0.001365,0.177312,0.056255,323.909737,23.793108,0.999643,0.989084,0.004196,0.509543,-0.000016,-0.000026,-0.000013,-0.000008,-0.000034,-35.034489,0.000045,
2206,1993,-1.02670386273192,-14.2549343147124,0.0180166503922692,0.004226,0.001918,-0.008419,0.220757,0.056102,331.645551,23.620186,0.999332,0.983873,0.005014,0.340962,-0.000006,-0.000085,-0.000015,-0.000004,-0.000088,-10.345112,0.000103,
2236,2203,-0.409099705801438,-9.65201500430673,0.0137863613318245,0.003862,0.001069,-0.002045,0.184036,0.056299,328.128047,23.609196,0.999425,0.988423,0.004504,0.480994,-0.000011,0.000014,0.000008,0.000017,-0.000013,74.011506,0.000018,
2041,2893,-4.76496842926245,5.39311338439319,-0.0135943603215765,0.003882,0.000916,-0.001017,0.182162,0.058523,317.519685,24.373095,0.999270,0.991564,0.003778,0.385947,-0.000009,-0.000012,-0.000015,0.000005,-0.000026,-42.272830,0.000027,
2176,3118,-1.87059491344662,10.2819986945622,0.0242677160403559,0.004043,0.000905,-0.001856,0.192496,0.043774,313.544494,24.764211,0.999495,0.992988,0.003518,0.396112,-0.000007,-0.000034,-0.000001,-0.000007,-0.000034,-2.870419,0.000043,
2251,2218,-0.0845316657815864,-9.32173261127139,0.00845112732912412,0.003994,0.001491,-0.006064,0.203466,0.064059,327.831480,23.671816,0.998651,0.978699,0.005723,0.377311,-0.000016,0.000014,0.000002,0.000015,-0.000017,86.177456,0.000018,
2071,2998,-4.12887056534342,7.67248584296065,0.012030419750829,0.004018,0.001293,-0.003948,0.197045,0.056927,315.869407,24.403139,0.999497,0.992575,0.003435,0.382124,0.000008,-0.000022,-0.000020,0.000018,-0.000032,-26.331103,0.000032,
2431,2953,3.69582984075221,6.7209889737346,-0.0219524730470653,0.003895,0.000835,-0.001696,0.185682,0.039646,315.603733,25.267295,0.999729,0.992985,0.003539,0.370993,-0.000010,-0.000050,-0.000006,-0.000009,-0.000051,-8.518815,0.000065,
2011,3013,-5.43291173262136,7.99409656900373,0.00488588879954932,0.003740,0.000736,-0.001302,0.176438,0.054941,315.905477,24.181551,0.999573,0.993039,0.003426,0.418921,0.000009,-0.000034,-0.000005,0.000010,-0.000035,-7.111130,0.000036,
2131,3088,-2.8415708668656,9.62785351613491,0.0254000274849204,0.004062,0.000748,-0.000843,0.190118,0.041292,314.215518,24.578208,0.999824,0.995343,0.003124,0.390058,-0.000001,-0.000031,-0.000005,0.000000,-0.000031,-9.151647,0.000036,
2416,2848,3.39034796527676,4.43596363413182,-0.0211606375615929,0.003994,0.001012,-0.002199,0.191963,0.040641,317.310814,24.897092,0.999293,0.988424,0.004155,0.375254,-0.000014,-0.000012,-0.000004,-0.000009,-0.000018,-52.123775,0.000027,
2461,3088,4.32312282035197,9.65532026022172,0.00439288966310869,0.003720,0.000858,0.001760,0.164806,0.047557,313.648627,25.845752,0.999594,0.993546,0.003584,0.353894,0.000006,0.000000,0.000004,0.000008,-0.000002,26.847776,0.000009,
2101,2893,-3.46272599761104,5.39597894753509,-0.0151204644610061,0.004224,0.001354,-0.004061,0.206972,0.053452,317.207248,24.431915,0.999450,0.992593,0.003772,0.430650,-0.000005,-0.000014,-0.000004,-0.000004,-0.000015,-19.450228,0.000020,
2176,3298,-1.90338263821898,14.1841226277467,0.00155251377310606,0.003760,0.000767,-0.001095,0.177178,0.036192,310.392158,24.906739,0.999794,0.996459,0.002584,0.377265,0.000008,0.000001,0.000021,0.000025,-0.000016,39.747450,0.000026,
2296,2503,0.842470523875829,-3.08662484853,-0.0281760393456238,0.004019,0.001238,-0.003068,0.195351,0.047114,322.848656,24.088549,0.999727,0.992260,0.003704,0.330185,-0.000020,0.000000,-0.000006,0.000002,-0.000022,-73.780962,0.000025,
2026,2608,-5.04864699618953,-0.803789660792781,-0.0325204042197242,0.003807,0.000325,0.004654,0.162677,0.081447,322.053535,24.532493,0.999207,0.986960,0.004501,0.406504,0.000008,0.000016,0.000016,0.000028,-0.000005,51.908715,0.000030,
2326,2398,1.51777897891541,-5.38349037747127,8.85710956026742E-05,0.004044,0.001325,-0.004570,0.201730,0.047090,324.772027,23.692592,0.999530,0.987225,0.004612,0.412895,-0.000018,0.000003,-0.000003,0.000004,-0.000019,-83.047912,0.000020,
2386,2653,2.77455327630328,0.186555717734393,-0.0216813366722022,0.003638,0.000640,0.000135,0.166839,0.047612,320.428360,24.243020,0.999131,0.986694,0.004566,0.431568,-0.000010,-0.000010,-0.000009,0.000000,-0.000019,-44.395491,0.000022,
2026,2818,-5.08008445926874,3.76309380262447,-0.0254680007931825,0.003568,0.000455,0.002123,0.158820,0.046661,318.707502,24.334668,0.999366,0.991602,0.003698,0.435926,-0.000034,-0.000022,-0.000007,-0.000019,-0.000037,-64.355626,0.000057,
2056,2923,-4.44379977452793,6.04480735385759,-0.00746062829983885,0.004035,0.000929,-0.000043,0.186530,0.061279,316.999999,24.370875,0.999510,0.992370,0.003604,0.406429,-0.000009,-0.000018,-0.000018,0.000005,-0.000032,-37.834179,0.000034,
2071,2758,-4.09359358577502,2.46130178062133,-0.0289467689018466,0.004122,0.000890,-0.001155,0.193521,0.055790,319.424242,24.413589,0.999456,0.991686,0.003764,0.427300,-0.000013,-0.000036,-0.000004,-0.000012,-0.000037,-9.655970,0.000051,
2116,2938,-3.14452088428708,6.37430586295073,-0.00966610287571257,0.003950,0.001029,-0.002898,0.191048,0.055926,316.434115,24.509530,0.999334,0.991086,0.003886,0.391373,0.000000,-0.000010,0.000002,0.000001,-0.000010,11.965279,0.000012,
2146,3073,-2.51503365641384,9.30519013799824,0.00443602463064963,0.004065,0.000884,-0.001898,0.193508,0.044421,314.225639,24.637080,0.999709,0.995943,0.002997,0.383334,0.000006,-0.000028,-0.000005,0.000006,-0.000028,-7.959444,0.000030,
2311,2263,1.21585202827704,-8.33651439119861,0.00741196014519119,0.003993,0.001025,-0.002270,0.191155,0.047020,327.011933,23.514144,0.999265,0.983680,0.004908,0.330327,-0.000028,-0.000005,-0.000006,-0.000004,-0.000030,-75.761026,0.000037,
2401,2788,3.07479036802801,3.12994629895643,-0.0251614475398583,0.003814,0.000872,0.001492,0.170207,0.057480,318.216754,24.729376,0.999549,0.988339,0.004224,0.358187,-0.000015,-0.000008,-0.000008,-0.000003,-0.000020,-55.682122,0.000025,
2191,1993,-1.35421164075184,-14.2553160471017,0.0256552005718618,0.003983,0.001411,-0.003751,0.194628,0.055053,331.724231,23.741427,0.999394,0.984398,0.005090,0.324211,0.000005,-0.000092,0.000004,0.000006,-0.000092,2.566637,0.000103,
2146,3148,-2.52703719180186,10.9307389138536,0.0197830447557408,0.003812,0.001198,0.000725,0.174103,0.074191,313.109656,24.655655,0.999567,0.992858,0.003490,0.428349,-0.000004,-0.000025,0.000000,-0.000004,-0.000025,0.335955,0.000031,
2446,3013,4.01167498106661,8.02535051507345,-0.00344002038889357,0.003876,0.001160,-0.001399,0.183886,0.050908,314.800918,25.538376,0.999292,0.986621,0.004158,0.352690,0.000008,-0.000033,0.000005,0.000008,-0.000034,6.736151,0.000035,
2011,2548,-5.36400885620224,-2.11332457619793,-0.0219759226861811,0.004212,0.001191,-0.003566,0.203957,0.062225,323.248123,24.516932,0.999403,0.988749,0.004067,0.461950,0.000012,-0.000005,0.000030,0.000034,-0.000028,37.230410,0.000036,
2011,3028,-5.4342325084271,8.31892554879408,0.0148515193425851,0.004217,0.000373,0.000332,0.193937,0.048889,315.762004,24.191704,0.999566,0.993094,0.003502,0.389709,0.000018,-0.000033,0.000008,0.000019,-0.000035,8.380081,0.000035,
2086,3058,-3.81277859026595,8.97397867148056,0.0183639842906018,0.004149,0.000946,-0.002264,0.198212,0.036168,314.866889,24.383323,0.999477,0.992687,0.003451,0.416610,0.000011,-0.000026,-0.000015,0.000016,-0.000031,-19.583648,0.000031,
2161,3133,-2.19880129096979,10.6060331079187,0.0276541517609417,0.003707,0.000709,0.000868,0.168603,0.052595,313.357514,24.718351,0.999514,0.993002,0.003544,0.399693,-0.000005,-0.000035,-0.000003,-0.000004,-0.000035,-4.800569,0.000043,
2236,2218,-0.412177304260677,-9.3215077031861,0.00205696635714503,0.004005,0.001004,-0.005234,0.200926,0.039575,327.804902,23.714136,0.999062,0.983526,0.005034,0.383299,-0.000008,0.000017,0.000010,0.000021,-0.000011,70.633841,0.000021,
2281,2653,0.489099315416926,0.18350425638841,-0.0238167798223117,0.004079,0.001122,-0.003203,0.198585,0.048577,320.472706,24.349617,0.999457,0.988663,0.004144,0.387019,-0.000016,-0.000017,-0.000001,-0.000016,-0.000018,-30.647401,0.000034,
2011,2773,-5.39837700941388,2.78631988582478,-0.0373331262195506,0.004177,0.001431,-0.005741,0.208588,0.063237,319.483016,24.434598,0.999561,0.991671,0.003739,0.372736,-0.000046,-0.000038,-0.000026,-0.000016,-0.000068,-49.190837,0.000089,
2506,1993,5.53241097346922,-14.2642622102192,0.0310788130753394,0.004065,0.001920,-0.005815,0.208901,0.071365,331.835247,21.575329,0.999317,0.973713,0.006107,0.272377,0.000043,-0.000080,0.000106,0.000104,-0.000141,30.057655,0.000147,
2026,2833,-5.08219085520562,4.08978045965393,-0.0250080286880916,0.003641,0.000785,0.000771,0.166022,0.059878,318.474589,24.381588,0.999706,0.993958,0.003408,0.392234,-0.000039,-0.000010,-0.000010,-0.000007,-0.000042,-72.828988,0.000053,
2041,2908,-4.76673429381417,5.71864255573392,-0.00949818467148589,0.004166,0.001128,-0.001385,0.196356,0.064176,317.324180,24.368219,0.999452,0.991650,0.003659,0.388452,-0.000009,-0.000025,-0.000022,0.000007,-0.000040,-34.911634,0.000043,
2341,2458,1.83216307586492,-4.07013322702005,-0.0178995275488774,0.003945,0.001164,-0.005280,0.199822,0.048164,323.644182,23.817973,0.999520,0.987450,0.004394,0.395348,-0.000017,-0.000022,-0.000007,-0.000012,-0.000028,-35.726562,0.000041,
2191,2008,-1.35722592840191,-13.9269185208062,0.0243510978071413,0.003814,0.000729,0.000047,0.174843,0.040794,331.453579,23.681496,0.999282,0.984098,0.005117,0.388264,0.000008,-0.000058,0.000027,0.000018,-0.000068,19.730879,0.000071,
2071,2773,-4.09538051087068,2.78752159523788,-0.0246290052009499,0.004284,0.001223,-0.003353,0.207325,0.058050,319.230547,24.442478,0.999331,0.990021,0.004052,0.397548,-0.000013,-0.000030,-0.000009,-0.000009,-0.000034,-22.994063,0.000045,
2101,2863,-3.45810822299579,4.74488600357066,-0.016737510188193,0.004251,0.001135,-0.001841,0.201686,0.063577,317.675940,24.473860,0.999631,0.992436,0.003572,0.397038,-0.000008,-0.000018,-0.000005,-0.000006,-0.000020,-22.014610,0.000028,
2116,2953,-3.14691690037535,6.70025200312367,-0.00742535563159663,0.003998,0.001101,-0.000795,0.187055,0.066438,316.204416,24.538424,0.999606,0.991683,0.003589,0.375680,0.000003,-0.000016,0.000003,0.000003,-0.000016,8.804006,0.000017,
2431,2968,3.69277269426086,7.04659840236991,-0.0193537830947434,0.003650,0.000944,-0.001052,0.172087,0.050155,315.366783,25.277720,0.999842,0.994992,0.003134,0.420540,-0.000009,-0.000046,-0.000002,-0.000009,-0.000046,-3.426278,0.000059,
2281,2413,0.532947189407604,-5.0554456421851,-0.00581423259632174,0.003609,0.000452,0.000412,0.164427,0.036617,324.479382,23.884203,0.999290,0.986612,0.004702,0.379654,-0.000022,-0.000011,-0.000007,-0.000008,-0.000026,-63.311782,0.000035,
2041,2698,-4.73597441758081,1.15545707075032,-0.0327436866954827,0.004015,0.000962,-0.001522,0.189522,0.058006,320.530913,24.453931,0.999422,0.991350,0.003770,0.404291,0.000002,-0.000015,0.000008,0.000005,-0.000018,23.011410,0.000019,
2176,3133,-1.8726910798696,10.6075535000755,0.0297863244931591,0.004098,0.001048,-0.002505,0.197203,0.066302,313.349885,24.810762,0.999452,0.992749,0.003653,0.383326,-0.000008,-0.000032,-0.000001,-0.000008,-0.000032,-1.638582,0.000043,
2401,2803,3.07199976583479,3.45614135687484,-0.0266013204188198,0.003846,0.001042,-0.001161,0.181409,0.069626,317.971534,24.715548,0.999587,0.990004,0.004059,0.429871,-0.000014,-0.000012,-0.000004,-0.000008,-0.000017,-49.755082,0.000026,
2131,3103,-2.84417030924417,9.95318050193529,0.0272899994062641,0.003903,0.000781,0.000236,0.179587,0.047607,313.975868,24.589112,0.999798,0.995775,0.002952,0.389976,-0.000003,-0.000030,-0.000002,-0.000003,-0.000030,-5.144248,0.000036,
2116,2833,-3.12867098831446,4.09471776798914,-0.0241542157594381,0.003831,0.000973,0.000274,0.176043,0.065921,318.005468,24.530039,0.999653,0.992668,0.003593,0.359537,-0.000010,-0.000021,0.000003,-0.000009,-0.000022,13.088558,0.000031,
2146,3088,-2.51716130053254,9.63076339395618,0.00951880945825678,0.004261,0.000628,0.000266,0.195971,0.048968,314.025524,24.690599,0.999672,0.994702,0.003169,0.341147,-0.000001,-0.000033,-0.000003,-0.000001,-0.000033,-4.974959,0.000039,
2206,2008,-1.02919859611855,-13.9277519216159,0.0300260835645076,0.003899,0.000921,-0.001545,0.183802,0.029450,331.468602,23.613924,0.999238,0.980604,0.005367,0.340597,-0.000003,-0.000058,0.000005,-0.000002,-0.000058,5.421094,0.000068,
2251,2233,-0.0880659028011159,-8.99310609773108,0.0023138772587572,0.003766,0.000868,-0.002830,0.182255,0.036366,327.517600,23.680515,0.998711,0.979854,0.005537,0.366851,-0.000016,0.000015,0.000002,0.000015,-0.000017,85.504559,0.000018,
2056,2788,-4.42389183961302,3.1135142049356,-0.0269206907020703,0.003944,0.001239,-0.002183,0.188305,0.062781,319.031852,24.452562,0.999193,0.989156,0.004151,0.377234,-0.000016,-0.000026,-0.000005,-0.000014,-0.000028,-24.136480,0.000043,
2086,3073,-3.81562864942228,9.2999288674686,0.015051466705188,0.003853,0.000794,-0.003456,0.188005,0.036096,314.584133,24.416384,0.999397,0.991649,0.003573,0.381643,0.000006,-0.000024,-0.000015,0.000012,-0.000030,-21.833273,0.000030,
2086,2833,-3.77926325523388,4.09207932035525,-0.016185534994122,0.003967,0.000640,0.000205,0.182490,0.054572,318.223605,24.461871,0.999770,0.994884,0.003027,0.379605,-0.000014,-0.000019,-0.000004,-0.000011,-0.000021,-29.832045,0.000033,
2026,2623,-5.05015028886124,-0.478025926203394,-0.0267628916382137,0.003952,0.000927,0.000380,0.181266,0.064440,321.877818,24.507781,0.999176,0.986947,0.004583,0.404861,0.000007,-0.000009,0.000005,0.000008,-0.000010,16.491482,0.000011,
2191,3208,-1.5604666138919,12.2340071994551,0.0326993788166874,0.003894,0.000873,0.000185,0.179338,0.048329,312.080497,24.909978,0.999515,0.993424,0.003567,0.394631,-0.000008,-0.000017,0.000004,-0.000006,-0.000019,20.247522,0.000026,
2011,2788,-5.40021840902918,3.11210729679019,-0.0314768978979032,0.004205,0.001752,-0.006352,0.211709,0.089728,319.291622,24.414998,0.999602,0.991623,0.003687,0.406615,-0.000046,-0.000031,-0.000016,-0.000020,-0.000056,-57.445881,0.000079,
2476,3163,4.63573283142433,11.2843105705439,0.0180611223563005,0.003852,0.000788,-0.001993,0.185055,0.029172,312.587330,26.208100,0.999553,0.990480,0.003745,0.306232,0.000018,0.000010,0.000009,0.000024,0.000004,32.472424,0.000030,
2296,2458,0.851445324263377,-4.07027615999646,-0.0206649581305101,0.004214,0.001180,-0.003519,0.205794,0.072883,323.650970,23.935858,0.999424,0.987460,0.004489,0.414895,-0.000019,-0.000029,-0.000011,-0.000012,-0.000036,-32.831173,0.000050,
2131,3013,-2.83050729900617,8.00244027007927,0.008087450642563,0.003844,0.001023,-0.000454,0.179014,0.070805,315.282474,24.578752,0.999429,0.991216,0.003759,0.395442,0.000002,-0.000020,-0.000003,0.000002,-0.000021,-6.557406,0.000023,
2011,3043,-5.43673401632742,8.6440153865409,0.0178003300161436,0.003873,0.000788,0.000998,0.176346,0.062390,315.524848,24.163157,0.999476,0.993262,0.003598,0.419016,0.000014,-0.000013,0.000010,0.000017,-0.000017,18.733842,0.000020,
2011,2563,-5.36666259151453,-1.78629959769298,-0.0218225437217257,0.003764,0.001052,-0.003699,0.183666,0.055750,322.986905,24.529875,0.999313,0.988082,0.004224,0.431496,0.000001,0.000023,0.000024,0.000038,-0.000014,57.139561,0.000038,
2266,2188,0.247738637541417,-9.97868397129299,0.0147826353273217,0.003859,0.000927,0.001568,0.172024,0.082650,328.311320,23.610521,0.999007,0.983624,0.005219,0.327875,-0.000024,-0.000001,0.000003,-0.000001,-0.000025,82.651628,0.000029,
2131,3118,-2.84700529144574,10.2790531658377,0.0213892345292379,0.003863,0.001009,-0.001080,0.181880,0.066886,313.683480,24.592646,0.999737,0.995575,0.003012,0.410415,-0.000003,-0.000026,-0.000004,-0.000003,-0.000027,-10.282117,0.000032,
2506,2008,5.52846061385388,-13.9352473521833,0.0268491130976258,0.003359,0.001915,-0.008626,0.187469,0.057939,331.537187,21.540881,0.999335,0.975421,0.006048,0.358412,0.000027,-0.000085,0.000104,0.000089,-0.000147,30.857859,0.000148,
2026,2848,-5.08508757717955,4.41437911753545,-0.0427999116464548,0.003724,0.001018,-0.005388,0.186808,0.034030,318.104335,24.143764,0.999691,0.995273,0.003205,0.594674,-0.000031,0.000002,-0.000005,0.000003,-0.000031,-82.127162,0.000035,
2056,2938,-4.44610736954096,6.37010211669556,-0.00551484080762066,0.003948,0.000771,-0.000221,0.182937,0.048715,316.768910,24.355282,0.999360,0.991749,0.003699,0.403491,-0.000002,-0.000012,-0.000009,0.000003,-0.000018,-30.772636,0.000019,
2191,2188,-1.38820261168946,-9.97791767849237,0.0093547996237362,0.003864,0.001077,-0.001582,0.182554,0.055408,328.442888,23.971716,0.998709,0.978118,0.005654,0.324996,-0.000004,0.000015,0.000016,0.000024,-0.000013,59.774827,0.000024,
2446,3028,4.00945058967356,8.35117867419212,0.00226617263297157,0.004061,0.001087,-0.002897,0.197992,0.047893,314.617358,25.617629,0.999456,0.988227,0.004065,0.321644,0.000013,-0.000029,0.000004,0.000013,-0.000029,5.116949,0.000029,
2296,2518,0.839318872267654,-2.75924528738322,-0.0330213861664674,0.003974,0.001336,-0.002789,0.192385,0.054233,322.562239,24.066907,0.999674,0.991201,0.003796,0.390159,-0.000018,-0.000006,-0.000005,-0.000004,-0.000020,-70.780993,0.000026,
2236,2428,-0.450623532870654,-4.72661187450046,-0.0209728277803833,0.003923,0.001036,-0.002592,0.188931,0.072802,324.210304,24.017854,0.999450,0.989975,0.004062,0.437113,-0.000017,-0.000023,-0.000006,-0.000013,-0.000027,-33.141363,0.000041,
2206,2023,-1.03082322803549,-13.5990100209737,0.0329888540156844,0.004409,0.001123,-0.004267,0.215847,0.036769,331.284540,23.617265,0.998996,0.979691,0.005558,0.364652,-0.000012,-0.000052,0.000000,-0.000012,-0.000052,-0.326781,0.000068,
2401,2818,3.06946886069315,3.78279154330922,-0.0254138552355698,0.003837,0.001316,-0.005021,0.195102,0.071302,317.750492,24.778625,0.999546,0.988767,0.004276,0.413821,-0.000018,-0.000014,-0.000004,-0.000011,-0.000020,-60.291470,0.000032,
2026,2638,-5.05176721488532,-0.152294605783815,-0.0207634255619382,0.004032,0.001467,-0.002894,0.194099,0.064268,321.698244,24.469228,0.999388,0.989722,0.004066,0.433830,0.000013,-0.000002,0.000018,0.000025,-0.000014,33.397083,0.000025,
2221,2098,-0.717865248145948,-11.9518480995626,0.0169565470174575,0.004007,0.000669,-0.002294,0.191174,0.038081,329.883979,23.657540,0.999027,0.979330,0.005614,0.336552,-0.000009,-0.000015,0.000003,-0.000008,-0.000016,23.010543,0.000025,
2101,2908,-3.46483097444317,5.72191774628032,-0.0099398813474636,0.004087,0.001421,-0.006002,0.206401,0.056617,317.005792,24.476436,0.999280,0.992236,0.003912,0.389953,-0.000006,-0.000022,-0.000008,-0.000003,-0.000025,-21.504945,0.000031,
2086,2848,-3.78127332703264,4.41722271660178,-0.0130128604524202,0.004008,0.001108,-0.001931,0.190668,0.066109,318.014828,24.394033,0.999670,0.993523,0.003328,0.457905,-0.000013,-0.000016,-0.000005,-0.000010,-0.000019,-38.488676,0.000030,
2221,2083,-0.715752318613607,-12.279903872715,0.012729557605212,0.003798,0.000984,-0.003074,0.184170,0.053759,330.082581,23.652097,0.999051,0.979205,0.005584,0.335782,-0.000009,-0.000015,0.000001,-0.000009,-0.000015,12.845556,0.000024,
2086,3088,-3.81791772742346,9.62512694086045,0.0168642204369576,0.003949,0.000915,-0.002186,0.188812,0.042779,314.355355,24.410453,0.999459,0.991054,0.003671,0.392213,-0.000003,-0.000028,-0.000013,0.000002,-0.000034,-22.108469,0.000037,
2371,2593,2.45958735906494,-1.12304243157784,-0.0183684870084448,0.003556,0.000569,-0.000945,0.166820,0.029953,321.422736,24.079484,0.999320,0.987327,0.004486,0.419283,-0.000004,-0.000013,-0.000003,-0.000003,-0.000014,-17.757765,0.000018,
2281,2668,0.486607453564257,0.511848311448063,-0.0267695136757879,0.004380,0.001401,-0.005111,0.218934,0.058073,320.223984,24.479826,0.999662,0.990937,0.003954,0.294634,-0.000014,-0.000013,-0.000003,-0.000010,-0.000017,-50.820718,0.000027,
2251,2488,-0.133723492896902,-3.41822607268628,-0.0109692039893048,0.003967,0.000836,-0.002463,0.190529,0.038765,323.295641,24.022357,0.999650,0.989952,0.003903,0.455089,-0.000019,-0.000002,-0.000002,-0.000002,-0.000019,-81.758602,0.000023,
2416,2863,3.38768057933533,4.76249684530598,-0.018038709628172,0.004025,0.001092,-0.002191,0.193469,0.057009,317.093455,24.961757,0.999467,0.989148,0.004002,0.374536,-0.000015,-0.000009,-0.000007,-0.000004,-0.000020,-56.366919,0.000025,
2386,2668,2.77171305672622,0.514018024267699,-0.0252138043640571,0.003781,0.000990,-0.002270,0.182197,0.051191,320.170036,24.294725,0.999335,0.987869,0.004367,0.427376,-0.000010,-0.000007,-0.000010,0.000002,-0.000019,-48.591270,0.000021,
2071,3013,-4.13114011007333,7.99715284266593,0.0195284786822185,0.003962,0.000920,0.000792,0.180794,0.054489,315.671854,24.375930,0.999422,0.991566,0.003633,0.402814,0.000014,-0.000021,-0.000019,0.000022,-0.000029,-23.430792,0.000030,
2146,3163,-2.5286923103085,11.2554194623128,0.0298036933431831,0.003907,0.001096,-0.000936,0.183590,0.075989,312.957867,24.676026,0.999590,0.991709,0.003630,0.416522,-0.000003,-0.000019,-0.000003,-0.000002,-0.000019,-9.482623,0.000024,
2476,3178,4.63282577709491,11.6096707639146,0.0213259425315186,0.003865,0.000976,-0.000189,0.178999,0.062202,312.362333,26.228331,0.999636,0.991901,0.003576,0.374409,0.000018,0.000017,0.000009,0.000027,0.000008,42.202834,0.000037,
2191,2023,-1.35919649803892,-13.5967645882679,0.0222523016612968,0.004292,0.001154,-0.002919,0.206126,0.047037,331.226138,23.757567,0.999117,0.983145,0.005152,0.336359,-0.000001,-0.000053,0.000021,0.000006,-0.000060,19.679302,0.000066,
2026,2653,-5.05448794882324,0.175004806749506,-0.0312833306293214,0.004195,0.001176,-0.003071,0.202035,0.054134,321.375645,24.449861,0.999407,0.990943,0.003821,0.434038,-0.000003,0.000015,0.000015,0.000023,-0.000011,60.701868,0.000023,
2011,3058,-5.43832389229851,8.96869175924567,0.0248779847018454,0.003947,0.000945,-0.002580,0.189481,0.046732,315.352938,24.155884,0.999308,0.992146,0.003614,0.397603,0.000011,-0.000010,0.000008,0.000013,-0.000012,18.381494,0.000015,
2056,2953,-4.44812283502256,6.69595603992588,-0.00169563893877012,0.003997,0.001301,-0.001081,0.187846,0.074812,316.561320,24.369536,0.999197,0.992195,0.003710,0.409354,0.000006,-0.000022,-0.000010,0.000009,-0.000025,-17.475545,0.000025,
2071,2788,-4.09759166128244,3.11281148852311,-0.0195117483989975,0.004235,0.001130,-0.001302,0.199229,0.063615,319.022098,24.392832,0.999302,0.988946,0.004143,0.449321,-0.000015,-0.000027,-0.000005,-0.000014,-0.000028,-19.431911,0.000043,
2251,2248,-0.0908513440556753,-8.66295639947967,0.00148127842965096,0.003903,0.000903,0.000200,0.178682,0.076820,327.264139,23.820718,0.998211,0.978447,0.005975,0.293048,-0.000015,0.000000,0.000001,0.000000,-0.000015,84.443891,0.000017,
2026,2863,-5.08628482170565,4.74157137820247,-0.0252903918855054,0.004145,0.000627,0.000797,0.189181,0.055498,318.008143,24.364760,0.999323,0.992481,0.003845,0.384727,-0.000026,-0.000004,-0.000008,-0.000001,-0.000028,-72.377553,0.000033,
2011,2578,-5.36919943443552,-1.45956849567789,-0.0231395984216647,0.003654,0.000698,-0.001587,0.172784,0.044705,322.722904,24.512327,0.999038,0.985658,0.004795,0.426925,-0.000007,0.000005,0.000013,0.000013,-0.000015,57.780725,0.000017,
2296,2713,0.802886698950097,1.49227518772289,-0.0384033162108608,0.003706,0.000994,0.000205,0.170073,0.064022,319.329436,24.421793,0.999742,0.993086,0.003524,0.443401,-0.000018,-0.000017,-0.000004,-0.000013,-0.000021,-48.918690,0.000035,
2161,3193,-2.20864264969967,11.9059695062512,0.0305347801891571,0.003751,0.000655,-0.000827,0.175836,0.041000,312.408082,24.713708,0.999638,0.993750,0.003241,0.428127,-0.000002,-0.000025,-0.000003,-0.000002,-0.000025,-7.447211,0.000031,
2341,2473,1.82953227718059,-3.74311873842252,-0.0108678091433489,0.003878,0.000820,-0.001473,0.183399,0.057776,323.443519,23.854149,0.999556,0.987639,0.004259,0.406521,-0.000015,-0.000021,-0.000003,-0.000014,-0.000023,-25.652055,0.000037,
2461,3103,4.32097870001747,9.98006188054684,0.0164888010418167,0.003682,0.000813,0.002791,0.159160,0.051772,313.498925,25.875544,0.999539,0.991964,0.003726,0.381568,0.000013,-0.000001,0.000008,0.000017,-0.000005,24.449020,0.000017,
2266,2353,0.216694462195321,-6.36641438864987,-0.00733143147442661,0.003472,0.001131,-0.001809,0.165693,0.078430,325.458433,23.814789,0.999106,0.983370,0.005179,0.426075,-0.000018,-0.000004,0.000000,-0.000004,-0.000018,88.839743,0.000024,
2266,2563,0.1788871727972,-1.78072671519534,-0.0178629481726489,0.003703,0.001093,-0.003756,0.182943,0.038769,321.989567,24.118127,0.999483,0.990255,0.004058,0.459663,-0.000017,-0.000013,0.000000,-0.000013,-0.000017,87.629703,0.000030,
2146,3103,-2.51969930605538,9.9546585899532,0.0156411232162554,0.003932,0.000634,0.001786,0.176159,0.042819,313.812708,24.610132,0.999802,0.996542,0.002712,0.422386,-0.000004,-0.000033,0.000000,-0.000004,-0.000033,-0.886036,0.000041,
2371,2608,2.45689099622816,-0.79531878124385,-0.0207866607741494,0.003738,0.001060,-0.003222,0.183466,0.036914,321.175235,24.141268,0.999123,0.986649,0.004537,0.406486,-0.000005,-0.000013,-0.000002,-0.000004,-0.000014,-14.973458,0.000019,
2476,3193,4.62973412495494,11.9347836121593,0.0230112219988996,0.003786,0.000915,0.001148,0.170219,0.052519,312.121638,26.262570,0.999530,0.992125,0.003511,0.385900,0.000019,0.000015,0.000009,0.000027,0.000007,38.224138,0.000036,
2191,2038,-1.36246741267342,-13.265462278069,0.011809714409253,0.004135,0.001319,-0.004622,0.204346,0.054667,330.895941,23.849300,0.999227,0.984627,0.004904,0.270845,0.000000,-0.000043,0.000019,0.000007,-0.000050,20.606060,0.000054,
2056,2803,-4.42617198792955,3.43943905570949,-0.0266561319082825,0.004208,0.000666,0.001495,0.189969,0.062859,318.792357,24.433274,0.999271,0.990287,0.004021,0.391170,-0.000011,-0.000024,-0.000003,-0.000010,-0.000025,-13.790914,0.000036,
2446,3043,4.00646546253038,8.67622930145497,0.00721508076026112,0.003897,0.000659,-0.000079,0.179798,0.044955,314.395420,25.623569,0.999314,0.987234,0.004222,0.363989,0.000011,-0.000014,0.000007,0.000012,-0.000015,14.615149,0.000016,
2296,2533,0.835983062813323,-2.43307756447074,-0.0379373129789542,0.003795,0.001026,-0.001829,0.180844,0.045101,322.267286,23.955304,0.999746,0.993375,0.003439,0.523852,-0.000017,-0.000011,-0.000011,-0.000002,-0.000026,-52.934495,0.000031,
2431,2983,3.69087618372931,7.37127791081123,-0.00499398556758024,0.003683,0.000748,0.000464,0.167950,0.048277,315.238201,25.299062,0.999658,0.991545,0.003669,0.446577,-0.000005,-0.000037,0.000000,-0.000005,-0.000037,0.084152,0.000046,
2116,3208,-3.18552318863579,12.227019111712,0.0421257705560834,0.004180,0.000815,-0.000144,0.193681,0.059109,312.465007,24.535140,0.999627,0.993841,0.003271,0.413429,-0.000004,-0.000015,-0.000009,0.000001,-0.000020,-29.403727,0.000023,
2026,2668,-5.05682955994891,0.50057680352095,-0.0288790905742644,0.004093,0.000674,-0.001028,0.191540,0.032595,321.143015,24.396913,0.999357,0.990617,0.003858,0.456160,-0.000014,0.000016,0.000018,0.000024,-0.000022,65.216573,0.000027,
2041,2923,-4.76896247427879,6.04312077194024,-0.00440277768223041,0.004131,0.000623,0.001585,0.186262,0.036597,317.113481,24.310707,0.999424,0.991916,0.003653,0.410301,-0.000004,-0.000021,-0.000018,0.000008,-0.000033,-32.595181,0.000034,
2101,2878,-3.46069286661274,5.07024265437662,-0.0196020368014729,0.004225,0.000871,-0.002491,0.202242,0.033745,317.409169,24.431146,0.999649,0.992347,0.003644,0.411016,-0.000004,-0.000008,-0.000006,0.000000,-0.000013,-34.940651,0.000014,
2311,2278,1.21341550294391,-8.00722099656576,0.00452150012631591,0.004215,0.001625,-0.006420,0.215716,0.069972,326.769666,23.583717,0.999309,0.984053,0.004736,0.318215,-0.000026,0.000001,-0.000008,0.000003,-0.000028,-74.586633,0.000031,
2011,2803,-5.40286268324778,3.43725110854722,-0.0336427094665623,0.004154,0.000976,-0.002823,0.199450,0.043532,319.018811,24.350778,0.999486,0.992152,0.003657,0.412805,-0.000034,-0.000037,-0.000017,-0.000019,-0.000052,-42.918660,0.000074,
2071,3028,-4.13395089000095,8.32295984288466,0.0126527331952389,0.003907,0.000847,-0.000191,0.181062,0.047515,315.370208,24.365828,0.999571,0.993101,0.003359,0.402125,0.000016,-0.000023,-0.000015,0.000021,-0.000028,-18.619318,0.000030,
2281,2428,0.530722334657064,-4.72733515292768,-0.00806774484823336,0.004016,0.001059,-0.002737,0.193869,0.055147,324.247084,23.909195,0.999538,0.988580,0.004350,0.402241,-0.000020,-0.000020,-0.000015,-0.000005,-0.000035,-45.149969,0.000043,
2506,2023,5.52546899324473,-13.6047332831067,0.0245412383207508,0.004032,0.001569,-0.004755,0.203173,0.063080,331.291358,21.652298,0.999299,0.971425,0.006400,0.316868,0.000031,-0.000043,0.000073,0.000076,-0.000088,31.437750,0.000095,
2161,3148,-2.20149767172385,10.9315854168997,0.0197955368197995,0.003901,0.000713,-0.001851,0.185892,0.042326,313.063767,24.719158,0.999508,0.992299,0.003689,0.397556,-0.000002,-0.000029,-0.000001,-0.000002,-0.000029,-1.802211,0.000034,
2101,2923,-3.46735974107394,6.047458901166,-0.00806350111798793,0.003972,0.001154,-0.004279,0.196032,0.059686,316.767152,24.464551,0.999177,0.990901,0.004013,0.405690,-0.000002,-0.000018,-0.000005,0.000000,-0.000019,-14.939143,0.000022,
2131,3028,-2.83289793685533,8.32755128407766,0.00904435196173381,0.004016,0.000786,0.001701,0.180359,0.053420,315.047504,24.569009,0.999434,0.991106,0.003826,0.392619,0.000004,-0.000022,-0.000002,0.000004,-0.000022,-4.901520,0.000024,
2416,2878,3.38438159735664,5.08890972020639,-0.0169633711242341,0.003869,0.000973,0.001324,0.173435,0.068589,316.837425,25.009103,0.999522,0.990580,0.003759,0.386064,-0.000016,-0.000011,-0.000005,-0.000008,-0.000019,-58.722356,0.000028,
2026,2878,-5.08782583860013,5.06739330677681,-0.0243564243415904,0.004606,0.001065,-0.003102,0.221306,0.062359,317.804147,24.354878,0.998855,0.988458,0.004429,0.391284,-0.000015,-0.000002,-0.000011,0.000004,-0.000021,-59.757773,0.000022,
2356,2518,2.1478987386364,-2.76050905001087,-0.0107893611062764,0.003764,0.000861,-0.002034,0.180219,0.039192,322.712170,23.927555,0.999378,0.986498,0.004529,0.399267,-0.000015,-0.000011,0.000005,-0.000008,-0.000019,55.677589,0.000027,
2446,3058,4.00349549980324,9.00250831409616,0.00505133675000025,0.003992,0.000804,-0.001415,0.189231,0.042826,314.140888,25.699027,0.999544,0.990004,0.003937,0.337853,0.000008,-0.000016,0.000006,0.000010,-0.000017,12.764655,0.000017,
2041,2713,-4.7385939267158,1.48204899549086,-0.0346465485060321,0.003953,0.000601,0.000869,0.179939,0.056170,320.262439,24.453645,0.999209,0.989716,0.004129,0.395406,-0.000001,-0.000016,0.000002,-0.000001,-0.000016,8.917553,0.000019,
2071,2803,-4.1003012547607,3.4395379448104,-0.0243798755818148,0.004270,0.000792,-0.000023,0.197104,0.056981,318.735692,24.414243,0.999348,0.990283,0.003989,0.418261,-0.000010,-0.000026,-0.000001,-0.000010,-0.000026,-3.781857,0.000037,
2161,2038,-2.01751830658047,-13.2653800209486,0.0147917954548689,0.003738,0.000985,-0.001101,0.175026,0.052102,330.987332,24.026874,0.999116,0.983706,0.005040,0.288796,0.000003,-0.000036,0.000020,0.000012,-0.000045,22.830940,0.000047,
2056,2968,-4.45016455329739,7.02111168016446,-0.000658056309134736,0.004246,0.001227,-0.001081,0.199222,0.050696,316.337511,24.354006,0.999230,0.991158,0.003761,0.394760,0.000009,-0.000029,-0.000016,0.000015,-0.000035,-20.330749,0.000035,
2386,2683,2.76835282871339,0.842977128598392,-0.0356004694729677,0.004126,0.001142,-0.002468,0.198821,0.065899,319.854853,24.421421,0.999359,0.987584,0.004259,0.359344,-0.000010,-0.000002,-0.000012,0.000007,-0.000019,-53.713665,0.000019,
2011,2818,-5.4056558108851,3.76235239842245,-0.0291333964289038,0.003739,0.000432,0.003732,0.162371,0.035400,318.776634,24.300258,0.999184,0.990774,0.003867,0.442893,-0.000034,-0.000029,-0.000013,-0.000018,-0.000044,-50.559192,0.000064,
2326,2413,1.51387400408395,-5.05612035661719,-0.00821201814665073,0.003677,0.000952,-0.002791,0.178620,0.014458,324.437508,23.638786,0.999539,0.987162,0.004600,0.470357,-0.000021,-0.000001,-0.000005,0.000000,-0.000023,-75.611511,0.000026,
2011,3073,-5.44086387931799,9.29378170734901,0.0208573032435879,0.003996,0.000542,-0.001682,0.189194,0.023487,315.074896,24.126060,0.999364,0.992925,0.003554,0.391447,0.000009,-0.000013,0.000011,0.000013,-0.000017,21.719810,0.000018,
2131,3133,-2.84955594460554,10.603767533164,0.0282861356782291,0.003577,0.000688,0.002262,0.158472,0.046705,313.473120,24.612176,0.999696,0.995041,0.003046,0.375105,-0.000004,-0.000027,-0.000004,-0.000004,-0.000027,-9.458985,0.000034,
2056,2818,-4.42849475781668,3.76530857331792,-0.0238124529106472,0.004043,0.000840,0.001484,0.182505,0.075644,318.565139,24.420240,0.999248,0.989726,0.004081,0.411528,-0.000012,-0.000016,-0.000005,-0.000009,-0.000019,-32.291685,0.000029,
2401,2833,3.06641043022474,4.10979529538205,-0.0286635443974319,0.004091,0.001256,-0.003378,0.200752,0.057551,317.484132,24.860439,0.999375,0.988349,0.004247,0.363654,-0.000017,-0.000012,0.000001,-0.000012,-0.000017,80.973887,0.000029,
2206,2038,-1.03431974970031,-13.2676801556993,0.021706276666464,0.004151,0.001916,-0.005466,0.208052,0.099794,330.941096,23.646347,0.998980,0.979111,0.005536,0.419531,-0.000010,-0.000043,0.000000,-0.000010,-0.000043,-0.443637,0.000056,
2191,2203,-1.39072204798648,-9.64921366655359,0.0027158586706264,0.004115,0.001309,-0.004486,0.203202,0.058878,328.166838,23.938612,0.998642,0.978853,0.005698,0.378837,-0.000001,0.000027,0.000017,0.000035,-0.000009,64.779906,0.000037,
2146,3178,-2.53113301555749,11.5796189453283,0.036758643678354,0.003762,0.000565,0.002544,0.166037,0.043525,312.753884,24.670570,0.999501,0.991068,0.003644,0.395935,-0.000003,-0.000021,-0.000004,-0.000002,-0.000021,-10.787355,0.000026,
2266,2368,0.21392229220643,-6.03763714059361,-0.0148546221485617,0.003827,0.001192,-0.003027,0.186074,0.060156,325.173504,23.865701,0.998973,0.983522,0.005158,0.384291,-0.000026,0.000001,0.000000,0.000001,-0.000026,-89.715143,0.000030,
2071,3043,-4.136542825097,8.64923113483905,0.00864067304189575,0.003925,0.000994,-0.000709,0.183430,0.056432,315.094129,24.406400,0.999541,0.993181,0.003363,0.366560,0.000018,-0.000023,-0.000012,0.000022,-0.000026,-15.523513,0.000028,
2296,2728,0.801022244072431,1.8182445987979,-0.0291383024057836,0.003996,0.000662,0.001572,0.178650,0.047487,319.171815,24.478474,0.999593,0.991217,0.003785,0.400232,-0.000018,-0.000024,0.000000,-0.000018,-0.000024,-1.468841,0.000042,
2251,2503,-0.137026458026948,-3.08887651298464,-0.0181597819085368,0.003750,0.001145,-0.003650,0.184602,0.045426,322.985986,24.153274,0.999546,0.989221,0.004119,0.355782,-0.000022,0.000004,0.000001,0.000004,-0.000022,88.022484,0.000024,
2116,2968,-3.14903847137981,7.02504103533006,-0.00041209625163674,0.003819,0.000805,-0.001665,0.181316,0.051153,316.013429,24.523438,0.999698,0.992786,0.003333,0.378362,0.000005,-0.000022,-0.000003,0.000005,-0.000023,-6.060529,0.000024,
2041,2938,-4.77225857533947,6.36902213021119,-0.00787323047319433,0.003520,0.000571,0.004016,0.151383,0.053464,316.805722,24.282941,0.999259,0.991357,0.003790,0.446847,0.000004,-0.000015,-0.000007,0.000007,-0.000018,-18.816232,0.000018,
2236,2443,-0.452526540685117,-4.39920081204468,-0.00701044321209565,0.004126,0.000320,0.004065,0.176416,0.041347,324.071577,24.185897,0.999626,0.991737,0.003926,0.259620,-0.000016,-0.000019,-0.000002,-0.000015,-0.000021,-31.035036,0.000036,
2281,2683,0.483713750464016,0.83739643673087,-0.0250762042091992,0.004296,0.001075,-0.001975,0.204521,0.062304,319.980650,24.402107,0.999676,0.991526,0.003751,0.404711,-0.000014,-0.000014,-0.000003,-0.000011,-0.000017,-41.252856,0.000028,
2281,2443,0.527514780004655,-4.39991748453845,-0.0111978105164212,0.003876,0.000757,-0.000812,0.180932,0.044075,323.965579,23.897541,0.999621,0.989411,0.004199,0.432199,-0.000015,-0.000021,-0.000010,-0.000007,-0.000028,-36.182293,0.000038,
2431,2998,3.68845381971853,7.69760599097106,0.00351686680693319,0.003900,0.000481,0.004814,0.161729,0.045567,315.057676,25.435630,0.999304,0.985756,0.004472,0.356215,0.000000,-0.000032,-0.000001,0.000000,-0.000033,-2.523626,0.000038,
2206,2263,-1.07426507024775,-8.33626085142713,0.00221506713592134,0.003864,0.000905,-0.002872,0.186693,0.044732,327.137841,23.928110,0.998876,0.981463,0.005350,0.377203,-0.000004,0.000014,0.000010,0.000019,-0.000008,65.535454,0.000019,
2251,2263,-0.0934051522484971,-8.3359418141811,0.003813076397023,0.003581,0.001029,-0.002977,0.174305,0.069934,327.037928,23.759312,0.999007,0.983674,0.005190,0.373150,-0.000016,-0.000004,0.000001,-0.000004,-0.000016,85.795685,0.000021,
2236,2233,-0.415535600375936,-8.99288671972744,-0.00206749031991649,0.003915,0.000355,-0.000023,0.179748,0.030026,327.507730,23.725204,0.999149,0.983846,0.004868,0.386509,-0.000010,0.000022,0.000011,0.000025,-0.000013,72.847150,0.000025,
2011,2593,-5.37145201843839,-1.13213960893957,-0.0235126799465775,0.003717,0.001013,-0.000465,0.172764,0.071908,322.476898,24.533619,0.999072,0.986630,0.004835,0.421573,-0.000015,0.000019,0.000026,0.000033,-0.000029,61.287212,0.000036,
2101,3133,-3.499236272898,10.6019955159256,0.025803473760277,0.004155,0.001018,-0.002699,0.199973,0.048638,313.631142,24.522799,0.999823,0.995572,0.002766,0.341712,-0.000003,-0.000022,-0.000006,-0.000001,-0.000024,-16.730760,0.000028,
2041,2728,-4.7401933433896,1.8080460333982,-0.0300956162354851,0.004288,0.000964,-0.000523,0.199330,0.062439,320.076634,24.447174,0.999381,0.991121,0.003695,0.400782,-0.000001,-0.000025,0.000002,-0.000001,-0.000025,3.647506,0.000029,
2506,2038,5.52219554874128,-13.2772137187735,0.03528418436224,0.003524,0.000687,0.001803,0.154383,0.053529,331.090760,21.657940,0.999249,0.970149,0.006478,0.366077,0.000032,-0.000039,0.000067,0.000072,-0.000079,31.047769,0.000088,
2116,3223,-3.1880063685141,12.5514541831323,0.0396257174015204,0.004276,0.000511,-0.001157,0.200979,0.029669,312.206426,24.502689,0.999670,0.994576,0.003133,0.418590,-0.000004,-0.000013,-0.000010,0.000003,-0.000019,-33.245275,0.000021,
2086,2863,-3.78361443325475,4.74404416393694,-0.0157009593234534,0.004183,0.001052,-0.002691,0.200947,0.065320,317.758448,24.453115,0.999412,0.991112,0.003922,0.396758,-0.000011,-0.000016,-0.000011,-0.000003,-0.000025,-38.317942,0.000030,
2026,2893,-5.09030045456437,5.39297500724453,-0.0169876192650804,0.004020,0.001275,-0.002497,0.192700,0.071626,317.593430,24.371547,0.999159,0.992672,0.003656,0.373548,-0.000015,-0.000021,-0.000011,-0.000006,-0.000030,-36.399842,0.000038,
2011,3088,-5.44289981577151,9.61899421966859,0.0281965451471251,0.003896,0.000738,-0.000516,0.181486,0.043149,314.883839,24.141442,0.999628,0.994698,0.003083,0.382769,-0.000005,-0.000014,0.000009,0.000000,-0.000020,32.105545,0.000023,
2311,2293,1.20974896202646,-7.67985338261978,0.00536688959971343,0.003680,0.001051,-0.000403,0.170484,0.066531,326.489736,23.546987,0.999287,0.985291,0.004787,0.385956,-0.000024,0.000008,-0.000005,0.000009,-0.000025,-81.508473,0.000025,
2086,3103,-3.82028926106572,9.9500693805602,0.0223388981842731,0.003879,0.000712,0.001391,0.175246,0.050972,314.142884,24.406219,0.999771,0.993893,0.003102,0.402628,-0.000002,-0.000022,-0.000008,0.000001,-0.000024,-19.177173,0.000028,
2131,3283,-2.8751650692054,13.8543774463965,0.0146496845863453,0.003851,0.000742,0.001146,0.174666,0.051859,310.920889,24.628201,0.999732,0.995248,0.002890,0.407498,0.000002,-0.000022,0.000000,0.000002,-0.000022,0.850645,0.000024,
2476,3208,4.62727203835624,12.2600577279337,0.0262600289432839,0.003919,0.001146,-0.000985,0.184562,0.063900,311.916962,26.303187,0.999356,0.991539,0.003698,0.411887,0.000020,0.000006,0.000004,0.000021,0.000005,13.846069,0.000027,
2446,3073,4.0003419415887,9.32807676884779,-0.000385353032811508,0.004232,0.000842,-0.001971,0.202328,0.037157,313.862904,25.695841,0.999648,0.993146,0.003496,0.386660,0.000010,-0.000011,0.000005,0.000011,-0.000012,11.982468,0.000013,
2401,2848,3.06423405772925,4.43521652457823,-0.0232391762778548,0.004309,0.001285,-0.004536,0.215038,0.057757,317.299571,24.852333,0.999482,0.990081,0.003992,0.417410,-0.000016,-0.000013,-0.000005,-0.000010,-0.000020,-52.645646,0.000030,
2026,2683,-5.06048585259869,0.830056345628293,-0.0468147344502086,0.003799,0.000995,-0.000811,0.177584,0.061948,320.735467,24.488374,0.999809,0.995880,0.002922,0.384934,-0.000014,0.000001,0.000012,0.000008,-0.000021,60.186238,0.000021,
2191,2053,-1.36550033106791,-12.9368146156475,0.00710600789898308,0.003864,0.001395,-0.005475,0.194622,0.045448,330.606716,23.786957,0.999161,0.981788,0.005213,0.342215,0.000001,-0.000030,0.000023,0.000013,-0.000042,27.850911,0.000043,
2221,2338,-0.761949548634551,-6.69225171984443,-0.0246116260230451,0.004037,0.001403,-0.002426,0.193533,0.062353,325.672159,24.014595,0.999649,0.990165,0.004130,0.348295,-0.000001,-0.000008,0.000008,0.000004,-0.000013,32.847330,0.000014,
2461,3118,4.31838872875478,10.3055559825212,0.01445400464047,0.004135,0.000912,0.001044,0.186599,0.046906,313.263568,25.898221,0.999500,0.990550,0.003879,0.407331,0.000012,0.000007,0.000011,0.000021,-0.000002,37.962409,0.000023,
2161,3163,-2.20365645593483,11.2566898287651,0.0271025639506206,0.003893,0.000796,-0.000475,0.181413,0.066570,312.875025,24.740287,0.999628,0.992941,0.003451,0.409568,0.000000,-0.000022,-0.000002,0.000000,-0.000023,-4.506238,0.000026,
2341,2488,1.82689636597167,-3.41635324448678,-0.00928670512882945,0.003769,0.001005,-0.003538,0.185663,0.055240,323.216276,23.833620,0.999515,0.987480,0.004220,0.462444,-0.000012,-0.000012,-0.000002,-0.000011,-0.000014,-45.153989,0.000025,
2011,2608,-5.37464834303954,-0.803395229811343,-0.0407960980160169,0.003747,0.000977,-0.000996,0.175574,0.058326,322.092636,24.575739,0.999613,0.991384,0.003854,0.354918,-0.000020,0.000020,0.000024,0.000031,-0.000032,64.690911,0.000036,
2011,2833,-5.40691529285058,4.08904502965454,-0.0184138331562735,0.003813,0.000965,-0.001249,0.179529,0.054981,318.639027,24.418513,0.999704,0.994275,0.003396,0.332038,-0.000036,-0.000012,-0.000013,-0.000006,-0.000042,-65.751922,0.000052,
2011,3103,-5.44471722028435,9.94446945288298,0.0293358504083585,0.004218,0.001095,-0.002129,0.201028,0.080779,314.667820,24.127073,0.999625,0.994446,0.003093,0.421665,-0.000007,0.000004,0.000019,0.000018,-0.000021,53.149102,0.000022,
2026,2908,-5.09205826953355,5.71767135743261,-0.0049218007111449,0.003895,0.001095,-0.001482,0.184118,0.073349,317.442148,24.351289,0.999306,0.992218,0.003632,0.385218,-0.000016,-0.000034,-0.000020,-0.000003,-0.000047,-33.238818,0.000056,
2206,2053,-1.03804989353806,-12.9367760284823,0.00938979440303456,0.003704,0.001754,-0.007140,0.192833,0.063568,330.582208,23.731262,0.998798,0.975089,0.005912,0.319103,-0.000008,-0.000034,0.000005,-0.000007,-0.000035,10.280428,0.000045,
2506,2053,5.51827604221443,-12.9462442349227,0.0308774685645972,0.003443,0.000326,0.005585,0.135978,0.055460,330.792883,21.801646,0.999332,0.981501,0.005422,0.289176,0.000033,-0.000055,0.000059,0.000062,-0.000084,26.750160,0.000087,
2191,2218,-1.39308566475632,-9.32094757895194,0.00463905136399489,0.004167,0.001425,-0.004014,0.204185,0.063298,327.942306,23.959750,0.998700,0.979832,0.005729,0.379294,-0.000002,0.000027,0.000017,0.000035,-0.000010,65.006935,0.000035,
2101,2938,-3.46996154684843,6.37335031025507,-0.00783629826861443,0.003822,0.001126,-0.003646,0.187269,0.058021,316.516126,24.481897,0.999292,0.990908,0.003929,0.387235,0.000001,-0.000012,-0.000002,0.000002,-0.000012,-9.148493,0.000013,
2326,2428,1.51020254154064,-4.72496702978512,-0.0229397702825622,0.004010,0.001076,-0.001560,0.189798,0.063639,324.081298,23.795144,0.999564,0.989447,0.004277,0.399926,-0.000017,-0.000010,-0.000010,-0.000003,-0.000024,-55.509839,0.000029,
2161,2053,-2.01930231697906,-12.9375087898085,0.0199278286220306,0.003880,0.001127,-0.003616,0.189227,0.056930,330.803864,23.988590,0.999143,0.983221,0.005063,0.344963,0.000002,-0.000019,0.000024,0.000018,-0.000035,33.239572,0.000035,
2296,2548,0.834234607720351,-2.10516314376684,-0.0260419070927469,0.003859,0.001361,-0.002439,0.185979,0.059002,322.127873,24.135219,0.999364,0.988717,0.004291,0.388417,-0.000016,-0.000009,-0.000005,-0.000006,-0.000019,-62.002393,0.000027,
2041,2743,-4.74288840398359,2.13407107433792,-0.0316051451478643,0.003987,0.000787,-0.000458,0.185246,0.053154,319.807106,24.414549,0.999488,0.991398,0.003745,0.416656,-0.000010,-0.000028,0.000003,-0.000010,-0.000029,8.068470,0.000040,
2281,2458,0.525106431138237,-4.07132880099974,-0.0130822868097198,0.004177,0.001158,-0.002630,0.201000,0.079646,323.726471,23.963350,0.999732,0.990688,0.004015,0.431428,-0.000017,-0.000024,-0.000010,-0.000010,-0.000030,-35.359736,0.000042,
2206,2278,-1.07653658045646,-8.00828446652634,0.0045415326485454,0.004093,0.000548,-0.001286,0.192047,0.044022,326.920797,23.952519,0.998971,0.982442,0.005205,0.370941,-0.000002,0.000004,0.000007,0.000008,-0.000006,57.223092,0.000008,
2116,2983,-3.15055092831267,7.34950545247865,0.00882790102303943,0.004137,0.001025,-0.002043,0.197175,0.061021,315.862467,24.471845,0.999780,0.993972,0.003096,0.442573,0.000001,-0.000023,-0.000003,0.000001,-0.000023,-8.101975,0.000027,
2041,2953,-4.77380490652443,6.69511048314929,-0.0038226557507528,0.003748,0.001184,-0.001063,0.176300,0.076566,316.619878,24.323083,0.999492,0.992938,0.003375,0.421496,0.000013,-0.000026,-0.000008,0.000015,-0.000028,-11.693929,0.000028,
2356,2533,2.14497341186192,-2.43303129609044,-0.0148001767972232,0.003927,0.001060,-0.002785,0.190423,0.045141,322.445577,23.928209,0.999394,0.986579,0.004573,0.444528,-0.000014,-0.000011,0.000002,-0.000010,-0.000015,59.324711,0.000025,
2371,2623,2.45356023755988,-0.467898248417043,-0.0236769275535949,0.003696,0.001026,-0.000702,0.172605,0.045316,320.896338,24.174929,0.999149,0.987407,0.004432,0.422928,-0.000008,-0.000011,-0.000007,-0.000002,-0.000017,-40.418471,0.000021,
2161,3208,-2.21075107677203,12.2312974612513,0.0362244290607805,0.003836,0.001038,-0.000490,0.178894,0.059009,312.213025,24.761460,0.999602,0.994140,0.003156,0.406985,-0.000001,-0.000021,-0.000002,-0.000001,-0.000021,-4.501946,0.000025,
2401,2863,3.06120270673023,4.76186618028382,-0.0213774758312297,0.004283,0.001079,-0.001660,0.203328,0.057752,317.058502,24.934757,0.999453,0.990071,0.003920,0.379945,-0.000017,-0.000010,-0.000008,-0.000004,-0.000022,-56.502618,0.000029,
2221,2113,-0.721013315870831,-11.6230644306234,0.0164287661536946,0.003453,0.001032,-0.002378,0.166230,0.042417,329.613545,23.662653,0.998962,0.980839,0.005407,0.358181,-0.000008,-0.000018,0.000002,-0.000008,-0.000018,11.731267,0.000027,
2131,3148,-2.85167186077339,10.928813448955,0.0301884205462102,0.003754,0.001034,0.001038,0.170479,0.063680,313.255838,24.597752,0.999618,0.993767,0.003212,0.411152,-0.000004,-0.000023,-0.000002,-0.000003,-0.000023,-4.590319,0.000028,
2071,3058,-4.13841389744258,8.97381912316055,0.00822118789636761,0.004339,0.000875,-0.002815,0.208506,0.039708,314.871486,24.345482,0.999309,0.992690,0.003450,0.406607,0.000020,-0.000024,-0.000013,0.000024,-0.000028,-15.617209,0.000030,
2191,2068,-1.36862899565132,-12.6084424923281,0.00327610847170945,0.003699,0.000907,-0.002537,0.177795,0.001899,330.317836,23.749550,0.999412,0.983611,0.005159,0.354245,0.000002,-0.000025,0.000023,0.000015,-0.000038,29.822689,0.000039,
2416,2893,3.38196892980655,5.41523607022258,-0.0167587655299144,0.004201,0.000981,-0.001021,0.197276,0.067976,316.618072,25.058337,0.999593,0.990563,0.003772,0.383697,-0.000016,-0.000015,-0.000005,-0.000011,-0.000020,-49.690257,0.000032,
2251,2518,-0.139757873647671,-2.76127929335097,-0.0194567233187399,0.003750,0.001467,-0.003771,0.185156,0.065603,322.732592,24.169076,0.999341,0.986951,0.004466,0.384759,-0.000022,0.000003,0.000002,0.000003,-0.000022,84.881400,0.000025,
2266,2578,0.175801763996994,-1.4522542278857,-0.0243999381321487,0.003832,0.001084,-0.002987,0.186349,0.057013,321.694542,24.190096,0.999273,0.988382,0.004355,0.432411,-0.000016,-0.000007,-0.000002,-0.000006,-0.000016,-78.131809,0.000023,
2506,2068,5.51709124412025,-12.6176395496657,0.0421898664525884,0.003815,0.001267,-0.001573,0.180933,0.075794,330.690200,21.891351,0.999377,0.983524,0.005180,0.283422,0.000025,-0.000075,0.000034,0.000036,-0.000085,17.116381,0.000086,
2041,2758,-4.74509704221758,2.45885706628758,-0.0229073190544113,0.003769,0.000517,0.003207,0.164991,0.065329,319.616817,24.332031,0.999340,0.991130,0.004001,0.503774,-0.000020,-0.000037,-0.000012,-0.000013,-0.000043,-27.210017,0.000059,
2296,2743,0.799194577130251,2.14433820463061,-0.0227990511064036,0.004309,0.000856,-0.000148,0.198950,0.047023,319.001286,24.510406,0.999454,0.989961,0.003997,0.397728,-0.000018,-0.000028,0.000000,-0.000018,-0.000028,-2.408416,0.000046,
2341,2503,1.8232997790067,-3.08828870905482,-0.0144514307543773,0.003597,0.000741,-0.000701,0.167823,0.057524,322.911966,23.870822,0.999389,0.986943,0.004347,0.465270,-0.000016,-0.000003,0.000002,-0.000003,-0.000017,83.156290,0.000021,
2131,3298,-2.87741023987578,14.179125112065,0.0133081502645496,0.003987,0.000985,-0.002261,0.191283,0.060641,310.680398,24.614365,0.999677,0.993782,0.003192,0.434434,0.000015,-0.000009,0.000000,0.000015,-0.000009,1.013507,0.000015,
2116,3238,-3.19131748115954,12.8770668966393,0.0330378785445191,0.003952,0.000652,0.000002,0.182629,0.032884,311.887289,24.527335,0.999655,0.994870,0.002970,0.398921,-0.000004,-0.000019,-0.000007,-0.000002,-0.000022,-21.948046,0.000026,
2431,3013,3.68546308604836,8.02387245164632,0.00113274790129481,0.003706,0.000720,0.000248,0.169806,0.043437,314.800232,25.495839,0.999367,0.986799,0.004264,0.343078,0.000004,-0.000034,0.000000,0.000004,-0.000034,0.106960,0.000038,
2071,2818,-4.1024485388901,3.76550123754879,-0.022530302004327,0.004138,0.001255,-0.003682,0.201666,0.072134,318.512061,24.400029,0.999420,0.991151,0.003952,0.444371,-0.000008,-0.000019,-0.000003,-0.000008,-0.000020,-13.357284,0.000029,
2236,2248,-0.417482626444926,-8.66429312835327,0.00468596257678655,0.004188,0.001266,0.001333,0.188221,0.084151,327.330052,23.787391,0.998783,0.982038,0.005359,0.401892,-0.000009,0.000008,0.000010,0.000012,-0.000013,65.256298,0.000015,
2296,2563,0.832166279773514,-1.77884804899075,-0.0134461975815725,0.003868,0.000698,0.001297,0.173583,0.061339,321.977608,24.189402,0.999050,0.986408,0.004895,0.367139,-0.000022,-0.000008,-0.000010,-0.000003,-0.000027,-61.783642,0.000033,
2386,2698,2.76578825886905,1.16853658929302,-0.0293556962386106,0.003902,0.000942,-0.003201,0.191099,0.046404,319.655947,24.412059,0.999458,0.989775,0.003928,0.392873,-0.000010,0.000000,-0.000011,0.000007,-0.000017,-57.907088,0.000017,
2146,3193,-2.53338619144903,11.9049897452537,0.0331440198175983,0.004020,0.000602,-0.001312,0.189667,0.030191,312.501810,24.694804,0.999559,0.993118,0.003295,0.364827,-0.000004,-0.000024,-0.000006,-0.000002,-0.000025,-16.202718,0.000031,
2056,2983,-4.45260423500099,7.34680056000814,0.000596832159317273,0.004210,0.001023,0.000918,0.191927,0.054828,316.096444,24.364909,0.999159,0.989262,0.003985,0.382087,0.000002,-0.000031,-0.000022,0.000013,-0.000043,-26.576690,0.000044,
2056,2833,-4.43072606064855,4.09116155418373,-0.0190554843296695,0.003882,0.000897,0.001909,0.173867,0.067221,318.352731,24.445178,0.999023,0.987298,0.004408,0.372390,-0.000013,-0.000010,-0.000006,-0.000005,-0.000018,-52.610651,0.000024,
2026,2698,-5.06248897357624,1.15570299228167,-0.0474259211637218,0.003932,0.001141,-0.003546,0.191253,0.053329,320.501477,24.414614,0.999829,0.995642,0.002944,0.440675,-0.000002,-0.000005,0.000013,0.000010,-0.000016,41.563620,0.000016,
2311,2308,1.20587325034658,-7.34971770921143,-0.0131368878081162,0.003860,0.000960,-0.001550,0.182632,0.055350,326.104840,23.582836,0.999366,0.987153,0.004763,0.373813,-0.000024,0.000001,-0.000001,0.000001,-0.000024,-88.770135,0.000027,
2476,3223,4.62436640448092,12.5859640477072,0.0237034231711846,0.004119,0.001038,-0.002812,0.200681,0.052918,311.665093,26.394679,0.999251,0.991619,0.003757,0.364726,0.000018,-0.000017,0.000004,0.000018,-0.000017,6.635810,0.000020,
2011,2848,-5.40920155855573,4.41381510443065,-0.0231957794360369,0.003941,0.000903,-0.003424,0.191331,0.052947,318.368022,24.269030,0.999704,0.994863,0.003360,0.467352,-0.000021,0.000007,-0.000005,0.000008,-0.000022,-79.486639,0.000022,
2461,3133,4.31532741336535,10.6315837872831,0.0152006004249756,0.003932,0.000915,-0.000192,0.181934,0.039372,313.019005,25.994212,0.999507,0.989742,0.003887,0.357141,0.000016,0.000003,0.000006,0.000019,0.000001,20.511043,0.000022,
2026,2923,-5.0943057385427,6.04280446754953,-0.00177418260631157,0.004029,0.000706,0.003042,0.177692,0.055647,317.218523,24.329572,0.999379,0.992516,0.003588,0.378955,-0.000014,-0.000033,-0.000017,-0.000004,-0.000043,-29.628617,0.000052,
2191,2233,-1.39561822242225,-8.99230975383761,0.00440412637937015,0.004130,0.001399,-0.004605,0.204368,0.051219,327.698867,24.013988,0.998772,0.981797,0.005442,0.329893,-0.000008,0.000034,0.000014,0.000038,-0.000012,72.672308,0.000039,
2101,3148,-3.50162019590798,10.9256578942065,0.0331204304471839,0.003965,0.000818,0.000625,0.181446,0.053912,313.429489,24.425100,0.999890,0.996712,0.002581,0.444839,-0.000002,-0.000018,-0.000005,-0.000001,-0.000020,-15.888260,0.000023,
2281,2698,0.480994656027875,1.16387628547223,-0.0211580479648887,0.003944,0.001001,-0.002767,0.190932,0.049524,319.756215,24.449367,0.999792,0.993332,0.003505,0.372621,-0.000019,-0.000021,0.000001,-0.000019,-0.000021,21.274514,0.000040,
2506,2083,5.5139689193473,-12.2894950484635,0.0342964060553186,0.004306,0.001429,-0.003532,0.210996,0.097870,330.413236,21.729535,0.999469,0.984636,0.004853,0.531901,0.000014,-0.000088,0.000022,0.000018,-0.000093,11.729375,0.000098,
2221,2353,-0.764259522863767,-6.36636708085644,-0.0165522552115362,0.003910,0.000816,0.000045,0.179611,0.049986,325.484165,23.942303,0.999440,0.988209,0.004425,0.428689,-0.000005,-0.000013,0.000006,-0.000002,-0.000016,27.268704,0.000020,
2251,2278,-0.09574049446638,-8.00763758432714,0.00304757571279879,0.003956,0.001328,-0.002657,0.190595,0.085643,326.805762,23.766616,0.999272,0.984670,0.004949,0.407099,-0.000015,-0.000006,-0.000002,-0.000005,-0.000015,-78.685287,0.000021,
2371,2638,2.45107917507687,-0.139638841898375,-0.0296720191925033,0.004176,0.001427,-0.005561,0.212103,0.060651,320.641364,24.257327,0.999120,0.988061,0.004372,0.397756,-0.000009,-0.000006,-0.000011,0.000003,-0.000019,-48.582901,0.000020,
2011,3118,-5.44740987244802,10.2699482132952,0.0259745041440169,0.004180,0.001099,0.000396,0.192335,0.070541,314.386399,24.136601,0.999649,0.995049,0.003000,0.388872,-0.000002,0.000021,0.000024,0.000036,-0.000017,57.919845,0.000036,
2266,2383,0.211645116766373,-5.70940540812641,-0.0226736628717958,0.004462,0.001530,-0.007477,0.230023,0.053717,324.909775,23.858048,0.998267,0.980000,0.005632,0.412810,-0.000027,0.000000,-0.000001,0.000000,-0.000027,-88.605720,0.000031,
2161,3178,-2.20612894156057,11.5810837129012,0.033497876375975,0.003770,0.000301,0.002954,0.165020,0.043123,312.667342,24.740935,0.999598,0.991439,0.003597,0.394142,-0.000001,-0.000022,-0.000002,-0.000001,-0.000022,-4.393807,0.000026,
2341,2518,1.82080793291228,-2.75986721502517,-0.0135812489186833,0.003794,0.001098,-0.001498,0.179794,0.056859,322.687456,24.003482,0.999104,0.984413,0.004655,0.369872,-0.000016,-0.000011,0.000002,-0.000010,-0.000017,69.382616,0.000027,
2446,3088,3.99847607986893,9.65387826270186,0.012306891498099,0.004407,0.000881,-0.001003,0.206824,0.049436,313.727865,25.816098,0.999657,0.993187,0.003529,0.329828,0.000012,-0.000003,0.000002,0.000013,-0.000003,5.809865,0.000013,
2236,2458,-0.455278116645427,-4.07206954954797,-0.00710918379434133,0.003748,0.000847,0.000604,0.170499,0.074164,323.822281,24.136720,0.999474,0.989693,0.004254,0.364240,-0.000019,-0.000022,-0.000002,-0.000018,-0.000023,-30.666450,0.000041,
2086,3118,-3.82264112343995,10.2755008273184,0.0231488462415541,0.003855,0.000920,0.000672,0.176292,0.058208,313.905693,24.422131,0.999770,0.994150,0.003002,0.391660,-0.000006,-0.000019,-0.000009,-0.000001,-0.000024,-26.269364,0.000028,
2296,2758,0.796036074075339,2.47131421996383,-0.0294591497377041,0.004210,0.000991,-0.002495,0.202404,0.049036,318.704929,24.522061,0.999470,0.990115,0.003981,0.418331,-0.000015,-0.000020,0.000004,-0.000013,-0.000023,29.912611,0.000036,
2011,2623,-5.376222878727,-0.478290816358971,-0.0297411479509719,0.003727,0.001217,-0.001241,0.175390,0.068340,321.942510,24.509103,0.999594,0.991508,0.003767,0.420025,-0.000020,-0.000011,0.000012,-0.000002,-0.000029,55.670511,0.000035,
2476,3238,4.62029229811177,12.9119781866877,0.0104425547203277,0.004151,0.000883,-0.003297,0.204023,0.051675,311.310421,26.430169,0.999625,0.993766,0.003302,0.383248,0.000013,-0.000020,0.000001,0.000013,-0.000020,1.095704,0.000020,
2161,2068,-2.02191005848173,-12.6091556988661,0.0235331212998062,0.003708,0.000786,-0.000133,0.170597,0.069890,330.574635,23.974019,0.999357,0.984145,0.005002,0.385851,0.000002,-0.000015,0.000022,0.000017,-0.000031,34.740820,0.000031,
2116,3253,-3.19415317407984,13.2029287017172,0.0303775535349473,0.003751,0.000847,-0.000406,0.174676,0.046238,311.611065,24.591376,0.999717,0.996300,0.002627,0.350256,-0.000003,-0.000028,-0.000005,-0.000002,-0.000029,-10.269990,0.000035,
2026,2713,-5.06442183744963,1.48201294925137,-0.0422125928164405,0.004044,0.000967,-0.002085,0.192375,0.055072,320.302992,24.443117,0.999710,0.994348,0.003343,0.404356,-0.000009,-0.000005,0.000007,0.000001,-0.000014,51.716741,0.000016,
2206,2068,-1.03957127382094,-12.6097187299873,0.0218372330783723,0.004068,0.001372,-0.003935,0.199307,0.052454,330.451883,23.721939,0.998998,0.978562,0.005641,0.336849,-0.000007,-0.000028,0.000007,-0.000005,-0.000030,17.849642,0.000038,
2101,2953,-3.47261227945799,6.69936647443234,-0.00822527373554749,0.003915,0.001070,0.000904,0.178230,0.071056,316.259456,24.495941,0.999477,0.991544,0.003687,0.387066,0.000005,-0.000018,-0.000002,0.000005,-0.000018,-5.339712,0.000019,
2086,2878,-3.78593103586298,5.06884314204625,-0.012020602367329,0.004098,0.000735,-0.001519,0.193534,0.040890,317.538590,24.401353,0.999459,0.991468,0.003867,0.422930,-0.000006,-0.000006,-0.000012,0.000006,-0.000018,-44.717369,0.000019,
2056,2848,-4.4329419189229,4.41689741329139,-0.0223290868424897,0.003973,0.001007,-0.001864,0.188749,0.057721,318.096798,24.404110,0.999346,0.990804,0.003836,0.398498,-0.000013,-0.000006,-0.000007,-0.000002,-0.000017,-59.775444,0.000021,
2011,2863,-5.41146384709847,4.74008610018764,-0.0193434169951843,0.004019,0.000657,0.001656,0.181091,0.060145,318.146133,24.316999,0.999282,0.991423,0.004061,0.414373,-0.000011,0.000001,-0.000006,0.000004,-0.000014,-66.465324,0.000014,
2071,3073,-4.14109164613993,9.29883398807316,0.0122332516492634,0.003839,0.000764,-0.002263,0.183909,0.045116,314.636003,24.334433,0.999380,0.991984,0.003599,0.419024,0.000017,-0.000024,-0.000013,0.000021,-0.000028,-16.177929,0.000029,
2401,2878,3.05782174274514,5.08903344987196,-0.0270013659365986,0.004211,0.001277,-0.002438,0.202994,0.077744,316.765791,24.993998,0.999434,0.991613,0.003687,0.386260,-0.000019,-0.000013,-0.000006,-0.000010,-0.000023,-57.552779,0.000033,
2146,3208,-2.5358200655945,12.2298544017502,0.0376068329350119,0.003926,0.000818,0.000295,0.180575,0.055019,312.284604,24.685524,0.999618,0.993950,0.003156,0.405673,-0.000003,-0.000020,-0.000006,-0.000002,-0.000022,-17.373222,0.000026,
2161,3223,-2.21307019099055,12.5557639934366,0.0418130085434996,0.003828,0.000633,0.001472,0.172374,0.048238,312.008091,24.760941,0.999675,0.994478,0.003063,0.405613,-0.000001,-0.000015,-0.000004,0.000000,-0.000015,-14.244194,0.000018,
2056,2998,-4.45501913231492,7.67225242520308,0.00281627255350259,0.003885,0.001006,-0.001260,0.183084,0.053233,315.861947,24.370198,0.999199,0.989714,0.003995,0.368992,0.000003,-0.000026,-0.000021,0.000014,-0.000037,-28.186091,0.000037,
2266,2593,0.172933434524893,-1.12493966050712,-0.026281144651648,0.003882,0.001168,-0.001561,0.184043,0.090007,321.433023,24.187160,0.999084,0.987546,0.004532,0.494848,-0.000016,-0.000015,-0.000004,-0.000012,-0.000019,-50.391220,0.000032,
2281,2473,0.521879754859842,-3.74400791073466,-0.014722098409834,0.003893,0.001032,-0.000944,0.182273,0.071268,323.451434,23.964505,0.999517,0.988976,0.004267,0.451034,-0.000013,-0.000013,-0.000006,-0.000007,-0.000019,-45.822539,0.000027,
2116,2998,-3.15381024233471,7.67565244784392,0.00515203658198971,0.003766,0.000772,0.000926,0.171227,0.058695,315.561276,24.502714,0.999583,0.992558,0.003420,0.411779,0.000003,-0.000022,-0.000005,0.000003,-0.000023,-10.192485,0.000025,
2041,2968,-4.7759428580569,7.02004436648194,-0.00167398646175343,0.003734,0.001428,-0.002284,0.179094,0.072503,316.396825,24.274709,0.999545,0.992981,0.003297,0.457865,0.000013,-0.000034,-0.000016,0.000018,-0.000039,-16.750562,0.000039,
2206,2293,-1.07865148158708,-7.67898179216202,-0.00180498943745988,0.004419,0.001857,-0.009207,0.232536,0.056513,326.665961,24.002560,0.999228,0.984689,0.004854,0.352116,0.000004,0.000007,0.000014,0.000020,-0.000009,47.880028,0.000020,
2251,2533,-0.143135451268726,-2.43303733377434,-0.0276799997475337,0.003799,0.000943,-0.001235,0.178934,0.062636,322.414471,24.210216,0.999639,0.991819,0.003685,0.365110,-0.000022,-0.000004,-0.000002,-0.000004,-0.000022,-83.601738,0.000028,
2461,3148,4.31273878367903,10.957024788188,0.0172532536436165,0.003988,0.001037,-0.002686,0.193963,0.034921,312.802320,26.044671,0.999499,0.989406,0.003817,0.355366,0.000018,-0.000007,0.000006,0.000019,-0.000008,13.520305,0.000019,
2191,2083,-1.37020021970809,-12.2784495090249,0.00862292706909784,0.004186,0.001157,-0.003880,0.204409,0.026653,330.147007,23.898501,0.999302,0.983079,0.005249,0.247370,0.000003,-0.000006,0.000018,0.000017,-0.000021,37.527238,0.000022,
2011,3133,-5.44987293339794,10.5952407422444,0.0231348419678739,0.004152,0.001093,-0.000299,0.192985,0.074728,314.118521,24.122204,0.999618,0.993947,0.003216,0.394467,0.000001,0.000022,0.000016,0.000031,-0.000008,61.583301,0.000033,
2221,2128,-0.723319555694633,-11.2938607400475,0.0168865185987102,0.003531,0.001573,-0.004560,0.176939,0.075436,329.386406,23.693403,0.998654,0.979921,0.005532,0.382217,-0.000009,-0.000022,-0.000001,-0.000009,-0.000022,-4.126592,0.000032,
2416,2908,3.37872786211857,5.74090659068453,-0.0183952947722332,0.004068,0.000699,-0.000620,0.189589,0.047171,316.352111,25.058508,0.999641,0.991117,0.003701,0.410181,-0.000017,-0.000020,-0.000005,-0.000014,-0.000023,-34.641422,0.000037,
2296,2773,0.793390505393127,2.79779461305606,-0.0270298338200519,0.004031,0.000986,-0.003777,0.198529,0.044255,318.477289,24.571454,0.999366,0.989180,0.004162,0.394182,-0.000013,-0.000024,0.000000,-0.000013,-0.000024,-0.260019,0.000038,
2326,2443,1.5078712408482,-4.39830617730302,-0.0144421115443834,0.003869,0.001142,-0.000833,0.180854,0.066235,323.900721,23.810942,0.999406,0.987600,0.004537,0.422147,-0.000012,-0.000019,-0.000008,-0.000007,-0.000024,-32.386008,0.000033,
2026,2938,-5.09703157294094,6.36870655254247,-0.00281691713979626,0.003722,0.000688,0.003951,0.161082,0.058966,316.949282,24.331864,0.999120,0.991366,0.003903,0.369535,-0.000003,-0.000027,-0.000002,-0.000003,-0.000028,-5.607298,0.000034,
2086,3133,-3.82459669293272,10.6007056200402,0.0256834403555217,0.004047,0.001220,-0.001210,0.190672,0.064182,313.696202,24.432784,0.999755,0.993624,0.003036,0.385032,-0.000005,-0.000021,-0.000010,0.000000,-0.000025,-25.595429,0.000029,
2191,2248,-1.39809034539005,-8.6644405094047,0.0049115958580046,0.004118,0.001480,-0.004910,0.204800,0.050303,327.462101,23.999772,0.998646,0.982339,0.005382,0.360002,-0.000008,0.000019,0.000011,0.000023,-0.000012,69.834326,0.000023,
2296,2578,0.829666083161239,-1.45116420071612,-0.0198294554218705,0.004095,0.001255,-0.005158,0.205983,0.052462,321.713285,24.217523,0.999304,0.988822,0.004302,0.361109,-0.000019,0.000002,-0.000009,0.000005,-0.000022,-70.263128,0.000023,
2371,2653,2.44752679273302,0.187584622716301,-0.0303698380887454,0.003891,0.001217,-0.001139,0.183233,0.060750,320.362696,24.310005,0.999281,0.987589,0.004445,0.386900,-0.000012,-0.000011,-0.000011,-0.000001,-0.000022,-46.075603,0.000026,
2041,2773,-4.74738958013889,2.78634465434894,-0.0313386710893724,0.004044,0.000558,-0.000956,0.189215,0.037614,319.326944,24.406351,0.999035,0.990129,0.004123,0.394385,-0.000022,-0.000031,-0.000017,-0.000009,-0.000044,-37.483229,0.000056,
2071,3088,-4.14355273522047,9.62360402009674,0.0156278901202995,0.003810,0.000422,0.001707,0.171084,0.037310,314.407193,24.313473,0.999328,0.991284,0.003708,0.427740,0.000008,-0.000028,-0.000010,0.000011,-0.000031,-14.607217,0.000031,
2446,3103,3.99544900021754,9.97829605602365,0.018096300792422,0.003973,0.000825,-0.000095,0.183482,0.053898,313.507791,25.775537,0.999699,0.993234,0.003517,0.426006,0.000019,-0.000003,0.000006,0.000021,-0.000004,13.830678,0.000022,
2146,1993,-2.33675503950857,-14.2538654368341,0.025238167658415,0.003749,0.001172,-0.002097,0.178507,0.059576,331.853875,24.067783,0.999218,0.981560,0.005167,0.319073,0.000009,-0.000109,0.000019,0.000012,-0.000112,8.985928,0.000123,
2506,2098,5.50923963811615,-11.9564595771231,0.0258581162645442,0.003841,0.000876,0.001002,0.172108,0.055234,330.060125,22.079840,0.999548,0.985407,0.004898,0.203701,0.000006,-0.000080,0.000015,0.000008,-0.000083,9.862691,0.000091,
2071,2833,-4.10468940282398,4.09129239990413,-0.013677552034892,0.003947,0.000687,0.000127,0.181760,0.040912,318.322687,24.473120,0.999477,0.991790,0.003657,0.336396,-0.000008,-0.000016,-0.000004,-0.000007,-0.000017,-22.928750,0.000025,
2116,3268,-3.19648987279042,13.5274905494932,0.0275990244336981,0.004024,0.000609,-0.001328,0.189953,0.036683,311.357640,24.561798,0.999732,0.995853,0.002773,0.372372,-0.000001,-0.000026,-0.000003,-0.000001,-0.000027,-6.565524,0.000031,
2281,2713,0.47823896478361,1.48971830245342,-0.0172638381947081,0.003752,0.000827,-0.000850,0.175648,0.048547,319.530079,24.430107,0.999735,0.992979,0.003524,0.418748,-0.000016,-0.000024,0.000000,-0.000016,-0.000024,0.373627,0.000041,
2236,2263,-0.420167937940317,-8.3358324051185,0.00572702377866108,0.003855,0.001229,-0.001249,0.181294,0.080880,327.089845,23.840887,0.998897,0.982575,0.005425,0.368384,-0.000008,0.000004,0.000008,0.000008,-0.000012,63.181490,0.000013,
2011,2638,-5.37851838888617,-0.150624972473658,-0.0383681769087616,0.003981,0.001618,-0.004535,0.196160,0.066459,321.648306,24.525935,0.999180,0.986300,0.004505,0.390119,-0.000013,0.000001,0.000029,0.000024,-0.000036,52.236015,0.000037,
2056,2863,-4.43474642716949,4.74244227388186,-0.0153784509943762,0.003986,0.001354,-0.003392,0.193788,0.068502,317.916150,24.405698,0.999392,0.991490,0.003749,0.401933,-0.000013,-0.000009,-0.000013,0.000003,-0.000024,-48.806571,0.000027,
2221,2368,-0.766360299740786,-6.03808610732641,-0.00796803227007103,0.003780,0.000930,-0.000204,0.174506,0.076193,325.307810,24.059614,0.999576,0.989035,0.004319,0.358118,-0.000011,-0.000004,0.000006,0.000000,-0.000014,60.091547,0.000017,
2431,3028,3.68296993958306,8.34974421261069,0.000407673039546808,0.003859,0.000847,-0.004512,0.194478,0.030566,314.573469,25.545789,0.999471,0.987562,0.004213,0.329498,0.000009,-0.000031,0.000000,0.000009,-0.000031,0.076276,0.000032,
2026,2728,-5.06575221360226,1.80720848589097,-0.0307599397115155,0.004292,0.001145,-0.002114,0.203967,0.066570,320.167253,24.413501,0.999594,0.992130,0.003641,0.435688,-0.000010,-0.000014,0.000008,-0.000004,-0.000020,39.246286,0.000026,
2356,2548,2.142082953279,-2.10613844695283,-0.0135570455378797,0.003880,0.000721,-0.001467,0.183537,0.028686,322.205986,23.949608,0.999225,0.986424,0.004646,0.446448,-0.000011,-0.000018,0.000004,-0.000009,-0.000020,24.842072,0.000029,
2131,3163,-2.85401446811699,11.2536918317193,0.0304172031413827,0.003809,0.000812,-0.000308,0.176932,0.041344,313.019271,24.600645,0.999511,0.991674,0.003574,0.390205,-0.000003,-0.000015,-0.000005,-0.000002,-0.000016,-19.256164,0.000020,
2176,2113,-1.7027214277397,-11.6216628395502,0.00863741622185898,0.003875,0.000977,-0.003538,0.188915,0.039809,329.696054,23.905011,0.999192,0.979422,0.005541,0.377309,0.000002,-0.000009,0.000017,0.000015,-0.000021,36.224677,0.000022,
2251,2293,-0.0986217084172942,-7.679502494522,-0.00128769945507656,0.003937,0.001208,-0.003819,0.193498,0.057997,326.530786,23.771194,0.999157,0.983663,0.005028,0.400456,-0.000010,0.000003,0.000005,0.000005,-0.000012,69.700914,0.000012,
2161,3238,-2.21605262840268,12.8814253002913,0.0339255575912603,0.003856,0.000769,0.000378,0.177074,0.046646,311.700918,24.788274,0.999721,0.994463,0.003048,0.385316,-0.000002,-0.000017,-0.000001,-0.000002,-0.000017,-4.982530,0.000020,
2401,2893,3.05554620858479,5.41462310095821,-0.019795803157308,0.004141,0.001520,-0.004229,0.206354,0.080358,316.584854,25.023647,0.999533,0.991353,0.003723,0.404278,-0.000019,-0.000017,-0.000005,-0.000012,-0.000023,-49.713585,0.000036,
2101,3163,-3.50431568098313,11.2513473256747,0.0270552934127863,0.004026,0.000856,-0.000703,0.188115,0.037634,313.140194,24.458051,0.999779,0.995259,0.002903,0.395784,-0.000004,-0.000009,-0.000011,0.000004,-0.000017,-38.658548,0.000018,
2386,2713,2.7635121466301,1.49456870221135,-0.0240557756979456,0.003966,0.000978,-0.004921,0.200184,0.027064,319.465654,24.441906,0.999634,0.991759,0.003540,0.386801,-0.000012,-0.000002,-0.000011,0.000005,-0.000019,-56.737978,0.000020,
2341,2533,1.81818505047682,-2.43224623041489,-0.0168278744776558,0.004123,0.001343,-0.002899,0.199886,0.066182,322.437062,24.020701,0.999162,0.985063,0.004685,0.399776,-0.000014,-0.000012,-0.000002,-0.000011,-0.000014,-58.896539,0.000025,
2086,2893,-3.7881014438327,5.39474781068213,-0.00939477180827453,0.004227,0.000701,-0.000415,0.196303,0.044487,317.319289,24.419320,0.999467,0.993368,0.003638,0.407166,-0.000007,-0.000012,-0.000010,0.000001,-0.000020,-37.238388,0.000023,
2236,2473,-0.457839781121766,-3.74580303285718,-0.00273730592704169,0.003585,0.001301,0.002022,0.158616,0.104520,323.604594,24.056907,0.999487,0.990663,0.004087,0.496783,-0.000017,-0.000010,0.000003,-0.000009,-0.000018,72.108049,0.000027,
2011,2878,-5.41321558026275,5.06651446224315,-0.0220535453758544,0.004503,0.001130,-0.001606,0.212406,0.065381,317.910725,24.336960,0.998999,0.990871,0.004068,0.387164,0.000005,0.000003,-0.000010,0.000014,-0.000006,-41.564190,0.000014,
2026,2953,-5.09825424408988,6.69418787587114,0.00055914925644629,0.004223,0.001246,-0.002334,0.201645,0.064450,316.773788,24.328305,0.999430,0.992341,0.003537,0.368336,0.000005,-0.000035,-0.000003,0.000005,-0.000035,-3.588898,0.000038,
2011,3148,-5.45213463699509,10.9190611674218,0.0272585710281987,0.003930,0.000766,-0.000729,0.183744,0.049349,313.899718,24.048285,0.999648,0.993578,0.003344,0.429942,-0.000005,0.000014,0.000009,0.000017,-0.000008,68.901956,0.000017,
2446,3118,3.99293464534326,10.3044771429765,0.0141320624550758,0.004398,0.001213,-0.004763,0.220632,0.054160,313.265648,25.844155,0.999641,0.991895,0.003650,0.408892,0.000019,0.000003,0.000008,0.000022,0.000000,23.885909,0.000026,
2206,2083,-1.04261473701495,-12.2803976695269,0.014400235369294,0.004140,0.001138,-0.003019,0.199643,0.051705,330.149416,23.693472,0.998896,0.978135,0.005743,0.384825,-0.000004,-0.000011,0.000006,-0.000001,-0.000015,29.676067,0.000018,
2266,2398,0.208829344281096,-5.3813566720044,-0.01900233951568,0.004130,0.001512,-0.006416,0.211280,0.055960,324.678929,23.941154,0.998934,0.985197,0.004945,0.359248,-0.000024,0.000001,-0.000001,0.000001,-0.000024,-88.424104,0.000028,
2056,3013,-4.45769406888982,7.99766994004642,0.00315716375780539,0.003656,0.001095,0.000467,0.167766,0.072992,315.605154,24.342306,0.998920,0.986811,0.004647,0.410338,0.000008,-0.000024,-0.000019,0.000017,-0.000033,-25.000336,0.000033,
2326,2458,1.50492967169153,-4.07009943679157,-0.0210657517758932,0.004009,0.001189,-0.003533,0.196591,0.059028,323.618123,23.841391,0.999493,0.987477,0.004419,0.420565,-0.000015,-0.000022,-0.000008,-0.000010,-0.000027,-33.549286,0.000038,
2311,2323,1.20338471026431,-7.02168836700294,-0.00991133576980019,0.003788,0.001186,-0.002786,0.183635,0.056468,325.890334,23.636802,0.999201,0.983861,0.005052,0.354998,-0.000023,-0.000002,0.000006,-0.000001,-0.000025,74.832502,0.000029,
2116,3013,-3.15555825440678,8.00061546769185,0.00902830329255266,0.004106,0.000776,-0.000926,0.192341,0.045678,315.370513,24.490366,0.999091,0.988866,0.004117,0.413889,0.000007,-0.000021,-0.000005,0.000008,-0.000022,-10.076125,0.000022,
2011,2653,-5.38073340803809,0.17513270299866,-0.0413398651586476,0.004217,0.001008,-0.003822,0.204928,0.046316,321.390144,24.439310,0.999041,0.986408,0.004563,0.445164,-0.000026,0.000024,0.000023,0.000034,-0.000035,68.443252,0.000040,
2221,2143,-0.725562736278324,-10.9645086424211,0.0120251851208195,0.004080,0.001900,-0.006250,0.207643,0.087754,329.135046,23.706493,0.998765,0.982117,0.005356,0.403548,-0.000011,-0.000022,0.000005,-0.000009,-0.000024,20.444743,0.000034,
2476,3253,4.6166545704286,13.2373366179467,0.00818587866586995,0.003997,0.000787,-0.000242,0.185273,0.052492,311.026143,26.470108,0.999676,0.993298,0.003273,0.399380,0.000008,-0.000012,-0.000001,0.000008,-0.000012,-1.621183,0.000013,
2281,2488,0.518634876560185,-3.41709459534253,-0.0236430540718402,0.003870,0.001123,-0.002649,0.186948,0.043139,323.139397,23.886487,0.999729,0.990797,0.003958,0.530071,-0.000014,-0.000006,-0.000010,0.000000,-0.000021,-56.893159,0.000024,
2161,2083,-2.02393216718946,-12.2787347860844,0.0197076783510965,0.003977,0.001522,-0.006404,0.202363,0.056345,330.333026,24.097246,0.999260,0.983494,0.005155,0.262488,0.000003,0.000007,0.000018,0.000023,-0.000014,48.205142,0.000023,
2371,2668,2.44464990085413,0.514101035106222,-0.0275874582367237,0.003687,0.001044,-0.000851,0.172764,0.045787,320.131829,24.346380,0.999486,0.988718,0.004293,0.377087,-0.000013,-0.000007,-0.000012,0.000002,-0.000022,-51.361614,0.000025,
2146,3223,-2.53816377357944,12.5542492807493,0.0425629717047968,0.003918,0.000556,0.002325,0.173999,0.048362,312.074363,24.670282,0.999628,0.994289,0.003041,0.420626,-0.000003,-0.000015,-0.000008,0.000001,-0.000019,-27.469113,0.000022,
2251,2548,-0.145290641296778,-2.106967203198,-0.023675549362224,0.004013,0.000758,-0.001082,0.188212,0.061359,322.214627,24.164885,0.999724,0.993530,0.003445,0.433389,-0.000019,-0.000005,0.000004,-0.000004,-0.000020,74.235919,0.000025,
2101,3178,-3.50703291279546,11.5757294923415,0.0244413755354458,0.004002,0.000606,0.000426,0.183640,0.031766,312.869113,24.385428,0.999822,0.995630,0.002782,0.462647,-0.000004,-0.000013,-0.000010,0.000002,-0.000020,-33.868833,0.000021,
2071,2848,-4.10802498584647,4.4187013606242,-0.025385162350517,0.003589,0.001189,-0.001772,0.170914,0.069720,317.969823,24.484651,0.999693,0.993826,0.003243,0.350618,-0.000008,-0.000013,-0.000004,-0.000006,-0.000015,-30.829300,0.000022,
2296,2593,0.827960406099756,-1.12560264061447,-0.00554644428842721,0.004219,0.001337,-0.002992,0.204428,0.070206,321.588082,24.209052,0.999612,0.991821,0.003645,0.417575,-0.000017,-0.000007,-0.000009,-0.000002,-0.000023,-59.058522,0.000027,
2056,2878,-4.43706945005853,5.06780372962713,-0.0134768769868288,0.004087,0.000860,-0.000167,0.189239,0.062999,317.684003,24.373035,0.999309,0.989941,0.004074,0.423292,-0.000006,-0.000001,-0.000016,0.000012,-0.000019,-50.188708,0.000020,
2191,2263,-1.40152122228601,-8.33495838540136,-0.00389429998034529,0.003770,0.001657,-0.005579,0.190982,0.070785,327.132820,24.021922,0.998883,0.981285,0.005398,0.375495,-0.000006,0.000011,0.000009,0.000014,-0.000010,66.858254,0.000015,
2176,2128,-1.70525264579992,-11.2924598870958,0.00843794812726628,0.003983,0.000629,-0.001483,0.187403,0.036603,329.451567,23.964567,0.998970,0.980299,0.005495,0.330062,-0.000003,-0.000014,0.000016,0.000008,-0.000025,35.792992,0.000026,
2116,3283,-3.19957768972128,13.8521015931074,0.0250713542379799,0.003705,0.000668,0.000443,0.170003,0.042672,311.071038,24.526807,0.999759,0.995562,0.002885,0.415187,0.000004,-0.000020,0.000002,0.000004,-0.000020,3.989593,0.000021,
2296,2788,0.79040085079809,3.12395824959452,-0.022791521396357,0.003746,0.000737,-0.000030,0.172727,0.060460,318.242816,24.589005,0.999346,0.990006,0.004018,0.422866,-0.000008,-0.000021,0.000004,-0.000006,-0.000022,15.917298,0.000030,
2041,2788,-4.74939230787117,3.11319698041557,-0.0308321114177375,0.004155,0.001105,-0.003622,0.201941,0.054619,319.100027,24.452728,0.999181,0.988765,0.004111,0.357263,-0.000026,-0.000025,-0.000009,-0.000016,-0.000035,-45.759701,0.000052,
2011,2893,-5.41565895765499,5.39206844757594,-0.0184012370839923,0.004097,0.001291,-0.001862,0.194442,0.064421,317.679730,24.333754,0.999172,0.992699,0.003617,0.377003,0.000007,-0.000022,-0.000010,0.000010,-0.000025,-16.553279,0.000025,
2461,3163,4.31035088367905,11.2822574494731,0.0239872080311443,0.004131,0.000871,-0.001887,0.197488,0.034362,312.616361,26.103724,0.999559,0.990673,0.003775,0.349020,0.000017,0.000007,0.000006,0.000020,0.000004,23.856016,0.000026,
2251,2308,-0.100753013893236,-7.35111910348344,0.000759954223440218,0.004168,0.001643,-0.005605,0.210112,0.076862,326.322064,23.821385,0.998789,0.980015,0.005472,0.394313,-0.000009,-0.000005,0.000007,0.000001,-0.000015,53.570120,0.000016,
2431,3043,3.67987275784721,8.67554248192732,0.000449720832648381,0.003999,0.000714,-0.001187,0.188628,0.041232,314.322387,25.574775,0.999516,0.988928,0.004052,0.360114,0.000008,-0.000017,0.000004,0.000009,-0.000017,8.300701,0.000017,
2086,3148,-3.82693200375002,10.9251512337378,0.0335248215070578,0.003665,0.001006,-0.000883,0.172103,0.066408,313.498558,24.413093,0.999806,0.995393,0.002805,0.404624,-0.000004,-0.000018,-0.000009,0.000001,-0.000023,-26.216171,0.000026,
2476,3268,4.61319110429438,13.5634510073878,0.00459016940340007,0.003995,0.000832,0.001172,0.179751,0.048029,310.743447,26.581779,0.999835,0.995380,0.002832,0.338210,0.000004,-0.000013,0.000005,0.000005,-0.000015,16.102785,0.000015,
2041,2983,-4.77805800077952,7.34535061748587,0.00433006399487113,0.003847,0.000712,0.001975,0.172229,0.050605,316.196153,24.308517,0.999363,0.991777,0.003632,0.393748,0.000003,-0.000039,-0.000021,0.000012,-0.000048,-22.640672,0.000049,
2206,2308,-1.08147211790737,-7.35201310839462,0.00112438428590167,0.003974,0.001536,-0.008754,0.210575,0.048259,326.427069,23.958775,0.998989,0.984980,0.004822,0.406567,0.000000,-0.000007,0.000009,0.000007,-0.000013,34.254634,0.000013,
2311,2338,1.20095112720678,-6.6938904876978,-0.00960447101743966,0.004143,0.001187,-0.001943,0.197067,0.068534,325.663978,23.634553,0.999247,0.983686,0.004856,0.403468,-0.000023,-0.000006,0.000002,-0.000006,-0.000023,83.732566,0.000030,
2341,2548,1.81547679706641,-2.10565272552292,-0.0135197591657175,0.004144,0.000841,-0.000658,0.192889,0.057879,322.214720,24.024779,0.998804,0.983196,0.005038,0.424790,-0.000009,-0.000017,0.000000,-0.000009,-0.000017,0.244506,0.000026,
2386,2728,2.76049741731395,1.821298510466,-0.0222624856648963,0.003996,0.000655,-0.001233,0.188267,0.039278,319.224478,24.480049,0.999595,0.991111,0.003772,0.404526,-0.000015,-0.000012,-0.000005,-0.000008,-0.000018,-55.145592,0.000027,
2236,2488,-0.460957047061616,-3.41683730183496,-0.0160922589024608,0.003944,0.000903,0.000633,0.179447,0.066820,323.270932,24.134276,0.999484,0.989050,0.004157,0.404423,-0.000019,-0.000002,-0.000002,-0.000002,-0.000020,-83.534558,0.000024,
2401,2908,3.05220760048156,5.74085886477371,-0.0183593930100869,0.003813,0.000849,-0.001710,0.181904,0.051941,316.327596,25.105640,0.999595,0.990900,0.003789,0.338665,-0.000018,-0.000021,-0.000005,-0.000015,-0.000024,-37.288861,0.000039,
2116,3028,-3.15788364453122,8.32669913649379,0.00763060226364587,0.004318,0.001080,-0.001143,0.202859,0.050774,315.124450,24.531691,0.999321,0.991084,0.003795,0.380489,0.000008,-0.000023,-0.000005,0.000009,-0.000024,-8.381340,0.000024,
2071,3103,-4.14523515918957,9.94828914373684,0.0278838654510309,0.003838,0.000389,0.002936,0.168875,0.039361,314.262817,24.333929,0.999600,0.992975,0.003305,0.405231,0.000011,-0.000019,-0.000005,0.000011,-0.000020,-8.468978,0.000020,
2326,2473,1.50276038509843,-3.74366071656262,-0.0103082131465726,0.003868,0.001285,-0.002699,0.187286,0.056386,323.455985,23.871371,0.999559,0.987484,0.004231,0.423130,-0.000010,-0.000019,-0.000004,-0.000009,-0.000021,-21.306277,0.000030,
2146,3238,-2.54152176790036,12.8806950868153,0.034334882046096,0.003762,0.000710,0.004189,0.161208,0.058803,311.746515,24.755689,0.999619,0.994186,0.003087,0.351940,-0.000004,-0.000018,-0.000007,-0.000002,-0.000021,-21.847984,0.000025,
2266,2608,0.170380964314177,-0.796977984645679,-0.0314079387441666,0.004128,0.001470,-0.005108,0.207145,0.071672,321.169656,24.271801,0.999203,0.987482,0.004481,0.418235,-0.000019,-0.000020,0.000001,-0.000018,-0.000021,33.131742,0.000040,
2221,2383,-0.768884351664191,-5.71146283516831,-0.00777749059210464,0.003890,0.000730,0.000793,0.176298,0.043796,325.069670,24.006789,0.999451,0.988527,0.004357,0.399258,-0.000010,-0.000004,0.000007,0.000001,-0.000015,56.083346,0.000016,
2101,2968,-3.47451686522913,7.02426756647158,0.001703405955368,0.003803,0.000812,0.000883,0.173108,0.067066,316.093313,24.499873,0.999626,0.991248,0.003592,0.379532,0.000006,-0.000025,-0.000009,0.000009,-0.000027,-14.968051,0.000028,
2446,3133,3.98934409338387,10.6305588025625,0.0151241754694524,0.004013,0.001007,-0.001237,0.189672,0.051488,312.996779,25.941713,0.999550,0.988565,0.004126,0.359413,0.000022,0.000000,0.000004,0.000023,-0.000001,9.189503,0.000026,
2506,2113,5.5060364161878,-11.6281230676936,0.0212734292821324,0.003741,0.001511,-0.003685,0.185874,0.060364,329.794044,22.001695,0.999597,0.985796,0.004874,0.351211,0.000000,-0.000087,0.000012,0.000002,-0.000088,7.456899,0.000101,
2206,2098,-1.045589203579,-11.9516653367738,0.0171219419078739,0.003759,0.000696,0.000491,0.170971,0.051362,329.902373,23.728621,0.999049,0.981522,0.005382,0.369214,-0.000006,-0.000015,0.000007,-0.000002,-0.000019,29.824319,0.000023,
2131,3178,-2.85645582728179,11.5784794636481,0.0323395186322841,0.003716,0.000543,-0.000736,0.173874,0.032543,312.787266,24.595574,0.999255,0.988004,0.004053,0.390952,-0.000003,-0.000018,-0.000005,-0.000002,-0.000019,-17.000618,0.000023,
2101,3193,-3.50919563508333,11.9010031085464,0.0361853718577549,0.003720,0.000794,0.003121,0.162796,0.049614,312.701062,24.459584,0.999601,0.994065,0.003186,0.405972,-0.000006,-0.000017,-0.000013,0.000003,-0.000026,-33.535413,0.000029,
2086,2908,-3.79091457122246,5.72095832654013,-0.00881239529422828,0.003826,0.000823,0.000380,0.175546,0.053585,317.059284,24.449202,0.999404,0.992101,0.003773,0.384854,-0.000010,-0.000022,-0.000015,0.000000,-0.000032,-33.503567,0.000037,
2416,2923,3.37624101827039,6.06762209653748,-0.0154703571051868,0.004198,0.000844,-0.001853,0.200137,0.043013,316.141852,25.175137,0.999707,0.992169,0.003562,0.336323,-0.000016,-0.000031,-0.000008,-0.000012,-0.000034,-23.922367,0.000048,
2146,2008,-2.33831185061977,-13.9262515675789,0.0306726014329115,0.004122,0.001431,-0.003756,0.200687,0.056884,331.681312,24.000510,0.998993,0.982881,0.005166,0.394708,0.000009,-0.000066,0.000046,0.000030,-0.000088,25.299575,0.000090,
2071,2863,-4.10956850062363,4.74323788649257,-0.0180128711281213,0.003965,0.000994,-0.001502,0.187429,0.059438,317.804689,24.418244,0.999451,0.991368,0.003794,0.403259,-0.000007,-0.000014,-0.000010,0.000000,-0.000021,-35.398859,0.000024,
2026,2968,-5.10059106648686,7.01912168005304,0.00322747108413068,0.004080,0.001168,-0.001512,0.192764,0.056615,316.543523,24.286643,0.999486,0.992354,0.003439,0.391641,0.000005,-0.000042,-0.000011,0.000007,-0.000044,-12.291728,0.000047,
2041,2998,-4.78015370658596,7.67060637854406,0.00989786094424971,0.003853,0.000367,0.003685,0.167611,0.036668,315.993983,24.330075,0.999220,0.990208,0.003911,0.349842,0.000001,-0.000031,-0.000020,0.000010,-0.000041,-25.192296,0.000042,
2476,3283,4.61133335250643,13.887434043817,0.017326463732104,0.004073,0.000496,0.000629,0.185190,0.020490,310.609918,26.612574,0.999842,0.995928,0.002810,0.334953,0.000003,-0.000023,0.000010,0.000006,-0.000026,18.918628,0.000027,
2056,2893,-4.43965033771641,5.3942122650031,-0.0134298149332039,0.003792,0.001007,-0.001112,0.178380,0.072371,317.429446,24.412314,0.999468,0.992378,0.003751,0.387885,-0.000009,-0.000011,-0.000015,0.000005,-0.000025,-43.356040,0.000026,
2296,2608,0.823972341713343,-0.796810686530655,-0.0179601680480914,0.003901,0.001385,-0.002830,0.189339,0.076261,321.225247,24.282111,0.999451,0.990041,0.003949,0.381760,-0.000020,-0.000015,-0.000006,-0.000011,-0.000024,-57.318338,0.000035,
2146,3253,-2.54423478666724,13.205869070845,0.0221907149290246,0.004048,0.000867,-0.000932,0.189947,0.046944,311.427916,24.729053,0.999590,0.993847,0.003176,0.373333,-0.000004,-0.000026,-0.000003,-0.000003,-0.000027,-8.163030,0.000033,
2041,2803,-4.75171324268987,3.43882884753141,-0.029073194012426,0.004119,0.001073,-0.002207,0.196334,0.054031,318.865932,24.418640,0.999381,0.990432,0.003795,0.383251,-0.000019,-0.000025,-0.000009,-0.000013,-0.000031,-34.788075,0.000046,
2371,2683,2.44122872166268,0.842370502066103,-0.0384350511025673,0.004114,0.000996,0.000822,0.186457,0.063936,319.810251,24.402503,0.999448,0.988965,0.004103,0.380931,-0.000013,-0.000003,-0.000014,0.000007,-0.000023,-55.061458,0.000023,
2266,2413,0.206456413755838,-5.0556640209487,-0.00271557973411518,0.003680,0.000965,-0.000350,0.170415,0.057805,324.532049,23.933280,0.999148,0.986828,0.004616,0.395645,-0.000020,-0.000005,-0.000004,-0.000004,-0.000021,-77.447026,0.000027,
2281,2728,0.475035872579344,1.81700367495752,-0.0226159907458623,0.003847,0.000621,0.001759,0.171232,0.051485,319.236843,24.469196,0.999694,0.992344,0.003548,0.410940,-0.000015,-0.000030,0.000002,-0.000015,-0.000030,6.816521,0.000046,
2056,3028,-4.45981261963417,8.32258768733702,0.00497938260826913,0.003941,0.000794,0.002938,0.173839,0.068008,315.382286,24.306855,0.999444,0.991632,0.003712,0.434761,0.000013,-0.000026,-0.000015,0.000018,-0.000031,-18.864326,0.000031,
2101,3208,-3.51089958951315,12.2263595564696,0.0421057733739758,0.004049,0.000758,0.002346,0.180301,0.056729,312.522466,24.520421,0.999574,0.993939,0.003247,0.352341,-0.000008,-0.000015,-0.000011,0.000000,-0.000023,-35.571249,0.000027,
2011,2668,-5.38248932772631,0.501075638620165,-0.0335607081029252,0.004320,0.001007,-0.002386,0.205828,0.058000,321.213193,24.432203,0.999101,0.987593,0.004325,0.452410,-0.000034,0.000031,0.000024,0.000039,-0.000042,71.993692,0.000047,
2026,2743,-5.06826789844394,2.13323898652699,-0.0277399990352478,0.004005,0.000930,0.000158,0.184438,0.063817,319.930008,24.410598,0.999406,0.990011,0.004047,0.426029,-0.000025,-0.000020,0.000007,-0.000015,-0.000030,53.092381,0.000046,
2446,3148,3.9870145660658,10.9558106964673,0.0186210096265427,0.004174,0.001202,-0.003924,0.207181,0.052849,312.797780,25.977503,0.999576,0.990663,0.003763,0.376137,0.000023,-0.000009,0.000005,0.000024,-0.000010,8.222663,0.000024,
2191,2278,-1.40368754922244,-8.00711893340895,-0.000261391098035801,0.004116,0.001096,-0.002102,0.195816,0.065512,326.926225,24.051764,0.998965,0.980848,0.005389,0.357068,-0.000006,-0.000001,0.000003,0.000001,-0.000007,67.892744,0.000008,
2236,2278,-0.42323723996078,-8.00749825178551,-0.00113118929613165,0.003933,0.000827,-0.000489,0.182277,0.061741,326.792013,23.823797,0.999055,0.983847,0.005067,0.389915,-0.000007,-0.000001,0.000004,0.000001,-0.000009,65.167697,0.000010,
2071,3118,-4.1468130055411,10.2730294233736,0.0382751605219482,0.003958,0.000449,0.002062,0.176948,0.040494,314.113012,24.350988,0.999786,0.994293,0.002953,0.385014,0.000006,-0.000015,-0.000005,0.000007,-0.000016,-12.643888,0.000016,
2086,2923,-3.79331724474607,6.04681609465754,-0.00879486761147064,0.003941,0.000676,0.002280,0.175358,0.056751,316.815155,24.452653,0.999318,0.990945,0.003872,0.383121,-0.000006,-0.000018,-0.000012,0.000001,-0.000025,-31.903655,0.000028,
2191,2098,-1.37410366120644,-11.9505913337915,-0.00121428254897182,0.003739,0.000657,0.000309,0.170669,0.047925,329.791315,23.695267,0.999411,0.985892,0.005025,0.490235,0.000002,-0.000012,0.000018,0.000014,-0.000024,34.739034,0.000024,
2236,2503,-0.463726961816977,-3.08909804355101,-0.0218031178421825,0.004039,0.001295,-0.001604,0.191200,0.066335,322.992150,24.138305,0.999459,0.988232,0.004236,0.422394,-0.000020,0.000004,0.000002,0.000004,-0.000020,85.564054,0.000021,
2011,2908,-5.41761483488462,5.71712605068006,-0.0115372061650874,0.003925,0.001042,-0.003238,0.190247,0.065120,317.489322,24.310064,0.999261,0.992542,0.003552,0.389092,0.000005,-0.000035,-0.000022,0.000015,-0.000044,-23.669783,0.000045,
2506,2128,5.50271055012999,-11.2978607252783,0.0118067973248799,0.004007,0.002223,-0.007675,0.213713,0.097343,329.500247,22.020741,0.999631,0.984965,0.004952,0.433778,-0.000005,-0.000085,0.000008,-0.000004,-0.000086,5.950454,0.000102,
2131,3193,-2.8590007138336,11.9036556928136,0.0330429198014031,0.003753,0.000572,0.001148,0.169871,0.029947,312.543827,24.616539,0.999519,0.991993,0.003513,0.371766,-0.000005,-0.000021,-0.000008,-0.000002,-0.000024,-21.160790,0.000029,
2416,2938,3.37323776990133,6.39321956543844,-0.0120784841539603,0.003963,0.000952,-0.000665,0.185049,0.057850,315.910228,25.177076,0.999663,0.991777,0.003703,0.396630,-0.000011,-0.000040,-0.000009,-0.000009,-0.000042,-16.819420,0.000055,
2296,2803,0.787277127081982,3.45168749329303,-0.0290573365898581,0.003811,0.001069,-0.000314,0.176844,0.091423,317.949601,24.658788,0.999263,0.989262,0.004110,0.414050,-0.000007,-0.000030,0.000006,-0.000006,-0.000032,13.730660,0.000040,
2221,2158,-0.727946420281665,-10.634903330842,0.00548985524756063,0.004451,0.002334,-0.010201,0.237433,0.074570,328.868768,23.756313,0.998759,0.984183,0.005328,0.362200,-0.000010,-0.000022,0.000004,-0.000008,-0.000023,16.890732,0.000033,
2266,2623,0.167488693457539,-0.470924790443014,-0.0238416106444106,0.003844,0.000738,0.001475,0.172068,0.051809,320.954855,24.296627,0.999383,0.988369,0.004293,0.399786,-0.000019,-0.000020,0.000002,-0.000017,-0.000021,37.595477,0.000038,
2476,3298,4.60745387795142,14.2138813396471,0.000376581183104463,0.004284,0.001088,-0.003713,0.211775,0.042828,310.246841,26.663749,0.999652,0.993460,0.003417,0.361376,-0.000008,-0.000027,0.000007,-0.000006,-0.000029,17.497368,0.000037,
2341,2563,1.81209135462963,-1.77763780225408,-0.0148230235396341,0.003781,0.000744,0.000727,0.171403,0.070028,321.938548,24.102583,0.998964,0.985425,0.004749,0.396854,-0.000012,-0.000018,-0.000005,-0.000009,-0.000021,-31.054407,0.000031,
2161,3253,-2.21957449604388,13.2066616635807,0.0228319797950007,0.003744,0.000622,0.002020,0.166800,0.042767,311.352122,24.765744,0.999690,0.994378,0.003103,0.412594,-0.000001,-0.000025,0.000003,-0.000001,-0.000025,6.980651,0.000030,
2401,2923,3.05001672864983,6.06598472435216,-0.0130032543474954,0.004105,0.000990,-0.001836,0.195765,0.042410,316.141857,25.098421,0.999541,0.991062,0.003809,0.381296,-0.000016,-0.000029,-0.000008,-0.000012,-0.000033,-26.480033,0.000047,
2161,2098,-2.0263414062813,-11.9505029947902,0.0186036848079993,0.004115,0.001596,-0.005930,0.207315,0.053380,330.088258,24.046285,0.999547,0.984197,0.005021,0.323921,0.000001,0.000001,0.000019,0.000020,-0.000018,44.667541,0.000022,
2251,2563,-0.147588942440883,-1.78005730758995,-0.0232559856101489,0.004220,0.001106,-0.002644,0.202966,0.057480,321.989901,24.171767,0.999586,0.991342,0.003778,0.446676,-0.000018,-0.000011,0.000001,-0.000011,-0.000019,80.932853,0.000030,
2251,2323,-0.103858841016812,-7.02205864883646,-0.00850442810093455,0.004316,0.001646,-0.006326,0.219261,0.062092,326.011642,23.859885,0.998826,0.982079,0.005313,0.366881,-0.000008,-0.000002,0.000011,0.000006,-0.000016,51.951279,0.000016,
2116,3298,-3.20213311081655,14.1773343004879,0.018095707192515,0.003899,0.000882,-0.002581,0.188024,0.049959,310.784633,24.527889,0.999672,0.993541,0.003340,0.423428,0.000021,-0.000005,0.000003,0.000022,-0.000006,6.754410,0.000022,
2146,2023,-2.34160343284335,-13.5952750458732,0.0212572156763144,0.003996,0.001082,-0.001975,0.189443,0.069105,331.350645,24.061960,0.998722,0.982346,0.005221,0.357702,0.000001,-0.000063,0.000035,0.000016,-0.000078,23.511970,0.000082,
2206,2323,-1.08385277450864,-7.02408978152867,0.00247269087765289,0.004385,0.001279,-0.003959,0.214207,0.057117,326.199909,23.974090,0.999002,0.985558,0.004640,0.418685,0.000001,-0.000013,0.000007,0.000003,-0.000016,21.411139,0.000017,
2386,2743,2.75811218661583,2.14780101946446,-0.01916586027113,0.004185,0.000972,-0.002194,0.200543,0.055655,319.018411,24.507699,0.999660,0.991642,0.003717,0.436777,-0.000015,-0.000017,-0.000006,-0.000010,-0.000021,-39.771202,0.000032,
2491,1993,5.20363511841567,-14.2647681994408,0.0331558287271605,0.003835,0.001242,-0.001363,0.180909,0.057479,331.778768,21.632353,0.999141,0.967580,0.006816,0.308660,0.000008,-0.000034,0.000082,0.000072,-0.000098,37.914967,0.000101,
2071,2878,-4.11220463920992,5.06906133007998,-0.0201182818676671,0.003832,0.000806,-0.001453,0.181056,0.042983,317.537128,24.410103,0.999308,0.989044,0.004262,0.391160,-0.000001,-0.000004,-0.000012,0.000010,-0.000015,-41.477092,0.000015,
2296,2623,0.820961773541054,-0.470436433644657,-0.0211440256010746,0.003946,0.000937,-0.001643,0.187184,0.047192,320.953559,24.253431,0.999458,0.988929,0.004003,0.411909,-0.000021,-0.000014,-0.000006,-0.000010,-0.000025,-60.118344,0.000036,
2311,2353,1.19809990384769,-6.36562248556486,-0.00959234486794003,0.003985,0.001080,-0.002751,0.192552,0.052927,325.417028,23.705154,0.999449,0.986102,0.004469,0.351290,-0.000021,-0.000001,0.000003,-0.000001,-0.000021,81.566666,0.000025,
2431,3058,3.6767357668722,9.00186187368553,0.00278484056605066,0.003738,0.000751,-0.000070,0.172546,0.050368,314.079921,25.672293,0.999660,0.990603,0.003878,0.320988,0.000006,-0.000019,0.000003,0.000006,-0.000020,5.666240,0.000020,
2011,3163,-5.45385361983591,11.2441033863276,0.0373526878586858,0.003921,0.000951,-0.000810,0.183657,0.060296,313.738964,24.089699,0.999555,0.994028,0.003303,0.386080,-0.000011,0.000024,-0.000005,0.000025,-0.000011,-82.107535,0.000025,
2191,2113,-1.37531861763348,-11.6223957212299,0.0185475722918795,0.003686,0.000770,0.000352,0.168158,0.049911,329.711737,23.870262,0.999012,0.982154,0.005318,0.333879,0.000002,-0.000014,0.000017,0.000012,-0.000025,32.248471,0.000025,
2281,2503,0.515859709793663,-3.08718477302023,-0.0232387666714544,0.003756,0.001210,-0.003037,0.183070,0.064158,322.894516,24.124666,0.999745,0.991660,0.003830,0.341843,-0.000018,0.000006,-0.000006,0.000007,-0.000019,-76.723642,0.000019,
2266,2428,0.203839617324125,-4.7268291280261,-0.00923512141986293,0.004083,0.001401,-0.002099,0.194866,0.070770,324.258978,23.989536,0.999273,0.987847,0.004439,0.379421,-0.000017,-0.000015,-0.000011,-0.000005,-0.000027,-48.782788,0.000034,
2161,3268,-2.2222348026714,13.5315943487604,0.0202782510081647,0.003846,0.000515,0.002511,0.169946,0.034332,311.088208,24.771994,0.999694,0.994496,0.003119,0.406493,0.000003,-0.000025,0.000006,0.000004,-0.000026,12.008648,0.000028,
2101,2983,-3.47680242276142,7.34959316404479,0.0020362359072692,0.003938,0.000767,0.001072,0.178802,0.066769,315.857578,24.476288,0.999645,0.992737,0.003382,0.403438,0.000000,-0.000025,-0.000011,0.000004,-0.000029,-20.221120,0.000031,
2221,2398,-0.771016508669867,-5.38215775574195,-0.00888227627541482,0.004116,0.001344,-0.003672,0.201210,0.064476,324.842088,24.138840,0.999612,0.991018,0.003930,0.308339,-0.000009,-0.000006,0.000005,-0.000002,-0.000012,53.207074,0.000015,
2326,2488,1.50021151680308,-3.41575334554649,-0.0105607920730222,0.004022,0.001551,-0.004030,0.199087,0.077187,323.222337,23.915123,0.999477,0.987479,0.004241,0.435946,-0.000008,-0.000012,-0.000003,-0.000006,-0.000014,-28.921926,0.000021,
2056,3043,-4.46240480764594,8.64817690943972,0.0059517186518292,0.003680,0.000732,0.003349,0.160697,0.070996,315.132766,24.323503,0.999702,0.994530,0.003158,0.414643,0.000014,-0.000022,-0.000014,0.000019,-0.000027,-18.901718,0.000028,
2236,2518,-0.466949342521463,-2.7609042232874,-0.0257841221940112,0.003626,0.001457,-0.002982,0.176774,0.075637,322.701254,24.195524,0.999435,0.988256,0.004220,0.396905,-0.000019,0.000008,0.000003,0.000008,-0.000019,82.845557,0.000020,
2041,2818,-4.7540584976241,3.7643240196883,-0.0227261314008729,0.003893,0.000953,0.001035,0.176930,0.072597,318.656206,24.391990,0.999279,0.990168,0.003942,0.420735,-0.000021,-0.000018,-0.000007,-0.000012,-0.000027,-52.161054,0.000040,
2371,2698,2.43872348702132,1.16804508739789,-0.0334430197151505,0.003907,0.001035,-0.001437,0.185035,0.066764,319.607054,24.371176,0.999345,0.989984,0.003885,0.456180,-0.000014,-0.000004,-0.000013,0.000005,-0.000023,-56.286349,0.000024,
2056,3148,-4.47677758524149,10.9226639816395,0.0307923710420255,0.003934,0.001014,-0.004166,0.193722,0.046087,313.661156,24.275679,0.999515,0.993746,0.003214,0.392752,0.000007,-0.000010,-0.000007,0.000010,-0.000012,-19.697820,0.000013,
2191,2293,-1.40629227627914,-7.67887747557787,-0.00265583249779411,0.004038,0.001325,-0.004407,0.199584,0.068408,326.668215,24.054333,0.998965,0.982596,0.005200,0.374120,-0.000001,0.000001,0.000010,0.000009,-0.000010,47.641616,0.000011,
2506,2143,5.49965074104336,-10.9688724800425,0.0174912903110567,0.004041,0.001354,-0.002462,0.194850,0.057084,329.286444,22.170415,0.999160,0.975297,0.005992,0.307589,-0.000004,-0.000063,0.000015,0.000000,-0.000067,13.674225,0.000077,
2071,3133,-4.14940376133456,10.5985491038667,0.0302489585471335,0.004051,0.000729,-0.001455,0.191363,0.041115,313.815296,24.329758,0.999629,0.994084,0.003025,0.402734,0.000007,-0.000017,-0.000008,0.000009,-0.000019,-15.956483,0.000019,
2296,2818,0.785045157527772,3.77703339067489,-0.0226513258779732,0.003849,0.000893,-0.000249,0.178270,0.060310,317.760924,24.673175,0.999469,0.990445,0.003883,0.398385,-0.000005,-0.000032,0.000007,-0.000004,-0.000034,13.045110,0.000041,
2461,3178,4.30748897287468,11.6077568185491,0.0270762618376921,0.004265,0.000624,0.000902,0.193110,0.043190,312.391668,26.159358,0.999606,0.991578,0.003698,0.355504,0.000019,0.000015,0.000005,0.000022,0.000011,35.284765,0.000034,
2101,3223,-3.51282686701143,12.5504568123657,0.0455025063444623,0.004317,0.000571,0.001606,0.194764,0.037112,312.320435,24.480414,0.999603,0.993987,0.003229,0.372693,-0.000009,-0.000015,-0.000012,0.000001,-0.000024,-37.802097,0.000028,
2281,2743,0.472563633838082,2.14343875594929,-0.0215676991926443,0.004062,0.000505,0.002465,0.178752,0.044607,319.009305,24.496147,0.999470,0.989946,0.003927,0.405003,-0.000014,-0.000033,0.000003,-0.000014,-0.000033,7.592178,0.000048,
2356,2563,2.13867854139169,-1.77712633723948,-0.0169129684039717,0.003618,0.001022,-0.001011,0.170031,0.052123,321.920065,24.089698,0.999348,0.989323,0.004302,0.369635,-0.000014,-0.000020,-0.000003,-0.000012,-0.000021,-25.412343,0.000034,
2176,2143,-1.70735954739715,-10.9641857527702,0.0122502995192804,0.004117,0.000842,-0.001164,0.192691,0.047948,329.247439,23.973321,0.998765,0.980402,0.005494,0.347611,-0.000007,-0.000010,0.000015,0.000007,-0.000024,41.885270,0.000024,
2026,2998,-5.10513423469208,7.67024621064174,0.00632167314347498,0.004012,0.001211,-0.000838,0.187831,0.069089,316.076024,24.286887,0.999340,0.992306,0.003585,0.383068,-0.000006,-0.000034,-0.000013,-0.000001,-0.000039,-21.301949,0.000045,
2131,1993,-2.6646640466506,-14.2528239396509,0.0226408938011673,0.003204,0.001519,-0.003867,0.158859,0.053266,331.870941,24.207363,0.999238,0.979637,0.005400,0.278763,-0.000006,-0.000115,0.000023,-0.000002,-0.000120,11.372053,0.000139,
2221,2173,-0.730630927805503,-10.3078157659053,0.013006324131311,0.004155,0.001630,-0.005217,0.207707,0.067747,328.660837,23.725392,0.998908,0.983800,0.005162,0.407907,-0.000007,-0.000018,0.000008,-0.000002,-0.000023,27.495986,0.000028,
2026,3238,-5.1396630335678,12.8685616764512,0.0529477246170131,0.003941,0.000870,-0.001297,0.185943,0.052201,312.549771,24.088750,0.999628,0.994753,0.002997,0.390263,-0.000029,-0.000022,-0.000032,0.000007,-0.000058,-48.270274,0.000063,
2146,3268,-2.54677388002465,13.5309070544064,0.0216399425039526,0.004132,0.000878,-0.000152,0.191521,0.052455,311.179092,24.741883,0.999654,0.994463,0.003063,0.372547,-0.000001,-0.000026,-0.000002,-0.000001,-0.000026,-3.713611,0.000031,
2086,2938,-3.79471447448092,6.37205407417274,-0.00309585609107899,0.004220,0.001241,-0.003462,0.205086,0.076883,316.648290,24.426381,0.999367,0.991317,0.003783,0.428186,-0.000003,-0.000011,-0.000008,0.000002,-0.000016,-30.293148,0.000017,
2011,3178,-5.45603451878007,11.5687477901732,0.0402213870640367,0.003859,0.001041,-0.001258,0.181980,0.054768,313.516534,24.070520,0.999736,0.995433,0.002775,0.386559,-0.000015,0.000010,-0.000011,0.000014,-0.000019,-69.337067,0.000019,
2491,2008,5.20049151975249,-13.9350448176553,0.0305180380762522,0.003776,0.001446,-0.004184,0.189093,0.054764,331.523257,21.669512,0.999262,0.972570,0.006263,0.331300,-0.000001,-0.000035,0.000077,0.000061,-0.000097,38.669175,0.000098,
2206,2113,-1.04805434195839,-11.6226904291259,0.0139320026360679,0.003765,0.001281,-0.003614,0.184445,0.043967,329.648204,23.733515,0.998863,0.982730,0.005148,0.376812,-0.000005,-0.000017,0.000007,-0.000002,-0.000020,24.298052,0.000024,
2071,2893,-4.11474724332767,5.39539953623849,-0.0196756630462573,0.003653,0.000900,-0.001137,0.171997,0.061316,317.287596,24.437674,0.999448,0.991662,0.003830,0.378697,-0.000002,-0.000012,-0.000011,0.000005,-0.000018,-32.531953,0.000019,
2236,2293,-0.426135330498912,-7.67905936689959,-0.0086470002081569,0.003913,0.001258,-0.004137,0.193340,0.043115,326.498614,23.815225,0.999236,0.985375,0.004666,0.403338,-0.000003,0.000005,0.000011,0.000013,-0.000011,55.338278,0.000014,
2446,3163,3.98440445792442,11.2814160388626,0.0242525698170084,0.004225,0.001162,-0.002400,0.203898,0.062736,312.595540,26.053659,0.999580,0.991227,0.003841,0.360980,0.000023,0.000004,0.000004,0.000024,0.000003,11.289436,0.000029,
2161,2113,-2.02923905898287,-11.6217594164675,0.017338541210961,0.003978,0.001010,-0.002595,0.190649,0.046543,329.820260,24.049714,0.999356,0.982141,0.005251,0.326969,0.000003,-0.000008,0.000019,0.000017,-0.000022,37.382116,0.000023,
2431,3073,3.67393397572778,9.32668907939978,0.000951692394266956,0.003912,0.000783,-0.001809,0.186947,0.036835,313.833877,25.631746,0.999665,0.991955,0.003661,0.396933,0.000008,-0.000014,0.000001,0.000008,-0.000014,2.548542,0.000014,
2131,3208,-2.86075486020719,12.228657981579,0.0385357460582441,0.003996,0.000782,-0.001121,0.188156,0.058797,312.362429,24.621504,0.999681,0.994254,0.003132,0.399842,-0.000005,-0.000018,-0.000006,-0.000002,-0.000021,-21.954797,0.000025,
2056,3058,-4.46432656708713,8.97352651038324,0.00710200883855805,0.003986,0.000649,0.002215,0.178036,0.071213,314.915086,24.325828,0.999548,0.993496,0.003352,0.406282,0.000016,-0.000023,-0.000016,0.000021,-0.000029,-19.404416,0.000030,
2026,2983,-5.10317391005272,7.34491930396707,-0.00186205604535417,0.004000,0.001330,-0.003370,0.194248,0.060284,316.258313,24.263642,0.999352,0.991852,0.003658,0.408129,-0.000004,-0.000046,-0.000016,0.000001,-0.000051,-18.679824,0.000058,
2371,2713,2.43597161769052,1.49541120585264,-0.0327057721973461,0.003957,0.001121,-0.001603,0.187917,0.054444,319.371773,24.479725,0.999519,0.990942,0.003720,0.376580,-0.000016,-0.000006,-0.000013,0.000003,-0.000025,-54.723961,0.000027,
2101,2998,-3.47935398431972,7.67588084261117,-0.00527817631171956,0.003965,0.001138,-0.003974,0.194874,0.050210,315.567896,24.509684,0.999665,0.993213,0.003311,0.353924,0.000002,-0.000022,-0.000011,0.000006,-0.000027,-21.114655,0.000028,
2251,2338,-0.10691569771808,-6.69354532229566,-0.00959871523542688,0.004004,0.001865,-0.005948,0.203827,0.055530,325.744698,23.927011,0.998999,0.983455,0.005174,0.318582,-0.000007,-0.000003,0.000008,0.000003,-0.000013,52.244567,0.000014,
2041,3013,-4.78306682564419,7.99764238635765,0.00155772323518022,0.003597,0.001051,0.000567,0.164761,0.069927,315.676367,24.378562,0.999476,0.991537,0.003756,0.326269,0.000005,-0.000029,-0.000016,0.000012,-0.000035,-21.921515,0.000036,
2221,2413,-0.7735474584054,-5.05526339137742,-0.00457537741363012,0.004100,0.001013,-0.000346,0.189757,0.066799,324.624462,24.125281,0.999636,0.990838,0.003941,0.344428,-0.000006,-0.000016,0.000002,-0.000006,-0.000016,12.688787,0.000023,
2086,3163,-3.82981715329484,11.2507537699852,0.0239451355259348,0.003813,0.000612,-0.000923,0.178889,0.042196,313.180151,24.424513,0.999825,0.995478,0.002847,0.366920,-0.000006,-0.000008,-0.000017,0.000010,-0.000023,-42.956555,0.000023,
2056,1993,-4.30040637709443,-14.251938872061,0.0230575447478714,0.003457,0.000938,-0.002435,0.165617,0.046315,332.238727,24.641504,0.998874,0.980502,0.005491,0.363452,0.000038,-0.000147,0.000021,0.000040,-0.000149,6.364689,0.000155,
2116,3043,-3.16031413319071,8.65254359576349,0.0182458441105382,0.003813,0.000579,0.001105,0.172714,0.031033,314.938371,24.658879,0.999568,0.993202,0.003445,0.235809,0.000009,-0.000026,-0.000005,0.000010,-0.000027,-7.746465,0.000027,
2281,2518,0.513549780738909,-2.76177998993484,-0.0183526418219913,0.003831,0.000969,-0.002340,0.184147,0.056404,322.694304,24.023927,0.999789,0.991832,0.003787,0.463608,-0.000016,0.000000,-0.000003,0.000000,-0.000017,-79.715830,0.000020,
2251,2578,-0.150210098639281,-1.45279006382238,-0.0209681724297752,0.004054,0.001320,-0.003110,0.196932,0.057904,321.759689,24.228176,0.999449,0.989396,0.004078,0.414785,-0.000018,-0.000008,-0.000002,-0.000008,-0.000018,-76.022064,0.000027,
2266,2638,0.165192952530251,-0.143853631218199,-0.0267204539534305,0.004174,0.001001,-0.002172,0.199405,0.053567,320.714632,24.308417,0.999285,0.987623,0.004317,0.415800,-0.000020,-0.000020,-0.000001,-0.000019,-0.000021,-41.558952,0.000040,
2146,2038,-2.34466243618232,-13.2657641752843,0.0185400862887946,0.003619,0.000929,-0.000681,0.168232,0.064803,331.066213,24.088392,0.998977,0.982737,0.005237,0.338454,-0.000003,-0.000052,0.000029,0.000011,-0.000065,24.879618,0.000070,
2071,3148,-4.15186376813505,10.9237190364505,0.0332032027503715,0.003892,0.000967,-0.000146,0.180475,0.068076,313.584018,24.321795,0.999754,0.995759,0.002757,0.433280,0.000007,-0.000016,-0.000010,0.000010,-0.000020,-20.025256,0.000020,
2356,2578,2.13615049662669,-1.45008319676623,-0.0179896540331015,0.003705,0.001265,-0.004975,0.188097,0.060099,321.685730,24.089661,0.999253,0.987555,0.004459,0.417368,-0.000010,-0.000006,-0.000003,-0.000004,-0.000012,-62.465048,0.000017,
2386,2758,2.75449790019991,2.47534794298537,-0.0277914904639829,0.004281,0.000937,-0.000491,0.198796,0.047256,318.699930,24.567716,0.999383,0.988890,0.004092,0.412021,-0.000011,-0.000008,-0.000002,-0.000007,-0.000012,-61.577786,0.000020,
2191,2308,-1.40920580487174,-7.35224475803552,0.00189784504243562,0.003547,0.000578,-0.001267,0.166974,0.052438,326.432447,24.003586,0.998725,0.982984,0.005254,0.425344,-0.000005,-0.000014,0.000004,-0.000004,-0.000016,18.664708,0.000021,
2026,3013,-5.10773646177887,7.99642640982993,0.00361378445603577,0.003763,0.001294,-0.002893,0.182060,0.064258,315.803151,24.332197,0.999530,0.993185,0.003506,0.322213,-0.000003,-0.000030,-0.000007,-0.000001,-0.000032,-13.904857,0.000038,
2491,2023,5.1981753721249,-13.6056273334642,0.0359280980681547,0.003849,0.001784,-0.007244,0.204288,0.057473,331.341624,21.770173,0.999267,0.971345,0.006274,0.295444,0.000008,-0.000019,0.000054,0.000050,-0.000061,37.905305,0.000065,
2236,2308,-0.428689033693185,-7.35001055987983,-0.0130068230774327,0.004163,0.001542,-0.005800,0.210295,0.060169,326.236710,23.864433,0.998914,0.984535,0.004881,0.394589,-0.000007,-0.000003,0.000010,0.000006,-0.000015,50.156773,0.000016,
2341,2578,1.80937670796289,-1.44986780847719,-0.0218122716810853,0.003909,0.001709,-0.005832,0.200474,0.071345,321.665634,24.123887,0.999011,0.985957,0.004558,0.414280,-0.000010,-0.000006,-0.000005,-0.000003,-0.000013,-55.116652,0.000017,
2161,3283,-2.2244514433692,13.8565284355582,0.0208211692110467,0.004084,0.000584,0.001485,0.184195,0.044549,310.861066,24.780632,0.999726,0.995019,0.002952,0.416693,0.000008,-0.000019,0.000012,0.000013,-0.000024,20.428502,0.000024,
2416,2953,3.36976925081385,6.72005964422838,-0.0163275867012658,0.003804,0.000744,-0.000444,0.176822,0.037571,315.621017,25.278892,0.999766,0.991898,0.003713,0.321612,-0.000011,-0.000046,-0.000008,-0.000009,-0.000048,-11.574411,0.000061,
2086,2953,-3.79727500053264,6.69803852409622,-0.00441196855166481,0.004269,0.001183,-0.001517,0.201691,0.076586,316.389637,24.443637,0.999383,0.992338,0.003638,0.408837,0.000002,-0.000018,-0.000008,0.000005,-0.000021,-18.278146,0.000022,
2041,3073,-4.79073224004773,9.29617432355927,0.0223498395685624,0.004070,0.000944,0.001156,0.184904,0.055789,314.893568,24.234549,0.999491,0.992487,0.003610,0.422223,0.000013,-0.000022,-0.000007,0.000015,-0.000023,-10.825524,0.000024,
2221,2188,-0.733641587946849,-9.97810218152053,0.0075260058295612,0.004059,0.001853,-0.005884,0.205555,0.064215,328.371146,23.798182,0.998846,0.981571,0.005366,0.353415,-0.000010,0.000003,0.000006,0.000006,-0.000013,69.517294,0.000013,
2296,2638,0.818583957197387,-0.143547567939542,-0.0211006583477911,0.004042,0.001373,-0.005096,0.203457,0.060195,320.726613,24.262260,0.999376,0.987988,0.004123,0.446881,-0.000022,-0.000013,-0.000008,-0.000009,-0.000027,-59.652289,0.000037,
2236,2533,-0.468576368008769,-2.43477297098941,-0.0135204269341216,0.003805,0.001238,-0.002196,0.182389,0.057503,322.566654,24.241504,0.999729,0.991464,0.003665,0.354610,-0.000018,0.000002,-0.000001,0.000002,-0.000018,-87.619418,0.000020,
2191,2128,-1.3772614566493,-11.2934292493326,0.0137627471977453,0.004319,0.001184,-0.003438,0.209162,0.055013,329.471707,23.849846,0.998583,0.980574,0.005557,0.377081,-0.000001,-0.000018,0.000015,0.000008,-0.000027,31.169783,0.000028,
2131,2008,-2.66565607779753,-13.9258640256468,0.0316856901910683,0.004267,0.000633,0.000335,0.194751,0.061569,331.742232,24.110419,0.999246,0.984552,0.005119,0.392732,-0.000006,-0.000065,0.000050,0.000023,-0.000094,29.828069,0.000098,
2041,3028,-4.78489478991787,8.32127972753221,0.00912823012225772,0.003792,0.000695,0.002982,0.166901,0.056276,315.498234,24.271856,0.999585,0.992087,0.003684,0.411040,0.000012,-0.000030,-0.000011,0.000014,-0.000033,-13.527758,0.000033,
2506,2158,5.49638334348817,-10.6403565102053,0.0201900940597284,0.003661,0.001269,-0.002545,0.177747,0.045506,329.049637,22.220933,0.999226,0.977564,0.005639,0.309433,-0.000007,-0.000064,-0.000004,-0.000007,-0.000064,-3.665117,0.000078,
2026,3253,-5.14291865670615,13.1939411845199,0.0417772085189085,0.003782,0.000813,-0.000027,0.175076,0.046288,312.200157,24.076562,0.999863,0.996251,0.002577,0.385389,-0.000023,-0.000023,-0.000039,0.000017,-0.000062,-44.987625,0.000064,
2011,3193,-5.45828950947869,11.8935020960871,0.0398111464639328,0.004022,0.000819,0.000035,0.185996,0.054690,313.272218,24.040238,0.999730,0.995284,0.002762,0.403482,-0.000017,0.000012,-0.000014,0.000018,-0.000023,-67.939379,0.000024,
2161,3298,-2.22732306543879,14.1813391870741,0.0203035497607971,0.003929,0.000609,0.003280,0.171481,0.041143,310.598242,24.789453,0.999814,0.996460,0.002557,0.412946,0.000019,-0.000004,0.000013,0.000024,-0.000010,24.189206,0.000025,
2371,2728,2.43342026850887,1.82224633367456,-0.0283230507850476,0.003994,0.001233,-0.000835,0.186979,0.075348,319.163128,24.540048,0.999533,0.990591,0.003807,0.378547,-0.000018,-0.000014,-0.000008,-0.000008,-0.000025,-51.598025,0.000034,
2206,2338,-1.08720612713389,-6.69459512254794,-0.00433347543747686,0.004046,0.001377,-0.004231,0.199580,0.055421,325.885960,24.068381,0.999490,0.988749,0.004312,0.341682,0.000003,-0.000016,0.000005,0.000004,-0.000018,14.011409,0.000019,
2446,3178,3.98121023587998,11.6070559193556,0.0231833248429894,0.004201,0.000834,-0.001356,0.198767,0.050009,312.335313,26.118976,0.999625,0.991635,0.003655,0.333614,0.000026,0.000011,0.000003,0.000027,0.000011,11.270250,0.000038,
2176,2158,-1.71337274954231,-10.6292748692024,-0.0350943774777193,0.003703,0.001065,-0.002909,0.179194,0.049038,328.597055,24.057283,0.999393,0.959102,0.006917,0.282013,-0.000006,-0.000014,0.000014,0.000005,-0.000025,37.407829,0.000027,
2101,3238,-3.51559066457084,12.8756550651047,0.0398636045752596,0.004297,0.000779,0.000369,0.197578,0.046203,312.030507,24.465568,0.999696,0.994461,0.003035,0.396305,-0.000010,-0.000023,-0.000009,-0.000006,-0.000028,-26.879945,0.000036,
2146,3283,-2.5500080367624,13.8561605285733,0.0126761764585126,0.004071,0.000696,0.000483,0.186702,0.044255,310.853406,24.746317,0.999662,0.994327,0.003080,0.366139,0.000002,-0.000020,0.000003,0.000002,-0.000020,6.704506,0.000022,
2386,2773,2.75156243840031,2.80160368758782,-0.0238876227432456,0.004130,0.000709,0.002009,0.182825,0.048690,318.472373,24.602966,0.999355,0.989069,0.004095,0.421428,-0.000014,-0.000013,-0.000010,-0.000003,-0.000023,-47.159245,0.000029,
2131,3223,-2.86341301589794,12.5531780587797,0.0405608177646286,0.003868,0.000618,0.001250,0.175011,0.048994,312.121130,24.603823,0.999629,0.994316,0.003097,0.412087,-0.000004,-0.000014,-0.000008,0.000000,-0.000019,-29.474551,0.000022,
2251,2353,-0.109278970291388,-6.36729832478428,0.00212141751308081,0.003788,0.001148,-0.001035,0.177614,0.064996,325.574494,23.901278,0.999097,0.984702,0.005021,0.378591,-0.000012,-0.000005,0.000007,-0.000001,-0.000016,59.146063,0.000019,
2221,2428,-0.77527083128539,-4.73159243863126,0.00732228473907526,0.004110,0.001063,-0.000316,0.190109,0.062967,324.483356,23.898650,0.999694,0.990348,0.003980,0.587340,-0.000008,-0.000025,-0.000002,-0.000007,-0.000025,-6.562972,0.000035,
2281,2758,0.469125226840593,2.47044520399911,-0.0253247819895819,0.003776,0.000323,0.004660,0.158179,0.045353,318.713208,24.534524,0.999427,0.989509,0.003984,0.395180,-0.000010,-0.000025,0.000008,-0.000007,-0.000028,23.508248,0.000037,
2431,3088,3.6726629747005,9.65156127853994,0.0213799079475052,0.004065,0.000884,-0.000508,0.189255,0.054204,313.761904,25.710086,0.999686,0.992821,0.003519,0.384918,0.000011,-0.000008,-0.000002,0.000011,-0.000008,-6.068421,0.000011,
2056,3163,-4.47902453724642,11.2477525080272,0.0318447560601953,0.004120,0.000919,-0.002304,0.197047,0.048594,313.428263,24.276403,0.999530,0.992739,0.003415,0.388102,0.000003,0.000001,-0.000017,0.000019,-0.000015,-42.519067,0.000020,
2056,2008,-4.3017908304547,-13.9235336209273,0.0291650191524013,0.004064,0.000499,-0.000223,0.187142,0.034632,332.070901,24.661246,0.998755,0.982093,0.005482,0.329927,0.000043,-0.000073,0.000047,0.000060,-0.000089,19.563145,0.000091,
2206,2128,-1.05044174456718,-11.2937859714588,0.0149281429614803,0.003897,0.001338,-0.002922,0.188310,0.065441,329.418951,23.754267,0.998814,0.981847,0.005316,0.397287,-0.000007,-0.000020,0.000006,-0.000005,-0.000022,19.857738,0.000029,
2041,3043,-4.78696669124438,8.6465013444905,0.013106353796104,0.003705,0.000922,0.001093,0.168239,0.062815,315.288381,24.270169,0.999754,0.994837,0.003003,0.410619,0.000012,-0.000021,-0.000010,0.000015,-0.000023,-15.147267,0.000024,
2041,3088,-4.79344393858741,9.62265287484377,0.0161996744679982,0.004082,0.000852,0.001150,0.185500,0.053397,314.597674,24.303385,0.999667,0.994165,0.003126,0.342457,0.000003,-0.000024,-0.000004,0.000004,-0.000025,-7.494410,0.000027,
2236,2548,-0.47223582252774,-2.10681242511807,-0.0271444667379797,0.003742,0.000855,-0.002130,0.179155,0.049983,322.206698,24.218245,0.999716,0.992217,0.003556,0.392775,-0.000017,0.000002,0.000004,0.000003,-0.000018,77.917585,0.000019,
2281,2533,0.511381449945624,-2.43579727401274,-0.0118417141221698,0.003908,0.000871,-0.002012,0.186522,0.046960,322.508545,23.996430,0.999694,0.992613,0.003610,0.510102,-0.000015,-0.000008,-0.000008,-0.000003,-0.000020,-56.897678,0.000025,
2146,2053,-2.34704321120484,-12.9377497594662,0.0225599416351656,0.003346,0.000839,-0.001232,0.157344,0.053558,330.848548,24.066314,0.998893,0.981206,0.005331,0.360375,-0.000006,-0.000032,0.000029,0.000013,-0.000051,32.767144,0.000053,
2071,2908,-4.11704466582716,5.72085319358879,-0.016928228333029,0.003638,0.000981,0.000194,0.167478,0.051807,317.062298,24.432444,0.999551,0.991856,0.003669,0.370710,-0.000004,-0.000022,-0.000015,0.000005,-0.000031,-29.593310,0.000033,
2296,2833,0.782819022262064,4.10335087693109,-0.0189760793567757,0.003911,0.001083,-0.002733,0.189581,0.054836,317.558622,24.734137,0.999708,0.992767,0.003573,0.361724,-0.000006,-0.000024,0.000009,-0.000002,-0.000028,22.977997,0.000033,
2401,2938,3.04712056055697,6.39160990812334,-0.00797315962324774,0.003802,0.001161,-0.000918,0.178608,0.053294,315.921908,25.118059,0.999522,0.991185,0.003828,0.417617,-0.000011,-0.000036,-0.000009,-0.000008,-0.000039,-18.407704,0.000050,
2461,3193,4.30434847286062,11.9326688007251,0.0285908568080799,0.003984,0.000630,0.000503,0.181699,0.038347,312.147021,26.168662,0.999559,0.991191,0.003705,0.394429,0.000019,0.000014,0.000006,0.000023,0.000009,33.821225,0.000034,
2101,3013,-3.48128705458125,8.00044453893895,0.00163773139632895,0.004310,0.001122,0.000521,0.197579,0.058417,315.384268,24.460301,0.999412,0.991754,0.003577,0.412117,0.000008,-0.000020,-0.000011,0.000012,-0.000024,-19.694746,0.000024,
2101,3253,-3.51826796190776,13.2014128870653,0.0371746234145576,0.004265,0.000983,0.000483,0.195922,0.070340,311.760337,24.508293,0.999740,0.995536,0.002820,0.377637,-0.000010,-0.000033,-0.000008,-0.000007,-0.000035,-17.647681,0.000046,
2311,2368,1.19521111518333,-6.03812745222666,-0.012086500674684,0.003986,0.001177,-0.003336,0.194636,0.063169,325.156035,23.659955,0.999666,0.989019,0.004102,0.440735,-0.000022,0.000001,0.000003,0.000002,-0.000022,82.034887,0.000025,
2221,2203,-0.73635159497292,-9.64989853800076,0.00550651739479235,0.004161,0.001588,-0.004465,0.205640,0.060605,328.113095,23.775463,0.999043,0.983597,0.005082,0.394184,-0.000010,0.000017,0.000006,0.000018,-0.000011,78.154279,0.000018,
2236,2323,-0.431380938392923,-7.02201456901993,-0.0150573777525551,0.004381,0.001455,-0.003587,0.213138,0.069334,325.980396,23.853934,0.998629,0.986064,0.004848,0.437419,-0.000007,-0.000002,0.000010,0.000006,-0.000016,51.590431,0.000016,
2131,3238,-2.8665025146922,12.8789977399591,0.0307765384085315,0.003856,0.000722,0.000154,0.177731,0.033521,311.796215,24.648326,0.999538,0.994143,0.003084,0.356474,-0.000005,-0.000020,-0.000006,-0.000002,-0.000022,-20.326848,0.000027,
2026,3028,-5.10920346478177,8.31981729851554,0.0137123658030873,0.004172,0.000545,-0.000078,0.192959,0.042137,315.654997,24.227483,0.999529,0.992055,0.003721,0.394250,0.000006,-0.000030,0.000003,0.000006,-0.000031,4.491193,0.000032,
2191,2143,-1.37999401637073,-10.9640768980782,0.0134087898859434,0.004214,0.001397,-0.002143,0.200348,0.092531,329.218269,23.886078,0.998911,0.982770,0.005234,0.395778,-0.000005,-0.000014,0.000017,0.000008,-0.000027,37.884937,0.000027,
2266,2443,0.201197350562573,-4.39865168517506,-0.00964026157532771,0.003925,0.001282,-0.005168,0.197707,0.030306,324.015683,24.102039,0.999572,0.989292,0.004237,0.253563,-0.000013,-0.000014,-0.000007,-0.000007,-0.000020,-44.150214,0.000028,
2161,2128,-2.03248481192336,-11.2919737451496,0.00499810075785945,0.003842,0.001380,-0.005110,0.192245,0.049559,329.478030,24.024240,0.999339,0.980799,0.005389,0.369191,-0.000002,-0.000013,0.000018,0.000011,-0.000026,36.480948,0.000026,
2176,1993,-1.68071504872319,-14.2557211404411,0.0361160923974921,0.004258,0.001478,-0.002880,0.204472,0.061003,331.866426,23.885724,0.999211,0.981780,0.005323,0.290846,0.000016,-0.000084,0.000006,0.000016,-0.000084,3.429113,0.000089,
2191,2323,-1.41120931134938,-7.02375214961838,-0.00101330505032138,0.004065,0.001291,-0.004207,0.200190,0.070801,326.199123,24.018850,0.999006,0.985220,0.004859,0.444890,-0.000004,-0.000021,-0.000001,-0.000004,-0.000021,-1.965073,0.000027,
2071,2068,-3.98377038784789,-12.6072450610979,0.032386836049227,0.003770,0.001202,-0.001803,0.178417,0.073850,331.046862,24.642652,0.998247,0.968406,0.006836,0.286394,0.000026,-0.000024,0.000019,0.000032,-0.000030,18.862026,0.000036,
2056,3073,-4.46630582838361,9.29785036992971,0.0117316669189904,0.003958,0.000789,0.000064,0.182788,0.059943,314.714406,24.271422,0.999486,0.992314,0.003666,0.443175,0.000014,-0.000025,-0.000013,0.000018,-0.000029,-17.200607,0.000029,
2086,3178,-3.83126573658931,11.5741165534687,0.0387786507266128,0.004015,0.000670,0.001570,0.181026,0.050266,313.061843,24.347372,0.999716,0.995370,0.002876,0.450124,-0.000006,-0.000013,-0.000016,0.000007,-0.000026,-39.232553,0.000027,
2506,2173,5.4933872963041,-10.3120045676105,0.0230629975437182,0.003652,0.001246,-0.001230,0.172292,0.060805,328.825848,22.236328,0.999042,0.976264,0.005773,0.373221,-0.000021,-0.000044,-0.000014,-0.000014,-0.000051,-25.259050,0.000069,
2116,3058,-3.16280011547623,8.97645521093227,0.0157214050808534,0.003895,0.001022,0.000282,0.179090,0.040938,314.679637,24.495927,0.999529,0.993125,0.003557,0.411344,0.000012,-0.000029,-0.000009,0.000014,-0.000031,-12.044841,0.000031,
2266,2653,0.162412915921404,0.184172085483624,-0.0310345443730853,0.004301,0.001047,-0.003467,0.209494,0.027721,320.444785,24.428425,0.999478,0.989710,0.004119,0.296136,-0.000015,-0.000022,0.000000,-0.000015,-0.000022,1.020657,0.000038,
2056,2023,-4.30471098021778,-13.5932195770618,0.0239522745416707,0.003871,0.000368,0.002479,0.170665,0.070476,331.770418,24.684610,0.998629,0.983163,0.005397,0.341029,0.000039,-0.000091,0.000032,0.000046,-0.000098,13.204319,0.000098,
2026,3268,-5.1460920812271,13.5189904442804,0.0310642072652172,0.003731,0.000718,0.002092,0.166843,0.043014,311.857006,24.039115,0.999865,0.996782,0.002477,0.408192,-0.000013,-0.000027,-0.000043,0.000024,-0.000064,-40.287254,0.000065,
2011,3208,-5.46031880951462,12.2185913919763,0.0400705824976058,0.004254,0.000999,-0.000703,0.198764,0.058576,313.041919,24.044556,0.999571,0.993318,0.003280,0.389848,-0.000018,0.000013,-0.000016,0.000020,-0.000025,-66.942923,0.000027,
2326,2503,1.49633989545765,-3.08737553336347,-0.0167519991658764,0.003666,0.000829,-0.000637,0.170808,0.061293,322.899017,23.989809,0.999380,0.987674,0.004226,0.381064,-0.000013,-0.000003,-0.000002,-0.000003,-0.000013,-78.218117,0.000017,
2491,2038,5.19467596204004,-13.2772067909771,0.0397187393486433,0.003437,0.001678,-0.003487,0.171097,0.062619,331.098466,21.764251,0.999250,0.971989,0.006347,0.369038,0.000009,-0.000030,0.000053,0.000046,-0.000067,34.830449,0.000068,
2296,2653,0.814934342652457,0.184134262599514,-0.0288202395024655,0.003791,0.001141,-0.003887,0.187803,0.052787,320.402665,24.303967,0.999349,0.987950,0.004131,0.428278,-0.000019,-0.000015,-0.000006,-0.000010,-0.000023,-54.808843,0.000034,
2341,2593,1.80631767564732,-1.12254078000556,-0.0208975846637145,0.003997,0.000882,-0.000610,0.186042,0.060531,321.415289,24.190976,0.999332,0.987927,0.004290,0.373858,-0.000006,-0.000016,-0.000006,-0.000003,-0.000019,-24.843620,0.000024,
2071,3163,-4.15402795443274,11.2494890652588,0.0348305878564474,0.004012,0.001072,-0.000505,0.187063,0.068432,313.358831,24.391023,0.999725,0.995063,0.002937,0.359921,0.000004,-0.000005,-0.000019,0.000019,-0.000020,-37.775898,0.000022,
2206,2353,-1.09017348097361,-6.3678670385205,-0.00255140759759342,0.003740,0.000861,-0.000835,0.174639,0.055129,325.634398,23.998256,0.999666,0.989480,0.004208,0.430008,-0.000001,-0.000020,0.000004,0.000000,-0.000021,11.686757,0.000025,
2086,2968,-3.7997396814884,7.02287545325942,0.00201616119449,0.003927,0.000725,0.000450,0.180105,0.065940,316.178012,24.423588,0.999384,0.991573,0.003702,0.416613,0.000004,-0.000025,-0.000015,0.000010,-0.000031,-22.851762,0.000032,
2371,2743,2.43071462260421,2.14871178672546,-0.0325705125394506,0.004246,0.001218,-0.003919,0.209533,0.060436,318.906231,24.537307,0.999491,0.990195,0.003824,0.407827,-0.000017,-0.000019,-0.000009,-0.000009,-0.000027,-42.585940,0.000038,
2101,3268,-3.52085550457532,13.5260068747295,0.0333922052651019,0.004264,0.000827,-0.001420,0.201373,0.050991,311.488823,24.485121,0.999778,0.996370,0.002702,0.381306,-0.000010,-0.000033,-0.000009,-0.000007,-0.000036,-18.584173,0.000046,
2356,2593,2.13277790638152,-1.12264326807573,-0.0197930207416448,0.003527,0.000611,-0.002236,0.170045,0.033573,321.409087,24.159210,0.999287,0.987342,0.004446,0.361078,-0.000005,-0.000014,-0.000004,-0.000004,-0.000016,-21.341774,0.000021,
2191,2158,-1.38171554729198,-10.6373982821417,0.0237812339099719,0.004162,0.001208,-0.003936,0.203545,0.055200,329.067363,23.872750,0.999140,0.985943,0.004859,0.388558,-0.000004,-0.000014,0.000016,0.000008,-0.000026,36.308641,0.000026,
2506,2188,5.4895707557953,-9.98166694055411,0.0144208755304476,0.003506,0.001327,-0.003545,0.174580,0.060347,328.513012,22.332489,0.998852,0.975076,0.006073,0.340603,-0.000010,-0.000040,-0.000008,-0.000007,-0.000042,-14.150708,0.000053,
2386,2788,2.748172130007,3.12913709355542,-0.0276493256536128,0.003885,0.000714,0.001371,0.173905,0.045868,318.187129,24.704394,0.999659,0.991786,0.003710,0.360630,-0.000012,-0.000010,-0.000008,-0.000003,-0.000019,-47.610654,0.000024,
2071,2083,-3.98852594778326,-12.2749876434352,0.000165113950629348,0.003379,0.001191,-0.000582,0.157039,0.089555,330.516683,24.589607,0.998657,0.968844,0.006684,0.356918,0.000019,0.000007,0.000014,0.000028,-0.000002,33.546276,0.000031,
2221,2218,-0.739046233416847,-9.32076674778465,0.00457453957466214,0.003992,0.001432,-0.006201,0.203372,0.058759,327.861119,23.852553,0.999021,0.983134,0.005041,0.336744,-0.000008,0.000021,0.000009,0.000024,-0.000011,74.001448,0.000024,
2251,2593,-0.152905115811397,-1.12555035973843,-0.026526433452716,0.004339,0.001197,-0.004099,0.213277,0.061834,321.486390,24.215005,0.999286,0.987404,0.004447,0.456235,-0.000018,-0.000016,-0.000005,-0.000012,-0.000021,-50.802980,0.000034,
2056,3178,-4.48109281563146,11.5722349843357,0.0409889019528009,0.004042,0.000950,0.000421,0.185763,0.060932,313.248565,24.263213,0.999627,0.994285,0.003147,0.407044,0.000001,-0.000006,-0.000018,0.000016,-0.000021,-40.062707,0.000022,
2176,2008,-1.68458813073896,-13.9250928993745,0.0194855876737847,0.004031,0.001354,-0.002217,0.191960,0.073334,331.474974,23.827451,0.999174,0.984359,0.005027,0.378326,0.000015,-0.000051,0.000030,0.000027,-0.000062,21.214480,0.000063,
2056,2038,-4.30706720717765,-13.2633011022155,0.010663156467217,0.004019,0.001299,-0.006395,0.202703,0.047957,331.451770,24.645667,0.998593,0.980983,0.005507,0.356175,0.000030,-0.000082,0.000021,0.000033,-0.000086,10.423216,0.000087,
2071,2923,-4.11858685705104,6.04555170940273,-0.00868837203347539,0.003893,0.000718,-0.000799,0.182016,0.045613,316.902015,24.397374,0.999463,0.991562,0.003710,0.395783,0.000000,-0.000018,-0.000012,0.000006,-0.000024,-27.121124,0.000025,
2446,3193,3.97836039918964,11.9319330648045,0.0274647360124618,0.003892,0.000842,-0.002635,0.189268,0.035766,312.115876,26.150768,0.999675,0.991708,0.003562,0.338418,0.000026,0.000011,0.000003,0.000027,0.000011,11.536779,0.000039,
2056,3088,-4.46858927329952,9.62322030735271,0.0174239007186543,0.003866,0.000679,0.002804,0.170757,0.057754,314.505271,24.314332,0.999499,0.992548,0.003490,0.391670,0.000007,-0.000028,-0.000009,0.000009,-0.000030,-14.325570,0.000031,
2131,2023,-2.66897921794881,-13.5927138334217,0.0115722369944251,0.004343,0.001484,-0.004522,0.213043,0.058116,331.351454,24.264281,0.999136,0.983748,0.005268,0.245512,-0.000011,-0.000062,0.000038,0.000010,-0.000082,27.984536,0.000090,
2206,2143,-1.0530177300728,-10.9638738731843,0.0132922344868689,0.004006,0.001331,-0.002597,0.192304,0.071084,329.167453,23.859702,0.999155,0.984162,0.005026,0.317148,-0.000009,-0.000018,0.000010,-0.000003,-0.000025,33.113300,0.000030,
2416,2968,3.36767653565844,7.04550178808405,-0.00893311161019028,0.003917,0.000904,-0.002283,0.188864,0.050410,315.449977,25.304059,0.999830,0.993999,0.003332,0.356370,-0.000010,-0.000042,-0.000004,-0.000010,-0.000043,-6.997085,0.000056,
2041,3103,-4.79583311950753,9.94719771344782,0.0196264504012333,0.003665,0.001108,-0.001632,0.174087,0.057113,314.370559,24.253185,0.999688,0.994569,0.003041,0.387831,0.000004,-0.000010,0.000004,0.000005,-0.000011,15.395541,0.000011,
2176,2173,-1.71814820947354,-10.295225401239,-0.068352982944532,0.003697,0.001677,-0.002775,0.178743,0.079292,328.076512,24.194769,0.999816,0.925014,0.008948,0.191348,-0.000005,-0.000014,0.000015,0.000006,-0.000025,37.164376,0.000026,
2431,3103,3.66898617518887,9.97797180988811,0.0136205001152234,0.003930,0.000920,-0.001247,0.185871,0.062463,313.447333,25.763541,0.999755,0.994024,0.003321,0.388739,0.000017,-0.000005,0.000003,0.000017,-0.000006,7.389963,0.000018,
2461,3208,4.30137802123174,12.2583599278901,0.0284748896118572,0.004017,0.000791,0.000184,0.184523,0.051541,311.902394,26.225976,0.999425,0.989354,0.004049,0.403419,0.000020,0.000004,0.000002,0.000020,0.000004,8.045345,0.000025,
2296,2848,0.780046841127483,4.42844490475633,-0.0156393693292785,0.003909,0.000886,0.001030,0.176725,0.060870,317.329838,24.672542,0.999720,0.992790,0.003568,0.458998,-0.000004,-0.000021,0.000009,-0.000001,-0.000024,23.281117,0.000028,
2146,3298,-2.55271148111123,14.1805566032592,0.0123031863976166,0.003877,0.000804,-0.000311,0.180223,0.043803,310.598209,24.714980,0.999704,0.995028,0.002842,0.403254,0.000013,-0.000008,0.000003,0.000014,-0.000008,8.979004,0.000014,
2236,2338,-0.433537310477082,-6.69351688979849,-0.0119688590669398,0.004347,0.002036,-0.007417,0.224174,0.065361,325.774647,23.958277,0.999037,0.985960,0.004798,0.352192,-0.000007,-0.000006,0.000007,0.000000,-0.000013,46.448972,0.000015,
2281,2773,0.466807758985116,2.79692093214944,-0.0215492212776667,0.003599,0.000739,0.000599,0.163797,0.048243,318.506284,24.585798,0.999260,0.988344,0.004224,0.374717,-0.000007,-0.000028,0.000005,-0.000006,-0.000029,13.459421,0.000037,
2131,3253,-2.86923890827713,13.2038516198499,0.0271901935605001,0.003762,0.000614,-0.001425,0.178126,0.030216,311.521097,24.631370,0.999629,0.994868,0.002941,0.374138,-0.000004,-0.000029,-0.000004,-0.000003,-0.000029,-9.283469,0.000036,
2401,2953,3.04380563242753,6.71817168504922,-0.0136483223671462,0.003829,0.000789,-0.001359,0.181263,0.029473,315.631869,25.187305,0.999615,0.991621,0.003743,0.369537,-0.000008,-0.000041,-0.000007,-0.000006,-0.000043,-11.357759,0.000053,
2251,2368,-0.113131777423629,-6.03774816584585,-0.0108674243925861,0.003686,0.000647,0.001348,0.165002,0.067627,325.210769,23.948279,0.999413,0.987828,0.004689,0.359808,-0.000022,0.000000,0.000007,0.000002,-0.000024,74.324883,0.000026,
2221,2443,-0.778573661847698,-4.40121550157718,-0.00256706669853202,0.004125,0.000616,-0.000068,0.189876,0.032208,324.157084,24.112189,0.999231,0.987639,0.004559,0.363686,-0.000008,-0.000023,0.000000,-0.000008,-0.000023,1.706380,0.000031,
2236,2563,-0.473594675883934,-1.78175803341117,-0.0139519946713449,0.004106,0.001250,-0.001484,0.193950,0.068936,322.089221,24.144585,0.999686,0.992188,0.003532,0.506853,-0.000016,-0.000005,0.000001,-0.000005,-0.000016,82.229520,0.000021,
2086,3193,-3.83374311499956,11.8999200490156,0.0387269768368128,0.003936,0.001022,0.000941,0.179267,0.051864,312.814108,24.416050,0.999426,0.994097,0.003144,0.380657,-0.000006,-0.000018,-0.000020,0.000008,-0.000033,-36.719915,0.000034,
2146,2068,-2.34945445212071,-12.6082968367799,0.0239910448529486,0.003408,0.000798,0.001008,0.153451,0.082486,330.615399,24.111427,0.998759,0.980569,0.005478,0.355579,-0.000007,-0.000028,0.000026,0.000011,-0.000045,33.576011,0.000048,
2041,3058,-4.78862075739906,8.97106330064742,0.0229808618253173,0.003884,0.000799,0.002576,0.172322,0.058146,315.130750,24.260654,0.999695,0.994448,0.003134,0.406936,0.000014,-0.000019,-0.000011,0.000017,-0.000023,-16.874487,0.000024,
2011,3223,-5.46266005124462,12.5440382598813,0.0366064573543667,0.004501,0.000802,0.000300,0.207442,0.062765,312.776208,24.063978,0.999347,0.992730,0.003538,0.361304,-0.000020,-0.000013,-0.000023,0.000007,-0.000040,-49.058726,0.000043,
2026,3283,-5.14774980229027,13.8436329654802,0.0374376947193014,0.003979,0.000680,0.000966,0.181463,0.051227,311.679350,24.050727,0.999812,0.996477,0.002577,0.393546,-0.000007,-0.000012,-0.000044,0.000035,-0.000054,-43.559507,0.000055,
2026,3043,-5.11129908231028,8.64454321741269,0.0147517814007756,0.004219,0.000769,-0.001925,0.200316,0.050753,315.426875,24.158186,0.999517,0.992266,0.003690,0.461800,0.000003,-0.000014,0.000004,0.000004,-0.000016,13.504277,0.000016,
2101,3283,-3.5243706047604,13.8507417652223,0.0243623107393773,0.003879,0.000643,-0.000084,0.179603,0.038486,311.146137,24.443895,0.999732,0.996563,0.002664,0.409603,-0.000006,-0.000026,-0.000006,-0.000005,-0.000028,-16.239764,0.000035,
2101,3028,-3.48384834239461,8.32579533953371,0.00429682688996991,0.004038,0.001147,0.000878,0.183991,0.055919,315.148501,24.468924,0.999189,0.991161,0.003792,0.401392,0.000009,-0.000022,-0.000010,0.000012,-0.000025,-16.477301,0.000025,
2176,2023,-1.68666883949139,-13.5964016899941,0.0235091827787528,0.004045,0.001349,-0.003754,0.197332,0.073052,331.273221,23.846095,0.998962,0.984164,0.005027,0.375126,0.000005,-0.000046,0.000023,0.000014,-0.000055,21.094285,0.000058,
2461,3223,4.2979367433044,12.5842390051779,0.0232509496067905,0.003916,0.000811,-0.001168,0.184933,0.040935,311.612458,26.299065,0.999494,0.991450,0.003723,0.372832,0.000019,-0.000014,0.000004,0.000019,-0.000014,7.231766,0.000020,
2341,2608,1.8028000796603,-0.79462370988751,-0.0321716149009603,0.004236,0.000724,0.000448,0.193323,0.069581,321.084561,24.192223,0.999397,0.986886,0.004443,0.419471,-0.000006,-0.000020,-0.000007,-0.000003,-0.000023,-22.851723,0.000028,
2311,2383,1.19299943330152,-5.71086428066017,-0.0012983644767246,0.003767,0.001296,-0.002690,0.182466,0.078931,324.991254,23.721328,0.999409,0.986341,0.004691,0.428791,-0.000021,0.000003,-0.000002,0.000003,-0.000021,-84.224690,0.000023,
2206,2368,-1.09283574699869,-6.03900435452066,-0.00871273833564601,0.003953,0.001053,-0.002446,0.189620,0.065046,325.355413,24.040758,0.999494,0.988217,0.004401,0.416124,-0.000006,-0.000008,0.000005,-0.000002,-0.000012,38.265512,0.000015,
2371,2758,2.4277348827804,2.47603740864636,-0.0348270639339603,0.004299,0.001355,-0.004109,0.212721,0.066415,318.645941,24.613621,0.999143,0.986709,0.004245,0.378853,-0.000014,-0.000010,-0.000005,-0.000006,-0.000018,-54.726200,0.000025,
2386,2803,2.74501134305164,3.45578521950596,-0.0358301516019424,0.004002,0.000973,-0.001928,0.191251,0.052908,317.891567,24.685525,0.999869,0.995100,0.003289,0.429944,-0.000011,-0.000015,-0.000005,-0.000008,-0.000019,-34.844633,0.000027,
2026,3298,-5.15054857468822,14.1686350112552,0.0329381739662722,0.003785,0.000997,0.000588,0.173630,0.061430,311.388263,24.037995,0.999420,0.994279,0.003209,0.405111,0.000007,-0.000013,-0.000051,0.000049,-0.000055,-39.338538,0.000061,
2266,2458,0.197672032189001,-4.06949822467778,-0.0234074924499055,0.004236,0.001133,-0.002941,0.204645,0.055345,323.664413,24.119557,0.999700,0.990686,0.004043,0.288466,-0.000016,-0.000017,-0.000006,-0.000010,-0.000023,-41.106877,0.000034,
2071,2938,-4.12047356343658,6.3711402306833,-0.0051585872467399,0.004064,0.000866,-0.002367,0.194488,0.056657,316.699799,24.396801,0.999473,0.991075,0.003692,0.403654,0.000006,-0.000011,-0.000006,0.000008,-0.000013,-18.576312,0.000013,
2491,2053,5.18955445506462,-12.9446047365727,0.0177177915114157,0.003402,0.000941,-0.002154,0.164124,0.011677,330.665388,21.912951,0.999157,0.977413,0.005832,0.232337,0.000011,-0.000034,0.000049,0.000042,-0.000065,32.905244,0.000066,
2161,1993,-2.00943678603548,-14.2518964141445,0.0215860805536181,0.003752,0.002235,-0.005448,0.189260,0.082524,331.778906,24.114450,0.999051,0.982408,0.005273,0.189979,0.000013,-0.000087,0.000003,0.000013,-0.000087,1.561160,0.000093,
2071,3178,-4.15620725341875,11.5738579023648,0.0377370899071252,0.004195,0.000860,0.001670,0.189260,0.070591,313.140535,24.340657,0.999790,0.996275,0.002728,0.408000,0.000002,-0.000011,-0.000020,0.000017,-0.000026,-36.026830,0.000026,
2191,2338,-1.41316380574443,-6.69575217873525,0.0107385781207654,0.004013,0.000900,-0.001645,0.189687,0.049947,326.044290,24.178001,0.999643,0.989791,0.004270,0.280870,-0.000003,-0.000021,-0.000002,-0.000002,-0.000021,-6.790543,0.000026,
2296,2668,0.81273848754029,0.511537750799896,-0.0232002386820795,0.003896,0.001364,-0.004206,0.193776,0.060592,320.211502,24.421379,0.999626,0.990263,0.003882,0.349065,-0.000016,-0.000008,-0.000008,-0.000004,-0.000021,-59.112696,0.000027,
2446,3208,3.97539936393068,12.257191602884,0.0281518490824624,0.003942,0.000952,-0.001747,0.188317,0.041713,311.874488,26.179975,0.999566,0.990362,0.003868,0.366161,0.000026,0.000002,-0.000001,0.000026,0.000002,-1.181464,0.000031,
2011,3238,-5.46456983680744,12.8679262332358,0.0435281159171836,0.004289,0.001094,-0.003338,0.207668,0.064186,312.589490,24.005467,0.999523,0.993373,0.003405,0.408137,-0.000018,-0.000026,-0.000030,0.000008,-0.000052,-41.536831,0.000056,
2071,3223,-4.16300494688388,12.5483236079849,0.0417248615360108,0.004244,0.000966,-0.000624,0.198072,0.056818,312.447310,24.328200,0.999535,0.993592,0.003255,0.393271,-0.000002,-0.000019,-0.000025,0.000016,-0.000037,-36.070485,0.000037,
2176,2038,-1.68927461056526,-13.2666018881429,0.0245685876390667,0.004022,0.001045,-0.001187,0.188307,0.064123,331.031940,23.946107,0.999128,0.984081,0.004962,0.281981,0.000004,-0.000036,0.000020,0.000012,-0.000044,22.673047,0.000046,
2086,3208,-3.83543465113971,12.2245419828531,0.0425815593249013,0.004271,0.001012,-0.001692,0.202341,0.042520,312.624262,24.413136,0.999500,0.993774,0.003266,0.371945,-0.000007,-0.000017,-0.000018,0.000007,-0.000031,-37.736590,0.000032,
2026,3058,-5.11363996527914,8.97043816851726,0.0175644136453457,0.004021,0.000965,-0.002092,0.191681,0.056145,315.197021,24.215024,0.999294,0.990630,0.003868,0.399439,0.000001,-0.000012,0.000002,0.000001,-0.000013,6.874968,0.000014,
2356,2608,2.13073659056016,-0.795709693715054,-0.0176385025459922,0.004107,0.001044,-0.002877,0.199152,0.066145,321.212493,24.162059,0.999231,0.987171,0.004461,0.430234,-0.000005,-0.000017,-0.000004,-0.000004,-0.000019,-18.028986,0.000024,
2326,2518,1.49344041564747,-2.75959297278513,-0.0217950741323989,0.003706,0.001150,-0.003612,0.183029,0.048794,322.625939,24.022452,0.999315,0.986373,0.004402,0.371615,-0.000012,-0.000011,-0.000001,-0.000011,-0.000012,-52.584469,0.000023,
2296,2863,0.777304452865295,4.75614745272675,-0.0201900360528953,0.004038,0.001093,-0.001896,0.192644,0.068558,317.062516,24.794547,0.999696,0.992590,0.003521,0.374434,-0.000005,-0.000019,0.000004,-0.000004,-0.000020,15.670918,0.000026,
2131,3268,-2.87199888917732,13.5293598187965,0.0183446700369245,0.004092,0.000688,-0.001444,0.193444,0.029725,311.216429,24.647153,0.999672,0.995182,0.002878,0.362229,-0.000002,-0.000027,-0.000003,-0.000001,-0.000028,-7.226353,0.000033,
2506,2203,5.48633509293045,-9.65395578978783,0.0215560909795727,0.003148,0.000983,0.000766,0.141457,0.071637,328.297101,22.348675,0.998928,0.973054,0.006252,0.399271,-0.000006,-0.000038,-0.000005,-0.000005,-0.000039,-9.265126,0.000048,
2491,2068,5.1865240371608,-12.6142305862005,0.00906959242536232,0.004045,0.001248,-0.003997,0.200695,0.037254,330.387570,21.938349,0.999354,0.979062,0.005694,0.295138,0.000007,-0.000047,0.000033,0.000023,-0.000063,25.351289,0.000063,
2266,2668,0.159518786950901,0.510403531668594,-0.0311712329435068,0.004155,0.000993,-0.002659,0.200157,0.047667,320.190955,24.378117,0.999563,0.990879,0.003897,0.392438,-0.000013,-0.000020,-0.000002,-0.000012,-0.000021,-14.926817,0.000033,
2236,2578,-0.476925717855433,-1.45326009868484,-0.0244731179367932,0.004041,0.001041,-0.003057,0.195985,0.040417,321.759973,24.230016,0.999449,0.989294,0.004058,0.415081,-0.000015,-0.000004,-0.000003,-0.000004,-0.000016,-76.140879,0.000020,
2161,2008,-2.01197985865708,-13.9244909776372,0.0228141295224304,0.003820,0.001161,-0.001544,0.180155,0.055881,331.540537,24.005044,0.999064,0.985087,0.004956,0.286498,0.000013,-0.000054,0.000031,0.000025,-0.000066,21.407720,0.000066,
2251,2608,-0.155502878133209,-0.798214993751017,-0.0284551595769358,0.004250,0.001741,-0.008041,0.222255,0.054665,321.235873,24.258343,0.999220,0.985783,0.004674,0.429958,-0.000018,-0.000020,-0.000001,-0.000018,-0.000020,-22.070458,0.000038,
2056,2053,-4.30907484387177,-12.9341713908113,0.0107722264655195,0.004320,0.001390,-0.005138,0.213023,0.045084,331.222506,24.671951,0.997948,0.977051,0.006033,0.325285,0.000025,-0.000040,0.000020,0.000031,-0.000046,15.708976,0.000047,
2281,2548,0.50790850497145,-2.10548648757189,-0.0236625174343885,0.004007,0.001290,-0.002161,0.191734,0.058686,322.170546,24.185897,0.999478,0.989917,0.004048,0.361406,-0.000014,-0.000009,-0.000001,-0.000008,-0.000014,-76.905883,0.000022,
2191,2173,-1.38530764498281,-10.3073414434297,0.00938095829928898,0.004132,0.001147,-0.003099,0.199569,0.061490,328.701914,23.865637,0.999244,0.968925,0.006030,0.420116,-0.000003,-0.000011,0.000016,0.000010,-0.000023,37.969267,0.000023,
2161,2143,-2.03481116172371,-10.9632432280861,0.00369985642998927,0.004126,0.001546,-0.004025,0.202026,0.061092,329.235836,24.019563,0.999340,0.972046,0.006122,0.398263,-0.000007,-0.000007,0.000014,0.000007,-0.000021,44.887621,0.000022,
2221,2233,-0.741639285252536,-8.99342396037075,0.00579122891292627,0.003953,0.001189,-0.005189,0.198311,0.029650,327.625165,23.821040,0.999008,0.983354,0.005119,0.360258,-0.000011,0.000028,0.000010,0.000031,-0.000013,75.850896,0.000031,
2101,3298,-3.52738232001272,14.1758540336952,0.0163101196545199,0.003763,0.000845,-0.001489,0.178462,0.051185,310.831716,24.422477,0.999584,0.994705,0.003098,0.443422,0.000011,-0.000011,-0.000007,0.000013,-0.000013,-17.143521,0.000015,
2446,3223,3.97217050360017,12.5828974053208,0.0255762331304936,0.003950,0.000941,-0.001379,0.187377,0.049738,311.605433,26.233448,0.999576,0.990812,0.003866,0.371538,0.000024,-0.000012,0.000001,0.000024,-0.000012,2.109344,0.000024,
2071,3238,-4.16545621483293,12.8729350033883,0.0431134383047151,0.004136,0.000729,-0.000404,0.192406,0.041880,312.208171,24.322476,0.999562,0.993573,0.003234,0.379466,-0.000004,-0.000029,-0.000024,0.000011,-0.000043,-31.290883,0.000045,
2206,2383,-1.09579512163754,-5.71088426101851,-0.0115212554720188,0.003870,0.001111,-0.000654,0.180164,0.059301,325.080271,24.069233,0.999218,0.986601,0.004562,0.400488,-0.000004,-0.000009,0.000007,0.000001,-0.000014,35.380424,0.000016,
2071,3193,-4.15908091825354,11.8992255570951,0.0366682357247328,0.003785,0.000915,0.001439,0.170956,0.061237,312.868155,24.373926,0.999570,0.994623,0.003057,0.360862,0.000001,-0.000017,-0.000024,0.000018,-0.000034,-35.007071,0.000034,
2176,2188,-1.71600534591858,-9.97629270932459,-0.00186763870397044,0.003674,0.001565,-0.004303,0.182383,0.055351,328.395128,24.066300,0.999146,0.947908,0.007538,0.307842,-0.000007,0.000009,0.000017,0.000019,-0.000017,57.531198,0.000021,
2401,2968,3.04225690908629,7.04369700812547,-0.000485465394604034,0.004102,0.000829,-0.002068,0.196478,0.044298,315.512235,25.257616,0.999865,0.994882,0.003204,0.358890,-0.000007,-0.000038,-0.000003,-0.000007,-0.000038,-6.102119,0.000048,
2341,2623,1.8000595697192,-0.468385867770564,-0.0239206465997768,0.003761,0.000773,0.001553,0.167660,0.063218,320.884517,24.227463,0.999357,0.987911,0.004296,0.414830,-0.000009,-0.000016,-0.000011,-0.000002,-0.000024,-36.254642,0.000028,
2011,3253,-5.46722387726899,13.1931618824153,0.042805311074801,0.004019,0.001260,-0.003115,0.194663,0.074615,312.325019,24.022291,0.999850,0.995872,0.002708,0.387931,-0.000011,-0.000019,-0.000039,0.000023,-0.000054,-42.110822,0.000054,
2056,3193,-4.48416205342695,11.8973463123795,0.0392932953859599,0.003595,0.000564,0.002531,0.159067,0.050037,312.962781,24.270177,0.999537,0.994033,0.003188,0.382233,-0.000003,-0.000011,-0.000023,0.000016,-0.000030,-39.681105,0.000030,
2281,2788,0.465118026570526,3.12349161913183,-0.0224100719835292,0.004415,0.000966,-0.003128,0.213890,0.045461,318.304991,24.619296,0.999057,0.987301,0.004437,0.366063,-0.000003,-0.000022,0.000009,0.000001,-0.000026,20.640237,0.000029,
2041,1993,-4.62762705453289,-14.2508420994895,0.0196405370899129,0.003469,0.001225,-0.003199,0.168292,0.057482,332.297068,24.759891,0.998755,0.981527,0.005517,0.361384,0.000027,-0.000147,0.000026,0.000031,-0.000151,8.297009,0.000160,
2056,3103,-4.47054523601039,9.94781369298323,0.0258359012052551,0.003720,0.000790,0.002070,0.166172,0.061827,314.326500,24.299759,0.999516,0.992428,0.003459,0.403937,0.000009,-0.000016,-0.000002,0.000010,-0.000016,-3.916994,0.000016,
2461,3238,4.29521424002504,12.910075591953,0.0208089344199038,0.004162,0.000891,-0.004241,0.207922,0.039926,311.368359,26.378790,0.999727,0.994017,0.003217,0.345004,0.000017,-0.000017,0.000001,0.000017,-0.000017,1.771699,0.000020,
2251,2383,-0.115254381293266,-5.71193529793919,-0.0114112226773955,0.004013,0.000707,-0.001655,0.189875,0.042873,324.989873,23.807207,0.999076,0.986082,0.004844,0.501156,-0.000023,-0.000004,0.000006,-0.000002,-0.000025,74.706868,0.000030,
2416,2983,3.36463977326519,7.37071806632122,-0.00696175751374994,0.003800,0.001033,-0.000600,0.177404,0.062816,315.210073,25.274968,0.999849,0.994226,0.003275,0.445041,-0.000007,-0.000035,-0.000002,-0.000007,-0.000035,-3.527774,0.000046,
2071,2098,-3.98924694157089,-11.9491977389162,0.0248065654496941,0.003437,0.000413,0.000186,0.157302,0.033754,330.482038,24.649862,0.998584,0.977579,0.005706,0.239683,0.000014,0.000005,0.000013,0.000024,-0.000004,35.123146,0.000025,
2191,2353,-1.41610009444494,-6.3692592992032,0.00691794018138125,0.004009,0.000639,0.000607,0.182400,0.039872,325.764039,24.040063,0.999353,0.986995,0.004621,0.425329,-0.000006,-0.000024,-0.000002,-0.000006,-0.000024,-6.647599,0.000032,
2131,2038,-2.67211876613797,-13.2651025884699,0.0106165684665029,0.003851,0.000958,-0.001293,0.180699,0.051604,331.071587,24.140152,0.999179,0.983690,0.005355,0.372699,-0.000013,-0.000050,0.000033,0.000007,-0.000070,30.677061,0.000077,
2176,2053,-1.69204135809991,-12.937622946047,0.0206481267026106,0.004024,0.000702,-0.000761,0.186993,0.044564,330.757522,23.931792,0.999207,0.983827,0.004878,0.292578,0.000003,-0.000024,0.000023,0.000016,-0.000037,29.873457,0.000037,
2206,2158,-1.05591753887161,-10.6362430151067,0.0110404444724281,0.003838,0.001143,-0.001971,0.182594,0.063186,328.898368,23.769634,0.999091,0.985228,0.004967,0.419075,-0.000007,-0.000017,0.000010,-0.000001,-0.000023,31.012583,0.000027,
2431,3118,3.66560825011181,10.3045008159436,0.00659471307699278,0.004265,0.000878,0.000847,0.193524,0.067651,313.149817,25.840578,0.999815,0.995230,0.003079,0.365885,0.000017,0.000000,0.000006,0.000019,-0.000002,17.413082,0.000021,
2236,2353,-0.436026273618683,-6.36615762075179,-0.00928301463119396,0.004335,0.001715,-0.006611,0.220911,0.054218,325.551837,23.966453,0.998870,0.984154,0.005041,0.355514,-0.000011,-0.000011,0.000005,-0.000006,-0.000016,45.795065,0.000023,
2491,2083,5.18385724573019,-12.2866015270572,0.0177952259468839,0.003852,0.001120,-0.002568,0.186376,0.055077,330.204417,21.919358,0.999445,0.978177,0.005564,0.393868,0.000000,-0.000063,0.000023,0.000008,-0.000071,18.312723,0.000078,
2041,3118,-4.7980279355518,10.2720370022398,0.0215905967964432,0.003846,0.001008,0.000726,0.175877,0.060429,314.144141,24.224809,0.999675,0.994709,0.003009,0.410928,0.000001,0.000001,0.000006,0.000007,-0.000005,45.169907,0.000007,
2311,2398,1.19236861717568,-5.38589045529282,0.0154170298679901,0.004459,0.001009,-0.004943,0.221804,0.045385,324.928610,23.682326,0.999409,0.986916,0.004755,0.467316,-0.000019,0.000001,-0.000006,0.000003,-0.000021,-75.004724,0.000023,
2116,3073,-3.16564245223552,9.30319326276432,0.00666408114886963,0.003930,0.001385,-0.002451,0.188937,0.051405,314.368343,24.554940,0.999667,0.992914,0.003714,0.365464,0.000009,-0.000027,-0.000009,0.000011,-0.000029,-13.042401,0.000029,
2086,3223,-3.83773926488596,12.5491466947827,0.0457077574346272,0.004266,0.000825,-0.000753,0.199365,0.038045,312.402312,24.402930,0.999471,0.992973,0.003503,0.375536,-0.000008,-0.000018,-0.000019,0.000007,-0.000033,-37.950821,0.000035,
2356,2623,2.12722946830575,-0.468133335852464,-0.0192773190508433,0.003690,0.000998,-0.001319,0.174456,0.049028,320.930287,24.245802,0.999117,0.987805,0.004418,0.368888,-0.000010,-0.000014,-0.000008,-0.000003,-0.000020,-37.997415,0.000025,
2221,2458,-0.781363683957867,-4.07331916366858,-0.00662391020966879,0.003948,0.001043,-0.003789,0.193835,0.049359,323.884458,24.111341,0.999058,0.985340,0.004945,0.402092,-0.000009,-0.000025,0.000000,-0.000009,-0.000025,-1.522742,0.000035,
2371,2773,2.42517428341096,2.80162433564849,-0.028750807101801,0.004185,0.001025,-0.003438,0.204966,0.054902,318.445185,24.617600,0.999468,0.990264,0.003822,0.404022,-0.000016,-0.000013,-0.000012,-0.000002,-0.000027,-48.254104,0.000032,
2011,3268,-5.46968359157756,13.5169697736476,0.0468228713983763,0.003832,0.000976,-0.000057,0.177581,0.062708,312.096811,23.959726,0.999854,0.995959,0.002682,0.425331,0.000000,-0.000023,-0.000045,0.000034,-0.000058,-37.786593,0.000058,
2296,2878,0.774526461850758,5.08175493033892,-0.0208103452015393,0.003959,0.001273,-0.003086,0.193110,0.062685,316.813628,24.771260,0.999666,0.991915,0.003634,0.421515,-0.000004,-0.000021,0.000004,-0.000004,-0.000022,12.631517,0.000028,
2026,3073,-5.11605204421524,9.29480170643442,0.0207286580316577,0.003875,0.000427,0.000148,0.178591,0.032561,314.966499,24.165730,0.999280,0.991871,0.003729,0.414362,0.000000,-0.000016,0.000005,0.000002,-0.000018,16.936282,0.000020,
2146,2083,-2.35241547655945,-12.27745121247,0.0120131092884321,0.003569,0.001076,-0.000457,0.165385,0.072839,330.286349,24.179566,0.998645,0.980955,0.005529,0.289434,-0.000007,-0.000007,0.000021,0.000014,-0.000028,44.687048,0.000028,
2056,3118,-4.4727522982758,10.272965630165,0.0266382097804012,0.003770,0.000733,0.000930,0.171692,0.054890,314.093979,24.303057,0.999550,0.993523,0.003194,0.387200,0.000006,-0.000009,-0.000001,0.000007,-0.000009,-2.779420,0.000009,
2071,3253,-4.16810502914946,13.1984306606404,0.0379378088007911,0.004252,0.000783,-0.000053,0.196823,0.056548,311.923517,24.335669,0.999724,0.994924,0.002974,0.376492,-0.000003,-0.000034,-0.000026,0.000012,-0.000049,-29.531268,0.000051,
2266,2683,0.156626413962041,0.83745532980307,-0.031931786711084,0.004030,0.001127,-0.002274,0.193240,0.066886,319.933838,24.403284,0.999545,0.991967,0.003685,0.412543,-0.000012,-0.000020,-0.000004,-0.000010,-0.000022,-22.393575,0.000032,
2041,2008,-4.63042412454483,-13.9202350134199,0.0142356763063276,0.003362,0.001035,-0.000712,0.156513,0.041541,331.999875,24.853749,0.997718,0.979974,0.006043,0.248139,0.000037,-0.000069,0.000055,0.000061,-0.000092,23.120652,0.000094,
2101,3043,-3.48596802229193,8.65112834520591,0.0113613429932116,0.003899,0.000673,0.000758,0.177823,0.038019,314.956908,24.523781,0.999490,0.992692,0.003505,0.328948,0.000010,-0.000024,-0.000009,0.000013,-0.000027,-14.297195,0.000027,
2146,2203,-2.37237927614727,-9.64845571774732,-0.00050769203329537,0.003732,0.000719,-0.001854,0.177070,0.041203,328.265810,24.184057,0.998703,0.978643,0.005585,0.339875,-0.000003,0.000013,0.000023,0.000029,-0.000019,54.666328,0.000030,
2281,2563,0.505198897366526,-1.7786592232686,-0.0261494443275296,0.004024,0.001586,-0.004286,0.199740,0.062656,321.914809,24.152319,0.999271,0.988228,0.004438,0.427850,-0.000017,-0.000012,-0.000006,-0.000008,-0.000021,-57.298503,0.000030,
2446,3238,3.96873764010039,12.9089211568491,0.017800112438124,0.004127,0.001067,-0.001658,0.196571,0.049479,311.302713,26.299308,0.999661,0.992744,0.003446,0.356264,0.000020,-0.000016,-0.000002,0.000020,-0.000017,-3.698034,0.000021,
2161,2023,-2.01441333800373,-13.5956234327429,0.0199471826131798,0.003949,0.000925,-0.002590,0.189186,0.047384,331.285406,23.969721,0.998966,0.983826,0.005061,0.327216,0.000006,-0.000048,0.000023,0.000014,-0.000056,20.194971,0.000058,
2071,2953,-4.12312704728431,6.69719231377352,-0.00562467031022607,0.004060,0.000967,0.001512,0.183252,0.070300,316.440361,24.412153,0.999268,0.991450,0.003773,0.398161,0.000012,-0.000019,-0.000007,0.000013,-0.000020,-11.819261,0.000021,
2266,2473,0.195308963924077,-3.74459186779008,-0.0110444270704306,0.003834,0.000847,-0.000247,0.177166,0.058715,323.498378,24.017374,0.999770,0.991729,0.003861,0.420656,-0.000013,-0.000008,-0.000002,-0.000007,-0.000014,-68.120262,0.000021,
2086,2983,-3.80201783472527,7.34814644136994,-0.000204277021055077,0.004144,0.000471,-0.000350,0.192315,0.037212,315.927680,24.405467,0.999508,0.992515,0.003530,0.404288,-0.000004,-0.000026,-0.000018,0.000007,-0.000036,-29.535206,0.000038,
2116,1993,-2.99290737145258,-14.2486418043438,0.00364749366508477,0.003480,0.001377,-0.003837,0.171215,0.073088,331.786848,24.419555,0.999661,0.989505,0.004337,0.192578,0.000011,-0.000122,0.000012,0.000012,-0.000123,5.271816,0.000135,
2056,2068,-4.31152771517469,-12.6056611478503,0.0147772537050628,0.004264,0.000573,0.001390,0.191893,0.036396,330.994444,24.696317,0.998692,0.979483,0.005474,0.289907,0.000022,-0.000022,0.000012,0.000025,-0.000025,13.965828,0.000029,
2461,3253,4.29130462493,13.235571016174,0.015457591005088,0.003951,0.000856,-0.001341,0.187302,0.048464,311.056186,26.405523,0.999745,0.993978,0.003125,0.379788,0.000015,-0.000010,0.000001,0.000015,-0.000010,2.172269,0.000015,
2071,3208,-4.16091704263276,12.2234018360873,0.0376551947187522,0.003976,0.000952,-0.003745,0.194611,0.048292,312.655180,24.316768,0.999529,0.994087,0.003168,0.400844,-0.000001,-0.000015,-0.000023,0.000016,-0.000032,-36.499782,0.000032,
2251,2623,-0.158110254290424,-0.472099117305945,-0.0183800429663279,0.004078,0.001116,-0.001009,0.191150,0.053084,321.045854,24.291568,0.999206,0.986435,0.004532,0.418597,-0.000017,-0.000019,-0.000002,-0.000016,-0.000020,-28.427897,0.000035,
2491,2098,5.18262806124478,-11.9593560052814,0.0389601061804683,0.004021,0.000966,-0.001561,0.190213,0.031672,330.143113,22.046952,0.999610,0.983534,0.005043,0.303780,-0.000006,-0.000063,0.000015,-0.000002,-0.000067,13.967089,0.000078,
2416,2998,3.36206285344328,7.69660651143353,-0.0021219595989237,0.004000,0.000625,0.002087,0.176562,0.039730,315.004567,25.366483,0.999528,0.989313,0.003990,0.377244,-0.000003,-0.000032,-0.000004,-0.000003,-0.000032,-7.980772,0.000039,
2191,2428,-1.4291091159928,-4.72892324572516,-0.00896456716412786,0.004412,0.001249,-0.004254,0.216393,0.046870,324.453896,24.125985,0.998732,0.985729,0.004995,0.427330,-0.000007,-0.000025,-0.000002,-0.000007,-0.000025,-5.468432,0.000034,
2401,2983,3.03892091669308,7.36980114194366,-0.00375328330937919,0.003906,0.001001,-0.002588,0.189460,0.053262,315.232548,25.277111,0.999707,0.992330,0.003629,0.393133,-0.000004,-0.000033,-0.000002,-0.000004,-0.000033,-3.026811,0.000040,
2236,2593,-0.478954447058502,-1.12662158427224,-0.0204562101963575,0.004313,0.001156,-0.003605,0.210340,0.062795,321.564676,24.226178,0.999390,0.986889,0.004503,0.463193,-0.000013,-0.000011,-0.000005,-0.000007,-0.000017,-51.405307,0.000025,
2161,2158,-2.04023741008661,-10.6278396053497,-0.0385670229251218,0.004028,0.000944,-0.003951,0.197138,0.036876,328.636049,24.228111,0.999850,0.945050,0.008368,0.180281,-0.000005,-0.000014,0.000014,0.000005,-0.000024,36.694815,0.000025,
2071,2113,-3.99157193517478,-11.6198167494157,0.0215185124391155,0.003639,0.000771,0.000947,0.164515,0.069025,330.220873,24.645194,0.998775,0.981909,0.005373,0.279682,0.000012,-0.000008,0.000011,0.000017,-0.000013,23.893454,0.000018,
2191,2368,-1.41891381208676,-6.03961721377403,-0.0046472234820385,0.004192,0.001352,-0.004206,0.206098,0.057350,325.448483,24.092951,0.999516,0.987753,0.004516,0.406557,-0.000008,-0.000009,0.000000,-0.000008,-0.000009,26.545988,0.000017,
2071,3268,-4.17129682164883,13.5236536996987,0.0267661268954953,0.004123,0.000998,-0.000911,0.193389,0.054683,311.581065,24.311667,0.999779,0.996006,0.002783,0.393996,-0.000004,-0.000033,-0.000029,0.000014,-0.000051,-31.772215,0.000053,
2116,3088,-3.16766509755318,9.62798034852245,0.0138082824258277,0.003975,0.000951,-0.001496,0.188105,0.043591,314.182673,24.560708,0.999665,0.992823,0.003525,0.354106,0.000001,-0.000031,-0.000006,0.000002,-0.000032,-10.643158,0.000036,
2296,2683,0.810132962305271,0.837436991727493,-0.0224844736061982,0.004196,0.001022,-0.001144,0.197139,0.059220,319.977587,24.373323,0.999705,0.989867,0.003860,0.426076,-0.000016,-0.000007,-0.000008,-0.000003,-0.000021,-60.057452,0.000026,
2206,2398,-1.09774013624159,-5.38327775001623,-0.00527801764349078,0.004159,0.000903,0.000880,0.188545,0.074439,324.898203,24.121707,0.999381,0.988527,0.004384,0.381120,-0.000005,-0.000010,0.000004,-0.000003,-0.000012,27.013739,0.000016,
2086,3238,-3.84105021422233,12.8745092250263,0.0404755233643641,0.003944,0.000722,0.002715,0.174507,0.049792,312.088197,24.402594,0.999625,0.994005,0.003172,0.385205,-0.000009,-0.000027,-0.000017,0.000001,-0.000038,-31.049222,0.000043,
2011,3283,-5.47203917283916,13.8415821367349,0.040591556960976,0.004101,0.000586,-0.001356,0.193438,0.043649,311.815295,23.925714,0.999827,0.996259,0.002647,0.426955,0.000008,-0.000004,-0.000047,0.000049,-0.000045,-41.588466,0.000054,
2026,3088,-5.11804728320218,9.62126176573173,0.0245528213616808,0.003958,0.000961,-0.000156,0.183474,0.057867,314.757972,24.268299,0.999621,0.994178,0.003226,0.326253,-0.000012,-0.000017,0.000007,-0.000007,-0.000022,36.066430,0.000030,
2506,2218,5.48336921343918,-9.32476756178951,0.0133010807063556,0.003716,0.000894,-0.002673,0.180655,0.037742,328.025079,22.388988,0.999084,0.974851,0.005984,0.388689,-0.000019,-0.000039,0.000002,-0.000019,-0.000040,4.779249,0.000059,
2386,2818,2.74234361064631,3.78238213128375,-0.0327494754876057,0.004029,0.001053,-0.001419,0.190683,0.050506,317.672143,24.762702,0.999723,0.991654,0.003778,0.393334,-0.000015,-0.000016,-0.000004,-0.000012,-0.000019,-40.818832,0.000031,
2101,3058,-3.48793977481535,8.97549278727611,0.0157888000209709,0.003966,0.001079,-0.001050,0.186364,0.054744,314.758134,24.440938,0.999619,0.994002,0.003298,0.428804,0.000013,-0.000027,-0.000012,0.000016,-0.000030,-15.520589,0.000030,
2131,2053,-2.67388388900578,-12.935964794309,0.0124856193278902,0.004188,0.000906,-0.003815,0.203696,0.014342,330.869418,24.222485,0.998725,0.980083,0.005565,0.262061,-0.000014,-0.000027,0.000035,0.000015,-0.000056,39.945137,0.000058,
2341,2638,1.79791739457925,-0.141655150488305,-0.0212024133393243,0.003871,0.001296,-0.003059,0.188966,0.059935,320.684963,24.261445,0.999351,0.987614,0.004353,0.414677,-0.000009,-0.000013,-0.000015,0.000004,-0.000026,-41.351633,0.000028,
2176,2203,-1.7182394173904,-9.64924829999546,0.00329769528258339,0.003623,0.001036,-0.003547,0.177538,0.036514,328.192546,24.028001,0.998276,0.976201,0.005994,0.342132,-0.000004,0.000021,0.000018,0.000030,-0.000013,62.235835,0.000030,
2281,2578,0.503618225035186,-1.45281907528594,-0.0146422597773608,0.004187,0.001361,-0.005873,0.212486,0.050890,321.780859,24.171076,0.999074,0.986330,0.004750,0.425498,-0.000014,-0.000002,-0.000006,0.000000,-0.000016,-67.919612,0.000019,
2446,3253,3.96573882942319,13.2339661905807,0.0219332996141475,0.003775,0.001049,-0.001789,0.180888,0.047695,311.075366,26.347666,0.999798,0.994117,0.003058,0.356674,0.000016,-0.000011,-0.000003,0.000016,-0.000011,-6.940623,0.000016,
2206,2173,-1.05847593311549,-10.3078279015403,0.0118237147148079,0.003732,0.000983,-0.002496,0.179338,0.055697,328.660362,23.788428,0.999311,0.986625,0.004657,0.412294,-0.000004,-0.000011,0.000011,0.000005,-0.000019,36.197920,0.000020,
2326,2533,1.49072265527085,-2.43229254162391,-0.023329265396228,0.003850,0.001331,-0.004102,0.191406,0.061210,322.378279,24.022921,0.999344,0.986065,0.004473,0.419166,-0.000008,-0.000014,-0.000006,-0.000005,-0.000018,-30.513143,0.000024,
2176,2068,-1.69434481846744,-12.6099633031852,0.0271742041838365,0.004005,0.000260,0.003030,0.174286,0.034639,330.558799,23.909383,0.999366,0.984065,0.005027,0.320407,0.000003,-0.000020,0.000021,0.000016,-0.000033,30.940872,0.000033,
2116,2008,-2.99495578440774,-13.9230592145196,0.0109748917569163,0.003445,0.000727,-0.001381,0.162204,0.043216,331.600144,24.217099,0.999702,0.991534,0.004209,0.372123,0.000011,-0.000064,0.000040,0.000028,-0.000081,23.204089,0.000082,
2146,2218,-2.37457185754754,-9.32027120157548,0.00694457048518871,0.003461,0.001417,-0.002027,0.165438,0.079384,328.074561,24.220976,0.998683,0.979592,0.005482,0.351500,-0.000005,0.000012,0.000022,0.000027,-0.000020,55.577283,0.000028,
2086,3253,-3.8431469838911,13.1988965293608,0.0448364458288211,0.004071,0.000645,0.003611,0.177803,0.061140,311.882645,24.370657,0.999769,0.995012,0.002917,0.426188,-0.000008,-0.000035,-0.000018,0.000001,-0.000044,-26.519244,0.000050,
2056,3208,-4.48607633509871,12.2223744030746,0.0398510019656442,0.003787,0.001109,-0.001502,0.179503,0.060535,312.742500,24.265122,0.999563,0.993799,0.003174,0.391262,-0.000007,-0.000009,-0.000023,0.000015,-0.000031,-43.907863,0.000031,
2071,3283,-4.17429843028065,13.8485574865601,0.0192355659142436,0.004080,0.000885,0.000141,0.188386,0.059636,311.267492,24.276503,0.999745,0.996253,0.002743,0.429517,-0.000003,-0.000024,-0.000032,0.000020,-0.000047,-35.666789,0.000047,
2041,2023,-4.63159391198766,-13.5923564832737,0.0171752840137174,0.004096,0.000976,-0.002607,0.195363,0.061122,331.823193,24.764063,0.998242,0.980252,0.005790,0.353052,0.000037,-0.000090,0.000042,0.000050,-0.000102,16.790085,0.000102,
2491,2113,5.17982982341935,-11.6307670246663,0.0395498755790982,0.004012,0.001543,-0.004532,0.201363,0.061072,329.917221,22.022860,0.999629,0.984151,0.004949,0.419185,-0.000009,-0.000062,0.000014,-0.000005,-0.000066,13.957259,0.000079,
2236,2368,-0.439175568458143,-6.03775462167776,-0.0105681065081171,0.004135,0.001307,-0.003203,0.200615,0.072520,325.278268,24.006952,0.999314,0.987118,0.004666,0.356562,-0.000020,-0.000004,0.000004,-0.000003,-0.000021,76.198114,0.000026,
2251,2638,-0.160974550783134,-0.143930731626952,-0.0243166904329541,0.004339,0.001100,-0.000463,0.201381,0.058052,320.762543,24.374422,0.998939,0.986357,0.004485,0.364759,-0.000018,-0.000020,-0.000006,-0.000012,-0.000025,-40.013780,0.000038,
2461,3268,4.28657496345248,13.5619298216121,-0.00303625264297125,0.003949,0.000753,0.000875,0.178764,0.040087,310.645410,26.461001,0.999779,0.994480,0.002951,0.368764,0.000013,-0.000013,0.000006,0.000014,-0.000015,13.086287,0.000017,
2056,3133,-4.47512308197158,10.5978512390519,0.0214409153235238,0.003822,0.000702,-0.003551,0.186673,0.032055,313.820912,24.264639,0.999224,0.992661,0.003356,0.396342,0.000008,-0.000010,-0.000003,0.000009,-0.000010,-10.000360,0.000011,
2221,2473,-0.784555454888778,-3.74538374185739,-0.00873379303220645,0.003692,0.001389,-0.000968,0.173188,0.070921,323.603336,24.133166,0.999304,0.986677,0.004651,0.422300,-0.000005,-0.000011,0.000004,-0.000003,-0.000013,25.095153,0.000017,
2191,2443,-1.43249659002143,-4.40060546395152,-0.0111051568401308,0.003889,0.000976,-0.001648,0.184156,0.054063,324.161110,24.186416,0.998930,0.985309,0.004968,0.390337,-0.000008,-0.000023,0.000000,-0.000008,-0.000023,1.095066,0.000033,
2356,2638,2.1251762579545,-0.140830445505422,-0.0187642016291534,0.004078,0.001494,-0.005983,0.208934,0.059320,320.725129,24.299939,0.999244,0.987591,0.004423,0.364524,-0.000011,-0.000010,-0.000012,0.000002,-0.000023,-45.958729,0.000025,
2146,2098,-2.35457339232824,-11.9496483968583,0.0156846388645704,0.003718,0.000832,0.001599,0.165948,0.055391,330.077077,24.156455,0.999142,0.983178,0.005168,0.306085,-0.000008,-0.000013,0.000020,0.000010,-0.000031,41.181257,0.000032,
2371,2788,2.42242099355284,3.12884933833114,-0.0203418800138593,0.003891,0.000908,-0.000371,0.180556,0.061628,318.246241,24.775666,0.999862,0.994636,0.003233,0.293664,-0.000012,-0.000011,-0.000009,-0.000003,-0.000021,-46.860650,0.000026,
2041,3133,-4.79968116715607,10.5970846366877,0.0274113940359371,0.004060,0.001051,-0.001498,0.191978,0.062731,313.963966,24.243865,0.999414,0.992834,0.003434,0.385402,0.000003,0.000002,0.000004,0.000006,-0.000001,40.883702,0.000006,
2071,2128,-3.99396170849721,-11.2903396242765,0.0107133934388912,0.004063,0.000939,-0.001239,0.190275,0.054563,329.916016,24.623486,0.998943,0.984570,0.005098,0.287347,0.000007,-0.000015,0.000016,0.000016,-0.000023,28.307591,0.000024,
2401,2998,3.03601277590258,7.69670106210183,-0.00693221522817566,0.004111,0.001146,-0.003414,0.201924,0.048418,314.972686,25.388841,0.999561,0.990011,0.004000,0.321473,0.000000,-0.000030,-0.000005,0.000001,-0.000031,-8.439978,0.000035,
2056,2083,-4.31489161499908,-12.2755680733595,0.00385425894336322,0.003770,0.000617,0.000623,0.171435,0.043462,330.642593,24.689874,0.998887,0.980429,0.005343,0.302032,0.000017,0.000010,0.000009,0.000024,0.000003,34.278592,0.000029,
2266,2698,0.15440890812291,1.16374223756758,-0.0267112725396714,0.004040,0.001214,-0.003347,0.197293,0.061044,319.737971,24.436728,0.999648,0.992465,0.003567,0.398887,-0.000018,-0.000024,-0.000001,-0.000018,-0.000024,-7.824313,0.000041,
2296,2893,0.771852052372317,5.40792606269177,-0.0182892895924169,0.003796,0.001246,-0.003750,0.187867,0.061178,316.584881,24.822648,0.999633,0.991757,0.003590,0.398331,-0.000005,-0.000025,0.000008,-0.000002,-0.000027,19.603697,0.000033,
2071,2968,-4.1255040800929,7.02272152498563,-0.00773601503090049,0.004224,0.000764,0.001994,0.189409,0.061472,316.184796,24.394641,0.999021,0.990193,0.004051,0.403041,0.000015,-0.000025,-0.000014,0.000019,-0.000030,-17.364366,0.000030,
2461,3283,4.28321121271394,13.8874293402887,-0.00694100063242331,0.003954,0.000860,0.001221,0.177779,0.048634,310.364846,26.505786,0.999576,0.991791,0.003584,0.385514,0.000019,-0.000024,0.000009,0.000021,-0.000026,11.820678,0.000027,
2266,2488,0.192220836839159,-3.41677010075649,-0.023655364802039,0.004104,0.000947,-0.003381,0.199992,0.045508,323.173267,23.973398,0.999721,0.991057,0.003898,0.478460,-0.000015,-0.000002,-0.000006,0.000001,-0.000018,-68.443388,0.000020,
2491,2128,5.17742977530255,-11.3022007148097,0.0451338128996781,0.004281,0.001609,-0.004003,0.211662,0.102763,329.731844,22.043726,0.999611,0.987853,0.004557,0.501644,-0.000009,-0.000057,0.000017,-0.000003,-0.000062,17.488793,0.000073,
2281,2803,0.461927873197208,3.45093509957002,-0.0300921256321089,0.004474,0.001066,-0.003576,0.218188,0.061093,318.000408,24.666982,0.999182,0.988450,0.004307,0.362123,-0.000003,-0.000030,0.000010,0.000000,-0.000033,17.832579,0.000038,
2251,2398,-0.117566369488511,-5.3829402082963,-0.0106449993914453,0.004175,0.001139,-0.003331,0.202925,0.039552,324.766193,23.953508,0.999227,0.989043,0.004438,0.376368,-0.000022,-0.000004,0.000004,-0.000003,-0.000022,77.128450,0.000028,
2386,2833,2.73902146077249,4.10944097629866,-0.0329778181226743,0.003552,0.001282,-0.002321,0.172123,0.056486,317.406706,24.853075,0.999611,0.987706,0.004245,0.352037,-0.000014,-0.000012,-0.000001,-0.000012,-0.000014,-69.821748,0.000025,
2161,2278,-2.0576544665986,-8.00744092627998,0.0014048219053393,0.003967,0.000479,0.001813,0.176719,0.064457,327.018690,24.165803,0.998426,0.978100,0.005908,0.369265,-0.000009,-0.000011,0.000004,-0.000006,-0.000014,34.791153,0.000021,
2086,2143,-3.66957485951991,-10.962750302507,0.0037941517150557,0.004128,0.001319,-0.004153,0.201810,0.071356,329.553485,24.381748,0.999025,0.984733,0.004997,0.462544,-0.000007,0.000007,0.000011,0.000013,-0.000013,62.266584,0.000015,
2041,2038,-4.63406502935578,-13.2642085192279,0.015711712543748,0.003667,0.001221,-0.006625,0.186957,0.044928,331.563052,24.690480,0.998795,0.978837,0.005643,0.406392,0.000026,-0.000084,0.000028,0.000033,-0.000091,13.413371,0.000092,
2416,3013,3.35919203649454,8.02283743025931,-0.00264898272519076,0.003958,0.000638,0.000051,0.182096,0.034558,314.760185,25.439124,0.999399,0.987257,0.004211,0.346468,0.000001,-0.000034,-0.000003,0.000001,-0.000035,-4.975386,0.000039,
2056,3223,-4.48832483349485,12.5472359766058,0.0411170590953702,0.003929,0.001263,-0.000252,0.182585,0.069347,312.510885,24.254202,0.999578,0.993737,0.003117,0.404171,-0.000011,-0.000016,-0.000027,0.000014,-0.000040,-42.499290,0.000041,
2176,2218,-1.72097722211086,-9.32042536887545,0.00320154847503318,0.003548,0.001028,-0.001104,0.166540,0.038764,327.939086,24.080910,0.998627,0.979411,0.005618,0.306074,-0.000007,0.000018,0.000017,0.000027,-0.000015,63.611819,0.000027,
2431,3133,3.66287611971924,10.6290113713697,0.0131475919504851,0.004024,0.000690,0.001485,0.179972,0.054493,312.945866,25.838132,0.999725,0.993121,0.003352,0.403709,0.000022,-0.000002,0.000003,0.000022,-0.000003,6.138862,0.000024,
2191,2383,-1.4218757364053,-5.7123345767714,-0.00400193716808417,0.004032,0.000850,0.000437,0.184065,0.045525,325.190013,24.083634,0.999232,0.987092,0.004644,0.420360,-0.000006,-0.000009,0.000003,-0.000004,-0.000012,31.950677,0.000016,
2311,2413,1.18803675712371,-5.05606608799324,-0.00127749227021923,0.004122,0.001198,-0.005131,0.207050,0.035079,324.531303,23.749924,0.999484,0.987418,0.004575,0.423928,-0.000022,-0.000004,-0.000008,-0.000001,-0.000025,-67.814999,0.000029,
2461,3298,4.28064659694762,14.2126821237805,-0.00747453647630891,0.004081,0.001203,-0.003276,0.200805,0.063753,310.136637,26.543447,0.999608,0.993414,0.003388,0.416140,0.000018,-0.000028,0.000006,0.000019,-0.000029,7.110435,0.000029,
2026,3103,-5.12031807497862,9.94591465804389,0.0246017924634998,0.003954,0.001054,-0.001091,0.185944,0.068615,314.516412,24.198868,0.999631,0.993827,0.003280,0.395645,-0.000012,-0.000001,0.000016,0.000011,-0.000023,54.595491,0.000023,
2041,3148,-4.80168617528994,10.9211527602769,0.0366392178771093,0.004009,0.000795,0.001123,0.182230,0.048316,313.787029,24.213208,0.999554,0.993823,0.003329,0.392808,0.000000,-0.000001,-0.000001,0.000001,-0.000002,-36.770660,0.000002,
2086,3298,-3.85217522696854,14.1742899885352,0.0219769349401986,0.003721,0.000465,0.001987,0.166230,0.032081,310.942965,24.369088,0.999603,0.994593,0.003011,0.390938,0.000015,-0.000013,-0.000024,0.000029,-0.000027,-29.890821,0.000032,
2296,2698,0.806983130922799,1.16491887209415,-0.0294522491528824,0.004146,0.001168,-0.003237,0.201994,0.060793,319.680175,24.409332,0.999748,0.992121,0.003634,0.422296,-0.000020,-0.000013,-0.000004,-0.000011,-0.000022,-64.865024,0.000034,
2146,2113,-2.35573684377401,-11.6228672612722,0.0300020086370978,0.004008,0.000927,0.001455,0.179730,0.059709,329.969487,24.138976,0.999346,0.984147,0.005053,0.338127,-0.000006,-0.000021,0.000019,0.000007,-0.000034,34.260991,0.000036,
2071,3298,-4.17681369477852,14.173354566105,0.0181256724029595,0.004064,0.000752,0.000221,0.187389,0.050643,311.011623,24.284531,0.999529,0.994763,0.003051,0.407645,0.000013,-0.000012,-0.000039,0.000042,-0.000040,-36.347827,0.000047,
2476,1993,4.87646792200984,-14.2647346899652,0.0404859131020885,0.004274,0.001659,-0.002350,0.204857,0.085262,331.821880,21.756858,0.998469,0.971000,0.006442,0.318433,0.000043,-0.000005,0.000083,0.000105,-0.000067,36.932538,0.000106,
2011,3298,-5.47493256734547,14.1668288061289,0.0385982974254375,0.003752,0.000992,0.000187,0.173204,0.056364,311.532743,23.945887,0.999423,0.992961,0.003495,0.405528,0.000019,-0.000018,-0.000049,0.000053,-0.000052,-34.474162,0.000060,
2191,2458,-1.43527625331722,-4.07308108578965,-0.0157269265348532,0.003902,0.001053,-0.002482,0.187426,0.055017,323.883455,24.162530,0.999117,0.986370,0.004803,0.431254,-0.000007,-0.000022,0.000002,-0.000007,-0.000022,6.094764,0.000030,
2206,2413,-1.09883788041216,-5.05567182110465,0.00644338537711064,0.004470,0.001628,-0.004007,0.218548,0.084964,324.783167,24.234704,0.999595,0.990856,0.004064,0.296642,-0.000003,-0.000019,0.000001,-0.000003,-0.000019,4.342032,0.000024,
2101,3073,-3.49012595838901,9.30134928905954,0.0161090783342956,0.004077,0.001036,-0.003023,0.197290,0.052774,314.526751,24.491027,0.999506,0.991489,0.003721,0.377212,0.000009,-0.000024,-0.000011,0.000012,-0.000027,-16.422029,0.000027,
2131,2068,-2.67563570806319,-12.6072434433668,0.0207337346961367,0.004292,0.001552,-0.003642,0.208146,0.067288,330.701318,24.252883,0.998142,0.975971,0.006050,0.293104,-0.000014,-0.000022,0.000031,0.000013,-0.000049,40.976454,0.000051,
2341,2653,1.79434529129083,0.186488067401456,-0.0329860358118026,0.003946,0.001303,-0.003984,0.195679,0.062986,320.349037,24.301595,0.999465,0.988946,0.004204,0.415022,-0.000011,-0.000016,-0.000012,-0.000001,-0.000026,-39.606637,0.000030,
2236,2608,-0.481707417724028,-0.799470193960829,-0.023047655339326,0.004252,0.001377,-0.005270,0.212992,0.054703,321.302475,24.247223,0.999230,0.985396,0.004672,0.456090,-0.000012,-0.000015,-0.000001,-0.000012,-0.000016,-16.793105,0.000028,
2221,2248,-0.744530517743282,-8.66499930340634,-0.00181508671886377,0.004206,0.001239,-0.004639,0.208205,0.055091,327.330017,23.748468,0.998876,0.983282,0.005167,0.480064,-0.000009,0.000015,0.000010,0.000019,-0.000013,70.176462,0.000019,
2116,2023,-2.99642331437144,-13.5928849287624,0.00933628982272694,0.004168,0.001612,-0.005577,0.208011,0.058010,331.391121,24.291212,0.999396,0.984404,0.005377,0.319615,0.000003,-0.000064,0.000027,0.000013,-0.000074,19.213561,0.000079,
2446,3268,3.96119938489874,13.5600312234069,0.00111205852675766,0.003915,0.000965,-0.001993,0.188088,0.042616,310.661027,26.359219,0.999759,0.993664,0.003160,0.390776,0.000012,-0.000014,0.000001,0.000012,-0.000014,1.816500,0.000015,
2101,2218,-3.35501617674658,-9.31917115384216,-0.00183923314875756,0.003951,0.001416,-0.003073,0.190806,0.087978,328.217577,24.413038,0.998397,0.981116,0.005532,0.385058,0.000005,0.000009,0.000025,0.000032,-0.000018,47.095316,0.000032,
2476,2008,4.87191941461616,-13.9340696220471,0.0251836725449266,0.003922,0.001442,-0.004191,0.195671,0.052651,331.443542,21.765271,0.999067,0.975569,0.005881,0.338505,0.000031,-0.000014,0.000080,0.000092,-0.000075,37.307298,0.000098,
2251,2653,-0.163875949324304,0.182439788121201,-0.0234925698168809,0.003870,0.000938,-0.002744,0.187224,0.031974,320.512204,24.385511,0.999345,0.989069,0.004169,0.351456,-0.000012,-0.000022,-0.000004,-0.000010,-0.000023,-17.741231,0.000034,
2491,2143,5.17262132797878,-10.9690811425921,0.0227350924303096,0.004332,0.001637,-0.005753,0.220738,0.089045,329.310440,22.239817,0.999081,0.981114,0.005490,0.354565,-0.000009,-0.000039,0.000021,0.000001,-0.000049,27.121783,0.000056,
2371,2803,2.41975720266742,3.45377251001875,-0.0182291263260481,0.003981,0.000771,0.000339,0.182095,0.059619,318.021827,24.685659,0.999859,0.994905,0.003263,0.422835,-0.000012,-0.000017,-0.000006,-0.000008,-0.000021,-34.487737,0.000031,
2161,2173,-2.04336983597764,-10.301181569413,-0.0500110922001795,0.004135,0.001513,-0.003291,0.200285,0.066585,328.303941,23.922782,0.999822,0.931748,0.008736,0.528680,-0.000004,-0.000014,0.000018,0.000010,-0.000027,37.279562,0.000028,
2356,2653,2.12182784643349,0.18637310578049,-0.0232578037587814,0.004095,0.001410,-0.003677,0.201594,0.071817,320.436345,24.305563,0.999388,0.986882,0.004551,0.410915,-0.000013,-0.000013,-0.000012,-0.000001,-0.000025,-45.168576,0.000030,
2161,2293,-2.05913243525781,-7.67908670737042,-0.00417853632995957,0.004758,0.001615,-0.006623,0.239228,0.053948,326.792854,24.159133,0.998707,0.981738,0.005382,0.377685,-0.000003,-0.000010,0.000011,0.000005,-0.000018,36.197652,0.000019,
2086,2998,-3.80431334605347,7.67422684822876,0.00154198371785697,0.003928,0.000857,-0.003837,0.192495,0.028605,315.697877,24.473036,0.999593,0.993020,0.003341,0.326337,-0.000001,-0.000022,-0.000018,0.000009,-0.000032,-29.895760,0.000033,
2086,2158,-3.67251484882302,-10.6336203022026,0.00458828755938612,0.003749,0.000461,0.000496,0.170804,0.027544,329.288190,24.495171,0.998985,0.984029,0.005104,0.307515,0.000000,-0.000003,0.000013,0.000012,-0.000015,42.325117,0.000016,
2041,2053,-4.63822115746671,-12.9300632533224,-0.0195817494184212,0.004017,0.001046,-0.004493,0.197046,0.057105,331.038179,24.763558,0.999701,0.992165,0.003711,0.343182,0.000021,-0.000041,0.000024,0.000029,-0.000049,18.998542,0.000050,
2146,2233,-2.37664634316019,-8.99190736484994,0.00113509895948027,0.003966,0.001442,-0.005594,0.199409,0.064893,327.818865,24.194015,0.998824,0.981231,0.005249,0.374204,-0.000011,0.000020,0.000018,0.000028,-0.000019,64.999398,0.000029,
2101,1993,-3.31765010931852,-14.2521948984646,0.0290975100266451,0.003922,0.002037,-0.009794,0.208901,0.061690,332.104026,24.466105,0.999645,0.990342,0.004320,0.238317,0.000026,-0.000132,0.000010,0.000027,-0.000132,3.710474,0.000140,
2056,3238,-4.49022963886951,12.8717238843254,0.0463848614798508,0.004121,0.000899,0.000180,0.190107,0.053135,312.317367,24.259916,0.999637,0.994289,0.003063,0.375560,-0.000016,-0.000027,-0.000028,0.000007,-0.000050,-39.435420,0.000054,
2176,2083,-1.69692467230307,-12.2788571230763,0.0141507721165794,0.004253,0.001276,-0.004916,0.210549,0.044263,330.245006,23.970746,0.999491,0.984679,0.005067,0.284866,0.000004,0.000003,0.000017,0.000020,-0.000014,44.160873,0.000021,
2026,1993,-4.95395974197652,-14.250839286264,0.0273514355759517,0.003690,0.001397,-0.003394,0.178930,0.069539,332.460135,24.904884,0.998736,0.982602,0.005418,0.332866,-0.000015,-0.000157,0.000020,-0.000012,-0.000160,7.830141,0.000192,
2086,3268,-3.84611272584176,13.524545560282,0.0340384399177083,0.004087,0.000846,0.001336,0.185179,0.055866,311.553855,24.391193,0.999742,0.995703,0.002812,0.397829,-0.000007,-0.000035,-0.000020,0.000003,-0.000046,-27.907159,0.000051,
2221,2488,-0.787383263111217,-3.4178023318871,-0.0118546984815566,0.003757,0.000798,0.000153,0.172409,0.060245,323.333873,24.150590,0.999342,0.987353,0.004404,0.414118,-0.000007,-0.000003,-0.000001,-0.000002,-0.000007,-75.038505,0.000010,
2116,3103,-3.16927943003078,9.95276221108341,0.0224037568738709,0.004276,0.000857,-0.001482,0.201922,0.045813,314.023575,24.568014,0.999830,0.995642,0.002960,0.351467,0.000000,-0.000029,-0.000004,0.000000,-0.000029,-7.025018,0.000033,
2251,2413,-0.120188505092631,-5.05544158512141,-0.00667747525181994,0.003935,0.001077,-0.003002,0.190824,0.040740,324.544706,23.993749,0.999213,0.988422,0.004349,0.362135,-0.000018,-0.000010,0.000000,-0.000010,-0.000018,87.579447,0.000029,
2326,2548,1.48787295839945,-2.10508332307885,-0.022832590829978,0.004016,0.001042,-0.000559,0.186728,0.072843,322.134450,24.038872,0.999005,0.984413,0.004847,0.450313,-0.000004,-0.000018,-0.000003,-0.000004,-0.000018,-12.750010,0.000024,
2311,2428,1.18428575206954,-4.72634531151482,-0.0103610049632152,0.004076,0.001252,-0.001619,0.193023,0.069695,324.197754,23.842234,0.999607,0.989470,0.004199,0.400491,-0.000018,-0.000014,-0.000014,-0.000002,-0.000030,-49.509609,0.000036,
2086,1993,-3.64528278098362,-14.2515664233284,0.0239969372864834,0.004016,0.001730,-0.006482,0.203294,0.066813,332.127525,24.528398,0.999158,0.983950,0.005031,0.286696,0.000033,-0.000141,0.000020,0.000035,-0.000143,6.620776,0.000149,
2296,2908,0.769718142404134,5.73333103741928,-0.0099942361651415,0.003879,0.000944,-0.002619,0.187744,0.052488,316.409831,24.856131,0.999627,0.992554,0.003464,0.385399,-0.000004,-0.000021,0.000008,-0.000001,-0.000024,20.718615,0.000029,
2236,2383,-0.441443375711533,-5.71141099271378,-0.00472731901129464,0.004062,0.001216,-0.003152,0.197085,0.071966,325.081725,23.951610,0.999397,0.987456,0.004616,0.434047,-0.000021,-0.000008,0.000004,-0.000007,-0.000022,75.202549,0.000030,
2071,2143,-3.9959467387241,-10.9618208107959,0.0109130304267069,0.004256,0.001303,-0.002591,0.203103,0.093855,329.689531,24.585799,0.998960,0.984441,0.005134,0.363955,-0.000002,0.000010,0.000005,0.000012,-0.000003,70.068719,0.000012,
2506,2233,5.48059759526572,-8.9946577815199,0.0130856004079192,0.003720,0.001356,-0.007104,0.198153,0.034245,327.797435,22.572738,0.999081,0.979711,0.005490,0.264850,-0.000013,-0.000017,0.000022,0.000007,-0.000036,42.208437,0.000039,
2026,3118,-5.1227153436432,10.2714248306833,0.0248652822980944,0.003996,0.001006,0.000997,0.182095,0.063757,314.269963,24.229113,0.999696,0.994462,0.003126,0.349667,-0.000010,0.000013,0.000020,0.000025,-0.000022,60.108352,0.000027,
2101,2008,-3.31987122772152,-13.9261767514531,0.0369432663724751,0.003944,0.001245,-0.002849,0.189501,0.061288,331.910979,24.277777,0.999696,0.991167,0.004291,0.430980,0.000023,-0.000065,0.000036,0.000036,-0.000078,19.448891,0.000078,
2056,2098,-4.31678200670953,-11.9479279710951,0.00626696695945839,0.003764,0.000777,-0.002670,0.180479,0.029291,330.431672,24.633690,0.998863,0.980514,0.005410,0.341930,0.000014,0.000006,0.000011,0.000022,-0.000002,34.870222,0.000024,
2266,2503,0.189517711654911,-3.08818964495049,-0.0209205674477744,0.003854,0.001278,-0.003803,0.190048,0.064498,322.942473,24.112745,0.999735,0.991750,0.003871,0.384868,-0.000019,0.000005,-0.000002,0.000005,-0.000019,-85.214034,0.000019,
2206,2188,-1.06129027881242,-9.97854050853547,0.0123960858927603,0.003598,0.000968,-0.000027,0.165400,0.064548,328.409326,23.873541,0.998937,0.981894,0.005273,0.355487,-0.000004,0.000014,0.000012,0.000020,-0.000010,63.804779,0.000020,
2041,2068,-4.64025056143846,-12.6027656223569,-0.0135947006110086,0.003895,0.001293,-0.003274,0.188202,0.059762,330.839350,24.689920,0.999684,0.992045,0.003684,0.415120,0.000017,-0.000018,0.000016,0.000023,-0.000024,21.771293,0.000027,
2191,2398,-1.42345108720473,-5.38511591883164,0.00172680638974043,0.004373,0.001142,-0.002765,0.209861,0.061332,325.021274,24.094179,0.999100,0.985632,0.004981,0.441316,-0.000008,-0.000010,-0.000001,-0.000008,-0.000010,-17.287469,0.000018,
2056,3253,-4.49289555417326,13.1969356844734,0.0429382270885412,0.003924,0.000767,-0.002084,0.187410,0.042212,312.040422,24.281498,0.999785,0.995102,0.002961,0.336201,-0.000018,-0.000031,-0.000031,0.000008,-0.000057,-39.107568,0.000062,
2041,3163,-4.80430587653568,11.246250131574,0.0338667153519054,0.003981,0.000723,0.002169,0.178009,0.047376,313.514753,24.194500,0.999534,0.993739,0.003394,0.401961,-0.000004,0.000009,-0.000012,0.000016,-0.000011,-59.694599,0.000016,
2341,2668,1.7916070652894,0.513165710368739,-0.0258683875239853,0.003766,0.000741,-0.000271,0.174285,0.052168,320.143375,24.384473,0.999688,0.991467,0.003911,0.358184,-0.000012,-0.000012,-0.000013,0.000001,-0.000025,-44.521935,0.000028,
2356,2668,2.11871014317041,0.512794064694546,-0.0221734953086639,0.003942,0.001054,-0.000973,0.184912,0.054028,320.185208,24.321213,0.999541,0.989160,0.004183,0.416873,-0.000015,-0.000009,-0.000013,0.000001,-0.000025,-51.267799,0.000029,
2401,3013,3.03326301147639,8.02208126194296,-0.00386625787240291,0.004202,0.000926,-0.001366,0.198635,0.047840,314.749978,25.402784,0.999555,0.989346,0.003998,0.351660,0.000004,-0.000033,-0.000004,0.000004,-0.000034,-5.945669,0.000037,
2176,2098,-1.70048370961768,-11.950256727423,0.00140196125448711,0.004066,0.001118,-0.004345,0.200196,0.041143,329.888295,23.826916,0.999410,0.983547,0.005164,0.441668,0.000002,-0.000003,0.000017,0.000017,-0.000018,40.591557,0.000020,
2101,2233,-3.35678927221288,-8.99155940728256,0.00155349588362697,0.004316,0.001395,-0.002881,0.207017,0.076363,328.020966,24.409282,0.998569,0.983020,0.005258,0.380652,0.000001,0.000020,0.000022,0.000034,-0.000013,56.765310,0.000035,
2446,3283,3.95744955242261,13.8857578110039,-0.00653528035701356,0.003925,0.000799,-0.000295,0.182095,0.029977,310.344088,26.425356,0.999762,0.992969,0.003283,0.362675,0.000018,-0.000023,0.000001,0.000018,-0.000023,1.142076,0.000024,
2431,3148,3.65946513874384,10.9554062452745,0.00606636505159486,0.003800,0.001077,-0.002953,0.186203,0.040771,312.646451,25.930256,0.999675,0.993453,0.003269,0.346722,0.000022,-0.000010,0.000004,0.000023,-0.000010,7.752895,0.000023,
2281,2593,0.500035251841041,-1.12494777275491,-0.0187468944029092,0.003779,0.001167,-0.003625,0.186203,0.057198,321.476681,24.226210,0.999224,0.988482,0.004338,0.405361,-0.000013,-0.000011,-0.000006,-0.000006,-0.000019,-49.981159,0.000026,
2266,2713,0.15201587922412,1.48995126843425,-0.0198156378476142,0.003760,0.001319,-0.004347,0.187757,0.057680,319.542455,24.477980,0.999712,0.993153,0.003520,0.379951,-0.000014,-0.000027,-0.000002,-0.000014,-0.000027,-7.687898,0.000042,
2086,2173,-3.67401026031194,-10.3055807715368,0.00573100871298493,0.004255,0.000732,-0.003217,0.204776,0.034527,329.090711,24.467193,0.998932,0.984317,0.004993,0.344061,-0.000004,-0.000004,0.000018,0.000014,-0.000022,44.939511,0.000023,
2026,2008,-4.95689097539239,-13.9204979807532,0.016622218794339,0.003939,0.000638,0.002571,0.173821,0.076603,332.125710,24.890398,0.998262,0.983386,0.005574,0.348933,0.000003,-0.000077,0.000054,0.000030,-0.000104,26.760229,0.000107,
2371,2818,2.41676613941114,3.7799149665691,-0.0213380739681952,0.004244,0.000675,0.002202,0.187526,0.045790,317.757041,24.683895,0.999867,0.995044,0.003302,0.451724,-0.000016,-0.000017,-0.000004,-0.000012,-0.000021,-39.498312,0.000033,
2476,2023,4.86896117781439,-13.6041157632765,0.0272560563921616,0.004017,0.001159,-0.002424,0.193212,0.053519,331.216258,21.879316,0.999335,0.981568,0.005288,0.285347,0.000034,-0.000012,0.000064,0.000079,-0.000057,35.245051,0.000082,
2251,2668,-0.166441800259879,0.509186597344566,-0.0244595464935742,0.003964,0.001076,-0.003656,0.194631,0.053677,320.267946,24.373005,0.999567,0.990902,0.003829,0.409727,-0.000008,-0.000022,-0.000005,-0.000006,-0.000024,-18.279253,0.000031,
2176,2233,-1.72331720195917,-8.99224226745066,0.00100844360480323,0.003793,0.001018,-0.001850,0.180112,0.063918,327.692874,24.036104,0.998758,0.981866,0.005255,0.391023,-0.000013,0.000024,0.000014,0.000028,-0.000018,71.856424,0.000028,
2281,2818,0.459776779454675,3.77604392215671,-0.0205796146669854,0.004220,0.001129,-0.005207,0.211930,0.035028,317.830108,24.678042,0.999363,0.989393,0.003969,0.352244,-0.000001,-0.000031,0.000010,0.000002,-0.000034,17.370496,0.000038,
2236,2398,-0.444751594686988,-5.38283271685852,-0.0101044152356735,0.004011,0.000782,0.000471,0.182887,0.060945,324.780101,24.008166,0.999470,0.989661,0.004193,0.389262,-0.000020,-0.000007,0.000002,-0.000006,-0.000020,82.447600,0.000028,
2146,2248,-2.37895367399247,-8.66351345233038,-0.00127282771455839,0.004256,0.001472,-0.005531,0.212525,0.058386,327.570440,24.202785,0.998870,0.981122,0.005289,0.369234,-0.000010,0.000008,0.000018,0.000019,-0.000021,57.925276,0.000023,
2086,2008,-3.64726954394208,-13.9235507315136,0.0266872111855605,0.004256,0.001112,-0.004764,0.209131,0.059582,331.915964,24.470143,0.999328,0.986667,0.004799,0.340340,0.000030,-0.000071,0.000043,0.000046,-0.000087,20.127316,0.000087,
2041,2083,-4.64074573402408,-12.2765904924574,0.014728985710974,0.003815,0.001419,-0.004396,0.187696,0.059661,330.834036,24.766922,0.999363,0.986651,0.004515,0.332400,0.000009,0.000016,0.000014,0.000028,-0.000002,52.069556,0.000031,
2161,2188,-2.04263521891115,-9.97983541017227,-0.00167713293723182,0.004054,0.001517,-0.003319,0.196637,0.057348,328.463463,23.807369,0.999785,0.912298,0.009555,0.645451,-0.000005,0.000007,0.000022,0.000024,-0.000022,52.313450,0.000027,
2131,2083,-2.67897555506712,-12.2774913882026,0.00541599037222795,0.004362,0.001058,-0.003393,0.210477,0.040563,330.335778,24.201669,0.998596,0.979206,0.005696,0.327114,-0.000013,-0.000002,0.000026,0.000019,-0.000034,50.701278,0.000034,
2506,2248,5.47773277815873,-8.66706865601292,0.0123781971462336,0.004294,0.001217,-0.003941,0.212175,0.055606,327.563351,22.501350,0.999094,0.980763,0.005467,0.421167,-0.000006,-0.000011,0.000031,0.000022,-0.000040,42.795180,0.000040,
2191,2473,-1.43818196937034,-3.74500819268279,-0.0190010718449685,0.003892,0.000986,-0.000562,0.180952,0.081075,323.606782,24.181810,0.999198,0.984130,0.005095,0.454052,-0.000003,-0.000006,0.000008,0.000004,-0.000012,39.297106,0.000013,
2446,3298,3.95404873130292,14.2106636303554,-0.0116861496360912,0.003765,0.001086,-0.002424,0.182815,0.041727,310.055004,26.409449,0.999771,0.993580,0.003207,0.441110,0.000021,-0.000026,-0.000004,0.000021,-0.000027,-5.289762,0.000028,
2116,3118,-3.17204074061779,10.2779055464476,0.0211232662568932,0.004036,0.001049,-0.001966,0.192465,0.064782,313.758472,24.533444,0.999804,0.995793,0.002855,0.407356,-0.000002,-0.000025,-0.000006,0.000000,-0.000026,-13.074062,0.000030,
2206,2428,-1.10242669325935,-4.73011599269376,0.00180112754640049,0.003842,0.001194,-0.002688,0.185366,0.063149,324.470288,24.041896,0.999142,0.987516,0.004606,0.486139,-0.000005,-0.000029,-0.000001,-0.000005,-0.000029,-1.919964,0.000036,
2236,2623,-0.484570186321807,-0.471601626421887,-0.0234632430220927,0.004022,0.001738,-0.005652,0.203850,0.074397,321.046027,24.329945,0.999282,0.985230,0.004678,0.414734,-0.000011,-0.000015,-0.000002,-0.000011,-0.000016,-20.828367,0.000027,
2101,2023,-3.32305883421229,-13.593961610248,0.0226921927826425,0.004015,0.001478,-0.002710,0.192444,0.067326,331.554009,24.402252,0.999367,0.986169,0.005043,0.318155,0.000013,-0.000070,0.000024,0.000019,-0.000077,14.795017,0.000080,
2086,3283,-3.8488901221707,13.8491471823058,0.033494985965433,0.003821,0.000483,0.001826,0.171337,0.034691,311.290179,24.392016,0.999642,0.995422,0.002847,0.373105,-0.000003,-0.000027,-0.000020,0.000008,-0.000038,-29.239342,0.000041,
2026,3133,-5.12480621111822,10.5961544593002,0.0279796910172649,0.003991,0.001024,0.000026,0.184578,0.066245,314.053841,24.201572,0.999605,0.993707,0.003296,0.368924,-0.000007,0.000015,0.000015,0.000023,-0.000015,63.287592,0.000023,
2476,2038,4.86575923062531,-13.275326312635,0.0278965523140755,0.003797,0.001524,-0.002714,0.184456,0.060521,330.971286,21.870210,0.999299,0.979733,0.005616,0.361652,0.000030,-0.000029,0.000063,0.000071,-0.000070,32.520211,0.000081,
2296,2923,0.767223889818077,6.05761856239652,-0.00329873732789565,0.003871,0.000700,0.000634,0.176310,0.052603,316.210570,24.769752,0.999582,0.993007,0.003373,0.501510,-0.000007,-0.000021,0.000005,-0.000006,-0.000023,17.681412,0.000030,
2221,2263,-0.747703546763812,-8.33556764070914,-0.00235731699257258,0.003818,0.000779,-0.002392,0.183049,0.044997,327.058035,23.881617,0.998866,0.982523,0.005292,0.358045,-0.000007,0.000010,0.000009,0.000014,-0.000011,67.713701,0.000015,
2491,2158,5.16854715130463,-10.6399930994943,0.0190732126546322,0.003669,0.001774,-0.005626,0.190047,0.067613,329.006928,22.284115,0.999027,0.979597,0.005663,0.350973,-0.000011,-0.000047,0.000006,-0.000010,-0.000048,8.839633,0.000062,
2326,2563,1.48517451460442,-1.77767072872678,-0.0203144350264779,0.003846,0.000942,-0.001473,0.182077,0.060303,321.907414,24.120086,0.998691,0.983224,0.005096,0.391651,-0.000008,-0.000017,-0.000008,-0.000004,-0.000021,-31.014895,0.000027,
2056,3268,-4.49569734765479,13.5216433593824,0.040831173484321,0.003776,0.000918,-0.000037,0.174826,0.050922,311.764860,24.248686,0.999758,0.995263,0.002869,0.370994,-0.000020,-0.000030,-0.000034,0.000010,-0.000060,-41.091288,0.000064,
2311,2443,1.18186916409551,-4.40040568352018,-0.00079639969743539,0.003872,0.000894,0.000800,0.175308,0.056717,324.017785,23.816450,0.999536,0.988383,0.004361,0.446240,-0.000011,-0.000022,-0.000010,-0.000005,-0.000027,-30.443655,0.000035,
2056,2113,-4.31914389433154,-11.6202848198171,0.0106508425360516,0.003597,0.000303,0.000970,0.162456,0.033840,330.209970,24.585693,0.998820,0.982149,0.005443,0.392086,0.000014,-0.000011,0.000012,0.000019,-0.000016,22.467807,0.000020,
2386,2848,2.73709435423236,4.43492972311031,-0.0274015335778586,0.003929,0.001201,-0.004245,0.196370,0.057869,317.233363,24.851228,0.999537,0.989399,0.004020,0.398644,-0.000013,-0.000013,-0.000006,-0.000008,-0.000019,-45.980908,0.000027,
2041,3178,-4.80656705221214,11.5708866068513,0.0358459830086417,0.003986,0.000878,0.002585,0.177120,0.051913,313.285560,24.160281,0.999652,0.994093,0.003257,0.431912,-0.000010,0.000002,-0.000015,0.000012,-0.000020,-55.713202,0.000020,
2461,1993,4.54675137898961,-14.262666305002,0.0266731225609647,0.003866,0.001453,-0.003624,0.190827,0.064510,331.655006,21.873904,0.998702,0.969690,0.006502,0.288287,0.000021,0.000016,0.000045,0.000064,-0.000027,43.579041,0.000064,
2116,2038,-2.99945206966405,-13.264677980225,0.00856305215552311,0.003602,0.001400,-0.004562,0.179050,0.053371,331.115862,24.221358,0.999171,0.983241,0.005363,0.392167,-0.000003,-0.000051,0.000024,0.000007,-0.000061,22.129679,0.000066,
2356,2683,2.11568426767974,0.841087273259561,-0.0273487411582778,0.004163,0.001299,-0.000968,0.195203,0.083051,319.907540,24.414812,0.999603,0.989573,0.003976,0.391626,-0.000016,-0.000004,-0.000014,0.000005,-0.000025,-56.916583,0.000027,
2026,2023,-4.95834495119832,-13.591562554363,0.0150931014981097,0.004362,0.001731,-0.003795,0.211001,0.074803,331.910003,24.867331,0.998430,0.983227,0.005558,0.363862,0.000008,-0.000096,0.000047,0.000027,-0.000114,21.180036,0.000119,
2206,2203,-1.06377329270018,-9.64892212040877,0.00682042866486654,0.004058,0.000961,0.000061,0.186251,0.066426,328.141772,23.936626,0.998882,0.981261,0.005415,0.313620,-0.000003,0.000027,0.000012,0.000032,-0.000007,70.379358,0.000033,
2431,3163,3.65748393831822,11.280681475023,0.0133712403260233,0.004228,0.001108,-0.002613,0.204665,0.047056,312.480220,25.990232,0.999657,0.992558,0.003463,0.341743,0.000020,0.000002,0.000004,0.000021,0.000001,12.436922,0.000025,
2146,2128,-2.35803924437486,-11.2931850732014,0.0248056046906981,0.004211,0.001384,-0.002533,0.201251,0.060671,329.706414,24.181982,0.999209,0.982093,0.005267,0.307148,-0.000010,-0.000025,0.000018,0.000002,-0.000037,33.734918,0.000041,
2086,3013,-3.8069275811309,7.99888786296591,0.00467101706021822,0.003763,0.000830,-0.000056,0.173961,0.042026,315.461473,24.401322,0.999700,0.993778,0.003088,0.409826,0.000005,-0.000020,-0.000017,0.000014,-0.000029,-27.216586,0.000029,
2476,2053,4.86220412474102,-12.9458205553982,0.0275366618665771,0.003644,0.000916,0.000856,0.163718,0.041690,330.705639,21.946583,0.999341,0.982221,0.005340,0.326572,0.000028,-0.000031,0.000059,0.000065,-0.000068,31.744376,0.000077,
2191,2413,-1.42712124821835,-5.05554689477908,-0.0112033896675143,0.004012,0.001449,-0.004450,0.198689,0.070272,324.659376,24.153959,0.999043,0.986867,0.004736,0.407121,-0.000006,-0.000017,-0.000002,-0.000005,-0.000017,-11.554048,0.000023,
2266,2518,0.187549122489479,-2.76276948845947,-0.0100239297685789,0.003918,0.001018,-0.001664,0.185845,0.054426,322.787053,24.069457,0.999657,0.991466,0.003822,0.444310,-0.000018,-0.000001,0.000001,-0.000001,-0.000018,86.980136,0.000022,
2101,2038,-3.3265190998865,-13.2651704866274,0.0112997181938113,0.003597,0.001314,-0.002761,0.173331,0.088714,331.200391,24.239396,0.999420,0.985405,0.005198,0.507925,0.000006,-0.000059,0.000021,0.000012,-0.000065,16.583698,0.000070,
2056,3283,-4.49846139207436,13.8462858336149,0.0349496309607389,0.003905,0.000868,0.002091,0.174795,0.058488,311.470179,24.194436,0.999744,0.995643,0.002809,0.426016,-0.000024,-0.000020,-0.000035,0.000013,-0.000058,-46.700577,0.000060,
2341,2683,1.78847845134745,0.839944663282353,-0.0277492260232748,0.003765,0.000630,0.001953,0.166447,0.047910,319.876049,24.399536,0.999687,0.991356,0.003833,0.375954,-0.000012,-0.000006,-0.000013,0.000004,-0.000022,-50.605403,0.000024,
2296,2953,0.762072808855166,6.71205311326239,-0.00521472929403899,0.004186,0.001422,-0.001811,0.199395,0.081568,315.726698,25.010300,0.999220,0.988476,0.004166,0.348774,-0.000006,-0.000023,0.000006,-0.000005,-0.000025,16.561272,0.000032,
2041,2098,-4.64250458485698,-11.9485813108864,0.0185657298670208,0.003986,0.001350,-0.005186,0.197689,0.072422,330.635578,24.732008,0.999162,0.981899,0.005149,0.375597,0.000005,0.000010,0.000015,0.000022,-0.000008,50.251679,0.000023,
2461,2008,4.54391790057126,-13.9336246646253,0.0301753898949642,0.004075,0.000993,-0.000094,0.186978,0.065903,331.438811,21.914860,0.998888,0.973238,0.006181,0.306643,0.000013,0.000004,0.000048,0.000057,-0.000040,42.595081,0.000059,
2161,2308,-2.06198584833168,-7.35055635474227,0.00209923567700798,0.004318,0.001180,-0.001255,0.202485,0.053482,326.566297,24.283079,0.998843,0.982353,0.005253,0.265097,-0.000004,-0.000021,0.000002,-0.000004,-0.000021,7.168413,0.000027,
2236,2638,-0.486720128476019,-0.144844484009056,-0.0237043776734822,0.004608,0.001591,-0.004379,0.226642,0.085522,320.823428,24.325369,0.999177,0.986938,0.004509,0.452226,-0.000013,-0.000016,-0.000005,-0.000010,-0.000020,-35.932203,0.000030,
2251,2683,-0.168903099614454,0.835502678780621,-0.0221844797848689,0.003989,0.001107,-0.003743,0.196139,0.069838,320.044982,24.357950,0.999533,0.990965,0.003763,0.464739,-0.000006,-0.000021,-0.000007,-0.000003,-0.000024,-21.678001,0.000030,
2026,3148,-5.12689079771038,10.9202021356494,0.0341698386135363,0.003862,0.000938,-0.000068,0.178798,0.050263,313.855535,24.151763,0.999607,0.994606,0.003166,0.391831,-0.000010,0.000010,0.000007,0.000013,-0.000012,71.744633,0.000015,
2236,2653,-0.489593860688473,0.181847840244949,-0.0122041860084892,0.003864,0.001047,0.000001,0.177999,0.052234,320.627533,24.462395,0.999396,0.989307,0.004245,0.303232,-0.000007,-0.000019,-0.000001,-0.000007,-0.000019,-3.841914,0.000026,
2416,3028,3.35616886218789,8.34899998367048,-0.0072555971124757,0.004067,0.000837,-0.002254,0.195690,0.045149,314.489588,25.466830,0.999522,0.988644,0.004080,0.376363,0.000006,-0.000033,-0.000003,0.000006,-0.000033,-5.158634,0.000035,
2311,2458,1.17835720006049,-4.07199394420697,-0.0109986375426274,0.003821,0.000533,-0.000020,0.175661,0.051027,323.689983,23.829826,0.999487,0.987376,0.004513,0.461158,-0.000014,-0.000024,-0.000009,-0.000009,-0.000029,-30.442063,0.000040,
2281,2608,0.496450899328305,-0.796837359854919,-0.0227350145219702,0.003714,0.000541,0.003386,0.159558,0.054708,321.172937,24.318357,0.999125,0.988230,0.004424,0.339165,-0.000017,-0.000017,-0.000002,-0.000016,-0.000019,-41.177555,0.000034,
2266,2728,0.148657534632239,1.81735814718171,-0.0282591780834309,0.003856,0.001285,-0.002213,0.185155,0.078805,319.225139,24.485217,0.999514,0.990921,0.003783,0.419892,-0.000013,-0.000031,-0.000003,-0.000012,-0.000031,-7.752317,0.000045,
2101,2053,-3.32798959782855,-12.9357815487282,0.0226271102217765,0.003854,0.001030,-0.000981,0.179864,0.080343,331.059879,24.420565,0.998963,0.973874,0.006187,0.322522,0.000003,-0.000028,0.000024,0.000016,-0.000041,28.848720,0.000041,
2476,2068,4.86000098528497,-12.6166939725111,0.0281611639275638,0.004163,0.001037,-0.002675,0.200865,0.046087,330.506212,21.981334,0.999378,0.979392,0.005612,0.356052,0.000023,-0.000041,0.000047,0.000048,-0.000066,27.773569,0.000068,
2056,3298,-4.50112071938443,14.171629670633,0.0278935120350638,0.004109,0.001085,0.002512,0.183038,0.059565,311.173519,24.209445,0.999500,0.994291,0.003118,0.404961,-0.000016,-0.000011,-0.000043,0.000030,-0.000056,-46.738828,0.000056,
2041,3193,-4.80881166781064,11.8959655922898,0.0406048598445636,0.003738,0.000523,0.001280,0.169305,0.048914,313.072449,24.194134,0.999604,0.993840,0.003268,0.386138,-0.000016,-0.000003,-0.000020,0.000012,-0.000031,-53.391574,0.000031,
2071,2158,-3.99906966183074,-10.6343368380872,0.0111494690568179,0.003538,0.000741,-0.000269,0.163394,0.062045,329.411857,24.530519,0.999119,0.984634,0.005038,0.387538,0.000004,-0.000003,0.000006,0.000007,-0.000006,30.121793,0.000008,
2506,2263,5.47372537262896,-8.33704689355804,0.00627043273101435,0.004116,0.001015,-0.001823,0.195809,0.051214,327.252579,22.628623,0.998670,0.976328,0.005888,0.353191,-0.000006,-0.000017,0.000021,0.000011,-0.000033,37.582863,0.000034,
2251,2428,-0.12294582487031,-4.72855159683101,-0.0105540369156643,0.003979,0.001538,-0.004538,0.198062,0.072238,324.277407,23.878508,0.998836,0.986688,0.004555,0.533827,-0.000016,-0.000020,-0.000006,-0.000012,-0.000024,-36.808793,0.000037,
2281,2833,0.456570470731041,4.10217843467898,-0.0225187493061298,0.004036,0.000851,-0.002971,0.195956,0.038747,317.553767,24.670414,0.999527,0.991169,0.003799,0.391264,-0.000001,-0.000023,0.000014,0.000006,-0.000030,25.139261,0.000032,
2056,2128,-4.32162226421875,-11.2899207550291,0.00219005434900055,0.003813,0.000446,-0.000362,0.176169,0.026748,329.912061,24.663230,0.998725,0.982309,0.005512,0.305439,0.000009,-0.000019,0.000020,0.000019,-0.000029,27.330140,0.000030,
2116,2293,-3.04067868831257,-7.67842436350912,-0.00392492538099987,0.003621,0.001213,-0.001898,0.172296,0.067714,326.906759,24.395978,0.998903,0.985873,0.004869,0.338477,0.000004,-0.000010,0.000022,0.000020,-0.000026,36.508301,0.000027,
2026,2038,-4.96052462518249,-13.2643191415985,0.0224521772672119,0.004020,0.001397,-0.001929,0.190165,0.049685,331.710990,24.819013,0.998662,0.979308,0.005654,0.380769,0.000001,-0.000085,0.000033,0.000012,-0.000096,18.765132,0.000105,
2221,2503,-0.789938469205214,-3.08958026997166,-0.0182337986328776,0.004145,0.001389,-0.001229,0.194878,0.070031,323.059971,24.181939,0.999356,0.987614,0.004377,0.412867,-0.000007,0.000002,0.000002,0.000003,-0.000007,75.796468,0.000007,
2326,2578,1.48268590047599,-1.45010129887005,-0.0235897597641497,0.004009,0.001493,-0.006528,0.207164,0.059098,321.661613,24.158114,0.999203,0.987858,0.004321,0.387707,-0.000006,-0.000004,-0.000005,0.000001,-0.000010,-48.347168,0.000012,
2176,2353,-1.74404333558393,-6.36604163539104,-0.0135622928498265,0.003968,0.001433,-0.002538,0.190549,0.067687,325.647101,24.167995,0.998586,0.980955,0.005490,0.378587,-0.000009,-0.000027,-0.000005,-0.000008,-0.000028,-13.998390,0.000038,
2086,2023,-3.65101439303519,-13.5925242825295,0.0119250774625357,0.003746,0.001212,-0.004697,0.185665,0.054849,331.529232,24.491954,0.998957,0.983700,0.005304,0.317325,0.000019,-0.000081,0.000029,0.000026,-0.000089,14.895683,0.000091,
2086,2188,-3.67633941858428,-9.97682338764707,0.00621684410390344,0.004270,0.001162,-0.002197,0.202706,0.073993,328.851313,24.470693,0.998808,0.983446,0.005200,0.381722,-0.000001,0.000015,0.000024,0.000032,-0.000018,54.233349,0.000032,
2191,2488,-1.4408424664374,-3.41690957606993,-0.0236969124847519,0.003867,0.001470,-0.003841,0.190256,0.090146,323.333991,24.212678,0.999015,0.982563,0.005347,0.447873,-0.000007,0.000005,0.000005,0.000007,-0.000008,70.597165,0.000009,
2116,3133,-3.17491876144663,10.6037838462428,0.0189311418087641,0.003986,0.000923,0.001296,0.180355,0.054035,313.482846,24.594654,0.999879,0.997165,0.002532,0.337773,-0.000002,-0.000025,-0.000006,-0.000001,-0.000026,-13.534370,0.000031,
2041,3208,-4.81075057624464,12.2206956672747,0.0408658970292208,0.004030,0.000754,-0.000682,0.188278,0.043622,312.848500,24.175184,0.999608,0.993341,0.003223,0.391014,-0.000021,-0.000001,-0.000022,0.000014,-0.000036,-57.280778,0.000036,
2221,2278,-0.749707901774041,-8.00758846535329,0.00281362478438041,0.004085,0.000734,-0.001603,0.192788,0.054595,326.868882,23.925311,0.998815,0.982770,0.005227,0.344968,-0.000006,0.000003,0.000005,0.000006,-0.000009,65.162452,0.000009,
2191,2668,-1.47175346547894,0.507841734096999,-0.0267372737532696,0.003671,0.001238,-0.004370,0.182984,0.049079,320.385472,24.460607,0.999751,0.994344,0.003231,0.342407,-0.000003,-0.000024,-0.000002,-0.000003,-0.000024,-4.370101,0.000029,
2131,2098,-2.68110362739146,-11.9477240831069,0.00270477469763364,0.004822,0.001037,-0.003160,0.230909,0.061518,330.092275,24.249612,0.999028,0.983413,0.005069,0.309214,-0.000012,-0.000008,0.000025,0.000015,-0.000036,47.097135,0.000036,
2461,2023,4.54056323812439,-13.6031959880518,0.0231157252960088,0.004041,0.001044,-0.003841,0.199509,0.046037,331.150655,21.989230,0.999177,0.978322,0.005639,0.270688,0.000018,0.000001,0.000039,0.000049,-0.000031,38.860912,0.000050,
2386,2863,2.73484397180228,4.76066774349044,-0.0176098108840392,0.004116,0.000877,-0.000299,0.190676,0.062742,317.065070,24.903677,0.999429,0.989443,0.003998,0.393585,-0.000014,-0.000010,-0.000009,-0.000003,-0.000021,-52.256567,0.000027,
2491,2173,5.16611362517147,-10.3125573318675,0.025056385307721,0.003811,0.001608,-0.005713,0.196819,0.067825,328.821855,22.263787,0.998498,0.970994,0.006362,0.432684,-0.000018,-0.000032,-0.000002,-0.000018,-0.000032,-9.831861,0.000051,
2341,2698,1.78613514567958,1.16517665443124,-0.0177704084925381,0.003533,0.000453,0.002767,0.152878,0.046580,319.702631,24.371349,0.999715,0.992576,0.003689,0.439694,-0.000012,-0.000007,-0.000009,0.000000,-0.000019,-53.557460,0.000022,
2101,3088,-3.49217116028486,9.62588979596977,0.0182952209847826,0.004230,0.000814,-0.004660,0.209048,0.027914,314.312460,24.458587,0.999341,0.987391,0.004301,0.385031,0.000000,-0.000028,-0.000008,0.000003,-0.000030,-14.652928,0.000033,
2086,3028,-3.80902083905584,8.32427603616117,0.00754977863869044,0.003952,0.000837,0.000776,0.180357,0.052322,315.247367,24.401485,0.999511,0.992611,0.003431,0.418193,0.000007,-0.000022,-0.000015,0.000013,-0.000029,-22.989992,0.000029,
2431,3178,3.65496771700368,11.6051259244606,0.0239586560512635,0.004066,0.000868,0.000357,0.186153,0.048496,312.304846,26.000817,0.999640,0.992028,0.003520,0.381299,0.000025,0.000009,0.000005,0.000027,0.000008,15.021062,0.000036,
2161,2203,-2.0455889727574,-9.64843240435123,-0.000325266017000558,0.003626,0.000667,-0.001403,0.170869,0.047764,328.206074,24.117483,0.998884,0.961722,0.006657,0.338548,-0.000002,0.000016,0.000023,0.000032,-0.000018,55.773857,0.000032,
2416,3043,3.35398502050944,8.67397065120502,0.00565782980413587,0.003997,0.000721,0.000272,0.183178,0.046570,314.340096,25.513591,0.999617,0.990312,0.003897,0.377877,0.000004,-0.000019,0.000000,0.000004,-0.000019,-0.437387,0.000020,
2266,2533,0.184517388439499,-2.43575075658806,-0.0170678069561063,0.004032,0.000648,-0.002205,0.192743,0.036220,322.492523,24.023746,0.999761,0.995330,0.003165,0.498601,-0.000018,-0.000008,-0.000003,-0.000008,-0.000019,-76.254340,0.000027,
2206,2218,-1.06673265942701,-9.32069588615763,0.00548302574753734,0.003675,0.000937,-0.000802,0.171431,0.073516,327.874406,23.917651,0.998897,0.981845,0.005397,0.359118,-0.000002,0.000030,0.000015,0.000035,-0.000008,68.740109,0.000037,
2071,1993,-3.97361729908557,-14.2511128927916,0.0223958602003904,0.003265,0.001200,-0.001164,0.153350,0.079638,332.140229,24.607348,0.998722,0.979554,0.005641,0.326092,0.000060,-0.000145,0.000032,0.000065,-0.000149,8.635366,0.000150,
2506,2278,5.47043838191745,-8.00853672694954,0.00524661646238656,0.004022,0.001093,-0.001968,0.192136,0.034031,326.997615,22.687883,0.998933,0.976339,0.005634,0.340203,-0.000009,0.000003,0.000024,0.000022,-0.000028,51.623378,0.000029,
2146,2263,-2.38171945188771,-8.33472127526486,-0.00502694364882927,0.004346,0.001055,-0.002984,0.208883,0.053300,327.293844,24.238406,0.998906,0.982302,0.005295,0.338861,-0.000010,-0.000001,0.000013,0.000008,-0.000019,54.056496,0.000019,
2116,2053,-3.00135479444672,-12.9352045890476,0.00945214688272245,0.004005,0.001618,-0.004499,0.197434,0.039573,330.900749,24.299830,0.998687,0.979464,0.005523,0.306582,-0.000005,-0.000024,0.000026,0.000013,-0.000042,35.484186,0.000043,
2236,2893,-0.531026800058779,5.4034855552481,-0.00296324524401825,0.003950,0.001152,-0.000417,0.183651,0.075004,316.808204,24.725291,0.999720,0.991593,0.003637,0.401648,-0.000005,-0.000011,0.000008,0.000000,-0.000017,34.738682,0.000019,
2206,2443,-1.10677835506308,-4.39961324458082,-0.0217065286773277,0.003648,0.000961,-0.003361,0.178518,0.043129,324.024159,24.129141,0.998546,0.983131,0.005383,0.397807,-0.000005,-0.000026,0.000002,-0.000004,-0.000026,4.746652,0.000033,
2026,2053,-4.9630819781271,-12.9338287759032,0.0238709080327908,0.003635,0.000734,-0.000897,0.169466,0.052155,331.461073,24.977057,0.999722,0.992696,0.003605,0.218890,0.000000,-0.000037,0.000025,0.000013,-0.000050,27.013057,0.000051,
2041,2113,-4.64490631218163,-11.6210534045866,0.0211169187652445,0.003865,0.000377,-0.001534,0.181714,0.049660,330.400994,24.679626,0.998825,0.981144,0.005528,0.400814,0.000003,-0.000010,0.000014,0.000012,-0.000019,32.719005,0.000019,
2356,2698,2.11278473887768,1.16624825506468,-0.0235551097570124,0.003842,0.000802,-0.000511,0.178666,0.059268,319.679668,24.352188,0.999557,0.990892,0.003800,0.469594,-0.000016,-0.000005,-0.000011,0.000002,-0.000023,-58.649394,0.000026,
2176,2248,-1.72583050396439,-8.66404426176668,5.69098585287975E-05,0.003630,0.001270,-0.004845,0.181989,0.065138,327.445305,24.034800,0.998816,0.980980,0.005355,0.408092,-0.000012,0.000007,0.000013,0.000014,-0.000019,63.907520,0.000019,
2251,2443,-0.125610071494872,-4.39934128729992,-0.00858033796265545,0.004196,0.000570,0.000519,0.191173,0.028532,324.043687,24.110895,0.999440,0.989687,0.004194,0.282536,-0.000014,-0.000015,-0.000001,-0.000014,-0.000016,-30.655140,0.000030,
2101,2248,-3.35978147093146,-8.66335669326942,-0.00160366989274507,0.003828,0.001486,-0.003570,0.186632,0.083596,327.733165,24.378489,0.998553,0.985568,0.005092,0.422399,-0.000002,0.000016,0.000020,0.000030,-0.000015,56.954661,0.000030,
2101,2068,-3.32988828387904,-12.6072740090918,0.0189496146276724,0.004268,0.001521,-0.004778,0.210092,0.077354,330.819223,24.353847,0.999098,0.950891,0.008425,0.390699,0.000001,-0.000020,0.000019,0.000013,-0.000031,30.332686,0.000031,
2116,3148,-3.177358852476,10.9279591899441,0.0231580415148187,0.003834,0.001064,0.002678,0.169440,0.083492,313.262533,24.502148,0.999742,0.995215,0.002931,0.462139,-0.000001,-0.000021,-0.000004,-0.000001,-0.000021,-10.573793,0.000025,
2296,2938,0.76454026150634,6.385320849023,-0.00357917406608976,0.003975,0.000883,0.000790,0.180685,0.073034,315.966900,24.931332,0.999366,0.990499,0.003846,0.389636,-0.000005,-0.000021,0.000005,-0.000004,-0.000022,16.319814,0.000028,
2026,3163,-5.12900366438321,11.2453241942023,0.0369783748190002,0.003931,0.000963,0.000173,0.181397,0.057700,313.636599,24.160232,0.999529,0.994073,0.003327,0.379781,-0.000014,0.000020,-0.000006,0.000021,-0.000015,-80.915884,0.000021,
2401,3028,3.03048129849461,8.34759396600273,-0.00112034324399701,0.004099,0.000998,-0.001683,0.195125,0.055771,314.524181,25.421976,0.999600,0.989443,0.003997,0.385000,0.000007,-0.000032,-0.000005,0.000008,-0.000033,-7.517524,0.000034,
2221,2518,-0.79259168158104,-2.76291938654643,-0.0161924281351276,0.003800,0.001471,-0.003223,0.185440,0.069679,322.825054,24.162037,0.999210,0.986375,0.004515,0.452456,-0.000006,0.000006,0.000004,0.000007,-0.000008,74.316259,0.000009,
2476,2083,4.85589558956561,-12.2864224102865,0.0214594826187522,0.003872,0.001111,-0.000465,0.179251,0.071872,330.186240,22.024083,0.999494,0.979770,0.005412,0.399598,0.000014,-0.000057,0.000036,0.000029,-0.000072,22.888228,0.000072,
2086,2203,-3.67927699547845,-9.64784230309606,0.000550661833756294,0.003851,0.001450,-0.004630,0.190595,0.076015,328.550923,24.472888,0.998589,0.981615,0.005325,0.383702,0.000005,0.000009,0.000019,0.000026,-0.000012,47.703535,0.000026,
2266,2743,0.146357419939321,2.14324138590702,-0.0238273293244902,0.004136,0.000895,0.000762,0.188062,0.067401,319.021548,24.493112,0.999306,0.987971,0.004177,0.426187,-0.000010,-0.000033,-0.000001,-0.000010,-0.000033,-1.352956,0.000045,
2461,2038,4.53735909915314,-13.2738317911218,0.0224569857855954,0.003939,0.001308,-0.003693,0.194444,0.059195,330.898307,22.011964,0.999306,0.979429,0.005585,0.319041,0.000015,-0.000019,0.000042,0.000044,-0.000047,33.897636,0.000052,
2071,2008,-3.97566335280564,-13.9210878303248,0.0141201892858476,0.003821,0.001090,-0.004061,0.187066,0.049573,331.864821,24.630010,0.998936,0.983495,0.005160,0.274021,0.000060,-0.000073,0.000056,0.000080,-0.000094,20.139874,0.000101,
2071,2173,-4.00113907508917,-10.3060486865614,0.012177709030027,0.003742,0.000463,0.000618,0.170158,0.053543,329.186344,24.538768,0.999027,0.985513,0.004937,0.370133,-0.000002,-0.000005,0.000010,0.000007,-0.000013,40.719290,0.000013,
2251,2698,-0.171782370681999,1.1623151117346,-0.0224057129798325,0.003914,0.001208,-0.001923,0.186744,0.059630,319.790123,24.398664,0.999544,0.991409,0.003559,0.437298,-0.000010,-0.000025,-0.000005,-0.000009,-0.000026,-16.076016,0.000037,
2236,2668,-0.491846382424374,0.508042720833615,-0.00967892374609391,0.003999,0.001118,-0.000850,0.187081,0.069861,320.414395,24.431275,0.999501,0.990684,0.003918,0.373470,-0.000004,-0.000022,-0.000002,-0.000003,-0.000022,-5.044098,0.000027,
2116,2068,-3.00362575601926,-12.6065263847391,0.01177450206103,0.004012,0.001490,-0.003392,0.194471,0.053170,330.676465,24.299889,0.998624,0.970703,0.006534,0.326710,-0.000006,-0.000018,0.000022,0.000011,-0.000035,37.566407,0.000036,
2311,2473,1.17554375155494,-3.74387783871116,-0.00841033465889041,0.003478,0.001010,-0.001268,0.164365,0.050281,323.457012,23.935392,0.999334,0.986207,0.004566,0.388395,-0.000009,-0.000018,-0.000004,-0.000007,-0.000020,-20.781049,0.000028,
2371,2833,2.41331010823463,4.10791142609371,-0.0260849026708456,0.003872,0.001051,0.000109,0.178017,0.060134,317.462437,24.817025,0.999704,0.990982,0.003813,0.373954,-0.000014,-0.000012,-0.000001,-0.000011,-0.000014,-67.540090,0.000025,
2041,2128,-4.64701708224477,-11.2910242179031,0.0123176154232283,0.004398,0.001107,-0.003335,0.211463,0.068073,330.116369,24.696472,0.998383,0.978691,0.006106,0.397892,-0.000001,-0.000020,0.000020,0.000012,-0.000032,31.994058,0.000033,
2386,2878,2.73179681513597,5.08793206956562,-0.0208111388594716,0.003898,0.001351,-0.004391,0.195588,0.073545,316.797905,24.998305,0.999469,0.991699,0.003709,0.352928,-0.000016,-0.000013,-0.000007,-0.000008,-0.000022,-51.969508,0.000030,
2161,2323,-2.06476682793941,-7.02327706180375,-0.00674512240641434,0.004040,0.001692,-0.009444,0.214956,0.048887,326.263884,24.151204,0.999079,0.984243,0.004946,0.404768,-0.000001,-0.000024,-0.000003,0.000000,-0.000024,-7.542743,0.000028,
2326,2593,1.47978501517872,-1.12312308763504,-0.0231844809522954,0.004216,0.001141,-0.001855,0.200478,0.062467,321.414919,24.174529,0.999633,0.991522,0.003711,0.409732,-0.000004,-0.000014,-0.000007,0.000000,-0.000018,-26.110687,0.000021,
2281,2623,0.493771572154049,-0.470729974259413,-0.0227156781103872,0.003693,0.000235,0.002778,0.160512,0.039187,320.931154,24.279052,0.999327,0.987896,0.004273,0.391513,-0.000018,-0.000016,-0.000001,-0.000016,-0.000018,-67.558011,0.000034,
2461,2053,4.5347173441659,-12.9451550161866,0.0275218351722515,0.003889,0.001294,-0.004025,0.193397,0.046277,330.697888,22.067508,0.999288,0.980386,0.005460,0.308269,0.000014,-0.000024,0.000040,0.000040,-0.000049,32.419056,0.000052,
2491,2188,5.16194485108059,-9.98190229851662,0.0165104786585175,0.003830,0.000810,-0.001469,0.181147,0.056279,328.491739,22.400864,0.998440,0.969924,0.006455,0.346043,-0.000002,-0.000031,0.000003,-0.000002,-0.000031,6.531611,0.000037,
2356,2713,2.10996126113151,1.49418897818668,-0.0249576264376401,0.004019,0.000929,0.000055,0.184824,0.057322,319.429504,24.484905,0.999566,0.991436,0.003649,0.374131,-0.000015,-0.000006,-0.000011,0.000002,-0.000023,-56.351290,0.000025,
2146,2278,-2.38440630544263,-8.00781846670105,-0.00388863817192941,0.004177,0.000726,-0.000507,0.193531,0.048293,327.047062,24.156593,0.998685,0.981887,0.005410,0.425872,-0.000009,-0.000010,0.000008,-0.000002,-0.000017,42.813899,0.000021,
2146,2143,-2.36149324870799,-10.9635805029343,0.00733430330308238,0.004176,0.001587,-0.004941,0.207006,0.059269,329.325916,24.094789,0.999406,0.981933,0.005239,0.404320,-0.000015,-0.000013,0.000013,-0.000001,-0.000027,47.092295,0.000032,
2281,2848,0.453320128973484,4.42980269610264,-0.0236454859376636,0.003934,0.000924,0.001694,0.175718,0.073097,317.278943,24.779893,0.999646,0.992961,0.003647,0.343688,0.000000,-0.000022,0.000013,0.000006,-0.000028,24.703799,0.000029,
2071,2023,-3.97824450303273,-13.5923113496603,0.0124501206126979,0.003709,0.001048,-0.002357,0.177101,0.060644,331.600953,24.579405,0.998881,0.983809,0.005204,0.336364,0.000050,-0.000088,0.000040,0.000061,-0.000099,15.208904,0.000100,
2191,2503,-1.44256216936471,-3.08981954214391,-0.0217485146907279,0.004330,0.001811,-0.007050,0.221694,0.068882,323.139092,24.247113,0.999160,0.985748,0.004863,0.407942,-0.000004,0.000006,0.000008,0.000011,-0.000008,60.424125,0.000011,
2296,3193,0.7202556032674,11.918732034096,0.0270635568055013,0.004063,0.000936,-0.001808,0.193708,0.049751,312.067703,25.433207,0.999714,0.992931,0.003351,0.358169,0.000000,-0.000014,0.000007,0.000003,-0.000017,21.704455,0.000018,
2026,3178,-5.13097777740196,11.5697551776609,0.0419682059159072,0.004004,0.000908,0.000303,0.184370,0.055463,313.436550,24.131082,0.999625,0.993631,0.003275,0.395660,-0.000019,0.000009,-0.000011,0.000013,-0.000023,-70.835256,0.000023,
2176,2368,-1.7466379098912,-6.03809953238294,-0.0137791518960739,0.003879,0.001454,-0.002686,0.186944,0.069406,325.399558,24.192449,0.999073,0.986623,0.004683,0.369992,-0.000009,-0.000005,-0.000002,-0.000004,-0.000010,-67.653966,0.000014,
2191,2683,-1.47336392005644,0.83302239709846,-0.0171613292905022,0.004090,0.001058,-0.002351,0.195919,0.061811,320.235449,24.404016,0.999619,0.993123,0.003488,0.426604,-0.000002,-0.000022,-0.000003,-0.000002,-0.000023,-8.340157,0.000027,
2401,3043,3.02826959201568,8.67269896507223,0.00919721452197564,0.004049,0.000899,-0.000952,0.190116,0.047476,314.360479,25.473152,0.999641,0.990922,0.003801,0.370131,0.000006,-0.000020,-0.000003,0.000006,-0.000020,-5.578126,0.000021,
2116,2308,-3.04254594694693,-7.35166673456352,-0.00147652627418893,0.003994,0.000909,-0.001563,0.188336,0.051743,326.702139,24.334194,0.999040,0.985278,0.004964,0.389764,0.000006,-0.000020,0.000010,0.000009,-0.000023,18.859878,0.000023,
2431,3193,3.65238297386316,11.9301885397642,0.0297785610053438,0.003920,0.000785,-0.000418,0.182280,0.041233,312.103838,26.051506,0.999622,0.991233,0.003646,0.372017,0.000027,0.000010,0.000005,0.000028,0.000008,15.289303,0.000038,
2476,2098,4.85283739456335,-11.9561545908915,0.017194597469711,0.003774,0.001580,-0.006120,0.196358,0.051999,329.925426,22.145077,0.999364,0.978301,0.005640,0.318370,0.000007,-0.000058,0.000025,0.000016,-0.000067,18.990887,0.000070,
2206,2458,-1.10833138545099,-4.07297448090317,-0.0135232780131673,0.003918,0.001183,-0.005783,0.198722,0.054013,323.870203,24.134005,0.999012,0.984549,0.005075,0.421422,-0.000005,-0.000025,0.000003,-0.000004,-0.000025,8.509037,0.000032,
2221,2293,-0.751930527835359,-7.67984669954981,0.00247733503300651,0.004183,0.001507,-0.005520,0.210094,0.058491,326.641634,23.902110,0.999070,0.984880,0.004821,0.393075,-0.000001,0.000007,0.000014,0.000017,-0.000011,53.633099,0.000018,
2116,3163,-3.17926205470731,11.2527869172677,0.0287948045191229,0.003920,0.000897,0.000758,0.178926,0.050953,313.074280,24.543119,0.999580,0.993214,0.003401,0.390608,-0.000001,-0.000011,-0.000008,0.000003,-0.000016,-28.361225,0.000016,
2056,2143,-4.32312433202243,-10.9618927788744,0.00200232567379999,0.004214,0.001451,-0.006016,0.210776,0.041220,329.704435,24.601564,0.998755,0.983827,0.005401,0.378893,0.000001,0.000009,0.000009,0.000015,-0.000004,57.093917,0.000016,
2131,2128,-2.68626807018572,-11.2916146691562,0.00636859097420484,0.004240,0.000979,-0.002444,0.202104,0.042089,329.612926,24.210171,0.998745,0.981493,0.005386,0.346703,-0.000011,-0.000021,0.000023,0.000008,-0.000040,39.225758,0.000042,
2221,2533,-0.795011536715169,-2.43454996617381,-0.0177735274147039,0.004084,0.001358,-0.003350,0.198905,0.071797,322.581859,24.268275,0.999535,0.989611,0.003989,0.368263,-0.000006,0.000001,0.000002,0.000001,-0.000006,77.389413,0.000007,
2266,2548,0.181841804339211,-2.10685304825805,-0.0180775593470344,0.004141,0.000652,-0.001879,0.196676,0.040932,322.244071,24.186631,0.999612,0.992258,0.003679,0.366772,-0.000015,-0.000008,0.000004,-0.000006,-0.000017,66.057865,0.000024,
2161,2218,-2.04759286436155,-9.31989763125162,0.00194157812467211,0.003824,0.001240,-0.002956,0.184909,0.047201,327.997366,24.171313,0.998774,0.979747,0.005494,0.296616,-0.000005,0.000014,0.000022,0.000028,-0.000019,57.046403,0.000029,
2071,2188,-4.00312243739242,-9.9767113320525,-0.00033019469771034,0.004464,0.001410,-0.005066,0.219792,0.048903,328.890730,24.501483,0.998880,0.984639,0.005195,0.402502,-0.000002,0.000013,0.000017,0.000025,-0.000013,56.717764,0.000025,
2236,2908,-0.534046244990293,5.73003606863115,-0.00548593944512277,0.003755,0.001007,-0.000461,0.174807,0.071528,316.533648,24.779139,0.999675,0.992163,0.003628,0.365071,-0.000004,-0.000010,0.000009,0.000003,-0.000017,35.930437,0.000018,
2101,3103,-3.49455769641431,9.95141279889426,0.027083116798849,0.004121,0.000605,0.001466,0.186032,0.040093,314.117921,24.524866,0.999678,0.992928,0.003320,0.330635,0.000000,-0.000024,-0.000005,0.000001,-0.000025,-11.099385,0.000028,
2101,2083,-3.3343515406615,-12.2767362227233,0.00128983889106848,0.003509,0.001267,-0.000982,0.164161,0.097559,330.385782,24.301450,0.998958,0.958489,0.007882,0.469031,0.000000,0.000004,0.000016,0.000018,-0.000014,49.129840,0.000019,
2251,2713,-0.174964709357067,1.48957277675413,-0.0280321587532057,0.003737,0.001174,-0.002767,0.181317,0.048156,319.493856,24.442332,0.999487,0.991257,0.003683,0.406027,-0.000008,-0.000029,-0.000005,-0.000006,-0.000030,-13.590897,0.000039,
2086,2218,-3.68122505767478,-9.31910104610714,-0.000830005593797978,0.004122,0.002000,-0.007547,0.211595,0.097914,328.318913,24.483785,0.998508,0.982221,0.005270,0.396269,0.000005,0.000008,0.000021,0.000028,-0.000015,47.120987,0.000028,
2386,2893,2.72920562839628,5.41395685090021,-0.0210618929663156,0.004008,0.001991,-0.007080,0.210614,0.103134,316.565975,24.986262,0.999509,0.992335,0.003643,0.437782,-0.000016,-0.000016,-0.000006,-0.000010,-0.000021,-44.394383,0.000032,
2176,2263,-1.7279291895081,-8.33471201409204,0.000837629439672583,0.003844,0.001875,-0.006784,0.198014,0.085419,327.225427,24.140960,0.999045,0.980491,0.005470,0.336717,-0.000010,-0.000001,0.000009,0.000005,-0.000015,58.501855,0.000015,
2086,2038,-3.65290827710638,-13.2644710876831,0.014549989813645,0.003857,0.001305,-0.006573,0.196163,0.056080,331.321515,24.439394,0.999006,0.983431,0.005265,0.373563,0.000011,-0.000070,0.000024,0.000017,-0.000077,15.277929,0.000081,
2416,3058,3.35086329276755,8.99967346152676,0.00865648890385273,0.003885,0.000535,0.004036,0.164170,0.049602,314.100642,25.564139,0.999652,0.991074,0.003793,0.377156,0.000003,-0.000023,-0.000001,0.000003,-0.000023,-1.753059,0.000025,
2341,2713,1.78302016665797,1.49339938441339,-0.0266467734953721,0.003793,0.000837,0.001155,0.170586,0.050608,319.401527,24.462815,0.999502,0.990020,0.003947,0.389495,-0.000011,-0.000009,-0.000009,-0.000001,-0.000019,-48.962321,0.000023,
2041,3223,-4.81320162868312,12.5456789512676,0.0415068661920941,0.004073,0.000699,0.002014,0.182749,0.052345,312.603080,24.171580,0.999543,0.993607,0.003153,0.394482,-0.000025,-0.000012,-0.000027,0.000009,-0.000046,-52.085199,0.000049,
2506,2293,5.46715639047923,-7.68012075388297,0.00853250897955604,0.003807,0.000622,0.000636,0.172023,0.031522,326.761927,22.772557,0.999254,0.978513,0.005410,0.315991,-0.000013,0.000008,0.000033,0.000033,-0.000037,53.805219,0.000041,
2071,2038,-3.97971663837344,-13.2632022881108,0.0112592226697075,0.004188,0.002008,-0.008520,0.216888,0.067333,331.390276,24.574307,0.999000,0.984880,0.004956,0.348373,0.000038,-0.000077,0.000031,0.000046,-0.000085,13.999574,0.000085,
2026,3193,-5.13331742764153,11.8943515542389,0.0443889320488324,0.003890,0.000563,0.000802,0.177705,0.053258,313.205315,24.105225,0.999608,0.993223,0.003288,0.408323,-0.000023,0.000007,-0.000016,0.000014,-0.000030,-66.725472,0.000030,
2161,2338,-2.06799184915745,-6.69471522399606,-0.00990426100690911,0.003805,0.001133,-0.004922,0.190169,0.064289,325.970654,24.178926,0.999406,0.987784,0.004349,0.404579,0.000001,-0.000022,-0.000004,0.000002,-0.000023,-9.842316,0.000025,
2206,2233,-1.06888391114142,-8.99412467563433,0.0100338231407591,0.003931,0.000173,0.001835,0.174563,0.027664,327.674811,23.866433,0.998985,0.983151,0.005401,0.383291,-0.000006,0.000037,0.000014,0.000042,-0.000010,73.207329,0.000043,
2131,2113,-2.68357715830426,-11.6198221735078,0.00793525299758358,0.004471,0.001065,-0.001963,0.211260,0.064664,329.875583,24.237537,0.999097,0.983512,0.005105,0.332903,-0.000009,-0.000017,0.000024,0.000011,-0.000037,40.349294,0.000038,
2086,3043,-3.8107307826034,8.64871101851482,0.0191462414447301,0.003907,0.000714,0.000516,0.178941,0.034082,315.098790,24.403192,0.999583,0.992405,0.003484,0.396314,0.000008,-0.000023,-0.000013,0.000013,-0.000028,-20.035925,0.000028,
2191,2518,-1.44504486088996,-2.76448280001557,-0.0118601110058307,0.003991,0.001189,-0.002851,0.192748,0.054361,322.950825,24.190481,0.999183,0.988158,0.004615,0.465127,-0.000003,0.000010,0.000010,0.000015,-0.000008,61.440832,0.000015,
2146,2158,-2.36453037367509,-10.6334244834374,0.00467096209769124,0.003792,0.001201,-0.004377,0.187542,0.053442,329.042549,24.227985,0.999702,0.965782,0.006446,0.276445,-0.000011,-0.000018,0.000013,-0.000001,-0.000028,38.254118,0.000033,
2491,2203,5.1584066854403,-9.65272283243473,0.0131464705553981,0.003547,0.001166,-0.002908,0.173866,0.062154,328.213730,22.446391,0.998304,0.971150,0.006409,0.368099,0.000001,-0.000033,0.000007,0.000002,-0.000035,11.130984,0.000039,
2251,2458,-0.128294467281886,-4.07219022579758,-0.00909732207873049,0.004161,0.000652,0.000108,0.190959,0.046482,323.796621,24.074796,0.999724,0.991033,0.004058,0.361190,-0.000017,-0.000018,-0.000001,-0.000017,-0.000019,-34.663206,0.000036,
2311,2488,1.17339142562798,-3.41656889475588,-0.00353715475159788,0.003741,0.001211,-0.000945,0.175404,0.066825,323.265642,23.975088,0.999455,0.987280,0.004287,0.398329,-0.000010,-0.000014,-0.000006,-0.000006,-0.000018,-34.815594,0.000025,
2146,2293,-2.38665386131908,-7.67930067191837,-0.00502156476954951,0.004044,0.001225,-0.006535,0.205833,0.034822,326.808082,24.212770,0.998613,0.984638,0.005064,0.366201,-0.000002,-0.000007,0.000015,0.000011,-0.000020,40.299672,0.000020,
2461,2068,4.53243207215136,-12.616526571585,0.0308537939561688,0.004182,0.001692,-0.006190,0.215107,0.046185,330.505784,22.091265,0.999326,0.980749,0.005393,0.341688,0.000010,-0.000028,0.000033,0.000029,-0.000047,30.180021,0.000047,
2086,2053,-3.65417453131875,-12.9362380722051,0.0266582331224754,0.004415,0.000698,-0.001998,0.208394,0.071010,331.193701,24.500238,0.998649,0.979738,0.005600,0.329502,0.000008,-0.000034,0.000026,0.000020,-0.000046,25.299838,0.000047,
2101,2098,-3.3353356418558,-11.9471294856276,0.0209451296402108,0.003747,0.000955,0.001045,0.169144,0.086234,330.312303,24.611151,0.999255,0.957619,0.008117,0.151589,-0.000002,0.000000,0.000016,0.000015,-0.000017,46.384391,0.000019,
2281,2878,0.448420749512149,5.08002851041739,-0.0175176176620084,0.003878,0.000808,-0.000201,0.179439,0.045282,316.846222,24.708092,0.999738,0.993120,0.003528,0.442563,0.000000,-0.000019,0.000007,0.000003,-0.000021,18.619908,0.000023,
2101,3118,-3.49723074181575,10.2766676550874,0.0218630328996028,0.004133,0.000869,-0.000030,0.191088,0.054733,313.834373,24.479731,0.999769,0.994788,0.002917,0.391034,-0.000003,-0.000022,-0.000006,-0.000001,-0.000023,-16.130677,0.000028,
2266,2758,0.143061382685953,2.47113770415696,-0.0334357536743823,0.004212,0.001313,0.000565,0.192393,0.081298,318.701031,24.553790,0.999283,0.988317,0.004186,0.405268,-0.000006,-0.000024,0.000005,-0.000005,-0.000026,14.407200,0.000033,
2116,2083,-3.00630716683297,-12.2773566865611,0.0106346709893614,0.003754,0.001107,-0.003616,0.183163,0.052641,330.414928,24.325869,0.998567,0.976486,0.006135,0.307089,-0.000007,0.000004,0.000019,0.000018,-0.000021,53.030026,0.000023,
2221,2308,-0.754894769317385,-7.35188046765124,0.000411457248446823,0.004004,0.001206,-0.004655,0.199047,0.052462,326.371577,23.897362,0.999003,0.986688,0.004540,0.412907,-0.000005,-0.000003,0.000011,0.000007,-0.000015,47.645024,0.000015,
2161,2233,-2.04966439509616,-8.99243452969699,0.00295424865134919,0.003792,0.001538,-0.008139,0.199377,0.054913,327.779130,24.111057,0.998792,0.980516,0.005328,0.377130,-0.000012,0.000021,0.000017,0.000029,-0.000019,67.016162,0.000029,
2476,2113,4.84889205367586,-11.6263974878664,0.0119078009014402,0.003624,0.001344,-0.002697,0.176495,0.072999,329.619051,22.173653,0.999227,0.976164,0.005970,0.371037,0.000004,-0.000055,0.000025,0.000013,-0.000064,19.907657,0.000068,
2251,2728,-0.177438999133582,1.81656665444023,-0.0296339489103161,0.003967,0.001420,-0.003755,0.195314,0.072244,319.250390,24.463874,0.999346,0.990215,0.003886,0.432060,-0.000007,-0.000032,-0.000008,-0.000005,-0.000035,-15.768272,0.000043,
2356,2728,2.10751188892196,1.82059995532573,-0.0180808542663726,0.003938,0.001100,0.000803,0.178598,0.071233,319.236679,24.532544,0.999544,0.990646,0.003771,0.379559,-0.000016,-0.000014,-0.000006,-0.000009,-0.000021,-51.922961,0.000031,
2296,3208,0.71699804400642,12.2438651054467,0.0260656575186999,0.003781,0.000910,0.000092,0.174253,0.046996,311.794153,25.447812,0.999762,0.993999,0.003128,0.369391,0.000003,-0.000015,0.000008,0.000006,-0.000018,21.320323,0.000019,
2056,2158,-4.32593042455143,-10.6324781554848,0.000399291940311741,0.003861,0.001107,-0.004455,0.190085,0.053696,329.429274,24.658789,0.999105,0.985942,0.004922,0.331931,0.000006,-0.000006,0.000007,0.000009,-0.000010,24.392388,0.000011,
2506,2308,5.46408997880775,-7.35223664263798,0.0100873374943262,0.003468,0.000911,-0.002355,0.168225,0.030544,326.528392,22.794359,0.999228,0.980648,0.005287,0.356319,-0.000016,0.000030,0.000025,0.000041,-0.000027,65.995482,0.000042,
2131,2143,-2.68881765475254,-10.9628793637814,0.00430056508338339,0.004188,0.001151,-0.002909,0.201188,0.048957,329.353815,24.201727,0.999028,0.983364,0.005189,0.370666,-0.000016,-0.000007,0.000018,0.000007,-0.000030,52.199354,0.000031,
2026,3208,-5.13518500877475,12.2192879787697,0.0450458239776594,0.004224,0.000875,-0.000888,0.197849,0.050462,312.985754,24.104443,0.999553,0.993078,0.003317,0.395345,-0.000027,0.000007,-0.000019,0.000016,-0.000035,-65.698597,0.000036,
2296,2968,0.759383220304006,7.03747847991361,-0.00545121915536129,0.004245,0.001139,-0.002053,0.202806,0.064216,315.483617,25.008963,0.999426,0.991164,0.003667,0.362207,-0.000008,-0.000024,0.000007,-0.000005,-0.000026,19.934095,0.000034,
2236,2683,-0.494776678378212,0.835016065426572,-0.0185522415093828,0.004244,0.001111,-0.002046,0.202223,0.067146,320.111944,24.402231,0.999477,0.989580,0.003977,0.421605,-0.000003,-0.000022,-0.000003,-0.000002,-0.000023,-9.744822,0.000027,
2491,2218,5.15487303210116,-9.32253892026199,0.00763364602221372,0.003655,0.000872,-0.002052,0.175444,0.059574,327.926144,22.575578,0.999085,0.980312,0.005547,0.297881,-0.000012,-0.000037,0.000010,-0.000008,-0.000040,19.260353,0.000052,
2281,2863,0.450728644336948,4.75601997945994,-0.0229786253893849,0.004116,0.000773,0.003102,0.179374,0.073445,317.043764,24.811643,0.999704,0.993135,0.003536,0.339708,-0.000001,-0.000019,0.000008,0.000002,-0.000022,20.189388,0.000025,
2101,2263,-3.36212208586911,-8.33608477168059,-0.000810496002657146,0.003912,0.000856,-0.001546,0.184441,0.043268,327.496824,24.355834,0.998718,0.984365,0.005083,0.408489,-0.000002,-0.000001,0.000018,0.000016,-0.000019,45.659685,0.000021,
2131,2368,-2.72583982433642,-6.0393817801838,-0.00970137587779618,0.004015,0.001515,-0.005305,0.200819,0.072746,325.614490,24.294518,0.999062,0.986295,0.004658,0.421887,0.000003,-0.000001,0.000000,0.000003,-0.000001,2.107933,0.000003,
2326,2608,1.47683171426897,-0.795481028697907,-0.0254680424587264,0.004271,0.001115,-0.001249,0.200929,0.076618,321.152466,24.222620,0.999551,0.989733,0.003961,0.411143,-0.000005,-0.000018,-0.000007,-0.000002,-0.000022,-24.261826,0.000026,
2416,3073,3.34839992505247,9.32511486193901,0.00857931920904775,0.004046,0.000698,-0.000060,0.186600,0.028217,313.877108,25.598698,0.999666,0.991250,0.003751,0.367953,0.000005,-0.000018,-0.000003,0.000005,-0.000019,-7.647954,0.000019,
2191,2698,-1.47599919297599,1.15924449353211,-0.0228619051422356,0.004163,0.001638,-0.005717,0.210035,0.071845,319.958761,24.324169,0.999690,0.994268,0.003243,0.531277,-0.000001,-0.000028,0.000000,-0.000001,-0.000028,-0.063109,0.000033,
2176,2278,-1.73043474543187,-8.00848268198052,0.00609211699719481,0.003791,0.000871,-0.002024,0.180540,0.050297,327.011081,24.069389,0.998845,0.980325,0.005517,0.387530,-0.000008,-0.000009,0.000003,-0.000006,-0.000012,39.200170,0.000018,
2431,3208,3.64925282357848,12.255597476078,0.0264349812973705,0.004135,0.000702,0.000842,0.187410,0.030429,311.834801,26.087646,0.999587,0.989573,0.003994,0.373598,0.000027,0.000001,0.000002,0.000027,0.000001,4.996707,0.000032,
2206,2473,-1.11131079156825,-3.74514156289887,-0.0173026386320316,0.003918,0.001413,-0.003550,0.191747,0.066804,323.588973,24.140002,0.999328,0.983354,0.005171,0.446472,-0.000002,-0.000010,0.000008,0.000003,-0.000015,31.504986,0.000016,
2146,2308,-2.38878527606936,-7.35194953457535,0.00230140170083359,0.004064,0.001277,-0.003507,0.197619,0.048882,326.619216,24.224582,0.998961,0.984110,0.005055,0.378275,-0.000001,-0.000017,0.000006,0.000001,-0.000019,19.530601,0.000022,
2401,3058,3.02520332142768,8.99863882684951,0.0101816185829762,0.004018,0.000721,0.001422,0.180081,0.060215,314.113011,25.522315,0.999667,0.992131,0.003646,0.378415,0.000005,-0.000023,-0.000002,0.000006,-0.000023,-4.573286,0.000024,
2071,2053,-3.98212838494684,-12.9353917539969,0.0199395893436645,0.003907,0.001225,-0.001994,0.185213,0.079744,331.190711,24.561161,0.998461,0.977519,0.005856,0.374098,0.000031,-0.000038,0.000029,0.000042,-0.000048,19.953980,0.000052,
2371,2848,2.41054992320879,4.43413340877445,-0.0267866921954578,0.003829,0.001225,-0.002547,0.185593,0.061967,317.219607,24.834659,0.999626,0.990367,0.003843,0.398943,-0.000013,-0.000012,-0.000005,-0.000007,-0.000018,-48.876782,0.000026,
2251,2743,-0.179575437005308,2.14277570161484,-0.0247133183950723,0.004302,0.001028,-0.001498,0.203176,0.053657,319.055721,24.512570,0.999202,0.988114,0.004270,0.388247,-0.000006,-0.000034,-0.000006,-0.000005,-0.000035,-11.104302,0.000044,
2116,2323,-3.04489527153547,-7.02278922948363,-0.00760458917255846,0.004187,0.001155,-0.005293,0.208330,0.048437,326.429054,24.373295,0.999267,0.987076,0.004593,0.353062,0.000006,-0.000022,0.000002,0.000006,-0.000022,3.158610,0.000023,
2251,2473,-0.130960035223207,-3.74611625654369,-0.000440252892929038,0.003617,0.000736,0.001557,0.161297,0.062374,323.596958,24.031676,0.999658,0.990844,0.003977,0.444640,-0.000015,-0.000007,0.000003,-0.000007,-0.000016,72.281066,0.000023,
2206,2248,-1.07218684628829,-8.66373743848808,-0.000573855737854956,0.003915,0.000627,0.001787,0.174181,0.055912,327.343512,23.939034,0.998846,0.982559,0.005325,0.358575,-0.000005,0.000022,0.000012,0.000026,-0.000010,68.953720,0.000027,
2086,2233,-3.68350929171809,-8.99039592681819,-0.00666386849547962,0.004673,0.001508,-0.005215,0.230077,0.075356,328.047623,24.495208,0.998828,0.984635,0.004873,0.363742,0.000000,0.000020,0.000018,0.000031,-0.000011,59.422745,0.000031,
2161,2248,-2.05216017907713,-8.66379797154772,-0.00379879169292963,0.004283,0.001168,-0.007077,0.218590,0.046600,327.500585,24.099389,0.998814,0.979223,0.005313,0.392978,-0.000010,0.000005,0.000016,0.000015,-0.000020,58.195655,0.000021,
2506,2323,5.46097660371761,-7.02350647615137,0.00568543846230796,0.003825,0.001399,-0.002580,0.185640,0.082796,326.265769,22.786123,0.999003,0.983986,0.005003,0.480401,-0.000025,0.000053,0.000023,0.000059,-0.000031,74.978454,0.000059,
2296,3223,0.714120925691734,12.568070047989,0.0262598876926745,0.003725,0.000708,0.001107,0.168173,0.041814,311.544334,25.389933,0.999824,0.994967,0.002933,0.450759,0.000003,-0.000008,0.000008,0.000007,-0.000013,26.889212,0.000013,
2086,2068,-3.65767393763592,-12.605792776533,0.00908347515172636,0.004042,0.001340,-0.006450,0.204361,0.049337,330.803092,24.474386,0.998726,0.961999,0.007428,0.336988,0.000007,-0.000023,0.000020,0.000016,-0.000033,26.358766,0.000033,
2491,2233,5.15143574798111,-8.99428486810177,0.00351442977063243,0.003783,0.000641,-0.000498,0.175264,0.051294,327.649337,22.554461,0.999083,0.980748,0.005631,0.372098,-0.000007,-0.000026,0.000025,0.000011,-0.000044,34.492129,0.000046,
2161,2518,-2.09894612410457,-2.76264509450402,-0.0360620738295552,0.004446,0.000730,-0.003405,0.215037,0.027066,322.869895,24.285067,0.998842,0.985832,0.004922,0.400688,0.000005,0.000009,0.000013,0.000021,-0.000006,49.558063,0.000021,
2461,2083,4.52838598077975,-12.2860949533182,0.0250359531113418,0.003809,0.001581,-0.004415,0.191381,0.071581,330.191012,22.158446,0.999298,0.979180,0.005614,0.358066,0.000002,-0.000040,0.000026,0.000015,-0.000053,25.662548,0.000054,
2071,2203,-4.00553735040167,-9.64834191087895,0.0027629793968913,0.004139,0.001673,-0.005095,0.205051,0.072528,328.660544,24.518024,0.998594,0.982185,0.005333,0.409199,0.000003,0.000006,0.000011,0.000016,-0.000007,49.543499,0.000016,
2041,3238,-4.81556710962636,12.8702872999042,0.0397311901672879,0.004045,0.000526,-0.000310,0.187886,0.036648,312.348313,24.147739,0.999625,0.994745,0.002942,0.393337,-0.000029,-0.000022,-0.000030,0.000005,-0.000056,-47.955853,0.000062,
2176,2383,-1.74930101152724,-5.71183858047682,-0.00878802888536256,0.003839,0.000632,0.004184,0.163602,0.055572,325.176460,24.133915,0.999096,0.988381,0.004518,0.428414,-0.000007,-0.000002,0.000001,-0.000002,-0.000008,79.536490,0.000010,
2116,3178,-3.1812556212892,11.5771894826896,0.0367227180091731,0.003912,0.000824,0.001078,0.177611,0.045871,312.894388,24.534244,0.999560,0.992361,0.003452,0.396527,-0.000001,-0.000015,-0.000008,0.000003,-0.000018,-25.166467,0.000020,
2341,2728,1.78027323158209,1.8213173738453,-0.0299824428769284,0.004017,0.001037,-0.000224,0.185804,0.057965,319.144209,24.573277,0.999447,0.988717,0.004099,0.323272,-0.000011,-0.000016,-0.000003,-0.000009,-0.000018,-28.081658,0.000028,
2236,2923,-0.537210813977911,6.05504313961008,-0.012732072622839,0.003960,0.000571,0.002536,0.174341,0.052794,316.228779,24.677221,0.999642,0.992658,0.003579,0.468901,-0.000005,-0.000006,0.000008,0.000003,-0.000013,43.155145,0.000014,
2026,3223,-5.13752986489278,12.5446909962397,0.0441562669773816,0.004344,0.000832,0.000201,0.200450,0.059660,312.735466,24.129592,0.999482,0.993654,0.003225,0.368051,-0.000030,-0.000011,-0.000026,0.000007,-0.000048,-54.808979,0.000052,
2311,2503,1.17080567431771,-3.08926415081517,-0.00949938330421674,0.004232,0.001037,-0.002602,0.203543,0.050438,323.001240,23.953081,0.999499,0.988638,0.004118,0.437559,-0.000015,-0.000003,-0.000004,-0.000002,-0.000016,-74.294354,0.000020,
2386,2908,2.72526183518626,5.74035943373785,-0.0246079569701578,0.003780,0.001132,-0.000256,0.175236,0.074025,316.256079,25.048418,0.999467,0.990822,0.003859,0.389190,-0.000016,-0.000018,-0.000004,-0.000012,-0.000021,-36.908182,0.000034,
2356,2743,2.104754386113,2.14687326688398,-0.0193417174994011,0.003836,0.001155,-0.002876,0.186852,0.059892,318.990538,24.531483,0.999628,0.991840,0.003528,0.408045,-0.000014,-0.000018,-0.000006,-0.000010,-0.000023,-36.231646,0.000033,
2191,2533,-1.44864864443011,-2.43567265778221,-0.0196354878940497,0.003644,0.001194,-0.000274,0.168780,0.067747,322.618585,24.269847,0.999268,0.988734,0.004332,0.415111,-0.000004,0.000007,0.000010,0.000013,-0.000009,59.692869,0.000013,
2266,2803,0.135793783619139,3.4503781271617,-0.0291588878075117,0.004467,0.001508,-0.002725,0.215078,0.073050,318.027274,24.665967,0.999043,0.987844,0.004713,0.361517,-0.000002,-0.000028,0.000007,0.000000,-0.000029,14.504563,0.000034,
2221,2323,-0.757993627908323,-7.02293461954417,-0.00924678509790056,0.004417,0.000951,-0.001086,0.206504,0.062430,326.056250,23.896347,0.999071,0.987119,0.004539,0.445111,-0.000004,-0.000004,0.000010,0.000007,-0.000014,45.072116,0.000014,
2176,2593,-1.78488888631366,-1.12797697375157,-0.021914723406951,0.003918,0.000745,-0.001377,0.184707,0.040702,321.691738,24.341128,0.999241,0.987905,0.004267,0.395248,-0.000006,-0.000008,0.000006,-0.000001,-0.000013,39.310784,0.000016,
2131,2158,-2.69033612257517,-10.6361658091028,0.0242605333668848,0.003564,0.001116,-0.005840,0.181314,0.026642,329.259383,24.278434,0.999715,0.991515,0.004103,0.279278,-0.000010,-0.000013,0.000018,0.000006,-0.000029,42.560471,0.000031,
2116,2098,-3.00790884059051,-11.9487748110666,0.0154010864009138,0.004265,0.000666,-0.002728,0.203892,0.032856,330.234476,24.387478,0.999029,0.975628,0.006059,0.232098,-0.000008,-0.000002,0.000019,0.000014,-0.000024,49.280842,0.000024,
2476,2128,4.84634970441445,-11.2990976023086,0.0237663698205779,0.003722,0.000140,0.004065,0.154898,0.048195,329.454800,22.215214,0.999009,0.974604,0.006147,0.363797,0.000005,-0.000048,0.000027,0.000016,-0.000060,22.493478,0.000062,
2101,2278,-3.36430869933216,-8.0078166137634,-0.00273611863633505,0.003991,0.001228,-0.004793,0.197671,0.064169,327.252400,24.340637,0.998546,0.983265,0.005231,0.447986,0.000001,-0.000011,0.000014,0.000010,-0.000021,33.892470,0.000021,
2281,2893,0.445541819061479,5.40751020327977,-0.0234874031697814,0.004024,0.000993,-0.002090,0.192582,0.060690,316.564206,24.800971,0.999684,0.992223,0.003516,0.392580,0.000000,-0.000021,0.000012,0.000005,-0.000026,24.879542,0.000028,
2086,2248,-3.68693198857644,-8.66344365197129,-0.00329857140411605,0.003618,0.000933,-0.000994,0.169313,0.070929,327.774456,24.429152,0.998828,0.984909,0.004891,0.426889,-0.000004,0.000020,0.000017,0.000028,-0.000012,62.677445,0.000028,
2416,3088,3.34583923073616,9.65108743331341,0.011661156133016,0.004125,0.000805,-0.000844,0.193206,0.039266,313.663660,25.673953,0.999686,0.992514,0.003544,0.350422,0.000009,-0.000013,-0.000007,0.000011,-0.000015,-16.109097,0.000016,
2071,2218,-4.00791899604248,-9.31940299551599,0.0048496618674676,0.003986,0.001772,-0.004014,0.194988,0.101952,328.426259,24.575097,0.998219,0.981519,0.005349,0.380705,0.000002,0.000008,0.000015,0.000021,-0.000011,51.061960,0.000021,
2461,2098,4.52475019646703,-11.9558105242567,0.0195647706049158,0.003686,0.001280,-0.004277,0.185101,0.050857,329.896784,22.268315,0.999523,0.980541,0.005444,0.285398,-0.000003,-0.000042,0.000018,0.000004,-0.000049,21.669907,0.000054,
2101,2113,-3.33710177473967,-11.6221246885836,0.0273280976649062,0.003837,0.000738,0.000335,0.175257,0.048655,330.132624,24.386229,0.999061,0.978303,0.005805,0.342913,0.000000,-0.000009,0.000016,0.000012,-0.000022,36.684878,0.000022,
2146,2443,-2.41218809251059,-4.4006763299568,-0.0167848418301446,0.003956,0.001410,-0.003259,0.192148,0.063084,324.276132,24.297106,0.999301,0.986937,0.004677,0.406846,0.000001,-0.000020,0.000002,0.000002,-0.000020,6.417684,0.000022,
2041,3253,-4.81800741775243,13.1948102625962,0.0397512664916349,0.003960,0.000608,-0.000584,0.184790,0.046716,312.100157,24.104395,0.999716,0.994412,0.002905,0.437889,-0.000028,-0.000026,-0.000035,0.000008,-0.000063,-45.937844,0.000068,
2206,2488,-1.11431960719935,-3.41669160039069,-0.0239754112922128,0.003899,0.001078,-0.004191,0.192814,0.057729,323.291387,24.203243,0.999275,0.985441,0.004818,0.392224,-0.000004,0.000000,0.000004,0.000003,-0.000007,59.574441,0.000007,
2431,3223,3.64617356405132,12.5812105677849,0.0283245298326733,0.003906,0.000654,0.001211,0.175577,0.037943,311.592358,26.158572,0.999543,0.990723,0.003833,0.358657,0.000024,-0.000009,0.000004,0.000025,-0.000010,7.113255,0.000025,
2266,2773,0.140794818953001,2.79744291633255,-0.0293296653577499,0.004145,0.001386,-0.002102,0.198109,0.064038,318.497177,24.612429,0.999189,0.987385,0.004313,0.354742,-0.000004,-0.000025,0.000004,-0.000003,-0.000026,9.385210,0.000031,
2326,2623,1.47432667104372,-0.470163392804373,-0.0137267853233993,0.003842,0.000818,0.001166,0.172825,0.069642,320.979599,24.203094,0.999564,0.989340,0.003969,0.458509,-0.000009,-0.000014,-0.000010,-0.000001,-0.000022,-38.144365,0.000026,
2296,2983,0.757156110540411,7.36334331005915,0.000677092290857217,0.004270,0.001349,-0.002665,0.206120,0.071272,315.293205,25.071428,0.999181,0.988712,0.004107,0.335974,-0.000003,-0.000025,0.000009,0.000000,-0.000028,19.240209,0.000033,
2311,2518,1.16750748865992,-2.76045419313162,-0.0177726660737108,0.004069,0.001550,-0.005874,0.207438,0.060312,322.692352,24.027763,0.999433,0.987339,0.004255,0.406474,-0.000014,-0.000010,-0.000002,-0.000009,-0.000015,-61.990033,0.000024,
2281,3118,0.406956520548416,10.2917782021379,0.00860031926373495,0.004220,0.000592,0.000948,0.191485,0.038235,313.157627,25.231631,0.999784,0.994468,0.003163,0.344185,-0.000005,-0.000029,-0.000003,-0.000004,-0.000029,-7.282848,0.000037,
2176,2293,-1.73210283954957,-7.67898625024107,0.000693634047138403,0.004648,0.001552,-0.007037,0.235630,0.059617,326.778663,24.149111,0.998945,0.981862,0.005304,0.331549,-0.000003,-0.000006,0.000010,0.000006,-0.000015,40.638056,0.000015,
2116,2338,-3.04798311614955,-6.69522333385266,-0.010675776606206,0.003967,0.000873,-0.000860,0.185051,0.042488,326.138846,24.331361,0.999304,0.986417,0.004663,0.394522,0.000006,-0.000018,0.000000,0.000006,-0.000018,-0.910262,0.000019,
2161,2263,-2.05561428578586,-8.33380037948832,-0.0105888887564447,0.004062,0.001199,-0.002503,0.194485,0.060331,327.177638,24.195974,0.998798,0.980029,0.005496,0.323045,-0.000009,-0.000003,0.000010,0.000005,-0.000016,53.025952,0.000017,
2116,2113,-3.01098215782317,-11.6210839000467,0.0124341069201819,0.003736,0.000975,-0.002685,0.179620,0.029811,329.945525,24.272147,0.999268,0.984995,0.004913,0.351248,-0.000006,-0.000011,0.000019,0.000010,-0.000027,41.247217,0.000027,
2056,2173,-4.32863323074974,-10.3039809926296,-5.33025028062184E-05,0.003668,0.001102,-0.000695,0.170694,0.071864,329.165298,24.644430,0.999178,0.988462,0.004522,0.361778,0.000001,-0.000009,0.000010,0.000007,-0.000015,31.575263,0.000015,
2191,2713,-1.47964037364086,1.48816025405293,-0.0376248450597245,0.004112,0.001286,-0.005535,0.207026,0.060888,319.588112,24.444497,0.999316,0.990170,0.003933,0.415102,0.000001,-0.000032,-0.000002,0.000001,-0.000032,-4.109518,0.000036,
2296,3238,0.711266650790556,12.8939932668339,0.020787225956326,0.003890,0.000828,-0.000923,0.182731,0.043357,311.266698,25.455513,0.999679,0.992951,0.003309,0.415279,0.000005,-0.000011,0.000007,0.000008,-0.000014,21.440906,0.000014,
2491,2248,5.14813452076467,-8.66632937739763,0.00523013872515321,0.003730,0.000412,0.003136,0.158891,0.040097,327.404911,22.574690,0.999156,0.981504,0.005382,0.402051,0.000000,-0.000023,0.000033,0.000023,-0.000046,35.468132,0.000046,
2206,2743,-1.1586958501078,2.14140389683519,-0.0271827104339764,0.003881,0.001063,0.001107,0.175441,0.061619,319.112741,24.524637,0.999459,0.990432,0.003957,0.369785,-0.000001,-0.000035,-0.000004,-0.000001,-0.000035,-6.949863,0.000041,
2221,2548,-0.797198999218537,-2.10820058617177,-0.0132457673433919,0.004180,0.001293,-0.003242,0.202945,0.080168,322.381027,24.242383,0.999724,0.991685,0.003581,0.422320,-0.000005,0.000001,0.000007,0.000006,-0.000010,57.351854,0.000010,
2221,2578,-0.802911649484543,-1.4536397437593,-0.022802353401687,0.004338,0.001078,-0.003166,0.209893,0.051654,321.822332,24.256430,0.999270,0.988704,0.004119,0.419563,-0.000003,-0.000006,-0.000001,-0.000003,-0.000006,-9.242270,0.000009,
2236,2698,-0.497987073707012,1.1623141558026,-0.0248537388516752,0.004134,0.001172,-0.001765,0.196274,0.062646,319.809617,24.431669,0.999505,0.991243,0.003649,0.409270,-0.000004,-0.000028,0.000000,-0.000004,-0.000028,-0.520023,0.000035,
2506,2338,5.45779931317413,-6.69383481692086,0.00581017008067874,0.003589,0.001684,-0.004661,0.183038,0.093787,326.020347,22.955737,0.999275,0.985469,0.005085,0.384731,-0.000024,0.000050,0.000025,0.000058,-0.000032,73.234322,0.000058,
2086,2263,-3.68890873636296,-8.33621709163603,-0.00115663519767395,0.003720,0.001000,-0.002602,0.178661,0.046898,327.560769,24.399602,0.999002,0.984647,0.004822,0.433945,-0.000005,0.000001,0.000015,0.000013,-0.000017,50.565323,0.000018,
2431,3238,3.64241459324568,12.9070046827683,0.0204528913524769,0.003907,0.000835,0.003076,0.168790,0.047827,311.272933,26.192241,0.999545,0.992033,0.003641,0.383628,0.000021,-0.000015,0.000001,0.000021,-0.000015,1.507025,0.000021,
2146,2173,-2.36438166715751,-10.3098938867519,0.0365088131574112,0.004293,0.001179,-0.003498,0.207862,0.058977,329.088036,24.116383,0.999836,0.944631,0.008074,0.402704,-0.000010,-0.000014,0.000017,0.000006,-0.000029,42.218957,0.000031,
2146,2323,-2.3915324398182,-7.0235069963281,-0.00184768300562155,0.003970,0.001301,-0.004463,0.196236,0.047308,326.341388,24.242202,0.999412,0.984288,0.004909,0.369121,0.000002,-0.000019,0.000000,0.000002,-0.000019,1.269384,0.000021,
2251,2968,-0.218464071309867,7.03535163364722,-0.00509980177747593,0.003956,0.001891,-0.002676,0.191734,0.110168,315.543336,24.926967,0.999547,0.993540,0.003410,0.376265,-0.000014,-0.000018,0.000007,-0.000008,-0.000023,37.520547,0.000033,
2386,2923,2.72332176587982,6.06553359316335,-0.0141816349808437,0.004020,0.000907,0.001075,0.181364,0.051127,316.105065,25.095378,0.999340,0.989995,0.004059,0.362012,-0.000015,-0.000024,-0.000008,-0.000010,-0.000029,-30.314464,0.000041,
2221,2818,-0.844627644526433,3.77319704627836,-0.0184975860767622,0.004107,0.001099,-0.002107,0.196239,0.065708,317.947194,24.618939,0.999536,0.990572,0.003930,0.378740,0.000004,-0.000022,0.000010,0.000008,-0.000026,18.866464,0.000026,
2131,2173,-2.69378335069691,-10.3067355824534,0.00593259719784101,0.003940,0.001099,-0.002326,0.188085,0.056746,328.872598,24.147721,0.999391,0.976024,0.005613,0.449323,-0.000008,-0.000010,0.000022,0.000014,-0.000031,43.891463,0.000031,
2101,2128,-3.33969120131109,-11.2932611120102,0.0208889567282995,0.003950,0.000598,-0.000336,0.182376,0.033082,329.845583,24.357074,0.998970,0.987262,0.004942,0.361161,-0.000003,-0.000013,0.000019,0.000012,-0.000028,37.422452,0.000028,
2086,2083,-3.6628304828913,-12.2722110803688,-0.0249265220626853,0.003635,0.001468,-0.001902,0.172686,0.093683,330.246884,24.495739,0.998911,0.948961,0.008851,0.363932,0.000004,0.000005,0.000017,0.000021,-0.000012,45.428262,0.000021,
2176,2398,-1.75115710966149,-5.38365276624049,-0.00852372027662796,0.004165,0.001222,-0.000302,0.192673,0.088155,324.965037,24.164060,0.998989,0.986492,0.004752,0.444607,-0.000008,-0.000003,-0.000003,-0.000002,-0.000010,-62.954561,0.000012,
2161,2353,-2.07055555490733,-6.36668035928967,-0.0135069644333612,0.004001,0.001199,-0.004203,0.196995,0.046915,325.705575,24.192208,0.999110,0.986143,0.004648,0.386067,-0.000006,-0.000024,-0.000004,-0.000005,-0.000025,-12.541507,0.000032,
2266,2818,0.133314169483459,3.77563574624737,-0.0214461907898453,0.004186,0.001275,-0.001779,0.198906,0.051672,317.831983,24.672069,0.999340,0.989279,0.004208,0.359099,0.000002,-0.000028,0.000008,0.000004,-0.000030,13.464524,0.000032,
2326,2638,1.47122345154392,-0.141875376884464,-0.0236753122454729,0.004017,0.001235,-0.002345,0.193105,0.070699,320.672628,24.267737,0.999426,0.988949,0.004076,0.430083,-0.000010,-0.000011,-0.000013,0.000002,-0.000023,-42.921722,0.000026,
2236,2938,-0.539593003153307,6.38152489819557,-0.0100533984392541,0.003992,0.000756,0.001881,0.178004,0.049454,316.009988,24.770736,0.999570,0.993008,0.003491,0.392720,-0.000006,-0.000002,0.000004,0.000001,-0.000009,59.908127,0.000010,
2461,2113,4.5209772691546,-11.6259711321599,0.00905812938174222,0.003734,0.001538,-0.005271,0.191182,0.058959,329.573128,22.260091,0.999426,0.977975,0.005737,0.359714,-0.000005,-0.000040,0.000018,0.000003,-0.000047,22.573946,0.000053,
2131,2383,-2.72821423315633,-5.71163779513299,-0.00985820334244636,0.004058,0.001504,-0.005484,0.203315,0.073828,325.373677,24.305964,0.998892,0.985560,0.004769,0.418990,0.000004,-0.000001,0.000002,0.000005,-0.000001,22.192865,0.000005,
2041,3268,-4.82089267273058,13.5208106008282,0.0340358627969408,0.003802,0.000825,-0.000513,0.177452,0.061482,311.799051,24.164635,0.999723,0.994301,0.002921,0.383159,-0.000027,-0.000028,-0.000038,0.000010,-0.000065,-44.526849,0.000070,
2266,3043,0.0948734365130939,8.6626980048279,0.00739993207952239,0.004015,0.000908,-0.003366,0.196359,0.028897,314.402145,25.032494,0.999536,0.991827,0.003636,0.351048,-0.000006,-0.000031,0.000001,-0.000006,-0.000031,2.441151,0.000040,
2116,3193,-3.18383292269648,11.9024868647983,0.0359646883824212,0.003873,0.000859,0.001205,0.175461,0.048974,312.640524,24.551501,0.999582,0.992595,0.003572,0.384638,-0.000003,-0.000018,-0.000011,0.000003,-0.000024,-27.843255,0.000026,
2476,2143,4.84317513028202,-10.968232577233,0.0173626771104409,0.003866,0.000900,0.000570,0.175018,0.081279,329.178407,22.331794,0.998384,0.975290,0.005949,0.340074,0.000005,-0.000035,0.000023,0.000015,-0.000045,24.665918,0.000046,
2191,2728,-1.48168023715521,1.81369893692258,-0.0272463936732947,0.004171,0.001046,-0.001800,0.197938,0.054404,319.422499,24.458803,0.999276,0.989610,0.004014,0.408823,0.000001,-0.000035,-0.000004,0.000002,-0.000036,-6.685332,0.000041,
2161,2533,-2.1013848601659,-2.43590604670969,-0.026442893660203,0.004010,0.000787,-0.000996,0.187664,0.038116,322.680091,24.333530,0.999035,0.986934,0.004547,0.374017,0.000003,0.000005,0.000015,0.000019,-0.000011,47.233525,0.000019,
2251,2758,-0.183288274707831,2.4709634846873,-0.0364591104565193,0.004181,0.001376,-0.000335,0.193910,0.071596,318.703683,24.578998,0.999211,0.988403,0.004272,0.363462,-0.000003,-0.000026,0.000001,-0.000003,-0.000026,2.449691,0.000032,
2101,2293,-3.36732086859546,-7.67944766832324,-0.000477361193418346,0.003574,0.000779,0.001205,0.160912,0.066460,326.992848,24.400787,0.999031,0.985908,0.004881,0.393680,0.000009,-0.000008,0.000019,0.000022,-0.000021,33.557847,0.000024,
2341,2743,1.77800222902804,2.14664635881896,-0.0242188729512804,0.004031,0.001012,-0.001360,0.190428,0.062492,318.953495,24.526179,0.999570,0.990392,0.003846,0.411630,-0.000010,-0.000020,-0.000005,-0.000009,-0.000022,-21.678016,0.000031,
2071,2233,-4.01024186425468,-8.99149429515556,0.00402276794000045,0.004206,0.000833,-0.000790,0.195680,0.064628,328.179296,24.579536,0.998827,0.984666,0.004889,0.338179,-0.000004,0.000021,0.000012,0.000025,-0.000009,68.066489,0.000026,
2206,2503,-1.11627571452332,-3.09020546198927,-0.0171349289378213,0.004181,0.001329,-0.001995,0.198900,0.055591,323.112087,24.208046,0.999414,0.988495,0.004353,0.403039,-0.000004,0.000004,0.000007,0.000008,-0.000007,59.709739,0.000009,
2116,2353,-3.0509257973884,-6.36643991797072,-0.0133617256557841,0.003786,0.000520,0.002148,0.167768,0.036529,325.857066,24.409910,0.999277,0.984536,0.004888,0.315547,0.000000,-0.000021,-0.000003,0.000000,-0.000021,-9.404766,0.000025,
2086,2098,-3.66372086424091,-11.9441767761962,-0.012775187211389,0.004078,0.001420,-0.005128,0.202308,0.065051,330.136761,24.598868,0.998875,0.966874,0.006981,0.233786,0.000002,0.000002,0.000018,0.000020,-0.000015,44.760179,0.000021,
2236,2713,-0.501221815727,1.48867351306316,-0.0269810283505763,0.003867,0.000451,0.000805,0.175400,0.032250,319.527705,24.440056,0.999344,0.990252,0.003766,0.391977,-0.000001,-0.000033,-0.000001,-0.000001,-0.000033,-1.504232,0.000039,
2266,2788,0.138488148242669,3.12332846832018,-0.027236187176527,0.004263,0.001353,-0.003641,0.208639,0.056056,318.281426,24.611520,0.999177,0.987869,0.004394,0.373300,-0.000001,-0.000020,0.000006,0.000001,-0.000022,16.749781,0.000025,
2146,2338,-2.39419602023527,-6.69528282268895,-0.00485315329569858,0.004050,0.001251,-0.002928,0.195258,0.071724,326.073350,24.230875,0.999390,0.986111,0.004621,0.414555,0.000003,-0.000017,-0.000002,0.000003,-0.000017,-4.838155,0.000019,
2371,2863,2.4079068969048,4.75990252233445,-0.0189725060947694,0.003746,0.000886,0.001275,0.168048,0.051799,317.023021,24.890165,0.999534,0.991027,0.003786,0.374121,-0.000014,-0.000011,-0.000010,-0.000003,-0.000023,-49.873256,0.000028,
2176,2308,-1.73538009200889,-7.35168131918331,0.00239858151928729,0.003810,0.001321,-0.006111,0.194234,0.056426,326.510132,24.118194,0.998792,0.982436,0.005271,0.373858,-0.000006,-0.000019,0.000003,-0.000005,-0.000020,12.177188,0.000026,
2056,2188,-4.33029142016294,-9.97622334903806,0.00344438172379569,0.004014,0.001421,-0.001177,0.188051,0.061999,328.970993,24.637279,0.998985,0.984914,0.005004,0.356378,0.000001,0.000009,0.000021,0.000026,-0.000016,50.351823,0.000027,
2176,2608,-1.78772079790623,-0.800138261749531,-0.026771181186291,0.003948,0.000948,-0.001228,0.185754,0.067573,321.408727,24.369947,0.999265,0.988052,0.004289,0.406477,-0.000006,-0.000017,0.000006,-0.000003,-0.000020,25.154245,0.000026,
2386,2938,2.72020333542535,6.39141458502411,-0.0103885317989807,0.003650,0.000799,0.002966,0.157513,0.055187,315.868010,25.136587,0.999369,0.989681,0.004052,0.367432,-0.000010,-0.000030,-0.000010,-0.000006,-0.000034,-21.785259,0.000043,
2401,3073,3.02245832725497,9.32444235624842,0.00988406657438645,0.004192,0.000912,0.001058,0.189383,0.051542,313.874270,25.575899,0.999636,0.991599,0.003691,0.360645,0.000006,-0.000019,-0.000005,0.000007,-0.000020,-10.059030,0.000020,
2191,2548,-1.45101329267812,-2.1090138336679,-0.0166760535963704,0.003571,0.001131,-0.000941,0.167528,0.069599,322.399368,24.264542,0.999485,0.990198,0.004062,0.437547,-0.000004,0.000010,0.000015,0.000019,-0.000013,57.451973,0.000020,
2296,2998,0.754038079505833,7.688296468405,0.00532844343189254,0.003805,0.001251,0.000699,0.173254,0.064943,315.054761,25.056730,0.999363,0.990561,0.003818,0.373508,-0.000005,-0.000026,0.000005,-0.000004,-0.000027,12.121985,0.000034,
2086,2278,-3.69147462248054,-8.00687908605805,-0.00241202061897638,0.003650,0.001033,-0.001228,0.171518,0.072279,327.301085,24.484189,0.999270,0.988408,0.004446,0.375822,-0.000002,-0.000009,0.000013,0.000008,-0.000019,36.781230,0.000020,
2296,3253,0.708167292649694,13.2199422906574,0.013051917617986,0.004060,0.000750,-0.001842,0.193685,0.036222,310.966450,25.524065,0.999657,0.990858,0.003631,0.368047,0.000006,-0.000011,0.000011,0.000011,-0.000017,26.131743,0.000017,
2311,2563,1.15858960406628,-1.77918907789206,-0.0141326785506521,0.003710,0.000594,0.001558,0.165290,0.052388,321.951214,24.102201,0.999100,0.986382,0.004673,0.423310,-0.000015,-0.000015,-0.000009,-0.000006,-0.000024,-44.364010,0.000031,
2101,2143,-3.34254963980355,-10.9628326421353,0.0115651711785176,0.004088,0.001073,0.000606,0.186171,0.064296,329.530202,24.399289,0.998776,0.983235,0.005338,0.354707,-0.000010,0.000005,0.000012,0.000011,-0.000017,61.311186,0.000017,
2221,2563,-0.800478876267825,-1.78066766383105,-0.0191152504851857,0.004166,0.001016,0.000427,0.190519,0.079265,322.076589,24.246991,0.999580,0.990945,0.003745,0.436785,-0.000002,-0.000005,0.000003,0.000000,-0.000007,33.870513,0.000009,
2431,3253,3.63869418457545,13.2330192608005,0.0110388011524378,0.003972,0.000531,0.003685,0.169469,0.042976,310.947919,26.257233,0.999573,0.992244,0.003504,0.362289,0.000016,-0.000010,0.000000,0.000016,-0.000010,0.304159,0.000016,
2116,2128,-3.0133185243363,-11.2929488026762,0.0132411256215619,0.003760,0.000667,-0.001901,0.178315,0.017912,329.710386,24.252509,0.998808,0.983066,0.005317,0.365583,-0.000010,-0.000014,0.000020,0.000008,-0.000032,41.570906,0.000034,
2476,2158,4.84035046717798,-10.6394174124474,0.0176452524305546,0.004016,0.001370,-0.000189,0.184955,0.091452,328.948464,22.361753,0.998316,0.972998,0.006327,0.379895,-0.000001,-0.000047,0.000009,0.000001,-0.000048,10.568248,0.000056,
2461,2128,4.51815903240491,-11.2972452515662,0.0155360329201812,0.003607,0.001408,-0.003007,0.176831,0.064268,329.370582,22.343613,0.999469,0.976316,0.005879,0.338744,-0.000004,-0.000035,0.000020,0.000006,-0.000045,26.053956,0.000049,
2161,2368,-2.07252091926454,-6.03862632827204,-0.0118571731370025,0.004316,0.001502,-0.005423,0.215334,0.060495,325.495326,24.232785,0.999094,0.989404,0.004209,0.370915,-0.000006,-0.000002,-0.000002,-0.000001,-0.000007,-65.820226,0.000008,
2266,2833,0.130118455752243,4.10181888722438,-0.0223209334192234,0.004086,0.000618,0.002899,0.178637,0.049093,317.560288,24.683058,0.999390,0.989556,0.004007,0.371097,0.000002,-0.000020,0.000011,0.000007,-0.000025,22.539100,0.000026,
2281,3133,0.404449473065082,10.6163439332422,0.0150281316666678,0.003958,0.000945,0.000726,0.180306,0.058431,312.955075,25.198000,0.999651,0.994308,0.003322,0.424687,-0.000005,-0.000027,-0.000004,-0.000004,-0.000028,-9.452813,0.000035,
2491,2263,5.14550363877661,-8.33721796516588,0.00818519762850656,0.003804,0.000768,0.001423,0.168957,0.056816,327.196486,22.690214,0.998904,0.978783,0.005394,0.364317,-0.000003,-0.000027,0.000024,0.000012,-0.000042,31.934122,0.000043,
2416,3103,3.34310979042234,9.97729001104183,0.0112793737517904,0.004071,0.001238,-0.004649,0.204897,0.060161,313.426047,25.742381,0.999821,0.994810,0.003171,0.349730,0.000016,-0.000010,-0.000002,0.000016,-0.000010,-4.497585,0.000016,
2041,3283,-4.82353410334158,13.845218448012,0.0311169008892307,0.003779,0.000762,0.000528,0.173430,0.057052,311.525378,24.116930,0.999641,0.994259,0.002993,0.417525,-0.000030,-0.000019,-0.000036,0.000013,-0.000061,-49.427496,0.000065,
2146,2458,-2.41498372489879,-4.07189760703821,-0.0207335646915681,0.004020,0.001567,-0.001146,0.188793,0.098233,323.996787,24.359777,0.999267,0.987317,0.004673,0.388677,0.000002,-0.000020,0.000000,0.000002,-0.000020,0.515860,0.000022,
2131,2188,-2.69531104635945,-9.97799714518835,0.0156022723843989,0.004085,0.001390,-0.003831,0.199345,0.053573,328.722615,24.289367,0.999188,0.983786,0.005057,0.312497,-0.000006,0.000009,0.000028,0.000031,-0.000027,52.688565,0.000034,
2176,2413,-1.75413070868536,-5.05624381270182,-0.00768875135270264,0.003516,0.001158,-0.002115,0.168444,0.070387,324.705782,24.183919,0.998743,0.985252,0.004906,0.420956,-0.000004,-0.000009,-0.000004,-0.000002,-0.000012,-29.474174,0.000015,
2341,2758,1.77511419557374,2.47315640124374,-0.0192466983127133,0.003782,0.001078,0.001271,0.169861,0.082755,318.730227,24.569402,0.999606,0.990595,0.003859,0.425213,-0.000008,-0.000015,0.000000,-0.000008,-0.000015,0.425987,0.000023,
2146,2188,-2.36717768628356,-9.9808809256931,0.0281252581497142,0.004398,0.001439,-0.004700,0.216462,0.046791,328.785716,24.100308,0.999378,0.954839,0.007068,0.417334,-0.000008,0.000007,0.000023,0.000024,-0.000025,54.301804,0.000028,
2206,2518,-1.11918758008385,-2.76294157953123,-0.0228438195574654,0.004044,0.001376,-0.004689,0.201161,0.057627,322.824086,24.170875,0.999322,0.987987,0.004419,0.460244,-0.000004,0.000008,0.000008,0.000012,-0.000007,64.372885,0.000012,
2161,2548,-2.10383347294182,-2.109193124821,-0.0252859570928194,0.003951,0.000980,-0.001257,0.185875,0.061708,322.445280,24.295483,0.999146,0.986836,0.004421,0.446578,0.000006,0.000006,0.000019,0.000025,-0.000013,45.561766,0.000025,
2311,3043,1.07239666421031,8.66598455369609,0.0131776814662317,0.004023,0.000785,0.001129,0.181692,0.051701,314.379621,25.195664,0.999567,0.991691,0.003634,0.357780,-0.000007,-0.000023,0.000008,-0.000004,-0.000026,22.352163,0.000033,
2356,2758,2.10077184749352,2.47498648944747,-0.0318351879557213,0.003782,0.001365,-0.001327,0.179096,0.087880,318.633380,24.576342,0.999472,0.989946,0.003837,0.430671,-0.000011,-0.000011,-0.000002,-0.000009,-0.000013,-42.796871,0.000022,
2191,2563,-1.4529600653587,-1.78268539802065,-0.0105978330666971,0.003736,0.001289,-0.001115,0.175687,0.075116,322.215552,24.257026,0.999465,0.989644,0.004018,0.465807,0.000001,0.000007,0.000010,0.000014,-0.000006,52.803346,0.000014,
2386,2953,2.71762560791143,6.717242616876,-0.0103753840495528,0.003844,0.000808,0.001387,0.172083,0.040498,315.637838,25.168798,0.999306,0.988518,0.004226,0.363283,-0.000007,-0.000035,-0.000008,-0.000005,-0.000038,-15.449893,0.000047,
2131,2398,-2.72984944442843,-5.38518155947511,-0.000437750961509664,0.004114,0.001485,-0.007125,0.210814,0.061616,325.218006,24.309368,0.998483,0.984152,0.005056,0.410113,0.000002,-0.000006,-0.000001,0.000002,-0.000006,-8.208438,0.000006,
2431,3268,3.63504358159862,13.5589416421144,0.00110119993485114,0.003890,0.000395,0.001094,0.175212,0.023478,310.623607,26.330517,0.999699,0.993089,0.003349,0.317949,0.000010,-0.000012,0.000004,0.000011,-0.000013,10.164583,0.000014,
2101,2158,-3.34547351564114,-10.6353945901753,0.0219433779743099,0.003106,0.000384,0.004785,0.128700,0.046937,329.318666,24.434093,0.998863,0.982433,0.005387,0.306455,-0.000003,-0.000004,0.000014,0.000011,-0.000018,43.860581,0.000018,
2296,3013,0.750829037157736,8.01413702506429,0.00155157834154807,0.003720,0.000821,0.001946,0.165054,0.063120,314.769945,25.066154,0.999133,0.987490,0.004286,0.391660,-0.000009,-0.000031,0.000005,-0.000008,-0.000032,11.955219,0.000042,
2311,2533,1.16446796866041,-2.4335664303502,-0.0161724872389186,0.003847,0.001174,-0.003465,0.188889,0.054152,322.444236,24.036560,0.999426,0.987987,0.004237,0.424575,-0.000011,-0.000015,-0.000009,-0.000004,-0.000021,-38.183774,0.000027,
2086,2293,-3.69429448137853,-7.6789175669905,-0.00446834529469697,0.003366,0.000937,0.000086,0.154665,0.057286,327.025918,24.480666,0.999662,0.991491,0.004022,0.366009,0.000008,-0.000006,0.000018,0.000020,-0.000019,34.591357,0.000023,
2281,2908,0.442707899782679,5.73357254337684,-0.0214642112437673,0.003848,0.001088,-0.000925,0.180665,0.068858,316.324589,24.833200,0.999715,0.993017,0.003288,0.395955,-0.000001,-0.000018,0.000011,0.000005,-0.000023,26.321709,0.000025,
2221,2593,-0.805744847249887,-1.12616855811793,-0.0262694734062165,0.004355,0.001159,-0.003057,0.210436,0.072508,321.550558,24.265387,0.999211,0.986661,0.004455,0.451283,-0.000002,-0.000014,-0.000003,-0.000002,-0.000014,-12.062808,0.000017,
2506,2353,5.45536097010717,-6.36630972413746,0.00557295886437714,0.004040,0.001533,-0.007548,0.214748,0.066543,325.807565,22.968453,0.999213,0.985360,0.005150,0.407637,-0.000004,0.000049,0.000026,0.000060,-0.000015,67.563864,0.000062,
2056,2203,-4.33284167325085,-9.646929425115,-0.00441070754612838,0.003930,0.001616,-0.005689,0.196929,0.059916,328.673316,24.648718,0.998688,0.980969,0.005461,0.340210,0.000004,0.000002,0.000016,0.000019,-0.000013,42.832003,0.000019,
2311,3283,1.02723130992158,13.8719069800972,0.00440966832502454,0.003906,0.000777,-0.000782,0.183022,0.041670,310.375860,25.650984,0.999628,0.993797,0.003019,0.388212,-0.000002,-0.000010,0.000011,0.000005,-0.000018,34.566907,0.000018,
2041,3298,-4.82588203476937,14.1703905711692,0.0295221152479712,0.003933,0.000831,0.000937,0.179395,0.052357,311.272253,24.151058,0.999533,0.994951,0.003092,0.369577,-0.000022,-0.000015,-0.000042,0.000023,-0.000060,-47.273530,0.000061,
2311,2578,1.15515021505302,-1.44952662990537,-0.028114875153733,0.003874,0.001254,-0.001241,0.182643,0.074930,321.607322,24.214429,0.999478,0.990728,0.003919,0.367036,-0.000012,-0.000003,-0.000007,0.000001,-0.000016,-61.590619,0.000018,
2206,2758,-1.16099785746945,2.46729194063685,-0.0224982767659299,0.003786,0.001047,0.000368,0.173461,0.068373,318.906332,24.519961,0.999480,0.990305,0.003914,0.397872,-0.000003,-0.000030,-0.000001,-0.000003,-0.000030,-2.324889,0.000037,
2176,2323,-1.73845342572175,-7.02271564399547,-0.0109266156147783,0.003832,0.001914,-0.010582,0.209310,0.075866,326.172075,24.072322,0.998656,0.982546,0.005274,0.453892,-0.000004,-0.000024,-0.000002,-0.000004,-0.000024,-6.293902,0.000030,
2236,2953,-0.541485743447311,6.70731206324318,-0.00360377249120347,0.004177,0.000944,0.000259,0.191877,0.053317,315.833111,24.823282,0.999413,0.992299,0.003685,0.364422,-0.000010,-0.000007,0.000004,-0.000004,-0.000013,55.359234,0.000018,
2086,2113,-3.66497371773762,-11.619174990232,0.00770172470646457,0.003952,0.000858,-0.003045,0.190376,0.039186,330.055726,24.517210,0.998751,0.983337,0.005248,0.290723,0.000004,-0.000009,0.000017,0.000016,-0.000021,34.887630,0.000022,
2176,2623,-1.79009312151892,-0.47343986660745,-0.0275785656801304,0.004066,0.001054,-0.002475,0.195060,0.054238,321.168342,24.374109,0.999533,0.988225,0.004174,0.402058,-0.000004,-0.000025,0.000002,-0.000004,-0.000025,5.136756,0.000032,
2116,2368,-3.052272297727,-6.03998852961116,-0.00561056725615572,0.004043,0.000952,-0.002126,0.192363,0.053412,325.704616,24.358932,0.999076,0.984788,0.004902,0.388064,0.000004,-0.000002,-0.000001,0.000004,-0.000002,-7.914194,0.000004,
2431,3283,3.63214712760197,13.884130913043,-0.00329155215126775,0.004174,0.000660,-0.000721,0.195112,0.032040,310.360100,26.343270,0.999785,0.994032,0.003114,0.362197,0.000011,-0.000019,0.000002,0.000011,-0.000019,4.456072,0.000019,
2251,2983,-0.220747552498839,7.35979599538378,0.00230497240534078,0.004084,0.000943,0.001041,0.185069,0.073183,315.354660,24.910640,0.999541,0.992548,0.003605,0.378133,-0.000010,-0.000019,0.000009,-0.000004,-0.000025,33.107499,0.000031,
2476,2173,4.83742427528253,-10.3100228402282,0.0167179403215982,0.004178,0.001307,-0.000904,0.195102,0.084810,328.708354,22.453929,0.997896,0.965124,0.006974,0.340262,-0.000011,-0.000038,0.000004,-0.000010,-0.000038,7.579972,0.000051,
2236,2728,-0.503247953075299,1.8158051514059,-0.0269594398656636,0.004222,0.001137,-0.002740,0.203531,0.060651,319.311821,24.482591,0.999230,0.989115,0.004067,0.399219,-0.000003,-0.000036,-0.000004,-0.000002,-0.000037,-7.227824,0.000044,
2491,2278,5.14291865482002,-8.00790994521041,0.00637215750822406,0.004032,0.001281,-0.003748,0.199432,0.058487,326.968737,22.795222,0.999189,0.980450,0.005198,0.322120,-0.000006,-0.000002,0.000025,0.000021,-0.000030,47.095878,0.000031,
2416,3118,3.34024748192964,10.3024542278521,0.0174577196416408,0.004093,0.000677,0.000729,0.186010,0.051520,313.213370,25.789419,0.999835,0.995178,0.003023,0.340677,0.000016,-0.000005,0.000002,0.000017,-0.000005,5.160342,0.000017,
2281,3148,0.402261929531964,10.9412594071862,0.02434976355039,0.003888,0.000795,0.001610,0.174088,0.054161,312.781584,25.241536,0.999493,0.993135,0.003718,0.403341,-0.000005,-0.000023,-0.000001,-0.000005,-0.000023,-1.751223,0.000029,
2131,2203,-2.69919760782661,-9.64909028420631,0.00544982218337964,0.003581,0.000669,0.000986,0.161601,0.047284,328.359438,24.246528,0.998581,0.979586,0.005514,0.357863,0.000000,0.000012,0.000026,0.000033,-0.000021,51.551717,0.000033,
2326,2653,1.46761291861282,0.186329367051016,-0.035355948566405,0.004023,0.001193,-0.003116,0.196072,0.068417,320.333857,24.319702,0.999432,0.989822,0.003999,0.411109,-0.000010,-0.000013,-0.000009,-0.000002,-0.000021,-40.140656,0.000026,
2146,2353,-2.39646627054689,-6.36785457744382,-0.00432080257036205,0.004131,0.001266,-0.003737,0.201461,0.062746,325.842305,24.220062,0.999353,0.986430,0.004543,0.426253,-0.000004,-0.000021,-0.000004,-0.000003,-0.000022,-11.454898,0.000027,
2161,2383,-2.07592439861788,-5.71109342873054,-0.0137384594455057,0.003806,0.000890,-0.001047,0.178323,0.047816,325.200914,24.222939,0.999017,0.987769,0.004476,0.379800,-0.000004,0.000001,0.000000,0.000001,-0.000004,85.165237,0.000004,
2461,2143,4.51485997277191,-10.9678525115102,0.0100870209820414,0.003901,0.001087,-0.001752,0.185480,0.057485,329.091620,22.376355,0.999035,0.976212,0.005903,0.356582,-0.000004,-0.000027,0.000014,0.000002,-0.000033,24.770335,0.000037,
2191,2743,-1.48367031180307,2.14002674631354,-0.0204528318021744,0.004312,0.001213,-0.001220,0.202714,0.066999,319.240264,24.500998,0.999452,0.990484,0.003917,0.393875,-0.000001,-0.000036,-0.000003,-0.000001,-0.000036,-4.920957,0.000042,
2086,2308,-3.69667480367676,-7.35081284167062,-0.00982325887787283,0.003536,0.001043,-0.001686,0.167648,0.044281,326.752907,24.460659,0.999439,0.988778,0.004482,0.374082,0.000007,-0.000016,0.000008,0.000010,-0.000019,16.539862,0.000019,
2386,2968,2.71462208971726,7.04403413960612,-0.0156063391674479,0.003972,0.000780,-0.000913,0.186296,0.045493,315.362763,25.238025,0.999567,0.990861,0.003895,0.341842,-0.000008,-0.000033,-0.000005,-0.000007,-0.000034,-11.297340,0.000043,
2311,3058,1.06953826553386,8.99128258292586,0.0141383620149327,0.003860,0.000942,0.001002,0.174698,0.061134,314.135553,25.187300,0.999690,0.993425,0.003317,0.406825,-0.000007,-0.000027,0.000006,-0.000005,-0.000029,14.703487,0.000037,
2266,3058,0.0919252721392603,8.9885643406296,0.00888970930782307,0.003795,0.001154,-0.001569,0.180445,0.061895,314.153280,25.056116,0.999471,0.992272,0.003615,0.384957,-0.000004,-0.000038,-0.000002,-0.000004,-0.000038,-3.263590,0.000046,
2341,2773,1.77280950144039,2.799412202201,-0.0145265671620791,0.003923,0.000743,0.001099,0.176811,0.056591,318.532660,24.637314,0.999635,0.992348,0.003551,0.367782,-0.000008,-0.000019,-0.000005,-0.000006,-0.000021,-22.731300,0.000028,
2101,2308,-3.36907389040409,-7.35170540194313,-0.000822442161165782,0.003968,0.001071,-0.002352,0.189463,0.057545,326.777006,24.393470,0.999012,0.983004,0.005402,0.395050,0.000010,-0.000018,0.000008,0.000012,-0.000020,14.752770,0.000020,
2296,3268,0.704997477295834,13.5450002948405,0.01312264012887,0.003853,0.000714,0.000904,0.174867,0.046613,310.702097,25.540810,0.999628,0.992288,0.003413,0.389980,0.000009,-0.000013,0.000015,0.000016,-0.000021,27.017934,0.000022,
2506,2368,5.45221240559213,-6.03846143456509,0.00267431377420735,0.004335,0.001724,-0.006514,0.224377,0.077523,325.550033,22.951878,0.998611,0.980150,0.005827,0.498360,-0.000001,0.000027,0.000021,0.000039,-0.000013,61.993208,0.000039,
2491,2293,5.1394122103811,-7.6804650489028,0.00723450516642288,0.003781,0.000845,-0.000863,0.176717,0.048610,326.710863,22.773859,0.999200,0.981851,0.005077,0.394518,-0.000010,0.000007,0.000030,0.000030,-0.000032,52.983090,0.000036,
2296,3028,0.749222552993807,8.33994826884784,0.00205987155374032,0.004441,0.001185,-0.003293,0.216127,0.066392,314.580067,25.100613,0.999316,0.989220,0.003997,0.389634,-0.000006,-0.000032,0.000003,-0.000006,-0.000032,7.596771,0.000041,
2221,2833,-0.847255988221921,4.09849976169982,-0.0170179245045006,0.004050,0.000699,-0.001234,0.190654,0.043260,317.710474,24.585555,0.999423,0.990513,0.003875,0.408387,0.000005,-0.000015,0.000015,0.000013,-0.000023,28.006702,0.000023,
2371,2878,2.40536188860222,5.0865092006818,-0.0177913506502136,0.003773,0.000829,-0.001437,0.178858,0.030309,316.798928,24.988529,0.999504,0.993405,0.003508,0.294636,-0.000016,-0.000014,-0.000008,-0.000007,-0.000023,-48.086821,0.000031,
2116,2143,-3.01544993077114,-10.9626225808202,0.00704004068080621,0.004295,0.001407,-0.003519,0.207901,0.054661,329.446500,24.314090,0.998248,0.978513,0.006028,0.347170,-0.000016,0.000002,0.000014,0.000010,-0.000024,61.312987,0.000024,
2191,2578,-1.45567374532995,-1.45594380271167,-0.0143195907499489,0.003879,0.000905,-0.000267,0.179474,0.051574,321.945684,24.234788,0.999534,0.990741,0.003796,0.479820,-0.000002,0.000001,0.000006,0.000006,-0.000006,51.985607,0.000007,
2431,3298,3.6282124479103,14.2092505456766,-0.0117055123923251,0.003791,0.000864,-0.001957,0.182133,0.035100,310.029898,26.337936,0.999783,0.994194,0.003040,0.419100,0.000011,-0.000021,-0.000004,0.000012,-0.000022,-7.336007,0.000022,
2146,2473,-2.4171346040904,-3.74578565652634,-0.0135039072195013,0.003727,0.001803,-0.002822,0.180482,0.098056,323.806854,24.321968,0.999225,0.986139,0.004987,0.435223,0.000004,-0.000009,0.000007,0.000006,-0.000012,23.175185,0.000012,
2071,2248,-4.0129511034134,-8.6641108628974,0.00470236148777303,0.003792,0.000692,0.000040,0.174268,0.061421,327.922858,24.522889,0.998930,0.984786,0.004776,0.391208,-0.000008,0.000025,0.000010,0.000028,-0.000010,73.997803,0.000028,
2281,2923,0.440550107228638,6.05862146698369,-0.0112316432398529,0.004071,0.000472,0.004653,0.172035,0.055330,316.157383,24.856229,0.999653,0.992642,0.003471,0.386483,-0.000003,-0.000017,0.000008,0.000001,-0.000021,24.854318,0.000024,
2311,3298,1.02407160854807,14.1968838302443,-0.00240754926738873,0.003935,0.000996,-0.002232,0.189461,0.050443,310.078851,25.633044,0.999660,0.994338,0.002954,0.445633,-0.000011,-0.000005,0.000012,0.000005,-0.000021,51.058895,0.000022,
2176,2428,-1.75618536636531,-4.7277846238099,-0.0137281749331919,0.004275,0.001230,-0.003653,0.208116,0.062461,324.452421,24.229921,0.999011,0.985911,0.004792,0.381019,-0.000005,-0.000017,-0.000002,-0.000004,-0.000017,-9.595883,0.000023,
2311,2593,1.15292271479588,-1.12395775557917,-0.0194017043717167,0.003783,0.001124,-0.000774,0.176834,0.070944,321.431535,24.180937,0.999583,0.991314,0.003749,0.429564,-0.000010,-0.000014,-0.000008,-0.000004,-0.000020,-38.402911,0.000026,
2176,2638,-1.79252204623849,-0.147008223342588,-0.0273885189628231,0.004175,0.000885,-0.002049,0.198680,0.045065,320.930621,24.362870,0.999624,0.990107,0.003956,0.416884,-0.000005,-0.000029,0.000000,-0.000005,-0.000029,0.603773,0.000036,
2266,2848,0.12789381733435,4.42760034127559,-0.0164046493064802,0.004097,0.000749,0.002526,0.180499,0.063582,317.367405,24.695203,0.999573,0.992051,0.003700,0.398512,0.000003,-0.000020,0.000011,0.000007,-0.000024,21.607248,0.000025,
2251,2773,-0.185379354634758,2.79550813138552,-0.0237760294630789,0.003824,0.001072,-0.000536,0.178060,0.051252,318.550789,24.546083,0.999262,0.988178,0.004223,0.399082,0.000000,-0.000026,0.000001,0.000000,-0.000026,2.149787,0.000030,
2101,2323,-3.37084913347112,-7.02406563906052,0.00265696530840387,0.004137,0.001404,-0.005283,0.205904,0.054448,326.580764,24.414028,0.999208,0.986474,0.004768,0.374708,0.000008,-0.000021,0.000000,0.000008,-0.000021,-0.009389,0.000021,
2176,2338,-1.74189721693986,-6.69440668507691,-0.0100431358916921,0.003494,0.000691,-0.000850,0.163278,0.052081,325.891482,24.156388,0.999073,0.985269,0.004846,0.360321,-0.000003,-0.000024,-0.000004,-0.000002,-0.000025,-11.399086,0.000030,
2491,2308,5.13625541263083,-7.35106869453639,0.00708638404353223,0.003583,0.001098,-0.002669,0.174692,0.052382,326.464146,22.912269,0.998801,0.980110,0.005439,0.320978,-0.000010,0.000020,0.000021,0.000031,-0.000021,62.482297,0.000032,
2101,2173,-3.34770779967487,-10.3060168734168,0.00981651360973501,0.003656,0.000429,-0.000414,0.169138,0.033332,329.017096,24.407245,0.998862,0.983533,0.005220,0.324065,-0.000005,-0.000004,0.000020,0.000015,-0.000024,45.222915,0.000024,
2311,2803,1.11412728752011,3.45106951436303,-0.020948097125995,0.003929,0.000672,0.000958,0.177723,0.056823,318.005422,24.643350,0.999487,0.991733,0.003756,0.408261,-0.000012,-0.000028,0.000006,-0.000009,-0.000031,18.617725,0.000042,
2326,3118,1.38498083747632,10.2948431152253,0.0171777538970446,0.004101,0.001214,-0.003241,0.200554,0.062149,313.194971,25.390989,0.999409,0.992339,0.003616,0.389090,0.000003,-0.000019,0.000000,0.000003,-0.000019,0.538682,0.000021,
2401,3088,3.0198567229776,9.65007231494141,0.0132837026786206,0.004119,0.000913,-0.000529,0.191812,0.046807,313.659590,25.637095,0.999572,0.991174,0.003737,0.339162,0.000009,-0.000016,-0.000009,0.000012,-0.000019,-18.216875,0.000019,
2506,2383,5.44864593338601,-5.70905121175729,0.00156405915032565,0.004187,0.001641,-0.004183,0.208576,0.054696,325.281118,23.134971,0.998597,0.980189,0.005546,0.355066,-0.000006,0.000023,0.000008,0.000025,-0.000008,75.414054,0.000025,
2446,1993,4.21783404806927,-14.261255799048,0.0178895912277994,0.003728,0.001398,-0.005483,0.191319,0.040883,331.549187,21.991400,0.999240,0.977046,0.005756,0.254417,0.000020,0.000019,0.000034,0.000054,-0.000015,44.568215,0.000055,
2206,2533,-1.12119222496659,-2.4351186292272,-0.0178362069503351,0.004093,0.001840,-0.007150,0.211366,0.064471,322.632747,24.281383,0.999479,0.988918,0.004194,0.374122,-0.000004,0.000004,0.000006,0.000007,-0.000008,60.591729,0.000008,
2356,2773,2.09840362860801,2.80159017869591,-0.0273967880033297,0.003764,0.001389,-0.003321,0.185285,0.081930,318.432377,24.654946,0.999510,0.990641,0.003716,0.384755,-0.000012,-0.000015,-0.000008,-0.000005,-0.000022,-39.400925,0.000029,
2386,2983,2.71222964082208,7.36893892387865,-0.00660614531847159,0.003942,0.000576,0.001303,0.176903,0.050950,315.183989,25.235365,0.999551,0.990199,0.004036,0.392612,-0.000005,-0.000030,-0.000004,-0.000004,-0.000030,-8.717442,0.000038,
2311,2548,1.16122042820418,-2.10591608273639,-0.0171202068677871,0.003811,0.001033,0.001647,0.169814,0.075333,322.173762,24.069956,0.999181,0.985169,0.004782,0.445521,-0.000009,-0.000016,-0.000004,-0.000007,-0.000018,-24.050837,0.000026,
2131,2218,-2.70180909326217,-9.32024358343297,0.00523912341157029,0.003356,0.001123,0.000548,0.152781,0.068112,328.107254,24.280911,0.998434,0.978746,0.005601,0.352568,-0.000001,0.000010,0.000026,0.000031,-0.000022,51.162950,0.000032,
2161,2563,-2.10572379491812,-1.78227981412758,-0.0192757402956545,0.003987,0.001321,-0.003651,0.194981,0.072538,322.261569,24.335716,0.999084,0.986266,0.004518,0.428019,0.000011,0.000005,0.000016,0.000024,-0.000008,39.420306,0.000025,
2326,2878,1.42717805109955,5.08272510629622,-0.0167455609691274,0.004091,0.000858,-0.002718,0.197890,0.037103,316.829530,24.806822,0.999585,0.990708,0.003835,0.409571,-0.000013,-0.000020,0.000002,-0.000013,-0.000020,16.860729,0.000033,
2131,2413,-2.73357359529473,-5.0553883179931,-0.0142775593510009,0.004045,0.001386,-0.002231,0.193027,0.086590,324.842024,24.364115,0.998914,0.985925,0.004871,0.388152,0.000004,-0.000013,-0.000002,0.000004,-0.000013,-6.178503,0.000013,
2191,2758,-1.48622697767155,2.46627592181444,-0.0193054813959179,0.004256,0.001080,-0.000930,0.199175,0.062962,319.002731,24.511606,0.999487,0.991201,0.003719,0.393701,-0.000003,-0.000033,-0.000003,-0.000003,-0.000034,-6.179784,0.000041,
2116,2383,-3.05490403808373,-5.7129525495081,-0.00872269628371214,0.003990,0.000743,-0.002254,0.190255,0.030946,325.435221,24.300126,0.999163,0.985205,0.004788,0.429839,0.000006,-0.000001,0.000002,0.000007,-0.000002,17.505638,0.000007,
2296,3283,0.702029902807759,13.8703161735136,0.00666159208486761,0.003940,0.000785,-0.001655,0.187603,0.046692,310.414384,25.559734,0.999541,0.992068,0.003405,0.400042,0.000008,-0.000011,0.000015,0.000016,-0.000019,29.024553,0.000021,
2311,2608,1.15029749327564,-0.796685181984635,-0.0196009413387515,0.004022,0.001180,0.000420,0.183808,0.081989,321.193222,24.215619,0.999610,0.991184,0.003722,0.438672,-0.000011,-0.000020,-0.000006,-0.000009,-0.000023,-26.481889,0.000033,
2251,2998,-0.223381853620257,7.6846018494933,0.00535544535955523,0.003958,0.000810,0.001779,0.176762,0.050462,315.127630,24.886967,0.999559,0.991790,0.003684,0.401503,-0.000011,-0.000023,0.000005,-0.000010,-0.000025,18.827202,0.000036,
2461,2158,4.51216959638872,-10.6385646393192,0.0134999819733821,0.004115,0.001327,0.000021,0.188713,0.090354,328.880649,22.460628,0.999110,0.975220,0.005852,0.362334,-0.000008,-0.000041,0.000002,-0.000008,-0.000042,2.577117,0.000053,
2506,2398,5.44441149967213,-5.3803130361276,-0.00857423230365839,0.004112,0.000801,-0.002109,0.196774,0.028602,324.941282,23.178586,0.998622,0.982353,0.005244,0.348485,-0.000007,0.000015,0.000016,0.000023,-0.000015,62.172753,0.000023,
2281,3163,0.3995519641832,11.2669332108876,0.0263934139767912,0.003896,0.000582,0.003382,0.168411,0.042833,312.547322,25.320946,0.999509,0.992139,0.003658,0.339042,-0.000004,-0.000019,0.000005,-0.000002,-0.000020,15.763292,0.000025,
2206,2773,-1.16347898331019,2.7940908088476,-0.0236736588079225,0.003706,0.001149,-0.003502,0.182098,0.059827,318.661197,24.572147,0.999483,0.990169,0.004001,0.353887,-0.000001,-0.000028,-0.000001,-0.000001,-0.000028,-1.390568,0.000033,
2326,1993,1.59464026397889,-14.2585486543224,0.0240677855538252,0.004272,0.001076,-0.002918,0.205870,0.042380,331.508643,22.836973,0.997996,0.972833,0.006540,0.262296,0.000004,0.000021,-0.000024,0.000038,-0.000013,-54.943851,0.000039,
2416,3133,3.33715922667622,10.6266939441897,0.0180083246925165,0.003940,0.000698,0.001181,0.177362,0.061037,312.964099,25.701545,0.999859,0.995235,0.002935,0.484826,0.000020,-0.000006,-0.000001,0.000020,-0.000006,-1.385170,0.000021,
2311,3073,1.06712293011887,9.31721572923638,0.0190042303867131,0.003810,0.000882,0.000302,0.174762,0.052191,313.930907,25.284701,0.999699,0.994499,0.003127,0.331655,-0.000005,-0.000024,0.000004,-0.000004,-0.000025,10.061334,0.000031,
2086,2323,-3.69828199645619,-7.02335816798568,-0.00919720829898552,0.004272,0.000992,-0.000771,0.198818,0.062073,326.547690,24.415544,0.999269,0.987700,0.004591,0.437813,0.000006,-0.000020,0.000001,0.000006,-0.000020,1.430945,0.000021,
2146,2368,-2.39910507601429,-6.03990423460434,-0.00493598556391817,0.004095,0.001044,-0.001981,0.194459,0.059565,325.588189,24.245089,0.999093,0.987179,0.004496,0.407743,-0.000002,-0.000002,-0.000002,0.000000,-0.000004,-45.898010,0.000005,
2341,2788,1.77008166564834,3.12611993626894,-0.0157149825103033,0.004040,0.001113,0.000267,0.185247,0.076055,318.286710,24.659211,0.999685,0.993376,0.003392,0.402112,-0.000005,-0.000013,0.000000,-0.000005,-0.000013,-2.960998,0.000019,
2266,3073,0.0899380477144973,9.31343993505299,0.0183938373419323,0.003745,0.001214,-0.002667,0.181745,0.040140,313.989334,25.098283,0.999302,0.991360,0.003861,0.345641,-0.000003,-0.000034,-0.000004,-0.000003,-0.000035,-7.189416,0.000042,
2206,2548,-1.124256624844,-2.10738219581596,-0.0239109303516329,0.004049,0.001629,-0.006754,0.208054,0.069999,322.335692,24.291260,0.999582,0.990501,0.003896,0.387457,-0.000003,0.000003,0.000010,0.000011,-0.000011,53.820976,0.000013,
2146,2488,-2.42002422994841,-3.41878745492529,-0.0173025997750074,0.003782,0.000906,0.000751,0.171929,0.074722,323.524603,24.291455,0.999184,0.986020,0.004826,0.451586,0.000000,0.000002,0.000002,0.000004,-0.000002,59.027590,0.000004,
2176,2653,-1.7958652002415,0.181072704130727,-0.0379665486614158,0.004066,0.000934,-0.002208,0.194206,0.048464,320.594178,24.404841,0.999620,0.990129,0.003998,0.391183,-0.000006,-0.000026,0.000000,-0.000006,-0.000026,0.983367,0.000033,
2371,2893,2.40287117892609,5.41161679772236,-0.0142816694374233,0.003798,0.001046,-0.002414,0.183656,0.046450,316.588770,24.932449,0.999500,0.991797,0.003699,0.407727,-0.000015,-0.000017,-0.000006,-0.000010,-0.000023,-39.893053,0.000033,
2476,2188,4.83479916194111,-9.98136765603027,0.0170955582464103,0.004230,0.001308,-0.005208,0.213771,0.054103,328.488050,22.521775,0.998428,0.967594,0.006845,0.300973,0.000000,-0.000039,0.000005,0.000000,-0.000040,7.854659,0.000045,
2221,2848,-0.850483643929895,4.42544247906243,-0.0205809504272452,0.003836,0.000793,0.000833,0.174290,0.071156,317.419748,24.619210,0.999287,0.990598,0.003839,0.421489,0.000001,-0.000016,0.000015,0.000010,-0.000024,30.362387,0.000024,
2341,3193,1.69711681918681,11.922410116479,0.0275927538357337,0.004085,0.000632,0.000834,0.185492,0.038041,312.032967,25.636819,0.999661,0.993640,0.003391,0.356283,0.000011,-0.000001,0.000007,0.000014,-0.000004,23.917161,0.000014,
2221,2608,-0.808529825917013,-0.799045586963061,-0.0299165891665893,0.004368,0.001270,-0.003880,0.213674,0.060071,321.280224,24.279261,0.999027,0.983682,0.004832,0.444655,-0.000002,-0.000019,0.000000,-0.000002,-0.000019,-0.017711,0.000023,
2341,2038,1.91258852162924,-13.2700052762315,0.0103432855284495,0.003753,0.001227,-0.003764,0.185292,0.044788,330.647992,22.764392,0.999148,0.979945,0.005503,0.352602,0.000012,-0.000013,-0.000001,0.000012,-0.000013,-1.823018,0.000014,
2266,2863,0.126144739779473,4.75250726851172,-0.00275744342030748,0.004005,0.000754,0.001894,0.178343,0.056504,317.235531,24.709160,0.999736,0.993871,0.003447,0.402592,0.000002,-0.000018,0.000006,0.000004,-0.000019,15.844403,0.000021,
2341,2953,1.74007175561736,6.71424535745503,-0.0078357874140238,0.004230,0.001045,-0.002742,0.204582,0.043840,315.681419,25.070721,0.999332,0.990911,0.003816,0.357707,-0.000009,-0.000033,-0.000002,-0.000009,-0.000033,-4.850762,0.000044,
2161,2398,-2.07715508144409,-5.38440415399589,-0.00968699383457761,0.004323,0.001630,-0.007730,0.222785,0.056296,325.037207,24.176439,0.999016,0.986704,0.004602,0.446556,-0.000006,-0.000004,-0.000003,-0.000002,-0.000008,-55.065564,0.000010,
2101,2338,-3.37347747681597,-6.69602377337065,-0.00382021470073823,0.004263,0.001364,-0.005525,0.212425,0.044696,326.291798,24.384759,0.999284,0.988115,0.004488,0.397580,0.000008,-0.000017,-0.000001,0.000008,-0.000017,-1.466472,0.000017,
2506,2413,5.44198908023493,-5.05280669912349,-0.0045143128552354,0.004162,0.001478,-0.005544,0.212630,0.036744,324.747893,23.216249,0.999038,0.983655,0.005116,0.381466,-0.000009,0.000004,0.000024,0.000022,-0.000027,52.792008,0.000029,
2326,2008,1.59211964700124,-13.9291679622939,0.026150974938389,0.004108,0.001671,-0.006278,0.210151,0.062429,331.288939,22.872785,0.998202,0.973441,0.006559,0.284630,0.000010,0.000011,-0.000012,0.000022,-0.000001,-46.828828,0.000025,
2386,2998,2.71006937183076,7.69430824025493,0.00145581973873732,0.004067,0.000664,0.001587,0.181631,0.040631,315.011273,25.287700,0.999583,0.990485,0.003907,0.372302,-0.000002,-0.000029,-0.000007,0.000000,-0.000030,-13.495314,0.000035,
2311,2818,1.1114845223546,3.77807506566432,-0.0202941048670482,0.004002,0.000950,0.000879,0.181394,0.051858,317.769960,24.740072,0.999541,0.990357,0.003880,0.338659,-0.000013,-0.000031,0.000008,-0.000010,-0.000034,19.941082,0.000046,
2296,3298,0.698248560849148,14.1964765934619,-0.00762577051693825,0.004198,0.000843,0.001254,0.189639,0.053689,310.049844,25.612350,0.999686,0.993860,0.003183,0.382598,0.000001,-0.000007,0.000017,0.000014,-0.000021,38.072194,0.000021,
2356,2788,2.09592590080112,3.12765935919654,-0.0243982557574896,0.003849,0.001474,-0.003945,0.191453,0.089990,318.219458,24.663109,0.999724,0.993373,0.003392,0.423557,-0.000009,-0.000011,-0.000004,-0.000006,-0.000014,-35.591239,0.000021,
2086,2128,-3.66771193030273,-11.2893923732685,-0.00152708763442888,0.004038,0.001088,-0.004105,0.197428,0.050593,329.744949,24.515932,0.998922,0.984975,0.005071,0.306234,0.000000,-0.000014,0.000021,0.000015,-0.000029,35.799017,0.000029,
2116,2398,-3.05722020091875,-5.38482688855434,-0.0114586072646716,0.004038,0.001077,-0.005445,0.201982,0.043978,325.181888,24.314527,0.998967,0.985324,0.004815,0.433628,0.000003,-0.000005,-0.000002,0.000004,-0.000005,-9.863320,0.000006,
2101,2188,-3.34994717869762,-9.97729592037556,0.00751474103071814,0.004032,0.000739,0.001614,0.180596,0.068096,328.768071,24.382745,0.998830,0.983214,0.005285,0.387335,-0.000003,0.000014,0.000025,0.000032,-0.000021,54.146255,0.000033,
2446,2008,4.21591459348764,-13.9343023113816,0.0290158890053362,0.003965,0.001203,-0.004588,0.198760,0.048905,331.408676,21.922428,0.999189,0.977017,0.005891,0.386664,0.000010,0.000008,0.000039,0.000048,-0.000031,44.128698,0.000049,
2326,2668,1.46490918695117,0.513793307116487,-0.0326850785901343,0.003858,0.001080,-0.003823,0.190893,0.056072,320.106956,24.439244,0.999663,0.991349,0.003813,0.314010,-0.000010,-0.000010,-0.000010,0.000000,-0.000021,-45.266896,0.000024,
2131,2428,-2.73710923714806,-4.72717866183494,-0.021689082316243,0.003608,0.000980,0.000649,0.164246,0.077162,324.509346,24.375775,0.999265,0.987344,0.004570,0.374662,0.000006,-0.000016,0.000006,0.000007,-0.000017,13.608388,0.000017,
2236,2968,-0.544180798794304,7.03318474002241,-0.00177252750893331,0.004007,0.001330,0.000321,0.184015,0.080861,315.595725,24.831535,0.999445,0.991990,0.003692,0.404171,-0.000013,-0.000014,0.000005,-0.000008,-0.000019,42.885353,0.000028,
2401,3103,3.01735258464703,9.97528573360829,0.0173390591996281,0.003992,0.001266,-0.003335,0.196353,0.059083,313.452558,25.650514,0.999584,0.992486,0.003499,0.382589,0.000015,-0.000012,-0.000004,0.000016,-0.000013,-7.714069,0.000017,
2116,2158,-3.01859441095797,-10.6334843278354,0.00205840848502703,0.003993,0.001064,-0.001206,0.187109,0.046806,329.143277,24.331253,0.998912,0.984157,0.005183,0.328703,-0.000009,-0.000005,0.000016,0.000009,-0.000024,48.603485,0.000024,
2491,2323,5.13287078344935,-7.02203643206951,0.00217886909359777,0.004166,0.000697,0.002805,0.180297,0.086683,326.185426,22.944786,0.998690,0.981847,0.005330,0.383905,-0.000019,0.000033,0.000020,0.000040,-0.000026,70.857751,0.000041,
2071,2263,-4.01487829749696,-8.33564568046925,0.00199294758414226,0.004287,0.000871,-0.000598,0.198866,0.051253,327.683473,24.542312,0.999247,0.986696,0.004630,0.360738,-0.000011,0.000004,0.000008,0.000007,-0.000014,65.828334,0.000014,
2341,2053,1.91100798331719,-12.9423079072831,0.0289127063732622,0.003703,0.001187,-0.001809,0.176172,0.076692,330.552109,22.836076,0.999192,0.980811,0.005319,0.352140,0.000009,-0.000017,-0.000003,0.000010,-0.000018,-7.032605,0.000018,
2251,2788,-0.187754753993989,3.12185153044725,-0.0220979605251728,0.003961,0.000940,-0.000991,0.185821,0.049656,318.328580,24.577009,0.999417,0.988948,0.004116,0.389906,0.000001,-0.000020,0.000004,0.000002,-0.000021,9.352929,0.000023,
2311,3088,1.06456302030165,9.64184727954917,0.023187549546833,0.003887,0.000697,0.002604,0.170294,0.037208,313.716631,25.267215,0.999719,0.995345,0.002984,0.365354,-0.000005,-0.000026,-0.000001,-0.000005,-0.000027,-3.349188,0.000034,
2176,2443,-1.75891832704058,-4.40026624395465,-0.0175740693803164,0.004175,0.001371,-0.005608,0.209628,0.058774,324.179624,24.212058,0.999324,0.986005,0.004690,0.408979,-0.000006,-0.000018,0.000000,-0.000006,-0.000018,-1.681098,0.000026,
2281,3178,0.397544744168261,11.591847339459,0.0298839278657965,0.004165,0.000781,0.000597,0.190206,0.037367,312.352866,25.336538,0.999564,0.992911,0.003402,0.344756,-0.000001,-0.000015,0.000006,0.000001,-0.000018,21.721576,0.000020,
2506,2428,5.43934242361413,-4.72529246529166,-0.000671106099446206,0.004170,0.001410,-0.007111,0.219055,0.042150,324.543170,23.259769,0.998892,0.981934,0.005417,0.405791,-0.000011,-0.000011,0.000024,0.000013,-0.000035,45.440150,0.000036,
2371,2908,2.39968921857788,5.73806264717663,-0.0159416162069874,0.003837,0.000849,0.000386,0.175424,0.050613,316.321663,24.978128,0.999426,0.990055,0.003946,0.406877,-0.000016,-0.000018,-0.000005,-0.000012,-0.000021,-37.732454,0.000034,
2206,2788,-1.16597113100832,3.11986825308234,-0.0251226799331903,0.003961,0.001032,-0.002597,0.190944,0.055034,318.414398,24.529279,0.999236,0.988600,0.004272,0.408634,-0.000001,-0.000025,0.000002,-0.000001,-0.000025,4.836967,0.000029,
2461,2173,4.50924221547006,-10.3094694596653,0.0087703741261862,0.004541,0.001168,-0.000890,0.211571,0.067399,328.621947,22.501541,0.999044,0.977994,0.005587,0.355699,-0.000016,-0.000036,0.000000,-0.000016,-0.000036,-0.265071,0.000053,
2341,3208,1.69475862512266,12.2466717249032,0.0313570706231872,0.004159,0.000790,-0.000601,0.193968,0.036211,311.827545,25.598225,0.999653,0.993428,0.003342,0.428630,0.000011,-0.000002,0.000007,0.000014,-0.000005,22.912553,0.000014,
2296,3043,0.746773930110987,8.66499561783787,0.0127201380397537,0.004241,0.000752,0.000547,0.193799,0.057697,314.402127,25.147483,0.999389,0.989722,0.003928,0.362910,-0.000008,-0.000026,0.000003,-0.000007,-0.000027,10.009582,0.000036,
2281,2938,0.438053271034317,6.38422554647433,-0.0111682175374312,0.004109,0.000704,0.002167,0.182162,0.050886,315.923553,24.852314,0.999591,0.991882,0.003622,0.413107,-0.000002,-0.000016,0.000008,0.000001,-0.000019,24.448980,0.000022,
2416,3148,3.33487098357888,10.9521687689416,0.0270201231227816,0.003857,0.000681,0.000898,0.174527,0.048338,312.790946,25.804907,0.999768,0.994284,0.003093,0.415140,0.000020,-0.000012,0.000001,0.000020,-0.000012,2.039619,0.000020,
2326,2893,1.42417198943387,5.40916342788928,-0.0180285493099746,0.003884,0.000783,-0.003993,0.192766,0.038268,316.568903,24.852671,0.999391,0.989891,0.003942,0.399100,-0.000012,-0.000024,0.000005,-0.000010,-0.000026,20.239095,0.000037,
2236,2743,-0.506176509959776,2.14238123998966,-0.0246918751791441,0.004027,0.000900,0.000896,0.182710,0.061241,319.066159,24.524424,0.998946,0.985866,0.004745,0.379056,-0.000002,-0.000038,-0.000002,-0.000002,-0.000038,-3.730995,0.000045,
2476,2203,4.83126357747688,-9.65265236422622,0.0134908687771258,0.004269,0.000967,-0.002681,0.205879,0.046904,328.207782,22.535272,0.997974,0.968879,0.006748,0.339716,0.000001,-0.000042,0.000007,0.000002,-0.000043,9.246903,0.000049,
2221,2623,-0.811508451135147,-0.471988786720168,-0.0281526811680806,0.004071,0.001006,-0.000983,0.190717,0.061702,321.028689,24.324393,0.999204,0.985378,0.004685,0.420715,-0.000002,-0.000020,-0.000002,-0.000002,-0.000020,-6.154146,0.000025,
2311,2833,1.10961459058873,4.10416815840814,-0.012736450312218,0.004132,0.001112,-0.001850,0.196783,0.053249,317.604203,24.802871,0.999727,0.992274,0.003623,0.309039,-0.000015,-0.000023,0.000010,-0.000008,-0.000029,34.125653,0.000039,
2191,2593,-1.45881941987913,-1.12767872645476,-0.0192950256584936,0.003633,0.000860,-0.000158,0.167882,0.061944,321.648999,24.312828,0.999173,0.987929,0.004285,0.427579,-0.000003,-0.000009,0.000004,-0.000001,-0.000011,29.428609,0.000013,
2326,2023,1.58859898210163,-13.5995026745294,0.0192904221435697,0.004010,0.001538,-0.004493,0.199519,0.054699,330.980085,22.866631,0.998739,0.978667,0.005971,0.321428,0.000007,0.000006,-0.000002,0.000009,0.000004,-35.581881,0.000013,
2341,2068,1.9076752673529,-12.6142673799655,0.0240004678907439,0.003498,0.000791,-0.002323,0.168440,0.041827,330.262953,22.748354,0.998964,0.976630,0.005783,0.445088,0.000007,-0.000007,0.000003,0.000008,-0.000008,10.061433,0.000009,
2446,2023,4.21285033914899,-13.6036936321071,0.0269329235370037,0.004142,0.001154,-0.003978,0.204580,0.050553,331.154945,22.047879,0.999178,0.979056,0.005503,0.318619,0.000014,0.000002,0.000032,0.000040,-0.000024,39.364631,0.000040,
2311,3103,1.06156368039836,9.96796005960945,0.0194977238064666,0.003652,0.000899,-0.001311,0.173098,0.059345,313.442725,25.303113,0.999490,0.993063,0.003491,0.382837,-0.000005,-0.000025,-0.000001,-0.000005,-0.000025,-2.665136,0.000033,
2266,3088,0.0871364162281587,9.63898565002413,0.0176694830084898,0.003648,0.000967,-0.003447,0.179862,0.044882,313.736121,25.113501,0.999557,0.992042,0.003662,0.359725,-0.000002,-0.000039,-0.000007,-0.000001,-0.000040,-9.673456,0.000046,
2506,2443,5.43563331200625,-4.39698755269563,-0.0031993562737398,0.003901,0.001274,-0.005827,0.201743,0.042687,324.261055,23.325519,0.999032,0.982750,0.005207,0.403290,-0.000002,-0.000051,0.000029,0.000011,-0.000064,24.970043,0.000069,
2101,2353,-3.37682583413294,-6.36702461954429,-0.0127749417550262,0.004132,0.000982,-0.001133,0.193497,0.054144,325.956249,24.405732,0.998982,0.984174,0.005018,0.389587,0.000001,-0.000018,-0.000003,0.000002,-0.000019,-8.520421,0.000020,
2356,2803,2.0936097791422,3.4532115773711,-0.0159142655938922,0.003870,0.001244,-0.002010,0.185521,0.078835,318.040533,24.689102,0.999837,0.994839,0.003228,0.425021,-0.000010,-0.000015,-0.000001,-0.000010,-0.000015,-12.694270,0.000025,
2326,3133,1.381576038809,10.6201803562584,0.0153869100106476,0.003712,0.001087,-0.002240,0.179072,0.043208,312.913081,25.417215,0.999198,0.991190,0.003783,0.377133,0.000005,-0.000016,-0.000001,0.000005,-0.000016,-1.473656,0.000017,
2491,2338,5.12925032070534,-6.69221813441782,-0.00225374897553365,0.003433,0.001992,-0.004063,0.173601,0.091227,325.897948,23.089562,0.998971,0.984736,0.005326,0.304615,-0.000021,0.000037,0.000021,0.000044,-0.000028,71.932787,0.000045,
2146,2503,-2.42286401620079,-3.0909707228288,-0.0264855936229083,0.003778,0.000880,-0.002747,0.182293,0.053227,323.215908,24.290525,0.999067,0.984858,0.004893,0.440304,0.000006,0.000004,0.000006,0.000011,-0.000001,41.647967,0.000012,
2161,2578,-2.10880555352089,-1.45524314753182,-0.0230350615619273,0.003848,0.001058,-0.000650,0.179370,0.075097,321.971857,24.314318,0.999106,0.986121,0.004499,0.463120,0.000007,-0.000003,0.000010,0.000013,-0.000010,32.328291,0.000013,
2326,2683,1.46191205342583,0.839902115460987,-0.0316513717336875,0.003798,0.001047,-0.000772,0.177593,0.064707,319.858796,24.404222,0.999742,0.991809,0.003758,0.392474,-0.000010,-0.000006,-0.000011,0.000003,-0.000019,-49.477309,0.000020,
2311,1993,1.26640178382656,-14.2587618200313,0.0304102741915244,0.003639,0.000705,0.000748,0.164248,0.050793,331.526200,22.948531,0.999298,0.979024,0.005993,0.265520,-0.000021,0.000005,-0.000028,0.000023,-0.000039,-57.255045,0.000039,
2191,2773,-1.49012006092542,2.79399373604651,-0.0354522492917795,0.004097,0.000933,0.000003,0.188942,0.068103,318.613477,24.517106,0.999403,0.989853,0.004041,0.408381,-0.000001,-0.000031,-0.000004,-0.000001,-0.000031,-6.709832,0.000037,
2296,3058,0.743733532546425,8.99017287541069,0.011379957072279,0.004022,0.000942,0.000153,0.185148,0.067614,314.137253,25.112393,0.999563,0.992593,0.003515,0.437210,-0.000007,-0.000030,0.000002,-0.000007,-0.000030,4.016949,0.000039,
2176,2668,-1.79749474916116,0.506483955866422,-0.0233414079111753,0.003895,0.001136,-0.003251,0.189715,0.065272,320.468788,24.403932,0.999611,0.992127,0.003643,0.421582,-0.000005,-0.000025,0.000001,-0.000005,-0.000025,3.931233,0.000032,
2446,2038,4.20985472641337,-13.2743828302766,0.0287654744238921,0.004024,0.001416,-0.003734,0.198406,0.069131,330.922216,22.087891,0.999204,0.978434,0.005615,0.353084,0.000010,-0.000018,0.000036,0.000034,-0.000043,34.246811,0.000045,
2341,2803,1.76675955320183,3.45276300442194,-0.0194033937154927,0.003888,0.000635,0.001159,0.174995,0.053915,318.001359,24.702175,0.999587,0.992599,0.003557,0.373510,-0.000007,-0.000018,0.000001,-0.000006,-0.000018,6.963548,0.000026,
2161,2413,-2.08084310775282,-5.05629673855104,-0.00802093757863531,0.003561,0.000646,0.000540,0.162193,0.064096,324.748184,24.242523,0.998921,0.986116,0.004796,0.399913,-0.000002,-0.000009,-0.000004,-0.000001,-0.000011,-22.651876,0.000013,
2371,2923,2.39697176807497,6.0643766207732,-0.011491756055932,0.003734,0.000858,0.001498,0.166766,0.062905,316.105150,25.051547,0.999379,0.989841,0.003993,0.386373,-0.000016,-0.000022,-0.000009,-0.000010,-0.000028,-36.412189,0.000040,
2086,2338,-3.70008944690565,-6.69621132625171,-0.00126520923993212,0.004036,0.001303,-0.004816,0.199725,0.049570,326.373162,24.449364,0.998999,0.985648,0.004819,0.392274,0.000007,-0.000018,0.000000,0.000007,-0.000018,-0.241435,0.000018,
2506,2458,5.43202300469583,-4.06813272988228,-0.00876854009021599,0.004106,0.001322,-0.003179,0.200946,0.069268,323.969652,23.392625,0.999147,0.986091,0.004675,0.425459,0.000009,-0.000073,0.000024,0.000016,-0.000079,15.322242,0.000084,
2341,2083,1.90477753624907,-12.2829092869511,0.0220362705288721,0.003748,0.000654,-0.000020,0.171843,0.063973,330.007247,22.944809,0.999291,0.981197,0.005338,0.310889,0.000005,-0.000008,0.000001,0.000005,-0.000008,4.843817,0.000008,
2131,2233,-2.70334714051316,-8.99217596888254,0.00908762772905902,0.003895,0.000971,-0.000618,0.180946,0.049337,327.926048,24.330623,0.998673,0.980617,0.005421,0.292114,-0.000006,0.000018,0.000022,0.000031,-0.000019,59.458442,0.000031,
2131,2443,-2.7388288007579,-4.40180792866549,-0.0133517907635792,0.003832,0.001057,0.001810,0.171056,0.076280,324.344263,24.272167,0.999289,0.987706,0.004591,0.484008,0.000003,-0.000021,0.000005,0.000004,-0.000022,11.276985,0.000023,
2356,2113,2.22596340841318,-11.6236093063912,0.012206960192259,0.003527,0.001169,-0.001598,0.167499,0.075680,329.439218,22.946751,0.999393,0.981408,0.005224,0.312072,-0.000003,-0.000012,0.000004,-0.000001,-0.000013,19.294576,0.000016,
2206,2563,-1.1267531652207,-1.78119285406791,-0.016304090731694,0.004004,0.001287,-0.000808,0.187086,0.084848,322.135540,24.276026,0.999639,0.991204,0.003747,0.434966,0.000000,-0.000003,0.000005,0.000003,-0.000006,36.450540,0.000006,
2236,2758,-0.508978456635642,2.46945941327441,-0.0285497218581554,0.003994,0.001344,-0.001094,0.187819,0.072365,318.794899,24.557638,0.999220,0.987916,0.004297,0.378444,-0.000002,-0.000032,0.000002,-0.000002,-0.000032,4.577071,0.000038,
2341,3223,1.69144619019213,12.5730554238403,0.0281649394431156,0.003966,0.000779,-0.000082,0.183288,0.044214,311.543505,25.709144,0.999560,0.992589,0.003384,0.360720,0.000008,0.000001,0.000007,0.000013,-0.000003,31.844197,0.000013,
2461,2188,4.50481696478116,-9.97928962190916,-0.00788226990005114,0.004212,0.001109,-0.004767,0.211076,0.047279,328.240040,22.519183,0.999656,0.987641,0.004622,0.375774,-0.000008,-0.000037,0.000001,-0.000008,-0.000037,2.258121,0.000048,
2281,3193,0.394650533966097,11.9167449773731,0.0320489152578034,0.003872,0.000673,0.000893,0.175719,0.045909,312.110934,25.332336,0.999642,0.993212,0.003294,0.383665,0.000000,-0.000012,0.000008,0.000004,-0.000016,26.626897,0.000017,
2416,3163,3.33220268675185,11.2778217553016,0.0247428234447398,0.004062,0.000842,-0.002325,0.195853,0.048078,312.547171,25.847125,0.999733,0.993523,0.003221,0.419331,0.000017,-0.000002,0.000002,0.000017,-0.000002,5.694300,0.000019,
2221,2863,-0.853201239891717,4.75192820636297,-0.0226117576194724,0.003747,0.001007,-0.001060,0.176278,0.054246,317.160492,24.671656,0.999385,0.991424,0.003633,0.370663,-0.000001,-0.000017,0.000008,0.000002,-0.000020,22.815935,0.000022,
2251,3013,-0.2260431819129,8.01058499523877,0.00428907975299353,0.003939,0.001014,0.000203,0.181174,0.062279,314.878034,24.913270,0.999400,0.990256,0.003867,0.409601,-0.000011,-0.000029,0.000003,-0.000011,-0.000029,8.424648,0.000041,
2071,2278,-4.01750992972822,-8.00604089938451,-0.0047659823821391,0.004026,0.001488,-0.006209,0.203096,0.065528,327.389457,24.606155,0.999868,0.994228,0.003707,0.310579,-0.000010,-0.000009,0.000008,-0.000001,-0.000018,47.780896,0.000021,
2326,2908,1.42150106107734,5.73539629156385,-0.0159236734720025,0.003851,0.000761,-0.004000,0.191325,0.043603,316.340263,24.904258,0.999303,0.989952,0.003984,0.386706,-0.000009,-0.000023,0.000005,-0.000008,-0.000024,18.219247,0.000034,
2446,2053,4.20680168153065,-12.9458846303356,0.0304184452042477,0.004023,0.001052,-0.001502,0.189944,0.054787,330.686199,22.089944,0.999180,0.979145,0.005522,0.392162,0.000007,-0.000023,0.000035,0.000031,-0.000046,33.361014,0.000047,
2191,2608,-1.46131522996314,-0.800653291693628,-0.0212774691195818,0.003735,0.000884,-0.001410,0.176473,0.055820,321.397973,24.324706,0.998763,0.985699,0.004712,0.424843,-0.000004,-0.000017,0.000005,-0.000002,-0.000019,17.659264,0.000023,
2191,2788,-1.49269000750519,3.11976381976343,-0.0305785309066096,0.003789,0.001058,0.000542,0.173120,0.070753,318.394792,24.515757,0.999114,0.987459,0.004483,0.426629,-0.000003,-0.000030,-0.000001,-0.000003,-0.000030,-2.570267,0.000036,
2506,2473,5.42816161499517,-3.7396120590976,-0.0122472220634791,0.003774,0.001036,-0.001819,0.180391,0.062747,323.676094,23.487272,0.999388,0.985013,0.004603,0.386906,-0.000003,-0.000089,0.000027,0.000005,-0.000097,16.127697,0.000109,
2116,2173,-3.02084866565201,-10.305498132679,0.00923104274920661,0.003573,0.001095,-0.002283,0.171037,0.055197,328.945865,24.361824,0.998823,0.984166,0.005216,0.312582,-0.000008,-0.000004,0.000022,0.000016,-0.000028,47.426475,0.000028,
2101,2203,-3.35257455524435,-9.64870818678009,0.00665781762410234,0.003798,0.000920,0.001560,0.170102,0.076058,328.509257,24.393580,0.998454,0.980778,0.005489,0.388518,0.000005,0.000011,0.000022,0.000030,-0.000015,48.907360,0.000030,
2311,2848,1.10682218782818,4.42874701332704,-0.010449848213284,0.003852,0.001103,-0.002897,0.187487,0.050383,317.370484,24.694720,0.999830,0.992844,0.003533,0.446650,-0.000013,-0.000021,0.000009,-0.000007,-0.000027,33.085538,0.000035,
2326,2038,1.58487565100777,-13.2680814678512,0.0115484182006185,0.003502,0.002104,-0.006506,0.183413,0.080178,330.657258,22.983989,0.999285,0.983274,0.005099,0.268054,0.000002,-0.000007,0.000000,0.000002,-0.000007,-2.696198,0.000008,
2401,3118,3.01500158567525,10.3006640185234,0.0286493577794431,0.003925,0.001114,-0.000115,0.181539,0.068011,313.286771,25.730963,0.999845,0.995435,0.002907,0.355516,0.000015,-0.000008,0.000001,0.000015,-0.000008,1.705214,0.000015,
2266,3103,0.0847386783277244,9.96460374235852,0.0169790951487698,0.004057,0.001042,-0.002775,0.196594,0.062351,313.501583,25.126923,0.999702,0.993414,0.003414,0.388524,-0.000005,-0.000039,-0.000007,-0.000003,-0.000040,-11.064964,0.000048,
2251,2803,-0.190951386769076,3.44860079838676,-0.0259479602541433,0.003907,0.000814,0.001813,0.174170,0.065467,318.040495,24.589689,0.999374,0.989085,0.004283,0.416368,0.000001,-0.000025,0.000005,0.000001,-0.000026,10.250988,0.000029,
2221,2638,-0.814085881382542,-0.144696879356026,-0.0392125726863242,0.004551,0.001416,-0.005529,0.227521,0.079076,320.729682,24.271316,0.999089,0.986858,0.004626,0.511002,-0.000006,-0.000021,-0.000005,-0.000005,-0.000022,-16.005688,0.000028,
2116,2413,-3.05953268743213,-5.05627398598343,-0.0101002479071894,0.004131,0.001080,-0.003986,0.201984,0.049016,324.950592,24.420191,0.999224,0.986355,0.004762,0.338063,0.000005,-0.000009,-0.000002,0.000005,-0.000010,-7.844971,0.000010,
2356,2818,2.09089277380628,3.77937476868129,-0.015141473621668,0.004033,0.001090,-0.000764,0.188565,0.064033,317.805817,24.719403,0.999700,0.992461,0.003583,0.418649,-0.000013,-0.000017,0.000000,-0.000013,-0.000017,6.329883,0.000030,
2326,3148,1.37936617559072,10.9452656397659,0.01875299610208,0.003965,0.000869,-0.003422,0.194734,0.029049,312.711502,25.450757,0.999475,0.992710,0.003581,0.362761,0.000004,-0.000016,0.000002,0.000004,-0.000016,4.650820,0.000016,
2386,3013,2.70802930440323,8.01962671216252,0.00861973870024713,0.004267,0.000613,0.000384,0.195217,0.049119,314.839765,25.313502,0.999659,0.990672,0.003783,0.397745,0.000001,-0.000034,-0.000006,0.000002,-0.000035,-9.634215,0.000039,
2476,2218,4.82757730309904,-9.32277268334317,0.0134016181863217,0.003801,0.001239,-0.001013,0.178288,0.105227,327.935986,22.632113,0.998997,0.979710,0.005757,0.360725,-0.000014,-0.000044,0.000005,-0.000013,-0.000045,10.048150,0.000061,
2491,2353,5.12699275652644,-6.36617475348334,0.000669443980541473,0.003801,0.001493,-0.006515,0.199610,0.072163,325.706537,22.989801,0.998854,0.984966,0.005438,0.445789,-0.000008,0.000039,0.000024,0.000049,-0.000018,67.198136,0.000050,
2146,2383,-2.40150552175518,-5.71272542911603,-0.00194493646512228,0.003891,0.000996,-0.002725,0.187328,0.045216,325.364251,24.250507,0.998862,0.986587,0.004575,0.397374,-0.000001,-0.000001,-0.000001,0.000000,-0.000002,-33.175166,0.000002,
2311,3118,1.05888504750297,10.2935328795394,0.020287064477202,0.003673,0.000962,-0.001620,0.175103,0.054140,313.205832,25.348822,0.999337,0.991646,0.003796,0.363023,-0.000002,-0.000020,0.000003,-0.000002,-0.000021,8.755715,0.000025,
2206,2578,-1.1294410162786,-1.45438356777695,-0.0178414609661672,0.003980,0.001093,-0.001001,0.186516,0.067107,321.879393,24.273949,0.999399,0.989505,0.004007,0.436875,-0.000002,-0.000006,0.000000,-0.000002,-0.000006,-4.242412,0.000008,
2311,2008,1.26404042782935,-13.9293696610217,0.0286639209797386,0.004008,0.001037,-0.001095,0.187532,0.056166,331.293868,22.955824,0.999258,0.980446,0.005868,0.299364,-0.000010,0.000000,-0.000015,0.000011,-0.000021,-53.803936,0.000021,
2341,2098,1.90145409772072,-11.9534118500218,0.0170502353426514,0.003710,0.000875,0.001349,0.165477,0.060774,329.717722,22.969585,0.999424,0.982808,0.005115,0.322954,0.000001,-0.000015,-0.000002,0.000001,-0.000015,-8.402865,0.000017,
2236,2983,-0.546200132551927,7.35857905675433,0.00441250982413521,0.004096,0.001168,-0.001171,0.192894,0.067467,315.411795,24.870202,0.999449,0.992165,0.003704,0.372540,-0.000011,-0.000017,0.000008,-0.000006,-0.000022,35.291797,0.000030,
2101,2368,-3.37845724382014,-6.04061198382267,-0.00442159955906618,0.004166,0.001224,-0.003571,0.202232,0.059430,325.793113,24.368322,0.998801,0.983115,0.005275,0.434795,0.000009,0.000001,0.000000,0.000009,0.000001,3.505808,0.000011,
2296,3073,0.741443317872243,9.31572517777784,0.0211093935852205,0.003647,0.000808,-0.001510,0.173387,0.046157,313.961762,25.218400,0.999682,0.994174,0.003302,0.338413,-0.000006,-0.000026,0.000000,-0.000006,-0.000026,-1.365229,0.000034,
2161,2593,-2.11113134237891,-1.12780868829299,-0.0268622228109052,0.004097,0.001018,-0.003287,0.198863,0.053219,321.716377,24.358256,0.999271,0.988093,0.004317,0.408017,0.000004,-0.000008,0.000012,0.000011,-0.000016,31.583426,0.000016,
2356,3268,2.00648380997812,13.5516681142032,0.00187140845667955,0.003910,0.000815,0.000098,0.180170,0.054527,310.578807,25.889200,0.999621,0.992936,0.003305,0.378946,0.000008,0.000003,0.000009,0.000015,-0.000004,36.713924,0.000016,
2356,3028,2.05226145234459,8.34458484070398,0.00354951977163864,0.003767,0.001218,-0.001593,0.179476,0.066730,314.524765,25.326595,0.999614,0.991884,0.003651,0.351021,0.000001,-0.000034,-0.000005,0.000002,-0.000034,-8.035435,0.000038,
2341,2818,1.76395913500835,3.77918039024868,-0.0212676574890338,0.004042,0.000818,0.001079,0.182412,0.061012,317.748782,24.713946,0.999384,0.989151,0.003938,0.405465,-0.000010,-0.000019,0.000002,-0.000009,-0.000020,14.165021,0.000029,
2341,3238,1.68806961010594,12.8986962257804,0.0241044577921912,0.003829,0.000827,0.001183,0.172620,0.053008,311.252478,25.750075,0.999502,0.991633,0.003494,0.363818,0.000006,-0.000001,0.000005,0.000009,-0.000004,28.593285,0.000009,
2116,2188,-3.02329977109904,-9.97671084448535,0.00422504813781188,0.003868,0.001064,-0.001459,0.182188,0.049561,328.674228,24.355532,0.998711,0.982084,0.005343,0.319646,-0.000006,0.000014,0.000028,0.000034,-0.000026,54.532391,0.000036,
2206,2803,-1.16884882072728,3.446219541643,-0.0255287382827873,0.003949,0.000827,0.000989,0.178977,0.066350,318.155078,24.535753,0.998884,0.985611,0.004709,0.430288,0.000000,-0.000027,0.000004,0.000001,-0.000028,8.802122,0.000032,
2266,2878,0.122942413356569,5.07865071869313,-0.00849396500916555,0.003754,0.000989,-0.000275,0.174038,0.046905,316.939003,24.699688,0.999691,0.992139,0.003591,0.427726,0.000004,-0.000016,0.000007,0.000006,-0.000018,16.925868,0.000018,
2446,2068,4.20353169042061,-12.6159435346498,0.0270270194238833,0.004129,0.000871,-0.000483,0.190947,0.043682,330.416921,22.169663,0.999007,0.977410,0.005852,0.356870,0.000003,-0.000021,0.000031,0.000025,-0.000042,34.484966,0.000043,
2176,2458,-1.76137568419187,-4.07374515491151,-0.0125377463883183,0.004005,0.001040,-0.003773,0.196052,0.046584,323.966072,24.199286,0.999251,0.986069,0.004763,0.423133,-0.000007,-0.000017,0.000000,-0.000007,-0.000017,0.137148,0.000024,
2311,2623,1.14765621080812,-0.470537003249468,-0.0138144677422929,0.003717,0.000851,0.000557,0.169225,0.062443,320.983905,24.233452,0.999497,0.989617,0.003920,0.433992,-0.000014,-0.000018,-0.000008,-0.000008,-0.000023,-37.844604,0.000032,
2326,2698,1.45955940043615,1.1654402998693,-0.0279664804059507,0.003850,0.001075,-0.002102,0.184581,0.057507,319.653325,24.358603,0.999623,0.990983,0.003862,0.465661,-0.000012,-0.000008,-0.000008,-0.000002,-0.000018,-51.332219,0.000022,
2506,2488,5.42543896942228,-3.41204794113116,-0.0119241397657106,0.004051,0.001216,-0.002788,0.196951,0.069001,323.451825,23.521454,0.999516,0.985112,0.004610,0.421428,0.000009,-0.000057,0.000017,0.000014,-0.000061,13.824786,0.000064,
2311,2863,1.10423755233497,4.75566818003108,-0.00963924391231785,0.004182,0.000920,-0.000201,0.193409,0.052164,317.138348,24.790328,0.999711,0.991876,0.003658,0.384519,-0.000013,-0.000020,0.000004,-0.000011,-0.000022,26.191463,0.000033,
2386,3028,2.70441851526053,8.34609548403957,0.00461213259939086,0.003922,0.000769,0.001026,0.177067,0.046640,314.542414,25.385379,0.999612,0.990521,0.003851,0.365705,0.000005,-0.000034,-0.000008,0.000006,-0.000036,-10.709303,0.000038,
2356,2128,2.22361164600052,-11.2956871934319,0.0144861454386955,0.003903,0.001050,-0.000573,0.181097,0.073987,329.230536,22.917080,0.999259,0.982135,0.005208,0.381528,-0.000002,-0.000014,0.000004,0.000000,-0.000015,18.016853,0.000018,
2146,2398,-2.40404380122363,-5.38433108971603,-0.00820097891812566,0.004081,0.001316,-0.004764,0.202320,0.061100,325.084708,24.253112,0.998761,0.985823,0.004832,0.420388,-0.000002,-0.000007,-0.000004,0.000000,-0.000010,-28.969122,0.000011,
2251,2818,-0.192976370198977,3.7740613983494,-0.0191090019829971,0.003724,0.001096,-0.002813,0.180954,0.049905,317.860727,24.601433,0.999564,0.990323,0.004143,0.412295,0.000005,-0.000022,0.000006,0.000006,-0.000024,12.180846,0.000025,
2161,2428,-2.08278261885636,-4.72834825697655,-0.0104451252939839,0.004148,0.000780,-0.001177,0.194453,0.056451,324.517776,24.275329,0.999243,0.986657,0.004578,0.370820,0.000000,-0.000016,0.000002,0.000000,-0.000016,6.378128,0.000018,
2131,2248,-2.70624846287364,-8.66377804195889,-0.000279375666650594,0.003900,0.000968,-0.002284,0.186168,0.029964,327.612181,24.280507,0.998938,0.981731,0.005299,0.331146,-0.000006,0.000009,0.000022,0.000025,-0.000022,54.049311,0.000027,
2236,2773,-0.511790572916652,2.79533172777356,-0.0295742753905301,0.003682,0.001360,-0.004033,0.182951,0.058234,318.537965,24.532487,0.999233,0.987978,0.004193,0.410496,0.000000,-0.000030,0.000002,0.000000,-0.000030,4.128773,0.000035,
2491,2368,5.1234863967188,-6.03679431424749,-0.00509021834551504,0.004086,0.001490,-0.003994,0.203034,0.066306,325.418249,23.102864,0.998323,0.982291,0.005609,0.387901,-0.000004,0.000021,0.000023,0.000035,-0.000018,59.459305,0.000035,
2221,2878,-0.855200621372074,5.07684891158909,-0.015078403735572,0.003827,0.001022,-0.001184,0.180340,0.051600,316.983750,24.640679,0.999475,0.992724,0.003387,0.417414,-0.000004,-0.000013,0.000006,-0.000001,-0.000016,26.239403,0.000019,
2086,2353,-3.70267153496213,-6.36763752466273,-0.00611378215177183,0.004115,0.001326,-0.004475,0.202429,0.058473,326.093490,24.471498,0.998565,0.980930,0.005419,0.380235,-0.000001,-0.000018,-0.000002,-0.000001,-0.000018,-5.150415,0.000021,
2281,2953,0.435952949940816,6.71059231169927,-0.0118743383538913,0.004424,0.001075,-0.002768,0.213333,0.048591,315.703829,24.915181,0.999370,0.989636,0.003977,0.375217,-0.000004,-0.000019,0.000008,-0.000001,-0.000023,23.660010,0.000027,
2311,2023,1.26101993713832,-13.6003490158329,0.0259008845497419,0.003797,0.001316,-0.002853,0.183984,0.063483,331.026391,22.921747,0.999198,0.982072,0.005415,0.376775,-0.000010,-0.000003,-0.000006,0.000001,-0.000014,-60.505695,0.000015,
2476,2233,4.8246553510386,-8.99522733189807,0.0140693426815233,0.003725,0.001077,-0.002876,0.181814,0.059877,327.703305,22.632170,0.999126,0.982106,0.005490,0.374118,-0.000014,-0.000040,0.000015,-0.000007,-0.000046,24.283068,0.000058,
2371,2938,2.39424999548289,6.39027965900545,-0.0065184951679953,0.003623,0.000881,0.003121,0.155976,0.076819,315.891007,25.092831,0.999306,0.989027,0.004095,0.399528,-0.000012,-0.000027,-0.000010,-0.000007,-0.000032,-26.810520,0.000041,
2131,2458,-2.74125690655621,-4.07204600260898,-0.0173770150587984,0.004158,0.001049,0.002623,0.183709,0.113401,324.079751,24.421516,0.999310,0.988526,0.004529,0.378945,0.000005,-0.000022,0.000002,0.000005,-0.000022,4.573832,0.000023,
2281,3208,0.39278775763146,12.2421866459253,0.0400680072363571,0.003994,0.001034,-0.001395,0.189189,0.056756,311.945566,25.413279,0.999825,0.995215,0.002854,0.340232,0.000002,-0.000013,0.000010,0.000007,-0.000018,26.976250,0.000018,
2461,2203,4.50113832100151,-9.65047711853207,-0.0102476493790391,0.003926,0.000951,-0.002802,0.190587,0.043197,327.957403,22.553103,0.999204,0.981848,0.005277,0.394954,-0.000008,-0.000038,0.000001,-0.000008,-0.000039,2.740359,0.000050,
2176,2683,-1.80012756714352,0.832595914080272,-0.0244232488983585,0.004076,0.000719,-0.000078,0.188043,0.053903,320.215119,24.368599,0.999368,0.990737,0.003933,0.458330,-0.000005,-0.000023,0.000000,-0.000005,-0.000023,-1.575292,0.000030,
2341,2968,1.73686471950082,7.04079228160672,-0.00863976256567867,0.003985,0.000838,-0.001772,0.189928,0.050312,315.414732,25.145843,0.999921,0.997676,0.002514,0.325147,-0.000009,-0.000033,0.000001,-0.000009,-0.000033,1.926756,0.000045,
2296,3088,0.738707787877548,9.64067233069018,0.0204085718547162,0.003940,0.000784,0.001524,0.176600,0.045495,313.714096,25.184296,0.999616,0.993372,0.003451,0.400910,-0.000007,-0.000030,-0.000005,-0.000005,-0.000031,-12.047352,0.000039,
2326,2053,1.58253927449788,-12.9414981440896,0.0180261807489046,0.003748,0.000947,-0.002372,0.180024,0.055115,330.467735,22.875880,0.999619,0.986917,0.004522,0.388687,0.000000,-0.000013,-0.000004,0.000001,-0.000014,-14.479518,0.000016,
2266,2893,0.120065726250346,5.40572851155601,-0.0121850860633117,0.003810,0.000982,-0.000760,0.178278,0.067489,316.667355,24.765942,0.999649,0.990999,0.003657,0.407355,0.000002,-0.000017,0.000012,0.000008,-0.000023,25.739225,0.000024,
2236,2998,-0.549110357883901,7.68357076135717,0.00473375850333468,0.003954,0.000873,0.000805,0.179819,0.052618,315.157105,24.836926,0.999465,0.991037,0.003807,0.411168,-0.000012,-0.000022,0.000004,-0.000011,-0.000023,19.175072,0.000034,
2356,2833,2.08781051861331,4.10617232617733,-0.0176455772313489,0.004094,0.000858,0.000561,0.186613,0.059804,317.538269,24.777071,0.999711,0.990810,0.003863,0.395349,-0.000011,-0.000011,0.000003,-0.000008,-0.000014,44.124977,0.000022,
2506,2503,5.42172236240416,-3.08388544383914,-0.0127927428668499,0.003706,0.000922,-0.000658,0.172757,0.044232,323.176481,23.635716,0.999399,0.985733,0.004793,0.344519,0.000012,-0.000060,0.000009,0.000013,-0.000061,6.824132,0.000064,
2341,2113,1.89948524991771,-11.6254106348793,0.022082427684154,0.003970,0.000725,-0.001097,0.185818,0.044261,329.538774,22.986093,0.999467,0.983204,0.005043,0.329378,-0.000003,-0.000015,-0.000001,-0.000003,-0.000015,-3.080264,0.000019,
2326,3163,1.37681421979077,11.2704129128687,0.0276793497332619,0.003961,0.000682,0.002073,0.175586,0.051440,312.521372,25.490404,0.999673,0.993978,0.003334,0.378502,0.000003,-0.000012,0.000006,0.000005,-0.000014,18.887826,0.000014,
2251,3028,-0.228578219122397,8.33658574548534,0.00193684798921367,0.004086,0.001143,-0.002126,0.195630,0.060138,314.627695,24.950806,0.999293,0.989244,0.003976,0.392646,-0.000011,-0.000031,-0.000001,-0.000011,-0.000031,-2.447798,0.000044,
2446,2083,4.19970240267873,-12.2850122043307,0.0196722348624689,0.003924,0.000846,-0.000461,0.181515,0.057309,330.103548,22.277349,0.998849,0.975661,0.006207,0.318866,-0.000004,-0.000032,0.000026,0.000012,-0.000048,30.664950,0.000050,
2401,3133,3.01132649150314,10.6267761687502,0.0176481556158024,0.003969,0.001111,-0.001116,0.187240,0.072486,312.954226,25.748887,0.999802,0.994597,0.003062,0.386656,0.000019,-0.000009,-0.000002,0.000019,-0.000009,-4.887941,0.000019,
2491,2383,5.11999159224977,-5.70870546549424,-0.00573463525176976,0.003958,0.001106,-0.001344,0.186878,0.050473,325.153569,23.162849,0.998500,0.980276,0.005623,0.372585,-0.000005,0.000016,0.000015,0.000024,-0.000013,62.741597,0.000024,
2356,3283,2.00285490794779,13.87706361166,-0.00770721189013557,0.003880,0.000680,0.000153,0.178545,0.040412,310.250479,25.914481,0.999568,0.992610,0.003394,0.376961,0.000003,0.000004,0.000007,0.000010,-0.000003,45.046723,0.000011,
2311,2638,1.14505903230137,-0.143006115171829,-0.0172944163384727,0.003950,0.001224,-0.002013,0.188873,0.078614,320.730586,24.267959,0.999358,0.989018,0.003984,0.448698,-0.000014,-0.000016,-0.000010,-0.000005,-0.000025,-42.253203,0.000032,
2221,2893,-0.857326169840572,5.40235306724655,-0.00716760566967878,0.003801,0.000878,-0.000699,0.177576,0.052385,316.802966,24.665894,0.999642,0.992618,0.003538,0.411415,-0.000006,-0.000014,0.000010,0.000001,-0.000021,32.971624,0.000023,
2341,2833,1.76147620556757,4.10594690299835,-0.0198667302330477,0.004203,0.000761,0.000145,0.193064,0.049067,317.526543,24.806081,0.999656,0.991169,0.003735,0.337836,-0.000009,-0.000010,0.000006,-0.000004,-0.000015,43.596017,0.000020,
2416,3178,3.32930327253827,11.603450539295,0.0260685201035358,0.004122,0.001037,-0.000866,0.193367,0.061727,312.309596,25.898848,0.999636,0.992484,0.003423,0.427636,0.000021,0.000006,0.000003,0.000021,0.000005,11.999468,0.000028,
2326,2923,1.4191438029411,6.06062478773449,-0.0114359269131228,0.004043,0.000951,-0.002749,0.195865,0.047440,316.137955,24.885823,0.998828,0.987321,0.004485,0.442960,-0.000011,-0.000023,0.000001,-0.000011,-0.000023,3.368936,0.000035,
2311,2878,1.10067053813871,5.08280943065346,-0.0179340456915611,0.003948,0.000943,-0.001005,0.185468,0.060401,316.816073,24.837287,0.999596,0.990193,0.003898,0.377952,-0.000013,-0.000024,0.000005,-0.000011,-0.000026,19.424540,0.000038,
2116,2428,-3.06227522320453,-4.72955951184982,-0.00914775296973858,0.003755,0.000918,-0.003413,0.182958,0.043882,324.697904,24.368897,0.999288,0.987169,0.004600,0.388923,0.000008,-0.000011,0.000007,0.000010,-0.000013,18.390923,0.000014,
2266,3118,0.0824289097867883,10.2891908786545,0.0271073927253269,0.004005,0.000785,0.001121,0.181093,0.046010,313.325978,25.150380,0.999664,0.993609,0.003367,0.373067,-0.000002,-0.000035,-0.000004,-0.000002,-0.000036,-6.415910,0.000042,
2191,2803,-1.49493414741154,3.4462217145502,-0.0276384316131271,0.003828,0.001185,-0.000610,0.178583,0.070522,318.180793,24.569266,0.999072,0.987009,0.004517,0.387105,-0.000001,-0.000034,0.000001,-0.000001,-0.000035,2.259154,0.000041,
2326,2713,1.45672414275089,1.49425837310748,-0.0319085216054873,0.003978,0.001292,-0.003879,0.196734,0.062192,319.387555,24.544575,0.999280,0.987351,0.004352,0.319134,-0.000011,-0.000011,-0.000008,-0.000002,-0.000019,-45.787242,0.000024,
2161,2608,-2.11288691781373,-0.800668757281976,-0.0237149032706725,0.004414,0.001671,-0.006418,0.223250,0.069336,321.523680,24.402396,0.999522,0.990380,0.004005,0.390717,0.000003,-0.000015,0.000012,0.000009,-0.000021,26.721388,0.000021,
2101,2383,-3.3816327875031,-5.71183327952581,-0.00960546211052815,0.003876,0.001006,-0.000645,0.180343,0.059495,325.485868,24.426139,0.998735,0.983570,0.005100,0.380351,0.000011,0.000002,0.000004,0.000012,0.000001,21.246801,0.000015,
2191,2623,-1.46350815378788,-0.473637551982044,-0.0195927783255456,0.003886,0.001256,-0.002680,0.187568,0.060565,321.179832,24.361022,0.999321,0.987147,0.004401,0.408414,-0.000002,-0.000022,0.000001,-0.000002,-0.000022,2.596148,0.000027,
2281,3223,0.3897523593626,12.566554351519,0.0424089410313968,0.003679,0.000975,0.000706,0.167599,0.059192,311.698151,25.373904,0.999812,0.994867,0.003007,0.408261,0.000003,-0.000005,0.000011,0.000010,-0.000012,35.021754,0.000013,
2146,2518,-2.42538803108193,-2.76297088255295,-0.0334138971579705,0.004192,0.000806,-0.002474,0.200498,0.049090,322.933478,24.315438,0.999058,0.986086,0.004718,0.420326,0.000007,0.000007,0.000009,0.000016,-0.000002,46.101246,0.000018,
2341,3253,1.6844996472226,13.2239963866654,0.0126217991340241,0.004019,0.000507,0.001851,0.178915,0.037646,310.916425,25.746580,0.999526,0.992305,0.003409,0.387152,0.000003,-0.000002,0.000007,0.000008,-0.000007,36.409114,0.000009,
2356,3298,2.00012639604263,14.2031234371109,-0.0138135750586912,0.004284,0.000906,-0.002422,0.206361,0.051592,309.980130,25.999408,0.999670,0.993013,0.003433,0.340506,-0.000004,0.000005,0.000004,0.000007,-0.000006,67.673846,0.000007,
2371,2953,2.3915827938356,6.7165764891285,-0.0114206825872429,0.003862,0.000871,-0.001372,0.182837,0.033989,315.631970,25.161482,0.999385,0.989198,0.004105,0.328368,-0.000010,-0.000032,-0.000009,-0.000007,-0.000035,-19.114269,0.000045,
2491,2398,5.11684805651236,-5.38042340931885,-0.00671003845081941,0.003990,0.000714,-0.001327,0.188148,0.033541,324.903424,23.243506,0.999337,0.987288,0.004629,0.335459,-0.000006,0.000014,0.000019,0.000026,-0.000018,58.847420,0.000026,
2506,2518,5.4180704902872,-2.75612880425727,-0.017667660651739,0.003495,0.001003,-0.001626,0.166899,0.043497,322.886127,23.657526,0.999346,0.986652,0.004746,0.384454,0.000004,-0.000043,0.000004,0.000004,-0.000044,4.356622,0.000048,
2206,2818,-1.17128699551259,3.77189475389986,-0.0210732587554503,0.003777,0.000922,0.000816,0.171665,0.069250,317.941248,24.529920,0.999134,0.987845,0.004329,0.455469,0.000004,-0.000024,0.000006,0.000006,-0.000025,11.358596,0.000026,
2161,2443,-2.08530027877842,-4.40142627520697,-0.00974202982831684,0.004015,0.000934,-0.001809,0.190352,0.053839,324.277537,24.243845,0.999275,0.986816,0.004612,0.411444,-0.000002,-0.000018,0.000003,-0.000002,-0.000019,10.215929,0.000023,
2311,3133,1.055730680212,10.6188161617198,0.0228713504652092,0.003399,0.000824,0.002289,0.149030,0.049371,312.955966,25.382344,0.999453,0.992388,0.003626,0.355638,0.000000,-0.000019,0.000001,0.000000,-0.000019,3.740955,0.000021,
2206,2593,-1.13219414762974,-1.12702673876736,-0.0134947023021823,0.003728,0.000992,0.002285,0.164572,0.092554,321.650321,24.334916,0.999155,0.987370,0.004364,0.418745,-0.000003,-0.000014,-0.000002,-0.000003,-0.000015,-8.863698,0.000019,
2146,2413,-2.40749722993441,-5.05563322256345,-0.0186829063333107,0.003874,0.000998,-0.003270,0.188221,0.062021,324.740895,24.264306,0.998684,0.985850,0.005096,0.420072,0.000001,-0.000014,-0.000005,0.000002,-0.000015,-18.279334,0.000017,
2251,2833,-0.195438706066565,4.10057707528088,-0.0185279268320642,0.004036,0.000747,-0.000757,0.188492,0.039744,317.628853,24.660994,0.999498,0.990652,0.003904,0.365459,0.000005,-0.000015,0.000011,0.000010,-0.000020,23.702090,0.000020,
2251,3043,-0.23072789204997,8.66240107756989,0.00730499533960938,0.004304,0.001100,-0.001150,0.202424,0.054976,314.434268,25.029333,0.999502,0.991383,0.003667,0.331283,-0.000009,-0.000032,-0.000002,-0.000009,-0.000032,-6.125667,0.000043,
2311,2038,1.25810054450763,-13.2697745760647,0.0237380962346379,0.003518,0.001805,-0.006494,0.183771,0.064330,330.766316,23.048361,0.999634,0.987568,0.004400,0.286937,-0.000013,-0.000009,-0.000005,-0.000005,-0.000017,-52.772215,0.000023,
2356,3043,2.04951300006424,8.66987507407882,0.00105445260237502,0.004132,0.001077,-0.000651,0.192970,0.078086,314.272236,25.290214,0.999625,0.992154,0.003570,0.436847,0.000002,-0.000026,-0.000003,0.000002,-0.000026,-6.216324,0.000029,
2371,2188,2.53988794218474,-9.97996358113414,0.00857852548864457,0.004043,0.001198,-0.005556,0.205306,0.050615,328.243878,23.011443,0.999111,0.981576,0.005280,0.353133,-0.000019,-0.000019,-0.000004,-0.000015,-0.000022,-43.298142,0.000038,
2356,2143,2.22077620034743,-10.9668804045003,0.0168784998320461,0.003851,0.000725,0.001146,0.172571,0.074675,329.000093,22.972122,0.998883,0.978989,0.005610,0.368920,-0.000006,-0.000020,0.000001,-0.000006,-0.000020,4.280225,0.000027,
2176,2698,-1.80282938062835,1.16033726266669,-0.0307801832440191,0.004143,0.001126,-0.002926,0.200122,0.070604,319.930151,24.416383,0.999451,0.990703,0.003809,0.439809,-0.000003,-0.000029,0.000001,-0.000003,-0.000029,2.535356,0.000035,
2356,2848,2.08434011473281,4.43298292505791,-0.0264752110019799,0.004062,0.000804,-0.000590,0.189167,0.049432,317.222316,24.799538,0.999654,0.990914,0.003783,0.401287,-0.000011,-0.000012,0.000000,-0.000011,-0.000012,-8.723359,0.000023,
2461,2218,4.49875299706276,-9.32275806304801,0.000181355056895427,0.003917,0.000863,-0.000325,0.180834,0.069034,327.792266,22.595757,0.999510,0.985795,0.004984,0.434768,-0.000021,-0.000037,-0.000003,-0.000020,-0.000038,-10.034027,0.000059,
2176,2473,-1.76438333795832,-3.74527766364012,-0.0150809088976871,0.003878,0.001028,-0.000903,0.181367,0.066667,323.687165,24.266908,0.999331,0.984234,0.005058,0.389263,-0.000004,-0.000001,0.000008,0.000005,-0.000010,50.829111,0.000010,
2281,2968,0.433418468756244,7.0369824248418,-0.0112609269496033,0.004239,0.001489,-0.007309,0.220211,0.063768,315.470680,24.976260,0.999378,0.990126,0.003895,0.356486,-0.000006,-0.000022,0.000009,-0.000002,-0.000026,24.352433,0.000031,
2266,2908,0.117760335597506,5.73210776544398,-0.00997957038180175,0.003940,0.001461,-0.002154,0.189082,0.079814,316.451810,24.823356,0.999718,0.992389,0.003475,0.387579,0.000001,-0.000016,0.000013,0.000008,-0.000023,28.547179,0.000023,
2221,2653,-0.816815308526071,0.181414336997094,-0.0327296188038417,0.004150,0.001127,-0.002942,0.200699,0.061784,320.514006,24.297823,0.999338,0.988953,0.004281,0.486524,-0.000001,-0.000021,-0.000001,-0.000001,-0.000021,-2.323208,0.000024,
2386,3043,2.70120617563109,8.67208141932413,0.000227210932735034,0.003785,0.000990,-0.001111,0.178588,0.058994,314.261664,25.400063,0.999682,0.991802,0.003665,0.405995,0.000003,-0.000023,-0.000005,0.000004,-0.000024,-9.785933,0.000026,
2341,2848,1.75764485854977,4.43212927012981,-0.0251678780827547,0.003748,0.000680,0.002163,0.165081,0.047349,317.209853,24.788554,0.999702,0.991588,0.003632,0.390243,-0.000009,-0.000009,0.000004,-0.000005,-0.000013,44.682105,0.000018,
2191,2638,-1.46585957663128,-0.146740581867206,-0.0241275087325334,0.004247,0.001587,-0.004808,0.210928,0.058456,320.922147,24.345162,0.999574,0.988926,0.004114,0.437370,-0.000004,-0.000023,-0.000002,-0.000004,-0.000023,-6.473713,0.000030,
2506,2533,5.41528379485979,-2.42764910159406,-0.0178835406755411,0.003837,0.001239,-0.001693,0.182957,0.064924,322.656044,23.770597,0.999533,0.988437,0.004339,0.355077,0.000004,-0.000022,0.000009,0.000007,-0.000024,17.496166,0.000025,
2236,3013,-0.551596847467454,8.00953653375426,0.00374128114066252,0.004089,0.001024,-0.000648,0.190844,0.056315,314.914812,24.869982,0.999365,0.989217,0.004030,0.402499,-0.000011,-0.000027,0.000002,-0.000011,-0.000027,7.143972,0.000039,
2296,3103,0.736336014242227,9.96633213731756,0.0203966521699499,0.004092,0.000745,-0.001652,0.194335,0.034372,313.486319,25.234633,0.999405,0.991475,0.003828,0.368391,-0.000009,-0.000029,-0.000006,-0.000007,-0.000031,-14.083106,0.000040,
2401,3148,3.00917159889643,10.9509266519984,0.0268156423428536,0.003878,0.000916,-0.002757,0.188882,0.044342,312.787639,25.746310,0.999804,0.994923,0.002946,0.405053,0.000019,-0.000014,-0.000001,0.000019,-0.000014,-2.247342,0.000020,
2131,2263,-2.70794614741258,-8.33654134485776,0.00519018929657022,0.004156,0.000997,-0.003668,0.202063,0.019624,327.432420,24.272735,0.998853,0.982630,0.005289,0.336168,-0.000006,-0.000002,0.000018,0.000014,-0.000022,47.636786,0.000022,
2281,3238,0.386239317854372,12.8927424109925,0.0271351772875619,0.003802,0.000850,-0.002344,0.183381,0.029028,311.339774,25.438827,0.999796,0.993835,0.003215,0.339703,0.000005,-0.000008,0.000011,0.000011,-0.000015,30.574134,0.000015,
2221,2908,-0.859633681689374,5.72834295352826,-0.00159060800041289,0.003783,0.000895,0.000136,0.174133,0.061025,316.601665,24.714321,0.999555,0.991526,0.003945,0.389919,-0.000003,-0.000015,0.000010,0.000003,-0.000021,29.333388,0.000023,
2341,2128,1.89621600111981,-11.2962488414056,0.0178913993429433,0.003933,0.000505,0.000326,0.179124,0.029491,329.255557,23.011886,0.999531,0.986765,0.004645,0.328399,-0.000001,-0.000016,0.000002,-0.000001,-0.000016,7.485890,0.000019,
2116,2203,-3.02598747496496,-9.64846137778246,0.00408040034449186,0.003600,0.001068,-0.000836,0.168060,0.048118,328.417864,24.352867,0.998001,0.977169,0.005812,0.327085,0.000000,0.000013,0.000026,0.000034,-0.000021,51.594466,0.000034,
2341,3268,1.68079136963613,13.5502563525868,-0.00129602832322462,0.004086,0.000880,0.000275,0.187731,0.055821,310.561705,25.790128,0.999530,0.992772,0.003321,0.397137,0.000001,-0.000002,0.000013,0.000012,-0.000013,41.789468,0.000015,
2491,2413,5.11323981759534,-5.05290706847779,-0.014641346829535,0.003661,0.001275,-0.006853,0.194482,0.035842,324.600629,23.173830,0.999416,0.988349,0.004463,0.468187,-0.000011,0.000013,0.000026,0.000030,-0.000028,56.898305,0.000033,
2476,2248,4.82190984685013,-8.66800566021444,0.0149804622036527,0.003881,0.001055,-0.003772,0.192359,0.033875,327.479689,22.590853,0.999162,0.982373,0.005262,0.448239,-0.000009,-0.000035,0.000020,0.000002,-0.000046,28.489788,0.000052,
2416,3193,3.32664280602977,11.9288742715518,0.0304177224445539,0.004051,0.001032,-0.001011,0.190599,0.051459,312.097232,25.976912,0.999584,0.991624,0.003508,0.385847,0.000022,0.000007,0.000005,0.000023,0.000005,15.276869,0.000031,
2326,2938,1.41675191100362,6.3864554292109,-0.00411972627307478,0.004153,0.000735,0.000635,0.189127,0.036741,315.947708,24.960871,0.998981,0.988129,0.004369,0.391015,-0.000008,-0.000024,0.000001,-0.000008,-0.000024,1.855699,0.000033,
2116,2443,-3.06483725899971,-4.40351146821289,-0.0102134023782128,0.003781,0.000726,-0.001371,0.178102,0.049139,324.442780,24.232158,0.999280,0.988019,0.004586,0.535816,0.000005,-0.000016,0.000005,0.000006,-0.000018,13.112721,0.000018,
2461,2233,4.49557731375612,-8.99398064285442,0.00740147113333478,0.003313,0.000707,0.001207,0.147414,0.057661,327.576259,22.743110,0.999163,0.981353,0.005392,0.332696,-0.000022,-0.000038,0.000003,-0.000021,-0.000039,11.715034,0.000061,
2311,2053,1.25580766325207,-12.9415958606447,0.0255306520008958,0.004050,0.001417,-0.003505,0.197822,0.062157,330.554485,23.009466,0.999481,0.984748,0.004799,0.359079,-0.000013,-0.000012,-0.000009,-0.000003,-0.000022,-47.174848,0.000027,
2326,2068,1.57935194316321,-12.6127926635463,0.0145750195597998,0.003639,0.000807,-0.001692,0.172690,0.037753,330.190697,22.848080,0.999389,0.982166,0.005173,0.436968,-0.000002,-0.000002,0.000002,0.000000,-0.000005,44.423471,0.000005,
2146,2533,-2.42727330005173,-2.43682626550006,-0.0227902196652963,0.004107,0.000878,-0.001757,0.194450,0.050463,322.773661,24.327520,0.999225,0.987405,0.004388,0.418173,0.000004,0.000003,0.000012,0.000016,-0.000009,43.856823,0.000016,
2371,1993,2.57807610830683,-14.2609167406599,0.0302227789860581,0.003553,0.001081,-0.002752,0.172645,0.037634,331.534275,22.496924,0.998886,0.967869,0.006953,0.278444,0.000013,0.000020,0.000015,0.000032,0.000001,51.881782,0.000038,
2251,3058,-0.232243913604538,8.98605148446737,0.0261544875962159,0.004022,0.001302,-0.002444,0.193785,0.065222,314.339050,24.983929,0.999558,0.992846,0.003451,0.409178,-0.000005,-0.000036,-0.000005,-0.000004,-0.000037,-8.577599,0.000045,
2311,3148,1.0531466862741,10.9443660350951,0.020064687882666,0.003621,0.000895,-0.000206,0.167871,0.055384,312.705582,25.400374,0.999566,0.992197,0.003671,0.374830,0.000000,-0.000017,0.000003,0.000001,-0.000018,9.467294,0.000020,
2326,2728,1.45396945276793,1.82018662345943,-0.031911390639209,0.003997,0.001115,-0.004065,0.198175,0.051793,319.145418,24.516979,0.999452,0.988990,0.004105,0.370995,-0.000012,-0.000017,-0.000003,-0.000010,-0.000019,-23.694764,0.000029,
2101,2398,-3.38398180365466,-5.38518782564456,-0.0053775046109763,0.003573,0.001050,-0.001316,0.168402,0.058069,325.267664,24.385987,0.998999,0.985584,0.004653,0.421825,0.000008,-0.000003,0.000000,0.000008,-0.000003,-0.981485,0.000008,
2236,2788,-0.514005101670808,3.12125484371673,-0.0230564858719617,0.003841,0.001046,-0.001254,0.181190,0.063330,318.346830,24.555813,0.999396,0.989329,0.004091,0.413296,0.000000,-0.000024,0.000004,0.000000,-0.000025,8.645147,0.000028,
2446,2098,4.19646636850963,-11.9554317947257,0.0143973207067916,0.003815,0.001089,-0.004311,0.190913,0.048008,329.827030,22.313861,0.999338,0.978966,0.005758,0.328458,-0.000009,-0.000034,0.000019,0.000001,-0.000044,28.069918,0.000050,
2161,2623,-2.11646968980734,-0.473145922708817,-0.0296482902382422,0.003995,0.001103,-0.002433,0.191605,0.064449,321.199405,24.429755,0.999616,0.990754,0.003917,0.369192,0.000004,-0.000024,0.000006,0.000006,-0.000025,11.867351,0.000026,
2266,3133,0.0800025360303884,10.6135144148309,0.0314895560156856,0.003872,0.000989,-0.000208,0.179400,0.037560,313.116106,25.108865,0.999615,0.995109,0.003156,0.430359,-0.000002,-0.000034,-0.000003,-0.000002,-0.000034,-5.641346,0.000040,
2311,2653,1.1420785915712,0.183803763530463,-0.0180947652521013,0.003854,0.000897,-0.001192,0.181513,0.061871,320.473061,24.296844,0.999482,0.989772,0.003925,0.435677,-0.000013,-0.000016,-0.000006,-0.000008,-0.000021,-37.352392,0.000030,
2191,2653,-1.46886126852467,0.180079176521502,-0.0242454128779173,0.004015,0.000835,-0.001784,0.190529,0.040001,320.657641,24.380929,0.999563,0.990025,0.003993,0.398081,-0.000003,-0.000023,-0.000002,-0.000003,-0.000023,-5.787600,0.000029,
2191,2818,-1.4974254045533,3.77149521329218,-0.0239940588969603,0.003666,0.000835,-0.000352,0.170221,0.054422,317.959486,24.539191,0.998768,0.985228,0.004711,0.415453,0.000003,-0.000030,0.000002,0.000003,-0.000030,4.039184,0.000033,
2356,2863,2.08140831076415,4.75912486370261,-0.0232242511210643,0.003983,0.000832,0.002763,0.173757,0.063904,316.989451,24.830738,0.999576,0.990891,0.003794,0.423252,-0.000012,-0.000012,-0.000005,-0.000007,-0.000018,-45.314514,0.000025,
2206,2608,-1.13495561149785,-0.799784581317041,-0.0221568251008648,0.003955,0.000985,-0.000387,0.183437,0.055659,321.353939,24.339855,0.999090,0.985623,0.004628,0.394602,-0.000003,-0.000022,0.000000,-0.000003,-0.000022,1.180291,0.000027,
2131,2473,-2.74350217966116,-3.74550118669143,-0.0161126214815681,0.004058,0.001029,-0.000360,0.187989,0.067155,323.852830,24.413760,0.999320,0.987655,0.004593,0.347400,0.000007,-0.000012,0.000010,0.000011,-0.000016,22.829771,0.000017,
2206,2833,-1.17254863893839,4.09803159159544,-0.0105281057598745,0.004313,0.001164,-0.000099,0.199309,0.076645,317.812738,24.611524,0.999349,0.989969,0.003966,0.397547,0.000004,-0.000018,0.000011,0.000008,-0.000023,21.837097,0.000023,
2416,3208,3.32359877063073,12.2541017869971,0.0322770523633267,0.003869,0.001002,-0.000233,0.179317,0.040401,311.855502,26.026495,0.999544,0.990798,0.003754,0.371380,0.000022,-0.000001,0.000003,0.000022,-0.000001,6.183726,0.000025,
2176,2488,-1.76730778456043,-3.41777944104031,-0.0163787886083355,0.003506,0.001158,-0.001570,0.166410,0.071646,323.418825,24.277484,0.999127,0.984122,0.005084,0.397324,-0.000008,0.000011,0.000005,0.000012,-0.000009,77.167032,0.000013,
2341,2983,1.7344349783181,7.365580877958,-0.00289317898597119,0.003903,0.000753,-0.002234,0.187685,0.037435,315.216138,25.127426,0.999817,0.995165,0.002974,0.366427,-0.000005,-0.000033,0.000002,-0.000005,-0.000033,4.680454,0.000042,
2371,2968,2.3886865078036,7.04342753280325,-0.0130937944010157,0.003851,0.000958,-0.002935,0.188009,0.048841,315.377564,25.250839,0.999546,0.989845,0.004113,0.294403,-0.000010,-0.000030,-0.000005,-0.000009,-0.000031,-14.039828,0.000042,
2341,3283,1.67758799199254,13.8754703233578,-0.00897116365240436,0.004236,0.000763,-0.000605,0.197572,0.034473,310.260967,25.816175,0.999619,0.993499,0.003176,0.384731,-0.000005,-0.000003,0.000013,0.000009,-0.000017,47.895375,0.000017,
2281,2983,0.430216233362255,7.36189073999214,-0.00787016399220875,0.003887,0.001260,-0.002167,0.186729,0.066921,315.221164,24.936163,0.999355,0.990306,0.003908,0.426734,-0.000002,-0.000023,0.000011,0.000003,-0.000028,22.814095,0.000031,
2341,2863,1.7556245305788,4.75791147956684,-0.0177234741997268,0.003843,0.000989,0.000389,0.175768,0.058205,317.038355,24.820910,0.999658,0.991307,0.003732,0.404842,-0.000010,-0.000010,-0.000002,-0.000008,-0.000012,-48.116604,0.000020,
2326,2953,1.41413944201145,6.71342305865721,-0.0053456905893654,0.004387,0.001052,0.000016,0.202195,0.047085,315.705098,25.063064,0.998999,0.988301,0.004533,0.332901,-0.000007,-0.000029,0.000001,-0.000007,-0.000029,2.707487,0.000038,
2281,3253,0.382467057541167,13.2188563901199,0.0115305724247605,0.003973,0.000791,-0.001533,0.188558,0.033132,310.967751,25.466839,0.999738,0.993040,0.003359,0.342258,0.000006,-0.000010,0.000017,0.000017,-0.000020,32.652619,0.000022,
2371,2008,2.57418871598989,-13.9299209205441,0.0251233732664105,0.003479,0.000256,0.004200,0.144382,0.052106,331.221501,22.604153,0.998499,0.972749,0.006467,0.230891,0.000011,0.000002,0.000015,0.000022,-0.000008,36.523179,0.000022,
2161,2458,-2.08815722490525,-4.07375113863196,-0.0134024549500964,0.003856,0.001099,-0.002204,0.184348,0.067899,323.998585,24.229006,0.999230,0.987666,0.004500,0.451924,0.000000,-0.000019,0.000003,0.000000,-0.000019,7.746411,0.000022,
2356,2158,2.21864907157975,-10.637690677561,0.0170412601813155,0.004160,0.001235,-0.003862,0.204490,0.060368,328.791378,23.058160,0.999194,0.981925,0.005339,0.310024,-0.000012,-0.000031,-0.000005,-0.000011,-0.000032,-13.610159,0.000045,
2386,3058,2.69894436149345,8.99730253136224,0.0108597881135211,0.003807,0.000683,0.001688,0.169453,0.055355,314.096339,25.462384,0.999669,0.992304,0.003560,0.382029,0.000003,-0.000026,-0.000004,0.000004,-0.000026,-7.091934,0.000028,
2476,2263,4.81891856858314,-8.33833592568668,0.0132750691366255,0.004052,0.001220,-0.004396,0.202621,0.050080,327.232441,22.709626,0.998945,0.979757,0.005376,0.404665,-0.000008,-0.000034,0.000012,-0.000004,-0.000038,21.283658,0.000047,
2491,2428,5.11032030991636,-4.72416860842814,-0.0134062029158031,0.003858,0.001226,-0.005358,0.197761,0.056538,324.370320,23.290261,0.999390,0.987470,0.004533,0.432763,-0.000012,0.000001,0.000027,0.000022,-0.000033,51.531631,0.000034,
2176,2713,-1.80510241462148,1.4871195784673,-0.028572586293933,0.004137,0.001274,-0.004594,0.205104,0.066178,319.709955,24.472025,0.999423,0.989792,0.003931,0.392283,-0.000002,-0.000031,0.000000,-0.000002,-0.000031,-0.886992,0.000037,
2266,2923,0.11484497439119,6.05693340279117,-0.00467785028092749,0.003669,0.000797,0.002448,0.161066,0.043051,316.224336,24.812946,0.999725,0.992663,0.003601,0.386001,-0.000002,-0.000014,0.000011,0.000004,-0.000021,30.637589,0.000022,
2371,2203,2.53720443330181,-9.65114768617691,0.00625764439547538,0.004396,0.001358,-0.005627,0.221793,0.062290,327.998868,23.028145,0.998941,0.979437,0.005561,0.391776,-0.000021,-0.000006,-0.000005,-0.000005,-0.000022,-72.388371,0.000029,
2221,2668,-0.819561946312408,0.507903148342223,-0.0259620282234323,0.003750,0.000672,0.000115,0.172317,0.040831,320.298895,24.368688,0.999561,0.992948,0.003622,0.413560,0.000001,-0.000021,-0.000002,0.000001,-0.000021,-4.419739,0.000024,
2221,2923,-0.862117208390355,6.05479853390494,-0.00603024616003722,0.004128,0.001115,-0.001379,0.194941,0.060464,316.340672,24.746850,0.999553,0.991821,0.003726,0.375708,-0.000002,-0.000010,0.000009,0.000005,-0.000016,33.615315,0.000016,
2356,3058,2.04705469210357,8.99509665717947,0.00845982391916777,0.004162,0.000554,0.002043,0.184623,0.047739,314.080884,25.357841,0.999644,0.993116,0.003373,0.376818,0.000001,-0.000029,-0.000003,0.000002,-0.000029,-5.151385,0.000032,
2461,2248,4.49357763249587,-8.6657346656924,0.0065550260168834,0.003794,0.001422,-0.006293,0.197853,0.036689,327.377472,22.772580,0.998977,0.978758,0.005480,0.338782,-0.000017,-0.000034,0.000009,-0.000013,-0.000038,23.285475,0.000053,
2506,2548,5.41352220528597,-2.101260049961,-0.00364885531172376,0.003881,0.001043,-0.002819,0.189241,0.043523,322.537951,23.867733,0.999794,0.990493,0.003921,0.298141,0.000001,-0.000062,0.000007,0.000002,-0.000062,6.264629,0.000071,
2296,3118,0.733576966105336,10.2919698846884,0.0211857637359572,0.004158,0.000785,0.000055,0.191667,0.046516,313.244661,25.268725,0.999560,0.993027,0.003510,0.375518,-0.000004,-0.000026,-0.000002,-0.000004,-0.000026,-5.753266,0.000033,
2236,2803,-0.516709035614365,3.44790014446539,-0.0283748856610941,0.004107,0.001168,-0.001899,0.195622,0.072073,318.072655,24.554441,0.999470,0.989227,0.004161,0.444696,0.000000,-0.000026,0.000005,0.000000,-0.000027,10.680730,0.000031,
2146,2548,-2.42974204016086,-2.11029024027524,-0.0186597501267443,0.003832,0.001089,-0.001612,0.181460,0.060559,322.552622,24.312558,0.999008,0.985797,0.004625,0.451984,0.000008,0.000006,0.000017,0.000024,-0.000010,43.924939,0.000024,
2326,2083,1.57642450817206,-12.280344710808,0.00775146066513344,0.003790,0.001335,-0.004780,0.190444,0.058907,329.908498,23.091822,0.999502,0.983421,0.005236,0.252332,-0.000005,-0.000003,0.000001,-0.000002,-0.000005,62.568143,0.000008,
2146,2428,-2.40949292215034,-4.72767051652139,-0.0186450328038745,0.004102,0.001436,-0.006657,0.209105,0.051348,324.519637,24.325119,0.999123,0.986697,0.004731,0.357720,0.000004,-0.000016,0.000002,0.000004,-0.000017,4.536682,0.000017,
2311,2668,1.13904608063316,0.512040462374756,-0.0248681031250158,0.003791,0.001186,-0.005272,0.192666,0.060164,320.183334,24.396736,0.999790,0.992297,0.003585,0.366926,-0.000011,-0.000008,-0.000007,-0.000002,-0.000017,-50.581872,0.000021,
2266,3148,0.0768671776361352,10.9397109717325,0.0249112198756052,0.003894,0.000821,-0.000660,0.181911,0.038479,312.817675,25.167394,0.999278,0.991530,0.003831,0.397355,-0.000002,-0.000027,0.000000,-0.000002,-0.000027,0.433667,0.000033,
2161,2638,-2.11900730430876,-0.146247894344356,-0.032567929995821,0.004128,0.000945,-0.002749,0.198672,0.050496,320.939056,24.439656,0.999771,0.993148,0.003540,0.356219,0.000003,-0.000027,0.000005,0.000004,-0.000028,9.295016,0.000030,
2371,2023,2.57197565233491,-13.6023097787477,0.0315751959057025,0.003489,0.000035,0.002591,0.150454,0.033090,331.040710,22.572874,0.998715,0.973332,0.006425,0.287447,0.000010,-0.000005,0.000015,0.000019,-0.000014,31.848661,0.000019,
2311,2068,1.25272347340482,-12.6120959434076,0.0190114243674202,0.004272,0.001320,-0.002478,0.204486,0.052150,330.265605,23.011987,0.999472,0.981698,0.005152,0.382368,-0.000014,0.000000,-0.000003,0.000001,-0.000014,-77.484662,0.000016,
2131,2278,-2.71051689694145,-8.00859622769006,0.0027320175558998,0.004389,0.000198,-0.000098,0.201868,0.010384,327.170435,24.252910,0.998796,0.982509,0.005375,0.354864,-0.000004,-0.000010,0.000013,0.000006,-0.000020,37.858053,0.000021,
2236,3028,-0.554001251207719,8.33499719156712,0.00802045149646347,0.003960,0.000965,-0.001727,0.188456,0.060294,314.703353,24.895470,0.999494,0.990932,0.003707,0.401327,-0.000011,-0.000031,-0.000001,-0.000011,-0.000031,-2.988324,0.000043,
2326,2743,1.45140555752016,2.14626351654618,-0.026187518270433,0.003936,0.001050,-0.002130,0.188720,0.064872,318.939901,24.529714,0.999599,0.990416,0.003897,0.405883,-0.000012,-0.000021,-0.000004,-0.000010,-0.000023,-21.903120,0.000034,
2311,2893,1.09747726979027,5.4097254832888,-0.0209225826767465,0.003784,0.000922,-0.000587,0.176479,0.060283,316.537138,24.915868,0.999550,0.991069,0.003758,0.330976,-0.000013,-0.000029,0.000009,-0.000009,-0.000033,23.499538,0.000044,
2326,3178,1.37427397928563,11.5959431644685,0.0222902984634743,0.004488,0.000756,0.000123,0.206605,0.046137,312.261409,25.510614,0.999696,0.994108,0.003342,0.386570,0.000003,-0.000007,0.000007,0.000007,-0.000010,27.795320,0.000011,
2176,2503,-1.76901823793185,-3.08987525782037,-0.0252736654422279,0.004419,0.001783,-0.008808,0.230952,0.055173,323.166356,24.282463,0.999027,0.983776,0.005139,0.389308,-0.000004,0.000010,0.000009,0.000014,-0.000008,65.146724,0.000014,
2101,2413,-3.38620537646699,-5.05691533354711,-0.00719291291193258,0.003800,0.001328,-0.001837,0.180458,0.066903,325.022197,24.431362,0.999100,0.985976,0.004673,0.388051,0.000008,-0.000007,0.000001,0.000008,-0.000007,3.200366,0.000008,
2251,2848,-0.19853308490929,4.42710690171196,-0.0214006427399909,0.003773,0.000976,-0.001353,0.178436,0.053163,317.350377,24.676898,0.999519,0.991815,0.003700,0.386180,0.000004,-0.000016,0.000010,0.000008,-0.000020,23.308172,0.000020,
2416,3223,3.32020628057073,12.5795869355478,0.0287656271767105,0.003581,0.000901,-0.001824,0.171823,0.029808,311.572329,26.072219,0.999463,0.990473,0.003829,0.361417,0.000020,-0.000008,0.000005,0.000021,-0.000009,9.444300,0.000021,
2116,2218,-3.02799286070676,-9.31975819857332,0.00312660852404179,0.003911,0.001329,-0.002684,0.187876,0.071067,328.188147,24.364021,0.998332,0.979448,0.005620,0.344705,0.000000,0.000011,0.000027,0.000034,-0.000022,50.620789,0.000034,
2116,2458,-3.06677128626248,-4.07424561615939,-0.0132530754182767,0.004356,0.000850,-0.002847,0.208973,0.056497,324.205038,24.374293,0.999354,0.988371,0.004417,0.406000,0.000007,-0.000019,0.000002,0.000007,-0.000019,3.945660,0.000019,
2281,2998,0.427671863186109,7.6878404696347,-0.000934233285533992,0.003767,0.001092,0.000606,0.171821,0.061395,315.019276,25.028159,0.999252,0.989690,0.004009,0.356263,-0.000003,-0.000026,0.000007,-0.000001,-0.000028,16.560330,0.000033,
2491,2443,5.10759603576407,-4.39606236032584,-0.0069951297012949,0.003955,0.001023,-0.002158,0.189885,0.052688,324.172331,23.426581,0.999111,0.984029,0.004821,0.352849,-0.000001,-0.000042,0.000029,0.000014,-0.000057,27.474418,0.000059,
2131,2488,-2.74608247721045,-3.41961580445508,-0.0186700970033939,0.004043,0.000517,-0.000735,0.188229,0.034697,323.590318,24.301687,0.999309,0.987169,0.004631,0.433854,0.000004,-0.000001,0.000007,0.000009,-0.000006,33.515148,0.000009,
2161,2473,-2.09034842484948,-3.7460845149367,-0.0114822571223385,0.004005,0.001204,-0.002429,0.191902,0.069445,323.779486,24.282582,0.999230,0.985988,0.004834,0.410973,0.000002,-0.000006,0.000011,0.000009,-0.000013,35.082086,0.000014,
2356,2878,2.07927881282666,5.08489678830828,-0.0160829645216722,0.004022,0.000839,0.001120,0.181329,0.049439,316.812342,24.889081,0.999568,0.991640,0.003705,0.388803,-0.000014,-0.000017,-0.000004,-0.000011,-0.000020,-35.914715,0.000031,
2401,3163,3.00598536497501,11.2767872643825,0.023891892667109,0.003923,0.000563,-0.001848,0.187551,0.034204,312.515746,25.813574,0.999627,0.993080,0.003361,0.372106,0.000017,-0.000006,0.000000,0.000017,-0.000006,-0.136970,0.000017,
2341,2143,1.89186126322005,-10.964805904278,0.000420191261923719,0.003795,0.000968,0.001275,0.169726,0.076910,328.857833,23.047165,0.999258,0.983842,0.005094,0.381085,-0.000005,-0.000021,0.000001,-0.000005,-0.000021,2.183206,0.000028,
2281,3268,0.379123495581172,13.5437281826155,0.00878952786280252,0.003851,0.000744,0.002297,0.170126,0.045189,310.680347,25.449126,0.999747,0.993398,0.003325,0.398089,0.000008,-0.000010,0.000021,0.000022,-0.000024,33.395864,0.000027,
2341,2998,1.73179560890405,7.69152566335156,-0.00183110268670816,0.004021,0.000858,-0.002048,0.192558,0.045894,314.984710,25.165757,0.999910,0.997132,0.002741,0.372570,-0.000007,-0.000033,-0.000001,-0.000007,-0.000033,-1.951655,0.000042,
2206,2623,-1.13733995055113,-0.472677390496067,-0.0212762821846013,0.004000,0.001441,-0.001587,0.189470,0.063490,321.123957,24.374989,0.999416,0.985740,0.004602,0.384466,-0.000003,-0.000026,-0.000002,-0.000002,-0.000026,-5.491103,0.000031,
2236,2818,-0.518852249963956,3.773515553549,-0.0225689897831671,0.003993,0.001303,-0.004685,0.199450,0.060013,317.881246,24.568988,0.999523,0.990259,0.004000,0.439022,0.000004,-0.000023,0.000007,0.000006,-0.000025,12.722641,0.000026,
2476,2278,4.81462072755972,-8.00743083117332,0.00305560981246344,0.003729,0.001443,-0.003841,0.185850,0.069951,326.886490,22.857150,0.999378,0.980025,0.005291,0.336497,-0.000011,-0.000006,0.000010,0.000002,-0.000019,51.945442,0.000020,
2341,2878,1.75223740792557,5.08400807688594,-0.0273364768927991,0.003803,0.001050,-0.002294,0.183325,0.053282,316.721057,24.776206,0.999633,0.990870,0.003821,0.481345,-0.000013,-0.000015,0.000000,-0.000013,-0.000015,-4.222763,0.000028,
2221,2683,-0.822098662341261,0.834960963530229,-0.0295208804353706,0.003854,0.001094,-0.002925,0.187044,0.058624,320.040188,24.371587,0.999589,0.992351,0.003610,0.447959,0.000001,-0.000020,-0.000003,0.000001,-0.000021,-9.279310,0.000023,
2371,2983,2.38652727545536,7.36792662102075,-0.004434573162996,0.004003,0.000865,-0.001440,0.189639,0.048243,315.207229,25.214129,0.999542,0.989962,0.004010,0.371120,-0.000008,-0.000029,-0.000004,-0.000007,-0.000029,-11.156173,0.000039,
2326,2098,1.57411561073674,-11.9539376009192,0.0115693737113247,0.003956,0.001724,-0.004565,0.197481,0.060022,329.707066,22.927512,0.999460,0.982423,0.005230,0.455153,-0.000009,-0.000010,-0.000002,-0.000007,-0.000011,-37.591272,0.000019,
2356,2173,2.21541175737742,-10.3101474065292,0.0165930509270424,0.003892,0.001260,-0.002380,0.187054,0.057475,328.528963,22.981508,0.999210,0.981777,0.005365,0.425567,-0.000016,-0.000030,-0.000002,-0.000016,-0.000031,-8.601424,0.000047,
2506,2563,5.41061583330555,-1.77562277751903,-0.00212603355680585,0.004211,0.000650,0.000341,0.192020,0.043765,322.310501,23.765139,0.999808,0.991016,0.003875,0.462762,0.000001,-0.000056,0.000003,0.000001,-0.000057,2.650928,0.000065,
2326,2968,1.41096160167661,7.04026874190721,-0.00696968294124645,0.004084,0.001149,-0.000647,0.190630,0.056118,315.434523,25.157062,0.999693,0.995105,0.003027,0.281630,-0.000009,-0.000030,0.000003,-0.000009,-0.000031,8.459672,0.000042,
2221,2938,-0.865163878306365,6.38097406549637,-0.0112460193968218,0.004051,0.001218,-0.001663,0.192336,0.061670,316.049878,24.751331,0.999574,0.993323,0.003408,0.390808,-0.000004,-0.000004,0.000005,0.000001,-0.000009,43.417185,0.000010,
2206,2848,-1.17612299794663,4.42450885874296,-0.017426066243047,0.003872,0.000892,0.000804,0.176097,0.072046,317.487823,24.609213,0.999315,0.990694,0.003815,0.411920,-0.000002,-0.000017,0.000011,0.000004,-0.000023,26.844610,0.000024,
2326,2758,1.44816102644156,2.47315149549266,-0.029573910502279,0.003833,0.001189,-0.000883,0.179756,0.080784,318.658334,24.545962,0.999645,0.991900,0.003694,0.440199,-0.000013,-0.000017,0.000000,-0.000013,-0.000017,-3.469439,0.000031,
2371,2218,2.53451440827627,-9.32279693928663,0.0108899999120808,0.004302,0.001130,-0.004445,0.213214,0.033496,327.786876,23.120739,0.998710,0.974604,0.006171,0.313888,-0.000022,0.000004,-0.000004,0.000004,-0.000023,-81.296929,0.000024,
2266,2938,0.111954257825968,6.38229211258966,-0.00705273050203914,0.003795,0.000480,0.004485,0.159984,0.038431,315.959111,24.768778,0.999564,0.991589,0.003685,0.450484,-0.000002,-0.000011,0.000009,0.000004,-0.000017,31.867717,0.000018,
2251,3073,-0.236018233918987,9.31230783533772,0.0164473412323218,0.003903,0.001000,0.001411,0.175580,0.063078,313.994260,25.009022,0.999508,0.991931,0.003606,0.404568,-0.000004,-0.000032,-0.000006,-0.000003,-0.000033,-11.233616,0.000041,
2311,3163,1.05109431065924,11.2688242630569,0.0297221736324786,0.003823,0.000594,0.002391,0.168207,0.051303,312.541559,25.406911,0.999664,0.993133,0.003456,0.395278,0.000000,-0.000015,0.000006,0.000002,-0.000017,20.410069,0.000019,
2446,2113,4.19419808693951,-11.6269701874299,0.0205295786583406,0.003962,0.001454,-0.005369,0.201756,0.055231,329.647117,22.362006,0.999485,0.978878,0.005655,0.342628,-0.000009,-0.000033,0.000018,0.000001,-0.000042,28.137585,0.000048,
2176,2518,-1.77155124983384,-2.76308184945223,-0.0243301017990802,0.004446,0.001496,-0.007142,0.226970,0.051269,322.927812,24.268056,0.998994,0.986357,0.004783,0.413060,-0.000003,0.000012,0.000010,0.000016,-0.000008,63.738340,0.000016,
2116,2233,-3.03013451903296,-8.99183591984176,0.00574708811825531,0.004102,0.000825,-0.000735,0.190737,0.044286,327.971716,24.395754,0.998498,0.980761,0.005536,0.291847,-0.000005,0.000019,0.000024,0.000034,-0.000020,58.380655,0.000034,
2101,2428,-3.38891102244292,-4.72939458320884,-0.00677010720130511,0.003714,0.000895,0.002508,0.163688,0.072079,324.766938,24.438036,0.999382,0.986960,0.004479,0.389440,0.000010,-0.000007,0.000012,0.000016,-0.000013,26.768582,0.000017,
2176,2728,-1.80813781137161,1.81288071894499,-0.0308079884860035,0.003993,0.000902,-0.001458,0.188637,0.057061,319.431828,24.407285,0.999464,0.989931,0.003988,0.460486,-0.000002,-0.000035,-0.000002,-0.000002,-0.000035,-3.882751,0.000041,
2311,2683,1.13657714474474,0.837802272411523,-0.0199381392165492,0.003944,0.001151,-0.002149,0.189053,0.071956,319.977560,24.357992,0.999748,0.991543,0.003713,0.450120,-0.000011,-0.000004,-0.000007,0.000000,-0.000015,-58.744887,0.000017,
2191,2833,-1.4993733755322,4.09783167440528,-0.024167537069502,0.004127,0.001140,-0.002808,0.199179,0.041285,317.742912,24.578766,0.999240,0.989983,0.003986,0.376996,0.000002,-0.000023,0.000008,0.000004,-0.000025,16.121640,0.000027,
2341,3298,1.67456899000002,14.2007013259587,-0.0117966745562512,0.004171,0.000741,-0.001877,0.199088,0.039960,309.992304,25.847813,0.999677,0.993145,0.003269,0.393523,-0.000016,0.000001,0.000014,0.000008,-0.000023,60.660674,0.000024,
2386,3073,2.6958953070053,9.32338302840849,0.00530233217176601,0.003979,0.001022,0.000223,0.182749,0.061474,313.817372,25.492707,0.999641,0.991840,0.003630,0.400397,0.000004,-0.000024,-0.000006,0.000005,-0.000025,-11.257342,0.000026,
2476,2293,4.81132610426461,-7.68135820369463,0.00837787229426112,0.003472,0.000685,0.001354,0.154093,0.059753,326.657442,22.755531,0.999416,0.981224,0.005214,0.486481,-0.000015,0.000005,0.000010,0.000010,-0.000019,66.919707,0.000019,
2281,3283,0.376292022207462,13.8690495877287,0.00150929212577466,0.004078,0.000904,-0.000670,0.190586,0.041303,310.393535,25.468094,0.999490,0.992292,0.003435,0.401634,0.000008,-0.000007,0.000024,0.000025,-0.000024,36.476018,0.000029,
2131,2293,-2.71376287807183,-7.67968711062794,-0.00460511284325094,0.003896,0.000677,-0.002183,0.185647,0.022799,326.851321,24.256136,0.998822,0.984545,0.005075,0.372171,0.000003,-0.000007,0.000020,0.000019,-0.000023,38.129877,0.000025,
2236,2833,-0.52143044853285,4.10016307812242,-0.0204237069270334,0.004136,0.000798,-0.001480,0.195447,0.047107,317.650886,24.655220,0.999521,0.990915,0.003766,0.360652,0.000005,-0.000016,0.000011,0.000010,-0.000021,23.851568,0.000021,
2356,2893,2.07716532598407,5.41135235613363,-0.0110944663363171,0.004088,0.001371,-0.002550,0.197546,0.066883,316.625301,24.966095,0.999560,0.991394,0.003698,0.367777,-0.000013,-0.000022,-0.000003,-0.000013,-0.000023,-16.282136,0.000036,
2491,2458,5.10399781867507,-4.06804179508739,-0.0064199140079495,0.003759,0.000944,0.002177,0.164310,0.068977,323.907828,23.484826,0.999162,0.985343,0.004677,0.371077,0.000010,-0.000056,0.000026,0.000019,-0.000065,19.160489,0.000067,
2341,3013,1.72927736862895,8.01710439424807,0.000744390303623277,0.003972,0.001132,-0.004130,0.197610,0.041605,314.766291,25.197212,0.999658,0.992974,0.003433,0.372804,-0.000007,-0.000035,0.000000,-0.000007,-0.000035,-0.163447,0.000045,
2266,3163,0.0744899635161609,11.2658405455174,0.0283739724203542,0.003951,0.001216,-0.001063,0.186050,0.057441,312.604724,25.266779,0.999281,0.989539,0.004097,0.341171,-0.000001,-0.000022,0.000005,0.000000,-0.000023,12.151548,0.000027,
2506,2578,5.40604764449981,-1.44498469728324,-0.017258253757177,0.003993,0.001145,-0.000346,0.184927,0.074252,321.931291,23.950477,0.999590,0.987275,0.004561,0.370557,-0.000005,-0.000050,0.000000,-0.000005,-0.000050,-0.163589,0.000061,
2161,2488,-2.09359503868735,-3.41805872011362,-0.0212598021174131,0.003867,0.001340,-0.002864,0.186990,0.081378,323.450415,24.256486,0.999135,0.985913,0.004793,0.460714,-0.000002,0.000006,0.000007,0.000010,-0.000006,58.455340,0.000010,
2146,2563,-2.43181294397009,-1.78297570198645,-0.0173362585668428,0.003972,0.001447,-0.004091,0.195564,0.071173,322.334741,24.347800,0.998881,0.985675,0.004684,0.436062,0.000011,0.000006,0.000013,0.000022,-0.000004,40.159944,0.000023,
2416,3238,3.31661799780266,12.9058091219912,0.019501655857141,0.003709,0.001099,-0.001519,0.176830,0.056475,311.252776,26.120519,0.999435,0.991167,0.003721,0.386349,0.000018,-0.000013,0.000002,0.000019,-0.000014,4.265844,0.000019,
2371,3103,2.36508220131256,9.97314861148764,0.014604156660937,0.004057,0.000809,-0.001690,0.193111,0.045751,313.407292,25.556037,0.999415,0.990612,0.003880,0.347838,0.000008,-0.000022,-0.000008,0.000011,-0.000024,-14.337842,0.000024,
2371,2038,2.56877419254548,-13.2720902101161,0.0219100123792373,0.003646,0.000961,-0.000630,0.169377,0.067760,330.737426,22.549430,0.998956,0.976805,0.005977,0.390582,0.000006,-0.000014,0.000015,0.000014,-0.000022,28.040067,0.000022,
2311,2908,1.09551828405737,5.73497222607317,-0.0125513588998842,0.003745,0.001188,-0.003570,0.184958,0.052474,316.371369,24.934854,0.999579,0.992435,0.003604,0.335885,-0.000012,-0.000027,0.000008,-0.000009,-0.000030,23.950197,0.000041,
2311,2083,1.24949217703111,-12.281320358246,0.018350208867048,0.004065,0.000857,0.000388,0.185099,0.067357,329.998362,23.176659,0.999425,0.982483,0.005215,0.268536,-0.000014,0.000001,-0.000004,0.000001,-0.000014,-76.635740,0.000016,
2386,2023,2.89986725663688,-13.6015137109839,0.0234851939183045,0.003842,0.000740,-0.000633,0.178286,0.038292,331.011854,22.482839,0.998653,0.969909,0.006696,0.280814,0.000011,-0.000008,0.000013,0.000018,-0.000014,27.499742,0.000019,
2296,3133,0.730467003227641,10.6174739443124,0.0222795953640684,0.003946,0.000891,0.003046,0.171803,0.054666,312.988381,25.300235,0.999713,0.994519,0.003251,0.380795,-0.000003,-0.000025,-0.000004,-0.000002,-0.000026,-8.848324,0.000031,
2206,2863,-1.178167268616,4.75007122616263,-0.0148666117278253,0.003866,0.001321,-0.004601,0.193049,0.053767,317.282302,24.611560,0.999371,0.991632,0.003601,0.407596,-0.000003,-0.000017,0.000003,-0.000003,-0.000017,11.312084,0.000022,
2281,3298,0.373159834311501,14.1947343942973,-0.00343200304109814,0.004149,0.000533,0.000647,0.189367,0.032859,310.104423,25.542466,0.999615,0.993711,0.003221,0.345089,0.000004,-0.000001,0.000026,0.000028,-0.000025,42.057223,0.000031,
2131,2503,-2.74885638302207,-3.09175262143493,-0.0287483245139128,0.004248,0.000871,-0.002399,0.202778,0.036026,323.278265,24.273932,0.999141,0.985956,0.004703,0.470142,0.000011,0.000002,0.000010,0.000017,-0.000005,31.850005,0.000018,
2491,2473,5.10112154957268,-3.7403616378984,-0.00729565518707886,0.003836,0.000973,-0.000266,0.177206,0.056702,323.670040,23.531731,0.999369,0.985038,0.004655,0.371936,-0.000003,-0.000068,0.000027,0.000006,-0.000078,19.848965,0.000087,
2446,2128,4.19083634298722,-11.297695966594,0.0185565730693042,0.003723,0.001660,-0.005931,0.193039,0.059179,329.379790,22.404600,0.999425,0.978354,0.005829,0.359310,-0.000008,-0.000028,0.000020,0.000004,-0.000041,31.752431,0.000045,
2176,2743,-1.80985128976413,2.13886754343179,-0.017930071687033,0.004049,0.000807,0.000163,0.186174,0.058344,319.293334,24.477841,0.999584,0.990692,0.003976,0.403281,-0.000002,-0.000035,-0.000001,-0.000002,-0.000035,-1.332135,0.000041,
2461,2263,4.49033467505413,-8.33601260516728,0.00194618853447537,0.004020,0.001413,-0.005735,0.206138,0.066406,327.104036,22.853534,0.999039,0.979165,0.005528,0.344482,-0.000016,-0.000032,-0.000001,-0.000015,-0.000032,-4.844432,0.000049,
2401,3178,3.00312124459932,11.6021246009075,0.0238114195626054,0.004096,0.000783,-0.000497,0.190714,0.045489,312.272234,25.832294,0.999588,0.992762,0.003444,0.409060,0.000020,0.000001,0.000002,0.000020,0.000001,5.599464,0.000024,
2161,2653,-2.12187319048178,0.180776814605188,-0.0380827815477573,0.004101,0.001273,-0.003148,0.198769,0.060051,320.649877,24.421094,0.999691,0.991944,0.003679,0.395037,0.000002,-0.000023,0.000004,0.000002,-0.000024,8.893431,0.000026,
2356,3073,2.04477862098944,9.32069098717226,0.0105375178478084,0.004345,0.000817,-0.000971,0.203734,0.045112,313.871997,25.400834,0.999612,0.992965,0.003396,0.369150,0.000004,-0.000025,-0.000005,0.000005,-0.000026,-10.264469,0.000028,
2341,2158,1.88949381280707,-10.6378839327431,0.000327896112878534,0.003888,0.001204,-0.003093,0.189256,0.064187,328.635840,22.922898,0.999303,0.984952,0.005010,0.532046,-0.000013,-0.000030,-0.000005,-0.000011,-0.000031,-15.712821,0.000044,
2506,2593,5.40199266505496,-1.11619636583154,-0.0251907961023221,0.003786,0.000837,0.000315,0.172712,0.048005,321.608168,24.092057,0.999835,0.993978,0.003571,0.264648,0.000000,-0.000044,0.000002,0.000000,-0.000044,2.898926,0.000051,
2116,2473,-3.06978624634307,-3.74643736106535,-0.0171268451536548,0.003968,0.000856,-0.003233,0.192273,0.047400,323.913754,24.397323,0.999434,0.988784,0.004225,0.378778,0.000010,-0.000011,0.000009,0.000013,-0.000014,19.433361,0.000016,
2116,2248,-3.03311075280177,-8.66412459888201,0.00547912010762275,0.003652,0.000770,0.001394,0.163816,0.059804,327.701526,24.341468,0.998690,0.983010,0.005278,0.367592,-0.000007,0.000012,0.000022,0.000027,-0.000022,56.698415,0.000028,
2326,2113,1.57190111748478,-11.6258256619607,0.0202790475878487,0.004144,0.000383,-0.000873,0.192879,0.015802,329.533775,23.022064,0.999519,0.981835,0.005190,0.353478,-0.000012,-0.000010,-0.000001,-0.000009,-0.000013,-80.581074,0.000022,
2206,2638,-1.13985300777821,-0.145927259723244,-0.025258671497113,0.004160,0.001375,-0.004161,0.204974,0.060474,320.863077,24.351650,0.999346,0.987056,0.004493,0.422384,-0.000005,-0.000027,-0.000006,-0.000004,-0.000028,-13.609713,0.000035,
2311,2698,1.13365228492238,1.16438154671761,-0.0207125504237524,0.003840,0.001108,-0.002140,0.184247,0.070588,319.722586,24.364723,0.999755,0.992197,0.003650,0.474582,-0.000015,-0.000007,-0.000003,-0.000006,-0.000016,-71.882835,0.000022,
2146,2578,-2.43514128951579,-1.45508375834431,-0.0239723546334289,0.003824,0.001152,0.000028,0.176227,0.088152,322.016929,24.364907,0.999175,0.987975,0.004420,0.444968,0.000007,-0.000003,0.000007,0.000010,-0.000006,26.974343,0.000010,
2131,2308,-2.71587953806612,-7.35138235568803,-0.004275283588413,0.004104,0.000865,-0.003190,0.198277,0.045067,326.624702,24.276787,0.998977,0.985160,0.004993,0.381449,0.000004,-0.000016,0.000010,0.000009,-0.000021,22.359099,0.000021,
2491,2488,5.09876658175547,-3.41282969929931,-0.00381211644679524,0.004086,0.001264,-0.002468,0.197266,0.073436,323.475638,23.580904,0.999503,0.985093,0.004559,0.399599,0.000008,-0.000044,0.000019,0.000014,-0.000051,18.313117,0.000052,
2341,2893,1.7505668988213,5.41053861480502,-0.0183383148078633,0.004092,0.001220,-0.004633,0.204889,0.059019,316.572907,24.901470,0.999499,0.990579,0.003842,0.397944,-0.000013,-0.000021,0.000002,-0.000012,-0.000022,12.530521,0.000035,
2476,2308,4.80892776638052,-7.35106774617596,0.00786021771978085,0.003720,0.001055,-0.004353,0.187259,0.055113,326.442535,22.980108,0.999062,0.977171,0.005886,0.315818,-0.000016,0.000015,0.000003,0.000016,-0.000017,84.241752,0.000019,
2281,3013,0.424529750775953,8.01352196144794,-0.00130775637427405,0.003556,0.000870,0.003027,0.154070,0.082006,314.753367,25.023588,0.999234,0.989125,0.004032,0.408276,-0.000005,-0.000031,0.000006,-0.000004,-0.000033,12.632936,0.000040,
2386,2038,2.8964749121858,-13.2714496630123,0.01949459034455,0.003619,0.001184,-0.001086,0.169872,0.073736,330.728287,22.508987,0.998877,0.974167,0.006226,0.337309,0.000006,-0.000020,0.000015,0.000013,-0.000027,24.477655,0.000027,
2326,3193,1.37211709648133,11.919839299264,0.0327947569323896,0.004388,0.000442,0.000715,0.199812,0.021901,312.097577,25.496806,0.999768,0.994890,0.003069,0.409082,0.000003,-0.000005,0.000009,0.000008,-0.000011,32.940859,0.000011,
2191,2848,-1.50181529497622,4.42305206072814,-0.0148427817948118,0.003866,0.000658,0.000911,0.175411,0.045540,317.553388,24.573926,0.999251,0.990576,0.003854,0.400193,-0.000004,-0.000018,0.000009,0.000000,-0.000022,25.714729,0.000026,
2221,2698,-0.824651940534576,1.16161131794258,-0.0283945420178497,0.003852,0.001232,-0.002576,0.185879,0.058959,319.804875,24.397892,0.999654,0.993732,0.003293,0.441256,0.000000,-0.000028,0.000000,0.000000,-0.000028,0.238062,0.000032,
2371,2233,2.5309846884304,-8.99391578802612,0.00929620892657113,0.003960,0.000675,-0.001914,0.188459,0.033696,327.506480,23.173229,0.998891,0.979058,0.005784,0.305151,-0.000021,0.000001,0.000000,0.000001,-0.000021,-88.730226,0.000024,
2371,2053,2.56636446704956,-12.9419111075146,0.0229350598382894,0.003896,0.001135,-0.002304,0.186842,0.060206,330.521433,22.690585,0.999151,0.979065,0.005604,0.286150,0.000004,-0.000022,0.000013,0.000010,-0.000027,21.781077,0.000028,
2251,3088,-0.238983697775456,9.63838445774729,0.0104005815264259,0.003874,0.001123,-0.001119,0.182621,0.065367,313.705231,25.041662,0.999570,0.990899,0.003681,0.396674,-0.000004,-0.000039,-0.000007,-0.000003,-0.000040,-10.806550,0.000048,
2446,2143,4.18675657982795,-10.9682801209955,0.0114285037228115,0.003608,0.000674,-0.001437,0.170693,0.043792,329.055901,22.429791,0.999175,0.978021,0.005933,0.374171,-0.000011,-0.000024,0.000012,-0.000004,-0.000031,30.751287,0.000038,
2251,2863,-0.200958098790146,4.7528895444907,-0.0207959021275883,0.004003,0.000749,-0.000922,0.187550,0.040843,317.120485,24.680186,0.999575,0.991749,0.003645,0.393717,0.000002,-0.000017,0.000005,0.000003,-0.000018,12.934036,0.000019,
2416,3253,3.31307082333278,13.2312356727257,0.0146438294961513,0.003763,0.000550,0.001730,0.167212,0.051091,310.956000,26.157073,0.999251,0.989737,0.003966,0.390595,0.000015,-0.000009,0.000002,0.000015,-0.000009,5.307702,0.000015,
2221,2953,-0.867764886618911,6.70609767243383,-0.00374328343002617,0.003806,0.000487,0.002004,0.169075,0.040024,315.845248,24.775568,0.999447,0.991918,0.003685,0.363134,-0.000007,-0.000009,0.000004,-0.000003,-0.000012,38.527328,0.000016,
2161,2503,-2.09606760736056,-3.09034380657974,-0.031998149062531,0.004551,0.000752,-0.003615,0.220512,0.037552,323.151968,24.254867,0.999018,0.985095,0.004937,0.429912,0.000004,0.000006,0.000011,0.000016,-0.000006,47.992361,0.000017,
2326,2773,1.44610779386548,2.80043644024272,-0.0238921233508336,0.004055,0.001372,-0.002106,0.194264,0.080082,318.475713,24.691032,0.999740,0.994779,0.003239,0.328733,-0.000013,-0.000022,-0.000005,-0.000011,-0.000024,-24.622336,0.000036,
2386,3088,2.69312338038564,9.64815882356181,0.012093634918358,0.003606,0.000690,0.000651,0.163845,0.033295,313.610324,25.520314,0.999427,0.990510,0.003865,0.386670,0.000006,-0.000023,-0.000011,0.000010,-0.000026,-17.946386,0.000026,
2506,2608,5.39925773025181,-0.789800432685595,-0.0253954083157168,0.003858,0.001368,-0.003318,0.190340,0.067599,321.380427,24.040255,0.999843,0.993618,0.003659,0.397940,0.000002,-0.000034,-0.000009,0.000004,-0.000036,-13.022389,0.000040,
2356,1993,2.24970095919957,-14.260246482545,0.0288162702342447,0.003477,0.000815,0.000448,0.157760,0.059069,331.500726,22.586972,0.998900,0.967591,0.007052,0.316529,0.000028,0.000019,0.000008,0.000032,0.000015,30.153953,0.000048,
2491,2503,5.0948382638106,-3.08466990444126,-0.00724594581885185,0.003690,0.001105,-0.000606,0.171944,0.067386,323.177742,23.652208,0.999524,0.986112,0.004534,0.382432,0.000012,-0.000050,0.000011,0.000014,-0.000052,10.198605,0.000054,
2341,3028,1.72685793221001,8.3427486918822,0.00968886433997795,0.003912,0.000834,-0.001321,0.184938,0.034714,314.583332,25.283306,0.999697,0.994002,0.003365,0.315348,-0.000002,-0.000035,-0.000002,-0.000002,-0.000035,-3.659102,0.000042,
2326,2983,1.4082300319329,7.36487156750304,-0.00300120264859061,0.003855,0.000968,-0.000565,0.179728,0.049880,315.212493,25.102463,0.999924,0.997101,0.002562,0.363799,-0.000006,-0.000031,0.000006,-0.000004,-0.000032,12.510717,0.000040,
2371,3118,2.36188898490274,10.298299667365,0.0171196655442145,0.003938,0.000410,0.003372,0.169475,0.043016,313.159267,25.572429,0.999622,0.991751,0.003671,0.368721,0.000007,-0.000014,-0.000003,0.000008,-0.000015,-8.015676,0.000015,
2131,2323,-2.71827344318065,-7.02349479373056,-0.00078939174846937,0.003890,0.001153,-0.003234,0.188700,0.065685,326.402289,24.297358,0.999262,0.985616,0.004795,0.389194,0.000006,-0.000019,0.000003,0.000007,-0.000019,6.695227,0.000019,
2206,2878,-1.18086340642836,5.07655610121056,-0.0173903616017128,0.004112,0.000909,-0.002137,0.196474,0.050189,317.020252,24.650798,0.999610,0.993508,0.003314,0.381355,-0.000005,-0.000013,0.000001,-0.000005,-0.000013,6.657569,0.000019,
2266,3178,0.0719225358723143,11.5902916947357,0.0281488669946839,0.004106,0.000958,-0.001136,0.193363,0.046861,312.364996,25.222437,0.999429,0.991375,0.003675,0.399247,0.000001,-0.000019,0.000006,0.000003,-0.000020,15.433212,0.000022,
2146,2593,-2.43748242794712,-1.12774103613364,-0.0311277138107471,0.003984,0.001738,-0.006568,0.203770,0.088765,321.741755,24.348995,0.999215,0.987967,0.004497,0.470312,0.000004,-0.000005,0.000009,0.000010,-0.000011,31.013682,0.000012,
2176,2533,-1.77468280564183,-2.43612127473813,-0.01988582011586,0.003806,0.001249,-0.003020,0.184760,0.058793,322.680054,24.293635,0.998925,0.987664,0.004458,0.408363,-0.000005,0.000008,0.000010,0.000013,-0.000010,62.080732,0.000014,
2296,1993,0.938526428697891,-14.2585514673008,0.0276239466464858,0.003727,0.000548,0.000659,0.168558,0.043746,331.518242,23.009711,0.999291,0.965942,0.007041,0.303502,-0.000025,-0.000001,-0.000032,0.000021,-0.000047,-55.346986,0.000047,
2476,2323,4.8055487166299,-7.02334200368357,0.00342521066306745,0.004081,0.000521,-0.000591,0.189313,0.048944,326.165113,22.938025,0.998960,0.979242,0.005602,0.410652,-0.000023,0.000028,0.000005,0.000028,-0.000023,84.369133,0.000030,
2341,2908,1.74782196236574,5.73674900605535,-0.0166533718478377,0.004150,0.001070,-0.003217,0.202537,0.051956,316.339889,24.960595,0.999413,0.990161,0.003906,0.367898,-0.000012,-0.000022,0.000002,-0.000012,-0.000022,12.286354,0.000035,
2506,2623,5.39693363958457,-0.464825694808667,-0.0194960950621521,0.003998,0.001211,-0.004848,0.202606,0.050869,321.199119,23.951000,0.999873,0.994281,0.003358,0.532120,-0.000002,-0.000044,-0.000020,0.000006,-0.000052,-22.064870,0.000057,
2236,3043,-0.556122604607545,8.66085931043295,0.0118574680973325,0.004228,0.001079,-0.001669,0.200630,0.055830,314.502500,24.966855,0.999620,0.991614,0.003604,0.345426,-0.000008,-0.000035,-0.000001,-0.000008,-0.000035,-2.108296,0.000045,
2296,3148,0.727657657932248,10.9428614666956,0.0249899214827565,0.003571,0.000856,0.001354,0.160252,0.051125,312.753976,25.346202,0.999618,0.993205,0.003514,0.360023,-0.000003,-0.000023,-0.000001,-0.000003,-0.000023,-2.071137,0.000028,
2401,2098,3.21269041033322,-11.9544053793681,0.0157276557997648,0.003829,0.001177,-0.001835,0.182276,0.067197,329.757657,22.597582,0.998837,0.972253,0.006520,0.337487,-0.000015,-0.000021,0.000012,-0.000006,-0.000030,37.781302,0.000038,
2356,2008,2.24707325674002,-13.9292447533065,0.0202636278439172,0.004099,0.001425,-0.002741,0.197644,0.073049,331.227551,22.655626,0.998671,0.975087,0.006391,0.304529,0.000028,0.000007,0.000011,0.000033,0.000002,23.876092,0.000040,
2191,2863,-1.50436016417536,4.74950791953274,-0.0195524073923252,0.004066,0.000742,-0.001232,0.191361,0.042436,317.285728,24.589041,0.999310,0.991447,0.003667,0.396306,-0.000005,-0.000017,0.000002,-0.000004,-0.000017,8.472834,0.000023,
2416,3268,3.309352010931,13.5569735303143,0.00466092680176189,0.003807,0.000692,0.001911,0.168722,0.063327,310.627034,26.180940,0.999567,0.991685,0.003622,0.425205,0.000010,-0.000011,0.000007,0.000012,-0.000014,17.389080,0.000015,
2461,2278,4.48755826001198,-8.00802830572536,0.00902394851357258,0.003819,0.001433,-0.004199,0.191203,0.072849,326.905482,22.923035,0.999361,0.979666,0.005483,0.337951,-0.000015,-0.000005,-0.000002,-0.000005,-0.000016,-79.291537,0.000022,
2386,3178,2.67730016615229,11.6011937204884,0.0261006039418703,0.004036,0.000993,-0.000017,0.186316,0.061137,312.275230,25.796866,0.999516,0.991947,0.003560,0.391088,0.000015,-0.000004,0.000002,0.000015,-0.000004,5.881357,0.000016,
2371,2998,2.38426680935416,7.69347782014912,0.0039688944854106,0.003870,0.000968,-0.002623,0.187755,0.042098,315.030668,25.281034,0.999559,0.991056,0.003809,0.338082,-0.000005,-0.000028,-0.000007,-0.000003,-0.000030,-15.428206,0.000037,
2401,3193,3.00012549083884,11.9273149842009,0.0282388104823212,0.003766,0.000418,0.000639,0.171237,0.030333,312.043973,25.894194,0.999566,0.992015,0.003506,0.376020,0.000021,0.000001,0.000004,0.000022,0.000001,10.429683,0.000026,
2221,2968,-0.870151283905724,7.0323115491234,-0.0021337585432093,0.003833,0.001131,0.000583,0.175147,0.071359,315.619753,24.809597,0.999371,0.989958,0.003967,0.378770,-0.000008,-0.000014,0.000005,-0.000005,-0.000016,28.991639,0.000023,
2356,2188,2.2120492901971,-9.98069223434893,0.0188024207926674,0.003464,0.000386,0.000964,0.155413,0.031521,328.273397,23.135882,0.999153,0.982752,0.005213,0.287012,-0.000017,-0.000018,-0.000006,-0.000012,-0.000024,-42.431824,0.000036,
2131,2518,-2.75076817273543,-2.76495903230411,-0.0157875055384693,0.004114,0.000838,0.000564,0.187766,0.050396,323.128657,24.348856,0.999096,0.986250,0.004668,0.415946,0.000012,0.000005,0.000014,0.000022,-0.000005,38.643201,0.000023,
2341,2173,1.88670913449376,-10.3082029101505,0.00271326678358719,0.003871,0.001031,-0.001320,0.182282,0.049595,328.406342,23.084086,0.999125,0.982752,0.005207,0.395664,-0.000014,-0.000030,-0.000001,-0.000014,-0.000030,-4.057639,0.000045,
2311,2713,1.13055721684776,1.49179991897233,-0.0214530415917125,0.003636,0.001271,-0.001218,0.171797,0.079586,319.459683,24.443129,0.999564,0.990528,0.003899,0.437509,-0.000014,-0.000009,-0.000002,-0.000008,-0.000015,-69.001040,0.000023,
2356,2908,2.07354882544372,5.73772278434157,-0.0161217471228383,0.003909,0.001066,0.000071,0.179998,0.069260,316.320822,24.982027,0.999461,0.990474,0.003856,0.392712,-0.000013,-0.000022,-0.000001,-0.000013,-0.000023,-8.832094,0.000036,
2281,3028,0.42273438116505,8.3391816605607,0.00147756384558306,0.003919,0.001280,-0.001978,0.187642,0.078982,314.565175,25.065490,0.999168,0.988545,0.004058,0.390339,-0.000005,-0.000033,0.000003,-0.000004,-0.000033,6.001109,0.000041,
2206,2653,-1.14308223778871,0.18061760206939,-0.0276475085278776,0.003994,0.000573,0.000447,0.182476,0.045841,320.577640,24.339742,0.999306,0.986700,0.004628,0.436901,-0.000002,-0.000026,-0.000003,-0.000001,-0.000026,-7.613266,0.000031,
2311,3178,1.0485620205392,11.594404124526,0.0277998781116366,0.004055,0.000809,0.000211,0.186468,0.055090,312.297832,25.442831,0.999717,0.993388,0.003402,0.394141,0.000001,-0.000011,0.000007,0.000004,-0.000014,25.287798,0.000015,
2311,2923,1.09272338685359,6.060533102069,-0.013881082049636,0.003950,0.001358,-0.001805,0.188463,0.072295,316.119192,24.889198,0.999265,0.990348,0.003921,0.433078,-0.000014,-0.000028,0.000005,-0.000013,-0.000029,18.397473,0.000043,
2176,2758,-1.81303549318541,2.46595817557954,-0.0253177289989139,0.004006,0.000801,0.001719,0.179356,0.061446,318.980980,24.490845,0.999470,0.989990,0.003964,0.405814,-0.000004,-0.000032,-0.000002,-0.000004,-0.000032,-4.763393,0.000040,
2266,2953,0.110331743677701,6.70919339004904,-0.00582753700729199,0.004424,0.000996,-0.000507,0.205712,0.046037,315.769764,24.883825,0.999289,0.988059,0.004225,0.368200,-0.000005,-0.000016,0.000010,0.000001,-0.000021,30.404306,0.000024,
2251,3103,-0.240816589662941,9.96313794150158,0.0192026683665176,0.004062,0.000914,-0.001570,0.192697,0.050340,313.544069,25.067701,0.999586,0.992173,0.003569,0.377891,-0.000009,-0.000039,-0.000007,-0.000007,-0.000040,-12.919993,0.000051,
2476,2338,4.80184968408311,-6.69350202891705,0.000259487562630056,0.003507,0.001288,-0.003067,0.172775,0.048468,325.878376,23.102071,0.998778,0.979665,0.005657,0.305065,-0.000025,0.000034,0.000005,0.000034,-0.000026,84.880652,0.000036,
2371,3133,2.35949893358444,10.6240010803927,0.0220338427018305,0.004083,0.000597,0.003887,0.174471,0.064600,312.959484,25.633479,0.999606,0.991653,0.003669,0.369151,0.000012,-0.000015,-0.000006,0.000013,-0.000016,-11.811841,0.000017,
2116,2263,-3.03572046578077,-8.33561692068478,-0.00243050271330958,0.003782,0.000796,-0.000915,0.176619,0.037404,327.407195,24.324975,0.998772,0.983979,0.005185,0.368017,-0.000007,-0.000004,0.000018,0.000013,-0.000024,48.025409,0.000024,
2236,2848,-0.524708906874817,4.42692745292109,-0.0278902485018762,0.004049,0.001080,-0.001195,0.190684,0.072772,317.339212,24.646034,0.999433,0.991018,0.003752,0.416675,0.000003,-0.000016,0.000011,0.000008,-0.000021,24.860463,0.000021,
2386,2263,2.85092739130159,-8.3342433979142,-0.016909606294405,0.003926,0.001431,-0.006103,0.202255,0.063441,326.826360,23.142008,0.999139,0.983190,0.005127,0.387507,-0.000022,-0.000006,-0.000003,-0.000006,-0.000023,-79.076374,0.000031,
2446,2158,4.18399054441288,-10.6395409091175,0.0155115529080376,0.003567,0.000795,-0.000810,0.166544,0.040800,328.843591,22.506739,0.999274,0.979043,0.005584,0.349231,-0.000013,-0.000037,0.000001,-0.000013,-0.000037,2.407507,0.000052,
2221,2713,-0.827359222709422,1.48798748037006,-0.0249571887906654,0.003639,0.000793,-0.000778,0.170186,0.054052,319.574413,24.427415,0.999289,0.990280,0.003869,0.425847,0.000003,-0.000033,0.000000,0.000003,-0.000033,-0.478833,0.000036,
2371,2068,2.56279880879114,-12.6133202106755,0.0204452928130081,0.003426,0.001188,-0.001673,0.163141,0.061051,330.235823,22.645081,0.999422,0.980998,0.005151,0.377082,0.000002,-0.000013,0.000016,0.000012,-0.000023,32.306903,0.000023,
2251,2878,-0.203529058074743,5.07941847724062,-0.0201911350796422,0.003951,0.000971,-0.002448,0.190222,0.045491,316.883614,24.739410,0.999642,0.990568,0.003731,0.362047,0.000002,-0.000014,0.000004,0.000003,-0.000015,13.192505,0.000016,
2461,2293,4.48414201895917,-7.68098716461332,0.0110614899948018,0.003673,0.000926,0.000813,0.165507,0.067103,326.654692,22.871987,0.999270,0.979383,0.005494,0.439657,-0.000019,0.000008,-0.000001,0.000008,-0.000019,-87.976976,0.000019,
2386,2053,2.89482781486487,-12.9426923385075,0.0279807503354732,0.003788,0.001741,-0.006240,0.196287,0.062284,330.583880,22.607919,0.999192,0.978706,0.005818,0.273035,0.000005,-0.000026,0.000014,0.000010,-0.000031,21.058666,0.000032,
2236,3058,-0.558191119891095,8.98555336610414,0.0187454137919758,0.004246,0.001218,-0.002816,0.205204,0.058934,314.320024,24.946466,0.999632,0.992836,0.003385,0.389330,-0.000004,-0.000039,-0.000003,-0.000003,-0.000040,-5.401190,0.000048,
2326,3208,1.36904107325475,12.2456967067875,0.0346558852638168,0.003881,0.001170,-0.000605,0.181282,0.047658,311.848305,25.566354,0.999660,0.993524,0.003262,0.398402,0.000003,-0.000006,0.000008,0.000008,-0.000011,30.490736,0.000012,
2491,2518,5.09137104416896,-2.75710572195453,-0.0147335798067729,0.003903,0.001073,-0.000967,0.183063,0.055965,322.882828,23.642920,0.999444,0.986554,0.004451,0.440410,0.000005,-0.000045,0.000005,0.000005,-0.000046,5.905897,0.000050,
2356,2203,2.2086376834224,-9.65032406532958,0.00265776875454549,0.003923,0.001190,-0.001739,0.186232,0.064069,327.927051,23.127953,0.999106,0.982151,0.005263,0.369459,-0.000022,-0.000005,-0.000010,-0.000001,-0.000026,-65.364003,0.000030,
2356,3088,2.04177828537116,9.64628226893635,0.0153516435946131,0.003929,0.000840,0.000373,0.179899,0.050769,313.642942,25.456510,0.999542,0.992331,0.003551,0.356714,0.000008,-0.000024,-0.000010,0.000011,-0.000027,-16.682840,0.000027,
2386,3103,2.69087812226539,9.97339827587523,0.0141808755686839,0.003872,0.000672,-0.002206,0.186417,0.038853,313.404906,25.530310,0.999096,0.988525,0.004181,0.424555,0.000012,-0.000019,-0.000006,0.000013,-0.000020,-10.177766,0.000020,
2296,3163,0.725689007805915,11.2675489501372,0.0362114602668271,0.003673,0.000501,0.003253,0.158422,0.047069,312.600790,25.382652,0.999699,0.992970,0.003417,0.348319,-0.000003,-0.000020,0.000004,-0.000002,-0.000021,11.768467,0.000025,
2116,2488,-3.07213075642702,-3.42042386460949,-0.0162084408475494,0.003961,0.000400,-0.003217,0.191772,0.016785,323.679353,24.326660,0.999279,0.987623,0.004419,0.423594,0.000007,-0.000002,0.000007,0.000011,-0.000006,28.455906,0.000011,
2401,2113,3.21016204872316,-11.6257937947431,0.0214493689697974,0.003793,0.001060,-0.001500,0.179403,0.074621,329.560627,22.654269,0.998913,0.974548,0.006135,0.336605,-0.000017,-0.000020,0.000011,-0.000007,-0.000030,40.852855,0.000039,
2341,2188,1.88407358626435,-9.97932920123022,0.00826422707103802,0.003714,0.000595,-0.000138,0.170850,0.025228,328.199070,23.219668,0.999187,0.985504,0.004943,0.274764,-0.000017,-0.000015,-0.000002,-0.000013,-0.000019,-54.409995,0.000032,
2506,2638,5.3933856079993,-0.136634175175189,-0.0168429009273723,0.003754,0.000877,0.000021,0.172456,0.050208,320.946307,24.117679,0.999735,0.991814,0.003820,0.426386,-0.000012,-0.000034,-0.000029,0.000009,-0.000054,-34.597651,0.000058,
2131,2338,-2.72100657329675,-6.69545164908688,-0.00082390633247087,0.003723,0.001217,-0.000936,0.174189,0.068201,326.145672,24.320207,0.999390,0.985941,0.004683,0.376589,0.000007,-0.000016,0.000001,0.000007,-0.000016,1.510510,0.000016,
2326,2128,1.56953874152159,-11.2965888675238,0.0233321367323924,0.004019,0.001025,-0.004931,0.201382,0.025299,329.325752,23.108604,0.999424,0.984181,0.005001,0.313729,-0.000010,-0.000010,0.000001,-0.000010,-0.000011,53.410450,0.000020,
2146,2608,-2.43981031337527,-0.799779648859129,-0.033359523515287,0.004269,0.001725,-0.006672,0.217198,0.074839,321.493136,24.452270,0.999457,0.989778,0.004187,0.361521,0.000004,-0.000010,0.000010,0.000009,-0.000015,26.860552,0.000015,
2131,2533,-2.75359611965298,-2.43735535120519,-0.0178134437318249,0.003742,0.001169,-0.001123,0.175833,0.068424,322.857031,24.363530,0.999074,0.985789,0.004677,0.425989,0.000008,0.000001,0.000016,0.000021,-0.000012,39.134538,0.000021,
2326,2788,1.44294620770874,3.12521470741298,-0.0261553496752072,0.004036,0.000929,0.000369,0.184626,0.052138,318.203983,24.575133,0.999642,0.993867,0.003416,0.450972,-0.000010,-0.000017,0.000001,-0.000010,-0.000017,4.286127,0.000027,
2371,3013,2.38159535237844,8.01932893511288,0.00503140961444615,0.004051,0.001150,-0.001831,0.193430,0.072682,314.799834,25.292628,0.999588,0.990777,0.003815,0.397624,-0.000003,-0.000034,-0.000006,-0.000002,-0.000035,-10.481360,0.000041,
2386,3193,2.67498916248555,11.9259996592972,0.0315424453894479,0.004191,0.000774,-0.000120,0.193729,0.049868,312.082583,25.824911,0.999551,0.992152,0.003388,0.393758,0.000016,-0.000003,0.000005,0.000017,-0.000004,13.152091,0.000018,
2311,2938,1.0899421050376,6.38605200704542,-0.0119183890299155,0.003902,0.000827,-0.000374,0.181206,0.057690,315.883894,24.901682,0.999069,0.988630,0.004223,0.437808,-0.000011,-0.000028,0.000005,-0.000010,-0.000029,16.107640,0.000041,
2341,3043,1.72373501737021,8.66758052288704,0.00627427168871009,0.003991,0.000582,0.000242,0.183106,0.040215,314.308088,25.203919,0.999648,0.993138,0.003434,0.436199,-0.000001,-0.000028,-0.000002,-0.000001,-0.000028,-4.333512,0.000033,
2266,3193,0.0689024420522379,11.9158459566198,0.0277790461723271,0.003945,0.000758,0.000474,0.180542,0.043633,312.103287,25.275534,0.999466,0.991792,0.003569,0.367207,0.000003,-0.000017,0.000007,0.000005,-0.000019,17.376877,0.000020,
2251,3118,-0.243298593406774,10.2886894274768,0.0218867006144023,0.004113,0.001040,-0.001024,0.193316,0.059443,313.321698,25.107965,0.999554,0.991447,0.003735,0.368649,-0.000006,-0.000035,-0.000006,-0.000005,-0.000037,-11.278005,0.000046,
2206,2893,-1.18438390841319,5.40284727306454,-0.0283389854282632,0.003935,0.000394,-0.002315,0.188723,0.029603,316.676840,24.632746,0.999819,0.994631,0.003184,0.395167,-0.000005,-0.000015,0.000006,-0.000003,-0.000017,25.594483,0.000022,
2296,2008,0.936372687390499,-13.9290357233692,0.0254255134555024,0.004221,0.000747,-0.002400,0.201519,0.032119,331.291879,23.040049,0.999170,0.977636,0.005801,0.295038,-0.000015,0.000001,-0.000017,0.000012,-0.000026,-57.646916,0.000026,
2491,2533,5.08840614011327,-2.42907320832411,-0.0152510657030689,0.004070,0.001221,-0.000938,0.190663,0.052524,322.642140,23.736819,0.999670,0.989610,0.003914,0.403188,0.000004,-0.000028,0.000008,0.000006,-0.000030,13.695872,0.000032,
2476,2353,4.79889912470373,-6.36632938464295,0.00402552204286621,0.003689,0.000399,0.001580,0.163151,0.049154,325.657599,23.094034,0.998844,0.982263,0.005577,0.371876,-0.000013,0.000037,0.000011,0.000040,-0.000015,78.051736,0.000040,
2506,2653,5.3892913601624,0.192333450680721,-0.0267081605364865,0.003635,0.000753,0.000281,0.166032,0.066334,320.612184,24.238162,0.999582,0.988068,0.004412,0.383991,-0.000009,-0.000030,-0.000029,0.000012,-0.000050,-35.030075,0.000053,
2326,3223,1.36593363042436,12.571106570817,0.0306035409567471,0.003818,0.001033,-0.001556,0.181585,0.034796,311.568683,25.602848,0.999536,0.992897,0.003264,0.382087,0.000001,-0.000001,0.000008,0.000007,-0.000008,41.242154,0.000009,
2221,2728,-0.829548730295901,1.81428594488219,-0.0212183725948307,0.003850,0.000787,0.000006,0.177367,0.045285,319.369263,24.460034,0.999284,0.990127,0.003872,0.403747,0.000002,-0.000036,-0.000003,0.000002,-0.000036,-4.768915,0.000040,
2326,2998,1.40579281598586,7.69004815699168,0.00311873990204958,0.003881,0.000831,0.001109,0.175116,0.054947,315.014316,25.107504,0.999780,0.995034,0.003023,0.397442,-0.000008,-0.000031,0.000003,-0.000008,-0.000031,6.983224,0.000041,
2416,3283,3.30635590182112,13.8832055657565,-0.00630363646394017,0.004338,0.000863,-0.001878,0.207083,0.054381,310.326494,26.271261,0.999705,0.991934,0.003567,0.372115,0.000009,-0.000016,0.000005,0.000010,-0.000017,10.367029,0.000017,
2371,3148,2.35720335420185,10.9493068984902,0.0242253887523702,0.004241,0.000800,0.000638,0.193319,0.049231,312.751082,25.681609,0.999590,0.990837,0.003722,0.345506,0.000012,-0.000018,-0.000006,0.000013,-0.000019,-10.045716,0.000020,
2356,2923,2.07090983423486,6.06389889208471,-0.0159135584482328,0.003947,0.001149,-0.001941,0.188849,0.063475,316.086560,25.030362,0.999444,0.990287,0.003872,0.376958,-0.000014,-0.000025,-0.000006,-0.000011,-0.000027,-23.148360,0.000040,
2401,2128,3.20805361640399,-11.2968725560329,0.0284589325733009,0.004056,0.001264,-0.001433,0.191262,0.083578,329.388788,22.756140,0.999175,0.979735,0.005531,0.291987,-0.000015,-0.000019,0.000013,-0.000003,-0.000031,40.736409,0.000037,
2191,2878,-1.50651060656547,5.07663759940985,-0.0158550820593746,0.004291,0.000915,-0.000415,0.199281,0.058974,317.079670,24.713100,0.999773,0.995043,0.003083,0.303023,-0.000005,-0.000013,0.000000,-0.000005,-0.000013,-0.223027,0.000019,
2311,3193,1.04616430771689,11.9194182207488,0.0299165576548148,0.004186,0.000797,-0.001095,0.196927,0.043223,312.080408,25.469991,0.999721,0.993523,0.003299,0.386002,0.000001,-0.000008,0.000008,0.000006,-0.000013,30.480730,0.000013,
2176,2773,-1.81600184433109,2.79283998662981,-0.03304731703264,0.003987,0.000878,0.000071,0.183669,0.070499,318.676840,24.481545,0.999526,0.990582,0.003960,0.436849,-0.000002,-0.000027,-0.000002,-0.000002,-0.000028,-4.750644,0.000033,
2251,2893,-0.205777065081829,5.40506502858642,-0.015227017520715,0.003944,0.001218,-0.003455,0.193340,0.063457,316.683876,24.740064,0.999699,0.991509,0.003594,0.402406,-0.000002,-0.000015,0.000009,0.000003,-0.000020,26.695195,0.000021,
2116,2503,-3.07437779916521,-3.09258623569672,-0.0225260548298252,0.004298,0.000997,-0.006722,0.217815,0.025639,323.410024,24.322638,0.999093,0.985548,0.004621,0.441252,0.000013,0.000001,0.000011,0.000020,-0.000005,30.486965,0.000020,
2371,2248,2.52736666304951,-8.66315135185566,-0.0109353731834858,0.004232,0.001778,-0.009004,0.226467,0.056497,327.132805,23.189346,0.999272,0.982969,0.005396,0.356032,-0.000021,-0.000002,-0.000001,-0.000002,-0.000021,-87.827452,0.000025,
2206,2668,-1.14586438902792,0.508049725278781,-0.0249746343832271,0.003436,0.001141,-0.002013,0.164793,0.050121,320.338526,24.437321,0.999571,0.991784,0.003757,0.360529,0.000000,-0.000027,-0.000004,0.000001,-0.000027,-8.161346,0.000031,
2296,3178,0.722791737221552,11.5930320947938,0.029820894524164,0.003818,0.000660,0.000686,0.173850,0.041621,312.316966,25.391707,0.999673,0.993050,0.003393,0.362674,-0.000001,-0.000017,0.000005,0.000001,-0.000018,16.066936,0.000021,
2461,2308,4.48096338143654,-7.35014064446269,-0.00138930055629771,0.004145,0.001171,-0.004365,0.206655,0.051359,326.348278,23.039069,0.999036,0.976327,0.005813,0.313672,-0.000019,0.000017,-0.000007,0.000018,-0.000020,-79.854474,0.000022,
2266,2968,0.10719657601139,7.03542969496672,-0.00881041354330137,0.004015,0.001171,-0.003143,0.195785,0.068272,315.489866,24.898253,0.999456,0.991105,0.003788,0.401012,-0.000008,-0.000020,0.000010,-0.000002,-0.000026,29.017149,0.000031,
2131,2548,-2.75604573411184,-2.11021429560837,-0.0186953448841791,0.003644,0.001464,-0.003255,0.177802,0.070339,322.608985,24.367045,0.998778,0.983271,0.005007,0.431051,0.000010,0.000005,0.000019,0.000027,-0.000012,41.031159,0.000027,
2161,2668,-2.12259194342669,0.50486183506149,-0.0128256425334712,0.004243,0.001111,-0.002235,0.202488,0.062638,320.621960,24.400684,0.999702,0.993297,0.003412,0.428065,0.000003,-0.000022,0.000005,0.000004,-0.000023,10.847077,0.000025,
2311,2953,1.08788925572376,6.71249433500458,-0.0092931013871862,0.004215,0.001367,-0.003212,0.205516,0.066584,315.685003,24.984135,0.999304,0.990688,0.003856,0.395814,-0.000011,-0.000030,0.000006,-0.000009,-0.000032,14.961256,0.000043,
2506,2668,5.38714080808503,0.518518358727945,-0.0237192143835614,0.004119,0.001133,-0.002198,0.197988,0.072894,320.425331,24.225289,0.999494,0.986197,0.004627,0.465020,-0.000002,-0.000028,-0.000031,0.000019,-0.000049,-33.975754,0.000049,
2386,2068,2.89090725891589,-12.6135628725314,0.0189678637653401,0.003698,0.001269,-0.003247,0.181310,0.059124,330.252563,22.542998,0.999290,0.978804,0.005661,0.381965,0.000001,-0.000016,0.000017,0.000012,-0.000027,31.567453,0.000027,
2371,2083,2.56006234100422,-12.2834357143559,0.0175300922240353,0.003849,0.001091,-0.000830,0.179498,0.062574,329.985972,22.717830,0.999234,0.978909,0.005502,0.350468,-0.000002,-0.000015,0.000014,0.000007,-0.000024,32.771776,0.000025,
2326,2803,1.44006715006906,3.45214182093927,-0.024772337392676,0.003724,0.001019,-0.001272,0.176047,0.058861,317.962384,24.654840,0.999443,0.993031,0.003670,0.412459,-0.000010,-0.000025,0.000002,-0.000010,-0.000025,9.391019,0.000036,
2386,3208,2.67151760739464,12.2514371970917,0.0279060161896609,0.003852,0.000867,-0.000813,0.180630,0.039721,311.792940,25.860706,0.999536,0.992191,0.003515,0.389605,0.000016,-0.000008,0.000005,0.000017,-0.000008,10.648132,0.000017,
2341,2923,1.74487292878917,6.0632453358926,-0.0175549742613725,0.004110,0.001108,-0.003002,0.199991,0.057651,316.084764,25.018906,0.999179,0.989009,0.004125,0.351409,-0.000015,-0.000023,-0.000003,-0.000014,-0.000024,-16.925346,0.000038,
2401,3208,2.99746725342051,12.2525518463256,0.0319314372148369,0.003711,0.000787,0.000285,0.170095,0.033709,311.827705,25.940756,0.999542,0.991522,0.003685,0.377008,0.000021,-0.000006,0.000003,0.000021,-0.000006,5.976974,0.000022,
2446,2173,4.18189422755449,-10.3105955377654,0.0207566353407174,0.004017,0.000591,-0.001286,0.188828,0.029637,328.667273,22.627666,0.999513,0.983993,0.004897,0.271461,-0.000020,-0.000032,0.000002,-0.000019,-0.000033,8.896528,0.000053,
2266,3208,0.0660792953523597,12.2416547754784,0.0259964192965185,0.003945,0.000801,0.000164,0.181623,0.048049,311.843378,25.340135,0.999708,0.994429,0.003122,0.331223,0.000006,-0.000016,0.000010,0.000010,-0.000020,20.860056,0.000020,
2371,3028,2.37822671479875,8.34574686017082,0.00181499015224063,0.003736,0.001416,-0.002756,0.182344,0.076916,314.516202,25.358395,0.999508,0.990168,0.003960,0.376389,0.000001,-0.000035,-0.000007,0.000002,-0.000036,-11.398745,0.000040,
2116,2278,-3.03728817364703,-8.00742327046742,0.00301006066632681,0.004170,0.001073,-0.002050,0.197873,0.053882,327.231848,24.382177,0.998754,0.983907,0.005165,0.332652,-0.000004,-0.000012,0.000015,0.000007,-0.000024,37.206039,0.000024,
2356,2023,2.24465137427137,-13.6018737405505,0.0251387711853113,0.004347,0.000795,0.000207,0.198453,0.047806,331.028615,22.591070,0.998752,0.973866,0.006561,0.386051,0.000026,0.000007,0.000015,0.000034,-0.000001,29.115208,0.000039,
2401,2338,3.16506082702728,-6.69490985859689,0.00532757392602434,0.003835,0.001234,-0.000873,0.179372,0.069449,325.790866,23.314217,0.998936,0.980800,0.005170,0.392056,-0.000026,0.000015,0.000002,0.000015,-0.000026,86.891747,0.000026,
2356,3103,2.03883269105771,9.97215771325963,0.0134555019915297,0.003957,0.000760,0.000032,0.182370,0.049230,313.383845,25.506655,0.999543,0.991669,0.003757,0.342931,0.000013,-0.000021,-0.000007,0.000014,-0.000022,-11.224253,0.000023,
2326,2143,1.56559896657817,-10.9659453375121,0.0125618810949959,0.003864,0.001174,-0.002410,0.185698,0.068641,328.977870,23.146392,0.999317,0.984660,0.005111,0.357081,-0.000013,-0.000017,-0.000001,-0.000013,-0.000017,-9.132864,0.000030,
2236,3073,-0.562104330739832,9.31148677342527,0.0110147341793549,0.003800,0.000826,0.000861,0.172672,0.060602,313.977642,24.951006,0.999602,0.992620,0.003429,0.406651,-0.000003,-0.000036,-0.000004,-0.000002,-0.000036,-6.871871,0.000043,
2176,2548,-1.77748541145266,-2.10868904120569,-0.0246766331526374,0.003820,0.001108,-0.003390,0.186506,0.062289,322.398985,24.288625,0.999190,0.987783,0.004352,0.430243,-0.000004,0.000009,0.000014,0.000018,-0.000013,57.125103,0.000019,
2206,2908,-1.18572231889877,5.72743360553645,-0.0116159997937757,0.004055,0.000636,-0.001961,0.193184,0.035598,316.577189,24.636055,0.999653,0.992661,0.003579,0.413852,-0.000003,-0.000016,0.000006,-0.000001,-0.000019,21.308630,0.000022,
2221,2983,-0.872245445637553,7.35743496050966,0.000587849886471759,0.004174,0.000686,0.000557,0.190732,0.047357,315.413802,24.809973,0.999430,0.991177,0.003790,0.372409,-0.000007,-0.000016,0.000007,-0.000003,-0.000020,28.409944,0.000025,
2236,2863,-0.526908753236011,4.75290592532484,-0.0204315486352584,0.004025,0.001215,-0.000327,0.186824,0.073750,317.153438,24.705009,0.999405,0.990744,0.003704,0.379279,0.000001,-0.000016,0.000005,0.000002,-0.000017,14.542539,0.000019,
2401,2143,3.20452471805689,-10.9679702853911,0.0176543756800243,0.003967,0.001872,-0.005557,0.202378,0.090028,329.068241,22.671857,0.999132,0.978569,0.005524,0.431473,-0.000020,-0.000022,0.000006,-0.000014,-0.000027,39.790770,0.000042,
2146,2623,-2.44256044730362,-0.473121109836526,-0.0341657652755885,0.004216,0.001419,-0.004024,0.206635,0.066058,321.233036,24.448233,0.999640,0.991263,0.003949,0.365261,0.000006,-0.000020,0.000004,0.000006,-0.000020,9.504102,0.000021,
2386,2278,2.84898713686483,-8.00713663597883,0.00178188918363276,0.003622,0.001072,-0.003381,0.178451,0.046776,326.716231,23.272434,0.999637,0.991355,0.003858,0.285244,-0.000021,0.000005,-0.000003,0.000005,-0.000021,-83.642900,0.000022,
2326,3238,1.36246321276167,12.8975945935361,0.0235893930204725,0.003882,0.001055,0.001000,0.175813,0.054456,311.257366,25.694006,0.999472,0.992216,0.003429,0.343280,0.000000,-0.000003,0.000005,0.000004,-0.000007,38.490713,0.000007,
2476,2368,4.79557803382354,-6.03627056713962,-0.00586780657505415,0.003989,0.000938,-0.001688,0.189519,0.057077,325.357522,23.214859,0.999539,0.985726,0.005042,0.317913,-0.000007,0.000022,0.000014,0.000028,-0.000012,67.723960,0.000028,
2386,3118,2.68798637242832,10.2995163438259,0.0169099761849338,0.003833,0.000682,-0.000107,0.177090,0.039701,313.172443,25.633775,0.999565,0.992126,0.003555,0.364167,0.000011,-0.000012,0.000000,0.000011,-0.000012,-0.770299,0.000013,
2311,2728,1.12795812909303,1.81795604984222,-0.0198698462741049,0.003847,0.000798,0.000984,0.173814,0.061808,319.231322,24.455589,0.999480,0.989476,0.004072,0.439619,-0.000016,-0.000016,0.000003,-0.000013,-0.000019,45.955314,0.000032,
2416,3298,3.3019431539989,14.208518458532,-0.0206397340007811,0.004089,0.000894,-0.001034,0.192536,0.050200,309.945019,26.259283,0.999739,0.992390,0.003440,0.426290,0.000008,-0.000017,-0.000002,0.000008,-0.000017,-3.544623,0.000017,
2311,2968,1.08576543257789,7.0382331472656,0.00248476455772106,0.003983,0.001102,-0.003283,0.194958,0.051131,315.528187,25.093304,0.999927,0.997343,0.002501,0.302462,-0.000012,-0.000029,0.000007,-0.000010,-0.000032,20.212779,0.000043,
2416,2413,3.47733025510066,-5.0528918926986,-0.00506229731325902,0.004121,0.001244,-0.003177,0.201054,0.079345,324.528986,23.531429,0.999677,0.987685,0.004429,0.376837,-0.000014,0.000008,0.000009,0.000011,-0.000017,70.299861,0.000017,
2356,2218,2.20650593156306,-9.32239171244559,0.00916035695729533,0.004067,0.001231,-0.002442,0.195339,0.058148,327.748441,23.178912,0.998743,0.978679,0.005746,0.353621,-0.000024,0.000002,-0.000010,0.000005,-0.000027,-71.834920,0.000029,
2281,3043,0.420157087980979,8.66476073862166,0.00420821760383205,0.003889,0.001058,-0.001742,0.185392,0.067198,314.340762,25.112150,0.999396,0.990787,0.003783,0.358871,-0.000005,-0.000029,0.000002,-0.000005,-0.000029,4.930873,0.000037,
2491,2548,5.0849124407584,-2.10158112552304,-0.0164000744837267,0.003768,0.000858,-0.000818,0.176241,0.044156,322.374322,23.785438,0.999645,0.988793,0.004154,0.406065,0.000001,-0.000062,0.000006,0.000002,-0.000063,4.990722,0.000071,
2266,2983,0.104426656020067,7.3606512677018,-0.00357469808739097,0.003933,0.000585,0.001909,0.175047,0.054505,315.268467,24.916015,0.999609,0.992697,0.003622,0.394164,-0.000004,-0.000021,0.000012,0.000003,-0.000027,27.749965,0.000030,
2431,2008,3.8875257306664,-13.9337967721488,0.033425297417466,0.003529,0.000877,-0.002508,0.170900,0.041364,331.388723,22.091990,0.999128,0.975907,0.006048,0.314161,0.000000,0.000012,0.000053,0.000059,-0.000048,48.123598,0.000063,
2131,2353,-2.72350905503635,-6.36736915363685,-0.00359089333255724,0.003862,0.001002,-0.000269,0.178527,0.057689,325.885099,24.337966,0.999271,0.985801,0.004693,0.355910,0.000000,-0.000019,-0.000002,0.000000,-0.000020,-6.197797,0.000023,
2416,2173,3.52439426715633,-10.3096619914808,0.00441109038587228,0.003470,0.000340,-0.000178,0.159617,0.000590,328.450489,22.696929,0.998913,0.979758,0.005301,0.334073,-0.000025,-0.000029,0.000005,-0.000022,-0.000033,35.828679,0.000055,
2341,2203,1.88165528442632,-9.650120578597,0.00243935892325453,0.004080,0.001726,-0.006164,0.208991,0.073261,327.946327,23.198854,0.999056,0.983053,0.005269,0.383188,-0.000022,-0.000001,-0.000005,0.000000,-0.000023,-76.412221,0.000027,
2131,2563,-2.75863864384701,-1.78180133434658,-0.027894261318977,0.004133,0.001166,-0.002670,0.198517,0.067972,322.309721,24.423070,0.999101,0.987263,0.004545,0.379367,0.000013,0.000007,0.000015,0.000025,-0.000005,39.482895,0.000027,
2311,3208,1.04354473653996,12.2448684135427,0.0354371561801372,0.003941,0.001053,-0.001077,0.185658,0.047002,311.869394,25.545037,0.999685,0.992882,0.003375,0.345600,0.000002,-0.000011,0.000009,0.000006,-0.000015,27.104304,0.000015,
2326,2818,1.43780613935891,3.77814618124069,-0.0182881368261292,0.003854,0.001017,-0.000106,0.178006,0.058043,317.774345,24.700245,0.999549,0.991416,0.003749,0.400407,-0.000013,-0.000027,0.000004,-0.000012,-0.000028,14.188836,0.000041,
2221,2743,-0.832946689336133,2.141635799778,-0.0269156943265898,0.003674,0.000627,0.003002,0.159656,0.057382,319.059897,24.497392,0.999295,0.988961,0.004139,0.397628,0.000000,-0.000036,-0.000001,0.000000,-0.000036,-1.350142,0.000041,
2371,2263,2.52470458815727,-8.33521956300605,-0.00168946541919013,0.004086,0.001395,-0.004226,0.202732,0.074826,326.943740,23.259558,0.999390,0.986073,0.004761,0.347274,-0.000025,-0.000003,-0.000004,-0.000003,-0.000026,-79.708154,0.000032,
2401,3223,2.99433965651383,12.5783583052966,0.0268579893045171,0.003839,0.000957,-0.000639,0.179460,0.044421,311.548075,25.985700,0.999520,0.991877,0.003570,0.387024,0.000019,-0.000010,0.000006,0.000020,-0.000011,10.447394,0.000020,
2326,3013,1.40315082372263,8.01584049447726,0.00182506948692662,0.003948,0.000664,-0.001405,0.186812,0.031026,314.770213,25.151714,0.999399,0.989552,0.003916,0.363008,-0.000009,-0.000032,0.000004,-0.000009,-0.000032,9.792836,0.000043,
2506,2683,5.38283088754462,0.847141355894102,-0.036180448910784,0.003965,0.000903,-0.002386,0.191473,0.034068,320.069676,24.358835,0.999690,0.990092,0.003887,0.354315,0.000001,-0.000010,-0.000034,0.000029,-0.000039,-40.535834,0.000040,
2326,2158,1.56291288565814,-10.6379792407413,0.0102415110090988,0.004076,0.001080,-0.002991,0.197397,0.051335,328.729068,23.097244,0.999187,0.983511,0.005171,0.426365,-0.000020,-0.000026,-0.000006,-0.000016,-0.000030,-30.893900,0.000047,
2206,2683,-1.14796852504766,0.835127882392428,-0.0280851783319918,0.004017,0.001603,-0.003576,0.196708,0.085299,320.100636,24.428060,0.999665,0.993144,0.003547,0.422292,0.000000,-0.000023,-0.000005,0.000001,-0.000024,-12.134026,0.000027,
2386,2083,2.88803493762694,-12.2844370756014,0.021335644153055,0.003783,0.000717,-0.000104,0.173717,0.053616,330.022969,22.612133,0.999188,0.975309,0.005842,0.353816,-0.000004,-0.000018,0.000015,0.000006,-0.000027,31.947831,0.000029,
2251,3133,-0.246075950791493,10.6133762966136,0.0288273330651236,0.004006,0.000517,0.005700,0.166173,0.056454,313.107639,25.110384,0.999390,0.991748,0.003737,0.385621,-0.000007,-0.000034,-0.000005,-0.000006,-0.000035,-9.399559,0.000045,
2476,2383,4.79192893504492,-5.70756992681291,-0.0161220611410045,0.003936,0.001406,-0.005493,0.201705,0.071236,325.040798,23.208110,0.999569,0.984881,0.005064,0.397638,-0.000007,0.000018,0.000008,0.000020,-0.000009,73.183790,0.000020,
2221,2998,-0.875054394623454,7.68282799494291,0.00187529891093163,0.003941,0.000651,0.001111,0.178227,0.046862,315.167507,24.805853,0.999485,0.990978,0.003809,0.394140,-0.000008,-0.000019,0.000004,-0.000006,-0.000020,16.495937,0.000028,
2371,2098,2.55681864122072,-11.953592347375,0.0130903779116807,0.003877,0.001154,-0.000045,0.178041,0.067766,329.705558,22.772416,0.999051,0.977399,0.005793,0.345475,-0.000007,-0.000019,0.000009,-0.000002,-0.000024,27.291810,0.000029,
2341,3058,1.72069751563307,8.9932489515308,0.0025086143202202,0.003974,0.000652,-0.000979,0.186611,0.041298,314.034755,25.208231,0.999654,0.993901,0.003224,0.468875,-0.000002,-0.000032,-0.000003,-0.000001,-0.000032,-4.724273,0.000038,
2386,3223,2.66820442207903,12.5774459796751,0.0241649381773072,0.003759,0.000915,-0.000535,0.175383,0.043826,311.509821,25.938670,0.999596,0.993089,0.003317,0.357830,0.000013,-0.000010,0.000007,0.000015,-0.000012,15.463422,0.000016,
2431,1993,3.89048506461738,-14.2621336306982,0.0299535572934246,0.003767,0.000724,-0.002917,0.183242,0.016619,331.613320,22.139445,0.999185,0.976555,0.005844,0.188166,0.000007,0.000022,0.000055,0.000070,-0.000041,48.852714,0.000070,
2401,2158,3.2018282161677,-10.6395422484993,0.0204377975772445,0.004294,0.000984,-0.001519,0.202431,0.056665,328.849772,22.735951,0.999218,0.979168,0.005401,0.382264,-0.000020,-0.000033,0.000001,-0.000020,-0.000033,4.228930,0.000053,
2356,3118,2.03665270936316,10.2965702568063,0.0205149566184559,0.004113,0.000689,0.000424,0.188117,0.040054,313.203690,25.489374,0.999570,0.991846,0.003694,0.388739,0.000012,-0.000013,-0.000002,0.000012,-0.000014,-5.280744,0.000015,
2341,2938,1.74257331243291,6.38809622337766,-0.0109299921836055,0.004220,0.000866,-0.001742,0.200584,0.048162,315.896528,24.998341,0.999029,0.988265,0.004234,0.398494,-0.000011,-0.000026,-0.000003,-0.000010,-0.000026,-11.415049,0.000038,
2371,3163,2.35442508384081,11.274344718783,0.0262273588007247,0.004126,0.000908,-0.000102,0.190736,0.059243,312.519569,25.682200,0.999486,0.991388,0.003754,0.394972,0.000010,-0.000012,-0.000003,0.000010,-0.000012,-8.756521,0.000013,
2251,2908,-0.207392267623209,5.73078401493703,-0.000551194316756209,0.003834,0.001556,-0.005059,0.193713,0.080558,316.562385,24.821612,0.999784,0.992875,0.003352,0.360692,-0.000003,-0.000014,0.000010,0.000003,-0.000020,30.995003,0.000022,
2461,2323,4.47781715991122,-7.02295767386183,-0.00115218102314429,0.004185,0.000920,-0.002159,0.200166,0.056101,326.101452,22.983277,0.999069,0.978523,0.005542,0.430668,-0.000024,0.000028,-0.000004,0.000028,-0.000024,-85.934516,0.000030,
2176,2788,-1.81836683881977,3.1192431005906,-0.030723172362741,0.003809,0.001185,-0.002751,0.184325,0.066966,318.453073,24.524236,0.999444,0.989590,0.004130,0.402714,-0.000005,-0.000026,0.000001,-0.000005,-0.000026,2.242539,0.000033,
2431,2248,3.83799974507536,-8.66610341602811,0.0114339568427795,0.003739,0.000678,0.000816,0.168481,0.048081,327.329076,22.904299,0.999148,0.979193,0.005544,0.356419,-0.000024,-0.000018,0.000005,-0.000015,-0.000028,59.778106,0.000043,
2371,2278,2.52266540087755,-8.00824629636951,0.0153537802695496,0.003696,0.001090,-0.002756,0.179543,0.051500,326.820663,23.366496,0.999811,0.993810,0.003541,0.259690,-0.000024,0.000005,-0.000004,0.000006,-0.000025,-82.011965,0.000026,
2386,3133,2.68564082506924,10.6248657082303,0.0266289455377091,0.003831,0.000824,0.002518,0.167677,0.067128,312.998601,25.686278,0.999698,0.992794,0.003461,0.381222,0.000015,-0.000013,-0.000003,0.000016,-0.000014,-6.630425,0.000017,
2416,2428,3.47396470471274,-4.72465570747816,-0.0110564399303144,0.004066,0.001112,-0.004687,0.203947,0.042619,324.238824,23.589692,0.999499,0.986683,0.004605,0.331034,-0.000011,0.000001,0.000006,0.000003,-0.000014,66.092660,0.000014,
2401,3253,2.98718932045098,13.2302057465081,0.00877107219724849,0.004077,0.000881,0.000598,0.185918,0.047712,310.909656,26.084610,0.999507,0.991747,0.003564,0.379488,0.000014,-0.000011,0.000005,0.000015,-0.000011,10.129657,0.000015,
2491,2563,5.08139953658462,-1.77343136008042,-0.020961729350006,0.003761,0.001044,-0.000373,0.174287,0.053663,322.090014,23.851407,0.999539,0.989152,0.004320,0.409463,0.000002,-0.000053,0.000001,0.000002,-0.000053,0.761969,0.000060,
2356,2938,2.06806919074483,6.38998492095941,-0.014229956124268,0.004002,0.001014,0.000364,0.183220,0.058187,315.850112,25.084568,0.999290,0.989245,0.004047,0.355682,-0.000009,-0.000028,-0.000006,-0.000007,-0.000030,-16.664443,0.000039,
2476,2398,4.78899796940709,-5.38048189975199,-0.00301949381560007,0.003504,0.000598,0.000863,0.157536,0.061035,324.862999,23.308119,0.999573,0.985848,0.004809,0.345275,-0.000010,0.000019,0.000010,0.000022,-0.000013,72.969456,0.000022,
2431,2488,3.78841685625805,-3.41412326257305,-0.0109122051974282,0.003575,0.000723,0.000517,0.162298,0.034199,323.248074,23.681046,0.999195,0.983443,0.004824,0.394291,0.000000,-0.000039,-0.000002,0.000000,-0.000039,-2.936781,0.000045,
2311,2983,1.08314062418613,7.36313758397778,0.0055027257222946,0.003902,0.001208,-0.003305,0.191278,0.038185,315.305353,25.065750,0.999730,0.994877,0.003011,0.348469,-0.000007,-0.000028,0.000010,-0.000003,-0.000032,21.872037,0.000039,
2326,3253,1.35862646738957,13.2225707952987,0.0148682249792955,0.003753,0.000641,0.004170,0.158779,0.050168,310.921275,25.664849,0.999411,0.992192,0.003499,0.401363,-0.000003,-0.000005,0.000006,0.000002,-0.000011,39.193780,0.000011,
2176,2563,-1.77995911317177,-1.78082394844457,-0.0280665486603766,0.003903,0.001524,-0.006212,0.199202,0.056785,322.140206,24.349957,0.999203,0.986433,0.004466,0.376700,0.000000,0.000007,0.000011,0.000015,-0.000008,53.441219,0.000015,
2221,2758,-0.835045798448796,2.46822602944677,-0.0273291829723803,0.004062,0.000768,0.000827,0.184576,0.064587,318.837426,24.516687,0.999493,0.989419,0.003981,0.404550,-0.000002,-0.000030,0.000004,-0.000002,-0.000030,8.972504,0.000036,
2281,3058,0.417320357551201,8.9898168547754,0.00692918325563596,0.003732,0.000978,0.000325,0.171274,0.075533,314.104488,25.094215,0.999490,0.993053,0.003512,0.412097,-0.000004,-0.000034,0.000000,-0.000004,-0.000034,0.580155,0.000042,
2236,3088,-0.564232354508675,9.63717390338733,0.0139530550712266,0.004003,0.000826,-0.000852,0.187542,0.042558,313.771889,25.025160,0.999505,0.992409,0.003492,0.334317,-0.000005,-0.000043,-0.000004,-0.000005,-0.000043,-5.898408,0.000053,
2386,2098,2.8846473937587,-11.9541059720805,0.0117693520294893,0.003926,0.001099,-0.001575,0.185691,0.066019,329.713114,22.647733,0.998892,0.973556,0.006176,0.377347,-0.000009,-0.000020,0.000009,-0.000004,-0.000024,28.592902,0.000030,
2266,3223,0.0631323035113915,12.5664542447068,0.0255190881622411,0.003825,0.000866,0.001230,0.172582,0.054788,311.584683,25.320887,0.999803,0.995450,0.003027,0.381386,0.000007,-0.000005,0.000011,0.000014,-0.000012,30.098832,0.000015,
2356,2038,2.24172101684324,-13.2712953241506,0.0199453638797991,0.004197,0.001657,-0.005704,0.212633,0.068371,330.757573,22.664911,0.998973,0.977592,0.005878,0.375250,0.000019,-0.000003,0.000015,0.000027,-0.000010,26.825151,0.000027,
2251,3148,-0.248626716192771,10.9384243412553,0.0249098759036883,0.003877,0.000542,-0.001923,0.185127,0.011856,312.848742,25.124489,0.998721,0.988336,0.004351,0.349030,-0.000007,-0.000030,-0.000003,-0.000006,-0.000030,-6.976122,0.000039,
2386,2293,2.84643522085586,-7.67969799321801,0.00185343536657001,0.004006,0.000967,-0.002658,0.193429,0.055330,326.489753,23.223301,0.999839,0.994317,0.003335,0.388456,-0.000022,0.000016,-0.000003,0.000016,-0.000022,-85.447572,0.000023,
2161,2683,-2.12562959346437,0.832278963741246,-0.0220200649665117,0.004383,0.000937,-0.001358,0.206181,0.050156,320.305475,24.418355,0.999452,0.990640,0.003825,0.408567,0.000003,-0.000023,0.000002,0.000004,-0.000023,5.181642,0.000025,
2371,3043,2.37552044899786,8.67091959202327,0.00482134019824798,0.003768,0.001133,-0.001498,0.179207,0.066325,314.293217,25.369562,0.999626,0.991891,0.003624,0.394713,0.000000,-0.000025,-0.000005,0.000001,-0.000026,-10.648007,0.000029,
2506,2698,5.3804644833409,1.17341196147416,-0.0275011532686449,0.003930,0.001127,-0.002773,0.191503,0.043534,319.898115,24.407005,0.999615,0.991411,0.003710,0.376776,0.000005,0.000013,-0.000038,0.000047,-0.000030,-48.022867,0.000048,
2206,2923,-1.18809925396678,6.05447476161464,-0.0111451836149286,0.004293,0.001080,-0.001276,0.202160,0.056276,316.345004,24.736670,0.999441,0.989778,0.003974,0.350221,-0.000003,-0.000009,0.000007,0.000001,-0.000014,33.021135,0.000015,
2356,2233,2.20321841493501,-8.99320087464304,0.00278917600104478,0.003925,0.001441,-0.004786,0.197186,0.059314,327.454847,23.209249,0.998279,0.975493,0.006130,0.366148,-0.000023,-0.000004,-0.000008,-0.000001,-0.000026,-69.020665,0.000031,
2416,2188,3.52306782751075,-9.98080771266979,0.0192384829567231,0.003640,0.001240,-0.003503,0.179903,0.048843,328.351537,22.856529,0.999344,0.983319,0.004962,0.272662,-0.000022,-0.000023,0.000002,-0.000020,-0.000024,38.556902,0.000045,
2311,3223,1.04066356009248,12.5693943599859,0.0336671163913707,0.003880,0.000799,-0.002382,0.187219,0.036561,311.610604,25.510337,0.999621,0.993222,0.003257,0.400774,0.000000,-0.000006,0.000007,0.000005,-0.000011,35.133444,0.000011,
2431,2023,3.88424759993676,-13.6028865277826,0.0265047710559543,0.003782,0.000898,-0.002751,0.183400,0.035108,331.101479,22.197719,0.999045,0.976377,0.005892,0.255907,0.000004,0.000003,0.000046,0.000050,-0.000043,44.745016,0.000054,
2401,2353,3.1616391851694,-6.36564003425855,-0.00293010666786131,0.003925,0.001140,-0.001768,0.186714,0.053760,325.486203,23.395830,0.998792,0.981218,0.005223,0.342200,-0.000018,0.000021,0.000007,0.000022,-0.000019,80.648503,0.000024,
2416,2443,3.47053885598138,-4.39741693415397,-0.00885983681729385,0.003731,0.000978,-0.000650,0.173838,0.065057,323.983985,23.580005,0.999540,0.987511,0.004452,0.412391,-0.000005,-0.000025,0.000005,-0.000004,-0.000026,13.735805,0.000033,
2221,3013,-0.877389995692599,8.00824420205326,0.00781889189681806,0.003873,0.000746,0.001897,0.172617,0.052216,314.966864,24.833113,0.999506,0.991194,0.003698,0.390260,-0.000007,-0.000023,0.000002,-0.000007,-0.000023,5.351978,0.000032,
2266,2998,0.102103768490256,7.68606419078449,0.000851688758814362,0.003863,0.000768,0.000144,0.177645,0.036058,315.063458,24.953891,0.999451,0.991238,0.003773,0.362724,-0.000005,-0.000024,0.000008,-0.000002,-0.000027,20.434227,0.000033,
2311,2743,1.12556469194797,2.14455011316664,-0.0163508559837737,0.003884,0.001077,0.000028,0.178878,0.068577,319.021726,24.503452,0.999542,0.990416,0.003937,0.430905,-0.000017,-0.000020,0.000001,-0.000016,-0.000020,16.469801,0.000037,
2401,3238,2.99117551743464,12.9042432956123,0.0217656193048015,0.004063,0.001039,0.000069,0.187239,0.054862,311.266566,26.042564,0.999479,0.992424,0.003449,0.384795,0.000017,-0.000015,0.000003,0.000017,-0.000015,6.114813,0.000019,
2206,2698,-1.15121287330669,1.16172023395369,-0.0381353447045853,0.004174,0.001271,-0.001756,0.198037,0.063573,319.774867,24.379437,0.999471,0.992038,0.003657,0.466480,0.000001,-0.000030,-0.000002,0.000001,-0.000030,-2.857922,0.000034,
2326,2833,1.43425873186995,4.10672920124172,-0.0295495396763954,0.003943,0.001213,-0.000323,0.182987,0.081860,317.439612,24.827839,0.999829,0.993127,0.003506,0.331268,-0.000012,-0.000019,0.000007,-0.000008,-0.000024,32.248191,0.000033,
2371,3178,2.35108245528612,11.5999819458165,0.0228923951711408,0.003925,0.001020,-0.000044,0.181350,0.063319,312.236196,25.715980,0.999542,0.991759,0.003579,0.405130,0.000012,-0.000005,-0.000001,0.000013,-0.000005,-4.683950,0.000013,
2236,2878,-0.528580300118005,5.07753835947214,-0.00894555398343755,0.004086,0.001116,-0.001658,0.193904,0.060767,317.012877,24.686892,0.999561,0.991407,0.003615,0.405130,-0.000002,-0.000011,0.000003,-0.000001,-0.000012,17.360780,0.000015,
2356,2953,2.06536553826579,6.71586438006938,-0.0167405681822288,0.004108,0.001040,-0.002631,0.198648,0.040055,315.599744,25.107209,0.999380,0.989400,0.003985,0.353317,-0.000007,-0.000034,-0.000005,-0.000006,-0.000035,-9.798346,0.000044,
2431,2263,3.83418093693433,-8.33533300320752,-0.00155555152423403,0.004000,0.001018,0.001306,0.178751,0.060262,326.987556,23.012616,0.999068,0.979368,0.005599,0.313157,-0.000028,-0.000019,-0.000003,-0.000018,-0.000029,-71.427906,0.000047,
2446,2188,4.17858830051727,-9.9816236029983,0.0195635139361343,0.003777,0.000945,-0.001739,0.179679,0.050549,328.405720,22.655850,0.999635,0.986031,0.004674,0.319360,-0.000014,-0.000032,0.000003,-0.000013,-0.000032,8.082490,0.000046,
2266,3238,0.0607076113962925,12.8908967123415,0.0235047679926765,0.004056,0.000736,-0.001616,0.192544,0.026733,311.342365,25.298474,0.999787,0.994807,0.003090,0.400023,0.000009,-0.000008,0.000012,0.000016,-0.000015,27.607225,0.000018,
2341,3073,1.71793637096284,9.32015053410543,0.00370090236225451,0.003865,0.000942,-0.002125,0.185729,0.042687,313.797809,25.362255,0.999646,0.994027,0.003167,0.351574,0.000001,-0.000028,-0.000005,0.000002,-0.000029,-9.141454,0.000032,
2146,2638,-2.44529858376304,-0.147278437282814,-0.0338272069322443,0.004036,0.001017,-0.002297,0.193008,0.048745,320.979784,24.392335,0.999699,0.992001,0.003704,0.412289,0.000006,-0.000022,0.000004,0.000006,-0.000023,8.776693,0.000024,
2476,2413,4.78662826239126,-5.05339921189936,0.000764070673312744,0.003637,0.001052,-0.001940,0.174449,0.073390,324.668639,23.299487,0.999486,0.987193,0.004651,0.424314,-0.000018,0.000020,0.000016,0.000025,-0.000023,69.776588,0.000028,
2401,3268,2.98270600579774,13.5566107144113,-0.00859810080771695,0.003838,0.000929,-0.000178,0.177812,0.053340,310.508860,26.136270,0.999615,0.991979,0.003606,0.377687,0.000010,-0.000014,0.000011,0.000014,-0.000018,21.175727,0.000019,
2491,2578,5.07942780021598,-1.44611842740737,-0.0151426516416677,0.004345,0.001183,-0.000814,0.202891,0.075405,321.923265,23.924261,0.998982,0.981269,0.005253,0.418050,-0.000003,-0.000042,0.000000,-0.000003,-0.000042,0.352126,0.000050,
2251,3163,-0.250953569362647,11.2640928630649,0.0343739702290691,0.003831,0.000654,0.001814,0.170831,0.039449,312.667809,25.208549,0.999208,0.989822,0.003998,0.314631,-0.000005,-0.000025,0.000000,-0.000005,-0.000025,0.740668,0.000032,
2401,2173,3.19804069862724,-10.3101309069581,0.0147926766392175,0.003895,0.000889,-0.001311,0.183387,0.042141,328.541490,22.786683,0.999204,0.981448,0.005224,0.365472,-0.000024,-0.000032,0.000004,-0.000022,-0.000033,21.893209,0.000056,
2371,3058,2.37249448578727,8.99673364097771,0.00681599469868388,0.003757,0.000537,0.002272,0.165085,0.047073,314.050421,25.445564,0.999687,0.993442,0.003301,0.339544,0.000000,-0.000027,-0.000004,0.000001,-0.000028,-8.889273,0.000032,
2356,2053,2.2395678133835,-12.9434027989694,0.0342266314015092,0.003922,0.001463,-0.003742,0.193131,0.065009,330.615773,22.741342,0.999036,0.979752,0.005469,0.337314,0.000016,-0.000010,0.000012,0.000021,-0.000015,20.994619,0.000021,
2371,2113,2.55390279801772,-11.6245619160932,0.0116439333670542,0.003724,0.001253,-0.002762,0.180694,0.063106,329.454474,22.801252,0.999041,0.977362,0.005729,0.356151,-0.000010,-0.000020,0.000009,-0.000004,-0.000025,29.952425,0.000031,
2176,2578,-1.78257890953581,-1.454862767667,-0.0242194391040584,0.003825,0.001124,-0.001945,0.182296,0.057672,321.912997,24.298899,0.999271,0.987800,0.004257,0.441655,-0.000004,0.000000,0.000006,0.000005,-0.000008,54.060536,0.000008,
2356,3133,2.03375109675327,10.6225688029728,0.0220569894055984,0.003944,0.000893,0.000393,0.180612,0.056874,312.963076,25.561474,0.999516,0.991229,0.003822,0.371215,0.000016,-0.000013,-0.000005,0.000016,-0.000013,-9.191158,0.000017,
2326,3028,1.40069985902795,8.34158517348024,0.0053161255567602,0.004022,0.000836,-0.001572,0.190848,0.032488,314.558274,25.202216,0.999571,0.991792,0.003643,0.347540,-0.000004,-0.000032,0.000003,-0.000003,-0.000032,5.408258,0.000039,
2461,2638,4.41178099792172,-0.136498049106414,-0.0269575058640044,0.003907,0.001165,-0.002495,0.189135,0.051284,320.759317,24.223335,0.999557,0.989406,0.004035,0.355865,0.000006,-0.000014,-0.000015,0.000015,-0.000022,-28.506957,0.000022,
2386,3148,2.6834372500174,10.9496359961384,0.0298492185955865,0.004005,0.000766,-0.000906,0.187883,0.036471,312.800506,25.706398,0.999619,0.992417,0.003490,0.372626,0.000015,-0.000018,-0.000002,0.000015,-0.000018,-4.319597,0.000019,
2131,2578,-2.76187574712968,-1.4539743234354,-0.0321204504300567,0.003864,0.000922,0.001158,0.174649,0.076596,322.007556,24.464041,0.999496,0.992136,0.003999,0.353775,0.000009,-0.000003,0.000008,0.000013,-0.000007,27.594326,0.000013,
2161,2698,-2.12879548025353,1.15909625604186,-0.0240968066076448,0.004018,0.000857,0.001020,0.182109,0.064285,320.020666,24.418545,0.999325,0.988015,0.004130,0.432980,0.000007,-0.000029,0.000003,0.000007,-0.000029,5.255725,0.000031,
2401,2368,3.15831556573386,-6.03842095689619,-0.00331581693239968,0.003750,0.000407,0.000752,0.169298,0.024379,325.223305,23.386110,0.998712,0.981010,0.005240,0.369874,-0.000014,0.000011,0.000010,0.000014,-0.000017,71.308035,0.000018,
2221,2773,-0.83739023444134,2.7941037027291,-0.0248685168965608,0.003870,0.001075,-0.003229,0.188843,0.062159,318.618645,24.507215,0.999418,0.989682,0.004017,0.430604,-0.000001,-0.000028,0.000004,0.000000,-0.000029,8.988581,0.000033,
2461,2338,4.47450239130703,-6.69382945023313,-0.00247372332762552,0.003874,0.001116,-0.003917,0.192608,0.055229,325.839487,23.100862,0.999012,0.977690,0.005543,0.368629,-0.000024,0.000030,-0.000004,0.000030,-0.000024,-86.004006,0.000032,
2206,2938,-1.19068524060072,6.37960695697068,-0.00728380517409732,0.004084,0.001028,-0.000582,0.190322,0.051597,316.121377,24.715144,0.999480,0.991798,0.003684,0.383236,-0.000006,-0.000004,0.000004,-0.000001,-0.000009,49.663599,0.000011,
2311,2998,1.08044886271766,7.68854713662324,0.0107586850540429,0.003839,0.001051,0.000002,0.177104,0.054546,315.090255,25.074331,0.999888,0.996352,0.002872,0.387837,-0.000010,-0.000027,0.000007,-0.000007,-0.000029,18.655521,0.000039,
2431,2038,3.88138671271534,-13.2742417410521,0.0316363414426633,0.003709,0.000837,0.000067,0.169663,0.056145,330.888936,22.211498,0.999151,0.976106,0.005848,0.316461,0.000000,-0.000015,0.000048,0.000041,-0.000056,40.506984,0.000058,
2371,2293,2.520383454405,-7.68050889406843,0.0156985801891096,0.004208,0.001128,-0.003241,0.204747,0.049966,326.606627,23.356337,0.999785,0.994244,0.003451,0.311419,-0.000024,0.000014,-0.000004,0.000015,-0.000024,-84.698996,0.000024,
2401,3283,2.97974575830642,13.8819110375398,-0.0159985572164487,0.004383,0.000919,-0.000280,0.203216,0.040357,310.225751,26.164749,0.999636,0.991609,0.003708,0.380211,0.000010,-0.000017,0.000009,0.000013,-0.000020,16.671123,0.000020,
2476,2428,4.78338976223538,-4.72483987631074,-0.00243587333193318,0.003755,0.001312,-0.001590,0.178639,0.083960,324.402488,23.366602,0.999435,0.987237,0.004532,0.426207,-0.000019,0.000010,0.000017,0.000018,-0.000026,65.417225,0.000027,
2416,2458,3.46732280931065,-4.06912838365916,-0.0136441938502685,0.003944,0.000960,0.000547,0.179248,0.063194,323.706041,23.630447,0.999453,0.986645,0.004609,0.409448,-0.000003,-0.000035,0.000001,-0.000003,-0.000035,1.974964,0.000042,
2176,2803,-1.82031455278744,3.44478282610058,-0.0247594465362226,0.003763,0.001575,-0.006118,0.192761,0.065220,318.267750,24.517851,0.999520,0.989740,0.004166,0.419372,-0.000003,-0.000030,0.000003,-0.000002,-0.000031,6.320097,0.000037,
2281,3073,0.414555701916274,9.31630714065276,0.000307204109276427,0.003937,0.001126,-0.003069,0.192062,0.057782,313.824282,25.177969,0.999532,0.992770,0.003591,0.337415,-0.000004,-0.000030,-0.000002,-0.000004,-0.000030,-4.238476,0.000037,
2356,2068,2.23660328761328,-12.6141515776257,0.0351211209298867,0.003900,0.001407,-0.001414,0.183938,0.082806,330.372384,22.775596,0.999174,0.979827,0.005406,0.363160,0.000013,-0.000001,0.000015,0.000022,-0.000011,32.676135,0.000022,
2446,2323,4.15038602968325,-7.02284142139212,0.000951601221629517,0.004153,0.001340,-0.001788,0.197423,0.085979,326.084197,23.047531,0.999269,0.980832,0.005211,0.454394,-0.000024,0.000027,0.000000,0.000027,-0.000024,89.976566,0.000030,
2431,2503,3.78636998799296,-3.08729837431794,-0.00766614257958054,0.004060,0.000750,-0.001666,0.192615,0.042586,323.062415,23.675834,0.999406,0.986875,0.004403,0.458944,0.000002,-0.000033,-0.000002,0.000003,-0.000033,-3.843883,0.000037,
2431,2278,3.83082634779214,-8.00857193091008,-0.000880150478053565,0.003540,0.000640,0.001098,0.158311,0.036984,326.731099,22.935135,0.999158,0.977575,0.005810,0.419462,-0.000027,0.000001,-0.000003,0.000001,-0.000028,-83.544303,0.000031,
2506,2713,5.37758910701267,1.50059688583843,-0.0235177101665727,0.003947,0.000849,-0.001341,0.186660,0.046615,319.681911,24.510919,0.999601,0.990743,0.003828,0.337307,-0.000005,0.000003,-0.000036,0.000035,-0.000037,-47.915641,0.000042,
2251,2923,-0.210615034516263,6.05590061316468,-0.0035282820061866,0.003970,0.000608,0.001563,0.177877,0.043002,316.277834,24.778882,0.999701,0.992988,0.003456,0.388607,-0.000005,-0.000011,0.000010,0.000002,-0.000018,36.178304,0.000020,
2386,2308,2.84277259988576,-7.35044209988371,-0.00977991513906318,0.004003,0.001513,-0.004513,0.200172,0.084047,326.156558,23.208595,0.999784,0.994139,0.003416,0.477722,-0.000022,0.000013,-0.000002,0.000014,-0.000022,-86.160736,0.000022,
2341,2218,1.87906594038551,-9.32235879375605,0.0051933485648874,0.004045,0.001404,-0.006670,0.209003,0.053475,327.727676,23.208988,0.998877,0.982467,0.005419,0.392165,-0.000023,0.000005,-0.000006,0.000006,-0.000024,-79.029859,0.000025,
2491,2593,5.0761313883868,-1.11923873555527,-0.0133017249702903,0.003974,0.000620,-0.000856,0.185770,0.040782,321.677887,23.983360,0.999842,0.994312,0.003472,0.383744,0.000003,-0.000040,0.000003,0.000003,-0.000040,3.972633,0.000045,
2371,3193,2.34893164305758,11.9247559204773,0.028487564993668,0.004147,0.000706,-0.000948,0.194667,0.045350,312.050814,25.748668,0.999536,0.991994,0.003556,0.394323,0.000015,-0.000003,0.000002,0.000015,-0.000004,4.732537,0.000015,
2476,2713,4.72322417147613,1.49809580422334,-0.0259843102900845,0.003742,0.000747,-0.000039,0.172224,0.048019,319.564660,24.378430,0.999642,0.989636,0.004131,0.471487,0.000005,0.000017,-0.000020,0.000032,-0.000009,-52.898821,0.000032,
2461,2398,4.46148597900988,-5.38135589333004,-0.00281907356583133,0.003336,0.000567,-0.000073,0.153356,0.052086,324.824998,23.300903,0.999616,0.985806,0.004791,0.390458,-0.000009,0.000019,-0.000001,0.000019,-0.000009,-88.169884,0.000019,
2326,2848,1.43164542611346,4.43070483664013,-0.0225050267980578,0.003541,0.000901,-0.000890,0.166256,0.041236,317.238656,24.738869,0.999770,0.992359,0.003588,0.413424,-0.000011,-0.000016,0.000006,-0.000007,-0.000020,34.157763,0.000028,
2416,2203,3.51989793983546,-9.6526856899627,0.0114997997607134,0.003911,0.001382,-0.004988,0.197770,0.052049,328.063184,22.761335,0.999475,0.982481,0.005095,0.421629,-0.000022,-0.000018,0.000001,-0.000018,-0.000022,75.256460,0.000040,
2356,2968,2.06277116351253,7.04227608366562,-0.0128432994289369,0.004067,0.001114,-0.002604,0.196751,0.061699,315.385069,25.188014,0.999590,0.991418,0.003673,0.332433,-0.000006,-0.000031,-0.000001,-0.000006,-0.000031,-3.110067,0.000040,
2386,2113,2.88165671025052,-11.6254250375621,0.0146130678775762,0.003721,0.000644,-0.000090,0.170848,0.051271,329.480312,22.701755,0.998492,0.969261,0.006548,0.355006,-0.000011,-0.000020,0.000008,-0.000006,-0.000025,30.523306,0.000033,
2401,3298,2.97619563308128,14.2070447341531,-0.0244627036439056,0.004341,0.001036,-0.001397,0.205411,0.041181,309.910394,26.163150,0.999689,0.992662,0.003540,0.426766,0.000010,-0.000018,0.000005,0.000011,-0.000019,9.144776,0.000019,
2221,3028,-0.880335984346988,8.33368316818372,0.00475735328774363,0.003701,0.000463,0.000888,0.167917,0.046714,314.691860,24.816868,0.999699,0.993652,0.003219,0.419288,-0.000008,-0.000028,-0.000002,-0.000007,-0.000029,-5.389766,0.000038,
2476,2473,4.77281970500654,-3.73943514395492,-0.0232337336183264,0.004086,0.000994,-0.001773,0.194404,0.051202,323.513786,23.536562,0.999606,0.989431,0.004143,0.397945,-0.000007,-0.000054,0.000015,-0.000003,-0.000058,16.254675,0.000069,
2356,2248,2.1999798549365,-8.66507441299232,0.00629460224467948,0.003855,0.000664,0.003038,0.166242,0.060020,327.210980,23.250307,0.999005,0.981265,0.005406,0.366800,-0.000023,-0.000011,-0.000010,-0.000005,-0.000029,-60.779035,0.000037,
2146,2653,-2.44743711577577,0.178785457170733,-0.0304969463850284,0.004113,0.000930,-0.002794,0.198045,0.042616,320.769770,24.375112,0.999671,0.991203,0.003765,0.431812,0.000003,-0.000017,0.000003,0.000004,-0.000017,7.742886,0.000018,
2251,3178,-0.25316055961996,11.5885671730091,0.0374875090144542,0.004026,0.000732,0.000945,0.182749,0.043241,312.460553,25.171097,0.999406,0.991259,0.003633,0.378016,-0.000002,-0.000022,0.000002,-0.000002,-0.000022,5.707042,0.000026,
2206,2713,-1.15350986244509,1.48747913641388,-0.0310369655458658,0.004003,0.000833,-0.001222,0.188339,0.050563,319.581278,24.390421,0.998873,0.987009,0.004544,0.459361,0.000003,-0.000033,-0.000003,0.000003,-0.000034,-5.086674,0.000037,
2461,2653,4.40913595926823,0.190500688619274,-0.0245987425226986,0.004092,0.001123,-0.002531,0.197746,0.055776,320.543543,24.277289,0.999584,0.989431,0.003989,0.361311,0.000003,-0.000016,-0.000019,0.000014,-0.000028,-31.260816,0.000028,
2326,3268,1.35535268878404,13.5488095869482,0.00424718388171641,0.003830,0.000785,0.000678,0.174493,0.048744,310.601250,25.743734,0.999551,0.993050,0.003263,0.353929,-0.000004,-0.000008,0.000011,0.000006,-0.000017,40.271026,0.000018,
2491,2788,5.03442105621304,3.13466532783841,-0.0273727459108954,0.003702,0.000692,0.001761,0.163509,0.050876,318.359353,24.805012,0.999262,0.987595,0.004295,0.342620,-0.000018,0.000001,-0.000031,0.000024,-0.000042,-53.489816,0.000042,
2446,2563,4.10094480648539,-1.77408855467934,-0.0195809090218404,0.004334,0.001311,-0.003360,0.211866,0.068048,322.032869,23.970050,0.999559,0.988441,0.004401,0.372279,0.000010,-0.000043,-0.000003,0.000010,-0.000044,-3.678279,0.000046,
2236,3103,-0.566831477354441,9.96165502999238,0.012610021175476,0.004135,0.000655,-0.001172,0.194514,0.020991,313.522992,24.968461,0.999519,0.992931,0.003447,0.389553,-0.000011,-0.000042,-0.000004,-0.000010,-0.000043,-6.637780,0.000056,
2326,3043,1.39803503376082,8.66714459198756,0.0106479155510328,0.003804,0.001056,-0.000930,0.178771,0.058618,314.345509,25.226744,0.999615,0.992495,0.003575,0.382822,-0.000002,-0.000025,0.000003,-0.000002,-0.000026,7.127737,0.000031,
2266,3253,0.0577767046427944,13.2166634086851,0.0213901474569411,0.004164,0.000640,0.000681,0.189974,0.043101,311.075720,25.357429,0.999751,0.994066,0.003266,0.381389,0.000010,-0.000012,0.000018,0.000020,-0.000022,29.281494,0.000024,
2446,2338,4.14774399322429,-6.69496786874296,0.0096582624659618,0.004009,0.000725,0.000651,0.181515,0.064186,325.898135,23.169630,0.999178,0.981047,0.005205,0.364255,-0.000023,0.000026,0.000000,0.000026,-0.000023,-89.653473,0.000029,
2416,1993,3.56389077124679,-14.2636126592039,0.041229936983882,0.004316,0.000970,-0.003645,0.211009,0.021030,331.711360,22.194967,0.999180,0.975030,0.006078,0.243064,-0.000013,0.000023,0.000038,0.000047,-0.000037,57.554958,0.000049,
2341,3088,1.71444866878742,9.64521736607887,0.00179869079340733,0.003507,0.000394,-0.000066,0.161789,0.013324,313.512923,25.362198,0.999613,0.994190,0.003139,0.357825,0.000004,-0.000028,-0.000010,0.000007,-0.000031,-15.666686,0.000032,
2461,2353,4.47034198274592,-6.36541223533627,-0.00642635597131402,0.003507,0.000283,0.001287,0.155909,0.033162,325.526799,23.154239,0.999213,0.982292,0.005307,0.349845,-0.000014,0.000034,0.000001,0.000034,-0.000014,88.225901,0.000034,
2356,2083,2.23256343320051,-12.2826393372926,0.0199066652367037,0.004057,0.001133,0.000903,0.182944,0.081005,330.002364,22.863539,0.999274,0.981928,0.005221,0.316307,0.000008,-0.000003,0.000012,0.000015,-0.000011,32.199017,0.000016,
2161,2713,-2.13134623668441,1.48648995422807,-0.0269293802056723,0.004017,0.000934,-0.001171,0.188811,0.055873,319.759953,24.492702,0.999462,0.989796,0.003982,0.360759,0.000007,-0.000030,0.000000,0.000007,-0.000030,0.641335,0.000031,
2461,2413,4.45940195467729,-5.05384637529425,-0.00145332170933443,0.003929,0.001037,-0.002928,0.191471,0.050837,324.631618,23.321770,0.999545,0.986475,0.004726,0.424028,-0.000014,0.000019,0.000005,0.000019,-0.000015,82.244993,0.000020,
2311,3013,1.07677454769674,8.01539015699865,0.00015494848076969,0.003852,0.000563,0.001530,0.172319,0.041661,314.751288,25.141208,0.999499,0.991129,0.003698,0.339576,-0.000012,-0.000028,0.000008,-0.000008,-0.000032,21.681943,0.000042,
2431,2053,3.87832740300798,-12.9443155271621,0.0250536869546636,0.004052,0.000599,-0.001353,0.190523,0.037340,330.613252,22.255916,0.998957,0.975964,0.005949,0.306705,-0.000003,-0.000020,0.000044,0.000033,-0.000056,39.599086,0.000057,
2506,2863,5.34585094697512,4.76820194605432,-0.0273727795369609,0.003896,0.000662,0.002672,0.168874,0.056003,317.183287,25.073865,0.999685,0.992622,0.003520,0.394703,-0.000008,0.000009,-0.000009,0.000013,-0.000012,-66.915102,0.000015,
2476,2728,4.72096629324645,1.82620339050731,-0.0246746996550087,0.004300,0.000886,-0.001659,0.204047,0.043588,319.362419,24.556920,0.999639,0.991142,0.003653,0.345438,-0.000001,-0.000005,-0.000012,0.000009,-0.000015,-40.275386,0.000015,
2386,3163,2.68020613174939,11.2753452399889,0.0252133186687615,0.003986,0.000790,-0.001586,0.189528,0.041762,312.517282,25.733605,0.999382,0.991113,0.003831,0.392873,0.000012,-0.000011,-0.000001,0.000012,-0.000011,-1.391314,0.000013,
2251,2938,-0.213461358931486,6.38134408323003,-0.00640687855127453,0.003949,0.000735,0.000841,0.179324,0.046631,316.010878,24.730398,0.999652,0.993754,0.003291,0.463792,-0.000006,-0.000007,0.000007,0.000000,-0.000013,42.868509,0.000015,
2446,2203,4.17475940446098,-9.65243870769753,0.0142491504662416,0.003475,0.001270,-0.000663,0.162012,0.070089,328.101179,22.667234,0.999676,0.985078,0.004753,0.382563,-0.000014,-0.000031,0.000003,-0.000014,-0.000032,11.256364,0.000046,
2461,2668,4.40597237132129,0.516876079325669,-0.0267925127938042,0.004127,0.001062,-0.002571,0.199479,0.035618,320.283233,24.265115,0.999496,0.987131,0.004268,0.408105,0.000007,-0.000013,-0.000020,0.000019,-0.000026,-31.874656,0.000027,
2281,3088,0.412892078459155,9.64055343560203,0.0103570845028571,0.004099,0.001110,-0.005354,0.207204,0.049973,313.678856,25.155856,0.999656,0.992493,0.003691,0.378283,-0.000005,-0.000033,-0.000006,-0.000004,-0.000034,-11.317866,0.000042,
2356,3148,2.03131678575572,10.9477275333616,0.0236743729125806,0.004109,0.000785,-0.001296,0.194030,0.033280,312.744581,25.600575,0.999499,0.991846,0.003741,0.346074,0.000015,-0.000015,-0.000004,0.000015,-0.000015,-7.247682,0.000018,
2506,2728,5.37490028337908,1.82715770116037,-0.0228130362067418,0.004040,0.001115,-0.004395,0.202896,0.055365,319.459672,24.529366,0.999477,0.989461,0.004017,0.389018,-0.000012,-0.000012,-0.000034,0.000022,-0.000046,-44.938828,0.000046,
2371,3073,2.37055740535784,9.32217116422703,0.00770618960842739,0.004246,0.000978,-0.002601,0.205020,0.041119,313.852496,25.470061,0.999584,0.992187,0.003560,0.349238,0.000001,-0.000026,-0.000008,0.000003,-0.000028,-14.682789,0.000031,
2476,2488,4.77046607357978,-3.41265626471667,-0.0147120559441873,0.003868,0.001367,-0.004248,0.193984,0.062729,323.341292,23.569057,0.999600,0.986589,0.004374,0.434624,0.000003,-0.000036,0.000010,0.000006,-0.000038,14.208679,0.000041,
2371,2308,2.516533083323,-7.35178099120275,0.0046163506858079,0.004116,0.001164,-0.002807,0.199015,0.057658,326.265981,23.318751,0.999838,0.995660,0.003049,0.400438,-0.000025,0.000010,-0.000002,0.000010,-0.000025,-87.388567,0.000025,
2491,2608,5.07334880827104,-0.792640618350177,-0.00706486086477298,0.003841,0.000830,0.000314,0.175365,0.072090,321.475689,23.992876,0.999853,0.994007,0.003549,0.465045,0.000007,-0.000033,-0.000004,0.000007,-0.000034,-5.963512,0.000036,
2416,2473,3.46509065761265,-3.74297025272683,-0.00619878710227795,0.003813,0.000969,-0.002475,0.184268,0.040835,323.530719,23.624408,0.999337,0.986401,0.004601,0.441963,-0.000006,-0.000043,0.000003,-0.000006,-0.000043,5.146309,0.000054,
2401,2383,3.15542969271634,-5.70937214273854,-0.00474918045154027,0.003776,0.000982,-0.000833,0.176483,0.050434,324.975006,23.483399,0.999193,0.984609,0.004876,0.345957,-0.000011,0.000010,0.000005,0.000012,-0.000013,77.087940,0.000014,
2431,2293,3.8282096403475,-7.68014803703657,0.00626826181161277,0.003454,0.000548,0.002686,0.148517,0.036967,326.538073,23.056550,0.999126,0.980140,0.005471,0.349916,-0.000030,0.000015,-0.000003,0.000015,-0.000030,-86.460089,0.000030,
2221,2788,-0.839371733539245,3.11987608659084,-0.0174274952141786,0.003958,0.001185,-0.003508,0.193827,0.057019,318.442100,24.533435,0.999462,0.991163,0.003895,0.417839,-0.000001,-0.000024,0.000006,0.000001,-0.000025,14.447260,0.000029,
2326,3283,1.35203450132951,13.8739666754055,-0.00521694187068533,0.003999,0.000669,0.000166,0.183964,0.035039,310.285178,25.746563,0.999695,0.994409,0.002940,0.370296,-0.000011,-0.000007,0.000012,0.000002,-0.000021,49.825891,0.000023,
2401,2188,3.19522508009114,-9.98067163164315,0.0158851190005862,0.003695,0.001514,-0.004097,0.184541,0.072473,328.309072,22.873968,0.999293,0.983623,0.005028,0.356693,-0.000022,-0.000022,0.000001,-0.000021,-0.000023,25.487907,0.000044,
2461,2368,4.46877346572154,-6.03711147877771,0.00189608518792284,0.004131,0.001019,-0.000567,0.191796,0.069546,325.388765,23.262958,0.999610,0.986906,0.004894,0.333359,-0.000006,0.000020,0.000004,0.000021,-0.000007,82.120421,0.000021,
2326,3058,1.39493158421167,8.99282192147231,0.00722798567608152,0.003794,0.001003,-0.000498,0.176861,0.073766,314.069617,25.219583,0.999666,0.993718,0.003256,0.438654,-0.000001,-0.000029,0.000002,-0.000001,-0.000029,3.148336,0.000034,
2206,2953,-1.19401068749501,6.70550793669386,-0.0140783594872573,0.003826,0.000938,-0.000628,0.178598,0.054070,315.808389,24.686506,0.999429,0.992091,0.003681,0.430639,-0.000008,-0.000011,0.000004,-0.000005,-0.000013,35.093378,0.000019,
2476,2443,4.77961719733868,-4.39624007676139,-0.00824548797407942,0.003614,0.000895,-0.000598,0.168233,0.046932,324.100066,23.466075,0.999289,0.986319,0.004668,0.347743,-0.000008,-0.000032,0.000017,0.000001,-0.000041,27.291429,0.000046,
2371,2128,2.55113855940194,-11.2954866619757,0.0084501732895319,0.003789,0.001817,-0.006316,0.196510,0.070050,329.201891,22.809242,0.999229,0.981378,0.005352,0.399396,-0.000008,-0.000020,0.000010,-0.000002,-0.000025,28.996567,0.000030,
2161,2728,-2.13386840594361,1.81276612341864,-0.0306701070528561,0.004118,0.001322,-0.003086,0.199507,0.073840,319.495996,24.435663,0.999573,0.989631,0.004032,0.446191,0.000006,-0.000034,-0.000001,0.000006,-0.000034,-1.521107,0.000037,
2356,2983,2.06014041043853,7.36753101860637,-0.00849025414657945,0.003927,0.001121,-0.002870,0.191245,0.057536,315.171243,25.194826,0.999513,0.988749,0.004081,0.359491,-0.000004,-0.000030,-0.000001,-0.000004,-0.000030,-1.631215,0.000036,
2431,2518,3.78346903474591,-2.7601113052922,-0.00271338277178756,0.003713,0.000981,-0.001875,0.177634,0.066321,322.845266,23.708429,0.999289,0.985182,0.004608,0.501104,0.000000,-0.000037,-0.000002,0.000000,-0.000037,-3.235316,0.000042,
2491,2803,5.03157751174035,3.46130469873901,-0.0279277689323294,0.003987,0.000869,0.001854,0.176354,0.065819,318.122723,24.837145,0.999262,0.987010,0.004523,0.384392,-0.000013,0.000001,-0.000028,0.000023,-0.000035,-52.192445,0.000035,
2416,2218,3.51618431652596,-9.32284608869611,0.00905098581620223,0.003644,0.000909,-0.001379,0.172216,0.061405,327.774261,22.878468,0.999451,0.983679,0.005069,0.364514,-0.000025,-0.000011,0.000002,-0.000011,-0.000025,81.360131,0.000037,
2266,3013,0.0998089228837351,8.01121646560797,0.00349201978679048,0.003995,0.000827,-0.000997,0.187618,0.050056,314.850760,24.926908,0.999384,0.990773,0.003777,0.428427,-0.000006,-0.000030,0.000007,-0.000005,-0.000032,15.551624,0.000039,
2506,2878,5.34403548414683,5.09341418740716,-0.0158540675041081,0.003737,0.001194,-0.002744,0.182691,0.035064,317.049138,25.121219,0.999666,0.992954,0.003474,0.387188,-0.000016,0.000018,-0.000003,0.000018,-0.000016,-84.756724,0.000020,
2476,2743,4.71708215103608,2.15290416426171,-0.0295579823255707,0.003905,0.000714,-0.001275,0.184415,0.050783,319.057442,24.549726,0.999700,0.992391,0.003557,0.416887,-0.000005,-0.000013,-0.000016,0.000008,-0.000026,-38.763107,0.000027,
2446,2353,4.14461328094614,-6.36712673038497,0.00656310841509367,0.003812,0.001082,-0.003249,0.187141,0.054048,325.635314,23.165547,0.999386,0.982309,0.005213,0.412243,-0.000014,0.000032,0.000004,0.000032,-0.000014,84.919630,0.000032,
2311,3028,1.07522526691573,8.34039773738083,0.00656299091241408,0.004363,0.000800,-0.001615,0.206725,0.046269,314.594471,25.139813,0.999574,0.991121,0.003717,0.376974,-0.000007,-0.000029,0.000008,-0.000005,-0.000032,17.418848,0.000040,
2446,2218,4.17151593073303,-9.32320676677919,0.00827325695985337,0.003768,0.001049,-0.000196,0.173638,0.061752,327.820490,22.709807,0.999459,0.983758,0.005024,0.386644,-0.000023,-0.000027,0.000001,-0.000023,-0.000027,9.186759,0.000050,
2326,2863,1.42953006312462,4.75663748761067,-0.0192730809907289,0.003925,0.000674,-0.001575,0.186204,0.023703,317.041323,24.781791,0.999720,0.991877,0.003680,0.387145,-0.000012,-0.000015,0.000001,-0.000012,-0.000016,15.558354,0.000028,
2491,2818,5.02876673087374,3.78743683757867,-0.0266515998043246,0.003933,0.001049,-0.000620,0.183464,0.064599,317.895917,24.857225,0.999466,0.988179,0.004346,0.421960,-0.000015,-0.000004,-0.000024,0.000015,-0.000035,-51.733869,0.000035,
2311,2758,1.12268246312058,2.47166348566209,-0.0227330780658122,0.004004,0.001381,-0.003190,0.195554,0.076741,318.740763,24.523496,0.999633,0.991810,0.003782,0.451513,-0.000017,-0.000017,0.000004,-0.000013,-0.000021,47.196369,0.000034,
2356,3163,2.0284364667542,11.2726102671783,0.0289883545361818,0.003725,0.000876,-0.000599,0.173982,0.042494,312.523451,25.607409,0.999430,0.991841,0.003883,0.386214,0.000013,-0.000010,-0.000001,0.000013,-0.000010,-2.321892,0.000014,
2371,3208,2.3459386963541,12.2497882556301,0.0245989476827617,0.004297,0.000632,-0.001422,0.203167,0.022725,311.780974,25.758014,0.999457,0.991999,0.003670,0.402205,0.000015,-0.000006,0.000002,0.000015,-0.000006,4.718377,0.000016,
2461,2428,4.45576798784064,-4.7249639854207,-0.00839861907519435,0.004059,0.001337,-0.001010,0.190377,0.072171,324.328790,23.372452,0.999375,0.985016,0.004833,0.451065,-0.000012,0.000010,0.000004,0.000011,-0.000013,79.463347,0.000014,
2371,3088,2.36765123574695,9.64717618439134,0.0138618726367099,0.003890,0.000861,-0.000601,0.181487,0.033569,313.635303,25.493812,0.999399,0.990502,0.003913,0.357824,0.000003,-0.000026,-0.000013,0.000008,-0.000031,-21.034729,0.000032,
2416,2008,3.56082424077609,-13.9354935741609,0.0397478428667455,0.004120,0.001147,-0.005937,0.210453,0.026359,331.457747,22.089776,0.999109,0.973272,0.006232,0.405132,-0.000016,0.000012,0.000037,0.000037,-0.000042,55.575205,0.000046,
2371,2323,2.51286446147013,-7.02435046805733,0.00758531157987363,0.003501,0.000405,0.002624,0.151311,0.037398,326.000887,23.336466,0.999576,0.992032,0.003825,0.405453,-0.000028,0.000011,0.000005,0.000011,-0.000029,83.332800,0.000029,
2341,3103,1.71312665549502,9.97013788682216,0.0177235812720937,0.003886,0.000624,0.001086,0.175383,0.046149,313.414423,25.402591,0.999564,0.993095,0.003445,0.385959,0.000008,-0.000025,-0.000007,0.000009,-0.000026,-12.343758,0.000027,
2446,2578,4.09678260217517,-1.44563994081827,-0.0304191464127825,0.004434,0.000773,0.001151,0.199438,0.059906,321.685678,24.031235,0.999656,0.991406,0.003964,0.356294,0.000011,-0.000026,-0.000002,0.000011,-0.000026,-3.526741,0.000027,
2491,2623,5.07017217905777,-0.465241123523882,-0.015401475055171,0.004228,0.001037,-0.002254,0.203031,0.069980,321.189681,23.988872,0.999856,0.994129,0.003416,0.526890,0.000005,-0.000039,-0.000015,0.000010,-0.000043,-16.763667,0.000046,
2416,2488,3.46156430448159,-3.41453108555409,-0.0143417601455553,0.003970,0.000767,-0.001490,0.187811,0.029730,323.222708,23.677463,0.999370,0.987236,0.004434,0.426975,0.000003,-0.000036,0.000003,0.000003,-0.000037,4.657071,0.000041,
2326,3298,1.3490031586415,14.1988627145526,-0.00540544344409,0.003785,0.000932,0.000063,0.174697,0.063396,310.027916,25.738143,0.999719,0.994786,0.002938,0.440079,-0.000024,-0.000002,0.000015,0.000006,-0.000032,62.910279,0.000034,
2461,2683,4.40248001770711,0.844455467398419,-0.0286285228586394,0.004024,0.000651,-0.000066,0.185219,0.038708,320.009050,24.348236,0.999530,0.988170,0.004190,0.383009,0.000009,-0.000001,-0.000019,0.000024,-0.000016,-37.817450,0.000024,
2506,2743,5.37050526011683,2.1560428556671,-0.0336832990769835,0.004038,0.000994,-0.000177,0.186429,0.054526,319.106633,24.683514,0.999734,0.990083,0.003821,0.295508,-0.000017,-0.000019,-0.000037,0.000019,-0.000055,-44.262557,0.000056,
2341,2233,1.8760044330002,-8.99393999273732,0.0076088681957458,0.003709,0.001479,-0.005284,0.188851,0.061234,327.485496,23.253077,0.998686,0.979041,0.005693,0.394758,-0.000023,-0.000002,-0.000005,0.000000,-0.000024,-76.818625,0.000028,
2386,3238,2.66427967746067,12.9030982909002,0.0119670980425326,0.003675,0.000732,-0.000798,0.172422,0.037284,311.158249,25.950940,0.999621,0.993124,0.003266,0.380845,0.000011,-0.000013,0.000005,0.000012,-0.000014,10.738687,0.000015,
2476,2758,4.71490153219532,2.47771599872824,-0.0160151988255279,0.004054,0.000485,0.003719,0.172261,0.070441,318.914789,24.506959,0.999552,0.990515,0.003869,0.535756,-0.000002,-0.000008,-0.000017,0.000013,-0.000022,-39.851740,0.000022,
2431,2533,3.78027299069274,-2.43163434811531,-0.00257340702171405,0.003599,0.000646,-0.000529,0.167300,0.047851,322.592094,23.862596,0.999433,0.987585,0.004359,0.379527,0.000000,-0.000030,-0.000004,0.000001,-0.000031,-7.925322,0.000035,
2386,2323,2.83888587705184,-7.02175816915311,-0.0137323867037367,0.003577,0.001050,-0.001276,0.168940,0.075189,325.849595,23.262133,0.999680,0.992405,0.003857,0.460861,-0.000027,0.000015,0.000004,0.000015,-0.000027,84.552890,0.000027,
2446,2233,4.16923279558235,-8.99457588394039,0.0121204369131647,0.003817,0.001676,-0.004588,0.192478,0.059738,327.628892,22.798629,0.999040,0.978752,0.005614,0.350217,-0.000023,-0.000029,0.000006,-0.000020,-0.000033,32.042656,0.000053,
2281,3103,0.410123470148271,9.96624029590134,0.0100146195467801,0.004344,0.001014,-0.001857,0.206743,0.051840,313.430076,25.194186,0.999637,0.992962,0.003524,0.368565,-0.000007,-0.000032,-0.000006,-0.000006,-0.000034,-13.437322,0.000043,
2311,3238,1.03706249898021,12.8959094819169,0.023248508170127,0.003849,0.001005,-0.002335,0.185797,0.053853,311.275165,25.586667,0.999439,0.992141,0.003457,0.372309,0.000000,-0.000008,0.000006,0.000003,-0.000011,28.232137,0.000011,
2431,2308,3.82642094187693,-7.35105076579359,0.00831742516305667,0.004126,0.001038,-0.001717,0.195721,0.060614,326.359185,23.168944,0.999172,0.983194,0.005024,0.313001,-0.000027,0.000018,-0.000005,0.000019,-0.000028,-83.816688,0.000028,
2251,2953,-0.215832147066333,6.70853390221764,-0.0043665884809343,0.004041,0.000843,-0.000153,0.186897,0.055897,315.790126,24.875853,0.999475,0.991913,0.003653,0.350271,-0.000010,-0.000012,0.000006,-0.000004,-0.000017,41.233742,0.000023,
2266,3028,0.0973507605127395,8.33733836201315,0.00477373809053461,0.003983,0.001030,-0.003300,0.194731,0.044307,314.623394,25.003611,0.999345,0.990097,0.003862,0.370835,-0.000007,-0.000032,0.000003,-0.000006,-0.000033,6.889587,0.000042,
2431,2068,3.87476950541612,-12.6143130626881,0.0225910676350622,0.003801,0.000778,0.000186,0.173470,0.054357,330.333483,22.323747,0.998673,0.974087,0.006286,0.309404,-0.000008,-0.000015,0.000039,0.000028,-0.000051,42.624059,0.000051,
2356,2098,2.22895193841798,-11.9525767494461,0.0121410098508932,0.003884,0.001248,0.000967,0.174893,0.074147,329.687751,22.913453,0.999286,0.980886,0.005338,0.301815,0.000003,-0.000010,0.000005,0.000004,-0.000012,19.527986,0.000012,
2386,2128,2.87864514268939,-11.2957675282985,0.011545432448429,0.003743,0.001295,-0.001336,0.176586,0.068713,329.218291,22.753765,0.998928,0.976209,0.005852,0.366972,-0.000008,-0.000020,0.000010,-0.000003,-0.000026,30.446861,0.000031,
2401,2398,3.15276144492839,-5.38144240314934,-0.00514186197818844,0.003916,0.001293,-0.002603,0.189480,0.075389,324.741694,23.494487,0.999349,0.985931,0.004709,0.407148,-0.000012,0.000009,0.000006,0.000011,-0.000013,73.896537,0.000014,
2416,2023,3.55652213528029,-13.6018560355728,0.0273896831032516,0.003941,0.001283,-0.004067,0.195549,0.036969,331.096481,22.365402,0.998724,0.974438,0.006171,0.192253,-0.000011,0.000002,0.000033,0.000029,-0.000038,50.335730,0.000040,
2356,2263,2.19711636368897,-8.33731880970839,0.0101629647597861,0.003598,0.000528,0.003980,0.151093,0.069040,326.986007,23.257498,0.999335,0.984324,0.004979,0.410055,-0.000030,-0.000012,-0.000015,-0.000003,-0.000038,-60.716783,0.000046,
2446,2368,4.14143136260732,-6.03808191797238,0.00104470895036002,0.003983,0.001192,-0.004564,0.199929,0.044929,325.358760,23.252591,0.999436,0.985064,0.004926,0.370049,-0.000009,0.000017,0.000007,0.000019,-0.000011,76.620797,0.000019,
2401,2203,3.19273931662935,-9.65283487697503,0.0140735275569455,0.004161,0.001293,-0.005433,0.210638,0.046979,328.078527,22.843458,0.999228,0.981949,0.005263,0.409867,-0.000023,-0.000015,-0.000001,-0.000015,-0.000023,-83.645175,0.000038,
2506,2893,5.34195196001265,5.42053006556077,-0.00813539677261588,0.004248,0.001380,-0.001032,0.199687,0.075609,316.885014,25.257439,0.999503,0.990407,0.004029,0.352166,-0.000010,0.000009,-0.000006,0.000011,-0.000012,-73.736487,0.000014,
2461,2698,4.39987367049407,1.17187396771376,-0.0245493462644504,0.003971,0.001126,-0.001746,0.189321,0.067505,319.802544,24.444003,0.999679,0.988511,0.004253,0.370895,0.000010,0.000014,-0.000022,0.000034,-0.000010,-47.895754,0.000035,
2506,2758,5.36707864053936,2.48176179859357,-0.034120783805065,0.003966,0.000627,0.002422,0.172937,0.051240,318.845349,24.637339,0.999766,0.990946,0.003648,0.399607,-0.000013,-0.000017,-0.000034,0.000020,-0.000049,-43.345783,0.000050,
2416,2503,3.45813129978168,-3.08525491432503,-0.0252964308954802,0.004208,0.001159,-0.003506,0.206268,0.045391,322.905526,23.760959,0.999577,0.990350,0.003989,0.408448,0.000004,-0.000029,0.000003,0.000004,-0.000030,5.667060,0.000032,
2356,3178,2.02577074635672,11.5980473023953,0.0291484515379352,0.003873,0.000875,-0.000970,0.182117,0.040092,312.287053,25.649433,0.999548,0.992460,0.003654,0.379335,0.000015,-0.000004,0.000000,0.000015,-0.000004,-0.116015,0.000016,
2221,2803,-0.842906433070766,3.44703560975995,-0.0274725641750706,0.003913,0.000855,-0.001102,0.183927,0.046821,318.104113,24.561335,0.999338,0.989143,0.004174,0.398826,0.000000,-0.000026,0.000008,0.000002,-0.000028,16.331103,0.000031,
2476,2458,4.77692085136324,-4.06823925645429,-0.00745157428224275,0.003819,0.001336,-0.001669,0.181908,0.069707,323.876762,23.517851,0.999255,0.986827,0.004632,0.376637,0.000003,-0.000043,0.000014,0.000007,-0.000047,15.141729,0.000051,
2206,2728,-1.15585903476572,1.81454723342019,-0.0292009739745822,0.004106,0.001037,-0.001299,0.193379,0.051910,319.357716,24.468502,0.999223,0.989295,0.004097,0.399302,0.000001,-0.000036,-0.000006,0.000002,-0.000037,-8.913609,0.000042,
2431,2323,3.82309393418883,-7.02334360134508,0.00506743850382918,0.004025,0.001229,-0.001787,0.191458,0.078470,326.085335,23.112481,0.999119,0.982401,0.005068,0.439570,-0.000029,0.000024,0.000001,0.000024,-0.000029,88.450049,0.000031,
2386,3253,2.66100980196867,13.2290632190255,0.00179538035717997,0.004041,0.000861,-0.001654,0.192448,0.046114,310.846310,25.993411,0.999682,0.992847,0.003237,0.389155,0.000008,-0.000007,0.000006,0.000010,-0.000009,18.608191,0.000011,
2446,2248,4.16606913725894,-8.66522315850623,0.0069332173054022,0.003943,0.001675,-0.006383,0.204905,0.071848,327.355217,22.851381,0.999010,0.978796,0.005603,0.364330,-0.000018,-0.000025,0.000009,-0.000012,-0.000032,34.470548,0.000045,
2356,2998,2.05769920299722,7.69338469160724,-0.0036334298656584,0.004028,0.001132,-0.001994,0.192868,0.062064,314.968336,25.255002,0.999652,0.992037,0.003585,0.341949,-0.000003,-0.000028,-0.000004,-0.000003,-0.000029,-9.878889,0.000035,
2491,2833,5.02570083517564,4.11409585406297,-0.0275950250563142,0.003836,0.001331,-0.002819,0.187545,0.062769,317.647159,24.913879,0.999419,0.988629,0.004209,0.422307,-0.000009,-0.000006,-0.000013,0.000006,-0.000021,-48.746753,0.000022,
2506,2908,5.33773030765873,5.74716134795573,-0.0169476219894023,0.003955,0.001138,-0.000049,0.182347,0.057860,316.548568,25.291791,0.999537,0.988970,0.004108,0.360859,-0.000003,-0.000015,-0.000004,-0.000002,-0.000016,-17.330587,0.000020,
2371,2143,2.54838144871254,-10.9664596501861,0.0116024008210616,0.003847,0.001261,-0.003855,0.190233,0.062181,328.979876,22.901692,0.999077,0.979203,0.005577,0.342713,-0.000011,-0.000024,0.000004,-0.000010,-0.000025,17.334442,0.000036,
2491,2638,5.06578692300031,-0.135446262265539,-0.0296224936873841,0.004217,0.001041,-0.001238,0.198673,0.070737,320.821042,24.158254,0.999537,0.989225,0.004076,0.417933,0.000001,-0.000032,-0.000024,0.000014,-0.000045,-28.037098,0.000046,
2446,2383,4.13818632170988,-5.70914749240924,0.000626669624296028,0.003905,0.001369,-0.003049,0.190824,0.069181,325.102543,23.351235,0.999748,0.988141,0.004530,0.349960,-0.000009,0.000015,-0.000001,0.000015,-0.000009,-87.941509,0.000015,
2506,2773,5.36446753888659,2.8080980989031,-0.0326856096916117,0.003997,0.000763,-0.001551,0.189767,0.039952,318.629773,24.674998,0.999735,0.991265,0.003679,0.411635,-0.000019,-0.000005,-0.000030,0.000019,-0.000043,-51.504554,0.000043,
2356,2278,2.19310571252881,-8.0070593164974,-0.0081967068498443,0.003484,0.000957,-0.000675,0.162388,0.061354,326.601415,23.289962,0.999458,0.988660,0.004375,0.411418,-0.000030,-0.000006,-0.000015,0.000001,-0.000037,-64.707329,0.000043,
2461,2713,4.39673450508591,1.49887970480469,-0.0254082961806148,0.004093,0.001228,0.000259,0.187450,0.087359,319.548988,24.474809,0.999680,0.990593,0.003898,0.414777,0.000005,0.000016,-0.000020,0.000031,-0.000010,-52.559492,0.000031,
2416,2518,3.45554152514113,-2.75874332287552,-0.0200032078167851,0.003983,0.001205,-0.005415,0.202966,0.040830,322.703422,23.764007,0.999410,0.988082,0.004354,0.449395,0.000001,-0.000033,0.000003,0.000001,-0.000033,4.946175,0.000037,
2431,2338,3.81973467223959,-6.69408504178862,0.000414551330720769,0.004042,0.001056,-0.001607,0.191514,0.069255,325.803342,23.216773,0.999044,0.983357,0.004853,0.378015,-0.000026,0.000022,0.000000,0.000022,-0.000026,89.607195,0.000028,
2371,3223,2.3424841161739,12.5755316850899,0.0257225347302779,0.003829,0.000554,0.001060,0.172759,0.025800,311.513626,25.840431,0.999582,0.992906,0.003370,0.362201,0.000013,-0.000007,0.000003,0.000014,-0.000007,8.156014,0.000014,
2401,2413,3.14978041515876,-5.05343989451912,-0.00565366159270297,0.003804,0.001523,-0.003751,0.188606,0.079341,324.493477,23.537200,0.999441,0.986152,0.004653,0.415508,-0.000016,0.000003,0.000007,0.000006,-0.000019,71.368306,0.000019,
2461,2443,4.45315183374334,-4.39702568506254,-0.00415491543839153,0.003978,0.001416,-0.002815,0.193472,0.069961,324.123893,23.470775,0.999165,0.984889,0.004854,0.406251,-0.000003,-0.000029,0.000004,-0.000002,-0.000029,9.318564,0.000035,
2341,1993,1.92180110259133,-14.2603222635842,0.0306738451936894,0.003620,-0.000143,0.004206,0.150944,0.038263,331.507252,22.688612,0.998723,0.976897,0.006163,0.300292,0.000022,0.000013,-0.000016,0.000034,0.000001,-37.232191,0.000040,
2446,2263,4.1633549810276,-8.33662128248704,0.0083328046973179,0.004139,0.001310,-0.006214,0.213126,0.075913,327.132445,22.916594,0.998875,0.978480,0.005774,0.357776,-0.000019,-0.000025,-0.000001,-0.000019,-0.000025,-7.794826,0.000044,
2461,2383,4.46508441965497,-5.70853564677601,-0.00547222092495758,0.003997,0.000999,-0.001612,0.189613,0.075537,325.081838,23.280125,0.999636,0.986434,0.004820,0.378581,-0.000006,0.000018,-0.000002,0.000018,-0.000006,-84.170002,0.000019,
2416,2038,3.55248843664214,-13.2730485182277,0.0198767071938732,0.003553,0.001132,-0.002780,0.173051,0.057804,330.770219,22.252125,0.998851,0.974078,0.006143,0.378286,-0.000013,-0.000015,0.000036,0.000022,-0.000050,43.957782,0.000050,
2476,2503,4.76774909613377,-3.08552118992692,-0.00971101836432808,0.004032,0.001039,-0.001358,0.190416,0.072741,323.136039,23.607443,0.999597,0.987715,0.004301,0.464076,0.000010,-0.000040,0.000007,0.000010,-0.000041,7.685614,0.000043,
2386,2338,2.83719458589382,-6.69500872487077,0.00269305015581267,0.003641,0.000728,0.000711,0.164605,0.057987,325.740029,23.353056,0.999150,0.985315,0.004751,0.397317,-0.000025,0.000008,0.000002,0.000008,-0.000025,86.483267,0.000026,
2431,2083,3.87106349842234,-12.283513634783,0.0154425694781253,0.003896,0.000486,0.003029,0.167241,0.065287,330.025165,22.424536,0.998950,0.976731,0.006110,0.273277,-0.000015,-0.000025,0.000033,0.000013,-0.000053,40.876290,0.000055,
2506,2923,5.33341712491599,6.07468452643553,-0.0304936456690825,0.003976,0.000789,0.000917,0.179471,0.056546,316.186354,25.363600,0.999430,0.986960,0.004221,0.348312,0.000004,-0.000032,-0.000007,0.000006,-0.000033,-11.085295,0.000035,
2311,3253,1.03363617704315,13.2216588978475,0.0141217333957115,0.003954,0.000972,-0.001515,0.187848,0.058743,310.954358,25.617158,0.999518,0.992005,0.003469,0.377614,-0.000001,-0.000010,0.000008,0.000003,-0.000014,28.789766,0.000015,
2341,3118,1.71108838082954,10.2953061837458,0.0253375293921181,0.003999,0.000767,-0.000169,0.185047,0.046279,313.242422,25.448595,0.999601,0.992734,0.003528,0.375568,0.000008,-0.000017,-0.000003,0.000008,-0.000017,-5.940030,0.000017,
2386,2143,2.8752870479982,-10.966596919965,0.00947171612227748,0.003474,0.001182,-0.000913,0.162749,0.059975,328.945209,22.804059,0.998815,0.974460,0.005976,0.354180,-0.000013,-0.000022,0.000004,-0.000012,-0.000024,19.888611,0.000036,
2491,2848,5.02295872780111,4.44142440565663,-0.0227275545519205,0.003833,0.001308,-0.002021,0.184355,0.070413,317.439236,25.070641,0.999544,0.991932,0.003697,0.331715,-0.000010,-0.000001,-0.000021,0.000015,-0.000027,-51.215468,0.000027,
2371,2338,2.51011668181356,-6.69538065185666,0.00261094884683644,0.003872,0.000516,0.000872,0.174598,0.033666,325.739787,23.404725,0.999073,0.985608,0.004805,0.376603,-0.000026,0.000004,0.000001,0.000005,-0.000026,87.326488,0.000028,
2401,2218,3.18915553111076,-9.32249010244795,0.0127242705573281,0.003688,0.001254,-0.004561,0.185862,0.042964,327.799371,23.031194,0.999305,0.982276,0.005396,0.266233,-0.000024,-0.000007,0.000000,-0.000007,-0.000024,-89.158258,0.000032,
2446,2398,4.13429472765288,-5.38121276681866,-0.00696213292764014,0.003823,0.000961,-0.000761,0.178395,0.059536,324.783881,23.328730,0.999699,0.987293,0.004636,0.416868,-0.000012,0.000015,0.000001,0.000015,-0.000012,87.766983,0.000016,
2476,2773,4.71094122463483,2.80710242440301,-0.0297767366205335,0.003879,0.000857,-0.001365,0.183683,0.052970,318.565286,24.710875,0.999052,0.987487,0.004362,0.371390,-0.000010,-0.000005,-0.000019,0.000012,-0.000027,-49.019701,0.000027,
2341,2008,1.91872492443481,-13.9298602853553,0.0264510866959426,0.003328,0.000864,-0.000236,0.153395,0.063564,331.232819,22.745803,0.998574,0.975391,0.006424,0.309012,0.000023,0.000000,-0.000009,0.000026,-0.000003,-18.717891,0.000029,
2461,2458,4.45039948827799,-4.06877166390645,-0.00307088539040024,0.003956,0.001971,-0.005372,0.202355,0.089067,323.898125,23.551708,0.999380,0.986212,0.004663,0.400191,0.000005,-0.000039,0.000001,0.000005,-0.000039,1.199440,0.000043,
2506,2938,5.33180610683388,6.39974239634982,-0.0163819957307965,0.004128,0.000838,-0.000672,0.192542,0.037327,316.072952,25.427347,0.999628,0.990441,0.003776,0.325896,0.000002,-0.000050,-0.000015,0.000006,-0.000054,-14.724280,0.000059,
2416,2533,3.45231770292581,-2.43104958150641,-0.0156047477814241,0.003861,0.000242,0.000803,0.174246,0.013783,322.467817,23.894105,0.999331,0.988194,0.004452,0.340766,-0.000001,-0.000027,-0.000001,-0.000001,-0.000027,-1.621670,0.000032,
2401,2428,3.14680961966357,-4.72581302610606,-0.00837238843615751,0.003850,0.001237,-0.005256,0.196035,0.040456,324.235507,23.572517,0.999395,0.985752,0.004691,0.388094,-0.000013,-0.000004,0.000004,-0.000003,-0.000014,69.400262,0.000018,
2431,2098,3.86817473848342,-11.9544529455935,0.0196524565981235,0.003706,0.000678,0.003776,0.155892,0.072650,329.806858,22.501076,0.999496,0.980785,0.005725,0.257243,-0.000022,-0.000026,0.000023,-0.000001,-0.000047,42.151265,0.000055,
2416,2233,3.51333644228931,-8.99456298557265,0.0114892718432884,0.003597,0.000891,-0.000762,0.167843,0.064532,327.547935,22.915553,0.999414,0.984551,0.005037,0.380542,-0.000023,-0.000014,0.000006,-0.000011,-0.000026,61.900536,0.000038,
2386,2353,2.83457656247141,-6.36732204039767,-0.000729723040706176,0.004019,0.000855,-0.001327,0.189282,0.053456,325.493772,23.325811,0.998911,0.982448,0.005172,0.465086,-0.000018,0.000014,0.000007,0.000016,-0.000020,77.715927,0.000021,
2311,2773,1.12039416754907,2.79771167582283,-0.0161439273106225,0.003887,0.001253,-0.004565,0.194803,0.057489,318.551225,24.579880,0.999610,0.992513,0.003637,0.407904,-0.000015,-0.000023,-0.000001,-0.000015,-0.000023,-5.126160,0.000038,
2386,3268,2.65759266158706,13.5543970660584,0.000882264329050031,0.003719,0.000761,-0.000140,0.172139,0.048896,310.571887,26.039937,0.999671,0.992554,0.003401,0.387162,0.000003,-0.000008,0.000011,0.000010,-0.000015,31.890587,0.000015,
2446,2413,4.13201078855147,-5.05317066462724,-0.00149809414955371,0.004083,0.001253,-0.000928,0.191077,0.058507,324.598891,23.437332,0.999705,0.987885,0.004628,0.360890,-0.000015,0.000013,0.000006,0.000015,-0.000016,79.302292,0.000018,
2356,3193,2.02263252824271,11.9239220539972,0.0248786163757018,0.003929,0.000710,-0.000860,0.184302,0.042163,312.007270,25.705272,0.999593,0.992065,0.003588,0.363291,0.000017,-0.000003,0.000002,0.000017,-0.000003,6.116868,0.000018,
2341,2023,1.91650310337165,-13.601163827108,0.0225193938863981,0.003848,0.001333,-0.004801,0.193249,0.038884,330.999263,22.701274,0.998803,0.976967,0.006115,0.368966,0.000018,-0.000002,-0.000002,0.000019,-0.000002,-4.986711,0.000020,
2461,2473,4.44673204309575,-3.74069272008527,-0.0104645740462388,0.004019,0.001371,-0.004334,0.201080,0.063214,323.591742,23.588212,0.999525,0.987317,0.004444,0.393661,-0.000006,-0.000050,0.000003,-0.000006,-0.000051,4.255805,0.000062,
2341,3133,1.70768954802691,10.621026813399,0.0208868810493072,0.003811,0.000780,0.000387,0.174473,0.045091,312.948848,25.475728,0.999444,0.992157,0.003667,0.382828,0.000010,-0.000013,-0.000003,0.000011,-0.000014,-7.969988,0.000015,
2371,3238,2.33957872635791,12.9012714926801,0.0233471281865718,0.003889,0.000927,-0.000216,0.180298,0.051383,311.254707,25.883788,0.999726,0.994137,0.003059,0.384416,0.000012,-0.000009,0.000000,0.000012,-0.000009,0.524133,0.000013,
2326,3073,1.39242524368777,9.31921464980525,0.00893543368295013,0.003912,0.001056,-0.001192,0.184721,0.067452,313.846057,25.337133,0.999706,0.995051,0.002907,0.348159,0.000001,-0.000026,-0.000001,0.000001,-0.000026,-1.286739,0.000029,
2311,3268,1.0304617644003,13.54691386274,0.0101028985985181,0.003909,0.000874,-0.000971,0.183871,0.054419,310.670520,25.644371,0.999567,0.992828,0.003291,0.376766,0.000001,-0.000013,0.000012,0.000008,-0.000019,29.899786,0.000019,
2416,2053,3.55064862595493,-12.9440437443109,0.027549423061032,0.004117,0.001029,-0.001952,0.195805,0.065266,330.615125,22.345952,0.998822,0.974518,0.006140,0.342300,-0.000013,-0.000020,0.000034,0.000017,-0.000050,41.814281,0.000051,
2491,2863,5.01998918797368,4.76653877320463,-0.0191666657554492,0.003882,0.000672,0.000931,0.175045,0.054705,317.215441,25.040980,0.999500,0.991466,0.003768,0.404213,-0.000010,0.000002,-0.000021,0.000018,-0.000026,-52.372770,0.000027,
2491,2653,5.06259812149614,0.191691696271342,-0.0252967970712348,0.003896,0.000964,0.000550,0.177097,0.077363,320.591272,24.239942,0.999528,0.988185,0.004257,0.402265,0.000004,-0.000031,-0.000028,0.000019,-0.000047,-29.122077,0.000047,
2401,2233,3.18599972078075,-8.99386363259441,0.0105313231773607,0.003714,0.001275,-0.003449,0.183027,0.054486,327.535920,23.043038,0.999294,0.983200,0.005297,0.314021,-0.000022,-0.000009,0.000004,-0.000008,-0.000023,74.266430,0.000032,
2356,3013,2.05478032256364,8.0189335218364,-0.00457371477097013,0.003886,0.001281,-0.003856,0.192954,0.059849,314.715511,25.258446,0.999627,0.991211,0.003709,0.374373,-0.000002,-0.000033,-0.000004,-0.000002,-0.000033,-6.856063,0.000039,
2431,2548,3.77761869798951,-2.10400015843997,0.00335825391437083,0.003636,0.000873,0.001893,0.160181,0.067986,322.390610,23.957036,0.999696,0.989811,0.003957,0.356026,0.000003,-0.000046,-0.000004,0.000004,-0.000046,-4.300216,0.000051,
2356,2293,2.19072447126266,-7.67758591126757,-0.00613423085690101,0.003904,0.000783,0.000804,0.176405,0.050509,326.389604,23.466621,0.999651,0.993189,0.003879,0.264843,-0.000030,0.000003,-0.000013,0.000008,-0.000035,-71.069450,0.000037,
2476,2518,4.76470540941996,-2.75734365895242,-0.0123477254555837,0.004031,0.001242,-0.004199,0.201234,0.057353,322.881010,23.702115,0.999312,0.984300,0.004680,0.411634,0.000006,-0.000043,0.000003,0.000006,-0.000043,3.213586,0.000046,
2506,2953,5.32962251547155,6.7247650738372,-0.00452650820250255,0.004135,0.000583,0.000530,0.188131,0.035198,315.922995,25.457292,0.999643,0.990961,0.003775,0.354189,0.000002,-0.000052,-0.000010,0.000004,-0.000054,-10.225774,0.000060,
2446,2278,4.16008179448709,-8.00800212494283,0.00917280128112452,0.004012,0.001067,-0.003688,0.197849,0.059967,326.881473,23.002824,0.999165,0.979009,0.005633,0.309809,-0.000020,-0.000001,-0.000002,-0.000001,-0.000021,-84.730941,0.000025,
2506,2788,5.36148354187825,3.13508452506607,-0.0288390821822873,0.003873,0.000958,-0.000563,0.180396,0.054662,318.407530,24.769520,0.999601,0.990383,0.003932,0.393032,-0.000020,0.000000,-0.000030,0.000022,-0.000042,-54.329215,0.000042,
2446,2593,4.09328698989752,-1.1188684984393,-0.0303637892856727,0.003708,0.001310,-0.001545,0.176394,0.065283,321.419442,24.025630,0.999750,0.992792,0.003687,0.420333,0.000016,-0.000024,0.000000,0.000016,-0.000024,0.168717,0.000025,
2476,2788,4.70818209604277,3.13400157263093,-0.0285816441670477,0.004004,0.001097,-0.002175,0.192578,0.054509,318.339374,24.789428,0.999125,0.986262,0.004448,0.350870,-0.000012,-0.000003,-0.000020,0.000013,-0.000027,-51.068820,0.000027,
2461,2728,4.39427002267373,1.82576265983589,-0.0203202033689536,0.004345,0.001081,0.001581,0.193963,0.063627,319.353709,24.590293,0.999663,0.992190,0.003547,0.329916,0.000000,-0.000003,-0.000011,0.000009,-0.000012,-40.243551,0.000013,
2371,2353,2.50778839788576,-6.36783361379136,0.00431804463630669,0.004056,0.000886,-0.001870,0.192918,0.051438,325.529849,23.392395,0.999059,0.985324,0.004855,0.449670,-0.000021,0.000009,0.000006,0.000011,-0.000022,78.320822,0.000022,
2386,2158,2.87253213752814,-10.6379821201395,0.0140523763628266,0.003465,0.000472,0.001747,0.152542,0.041018,328.731267,22.890451,0.999202,0.979714,0.005479,0.294647,-0.000015,-0.000032,-0.000001,-0.000015,-0.000032,-3.812393,0.000048,
2371,2158,2.54565705649879,-10.6380709112588,0.0160883595441419,0.003711,0.000915,-0.002885,0.180498,0.039311,328.765801,22.970014,0.999381,0.981983,0.005372,0.295356,-0.000014,-0.000033,-0.000002,-0.000014,-0.000034,-5.478618,0.000049,
2431,2353,3.81653184072758,-6.36584218546466,-0.00336034869923196,0.003947,0.000964,-0.003760,0.195108,0.055000,325.532666,23.247451,0.999009,0.982295,0.005111,0.385093,-0.000018,0.000028,0.000004,0.000028,-0.000018,85.246446,0.000029,
2461,2488,4.44405673947255,-3.4136442032887,-0.00764671728683197,0.004219,0.001235,-0.003347,0.206509,0.057577,323.377545,23.609345,0.999557,0.985868,0.004585,0.422276,0.000002,-0.000036,0.000000,0.000002,-0.000036,0.128281,0.000040,
2446,2428,4.12774751457153,-4.72382064783456,-0.0140433972567848,0.003922,0.001020,-0.000130,0.180637,0.051387,324.239984,23.506426,0.999270,0.985174,0.004891,0.338524,-0.000011,0.000005,0.000006,0.000008,-0.000013,71.144204,0.000013,
2386,2368,2.83088549294387,-6.03826085549382,-0.00621386355470577,0.003932,0.000334,0.002144,0.172705,0.034961,325.188316,23.424021,0.998863,0.982895,0.005118,0.393665,-0.000014,0.000007,0.000010,0.000011,-0.000018,67.601303,0.000018,
2506,2803,5.35795693892132,3.46237763586269,-0.0305415633515622,0.003839,0.000993,0.002310,0.167737,0.071262,318.135339,24.851660,0.999159,0.986749,0.004795,0.388672,-0.000014,0.000005,-0.000026,0.000023,-0.000032,-54.973292,0.000033,
2401,2443,3.14424185326108,-4.39849817413965,-0.00162257210536154,0.003936,0.000968,-0.001866,0.187615,0.054810,324.040343,23.620017,0.999405,0.987169,0.004595,0.402039,-0.000007,-0.000027,0.000003,-0.000006,-0.000027,7.008308,0.000036,
2416,2068,3.54693587211546,-12.6137318313953,0.0187095916371049,0.003744,0.001818,-0.005929,0.193561,0.087425,330.297132,22.365783,0.998909,0.976300,0.006121,0.396440,-0.000015,-0.000013,0.000033,0.000019,-0.000047,45.863103,0.000047,
2371,3253,2.33650551466299,13.2265190445614,0.0173576332636003,0.004212,0.000778,0.000426,0.192822,0.047572,310.970803,25.894994,0.999699,0.993337,0.003201,0.408918,0.000010,-0.000004,0.000001,0.000010,-0.000004,5.504272,0.000010,
2416,2248,3.5108546733397,-8.6661908149584,0.0134213311850999,0.003804,0.001126,-0.002060,0.182137,0.069076,327.335959,22.958975,0.999201,0.982194,0.005292,0.391707,-0.000019,-0.000012,0.000007,-0.000008,-0.000024,58.091366,0.000033,
2431,2563,3.77450147720329,-1.77655133950935,-0.00109471069714573,0.004115,0.000461,0.005110,0.170123,0.065992,322.119752,23.969114,0.999559,0.989044,0.004136,0.393016,0.000002,-0.000041,-0.000009,0.000004,-0.000043,-11.224483,0.000047,
2461,2743,4.38973587421645,2.1523340272526,-0.0305795770705686,0.003604,0.000617,0.000649,0.163291,0.040134,318.993022,24.558671,0.999641,0.991376,0.003700,0.392783,-0.000003,-0.000012,-0.000014,0.000008,-0.000022,-36.310641,0.000023,
2356,3208,2.02019234915739,12.2486339578476,0.0279618259917243,0.004045,0.000751,-0.001647,0.192391,0.035236,311.795531,25.709769,0.999563,0.992473,0.003509,0.389416,0.000017,-0.000005,0.000002,0.000018,-0.000005,6.356969,0.000018,
2446,2608,4.09162143936215,-0.792359638455594,-0.0160201230914367,0.004199,0.000740,0.002449,0.183866,0.061228,321.303102,24.132655,0.999466,0.988598,0.004202,0.361667,0.000017,-0.000016,-0.000004,0.000017,-0.000017,-7.381735,0.000019,
2476,2803,4.7051930870729,3.46061982716162,-0.0286830389061947,0.004173,0.000810,-0.000996,0.195739,0.043507,318.097002,24.849022,0.999228,0.985493,0.004628,0.336937,-0.000010,-0.000005,-0.000016,0.000009,-0.000024,-48.912298,0.000024,
2401,2248,3.18274409164222,-8.66562810993318,0.00398336986569348,0.003926,0.001480,-0.003000,0.191217,0.074597,327.247386,22.971382,0.999151,0.982807,0.005316,0.454053,-0.000022,-0.000009,0.000003,-0.000008,-0.000023,77.994265,0.000032,
2326,3088,1.39014499477646,9.64286112325378,0.0168577808037753,0.004011,0.000615,0.001171,0.180831,0.030249,313.664224,25.275720,0.999635,0.994593,0.003097,0.405787,0.000002,-0.000027,-0.000005,0.000003,-0.000028,-10.180734,0.000031,
2386,3283,2.65493446220977,13.8791322634816,0.00283948786255905,0.003932,0.000664,0.001422,0.176271,0.039052,310.346276,26.063149,0.999659,0.991651,0.003572,0.395990,0.000001,-0.000010,0.000008,0.000005,-0.000015,28.434848,0.000015,
2356,2308,2.18862724555686,-7.35153236120031,0.00142512247697368,0.003937,0.000932,-0.000586,0.182860,0.045633,326.217625,23.384307,0.999461,0.991130,0.003924,0.382830,-0.000031,0.000000,-0.000008,0.000002,-0.000033,-75.936744,0.000037,
2416,2548,3.44899809591653,-2.1030829885783,-0.0212947398775896,0.003882,0.000628,0.000024,0.178258,0.046858,322.180376,23.903766,0.999408,0.988174,0.004357,0.413337,0.000001,-0.000041,0.000000,0.000001,-0.000041,-0.137966,0.000046,
2491,2878,5.01764867102109,5.09165105098248,-0.0152176249427498,0.003968,0.000879,-0.002746,0.193130,0.040453,317.022283,25.016210,0.999515,0.992839,0.003516,0.473190,-0.000016,0.000006,-0.000015,0.000014,-0.000024,-62.282941,0.000024,
2431,2113,3.86590512846276,-11.6266444104248,0.0212928902702743,0.003864,0.001237,-0.001221,0.181771,0.068771,329.605144,22.451266,0.999426,0.979202,0.005792,0.355959,-0.000023,-0.000025,0.000020,-0.000004,-0.000044,44.278094,0.000053,
2506,2818,5.35562692001246,3.78887429136158,-0.0272330579020377,0.004343,0.000759,0.002453,0.190246,0.066313,317.940771,24.924744,0.999407,0.989105,0.004213,0.371638,-0.000015,0.000003,-0.000019,0.000015,-0.000027,-57.482404,0.000027,
2431,2368,3.81344636033771,-6.03822593742857,0.00114260063725169,0.003472,0.000926,-0.003759,0.173308,0.017165,325.305807,23.330338,0.998999,0.982901,0.005066,0.316014,-0.000013,0.000014,0.000007,0.000016,-0.000015,76.572800,0.000018,
2491,2668,5.05988177645131,0.517934206659938,-0.0252583132622703,0.003971,0.001064,-0.002782,0.193314,0.065702,320.364079,24.225892,0.999505,0.986840,0.004373,0.463823,0.000008,-0.000028,-0.000032,0.000027,-0.000047,-30.113567,0.000047,
2311,2788,1.11792828871615,3.12321621640896,-0.0119797560640791,0.004075,0.001036,-0.001866,0.194155,0.058750,318.341655,24.550563,0.999699,0.994283,0.003365,0.470634,-0.000011,-0.000019,0.000004,-0.000009,-0.000021,24.040026,0.000031,
2476,2533,4.76127248225098,-2.42895941530998,-0.0157595649634459,0.004028,0.001348,-0.003166,0.197248,0.056677,322.604409,23.799386,0.999611,0.988173,0.004092,0.371452,0.000006,-0.000029,0.000005,0.000007,-0.000029,8.600144,0.000031,
2461,2503,4.44096230732429,-3.08624178958703,-0.00672561789679094,0.004117,0.000945,-0.002893,0.200007,0.056073,323.135293,23.646090,0.999479,0.986512,0.004434,0.439733,0.000008,-0.000037,0.000000,0.000008,-0.000037,0.168041,0.000039,
2461,2758,4.38674836521703,2.47961007998583,-0.0342436009813696,0.003754,0.001013,-0.001658,0.179045,0.054793,318.733314,24.611506,0.999569,0.989965,0.003943,0.409231,0.000002,-0.000006,-0.000013,0.000012,-0.000015,-36.445055,0.000016,
2401,2263,3.17931730773815,-8.33471748140266,-0.00432089423048865,0.004208,0.001324,-0.001592,0.199035,0.081685,326.942409,23.145545,0.999284,0.985581,0.004786,0.335092,-0.000026,-0.000009,-0.000002,-0.000009,-0.000026,-84.112349,0.000036,
2356,3223,2.0167273090348,12.57462056905,0.0251212571739643,0.003668,0.000973,-0.001483,0.174565,0.042943,311.507446,25.786852,0.999551,0.992399,0.003435,0.357313,0.000015,-0.000003,0.000003,0.000016,-0.000004,10.131562,0.000016,
2371,2368,2.50400622817318,-6.03850743186639,-0.00126006769477272,0.003898,0.000719,0.002218,0.171133,0.058757,325.218202,23.487643,0.998772,0.983947,0.004980,0.404856,-0.000017,0.000004,0.000009,0.000007,-0.000020,70.146147,0.000021,
2491,2893,5.01378608148097,5.42042916642396,-0.0243945306457363,0.004114,0.001045,-0.000915,0.192926,0.056794,316.698814,25.206859,0.998820,0.987445,0.004366,0.357596,-0.000011,-0.000002,-0.000017,0.000011,-0.000024,-52.795720,0.000024,
2506,2833,5.35263729369301,4.11454375242822,-0.0204272850762663,0.003691,0.000916,0.000317,0.168666,0.063564,317.731577,24.949982,0.999573,0.990132,0.003967,0.404415,-0.000008,0.000003,-0.000006,0.000005,-0.000010,-66.433496,0.000010,
2371,2173,2.54280458690147,-10.3109122233435,0.01314595038059,0.003840,0.000928,-0.004090,0.190683,0.036620,328.510467,22.831712,0.999274,0.982145,0.005296,0.474864,-0.000019,-0.000031,0.000000,-0.000019,-0.000031,-1.356779,0.000051,
2371,3268,2.33264395109252,13.5520839666816,0.00979405690679869,0.003869,0.000576,0.001064,0.174678,0.033242,310.642829,25.942007,0.999726,0.993739,0.003187,0.387003,0.000006,-0.000002,0.000006,0.000009,-0.000005,27.090858,0.000009,
2431,2128,3.86367265905014,-11.2981727563437,0.0281752129960182,0.003780,0.001722,-0.004558,0.190400,0.074046,329.429204,22.514730,0.999572,0.980202,0.005849,0.350501,-0.000022,-0.000021,0.000021,-0.000001,-0.000043,45.930995,0.000050,
2446,2293,4.15663049028071,-7.68089293697867,0.00942611720120112,0.003812,0.000942,-0.000281,0.175987,0.060789,326.619664,22.933342,0.999266,0.980316,0.005465,0.434599,-0.000024,0.000012,0.000000,0.000012,-0.000024,-89.687224,0.000024,
2431,2383,3.81032073746021,-5.70879389496938,-0.00513991612388054,0.003796,0.001445,-0.004247,0.190213,0.064134,325.026496,23.395081,0.999532,0.986426,0.004666,0.350191,-0.000011,0.000012,0.000001,0.000012,-0.000011,88.134608,0.000013,
2461,2773,4.38365872894825,2.80651228337658,-0.0381499077888634,0.003657,0.001000,-0.005969,0.190813,0.032053,318.467874,24.670474,0.999285,0.988167,0.004283,0.382061,-0.000004,-0.000004,-0.000016,0.000011,-0.000020,-45.363416,0.000020,
2506,2968,5.32657647773656,7.05158461971902,-0.00645005063830695,0.004110,0.001243,-0.002284,0.198204,0.061899,315.671045,25.531202,0.999572,0.989948,0.004053,0.367510,0.000003,-0.000044,-0.000002,0.000003,-0.000044,-2.485207,0.000049,
2446,2443,4.12561680552757,-4.39744094782569,-0.00142059601512301,0.003775,0.001320,0.000127,0.173093,0.079156,324.094946,23.510658,0.998615,0.982010,0.005254,0.415511,-0.000003,-0.000029,0.000006,-0.000002,-0.000030,12.320621,0.000036,
2401,2278,3.17444594632291,-8.00465328463203,-0.0155728148757817,0.003372,0.000834,0.001057,0.151001,0.053006,326.557517,23.254867,0.999756,0.994102,0.003430,0.245621,-0.000024,0.000005,-0.000001,0.000005,-0.000024,-87.772691,0.000025,
2356,3238,2.01370267483862,12.8997997334938,0.0227026169781652,0.003700,0.000933,-0.001307,0.175413,0.047506,311.241903,25.799074,0.999610,0.992698,0.003327,0.387298,0.000014,-0.000005,0.000002,0.000014,-0.000005,4.723024,0.000014,
2491,2908,5.0109043240759,5.74653084053707,-0.0172225048314658,0.003738,0.000824,-0.000504,0.173980,0.034766,316.494861,25.312682,0.999160,0.986706,0.004449,0.287860,-0.000009,-0.000021,-0.000014,0.000000,-0.000030,-33.213136,0.000035,
2506,2848,5.34956083450401,4.44147318768589,-0.0175325825707091,0.003638,0.000505,0.002245,0.158578,0.044991,317.500546,25.081144,0.999647,0.992341,0.003555,0.315368,-0.000010,0.000009,-0.000011,0.000014,-0.000015,-64.985034,0.000016,
2371,2383,2.50090006586814,-5.70965125205111,-0.00516453896182156,0.003610,0.001203,-0.002320,0.174243,0.060206,324.945565,23.567596,0.999126,0.984757,0.004916,0.369356,-0.000014,0.000003,0.000002,0.000003,-0.000014,83.017181,0.000015,
2476,2818,4.70218974481781,3.78674117224323,-0.0277475506265432,0.003933,0.001013,-0.003465,0.194171,0.039931,317.858697,24.867817,0.999421,0.986477,0.004535,0.371058,-0.000014,-0.000012,-0.000016,0.000003,-0.000029,-47.442127,0.000032,
2431,2143,3.85928430555343,-10.9676365221795,0.0146554049144356,0.003841,0.000967,-0.000055,0.176339,0.059866,329.059995,22.571508,0.999342,0.979518,0.005656,0.332977,-0.000026,-0.000019,0.000012,-0.000010,-0.000036,52.597861,0.000048,
2386,2383,2.82822651859896,-5.70973689883974,-0.00672767767872529,0.004010,0.000767,-0.000365,0.185450,0.029925,324.953693,23.513182,0.999058,0.984174,0.005081,0.344495,-0.000011,0.000007,0.000005,0.000008,-0.000013,75.129568,0.000013,
2446,2623,4.08854884945956,-0.465367625342225,-0.0122932566881673,0.003827,0.000897,0.002516,0.166614,0.068893,321.073028,24.184647,0.999527,0.989084,0.004049,0.370112,0.000015,-0.000014,-0.000011,0.000018,-0.000018,-18.369616,0.000021,
2461,2518,4.43796816693593,-2.75898003040279,-0.00343094591107729,0.003851,0.000813,-0.003249,0.189122,0.053555,322.908433,23.697063,0.999202,0.983940,0.004659,0.441722,0.000005,-0.000042,-0.000001,0.000005,-0.000042,-0.797778,0.000046,
2431,2578,3.7717408879677,-1.44837272149558,-0.00583626012530658,0.004667,0.000225,0.004464,0.197744,0.060639,321.863734,24.054311,0.999748,0.992891,0.003664,0.353387,0.000004,-0.000023,-0.000007,0.000006,-0.000025,-13.826150,0.000026,
2416,2083,3.54469328622956,-12.2841273009906,0.0222406755510747,0.004429,0.001462,-0.002774,0.213306,0.066719,330.104291,22.506837,0.998782,0.976394,0.006225,0.285282,-0.000019,-0.000020,0.000028,0.000009,-0.000047,44.535225,0.000051,
2386,2173,2.86983422680539,-10.3094948540064,0.00683921617365968,0.003965,0.000904,-0.001448,0.187038,0.060735,328.463938,22.806020,0.999394,0.983244,0.005165,0.445211,-0.000020,-0.000031,0.000000,-0.000020,-0.000031,2.526558,0.000051,
2341,3148,1.70529323136532,10.9463439758764,0.0250457770256958,0.003832,0.000730,-0.000877,0.179766,0.028635,312.743417,25.537618,0.999461,0.993476,0.003536,0.339936,0.000010,-0.000014,-0.000002,0.000010,-0.000014,-3.806513,0.000014,
2416,2263,3.5080900481572,-8.33675282268379,0.0105259739562484,0.004123,0.001634,-0.003310,0.201546,0.065398,327.088357,23.063804,0.999091,0.982225,0.005270,0.333431,-0.000023,-0.000014,0.000001,-0.000014,-0.000023,83.029067,0.000038,
2326,3103,1.38769795837002,9.96852517346781,0.0192631836239343,0.004016,0.000752,-0.001098,0.189066,0.050315,313.446946,25.311242,0.999500,0.993786,0.003358,0.423866,0.000003,-0.000026,-0.000004,0.000004,-0.000027,-8.228847,0.000029,
2446,2308,4.15334143648024,-7.34950055816053,-0.00141404006222956,0.004058,0.001455,-0.004869,0.204577,0.063717,326.313736,23.147798,0.999185,0.980167,0.005378,0.277692,-0.000022,0.000019,-0.000005,0.000019,-0.000023,-82.819253,0.000024,
2416,2563,3.44583478161354,-1.77545091629872,-0.0214747797153336,0.003639,0.000986,-0.000486,0.169155,0.069261,321.925875,23.947521,0.999234,0.985035,0.004522,0.440704,-0.000001,-0.000038,-0.000006,0.000000,-0.000039,-9.654050,0.000045,
2401,2458,3.14105852215193,-4.07039673197092,-0.00742948202889693,0.004383,0.000854,0.001273,0.196732,0.051514,323.757754,23.644551,0.999483,0.986609,0.004693,0.421051,-0.000004,-0.000036,-0.000001,-0.000004,-0.000036,-1.167707,0.000044,
2476,2548,4.75819599727482,-2.10216621687244,-0.0149238450362077,0.004006,0.001133,-0.002296,0.192878,0.045029,322.363651,23.804627,0.999555,0.987467,0.004298,0.412151,0.000004,-0.000054,0.000005,0.000004,-0.000054,5.035655,0.000061,
2491,2683,5.0560423456974,0.845576176665638,-0.0299300025241109,0.003817,0.000654,-0.000292,0.176534,0.043783,320.063683,24.316590,0.999698,0.990206,0.003833,0.410681,0.000010,-0.000012,-0.000034,0.000035,-0.000037,-36.164338,0.000041,
2371,3283,2.32929644960387,13.8772643253333,0.00535769912193018,0.003763,0.000498,0.001259,0.169046,0.029076,310.353626,25.965098,0.999668,0.993282,0.003296,0.399463,0.000004,-0.000004,0.000003,0.000005,-0.000005,18.534151,0.000006,
2461,2788,4.38174954662385,3.13229902138271,-0.0237625949073959,0.003847,0.001190,-0.002760,0.187530,0.051611,318.340538,24.731453,0.999057,0.986602,0.004508,0.394838,-0.000006,-0.000001,-0.000016,0.000012,-0.000020,-49.126625,0.000020,
2506,2983,5.32314198710461,7.37746516258557,-0.0085309375249949,0.003970,0.000956,-0.002016,0.190640,0.048670,315.400691,25.561954,0.999440,0.988605,0.004138,0.384083,0.000006,-0.000025,0.000006,0.000007,-0.000026,9.895895,0.000027,
2431,2398,3.80750948645033,-5.38135330188179,-0.00628468302659257,0.004221,0.001159,-0.002131,0.201803,0.073624,324.785767,23.369987,0.999728,0.987342,0.004594,0.436392,-0.000011,0.000013,0.000003,0.000013,-0.000011,83.525537,0.000014,
2356,3253,2.01093474235647,13.224673150652,0.0248306164751853,0.003883,0.000719,0.002059,0.171949,0.049100,311.010233,25.815492,0.999662,0.992625,0.003320,0.409793,0.000011,-0.000001,0.000004,0.000012,-0.000002,14.987067,0.000013,
2386,3298,2.65065359454512,14.2056736370254,-0.0170289242213926,0.003994,0.001007,-0.000145,0.184922,0.051172,309.941026,26.117529,0.999679,0.992520,0.003565,0.395399,-0.000002,-0.000011,0.000003,-0.000001,-0.000012,18.223200,0.000014,
2446,2458,4.12258557241706,-4.06887373309584,-0.00482869923314411,0.003750,0.001919,-0.003256,0.184825,0.096537,323.834488,23.579952,0.999251,0.985510,0.004748,0.417364,0.000003,-0.000039,0.000003,0.000003,-0.000039,3.652619,0.000043,
2491,2698,5.05283229797909,1.17370424485059,-0.0314704213482742,0.003746,0.000982,-0.001179,0.176818,0.052545,319.806063,24.452074,0.999720,0.990037,0.003882,0.343234,0.000012,0.000012,-0.000039,0.000050,-0.000027,-45.175220,0.000050,
2371,3298,2.32589071369922,14.2032803704168,-0.00532809063469131,0.004056,0.000701,0.001076,0.183324,0.041558,310.031329,26.019448,0.999633,0.993290,0.003393,0.397118,0.000000,-0.000005,-0.000001,0.000001,-0.000005,-9.990901,0.000005,
2416,2098,3.54061329936569,-11.9553309141717,0.0166245364691235,0.003772,0.001107,-0.002450,0.181926,0.054422,329.784635,22.470768,0.999066,0.976593,0.006103,0.360215,-0.000023,-0.000021,0.000020,-0.000002,-0.000042,46.331448,0.000050,
2446,2638,4.08523484964587,-0.137379547494078,-0.0194174157488192,0.003889,0.001164,-0.000040,0.179103,0.061822,320.781664,24.255175,0.999575,0.990030,0.003972,0.345626,0.000010,-0.000009,-0.000015,0.000019,-0.000018,-29.034033,0.000021,
2461,2533,4.43459655753356,-2.42999879632823,-0.00912073177039474,0.003890,0.001348,-0.004380,0.195393,0.067294,322.622787,23.813498,0.999481,0.987702,0.004239,0.394579,0.000004,-0.000031,0.000000,0.000004,-0.000031,0.171373,0.000034,
2416,2578,3.4432671175137,-1.44763425740993,-0.0208495016244115,0.004188,0.000131,0.002141,0.184418,0.041083,321.702549,24.070478,0.999490,0.989067,0.004117,0.337919,0.000001,-0.000021,-0.000005,0.000002,-0.000022,-12.140384,0.000024,
2386,2188,2.86730225001687,-9.97937731666805,0.00711697743344075,0.004121,0.001284,-0.003883,0.203094,0.073922,328.239424,22.962313,0.999159,0.981964,0.005251,0.347963,-0.000019,-0.000020,-0.000003,-0.000016,-0.000023,-39.581597,0.000039,
2476,2563,4.75442561487069,-1.77382722607697,-0.0191896211882749,0.004008,0.000631,0.001956,0.176671,0.058975,322.067449,23.885941,0.998763,0.983170,0.005082,0.402607,0.000006,-0.000044,0.000002,0.000006,-0.000044,2.691275,0.000048,
2431,2413,3.80433177332899,-5.05357415844558,-0.00678107985601173,0.004103,0.001114,-0.001576,0.194345,0.070748,324.531148,23.399638,0.999623,0.987174,0.004625,0.455479,-0.000014,0.000010,0.000006,0.000012,-0.000016,77.494617,0.000016,
2446,2473,4.11980296967998,-3.74103337271077,-0.00284645841560405,0.003818,0.001673,-0.003174,0.187578,0.088348,323.610362,23.663303,0.999556,0.987756,0.004386,0.379357,-0.000006,-0.000049,0.000004,-0.000006,-0.000050,5.757324,0.000061,
2491,2713,5.04956121320791,1.50026427245376,-0.0356266246781729,0.003852,0.001085,-0.001725,0.183846,0.060728,319.534085,24.427604,0.999680,0.989705,0.004127,0.435343,0.000001,0.000010,-0.000036,0.000041,-0.000030,-48.567338,0.000043,
2386,1993,2.90648452247398,-14.2621027299151,0.0358441984789692,0.003579,0.001106,-0.002105,0.171585,0.075105,331.591209,22.349383,0.998760,0.961440,0.007235,0.356804,0.000015,0.000018,0.000014,0.000030,0.000003,47.319268,0.000037,
2416,2113,3.53911414674574,-11.6264869587123,0.0214034620456687,0.004314,0.002214,-0.008935,0.230808,0.070919,329.631405,22.529202,0.999149,0.976942,0.005941,0.368911,-0.000023,-0.000019,0.000018,-0.000004,-0.000039,48.093760,0.000048,
2446,2653,4.08246643671581,0.189770964785978,-0.0222138823736486,0.004256,0.001234,-0.001180,0.200228,0.066428,320.535358,24.279020,0.999641,0.991003,0.003828,0.378955,0.000008,-0.000013,-0.000018,0.000018,-0.000023,-29.710162,0.000025,
2461,2548,4.43161019439655,-2.10164274647604,-0.00926370097749896,0.003903,0.001526,-0.004940,0.198194,0.064012,322.380241,23.944439,0.999696,0.991545,0.003788,0.315991,0.000005,-0.000053,0.000001,0.000005,-0.000053,0.504799,0.000058,
2386,2203,2.86426990773651,-9.64943628943214,-0.00256769903916165,0.004535,0.001762,-0.006559,0.231806,0.073492,327.944884,23.017084,0.998837,0.979415,0.005531,0.339162,-0.000020,-0.000010,-0.000005,-0.000008,-0.000022,-67.111430,0.000031,
2416,2593,3.43994268122491,-1.12008616155792,-0.0270590203092524,0.003896,0.001091,-0.002936,0.190002,0.059837,321.412356,24.067425,0.999547,0.991220,0.003867,0.408429,0.000006,-0.000022,-0.000003,0.000006,-0.000023,-5.905370,0.000023,
2431,2428,3.80110679588403,-4.72437248479474,-0.00883097798254084,0.003963,0.001016,-0.002422,0.190979,0.049270,324.266938,23.568585,0.999384,0.985786,0.004848,0.316477,-0.000010,0.000002,0.000005,0.000004,-0.000012,68.993426,0.000012,
2416,2278,3.50422871912748,-8.00861081571313,0.00614032369151118,0.003719,0.000851,-0.001360,0.175656,0.047157,326.783659,23.055392,0.999228,0.983344,0.005024,0.373642,-0.000021,0.000002,0.000002,0.000002,-0.000021,86.098372,0.000023,
2476,2578,4.75120692124671,-1.44608301375634,-0.0195883224440649,0.003945,0.000529,0.002722,0.170810,0.050052,321.814215,23.974633,0.998507,0.984184,0.005067,0.362597,0.000004,-0.000031,0.000006,0.000005,-0.000032,8.732775,0.000035,
2431,2593,3.76846655571561,-1.12231231291477,-0.00553299850651001,0.003911,0.001174,-0.000694,0.182484,0.070465,321.607788,23.979224,0.999613,0.991187,0.003897,0.488896,0.000009,-0.000023,-0.000005,0.000010,-0.000023,-8.672834,0.000023,
2476,2833,4.69995007631604,4.11281577073771,-0.0193544539241657,0.004089,0.001389,-0.002885,0.199328,0.065574,317.689296,24.913575,0.999535,0.987582,0.004132,0.407464,-0.000011,-0.000012,-0.000007,-0.000005,-0.000018,-41.731047,0.000024,
2401,2293,3.17150492797106,-7.67759290031345,-0.0131775183086802,0.003348,0.000592,0.003529,0.140889,0.057526,326.325406,23.200021,0.999570,0.990516,0.003944,0.352429,-0.000025,0.000017,0.000000,0.000017,-0.000025,-89.655832,0.000025,
2341,3163,1.70253254820893,11.2717898670738,0.0302746333501887,0.003620,0.001026,0.000663,0.164825,0.058682,312.526316,25.574750,0.999548,0.993368,0.003579,0.368068,0.000009,-0.000010,0.000003,0.000009,-0.000010,8.738532,0.000011,
2461,2803,4.37809256922835,3.46002538374582,-0.029947487138827,0.004117,0.000468,0.001904,0.182120,0.039215,318.038196,24.847167,0.999296,0.987233,0.004383,0.321186,-0.000006,-0.000003,-0.000012,0.000008,-0.000017,-47.505078,0.000017,
2446,2488,4.11699774772282,-3.41471257028891,-0.00103353954835939,0.003884,0.001556,-0.002862,0.189368,0.069114,323.384634,23.621455,0.999467,0.986399,0.004496,0.455203,0.000003,-0.000038,0.000001,0.000003,-0.000039,1.514707,0.000043,
2491,2923,5.00679649187935,6.07370412481637,-0.0281898338938618,0.003823,0.000747,0.001828,0.168979,0.058839,316.152203,25.345136,0.999461,0.986792,0.004254,0.338120,-0.000006,-0.000036,-0.000015,0.000000,-0.000043,-22.685932,0.000049,
2401,1993,3.23482656444473,-14.2624223828592,0.0344220139297136,0.003773,0.001484,-0.004932,0.190876,0.075105,331.614200,22.237732,0.998770,0.968815,0.006647,0.361687,0.000008,0.000020,0.000019,0.000034,-0.000006,53.597541,0.000036,
2401,2473,3.1382648477847,-3.74265020414832,-0.00485067789065852,0.004021,0.001124,-0.002317,0.193238,0.049986,323.532471,23.717847,0.999399,0.987612,0.004520,0.393053,-0.000006,-0.000042,0.000001,-0.000006,-0.000042,1.910940,0.000053,
2416,2128,3.53444799687933,-11.2953490387823,0.00974423649734035,0.003926,0.001534,-0.004229,0.195680,0.079000,329.256284,22.632857,0.999304,0.979448,0.005627,0.324806,-0.000020,-0.000017,0.000019,0.000001,-0.000037,47.249839,0.000043,
2431,2158,3.8573599176489,-10.6410508826255,0.0240200635741985,0.003739,0.001140,-0.004782,0.189160,0.034099,328.909852,22.530463,0.999299,0.978936,0.005654,0.400555,-0.000026,-0.000032,0.000002,-0.000025,-0.000033,18.380960,0.000058,
2491,2728,5.04671346255386,1.82785907384732,-0.0368241111311249,0.004045,0.001049,-0.003414,0.199196,0.045879,319.294657,24.550147,0.999654,0.991831,0.003561,0.356908,-0.000007,-0.000008,-0.000030,0.000023,-0.000037,-44.689342,0.000038,
2386,2398,2.8257219187496,-5.38287262203679,0.00168627388569575,0.003778,0.000957,0.000247,0.172704,0.053034,324.768520,23.512836,0.999292,0.985889,0.004777,0.412771,-0.000011,0.000004,0.000006,0.000006,-0.000013,70.959763,0.000013,
2506,2998,5.32011642576474,7.70375292664917,-0.00502758679022008,0.003797,0.001051,-0.001388,0.180320,0.051936,315.173963,25.656005,0.999501,0.989872,0.003895,0.353455,0.000014,-0.000024,0.000009,0.000016,-0.000026,13.168622,0.000027,
2476,2593,4.74842118913714,-1.11900403035047,-0.0194330113764067,0.003994,0.000683,0.000268,0.182475,0.045735,321.583416,24.007190,0.998727,0.983365,0.004888,0.383026,0.000011,-0.000031,0.000008,0.000012,-0.000033,10.981335,0.000033,
2476,2848,4.69600526546235,4.4400405722271,-0.0271987244664729,0.004012,0.001171,-0.000925,0.188299,0.060991,317.367354,24.977329,0.999380,0.987352,0.004212,0.395683,-0.000014,-0.000009,-0.000014,0.000003,-0.000026,-49.536800,0.000028,
2461,2818,4.37550593826475,3.78569243993053,-0.0259690366059999,0.004020,0.000635,-0.000542,0.186925,0.033874,317.831998,24.849013,0.999365,0.986595,0.004479,0.368376,-0.000012,-0.000011,-0.000013,0.000002,-0.000024,-46.332662,0.000027,
2401,2308,3.1690591326275,-7.35001341838712,-0.0164550218633508,0.003794,0.001006,0.000014,0.174209,0.074179,326.089186,23.128520,0.999779,0.994172,0.003424,0.488283,-0.000022,0.000017,-0.000001,0.000017,-0.000022,-88.354653,0.000023,
2416,2293,3.50128090636588,-7.68010948142365,0.00647040354215278,0.003926,0.000566,0.001504,0.174563,0.049055,326.542635,23.112770,0.998908,0.979475,0.005586,0.368124,-0.000024,0.000015,0.000002,0.000015,-0.000024,86.904461,0.000024,
2446,2503,4.11388947546739,-3.08684661785106,-0.0047014651270274,0.004107,0.001007,-0.002560,0.198271,0.051141,323.119445,23.674825,0.999561,0.988527,0.004191,0.437177,0.000008,-0.000035,0.000001,0.000008,-0.000035,1.789165,0.000037,
2341,3178,1.69993489204755,11.597362556099,0.0258523606960921,0.004093,0.001115,-0.000613,0.191086,0.053322,312.269645,25.604719,0.999628,0.994177,0.003565,0.368362,0.000010,-0.000003,0.000005,0.000012,-0.000005,16.660369,0.000012,
2431,2608,3.76479521012849,-0.793096320490385,-0.0230102569892097,0.004494,0.001062,-0.002470,0.215749,0.045070,321.250541,24.080709,0.999408,0.987846,0.004370,0.413377,0.000009,-0.000015,-0.000008,0.000011,-0.000017,-16.011445,0.000018,
2416,2143,3.53124552899015,-10.9670577676347,0.00946527200818537,0.003839,0.001322,-0.002378,0.184860,0.069949,329.001497,22.622899,0.999321,0.980913,0.005188,0.376327,-0.000023,-0.000018,0.000011,-0.000009,-0.000032,51.387704,0.000043,
2476,2608,4.74458693142681,-0.791184047600922,-0.0209353147079696,0.003497,0.000927,0.002148,0.152686,0.079367,321.296569,24.060463,0.999119,0.984584,0.004582,0.420959,0.000013,-0.000024,0.000003,0.000013,-0.000024,4.626217,0.000024,
2476,2863,4.69330754688438,4.7656038838285,-0.0212474957842801,0.003911,0.000740,-0.000390,0.181467,0.049541,317.165813,25.002583,0.999144,0.985847,0.004455,0.415101,-0.000014,-0.000005,-0.000015,0.000006,-0.000026,-53.158870,0.000027,
2461,2833,4.37190532826148,4.11404016594631,-0.0342647830545957,0.004065,0.000972,-0.001382,0.192359,0.057719,317.522186,24.979584,0.999600,0.989760,0.003890,0.316043,-0.000010,-0.000012,-0.000005,-0.000006,-0.000016,-39.982928,0.000023,
2446,2518,4.11012878734752,-2.75843493336191,-0.0116366142353854,0.003801,0.001288,-0.003991,0.189699,0.070051,322.808957,23.717389,0.999367,0.986200,0.004469,0.467137,0.000006,-0.000040,0.000002,0.000006,-0.000040,2.057741,0.000043,
2416,2308,3.49904715108373,-7.35192879814304,0.00751799602892333,0.004046,0.001441,-0.004797,0.203455,0.070361,326.337601,23.133559,0.999213,0.984765,0.004804,0.418319,-0.000021,0.000016,0.000001,0.000016,-0.000021,88.885203,0.000022,
2401,2323,3.16721880017229,-7.02261600940817,0.00195616080702621,0.003453,0.000928,0.000489,0.156802,0.056486,325.982750,23.295379,0.999347,0.987399,0.004408,0.350570,-0.000027,0.000020,0.000004,0.000020,-0.000027,84.859992,0.000028,
2491,2743,5.04313781606087,2.1549730276851,-0.0396561269811855,0.003817,0.001189,-0.003037,0.187333,0.054732,319.014327,24.596588,0.999740,0.991643,0.003603,0.378411,-0.000015,-0.000012,-0.000034,0.000020,-0.000047,-45.983850,0.000047,
2386,2218,2.86168314621775,-9.32241396132474,0.0102789336264664,0.004100,0.001007,-0.003076,0.199186,0.029682,327.777807,23.089593,0.999039,0.979865,0.005634,0.267917,-0.000021,-0.000001,-0.000004,-0.000001,-0.000021,-79.812727,0.000025,
2476,2878,4.68937595360307,5.09321228939827,-0.0282578896394057,0.003755,0.000802,0.001281,0.167950,0.042263,316.847983,25.120398,0.998680,0.986276,0.004695,0.346349,-0.000019,-0.000004,-0.000010,0.000001,-0.000024,-63.971465,0.000027,
2476,2623,4.74207035597882,-0.46308089921866,-0.0252456475749909,0.003959,0.001365,-0.003114,0.194012,0.067000,321.057561,24.166439,0.999621,0.990811,0.003772,0.359920,0.000012,-0.000026,-0.000006,0.000013,-0.000027,-8.486237,0.000027,
2386,2413,2.82310526533771,-5.05469805008136,-0.00178903340491843,0.003857,0.001623,-0.005703,0.197942,0.065870,324.521686,23.533527,0.999342,0.985240,0.004781,0.449895,-0.000016,-0.000003,0.000007,0.000000,-0.000019,67.220758,0.000022,
2416,2158,3.52823407807111,-10.6386823380912,0.00993976515252371,0.003685,0.001043,-0.003033,0.180115,0.030603,328.759051,22.664290,0.999188,0.979694,0.005386,0.346072,-0.000022,-0.000030,0.000003,-0.000020,-0.000031,19.984216,0.000052,
2461,2563,4.42721803524145,-1.77352028134484,-0.0247275108916938,0.004162,0.001173,-0.000738,0.194169,0.070153,322.003044,23.914576,0.999396,0.988663,0.004344,0.407742,0.000005,-0.000044,-0.000004,0.000005,-0.000045,-4.074028,0.000049,
2386,2008,2.90305862007196,-13.9313087742302,0.030685154928392,0.003678,0.000717,0.000649,0.166138,0.067076,331.300927,22.459685,0.998669,0.970924,0.006391,0.285784,0.000012,0.000001,0.000013,0.000020,-0.000007,33.405012,0.000021,
2446,2668,4.07969219885701,0.516361132890161,-0.0211040049762801,0.004216,0.001165,-0.003306,0.206305,0.060119,320.306842,24.299852,0.999483,0.988939,0.004150,0.404622,0.000012,-0.000011,-0.000018,0.000022,-0.000021,-28.862661,0.000025,
2431,2173,3.85408275440573,-10.3112916669174,0.02311141300288,0.003843,0.000591,-0.000852,0.179263,0.015977,328.649808,22.666802,0.999355,0.982525,0.005069,0.298639,-0.000031,-0.000030,0.000003,-0.000027,-0.000034,49.972669,0.000061,
2416,2608,3.43698043467748,-0.792472581077114,-0.0301277394488579,0.004014,0.001184,-0.004372,0.200707,0.061114,321.153443,24.120393,0.999441,0.989125,0.004142,0.405307,0.000006,-0.000017,-0.000003,0.000006,-0.000017,-8.406027,0.000017,
2401,2488,3.13525035723486,-3.41446439870236,-0.00476997751303543,0.004152,0.000963,0.000544,0.188864,0.067947,323.285092,23.793625,0.999373,0.988751,0.004321,0.382201,0.000001,-0.000036,0.000002,0.000001,-0.000036,2.874536,0.000041,
2401,2008,3.23163115790328,-13.9315141874757,0.0278525502584444,0.004124,0.001685,-0.003711,0.202631,0.084910,331.329249,22.324791,0.998559,0.967153,0.006772,0.334017,0.000005,0.000008,0.000019,0.000026,-0.000013,46.678897,0.000026,
2431,2623,3.7609992992367,-0.465418034448902,-0.0240707875017279,0.003896,0.001041,-0.000796,0.182159,0.055749,320.963815,24.152299,0.999464,0.988980,0.004145,0.402910,0.000006,-0.000012,-0.000012,0.000012,-0.000019,-26.582891,0.000019,
2506,3013,5.3175009196341,8.0296754807752,-0.00405663786290233,0.004015,0.001139,-0.003496,0.198557,0.049771,314.954808,25.708387,0.999487,0.990629,0.003737,0.359523,0.000015,-0.000029,0.000010,0.000017,-0.000031,11.739099,0.000031,
2476,2638,4.73887133718307,-0.136180400638153,-0.0277695734239956,0.003950,0.001496,-0.003957,0.196866,0.064898,320.795387,24.172258,0.999647,0.990385,0.003794,0.409527,0.000008,-0.000019,-0.000013,0.000013,-0.000024,-21.804044,0.000024,
2431,2443,3.79751986294815,-4.39653466934958,-0.0107756784020125,0.003676,0.001119,-0.000320,0.170179,0.072830,323.986560,23.573889,0.999248,0.985342,0.004811,0.386391,-0.000003,-0.000028,0.000004,-0.000003,-0.000028,9.932159,0.000034,
2461,2578,4.42292565627193,-1.44598539378295,-0.0351903026728451,0.003880,0.000688,0.000693,0.175636,0.047154,321.653355,23.910568,0.999566,0.991498,0.004104,0.444292,0.000003,-0.000029,-0.000002,0.000004,-0.000029,-3.428051,0.000031,
2446,2683,4.07616812827727,0.843758469337089,-0.023371304483021,0.004061,0.000833,-0.001090,0.190856,0.057092,320.028044,24.368257,0.999291,0.987614,0.004293,0.385849,0.000013,0.000000,-0.000017,0.000025,-0.000012,-34.412605,0.000025,
2416,2323,3.49585261580463,-7.02309675696964,0.00771665412378297,0.003895,0.001462,-0.003469,0.191715,0.085497,326.084414,23.216843,0.998993,0.982220,0.005182,0.399978,-0.000025,0.000020,0.000006,0.000021,-0.000026,82.016317,0.000027,
2401,2023,3.22806317597638,-13.601780718821,0.0185735915119949,0.004047,0.001569,-0.005798,0.206669,0.028722,331.014910,22.346628,0.998660,0.970687,0.006512,0.305361,0.000006,-0.000003,0.000018,0.000021,-0.000017,37.726076,0.000022,
2431,2188,3.85171214617609,-9.98211406102012,0.0291203230722772,0.003858,0.000993,-0.002220,0.185145,0.044167,328.463063,22.781991,0.999694,0.987414,0.004426,0.264330,-0.000026,-0.000026,0.000001,-0.000026,-0.000027,38.649005,0.000053,
2491,2758,5.0406244774925,2.48046557855925,-0.0312083572958386,0.003927,0.000918,0.000084,0.180334,0.050863,318.833983,24.600562,0.999620,0.989013,0.003941,0.429400,-0.000011,-0.000009,-0.000033,0.000023,-0.000043,-46.076899,0.000043,
2431,2638,3.75775721874021,-0.138739786409467,-0.0228181341506115,0.003663,0.000653,0.000898,0.165043,0.034442,320.713487,24.188348,0.999574,0.990626,0.003977,0.396067,0.000003,-0.000007,-0.000015,0.000014,-0.000017,-36.105843,0.000019,
2476,2653,4.7359668732575,0.190580822726176,-0.0259801907415635,0.003971,0.001229,-0.003702,0.196753,0.051259,320.566293,24.217984,0.999642,0.990185,0.003825,0.406987,0.000007,-0.000021,-0.000017,0.000014,-0.000029,-25.351666,0.000029,
2401,2503,3.13145417870067,-3.08513300877832,-0.0180717396415844,0.004115,0.001293,-0.002281,0.197537,0.076325,322.938628,23.867365,0.999494,0.989498,0.004165,0.363619,0.000000,-0.000029,0.000002,0.000000,-0.000029,4.650008,0.000033,
2461,2593,4.42117443663611,-1.11976403898223,-0.0203271532826079,0.003959,0.000693,0.001079,0.177826,0.039575,321.536269,23.996024,0.999306,0.988081,0.004345,0.406071,0.000009,-0.000027,0.000001,0.000009,-0.000027,0.946879,0.000028,
2446,2698,4.07152481791814,1.17151643015059,-0.0319967266513004,0.003376,0.000689,0.001973,0.147934,0.063923,319.668298,24.413023,0.999624,0.990034,0.003961,0.400716,0.000013,0.000012,-0.000018,0.000031,-0.000006,-44.799083,0.000033,
2401,2038,3.22491701339148,-13.2726500656412,0.0198750012341407,0.003777,0.001737,-0.005009,0.191537,0.060747,330.768973,22.351006,0.998706,0.971249,0.006412,0.382191,0.000001,-0.000019,0.000020,0.000014,-0.000032,31.746161,0.000032,
2431,2458,3.794470270251,-4.06891263366435,-0.0107385570115071,0.003654,0.001382,0.000408,0.166630,0.095293,323.740002,23.584049,0.999452,0.986060,0.004691,0.450145,-0.000001,-0.000038,0.000000,-0.000001,-0.000038,-0.047134,0.000044,
2506,3028,5.31470571277617,8.35471899239145,0.00333740563803531,0.003956,0.000869,-0.000301,0.183345,0.044915,314.756299,25.729101,0.999550,0.992196,0.003617,0.393984,0.000016,-0.000024,0.000006,0.000017,-0.000025,8.726172,0.000026,
2476,2668,4.73264078749235,0.517239440873865,-0.0306047964073173,0.004046,0.001231,-0.004093,0.201689,0.045204,320.288638,24.197748,0.999554,0.987685,0.004143,0.478414,0.000010,-0.000017,-0.000018,0.000019,-0.000026,-26.666717,0.000027,
2386,2233,2.85865540280762,-8.99444335832989,0.0204993235074085,0.003467,0.000715,0.000813,0.156160,0.046567,327.577651,23.164476,0.999304,0.983165,0.005438,0.255542,-0.000018,-0.000005,0.000000,-0.000005,-0.000018,88.843594,0.000025,
2491,2773,5.03739334223051,2.80758040933564,-0.0284483863068772,0.003600,0.000703,0.000739,0.162780,0.060235,318.594526,24.699321,0.999176,0.987134,0.004344,0.398977,-0.000018,-0.000001,-0.000031,0.000023,-0.000042,-52.474174,0.000042,
2431,2653,3.75547679152122,0.187809191809365,-0.0167132380331623,0.003872,0.000567,0.001034,0.174166,0.054908,320.529719,24.215809,0.999565,0.990134,0.004052,0.439428,0.000003,-0.000012,-0.000016,0.000013,-0.000022,-32.970295,0.000022,
2461,2608,4.41859195889891,-0.792734688996241,-0.0148456363644982,0.004037,0.000483,0.002096,0.177545,0.048773,321.337855,24.060925,0.999181,0.984669,0.004700,0.405212,0.000010,-0.000019,-0.000003,0.000011,-0.000019,-6.425490,0.000019,
2446,2713,4.06847561229332,1.4993477482044,-0.0388332514519334,0.003528,0.001498,-0.002389,0.171546,0.081776,319.389958,24.473544,0.999735,0.992035,0.003661,0.410678,0.000008,0.000013,-0.000018,0.000029,-0.000008,-48.940494,0.000030,
2401,2053,3.22166508733134,-12.9412247632258,0.0135126013382774,0.004056,0.001342,-0.003949,0.200287,0.063482,330.482173,22.513660,0.999020,0.976169,0.006050,0.271471,-0.000001,-0.000025,0.000019,0.000010,-0.000036,28.934332,0.000037,
2491,2938,5.00428903320732,6.39995941491112,-0.023146617176053,0.003797,0.000946,-0.000162,0.175536,0.061812,315.955641,25.432777,0.999530,0.989678,0.003816,0.311663,-0.000010,-0.000054,-0.000018,-0.000004,-0.000061,-19.988629,0.000073,
2431,2203,3.84793614770888,-9.65401770116077,0.0210881582717661,0.003654,0.001083,-0.002782,0.177931,0.031318,328.147199,22.696977,0.999614,0.985095,0.004755,0.389311,-0.000025,-0.000024,0.000001,-0.000024,-0.000026,58.173012,0.000049,
2446,2533,4.10717953165148,-2.4292841414278,-0.0109259948841327,0.003818,0.001408,-0.003852,0.190058,0.072125,322.570755,23.918697,0.999415,0.987152,0.004418,0.321022,0.000006,-0.000032,0.000001,0.000006,-0.000032,1.852374,0.000034,
2476,2893,4.68692102729713,5.42007728968542,-0.0280477602294127,0.004106,0.001267,-0.001437,0.194618,0.063419,316.630995,25.198948,0.998713,0.986146,0.004673,0.345377,-0.000016,-0.000010,-0.000010,-0.000002,-0.000023,-52.821810,0.000028,
2476,2683,4.72927859659189,0.845272243281634,-0.0328857196412287,0.004028,0.000898,-0.002965,0.196459,0.024431,320.019620,24.343096,0.999653,0.989424,0.003947,0.369476,0.000013,-0.000004,-0.000019,0.000025,-0.000016,-33.354166,0.000026,
2416,2338,3.49249067089083,-6.69389745898553,0.00480087734354129,0.003805,0.001647,-0.002421,0.183834,0.098023,325.808911,23.310772,0.998895,0.981747,0.005129,0.368637,-0.000023,0.000017,0.000005,0.000017,-0.000024,83.571959,0.000025,
2401,2518,3.12868163539779,-2.75878263878772,-0.021656208719719,0.004126,0.001787,-0.007435,0.216919,0.070583,322.685382,23.776103,0.999445,0.988603,0.004365,0.495899,-0.000004,-0.000031,0.000002,-0.000004,-0.000031,4.461490,0.000039,
2386,2428,2.82046284703549,-4.72619723370524,-0.00363366528193865,0.004171,0.001669,-0.006799,0.216299,0.075984,324.281285,23.607677,0.999404,0.988094,0.004506,0.430685,-0.000014,-0.000010,0.000003,-0.000008,-0.000016,60.466187,0.000024,
2506,3043,5.31151457273355,8.68169283792573,0.00276490250496408,0.004012,0.000768,0.000863,0.181343,0.037989,314.503239,25.880580,0.999723,0.992700,0.003673,0.295787,0.000014,-0.000016,0.000013,0.000019,-0.000020,20.113216,0.000023,
2431,2473,3.79198059908825,-3.74179093208202,-0.00739057816002742,0.003715,0.000996,-0.001501,0.176291,0.059259,323.534716,23.642170,0.999385,0.985915,0.004625,0.407004,-0.000008,-0.000047,0.000001,-0.000008,-0.000047,1.200708,0.000059,
2431,2668,3.75104294910309,0.517613470087696,-0.0331794288180731,0.003515,0.000923,-0.001950,0.168968,0.056210,320.141523,24.377668,0.999505,0.990006,0.004212,0.329656,0.000007,-0.000010,-0.000016,0.000017,-0.000020,-31.655641,0.000021,
2386,2248,2.85465943447384,-8.66408016852621,0.000783176560616994,0.003788,0.001104,-0.000817,0.176870,0.065793,327.191140,23.152236,0.999217,0.983033,0.005319,0.333505,-0.000018,-0.000007,0.000000,-0.000007,-0.000018,89.418331,0.000026,
2476,2698,4.72626240722364,1.17234530263597,-0.0277289537242495,0.003759,0.000947,-0.001495,0.178596,0.050500,319.800253,24.419189,0.999696,0.988944,0.004116,0.376239,0.000013,0.000016,-0.000022,0.000037,-0.000008,-46.525400,0.000039,
2461,2623,4.41508377140986,-0.463525911266387,-0.0263137159188318,0.004237,0.001159,-0.001204,0.199410,0.062712,321.018937,24.180625,0.999472,0.988493,0.004139,0.354776,0.000011,-0.000019,-0.000010,0.000014,-0.000022,-17.139067,0.000022,
2476,2908,4.68429046653776,5.74549712242069,-0.0227900381800623,0.003984,0.000946,-0.002638,0.193442,0.043037,316.429209,25.226620,0.998953,0.984375,0.004782,0.353474,-0.000015,-0.000024,-0.000007,-0.000011,-0.000027,-28.581813,0.000040,
2506,3058,5.30879394221591,9.00617221837962,0.00852544673875855,0.003888,0.000699,0.000827,0.175775,0.036352,314.300842,25.842024,0.999735,0.992474,0.003787,0.392940,0.000012,-0.000013,0.000009,0.000015,-0.000016,17.707913,0.000018,
2401,2533,3.12591925846582,-2.43062374629255,-0.0156578887674073,0.004115,0.001359,-0.003683,0.202677,0.068223,322.477282,23.938375,0.999412,0.988953,0.004404,0.377864,-0.000004,-0.000026,0.000000,-0.000004,-0.000026,-0.032640,0.000033,
2491,2953,5.00207297311153,6.72470330844539,-0.0153689656629012,0.004078,0.000498,0.000821,0.184484,0.044061,315.785181,25.424491,0.999444,0.989522,0.003925,0.360319,-0.000011,-0.000058,-0.000012,-0.000008,-0.000061,-14.043679,0.000075,
2386,2443,2.81651957821289,-4.39776143205798,-0.0122768968819855,0.004147,0.001193,-0.002423,0.199369,0.065633,323.949003,23.638097,0.999202,0.988802,0.004544,0.435113,-0.000008,-0.000029,0.000002,-0.000008,-0.000029,6.349832,0.000039,
2401,2068,3.21780051441974,-12.6119148839752,0.00336964590542266,0.003875,0.001541,-0.004384,0.193667,0.085775,330.149558,22.428375,0.999358,0.980203,0.005833,0.428542,-0.000004,-0.000016,0.000021,0.000012,-0.000032,37.417967,0.000033,
2431,2683,3.74863130012556,0.843995590114893,-0.0290052868840007,0.003842,0.001036,-0.000628,0.179172,0.070366,319.942673,24.389326,0.999500,0.988886,0.004219,0.382636,0.000008,0.000000,-0.000015,0.000019,-0.000012,-37.846315,0.000020,
2431,2218,3.84539746130377,-9.32616425420779,0.0278960256430878,0.003785,0.000616,0.000226,0.172655,0.039780,327.956547,22.729099,0.999611,0.985409,0.004746,0.418060,-0.000030,-0.000019,0.000000,-0.000019,-0.000030,-88.926575,0.000049,
2446,2548,4.10377901483992,-2.10173341040747,-0.0138667595663833,0.003934,0.001335,-0.000485,0.182796,0.078706,322.295205,23.941116,0.999592,0.989237,0.004141,0.358596,0.000009,-0.000050,0.000001,0.000009,-0.000050,1.001916,0.000053,
2446,2728,4.06637352339559,1.82450904698705,-0.0328445393500942,0.004007,0.000797,-0.001467,0.189751,0.040397,319.214919,24.456406,0.999686,0.991879,0.003633,0.438615,0.000002,-0.000004,-0.000010,0.000010,-0.000011,-36.751887,0.000012,
2416,2353,3.48927258413427,-6.36536108475359,-0.00139793058099258,0.003804,0.001883,-0.005255,0.194287,0.100636,325.524750,23.327290,0.998608,0.980612,0.005312,0.404550,-0.000015,0.000023,0.000008,0.000025,-0.000017,78.878434,0.000026,
2491,2968,4.99962074009277,7.05031151643755,-0.00973419008988685,0.003909,0.000877,-0.002897,0.191108,0.040909,315.593859,25.469516,0.999305,0.987725,0.004315,0.370295,-0.000010,-0.000049,-0.000005,-0.000009,-0.000049,-6.677968,0.000063,
2401,2083,3.21638688069707,-12.2840050417394,0.0218702219411853,0.004147,0.001264,-0.001433,0.195401,0.075423,330.063794,22.570386,0.999041,0.976040,0.006105,0.323949,-0.000010,-0.000020,0.000018,0.000004,-0.000034,36.905217,0.000037,
2386,2458,2.81375175150201,-4.06877499212221,-0.0166970831754725,0.004624,0.001458,-0.002445,0.221419,0.063373,323.690465,23.756087,0.999271,0.987627,0.004622,0.359381,-0.000007,-0.000036,0.000001,-0.000007,-0.000036,1.639184,0.000045,
2431,2233,3.84165604946084,-8.99493590710215,0.0171963740930892,0.003739,0.001264,-0.001773,0.178204,0.055852,327.629301,22.885555,0.999303,0.981976,0.005235,0.330510,-0.000029,-0.000021,0.000004,-0.000020,-0.000030,67.840103,0.000051,
2416,2368,3.4865128517197,-6.03907455009521,0.00282270987315769,0.003728,0.000893,-0.004271,0.186796,0.031854,325.310759,23.316280,0.998993,0.982961,0.005023,0.395793,-0.000011,0.000012,0.000011,0.000017,-0.000016,67.405930,0.000019,
2491,2983,4.99607816292424,7.3772677601472,-0.0113193733985213,0.003617,0.000911,-0.002391,0.175758,0.036036,315.319290,25.594546,0.999234,0.987960,0.004211,0.298823,-0.000006,-0.000030,0.000001,-0.000006,-0.000030,1.678033,0.000039,
2446,2743,4.06414309490576,2.15079477015242,-0.0219661340476023,0.004006,0.000711,-0.000001,0.184229,0.034909,319.056119,24.549427,0.999633,0.990958,0.003752,0.392171,-0.000001,-0.000012,-0.000013,0.000008,-0.000021,-33.078911,0.000021,
2416,2383,3.48416782267515,-5.71052091601464,0.0113295913479305,0.003734,0.001128,-0.003291,0.183587,0.049872,325.135056,23.471780,0.999652,0.987320,0.004475,0.307655,-0.000009,0.000011,0.000006,0.000012,-0.000011,73.796442,0.000013,
2446,2758,4.06013253989972,2.47868654914605,-0.0332729979834312,0.003831,0.001088,-0.001104,0.180456,0.050206,318.712713,24.597228,0.999547,0.989635,0.004014,0.412206,0.000004,-0.000006,-0.000010,0.000011,-0.000012,-31.272198,0.000013,
2416,2398,3.48076359330662,-5.38275516374841,0.00189477729787768,0.004155,0.000884,-0.001727,0.197109,0.063010,324.827118,23.392213,0.999602,0.987070,0.004552,0.450007,-0.000009,0.000011,0.000008,0.000014,-0.000012,71.789234,0.000015,
