Image X[Pixel],Image Y[Pixel],X[mm],Y[mm],Z[mm],Horizontal Displacement U[mm],Vertical Displacement V[mm],Out-Of-Plane: W[mm],Horizontal: u[Pixel],Vertical: v[Pixel],Horizontal: q[Pixel],Vertical: r[Pixel],Correlation Value 2D,Correlation Value Persp,Sigma,Epipolar Distance,Strain-global frame: Exx,Strain-global frame: Eyy,Strain-global frame: Exy,Maximum Principal Strain: EI,Minimum Principal Strain: EII,Shear Angle Gamma,Von Mises Equivalent Strain,
2026,2068,-4.96585186881279,-12.6089467541747,0.0289359555869737,0.002774,-0.000577,-0.000051,0.127271,-0.044689,331.223275,24.769158,0.999720,0.992636,0.003587,0.323755,0.000037,-0.000079,0.000063,0.000064,-0.000107,23.703210,0.000107,
2131,2593,-2.76488490419598,-1.13040396908209,-0.0249432437726114,0.002840,-0.000772,0.001507,0.125889,-0.008461,321.778018,24.312357,0.999419,0.990712,0.004115,0.426618,-0.000014,-0.000003,0.000017,0.000009,-0.000026,54.222069,0.000027,
2056,2218,-4.33598623630897,-9.32215058371159,0.01485450826641,0.002470,-0.001024,0.004299,0.101012,-0.014389,328.498624,24.608421,0.998593,0.981905,0.005309,0.303347,-0.000012,0.000040,0.000047,0.000068,-0.000040,59.374640,0.000068,
2071,2293,-4.02139293324471,-7.68129221929578,-0.00341428183395465,0.002617,-0.000674,-0.001873,0.125311,-0.035713,327.084067,24.429498,0.999800,0.993484,0.003741,0.385066,-0.000010,0.000006,0.000021,0.000020,-0.000025,55.110573,0.000026,
2086,2368,-3.70642517680993,-6.04191379386869,-0.00874749030839439,0.002944,-0.000512,-0.003113,0.144090,-0.034499,325.773321,24.362081,0.998440,0.981903,0.005384,0.397630,0.000002,-0.000020,0.000017,0.000012,-0.000029,28.542627,0.000030,
2176,2818,-1.82493754586825,3.77036881338913,-0.0323141146040484,0.002605,-0.000846,-0.000068,0.119845,-0.038715,317.889070,24.518597,0.999446,0.990680,0.003866,0.327134,-0.000018,-0.000006,0.000015,0.000004,-0.000028,56.105264,0.000030,
2161,2743,-2.13750505739879,2.13724529928632,-0.0291481089118406,0.003159,-0.000927,0.000985,0.142074,-0.030445,319.209455,24.382647,0.999391,0.989690,0.004104,0.404923,-0.000016,-0.000011,0.000005,-0.000008,-0.000018,58.584569,0.000027,
2116,2518,-3.07883706500244,-2.76605668637688,-0.0198497073124599,0.002596,-0.000847,0.001331,0.115153,-0.029676,323.088197,24.349906,0.999278,0.988118,0.004315,0.363176,-0.000002,-0.000016,0.000022,0.000014,-0.000032,36.553970,0.000032,
2011,1993,-5.28208449212612,-14.2520516743959,0.0274543270138565,0.002578,0.000183,-0.002961,0.126336,-0.017912,332.502888,24.952046,0.998702,0.982344,0.005361,0.303496,0.000012,-0.000219,0.000005,0.000012,-0.000219,1.172427,0.000247,
2101,2443,-3.39220127030285,-4.403901153379,-0.0081780806617644,0.002781,-0.000679,0.000956,0.124807,-0.019926,324.475902,24.343942,0.999403,0.988327,0.004345,0.394215,-0.000005,-0.000046,0.000016,0.000000,-0.000051,18.568067,0.000059,
2191,2893,-1.51017244172646,5.40008168191624,-0.0158273721498858,0.003032,-0.000649,-0.002784,0.148134,-0.027476,316.786427,24.578398,0.999794,0.995371,0.003045,0.365090,-0.000025,0.000002,0.000012,0.000007,-0.000029,70.005256,0.000031,
2266,3268,0.053051598389473,13.5402019843234,0.0145438174562287,0.002769,-0.000882,0.002296,0.119689,-0.036368,310.703403,25.284618,0.999635,0.993402,0.003334,0.398539,-0.000003,0.000013,-0.000005,0.000015,-0.000004,-72.975002,0.000015,
2041,2143,-4.65086046450385,-10.9649496329978,0.017613625211311,0.002555,-0.000635,-0.001584,0.121490,-0.037678,329.831870,24.634802,0.998261,0.981265,0.005873,0.349574,-0.000004,0.000003,0.000053,0.000053,-0.000054,47.027309,0.000062,
2251,3193,-0.257058672002241,11.9127995386507,0.034558471152252,0.002931,-0.000672,-0.000429,0.136236,-0.032793,312.144916,25.159137,0.999544,0.992857,0.003380,0.335507,-0.000012,-0.000007,-0.000007,-0.000002,-0.000017,-53.769237,0.000021,
2476,2923,4.68006263204657,6.07030692373022,-0.0220749285879265,0.002819,-0.000911,-0.001758,0.135789,-0.049333,316.133403,25.241441,0.999319,0.986792,0.004398,0.301973,-0.000035,-0.000017,0.000002,-0.000017,-0.000035,82.550132,0.000053,
2206,2968,-1.19640733126284,7.02951891451158,-0.00101503990396168,0.003114,-0.000629,-0.000816,0.145776,-0.029726,315.641509,24.712346,0.999363,0.991516,0.003747,0.336485,-0.000018,0.000004,0.000014,0.000011,-0.000025,64.125021,0.000025,
2221,3043,-0.883735627190799,8.65823258093767,0.0048722922002753,0.002919,-0.000997,0.000779,0.131638,-0.038171,314.412695,24.823298,0.999713,0.994026,0.003170,0.345664,-0.000026,-0.000016,0.000001,-0.000016,-0.000026,84.690814,0.000043,
2026,2083,-4.96854977434606,-12.2796813077306,0.0262145930583415,0.002610,-0.000914,0.003034,0.111211,-0.048925,330.944254,24.787073,0.999322,0.987264,0.004538,0.295406,0.000031,-0.000061,0.000065,0.000064,-0.000094,27.341188,0.000096,
2011,2008,-5.28530991044938,-13.9221508742349,0.0223490605723669,0.002354,-0.001354,0.006253,0.090682,-0.020646,332.184910,24.970771,0.998768,0.983978,0.005179,0.274227,0.000026,-0.000169,0.000022,0.000029,-0.000172,6.445584,0.000184,
2146,2668,-2.45075667068928,0.50326484624798,-0.0229468601118583,0.002797,-0.000426,-0.002301,0.135507,-0.017935,320.528581,24.306220,0.999607,0.992198,0.003593,0.448278,-0.000004,0.000006,0.000016,0.000017,-0.000016,53.576784,0.000019,
2071,2308,-4.0243937119731,-7.35139327963901,-0.0172138333344947,0.002667,-0.000044,-0.003659,0.132908,-0.019655,326.734662,24.459861,0.999817,0.993044,0.003885,0.370232,-0.000006,-0.000008,0.000013,0.000006,-0.000020,42.329890,0.000020,
2431,2698,3.74482833168393,1.16970556320038,-0.0277247380544168,0.002835,-0.000629,-0.001588,0.135751,-0.028860,319.666786,24.433086,0.999778,0.992096,0.003638,0.289513,-0.000008,-0.000012,-0.000002,-0.000007,-0.000013,-24.678838,0.000020,
2401,2548,3.12164389829896,-2.1058079317342,-0.0125514920674732,0.002897,-0.000788,0.001205,0.128248,-0.026784,322.186953,23.865168,0.999512,0.990144,0.004322,0.402150,-0.000015,-0.000026,0.000006,-0.000012,-0.000028,23.282165,0.000042,
2491,2998,4.99271472869489,7.70003189330121,0.00165915584562981,0.002636,-0.001099,0.002457,0.111174,-0.054526,315.119832,25.522079,0.999453,0.988678,0.004014,0.337998,-0.000025,-0.000010,0.000014,-0.000002,-0.000033,59.259521,0.000039,
2101,2458,-3.39449001914219,-4.07603691011072,-0.015022664976243,0.003155,-0.000578,-0.001323,0.148721,-0.010969,324.200408,24.320555,0.999436,0.988617,0.004237,0.429412,-0.000001,-0.000047,0.000014,0.000003,-0.000051,15.545044,0.000057,
2086,2383,-3.708968221922,-5.71284815316481,-0.0146357099437182,0.003032,-0.000357,-0.004397,0.151918,-0.026531,325.489667,24.431327,0.998441,0.981080,0.005433,0.337300,0.000005,-0.000016,0.000023,0.000020,-0.000030,32.448145,0.000031,
2461,2848,4.36730028292388,4.4380666289365,-0.0344510681154588,0.002676,-0.000844,0.000814,0.119512,-0.021142,317.204396,24.881621,0.999743,0.993691,0.003241,0.389121,-0.000026,-0.000001,0.000003,-0.000001,-0.000026,82.752777,0.000031,
2356,2323,2.18371541142139,-7.02585441278189,0.0013209237247338,0.002211,-0.001446,0.003899,0.087078,-0.051681,325.880222,23.288459,0.999724,0.994358,0.003602,0.422417,-0.000027,-0.000045,0.000012,-0.000021,-0.000051,26.742517,0.000074,
2266,3283,0.0496926882740674,13.865452778311,0.00204523140115498,0.002767,-0.001010,-0.001399,0.131855,-0.047390,310.364717,25.275164,0.999553,0.993028,0.003323,0.420857,-0.000003,0.000012,-0.000005,0.000013,-0.000004,-73.311509,0.000013,
2011,2023,-5.28720932820211,-13.5939532932439,0.0210112848589574,0.002502,-0.000758,0.003466,0.105235,-0.036982,331.948812,24.896545,0.998717,0.982541,0.005349,0.323801,0.000031,-0.000183,0.000035,0.000037,-0.000189,8.998064,0.000200,
2236,3118,-0.570641953622992,10.2864142371791,0.015808273970265,0.002902,-0.000516,0.000814,0.130939,-0.007743,313.241502,24.977059,0.999573,0.992276,0.003624,0.372041,-0.000031,-0.000013,-0.000002,-0.000013,-0.000031,-85.028384,0.000045,
2131,2608,-2.76705933792551,-0.804092867887348,-0.0200102568252873,0.002766,-0.000926,0.001271,0.123137,-0.037529,321.573864,24.340239,0.999458,0.990314,0.004177,0.375776,-0.000011,-0.000003,0.000019,0.000013,-0.000027,50.615134,0.000027,
2371,2398,2.49665597261478,-5.38384502366414,-0.00531808660275601,0.002380,-0.000516,-0.000508,0.110723,-0.007080,324.639314,23.478679,0.999335,0.987926,0.004646,0.433801,-0.000006,-0.000015,0.000021,0.000011,-0.000031,38.882658,0.000032,
2476,2938,4.677490944983,6.39590849374367,-0.0159150341319219,0.002918,-0.000891,-0.000094,0.134035,-0.038739,315.938186,25.268552,0.999508,0.989401,0.003932,0.341632,-0.000034,-0.000026,0.000006,-0.000023,-0.000038,60.414825,0.000061,
2341,2248,1.87064999580038,-8.66618029849088,0.00159713486715418,0.002284,-0.000862,0.003358,0.092680,-0.025245,327.097984,23.249837,0.999003,0.983196,0.005091,0.351259,-0.000025,-0.000030,0.000003,-0.000024,-0.000031,24.314577,0.000055,
2176,2833,-1.82741404997589,4.096455973552,-0.0364349876863912,0.003106,-0.000881,0.002290,0.135569,-0.038425,317.626461,24.492480,0.999651,0.994150,0.003361,0.365492,-0.000019,-0.000002,0.000016,0.000008,-0.000029,58.447691,0.000030,
2446,2773,4.055848175081,2.80319363727518,-0.0332428429287006,0.002516,-0.000797,-0.001402,0.120422,-0.046363,318.409883,24.540579,0.999519,0.988964,0.004209,0.424356,-0.000018,-0.000007,0.000004,-0.000006,-0.000019,72.195051,0.000027,
2161,2758,-2.14008457902433,2.46297352981001,-0.0235158000671163,0.002900,-0.001313,0.003835,0.121248,-0.049289,318.992478,24.395630,0.998965,0.987553,0.004372,0.383283,-0.000013,-0.000014,0.000004,-0.000009,-0.000018,42.197329,0.000027,
2221,3058,-0.885369348290123,8.98269091294361,0.013853367288732,0.003185,-0.000897,-0.000678,0.148589,-0.036129,314.260199,24.796009,0.999734,0.994803,0.002960,0.393151,-0.000023,-0.000015,0.000001,-0.000014,-0.000023,86.306434,0.000037,
2206,2983,-1.19950789646209,7.35587686676499,-0.00508605982770405,0.002867,-0.000468,-0.001277,0.135979,-0.017531,315.352732,24.743498,0.999418,0.992040,0.003606,0.333844,-0.000020,0.000000,0.000011,0.000005,-0.000025,65.973053,0.000026,
2386,2473,2.80925601598953,-3.74327603584959,-0.0110285096529879,0.002841,-0.000466,0.000941,0.126738,-0.009553,323.401207,23.724073,0.999454,0.989227,0.004359,0.362937,-0.000007,-0.000025,0.000032,0.000018,-0.000049,37.055337,0.000050,
2056,2233,-4.33856994878816,-8.992761664947,0.00197952716081318,0.002705,-0.000624,0.000474,0.122684,-0.028362,328.171911,24.599330,0.999268,0.987805,0.004602,0.295928,-0.000014,0.000048,0.000041,0.000068,-0.000035,63.438409,0.000068,
2011,2038,-5.28879991895944,-13.2637566018515,0.00897871742284906,0.003368,-0.000136,-0.003349,0.163586,-0.025669,331.666574,24.862396,0.998363,0.979066,0.005696,0.361056,0.000025,-0.000168,0.000032,0.000030,-0.000173,9.091216,0.000185,
2326,2173,1.558591821133,-10.3087473783006,0.0101833827667974,0.002865,-0.000444,0.001173,0.127024,-0.013123,328.416434,23.240692,0.998793,0.979297,0.005476,0.255834,-0.000021,-0.000002,0.000008,0.000001,-0.000024,69.028367,0.000027,
2146,2683,-2.45376505873427,0.830752073978843,-0.0304430443063097,0.002956,-0.001159,0.000598,0.133820,-0.050374,320.220979,24.364596,0.999416,0.991111,0.003737,0.365740,-0.000008,0.000003,0.000012,0.000010,-0.000016,57.362739,0.000016,
2071,2323,-4.02577220092572,-7.02496948276629,-0.00469890469651091,0.002925,-0.000243,-0.001691,0.139146,-0.024613,326.603895,24.461167,0.999284,0.988045,0.004498,0.362328,-0.000011,-0.000015,0.000011,-0.000002,-0.000024,39.400788,0.000030,
2311,2098,1.24546105158441,-11.9544477237482,0.0170454043588393,0.002882,-0.000641,0.000580,0.129750,-0.024532,329.692306,23.090948,0.999328,0.982281,0.005365,0.297957,-0.000018,-0.000012,0.000014,0.000000,-0.000029,50.941493,0.000034,
2431,2713,3.74249466210955,1.49455438675562,-0.0179313440453939,0.002761,-0.000614,-0.000484,0.128239,-0.037155,319.497868,24.380032,0.999727,0.991833,0.003675,0.384338,-0.000013,-0.000011,-0.000004,-0.000008,-0.000017,-52.836520,0.000025,
2086,2398,-3.71149593416488,-5.38576077808989,-0.0105301177976003,0.002692,-0.000252,-0.002597,0.131136,-0.012069,325.261382,24.414647,0.998826,0.984360,0.004937,0.369123,0.000005,-0.000033,0.000016,0.000011,-0.000039,19.903549,0.000040,
2101,2473,-3.39737996674229,-3.74876009318262,-0.0147566914392314,0.002823,-0.001176,0.001825,0.124100,-0.036358,323.936031,24.349107,0.999395,0.989176,0.004194,0.377904,0.000002,-0.000041,0.000022,0.000011,-0.000051,22.580056,0.000053,
2266,3298,0.0474271991756012,14.1909196331692,0.0091448526129625,0.002738,-0.001098,-0.001029,0.129242,-0.051576,310.175210,25.389442,0.999573,0.993368,0.003375,0.326298,0.000005,0.000002,-0.000005,0.000009,-0.000002,-36.859970,0.000010,
2416,2623,3.43258334642598,-0.467945392248545,-0.0243915016351366,0.002538,-0.001035,0.001078,0.112162,-0.021775,320.870539,24.054666,0.999360,0.988922,0.004108,0.436133,-0.000016,-0.000011,-0.000003,-0.000009,-0.000017,-65.890161,0.000027,
2296,2023,0.931887798231745,-13.6030087450647,0.0305084200081183,0.002490,-0.000907,0.003483,0.101887,-0.003812,330.995254,22.865364,0.999080,0.981873,0.005461,0.467736,-0.000029,-0.000047,0.000012,-0.000023,-0.000053,26.655233,0.000077,
2041,2158,-4.65389068465696,-10.6334129686084,0.00230373426239794,0.003033,-0.001079,0.004015,0.127791,-0.022008,329.469052,24.734701,0.999310,0.987418,0.004695,0.261288,-0.000009,-0.000021,0.000039,0.000024,-0.000054,40.868519,0.000054,
2026,2098,-4.97053822687539,-11.9504358268682,0.0256002306419418,0.002674,-0.000497,0.000194,0.122044,-0.035381,330.709217,24.814171,0.999082,0.981854,0.005250,0.275294,0.000025,-0.000036,0.000070,0.000071,-0.000082,33.303592,0.000089,
2356,2338,2.18104899704391,-6.69568159232499,-0.00315780674895905,0.002486,-0.001005,0.000635,0.111341,-0.047641,325.623583,23.464109,0.999442,0.989426,0.004324,0.291697,-0.000024,-0.000034,0.000014,-0.000014,-0.000044,34.707996,0.000061,
2116,2533,-3.08152414827386,-2.43904131432662,-0.0193821440511215,0.002384,-0.000582,0.002915,0.100826,-0.018337,322.835294,24.339611,0.999124,0.986823,0.004625,0.389356,-0.000007,-0.000006,0.000024,0.000018,-0.000031,45.479661,0.000031,
2191,2908,-1.51251557269438,5.72435933370519,-0.0086029488178383,0.002980,-0.000777,0.000440,0.135601,-0.028233,316.590775,24.490693,0.999792,0.995063,0.003139,0.466076,-0.000025,-0.000002,0.000011,0.000002,-0.000030,68.204762,0.000033,
2011,2053,-5.2917047334227,-12.9349021456357,0.0149086062102697,0.002686,-0.001116,0.003724,0.112893,-0.030815,331.425086,24.930065,0.999463,0.991346,0.003892,0.279791,0.000026,-0.000115,0.000022,0.000029,-0.000118,8.548602,0.000123,
2341,2263,1.86802045978147,-8.3382854387856,0.00659134190175337,0.002117,-0.000764,0.003881,0.083222,-0.026743,326.888069,23.291824,0.999139,0.984060,0.004959,0.346422,-0.000026,-0.000042,-0.000004,-0.000025,-0.000043,-13.026846,0.000069,
2176,2848,-1.82921792898308,4.42188089151001,-0.0273712933458796,0.003123,-0.000926,0.000743,0.141188,-0.035892,317.463978,24.506668,0.999374,0.992027,0.003604,0.366010,-0.000023,-0.000001,0.000014,0.000006,-0.000030,64.207138,0.000032,
2131,2623,-2.76945219648445,-0.476779910964787,-0.0209011840013318,0.002803,-0.000413,0.000187,0.128224,-0.022172,321.328247,24.370074,0.999466,0.990474,0.004046,0.367701,-0.000008,-0.000004,0.000017,0.000011,-0.000023,48.203079,0.000023,
2386,2488,2.80621556159317,-3.41625289557177,-0.00974068458697275,0.002782,-0.001036,0.003361,0.115134,-0.028154,323.157469,23.741127,0.999495,0.989133,0.004210,0.371795,-0.000003,-0.000019,0.000024,0.000014,-0.000037,36.043180,0.000037,
2401,2563,3.11774592640819,-1.77757366521151,-0.019646690084528,0.002457,-0.000494,0.000851,0.109455,-0.012823,321.864877,23.910987,0.999399,0.988282,0.004322,0.417128,-0.000022,-0.000028,0.000006,-0.000018,-0.000031,32.535491,0.000050,
2296,2038,0.929725820982302,-13.2721828571155,0.0340689576702289,0.002549,-0.000660,0.000180,0.115847,-0.040079,330.796841,23.115504,0.999306,0.984421,0.004972,0.214609,-0.000029,-0.000041,0.000012,-0.000022,-0.000049,32.425197,0.000072,
2416,2638,3.42996794967712,-0.139933783498442,-0.0229506674344861,0.002609,-0.000518,-0.000782,0.122383,-0.033565,320.648453,24.204931,0.999415,0.989289,0.004117,0.322597,-0.000019,-0.000009,0.000001,-0.000009,-0.000019,87.047431,0.000028,
2311,2113,1.24314247251927,-11.6271603308277,0.0239721801155497,0.002864,-0.000943,0.001693,0.125020,-0.035253,329.504439,23.056851,0.999294,0.982456,0.005237,0.356229,-0.000019,-0.000010,0.000016,0.000002,-0.000031,52.637978,0.000034,
2056,2248,-4.34046144495052,-8.66533629080566,0.00237408760204971,0.002949,-0.000713,-0.001107,0.138357,-0.041933,327.950065,24.553563,0.999085,0.986057,0.004791,0.324964,-0.000016,0.000060,0.000043,0.000079,-0.000035,65.678790,0.000079,
2146,2698,-2.45659841614572,1.15800262114382,-0.0338962647691119,0.002903,-0.000694,0.001739,0.128103,-0.013826,319.942695,24.371171,0.999452,0.990611,0.003847,0.404232,-0.000007,-0.000015,0.000010,0.000000,-0.000022,35.198466,0.000025,
2251,3208,-0.259847885769371,12.2374308610769,0.0347373603556207,0.002695,-0.001038,-0.002190,0.131035,-0.044943,311.895867,25.142300,0.999713,0.995470,0.003020,0.362234,-0.000011,-0.000012,-0.000006,-0.000005,-0.000018,-43.063704,0.000025,
2446,2788,4.0533034405732,3.12988046790291,-0.029766544507936,0.002696,-0.000673,-0.001294,0.128330,-0.032561,318.202160,24.604938,0.999470,0.989033,0.004114,0.425917,-0.000023,-0.000008,0.000001,-0.000008,-0.000023,85.851229,0.000032,
2281,1993,0.610024242094983,-14.2591270985773,0.0315691458928882,0.002744,-0.000540,0.001796,0.119403,-0.013118,331.517622,23.126278,0.999419,0.969549,0.006659,0.236104,-0.000038,-0.000089,-0.000002,-0.000038,-0.000089,-1.762263,0.000131,
2161,2773,-2.14325115709405,2.79028764676715,-0.0308278151523496,0.002621,-0.001055,0.002148,0.113683,-0.043181,318.679830,24.431812,0.999406,0.990661,0.003899,0.363276,-0.000011,-0.000008,0.000006,-0.000004,-0.000015,52.728194,0.000020,
2011,2068,-5.29313195907978,-12.6073975975398,0.0200538547629776,0.002878,-0.000553,0.000073,0.131756,-0.032185,331.246855,24.866736,0.999392,0.991115,0.003970,0.332902,0.000027,-0.000091,0.000044,0.000042,-0.000106,18.214131,0.000106,
2476,2953,4.67469050945524,6.72161512069147,-0.0136654755031032,0.002767,-0.000804,-0.002595,0.136676,-0.038413,315.714570,25.291629,0.999424,0.989144,0.004043,0.374835,-0.000034,-0.000020,0.000012,-0.000013,-0.000041,59.918005,0.000056,
2236,3133,-0.573681206859789,10.6121897691081,0.00914571216441118,0.002765,-0.000395,-0.002470,0.135356,-0.011380,312.944655,24.997011,0.999626,0.992487,0.003691,0.368651,-0.000033,-0.000011,-0.000003,-0.000011,-0.000033,-83.309754,0.000046,
2221,3073,-0.888095061956651,9.30872800747374,0.0152465060971849,0.002985,-0.000632,-0.000844,0.140023,-0.027542,314.017943,24.861705,0.999607,0.993602,0.003245,0.353914,-0.000021,-0.000009,-0.000001,-0.000009,-0.000022,-87.348670,0.000031,
2116,2548,-3.08363561151834,-2.11168081652355,-0.0265747656254689,0.003106,-0.000697,0.002301,0.135802,-0.026212,322.567622,24.316751,0.999230,0.988167,0.004381,0.408871,-0.000007,0.000004,0.000025,0.000024,-0.000027,51.293102,0.000029,
2206,2998,-1.2018767298449,7.68143791659817,-0.00725752291072013,0.003249,-0.000562,-0.001328,0.153728,-0.013504,315.107637,24.726942,0.999436,0.991601,0.003720,0.370295,-0.000022,0.000000,0.000010,0.000004,-0.000026,68.807916,0.000028,
2026,2113,-4.97328573468464,-11.6213550881201,0.0194627970963666,0.002822,-0.001055,0.005854,0.113177,-0.011362,330.408873,24.761459,0.998675,0.979312,0.005732,0.345454,0.000017,-0.000039,0.000068,0.000063,-0.000085,34.034074,0.000088,
2461,2863,4.36486145462559,4.76450777399817,-0.0325127871368522,0.002697,-0.000341,-0.004063,0.139046,-0.022526,316.995234,24.948147,0.999486,0.991575,0.003616,0.375311,-0.000027,-0.000001,0.000002,-0.000001,-0.000027,85.534667,0.000031,
2086,2413,-3.71357537158385,-5.05942517275393,-0.00435316706648337,0.002791,-0.000827,0.001100,0.124824,-0.038239,325.065188,24.393667,0.998875,0.985493,0.004713,0.364077,0.000004,-0.000057,0.000015,0.000007,-0.000061,13.125363,0.000066,
2041,2173,-4.65586472902185,-10.3066147026155,0.00936038765479452,0.002703,-0.000686,0.001711,0.119150,-0.032275,329.278999,24.672726,0.999318,0.989088,0.004360,0.308108,-0.000012,-0.000016,0.000034,0.000021,-0.000048,43.475976,0.000048,
2326,2188,1.55684098965411,-9.98208905141799,0.0173275888392368,0.002977,-0.000129,-0.003580,0.148615,-0.039608,328.256636,23.191991,0.999123,0.982649,0.005161,0.314586,-0.000023,0.000000,0.000004,0.000001,-0.000023,80.616765,0.000026,
2176,2863,-1.83126118945963,4.74682940762395,-0.0178528830569462,0.002904,-0.001034,-0.000301,0.134307,-0.045615,317.293064,24.495749,0.998874,0.988910,0.004077,0.378745,-0.000024,-0.000003,0.000011,0.000002,-0.000028,66.268553,0.000032,
2101,2488,-3.39955186611041,-3.42195872138134,-0.0167273976921933,0.003001,-0.000850,-0.000445,0.139004,-0.049901,323.692514,24.306598,0.999249,0.989569,0.004140,0.409402,0.000000,-0.000037,0.000026,0.000013,-0.000050,27.162730,0.000052,
2011,2083,-5.29576386616492,-12.2776123576557,0.0145731188567311,0.002810,-0.000691,0.001435,0.124894,-0.030253,330.953906,24.895762,0.998547,0.982207,0.005433,0.297376,0.000023,-0.000072,0.000049,0.000044,-0.000093,22.782288,0.000093,
2491,3013,4.98947434079506,8.02688555378448,-0.00541071970593521,0.002766,-0.000891,-0.001079,0.130822,-0.050198,314.834267,25.599265,0.999655,0.992806,0.003411,0.323485,-0.000027,0.000002,0.000013,0.000008,-0.000032,68.692618,0.000033,
2131,2638,-2.77081285879525,-0.152241162307519,-0.00493180619565692,0.002762,-0.001133,-0.000955,0.129526,-0.055466,321.220731,24.341173,0.999746,0.993037,0.003409,0.369112,-0.000004,-0.000001,0.000017,0.000015,-0.000020,47.998953,0.000020,
2071,2338,-4.02764493660215,-6.69775085909229,0.000522990290448888,0.002876,0.000111,-0.004086,0.143799,-0.000621,326.410455,24.437911,0.998764,0.986311,0.004780,0.408122,-0.000015,-0.000014,0.000009,-0.000005,-0.000024,46.145024,0.000031,
2386,2503,2.80357275870972,-3.08840518765142,-0.00758720141942604,0.002740,-0.000900,0.001771,0.119005,-0.019928,322.935786,23.819434,0.999656,0.990490,0.003892,0.345994,-0.000005,-0.000020,0.000023,0.000011,-0.000037,35.558348,0.000038,
2431,2728,3.73947979152337,1.82063703519027,-0.0196395144119492,0.002994,-0.001007,0.001245,0.132426,-0.044045,319.243901,24.349677,0.999736,0.992244,0.003569,0.458122,-0.000023,-0.000007,0.000000,-0.000007,-0.000023,-89.507082,0.000031,
2341,2278,1.86487075993699,-8.0098947593526,0.000601802689857323,0.001979,-0.000944,0.000576,0.088309,-0.039747,326.601138,23.283939,0.999117,0.984135,0.004960,0.380365,-0.000025,-0.000043,-0.000002,-0.000025,-0.000043,-7.055267,0.000069,
2296,2053,0.927168846233148,-12.9426145254803,0.0279235597302545,0.003035,-0.000381,-0.001472,0.143743,-0.022470,330.532279,23.094017,0.999304,0.983120,0.005030,0.287253,-0.000030,-0.000032,0.000010,-0.000021,-0.000042,42.232248,0.000064,
2476,2968,4.6723224046759,7.04803623641251,-0.0081895877302145,0.002815,-0.000513,-0.004713,0.147088,-0.028198,315.525258,25.396781,0.999539,0.990555,0.003869,0.335946,-0.000032,-0.000015,0.000013,-0.000008,-0.000039,61.178966,0.000050,
2356,2353,2.17901569007791,-6.36996620329536,-0.00213144207532423,0.003037,-0.000654,-0.001336,0.143666,-0.028014,325.422986,23.275834,0.999510,0.989697,0.004382,0.540090,-0.000019,-0.000030,0.000020,-0.000003,-0.000045,37.687592,0.000054,
2311,2128,1.2400399409462,-11.2965223809649,0.0208864173768006,0.002407,-0.000589,-0.002891,0.119833,-0.038777,329.231170,23.217485,0.999335,0.984102,0.004997,0.227310,-0.000016,-0.000001,0.000013,0.000006,-0.000024,59.797135,0.000025,
2041,2188,-4.65829680983349,-9.97806623625793,0.00748749251988556,0.002541,-0.000489,0.000583,0.114904,-0.020630,329.018297,24.658882,0.999210,0.986582,0.004707,0.328595,-0.000011,0.000020,0.000045,0.000052,-0.000043,54.627915,0.000056,
2401,2578,3.11487288753904,-1.44992345618955,-0.0215667987097277,0.002520,-0.000828,-0.000934,0.118662,-0.045468,321.614411,24.000610,0.999349,0.987333,0.004447,0.341121,-0.000021,-0.000011,0.000006,-0.000008,-0.000024,65.346462,0.000033,
2281,2008,0.607220725905833,-13.9301543876648,0.0309495233641996,0.002600,-0.000365,0.000965,0.115643,0.009089,331.267850,23.090967,0.999361,0.983755,0.005139,0.325202,-0.000034,-0.000055,0.000014,-0.000027,-0.000062,26.922142,0.000092,
2011,2098,-5.29803415639239,-11.9475167959801,0.00758783052248191,0.002887,-0.000045,-0.002359,0.138895,-0.010017,330.668896,24.924500,0.998328,0.978707,0.005886,0.280399,0.000021,-0.000050,0.000056,0.000052,-0.000081,28.668922,0.000082,
2371,2413,2.49437677227585,-5.05546203426864,-0.00495067801364257,0.002874,-0.000612,-0.001383,0.136449,-0.022275,324.425001,23.583219,0.999531,0.988995,0.004386,0.356241,-0.000010,-0.000008,0.000028,0.000019,-0.000037,45.778755,0.000037,
2221,3088,-0.891162736755565,9.6343315696752,0.00978718349841756,0.002763,-0.000758,-0.003316,0.137620,-0.051051,313.724865,24.879783,0.999404,0.993289,0.003349,0.330343,-0.000021,-0.000011,-0.000001,-0.000010,-0.000022,-82.416173,0.000033,
2056,2263,-4.34259324388032,-8.3363172499291,-0.00322081664359075,0.003426,-0.000595,-0.001153,0.160435,-0.032543,327.683929,24.574548,0.999118,0.985140,0.005058,0.310317,-0.000015,0.000053,0.000045,0.000075,-0.000037,63.583339,0.000075,
2236,3148,-0.575243913149929,10.9363017911311,0.0199359259605671,0.003153,-0.000684,-0.001726,0.150720,-0.023430,312.805488,24.982743,0.999321,0.991272,0.003820,0.390861,-0.000027,-0.000011,-0.000003,-0.000011,-0.000028,-79.346863,0.000040,
2086,2428,-3.71632389014404,-4.73145330214035,-0.00576321800741653,0.002568,-0.000778,0.002613,0.110252,-0.026068,324.796687,24.416829,0.999135,0.987072,0.004490,0.353874,0.000003,-0.000050,0.000025,0.000012,-0.000060,21.687009,0.000063,
2491,3028,4.98626975130146,8.35291504714909,-0.00565468755354459,0.002798,-0.000797,0.000662,0.125641,-0.042176,314.581290,25.647255,0.999730,0.994213,0.003220,0.341493,-0.000024,0.000016,0.000009,0.000018,-0.000026,77.875503,0.000027,
2191,2923,-1.5152651508945,6.05146814331689,-0.00868479766234032,0.002863,-0.000843,0.001150,0.127940,-0.032687,316.337530,24.618179,0.999454,0.991720,0.003696,0.348012,-0.000026,-0.000003,0.000013,0.000003,-0.000032,65.788977,0.000035,
2476,2983,4.66868133927253,7.37473285502426,-0.0144596179410996,0.002821,-0.000769,-0.003810,0.143757,-0.050395,315.223778,25.482833,0.999451,0.989668,0.004030,0.283500,-0.000028,-0.000009,0.000014,-0.000002,-0.000035,61.717596,0.000042,
2131,2653,-2.77399043145194,0.175814097643084,-0.0168395995719948,0.002671,-0.000564,-0.003074,0.131900,-0.042859,320.880204,24.357960,0.999666,0.991735,0.003630,0.371402,-0.000005,0.000010,0.000016,0.000020,-0.000015,57.771938,0.000021,
2041,2203,-4.66061632503672,-9.64977270010265,0.00409989632527186,0.002698,-0.001055,0.001263,0.120071,-0.055801,328.754658,24.658075,0.998686,0.982668,0.005313,0.289572,-0.000010,0.000030,0.000045,0.000059,-0.000039,57.291993,0.000060,
2446,2803,4.05021002605508,3.45772106930119,-0.0329556426872841,0.002786,-0.000413,-0.002287,0.136289,-0.023553,317.938123,24.732960,0.999592,0.990588,0.003817,0.359093,-0.000019,-0.000007,0.000003,-0.000006,-0.000020,75.682713,0.000027,
2026,2128,-4.97599226143292,-11.2927058268004,0.016587265607086,0.002522,-0.001490,0.006593,0.097280,-0.027415,330.128814,24.750781,0.998662,0.979203,0.005911,0.333600,0.000007,-0.000037,0.000064,0.000053,-0.000083,35.694094,0.000084,
2161,2788,-2.1450880865897,3.1163313902845,-0.0261762555287532,0.002866,-0.000795,0.000423,0.130349,-0.035006,318.491573,24.447334,0.999563,0.990845,0.003919,0.365997,-0.000016,-0.000008,0.000007,-0.000004,-0.000020,60.020109,0.000026,
2071,2353,-4.03049243529697,-6.36937965832427,-0.00387508371949252,0.002819,-0.000639,-0.000758,0.131492,-0.012037,326.119840,24.465764,0.998497,0.983595,0.005167,0.367907,-0.000011,-0.000027,0.000014,-0.000004,-0.000035,30.010932,0.000042,
2251,3223,-0.261960900655811,12.5621188340592,0.0453722987880951,0.002655,-0.000769,-0.000193,0.122819,-0.019186,311.730997,25.156403,0.999673,0.994943,0.003122,0.395958,-0.000011,-0.000004,-0.000007,0.000000,-0.000015,-59.130608,0.000018,
2416,2653,3.42713775527907,0.186776823057095,-0.0192318344863907,0.002848,-0.000897,0.004456,0.114080,-0.008602,320.427247,24.222653,0.999459,0.989649,0.004151,0.377985,-0.000018,-0.000012,0.000001,-0.000011,-0.000018,79.599743,0.000030,
2461,2878,4.36119254712655,5.0909883912612,-0.0345196016037335,0.002370,-0.000638,-0.002213,0.117006,-0.020654,316.711291,24.990346,0.999348,0.992257,0.003648,0.388961,-0.000028,0.000001,0.000002,0.000001,-0.000028,86.095870,0.000032,
2311,2143,1.23795031895654,-10.9684916894312,0.0249021926925934,0.003003,-0.001056,0.000371,0.135881,-0.052153,329.039373,23.232017,0.999336,0.984781,0.005044,0.234156,-0.000019,-0.000013,0.000010,-0.000006,-0.000026,53.644199,0.000034,
2341,2293,1.86282851795783,-7.68010276604849,-0.00111411233552872,0.002776,-0.000072,-0.000772,0.129893,0.005078,326.385112,23.395208,0.999044,0.985993,0.004741,0.352669,-0.000026,-0.000037,0.000007,-0.000022,-0.000040,26.014565,0.000063,
2011,2113,-5.29975116859227,-11.6205804978335,0.0172906036794416,0.002826,-0.000257,-0.000991,0.132345,-0.021143,330.503167,24.884349,0.998590,0.980962,0.005623,0.300047,0.000012,-0.000057,0.000060,0.000048,-0.000092,30.147832,0.000092,
2146,2713,-2.45934269974743,1.48430779944729,-0.0314911974513166,0.002577,-0.001128,0.003238,0.108394,-0.038771,319.699967,24.404788,0.999583,0.991669,0.003809,0.353535,-0.000007,-0.000006,0.000010,0.000003,-0.000016,46.889845,0.000018,
2206,3013,-1.20431184144917,8.00633203773553,-0.000128712611171977,0.002972,-0.000757,-0.000634,0.138669,-0.028119,314.907865,24.734391,0.999403,0.991178,0.003756,0.364185,-0.000023,-0.000005,0.000007,-0.000003,-0.000025,70.850673,0.000031,
2296,2068,0.924523764381529,-12.6138524517507,0.0293580598174117,0.003016,-0.000379,-0.001166,0.141889,-0.028754,330.301250,23.113325,0.999337,0.983195,0.005028,0.294798,-0.000030,-0.000022,0.000011,-0.000014,-0.000037,54.359150,0.000053,
2446,2818,4.0475787819049,3.78270483191905,-0.0275465624729918,0.002749,-0.000488,-0.001724,0.132487,-0.025026,317.735625,24.679044,0.999482,0.990434,0.003953,0.463727,-0.000025,-0.000013,0.000002,-0.000013,-0.000025,79.359607,0.000039,
2371,2428,2.49081226611822,-4.72853942271976,-0.0122539516823394,0.002583,-0.000459,-0.003306,0.129993,-0.017579,324.115234,23.466933,0.999698,0.992563,0.003992,0.520120,-0.000010,-0.000018,0.000026,0.000013,-0.000041,41.100368,0.000042,
2056,2278,-4.34532799506772,-8.00678647891874,-0.00470752899201443,0.003070,-0.000135,-0.000908,0.143532,-0.025562,327.412713,24.692258,0.999665,0.991616,0.004045,0.196783,-0.000016,0.000026,0.000038,0.000049,-0.000038,59.483636,0.000051,
2401,2593,3.11201965984756,-1.12292148319494,-0.0217141810425687,0.002559,-0.000646,-0.001397,0.122211,-0.046648,321.373163,24.019704,0.999490,0.989209,0.004153,0.367111,-0.000019,-0.000020,0.000004,-0.000015,-0.000024,41.264583,0.000039,
2251,3238,-0.26526745365415,12.8866880214459,0.0393417642900999,0.002464,-0.000819,-0.000321,0.114245,-0.048218,311.426573,25.122383,0.999795,0.996185,0.002777,0.422767,-0.000011,-0.000009,-0.000006,-0.000004,-0.000016,-50.031387,0.000021,
2461,2893,4.35878141171886,5.4174340341601,-0.0247622162553967,0.002582,-0.000999,0.002642,0.108287,-0.019166,316.539052,25.119676,0.999014,0.989938,0.004126,0.314845,-0.000028,-0.000008,0.000000,-0.000008,-0.000028,89.556480,0.000038,
2236,3163,-0.578067377400714,11.2609724292163,0.0237548245764856,0.002878,-0.000937,0.000449,0.130887,-0.026995,312.572496,24.972155,0.999437,0.991364,0.003721,0.417506,-0.000024,-0.000010,-0.000004,-0.000009,-0.000025,-77.307548,0.000035,
2221,3103,-0.892914741183926,9.95870509995051,0.0186818808885505,0.003106,-0.000926,-0.002126,0.149543,-0.057181,313.566494,24.862025,0.999480,0.992312,0.003600,0.359819,-0.000024,-0.000013,0.000000,-0.000013,-0.000024,-87.913568,0.000037,
2191,2938,-1.51750910147489,6.37643014151188,-0.00167507898970598,0.002694,-0.001167,0.000891,0.120935,-0.029157,316.145079,24.594513,0.999419,0.992900,0.003559,0.389237,-0.000026,0.000002,0.000011,0.000006,-0.000030,70.680166,0.000032,
2176,2878,-1.83328105261587,5.07292682771555,-0.011894277431054,0.003019,-0.000901,-0.000397,0.139957,-0.033482,317.104180,24.545468,0.999467,0.993287,0.003393,0.353130,-0.000021,0.000002,0.000009,0.000005,-0.000024,71.206167,0.000025,
2491,3043,4.98310109220006,8.67962631856913,-0.00625521835740983,0.002812,-0.000722,0.001368,0.123671,-0.026052,314.328071,25.751772,0.999746,0.993537,0.003425,0.311127,-0.000021,0.000022,0.000014,0.000026,-0.000025,72.929041,0.000030,
2086,2443,-3.71929692549314,-4.40263349591766,-0.0164558618268416,0.002391,-0.000333,-0.000927,0.112491,-0.013110,324.467307,24.435135,0.999404,0.988227,0.004348,0.349243,-0.000001,-0.000050,0.000023,0.000008,-0.000060,21.890696,0.000065,
2281,2023,0.604128933158133,-13.6006413045782,0.0255739873717289,0.002524,-0.000324,0.000174,0.114825,-0.004025,330.981389,23.092072,0.999176,0.982580,0.005349,0.342589,-0.000035,-0.000040,0.000016,-0.000021,-0.000054,41.008674,0.000078,
2356,2368,2.17571535399644,-6.03923405343996,-0.00633949533198574,0.002948,-0.000204,-0.000890,0.138211,0.007548,325.138236,23.484996,0.999186,0.985593,0.004774,0.407471,-0.000020,-0.000019,0.000020,0.000001,-0.000040,45.980581,0.000046,
2416,2668,3.42397750412498,0.514156107560154,-0.0200052621061104,0.002491,-0.000960,0.001846,0.107193,-0.036812,320.169804,24.321678,0.999365,0.988855,0.004370,0.298907,-0.000016,-0.000020,0.000001,-0.000015,-0.000020,15.250781,0.000035,
2296,2083,0.920822354481352,-12.2837935793704,0.0243177390548794,0.002621,-0.000940,0.001684,0.114013,-0.034676,329.989767,23.184588,0.999333,0.983863,0.005022,0.251367,-0.000026,-0.000017,0.000008,-0.000012,-0.000031,59.293996,0.000045,
2146,2728,-2.46107611716749,1.80996279676887,-0.0233837746667405,0.002706,-0.000710,0.002099,0.117946,-0.015927,319.533883,24.380953,0.999521,0.990205,0.004011,0.408281,-0.000010,-0.000006,0.000010,0.000003,-0.000018,50.792898,0.000020,
2131,2668,-2.77485773791282,0.499089675214478,0.00776055203010628,0.002798,-0.000535,-0.000489,0.130021,-0.015814,320.841551,24.231440,0.999654,0.992277,0.003609,0.530601,-0.000003,0.000009,0.000018,0.000022,-0.000016,54.673719,0.000023,
2206,3028,-1.20702194966328,8.33153537440474,0.00282067757223103,0.002756,-0.001012,0.000699,0.124381,-0.040752,314.673708,24.743699,0.999618,0.993317,0.003407,0.357847,-0.000022,-0.000012,0.000001,-0.000012,-0.000023,81.964198,0.000035,
2326,2203,1.55364375154524,-9.65260411563006,0.0112133830390349,0.002882,-0.000136,-0.005430,0.150667,-0.046376,327.965566,23.247395,0.999191,0.982589,0.005323,0.289865,-0.000026,0.000008,0.000003,0.000008,-0.000026,85.426865,0.000027,
2116,2563,-3.08600983955541,-1.7843939086307,-0.0238485241885655,0.002964,-0.000674,0.002265,0.129424,-0.013253,322.341082,24.359477,0.999262,0.988102,0.004476,0.383248,-0.000009,0.000004,0.000020,0.000019,-0.000024,53.973756,0.000025,
2011,2128,-5.30232815149468,-11.2906129762273,0.0103511065930206,0.002897,-0.000408,0.000196,0.132345,-0.008103,330.204520,24.920720,0.998549,0.979892,0.005835,0.268212,0.000004,-0.000044,0.000056,0.000041,-0.000081,33.516005,0.000081,
2341,2308,1.86068770735359,-7.353235582601,0.0092745701132344,0.002819,-0.000934,0.001452,0.123800,-0.019272,326.223801,23.434460,0.998384,0.981927,0.005232,0.327257,-0.000026,-0.000046,0.000010,-0.000022,-0.000051,23.447745,0.000074,
2476,2998,4.66597930249297,7.69972114999256,-0.004817155061005,0.002839,-0.000844,0.001969,0.122610,-0.032306,315.038257,25.484036,0.999261,0.990015,0.003992,0.356247,-0.000025,-0.000014,0.000016,-0.000003,-0.000037,54.092486,0.000044,
2431,2743,3.73595975577448,2.14852676163869,-0.0208885593912669,0.002649,-0.001129,0.002397,0.112307,-0.034998,318.968317,24.477987,0.999618,0.990837,0.003773,0.388986,-0.000022,-0.000004,0.000000,-0.000004,-0.000022,89.232398,0.000028,
2446,2833,4.0450783818865,4.11108626550099,-0.0222690350890389,0.002802,-0.000424,-0.002040,0.136171,-0.013320,317.537629,24.927126,0.999689,0.992615,0.003517,0.279145,-0.000022,-0.000002,0.000002,-0.000002,-0.000023,83.774259,0.000027,
2311,2158,1.23473392498722,-10.6411813577541,0.0267535130174679,0.002679,-0.001745,0.004301,0.107419,-0.053441,328.785383,23.150604,0.999319,0.986318,0.004993,0.349573,-0.000026,-0.000012,0.000005,-0.000010,-0.000028,71.213195,0.000039,
2281,2038,0.60075425304106,-13.269378482083,0.0146910616550144,0.002672,-0.000486,0.000597,0.120154,-0.009986,330.654361,23.189955,0.999251,0.985289,0.004927,0.270447,-0.000033,-0.000037,0.000017,-0.000018,-0.000052,41.587671,0.000073,
2041,2218,-4.66302019263599,-9.32185401887392,0.00511601124179606,0.002578,-0.000946,0.003232,0.109124,-0.029284,328.511284,24.613126,0.998127,0.975690,0.005980,0.356045,-0.000012,0.000050,0.000054,0.000081,-0.000043,59.891376,0.000081,
2251,3253,-0.268645500138696,13.2135938928029,0.0259654264288542,0.002723,-0.000706,-0.000586,0.127173,-0.031316,311.080602,25.221634,0.999658,0.994292,0.003177,0.362368,-0.000012,-0.000006,-0.000002,-0.000005,-0.000012,-73.273240,0.000018,
2011,2143,-5.30491349302504,-10.9623785120655,0.00736426555050684,0.002770,-0.000448,0.002309,0.120823,0.012416,329.927900,24.840507,0.998128,0.979384,0.005883,0.360107,0.000015,0.000008,0.000057,0.000068,-0.000046,43.210093,0.000069,
2476,3013,4.66297610259052,8.02567318258108,-0.00260480013793085,0.002675,-0.000953,0.001694,0.116091,-0.041367,314.804759,25.554111,0.999502,0.991816,0.003607,0.332945,-0.000028,-0.000002,0.000017,0.000006,-0.000036,63.177870,0.000039,
2326,2218,1.55041493101731,-9.32501209509853,0.0155502633097058,0.002655,-0.001005,0.001922,0.114643,-0.041088,327.724063,23.232746,0.998842,0.980121,0.005606,0.346646,-0.000027,-0.000002,0.000004,-0.000001,-0.000028,80.284820,0.000033,
2491,3058,4.98096041915094,9.00379483118622,0.00492042271196169,0.002719,-0.001084,0.000430,0.122865,-0.039138,314.176061,25.731609,0.999698,0.992351,0.003698,0.376175,-0.000018,0.000018,0.000016,0.000025,-0.000024,68.768591,0.000028,
2341,2323,1.85722992508964,-7.02420698126309,0.00115732548175629,0.002740,-0.000870,0.000795,0.122513,-0.040482,325.912230,23.488550,0.999145,0.986616,0.004660,0.291017,-0.000026,-0.000046,0.000017,-0.000016,-0.000056,29.900514,0.000076,
2116,2578,-3.08806319594278,-1.45751375637391,-0.0241145785047365,0.003069,-0.000395,-0.001879,0.146604,-0.026258,322.113366,24.369002,0.999434,0.990249,0.004111,0.364963,-0.000014,-0.000009,0.000015,0.000004,-0.000026,50.136872,0.000028,
2461,2908,4.35657531220366,5.74255828486312,-0.0168193271676387,0.002580,-0.001037,0.000714,0.115450,-0.031752,316.368234,25.131216,0.998920,0.988300,0.004413,0.344569,-0.000028,-0.000015,0.000005,-0.000013,-0.000030,69.901948,0.000044,
2056,2293,-4.34755093788173,-7.6816873869959,0.00342081960360474,0.002674,-0.000719,0.000281,0.121843,-0.023908,327.218675,24.512546,0.999880,0.994296,0.003481,0.374738,-0.000010,0.000007,0.000030,0.000030,-0.000032,53.169313,0.000036,
2041,2233,-4.66501973359121,-8.99252569743648,0.00181107853507001,0.002806,-0.000599,-0.000217,0.129301,-0.028806,328.262348,24.683102,0.999103,0.983548,0.005095,0.281427,-0.000014,0.000056,0.000046,0.000079,-0.000036,63.706254,0.000079,
2356,2383,2.17209447894975,-5.71000980234289,-0.0108319999258697,0.002485,-0.000639,-0.001355,0.118468,-0.033600,324.837896,23.635763,0.999297,0.983385,0.004972,0.256316,-0.000015,-0.000021,0.000018,0.000000,-0.000036,40.326783,0.000041,
2401,2608,3.10960030850262,-0.794958284230347,-0.0214113491854278,0.002782,-0.000021,-0.004631,0.144454,-0.003716,321.153582,24.091474,0.999550,0.989542,0.004015,0.384586,-0.000020,-0.000015,0.000005,-0.000012,-0.000023,59.744891,0.000036,
2221,3118,-0.895063315242773,10.2847052656089,0.0242509373612734,0.003160,-0.000469,-0.002782,0.154426,-0.019996,313.372181,24.932987,0.999595,0.991796,0.003696,0.343742,-0.000028,-0.000007,0.000000,-0.000007,-0.000028,89.753845,0.000036,
2281,2053,0.59810234939204,-12.9410833777029,0.0147939776302906,0.002832,-0.000735,0.002562,0.120843,-0.004900,330.415161,23.135863,0.999192,0.983269,0.005066,0.360968,-0.000032,-0.000031,0.000017,-0.000015,-0.000048,45.826023,0.000065,
2371,2443,2.48790450800245,-4.40021564135908,-0.00408265055295942,0.002241,-0.000899,0.000902,0.099225,-0.023909,323.909174,23.640782,0.999266,0.987834,0.004560,0.382281,-0.000008,-0.000021,0.000028,0.000015,-0.000044,38.669344,0.000045,
2011,2158,-5.30738532669814,-10.6336965757793,0.00878986411652249,0.002589,-0.001461,0.005749,0.102906,-0.022145,329.681326,24.908641,0.998098,0.978222,0.006147,0.248286,0.000004,-0.000024,0.000046,0.000038,-0.000058,36.521318,0.000059,
2161,2803,-2.1471144213141,3.44237599881433,-0.0225441198847989,0.002984,-0.000581,-0.001415,0.141516,-0.024674,318.289249,24.456746,0.999651,0.991878,0.003662,0.376781,-0.000017,-0.000011,0.000012,-0.000001,-0.000026,51.838848,0.000031,
2026,2143,-4.97778174265868,-10.9649965523075,0.0156891152785761,0.002778,-0.001143,0.003402,0.117865,-0.034321,329.901735,24.672127,0.998159,0.978751,0.005952,0.398578,0.000012,0.000006,0.000061,0.000070,-0.000051,43.526445,0.000072,
2086,2458,-3.72124825200421,-4.07635095528781,-0.0121432602965115,0.002899,-0.001055,0.005271,0.117755,-0.010028,324.266784,24.376712,0.999440,0.989004,0.004262,0.410991,0.000003,-0.000051,0.000021,0.000010,-0.000059,19.170966,0.000063,
2476,3028,4.66026930549969,8.35123597256627,0.00330365243570441,0.002645,-0.001079,0.003173,0.109053,-0.036866,314.601747,25.603051,0.999707,0.993056,0.003377,0.344371,-0.000027,0.000009,0.000011,0.000012,-0.000030,74.733450,0.000030,
2236,3178,-0.580081913991048,11.5858776973998,0.0326233546421122,0.002886,-0.000745,0.000244,0.131939,-0.035556,312.402424,25.021339,0.999425,0.991802,0.003598,0.379758,-0.000024,-0.000009,-0.000005,-0.000007,-0.000026,-73.431229,0.000035,
2101,2503,-3.40203777056096,-3.09386774235698,-0.0185309507241413,0.002993,-0.000789,-0.000718,0.139456,-0.040101,323.435128,24.365546,0.999354,0.989701,0.004016,0.362771,0.000002,-0.000032,0.000024,0.000014,-0.000044,26.994191,0.000045,
2041,2248,-4.66720294239556,-8.6655262229983,0.00203243629852068,0.002871,-0.000834,0.000353,0.130631,-0.040801,328.025068,24.594891,0.999139,0.985762,0.004752,0.352607,-0.000017,0.000070,0.000043,0.000088,-0.000035,67.835920,0.000088,
2326,2233,1.54708421114698,-8.99550980014711,0.00840125626547206,0.002521,-0.000688,0.000306,0.114219,-0.039493,327.421684,23.282220,0.998312,0.976508,0.006136,0.335942,-0.000027,-0.000014,0.000007,-0.000011,-0.000030,65.314397,0.000042,
2341,2338,1.85515917589567,-6.6963376285054,0.00339553293275685,0.002902,-0.000133,-0.004436,0.148426,-0.029651,325.714315,23.512606,0.999428,0.987866,0.004544,0.316127,-0.000025,-0.000032,0.000016,-0.000012,-0.000045,38.929972,0.000061,
2386,2518,2.80062016364829,-2.76147486966137,-0.0104191233123174,0.002680,-0.000683,-0.000990,0.126243,-0.031476,322.676429,23.793027,0.999572,0.988846,0.004242,0.405499,-0.000010,-0.000021,0.000019,0.000005,-0.000036,36.754223,0.000039,
2011,2173,-5.30956744191492,-10.3061904250586,0.0088282255033505,0.002289,-0.000879,0.001142,0.101739,-0.011016,329.440252,24.814498,0.998451,0.985544,0.005381,0.344701,-0.000002,-0.000022,0.000040,0.000030,-0.000054,38.125901,0.000054,
2446,2848,4.04250064790906,4.43520378577966,-0.011999410014937,0.002568,-0.000637,0.000348,0.116414,-0.019624,317.360106,24.841935,0.999651,0.992100,0.003492,0.409913,-0.000021,-0.000003,-0.000003,-0.000003,-0.000022,-80.700028,0.000027,
2116,2593,-3.09029639057879,-1.1318434989188,-0.0208412324225833,0.002901,-0.000400,-0.003901,0.144832,-0.027770,321.896695,24.291660,0.999569,0.991641,0.003869,0.444980,-0.000017,-0.000004,0.000021,0.000012,-0.000032,53.637684,0.000032,
2461,2923,4.35323227638971,6.06947670004786,-0.0193435148951266,0.002549,-0.000867,0.001680,0.110434,-0.033636,316.096580,25.225905,0.999334,0.989785,0.004109,0.302190,-0.000026,-0.000018,0.000005,-0.000016,-0.000029,66.164095,0.000045,
2281,2068,0.596211217443511,-12.6117594970132,0.0205991157229164,0.002990,-0.000333,-0.000342,0.137946,-0.029369,330.239101,23.273596,0.999244,0.984001,0.004901,0.229493,-0.000029,-0.000025,0.000017,-0.000010,-0.000044,48.359384,0.000057,
2491,3073,4.97803721699192,9.32941485724274,0.00145332949534804,0.002961,-0.000846,-0.001862,0.142889,-0.040025,313.921369,25.741461,0.999661,0.991740,0.003771,0.423630,-0.000016,0.000023,0.000019,0.000030,-0.000024,68.206810,0.000032,
2191,2953,-1.51990968866339,6.70212345554825,0.000486780699816336,0.002775,-0.001011,0.001689,0.122146,-0.035045,315.919963,24.616845,0.999377,0.992323,0.003613,0.374579,-0.000026,-0.000002,0.000012,0.000003,-0.000031,67.748558,0.000034,
2476,3043,4.65725348615914,8.67777725919978,-0.000549672700117299,0.002785,-0.000731,0.000635,0.125318,-0.026652,314.339723,25.675609,0.999769,0.992939,0.003396,0.337900,-0.000025,0.000016,0.000013,0.000020,-0.000029,73.501291,0.000030,
2296,2098,0.917720712667236,-11.9546929784451,0.0222277605931254,0.002641,-0.001363,0.005087,0.103331,-0.039318,329.720326,23.205543,0.999094,0.981711,0.005352,0.259053,-0.000025,-0.000019,0.000007,-0.000015,-0.000030,56.354426,0.000045,
2146,2743,-2.46313702656952,2.13598068573049,-0.0200536792459047,0.002863,-0.000728,0.001484,0.127053,-0.011556,319.327399,24.374192,0.999476,0.990347,0.004076,0.427105,-0.000014,-0.000009,0.000006,-0.000005,-0.000017,56.849717,0.000023,
2251,3268,-0.272214881673733,13.5392086373321,0.01226075188697,0.002839,-0.000726,-0.000470,0.132142,-0.035480,310.724572,25.226653,0.999463,0.992711,0.003521,0.375049,-0.000013,0.000008,-0.000005,0.000009,-0.000014,-78.292378,0.000014,
2311,2173,1.23191701474751,-10.3105796203561,0.0162177950683144,0.002930,-0.000676,-0.001987,0.140732,-0.030649,328.488393,23.219114,0.999196,0.982560,0.005198,0.339198,-0.000023,-0.000005,0.000007,-0.000003,-0.000026,70.279232,0.000031,
2176,2893,-1.83513009725769,5.39738761157422,-0.000579271269259607,0.002816,-0.000843,-0.002283,0.136465,-0.048133,316.951760,24.513800,0.999783,0.995642,0.003046,0.381896,-0.000023,0.000000,0.000010,0.000004,-0.000026,69.985455,0.000028,
2356,2398,2.16985671700293,-5.38350452500359,-0.0037093163655868,0.002535,-0.000487,-0.001242,0.120415,-0.011547,324.656934,23.591131,0.999489,0.987529,0.004540,0.363058,-0.000013,-0.000012,0.000021,0.000009,-0.000033,45.683550,0.000035,
2131,2683,-2.77850718534634,0.828258643161348,-0.00944120795918479,0.002770,-0.000854,0.000080,0.126925,-0.033331,320.450911,24.346806,0.999548,0.991812,0.003621,0.404073,-0.000008,0.000008,0.000014,0.000016,-0.000016,59.365529,0.000019,
2056,2308,-4.34961271376289,-7.35364321094863,0.00484554560495098,0.002921,-0.000655,0.002347,0.127423,-0.014445,326.994533,24.530985,0.999702,0.990775,0.004073,0.362484,-0.000004,-0.000007,0.000021,0.000016,-0.000027,42.846751,0.000027,
2221,3133,-0.89801222145714,10.6087782173092,0.0235624142968049,0.003039,-0.000750,-0.000731,0.142141,-0.032741,313.109570,24.841002,0.999602,0.992748,0.003566,0.440765,-0.000030,-0.000006,0.000000,-0.000006,-0.000030,-89.296595,0.000038,
2206,3043,-1.2089719959719,8.65673297925363,0.0111680916348291,0.002740,-0.000917,-0.000673,0.128033,-0.039883,314.502392,24.777993,0.999826,0.995411,0.002965,0.340159,-0.000024,-0.000015,0.000000,-0.000015,-0.000024,88.197129,0.000039,
2401,2623,3.10664521632258,-0.467941103756338,-0.020588687404711,0.002845,-0.000218,-0.002579,0.139847,-0.008794,320.912103,24.133581,0.999369,0.988585,0.004155,0.383653,-0.000020,-0.000008,0.000002,-0.000008,-0.000020,80.221209,0.000029,
2416,2683,3.4213310565424,0.84093860583485,-0.0211674605869234,0.002608,-0.000339,-0.001556,0.125252,-0.020382,319.934097,24.322717,0.999333,0.986938,0.004669,0.362450,-0.000016,-0.000018,0.000001,-0.000016,-0.000019,27.680741,0.000034,
2086,2473,-3.72407675964801,-3.7488211653227,-0.0150795974703328,0.002663,-0.001471,0.006226,0.104037,-0.028390,323.986551,24.391387,0.999421,0.989542,0.004228,0.378553,0.000005,-0.000048,0.000028,0.000017,-0.000060,23.599145,0.000062,
2026,2158,-4.98011274816175,-10.6343739669295,0.0131461181715622,0.002870,-0.001207,0.004470,0.119178,-0.031332,329.640196,24.837120,0.999228,0.986501,0.004733,0.229929,0.000006,-0.000022,0.000048,0.000042,-0.000058,36.804442,0.000059,
2071,2368,-4.03293385407109,-6.04124883578263,-0.00765812653202147,0.002764,-0.000208,-0.003211,0.136130,-0.003803,325.851117,24.463633,0.997808,0.980840,0.005633,0.376742,-0.000004,-0.000024,0.000015,0.000004,-0.000032,28.473955,0.000035,
2431,2758,3.73305712116005,2.47570908198932,-0.0236539897662738,0.002652,-0.000656,-0.001203,0.125926,-0.034703,318.714183,24.542624,0.999579,0.989539,0.003926,0.374810,-0.000019,0.000005,0.000005,0.000006,-0.000020,77.852619,0.000020,
2386,2533,2.7972732634012,-2.43226620386115,-0.0214531044971409,0.002900,-0.000041,-0.003525,0.145693,-0.001973,322.359457,23.866392,0.999579,0.989597,0.004207,0.406100,-0.000009,-0.000025,0.000013,-0.000002,-0.000033,29.638355,0.000039,
2041,2263,-4.66939922679439,-8.33790873144075,0.00604699045811685,0.002743,-0.001048,0.001631,0.121142,-0.032994,327.807947,24.587088,0.999103,0.986610,0.004755,0.362598,-0.000014,0.000060,0.000042,0.000079,-0.000033,65.661065,0.000079,
2161,2818,-2.14957244987462,3.76917510293342,-0.0206074397702309,0.002824,-0.000676,-0.002740,0.138201,-0.030389,318.057989,24.542490,0.999780,0.993754,0.003232,0.295220,-0.000014,-0.000006,0.000014,0.000004,-0.000024,52.908810,0.000025,
2011,2188,-5.31321335818711,-9.97416230740182,-0.0181044844585472,0.002191,-0.000539,-0.002711,0.107792,-0.019601,328.980746,24.873938,0.999396,0.991816,0.004342,0.268391,-0.000006,0.000040,0.000057,0.000079,-0.000044,56.019254,0.000079,
2341,2353,1.852594118436,-6.36842465331577,0.0023024393044011,0.003258,-0.000177,-0.004034,0.163317,-0.024075,325.477596,23.518165,0.999268,0.986570,0.004646,0.354561,-0.000022,-0.000027,0.000021,-0.000004,-0.000046,41.399092,0.000055,
2236,3193,-0.582849898993732,11.9111399875307,0.0286873923844837,0.003008,-0.000872,-0.000558,0.140082,-0.048493,312.132072,25.035384,0.999366,0.991746,0.003639,0.372311,-0.000025,-0.000008,-0.000007,-0.000006,-0.000027,-70.428883,0.000035,
2116,2608,-3.09271851417348,-0.804434482504533,-0.0247459368806631,0.003104,-0.000371,-0.004559,0.156147,-0.037075,321.632412,24.323996,0.999242,0.988966,0.004357,0.407463,-0.000012,-0.000004,0.000024,0.000016,-0.000032,49.831282,0.000032,
2476,3058,4.65520063463134,9.00294019615503,0.00853544582940913,0.002649,-0.000678,-0.003832,0.136057,-0.036304,314.181271,25.729540,0.999709,0.991090,0.003790,0.329918,-0.000021,0.000012,0.000016,0.000018,-0.000027,68.123614,0.000028,
2296,2113,0.91485809078516,-11.6256711067882,0.0148887996826943,0.002871,-0.000969,0.002945,0.121244,-0.029447,329.435810,23.153334,0.999089,0.981247,0.005359,0.354429,-0.000024,-0.000018,0.000009,-0.000011,-0.000031,53.382422,0.000044,
2491,3088,4.97539480730677,9.65564211509027,0.00878976966373557,0.002836,-0.000594,-0.001108,0.134407,-0.022742,313.728135,25.862350,0.999583,0.991575,0.003613,0.377728,-0.000017,0.000034,0.000025,0.000044,-0.000027,67.891707,0.000045,
2101,2518,-3.40504876496547,-2.76628972555753,-0.0218321825600469,0.002713,-0.001119,0.001475,0.120077,-0.040676,323.145783,24.379579,0.999677,0.992794,0.003514,0.350642,0.000000,-0.000018,0.000031,0.000024,-0.000042,36.882531,0.000042,
2446,2863,4.03989366056667,4.76125578357684,-0.0106158301731512,0.002633,-0.000547,-0.002243,0.129055,-0.036476,317.139730,24.882270,0.999800,0.993750,0.003153,0.404632,-0.000024,-0.000002,-0.000005,-0.000001,-0.000025,-78.428026,0.000029,
2146,2758,-2.46569990833434,2.46280724971331,-0.0221008706379848,0.002863,-0.000827,0.000645,0.129596,-0.025494,319.069184,24.421542,0.999426,0.990760,0.003850,0.374026,-0.000012,-0.000014,0.000004,-0.000009,-0.000017,36.676516,0.000026,
2251,3283,-0.275311630038104,13.863998200837,0.00569871305521019,0.002932,-0.001133,-0.000144,0.135232,-0.054019,310.426859,25.214331,0.999522,0.992351,0.003502,0.390614,-0.000016,0.000003,-0.000004,0.000004,-0.000017,-78.093168,0.000017,
2371,2458,2.48494083885179,-4.07208422428373,-0.00667316764861425,0.002567,-0.001074,0.003731,0.104058,-0.033907,323.649183,23.704427,0.999135,0.986356,0.004719,0.351190,-0.000009,-0.000017,0.000033,0.000021,-0.000046,41.532463,0.000046,
2281,2083,0.593038670915966,-12.2832539748581,0.0191238581501807,0.002588,-0.000474,-0.000564,0.120262,-0.043494,329.968262,23.251037,0.999153,0.982830,0.005137,0.269045,-0.000024,-0.000021,0.000014,-0.000009,-0.000036,48.598749,0.000048,
2461,2938,4.3508682889271,6.39555329352914,-0.0197325118355138,0.002893,-0.000670,-0.002509,0.142172,-0.022155,315.879902,25.249236,0.999459,0.990683,0.004035,0.344166,-0.000024,-0.000025,0.000007,-0.000018,-0.000031,41.990327,0.000050,
2356,2413,2.16712241082913,-5.05515876740829,-0.00678874711837807,0.002950,-0.000569,-0.000300,0.136109,-0.035015,324.403999,23.667554,0.999693,0.990403,0.004135,0.303558,-0.000017,-0.000003,0.000026,0.000016,-0.000037,52.573450,0.000037,
2026,2173,-4.98205206727969,-10.3073756029959,0.01785721863547,0.002809,-0.001306,0.004029,0.117543,-0.043955,329.437653,24.769797,0.999219,0.988673,0.004405,0.277275,0.000003,-0.000017,0.000041,0.000035,-0.000049,38.144551,0.000051,
2056,2323,-4.35113462531558,-7.02594240153044,0.00763693186763703,0.003104,0.000015,-0.004026,0.153962,-0.016374,326.802709,24.547749,0.999317,0.984523,0.004794,0.340182,-0.000009,-0.000018,0.000018,0.000005,-0.000032,38.540832,0.000034,
2311,2188,1.22996403904723,-9.98252149751965,0.0235248236145935,0.002964,-0.000222,-0.004783,0.152004,-0.033984,328.318821,23.276230,0.999256,0.982286,0.005055,0.313128,-0.000026,0.000002,0.000002,0.000002,-0.000026,85.352396,0.000030,
2191,2968,-1.52207288422743,7.02787685263132,-0.000965787872644341,0.003048,-0.000789,-0.001804,0.145785,-0.033632,315.686875,24.616261,0.999246,0.991300,0.003828,0.390665,-0.000021,0.000000,0.000013,0.000006,-0.000027,63.661351,0.000029,
2326,2248,1.54393074856802,-8.6661932206851,0.00431896964835232,0.002294,-0.000273,-0.001844,0.111342,-0.025447,327.142262,23.339988,0.998827,0.981251,0.005352,0.329114,-0.000027,-0.000033,-0.000001,-0.000027,-0.000033,-7.719921,0.000060,
2041,2278,-4.67139585448345,-8.0086586014385,0.00400070684293041,0.002964,-0.000274,-0.000781,0.138262,-0.016912,327.566083,24.663330,0.999808,0.992441,0.003987,0.297236,-0.000012,0.000031,0.000034,0.000049,-0.000031,61.180314,0.000050,
2086,2488,-3.72607534912439,-3.42173630484329,-0.0170654091529627,0.002852,-0.000811,0.001794,0.125754,-0.012314,323.749438,24.344872,0.999398,0.990158,0.004070,0.441441,0.000002,-0.000044,0.000031,0.000018,-0.000060,27.030837,0.000061,
2176,2908,-1.83868285278656,5.72405063679251,-0.00817944196063536,0.002577,-0.000981,0.001401,0.113973,-0.037984,316.621278,24.526658,0.999555,0.992649,0.003553,0.391286,-0.000023,-0.000006,0.000009,-0.000001,-0.000027,66.305819,0.000032,
2416,2698,3.41774355671399,1.16761934648822,-0.0277463282621397,0.002605,-0.000730,-0.000158,0.119861,-0.043864,319.629853,24.314867,0.999560,0.990087,0.004025,0.395130,-0.000012,-0.000014,0.000000,-0.000012,-0.000014,1.306187,0.000026,
2131,2698,-2.78172667895869,1.15617473817231,-0.0230754622884319,0.002956,-0.000937,0.000996,0.132741,-0.031142,320.099256,24.363743,0.999504,0.990897,0.003787,0.395418,-0.000006,-0.000009,0.000013,0.000006,-0.000021,41.099917,0.000021,
2221,3148,-0.900650387101958,10.9343459599448,0.0269822602264185,0.002798,-0.000750,-0.000806,0.131253,-0.035116,312.881833,24.905294,0.999570,0.992815,0.003484,0.391720,-0.000024,-0.000008,0.000000,-0.000008,-0.000024,-88.558492,0.000034,
2011,2203,-5.31340458494264,-9.64781947241418,-0.00787630606504308,0.003551,-0.000109,-0.002713,0.170410,0.013622,328.887690,24.770275,0.999465,0.991965,0.004228,0.395209,-0.000003,0.000061,0.000059,0.000096,-0.000038,59.380204,0.000096,
2026,2188,-4.98469658965478,-9.97816995674585,0.00779481580218544,0.002530,-0.000400,-0.003183,0.124777,-0.036832,329.120316,24.733309,0.999083,0.986901,0.004768,0.314513,0.000000,0.000031,0.000053,0.000071,-0.000039,53.079999,0.000071,
2476,3073,4.6526020149415,9.32796029622264,0.0112266369885106,0.002965,-0.000819,-0.002671,0.146074,-0.049244,313.968549,25.735290,0.999634,0.991151,0.003778,0.367021,-0.000020,0.000015,0.000017,0.000022,-0.000027,68.595289,0.000029,
2431,2773,3.73026819031679,2.80246143315352,-0.0241787060788283,0.002802,-0.000628,-0.002146,0.136333,-0.041704,318.475723,24.597438,0.999519,0.989479,0.004062,0.363003,-0.000022,-0.000006,0.000004,-0.000006,-0.000023,77.635133,0.000030,
2446,2878,4.03608775084928,5.08885401972835,-0.0207288480249304,0.002740,-0.000737,-0.001219,0.130132,-0.032269,316.810632,24.963759,0.999500,0.992392,0.003540,0.379158,-0.000025,-0.000002,-0.000004,-0.000001,-0.000026,-81.048009,0.000030,
2116,2623,-3.09594122335465,-0.476502955185936,-0.0325311144333682,0.003048,-0.000620,-0.000799,0.142384,-0.026773,321.310418,24.356999,0.999063,0.986305,0.004777,0.388979,-0.000009,-0.000006,0.000020,0.000013,-0.000028,47.062853,0.000028,
2206,3058,-1.21149597674982,8.98198621926742,0.0110539275326005,0.002808,-0.000967,-0.001015,0.132315,-0.032213,314.260860,24.758609,0.999748,0.994876,0.003051,0.383188,-0.000021,-0.000014,-0.000001,-0.000014,-0.000021,-82.472298,0.000035,
2296,2128,0.912336652950156,-11.2970400606856,0.0182836519090301,0.002521,-0.000720,-0.001016,0.118617,-0.045282,329.220011,23.213593,0.999048,0.982132,0.005265,0.311218,-0.000021,-0.000009,0.000008,-0.000005,-0.000025,64.037237,0.000032,
2491,3103,4.97280529942275,9.98150021491249,0.0109645841112638,0.003002,-0.000265,-0.002661,0.148132,-0.011549,313.514058,25.925755,0.999525,0.990713,0.003642,0.383462,-0.000014,0.000026,0.000027,0.000040,-0.000028,63.002956,0.000041,
2071,2383,-4.03536833597288,-5.71351691804521,-0.00748324609929796,0.002669,-0.000427,-0.002542,0.129778,-0.017602,325.604510,24.490644,0.998587,0.984243,0.005101,0.334584,0.000000,-0.000018,0.000021,0.000014,-0.000032,33.344953,0.000032,
2161,2833,-2.1517241340703,4.09375723164705,-0.0122678866494539,0.002867,-0.000722,0.000907,0.128948,-0.029314,317.875190,24.470202,0.999687,0.993892,0.003278,0.378415,-0.000015,-0.000003,0.000014,0.000006,-0.000025,56.374298,0.000026,
2056,2338,-4.35439697796366,-6.69707685381004,-0.00280998439876612,0.002780,-0.000028,-0.003729,0.138217,-0.010588,326.458346,24.538037,0.999037,0.985699,0.004753,0.352457,-0.000015,-0.000017,0.000012,-0.000004,-0.000028,43.274191,0.000035,
2341,2368,1.84817450377711,-6.03918381537007,-0.0101345505339054,0.002860,-0.000372,-0.000625,0.133162,-0.001799,325.100619,23.523927,0.999071,0.985725,0.004759,0.410036,-0.000026,-0.000017,0.000021,0.000000,-0.000043,50.783689,0.000050,
2236,3208,-0.58484091550115,12.2362603809759,0.0382497025671569,0.002966,-0.000608,-0.001164,0.140260,-0.027851,311.966511,25.085348,0.999448,0.992974,0.003513,0.362934,-0.000024,-0.000013,-0.000007,-0.000009,-0.000028,-65.021412,0.000038,
2401,2638,3.10294023572725,-0.141064337391441,-0.0203051210331182,0.002356,-0.000821,0.001409,0.102706,-0.035108,320.633653,24.184141,0.999288,0.987696,0.004256,0.352764,-0.000023,-0.000007,0.000005,-0.000005,-0.000025,75.389188,0.000032,
2251,3298,-0.277360255299353,14.1889193193913,0.0114271773421137,0.003149,-0.001074,-0.000466,0.146337,-0.049369,310.239797,25.261519,0.999356,0.991569,0.003632,0.369866,-0.000013,-0.000006,-0.000008,-0.000001,-0.000019,-55.719817,0.000022,
2281,2098,0.590218672301301,-11.9537679725025,0.015278381829944,0.002779,-0.000688,-0.000006,0.127051,-0.038350,329.701515,23.278241,0.998625,0.979452,0.005662,0.278140,-0.000022,-0.000021,0.000012,-0.000009,-0.000034,45.840634,0.000045,
2386,2548,2.79478522542061,-2.1059868481705,-0.0122915969930091,0.002752,-0.000552,-0.001378,0.130977,-0.038438,322.178359,23.922590,0.999492,0.989084,0.004311,0.357593,-0.000014,-0.000026,0.000012,-0.000006,-0.000033,32.037927,0.000043,
2356,2428,2.16423838003516,-4.72910385457705,-0.0109245655244763,0.003072,-0.000405,-0.002038,0.147898,-0.029806,324.139346,23.501022,0.999511,0.990111,0.004213,0.515800,-0.000019,-0.000013,0.000024,0.000008,-0.000041,48.484366,0.000043,
2191,2983,-1.52474804486554,7.35351570135695,0.0037592523656258,0.002839,-0.000771,0.001300,0.126452,-0.027943,315.462479,24.647609,0.999376,0.991973,0.003663,0.378860,-0.000022,-0.000004,0.000011,0.000001,-0.000028,64.921003,0.000031,
2461,2953,4.34811081764618,6.72114501540979,-0.0130084005729145,0.002781,-0.000705,-0.000333,0.128789,-0.021614,315.677765,25.292935,0.999534,0.990964,0.003876,0.354829,-0.000026,-0.000021,0.000012,-0.000012,-0.000035,52.154920,0.000049,
2026,2203,-4.98719775408463,-9.6493111436793,-0.00285805676583095,0.003028,-0.000968,-0.000535,0.140232,-0.069648,328.806503,24.705432,0.998851,0.984878,0.005176,0.302674,0.000003,0.000047,0.000054,0.000083,-0.000033,56.159435,0.000084,
2311,2203,1.22658173712436,-9.6534213139586,0.0163022974667228,0.003058,-0.000729,-0.002299,0.147658,-0.049747,328.012462,23.293272,0.998868,0.979961,0.005521,0.315547,-0.000029,0.000009,0.000003,0.000010,-0.000029,86.131847,0.000030,
2371,2473,2.48247419639805,-3.74463318981721,-0.00446704983318114,0.002628,-0.000557,0.001656,0.114477,-0.011345,323.434837,23.722664,0.999412,0.988018,0.004390,0.397899,-0.000010,-0.000021,0.000033,0.000017,-0.000049,40.432580,0.000049,
2011,2218,-5.31573690974339,-9.32035858701911,0.000256863658876227,0.003050,-0.000406,-0.000315,0.140834,-0.008609,328.685263,24.806206,0.999030,0.987099,0.004883,0.327333,-0.000007,0.000077,0.000061,0.000109,-0.000040,62.260460,0.000110,
2146,2773,-2.46845669628583,2.79024800170613,-0.0277386904595005,0.002800,-0.000227,-0.001840,0.134428,-0.007204,318.782759,24.469861,0.999702,0.993737,0.003233,0.351968,-0.000011,-0.000010,0.000004,-0.000006,-0.000015,46.899959,0.000022,
2491,3118,4.9697497952507,10.3067667791772,0.0121180088759729,0.002943,-0.000701,-0.002364,0.144087,-0.032378,313.273996,25.963990,0.999592,0.991671,0.003488,0.382084,-0.000012,0.000032,0.000025,0.000044,-0.000023,65.485968,0.000044,
2041,2293,-4.67353240195608,-7.68277251308104,0.0109522037132024,0.002836,-0.000986,0.002502,0.123048,-0.027575,327.368427,24.554956,0.999858,0.993462,0.003746,0.389380,-0.000007,0.000011,0.000027,0.000030,-0.000026,54.513867,0.000033,
2326,2263,1.54181498632347,-8.33790757620588,0.00666079825617771,0.002772,0.000069,-0.001896,0.133577,-0.003423,326.941724,23.366676,0.999108,0.983677,0.004902,0.361183,-0.000027,-0.000043,-0.000008,-0.000024,-0.000046,-22.169646,0.000071,
2221,3163,-0.902950824023737,11.2595041776373,0.0318542173673677,0.002743,-0.000851,-0.001588,0.131256,-0.036979,312.677225,24.943417,0.999533,0.992828,0.003473,0.369483,-0.000021,-0.000007,-0.000002,-0.000007,-0.000022,-82.804597,0.000030,
2446,2893,4.03187052175829,5.41623173392248,-0.0319483312106854,0.002556,-0.000889,0.000186,0.116424,-0.020645,316.457433,25.015315,0.999354,0.991752,0.003811,0.391283,-0.000025,-0.000009,-0.000004,-0.000008,-0.000026,-76.953675,0.000035,
2086,2503,-3.7284359873127,-3.09424038542349,-0.0191164980093959,0.002751,-0.000504,-0.001676,0.131175,-0.029074,323.495419,24.373268,0.999302,0.990568,0.003867,0.396385,0.000005,-0.000038,0.000027,0.000018,-0.000051,26.082350,0.000052,
2131,2713,-2.78467573200471,1.48329320170813,-0.025431467875535,0.002706,-0.001002,0.002403,0.117051,-0.027052,319.820374,24.403432,0.999486,0.990346,0.003938,0.366011,-0.000005,-0.000001,0.000013,0.000010,-0.000016,50.028782,0.000016,
2161,2848,-2.15457024087535,4.41921518522164,-0.0135799842215079,0.002730,-0.000817,0.002537,0.117686,-0.022033,317.609366,24.403302,0.999684,0.994285,0.003168,0.462507,-0.000020,-0.000001,0.000010,0.000003,-0.000025,66.455948,0.000027,
2266,1993,0.281761468156315,-14.2587497046836,0.0272730497835596,0.002547,-0.000531,0.002877,0.106932,-0.007051,331.488983,23.172633,0.999183,0.965801,0.007154,0.302218,-0.000022,-0.000099,0.000017,-0.000019,-0.000103,11.680266,0.000130,
2236,3223,-0.588096414520024,12.561922273645,0.0336887817595084,0.002842,-0.000649,0.000782,0.128269,-0.016279,311.670332,25.116055,0.999393,0.992474,0.003698,0.363594,-0.000024,-0.000003,-0.000008,-0.000001,-0.000027,-71.766001,0.000032,
2056,2353,-4.35735867002524,-6.36903407921969,-0.0102694385096243,0.002747,-0.000478,-0.000575,0.127739,-0.014736,326.144353,24.498702,0.998821,0.984798,0.004988,0.384574,-0.000012,-0.000031,0.000019,-0.000001,-0.000042,31.819729,0.000049,
2476,3088,4.6493746588596,9.6542550134092,0.012199577724914,0.002918,-0.000781,-0.000086,0.134192,-0.026074,313.718557,25.815285,0.999422,0.992440,0.003613,0.365698,-0.000021,0.000027,0.000020,0.000034,-0.000028,70.155735,0.000036,
2116,2638,-3.09831125870761,-0.149138233021532,-0.0369114729787725,0.003199,-0.000219,-0.003577,0.157703,-0.018304,321.045900,24.374267,0.999392,0.989418,0.004062,0.384437,-0.000006,-0.000002,0.000020,0.000016,-0.000024,47.698776,0.000024,
2281,2113,0.587975177080445,-11.6248559577292,0.0123761315423963,0.003181,0.000066,-0.003360,0.156918,-0.016806,329.465775,23.252834,0.998830,0.980446,0.005465,0.355874,-0.000020,-0.000020,0.000014,-0.000006,-0.000033,44.936878,0.000042,
2416,2713,3.41561238347434,1.49379672784315,-0.021494839823049,0.002633,-0.000676,-0.003714,0.134203,-0.045648,319.452553,24.348425,0.999674,0.990820,0.003837,0.407659,-0.000016,-0.000013,-0.000002,-0.000012,-0.000017,-63.836529,0.000029,
2026,2218,-4.98959916298731,-9.3215204363323,-0.00178144357062138,0.002692,-0.000790,-0.001648,0.127922,-0.071592,328.562513,24.677940,0.998589,0.980622,0.005596,0.320940,0.000001,0.000068,0.000061,0.000104,-0.000035,59.357261,0.000106,
2071,2398,-4.03809570248625,-5.38637986142097,-0.00775671624580809,0.002423,-0.000695,-0.000006,0.111177,-0.017030,325.342151,24.449708,0.998827,0.985553,0.005001,0.374571,0.000001,-0.000037,0.000014,0.000005,-0.000041,18.340326,0.000045,
2491,3133,4.96636123899171,10.6325020001257,0.0132075098576365,0.002711,-0.000811,-0.000217,0.125194,-0.027189,313.018052,26.022892,0.999578,0.991582,0.003463,0.386069,-0.000008,0.000029,0.000023,0.000040,-0.000019,64.406613,0.000040,
2431,2788,3.72732026354617,3.1291886819532,-0.0213324887276372,0.002749,-0.001034,-0.000308,0.126978,-0.040281,318.245524,24.672266,0.999489,0.989991,0.004033,0.339552,-0.000025,-0.000008,0.000001,-0.000008,-0.000025,87.668422,0.000034,
2011,2233,-5.31832996612909,-8.99208334155818,0.000612917858632045,0.002697,-0.000526,0.001141,0.120660,-0.010825,328.427199,24.820390,0.999272,0.984032,0.005035,0.301659,-0.000008,0.000084,0.000049,0.000105,-0.000030,66.436226,0.000109,
2176,2923,-1.8414334389512,6.05081793800222,-0.0104116629479449,0.002786,-0.000958,0.005211,0.111840,-0.017564,316.355672,24.582317,0.999164,0.987908,0.004293,0.367673,-0.000023,-0.000008,0.000011,-0.000002,-0.000028,61.974268,0.000034,
2356,2443,2.16146273322907,-4.40136954527859,-0.00394652418378882,0.002654,-0.000868,-0.001371,0.126190,-0.047980,323.932823,23.621214,0.998930,0.983500,0.005065,0.417723,-0.000017,-0.000014,0.000026,0.000011,-0.000042,46.876877,0.000044,
2401,2653,3.10047849574907,0.186072830280864,-0.0195517593469958,0.002785,-0.000691,0.001784,0.121118,-0.016490,320.414294,24.222051,0.999267,0.988090,0.004366,0.379414,-0.000023,-0.000008,0.000006,-0.000006,-0.000025,70.965029,0.000033,
2461,2968,4.34553588321848,7.04664895783375,-0.00783208846394245,0.002781,-0.000724,-0.000554,0.129650,-0.015404,315.476891,25.315369,0.999559,0.990536,0.003924,0.392446,-0.000028,-0.000016,0.000013,-0.000008,-0.000036,57.360939,0.000046,
2296,2143,0.909649035048336,-10.9655612769094,0.0119071259629777,0.002931,-0.000482,-0.002469,0.142437,-0.059643,328.947986,23.432128,0.999299,0.983421,0.005194,0.111176,-0.000025,-0.000020,0.000005,-0.000017,-0.000028,56.380168,0.000046,
2101,2533,-3.40836244061157,-2.43842666502556,-0.030900021728371,0.002286,-0.000648,0.000370,0.103832,-0.028072,322.811322,24.360378,0.999538,0.991566,0.003820,0.385018,-0.000004,-0.000006,0.000034,0.000030,-0.000039,44.228822,0.000041,
2191,2998,-1.52743522421233,7.67943398361843,0.000621684982377246,0.002994,-0.000866,0.001982,0.131412,-0.030479,315.196468,24.663054,0.999498,0.991813,0.003721,0.374550,-0.000024,-0.000004,0.000011,0.000001,-0.000029,66.453530,0.000033,
2341,2383,1.84481218397727,-5.71075758870995,-0.010528013006649,0.002530,-0.000993,0.001822,0.109290,-0.036817,324.830687,23.635083,0.999369,0.986237,0.004687,0.302295,-0.000022,-0.000019,0.000017,-0.000003,-0.000037,47.474745,0.000045,
2206,3073,-1.21365099491892,9.3071113735543,0.0175601006167199,0.002881,-0.000903,-0.000023,0.132546,-0.024528,314.070594,24.773935,0.999659,0.993488,0.003300,0.391103,-0.000020,-0.000010,-0.000002,-0.000009,-0.000021,-79.881007,0.000031,
2476,3103,4.64677249108411,9.97968716657326,0.0180418424025106,0.002882,-0.000762,0.000012,0.132165,-0.025474,313.519729,25.872683,0.999341,0.991463,0.003806,0.364527,-0.000017,0.000019,0.000022,0.000029,-0.000028,64.836344,0.000033,
2446,2908,4.02936167645987,5.74166530216327,-0.0229874303032034,0.002391,-0.001079,0.001169,0.105055,-0.041039,316.276465,25.070871,0.999403,0.991153,0.003853,0.366899,-0.000023,-0.000013,0.000002,-0.000012,-0.000023,80.391167,0.000036,
2386,2563,2.7913042124612,-1.77744436277142,-0.0186216496066436,0.002628,-0.000462,-0.001889,0.127172,-0.027958,321.877571,24.006635,0.999522,0.990139,0.004028,0.328395,-0.000020,-0.000026,0.000012,-0.000010,-0.000035,38.806862,0.000048,
2131,2728,-2.78651858621116,1.80886702238774,-0.0262504971477142,0.003030,-0.000444,-0.002697,0.147414,-0.018509,319.600821,24.313995,0.999435,0.988738,0.004197,0.469824,-0.000008,-0.000002,0.000014,0.000009,-0.000019,51.205836,0.000019,
2236,3238,-0.591110450728852,12.8862127857241,0.0314886726887948,0.002674,-0.000995,0.001080,0.119364,-0.047527,311.397816,25.080732,0.999624,0.994237,0.003210,0.387420,-0.000024,-0.000008,-0.000007,-0.000005,-0.000026,-70.517035,0.000034,
2326,2278,1.53834900289145,-8.00902311702944,-0.00137026196591705,0.002662,-0.000542,-0.002347,0.129866,-0.049152,326.628973,23.415799,0.999114,0.984200,0.004893,0.303050,-0.000026,-0.000041,-0.000007,-0.000023,-0.000044,-20.505311,0.000068,
2056,2368,-4.35983218273894,-6.0406320077782,-0.0151969865974593,0.002696,-0.000479,-0.003196,0.132772,-0.033520,325.866556,24.537303,0.998731,0.985360,0.004928,0.323857,-0.000008,-0.000028,0.000020,0.000005,-0.000041,31.365825,0.000045,
2086,2518,-3.73013786799506,-2.76807122030503,-0.010062279871704,0.002941,-0.000951,0.000135,0.134549,-0.041328,323.332200,24.380734,0.999523,0.991993,0.003697,0.376471,0.000003,-0.000021,0.000034,0.000027,-0.000045,35.252268,0.000046,
2026,2233,-4.99166944425932,-8.99168433805799,-0.00364568773233032,0.002967,-0.000424,-0.001260,0.139628,-0.026607,328.316657,24.764956,0.999408,0.985120,0.004819,0.271851,0.000001,0.000073,0.000051,0.000100,-0.000025,62.468549,0.000104,
2266,2008,0.279808043986975,-13.9295558469916,0.0325405905285265,0.002597,-0.000097,-0.000800,0.121483,-0.002235,331.306250,23.241670,0.999203,0.983009,0.005284,0.266927,-0.000028,-0.000062,0.000025,-0.000015,-0.000075,27.669719,0.000097,
2011,2248,-5.32019343713197,-8.6656454302726,0.0059137031624914,0.002815,-0.000996,0.003268,0.120183,-0.026279,328.230587,24.735824,0.999226,0.983843,0.004964,0.361000,-0.000016,0.000097,0.000045,0.000113,-0.000031,70.894683,0.000116,
2311,2218,1.22298300611901,-9.32448432643483,0.00812749378712851,0.002862,-0.000740,-0.001688,0.136610,-0.050048,327.691409,23.276385,0.998960,0.978582,0.005579,0.367190,-0.000029,0.000002,0.000004,0.000003,-0.000029,83.310386,0.000033,
2431,2803,3.72473099345171,3.45601712204263,-0.0154594390591001,0.002666,-0.000926,-0.000229,0.122944,-0.029056,318.045771,24.773877,0.999453,0.989969,0.004075,0.299036,-0.000021,-0.000006,0.000001,-0.000006,-0.000022,84.761433,0.000029,
2116,2653,-3.10076695570025,0.177662766196633,-0.0369201329011162,0.003232,-0.000670,-0.002532,0.156014,-0.035157,320.801150,24.406991,0.999572,0.990045,0.003824,0.338695,-0.000007,0.000008,0.000019,0.000020,-0.000019,55.925283,0.000023,
2146,2788,-2.47068324828993,3.11590141096775,-0.0303626993867852,0.003207,-0.000561,-0.002189,0.154110,-0.023206,318.537225,24.416785,0.999666,0.992627,0.003460,0.397045,-0.000016,-0.000010,0.000005,-0.000007,-0.000019,60.395525,0.000027,
2161,2863,-2.15779808095613,4.74636570518371,-0.019421613272641,0.002492,-0.001421,0.003650,0.103036,-0.057168,317.301680,24.505203,0.999366,0.992222,0.003566,0.335239,-0.000021,-0.000004,0.000007,-0.000001,-0.000024,71.584340,0.000028,
2041,2308,-4.6763173488205,-7.35385807022141,0.000597912338491824,0.002765,-0.001010,-0.000131,0.127122,-0.025697,327.044803,24.542223,0.999795,0.991237,0.004131,0.398678,0.000000,-0.000003,0.000018,0.000017,-0.000019,42.081805,0.000021,
2356,2458,2.15802789166947,-4.07183809416956,-0.0096294590741195,0.002796,-0.001037,0.002387,0.119443,-0.039554,323.634726,23.765841,0.999307,0.986615,0.004558,0.321921,-0.000020,-0.000009,0.000028,0.000014,-0.000044,50.264381,0.000044,
2221,3178,-0.905036870467921,11.5845413824175,0.036790385785082,0.002857,-0.000702,-0.002973,0.140927,-0.048472,312.482838,24.983511,0.999400,0.991860,0.003611,0.335623,-0.000020,-0.000008,-0.000003,-0.000008,-0.000021,-76.468005,0.000029,
2371,2488,2.47948057522107,-3.41730001092629,-0.00382454232254759,0.002462,-0.000691,0.001812,0.106235,-0.016623,323.188910,23.748256,0.999466,0.987940,0.004307,0.409288,-0.000008,-0.000012,0.000025,0.000015,-0.000035,42.310839,0.000035,
2296,2158,0.906743939102043,-10.638613916767,0.0122794998785025,0.002848,-0.000878,-0.000483,0.131799,-0.053293,328.699721,23.294853,0.999371,0.983904,0.005158,0.287917,-0.000031,-0.000016,0.000003,-0.000015,-0.000032,78.413859,0.000048,
2416,2728,3.412294188684,1.8212013344651,-0.0255927641579206,0.002824,-0.000689,-0.000826,0.132422,-0.030892,319.171893,24.398839,0.999649,0.990975,0.003804,0.419953,-0.000023,-0.000009,0.000003,-0.000008,-0.000023,77.598134,0.000033,
2071,2413,-4.04028874002779,-5.06013429426552,-0.0044962074851469,0.002486,-0.001387,0.002446,0.106879,-0.051531,325.123886,24.400631,0.998688,0.985239,0.004903,0.387674,-0.000001,-0.000061,0.000014,0.000002,-0.000064,12.444552,0.000073,
2401,2668,3.09754443067274,0.513556850360125,-0.0251909200730438,0.002713,-0.000445,-0.004614,0.141104,-0.032557,320.143073,24.277869,0.999214,0.988579,0.004442,0.353566,-0.000023,-0.000014,0.000004,-0.000012,-0.000025,68.726599,0.000038,
2281,2128,0.585590407043341,-11.2968452752246,0.0207242910825585,0.002946,-0.000161,-0.002312,0.142603,-0.029655,329.279735,23.307046,0.998470,0.979758,0.005509,0.319308,-0.000017,-0.000013,0.000011,-0.000004,-0.000027,50.577998,0.000033,
2491,3148,4.96360405845697,10.9583565120951,0.017012699487907,0.002690,-0.000631,-0.000373,0.124851,-0.027322,312.803365,26.118300,0.999578,0.990721,0.003645,0.347999,-0.000008,0.000013,0.000021,0.000025,-0.000021,58.402886,0.000027,
2461,2983,4.34266132860399,7.37319573403038,-0.0058711638490081,0.002701,-0.000680,-0.001376,0.129086,-0.025241,315.247147,25.431362,0.999494,0.990584,0.003910,0.320087,-0.000024,-0.000012,0.000013,-0.000003,-0.000032,57.328978,0.000039,
2011,2263,-5.32234527841281,-8.33753586027246,0.000924438451079368,0.002789,-0.000765,-0.002590,0.134918,-0.056057,327.962975,24.717760,0.998957,0.981102,0.005056,0.339731,-0.000013,0.000084,0.000046,0.000103,-0.000032,68.193980,0.000105,
2026,2248,-4.9941549325324,-8.66549444276757,0.002290199827371,0.002592,-0.000893,0.003271,0.109870,-0.030224,328.096235,24.653235,0.999424,0.986605,0.004579,0.372321,-0.000004,0.000087,0.000048,0.000108,-0.000025,66.636989,0.000113,
2086,2533,-3.73293227591286,-2.44077976635459,-0.00865122810267849,0.002674,-0.001072,0.004319,0.110200,-0.022423,323.077086,24.395325,0.999655,0.992606,0.003665,0.380870,-0.000003,-0.000009,0.000037,0.000031,-0.000042,42.647741,0.000044,
2266,2023,0.277278986606547,-13.5994540584643,0.0272926972687628,0.002807,0.000507,-0.004854,0.144684,0.005097,331.044483,23.277020,0.999011,0.979403,0.005871,0.268075,-0.000035,-0.000045,0.000023,-0.000016,-0.000063,38.633599,0.000084,
2056,2383,-4.36217673385715,-5.71246142284529,-0.0215034861570871,0.002992,-0.000326,-0.003631,0.147677,-0.014589,325.586976,24.509613,0.999274,0.989501,0.004336,0.366844,-0.000003,-0.000020,0.000023,0.000013,-0.000036,35.126394,0.000037,
2176,2938,-1.84310722460367,6.37610180657163,-0.00530151070017837,0.003165,-0.001086,0.003010,0.136142,-0.023532,316.178488,24.584065,0.999322,0.990776,0.003853,0.371611,-0.000022,-0.000002,0.000010,0.000002,-0.000026,67.076212,0.000029,
2476,3118,4.64373764278008,10.3050979089155,0.0190857009542356,0.002830,-0.000711,0.000341,0.128616,-0.014288,313.279043,25.890882,0.999572,0.991502,0.003558,0.413297,-0.000015,0.000023,0.000020,0.000032,-0.000023,66.803875,0.000033,
2191,3013,-1.5295880003003,8.00415921233351,0.0121203825295879,0.002651,-0.000693,0.002260,0.114797,-0.022630,315.031637,24.660994,0.999470,0.991427,0.003783,0.398002,-0.000026,-0.000007,0.000009,-0.000004,-0.000029,68.419978,0.000036,
2101,2548,-3.41074415285832,-2.11206197699433,-0.0370285390890217,0.002707,-0.000896,0.000916,0.121532,-0.029306,322.535810,24.249712,0.999695,0.994042,0.003477,0.496783,-0.000003,0.000005,0.000034,0.000035,-0.000034,48.318117,0.000040,
2341,2398,1.84240779254855,-5.38287855871476,-0.00948849903937798,0.002603,-0.000392,-0.001444,0.124243,-0.009959,324.611410,23.652986,0.999629,0.988400,0.004405,0.349582,-0.000021,-0.000009,0.000020,0.000006,-0.000036,53.386430,0.000038,
2386,2578,2.78864222519113,-1.45058918382884,-0.0179609607337738,0.002858,-0.000837,-0.001239,0.135293,-0.030213,321.647843,24.015248,0.999422,0.988353,0.004347,0.361661,-0.000019,-0.000007,0.000013,0.000001,-0.000028,57.212370,0.000031,
2236,3253,-0.593930555378304,13.2117711323152,0.0229709119847143,0.003002,-0.000645,-0.000705,0.140446,-0.036252,311.101378,25.088659,0.999614,0.994042,0.003182,0.410462,-0.000024,-0.000007,-0.000002,-0.000006,-0.000024,-82.080712,0.000032,
2161,2878,-2.15951688449832,5.07195171347567,-0.0131526741284347,0.002820,-0.001171,0.002907,0.120593,-0.034535,317.127471,24.499516,0.999416,0.993164,0.003489,0.373162,-0.000019,0.000003,0.000004,0.000003,-0.000020,78.790220,0.000021,
2116,2668,-3.10364238141922,0.503952818014405,-0.0379169058177808,0.002994,-0.000718,-0.000139,0.137965,-0.026931,320.531932,24.364358,0.999592,0.991645,0.003627,0.393666,-0.000008,0.000006,0.000021,0.000021,-0.000023,54.274408,0.000025,
2011,2278,-5.32473502220891,-8.00916006624524,-0.00407518133681606,0.002781,-0.000568,-0.004183,0.138948,-0.043523,327.684206,24.687663,0.998874,0.981587,0.005330,0.372862,-0.000014,0.000043,0.000032,0.000057,-0.000029,65.914854,0.000057,
2326,2293,1.53545874149892,-7.68030680474971,-0.00184447139622534,0.002618,-0.000231,-0.001920,0.126538,-0.013693,326.379013,23.450685,0.999017,0.984488,0.004951,0.340410,-0.000026,-0.000034,0.000004,-0.000025,-0.000036,20.575981,0.000061,
2491,3163,4.96060170080085,11.2834843966352,0.0177193757046439,0.002582,-0.000709,-0.001710,0.124967,-0.039412,312.563515,26.143388,0.999597,0.991663,0.003509,0.368510,-0.000013,0.000006,0.000017,0.000017,-0.000023,59.678619,0.000024,
2461,2998,4.3397071976354,7.69825496696426,-0.0033057177287219,0.002701,-0.000411,0.000436,0.122311,-0.014954,315.016819,25.398177,0.999323,0.990288,0.003993,0.417259,-0.000020,-0.000016,0.000016,-0.000002,-0.000034,48.564977,0.000041,
2416,2743,3.40944798450644,2.1482094159981,-0.0231580554935249,0.002908,-0.001050,0.001351,0.128196,-0.035975,318.943555,24.489756,0.999537,0.990355,0.003871,0.371767,-0.000022,-0.000005,0.000004,-0.000005,-0.000023,78.446765,0.000030,
2131,2743,-2.78894161513132,2.13575700200802,-0.0253216661143938,0.003063,-0.000510,-0.001783,0.146136,-0.033053,319.363680,24.386945,0.999483,0.990237,0.003981,0.388126,-0.000012,-0.000007,0.000009,0.000000,-0.000018,52.621836,0.000022,
2071,2428,-4.04227643517041,-4.73227628237452,-0.00227474471910227,0.002700,-0.001405,0.002842,0.115569,-0.050333,324.908825,24.458071,0.998857,0.986742,0.004547,0.329397,-0.000006,-0.000052,0.000024,0.000005,-0.000062,22.948637,0.000070,
2266,2038,0.274034280299436,-13.2699905907537,0.0227543501253535,0.002651,0.000295,-0.003369,0.132590,-0.001555,330.753647,23.282541,0.999055,0.981418,0.005423,0.285230,-0.000033,-0.000036,0.000022,-0.000012,-0.000057,43.014468,0.000074,
2311,2233,1.22017924027992,-8.99479692476247,0.00753399598858095,0.002824,-0.000478,-0.002147,0.136537,-0.032450,327.443689,23.394771,0.998783,0.979177,0.005605,0.301246,-0.000029,-0.000010,0.000007,-0.000007,-0.000031,72.066290,0.000041,
2431,2818,3.72133408498821,3.78224319117018,-0.0199095146829222,0.002667,-0.000688,0.000629,0.119925,-0.014452,317.760974,24.741734,0.999452,0.991143,0.003974,0.395644,-0.000027,-0.000011,-0.000001,-0.000011,-0.000028,-87.613865,0.000040,
2356,2473,2.15555502460566,-3.74383136487528,-0.0114813588847369,0.003028,-0.000645,-0.001187,0.142852,-0.030621,323.399388,23.811190,0.999593,0.988549,0.004172,0.325575,-0.000020,-0.000015,0.000029,0.000012,-0.000046,47.409949,0.000048,
2041,2323,-4.67841230346806,-7.02501055400086,-0.00348315024217527,0.003083,-0.000673,-0.001469,0.145566,-0.042401,326.787463,24.610429,0.999193,0.983577,0.004858,0.308545,-0.000004,-0.000017,0.000014,0.000005,-0.000026,31.998329,0.000027,
2206,3088,-1.21621471604822,9.63308464742732,0.0199545395742007,0.002801,-0.000935,0.000506,0.127204,-0.024567,313.839958,24.852062,0.999475,0.992582,0.003553,0.328720,-0.000021,-0.000011,-0.000002,-0.000011,-0.000021,-78.574254,0.000032,
2026,2263,-4.99618451489773,-8.33621468395356,-0.000907855677496627,0.002734,-0.000701,-0.000637,0.127152,-0.049305,327.845273,24.750086,0.999015,0.983023,0.004985,0.249059,-0.000003,0.000075,0.000049,0.000099,-0.000026,64.297725,0.000102,
2056,2398,-4.36384804764926,-5.3870701893193,-0.0101144271479825,0.003013,-0.000318,-0.001632,0.143014,-0.015646,325.436189,24.422682,0.998894,0.986860,0.004706,0.448461,-0.000003,-0.000039,0.000015,0.000002,-0.000044,19.407940,0.000050,
2221,3193,-0.907554680935064,11.9096763601802,0.0340566662604829,0.003142,-0.000648,-0.003434,0.155658,-0.031697,312.229043,24.962649,0.999462,0.993008,0.003469,0.390982,-0.000021,-0.000010,-0.000006,-0.000007,-0.000023,-66.606087,0.000031,
2401,2683,3.0946318285806,0.8411379675643,-0.0271939977990314,0.003006,-0.000181,-0.003054,0.149005,-0.013321,319.889779,24.342758,0.999353,0.988483,0.004313,0.354127,-0.000025,-0.000013,0.000002,-0.000013,-0.000025,78.430950,0.000039,
2446,2923,4.027197970037,6.06847581016289,-0.0176219472394905,0.002712,-0.000698,0.000228,0.123459,-0.033181,316.094325,25.202250,0.999639,0.993363,0.003589,0.295030,-0.000021,-0.000015,0.000002,-0.000015,-0.000021,72.911640,0.000036,
2371,2503,2.47662658332559,-3.08924339995497,-0.00855267284651973,0.002740,-0.000966,0.000448,0.123720,-0.048080,322.923648,23.822232,0.999529,0.988392,0.004277,0.346130,-0.000009,-0.000014,0.000023,0.000012,-0.000035,41.806646,0.000035,
2296,2173,0.903817005005571,-10.3095859991109,0.00193526248983744,0.002978,-0.000090,-0.006144,0.157099,-0.035643,328.397202,23.227723,0.999415,0.982340,0.005267,0.405695,-0.000027,-0.000009,0.000005,-0.000008,-0.000028,74.326134,0.000038,
2476,3133,4.64078830769847,10.6312031088768,0.020417922245656,0.002878,-0.000966,0.001076,0.127898,-0.031687,313.043328,26.007269,0.999613,0.990874,0.003566,0.334695,-0.000011,0.000021,0.000016,0.000028,-0.000018,68.200673,0.000028,
2176,2953,-1.84570643868943,6.70159674817471,-0.00543130033929629,0.003087,-0.000840,0.002473,0.134242,-0.031034,315.931278,24.573762,0.999371,0.992636,0.003475,0.386248,-0.000022,-0.000007,0.000012,-0.000001,-0.000028,60.966174,0.000033,
2146,2803,-2.47282711128637,3.44112566551209,-0.0231928934129542,0.003105,-0.000569,-0.001675,0.147872,-0.023199,318.347544,24.388367,0.999728,0.992972,0.003358,0.432929,-0.000017,-0.000013,0.000010,-0.000005,-0.000025,49.825062,0.000032,
2101,2563,-3.4124420181934,-1.78494988314529,-0.0269786392535138,0.002903,-0.001133,0.003266,0.123629,-0.030008,322.378772,24.354768,0.999317,0.989768,0.004155,0.392782,-0.000006,0.000003,0.000030,0.000028,-0.000032,49.276067,0.000035,
2011,2293,-5.32737415749314,-7.67888472448503,-0.0168221851224075,0.003142,-0.000499,-0.003299,0.153166,-0.036589,327.350299,24.764621,0.999070,0.986677,0.004746,0.293308,-0.000011,0.000023,0.000027,0.000037,-0.000026,61.334525,0.000038,
2236,3268,-0.597074429854555,13.5372944037744,0.0136388018359526,0.003047,-0.000718,-0.002776,0.149240,-0.037086,310.785845,25.105906,0.999511,0.993389,0.003363,0.412109,-0.000024,0.000007,-0.000004,0.000007,-0.000025,-82.501870,0.000026,
2086,2548,-3.73512526026331,-2.11409747786116,-0.0146934544203532,0.003239,-0.001235,0.004737,0.134956,-0.030747,322.809254,24.319667,0.999448,0.991625,0.003880,0.448289,-0.000003,0.000001,0.000036,0.000036,-0.000037,46.518400,0.000042,
2341,2413,1.84123991193165,-5.05631426042898,0.00476821292500063,0.002985,-0.000264,-0.003635,0.149430,-0.041815,324.513225,23.739384,0.999622,0.990181,0.004193,0.268788,-0.000025,-0.000001,0.000024,0.000014,-0.000040,58.130011,0.000041,
2071,2443,-4.04451900896306,-4.40505514096023,-0.000597062488623123,0.002646,-0.001061,0.002560,0.114031,-0.032289,324.679240,24.440089,0.999231,0.988021,0.004420,0.363652,-0.000011,-0.000054,0.000022,-0.000002,-0.000064,22.592364,0.000074,
2266,2053,0.270758014489584,-12.9410625676434,0.0198257053289694,0.002482,-0.000199,0.000000,0.113586,-0.004750,330.469418,23.259914,0.998967,0.980667,0.005408,0.333982,-0.000033,-0.000028,0.000022,-0.000008,-0.000052,47.791034,0.000066,
2041,2338,-4.68090338236842,-6.69740522671197,-0.00301690556096901,0.002927,-0.000661,0.000503,0.132922,-0.029688,326.537329,24.586360,0.999246,0.987163,0.004447,0.339629,-0.000012,-0.000020,0.000006,-0.000008,-0.000023,28.197555,0.000032,
2116,2683,-3.10568296833425,0.829537065752994,-0.0367023353678633,0.003153,-0.000834,-0.002305,0.151634,-0.047997,320.313118,24.308979,0.999620,0.992964,0.003352,0.431767,-0.000013,0.000004,0.000016,0.000014,-0.000023,59.337268,0.000023,
2026,2278,-4.99820494624571,-8.00927155475765,0.00173705848141026,0.002713,-0.000601,-0.001369,0.128239,-0.050827,327.627666,24.680921,0.998650,0.983725,0.005172,0.308819,-0.000005,0.000042,0.000036,0.000061,-0.000024,61.502332,0.000062,
2431,2833,3.71816655821043,4.10996627079662,-0.0228815321221987,0.002633,-0.000717,-0.000436,0.122319,-0.018994,317.493187,24.882571,0.999306,0.989832,0.004013,0.300157,-0.000026,0.000000,0.000000,0.000000,-0.000026,89.818964,0.000030,
2161,2893,-2.16199097316042,5.39848681442867,-0.0201937820158378,0.003004,-0.000787,-0.002079,0.144490,-0.037370,316.848136,24.513250,0.999535,0.992790,0.003565,0.366468,-0.000022,-0.000001,0.000005,0.000000,-0.000023,77.241476,0.000026,
2191,3028,-1.53247111506148,8.32995591739126,0.00762419418816762,0.002595,-0.000850,0.001330,0.115091,-0.033413,314.749565,24.672531,0.999582,0.992699,0.003707,0.389627,-0.000025,-0.000014,0.000003,-0.000013,-0.000026,76.025993,0.000040,
2131,2758,-2.79167985150635,2.46276218481747,-0.027685572549899,0.002999,-0.000761,-0.000849,0.140380,-0.032524,319.094432,24.433878,0.999560,0.991403,0.003720,0.347359,-0.000011,-0.000013,0.000006,-0.000006,-0.000018,41.057616,0.000026,
2476,3148,4.63759841878529,10.9570630458211,0.0207285805651622,0.002618,-0.000660,0.000015,0.120086,-0.024469,312.791853,26.073994,0.999617,0.989967,0.003677,0.330674,-0.000013,0.000009,0.000014,0.000016,-0.000019,64.438138,0.000020,
2326,2308,1.53282534175067,-7.35200386046638,-0.00207936832828182,0.002953,-0.000657,0.000317,0.134039,-0.018189,326.142179,23.495222,0.998950,0.984078,0.005040,0.327751,-0.000026,-0.000043,0.000008,-0.000023,-0.000046,20.661575,0.000071,
2386,2593,2.78581763575275,-1.12339312086842,-0.0193215169778114,0.003056,-0.000791,-0.000948,0.143322,-0.046207,321.400975,24.055995,0.999474,0.988457,0.004353,0.348929,-0.000017,-0.000017,0.000010,-0.000007,-0.000028,44.626610,0.000036,
2281,2143,0.58258724109977,-10.9662141494419,0.0196115744801091,0.002959,-0.000352,0.000877,0.132531,-0.021293,329.017911,23.481808,0.999143,0.982962,0.005235,0.183867,-0.000022,-0.000024,0.000009,-0.000014,-0.000031,41.936891,0.000047,
2221,3208,-0.910327496952814,12.2348199965812,0.0384101458197392,0.002762,-0.000774,-0.002689,0.135750,-0.031882,312.000001,25.004798,0.999320,0.992204,0.003695,0.365985,-0.000019,-0.000015,-0.000006,-0.000011,-0.000023,-55.595141,0.000034,
2491,3178,4.95879471538697,11.6085437172261,0.0301991751433661,0.002772,-0.000613,-0.001967,0.134761,-0.028593,312.431930,26.212754,0.999647,0.990980,0.003683,0.367571,-0.000009,-0.000002,0.000018,0.000012,-0.000023,50.152589,0.000023,
2356,2488,2.15290097527806,-3.41773013230122,-0.00497856470087754,0.002892,-0.000996,0.001250,0.127925,-0.035261,323.196254,23.777181,0.999522,0.988186,0.004242,0.394750,-0.000015,-0.000008,0.000022,0.000011,-0.000034,49.513834,0.000035,
2011,2308,-5.32944138568103,-7.35161651616812,-0.0116443328940932,0.002995,-0.000387,-0.002529,0.144381,-0.026260,327.143493,24.749247,0.999061,0.987291,0.004697,0.308945,-0.000005,0.000012,0.000016,0.000022,-0.000015,59.402475,0.000022,
2056,2413,-4.36617854445829,-5.05991573146531,-0.00578932981284197,0.002905,-0.000848,0.001686,0.128531,-0.027982,325.216087,24.444587,0.998191,0.983170,0.005350,0.410357,-0.000004,-0.000063,0.000017,0.000000,-0.000067,14.813573,0.000077,
2416,2758,3.40651603647552,2.47482723764352,-0.0254304425387204,0.002835,-0.000689,-0.001997,0.137197,-0.042200,318.689275,24.512918,0.999503,0.989514,0.004024,0.390265,-0.000021,0.000004,0.000008,0.000006,-0.000024,73.376419,0.000024,
2461,3013,4.33760356928844,8.02445403931428,0.00367209577825633,0.002791,-0.000504,-0.002661,0.138122,-0.026139,314.845520,25.524717,0.999400,0.990077,0.003893,0.333159,-0.000021,-0.000006,0.000016,0.000004,-0.000032,57.381341,0.000035,
2401,2698,3.09100910947399,1.16779089406621,-0.0330740195616954,0.003059,-0.000951,0.000569,0.138029,-0.032259,319.585809,24.333802,0.999455,0.990495,0.003956,0.390182,-0.000021,-0.000012,0.000001,-0.000012,-0.000021,81.785087,0.000034,
2296,2188,0.901906004528726,-9.98133830991048,0.0156701470521057,0.002957,-0.000286,-0.003651,0.147680,-0.033023,328.260194,23.364756,0.998841,0.980175,0.005555,0.303364,-0.000030,-0.000002,0.000000,-0.000002,-0.000030,-89.625090,0.000036,
2101,2578,-3.41434895508624,-1.45959777225394,-0.0170173493962125,0.002748,-0.001217,0.003435,0.115976,-0.049871,322.212226,24.320305,0.999366,0.988892,0.004169,0.409307,-0.000012,-0.000011,0.000023,0.000011,-0.000034,45.109082,0.000035,
2206,3103,-1.21841363776163,9.95732983022089,0.0223211101970833,0.002976,-0.000923,-0.000533,0.138506,-0.038961,313.626535,24.788768,0.999394,0.991040,0.003950,0.393384,-0.000024,-0.000012,-0.000001,-0.000012,-0.000024,-86.431848,0.000037,
2071,2458,-4.04680978997604,-4.07827436516888,-0.00204301477640456,0.002781,-0.001200,0.002930,0.119145,-0.035670,324.430586,24.378853,0.999500,0.989629,0.004236,0.419812,-0.000007,-0.000055,0.000019,0.000000,-0.000062,19.042767,0.000072,
2341,2428,1.83890371327054,-4.7295624770106,0.00631908809447168,0.003134,0.000271,-0.006202,0.165401,-0.030436,324.299729,23.683070,0.999721,0.993978,0.003661,0.374717,-0.000024,-0.000014,0.000023,0.000005,-0.000043,51.334452,0.000047,
2491,3193,4.95635871099007,11.933452543866,0.036678874939355,0.002935,-0.000696,-0.001034,0.138655,-0.032808,312.244203,26.250225,0.999528,0.991288,0.003702,0.383488,-0.000003,-0.000002,0.000018,0.000015,-0.000021,45.686091,0.000021,
2266,2068,0.268357206980973,-12.6114926567054,0.0210144259627327,0.002681,-0.000251,0.000369,0.121458,-0.003120,330.245681,23.342347,0.999226,0.982704,0.005089,0.282077,-0.000030,-0.000023,0.000020,-0.000006,-0.000048,49.839392,0.000059,
2146,2818,-2.47563067370606,3.76851256789146,-0.026272443498101,0.003017,-0.000457,-0.001376,0.142977,-0.011123,318.072538,24.471967,0.999639,0.992846,0.003446,0.369103,-0.000013,-0.000009,0.000011,0.000000,-0.000023,49.986016,0.000026,
2371,2518,2.47367814583729,-2.76216985253686,-0.0107497206789731,0.002887,-0.001106,0.001236,0.127631,-0.037781,322.666113,23.792749,0.999476,0.986604,0.004621,0.428175,-0.000013,-0.000015,0.000020,0.000006,-0.000033,43.585034,0.000036,
2026,2293,-5.00062011275315,-7.68095947117504,0.00301433250740502,0.002730,-0.000817,0.003559,0.115469,-0.019755,327.384002,24.695345,0.998544,0.984374,0.005140,0.318076,-0.000002,0.000022,0.000026,0.000039,-0.000019,57.145503,0.000039,
2476,3163,4.63458719004223,11.2827890819222,0.0189056149076805,0.002706,-0.000734,-0.001149,0.128512,-0.036508,312.538856,26.138615,0.999600,0.990837,0.003662,0.309520,-0.000016,0.000007,0.000012,0.000012,-0.000021,66.394749,0.000021,
2236,3283,-0.600219840301481,13.8632673627789,0.00818367251127938,0.002994,-0.000497,-0.002335,0.145472,-0.029303,310.489870,25.182173,0.999433,0.992899,0.003456,0.363175,-0.000026,0.000003,-0.000003,0.000004,-0.000027,-83.758423,0.000029,
2311,2248,1.21706113996551,-8.6667632481175,0.0087132202758653,0.002330,-0.000323,-0.002580,0.115426,-0.014172,327.190451,23.384977,0.998887,0.981622,0.005277,0.363834,-0.000029,-0.000029,0.000002,-0.000027,-0.000031,37.951355,0.000058,
2086,2563,-3.73690789897786,-1.78668620179145,-0.0116513530509224,0.003108,-0.000776,-0.003425,0.152585,-0.049810,322.609410,24.406884,0.998947,0.988037,0.004496,0.341883,-0.000007,0.000000,0.000030,0.000027,-0.000034,48.064703,0.000035,
2176,2968,-1.84739578788662,7.02702043182349,-0.000955885712983218,0.003305,-0.000768,-0.002575,0.159960,-0.041412,315.750005,24.595666,0.999398,0.992603,0.003512,0.365611,-0.000018,-0.000005,0.000013,0.000003,-0.000026,57.513276,0.000028,
2116,2698,-3.10802805809168,1.15632332403518,-0.0276185888362761,0.002757,-0.000932,-0.000599,0.128378,-0.039112,320.122205,24.402738,0.999460,0.991309,0.003730,0.350468,-0.000011,-0.000011,0.000015,0.000004,-0.000026,44.298944,0.000028,
2041,2353,-4.68351108734494,-6.36933515226065,-0.00729179251436562,0.002922,-0.000795,0.002058,0.128327,-0.029888,326.255615,24.576311,0.998964,0.985638,0.004862,0.343877,-0.000007,-0.000034,0.000017,0.000001,-0.000042,25.483312,0.000048,
2191,3043,-1.53397021419239,8.65609089960215,0.0159397987381453,0.002874,-0.000725,-0.002148,0.138921,-0.038582,314.597700,24.798224,0.999709,0.994807,0.003215,0.272027,-0.000027,-0.000018,0.000001,-0.000018,-0.000027,85.061758,0.000045,
2281,2158,0.5794304591372,-10.638165382903,0.0145075338263041,0.002672,-0.000456,-0.001634,0.127725,-0.024899,328.729565,23.395813,0.999452,0.983537,0.005179,0.297064,-0.000026,-0.000019,0.000008,-0.000014,-0.000031,57.313555,0.000046,
2431,2848,3.71535781961034,4.43542738492802,-0.0198936600708066,0.002528,-0.000610,-0.000703,0.118524,-0.018374,317.270077,24.859504,0.999372,0.988342,0.004056,0.373604,-0.000024,-0.000003,-0.000005,-0.000002,-0.000025,-77.707595,0.000030,
2221,3223,-0.913451711886378,12.5604054298467,0.0365465067117725,0.002646,-0.000708,0.000593,0.119857,-0.022402,311.722592,25.045678,0.999555,0.993733,0.003361,0.352078,-0.000019,-0.000005,-0.000007,-0.000002,-0.000022,-67.174705,0.000026,
2446,2938,4.02427332884737,6.39473398762183,-0.0231051707771144,0.002966,-0.000295,-0.003008,0.147458,-0.007172,315.827126,25.191617,0.999619,0.992299,0.003710,0.383561,-0.000019,-0.000022,0.000003,-0.000017,-0.000024,32.998111,0.000041,
2386,2608,2.78319389832275,-0.79616413815603,-0.0204680798161121,0.003259,-0.000426,-0.002921,0.159902,-0.027373,321.164176,24.071687,0.999378,0.988344,0.004257,0.396198,-0.000019,-0.000013,0.000010,-0.000005,-0.000027,53.128031,0.000034,
2326,2323,1.52953037002478,-7.02347732235092,-0.00643999254185701,0.002552,-0.000178,-0.002503,0.125531,-0.014479,325.854804,23.516364,0.999043,0.982313,0.005261,0.347022,-0.000024,-0.000042,0.000015,-0.000016,-0.000051,29.566063,0.000069,
2011,2323,-5.33037016770199,-7.02569792426754,0.00237508501112416,0.003389,-0.000430,-0.002977,0.163712,-0.025946,327.038555,24.712307,0.998960,0.984792,0.005016,0.335714,-0.000009,-0.000002,0.000004,0.000000,-0.000011,66.266026,0.000012,
2131,2773,-2.79430902899899,2.78869812981559,-0.0254742748485342,0.002724,-0.000670,-0.000195,0.125785,-0.022948,318.854899,24.414235,0.999665,0.992681,0.003423,0.382524,-0.000011,-0.000009,0.000007,-0.000003,-0.000017,49.196277,0.000022,
2056,2428,-4.36885182291217,-4.73156231787686,-0.0101354215982496,0.002933,-0.001092,0.004039,0.123162,-0.016934,324.932277,24.475554,0.998790,0.985460,0.004824,0.386853,-0.000010,-0.000052,0.000027,0.000003,-0.000065,26.064705,0.000074,
2026,2308,-5.00325021047433,-7.35221709461469,-0.00647707703785727,0.002831,-0.000976,0.002636,0.122571,-0.040871,327.070781,24.698623,0.998788,0.983851,0.005090,0.286304,0.000004,0.000010,0.000014,0.000022,-0.000008,51.508718,0.000022,
2236,3298,-0.603737792145772,14.18849365622,0.00110730559941885,0.002790,-0.000585,-0.000404,0.129743,-0.029026,310.168693,25.192836,0.999405,0.992804,0.003459,0.372307,-0.000025,-0.000006,-0.000009,-0.000002,-0.000028,-68.786016,0.000034,
2161,2908,-2.16381117702148,5.7232384395023,-0.0118102370080351,0.003123,-0.000775,-0.002351,0.150762,-0.045031,316.680748,24.484009,0.999482,0.991984,0.003735,0.397506,-0.000022,-0.000008,0.000005,-0.000007,-0.000023,72.982338,0.000031,
2401,2713,3.08753653765986,1.49510955373572,-0.039300924174654,0.002624,-0.000307,-0.004165,0.135479,-0.028184,319.286821,24.365561,0.999608,0.990933,0.003810,0.408246,-0.000025,-0.000013,-0.000001,-0.000013,-0.000025,-87.235120,0.000039,
2356,2503,2.14958879131417,-3.08998502575204,-0.00781845993691377,0.002750,-0.001417,0.002670,0.116241,-0.055219,322.917692,23.828259,0.999517,0.988533,0.004286,0.363828,-0.000015,-0.000012,0.000019,0.000006,-0.000033,46.897652,0.000035,
2416,2773,3.40362955592181,2.80084830675444,-0.0218416760485525,0.002600,-0.000711,-0.002055,0.126643,-0.043256,318.464572,24.526764,0.999490,0.989424,0.004079,0.423061,-0.000024,-0.000006,0.000006,-0.000004,-0.000026,73.839507,0.000033,
2431,2863,3.71288317842856,4.7615136077499,-0.0181282963546892,0.002778,-0.000807,-0.002011,0.134725,-0.036203,317.056469,24.907175,0.999529,0.990996,0.003661,0.357765,-0.000026,-0.000001,-0.000006,0.000001,-0.000027,-76.325338,0.000031,
2086,2578,-3.74009113868552,-1.45920786224315,-0.0193145604926031,0.003000,-0.000986,0.000277,0.136894,-0.043510,322.287182,24.386133,0.999112,0.988574,0.004347,0.368996,-0.000014,-0.000013,0.000022,0.000009,-0.000036,45.239180,0.000037,
2476,3178,4.63165631852651,11.6080012857229,0.0199510383632742,0.002696,-0.000693,-0.001564,0.129706,-0.022977,312.302699,26.151420,0.999672,0.992133,0.003512,0.365609,-0.000014,0.000000,0.000013,0.000008,-0.000022,59.882288,0.000022,
2491,3208,4.95277409092138,12.2598170695203,0.0303652876979754,0.002901,-0.000487,-0.001609,0.139349,-0.032133,311.945125,26.346088,0.999407,0.992242,0.003651,0.345834,0.000000,-0.000012,0.000010,0.000006,-0.000018,29.804728,0.000018,
2446,2953,4.0213136266093,6.7205874765494,-0.022295851004003,0.002910,-0.000397,-0.003334,0.146061,-0.015755,315.587438,25.227287,0.999693,0.993494,0.003500,0.391057,-0.000023,-0.000019,0.000006,-0.000014,-0.000027,54.049980,0.000042,
2191,3058,-1.53673635955739,8.98005625855913,0.0164361575925227,0.002779,-0.001059,-0.000341,0.128751,-0.044853,314.347607,24.677577,0.999771,0.995804,0.002977,0.400251,-0.000024,-0.000017,-0.000001,-0.000017,-0.000024,-83.999757,0.000041,
2101,2593,-3.41697970495373,-1.13238880106518,-0.0158426274358021,0.002437,-0.001108,0.003557,0.101366,-0.034616,321.964499,24.348312,0.999223,0.989220,0.004237,0.398439,-0.000014,-0.000004,0.000029,0.000021,-0.000039,50.090486,0.000039,
2296,2203,0.898877373417193,-9.65182233453101,0.00849597649340694,0.003253,-0.000261,-0.002662,0.157963,-0.038803,327.968630,23.410600,0.998065,0.976385,0.006129,0.284673,-0.000034,0.000007,0.000001,0.000007,-0.000034,88.102787,0.000035,
2206,3118,-1.22076100488022,10.2827622233291,0.0271207291423252,0.002972,-0.000821,0.000362,0.135563,-0.030032,313.418452,24.830314,0.999521,0.992540,0.003622,0.376202,-0.000027,-0.000006,0.000000,-0.000006,-0.000027,-89.880010,0.000035,
2461,3028,4.33484827232491,8.34996252067558,0.010578753114487,0.002750,-0.000968,0.000510,0.124121,-0.030302,314.643997,25.583358,0.999693,0.991929,0.003653,0.323909,-0.000021,0.000004,0.000010,0.000007,-0.000024,70.770501,0.000025,
2386,2623,2.77954314290075,-0.469218562144519,-0.0235810635305711,0.002916,-0.000855,-0.000767,0.136277,-0.042423,320.870965,24.083476,0.999279,0.988179,0.004240,0.413329,-0.000020,-0.000006,0.000007,-0.000003,-0.000023,69.070433,0.000028,
2041,2368,-4.68569996426767,-6.04182850790934,-0.0048140664146672,0.002753,-0.000625,0.000784,0.124177,-0.010310,326.030438,24.566121,0.999022,0.986302,0.004753,0.367705,-0.000002,-0.000034,0.000018,0.000006,-0.000042,24.317557,0.000045,
2266,2083,0.264738118738769,-12.2817208514205,0.0122333405026893,0.002421,-0.000576,0.001270,0.106478,-0.014185,329.916356,23.351501,0.999408,0.984005,0.004962,0.291033,-0.000026,-0.000020,0.000016,-0.000007,-0.000039,49.730676,0.000049,
2341,2443,1.83465326934244,-4.39990646095229,-0.0069695020968652,0.002842,-0.000254,-0.004603,0.146258,-0.033824,323.926083,23.773559,0.999408,0.988454,0.004363,0.319254,-0.000020,-0.000012,0.000025,0.000009,-0.000041,49.390944,0.000043,
2071,2473,-4.04895425760294,-3.75056236254108,-0.0033064469955093,0.002798,-0.000812,-0.000843,0.130828,-0.033257,324.189376,24.403757,0.999482,0.989388,0.004305,0.395478,-0.000003,-0.000053,0.000026,0.000008,-0.000064,23.344798,0.000070,
2281,2173,0.576028935715101,-10.3103414610296,0.00876175486456532,0.002458,-0.000575,-0.000413,0.113809,-0.031031,328.426831,23.291062,0.999224,0.982580,0.005318,0.426408,-0.000021,-0.000014,0.000009,-0.000008,-0.000027,55.295115,0.000036,
2176,2983,-1.85074798920095,7.3529923823988,-0.00338684395791233,0.002959,-0.001105,0.001662,0.130801,-0.040021,315.455962,24.612769,0.999344,0.992741,0.003500,0.361325,-0.000020,-0.000009,0.000011,-0.000002,-0.000026,58.714112,0.000032,
2116,2713,-3.1104072566367,1.48261708175141,-0.0266730961898247,0.002695,-0.000931,-0.001313,0.127622,-0.048367,319.886208,24.406747,0.999424,0.990080,0.003959,0.340950,-0.000011,0.000000,0.000013,0.000009,-0.000020,56.297190,0.000020,
2476,3193,4.62868231779676,11.9333093341923,0.021722133399237,0.002735,-0.000560,-0.000141,0.126146,-0.012791,312.067751,26.184378,0.999535,0.992030,0.003529,0.398344,-0.000013,0.000001,0.000014,0.000010,-0.000022,58.046028,0.000022,
2056,2443,-4.37155049594935,-4.40393564246938,-0.0143747271205825,0.002505,-0.000904,-0.000458,0.116175,-0.053568,324.648250,24.494101,0.999161,0.987488,0.004551,0.327855,-0.000013,-0.000055,0.000024,-0.000002,-0.000066,24.585793,0.000077,
2131,2788,-2.79650640725651,3.11432839270072,-0.0217892823750958,0.002790,-0.001036,0.000510,0.126623,-0.026883,318.643157,24.395464,0.999672,0.992954,0.003329,0.402830,-0.000016,-0.000008,0.000008,-0.000003,-0.000021,58.298319,0.000026,
2491,3223,4.94969683456053,12.5857677746785,0.0264606199472723,0.003130,-0.000503,-0.002672,0.154020,-0.028121,311.680366,26.418841,0.999436,0.991970,0.003682,0.334622,-0.000001,-0.000031,0.000008,0.000001,-0.000033,14.495302,0.000037,
2371,2533,2.47038816914939,-2.43314597464854,-0.01663620250946,0.002637,-0.000331,-0.002482,0.129685,-0.015675,322.374807,23.902455,0.999418,0.987283,0.004551,0.382863,-0.000012,-0.000018,0.000013,-0.000002,-0.000029,38.135466,0.000034,
2011,2338,-5.33349138517017,-6.69804160636813,-0.000565544442963528,0.002837,-0.000522,0.000544,0.128797,-0.029758,326.738215,24.674897,0.999160,0.986136,0.004719,0.359417,-0.000018,-0.000013,-0.000012,-0.000004,-0.000028,-50.997305,0.000035,
2311,2263,1.21468024493535,-8.33803011494512,0.0112679996430529,0.002821,-0.000491,0.001586,0.123737,-0.002119,326.977613,23.464226,0.999168,0.984506,0.004887,0.330983,-0.000028,-0.000036,-0.000003,-0.000027,-0.000037,-21.028959,0.000064,
2161,2923,-2.16667248097598,6.04998559827541,-0.0105470761703828,0.002807,-0.000535,-0.000784,0.131577,-0.015458,316.427315,24.553584,0.999277,0.989010,0.004157,0.367244,-0.000021,-0.000010,0.000007,-0.000007,-0.000025,65.132173,0.000033,
2401,2728,3.08517167150312,1.82150830269449,-0.0320900793488477,0.002796,-0.000817,-0.001823,0.134697,-0.037579,319.102253,24.439575,0.999650,0.990482,0.003940,0.370547,-0.000032,-0.000009,0.000004,-0.000008,-0.000032,81.198502,0.000043,
2251,1993,-0.0476506908960381,-14.2552053893967,0.00222377935540408,0.002642,-0.001010,0.003724,0.108447,-0.019100,331.305219,23.288491,0.999686,0.990359,0.004334,0.281368,-0.000016,-0.000094,0.000027,-0.000007,-0.000103,17.480044,0.000123,
2026,2323,-5.00515683913298,-7.0253523511461,-0.00517062224196252,0.002822,-0.000883,-0.001263,0.132876,-0.052691,326.851058,24.634419,0.998984,0.984828,0.004902,0.330842,0.000000,-0.000004,0.000005,0.000003,-0.000008,35.098750,0.000008,
2416,2788,3.40029321064619,3.12964629945532,-0.0266496152809736,0.002651,-0.000606,-0.001520,0.127083,-0.024298,318.179112,24.714763,0.999444,0.988979,0.004212,0.301923,-0.000025,-0.000008,0.000004,-0.000007,-0.000026,77.421002,0.000035,
2056,2458,-4.37387093528521,-4.07728313645335,-0.0133527726243301,0.002364,-0.001002,-0.001158,0.111639,-0.049675,324.410545,24.437461,0.999257,0.986973,0.004659,0.384421,-0.000008,-0.000055,0.000022,0.000001,-0.000064,21.307263,0.000073,
2221,3238,-0.916436226899936,12.8852568102586,0.0315348787150924,0.002671,-0.001151,0.000755,0.120256,-0.061474,311.435642,25.053494,0.999695,0.994245,0.003181,0.322651,-0.000018,-0.000010,-0.000004,-0.000008,-0.000020,-65.516193,0.000028,
2476,3208,4.62617540853632,12.2582353214102,0.0271886973420692,0.002822,-0.000676,-0.000056,0.129732,-0.030514,311.871223,26.234892,0.999379,0.991533,0.003689,0.385366,-0.000012,-0.000008,0.000008,-0.000002,-0.000019,52.504750,0.000023,
2101,2608,-3.41884137089107,-0.805640512239812,-0.0159075990775932,0.002708,-0.000858,-0.000471,0.125737,-0.025674,321.745438,24.334159,0.998877,0.987604,0.004604,0.423469,-0.000010,-0.000003,0.000031,0.000024,-0.000037,48.032280,0.000038,
2491,3238,4.94550118479187,12.9115176712874,0.0167145677218059,0.002846,-0.000715,-0.002357,0.139629,-0.042912,311.337569,26.463320,0.999558,0.992293,0.003636,0.332664,-0.000002,-0.000027,0.000004,-0.000001,-0.000028,9.242280,0.000033,
2011,2353,-5.33627864537331,-6.3689782620352,-0.00800597226935906,0.002785,-0.000803,0.002174,0.121938,-0.022401,326.427566,24.716336,0.999155,0.989103,0.004519,0.315498,-0.000011,-0.000023,0.000005,-0.000009,-0.000025,18.428116,0.000035,
2461,3043,4.33205747055901,8.67538908559209,0.0102576566105768,0.002893,-0.000653,-0.000825,0.135882,-0.017648,314.407642,25.573238,0.999607,0.990700,0.003781,0.400503,-0.000020,0.000014,0.000012,0.000018,-0.000024,72.710409,0.000025,
2446,2968,4.018913675328,7.04659211042618,-0.0131038309813221,0.002878,-0.000547,-0.001862,0.139047,-0.021313,315.412110,25.335881,0.999688,0.992817,0.003532,0.328245,-0.000024,-0.000014,0.000007,-0.000011,-0.000027,62.749352,0.000039,
2191,3073,-1.53865798868007,9.30532342610864,0.021950178119198,0.002976,-0.000610,-0.001633,0.142056,-0.028266,314.161994,24.690029,0.999633,0.994309,0.003240,0.417893,-0.000022,-0.000012,-0.000002,-0.000012,-0.000023,-79.150491,0.000035,
2296,2218,0.895894449295263,-9.32326340613012,0.00927427927513236,0.002993,-0.000276,-0.001836,0.143239,-0.028826,327.718429,23.442316,0.998696,0.978998,0.005658,0.295519,-0.000031,0.000000,0.000000,0.000000,-0.000031,89.527251,0.000036,
2086,2593,-3.74310745561976,-1.13208151147395,-0.0192845370104919,0.002369,-0.000809,0.000728,0.106651,-0.028369,322.014468,24.396703,0.999078,0.988745,0.004304,0.373422,-0.000019,-0.000002,0.000028,0.000019,-0.000040,53.098996,0.000040,
2356,2518,2.14678148303982,-2.76235484104946,-0.00891765742096595,0.002647,-0.000985,-0.000162,0.121625,-0.047522,322.670538,23.862038,0.999318,0.986416,0.004588,0.377803,-0.000018,-0.000014,0.000015,0.000000,-0.000031,49.411297,0.000036,
2326,2338,1.52781936908355,-6.69698349579459,0.00826857447549401,0.002563,-0.000269,-0.001706,0.123307,-0.007723,325.733202,23.541793,0.999187,0.984367,0.004881,0.364186,-0.000024,-0.000030,0.000014,-0.000013,-0.000041,39.350513,0.000056,
2116,2728,-3.11303259017116,1.80953220955238,-0.0280805890290594,0.002733,-0.000472,0.000952,0.122876,-0.007712,319.625985,24.403574,0.999420,0.989755,0.004028,0.388286,-0.000015,0.000000,0.000015,0.000009,-0.000024,58.378489,0.000025,
2431,2878,3.70978845477659,5.08839860423784,-0.0206862733510889,0.002745,-0.000593,-0.003475,0.138783,-0.025177,316.793906,24.971954,0.999498,0.991808,0.003546,0.353844,-0.000026,-0.000003,-0.000005,-0.000002,-0.000027,-77.447186,0.000033,
2206,3133,-1.22280745118119,10.6078767391007,0.0317045761527766,0.003195,-0.000802,-0.000050,0.147173,-0.026270,313.223186,24.849613,0.999617,0.993893,0.003394,0.376315,-0.000026,-0.000006,0.000001,-0.000006,-0.000026,87.032457,0.000034,
2266,2098,0.262113907911026,-11.9523974313653,0.011513054638101,0.002606,-0.001106,0.002593,0.110425,-0.031732,329.672905,23.421007,0.999102,0.981542,0.005363,0.232583,-0.000022,-0.000021,0.000013,-0.000008,-0.000035,46.798808,0.000045,
2251,2008,-0.0500524308542332,-13.9273700302574,0.0106357396931003,0.002252,-0.001279,0.003731,0.090506,-0.028598,331.116895,23.285467,0.999567,0.988174,0.004640,0.301723,-0.000028,-0.000065,0.000030,-0.000011,-0.000082,28.938562,0.000101,
2146,2833,-2.47715103586027,4.09284369917552,-0.00958981388987468,0.002990,-0.000650,0.000329,0.136477,-0.019997,317.962241,24.449495,0.999632,0.993376,0.003351,0.390242,-0.000015,-0.000006,0.000012,0.000002,-0.000024,54.422283,0.000026,
2386,2638,2.77652121231659,-0.142332517971987,-0.0188821561676491,0.002636,-0.001283,0.001964,0.113455,-0.050069,320.643625,24.153503,0.999215,0.987580,0.004363,0.379319,-0.000023,-0.000003,0.000008,0.000000,-0.000026,70.383671,0.000030,
2041,2383,-4.68803349841126,-5.71499692436633,-0.00458409292593842,0.002699,-0.001101,0.001521,0.119511,-0.033255,325.786573,24.519637,0.999319,0.988754,0.004224,0.385532,0.000003,-0.000025,0.000020,0.000013,-0.000035,27.882952,0.000036,
2071,2488,-4.05155633675248,-3.42262047898993,-0.00967472035267747,0.002902,-0.000595,-0.001034,0.136215,-0.015657,323.899228,24.393035,0.999621,0.990952,0.004047,0.422049,-0.000005,-0.000048,0.000031,0.000011,-0.000064,27.303749,0.000068,
2491,3253,4.94141011705515,13.2370895366957,0.00713574070687173,0.002737,-0.000859,-0.001015,0.129456,-0.040498,311.000297,26.480213,0.999723,0.993387,0.003359,0.375592,-0.000002,-0.000021,0.000002,-0.000002,-0.000021,6.588502,0.000026,
2026,2338,-5.00761814893679,-6.69883321104299,0.00280190589580798,0.002425,-0.001411,0.004230,0.099416,-0.062263,326.643172,24.606931,0.999240,0.987021,0.004462,0.340766,-0.000007,-0.000014,-0.000006,-0.000004,-0.000017,-31.162340,0.000022,
2371,2548,2.46759095524941,-2.10622080843823,-0.0158422409010655,0.002592,-0.000481,-0.003134,0.129845,-0.046565,322.138534,23.937533,0.999356,0.986455,0.004689,0.358803,-0.000016,-0.000017,0.000012,-0.000004,-0.000028,43.996919,0.000035,
2311,2278,1.21223236324044,-8.00968915406064,0.0111653594206587,0.003032,-0.000843,0.000224,0.137911,-0.038179,326.748906,23.533598,0.999214,0.984500,0.004760,0.259853,-0.000029,-0.000034,-0.000005,-0.000026,-0.000037,-30.173274,0.000063,
2401,2743,3.08211164962081,2.14841553115124,-0.0355609627192166,0.002906,-0.000604,-0.002151,0.141008,-0.029488,318.835163,24.461301,0.999558,0.990309,0.003942,0.402618,-0.000031,-0.000006,0.000004,-0.000005,-0.000032,81.636798,0.000040,
2476,3223,4.62301287109895,12.5842994092792,0.0243112548457702,0.002765,-0.000627,-0.002204,0.135348,-0.029315,311.605991,26.326892,0.999373,0.992090,0.003608,0.349810,-0.000015,-0.000025,0.000008,-0.000011,-0.000029,27.983571,0.000041,
2161,2938,-2.16890854910448,6.37480551787863,-0.00256374522570013,0.002855,-0.001082,0.003614,0.120079,-0.026513,316.238719,24.537827,0.999333,0.989659,0.004086,0.381177,-0.000022,-0.000005,0.000007,-0.000002,-0.000024,70.024557,0.000030,
2131,2803,-2.79906454057602,3.44023367992283,-0.0198405487465152,0.002656,-0.000994,0.001931,0.116189,-0.036521,318.405533,24.398231,0.999603,0.992533,0.003485,0.395954,-0.000017,-0.000013,0.000014,-0.000001,-0.000029,49.295179,0.000033,
2281,2188,0.573899437431376,-9.98091551256144,0.0123277492597822,0.002751,-0.000467,-0.000585,0.127866,-0.024166,328.228283,23.423570,0.998627,0.979687,0.005768,0.331064,-0.000024,-0.000009,0.000002,-0.000009,-0.000024,83.506444,0.000034,
2461,3058,4.32861111022075,9.00136433975967,0.0126801810242227,0.002407,-0.000665,0.000852,0.107237,-0.009312,314.153434,25.640064,0.999636,0.989713,0.003989,0.395288,-0.000018,0.000010,0.000015,0.000017,-0.000024,66.598427,0.000025,
2056,2473,-4.37578242501973,-3.74862871906452,-0.0146953520178386,0.002704,-0.000642,-0.003223,0.133217,-0.040864,324.178031,24.541912,0.999386,0.987430,0.004711,0.284686,-0.000004,-0.000055,0.000030,0.000010,-0.000069,24.827318,0.000074,
2221,3253,-0.919578147005836,13.2102969092536,0.0248699579832419,0.002696,-0.000932,0.001489,0.119125,-0.046210,311.132819,25.019772,0.999661,0.994424,0.003124,0.389240,-0.000016,-0.000010,0.000001,-0.000010,-0.000016,78.723713,0.000027,
2176,2998,-1.85275833589008,7.67808868170183,0.00388645269691779,0.003032,-0.001172,0.001977,0.133169,-0.035956,315.274702,24.616675,0.999468,0.992000,0.003662,0.373086,-0.000021,-0.000006,0.000013,0.000001,-0.000029,60.547608,0.000032,
2356,2533,2.14386651215785,-2.43485298886976,-0.0131399178472975,0.002820,-0.000762,-0.001124,0.133053,-0.040154,322.403390,23.861430,0.999261,0.986476,0.004688,0.425749,-0.000016,-0.000019,0.000010,-0.000008,-0.000027,40.533628,0.000037,
2446,2983,4.01535036168707,7.37222876333098,-0.0129524520837663,0.002567,-0.001037,0.001415,0.112303,-0.036008,315.141511,25.360816,0.999642,0.991845,0.003693,0.340003,-0.000021,-0.000011,0.000007,-0.000008,-0.000025,62.198669,0.000034,
2011,2368,-5.3380469562476,-6.04195907662231,-0.0107677853918631,0.003023,-0.000446,-0.003664,0.148787,-0.029102,326.190217,24.636306,0.999204,0.988763,0.004539,0.378784,-0.000003,-0.000034,0.000006,-0.000002,-0.000035,10.434555,0.000041,
2101,2623,-3.42246882231946,-0.477663536969452,-0.0313164794020508,0.002539,-0.000992,0.000810,0.114164,-0.028385,321.362321,24.318480,0.999079,0.987910,0.004445,0.438611,-0.000008,-0.000006,0.000026,0.000019,-0.000033,45.720537,0.000033,
2476,3238,4.61906663943428,12.9103333342666,0.00993052632355784,0.002926,-0.000762,-0.003809,0.148803,-0.038943,311.252099,26.366163,0.999669,0.993974,0.003218,0.356237,-0.000017,-0.000022,0.000004,-0.000014,-0.000024,31.190989,0.000039,
2416,2803,3.39749928242366,3.45551349082267,-0.0261006987146857,0.002692,-0.000293,-0.002297,0.131971,-0.009211,317.944305,24.683407,0.999278,0.988156,0.004478,0.396206,-0.000022,-0.000006,0.000005,-0.000004,-0.000024,73.838931,0.000030,
2431,2893,3.70677923352567,5.41494625645597,-0.0201182053876323,0.002793,-0.000357,-0.001865,0.135161,0.002346,316.549796,25.016604,0.999525,0.991495,0.003664,0.386357,-0.000026,-0.000009,-0.000005,-0.000008,-0.000027,-75.681105,0.000036,
2086,2608,-3.74505177095049,-0.804670458609138,-0.0228832292830248,0.002918,-0.000663,-0.000792,0.136395,-0.013426,321.771030,24.406904,0.999130,0.989084,0.004232,0.377986,-0.000014,0.000000,0.000029,0.000022,-0.000037,51.846391,0.000037,
2491,3268,4.93794156523956,13.5634543966823,0.00267579983204769,0.002822,-0.000835,0.000308,0.128349,-0.029917,310.714526,26.595423,0.999853,0.995171,0.002874,0.328508,0.000001,-0.000046,0.000005,0.000001,-0.000046,6.029353,0.000053,
2341,2458,1.83087332981489,-4.0720434557746,-0.0122293476867981,0.002655,-0.000746,0.000390,0.120167,-0.025921,323.613088,23.769916,0.999571,0.988056,0.004276,0.369221,-0.000023,-0.000008,0.000028,0.000013,-0.000045,52.481017,0.000046,
2386,2653,2.77332704690192,0.184634724053318,-0.0177424756900564,0.002412,-0.001281,0.004074,0.095602,-0.040052,320.391362,24.187494,0.999105,0.986437,0.004616,0.399311,-0.000024,-0.000003,0.000009,0.000001,-0.000027,69.610828,0.000031,
2266,2113,0.260630844299399,-11.6247753955161,0.0228993469094689,0.002658,-0.000221,-0.001355,0.126132,-0.012638,329.542218,23.435848,0.999137,0.981328,0.005331,0.265030,-0.000019,-0.000021,0.000013,-0.000007,-0.000033,42.173321,0.000042,
2296,2233,0.893594277598936,-8.99390119388907,0.00493524613148111,0.003436,0.000335,-0.005867,0.177396,-0.004433,327.473999,23.485140,0.998973,0.979996,0.005429,0.309597,-0.000033,-0.000007,0.000002,-0.000007,-0.000034,85.673933,0.000043,
2371,2563,2.46432547106489,-1.7786961601046,-0.0141434815995467,0.002423,-0.000949,0.001472,0.105588,-0.034351,321.884770,23.997259,0.999389,0.988336,0.004401,0.353329,-0.000021,-0.000016,0.000011,-0.000008,-0.000030,51.853453,0.000040,
2326,2353,1.52473724873147,-6.36780161285534,-0.000403968714294933,0.002914,-0.000483,-0.001818,0.139716,-0.016773,325.434426,23.603464,0.999062,0.982992,0.004900,0.329852,-0.000022,-0.000027,0.000017,-0.000007,-0.000041,40.636396,0.000052,
2116,2743,-3.11584482363595,2.13692097524313,-0.0318775022878981,0.002802,-0.000684,0.004090,0.116702,-0.003712,319.344303,24.466093,0.999459,0.990461,0.003929,0.333631,-0.000020,-0.000006,0.000010,0.000000,-0.000025,62.649201,0.000029,
2146,2848,-2.48043269929492,4.41939828087568,-0.0180831201184901,0.002786,-0.000894,0.000690,0.125945,-0.029635,317.636854,24.446109,0.999617,0.993359,0.003357,0.391662,-0.000018,-0.000004,0.000009,0.000000,-0.000023,63.707515,0.000026,
2221,3268,-0.922097490505791,13.5352750428319,0.0138980329658693,0.003090,-0.000713,-0.005707,0.160530,-0.052293,310.836424,24.982431,0.999536,0.993903,0.003293,0.438209,-0.000016,0.000002,0.000001,0.000002,-0.000016,85.704305,0.000017,
2161,2953,-2.17129361397516,6.70020450258997,-6.94287314217945E-05,0.002686,-0.000881,0.001516,0.118841,-0.025998,316.014112,24.528525,0.999492,0.991883,0.003606,0.400626,-0.000022,-0.000009,0.000009,-0.000005,-0.000026,63.177274,0.000033,
2191,3088,-1.54150471547327,9.63096506221657,0.0228697963999593,0.002939,-0.000968,0.002513,0.127225,-0.034711,313.909809,24.734072,0.999442,0.992512,0.003611,0.380773,-0.000022,-0.000012,-0.000002,-0.000011,-0.000022,-78.514920,0.000034,
2041,2398,-4.69020669024572,-5.38755278381747,-0.00914437490990849,0.003031,-0.000673,0.001189,0.135845,-0.018646,325.523266,24.450871,0.999285,0.989216,0.004137,0.463165,0.000007,-0.000044,0.000014,0.000010,-0.000048,14.846717,0.000050,
2491,3283,4.93464637403524,13.8879209431549,-0.000341685403384417,0.002758,-0.000881,-0.000694,0.129149,-0.049530,310.443812,26.577641,0.999867,0.995748,0.002795,0.384025,0.000003,-0.000084,0.000001,0.000003,-0.000084,0.544411,0.000096,
2131,2818,-2.80102978669512,3.76623285457553,-0.0158540210085789,0.002759,-0.000647,-0.000080,0.127096,-0.026708,318.205911,24.409776,0.999418,0.991280,0.003841,0.399685,-0.000013,-0.000009,0.000015,0.000004,-0.000026,48.825508,0.000028,
2251,2023,-0.0511406304832498,-13.5984780153246,0.0212941413225849,0.002821,-0.000378,0.000972,0.125888,-0.010922,330.999645,23.381034,0.999104,0.982360,0.005399,0.250043,-0.000034,-0.000051,0.000026,-0.000016,-0.000069,36.150734,0.000091,
2401,2758,3.07956289522567,2.47470472550462,-0.0316809360126058,0.002941,-0.000488,-0.002496,0.143901,-0.033859,318.626337,24.501675,0.999405,0.988740,0.004222,0.403621,-0.000030,0.000003,0.000008,0.000005,-0.000032,76.724711,0.000034,
2056,2488,-4.37814537439048,-3.42208549222646,-0.0117964818402356,0.002686,-0.001061,0.000574,0.121607,-0.042637,323.948781,24.507700,0.999491,0.988978,0.004326,0.312727,-0.000007,-0.000048,0.000035,0.000013,-0.000068,29.633457,0.000072,
2476,3253,4.61554616207815,13.2358004641213,0.0080255395776021,0.002889,-0.000749,-0.000403,0.134182,-0.026503,310.974793,26.406485,0.999725,0.993489,0.003192,0.383362,-0.000019,-0.000013,0.000002,-0.000013,-0.000020,69.789256,0.000033,
2461,3073,4.32551474472044,9.32720524258777,0.00527874743494294,0.002933,-0.000768,0.000762,0.131703,-0.025118,313.870273,25.659071,0.999663,0.992141,0.003627,0.414230,-0.000017,0.000014,0.000015,0.000020,-0.000023,68.194948,0.000025,
2101,2638,-3.42473012090376,-0.15045058785055,-0.0338429539141885,0.002725,-0.000864,-0.000845,0.127614,-0.037300,321.111573,24.354399,0.999187,0.988287,0.004239,0.395684,-0.000004,-0.000003,0.000025,0.000022,-0.000028,45.701714,0.000029,
2026,2353,-5.00967538255419,-6.36952051357591,-0.00530027763716134,0.002851,-0.000755,0.000457,0.129560,-0.035900,326.363542,24.645717,0.999183,0.987697,0.004566,0.320641,-0.000001,-0.000029,0.000009,0.000002,-0.000031,15.891902,0.000035,
2071,2503,-4.05418214906956,-3.09493169355927,-0.0172787570674018,0.002884,-0.000359,-0.004029,0.144023,-0.033608,323.601421,24.389093,0.999470,0.990752,0.003944,0.406287,0.000003,-0.000040,0.000025,0.000014,-0.000051,24.603064,0.000053,
2431,2908,3.70352511324274,5.74002388553198,-0.0200638248165887,0.002743,-0.001142,0.001089,0.121569,-0.042576,316.292449,24.998863,0.999700,0.991194,0.003598,0.408583,-0.000023,-0.000011,0.000002,-0.000011,-0.000024,83.097584,0.000035,
2176,3013,-1.85529470201073,8.00371742866146,0.00852064020409671,0.002874,-0.000988,0.003988,0.119735,-0.020212,315.055252,24.643391,0.999395,0.990017,0.003948,0.373626,-0.000023,-0.000007,0.000010,-0.000002,-0.000028,63.067084,0.000034,
2011,2383,-5.34004488904317,-5.714172138233,-0.00553364099317832,0.003103,-0.000434,-0.000445,0.143764,-0.007611,325.986865,24.680729,0.999251,0.988608,0.004308,0.345294,-0.000006,-0.000027,0.000001,-0.000006,-0.000027,3.087693,0.000035,
2491,3298,4.93156529704725,14.2133204507512,-0.00011041647366028,0.002673,-0.000903,-0.001288,0.127553,-0.045842,310.197278,26.644294,0.999750,0.993510,0.003316,0.378239,-0.000015,-0.000087,-0.000015,-0.000012,-0.000090,-11.258515,0.000111,
2446,2998,4.01331021979001,7.69750307893543,-0.000909752337463487,0.002658,-0.000835,0.002895,0.111087,-0.017494,314.995963,25.403711,0.999345,0.988520,0.004119,0.366940,-0.000017,-0.000016,0.000009,-0.000007,-0.000026,46.773236,0.000035,
2416,2818,3.39487925225801,3.78109920362082,-0.017665186195245,0.002703,-0.000722,0.002227,0.115791,-0.010446,317.754457,24.706892,0.999234,0.989043,0.004292,0.418945,-0.000027,-0.000008,0.000003,-0.000008,-0.000028,79.964887,0.000037,
2206,3148,-1.22569243777562,10.9336821621662,0.0250363412321803,0.003193,-0.000518,-0.002872,0.156161,-0.024416,312.930813,24.869483,0.999503,0.993496,0.003470,0.373914,-0.000021,-0.000007,0.000002,-0.000007,-0.000021,82.712676,0.000029,
2386,2668,2.77046567658254,0.512334743350848,-0.0238731201533824,0.002534,-0.000694,-0.000929,0.119392,-0.037989,320.119686,24.240615,0.999294,0.987935,0.004389,0.392101,-0.000025,-0.000007,0.000006,-0.000005,-0.000027,72.245488,0.000034,
2356,2548,2.14092765536935,-2.10768443056261,-0.0125229412429917,0.002725,-0.000825,-0.000433,0.126237,-0.054335,322.158500,23.900145,0.999222,0.986324,0.004676,0.412670,-0.000018,-0.000017,0.000009,-0.000008,-0.000026,47.226456,0.000036,
2221,3283,-0.925730145752983,13.862397686602,0.00195193942784044,0.002927,-0.000773,-0.006024,0.154170,-0.032333,310.482928,25.117036,0.999439,0.992656,0.003409,0.340647,-0.000018,0.000000,0.000003,0.000000,-0.000019,81.544466,0.000021,
2251,2038,-0.0541036886830888,-13.2694284324028,0.0204433689501684,0.002628,-0.000437,0.002209,0.112984,-0.004911,330.738762,23.377769,0.998989,0.980314,0.005486,0.286326,-0.000035,-0.000037,0.000024,-0.000012,-0.000059,43.804139,0.000076,
2476,3268,4.61187605160051,13.5617722765324,0.00619683580930541,0.002680,-0.000847,0.002779,0.112414,-0.023132,310.690669,26.506935,0.999864,0.995410,0.002783,0.341231,-0.000017,-0.000030,0.000007,-0.000014,-0.000033,23.171927,0.000048,
2041,2413,-4.6931943442309,-5.05859462246752,-0.0163512264425094,0.002900,-0.000763,0.003784,0.122619,-0.010592,325.207750,24.507659,0.998968,0.984854,0.004782,0.408433,0.000006,-0.000064,0.000021,0.000012,-0.000070,15.472787,0.000075,
2116,2758,-3.11722355252725,2.46121511260787,-0.0178418153622601,0.002734,-0.000762,0.000908,0.122970,-0.020259,319.225111,24.410628,0.999561,0.991245,0.003715,0.375593,-0.000020,-0.000013,0.000007,-0.000009,-0.000024,58.670120,0.000033,
2506,1993,5.53069909824816,-14.2662122061477,0.0341673347970186,0.002353,-0.000030,-0.002727,0.117975,-0.007849,331.771051,21.512477,0.999269,0.974118,0.006126,0.256215,-0.000012,-0.000197,0.000083,0.000019,-0.000229,20.872101,0.000254,
2191,3103,-1.54385547949387,9.95586381101962,0.0273259454006052,0.002788,-0.001077,0.001291,0.124052,-0.043565,313.699098,24.738109,0.999467,0.992782,0.003558,0.381422,-0.000025,-0.000012,0.000000,-0.000012,-0.000025,-88.335809,0.000038,
2161,2968,-2.17378466827696,7.02642586373222,-0.000711783310521241,0.002734,-0.000918,0.001012,0.122610,-0.021281,315.767800,24.572807,0.999632,0.993734,0.003245,0.370386,-0.000017,-0.000009,0.000009,-0.000003,-0.000023,57.560869,0.000028,
2011,2398,-5.34237848281901,-5.38766334826633,-0.00478904980604966,0.002942,-0.000777,-0.000047,0.135202,-0.031028,325.743566,24.614493,0.999304,0.988472,0.004269,0.377919,-0.000001,-0.000055,-0.000006,-0.000001,-0.000056,-6.473450,0.000065,
2086,2623,-3.74793159161403,-0.478373267475398,-0.028971306682422,0.002904,-0.000854,0.001153,0.130042,-0.039033,321.471652,24.339570,0.999191,0.989446,0.004162,0.419579,-0.000013,-0.000004,0.000022,0.000014,-0.000031,50.131025,0.000031,
2056,2503,-4.38132638791154,-3.09520944443408,-0.020331210517611,0.002392,-0.001089,0.001736,0.104798,-0.041732,323.619142,24.402111,0.999499,0.989485,0.004119,0.415428,0.000004,-0.000038,0.000028,0.000018,-0.000052,26.642325,0.000053,
2101,2653,-3.42694980447928,0.176399553302588,-0.0302996435714249,0.002803,-0.000974,0.001185,0.125228,-0.032935,320.895593,24.399685,0.999444,0.989946,0.003908,0.356394,-0.000006,0.000007,0.000023,0.000025,-0.000024,52.848180,0.000028,
2461,3088,4.3221158545554,9.6536473804146,0.00245812578407367,0.002713,-0.000815,-0.000175,0.125114,-0.029417,313.593901,25.756273,0.999657,0.994251,0.003383,0.365998,-0.000017,0.000023,0.000017,0.000029,-0.000023,69.593903,0.000031,
2311,2293,1.20861380207522,-7.68187572811213,0.0102450226453357,0.002545,-0.000971,0.004475,0.101057,-0.016506,326.462332,23.494285,0.999249,0.985748,0.004760,0.355575,-0.000029,-0.000028,0.000005,-0.000024,-0.000033,47.503921,0.000057,
2131,2833,-2.80352999195063,4.09294675389425,-0.0204689530493738,0.002924,-0.000758,-0.001666,0.139354,-0.043358,317.935643,24.452334,0.999600,0.992738,0.003515,0.345943,-0.000013,-0.000007,0.000015,0.000006,-0.000025,51.141136,0.000026,
2476,3283,4.61000601680222,13.8860588197144,0.0175250596449246,0.002745,-0.000880,0.000828,0.122752,-0.044525,310.550049,26.551824,0.999852,0.995991,0.002779,0.329914,-0.000013,-0.000063,0.000006,-0.000013,-0.000064,7.126083,0.000082,
2326,2368,1.52122281908531,-6.03982331774159,-0.00683762005041899,0.002729,-0.000485,-0.000942,0.128203,-0.013906,325.126825,23.571223,0.999306,0.986196,0.004621,0.401471,-0.000026,-0.000018,0.000015,-0.000006,-0.000038,51.980844,0.000047,
2341,2473,1.82851214845197,-3.74424612908126,-0.0125043847088477,0.002858,-0.000307,-0.003110,0.141822,-0.016134,323.389264,23.809748,0.999534,0.988004,0.004234,0.376818,-0.000021,-0.000012,0.000029,0.000013,-0.000046,49.745162,0.000047,
2506,2008,5.52756197784675,-13.9366089706231,0.0282838241095078,0.002460,0.000554,-0.007191,0.140300,0.003477,331.502743,21.487691,0.999355,0.976176,0.005990,0.357166,-0.000007,-0.000187,0.000085,0.000026,-0.000221,21.635246,0.000241,
2266,2128,0.257648126660921,-11.2958725027474,0.0144033069570924,0.002928,-0.000573,-0.001592,0.139198,-0.033847,329.243469,23.396771,0.998895,0.981516,0.005378,0.311794,-0.000016,-0.000018,0.000011,-0.000006,-0.000028,43.171318,0.000036,
2401,2773,3.0772051137823,2.80058217430135,-0.022441729580521,0.002842,-0.000548,-0.001575,0.136019,-0.029129,318.451581,24.540987,0.999445,0.988966,0.004155,0.414161,-0.000033,-0.000005,0.000005,-0.000004,-0.000034,80.517944,0.000042,
2446,3013,4.01025281675758,8.02325001659736,-0.000357293182275953,0.002454,-0.000941,0.001683,0.106092,-0.041262,314.750348,25.457857,0.999081,0.986277,0.004319,0.340388,-0.000015,-0.000009,0.000010,-0.000001,-0.000023,53.691744,0.000027,
2431,2923,3.70081672009372,6.06731217436864,-0.0182627069579553,0.002693,-0.000663,-0.001037,0.127323,-0.035726,316.067608,25.149520,0.999679,0.992113,0.003618,0.314035,-0.000022,-0.000013,0.000001,-0.000013,-0.000022,81.995294,0.000036,
2281,2203,0.571036842693761,-9.65198202423596,0.00908843714904606,0.002800,-0.000524,-0.000819,0.130851,-0.036489,327.962470,23.463957,0.998505,0.979687,0.005734,0.308785,-0.000029,-0.000001,0.000003,-0.000001,-0.000029,83.793248,0.000034,
2146,2863,-2.48361228284191,4.74568019843856,-0.0211967732755056,0.002604,-0.001328,0.005178,0.103742,-0.048144,317.344782,24.471857,0.999491,0.992529,0.003529,0.354902,-0.000019,-0.000006,0.000006,-0.000003,-0.000021,68.841040,0.000027,
2041,2428,-4.69535709831614,-4.73107318932177,-0.0143369158660107,0.002906,-0.000941,0.004309,0.121377,-0.008851,324.981333,24.532071,0.998953,0.984442,0.004848,0.379781,0.000000,-0.000052,0.000032,0.000016,-0.000068,25.571313,0.000071,
2416,2833,3.39181668739981,4.10797584671904,-0.0190203945574581,0.002804,-0.001085,0.003512,0.115539,-0.024537,317.498061,24.791267,0.998710,0.987225,0.004507,0.368064,-0.000024,0.000001,0.000005,0.000002,-0.000025,79.188772,0.000028,
2296,2248,0.890242761095671,-8.66654673563023,0.0040220463336027,0.003005,-0.000336,-0.004001,0.151112,-0.034807,327.198844,23.440414,0.999122,0.982820,0.005147,0.356390,-0.000033,-0.000027,-0.000003,-0.000026,-0.000034,-67.496063,0.000060,
2506,2023,5.52422796267969,-13.6061436600444,0.0260513729151626,0.002791,0.000158,-0.003245,0.140056,-0.003010,331.241620,21.607090,0.999241,0.972171,0.006406,0.296169,0.000013,-0.000123,0.000048,0.000029,-0.000139,17.622064,0.000146,
2026,2368,-5.01175214866088,-6.04224309029215,-0.00682527748057282,0.002857,-0.000179,-0.003284,0.140296,-0.012147,326.120118,24.571142,0.999246,0.987771,0.004557,0.411029,0.000006,-0.000034,0.000009,0.000008,-0.000035,12.181022,0.000037,
2116,2773,-3.11975457901542,2.78733514478815,-0.0189744947065833,0.002785,-0.000957,0.002109,0.121673,-0.039350,318.971069,24.409263,0.999724,0.992631,0.003409,0.361355,-0.000020,-0.000009,0.000007,-0.000006,-0.000024,64.834318,0.000031,
2386,2683,2.76731372113588,0.841552411593973,-0.0356523326508977,0.003087,-0.000283,-0.002520,0.150652,-0.024448,319.807405,24.380572,0.999412,0.987919,0.004184,0.309778,-0.000027,-0.000006,0.000003,-0.000006,-0.000027,81.999483,0.000035,
2356,2563,2.13751896662967,-1.77911095859569,-0.0163656213609329,0.002458,-0.000963,-0.000463,0.114082,-0.042545,321.870163,24.007253,0.999336,0.989264,0.004326,0.357224,-0.000022,-0.000019,0.000008,-0.000012,-0.000029,49.813388,0.000043,
2251,2053,-0.0562652854331738,-12.9407836251839,0.0234004247331541,0.002834,-0.000558,0.001625,0.124310,-0.012052,330.533790,23.398680,0.999016,0.980288,0.005414,0.284727,-0.000034,-0.000025,0.000023,-0.000007,-0.000053,50.626964,0.000066,
2476,3298,4.60599189143436,14.2120950212051,0.00321807822115261,0.002822,-0.000698,-0.000872,0.132904,-0.032566,310.192948,26.589594,0.999606,0.993375,0.003482,0.359624,-0.000027,-0.000061,0.000003,-0.000027,-0.000061,4.945146,0.000090,
2221,3298,-0.92934191215193,14.1871326643106,-0.00140178994064399,0.002610,-0.000790,-0.000193,0.120779,-0.027092,310.175554,25.097608,0.999475,0.993056,0.003260,0.382695,-0.000020,-0.000011,-0.000004,-0.000009,-0.000021,-70.881901,0.000031,
2071,2518,-4.05675535863489,-2.76766526131031,-0.0187364418029006,0.002911,-0.000739,-0.001068,0.136710,-0.038351,323.339679,24.394567,0.999459,0.992005,0.003742,0.394019,0.000000,-0.000021,0.000030,0.000021,-0.000042,35.228034,0.000042,
2161,2983,-2.17688784974778,7.35242647849883,-0.0036771932794295,0.002533,-0.000991,0.003612,0.105350,-0.020801,315.481189,24.589452,0.999593,0.993648,0.003311,0.363627,-0.000019,-0.000013,0.000007,-0.000008,-0.000024,56.885904,0.000033,
2176,3028,-1.85738406368029,8.32896583120108,0.00634478274866979,0.003305,-0.001100,0.001276,0.148024,-0.028149,314.820751,24.616884,0.999514,0.991921,0.003775,0.403712,-0.000022,-0.000014,0.000005,-0.000012,-0.000024,66.463852,0.000037,
2056,2518,-4.38269881029993,-2.76793057604517,-0.0163243074085244,0.002891,-0.000562,-0.001154,0.136028,-0.041836,323.441127,24.452981,0.999368,0.990016,0.004067,0.359967,0.000000,-0.000019,0.000033,0.000025,-0.000043,37.024959,0.000044,
2371,2578,2.46167035031175,-1.45152930510242,-0.0151813920474524,0.002634,-0.000795,0.000449,0.118990,-0.021418,321.645971,24.003943,0.999341,0.987484,0.004560,0.401482,-0.000021,0.000000,0.000012,0.000006,-0.000027,65.670870,0.000028,
2011,2413,-5.34515181689833,-5.06083640234007,-0.00381095084003391,0.002415,-0.001128,0.001745,0.105982,-0.055019,325.481427,24.585033,0.999154,0.988494,0.004336,0.372882,0.000002,-0.000067,0.000012,0.000004,-0.000069,9.314958,0.000078,
2401,2788,3.07353959542168,3.12833282569868,-0.0241871189574567,0.002564,-0.000741,0.002466,0.108554,-0.013711,318.164371,24.659931,0.999518,0.988347,0.004260,0.356217,-0.000033,-0.000009,0.000003,-0.000008,-0.000033,83.630503,0.000044,
2086,2638,-3.7500603641005,-0.151201366144107,-0.0239086256891596,0.002971,-0.000842,0.003490,0.126361,-0.025905,321.266938,24.413390,0.999240,0.988865,0.004162,0.358282,-0.000009,0.000000,0.000021,0.000017,-0.000026,50.642914,0.000026,
2206,3163,-1.22873253313267,11.2587650725353,0.0252213046867951,0.002808,-0.000685,-0.002159,0.135992,-0.045773,312.667068,24.891925,0.999728,0.995274,0.003076,0.345345,-0.000019,-0.000005,0.000000,-0.000005,-0.000019,-89.920583,0.000026,
2461,3103,4.31986313664548,9.97842573887383,0.0137337135471967,0.002566,-0.000823,0.000036,0.117547,-0.033004,313.435423,25.792227,0.999572,0.992624,0.003587,0.379749,-0.000012,0.000015,0.000019,0.000024,-0.000022,63.034516,0.000027,
2026,2383,-5.01412700705294,-5.71480760824192,-0.00179103790816271,0.002582,-0.000455,-0.000327,0.119465,-0.017910,325.899672,24.608788,0.999434,0.989886,0.003964,0.359255,0.000008,-0.000027,0.000008,0.000010,-0.000028,11.884539,0.000029,
2311,2308,1.20474200601391,-7.35141387812937,-0.0110003078917771,0.002729,-0.000736,0.000586,0.122832,-0.024591,326.064099,23.529105,0.999355,0.987583,0.004715,0.347517,-0.000030,-0.000036,0.000008,-0.000025,-0.000042,35.669957,0.000067,
2491,1993,5.20217593472389,-14.2661759330382,0.0332875831777528,0.002375,-0.000166,-0.001231,0.113149,-0.015600,331.712975,21.578890,0.998992,0.967827,0.006916,0.289159,-0.000044,-0.000153,0.000050,-0.000025,-0.000172,21.089645,0.000215,
2236,1993,-0.372996576405637,-14.2593726121277,0.0332277670790404,0.002496,-0.000780,0.001593,0.108880,-0.017186,331.592889,23.328480,0.999679,0.989238,0.004438,0.347739,-0.000027,-0.000084,0.000023,-0.000019,-0.000092,19.322585,0.000119,
2131,2848,-2.80661305637556,4.41964654971076,-0.0284968729559409,0.002847,-0.000995,-0.001453,0.135184,-0.037278,317.620350,24.450545,0.999661,0.993245,0.003382,0.359376,-0.000016,-0.000005,0.000012,0.000003,-0.000024,58.062575,0.000026,
2446,3028,4.00807921149066,8.34895984460872,0.00515280227557469,0.002690,-0.001132,-0.000010,0.123206,-0.051106,314.568260,25.531477,0.999381,0.988645,0.004059,0.308360,-0.000015,-0.000001,0.000004,0.000000,-0.000016,73.906773,0.000018,
2101,2668,-3.42918634612425,0.502439595572767,-0.0284130205334918,0.002779,-0.000796,0.000289,0.126810,-0.035000,320.670141,24.367461,0.999521,0.991296,0.003724,0.388391,-0.000009,0.000005,0.000025,0.000024,-0.000028,52.645889,0.000031,
2386,2698,2.76462606303604,1.16684329880199,-0.0262083858502251,0.002740,-0.000751,-0.000054,0.125712,-0.034280,319.618059,24.363076,0.999476,0.990172,0.003866,0.360735,-0.000024,-0.000008,0.000001,-0.000008,-0.000024,85.717380,0.000034,
2191,3118,-1.54643758467363,10.280876671924,0.030407925927193,0.002490,-0.001031,-0.000080,0.114616,-0.055932,313.470545,24.750962,0.999476,0.993433,0.003449,0.369362,-0.000027,-0.000006,0.000000,-0.000006,-0.000027,-89.951047,0.000035,
2056,2533,-4.38514818127448,-2.44222975827279,-0.00732932444191192,0.002551,-0.001259,0.004835,0.103380,-0.023053,323.241667,24.389605,0.999156,0.988483,0.004298,0.437477,-0.000004,-0.000005,0.000039,0.000034,-0.000043,44.551110,0.000045,
2266,2143,0.255130990925228,-10.9644118273824,0.0135255737209832,0.003237,-0.000215,-0.000402,0.149554,0.003336,329.003467,23.621114,0.999352,0.985131,0.005055,0.153240,-0.000022,-0.000029,0.000009,-0.000016,-0.000034,34.670056,0.000052,
2251,2068,-0.0585810035049548,-12.6119558318795,0.0248054277167284,0.002838,-0.000076,-0.001165,0.133754,-0.007303,330.313845,23.412271,0.999282,0.982142,0.005086,0.302589,-0.000032,-0.000022,0.000020,-0.000007,-0.000048,51.932890,0.000059,
2041,2443,-4.69666837229148,-4.40484638627718,-0.00608208019508538,0.003088,-0.000358,0.000080,0.141684,-0.011540,324.828731,24.505356,0.998841,0.983275,0.005149,0.397223,-0.000002,-0.000055,0.000029,0.000010,-0.000068,23.808503,0.000073,
2416,2848,3.38908758903355,4.43401516323149,-0.0187815487856255,0.002733,-0.000937,0.000180,0.124544,-0.039006,317.264605,24.815430,0.999258,0.989148,0.004080,0.376915,-0.000021,-0.000002,0.000001,-0.000002,-0.000021,87.544480,0.000026,
2491,2008,5.19946549375397,-13.9366676010732,0.0335467354361185,0.002750,-0.000177,-0.001155,0.129958,-0.001181,331.490198,21.612164,0.999245,0.972888,0.006277,0.332735,-0.000029,-0.000140,0.000053,-0.000008,-0.000161,21.983506,0.000191,
2341,2488,1.82595073962988,-3.41740930162856,-0.00982720635909118,0.002823,-0.000051,-0.004079,0.143727,-0.002918,323.170673,23.790147,0.999511,0.987722,0.004200,0.447719,-0.000018,-0.000003,0.000023,0.000014,-0.000035,54.197362,0.000035,
2026,2398,-5.01640333111447,-5.38789225142137,-0.00211579895960767,0.002705,-0.000902,0.002291,0.117825,-0.038131,325.654116,24.566355,0.999436,0.990098,0.003947,0.373365,0.000012,-0.000050,0.000002,0.000012,-0.000050,1.459076,0.000052,
2146,2878,-2.48516681403231,5.07064220565524,-0.00826298301302586,0.002629,-0.001062,0.004363,0.107537,-0.028212,317.212798,24.460221,0.999505,0.991978,0.003632,0.394041,-0.000017,0.000002,0.000004,0.000003,-0.000017,78.476510,0.000019,
2011,2428,-5.34735754360976,-4.73314312815426,-0.00427237771896216,0.002467,-0.001033,0.002214,0.107151,-0.037850,325.236805,24.584924,0.999056,0.987848,0.004443,0.379888,-0.000005,-0.000059,0.000021,0.000002,-0.000066,19.131912,0.000075,
2431,2938,3.6982594363081,6.39319327231892,-0.0164941493173387,0.002885,-0.000406,-0.001997,0.139847,-0.018335,315.849861,25.163825,0.999687,0.991655,0.003715,0.366668,-0.000021,-0.000019,0.000001,-0.000018,-0.000022,61.722904,0.000040,
2281,2218,0.567725746213274,-9.3228250916543,0.00753532961897463,0.002233,-0.000291,-0.001666,0.107791,-0.022438,327.684306,23.521778,0.998785,0.981028,0.005493,0.295682,-0.000027,-0.000006,0.000001,-0.000006,-0.000027,87.593441,0.000036,
2356,2578,2.13495047079826,-1.45195677747313,-0.0147246963200587,0.002505,-0.000609,-0.001710,0.120747,-0.035294,321.647021,24.041817,0.999230,0.987548,0.004480,0.369517,-0.000022,-0.000004,0.000011,0.000001,-0.000027,63.773079,0.000031,
2071,2533,-4.05885759965486,-2.44067686614778,-0.00898971605926135,0.002964,-0.000951,0.005943,0.119157,-0.002011,323.160686,24.438705,0.999442,0.991227,0.003897,0.383684,-0.000005,-0.000008,0.000034,0.000028,-0.000041,43.749033,0.000042,
2236,2008,-0.376136282523309,-13.9301842734741,0.0296322231052955,0.002236,-0.001179,0.002072,0.095292,-0.038675,331.308896,23.321884,0.999602,0.988407,0.004566,0.357961,-0.000037,-0.000059,0.000024,-0.000022,-0.000075,32.351890,0.000101,
2116,2788,-3.12258927790142,3.11306778590426,-0.0176757939476602,0.002572,-0.001500,0.006328,0.099264,-0.031481,318.716229,24.368972,0.999631,0.992581,0.003477,0.413093,-0.000024,-0.000006,0.000008,-0.000003,-0.000028,68.370441,0.000034,
2161,2998,-2.17876363442872,7.67736550887791,0.00395445963954444,0.002590,-0.000987,0.002332,0.111917,-0.018569,315.307217,24.582860,0.999633,0.993429,0.003479,0.381801,-0.000021,-0.000007,0.000011,-0.000001,-0.000026,61.539022,0.000031,
2296,2263,0.886485852661995,-8.33571917070391,-0.00703838074309715,0.002866,-0.000229,-0.003110,0.141790,-0.015892,326.854206,23.565772,0.999462,0.988227,0.004611,0.282739,-0.000031,-0.000033,-0.000006,-0.000026,-0.000038,-41.081767,0.000065,
2506,2038,5.52087933877449,-13.2787659932457,0.036552843451318,0.002208,-0.000865,0.003072,0.088706,-0.030360,331.036604,21.614764,0.999197,0.970571,0.006506,0.325374,0.000018,-0.000093,0.000025,0.000023,-0.000098,11.940811,0.000103,
2326,2383,1.51806775459391,-5.71137225492502,-0.00610073479077755,0.002575,-0.001032,0.002622,0.108663,-0.040496,324.870627,23.686659,0.999477,0.987436,0.004612,0.295589,-0.000023,-0.000019,0.000012,-0.000009,-0.000033,49.739181,0.000045,
2491,2023,5.19719327081934,-13.6070556147189,0.0373794627170696,0.002867,0.000356,-0.005792,0.153262,-0.002063,331.303521,21.716063,0.999238,0.972268,0.006244,0.290064,-0.000005,-0.000089,0.000028,0.000004,-0.000097,16.623113,0.000110,
2371,2593,2.4585452757117,-1.12452639052282,-0.018630694661681,0.002514,-0.000915,-0.001207,0.119297,-0.051996,321.374177,24.023095,0.999310,0.987551,0.004465,0.393551,-0.000020,-0.000012,0.000008,-0.000007,-0.000025,58.272747,0.000033,
2101,2683,-3.4314774120376,0.828665036506351,-0.0265054084524081,0.002763,-0.000611,0.000345,0.125984,-0.025693,320.442230,24.345403,0.999502,0.992019,0.003582,0.421207,-0.000015,0.000002,0.000020,0.000015,-0.000028,56.730824,0.000028,
2176,3043,-1.85952542621029,8.65559460530985,0.0108096944156841,0.003116,-0.000314,-0.003255,0.153566,-0.022708,314.618209,24.752061,0.999656,0.995315,0.003210,0.285047,-0.000025,-0.000017,0.000001,-0.000017,-0.000025,80.606382,0.000042,
2461,3118,4.31722747238716,10.3037504615885,0.0148827908237195,0.002973,-0.000894,0.001473,0.130828,-0.031700,313.212611,25.813106,0.999581,0.991151,0.003728,0.413554,-0.000009,0.000018,0.000017,0.000026,-0.000018,63.768594,0.000027,
2086,2653,-3.75185491229856,0.17479081022168,-0.0178914943577411,0.003262,-0.001052,0.005100,0.135122,-0.013408,321.083067,24.391583,0.999495,0.990155,0.003843,0.391978,-0.000013,0.000009,0.000018,0.000019,-0.000023,60.655102,0.000025,
2311,2323,1.20234215022426,-7.02391866771642,-0.00385987475789307,0.002745,-0.001044,0.003265,0.114360,-0.033085,325.872991,23.582462,0.999177,0.984548,0.004996,0.319808,-0.000028,-0.000035,0.000015,-0.000016,-0.000047,37.805988,0.000065,
2446,3043,4.00549633200374,8.67459963769078,0.00615072105767922,0.002928,-0.000970,-0.001143,0.138505,-0.038193,314.346410,25.549614,0.999330,0.988219,0.004086,0.354363,-0.000014,0.000010,0.000007,0.000012,-0.000016,75.133847,0.000017,
2011,2443,-5.34936328203726,-4.40445748048331,-0.0052385605068821,0.002639,-0.000644,0.000709,0.119260,-0.020334,324.998259,24.675434,0.999346,0.990758,0.003976,0.296261,0.000002,-0.000067,0.000019,0.000007,-0.000072,14.494786,0.000080,
2041,2458,-4.69927834973188,-4.07765577893297,-0.0103215033466881,0.002967,-0.000598,-0.000400,0.137374,-0.032627,324.547478,24.473119,0.998982,0.983347,0.005138,0.402470,0.000000,-0.000057,0.000025,0.000010,-0.000066,20.406507,0.000071,
2026,2413,-5.01889016515271,-5.05931654553711,-0.0104316325549121,0.002876,-0.000705,0.001102,0.129040,-0.025835,325.353942,24.572530,0.999147,0.987640,0.004459,0.371628,0.000013,-0.000067,0.000015,0.000016,-0.000069,10.230942,0.000073,
2506,2053,5.51690054312065,-12.9482894476214,0.0347209462234446,0.002068,-0.001719,0.009429,0.057455,-0.038524,330.747533,21.752265,0.999262,0.981663,0.005463,0.244318,0.000016,-0.000079,0.000018,0.000019,-0.000082,10.309143,0.000086,
2056,2548,-4.38776359395907,-2.11391147863338,-0.0192546194042507,0.002917,-0.001045,0.003932,0.122814,-0.032146,322.918914,24.411678,0.999401,0.989539,0.004081,0.402481,-0.000003,0.000005,0.000034,0.000036,-0.000034,48.097269,0.000040,
2401,2803,3.07092293628385,3.45434066391791,-0.0262432629219802,0.002769,-0.000759,-0.000803,0.129879,-0.019013,317.924321,24.641453,0.999538,0.990351,0.004053,0.414940,-0.000029,-0.000007,0.000004,-0.000006,-0.000029,79.956287,0.000038,
2251,2083,-0.0623889157419271,-12.2817642637735,0.0157824675839038,0.002682,-0.001040,0.004009,0.109429,-0.024188,329.973057,23.462384,0.999346,0.982510,0.005169,0.262748,-0.000028,-0.000020,0.000014,-0.000010,-0.000038,52.446602,0.000051,
2491,2038,5.19333840859583,-13.2788062468992,0.0413720476126969,0.002100,0.000079,-0.001834,0.103003,-0.023960,331.045133,21.723790,0.999280,0.972846,0.006279,0.322834,0.000001,-0.000075,0.000012,0.000003,-0.000077,8.534218,0.000087,
2386,2713,2.7623881379915,1.49273846966444,-0.0196973020921405,0.002842,-0.000853,-0.000563,0.132174,-0.043622,319.435277,24.379933,0.999656,0.991937,0.003507,0.377958,-0.000028,-0.000009,-0.000001,-0.000009,-0.000028,-88.161976,0.000038,
2236,2023,-0.377277974885995,-13.6011294098925,0.0355973327585843,0.002968,-0.000381,-0.002049,0.142423,-0.029647,331.164500,23.386309,0.998848,0.981548,0.005600,0.326675,-0.000039,-0.000049,0.000019,-0.000024,-0.000064,37.313266,0.000091,
2146,2893,-2.48729258103583,5.39644423662554,-0.0115118903142388,0.002905,-0.001079,-0.000307,0.134352,-0.046248,316.968492,24.448585,0.999460,0.990370,0.003992,0.395210,-0.000020,-0.000005,0.000003,-0.000004,-0.000020,77.500746,0.000026,
2206,3178,-1.23102393289802,11.5846069348819,0.0234833111845774,0.003170,-0.000301,-0.003414,0.156914,-0.013460,312.427448,24.923115,0.999678,0.994978,0.003121,0.362096,-0.000019,-0.000006,0.000000,-0.000006,-0.000019,-88.494823,0.000026,
2266,2158,0.252167163047556,-10.6374164252581,0.015903731349681,0.002601,-0.000151,-0.002394,0.127019,0.002412,328.760069,23.516420,0.999142,0.983690,0.005173,0.285208,-0.000025,-0.000023,0.000008,-0.000016,-0.000031,48.453136,0.000049,
2131,2863,-2.80848591559749,4.74447684595127,-0.0147366295386746,0.002690,-0.001057,0.000874,0.120940,-0.042843,317.477587,24.455212,0.999627,0.992560,0.003470,0.354373,-0.000016,-0.000006,0.000010,0.000000,-0.000022,57.992837,0.000025,
2431,2953,3.69437656633849,6.71947325070533,-0.0205855043319048,0.002442,-0.000681,-0.000329,0.113178,-0.029978,315.543693,25.207077,0.999748,0.993218,0.003469,0.361300,-0.000025,-0.000018,0.000004,-0.000016,-0.000027,68.863210,0.000043,
2416,2863,3.38666869062627,4.7607926249242,-0.020038638218125,0.003013,-0.000613,-0.004191,0.153579,-0.030939,317.038120,24.878158,0.999445,0.990084,0.003888,0.369739,-0.000022,0.000001,0.000000,0.000001,-0.000022,-89.360161,0.000025,
2356,2593,2.13202929123434,-1.12405535014832,-0.0211909704968321,0.002778,-0.000801,-0.003634,0.139997,-0.053783,321.368543,24.104911,0.999214,0.987063,0.004527,0.327878,-0.000019,-0.000019,0.000007,-0.000012,-0.000026,44.386255,0.000039,
2281,2233,0.565305764662615,-8.99435075707164,0.00961476048695431,0.002378,-0.000582,-0.001338,0.113264,-0.023592,327.465133,23.575263,0.998920,0.980424,0.005435,0.271026,-0.000031,-0.000010,0.000001,-0.000010,-0.000032,86.549777,0.000043,
2191,3133,-1.54868706296694,10.6069963193074,0.0292032769492607,0.002872,-0.000827,-0.000737,0.134472,-0.023289,313.234480,24.797995,0.999399,0.993170,0.003589,0.368479,-0.000024,-0.000006,0.000001,-0.000006,-0.000024,85.982498,0.000032,
2101,2698,-3.43391133534414,1.15562400354442,-0.0245059947021673,0.002570,-0.000785,-0.000156,0.118551,-0.022399,320.208082,24.401671,0.999294,0.991294,0.003823,0.369915,-0.000013,-0.000013,0.000018,0.000005,-0.000031,45.486864,0.000033,
2341,2503,1.822145859616,-3.08971001510726,-0.0146819848931159,0.002443,-0.000680,-0.000932,0.115079,-0.031683,322.858477,23.827753,0.999360,0.987107,0.004352,0.419200,-0.000019,-0.000008,0.000021,0.000008,-0.000035,52.274529,0.000037,
2371,2608,2.45611712048371,-0.796715241191507,-0.0204716432742202,0.002964,-0.000336,-0.002907,0.146266,-0.023489,321.141666,24.076302,0.999210,0.987200,0.004420,0.410979,-0.000022,-0.000010,0.000007,-0.000006,-0.000026,64.982647,0.000034,
2326,2398,1.51626891399402,-5.38506155837051,0.00145398950951403,0.002534,-0.000246,-0.003204,0.127146,-0.031856,324.710024,23.640951,0.999471,0.987911,0.004569,0.385689,-0.000022,-0.000011,0.000016,0.000001,-0.000033,54.395590,0.000038,
2461,3133,4.31433647774954,10.6296655804805,0.0160537172034765,0.002941,-0.001003,0.000661,0.132306,-0.051116,312.977881,25.913104,0.999581,0.990116,0.003781,0.347240,-0.000008,0.000016,0.000012,0.000021,-0.000013,67.555138,0.000021,
2071,2548,-4.06153305327551,-2.11335937328916,-0.0179010390505709,0.003040,-0.000823,0.003854,0.128633,-0.007811,322.853517,24.393061,0.999497,0.991814,0.003881,0.421665,-0.000004,0.000002,0.000034,0.000033,-0.000035,47.679262,0.000039,
2161,3013,-2.18144367080846,8.0032360357938,0.00194714193457912,0.002443,-0.000575,0.000354,0.111378,-0.007772,315.045101,24.591944,0.999484,0.990952,0.003886,0.392744,-0.000020,-0.000007,0.000010,-0.000001,-0.000025,61.665171,0.000030,
2086,2668,-3.75454849989972,0.501199897062378,-0.0197787962934513,0.002974,-0.000863,0.003839,0.125548,-0.013842,320.814970,24.359098,0.999437,0.990713,0.003815,0.423583,-0.000018,0.000007,0.000020,0.000019,-0.000029,60.908474,0.000030,
2116,2803,-3.12436457029947,3.43929580859944,-0.0128023871497476,0.002619,-0.001032,0.001729,0.115155,-0.040767,318.529060,24.422764,0.999595,0.992928,0.003412,0.353336,-0.000024,-0.000010,0.000015,0.000000,-0.000034,57.157308,0.000039,
2506,2068,5.51582726964133,-12.6197727011018,0.0489042386608958,0.002551,-0.000866,0.005142,0.096403,-0.005518,330.662662,21.852844,0.999429,0.984006,0.005096,0.240300,0.000011,-0.000053,0.000010,0.000012,-0.000055,9.009892,0.000058,
2236,2038,-0.38042213741333,-13.2714392048715,0.0282284704575773,0.003004,-0.000539,-0.001142,0.141104,-0.041486,330.861003,23.384813,0.998876,0.979589,0.005609,0.341332,-0.000034,-0.000034,0.000018,-0.000016,-0.000052,45.497995,0.000071,
2491,2053,5.18845979832031,-12.94606814851,0.0200197305987331,0.002307,-0.000522,0.000148,0.104676,-0.041723,330.625899,21.858774,0.999115,0.978010,0.005807,0.233134,0.000000,-0.000064,0.000008,0.000001,-0.000065,7.154958,0.000074,
2056,2563,-4.38955053103465,-1.78725613175517,-0.018249228196737,0.002997,-0.000767,-0.002096,0.143595,-0.033450,322.705642,24.393768,0.999399,0.987904,0.004300,0.414437,-0.000006,0.000002,0.000028,0.000027,-0.000030,49.230211,0.000033,
2296,2278,0.884331471665185,-8.00970904605708,0.00542920134409997,0.002905,-0.001190,0.002330,0.124893,-0.031254,326.700025,23.529786,0.999416,0.986877,0.004629,0.335114,-0.000030,-0.000034,-0.000007,-0.000025,-0.000039,-37.276512,0.000064,
2011,2458,-5.35108112783065,-4.07817517125183,-0.00430643556558152,0.002935,-0.000247,-0.001473,0.138936,-0.022361,324.784223,24.588286,0.999483,0.990839,0.003859,0.370847,0.000003,-0.000078,0.000016,0.000006,-0.000081,10.953059,0.000090,
2251,2098,-0.0644692007153971,-11.9533412544194,0.0164749159146709,0.002889,-0.000801,0.000034,0.131958,-0.040036,329.760387,23.462985,0.999239,0.981383,0.005494,0.272453,-0.000024,-0.000018,0.000012,-0.000009,-0.000034,52.126308,0.000045,
2446,3058,4.00230257206819,9.0008653122038,0.00672615054497783,0.002799,-0.000839,0.000260,0.127435,-0.027437,314.094215,25.628871,0.999571,0.990592,0.003828,0.337147,-0.000013,0.000006,0.000011,0.000011,-0.000018,65.587592,0.000018,
2491,2068,5.18518778507256,-12.6159535668576,0.0114324437514028,0.002709,-0.000475,-0.001634,0.129854,-0.028922,330.337360,21.873799,0.999275,0.979551,0.005699,0.293423,-0.000004,-0.000039,0.000005,-0.000004,-0.000040,7.774220,0.000049,
2131,2878,-2.81030531631335,5.06871587900846,-0.00290358246684264,0.002622,-0.000867,0.001826,0.114977,-0.035914,317.327161,24.381321,0.999653,0.991849,0.003518,0.440523,-0.000012,0.000002,0.000009,0.000006,-0.000016,65.128176,0.000016,
2356,2608,2.12959949908442,-0.797229287437098,-0.0159883565114569,0.002970,-0.000476,-0.001227,0.140511,-0.011690,321.168770,24.114751,0.999227,0.987035,0.004488,0.399606,-0.000021,-0.000020,0.000007,-0.000014,-0.000027,45.493009,0.000042,
2176,3058,-1.86204625803428,8.97901637216484,0.0204529522265489,0.002743,-0.000801,0.000368,0.125048,-0.024399,314.426515,24.636283,0.999680,0.995432,0.003142,0.410596,-0.000022,-0.000015,0.000000,-0.000015,-0.000023,-86.542994,0.000038,
2101,2713,-3.4363126622482,1.48170217150981,-0.0246766916569072,0.002677,-0.000970,0.001396,0.118833,-0.035715,319.963997,24.380385,0.999368,0.990504,0.003905,0.379186,-0.000015,0.000001,0.000016,0.000010,-0.000025,57.853705,0.000025,
2281,2248,0.562756474969031,-8.66724188006248,0.00869429469781835,0.002566,-0.000938,-0.001521,0.122344,-0.055470,327.225433,23.508835,0.999165,0.981435,0.005273,0.335679,-0.000032,-0.000030,-0.000003,-0.000028,-0.000035,-55.880968,0.000063,
2416,2878,3.38340366339744,5.08742756946447,-0.022198077717178,0.002892,-0.000509,-0.003911,0.147026,-0.022777,316.768445,24.925710,0.999494,0.991362,0.003668,0.377871,-0.000022,-0.000004,0.000001,-0.000004,-0.000022,88.131193,0.000027,
2026,2428,-5.02165960652127,-4.73166858065689,-0.0137358447409497,0.002557,-0.000748,0.001473,0.113350,-0.019164,325.069003,24.552875,0.999034,0.985842,0.004706,0.389947,0.000006,-0.000055,0.000025,0.000015,-0.000064,19.570820,0.000067,
2206,3193,-1.23319284524758,11.908573850599,0.0310930281676178,0.003151,-0.000680,-0.002570,0.153325,-0.015486,312.242605,24.874629,0.999764,0.996221,0.002933,0.424108,-0.000018,-0.000008,-0.000004,-0.000007,-0.000020,-71.814916,0.000028,
2266,2173,0.248500474972211,-10.3094830543975,0.00847446167620092,0.002252,-0.000607,-0.000618,0.105020,-0.017727,328.435360,23.417539,0.999400,0.984755,0.005058,0.392901,-0.000021,-0.000018,0.000009,-0.000011,-0.000029,49.028829,0.000041,
2371,2623,2.45264488477487,-0.469591484277863,-0.0234988373077272,0.002781,-0.000667,-0.000523,0.129288,-0.022168,320.855698,24.088612,0.999197,0.987661,0.004375,0.441721,-0.000024,-0.000002,0.000003,-0.000001,-0.000025,81.517012,0.000029,
2311,2338,1.19957783857361,-6.69601460856534,-0.00448091261245054,0.002769,-0.000937,0.003181,0.115819,-0.019373,325.626899,23.578749,0.999215,0.984297,0.004819,0.371414,-0.000026,-0.000025,0.000014,-0.000012,-0.000039,45.731011,0.000053,
2086,2683,-3.7574026265843,0.827750797749758,-0.0243514309033799,0.002666,-0.000970,0.002076,0.116457,-0.025836,320.524905,24.333872,0.999575,0.992522,0.003430,0.436439,-0.000025,0.000003,0.000014,0.000009,-0.000031,67.081664,0.000032,
2146,2908,-2.48934791077809,5.72207844488265,-0.0055859566589902,0.002987,-0.001124,0.000204,0.136599,-0.050168,316.776165,24.478178,0.999370,0.989545,0.004087,0.369003,-0.000020,-0.000011,0.000003,-0.000010,-0.000021,74.892092,0.000032,
2041,2473,-4.7020788851695,-3.74907522464155,-0.0196463630848598,0.002825,-0.000447,-0.003285,0.138944,-0.035768,324.228950,24.508809,0.998799,0.982930,0.005210,0.357473,0.000004,-0.000060,0.000035,0.000020,-0.000075,23.906650,0.000078,
2506,2083,5.5121128946231,-12.2911941669675,0.0382140777915083,0.002450,-0.000270,0.000386,0.110367,0.013155,330.346103,21.702792,0.999467,0.985417,0.004773,0.474104,0.000004,-0.000040,0.000009,0.000005,-0.000041,10.727347,0.000045,
2401,2818,3.06845959580729,3.78073829493039,-0.0205958914500002,0.002827,-0.000737,-0.000203,0.130400,-0.013619,317.727473,24.711533,0.999497,0.989646,0.004209,0.395661,-0.000033,-0.000009,0.000002,-0.000008,-0.000033,84.191506,0.000044,
2161,3028,-2.18340487559164,8.32812321503793,0.00520425290665116,0.002722,-0.000952,-0.000759,0.127484,-0.039369,314.844165,24.591983,0.999422,0.989652,0.004235,0.370405,-0.000019,-0.000010,0.000005,-0.000007,-0.000021,65.665737,0.000030,
2431,2968,3.69146423419127,7.04494266574,-0.0201106759647587,0.002341,-0.000712,-0.001809,0.113961,-0.049703,315.303600,25.219967,0.999857,0.995393,0.003010,0.377756,-0.000028,-0.000014,0.000004,-0.000013,-0.000029,74.666410,0.000042,
2071,2563,-4.06426015445931,-1.78534447605086,-0.0289263483351192,0.002940,-0.000567,-0.002431,0.142025,-0.024980,322.532261,24.410016,0.999225,0.989094,0.004274,0.385458,-0.000009,0.000001,0.000027,0.000024,-0.000031,50.092178,0.000033,
2236,2053,-0.383547238393771,-12.9408302941394,0.0254297158745658,0.002800,-0.000564,0.000525,0.126373,-0.033190,330.581284,23.504465,0.998825,0.978030,0.005675,0.254854,-0.000031,-0.000020,0.000017,-0.000008,-0.000043,54.461675,0.000055,
2116,2818,-3.12669377231286,3.7661050551003,-0.0200431390040876,0.003002,-0.000495,-0.001254,0.141812,-0.020989,318.251135,24.412548,0.999527,0.992549,0.003572,0.386617,-0.000019,-0.000005,0.000016,0.000005,-0.000030,56.502221,0.000032,
2296,2293,0.881116430287875,-7.68108572182197,0.0092923188125269,0.002359,-0.001202,0.005436,0.089384,-0.018089,326.454196,23.621228,0.999410,0.986420,0.004614,0.289005,-0.000029,-0.000028,0.000004,-0.000024,-0.000033,47.340059,0.000057,
2341,2518,1.81957587750333,-2.76124067975991,-0.0140225006690571,0.002562,-0.000275,-0.001940,0.124220,-0.023993,322.629320,23.954564,0.999016,0.984051,0.004757,0.337852,-0.000023,-0.000010,0.000017,0.000001,-0.000035,55.150232,0.000040,
2056,2578,-4.3919967648338,-1.45982211007379,-0.0223237099526159,0.003193,-0.000587,-0.000686,0.148683,-0.024852,322.434015,24.397683,0.999175,0.988484,0.004266,0.414458,-0.000013,-0.000010,0.000020,0.000008,-0.000031,47.078287,0.000032,
2386,2728,2.75955273464357,1.81938323450706,-0.0199734328365366,0.003051,-0.001261,0.001056,0.135859,-0.050364,319.192582,24.412189,0.999625,0.991261,0.003730,0.382617,-0.000033,-0.000006,0.000003,-0.000006,-0.000033,83.948422,0.000042,
2011,2473,-5.35392260398615,-3.75086799586079,-0.00600326514285143,0.002724,-0.001018,0.003907,0.114429,-0.026126,324.503865,24.577306,0.999116,0.987691,0.004405,0.367285,0.000011,-0.000078,0.000036,0.000023,-0.000091,19.294652,0.000094,
2191,3148,-1.55143949005204,10.9324472666263,0.0275695558188431,0.002903,-0.000965,0.000407,0.132238,-0.037459,312.973315,24.831642,0.999096,0.992000,0.003925,0.334048,-0.000020,-0.000006,0.000002,-0.000005,-0.000020,81.848546,0.000027,
2326,2413,1.51265593292762,-5.05761034777412,-0.00629727089898324,0.002459,-0.000538,-0.000876,0.115572,-0.047218,324.391487,23.582381,0.999445,0.987945,0.004571,0.465175,-0.000025,-0.000006,0.000021,0.000007,-0.000038,57.776978,0.000040,
2491,2083,5.18272108578002,-12.2877157754142,0.0154986330914539,0.002716,0.000006,-0.004865,0.142746,-0.029508,330.142553,21.877115,0.999353,0.979057,0.005547,0.351558,-0.000009,-0.000025,0.000007,-0.000006,-0.000028,20.056223,0.000036,
2446,3073,3.99910583519029,9.32616314271489,0.0013133129423295,0.002996,-0.001071,-0.000272,0.138324,-0.048457,313.814440,25.616094,0.999726,0.993450,0.003360,0.380201,-0.000012,0.000010,0.000011,0.000015,-0.000016,67.650094,0.000018,
2251,2113,-0.0673401458639162,-11.6242898811605,0.0180920536627696,0.002528,-0.000302,0.000056,0.115526,-0.007818,329.515854,23.488452,0.999042,0.981053,0.005459,0.305842,-0.000020,-0.000020,0.000010,-0.000010,-0.000031,45.052354,0.000042,
2356,2623,2.12581873491795,-0.470006526748676,-0.0157594486550465,0.002279,-0.000875,0.002199,0.096596,-0.009377,320.883006,24.162489,0.999110,0.987256,0.004503,0.393689,-0.000022,-0.000011,0.000004,-0.000010,-0.000023,73.428455,0.000034,
2461,3148,4.31158006899744,10.9553907417216,0.0182921439584902,0.002829,-0.000597,-0.001648,0.136047,-0.039656,312.754219,25.974955,0.999542,0.989524,0.003777,0.349989,-0.000009,0.000006,0.000010,0.000011,-0.000014,63.709970,0.000015,
2026,2443,-5.02336028741007,-4.40304455782758,-0.017116191491084,0.003096,-0.000201,-0.001850,0.147387,-0.018474,324.832277,24.632898,0.999391,0.990456,0.004033,0.302190,0.000006,-0.000062,0.000020,0.000011,-0.000067,15.162576,0.000072,
2506,2098,5.50817032829919,-11.9579806136414,0.0274084214464665,0.002772,-0.000645,0.002552,0.116608,-0.019967,330.018475,22.033407,0.999579,0.986717,0.004706,0.174812,-0.000007,-0.000028,-0.000002,-0.000007,-0.000028,-5.536163,0.000037,
2101,2728,-3.43900177368959,1.80924445631162,-0.0337813981124668,0.002761,-0.000341,-0.001889,0.132576,-0.009495,319.657891,24.386867,0.999360,0.989741,0.004025,0.400616,-0.000019,0.000002,0.000017,0.000011,-0.000029,60.660736,0.000029,
2131,2893,-2.81273478803552,5.39556464970394,-0.00860417675181679,0.002801,-0.000832,-0.001797,0.134140,-0.043823,317.054252,24.437332,0.999489,0.991024,0.003870,0.381770,-0.000016,-0.000006,0.000007,-0.000002,-0.000020,62.550378,0.000024,
2011,2488,-5.35629314814588,-3.42326737161262,-0.0153960209304387,0.003060,-0.000921,0.002908,0.132664,-0.025542,324.201835,24.523516,0.999233,0.988137,0.004346,0.411267,0.000005,-0.000073,0.000040,0.000022,-0.000090,22.689253,0.000094,
2041,2488,-4.70359430271594,-3.42298659725915,-0.0115487622474006,0.003155,-0.000623,-0.002041,0.150587,-0.040629,324.066263,24.483473,0.999458,0.988046,0.004426,0.371453,0.000000,-0.000052,0.000039,0.000021,-0.000074,28.267413,0.000076,
2086,2698,-3.76004902197403,1.15475239928725,-0.0269245849046911,0.002524,-0.000952,0.001581,0.111377,-0.019071,320.255045,24.352796,0.999420,0.991658,0.003683,0.423653,-0.000023,-0.000009,0.000014,0.000000,-0.000031,57.999700,0.000036,
2416,2893,3.38076869520657,5.41372714784009,-0.0172384170192004,0.003000,-0.000528,-0.001500,0.143183,-0.021117,316.561133,25.005183,0.999549,0.991226,0.003703,0.347276,-0.000021,-0.000008,0.000002,-0.000007,-0.000021,82.821416,0.000030,
2311,2353,1.19690757944181,-6.36765737593252,-0.0055562859573115,0.002793,-0.000955,0.001285,0.123332,-0.036797,325.382897,23.648267,0.999380,0.986193,0.004515,0.318367,-0.000025,-0.000023,0.000014,-0.000010,-0.000038,46.560993,0.000051,
2161,3043,-2.18497167794332,8.65341301804885,0.0171248449266272,0.002824,-0.000633,-0.001776,0.135416,-0.025857,314.706909,24.644538,0.999553,0.993318,0.003518,0.340474,-0.000021,-0.000012,0.000002,-0.000011,-0.000022,78.907614,0.000034,
2071,2578,-4.06680163809735,-1.4582443111826,-0.0288546919139208,0.002948,-0.000573,0.001153,0.132197,-0.002755,322.280305,24.407068,0.999058,0.988623,0.004420,0.408255,-0.000017,-0.000011,0.000022,0.000008,-0.000036,49.082508,0.000038,
2236,2068,-0.385848478877246,-12.6120420657325,0.0283718844047485,0.002720,-0.000156,-0.001758,0.130200,-0.015144,330.368476,23.517860,0.999143,0.980207,0.005381,0.283744,-0.000027,-0.000019,0.000014,-0.000008,-0.000038,52.426909,0.000049,
2371,2638,2.45004451878397,-0.141868152661438,-0.0252791808882193,0.003142,-0.000802,-0.001168,0.148076,-0.035711,320.615580,24.186291,0.999188,0.988009,0.004338,0.372186,-0.000027,0.000000,0.000004,0.000000,-0.000028,81.408914,0.000032,
2266,2188,0.246641588358486,-9.98048846966681,0.016001237341527,0.002762,-0.000878,0.002787,0.117065,-0.023672,328.267988,23.564953,0.998995,0.983877,0.005208,0.267216,-0.000026,-0.000015,0.000001,-0.000015,-0.000026,83.244066,0.000041,
2491,2098,5.18136421103084,-11.9608738129927,0.039951957025778,0.002757,-0.000551,-0.000569,0.128014,-0.053664,330.090162,22.004866,0.999620,0.984565,0.004917,0.260311,-0.000018,-0.000023,-0.000004,-0.000016,-0.000025,-28.462378,0.000041,
2341,2533,1.81675359785527,-2.43414867055109,-0.0162387889261595,0.002692,-0.000559,-0.002310,0.131371,-0.028034,322.374909,23.945898,0.999141,0.984941,0.004729,0.380096,-0.000020,-0.000015,0.000011,-0.000006,-0.000029,52.203011,0.000037,
2446,3088,3.9970710131912,9.65233475023567,0.0129616729228132,0.003002,-0.000663,-0.000348,0.139163,-0.009241,313.666663,25.736811,0.999701,0.993607,0.003404,0.349882,-0.000012,0.000016,0.000013,0.000021,-0.000017,69.274229,0.000022,
2056,2593,-4.39510026632438,-1.13100871154771,-0.0293539234484683,0.003021,-0.000616,0.002322,0.132294,-0.013868,322.115649,24.505384,0.998910,0.987958,0.004323,0.313519,-0.000018,0.000006,0.000022,0.000019,-0.000031,59.560097,0.000032,
2401,2833,3.06543136449003,4.10790579234569,-0.0263545400525231,0.003111,-0.000633,-0.001069,0.146603,-0.025833,317.450624,24.787547,0.999320,0.989108,0.004189,0.352839,-0.000030,0.000000,0.000005,0.000000,-0.000030,81.170362,0.000035,
2206,3208,-1.23626226571162,12.2336840878496,0.0331212387002893,0.002826,-0.000800,0.001215,0.126241,-0.014749,311.986995,24.899279,0.999623,0.994477,0.003250,0.415441,-0.000017,-0.000014,-0.000005,-0.000010,-0.000020,-55.786939,0.000031,
2146,2923,-2.49170713020694,6.04800883323649,-0.00204568573929009,0.002850,-0.000709,-0.000424,0.132344,-0.027029,316.557087,24.494492,0.999128,0.986488,0.004513,0.383080,-0.000021,-0.000011,0.000004,-0.000010,-0.000022,70.371730,0.000033,
2191,3163,-1.55485856833078,11.2587062133001,0.0165390629723561,0.002787,-0.000875,-0.000312,0.129078,-0.049715,312.632162,24.885606,0.999620,0.995123,0.003154,0.280950,-0.000019,-0.000003,0.000000,-0.000003,-0.000019,-88.664774,0.000024,
2011,2503,-5.35913665741795,-3.09441332423066,-0.0243444144905993,0.002799,-0.000918,0.000070,0.128357,-0.022747,323.880327,24.592454,0.999614,0.992817,0.003704,0.334535,0.000014,-0.000058,0.000030,0.000025,-0.000068,19.828053,0.000069,
2176,3073,-1.86458838323029,9.30355120625903,0.0222664022427921,0.002666,-0.000611,0.000796,0.120211,-0.021838,314.192371,24.571044,0.999661,0.995434,0.003073,0.489908,-0.000020,-0.000011,-0.000002,-0.000010,-0.000020,-81.237822,0.000031,
2506,2113,5.504897237351,-11.6303213383361,0.0256011421476501,0.002602,-0.000687,0.000643,0.116184,-0.036703,329.761695,21.945451,0.999594,0.986985,0.004726,0.310292,-0.000021,-0.000037,-0.000011,-0.000016,-0.000042,-27.547372,0.000060,
2326,2428,1.50913408400072,-4.7263582968773,-0.0215341890816489,0.002942,-0.000315,-0.000154,0.135382,-0.011773,324.039685,23.756498,0.999549,0.990098,0.004191,0.362986,-0.000024,-0.000019,0.000019,-0.000002,-0.000041,48.734324,0.000048,
2116,2833,-3.12972670083188,4.09283299442757,-0.0221660935450245,0.002775,-0.000911,0.002262,0.120817,-0.033410,317.968540,24.471057,0.999689,0.993051,0.003487,0.319194,-0.000018,-0.000003,0.000016,0.000007,-0.000028,57.950394,0.000029,
2281,2263,0.558823959331324,-8.33523116252822,-0.00526751908915912,0.002512,-0.000572,0.000475,0.113374,-0.025871,326.856452,23.701542,0.999459,0.986840,0.004699,0.203140,-0.000032,-0.000035,-0.000006,-0.000027,-0.000040,-39.785112,0.000068,
2296,2308,0.87846969656934,-7.35348541755605,0.000121278426775007,0.002898,-0.001117,0.002648,0.123528,-0.031848,326.170244,23.520331,0.999284,0.985472,0.004919,0.408324,-0.000032,-0.000037,0.000009,-0.000025,-0.000043,37.437821,0.000069,
2101,2743,-3.44134394340161,2.13502492941938,-0.0258763836070557,0.002541,-0.000973,0.001606,0.111996,-0.029157,319.460290,24.418569,0.999435,0.990280,0.003922,0.350372,-0.000024,-0.000003,0.000012,0.000002,-0.000029,65.732620,0.000033,
2071,2593,-4.06926936610324,-1.13153862698537,-0.0271553146586143,0.002793,-0.000714,0.002554,0.121044,-0.017471,322.040860,24.423559,0.999105,0.988967,0.004226,0.374741,-0.000020,0.000003,0.000026,0.000020,-0.000037,57.135304,0.000037,
2356,2638,2.12371335554647,-0.143228363821045,-0.0123888970033477,0.002615,-0.000904,0.000392,0.118363,-0.036527,320.689425,24.229767,0.999242,0.987470,0.004448,0.338747,-0.000026,-0.000008,0.000004,-0.000007,-0.000026,78.858473,0.000035,
2386,2743,2.75680505025104,2.14620853042136,-0.0188426141309037,0.002878,-0.000621,-0.001871,0.138666,-0.027254,318.960427,24.446980,0.999642,0.991658,0.003736,0.414324,-0.000033,-0.000004,0.000003,-0.000003,-0.000034,83.423132,0.000041,
2026,2458,-5.02629017779065,-4.0761950029042,-0.026918793072241,0.003086,-0.000495,-0.000136,0.142172,-0.021672,324.504083,24.500567,0.999496,0.990641,0.003917,0.423274,0.000006,-0.000067,0.000016,0.000009,-0.000070,12.032431,0.000076,
2461,3163,4.30899277049096,11.2807021671295,0.023362652177866,0.002773,-0.000684,-0.002511,0.136693,-0.043331,312.551409,26.034334,0.999619,0.990920,0.003692,0.340360,-0.000011,0.000005,0.000009,0.000010,-0.000015,65.495338,0.000016,
2431,2983,3.68972945716493,7.36967720498875,-0.00381813956835231,0.002536,-0.000853,0.001640,0.110156,-0.036700,315.191421,25.244766,0.999670,0.991890,0.003591,0.415122,-0.000025,-0.000012,0.000004,-0.000011,-0.000026,73.121636,0.000038,
2131,2908,-2.81459288761183,5.72043137545043,-0.00544921752339178,0.003142,-0.001056,-0.002772,0.152668,-0.066747,316.855541,24.394848,0.999411,0.989338,0.004110,0.406586,-0.000017,-0.000011,0.000006,-0.000007,-0.000021,56.853294,0.000029,
2041,2503,-4.70647541766508,-3.09579858203376,-0.0140647370762395,0.002971,-0.000825,0.002532,0.129364,-0.030540,323.782065,24.451489,0.999536,0.989734,0.004052,0.407309,0.000009,-0.000041,0.000031,0.000024,-0.000056,25.504094,0.000056,
2161,3058,-2.18641156049916,8.97719883213341,0.0315792558448038,0.003011,-0.000516,-0.000848,0.141218,-0.020139,314.589406,24.585240,0.999629,0.995175,0.003308,0.414523,-0.000020,-0.000009,0.000000,-0.000009,-0.000020,-88.880388,0.000029,
2491,2113,5.178471454897,-11.6330392674765,0.0432321505812183,0.002653,-0.000729,-0.000850,0.124248,-0.053225,329.872191,21.970106,0.999641,0.984728,0.004880,0.357461,-0.000029,-0.000028,-0.000010,-0.000019,-0.000038,-47.077878,0.000058,
2266,2203,0.243856314528742,-9.65195704229122,0.00807000761625432,0.003039,-0.000783,0.000474,0.137472,-0.049847,327.980967,23.532846,0.998541,0.981649,0.005546,0.301653,-0.000030,-0.000009,0.000000,-0.000009,-0.000030,88.893259,0.000041,
2446,3103,3.99422797171922,9.97676674699713,0.0171916786541146,0.002752,-0.000705,-0.001000,0.130034,-0.024978,313.447865,25.707836,0.999709,0.993629,0.003433,0.414307,-0.000008,0.000011,0.000015,0.000019,-0.000016,61.105229,0.000020,
2206,3223,-1.23978445473565,12.5603242650188,0.0220084053742085,0.002713,-0.000922,0.001407,0.120351,-0.028206,311.641831,25.007456,0.999814,0.996009,0.002871,0.309002,-0.000017,-0.000003,-0.000007,0.000000,-0.000020,-68.031344,0.000023,
2086,2713,-3.76204739323441,1.48088155203546,-0.0254648125402355,0.002778,-0.000866,0.001148,0.124340,-0.018280,320.037086,24.335131,0.999394,0.990899,0.003813,0.441475,-0.000024,0.000007,0.000011,0.000010,-0.000027,72.786802,0.000027,
2416,2908,3.37769206907045,5.73914855786425,-0.0168380144123716,0.003032,-0.001059,0.000937,0.135462,-0.053214,316.312359,25.008363,0.999635,0.991414,0.003662,0.359321,-0.000018,-0.000010,0.000006,-0.000006,-0.000022,61.950396,0.000029,
2506,2128,5.50148208408023,-11.3007031126066,0.0204036224591846,0.002779,-0.000620,0.000922,0.123194,0.004981,329.482811,21.946886,0.999596,0.985101,0.004975,0.414880,-0.000025,-0.000043,-0.000008,-0.000022,-0.000046,-20.121426,0.000070,
2236,2083,-0.389036059624054,-12.2818657351081,0.0222403738926573,0.002767,-0.000532,0.001021,0.123284,-0.010634,330.069004,23.576505,0.999453,0.982510,0.005132,0.254373,-0.000022,-0.000018,0.000009,-0.000010,-0.000029,50.724034,0.000041,
2251,2128,-0.0701532130243834,-11.2962907350126,0.0167108861698466,0.002464,-0.000942,0.000421,0.111211,-0.053831,329.259378,23.468726,0.998622,0.979846,0.005617,0.305963,-0.000017,-0.000018,0.000010,-0.000007,-0.000028,43.935139,0.000037,
2011,2518,-5.3610342424737,-2.76917830663813,-0.0174474833077625,0.002782,-0.000900,0.001475,0.123806,-0.012274,323.691838,24.471192,0.999683,0.993408,0.003515,0.455147,0.000008,-0.000026,0.000037,0.000032,-0.000050,32.797284,0.000051,
2341,2548,1.81424633333562,-2.10752401613205,-0.0118504896756804,0.002914,-0.001030,0.001012,0.129844,-0.032358,322.167002,23.958346,0.998936,0.983101,0.005001,0.400906,-0.000021,-0.000011,0.000010,-0.000005,-0.000028,57.975311,0.000036,
2371,2653,2.44663822484767,0.185975911141917,-0.0307969927734462,0.003003,-0.000392,-0.001566,0.143303,-0.013884,320.320389,24.233429,0.999264,0.987613,0.004459,0.388723,-0.000028,0.000000,0.000004,0.000001,-0.000029,81.390706,0.000033,
2176,3088,-1.8674105576469,9.63068455971941,0.0187233759068022,0.002894,-0.000892,0.004360,0.119619,-0.015998,313.916323,24.711498,0.999520,0.993418,0.003404,0.366332,-0.000019,-0.000010,0.000000,-0.000010,-0.000019,-87.086930,0.000029,
2311,2368,1.19405793604184,-6.03986648892812,-0.00883190741228645,0.002832,-0.000562,-0.000082,0.129975,-0.024529,325.119801,23.620206,0.999614,0.988629,0.004213,0.392804,-0.000029,-0.000017,0.000011,-0.000011,-0.000035,59.094580,0.000048,
2146,2938,-2.49388651211457,6.37430248567993,-0.00237421876209964,0.003179,-0.000874,-0.000660,0.148154,-0.037894,316.325645,24.554484,0.999442,0.989939,0.003971,0.319549,-0.000022,-0.000006,0.000004,-0.000004,-0.000023,75.677029,0.000029,
2026,2473,-5.02903245617799,-3.74909892631916,-0.0224199498004509,0.002571,-0.001053,0.004184,0.106466,-0.021116,324.264028,24.524952,0.999047,0.985780,0.004674,0.390771,0.000011,-0.000070,0.000032,0.000022,-0.000081,19.282272,0.000084,
2116,2848,-3.13190133707014,4.41819026552857,-0.0211742151825547,0.002847,-0.000783,0.000303,0.130039,-0.014576,317.742411,24.400344,0.999716,0.993336,0.003350,0.411863,-0.000021,-0.000002,0.000013,0.000005,-0.000027,63.140139,0.000029,
2326,2443,1.50669864141017,-4.40025744606599,-0.0111086923075732,0.002697,-0.000809,0.002501,0.114806,-0.020582,323.863873,23.750354,0.999409,0.988282,0.004451,0.395685,-0.000020,-0.000015,0.000020,0.000003,-0.000038,48.547581,0.000042,
2281,2278,0.556601374649002,-8.0093273327378,0.000985734384073567,0.002672,-0.000913,0.002700,0.113179,-0.021807,326.667341,23.573221,0.999577,0.988363,0.004529,0.365379,-0.000030,-0.000036,-0.000007,-0.000026,-0.000040,-33.616129,0.000066,
2191,3178,-1.55688422051594,11.5830051664043,0.0259043384967867,0.002934,-0.000823,0.002911,0.125850,-0.027336,312.462150,24.850720,0.999822,0.996557,0.002863,0.351456,-0.000020,-0.000002,0.000000,-0.000002,-0.000020,-89.477682,0.000024,
2041,2518,-4.70881876609753,-2.76850861464268,-0.0169701423990318,0.002989,-0.000739,0.001157,0.134085,-0.028945,323.520317,24.438858,0.999358,0.990091,0.004108,0.414972,0.000005,-0.000020,0.000037,0.000031,-0.000046,35.776424,0.000047,
2101,2758,-3.44287331791339,2.4604959353577,-0.0214107195723159,0.002899,-0.000587,-0.001946,0.139074,-0.008650,319.281347,24.357953,0.999499,0.990487,0.003801,0.432823,-0.000024,-0.000012,0.000007,-0.000008,-0.000027,65.141139,0.000037,
2056,2608,-4.39716945534276,-0.805929340027319,-0.0259929318297623,0.002827,-0.000780,-0.001226,0.133345,-0.031652,321.902953,24.394447,0.999152,0.989470,0.004098,0.401817,-0.000015,0.000007,0.000021,0.000020,-0.000028,58.706807,0.000029,
2401,2848,3.0631643744771,4.43324568507414,-0.0191542723916314,0.003240,-0.000686,-0.000451,0.150238,-0.026538,317.270293,24.785990,0.999505,0.990940,0.003871,0.398896,-0.000026,-0.000004,0.000002,-0.000004,-0.000027,85.661289,0.000033,
2431,2998,3.68751099674965,7.69635892505854,-0.000510574029362942,0.002957,-0.000766,0.000787,0.132746,-0.027073,314.995956,25.366157,0.999335,0.985670,0.004474,0.352734,-0.000021,-0.000017,0.000006,-0.000013,-0.000026,54.901283,0.000039,
2296,2323,0.87580297626808,-7.02528262959626,0.00269044090003945,0.002749,-0.001094,0.002427,0.117453,-0.046082,325.943242,23.597819,0.999096,0.983998,0.005187,0.348398,-0.000028,-0.000036,0.000015,-0.000017,-0.000047,37.111945,0.000066,
2506,2143,5.49817745064128,-10.971235361118,0.0226801043705223,0.002568,-0.001009,0.002727,0.106480,-0.048785,329.242654,22.116597,0.999103,0.975715,0.005994,0.255252,-0.000014,-0.000010,0.000003,-0.000009,-0.000016,64.938320,0.000025,
2386,2758,2.75309003419696,2.4733952351373,-0.0259812888734814,0.002873,-0.001016,0.001319,0.126807,-0.044522,318.644477,24.494471,0.999398,0.989176,0.004055,0.393097,-0.000032,0.000005,0.000008,0.000006,-0.000033,77.662083,0.000035,
2266,2218,0.240833357203773,-9.32412324003174,0.0145330299073976,0.002382,-0.001115,0.002876,0.099315,-0.041890,327.755034,23.559100,0.998587,0.980257,0.005608,0.311450,-0.000028,-0.000013,-0.000002,-0.000013,-0.000028,-84.016991,0.000042,
2491,2128,5.17596132510358,-11.3038600474607,0.046571688341885,0.002812,-0.000051,-0.002565,0.138332,0.013770,329.671527,21.997057,0.999610,0.987941,0.004560,0.459543,-0.000028,-0.000034,-0.000006,-0.000024,-0.000037,-32.947886,0.000062,
2161,3073,-2.18937413277704,9.30282515782844,0.0278884565274211,0.002875,-0.000627,-0.000239,0.133094,-0.015042,314.305501,24.581565,0.999605,0.994629,0.003246,0.432449,-0.000017,-0.000006,-0.000002,-0.000006,-0.000017,-82.409803,0.000024,
2356,2653,2.12079930265654,0.184715752005673,-0.0235250180484172,0.003066,-0.000248,-0.003945,0.154597,-0.023578,320.388444,24.246621,0.999316,0.987203,0.004566,0.374430,-0.000026,-0.000004,0.000004,-0.000003,-0.000027,81.116624,0.000033,
2131,2923,-2.81728746795709,6.04718599341112,-0.006926860681574,0.003017,-0.000755,-0.002814,0.147211,-0.035933,316.592992,24.443257,0.999294,0.989325,0.004145,0.394205,-0.000017,-0.000013,0.000007,-0.000008,-0.000022,53.780133,0.000030,
2026,2488,-5.03026831456893,-3.42334027818463,-0.0172158340361648,0.003029,-0.000686,0.000468,0.137869,-0.037052,324.097213,24.453824,0.999338,0.987628,0.004315,0.437095,0.000006,-0.000064,0.000037,0.000022,-0.000080,23.349753,0.000082,
2206,3238,-1.24174111418641,12.8840816341267,0.0268286193687572,0.002876,-0.000869,-0.001027,0.135575,-0.039796,311.452326,24.943210,0.999773,0.995140,0.002976,0.377028,-0.000016,-0.000008,-0.000004,-0.000006,-0.000018,-66.011835,0.000025,
2086,2728,-3.76435914475372,1.80762955547924,-0.025260556474791,0.002810,-0.000739,0.000846,0.126731,-0.019880,319.797770,24.370892,0.999320,0.990120,0.003983,0.403282,-0.000029,0.000009,0.000012,0.000012,-0.000032,74.172616,0.000033,
2341,2563,1.81084089143339,-1.77925566830408,-0.0149640658682983,0.002531,-0.000874,0.000586,0.113807,-0.030825,321.881116,24.053900,0.998986,0.985742,0.004712,0.344313,-0.000024,-0.000015,0.000010,-0.000009,-0.000031,56.633949,0.000042,
2071,2608,-4.07141588445791,-0.803633034564086,-0.0366205234093968,0.003206,-0.000528,-0.003354,0.156995,-0.016252,321.754665,24.442637,0.999375,0.990542,0.003856,0.354502,-0.000014,0.000006,0.000027,0.000024,-0.000033,55.065859,0.000034,
2011,2533,-5.36313201985102,-2.44190495490467,-0.0179251848229001,0.002743,-0.000756,-0.001693,0.130627,-0.031263,323.452436,24.503732,0.999365,0.988715,0.004256,0.392485,0.000004,-0.000014,0.000045,0.000040,-0.000051,39.448572,0.000054,
2251,2143,-0.0724748003416558,-10.9669167274626,0.0167914436581214,0.002807,-0.000692,0.000972,0.125206,-0.014496,329.032097,23.510411,0.998753,0.981595,0.005389,0.329917,-0.000023,-0.000025,0.000007,-0.000017,-0.000032,41.001521,0.000050,
2371,2668,2.4434874855108,0.512515485966503,-0.0291823273504974,0.002525,-0.000541,-0.002446,0.124395,-0.039929,320.071379,24.273335,0.999447,0.988804,0.004314,0.364067,-0.000030,-0.000004,0.000002,-0.000004,-0.000030,86.570678,0.000037,
2506,2158,5.49498065470312,-10.6422626058212,0.0236239279807933,0.002258,-0.000637,0.000889,0.099553,-0.040584,329.001141,22.169887,0.999188,0.977774,0.005651,0.274222,-0.000013,-0.000015,-0.000004,-0.000010,-0.000019,-39.745429,0.000029,
2446,3118,3.99177548931896,10.3024307041962,0.015587480564534,0.003239,-0.000834,-0.003307,0.160971,-0.045826,313.219648,25.764569,0.999677,0.992238,0.003569,0.387647,-0.000006,0.000013,0.000014,0.000020,-0.000013,62.305941,0.000020,
2236,2098,-0.391413814949839,-11.9540429012072,0.0246410496410476,0.002832,-0.000768,0.001356,0.125130,-0.033566,329.850247,23.547548,0.999214,0.981301,0.005406,0.284714,-0.000018,-0.000013,0.000010,-0.000005,-0.000025,52.570313,0.000033,
2146,2953,-2.49677632339069,6.69975381869418,-0.00535889323799665,0.003041,-0.000885,0.000171,0.139315,-0.034264,316.047734,24.508394,0.999632,0.991503,0.003620,0.376516,-0.000022,-0.000008,0.000006,-0.000006,-0.000025,69.857841,0.000032,
2461,3178,4.30598567224471,11.6063961322068,0.026196898673561,0.002762,-0.000736,0.000023,0.126678,-0.025647,312.318785,26.097611,0.999677,0.992026,0.003561,0.347821,-0.000010,0.000001,0.000011,0.000007,-0.000017,58.534007,0.000017,
2281,2293,0.553859210501908,-7.68052279208594,-0.00162392722046434,0.002644,-0.000575,0.000356,0.119844,-0.014199,326.409843,23.621687,0.999405,0.985982,0.004808,0.354560,-0.000030,-0.000028,0.000004,-0.000025,-0.000033,51.998335,0.000058,
2326,2458,1.50363591462077,-4.07198235167635,-0.0143809361620697,0.002715,-0.000694,0.003152,0.113482,0.004631,323.591932,23.785610,0.999481,0.987978,0.004366,0.421768,-0.000025,-0.000012,0.000022,0.000005,-0.000042,52.767376,0.000046,
2491,2143,5.17133234651821,-10.9710648049366,0.0252729196029691,0.003043,-0.000347,-0.003215,0.151267,-0.017997,329.263394,22.193242,0.999178,0.981541,0.005396,0.294065,-0.000018,-0.000009,0.000001,-0.000009,-0.000018,84.785625,0.000027,
2176,3103,-1.86975198498458,9.9554561966596,0.0197993510976744,0.002745,-0.000766,-0.000045,0.126428,-0.030809,313.687434,24.688530,0.999556,0.994141,0.003223,0.385888,-0.000022,-0.000012,0.000002,-0.000012,-0.000022,80.581127,0.000035,
2056,2623,-4.39920226364784,-0.479522729742733,-0.0214880789085896,0.002900,-0.000840,-0.000016,0.133276,-0.036821,321.697831,24.406440,0.999256,0.991191,0.003876,0.379931,-0.000014,0.000002,0.000016,0.000012,-0.000024,57.891922,0.000024,
2026,2503,-5.03329562836472,-3.09352771816528,-0.0277475809401722,0.002962,-0.000573,0.001760,0.131308,-0.005911,323.759626,24.568376,0.999713,0.992961,0.003538,0.345396,0.000015,-0.000051,0.000029,0.000026,-0.000062,20.945216,0.000062,
2116,2863,-3.13395000425521,4.74362980269106,-0.0127022470644533,0.002852,-0.000919,0.002793,0.122881,-0.013665,317.562305,24.414576,0.999704,0.992615,0.003452,0.401514,-0.000020,-0.000003,0.000012,0.000003,-0.000026,62.979697,0.000028,
2041,2533,-4.71146845216189,-2.44117622843718,-0.0166357713803791,0.002663,-0.001063,0.002300,0.115794,-0.033512,323.262512,24.470446,0.999279,0.989628,0.004016,0.372319,0.000001,-0.000006,0.000044,0.000042,-0.000047,42.887860,0.000051,
2161,3088,-2.19254917299992,9.6294266846723,0.0202481098467615,0.002863,-0.000861,0.001376,0.127474,-0.026350,313.990619,24.663460,0.999423,0.991585,0.003710,0.348202,-0.000017,-0.000008,-0.000001,-0.000008,-0.000017,-86.073096,0.000026,
2431,3013,3.68444959139626,8.02234441554714,-0.000735415767167069,0.002692,-0.000808,-0.001620,0.129471,-0.034508,314.745386,25.420550,0.999317,0.986962,0.004277,0.340073,-0.000017,-0.000012,0.000007,-0.000007,-0.000022,55.436685,0.000031,
2311,2383,1.19177224117496,-5.71195977036501,-0.00422740875313821,0.002540,0.000201,-0.005619,0.135698,-0.028054,324.921235,23.699863,0.999328,0.986652,0.004710,0.343283,-0.000028,-0.000019,0.000007,-0.000015,-0.000032,61.963226,0.000048,
2416,2923,3.37509348852955,6.06589581799093,-0.0128833563578041,0.003051,-0.000882,0.000734,0.137166,-0.037896,316.101744,25.115693,0.999692,0.992240,0.003569,0.314514,-0.000018,-0.000012,0.000005,-0.000009,-0.000020,60.507586,0.000030,
2401,2863,3.06013302192173,4.7603531435396,-0.0213893718071745,0.003213,-0.000434,-0.001672,0.153564,-0.019636,317.009764,24.872948,0.999476,0.990933,0.003786,0.364279,-0.000027,-0.000001,0.000001,-0.000001,-0.000027,88.281004,0.000032,
2296,2338,0.872717003240933,-6.69598515490774,-0.00599405895349037,0.002763,-0.000533,-0.001196,0.130555,-0.014403,325.641000,23.623577,0.999302,0.985522,0.004739,0.386538,-0.000026,-0.000025,0.000014,-0.000011,-0.000039,46.429648,0.000053,
2086,2743,-3.7665075250919,2.13325847399872,-0.0202750996696182,0.002780,-0.001138,0.001744,0.122593,-0.042277,319.592351,24.367215,0.999422,0.990432,0.003933,0.383438,-0.000034,0.000004,0.000005,0.000004,-0.000035,82.653419,0.000038,
2101,2773,-3.44580803656724,2.78795727924352,-0.0292301978846012,0.002979,-0.000614,-0.000300,0.137888,-0.018050,318.971031,24.417733,0.999592,0.991687,0.003682,0.364977,-0.000024,-0.000009,0.000006,-0.000007,-0.000026,71.828147,0.000035,
2266,2233,0.23820167152228,-8.99498353791135,0.0087026342875447,0.002671,-0.000735,0.000604,0.120177,-0.033130,327.485227,23.581052,0.998756,0.979235,0.005545,0.326304,-0.000031,-0.000014,-0.000004,-0.000014,-0.000031,-77.782187,0.000046,
2446,3133,3.98821347345028,10.6285436609451,0.0152160164213342,0.002883,-0.001008,-0.001145,0.136465,-0.042775,312.945774,25.850776,0.999590,0.988916,0.004054,0.355630,-0.000005,0.000011,0.000008,0.000014,-0.000009,67.670250,0.000014,
2491,2158,5.16748748005192,-10.6417662048008,0.0203179932200328,0.002610,0.000001,-0.004381,0.136078,-0.027496,328.964520,22.230760,0.999124,0.979992,0.005577,0.308770,-0.000018,-0.000015,-0.000006,-0.000010,-0.000023,-51.142566,0.000034,
2191,3193,-1.55889912909937,11.9071234136938,0.034581119157167,0.002783,-0.000721,0.000910,0.125266,-0.019119,312.289119,24.811757,0.999748,0.995692,0.003031,0.411830,-0.000020,-0.000005,-0.000004,-0.000004,-0.000021,-77.086045,0.000027,
2341,2578,1.80801708845351,-1.45184650237015,-0.0186718692337422,0.002550,-0.000270,-0.002692,0.126314,-0.023083,321.619144,24.064375,0.999027,0.986381,0.004507,0.379156,-0.000021,-0.000006,0.000012,0.000000,-0.000027,62.242527,0.000031,
2356,2668,2.11753074883557,0.511161201520224,-0.0207647770712356,0.002763,-0.000579,0.000436,0.125139,-0.016468,320.138372,24.253626,0.999508,0.989479,0.004163,0.413709,-0.000028,-0.000006,0.000002,-0.000006,-0.000028,86.181094,0.000036,
2506,2173,5.49191219515869,-10.3136199669653,0.025952647605493,0.002177,-0.000369,0.001659,0.093000,-0.008814,328.771502,22.189335,0.998857,0.976381,0.005871,0.350374,-0.000031,0.000010,-0.000007,0.000011,-0.000032,-80.037805,0.000032,
2281,2308,0.551999743646352,-7.35290734853737,0.00303206794040989,0.002945,-0.000473,-0.002248,0.142369,-0.014937,326.229117,23.647685,0.999275,0.983887,0.005160,0.357403,-0.000036,-0.000038,0.000008,-0.000029,-0.000045,41.451189,0.000074,
2251,2158,-0.0748735686687994,-10.6386859560768,0.0188003185826346,0.002583,-0.000330,-0.003295,0.129027,-0.031366,328.811417,23.529816,0.998366,0.981338,0.005401,0.319523,-0.000025,-0.000021,0.000004,-0.000018,-0.000028,58.128395,0.000046,
2131,2938,-2.81913506823057,6.37271674406788,0.00389982065598815,0.003195,-0.001203,0.001111,0.143483,-0.043577,316.435544,24.508589,0.999674,0.992103,0.003664,0.326120,-0.000018,-0.000008,0.000007,-0.000004,-0.000021,63.795626,0.000028,
2206,3253,-1.24461344294597,13.2091853635577,0.026795714128923,0.002779,-0.000498,0.001108,0.124451,-0.020371,311.195023,24.948260,0.999800,0.995506,0.002841,0.406687,-0.000014,-0.000011,0.000001,-0.000010,-0.000015,74.684289,0.000025,
2011,2548,-5.3649602992571,-2.11547123833702,-0.0161610357295103,0.003261,-0.000956,0.002249,0.143705,-0.033267,323.238123,24.467193,0.999458,0.989186,0.003980,0.416100,0.000005,0.000000,0.000039,0.000042,-0.000037,43.253704,0.000046,
2386,2773,2.7500799672926,2.79972716880076,-0.0207840031377486,0.002647,-0.001168,0.005112,0.102798,-0.033271,318.419590,24.536911,0.999365,0.989352,0.004058,0.405307,-0.000033,-0.000002,0.000005,-0.000001,-0.000034,81.922223,0.000040,
2026,2518,-5.0352369335971,-2.76829012436378,-0.0246314580527951,0.003050,-0.000602,0.001482,0.136095,-0.020669,323.549110,24.439011,0.999739,0.993950,0.003345,0.451251,0.000009,-0.000028,0.000035,0.000031,-0.000049,31.301573,0.000050,
2461,3193,4.30322250685102,11.9313138655869,0.0280190396654234,0.002858,-0.000725,-0.000069,0.131556,-0.011727,312.092936,26.090484,0.999611,0.991429,0.003628,0.422014,-0.000011,0.000003,0.000013,0.000011,-0.000019,58.125514,0.000019,
2146,2968,-2.49914300922114,7.02534844840051,-0.00209820616362322,0.002986,-0.000926,0.000534,0.135660,-0.033205,315.826963,24.525734,0.999712,0.993561,0.003220,0.367572,-0.000019,-0.000006,0.000007,-0.000003,-0.000022,65.807956,0.000027,
2056,2638,-4.40222625001025,-0.152647413632323,-0.021158869140038,0.002458,-0.001214,0.004679,0.099582,-0.039546,321.424224,24.427855,0.999204,0.989770,0.004129,0.350898,-0.000008,0.000005,0.000017,0.000017,-0.000020,56.088608,0.000021,
2371,2683,2.43986240051938,0.840531421535005,-0.0390704585410617,0.002748,-0.000843,0.000187,0.125182,-0.039933,319.745116,24.332342,0.999454,0.989280,0.004061,0.346799,-0.000031,-0.000003,-0.000002,-0.000003,-0.000032,-85.457301,0.000038,
2431,3028,3.68173703376962,8.34790479139477,0.00330430445933416,0.002626,-0.000993,-0.001616,0.126324,-0.041172,314.530777,25.467405,0.999420,0.988153,0.004180,0.335507,-0.000016,-0.000007,0.000002,-0.000006,-0.000016,76.876025,0.000023,
2071,2623,-4.07346859911734,-0.478655081361673,-0.0293489787027283,0.003159,-0.000785,-0.001279,0.148805,-0.029908,321.565199,24.356837,0.999227,0.989688,0.004074,0.424037,-0.000013,0.000000,0.000020,0.000015,-0.000028,53.803120,0.000028,
2116,2878,-3.13671388109776,5.06919731887447,-0.0123220610715293,0.002552,-0.000898,0.003515,0.106897,-0.022189,317.305866,24.393837,0.999621,0.992435,0.003591,0.416943,-0.000017,0.000006,0.000011,0.000011,-0.000021,67.966743,0.000022,
2041,2548,-4.71404149278931,-2.11355155597494,-0.0255171221930937,0.002896,-0.000907,0.002198,0.126879,-0.036236,322.957110,24.449996,0.999553,0.989955,0.003847,0.383614,0.000000,0.000005,0.000039,0.000042,-0.000037,46.937445,0.000046,
2176,3118,-1.871895757779,10.280356358777,0.023575411028105,0.002742,-0.000737,-0.002548,0.134047,-0.040424,313.481745,24.692760,0.999493,0.993633,0.003405,0.383176,-0.000023,-0.000006,0.000002,-0.000006,-0.000024,83.220795,0.000031,
2491,2173,5.16479541196128,-10.314835552414,0.0317984952289976,0.002493,-0.000670,0.001029,0.109817,-0.042975,328.792354,22.238312,0.998420,0.971882,0.006335,0.347315,-0.000033,0.000009,-0.000007,0.000010,-0.000034,-80.952787,0.000035,
2086,2758,-3.76943255819047,2.46010604593437,-0.0275276020599904,0.002822,-0.001193,0.003802,0.118580,-0.035428,319.284313,24.353547,0.999505,0.991256,0.003785,0.403324,-0.000034,-0.000006,0.000000,-0.000006,-0.000034,-89.834641,0.000043,
2446,3148,3.98550140763949,10.9541737027466,0.0198263413620339,0.002660,-0.000435,-0.002719,0.132375,-0.021046,312.734167,25.907904,0.999622,0.990823,0.003707,0.371391,-0.000006,0.000003,0.000008,0.000008,-0.000010,59.956548,0.000011,
2161,3103,-2.19482907497912,9.95401023039503,0.0239808383907416,0.002729,-0.000743,-0.000764,0.127882,-0.034302,313.777636,24.632629,0.999582,0.993986,0.003243,0.380275,-0.000020,-0.000012,0.000002,-0.000012,-0.000020,79.523089,0.000032,
2011,2563,-5.36762085965302,-1.78831597781242,-0.0160769533147231,0.002806,-0.000965,0.002047,0.123326,-0.031134,322.976141,24.482449,0.999352,0.988270,0.004183,0.391996,0.000000,0.000003,0.000031,0.000033,-0.000030,46.497953,0.000036,
2296,2353,0.870489700223235,-6.36952758368818,0.00697297930071272,0.002490,-0.000854,0.001446,0.109023,-0.035595,325.485762,23.660236,0.999629,0.988854,0.004129,0.360292,-0.000028,-0.000023,0.000013,-0.000012,-0.000039,50.240567,0.000053,
2416,2938,3.37219422523845,6.3914671783368,-0.00819730025409626,0.002919,-0.000801,0.003217,0.122140,-0.010664,315.880958,25.111767,0.999673,0.991924,0.003674,0.392873,-0.000016,-0.000016,0.000004,-0.000012,-0.000020,45.321143,0.000033,
2236,2113,-0.394605551508256,-11.6266481450135,0.0263196920024029,0.002260,-0.001132,0.003497,0.091883,-0.039785,329.590556,23.460226,0.999170,0.981655,0.005395,0.390069,-0.000014,-0.000014,0.000008,-0.000006,-0.000022,44.010321,0.000029,
2266,2248,0.235121300484575,-8.66636493562208,0.0047210970147944,0.002776,-0.001183,0.003817,0.114235,-0.038273,327.204238,23.594386,0.998932,0.982170,0.005298,0.335818,-0.000030,-0.000035,-0.000006,-0.000026,-0.000039,-34.830183,0.000066,
2311,2398,1.19041909541939,-5.38739216947837,0.0167080434453624,0.002510,-0.000492,-0.003652,0.127382,-0.040377,324.846176,23.643219,0.999332,0.987864,0.004687,0.420669,-0.000027,-0.000014,0.000009,-0.000009,-0.000032,62.205308,0.000043,
2341,2593,1.80518684967974,-1.12419895558573,-0.0205978572926711,0.002866,-0.000776,-0.000310,0.132375,-0.039087,321.365478,24.141130,0.999307,0.987945,0.004311,0.323849,-0.000018,-0.000022,0.000007,-0.000013,-0.000027,37.334086,0.000041,
2206,3268,-1.24783683102212,13.5349178619505,0.0100562153218107,0.003107,-0.000709,-0.002301,0.150370,-0.035616,310.834633,24.957507,0.999541,0.993691,0.003261,0.397538,-0.000014,-0.000001,0.000002,-0.000001,-0.000015,83.700453,0.000017,
2506,2188,5.48856933000271,-9.98340950499554,0.0187997699130165,0.002504,-0.000416,0.000834,0.111146,-0.003584,328.487003,22.283582,0.998790,0.975577,0.006079,0.325306,-0.000018,0.000015,-0.000008,0.000017,-0.000020,-76.457185,0.000022,
2056,2653,-4.40439097969815,0.174435750417977,-0.0343984709195411,0.003060,-0.000926,-0.001186,0.143875,-0.060990,321.115222,24.377725,0.999282,0.990545,0.004068,0.375047,-0.000011,0.000013,0.000012,0.000018,-0.000016,67.762283,0.000020,
2191,3208,-1.5613512204058,12.2323145369083,0.0322223285505743,0.003009,-0.000820,-0.000292,0.139355,-0.042894,312.038004,24.842249,0.999594,0.993473,0.003502,0.370912,-0.000020,-0.000010,-0.000005,-0.000008,-0.000022,-66.365001,0.000031,
2356,2683,2.11440844072419,0.839146601871377,-0.0264634810166058,0.002887,-0.000641,-0.000083,0.132696,-0.010200,319.853879,24.337255,0.999575,0.990060,0.003932,0.375781,-0.000030,-0.000003,-0.000002,-0.000003,-0.000030,-85.581424,0.000036,
2071,2638,-4.07567610066838,-0.151644109820062,-0.0214760793315349,0.002945,-0.000626,0.001038,0.132427,-0.002772,321.371271,24.425421,0.999086,0.987572,0.004402,0.379741,-0.000008,0.000004,0.000020,0.000019,-0.000023,53.214200,0.000024,
2371,2698,2.43722931820328,1.16621677497606,-0.0308769355453933,0.002413,-0.000793,0.001129,0.106510,-0.026440,319.551319,24.317594,0.999381,0.990338,0.003816,0.416405,-0.000030,-0.000009,-0.000004,-0.000008,-0.000030,-78.907128,0.000041,
2326,2473,1.50162658736391,-3.74508696899177,-0.00955534322895346,0.002734,-0.000141,-0.001946,0.132102,-0.012483,323.408164,23.816623,0.999460,0.987688,0.004288,0.409033,-0.000021,-0.000014,0.000026,0.000009,-0.000043,49.058679,0.000046,
2251,2173,-0.0781998510562154,-10.3099041967246,0.0135730892887409,0.002421,-0.000817,-0.001086,0.114187,-0.031901,328.511644,23.511660,0.999013,0.984822,0.005011,0.363577,-0.000021,-0.000016,0.000006,-0.000012,-0.000026,56.458021,0.000038,
2026,2533,-5.03754194897063,-2.44109713242388,-0.0215743612420169,0.002772,-0.000941,0.000874,0.124889,-0.040926,323.321145,24.497919,0.999482,0.990120,0.003932,0.363187,0.000007,-0.000016,0.000042,0.000039,-0.000048,37.512384,0.000051,
2281,2323,0.548990902495941,-7.02506552177302,0.00605837753960259,0.002680,-0.000826,0.001456,0.117744,-0.035645,325.987652,23.702819,0.999096,0.983167,0.005224,0.311178,-0.000032,-0.000039,0.000012,-0.000023,-0.000048,38.040508,0.000073,
2086,2773,-3.77104020792511,2.786607395221,-0.0249926655045556,0.003257,-0.001032,0.000972,0.146890,-0.030113,319.090020,24.391457,0.999613,0.991820,0.003759,0.369672,-0.000032,-0.000005,-0.000001,-0.000005,-0.000032,-87.313992,0.000040,
2176,3133,-1.87395912769379,10.6057466947907,0.0300039414626667,0.002830,-0.000759,-0.002288,0.137427,-0.013425,313.293472,24.725322,0.999408,0.993354,0.003587,0.388805,-0.000020,-0.000006,0.000003,-0.000005,-0.000021,80.248485,0.000027,
2101,2788,-3.44822883570313,3.11290685571095,-0.0195191242576698,0.002582,-0.000954,0.003444,0.108547,-0.018231,318.779835,24.379158,0.999534,0.991811,0.003758,0.404320,-0.000028,-0.000006,0.000007,-0.000004,-0.000030,74.035255,0.000037,
2131,2953,-2.82198586427137,6.69783967072046,0.00429537573489824,0.002908,-0.001210,0.002885,0.124998,-0.035130,316.176415,24.450364,0.999697,0.992360,0.003463,0.397917,-0.000017,-0.000011,0.000008,-0.000006,-0.000023,56.267278,0.000030,
2296,2368,0.867931354369375,-6.04193381864121,0.00817307308619775,0.002395,-0.000440,-0.000827,0.112459,-0.033988,325.256883,23.667091,0.999308,0.985811,0.004699,0.386827,-0.000032,-0.000016,0.000010,-0.000011,-0.000037,64.095304,0.000051,
2491,2188,5.16062610816384,-9.98364938039756,0.0196344467566973,0.002511,-0.000937,0.001655,0.108148,-0.029371,328.445819,22.360081,0.998280,0.971464,0.006420,0.301039,-0.000016,0.000014,-0.000006,0.000015,-0.000018,-78.547464,0.000019,
2431,3043,3.67879954133465,8.67388929812943,0.00111619036977118,0.002926,-0.000939,-0.000521,0.136130,-0.030866,314.276612,25.499004,0.999487,0.989594,0.003986,0.363438,-0.000014,0.000004,0.000005,0.000006,-0.000016,75.172847,0.000016,
2206,3283,-1.25077831609646,13.8603037802596,0.00833068028123307,0.002986,-0.000907,-0.001271,0.141468,-0.040476,310.565198,25.012193,0.999361,0.993018,0.003365,0.353045,-0.000018,-0.000005,0.000003,-0.000004,-0.000019,78.263773,0.000024,
2386,2788,2.74688274937199,3.12762893050269,-0.0265908851472432,0.002596,-0.000795,0.002430,0.110232,-0.026075,318.133394,24.646041,0.999651,0.991920,0.003701,0.346705,-0.000032,-0.000008,0.000003,-0.000007,-0.000033,83.891723,0.000042,
2041,2563,-4.71569385770762,-1.7868204085572,-0.0235813247596752,0.003128,-0.000521,-0.002277,0.150116,-0.021099,322.753918,24.430935,0.999622,0.989720,0.003825,0.410990,-0.000004,0.000004,0.000033,0.000034,-0.000033,48.530259,0.000039,
2446,3163,3.98292123135922,11.2799453081051,0.0253497297516105,0.002742,-0.000309,-0.001303,0.130942,-0.002984,312.532748,25.990473,0.999656,0.991292,0.003770,0.357821,-0.000006,0.000004,0.000007,0.000008,-0.000010,61.225550,0.000011,
2401,2878,3.05642423498434,5.08710460070409,-0.0262028316686269,0.002813,-0.000652,-0.001640,0.135070,-0.009915,316.705918,24.910172,0.999484,0.992329,0.003537,0.381836,-0.000028,-0.000007,0.000001,-0.000007,-0.000028,87.262819,0.000037,
2056,2668,-4.40620502021914,0.500502220854692,-0.0238082753186291,0.002806,-0.000584,-0.002828,0.136948,-0.051248,320.953734,24.407739,0.999317,0.989837,0.004113,0.349630,-0.000019,0.000011,0.000018,0.000020,-0.000027,64.587023,0.000028,
2146,2983,-2.50165252758079,7.35054489337488,-0.000795497857609462,0.003017,-0.001121,0.002401,0.131367,-0.040006,315.589374,24.504594,0.999764,0.994689,0.003022,0.389026,-0.000020,-0.000010,0.000007,-0.000006,-0.000024,63.436311,0.000032,
2461,3208,4.30041614782289,12.2569298389715,0.0280644745234326,0.003055,-0.000639,-0.000226,0.141209,-0.015837,311.856637,26.159085,0.999519,0.989640,0.003945,0.402305,-0.000011,-0.000007,0.000009,0.000000,-0.000018,52.346432,0.000021,
2311,2413,1.18629120951901,-5.05771666044507,0.00328701532180276,0.002376,-0.000452,-0.000566,0.110767,-0.037442,324.474259,23.714925,0.999440,0.988249,0.004497,0.386203,-0.000029,-0.000012,0.000012,-0.000006,-0.000035,62.370997,0.000044,
2236,2128,-0.397186603072324,-11.2953261060729,0.0197269691498718,0.002517,-0.000467,0.000092,0.114882,-0.020102,329.316137,23.620786,0.998794,0.980341,0.005504,0.273530,-0.000011,-0.000015,0.000009,-0.000003,-0.000022,38.011050,0.000028,
2011,2578,-5.37020770782664,-1.46116069209129,-0.0239228437393422,0.002646,-0.000894,-0.002371,0.127947,-0.054116,322.673163,24.458244,0.999033,0.986426,0.004736,0.382180,-0.000004,-0.000004,0.000021,0.000017,-0.000025,44.941397,0.000026,
2116,2893,-3.13944422486254,5.39569560652951,-0.0199476397545482,0.002677,-0.001019,0.002205,0.116448,-0.044813,317.007619,24.418726,0.999434,0.992539,0.003861,0.372358,-0.000020,-0.000002,0.000011,0.000003,-0.000025,64.841269,0.000028,
2416,2953,3.36868008349029,6.71827945928577,-0.0133893726083443,0.002715,-0.001036,0.002494,0.115286,-0.026541,315.585231,25.199741,0.999755,0.992330,0.003652,0.336174,-0.000018,-0.000016,0.000006,-0.000011,-0.000023,49.698888,0.000034,
2191,3223,-1.56412979690111,12.5578742168072,0.032710783568632,0.002951,-0.000939,0.001939,0.129719,-0.029939,311.786574,24.890571,0.999736,0.994883,0.003084,0.348486,-0.000020,0.000001,-0.000008,0.000004,-0.000023,-70.776459,0.000025,
2506,2203,5.4856309697345,-9.6553327339423,0.0208773170833751,0.002444,-0.000394,0.000087,0.111276,-0.017308,328.262312,22.304786,0.998901,0.974272,0.006183,0.353842,-0.000010,-0.000009,-0.000021,0.000012,-0.000031,-46.245281,0.000031,
2161,3118,-2.19694534304548,10.2798999643714,0.0240707111697134,0.002955,-0.000362,-0.003678,0.147430,-0.018538,313.552430,24.679188,0.999533,0.993606,0.003364,0.358355,-0.000020,-0.000006,0.000001,-0.000006,-0.000020,86.024029,0.000028,
2266,2263,0.233381456858982,-8.33751775447498,0.0140168505452607,0.002753,-0.000103,0.000036,0.126101,0.008306,327.050812,23.717835,0.999634,0.989334,0.004382,0.286568,-0.000030,-0.000041,-0.000009,-0.000025,-0.000046,-29.779892,0.000072,
2086,2788,-3.77349586193897,3.11197906442036,-0.0197007816417454,0.002927,-0.000848,0.002256,0.128046,-0.018554,318.872225,24.345063,0.999446,0.991159,0.003840,0.426624,-0.000035,-0.000003,0.000001,-0.000003,-0.000035,88.797311,0.000042,
2371,2713,2.4345085764113,1.49350741439586,-0.0320936992328029,0.002494,-0.000783,-0.000990,0.117765,-0.034074,319.308126,24.398465,0.999532,0.991246,0.003672,0.369049,-0.000032,-0.000012,-0.000006,-0.000010,-0.000034,-74.946562,0.000046,
2341,2608,1.80162527534244,-0.796122531149315,-0.0332613418608503,0.003062,-0.000775,-0.000641,0.142534,-0.025618,321.025940,24.140594,0.999375,0.986622,0.004502,0.375589,-0.000020,-0.000024,0.000006,-0.000016,-0.000028,34.718783,0.000045,
2041,2578,-4.7183637917169,-1.45980973570443,-0.0293625175198144,0.003118,-0.000605,-0.001739,0.148142,-0.040940,322.461486,24.409598,0.999331,0.989450,0.004021,0.405945,-0.000009,-0.000007,0.000024,0.000016,-0.000032,45.862862,0.000032,
2026,2548,-5.03950804152207,-2.11446242603095,-0.0164803904102087,0.002803,-0.000864,0.001829,0.123685,-0.037420,323.120126,24.504425,0.999614,0.990367,0.003698,0.351385,0.000009,-0.000004,0.000038,0.000041,-0.000036,40.172641,0.000045,
2206,3298,-1.25399431493407,14.1848754946494,0.00314788110495101,0.002931,-0.001173,0.001221,0.130920,-0.045869,310.265482,24.977684,0.999326,0.993294,0.003306,0.397140,-0.000023,-0.000011,-0.000004,-0.000010,-0.000024,-73.424999,0.000035,
2281,2338,0.54654656139158,-6.69622492083296,-0.00122392113064507,0.003081,-0.000203,-0.003771,0.153827,-0.027516,325.720419,23.723548,0.999268,0.984940,0.004821,0.328505,-0.000030,-0.000026,0.000012,-0.000016,-0.000040,49.321336,0.000058,
2431,3058,3.67568103911947,9.00023525713521,0.00148385742710389,0.002683,-0.000876,-0.001371,0.128102,-0.044132,314.025845,25.608487,0.999591,0.990986,0.003880,0.289643,-0.000012,0.000000,0.000010,0.000005,-0.000018,61.437941,0.000018,
2446,3178,3.97978069802286,11.6055764103375,0.0228866182938532,0.002772,-0.000645,-0.001653,0.133435,-0.028633,312.268550,26.059507,0.999675,0.991900,0.003569,0.313969,-0.000004,0.000001,0.000008,0.000007,-0.000010,54.215082,0.000010,
2491,2203,5.15752798326384,-9.65416739937787,0.0140997631847313,0.002668,-0.000278,-0.001954,0.129409,-0.015666,328.178192,22.402337,0.998378,0.972665,0.006275,0.334284,-0.000010,0.000000,-0.000014,0.000010,-0.000020,-55.652321,0.000020,
2461,3223,4.29697046993273,12.582920567186,0.021451490934794,0.002949,-0.000508,-0.002967,0.146772,-0.011753,311.560079,26.219855,0.999561,0.991880,0.003609,0.398944,-0.000013,-0.000023,0.000008,-0.000009,-0.000027,30.171648,0.000038,
2071,2653,-4.07821777654218,0.175236739140765,-0.029677478319627,0.003229,-0.000863,0.000630,0.146599,-0.020694,321.074255,24.395869,0.999255,0.989288,0.004144,0.388995,-0.000012,0.000012,0.000016,0.000020,-0.000020,63.835052,0.000023,
2506,2218,5.48241834988996,-9.32655378409579,0.0176906282201799,0.002765,-0.000892,0.001716,0.119465,-0.048470,328.001545,22.357813,0.998975,0.975892,0.005971,0.333323,-0.000015,-0.000023,-0.000014,-0.000004,-0.000033,-36.569697,0.000041,
2251,2188,-0.0808564643173675,-9.97907362385632,0.0102100508770491,0.002928,-0.000953,0.002776,0.124811,-0.018510,328.251501,23.692164,0.999410,0.989416,0.004462,0.222814,-0.000025,-0.000014,0.000000,-0.000014,-0.000025,-88.674826,0.000039,
2101,2803,-3.45106106266031,3.43913785521563,-0.0220821052908491,0.002370,-0.001148,0.004186,0.096546,-0.039973,318.503046,24.388488,0.999455,0.992254,0.003636,0.374785,-0.000028,-0.000008,0.000014,-0.000001,-0.000035,62.465001,0.000041,
2356,2698,2.11162903472796,1.16442817012052,-0.0209026985093601,0.002687,-0.001018,0.002142,0.115493,-0.026821,319.639986,24.292904,0.999550,0.991214,0.003763,0.442477,-0.000026,-0.000010,-0.000003,-0.000009,-0.000027,-78.725097,0.000038,
2011,2593,-5.37264819126991,-1.13415121627367,-0.0205402543729747,0.002521,-0.000998,0.002508,0.108954,-0.035074,322.439763,24.481815,0.999086,0.987139,0.004762,0.366424,-0.000009,0.000022,0.000028,0.000038,-0.000026,59.519933,0.000039,
2131,2968,-2.82462425335816,7.02424828648952,0.003167136209413,0.002682,-0.000765,0.000728,0.121149,-0.032822,315.918460,24.510009,0.999819,0.994318,0.002995,0.345542,-0.000013,-0.000009,0.000007,-0.000003,-0.000018,53.915723,0.000024,
2416,2968,3.36653120125515,7.04374999660128,-0.00871244334331323,0.002771,-0.000848,-0.002062,0.134618,-0.043417,315.398896,25.238175,0.999830,0.994371,0.003250,0.327977,-0.000020,-0.000013,0.000006,-0.000010,-0.000023,60.129930,0.000034,
2191,3238,-1.56581700046781,12.8815704403462,0.0407187967138611,0.003092,-0.000941,-0.001316,0.146445,-0.037508,311.625273,24.833626,0.999782,0.994801,0.003012,0.411102,-0.000020,-0.000004,-0.000007,-0.000002,-0.000022,-69.192835,0.000027,
2401,2893,3.05415324027451,5.41244601865099,-0.016556706923609,0.002748,-0.000657,-0.000990,0.129678,-0.012014,316.536778,24.939357,0.999539,0.991877,0.003636,0.395435,-0.000026,-0.000010,0.000003,-0.000009,-0.000027,79.245173,0.000038,
2236,2143,-0.399542857493916,-10.9667604181823,0.0183837054380547,0.002822,-0.000203,-0.000302,0.130243,-0.003936,329.078994,23.596135,0.998672,0.980065,0.005482,0.338521,-0.000017,-0.000019,0.000008,-0.000010,-0.000027,41.771948,0.000038,
2311,2428,1.18302278751345,-4.72799355966146,-0.00925076343838782,0.002813,-0.000396,-0.000509,0.130643,-0.014436,324.145915,23.786015,0.999619,0.990188,0.004080,0.372388,-0.000027,-0.000027,0.000010,-0.000017,-0.000037,43.956023,0.000055,
2266,2278,0.229927623172266,-8.0097892742703,0.00559536777427638,0.002687,-0.000827,0.001652,0.117461,-0.027964,326.730694,23.646587,0.999482,0.987007,0.004672,0.349543,-0.000028,-0.000040,-0.000008,-0.000024,-0.000045,-26.168058,0.000069,
2146,2998,-2.50315620559101,7.67572390654279,0.00584199827386556,0.003127,-0.000548,-0.004422,0.157348,-0.026990,315.426285,24.502034,0.999668,0.993321,0.003374,0.411791,-0.000022,-0.000003,0.000010,0.000001,-0.000027,66.010178,0.000030,
2296,2383,0.864700354891209,-5.7119231847743,-0.00493953042769135,0.002595,-0.000324,-0.004540,0.134212,-0.048183,324.926020,23.777854,0.998888,0.982677,0.005327,0.293640,-0.000034,-0.000017,0.000008,-0.000014,-0.000037,68.320869,0.000053,
2176,3148,-1.87711482451092,10.9308076552211,0.0256106971935424,0.002769,-0.001241,0.001079,0.123914,-0.046591,312.998334,24.724919,0.999450,0.993658,0.003485,0.367075,-0.000017,-0.000005,0.000003,-0.000004,-0.000018,76.464535,0.000023,
2086,2803,-3.77575156391433,3.43852341389644,-0.0187318842651507,0.002894,-0.000792,0.000649,0.131158,-0.039939,318.639779,24.409532,0.999285,0.991341,0.003826,0.339584,-0.000034,-0.000006,0.000009,-0.000003,-0.000037,73.815651,0.000045,
2446,3193,3.97725376756748,11.9302122975268,0.0300537086215513,0.002785,-0.000879,-0.000046,0.127997,-0.028470,312.077417,26.071530,0.999713,0.992021,0.003477,0.352934,-0.000006,0.000004,0.000010,0.000010,-0.000012,58.272538,0.000013,
2371,2728,2.43219968343928,1.82011372816213,-0.027153394057791,0.002773,-0.000899,0.000335,0.125855,-0.033045,319.113387,24.461989,0.999554,0.990965,0.003739,0.347780,-0.000036,-0.000010,-0.000003,-0.000010,-0.000036,-83.108210,0.000049,
2056,2683,-4.40797077427974,0.826113216999559,-0.0159453838267041,0.002953,-0.000758,-0.001502,0.139987,-0.029314,320.779565,24.364483,0.999480,0.991091,0.003854,0.409649,-0.000023,0.000005,0.000016,0.000013,-0.000030,65.248391,0.000031,
2221,1993,-0.699626773301421,-14.2582227561226,0.0356984366272854,0.002923,-0.000035,-0.003131,0.143819,-0.015179,331.680222,23.526628,0.999679,0.988993,0.004417,0.257036,-0.000026,-0.000095,0.000025,-0.000018,-0.000103,17.954324,0.000131,
2461,3238,4.29427604174475,12.9083808068686,0.0211895082172759,0.003224,-0.000804,-0.003861,0.162584,-0.039224,311.327407,26.303718,0.999742,0.994129,0.003182,0.340339,-0.000015,-0.000022,0.000004,-0.000013,-0.000023,24.137600,0.000037,
2326,2488,1.49892853525228,-3.41738378884889,-0.00734165658161601,0.002739,-0.000079,-0.000811,0.128474,0.005183,323.179748,23.867332,0.999435,0.987814,0.004238,0.411694,-0.000019,-0.000005,0.000019,0.000008,-0.000033,54.528836,0.000034,
2116,2908,-3.14078816948669,5.72150097406408,-0.013145567255151,0.003014,-0.000479,-0.002830,0.147134,-0.020424,316.850718,24.442032,0.999293,0.991017,0.004005,0.376640,-0.000020,-0.000009,0.000010,-0.000003,-0.000026,59.261895,0.000032,
2491,2218,5.15374333486301,-9.32334888332019,0.0059558586226558,0.002526,0.000063,-0.003730,0.129824,-0.011041,327.867191,22.554889,0.998898,0.980899,0.005601,0.247950,-0.000017,-0.000013,-0.000008,-0.000007,-0.000024,-52.004188,0.000032,
2161,3133,-2.19966535508371,10.6045584822374,0.0260800330015059,0.002843,-0.000766,-0.000706,0.133065,-0.019165,313.310085,24.644497,0.999487,0.993437,0.003489,0.401622,-0.000017,-0.000006,0.000001,-0.000005,-0.000017,84.589108,0.000023,
2071,2668,-4.08117148101381,0.501955007450228,-0.0315066895743144,0.002686,-0.000680,-0.000084,0.123668,-0.025799,320.793255,24.397419,0.999157,0.988878,0.004264,0.379474,-0.000019,0.000010,0.000020,0.000020,-0.000029,63.065206,0.000030,
2431,3073,3.6726498767939,9.32495820744332,0.000560042376150705,0.002628,-0.000948,-0.002200,0.128590,-0.049579,313.773489,25.556209,0.999665,0.992274,0.003603,0.385611,-0.000011,0.000005,0.000009,0.000009,-0.000015,65.815232,0.000015,
2041,2593,-4.72053680096006,-1.13278749500557,-0.0229437175049725,0.002977,-0.000790,0.000565,0.135191,-0.031525,322.259277,24.471222,0.999124,0.989689,0.004055,0.346724,-0.000017,0.000012,0.000025,0.000027,-0.000031,60.307221,0.000034,
2281,2353,0.543164316786243,-6.36984254250982,0.00558959496896705,0.002495,-0.001161,0.004494,0.099015,-0.035371,325.480816,23.679514,0.999267,0.985164,0.004812,0.394141,-0.000032,-0.000023,0.000010,-0.000017,-0.000039,57.562622,0.000057,
2341,2623,1.79875557911947,-0.469935329954254,-0.0242194158415145,0.002457,-0.000776,0.001254,0.108168,-0.027449,320.823792,24.173491,0.999355,0.987618,0.004343,0.378031,-0.000021,-0.000013,0.000005,-0.000011,-0.000023,65.779749,0.000035,
2506,2233,5.47893420387937,-8.99587741690964,0.0127343169979213,0.002056,0.000137,-0.007455,0.122881,-0.045123,327.720014,22.537277,0.998933,0.979869,0.005569,0.220974,-0.000005,-0.000024,-0.000016,0.000004,-0.000033,-29.217792,0.000036,
2026,2563,-5.04155008402125,-1.78780554824794,-0.0166792086371856,0.002911,-0.000889,0.000019,0.133671,-0.029731,322.886150,24.466308,0.999672,0.989542,0.003815,0.388114,0.000006,-0.000001,0.000034,0.000036,-0.000031,42.096621,0.000039,
2416,2983,3.36369958484438,7.36882056219207,-0.00428176181736717,0.002860,-0.000864,0.002080,0.123522,-0.028747,315.179997,25.210183,0.999845,0.994651,0.003186,0.417835,-0.000018,-0.000013,0.000006,-0.000009,-0.000021,56.216874,0.000031,
2011,2608,-5.37588125709508,-0.805911230726515,-0.032920541483918,0.002514,-0.001539,0.006879,0.096659,-0.031438,322.081413,24.502459,0.999530,0.992030,0.003822,0.338366,-0.000012,0.000027,0.000029,0.000042,-0.000027,61.864872,0.000042,
2386,2803,2.74375099919402,3.45402038112002,-0.0346748673555339,0.002742,-0.000792,-0.000773,0.128442,-0.034190,317.839717,24.619349,0.999861,0.995256,0.003266,0.408683,-0.000029,-0.000007,0.000004,-0.000007,-0.000030,80.404553,0.000038,
2446,3208,3.97431074797494,12.2555616487867,0.0278618310885008,0.002853,-0.000678,-0.002037,0.138666,-0.026182,311.823509,26.095873,0.999620,0.990912,0.003740,0.381900,-0.000007,-0.000004,0.000005,0.000000,-0.000011,50.510796,0.000013,
2461,3253,4.29020507518731,13.2340053829571,0.0159591829423107,0.002852,-0.000710,-0.000840,0.134144,-0.022686,311.008304,26.335036,0.999745,0.994120,0.003102,0.378548,-0.000017,-0.000012,0.000001,-0.000012,-0.000017,79.068124,0.000029,
2356,2713,2.10870882669894,1.4925841504383,-0.0255597601094451,0.002766,-0.000676,-0.000547,0.128721,-0.036189,319.369666,24.426207,0.999539,0.991745,0.003627,0.339130,-0.000026,-0.000012,-0.000005,-0.000011,-0.000027,-73.683823,0.000039,
2191,3253,-1.56950765686432,13.2075609180975,0.0305643434157901,0.002832,-0.000542,0.000607,0.128585,-0.011615,311.276144,24.856311,0.999697,0.994359,0.003119,0.427325,-0.000017,-0.000007,-0.000002,-0.000007,-0.000018,-79.020899,0.000025,
2131,2983,-2.82685035310402,7.34999009860358,-0.000141878622002878,0.003053,-0.000355,-0.000774,0.142893,-0.018250,315.667961,24.485451,0.999786,0.994375,0.003056,0.389668,-0.000015,-0.000011,0.000008,-0.000005,-0.000021,52.720458,0.000028,
2056,2698,-4.41068040133822,1.15335292286576,-0.0227827641986664,0.002978,-0.000496,-0.001601,0.141513,-0.023912,320.480785,24.370531,0.999365,0.991102,0.003816,0.404096,-0.000016,-0.000004,0.000021,0.000012,-0.000031,52.909944,0.000032,
2251,2203,-0.0830849560367604,-9.65198346944194,0.00392884600273646,0.003363,-0.000337,-0.002802,0.163214,-0.033807,327.996890,23.534992,0.998897,0.984700,0.005097,0.390594,-0.000028,-0.000010,-0.000001,-0.000010,-0.000028,-85.960084,0.000039,
2236,2158,-0.40294143444331,-10.6361874553047,0.00487632916559733,0.002757,0.000153,-0.003554,0.137913,-0.013130,328.732264,23.655788,0.998701,0.982415,0.005309,0.293952,-0.000018,-0.000015,0.000006,-0.000011,-0.000022,50.770098,0.000034,
2266,2293,0.227122453144954,-7.6809202321465,-9.45990975651512E-05,0.002705,-0.000414,-0.001863,0.130035,-0.022427,326.453540,23.671508,0.999357,0.985258,0.004928,0.358073,-0.000027,-0.000031,0.000002,-0.000027,-0.000032,19.653974,0.000059,
2311,2443,1.18071595185927,-4.40179070320639,-0.00348543205865326,0.002719,-0.000491,-0.001889,0.131012,-0.026429,323.952265,23.747654,0.999534,0.988940,0.004290,0.431981,-0.000022,-0.000023,0.000011,-0.000011,-0.000034,44.506101,0.000047,
2221,2008,-0.703788504043526,-13.9278006725566,0.0293778540678318,0.002313,-0.001068,0.004541,0.091104,-0.028552,331.334001,23.593145,0.999654,0.987683,0.004656,0.200449,-0.000037,-0.000066,0.000027,-0.000021,-0.000082,30.781820,0.000108,
2041,2608,-4.72274037697262,-0.806469701304749,-0.0243092981843347,0.003060,-0.000836,-0.000668,0.142466,-0.029103,322.012791,24.412261,0.999069,0.988191,0.004338,0.401246,-0.000014,0.000014,0.000023,0.000027,-0.000027,60.276803,0.000031,
2086,2818,-3.77791103664658,3.76483222260006,-0.0215905142960651,0.003086,-0.000587,-0.002750,0.149915,-0.041368,318.390936,24.407618,0.999454,0.992598,0.003597,0.339306,-0.000031,-0.000001,0.000009,0.000002,-0.000034,74.401310,0.000038,
2026,2578,-5.04430994188608,-1.46013590767162,-0.0238905624203767,0.002828,-0.000861,-0.000127,0.130224,-0.043197,322.580063,24.485677,0.999390,0.988952,0.004112,0.346601,0.000000,-0.000009,0.000025,0.000021,-0.000030,39.665116,0.000031,
2371,2743,2.42931799375693,2.14684833739105,-0.0316399129062575,0.002849,-0.000646,-0.002989,0.141262,-0.040044,318.847168,24.474088,0.999493,0.990374,0.003806,0.370244,-0.000036,-0.000009,-0.000003,-0.000008,-0.000037,-84.359532,0.000048,
2491,2233,5.15010889404907,-8.9958973293519,0.00529336286871285,0.002456,-0.000971,0.001281,0.107065,-0.044901,327.597033,22.521879,0.998961,0.981031,0.005686,0.308561,-0.000013,-0.000021,-0.000010,-0.000006,-0.000027,-34.175477,0.000035,
2506,2248,5.47574409729926,-8.66906274960623,0.0173737668491754,0.002305,-0.000777,0.001055,0.101061,-0.043279,327.494956,22.469600,0.998946,0.980419,0.005614,0.354034,-0.000006,-0.000012,-0.000003,-0.000004,-0.000013,-24.637351,0.000019,
2101,2818,-3.4528098664925,3.76575088119102,-0.0255791584544909,0.002907,-0.000636,-0.001289,0.137433,-0.036317,318.270688,24.405065,0.999407,0.992937,0.003549,0.362891,-0.000024,-0.000002,0.000014,0.000005,-0.000031,63.465739,0.000033,
2296,2398,0.861578927550401,-5.38430330840835,-0.00307330871635259,0.002224,-0.000302,-0.002306,0.109691,-0.019205,324.674422,23.776978,0.999188,0.985760,0.004910,0.355346,-0.000033,-0.000016,0.000007,-0.000013,-0.000035,70.121888,0.000050,
2281,2368,0.540605229743424,-6.04244591148098,0.00933093145914654,0.002348,-0.001222,0.004383,0.092625,-0.041001,325.263422,23.700113,0.999103,0.983082,0.005126,0.397514,-0.000036,-0.000016,0.000007,-0.000013,-0.000039,72.609219,0.000054,
2011,2623,-5.37712892011536,-0.480710311810164,-0.0247494290421741,0.002821,-0.001202,0.003751,0.119342,-0.040198,321.930092,24.438158,0.999594,0.992252,0.003645,0.382511,-0.000015,0.000016,0.000023,0.000028,-0.000027,62.440163,0.000032,
2161,3148,-2.20258442574871,10.929873223832,0.0208202597092964,0.002814,-0.000999,-0.000826,0.131967,-0.043292,313.019937,24.653139,0.999463,0.992617,0.003675,0.377525,-0.000014,-0.000004,0.000002,-0.000004,-0.000014,78.847695,0.000019,
2416,2998,3.36105924025714,7.69501229905716,-0.00272813475601197,0.002997,-0.000969,0.001480,0.131967,-0.037385,314.956062,25.292715,0.999548,0.989616,0.003933,0.373625,-0.000015,-0.000018,0.000007,-0.000009,-0.000023,39.821881,0.000034,
2461,3268,4.28524848312189,13.5603995230962,-0.00378408002057995,0.002622,-0.000778,0.000127,0.119924,-0.025973,310.581306,26.381775,0.999756,0.994457,0.002985,0.381440,-0.000014,-0.000025,0.000003,-0.000013,-0.000026,16.401768,0.000039,
2401,2908,3.05114452614962,5.73901589323339,-0.0150908616255947,0.002750,-0.000994,0.001559,0.120364,-0.039077,316.294744,25.050650,0.999599,0.990998,0.003779,0.302203,-0.000022,-0.000011,0.000008,-0.000007,-0.000026,62.325806,0.000035,
2056,2713,-4.41305107826642,1.48046896421103,-0.0281523508833743,0.003286,-0.000624,-0.001202,0.154588,-0.013504,320.205634,24.377602,0.999178,0.990139,0.003919,0.402346,-0.000015,0.000018,0.000017,0.000025,-0.000022,67.082151,0.000027,
2341,2638,1.79643449444118,-0.143744410432895,-0.0179395207768493,0.002388,-0.000793,0.000204,0.108654,-0.034640,320.633419,24.191998,0.999355,0.987411,0.004386,0.389443,-0.000024,-0.000010,0.000004,-0.000009,-0.000025,74.245278,0.000036,
2071,2683,-4.0833885168488,0.827742405224853,-0.0255817037845532,0.002510,-0.000890,0.001026,0.112382,-0.022526,320.588689,24.373893,0.999408,0.991102,0.003803,0.403500,-0.000025,0.000005,0.000015,0.000011,-0.000031,66.879905,0.000032,
2446,3223,3.97092384848623,12.5812861776131,0.0259544656224762,0.002704,-0.000670,-0.001001,0.127930,-0.021257,311.550252,26.158026,0.999611,0.991660,0.003702,0.375313,-0.000009,-0.000018,0.000005,-0.000007,-0.000021,23.323819,0.000028,
2221,2023,-0.706108148778686,-13.5987367114932,0.0241620633174762,0.002588,-0.000737,-0.000135,0.118755,-0.052150,331.077768,23.564703,0.999052,0.982196,0.005355,0.227771,-0.000036,-0.000056,0.000021,-0.000023,-0.000069,32.333044,0.000095,
2116,2923,-3.14284889401159,6.04665847201021,-0.0084039448289559,0.003000,-0.000462,-0.004280,0.150776,-0.028498,316.650135,24.426846,0.998963,0.989369,0.004293,0.386613,-0.000018,-0.000011,0.000010,-0.000004,-0.000026,54.816127,0.000032,
2506,2263,5.47243416542257,-8.33933473336962,0.0127233960878357,0.002825,-0.001273,0.004630,0.110847,-0.031811,327.222640,22.568502,0.998663,0.976455,0.005898,0.330207,-0.000015,-0.000034,-0.000005,-0.000014,-0.000036,-13.698228,0.000051,
2326,2503,1.49517608886089,-3.08889624888689,-0.0150923634463993,0.002502,-0.000691,0.001022,0.111070,-0.011827,322.854268,23.938743,0.999397,0.988122,0.004164,0.359138,-0.000021,-0.000012,0.000017,0.000001,-0.000034,53.063435,0.000039,
2026,2593,-5.04715099848546,-1.13284945447799,-0.0280748442846175,0.002699,-0.001239,0.003321,0.114763,-0.036043,322.287176,24.481378,0.999166,0.989430,0.004244,0.349029,-0.000006,0.000016,0.000031,0.000038,-0.000028,55.177556,0.000039,
2146,3013,-2.50576133952341,8.00202746798442,0.0068734580655132,0.002986,-0.000379,-0.004071,0.149862,-0.020873,315.182473,24.575545,0.999487,0.990712,0.003881,0.351389,-0.000020,-0.000004,0.000010,0.000001,-0.000025,64.363385,0.000029,
2041,2623,-4.72499844120118,-0.479861133101302,-0.0244587367135978,0.003088,-0.000681,-0.000735,0.143986,-0.040196,321.770523,24.408605,0.998994,0.988238,0.004399,0.386904,-0.000013,0.000008,0.000016,0.000017,-0.000022,61.344534,0.000023,
2356,2728,2.10635794864435,1.81861312336024,-0.0169778870094319,0.002784,-0.000887,0.001906,0.120893,-0.022600,319.189668,24.452792,0.999509,0.991037,0.003744,0.364907,-0.000028,-0.000007,-0.000001,-0.000007,-0.000028,-86.226066,0.000038,
2431,3088,3.67130984512498,9.65010724907331,0.0194802808271106,0.002712,-0.000570,-0.002408,0.133387,-0.030025,313.691227,25.648321,0.999714,0.993098,0.003440,0.361764,-0.000012,0.000010,0.000010,0.000014,-0.000016,69.317800,0.000017,
2311,2458,1.17742406928656,-4.07330049369318,-0.0101841797701354,0.002888,-0.000774,0.000795,0.129564,-0.001204,323.651628,23.770043,0.999486,0.987886,0.004448,0.468637,-0.000027,-0.000019,0.000014,-0.000008,-0.000038,52.654476,0.000049,
2011,2638,-5.3799099176047,-0.15282860155768,-0.0337328956043166,0.002589,-0.000586,0.000100,0.118816,-0.017817,321.611542,24.447305,0.999271,0.986910,0.004369,0.384493,-0.000012,0.000017,0.000027,0.000033,-0.000029,59.035610,0.000036,
2176,3163,-1.87910322110939,11.2559428255957,0.0326540697956261,0.002825,-0.001063,0.000349,0.128834,-0.041307,312.816832,24.766035,0.999833,0.996663,0.002753,0.342270,-0.000017,-0.000002,0.000000,-0.000002,-0.000017,89.175981,0.000021,
2236,2173,-0.405107299244019,-10.3085983745542,0.0115186207881379,0.002863,-0.000360,-0.001525,0.136030,-0.034175,328.544619,23.675702,0.998876,0.983781,0.005125,0.276608,-0.000013,-0.000011,0.000006,-0.000006,-0.000018,48.334263,0.000025,
2446,3238,3.9676057850223,12.9069120644767,0.0191666460621605,0.002995,-0.000942,-0.000291,0.138491,-0.046151,311.257526,26.217294,0.999662,0.993203,0.003371,0.341957,-0.000011,-0.000019,0.000001,-0.000011,-0.000019,8.502489,0.000031,
2461,3283,4.28211404626089,13.8856008907074,-0.00643518836426438,0.002857,-0.000969,0.001727,0.124505,-0.049801,310.317169,26.438197,0.999535,0.992003,0.003584,0.353731,-0.000006,-0.000054,0.000002,-0.000006,-0.000054,2.568386,0.000066,
2266,2308,0.225041869564354,-7.35313018766087,0.00406861880179576,0.002864,-0.000230,-0.003549,0.142990,-0.004791,326.259022,23.689924,0.999059,0.982413,0.005298,0.384860,-0.000035,-0.000041,0.000005,-0.000032,-0.000044,28.582014,0.000076,
2131,2998,-2.82871832684356,7.67467625015324,0.00206425762740992,0.003350,-0.000349,-0.003369,0.164379,-0.024906,315.463784,24.426845,0.999787,0.994456,0.003116,0.446655,-0.000018,-0.000004,0.000012,0.000003,-0.000025,60.400912,0.000027,
2191,3268,-1.57296100515426,13.5324029664742,0.0195671601092613,0.002831,-0.001132,0.001996,0.123940,-0.043561,310.933926,24.831223,0.999468,0.992337,0.003545,0.433290,-0.000017,0.000003,0.000000,0.000003,-0.000017,-88.619114,0.000018,
2086,2833,-3.7804020087263,4.0906786499889,-0.0157988462737535,0.002829,-0.000760,0.000592,0.128394,-0.021210,318.174115,24.411822,0.999771,0.994986,0.003005,0.353794,-0.000032,-0.000001,0.000008,0.000000,-0.000034,77.085081,0.000039,
2341,2653,1.79314253350344,0.184561948748787,-0.0294323408948003,0.002744,-0.000623,-0.000430,0.127265,-0.027895,320.311717,24.245562,0.999451,0.989082,0.004197,0.380100,-0.000024,-0.000005,0.000005,-0.000003,-0.000025,75.768346,0.000031,
2161,3163,-2.20452617630665,11.2550805380731,0.0282238571265907,0.003023,-0.000813,0.000647,0.137167,-0.026325,312.841640,24.691457,0.999610,0.993301,0.003394,0.365112,-0.000013,0.000000,-0.000001,0.000000,-0.000013,-83.809921,0.000016,
2371,2758,2.42631933894429,2.47415553550022,-0.0329132667174576,0.002884,-0.000527,-0.002196,0.140051,-0.038850,318.590722,24.561168,0.999180,0.986955,0.004202,0.325512,-0.000034,-0.000001,0.000003,-0.000001,-0.000034,85.168997,0.000040,
2056,2728,-4.4156495818164,1.80729713122649,-0.0305139130058478,0.003250,-0.000531,0.000298,0.148685,-0.011845,319.936736,24.396457,0.999264,0.990667,0.003874,0.380034,-0.000021,0.000022,0.000018,0.000029,-0.000028,69.858392,0.000033,
2296,2413,0.859151921338412,-5.05683894085515,-0.00100989213848379,0.002700,-0.001052,0.002130,0.116313,-0.042263,324.455823,23.820268,0.999364,0.986998,0.004650,0.320339,-0.000034,-0.000016,0.000007,-0.000013,-0.000036,70.259304,0.000051,
2101,2833,-3.45535537735043,4.09144793536628,-0.0212686630400754,0.002758,-0.001091,0.002764,0.118593,-0.041616,318.044365,24.410341,0.999669,0.993852,0.003280,0.353417,-0.000025,-0.000001,0.000013,0.000004,-0.000030,66.377775,0.000033,
2491,2248,5.14663529955029,-8.66767717639575,0.00623062792953988,0.002231,-0.000936,0.004137,0.085885,-0.041773,327.341106,22.543871,0.998980,0.981558,0.005478,0.350915,-0.000013,-0.000012,-0.000002,-0.000011,-0.000015,-53.114668,0.000026,
2071,2698,-4.08578649640995,1.15394726002711,-0.0253766172137944,0.002454,-0.000981,0.001198,0.109301,-0.026587,320.344439,24.352967,0.999418,0.991916,0.003665,0.417489,-0.000020,-0.000006,0.000017,0.000006,-0.000032,56.307066,0.000034,
2026,2608,-5.04950638052537,-0.8055653321533,-0.0320429236971904,0.002947,-0.001451,0.005132,0.121184,-0.023228,322.017704,24.478290,0.998984,0.987808,0.004522,0.356089,-0.000005,0.000022,0.000031,0.000042,-0.000025,56.635819,0.000042,
2041,2638,-4.72750624545535,-0.153204153747659,-0.0230478654169133,0.002805,-0.000429,-0.000308,0.129835,-0.022567,321.525389,24.398679,0.999192,0.989773,0.004169,0.407286,-0.000008,0.000010,0.000018,0.000021,-0.000019,58.552111,0.000023,
2506,2278,5.46907248773883,-8.01019182750298,0.00765135193267952,0.002657,-0.000562,0.000437,0.119634,-0.051424,326.946168,22.646565,0.998884,0.977502,0.005567,0.295946,-0.000020,-0.000030,0.000007,-0.000016,-0.000034,28.007989,0.000051,
2326,2518,1.4922906315284,-2.76126974004026,-0.0190108332833461,0.002557,-0.000527,-0.000828,0.119994,-0.026369,322.587354,23.969122,0.999318,0.986436,0.004397,0.349785,-0.000025,-0.000013,0.000015,-0.000003,-0.000035,55.853981,0.000042,
2146,3028,-2.5081509841939,8.32697807279821,0.00783545917636275,0.003144,-0.000686,-0.002513,0.152329,-0.029593,314.948659,24.542817,0.999485,0.991430,0.003752,0.382512,-0.000018,-0.000006,0.000007,-0.000003,-0.000021,65.906127,0.000026,
2446,3253,3.96458374503935,13.2321530558337,0.0225399603970686,0.002620,-0.000764,-0.001182,0.124698,-0.033900,311.025524,26.265361,0.999757,0.994405,0.003049,0.356896,-0.000015,-0.000009,-0.000001,-0.000009,-0.000016,-78.543515,0.000025,
2386,2818,2.74090425361606,3.78041049598007,-0.0315205940432293,0.002590,-0.000918,-0.000190,0.119298,-0.044846,317.612476,24.686240,0.999699,0.992169,0.003729,0.374284,-0.000034,-0.000010,0.000002,-0.000010,-0.000034,85.850582,0.000046,
2401,2923,3.04881036771765,6.06426912317303,-0.011177270468977,0.002898,-0.000725,-0.000010,0.132947,-0.039867,316.095554,25.035907,0.999534,0.991276,0.003788,0.361338,-0.000020,-0.000013,0.000006,-0.000009,-0.000024,60.060853,0.000035,
2281,2383,0.53747724426508,-5.71308392877239,-0.00330687416436604,0.002541,-0.000949,0.000201,0.115553,-0.050417,324.938053,23.751010,0.998880,0.982886,0.005250,0.366891,-0.000039,-0.000016,0.000008,-0.000013,-0.000041,73.533504,0.000057,
2416,3013,3.35805135953409,8.02135118982086,-0.00484984336208072,0.002817,-0.000848,-0.002150,0.137090,-0.040549,314.697855,25.362637,0.999434,0.987747,0.004135,0.347383,-0.000011,-0.000014,0.000008,-0.000004,-0.000021,39.922417,0.000028,
2461,3298,4.27976446928175,14.2107993360034,-0.00637829521264166,0.003199,-0.000680,-0.002180,0.155189,-0.032915,310.101607,26.472156,0.999513,0.993535,0.003454,0.390096,-0.000012,-0.000057,0.000000,-0.000012,-0.000057,-0.453854,0.000073,
2116,2938,-3.14547891355791,6.37258172714785,-0.0086389619020224,0.002992,-0.000695,-0.001871,0.143213,-0.031768,316.396404,24.445782,0.999395,0.990939,0.003876,0.367106,-0.000019,-0.000008,0.000010,-0.000002,-0.000025,60.149880,0.000030,
2131,3013,-2.83122716872379,8.0009599516762,0.00529270715838948,0.003124,-0.000458,-0.003248,0.153625,-0.019882,315.235104,24.514287,0.999457,0.991825,0.003647,0.368993,-0.000016,-0.000003,0.000012,0.000004,-0.000023,58.598554,0.000024,
2011,2653,-5.38196150561324,0.173473942170183,-0.0399769827948262,0.002989,-0.000650,-0.002459,0.144094,-0.048147,321.342361,24.392949,0.999109,0.986595,0.004502,0.397118,-0.000017,0.000027,0.000015,0.000032,-0.000022,72.605204,0.000033,
2311,2473,1.17478412087146,-3.7451757728776,-0.00957211264142188,0.002719,-0.000288,-0.002430,0.132949,-0.023374,323.416979,23.879445,0.999271,0.986532,0.004576,0.370611,-0.000021,-0.000017,0.000020,0.000001,-0.000039,48.140939,0.000045,
2356,2743,2.10345037108341,2.1449462504408,-0.0173851671598868,0.002532,-0.000772,-0.000919,0.119235,-0.039643,318.940739,24.469646,0.999597,0.991916,0.003547,0.370081,-0.000029,-0.000007,-0.000001,-0.000007,-0.000029,-87.334056,0.000038,
2176,3178,-1.88090390020929,11.5799807163492,0.0422713336727725,0.003021,-0.000855,0.001495,0.134356,-0.031493,312.657880,24.719650,0.999755,0.995396,0.003003,0.409582,-0.000018,-0.000003,0.000000,-0.000003,-0.000018,89.188201,0.000023,
2431,3103,3.66780514098658,9.97614923927249,0.0129688274417958,0.002749,-0.000903,-0.001899,0.133085,-0.046478,313.390516,25.700417,0.999764,0.994253,0.003269,0.342486,-0.000008,0.000007,0.000012,0.000014,-0.000015,60.402283,0.000017,
2191,3283,-1.57542021990301,13.8577704690981,0.0146978672220826,0.002713,-0.000784,-0.006744,0.146123,-0.043063,310.669187,24.860716,0.999580,0.994394,0.003144,0.417572,-0.000020,-0.000001,0.000003,-0.000001,-0.000020,81.897312,0.000024,
2266,2323,0.222072768141299,-7.02461690484745,0.00753595474282065,0.002736,-0.000822,0.002242,0.117784,-0.028381,326.020350,23.813390,0.998746,0.979846,0.005728,0.265101,-0.000032,-0.000039,0.000009,-0.000026,-0.000046,34.063739,0.000073,
2341,2668,1.79016608288535,0.511343965262974,-0.0220246177348145,0.002325,-0.001080,0.003573,0.093938,-0.039764,320.096499,24.341254,0.999693,0.991851,0.003838,0.309126,-0.000026,-0.000006,0.000003,-0.000006,-0.000026,81.277583,0.000034,
2071,2713,-4.08831041375904,1.48145771253373,-0.0336986717919672,0.002798,-0.000805,0.001193,0.125223,-0.019782,320.047322,24.376415,0.999274,0.990590,0.003890,0.398114,-0.000020,0.000013,0.000013,0.000018,-0.000025,70.300231,0.000025,
2026,2623,-5.05114531087428,-0.479595211235456,-0.0277758303544715,0.002957,-0.000642,-0.000633,0.137697,-0.028810,321.827374,24.448386,0.999100,0.987925,0.004504,0.371089,-0.000009,0.000014,0.000022,0.000028,-0.000023,59.077298,0.000029,
2506,2293,5.46604193316111,-7.68180259178124,0.00823948375074224,0.002692,-0.001060,0.000343,0.121416,-0.060354,326.710036,22.707806,0.999217,0.979093,0.005392,0.288938,-0.000022,-0.000026,0.000029,0.000005,-0.000053,42.765081,0.000058,
2041,2653,-4.73008019840393,0.174204201708037,-0.03532242016081,0.003220,-0.000671,-0.001074,0.151001,-0.041313,321.201286,24.383617,0.999354,0.990194,0.004043,0.397026,-0.000010,0.000019,0.000012,0.000023,-0.000014,69.545257,0.000023,
2221,2038,-0.709101075127407,-13.2694806988536,0.0204177412740023,0.002460,-0.000765,0.000448,0.111004,-0.050630,330.798084,23.551583,0.998841,0.978465,0.005675,0.265254,-0.000031,-0.000038,0.000021,-0.000013,-0.000056,39.816037,0.000073,
2446,3268,3.95973695680463,13.5583873667291,0.00200505973219833,0.002453,-0.000679,-0.001100,0.116751,-0.029493,310.598279,26.284627,0.999724,0.993982,0.003139,0.392832,-0.000016,-0.000017,0.000000,-0.000016,-0.000017,4.122308,0.000033,
2056,2743,-4.41849208533661,2.13329799030041,-0.0344736020130085,0.002825,-0.000523,-0.002120,0.135920,-0.037386,319.648180,24.358662,0.999361,0.991566,0.003797,0.387193,-0.000028,0.000019,0.000010,0.000021,-0.000030,78.177717,0.000031,
2251,2218,-0.0854203447649979,-9.32341173385396,0.00935208118863784,0.003106,-0.000188,-0.005163,0.159168,-0.024480,327.796025,23.616375,0.998267,0.979116,0.005848,0.344195,-0.000023,-0.000014,-0.000002,-0.000013,-0.000024,-78.366316,0.000037,
2371,2773,2.42378232054903,2.79995442200853,-0.0254938358602885,0.002793,-0.000644,-0.000181,0.128718,-0.024513,318.397365,24.569174,0.999481,0.990473,0.003791,0.372878,-0.000034,-0.000005,0.000000,-0.000005,-0.000034,89.488288,0.000042,
2476,1993,4.87512847506546,-14.266481453476,0.0407078784864439,0.002935,-0.000088,-0.002128,0.142110,-0.020380,331.762206,21.706061,0.998309,0.970640,0.006549,0.263547,-0.000001,-0.000144,0.000056,0.000018,-0.000163,19.026513,0.000179,
2101,2848,-3.45752299397025,4.41747284899353,-0.0260543459000928,0.003015,-0.000362,-0.001828,0.144168,-0.003612,317.785957,24.338298,0.999811,0.994434,0.003080,0.464517,-0.000026,-0.000001,0.000010,0.000003,-0.000030,70.256394,0.000033,
2086,2848,-3.78221411436713,4.41576796568108,-0.0128762242900393,0.003067,-0.000347,-0.001794,0.146437,-0.000212,317.973045,24.327651,0.999690,0.993598,0.003300,0.457819,-0.000033,-0.000002,0.000006,-0.000001,-0.000034,79.099747,0.000039,
2416,3028,3.3548342886549,8.34741548782329,-0.00678495738259244,0.002732,-0.000748,-0.001784,0.131898,-0.035013,314.430887,25.404251,0.999517,0.989254,0.004004,0.358590,-0.000012,-0.000011,0.000005,-0.000006,-0.000016,48.953929,0.000023,
2296,2428,0.856752520482072,-4.72857564986796,-0.00405595085095456,0.003023,-0.000485,-0.000973,0.141817,-0.014679,324.212844,23.842623,0.999541,0.988944,0.004290,0.357168,-0.000030,-0.000032,0.000006,-0.000025,-0.000037,38.048568,0.000063,
2491,2263,5.14426754238395,-8.33857336019015,0.00646376612365884,0.002567,-0.000587,-0.000298,0.118383,-0.038689,327.132599,22.644408,0.998950,0.979409,0.005320,0.314628,-0.000022,-0.000033,-0.000005,-0.000020,-0.000034,-19.959827,0.000055,
2326,2533,1.48947514196822,-2.4344007049432,-0.0202828600419593,0.002602,-0.000777,-0.001056,0.122802,-0.036271,322.336647,23.954470,0.999352,0.986136,0.004470,0.389778,-0.000022,-0.000017,0.000009,-0.000010,-0.000029,53.095315,0.000040,
2146,3043,-2.51089877970435,8.6526730550891,0.00847084244071539,0.003032,-0.000738,-0.000001,0.139530,-0.025586,314.696390,24.567727,0.999506,0.993132,0.003317,0.368572,-0.000020,-0.000007,0.000005,-0.000006,-0.000021,72.032067,0.000029,
2161,3178,-2.20681390564385,11.5799677994711,0.0317064345390463,0.003085,-0.000814,0.001162,0.138506,-0.017029,312.626842,24.687527,0.999555,0.991847,0.003572,0.387138,-0.000014,-0.000002,-0.000003,-0.000001,-0.000014,-76.584730,0.000017,
2386,2833,2.73808461837039,4.10739488344116,-0.0309893484189843,0.002616,-0.000764,-0.000333,0.121093,-0.031986,317.373760,24.768432,0.999568,0.988621,0.004170,0.347818,-0.000033,-0.000002,0.000003,-0.000002,-0.000033,83.880859,0.000039,
2011,2668,-5.38375407188914,0.499195485151063,-0.0320112815526841,0.003056,-0.000873,-0.000837,0.142735,-0.041372,321.164856,24.371878,0.999127,0.987633,0.004307,0.413258,-0.000023,0.000038,0.000025,0.000047,-0.000033,70.187093,0.000048,
2476,2008,4.87091910636056,-13.9358502133814,0.0268483517804157,0.002922,-0.000339,-0.002527,0.142922,-0.030828,331.405786,21.705532,0.999052,0.975912,0.005877,0.314627,0.000004,-0.000130,0.000060,0.000027,-0.000153,20.913559,0.000164,
2281,2398,0.534097906456232,-5.38439436222576,-0.0035147348380633,0.002230,-0.001268,0.004962,0.085281,-0.022660,324.662960,23.829097,0.999170,0.985502,0.004976,0.346135,-0.000038,-0.000014,0.000008,-0.000012,-0.000040,73.208392,0.000055,
2191,3298,-1.57910390472689,14.1844741020221,-0.00281445705746819,0.003026,-0.000759,-0.004000,0.151924,-0.040120,310.281523,24.947612,0.999752,0.996535,0.002692,0.346387,-0.000026,-0.000001,-0.000001,-0.000001,-0.000026,-87.534359,0.000030,
2401,2938,3.04604635220417,6.38987242193612,-0.00459121296330522,0.002728,-0.000577,0.002464,0.116305,0.000174,315.888996,25.035226,0.999557,0.991471,0.003758,0.447079,-0.000018,-0.000015,0.000005,-0.000011,-0.000022,54.336142,0.000034,
2176,3193,-1.88279582283063,11.9032013815386,0.0543245096773717,0.002767,-0.000903,-0.000214,0.128002,-0.032543,312.507853,24.625548,0.999812,0.996516,0.002825,0.513619,-0.000019,-0.000007,-0.000003,-0.000006,-0.000019,-77.348035,0.000027,
2446,3283,3.95616394946552,13.8842761958818,-0.0056893257362276,0.002640,-0.000683,0.000551,0.119127,-0.036452,310.289217,26.359704,0.999771,0.993282,0.003221,0.361190,-0.000011,-0.000042,-0.000003,-0.000010,-0.000043,-4.693617,0.000056,
2131,3028,-2.8340118406938,8.32578990334746,0.0103251184662554,0.002902,-0.000975,0.002982,0.124563,-0.021718,315.003927,24.490473,0.999527,0.992223,0.003573,0.395796,-0.000015,-0.000005,0.000009,0.000000,-0.000020,58.734687,0.000023,
2026,2638,-5.0530953361984,-0.154158191438682,-0.0183614669991812,0.002704,-0.000397,-0.000492,0.125740,-0.019438,321.651651,24.402318,0.999314,0.990644,0.003980,0.416997,-0.000008,0.000015,0.000024,0.000030,-0.000023,58.054996,0.000031,
2266,2338,0.218698830066714,-6.69583187235283,-0.00480145599573234,0.002584,-0.000439,-0.002420,0.126355,-0.017586,325.683704,23.776463,0.999006,0.983053,0.005230,0.340800,-0.000029,-0.000024,0.000011,-0.000015,-0.000038,51.310800,0.000055,
2236,2188,-0.407829061350217,-9.97966866457699,0.0163430752497788,0.002768,-0.000852,0.003565,0.115087,-0.034771,328.322000,23.782878,0.999150,0.985881,0.004860,0.192629,-0.000016,-0.000009,-0.000001,-0.000009,-0.000017,-83.510310,0.000026,
2311,2488,1.17218661283333,-3.41817650078975,-0.00441955688080498,0.002536,-0.000397,-0.001828,0.122476,-0.023346,323.206677,23.909958,0.999370,0.987724,0.004299,0.373291,-0.000020,-0.000010,0.000014,0.000000,-0.000030,54.342962,0.000034,
2056,2758,-4.42012953188121,2.45874994297897,-0.0234004471805633,0.002976,-0.000700,0.000225,0.136234,-0.031669,319.497780,24.362828,0.999364,0.991241,0.003860,0.383312,-0.000025,0.000003,0.000001,0.000003,-0.000025,87.266891,0.000027,
2041,2668,-4.73213639750095,0.499977868563946,-0.0272357600439932,0.002913,-0.000663,-0.001835,0.139013,-0.035038,321.014139,24.369223,0.999349,0.988833,0.004266,0.410359,-0.000019,0.000017,0.000020,0.000025,-0.000028,66.223670,0.000031,
2356,2758,2.09952418377402,2.47322195635159,-0.0321446667099963,0.002535,-0.000399,-0.001636,0.122105,-0.009855,318.575201,24.509552,0.999462,0.990149,0.003825,0.399560,-0.000027,-0.000001,0.000004,0.000000,-0.000027,80.471186,0.000032,
2341,2683,1.787460353379,0.837991659175131,-0.0257737593735214,0.002747,-0.001323,0.003929,0.111983,-0.052202,319.839582,24.336646,0.999689,0.991665,0.003780,0.338460,-0.000026,-0.000004,-0.000001,-0.000004,-0.000026,-88.006086,0.000033,
2116,2953,-3.14806013205078,6.69828480921801,-0.00395596686473709,0.002855,-0.000866,0.002674,0.123405,-0.014817,316.171421,24.462907,0.999663,0.991516,0.003572,0.369826,-0.000017,-0.000013,0.000011,-0.000004,-0.000026,50.275241,0.000032,
2491,2278,5.14197645983741,-8.00928740880536,0.00753906985102049,0.003090,-0.000097,-0.002581,0.151254,-0.017753,326.931212,22.757456,0.999264,0.981973,0.004998,0.283550,-0.000027,-0.000027,0.000006,-0.000021,-0.000033,45.438536,0.000055,
2371,2788,2.42136507654655,3.12726729589178,-0.0201051490207647,0.002835,-0.000674,-0.000135,0.130509,-0.025672,318.199410,24.719439,0.999860,0.994727,0.003221,0.262147,-0.000033,-0.000010,-0.000001,-0.000010,-0.000033,-88.236276,0.000045,
2431,3118,3.6645259200694,10.3024953570824,0.00686012734257702,0.003182,-0.001128,0.001112,0.141869,-0.033230,313.101866,25.758244,0.999829,0.995257,0.003060,0.346602,-0.000005,0.000010,0.000012,0.000016,-0.000011,61.556119,0.000017,
2086,2863,-3.78466096418228,4.74246185138344,-0.0149843095678648,0.003136,-0.000531,-0.001974,0.150022,-0.031982,317.715074,24.410146,0.999490,0.991156,0.003862,0.342276,-0.000029,-0.000002,0.000004,-0.000001,-0.000029,81.546689,0.000034,
2071,2728,-4.08993007095805,1.80734262841237,-0.0286966163977809,0.003172,-0.000716,0.000524,0.144394,-0.020294,319.865091,24.370608,0.999104,0.989406,0.004163,0.400151,-0.000024,0.000015,0.000014,0.000019,-0.000029,71.710507,0.000030,
2506,2308,5.46292844361288,-7.35439113581157,0.0141085686383917,0.002307,-0.001244,0.001666,0.098613,-0.056081,326.493577,22.724246,0.999185,0.980923,0.005288,0.339813,-0.000011,-0.000025,0.000026,0.000009,-0.000044,37.492900,0.000047,
2476,2023,4.86801710213541,-13.6054928582896,0.0276894669043486,0.003073,-0.000218,-0.001990,0.147849,-0.013966,331.175405,21.826295,0.999404,0.981646,0.005257,0.270949,0.000019,-0.000083,0.000040,0.000033,-0.000097,19.112938,0.000099,
2011,2683,-5.38538455212442,0.824718632563894,-0.0214390789407162,0.002984,-0.000863,-0.001702,0.141775,-0.054833,321.009550,24.377656,0.999809,0.996024,0.002864,0.382115,-0.000022,0.000025,0.000028,0.000038,-0.000035,65.028656,0.000043,
2251,2233,-0.0887791326162635,-8.99431024608631,0.000792650610378587,0.003053,-0.000336,-0.004352,0.154073,-0.029349,327.477778,23.620530,0.998521,0.980243,0.005599,0.361334,-0.000025,-0.000015,-0.000003,-0.000014,-0.000026,-75.212873,0.000041,
2416,3043,3.35261915772783,8.67268426641552,0.00245077437887176,0.002631,-0.000565,-0.002935,0.131555,-0.027960,314.262609,25.448644,0.999607,0.991017,0.003797,0.367816,-0.000011,-0.000001,0.000008,0.000004,-0.000016,60.690358,0.000016,
2146,3058,-2.51311709132951,8.97735855679728,0.0137830065094136,0.002937,-0.000942,-0.000543,0.136700,-0.048562,314.493674,24.560866,0.999546,0.994315,0.003300,0.359199,-0.000019,-0.000005,0.000002,-0.000004,-0.000019,80.719665,0.000025,
2446,3298,3.95310281612486,14.2089929184066,-0.00981716013728828,0.002819,-0.000584,-0.000555,0.131575,-0.030669,310.020597,26.337659,0.999786,0.993832,0.003148,0.439857,-0.000012,-0.000049,-0.000005,-0.000012,-0.000049,-7.976255,0.000065,
2161,3193,-2.20966637206879,11.9042887594887,0.0313640153293022,0.002727,-0.001025,0.000003,0.125453,-0.037293,312.366091,24.641857,0.999631,0.993967,0.003203,0.421138,-0.000014,-0.000005,-0.000007,-0.000001,-0.000018,-61.939013,0.000022,
2026,2653,-5.05567772733272,0.17338195331579,-0.0307334396733268,0.003006,-0.000447,-0.002521,0.145203,-0.024784,321.324966,24.384509,0.999356,0.991221,0.003816,0.420632,-0.000012,0.000025,0.000015,0.000030,-0.000017,70.538413,0.000030,
2221,2053,-0.712235754694088,-12.9393750291093,0.015180762386251,0.002252,-0.000472,0.000352,0.101887,-0.011807,330.503958,23.568055,0.998879,0.977884,0.005680,0.310149,-0.000028,-0.000023,0.000020,-0.000005,-0.000045,48.896696,0.000056,
2266,2353,0.215742871938343,-6.36828672107831,-0.0045954710026308,0.002520,-0.000741,0.000927,0.112290,-0.020435,325.429291,23.769127,0.999070,0.983779,0.005174,0.372767,-0.000032,-0.000019,0.000010,-0.000014,-0.000038,62.290655,0.000053,
2206,1993,-1.02815084496408,-14.2568419919711,0.023884604569389,0.002779,0.000010,-0.002551,0.135324,-0.015327,331.610229,23.585131,0.999456,0.983939,0.004923,0.304773,-0.000026,-0.000093,0.000019,-0.000021,-0.000098,14.843579,0.000126,
2476,2038,4.8646517012207,-13.276995277066,0.0303569953626948,0.002690,-0.000145,-0.000254,0.123845,-0.022452,330.932195,21.828829,0.999398,0.980155,0.005513,0.320013,0.000020,-0.000076,0.000028,0.000027,-0.000083,14.963134,0.000085,
2326,2548,1.48667878513416,-2.10699319004186,-0.0190973504055592,0.002821,-0.000868,0.003177,0.118261,-0.019087,322.098566,23.988922,0.999074,0.984569,0.004800,0.407962,-0.000023,-0.000011,0.000010,-0.000005,-0.000029,61.620867,0.000037,
2176,3208,-1.88643545372982,12.2310315232947,0.0352061175316862,0.002956,-0.000749,-0.000907,0.138850,-0.037535,312.112011,24.781873,0.999690,0.994881,0.003103,0.363106,-0.000019,-0.000013,-0.000004,-0.000011,-0.000021,-61.702221,0.000033,
2011,2698,-5.38758060609069,1.15137862889132,-0.0219583713691804,0.003084,-0.000443,-0.001276,0.145365,-0.035294,320.765716,24.367373,0.999825,0.995835,0.002882,0.400344,-0.000022,0.000013,0.000031,0.000031,-0.000040,59.797178,0.000042,
2401,2953,3.04255349756192,6.71661913651243,-0.012052279199338,0.002576,-0.000764,0.000237,0.117300,-0.028527,315.582291,25.113654,0.999619,0.991997,0.003681,0.384739,-0.000019,-0.000015,0.000007,-0.000009,-0.000024,51.920039,0.000035,
2041,2683,-4.73478498668587,0.827315475216309,-0.0332116661242594,0.002947,-0.000554,-0.001401,0.139449,-0.017932,320.721459,24.375097,0.999456,0.991137,0.003881,0.414417,-0.000023,0.000008,0.000018,0.000017,-0.000031,65.144430,0.000031,
2056,2773,-4.42215122384318,2.7845005104995,-0.0174081261236552,0.002898,-0.000555,-0.000019,0.133389,-0.022438,319.301704,24.354113,0.999235,0.989467,0.004094,0.395878,-0.000020,0.000003,-0.000001,0.000003,-0.000020,-86.458448,0.000021,
2461,1993,4.54570892530914,-14.2640930823572,0.0256630644633447,0.002823,0.000027,-0.004634,0.146414,-0.038812,331.603326,21.835781,0.998729,0.968522,0.006604,0.222983,-0.000001,-0.000129,0.000034,0.000008,-0.000137,13.916020,0.000154,
2491,2293,5.13851718957882,-7.68214681186872,0.00824759356271443,0.002886,-0.000837,0.000150,0.131150,-0.043130,326.674909,22.722088,0.999316,0.982534,0.004944,0.354343,-0.000030,-0.000023,0.000021,-0.000006,-0.000048,49.984623,0.000059,
2356,2773,2.0972668813255,2.80015937056272,-0.0279258065133376,0.002627,-0.000042,-0.003850,0.134311,0.005122,318.378105,24.596192,0.999519,0.990860,0.003681,0.366571,-0.000026,-0.000005,0.000001,-0.000005,-0.000026,86.163923,0.000033,
2281,2413,0.531825068737817,-5.05704372222083,-0.00252675471489283,0.002487,-0.001146,0.003699,0.101350,-0.032330,324.444885,23.838185,0.999327,0.987246,0.004599,0.356615,-0.000037,-0.000017,0.000007,-0.000015,-0.000039,71.899019,0.000056,
2131,3043,-2.83605112456539,8.65121225282902,0.0153268929366845,0.002937,-0.001008,0.001671,0.130091,-0.029822,314.806607,24.530436,0.999509,0.992901,0.003464,0.352346,-0.000017,-0.000007,0.000006,-0.000004,-0.000020,63.954847,0.000025,
2236,2203,-0.410135571841202,-9.6536408376779,0.0161523888097008,0.002826,-0.000557,0.000321,0.128323,-0.031466,328.093328,23.573305,0.999369,0.988618,0.004531,0.429329,-0.000020,-0.000010,-0.000002,-0.000010,-0.000020,-79.614597,0.000030,
2506,2323,5.45966172988612,-7.02556873928746,0.00818362156894636,0.002510,-0.000663,-0.000082,0.114915,-0.016475,326.217170,22.721689,0.999047,0.984250,0.004954,0.445140,-0.000009,-0.000003,0.000023,0.000017,-0.000029,48.761105,0.000029,
2026,2668,-5.05779113271403,0.49878994440715,-0.0275093498252659,0.003131,-0.001113,0.000342,0.142921,-0.045876,321.107397,24.322797,0.999328,0.990660,0.003877,0.451984,-0.000018,0.000028,0.000022,0.000037,-0.000027,67.942946,0.000038,
2371,2803,2.4185844062862,3.45193884481935,-0.016341807432525,0.002808,-0.001063,0.002226,0.120717,-0.029485,317.977584,24.620779,0.999854,0.995010,0.003247,0.398025,-0.000029,-0.000009,0.000001,-0.000009,-0.000029,87.927740,0.000041,
2206,2008,-1.03042718369027,-13.9290993308729,0.0325577827429129,0.002670,-0.000426,0.000987,0.119087,-0.034231,331.426003,23.583768,0.999305,0.980540,0.005343,0.307255,-0.000034,-0.000062,0.000021,-0.000023,-0.000073,27.989648,0.000099,
2101,2863,-3.45912998887088,4.74311193215261,-0.0147181478537846,0.003229,-0.000639,0.000179,0.148073,-0.018811,317.640747,24.408068,0.999675,0.992735,0.003482,0.380487,-0.000024,-0.000002,0.000009,0.000002,-0.000028,70.084131,0.000031,
2431,3133,3.66171300639407,10.6275193286756,0.0116963044609406,0.002860,-0.000802,0.000034,0.131195,-0.021793,312.886020,25.767994,0.999744,0.993328,0.003299,0.397261,-0.000006,0.000009,0.000007,0.000012,-0.000008,68.513275,0.000012,
2416,3058,3.34946094076954,8.99829784881726,0.00791025984858607,0.002483,-0.000841,0.003290,0.101790,-0.026075,314.033038,25.508329,0.999630,0.991535,0.003739,0.356580,-0.000009,-0.000005,0.000013,0.000006,-0.000020,50.414875,0.000020,
2341,2698,1.78533855608146,1.16354446383365,-0.0162632393216313,0.002736,-0.001179,0.004274,0.110364,-0.032424,319.673935,24.312812,0.999705,0.992713,0.003676,0.418900,-0.000023,-0.000012,-0.000001,-0.000012,-0.000023,-82.625452,0.000036,
2086,2878,-3.78746911696807,5.0671068793519,-0.0106012330020349,0.002560,-0.001001,-0.000099,0.117941,-0.042093,317.476528,24.335143,0.999470,0.991711,0.003815,0.405812,-0.000026,0.000006,0.000003,0.000007,-0.000026,84.892211,0.000027,
2386,2848,2.73582601600593,4.43303098803379,-0.0251870685907534,0.002661,-0.000697,-0.002031,0.129327,-0.029876,317.186205,24.780996,0.999539,0.990070,0.003939,0.380417,-0.000029,-0.000006,0.000001,-0.000006,-0.000029,88.543515,0.000038,
2476,2053,4.86123166690078,-12.947384570725,0.0279974737475754,0.002671,-0.000648,0.001317,0.116869,-0.037699,330.663678,21.888617,0.999379,0.982780,0.005253,0.305158,0.000016,-0.000065,0.000024,0.000023,-0.000071,15.220045,0.000073,
2251,2248,-0.0920121541808179,-8.66427830533171,-0.00104128899846501,0.002743,-0.000419,-0.002323,0.133197,0.002554,327.198834,23.748405,0.998172,0.978674,0.005993,0.291195,-0.000024,-0.000036,-0.000002,-0.000024,-0.000036,-11.556046,0.000060,
2296,2443,0.853021494478654,-4.40155599011966,-0.0166139025685084,0.003029,-0.000965,0.000215,0.137911,-0.040513,323.862164,23.720990,0.999624,0.989405,0.004180,0.484723,-0.000026,-0.000027,0.000007,-0.000019,-0.000034,43.077481,0.000053,
2041,2698,-4.73695014881666,1.15371012096535,-0.0307297853522073,0.003040,-0.000785,0.000492,0.138358,-0.036876,320.498183,24.404828,0.999382,0.991260,0.003827,0.358485,-0.000016,0.000000,0.000023,0.000017,-0.000032,54.605058,0.000032,
2176,3223,-1.888636923352,12.5562355522581,0.0407798190711333,0.002985,-0.000794,-0.000460,0.138867,-0.026048,311.912953,24.827399,0.999754,0.995250,0.002949,0.340020,-0.000019,-0.000003,-0.000006,0.000000,-0.000021,-70.431146,0.000024,
2311,2503,1.16940513402857,-3.09073192313724,-0.0098635363032713,0.002831,-0.000431,-0.002966,0.139917,-0.028083,322.935769,23.893915,0.999494,0.989068,0.004064,0.418153,-0.000024,-0.000016,0.000012,-0.000008,-0.000032,54.832691,0.000042,
2146,3073,-2.51627176044375,9.30334168947735,0.0064345498910825,0.002827,-0.000964,0.000100,0.129667,-0.043702,314.180153,24.567756,0.999708,0.996324,0.002894,0.364170,-0.000018,-0.000002,0.000000,-0.000002,-0.000018,89.441141,0.000021,
2461,2008,4.54266610916346,-13.9349244575988,0.026783493053756,0.002823,-0.000307,-0.003486,0.141957,-0.036568,331.366684,21.860441,0.998970,0.972775,0.006199,0.258667,0.000000,-0.000116,0.000042,0.000014,-0.000130,18.069837,0.000143,
2071,2743,-4.09198692529991,2.13298858588629,-0.0260136058060425,0.003159,-0.000711,-0.001694,0.150051,-0.045647,319.650286,24.353015,0.999343,0.990922,0.003885,0.389576,-0.000029,0.000010,0.000008,0.000012,-0.000031,79.635132,0.000031,
2221,2068,-0.714660584884083,-12.6103201343201,0.0172342345845777,0.002331,-0.000600,0.001515,0.101765,-0.012167,330.279818,23.614779,0.999012,0.978146,0.005632,0.285229,-0.000023,-0.000022,0.000017,-0.000005,-0.000040,46.390961,0.000049,
2491,2308,5.13521555467208,-7.35251759595309,0.00753195487914127,0.002543,-0.000350,-0.002224,0.124760,-0.026551,326.418912,22.863257,0.998838,0.980371,0.005403,0.290853,-0.000019,-0.000022,0.000018,-0.000002,-0.000039,43.173821,0.000046,
2026,2683,-5.06167227376897,0.828117534459025,-0.045746336038917,0.002613,-0.000944,0.000257,0.119359,-0.032842,320.687963,24.413998,0.999788,0.995744,0.002991,0.364706,-0.000019,0.000017,0.000023,0.000028,-0.000030,64.237781,0.000034,
2056,2788,-4.42500880903015,3.11151534371258,-0.0240466989332617,0.002827,-0.000760,0.000691,0.128055,-0.028969,318.997364,24.382925,0.999269,0.989734,0.004033,0.355204,-0.000028,0.000006,-0.000001,0.000006,-0.000028,-88.815057,0.000029,
2401,2968,3.0409511852315,7.04218163998681,-0.000314662811604194,0.002796,-0.000686,-0.001898,0.135200,-0.024709,315.453462,25.188397,0.999865,0.995111,0.003152,0.358472,-0.000020,-0.000011,0.000008,-0.000007,-0.000024,60.224579,0.000033,
2161,3208,-2.2117949882919,12.229472823384,0.0357435078262256,0.002792,-0.000786,-0.000971,0.131480,-0.040904,312.163237,24.690227,0.999601,0.994285,0.003135,0.378042,-0.000014,-0.000010,-0.000009,-0.000003,-0.000021,-52.147605,0.000026,
2326,2563,1.48408799791408,-1.77953978633018,-0.0163018788001636,0.002760,-0.000927,0.002539,0.117594,-0.035385,321.877825,24.079764,0.998644,0.984222,0.005015,0.336094,-0.000025,-0.000012,0.000009,-0.000008,-0.000030,63.023015,0.000040,
2476,2068,4.85865104706429,-12.6187221206818,0.0325521739639498,0.002813,-0.000991,0.001716,0.121710,-0.049977,330.464816,21.941361,0.999315,0.980087,0.005586,0.299694,0.000011,-0.000044,0.000021,0.000018,-0.000051,18.445261,0.000052,
2266,2368,0.212652114574048,-6.03984127361085,-0.00759623907219975,0.002557,-0.001012,0.004231,0.102999,-0.021112,325.152421,23.815875,0.998981,0.983884,0.005128,0.352913,-0.000038,-0.000010,0.000007,-0.000008,-0.000040,76.177516,0.000051,
2281,2428,0.529429584363555,-4.72899360557157,-0.00468571784483629,0.002723,-0.000600,0.000645,0.122616,-0.015311,324.205251,23.859828,0.999558,0.989183,0.004252,0.381308,-0.000033,-0.000031,0.000006,-0.000026,-0.000038,50.202697,0.000064,
2356,2788,2.09481238801668,3.12588428173588,-0.0253851546670489,0.002735,-0.000301,-0.004932,0.142986,-0.013974,318.164186,24.596284,0.999686,0.993511,0.003407,0.386206,-0.000026,-0.000008,0.000000,-0.000008,-0.000026,89.828624,0.000035,
2011,2713,-5.39087933529269,1.47867608441769,-0.0293549721665727,0.002583,-0.000593,0.000631,0.117086,-0.023831,320.432655,24.372676,0.999723,0.994513,0.003289,0.394884,-0.000023,0.000039,0.000024,0.000047,-0.000031,70.948990,0.000048,
2416,3073,3.34702098252071,9.32327595368447,0.0109815063479459,0.002667,-0.001141,0.002342,0.113643,-0.041944,313.825484,25.514953,0.999631,0.991561,0.003732,0.381048,-0.000007,0.000001,0.000011,0.000009,-0.000015,55.538489,0.000015,
2506,2338,5.45676984837879,-6.69563043976998,0.00514635952811204,0.002560,-0.000112,-0.005325,0.137671,-0.035777,325.970860,22.914570,0.999324,0.986645,0.004902,0.296103,-0.000007,-0.000005,0.000019,0.000013,-0.000026,46.334359,0.000026,
2371,2818,2.41544934533536,3.77812820337132,-0.0200491354994483,0.002928,-0.001111,0.003491,0.121685,-0.038665,317.703289,24.613990,0.999869,0.995152,0.003272,0.436697,-0.000035,-0.000011,-0.000001,-0.000011,-0.000035,-88.624779,0.000048,
2116,2968,-3.15001111338526,7.02361581066025,0.000569438183958937,0.002847,-0.000620,-0.000683,0.133019,-0.027116,315.974681,24.477286,0.999726,0.992890,0.003291,0.346036,-0.000012,-0.000013,0.000009,-0.000003,-0.000022,44.465081,0.000027,
2086,2893,-3.78924243111124,5.39297070915744,-0.00908525684593542,0.003086,-0.001076,-0.000106,0.142164,-0.052396,317.269420,24.354955,0.999423,0.993623,0.003625,0.374664,-0.000029,-0.000004,0.000002,-0.000003,-0.000029,86.066607,0.000036,
2236,2218,-0.413058925432974,-9.32285886091519,0.00353347947464044,0.003124,-0.000347,-0.003758,0.155244,-0.029536,327.772592,23.675240,0.998897,0.983745,0.005102,0.353340,-0.000014,-0.000014,-0.000003,-0.000011,-0.000017,-47.962249,0.000028,
2206,2023,-1.03269780361083,-13.6009493074934,0.0395855309966464,0.002535,-0.000817,0.002329,0.108516,-0.043168,331.233473,23.595266,0.998866,0.981089,0.005489,0.306948,-0.000031,-0.000054,0.000015,-0.000023,-0.000062,26.473003,0.000088,
2341,2713,1.78211643317003,1.49205557923125,-0.0296421396927258,0.002889,-0.000507,-0.001840,0.138951,-0.027478,319.345989,24.393214,0.999454,0.990255,0.003950,0.380856,-0.000024,-0.000016,-0.000001,-0.000016,-0.000024,-79.914667,0.000040,
2026,2698,-5.06377474648668,1.15366400479907,-0.0427587918035215,0.002646,-0.000898,0.001121,0.118533,-0.031725,320.469502,24.350672,0.999828,0.995462,0.002999,0.419532,-0.000016,0.000007,0.000027,0.000025,-0.000034,56.636606,0.000035,
2176,3238,-1.8916152831205,12.880883748407,0.0358557891445344,0.002886,-0.000899,-0.000932,0.135712,-0.033974,311.623226,24.784773,0.999747,0.994873,0.003016,0.385555,-0.000018,-0.000010,-0.000005,-0.000007,-0.000020,-64.495531,0.000028,
2041,2713,-4.73953306477328,1.48039092953583,-0.0342279833759562,0.003014,-0.001057,0.001288,0.134917,-0.041718,320.222516,24.402592,0.999245,0.990020,0.004067,0.348642,-0.000015,0.000024,0.000018,0.000031,-0.000022,68.235636,0.000032,
2386,2863,2.73349393313572,4.75947215671327,-0.0191850890416845,0.002766,-0.000319,-0.001874,0.133785,-0.000448,316.995912,24.845350,0.999470,0.990377,0.003847,0.388585,-0.000030,-0.000003,-0.000001,-0.000003,-0.000030,-88.690746,0.000036,
2056,2803,-4.42732655562069,3.43786635123669,-0.0273429940125993,0.003053,-0.000906,0.000808,0.138136,-0.028100,318.736373,24.374389,0.999211,0.990646,0.004008,0.359203,-0.000026,0.000003,0.000006,0.000004,-0.000028,78.431109,0.000030,
2101,2878,-3.46206870043046,5.06837700091201,-0.0149120453271507,0.002849,-0.000994,0.002199,0.124500,-0.034866,317.372200,24.362694,0.999694,0.992735,0.003534,0.410556,-0.000021,0.000008,0.000009,0.000010,-0.000024,74.001872,0.000024,
2131,3058,-2.83828549461828,8.97655973315662,0.0165960428444691,0.002965,-0.000750,-0.000512,0.137956,-0.034147,314.580383,24.538867,0.999340,0.992630,0.003680,0.344414,-0.000015,-0.000005,0.000004,-0.000003,-0.000017,72.771072,0.000021,
2491,2323,5.13153943670813,-7.02398574934263,0.00438424666810988,0.002834,-0.001253,0.005010,0.110065,-0.023283,326.134893,22.898477,0.998801,0.982339,0.005233,0.319966,-0.000016,-0.000005,0.000020,0.000010,-0.000031,52.522693,0.000032,
2251,2263,-0.0941920956882889,-8.33677640838252,0.00210212610807048,0.002794,0.000194,-0.004688,0.143491,-0.003698,326.993742,23.739239,0.999091,0.984028,0.005110,0.319680,-0.000027,-0.000040,-0.000005,-0.000025,-0.000042,-18.047432,0.000068,
2431,3148,3.65828168299172,10.9536845707565,0.00745458291828527,0.002617,-0.000645,-0.001565,0.125936,-0.027037,312.598963,25.847817,0.999701,0.993561,0.003226,0.360894,-0.000007,0.000002,0.000006,0.000005,-0.000010,63.098614,0.000010,
2461,2023,4.53939977309477,-13.6046612754034,0.0239186115770735,0.002877,-0.000421,-0.003038,0.142728,-0.037402,331.101554,21.948340,0.999259,0.978358,0.005600,0.228079,0.000012,-0.000072,0.000029,0.000021,-0.000081,17.288745,0.000084,
2296,2458,0.85035452462186,-4.0715501413388,-0.0188141392337116,0.003124,-0.000094,-0.001669,0.148965,-0.007048,323.610644,23.916362,0.999399,0.987712,0.004482,0.354395,-0.000030,-0.000024,0.000011,-0.000016,-0.000038,52.584334,0.000055,
2071,2758,-4.09475212408017,2.45956526523722,-0.0274824696458609,0.002964,-0.000847,0.000310,0.135344,-0.039475,319.379945,24.360861,0.999484,0.992286,0.003648,0.384676,-0.000027,-0.000002,0.000000,-0.000002,-0.000027,89.038909,0.000032,
2011,2728,-5.3930167170166,1.80438841120534,-0.0240023902489952,0.002629,-0.000784,0.004968,0.107435,-0.006430,320.224809,24.334457,0.999598,0.992674,0.003609,0.438688,-0.000034,0.000051,0.000025,0.000058,-0.000040,74.758071,0.000059,
2476,2083,4.85465330317801,-12.2878441056754,0.0206529710403061,0.002630,-0.000311,-0.001272,0.124931,-0.030540,330.126291,21.988075,0.999423,0.980628,0.005376,0.332970,0.000007,-0.000029,0.000021,0.000017,-0.000039,24.598070,0.000039,
2401,2983,3.03781376465342,7.36816954786307,-0.00189805199931925,0.002799,-0.000631,-0.000732,0.131139,-0.018265,315.190902,25.211181,0.999706,0.992633,0.003575,0.387195,-0.000017,-0.000012,0.000007,-0.000007,-0.000022,54.360780,0.000030,
2221,2083,-0.716817064254208,-12.2813923711329,0.0143725046096961,0.002733,-0.000504,-0.001431,0.129622,-0.022342,330.042898,23.610649,0.999125,0.979724,0.005500,0.301374,-0.000019,-0.000020,0.000012,-0.000007,-0.000031,43.589674,0.000041,
2506,2353,5.45391725018505,-6.36831542239944,0.00987066466854003,0.002596,-0.000473,-0.003250,0.131181,-0.038947,325.761076,22.932653,0.999281,0.986344,0.004984,0.337448,0.000004,0.000003,0.000025,0.000028,-0.000021,44.725025,0.000029,
2026,2713,-5.06581882083644,1.48002690997961,-0.0387984020387648,0.002647,-0.001019,0.001329,0.117994,-0.028517,320.258914,24.372091,0.999736,0.994346,0.003320,0.391651,-0.000017,0.000033,0.000023,0.000042,-0.000026,68.540717,0.000042,
2311,2518,1.16613470501675,-2.76230183669274,-0.0155986424880439,0.002696,-0.000298,-0.003700,0.136286,-0.020184,322.640703,23.958636,0.999505,0.987434,0.004198,0.394827,-0.000027,-0.000017,0.000010,-0.000011,-0.000033,58.041791,0.000045,
2056,2818,-4.42959868565285,3.76362724315768,-0.0244238070428082,0.002939,-0.000841,0.000873,0.132724,-0.028057,318.511947,24.364662,0.999205,0.990002,0.004077,0.363439,-0.000027,0.000007,0.000003,0.000007,-0.000027,84.538336,0.000029,
2161,3223,-2.21394606281636,12.5541412436366,0.0408372957625716,0.002952,-0.000990,0.000496,0.134317,-0.040311,311.963323,24.694149,0.999661,0.994609,0.003051,0.383484,-0.000014,-0.000001,-0.000011,0.000006,-0.000020,-60.200323,0.000021,
2146,3088,-2.5182137248872,9.62924072514091,0.00894162835413681,0.003209,-0.000895,-0.000311,0.148612,-0.031905,313.974740,24.627484,0.999688,0.994992,0.003102,0.323206,-0.000018,-0.000005,0.000001,-0.000005,-0.000018,83.444729,0.000024,
2461,2038,4.5359898758863,-13.2756005117733,0.0266838814465586,0.002570,-0.000461,0.000534,0.115299,-0.022975,330.855366,21.980591,0.999380,0.979724,0.005514,0.268152,0.000013,-0.000070,0.000021,0.000018,-0.000074,13.254750,0.000078,
2356,2803,2.09261361354077,3.4513212425981,-0.0160016518331645,0.002874,-0.000646,-0.002098,0.139254,-0.019883,317.995005,24.613390,0.999827,0.994905,0.003229,0.401805,-0.000023,-0.000005,0.000002,-0.000005,-0.000023,83.454581,0.000030,
2206,2038,-1.03585485120525,-13.2700015313217,0.0264807184004212,0.002616,-0.000405,-0.000691,0.121918,-0.042032,330.896563,23.630251,0.998933,0.980738,0.005400,0.293951,-0.000026,-0.000039,0.000015,-0.000017,-0.000049,33.650295,0.000068,
2371,2833,2.41223357718255,4.10582529393318,-0.0242149250465786,0.002795,-0.001036,0.001979,0.121037,-0.032507,317.422603,24.731994,0.999696,0.991260,0.003784,0.365850,-0.000034,-0.000003,0.000001,-0.000002,-0.000034,87.918723,0.000041,
2341,2728,1.77911400147308,1.81923681087554,-0.0267117488517101,0.002858,-0.001043,0.003046,0.120310,-0.030371,319.107536,24.496855,0.999347,0.989521,0.004063,0.311040,-0.000026,-0.000010,0.000002,-0.000010,-0.000026,81.402828,0.000038,
2266,2383,0.209789486916357,-5.71238533061886,-0.0129723157995159,0.002606,-0.001450,0.002224,0.111711,-0.059845,324.874386,23.792586,0.998359,0.980283,0.005573,0.364533,-0.000041,-0.000009,0.000009,-0.000006,-0.000043,74.837817,0.000054,
2086,2908,-3.79160717485967,5.71921334471118,-0.00850579224362491,0.003133,-0.000922,0.000686,0.142095,-0.039463,317.029937,24.383834,0.999413,0.992519,0.003697,0.357194,-0.000029,-0.000012,0.000001,-0.000012,-0.000029,86.172008,0.000042,
2491,2338,5.12787002835605,-6.69437651702184,0.000951304984482704,0.002053,-0.000166,-0.000858,0.097207,-0.020634,325.849685,23.035688,0.999039,0.986396,0.005075,0.246393,-0.000017,-0.000006,0.000017,0.000006,-0.000029,53.723063,0.000031,
2041,2728,-4.74114842775939,1.80646449466372,-0.0275026061482322,0.003333,-0.000618,0.002070,0.147557,-0.019349,320.047971,24.404522,0.999412,0.991556,0.003617,0.361798,-0.000023,0.000032,0.000020,0.000038,-0.000029,72.117140,0.000040,
2116,2983,-3.15157988527299,7.34804006678733,0.00984438672509214,0.003108,-0.000441,-0.001026,0.146197,-0.010856,315.821326,24.415796,0.999775,0.994039,0.003090,0.426228,-0.000013,-0.000015,0.000011,-0.000004,-0.000025,42.721845,0.000031,
2416,3088,3.34449990379874,9.64956224212901,0.0118914293896637,0.002786,-0.000720,-0.000613,0.130128,-0.028934,313.603571,25.603158,0.999685,0.992700,0.003513,0.352779,-0.000008,0.000006,0.000011,0.000012,-0.000014,61.731823,0.000015,
2386,2878,2.73050334489162,5.08599112801902,-0.0191089548183641,0.002605,-0.000590,-0.002689,0.129203,-0.017480,316.747167,24.923348,0.999498,0.992321,0.003594,0.336531,-0.000031,-0.000010,-0.000001,-0.000010,-0.000031,-86.691905,0.000042,
2101,2893,-3.46394985045107,5.39381288059494,-0.0093525220564743,0.003000,-0.000812,0.001707,0.132918,-0.039938,317.183226,24.367995,0.999478,0.992930,0.003694,0.400889,-0.000024,-0.000002,0.000009,0.000001,-0.000027,70.667227,0.000030,
2236,2233,-0.416504891154414,-8.99407814538267,-0.00171764312125333,0.002946,-0.000836,0.000327,0.133734,-0.025662,327.465598,23.675757,0.998889,0.983948,0.005009,0.380637,-0.000017,-0.000014,-0.000004,-0.000012,-0.000020,-54.852179,0.000031,
2071,2773,-4.09657229380031,2.78537919430066,-0.0208941497634214,0.003092,-0.000920,0.000382,0.141014,-0.042348,319.197299,24.375256,0.999422,0.990809,0.003879,0.364415,-0.000023,-0.000002,-0.000002,-0.000002,-0.000024,-84.302309,0.000028,
2476,2098,4.8519500743508,-11.9580727639338,0.0212455178402706,0.002886,-0.000338,-0.002069,0.139659,-0.031894,329.903622,22.098472,0.999428,0.978752,0.005555,0.280839,-0.000002,-0.000031,0.000008,0.000000,-0.000033,14.254981,0.000038,
2176,3253,-1.89493546589352,13.206227993908,0.0290974239046022,0.002769,-0.001009,0.001515,0.122731,-0.028698,311.307851,24.787387,0.999739,0.994793,0.003080,0.399059,-0.000014,-0.000012,-0.000001,-0.000011,-0.000014,-67.039128,0.000026,
2431,3163,3.65605990300354,11.2790346798193,0.0149436838065071,0.002804,-0.000538,-0.001040,0.132650,-0.022073,312.422480,25.917050,0.999680,0.992724,0.003416,0.345295,-0.000007,0.000003,0.000006,0.000006,-0.000010,63.630076,0.000010,
2326,2578,1.48121328869101,-1.45192809358621,-0.0176329374311877,0.002536,-0.000334,-0.000571,0.118290,-0.011730,321.623708,24.113603,0.999198,0.988428,0.004257,0.361103,-0.000022,-0.000003,0.000012,0.000003,-0.000028,64.404467,0.000030,
2026,2728,-5.0671091698415,1.80535859069986,-0.0262489418379346,0.002935,-0.000705,0.002397,0.128452,-0.008375,320.131061,24.354893,0.999611,0.992605,0.003555,0.419297,-0.000028,0.000045,0.000024,0.000053,-0.000036,73.354838,0.000054,
2506,2368,5.45052835672201,-6.04083342414067,0.00872182429526447,0.002651,-0.000648,-0.000467,0.122895,-0.020425,325.500312,22.891715,0.998926,0.980476,0.005649,0.460164,0.000005,0.000003,0.000025,0.000029,-0.000021,43.585434,0.000030,
2011,2743,-5.39576921870423,2.13248641870221,-0.0382039209922596,0.002803,-0.000924,0.002123,0.123118,-0.028359,319.878392,24.402372,0.999594,0.993114,0.003404,0.337263,-0.000046,0.000049,0.000015,0.000051,-0.000049,81.434019,0.000058,
2251,2278,-0.0969795249678533,-8.00983348500495,0.00675768518055975,0.002717,-0.000868,0.001053,0.120842,-0.031533,326.768633,23.720673,0.999360,0.985074,0.004847,0.335904,-0.000026,-0.000040,-0.000005,-0.000024,-0.000042,-17.301721,0.000067,
2131,3073,-2.84081086736087,9.30166579483772,0.0200417689888468,0.002870,-0.000763,0.002038,0.125979,-0.022423,314.352521,24.526952,0.999638,0.994374,0.003342,0.372697,-0.000014,0.000000,0.000001,0.000000,-0.000014,84.750802,0.000017,
2056,2833,-4.43161344954678,4.08950986564252,-0.0213697353473776,0.002995,-0.000755,-0.000405,0.138878,-0.037975,318.300059,24.380954,0.999082,0.987594,0.004351,0.331511,-0.000030,0.000005,0.000000,0.000005,-0.000030,89.620331,0.000031,
2296,2473,0.847426002958688,-3.74385461751019,-0.0199644961584227,0.002967,0.000201,-0.002204,0.143696,-0.016045,323.352878,23.957513,0.998769,0.982831,0.005268,0.335393,-0.000023,-0.000019,0.000017,-0.000003,-0.000038,48.208739,0.000046,
2401,2998,3.03486577384139,7.69502674789851,-0.00672408672664915,0.002964,-0.000529,-0.003206,0.147721,-0.031070,314.921444,25.315609,0.999576,0.990396,0.003935,0.314814,-0.000013,-0.000017,0.000008,-0.000006,-0.000023,38.753465,0.000031,
2341,2743,1.77687954747901,2.14470429618721,-0.0223230982169866,0.002908,-0.000930,0.000536,0.131443,-0.028391,318.911800,24.453802,0.999514,0.990851,0.003826,0.392572,-0.000026,-0.000012,0.000003,-0.000011,-0.000026,79.082820,0.000039,
2416,3103,3.34195425671998,9.97535282048485,0.014833386581472,0.002915,-0.000699,-0.001095,0.137858,-0.029431,313.390155,25.675810,0.999806,0.995026,0.003143,0.326057,-0.000004,0.000005,0.000013,0.000014,-0.000013,54.015956,0.000016,
2161,3238,-2.21710637950298,12.8795130148964,0.0329716143515952,0.002803,-0.001144,-0.000576,0.130597,-0.061667,311.648201,24.714680,0.999713,0.994646,0.003022,0.350150,-0.000013,-0.000008,-0.000011,0.000001,-0.000022,-52.252516,0.000025,
2281,2443,0.526215027788737,-4.40202750299117,-0.00605944158837701,0.002577,-0.001353,0.004326,0.103312,-0.044875,323.932325,23.841467,0.999624,0.989707,0.004164,0.399272,-0.000031,-0.000023,0.000008,-0.000019,-0.000036,58.653507,0.000056,
2086,2923,-3.7943307364135,6.04501826400298,-0.00721378194498357,0.002928,-0.001122,0.003861,0.123412,-0.034372,316.778051,24.389595,0.999296,0.990988,0.003883,0.354960,-0.000028,-0.000015,0.000001,-0.000015,-0.000028,86.008393,0.000044,
2026,2743,-5.06962197272821,2.13110480458939,-0.023651865828981,0.002651,-0.001205,0.004246,0.110127,-0.023094,319.891706,24.334120,0.999371,0.990863,0.003947,0.415638,-0.000039,0.000045,0.000014,0.000047,-0.000041,81.036560,0.000052,
2071,2788,-4.09891000165794,3.11085147137539,-0.0176058386396676,0.002917,-0.000830,0.000604,0.132366,-0.033484,318.972964,24.324618,0.999353,0.989665,0.004017,0.420618,-0.000028,0.000000,-0.000001,0.000000,-0.000028,-88.290369,0.000033,
2221,2098,-0.719616673913723,-11.9540233207099,0.0242203629466644,0.002256,-0.001506,0.004970,0.086966,-0.036610,329.841686,23.613636,0.998994,0.979654,0.005602,0.306063,-0.000016,-0.000012,0.000013,-0.000001,-0.000028,49.407875,0.000033,
2116,2998,-3.1545258276943,7.67433075448475,0.00111202255857279,0.003051,-0.000550,-0.003114,0.149720,-0.020747,315.507248,24.433022,0.999563,0.992981,0.003371,0.402041,-0.000015,-0.000006,0.000016,0.000006,-0.000027,52.684267,0.000028,
2371,2848,2.40941309519777,4.43227261583866,-0.0251179984249461,0.002692,-0.000636,-0.000878,0.126647,-0.020000,317.175956,24.758040,0.999613,0.990342,0.003869,0.393286,-0.000030,-0.000005,-0.000001,-0.000005,-0.000030,-86.663802,0.000038,
2266,2398,0.20727340136348,-5.3837510980238,-0.0119105459805837,0.002574,-0.000883,0.000676,0.115560,-0.024886,324.643953,23.870876,0.999007,0.985651,0.004850,0.348676,-0.000040,-0.000007,0.000010,-0.000004,-0.000043,74.594607,0.000052,
2011,2758,-5.39776938871873,2.45792955971847,-0.0375795044366214,0.002810,-0.000747,-0.001285,0.132778,-0.032461,319.650463,24.332380,0.999505,0.992467,0.003578,0.391366,-0.000043,0.000023,-0.000002,0.000023,-0.000043,-88.631364,0.000043,
2041,2743,-4.74400113930239,2.13246475075109,-0.0292749286360845,0.002874,-0.000819,0.001872,0.126938,-0.027125,319.769767,24.365852,0.999473,0.992042,0.003659,0.385124,-0.000031,0.000030,0.000010,0.000032,-0.000032,80.723291,0.000037,
2461,2053,4.53332537330282,-12.9470564888037,0.0308826082275573,0.002497,-0.000608,-0.000664,0.116383,-0.038268,330.649980,22.016402,0.999284,0.980885,0.005419,0.274804,0.000009,-0.000059,0.000018,0.000013,-0.000063,13.839300,0.000067,
2146,3103,-2.52083014492002,9.95305404576546,0.0168874596769228,0.002801,-0.000970,0.003032,0.119688,-0.023133,313.768036,24.536108,0.999815,0.996611,0.002677,0.429939,-0.000021,-0.000010,0.000004,-0.000009,-0.000023,73.544150,0.000032,
2491,2353,5.12574731561921,-6.36762940933867,0.00418389817070874,0.002556,0.000038,-0.003001,0.128504,-0.008383,325.665634,22.971799,0.999006,0.986205,0.005200,0.382922,-0.000008,-0.000001,0.000021,0.000017,-0.000026,49.999817,0.000027,
2311,2533,1.16340770300692,-2.43525577115754,-0.0161426134012004,0.002786,-0.000515,-0.003435,0.139436,-0.036166,322.396383,23.972327,0.999485,0.988016,0.004199,0.398510,-0.000024,-0.000020,0.000004,-0.000018,-0.000027,57.380730,0.000045,
2131,3088,-2.84236462023038,9.62636557658898,0.0245340597898576,0.003268,-0.000740,-0.001708,0.155564,-0.034976,314.175044,24.511834,0.999805,0.995450,0.003127,0.379924,-0.000014,-0.000005,0.000003,-0.000004,-0.000015,72.282197,0.000020,
2206,2053,-1.03945447099034,-12.9390391223116,0.0149066413628134,0.002299,-0.000509,-0.001623,0.110303,-0.041968,330.547246,23.692163,0.998836,0.976897,0.005738,0.252839,-0.000024,-0.000024,0.000016,-0.000008,-0.000039,44.806642,0.000051,
2251,2293,-0.0996934268170016,-7.68130678538274,0.00193153553010461,0.002865,-0.000597,-0.000599,0.133158,-0.038058,326.498679,23.734705,0.999207,0.984271,0.004931,0.340830,-0.000025,-0.000034,0.000004,-0.000024,-0.000036,20.424378,0.000059,
2431,3178,3.65388373965994,11.6034288593758,0.0239904530789659,0.002982,-0.000829,0.000388,0.135436,-0.032182,312.255613,25.925201,0.999652,0.992263,0.003470,0.375683,-0.000003,0.000001,0.000007,0.000007,-0.000008,53.244259,0.000009,
2101,2908,-3.46577664541145,5.71990452977342,-0.00449486051212489,0.003141,-0.000592,-0.000557,0.146179,-0.025113,316.992709,24.412152,0.999363,0.992822,0.003754,0.372356,-0.000023,-0.000009,0.000009,-0.000005,-0.000027,64.550363,0.000035,
2326,2593,1.4787251191133,-1.12500761816086,-0.020156879797355,0.003156,-0.000744,0.001173,0.140623,-0.020119,321.381704,24.110550,0.999613,0.991716,0.003709,0.391046,-0.000020,-0.000017,0.000007,-0.000011,-0.000026,50.676939,0.000038,
2236,2248,-0.418768161583056,-8.66620538126742,0.00485735520356911,0.002902,-0.000646,0.001505,0.128012,-0.003387,327.272800,23.702068,0.998820,0.982237,0.005330,0.399643,-0.000017,-0.000031,-0.000001,-0.000017,-0.000031,-5.130087,0.000048,
2506,2383,5.44733637357463,-5.71117241843816,0.00342042662373387,0.002878,-0.000480,-0.002327,0.140522,-0.039669,325.229876,23.053209,0.998780,0.980849,0.005408,0.342264,0.000008,-0.000009,0.000000,0.000008,-0.000009,-1.184233,0.000010,
2026,2758,-5.07150200471093,2.45695992352039,-0.0246069051382278,0.002919,-0.001164,0.001189,0.130905,-0.029296,319.661469,24.290834,0.999134,0.990267,0.004147,0.443036,-0.000035,0.000021,-0.000001,0.000021,-0.000035,-88.791930,0.000036,
2476,2113,4.84783545952131,-11.628400975554,0.0140267958756226,0.002568,-0.000660,-0.000578,0.119321,-0.024990,329.580835,22.112014,0.999343,0.976211,0.005910,0.334685,-0.000009,-0.000030,0.000004,-0.000009,-0.000031,10.773832,0.000041,
2176,3268,-1.89869338465685,13.531818877906,0.0138371402070447,0.002610,-0.001134,0.001271,0.116045,-0.046099,310.927522,24.793195,0.999651,0.994205,0.003173,0.386554,-0.000012,-0.000003,0.000000,-0.000003,-0.000012,-89.868698,0.000015,
2386,2893,2.72806635719845,5.41159268104636,-0.0183331924475851,0.002869,-0.000373,-0.004351,0.147424,-0.011788,316.527359,24.903520,0.999524,0.992957,0.003526,0.404998,-0.000028,-0.000012,0.000001,-0.000012,-0.000028,85.440086,0.000041,
2356,2818,2.08975730368516,3.7775338657141,-0.0156104793465488,0.002898,-0.000751,-0.001233,0.137249,-0.034909,317.752029,24.645556,0.999701,0.992524,0.003570,0.393251,-0.000029,-0.000007,0.000000,-0.000007,-0.000029,89.042177,0.000037,
2341,2758,1.77407872394255,2.47154993776762,-0.021558303563836,0.002746,-0.000528,-0.001040,0.129674,-0.005808,318.672028,24.492127,0.999553,0.990865,0.003870,0.413762,-0.000025,-0.000007,0.000008,-0.000004,-0.000028,68.826566,0.000034,
2011,2773,-5.39970489417452,2.78408237292236,-0.0318523531535106,0.002849,-0.000807,-0.000260,0.131787,-0.028544,319.453934,24.363739,0.999535,0.991668,0.003770,0.351826,-0.000034,0.000019,-0.000011,0.000022,-0.000037,-78.446173,0.000037,
2296,2488,0.844774253988057,-3.41701202809626,-0.0173617915341424,0.002828,0.000111,-0.002487,0.138221,-0.023381,323.126492,23.958224,0.999386,0.988623,0.004283,0.358477,-0.000021,-0.000011,0.000011,-0.000004,-0.000028,57.196560,0.000035,
2461,2068,4.53100432030164,-12.6190394439061,0.0377532884708103,0.002754,-0.000821,0.000709,0.122932,-0.049211,330.472436,22.034267,0.999278,0.981190,0.005391,0.303243,0.000004,-0.000040,0.000016,0.000009,-0.000045,18.136103,0.000048,
2491,2368,5.12193795174673,-6.03913287564143,0.000289673640963883,0.002538,-0.000849,0.001386,0.110544,-0.019107,325.371936,23.026703,0.998606,0.983408,0.005382,0.378391,-0.000008,0.000004,0.000026,0.000024,-0.000029,51.701119,0.000031,
2056,2848,-4.43374809248516,4.41553055491339,-0.0226583106450562,0.003167,-0.000360,-0.002193,0.152046,-0.013699,318.058628,24.347372,0.999339,0.990893,0.003837,0.383900,-0.000029,0.000003,-0.000002,0.000003,-0.000029,-85.895847,0.000032,
2416,3118,3.33910633919428,10.3008437861023,0.0181237209666278,0.002952,-0.000934,0.001395,0.130362,-0.028827,313.164480,25.725505,0.999840,0.995402,0.002964,0.323605,-0.000002,0.000008,0.000013,0.000017,-0.000010,55.506932,0.000017,
2266,2413,0.205412833893128,-5.05713357411337,-0.0024694555332303,0.002636,-0.000505,-0.000104,0.121150,-0.016360,324.486026,23.875321,0.999215,0.987303,0.004518,0.379376,-0.000039,-0.000010,0.000007,-0.000009,-0.000041,77.441068,0.000053,
2116,3013,-3.15658544784076,7.99904949801079,0.00841073997270314,0.003079,-0.000790,-0.001544,0.146263,-0.030618,315.320688,24.418330,0.999028,0.989909,0.004018,0.409625,-0.000011,-0.000004,0.000016,0.000009,-0.000024,51.180051,0.000024,
2071,2803,-4.10131657174326,3.43769432924675,-0.0237067250302516,0.003254,-0.001051,0.000650,0.147731,-0.044686,318.693659,24.351580,0.999301,0.990695,0.003965,0.379176,-0.000027,-0.000003,0.000007,-0.000001,-0.000029,74.162449,0.000035,
2041,2758,-4.74572536986674,2.45754921835896,-0.024537209732955,0.003141,-0.000791,0.001577,0.140083,-0.025124,319.579626,24.289338,0.999375,0.991645,0.003900,0.456126,-0.000028,0.000010,-0.000002,0.000011,-0.000028,-86.912157,0.000028,
2086,2938,-3.79566357101241,6.37056761384648,-0.00370625464847762,0.003271,-0.000246,-0.004073,0.162522,-0.012351,316.602083,24.374459,0.999359,0.991270,0.003803,0.390541,-0.000029,-0.000013,0.000001,-0.000013,-0.000029,86.810811,0.000043,
2401,3013,3.03186030805827,8.0203960501598,-0.00436530569243132,0.002800,-0.000759,-0.001865,0.135225,-0.035334,314.683628,25.327491,0.999555,0.989931,0.003920,0.343429,-0.000009,-0.000015,0.000009,-0.000002,-0.000022,35.765065,0.000027,
2176,3283,-1.90140183616728,13.8571377867495,0.00854014252888646,0.002620,-0.000961,-0.002025,0.126849,-0.042487,310.647895,24.812922,0.999726,0.995204,0.002918,0.381408,-0.000012,-0.000006,0.000005,-0.000004,-0.000015,62.642823,0.000019,
2161,3253,-2.22070172540159,13.2050939802861,0.0221285489613479,0.002617,-0.000946,0.001317,0.116336,-0.040029,311.297209,24.699942,0.999697,0.994459,0.003089,0.395230,-0.000010,-0.000011,-0.000008,-0.000003,-0.000018,-44.693631,0.000023,
2221,2113,-0.722299256007087,-11.6254694713479,0.0221899526776497,0.002168,-0.001373,0.003383,0.088069,-0.062501,329.585050,23.610961,0.998956,0.980939,0.005411,0.304804,-0.000013,-0.000016,0.000011,-0.000004,-0.000025,41.077891,0.000032,
2281,2458,0.523974934817076,-4.07319926024745,-0.00889661527099861,0.003046,-0.000713,0.001556,0.134359,-0.009028,323.696136,23.919662,0.999717,0.990727,0.004032,0.386280,-0.000035,-0.000021,0.000011,-0.000015,-0.000041,60.186653,0.000058,
2476,2128,4.84518900954446,-11.3000992041189,0.0224141263471438,0.002562,-0.000862,0.002713,0.106523,-0.028069,329.395938,22.185590,0.999191,0.973727,0.006141,0.317184,-0.000006,-0.000033,0.000007,-0.000004,-0.000034,13.694675,0.000042,
2311,2548,1.16019541717826,-2.10800180338929,-0.0151752298545489,0.002786,-0.001053,0.003592,0.115281,-0.032145,322.137073,24.003480,0.999363,0.984818,0.004715,0.404525,-0.000024,-0.000013,0.000006,-0.000010,-0.000027,65.825548,0.000039,
2371,2863,2.40673130588926,4.75821441184488,-0.0178402040477863,0.002571,-0.000803,0.002407,0.109273,-0.029958,316.974971,24.825112,0.999520,0.991358,0.003754,0.356874,-0.000030,-0.000002,-0.000004,-0.000002,-0.000031,-82.942633,0.000037,
2026,2773,-5.07429027975919,2.78512204714161,-0.0341812856655679,0.002798,-0.000689,-0.001967,0.134150,-0.031942,319.340810,24.392971,0.999404,0.991531,0.003955,0.328669,-0.000028,0.000018,-0.000009,0.000020,-0.000029,-79.155009,0.000030,
2146,3118,-2.52263964575983,10.278710157963,0.0220132160878279,0.002911,-0.000592,-0.000925,0.136871,-0.016033,313.582735,24.601235,0.999662,0.995044,0.003078,0.378891,-0.000021,-0.000003,0.000003,-0.000003,-0.000022,82.096765,0.000027,
2131,3103,-2.8451720339824,9.951316868099,0.0313839557284155,0.002901,-0.001082,0.004330,0.120510,-0.017438,313.952521,24.508217,0.999802,0.995912,0.002916,0.405571,-0.000018,-0.000010,0.000005,-0.000007,-0.000020,64.392602,0.000029,
2326,2608,1.47562668914854,-0.797122379821957,-0.0246221926261683,0.003066,-0.000526,-0.000403,0.142025,0.000808,321.101861,24.155210,0.999544,0.989686,0.003980,0.402520,-0.000022,-0.000018,0.000007,-0.000013,-0.000027,53.556206,0.000041,
2461,2083,4.52714811528915,-12.2882181307187,0.029598705271269,0.002572,-0.000542,0.000147,0.116807,-0.025793,330.155714,22.112640,0.999247,0.979795,0.005590,0.306444,0.000000,-0.000023,0.000018,0.000009,-0.000033,28.437681,0.000034,
2116,3028,-3.15908143760241,8.32496530248599,0.00938891735410152,0.003120,-0.000654,0.000615,0.141874,-0.013361,315.079631,24.447910,0.999379,0.991885,0.003629,0.399785,-0.000010,-0.000006,0.000013,0.000005,-0.000021,49.501606,0.000022,
2206,2068,-1.04104577008291,-12.6115778140725,0.0244472403091436,0.002594,-0.000487,-0.001325,0.122866,-0.036466,330.398636,23.670451,0.999098,0.979461,0.005507,0.299724,-0.000019,-0.000022,0.000014,-0.000006,-0.000035,42.706843,0.000044,
2236,2263,-0.421640129325095,-8.33749141445832,0.00759214963511567,0.002383,-0.000430,0.000616,0.107140,-0.013304,327.032634,23.802583,0.999199,0.983031,0.005215,0.312665,-0.000021,-0.000032,-0.000003,-0.000020,-0.000032,-13.282284,0.000053,
2251,2308,-0.10215747705681,-7.35335504255259,0.00378791806798517,0.002763,-0.000593,-0.002577,0.134967,-0.033881,326.273890,23.757998,0.998859,0.980663,0.005376,0.347090,-0.000030,-0.000047,0.000006,-0.000029,-0.000049,17.051969,0.000078,
2386,2908,2.72422005650091,5.73812590382604,-0.0204498752473796,0.002738,-0.001102,0.003903,0.111455,-0.026485,316.228685,24.973361,0.999462,0.991253,0.003802,0.363343,-0.000024,-0.000013,0.000006,-0.000011,-0.000027,66.994693,0.000038,
2506,2398,5.44278472272801,-5.38199016373004,-0.00598156578990938,0.002485,-0.000876,0.000484,0.111538,-0.040787,324.878592,23.119481,0.998784,0.983210,0.005088,0.338068,0.000020,-0.000019,-0.000005,0.000021,-0.000020,-7.283726,0.000024,
2056,2863,-4.43558492293508,4.74051958119979,-0.0145026646612223,0.003148,-0.000569,-0.002516,0.152050,-0.013468,317.883347,24.317350,0.999350,0.991234,0.003821,0.408452,-0.000027,0.000003,-0.000007,0.000005,-0.000028,-77.111248,0.000030,
2041,2773,-4.74861233346446,2.78503143832685,-0.0306723443117107,0.002821,-0.000755,-0.000290,0.130539,-0.039029,319.275230,24.367561,0.999183,0.990443,0.004029,0.356399,-0.000023,0.000010,-0.000007,0.000011,-0.000025,-79.057113,0.000025,
2416,3133,3.33600106867172,10.6249800502711,0.0191933626848027,0.002782,-0.001016,0.002366,0.118993,-0.020178,312.916891,25.632086,0.999857,0.995579,0.002857,0.472633,-0.000003,0.000008,0.000008,0.000012,-0.000007,61.950769,0.000012,
2101,2923,-3.46845974261989,6.04549767547061,-0.00438172862232022,0.002872,-0.000808,-0.000598,0.133832,-0.034575,316.737446,24.404580,0.999226,0.990987,0.003976,0.371298,-0.000022,-0.000012,0.000009,-0.000007,-0.000027,59.732022,0.000036,
2431,3193,3.65132774413189,11.9283113651904,0.0320742320912473,0.002865,-0.001092,0.001877,0.124426,-0.041693,312.066539,25.974779,0.999649,0.991661,0.003555,0.365289,-0.000003,0.000005,0.000009,0.000011,-0.000008,56.582639,0.000011,
2161,3268,-2.22357818014168,13.5300601244188,0.0201189026641941,0.002503,-0.001020,0.002351,0.107921,-0.032934,311.026220,24.696862,0.999670,0.994485,0.003151,0.413881,-0.000009,-0.000004,-0.000008,0.000002,-0.000015,-53.401227,0.000016,
2071,2818,-4.10340181873685,3.76347802439511,-0.0204141895176804,0.003185,-0.000768,-0.001566,0.150942,-0.040650,318.480854,24.342850,0.999355,0.991126,0.004008,0.388548,-0.000026,0.000001,0.000006,0.000002,-0.000027,78.541730,0.000030,
2356,2833,2.08652339137604,4.10441820100066,-0.0171612643969183,0.002807,-0.000897,0.001046,0.124993,-0.033800,317.482067,24.713106,0.999734,0.990925,0.003826,0.365558,-0.000028,0.000001,0.000001,0.000001,-0.000028,88.214749,0.000032,
2341,2773,1.77199469201514,2.79795746847584,-0.0151622129961879,0.003108,-0.000712,0.000463,0.140983,-0.018706,318.492663,24.573965,0.999563,0.992509,0.003601,0.355673,-0.000023,-0.000008,0.000005,-0.000006,-0.000024,72.938196,0.000032,
2491,2383,5.11864799083334,-5.71055974540805,-0.00585844276724856,0.002614,-0.000748,-0.001467,0.125015,-0.041998,325.091909,23.084532,0.998681,0.981414,0.005443,0.358252,-0.000004,-0.000011,0.000007,0.000001,-0.000016,30.466354,0.000018,
2221,2128,-0.724137401171458,-11.2961501434319,0.019536863392716,0.002713,-0.000716,-0.001909,0.130194,-0.041210,329.363468,23.629785,0.998713,0.979798,0.005523,0.329297,-0.000012,-0.000018,0.000012,-0.000002,-0.000027,38.227477,0.000033,
2266,2428,0.202541567952569,-4.72873715843406,-0.0060692855539628,0.002785,-0.000507,0.001067,0.124106,-0.013120,324.216051,23.928686,0.999330,0.988217,0.004359,0.356550,-0.000035,-0.000022,0.000005,-0.000020,-0.000037,72.529972,0.000058,
2296,2503,0.841292007085844,-3.08815093200174,-0.0250441900471401,0.002841,-0.000288,0.000064,0.130091,-0.012727,322.810616,24.037112,0.999703,0.992990,0.003595,0.321791,-0.000026,-0.000017,0.000007,-0.000013,-0.000030,62.072084,0.000044,
2116,3043,-3.16124162039797,8.6509766723493,0.0183217771054274,0.002885,-0.000988,0.001181,0.129222,-0.032372,314.896836,24.578502,0.999661,0.993618,0.003287,0.252524,-0.000012,-0.000007,0.000010,0.000001,-0.000020,51.503751,0.000022,
2086,2953,-3.7985455873099,6.69594833411877,-0.00258280335185646,0.002999,-0.000907,0.000313,0.137106,-0.017832,316.342193,24.358489,0.999392,0.992299,0.003644,0.399377,-0.000024,-0.000021,0.000002,-0.000019,-0.000026,63.956687,0.000045,
2011,2788,-5.40159782593654,3.10993755994377,-0.0282036811057083,0.002826,-0.000418,-0.003078,0.138490,-0.021335,319.247803,24.352033,0.999551,0.991769,0.003716,0.358423,-0.000042,0.000021,-0.000013,0.000024,-0.000045,-78.439553,0.000045,
2026,2788,-5.076324610363,3.1108437175259,-0.0316633780942084,0.002873,-0.000506,-0.002267,0.138460,-0.029402,319.122945,24.365439,0.999537,0.992422,0.003599,0.348861,-0.000035,0.000018,-0.000009,0.000019,-0.000037,-80.451847,0.000037,
2506,2413,5.44067153223442,-5.05439444622588,-0.00425226860767225,0.002844,-0.000110,-0.005282,0.150601,-0.020119,324.688959,23.130370,0.999024,0.983841,0.005111,0.410466,0.000020,-0.000014,0.000002,0.000020,-0.000015,3.459438,0.000021,
2206,2083,-1.04395411199338,-12.2823998750783,0.0178402321714657,0.002801,-0.000864,0.000421,0.126719,-0.043282,330.106658,23.643896,0.999041,0.978587,0.005636,0.339582,-0.000016,-0.000018,0.000010,-0.000007,-0.000028,41.676398,0.000036,
2176,3298,-1.90418653888393,14.1826215556089,0.00034262251938344,0.002956,-0.000734,-0.002305,0.143261,-0.041272,310.349416,24.839089,0.999802,0.996701,0.002507,0.367192,-0.000016,-0.000005,0.000000,-0.000005,-0.000016,87.681603,0.000021,
2311,2563,1.15755522006124,-1.78104501711709,-0.0120459679325791,0.002675,-0.001262,0.003645,0.109911,-0.052188,321.914731,24.054982,0.999143,0.987040,0.004564,0.365830,-0.000025,-0.000013,0.000005,-0.000012,-0.000027,69.274323,0.000039,
2056,2878,-4.43816863153843,5.06615691877874,-0.0122785230262252,0.002988,-0.000787,0.001031,0.134628,-0.015286,317.640932,24.308673,0.999241,0.990226,0.004073,0.409430,-0.000024,0.000007,-0.000008,0.000009,-0.000026,-76.123109,0.000026,
2371,2878,2.40434622360719,5.08486111309709,-0.0151802882859329,0.002757,-0.000819,0.001174,0.122184,-0.045304,316.765290,24.931752,0.999517,0.993623,0.003465,0.275528,-0.000032,-0.000009,-0.000004,-0.000008,-0.000032,-79.690762,0.000043,
2461,2098,4.5238802464601,-11.9575866885417,0.021310795484851,0.002816,-0.000496,-0.002531,0.138045,-0.045546,329.865495,22.221893,0.999585,0.980641,0.005388,0.235102,-0.000008,-0.000025,0.000007,-0.000005,-0.000028,19.637910,0.000035,
2281,2473,0.520839309584488,-3.74592334847424,-0.0111887258631214,0.002852,-0.000883,0.002590,0.121970,-0.017910,323.422033,23.910847,0.999483,0.989098,0.004285,0.415403,-0.000028,-0.000019,0.000018,-0.000005,-0.000041,51.920195,0.000051,
2146,3133,-2.52504399282778,10.6030321701052,0.026107886421471,0.002927,-0.000971,0.001678,0.129534,-0.038503,313.365139,24.569929,0.999544,0.994172,0.003332,0.394288,-0.000018,-0.000003,0.000001,-0.000003,-0.000019,84.478535,0.000023,
2386,2923,2.72203792458381,6.06347359026916,-0.0127612425914663,0.002736,-0.001153,0.002495,0.116345,-0.052552,316.053472,25.019655,0.999287,0.990396,0.004046,0.333520,-0.000024,-0.000014,0.000005,-0.000012,-0.000026,67.353051,0.000038,
2071,2833,-4.10590067534961,4.08944260324238,-0.0111101067540744,0.002736,-0.001162,0.002695,0.117981,-0.042298,318.282012,24.405689,0.999474,0.991881,0.003654,0.320470,-0.000027,0.000000,0.000003,0.000001,-0.000027,83.686509,0.000031,
2491,2398,5.11523689989506,-5.38213837268803,-0.00483194466414716,0.002379,-0.001001,0.000551,0.106424,-0.047982,324.838402,23.186219,0.999420,0.988555,0.004407,0.310882,0.000006,-0.000014,0.000007,0.000008,-0.000016,17.195740,0.000016,
2131,3118,-2.84804512084166,10.2772339828991,0.0249491123553298,0.002824,-0.000810,0.002479,0.122575,-0.014055,313.655520,24.528050,0.999757,0.995787,0.002940,0.393785,-0.000018,-0.000003,0.000003,-0.000003,-0.000019,77.819988,0.000023,
2251,2323,-0.105292977177438,-7.02444285586719,-0.00537783810568726,0.002881,-0.000738,-0.003199,0.142365,-0.060192,325.962678,23.795192,0.998808,0.982788,0.005253,0.309167,-0.000030,-0.000044,0.000009,-0.000026,-0.000048,25.695641,0.000075,
2401,3028,3.02941682839063,8.34569631172194,-0.000707878998582601,0.003035,-0.000899,-0.001271,0.143848,-0.039836,314.477779,25.345539,0.999606,0.990100,0.003904,0.365503,-0.000009,-0.000012,0.000006,-0.000005,-0.000017,37.899044,0.000023,
2041,2788,-4.75035742872141,3.1112085592563,-0.0270733797421485,0.003190,-0.000883,0.000137,0.146305,-0.041159,319.077524,24.394890,0.999276,0.989159,0.004012,0.319233,-0.000032,0.000013,-0.000006,0.000014,-0.000032,-82.564420,0.000033,
2476,2143,4.84231578440329,-10.9697632475093,0.018884243012053,0.003007,-0.000631,0.002091,0.129317,-0.001630,329.146417,22.291434,0.998749,0.976227,0.005735,0.297466,0.000004,-0.000013,0.000011,0.000009,-0.000018,25.447582,0.000018,
2161,3283,-2.22613254226612,13.8552300622403,0.0209909329678339,0.002403,-0.000714,0.001655,0.105579,-0.024098,310.785198,24.730455,0.999738,0.994960,0.002954,0.397597,-0.000009,-0.000006,-0.000004,-0.000003,-0.000012,-56.105452,0.000016,
2326,2623,1.4731250995742,-0.471588370025266,-0.0156792825952152,0.002641,-0.000607,-0.000787,0.123766,-0.025411,320.915491,24.150798,0.999582,0.989183,0.003984,0.415623,-0.000023,-0.000006,0.000006,-0.000004,-0.000025,71.641957,0.000032,
2431,3208,3.64799168015135,12.2540752242946,0.0270818592230739,0.002873,-0.000820,0.001489,0.126341,-0.038408,311.780205,26.019886,0.999637,0.990326,0.003836,0.372010,-0.000002,-0.000003,0.000005,0.000003,-0.000008,40.978942,0.000008,
2101,2938,-3.47066022801065,6.37185613429955,-0.0069265680849071,0.003123,-0.000368,-0.002736,0.151836,-0.021950,316.489634,24.430726,0.999282,0.990767,0.003974,0.358451,-0.000023,-0.000009,0.000008,-0.000005,-0.000027,64.971659,0.000035,
2416,3148,3.33383737634171,10.9504813387471,0.0282090213473793,0.002824,-0.001007,0.002087,0.121868,-0.034422,312.749484,25.739334,0.999771,0.994551,0.003033,0.397442,-0.000004,0.000002,0.000007,0.000006,-0.000009,57.488232,0.000009,
2191,1993,-1.35569894750441,-14.257119499666,0.0284391319401038,0.002496,-0.000392,-0.000967,0.117230,-0.040896,331.671466,23.705066,0.999463,0.984703,0.005006,0.264956,-0.000012,-0.000106,0.000025,-0.000005,-0.000113,13.943073,0.000133,
2026,2803,-5.07829180325026,3.43639797776015,-0.0325571467797658,0.003221,-0.000625,-0.002574,0.155322,-0.038728,318.889217,24.312188,0.999525,0.992661,0.003520,0.383140,-0.000031,0.000011,0.000000,0.000011,-0.000031,-89.462327,0.000031,
2506,2428,5.43809814846484,-4.7269225776893,9.41224363373294E-05,0.002926,-0.000220,-0.006346,0.158393,-0.039159,324.489938,23.199153,0.998850,0.981108,0.005537,0.384945,0.000018,0.000007,0.000012,0.000025,-0.000001,32.591624,0.000029,
2221,2143,-0.726331469764848,-10.9663607854388,0.0149645112414305,0.003311,0.000048,-0.003311,0.162375,-0.007170,329.115653,23.663964,0.998894,0.982028,0.005305,0.351085,-0.000018,-0.000020,0.000013,-0.000006,-0.000032,41.982723,0.000041,
2356,2848,2.08308027720804,4.43142335284077,-0.0259191972486406,0.002802,-0.000756,-0.000034,0.128648,-0.026379,317.167626,24.736171,0.999632,0.991018,0.003786,0.388701,-0.000026,-0.000002,-0.000002,-0.000002,-0.000027,-85.572624,0.000032,
2011,2803,-5.40398398169787,3.43558480742092,-0.030415914723676,0.003032,-0.000690,0.000404,0.138447,-0.032163,318.986304,24.298158,0.999522,0.992452,0.003586,0.389564,-0.000034,0.000013,-0.000002,0.000013,-0.000034,-87.048437,0.000034,
2341,2788,1.76891362215951,3.12443653801563,-0.0168299047136884,0.002871,-0.000571,-0.000848,0.134736,-0.019419,318.228251,24.591354,0.999538,0.993550,0.003497,0.374174,-0.000022,-0.000011,0.000003,-0.000010,-0.000023,76.917875,0.000034,
2461,2113,4.520146316566,-11.6282400810219,0.0143051537866654,0.002903,-0.000731,-0.000024,0.132561,-0.028821,329.559554,22.198054,0.999485,0.977897,0.005718,0.333861,-0.000012,-0.000023,0.000004,-0.000010,-0.000025,18.937448,0.000036,
2266,2443,0.199641278728542,-4.40122437403912,-0.00127516996309396,0.002369,-0.001291,0.003197,0.097671,-0.065349,323.987177,24.040550,0.999595,0.989513,0.004191,0.219285,-0.000036,-0.000013,0.000008,-0.000011,-0.000038,72.916092,0.000051,
2236,2278,-0.4247276678642,-8.00942307719186,0.00113611408795578,0.002442,-0.001098,0.001779,0.105881,-0.044761,326.736102,23.777410,0.999201,0.984529,0.004912,0.329928,-0.000021,-0.000032,-0.000003,-0.000020,-0.000033,-15.665935,0.000053,
2086,2968,-3.80094505362474,7.0213477164888,0.000677270718369982,0.002721,-0.000803,-0.000888,0.127824,-0.023497,316.116084,24.363121,0.999414,0.991977,0.003626,0.387642,-0.000020,-0.000021,0.000002,-0.000019,-0.000023,38.031815,0.000042,
2491,2413,5.11230987744928,-5.05504937394887,-0.0116300145007244,0.002732,-0.000868,-0.003842,0.139437,-0.056184,324.572080,23.098381,0.999409,0.989211,0.004341,0.451272,0.000002,-0.000010,0.000016,0.000013,-0.000021,34.712487,0.000022,
2296,2518,0.83807376020178,-2.76126450682812,-0.0292844807073607,0.002729,-0.000683,0.000948,0.121828,-0.027098,322.524310,23.996950,0.999669,0.991641,0.003734,0.378711,-0.000027,-0.000016,0.000006,-0.000013,-0.000030,66.237998,0.000044,
2056,2893,-4.44075623957238,5.39245567276394,-0.0115291025978195,0.002686,-0.000750,0.000789,0.121418,-0.013581,317.389989,24.350496,0.999417,0.993094,0.003669,0.363516,-0.000027,-0.000007,-0.000011,-0.000002,-0.000032,-66.412728,0.000039,
2281,2488,0.517694966507673,-3.41938169494951,-0.0174973020140214,0.002930,-0.001164,0.003497,0.122396,-0.048110,323.127702,23.824471,0.999701,0.990948,0.003971,0.500595,-0.000026,-0.000010,0.000011,-0.000004,-0.000032,61.986636,0.000039,
2116,3058,-3.16381017829622,8.9745605686078,0.0175236599612845,0.002885,-0.000873,0.002085,0.126536,-0.037166,314.643740,24.411231,0.999596,0.993367,0.003462,0.417685,-0.000010,-0.000006,0.000007,-0.000001,-0.000015,52.680700,0.000018,
2161,3298,-2.22853650087847,14.1801098006588,0.0170879463787514,0.002716,-0.000620,0.000065,0.124804,-0.041683,310.525917,24.741485,0.999819,0.996421,0.002565,0.377506,-0.000011,-0.000004,-0.000008,0.000001,-0.000016,-57.949177,0.000018,
2191,2008,-1.35851258510002,-13.9284408037325,0.0258540962161078,0.002528,-0.000793,0.001550,0.110685,-0.025319,331.403144,23.626162,0.999328,0.984453,0.005056,0.377740,-0.000022,-0.000073,0.000028,-0.000010,-0.000085,23.621759,0.000104,
2206,2098,-1.04678646793309,-11.9534855128366,0.0201043590576546,0.002562,-0.001125,0.003474,0.106048,-0.025214,329.863634,23.671967,0.999096,0.981811,0.005334,0.349452,-0.000015,-0.000010,0.000012,0.000000,-0.000025,50.325485,0.000029,
2041,2803,-4.75258385940504,3.43684051559439,-0.0281831612160204,0.003248,-0.000915,-0.001317,0.153043,-0.048769,318.831854,24.345462,0.999298,0.990883,0.003788,0.353683,-0.000027,0.000008,0.000001,0.000008,-0.000027,87.825542,0.000028,
2476,2158,4.8393072202132,-10.6408871717339,0.0186739140798409,0.002972,-0.000100,0.000840,0.132736,-0.006608,328.905880,22.336743,0.998551,0.974051,0.006166,0.306449,0.000001,-0.000018,0.000002,0.000001,-0.000018,4.939320,0.000021,
2146,3148,-2.52808460993317,10.9288198262387,0.0201640959796805,0.002764,-0.000721,0.001106,0.123923,-0.019673,313.064339,24.574879,0.999557,0.993203,0.003438,0.415048,-0.000018,-0.000001,0.000002,-0.000001,-0.000019,83.375203,0.000022,
2311,2578,1.15364957474952,-1.45142246305085,-0.0270817875349394,0.002373,-0.000641,-0.000208,0.109442,-0.024331,321.544250,24.148944,0.999506,0.991391,0.003796,0.333323,-0.000023,-0.000005,0.000008,-0.000001,-0.000026,68.901122,0.000031,
2011,2818,-5.4063521058152,3.76109382072055,-0.0298760550561497,0.003043,-0.000827,0.002989,0.131860,-0.033349,318.741139,24.247624,0.999236,0.991270,0.003754,0.426950,-0.000031,0.000014,-0.000006,0.000015,-0.000032,-82.682155,0.000032,
2026,2818,-5.08065831299031,3.76151561841264,-0.0249690345742124,0.002994,-0.001124,0.002622,0.130449,-0.036593,318.684699,24.276569,0.999371,0.992151,0.003621,0.410703,-0.000033,0.000012,-0.000004,0.000012,-0.000033,-84.515335,0.000034,
2506,2443,5.43415064780221,-4.39901344147775,0.00302893656191827,0.002418,-0.000752,0.000402,0.108887,-0.038195,324.221273,23.279378,0.999095,0.981970,0.005267,0.368228,0.000022,-0.000017,0.000023,0.000032,-0.000028,25.276286,0.000035,
2371,2893,2.40213893032575,5.41012196911783,-0.0168324603453698,0.003066,-0.000449,-0.004965,0.158409,-0.044290,316.543427,24.867086,0.999508,0.992355,0.003607,0.382045,-0.000030,-0.000012,-0.000002,-0.000011,-0.000030,-82.900600,0.000043,
2251,2338,-0.108592166703513,-6.69620883330637,-0.00566690375745793,0.002328,-0.000799,-0.002016,0.113076,-0.061358,325.688721,23.839115,0.998940,0.983649,0.005200,0.289579,-0.000028,-0.000027,0.000011,-0.000016,-0.000039,46.831235,0.000057,
2131,3133,-2.85022655306968,10.6020168029855,0.0299318740765671,0.002906,-0.001063,0.003907,0.121953,-0.036685,313.451842,24.544241,0.999704,0.995281,0.002988,0.359333,-0.000015,-0.000004,0.000002,-0.000003,-0.000015,79.512796,0.000020,
2071,2848,-4.10881396049614,4.41717484070771,-0.0233889237509288,0.002800,-0.000337,0.000224,0.128341,0.003632,317.945230,24.425314,0.999689,0.993817,0.003252,0.343773,-0.000026,-0.000001,0.000002,-0.000001,-0.000026,85.770338,0.000031,
2401,3043,3.0272630802871,8.6708476265978,0.00825733267305395,0.003043,-0.000952,-0.001892,0.146429,-0.049566,314.310340,25.393470,0.999647,0.991513,0.003706,0.352469,-0.000008,-0.000004,0.000009,0.000004,-0.000016,51.963373,0.000017,
2431,3223,3.64467255447999,12.5796650387115,0.0293821563918755,0.002405,-0.000891,0.002268,0.101964,-0.025500,311.528627,26.085603,0.999561,0.991373,0.003721,0.367937,-0.000003,-0.000015,0.000005,-0.000001,-0.000017,21.245796,0.000020,
2326,2638,1.4698605099727,-0.143885031103743,-0.0192365705192401,0.002654,-0.000775,0.002093,0.114386,-0.019464,320.632435,24.211114,0.999440,0.988738,0.004104,0.396277,-0.000026,-0.000005,0.000007,-0.000003,-0.000028,73.654758,0.000034,
2491,2428,5.10955601347124,-4.72565053348652,-0.0134268631948089,0.003093,-0.000256,-0.005379,0.162181,-0.020715,324.335611,23.231651,0.999321,0.987630,0.004571,0.413802,0.000000,0.000002,0.000027,0.000028,-0.000026,46.507629,0.000032,
2461,2128,4.51743285857127,-11.2993070056813,0.0179604138451737,0.002881,-0.000654,-0.000583,0.133656,-0.014884,329.348898,22.260881,0.999506,0.976014,0.005906,0.341987,-0.000009,-0.000026,0.000005,-0.000007,-0.000027,14.811454,0.000037,
2386,2938,2.71912377061629,6.38958657329346,-0.0109649540638088,0.002570,-0.001029,0.002390,0.109190,-0.033616,315.816231,25.053101,0.999354,0.990272,0.003983,0.361765,-0.000022,-0.000015,0.000003,-0.000014,-0.000023,67.769814,0.000038,
2476,2173,4.83592915173412,-10.3119147589709,0.0188278451609563,0.002683,-0.000585,0.001206,0.117934,-0.031999,328.650056,22.420573,0.997915,0.966377,0.006902,0.256873,-0.000011,0.000006,0.000002,0.000006,-0.000012,82.290291,0.000012,
2041,2818,-4.75502150687694,3.76247352813395,-0.0227507238553244,0.002930,-0.000897,0.001011,0.131971,-0.025824,318.612764,24.320071,0.999172,0.990640,0.003940,0.394224,-0.000028,0.000010,-0.000002,0.000010,-0.000028,-86.192695,0.000028,
2176,1993,-1.68201131060983,-14.2572907068163,0.0365058558380156,0.002962,-0.000091,-0.002490,0.143383,-0.034090,331.810002,23.842393,0.999297,0.982734,0.005166,0.239366,-0.000001,-0.000103,0.000026,0.000005,-0.000110,13.698810,0.000124,
2101,2953,-3.4734136195446,6.69742490368907,-0.00793532158286325,0.003113,-0.000871,0.001194,0.139776,-0.018025,316.225061,24.408318,0.999496,0.991567,0.003674,0.385392,-0.000020,-0.000016,0.000010,-0.000008,-0.000028,51.660093,0.000038,
2191,2023,-1.36100206072232,-13.5986814201538,0.0261047841773347,0.002486,-0.000763,0.000934,0.110735,-0.035862,331.164291,23.709552,0.999042,0.984269,0.005065,0.301915,-0.000019,-0.000061,0.000025,-0.000008,-0.000073,24.745161,0.000089,
2206,2113,-1.04916468541553,-11.6246682647431,0.0176319645707395,0.002655,-0.000697,0.000086,0.121172,-0.027943,329.617123,23.665386,0.998948,0.982651,0.005124,0.372992,-0.000013,-0.000016,0.000009,-0.000005,-0.000024,40.303524,0.000031,
2221,2158,-0.729168867786637,-10.6370281885265,0.0100210446201459,0.003228,0.000209,-0.005670,0.166166,-0.004815,328.836718,23.690252,0.998889,0.984476,0.005228,0.349097,-0.000016,-0.000018,0.000011,-0.000007,-0.000028,42.464233,0.000037,
2416,3163,3.33094478045316,11.2761884476888,0.0283970778225466,0.002804,-0.000791,0.001329,0.123894,-0.017743,312.506924,25.784372,0.999711,0.993781,0.003198,0.415552,-0.000006,0.000001,0.000006,0.000004,-0.000010,59.952701,0.000010,
2356,2863,2.08037120701006,4.75737702565659,-0.0258170880480293,0.002945,-0.000916,0.000170,0.134484,-0.031504,316.929896,24.746182,0.999481,0.991091,0.003837,0.412137,-0.000026,0.000000,-0.000004,0.000001,-0.000027,-81.081008,0.000031,
2341,2803,1.76548727617821,3.45132194798974,-0.0205774638470189,0.002616,-0.000806,-0.000015,0.120024,-0.019720,317.937710,24.634408,0.999521,0.992720,0.003596,0.367553,-0.000019,-0.000008,0.000003,-0.000007,-0.000020,75.086663,0.000028,
2281,2503,0.515217386628489,-3.08869997872144,-0.0211524613246752,0.003113,-0.000305,-0.000951,0.146014,-0.012829,322.876034,24.081740,0.999707,0.992098,0.003799,0.307508,-0.000030,-0.000014,0.000008,-0.000010,-0.000033,66.146753,0.000046,
2431,3238,3.64110205658999,12.905313132639,0.019334072962863,0.002595,-0.000857,0.001957,0.111829,-0.030268,311.207784,26.107988,0.999539,0.992620,0.003550,0.389360,-0.000005,-0.000016,0.000002,-0.000005,-0.000017,9.071670,0.000023,
2131,3148,-2.85276396945503,10.9272120364936,0.0298440869964338,0.002662,-0.000567,0.000694,0.120566,-0.012699,313.204482,24.524419,0.999634,0.993947,0.003168,0.407851,-0.000016,0.000000,0.000002,0.000000,-0.000017,81.830945,0.000019,
2266,2458,0.196443681154687,-4.07118780247662,-0.0206900666607908,0.003008,-0.000557,-0.000224,0.138617,-0.031583,323.622393,24.077057,0.999692,0.990782,0.004045,0.243858,-0.000037,-0.000013,0.000012,-0.000008,-0.000042,67.735658,0.000054,
2086,2983,-3.80345746556745,7.34659827861952,0.000588855372029684,0.002705,-0.001077,0.000443,0.123068,-0.044028,315.866622,24.349657,0.999508,0.993233,0.003407,0.378729,-0.000021,-0.000023,0.000004,-0.000018,-0.000026,39.013394,0.000044,
2236,2293,-0.427509866250745,-7.68097592047474,-0.00335626511895271,0.002539,-0.000659,0.001153,0.112491,-0.036277,326.463238,23.772735,0.999252,0.986089,0.004573,0.366427,-0.000021,-0.000028,0.000006,-0.000018,-0.000031,28.696116,0.000050,
2011,2833,-5.40747032287758,4.08714886183274,-0.0183047217345802,0.003258,-0.000931,-0.001140,0.152978,-0.049736,318.615072,24.349590,0.999685,0.994759,0.003316,0.296247,-0.000037,0.000015,-0.000008,0.000016,-0.000038,-81.551105,0.000038,
2056,2908,-4.44289044960107,5.71798210165311,-0.0118960855165824,0.002855,-0.000561,-0.000273,0.132239,-0.014657,317.153945,24.320200,0.999511,0.992652,0.003563,0.386876,-0.000026,-0.000018,-0.000012,-0.000010,-0.000034,-54.704710,0.000046,
2041,2833,-4.7575522621181,4.08858677211265,-0.0196916500314046,0.002555,-0.000683,0.001503,0.113392,-0.014331,318.376131,24.335877,0.999007,0.988438,0.004244,0.381930,-0.000031,0.000008,-0.000006,0.000009,-0.000031,-81.789594,0.000032,
2176,2008,-1.68578364455136,-13.9260685383805,0.0163115681943964,0.002835,0.000378,-0.005391,0.146655,-0.000345,331.404387,23.776271,0.999182,0.984867,0.004963,0.356207,-0.000015,-0.000069,0.000030,-0.000001,-0.000083,23.920478,0.000096,
2116,3073,-3.16671268860363,9.30123987683662,0.00783332387010205,0.002860,-0.000568,-0.001282,0.135429,-0.037192,314.326304,24.471077,0.999699,0.993092,0.003667,0.360356,-0.000009,-0.000001,0.000005,0.000001,-0.000011,65.890637,0.000013,
2326,2653,1.46623272201447,0.184431900895703,-0.0305318006597304,0.002643,-0.000704,0.001708,0.115279,-0.009081,320.294692,24.263628,0.999439,0.989865,0.003998,0.389625,-0.000026,0.000001,0.000009,0.000004,-0.000028,73.711815,0.000031,
2461,2143,4.51403324318791,-10.9694488507663,0.0102281958109529,0.003075,-0.000509,-0.001611,0.146458,-0.013218,329.054847,22.302929,0.999174,0.976701,0.005804,0.359298,-0.000002,-0.000013,0.000005,0.000001,-0.000015,22.095719,0.000017,
2296,2533,0.83493126446443,-2.43497290580827,-0.0359915867238669,0.002743,-0.000869,0.000117,0.125241,-0.042783,322.229353,23.886890,0.999720,0.993677,0.003414,0.504351,-0.000026,-0.000020,0.000001,-0.000019,-0.000026,79.950478,0.000046,
2191,2038,-1.36374128221712,-13.2670200391948,0.0129823295514484,0.002861,-0.000239,-0.003450,0.141801,-0.034070,330.844502,23.809320,0.999189,0.986501,0.004699,0.222436,-0.000017,-0.000043,0.000025,-0.000002,-0.000058,30.875049,0.000068,
2476,2188,4.833287658528,-9.9831686692139,0.0215175172486397,0.002718,-0.000493,-0.000786,0.127121,-0.019054,328.439223,22.477304,0.998408,0.968927,0.006777,0.272231,0.000000,0.000007,0.000000,0.000007,0.000000,89.215819,0.000008,
2101,2968,-3.47544709087839,7.02276658225182,-0.000891548063862047,0.002873,-0.000689,-0.001712,0.137239,-0.025957,316.037231,24.436714,0.999647,0.991685,0.003508,0.349569,-0.000016,-0.000017,0.000009,-0.000008,-0.000025,44.430169,0.000034,
2026,2833,-5.08283580938916,4.08807484854519,-0.0266709225764998,0.002996,-0.000920,-0.000892,0.140284,-0.032593,318.436516,24.304619,0.999670,0.994425,0.003356,0.376700,-0.000040,0.000011,-0.000008,0.000012,-0.000041,-81.550197,0.000042,
2491,2443,5.10658177040952,-4.397676877275,-0.00597076348913106,0.002940,-0.000591,-0.001134,0.138808,-0.013894,324.130811,23.354972,0.999201,0.984021,0.004786,0.357609,0.000008,-0.000024,0.000038,0.000033,-0.000049,33.422573,0.000050,
2071,2863,-4.11055065441652,4.74145500583669,-0.0158657749372537,0.002983,-0.000789,0.000645,0.135387,-0.031119,317.772198,24.360716,0.999450,0.991384,0.003793,0.370113,-0.000021,0.000000,-0.000002,0.000000,-0.000021,-85.884834,0.000025,
2431,3253,3.63740687233601,13.2315032650004,0.0112372178163014,0.002685,-0.000985,0.003884,0.108891,-0.018325,310.890012,26.179823,0.999531,0.992838,0.003444,0.377906,-0.000010,-0.000005,0.000000,-0.000005,-0.000010,-87.777946,0.000016,
2506,2458,5.43065774811634,-4.06992874107169,-0.00641620199235149,0.002740,-0.000474,-0.000827,0.128525,-0.015931,323.917965,23.335321,0.999302,0.986240,0.004570,0.397521,0.000031,-0.000020,0.000029,0.000045,-0.000033,24.382218,0.000046,
2311,2593,1.15195506316222,-1.12588296846801,-0.0179657570368477,0.002815,-0.000801,0.000662,0.126716,-0.030021,321.394911,24.117758,0.999591,0.991631,0.003699,0.391366,-0.000021,-0.000018,0.000004,-0.000015,-0.000024,54.972007,0.000039,
2386,2953,2.71659784337147,6.71542267168237,-0.0123256589943139,0.002816,-0.001012,-0.000563,0.131087,-0.049548,315.581902,25.077696,0.999299,0.989076,0.004162,0.364212,-0.000022,-0.000015,0.000006,-0.000011,-0.000025,60.869651,0.000037,
2146,3163,-2.52957412906979,11.2535328579578,0.0323469747750664,0.003026,-0.000791,0.001607,0.134445,-0.019810,312.931649,24.613083,0.999589,0.992076,0.003576,0.383299,-0.000018,0.000004,-0.000002,0.000004,-0.000019,-85.453041,0.000020,
2206,2128,-1.05153494472372,-11.2955399113022,0.0166395543682256,0.002803,-0.000416,-0.001211,0.132188,-0.025996,329.378495,23.704237,0.998904,0.981885,0.005273,0.356046,-0.000013,-0.000019,0.000012,-0.000004,-0.000028,37.889817,0.000034,
2371,2908,2.39880326156724,5.73662783585388,-0.0174535437542431,0.002951,-0.000586,-0.001125,0.139491,-0.018893,316.274172,24.904753,0.999439,0.990661,0.003857,0.410495,-0.000026,-0.000011,0.000002,-0.000011,-0.000026,83.565248,0.000039,
2131,3163,-2.85512856403887,11.2522040829941,0.0323585714673413,0.002695,-0.000676,0.001634,0.119184,-0.024091,312.979096,24.540610,0.999538,0.992063,0.003498,0.384565,-0.000018,0.000007,-0.000002,0.000007,-0.000018,-86.408286,0.000018,
2476,2203,4.82982899943255,-9.6539421032284,0.0144973003913833,0.002835,-0.000323,-0.001675,0.135888,-0.022497,328.146976,22.497614,0.998188,0.969667,0.006635,0.307870,0.000002,-0.000001,-0.000009,0.000010,-0.000009,-39.554880,0.000011,
2356,2878,2.07797465480676,5.08327663300278,-0.0168934590205367,0.002718,-0.000781,0.000309,0.123566,-0.029564,316.749037,24.813184,0.999542,0.992062,0.003660,0.385382,-0.000029,-0.000008,-0.000005,-0.000007,-0.000030,-78.548708,0.000039,
2041,2848,-4.75963180601031,4.41513478660229,-0.0306026252750939,0.003115,-0.000087,-0.004046,0.154821,-0.007859,318.082519,24.296075,0.999237,0.990929,0.003923,0.420775,-0.000030,0.000005,-0.000008,0.000007,-0.000031,-78.399390,0.000033,
2236,2308,-0.430158981962052,-7.35214901543932,-0.0076275076918364,0.002693,-0.000597,-0.000420,0.124690,-0.033616,326.197514,23.816522,0.998944,0.985343,0.004775,0.348670,-0.000026,-0.000043,0.000006,-0.000024,-0.000045,18.888131,0.000071,
2011,2848,-5.41030816768187,4.41188920595842,-0.0211711085450474,0.002834,-0.001023,-0.001400,0.134135,-0.048267,318.329567,24.208248,0.999703,0.995380,0.003239,0.426813,-0.000033,0.000010,-0.000007,0.000011,-0.000034,-80.635421,0.000035,
2251,2353,-0.110683649640503,-6.36953646083491,0.00745266338805095,0.002383,-0.001090,0.004296,0.094918,-0.020964,325.537819,23.834749,0.999069,0.985285,0.004986,0.359132,-0.000033,-0.000021,0.000010,-0.000015,-0.000039,59.885601,0.000056,
2266,2473,0.194134445456111,-3.74626709051014,-0.0107552461404907,0.002659,-0.000828,0.000043,0.121647,-0.026308,323.446632,23.951673,0.999747,0.991887,0.003868,0.401221,-0.000030,-0.000012,0.000019,0.000000,-0.000042,57.209191,0.000048,
2341,2818,1.76269748535835,3.77752759066894,-0.0200501073720716,0.002780,-0.000835,0.002297,0.119469,-0.025418,317.697308,24.657774,0.999374,0.989116,0.003955,0.374819,-0.000025,-0.000006,0.000002,-0.000006,-0.000025,84.800427,0.000033,
2116,3088,-3.16839200331233,9.62632217921473,0.0135311922492178,0.003248,-0.000707,-0.001773,0.154764,-0.045767,314.148493,24.495431,0.999655,0.993079,0.003495,0.329944,-0.000010,-0.000006,0.000007,-0.000001,-0.000015,53.787764,0.000018,
2191,2053,-1.36669162325162,-12.9382843846902,0.0102528859819131,0.002672,-0.000074,-0.002328,0.129701,-0.010136,330.569066,23.743833,0.999191,0.983172,0.005044,0.330016,-0.000015,-0.000029,0.000025,0.000004,-0.000048,37.510571,0.000054,
2056,2923,-4.44449951825641,6.04327425744144,-0.00919158881396243,0.003335,-0.000604,-0.001774,0.158625,-0.018961,316.959027,24.297668,0.999522,0.992593,0.003557,0.399418,-0.000027,-0.000022,-0.000011,-0.000014,-0.000036,-52.005490,0.000051,
2431,3268,3.63394680804219,13.5577442685329,0.00130239860266101,0.002794,-0.000803,0.001296,0.123583,-0.012649,310.574389,26.257331,0.999613,0.993783,0.003301,0.354690,-0.000012,-0.000010,0.000001,-0.000009,-0.000012,66.700176,0.000022,
2026,2848,-5.08598648530197,4.41349234929705,-0.0482252799730531,0.002825,0.000131,-0.010814,0.159888,-0.056288,318.033326,24.111840,0.999687,0.995578,0.003140,0.536481,-0.000039,0.000006,-0.000008,0.000008,-0.000041,-80.905237,0.000043,
2296,2548,0.833061218762239,-2.10740990854788,-0.0212181409793288,0.002686,-0.000885,0.002385,0.114961,-0.021291,322.098657,24.052424,0.999387,0.989111,0.004232,0.390610,-0.000025,-0.000012,0.000003,-0.000011,-0.000026,76.484262,0.000038,
2221,2173,-0.731519742559836,-10.3091600232105,0.0108432279395743,0.003266,0.000286,-0.007380,0.173392,-0.027189,328.609802,23.674659,0.999008,0.984097,0.005090,0.363904,-0.000012,-0.000012,0.000010,-0.000002,-0.000022,44.499708,0.000027,
2416,3178,3.32812247377063,11.601889400338,0.0258641922239917,0.002941,-0.000525,-0.001071,0.139101,-0.016348,312.254763,25.831786,0.999637,0.992748,0.003381,0.416050,-0.000003,0.000001,0.000008,0.000007,-0.000009,52.716625,0.000009,
2176,2023,-1.6881358971257,-13.5977061248348,0.0249823034027941,0.002577,0.000045,-0.002280,0.125139,0.002830,331.214448,23.814265,0.998787,0.985035,0.005014,0.337129,-0.000011,-0.000059,0.000029,0.000002,-0.000072,24.893386,0.000082,
2491,2458,5.10313132136031,-4.06955373431312,-0.00767298215509982,0.002892,-0.000568,0.000924,0.128754,-0.004529,323.862871,23.408231,0.999301,0.985743,0.004556,0.374124,0.000018,-0.000024,0.000041,0.000043,-0.000050,31.506789,0.000054,
2506,2473,5.42709191544612,-3.74143806165124,-0.00805666024967877,0.002704,-0.000790,0.002372,0.114395,-0.013777,323.646157,23.435272,0.999420,0.985456,0.004537,0.362057,0.000011,-0.000035,0.000018,0.000017,-0.000041,19.595300,0.000041,
2326,2668,1.46365477686177,0.511904429446233,-0.0271430542164239,0.002604,-0.000809,0.001719,0.113376,-0.028244,320.077090,24.396349,0.999685,0.991590,0.003748,0.272355,-0.000027,0.000002,0.000006,0.000003,-0.000028,78.657079,0.000031,
2476,2218,4.82655225788283,-9.32419779554309,0.0138291107375608,0.002776,-0.000186,-0.000586,0.129163,0.019775,327.891433,22.591929,0.998994,0.979655,0.005775,0.315354,-0.000010,-0.000014,-0.000007,-0.000004,-0.000019,-37.399691,0.000025,
2086,2998,-3.80538602958767,7.67242503487729,0.00559178203712918,0.002855,-0.000944,0.000213,0.130730,-0.038147,315.671474,24.401407,0.999629,0.993358,0.003254,0.331085,-0.000021,-0.000010,0.000010,-0.000004,-0.000027,59.913765,0.000034,
2461,2158,4.5107266879618,-10.6401438356485,0.0146601997426501,0.002672,-0.000252,0.001181,0.117697,0.005414,328.820331,22.413983,0.999118,0.976407,0.005750,0.324027,-0.000003,-0.000016,-0.000002,-0.000003,-0.000016,-7.979972,0.000021,
2071,2878,-4.11327712390217,5.06719002856789,-0.018185105891348,0.002759,-0.001066,0.000480,0.125456,-0.044052,317.499344,24.339216,0.999272,0.989330,0.004239,0.375111,-0.000019,0.000006,-0.000003,0.000006,-0.000020,-82.463783,0.000020,
2281,2518,0.512336030582148,-2.76342038565841,-0.0163343848826685,0.002618,-0.000672,-0.000322,0.121027,-0.027666,322.649324,23.975922,0.999748,0.992462,0.003729,0.427414,-0.000029,-0.000013,0.000008,-0.000010,-0.000033,66.806826,0.000045,
2041,2863,-4.76154968225717,4.74031283233779,-0.0228231636514806,0.003018,-0.000480,-0.004395,0.151251,-0.023962,317.900567,24.297117,0.999198,0.990943,0.004100,0.395528,-0.000027,0.000006,-0.000012,0.000010,-0.000031,-71.502472,0.000032,
2401,3058,3.02441157168831,8.9971487042304,0.00914596531339384,0.003227,-0.000769,0.000386,0.146755,-0.022697,314.072183,25.461195,0.999690,0.992575,0.003545,0.356101,-0.000007,-0.000006,0.000014,0.000008,-0.000020,45.366318,0.000021,
2371,2923,2.39601998422821,6.0628519272155,-0.0139500896097502,0.002782,-0.000666,-0.000960,0.131091,-0.024941,316.050146,24.981560,0.999352,0.990591,0.003909,0.368270,-0.000026,-0.000012,0.000001,-0.000012,-0.000026,84.775471,0.000039,
2311,2608,1.14898837880861,-0.798464448436079,-0.0196978059554453,0.002713,-0.000599,0.000323,0.123313,-0.004355,321.133310,24.137987,0.999608,0.991221,0.003726,0.429839,-0.000025,-0.000017,0.000006,-0.000014,-0.000028,60.765354,0.000043,
2206,2143,-1.05396001169968,-10.9654637743327,0.0135382113624587,0.003064,-0.000259,-0.002351,0.147785,-0.033020,329.126397,23.821344,0.999303,0.983774,0.004986,0.251505,-0.000020,-0.000021,0.000012,-0.000008,-0.000032,43.818402,0.000042,
2146,3178,-2.5320187989828,11.5781761306957,0.0368519023986096,0.002876,-0.000878,0.002637,0.124423,-0.015513,312.714259,24.597149,0.999505,0.991440,0.003593,0.410062,-0.000017,-0.000001,-0.000004,0.000001,-0.000018,-76.016832,0.000021,
2251,2368,-0.11446561710456,-6.04004764429222,-0.00597766797073973,0.002352,-0.001653,0.006238,0.086954,-0.040739,325.175212,23.893782,0.999394,0.988391,0.004639,0.305681,-0.000038,-0.000011,0.000007,-0.000010,-0.000040,76.963677,0.000052,
2386,2968,2.71349329896941,7.04226936942483,-0.0144710805201385,0.002843,-0.000985,0.000222,0.129548,-0.041931,315.316833,25.170875,0.999576,0.991157,0.003845,0.321267,-0.000024,-0.000010,0.000007,-0.000007,-0.000027,67.659506,0.000036,
2431,3283,3.63101373166122,13.8827312350786,-0.00287344560109659,0.003040,-0.000739,-0.000303,0.140791,-0.032594,310.310266,26.281036,0.999778,0.994223,0.003090,0.359496,-0.000011,-0.000033,-0.000001,-0.000011,-0.000033,-2.355093,0.000045,
2026,2863,-5.08699638563187,4.74059681807979,-0.0316982903561893,0.003433,-0.000347,-0.005611,0.173591,-0.034375,317.940255,24.317405,0.999298,0.992719,0.003829,0.342256,-0.000035,0.000006,-0.000010,0.000009,-0.000037,-76.997690,0.000039,
2236,2323,-0.432741033352496,-7.02406096747922,-0.0130372440169708,0.003021,-0.000591,-0.001567,0.143443,-0.052913,325.929267,23.809094,0.998688,0.986994,0.004710,0.360066,-0.000028,-0.000040,0.000009,-0.000023,-0.000045,28.163278,0.000069,
2461,2173,4.50749024973448,-10.3106942818435,0.00787139829560601,0.002789,-0.000057,-0.001789,0.134274,-0.002734,328.537967,22.450548,0.999077,0.978733,0.005504,0.336808,-0.000014,0.000005,0.000000,0.000005,-0.000014,-89.727606,0.000014,
2176,2038,-1.69078622487585,-13.2675221186058,0.0231291051012477,0.002510,0.000125,-0.002627,0.123185,-0.007900,330.955915,23.918260,0.999098,0.985277,0.004835,0.238344,-0.000009,-0.000041,0.000029,0.000008,-0.000058,30.701280,0.000063,
2356,2893,2.0761199486695,5.40973572060467,-0.0109663080325504,0.003043,-0.000245,-0.002422,0.148342,-0.017383,316.578428,24.902596,0.999552,0.992177,0.003580,0.346621,-0.000028,-0.000013,-0.000003,-0.000013,-0.000029,-79.664336,0.000043,
2116,3103,-3.17041415977804,9.95086253332727,0.025613442164115,0.003141,-0.001043,0.001728,0.139378,-0.040050,313.989543,24.498996,0.999830,0.995800,0.002921,0.334382,-0.000014,-0.000010,0.000008,-0.000003,-0.000021,52.968833,0.000026,
2476,2233,4.82333002425059,-8.99692749108767,0.0149463490416792,0.002400,-0.000623,-0.001999,0.117121,-0.025356,327.647029,22.571275,0.999182,0.982556,0.005411,0.349797,-0.000008,-0.000021,-0.000009,-0.000004,-0.000025,-27.330569,0.000031,
2056,2938,-4.44684514746752,6.36860293361726,-0.00605103351875869,0.003210,-0.000729,-0.000757,0.149883,-0.034789,316.732778,24.296974,0.999378,0.991858,0.003673,0.378267,-0.000029,-0.000022,-0.000008,-0.000017,-0.000034,-57.629919,0.000052,
2071,2893,-4.1158538843576,5.39334086700264,-0.0164189134027311,0.002546,-0.001159,0.002119,0.110949,-0.037253,317.255585,24.370516,0.999421,0.992173,0.003765,0.346900,-0.000024,-0.000006,-0.000006,-0.000004,-0.000026,-73.724678,0.000033,
2191,2068,-1.36993892950096,-12.6102008113043,0.00575263573779239,0.002389,-0.000851,-0.000061,0.109392,-0.044674,330.271285,23.663495,0.999500,0.984215,0.005023,0.393838,-0.000012,-0.000031,0.000024,0.000004,-0.000047,33.701099,0.000052,
2011,2863,-5.41256914812435,4.7383113187058,-0.0192433923617727,0.002913,-0.001118,0.001756,0.129207,-0.043993,318.096873,24.258592,0.999305,0.991693,0.004015,0.368483,-0.000024,0.000010,-0.000009,0.000012,-0.000026,-76.004395,0.000026,
2266,2488,0.190992019069601,-3.41890449286737,-0.0201106771987156,0.002875,-0.001188,0.000164,0.131034,-0.055794,323.135510,23.911640,0.999688,0.991193,0.003917,0.438714,-0.000028,-0.000004,0.000014,0.000002,-0.000034,65.575124,0.000039,
2026,2878,-5.08922297573902,5.06609170486577,-0.02478805614885,0.003209,-0.000236,-0.003533,0.157554,-0.026508,317.738333,24.320840,0.998871,0.988666,0.004407,0.336246,-0.000029,0.000002,-0.000010,0.000005,-0.000032,-73.369072,0.000034,
2506,2488,5.42409849481936,-3.41441428003956,-0.00424053265908242,0.002711,-0.001151,0.004895,0.104810,-0.023347,323.425154,23.467472,0.999495,0.985957,0.004533,0.382519,0.000009,-0.000042,0.000006,0.000009,-0.000043,6.749974,0.000045,
2371,2938,2.39327999351297,6.38862752243149,-0.0090865955740469,0.002653,-0.000771,0.000552,0.119772,-0.024075,315.834688,25.023524,0.999274,0.990145,0.003965,0.367506,-0.000025,-0.000012,0.000001,-0.000012,-0.000025,87.687156,0.000037,
2341,2833,1.76015973756185,4.10406348655843,-0.015833309830839,0.002887,-0.001122,0.004179,0.117700,-0.035208,317.486279,24.747719,0.999661,0.991304,0.003705,0.311435,-0.000026,0.000003,0.000002,0.000003,-0.000026,85.375476,0.000029,
2491,2473,5.10011014213044,-3.74179858953697,-0.00728142927289355,0.002824,-0.000464,-0.000252,0.130186,-0.012403,323.624089,23.469404,0.999373,0.985835,0.004564,0.365231,-0.000002,-0.000035,0.000030,0.000016,-0.000053,30.667493,0.000054,
2416,3193,3.32573536154755,11.9273328238117,0.029881299021838,0.003144,-0.000509,-0.001547,0.150180,-0.017977,312.053424,25.901040,0.999593,0.992034,0.003438,0.391830,-0.000004,0.000004,0.000009,0.000010,-0.000010,57.297806,0.000011,
2146,3193,-2.53450630767018,11.9033379909147,0.0326907685437732,0.002900,-0.001050,-0.001765,0.138801,-0.044235,312.448594,24.614266,0.999558,0.993221,0.003281,0.370790,-0.000017,-0.000003,-0.000009,0.000002,-0.000022,-63.582696,0.000024,
2101,2983,-3.4778991550222,7.34801448042442,0.000854833633638918,0.002842,-0.000811,-0.000109,0.131101,-0.022970,315.801531,24.412575,0.999648,0.993119,0.003316,0.377133,-0.000016,-0.000019,0.000011,-0.000007,-0.000029,41.897387,0.000038,
2206,2158,-1.05696778165622,-10.6379256132328,0.00958526044809105,0.002788,-0.000540,-0.003426,0.138462,-0.060592,328.843731,23.724259,0.999160,0.985054,0.004955,0.340817,-0.000018,-0.000021,0.000009,-0.000010,-0.000028,40.722045,0.000040,
2221,2188,-0.734280185759594,-9.97942466705192,0.00607586974382457,0.003420,0.000530,-0.007334,0.180438,-0.027680,328.335176,23.753992,0.998947,0.981710,0.005321,0.305671,-0.000014,-0.000006,0.000004,-0.000004,-0.000016,68.129731,0.000021,
2086,3013,-3.80781298834556,7.99716921848469,0.00479125125605151,0.002877,-0.000889,0.000064,0.132204,-0.035889,315.422216,24.321780,0.999737,0.994003,0.003014,0.411305,-0.000017,-0.000005,0.000011,0.000002,-0.000024,59.232360,0.000027,
2311,2623,1.14663465905449,-0.472198621051362,-0.0149150319305704,0.002696,-0.000810,-0.000544,0.125353,-0.046607,320.932290,24.180648,0.999503,0.989508,0.003937,0.377526,-0.000027,-0.000005,0.000006,-0.000003,-0.000029,76.672344,0.000035,
2431,3298,3.62733494591832,14.2078416204196,-0.0122484631055499,0.002913,-0.000545,-0.002500,0.143131,-0.034562,309.987375,26.274614,0.999792,0.994266,0.003023,0.412363,-0.000011,-0.000041,-0.000003,-0.000011,-0.000041,-5.105328,0.000055,
2131,3178,-2.85732916906045,11.5771355671379,0.0331817112383987,0.002843,-0.000801,0.000106,0.130604,-0.023882,312.752200,24.533105,0.999317,0.988615,0.003944,0.396761,-0.000017,0.000003,-0.000004,0.000003,-0.000018,-78.756352,0.000019,
2281,2533,0.510354477614008,-2.43768288260649,-0.00971054388912762,0.002881,-0.001015,0.000120,0.131508,-0.044912,322.472769,23.934552,0.999638,0.992931,0.003619,0.480101,-0.000027,-0.000016,0.000003,-0.000015,-0.000028,75.115594,0.000044,
2326,2683,1.46105903950525,0.83784593451044,-0.027561383418913,0.002945,-0.001009,0.003318,0.123470,-0.025146,319.840322,24.339031,0.999782,0.992037,0.003674,0.367631,-0.000027,0.000003,0.000002,0.000003,-0.000027,86.856347,0.000030,
2461,2188,4.50368517659959,-9.98030176959833,-0.00625764522874306,0.003080,0.000097,-0.003142,0.152775,-0.012848,328.195920,22.504170,0.999681,0.987947,0.004558,0.330554,-0.000006,0.000004,-0.000003,0.000004,-0.000007,-75.633573,0.000007,
2296,2563,0.83112917869888,-1.78050771039062,-0.0127387005210267,0.002831,-0.000962,0.002005,0.122900,-0.029591,321.934175,24.134408,0.999059,0.987731,0.004727,0.330925,-0.000026,-0.000012,0.000001,-0.000012,-0.000026,87.808743,0.000039,
2356,2908,2.07253739914636,5.73615404554813,-0.0156386940169568,0.002897,-0.000502,0.000554,0.131158,-0.001418,316.277184,24.911886,0.999426,0.991109,0.003788,0.391812,-0.000025,-0.000014,0.000001,-0.000014,-0.000026,85.368938,0.000040,
2236,2338,-0.434911242921338,-6.6960242734189,-0.00415306609096433,0.002973,-0.000472,0.000399,0.134950,-0.031264,325.752301,23.902625,0.999045,0.986544,0.004733,0.310950,-0.000028,-0.000024,0.000011,-0.000014,-0.000038,49.918763,0.000054,
2041,2878,-4.76419824561297,5.06647238294278,-0.021984911721006,0.002982,-0.000935,0.001258,0.133693,-0.032839,317.646286,24.333519,0.998927,0.987248,0.004564,0.342292,-0.000021,0.000008,-0.000012,0.000012,-0.000026,-70.033632,0.000026,
2251,2383,-0.11651939088183,-5.71409746762337,-0.00770180859768743,0.002748,-0.001455,0.002054,0.118886,-0.062236,324.951468,23.750259,0.999118,0.986656,0.004750,0.452900,-0.000040,-0.000010,0.000008,-0.000008,-0.000042,75.886715,0.000054,
2506,2503,5.42065084673701,-3.08603526797923,-0.0102598760193473,0.002634,-0.001228,0.001875,0.112918,-0.059877,323.139208,23.565882,0.999389,0.986440,0.004725,0.309781,0.000012,-0.000030,0.000009,0.000013,-0.000032,11.993881,0.000032,
2071,2908,-4.11808730740951,5.71903459157589,-0.0150571131958941,0.002595,-0.000837,0.002066,0.113455,-0.028832,317.025509,24.359260,0.999571,0.992644,0.003525,0.363065,-0.000025,-0.000015,-0.000007,-0.000012,-0.000028,-63.226813,0.000041,
2386,2983,2.71112143594198,7.36738418271868,-0.00699584245973028,0.002833,-0.000979,0.000913,0.126644,-0.036178,315.131687,25.176707,0.999538,0.990376,0.004025,0.363499,-0.000020,-0.000011,0.000006,-0.000008,-0.000023,64.339925,0.000032,
2401,3073,3.0211442082331,9.32245769312538,0.0131367983872792,0.002878,-0.001072,0.004311,0.116319,-0.028079,313.829801,25.493628,0.999634,0.991819,0.003658,0.362751,-0.000005,-0.000001,0.000012,0.000010,-0.000016,50.601293,0.000016,
2191,2083,-1.3716330528291,-12.2799821258648,0.00786023842539407,0.002754,-0.000376,-0.004642,0.140586,-0.055540,330.078231,23.832672,0.999373,0.983544,0.005152,0.231315,-0.000008,-0.000029,0.000019,0.000004,-0.000040,30.710403,0.000045,
2056,2953,-4.44899410440685,6.69419867723338,-0.00156041657191963,0.003126,-0.000456,-0.000946,0.146659,-0.017171,316.522873,24.300666,0.999198,0.992396,0.003683,0.386220,-0.000021,-0.000033,-0.000007,-0.000018,-0.000036,-24.455344,0.000054,
2446,1993,4.21663023842801,-14.2628034691316,0.0223805818251321,0.002524,-0.000150,-0.000992,0.119002,-0.017767,331.515060,21.960616,0.999372,0.976450,0.005743,0.226576,-0.000008,-0.000124,0.000018,-0.000006,-0.000126,8.627968,0.000149,
2011,2878,-5.41455101801686,5.06491387439674,-0.0215569145498762,0.003167,-0.000470,-0.001110,0.148934,-0.015913,317.853044,24.274725,0.999024,0.990661,0.004098,0.368111,-0.000012,0.000000,-0.000012,0.000007,-0.000019,-59.194808,0.000020,
2116,3118,-3.17330480768186,10.2762534537955,0.0219954615993743,0.002772,-0.000603,-0.001094,0.130932,-0.022327,313.705814,24.473704,0.999809,0.995932,0.002817,0.379788,-0.000015,-0.000003,0.000006,-0.000001,-0.000017,67.500539,0.000020,
2026,2893,-5.0916383767443,5.39083359700803,-0.0144421381495476,0.002682,-0.000866,0.000049,0.123240,-0.039223,317.547282,24.303879,0.999338,0.992714,0.003551,0.330461,-0.000032,-0.000020,-0.000014,-0.000012,-0.000041,-56.401369,0.000055,
2266,2503,0.188571258197268,-3.08978129752079,-0.0162998094045861,0.002907,-0.000313,0.000818,0.130692,-0.010390,322.922855,24.083797,0.999676,0.991992,0.003901,0.338581,-0.000032,-0.000012,0.000012,-0.000007,-0.000038,64.419483,0.000048,
2176,2053,-1.69313803487028,-12.9387496659493,0.0216886893250603,0.002927,-0.000424,0.000279,0.133137,-0.006794,330.713277,23.892191,0.999238,0.985077,0.004716,0.281268,-0.000009,-0.000027,0.000029,0.000012,-0.000048,36.279808,0.000050,
2491,2488,5.09756316225565,-3.41469574990603,-0.00136584936990403,0.002883,-0.000602,-0.000021,0.131935,-0.016544,323.431928,23.522405,0.999508,0.986080,0.004452,0.367838,0.000001,-0.000034,0.000018,0.000008,-0.000041,23.125393,0.000044,
2341,2848,1.75687689011187,4.43068815751582,-0.025318856952822,0.002980,-0.000761,0.002012,0.129708,-0.024651,317.174335,24.726903,0.999700,0.991713,0.003613,0.379454,-0.000025,-0.000001,-0.000001,-0.000001,-0.000025,-87.591683,0.000029,
2356,2923,2.06967996863837,6.06229700153698,-0.0144785452663427,0.002717,-0.000453,-0.000506,0.126578,-0.009833,316.037479,24.966568,0.999407,0.991164,0.003769,0.367152,-0.000027,-0.000013,0.000001,-0.000013,-0.000027,85.309316,0.000041,
2311,2638,1.14381423325431,-0.145157535820921,-0.0138280296148423,0.002706,-0.000928,0.001453,0.118984,-0.028572,320.691285,24.207073,0.999382,0.988493,0.004050,0.402201,-0.000031,-0.000004,0.000006,-0.000003,-0.000032,78.105529,0.000039,
2416,3208,3.32262100566448,12.2526122300299,0.0290635604474687,0.002892,-0.000487,-0.003446,0.145512,-0.030846,311.795860,25.941729,0.999537,0.991340,0.003679,0.384573,-0.000004,-0.000003,0.000007,0.000003,-0.000010,46.397843,0.000010,
2086,3028,-3.81006441291082,8.3225548337307,0.0090456581663716,0.002909,-0.000884,0.002272,0.127247,-0.038509,315.208371,24.343688,0.999582,0.992959,0.003324,0.384892,-0.000016,-0.000004,0.000010,0.000001,-0.000022,60.540775,0.000024,
2461,2203,4.49998671757027,-9.65184222259172,-0.0102366379226737,0.002775,-0.000414,-0.002791,0.137275,-0.039604,327.905159,22.511455,0.999262,0.982217,0.005222,0.353665,-0.000004,-0.000001,-0.000011,0.000009,-0.000014,-49.773262,0.000014,
2476,2248,4.82059740006666,-8.66924393391017,0.0149725214827754,0.002569,-0.000183,-0.003780,0.131798,-0.038308,327.419890,22.549963,0.999222,0.982796,0.005178,0.417109,-0.000008,-0.000015,-0.000004,-0.000006,-0.000017,-25.568611,0.000024,
2041,2893,-4.76617255815096,5.3913523126685,-0.0105700356154443,0.002678,-0.000845,0.002007,0.117592,-0.028202,317.482049,24.319808,0.999276,0.992056,0.003703,0.352574,-0.000022,-0.000010,-0.000016,0.000001,-0.000033,-55.923579,0.000038,
2206,2173,-1.0595524948589,-10.309385744335,0.00912121230129515,0.002655,-0.000575,-0.005199,0.137975,-0.069343,328.598085,23.742545,0.999321,0.986421,0.004685,0.333340,-0.000014,-0.000014,0.000007,-0.000007,-0.000021,45.529482,0.000029,
2371,2953,2.39045588967301,6.71476938715163,-0.0116199861673749,0.002735,-0.000936,-0.001571,0.130991,-0.049680,315.579797,25.077455,0.999389,0.989943,0.004003,0.328564,-0.000024,-0.000012,0.000003,-0.000011,-0.000025,76.602817,0.000037,
2131,3193,-2.85998077533739,11.9022408152599,0.0315928466799846,0.002772,-0.000843,-0.000302,0.128507,-0.039061,312.491609,24.546563,0.999546,0.992338,0.003442,0.372586,-0.000018,0.000001,-0.000009,0.000004,-0.000021,-67.673142,0.000023,
2281,2548,0.50705947070507,-2.1075983046872,-0.0219467057910379,0.003158,-0.000821,-0.000445,0.146222,-0.023196,322.140876,24.089415,0.999405,0.990220,0.004071,0.375815,-0.000025,-0.000012,0.000005,-0.000011,-0.000027,72.188470,0.000039,
2446,2008,4.21469548818342,-13.9360844249037,0.0332129711583207,0.002746,-0.000579,-0.000391,0.126726,-0.018199,331.372559,21.875046,0.999333,0.976715,0.005845,0.366942,-0.000009,-0.000109,0.000024,-0.000003,-0.000115,12.965160,0.000134,
2056,2968,-4.4513645129696,7.0188415066487,0.0038116797683756,0.003046,-0.001044,0.003389,0.130426,-0.063466,316.308133,24.290059,0.999229,0.991471,0.003727,0.344537,-0.000019,-0.000034,-0.000007,-0.000016,-0.000036,-22.260151,0.000054,
2236,2353,-0.437232002938028,-6.3688801322589,0.00301918311674854,0.003129,-0.001008,0.005691,0.124832,-0.016789,325.559924,23.908823,0.998871,0.985322,0.004933,0.342207,-0.000033,-0.000020,0.000010,-0.000014,-0.000039,61.896577,0.000055,
2296,2578,0.828289998961839,-1.45310461573094,-0.0169551357038813,0.002719,-0.000686,-0.002284,0.132333,-0.027161,321.665048,24.144418,0.999343,0.989617,0.004176,0.354325,-0.000025,-0.000004,0.000003,-0.000004,-0.000025,82.317566,0.000032,
2506,2518,5.41680702662395,-2.7583747782087,-0.0152646187501091,0.002232,-0.001243,0.000777,0.098713,-0.067814,322.839486,23.584727,0.999460,0.987243,0.004595,0.345482,0.000005,-0.000037,0.000010,0.000007,-0.000039,12.080737,0.000041,
2221,2203,-0.737557058720579,-9.65115610323934,0.00419649863363247,0.002956,0.000330,-0.005775,0.154095,-0.012160,328.051799,23.719774,0.999102,0.983758,0.005054,0.377314,-0.000017,-0.000008,0.000003,-0.000008,-0.000017,74.143774,0.000025,
2026,2908,-5.09318975697652,5.71579874718383,-0.00329696408715563,0.002763,-0.000778,0.000143,0.126790,-0.028168,317.400204,24.292169,0.999411,0.992602,0.003508,0.342579,-0.000030,-0.000032,-0.000016,-0.000015,-0.000047,-42.829933,0.000065,
2146,3208,-2.53684380901869,12.2285650408298,0.0361130498557145,0.002902,-0.000472,-0.001199,0.137415,-0.009749,312.230131,24.622728,0.999612,0.994074,0.003141,0.403312,-0.000017,-0.000007,-0.000012,0.000001,-0.000024,-56.505583,0.000028,
2491,2503,5.09359995568962,-3.08674887203946,-0.00444468639881279,0.002452,-0.000974,0.002195,0.103539,-0.043148,323.134124,23.597769,0.999540,0.986823,0.004444,0.325997,0.000007,-0.000024,0.000019,0.000016,-0.000033,25.912149,0.000033,
2326,2698,1.45849610586143,1.16330804672398,-0.0224881641334491,0.002786,-0.001057,0.003376,0.115977,-0.030459,319.631988,24.295626,0.999633,0.991002,0.003837,0.440337,-0.000025,-0.000010,0.000000,-0.000010,-0.000025,89.068068,0.000037,
2176,2068,-1.69568171032283,-12.6112313870175,0.0256488252341001,0.002668,-0.001008,0.001505,0.117286,-0.037844,330.490344,23.849479,0.999420,0.984664,0.004917,0.308397,-0.000006,-0.000032,0.000027,0.000011,-0.000049,32.118335,0.000052,
2071,2923,-4.11955287122511,6.04390806027732,-0.00784574949005901,0.002927,-0.000926,0.000044,0.134513,-0.031008,316.863030,24.328776,0.999463,0.991813,0.003669,0.387626,-0.000026,-0.000019,-0.000007,-0.000015,-0.000030,-59.518395,0.000045,
2101,2998,-3.48036240904404,7.6741541121357,-0.00358195693212338,0.002957,-0.000589,-0.002277,0.142805,-0.028470,315.531524,24.440881,0.999660,0.993520,0.003261,0.343945,-0.000017,-0.000008,0.000017,0.000005,-0.000030,52.600991,0.000033,
2011,2893,-5.41694689536393,5.3900835983212,-0.0167665414121529,0.002809,-0.000694,-0.000227,0.129931,-0.033843,317.630781,24.261317,0.999355,0.992721,0.003512,0.351125,-0.000011,-0.000030,-0.000015,-0.000002,-0.000038,-29.278559,0.000046,
2416,3223,3.31918015991468,12.5779437530668,0.0270653560444316,0.002554,-0.000742,-0.003524,0.130196,-0.040945,311.517613,25.981664,0.999457,0.990886,0.003795,0.380826,-0.000004,-0.000011,0.000007,0.000000,-0.000016,31.919335,0.000018,
2461,2218,4.49775212709954,-9.323964890182,-0.00218324243945744,0.002916,-0.000344,-0.002690,0.143392,-0.012249,327.736085,22.542270,0.999495,0.986033,0.004966,0.406922,-0.000015,-0.000011,-0.000011,-0.000002,-0.000024,-50.937152,0.000029,
2446,2023,4.21168862678232,-13.6053255414094,0.0287074824036608,0.002980,-0.000478,-0.002203,0.144213,-0.020670,331.110363,21.990573,0.999280,0.979288,0.005430,0.304804,-0.000001,-0.000068,0.000014,0.000001,-0.000071,11.395489,0.000081,
2056,2983,-4.4535663172292,7.34498681086141,0.00156265564885416,0.003248,-0.000791,0.001884,0.144145,-0.045354,316.058445,24.304649,0.999121,0.989579,0.003975,0.341993,-0.000024,-0.000037,-0.000006,-0.000022,-0.000039,-21.378829,0.000062,
2251,2398,-0.11889339932063,-5.38510698696473,-0.00709594178061934,0.002848,-0.001027,0.000218,0.129617,-0.048469,324.724070,23.877275,0.999284,0.989515,0.004336,0.364610,-0.000040,-0.000009,0.000007,-0.000008,-0.000042,78.679153,0.000053,
2116,3133,-3.17591090567394,10.6019225419395,0.0210028900208954,0.002993,-0.000938,0.003368,0.127731,-0.039354,313.449217,24.529155,0.999881,0.997220,0.002511,0.309454,-0.000011,-0.000003,0.000005,-0.000001,-0.000013,65.513497,0.000016,
2341,2863,1.75453127772377,4.75598456884352,-0.0177737844319381,0.002750,-0.000938,0.000339,0.124890,-0.036430,316.988542,24.737969,0.999631,0.991593,0.003705,0.392859,-0.000027,0.000002,-0.000004,0.000003,-0.000027,-82.173774,0.000030,
2491,2518,5.09009954548943,-2.75920150978913,-0.0126617998507186,0.002632,-0.001023,0.001105,0.115931,-0.046656,322.834377,23.572219,0.999526,0.987242,0.004307,0.408288,0.000002,-0.000033,0.000017,0.000009,-0.000040,22.094315,0.000042,
2191,2098,-1.37504362537181,-11.9524348233773,0.000970799566403002,0.002799,-0.001187,0.002494,0.120138,-0.047324,329.760427,23.646321,0.999400,0.986351,0.004973,0.443955,-0.000007,-0.000021,0.000020,0.000008,-0.000035,35.351357,0.000037,
2506,2533,5.41422696713989,-2.42982098056364,-0.0147505523035534,0.002780,-0.000932,0.001440,0.121459,-0.031761,322.622097,23.696267,0.999592,0.988305,0.004315,0.332171,0.000007,-0.000029,0.000010,0.000009,-0.000031,14.129564,0.000032,
2281,2563,0.504040474117499,-1.78053842311989,-0.025580282472049,0.002865,-0.000293,-0.003717,0.143918,-0.021145,321.865184,24.068883,0.999287,0.988841,0.004366,0.427181,-0.000026,-0.000013,0.000000,-0.000013,-0.000026,88.958597,0.000041,
2476,2263,4.81753332255049,-8.33958877945862,0.0142012284823636,0.002667,-0.000032,-0.003470,0.135177,-0.026137,327.173540,22.680965,0.999131,0.980677,0.005182,0.356925,-0.000015,-0.000033,-0.000009,-0.000011,-0.000037,-21.774988,0.000050,
2086,3043,-3.81204197525834,8.64691083017036,0.0208994352597074,0.002596,-0.001086,0.002269,0.112782,-0.045215,315.048932,24.328249,0.999657,0.992586,0.003396,0.391831,-0.000016,-0.000005,0.000006,-0.000003,-0.000019,66.331481,0.000024,
2356,2938,2.06684055548062,6.38826889271846,-0.0130078613883029,0.002773,-0.000702,0.001586,0.121695,-0.023570,315.800101,25.017078,0.999271,0.990239,0.003927,0.341114,-0.000025,-0.000012,0.000001,-0.000012,-0.000025,86.109877,0.000038,
2236,2368,-0.440493522236086,-6.03996591423925,-0.0058111743446716,0.002817,-0.000904,0.001553,0.123929,-0.032338,325.242921,23.955727,0.999319,0.987849,0.004581,0.302687,-0.000038,-0.000011,0.000007,-0.000009,-0.000039,75.798928,0.000052,
2311,2653,1.14103573150884,0.181994148836772,-0.0160178541565301,0.002811,-0.000912,0.000885,0.125769,-0.033572,320.436082,24.243640,0.999490,0.989740,0.003920,0.393197,-0.000031,0.000002,0.000007,0.000003,-0.000032,77.717540,0.000035,
2026,2923,-5.09538844123882,6.04112465782863,-0.00394324341283436,0.002946,-0.000974,0.000873,0.133175,-0.030651,317.157518,24.245856,0.999471,0.992796,0.003484,0.376249,-0.000028,-0.000039,-0.000015,-0.000018,-0.000049,-34.880362,0.000070,
2386,2998,2.70879893928215,7.69265099152739,0.00333177084013414,0.002796,-0.000993,0.003463,0.115794,-0.027819,314.962292,25.216352,0.999569,0.990986,0.003845,0.374922,-0.000017,-0.000015,0.000007,-0.000009,-0.000023,48.773979,0.000033,
2401,3088,3.0188254208143,9.64834805948132,0.0146873758432662,0.003088,-0.000812,0.000874,0.138571,-0.026560,313.619319,25.560522,0.999588,0.991113,0.003737,0.341993,-0.000007,0.000004,0.000010,0.000010,-0.000013,58.618660,0.000014,
2041,2908,-4.76806287457073,5.71693457952132,-0.00743659932845731,0.002837,-0.000580,0.000677,0.128765,-0.017219,317.275465,24.307366,0.999534,0.992278,0.003502,0.367900,-0.000020,-0.000022,-0.000017,-0.000004,-0.000038,-42.609306,0.000046,
2296,2593,0.826956718673376,-1.12730347341729,-0.00521356167286058,0.003215,-0.000364,-0.002659,0.156527,-0.019650,321.544325,24.145813,0.999635,0.992198,0.003567,0.391002,-0.000021,-0.000018,-0.000001,-0.000017,-0.000022,-71.649308,0.000039,
2056,2998,-4.45592960914508,7.67055003774754,0.00534972963356495,0.002974,-0.000696,0.001273,0.133392,-0.014629,315.834884,24.298524,0.999237,0.990132,0.003919,0.372420,-0.000027,-0.000018,0.000002,-0.000018,-0.000028,79.186122,0.000046,
2446,2038,4.20841638918014,-13.2763502157968,0.0342407634722122,0.002586,-0.000551,0.001742,0.111526,-0.011819,330.882002,22.051227,0.999205,0.978934,0.005577,0.308839,-0.000001,-0.000068,0.000012,0.000001,-0.000070,9.813268,0.000080,
2206,2188,-1.06233986628822,-9.98042181996956,0.0127772929382672,0.002548,-0.000913,0.000354,0.115408,-0.050125,328.364139,23.820446,0.999029,0.981862,0.005248,0.293891,-0.000013,-0.000003,0.000003,-0.000002,-0.000014,74.693461,0.000018,
2266,2518,0.186044459452415,-2.76475454542496,-0.00641225961646796,0.002414,-0.000967,0.001948,0.104048,-0.034108,322.736904,24.008743,0.999571,0.991647,0.003875,0.416195,-0.000030,-0.000011,0.000013,-0.000005,-0.000037,63.533217,0.000046,
2326,2713,1.45541994278265,1.49248115815018,-0.0295125056445045,0.002674,-0.000486,-0.001483,0.127793,-0.030470,319.340019,24.493517,0.999223,0.987042,0.004432,0.277155,-0.000025,-0.000015,0.000000,-0.000015,-0.000025,-88.945054,0.000041,
2131,3208,-2.86178814163494,12.227262626723,0.0377552968218424,0.002963,-0.000613,-0.001902,0.142326,-0.008540,312.311342,24.555634,0.999711,0.994537,0.003050,0.398349,-0.000018,-0.000004,-0.000011,0.000002,-0.000023,-61.276268,0.000026,
2461,2233,4.49468508250341,-8.99555022025313,0.00701881370969204,0.002421,-0.000862,0.000825,0.107351,-0.022344,327.534119,22.675807,0.999211,0.981919,0.005308,0.320032,-0.000013,-0.000017,-0.000011,-0.000004,-0.000026,-39.828460,0.000033,
2011,2908,-5.41873367487563,5.71540402315597,-0.00951280510088282,0.002807,-0.000680,-0.001213,0.132527,-0.027023,317.450206,24.258314,0.999313,0.992479,0.003538,0.348514,-0.000008,-0.000043,-0.000020,0.000001,-0.000052,-24.893245,0.000060,
2221,2218,-0.740448516560114,-9.32243030811613,0.00594901024055616,0.002589,-0.000231,-0.004827,0.134079,-0.034664,327.804695,23.808424,0.999062,0.983298,0.005019,0.287631,-0.000011,-0.000011,0.000001,-0.000010,-0.000012,45.097450,0.000022,
2101,3013,-3.48243448719208,7.99865950573575,-0.00158407879865763,0.003162,-0.000663,-0.002701,0.153456,-0.041336,315.314911,24.374032,0.999431,0.992305,0.003483,0.398651,-0.000013,-0.000004,0.000017,0.000009,-0.000027,51.979519,0.000027,
2491,2533,5.08718101181676,-2.4311819132498,-0.0129458602264094,0.002845,-0.000888,0.001367,0.124768,-0.039011,322.596833,23.655754,0.999721,0.989596,0.003870,0.392420,0.000001,-0.000029,0.000015,0.000008,-0.000035,22.787598,0.000037,
2476,2278,4.81367509984481,-8.00924531540457,0.00596564828850887,0.002783,-0.000372,-0.000931,0.130765,-0.024836,326.856874,22.815617,0.999528,0.981369,0.005047,0.282988,-0.000019,-0.000028,-0.000002,-0.000018,-0.000028,-10.086570,0.000047,
2371,2968,2.38748071609254,7.04159403063776,-0.0112067171914987,0.002645,-0.000876,-0.001048,0.125072,-0.035682,315.331765,25.179679,0.999604,0.990063,0.004043,0.280672,-0.000026,-0.000007,0.000005,-0.000006,-0.000027,77.136232,0.000035,
2506,2548,5.41246918778126,-2.10298178243818,-0.0020516022293009,0.002828,-0.000679,-0.001222,0.134045,-0.037559,322.497203,23.805214,0.999811,0.990515,0.003899,0.279177,0.000004,-0.000047,-0.000004,0.000005,-0.000048,-4.063414,0.000053,
2251,2413,-0.121256118065826,-5.05688193147681,-0.00718080667365939,0.002867,-0.000364,-0.003505,0.142914,-0.044775,324.493858,23.942669,0.999282,0.988705,0.004271,0.327705,-0.000041,-0.000013,0.000001,-0.000013,-0.000041,88.567089,0.000056,
2176,2083,-1.69826415055855,-12.2806886481621,0.0182840978918648,0.002913,-0.000555,-0.000783,0.135771,-0.031695,330.206003,23.925383,0.999549,0.985023,0.004977,0.254494,-0.000003,-0.000028,0.000023,0.000011,-0.000042,30.822487,0.000043,
2146,3223,-2.53908587035088,12.5529506579034,0.0412950408260713,0.002996,-0.000743,0.001057,0.134854,-0.012798,312.025761,24.604407,0.999577,0.994254,0.003097,0.425208,-0.000016,0.000001,-0.000015,0.000010,-0.000025,-59.869593,0.000025,
2116,3148,-3.17832853962584,10.9263113406649,0.0242439434164226,0.002864,-0.000584,0.003764,0.120834,-0.004856,313.224534,24.445127,0.999755,0.995381,0.002886,0.430403,-0.000013,0.000002,0.000004,0.000003,-0.000014,74.355499,0.000015,
2041,2923,-4.76985546123181,6.04180188069239,-0.0073203791390597,0.003238,-0.000696,-0.001332,0.152762,-0.038104,317.056931,24.243245,0.999540,0.992386,0.003494,0.403159,-0.000021,-0.000028,-0.000015,-0.000009,-0.000040,-37.939244,0.000052,
2416,3238,3.3156817448397,12.9040796734867,0.0187068658989347,0.002773,-0.000630,-0.002314,0.135925,-0.025743,311.206480,26.038659,0.999420,0.991655,0.003665,0.385364,-0.000006,-0.000013,0.000004,-0.000004,-0.000015,21.718479,0.000020,
2026,2938,-5.09802269574979,6.36641447990093,-0.000906810062531349,0.002731,-0.001604,0.005861,0.109358,-0.045131,316.915508,24.238488,0.999210,0.991407,0.003853,0.358752,-0.000032,-0.000038,-0.000010,-0.000025,-0.000045,-36.762931,0.000071,
2011,2923,-5.42081477722726,6.04046051378785,-0.00228903872715591,0.002731,-0.000867,0.001485,0.121694,-0.024237,317.256116,24.238118,0.999407,0.992968,0.003336,0.358872,-0.000009,-0.000050,-0.000022,0.000001,-0.000060,-23.598778,0.000069,
2356,2953,2.06427880588801,6.71377957202659,-0.0147580423550266,0.003022,-0.001045,-0.000648,0.140815,-0.056627,315.560054,25.025856,0.999379,0.990488,0.003841,0.337508,-0.000024,-0.000013,0.000003,-0.000012,-0.000024,76.806892,0.000037,
2236,2383,-0.44273387379387,-5.71336513273882,-0.00285359733879886,0.002771,-0.000738,-0.001279,0.131066,-0.030819,325.032922,23.893685,0.999437,0.988436,0.004454,0.389132,-0.000039,-0.000009,0.000009,-0.000007,-0.000042,74.185883,0.000053,
2086,3058,-3.81376403597405,8.9719418212662,0.0208064413408238,0.003164,-0.001090,0.000179,0.144995,-0.052388,314.835830,24.300110,0.999547,0.992889,0.003367,0.411016,-0.000015,-0.000005,0.000004,-0.000004,-0.000016,72.185129,0.000021,
2446,2053,4.20519742997528,-12.9478548372616,0.0357232037948734,0.002419,-0.000918,0.003802,0.096097,-0.024022,330.637586,22.048600,0.999099,0.979847,0.005518,0.354673,-0.000005,-0.000055,0.000013,-0.000002,-0.000058,13.305865,0.000068,
2386,3013,2.70697562064537,8.01817725201483,0.00786348874538589,0.003213,-0.000836,-0.000373,0.148827,-0.032065,314.788183,25.256157,0.999604,0.991482,0.003706,0.373386,-0.000014,-0.000015,0.000008,-0.000007,-0.000023,42.306196,0.000031,
2401,3103,3.01642694794996,9.97356468374428,0.018769643471046,0.003067,-0.000455,-0.001904,0.147874,-0.014026,313.417277,25.574013,0.999598,0.992694,0.003449,0.385657,-0.000002,0.000004,0.000013,0.000014,-0.000013,51.847274,0.000015,
2281,2578,0.502445875270663,-1.45430443612356,-0.0156848482565124,0.003015,-0.000125,-0.006916,0.161555,-0.020581,321.722432,24.097306,0.999172,0.987149,0.004615,0.427785,-0.000025,-0.000007,0.000002,-0.000007,-0.000025,83.317066,0.000034,
2056,3013,-4.45878589778082,7.99586899805284,0.00565624541536636,0.002564,-0.000706,0.002966,0.109723,-0.009941,315.569638,24.276168,0.998989,0.987764,0.004498,0.393268,-0.000023,-0.000009,0.000006,-0.000007,-0.000026,68.998257,0.000034,
2341,2878,1.75092305903884,5.08179501124954,-0.025994381545388,0.002488,-0.001163,-0.000952,0.117308,-0.049354,316.667930,24.685163,0.999619,0.991357,0.003757,0.469366,-0.000030,-0.000004,-0.000003,-0.000004,-0.000030,-83.167954,0.000037,
2506,2563,5.40949090352922,-1.77716986006919,0.000118793976980669,0.003086,-0.000897,0.002585,0.131103,-0.023421,322.269261,23.710340,0.999817,0.991136,0.003845,0.450403,0.000001,-0.000043,-0.000004,0.000001,-0.000043,-5.245553,0.000049,
2206,2203,-1.0656283489099,-9.65058017353173,0.0106305989359612,0.002203,-0.000697,0.003871,0.088552,0.007302,328.077074,23.884498,0.999032,0.981405,0.005345,0.306898,-0.000015,-0.000002,0.000003,-0.000001,-0.000015,77.234946,0.000018,
2191,2113,-1.37597489636211,-11.6238419180139,0.0180392154068159,0.003030,-0.000676,-0.000157,0.139175,-0.044782,329.679813,23.827443,0.999006,0.982689,0.005279,0.282232,-0.000005,-0.000024,0.000018,0.000006,-0.000034,30.882019,0.000037,
2476,2293,4.81036937129165,-7.68345605702387,0.00971827458647567,0.002515,-0.001413,0.002694,0.104320,-0.055499,326.620332,22.692504,0.999562,0.982259,0.004998,0.434214,-0.000024,-0.000026,0.000007,-0.000018,-0.000033,39.921495,0.000051,
2101,3028,-3.48473924131503,8.32391366501152,0.00427119387410357,0.003147,-0.000734,0.000853,0.142310,-0.037204,315.108257,24.388533,0.999300,0.991789,0.003638,0.388484,-0.000012,-0.000005,0.000015,0.000006,-0.000024,51.750815,0.000025,
2221,2233,-0.742768990930525,-8.9949539567058,0.0077247131985132,0.002823,-0.000341,-0.003255,0.139773,-0.043992,327.583950,23.774977,0.999033,0.983455,0.005107,0.332913,-0.000013,-0.000012,0.000000,-0.000012,-0.000013,81.217013,0.000025,
2071,2938,-4.1215408258913,6.36963668913332,-0.00573362413035738,0.002997,-0.000637,-0.002942,0.146389,-0.022924,316.648350,24.333962,0.999464,0.991025,0.003710,0.386751,-0.000027,-0.000017,-0.000005,-0.000015,-0.000030,-66.509868,0.000046,
2251,2428,-0.123785056874027,-4.73049709804693,-0.00635782266090246,0.003139,-0.000407,-0.000342,0.145080,-0.025834,324.260890,23.838008,0.998951,0.986869,0.004477,0.476191,-0.000037,-0.000022,0.000000,-0.000022,-0.000037,-89.903505,0.000060,
2146,3238,-2.54230847807459,12.8791989200123,0.0292948099959176,0.002976,-0.000787,-0.000851,0.139668,-0.023620,311.684122,24.671517,0.999635,0.994345,0.003047,0.353631,-0.000016,-0.000006,-0.000016,0.000006,-0.000028,-53.631696,0.000029,
2461,2248,4.49278731016874,-8.66745761839017,0.00973736832190752,0.003003,-0.000301,-0.003110,0.149010,-0.016057,327.356139,22.700615,0.999094,0.979434,0.005355,0.357892,-0.000012,-0.000015,-0.000007,-0.000006,-0.000021,-37.962682,0.000028,
2011,2938,-5.42295027221631,6.36610249988298,-0.005999696675417,0.003080,-0.001009,0.001271,0.138296,-0.039350,316.997913,24.215613,0.999480,0.993415,0.003417,0.353823,-0.000014,-0.000046,-0.000014,-0.000008,-0.000051,-20.642173,0.000065,
2491,2548,5.0837820122361,-2.10296377533327,-0.0174781375224029,0.002638,-0.000524,-0.001896,0.127931,-0.037749,322.317999,23.731092,0.999699,0.988903,0.004097,0.378127,-0.000002,-0.000043,0.000007,-0.000001,-0.000044,9.315899,0.000051,
2026,2953,-5.09933770581657,6.69223020970906,0.00121909946960841,0.003140,-0.000712,-0.001674,0.149193,-0.030872,316.728662,24.248047,0.999458,0.992628,0.003476,0.353282,-0.000021,-0.000050,-0.000007,-0.000020,-0.000052,-12.144919,0.000073,
2371,2983,2.38513358108198,7.36641134542583,-0.00477363727623015,0.002609,-0.000650,-0.001779,0.126114,-0.026223,315.142008,25.146856,0.999548,0.990345,0.003952,0.363274,-0.000023,-0.000009,0.000002,-0.000009,-0.000023,81.277374,0.000034,
2416,3253,3.31219105726838,13.2298222258772,0.0161764341673916,0.002883,-0.000863,0.003262,0.120481,-0.013904,310.923133,26.100211,0.999214,0.990545,0.003876,0.381916,-0.000009,-0.000001,0.000002,-0.000001,-0.000010,75.185632,0.000011,
2266,2533,0.183151257987209,-2.43764934008647,-0.0141380642535296,0.002666,-0.001251,0.000725,0.119580,-0.054841,322.445290,23.967069,0.999680,0.995365,0.003263,0.464007,-0.000028,-0.000014,0.000009,-0.000010,-0.000032,64.128143,0.000044,
2056,3028,-4.46081090529118,8.32131221169682,0.00316368918208809,0.002942,-0.000481,0.001122,0.132354,-0.025285,315.327048,24.270523,0.999453,0.992036,0.003660,0.377700,-0.000021,-0.000005,0.000007,-0.000003,-0.000024,70.251442,0.000029,
2326,2728,1.45262077372395,1.81836698467978,-0.0279328592413322,0.002648,-0.000704,-0.000086,0.121721,-0.032967,319.103560,24.466676,0.999400,0.989475,0.004073,0.336200,-0.000026,-0.000011,0.000004,-0.000010,-0.000027,76.621804,0.000038,
2506,2578,5.4050036815719,-1.44680861070358,-0.0164410855083474,0.002949,-0.000679,0.000471,0.133097,-0.018269,321.887523,23.882915,0.999606,0.987808,0.004474,0.345251,-0.000001,-0.000022,-0.000004,0.000000,-0.000022,-9.981254,0.000026,
2176,2098,-1.70143902562853,-11.9519392464677,0.00496346601744335,0.003111,-0.000564,-0.000784,0.144836,-0.029249,329.863813,23.782929,0.999386,0.984031,0.005125,0.415363,-0.000001,-0.000019,0.000025,0.000017,-0.000037,35.574450,0.000037,
2086,3073,-3.81664365063575,9.29854236276948,0.0159898474072406,0.002838,-0.000592,-0.002518,0.137947,-0.036031,314.543256,24.366797,0.999475,0.992156,0.003445,0.358699,-0.000014,0.000002,0.000001,0.000002,-0.000014,86.777112,0.000015,
2131,3223,-2.86421589017539,12.5518750415602,0.0397359339521017,0.003065,-0.000685,0.000425,0.140000,-0.009694,312.080348,24.537600,0.999632,0.994553,0.003052,0.419487,-0.000017,0.000002,-0.000014,0.000009,-0.000025,-61.807909,0.000025,
2116,3163,-3.18065450123603,11.251287213771,0.0310094290074971,0.002527,-0.000603,0.002972,0.107596,-0.013347,313.022881,24.482530,0.999612,0.993612,0.003304,0.386799,-0.000014,0.000011,0.000000,0.000011,-0.000014,-89.510814,0.000015,
2041,2938,-4.7727607024244,6.36754676589466,-0.00976156708537701,0.003018,-0.000905,0.002128,0.132941,-0.035623,316.772874,24.222806,0.999329,0.991417,0.003743,0.417717,-0.000025,-0.000028,-0.000011,-0.000016,-0.000037,-40.274435,0.000055,
2236,2398,-0.446168290673551,-5.383787270026,-0.0138636376493082,0.002594,-0.000173,-0.003288,0.129634,-0.022873,324.696612,23.968735,0.999524,0.990211,0.004063,0.345210,-0.000039,-0.000010,0.000006,-0.000009,-0.000040,79.506400,0.000052,
2476,2308,4.80791882677152,-7.35248781243458,0.00950821381906053,0.002711,-0.000365,-0.002705,0.134212,-0.022963,326.404181,22.944894,0.999166,0.977460,0.005817,0.273100,-0.000016,-0.000026,0.000003,-0.000016,-0.000026,16.521377,0.000042,
2296,2608,0.822870181239345,-0.798515164262824,-0.0161798329365297,0.002799,-0.000319,-0.001050,0.132039,0.001247,321.184091,24.216135,0.999456,0.990140,0.003934,0.372510,-0.000025,-0.000017,0.000002,-0.000017,-0.000026,75.517241,0.000043,
2281,2593,0.499020310319246,-1.12653551161695,-0.0175771348828562,0.002764,-0.000421,-0.002455,0.135026,-0.032751,321.436579,24.180683,0.999293,0.988612,0.004288,0.360717,-0.000020,-0.000020,-0.000001,-0.000019,-0.000021,-41.703430,0.000040,
2401,3118,3.01400362420854,10.2990723741509,0.0281058223411037,0.002927,-0.000478,-0.000659,0.136888,-0.017160,313.238791,25.666055,0.999868,0.995746,0.002796,0.334786,-0.000001,0.000007,0.000013,0.000017,-0.000011,53.297805,0.000017,
2146,3253,-2.54525647124425,13.2043057242781,0.0220121984241928,0.003026,-0.000696,-0.001110,0.142765,-0.029216,311.380635,24.659954,0.999665,0.993910,0.003104,0.365965,-0.000014,-0.000008,-0.000016,0.000005,-0.000027,-50.256988,0.000029,
2026,2968,-5.10155457114468,7.01730360571305,0.00245464974130982,0.003117,-0.000650,-0.002285,0.149836,-0.034359,316.495826,24.204896,0.999430,0.992690,0.003430,0.382447,-0.000021,-0.000054,-0.000009,-0.000019,-0.000056,-14.317572,0.000078,
2311,2668,1.13807294267311,0.510518230730426,-0.0230471928530278,0.002817,-0.000336,-0.003451,0.141112,-0.019204,320.148184,24.351550,0.999826,0.992608,0.003482,0.332492,-0.000028,0.000004,0.000004,0.000005,-0.000029,82.908381,0.000031,
2101,3043,-3.4871788334155,8.64955034733611,0.0121780658982971,0.002688,-0.000905,0.001575,0.119092,-0.024673,314.906406,24.446578,0.999575,0.993030,0.003384,0.343103,-0.000013,-0.000006,0.000011,0.000002,-0.000021,53.649262,0.000024,
2491,2563,5.08005332839519,-1.77487354503386,-0.0212783593835866,0.002414,-0.000399,-0.000689,0.113138,-0.027461,322.027197,23.797623,0.999557,0.989414,0.004268,0.381787,-0.000004,-0.000038,0.000008,-0.000002,-0.000040,12.596831,0.000048,
2506,2593,5.40110573140296,-1.11725249756462,-0.029980689148033,0.002899,-0.000219,-0.004475,0.150097,-0.021580,321.546388,24.023280,0.999814,0.994169,0.003561,0.263825,-0.000008,-0.000018,0.000002,-0.000008,-0.000019,12.208854,0.000027,
2386,3028,2.70359937233873,8.34444521126215,0.00420417456416544,0.003103,-0.000881,0.000619,0.140136,-0.040301,314.503346,25.317590,0.999611,0.991112,0.003769,0.346086,-0.000014,-0.000014,0.000005,-0.000009,-0.000019,46.092462,0.000028,
2416,3268,3.30831811023424,13.5555857213946,0.00436938770195638,0.002774,-0.000696,0.001619,0.121590,-0.005346,310.578477,26.119952,0.999550,0.992254,0.003544,0.417014,-0.000009,-0.000003,0.000003,-0.000002,-0.000011,67.387813,0.000014,
2071,2953,-4.12423716247419,6.69573800690905,-0.00731875467187137,0.002949,-0.000487,-0.000182,0.136453,0.005985,316.380764,24.330853,0.999290,0.991603,0.003746,0.415069,-0.000021,-0.000026,-0.000004,-0.000019,-0.000028,-29.016630,0.000047,
2191,2128,-1.37866737729184,-11.2948590958058,0.0175638531130176,0.002913,-0.000245,0.000363,0.132351,-0.009858,329.427661,23.825528,0.998653,0.981317,0.005458,0.336469,-0.000005,-0.000024,0.000021,0.000008,-0.000038,32.884534,0.000040,
2356,2968,2.06179039061142,7.04040685106276,-0.0130498595739255,0.003086,-0.000755,-0.002810,0.151534,-0.044625,315.339634,25.120800,0.999597,0.991911,0.003593,0.292826,-0.000026,-0.000009,0.000004,-0.000008,-0.000027,77.066827,0.000036,
2221,2248,-0.745562417472829,-8.66639285050596,0.00170004371250343,0.003174,-0.000154,-0.001124,0.149144,0.001026,327.301245,23.711389,0.999020,0.983294,0.005101,0.463144,-0.000013,-0.000025,0.000004,-0.000012,-0.000026,15.490334,0.000039,
2206,2218,-1.06815391259091,-9.32251228459661,0.0077519896370859,0.002254,-0.000879,0.001467,0.098437,-0.030114,327.821855,23.879051,0.999024,0.982438,0.005284,0.294136,-0.000010,-0.000004,0.000002,-0.000003,-0.000011,74.589052,0.000015,
2446,2068,4.20263609664585,-12.617621171918,0.0288687906946734,0.003233,-0.000807,0.001359,0.142471,-0.038454,330.384892,22.119337,0.998879,0.978252,0.005857,0.324900,-0.000010,-0.000037,0.000014,-0.000004,-0.000042,23.032305,0.000052,
2011,2953,-5.42493300872083,6.69157415280885,4.6958197344793E-05,0.002979,-0.000800,0.000600,0.135531,-0.027335,316.801616,24.223264,0.999663,0.994726,0.003008,0.345541,0.000003,-0.000057,-0.000009,0.000005,-0.000058,-8.694806,0.000065,
2371,2998,2.38302257537599,7.69184911873616,0.00582163895404619,0.002626,-0.000660,-0.000770,0.123316,-0.016923,314.982843,25.202739,0.999558,0.991690,0.003713,0.356941,-0.000020,-0.000013,0.000002,-0.000013,-0.000020,74.700673,0.000033,
2341,2893,1.74954717042231,5.40876590010303,-0.0172050018584855,0.003073,-0.000553,-0.003500,0.153299,-0.029746,316.532164,24.835405,0.999468,0.991179,0.003776,0.374707,-0.000029,-0.000011,0.000000,-0.000011,-0.000029,-89.354892,0.000041,
2131,3238,-2.8674012427864,12.8774888063083,0.0291005036401089,0.002958,-0.000787,-0.001522,0.140807,-0.031087,311.746544,24.564262,0.999585,0.994570,0.002967,0.375705,-0.000016,-0.000006,-0.000015,0.000005,-0.000027,-54.753923,0.000029,
2266,2548,0.180717924616363,-2.10849527444715,-0.0156739271201332,0.003017,-0.000990,0.000525,0.136473,-0.036437,322.205204,24.134843,0.999577,0.992382,0.003705,0.341298,-0.000023,-0.000012,0.000009,-0.000006,-0.000028,60.909057,0.000037,
2461,2263,4.48927648810765,-8.33806044725247,0.00782486918473069,0.002962,-0.000634,0.000143,0.134774,-0.008824,327.082839,22.801655,0.999188,0.980149,0.005347,0.320982,-0.000016,-0.000032,-0.000015,-0.000007,-0.000040,-30.881454,0.000051,
2056,3043,-4.46318388853396,8.6464717799906,0.00561962524466253,0.002901,-0.000973,0.003017,0.125025,-0.029749,315.095936,24.264888,0.999662,0.994568,0.003198,0.372585,-0.000024,-0.000007,0.000001,-0.000007,-0.000024,87.911194,0.000032,
2236,2413,-0.450160149935424,-5.05335962708958,-0.0296749712157975,0.002748,-0.000942,0.002270,0.118474,-0.020179,324.310148,24.087850,0.999680,0.991134,0.003753,0.251883,-0.000039,-0.000018,-0.000003,-0.000017,-0.000039,-83.323144,0.000058,
2041,2953,-4.77461429177844,6.69349644881014,-0.00546143623688522,0.002939,-0.000430,-0.002701,0.142992,-0.006856,316.574369,24.246468,0.999460,0.993268,0.003345,0.414737,-0.000014,-0.000041,-0.000008,-0.000011,-0.000044,-15.782119,0.000058,
2251,2443,-0.127125822159719,-4.40109944375148,-0.00532246572788608,0.002681,-0.001188,0.003776,0.110275,-0.048899,323.991318,24.057973,0.999467,0.989805,0.004170,0.257745,-0.000039,-0.000009,0.000003,-0.000009,-0.000040,84.389382,0.000052,
2296,2623,0.819676143792634,-0.471936558019962,-0.0202658892420118,0.002660,-0.000563,-0.000764,0.124560,-0.028523,320.899467,24.199091,0.999442,0.989136,0.003989,0.390485,-0.000028,-0.000005,0.000004,-0.000005,-0.000029,80.708867,0.000036,
2176,2113,-1.70365263691622,-11.6228821237018,0.00844499193817683,0.002944,-0.000243,-0.003730,0.146396,-0.022186,329.652999,23.853762,0.999023,0.980436,0.005562,0.366729,0.000001,-0.000023,0.000023,0.000015,-0.000037,31.744563,0.000037,
2116,3178,-3.18225385031792,11.5758058370267,0.0361532130598334,0.002914,-0.000559,0.000508,0.132803,-0.011723,312.846033,24.460921,0.999590,0.992779,0.003360,0.412245,-0.000013,0.000007,-0.000003,0.000007,-0.000014,-82.468420,0.000014,
2146,3268,-2.54794752660251,13.529354430215,0.0209317512222924,0.002959,-0.000675,-0.000860,0.138929,-0.025465,311.121998,24.672621,0.999675,0.994582,0.003024,0.363600,-0.000014,-0.000001,-0.000017,0.000011,-0.000026,-55.506900,0.000026,
2401,3133,3.01019501515671,10.6249697056828,0.0206055990721552,0.002837,-0.000696,0.001841,0.123660,-0.009299,312.916714,25.682355,0.999802,0.995030,0.002968,0.370798,-0.000002,0.000007,0.000009,0.000013,-0.000007,58.894297,0.000013,
2326,2743,1.45011892723059,2.14469435937848,-0.0237130053903911,0.002650,-0.000519,0.000344,0.120432,-0.001419,318.893435,24.471685,0.999560,0.991100,0.003823,0.397462,-0.000025,-0.000012,0.000005,-0.000011,-0.000027,71.366513,0.000039,
2476,2323,4.80406516310088,-7.0245591706775,0.0036736250652325,0.002597,-0.000696,-0.000343,0.119918,-0.028047,326.098606,22.906351,0.999127,0.979728,0.005478,0.365372,-0.000013,-0.000013,0.000006,-0.000007,-0.000020,44.627387,0.000027,
2416,3283,3.30504264001911,13.881351785385,-0.00425700747865676,0.003025,-0.000991,0.000169,0.138272,-0.036840,310.276204,26.202546,0.999726,0.992296,0.003490,0.349023,-0.000007,-0.000024,0.000000,-0.000007,-0.000024,0.059153,0.000032,
2086,3088,-3.81883843372877,9.62343592566727,0.0182712914964327,0.003028,-0.000776,-0.000779,0.141665,-0.036740,314.321479,24.343085,0.999447,0.991357,0.003647,0.379783,-0.000014,-0.000003,0.000003,-0.000002,-0.000015,75.054510,0.000019,
2026,2983,-5.10417351206209,7.34313081864095,-0.000197528372382294,0.003000,-0.000458,-0.001706,0.142954,-0.022291,316.222559,24.192964,0.999232,0.992284,0.003670,0.395985,-0.000022,-0.000063,-0.000006,-0.000021,-0.000064,-7.475857,0.000089,
2131,3253,-2.87007436854727,13.2023007895556,0.0272421603384601,0.002927,-0.000937,-0.001373,0.138889,-0.037157,311.483610,24.555936,0.999677,0.995126,0.002845,0.382153,-0.000014,-0.000010,-0.000016,0.000005,-0.000029,-48.684736,0.000031,
2506,2608,5.39796857297523,-0.791308315782771,-0.0262590041515409,0.002569,-0.000140,-0.004182,0.133902,-0.011210,321.317776,23.973408,0.999819,0.993754,0.003670,0.385741,-0.000011,-0.000002,-0.000005,0.000000,-0.000013,-64.798886,0.000015,
2491,2578,5.07786978083635,-1.44775108869951,-0.0144811161526945,0.002787,-0.000449,-0.000153,0.128205,-0.006841,321.855142,23.862712,0.998868,0.982790,0.005155,0.396980,-0.000004,-0.000022,0.000008,-0.000001,-0.000025,20.012783,0.000029,
2011,2968,-5.42707412480491,7.01689377933847,0.000803367909611552,0.003017,-0.000725,-0.000364,0.139947,-0.025111,316.568415,24.193462,0.999640,0.994951,0.002944,0.365014,0.000004,-0.000061,-0.000014,0.000007,-0.000063,-11.325744,0.000069,
2041,2968,-4.77680634321942,7.01809183732374,-0.00139336951565383,0.002871,-0.000525,-0.002004,0.137778,-0.032584,316.359645,24.201916,0.999488,0.993217,0.003305,0.425483,-0.000013,-0.000044,-0.000009,-0.000011,-0.000046,-14.524598,0.000061,
2221,2263,-0.748714592548822,-8.33664342228943,-0.00223084539311458,0.002807,-0.000297,-0.002265,0.135876,-0.017157,327.012876,23.846826,0.999063,0.983044,0.005138,0.330946,-0.000016,-0.000028,0.000002,-0.000015,-0.000028,7.359364,0.000044,
2101,3058,-3.48887516133571,8.97362717782852,0.0168692017613239,0.003030,-0.000786,0.000030,0.139403,-0.032097,314.721826,24.362918,0.999682,0.994129,0.003216,0.419792,-0.000011,-0.000006,0.000009,0.000000,-0.000017,52.577418,0.000020,
2281,2608,0.495233915727589,-0.798403530906747,-0.0224719002463303,0.002497,-0.001026,0.003649,0.102150,-0.027227,321.119011,24.258947,0.999141,0.988004,0.004454,0.316778,-0.000023,-0.000021,0.000004,-0.000017,-0.000026,51.091701,0.000044,
2191,2143,-1.38126275099612,-10.9653615686475,0.0128877406269226,0.002945,0.000112,-0.002664,0.143380,-0.011219,329.158290,23.867027,0.998933,0.982609,0.005246,0.311328,-0.000012,-0.000023,0.000020,0.000003,-0.000038,36.826042,0.000043,
2311,2683,1.13569033213435,0.836177406598935,-0.0198744482337929,0.003057,-0.000474,-0.002085,0.147440,-0.009757,319.937755,24.291065,0.999787,0.991690,0.003643,0.435107,-0.000028,0.000006,0.000001,0.000006,-0.000028,88.315893,0.000030,
2386,3043,2.7007739698791,8.67031162849953,-0.000601675930340662,0.003353,-0.000780,-0.001940,0.160900,-0.038341,314.238445,25.328817,0.999687,0.992359,0.003577,0.379518,-0.000013,-0.000006,0.000007,-0.000001,-0.000018,56.918238,0.000021,
2356,2983,2.05904057455121,7.36586611112811,-0.00820624518911472,0.002827,-0.000544,-0.002586,0.138967,-0.021840,315.122602,25.122895,0.999493,0.989249,0.004028,0.351747,-0.000025,-0.000012,0.000001,-0.000012,-0.000025,83.934339,0.000038,
2446,2083,4.1984001237925,-12.2872713787704,0.0274547965591978,0.002622,-0.001414,0.007321,0.092140,-0.028439,330.080191,22.243052,0.998702,0.976720,0.006203,0.267198,-0.000014,-0.000021,0.000017,0.000000,-0.000035,39.059125,0.000040,
2371,3013,2.38038773123135,8.01760046435103,0.00564830929533855,0.002843,-0.000578,-0.001214,0.134924,-0.018618,314.747831,25.228922,0.999573,0.991289,0.003756,0.369486,-0.000018,-0.000015,0.000003,-0.000013,-0.000020,58.037293,0.000033,
2071,2968,-4.126717224729,7.02110170590425,-0.00832137476010075,0.003011,-0.000855,0.001408,0.134591,-0.017251,316.126630,24.320249,0.999106,0.990692,0.003946,0.398593,-0.000018,-0.000026,-0.000004,-0.000016,-0.000028,-23.439500,0.000045,
2266,2563,0.178038384905985,-1.78286807197464,-0.0135316176717311,0.002855,-0.001048,0.000576,0.128850,-0.032556,321.973083,24.031290,0.999510,0.990263,0.004050,0.475127,-0.000023,-0.000014,0.000005,-0.000012,-0.000025,67.788836,0.000038,
2146,3283,-2.55142459266428,13.8547403788019,0.0126163973676512,0.002654,-0.000725,0.000423,0.120968,-0.026856,310.788543,24.686075,0.999664,0.994415,0.003066,0.354860,-0.000017,-0.000001,-0.000013,0.000007,-0.000025,-60.612409,0.000025,
2131,3268,-2.87297940214855,13.5276693135243,0.0192600508844407,0.003112,-0.001002,-0.000528,0.144818,-0.050321,311.176960,24.576221,0.999703,0.995519,0.002775,0.352796,-0.000013,-0.000002,-0.000018,0.000011,-0.000026,-53.993531,0.000026,
2116,3193,-3.1848841246355,11.9007209130465,0.035860452066288,0.002822,-0.000907,0.001101,0.126638,-0.034708,312.592399,24.471701,0.999599,0.992979,0.003494,0.380466,-0.000015,0.000006,-0.000008,0.000009,-0.000018,-71.491757,0.000018,
2176,2128,-1.70688852427866,-11.2940467722653,0.0130396721935426,0.002347,-0.000958,0.003119,0.097651,-0.030080,329.401364,23.936435,0.998890,0.980748,0.005511,0.291555,0.000000,-0.000025,0.000026,0.000016,-0.000041,32.160523,0.000042,
2251,2458,-0.129686106394242,-4.07411976256954,-0.005036200197992,0.002769,-0.001277,0.004170,0.113069,-0.030799,323.754028,24.013220,0.999710,0.990998,0.004088,0.345517,-0.000040,-0.000007,0.000007,-0.000005,-0.000042,77.899066,0.000051,
2506,2623,5.39537074195962,-0.466694438334954,-0.0164694131489114,0.002435,-0.000657,-0.001821,0.118411,-0.033260,321.141321,23.889637,0.999847,0.994402,0.003376,0.508916,-0.000017,-0.000018,-0.000015,-0.000002,-0.000032,-43.877668,0.000039,
2296,2638,0.817548938366045,-0.145764019048862,-0.0155952049862549,0.003007,-0.000843,0.000409,0.136428,-0.036963,320.707164,24.202605,0.999378,0.987969,0.004131,0.408996,-0.000029,-0.000003,0.000005,-0.000002,-0.000030,79.234667,0.000037,
2401,3148,3.0083683606872,10.9491669657705,0.0313940463772155,0.003075,-0.000844,0.001821,0.134551,-0.028007,312.772890,25.684242,0.999818,0.995282,0.002853,0.394428,-0.000002,0.000001,0.000008,0.000007,-0.000008,51.471528,0.000009,
2041,2983,-4.77903084289788,7.34378939239265,0.00467537763194059,0.002875,-0.000849,0.002320,0.125827,-0.033148,316.154147,24.250873,0.999291,0.992266,0.003604,0.367555,-0.000017,-0.000050,-0.000006,-0.000016,-0.000051,-9.824123,0.000070,
2416,3298,3.30075282933572,14.2067973706451,-0.0199724651496354,0.002899,-0.000827,-0.000367,0.134477,-0.041310,309.893859,26.195505,0.999746,0.992705,0.003383,0.397823,-0.000004,-0.000033,-0.000003,-0.000004,-0.000034,-5.420527,0.000041,
2461,2278,4.48661625401804,-8.00972412050793,0.0118697562961643,0.002877,-0.000262,-0.001353,0.136678,-0.017394,326.875820,22.887161,0.999486,0.980995,0.005262,0.283357,-0.000017,-0.000026,-0.000007,-0.000013,-0.000030,-28.142112,0.000044,
2476,2338,4.80068270045706,-6.69538298085169,0.00210375258012618,0.002340,-0.000593,-0.001223,0.111546,-0.033487,325.833718,23.030234,0.998923,0.981693,0.005386,0.294712,-0.000016,-0.000013,0.000003,-0.000011,-0.000018,55.787051,0.000029,
2056,3058,-4.46543455293546,8.971614185815,0.00865775064960417,0.002878,-0.001263,0.003770,0.121755,-0.040524,314.873685,24.271400,0.999529,0.993463,0.003386,0.348737,-0.000028,-0.000005,-0.000002,-0.000005,-0.000029,-85.960942,0.000036,
2026,2998,-5.10624511410425,7.66850653638621,0.00822759689498298,0.002901,-0.000528,0.001067,0.130654,-0.032413,316.036526,24.241044,0.999332,0.992698,0.003528,0.327225,-0.000024,-0.000038,0.000003,-0.000024,-0.000039,11.585283,0.000063,
2236,2428,-0.451622296071125,-4.72844387532619,-0.0177851019830086,0.002925,-0.000796,0.000596,0.132074,-0.022109,324.181478,23.975100,0.999479,0.990127,0.004027,0.384902,-0.000035,-0.000028,-0.000003,-0.000027,-0.000036,-71.954701,0.000064,
2206,2233,-1.07017895147871,-8.99565079112235,0.0118864323445678,0.002636,-0.001353,0.003688,0.108767,-0.055095,327.625739,23.829013,0.999160,0.983281,0.005298,0.338283,-0.000014,-0.000005,-0.000001,-0.000005,-0.000015,-84.334123,0.000020,
2131,3283,-2.87617574121201,13.8528622574416,0.0139727848652456,0.002841,-0.000773,0.000469,0.129461,-0.027979,310.871421,24.564477,0.999717,0.995590,0.002830,0.390983,-0.000016,-0.000003,-0.000014,0.000006,-0.000025,-58.060759,0.000026,
2341,2908,1.74678980156267,5.73506974940302,-0.0141582873309289,0.003118,-0.000609,-0.000722,0.145696,-0.018476,316.305135,24.894534,0.999307,0.990435,0.003946,0.362958,-0.000025,-0.000011,0.000003,-0.000010,-0.000026,77.051272,0.000037,
2506,2638,5.39242980133972,-0.138131465815334,-0.0172118576488742,0.002798,-0.000620,-0.000348,0.129363,-0.038109,320.901212,24.065519,0.999726,0.992120,0.003777,0.389712,-0.000021,-0.000009,-0.000013,0.000000,-0.000029,-57.645584,0.000034,
2101,3073,-3.49116478871984,9.29980576847015,0.0161082394458845,0.003038,-0.000507,-0.003024,0.148795,-0.029581,314.479710,24.431148,0.999536,0.991837,0.003648,0.354404,-0.000010,0.000000,0.000006,0.000003,-0.000013,64.478884,0.000013,
2086,3103,-3.82106854482526,9.94868452307599,0.0188062563879043,0.003100,-0.000673,-0.002142,0.149000,-0.031044,314.088426,24.338338,0.999695,0.993917,0.003182,0.388237,-0.000015,-0.000004,0.000005,-0.000002,-0.000017,68.265062,0.000022,
2431,1993,3.88937536918676,-14.2634109466443,0.0342746203938873,0.002658,-0.000554,0.001404,0.116116,-0.027694,331.582791,22.117009,0.999285,0.976742,0.005792,0.166479,-0.000005,-0.000121,0.000027,0.000001,-0.000127,12.414017,0.000146,
2011,2983,-5.42999473685308,7.34237281461168,-0.00215476810524251,0.002792,-0.001232,0.003620,0.118625,-0.034125,316.278583,24.168219,0.999299,0.992480,0.003438,0.368426,0.000003,-0.000071,-0.000009,0.000004,-0.000072,-6.571188,0.000080,
2371,3028,2.37758122748758,8.34400800590348,0.00190343886441724,0.003091,-0.000323,-0.002667,0.151574,-0.015267,314.487535,25.290946,0.999547,0.990507,0.003890,0.351148,-0.000018,-0.000015,0.000000,-0.000015,-0.000018,82.257975,0.000033,
2386,3058,2.69824915236351,8.99581448144259,0.0082973513793263,0.003112,-0.000805,-0.000874,0.146012,-0.033902,314.052665,25.397847,0.999673,0.992666,0.003498,0.357039,-0.000011,-0.000007,0.000012,0.000004,-0.000021,49.623665,0.000023,
2491,2593,5.07503058647554,-1.12060200891423,-0.0141617482518086,0.002873,-0.000743,-0.001716,0.138000,-0.026687,321.623846,23.918411,0.999822,0.994536,0.003454,0.380948,-0.000008,-0.000023,0.000012,-0.000001,-0.000029,29.725889,0.000035,
2296,2653,0.813884197209649,0.182109375289372,-0.0236180823704899,0.002741,-0.000884,0.001315,0.121175,-0.034073,320.380947,24.248655,0.999314,0.987995,0.004151,0.396621,-0.000029,0.000003,0.000007,0.000005,-0.000030,78.770383,0.000032,
2146,3298,-2.55384298935639,14.17915431336,0.0118133216732303,0.002746,-0.000598,-0.000800,0.128885,-0.038088,310.544145,24.664763,0.999687,0.995311,0.002800,0.371106,-0.000019,0.000002,-0.000016,0.000011,-0.000028,-61.127369,0.000028,
2326,2758,1.44690211414887,2.47128528875405,-0.0261582297180212,0.002574,-0.000678,0.002533,0.109368,0.002833,318.617841,24.479515,0.999604,0.992257,0.003680,0.428344,-0.000026,-0.000006,0.000011,-0.000001,-0.000031,66.269307,0.000037,
2116,3208,-3.18651348103648,12.2252678543649,0.041591186799053,0.003189,-0.000936,-0.000679,0.148915,-0.030578,312.417352,24.460161,0.999650,0.994150,0.003195,0.398533,-0.000016,0.000002,-0.000009,0.000006,-0.000020,-66.857928,0.000020,
2311,2698,1.1326201117465,1.16244005402638,-0.0176444164550844,0.002808,-0.000833,0.000928,0.125581,-0.011599,319.690964,24.293773,0.999821,0.992216,0.003568,0.462963,-0.000028,-0.000012,-0.000001,-0.000012,-0.000028,-87.702792,0.000041,
2461,2293,4.48296022024033,-7.68276866258055,0.0111121051938881,0.002491,-0.000855,0.000864,0.110453,-0.031261,326.601328,22.808074,0.999369,0.980244,0.005342,0.405177,-0.000022,-0.000024,0.000002,-0.000021,-0.000025,29.348655,0.000046,
2071,2983,-4.12817274836975,7.3456232285364,-0.00238745980294652,0.003395,-0.000891,-0.001327,0.160026,-0.045115,315.957853,24.288422,0.999337,0.991545,0.003665,0.398938,-0.000021,-0.000028,-0.000003,-0.000020,-0.000029,-18.694184,0.000049,
2446,2098,4.19509489903978,-11.9569962207488,0.0179518163180319,0.002443,-0.000476,-0.000756,0.114353,-0.027759,329.781001,22.286063,0.999326,0.979240,0.005745,0.280574,-0.000021,-0.000023,0.000009,-0.000013,-0.000030,41.407647,0.000045,
2401,3163,3.00485509298763,11.2749814190133,0.0281096665216864,0.002793,-0.001243,0.002369,0.119444,-0.043607,312.484247,25.750246,0.999668,0.993270,0.003298,0.357096,-0.000003,-0.000001,0.000007,0.000005,-0.000009,48.440786,0.000009,
2281,2623,0.492597202292966,-0.471938005619975,-0.0244155051228176,0.002518,-0.000973,0.001078,0.111746,-0.036641,320.869288,24.229613,0.999349,0.988034,0.004244,0.365115,-0.000026,-0.000009,0.000007,-0.000007,-0.000028,71.005972,0.000037,
2191,2158,-1.38313749218657,-10.6389730605126,0.024804557224229,0.002740,-0.000367,-0.002913,0.134618,-0.051377,329.008428,23.846585,0.999126,0.985546,0.004921,0.308494,-0.000011,-0.000025,0.000015,-0.000001,-0.000035,32.110773,0.000041,
2026,3013,-5.1086615507492,7.99415354009654,0.00837539319707048,0.002838,-0.000979,0.001868,0.125480,-0.039325,315.788332,24.258362,0.999553,0.993794,0.003368,0.292351,-0.000018,-0.000022,0.000015,-0.000005,-0.000036,41.518264,0.000044,
2176,2143,-1.70892610004709,-10.9656925146001,0.0162466009358582,0.002551,-0.000664,0.002832,0.108001,-0.012008,329.197199,23.938928,0.998649,0.979801,0.005620,0.322413,-0.000006,-0.000022,0.000024,0.000011,-0.000040,35.755781,0.000041,
2266,2578,0.1747267449845,-1.45411746541897,-0.0226880937040619,0.002757,-0.000779,-0.001275,0.130606,-0.020163,321.654487,24.111416,0.999364,0.988487,0.004296,0.434036,-0.000023,-0.000008,0.000005,-0.000007,-0.000024,72.200686,0.000033,
2506,2653,5.38821555847575,0.190681562162808,-0.0255731932057301,0.002560,-0.000899,0.001416,0.111572,-0.012698,320.568284,24.175167,0.999605,0.988528,0.004331,0.367704,-0.000017,-0.000015,-0.000014,-0.000002,-0.000031,-46.719644,0.000037,
2356,2998,2.05614803791973,7.69152453168387,-0.000151338938735535,0.002477,-0.000729,0.001488,0.108453,-0.022229,314.914432,25.191719,0.999630,0.992438,0.003541,0.320293,-0.000023,-0.000016,0.000000,-0.000016,-0.000023,86.333244,0.000040,
2221,2278,-0.751050572898084,-8.00899117174031,0.00457017895814715,0.002742,-0.000669,0.000154,0.125069,-0.028321,326.817025,23.897898,0.998993,0.983922,0.005011,0.289589,-0.000017,-0.000030,0.000000,-0.000017,-0.000030,2.018166,0.000047,
2476,2353,4.79804034634324,-6.36705333481256,-0.000928157048065259,0.002831,-0.000325,-0.003374,0.142278,-0.018891,325.596125,23.047450,0.999004,0.983218,0.005380,0.350491,-0.000010,-0.000014,0.000007,-0.000005,-0.000019,37.553642,0.000025,
2041,2998,-4.78109154549759,7.6691851859729,0.0101863092972394,0.002915,-0.001054,0.003973,0.123066,-0.031321,315.953191,24.269182,0.999223,0.990506,0.003870,0.342551,-0.000021,-0.000029,0.000002,-0.000021,-0.000029,13.085368,0.000050,
2056,3073,-4.46756175539835,9.29609348536889,0.013932741295946,0.002702,-0.000968,0.002265,0.117942,-0.035931,314.669706,24.219538,0.999431,0.992232,0.003729,0.398923,-0.000025,0.000002,-0.000004,0.000002,-0.000026,-82.257393,0.000028,
2431,2008,3.88664581024934,-13.934960959761,0.0336760889709922,0.002649,-0.000288,-0.002257,0.129293,-0.027948,331.350049,22.058168,0.999200,0.975594,0.006058,0.278653,-0.000006,-0.000106,0.000035,0.000005,-0.000118,17.505232,0.000133,
2131,3298,-2.8782027369769,14.1776616328025,0.0117824941070239,0.003194,-0.000478,-0.003787,0.158719,-0.017194,310.636379,24.548854,0.999662,0.994163,0.003137,0.421578,-0.000015,0.000002,-0.000016,0.000012,-0.000025,-59.059611,0.000025,
2251,2473,-0.132259277814565,-3.74796720367008,0.00208021003697922,0.002318,-0.001115,0.004078,0.092708,-0.018177,323.550811,23.966025,0.999646,0.990850,0.003996,0.429710,-0.000034,-0.000006,0.000014,-0.000001,-0.000039,67.360242,0.000046,
2011,2998,-5.4317609430591,7.66777326981261,0.00390093782783651,0.002774,-0.000672,0.000603,0.126131,-0.027767,316.092392,24.185862,0.999403,0.992997,0.003358,0.344553,0.000000,-0.000041,0.000001,0.000000,-0.000041,1.117999,0.000047,
2086,3118,-3.82337666113733,10.2739931666595,0.0201118444435338,0.003120,-0.000588,-0.002365,0.150606,-0.023879,313.855988,24.346321,0.999748,0.994252,0.003009,0.385452,-0.000015,0.000002,0.000003,0.000002,-0.000016,79.555620,0.000017,
2236,2443,-0.454014509786536,-4.40081009394555,-0.00648817021198056,0.002638,-0.001290,0.004587,0.105783,-0.058306,324.006757,24.143156,0.999612,0.991841,0.003924,0.202792,-0.000038,-0.000016,0.000000,-0.000016,-0.000038,89.163979,0.000055,
2341,2923,1.74358220897165,6.06136972366307,-0.0138268109467958,0.002819,-0.000767,0.000727,0.126892,-0.013506,316.044169,24.944139,0.999123,0.989637,0.004078,0.354533,-0.000027,-0.000011,0.000004,-0.000010,-0.000028,75.864605,0.000039,
2491,2608,5.07197305218609,-0.79430259956581,-0.00743589298610914,0.002466,-0.000832,-0.000057,0.112956,-0.020486,321.411326,23.929905,0.999839,0.994172,0.003540,0.435151,-0.000008,-0.000009,0.000006,-0.000003,-0.000014,44.461444,0.000018,
2446,2113,4.19305451408067,-11.6284853025542,0.0225576868504049,0.002818,-0.000061,-0.003341,0.141295,-0.018780,329.604514,22.320005,0.999506,0.978724,0.005669,0.310474,-0.000023,-0.000020,0.000007,-0.000015,-0.000028,50.399148,0.000043,
2161,1993,-2.01020102057142,-14.253689644172,0.0236640117418006,0.002987,0.000442,-0.003370,0.147320,-0.003918,331.755631,24.061313,0.999197,0.983233,0.005099,0.156798,-0.000018,-0.000114,0.000008,-0.000017,-0.000114,4.825645,0.000143,
2386,3073,2.69473884410417,9.32167994400294,0.00421737538829348,0.002823,-0.000681,-0.000862,0.132698,-0.030492,313.759561,25.420794,0.999627,0.992026,0.003616,0.379937,-0.000009,-0.000003,0.000010,0.000005,-0.000017,53.675682,0.000017,
2461,2308,4.47978931465545,-7.35197488939784,0.00149787936953771,0.002970,-0.000664,-0.001477,0.141283,-0.023167,326.308098,22.974822,0.999073,0.976692,0.005770,0.303309,-0.000017,-0.000023,-0.000002,-0.000016,-0.000023,-18.563430,0.000039,
2206,2248,-1.07306891938222,-8.66527146611683,0.00119999079043964,0.003033,-0.000907,0.003561,0.127565,-0.013270,327.312864,23.886308,0.999005,0.982987,0.005206,0.342168,-0.000015,-0.000019,0.000001,-0.000015,-0.000019,18.867994,0.000034,
2026,3028,-5.1103532565098,8.31792046449877,0.0161601141296615,0.003023,-0.001351,0.002370,0.132536,-0.042633,315.616774,24.153829,0.999498,0.992450,0.003667,0.382942,-0.000011,-0.000012,0.000022,0.000011,-0.000034,44.821551,0.000035,
2071,2998,-4.12967972390664,7.67074386905279,0.0141319348306865,0.003209,-0.000449,-0.001846,0.153141,-0.017418,315.844542,24.331341,0.999612,0.992678,0.003333,0.379575,-0.000022,-0.000012,0.000004,-0.000011,-0.000024,70.080629,0.000035,
2101,3088,-3.49307069897829,9.62417414993601,0.0225890714104366,0.003331,-0.000902,-0.000366,0.154316,-0.054838,314.295159,24.410511,0.999288,0.987971,0.004264,0.349983,-0.000010,-0.000004,0.000008,0.000002,-0.000016,53.928587,0.000017,
2011,3013,-5.4339545810481,7.99237592557149,0.00761477453681891,0.002697,-0.000985,0.001426,0.120284,-0.031762,315.873777,24.128079,0.999562,0.993810,0.003291,0.385533,0.000004,-0.000026,0.000016,0.000011,-0.000033,22.898279,0.000034,
2146,1993,-2.33780688248963,-14.2556295389527,0.0283428966075689,0.002698,-0.000592,0.001008,0.120371,-0.015072,331.822898,24.017334,0.999348,0.983517,0.004879,0.295091,-0.000011,-0.000103,0.000021,-0.000006,-0.000107,12.320235,0.000127,
2371,3043,2.37477877050871,8.66916514841933,0.00670486210742638,0.003026,-0.000621,0.000386,0.137620,-0.019744,314.268726,25.306356,0.999646,0.992202,0.003564,0.371419,-0.000017,-0.000009,0.000003,-0.000008,-0.000018,72.169838,0.000026,
2506,2668,5.38582924116369,0.516567021790834,-0.0219070573303952,0.002808,-0.000818,-0.000386,0.129937,-0.027888,320.373719,24.162110,0.999483,0.987127,0.004521,0.427008,-0.000011,-0.000036,-0.000015,-0.000004,-0.000043,-25.126090,0.000052,
2176,2158,-1.71451859521983,-10.6308427241745,-0.0320172232755453,0.002557,-0.000502,0.000168,0.116609,-0.037497,328.561396,24.033609,0.999370,0.958861,0.006957,0.219283,-0.000005,-0.000027,0.000019,0.000006,-0.000038,30.244809,0.000041,
2056,3088,-4.4697631557381,9.6212431097693,0.018348278828114,0.002692,-0.001298,0.003728,0.113258,-0.043892,314.457364,24.239626,0.999482,0.992601,0.003497,0.364399,-0.000024,-0.000002,0.000000,-0.000002,-0.000024,-89.038935,0.000029,
2116,3223,-3.18893720885201,12.5496535675869,0.0416225969072457,0.003345,-0.001290,0.000840,0.151448,-0.052604,312.175168,24.430273,0.999654,0.994851,0.003094,0.408434,-0.000015,0.000006,-0.000012,0.000012,-0.000020,-65.837859,0.000021,
2041,3013,-4.78394632336765,7.99556038560002,0.00480181701294669,0.002717,-0.001031,0.003811,0.114401,-0.030059,315.654953,24.308517,0.999446,0.992229,0.003662,0.296029,-0.000017,-0.000016,0.000010,-0.000006,-0.000026,47.113702,0.000035,
2431,2023,3.88324631078181,-13.6041648034421,0.0261231134149966,0.002781,-0.000380,-0.003132,0.138508,-0.036090,331.054337,22.148210,0.999098,0.976655,0.005858,0.234299,-0.000002,-0.000072,0.000026,0.000007,-0.000080,18.383226,0.000089,
2326,2773,1.44502396204825,2.79841831690899,-0.0211190682242659,0.002971,-0.000646,0.000667,0.134064,-0.011100,318.440188,24.618506,0.999643,0.994760,0.003355,0.309783,-0.000025,-0.000008,0.000007,-0.000005,-0.000028,70.782221,0.000036,
2251,2488,-0.134955694156819,-3.41999742409123,-0.00681033817329535,0.002734,-0.000936,0.001696,0.119685,-0.030960,323.260784,23.967973,0.999628,0.989944,0.003930,0.439744,-0.000034,-0.000002,0.000009,0.000000,-0.000036,75.002710,0.000042,
2191,2173,-1.38627692662232,-10.308779839627,0.00913610909526597,0.003163,-0.000292,-0.003344,0.155392,-0.031483,328.657012,23.824711,0.999274,0.968631,0.006052,0.368038,-0.000008,-0.000017,0.000013,0.000001,-0.000026,34.940487,0.000029,
2401,3178,3.00169582156606,11.6005887233236,0.0243152536316984,0.002671,-0.000752,0.000007,0.122602,-0.032561,312.209480,25.771781,0.999592,0.992915,0.003418,0.390767,-0.000001,-0.000001,0.000008,0.000007,-0.000009,45.002576,0.000010,
2356,3013,2.0535583827657,8.01698168941987,-0.00232547032607044,0.002664,-0.000671,-0.001608,0.127922,-0.047844,314.670846,25.201479,0.999581,0.991475,0.003713,0.323160,-0.000022,-0.000017,0.000001,-0.000017,-0.000022,76.577566,0.000040,
2311,2713,1.12951919362174,1.49008044790509,-0.0211473728633678,0.002598,-0.000449,-0.000912,0.122329,-0.018775,319.414182,24.386063,0.999569,0.990682,0.003863,0.396019,-0.000028,-0.000016,0.000000,-0.000016,-0.000028,88.797883,0.000045,
2086,3133,-3.82559404532339,10.5989248290897,0.0264531852959067,0.003049,-0.000561,-0.000440,0.141756,-0.027908,313.655366,24.365407,0.999748,0.993849,0.003005,0.360039,-0.000012,0.000001,0.000002,0.000002,-0.000013,80.121740,0.000014,
2221,2293,-0.753175995369222,-7.68137366967279,0.0041628478710436,0.002937,-0.000020,-0.003835,0.147013,-0.012702,326.593827,23.850774,0.999113,0.985961,0.004674,0.373190,-0.000016,-0.000026,0.000009,-0.000011,-0.000032,30.330297,0.000045,
2491,2623,5.06866665812617,-0.467575894486089,-0.0121520798841175,0.002722,-0.001298,0.000995,0.120503,-0.041332,321.135808,23.913783,0.999841,0.994386,0.003385,0.490238,-0.000008,-0.000021,-0.000005,-0.000007,-0.000022,-18.442900,0.000031,
2161,2008,-2.01274041243002,-13.9257183512251,0.0228434961354651,0.003060,-0.000067,-0.001514,0.144820,-0.016880,331.506537,23.966336,0.999116,0.985362,0.004893,0.252695,-0.000027,-0.000075,0.000013,-0.000024,-0.000079,13.982303,0.000107,
2236,2458,-0.45659545492607,-4.07396730018263,-0.00429722383137232,0.002431,-0.001051,0.003416,0.100182,-0.032699,323.777000,24.095941,0.999486,0.989663,0.004261,0.298055,-0.000038,-0.000015,0.000005,-0.000014,-0.000039,78.666689,0.000055,
2461,2323,4.47637835286372,-7.02436661590617,-0.00197202180549993,0.002747,-0.000489,-0.002979,0.136751,-0.037198,326.032244,22.939736,0.999153,0.978691,0.005490,0.380999,-0.000012,-0.000015,0.000002,-0.000011,-0.000017,28.228548,0.000028,
2341,2938,1.74133825985727,6.38625141691476,-0.00913633046417317,0.002985,-0.000979,0.000052,0.136849,-0.014959,315.849069,24.904434,0.999024,0.989158,0.004131,0.428971,-0.000025,-0.000009,0.000004,-0.000008,-0.000026,77.611364,0.000036,
2446,2128,4.19009132371251,-11.299216181098,0.0210294068425583,0.002978,0.000140,-0.003458,0.149142,-0.003454,329.357433,22.355331,0.999492,0.978344,0.005792,0.345609,-0.000020,-0.000021,0.000007,-0.000014,-0.000028,42.142855,0.000042,
2176,2173,-1.71916607172804,-10.2972297895194,-0.0660166625285115,0.002679,-0.000327,-0.000438,0.124149,-0.026456,328.043005,24.142291,0.999832,0.924646,0.008963,0.138013,-0.000002,-0.000020,0.000017,0.000008,-0.000030,31.179837,0.000031,
2476,2368,4.79458482969234,-6.0375198348223,-0.00692440649419268,0.002996,-0.000311,-0.002744,0.147497,-0.011797,325.307575,23.159238,0.999560,0.986637,0.004914,0.304531,-0.000011,-0.000010,0.000012,0.000002,-0.000022,45.907140,0.000025,
2071,3013,-4.13231632562999,7.99558907105536,0.0184833082857381,0.002786,-0.000644,-0.000253,0.128996,-0.023925,315.612827,24.303364,0.999494,0.991976,0.003523,0.396891,-0.000017,-0.000006,0.000007,-0.000003,-0.000021,64.372472,0.000026,
2506,2683,5.38142806964021,0.845309171912632,-0.0333918474117922,0.002562,-0.000929,0.000403,0.115555,-0.036028,320.018124,24.283842,0.999614,0.990872,0.003837,0.358811,-0.000012,-0.000040,-0.000008,-0.000010,-0.000042,-14.373781,0.000055,
2116,3238,-3.19235511029693,12.8752875247999,0.0347904843549713,0.002915,-0.001128,0.001754,0.128936,-0.042395,311.849797,24.448381,0.999669,0.995150,0.002901,0.402437,-0.000015,-0.000001,-0.000013,0.000007,-0.000023,-58.747616,0.000023,
2266,2593,0.17186809458671,-1.12674295874002,-0.0251044553180009,0.002817,-0.000635,-0.000384,0.130485,-0.011318,321.390780,24.133281,0.999224,0.987095,0.004518,0.447412,-0.000018,-0.000023,0.000002,-0.000018,-0.000023,18.058927,0.000041,
2026,3043,-5.11260034239108,8.6427936150288,0.0159971841789002,0.002918,-0.000981,-0.000680,0.136222,-0.038023,315.374931,24.093993,0.999418,0.992478,0.003735,0.436971,-0.000014,-0.000011,0.000016,0.000003,-0.000029,47.899567,0.000031,
2146,2008,-2.33924379032901,-13.9277140907571,0.030542276697247,0.003190,-0.000031,-0.003887,0.157922,-0.039668,331.638822,23.962333,0.999042,0.983958,0.005027,0.336628,-0.000022,-0.000069,0.000023,-0.000012,-0.000078,21.958978,0.000098,
2281,2638,0.49069136257496,-0.145041836679923,-0.0223543507369186,0.003033,-0.000633,-0.000777,0.141711,-0.032547,320.672903,24.264974,0.999374,0.986250,0.004333,0.361988,-0.000028,-0.000004,0.000007,-0.000002,-0.000030,75.036465,0.000035,
2431,2038,3.88017770788985,-13.2756013444897,0.0323414424982502,0.002500,-0.000523,0.000773,0.111253,-0.024256,330.837353,22.176037,0.999063,0.976877,0.005845,0.271555,-0.000003,-0.000070,0.000025,0.000006,-0.000078,18.379960,0.000087,
2386,3088,2.6923228103038,9.64654027348296,0.0114197683810744,0.002805,-0.000929,-0.000023,0.128758,-0.045751,313.570817,25.445904,0.999439,0.990639,0.003845,0.381814,-0.000010,0.000001,0.000007,0.000004,-0.000014,62.530599,0.000014,
2296,2668,0.811440308522332,0.509452294500377,-0.0200698835306525,0.002598,-0.000721,-0.001076,0.122707,-0.041583,320.168189,24.358209,0.999636,0.990455,0.003838,0.309781,-0.000027,0.000006,0.000003,0.000007,-0.000027,84.366189,0.000028,
2086,3148,-3.82770036929748,10.9234183538655,0.033065724295966,0.002896,-0.000727,-0.001342,0.137324,-0.026044,313.461503,24.342919,0.999812,0.995608,0.002747,0.382311,-0.000017,0.000007,0.000002,0.000008,-0.000017,85.253560,0.000017,
2461,2338,4.47311750388083,-6.69535441362003,0.000276671144717966,0.002489,-0.000409,-0.001167,0.118210,-0.013006,325.788937,23.056867,0.999062,0.978174,0.005479,0.344274,-0.000013,-0.000015,0.000000,-0.000013,-0.000015,-9.915043,0.000028,
2056,3103,-4.47133160538928,9.94623123598602,0.0224940560318032,0.002934,-0.000792,-0.001272,0.138762,-0.025686,314.272629,24.220365,0.999497,0.992395,0.003481,0.395794,-0.000022,0.000000,0.000004,0.000000,-0.000023,79.883597,0.000026,
2161,2023,-2.01544632506509,-13.5964987784506,0.0196408291446915,0.002916,0.000050,-0.002896,0.142508,-0.013583,331.237085,23.947550,0.998965,0.984481,0.004987,0.288604,-0.000021,-0.000058,0.000015,-0.000016,-0.000064,19.175192,0.000084,
2491,2638,5.0647257679177,-0.137431663832928,-0.0276887426588246,0.003156,-0.000944,0.000695,0.141716,-0.024251,320.781573,24.087442,0.999538,0.989879,0.003980,0.393454,-0.000010,-0.000020,-0.000007,-0.000007,-0.000023,-27.007590,0.000032,
2011,3028,-5.4354208658322,8.31706116517888,0.0184927534845656,0.003029,-0.001491,0.003973,0.128570,-0.035103,315.728817,24.128180,0.999542,0.993697,0.003409,0.369123,0.000012,-0.000014,0.000028,0.000030,-0.000032,32.633124,0.000036,
2326,2788,1.44179924285364,3.12328457563046,-0.025856655588143,0.002889,-0.001001,0.000668,0.130104,-0.038384,318.153432,24.490619,0.999542,0.994028,0.003485,0.444873,-0.000023,-0.000011,0.000005,-0.000009,-0.000025,70.443164,0.000036,
2476,2383,4.79068452105863,-5.70924257172847,-0.0147748297885641,0.002691,-0.000267,-0.004145,0.138875,-0.014374,324.990312,23.153744,0.999598,0.985723,0.004936,0.366060,-0.000005,-0.000027,-0.000003,-0.000005,-0.000027,-6.977052,0.000035,
2191,2188,-1.38945639437062,-9.9798566513735,0.0133068191681787,0.002611,-0.000862,0.002370,0.112029,-0.018289,328.406693,23.910154,0.998816,0.977910,0.005640,0.312896,-0.000007,-0.000001,0.000009,0.000005,-0.000014,53.823639,0.000014,
2101,3103,-3.4956811879745,9.94957312844438,0.0275436779825213,0.002998,-0.001234,0.001926,0.132210,-0.046596,314.069602,24.444920,0.999645,0.993153,0.003315,0.323824,-0.000013,-0.000007,0.000010,0.000000,-0.000020,53.010204,0.000023,
2251,2503,-0.138233720453663,-3.09065543155653,-0.0133306850257782,0.002543,-0.000634,0.001179,0.112690,-0.029799,322.955678,24.109446,0.999495,0.989161,0.004174,0.324060,-0.000038,-0.000010,0.000007,-0.000009,-0.000040,75.855491,0.000052,
2116,3253,-3.19491145915562,13.2012965668149,0.0308067704066275,0.002993,-0.000785,0.000023,0.137849,-0.025187,311.579204,24.514583,0.999755,0.996506,0.002534,0.355345,-0.000013,-0.000007,-0.000015,0.000006,-0.000026,-50.573216,0.000027,
2071,3028,-4.13496275465168,8.32145027779735,0.0128100627860022,0.002895,-0.000663,-0.000033,0.133417,-0.025644,315.325288,24.301018,0.999637,0.993458,0.003248,0.393603,-0.000016,-0.000004,0.000007,-0.000001,-0.000019,66.449592,0.000023,
2236,2473,-0.458898407327798,-3.747667457453,-0.00303892552653906,0.002526,-0.000563,0.001721,0.110263,-0.006038,323.555335,23.993885,0.999501,0.990570,0.004101,0.449418,-0.000032,-0.000014,0.000012,-0.000008,-0.000038,63.853938,0.000049,
2371,3058,2.37152794829897,8.99495600342636,0.00768119713609394,0.002791,-0.001241,0.003137,0.116791,-0.037243,314.010702,25.371732,0.999689,0.993705,0.003255,0.328471,-0.000015,-0.000010,0.000007,-0.000005,-0.000020,55.885263,0.000027,
2206,2263,-1.0751802394855,-8.33772253088941,0.00402918705447064,0.002949,-0.000557,-0.001058,0.138453,-0.020894,327.105854,23.878714,0.999040,0.981930,0.005225,0.361032,-0.000017,-0.000023,-0.000001,-0.000017,-0.000023,-7.529235,0.000040,
2356,3028,2.05111211940458,8.34286738122609,0.00399626919534057,0.002617,-0.000500,-0.001146,0.124266,-0.025406,314.474652,25.263531,0.999626,0.992110,0.003610,0.321540,-0.000021,-0.000018,-0.000002,-0.000017,-0.000022,-67.187305,0.000039,
2341,2953,1.73881591671934,6.71244991244236,-0.0070447988888418,0.002974,-0.000750,-0.001951,0.143325,-0.040250,315.628143,24.995134,0.999341,0.991521,0.003729,0.348884,-0.000023,-0.000011,0.000004,-0.000010,-0.000025,72.399517,0.000036,
2401,3193,2.99899900806101,11.925891303673,0.0284000874777348,0.002640,-0.001006,0.000800,0.118202,-0.037403,311.993327,25.831620,0.999536,0.992363,0.003474,0.370417,-0.000003,0.000001,0.000009,0.000009,-0.000010,50.280125,0.000011,
2146,2023,-2.34257379063877,-13.5966079844431,0.0221587413088287,0.003026,-0.000251,-0.001074,0.141856,-0.026464,331.311816,24.046241,0.998779,0.983032,0.005130,0.277862,-0.000018,-0.000058,0.000020,-0.000009,-0.000067,22.553719,0.000083,
2011,3043,-5.43776491172401,8.64241403136353,0.015606050431245,0.002842,-0.000814,-0.001197,0.134149,-0.031875,315.465952,24.095450,0.999468,0.993716,0.003525,0.392385,0.000009,-0.000011,0.000024,0.000025,-0.000027,33.919305,0.000030,
2221,2308,-0.756248530008957,-7.35369603779136,0.0041762480205989,0.002650,-0.000609,-0.000890,0.124242,-0.022384,326.329509,23.843931,0.998975,0.987624,0.004441,0.391655,-0.000019,-0.000041,0.000008,-0.000016,-0.000043,18.362457,0.000061,
2176,2188,-1.71708945815622,-9.97848326343586,0.00417518381283344,0.002590,-0.000626,0.001739,0.113237,-0.028252,328.377834,24.013646,0.999267,0.947826,0.007494,0.276739,-0.000003,-0.000006,0.000014,0.000009,-0.000019,42.651025,0.000019,
2041,3028,-4.7860772360182,8.31955859591171,0.0109445344900223,0.002609,-0.001026,0.004798,0.106622,-0.039581,315.454855,24.221208,0.999525,0.992354,0.003698,0.365581,-0.000013,-0.000009,0.000013,0.000002,-0.000024,50.326736,0.000026,
2506,2698,5.37892131604902,1.1714422725301,-0.0239889853103818,0.002387,-0.000842,0.000739,0.106290,-0.028246,319.843366,24.326790,0.999626,0.991761,0.003641,0.384923,-0.000013,-0.000013,-0.000008,-0.000006,-0.000021,-44.817190,0.000028,
2431,2053,3.87660537170436,-12.9457039384154,0.0280762331940423,0.002330,-0.000790,0.001670,0.100102,-0.025506,330.548776,22.226202,0.998848,0.976899,0.005939,0.273958,-0.000007,-0.000054,0.000024,0.000003,-0.000064,23.075501,0.000073,
2491,2653,5.061592793831,0.18972764700019,-0.0235254014573911,0.002891,-0.001000,0.002321,0.123327,-0.017276,320.553632,24.169206,0.999509,0.988778,0.004193,0.378023,-0.000007,-0.000025,-0.000012,-0.000001,-0.000032,-27.155161,0.000037,
2311,2728,1.12690338914043,1.81637666943956,-0.0205035794040214,0.002792,-0.000781,0.000351,0.126827,-0.035550,319.180388,24.402793,0.999471,0.990235,0.003972,0.395090,-0.000028,-0.000013,0.000003,-0.000012,-0.000029,77.719483,0.000042,
2056,3118,-4.47332022797469,10.2713643318427,0.0256580251621585,0.003202,-0.000869,-0.000050,0.147682,-0.027723,314.063181,24.231909,0.999566,0.993650,0.003163,0.375724,-0.000021,0.000008,0.000002,0.000008,-0.000021,86.993653,0.000022,
2476,2398,4.78801629958742,-5.38187670801073,-0.00374687375466465,0.002523,-0.000797,0.000135,0.114711,-0.029005,324.815164,23.263589,0.999588,0.987042,0.004639,0.299511,0.000000,-0.000022,-0.000002,0.000000,-0.000022,-4.937353,0.000025,
2461,2353,4.46928686813662,-6.36686186004976,-0.00546066705567227,0.002452,-0.001167,0.002252,0.103341,-0.034387,325.483232,23.098706,0.999266,0.982744,0.005232,0.337663,-0.000008,-0.000017,0.000002,-0.000007,-0.000018,12.283296,0.000026,
2026,3058,-5.11459232820561,8.9686614525143,0.018621515396319,0.003068,-0.000811,-0.001035,0.144152,-0.041921,315.160038,24.156203,0.999167,0.990941,0.003909,0.360078,-0.000023,-0.000003,0.000011,0.000002,-0.000028,66.093356,0.000031,
2116,3268,-3.19734175086569,13.5260127655908,0.0273675271283764,0.003172,-0.000869,-0.001560,0.150765,-0.037757,311.317851,24.498554,0.999750,0.996053,0.002708,0.360858,-0.000013,0.000000,-0.000016,0.000011,-0.000024,-56.181427,0.000024,
2281,2653,0.487899338160954,0.181987584455257,-0.0217346958827989,0.002879,-0.000395,-0.001121,0.135893,-0.019101,320.428569,24.295654,0.999487,0.988960,0.004078,0.373130,-0.000029,0.000006,0.000009,0.000008,-0.000031,76.161439,0.000032,
2386,3103,2.68979942011551,9.97189133266513,0.014767372617996,0.002793,-0.000834,-0.001619,0.134051,-0.030272,313.358550,25.464283,0.999130,0.988890,0.004120,0.421046,-0.000004,0.000001,0.000009,0.000008,-0.000011,52.858322,0.000012,
2446,2143,4.18599679870775,-10.9691669636154,0.00906174452813957,0.002849,-0.000213,-0.003804,0.144368,-0.031729,329.010670,22.398978,0.999323,0.978156,0.005826,0.329330,-0.000017,-0.000012,0.000006,-0.000008,-0.000021,55.702966,0.000030,
2266,2608,0.16911123257659,-0.799171366317765,-0.0256819127158678,0.002858,-0.000723,0.000618,0.129002,-0.028546,321.140966,24.220076,0.999263,0.987410,0.004459,0.369407,-0.000020,-0.000023,0.000008,-0.000014,-0.000030,39.620506,0.000045,
2161,2038,-2.01838246847801,-13.2665468243692,0.0140387917011253,0.002874,-0.000182,-0.001854,0.137341,-0.023021,330.944493,23.987230,0.999177,0.984494,0.004913,0.253459,-0.000017,-0.000043,0.000020,-0.000006,-0.000054,29.064933,0.000066,
2086,3163,-3.83083765828508,11.2493002235712,0.0238859437054089,0.002792,-0.000841,-0.000982,0.131402,-0.037681,313.133587,24.369982,0.999828,0.995702,0.002791,0.341412,-0.000019,0.000017,-0.000004,0.000018,-0.000019,-83.750429,0.000021,
2236,2488,-0.462207528547228,-3.41874838765508,-0.014428472142697,0.002693,-0.001008,0.002297,0.115909,-0.031123,323.222836,24.072407,0.999518,0.988895,0.004162,0.368272,-0.000032,-0.000012,0.000009,-0.000008,-0.000036,68.617430,0.000047,
2326,2803,1.43871662285378,3.45042970813018,-0.024211480020881,0.002374,-0.000693,-0.000711,0.111314,-0.030217,317.903697,24.590928,0.999346,0.993310,0.003702,0.387088,-0.000020,-0.000010,0.000006,-0.000007,-0.000023,65.165319,0.000031,
2251,2518,-0.14099161922892,-2.76368875743646,-0.0149941819776132,0.002517,-0.000942,0.000691,0.112983,-0.041034,322.699459,24.095153,0.999181,0.986771,0.004605,0.351598,-0.000037,-0.000010,0.000008,-0.000008,-0.000039,75.253803,0.000050,
2431,2068,3.87351566527865,-12.6158775881196,0.0240940366108475,0.002547,-0.000787,0.001689,0.109957,-0.014980,330.283475,22.267254,0.998435,0.975250,0.006318,0.296835,-0.000013,-0.000036,0.000025,0.000002,-0.000052,32.750351,0.000058,
2491,2668,5.05874801989679,0.516175882566465,-0.0226574726360127,0.002837,-0.000695,-0.000181,0.130511,-0.037371,320.324243,24.189268,0.999426,0.987868,0.004302,0.396975,-0.000003,-0.000042,-0.000015,0.000002,-0.000047,-18.717206,0.000053,
2371,3073,2.36923313113602,9.32033796109627,0.00880360537757952,0.002921,-0.000855,-0.001504,0.139414,-0.044668,313.797440,25.394046,0.999576,0.992395,0.003536,0.338911,-0.000014,-0.000006,0.000005,-0.000003,-0.000016,63.404079,0.000021,
2146,2038,-2.34555554289712,-13.2673515727173,0.0189713683237756,0.002726,-0.000658,-0.000250,0.125502,-0.038690,331.028504,24.052020,0.999013,0.983711,0.005115,0.271562,-0.000016,-0.000048,0.000024,-0.000003,-0.000061,28.249677,0.000072,
2011,3058,-5.43920002690921,8.967338780532,0.0237250839388707,0.003070,-0.000408,-0.003733,0.151718,-0.023956,315.306873,24.094433,0.999243,0.992926,0.003529,0.388364,0.000000,0.000001,0.000021,0.000021,-0.000020,45.812866,0.000024,
2356,3043,2.04849041425772,8.66826539293194,0.00205879217793381,0.003109,-0.000533,0.000353,0.141653,-0.010333,314.230607,25.236956,0.999659,0.992235,0.003534,0.401372,-0.000021,-0.000013,0.000000,-0.000013,-0.000021,-88.723979,0.000034,
2071,3043,-4.13766382855936,8.6472244996991,0.0106728925033508,0.002804,-0.001012,0.001323,0.125273,-0.023210,315.054678,24.314611,0.999582,0.993324,0.003313,0.378428,-0.000018,-0.000005,0.000003,-0.000005,-0.000018,77.547967,0.000024,
2506,2713,5.37636273653316,1.49897835029641,-0.0240745488634388,0.002721,-0.000770,-0.001898,0.131835,-0.034946,319.623511,24.439401,0.999669,0.990886,0.003744,0.326905,-0.000023,-0.000009,-0.000003,-0.000009,-0.000024,-79.735902,0.000034,
2116,3283,-3.20058295424595,13.8505170103318,0.026923124262737,0.002700,-0.000917,0.002294,0.117501,-0.034096,311.035485,24.467392,0.999763,0.995722,0.002844,0.397456,-0.000016,0.000000,-0.000011,0.000006,-0.000021,-62.947916,0.000022,
2461,2368,4.46732650093791,-6.03851936835142,0.00147374291395863,0.002684,-0.000389,-0.000989,0.126500,-0.010408,325.320921,23.210142,0.999604,0.987357,0.004843,0.306013,-0.000007,-0.000013,0.000005,-0.000004,-0.000016,30.593661,0.000022,
2056,3133,-4.47583167472249,10.5961550950714,0.0247123425938298,0.003113,-0.000995,-0.000279,0.144106,-0.048708,313.807194,24.209103,0.999267,0.993105,0.003263,0.370935,-0.000021,0.000010,0.000000,0.000010,-0.000021,89.407850,0.000021,
2041,3043,-4.78786852069903,8.64479813160479,0.0125261652721065,0.002803,-0.000781,0.000513,0.127629,-0.029587,315.244534,24.201815,0.999681,0.994941,0.003063,0.386506,-0.000015,-0.000009,0.000007,-0.000005,-0.000019,56.126152,0.000026,
2296,2683,0.808806793050351,0.835716048349212,-0.0236312505045362,0.002870,-0.000699,-0.002291,0.139388,-0.031728,319.911676,24.296883,0.999719,0.989898,0.003847,0.411387,-0.000026,0.000007,0.000000,0.000007,-0.000026,-89.160568,0.000027,
2476,2413,4.78580957640089,-5.05499914049251,-0.000119601848837192,0.002818,-0.000548,-0.002823,0.139590,-0.027307,324.627645,23.245332,0.999511,0.988269,0.004485,0.377542,-0.000008,-0.000014,0.000007,-0.000004,-0.000018,33.919429,0.000024,
2191,2203,-1.39228115993847,-9.65098554503849,0.00818133154308498,0.002556,-0.000463,0.000979,0.113996,-0.001017,328.124421,23.894129,0.998825,0.979424,0.005572,0.363708,-0.000007,0.000004,0.000009,0.000008,-0.000012,61.425351,0.000012,
2101,3118,-3.49818103717733,10.2749276936321,0.0205887014642485,0.003182,-0.000871,-0.001305,0.150343,-0.036417,313.784557,24.402543,0.999768,0.994922,0.002895,0.376764,-0.000011,-0.000001,0.000007,0.000003,-0.000015,62.589043,0.000016,
2221,2323,-0.759193596103014,-7.02435537601097,-0.00961599687462922,0.003217,-0.000469,-0.001455,0.152096,-0.025537,326.000059,23.850784,0.999111,0.987688,0.004449,0.402923,-0.000019,-0.000037,0.000011,-0.000013,-0.000043,25.219796,0.000059,
2176,2203,-1.7195771241589,-9.65073405607664,0.00766982280248385,0.002286,-0.000449,0.000825,0.102159,-0.028205,328.154735,24.002953,0.998609,0.976613,0.005831,0.302326,-0.000004,0.000001,0.000013,0.000012,-0.000015,49.921954,0.000016,
2491,2683,5.05475958190881,0.84400255623364,-0.029636034108762,0.002534,-0.000919,0.000002,0.115850,-0.040743,320.006521,24.259165,0.999654,0.990963,0.003759,0.383200,-0.000005,-0.000042,-0.000011,-0.000002,-0.000045,-15.482834,0.000053,
2401,3208,2.99650030290255,12.2507823278084,0.0312132762197166,0.002744,-0.000982,-0.000433,0.127435,-0.055108,311.780364,25.862172,0.999462,0.992114,0.003647,0.366144,-0.000002,-0.000006,0.000008,0.000004,-0.000012,38.060153,0.000012,
2116,3298,-3.20298688736817,14.175875251797,0.0195978619606194,0.003045,-0.000577,-0.001079,0.143628,-0.015820,310.754101,24.467055,0.999652,0.993750,0.003323,0.418124,-0.000014,0.000007,-0.000013,0.000013,-0.000020,-65.073223,0.000020,
2026,3073,-5.11674773795919,9.29323398880911,0.0215512459213301,0.003179,-0.001140,0.000970,0.143700,-0.039257,314.939865,24.098376,0.999195,0.992511,0.003684,0.409734,-0.000022,0.000005,0.000008,0.000007,-0.000024,74.063479,0.000025,
2086,3178,-3.83229685589513,11.5727537323776,0.036267222761353,0.002984,-0.000693,-0.000942,0.140206,-0.025931,313.001360,24.282974,0.999740,0.995562,0.002810,0.438159,-0.000019,0.000014,-0.000006,0.000015,-0.000020,-79.807491,0.000021,
2341,2968,1.73601821811949,7.03932126717724,-0.0103674865335961,0.003139,-0.000633,-0.003500,0.156367,-0.037287,315.367943,25.086046,0.999913,0.997844,0.002462,0.297024,-0.000026,-0.000009,0.000005,-0.000008,-0.000027,74.896772,0.000037,
2311,2743,1.12477410942564,2.14301621580705,-0.0166239793789487,0.003093,-0.000457,-0.000245,0.142838,-0.016519,318.984654,24.445447,0.999527,0.991082,0.003847,0.403668,-0.000028,-0.000014,0.000005,-0.000013,-0.000029,72.340675,0.000043,
2056,3148,-4.47766091184615,10.9209388882054,0.0333904135263765,0.003051,-0.000711,-0.001568,0.145008,-0.032461,313.635707,24.210960,0.999582,0.993946,0.003119,0.378827,-0.000028,0.000017,0.000001,0.000017,-0.000028,88.906844,0.000029,
2386,3118,2.6870539371755,10.2980467045716,0.0163453684458545,0.002901,-0.000787,-0.000671,0.135569,-0.038044,313.127330,25.572552,0.999578,0.992597,0.003464,0.347347,-0.000002,0.000006,0.000011,0.000013,-0.000009,54.447896,0.000014,
2071,3058,-4.13980777602468,8.97159411126731,0.012308210873357,0.002945,-0.001350,0.001272,0.131793,-0.048521,314.830885,24.255367,0.999373,0.992685,0.003412,0.408354,-0.000020,-0.000005,0.000001,-0.000005,-0.000020,86.860022,0.000026,
2131,1993,-2.66571004352038,-14.2545894099841,0.0241812814630862,0.002158,-0.000246,-0.002326,0.105761,-0.030083,331.832097,24.147583,0.999236,0.981325,0.005238,0.255451,-0.000008,-0.000116,0.000024,-0.000003,-0.000121,12.084705,0.000142,
2146,2053,-2.34778773047962,-12.9395609547258,0.0259865599695672,0.002601,-0.000972,0.002195,0.112293,-0.029932,330.833351,24.022939,0.998941,0.982562,0.005174,0.320491,-0.000014,-0.000033,0.000026,0.000004,-0.000052,34.926517,0.000058,
2476,2428,4.78224169635378,-4.72634096557893,-0.00310535206494933,0.002607,-0.000189,-0.002259,0.127920,-0.005999,324.347276,23.312887,0.999335,0.987461,0.004593,0.389755,-0.000013,-0.000004,0.000015,0.000007,-0.000024,53.393258,0.000024,
2356,3058,2.04575427502884,8.99338460809484,0.00863608271970406,0.002862,-0.001158,0.002219,0.123450,-0.035558,314.022494,25.284611,0.999642,0.993381,0.003330,0.366261,-0.000022,-0.000013,0.000004,-0.000011,-0.000023,68.333198,0.000035,
2281,2668,0.485115206058854,0.509760520568335,-0.0229608988790346,0.002888,-0.000687,-0.001303,0.136809,-0.031782,320.175242,24.409820,0.999684,0.991318,0.003871,0.274533,-0.000027,0.000010,0.000006,0.000011,-0.000028,80.437968,0.000028,
2461,2383,4.46359184147746,-5.7102617575471,-0.00254411600661797,0.002505,-0.000728,0.001316,0.109501,-0.008363,325.027232,23.234458,0.999650,0.987138,0.004716,0.340189,-0.000003,-0.000027,-0.000008,0.000000,-0.000030,-17.056254,0.000035,
2251,2533,-0.144327383071758,-2.43484719086339,-0.0266503375937077,0.002607,-0.000867,-0.000206,0.120094,-0.045849,322.365781,24.162019,0.999569,0.991869,0.003742,0.304656,-0.000034,-0.000012,0.000004,-0.000011,-0.000035,79.432708,0.000048,
2236,2503,-0.464988712615263,-3.09113830430307,-0.0191828139547283,0.002777,-0.000745,0.001016,0.124013,-0.021218,322.948391,24.062782,0.999493,0.987939,0.004258,0.410267,-0.000035,-0.000018,0.000009,-0.000014,-0.000039,65.927220,0.000055,
2191,2218,-1.39464931156265,-9.3232432406375,0.010316969854216,0.002603,-0.000871,0.001664,0.113921,-0.042962,327.901088,23.915491,0.998843,0.981767,0.005473,0.317309,-0.000006,0.000003,0.000006,0.000006,-0.000008,64.454053,0.000009,
2446,2158,4.18288972761274,-10.6407257079686,0.0153010170049015,0.002466,-0.000389,-0.001021,0.116471,-0.026897,328.792602,22.464158,0.999372,0.979588,0.005463,0.323948,-0.000017,-0.000013,0.000001,-0.000013,-0.000017,81.379383,0.000030,
2506,2728,5.3735179311354,1.82541947377405,-0.0217720640605421,0.002658,-0.000623,-0.003354,0.134666,-0.030587,319.401264,24.464138,0.999550,0.989663,0.003938,0.367741,-0.000031,-0.000004,-0.000003,-0.000004,-0.000031,-83.912718,0.000038,
2206,2278,-1.07773079948088,-8.00950417018982,0.0046306401920333,0.002898,-0.000672,-0.001197,0.136535,-0.020789,326.867112,23.906862,0.999046,0.983661,0.005034,0.351940,-0.000018,-0.000028,-0.000002,-0.000018,-0.000029,-10.306819,0.000047,
2431,2083,3.86957946345536,-12.2856929906018,0.0200660190033659,0.002412,-0.001693,0.007653,0.081472,-0.028749,329.979207,22.370975,0.998816,0.977731,0.006102,0.232959,-0.000018,-0.000021,0.000025,0.000006,-0.000045,43.558387,0.000049,
2326,2818,1.43632800430003,3.77632085064197,-0.0174851718574587,0.002376,-0.000809,0.000697,0.106511,-0.038562,317.711019,24.635244,0.999506,0.991574,0.003754,0.368330,-0.000024,-0.000009,0.000005,-0.000008,-0.000025,74.403285,0.000035,
2371,3088,2.36633169721678,9.64535715237489,0.0151164301658469,0.002571,-0.000958,0.000653,0.115561,-0.047042,313.581208,25.414835,0.999410,0.990526,0.003909,0.355672,-0.000015,-0.000003,0.000002,-0.000003,-0.000015,81.579989,0.000019,
2011,3073,-5.4417903620996,9.29240662995694,0.0225024136148591,0.003070,-0.000833,-0.000037,0.141585,-0.022000,315.042249,24.055540,0.999279,0.993607,0.003491,0.416339,0.000002,0.000010,0.000018,0.000024,-0.000013,51.310517,0.000024,
2266,2623,0.166297664254468,-0.472701952041739,-0.0239867586212199,0.002653,-0.001039,0.001330,0.117128,-0.040222,320.900167,24.224408,0.999438,0.988744,0.004201,0.379601,-0.000024,-0.000013,0.000010,-0.000007,-0.000030,59.363872,0.000039,
2041,3058,-4.78958899163571,8.9692828007691,0.0237469731866895,0.002915,-0.000982,0.003343,0.124898,-0.027504,315.091360,24.187244,0.999650,0.994367,0.003205,0.394534,-0.000020,-0.000005,0.000004,-0.000004,-0.000021,75.955271,0.000027,
2476,2443,4.7784261193735,-4.39813935599757,-0.00545169112001531,0.002423,-0.001004,0.002195,0.102254,-0.030215,324.058566,23.395549,0.999214,0.986434,0.004717,0.340903,-0.000003,-0.000029,0.000024,0.000011,-0.000043,31.282450,0.000045,
2296,2698,0.805685752917096,1.16295089080168,-0.0268999451777177,0.002849,-0.000800,-0.000685,0.132962,-0.031219,319.633973,24.341578,0.999782,0.992261,0.003568,0.397662,-0.000027,-0.000013,-0.000003,-0.000012,-0.000028,-78.976494,0.000041,
2086,3193,-3.83483920004943,11.8981459965212,0.0385375900704048,0.002840,-0.000752,0.000751,0.128686,-0.019011,312.763476,24.322260,0.999494,0.994213,0.003080,0.403351,-0.000021,0.000012,-0.000012,0.000016,-0.000024,-72.084411,0.000025,
2131,2008,-2.66715379532873,-13.9267327533249,0.028200277430301,0.002769,-0.000235,-0.003150,0.136239,-0.022152,331.655952,24.075510,0.999216,0.984873,0.005094,0.344418,-0.000023,-0.000081,0.000022,-0.000016,-0.000088,18.668357,0.000112,
2161,2053,-2.02035235999408,-12.9392204579769,0.0239920063626755,0.002830,-0.000584,0.000448,0.128136,-0.018193,330.777863,23.953115,0.999187,0.984119,0.004939,0.305493,-0.000016,-0.000028,0.000024,0.000003,-0.000046,37.853052,0.000052,
2026,3088,-5.1190641910312,9.61943652429778,0.0256642373532827,0.002941,-0.000864,0.000956,0.132870,-0.026529,314.718332,24.191574,0.999612,0.994708,0.003126,0.318247,-0.000021,0.000000,0.000008,0.000002,-0.000024,72.100508,0.000026,
2401,3223,2.99317362662066,12.5765736418244,0.0271612102200152,0.002673,-0.000828,-0.000336,0.123928,-0.040172,311.496396,25.907410,0.999491,0.992204,0.003547,0.380065,-0.000003,-0.000011,0.000009,0.000003,-0.000017,32.950355,0.000018,
2101,3133,-3.50026890035352,10.6001857434696,0.0265689604805743,0.003122,-0.000792,-0.001933,0.149409,-0.044032,313.588635,24.453310,0.999823,0.995684,0.002743,0.318423,-0.000008,-0.000002,0.000006,0.000002,-0.000011,57.625515,0.000012,
2491,2698,5.05160318549551,1.17208667721832,-0.0320211093484772,0.002517,-0.000636,-0.001730,0.121815,-0.033534,319.747574,24.385193,0.999694,0.990854,0.003785,0.323810,-0.000006,-0.000018,-0.000012,0.000001,-0.000025,-31.261948,0.000028,
2176,2218,-1.72208511272575,-9.32224364242045,0.00440306153348047,0.002440,-0.000790,0.000098,0.111369,-0.043011,327.895388,24.009184,0.998762,0.980211,0.005487,0.296338,-0.000004,0.000004,0.000010,0.000010,-0.000011,55.947447,0.000012,
2221,2338,-0.762865199537732,-6.69399939042948,-0.0248246206152203,0.003121,-0.000345,-0.002639,0.151548,-0.037090,325.629887,23.952071,0.999682,0.990212,0.004092,0.311425,-0.000019,-0.000023,0.000015,-0.000007,-0.000036,41.101095,0.000046,
2056,3163,-4.48020316703725,11.2460305014144,0.0332368003764145,0.002942,-0.000803,-0.000912,0.138107,-0.032927,313.382594,24.207523,0.999626,0.992571,0.003368,0.375056,-0.000028,0.000026,-0.000006,0.000027,-0.000029,-83.523053,0.000032,
2311,2758,1.12157520342995,2.46975467303866,-0.019084090158799,0.002897,-0.000528,0.000459,0.131450,-0.000499,318.708528,24.454245,0.999662,0.992303,0.003671,0.443305,-0.000028,-0.000005,0.000011,-0.000001,-0.000033,68.153327,0.000038,
2191,2233,-1.39698889892704,-8.99451718666913,0.00835497979073807,0.002760,-0.000809,-0.000654,0.128370,-0.050068,327.657488,23.954520,0.998914,0.982746,0.005281,0.288040,-0.000011,0.000001,0.000000,0.000001,-0.000011,89.509900,0.000012,
2386,3133,2.68482794139449,10.6230872137417,0.024370934991623,0.003018,-0.000954,0.000260,0.137608,-0.031208,312.951033,25.606729,0.999667,0.993512,0.003367,0.361956,-0.000003,0.000007,0.000007,0.000010,-0.000006,63.384891,0.000010,
2341,2983,1.73357193351395,7.36396271509857,-0.00150078099278517,0.003040,-0.000866,-0.000842,0.142440,-0.041852,315.183788,25.067266,0.999803,0.995426,0.002931,0.347191,-0.000025,-0.000014,0.000001,-0.000014,-0.000025,85.573081,0.000040,
2146,2068,-2.35028372567153,-12.6095808051921,0.0242248236544924,0.002579,-0.000486,0.001241,0.114324,-0.002282,330.579406,24.081717,0.998851,0.981288,0.005367,0.300804,-0.000011,-0.000037,0.000028,0.000007,-0.000055,32.796143,0.000060,
2011,3088,-5.44388988686779,9.61744909533963,0.0272351991659434,0.002906,-0.000807,-0.001478,0.137915,-0.027673,314.833694,24.063809,0.999606,0.995206,0.002993,0.389397,0.000000,0.000002,0.000015,0.000016,-0.000015,46.384624,0.000018,
2131,2023,-2.67035466280038,-13.5945722793414,0.0140034075390645,0.002968,-0.000374,-0.002091,0.142141,-0.023164,331.302294,24.203822,0.999093,0.984499,0.005217,0.224998,-0.000021,-0.000071,0.000019,-0.000015,-0.000077,18.706929,0.000099,
2506,2743,5.36904874385487,2.15433016929748,-0.033373613896174,0.002582,-0.000718,0.000133,0.117656,-0.022676,319.041513,24.605962,0.999725,0.990253,0.003811,0.295500,-0.000037,0.000012,-0.000005,0.000012,-0.000038,-84.732922,0.000039,
2476,2458,4.7757077663235,-4.07004630785659,-0.00576139681936638,0.002606,-0.000471,0.000021,0.119126,-0.019387,323.829279,23.457237,0.999269,0.987249,0.004580,0.348205,0.000003,-0.000025,0.000027,0.000020,-0.000041,31.131287,0.000041,
2071,3073,-4.14217308935174,9.29728920709067,0.0143585142395182,0.002758,-0.000781,-0.000138,0.127397,-0.026175,314.598698,24.277081,0.999402,0.992114,0.003571,0.404871,-0.000018,0.000002,-0.000001,0.000002,-0.000018,-86.677765,0.000019,
2026,3103,-5.12133245660108,9.94412194466457,0.0250474813436767,0.002940,-0.000739,-0.000646,0.137284,-0.018179,314.473150,24.123237,0.999613,0.994193,0.003226,0.384329,-0.000020,0.000009,0.000014,0.000014,-0.000026,68.282074,0.000026,
2236,2518,-0.467902727020967,-2.76301861932144,-0.0233301546792859,0.002672,-0.000657,-0.000528,0.124234,-0.030872,322.670862,24.130348,0.999429,0.988222,0.004238,0.355314,-0.000032,-0.000015,0.000012,-0.000009,-0.000039,63.084529,0.000050,
2251,2548,-0.146667203659561,-2.10881549346409,-0.0199423628345698,0.002636,-0.001090,0.002652,0.112045,-0.029431,322.171080,24.119442,0.999713,0.993679,0.003438,0.387926,-0.000028,-0.000010,0.000005,-0.000009,-0.000030,74.899553,0.000040,
2281,2683,0.48265426406531,0.83556380805566,-0.0250443555268021,0.003237,-0.000758,-0.001943,0.155000,-0.030418,319.932869,24.326860,0.999700,0.991838,0.003671,0.386928,-0.000027,0.000009,0.000001,0.000009,-0.000027,87.763458,0.000028,
2086,3208,-3.83695785901483,12.2227926257147,0.0423608267211648,0.002748,-0.000738,-0.001913,0.132093,-0.036368,312.553839,24.329466,0.999557,0.993910,0.003199,0.376334,-0.000020,0.000008,-0.000013,0.000014,-0.000025,-68.332526,0.000025,
2461,2398,4.46053159063979,-5.38281385697653,0.000112691161234579,0.002381,-0.000891,0.002859,0.097993,-0.017816,324.795025,23.265507,0.999617,0.986954,0.004654,0.355752,0.000001,-0.000020,-0.000005,0.000002,-0.000021,-14.077493,0.000023,
2041,3073,-4.79145395508118,9.2944582500374,0.0219075320122215,0.003348,-0.000772,0.000714,0.152285,-0.020727,314.858729,24.150104,0.999456,0.992575,0.003630,0.430322,-0.000017,0.000003,0.000002,0.000003,-0.000018,84.287350,0.000019,
2326,2833,1.43300576247318,4.10460749512876,-0.0286715545715879,0.002690,-0.000909,0.000555,0.121443,-0.032966,317.387110,24.754218,0.999839,0.993462,0.003426,0.289644,-0.000025,-0.000001,0.000005,0.000000,-0.000026,78.417802,0.000030,
2446,2173,4.18080403123115,-10.3117584102978,0.022388238065048,0.002927,-0.000572,0.000346,0.132402,-0.031308,328.625186,22.599898,0.999593,0.984201,0.004806,0.238443,-0.000026,0.000005,0.000004,0.000006,-0.000027,82.760596,0.000028,
2296,2713,0.80185102143945,1.49069615783307,-0.0381309600408599,0.002670,-0.000585,0.000478,0.120912,-0.018952,319.283827,24.361990,0.999759,0.993235,0.003479,0.420103,-0.000026,-0.000018,-0.000002,-0.000018,-0.000026,-76.459330,0.000045,
2356,3073,2.04353495763982,9.31895788409268,0.0109841791930876,0.003101,-0.000916,-0.000525,0.144206,-0.038376,313.817529,25.327552,0.999577,0.993323,0.003364,0.358341,-0.000019,-0.000008,0.000003,-0.000008,-0.000020,76.933974,0.000028,
2371,3103,2.36367455642804,9.97163573893543,0.0135761885301235,0.002649,-0.000704,-0.002718,0.131357,-0.031110,313.338088,25.487086,0.999457,0.990944,0.003801,0.339593,-0.000009,-0.000003,0.000004,-0.000001,-0.000011,61.423766,0.000013,
2056,3178,-4.48219421258452,11.5704906253051,0.0403846752071786,0.002940,-0.000795,-0.000183,0.136034,-0.022791,313.195410,24.182499,0.999681,0.994187,0.003116,0.403765,-0.000029,0.000021,-0.000010,0.000023,-0.000031,-78.897794,0.000033,
2101,3148,-3.50247737843417,10.9240429490441,0.0326609062131524,0.003108,-0.000797,0.000166,0.142567,-0.044325,313.388317,24.371555,0.999894,0.996745,0.002562,0.399817,-0.000010,0.000004,0.000006,0.000006,-0.000013,69.955870,0.000013,
2221,2353,-0.765096576028622,-6.36837522272269,-0.0140091586341669,0.003073,-0.001193,0.002588,0.132331,-0.041270,325.459603,23.874716,0.999450,0.988645,0.004371,0.404922,-0.000024,-0.000020,0.000014,-0.000008,-0.000036,49.862224,0.000047,
2206,2293,-1.07980228140923,-7.68100423842775,0.000174379488782961,0.003268,-0.000165,-0.007228,0.172751,-0.029398,326.624227,23.923564,0.999232,0.986207,0.004672,0.345404,-0.000017,-0.000027,0.000006,-0.000014,-0.000030,26.193176,0.000045,
2266,2638,0.163919015174312,-0.145768194577485,-0.0233101011725694,0.002900,-0.000913,0.001239,0.128833,-0.034324,320.674015,24.249528,0.999336,0.988061,0.004224,0.386537,-0.000024,-0.000007,0.000009,-0.000003,-0.000028,66.553686,0.000034,
2401,3238,2.9902806433484,12.902383006349,0.0207171163191333,0.003168,-0.000821,-0.000980,0.149086,-0.032707,311.221006,25.952529,0.999467,0.992569,0.003439,0.386740,-0.000004,-0.000014,0.000007,-0.000001,-0.000017,27.312032,0.000020,
2176,2233,-1.72444247225295,-8.99424673861276,0.00192684703796431,0.002668,-0.000986,-0.000932,0.124950,-0.045001,327.647060,23.971409,0.998853,0.982492,0.005155,0.346886,-0.000009,0.000001,0.000003,0.000002,-0.000010,74.236712,0.000011,
2491,2713,5.04844265464925,1.49838932707418,-0.0330175168368783,0.002733,-0.000790,0.000884,0.121679,-0.029908,319.494970,24.367267,0.999661,0.990097,0.004090,0.404504,-0.000016,-0.000012,-0.000009,-0.000005,-0.000023,-52.118167,0.000030,
2191,2248,-1.39919628283421,-8.66621687764515,0.00558084386369728,0.003012,-0.000296,-0.004241,0.151343,-0.042028,327.415712,23.936712,0.998800,0.983442,0.005199,0.330750,-0.000012,-0.000012,0.000002,-0.000010,-0.000014,49.515193,0.000024,
2161,2068,-2.02307654706161,-12.6109028571175,0.0259342870441515,0.002541,-0.000961,0.002268,0.109234,-0.025618,330.534708,23.936914,0.999392,0.984343,0.004953,0.327674,-0.000012,-0.000033,0.000025,0.000005,-0.000050,33.897468,0.000055,
2386,3148,2.68258706167647,10.948112835661,0.0276523001766122,0.003154,-0.000757,-0.003103,0.155991,-0.047544,312.751418,25.636611,0.999669,0.992816,0.003385,0.357999,-0.000003,0.000000,0.000006,0.000005,-0.000008,53.244966,0.000008,
2431,2098,3.86661350846057,-11.9560356597639,0.0188953510577221,0.002145,-0.000904,0.003019,0.086619,-0.018916,329.732431,22.440155,0.999510,0.980874,0.005719,0.226608,-0.000028,-0.000021,0.000015,-0.000009,-0.000040,50.668677,0.000052,
2131,2038,-2.67319095857729,-13.2672916431333,0.0151729246547916,0.002779,-0.001231,0.003263,0.117268,-0.048919,331.047711,24.092351,0.999153,0.984754,0.005246,0.320063,-0.000020,-0.000058,0.000024,-0.000009,-0.000069,25.782655,0.000085,
2146,2083,-2.35353300687334,-12.2788800550863,0.0116219234558912,0.002452,-0.000353,-0.000848,0.114863,-0.016032,330.233930,24.133879,0.998837,0.981729,0.005361,0.246466,-0.000010,-0.000032,0.000026,0.000007,-0.000049,33.656303,0.000053,
2476,2473,4.77142961186732,-3.74097478636531,-0.0212971453647128,0.002696,-0.000546,0.000164,0.122687,-0.019915,323.459178,23.484648,0.999506,0.990094,0.004130,0.378697,-0.000012,-0.000033,0.000018,-0.000001,-0.000043,29.993660,0.000051,
2506,2758,5.36557585223827,2.47995034833695,-0.0342780853657132,0.002463,-0.001184,0.002264,0.103783,-0.037821,318.776054,24.558833,0.999732,0.991253,0.003642,0.388734,-0.000027,0.000005,-0.000007,0.000007,-0.000028,-78.621357,0.000029,
2026,3118,-5.12387494839495,10.2695326543433,0.0248428126638487,0.002836,-0.000886,0.000975,0.127962,-0.033048,314.217465,24.151350,0.999715,0.994554,0.003090,0.330436,-0.000013,0.000023,0.000011,0.000026,-0.000016,74.288944,0.000026,
2461,2413,4.45858676056698,-5.05545553662537,0.0010418082371757,0.003114,-0.000572,-0.000433,0.144069,-0.012414,324.606039,23.261469,0.999547,0.987079,0.004649,0.421168,-0.000007,-0.000014,0.000003,-0.000005,-0.000015,22.255132,0.000021,
2296,2728,0.799750581640936,1.81670900314809,-0.0294619187510534,0.002724,-0.000874,0.001248,0.120649,-0.042299,319.112419,24.424668,0.999591,0.991650,0.003720,0.363909,-0.000024,-0.000018,0.000001,-0.000018,-0.000024,82.132938,0.000042,
2086,3223,-3.83924956752312,12.5477568939637,0.045349124463371,0.002756,-0.000565,-0.001112,0.130175,-0.034360,312.331580,24.345134,0.999540,0.993073,0.003434,0.360499,-0.000018,0.000013,-0.000016,0.000019,-0.000025,-67.072202,0.000026,
2041,3088,-4.79453344580724,9.620717260843,0.0187694987460532,0.002993,-0.001084,0.003720,0.127437,-0.025304,314.562796,24.220108,0.999670,0.994395,0.003081,0.346999,-0.000018,-0.000002,0.000004,-0.000001,-0.000019,77.425155,0.000022,
2071,3088,-4.14462430196151,9.6220349348675,0.0168971108403184,0.002738,-0.001147,0.002976,0.117483,-0.033082,314.365645,24.247383,0.999330,0.991382,0.003698,0.423244,-0.000017,-0.000003,0.000002,-0.000002,-0.000017,81.401487,0.000021,
2341,2998,1.7305936347715,7.6898255206793,0.00153428422066781,0.002819,-0.000842,0.001318,0.124775,-0.037343,314.946391,25.115308,0.999889,0.997337,0.002710,0.339423,-0.000024,-0.000019,0.000000,-0.000018,-0.000024,-86.041035,0.000043,
2011,3103,-5.44583865478203,9.94257697939655,0.0287937657708426,0.003097,-0.000797,-0.002671,0.150101,-0.012150,314.614162,24.042181,0.999600,0.995015,0.002996,0.413538,0.000000,0.000013,0.000023,0.000031,-0.000017,52.894971,0.000031,
2371,3118,2.36071321684113,10.2971347090287,0.0133904296301921,0.002762,-0.000755,-0.000358,0.128111,-0.032275,313.087659,25.517199,0.999647,0.992238,0.003573,0.348267,-0.000007,0.000002,0.000006,0.000005,-0.000009,64.337071,0.000009,
2311,2773,1.11936539065177,2.7960193639564,-0.0134746619100383,0.002858,-0.000440,-0.001896,0.137720,-0.016987,318.517709,24.519797,0.999605,0.992709,0.003623,0.393470,-0.000026,-0.000007,0.000007,-0.000004,-0.000028,71.403915,0.000035,
2101,3163,-3.50541463201098,11.2495615122533,0.0284400169598484,0.002927,-0.000930,0.000681,0.132728,-0.042477,313.097978,24.381837,0.999792,0.995492,0.002839,0.391509,-0.000013,0.000014,0.000001,0.000014,-0.000013,87.896922,0.000016,
2251,2563,-0.148867473697212,-1.78195875150213,-0.0199683096344074,0.002941,-0.000795,0.000643,0.132737,-0.034600,321.948610,24.118511,0.999618,0.991484,0.003738,0.407912,-0.000028,-0.000012,0.000001,-0.000012,-0.000028,86.624867,0.000041,
2281,2698,0.480005759131156,1.16204148054176,-0.0191973658372149,0.002955,-0.000834,-0.000806,0.138202,-0.036385,319.721279,24.382857,0.999830,0.993693,0.003378,0.353090,-0.000029,-0.000012,-0.000001,-0.000012,-0.000029,-86.912261,0.000042,
2356,3088,2.04058217107908,9.64455987695254,0.0161450828956617,0.002733,-0.000883,0.001167,0.121314,-0.036151,313.592333,25.389786,0.999569,0.992586,0.003488,0.336254,-0.000019,-0.000005,-0.000001,-0.000005,-0.000019,-86.709310,0.000025,
2236,2533,-0.469546515586508,-2.43654031047934,-0.0102993888880292,0.002835,-0.000529,0.001025,0.126723,-0.028235,322.539247,24.194072,0.999704,0.991659,0.003663,0.316053,-0.000030,-0.000015,0.000009,-0.000011,-0.000034,65.981859,0.000047,
2491,2728,5.04526840268541,1.82615463636662,-0.0339780549032866,0.002600,-0.000656,-0.000568,0.121229,-0.027351,319.241507,24.489837,0.999614,0.992013,0.003569,0.343565,-0.000026,-0.000006,-0.000006,-0.000004,-0.000028,-74.080745,0.000034,
2446,2188,4.17741289450196,-9.98301193619901,0.0228966392892858,0.002601,-0.000443,0.001594,0.112932,-0.010150,328.367550,22.625074,0.999662,0.986251,0.004624,0.289366,-0.000021,0.000005,0.000003,0.000005,-0.000021,84.252374,0.000022,
2326,2848,1.43085037948233,4.42909519435994,-0.0220578518720913,0.002746,-0.000708,-0.000443,0.127507,-0.035489,317.204879,24.670917,0.999772,0.992595,0.003542,0.404468,-0.000026,-0.000004,0.000002,-0.000004,-0.000026,84.415482,0.000032,
2506,2773,5.36329519507023,2.80654818005603,-0.0330126413419407,0.002824,-0.000787,-0.001878,0.136537,-0.039519,318.574847,24.609555,0.999698,0.991638,0.003663,0.397434,-0.000026,-0.000010,-0.000006,-0.000008,-0.000028,-70.657298,0.000038,
2476,2488,4.76938388673917,-3.41414122428888,-0.0173841588053278,0.002786,-0.000118,-0.006920,0.153872,-0.027294,323.280008,23.498611,0.999516,0.987428,0.004339,0.414782,-0.000006,-0.000029,0.000007,-0.000004,-0.000031,15.210919,0.000038,
2056,3193,-4.48479699527314,11.8958561109929,0.0383275281412807,0.002960,-0.000926,0.001565,0.131934,-0.029656,312.928926,24.206696,0.999582,0.993811,0.003196,0.366001,-0.000031,0.000018,-0.000019,0.000025,-0.000038,-71.266285,0.000038,
2401,3253,2.98614890770818,13.2285486616604,0.00999734058746071,0.003036,-0.000776,0.001825,0.132858,-0.028611,310.868083,26.014883,0.999514,0.992165,0.003492,0.372525,-0.000007,0.000000,0.000007,0.000004,-0.000012,59.048332,0.000012,
2221,2368,-0.767325303616357,-6.04013059122155,-0.006672275751896,0.002815,-0.001114,0.001092,0.125306,-0.044972,325.271134,24.006244,0.999575,0.989246,0.004300,0.290224,-0.000027,-0.000010,0.000011,-0.000005,-0.000032,64.584866,0.000040,
2131,2053,-2.67536964505954,-12.9381590332113,0.0188993480366548,0.002702,-0.001288,0.002598,0.115736,-0.060329,330.836381,24.168893,0.998778,0.981049,0.005448,0.241082,-0.000018,-0.000040,0.000025,-0.000001,-0.000057,33.643116,0.000066,
2146,2098,-2.35537018509367,-11.9508396744981,0.0143028531559821,0.002921,-0.000360,0.000218,0.133194,-0.025346,330.033994,24.113405,0.999216,0.983506,0.005096,0.268549,-0.000011,-0.000024,0.000027,0.000010,-0.000045,38.246418,0.000047,
2461,2428,4.45435516658783,-4.72657721618968,-0.0069533478304038,0.002647,-0.000276,0.000435,0.119524,-0.001252,324.271012,23.311945,0.999345,0.984934,0.004872,0.437822,-0.000009,-0.000008,0.000009,0.000000,-0.000017,47.096575,0.000020,
2041,3103,-4.79666078712478,9.94549830597948,0.0215880500498997,0.002837,-0.000591,0.000330,0.129847,-0.018211,314.344216,24.184221,0.999711,0.994689,0.002997,0.381241,-0.000018,0.000002,0.000008,0.000005,-0.000021,70.127651,0.000022,
2206,2308,-1.08261506092953,-7.35404053778768,0.00447388654350789,0.002831,-0.000492,-0.005404,0.146815,-0.028029,326.392705,23.883235,0.999035,0.985887,0.004695,0.405666,-0.000018,-0.000042,0.000005,-0.000017,-0.000043,11.701489,0.000062,
2086,3238,-3.84221315046529,12.8729548898038,0.0388508265950804,0.002781,-0.000832,0.001090,0.124978,-0.028612,312.026558,24.328416,0.999629,0.994150,0.003146,0.380549,-0.000018,0.000004,-0.000017,0.000014,-0.000027,-61.013294,0.000027,
2191,2263,-1.40274387233781,-8.33689890468632,0.000334446215447315,0.002547,-0.000283,-0.001350,0.120983,-0.025910,327.099578,23.984434,0.998952,0.982306,0.005263,0.316392,-0.000015,-0.000015,-0.000001,-0.000014,-0.000016,-33.227917,0.000030,
2266,2653,0.161184424808894,0.182282210407543,-0.0267961293457688,0.003072,-0.000843,0.000771,0.138329,-0.032325,320.410328,24.350692,0.999574,0.990277,0.003957,0.313593,-0.000023,0.000002,0.000012,0.000007,-0.000028,67.889564,0.000030,
2386,3163,2.67931533303851,11.2737319840793,0.0254550587592917,0.003095,-0.000823,-0.001345,0.146946,-0.042041,312.477967,25.670092,0.999550,0.991100,0.003724,0.372133,-0.000004,-0.000003,0.000006,0.000002,-0.000010,47.324458,0.000010,
2026,3133,-5.12573778320504,10.5944309990681,0.028398444922118,0.003059,-0.000699,0.000445,0.139842,-0.014922,314.014189,24.126432,0.999637,0.994034,0.003208,0.362727,-0.000010,0.000028,0.000010,0.000030,-0.000012,76.343579,0.000030,
2176,2248,-1.72697315777813,-8.66636686875719,0.00391797092453317,0.002488,-0.001053,-0.000983,0.116821,-0.046235,327.414105,23.973594,0.998869,0.981648,0.005268,0.358021,-0.000009,-0.000010,0.000007,-0.000003,-0.000016,42.315769,0.000021,
2476,2503,4.76651262574321,-3.08688080515689,-0.0133497726059204,0.002795,-0.000320,-0.004996,0.146915,-0.039962,323.063336,23.562570,0.999555,0.988381,0.004252,0.395790,0.000005,-0.000021,0.000009,0.000008,-0.000023,16.986285,0.000024,
2011,3118,-5.44841402876196,10.2680211211449,0.0251451100508007,0.003176,-0.000828,-0.000434,0.147564,-0.028761,314.336515,24.053077,0.999676,0.995429,0.002890,0.372957,0.000011,0.000030,0.000019,0.000042,-0.000001,58.053137,0.000048,
2296,2743,0.79825123055069,2.14297248462857,-0.0231045609856437,0.003366,-0.000510,-0.000454,0.156053,-0.030562,318.956979,24.460118,0.999415,0.990690,0.003921,0.370146,-0.000023,-0.000020,0.000002,-0.000019,-0.000024,63.324932,0.000043,
2071,3103,-4.14618064129456,9.94700233982429,0.0254561542212741,0.002893,-0.000898,0.000508,0.131777,-0.022616,314.206637,24.262088,0.999576,0.993004,0.003329,0.414881,-0.000016,-0.000003,0.000005,-0.000001,-0.000018,69.955236,0.000021,
2281,2713,0.477203326998463,1.48853286508487,-0.0189133856885633,0.002716,-0.000359,-0.002499,0.133108,-0.010662,319.474748,24.367149,0.999764,0.993170,0.003452,0.422576,-0.000026,-0.000017,0.000000,-0.000017,-0.000026,-89.477241,0.000043,
2446,2203,4.17359315568318,-9.6537049935439,0.0143766467406863,0.002308,0.000004,-0.000535,0.107636,0.005847,328.048717,22.617294,0.999683,0.985222,0.004731,0.368390,-0.000019,0.000003,-0.000002,0.000004,-0.000020,-84.459931,0.000021,
2491,2743,5.0418246079317,2.1532885915348,-0.0395060173566435,0.002503,-0.000496,-0.002887,0.125756,-0.025657,318.955110,24.523520,0.999711,0.991744,0.003620,0.370939,-0.000031,0.000008,-0.000008,0.000009,-0.000032,-78.393121,0.000033,
2506,2788,5.36039664545754,3.13333837186266,-0.0286987595337678,0.002786,-0.000788,-0.000423,0.129170,-0.038659,318.358694,24.703490,0.999605,0.991103,0.003820,0.365370,-0.000033,-0.000003,-0.000006,-0.000002,-0.000035,-79.360794,0.000041,
2056,3208,-4.48721767680776,12.220647652605,0.0415512990022648,0.002646,-0.000617,0.000199,0.121386,-0.022504,312.700242,24.198743,0.999575,0.993801,0.003170,0.374191,-0.000029,0.000015,-0.000021,0.000023,-0.000037,-68.214126,0.000038,
2101,3178,-3.5079756156533,11.5743782502735,0.0235489269029472,0.003060,-0.000745,-0.000467,0.142316,-0.027579,312.821534,24.314906,0.999834,0.995908,0.002699,0.473486,-0.000013,0.000011,-0.000001,0.000011,-0.000014,-87.277310,0.000014,
2431,2113,3.86462592668532,-11.6287351457781,0.02486387377661,0.002585,-0.000854,0.002350,0.109264,-0.027805,329.563707,22.396112,0.999456,0.979300,0.005770,0.314391,-0.000031,-0.000017,0.000012,-0.000011,-0.000038,60.623672,0.000051,
2341,3013,1.72812309936618,8.01519964567076,0.00379608067942172,0.002817,-0.000773,-0.001078,0.133073,-0.041713,314.728701,25.125628,0.999658,0.993166,0.003403,0.360528,-0.000024,-0.000018,0.000000,-0.000018,-0.000024,87.661642,0.000042,
2371,3133,2.3584414073439,10.6224397114996,0.0171431809789055,0.003026,-0.000965,-0.001004,0.142515,-0.033160,312.887881,25.557221,0.999610,0.992193,0.003580,0.347346,-0.000009,0.000004,0.000002,0.000004,-0.000009,82.132722,0.000009,
2161,2083,-2.02518493154523,-12.2805600852711,0.0237864170520083,0.002724,-0.000303,-0.002325,0.131881,-0.026492,330.297895,24.058689,0.999337,0.983852,0.005070,0.218312,-0.000009,-0.000028,0.000024,0.000007,-0.000044,34.174838,0.000047,
2311,2788,1.11661421826598,3.12156712344519,-0.0126879787753182,0.002761,-0.000613,-0.002574,0.135476,-0.033746,318.278427,24.486065,0.999641,0.994493,0.003387,0.442355,-0.000022,-0.000011,0.000006,-0.000009,-0.000025,66.399013,0.000035,
2251,2578,-0.151368274233445,-1.45502480331463,-0.0170713058925003,0.002896,-0.000915,0.000787,0.130140,-0.030641,321.727060,24.145883,0.999548,0.989439,0.004002,0.408334,-0.000028,-0.000009,0.000000,-0.000009,-0.000028,89.890278,0.000039,
2086,3253,-3.84421402992579,13.1973394876166,0.0427024431702421,0.003004,-0.000912,0.001477,0.134107,-0.029105,311.822626,24.305260,0.999739,0.995117,0.002932,0.400910,-0.000016,0.000000,-0.000021,0.000014,-0.000030,-55.438006,0.000030,
2401,3268,2.98150113523223,13.5549800864556,-0.00774232701752453,0.002633,-0.000702,0.000678,0.118529,-0.022964,310.457940,26.066837,0.999644,0.992391,0.003510,0.370235,-0.000008,0.000000,0.000008,0.000005,-0.000013,58.547791,0.000013,
2026,3148,-5.12772990357548,10.9185569999017,0.0350320518004423,0.003023,-0.000707,0.000794,0.137193,-0.014752,313.822561,24.070392,0.999675,0.994833,0.003059,0.407950,-0.000019,0.000036,0.000011,0.000038,-0.000021,79.540737,0.000038,
2131,2068,-2.67685733558347,-12.6086795793353,0.0222485710452247,0.003070,0.000116,-0.002127,0.147156,-0.007892,330.654204,24.214030,0.998235,0.976518,0.005978,0.256934,-0.000015,-0.000042,0.000028,0.000002,-0.000060,31.760447,0.000068,
2506,2803,5.35685444129522,3.46049230114745,-0.0314626925366497,0.002736,-0.000892,0.001389,0.119845,-0.029332,318.081080,24.771895,0.999184,0.986544,0.004820,0.367482,-0.000027,-0.000003,0.000000,-0.000003,-0.000027,-89.465983,0.000033,
2011,3133,-5.45080500340051,10.5933669833676,0.0234911211400117,0.003220,-0.000781,0.000057,0.148366,-0.012689,314.078584,24.039067,0.999649,0.994639,0.003047,0.390121,0.000015,0.000035,0.000014,0.000042,0.000008,62.025552,0.000054,
2356,3103,2.0377207668488,9.97096319369438,0.010957249453611,0.002845,-0.000435,-0.002466,0.139488,-0.018971,313.321020,25.449104,0.999641,0.992121,0.003603,0.332001,-0.000012,-0.000004,0.000002,-0.000004,-0.000012,76.295811,0.000017,
2191,2278,-1.40483327209911,-8.00872518552845,0.00113967734557718,0.002970,-0.000510,-0.000701,0.138293,-0.021663,326.881744,24.006364,0.998921,0.982585,0.005228,0.315465,-0.000017,-0.000024,-0.000005,-0.000014,-0.000027,-25.285748,0.000042,
2326,2863,1.42858171344233,4.75488548916824,-0.0187192404565621,0.002977,-0.001078,-0.001021,0.139970,-0.061407,317.001074,24.709881,0.999724,0.992210,0.003614,0.373561,-0.000028,-0.000001,-0.000001,-0.000001,-0.000028,-88.701158,0.000033,
2206,2323,-1.08531141240941,-7.02584636540722,0.00562338209800828,0.002926,-0.000478,-0.000808,0.136674,-0.019256,326.150019,23.921214,0.999101,0.985924,0.004552,0.395389,-0.000018,-0.000041,0.000008,-0.000016,-0.000043,17.892499,0.000061,
2236,2548,-0.473329956203731,-2.10867088688413,-0.0231534245023113,0.002648,-0.001003,0.001861,0.115273,-0.029912,322.177525,24.163236,0.999707,0.992488,0.003524,0.367650,-0.000024,-0.000010,0.000009,-0.000006,-0.000028,64.858613,0.000036,
2461,2443,4.45182992137795,-4.39924099200949,0.000166809244035449,0.002656,-0.000800,0.001507,0.115714,-0.022694,324.083572,23.401137,0.999140,0.985147,0.004847,0.382800,-0.000001,-0.000029,0.000017,0.000007,-0.000037,24.937388,0.000039,
2146,2113,-2.35709728230846,-11.6237280449274,0.0265126130429394,0.002648,0.000067,-0.002035,0.127599,-0.022208,329.889478,24.104493,0.999365,0.984180,0.005040,0.291020,-0.000009,-0.000030,0.000025,0.000008,-0.000047,33.764296,0.000050,
2491,2758,5.03937129697113,2.4785147634952,-0.0288122537311892,0.002674,-0.001032,0.002480,0.112768,-0.039088,318.787720,24.530277,0.999567,0.989267,0.003949,0.409312,-0.000023,0.000005,-0.000010,0.000008,-0.000026,-71.721006,0.000027,
2386,3178,2.67624383901988,11.5995774808738,0.0250024172312919,0.002980,-0.000623,-0.001116,0.140919,-0.027964,312.221905,25.730400,0.999565,0.992063,0.003511,0.368034,-0.000003,-0.000003,0.000007,0.000004,-0.000010,45.159189,0.000010,
2221,2383,-0.769789140809369,-5.7126508648748,-0.0106232206502455,0.002985,-0.000458,-0.002053,0.143419,-0.037463,325.014229,23.951913,0.999501,0.989124,0.004233,0.372677,-0.000028,-0.000006,0.000013,0.000000,-0.000034,65.607127,0.000039,
2401,3283,2.97832369136067,13.8803066171155,-0.0176992056484551,0.002961,-0.000686,-0.001980,0.143229,-0.040539,310.152697,26.088348,0.999691,0.992002,0.003594,0.375318,-0.000006,-0.000018,0.000005,-0.000004,-0.000020,19.247606,0.000026,
2071,3118,-4.14765294114564,10.2717339163616,0.0371123517839465,0.003118,-0.000846,0.000899,0.141081,-0.022093,314.068623,24.286954,0.999783,0.994322,0.002955,0.386214,-0.000016,0.000004,0.000004,0.000005,-0.000017,79.584668,0.000018,
2266,2668,0.158310935284906,0.508598607773621,-0.0277416097512742,0.002947,-0.000812,0.000771,0.132619,-0.021019,320.153384,24.309746,0.999599,0.991388,0.003787,0.391835,-0.000022,0.000002,0.000009,0.000005,-0.000025,72.131060,0.000026,
2446,2218,4.17023435521041,-9.32463231878569,0.00606597983374968,0.002487,-0.000377,-0.002403,0.122588,-0.025765,327.752141,22.644253,0.999460,0.984137,0.004984,0.364596,-0.000026,-0.000007,0.000001,-0.000006,-0.000026,86.106290,0.000034,
2476,2518,4.76349193878274,-2.75972180422424,-0.00731428632855113,0.002817,-0.001136,0.000834,0.125474,-0.049939,322.848795,23.636901,0.999348,0.985294,0.004547,0.369206,0.000002,-0.000025,0.000007,0.000004,-0.000027,13.321605,0.000029,
2086,3268,-3.84713244598155,13.5227941277996,0.0338917346566063,0.003067,-0.000906,0.001189,0.137894,-0.029881,311.506941,24.314478,0.999729,0.995772,0.002809,0.388548,-0.000016,0.000005,-0.000021,0.000018,-0.000029,-58.609623,0.000029,
2101,3193,-3.51013024577621,11.8992587929506,0.035682070486132,0.002785,-0.000950,0.002617,0.120543,-0.031063,312.656126,24.376429,0.999641,0.994333,0.003103,0.408394,-0.000015,0.000010,-0.000007,0.000011,-0.000017,-76.018092,0.000017,
2431,2128,3.8626119389037,-11.3002018044262,0.0324259871886738,0.002719,-0.000307,-0.000308,0.125407,-0.017462,329.400887,22.467181,0.999634,0.980484,0.005768,0.306183,-0.000030,-0.000018,0.000010,-0.000012,-0.000036,61.365036,0.000050,
2056,3223,-4.48948264033283,12.5452779691667,0.0428000709874254,0.002771,-0.000695,0.001431,0.123749,-0.011307,312.467865,24.163912,0.999589,0.993656,0.003129,0.413818,-0.000026,0.000017,-0.000023,0.000027,-0.000036,-66.137668,0.000038,
2281,2728,0.473764151320093,1.81550651078476,-0.023477190649885,0.002575,-0.000876,0.000898,0.115074,-0.021499,319.174715,24.397833,0.999720,0.992439,0.003508,0.409047,-0.000021,-0.000017,0.000003,-0.000016,-0.000022,63.169211,0.000038,
2311,2803,1.11284101908418,3.44952688338765,-0.020805332410589,0.002643,-0.000871,0.001100,0.117476,-0.019909,317.947595,24.579467,0.999412,0.991874,0.003796,0.395341,-0.000020,-0.000010,0.000008,-0.000005,-0.000025,60.579364,0.000032,
2161,2098,-2.02743907585903,-11.9524188679763,0.0244846384814537,0.003018,-0.000320,-0.000049,0.138396,-0.013301,330.069588,24.002752,0.999571,0.984314,0.004989,0.300634,-0.000007,-0.000017,0.000027,0.000015,-0.000040,39.823715,0.000040,
2011,3148,-5.45307504298969,10.9174228789597,0.0273979897856407,0.002990,-0.000872,-0.000589,0.139408,-0.026888,313.858074,23.974333,0.999653,0.993945,0.003271,0.427411,0.000003,0.000041,0.000011,0.000044,0.000000,74.511922,0.000051,
2371,3148,2.35599807079543,10.9476685529567,0.0219924823871906,0.003036,-0.000838,-0.001595,0.145116,-0.034287,312.685442,25.600538,0.999643,0.991372,0.003597,0.342860,-0.000009,-0.000001,0.000001,-0.000001,-0.000009,80.461090,0.000011,
2026,3163,-5.12982729340332,11.2435402131627,0.0374987400679743,0.003108,-0.000821,0.000694,0.141366,-0.020752,313.602484,24.077319,0.999649,0.994283,0.003184,0.384073,-0.000022,0.000038,0.000001,0.000038,-0.000022,89.450088,0.000038,
2296,2758,0.794928130820111,2.46974514834264,-0.029095665694058,0.003102,-0.000578,-0.002132,0.149619,-0.027114,318.656424,24.456973,0.999497,0.990631,0.003886,0.407239,-0.000023,-0.000008,0.000009,-0.000004,-0.000027,65.708098,0.000034,
2041,3118,-4.79892578968783,10.2702445308627,0.023527754845361,0.002948,-0.000784,0.002663,0.128381,-0.028976,314.114488,24.160994,0.999718,0.994776,0.002955,0.384972,-0.000016,0.000013,0.000005,0.000014,-0.000017,80.927507,0.000018,
2506,2818,5.35422031725133,3.78727823974005,-0.0288497974264033,0.002936,-0.000837,0.000837,0.131231,-0.016330,317.869296,24.848436,0.999398,0.989151,0.004222,0.364901,-0.000032,-0.000013,0.000008,-0.000010,-0.000035,69.245434,0.000048,
2071,3133,-4.1505116521612,10.5969084093899,0.0322607438114915,0.002943,-0.000912,0.000556,0.133867,-0.042271,313.776191,24.274255,0.999645,0.994353,0.002963,0.374303,-0.000015,0.000004,0.000002,0.000005,-0.000015,82.762741,0.000016,
2176,2263,-1.72923951330637,-8.33687438907751,0.00514238599419059,0.002534,-0.000287,-0.002480,0.123828,-0.017708,327.188804,24.090413,0.999046,0.981267,0.005398,0.284230,-0.000011,-0.000013,0.000003,-0.000009,-0.000015,37.072625,0.000025,
2341,3028,1.72568839744786,8.34126410899587,0.00991335011190131,0.002742,-0.000650,-0.001096,0.129739,-0.034704,314.531144,25.217541,0.999716,0.994224,0.003302,0.311388,-0.000022,-0.000020,-0.000002,-0.000019,-0.000024,-59.849588,0.000042,
2446,2233,4.16783088495403,-8.99660276503226,0.0148240859917905,0.002415,-0.000351,-0.001884,0.117413,-0.034534,327.577660,22.735808,0.999074,0.979652,0.005498,0.318560,-0.000023,-0.000012,0.000003,-0.000011,-0.000024,77.480426,0.000036,
2131,2083,-2.68039135456401,-12.2789089926683,0.00794314279886521,0.002946,-0.000360,-0.000866,0.137574,-0.041569,330.285202,24.182488,0.998733,0.979665,0.005594,0.264592,-0.000013,-0.000037,0.000026,0.000004,-0.000053,32.808026,0.000060,
2146,2128,-2.3593332093842,-11.2947042251023,0.025144339494318,0.002917,-0.000135,-0.002194,0.140387,-0.030526,329.649796,24.138316,0.999222,0.982322,0.005245,0.259929,-0.000011,-0.000032,0.000027,0.000008,-0.000051,34.097268,0.000055,
2386,3193,2.67414447441648,11.9244672972592,0.030571565702644,0.003346,-0.000759,-0.001091,0.157639,-0.036644,312.039581,25.764370,0.999497,0.992388,0.003395,0.367276,-0.000004,-0.000002,0.000007,0.000004,-0.000011,49.299189,0.000011,
2251,2593,-0.154289160939225,-1.12744192428102,-0.0230821083869159,0.002955,-0.000694,-0.000654,0.137659,-0.037843,321.441066,24.171093,0.999362,0.987339,0.004414,0.400271,-0.000024,-0.000023,-0.000004,-0.000020,-0.000028,-48.988377,0.000048,
2191,2293,-1.40749491497011,-7.68072455859804,-0.00172542932546094,0.002836,-0.000522,-0.003477,0.140826,-0.035020,326.618801,23.998291,0.998991,0.983930,0.005041,0.326677,-0.000017,-0.000027,0.000001,-0.000017,-0.000027,5.774371,0.000044,
2401,3298,2.97486566423445,14.2052925204575,-0.0235358929268727,0.003011,-0.000716,-0.000470,0.140069,-0.036965,309.854080,26.084565,0.999713,0.992970,0.003466,0.426387,-0.000002,-0.000030,0.000003,-0.000002,-0.000030,5.502297,0.000036,
2221,2398,-0.772349537157087,-5.38397666385895,-0.00608386361375324,0.002783,-0.000475,-0.000874,0.130393,-0.019719,324.796047,24.083435,0.999697,0.991761,0.003708,0.279518,-0.000027,-0.000010,0.000008,-0.000007,-0.000030,68.328623,0.000039,
2236,2563,-0.474694061071375,-1.78388170236491,-0.0112767530262659,0.003007,-0.000874,0.001191,0.133982,-0.027699,322.053224,24.070082,0.999699,0.992554,0.003462,0.484797,-0.000023,-0.000011,0.000005,-0.000009,-0.000025,69.029488,0.000036,
2491,2773,5.03636789987133,2.80645822641733,-0.0294350795888931,0.002575,-0.000419,-0.000248,0.118985,-0.004890,318.543269,24.653676,0.999237,0.987740,0.004241,0.379156,-0.000026,-0.000011,-0.000011,-0.000006,-0.000032,-62.556943,0.000041,
2356,3118,2.03540477599971,10.2953881911139,0.0177574439751993,0.002865,-0.000493,-0.002333,0.139869,-0.032686,313.133344,25.436075,0.999598,0.992279,0.003601,0.369144,-0.000011,0.000001,0.000003,0.000001,-0.000011,76.718737,0.000012,
2086,3283,-3.84994271165725,13.8474693413516,0.0338789911322124,0.002768,-0.001194,0.002210,0.120999,-0.049482,311.244622,24.323398,0.999609,0.995288,0.002913,0.357473,-0.000018,0.000004,-0.000015,0.000012,-0.000026,-63.281837,0.000026,
2206,2338,-1.08857357088662,-6.69633699878135,-0.00161447553563221,0.002679,-0.000365,-0.001512,0.127591,-0.025439,325.838034,24.016809,0.999532,0.988935,0.004261,0.312399,-0.000020,-0.000028,0.000011,-0.000012,-0.000036,35.200319,0.000050,
2056,3238,-4.49141647112829,12.8699413073853,0.0475669356778781,0.002934,-0.000884,0.001362,0.131375,-0.025289,312.270170,24.180599,0.999626,0.994566,0.003017,0.376307,-0.000023,0.000006,-0.000026,0.000022,-0.000038,-59.566290,0.000038,
2101,3208,-3.51202763529687,12.2247001623163,0.0411661427910985,0.002920,-0.000901,0.001406,0.130358,-0.033368,312.466248,24.451984,0.999638,0.994234,0.003140,0.330131,-0.000015,0.000006,-0.000008,0.000008,-0.000018,-71.659893,0.000018,
2461,2458,4.4490500887532,-4.07089272066012,0.000229963044034776,0.002607,-0.000150,-0.002071,0.127197,-0.010061,323.851891,23.487352,0.999431,0.986597,0.004587,0.365041,0.000003,-0.000026,0.000019,0.000013,-0.000036,26.393611,0.000036,
2431,2143,3.85804342386247,-10.9696649149005,0.0178803914154173,0.002600,-0.001061,0.003170,0.106868,-0.036910,329.018703,22.517951,0.999451,0.979960,0.005535,0.289694,-0.000029,-0.000012,0.000008,-0.000009,-0.000032,68.546082,0.000044,
2266,2683,0.155808449108239,0.835477353285924,-0.0300673470801485,0.003212,-0.000851,-0.000409,0.148700,-0.027925,319.906406,24.331851,0.999567,0.992443,0.003587,0.388730,-0.000023,0.000002,0.000002,0.000002,-0.000023,85.024817,0.000025,
2041,3133,-4.80050688938332,10.5952532167371,0.0285490953326075,0.003234,-0.000781,-0.000360,0.149989,-0.037125,313.933197,24.181791,0.999501,0.993073,0.003334,0.347482,-0.000016,0.000018,0.000004,0.000018,-0.000016,82.660127,0.000020,
2161,2113,-2.03028158646397,-11.6230127666338,0.0169470934774267,0.002935,-0.000244,-0.002987,0.143623,-0.027356,329.771148,24.005088,0.999298,0.982592,0.005249,0.297870,-0.000004,-0.000023,0.000027,0.000015,-0.000041,35.230691,0.000042,
2416,1993,3.56241202751763,-14.2649994254723,0.0436270953455846,0.002838,-0.000416,-0.001248,0.134134,-0.047514,331.655291,22.164823,0.999124,0.975108,0.006125,0.204917,-0.000004,-0.000113,0.000033,0.000006,-0.000122,15.596672,0.000138,
2326,2878,1.42607123980791,5.08085486060997,-0.0146829034617326,0.002984,-0.001012,-0.000655,0.139116,-0.046990,316.789408,24.734062,0.999593,0.991283,0.003740,0.397938,-0.000029,-0.000006,0.000001,-0.000006,-0.000029,86.989343,0.000038,
2476,2533,4.75999345095722,-2.43076822031281,-0.0149634480708869,0.002749,-0.000461,-0.002370,0.134798,-0.037755,322.549843,23.735225,0.999620,0.988526,0.004040,0.341063,0.000004,-0.000019,0.000005,0.000005,-0.000020,12.175611,0.000021,
2281,2743,0.471366475257454,2.14196286231518,-0.0218952965418566,0.002865,-0.000971,0.002138,0.124227,-0.030621,318.953259,24.433255,0.999489,0.990570,0.003829,0.392599,-0.000020,-0.000020,0.000004,-0.000016,-0.000024,43.449698,0.000041,
2026,3178,-5.13213117813506,11.5679457291861,0.0397951119173854,0.002850,-0.000901,-0.001870,0.136481,-0.037941,313.372244,24.044710,0.999711,0.993742,0.003176,0.388385,-0.000025,0.000030,-0.000006,0.000031,-0.000025,-84.003171,0.000033,
2371,3163,2.35305610526017,11.2725551063286,0.0250817357251663,0.002757,-0.000882,-0.001248,0.131060,-0.028626,312.451657,25.598219,0.999569,0.991525,0.003676,0.390614,-0.000009,-0.000005,0.000001,-0.000005,-0.000009,75.760890,0.000014,
2296,2773,0.792403581075686,2.79623644698904,-0.0277541708013018,0.003044,-0.000572,-0.004501,0.154968,-0.040612,318.428961,24.507481,0.999472,0.989281,0.004078,0.373320,-0.000020,-0.000007,0.000006,-0.000004,-0.000023,68.007221,0.000029,
2086,3298,-3.85333862426541,14.1729990343651,0.0198002839078981,0.002557,-0.000826,-0.000190,0.118329,-0.038803,310.878155,24.309111,0.999564,0.994654,0.003038,0.379808,-0.000022,0.000014,-0.000019,0.000022,-0.000030,-66.685123,0.000031,
2071,3148,-4.15285020272589,10.922137727295,0.0332785231451567,0.002906,-0.000615,-0.000071,0.134118,-0.020571,313.539827,24.265060,0.999780,0.996136,0.002630,0.401188,-0.000021,0.000011,0.000002,0.000011,-0.000021,86.457444,0.000021,
2176,2278,-1.73119250126037,-8.01029633682277,0.0072965843505699,0.003033,-0.000942,-0.000820,0.141408,-0.044896,326.983460,24.010975,0.998839,0.981549,0.005397,0.350737,-0.000013,-0.000024,-0.000002,-0.000013,-0.000024,-8.256238,0.000037,
2056,3253,-4.49395584064353,13.1953125525067,0.0446495506888596,0.002864,-0.000856,-0.000373,0.133021,-0.036658,312.001896,24.220147,0.999761,0.995537,0.002888,0.318496,-0.000018,0.000006,-0.000029,0.000025,-0.000037,-56.068207,0.000038,
2341,3043,1.72247887224377,8.66636422923947,0.00456311078193039,0.002735,-0.000634,-0.001469,0.130724,-0.034291,314.242416,25.155208,0.999671,0.993327,0.003380,0.410034,-0.000023,-0.000015,-0.000001,-0.000015,-0.000023,-79.727988,0.000038,
2011,3163,-5.45482699989958,11.2423781014332,0.0374967001257573,0.002948,-0.000774,-0.000666,0.137667,-0.035821,313.695880,24.027524,0.999537,0.994039,0.003320,0.351947,-0.000004,0.000039,-0.000002,0.000039,-0.000004,-87.068431,0.000043,
2506,2833,5.35155714739708,4.11304213158965,-0.0213257357572161,0.002611,-0.000586,-0.000582,0.121867,-0.020588,317.678322,24.889338,0.999578,0.990509,0.003910,0.380544,-0.000023,-0.000001,0.000015,0.000007,-0.000031,62.866239,0.000032,
2146,2143,-2.36300907880175,-10.9655084781379,0.0119764243925147,0.002661,-0.000341,-0.000299,0.122824,-0.015400,329.281858,24.043576,0.999395,0.981838,0.005259,0.381054,-0.000015,-0.000021,0.000027,0.000010,-0.000046,41.977411,0.000048,
2311,2818,1.10999080999165,3.77648116426593,-0.0219770639065473,0.002508,-0.000644,-0.000804,0.117814,-0.034217,317.693636,24.666891,0.999467,0.990408,0.003935,0.325536,-0.000023,-0.000009,0.000007,-0.000005,-0.000026,67.260093,0.000034,
2101,1993,-3.31873805594828,-14.2541004735847,0.033725628180207,0.002834,0.000131,-0.005166,0.144986,-0.028376,332.080070,24.435554,0.999662,0.990393,0.004299,0.179041,-0.000002,-0.000126,0.000026,0.000004,-0.000131,11.526520,0.000149,
2416,2008,3.55950141641743,-13.9372450155278,0.0435928459327783,0.002797,-0.000605,-0.002092,0.135290,-0.059774,331.415672,22.060223,0.999099,0.972926,0.006298,0.348586,-0.000008,-0.000099,0.000038,0.000006,-0.000113,19.855712,0.000127,
2446,2248,4.16482166198198,-8.6674561533198,0.0117833420944748,0.002695,-0.000558,-0.001533,0.128836,-0.021644,327.320938,22.790736,0.999113,0.979753,0.005453,0.331241,-0.000020,-0.000014,0.000002,-0.000013,-0.000021,72.781600,0.000034,
2131,2098,-2.68238063115306,-11.9489977739448,0.00467530563020091,0.003545,-0.000237,-0.001189,0.166068,-0.015254,330.045025,24.231884,0.999093,0.983802,0.004996,0.250333,-0.000012,-0.000026,0.000028,0.000010,-0.000048,37.988190,0.000051,
2011,3178,-5.45694412790062,11.5668415853512,0.0401102704380492,0.002949,-0.000865,-0.001369,0.139615,-0.041041,313.475005,23.989834,0.999766,0.995479,0.002738,0.371465,-0.000006,0.000025,-0.000011,0.000029,-0.000010,-72.164963,0.000029,
2386,3208,2.67065229498408,12.2496369208376,0.0284322498589518,0.002987,-0.000934,-0.000287,0.138147,-0.044868,311.756210,25.782258,0.999499,0.992592,0.003478,0.383017,-0.000003,-0.000009,0.000006,0.000001,-0.000013,33.136462,0.000014,
2251,2608,-0.15668403592716,-0.800690618605003,-0.020905333215012,0.003069,-0.000734,-0.000491,0.142330,-0.042812,321.220742,24.193663,0.999251,0.985797,0.004664,0.396845,-0.000025,-0.000024,0.000002,-0.000023,-0.000026,45.368482,0.000049,
2026,3193,-5.13454219684662,11.8927968729684,0.0451983883438629,0.002665,-0.000992,0.001612,0.118350,-0.027743,313.154322,24.047590,0.999653,0.993355,0.003229,0.384680,-0.000026,0.000028,-0.000014,0.000031,-0.000030,-76.348746,0.000035,
2356,3133,2.03269794868897,10.620842974015,0.0223612816683953,0.002891,-0.000832,0.000697,0.130355,-0.023841,312.916672,25.484979,0.999482,0.991650,0.003784,0.366611,-0.000013,0.000003,-0.000001,0.000003,-0.000013,-86.334676,0.000014,
2101,3223,-3.51414930378816,12.548903369366,0.0465084492125243,0.002995,-0.000982,0.002611,0.130221,-0.036612,312.265798,24.416640,0.999629,0.994208,0.003169,0.362174,-0.000014,0.000010,-0.000010,0.000014,-0.000018,-69.820179,0.000019,
2056,3268,-4.49672424048451,13.5196439563186,0.0424212286279726,0.002749,-0.001082,0.001553,0.122239,-0.037150,311.727348,24.161011,0.999739,0.995500,0.002832,0.370269,-0.000016,0.000008,-0.000025,0.000024,-0.000032,-57.773671,0.000033,
2041,3148,-4.80279267303546,10.9194992943223,0.0389813838995678,0.002903,-0.000859,0.003465,0.124040,-0.028898,313.749992,24.152232,0.999655,0.993972,0.003214,0.376347,-0.000024,0.000026,0.000005,0.000027,-0.000025,84.079309,0.000030,
2431,2158,3.85604267558337,-10.6427040645502,0.0259587473329361,0.002422,-0.000513,-0.002844,0.121076,-0.048934,328.859005,22.483451,0.999456,0.979588,0.005471,0.364408,-0.000030,-0.000012,0.000004,-0.000011,-0.000030,77.913227,0.000043,
2491,2788,5.03333425915136,3.13302401066486,-0.0273512723610452,0.002615,-0.000949,0.001783,0.112810,-0.032258,318.309962,24.737516,0.999418,0.987782,0.004184,0.326813,-0.000033,-0.000007,-0.000012,-0.000002,-0.000037,-68.210693,0.000045,
2236,2578,-0.47793161071851,-1.4550348012428,-0.0215421814406227,0.003035,-0.000733,-0.000126,0.139624,-0.030017,321.729400,24.163365,0.999482,0.989564,0.004000,0.411432,-0.000025,-0.000008,0.000004,-0.000007,-0.000026,76.527456,0.000035,
2071,3163,-4.15529245162761,11.2476854089247,0.0362575140909485,0.002748,-0.000732,0.000921,0.123902,-0.031860,313.309394,24.333536,0.999760,0.995208,0.002865,0.316624,-0.000021,0.000021,-0.000005,0.000021,-0.000022,-83.363388,0.000025,
2221,2413,-0.774812412405023,-5.05710611495969,-0.00278946354552545,0.002835,-0.000830,0.001440,0.125299,-0.011102,324.576335,24.051569,0.999673,0.991403,0.003805,0.340387,-0.000027,-0.000021,0.000000,-0.000021,-0.000027,-87.830206,0.000048,
2476,2548,4.75678693702445,-2.10359317133615,-0.0162489520358804,0.002597,-0.000294,-0.003621,0.132675,-0.038175,322.293390,23.745370,0.999586,0.987732,0.004250,0.388172,0.000001,-0.000026,0.000002,0.000001,-0.000026,4.123307,0.000029,
2371,3178,2.34970901729393,11.5980959001941,0.0234655573580653,0.002552,-0.000866,0.000529,0.115270,-0.030699,312.176357,25.639509,0.999620,0.991847,0.003506,0.387212,-0.000008,-0.000005,0.000002,-0.000004,-0.000009,68.062956,0.000013,
2506,2848,5.3485130541531,4.44012244654208,-0.0193986391988688,0.002590,-0.000846,0.000379,0.117109,-0.023956,317.444388,25.011975,0.999674,0.992720,0.003464,0.315440,-0.000018,0.000002,0.000012,0.000008,-0.000024,65.435952,0.000024,
2101,2008,-3.32087533960722,-13.9283754079649,0.0413699099825067,0.002940,-0.000953,0.001578,0.129920,-0.045592,331.889898,24.234656,0.999665,0.991443,0.004281,0.367491,-0.000017,-0.000094,0.000017,-0.000014,-0.000097,11.720874,0.000121,
2191,2308,-1.41031704773242,-7.35377578248618,0.00407514543087473,0.002436,-0.000953,0.000910,0.108623,-0.022262,326.393489,23.960116,0.998832,0.983794,0.005114,0.394196,-0.000016,-0.000043,-0.000001,-0.000016,-0.000043,-2.455727,0.000061,
2296,2788,0.789368059628234,3.12245981866813,-0.0229262478507053,0.002714,-0.000761,-0.000165,0.125088,-0.018102,318.195272,24.528844,0.999362,0.990065,0.004010,0.404316,-0.000016,-0.000011,0.000006,-0.000008,-0.000020,57.055946,0.000029,
2461,2473,4.44521659714535,-3.74270342379683,-0.0056454443227949,0.002503,-0.000640,0.000485,0.112646,-0.024236,323.544748,23.536082,0.999494,0.987622,0.004435,0.358266,-0.000010,-0.000035,0.000014,-0.000004,-0.000041,23.615723,0.000050,
2101,3238,-3.51693635378335,12.873934717628,0.042143123703795,0.002952,-0.000941,0.002649,0.128184,-0.029028,311.981778,24.395028,0.999684,0.994672,0.003006,0.391286,-0.000013,0.000003,-0.000011,0.000009,-0.000019,-62.247891,0.000019,
2206,2353,-1.09131003748204,-6.36941381669638,-0.0010171705259836,0.002604,-0.000686,0.000700,0.117058,-0.019678,325.590874,23.946644,0.999672,0.989802,0.004159,0.407051,-0.000025,-0.000023,0.000010,-0.000014,-0.000034,47.955622,0.000049,
2281,2758,0.468024311682921,2.46894500043923,-0.0265135048942398,0.002675,-0.001177,0.003472,0.110968,-0.025761,318.657274,24.458476,0.999440,0.990248,0.003874,0.400100,-0.000020,-0.000011,0.000010,-0.000004,-0.000026,57.518406,0.000033,
2326,2893,1.42328136186964,5.40747631983528,-0.0163778223283089,0.002993,-0.000904,-0.002342,0.145385,-0.049528,316.536655,24.797253,0.999393,0.990746,0.003822,0.366332,-0.000027,-0.000011,0.000005,-0.000010,-0.000028,74.286149,0.000040,
2011,3193,-5.45918554969617,11.8918577360642,0.0393613279573515,0.003126,-0.000826,-0.000415,0.145221,-0.036827,313.229292,23.977385,0.999751,0.995554,0.002680,0.374714,-0.000006,0.000023,-0.000019,0.000033,-0.000015,-63.930142,0.000033,
2416,2023,3.55461601754493,-13.6037812808381,0.0324668128977237,0.002035,-0.000643,0.001010,0.089123,-0.035325,331.033361,22.319922,0.998849,0.974860,0.006099,0.165673,-0.000008,-0.000070,0.000028,0.000003,-0.000081,20.646283,0.000092,
2341,3058,1.71942675785117,8.99159131076483,0.00178085383981852,0.002703,-0.001005,-0.001707,0.129966,-0.045712,313.973337,25.137835,0.999641,0.994261,0.003167,0.451736,-0.000025,-0.000015,0.000003,-0.000014,-0.000025,74.557088,0.000040,
2356,3148,2.03016859139102,10.945767215009,0.0254818628434919,0.002961,-0.001176,0.000511,0.134017,-0.050660,312.701144,25.514788,0.999512,0.992057,0.003705,0.347446,-0.000013,0.000000,-0.000001,0.000000,-0.000014,-85.961178,0.000015,
2266,2698,0.153438765474018,1.16193543664387,-0.0261597287707218,0.003070,-0.000593,-0.002795,0.150180,-0.023218,319.696886,24.359617,0.999674,0.992707,0.003496,0.391460,-0.000025,-0.000016,0.000000,-0.000016,-0.000025,88.090001,0.000041,
2146,2158,-2.36559416768563,-10.6352822707347,0.00808614391888796,0.002728,-0.000657,-0.000962,0.127821,-0.039165,329.012746,24.187516,0.999719,0.965941,0.006418,0.224197,-0.000013,-0.000025,0.000024,0.000006,-0.000044,38.258611,0.000048,
2041,3163,-4.80533635810457,11.2445323207795,0.0345719193731497,0.002951,-0.000995,0.002874,0.127880,-0.034376,313.472122,24.122096,0.999663,0.993592,0.003313,0.392337,-0.000026,0.000033,-0.000003,0.000033,-0.000027,-87.461863,0.000035,
2056,3283,-4.49953131672047,13.8445774964694,0.0331608551181262,0.002835,-0.000840,0.000302,0.129832,-0.028767,311.411866,24.114252,0.999758,0.995729,0.002775,0.418699,-0.000019,0.000007,-0.000015,0.000014,-0.000025,-65.733112,0.000025,
2131,2113,-2.68519911345828,-11.6216521203818,0.0108331164862534,0.002849,-0.000765,0.000935,0.127636,-0.029864,329.817681,24.196806,0.999132,0.983714,0.005069,0.279466,-0.000009,-0.000031,0.000026,0.000009,-0.000049,33.744428,0.000052,
2446,2263,4.16219964360707,-8.3385348907677,0.0124747315152831,0.002983,-0.000604,-0.002072,0.144032,-0.016420,327.099098,22.876381,0.999040,0.979490,0.005589,0.305276,-0.000022,-0.000030,-0.000006,-0.000019,-0.000033,-27.866686,0.000052,
2491,2803,5.03059226162592,3.45965506951116,-0.0301485555902445,0.003002,-0.000781,-0.000367,0.138859,-0.040664,318.067945,24.774926,0.999385,0.986946,0.004466,0.339772,-0.000025,-0.000008,-0.000007,-0.000006,-0.000027,-70.329646,0.000035,
2386,3223,2.66709267592519,12.5756130934464,0.0249687071347466,0.002647,-0.000918,0.000268,0.120522,-0.044793,311.463070,25.862806,0.999576,0.993246,0.003309,0.344407,-0.000003,-0.000012,0.000008,0.000001,-0.000016,30.342101,0.000018,
2476,2563,4.75372407212346,-1.77478666570233,-0.0205359447805904,0.003307,-0.000328,0.000610,0.149189,0.001514,322.029445,23.843603,0.998670,0.983022,0.005114,0.387445,0.000000,-0.000022,0.000005,0.000001,-0.000023,13.345200,0.000026,
2161,2128,-2.03367187774372,-11.2937128391613,0.00925428527892791,0.002655,-0.000359,-0.000853,0.124228,-0.017968,329.446729,23.979245,0.999235,0.981439,0.005405,0.346587,-0.000004,-0.000025,0.000029,0.000017,-0.000046,35.291288,0.000046,
2071,3178,-4.15753592721157,11.5723419860897,0.0363078576992848,0.002866,-0.000656,0.000241,0.131401,-0.022818,313.072336,24.285756,0.999805,0.996424,0.002670,0.369215,-0.000021,0.000017,-0.000008,0.000018,-0.000023,-78.796133,0.000024,
2101,3253,-3.5193755684327,13.1997558424307,0.0373191517677469,0.003157,-0.000674,0.000628,0.143751,-0.013476,311.710925,24.440002,0.999739,0.995690,0.002788,0.361628,-0.000011,-0.000003,-0.000014,0.000008,-0.000022,-53.165458,0.000022,
2176,2293,-1.73384261223509,-7.68118361230335,0.00620433230369599,0.002908,-0.000645,-0.001526,0.137979,-0.025642,326.728604,24.089089,0.998979,0.983137,0.005151,0.306577,-0.000016,-0.000026,0.000003,-0.000015,-0.000027,15.436632,0.000042,
2371,3193,2.34753861538637,11.9230820358686,0.0298850074966595,0.002754,-0.000968,0.000449,0.124803,-0.041928,311.993954,25.689820,0.999538,0.992221,0.003519,0.365171,-0.000009,-0.000003,0.000002,-0.000003,-0.000009,69.320552,0.000013,
2011,3208,-5.46144776411618,12.2171674068983,0.0381503306302307,0.003125,-0.000425,-0.002624,0.151321,-0.022649,312.979925,23.983279,0.999618,0.994070,0.003101,0.369737,-0.000002,0.000024,-0.000020,0.000035,-0.000013,-61.565083,0.000035,
2506,2863,5.34461900743703,4.76653980408949,-0.0278777510291661,0.002664,-0.001001,0.002167,0.113536,-0.024380,317.124823,24.997703,0.999689,0.992876,0.003466,0.390124,-0.000024,-0.000002,0.000010,0.000002,-0.000028,69.534790,0.000031,
2056,3298,-4.50227386574739,14.1701089056223,0.0251667453364348,0.002955,-0.000435,-0.000215,0.136962,-0.017771,311.106107,24.131751,0.999577,0.994221,0.003078,0.405182,-0.000026,0.000021,-0.000015,0.000026,-0.000030,-73.347941,0.000033,
2431,2173,3.852678691337,-10.3127301710996,0.0225890832604136,0.002439,-0.000848,-0.001374,0.116341,-0.066535,328.583575,22.612597,0.999419,0.982827,0.004991,0.270378,-0.000038,0.000003,0.000007,0.000004,-0.000039,80.702833,0.000043,
2041,3178,-4.80770343930493,11.5691797799797,0.0332693188087205,0.002850,-0.000829,0.000008,0.131246,-0.038803,313.219805,24.078284,0.999710,0.993942,0.003230,0.422922,-0.000031,0.000028,-0.000008,0.000029,-0.000032,-82.200097,0.000036,
2311,2833,1.10807047428601,4.10229919426281,-0.0110879623311462,0.002588,-0.000757,-0.000201,0.119429,-0.024177,317.542027,24.721032,0.999698,0.992507,0.003607,0.313335,-0.000026,0.000000,0.000009,0.000002,-0.000028,72.976038,0.000031,
2461,2488,4.44297074200477,-3.41531223927655,-0.00755065161172297,0.003133,-0.000433,-0.003251,0.155651,-0.027855,323.328657,23.542892,0.999536,0.985983,0.004594,0.403242,-0.000004,-0.000031,0.000003,-0.000004,-0.000031,5.426761,0.000038,
2251,2623,-0.159035302526949,-0.474132472366897,-0.0167119539905229,0.003153,-0.000918,0.000660,0.142422,-0.034012,321.012595,24.206344,0.999229,0.986944,0.004461,0.416663,-0.000027,-0.000015,0.000003,-0.000014,-0.000028,76.261467,0.000042,
2101,2023,-3.32411635459972,-13.5958502070495,0.0261725237814971,0.002958,-0.000411,0.000771,0.133252,-0.027860,331.525288,24.364682,0.999311,0.986578,0.005045,0.260690,-0.000018,-0.000094,0.000015,-0.000015,-0.000097,10.741714,0.000122,
2236,2593,-0.480313426994794,-1.12839230860506,-0.018362843792886,0.002954,-0.000615,-0.001512,0.140424,-0.029062,321.513709,24.173833,0.999424,0.987026,0.004471,0.423729,-0.000023,-0.000019,0.000002,-0.000018,-0.000023,69.791754,0.000042,
2341,3073,1.71684462978273,9.31830851166219,0.00340208919567431,0.002774,-0.000900,-0.002424,0.135813,-0.037490,313.746766,25.270809,0.999647,0.994315,0.003111,0.362618,-0.000022,-0.000011,0.000002,-0.000011,-0.000022,82.181512,0.000034,
2026,3208,-5.13656725048771,12.2177632675119,0.0459116233163854,0.002842,-0.000649,-0.000022,0.131106,-0.023302,312.927832,24.042637,0.999576,0.993634,0.003204,0.382902,-0.000026,0.000025,-0.000017,0.000030,-0.000031,-73.231186,0.000035,
2416,2038,3.55097204189792,-13.2751298256796,0.026143373970001,0.002037,-0.000949,0.003486,0.080051,-0.024815,330.730548,22.215642,0.998844,0.975044,0.006084,0.332098,-0.000010,-0.000068,0.000025,-0.000001,-0.000077,20.189710,0.000089,
2296,2803,0.78611602917147,3.44979198308712,-0.0295825684249849,0.002650,-0.000827,-0.000839,0.124432,-0.017442,317.894390,24.589377,0.999193,0.989285,0.004159,0.374528,-0.000015,-0.000012,0.000008,-0.000005,-0.000022,50.041187,0.000029,
2221,2428,-0.776598828756146,-4.73261246303728,0.00342515570901014,0.002782,0.000043,-0.004213,0.141195,-0.031896,324.403145,23.863418,0.999674,0.990666,0.003953,0.527655,-0.000023,-0.000031,0.000002,-0.000022,-0.000031,10.563511,0.000054,
2206,2368,-1.09409771592181,-6.04087277025198,-0.00397099066395867,0.002691,-0.000816,0.002296,0.116014,-0.018226,325.322761,23.999197,0.999525,0.988523,0.004347,0.374562,-0.000026,-0.000009,0.000010,-0.000005,-0.000031,65.905122,0.000039,
2191,2323,-1.4125238990914,-7.02533891973496,0.000597567958777745,0.002750,-0.000296,-0.002596,0.134244,-0.020861,326.148002,23.981446,0.999089,0.985680,0.004767,0.390858,-0.000015,-0.000040,0.000001,-0.000015,-0.000040,3.159128,0.000057,
2281,2773,0.465774730486572,2.79508620303535,-0.0203027129168731,0.002566,-0.001096,0.001845,0.111427,-0.031410,318.465730,24.506655,0.999310,0.988750,0.004145,0.373987,-0.000017,-0.000008,0.000009,-0.000003,-0.000023,57.984008,0.000028,
2386,3238,2.66346343589291,12.9014348291303,0.0101572514214467,0.002859,-0.000931,-0.002608,0.140628,-0.051078,311.112586,25.875540,0.999636,0.993267,0.003227,0.367416,-0.000004,-0.000015,0.000006,-0.000001,-0.000018,24.463561,0.000021,
2071,1993,-3.97484249011391,-14.2528164807722,0.0273154952278674,0.002040,-0.000503,0.003755,0.082704,0.001637,332.111848,24.586505,0.998790,0.979609,0.005615,0.269107,0.000006,-0.000132,0.000053,0.000024,-0.000150,18.864730,0.000162,
2071,3193,-4.16000050951026,11.8974445642357,0.0369763348421088,0.002865,-0.000866,0.001747,0.126978,-0.028270,312.828378,24.300940,0.999609,0.994642,0.003022,0.344030,-0.000022,0.000015,-0.000015,0.000020,-0.000027,-70.589333,0.000028,
2446,2278,4.1588976560478,-8.00950103909276,0.00985396099508762,0.002828,-0.000432,-0.003007,0.140466,-0.033632,326.830867,22.966416,0.999282,0.980172,0.005450,0.252504,-0.000022,-0.000024,0.000001,-0.000022,-0.000025,15.933199,0.000046,
2476,2578,4.75012606157657,-1.44713026987587,-0.0222149381446002,0.002864,-0.000518,0.000096,0.130758,-0.013130,321.752999,23.918906,0.998407,0.984389,0.005090,0.354948,0.000001,-0.000009,0.000007,0.000004,-0.000012,26.068868,0.000012,
2011,3223,-5.46417568067086,12.5424827812142,0.0361257194334712,0.002985,-0.000754,-0.000180,0.138201,-0.017399,312.704634,23.997936,0.999454,0.993233,0.003383,0.346914,0.000003,0.000021,-0.000019,0.000034,-0.000009,-57.608252,0.000035,
2041,3193,-4.80958581011858,11.8945447278233,0.0417241465418101,0.002964,-0.000898,0.002399,0.129898,-0.026466,313.043758,24.144985,0.999631,0.993760,0.003270,0.359763,-0.000034,0.000024,-0.000018,0.000029,-0.000039,-73.883554,0.000041,
2506,2878,5.34324157922454,5.09175598862868,-0.0135289421829157,0.002943,-0.000464,-0.000419,0.136540,-0.026782,317.023475,25.047619,0.999657,0.993275,0.003425,0.398424,-0.000025,0.000008,0.000006,0.000009,-0.000026,80.553898,0.000027,
2491,2818,5.0276029630853,3.78568783284935,-0.0281001214279399,0.002770,-0.000700,-0.002069,0.134806,-0.030579,317.836397,24.780616,0.999397,0.988462,0.004371,0.402982,-0.000030,-0.000016,-0.000001,-0.000016,-0.000030,-86.853314,0.000047,
2371,3208,2.34448416139318,12.2481506388002,0.0268216405236785,0.002843,-0.001006,0.000800,0.127598,-0.049917,311.725225,25.692573,0.999461,0.992620,0.003563,0.394289,-0.000007,-0.000009,0.000002,-0.000006,-0.000010,28.324629,0.000016,
2101,3268,-3.52169892347071,13.5245312400389,0.032712882091289,0.003421,-0.000649,-0.002099,0.163868,-0.026553,311.446994,24.422697,0.999779,0.996465,0.002679,0.365891,-0.000011,0.000003,-0.000014,0.000012,-0.000020,-58.738213,0.000020,
2356,3163,2.02717102856671,11.2708034823307,0.0306069314199817,0.002460,-0.000931,0.001019,0.109298,-0.034646,312.473647,25.527728,0.999464,0.991781,0.003878,0.388198,-0.000011,-0.000002,-0.000001,-0.000002,-0.000011,-85.336175,0.000014,
2131,2128,-2.68762739676245,-11.2928136786559,0.00532157270350808,0.002881,-0.000220,-0.003491,0.142488,-0.037780,329.545871,24.169427,0.998892,0.981830,0.005277,0.307942,-0.000010,-0.000034,0.000029,0.000009,-0.000054,33.620399,0.000057,
2326,2908,1.42048590637871,5.73382315464353,-0.0139689188767989,0.002836,-0.000812,-0.002045,0.137252,-0.025714,316.303715,24.842955,0.999233,0.990428,0.003968,0.378356,-0.000023,-0.000011,0.000008,-0.000007,-0.000027,63.471197,0.000036,
2266,2713,0.151085190227363,1.48818903176578,-0.0175667743348527,0.002829,-0.000443,-0.002099,0.136879,-0.009465,319.511654,24.401577,0.999748,0.993311,0.003445,0.389088,-0.000020,-0.000019,0.000002,-0.000017,-0.000022,55.426857,0.000039,
2161,2143,-2.03604867679654,-10.9648957231622,0.00723249146579974,0.002888,-0.000106,-0.000492,0.133930,-0.010859,329.198441,23.978789,0.999287,0.972132,0.006152,0.367143,-0.000009,-0.000018,0.000029,0.000016,-0.000042,40.568331,0.000043,
2461,2503,4.43971768915639,-3.08747952289017,-0.00598205238713945,0.002872,-0.000293,-0.002149,0.139607,-0.018594,323.081961,23.614221,0.999445,0.986861,0.004425,0.396914,0.000005,-0.000023,0.000004,0.000006,-0.000024,7.368953,0.000025,
2026,3223,-5.13889555059812,12.5428560737409,0.0441695153160708,0.002979,-0.001003,0.000214,0.136714,-0.029625,312.673656,24.049703,0.999554,0.994103,0.003098,0.358428,-0.000024,0.000024,-0.000018,0.000030,-0.000030,-71.685572,0.000035,
2101,2038,-3.32755683586343,-13.2670914423736,0.0184165856168192,0.002559,-0.000607,0.004356,0.104447,0.009851,331.192045,24.223135,0.999373,0.985847,0.005190,0.445259,-0.000018,-0.000078,0.000021,-0.000012,-0.000085,17.607194,0.000106,
2431,2188,3.85008133271485,-9.98390202107151,0.0316772892455219,0.002227,-0.000795,0.000337,0.100360,-0.034860,328.400686,22.724923,0.999690,0.987633,0.004403,0.242150,-0.000034,0.000003,0.000004,0.000004,-0.000035,84.073537,0.000038,
2176,2308,-1.73664859199801,-7.3533440709167,0.00727235951427474,0.002541,-0.000342,-0.001237,0.120359,-0.017000,326.478157,24.088358,0.998871,0.983258,0.005143,0.330231,-0.000014,-0.000040,0.000000,-0.000014,-0.000040,-0.190552,0.000057,
2146,2173,-2.36564944397935,-10.3118672086808,0.0403275304371391,0.003025,-0.000794,0.000320,0.137517,-0.023991,329.051009,24.059832,0.999867,0.944942,0.008018,0.376352,-0.000013,-0.000015,0.000023,0.000009,-0.000038,43.470144,0.000039,
2476,2593,4.74715831402727,-1.12033645952276,-0.0198657955235149,0.002732,-0.000650,-0.000165,0.125598,-0.036276,321.523879,23.963344,0.998660,0.983648,0.004888,0.344594,-0.000001,-0.000012,0.000012,0.000006,-0.000020,31.841504,0.000020,
2311,2848,1.10560377182562,4.42695639346168,-0.00774963640077431,0.002633,-0.000687,-0.000197,0.121521,-0.026797,317.328431,24.627511,0.999826,0.992994,0.003513,0.436252,-0.000026,-0.000004,0.000006,-0.000002,-0.000028,75.614927,0.000034,
2236,2608,-0.482766540947747,-0.801151351409231,-0.0211376972127937,0.003193,-0.000304,-0.003360,0.157491,-0.026620,321.264270,24.190783,0.999233,0.985840,0.004626,0.430976,-0.000020,-0.000020,0.000007,-0.000013,-0.000027,46.462841,0.000041,
2386,3253,2.66001430315277,13.2273446018553,0.00340813544454477,0.003046,-0.000858,-0.000041,0.140032,-0.040822,310.808726,25.930750,0.999728,0.993156,0.003143,0.364370,-0.000007,-0.000001,0.000009,0.000005,-0.000013,54.117640,0.000013,
2011,3238,-5.46567949932885,12.8661050057384,0.0442857245053005,0.003180,-0.000727,-0.002581,0.153732,-0.022460,312.543627,23.928364,0.999555,0.993765,0.003313,0.398266,0.000008,0.000005,-0.000031,0.000038,-0.000025,-43.475935,0.000038,
2491,2833,5.02469425517503,4.1119422851388,-0.0272114003534512,0.002830,-0.000822,-0.002435,0.138923,-0.037082,317.603231,24.818607,0.999411,0.989106,0.004157,0.417207,-0.000025,-0.000001,0.000004,-0.000001,-0.000025,81.593009,0.000030,
2251,2638,-0.162265423659935,-0.145990328576957,-0.0191454569545044,0.003048,-0.000959,0.004708,0.124339,-0.028040,320.730219,24.315328,0.998957,0.986973,0.004406,0.337918,-0.000026,-0.000009,0.000001,-0.000009,-0.000026,85.420898,0.000036,
2221,2443,-0.779390845838389,-4.40336266344183,0.00109100997809719,0.003308,-0.001531,0.003590,0.139875,-0.048506,324.139120,24.030555,0.999252,0.988018,0.004493,0.364416,-0.000027,-0.000021,0.000003,-0.000019,-0.000028,66.313514,0.000047,
2281,2788,0.463570295618982,3.1215999013432,-0.0170674484647861,0.002867,-0.000926,0.002214,0.124148,-0.015392,318.261227,24.547917,0.999141,0.987203,0.004415,0.376437,-0.000014,-0.000013,0.000008,-0.000005,-0.000022,46.090446,0.000028,
2416,2053,3.54889872581153,-12.9462898577075,0.0319340551359346,0.002367,-0.001217,0.002432,0.098928,-0.056603,330.556223,22.312218,0.998794,0.975622,0.006074,0.254456,-0.000014,-0.000051,0.000023,-0.000003,-0.000062,25.468110,0.000073,
2446,2293,4.15515507116565,-7.68274245230233,0.00911771190908439,0.002336,-0.000907,-0.000590,0.108794,-0.051484,326.551265,22.873551,0.999355,0.981031,0.005338,0.382003,-0.000025,-0.000022,0.000007,-0.000016,-0.000031,51.029276,0.000047,
2071,2008,-3.97692511904016,-13.922810152336,0.0190002488054688,0.002559,-0.000633,0.000819,0.114835,-0.028185,331.834556,24.606409,0.998984,0.982721,0.005231,0.220218,0.000000,-0.000110,0.000041,0.000013,-0.000124,18.348004,0.000136,
2041,3208,-4.81183511465804,12.2191014835244,0.042644657724054,0.002946,-0.000840,0.001097,0.132672,-0.032439,312.809303,24.114515,0.999571,0.993617,0.003214,0.375384,-0.000032,0.000021,-0.000021,0.000028,-0.000040,-70.714283,0.000041,
2206,2383,-1.09693703164734,-5.71236181391442,-0.0101188956838314,0.002728,-0.000366,0.000748,0.122771,-0.004301,325.035757,24.011246,0.999294,0.987053,0.004470,0.395095,-0.000027,-0.000005,0.000014,0.000002,-0.000033,64.756756,0.000037,
2371,3223,2.34118254734051,12.5737141550216,0.0268591271045011,0.002528,-0.001264,0.002196,0.108022,-0.058456,311.459767,25.763563,0.999599,0.993149,0.003316,0.354158,-0.000007,-0.000011,0.000003,-0.000005,-0.000013,26.872848,0.000018,
2101,3283,-3.5252401711746,13.8492112348217,0.0253894234298855,0.003010,-0.000887,0.000944,0.135823,-0.044780,311.112394,24.391427,0.999703,0.996345,0.002763,0.378449,-0.000015,0.000004,-0.000007,0.000006,-0.000017,-70.283423,0.000018,
2026,3238,-5.14075553631724,12.8669031460749,0.0543463871593417,0.002849,-0.000789,0.000101,0.131055,-0.026599,312.508178,24.022448,0.999613,0.995309,0.002896,0.377700,-0.000024,0.000011,-0.000026,0.000024,-0.000037,-61.890124,0.000038,
2506,2893,5.34079575206524,5.41862312298366,-0.00916370701969527,0.003091,-0.000527,-0.002061,0.149745,-0.016337,316.827768,25.166509,0.999556,0.990556,0.003968,0.350750,-0.000026,-0.000003,0.000000,-0.000003,-0.000026,-89.456295,0.000032,
2296,2818,0.783854014785511,3.77527825851504,-0.0230674919724265,0.002658,-0.000862,-0.000665,0.124189,-0.031684,317.704797,24.600681,0.999397,0.990606,0.003914,0.378512,-0.000016,-0.000010,0.000008,-0.000005,-0.000021,55.337205,0.000028,
2266,2728,0.147346305174107,1.81533536799465,-0.025618582771699,0.002544,-0.000738,0.000428,0.115324,-0.020191,319.178981,24.419696,0.999565,0.991297,0.003691,0.386114,-0.000014,-0.000019,0.000003,-0.000013,-0.000021,28.401096,0.000034,
2101,2053,-3.32913310172423,-12.9378037180204,0.0298408717251277,0.002710,-0.000992,0.006233,0.105799,0.000254,331.047250,24.396888,0.998972,0.974306,0.006155,0.266151,-0.000015,-0.000049,0.000022,-0.000004,-0.000060,26.073351,0.000072,
2341,3088,1.71367971296384,9.64373527923951,0.00215311902053372,0.002738,-0.001088,0.000288,0.124626,-0.041150,313.479776,25.282365,0.999649,0.994375,0.003075,0.383129,-0.000023,-0.000009,-0.000004,-0.000008,-0.000024,-76.497974,0.000033,
2431,2203,3.84687143842802,-9.65571953169558,0.0236399804115308,0.002589,-0.000618,-0.000230,0.119098,-0.029532,328.110651,22.629238,0.999562,0.985252,0.004773,0.396304,-0.000032,0.000004,0.000000,0.000004,-0.000032,89.523537,0.000035,
2011,3253,-5.46833871113685,13.1914597793415,0.0435843688300679,0.002904,-0.000442,-0.002336,0.140446,-0.009593,312.278986,23.953779,0.999860,0.995895,0.002689,0.371954,0.000019,0.000019,-0.000037,0.000056,-0.000019,-44.943377,0.000057,
2131,2143,-2.6903256169728,-10.9647136867779,0.00648387075699475,0.002680,-0.000684,-0.000725,0.124899,-0.044415,329.297306,24.151286,0.999098,0.983282,0.005166,0.327958,-0.000014,-0.000019,0.000029,0.000013,-0.000046,42.702605,0.000047,
2356,3178,2.02473818204703,11.5965099956598,0.0286022784217153,0.002841,-0.000663,-0.001516,0.135875,-0.033656,312.237410,25.578192,0.999557,0.992419,0.003666,0.376555,-0.000010,-0.000003,0.000000,-0.000003,-0.000010,-89.228115,0.000013,
2326,2923,1.4178933342923,6.05875863475345,-0.00719260341503514,0.002792,-0.000915,0.001494,0.122937,-0.031150,316.101886,24.823016,0.998752,0.987791,0.004465,0.426673,-0.000024,-0.000012,0.000008,-0.000008,-0.000028,63.217063,0.000038,
2161,2158,-2.04146645259658,-10.6292346284606,-0.0341150042115146,0.002799,-0.000451,0.000501,0.126698,-0.022681,328.603761,24.207993,0.999871,0.945450,0.008323,0.140832,-0.000006,-0.000022,0.000025,0.000012,-0.000040,36.054639,0.000041,
2461,2518,4.43686733108888,-2.76047833959596,3.30750350485687E-05,0.002750,-0.000686,0.000215,0.124976,-0.019496,322.874160,23.664133,0.999199,0.984754,0.004574,0.401401,0.000004,-0.000025,0.000003,0.000004,-0.000025,5.335021,0.000027,
2386,3268,2.65648752463144,13.5527823516245,0.00121910789192725,0.002613,-0.000854,0.000197,0.119343,-0.029511,310.523127,25.971196,0.999710,0.992902,0.003305,0.377028,-0.000006,0.000001,0.000009,0.000007,-0.000013,55.448409,0.000013,
2101,3298,-3.52818132987942,14.1742476029491,0.0167745923850475,0.002964,-0.000761,-0.001024,0.139510,-0.044172,310.798185,24.371926,0.999523,0.994545,0.003189,0.398373,-0.000015,0.000013,-0.000009,0.000015,-0.000018,-74.358891,0.000019,
2311,2863,1.10305628367021,4.75417266409909,-0.00929835052198769,0.003001,-0.000576,0.000140,0.137343,-0.012820,317.086271,24.720382,0.999711,0.992270,0.003593,0.389396,-0.000027,-0.000003,0.000004,-0.000002,-0.000028,81.579756,0.000033,
2071,2023,-3.97933197754078,-13.5939610603951,0.0154413455022109,0.002622,-0.000602,0.000634,0.118232,-0.015988,331.568327,24.539574,0.998948,0.983731,0.005191,0.299905,0.000003,-0.000121,0.000040,0.000014,-0.000133,16.272104,0.000146,
2026,3253,-5.14419532531339,13.1925453910423,0.0397556471639859,0.002506,-0.000583,-0.002049,0.121175,-0.030232,312.130837,24.013005,0.999852,0.996308,0.002585,0.372098,-0.000020,0.000017,-0.000030,0.000034,-0.000037,-60.811126,0.000041,
2476,2608,4.74339986888411,-0.793037741768138,-0.0216766015919916,0.002310,-0.000927,0.001407,0.100198,-0.042916,321.239324,24.006362,0.999151,0.985158,0.004503,0.352463,-0.000003,-0.000001,0.000007,0.000005,-0.000009,49.359807,0.000009,
2146,2188,-2.36840343645196,-9.98315516239841,0.0333814228393408,0.003173,-0.000835,0.000556,0.143589,-0.028692,328.758216,24.023678,0.999446,0.954674,0.007041,0.418648,-0.000013,0.000002,0.000027,0.000022,-0.000033,52.858432,0.000034,
2071,3208,-4.16199855705976,12.221704091711,0.0381246698580071,0.002894,-0.000746,-0.003275,0.142701,-0.040711,312.608820,24.251860,0.999557,0.994120,0.003143,0.376444,-0.000019,0.000012,-0.000016,0.000019,-0.000026,-66.651372,0.000027,
2041,3223,-4.81427930667395,12.5439562077374,0.0402960808729631,0.002995,-0.001023,0.000803,0.135757,-0.035868,312.547610,24.093915,0.999549,0.993906,0.003104,0.383523,-0.000030,0.000021,-0.000023,0.000030,-0.000039,-68.780583,0.000041,
2416,2068,3.54549018160176,-12.6162346513621,0.0247759894915589,0.002298,-0.000685,0.000138,0.104344,-0.028257,330.259973,22.320715,0.998817,0.977270,0.006093,0.325685,-0.000018,-0.000033,0.000023,-0.000002,-0.000050,36.032489,0.000059,
2011,3268,-5.47046111634947,13.5155043835208,0.0461670941097623,0.003054,-0.000489,-0.000713,0.142926,-0.012844,312.058064,23.896385,0.999843,0.995983,0.002694,0.412874,0.000031,0.000013,-0.000036,0.000059,-0.000015,-38.076010,0.000062,
2491,2848,5.02199880290752,4.43936811703144,-0.024239962444085,0.002873,-0.000748,-0.003533,0.145131,-0.047586,317.388916,24.988208,0.999528,0.992060,0.003695,0.295492,-0.000022,0.000002,-0.000002,0.000002,-0.000022,-86.206143,0.000024,
2176,2323,-1.73921693475946,-7.02432526883966,-0.00993734315699157,0.003069,0.000304,-0.009593,0.170629,-0.019099,326.143016,24.029851,0.998748,0.983201,0.005162,0.401476,-0.000013,-0.000036,0.000002,-0.000013,-0.000036,4.310017,0.000051,
2371,3238,2.33843038810379,12.8995931554591,0.0231660771223687,0.002741,-0.000751,-0.000397,0.127339,-0.033841,311.201525,25.813152,0.999773,0.994096,0.003020,0.369044,-0.000007,-0.000014,0.000002,-0.000007,-0.000015,12.719207,0.000022,
2506,2908,5.33650816456993,5.74533595052716,-0.0167071736955791,0.002733,-0.000687,0.000191,0.124460,-0.035765,316.493939,25.219249,0.999585,0.989383,0.004020,0.339156,-0.000025,-0.000016,0.000003,-0.000015,-0.000026,74.623403,0.000042,
2446,2308,4.15208192731589,-7.35130180835382,7.70913231917802E-07,0.002799,-0.000346,-0.003454,0.140877,-0.026775,326.263053,23.087824,0.999267,0.980374,0.005313,0.246992,-0.000021,-0.000021,0.000001,-0.000020,-0.000022,38.680702,0.000042,
2206,2398,-1.09900499968635,-5.38521828639347,-0.00383271210773728,0.002894,-0.001038,0.002325,0.125191,-0.021036,324.848495,24.053468,0.999452,0.989263,0.004216,0.354156,-0.000026,-0.000012,0.000009,-0.000008,-0.000030,64.352082,0.000040,
2236,2623,-0.48537772100067,-0.473432771621184,-0.0225644263169897,0.003215,-0.000093,-0.004753,0.163131,-0.013772,321.014266,24.257755,0.999269,0.986260,0.004571,0.398641,-0.000022,-0.000010,0.000008,-0.000006,-0.000026,63.712236,0.000034,
2281,2803,0.46059188697086,3.44903549241668,-0.0252076299838677,0.003138,-0.000834,0.001308,0.139660,-0.015891,317.964117,24.607011,0.999182,0.988596,0.004295,0.344771,-0.000014,-0.000015,0.000010,-0.000004,-0.000025,43.546722,0.000032,
2356,3193,2.02156654051647,11.9225135700335,0.0250592329804249,0.002863,-0.000698,-0.000680,0.133962,-0.031915,311.959554,25.650531,0.999576,0.992028,0.003611,0.343539,-0.000010,-0.000003,0.000000,-0.000003,-0.000010,85.622563,0.000013,
2191,2338,-1.41465765392265,-6.69777584186086,0.0153327782733186,0.002519,-0.001124,0.002950,0.106027,-0.043869,326.000520,24.132074,0.999673,0.989803,0.004240,0.233019,-0.000018,-0.000028,0.000003,-0.000017,-0.000029,17.146515,0.000047,
2431,2218,3.84447464679951,-9.32703779378389,0.0248764445431107,0.002862,-0.000258,-0.002794,0.141171,-0.028410,327.900683,22.686156,0.999587,0.985642,0.004740,0.392791,-0.000035,-0.000004,0.000005,-0.000004,-0.000036,81.497290,0.000043,
2131,2158,-2.69141469268819,-10.6377828231886,0.0258824243692288,0.002486,-0.000501,-0.004218,0.126463,-0.056571,329.219418,24.231433,0.999743,0.991534,0.004071,0.243428,-0.000011,-0.000024,0.000027,0.000010,-0.000045,38.539200,0.000047,
2386,3283,2.65382437452319,13.8778542742841,0.000193390064112009,0.002822,-0.000614,-0.001224,0.134122,-0.029844,310.282934,25.999712,0.999708,0.992176,0.003439,0.390005,-0.000005,-0.000017,0.000008,-0.000001,-0.000020,25.644692,0.000024,
2266,2743,0.145173927297098,2.14178261236207,-0.0234912677221928,0.002953,-0.000564,0.001098,0.131928,-0.016762,318.969485,24.445990,0.999379,0.988902,0.004013,0.388995,-0.000014,-0.000023,0.000004,-0.000012,-0.000024,23.061225,0.000037,
2011,3283,-5.472947392458,13.8403647616638,0.0408829502927688,0.003193,-0.000631,-0.001064,0.150224,-0.022192,311.775781,23.880758,0.999815,0.996180,0.002687,0.405706,0.000040,0.000026,-0.000031,0.000065,0.000002,-38.561477,0.000076,
2026,3268,-5.14697922328173,13.5177178097452,0.0291440724041649,0.002844,-0.000555,0.000172,0.130754,-0.016740,311.806069,23.970854,0.999828,0.996805,0.002526,0.416592,-0.000016,0.000010,-0.000027,0.000027,-0.000033,-58.018480,0.000035,
2116,1993,-2.99433569244194,-14.2502588266708,0.00784474591387152,0.002051,-0.000240,0.000361,0.092910,-0.017439,331.744844,24.410866,0.999643,0.990173,0.004247,0.111009,-0.000004,-0.000115,0.000011,-0.000002,-0.000116,5.736646,0.000135,
2251,2653,-0.164872501039444,0.180359819913974,-0.0175864780742359,0.002874,-0.001142,0.003162,0.121324,-0.038128,320.497060,24.314320,0.999375,0.989591,0.004077,0.352385,-0.000024,-0.000001,0.000006,0.000001,-0.000025,76.263310,0.000029,
2296,2833,0.781512951893621,4.1015586258925,-0.0170140230554807,0.002605,-0.000709,-0.000771,0.122195,-0.019285,317.508986,24.658378,0.999659,0.993162,0.003553,0.362945,-0.000019,-0.000003,0.000009,0.000001,-0.000023,64.584095,0.000026,
2101,2068,-3.33096696379543,-12.6098012580912,0.0266867957280965,0.003189,-0.001006,0.002959,0.137308,-0.027817,330.812586,24.314416,0.999169,0.951602,0.008350,0.325169,-0.000011,-0.000053,0.000027,0.000002,-0.000066,25.983774,0.000075,
2491,2863,5.01884081586138,4.76504578287279,-0.0227174511873045,0.002734,-0.000821,-0.002620,0.135278,-0.029243,317.147056,24.961349,0.999490,0.991612,0.003758,0.399529,-0.000024,0.000001,-0.000003,0.000001,-0.000024,-82.890234,0.000027,
2341,3103,1.7122216150885,9.96892977522241,0.0163137584815445,0.002980,-0.000584,-0.000323,0.138164,-0.012625,313.366340,25.341189,0.999605,0.993420,0.003356,0.388324,-0.000016,-0.000007,-0.000002,-0.000006,-0.000016,-80.969115,0.000023,
2461,2533,4.43350116341754,-2.43142434272216,-0.00797779667408349,0.002794,-0.000077,-0.003237,0.140241,-0.012975,322.578176,23.773406,0.999428,0.988217,0.004207,0.354409,0.000005,-0.000021,-0.000001,0.000005,-0.000021,-1.769587,0.000022,
2476,2623,4.74085301346877,-0.465356939753363,-0.0228939855095405,0.002741,-0.000911,-0.000763,0.128219,-0.056631,321.013027,24.101333,0.999648,0.991287,0.003673,0.300903,-0.000002,-0.000009,-0.000002,-0.000001,-0.000010,-13.351824,0.000012,
2506,2923,5.33217121697753,6.07302898038014,-0.0286624835447924,0.002730,-0.000866,0.002748,0.114432,-0.015847,316.137673,25.296784,0.999453,0.987370,0.004165,0.342364,-0.000030,-0.000016,-0.000002,-0.000016,-0.000030,-83.638264,0.000047,
2221,2458,-0.782549100964285,-4.07506656828613,-0.00259485619903899,0.002763,-0.000704,0.000240,0.125865,-0.021935,323.851403,24.060129,0.999119,0.985242,0.004932,0.381989,-0.000026,-0.000019,0.000007,-0.000015,-0.000030,57.367745,0.000046,
2071,2038,-3.98111743571787,-13.2648272950519,0.0147484650917704,0.002787,0.000383,-0.005031,0.142224,0.001630,331.346000,24.531253,0.999020,0.984781,0.004970,0.325939,0.000001,-0.000108,0.000040,0.000014,-0.000121,18.225427,0.000133,
2326,2938,1.41540119924673,6.3849236291089,-0.0035249212496069,0.002802,-0.000797,0.001230,0.124363,-0.024437,315.889047,24.885388,0.998969,0.988538,0.004333,0.404913,-0.000023,-0.000009,0.000007,-0.000006,-0.000026,67.741927,0.000034,
2026,3283,-5.14874824523558,13.8420896354849,0.039279336690754,0.002981,-0.000863,0.002807,0.129673,-0.029125,311.644500,23.998624,0.999790,0.996442,0.002617,0.365105,-0.000018,0.000014,-0.000017,0.000021,-0.000026,-66.881332,0.000027,
2011,3298,-5.47583674973215,14.1651527547979,0.0366276152331011,0.002848,-0.000684,-0.001783,0.136194,-0.032146,311.480849,23.869035,0.999385,0.993406,0.003453,0.393936,0.000044,0.000032,-0.000024,0.000063,0.000013,-37.876725,0.000082,
2371,3253,2.33507314282113,13.2246841667998,0.0199325106017341,0.002779,-0.001057,0.003001,0.116883,-0.040041,310.917827,25.827727,0.999738,0.993485,0.003138,0.387928,-0.000010,-0.000001,0.000005,0.000001,-0.000012,66.572620,0.000013,
2416,2083,3.54350827489172,-12.2866540566915,0.0283251659080292,0.003244,-0.001065,0.003310,0.135927,-0.052076,330.079176,22.462384,0.998617,0.978080,0.006166,0.210796,-0.000021,-0.000019,0.000023,0.000003,-0.000043,46.130953,0.000048,
2311,2878,1.099519763802,5.08089899221682,-0.0159034021140769,0.002797,-0.000968,0.001025,0.124822,-0.030001,316.773881,24.766897,0.999637,0.990820,0.003767,0.357418,-0.000028,-0.000009,0.000004,-0.000008,-0.000029,76.945907,0.000039,
2041,3238,-4.81674234344565,12.8685230735351,0.040680135790069,0.002870,-0.001238,0.000639,0.130345,-0.048435,312.300401,24.075420,0.999601,0.995332,0.002839,0.380527,-0.000028,0.000010,-0.000029,0.000025,-0.000044,-61.814985,0.000044,
2071,3223,-4.16406176814949,12.546635009663,0.0425575186964124,0.003187,-0.000723,0.000208,0.146316,-0.021514,312.404070,24.255536,0.999560,0.993646,0.003229,0.387396,-0.000016,0.000015,-0.000019,0.000024,-0.000025,-65.037764,0.000028,
2116,2008,-2.99623885548126,-13.9251249632339,0.0167825869290255,0.002162,-0.001339,0.004427,0.085644,-0.046632,331.573429,24.184838,0.999648,0.991951,0.004192,0.314687,-0.000018,-0.000083,0.000007,-0.000017,-0.000083,6.445074,0.000108,
2431,2233,3.84019925017186,-8.99680819466847,0.0195000389242068,0.002282,-0.000609,0.000531,0.102256,-0.038574,327.573798,22.832892,0.999327,0.982655,0.005153,0.288626,-0.000032,-0.000008,0.000005,-0.000007,-0.000033,78.100446,0.000043,
2161,2173,-2.04462889124066,-10.3029228647128,-0.0479479403362575,0.002876,-0.000228,-0.001228,0.135636,-0.020020,328.257927,23.872380,0.999845,0.931793,0.008711,0.492602,-0.000003,-0.000015,0.000024,0.000016,-0.000034,38.382311,0.000034,
2446,2323,4.14893305928169,-7.02459566974137,0.00156183510415531,0.002700,-0.000414,-0.001178,0.127864,-0.022062,326.021002,23.001323,0.999348,0.980170,0.005235,0.392369,-0.000017,-0.000018,0.000006,-0.000012,-0.000023,41.790948,0.000036,
2506,2938,5.3305295460355,6.39805940186019,-0.0145843131589913,0.002851,-0.000845,0.001125,0.126242,-0.027881,316.022705,25.350442,0.999581,0.990691,0.003784,0.337037,-0.000030,-0.000025,0.000003,-0.000024,-0.000032,62.182613,0.000056,
2236,2638,-0.488188601000441,-0.146662479108322,-0.0199132260672172,0.003140,-0.000227,-0.000588,0.146143,-0.008948,320.776090,24.285152,0.999172,0.987278,0.004477,0.397848,-0.000020,-0.000001,0.000007,0.000001,-0.000023,71.685834,0.000026,
2026,3298,-5.15153946129773,14.1669383811983,0.0328427030916032,0.002794,-0.000699,0.000493,0.127482,-0.028370,311.342964,23.970611,0.999413,0.994338,0.003212,0.382664,-0.000027,0.000025,-0.000011,0.000028,-0.000030,-78.396299,0.000033,
2026,1993,-4.9546098134688,-14.251970134978,0.0249088278799832,0.003040,0.000266,-0.005837,0.155523,-0.040673,332.417762,24.884008,0.998802,0.982669,0.005384,0.243850,0.000050,-0.000170,0.000054,0.000063,-0.000182,13.090925,0.000185,
2491,2878,5.01605657585576,5.09023833738912,-0.0130088353133715,0.002375,-0.000534,-0.000537,0.110916,-0.023604,316.959378,24.966708,0.999386,0.993092,0.003570,0.458135,-0.000024,0.000007,-0.000005,0.000008,-0.000025,-80.807358,0.000025,
2101,2083,-3.33539752366066,-12.2787595352438,0.0032760035584829,0.002463,-0.000756,0.001005,0.109792,-0.030395,330.349727,24.266706,0.999060,0.958574,0.007831,0.376229,-0.000010,-0.000043,0.000027,0.000005,-0.000059,29.221840,0.000065,
2206,2413,-1.10022703777211,-5.05805598778017,0.0146841242140567,0.003081,-0.000756,0.004234,0.127832,-0.003478,324.762836,24.183293,0.999641,0.992050,0.003804,0.259549,-0.000025,-0.000025,0.000002,-0.000023,-0.000027,49.734353,0.000050,
2176,2338,-1.7425808702137,-6.69577757107258,-0.00907024498496867,0.002810,-0.000680,0.000123,0.128400,-0.012935,325.865817,24.105609,0.999141,0.985751,0.004764,0.346074,-0.000017,-0.000024,0.000002,-0.000016,-0.000025,16.113777,0.000041,
2191,2353,-1.4176106986683,-6.37060778561138,0.00883647793273212,0.002499,-0.000710,0.002525,0.106574,-0.017322,325.705343,23.992848,0.999422,0.987353,0.004546,0.415368,-0.000024,-0.000028,0.000001,-0.000024,-0.000028,8.033853,0.000052,
2281,2818,0.458532876374566,3.7737551486011,-0.0161649739223435,0.002976,-0.001160,-0.000792,0.139057,-0.060651,317.795843,24.596998,0.999268,0.989570,0.004011,0.337331,-0.000014,-0.000012,0.000010,-0.000003,-0.000023,47.142788,0.000029,
2071,2053,-3.98306206774599,-12.9366019151118,0.0195621129921619,0.002973,0.000015,-0.002372,0.143108,-0.005203,331.146714,24.531580,0.998460,0.977336,0.005886,0.319024,0.000002,-0.000069,0.000036,0.000017,-0.000084,22.628332,0.000089,
2476,2638,4.73782990288078,-0.138363164058617,-0.025180546032459,0.002908,-0.000687,-0.001368,0.138326,-0.028606,320.759912,24.087380,0.999659,0.990800,0.003719,0.400180,-0.000006,-0.000012,-0.000002,-0.000005,-0.000013,-11.885249,0.000018,
2131,2173,-2.69486129669189,-10.3080530127121,0.00573844691984959,0.002862,-0.000218,-0.002520,0.138771,-0.019304,328.822913,24.101511,0.999442,0.976230,0.005553,0.419868,-0.000012,-0.000014,0.000025,0.000012,-0.000039,43.786692,0.000039,
2461,2548,4.43023818626369,-2.103275110585,-0.00810508593372106,0.002531,-0.000106,-0.003781,0.130227,-0.012860,322.323012,23.882067,0.999714,0.992040,0.003690,0.301006,0.000002,-0.000025,-0.000001,0.000002,-0.000025,-2.709988,0.000028,
2296,2848,0.779012048597956,4.42688447821486,-0.0169515395443227,0.002875,-0.000674,-0.000282,0.132910,-0.031137,317.276386,24.611245,0.999681,0.993085,0.003557,0.428002,-0.000019,-0.000005,0.000008,-0.000001,-0.000022,66.674937,0.000026,
2041,1993,-4.62855692111235,-14.2526700687866,0.0194444880045239,0.002539,-0.000603,-0.003395,0.125664,-0.050436,332.254500,24.699035,0.998825,0.981810,0.005457,0.314596,0.000052,-0.000139,0.000082,0.000082,-0.000169,20.421570,0.000170,
2371,3268,2.33130874513371,13.5503769517715,0.0107028777416076,0.002534,-0.001131,0.001972,0.109287,-0.036806,310.586277,25.859594,0.999759,0.993885,0.003126,0.398848,-0.000009,0.000003,0.000005,0.000005,-0.000011,70.296655,0.000011,
2251,2668,-0.167933884566796,0.506946762377943,-0.0173149477271295,0.002472,-0.001163,0.003489,0.101812,-0.029115,320.236407,24.309748,0.999572,0.991513,0.003733,0.389832,-0.000022,-0.000002,0.000002,-0.000002,-0.000022,83.318339,0.000027,
2071,3238,-4.16633178234853,12.8712117826029,0.043913369899542,0.003261,-0.000994,0.000396,0.149129,-0.032272,312.173082,24.242173,0.999554,0.993737,0.003213,0.385440,-0.000014,0.000006,-0.000020,0.000019,-0.000026,-58.076463,0.000027,
2146,2203,-2.37360353453679,-9.65050754086206,0.00521334716427191,0.002507,-0.001333,0.003867,0.102927,-0.023277,328.240743,24.121207,0.998794,0.977985,0.005611,0.338588,-0.000012,0.000003,0.000026,0.000023,-0.000031,53.151151,0.000032,
2416,2098,3.53946533061099,-11.9561548340128,0.0144898762237631,0.002624,0.000283,-0.004585,0.136863,-0.011691,329.722518,22.438469,0.999022,0.977358,0.006068,0.326714,-0.000027,-0.000019,0.000013,-0.000009,-0.000037,53.517896,0.000049,
2041,3253,-4.81932163898986,13.1933118638661,0.041667602188852,0.002645,-0.000890,0.001332,0.118154,-0.034292,312.051139,24.057838,0.999673,0.995013,0.002842,0.403103,-0.000025,0.000011,-0.000032,0.000030,-0.000044,-59.592916,0.000045,
2116,2023,-2.99742059937196,-13.5948626398788,0.0124545001776255,0.003170,-0.000365,-0.002459,0.152481,-0.034371,331.363076,24.238633,0.999225,0.985336,0.005397,0.279951,-0.000018,-0.000078,0.000007,-0.000017,-0.000079,6.305931,0.000102,
2266,2758,0.141887263661413,2.46918404788877,-0.030889163911354,0.003038,-0.000641,0.003112,0.129220,-0.004375,318.660640,24.480132,0.999297,0.989161,0.004071,0.393072,-0.000015,-0.000014,0.000009,-0.000006,-0.000023,46.450872,0.000031,
2026,2008,-4.95802328166794,-13.9222106337458,0.0188102535745998,0.002807,-0.001075,0.004759,0.115404,-0.011122,332.087012,24.847008,0.998603,0.983415,0.005441,0.304853,0.000049,-0.000138,0.000055,0.000064,-0.000153,15.163032,0.000154,
2356,3208,2.01911821917431,12.2472935444137,0.0289640783022946,0.002971,-0.000590,-0.000644,0.138819,-0.030401,311.751386,25.657618,0.999575,0.992728,0.003456,0.375518,-0.000006,-0.000008,0.000000,-0.000006,-0.000008,11.056035,0.000015,
2506,2953,5.32829906651193,6.7231020829699,-0.00383353079649851,0.002811,-0.001080,0.001223,0.123893,-0.050108,315.865661,25.394460,0.999582,0.990955,0.003835,0.331029,-0.000031,-0.000016,0.000010,-0.000011,-0.000036,62.627847,0.000050,
2386,3298,2.64972608950408,14.2041359749595,-0.0176685679321054,0.003066,-0.000531,-0.000785,0.143830,-0.028179,309.895756,26.051477,0.999718,0.993082,0.003424,0.381717,-0.000004,-0.000030,0.000007,-0.000002,-0.000032,14.162434,0.000038,
2491,2893,5.01256299908562,5.4189036964125,-0.0239834434671025,0.002891,-0.000481,-0.000504,0.134491,-0.019979,316.644838,25.146363,0.998703,0.988062,0.004335,0.340927,-0.000025,-0.000002,-0.000008,0.000000,-0.000028,-71.664828,0.000032,
2341,3118,1.70987466665762,10.2937536305587,0.0257564421836491,0.002785,-0.000785,0.000250,0.127099,-0.022734,313.189150,25.377173,0.999621,0.993106,0.003444,0.377691,-0.000014,0.000000,-0.000001,0.000000,-0.000014,-86.841575,0.000016,
2431,2248,3.83691629737715,-8.66732067403584,0.0122310718029439,0.002656,-0.000539,0.001613,0.115437,-0.002974,327.283446,22.852434,0.999242,0.980436,0.005369,0.357470,-0.000029,-0.000012,0.000001,-0.000012,-0.000029,85.312658,0.000043,
2071,2068,-3.98456502660411,-12.6085237773712,0.029896994010187,0.002975,-0.000076,-0.004293,0.148664,-0.024507,330.997780,24.596766,0.998105,0.967827,0.006952,0.234299,0.000002,-0.000070,0.000040,0.000020,-0.000089,24.160162,0.000093,
2371,3283,2.32825976873194,13.8758169967389,0.00446139769104548,0.002726,-0.000949,0.000363,0.123892,-0.041271,310.302057,25.896993,0.999689,0.993325,0.003273,0.396655,-0.000007,-0.000010,0.000001,-0.000006,-0.000010,17.341341,0.000016,
2221,2473,-0.785645506783602,-3.74693628824291,-0.00912089139279715,0.002602,-0.000164,-0.001355,0.123786,-0.010075,323.552032,24.068429,0.999337,0.986655,0.004642,0.406053,-0.000022,-0.000016,0.000013,-0.000006,-0.000032,51.333500,0.000041,
2446,2338,4.14605489732186,-6.69648597108613,0.0105834365892861,0.002320,-0.000794,0.001576,0.100063,-0.024370,325.825434,23.128642,0.999254,0.980979,0.005177,0.316683,-0.000016,-0.000016,0.000004,-0.000012,-0.000020,46.864740,0.000033,
2041,2008,-4.63138989541599,-13.9222188952003,0.0186967026850766,0.002396,-0.000948,0.003749,0.099261,-0.036382,331.981209,24.801689,0.998035,0.980276,0.005879,0.222409,0.000048,-0.000114,0.000075,0.000078,-0.000143,21.392873,0.000143,
2461,2563,4.4260173640613,-1.77525468852151,-0.0241427570750261,0.002961,-0.000561,-0.000154,0.136140,-0.028092,321.951145,23.859005,0.999415,0.989131,0.004232,0.364532,-0.000002,-0.000022,0.000003,-0.000002,-0.000022,8.391954,0.000027,
2326,2953,1.41271575428681,6.71190167701324,-0.00566171549752426,0.002964,-0.000469,-0.000300,0.137167,-0.029108,315.638635,24.997109,0.999049,0.988594,0.004484,0.322271,-0.000022,-0.000011,0.000007,-0.000007,-0.000025,63.456698,0.000034,
2281,2833,0.455261197563221,4.10035826067065,-0.0193885850462152,0.002727,-0.000969,0.000159,0.124538,-0.042538,317.509924,24.608055,0.999462,0.991523,0.003798,0.372095,-0.000015,-0.000007,0.000013,0.000002,-0.000025,53.161676,0.000027,
2161,2188,-2.04385893810332,-9.98157716031618,0.000302450912499808,0.002830,-0.000225,-0.001339,0.133860,-0.021938,328.418589,23.748588,0.999808,0.912135,0.009542,0.625235,-0.000004,0.000000,0.000025,0.000023,-0.000027,47.039253,0.000029,
2236,2653,-0.490588026075418,0.180560769198721,-0.0114797877282058,0.002869,-0.000240,0.000726,0.129487,0.000025,320.586084,24.402645,0.999396,0.989603,0.004214,0.310698,-0.000017,0.000007,0.000012,0.000012,-0.000022,67.390090,0.000022,
2191,2368,-1.42027423552,-6.04114140298724,-0.000238685215208534,0.002831,-0.000173,0.000202,0.129309,0.000993,325.409599,24.052812,0.999560,0.987992,0.004461,0.390289,-0.000024,-0.000017,0.000001,-0.000017,-0.000024,83.006867,0.000041,
2476,2653,4.73473728489138,0.188672216383495,-0.0233979249504159,0.002741,-0.000679,-0.001120,0.129714,-0.032807,320.522056,24.148620,0.999644,0.990538,0.003773,0.391932,-0.000006,-0.000019,-0.000006,-0.000004,-0.000021,-21.505673,0.000027,
2176,2353,-1.74552397897306,-6.36777287114892,-0.0108598186688482,0.002487,-0.000298,0.000164,0.113598,-0.009165,325.594107,24.113037,0.998783,0.981814,0.005322,0.356658,-0.000023,-0.000027,-0.000001,-0.000023,-0.000027,-16.407171,0.000050,
2101,2098,-3.33625109690547,-11.9483502695828,0.0187547770393053,0.002832,-0.000266,-0.001146,0.133172,-0.030642,330.259542,24.592594,0.999359,0.957637,0.008045,0.053485,-0.000010,-0.000028,0.000030,0.000012,-0.000051,36.736045,0.000053,
2416,2113,3.53777047814083,-11.6284661326989,0.0267185726735875,0.002970,0.000235,-0.003620,0.149162,-0.005644,329.595163,22.483245,0.999173,0.977118,0.005923,0.338316,-0.000029,-0.000015,0.000010,-0.000009,-0.000035,61.894524,0.000046,
2506,2968,5.32529458406213,7.04987147290661,-0.00634952781592801,0.002828,-0.000470,-0.002184,0.138142,-0.027455,315.612986,25.463614,0.999541,0.990039,0.004077,0.345194,-0.000028,-0.000007,0.000014,0.000000,-0.000035,62.937089,0.000041,
2206,2428,-1.10324323145569,-4.73306070918168,0.00681798387103072,0.003025,-0.001751,0.002328,0.130956,-0.038412,324.459741,23.921172,0.999159,0.988394,0.004456,0.505041,-0.000021,-0.000033,0.000007,-0.000018,-0.000036,24.347305,0.000055,
2251,2683,-0.170277501864533,0.83352617883213,-0.0192025195890437,0.002615,-0.000870,-0.000761,0.122381,-0.041134,319.997790,24.312088,0.999538,0.991225,0.003724,0.399123,-0.000024,-0.000001,-0.000004,-0.000001,-0.000025,-79.310677,0.000029,
2266,2773,0.139799152140636,2.79531415646956,-0.0276667784809774,0.003149,-0.000743,-0.000439,0.146012,-0.027445,318.460594,24.521329,0.999187,0.988267,0.004213,0.354127,-0.000014,-0.000010,0.000009,-0.000003,-0.000021,51.403868,0.000026,
2041,2023,-4.63282491100763,-13.5945096812095,0.0210155635718934,0.002865,-0.001177,0.001233,0.127636,-0.048830,331.789212,24.721202,0.998389,0.980305,0.005729,0.286258,0.000045,-0.000131,0.000072,0.000071,-0.000157,19.702532,0.000157,
2356,3223,2.01566761080378,12.5728733208607,0.0260129767491435,0.002609,-0.000774,-0.000591,0.121867,-0.043570,311.463572,25.717281,0.999584,0.992635,0.003374,0.339994,-0.000006,-0.000008,0.000002,-0.000004,-0.000009,29.067649,0.000014,
2311,2893,1.09650043352503,5.40792620406958,-0.0216960843840752,0.002807,-0.000877,-0.001361,0.133394,-0.049527,316.489118,24.854485,0.999546,0.991719,0.003661,0.282254,-0.000026,-0.000014,0.000008,-0.000009,-0.000031,63.493623,0.000042,
2491,2908,5.00971048676591,5.74503224730795,-0.0193187349464665,0.002545,-0.000674,-0.002601,0.126512,-0.049819,316.430926,25.244350,0.999167,0.987853,0.004310,0.271205,-0.000027,-0.000014,-0.000004,-0.000013,-0.000028,-75.797412,0.000042,
2296,2863,0.776186323473681,4.75432917859171,-0.0191834822658166,0.002920,-0.000726,-0.000890,0.137083,-0.018414,317.016798,24.721782,0.999659,0.993055,0.003478,0.360141,-0.000019,-0.000004,0.000005,-0.000002,-0.000021,72.633833,0.000025,
2071,3253,-4.16925118160922,13.1966677925906,0.0384804499047959,0.003106,-0.000980,0.000490,0.141716,-0.029640,311.874605,24.262214,0.999711,0.995152,0.002937,0.363423,-0.000011,0.000004,-0.000024,0.000021,-0.000028,-53.506616,0.000029,
2371,3298,2.32503566775117,14.2017862136074,-0.00552767326138337,0.003201,-0.000793,0.000877,0.144005,-0.033446,309.991490,25.955430,0.999698,0.993406,0.003315,0.385761,-0.000007,-0.000021,0.000000,-0.000007,-0.000021,-1.649397,0.000030,
2026,2023,-4.95978265019313,-13.5935714892523,0.0195872771215022,0.002924,-0.000278,0.000699,0.132155,-0.006975,331.870192,24.816960,0.998571,0.982481,0.005600,0.332833,0.000048,-0.000154,0.000060,0.000065,-0.000171,15.385846,0.000172,
2116,2038,-3.00016796571455,-13.2665107942497,0.0117981604873307,0.002886,-0.000433,-0.001326,0.136113,-0.027058,331.101197,24.171068,0.999133,0.984075,0.005307,0.362057,-0.000019,-0.000063,0.000014,-0.000015,-0.000067,15.855694,0.000088,
2341,3133,1.70670953755664,10.6193924132421,0.0217625859480108,0.002831,-0.000854,0.001262,0.125611,-0.034734,312.908585,25.410275,0.999435,0.992535,0.003619,0.368215,-0.000018,0.000003,-0.000004,0.000004,-0.000018,-80.061666,0.000019,
2431,2263,3.83314877238699,-8.3364118521296,-0.00277144603933266,0.002967,-0.000061,0.000090,0.135517,-0.004844,326.935007,22.966820,0.999188,0.980704,0.005399,0.293847,-0.000028,-0.000027,-0.000007,-0.000020,-0.000035,-47.829818,0.000055,
2071,2083,-3.98964434671739,-12.2765997951107,0.00159228008573109,0.002261,-0.000421,0.000845,0.101177,0.006032,330.474139,24.541905,0.998710,0.968888,0.006661,0.321228,-0.000003,-0.000056,0.000038,0.000017,-0.000076,27.695381,0.000080,
2146,2218,-2.37541575604336,-9.32213824896216,0.010484149106901,0.002618,-0.000450,0.001512,0.115395,0.000386,328.055393,24.166282,0.998656,0.979649,0.005493,0.327249,-0.000011,0.000006,0.000023,0.000022,-0.000027,54.728982,0.000029,
2461,2578,4.42196963897363,-1.44750099969454,-0.03440414267493,0.002924,-0.000828,0.001479,0.128178,-0.027407,321.613505,23.853050,0.999611,0.992063,0.003959,0.427046,0.000000,-0.000008,0.000004,0.000002,-0.000010,23.515536,0.000011,
2401,1993,3.23375377801385,-14.2643294007691,0.0356080650207673,0.002701,-0.000423,-0.003746,0.136849,-0.057095,331.571536,22.209836,0.998760,0.968790,0.006687,0.257347,-0.000001,-0.000113,0.000019,0.000002,-0.000116,9.391376,0.000133,
2131,2188,-2.6962414867601,-9.97933907235731,0.0143941564261354,0.003155,0.000048,-0.005039,0.159811,-0.029818,328.674318,24.237525,0.999313,0.983635,0.004991,0.281078,-0.000012,0.000006,0.000029,0.000028,-0.000033,53.396835,0.000036,
2446,2353,4.14347807267999,-6.36915840696332,0.00967119017906271,0.002676,-0.000950,-0.000140,0.122720,-0.044058,325.598164,23.108264,0.999394,0.982227,0.005227,0.371222,-0.000010,-0.000018,0.000006,-0.000007,-0.000021,26.897067,0.000029,
2221,2488,-0.788489300372557,-3.4190147010211,-0.0152789933575264,0.002651,-0.000414,-0.003272,0.132100,-0.022515,323.266211,24.090974,0.999450,0.987128,0.004360,0.391218,-0.000023,-0.000014,0.000011,-0.000007,-0.000030,55.277596,0.000039,
2041,3268,-4.82207607502407,13.5190801481348,0.0362519414532585,0.002619,-0.000905,0.001703,0.115982,-0.021908,311.757799,24.100548,0.999644,0.994518,0.002950,0.363642,-0.000023,0.000009,-0.000028,0.000025,-0.000040,-59.516948,0.000040,
2506,2983,5.32212536770494,7.3758349171871,-0.00755537643311754,0.002953,-0.000675,-0.001041,0.139440,-0.025674,315.358730,25.492921,0.999433,0.988158,0.004212,0.378357,-0.000025,0.000001,0.000017,0.000010,-0.000033,64.067302,0.000034,
2236,2668,-0.493106395749582,0.506591135637201,-0.00894950103258907,0.002739,-0.000333,-0.000120,0.126228,-0.006108,320.360879,24.380147,0.999488,0.990872,0.003909,0.348517,-0.000014,0.000004,0.000008,0.000007,-0.000017,68.555880,0.000017,
2491,2923,5.0055622481188,6.07226788772729,-0.0290031572290559,0.002589,-0.000689,0.001014,0.114766,-0.015601,316.092155,25.281690,0.999445,0.987520,0.004180,0.326826,-0.000032,-0.000016,-0.000003,-0.000015,-0.000033,-78.482819,0.000049,
2041,2038,-4.63541623199481,-13.2658172645387,0.0184728817529276,0.002316,-0.000388,-0.003864,0.116851,-0.037358,331.517384,24.657245,0.998699,0.978479,0.005728,0.357933,0.000036,-0.000121,0.000066,0.000060,-0.000146,20.100271,0.000147,
2326,2968,1.40985834913193,7.03859133117839,-0.00674136306582795,0.002981,-0.000529,-0.000419,0.138385,-0.028807,315.385514,25.089174,0.999698,0.995290,0.002991,0.264259,-0.000024,-0.000009,0.000008,-0.000006,-0.000027,66.945533,0.000036,
2251,2698,-0.172823298176564,1.16061952459354,-0.0231779794584099,0.002874,-0.000487,-0.002695,0.140762,-0.027826,319.739104,24.324135,0.999552,0.991381,0.003574,0.424288,-0.000026,-0.000019,-0.000007,-0.000014,-0.000030,-58.234772,0.000045,
2026,2038,-4.9615667958915,-13.2658462091386,0.0213775238417497,0.002978,-0.000130,-0.003003,0.144841,-0.038349,331.658252,24.755861,0.998531,0.978652,0.005791,0.356174,0.000040,-0.000142,0.000056,0.000056,-0.000158,15.882672,0.000161,
2071,3268,-4.17242650213061,13.5215725346571,0.0287510719458055,0.002994,-0.001083,0.001073,0.134842,-0.035958,311.540969,24.221199,0.999791,0.996216,0.002715,0.393509,-0.000011,0.000008,-0.000023,0.000024,-0.000026,-56.252323,0.000029,
2356,3238,2.01265615207661,12.8982033958096,0.0227678057486855,0.002653,-0.000664,-0.001242,0.126296,-0.033738,311.194581,25.733406,0.999627,0.992831,0.003291,0.371198,-0.000004,-0.000012,0.000002,-0.000004,-0.000012,12.245229,0.000017,
2176,2368,-1.74765390038682,-6.03984151077355,-0.010073610037125,0.002863,-0.000288,0.001020,0.128215,-0.008069,325.373068,24.146560,0.999174,0.986997,0.004596,0.338425,-0.000023,-0.000015,-0.000001,-0.000014,-0.000023,-80.149974,0.000038,
2476,2668,4.73158931384362,0.515256171406975,-0.0256239323767318,0.002994,-0.000752,0.000888,0.133652,-0.044162,320.263497,24.146554,0.999489,0.988206,0.004131,0.439980,-0.000002,-0.000036,-0.000006,-0.000001,-0.000037,-9.605806,0.000043,
2206,2443,-1.10769486298687,-4.40178017755719,-0.0199807406316381,0.002731,-0.001206,-0.001635,0.130179,-0.055901,323.991900,24.045889,0.998603,0.984325,0.005163,0.381997,-0.000024,-0.000024,0.000008,-0.000016,-0.000033,44.823766,0.000050,
2116,2053,-3.00239594533588,-12.9372361235646,0.0140716179959668,0.002964,-0.000414,0.000121,0.135403,-0.019279,330.878548,24.225192,0.998782,0.980363,0.005395,0.322392,-0.000016,-0.000040,0.000016,-0.000008,-0.000048,26.974698,0.000061,
2161,2203,-2.04671696845874,-9.64971565506418,0.00290124795702695,0.002498,-0.000616,0.001823,0.108824,0.000595,328.171886,24.081387,0.998989,0.961676,0.006618,0.327650,-0.000004,0.000003,0.000025,0.000025,-0.000026,48.884318,0.000029,
2266,2788,0.137245451891207,3.12123376800101,-0.0230876081549241,0.003020,-0.000742,0.000508,0.136963,-0.025224,318.245967,24.532554,0.999212,0.988239,0.004333,0.370727,-0.000012,-0.000015,0.000009,-0.000005,-0.000022,40.311106,0.000029,
2041,3283,-4.82452097810714,13.8435404395167,0.0319939888267413,0.002792,-0.000916,0.001405,0.124784,-0.027142,311.485665,24.050989,0.999632,0.994235,0.003014,0.399089,-0.000027,0.000008,-0.000017,0.000015,-0.000034,-67.701057,0.000034,
2191,2383,-1.42299335720117,-5.71357141144382,-0.00389263295176079,0.002914,-0.000387,0.000547,0.131963,-0.015959,325.139911,24.033089,0.999309,0.987518,0.004554,0.409508,-0.000025,-0.000014,0.000005,-0.000013,-0.000027,70.045347,0.000040,
2401,2008,3.23029912305403,-13.9332951601758,0.027408408146016,0.002792,-0.000095,-0.004155,0.142667,-0.049291,331.267070,22.291769,0.998489,0.967312,0.006830,0.232780,-0.000003,-0.000098,0.000027,0.000004,-0.000105,14.938588,0.000119,
2386,1993,2.90508349595403,-14.2636504872879,0.0381888448492873,0.002178,-0.000441,0.000240,0.098562,-0.010776,331.538758,22.321266,0.998908,0.961722,0.007158,0.299174,-0.000003,-0.000102,0.000032,0.000006,-0.000112,16.203484,0.000126,
2311,2908,1.0944371053846,5.73314037545541,-0.0111418044321567,0.002664,-0.000643,-0.002161,0.129647,-0.038696,316.329288,24.867643,0.999479,0.992741,0.003638,0.311440,-0.000022,-0.000012,0.000010,-0.000006,-0.000029,58.282029,0.000037,
2461,2593,4.4197798679621,-1.12151865912386,-0.0183095252874637,0.002565,-0.001062,0.003096,0.105539,-0.030966,321.481916,23.923240,0.999293,0.988527,0.004295,0.408040,0.000000,-0.000013,0.000008,0.000003,-0.000016,25.843763,0.000017,
2071,2098,-3.99026718316062,-11.9506411950581,0.0260815444049172,0.002417,-0.001030,0.001461,0.106426,-0.044881,330.443088,24.610855,0.998862,0.977978,0.005557,0.200308,-0.000008,-0.000033,0.000039,0.000020,-0.000061,36.092066,0.000062,
2506,2998,5.31886098655423,7.70164610097703,-0.000727324248202876,0.002542,-0.001055,0.002912,0.105056,-0.034956,315.136026,25.578107,0.999519,0.989723,0.003907,0.344044,-0.000024,-0.000004,0.000021,0.000008,-0.000037,57.931840,0.000039,
2071,3283,-4.17554137067347,13.8468697630897,0.0180461381513624,0.002837,-0.000802,-0.001048,0.133747,-0.032225,311.204568,24.206083,0.999779,0.996319,0.002688,0.407545,-0.000014,0.000008,-0.000017,0.000017,-0.000023,-61.350608,0.000024,
2281,2848,0.452041852256336,4.42832095719765,-0.0243800540181951,0.002655,-0.000558,0.000959,0.118741,-0.016200,317.217132,24.727483,0.999580,0.993130,0.003683,0.306611,-0.000015,-0.000009,0.000012,0.000000,-0.000024,51.334830,0.000028,
2101,2113,-3.33798217098136,-11.6233389541006,0.027128282113722,0.002956,-0.000477,0.000135,0.135065,-0.019571,330.091910,24.341564,0.999155,0.978358,0.005751,0.319516,-0.000007,-0.000033,0.000029,0.000012,-0.000052,33.351115,0.000054,
2041,2053,-4.63967310285024,-12.9316366461669,-0.0154092178873384,0.002565,-0.000528,-0.000320,0.118397,-0.012599,330.995623,24.736535,0.999718,0.991976,0.003734,0.300914,0.000031,-0.000075,0.000057,0.000056,-0.000099,23.432204,0.000100,
2341,3148,1.70445115510327,10.9444164431422,0.0290960474472968,0.002990,-0.001198,0.003173,0.126089,-0.048863,312.725054,25.462011,0.999457,0.993426,0.003561,0.337512,-0.000017,0.000002,-0.000003,0.000002,-0.000018,-81.426502,0.000019,
2431,2278,3.82963202052343,-8.01000078083111,-0.000105676894065709,0.002345,-0.000789,0.001873,0.100172,-0.038483,326.680404,22.887956,0.999248,0.979171,0.005613,0.391098,-0.000029,-0.000022,-0.000001,-0.000021,-0.000029,-78.987540,0.000050,
2041,3298,-4.82681432234615,14.1686652300645,0.0300400566998178,0.003001,-0.000894,0.001455,0.134281,-0.030124,311.233062,24.077033,0.999574,0.994821,0.003096,0.360904,-0.000037,0.000023,-0.000015,0.000027,-0.000041,-76.502902,0.000042,
2416,2128,3.53341277147264,-11.2972450911412,0.0132854790757619,0.002891,-0.000363,-0.000688,0.134645,-0.017265,329.226007,22.594508,0.999376,0.979861,0.005542,0.266707,-0.000027,-0.000014,0.000009,-0.000010,-0.000032,62.086641,0.000043,
2356,3253,2.00958536816794,13.2231424826501,0.0226860723952882,0.002534,-0.000811,-0.000085,0.116707,-0.033682,310.938242,25.745099,0.999692,0.992802,0.003264,0.396992,-0.000005,0.000000,0.000006,0.000004,-0.000009,56.259968,0.000009,
2491,2938,5.00334115964786,6.39820956791898,-0.0209419732748302,0.002849,-0.000804,0.002042,0.122791,-0.008535,315.922470,25.357667,0.999524,0.990115,0.003763,0.315944,-0.000033,-0.000026,0.000001,-0.000026,-0.000034,80.255781,0.000059,
2446,2368,4.14027656833006,-6.03989352044648,0.00418200693178505,0.002828,-0.000619,-0.001426,0.134586,-0.040773,325.320763,23.203097,0.999443,0.985329,0.004887,0.333795,-0.000009,-0.000015,0.000007,-0.000005,-0.000020,32.606804,0.000026,
2026,2053,-4.96422440877524,-12.9354475027028,0.0264290385235313,0.002493,-0.000885,0.001661,0.109580,-0.032672,331.423924,24.942917,0.999743,0.992784,0.003565,0.168568,0.000038,-0.000093,0.000047,0.000053,-0.000108,17.925060,0.000108,
2296,2878,0.773434701641264,5.07993040934858,-0.0198488108034098,0.002868,-0.000551,-0.002124,0.138902,-0.025973,316.768899,24.699172,0.999678,0.992473,0.003531,0.404775,-0.000018,-0.000008,0.000006,-0.000006,-0.000021,65.233954,0.000028,
2116,2068,-3.0041838563469,-12.6079304269081,0.0130486879414207,0.003454,0.000086,-0.002118,0.164680,-0.021362,330.658419,24.260507,0.998739,0.971274,0.006441,0.291847,-0.000013,-0.000043,0.000020,-0.000003,-0.000053,26.779143,0.000063,
2476,2683,4.72801506772295,0.843634735161785,-0.0311821627018389,0.002765,-0.000739,-0.001261,0.131323,-0.042101,319.969731,24.273444,0.999664,0.989907,0.003870,0.372137,-0.000005,-0.000035,-0.000002,-0.000004,-0.000035,-4.402130,0.000043,
2221,2503,-0.791006125005762,-3.09118643786973,-0.0192281656005662,0.003078,-0.000218,-0.002223,0.148406,-0.022850,323.006625,24.118627,0.999451,0.987601,0.004317,0.383447,-0.000028,-0.000020,0.000011,-0.000012,-0.000036,54.349473,0.000050,
2071,2113,-3.99231716286388,-11.6215543463062,0.0221438238077667,0.002894,-0.000966,0.001572,0.128013,-0.034873,330.191115,24.597319,0.998999,0.982319,0.005231,0.223812,-0.000010,-0.000037,0.000034,0.000013,-0.000060,33.969215,0.000063,
2071,3298,-4.17802243096808,14.1720457077624,0.0159858568058553,0.002855,-0.000556,-0.001919,0.137187,-0.023565,310.944878,24.226413,0.999615,0.994729,0.002996,0.391258,-0.000017,0.000020,-0.000021,0.000029,-0.000027,-65.653969,0.000033,
2251,2713,-0.175713780687367,1.48770570797255,-0.026134452225449,0.002988,-0.000693,-0.000869,0.139952,-0.035225,319.469771,24.369622,0.999512,0.991341,0.003653,0.395140,-0.000023,-0.000022,-0.000005,-0.000018,-0.000027,-48.232995,0.000045,
2326,2983,1.40706167709324,7.36295985804366,-0.000781576008535012,0.002686,-0.000944,0.001654,0.117525,-0.037334,315.170312,25.028905,0.999914,0.997274,0.002524,0.349832,-0.000022,-0.000016,0.000004,-0.000014,-0.000024,62.290638,0.000038,
2461,2608,4.41715999445969,-0.794417110320779,-0.0147108883862757,0.002605,-0.001199,0.002231,0.110637,-0.031114,321.273191,23.987750,0.999196,0.985605,0.004587,0.398292,-0.000002,-0.000004,0.000004,0.000001,-0.000007,35.931839,0.000007,
2206,2458,-1.10972466828136,-4.07486913990365,-0.00935432017001858,0.002525,-0.000712,-0.001614,0.120841,-0.030059,323.828581,24.083392,0.998986,0.984980,0.005034,0.388068,-0.000023,-0.000022,0.000012,-0.000010,-0.000034,46.327377,0.000046,
2386,2008,2.90209503430709,-13.9320239887919,0.0271861795283712,0.002714,0.000002,-0.002850,0.134321,-0.015519,331.240814,22.437406,0.998806,0.971832,0.006275,0.225449,-0.000004,-0.000088,0.000038,0.000010,-0.000102,20.975095,0.000113,
2236,2683,-0.496281788632313,0.833655840823965,-0.0178880143560036,0.002739,-0.000249,-0.001382,0.130307,-0.017257,320.046844,24.367329,0.999461,0.989565,0.004001,0.372024,-0.000017,0.000004,0.000003,0.000004,-0.000017,83.186058,0.000018,
2401,2023,3.22628935927964,-13.6036871175448,0.0224443504118881,0.002273,-0.000338,-0.001928,0.110814,-0.041492,330.952373,22.287115,0.998660,0.971487,0.006471,0.294900,-0.000005,-0.000072,0.000019,0.000000,-0.000077,14.913105,0.000089,
2056,1993,-4.30154312287538,-14.2537083550637,0.026580924091661,0.002320,-0.000831,0.001089,0.103102,-0.046411,332.207005,24.613364,0.998864,0.980232,0.005531,0.299180,0.000017,-0.000138,0.000059,0.000037,-0.000158,18.570611,0.000165,
2506,3013,5.31635648140926,8.02789438112201,-0.00220594502252425,0.002871,-0.000642,-0.001646,0.138051,-0.022029,314.910911,25.628626,0.999516,0.990753,0.003699,0.366977,-0.000027,0.000003,0.000020,0.000013,-0.000037,63.970339,0.000037,
2041,2068,-4.64126836871381,-12.6042365397356,-0.0124500806391552,0.002877,-0.000178,-0.002129,0.137893,-0.021414,330.799929,24.649711,0.999654,0.992308,0.003669,0.374188,0.000027,-0.000070,0.000066,0.000061,-0.000104,26.772570,0.000104,
2176,2383,-1.74997089647478,-5.71349556779779,-0.00971964805239622,0.003169,-0.001025,0.003252,0.135128,-0.038135,325.141650,24.066958,0.999206,0.988840,0.004403,0.401649,-0.000025,-0.000010,0.000002,-0.000010,-0.000025,83.435843,0.000036,
2131,2203,-2.70000926513593,-9.65035853079151,0.00462282937712644,0.002769,-0.000600,0.000159,0.126397,-0.019732,328.318497,24.189112,0.998601,0.979782,0.005486,0.348603,-0.000011,0.000008,0.000027,0.000027,-0.000030,54.226127,0.000033,
2056,2008,-4.30325267343317,-13.9250810199031,0.0322326044657757,0.002602,-0.001048,0.002845,0.111073,-0.062156,332.021837,24.651980,0.998941,0.981758,0.005433,0.242805,0.000016,-0.000117,0.000049,0.000032,-0.000133,18.134249,0.000138,
2311,2923,1.09145983608903,6.05872777790487,-0.0119761091592068,0.002686,-0.000447,0.000100,0.123094,-0.011146,316.071148,24.820154,0.999203,0.990558,0.003940,0.418527,-0.000022,-0.000013,0.000010,-0.000007,-0.000029,56.006247,0.000037,
2266,2803,0.134502154013113,3.4484689977234,-0.0269502899028566,0.003175,-0.000401,-0.000517,0.147610,-0.014629,317.979773,24.595207,0.999126,0.988327,0.004595,0.344321,-0.000014,-0.000017,0.000011,-0.000005,-0.000027,41.655135,0.000034,
2356,3268,2.00508285182,13.5499292604141,0.00377994093366851,0.002509,-0.000924,0.002006,0.108187,-0.023339,310.524122,25.817175,0.999629,0.993060,0.003278,0.372485,-0.000003,0.000007,0.000008,0.000011,-0.000008,61.116489,0.000012,
2431,2293,3.82708953310179,-7.68131473376504,0.00300719534430982,0.002334,-0.000619,-0.000575,0.108744,-0.043120,326.472092,22.997259,0.999205,0.981140,0.005330,0.329187,-0.000031,-0.000019,0.000006,-0.000017,-0.000033,68.870999,0.000051,
2161,2218,-2.04873742509751,-9.32160370737424,0.00423789139586006,0.002679,-0.000466,-0.000660,0.124794,-0.027779,327.957743,24.114440,0.998743,0.979972,0.005489,0.278809,-0.000004,0.000006,0.000022,0.000024,-0.000021,51.369012,0.000026,
2191,2398,-1.42511121069707,-5.38631570155407,0.00110603224038641,0.002712,-0.000058,-0.003386,0.135124,-0.019090,324.942610,24.058996,0.999177,0.986187,0.004881,0.396528,-0.000024,-0.000022,0.000000,-0.000022,-0.000024,89.717560,0.000046,
2146,2233,-2.3777439833266,-8.9933295769851,0.00315095601820303,0.002869,0.000020,-0.003579,0.142469,-0.020325,327.779991,24.170163,0.998745,0.981241,0.005293,0.313071,-0.000015,0.000003,0.000016,0.000013,-0.000024,59.973451,0.000024,
2461,2623,4.41374614488354,-0.465325127297028,-0.0259180490301674,0.002899,-0.000640,-0.000808,0.135794,-0.020731,320.959829,24.102452,0.999494,0.989006,0.004055,0.349428,0.000001,-0.000008,-0.000002,0.000001,-0.000009,-14.702884,0.000010,
2491,2953,5.00082126299173,6.72290773437233,-0.014604769859659,0.002827,-0.001297,0.001586,0.123220,-0.050076,315.731557,25.358753,0.999431,0.989575,0.003935,0.331531,-0.000033,-0.000018,0.000008,-0.000015,-0.000036,66.932967,0.000052,
2041,2083,-4.64196668905137,-12.2790141735361,0.0213895970568956,0.002594,-0.001005,0.002265,0.112483,-0.043610,330.816074,24.722613,0.999301,0.986596,0.004548,0.273553,0.000020,-0.000053,0.000064,0.000057,-0.000090,30.358381,0.000091,
2416,2143,3.53005903053951,-10.9691689303094,0.0140020819948177,0.002652,-0.000789,0.002159,0.113179,-0.030345,328.968962,22.579397,0.999391,0.981613,0.005076,0.319577,-0.000025,-0.000013,0.000006,-0.000010,-0.000028,67.486897,0.000039,
2086,1993,-3.6464965871462,-14.2535760911727,0.0284648128530876,0.002803,-0.000280,-0.002014,0.134193,-0.024506,332.097156,24.487816,0.999209,0.983709,0.005033,0.236076,-0.000003,-0.000131,0.000043,0.000010,-0.000144,16.963431,0.000161,
2206,2473,-1.11233903829351,-3.74625005884518,-0.0185050321269387,0.002890,0.000305,-0.004753,0.147888,-0.013541,323.536197,24.107737,0.999276,0.983679,0.005175,0.398380,-0.000022,-0.000016,0.000018,-0.000001,-0.000037,49.461355,0.000043,
2386,2023,2.89881021753628,-13.6022919382727,0.0192500275254588,0.002785,-0.000038,-0.004868,0.144776,-0.037102,330.943939,22.439540,0.998631,0.970959,0.006638,0.248902,-0.000006,-0.000064,0.000029,0.000006,-0.000076,22.404846,0.000085,
2101,2128,-3.34099645011646,-11.2943339763711,0.0216578878735731,0.002644,-0.000475,0.000433,0.119911,-0.025223,329.790601,24.325955,0.999134,0.987108,0.004866,0.334174,-0.000010,-0.000040,0.000032,0.000010,-0.000060,32.052422,0.000065,
2056,2023,-4.30572696956361,-13.5941479053393,0.0206367921427955,0.002855,-0.000561,-0.000836,0.133133,-0.029315,331.706608,24.662316,0.998811,0.983739,0.005249,0.264066,0.000019,-0.000131,0.000049,0.000033,-0.000145,16.627002,0.000152,
2341,3163,1.70170614415875,11.2702393411444,0.0291669000272918,0.002794,-0.000525,-0.000445,0.130041,-0.011945,312.483430,25.495748,0.999523,0.993319,0.003625,0.376277,-0.000014,-0.000001,-0.000002,-0.000001,-0.000014,-82.512926,0.000016,
2446,2383,4.13679334799012,-5.71061386491611,0.00052626177273396,0.002512,-0.000098,-0.003150,0.126749,-0.018227,325.038688,23.303616,0.999782,0.988518,0.004431,0.310022,-0.000004,-0.000028,-0.000006,-0.000003,-0.000030,-13.111753,0.000036,
2116,2083,-3.00695734986788,-12.2788428540192,0.0116033311966248,0.003104,-0.000379,-0.002647,0.150040,-0.050875,330.391209,24.304429,0.998768,0.976612,0.006040,0.225177,-0.000011,-0.000034,0.000021,0.000002,-0.000047,30.420988,0.000053,
2326,2998,1.40464914922989,7.6884339937967,0.00344377314149824,0.002737,-0.000783,0.001434,0.120709,-0.023254,314.963888,25.039320,0.999784,0.995204,0.002984,0.387146,-0.000021,-0.000021,0.000002,-0.000019,-0.000023,46.793075,0.000042,
2176,2398,-1.75207131550198,-5.3851551397586,-0.0102890707970573,0.003251,-0.000280,-0.002067,0.155607,-0.001276,324.914636,24.099091,0.999050,0.986708,0.004698,0.420346,-0.000024,-0.000019,-0.000002,-0.000018,-0.000025,-69.431031,0.000043,
2221,2518,-0.793612703994054,-2.7647191062054,-0.0136949210935882,0.002779,-0.000329,-0.000725,0.129865,-0.017091,322.791748,24.106406,0.999337,0.986520,0.004425,0.421369,-0.000027,-0.000019,0.000015,-0.000007,-0.000038,52.178212,0.000049,
2071,2128,-3.99508263648429,-11.2921278054554,0.0133538600489373,0.002942,-0.000849,0.001402,0.130780,-0.041151,329.880054,24.584618,0.999117,0.984862,0.004988,0.230641,-0.000014,-0.000046,0.000034,0.000008,-0.000068,32.709010,0.000074,
2401,2038,3.22345218844533,-13.274545222776,0.0237923451135771,0.002313,-0.000158,-0.001092,0.109652,-0.016710,330.720839,22.299917,0.998671,0.972816,0.006318,0.355893,-0.000008,-0.000069,0.000016,-0.000005,-0.000073,13.625132,0.000087,
2506,3028,5.31353695184595,8.35335933372351,0.00214058713089571,0.002788,-0.000491,-0.001497,0.133682,-0.022628,314.697509,25.663539,0.999579,0.992528,0.003546,0.391573,-0.000028,0.000017,0.000014,0.000021,-0.000031,74.324996,0.000032,
2266,2818,0.132011231706947,3.77386313768897,-0.0220528980518679,0.002883,-0.000498,-0.002386,0.140289,-0.037774,317.769766,24.593993,0.999337,0.989729,0.004144,0.347673,-0.000014,-0.000013,0.000012,-0.000001,-0.000025,45.964614,0.000030,
2086,2008,-3.64864521158341,-13.9253345208316,0.0304228755189229,0.002880,-0.000672,-0.001029,0.134791,-0.033978,331.874221,24.443727,0.999369,0.986575,0.004791,0.273427,-0.000019,-0.000104,0.000028,-0.000010,-0.000112,16.754521,0.000136,
2236,2698,-0.499237050792591,1.16082810017714,-0.0241048162308175,0.002884,-0.000314,-0.001016,0.135809,-0.008178,319.756646,24.372255,0.999497,0.991212,0.003665,0.397737,-0.000018,-0.000015,0.000001,-0.000015,-0.000018,75.344049,0.000033,
2281,2863,0.44950913229447,4.75443938976731,-0.0233279134242821,0.002897,-0.000808,0.002753,0.123797,-0.010961,316.986592,24.748140,0.999683,0.993471,0.003493,0.318851,-0.000016,-0.000009,0.000008,-0.000004,-0.000021,56.838833,0.000027,
2251,2728,-0.178745797302149,1.81445561535381,-0.0257634348586748,0.002661,-0.000691,0.000115,0.121717,-0.027650,319.210794,24.401026,0.999414,0.990538,0.003799,0.394853,-0.000018,-0.000021,-0.000004,-0.000015,-0.000024,-33.035216,0.000040,
2356,3283,2.00173045061713,13.8755664916213,-0.00693878659745906,0.002756,-0.000817,0.000922,0.123441,-0.024499,310.202924,25.845429,0.999564,0.992703,0.003388,0.380383,0.000000,-0.000005,0.000005,0.000003,-0.000008,33.090633,0.000008,
2296,2893,0.770850757273333,5.40604538226588,-0.0182134118850854,0.002795,-0.000635,-0.003675,0.140767,-0.039079,316.539946,24.750424,0.999677,0.992571,0.003415,0.369874,-0.000016,-0.000010,0.000010,-0.000003,-0.000023,52.575626,0.000029,
2476,2698,4.7251017655221,1.17065797507809,-0.0258977673533423,0.002598,-0.000740,0.000336,0.117644,-0.028398,319.755714,24.358206,0.999668,0.989821,0.004019,0.358003,-0.000004,-0.000015,-0.000003,-0.000003,-0.000016,-16.552622,0.000020,
2461,2638,4.41061329665447,-0.1380186638903,-0.0278785874141363,0.002739,-0.000356,-0.003416,0.138391,-0.018942,320.701909,24.146303,0.999618,0.989600,0.003960,0.362226,-0.000004,-0.000011,0.000000,-0.000004,-0.000011,-0.365682,0.000015,
2056,2038,-4.30836449890901,-13.2644584927448,0.0115547243185574,0.002722,0.000142,-0.005503,0.140353,-0.017798,331.398032,24.616074,0.998670,0.981080,0.005471,0.320317,0.000014,-0.000118,0.000048,0.000030,-0.000134,17.930208,0.000141,
2041,2098,-4.64344417399584,-11.9507732962243,0.0234962873320228,0.003046,-0.000842,-0.000255,0.140258,-0.039249,330.620907,24.697686,0.999221,0.982054,0.005103,0.298067,0.000012,-0.000026,0.000066,0.000062,-0.000076,36.872693,0.000081,
2491,2968,4.9985794544524,7.04887696108258,-0.0110991486583316,0.002868,-0.000557,-0.004262,0.147886,-0.029914,315.540195,25.398876,0.999358,0.988015,0.004257,0.369965,-0.000029,-0.000012,0.000009,-0.000008,-0.000033,66.163304,0.000044,
2311,2938,1.08876503167601,6.38501344478254,-0.014334782772039,0.002725,-0.000212,-0.002790,0.134901,0.002080,315.818251,24.844739,0.999050,0.988610,0.004251,0.438780,-0.000021,-0.000010,0.000008,-0.000005,-0.000025,62.149209,0.000033,
2431,2308,3.82511170428494,-7.35217752409905,0.00776270418901959,0.002816,-0.000089,-0.002272,0.137328,-0.007843,326.296991,23.128981,0.999291,0.983604,0.004910,0.284566,-0.000029,-0.000021,0.000000,-0.000021,-0.000029,88.819174,0.000050,
2086,2023,-3.65233249425777,-13.5941124880358,0.0156195114471984,0.002428,-0.000377,-0.001003,0.114124,-0.024032,331.489775,24.467947,0.998979,0.983685,0.005314,0.262712,-0.000018,-0.000110,0.000025,-0.000012,-0.000117,14.310305,0.000142,
2386,2038,2.89556439105267,-13.272409782847,0.0174396657858438,0.002708,0.000224,-0.003141,0.135216,-0.013755,330.677453,22.485944,0.998894,0.975093,0.006152,0.272822,-0.000009,-0.000063,0.000023,0.000000,-0.000072,20.229642,0.000083,
2086,2158,-3.67358446133931,-10.6348977435726,0.00694612894000102,0.002680,-0.000817,0.002854,0.114511,-0.011954,329.252550,24.443419,0.999025,0.984550,0.005042,0.319952,-0.000012,-0.000025,0.000031,0.000014,-0.000050,39.016928,0.000051,
2131,2218,-2.70268971470877,-9.32169465891415,0.00686594483568115,0.002476,-0.000328,0.002175,0.107024,0.006188,328.076214,24.227287,0.998341,0.979398,0.005578,0.344476,-0.000008,0.000012,0.000025,0.000029,-0.000025,56.044074,0.000032,
2416,2158,3.52708558234364,-10.6403375495178,0.0105588580107678,0.002536,-0.000612,-0.002413,0.124626,-0.059938,328.709912,22.610451,0.999262,0.980109,0.005299,0.309308,-0.000026,-0.000013,0.000002,-0.000012,-0.000027,81.077285,0.000040,
2446,2398,4.1329694669109,-5.38292151910969,-0.00539760446321225,0.002497,-0.000747,0.000804,0.111127,-0.022295,324.730793,23.269255,0.999711,0.987924,0.004543,0.394469,-0.000003,-0.000020,-0.000003,-0.000003,-0.000020,-9.934083,0.000025,
2101,2143,-3.34417815402488,-10.9646597301608,0.0136787247288908,0.002460,-0.000755,0.002720,0.104703,-0.022361,329.467966,24.342090,0.998911,0.983335,0.005268,0.325468,-0.000014,-0.000016,0.000031,0.000016,-0.000046,43.883062,0.000046,
2401,2053,3.22041733492835,-12.9433550995693,0.0191256008886853,0.002808,-0.000788,0.001664,0.122127,-0.033842,330.452059,22.479568,0.999034,0.976813,0.006003,0.208010,-0.000011,-0.000053,0.000015,-0.000007,-0.000057,17.736979,0.000070,
2161,2233,-2.05095278701083,-8.99432194606018,0.00802640463365378,0.002503,-0.000350,-0.003067,0.124120,-0.041470,327.747629,24.087470,0.998779,0.980773,0.005315,0.304366,-0.000008,0.000004,0.000014,0.000014,-0.000018,56.345913,0.000018,
2176,2413,-1.75471533319584,-5.05768306661538,-0.00637851545099011,0.002931,-0.000282,-0.000805,0.137035,0.010796,324.686395,24.124220,0.998817,0.985233,0.004874,0.421079,-0.000023,-0.000032,-0.000007,-0.000019,-0.000036,-29.803754,0.000056,
2146,2248,-2.38053756393803,-8.66525139453896,0.00262096132559009,0.002672,-0.000266,-0.001638,0.127479,-0.016210,327.519262,24.158714,0.998817,0.981397,0.005295,0.339032,-0.000014,-0.000006,0.000019,0.000009,-0.000029,51.578337,0.000030,
2356,3298,1.9988987274335,14.2014637778132,-0.0126840078406758,0.003056,-0.000754,-0.001292,0.145086,-0.031684,309.929621,25.935565,0.999702,0.993047,0.003404,0.320487,0.000000,-0.000015,0.000004,0.000001,-0.000016,13.727011,0.000018,
2056,2053,-4.3100923158898,-12.9351186250397,0.0101766412124107,0.003302,0.000443,-0.005734,0.167748,-0.024447,331.173360,24.648534,0.998152,0.977322,0.005938,0.279144,0.000015,-0.000074,0.000043,0.000032,-0.000092,22.068565,0.000093,
2506,3043,5.31038766878181,8.68037417427161,0.000317125504750493,0.002885,-0.000551,-0.001585,0.138518,-0.018989,314.440750,25.800069,0.999712,0.992890,0.003654,0.318896,-0.000025,0.000021,0.000020,0.000029,-0.000032,69.673234,0.000035,
2326,3013,1.40202320702594,8.01430728344708,0.00282741160242495,0.002820,-0.000869,-0.000402,0.130861,-0.034845,314.723800,25.083175,0.999446,0.989627,0.003887,0.365273,-0.000021,-0.000021,0.000003,-0.000018,-0.000024,45.931149,0.000042,
2071,2143,-3.99728237837042,-10.9636937601091,0.0126173855501293,0.002921,-0.000570,-0.000887,0.136377,-0.007167,329.638700,24.534275,0.999050,0.984829,0.005056,0.314783,-0.000015,-0.000015,0.000032,0.000018,-0.000047,45.011257,0.000047,
2236,2713,-0.502083276253945,1.48722137951724,-0.0261955139162069,0.003005,-0.001002,0.001591,0.132683,-0.039197,319.492737,24.384534,0.999335,0.990135,0.003794,0.375870,-0.000015,-0.000019,0.000003,-0.000013,-0.000021,31.637786,0.000034,
2476,2713,4.72209992248478,1.49657275778452,-0.023451760585715,0.002618,-0.000776,0.002494,0.110337,-0.023446,319.524922,24.330651,0.999625,0.990042,0.004089,0.447504,-0.000015,-0.000010,-0.000002,-0.000009,-0.000016,-68.601112,0.000025,
2266,2833,0.129095572165028,4.10027358072929,-0.0242330387433185,0.003063,-0.000927,0.000986,0.137312,-0.032256,317.504281,24.607912,0.999341,0.990230,0.003946,0.364654,-0.000015,-0.000009,0.000015,0.000004,-0.000027,50.886357,0.000029,
2116,2098,-3.00883120974976,-11.9498096911459,0.0157976602791337,0.003343,-0.000369,-0.002332,0.160100,-0.040664,330.195033,24.370971,0.999100,0.975773,0.006011,0.175133,-0.000009,-0.000022,0.000025,0.000010,-0.000041,37.954460,0.000043,
2041,2113,-4.64575742556558,-11.6227097756074,0.0246747278648058,0.003014,-0.001279,0.002024,0.132290,-0.025797,330.382493,24.642721,0.999031,0.981519,0.005387,0.362312,0.000004,-0.000030,0.000061,0.000050,-0.000076,37.278772,0.000077,
2086,2038,-3.65417443058373,-13.2662626271742,0.0205233245852128,0.002591,-0.000486,-0.000600,0.120372,-0.015375,331.296754,24.414748,0.998984,0.983432,0.005289,0.326899,-0.000018,-0.000095,0.000028,-0.000009,-0.000104,17.960714,0.000126,
2491,2983,4.99503424485868,7.37573642948964,-0.0121295958506948,0.002573,-0.000620,-0.003201,0.130222,-0.042025,315.268037,25.526104,0.999379,0.988078,0.004117,0.288592,-0.000026,-0.000006,0.000011,-0.000001,-0.000030,66.998248,0.000036,
2191,2413,-1.42849565675635,-5.05723393786455,-0.00862048084724165,0.002637,-0.000238,-0.001867,0.126871,-0.018606,324.610536,24.113022,0.999088,0.987501,0.004615,0.359277,-0.000023,-0.000033,-0.000005,-0.000021,-0.000036,-22.349921,0.000058,
2221,2533,-0.796026453813173,-2.43608531944899,-0.0158122433585959,0.003069,-0.000178,-0.001388,0.145401,-0.013946,322.546020,24.230841,0.999574,0.989877,0.003930,0.319977,-0.000025,-0.000018,0.000013,-0.000007,-0.000035,52.703159,0.000045,
2431,2323,3.82181676969892,-7.02484930855798,0.00565880266105978,0.002748,-0.000277,-0.001196,0.130142,-0.021144,326.030090,23.080371,0.999235,0.982612,0.004963,0.371901,-0.000026,-0.000020,0.000005,-0.000017,-0.000029,59.178267,0.000046,
2206,2488,-1.11567372560032,-3.4181369364036,-0.0236511247145472,0.002545,-0.000367,-0.003867,0.129026,-0.030860,323.231649,24.162448,0.999307,0.985672,0.004770,0.344398,-0.000022,-0.000011,0.000018,0.000003,-0.000036,53.976852,0.000040,
2461,2653,4.40766029148375,0.188803074820648,-0.0244340194310553,0.002616,-0.000574,-0.002366,0.128675,-0.033914,320.477021,24.212671,0.999610,0.989722,0.003930,0.335946,-0.000006,-0.000016,-0.000003,-0.000006,-0.000017,-14.102200,0.000024,
2311,2953,1.0865647487393,6.71087131795696,-0.0097017621909572,0.002891,-0.000256,-0.003620,0.145313,-0.014783,315.622685,24.913322,0.999301,0.990786,0.003853,0.384940,-0.000020,-0.000009,0.000009,-0.000005,-0.000025,61.236236,0.000032,
2341,3178,1.69895607737838,11.5959416301929,0.0231322006886785,0.003114,-0.000306,-0.003333,0.154963,-0.015340,312.211841,25.526215,0.999569,0.994022,0.003668,0.377920,-0.000013,-0.000002,-0.000002,-0.000002,-0.000013,-81.828809,0.000016,
2086,2173,-3.67521373066834,-10.3072646349502,0.010168519050751,0.003051,-0.000952,0.001221,0.136225,-0.027779,329.060414,24.422982,0.998865,0.984580,0.005022,0.326218,-0.000012,-0.000016,0.000030,0.000017,-0.000044,42.884384,0.000045,
2251,2743,-0.180865129951851,2.14118875469783,-0.0256925395424332,0.003013,-0.000559,-0.002478,0.146441,-0.035564,318.992197,24.448260,0.999277,0.988933,0.004126,0.363179,-0.000018,-0.000024,-0.000003,-0.000017,-0.000025,-21.341957,0.000042,
2281,2878,0.447192993443156,5.07875873722103,-0.0174091517754391,0.002650,-0.000462,-0.000093,0.122101,-0.013692,316.790820,24.651163,0.999741,0.993446,0.003463,0.440491,-0.000015,-0.000012,0.000007,-0.000006,-0.000021,52.451703,0.000028,
2386,2053,2.89375026106626,-12.9440172778565,0.0297699306500476,0.002711,0.000416,-0.004451,0.140086,-0.006577,330.543481,22.576091,0.999245,0.978687,0.005807,0.235896,-0.000010,-0.000049,0.000022,0.000000,-0.000059,24.395414,0.000068,
2446,2413,4.13064929418103,-5.05507956543785,0.00128382476282241,0.002722,-0.000656,0.001854,0.117552,0.000051,324.549673,23.347611,0.999715,0.988159,0.004585,0.391937,-0.000009,-0.000015,0.000005,-0.000006,-0.000018,30.522446,0.000024,
2506,3073,5.30380248268695,9.33084162413202,-0.000973632139960046,0.002766,-0.000945,0.000471,0.124885,-0.037754,313.925313,25.798858,0.999687,0.992377,0.003785,0.421716,-0.000019,0.000030,0.000023,0.000039,-0.000028,68.881144,0.000040,
2371,1993,2.57707547876054,-14.2622753873467,0.0350107440086163,0.002552,-0.000278,0.002036,0.109410,-0.001990,331.511588,22.467707,0.999067,0.967856,0.006866,0.268072,-0.000007,-0.000093,0.000036,0.000007,-0.000106,20.146282,0.000119,
2056,2068,-4.31274268638214,-12.6066469674655,0.0136251860686798,0.003049,-0.000413,0.000238,0.139076,-0.016859,330.933148,24.647079,0.998710,0.979690,0.005451,0.286394,0.000014,-0.000073,0.000051,0.000038,-0.000097,24.706528,0.000097,
2131,2233,-2.70467005767151,-8.99339995790015,0.00850978883397602,0.002572,-0.000253,-0.001196,0.121539,-0.015041,327.863034,24.277362,0.998636,0.981126,0.005394,0.281246,-0.000012,0.000013,0.000019,0.000023,-0.000022,61.704481,0.000026,
2146,2263,-2.38314238929958,-8.33674498904718,-0.00168084718558248,0.002923,-0.000969,0.000362,0.132772,-0.038047,327.247258,24.179028,0.998830,0.982385,0.005341,0.307054,-0.000014,-0.000008,0.000016,0.000005,-0.000027,50.166231,0.000029,
2101,2158,-3.34608788832685,-10.6367720049821,0.0216052314842727,0.002491,-0.000994,0.004447,0.101044,-0.021251,329.289373,24.372965,0.998968,0.983282,0.005265,0.299480,-0.000011,-0.000023,0.000028,0.000012,-0.000046,39.215327,0.000047,
2506,3058,5.30772325417972,9.00440345448063,0.00876314162371727,0.002817,-0.001069,0.001065,0.124912,-0.037453,314.253112,25.754448,0.999728,0.992777,0.003746,0.406249,-0.000022,0.000022,0.000021,0.000030,-0.000030,68.462335,0.000035,
2416,2173,3.52359484336523,-10.3111423825442,0.00598528610305493,0.002670,-0.001141,0.001396,0.116687,-0.074587,328.421701,22.653706,0.998938,0.979884,0.005286,0.302208,-0.000034,0.000000,0.000005,0.000001,-0.000035,82.347157,0.000040,
2476,2728,4.71954173086302,1.82470363181895,-0.0229577161216525,0.002876,-0.000614,0.000058,0.131487,-0.026978,319.305155,24.503675,0.999613,0.991416,0.003634,0.327600,-0.000024,-0.000007,0.000003,-0.000006,-0.000025,80.477308,0.000032,
2296,2908,0.768825778523514,5.73184411676202,-0.0101972618977015,0.002987,-0.000543,-0.002822,0.146745,-0.031070,316.368374,24.801412,0.999592,0.992932,0.003432,0.356440,-0.000012,-0.000009,0.000011,0.000000,-0.000021,49.839953,0.000024,
2041,2128,-4.64889315111666,-11.2934117591559,0.0169419581693546,0.002522,-0.001281,0.001289,0.111805,-0.042120,330.057295,24.638988,0.998638,0.978792,0.005997,0.345742,-0.000006,-0.000036,0.000058,0.000039,-0.000081,37.805057,0.000081,
2176,2428,-1.75742813871444,-4.72947139818348,-0.00939955494987998,0.003032,-0.000457,0.000676,0.137049,0.005025,324.418707,24.173885,0.998949,0.986232,0.004796,0.379603,-0.000022,-0.000034,0.000001,-0.000022,-0.000034,5.710013,0.000056,
2401,2068,3.21648739150625,-12.6144424261079,0.0103254215218271,0.002562,-0.000986,0.002572,0.107509,-0.029457,330.122873,22.390440,0.999423,0.980128,0.005814,0.350901,-0.000015,-0.000037,0.000017,-0.000006,-0.000046,29.006316,0.000057,
2326,3028,1.39951446048919,8.34029695054544,0.00310841296555964,0.002837,-0.000452,-0.003780,0.143406,-0.034084,314.493399,25.135545,0.999607,0.991983,0.003588,0.347383,-0.000020,-0.000022,0.000001,-0.000019,-0.000023,22.674125,0.000042,
2461,2668,4.40474122616525,0.515200941263522,-0.0259969314118962,0.002896,-0.000613,-0.001775,0.139276,-0.042708,320.230798,24.196374,0.999496,0.987536,0.004229,0.398448,-0.000001,-0.000031,-0.000002,-0.000001,-0.000031,-4.300464,0.000037,
2221,2548,-0.798447121891808,-2.10990017188534,-0.0132731517420552,0.002931,-0.000407,-0.003269,0.145021,-0.022845,322.324400,24.189363,0.999712,0.992061,0.003535,0.372159,-0.000019,-0.000012,0.000014,-0.000001,-0.000030,52.498503,0.000035,
2446,2428,4.12629566731443,-4.72565490380445,-0.0106619182752752,0.002470,-0.000814,0.003251,0.100745,-0.022199,324.189417,23.444117,0.999253,0.985584,0.004854,0.327339,-0.000009,-0.000013,0.000009,-0.000002,-0.000020,37.689055,0.000024,
2191,2428,-1.43020537716322,-4.73090201751419,-0.00575091255490179,0.003316,-0.000730,-0.001040,0.155281,-0.037889,324.421107,24.059939,0.998719,0.986534,0.004903,0.408845,-0.000021,-0.000038,0.000003,-0.000020,-0.000038,8.100053,0.000060,
2386,2068,2.88971309118098,-12.6153119545967,0.0240491206272964,0.002504,-0.000480,0.001835,0.107835,-0.014799,330.222439,22.513962,0.999323,0.978916,0.005644,0.337074,-0.000014,-0.000033,0.000025,0.000003,-0.000050,34.555800,0.000056,
2371,2008,2.573405034013,-13.9305635181686,0.0232000903131393,0.002696,-0.000387,0.002277,0.115088,0.008436,331.176779,22.567491,0.998805,0.973709,0.006252,0.224068,-0.000007,-0.000076,0.000043,0.000014,-0.000097,25.522891,0.000104,
2311,2968,1.08467060861364,7.03673247113333,0.00103650558492063,0.002888,-0.000399,-0.004731,0.148933,-0.024890,315.471256,25.021198,0.999915,0.997446,0.002493,0.298412,-0.000022,-0.000007,0.000008,-0.000003,-0.000026,66.740612,0.000032,
2236,2728,-0.50443801971598,1.81414135551995,-0.0253187090674487,0.003032,-0.000527,-0.001099,0.142813,-0.030577,319.266232,24.434219,0.999305,0.989496,0.003982,0.356048,-0.000011,-0.000020,0.000003,-0.000010,-0.000021,14.551989,0.000032,
2116,2113,-3.01192910564676,-11.6228140091165,0.0179105281926581,0.002789,-0.000755,0.002791,0.119474,-0.023424,329.932130,24.227272,0.999179,0.985042,0.004964,0.342948,-0.000006,-0.000026,0.000025,0.000011,-0.000043,34.056684,0.000045,
2341,3193,1.69602894654791,11.9209852860853,0.0269448562748948,0.002997,-0.000793,0.000186,0.137012,-0.043183,311.980236,25.582845,0.999638,0.993685,0.003410,0.328482,-0.000014,-0.000002,-0.000001,-0.000002,-0.000014,-82.984213,0.000017,
2161,2248,-2.05371513487866,-8.66606092346471,0.00533996909325651,0.002728,-0.001095,0.002062,0.118539,-0.038528,327.478255,24.071675,0.998776,0.979388,0.005322,0.335663,-0.000007,-0.000008,0.000017,0.000009,-0.000025,44.123926,0.000025,
2506,3088,5.30152067258964,9.65697242913771,0.00557151224842301,0.002674,-0.000518,-0.003652,0.136857,-0.025204,313.746006,25.910801,0.999746,0.993171,0.003354,0.382565,-0.000020,0.000045,0.000032,0.000058,-0.000033,67.465316,0.000058,
2056,2083,-4.3161336640325,-12.2776475420332,0.0097458884128514,0.002528,-0.001462,0.006515,0.097280,-0.045254,330.619067,24.653957,0.998929,0.981303,0.005245,0.249421,0.000010,-0.000056,0.000050,0.000036,-0.000083,28.281038,0.000083,
2206,2503,-1.11723361450531,-3.09186064829235,-0.0170596992425089,0.003223,-0.000326,-0.001920,0.154045,-0.027544,323.069242,24.140220,0.999526,0.988816,0.004225,0.387748,-0.000026,-0.000016,0.000018,-0.000002,-0.000040,52.831799,0.000047,
2101,2173,-3.34851890309701,-10.3070206747719,0.0113411742456719,0.002845,-0.000574,0.001111,0.127147,-0.010989,328.988657,24.376185,0.998857,0.984011,0.005185,0.311069,-0.000012,-0.000015,0.000027,0.000014,-0.000041,43.585327,0.000042,
2266,2848,0.126954395559356,4.4260983648313,-0.0207147012239943,0.003158,-0.000753,-0.001784,0.150942,-0.030481,317.303174,24.618888,0.999547,0.992522,0.003643,0.380734,-0.000015,-0.000009,0.000014,0.000002,-0.000027,51.219214,0.000030,
2071,2158,-3.99989523898443,-10.6356511381157,0.0117907017631751,0.002713,-0.000573,0.000372,0.123269,-0.013926,329.378283,24.493381,0.999085,0.985313,0.004995,0.348748,-0.000014,-0.000027,0.000025,0.000005,-0.000046,37.887229,0.000051,
2131,2248,-2.70796139117315,-8.66536762572958,0.00186828494389601,0.002187,-0.000622,-0.000136,0.100594,-0.035750,327.545901,24.223245,0.998916,0.982572,0.005224,0.322974,-0.000011,0.000007,0.000022,0.000022,-0.000026,55.695276,0.000028,
2371,2023,2.57087335787849,-13.603116849005,0.0287401528910323,0.002387,-0.000772,-0.000244,0.109762,-0.038649,330.977233,22.539138,0.998817,0.974283,0.006306,0.249596,-0.000007,-0.000052,0.000035,0.000012,-0.000071,28.715128,0.000076,
2086,2053,-3.65573662939202,-12.9382020357032,0.0336454786531135,0.002853,-0.001266,0.004989,0.116058,-0.009787,331.161000,24.480124,0.998564,0.979414,0.005683,0.268988,-0.000013,-0.000061,0.000027,-0.000001,-0.000073,24.307531,0.000085,
2431,2338,3.81822096564501,-6.69593849503822,0.00326426094494536,0.002528,-0.000797,0.001243,0.110891,-0.028796,325.747731,23.173514,0.999211,0.983344,0.004767,0.323285,-0.000026,-0.000015,0.000004,-0.000014,-0.000027,73.295485,0.000041,
2101,2233,-3.35785582056594,-8.99320448133252,0.00241130593468597,0.003250,-0.000250,-0.002023,0.155013,-0.008989,327.977568,24.353258,0.998597,0.983764,0.005175,0.351407,-0.000005,0.000027,0.000029,0.000044,-0.000023,59.315924,0.000044,
2086,2188,-3.67802465396186,-9.97834799258803,0.00838305399855699,0.002585,-0.000362,-0.000031,0.118626,-0.001410,328.786733,24.429901,0.998703,0.983750,0.005229,0.347472,-0.000010,0.000011,0.000038,0.000040,-0.000039,52.602121,0.000046,
2401,2083,3.21526294280916,-12.2854065678899,0.0194671474258143,0.003023,-0.000138,-0.003837,0.152114,-0.034379,330.001747,22.525946,0.998987,0.976885,0.006071,0.258707,-0.000017,-0.000024,0.000017,-0.000003,-0.000038,39.000822,0.000046,
2206,2518,-1.12032492139843,-2.76483072684911,-0.0193730974031041,0.002907,-0.000513,-0.001218,0.137242,-0.011911,322.790531,24.098658,0.999442,0.988252,0.004305,0.462598,-0.000026,-0.000016,0.000023,0.000002,-0.000044,51.067862,0.000049,
2176,2443,-1.75997409316562,-4.40180349024996,-0.0147393386959038,0.003119,-0.000166,-0.002774,0.151807,-0.009775,324.146678,24.166443,0.999122,0.986205,0.004800,0.386089,-0.000025,-0.000028,0.000003,-0.000023,-0.000030,30.643382,0.000053,
2251,2758,-0.184534909249283,2.46905182232568,-0.0359659317147702,0.002934,-0.000535,0.000158,0.134229,-0.019304,318.649673,24.498202,0.999183,0.989229,0.004182,0.353140,-0.000018,-0.000016,0.000004,-0.000013,-0.000020,50.288033,0.000034,
2131,2398,-2.73121080333831,-5.38716407266235,0.00289534184889817,0.002753,-0.000498,-0.003792,0.137616,-0.044245,325.174318,24.265705,0.998700,0.984489,0.004952,0.348020,-0.000018,-0.000031,-0.000002,-0.000017,-0.000032,-8.974445,0.000050,
2341,3208,1.69364158968114,12.2453706266307,0.0324629887267065,0.003042,-0.000511,0.000505,0.138116,-0.025727,311.781963,25.546615,0.999681,0.993627,0.003278,0.417667,-0.000011,-0.000006,-0.000002,-0.000005,-0.000011,-70.785642,0.000017,
2476,2743,4.71595884440686,2.15140713344248,-0.0285795442871404,0.002781,-0.000783,-0.000296,0.128491,-0.018613,319.010679,24.489474,0.999722,0.992588,0.003504,0.407448,-0.000026,0.000004,0.000002,0.000004,-0.000026,85.478595,0.000028,
2416,2188,3.52199787455421,-9.98253654319737,0.021326785908002,0.002570,-0.000489,-0.001415,0.122607,-0.026962,328.312770,22.796584,0.999284,0.983284,0.005011,0.256958,-0.000031,0.000000,0.000001,0.000000,-0.000031,88.956926,0.000036,
2131,2473,-2.7445733803003,-3.74707399446361,-0.0173851328588626,0.002987,-0.000544,-0.001633,0.141996,-0.028131,323.797733,24.353240,0.999350,0.987929,0.004540,0.312660,-0.000012,-0.000029,0.000009,-0.000008,-0.000033,22.853949,0.000044,
2281,2893,0.44455340461074,5.40577341947558,-0.0226741243684501,0.003035,-0.000744,-0.001277,0.143656,-0.032856,316.523512,24.740641,0.999680,0.992588,0.003458,0.358994,-0.000014,-0.000011,0.000011,-0.000001,-0.000024,48.109468,0.000028,
2386,2083,2.88690440476069,-12.2855190920739,0.0215537148474141,0.002652,-0.000365,0.000114,0.120787,-0.008240,329.972652,22.577852,0.999120,0.975972,0.005840,0.326248,-0.000016,-0.000021,0.000024,0.000005,-0.000043,42.272823,0.000047,
2446,2443,4.12459716538293,-4.3996433287181,0.00164082857259018,0.002755,-0.000882,0.003188,0.114037,-0.015642,324.062886,23.432478,0.998571,0.982622,0.005212,0.398752,0.000000,-0.000030,0.000015,0.000006,-0.000036,22.139351,0.000039,
2371,2038,2.567658539099,-13.2738932789965,0.0242115754323322,0.002530,-0.000842,0.001672,0.109523,-0.040122,330.698055,22.518900,0.999030,0.977910,0.005846,0.313276,-0.000009,-0.000052,0.000028,0.000005,-0.000065,26.353499,0.000073,
2116,2308,-3.04357528195295,-7.35291533119513,-0.0028268193472627,0.002964,-0.000340,-0.002914,0.144626,-0.025785,326.648437,24.284120,0.999007,0.985821,0.004922,0.362500,0.000003,-0.000025,0.000012,0.000008,-0.000030,20.256652,0.000031,
2296,2923,0.766190756971259,6.05615809709833,-0.00350606457402591,0.002838,-0.000760,0.000427,0.128860,-0.028726,316.162607,24.715232,0.999532,0.993092,0.003407,0.474512,-0.000013,-0.000009,0.000010,-0.000001,-0.000021,51.034447,0.000025,
2461,2683,4.40117357543478,0.84323431152346,-0.0315480444441505,0.002718,-0.000571,-0.002986,0.135718,-0.035009,319.936059,24.285857,0.999554,0.988637,0.004114,0.371580,-0.000002,-0.000029,0.000000,-0.000002,-0.000029,1.066345,0.000035,
2281,3133,0.403410308296603,10.6144932510879,0.0153627518206463,0.002919,-0.000905,0.001061,0.130519,-0.042350,312.909640,25.130195,0.999677,0.994583,0.003244,0.391308,-0.000009,-0.000005,-0.000004,-0.000003,-0.000012,-58.594814,0.000015,
2191,2443,-1.43351233621672,-4.40234511533406,-0.00992863938188293,0.002873,-0.000764,-0.000472,0.133189,-0.031240,324.121389,24.123462,0.998848,0.985934,0.004933,0.367970,-0.000024,-0.000031,0.000005,-0.000022,-0.000033,26.420376,0.000055,
2476,2758,4.71352939789394,2.47597327481262,-0.0134881350017508,0.002682,-0.001258,0.006246,0.098903,-0.013490,318.863688,24.450852,0.999546,0.990838,0.003828,0.507515,-0.000019,0.000006,0.000001,0.000006,-0.000019,87.346779,0.000020,
2131,2458,-2.74240199278556,-4.07377261524905,-0.0177914580033871,0.003013,-0.000678,0.002209,0.131676,-0.013090,324.025998,24.385933,0.999292,0.988538,0.004545,0.288335,-0.000015,-0.000037,0.000000,-0.000015,-0.000037,0.842619,0.000054,
2221,2563,-0.801440988756209,-1.78232234928298,-0.0202193092430321,0.003204,-0.000639,-0.000677,0.149188,-0.028403,322.027555,24.193173,0.999561,0.991372,0.003699,0.382934,-0.000016,-0.000013,0.000010,-0.000004,-0.000025,48.774628,0.000031,
2506,3103,5.29893045695683,9.98210606500817,0.00782942013569254,0.002973,-0.000518,-0.003759,0.151011,-0.030897,313.533488,25.925148,0.999727,0.992841,0.003363,0.422378,-0.000021,0.000034,0.000038,0.000053,-0.000041,62.970506,0.000055,
2131,2428,-2.73828724046836,-4.72891292165809,-0.0179221771390985,0.002430,-0.000754,0.004416,0.098265,0.010279,324.476147,24.319502,0.999234,0.987931,0.004512,0.363865,-0.000016,-0.000045,0.000001,-0.000016,-0.000045,2.056756,0.000064,
2131,2518,-2.75228155305478,-2.76683971258457,-0.0139578186068547,0.002601,-0.001043,0.002394,0.112058,-0.039700,323.069886,24.283190,0.999121,0.986982,0.004579,0.391462,-0.000007,-0.000013,0.000016,0.000007,-0.000027,39.445086,0.000028,
2206,2533,-1.1222710945394,-2.43745525315978,-0.0119826088888999,0.003014,-0.000496,-0.001296,0.142434,-0.012411,322.614286,24.196524,0.999542,0.989267,0.004099,0.381676,-0.000025,-0.000014,0.000021,0.000002,-0.000041,52.235026,0.000046,
2131,2503,-2.75004083513043,-3.09293696865493,-0.0293253395392412,0.003064,-0.000313,-0.002976,0.149630,-0.030769,323.221481,24.227042,0.999174,0.986395,0.004640,0.450386,-0.000007,-0.000021,0.000009,-0.000003,-0.000026,26.417857,0.000032,
2326,3043,1.39686508700706,8.66566359534208,0.00844748486497338,0.002634,-0.000425,-0.003131,0.131898,-0.025037,314.281452,25.159553,0.999668,0.992589,0.003517,0.365817,-0.000020,-0.000016,0.000002,-0.000015,-0.000021,63.354908,0.000036,
2131,2443,-2.73983711106661,-4.4037681584573,-0.0114577459218026,0.002823,-0.000904,0.003704,0.118364,-0.032287,324.309058,24.218922,0.999259,0.988058,0.004565,0.428709,-0.000018,-0.000040,0.000001,-0.000018,-0.000040,3.605554,0.000060,
2161,2263,-2.05711175047201,-8.3357156635952,-0.00534813429624137,0.002564,-0.000717,0.002738,0.109085,-0.012413,327.137353,24.147268,0.998766,0.980562,0.005468,0.298999,-0.000008,-0.000012,0.000013,0.000003,-0.000023,41.444959,0.000025,
2071,2173,-4.0024354600655,-10.3074457682446,0.0139145386176551,0.002446,-0.000934,0.002355,0.105278,-0.028033,329.137285,24.511301,0.998945,0.986102,0.004920,0.316417,-0.000015,-0.000018,0.000024,0.000007,-0.000040,43.230579,0.000042,
2086,2068,-3.65896367414643,-12.6074522689161,0.0112167851380036,0.002752,-0.000319,-0.004316,0.138555,-0.036159,330.756512,24.432327,0.998696,0.961822,0.007469,0.293883,-0.000009,-0.000063,0.000032,0.000006,-0.000078,25.125830,0.000087,
2221,2593,-0.807249996007528,-1.12775714893939,-0.0257914850510588,0.002850,-0.000429,-0.002579,0.139099,-0.022779,321.484667,24.219186,0.999187,0.987243,0.004404,0.401991,-0.000019,-0.000018,0.000007,-0.000011,-0.000026,47.140132,0.000038,
2131,2383,-2.72962995733082,-5.7135649734361,-0.00516863281211499,0.002642,-0.000423,-0.000794,0.123603,-0.011527,325.334633,24.260260,0.999020,0.985468,0.004732,0.379321,-0.000017,-0.000019,0.000003,-0.000015,-0.000021,33.066796,0.000036,
2296,2968,0.758078304408041,7.03562406205235,-0.00590845810472729,0.002940,-0.000716,-0.002510,0.143574,-0.023916,315.422035,24.923272,0.999398,0.991455,0.003649,0.359270,-0.000013,-0.000001,0.000009,0.000003,-0.000017,61.690258,0.000018,
2311,2983,1.08217520348806,7.3614623272311,0.0063304008895102,0.002936,-0.000467,-0.002478,0.143399,-0.028795,315.265635,24.984201,0.999724,0.995204,0.002960,0.362942,-0.000019,-0.000013,0.000005,-0.000010,-0.000022,59.635853,0.000033,
2131,2413,-2.73478192350251,-5.0574822074423,-0.0114332972207194,0.002837,-0.000707,0.000613,0.128276,-0.020295,324.802760,24.306350,0.998961,0.986595,0.004774,0.339090,-0.000019,-0.000048,-0.000007,-0.000017,-0.000050,-13.209177,0.000069,
2371,2053,2.56528466700444,-12.9435645176523,0.0263416417432154,0.002816,-0.000518,0.001103,0.124748,-0.018198,330.488785,22.656400,0.999236,0.979356,0.005537,0.242010,-0.000011,-0.000041,0.000025,0.000004,-0.000056,29.449675,0.000062,
2101,2188,-3.35162592605022,-9.978262827329,0.00627137233084341,0.002353,-0.000228,0.000371,0.106861,-0.007219,328.685229,24.356833,0.998749,0.983372,0.005321,0.338523,-0.000011,0.000009,0.000034,0.000035,-0.000037,53.376784,0.000042,
2236,2908,-0.535102977532429,5.72844737820562,-0.00669199172381241,0.002698,-0.000582,-0.001667,0.129440,-0.015950,316.479582,24.711773,0.999677,0.992818,0.003515,0.344585,-0.000016,0.000000,0.000016,0.000010,-0.000026,58.380723,0.000026,
2236,2743,-0.507499808073316,2.1406299463713,-0.0259131491416724,0.002704,-0.000852,-0.000326,0.125100,-0.042295,318.999918,24.457375,0.999133,0.987062,0.004508,0.342653,-0.000012,-0.000025,0.000003,-0.000011,-0.000025,10.563221,0.000037,
2146,2458,-2.41596915996868,-4.074026593398,-0.0181189436081581,0.003035,-0.000562,0.001469,0.134832,-0.019647,323.966433,24.306894,0.999193,0.987486,0.004703,0.323584,-0.000016,-0.000028,0.000000,-0.000016,-0.000028,1.520576,0.000045,
2086,2203,-3.68049505213405,-9.64996027478386,0.00620726607002098,0.002633,-0.000668,0.001027,0.117715,-0.015406,328.526787,24.430166,0.998463,0.981404,0.005408,0.335110,-0.000005,0.000014,0.000037,0.000043,-0.000034,52.304692,0.000045,
2461,2698,4.39869868780567,1.17026042120901,-0.0249090306136281,0.002796,-0.000488,-0.002105,0.136033,-0.021709,319.747416,24.382178,0.999722,0.989199,0.004113,0.343045,-0.000001,-0.000013,0.000000,-0.000001,-0.000013,-2.014063,0.000016,
2056,2098,-4.31771051599704,-11.9499866522376,0.0131641869680834,0.002836,-0.001282,0.004227,0.117893,-0.059312,330.427964,24.610051,0.999020,0.981031,0.005289,0.276758,0.000005,-0.000031,0.000052,0.000042,-0.000068,35.600102,0.000068,
2266,3058,0.0908742847818438,8.98661769949225,0.00923376029487599,0.002744,-0.000793,-0.001225,0.130101,-0.039513,314.107427,24.980392,0.999523,0.992642,0.003520,0.359168,-0.000012,-0.000014,0.000003,-0.000010,-0.000016,34.096958,0.000026,
2131,2263,-2.70978625335102,-8.3392516280371,0.0127576330979196,0.002316,-0.001713,0.003900,0.094090,-0.086855,327.389550,24.208832,0.998846,0.983088,0.005250,0.293872,-0.000007,0.000004,0.000021,0.000020,-0.000024,52.217825,0.000026,
2116,2323,-3.04622048744994,-7.02474512211748,-0.00242376140653278,0.002862,-0.000801,-0.000112,0.131514,-0.038071,326.396982,24.332389,0.999270,0.987661,0.004519,0.307388,-0.000002,-0.000027,0.000009,0.000001,-0.000030,17.038654,0.000034,
2416,2203,3.5188458825519,-9.65474713919317,0.0168269077090031,0.002859,-0.000680,0.000340,0.129344,-0.032910,328.040404,22.713914,0.999287,0.982511,0.005218,0.384115,-0.000030,0.000003,-0.000003,0.000003,-0.000031,-84.923214,0.000034,
2401,2098,3.2115277765651,-11.9554402725514,0.0130666049016668,0.002666,0.000142,-0.004496,0.138280,-0.014289,329.692436,22.555622,0.998790,0.973359,0.006464,0.298268,-0.000022,-0.000023,0.000011,-0.000012,-0.000033,44.061253,0.000047,
2476,2773,4.70982421481198,2.80533328179928,-0.0269914513529557,0.002762,-0.000912,0.001420,0.121058,-0.022752,318.527084,24.645902,0.999152,0.987683,0.004297,0.360088,-0.000026,-0.000011,-0.000001,-0.000011,-0.000026,-87.684734,0.000038,
2176,2458,-1.76271762592691,-4.07477009049448,-0.0133147252146841,0.002663,0.000015,-0.004550,0.136425,-0.018044,323.901026,24.162939,0.999085,0.986224,0.004852,0.394862,-0.000024,-0.000023,0.000005,-0.000019,-0.000028,48.223995,0.000047,
2251,2983,-0.222109933114208,7.35825298888055,0.000977071987620093,0.002721,-0.000600,-0.000287,0.126032,-0.020964,315.285928,24.853662,0.999527,0.992778,0.003581,0.340553,-0.000017,0.000002,0.000012,0.000007,-0.000022,64.301412,0.000023,
2506,3118,5.29589544311751,10.3082716010421,0.00938013364594781,0.002972,-0.000916,-0.002947,0.147606,-0.053286,313.296908,26.050703,0.999574,0.992222,0.003567,0.334124,-0.000025,0.000042,0.000037,0.000058,-0.000041,66.136392,0.000060,
2191,2683,-1.47446562329414,0.831274289867395,-0.0156373410092101,0.002988,-0.000690,-0.000827,0.139824,-0.020936,320.193534,24.338888,0.999612,0.993596,0.003409,0.408711,-0.000017,0.000003,0.000006,0.000004,-0.000019,74.283654,0.000020,
2131,2488,-2.74732300433427,-3.42096627428746,-0.0178736110515842,0.002802,-0.000833,0.000061,0.128341,-0.039906,323.538359,24.259925,0.999392,0.987496,0.004537,0.401164,-0.000011,-0.000023,0.000011,-0.000005,-0.000030,30.465413,0.000038,
2446,2458,4.1214797628191,-4.07087114628845,-0.00312436493197765,0.002644,-0.000079,-0.001551,0.126948,0.002498,323.792194,23.506943,0.999236,0.985939,0.004712,0.395993,0.000003,-0.000028,0.000018,0.000011,-0.000036,24.430235,0.000037,
2341,3223,1.69038283720936,12.571164770404,0.0280745553403676,0.002902,-0.001112,-0.000173,0.133811,-0.053949,311.494775,25.632347,0.999558,0.992770,0.003355,0.338770,-0.000010,-0.000006,0.000000,-0.000006,-0.000010,-86.614365,0.000016,
2266,2863,0.125124289758872,4.75072735034981,-0.00463461670790366,0.002985,-0.001026,0.000016,0.136908,-0.038721,317.179896,24.626777,0.999752,0.994252,0.003350,0.389557,-0.000019,-0.000008,0.000010,-0.000002,-0.000025,59.234297,0.000030,
2431,2353,3.8153572531482,-6.36766612794858,-0.00269775246738391,0.002773,-0.000860,-0.003097,0.138076,-0.062191,325.482561,23.204321,0.999028,0.982684,0.005066,0.310922,-0.000018,-0.000016,0.000004,-0.000012,-0.000022,53.332610,0.000034,
2146,2473,-2.41822615270164,-3.74785291580701,-0.0114566938869984,0.002636,-0.000264,-0.000775,0.123390,-0.006882,323.768574,24.256417,0.999241,0.986703,0.004909,0.395905,-0.000014,-0.000021,0.000008,-0.000009,-0.000026,33.249034,0.000036,
2146,2593,-2.43857305892876,-1.12996690449395,-0.0272268293603588,0.002893,-0.000488,-0.002667,0.140974,-0.030180,321.713392,24.297525,0.999109,0.988533,0.004482,0.402754,-0.000011,-0.000002,0.000016,0.000010,-0.000023,52.733275,0.000023,
2236,2923,-0.538235952726513,6.05384620432196,-0.0150626123599977,0.002934,-0.000626,0.000206,0.134208,-0.022311,316.170279,24.625584,0.999669,0.993266,0.003445,0.445361,-0.000019,0.000002,0.000015,0.000009,-0.000026,62.623541,0.000027,
2461,2713,4.39566630061449,1.49725730648836,-0.0282285418732613,0.003024,-0.000395,-0.002561,0.148296,-0.017850,319.487554,24.408169,0.999681,0.990930,0.003849,0.375826,-0.000009,-0.000010,-0.000001,-0.000009,-0.000010,-31.669791,0.000019,
2221,2578,-0.804161999720229,-1.45502818211969,-0.0224451294515688,0.003087,-0.000311,-0.002808,0.150749,-0.026873,321.767411,24.210819,0.999255,0.989236,0.004066,0.386457,-0.000019,-0.000010,0.000009,-0.000004,-0.000024,57.527003,0.000031,
2296,2983,0.755630565621484,7.36138145820632,0.00262857541906669,0.002744,-0.000613,-0.000714,0.128513,-0.020857,315.233476,24.996379,0.999182,0.989520,0.004007,0.318507,-0.000011,-0.000007,0.000005,-0.000003,-0.000015,52.941126,0.000019,
2146,2623,-2.44392652426837,-0.475233334152655,-0.0289070340893431,0.002850,-0.000693,0.001235,0.127140,-0.015008,321.199104,24.380441,0.999595,0.992240,0.003822,0.352010,-0.000007,-0.000005,0.000016,0.000010,-0.000022,46.564636,0.000022,
2161,2293,-2.06050103713161,-7.68096839413455,-0.00268720284168467,0.003390,-0.000266,-0.005132,0.171192,-0.044596,326.738876,24.100726,0.998730,0.982384,0.005306,0.337599,-0.000012,-0.000028,0.000010,-0.000007,-0.000032,25.338545,0.000042,
2146,2278,-2.38534617404956,-8.00876386998579,-0.00818154589160258,0.003237,-0.000219,-0.004800,0.163026,-0.017677,326.981867,24.092755,0.998649,0.982274,0.005397,0.423899,-0.000015,-0.000020,0.000012,-0.000006,-0.000030,38.795868,0.000038,
2161,2278,-2.05848726322786,-8.00852585552903,-0.00118096647503307,0.003134,-0.000606,-0.000773,0.146016,-0.013033,326.967573,24.117956,0.998411,0.979208,0.005811,0.339766,-0.000011,-0.000025,0.000008,-0.000007,-0.000028,24.338574,0.000037,
2386,2098,2.88286515516419,-11.9559378647521,0.0164107209110398,0.002143,-0.000733,0.003067,0.086828,-0.018037,329.654033,22.615796,0.998952,0.974364,0.006094,0.325406,-0.000022,-0.000019,0.000017,-0.000003,-0.000038,47.909152,0.000046,
2326,3058,1.39372982164528,8.99101250922404,0.00623594421961116,0.002592,-0.000806,-0.001490,0.124193,-0.026197,314.010128,25.146406,0.999679,0.993909,0.003210,0.411388,-0.000019,-0.000016,0.000006,-0.000012,-0.000024,53.352630,0.000036,
2101,2248,-3.36094936312522,-8.66518693114609,-3.52159806880081E-05,0.002660,-0.000344,-0.002001,0.127838,-0.020491,327.689082,24.331448,0.998595,0.985628,0.005074,0.365590,-0.000003,0.000030,0.000035,0.000052,-0.000026,57.361266,0.000052,
2236,2758,-0.509985305509911,2.46768295719644,-0.0285678521321415,0.002988,-0.000433,-0.001113,0.140869,-0.021613,318.749292,24.488253,0.999278,0.988671,0.004176,0.353705,-0.000011,-0.000019,0.000008,-0.000006,-0.000024,30.631698,0.000032,
2221,2608,-0.809945390706876,-0.801013206817018,-0.0259948949569662,0.002952,-0.000697,0.000041,0.135315,-0.024309,321.236145,24.216953,0.998990,0.984279,0.004799,0.422378,-0.000017,-0.000019,0.000012,-0.000005,-0.000030,42.840931,0.000038,
2116,2128,-3.01423297560393,-11.2942666664192,0.0146190288065213,0.002845,-0.000651,-0.000523,0.131880,-0.051033,329.676566,24.216163,0.998891,0.982977,0.005290,0.332884,-0.000007,-0.000032,0.000029,0.000011,-0.000051,33.166569,0.000054,
2191,2698,-1.47758783596111,1.15718467052448,-0.0186524972264124,0.002574,-0.000422,-0.001508,0.122992,-0.023465,319.908586,24.264866,0.999693,0.994696,0.003149,0.495223,-0.000017,-0.000016,0.000004,-0.000012,-0.000021,48.547281,0.000034,
2206,2548,-1.12542138941035,-2.10980214110702,-0.0187417137444186,0.002884,-0.000791,-0.001585,0.137273,-0.031340,322.309866,24.216652,0.999585,0.990781,0.003856,0.360752,-0.000019,-0.000009,0.000020,0.000007,-0.000035,52.069181,0.000037,
2206,2773,-1.16448986398879,2.79229773055908,-0.0213869424089808,0.002695,-0.000644,-0.001216,0.127662,-0.022251,318.627315,24.507386,0.999460,0.990217,0.004021,0.336326,-0.000011,-0.000013,0.000009,-0.000003,-0.000022,42.546845,0.000026,
2266,3073,0.0890457754672873,9.31193860694137,0.0185965340537564,0.002853,-0.000288,-0.002464,0.139491,-0.010510,313.949872,25.011968,0.999411,0.991548,0.003766,0.381225,-0.000011,-0.000009,0.000000,-0.000009,-0.000011,78.505355,0.000020,
2416,2218,3.51516980964454,-9.32405558096286,0.00649250018096836,0.002629,-0.000300,-0.003937,0.134606,-0.024671,327.716365,22.827510,0.999360,0.984106,0.005079,0.329370,-0.000031,-0.000005,0.000003,-0.000005,-0.000031,84.448327,0.000039,
2086,2218,-3.68269700444394,-9.32157472097445,0.00601826966851604,0.002650,-0.000474,-0.000699,0.123504,-0.010316,328.289786,24.437360,0.998525,0.983015,0.005187,0.334516,-0.000001,0.000025,0.000040,0.000054,-0.000030,53.953914,0.000055,
2071,2188,-4.00484112736226,-9.97883644591446,0.00592045277682018,0.002745,-0.000715,0.001185,0.122435,-0.019071,328.847072,24.441533,0.998734,0.985642,0.005166,0.394871,-0.000015,0.000012,0.000032,0.000033,-0.000036,56.683499,0.000040,
2086,2083,-3.66383921207794,-12.2743015481761,-0.0216345901446857,0.002627,-0.000623,0.001390,0.116298,-0.015502,330.219600,24.450535,0.998946,0.948444,0.008890,0.300122,-0.000010,-0.000052,0.000033,0.000008,-0.000070,28.649970,0.000076,
2116,2338,-3.04898721774378,-6.69714627479942,-0.00771536789267202,0.002963,-0.001050,0.002100,0.129545,-0.042185,326.109548,24.269342,0.999332,0.986871,0.004593,0.371915,-0.000009,-0.000021,0.000006,-0.000006,-0.000024,22.989727,0.000032,
2251,2773,-0.186403129991955,2.79398915345305,-0.0249392547726757,0.002800,-0.000447,-0.001700,0.134184,-0.031763,318.498497,24.480431,0.999263,0.988788,0.004153,0.381539,-0.000016,-0.000011,0.000005,-0.000007,-0.000019,57.844094,0.000027,
2146,2563,-2.43305964222111,-1.78478441384969,-0.0159341757962466,0.002726,-0.000362,-0.002689,0.133336,-0.025775,322.285827,24.291280,0.998744,0.986416,0.004681,0.395658,-0.000006,0.000007,0.000016,0.000018,-0.000016,56.291503,0.000020,
2131,2578,-2.76273631704561,-1.45568442311482,-0.0293498324891175,0.003004,-0.000789,0.003928,0.126182,0.001198,321.983591,24.406828,0.999539,0.992361,0.003931,0.335377,-0.000012,-0.000005,0.000012,0.000004,-0.000021,53.292365,0.000022,
2131,2278,-2.71188308980404,-8.01014411982067,0.0043512966701087,0.003023,-0.001350,0.001521,0.133788,-0.063020,327.117215,24.201357,0.998748,0.983211,0.005320,0.333083,-0.000007,-0.000010,0.000018,0.000010,-0.000026,42.512357,0.000027,
2131,2533,-2.7546971282239,-2.43931080298069,-0.0152032550137733,0.002641,-0.000787,0.001487,0.116708,-0.028945,322.821338,24.305010,0.999087,0.986437,0.004604,0.387148,-0.000009,-0.000006,0.000019,0.000012,-0.000027,47.399565,0.000027,
2296,2998,0.752897540417674,7.68617011878337,0.0086162584487397,0.002664,-0.000875,0.003987,0.108789,-0.027999,315.019420,24.976186,0.999360,0.991149,0.003748,0.360762,-0.000010,-0.000010,0.000003,-0.000007,-0.000014,43.714531,0.000021,
2101,2203,-3.35374039845587,-9.65057510028298,0.00593999500478049,0.002633,-0.000947,0.000842,0.118081,-0.052161,328.453093,24.343740,0.998366,0.981339,0.005486,0.310448,-0.000008,0.000011,0.000034,0.000037,-0.000033,52.861989,0.000041,
2506,3133,5.29274471262685,10.634162082006,0.0087648559315312,0.003105,-0.000691,-0.001285,0.147462,-0.028399,313.045253,26.094043,0.999593,0.992087,0.003548,0.375890,-0.000022,0.000038,0.000035,0.000054,-0.000038,65.441873,0.000055,
2146,2503,-2.42373122755809,-3.09228016025512,-0.027008983852113,0.002910,-0.000429,-0.003270,0.143517,-0.039286,323.174059,24.258244,0.998994,0.985226,0.004904,0.380113,-0.000011,-0.000013,0.000008,-0.000003,-0.000020,41.417702,0.000025,
2056,2113,-4.31977566762014,-11.6216162608612,0.0102519063424893,0.002966,-0.001029,0.000571,0.134182,-0.049190,330.179621,24.542874,0.999067,0.982789,0.005251,0.351960,0.000001,-0.000035,0.000048,0.000034,-0.000068,34.700630,0.000068,
2476,2788,4.70701958511748,3.13209306886195,-0.0282418503983308,0.002842,-0.000812,-0.001835,0.137090,-0.036193,318.288034,24.707408,0.999235,0.986077,0.004427,0.341781,-0.000033,-0.000010,-0.000002,-0.000010,-0.000033,-85.730872,0.000045,
2281,2908,0.44162284908062,5.73174591388135,-0.0198062000238792,0.002763,-0.000738,0.000733,0.124428,-0.025256,316.283701,24.771189,0.999681,0.993325,0.003269,0.363463,-0.000012,-0.000009,0.000012,0.000002,-0.000022,47.698145,0.000025,
2146,2653,-2.44876094448585,0.176814381267732,-0.0271444358124313,0.002790,-0.001041,0.000559,0.126279,-0.047852,320.727657,24.312854,0.999692,0.991582,0.003680,0.403463,-0.000006,0.000007,0.000014,0.000016,-0.000015,57.266272,0.000018,
2341,3238,1.6870685488012,12.8970938607241,0.0216285003500616,0.002828,-0.000775,-0.001293,0.134471,-0.034770,311.194883,25.675991,0.999457,0.991793,0.003505,0.349680,-0.000008,-0.000010,-0.000001,-0.000008,-0.000010,-15.021914,0.000018,
2146,2533,-2.42859800189355,-2.43894138763756,-0.0187957167399304,0.002782,-0.001237,0.002237,0.120730,-0.032820,322.734941,24.252754,0.999264,0.988242,0.004266,0.409834,-0.000010,-0.000001,0.000018,0.000013,-0.000024,52.536296,0.000024,
2281,3148,0.40115470950774,10.9394121061592,0.0244772468423093,0.002781,-0.001052,0.001737,0.121877,-0.043259,312.731975,25.169399,0.999607,0.993202,0.003619,0.377649,-0.000005,-0.000007,-0.000005,-0.000001,-0.000011,-37.330014,0.000013,
2176,2608,-1.78872559872489,-0.801628886594678,-0.0267488183375804,0.002944,-0.000542,-0.001206,0.138907,-0.023153,321.363442,24.324111,0.999168,0.988805,0.004250,0.361646,-0.000017,-0.000010,0.000018,0.000005,-0.000032,50.251445,0.000034,
2461,2728,4.39322108477888,1.82437150574867,-0.0244324932214681,0.003296,-0.000310,-0.002531,0.160652,-0.034022,319.287181,24.527129,0.999656,0.992307,0.003536,0.295125,-0.000019,-0.000006,0.000006,-0.000004,-0.000021,68.860405,0.000027,
2131,2548,-2.7567929070414,-2.11201733929092,-0.0166579536040103,0.002896,-0.000339,-0.001217,0.136692,-0.029481,322.586409,24.319572,0.998838,0.983702,0.004947,0.378735,-0.000008,0.000003,0.000020,0.000019,-0.000023,52.596561,0.000025,
2146,2488,-2.42106071958171,-3.41997192788514,-0.0202850274326352,0.002746,-0.000279,-0.002231,0.132881,-0.005009,323.461919,24.235398,0.999144,0.986472,0.004796,0.428206,-0.000015,-0.000014,0.000009,-0.000005,-0.000023,46.943122,0.000030,
2251,2998,-0.224478423892091,7.68291747120012,0.0051465585789856,0.002862,-0.000874,0.001570,0.126350,-0.020340,315.076799,24.801311,0.999555,0.992316,0.003600,0.416132,-0.000017,-0.000003,0.000009,0.000002,-0.000021,63.930535,0.000023,
2191,2713,-1.48093908594151,1.48621078946971,-0.0341331027694309,0.002813,-0.000664,-0.002043,0.135601,-0.030022,319.547459,24.384740,0.999306,0.990711,0.003859,0.383788,-0.000018,-0.000015,0.000006,-0.000010,-0.000022,51.747273,0.000033,
2116,2143,-3.01700455359106,-10.9652184568946,0.0116799309950579,0.002741,-0.001189,0.001121,0.122060,-0.069973,329.401385,24.251757,0.998361,0.977926,0.006055,0.285029,-0.000011,-0.000013,0.000029,0.000017,-0.000041,44.394626,0.000041,
2371,2068,2.56187895320249,-12.614850264719,0.0218688051304525,0.002506,-0.000342,-0.000249,0.115420,-0.016537,330.201039,22.599023,0.999504,0.980877,0.005117,0.345769,-0.000014,-0.000027,0.000028,0.000008,-0.000049,38.096594,0.000053,
2311,2998,1.07959209036613,7.68697370362462,0.0102591557422897,0.002982,-0.000523,-0.000497,0.138798,-0.011918,315.048953,24.992548,0.999886,0.996575,0.002818,0.402797,-0.000018,-0.000017,0.000003,-0.000015,-0.000020,50.051577,0.000035,
2191,2458,-1.43632296723837,-4.0745578368151,-0.0156220252535491,0.002856,-0.000423,-0.002377,0.138479,-0.020811,323.836659,24.104134,0.998947,0.986673,0.004865,0.413911,-0.000022,-0.000026,0.000008,-0.000016,-0.000032,39.036929,0.000049,
2296,2938,0.763335929418542,6.38407962194891,-0.00619495413712912,0.002771,-0.000358,-0.001826,0.133621,0.004010,315.899024,24.867726,0.999329,0.990468,0.003885,0.384153,-0.000013,-0.000004,0.000008,0.000001,-0.000017,59.867516,0.000019,
2116,2353,-3.0520511713756,-6.3681778158521,-0.0118514193681563,0.002661,-0.001218,0.003658,0.111025,-0.045955,325.814403,24.348239,0.999310,0.984830,0.004843,0.294573,-0.000011,-0.000028,0.000003,-0.000011,-0.000028,11.092073,0.000040,
2506,3148,5.29000557775486,10.9596400626462,0.0161672619825595,0.002870,-0.000667,-0.000811,0.134814,-0.033231,312.848570,26.181738,0.999554,0.991222,0.003670,0.343222,-0.000021,0.000016,0.000031,0.000033,-0.000038,60.325407,0.000042,
2236,2938,-0.540766772422256,6.38003278001241,-0.0106917220466585,0.002818,-0.000736,0.001243,0.125459,-0.025974,315.953384,24.704385,0.999581,0.993166,0.003458,0.383461,-0.000019,0.000008,0.000012,0.000012,-0.000024,69.221266,0.000024,
2401,2113,3.20861246490025,-11.6274944205504,0.0245452013590466,0.002244,-0.000640,0.001596,0.096653,-0.014363,329.504782,22.622006,0.999002,0.975265,0.006038,0.279998,-0.000024,-0.000020,0.000010,-0.000012,-0.000032,51.582722,0.000046,
2131,2293,-2.71492838411434,-7.68097654743026,-0.00362936602277841,0.002731,-0.000613,-0.001207,0.128782,-0.040900,326.803754,24.211874,0.998781,0.984751,0.005076,0.352914,-0.000007,-0.000017,0.000017,0.000006,-0.000030,36.551914,0.000031,
2266,2878,0.121940727401455,5.07690215969126,-0.00708210311330504,0.002753,-0.000760,0.001137,0.122580,-0.037193,316.900745,24.633330,0.999695,0.992441,0.003533,0.409645,-0.000018,-0.000009,0.000010,-0.000002,-0.000024,58.215624,0.000030,
2146,2518,-2.42640149745417,-2.76489071665099,-0.0297145679285222,0.003178,-0.001114,0.001225,0.142039,-0.034685,322.907403,24.256635,0.999047,0.986742,0.004651,0.395344,-0.000009,-0.000006,0.000015,0.000008,-0.000023,47.640885,0.000023,
2221,2623,-0.812891410538363,-0.473696040596252,-0.0257740914112219,0.002688,-0.000701,0.001395,0.118883,-0.017254,320.978113,24.267090,0.999150,0.985622,0.004700,0.399059,-0.000019,-0.000012,0.000012,-0.000003,-0.000028,53.248053,0.000034,
2146,2293,-2.38779978419681,-7.68080960589014,-0.00360021389440135,0.002898,-0.000283,-0.005114,0.148413,-0.036738,326.763796,24.160769,0.998606,0.984291,0.005117,0.346812,-0.000016,-0.000024,0.000012,-0.000007,-0.000033,35.241256,0.000043,
2161,2308,-2.06323908245387,-7.35241455386277,0.00430580704846761,0.003065,-0.000678,0.000952,0.137561,-0.039169,326.521319,24.227928,0.998923,0.982901,0.005147,0.227767,-0.000011,-0.000039,0.000003,-0.000011,-0.000039,6.589536,0.000052,
2386,2113,2.88005600850791,-11.6269145725299,0.0177898351416843,0.002120,-0.000845,0.003087,0.085654,-0.022714,329.422534,22.674658,0.998740,0.970353,0.006365,0.308305,-0.000025,-0.000016,0.000015,-0.000005,-0.000036,53.096248,0.000045,
2326,3073,1.39114536779137,9.31741103778327,0.0110695570978123,0.002632,-0.000748,0.000942,0.117671,-0.019848,313.798279,25.272010,0.999723,0.995300,0.002840,0.325392,-0.000017,-0.000012,0.000004,-0.000009,-0.000020,60.096508,0.000030,
2146,2638,-2.44634638188624,-0.149139946165612,-0.0312381712822685,0.002988,-0.000844,0.000292,0.136310,-0.032922,320.946222,24.325114,0.999695,0.992600,0.003600,0.397946,-0.000005,-0.000005,0.000015,0.000010,-0.000020,45.448580,0.000020,
2476,2803,4.70385239061128,3.45878438384737,-0.0271446936104667,0.002832,-0.001026,0.000543,0.127511,-0.050016,318.042889,24.785748,0.999265,0.985639,0.004603,0.306238,-0.000028,-0.000010,0.000004,-0.000010,-0.000028,78.846970,0.000040,
2101,2263,-3.36342939196043,-8.33854168604739,0.00757762682695784,0.002605,-0.001601,0.006842,0.099155,-0.053722,327.483202,24.313854,0.998686,0.984783,0.005062,0.353241,0.000001,0.000026,0.000039,0.000054,-0.000027,53.727875,0.000054,
2086,2233,-3.68495010277415,-8.99234825176269,-0.000177945479208574,0.003232,-0.000444,0.001271,0.144612,0.008043,328.017658,24.451334,0.998954,0.985666,0.004694,0.340542,-0.000004,0.000033,0.000035,0.000054,-0.000025,59.242411,0.000054,
2236,2773,-0.512523683621879,2.79344717125754,-0.027743691175715,0.002948,-0.000524,-0.002203,0.142551,-0.037345,318.514376,24.469172,0.999290,0.988495,0.004104,0.378249,-0.000009,-0.000013,0.000009,-0.000002,-0.000020,39.433984,0.000025,
2176,2473,-1.76596408393267,-3.74701027157322,-0.0132940946302256,0.002297,-0.000705,0.000884,0.102583,-0.017318,323.624798,24.208794,0.999172,0.984436,0.005147,0.363435,-0.000024,-0.000014,0.000012,-0.000006,-0.000032,55.695494,0.000041,
2146,2608,-2.44139490364724,-0.802277185833482,-0.0256250515298575,0.002685,-0.000773,0.001063,0.120014,-0.024109,321.462465,24.388688,0.999407,0.990624,0.004094,0.326176,-0.000008,-0.000003,0.000018,0.000013,-0.000024,49.095398,0.000024,
2431,2368,3.81255420950812,-6.03987738443258,0.00332176490758229,0.002580,-0.000725,-0.001580,0.123712,-0.055763,325.275478,23.273375,0.998993,0.983214,0.005047,0.299760,-0.000018,-0.000014,0.000005,-0.000010,-0.000021,54.916323,0.000032,
2086,2098,-3.66490202875771,-11.9462167591267,-0.0079650283544197,0.002897,-0.000620,-0.000318,0.133637,-0.022465,330.109704,24.553066,0.999029,0.966926,0.006905,0.192277,-0.000011,-0.000032,0.000036,0.000015,-0.000059,36.807235,0.000061,
2266,3088,0.0863658035964256,9.63716569532509,0.0193562337475441,0.002877,-0.000853,-0.001761,0.138029,-0.045140,313.709869,25.046490,0.999612,0.992410,0.003556,0.336471,-0.000011,-0.000013,-0.000006,-0.000006,-0.000018,-39.640224,0.000025,
2251,2788,-0.188949226342782,3.12021303437033,-0.0224412434844226,0.002766,-0.000698,-0.001334,0.131369,-0.032644,318.272629,24.506114,0.999395,0.989162,0.004111,0.378480,-0.000015,-0.000013,0.000006,-0.000007,-0.000020,49.930162,0.000029,
2071,2203,-4.0067477938839,-9.65057956835747,0.00731683629334157,0.002929,-0.000565,-0.000541,0.135819,-0.034019,328.631048,24.467915,0.998544,0.982793,0.005307,0.352827,-0.000014,0.000016,0.000030,0.000035,-0.000033,58.295372,0.000039,
2101,2218,-3.35601620434501,-9.32130630689755,-0.000356379702907361,0.002951,-0.000719,-0.001590,0.139888,-0.051898,328.180942,24.373187,0.998298,0.982470,0.005450,0.285048,-0.000002,0.000020,0.000035,0.000045,-0.000028,53.719405,0.000046,
2416,2233,3.51224332050492,-8.99586664941126,0.0127282904962271,0.002504,-0.000413,0.000477,0.112743,-0.015888,327.504112,22.889783,0.999403,0.984890,0.005004,0.325913,-0.000027,-0.000009,0.000004,-0.000008,-0.000028,77.519617,0.000038,
2191,2473,-1.43936894938209,-3.74685115457113,-0.0160011190117757,0.002705,-0.000857,0.002438,0.116338,-0.023082,323.568762,24.144817,0.999092,0.984464,0.005126,0.386636,-0.000021,-0.000016,0.000015,-0.000004,-0.000033,49.728821,0.000041,
2446,2473,4.11819568974785,-3.74316266858747,0.0029692538800532,0.002211,-0.000456,0.002641,0.091332,-0.009559,323.563976,23.619971,0.999505,0.987816,0.004427,0.324308,-0.000006,-0.000036,0.000012,-0.000002,-0.000041,19.672410,0.000048,
2056,2128,-4.32287173338813,-11.2918914715472,0.00714081316908732,0.002564,-0.001525,0.004589,0.104316,-0.056296,329.882981,24.620088,0.998909,0.982640,0.005398,0.265657,-0.000007,-0.000044,0.000048,0.000026,-0.000076,34.608828,0.000078,
2221,2638,-0.816158786939173,-0.14669506070593,-0.0347230880482243,0.002478,-0.000582,-0.001039,0.117064,-0.019441,320.658409,24.224610,0.999065,0.986277,0.004716,0.458784,-0.000019,-0.000004,0.000012,0.000003,-0.000025,61.287431,0.000028,
2506,3163,5.28689505996666,11.284651463339,0.0168944262705395,0.002793,-0.000825,-0.000740,0.130915,-0.045168,312.604891,26.196263,0.999576,0.992110,0.003536,0.376590,-0.000024,0.000005,0.000025,0.000019,-0.000038,60.455294,0.000038,
2161,2338,-2.06877674105988,-6.69658297583019,-0.00495667574256231,0.003020,-0.000734,0.000026,0.138358,-0.010379,325.961421,24.131493,0.999361,0.988184,0.004332,0.377341,-0.000013,-0.000025,0.000004,-0.000012,-0.000027,17.351023,0.000040,
2146,2578,-2.43598849924369,-1.45679857068342,-0.0249941129790727,0.002977,-0.000563,-0.000994,0.139728,-0.013560,321.973460,24.300380,0.999099,0.988602,0.004383,0.407603,-0.000009,0.000000,0.000012,0.000008,-0.000017,54.700648,0.000017,
2131,2308,-2.71700357438296,-7.35300969300304,-0.00152926347254834,0.002980,-0.000762,-0.000444,0.137908,-0.034664,326.588584,24.235202,0.998930,0.985047,0.005033,0.343470,-0.000006,-0.000028,0.000007,-0.000004,-0.000030,15.817796,0.000038,
2476,2818,4.700786584504,3.78481990203782,-0.0233405392730788,0.002529,-0.000908,0.000942,0.112191,-0.028859,317.814708,24.793681,0.999305,0.987146,0.004546,0.376118,-0.000036,-0.000017,0.000006,-0.000015,-0.000038,72.737518,0.000054,
2176,2713,-1.80625025155947,1.48522192928024,-0.027146515442098,0.002989,-0.000624,-0.003168,0.147156,-0.031678,319.665552,24.407182,0.999389,0.990678,0.003832,0.359146,-0.000018,-0.000013,0.000006,-0.000009,-0.000022,57.645222,0.000032,
2296,2953,0.760843370963013,6.71027564860331,-0.00630658845921062,0.002957,-0.000355,-0.002903,0.145815,-0.005614,315.665414,24.926287,0.999188,0.988493,0.004185,0.345229,-0.000012,-0.000004,0.000008,0.000001,-0.000017,57.780385,0.000019,
2236,2953,-0.542389339747697,6.70576911669299,-0.00499878088987771,0.003274,-0.000598,-0.001136,0.154160,-0.036852,315.785089,24.761651,0.999452,0.992135,0.003691,0.335615,-0.000024,0.000004,0.000011,0.000008,-0.000028,70.896413,0.000029,
2161,2323,-2.06576214732532,-7.02539088422584,-0.00270762961582705,0.003045,-0.000422,-0.005406,0.156180,-0.056655,326.240422,24.103455,0.999079,0.984668,0.004908,0.347093,-0.000010,-0.000035,0.000004,-0.000009,-0.000036,8.163187,0.000048,
2161,2698,-2.13017968661811,1.15759425873554,-0.0237797326840337,0.002634,-0.000645,0.001337,0.116893,-0.014298,319.959495,24.361893,0.999305,0.988767,0.004054,0.410999,-0.000012,-0.000019,0.000008,-0.000006,-0.000024,32.928595,0.000032,
2206,2563,-1.12792112502169,-1.78319526095338,-0.0146420989659077,0.002836,-0.000716,0.000854,0.127380,-0.025387,322.091405,24.217286,0.999577,0.991636,0.003734,0.383303,-0.000015,-0.000013,0.000015,0.000001,-0.000029,47.458702,0.000033,
2281,2923,0.439191041637315,6.05700631368877,-0.0128451284538755,0.002712,-0.001143,0.003040,0.114237,-0.033812,316.087475,24.785296,0.999602,0.992695,0.003514,0.368073,-0.000012,-0.000009,0.000011,0.000001,-0.000022,49.564885,0.000025,
2176,2773,-1.8169860108189,2.79115104280031,-0.0333046178710106,0.003003,-0.000811,-0.000187,0.138514,-0.025721,318.631050,24.420525,0.999396,0.990510,0.004073,0.401508,-0.000014,-0.000011,0.000007,-0.000006,-0.000020,50.658424,0.000027,
2461,2743,4.38897995783842,2.1507056114167,-0.0315156070291209,0.002848,-0.001011,-0.000287,0.131384,-0.052171,318.954531,24.493901,0.999641,0.991601,0.003666,0.364879,-0.000020,0.000002,0.000005,0.000003,-0.000021,77.573355,0.000022,
2341,3253,1.68347597062362,13.2224651361029,0.00885232860474616,0.002995,-0.001024,-0.001918,0.144274,-0.048628,310.851450,25.670485,0.999507,0.992526,0.003388,0.376553,-0.000008,-0.000001,0.000004,0.000000,-0.000010,64.993829,0.000011,
2116,2368,-3.05328862911036,-6.04192081955306,-0.00338125803784806,0.003027,-0.000981,0.000103,0.138437,-0.036088,325.670859,24.293308,0.999164,0.984741,0.004867,0.364495,-0.000011,-0.000020,0.000002,-0.000010,-0.000021,11.653133,0.000032,
2161,2638,-2.12019864596423,-0.14781197974451,-0.0297819008258102,0.002937,-0.000619,0.000037,0.134781,-0.017057,320.899729,24.387329,0.999747,0.993541,0.003491,0.341137,-0.000009,-0.000007,0.000015,0.000007,-0.000023,46.877677,0.000024,
2191,2728,-1.4827403268821,1.81239291996274,-0.0294069504008121,0.003111,-0.000260,-0.003961,0.155460,-0.015291,319.363171,24.391228,0.999344,0.990022,0.003920,0.406708,-0.000015,-0.000015,0.000007,-0.000008,-0.000021,44.373721,0.000030,
2296,3013,0.749632055492579,8.01231276602854,0.00202099139693246,0.002523,-0.001003,0.002415,0.107574,-0.038957,314.717922,25.003378,0.999139,0.988146,0.004226,0.351714,-0.000011,-0.000017,0.000003,-0.000010,-0.000019,23.674502,0.000029,
2206,2788,-1.16709941235986,3.11813987945342,-0.0258488348454193,0.002833,-0.000696,-0.003323,0.140660,-0.038678,318.359564,24.458525,0.999221,0.988378,0.004323,0.385633,-0.000011,-0.000013,0.000011,-0.000001,-0.000023,42.100015,0.000027,
2176,2623,-1.79138021551602,-0.475418671877712,-0.0237881833784854,0.002779,-0.000925,0.001315,0.123404,-0.035553,321.129942,24.314722,0.999418,0.988929,0.004168,0.371475,-0.000016,-0.000007,0.000016,0.000005,-0.000029,52.339885,0.000030,
2161,2578,-2.10973694611613,-1.45722746724392,-0.0220553626113542,0.002917,-0.000927,0.000330,0.132819,-0.029337,321.935163,24.245300,0.999003,0.987095,0.004435,0.427565,-0.000010,-0.000005,0.000013,0.000005,-0.000020,51.462684,0.000021,
2266,2893,0.119155320542266,5.40389503849478,-0.012241082962305,0.002899,-0.000852,-0.000816,0.135837,-0.026912,316.625943,24.691242,0.999620,0.991012,0.003683,0.387324,-0.000016,-0.000007,0.000014,0.000003,-0.000027,53.501421,0.000029,
2176,2653,-1.79696002870056,0.179535272015642,-0.0369575852269008,0.002971,-0.000603,-0.001199,0.140162,-0.025418,320.549876,24.346134,0.999544,0.990386,0.004030,0.376109,-0.000016,0.000006,0.000014,0.000013,-0.000023,63.567175,0.000023,
2086,2248,-3.68813471076059,-8.66541582788808,0.00225435718141398,0.002416,-0.001039,0.004559,0.097455,-0.005720,327.750357,24.382677,0.998777,0.985578,0.004846,0.397067,-0.000001,0.000040,0.000042,0.000066,-0.000027,58.073071,0.000066,
2086,2113,-3.66597225873308,-11.621548415329,0.0128965810069985,0.002954,-0.001516,0.002150,0.128874,-0.071946,330.039269,24.468338,0.998950,0.983646,0.005129,0.228803,-0.000009,-0.000036,0.000034,0.000014,-0.000059,34.060320,0.000062,
2191,2788,-1.49381908178135,3.11798779420136,-0.0303242358627926,0.002660,-0.000718,0.000796,0.119659,-0.029571,318.345040,24.454820,0.999079,0.986752,0.004601,0.386907,-0.000017,-0.000014,0.000009,-0.000006,-0.000025,49.303638,0.000033,
2101,2278,-3.36520572029083,-8.00983292888566,0.00157811671579111,0.003094,-0.000788,-0.000478,0.143236,-0.021044,327.235437,24.285248,0.998514,0.983822,0.005189,0.418254,0.000002,0.000007,0.000033,0.000038,-0.000028,47.220401,0.000039,
2401,2128,3.20640709723687,-11.2988065826995,0.0317306621270177,0.002409,-0.000670,0.001839,0.103337,-0.015842,329.329399,22.714681,0.999306,0.980229,0.005401,0.234168,-0.000023,-0.000017,0.000008,-0.000011,-0.000029,54.099480,0.000041,
2386,2128,2.87723916943564,-11.2974879649663,0.0137600395723325,0.002337,-0.000426,0.000879,0.103636,-0.013453,329.164945,22.703064,0.999121,0.976888,0.005694,0.335256,-0.000024,-0.000011,0.000012,-0.000004,-0.000031,58.793703,0.000038,
2146,2308,-2.38986290043046,-7.35370900886673,0.00496663242745399,0.002986,-0.000482,-0.000842,0.139487,-0.030528,326.584709,24.169794,0.998935,0.984156,0.005072,0.353598,-0.000015,-0.000036,0.000003,-0.000015,-0.000036,8.202568,0.000052,
2371,2083,2.55890766369007,-12.2851097707155,0.0197338283990121,0.002694,-0.000583,0.001373,0.118199,-0.010896,329.944138,22.663050,0.999302,0.979123,0.005451,0.331767,-0.000016,-0.000016,0.000026,0.000010,-0.000043,45.001149,0.000044,
2236,2788,-0.514819799806755,3.11968676542282,-0.0233613220734696,0.003026,-0.000522,-0.001559,0.144064,-0.026596,318.308507,24.499226,0.999392,0.989544,0.004076,0.379862,-0.000010,-0.000013,0.000010,-0.000001,-0.000022,39.900155,0.000026,
2146,2548,-2.43078056546001,-2.11236786579353,-0.0177930054699118,0.002793,-0.000989,-0.000746,0.130344,-0.046700,322.510512,24.237021,0.999007,0.986495,0.004553,0.420479,-0.000006,0.000007,0.000019,0.000021,-0.000020,54.310970,0.000024,
2446,2488,4.11599963181268,-3.41687127678251,0.00150730965623325,0.002886,-0.000603,-0.000321,0.133224,-0.038041,323.351199,23.554116,0.999390,0.986281,0.004569,0.414996,-0.000001,-0.000031,0.000000,-0.000001,-0.000031,0.781306,0.000036,
2341,3268,1.67963041096086,13.5484733832831,-0.00040740496598346,0.002925,-0.000903,0.001164,0.130386,-0.031142,310.513198,25.717446,0.999500,0.992850,0.003334,0.382257,-0.000006,0.000004,0.000007,0.000008,-0.000009,62.721280,0.000010,
2191,2488,-1.4421203113813,-3.41913282512219,-0.0192991532941846,0.002589,-0.000753,0.000557,0.116939,-0.033641,323.299213,24.173004,0.998974,0.983066,0.005318,0.363856,-0.000021,-0.000009,0.000017,0.000003,-0.000033,54.728888,0.000036,
2311,3013,1.07572740689325,8.01376569047341,-0.000237318246377072,0.002805,-0.001061,0.001138,0.124822,-0.035668,314.701784,25.066330,0.999517,0.991460,0.003645,0.336846,-0.000018,-0.000020,0.000004,-0.000015,-0.000023,37.452652,0.000038,
2506,3178,5.28473979124931,11.6102832201814,0.025356521092192,0.002978,-0.000671,-0.001148,0.141103,-0.029458,312.439670,26.289961,0.999622,0.992544,0.003504,0.358511,-0.000018,-0.000005,0.000023,0.000012,-0.000035,53.293612,0.000036,
2326,3088,1.38904328263053,9.64131935366846,0.0157500345589483,0.002909,-0.000927,0.000063,0.133344,-0.041196,313.608655,25.198087,0.999651,0.994808,0.003042,0.411464,-0.000019,-0.000011,-0.000002,-0.000010,-0.000019,-77.625354,0.000030,
2131,2323,-2.71941754120074,-7.02574555004467,0.00558341622877379,0.002746,-0.001098,0.003139,0.116359,-0.039536,326.384787,24.259941,0.999225,0.985812,0.004798,0.321384,-0.000008,-0.000029,0.000004,-0.000007,-0.000029,10.919821,0.000039,
2296,3073,0.740755864370765,9.31441753601323,0.0157326640080555,0.002959,-0.000500,-0.006887,0.159378,-0.038971,313.903917,25.148423,0.999648,0.994086,0.003362,0.323113,-0.000011,-0.000009,0.000004,-0.000007,-0.000014,52.563783,0.000021,
2116,2158,-3.01958484699816,-10.6356608468826,0.00404782705055595,0.003002,-0.001112,0.000783,0.135080,-0.045628,329.109518,24.246319,0.998979,0.984388,0.005131,0.321409,-0.000008,-0.000020,0.000027,0.000014,-0.000041,39.042078,0.000042,
2281,2938,0.436819462914965,6.38278975978348,-0.0135383110011844,0.002875,-0.000732,-0.000203,0.132743,-0.027610,315.855543,24.781992,0.999546,0.991678,0.003697,0.404818,-0.000010,-0.000002,0.000010,0.000005,-0.000017,56.414939,0.000017,
2191,2848,-1.50303904275155,4.42145855327762,-0.0138999748034507,0.002643,-0.000935,0.001853,0.115516,-0.032460,317.502759,24.512505,0.999288,0.990762,0.003809,0.383509,-0.000024,-0.000004,0.000017,0.000005,-0.000033,60.011769,0.000036,
2251,3013,-0.227186004887624,8.00869864526501,0.00659270809200052,0.002796,-0.000872,0.002507,0.120261,-0.022890,314.837900,24.840205,0.999421,0.990905,0.003765,0.397366,-0.000016,-0.000011,0.000004,-0.000009,-0.000019,60.737878,0.000028,
2176,2488,-1.768448363553,-3.41961305261896,-0.0140525579510609,0.002366,-0.000676,0.000757,0.106141,-0.013744,323.379459,24.216226,0.998999,0.984515,0.005119,0.373116,-0.000024,-0.000008,0.000014,0.000001,-0.000032,59.852703,0.000037,
2206,2863,-1.17913246843846,4.74820089825758,-0.0112150055867914,0.002901,-0.000549,-0.000950,0.136354,-0.021003,317.257573,24.541412,0.999410,0.992321,0.003468,0.402930,-0.000016,-0.000003,0.000014,0.000006,-0.000025,57.989341,0.000026,
2056,2143,-4.32453722800351,-10.9641865500889,0.00694928427475361,0.002801,-0.000843,-0.001069,0.131317,-0.051177,329.667979,24.537913,0.998815,0.984115,0.005354,0.350513,-0.000006,-0.000009,0.000045,0.000038,-0.000053,44.089861,0.000054,
2221,2878,-0.856389204609375,5.07505276555863,-0.0124815040077806,0.002638,-0.000774,0.001413,0.116611,-0.030598,316.943197,24.576773,0.999489,0.993116,0.003314,0.398984,-0.000016,-0.000002,0.000015,0.000008,-0.000026,57.894267,0.000027,
2206,2803,-1.17003667095353,3.44443047660982,-0.0252815670323798,0.002761,-0.000962,0.001236,0.122830,-0.029770,318.102558,24.469341,0.998960,0.985426,0.004704,0.400314,-0.000011,-0.000012,0.000014,0.000002,-0.000026,44.136431,0.000028,
2176,2728,-1.80935507505006,1.8109849656879,-0.0277904267226745,0.002776,-0.000994,0.001559,0.122571,-0.030703,319.392542,24.345227,0.999464,0.990390,0.003930,0.434528,-0.000016,-0.000012,0.000007,-0.000007,-0.000021,53.111454,0.000030,
2281,3163,0.398906094068867,11.2653224817372,0.0254144585248923,0.003250,-0.001028,0.002403,0.141287,-0.039039,312.513302,25.248359,0.999595,0.992598,0.003523,0.329568,-0.000003,-0.000008,-0.000005,0.000000,-0.000011,-31.367666,0.000013,
2506,3193,5.28177713840812,11.9354597893657,0.0262715336064616,0.003028,-0.000635,-0.001135,0.143345,-0.030495,312.203430,26.316876,0.999615,0.992720,0.003497,0.390365,-0.000014,-0.000005,0.000021,0.000012,-0.000031,51.440090,0.000032,
2071,2218,-4.00880913431877,-9.32122446589907,0.00682333431558391,0.003096,-0.000049,-0.002041,0.147930,-0.019025,328.397302,24.550106,0.998386,0.982519,0.005196,0.285047,-0.000013,0.000031,0.000036,0.000051,-0.000033,60.534596,0.000052,
2161,2353,-2.07200983433737,-6.36849260996278,-0.0101940766555799,0.002547,-0.000613,-0.000890,0.119450,-0.037912,325.657154,24.143754,0.999177,0.986317,0.004607,0.349719,-0.000018,-0.000029,0.000000,-0.000018,-0.000029,0.574603,0.000047,
2416,2248,3.50990937534208,-8.66737153955562,0.01278703494512,0.002858,-0.000055,-0.002694,0.140681,-0.009481,327.290154,22.923204,0.999295,0.983194,0.005128,0.348929,-0.000025,-0.000014,0.000001,-0.000014,-0.000025,85.945128,0.000039,
2371,2098,2.55560677519111,-11.9557342881353,0.017217645120013,0.002665,-0.000988,0.004083,0.107130,-0.024989,329.670406,22.715127,0.999160,0.977774,0.005709,0.309886,-0.000022,-0.000015,0.000020,0.000002,-0.000039,49.755918,0.000044,
2176,2668,-1.79850184462798,0.504962896805552,-0.0217950314302584,0.002888,-0.000385,-0.001705,0.138037,-0.008726,320.431313,24.351207,0.999575,0.992646,0.003586,0.400138,-0.000014,0.000004,0.000014,0.000011,-0.000021,61.439630,0.000021,
2176,2788,-1.81939594252649,3.11740203911915,-0.0303150311904119,0.002780,-0.000656,-0.002343,0.134965,-0.038781,318.408767,24.463905,0.999393,0.989512,0.004183,0.357127,-0.000019,-0.000012,0.000008,-0.000007,-0.000024,56.248619,0.000032,
2101,2293,-3.36822171864393,-7.6807934254262,-0.00112454607938162,0.002674,-0.000567,0.000558,0.120980,-0.007162,326.948784,24.344914,0.998998,0.986601,0.004818,0.376146,0.000003,-0.000005,0.000028,0.000027,-0.000029,40.505478,0.000032,
2086,2263,-3.68977061964429,-8.33801687574974,0.00347512980960119,0.002858,-0.000800,0.002030,0.125156,-0.029101,327.547211,24.358356,0.998743,0.985496,0.004867,0.399189,0.000003,0.000036,0.000045,0.000067,-0.000028,55.216468,0.000067,
2461,2758,4.38585621283453,2.47794462302683,-0.0315661271928889,0.002862,-0.000653,0.001019,0.127287,-0.018168,318.705047,24.552633,0.999567,0.990299,0.003896,0.394737,-0.000014,0.000007,0.000007,0.000009,-0.000016,73.761023,0.000016,
2296,3028,0.748122956107924,8.33824462539819,0.00368940031290776,0.003341,-0.000519,-0.001664,0.159248,-0.025917,314.538233,25.046829,0.999323,0.989771,0.003930,0.350644,-0.000011,-0.000022,0.000001,-0.000011,-0.000022,4.140726,0.000033,
2446,2503,4.11254087123982,-3.0885540210232,-0.00128050211861819,0.002759,-0.000700,0.000861,0.122966,-0.030491,323.073794,23.631215,0.999491,0.988327,0.004281,0.398974,0.000007,-0.000025,0.000001,0.000007,-0.000025,1.328351,0.000026,
2191,2743,-1.48499909566654,2.13825614132875,-0.0205596714189937,0.002984,-0.000557,-0.001327,0.141259,-0.019944,319.179456,24.424509,0.999488,0.990694,0.003867,0.383229,-0.000016,-0.000018,0.000006,-0.000012,-0.000023,39.722842,0.000035,
2161,2653,-2.12296589714901,0.179000462363909,-0.0349652087462573,0.003008,-0.000504,-0.000030,0.138314,-0.018171,320.616900,24.362478,0.999663,0.992333,0.003636,0.375181,-0.000010,0.000004,0.000014,0.000013,-0.000019,58.205698,0.000020,
2191,2803,-1.49588801654346,3.44441678302384,-0.0262888225900042,0.002874,-0.000620,0.000740,0.129735,-0.027674,318.144778,24.511901,0.999098,0.986748,0.004544,0.346128,-0.000018,-0.000015,0.000013,-0.000003,-0.000030,49.270453,0.000036,
2056,2158,-4.32675411422133,-10.6339586777105,0.0054994416250338,0.003037,-0.000374,0.000645,0.137488,0.006035,329.420177,24.625850,0.999077,0.986430,0.004885,0.317028,-0.000008,-0.000025,0.000035,0.000019,-0.000053,38.232513,0.000053,
2476,2833,4.69874240486054,4.11107949056485,-0.0179968916644384,0.002881,-0.000348,-0.001527,0.137980,-0.007310,317.640417,24.837143,0.999460,0.988565,0.004064,0.410579,-0.000034,-0.000002,0.000007,-0.000001,-0.000035,77.327012,0.000041,
2431,2383,3.80940089138291,-5.71083684663643,-0.00157154361659195,0.002876,-0.000598,-0.000679,0.134049,-0.035328,325.001488,23.342018,0.999545,0.987000,0.004579,0.303623,-0.000010,-0.000024,-0.000004,-0.000010,-0.000025,-13.967011,0.000036,
2341,3283,1.67637559369505,13.8737202557488,-0.00902194680764978,0.003023,-0.000987,-0.000655,0.141207,-0.042980,310.205497,25.731843,0.999580,0.993441,0.003222,0.391211,-0.000002,-0.000008,0.000007,0.000002,-0.000013,33.917534,0.000013,
2251,2803,-0.191832515262622,3.44733414338507,-0.0296167376326935,0.003026,-0.000452,-0.001855,0.145145,-0.014656,317.981976,24.525167,0.999408,0.989420,0.004214,0.400793,-0.000016,-0.000014,0.000010,-0.000006,-0.000025,48.462452,0.000032,
2176,2638,-1.79369952305455,-0.14895817685607,-0.0237690189586033,0.002997,-0.001065,0.001571,0.132607,-0.039428,320.896327,24.299093,0.999554,0.990344,0.003981,0.396052,-0.000014,-0.000004,0.000015,0.000006,-0.000025,54.755759,0.000026,
2116,2173,-3.02161731250738,-10.3069933992408,0.00870148609254784,0.002804,-0.000400,-0.002813,0.136838,-0.029820,328.908601,24.304715,0.998844,0.984808,0.005132,0.284777,-0.000009,-0.000013,0.000026,0.000015,-0.000037,43.213972,0.000037,
2266,3103,0.0837583381397771,9.96317758872233,0.0165760670320765,0.003077,-0.000384,-0.003178,0.152141,-0.022126,313.455013,25.077412,0.999732,0.993900,0.003286,0.353198,-0.000010,-0.000014,-0.000004,-0.000007,-0.000017,-31.718014,0.000025,
2506,3208,5.27800426582526,12.262100031711,0.0205287633309013,0.002771,-0.000578,-0.001890,0.134545,-0.024593,311.899395,26.437200,0.999402,0.992038,0.003641,0.335547,-0.000013,-0.000018,0.000013,-0.000002,-0.000028,39.032564,0.000034,
2161,2593,-2.11231869010169,-1.12969437693043,-0.0242046260025859,0.002910,-0.000868,-0.000630,0.135413,-0.050897,321.676757,24.312436,0.999173,0.988917,0.004264,0.349748,-0.000014,-0.000009,0.000016,0.000005,-0.000028,49.221824,0.000029,
2296,3088,0.737818294434106,9.638955022644,0.0191023440775666,0.003051,-0.000933,0.000217,0.139348,-0.046917,313.667326,25.110118,0.999605,0.993584,0.003425,0.382302,-0.000014,-0.000012,-0.000003,-0.000009,-0.000016,-52.928837,0.000025,
2401,2143,3.20310842815541,-10.9699996133909,0.0225865263379319,0.002551,-0.000157,-0.000625,0.118946,-0.004250,329.027167,22.634113,0.999256,0.979105,0.005405,0.375019,-0.000022,-0.000019,0.000005,-0.000015,-0.000025,53.600222,0.000041,
2176,2503,-1.77087576830851,-3.09222221013301,-0.0167870301066273,0.002561,-0.000564,-0.000321,0.118492,-0.024003,323.126433,24.223873,0.998901,0.984093,0.005176,0.368761,-0.000021,-0.000012,0.000015,-0.000001,-0.000033,53.644411,0.000038,
2236,2968,-0.545335104456235,7.03145975766807,-0.00160111900419224,0.002852,-0.000395,0.000493,0.129591,-0.015810,315.544243,24.770594,0.999434,0.992060,0.003695,0.368285,-0.000023,0.000006,0.000014,0.000012,-0.000029,67.932290,0.000029,
2206,2578,-1.13063415173956,-1.45580486443374,-0.0169768726642019,0.002787,-0.000328,-0.000136,0.128407,-0.004989,321.829728,24.223335,0.999348,0.990119,0.003964,0.415359,-0.000018,-0.000013,0.000013,-0.000003,-0.000028,51.110768,0.000034,
2476,2848,4.69486112732408,4.4380700936254,-0.0273003664299267,0.002868,-0.000799,-0.001027,0.135240,-0.048003,317.314886,24.904381,0.999274,0.988092,0.004191,0.359100,-0.000033,0.000000,0.000002,0.000000,-0.000033,86.914347,0.000038,
2071,2233,-4.01127630060397,-8.99245577646696,0.00174370235436072,0.003172,-0.000128,-0.003069,0.154356,-0.022856,328.120212,24.555626,0.998856,0.985378,0.004811,0.274977,-0.000016,0.000040,0.000031,0.000053,-0.000030,66.001773,0.000054,
2251,3028,-0.230015785670496,8.33461965558649,0.00416012158382273,0.002648,-0.000823,0.000097,0.121344,-0.035071,314.573641,24.879739,0.999336,0.989924,0.003867,0.368101,-0.000016,-0.000017,-0.000001,-0.000015,-0.000017,-23.488172,0.000033,
2386,2143,2.87430586357582,-10.9679779821858,0.00931768835374669,0.002493,-0.000199,-0.001067,0.117835,-0.011571,328.900033,22.747989,0.999066,0.975226,0.005783,0.338774,-0.000023,-0.000017,0.000007,-0.000012,-0.000028,56.903874,0.000041,
2281,3178,0.396366287325822,11.5899980318351,0.0307352413479975,0.002987,-0.001069,0.001448,0.132325,-0.049224,312.303595,25.257661,0.999673,0.993164,0.003265,0.336391,-0.000003,-0.000008,-0.000006,0.000001,-0.000012,-33.641439,0.000013,
2161,2713,-2.13267460639038,1.48483065961643,-0.026200730958351,0.002689,-0.000725,-0.000442,0.124836,-0.030053,319.703567,24.432216,0.999467,0.990295,0.003914,0.335343,-0.000011,-0.000010,0.000007,-0.000003,-0.000018,48.093678,0.000023,
2131,2563,-2.75969063964687,-1.78309648356468,-0.0258928911107432,0.003081,-0.000129,-0.000668,0.143688,0.004527,322.272745,24.385442,0.999096,0.987645,0.004509,0.353802,-0.000008,0.000005,0.000016,0.000016,-0.000019,56.171238,0.000020,
2206,2923,-1.18937670096146,6.0526669665804,-0.00974112891771028,0.003016,-0.000728,0.000128,0.138159,-0.038663,316.294323,24.675288,0.999442,0.991008,0.003791,0.316309,-0.000021,-0.000002,0.000014,0.000006,-0.000028,62.030836,0.000030,
2116,2383,-3.05576945854277,-5.71433225857162,-0.00955827931147724,0.003125,-0.000636,-0.003090,0.152492,-0.042184,325.391755,24.238975,0.999257,0.984835,0.004783,0.418006,-0.000011,-0.000018,0.000006,-0.000007,-0.000022,31.973983,0.000030,
2086,2128,-3.66930751584309,-11.29136971129,0.00502971746817593,0.002442,-0.000890,0.002451,0.104722,-0.027855,329.708369,24.485032,0.999096,0.985160,0.004967,0.258669,-0.000011,-0.000045,0.000036,0.000012,-0.000068,32.561664,0.000072,
2161,2368,-2.0738053456531,-6.04014658779391,-0.00950538175436577,0.003032,-0.000018,-0.003071,0.148618,-0.016801,325.449533,24.193904,0.999146,0.989342,0.004198,0.332601,-0.000017,-0.000016,-0.000001,-0.000016,-0.000018,-62.100765,0.000034,
2371,2113,2.55284204969862,-11.6263706808295,0.0145173814458985,0.002663,-0.000556,0.000112,0.121266,-0.025132,329.420214,22.755846,0.999165,0.977782,0.005639,0.313231,-0.000025,-0.000013,0.000018,0.000000,-0.000038,53.891127,0.000044,
2266,3118,0.081098859892311,10.2876225947571,0.0264898170761967,0.002675,-0.000783,0.000503,0.121242,-0.034039,313.262286,25.082090,0.999676,0.993945,0.003289,0.360945,-0.000009,-0.000010,-0.000004,-0.000006,-0.000013,-42.182753,0.000019,
2221,2938,-0.866227017215454,6.3794160273719,-0.00990753485291407,0.002988,-0.000340,-0.000324,0.138509,-0.007380,316.008517,24.686491,0.999563,0.993424,0.003399,0.386273,-0.000020,0.000004,0.000012,0.000009,-0.000025,66.634323,0.000025,
2191,2503,-1.44398722948338,-3.09196651492135,-0.0159393464930417,0.002905,-0.000336,-0.001241,0.137242,-0.024779,323.104772,24.196891,0.999191,0.986095,0.004797,0.364189,-0.000020,-0.000014,0.000018,0.000001,-0.000036,49.683270,0.000041,
2206,2878,-1.18205851569008,5.07472442487442,-0.0149872549146721,0.002917,-0.000923,0.000266,0.133113,-0.040357,316.978528,24.590526,0.999625,0.994054,0.003195,0.350739,-0.000017,0.000002,0.000012,0.000008,-0.000023,64.166577,0.000023,
2341,3298,1.67334296433557,14.1991284911438,-0.0131750486658007,0.002945,-0.000832,-0.003256,0.146780,-0.035911,309.929662,25.771111,0.999694,0.993243,0.003240,0.394018,-0.000002,-0.000018,0.000009,0.000003,-0.000022,24.803105,0.000024,
2176,2803,-1.82163639456342,3.44299263362319,-0.0215420175022132,0.002441,-0.000215,-0.002901,0.121263,-0.018523,318.224662,24.461849,0.999531,0.989941,0.004137,0.391700,-0.000020,-0.000013,0.000013,-0.000003,-0.000030,52.699575,0.000036,
2266,2908,0.116763753306184,5.73016587776151,-0.0106341676128636,0.002944,-0.000481,-0.002808,0.144604,-0.023328,316.403469,24.743090,0.999678,0.992598,0.003482,0.364392,-0.000013,-0.000006,0.000015,0.000006,-0.000025,51.260517,0.000026,
2221,2653,-0.81791640126588,0.179871317379693,-0.0315013255936947,0.003049,-0.000416,-0.001713,0.145532,-0.023695,320.470427,24.252012,0.999322,0.988833,0.004316,0.446543,-0.000016,0.000006,0.000016,0.000014,-0.000024,62.711999,0.000024,
2236,2803,-0.51771408617417,3.44608871441007,-0.0277158637589423,0.003102,-0.000643,-0.001240,0.146510,-0.028686,318.030594,24.493741,0.999499,0.989402,0.004123,0.404432,-0.000012,-0.000012,0.000013,0.000001,-0.000025,45.063860,0.000029,
2221,2893,-0.858604209592059,5.40090448670728,-0.00663871343573419,0.002523,-0.000571,-0.000170,0.116532,-0.007247,316.747537,24.596223,0.999643,0.993276,0.003418,0.421319,-0.000019,-0.000003,0.000017,0.000008,-0.000029,57.585334,0.000030,
2311,3028,1.0738963188273,8.33867430467093,0.00639486785291865,0.003034,-0.000924,-0.001783,0.145408,-0.044330,314.533153,25.070605,0.999597,0.991491,0.003649,0.355217,-0.000017,-0.000022,0.000002,-0.000016,-0.000023,18.998169,0.000040,
2056,2173,-4.32933952978875,-10.3056075708078,0.00145843416134994,0.002962,-0.000525,0.000817,0.133523,-0.022321,329.142127,24.606088,0.999097,0.988873,0.004496,0.306361,-0.000011,-0.000016,0.000032,0.000019,-0.000046,42.476937,0.000046,
2431,2398,3.80628110446935,-5.38293232341216,-0.00546840123041648,0.002993,-0.000420,-0.001315,0.141823,-0.025573,324.733779,23.332563,0.999729,0.988064,0.004500,0.374434,-0.000008,-0.000015,0.000000,-0.000008,-0.000015,-1.784465,0.000023,
2191,2863,-1.50562600136231,4.74801037972356,-0.0189047365311126,0.002800,-0.000755,-0.000584,0.130449,-0.041579,317.231609,24.540166,0.999342,0.991856,0.003579,0.361200,-0.000025,-0.000004,0.000013,0.000003,-0.000031,64.257175,0.000035,
2131,2338,-2.72214042874956,-6.69719537976693,0.00268577715814899,0.002589,-0.000527,0.002573,0.111036,-0.013456,326.113195,24.276989,0.999416,0.986152,0.004649,0.338233,-0.000014,-0.000023,0.000002,-0.000014,-0.000024,14.476134,0.000038,
2101,2308,-3.3704507432565,-7.3531682743078,-0.000684468642646152,0.002591,-0.000392,-0.002214,0.125337,-0.012519,326.715417,24.331303,0.998985,0.984120,0.005303,0.387468,0.000006,-0.000018,0.000017,0.000014,-0.000027,27.595778,0.000027,
2446,2518,4.10878998575613,-2.76047924470902,-0.00679593602040995,0.002462,-0.000757,0.000850,0.109423,-0.010295,322.770337,23.654138,0.999230,0.986347,0.004546,0.449785,0.000006,-0.000024,0.000000,0.000006,-0.000024,0.653084,0.000025,
2296,3103,0.735336424812004,9.96466018655567,0.020498271691622,0.003092,-0.000927,-0.001550,0.147258,-0.052823,313.441460,25.168368,0.999343,0.991877,0.003819,0.347212,-0.000011,-0.000011,-0.000002,-0.000009,-0.000012,-40.330417,0.000022,
2206,2818,-1.17240357488465,3.77000738420172,-0.0201681707461603,0.002661,-0.000965,0.001721,0.116661,-0.032444,317.895435,24.464994,0.999202,0.988099,0.004248,0.418397,-0.000008,-0.000006,0.000017,0.000010,-0.000025,46.558099,0.000025,
2191,2758,-1.48738153337115,2.46433608233031,-0.0193228930018563,0.003101,-0.000860,-0.000947,0.145375,-0.036270,318.950451,24.432490,0.999523,0.991241,0.003695,0.373394,-0.000014,-0.000018,0.000008,-0.000008,-0.000024,38.631923,0.000033,
2326,3103,1.38669011215571,9.96692708036586,0.0201710437256679,0.003008,-0.000847,-0.000190,0.138837,-0.033320,313.405599,25.253306,0.999508,0.994077,0.003304,0.397546,-0.000013,-0.000009,0.000000,-0.000009,-0.000013,-88.531750,0.000022,
2296,3043,0.745638483435783,8.66318368559177,0.0141431970748158,0.003106,-0.001060,0.001970,0.135974,-0.028877,314.357646,25.076520,0.999412,0.990111,0.003871,0.346994,-0.000012,-0.000015,0.000002,-0.000011,-0.000016,25.888961,0.000028,
2461,2773,4.38274823787468,2.80503281952875,-0.0352040336807704,0.002747,-0.000479,-0.003023,0.137311,-0.019929,318.439905,24.609630,0.999380,0.988384,0.004200,0.390642,-0.000019,-0.000008,0.000005,-0.000006,-0.000021,67.605833,0.000029,
2221,2998,-0.876030089480285,7.68152264449588,0.00158360878464237,0.002965,-0.000654,0.000820,0.133734,-0.015610,315.121683,24.746193,0.999424,0.991374,0.003799,0.391310,-0.000023,0.000000,0.000010,0.000004,-0.000027,69.619806,0.000029,
2281,3193,0.393685787440546,11.9152166383719,0.0322072767251029,0.002907,-0.000856,0.001051,0.130092,-0.034208,312.067905,25.272415,0.999710,0.993387,0.003206,0.363206,-0.000003,-0.000005,-0.000006,0.000002,-0.000010,-38.538002,0.000010,
2176,2683,-1.80134952818193,0.831027219778306,-0.024331452464935,0.002854,-0.000849,0.000014,0.130962,-0.028516,320.160214,24.307814,0.999340,0.991740,0.003799,0.436574,-0.000019,0.000001,0.000008,0.000004,-0.000021,71.637652,0.000023,
2191,2818,-1.49853684894972,3.76982150357973,-0.0234094093186172,0.002555,-0.000838,0.000233,0.116567,-0.038162,317.912207,24.482367,0.998820,0.984873,0.004733,0.379496,-0.000016,-0.000008,0.000016,0.000005,-0.000029,52.814702,0.000031,
2401,2158,3.20040373090486,-10.6409383975241,0.0208539947996655,0.002870,-0.000413,-0.001103,0.135178,-0.037389,328.787062,22.707166,0.999261,0.979350,0.005361,0.317010,-0.000023,-0.000018,0.000001,-0.000018,-0.000023,80.262173,0.000041,
2206,2893,-1.18535837922448,5.40157931554054,-0.0257946058569019,0.002960,-0.000874,0.000229,0.135306,-0.025388,316.645741,24.589647,0.999804,0.995348,0.003036,0.383057,-0.000019,0.000002,0.000014,0.000009,-0.000026,63.133416,0.000026,
2281,2953,0.434556227582629,6.7087191746956,-0.01073767555215,0.003028,-0.000798,-0.001632,0.144521,-0.035225,315.646001,24.834606,0.999309,0.989604,0.004025,0.371797,-0.000009,-0.000001,0.000010,0.000006,-0.000017,55.526122,0.000017,
2236,3013,-0.552603188396414,8.00793463804784,0.00408184102337827,0.003083,-0.000578,-0.000307,0.142798,-0.015192,314.870910,24.796284,0.999369,0.989945,0.003932,0.404425,-0.000025,-0.000013,0.000006,-0.000010,-0.000027,68.613625,0.000039,
2356,1993,2.24872567207727,-14.2615164348451,0.0284266705689333,0.002501,-0.000455,0.000058,0.114052,-0.027655,331.454830,22.553623,0.998813,0.968123,0.007056,0.263203,0.000009,-0.000088,0.000027,0.000016,-0.000095,14.380813,0.000102,
2161,2608,-2.11437979583716,-0.802655567696718,-0.0177857633228768,0.002921,-0.000316,-0.000489,0.135708,-0.018804,321.487256,24.359332,0.999466,0.991409,0.003893,0.345375,-0.000011,-0.000010,0.000019,0.000008,-0.000029,45.949617,0.000030,
2416,2263,3.50690026631045,-8.3389119883207,0.0144673465727578,0.002933,-0.000526,0.000631,0.131797,-0.021470,327.052820,22.993630,0.999222,0.983717,0.005027,0.316473,-0.000020,-0.000028,-0.000005,-0.000018,-0.000030,-25.485849,0.000049,
2221,2668,-0.820683809990179,0.506113794119237,-0.0225764300172955,0.002628,-0.001118,0.003501,0.109216,-0.037638,320.265468,24.311124,0.999522,0.992807,0.003686,0.392578,-0.000012,0.000006,0.000012,0.000012,-0.000018,64.347159,0.000018,
2161,2728,-2.13515166392258,1.8106634740716,-0.0269518238806086,0.002835,-0.000781,0.000633,0.128272,-0.027695,319.457588,24.373982,0.999592,0.990067,0.003960,0.406223,-0.000013,-0.000009,0.000008,-0.000003,-0.000019,52.135448,0.000023,
2176,2518,-1.77284886840554,-2.76517408393386,-0.0194316308156317,0.003148,-0.000596,-0.002244,0.151408,-0.043008,322.894778,24.214794,0.999006,0.986710,0.004734,0.371993,-0.000021,-0.000012,0.000020,0.000004,-0.000037,51.720363,0.000040,
2236,2983,-0.547679491022627,7.35694415302876,0.00526626190600155,0.002616,-0.000467,-0.000317,0.121354,-0.014453,315.348811,24.807531,0.999423,0.992396,0.003686,0.353015,-0.000024,0.000001,0.000011,0.000005,-0.000028,68.728011,0.000030,
2476,2863,4.69190768846309,4.76417469081207,-0.0232519998153293,0.002511,-0.000689,-0.002394,0.124125,-0.040978,317.092760,24.946904,0.999054,0.986601,0.004422,0.379799,-0.000034,0.000000,0.000001,0.000000,-0.000034,89.033507,0.000039,
2506,3223,5.27455117047206,12.5873077482497,0.0218285566030545,0.002408,-0.000545,-0.000574,0.112727,-0.024561,311.642061,26.476057,0.999511,0.991969,0.003687,0.356599,-0.000016,-0.000040,0.000012,-0.000011,-0.000045,21.689673,0.000059,
2146,2323,-2.39280915559964,-7.02568375925296,0.00304895566080177,0.002694,-0.000875,0.000434,0.122070,-0.046541,326.309715,24.185615,0.999283,0.984386,0.004992,0.331752,-0.000016,-0.000034,0.000001,-0.000016,-0.000034,2.924042,0.000051,
2116,2398,-3.05785172244234,-5.38616125440821,-0.0109043168196763,0.003406,-0.000258,-0.004891,0.170865,-0.033684,325.156572,24.275318,0.999078,0.985336,0.004767,0.395108,-0.000012,-0.000029,0.000001,-0.000012,-0.000030,2.145057,0.000043,
2206,2938,-1.19203020369612,6.37782049017897,-0.00605915075630037,0.002739,-0.000758,0.000643,0.123846,-0.027031,316.066632,24.638087,0.999474,0.992447,0.003585,0.381426,-0.000021,0.000005,0.000012,0.000009,-0.000026,68.724053,0.000026,
2266,3133,0.0788186033024942,10.6115646942263,0.030664079809128,0.002688,-0.000961,-0.001034,0.126870,-0.050420,313.058218,25.012061,0.999655,0.995257,0.003088,0.438863,-0.000011,-0.000009,-0.000006,-0.000003,-0.000016,-49.301393,0.000021,
2251,3043,-0.232259122975513,8.66041426561459,0.00952131746117857,0.002772,-0.000887,0.001066,0.123875,-0.032324,314.375869,24.948260,0.999535,0.991893,0.003568,0.324796,-0.000018,-0.000015,-0.000002,-0.000014,-0.000019,-69.626079,0.000033,
2221,2908,-0.86092953911125,5.72709273294898,-0.0025906383738743,0.002487,-0.000355,-0.000864,0.117206,-0.003497,316.537508,24.656708,0.999523,0.992279,0.003848,0.382873,-0.000017,-0.000004,0.000016,0.000007,-0.000028,56.222637,0.000029,
2056,2188,-4.33159506645366,-9.97836600698923,0.00757608466261672,0.002710,-0.000721,0.002955,0.115912,-0.012180,328.934927,24.559522,0.998908,0.985676,0.004957,0.359946,-0.000012,0.000016,0.000042,0.000046,-0.000042,54.216001,0.000051,
2086,2278,-3.69200482587139,-8.00851312031326,-0.00209095593612574,0.003120,-0.000601,-0.000906,0.145707,-0.035005,327.279414,24.445226,0.999190,0.988979,0.004414,0.307812,0.000003,0.000016,0.000039,0.000049,-0.000030,49.620810,0.000049,
2446,2533,4.10636194966909,-2.43088968699571,-0.00901933939843502,0.003001,-0.000197,-0.001946,0.144792,0.004946,322.542463,23.855795,0.999179,0.987548,0.004525,0.316698,0.000007,-0.000024,-0.000003,0.000007,-0.000024,-4.850405,0.000024,
2191,2878,-1.50788306784403,5.07502823838929,-0.0157527744050867,0.002919,-0.000695,-0.000313,0.135145,-0.025846,317.017850,24.650701,0.999796,0.995431,0.002962,0.280379,-0.000023,0.000002,0.000010,0.000005,-0.000027,70.256682,0.000029,
2251,2818,-0.19390174139178,3.77266664412843,-0.02105170006854,0.002798,-0.000299,-0.004756,0.144232,-0.017398,317.808925,24.525751,0.999614,0.990788,0.004026,0.420492,-0.000013,-0.000010,0.000012,0.000000,-0.000024,49.389958,0.000027,
2116,2188,-3.02458869917882,-9.97766180635014,0.00157944492468687,0.002580,0.000113,-0.004105,0.130526,-0.021472,328.601697,24.311967,0.998715,0.982482,0.005302,0.292373,-0.000008,0.000009,0.000032,0.000034,-0.000033,52.515923,0.000039,
2071,2248,-4.01403697685377,-8.66566349272971,0.00615476464287212,0.002706,-0.000861,0.001492,0.119771,-0.018996,327.881864,24.476397,0.998815,0.985522,0.004751,0.357432,-0.000016,0.000049,0.000036,0.000065,-0.000032,66.192240,0.000065,
2386,2158,2.87167635751523,-10.6386699553091,0.0107214428189195,0.002609,-0.000216,-0.001584,0.125005,-0.020286,328.676688,22.853463,0.999306,0.980239,0.005366,0.270627,-0.000026,-0.000017,0.000002,-0.000017,-0.000027,79.910175,0.000044,
2191,2518,-1.44613646389891,-2.76654341915413,-0.00753217952791374,0.002899,-0.000872,0.001477,0.128299,-0.028474,322.924035,24.123537,0.999363,0.988405,0.004470,0.449050,-0.000020,-0.000014,0.000023,0.000006,-0.000040,48.582080,0.000043,
2206,2908,-1.18699406776091,5.7261463382728,-0.00987361071190662,0.002783,-0.000651,-0.000218,0.128635,-0.017354,316.528293,24.583232,0.999640,0.993424,0.003453,0.413606,-0.000019,-0.000001,0.000013,0.000006,-0.000025,62.200414,0.000027,
2236,3028,-0.555110243468008,8.33335954443523,0.00724656766823273,0.002851,-0.000673,-0.002501,0.139208,-0.032215,314.649074,24.832001,0.999499,0.991440,0.003638,0.371779,-0.000025,-0.000020,0.000001,-0.000020,-0.000026,82.165565,0.000046,
2461,2788,4.38057433392627,3.13060979614654,-0.0254815102838961,0.002672,-0.000499,-0.004479,0.139331,-0.029986,318.279153,24.644512,0.999282,0.986590,0.004398,0.400066,-0.000025,-0.000008,0.000004,-0.000007,-0.000026,77.129300,0.000035,
2161,2623,-2.11756394700951,-0.474831796327152,-0.0252968606209834,0.002900,-0.000583,0.001919,0.127344,-0.005712,321.172811,24.382403,0.999557,0.991529,0.003844,0.346261,-0.000010,-0.000010,0.000016,0.000006,-0.000027,45.602243,0.000028,
2161,2668,-2.12371635451316,0.503393448645419,-0.0123215919581412,0.003119,-0.000358,-0.001731,0.148659,-0.020881,320.573697,24.353636,0.999667,0.993822,0.003345,0.391651,-0.000008,0.000003,0.000015,0.000014,-0.000019,54.609926,0.000020,
2236,2998,-0.550102242146608,7.68218344017623,0.00397729456892648,0.002962,-0.000515,0.000049,0.136100,-0.007761,315.108186,24.764488,0.999443,0.991508,0.003754,0.423230,-0.000025,-0.000003,0.000009,0.000001,-0.000028,69.587665,0.000032,
2266,2923,0.113703108316347,6.05511080840645,-0.00636154800594113,0.002528,-0.001026,0.000765,0.113385,-0.049348,316.164082,24.725646,0.999650,0.992687,0.003683,0.380772,-0.000014,-0.000005,0.000015,0.000007,-0.000025,53.132946,0.000026,
2506,3238,5.27153580087583,12.9123649993721,0.0194919474202493,0.002760,-0.000580,0.000394,0.125160,-0.023386,311.388557,26.482816,0.999547,0.991509,0.003721,0.410689,-0.000018,-0.000037,0.000006,-0.000016,-0.000039,16.997994,0.000057,
2281,2968,0.432016895860862,7.03471096763619,-0.00673916383220785,0.002837,-0.000782,-0.002787,0.139692,-0.026246,315.429685,24.888531,0.999307,0.990363,0.003910,0.353888,-0.000009,0.000002,0.000011,0.000009,-0.000016,57.748158,0.000016,
2296,3118,0.732176511975918,10.290244507398,0.0214090082426992,0.002758,-0.000940,0.000278,0.125753,-0.030609,313.181974,25.188280,0.999496,0.993445,0.003481,0.378277,-0.000007,-0.000006,-0.000001,-0.000005,-0.000007,-55.227468,0.000013,
2101,2323,-3.37195296880287,-7.02554904071184,0.00330891572383507,0.003033,-0.000079,-0.004631,0.152805,-0.021595,326.534452,24.360949,0.999206,0.987231,0.004679,0.351785,-0.000002,-0.000020,0.000014,0.000005,-0.000028,27.877972,0.000029,
2176,2743,-1.81093515637246,2.13723173936015,-0.0157489231920636,0.002966,-0.000829,0.002345,0.128948,-0.012798,319.255673,24.416157,0.999530,0.990792,0.004008,0.393788,-0.000018,-0.000016,0.000005,-0.000012,-0.000022,50.130275,0.000034,
2431,2413,3.80314627722609,-5.05538503238783,-0.00412981795363976,0.002918,-0.000697,0.001076,0.129482,-0.008631,324.489582,23.338530,0.999631,0.987799,0.004539,0.437058,-0.000012,-0.000011,0.000008,-0.000004,-0.000019,46.288211,0.000025,
2236,2818,-0.5200408812189,3.77177728286632,-0.020535040272307,0.002805,-0.000435,-0.002651,0.137474,-0.027965,317.837718,24.512699,0.999579,0.990787,0.003876,0.407176,-0.000010,-0.000008,0.000016,0.000007,-0.000025,46.298721,0.000026,
2371,2128,2.55003531709178,-11.2975384956486,0.014027405948184,0.002686,-0.000235,-0.000739,0.125449,0.001532,329.178480,22.750996,0.999373,0.981744,0.005227,0.388889,-0.000023,-0.000008,0.000014,0.000001,-0.000031,59.287458,0.000036,
2311,3283,1.02621719055725,13.8701212326189,0.00671229207898705,0.002892,-0.001008,0.001521,0.127680,-0.038368,310.341199,25.578730,0.999567,0.994575,0.002923,0.379807,-0.000008,0.000002,0.000003,0.000003,-0.000009,73.328221,0.000010,
2506,3253,5.26832418164237,13.238105122465,0.0146503194962975,0.002976,-0.000866,-0.000469,0.138312,-0.043938,311.114432,26.564478,0.999709,0.993187,0.003417,0.368185,-0.000019,-0.000030,0.000005,-0.000017,-0.000032,21.858414,0.000050,
2221,2953,-0.868403887870169,6.70507023682729,-0.00604696936170512,0.003167,-0.000540,-0.000299,0.146630,-0.021363,315.804470,24.726267,0.999450,0.992071,0.003661,0.350783,-0.000023,0.000002,0.000012,0.000006,-0.000028,68.721536,0.000029,
2221,3013,-0.878181320405947,8.00679913155806,0.00598390158864959,0.003081,-0.000699,0.000062,0.141515,-0.020586,314.921630,24.760517,0.999465,0.991619,0.003672,0.389995,-0.000024,-0.000008,0.000007,-0.000005,-0.000027,69.617665,0.000035,
2086,2143,-3.67135097046523,-10.9643773651105,0.00773823838613907,0.002352,-0.000308,-0.000209,0.108443,-0.004985,329.494428,24.352182,0.999183,0.985024,0.004886,0.416182,-0.000014,-0.000016,0.000035,0.000020,-0.000050,43.952279,0.000050,
2206,2953,-1.1948014128307,6.70401713663038,-0.0121380442309373,0.003036,-0.000552,0.001312,0.135391,-0.030522,315.782710,24.647392,0.999474,0.992456,0.003590,0.384719,-0.000023,0.000002,0.000012,0.000006,-0.000027,68.104474,0.000029,
2176,2698,-1.80426263436778,1.15863807996259,-0.0278710908950757,0.002709,-0.000573,-0.000017,0.124548,-0.004736,319.880312,24.359603,0.999432,0.991470,0.003709,0.421209,-0.000018,-0.000017,0.000005,-0.000013,-0.000023,48.159217,0.000036,
2191,2833,-1.50059600745681,4.09576182328781,-0.0216739421534839,0.002904,-0.000930,-0.000314,0.134332,-0.045449,317.700567,24.494075,0.999292,0.990163,0.003924,0.374703,-0.000018,-0.000005,0.000019,0.000009,-0.000031,54.534637,0.000032,
2206,2593,-1.1331182256765,-1.12896851511661,-0.0121095662266839,0.002804,-0.000950,0.003670,0.116988,-0.001750,321.615865,24.263118,0.999080,0.988433,0.004280,0.396085,-0.000020,-0.000021,0.000011,-0.000009,-0.000032,44.125696,0.000043,
2206,2833,-1.1741800575319,4.09552905992717,-0.0070553568334617,0.002681,-0.001339,0.003374,0.112257,-0.039624,317.756774,24.523985,0.999410,0.990865,0.003795,0.368563,-0.000008,-0.000003,0.000021,0.000016,-0.000027,48.760074,0.000027,
2116,2203,-3.02696340579742,-9.65028532478926,0.00500552125788545,0.002624,-0.000756,0.000089,0.119941,-0.048707,328.379021,24.292818,0.997955,0.978111,0.005764,0.290383,-0.000007,0.000010,0.000031,0.000033,-0.000031,52.703449,0.000037,
2266,2938,0.110789291961584,6.38070148551358,-0.00746445308936927,0.002630,-0.001110,0.004074,0.107149,-0.029517,315.904089,24.687504,0.999508,0.991522,0.003745,0.463908,-0.000012,0.000002,0.000014,0.000011,-0.000020,57.936358,0.000020,
2281,3238,0.385234192201363,12.8910671358427,0.028456401397932,0.002797,-0.000825,-0.001023,0.132028,-0.036919,311.300757,25.357710,0.999813,0.993995,0.003169,0.354509,0.000002,-0.000011,-0.000006,0.000005,-0.000013,-21.040630,0.000013,
2401,2173,3.1967857042335,-10.3119856295856,0.018705864552885,0.002640,-0.000965,0.002602,0.111067,-0.049901,328.502991,22.751049,0.999227,0.981469,0.005212,0.309006,-0.000029,-0.000004,0.000004,-0.000004,-0.000030,80.598438,0.000037,
2236,3073,-0.562953259684456,9.3099609662598,0.0098357619887679,0.002951,-0.000700,-0.000318,0.136765,-0.023615,313.933186,24.887025,0.999634,0.992827,0.003371,0.386104,-0.000026,-0.000012,-0.000001,-0.000012,-0.000026,-85.962854,0.000038,
2356,2008,2.24595373625516,-13.9306227495393,0.0216727541418322,0.002979,0.000047,-0.001332,0.140978,-0.002264,331.183613,22.621527,0.998732,0.975446,0.006331,0.263458,0.000011,-0.000063,0.000042,0.000030,-0.000082,24.243286,0.000083,
2416,2278,3.50318403586386,-8.01058400425284,0.010837276872337,0.002675,-0.001123,0.003337,0.109863,-0.035424,326.758256,23.005262,0.999298,0.984517,0.004851,0.341017,-0.000019,-0.000024,0.000002,-0.000018,-0.000024,19.028510,0.000042,
2176,2533,-1.77577524957573,-2.4380516448482,-0.0181941057844597,0.002714,-0.000681,-0.001328,0.128609,-0.036381,322.639623,24.227018,0.998950,0.987824,0.004435,0.379771,-0.000020,-0.000004,0.000018,0.000008,-0.000032,56.781025,0.000033,
2146,2338,-2.39537930583031,-6.69716197613084,0.000165249917017718,0.002866,-0.000628,0.002091,0.125110,-0.002976,326.046451,24.183204,0.999369,0.986162,0.004638,0.387758,-0.000021,-0.000028,-0.000001,-0.000021,-0.000028,-4.207262,0.000049,
2161,2683,-2.12699339009055,0.830673577812931,-0.0223449904498239,0.003020,-0.000669,-0.001683,0.143831,-0.039092,320.241920,24.357598,0.999432,0.991360,0.003734,0.379891,-0.000012,-0.000001,0.000010,0.000005,-0.000019,58.847869,0.000019,
2506,3268,5.26447015050999,13.5645394490123,0.00781008547232886,0.002829,-0.000944,-0.000047,0.129974,-0.033758,310.801366,26.673049,0.999851,0.995817,0.002772,0.329342,-0.000017,-0.000058,0.000009,-0.000015,-0.000060,11.748938,0.000079,
2326,3118,1.38364023229552,10.2929041120423,0.0201587165661294,0.002760,-0.000725,-0.000260,0.127705,-0.030569,313.148590,25.323557,0.999375,0.992793,0.003567,0.363382,-0.000011,-0.000002,0.000000,-0.000002,-0.000011,87.751857,0.000014,
2161,2383,-2.07678731838577,-5.71258699591013,-0.0132787592125965,0.002943,-0.000604,-0.000588,0.136760,-0.026714,325.164449,24.165247,0.999077,0.987816,0.004447,0.363042,-0.000019,-0.000012,0.000002,-0.000011,-0.000020,76.597225,0.000032,
2446,2548,4.10248671399437,-2.10332579450144,-0.0140201661904484,0.002641,-0.000258,-0.000639,0.123429,0.001249,322.235651,23.871324,0.999557,0.989886,0.004064,0.350705,0.000002,-0.000026,-0.000003,0.000002,-0.000027,-5.992565,0.000029,
2251,3088,-0.239837616006486,9.63654614088545,0.0102487503334032,0.003020,-0.000716,-0.001270,0.143048,-0.027488,313.665897,24.964104,0.999598,0.991299,0.003600,0.381007,-0.000015,-0.000013,-0.000006,-0.000009,-0.000020,-49.620258,0.000030,
2131,2353,-2.72477680486754,-6.36895242607078,-0.00298855180903956,0.002594,-0.000581,0.000333,0.117946,-0.040712,325.831057,24.297447,0.999329,0.985737,0.004677,0.298132,-0.000017,-0.000029,-0.000001,-0.000017,-0.000029,-3.114231,0.000047,
2191,2773,-1.49142597392727,2.79222493802132,-0.0348076785801936,0.002791,-0.000836,0.000648,0.126126,-0.030845,318.557641,24.458584,0.999365,0.989680,0.004098,0.367442,-0.000014,-0.000013,0.000009,-0.000005,-0.000022,47.134364,0.000028,
2461,2803,4.37658490822632,3.4589328266741,-0.0346170659922791,0.002610,-0.000625,-0.002765,0.130003,-0.028547,317.947836,24.778726,0.999334,0.987552,0.004331,0.321721,-0.000021,-0.000008,0.000009,-0.000004,-0.000026,63.988666,0.000032,
2266,3163,0.0733446718104211,11.2637607988275,0.0299845291357883,0.002806,-0.000863,0.000548,0.127122,-0.038316,312.560940,25.180440,0.999384,0.990647,0.003880,0.331229,-0.000003,-0.000007,-0.000006,0.000001,-0.000012,-36.819890,0.000013,
2236,3043,-0.557311224215393,8.6593784524187,0.0111527206577762,0.003040,-0.000402,-0.002374,0.147542,-0.029600,314.444852,24.911262,0.999628,0.991911,0.003554,0.315390,-0.000029,-0.000020,0.000000,-0.000020,-0.000029,89.342612,0.000049,
2071,2263,-4.01603826713643,-8.33728759836083,0.0045106416387739,0.003127,-0.000771,0.001920,0.137899,-0.015311,327.644859,24.484608,0.999133,0.987686,0.004582,0.352094,-0.000015,0.000045,0.000037,0.000063,-0.000032,64.355047,0.000063,
2506,3283,5.26097513484128,13.8892892348718,0.00264567356236967,0.002762,-0.001091,-0.001174,0.131137,-0.055764,310.512831,26.671938,0.999859,0.996087,0.002638,0.367933,-0.000014,-0.000101,0.000006,-0.000013,-0.000101,3.627229,0.000126,
2341,2038,1.91142615562009,-13.2716287292895,0.0124477366892393,0.002591,-0.000396,-0.001660,0.124203,-0.048284,330.605624,22.733226,0.999036,0.980705,0.005506,0.290648,0.000011,-0.000032,0.000029,0.000025,-0.000046,26.516633,0.000046,
2296,3133,0.729309126429136,10.6155249574946,0.0217520821030917,0.002788,-0.001058,0.002518,0.119490,-0.038936,312.933202,25.210931,0.999672,0.994949,0.003195,0.376344,-0.000008,-0.000005,-0.000004,-0.000002,-0.000011,-57.050136,0.000014,
2296,3058,0.742873230689447,8.98860823744874,0.00952526359196781,0.003162,-0.000622,-0.001701,0.151124,-0.027820,314.089060,25.051579,0.999562,0.992741,0.003504,0.402252,-0.000012,-0.000014,0.000005,-0.000008,-0.000018,38.640511,0.000027,
2056,2203,-4.33420565989881,-9.65013551723579,0.00767410070517371,0.002566,-0.001590,0.006396,0.099341,-0.031505,328.678442,24.573998,0.998591,0.981606,0.005457,0.323577,-0.000012,0.000023,0.000039,0.000048,-0.000038,57.048267,0.000050,
2341,2158,1.88833447428167,-10.6396134928169,0.00663443052997081,0.002729,-0.000526,0.003213,0.113611,-0.008934,328.613786,22.905630,0.999241,0.985841,0.004953,0.476251,-0.000018,-0.000007,0.000006,-0.000004,-0.000020,65.037908,0.000026,
2281,3253,0.381316013534072,13.2172643845572,0.013942905004626,0.002822,-0.000801,0.000880,0.126827,-0.030047,310.927456,25.396641,0.999755,0.993255,0.003307,0.348879,0.000004,-0.000003,-0.000002,0.000005,-0.000003,-15.628629,0.000005,
2191,2533,-1.44973974149688,-2.43779091777574,-0.0165426493774703,0.002553,-0.000924,0.002819,0.108204,-0.014242,322.585417,24.185401,0.999341,0.988914,0.004265,0.417480,-0.000018,-0.000007,0.000022,0.000010,-0.000036,51.722818,0.000037,
2176,2758,-1.81403730239357,2.46420407953099,-0.0254501673552454,0.003004,-0.000953,0.001586,0.133014,-0.027631,318.935042,24.417722,0.999354,0.990024,0.004037,0.389877,-0.000015,-0.000017,0.000006,-0.000010,-0.000022,41.128145,0.000032,
2281,2983,0.429018081331222,7.35983898875043,-0.00467570238464532,0.002689,-0.000792,0.001028,0.120057,-0.026261,315.182816,24.862347,0.999326,0.990800,0.003865,0.407165,-0.000008,-0.000002,0.000009,0.000005,-0.000014,54.465008,0.000014,
2116,2413,-3.06061656996629,-5.05794979603897,-0.00808045200517427,0.003047,-0.000596,-0.001966,0.145634,-0.034833,324.912534,24.369857,0.999194,0.986709,0.004734,0.304495,-0.000014,-0.000049,-0.000004,-0.000013,-0.000050,-6.434559,0.000066,
2221,2923,-0.863387713133214,6.05332003585049,-0.00655886559212604,0.002858,-0.000363,-0.001908,0.137600,-0.007930,316.280172,24.675512,0.999549,0.992494,0.003621,0.378289,-0.000019,-0.000003,0.000015,0.000006,-0.000028,59.299013,0.000030,
2386,2173,2.8685282699437,-10.3108907359796,0.00795057609479954,0.002659,-0.000492,-0.000337,0.122727,-0.027365,328.409937,22.778609,0.999486,0.983536,0.005064,0.384554,-0.000031,-0.000005,0.000005,-0.000004,-0.000032,80.392862,0.000039,
2371,2188,2.53854266106852,-9.98166311076133,0.0117501786419894,0.002698,-0.000501,-0.002384,0.131797,-0.025505,328.197915,22.965964,0.999233,0.982381,0.005128,0.322467,-0.000027,-0.000007,0.000000,-0.000007,-0.000027,89.281880,0.000036,
2476,2878,4.68805867785069,5.09143249206694,-0.0265092155211732,0.002438,-0.000978,0.003029,0.100077,-0.023259,316.795826,25.035134,0.998362,0.987113,0.004732,0.365818,-0.000034,0.000003,-0.000001,0.000003,-0.000034,-88.698875,0.000038,
2446,2563,4.09938835568117,-1.77580231191414,-0.0178198227882262,0.002777,-0.000403,-0.001599,0.133206,-0.002271,321.969982,23.898896,0.999666,0.989400,0.004163,0.372823,-0.000004,-0.000024,0.000001,-0.000004,-0.000024,2.618213,0.000031,
2416,2293,3.49993848989584,-7.68124051765849,0.00358401232961114,0.002583,-0.000565,-0.001383,0.123136,-0.039191,326.468134,23.068708,0.998926,0.980754,0.005458,0.323878,-0.000020,-0.000020,0.000010,-0.000010,-0.000029,45.070323,0.000041,
2266,3178,0.0706655440569044,11.5883683106545,0.0307465216972105,0.002849,-0.000965,0.001462,0.126056,-0.041922,312.320993,25.149296,0.999539,0.992005,0.003502,0.383191,-0.000004,-0.000007,-0.000008,0.000002,-0.000014,-39.645782,0.000015,
2461,2818,4.37396085138309,3.78401276696897,-0.0256267593267125,0.002475,-0.001044,-0.000200,0.113976,-0.040963,317.762999,24.772173,0.999197,0.987390,0.004504,0.369951,-0.000029,-0.000015,0.000009,-0.000011,-0.000033,64.452575,0.000046,
2311,3298,1.0228599500137,14.1949239580227,-5.26937524227833E-05,0.002724,-0.000964,0.000123,0.124744,-0.040783,310.035412,25.556006,0.999622,0.994778,0.002901,0.430761,-0.000007,-0.000010,0.000006,-0.000002,-0.000015,36.572371,0.000019,
2266,2953,0.109018656826279,6.70732827400113,-0.00365719589854052,0.003111,-0.000869,0.001663,0.137433,-0.018177,315.721012,24.791649,0.999196,0.987883,0.004305,0.395889,-0.000012,0.000001,0.000015,0.000010,-0.000022,56.949372,0.000022,
2281,3208,0.391492739887472,12.2404281376523,0.0424566301905998,0.002699,-0.000725,0.000993,0.120792,-0.025611,311.898596,25.347327,0.999840,0.995342,0.002804,0.323315,-0.000001,-0.000009,-0.000005,0.000002,-0.000012,-25.040405,0.000013,
2146,2353,-2.39772178383955,-6.36936340584339,-0.00341899856016425,0.002876,-0.000243,-0.002835,0.140544,-0.029451,325.790327,24.183090,0.999418,0.985926,0.004577,0.371015,-0.000023,-0.000033,-0.000004,-0.000022,-0.000035,-17.118093,0.000057,
2251,3103,-0.241665436781577,9.96160185444319,0.0192229798772701,0.003214,-0.000622,-0.001550,0.152905,-0.028223,313.505725,25.004805,0.999600,0.992505,0.003499,0.361605,-0.000017,-0.000016,-0.000004,-0.000012,-0.000021,-48.242385,0.000033,
2161,2398,-2.07861142658443,-5.38648218782995,-0.00663403973788945,0.002867,-0.000448,-0.004677,0.145831,-0.031950,324.987385,24.103827,0.999002,0.986572,0.004636,0.430843,-0.000020,-0.000022,-0.000002,-0.000019,-0.000023,-29.201183,0.000043,
2071,2278,-4.01827774560735,-8.0078475776121,0.000512532068057681,0.003259,-0.000319,-0.000931,0.152225,-0.016311,327.383928,24.576262,0.999855,0.994588,0.003654,0.258456,-0.000014,0.000023,0.000031,0.000040,-0.000031,60.417325,0.000042,
2266,3148,0.075710892093813,10.9378744093262,0.0265427886818657,0.002738,-0.001016,0.000971,0.122501,-0.046680,312.773403,25.093165,0.999324,0.991881,0.003742,0.385943,-0.000005,-0.000008,-0.000007,0.000000,-0.000014,-37.742781,0.000016,
2326,3133,1.38047475888433,10.6180573656598,0.0181840775414344,0.002611,-0.001036,0.000558,0.117791,-0.059995,312.876877,25.341886,0.999178,0.991959,0.003686,0.348853,-0.000014,0.000001,-0.000002,0.000001,-0.000015,-82.203406,0.000016,
2221,2683,-0.823377649952885,0.83305630746014,-0.0250005606338277,0.002575,-0.000811,0.001595,0.113023,-0.025718,320.005416,24.318421,0.999572,0.992362,0.003623,0.416609,-0.000017,0.000007,0.000006,0.000008,-0.000018,76.471740,0.000018,
2236,2833,-0.522861669999049,4.09818319446796,-0.0181811181913645,0.002705,-0.001182,0.000763,0.121584,-0.037240,317.597344,24.574555,0.999584,0.991726,0.003593,0.356783,-0.000009,-0.000005,0.000020,0.000013,-0.000028,47.540383,0.000028,
2311,1993,1.26529070097765,-14.259987798708,0.0296463114116818,0.002528,-0.000521,-0.000016,0.115567,-0.032708,331.472235,22.911708,0.999258,0.980032,0.005922,0.218852,-0.000007,-0.000088,-0.000002,-0.000007,-0.000088,-1.250552,0.000106,
2251,3058,-0.233159990313268,8.98395943073951,0.0275906292923196,0.003106,-0.000790,-0.001008,0.146073,-0.031114,314.305011,24.896839,0.999572,0.993197,0.003383,0.399739,-0.000015,-0.000013,-0.000001,-0.000013,-0.000016,-70.950768,0.000029,
2401,2188,3.19437824034035,-9.98259243147056,0.0178699251595162,0.002848,-0.000406,-0.002112,0.137832,-0.027378,328.280269,22.819378,0.999222,0.983106,0.005137,0.311399,-0.000027,-0.000003,0.000001,-0.000003,-0.000027,88.052139,0.000033,
2281,3268,0.378146300164374,13.5422268368264,0.00753439522065946,0.002874,-0.000758,0.001041,0.128659,-0.035601,310.629627,25.384417,0.999764,0.993640,0.003264,0.381767,0.000008,0.000012,-0.000004,0.000014,0.000005,-59.551010,0.000020,
2506,3298,5.25819376848109,14.214358281571,0.00765284842174196,0.002723,-0.001031,-0.000243,0.125747,-0.048677,310.302710,26.730226,0.999785,0.994062,0.003085,0.376238,-0.000032,-0.000114,-0.000019,-0.000028,-0.000119,-12.596864,0.000156,
2176,2548,-1.77883922289931,-2.11118514534255,-0.0202193298646876,0.002466,-0.001388,0.001067,0.109556,-0.058734,322.361251,24.220379,0.999173,0.988226,0.004315,0.377484,-0.000014,0.000005,0.000020,0.000018,-0.000027,57.751634,0.000027,
2371,2308,2.51516314958718,-7.3534668368705,0.00850651463923668,0.002746,-0.000522,0.001083,0.121774,-0.009109,326.222243,23.270385,0.999862,0.995618,0.003022,0.381948,-0.000021,-0.000033,0.000011,-0.000014,-0.000040,30.976118,0.000056,
2236,3088,-0.565313920599692,9.63564409291853,0.0124974342836595,0.002922,-0.000704,-0.002308,0.141828,-0.038617,313.715321,24.956117,0.999541,0.992634,0.003431,0.322080,-0.000027,-0.000016,-0.000003,-0.000015,-0.000028,-72.991894,0.000044,
2341,2053,1.90992716918204,-12.9442684742788,0.0326892930657436,0.002622,-0.000773,0.001968,0.112879,-0.023192,330.521612,22.799465,0.999235,0.981335,0.005253,0.288834,0.000007,-0.000020,0.000027,0.000024,-0.000036,31.806272,0.000037,
2476,2893,4.68558830480853,5.41770940973579,-0.0229789779596672,0.002773,-0.001101,0.003631,0.113078,-0.040583,316.593420,25.122019,0.998434,0.987444,0.004631,0.317800,-0.000033,-0.000006,-0.000003,-0.000005,-0.000034,-82.996832,0.000043,
2116,2218,-3.02935247456574,-9.32162884643564,0.00461574050893887,0.002552,-0.000542,-0.001195,0.120463,-0.034670,328.134835,24.314431,0.998284,0.980318,0.005568,0.288805,-0.000004,0.000016,0.000030,0.000037,-0.000026,54.204270,0.000038,
2311,3043,1.07111633148926,8.66420096778262,0.0122172938450262,0.002743,-0.000999,0.000169,0.125309,-0.040454,314.316647,25.117248,0.999590,0.991919,0.003588,0.343713,-0.000018,-0.000015,0.000003,-0.000014,-0.000020,56.183524,0.000033,
2281,3223,0.388745014480829,12.5648648981112,0.0422663181379903,0.002672,-0.000715,0.000564,0.120997,-0.020238,311.651706,25.296668,0.999823,0.995042,0.002954,0.405863,0.000001,-0.000005,-0.000005,0.000004,-0.000008,-32.059321,0.000008,
2221,3028,-0.881100371413982,8.33220301622429,0.00224219957414107,0.002937,-0.001017,-0.001627,0.140181,-0.038850,314.644387,24.749358,0.999662,0.993978,0.003200,0.401084,-0.000025,-0.000016,0.000001,-0.000015,-0.000025,82.035172,0.000041,
2101,2338,-3.37448479635859,-6.69796976858039,-0.00202253259857343,0.003256,-0.000582,-0.003728,0.160259,-0.048354,326.256242,24.317542,0.999331,0.988842,0.004363,0.371833,-0.000008,-0.000015,0.000012,0.000001,-0.000024,37.330344,0.000027,
2401,2458,3.13981664096172,-4.07171844888887,-0.00766735421080966,0.003141,-0.000467,0.001036,0.140111,-0.007578,323.700065,23.580500,0.999549,0.987467,0.004532,0.426138,-0.000006,-0.000023,0.000027,0.000014,-0.000043,36.472351,0.000044,
2086,2293,-3.69536274554588,-7.6810749131231,-0.00245977655760043,0.002298,-0.001220,0.002094,0.099105,-0.053070,326.988928,24.413985,0.999650,0.992009,0.003944,0.322348,0.000004,0.000001,0.000032,0.000035,-0.000030,43.502002,0.000038,
2326,1993,1.59294699314474,-14.2600073817863,0.0265038078543967,0.002578,-0.000383,-0.000482,0.119493,-0.027876,331.443560,22.802453,0.998300,0.973524,0.006375,0.226918,0.000009,-0.000080,0.000018,0.000013,-0.000084,11.277230,0.000090,
2356,2023,2.24313973508793,-13.6027596673298,0.0226158649770696,0.002835,-0.000091,-0.002315,0.137810,-0.027795,330.947840,22.557612,0.998801,0.974551,0.006486,0.344275,0.000010,-0.000035,0.000040,0.000033,-0.000059,30.192991,0.000059,
2431,2428,3.79994188446421,-4.72612682197976,-0.00692130836000615,0.002798,-0.000738,-0.000512,0.129792,-0.047575,324.222936,23.522894,0.999380,0.986620,0.004748,0.264978,-0.000011,-0.000014,0.000009,-0.000003,-0.000022,39.458842,0.000027,
2206,2848,-1.1771807893112,4.42270393265255,-0.0158531236629074,0.002814,-0.000913,0.002377,0.121724,-0.016761,317.448104,24.543822,0.999380,0.991385,0.003670,0.388256,-0.000013,-0.000004,0.000019,0.000011,-0.000028,52.133291,0.000028,
2341,2173,1.88543466774012,-10.3099802829012,0.00784241903863858,0.002597,-0.000746,0.003810,0.105415,-0.016486,328.373298,23.042482,0.999150,0.983616,0.005099,0.371174,-0.000018,0.000000,0.000009,0.000004,-0.000022,66.421677,0.000023,
2311,2008,1.26284212472727,-13.9309323739355,0.028684791082469,0.002810,-0.000526,-0.001074,0.132043,-0.027636,331.239782,22.897595,0.999261,0.981035,0.005813,0.273994,-0.000005,-0.000056,0.000017,0.000000,-0.000061,16.947678,0.000070,
2131,2368,-2.72715761700653,-6.0411013075702,-0.00759162680776626,0.002697,-0.000204,-0.003196,0.133387,-0.018398,325.566175,24.248875,0.999171,0.986039,0.004638,0.376402,-0.000016,-0.000021,-0.000001,-0.000016,-0.000021,-8.389159,0.000037,
2326,3148,1.37832509409055,10.9433963439338,0.0227984212805268,0.002924,-0.001000,0.000623,0.132059,-0.049029,312.684092,25.381098,0.999456,0.993035,0.003553,0.353880,-0.000013,0.000000,-0.000002,0.000001,-0.000013,-83.356695,0.000014,
2281,2998,0.426507547607571,7.68560976833181,0.00465691393225143,0.002602,-0.001139,0.006197,0.098634,-0.027214,314.994523,24.949302,0.999231,0.990354,0.003941,0.345950,-0.000008,-0.000005,0.000007,0.000000,-0.000014,51.516106,0.000016,
2356,2233,2.20212744006716,-8.99490155673011,0.00530876696240057,0.002834,-0.000259,-0.002266,0.137698,-0.020397,327.417539,23.159714,0.997950,0.975663,0.006266,0.335926,-0.000027,-0.000016,0.000007,-0.000013,-0.000030,64.726211,0.000044,
2386,2263,2.84958010390396,-8.33615957408345,-0.0131150568597604,0.002579,-0.000486,-0.002309,0.126185,-0.027845,326.783203,23.096985,0.999144,0.983205,0.005128,0.341302,-0.000020,-0.000034,0.000000,-0.000020,-0.000034,0.067411,0.000055,
2236,2848,-0.525895510494411,4.42498977456222,-0.0278345127575221,0.002862,-0.000857,-0.001139,0.135112,-0.034595,317.285775,24.575625,0.999468,0.991829,0.003604,0.379610,-0.000010,-0.000005,0.000019,0.000011,-0.000026,49.123294,0.000027,
2281,3283,0.375138615442872,13.867259662923,0.00132578488626223,0.002925,-0.000886,-0.000853,0.137296,-0.048681,310.340180,25.391856,0.999462,0.992695,0.003387,0.387513,0.000011,0.000011,-0.000006,0.000017,0.000005,-45.610796,0.000023,
2341,2068,1.90631240797987,-12.6159852680465,0.0302416235657574,0.002135,-0.000927,0.003918,0.083766,-0.026077,330.231247,22.729050,0.999123,0.977473,0.005633,0.396558,0.000003,-0.000008,0.000028,0.000026,-0.000031,39.619737,0.000033,
2476,2908,4.68338332299662,5.74370653084901,-0.0223591833209298,0.003076,-0.000845,-0.002207,0.149326,-0.048964,316.389985,25.156971,0.998874,0.985844,0.004658,0.330780,-0.000034,-0.000015,0.000003,-0.000015,-0.000034,82.284152,0.000050,
2116,2428,-3.0635753054257,-4.731314494351,-0.00355780580264309,0.002455,-0.000837,0.002177,0.106101,-0.025545,324.669049,24.330467,0.999300,0.987776,0.004510,0.358225,-0.000012,-0.000045,0.000005,-0.000011,-0.000046,8.554866,0.000060,
2161,2413,-2.08183414592769,-5.05804681321435,-0.00565693636747255,0.002570,-0.001104,0.002904,0.108819,-0.021023,324.715953,24.189919,0.998918,0.986503,0.004753,0.367394,-0.000019,-0.000035,-0.000007,-0.000017,-0.000038,-21.383852,0.000055,
2371,2143,2.54731360650854,-10.9681696155852,0.0148645871630038,0.002779,-0.000449,-0.000593,0.129119,-0.003914,328.947014,22.846909,0.999188,0.980146,0.005426,0.331521,-0.000022,-0.000017,0.000009,-0.000010,-0.000029,54.035154,0.000040,
2401,2338,3.16344001848821,-6.69576156013735,-0.000139050704831334,0.002214,0.000382,-0.006339,0.124509,-0.011584,325.691288,23.263675,0.998936,0.982271,0.005015,0.361707,-0.000015,-0.000017,0.000017,0.000001,-0.000032,43.236597,0.000037,
2356,2113,2.2247570519764,-11.6255443650671,0.0162045737957328,0.002321,-0.000766,0.002399,0.097518,-0.016055,329.403829,22.905583,0.999386,0.981257,0.005254,0.261351,-0.000015,-0.000002,0.000021,0.000013,-0.000030,54.072413,0.000031,
2371,2323,2.51144029547499,-7.02615433008712,0.0105948123386383,0.002077,-0.001399,0.005634,0.074649,-0.046364,325.950550,23.285256,0.999588,0.992032,0.003820,0.372826,-0.000021,-0.000034,0.000017,-0.000009,-0.000046,34.076684,0.000059,
2266,3193,0.0678412196924576,11.9143105659733,0.0282693855996285,0.002884,-0.000778,0.000964,0.129408,-0.029025,312.057513,25.209483,0.999598,0.991972,0.003442,0.360300,-0.000005,-0.000006,-0.000008,0.000002,-0.000013,-43.825866,0.000014,
2206,2608,-1.13592291960192,-0.801519876807248,-0.020212795396958,0.002988,-0.000750,0.001557,0.132185,-0.016780,321.320267,24.269868,0.999004,0.986158,0.004621,0.391945,-0.000018,-0.000022,0.000015,-0.000005,-0.000036,40.982623,0.000044,
2116,2233,-3.03128770351782,-8.99279238956741,0.00463150603172835,0.002949,-0.000132,-0.001851,0.140773,-0.008159,327.913468,24.349433,0.998540,0.981294,0.005481,0.286087,-0.000008,0.000019,0.000023,0.000032,-0.000022,59.912775,0.000033,
2296,3148,0.726462497734335,10.9411322746718,0.0255948357418561,0.002376,-0.000873,0.001959,0.102505,-0.022372,312.702625,25.264001,0.999645,0.993559,0.003428,0.368500,-0.000005,-0.000007,-0.000004,-0.000002,-0.000010,-37.146088,0.000013,
2431,2488,3.78733826231855,-3.41613371355837,-0.00831403603962144,0.002496,-0.001288,0.003116,0.102422,-0.051465,323.211214,23.606355,0.999027,0.983000,0.004975,0.383037,-0.000004,-0.000032,-0.000003,-0.000004,-0.000032,-5.992737,0.000040,
2401,2203,3.19152916333207,-9.65447426918492,0.0174399429261598,0.002951,-0.000346,-0.002067,0.142414,-0.031569,328.039420,22.807673,0.999095,0.982206,0.005317,0.366950,-0.000027,0.000002,-0.000002,0.000002,-0.000027,-86.581612,0.000030,
2401,2473,3.1370737737848,-3.74421297235298,-0.00370507748931459,0.002830,-0.000438,-0.001171,0.133827,-0.023930,323.483710,23.659271,0.999411,0.988019,0.004460,0.377470,-0.000009,-0.000031,0.000024,0.000007,-0.000046,32.754883,0.000050,
2251,3073,-0.236979946762478,9.31056326347722,0.0164478959583789,0.002941,-0.000745,0.001412,0.130647,-0.011672,313.950700,24.923054,0.999554,0.992218,0.003530,0.415383,-0.000014,-0.000007,-0.000002,-0.000007,-0.000015,-77.111395,0.000022,
2311,2023,1.25981709683439,-13.601736904598,0.0271248238094017,0.002595,-0.000072,-0.001629,0.124256,-0.003861,330.977874,22.876586,0.999163,0.982303,0.005428,0.354786,-0.000010,-0.000035,0.000019,0.000001,-0.000045,28.049125,0.000052,
2356,2038,2.24058427582398,-13.2729287313603,0.0202789099773781,0.003060,0.000024,-0.005370,0.158861,-0.047141,330.707927,22.635353,0.999008,0.978279,0.005804,0.289222,0.000007,-0.000035,0.000036,0.000028,-0.000056,30.172421,0.000056,
2416,2308,3.49796934778159,-7.3535989181896,0.00935818201458005,0.002969,-0.000229,-0.002957,0.146678,-0.015328,326.297329,23.084998,0.999277,0.985509,0.004666,0.381119,-0.000018,-0.000024,0.000007,-0.000014,-0.000028,32.636211,0.000043,
2326,2083,1.57553477134635,-12.2821262879572,0.0101186817885264,0.002901,-0.000446,-0.002413,0.140904,-0.023925,329.879921,23.038328,0.999454,0.983959,0.005220,0.222953,-0.000008,0.000001,0.000025,0.000022,-0.000029,49.618539,0.000030,
2281,3298,0.371829148717559,14.1932004960284,-0.00458436267331308,0.002819,-0.001001,-0.000506,0.131257,-0.045910,310.037947,25.473478,0.999570,0.994004,0.003205,0.334620,0.000020,-0.000004,-0.000007,0.000022,-0.000006,-15.560738,0.000023,
2251,3118,-0.24467383892787,10.2869562282823,0.0227020964513258,0.002738,-0.000693,-0.000208,0.126639,-0.015467,313.263250,25.028269,0.999542,0.991699,0.003705,0.373130,-0.000017,-0.000011,-0.000004,-0.000009,-0.000019,-64.959025,0.000029,
2386,2188,2.86590208086139,-9.981231294332,0.00945402011944907,0.002721,-0.000570,-0.001546,0.129883,-0.008516,328.186920,22.900246,0.999163,0.982212,0.005222,0.327577,-0.000029,-0.000004,0.000000,-0.000004,-0.000029,89.214331,0.000036,
2461,2833,4.37057942032149,4.11270613358298,-0.0356356935068334,0.002739,-0.000362,-0.002753,0.136080,-0.002895,317.455318,24.907297,0.999522,0.990565,0.003832,0.327385,-0.000027,-0.000002,0.000008,0.000000,-0.000030,73.381696,0.000034,
2176,2563,-1.78095301822808,-1.78287315767505,-0.0234257393296389,0.002909,-0.000525,-0.001571,0.138405,-0.027734,322.119695,24.287470,0.999053,0.987297,0.004452,0.354613,-0.000011,0.000003,0.000016,0.000014,-0.000021,56.505043,0.000022,
2236,3058,-0.559222928273908,8.98369547215082,0.0175424698405209,0.003214,-0.000640,-0.004019,0.160816,-0.043736,314.267174,24.870120,0.999642,0.993185,0.003317,0.362714,-0.000026,-0.000018,0.000000,-0.000018,-0.000026,-89.430733,0.000044,
2146,2368,-2.400202826675,-6.04150064449033,-0.0034017875692598,0.002998,-0.000553,-0.000447,0.138844,-0.025463,325.546758,24.198985,0.999172,0.986954,0.004492,0.368926,-0.000020,-0.000022,-0.000004,-0.000017,-0.000025,-36.974820,0.000042,
2191,2548,-1.45208099114706,-2.11136087876228,-0.0128781329921139,0.002504,-0.001216,0.002857,0.105707,-0.036834,322.371065,24.189511,0.999508,0.990160,0.004056,0.406219,-0.000012,0.000001,0.000024,0.000019,-0.000030,52.646971,0.000030,
2416,2413,3.47616177722849,-5.05495994530365,-0.00308053925186869,0.002953,-0.000824,-0.001196,0.139390,-0.027362,324.485328,23.467703,0.999700,0.988351,0.004321,0.333639,-0.000014,-0.000008,0.000017,0.000007,-0.000028,49.378871,0.000030,
2101,2353,-3.37801758464778,-6.36837901647117,-0.0139569599392644,0.002941,-0.000372,-0.002315,0.141734,-0.027834,325.896015,24.352313,0.999038,0.984841,0.004919,0.361014,-0.000008,-0.000023,0.000010,-0.000003,-0.000028,26.317675,0.000035,
2311,3058,1.06835926260464,8.98929734891453,0.0137698342128374,0.002681,-0.001044,0.000633,0.120849,-0.043481,314.080231,25.106618,0.999682,0.993485,0.003317,0.382615,-0.000018,-0.000015,0.000005,-0.000011,-0.000022,54.402789,0.000033,
2221,2968,-0.871367795008698,7.03048761993378,-0.00208043093169863,0.002617,-0.000693,0.000636,0.118206,-0.029916,315.564865,24.743332,0.999313,0.990269,0.003965,0.343267,-0.000021,0.000005,0.000014,0.000011,-0.000027,66.025335,0.000027,
2326,2008,1.5909004002975,-13.9308361697877,0.0295503802257144,0.002889,0.000003,-0.002878,0.142067,-0.010662,331.250254,22.832675,0.998472,0.973999,0.006410,0.251778,0.000011,-0.000047,0.000036,0.000028,-0.000064,25.320981,0.000064,
2236,2863,-0.528053381093091,4.75118537579529,-0.0208154297558849,0.002881,-0.000505,-0.000711,0.134720,-0.014976,317.099584,24.632678,0.999360,0.991521,0.003619,0.362709,-0.000015,-0.000005,0.000014,0.000005,-0.000024,54.929072,0.000026,
2371,2203,2.53575041498697,-9.65299630014299,0.0108725258310756,0.002942,-0.000490,-0.001012,0.138128,-0.025331,327.954866,22.995430,0.998901,0.980461,0.005484,0.336808,-0.000027,-0.000001,-0.000001,0.000000,-0.000027,-87.696556,0.000031,
2341,2083,1.90357263443235,-12.2842207605434,0.0231164145654361,0.002543,-0.000658,0.001060,0.112454,-0.014956,329.957864,22.916169,0.999357,0.981567,0.005274,0.260622,0.000001,0.000000,0.000025,0.000025,-0.000025,44.463393,0.000029,
2356,2248,2.1989257925701,-8.66600270457626,0.00577631167175241,0.002801,-0.000265,0.002519,0.119402,-0.011570,327.160640,23.231847,0.998889,0.981880,0.005397,0.313811,-0.000027,-0.000033,0.000001,-0.000027,-0.000033,7.567617,0.000061,
2326,3163,1.37588239015251,11.2686768861956,0.0250689947355909,0.003029,-0.001054,-0.000538,0.141005,-0.036102,312.466306,25.402168,0.999603,0.994048,0.003393,0.378914,-0.000010,-0.000001,0.000000,-0.000001,-0.000010,-87.212595,0.000012,
2446,2578,4.09530292482273,-1.44699943496084,-0.0326863578491725,0.002954,-0.000586,-0.001117,0.139436,-0.014673,321.607719,23.961458,0.999691,0.991966,0.003836,0.351386,-0.000002,-0.000010,0.000002,-0.000001,-0.000011,15.145295,0.000013,
2086,2308,-3.6977819428988,-7.35245005530223,-0.00918119050055566,0.002429,-0.000595,-0.001044,0.114400,-0.046206,326.706526,24.407887,0.999423,0.989368,0.004416,0.336542,0.000008,-0.000013,0.000022,0.000022,-0.000027,32.661796,0.000029,
2326,2098,1.57305592437213,-11.956189802109,0.0153454686375198,0.002896,-0.000528,-0.000789,0.135139,-0.041804,329.677711,22.865337,0.999408,0.982849,0.005229,0.415278,-0.000011,-0.000004,0.000021,0.000014,-0.000029,50.178881,0.000029,
2431,2608,3.76337072248969,-0.79470325672542,-0.0207458493390504,0.003069,-0.000545,-0.000206,0.141350,-0.027819,321.196106,24.025789,0.999440,0.988453,0.004264,0.395088,-0.000011,-0.000013,-0.000002,-0.000010,-0.000014,-29.453412,0.000024,
2281,3013,0.423265395863258,8.01138727082905,0.000715621049778292,0.002292,-0.001265,0.005051,0.088142,-0.038751,314.706171,24.961301,0.999234,0.989818,0.003950,0.349414,-0.000010,-0.000013,0.000005,-0.000007,-0.000016,34.130135,0.000024,
2431,2503,3.7847979275682,-3.08915899945956,-0.00489472040118244,0.002487,-0.001111,0.001106,0.109475,-0.076231,323.003776,23.649469,0.999279,0.986627,0.004517,0.366090,0.000000,-0.000028,-0.000003,0.000000,-0.000029,-6.219483,0.000033,
2386,2278,2.84772493836713,-8.00915863097728,0.00659933189911044,0.002360,-0.000950,0.001436,0.102570,-0.043889,326.681825,23.227173,0.999655,0.991498,0.003802,0.239852,-0.000019,-0.000030,0.000003,-0.000018,-0.000031,14.515308,0.000049,
2386,2203,2.8626237745402,-9.65150148876089,0.00358576760788765,0.002888,-0.000303,-0.000405,0.133593,-0.018831,327.899225,22.985441,0.998710,0.979826,0.005557,0.278212,-0.000028,0.000002,-0.000002,0.000002,-0.000028,-86.766764,0.000031,
2116,2248,-3.03434888475366,-8.66557551138302,0.00403962031106175,0.002414,-0.000681,-0.000045,0.110739,-0.039077,327.637965,24.293040,0.998736,0.983420,0.005224,0.317705,-0.000007,0.000018,0.000028,0.000036,-0.000025,56.724128,0.000037,
2251,3133,-0.247131474858659,10.6119800379869,0.0257989790235911,0.002951,-0.000879,0.002672,0.126995,-0.006045,313.044250,25.025606,0.999369,0.991966,0.003717,0.407427,-0.000018,-0.000010,-0.000005,-0.000008,-0.000021,-64.977113,0.000030,
2266,3208,0.0649068490797156,12.2400045081469,0.0250397807852778,0.002773,-0.000849,-0.000793,0.130131,-0.030344,311.785224,25.260788,0.999736,0.994607,0.003065,0.331769,-0.000005,-0.000010,-0.000007,0.000000,-0.000015,-35.390760,0.000017,
2356,2128,2.22226744424782,-11.2973294904815,0.0159357835860874,0.002559,-0.000593,0.000877,0.113851,-0.025152,329.176616,22.882169,0.999313,0.982704,0.005120,0.317476,-0.000015,0.000004,0.000016,0.000013,-0.000025,60.372991,0.000025,
2341,2188,1.88292401489888,-9.98034599809671,0.00567050610209208,0.002565,-0.000422,-0.002732,0.126805,-0.048347,328.134363,23.173158,0.999250,0.986424,0.004790,0.247868,-0.000021,0.000002,0.000005,0.000003,-0.000022,77.573863,0.000024,
2296,1993,0.937298635182295,-14.2596626133697,0.0298057443151833,0.002499,-0.000563,0.002841,0.104638,-0.014742,331.473296,22.992097,0.999287,0.966288,0.007037,0.262824,-0.000027,-0.000103,-0.000009,-0.000026,-0.000104,-6.999134,0.000137,
2371,2158,2.54501840452599,-10.6394117380813,0.018070294507595,0.003073,-0.000426,-0.000903,0.143709,-0.017476,328.746414,22.925620,0.999410,0.982844,0.005256,0.282996,-0.000026,-0.000019,0.000002,-0.000019,-0.000026,77.416139,0.000046,
2356,2053,2.23829403602095,-12.9451365543554,0.0357140503384699,0.002648,-0.000271,-0.002255,0.128962,-0.017101,330.565205,22.682138,0.999165,0.979951,0.005380,0.314400,0.000004,-0.000023,0.000034,0.000027,-0.000047,34.212039,0.000047,
2116,2443,-3.06605762850314,-4.40525721829266,-0.00626975370857963,0.002561,-0.001019,0.002573,0.109763,-0.030506,324.408782,24.188926,0.999371,0.988639,0.004444,0.499522,-0.000013,-0.000042,0.000005,-0.000013,-0.000043,10.206515,0.000058,
2176,2578,-1.78372178481274,-1.45679187678608,-0.0223648634823235,0.002682,-0.000805,-0.000091,0.123290,-0.044259,321.871117,24.240122,0.999163,0.988549,0.004228,0.398297,-0.000014,-0.000003,0.000014,0.000007,-0.000024,55.966452,0.000025,
2251,2833,-0.19658709971085,4.09907731935566,-0.0194705965100752,0.002888,-0.000753,-0.001700,0.138182,-0.032026,317.571909,24.587820,0.999514,0.991305,0.003790,0.366710,-0.000013,-0.000006,0.000016,0.000006,-0.000026,51.194603,0.000027,
2416,2323,3.49449942040643,-7.02517745776528,0.0109261459634808,0.002542,-0.000619,-0.000260,0.117149,-0.015267,326.038009,23.159268,0.999088,0.983331,0.004941,0.356693,-0.000017,-0.000024,0.000013,-0.000007,-0.000033,37.560260,0.000043,
2101,2368,-3.37959804174829,-6.04218543255146,-0.00201729402448336,0.003025,-0.000350,-0.001166,0.142274,-0.015087,325.754559,24.322287,0.998917,0.983261,0.005204,0.406592,-0.000005,-0.000018,0.000009,0.000000,-0.000023,27.156831,0.000026,
2266,2968,0.106241301779075,7.0334904632113,-0.00563003468198531,0.003060,-0.000768,0.000037,0.140539,-0.010606,315.462684,24.820637,0.999409,0.991161,0.003813,0.399493,-0.000012,0.000004,0.000016,0.000014,-0.000022,57.608242,0.000022,
2401,2488,3.13393069402274,-3.41661095958096,-0.00293736676911749,0.002832,-0.001183,0.002376,0.120802,-0.047991,323.233904,23.729736,0.999406,0.988876,0.004280,0.329748,-0.000002,-0.000025,0.000016,0.000006,-0.000033,27.061844,0.000035,
2236,3103,-0.56787144623954,9.96030569979098,0.0124174643527795,0.003095,-0.000694,-0.001364,0.146716,-0.041671,313.474711,24.905598,0.999528,0.993122,0.003405,0.389629,-0.000029,-0.000019,-0.000002,-0.000018,-0.000029,-79.791477,0.000048,
2221,2983,-0.873726574703884,7.3559297710594,0.000991980949493154,0.002692,-0.000819,0.000961,0.120618,-0.032035,315.348426,24.753635,0.999395,0.991520,0.003764,0.349114,-0.000021,0.000002,0.000011,0.000006,-0.000026,67.707323,0.000027,
2311,2038,1.25700753293887,-13.2712326520948,0.0255559752270074,0.002425,0.000347,-0.004676,0.127026,-0.010176,330.725775,23.010494,0.999588,0.987403,0.004470,0.250373,-0.000013,-0.000032,0.000020,0.000000,-0.000044,31.744207,0.000052,
2296,3163,0.724709117258769,11.2662106193498,0.0351437839124742,0.002693,-0.000837,0.002185,0.116429,-0.008162,312.550880,25.308118,0.999716,0.993379,0.003328,0.367410,-0.000004,-0.000009,-0.000004,-0.000002,-0.000011,-29.032671,0.000013,
2356,2263,2.19588122513073,-8.33813744072622,0.00564837031828347,0.002363,-0.000291,-0.000535,0.110013,-0.026067,326.908268,23.231845,0.999328,0.985231,0.004882,0.340589,-0.000029,-0.000045,-0.000007,-0.000026,-0.000048,-20.618878,0.000075,
2296,2008,0.934675171330984,-13.9304659978031,0.0276834605780891,0.002523,-0.000683,-0.000142,0.115685,-0.020255,331.225818,22.988048,0.999134,0.978850,0.005713,0.295066,-0.000025,-0.000068,0.000010,-0.000023,-0.000070,12.317830,0.000097,
2371,2338,2.50882179270367,-6.6963184796469,-0.000271261781222165,0.002577,-0.000422,-0.002011,0.125084,-0.034866,325.667088,23.359217,0.999106,0.985785,0.004769,0.353594,-0.000019,-0.000027,0.000017,-0.000006,-0.000040,38.111396,0.000050,
2416,2428,3.47292228805334,-4.7267122179158,-0.008082317418598,0.003023,-0.000944,-0.001713,0.144429,-0.063810,324.205578,23.535917,0.999531,0.987288,0.004507,0.278027,-0.000013,-0.000014,0.000017,0.000004,-0.000030,44.231336,0.000033,
2341,2098,1.9002990113339,-11.9551099928631,0.0179900728736015,0.002555,-0.000823,0.002289,0.108686,-0.024901,329.670011,22.910762,0.999426,0.982966,0.005103,0.296112,-0.000005,-0.000004,0.000020,0.000016,-0.000025,45.321528,0.000025,
2431,2623,3.75960903157661,-0.467404584839741,-0.0227124558899732,0.002506,-0.000946,0.000562,0.112512,-0.036512,320.906876,24.073965,0.999467,0.989449,0.004081,0.388767,-0.000010,-0.000009,-0.000005,-0.000005,-0.000014,-47.304930,0.000020,
2206,2623,-1.13846228150521,-0.474486949588069,-0.0199636237606455,0.002878,-0.000369,-0.000274,0.133058,-0.015341,321.079955,24.299050,0.999275,0.985671,0.004712,0.381478,-0.000018,-0.000018,0.000014,-0.000004,-0.000032,45.841699,0.000039,
2146,2383,-2.40250543741237,-5.71440068252636,0.000622843809594542,0.002891,-0.000679,-0.000157,0.133057,-0.030261,325.332739,24.197482,0.998952,0.986510,0.004553,0.374871,-0.000020,-0.000020,-0.000001,-0.000019,-0.000021,-50.988493,0.000040,
2401,2218,3.18852559498659,-9.32394284770045,0.0143733666752723,0.003058,-0.000199,-0.002912,0.150471,-0.020280,327.778702,22.978922,0.999163,0.983380,0.005356,0.255331,-0.000027,-0.000005,0.000004,-0.000005,-0.000027,80.660869,0.000034,
2371,2173,2.54172803471695,-10.3127148521446,0.0164925536441274,0.002764,-0.000874,-0.000743,0.128831,-0.047977,328.477704,22.787341,0.999361,0.982916,0.005156,0.434613,-0.000029,-0.000008,0.000004,-0.000007,-0.000030,78.909988,0.000039,
2401,2353,3.16019359506751,-6.36710233336441,-0.00370595878280255,0.002479,-0.000322,-0.002544,0.122674,-0.021877,325.416760,23.330248,0.998762,0.982245,0.005135,0.332222,-0.000010,-0.000016,0.000020,0.000008,-0.000034,40.315850,0.000035,
2341,2203,1.88017067809404,-9.65204884908361,0.00607862872988107,0.002596,-0.000202,-0.002525,0.127600,-0.025224,327.896626,23.159489,0.999117,0.983770,0.005159,0.323985,-0.000025,0.000009,0.000002,0.000009,-0.000025,86.226344,0.000025,
2191,2563,-1.45401193161969,-1.78465331239316,-0.00947214836293142,0.002684,-0.000679,0.000010,0.123085,-0.025897,322.173988,24.187512,0.999405,0.990066,0.004005,0.434277,-0.000007,-0.000001,0.000019,0.000015,-0.000024,49.727049,0.000024,
2116,2458,-3.06794770611706,-4.07580513903248,-0.0111809008103023,0.003180,-0.000710,-0.000775,0.148241,-0.016477,324.162948,24.323766,0.999393,0.988693,0.004349,0.383649,-0.000010,-0.000041,0.000004,-0.000009,-0.000042,7.205481,0.000054,
2386,2218,2.86040146318497,-9.32375792001158,0.0122621618609742,0.002819,-0.000337,-0.001093,0.132856,-0.018662,327.728831,23.035980,0.998891,0.980870,0.005622,0.273396,-0.000026,-0.000005,0.000004,-0.000004,-0.000027,79.954439,0.000034,
2326,2023,1.5871926919046,-13.6014124189996,0.0235220222668318,0.002604,-0.000372,-0.000262,0.119920,-0.027523,330.936959,22.822806,0.998723,0.978901,0.005968,0.283229,0.000006,-0.000026,0.000034,0.000028,-0.000048,32.032796,0.000048,
2101,2383,-3.38277786605349,-5.71342237228198,-0.00880106002352932,0.002731,-0.000583,0.000159,0.124837,-0.030568,325.438553,24.378561,0.998944,0.983622,0.005005,0.338045,-0.000003,-0.000015,0.000015,0.000007,-0.000025,34.088361,0.000026,
2311,3073,1.06620605926453,9.31563924404793,0.0172090720394067,0.002893,-0.000694,-0.001494,0.138088,-0.022058,313.880441,25.202163,0.999694,0.994588,0.003117,0.339779,-0.000017,-0.000010,0.000003,-0.000009,-0.000019,69.352029,0.000028,
2221,2698,-0.825797501653835,1.15950425636507,-0.022532202657203,0.002706,-0.000875,0.003286,0.113644,-0.018211,319.783141,24.329606,0.999639,0.993765,0.003290,0.432083,-0.000017,-0.000013,0.000005,-0.000010,-0.000020,57.372279,0.000031,
2431,2443,3.7966057016351,-4.39813127655773,-0.0112434266116566,0.002762,-0.000478,-0.000788,0.129315,-0.022992,323.943023,23.519142,0.999235,0.985974,0.004744,0.345016,-0.000005,-0.000029,0.000012,0.000001,-0.000034,22.681233,0.000039,
2386,2293,2.84528594856896,-7.68126609999268,0.00425403131202984,0.002856,-0.000601,-0.000257,0.131549,-0.013526,326.448928,23.173055,0.999851,0.994370,0.003303,0.369586,-0.000019,-0.000024,0.000012,-0.000010,-0.000033,39.495111,0.000045,
2326,2113,1.57042560336902,-11.6274515759403,0.024960249507501,0.002668,-0.001243,0.003809,0.108619,-0.048838,329.489524,22.989541,0.999426,0.982192,0.005227,0.321493,-0.000014,-0.000001,0.000022,0.000015,-0.000030,53.149474,0.000030,
2326,3178,1.37292996675732,11.5943479784029,0.0192576600896928,0.003144,-0.000839,-0.002910,0.154508,-0.044391,312.185245,25.436062,0.999647,0.994163,0.003388,0.369901,-0.000010,-0.000001,-0.000001,-0.000001,-0.000010,-84.456652,0.000013,
2116,2263,-3.03710135226554,-8.33777394669428,0.00214644049697199,0.002401,-0.001361,0.003662,0.098999,-0.061676,327.369449,24.273658,0.998891,0.984186,0.005116,0.320200,-0.000002,0.000014,0.000029,0.000036,-0.000024,52.768621,0.000037,
2431,2518,3.7821629104427,-2.76204194906981,0.00118294569887212,0.002407,-0.000949,0.002022,0.102514,-0.042217,322.804028,23.675250,0.999051,0.984758,0.004804,0.425401,-0.000002,-0.000027,-0.000003,-0.000002,-0.000027,-6.620343,0.000033,
2401,2233,3.1848117436711,-8.99582778217317,0.0138057529897537,0.002526,-0.000689,-0.000174,0.116001,-0.034282,327.497478,22.986305,0.999258,0.983975,0.005233,0.282078,-0.000024,-0.000009,0.000005,-0.000008,-0.000026,72.245694,0.000036,
2341,2218,1.87747145311561,-9.32392536900312,0.00645292241375728,0.002450,-0.000162,-0.005411,0.130969,-0.022675,327.661281,23.155335,0.998904,0.982805,0.005386,0.369785,-0.000026,0.000000,0.000007,0.000001,-0.000028,76.171366,0.000031,
2326,2038,1.58364028208306,-13.26978044939,0.013328679575352,0.002267,0.000405,-0.004725,0.120141,-0.020169,330.610109,22.949571,0.999241,0.983555,0.005110,0.202229,0.000001,-0.000023,0.000031,0.000023,-0.000045,34.201070,0.000045,
2086,2323,-3.69984491909744,-7.02486048298488,-0.00956326204914149,0.002709,-0.000510,-0.001137,0.127568,-0.042602,326.475031,24.379255,0.999239,0.988300,0.004533,0.369893,0.000001,-0.000017,0.000019,0.000013,-0.000029,32.415918,0.000029,
2431,2638,3.75647733446791,-0.140176878836535,-0.0225729713402529,0.002383,-0.000785,0.001143,0.104802,-0.033127,320.656274,24.126224,0.999553,0.990888,0.003953,0.390474,-0.000015,-0.000008,-0.000001,-0.000008,-0.000015,-85.014242,0.000023,
2191,2578,-1.45672657636472,-1.45758664346889,-0.0148360936930771,0.002826,-0.000738,-0.000783,0.132083,-0.038502,321.895431,24.169712,0.999480,0.991170,0.003777,0.455024,-0.000011,-0.000004,0.000017,0.000010,-0.000025,50.877692,0.000025,
2101,2398,-3.38469354812202,-5.38635744114772,-0.00601080826845646,0.002861,-0.000120,-0.001949,0.137136,-0.020069,325.232268,24.350974,0.999162,0.985313,0.004599,0.378845,-0.000004,-0.000030,0.000009,-0.000001,-0.000033,17.484017,0.000038,
2311,3088,1.06372326626603,9.6404351022725,0.0204196389993854,0.003047,-0.000715,-0.000164,0.140560,-0.032048,313.664851,25.188742,0.999724,0.995481,0.002949,0.374449,-0.000019,-0.000010,-0.000004,-0.000008,-0.000021,-69.463225,0.000030,
2386,2233,2.85750529200115,-8.99618717232832,0.0233402667795986,0.002317,-0.001029,0.003654,0.092622,-0.014022,327.538866,23.095239,0.999152,0.983897,0.005463,0.264262,-0.000024,-0.000012,0.000006,-0.000010,-0.000026,67.980005,0.000037,
2116,2473,-3.07090317635594,-3.74788490272266,-0.0161047606242164,0.002851,-0.000591,-0.002211,0.137410,-0.023081,323.868718,24.344705,0.999474,0.988977,0.004171,0.361076,-0.000007,-0.000034,0.000012,-0.000002,-0.000039,20.946106,0.000046,
2371,2218,2.53318820382519,-9.32426615575707,0.0137647288303242,0.002976,-0.000340,-0.001570,0.141705,-0.024497,327.740251,23.074607,0.998538,0.976378,0.006112,0.302145,-0.000027,-0.000006,0.000005,-0.000005,-0.000028,76.611086,0.000035,
2251,2848,-0.199293480318385,4.42555213963245,-0.0239943549296413,0.003012,-0.000579,-0.003947,0.151354,-0.028532,317.302916,24.596200,0.999516,0.992477,0.003596,0.385219,-0.000014,-0.000006,0.000014,0.000005,-0.000024,53.152100,0.000026,
2401,2368,3.15725281380103,-6.03957081885663,-0.00400747677338131,0.002687,-0.000743,0.000060,0.122624,-0.031030,325.171689,23.329694,0.998716,0.981986,0.005146,0.370809,-0.000014,-0.000013,0.000019,0.000006,-0.000032,45.372218,0.000035,
2176,2593,-1.78593619805318,-1.12969760547321,-0.0206972446789564,0.002871,-0.000976,-0.000159,0.132106,-0.068158,321.650872,24.302671,0.999115,0.988631,0.004246,0.324915,-0.000018,-0.000009,0.000015,0.000002,-0.000030,53.201282,0.000033,
2266,3223,0.062079955103151,12.5648565496732,0.0239547022912348,0.002772,-0.000732,-0.000334,0.128631,-0.027194,311.528965,25.246517,0.999793,0.995644,0.002994,0.373382,-0.000005,-0.000003,-0.000008,0.000004,-0.000011,-47.568075,0.000012,
2251,3148,-0.249446253335098,10.9369784835019,0.0241889503271295,0.003058,-0.000904,-0.002644,0.149258,-0.041844,312.807929,25.040543,0.998651,0.988420,0.004383,0.378989,-0.000012,-0.000011,-0.000005,-0.000006,-0.000017,-49.299370,0.000024,
2206,2638,-1.1414256583334,-0.14804548491648,-0.0207090311276374,0.002587,-0.000744,0.000388,0.117447,-0.039572,320.815268,24.295882,0.999288,0.986778,0.004577,0.377785,-0.000017,-0.000011,0.000012,-0.000001,-0.000027,52.289629,0.000032,
2416,2338,3.49106486952626,-6.69549480867991,0.00224680811476219,0.002379,0.000050,-0.004975,0.127167,-0.001908,325.732220,23.239548,0.998938,0.982724,0.004987,0.339640,-0.000017,-0.000016,0.000012,-0.000004,-0.000029,46.085108,0.000037,
2356,2143,2.21973987555914,-10.968394721257,0.0185578723477988,0.002815,-0.000789,0.002825,0.118657,-0.016181,328.961313,22.942903,0.998903,0.980768,0.005439,0.307470,-0.000015,-0.000006,0.000012,0.000002,-0.000023,55.150581,0.000026,
2311,2053,1.25468737435641,-12.9430180929792,0.0258870399126749,0.002929,-0.000005,-0.003149,0.144798,-0.014104,330.505538,22.960158,0.999494,0.984882,0.004789,0.332262,-0.000015,-0.000025,0.000017,-0.000002,-0.000038,36.717399,0.000045,
2236,2878,-0.529738259957941,5.07579310904858,-0.00716924350535919,0.002928,-0.000629,0.000119,0.134163,-0.024681,316.969430,24.624881,0.999568,0.992012,0.003511,0.381329,-0.000016,-0.000002,0.000013,0.000005,-0.000024,59.862667,0.000025,
2221,2713,-0.828302220752338,1.48599318443719,-0.0195267270042905,0.002696,-0.001201,0.004653,0.108673,-0.024519,319.559731,24.366902,0.999278,0.990400,0.003861,0.407621,-0.000015,-0.000015,0.000008,-0.000007,-0.000022,45.705651,0.000031,
2266,2983,0.103252137635405,7.35911814691917,-0.00528904904058436,0.002758,-0.000948,0.000194,0.126039,-0.028912,315.206436,24.846568,0.999585,0.992962,0.003601,0.380125,-0.000011,0.000001,0.000013,0.000010,-0.000019,56.609077,0.000019,
2371,2353,2.5063419484842,-6.36918948711984,0.00515229677495199,0.002610,-0.000470,-0.001036,0.123113,-0.013880,325.467966,23.342000,0.999091,0.985455,0.004822,0.434791,-0.000014,-0.000026,0.000023,0.000004,-0.000043,37.382265,0.000048,
2416,2443,3.46960270986235,-4.39895265325049,-0.00848837180660666,0.002795,-0.000557,-0.000279,0.128911,-0.023779,323.943317,23.531723,0.999549,0.987931,0.004393,0.371750,-0.000008,-0.000025,0.000018,0.000003,-0.000037,32.796607,0.000041,
2326,2128,1.56819268548673,-11.2978642677882,0.0239745343930053,0.002673,-0.000251,-0.004288,0.137050,-0.041416,329.267745,23.066058,0.999435,0.984655,0.004944,0.289750,-0.000012,0.000005,0.000018,0.000017,-0.000024,57.940120,0.000024,
2356,2278,2.19178421868198,-8.00850457257562,-0.00792706100730811,0.002162,-0.000489,-0.000405,0.100310,-0.021899,326.542709,23.243958,0.999484,0.989195,0.004284,0.374330,-0.000028,-0.000046,-0.000007,-0.000026,-0.000048,-18.512359,0.000075,
2341,2113,1.8980891944118,-11.6269774786021,0.0259398221119795,0.002574,-0.000842,0.002760,0.107917,-0.021927,329.494004,22.951519,0.999457,0.983365,0.005036,0.297758,-0.000008,-0.000001,0.000021,0.000016,-0.000025,49.334837,0.000026,
2401,2503,3.13014871743851,-3.08689754060279,-0.0175989675040569,0.002809,-0.000472,-0.001809,0.135201,-0.021496,322.881559,23.807869,0.999547,0.989621,0.004107,0.325224,-0.000002,-0.000025,0.000014,0.000005,-0.000032,25.800200,0.000034,
2386,2308,2.84169197954192,-7.35198330311472,-0.00852841798416648,0.002922,-0.000028,-0.003261,0.145552,0.004210,326.113482,23.160088,0.999794,0.994176,0.003391,0.446160,-0.000018,-0.000030,0.000011,-0.000011,-0.000037,30.532723,0.000050,
2296,3178,0.721576737577291,11.5914132470339,0.0298312821792592,0.002603,-0.000959,0.000696,0.117177,-0.039814,312.261703,25.323947,0.999702,0.993283,0.003328,0.348566,-0.000004,-0.000009,-0.000005,-0.000001,-0.000012,-30.187730,0.000014,
2161,2428,-2.0839947923837,-4.73023593192266,-0.0064012272302989,0.002936,-0.001108,0.002867,0.125734,-0.023009,324.484258,24.220178,0.999138,0.986957,0.004607,0.346605,-0.000017,-0.000034,0.000002,-0.000017,-0.000034,6.413789,0.000052,
2446,2593,4.09236233483829,-1.12086473564488,-0.0299681059659633,0.002783,-0.000686,-0.001149,0.131665,-0.024434,321.379408,23.935675,0.999708,0.992794,0.003744,0.420053,-0.000001,-0.000015,0.000006,0.000001,-0.000017,19.367500,0.000019,
2356,2068,2.23526143230205,-12.616066717897,0.0386085573634887,0.002558,-0.000508,0.002074,0.109577,-0.004928,330.328331,22.727548,0.999304,0.980042,0.005317,0.323359,-0.000001,-0.000010,0.000035,0.000029,-0.000041,41.375590,0.000042,
2326,2053,1.58148314024136,-12.9431434582147,0.0203860985774327,0.002692,-0.000699,-0.000012,0.122974,-0.032991,330.431528,22.840418,0.999616,0.987211,0.004495,0.335917,-0.000003,-0.000014,0.000028,0.000020,-0.000038,39.181553,0.000038,
2101,2413,-3.38709404972753,-5.0586404055484,-0.00618521708258868,0.002911,-0.000397,-0.000830,0.136080,-0.032980,324.987767,24.382855,0.999158,0.986335,0.004599,0.336897,-0.000004,-0.000053,0.000007,-0.000004,-0.000054,7.537766,0.000064,
2191,2593,-1.45953068457946,-1.12931422084883,-0.018289902207357,0.002922,-0.000776,0.000848,0.131417,-0.026856,321.622293,24.260283,0.999087,0.988621,0.004249,0.391228,-0.000015,-0.000012,0.000016,0.000003,-0.000030,47.591523,0.000033,
2281,3028,0.421629917581956,8.33720178088106,0.00328670682102938,0.002814,-0.000700,-0.000169,0.129881,-0.027145,314.524189,25.001246,0.999144,0.989338,0.003976,0.348185,-0.000010,-0.000019,0.000001,-0.000010,-0.000020,5.809280,0.000030,
2116,2488,-3.07299418465655,-3.42176595797856,-0.0140580960053853,0.003098,-0.000942,-0.001067,0.145248,-0.053498,323.651938,24.293675,0.999326,0.987979,0.004348,0.386292,-0.000006,-0.000029,0.000016,0.000002,-0.000037,26.781259,0.000041,
2431,2458,3.79368833943797,-4.07014344107798,-0.0148054270711668,0.002873,0.000151,-0.003659,0.145239,-0.003517,323.685807,23.532319,0.999438,0.986722,0.004621,0.402830,-0.000004,-0.000029,0.000014,0.000003,-0.000035,24.407457,0.000039,
2251,3163,-0.251831223372765,11.2626865694708,0.0313227004452301,0.002953,-0.000752,-0.001237,0.139923,-0.022355,312.612477,25.122380,0.999243,0.990667,0.003851,0.338621,-0.000011,-0.000009,-0.000005,-0.000005,-0.000015,-49.974876,0.000021,
2356,2293,2.18980393071378,-7.67873677648799,-0.00657187519755098,0.002983,-0.000368,0.000367,0.135296,-0.011432,326.345741,23.419017,0.999660,0.993423,0.003822,0.250390,-0.000028,-0.000037,0.000001,-0.000028,-0.000037,7.284816,0.000065,
2236,2893,-0.53201944700394,5.40154647638062,-0.00247578286939643,0.002957,-0.000787,0.000070,0.135614,-0.024779,316.765852,24.650215,0.999755,0.992359,0.003474,0.376632,-0.000018,-0.000001,0.000016,0.000009,-0.000028,58.803513,0.000028,
2266,3238,0.0595605048705643,12.8892593946418,0.023663865034905,0.002908,-0.000901,-0.001457,0.138493,-0.052220,311.290996,25.227279,0.999790,0.995013,0.003042,0.391769,-0.000004,-0.000009,-0.000007,0.000001,-0.000014,-35.638691,0.000016,
2431,2533,3.77925441629724,-2.43313345460422,-0.00121798428079956,0.002580,-0.000853,0.000826,0.114916,-0.045704,322.552160,23.830920,0.999313,0.987916,0.004392,0.317497,-0.000002,-0.000027,-0.000006,0.000000,-0.000028,-12.382746,0.000033,
2416,2353,3.48812341269297,-6.36708252399849,-0.00154124162662583,0.002655,0.000161,-0.005399,0.141433,-0.003146,325.472021,23.272247,0.998516,0.981950,0.005223,0.355426,-0.000012,-0.000016,0.000015,0.000001,-0.000029,41.136484,0.000033,
2206,2653,-1.14431044390914,0.178846765214431,-0.0256868172226064,0.002766,-0.001198,0.002408,0.119096,-0.050893,320.532160,24.290419,0.999305,0.986645,0.004647,0.389363,-0.000014,0.000001,0.000014,0.000010,-0.000023,59.168319,0.000023,
2311,2068,1.25166615325777,-12.6134606117592,0.0179753205420639,0.003214,-0.000045,-0.003514,0.159098,-0.032091,330.212750,22.960380,0.999468,0.981795,0.005160,0.349713,-0.000017,-0.000013,0.000018,0.000003,-0.000033,47.750180,0.000036,
2116,2278,-3.03845802224894,-8.00863098403565,-1.38107228622175E-05,0.003000,-0.000134,-0.005074,0.152674,-0.023579,327.162766,24.318723,0.998749,0.984418,0.005115,0.318894,0.000000,-0.000002,0.000025,0.000023,-0.000026,43.871440,0.000029,
2326,2143,1.56440110097665,-10.9675142338511,0.0156315926848265,0.002667,-0.000395,0.000660,0.119696,-0.005325,328.938524,23.110298,0.999389,0.985281,0.004991,0.319206,-0.000015,-0.000005,0.000013,0.000004,-0.000024,55.559550,0.000026,
2086,2338,-3.70114322979762,-6.69796392711615,0.00113137980531519,0.002982,-0.000449,-0.002420,0.143829,-0.025498,326.338690,24.387802,0.998982,0.986471,0.004736,0.378845,-0.000006,-0.000013,0.000016,0.000007,-0.000026,38.413656,0.000027,
2326,3193,1.37084419555663,11.9182739951177,0.0319798381196392,0.003115,-0.001123,-0.000100,0.143321,-0.063690,312.035550,25.433282,0.999725,0.995063,0.003081,0.386542,-0.000011,-0.000001,-0.000001,-0.000001,-0.000011,-87.098942,0.000014,
2401,2248,3.18152981969135,-8.66742990204024,0.00552215810830603,0.002711,-0.000322,-0.001461,0.129316,-0.023283,327.199606,22.920511,0.999313,0.983731,0.005110,0.407134,-0.000022,-0.000018,0.000002,-0.000017,-0.000023,68.172001,0.000040,
2431,2653,3.75427762018387,0.186419258242111,-0.0157462633885075,0.002673,-0.000823,0.002001,0.114952,-0.020064,320.479571,24.171422,0.999537,0.990501,0.004021,0.408664,-0.000016,-0.000012,-0.000001,-0.000012,-0.000016,-71.964932,0.000028,
2446,2608,4.09036629472827,-0.794117654924882,-0.0164340680214536,0.002944,-0.001019,0.002035,0.127065,-0.033536,321.244118,24.062654,0.999464,0.989096,0.004149,0.336659,-0.000004,-0.000009,0.000001,-0.000003,-0.000009,14.081954,0.000013,
2266,3253,0.0566832066502627,13.215063459074,0.0228437997056403,0.003070,-0.000960,0.002134,0.134103,-0.032192,311.033335,25.293222,0.999760,0.994228,0.003230,0.369830,-0.000004,-0.000003,-0.000004,0.000001,-0.000007,-48.572923,0.000008,
2341,2233,1.87497232088404,-8.99536353014887,0.0084600728526425,0.002677,0.000055,-0.004433,0.138052,-0.015179,327.442869,23.208314,0.998542,0.979543,0.005720,0.363347,-0.000024,-0.000013,0.000010,-0.000007,-0.000030,59.277645,0.000040,
2311,3103,1.06068284647305,9.96654043255223,0.0194859415791484,0.002771,-0.000520,-0.001322,0.131973,-0.016602,313.402662,25.248145,0.999442,0.993367,0.003477,0.361645,-0.000015,-0.000008,-0.000003,-0.000007,-0.000016,-72.285473,0.000024,
2386,2248,2.85363185004433,-8.66568645165253,0.00144213776752622,0.002760,-0.000502,-0.000158,0.126798,-0.018246,327.147738,23.096331,0.999221,0.983566,0.005262,0.305374,-0.000022,-0.000024,0.000003,-0.000019,-0.000026,35.324098,0.000046,
2251,2863,-0.202020798621103,4.75121015374675,-0.0218947428248271,0.002941,-0.000930,-0.002021,0.141606,-0.043077,317.066750,24.601534,0.999574,0.992326,0.003550,0.388244,-0.000018,-0.000005,0.000010,0.000000,-0.000024,61.632784,0.000027,
2356,2158,2.21759309585986,-10.6391928811813,0.0208656722870728,0.003104,-0.000268,-0.000037,0.142147,-0.010323,328.761882,23.032686,0.999217,0.983089,0.005206,0.265004,-0.000021,-0.000012,0.000004,-0.000010,-0.000023,68.802154,0.000034,
2356,2308,2.18781297447332,-7.35325952837621,0.00340206205117966,0.003123,-0.000795,0.001391,0.137918,-0.027138,326.190355,23.318934,0.999408,0.991332,0.003920,0.375377,-0.000028,-0.000044,0.000005,-0.000027,-0.000045,14.710506,0.000073,
2371,2233,2.52997912905197,-8.99555637365155,0.0132732205667594,0.002955,-0.000965,0.002063,0.127657,-0.026851,327.479833,23.125100,0.998729,0.979842,0.005798,0.292577,-0.000025,-0.000014,0.000007,-0.000011,-0.000028,63.535394,0.000040,
2116,2293,-3.04178526978079,-7.67981137049893,-0.0050072227913347,0.002515,-0.000174,-0.002980,0.124207,-0.015144,326.851017,24.341208,0.998842,0.986456,0.004834,0.310737,0.000001,-0.000013,0.000022,0.000018,-0.000029,36.108198,0.000029,
2161,2443,-2.08627884456375,-4.40350432336373,-0.00451056763654378,0.003037,-0.001144,0.003423,0.128650,-0.039601,324.261050,24.195969,0.999125,0.986967,0.004691,0.365807,-0.000019,-0.000028,0.000004,-0.000018,-0.000029,19.844639,0.000047,
2311,2083,1.24846035137387,-12.2825051483391,0.0172560538781568,0.003033,-0.000327,-0.000706,0.141129,-0.000463,329.946276,23.124464,0.999396,0.982975,0.005192,0.252841,-0.000016,-0.000009,0.000015,0.000004,-0.000028,51.634532,0.000031,
2371,2368,2.50251534049886,-6.03934306397152,-0.00449168914622078,0.002407,-0.000116,-0.001014,0.113908,0.002349,325.134766,23.436391,0.998867,0.983566,0.004983,0.399830,-0.000014,-0.000019,0.000023,0.000007,-0.000040,41.949106,0.000043,
2356,2083,2.23110012323645,-12.2841394027414,0.0211741536103318,0.002594,-0.000367,0.002170,0.110945,0.009924,329.941974,22.811978,0.999424,0.981869,0.005140,0.296858,-0.000005,0.000000,0.000031,0.000028,-0.000033,47.458113,0.000036,
2326,3208,1.36804030029603,12.244049718768,0.0370542639680025,0.002880,-0.000477,0.001793,0.126280,-0.015316,311.814590,25.491349,0.999656,0.993711,0.003232,0.409899,-0.000009,-0.000005,-0.000001,-0.000005,-0.000009,-76.993379,0.000015,
2191,2608,-1.46219136652655,-0.802474459017816,-0.0185866401531598,0.002858,-0.000937,0.001281,0.127088,-0.030175,321.372501,24.266763,0.998671,0.986250,0.004693,0.396787,-0.000014,-0.000013,0.000019,0.000006,-0.000033,46.230534,0.000035,
2221,2728,-0.830543673615207,1.81285456626262,-0.0201655087632275,0.002855,-0.000645,0.001058,0.127707,-0.016652,319.329550,24.399030,0.999340,0.990250,0.003826,0.402665,-0.000011,-0.000016,0.000006,-0.000007,-0.000020,34.746912,0.000028,
2206,2668,-1.14685021393137,0.506370256944116,-0.024538935826854,0.002450,-0.000539,-0.001577,0.117452,-0.032400,320.296223,24.369324,0.999561,0.991850,0.003755,0.346054,-0.000012,0.000001,0.000010,0.000007,-0.000018,61.206896,0.000018,
2341,2128,1.89513154213617,-11.2973951745117,0.0163294096055893,0.002848,-0.000642,-0.001236,0.134460,-0.057123,329.198929,22.977083,0.999589,0.987046,0.004561,0.276941,-0.000008,0.000005,0.000018,0.000018,-0.000021,54.955134,0.000022,
2386,2323,2.83776248114689,-7.02343526512912,-0.0129253125901982,0.002454,-0.000627,-0.000469,0.113890,-0.008652,325.802486,23.200677,0.999661,0.992366,0.003886,0.438467,-0.000019,-0.000031,0.000017,-0.000007,-0.000043,35.216821,0.000054,
2326,2158,1.56157737976699,-10.6396963064273,0.0163361630068266,0.002741,-0.000637,0.003104,0.114627,-0.006456,328.698073,23.063577,0.999185,0.984184,0.005103,0.402115,-0.000023,-0.000006,0.000006,-0.000004,-0.000025,71.465555,0.000031,
2401,2263,3.1778244645488,-8.33683667923427,-0.00327768846079834,0.002715,-0.000795,-0.000548,0.126026,-0.033220,326.879640,23.077521,0.999368,0.986270,0.004643,0.288234,-0.000019,-0.000030,-0.000002,-0.000019,-0.000030,-10.713878,0.000049,
2326,2068,1.57822525307806,-12.6145783938748,0.0174924069751796,0.002512,-0.000979,0.001225,0.110437,-0.057038,330.154018,22.812499,0.999415,0.982610,0.005127,0.377730,-0.000006,-0.000004,0.000028,0.000023,-0.000034,46.184001,0.000034,
2416,2458,3.46629786733584,-4.07042734393249,-0.0162335109693572,0.002919,-0.000339,-0.002043,0.141157,-0.024976,323.647429,23.575623,0.999443,0.987156,0.004554,0.375954,-0.000007,-0.000025,0.000021,0.000007,-0.000039,33.485065,0.000041,
2446,2623,4.08732895547282,-0.467061256569551,-0.0137415144381521,0.002607,-0.000797,0.001067,0.115328,-0.016578,321.010859,24.102441,0.999514,0.989533,0.004001,0.366721,-0.000002,-0.000009,-0.000004,-0.000001,-0.000010,-24.536329,0.000012,
2101,2428,-3.38993369860258,-4.73123645973961,-0.00607584136349715,0.002691,-0.000947,0.003202,0.114011,-0.043621,324.724771,24.391577,0.999401,0.987826,0.004350,0.320159,-0.000003,-0.000048,0.000016,0.000002,-0.000053,17.923566,0.000060,
2251,3178,-0.25437989519342,11.5870716539199,0.03745222642209,0.002807,-0.000763,0.000910,0.126085,-0.029690,312.404857,25.105952,0.999499,0.992239,0.003419,0.369784,-0.000011,-0.000009,-0.000006,-0.000003,-0.000016,-50.113060,0.000021,
2401,2518,3.12727028770268,-2.76089043528796,-0.0160181167546511,0.002715,-0.000321,-0.001797,0.130890,-0.020568,322.647787,23.725026,0.999579,0.988693,0.004250,0.455722,-0.000006,-0.000024,0.000012,0.000000,-0.000030,27.609795,0.000035,
2116,2503,-3.07565034308542,-3.09377814068947,-0.0209677752056336,0.003025,-0.000195,-0.005164,0.154295,-0.025858,323.360603,24.279211,0.999190,0.985874,0.004542,0.433060,-0.000002,-0.000026,0.000014,0.000005,-0.000033,24.818114,0.000035,
2266,2998,0.101220154639588,7.68425897089697,0.00363917449567452,0.002979,-0.001037,0.002932,0.127098,-0.025259,315.037528,24.867925,0.999448,0.991767,0.003700,0.386953,-0.000011,-0.000003,0.000011,0.000005,-0.000019,55.431290,0.000020,
2146,2398,-2.40536885002823,-5.38659836106449,-0.00300719280500061,0.002755,-0.000951,0.000429,0.124959,-0.039923,325.052433,24.196376,0.998842,0.986206,0.004759,0.376176,-0.000020,-0.000031,-0.000005,-0.000018,-0.000033,-21.817840,0.000052,
2431,2668,3.75023107476853,0.515797813808831,-0.0295130648403301,0.002703,-0.000893,0.001716,0.117389,-0.022942,320.121803,24.320664,0.999454,0.990253,0.004220,0.307346,-0.000011,-0.000022,-0.000001,-0.000011,-0.000022,-4.979141,0.000033,
2401,2383,3.15416194246322,-5.71115749615745,-0.00259971530721259,0.002508,-0.000803,0.001317,0.109866,-0.036169,324.927553,23.427443,0.999190,0.985126,0.004823,0.315126,-0.000008,-0.000019,0.000012,0.000000,-0.000027,33.342821,0.000031,
2296,3193,0.719066240643059,11.9169465630634,0.0281168394285487,0.002873,-0.000849,-0.000754,0.134591,-0.040954,312.018866,25.365424,0.999731,0.993069,0.003311,0.334658,-0.000004,-0.000007,-0.000004,-0.000001,-0.000010,-32.391070,0.000012,
2431,2548,3.77653462479536,-2.10555459078758,0.00266874337268064,0.002552,-0.000681,0.001203,0.112325,-0.025953,322.338194,23.902400,0.999670,0.990553,0.003876,0.316614,-0.000007,-0.000028,-0.000006,-0.000006,-0.000029,-13.914199,0.000038,
2311,3118,1.05793472306349,10.2919791564227,0.0208575724815319,0.002722,-0.000592,-0.001049,0.128761,-0.020017,313.165488,25.283325,0.999195,0.992030,0.003836,0.354039,-0.000012,-0.000001,-0.000002,-0.000001,-0.000012,-80.646006,0.000015,
2326,3223,1.36463663186253,12.568930626746,0.0338329866209506,0.002521,-0.001143,0.001674,0.109834,-0.053648,311.525597,25.509082,0.999510,0.993027,0.003265,0.386630,-0.000008,-0.000003,0.000001,-0.000003,-0.000008,83.707986,0.000012,
2401,2278,3.17331308914379,-8.00644062764773,-0.0136186871519044,0.002240,-0.000954,0.003011,0.091314,-0.042867,326.515402,23.207226,0.999794,0.994426,0.003306,0.197085,-0.000016,-0.000025,0.000003,-0.000015,-0.000026,16.742092,0.000042,
2221,2743,-0.833950716520139,2.139831546366,-0.0268315931894563,0.002670,-0.001177,0.003086,0.112522,-0.031419,319.014958,24.421130,0.999383,0.989483,0.004023,0.384848,-0.000013,-0.000020,0.000005,-0.000010,-0.000023,28.361930,0.000034,
2371,2383,2.49950879554002,-5.71161672321838,-0.00154650768405418,0.002219,-0.000763,0.001298,0.096836,-0.022472,324.899645,23.505416,0.999123,0.984797,0.004928,0.348540,-0.000008,-0.000021,0.000018,0.000005,-0.000034,35.330605,0.000037,
2386,2338,2.83594422849152,-6.69550304831743,-0.00288868032265555,0.002390,0.000233,-0.004871,0.127076,-0.008639,325.656609,23.319616,0.999146,0.985799,0.004707,0.364342,-0.000018,-0.000024,0.000017,-0.000003,-0.000038,39.773831,0.000046,
2341,2143,1.89075308383595,-10.9664366841816,0.00168452544806996,0.002687,-0.000663,0.002539,0.113982,-0.036131,328.813954,23.025013,0.999281,0.984734,0.004986,0.290250,-0.000009,-0.000004,0.000014,0.000007,-0.000021,50.601822,0.000021,
2416,2368,3.48572291306023,-6.04012737168296,0.00333093295984099,0.002938,-0.000160,-0.003763,0.148307,-0.020072,325.277243,23.276876,0.998975,0.983839,0.004939,0.383100,-0.000015,-0.000013,0.000015,0.000002,-0.000029,46.380477,0.000033,
2191,2623,-1.46465244183365,-0.475832505708446,-0.0160960177349807,0.002742,-0.000939,0.000817,0.123196,-0.037154,321.146382,24.287199,0.999218,0.987342,0.004452,0.384417,-0.000014,-0.000009,0.000017,0.000005,-0.000029,49.269491,0.000030,
2251,2878,-0.204601880544903,5.07752774738509,-0.0163736615276093,0.002878,-0.000920,0.001369,0.127602,-0.037813,316.854381,24.676848,0.999667,0.991054,0.003637,0.341143,-0.000019,-0.000005,0.000010,0.000000,-0.000024,62.426896,0.000027,
2431,2563,3.77346429721661,-1.77794541362807,-0.00317309892233197,0.003078,-0.000933,0.003031,0.129601,-0.027542,322.063013,23.916561,0.999581,0.989768,0.004002,0.351788,-0.000013,-0.000028,-0.000003,-0.000012,-0.000029,-12.412173,0.000042,
2326,3238,1.36127947389054,12.8961383198484,0.021656924474371,0.002698,-0.000402,-0.000932,0.127388,-0.016808,311.193902,25.620020,0.999457,0.992489,0.003398,0.345871,-0.000008,-0.000007,0.000000,-0.000007,-0.000008,-68.723605,0.000015,
2086,2353,-3.70427404696292,-6.36942689912927,-0.00204923806103352,0.002513,-0.000464,-0.000411,0.116495,-0.012969,326.042971,24.419164,0.998593,0.982431,0.005267,0.361124,-0.000005,-0.000024,0.000017,0.000005,-0.000033,29.893435,0.000036,
2416,2473,3.46373759385039,-3.74450671540955,-0.00389023410826894,0.002460,-0.000567,-0.000166,0.113157,-0.025135,323.479864,23.571070,0.999235,0.986504,0.004670,0.429069,-0.000011,-0.000033,0.000017,-0.000002,-0.000042,28.158462,0.000050,
2311,3133,1.05486568677629,10.6171657495733,0.0218120810246205,0.002534,-0.000826,0.001229,0.112136,-0.036565,312.911536,25.309597,0.999407,0.992911,0.003572,0.342263,-0.000014,0.000001,-0.000004,0.000002,-0.000015,-75.309749,0.000017,
2446,2638,4.08399924289755,-0.138739642407899,-0.0213582000944825,0.002654,-0.000196,-0.001980,0.129062,-0.012028,320.716400,24.187889,0.999591,0.990309,0.003918,0.338705,-0.000007,-0.000010,-0.000001,-0.000007,-0.000010,-20.594835,0.000017,
2296,3208,0.715981407585026,12.242548629441,0.024536423777306,0.002764,-0.000406,-0.001438,0.132052,-0.022342,311.740239,25.386871,0.999782,0.994182,0.003067,0.360522,-0.000001,-0.000012,-0.000003,-0.000001,-0.000012,-14.711201,0.000015,
2356,2098,2.22752461776311,-11.9546879368201,0.0141442052450316,0.002457,-0.000864,0.002970,0.101722,-0.029712,329.632765,22.846818,0.999349,0.980966,0.005302,0.264752,-0.000011,-0.000004,0.000024,0.000016,-0.000031,49.788076,0.000031,
2401,2398,3.1516177334295,-5.38332756064132,-0.00228094884215579,0.002773,-0.000592,0.000258,0.125923,-0.021353,324.703328,23.446136,0.999377,0.986002,0.004694,0.358574,-0.000006,-0.000013,0.000015,0.000006,-0.000025,38.860021,0.000026,
2221,2758,-0.836153580521103,2.46659286373216,-0.0271350870211791,0.002954,-0.000865,0.001021,0.132351,-0.024064,318.788238,24.456840,0.999507,0.989898,0.003909,0.375549,-0.000013,-0.000017,0.000010,-0.000004,-0.000025,40.216628,0.000032,
2401,2533,3.12476550025952,-2.43214036130843,-0.0164661045297976,0.002961,-0.000158,-0.004492,0.152021,-0.025486,322.421081,23.885892,0.999505,0.989310,0.004285,0.336410,-0.000007,-0.000025,0.000007,-0.000005,-0.000027,18.711309,0.000035,
2371,2248,2.52633428895567,-8.66504997778134,-0.0057769749529939,0.003199,-0.000121,-0.003845,0.160139,-0.020687,327.110668,23.146079,0.999277,0.983431,0.005349,0.321946,-0.000023,-0.000028,0.000004,-0.000020,-0.000030,30.189055,0.000051,
2206,2683,-1.1490915661208,0.833117599136116,-0.0268067070111897,0.002894,-0.000407,-0.002297,0.140222,-0.025390,320.056548,24.364712,0.999667,0.993312,0.003516,0.374641,-0.000017,0.000002,0.000005,0.000003,-0.000018,76.610019,0.000020,
2401,2293,3.17045986040855,-7.67915210527415,-0.0139950899212522,0.002303,-0.000967,0.002712,0.095330,-0.030847,326.274228,23.137679,0.999593,0.990975,0.003855,0.326518,-0.000016,-0.000020,0.000012,-0.000006,-0.000030,39.708831,0.000038,
2386,2353,2.83310974970775,-6.36881759203509,0.000511774473125115,0.002552,-0.000640,-0.000085,0.116992,-0.036590,325.432958,23.291325,0.998879,0.982773,0.005156,0.409423,-0.000012,-0.000023,0.000023,0.000006,-0.000040,38.125654,0.000044,
2431,2473,3.79056102919033,-3.74322856381188,-0.00713606740885098,0.002296,-0.000441,-0.001246,0.109658,-0.018592,323.471218,23.590815,0.999301,0.986010,0.004673,0.380480,-0.000010,-0.000037,0.000009,-0.000008,-0.000039,16.522229,0.000050,
2416,2383,3.48340988498186,-5.71197087215086,0.0123894688811106,0.002976,-0.000322,-0.002231,0.144369,-0.035781,325.105773,23.434982,0.999676,0.988204,0.004339,0.258552,-0.000009,-0.000020,0.000008,-0.000005,-0.000024,27.078081,0.000032,
2446,2653,4.08070974722215,0.188252883513158,-0.0226270035572611,0.002499,-0.000284,-0.001593,0.120490,-0.019279,320.453231,24.222108,0.999680,0.991214,0.003760,0.350224,-0.000009,-0.000015,-0.000003,-0.000008,-0.000016,-21.119957,0.000024,
2296,3223,0.713214705824473,12.5666902152081,0.0236876400915662,0.002818,-0.000672,-0.001465,0.134561,-0.033753,311.490329,25.323464,0.999848,0.995187,0.002851,0.441398,0.000000,-0.000007,-0.000002,0.000001,-0.000008,-16.668462,0.000008,
2221,2773,-0.838568967030614,2.79244139552119,-0.0216234807643332,0.002691,-0.000587,0.000016,0.123552,-0.020565,318.581849,24.462636,0.999410,0.989932,0.004000,0.392048,-0.000012,-0.000011,0.000012,0.000001,-0.000023,46.105031,0.000026,
2266,3013,0.0986512913597934,8.009336655562,0.00700202478634537,0.002837,-0.001053,0.002513,0.121941,-0.032985,314.815923,24.860419,0.999424,0.991434,0.003659,0.411539,-0.000012,-0.000011,0.000008,-0.000004,-0.000019,47.044308,0.000024,
2206,2698,-1.15275372038645,1.15942853201513,-0.0334746658126619,0.002633,-0.001021,0.002905,0.111555,-0.030633,319.729109,24.301433,0.999450,0.992306,0.003622,0.449940,-0.000017,-0.000018,0.000004,-0.000014,-0.000021,42.278087,0.000035,
2401,2308,3.16803569343296,-7.35150883127262,-0.016955954726086,0.002771,-0.000489,-0.000487,0.128516,-0.014952,326.040474,23.075962,0.999802,0.994349,0.003354,0.451490,-0.000013,-0.000025,0.000011,-0.000007,-0.000032,30.261226,0.000041,
2371,2263,2.52339918162165,-8.33698579526607,0.000352267655841842,0.002781,-0.000371,-0.002184,0.134984,-0.026529,326.894324,23.220413,0.999395,0.986464,0.004708,0.284992,-0.000022,-0.000037,-0.000001,-0.000022,-0.000037,-4.936072,0.000060,
2281,3043,0.418853418032501,8.66279673152909,0.00658278802274026,0.002585,-0.000906,0.000633,0.116577,-0.033779,314.293433,25.047825,0.999416,0.991318,0.003694,0.321850,-0.000012,-0.000015,0.000002,-0.000011,-0.000015,25.332239,0.000026,
2416,2398,3.4797154779981,-5.38438566616725,0.00236829610997802,0.003107,-0.000747,-0.001253,0.146649,-0.039064,324.781866,23.349630,0.999621,0.987655,0.004464,0.390226,-0.000008,-0.000012,0.000011,0.000001,-0.000021,39.612892,0.000023,
2446,2668,4.0782522781534,0.514649721102302,-0.0180107696461391,0.002776,-0.000546,-0.000212,0.127967,-0.012423,320.255427,24.241166,0.999491,0.989227,0.004113,0.390455,-0.000004,-0.000027,-0.000002,-0.000004,-0.000027,-4.335408,0.000034,
2356,2173,2.21442646709661,-10.3119228818496,0.0175561851576731,0.002906,-0.000515,-0.001416,0.137868,-0.042613,328.489150,22.929767,0.999316,0.982904,0.005177,0.377178,-0.000022,-0.000003,0.000008,0.000000,-0.000025,71.015487,0.000028,
2296,3238,0.710178565426336,12.8923756110165,0.021199542841714,0.002802,-0.000790,-0.000511,0.130561,-0.030659,311.219258,25.382631,0.999706,0.993205,0.003240,0.413725,0.000002,-0.000012,-0.000003,0.000002,-0.000012,-12.334336,0.000013,
2146,2413,-2.40873254405323,-5.05762346729585,-0.0149111281896808,0.002638,-0.000993,0.000501,0.119356,-0.043320,324.705159,24.223294,0.998715,0.987252,0.004897,0.355740,-0.000020,-0.000045,-0.000010,-0.000016,-0.000048,-18.710750,0.000067,
2326,3253,1.35768404207005,13.2211116385375,0.0118248425337129,0.002810,-0.000818,0.001127,0.125256,-0.032741,310.863462,25.596090,0.999380,0.992658,0.003447,0.386738,-0.000009,0.000001,0.000004,0.000002,-0.000010,69.753281,0.000011,
2431,2578,3.77033255511013,-1.4493082478165,-0.010375648428635,0.003258,-0.000710,-0.000075,0.149447,-0.029352,321.778425,24.018966,0.999778,0.993606,0.003476,0.298333,-0.000010,-0.000013,-0.000002,-0.000009,-0.000014,-29.116149,0.000023,
2311,3148,1.0520028670398,10.942653440974,0.0231282169340261,0.002477,-0.000817,0.002858,0.104041,-0.015473,312.668693,25.332001,0.999585,0.992706,0.003571,0.371818,-0.000011,-0.000001,-0.000003,0.000000,-0.000012,-73.884923,0.000014,
2161,2458,-2.08916581220722,-4.07547539230629,-0.0108848650767754,0.002848,-0.000625,0.000314,0.129680,-0.022183,323.966361,24.184566,0.999101,0.987582,0.004596,0.406101,-0.000018,-0.000023,0.000005,-0.000015,-0.000026,29.714872,0.000041,
2416,2488,3.46040153568104,-3.41653758438045,-0.0122941862738344,0.002807,-0.001239,0.000557,0.126175,-0.061046,323.179534,23.603212,0.999304,0.987201,0.004483,0.410135,-0.000004,-0.000028,0.000007,-0.000002,-0.000030,15.295856,0.000036,
2401,2323,3.16589427726698,-7.02431442953126,0.00326868889914067,0.002128,-0.000770,0.001802,0.090674,-0.029642,325.928763,23.239320,0.999372,0.988079,0.004299,0.320269,-0.000015,-0.000025,0.000016,-0.000003,-0.000037,36.321202,0.000044,
2206,2713,-1.15511105192625,1.48564869709605,-0.0276569608588488,0.002402,-0.000998,0.002158,0.103305,-0.024800,319.525966,24.325236,0.998800,0.987449,0.004534,0.448933,-0.000016,-0.000017,0.000006,-0.000010,-0.000022,41.667936,0.000033,
2386,2368,2.82929132394569,-6.03954101280218,-0.00536575535625161,0.002338,-0.000946,0.002993,0.096075,-0.027570,325.119648,23.377853,0.998863,0.983159,0.005099,0.377585,-0.000013,-0.000017,0.000022,0.000007,-0.000038,42.384935,0.000040,
2431,2683,3.74759653626795,0.842661888469301,-0.0322878615553464,0.002807,-0.000297,-0.003911,0.143234,-0.005529,319.880339,24.315738,0.999474,0.989298,0.004192,0.380094,-0.000011,-0.000019,0.000000,-0.000011,-0.000019,-2.071315,0.000030,
2191,2638,-1.4670195395282,-0.149046957336083,-0.0206508302769066,0.003087,-0.000719,-0.001331,0.145865,-0.037941,320.887897,24.259359,0.999507,0.988519,0.004235,0.426556,-0.000014,-0.000005,0.000015,0.000006,-0.000024,53.662819,0.000025,
2251,2893,-0.206754780525078,5.40292247721781,-0.0123523531518117,0.002966,-0.000925,-0.000580,0.138105,-0.029156,316.654323,24.656472,0.999700,0.991948,0.003522,0.393101,-0.000018,-0.000003,0.000014,0.000006,-0.000027,58.849105,0.000028,
2221,2788,-0.84051751907262,3.11833573807055,-0.0188356718307432,0.002812,-0.000355,-0.004917,0.145011,-0.033084,318.382913,24.471068,0.999385,0.991117,0.003965,0.390076,-0.000011,-0.000012,0.000013,0.000001,-0.000024,44.227064,0.000027,
2401,2413,3.14887950624555,-5.05522956663788,-0.00374097146010399,0.002903,-0.000267,-0.001838,0.139644,-0.012634,324.461758,23.483540,0.999492,0.986423,0.004588,0.377034,-0.000012,-0.000008,0.000022,0.000012,-0.000032,47.086693,0.000033,
2371,2278,2.52134365400551,-8.01005511575016,0.0180740392852954,0.002374,-0.000719,-0.000036,0.108619,-0.044054,326.773709,23.324376,0.999832,0.993991,0.003472,0.206182,-0.000022,-0.000034,0.000001,-0.000022,-0.000034,6.265030,0.000056,
2266,3028,0.0960382406476192,8.33521887924098,0.00804931673178544,0.002670,-0.001089,-0.000024,0.122610,-0.048601,314.580342,24.923094,0.999377,0.990809,0.003742,0.358107,-0.000012,-0.000018,0.000003,-0.000010,-0.000019,23.065088,0.000030,
2446,2683,4.07458675444787,0.842702847485086,-0.0259336315572796,0.002480,-0.000223,-0.003652,0.127378,-0.004979,319.943905,24.312446,0.999331,0.987905,0.004243,0.379221,-0.000004,-0.000024,0.000000,-0.000004,-0.000024,0.221641,0.000030,
2146,2428,-2.41057018804843,-4.72984638232525,-0.0118983077886696,0.003025,-0.000739,0.000090,0.138459,-0.026864,324.506810,24.267805,0.999057,0.987316,0.004694,0.336846,-0.000017,-0.000042,-0.000001,-0.000017,-0.000042,-2.574772,0.000061,
2311,3163,1.05016207594769,11.2671998387645,0.0290076198924112,0.002891,-0.001031,0.001676,0.127064,-0.027997,312.495718,25.332129,0.999648,0.993413,0.003425,0.390440,-0.000009,-0.000004,-0.000002,-0.000003,-0.000010,-69.392913,0.000014,
2221,2803,-0.844009923181936,3.44532768201048,-0.0279354447103515,0.002809,-0.000853,-0.001565,0.133954,-0.049392,318.051773,24.496999,0.999365,0.989294,0.004138,0.366649,-0.000013,-0.000011,0.000016,0.000004,-0.000027,47.147214,0.000030,
2206,2728,-1.1568587221806,1.81325248651388,-0.0299261295471638,0.003106,-0.000258,-0.002024,0.149208,-0.014313,319.308623,24.410024,0.999259,0.989610,0.004032,0.391540,-0.000012,-0.000017,0.000005,-0.000009,-0.000020,33.289772,0.000030,
2401,2428,3.14574827686934,-4.72753631140101,-0.00472332423260013,0.002789,-0.000486,-0.001607,0.133469,-0.030160,324.204496,23.519857,0.999493,0.986251,0.004566,0.370009,-0.000011,-0.000016,0.000021,0.000008,-0.000035,41.762273,0.000037,
2296,3253,0.706857621207238,13.2184628121717,0.0152956429224673,0.002751,-0.000730,0.000402,0.125130,-0.030182,310.917875,25.466548,0.999683,0.991159,0.003566,0.358678,0.000003,-0.000003,0.000001,0.000004,-0.000003,12.006866,0.000004,
2386,2383,2.82668792392207,-5.71202860513483,-0.00180926751920651,0.002472,-0.001525,0.004554,0.096376,-0.061979,324.907116,23.442927,0.998991,0.984312,0.005112,0.322695,-0.000007,-0.000021,0.000017,0.000004,-0.000032,34.175809,0.000035,
2281,3058,0.416228976051375,8.98826239903601,0.00552035198421663,0.002641,-0.000577,-0.001083,0.125023,-0.025170,314.047849,25.042524,0.999505,0.993283,0.003464,0.362507,-0.000011,-0.000013,0.000004,-0.000008,-0.000016,37.900443,0.000025,
2266,3043,0.0934430603658321,8.66070727185861,0.00825737561757478,0.002584,-0.001082,-0.002509,0.126937,-0.049996,314.341433,24.933733,0.999605,0.992541,0.003466,0.370438,-0.000014,-0.000014,0.000003,-0.000011,-0.000017,40.855615,0.000028,
2446,2698,4.07078844432349,1.17000194911773,-0.0326620649261713,0.002639,-0.000825,0.001308,0.115933,-0.026006,319.631913,24.358430,0.999638,0.990343,0.003912,0.365125,-0.000001,-0.000013,-0.000001,-0.000001,-0.000013,-6.558353,0.000016,
2191,2653,-1.46987121946927,0.178468390921722,-0.0239301906570404,0.003005,-0.000776,-0.001469,0.142507,-0.037057,320.613605,24.312835,0.999526,0.990046,0.004021,0.388990,-0.000013,0.000006,0.000015,0.000013,-0.000021,61.479966,0.000021,
2326,3268,1.35437465288892,13.5473748732725,0.00290169857595401,0.002852,-0.000650,-0.000668,0.133456,-0.030116,310.550118,25.682754,0.999521,0.993404,0.003227,0.335637,-0.000006,0.000006,0.000006,0.000008,-0.000008,68.177254,0.000009,
2431,2593,3.76724939621679,-1.12401471559348,-0.00424713867892024,0.002693,-0.000529,0.000592,0.121170,-0.014577,321.558401,23.919348,0.999628,0.991590,0.003820,0.463633,-0.000008,-0.000019,0.000000,-0.000008,-0.000019,1.341610,0.000027,
2356,2188,2.21134445417298,-9.98148990476029,0.0161577448063213,0.002759,-0.000411,-0.001680,0.132094,-0.026148,328.228795,23.092877,0.999230,0.983742,0.005059,0.272462,-0.000023,-0.000003,0.000002,-0.000003,-0.000023,84.537863,0.000028,
2416,2503,3.45689177118782,-3.08690030058126,-0.0226391459173101,0.002968,-0.000487,-0.000849,0.139023,-0.027718,322.861548,23.707542,0.999547,0.990425,0.004008,0.388316,-0.000002,-0.000027,0.000006,-0.000001,-0.000028,12.462234,0.000033,
2251,2908,-0.208228929434188,5.72898479864394,0.000127848518786777,0.002997,-0.000244,-0.004380,0.152252,-0.013576,316.528083,24.755060,0.999760,0.993369,0.003292,0.332723,-0.000015,-0.000002,0.000016,0.000009,-0.000026,56.661565,0.000026,
2146,2443,-2.412827308407,-4.4029801051375,-0.0111568727058398,0.003317,-0.000894,0.002369,0.144952,-0.034518,324.277539,24.236368,0.999139,0.987123,0.004760,0.369820,-0.000018,-0.000033,0.000001,-0.000018,-0.000033,2.269113,0.000052,
2311,3178,1.0472667581183,11.5925469364536,0.0283978371959961,0.002760,-0.001048,0.000809,0.123960,-0.042557,312.241850,25.372774,0.999690,0.993519,0.003409,0.365992,-0.000009,-0.000004,-0.000003,-0.000003,-0.000010,-65.573153,0.000014,
2221,2818,-0.845991997575901,3.77123296699493,-0.0159900105792303,0.002743,-0.000865,0.000401,0.124617,-0.040245,317.898220,24.563461,0.999617,0.991231,0.003762,0.327880,-0.000010,-0.000007,0.000019,0.000011,-0.000028,47.000713,0.000028,
2401,2443,3.14284236293382,-4.3998525694746,0.000836240069531868,0.002536,-0.000386,0.000592,0.113997,-0.002576,323.988105,23.576568,0.999473,0.987642,0.004489,0.388066,-0.000007,-0.000024,0.000023,0.000009,-0.000040,34.932086,0.000042,
2446,2713,4.06754449841445,1.49746762629236,-0.0383878482492719,0.002597,-0.000383,-0.001944,0.126333,-0.010909,319.349816,24.397176,0.999721,0.992170,0.003656,0.394021,-0.000008,-0.000011,-0.000003,-0.000006,-0.000013,-32.205742,0.000019,
2206,2743,-1.1594058297552,2.13976629770109,-0.0284184956532272,0.003171,-0.000575,-0.000129,0.146091,-0.020670,319.074430,24.446618,0.999553,0.990720,0.003847,0.365295,-0.000015,-0.000021,0.000003,-0.000013,-0.000022,24.371236,0.000036,
2371,2293,2.51899665826299,-7.68223246499682,0.0207835622449579,0.002821,-0.000596,0.001844,0.122493,-0.014784,326.567811,23.314832,0.999801,0.994351,0.003405,0.288150,-0.000022,-0.000027,0.000010,-0.000014,-0.000035,39.121684,0.000050,
2326,3283,1.35098794466214,13.8723332056939,-0.00514692352930979,0.002952,-0.000965,0.000236,0.134813,-0.045842,310.237908,25.677048,0.999651,0.994733,0.002919,0.358469,-0.000004,-0.000004,0.000005,0.000001,-0.000009,46.419907,0.000010,
2296,3268,0.704039242691405,13.5434917905169,0.011316609873063,0.002895,-0.000795,-0.000902,0.136168,-0.038345,310.649541,25.476562,0.999628,0.992765,0.003334,0.369014,0.000007,0.000008,0.000001,0.000009,0.000007,57.614883,0.000015,
2161,2473,-2.09138153168768,-3.74757055532386,-0.00933903252268919,0.002972,-0.000282,-0.000286,0.137344,0.001647,323.744034,24.234086,0.999116,0.986296,0.004872,0.391869,-0.000018,-0.000016,0.000012,-0.000005,-0.000029,47.103522,0.000036,
2446,2728,4.06495643018142,1.82284001041718,-0.0320143211912978,0.002590,-0.000872,-0.000637,0.120877,-0.042349,319.154127,24.392635,0.999683,0.991983,0.003622,0.419206,-0.000018,-0.000007,0.000002,-0.000007,-0.000018,80.446396,0.000026,
2251,2923,-0.211703874291921,6.05422708675049,-0.00304656747141507,0.002881,-0.001066,0.002045,0.125548,-0.033155,316.230879,24.704522,0.999680,0.993290,0.003429,0.386645,-0.000017,-0.000001,0.000015,0.000008,-0.000026,58.962756,0.000027,
2281,3073,0.41347401351797,9.31481992871439,-0.00084785099659257,0.002855,-0.000361,-0.004224,0.145503,-0.022895,313.769313,25.114202,0.999567,0.992952,0.003541,0.320164,-0.000011,-0.000008,0.000002,-0.000007,-0.000012,64.904990,0.000019,
2326,3298,1.34802411081458,14.1971586198681,-0.00685596683166523,0.002806,-0.000772,-0.001388,0.133849,-0.030034,309.976306,25.666424,0.999731,0.994879,0.002911,0.417754,-0.000003,-0.000014,0.000008,0.000001,-0.000018,29.075883,0.000020,
2206,2758,-1.16162855623075,2.46548385790241,-0.023691506318869,0.003155,-0.000761,-0.000825,0.147541,-0.027202,318.871953,24.439923,0.999511,0.990519,0.003868,0.382267,-0.000013,-0.000019,0.000008,-0.000008,-0.000024,34.636017,0.000034,
2191,2668,-1.47265927801489,0.505944238861865,-0.0236105613840891,0.002765,-0.000659,-0.001243,0.130838,-0.030927,320.360903,24.392463,0.999748,0.994636,0.003172,0.330571,-0.000011,0.000004,0.000012,0.000011,-0.000018,61.339812,0.000018,
2356,2203,2.20760781638537,-9.65219280105529,0.00747678295334708,0.002893,-0.000679,0.003080,0.121430,-0.024446,327.903647,23.096344,0.999121,0.983261,0.005139,0.312562,-0.000026,0.000004,-0.000001,0.000004,-0.000026,-87.599331,0.000028,
2416,2518,3.45404635916029,-2.76062535456358,-0.0149150377723686,0.002488,-0.000677,-0.000327,0.115018,-0.029430,322.659087,23.707815,0.999382,0.988170,0.004356,0.435002,-0.000005,-0.000025,0.000004,-0.000005,-0.000026,10.616993,0.000033,
2446,2743,4.06283354492275,2.14887744773655,-0.0216074511430406,0.002697,-0.001206,0.000358,0.121969,-0.050443,318.998159,24.461580,0.999620,0.991212,0.003727,0.394352,-0.000019,-0.000002,0.000002,-0.000001,-0.000019,84.536329,0.000023,
2296,3283,0.700983756565432,13.8687693854076,0.00720049066410411,0.002894,-0.000762,-0.001116,0.136940,-0.025642,310.369469,25.492246,0.999511,0.992883,0.003296,0.394572,0.000011,0.000008,0.000000,0.000011,0.000008,-5.733350,0.000019,
2251,2938,-0.214465162215966,6.3795058521782,-0.00515056284871207,0.002945,-0.001103,0.002098,0.128265,-0.044627,315.971825,24.661344,0.999639,0.993840,0.003296,0.441314,-0.000016,0.000005,0.000013,0.000011,-0.000022,64.699403,0.000022,
2221,2833,-0.848700146923751,4.09662864607862,-0.0157960767224949,0.002606,-0.001172,-0.000013,0.119551,-0.049698,317.651178,24.515771,0.999506,0.991353,0.003689,0.385006,-0.000008,-0.000004,0.000023,0.000018,-0.000030,47.869335,0.000030,
2311,3193,1.044923032827,11.9176722414248,0.0311320439421365,0.002945,-0.000949,0.000120,0.134868,-0.040917,312.029915,25.400261,0.999714,0.993695,0.003276,0.371150,-0.000010,-0.000003,-0.000001,-0.000003,-0.000011,-79.744018,0.000014,
2341,1993,1.9204403450724,-14.2609510324093,0.0256274774947656,0.002259,-0.000772,-0.000841,0.106003,-0.059245,331.421253,22.671240,0.998539,0.977402,0.006232,0.220477,0.000019,-0.000090,0.000014,0.000021,-0.000091,7.354925,0.000096,
2281,3088,0.411523418814387,9.63850815991276,0.0126716033926755,0.002731,-0.000936,-0.003039,0.135591,-0.046065,313.628252,25.078172,0.999706,0.992893,0.003570,0.359685,-0.000012,-0.000011,-0.000004,-0.000007,-0.000015,-49.277971,0.000023,
2161,2488,-2.09469967122045,-3.41955305188123,-0.0216253913202991,0.002762,-0.000154,-0.003229,0.136815,0.007443,323.398514,24.190239,0.998949,0.986464,0.004836,0.452915,-0.000019,-0.000009,0.000012,-0.000001,-0.000028,56.101860,0.000032,
2386,2398,2.82452384345329,-5.38488502212135,0.00484386701555195,0.002580,-0.001055,0.003404,0.105648,-0.039520,324.729184,23.451502,0.999275,0.985832,0.004805,0.381297,-0.000005,-0.000014,0.000020,0.000011,-0.000030,38.058752,0.000030,
2356,2218,2.20505970579302,-9.3240418075877,0.0121673234110631,0.002621,-0.000419,0.000565,0.117895,-0.011640,327.697145,23.129434,0.998628,0.979527,0.005726,0.333481,-0.000028,-0.000004,0.000004,-0.000004,-0.000029,79.943090,0.000036,
2446,2758,4.05897043522225,2.47678788373729,-0.031624934185345,0.002668,-0.000811,0.000544,0.120146,-0.034417,318.667467,24.520477,0.999571,0.990003,0.003939,0.404098,-0.000015,0.000006,0.000006,0.000007,-0.000016,75.953803,0.000016,
2296,3298,0.696773907112622,14.1945434022563,-0.00652323497615726,0.002723,-0.001090,0.002356,0.117116,-0.042184,309.988144,25.535715,0.999663,0.994279,0.003124,0.362971,0.000018,-0.000007,0.000001,0.000018,-0.000007,2.531174,0.000019,
2251,2953,-0.216765089305863,6.70678119315145,-0.00408538895578658,0.003108,-0.000910,0.000128,0.142305,-0.038527,315.749361,24.810887,0.999459,0.991824,0.003682,0.320469,-0.000019,0.000003,0.000013,0.000009,-0.000025,65.377844,0.000025,
2341,2008,1.91781576251797,-13.9314770611825,0.0274256874897674,0.002419,-0.000753,0.000739,0.107832,-0.036103,331.196631,22.709281,0.998656,0.975873,0.006360,0.245866,0.000021,-0.000061,0.000032,0.000032,-0.000072,18.961460,0.000072,
2386,2413,2.82192099173502,-5.05664428457211,0.00212672907599654,0.002673,-0.000324,-0.001787,0.128818,-0.026154,324.486557,23.484676,0.999398,0.985087,0.004770,0.406559,-0.000009,-0.000008,0.000028,0.000019,-0.000036,45.245504,0.000036,
2416,2533,3.45124364419065,-2.43242212394988,-0.0160757394692723,0.002787,-0.001130,0.000332,0.126117,-0.062837,322.416785,23.840767,0.999352,0.988805,0.004362,0.317480,-0.000006,-0.000025,0.000000,-0.000006,-0.000025,-0.985769,0.000033,
2221,2848,-0.85150939483615,4.42383939389151,-0.0230536342419327,0.002810,-0.000810,-0.001640,0.134363,-0.025778,317.360612,24.550215,0.999413,0.991592,0.003607,0.393221,-0.000011,-0.000005,0.000022,0.000014,-0.000029,48.946826,0.000029,
2281,3103,0.408929092527835,9.96456234471367,0.00904787134186336,0.003150,-0.000664,-0.002824,0.154262,-0.040956,313.370931,25.126263,0.999639,0.993399,0.003438,0.343380,-0.000010,-0.000011,-0.000002,-0.000009,-0.000012,-37.186486,0.000021,
2161,2503,-2.09766449467985,-3.0916837620819,-0.02827092135675,0.002954,-0.000588,0.000112,0.135235,-0.015527,323.098937,24.219209,0.998913,0.985576,0.004943,0.412446,-0.000015,-0.000011,0.000012,-0.000001,-0.000025,49.956064,0.000029,
2311,3208,1.04226058170558,12.2434669255258,0.0366105282908507,0.002657,-0.000348,0.000097,0.121926,-0.016559,311.816593,25.486202,0.999709,0.993129,0.003304,0.340387,-0.000010,-0.000008,-0.000001,-0.000008,-0.000010,-67.373562,0.000018,
2341,2023,1.9151812192055,-13.6031392193698,0.0270671318156133,0.002526,-0.000643,-0.000253,0.116250,-0.048697,330.961396,22.660379,0.998804,0.977507,0.006080,0.322310,0.000016,-0.000035,0.000031,0.000031,-0.000050,25.359603,0.000050,
2251,2968,-0.219278010112497,7.03318737916354,-0.00511443323745198,0.003142,-0.000273,-0.002690,0.153442,-0.001393,315.506687,24.839117,0.999547,0.993438,0.003436,0.352196,-0.000018,0.000005,0.000015,0.000013,-0.000025,64.116731,0.000025,
2386,2428,2.81893489993807,-4.72849248429701,0.00217603015579471,0.002643,-0.000626,-0.000989,0.124473,-0.035179,324.239484,23.563613,0.999472,0.988205,0.004448,0.363323,-0.000009,-0.000016,0.000027,0.000015,-0.000040,40.898799,0.000040,
2416,2548,3.44766548270347,-2.10498276730298,-0.0185423756100249,0.002549,-0.001272,0.002776,0.106257,-0.047028,322.132671,23.848008,0.999436,0.988754,0.004263,0.374774,-0.000013,-0.000026,-0.000001,-0.000013,-0.000027,-5.861884,0.000040,
2221,2863,-0.854186449333611,4.75046584832182,-0.0250653380340395,0.002762,-0.000455,-0.003513,0.138251,-0.022638,317.103230,24.595890,0.999418,0.992137,0.003502,0.369359,-0.000014,-0.000005,0.000017,0.000008,-0.000027,52.946559,0.000028,
2311,3223,1.039574727895,12.567746147264,0.0340345024760609,0.002791,-0.000849,-0.002015,0.135098,-0.047896,311.562897,25.444850,0.999637,0.993455,0.003198,0.381152,-0.000010,-0.000005,0.000000,-0.000005,-0.000010,-88.288515,0.000015,
2161,2518,-2.10032716943519,-2.76407525217595,-0.0319321280532563,0.003065,-0.000700,0.000725,0.138402,-0.033605,322.828912,24.252024,0.998809,0.986519,0.004854,0.372808,-0.000014,-0.000007,0.000017,0.000007,-0.000028,50.563322,0.000029,
2281,3118,0.405575775514112,10.2901224880498,0.00931640093085662,0.002840,-0.001064,0.001664,0.124807,-0.044508,313.098317,25.166267,0.999774,0.994925,0.003075,0.326439,-0.000007,-0.000006,0.000000,-0.000006,-0.000008,-75.493807,0.000013,
2416,2563,3.44497178929187,-1.77736397905758,-0.0196454900974459,0.002776,-0.000927,0.001343,0.122061,-0.028217,321.895441,23.885692,0.999212,0.985513,0.004492,0.404765,-0.000020,-0.000028,-0.000001,-0.000020,-0.000028,-6.203012,0.000048,
2386,2443,2.81469573814342,-4.39980376012883,-0.00778593490042567,0.002324,-0.000849,0.002068,0.098798,-0.030671,323.887275,23.589619,0.999300,0.988918,0.004465,0.386874,-0.000005,-0.000022,0.000029,0.000017,-0.000044,36.986683,0.000044,
2311,3238,1.03600574776755,12.8943427242161,0.0239853703382664,0.002792,-0.000562,-0.001598,0.133910,-0.027057,311.230727,25.527192,0.999481,0.992478,0.003374,0.350489,-0.000010,-0.000009,-0.000001,-0.000009,-0.000011,-66.270085,0.000020,
2161,2533,-2.10265743749042,-2.43735327130415,-0.0249310857167302,0.002737,-0.000660,0.000516,0.124031,-0.023119,322.630307,24.275756,0.999051,0.987552,0.004468,0.370335,-0.000015,-0.000002,0.000018,0.000010,-0.000027,54.907798,0.000028,
2416,2578,3.44203283753814,-1.4490239992948,-0.0230327811932511,0.002954,-0.001259,-0.000042,0.135137,-0.062845,321.636226,24.027940,0.999482,0.989490,0.004053,0.276211,-0.000018,-0.000013,0.000000,-0.000013,-0.000018,-85.490047,0.000031,
2311,3253,1.03268732666653,13.2202278945567,0.0147290758956728,0.003005,-0.000459,-0.000907,0.141470,-0.008290,310.914195,25.555547,0.999524,0.992418,0.003399,0.371900,-0.000012,0.000000,0.000004,0.000001,-0.000013,73.663175,0.000015,
2386,2458,2.81217926862149,-4.07106692962814,-0.0104155227909928,0.003052,-0.000834,0.003837,0.125869,-0.017703,323.648741,23.685784,0.999360,0.987992,0.004519,0.348293,-0.000005,-0.000019,0.000034,0.000023,-0.000046,39.153624,0.000046,
2311,3268,1.02955256491208,13.545424777596,0.00953983309574369,0.002999,-0.000615,-0.001534,0.143262,-0.024456,310.626412,25.582694,0.999554,0.993377,0.003209,0.359087,-0.000010,0.000007,0.000005,0.000008,-0.000011,75.506579,0.000011,
2161,2548,-2.10516850583876,-2.11125569496311,-0.0225165181831812,0.002616,-0.001082,0.001512,0.115283,-0.033585,322.399510,24.226327,0.999182,0.987621,0.004318,0.420581,-0.000010,0.000005,0.000018,0.000017,-0.000021,56.202401,0.000023,
2416,2593,3.4385640669217,-1.12200642071214,-0.0247299362779358,0.002518,-0.000829,-0.000607,0.117401,-0.039329,321.360569,24.010738,0.999587,0.991506,0.003797,0.365594,-0.000015,-0.000021,0.000000,-0.000015,-0.000021,-0.115999,0.000036,
2161,2563,-2.1069725601446,-1.78441455094067,-0.0149896142518742,0.002738,-0.000814,0.000635,0.123677,-0.023972,322.227750,24.274271,0.998995,0.987108,0.004472,0.392929,-0.000007,0.000003,0.000015,0.000014,-0.000018,54.155565,0.000019,
2416,2608,3.43571630950712,-0.794288677178542,-0.0268821787341835,0.002750,-0.000632,-0.001126,0.130058,-0.022588,321.111130,24.065487,0.999484,0.989606,0.004046,0.376362,-0.000017,-0.000016,-0.000001,-0.000016,-0.000017,-69.478746,0.000033,
