Image X[Pixel],Image Y[Pixel],X[mm],Y[mm],Z[mm],Horizontal Displacement U[mm],Vertical Displacement V[mm],Out-Of-Plane: W[mm],Horizontal: u[Pixel],Vertical: v[Pixel],Horizontal: q[Pixel],Vertical: r[Pixel],Correlation Value 2D,Correlation Value Persp,Sigma,Epipolar Distance,Strain-global frame: Exx,Strain-global frame: Eyy,Strain-global frame: Exy,Maximum Principal Strain: EI,Minimum Principal Strain: EII,Shear Angle Gamma,Von Mises Equivalent Strain,
2011,1993,-5.27942855334302,-14.2513760108131,0.026363370870115,0.005234,0.000859,-0.004052,0.251296,0.025729,332.617500,24.957034,0.998873,0.982504,0.005254,0.341264,-0.000003,-0.000160,-0.000031,0.000003,-0.000166,-10.889483,0.000190,
2056,2218,-4.33277943954407,-9.32127024487961,0.0123843367185827,0.005676,-0.000143,0.001829,0.255484,0.045516,328.631051,24.602779,0.998573,0.982015,0.005290,0.368292,-0.000005,0.000014,0.000025,0.000031,-0.000022,55.838151,0.000032,
2026,2068,-4.96309676191614,-12.6090693214849,0.0327063896992286,0.005529,-0.000700,0.003720,0.243301,0.008909,331.369606,24.745826,0.999708,0.992334,0.003654,0.399648,0.000007,-0.000089,0.000013,0.000009,-0.000091,7.811559,0.000100,
2041,2143,-4.64802239609066,-10.9646431859568,0.0203880844232458,0.005393,-0.000329,0.001190,0.244154,0.024054,329.976345,24.630465,0.998295,0.981875,0.005781,0.414895,-0.000023,-0.000003,0.000016,0.000006,-0.000032,60.856018,0.000033,
2071,2293,-4.01867293564578,-7.68087463399875,0.000261884836163517,0.005337,-0.000256,0.001803,0.239942,0.028861,327.228052,24.439714,0.999798,0.993378,0.003764,0.438776,-0.000008,0.000014,0.000033,0.000038,-0.000032,54.134630,0.000041,
2116,2518,-3.07599147086406,-2.76564477790096,-0.0185846764627513,0.005442,-0.000435,0.002596,0.242427,0.011441,323.225004,24.357541,0.999232,0.987714,0.004382,0.396338,-0.000015,-0.000007,-0.000008,-0.000003,-0.000020,-58.210540,0.000024,
2101,2443,-3.38926491510518,-4.40350263924391,-0.00447144182146531,0.005717,-0.000280,0.004663,0.249133,0.046719,324.629894,24.348136,0.999387,0.987945,0.004401,0.456404,-0.000033,0.000004,0.000000,0.000004,-0.000033,89.463439,0.000036,
2086,2368,-3.70398590446123,-6.04215357218136,-0.00336216956083035,0.005383,-0.000752,0.002272,0.240586,-0.018552,325.914064,24.376058,0.998421,0.981077,0.005464,0.399208,-0.000007,-0.000001,0.000011,0.000008,-0.000016,51.835733,0.000016,
2131,2593,-2.76242210973399,-1.13023780225409,-0.0192704857395256,0.005303,-0.000606,0.007179,0.222334,0.060442,321.920819,24.307625,0.999394,0.990219,0.004208,0.499942,-0.000009,0.000000,-0.000003,0.000001,-0.000010,-74.979962,0.000011,
2266,3268,0.0558270898419941,13.5407823870859,0.0177870990542033,0.005545,-0.000302,0.005539,0.237286,0.030429,310.847294,25.289023,0.999655,0.992992,0.003385,0.461841,-0.000002,0.000041,0.000025,0.000053,-0.000013,65.132544,0.000055,
2161,2743,-2.13498480055638,2.13753571654713,-0.0267028950978556,0.005679,-0.000637,0.003430,0.250726,0.010368,319.337726,24.387684,0.999395,0.989289,0.004158,0.440826,-0.000002,-0.000001,-0.000010,0.000008,-0.000011,-45.463798,0.000011,
2146,2668,-2.44785269176931,0.503793738009179,-0.020610525657105,0.005701,0.000103,0.000036,0.262303,0.047502,320.673731,24.308443,0.999657,0.991616,0.003637,0.511394,0.000005,-0.000008,-0.000006,0.000008,-0.000011,-22.323881,0.000011,
2011,2008,-5.28263842745845,-13.9215638842878,0.0206735073665527,0.005025,-0.000767,0.004577,0.217934,0.008123,332.297078,24.975950,0.998876,0.984086,0.005098,0.297084,0.000018,-0.000121,-0.000005,0.000018,-0.000121,-1.880022,0.000130,
2191,2893,-1.50800584112586,5.39995700132702,-0.0102616857738553,0.005198,-0.000774,0.002782,0.230461,0.002262,316.914845,24.577393,0.999800,0.995058,0.003108,0.396085,0.000002,0.000021,0.000013,0.000027,-0.000005,62.311163,0.000029,
2236,3118,-0.567930441151056,10.2865984476297,0.018643206147658,0.005613,-0.000332,0.003649,0.246837,0.026826,313.380562,24.976774,0.999539,0.992237,0.003655,0.407429,-0.000009,0.000010,0.000006,0.000012,-0.000011,72.608862,0.000013,
2296,2023,0.93487158742283,-13.6027849197515,0.0319003651343337,0.005474,-0.000684,0.004875,0.233863,0.022425,331.138415,22.874693,0.999094,0.981669,0.005451,0.483626,-0.000037,-0.000031,0.000003,-0.000030,-0.000038,67.499315,0.000068,
2041,2158,-4.65152852470402,-10.6333819905314,0.00331532460961625,0.005395,-0.001048,0.005026,0.233432,0.012261,329.582282,24.713718,0.999334,0.986952,0.004726,0.315957,-0.000026,-0.000016,-0.000004,-0.000014,-0.000027,-73.082451,0.000043,
2056,2233,-4.33596732446887,-8.99279898382633,0.00513432187716489,0.005307,-0.000661,0.003629,0.233333,0.031457,328.307828,24.568404,0.999283,0.987886,0.004563,0.386011,-0.000006,0.000004,0.000025,0.000025,-0.000026,50.616451,0.000029,
2416,2623,3.43537540084756,-0.467599063094347,-0.0212433237816185,0.005330,-0.000688,0.004226,0.228961,0.023905,321.013356,24.067176,0.999447,0.988170,0.004139,0.469278,0.000014,0.000007,0.000002,0.000014,0.000007,14.623942,0.000022,
2026,2083,-4.96600748358923,-12.2797537530176,0.0284124774572092,0.005152,-0.000986,0.005232,0.221817,-0.008660,331.072225,24.764057,0.999263,0.986761,0.004633,0.357873,0.000001,-0.000062,0.000016,0.000005,-0.000066,13.864079,0.000073,
2251,3193,-0.25450802494456,11.9127614767565,0.0400528775073781,0.005482,-0.000710,0.005065,0.235914,0.011442,312.290141,25.143365,0.999517,0.992381,0.003477,0.396205,-0.000004,0.000020,0.000013,0.000026,-0.000010,66.016588,0.000027,
2206,2968,-1.19389700518676,7.02965367091505,0.00420283485789241,0.005624,-0.000494,0.004402,0.245055,0.032884,315.783671,24.698026,0.999446,0.990975,0.003764,0.413736,-0.000003,0.000023,0.000011,0.000027,-0.000007,69.686224,0.000028,
2356,2323,2.18666942270743,-7.02496569949124,0.00262565930279379,0.005165,-0.000558,0.005203,0.218261,0.027145,326.021453,23.303410,0.999687,0.994318,0.003653,0.485761,-0.000013,-0.000011,-0.000001,-0.000011,-0.000014,-71.196971,0.000024,
2326,2173,1.56095838446501,-10.3090949954518,0.0169546790252184,0.005231,-0.000791,0.007944,0.212013,0.029212,328.557593,23.238083,0.998767,0.979145,0.005490,0.300153,-0.000019,-0.000011,0.000003,-0.000010,-0.000020,72.391021,0.000030,
2476,2923,4.68247988881636,6.07096496128483,-0.0181934568932434,0.005236,-0.000253,0.002123,0.232401,0.005104,316.262117,25.274901,0.999351,0.986098,0.004453,0.323142,-0.000017,-0.000002,0.000013,0.000005,-0.000025,60.067416,0.000026,
2461,2848,4.37023083590329,4.43826753982357,-0.0306793411431272,0.005606,-0.000643,0.004586,0.240042,0.017304,317.356433,24.889403,0.999752,0.993436,0.003276,0.420078,-0.000024,0.000014,-0.000007,0.000016,-0.000025,-79.566027,0.000025,
2491,2998,4.99532441831581,7.70067728527199,0.00371289779286599,0.005246,-0.000454,0.004511,0.223572,0.004642,315.249098,25.535886,0.999388,0.988131,0.004121,0.384000,0.000002,0.000026,0.000035,0.000051,-0.000023,54.570991,0.000051,
2221,3043,-0.881547671579188,8.65867116041947,0.0107137349702384,0.005107,-0.000559,0.006621,0.213986,0.028625,314.543060,24.835102,0.999740,0.993612,0.003217,0.401138,-0.000001,0.000009,-0.000001,0.000009,-0.000001,-86.682798,0.000010,
2311,2098,1.24789548893766,-11.954552916733,0.0204766442777213,0.005316,-0.000746,0.004011,0.229491,0.021708,329.820294,23.072302,0.999483,0.981192,0.005375,0.362071,-0.000021,-0.000001,0.000014,0.000006,-0.000028,63.024788,0.000030,
2266,3283,0.0524792679259996,13.8659628471197,0.00721537533871697,0.005554,-0.000500,0.003771,0.243511,0.013032,310.518894,25.289711,0.999513,0.992651,0.003415,0.467448,-0.000003,0.000048,0.000026,0.000059,-0.000014,67.120826,0.000061,
2071,2308,-4.02194868056837,-7.35154132513757,-0.0106123048910831,0.005112,-0.000192,0.002943,0.226413,0.019733,326.882300,24.472495,0.999798,0.993078,0.003900,0.396372,-0.000010,0.000004,0.000028,0.000027,-0.000032,51.781044,0.000034,
2011,2023,-5.28412682491588,-13.5931490589995,0.0185711103620747,0.005584,0.000046,0.001026,0.253475,0.008095,332.075331,24.896671,0.998829,0.983381,0.005183,0.367738,0.000015,-0.000185,-0.000019,0.000017,-0.000186,-5.364046,0.000206,
2176,2818,-1.82203483410845,3.77056389807837,-0.0273852449577703,0.005508,-0.000651,0.004861,0.238333,0.008559,318.047910,24.526465,0.999412,0.990738,0.003894,0.366417,-0.000001,0.000014,0.000012,0.000021,-0.000007,61.804858,0.000021,
2101,2458,-3.39211125225708,-4.07589752895095,-0.00826684358440843,0.005533,-0.000439,0.005433,0.238426,0.039649,324.345478,24.345167,0.999390,0.988279,0.004315,0.454936,-0.000030,0.000001,-0.000007,0.000002,-0.000032,-77.871278,0.000036,
2116,2533,-3.07865817826709,-2.43859686413307,-0.0209806908743531,0.005250,-0.000138,0.001316,0.237533,0.020441,322.957686,24.326882,0.999138,0.985767,0.004725,0.440645,-0.000020,0.000003,-0.000007,0.000005,-0.000022,-75.239518,0.000023,
2431,2698,3.74711034671022,1.16973644769556,-0.0207479698218549,0.005117,-0.000599,0.005388,0.214788,0.012008,319.803985,24.451780,0.999769,0.992132,0.003636,0.311613,0.000017,0.000029,-0.000005,0.000030,0.000015,-71.307606,0.000046,
2341,2248,1.87333033120836,-8.66618690899217,0.00472535143933328,0.004965,-0.000868,0.006487,0.204629,0.024555,327.235694,23.231107,0.999067,0.982264,0.005146,0.419082,-0.000011,-0.000015,-0.000001,-0.000011,-0.000015,-6.731305,0.000026,
2371,2398,2.49937560836779,-5.38358897782632,-0.00169425856967109,0.005099,-0.000259,0.003116,0.222677,0.029658,324.781175,23.499618,0.999375,0.987750,0.004637,0.449094,0.000012,0.000013,0.000003,0.000016,0.000009,49.143326,0.000025,
2086,2383,-3.70677232658348,-5.71288706295057,-0.00997083410516098,0.005228,-0.000396,0.000267,0.239398,0.017712,325.615229,24.428213,0.998292,0.981596,0.005425,0.384338,-0.000011,0.000001,0.000006,0.000004,-0.000013,66.958271,0.000014,
2131,2608,-2.76451163484185,-0.803861362976619,-0.0173252833426432,0.005314,-0.000694,0.003956,0.232435,0.011324,321.704677,24.335402,0.999455,0.989647,0.004275,0.429392,-0.000006,0.000001,0.000002,0.000002,-0.000007,75.164042,0.000007,
2446,2773,4.05840847898054,2.80341766117656,-0.0311231128272311,0.005077,-0.000573,0.000718,0.230223,-0.010077,318.537309,24.541070,0.999505,0.988447,0.004306,0.460318,0.000004,0.000017,-0.000005,0.000019,0.000002,-69.819121,0.000022,
2011,2038,-5.28653351228934,-13.2637692189378,0.0143032664630027,0.005635,-0.000149,0.001976,0.253171,0.024899,331.799380,24.870133,0.998342,0.980298,0.005567,0.403014,0.000011,-0.000159,-0.000019,0.000013,-0.000162,-6.298065,0.000180,
2401,2548,3.1241105750099,-2.10587372573386,-0.00680167990083191,0.005364,-0.000854,0.006955,0.220616,0.019847,322.327158,23.863162,0.999426,0.989678,0.004452,0.450633,0.000010,-0.000023,0.000006,0.000011,-0.000024,10.477793,0.000024,
2161,2758,-2.13774285801827,2.46359582869601,-0.0211370337858625,0.005242,-0.000691,0.006214,0.222049,0.018584,319.112065,24.403505,0.999099,0.987127,0.004347,0.443222,-0.000004,-0.000005,-0.000010,0.000006,-0.000014,-43.387531,0.000015,
2041,2173,-4.65330835585726,-10.3064791933877,0.0114578275160966,0.005259,-0.000550,0.003808,0.230734,0.020882,329.406988,24.653863,0.999243,0.988715,0.004453,0.379284,-0.000024,-0.000013,0.000000,-0.000013,-0.000024,-88.669508,0.000037,
2146,2683,-2.45113025700775,0.830888547154771,-0.024110737698777,0.005591,-0.001022,0.006930,0.236027,0.017412,320.375094,24.361317,0.999451,0.990386,0.003815,0.436898,0.000008,-0.000005,-0.000011,0.000014,-0.000011,-30.201785,0.000015,
2386,2473,2.81162881717473,-3.74330518232898,-0.00726308757333527,0.005214,-0.000496,0.004707,0.222104,0.040332,323.527788,23.705882,0.999440,0.988480,0.004473,0.430953,0.000010,-0.000027,0.000015,0.000015,-0.000032,19.113978,0.000032,
2266,3298,0.0498253548845895,14.1914596782278,0.0134274378166879,0.005136,-0.000558,0.003254,0.225907,-0.000106,310.307024,25.410611,0.999593,0.993028,0.003417,0.357157,-0.000001,0.000042,0.000016,0.000047,-0.000007,71.644793,0.000051,
2191,2908,-1.51030407264448,5.7241728381844,-0.00107940627066228,0.005192,-0.000964,0.007964,0.213862,0.011170,316.731464,24.488066,0.999799,0.994720,0.003206,0.508274,0.000002,0.000014,0.000014,0.000024,-0.000008,55.706038,0.000024,
2056,2248,-4.33839306363489,-8.66556279543229,0.00910579000299094,0.005018,-0.000940,0.005625,0.214372,0.010413,328.081307,24.549364,0.999087,0.985427,0.004852,0.381035,-0.000006,0.000021,0.000024,0.000035,-0.000020,59.787338,0.000035,
2296,2038,0.932486136920399,-13.27147959355,0.0342528916931997,0.005309,0.000043,0.000363,0.241829,0.018545,330.923605,23.122582,0.999335,0.984085,0.004982,0.265386,-0.000037,-0.000031,0.000000,-0.000031,-0.000037,-89.904265,0.000067,
2476,2938,4.6798131494011,6.39632196006426,-0.0124518381425673,0.005240,-0.000478,0.003370,0.227810,0.012914,316.060699,25.279067,0.999435,0.989131,0.004017,0.383084,-0.000015,-0.000001,0.000016,0.000009,-0.000026,56.418457,0.000027,
2251,3208,-0.257304014468655,12.2375219952418,0.0387807061475769,0.005239,-0.000947,0.001854,0.235222,0.001597,312.033377,25.127349,0.999753,0.995037,0.003073,0.424411,-0.000002,0.000019,0.000016,0.000027,-0.000011,61.416803,0.000028,
2026,2098,-4.96797975803556,-11.9503074912906,0.0258392149200404,0.005232,-0.000368,0.000433,0.238825,0.008209,330.827008,24.784553,0.999064,0.981371,0.005301,0.347700,-0.000001,-0.000053,0.000014,0.000003,-0.000056,13.960983,0.000063,
2356,2338,2.18378574125186,-6.69501587587221,0.000115986264063395,0.005223,-0.000339,0.003909,0.225586,0.036878,325.764334,23.472341,0.999395,0.989295,0.004374,0.367624,-0.000011,0.000001,0.000002,0.000001,-0.000011,80.829193,0.000012,
2461,2863,4.36739626321799,4.76416459529145,-0.0221088036828405,0.005232,-0.000684,0.006341,0.216220,0.018750,317.159562,24.952020,0.999528,0.991149,0.003658,0.412728,-0.000025,0.000023,-0.000004,0.000023,-0.000026,-85.650703,0.000028,
2221,3058,-0.883274358998513,8.98305235290649,0.0197146935086039,0.005280,-0.000535,0.005183,0.226600,0.034109,314.386429,24.797019,0.999793,0.994258,0.003002,0.462798,0.000000,0.000008,0.000001,0.000008,0.000000,80.619645,0.000009,
2236,3133,-0.571216416883292,10.6125158569067,0.0125154287664486,0.005230,-0.000069,0.000900,0.238169,0.022007,313.075071,25.014107,0.999608,0.992865,0.003632,0.385130,-0.000012,0.000013,0.000009,0.000016,-0.000015,72.347826,0.000017,
2206,2983,-1.19715065649121,7.35635700434845,-0.000836517791071856,0.005225,0.000012,0.002973,0.231375,0.047726,315.482753,24.751348,0.999495,0.991394,0.003642,0.391348,-0.000002,0.000015,0.000011,0.000021,-0.000008,63.268304,0.000021,
2491,3013,4.99197340041875,8.02747137011818,-0.00126367707588315,0.005265,-0.000305,0.003068,0.230109,0.017625,314.967906,25.612870,0.999586,0.992474,0.003528,0.378164,0.000003,0.000026,0.000040,0.000056,-0.000027,52.861464,0.000056,
2326,2188,1.5594104372976,-9.98208411334453,0.0205420592111523,0.005546,-0.000124,-0.000365,0.255262,0.012289,328.389697,23.174014,0.999068,0.982076,0.005248,0.383857,-0.000018,-0.000010,0.000004,-0.000008,-0.000020,67.123158,0.000029,
2311,2113,1.24531264626511,-11.6274079870769,0.0280929931159335,0.005034,-0.001190,0.005814,0.210272,0.004277,329.623776,23.039232,0.999341,0.981565,0.005298,0.412832,-0.000021,-0.000001,0.000012,0.000005,-0.000027,65.280129,0.000029,
2071,2323,-4.02330534277651,-7.02547295614635,0.00409121709202509,0.005392,-0.000747,0.007099,0.227324,0.027510,326.764512,24.449872,0.999251,0.987693,0.004570,0.424907,-0.000007,0.000010,0.000027,0.000030,-0.000027,54.134287,0.000033,
2011,2053,-5.28928108759568,-12.9348787647805,0.0183952354407779,0.005110,-0.001093,0.007210,0.214682,0.010800,331.554851,24.929114,0.999410,0.991470,0.003895,0.321477,0.000011,-0.000145,-0.000028,0.000016,-0.000150,-10.021189,0.000165,
2416,2638,3.43243338117611,-0.139643873553524,-0.0202440903772185,0.005075,-0.000228,0.001925,0.225807,0.013874,320.774215,24.206613,0.999481,0.988391,0.004181,0.368254,0.000007,0.000013,-0.000001,0.000013,0.000007,-83.428990,0.000020,
2101,2473,-3.39507319612866,-3.74839093625104,-0.00851038482687727,0.005130,-0.000807,0.008072,0.212080,0.031947,324.074954,24.371979,0.999377,0.988873,0.004248,0.423213,-0.000027,-0.000005,-0.000005,-0.000004,-0.000028,-78.994022,0.000035,
2431,2713,3.74510503363318,1.49450133930859,-0.0111085995306439,0.005371,-0.000667,0.006339,0.222951,0.023844,319.649431,24.369104,0.999718,0.991659,0.003710,0.456465,0.000014,0.000027,-0.000004,0.000028,0.000013,-76.426916,0.000042,
2086,2398,-3.70878378662494,-5.38577092979186,-0.00717159588145933,0.005404,-0.000263,0.000762,0.246117,0.015239,325.403535,24.418124,0.998767,0.984550,0.004929,0.392553,-0.000017,-0.000003,-0.000002,-0.000003,-0.000018,-82.083078,0.000022,
2116,2548,-3.08142768963873,-2.11151485989098,-0.0234047828950565,0.005314,-0.000531,0.005471,0.228082,0.022794,322.685518,24.310850,0.999160,0.987531,0.004484,0.463580,-0.000016,0.000006,0.000000,0.000006,-0.000016,89.957936,0.000016,
2041,2188,-4.65600247647619,-9.97834042103276,0.0145531413116373,0.004835,-0.000763,0.007648,0.200559,0.042227,329.161808,24.645206,0.999128,0.986334,0.004782,0.404339,-0.000020,0.000013,0.000013,0.000017,-0.000024,71.228323,0.000025,
2026,2113,-4.97070700526712,-11.6208768325692,0.0160342183361308,0.005400,-0.000577,0.002426,0.241070,0.007836,330.507296,24.748123,0.998789,0.978035,0.005778,0.377610,-0.000004,-0.000062,0.000017,0.000001,-0.000067,15.226078,0.000077,
2296,2053,0.929813113444059,-12.9422157409182,0.0293940952988123,0.005679,0.000017,-0.000001,0.259983,0.029279,330.660165,23.094592,0.999324,0.982880,0.005036,0.337545,-0.000035,-0.000019,0.000001,-0.000018,-0.000035,85.411592,0.000054,
2461,2878,4.36381731427358,5.09110356025839,-0.0258201357016787,0.004995,-0.000523,0.006486,0.204924,0.032504,316.871842,25.011264,0.999408,0.991560,0.003725,0.421397,-0.000025,0.000020,0.000005,0.000021,-0.000026,83.370720,0.000027,
2341,2263,1.87073518362248,-8.33803281500527,0.00737308392950808,0.004831,-0.000512,0.004662,0.205010,0.028381,327.015962,23.267318,0.999171,0.983451,0.005000,0.425653,-0.000012,-0.000023,-0.000008,-0.000008,-0.000027,-26.847408,0.000036,
2491,3028,4.98901302143041,8.35343723875842,-0.000908463446364749,0.005541,-0.000274,0.005408,0.233867,0.032276,314.728913,25.652024,0.999696,0.993858,0.003328,0.411787,0.000009,0.000022,0.000034,0.000050,-0.000019,50.693217,0.000051,
2371,2413,2.49687063679654,-5.05512942070177,-0.00268355516953989,0.005368,-0.000279,0.000884,0.242906,0.014931,324.550030,23.597600,0.999534,0.989171,0.004355,0.379056,0.000008,0.000006,0.000007,0.000015,-0.000001,39.468845,0.000017,
2251,3223,-0.259515541401854,12.5622591863066,0.0487759217004964,0.005101,-0.000628,0.003211,0.224560,0.022269,311.860718,25.147132,0.999687,0.994624,0.003177,0.447404,-0.000001,0.000027,0.000017,0.000035,-0.000009,64.319496,0.000036,
2161,2773,-2.14056745602037,2.79055072880716,-0.0281689992077645,0.005305,-0.000792,0.004806,0.229236,0.003897,318.816743,24.429413,0.999444,0.990315,0.003927,0.412830,-0.000003,-0.000005,-0.000007,0.000003,-0.000011,-39.973029,0.000011,
2056,2263,-4.34068958662517,-8.33619437033498,0.00226542484716674,0.005330,-0.000472,0.004333,0.232504,0.044821,327.800638,24.564208,0.999132,0.983938,0.005184,0.397689,-0.000009,0.000021,0.000032,0.000041,-0.000029,57.496326,0.000042,
2131,2623,-2.76701289156852,-0.476602548967932,-0.018584563170748,0.005242,-0.000236,0.002503,0.233616,0.016201,321.452189,24.367417,0.999506,0.989779,0.004119,0.408539,-0.000002,0.000000,0.000001,0.000001,-0.000003,63.198746,0.000003,
2401,2563,3.12060205271104,-1.77774761634344,-0.0132769902215841,0.005313,-0.000668,0.007221,0.217423,0.036047,322.025921,23.901815,0.999281,0.987864,0.004436,0.474828,0.000007,-0.000016,0.000002,0.000007,-0.000016,6.109823,0.000016,
2446,2788,4.05598977629199,3.13040861393998,-0.0259302969921009,0.005382,-0.000145,0.002542,0.237639,0.018429,318.343207,24.631866,0.999485,0.988590,0.004158,0.450146,0.000001,0.000019,-0.000009,0.000023,-0.000003,-67.683306,0.000025,
2386,2488,2.80875972033884,-3.41602978590652,-0.00432036728284402,0.005326,-0.000813,0.008781,0.212541,0.038315,323.299669,23.744354,0.999442,0.988554,0.004327,0.434881,0.000009,-0.000026,0.000014,0.000014,-0.000031,19.616186,0.000031,
2011,2068,-5.29063488121396,-12.6075036717683,0.0245254990281865,0.005375,-0.000659,0.004544,0.234212,0.018177,331.385462,24.855949,0.999414,0.991015,0.003958,0.393209,0.000010,-0.000107,-0.000012,0.000011,-0.000108,-5.721186,0.000118,
2476,2953,4.6770963287126,6.72189576437572,-0.00834330116077808,0.005173,-0.000523,0.002727,0.227188,0.016287,315.849429,25.299616,0.999320,0.989059,0.004117,0.421775,-0.000007,0.000001,0.000024,0.000021,-0.000027,49.721970,0.000028,
2281,1993,0.612487719592597,-14.2594634426638,0.0356801795963975,0.005207,-0.000877,0.005907,0.218311,0.024465,331.650479,23.104650,0.999466,0.969916,0.006565,0.294510,-0.000030,-0.000045,-0.000010,-0.000025,-0.000050,-25.668498,0.000076,
2176,2833,-1.82486163591649,4.09625976712762,-0.0283403266660116,0.005659,-0.001077,0.010385,0.228016,0.009850,317.785947,24.487009,0.999630,0.993935,0.003425,0.419433,0.000000,0.000021,0.000018,0.000031,-0.000010,60.336873,0.000032,
2326,2203,1.55592627782966,-9.65286704712499,0.0187045712762028,0.005165,-0.000399,0.002061,0.229379,0.013090,328.106319,23.242030,0.999154,0.981606,0.005442,0.354101,-0.000018,0.000003,0.000004,0.000004,-0.000019,79.986912,0.000020,
2191,2923,-1.51261241115666,6.05167956238154,-0.00289130527551151,0.005516,-0.000632,0.006943,0.232140,0.029350,316.489321,24.616651,0.999403,0.991172,0.003806,0.411671,-0.000002,0.000014,0.000013,0.000021,-0.000009,60.678451,0.000021,
2311,2128,1.24240722100092,-11.296118777011,0.021942303522394,0.004774,-0.000185,-0.001835,0.224803,0.006074,329.344420,23.220488,0.999299,0.983202,0.005113,0.268695,-0.000021,-0.000004,0.000008,-0.000001,-0.000024,68.292479,0.000028,
2236,3148,-0.572977645102579,10.9368688568508,0.0252292788450745,0.005420,-0.000117,0.003568,0.238293,0.036830,312.936520,25.006735,0.999322,0.991112,0.003829,0.427356,-0.000011,0.000010,0.000010,0.000014,-0.000015,69.170247,0.000017,
2221,3073,-0.885859780905509,9.30891268566819,0.0196250737164974,0.005220,-0.000447,0.003534,0.229204,0.031095,314.143076,24.848050,0.999634,0.993133,0.003300,0.426628,-0.000002,0.000014,0.000004,0.000015,-0.000002,77.379335,0.000016,
2146,2698,-2.45400800148574,1.15809324459924,-0.0299463833349591,0.005493,-0.000604,0.005689,0.235471,0.040552,320.082211,24.357146,0.999485,0.990018,0.003908,0.472398,0.000011,-0.000010,-0.000011,0.000015,-0.000014,-23.185253,0.000017,
2431,2728,3.74203381485352,1.82086020433121,-0.0155945266442359,0.005548,-0.000783,0.005290,0.234925,0.015578,319.379939,24.342696,0.999723,0.992072,0.003610,0.524928,0.000007,0.000015,0.000000,0.000015,0.000007,-88.691288,0.000022,
2041,2203,-4.65829850941936,-9.64928303229089,0.00573489863285204,0.005016,-0.000565,0.002898,0.222121,0.011191,328.869091,24.652665,0.998693,0.983417,0.005221,0.361294,-0.000020,0.000019,0.000015,0.000024,-0.000025,71.316627,0.000029,
2071,2338,-4.02524591198285,-6.6979315924084,0.00575180390427477,0.005275,-0.000070,0.001143,0.239109,0.052989,326.548470,24.418988,0.998810,0.985395,0.004874,0.480198,-0.000010,0.000002,0.000022,0.000018,-0.000026,52.344030,0.000027,
2026,2128,-4.97361167203959,-11.2920924636689,0.0164421567528734,0.004903,-0.000877,0.006448,0.207130,0.028983,330.236224,24.748464,0.998877,0.977762,0.005918,0.391917,-0.000015,-0.000047,0.000023,-0.000003,-0.000059,27.358434,0.000070,
2416,2653,3.42977728438211,0.186753242352118,-0.0144405001466907,0.005487,-0.000921,0.009248,0.217749,0.031133,320.570854,24.220529,0.999524,0.988403,0.004268,0.419567,0.000007,0.000019,0.000003,0.000019,0.000007,77.939818,0.000027,
2356,2353,2.18151030506464,-6.36993272137267,0.00269616352659341,0.005532,-0.000620,0.003491,0.241101,0.007529,325.560413,23.290162,0.999431,0.989467,0.004468,0.560863,-0.000005,0.000000,0.000009,0.000007,-0.000012,53.512187,0.000012,
2101,2488,-3.39745320345432,-3.42184810844837,-0.0116461410976854,0.005100,-0.000739,0.004637,0.220743,0.004657,323.815756,24.308463,0.999239,0.988952,0.004231,0.461992,-0.000023,-0.000006,-0.000004,-0.000005,-0.000024,-77.901571,0.000031,
2206,2998,-1.1996920086473,7.68141259740108,0.000559603028364108,0.005434,-0.000587,0.006489,0.229654,0.032802,315.248402,24.731088,0.999478,0.991154,0.003748,0.412553,-0.000002,0.000019,0.000008,0.000022,-0.000005,70.684835,0.000023,
2401,2578,3.11751012016883,-1.44981072966213,-0.0169438277614518,0.005157,-0.000715,0.003689,0.223041,0.010006,321.757120,23.995467,0.999314,0.987445,0.004457,0.401703,0.000008,0.000003,0.000005,0.000011,0.000000,30.211160,0.000013,
2461,2893,4.36095855882088,5.41771116812884,-0.0199504625443296,0.004759,-0.000722,0.007454,0.190386,0.034886,316.661162,25.125794,0.999158,0.989302,0.004138,0.363105,-0.000024,0.000016,0.000009,0.000018,-0.000026,77.457219,0.000026,
2491,3043,4.98587234016664,8.67986610733817,-0.00249605065977221,0.005583,-0.000483,0.005127,0.236817,0.022099,314.472643,25.749977,0.999716,0.993060,0.003544,0.361891,0.000014,0.000014,0.000030,0.000044,-0.000015,44.999628,0.000045,
2116,2563,-3.083768149801,-1.78430533728162,-0.0201869065100482,0.005206,-0.000585,0.005926,0.221768,0.022198,322.463236,24.364093,0.999124,0.987895,0.004572,0.413934,-0.000010,0.000000,-0.000002,0.000000,-0.000010,-79.555789,0.000012,
2011,2083,-5.29362629952611,-12.277774609953,0.0198330692845161,0.004947,-0.000853,0.006695,0.208713,0.023627,331.080529,24.884800,0.998675,0.984118,0.005216,0.361529,0.000002,-0.000083,-0.000002,0.000002,-0.000083,-1.661742,0.000094,
2341,2278,1.8675140487893,-8.00961249679969,0.00689867459379911,0.004622,-0.000662,0.006873,0.187691,0.038447,326.752336,23.294937,0.999069,0.983149,0.005093,0.447047,-0.000013,-0.000013,-0.000012,-0.000001,-0.000025,-44.799392,0.000030,
2086,2413,-3.71070864195125,-5.05939669678673,-0.00081139788829887,0.005657,-0.000799,0.004642,0.246415,0.004902,325.215347,24.386387,0.998969,0.985649,0.004636,0.414205,-0.000021,-0.000005,0.000005,-0.000004,-0.000022,74.906733,0.000028,
2296,2068,0.927234329500255,-12.613767087119,0.0331961680733457,0.005727,-0.000294,0.002672,0.253079,0.031950,330.443846,23.102548,0.999336,0.982930,0.005050,0.365522,-0.000031,-0.000014,0.000008,-0.000011,-0.000034,67.793983,0.000047,
2056,2278,-4.34297037104597,-8.0068295212759,-0.00198583156628729,0.005427,-0.000178,0.001814,0.244186,0.027374,327.535138,24.662685,0.999669,0.991163,0.004102,0.278656,-0.000018,0.000017,0.000031,0.000035,-0.000036,59.638557,0.000041,
2476,2968,4.67491997597013,7.04828624811918,-0.00287181427654559,0.005413,-0.000263,0.000605,0.246388,0.016372,315.668959,25.411638,0.999457,0.990465,0.003934,0.365908,-0.000006,0.000020,0.000026,0.000036,-0.000022,58.559923,0.000036,
2281,2008,0.610153710214494,-13.9299973692471,0.0326213961318444,0.005533,-0.000208,0.002637,0.244377,0.042491,331.410055,23.090342,0.999469,0.983197,0.005105,0.358417,-0.000036,-0.000039,0.000002,-0.000034,-0.000040,27.997208,0.000075,
2446,2803,4.05292727364152,3.45755619809597,-0.0265381816454919,0.005503,-0.000578,0.004131,0.237135,0.013098,318.092701,24.730076,0.999637,0.990031,0.003852,0.398799,-0.000003,0.000018,-0.000008,0.000021,-0.000006,-72.481499,0.000021,
2026,2143,-4.97501723131559,-10.9646172922382,0.0185863680342209,0.005542,-0.000764,0.006299,0.236952,0.027058,330.043596,24.676111,0.998380,0.978414,0.005870,0.455257,-0.000008,0.000004,0.000024,0.000023,-0.000027,51.701483,0.000029,
2161,2788,-2.14243584842164,3.11694176440973,-0.025531629454008,0.005518,-0.000184,0.001068,0.250728,0.010902,318.616337,24.462194,0.999564,0.990566,0.003955,0.397034,-0.000003,-0.000002,0.000000,-0.000002,-0.000003,-82.882336,0.000004,
2386,2503,2.80627519730526,-3.08791508745104,-0.00204473213074152,0.005443,-0.000410,0.007313,0.223340,0.049814,323.085786,23.844573,0.999612,0.989833,0.004031,0.390508,0.000007,-0.000021,0.000011,0.000010,-0.000025,18.413375,0.000025,
2371,2428,2.49370529453628,-4.7285901855167,-0.00637532544305941,0.005476,-0.000510,0.002573,0.241805,0.020331,324.275886,23.479357,0.999673,0.992890,0.003949,0.545488,0.000010,-0.000004,0.000008,0.000013,-0.000008,23.048384,0.000013,
2176,2848,-1.82691119878929,4.42185338313965,-0.0218986175497093,0.005430,-0.000954,0.006216,0.230499,0.005099,317.598429,24.503829,0.999346,0.991660,0.003679,0.409645,0.000000,0.000020,0.000019,0.000032,-0.000011,58.581904,0.000032,
2011,2098,-5.29573935400497,-11.9473577782765,0.011351910888834,0.005182,0.000114,0.001405,0.234085,0.050386,330.794255,24.919548,0.998485,0.978610,0.005817,0.344949,0.000001,-0.000079,-0.000003,0.000001,-0.000079,-2.218421,0.000090,
2311,2143,1.24059172306461,-10.9679544548063,0.0279098765903427,0.005644,-0.000519,0.003379,0.246813,0.034291,329.174518,23.226554,0.999322,0.983815,0.005156,0.325722,-0.000024,-0.000010,0.000004,-0.000009,-0.000025,75.539528,0.000035,
2236,3163,-0.575615587630821,11.2615516392581,0.026878672735279,0.005329,-0.000357,0.003573,0.234088,0.032573,312.700974,24.984536,0.999447,0.990796,0.003797,0.465243,-0.000006,0.000012,0.000009,0.000016,-0.000010,67.503145,0.000016,
2461,2908,4.35911017838964,5.7431455055368,-0.0144847102995413,0.005115,-0.000450,0.003048,0.223433,0.023172,316.495399,25.146768,0.999051,0.987583,0.004424,0.384655,-0.000024,0.000008,0.000015,0.000014,-0.000031,68.172305,0.000031,
2026,2158,-4.97747124893288,-10.6344893799539,0.0162196098246454,0.005512,-0.001322,0.007544,0.232002,0.002697,329.777671,24.824964,0.999233,0.985981,0.004780,0.275436,-0.000013,-0.000014,0.000000,-0.000013,-0.000014,3.225777,0.000028,
2416,2668,3.42705957961717,0.514450123865643,-0.0166329468165713,0.005573,-0.000666,0.005219,0.236498,0.008077,320.327051,24.331347,0.999449,0.988193,0.004391,0.334112,0.000008,0.000019,0.000000,0.000019,0.000008,-87.708962,0.000027,
2146,2713,-2.45682866605651,1.48481855777111,-0.0293315970372419,0.005091,-0.000617,0.005397,0.217810,0.022042,319.826366,24.408132,0.999517,0.991247,0.003930,0.411003,0.000014,-0.000004,-0.000012,0.000020,-0.000010,-26.207209,0.000020,
2131,2638,-2.76803723652094,-0.151616360246983,-0.00221731210172038,0.005537,-0.000508,0.001760,0.249381,0.014108,321.361999,24.351591,0.999744,0.992637,0.003478,0.428065,0.000003,-0.000009,0.000000,0.000003,-0.000009,0.738425,0.000009,
2056,2293,-4.34506657105469,-7.68140250199536,0.00561279627163458,0.005159,-0.000434,0.002473,0.229917,0.017950,327.343972,24.518410,0.999868,0.994201,0.003521,0.410246,-0.000012,0.000014,0.000043,0.000045,-0.000044,53.414356,0.000051,
2251,3238,-0.262515778709332,12.8868952292336,0.0436983498016161,0.005215,-0.000612,0.004035,0.227029,0.001144,311.575218,25.116502,0.999801,0.995834,0.002857,0.478728,-0.000001,0.000027,0.000018,0.000036,-0.000010,63.890124,0.000037,
2431,2743,3.73865287732768,2.1485676196061,-0.0166349802700552,0.005342,-0.001088,0.006651,0.220326,0.004857,319.111819,24.475362,0.999594,0.990414,0.003854,0.431605,0.000003,0.000013,0.000000,0.000013,0.000003,88.886607,0.000017,
2191,2938,-1.51480177356689,6.3771063281399,0.001355789518243,0.005401,-0.000491,0.003922,0.236404,0.023090,316.284869,24.625578,0.999443,0.992416,0.003619,0.410574,-0.000002,0.000015,0.000012,0.000022,-0.000009,62.802157,0.000022,
2116,2578,-3.08594280322544,-1.45773010353441,-0.0158886166892671,0.005190,-0.000611,0.006347,0.219802,0.022662,322.254507,24.371877,0.999372,0.989858,0.004206,0.410843,-0.000010,-0.000004,-0.000005,-0.000001,-0.000013,-57.624594,0.000016,
2071,2353,-4.02848665688874,-6.36963336206369,0.00353687749566234,0.004824,-0.000892,0.006654,0.202506,0.047201,326.251809,24.455602,0.998539,0.982068,0.005301,0.436600,-0.000014,-0.000002,0.000024,0.000016,-0.000032,51.691221,0.000032,
2326,2218,1.55317153933537,-9.32493706416423,0.0204689958744666,0.005411,-0.000930,0.006841,0.224057,0.027082,327.873938,23.222180,0.998734,0.978896,0.005765,0.424885,-0.000015,0.000001,-0.000002,0.000001,-0.000016,-82.369415,0.000017,
2341,2293,1.8654260023001,-7.6806081777976,0.00404747454962262,0.005373,-0.000577,0.004389,0.230820,0.025042,326.529107,23.380489,0.999047,0.985362,0.004810,0.386677,-0.000009,-0.000002,-0.000008,0.000003,-0.000015,-57.204481,0.000016,
2446,2818,4.05025463100088,3.78324803847742,-0.0255113526757214,0.005425,0.000055,0.000311,0.248082,0.028281,317.867904,24.690789,0.999543,0.989769,0.004002,0.505328,-0.000010,0.000014,-0.000008,0.000017,-0.000013,-73.197480,0.000017,
2041,2218,-4.66025251567326,-9.32120384415328,0.00406977687731569,0.005345,-0.000296,0.002186,0.239341,0.008603,328.631566,24.623294,0.998027,0.977108,0.005874,0.382988,-0.000013,0.000010,0.000026,0.000026,-0.000029,56.718343,0.000032,
2206,3013,-1.20181418683962,8.00639626848237,0.00719334302948482,0.005469,-0.000692,0.006688,0.230617,0.019703,315.060424,24.741352,0.999438,0.990795,0.003777,0.405088,-0.000001,0.000018,0.000005,0.000019,-0.000002,76.674928,0.000020,
2491,3058,4.98371201751322,9.00424092135937,0.00847914443716036,0.005470,-0.000638,0.003989,0.235919,0.005771,314.318776,25.750518,0.999684,0.991622,0.003831,0.402537,0.000020,0.000018,0.000022,0.000041,-0.000003,43.312457,0.000046,
2401,2593,3.11478552367759,-1.12295220771919,-0.0150165893751932,0.005325,-0.000677,0.005300,0.224934,0.010613,321.531586,24.017263,0.999425,0.989049,0.004224,0.426675,0.000013,0.000001,0.000004,0.000014,-0.000001,18.144014,0.000016,
2281,2023,0.607083513916418,-13.6003083886139,0.0274574844820563,0.005478,0.000009,0.002057,0.243923,0.038667,331.125579,23.100477,0.999227,0.982017,0.005360,0.376044,-0.000038,-0.000030,0.000009,-0.000024,-0.000044,55.641375,0.000069,
2101,2503,-3.3999335644508,-3.09388785669792,-0.0122283060040331,0.005097,-0.000809,0.005585,0.217850,0.012374,323.565269,24.368255,0.999246,0.989309,0.004134,0.412170,-0.000019,-0.000004,-0.000006,-0.000002,-0.000021,-70.585133,0.000025,
2356,2368,2.17835974302604,-6.03941519933316,0.000446088390049226,0.005592,-0.000385,0.005896,0.235564,0.039326,325.292002,23.502098,0.999160,0.985260,0.004818,0.421592,-0.000004,0.000003,0.000015,0.000015,-0.000015,51.543813,0.000017,
2086,2428,-3.71334973601842,-4.73127106969109,-0.00311391765154667,0.005542,-0.000596,0.005263,0.239421,0.022882,324.946872,24.409154,0.999155,0.986787,0.004509,0.409982,-0.000026,-0.000001,0.000016,0.000006,-0.000033,63.874792,0.000036,
2461,2923,4.3559197614472,6.06997843628444,-0.016465146490134,0.005237,-0.000366,0.004558,0.223398,0.030512,316.233284,25.228066,0.999367,0.989411,0.004137,0.364612,-0.000017,-0.000003,0.000015,0.000007,-0.000026,58.091720,0.000027,
2296,2083,0.923498533838117,-12.2832181575841,0.0260079491200713,0.005297,-0.000365,0.003374,0.231071,0.024076,330.120167,23.196510,0.999357,0.983217,0.005075,0.297511,-0.000026,-0.000012,0.000012,-0.000005,-0.000033,59.820472,0.000041,
2011,2113,-5.29690586182188,-11.6205867863316,0.0179308751394274,0.005671,-0.000263,-0.000351,0.261213,0.011995,330.636368,24.857171,0.998660,0.980210,0.005658,0.359572,-0.000004,-0.000097,0.000007,-0.000004,-0.000097,4.213293,0.000115,
2026,2173,-4.97946169426833,-10.3068142087741,0.0171103893704299,0.005399,-0.000745,0.003282,0.238699,0.002578,329.551386,24.766217,0.999229,0.987879,0.004498,0.326792,-0.000006,-0.000010,0.000002,-0.000005,-0.000011,22.468643,0.000016,
2476,2983,4.67108363511187,7.37528462189028,-0.00851420242952372,0.005223,-0.000217,0.002135,0.231874,0.018700,315.361247,25.504946,0.999439,0.989523,0.004049,0.331070,-0.000001,0.000024,0.000029,0.000043,-0.000020,56.623465,0.000043,
2386,2518,2.8033346256774,-2.76079824998197,-0.00763585802064881,0.005395,-0.000006,0.001793,0.241105,0.035611,322.813896,23.812654,0.999514,0.988505,0.004334,0.452753,0.000008,-0.000019,0.000006,0.000009,-0.000020,12.031242,0.000020,
2176,2863,-1.82877078111384,4.74716027561961,-0.0139503958418459,0.005395,-0.000703,0.003601,0.237063,0.001772,317.427606,24.507428,0.998887,0.988072,0.004168,0.414805,0.000000,0.000015,0.000014,0.000023,-0.000008,58.925609,0.000024,
2371,2443,2.4907205993183,-4.40000058392768,0.00159979696911705,0.005057,-0.000684,0.006585,0.208318,0.022675,324.065294,23.666656,0.999301,0.987755,0.004542,0.402675,0.000015,-0.000019,0.000010,0.000017,-0.000022,14.733429,0.000023,
2116,2593,-3.08796348385376,-1.1321625992648,-0.0113980558330695,0.005233,-0.000720,0.005543,0.224169,0.015298,322.054161,24.300881,0.999544,0.991034,0.003983,0.478610,-0.000010,0.000000,-0.000002,0.000001,-0.000011,-78.580274,0.000012,
2131,2653,-2.77115006966936,0.175959262618647,-0.013926863880215,0.005512,-0.000419,-0.000162,0.253980,0.000446,321.025719,24.352052,0.999704,0.991156,0.003685,0.420494,0.000002,-0.000006,-0.000001,0.000002,-0.000006,-10.183214,0.000007,
2161,2803,-2.14464699246004,3.44262014350932,-0.0197424502662216,0.005451,-0.000337,0.001386,0.246676,0.017705,318.417033,24.458063,0.999627,0.991641,0.003722,0.417960,-0.000001,-0.000001,0.000003,0.000002,-0.000004,43.755015,0.000004,
2056,2308,-4.34707273589917,-7.35362131840959,0.00754797768041726,0.005461,-0.000633,0.005049,0.236545,0.025355,327.125255,24.519821,0.999664,0.990763,0.004106,0.412624,-0.000014,0.000004,0.000038,0.000034,-0.000043,51.514248,0.000046,
2416,2683,3.42426242781668,0.840903145037529,-0.0144060606544372,0.005539,-0.000374,0.005206,0.235139,0.030463,320.100336,24.323944,0.999410,0.986246,0.004689,0.411925,0.000010,0.000030,0.000000,0.000030,0.000010,89.996707,0.000042,
2026,2188,-4.9821717299631,-9.97831710102015,0.0139817554689898,0.005055,-0.000547,0.003004,0.223727,0.024061,329.269675,24.723881,0.999195,0.986419,0.004755,0.383741,-0.000002,0.000018,0.000016,0.000027,-0.000011,60.985230,0.000027,
2311,2158,1.23782126429714,-10.6402932046324,0.0284842085035848,0.005766,-0.000857,0.006032,0.243277,0.025678,328.934694,23.170559,0.999353,0.985512,0.005055,0.408116,-0.000027,-0.000017,-0.000002,-0.000017,-0.000027,-79.833558,0.000044,
2071,2368,-4.03028578515151,-6.04208116296297,0.000555444240092129,0.005412,-0.001040,0.005003,0.234190,0.009180,326.017164,24.453803,0.997838,0.979758,0.005716,0.399097,-0.000010,0.000000,0.000022,0.000017,-0.000027,51.370476,0.000028,
2326,2233,1.54943433365275,-8.99561680650039,0.0158831134876891,0.004871,-0.000795,0.007788,0.196141,0.022170,327.565493,23.287755,0.998294,0.974884,0.006265,0.391394,-0.000016,-0.000004,-0.000002,-0.000004,-0.000017,-80.293243,0.000022,
2221,3088,-0.888621625384989,9.63468276345793,0.0159254792488355,0.005304,-0.000407,0.002822,0.235345,0.025375,313.873051,24.874565,0.999398,0.993047,0.003393,0.412308,-0.000004,0.000011,0.000003,0.000012,-0.000004,78.787753,0.000012,
2236,3178,-0.577658242403171,11.5860358725187,0.0372729801966329,0.005310,-0.000586,0.004894,0.228763,0.012764,312.537576,25.014979,0.999415,0.991350,0.003671,0.434950,-0.000005,0.000018,0.000010,0.000021,-0.000009,69.347289,0.000022,
2446,2833,4.04793019139141,4.11131756917945,-0.0199834824944105,0.005654,-0.000193,0.000245,0.258852,0.044127,317.679236,24.907764,0.999679,0.992217,0.003591,0.356262,-0.000011,0.000014,-0.000007,0.000016,-0.000013,-75.161043,0.000017,
2251,3253,-0.266089865859612,13.2138615485006,0.0300621420193465,0.005278,-0.000438,0.003511,0.231815,0.020813,311.218903,25.216845,0.999687,0.993834,0.003239,0.419924,-0.000003,0.000028,0.000023,0.000040,-0.000015,62.394722,0.000041,
2401,2608,3.11216770602392,-0.795204228743977,-0.0177210183431384,0.005349,-0.000267,-0.000940,0.248841,0.011850,321.288910,24.084633,0.999413,0.989157,0.004168,0.406745,0.000009,-0.000002,0.000005,0.000011,-0.000004,21.525391,0.000011,
2491,3073,4.98058256879179,9.32965347507595,0.00812706909505323,0.005506,-0.000608,0.004812,0.234458,0.012144,314.068716,25.753813,0.999629,0.991055,0.003905,0.463912,0.000023,0.000024,0.000021,0.000044,0.000003,45.723907,0.000053,
2431,2758,3.73591320421429,2.47588549905584,-0.0196698607707049,0.005508,-0.000480,0.002782,0.242509,0.016709,318.863888,24.538458,0.999497,0.989071,0.004053,0.430615,0.000004,0.000017,-0.000003,0.000017,0.000004,-79.170502,0.000022,
2476,2998,4.66849558358204,7.70007910849493,-0.000815980786171622,0.005355,-0.000486,0.005970,0.223265,0.017495,315.172219,25.493955,0.999374,0.989569,0.003979,0.396611,-0.000001,0.000019,0.000035,0.000046,-0.000028,52.897734,0.000046,
2461,2938,4.35356888143584,6.39591305294432,-0.0147273505792782,0.005594,-0.000310,0.002497,0.247598,0.022152,316.027030,25.272980,0.999438,0.990879,0.004017,0.365182,-0.000014,0.000001,0.000015,0.000011,-0.000024,58.726593,0.000024,
2011,2128,-5.29957358410746,-11.290709927626,0.0115220792409332,0.005651,-0.000505,0.001367,0.255589,0.038987,330.336510,24.877103,0.998605,0.979102,0.005868,0.358134,-0.000018,-0.000077,0.000018,-0.000013,-0.000082,15.729140,0.000103,
2341,2308,1.86332533681786,-7.35311190378046,0.0125560571521532,0.005456,-0.000811,0.004733,0.233350,0.007006,326.360433,23.451809,0.998397,0.981111,0.005293,0.335674,-0.000011,-0.000003,-0.000003,-0.000002,-0.000012,-71.448031,0.000015,
2281,2038,0.603431460754582,-13.2692690588319,0.0168341865609705,0.005349,-0.000376,0.002740,0.235638,0.010029,330.787322,23.203480,0.999323,0.984436,0.004979,0.276271,-0.000035,-0.000027,0.000006,-0.000024,-0.000038,62.130948,0.000062,
2101,2518,-3.40234323370913,-2.76609578817161,-0.0173995146905099,0.005418,-0.000925,0.005908,0.231668,0.015874,323.293301,24.380441,0.999585,0.992745,0.003600,0.405847,-0.000017,-0.000008,-0.000004,-0.000007,-0.000019,-68.358273,0.000027,
2191,2953,-1.5175022259091,6.70245068125161,0.0052935531622893,0.005182,-0.000684,0.006496,0.218208,0.029178,316.055341,24.616131,0.999423,0.991954,0.003636,0.439993,0.000000,0.000017,0.000011,0.000022,-0.000006,63.793293,0.000023,
2041,2233,-4.66239054223305,-8.99245350689755,0.00475367295712203,0.005435,-0.000527,0.002725,0.241922,0.013388,328.398452,24.677525,0.999075,0.983459,0.005102,0.328565,-0.000012,-0.000005,0.000023,0.000015,-0.000032,49.180439,0.000032,
2086,2443,-3.7164982493848,-4.4026851281016,-0.0131885969899486,0.005190,-0.000385,0.002341,0.231745,0.022047,324.612948,24.425442,0.999358,0.987583,0.004456,0.393817,-0.000027,0.000004,0.000010,0.000008,-0.000030,73.242390,0.000031,
2206,3028,-1.20437481995637,8.33210696961664,0.00849279235308131,0.005403,-0.000440,0.006371,0.228687,0.034359,314.824408,24.758671,0.999625,0.992913,0.003466,0.418524,0.000003,0.000013,0.000001,0.000013,0.000003,86.625868,0.000017,
2146,2728,-2.45863084946547,1.81016334823308,-0.0197185552320889,0.005151,-0.000509,0.005764,0.219504,0.023659,319.665265,24.388948,0.999450,0.990014,0.004086,0.439639,0.000011,0.000000,-0.000012,0.000019,-0.000008,-32.849707,0.000019,
2296,2098,0.92044117522773,-11.9539580775071,0.0217597116443358,0.005362,-0.000628,0.004619,0.229752,0.016422,329.842116,23.211255,0.999203,0.980745,0.005389,0.308305,-0.000024,-0.000011,0.000007,-0.000008,-0.000027,67.525809,0.000037,
2131,2668,-2.77154337531799,0.499723448132528,0.00716177900613957,0.006112,0.000098,-0.001088,0.284588,0.037212,320.989898,24.231182,0.999683,0.991537,0.003704,0.583713,0.000005,-0.000006,-0.000002,0.000006,-0.000006,-11.756651,0.000007,
2026,2203,-4.98499408795655,-9.6491764263608,0.00108366960881767,0.005231,-0.000833,0.003407,0.230674,0.010647,328.928594,24.678556,0.999016,0.985228,0.005026,0.409265,-0.000004,0.000022,0.000018,0.000031,-0.000013,62.634395,0.000031,
2116,2608,-3.09047848909917,-0.804590586534367,-0.0188071364906364,0.005344,-0.000527,0.001380,0.241646,0.005427,321.766794,24.317975,0.999278,0.988126,0.004447,0.455826,-0.000007,0.000001,0.000003,0.000002,-0.000008,72.555420,0.000008,
2356,2383,2.17491404676415,-5.71012749182116,-0.00249929331044996,0.005305,-0.000756,0.006978,0.218473,0.028564,325.007016,23.642743,0.999366,0.982264,0.005045,0.310791,0.000000,0.000008,0.000008,0.000014,-0.000005,57.189538,0.000014,
2251,3268,-0.269904031560557,13.5396094014893,0.0157013514120194,0.005150,-0.000325,0.002971,0.227747,0.026369,310.848245,25.220585,0.999552,0.992130,0.003543,0.443847,-0.000008,0.000031,0.000023,0.000041,-0.000018,65.078886,0.000041,
2176,2878,-1.83094591819134,5.07310297964074,-0.00644986558125993,0.005354,-0.000725,0.005047,0.230757,0.017955,317.239727,24.549960,0.999497,0.992912,0.003427,0.400070,0.000003,0.000021,0.000011,0.000026,-0.000002,65.025563,0.000029,
2371,2458,2.48735356677146,-4.07167819563713,-0.00478272083830689,0.004979,-0.000668,0.005622,0.208167,-0.014880,323.768780,23.739749,0.999151,0.986157,0.004732,0.334621,0.000015,-0.000015,0.000016,0.000022,-0.000022,22.695947,0.000025,
2056,2323,-4.34825271101436,-7.02619868358835,0.0120986805499683,0.005986,-0.000241,0.000436,0.273777,0.025805,326.958783,24.525988,0.999226,0.984395,0.004872,0.403402,-0.000013,0.000011,0.000034,0.000035,-0.000037,54.817820,0.000041,
2491,3088,4.978066667704,9.65611767876827,0.0119283568934634,0.005508,-0.000118,0.002031,0.245491,0.033145,313.865287,25.869855,0.999589,0.991061,0.003680,0.426704,0.000030,0.000033,0.000022,0.000053,0.000009,47.098387,0.000067,
2326,2248,1.54661587783775,-8.66655569251029,0.0110876292438888,0.004979,-0.000635,0.004925,0.210981,0.014437,327.298101,23.336020,0.998839,0.980156,0.005437,0.372556,-0.000013,-0.000015,-0.000005,-0.000009,-0.000019,-37.215289,0.000029,
2011,2143,-5.30215670442945,-10.9626995288392,0.0111443357099006,0.005527,-0.000769,0.006089,0.237064,0.060110,330.074632,24.803787,0.998198,0.979584,0.005820,0.443612,-0.000011,-0.000017,0.000024,0.000010,-0.000038,41.584924,0.000039,
2386,2533,2.7996218550968,-2.43216768085878,-0.0176109294274625,0.005249,0.000057,0.000318,0.239747,0.038771,322.485357,23.868686,0.999498,0.989505,0.004281,0.444487,0.000008,-0.000023,0.000010,0.000011,-0.000026,16.882233,0.000027,
2161,2818,-2.1472405676542,3.76959309117674,-0.0184977199733112,0.005156,-0.000258,-0.000630,0.239312,0.017077,318.175856,24.549266,0.999725,0.993315,0.003377,0.336055,0.000004,0.000013,0.000009,0.000019,-0.000002,58.717155,0.000021,
2461,2953,4.35072223267614,6.72137911198309,-0.00912550176281002,0.005392,-0.000471,0.003549,0.234363,0.029205,315.815682,25.290415,0.999454,0.990935,0.003936,0.408712,-0.000010,0.000003,0.000022,0.000020,-0.000026,53.422153,0.000027,
2401,2623,3.1092596072992,-0.468076645844327,-0.0159627237986228,0.005459,-0.000354,0.002047,0.243067,0.019672,321.053950,24.131702,0.999335,0.987768,0.004277,0.413863,0.000010,0.000006,0.000003,0.000011,0.000005,31.624650,0.000017,
2221,3103,-0.890599100888227,9.95891769941592,0.0250119545646612,0.005421,-0.000713,0.004204,0.236222,0.013705,313.705369,24.850380,0.999462,0.992311,0.003612,0.442779,-0.000006,0.000012,0.000006,0.000014,-0.000008,73.800894,0.000014,
2311,2173,1.23429553941903,-10.310499580688,0.0210342156203183,0.005309,-0.000596,0.002829,0.233335,0.016465,328.620656,23.230031,0.999188,0.981987,0.005251,0.374648,-0.000020,-0.000009,0.000003,-0.000008,-0.000021,77.790584,0.000030,
2416,2698,3.42043086609232,1.16786827350852,-0.0226934901974118,0.005293,-0.000481,0.004895,0.224936,0.019007,319.776812,24.315795,0.999581,0.989506,0.004089,0.457127,0.000013,0.000026,0.000002,0.000027,0.000012,80.132865,0.000040,
2041,2248,-4.66475497906433,-8.66554965898293,0.00519870568672332,0.005319,-0.000857,0.003519,0.234287,-0.001796,328.154182,24.585892,0.999101,0.985255,0.004823,0.399787,-0.000015,0.000014,0.000020,0.000025,-0.000025,62.960906,0.000029,
2476,3013,4.66562048723926,8.02608361182978,0.00101526115105344,0.005320,-0.000543,0.005314,0.224170,0.022703,314.942873,25.551746,0.999513,0.991525,0.003642,0.400053,0.000000,0.000018,0.000040,0.000050,-0.000032,51.459207,0.000050,
2281,2053,0.600677796929698,-12.9409367453841,0.0150238269547458,0.005407,-0.000589,0.002792,0.238058,0.010670,330.533998,23.135734,0.999177,0.982500,0.005148,0.375916,-0.000034,-0.000016,0.000007,-0.000013,-0.000037,70.381026,0.000052,
2071,2383,-4.03291968367937,-5.71376861298106,-0.00183814501059487,0.005118,-0.000678,0.003103,0.226201,0.036742,325.747131,24.467417,0.998517,0.983869,0.005169,0.411550,-0.000014,0.000002,0.000016,0.000012,-0.000023,58.419752,0.000023,
2296,2113,0.917211683516857,-11.6250800222192,0.0151856043623297,0.005225,-0.000378,0.003242,0.228244,0.028634,329.544606,23.152039,0.999123,0.980115,0.005454,0.413157,-0.000024,-0.000011,0.000005,-0.000009,-0.000026,72.318998,0.000036,
2446,2848,4.0452972667186,4.43580635416467,-0.0109145420237837,0.005365,-0.000035,0.001433,0.241123,0.026727,317.493575,24.858688,0.999633,0.991715,0.003563,0.439685,-0.000017,0.000011,-0.000014,0.000017,-0.000023,-67.488924,0.000024,
2206,3043,-1.20646661001095,8.65713914631797,0.0171195711416203,0.005245,-0.000511,0.005278,0.224836,0.020800,314.648109,24.793587,0.999837,0.995164,0.003005,0.385844,0.000004,0.000009,-0.000001,0.000009,0.000004,-83.232093,0.000013,
2101,2533,-3.40569744163951,-2.43829313145858,-0.027518408842468,0.004951,-0.000515,0.003751,0.216623,0.022126,322.951367,24.352351,0.999487,0.991234,0.003903,0.443055,-0.000023,0.000003,-0.000003,0.000003,-0.000023,-83.585410,0.000025,
2056,2338,-4.35151195294175,-6.69699639692976,-4.08823232760369E-05,0.005665,0.000053,-0.000960,0.263059,0.045135,326.605152,24.516590,0.999058,0.984811,0.004844,0.429129,-0.000015,0.000003,0.000025,0.000021,-0.000033,54.857590,0.000034,
2236,3193,-0.580321558423179,11.911642741415,0.0335681203960121,0.005536,-0.000369,0.004323,0.241176,0.026072,312.273101,25.035636,0.999404,0.991489,0.003654,0.447392,-0.000004,0.000016,0.000012,0.000022,-0.000009,64.552591,0.000022,
2086,2458,-3.71902284473985,-4.07617066278515,-0.0114892729345115,0.005124,-0.000875,0.005925,0.218260,0.013252,324.372010,24.375686,0.999422,0.988734,0.004309,0.435223,-0.000024,0.000001,0.000001,0.000001,-0.000024,86.925841,0.000027,
2026,2218,-4.98718674376682,-9.32176808969918,0.00557941671002027,0.005104,-0.001037,0.005712,0.218487,-0.011567,328.713327,24.671573,0.998517,0.981382,0.005522,0.386519,0.000004,0.000007,0.000026,0.000032,-0.000021,46.913423,0.000032,
2491,3103,4.97520192464102,9.98191115451412,0.0161052051942647,0.005398,0.000146,0.002480,0.238846,0.044708,313.647598,25.939361,0.999507,0.990298,0.003706,0.426707,0.000028,0.000026,0.000019,0.000046,0.000008,43.703487,0.000059,
2461,2968,4.34827368385296,7.04681144368861,-0.00331801695313061,0.005519,-0.000562,0.003960,0.238568,0.018146,315.623572,25.327591,0.999419,0.990556,0.004012,0.414215,-0.000012,0.000018,0.000022,0.000030,-0.000024,61.660406,0.000031,
2191,2968,-1.51957930676359,7.02780955270387,0.00532482576477378,0.005541,-0.000857,0.004486,0.241004,0.011867,315.834106,24.607841,0.999368,0.991064,0.003780,0.444969,0.000000,0.000021,0.000013,0.000027,-0.000005,64.702491,0.000029,
2431,2773,3.73295654174602,2.80280111532699,-0.022528512442193,0.005491,-0.000289,-0.000496,0.253922,0.011175,318.606847,24.588285,0.999490,0.988775,0.004182,0.425211,0.000001,0.000019,-0.000004,0.000020,0.000000,-77.741053,0.000023,
2116,2623,-3.0936265867905,-0.476667823130597,-0.0296606608227421,0.005362,-0.000785,0.002071,0.240366,-0.009959,321.431842,24.349198,0.999181,0.985277,0.004827,0.413485,-0.000002,0.000000,0.000002,0.000001,-0.000004,59.492085,0.000004,
2251,3283,-0.272807742103605,13.8646634988055,0.00950930951648843,0.005436,-0.000468,0.003667,0.238588,0.012892,310.561211,25.229375,0.999416,0.992186,0.003600,0.443424,-0.000012,0.000033,0.000024,0.000043,-0.000022,67.029125,0.000043,
2341,2323,1.85998384832599,-7.02378570525981,0.0029318846555384,0.005494,-0.000449,0.002570,0.242769,0.016126,326.046746,23.487637,0.999130,0.986243,0.004706,0.347915,-0.000015,-0.000008,0.000002,-0.000008,-0.000015,76.954341,0.000023,
2146,2743,-2.46038149664497,2.13636220888279,-0.0176000430702743,0.005618,-0.000346,0.003938,0.246610,0.024248,319.466548,24.392612,0.999473,0.990217,0.004079,0.444667,0.000004,-0.000001,-0.000011,0.000012,-0.000010,-38.758513,0.000013,
2326,2263,1.54435889710306,-8.33862556048027,0.0134854240332629,0.005316,-0.000649,0.004929,0.226422,0.005231,327.091572,23.361522,0.999167,0.983462,0.004884,0.374270,-0.000014,-0.000023,-0.000011,-0.000006,-0.000031,-33.468449,0.000040,
2011,2158,-5.30477675696246,-10.6334541601964,0.0127813553369833,0.005198,-0.001219,0.009740,0.211969,0.031995,329.822343,24.918868,0.997963,0.979681,0.006023,0.291654,-0.000021,-0.000035,-0.000002,-0.000021,-0.000035,-9.520647,0.000057,
2386,2548,2.79748109863187,-2.10605175344639,-0.00750759975403525,0.005448,-0.000617,0.003406,0.237540,0.004001,322.324705,23.916239,0.999454,0.988863,0.004370,0.406172,0.000008,-0.000022,0.000009,0.000010,-0.000025,16.231792,0.000025,
2371,2473,2.48493592097735,-3.74470977760951,-0.00110336399114885,0.005090,-0.000633,0.005019,0.215440,0.007210,323.563811,23.727698,0.999411,0.987565,0.004448,0.411087,0.000013,-0.000023,0.000020,0.000022,-0.000032,23.880709,0.000033,
2356,2398,2.17252375077658,-5.38368602255636,0.00340167366778132,0.005202,-0.000668,0.005869,0.217687,0.028586,324.813301,23.602023,0.999526,0.987055,0.004568,0.392082,0.000004,0.000018,0.000008,0.000022,0.000000,64.719137,0.000025,
2176,2893,-1.83289704294004,5.3973569200803,0.00507217060288667,0.005050,-0.000874,0.003369,0.221849,-0.007091,317.083800,24.510784,0.999800,0.995463,0.003063,0.426052,0.000001,0.000027,0.000014,0.000033,-0.000005,66.632723,0.000035,
2041,2263,-4.66627962757425,-8.33713266520776,0.00563176067043969,0.005862,-0.000272,0.001216,0.265853,0.038337,327.947642,24.582058,0.999189,0.985827,0.004799,0.438382,-0.000016,0.000017,0.000029,0.000034,-0.000033,60.151307,0.000039,
2311,2188,1.23220141386533,-9.98238038453432,0.0272189703139816,0.005202,-0.000080,-0.001089,0.241988,0.014476,328.439117,23.279244,0.999159,0.981798,0.005155,0.358167,-0.000019,-0.000005,0.000005,-0.000004,-0.000021,72.744508,0.000026,
2161,2833,-2.14910982008657,4.09395820186228,-0.00710529292376805,0.005481,-0.000521,0.006070,0.233653,0.023781,318.022174,24.474282,0.999641,0.993490,0.003404,0.427497,0.000004,0.000021,0.000014,0.000029,-0.000004,60.999277,0.000031,
2131,2683,-2.77552685674185,0.828410815280535,-0.00606875223536463,0.005750,-0.000701,0.003452,0.254095,0.012171,320.605311,24.342719,0.999549,0.991107,0.003731,0.453648,0.000010,-0.000004,-0.000007,0.000012,-0.000007,-22.739775,0.000012,
2416,2713,3.41844346213925,1.49412318891764,-0.0147733913076991,0.005464,-0.000349,0.003008,0.239794,0.017766,319.613919,24.369099,0.999668,0.990272,0.003929,0.450459,0.000010,0.000026,0.000003,0.000026,0.000009,78.246517,0.000037,
2476,3028,4.66289609932427,8.35176738647258,0.00733166987572531,0.005272,-0.000548,0.007201,0.214835,0.034506,314.740878,25.607004,0.999683,0.992793,0.003444,0.412230,0.000004,0.000014,0.000033,0.000043,-0.000025,49.259093,0.000043,
2221,3118,-0.892772952730933,10.28483359022,0.0303458069657268,0.005451,-0.000340,0.003313,0.240590,0.029563,313.508741,24.932942,0.999542,0.992088,0.003684,0.393767,-0.000008,0.000013,0.000006,0.000014,-0.000009,75.226337,0.000015,
2071,2398,-4.03521966756959,-5.38633134939235,-0.00506590381979777,0.005299,-0.000647,0.002685,0.235750,0.018768,325.488197,24.443682,0.998742,0.985566,0.005018,0.416049,-0.000018,-0.000006,0.000006,-0.000003,-0.000020,67.257960,0.000025,
2461,2983,4.34519406010868,7.37326486658924,0.00135374321581594,0.005234,-0.000611,0.005849,0.218339,0.013331,315.396838,25.448267,0.999454,0.990299,0.003972,0.342223,-0.000010,0.000017,0.000025,0.000032,-0.000025,59.233819,0.000034,
2011,2173,-5.30679290624206,-10.3057749280423,0.0112530164967097,0.005063,-0.000463,0.003567,0.222736,0.019412,329.580182,24.847209,0.998540,0.985455,0.005325,0.341622,-0.000014,-0.000028,0.000001,-0.000014,-0.000028,5.514975,0.000043,
2026,2233,-4.98966352802757,-8.99205330854768,0.00380879218516839,0.004973,-0.000793,0.006195,0.211236,0.037401,328.449458,24.744092,0.999296,0.985739,0.004802,0.355838,0.000006,-0.000013,0.000022,0.000021,-0.000028,33.723947,0.000029,
2236,3208,-0.582249511752419,12.2368566303847,0.0417535105573279,0.005557,-0.000012,0.002340,0.248758,0.044435,312.103375,25.088165,0.999470,0.992704,0.003543,0.433270,-0.000001,0.000015,0.000014,0.000023,-0.000010,59.715574,0.000023,
2296,2128,0.915115090958498,-11.2963931922164,0.0179170948134129,0.005299,-0.000073,-0.001383,0.247346,0.008176,329.345004,23.214731,0.999096,0.980828,0.005366,0.362791,-0.000023,-0.000012,0.000002,-0.000012,-0.000023,77.962113,0.000036,
2446,2863,4.04244115148256,4.76156565394146,-0.00650241948272878,0.005180,-0.000237,0.001871,0.230944,0.016738,317.275777,24.887664,0.999766,0.993359,0.003267,0.452482,-0.000019,0.000018,-0.000011,0.000021,-0.000022,-74.714134,0.000025,
2206,3058,-1.20909643126828,8.98252955114915,0.0169136647602954,0.005208,-0.000424,0.004845,0.224559,0.027245,314.401208,24.787062,0.999776,0.994507,0.003091,0.414370,0.000005,0.000007,0.000000,0.000007,0.000005,86.555803,0.000012,
2101,2548,-3.40836287962469,-2.11217605978847,-0.0319154872629497,0.005088,-0.001010,0.006029,0.216137,0.011241,322.672329,24.243797,0.999647,0.993972,0.003531,0.543145,-0.000017,0.000007,0.000003,0.000007,-0.000017,83.278799,0.000017,
2191,2983,-1.52237035716691,7.35399418386211,0.00576652257893784,0.005217,-0.000293,0.003307,0.229988,0.031647,315.581890,24.645606,0.999391,0.991468,0.003725,0.440783,0.000002,0.000013,0.000013,0.000022,-0.000007,57.216950,0.000022,
2401,2638,3.1055779902823,-0.140937161612172,-0.0166309317692139,0.004994,-0.000693,0.005083,0.210584,0.011902,320.771999,24.179473,0.999306,0.986536,0.004383,0.404364,0.000004,0.000013,0.000001,0.000013,0.000004,85.909355,0.000018,
2281,2068,0.598849200938428,-12.611776801434,0.0235020288857299,0.005628,-0.000350,0.002561,0.249038,0.025570,330.373890,23.248856,0.999175,0.983461,0.004996,0.308314,-0.000030,-0.000014,0.000013,-0.000006,-0.000038,60.784590,0.000047,
2056,2353,-4.35519861687624,-6.36879303624237,-0.00760339179078073,0.004907,-0.000237,0.002092,0.219614,0.039935,326.257445,24.491916,0.998892,0.982776,0.005155,0.445667,-0.000017,0.000001,0.000030,0.000023,-0.000039,53.439585,0.000039,
2491,3118,4.97225862122665,10.3071096545755,0.0188507544988283,0.005452,-0.000358,0.004369,0.233840,0.028680,313.419932,25.976049,0.999520,0.991146,0.003624,0.431675,0.000023,0.000032,0.000019,0.000047,0.000008,51.817531,0.000060,
2086,2473,-3.72141611195419,-3.7482577076313,-0.0151386022237716,0.005324,-0.000908,0.006167,0.226764,0.022085,324.107636,24.391643,0.999433,0.989340,0.004250,0.428564,-0.000021,-0.000004,0.000002,-0.000004,-0.000022,83.925900,0.000028,
2251,3298,-0.274867767980261,14.1896894224298,0.0161429430172007,0.005642,-0.000304,0.004250,0.246204,0.017746,310.378198,25.290635,0.999339,0.991082,0.003716,0.408651,-0.000017,0.000030,0.000010,0.000032,-0.000019,77.985276,0.000032,
2431,2788,3.73008713860134,3.13010603421059,-0.0185485338298008,0.005516,-0.000117,0.002476,0.244232,0.041132,318.385343,24.696400,0.999493,0.989592,0.004076,0.397117,-0.000001,0.000022,-0.000007,0.000024,-0.000003,-73.675263,0.000026,
2341,2338,1.85773674369241,-6.69660202048019,0.0104985971052542,0.005480,-0.000397,0.002667,0.241821,0.017111,325.866684,23.511215,0.999422,0.987522,0.004592,0.363679,-0.000013,0.000006,0.000002,0.000006,-0.000013,84.736031,0.000013,
2116,2638,-3.09590928458882,-0.149230106157901,-0.0309541808259723,0.005601,-0.000311,0.002380,0.250632,0.022394,321.187822,24.375233,0.999420,0.988640,0.004139,0.424006,0.000003,-0.000010,0.000001,0.000003,-0.000010,2.622888,0.000010,
2326,2278,1.54079818693631,-8.00886101190045,0.00372339593462812,0.005111,-0.000380,0.002747,0.224677,0.011070,326.765712,23.421611,0.999141,0.983621,0.004932,0.357222,-0.000013,-0.000011,-0.000016,0.000004,-0.000028,-47.305789,0.000031,
2041,2278,-4.66880201222143,-8.0089101643262,0.00729335899200123,0.005558,-0.000525,0.002512,0.248221,0.011734,327.702680,24.644641,0.999808,0.992055,0.004049,0.343801,-0.000024,0.000014,0.000028,0.000029,-0.000039,62.483827,0.000040,
2386,2563,2.79398202471223,-1.77766307269594,-0.0110721517347088,0.005306,-0.000681,0.005660,0.222945,0.019717,322.036232,24.004984,0.999515,0.989932,0.004062,0.377554,0.000005,-0.000017,0.000005,0.000006,-0.000018,11.929482,0.000018,
2026,2248,-4.99154553530638,-8.66548556269654,0.00432193066529862,0.005202,-0.000884,0.005303,0.224185,0.012304,328.226480,24.632023,0.999319,0.986985,0.004590,0.435497,-0.000004,0.000008,0.000017,0.000020,-0.000016,55.062918,0.000021,
2356,2413,2.16960148598257,-5.05514510375211,-0.00233924176160372,0.005429,-0.000555,0.004150,0.234203,0.009598,324.538923,23.666082,0.999703,0.990377,0.004128,0.349283,0.000003,0.000013,0.000011,0.000019,-0.000004,57.468313,0.000021,
2221,3133,-0.895574616781069,10.6090844044802,0.0301707395413473,0.005477,-0.000444,0.005878,0.233470,0.017147,313.255494,24.859726,0.999604,0.992894,0.003531,0.472597,-0.000012,0.000015,0.000007,0.000017,-0.000013,76.025375,0.000018,
2371,2488,2.48199306008086,-3.41748054101387,0.00388550999781501,0.004974,-0.000872,0.009523,0.194086,0.027015,323.340904,23.758276,0.999453,0.987419,0.004382,0.442547,0.000011,-0.000022,0.000021,0.000021,-0.000032,25.803295,0.000032,
2161,2848,-2.15209715955218,4.41946665100842,-0.011822193923706,0.005204,-0.000566,0.004295,0.226344,0.019536,317.731940,24.397724,0.999676,0.993737,0.003284,0.509940,0.000002,0.000021,0.000015,0.000029,-0.000006,61.402773,0.000031,
2476,3043,4.65988307915515,8.6778952687247,0.00547200631325495,0.005415,-0.000613,0.006656,0.223480,0.031706,314.488199,25.667290,0.999719,0.992602,0.003507,0.405013,0.000009,0.000010,0.000028,0.000038,-0.000019,45.804762,0.000038,
2011,2188,-5.31086223267734,-9.97436209768974,-0.0106920985770671,0.004542,-0.000739,0.004701,0.195679,0.024286,329.129325,24.889573,0.999519,0.991501,0.004287,0.295902,-0.000014,0.000007,0.000018,0.000018,-0.000024,60.324899,0.000025,
2461,2998,4.34246731374639,7.69795729277065,0.00477026563208938,0.005461,-0.000709,0.008512,0.218701,0.019604,315.181005,25.390526,0.999322,0.989849,0.004042,0.460137,-0.000011,0.000013,0.000031,0.000034,-0.000032,55.457180,0.000039,
2311,2203,1.22885670238577,-9.65350380677754,0.0228895924737458,0.005333,-0.000811,0.004288,0.229445,0.006915,328.148669,23.297721,0.998901,0.979200,0.005583,0.367107,-0.000019,0.000006,0.000005,0.000007,-0.000019,79.860989,0.000020,
2416,2728,3.41502800572168,1.82119542399683,-0.0209709244736587,0.005558,-0.000695,0.003795,0.241112,0.013281,319.319106,24.390858,0.999631,0.990565,0.003883,0.472316,0.000004,0.000013,0.000007,0.000017,0.000001,61.196551,0.000020,
2446,2878,4.03846513182647,5.0890754204692,-0.0135315397703835,0.005117,-0.000515,0.005978,0.212671,0.025956,316.953109,24.978403,0.999541,0.991922,0.003594,0.423099,-0.000020,0.000016,-0.000002,0.000016,-0.000020,-86.115474,0.000021,
2206,3073,-1.21137804647311,9.30741735224128,0.0229308140567923,0.005153,-0.000597,0.005348,0.220387,0.013722,314.202705,24.798149,0.999678,0.993002,0.003369,0.405586,0.000003,0.000012,0.000002,0.000012,0.000003,78.377786,0.000016,
2071,2413,-4.03744565290858,-5.05979770273105,-0.00138878369466511,0.005329,-0.001050,0.005553,0.228865,0.009518,325.270549,24.399572,0.998761,0.985418,0.004835,0.449129,-0.000022,-0.000007,0.000012,0.000000,-0.000029,59.966864,0.000033,
2131,2698,-2.77915648556701,1.1563056834332,-0.0185420643675229,0.005526,-0.000806,0.005529,0.237559,0.012840,320.241085,24.368550,0.999522,0.990403,0.003844,0.434783,0.000014,-0.000010,-0.000006,0.000015,-0.000012,-14.082593,0.000016,
2491,3133,4.96895087376327,10.6326327534576,0.0195541211010095,0.005301,-0.000680,0.006130,0.220074,0.025166,313.166053,26.021223,0.999441,0.991061,0.003638,0.440552,0.000033,0.000023,0.000012,0.000041,0.000015,33.379133,0.000058,
2176,2908,-1.83632133544001,5.72393380951695,-0.00182959830533491,0.004938,-0.001098,0.007751,0.203110,0.006994,316.762913,24.516413,0.999551,0.992243,0.003608,0.446533,0.000000,0.000019,0.000015,0.000027,-0.000009,60.621418,0.000028,
2266,1993,0.284226825052787,-14.2583861012216,0.0274322137580612,0.005012,-0.000167,0.003037,0.219351,0.045947,331.602137,23.154172,0.999110,0.966552,0.007128,0.373065,-0.000015,-0.000066,0.000002,-0.000015,-0.000066,1.749395,0.000086,
2146,2758,-2.46337080593061,2.46301045474713,-0.0149155825051253,0.005193,-0.000624,0.007830,0.215193,0.035266,319.213887,24.435985,0.999441,0.990557,0.003867,0.420244,0.000000,-0.000006,-0.000012,0.000009,-0.000015,-38.509906,0.000016,
2191,2998,-1.52513866366145,7.67996110171742,0.00353216971450365,0.005291,-0.000339,0.004893,0.228394,0.031220,315.316853,24.669425,0.999471,0.991290,0.003811,0.430247,0.000001,0.000017,0.000010,0.000021,-0.000004,64.365398,0.000023,
2056,2368,-4.3571149754424,-6.04049447419806,-0.0115751801664601,0.005414,-0.000341,0.000426,0.247552,0.025342,326.010387,24.525871,0.998720,0.983963,0.005085,0.393372,-0.000012,0.000005,0.000028,0.000026,-0.000032,53.774815,0.000034,
2281,2083,0.595752358972515,-12.2833908244649,0.0224767787018436,0.005302,-0.000611,0.002789,0.233288,0.010761,330.108783,23.220829,0.999188,0.981984,0.005210,0.352850,-0.000025,-0.000011,0.000016,-0.000001,-0.000035,56.281668,0.000041,
2101,2563,-3.40992850005202,-1.78466534533432,-0.0265096571427534,0.005416,-0.000849,0.003735,0.238005,0.000868,322.496204,24.353759,0.999266,0.989581,0.004204,0.424458,-0.000010,0.000001,0.000000,0.000001,-0.000010,89.253897,0.000010,
2296,2143,0.912388484943097,-10.9652097150575,0.0154009343090706,0.005671,-0.000131,0.001025,0.256280,0.018891,329.090166,23.422830,0.999374,0.982224,0.005264,0.198425,-0.000029,-0.000021,-0.000001,-0.000021,-0.000030,-82.550758,0.000050,
2041,2293,-4.67121014753563,-7.68260407018111,0.013686242934341,0.005158,-0.000817,0.005236,0.222220,0.020538,327.489366,24.549439,0.999840,0.993295,0.003808,0.442346,-0.000017,0.000014,0.000041,0.000042,-0.000046,55.232229,0.000051,
2116,2653,-3.09871246075959,0.177847617024952,-0.0289653523157654,0.005287,-0.000485,0.005423,0.227133,0.017758,320.937782,24.437541,0.999648,0.989292,0.003864,0.360822,0.000002,-0.000009,-0.000001,0.000002,-0.000009,-3.938447,0.000009,
2236,3223,-0.585787804687094,12.562418705061,0.0375438358908582,0.005150,-0.000152,0.004637,0.222544,0.048509,311.796040,25.118962,0.999392,0.992179,0.003750,0.426131,0.000000,0.000022,0.000015,0.000030,-0.000008,63.561500,0.000031,
2401,2653,3.10282537738906,0.185943920651887,-0.0132986518130451,0.005132,-0.000820,0.008038,0.206202,0.024734,320.551505,24.221095,0.999354,0.987373,0.004397,0.421501,0.000004,0.000018,0.000004,0.000019,0.000003,75.872788,0.000024,
2341,2353,1.85494606833288,-6.36860778516837,0.00920645489992467,0.005610,-0.000360,0.002870,0.247102,0.028200,325.618640,23.516305,0.999306,0.986156,0.004666,0.408519,-0.000009,0.000005,0.000008,0.000008,-0.000013,65.276839,0.000013,
2431,2803,3.72756980823929,3.45645028086867,-0.0143964154570995,0.005505,-0.000493,0.000834,0.249677,0.026389,318.181084,24.765992,0.999499,0.989305,0.004129,0.362473,-0.000005,0.000020,-0.000006,0.000021,-0.000007,-76.406919,0.000022,
2086,2488,-3.72376132508924,-3.42174474948827,-0.0143744328675552,0.005166,-0.000819,0.004485,0.224432,0.021241,323.869814,24.334871,0.999324,0.989620,0.004196,0.484784,-0.000019,-0.000007,0.000003,-0.000006,-0.000020,76.112067,0.000027,
2326,2293,1.53789836099534,-7.68063604471917,0.00474217463147397,0.005058,-0.000560,0.004666,0.215596,0.030718,326.522745,23.442032,0.999107,0.983916,0.004952,0.392849,-0.000011,-0.000001,-0.000012,0.000007,-0.000019,-55.607129,0.000019,
2011,2203,-5.3111167362415,-9.64808157233853,-0.00339787417357229,0.005839,-0.000371,0.001765,0.263314,0.029957,329.017132,24.776482,0.999600,0.991942,0.004108,0.404682,-0.000015,0.000014,0.000019,0.000023,-0.000024,63.895139,0.000027,
2026,2263,-4.99324561254937,-8.33597605739691,0.000814562977325295,0.005673,-0.000463,0.001085,0.257541,0.005732,327.988751,24.734035,0.998930,0.983038,0.005010,0.319233,-0.000008,0.000017,0.000030,0.000036,-0.000028,56.479037,0.000038,
2446,2893,4.03437982385998,5.41637268306822,-0.0249495068545684,0.005065,-0.000748,0.007185,0.205739,0.032363,316.605117,25.025801,0.999438,0.991548,0.003780,0.434121,-0.000019,0.000012,0.000002,0.000012,-0.000019,86.006427,0.000019,
2491,3148,4.96633744017459,10.9585388071903,0.0230756975236091,0.005423,-0.000449,0.005690,0.227479,0.029845,312.956707,26.114383,0.999481,0.990111,0.003801,0.409696,0.000039,0.000020,0.000016,0.000048,0.000011,30.091275,0.000063,
2461,3013,4.34023300103419,8.02461302128818,0.00939295609390456,0.005421,-0.000345,0.003060,0.237593,0.024092,314.992762,25.527125,0.999427,0.989723,0.003923,0.381452,-0.000010,0.000012,0.000034,0.000036,-0.000035,53.990033,0.000041,
2386,2578,2.79097604411921,-1.45059015272462,-0.0114194285864642,0.005192,-0.000838,0.005303,0.218986,0.019917,321.785893,24.021843,0.999427,0.988387,0.004340,0.405040,0.000006,0.000002,0.000007,0.000012,-0.000003,38.068950,0.000012,
2221,3148,-0.898072567738911,10.934522210916,0.034106284845393,0.005376,-0.000574,0.006319,0.227396,0.019211,313.036914,24.910274,0.999625,0.992663,0.003458,0.441621,-0.000011,0.000009,0.000008,0.000012,-0.000014,70.947011,0.000015,
2356,2428,2.16686830957877,-4.72918590803212,-0.00640195132541521,0.005702,-0.000487,0.002484,0.252622,0.008033,324.281602,23.497907,0.999557,0.990089,0.004176,0.556498,0.000004,0.000002,0.000009,0.000012,-0.000006,40.989735,0.000012,
2266,2008,0.28256225885421,-13.9292722916265,0.0323899696912235,0.005351,0.000186,-0.000950,0.248131,0.044829,331.431114,23.218256,0.999236,0.982449,0.005314,0.336613,-0.000031,-0.000055,0.000014,-0.000024,-0.000061,25.145272,0.000088,
2056,2383,-4.36018846598426,-5.71244222955855,-0.0160385120673823,0.004981,-0.000306,0.001834,0.223733,0.035946,325.707695,24.513292,0.999194,0.988553,0.004516,0.413272,-0.000014,0.000008,0.000018,0.000018,-0.000024,60.870560,0.000025,
2071,2428,-4.0392968170792,-4.73172735419197,-0.000683450409383113,0.005679,-0.000856,0.004434,0.248239,0.021384,325.053371,24.451289,0.998878,0.986579,0.004541,0.407582,-0.000030,0.000000,0.000023,0.000012,-0.000042,61.669563,0.000044,
2041,2308,-4.67371646778216,-7.35381829258726,0.00845274355128822,0.005366,-0.000971,0.007724,0.224854,0.024973,327.206804,24.573240,0.999761,0.991379,0.004130,0.417777,-0.000016,0.000002,0.000035,0.000029,-0.000043,52.290899,0.000044,
2371,2503,2.47909614849589,-3.08889878833923,-0.00294651094151277,0.005210,-0.000621,0.006054,0.217298,0.017589,323.063475,23.838731,0.999527,0.987786,0.004356,0.395070,0.000007,-0.000018,0.000017,0.000015,-0.000026,26.849642,0.000026,
2161,2863,-2.15521381487823,4.74702881127043,-0.0166082513778747,0.005076,-0.000758,0.006463,0.213768,0.014777,317.434751,24.514860,0.999375,0.991774,0.003625,0.397779,0.000002,0.000016,0.000010,0.000022,-0.000004,62.515297,0.000023,
2311,2218,1.22579318000053,-9.32425464495415,0.0117570078733706,0.005672,-0.000511,0.001941,0.253116,0.014764,327.837564,23.269879,0.998736,0.977020,0.005829,0.437874,-0.000015,0.000005,-0.000002,0.000006,-0.000015,-84.764768,0.000016,
2476,3058,4.65768273775092,9.00279697198368,0.0174026375361223,0.005131,-0.000821,0.005035,0.216463,0.007938,314.335995,25.729355,0.999622,0.990394,0.003974,0.374818,0.000016,0.000013,0.000022,0.000036,-0.000007,43.127283,0.000038,
2146,2773,-2.4660238346529,2.79017530533035,-0.0214592032311884,0.005233,-0.000299,0.004440,0.227465,0.039786,318.927545,24.465097,0.999677,0.993626,0.003276,0.403566,0.000000,-0.000006,-0.000010,0.000007,-0.000013,-35.899143,0.000013,
2131,2713,-2.78234692377498,1.48362479725909,-0.020641325482643,0.005035,-0.000670,0.007193,0.210061,0.022956,319.952454,24.422452,0.999419,0.990217,0.004001,0.396980,0.000018,-0.000006,-0.000008,0.000020,-0.000008,-16.461358,0.000020,
2011,2218,-5.31326152430347,-9.32059273805005,0.0056090430549034,0.005525,-0.000640,0.005037,0.240002,0.025816,328.828070,24.805682,0.999113,0.987324,0.004782,0.361727,-0.000009,-0.000006,0.000023,0.000016,-0.000031,46.672444,0.000031,
2416,2743,3.41216659559525,2.14846638878113,-0.0202870959874986,0.005627,-0.000793,0.004222,0.242716,0.015001,319.081816,24.484857,0.999538,0.989644,0.003974,0.427825,0.000002,0.000014,0.000007,0.000017,-0.000002,64.624485,0.000019,
2281,2098,0.592494154749875,-11.9540167523161,0.0201337915738122,0.005054,-0.000937,0.004850,0.214990,0.001363,329.829562,23.268656,0.998848,0.978457,0.005650,0.326747,-0.000023,-0.000009,0.000011,-0.000003,-0.000028,61.517345,0.000035,
2296,2158,0.909634185782764,-10.6379212154792,0.0145164776719753,0.005739,-0.000186,0.001754,0.256925,0.027043,328.842567,23.301206,0.999434,0.983024,0.005199,0.361136,-0.000033,-0.000026,-0.000005,-0.000023,-0.000036,-61.918851,0.000059,
2176,2923,-1.83897905637914,6.05114787946123,-0.0069609652285294,0.005240,-0.000629,0.008662,0.214411,0.037268,316.486231,24.582210,0.999006,0.987304,0.004446,0.422819,-0.000005,0.000017,0.000014,0.000024,-0.000011,64.020113,0.000024,
2491,3163,4.96321606614544,11.2836925913625,0.0228610096996249,0.005196,-0.000500,0.003432,0.225676,0.015086,312.707215,26.138588,0.999574,0.991346,0.003571,0.428386,0.000030,0.000027,0.000015,0.000043,0.000014,42.005628,0.000059,
2401,2668,3.10016657736445,0.513368010834675,-0.0172173973450072,0.005335,-0.000633,0.003359,0.232567,0.007428,320.301070,24.286481,0.999312,0.988396,0.004394,0.384859,0.000004,0.000019,0.000000,0.000019,0.000004,-88.618617,0.000025,
2236,3238,-0.588685766195969,12.8866228623762,0.0356760822578508,0.005099,-0.000585,0.005268,0.217816,0.001263,311.530612,25.093228,0.999613,0.993832,0.003302,0.424096,0.000000,0.000023,0.000015,0.000031,-0.000008,63.442057,0.000032,
2116,2668,-3.10115364242535,0.504396355047518,-0.0348841925641068,0.005483,-0.000274,0.002894,0.243719,0.019394,320.661990,24.383663,0.999606,0.990763,0.003751,0.420593,0.000006,-0.000009,-0.000002,0.000006,-0.000009,-6.547434,0.000009,
2101,2578,-3.41192657018671,-1.45936106954791,-0.015380116733354,0.005171,-0.000981,0.005072,0.222746,-0.012513,322.331795,24.318644,0.999324,0.988550,0.004229,0.447931,-0.000010,-0.000004,-0.000004,-0.000002,-0.000012,-63.257191,0.000015,
2431,2818,3.72388486613863,3.78282401514463,-0.0215455446698343,0.005218,-0.000108,-0.001007,0.243452,0.031061,317.870494,24.736759,0.999496,0.990257,0.004073,0.446569,-0.000013,0.000014,-0.000008,0.000017,-0.000015,-74.710833,0.000019,
2206,3088,-1.21390570723065,9.63345464767511,0.0270972804220833,0.005110,-0.000565,0.007649,0.211198,0.038819,313.982872,24.868001,0.999488,0.992449,0.003563,0.376391,0.000002,0.000009,0.000002,0.000010,0.000001,78.111825,0.000012,
2191,3013,-1.52690559279659,8.0043890082879,0.0155868606557306,0.005333,-0.000463,0.005726,0.227696,0.023884,315.172766,24.658615,0.999454,0.991012,0.003848,0.447347,0.000001,0.000016,0.000007,0.000019,-0.000002,68.574334,0.000021,
2446,2908,4.03193764932693,5.74205177504217,-0.0188600342099221,0.004967,-0.000693,0.005297,0.208314,0.028676,316.413890,25.066077,0.999439,0.990845,0.003877,0.441883,-0.000020,0.000006,0.000009,0.000008,-0.000022,73.250954,0.000023,
2341,2368,1.85068956040088,-6.03888709815905,-0.00610636862899128,0.005375,-0.000075,0.003403,0.234616,0.048321,325.235180,23.539686,0.999114,0.985213,0.004783,0.444256,-0.000008,0.000006,0.000012,0.000013,-0.000015,60.291691,0.000017,
2326,2308,1.53531039571957,-7.35179858621731,0.00240527615233077,0.005438,-0.000452,0.004801,0.232626,0.039033,326.277632,23.501187,0.998985,0.983428,0.005079,0.378528,-0.000010,-0.000005,-0.000006,-0.000001,-0.000014,-56.348075,0.000017,
2026,2278,-4.99533430608867,-8.00885462979481,0.00163248635971058,0.005584,-0.000184,-0.001474,0.260565,0.009501,327.757821,24.657306,0.998393,0.983146,0.005331,0.392357,-0.000015,0.000018,0.000026,0.000032,-0.000030,61.219158,0.000036,
2266,2023,0.280201122155646,-13.5990282249824,0.02694110007468,0.005729,0.000933,-0.005205,0.279754,0.055929,331.175997,23.260520,0.999023,0.978765,0.005907,0.334620,-0.000037,-0.000035,0.000024,-0.000012,-0.000060,45.744578,0.000077,
2221,3163,-0.900352362320735,11.2597619660215,0.0373556852706542,0.005342,-0.000593,0.003914,0.233665,0.029268,312.824882,24.933783,0.999562,0.992599,0.003475,0.445884,-0.000006,0.000011,0.000008,0.000015,-0.000009,67.482746,0.000015,
2086,2503,-3.72608689221057,-3.09448143709206,-0.0124357035409162,0.005100,-0.000745,0.005005,0.219902,0.016229,323.639102,24.366292,0.999076,0.989702,0.004117,0.448172,-0.000017,-0.000004,-0.000001,-0.000004,-0.000017,-86.811197,0.000022,
2011,2233,-5.31621315041369,-8.99235973451994,0.0065969359494602,0.004814,-0.000802,0.007125,0.201642,0.033399,328.557150,24.812476,0.999193,0.984435,0.005020,0.353079,-0.000006,-0.000023,0.000019,0.000006,-0.000035,32.588699,0.000037,
2311,2233,1.22284215714013,-8.99442638482702,0.0116723787597834,0.005487,-0.000107,0.001991,0.244633,0.031666,327.585594,23.406869,0.998674,0.977890,0.005767,0.352552,-0.000019,0.000000,-0.000001,0.000000,-0.000019,-86.655789,0.000021,
2071,2443,-4.04155340894531,-4.40465478548835,-0.000776956494348724,0.005612,-0.000661,0.002380,0.251039,-0.000701,324.813670,24.443024,0.999227,0.987753,0.004450,0.391887,-0.000033,0.000008,0.000015,0.000014,-0.000038,71.671567,0.000039,
2461,3028,4.33725650914229,8.35065483087196,0.0138348033747207,0.005158,-0.000276,0.003766,0.222935,0.033503,314.769600,25.604617,0.999678,0.991727,0.003699,0.366995,-0.000009,0.000009,0.000028,0.000030,-0.000030,53.648332,0.000034,
2056,2398,-4.36120743842928,-5.38703189595751,-0.00683254457305793,0.005654,-0.000280,0.001650,0.255201,0.013907,325.574819,24.427636,0.998896,0.986760,0.004722,0.472633,-0.000015,-0.000004,0.000006,-0.000002,-0.000018,68.123482,0.000021,
2161,2878,-2.15707251880717,5.07218938709723,-0.00833683706332522,0.005265,-0.000933,0.007723,0.218566,0.014896,317.264870,24.507037,0.999497,0.992993,0.003449,0.415456,0.000004,0.000024,0.000007,0.000026,0.000002,71.948352,0.000032,
2416,2758,3.40917809583223,2.47524154032367,-0.0215231771816207,0.005497,-0.000275,0.001910,0.245404,0.019019,318.829740,24.520253,0.999464,0.988708,0.004162,0.444379,0.000003,0.000018,0.000005,0.000020,0.000002,72.060488,0.000024,
2491,3178,4.96130756395897,11.608868185179,0.0355995767474724,0.005284,-0.000288,0.003433,0.229838,0.026518,312.572092,26.219267,0.999579,0.990896,0.003746,0.416845,0.000030,0.000035,0.000013,0.000046,0.000020,51.031619,0.000067,
2041,2323,-4.67592631209653,-7.02494140750663,0.000572875603893408,0.005569,-0.000604,0.002587,0.248588,0.007161,326.923235,24.607095,0.999193,0.983929,0.004822,0.360730,-0.000016,0.000010,0.000030,0.000029,-0.000036,56.474941,0.000038,
2386,2593,2.78822618253075,-1.12310632597211,-0.0129434154108026,0.005465,-0.000504,0.005430,0.231149,0.012732,321.541614,24.078310,0.999444,0.988351,0.004391,0.385353,0.000010,0.000001,0.000006,0.000013,-0.000002,25.109506,0.000014,
2236,3253,-0.591600271602434,13.2121043540942,0.028012115331137,0.005333,-0.000312,0.004336,0.231797,0.018323,311.234245,25.092793,0.999617,0.993558,0.003268,0.461550,-0.000001,0.000025,0.000020,0.000036,-0.000012,61.472291,0.000036,
2371,2518,2.47579619805552,-2.76210199196567,-0.00485666906041615,0.005005,-0.001038,0.007129,0.203948,0.006255,322.791315,23.807753,0.999495,0.986373,0.004625,0.457032,0.000008,-0.000016,0.000012,0.000013,-0.000021,23.401339,0.000021,
2476,3073,4.65512258904913,9.32791372180292,0.0195422099831148,0.005485,-0.000866,0.005645,0.230419,0.002718,314.122519,25.732124,0.999579,0.990610,0.003902,0.422675,0.000019,0.000020,0.000020,0.000040,-0.000001,45.421543,0.000045,
2131,2728,-2.7842571308776,1.80878574925018,-0.0188657821786364,0.005291,-0.000525,0.004687,0.229404,0.014506,319.743837,24.332591,0.999308,0.989049,0.004231,0.484192,0.000014,-0.000001,-0.000008,0.000018,-0.000004,-23.128089,0.000019,
2356,2443,2.16423279171352,-4.40130308047432,0.000302114408043508,0.005424,-0.000801,0.002877,0.238363,-0.013291,324.080187,23.631940,0.999073,0.983240,0.005009,0.441198,0.000008,-0.000012,0.000010,0.000012,-0.000016,22.128147,0.000017,
2026,2293,-4.99822799871059,-7.68092119235256,0.00718436300007852,0.005123,-0.000778,0.007729,0.213989,0.043007,327.516158,24.677772,0.998482,0.983126,0.005291,0.397815,-0.000007,0.000020,0.000040,0.000049,-0.000036,54.342860,0.000050,
2146,2788,-2.46862347018105,3.11596140716242,-0.0238330811915262,0.005267,-0.000501,0.004341,0.229266,0.029608,318.666195,24.419967,0.999640,0.992469,0.003507,0.446624,0.000000,-0.000002,-0.000004,0.000003,-0.000005,-36.937221,0.000005,
2281,2113,0.589954536891106,-11.6255994824715,0.0187234487863748,0.005160,-0.000677,0.002988,0.226141,0.014500,329.587807,23.222476,0.998941,0.979279,0.005521,0.416853,-0.000022,-0.000006,0.000007,-0.000003,-0.000025,68.664146,0.000031,
2296,2173,0.906443751519827,-10.309479525135,0.00517168005694657,0.005605,0.000017,-0.002907,0.266584,0.013574,328.533171,23.222143,0.999473,0.981494,0.005301,0.459799,-0.000027,-0.000015,0.000000,-0.000015,-0.000027,88.907540,0.000042,
2176,2938,-1.84080422828576,6.37667055362171,-0.00182933828796195,0.005468,-0.000517,0.006483,0.231722,0.030630,316.302146,24.606524,0.999287,0.990336,0.003929,0.403584,-0.000006,0.000018,0.000013,0.000024,-0.000011,66.553560,0.000024,
2056,2413,-4.3630015011896,-5.05929167926594,-0.00545622609172369,0.006082,-0.000224,0.002020,0.273892,0.038192,325.362764,24.438323,0.998455,0.983877,0.005145,0.482549,-0.000018,-0.000005,0.000012,0.000002,-0.000025,59.737945,0.000028,
2086,2518,-3.72776911524962,-2.76763829419368,-0.00889793295772279,0.005309,-0.000518,0.001299,0.240330,0.017303,323.446611,24.372032,0.999394,0.991367,0.003873,0.443620,-0.000015,-0.000007,0.000000,-0.000007,-0.000015,87.355551,0.000023,
2266,2038,0.276923523042488,-13.2702669032733,0.0274048652956367,0.005540,0.000018,0.001282,0.249457,0.023567,330.908908,23.283933,0.999057,0.980428,0.005512,0.308260,-0.000034,-0.000026,0.000022,-0.000008,-0.000052,50.291361,0.000065,
2446,2923,4.02974701652419,6.06865936011347,-0.0127037032228827,0.005261,-0.000514,0.005147,0.222463,0.031795,316.234232,25.188870,0.999628,0.993083,0.003652,0.373917,-0.000012,-0.000003,0.000009,0.000003,-0.000018,57.432209,0.000019,
2206,3103,-1.2160329618071,9.95765208352429,0.0297027409381485,0.005356,-0.000601,0.006849,0.225067,0.029460,313.774009,24.796287,0.999398,0.991307,0.003895,0.454604,-0.000002,0.000010,0.000005,0.000012,-0.000003,71.266053,0.000012,
2431,2833,3.72099048885206,4.109762654327,-0.0148583787220673,0.005457,-0.000921,0.007587,0.222389,0.024968,317.660363,24.880033,0.999342,0.989405,0.004052,0.346934,-0.000016,0.000015,-0.000008,0.000016,-0.000018,-76.981551,0.000020,
2011,2248,-5.31773615265904,-8.66569801611896,0.00787329285543592,0.005272,-0.001049,0.005227,0.227771,0.001163,328.353614,24.723315,0.999127,0.983724,0.005021,0.400284,-0.000019,0.000004,0.000009,0.000007,-0.000023,70.860708,0.000023,
2116,2683,-3.10333165436356,0.829502162796587,-0.029875016179858,0.005504,-0.000868,0.004522,0.239706,-0.002022,320.457408,24.315852,0.999541,0.992101,0.003561,0.470625,0.000011,-0.000010,-0.000007,0.000013,-0.000012,-16.838043,0.000014,
2221,3178,-0.902935986396141,11.5845779645929,0.0431839680651933,0.004958,-0.000665,0.003421,0.217434,0.004026,312.612309,24.972184,0.999400,0.991611,0.003642,0.399849,-0.000004,0.000015,0.000009,0.000019,-0.000008,68.073833,0.000019,
2101,2593,-3.41409984996578,-1.13183725943392,-0.0145756749792554,0.005317,-0.000557,0.004824,0.230379,0.014261,322.102905,24.360626,0.999248,0.988590,0.004302,0.434924,-0.000010,0.000002,-0.000001,0.000002,-0.000010,-85.908277,0.000011,
2326,2323,1.53212663619972,-7.02314244400573,-0.00392547969823909,0.005148,0.000157,0.000012,0.236062,0.053265,325.985709,23.503808,0.999016,0.982021,0.005287,0.427124,-0.000014,-0.000009,-0.000002,-0.000008,-0.000014,-71.040673,0.000023,
2041,2338,-4.67828548275773,-6.69760579735545,0.00339616087291006,0.005545,-0.000862,0.006916,0.235389,0.015877,326.692253,24.585249,0.999302,0.986679,0.004474,0.385527,-0.000019,0.000003,0.000019,0.000014,-0.000030,59.570098,0.000030,
2341,2383,1.84748378357881,-5.71072275502454,-0.00542547360436174,0.005201,-0.000958,0.006924,0.214107,0.019932,324.977657,23.630312,0.999421,0.985769,0.004698,0.363450,-0.000003,0.000010,0.000006,0.000012,-0.000006,69.577755,0.000012,
2401,2683,3.09699011058141,0.841055316541826,-0.0208482445923437,0.005364,-0.000263,0.003292,0.234327,0.035269,320.027955,24.338580,0.999393,0.987921,0.004356,0.406851,0.000006,0.000031,-0.000001,0.000031,0.000006,-88.764359,0.000040,
2161,2893,-2.15988341721748,5.39869300986982,-0.0135992663403499,0.005112,-0.000581,0.004516,0.221490,0.014143,316.979486,24.528451,0.999602,0.992461,0.003560,0.402923,0.000002,0.000030,0.000010,0.000033,-0.000002,71.940384,0.000038,
2416,2773,3.4062616847503,2.80122905855163,-0.0189508913886129,0.005233,-0.000330,0.000836,0.237147,-0.002223,318.598968,24.542957,0.999465,0.987989,0.004292,0.448140,0.000001,0.000020,0.000003,0.000021,0.000000,81.284763,0.000024,
2071,2458,-4.04428814901703,-4.07751805881159,-0.00311240551610581,0.005303,-0.000444,0.001861,0.238406,0.012367,324.539714,24.389810,0.999505,0.989732,0.004214,0.456697,-0.000032,0.000005,0.000003,0.000005,-0.000032,85.465254,0.000034,
2491,3193,4.95877759782127,11.9337367619762,0.0418330364349231,0.005354,-0.000412,0.004120,0.230351,0.020458,312.378943,26.253061,0.999506,0.991494,0.003679,0.434599,0.000031,0.000037,0.000012,0.000046,0.000022,52.002972,0.000069,
2311,2248,1.21990812690195,-8.66650862366761,0.0122323222250884,0.005177,-0.000068,0.000939,0.234033,0.030865,327.337870,23.398858,0.998830,0.980012,0.005453,0.394495,-0.000016,-0.000011,-0.000003,-0.000009,-0.000018,-62.729804,0.000027,
2026,2308,-5.00070875401184,-7.35196487918537,-0.000244298623272243,0.005372,-0.000724,0.008869,0.222380,0.033465,327.221148,24.709312,0.998709,0.983142,0.005199,0.349124,-0.000008,0.000006,0.000033,0.000033,-0.000035,51.232244,0.000039,
2461,3043,4.33458116119094,8.67566170142408,0.0148584087879158,0.005417,-0.000380,0.003776,0.234714,0.019430,314.544884,25.591123,0.999581,0.990310,0.003861,0.420009,-0.000006,0.000011,0.000025,0.000028,-0.000023,54.285329,0.000030,
2236,3268,-0.594775743112411,13.5378715099378,0.0210773149205465,0.005345,-0.000141,0.004662,0.231448,0.033471,310.929454,25.129479,0.999464,0.992862,0.003480,0.459660,-0.000005,0.000027,0.000021,0.000038,-0.000015,63.562306,0.000038,
2191,3028,-1.53006409802885,8.3300473380261,0.0156835983495398,0.005002,-0.000759,0.009389,0.200904,0.032141,314.902022,24.668724,0.999551,0.992213,0.003801,0.459086,0.000003,0.000010,0.000003,0.000011,0.000002,70.106060,0.000014,
2056,2428,-4.36563921302259,-4.73120937903856,-0.0069730576180973,0.006145,-0.000740,0.007201,0.262120,0.037777,325.096257,24.482548,0.998865,0.985504,0.004776,0.434220,-0.000027,0.000006,0.000023,0.000018,-0.000039,62.607567,0.000039,
2086,2533,-3.73011817104045,-2.44054565001028,-0.00694991978684811,0.005488,-0.000838,0.006020,0.234855,0.025143,323.214895,24.384090,0.999579,0.992451,0.003756,0.439290,-0.000022,0.000003,0.000002,0.000003,-0.000022,85.287048,0.000023,
2446,2938,4.02647913018054,6.39455283414954,-0.0171747141159244,0.005172,-0.000476,0.002922,0.226693,0.024661,315.956063,25.184641,0.999582,0.992166,0.003769,0.422789,-0.000009,0.000002,0.000008,0.000006,-0.000013,63.717975,0.000013,
2281,2128,0.58779460755375,-11.2967474728844,0.0232252024343893,0.005150,-0.000063,0.000189,0.235255,0.029789,329.392704,23.283256,0.998590,0.977773,0.005633,0.401943,-0.000022,-0.000007,0.000005,-0.000005,-0.000023,72.770882,0.000030,
2371,2533,2.47285542881513,-2.43325723526865,-0.0128921850413803,0.005104,-0.000443,0.001262,0.229600,0.017568,322.505865,23.892108,0.999443,0.987207,0.004537,0.426113,0.000007,-0.000019,0.000016,0.000014,-0.000026,24.813430,0.000026,
2221,3193,-0.905356763664752,11.909920438354,0.041990663351271,0.005340,-0.000404,0.004499,0.231709,0.021560,312.370848,24.978266,0.999481,0.992851,0.003472,0.429203,-0.000002,0.000013,0.000011,0.000019,-0.000009,61.958808,0.000019,
2476,3088,4.65201565727088,9.65439882920012,0.0187191034631269,0.005559,-0.000637,0.006434,0.230973,0.023928,313.869864,25.819602,0.999471,0.991812,0.003681,0.412087,0.000026,0.000028,0.000019,0.000045,0.000008,46.430073,0.000058,
2296,2188,0.904610261275813,-9.98116249180508,0.0195470442009764,0.005661,-0.000110,0.000226,0.258595,0.028441,328.402813,23.359796,0.999046,0.979764,0.005486,0.369283,-0.000027,-0.000009,0.000002,-0.000009,-0.000027,83.839156,0.000037,
2266,2053,0.27336548737355,-12.9414234800625,0.0238996606003639,0.005089,-0.000560,0.004074,0.219426,0.016405,330.608959,23.250853,0.998887,0.979225,0.005580,0.363341,-0.000033,-0.000015,0.000022,0.000000,-0.000048,55.868053,0.000055,
2386,2608,2.78554932487883,-0.796187259053099,-0.0143998423663447,0.005615,-0.000449,0.003147,0.246284,0.015595,321.301031,24.078419,0.999283,0.987953,0.004365,0.432151,0.000007,-0.000003,0.000006,0.000010,-0.000006,25.639030,0.000010,
2011,2263,-5.31957367559796,-8.33737676405737,0.00594278147281102,0.005560,-0.000606,0.002429,0.248752,-0.002593,328.117311,24.729599,0.998732,0.979757,0.005281,0.380661,-0.000023,0.000025,0.000028,0.000038,-0.000036,65.562247,0.000043,
2116,2698,-3.10571948732271,1.15667349933742,-0.023353011462234,0.005066,-0.000582,0.003666,0.222188,0.010725,320.250668,24.419680,0.999407,0.990891,0.003830,0.383032,0.000016,-0.000016,-0.000007,0.000018,-0.000017,-11.708695,0.000020,
2041,2353,-4.68105437921938,-6.36992736274764,0.000960752489277183,0.005378,-0.001387,0.010311,0.218168,0.008492,326.413483,24.564127,0.998991,0.984238,0.004992,0.393924,-0.000018,0.000005,0.000026,0.000022,-0.000035,56.841582,0.000035,
2146,2803,-2.47064763654842,3.44106112998649,-0.0178714744859576,0.005285,-0.000634,0.003647,0.232152,0.016221,318.475670,24.383702,0.999690,0.992792,0.003421,0.477034,0.000000,-0.000001,0.000001,0.000001,-0.000001,31.876142,0.000001,
2206,3118,-1.21842456714046,10.2827608527207,0.0338238260021626,0.005309,-0.000822,0.007065,0.222096,0.014805,313.560522,24.826811,0.999534,0.992583,0.003599,0.424998,-0.000004,0.000012,0.000005,0.000014,-0.000006,74.133952,0.000014,
2026,2323,-5.00264274287101,-7.02512363956931,-0.000881812673014792,0.005336,-0.000654,0.003026,0.236762,0.018954,326.989398,24.625974,0.999027,0.984284,0.004944,0.410219,-0.000009,0.000013,0.000027,0.000031,-0.000027,56.423760,0.000034,
2356,2458,2.16060558613187,-4.07159544374924,-0.00907024509490384,0.005373,-0.000794,0.002946,0.235826,-0.020953,323.755571,23.774215,0.999363,0.986402,0.004545,0.331958,0.000007,-0.000006,0.000015,0.000016,-0.000016,33.451903,0.000019,
2431,2848,3.71816471493684,4.43564933965563,-0.0132761525457568,0.005335,-0.000388,0.005914,0.223130,0.021362,317.429855,24.889263,0.999336,0.987849,0.004117,0.383787,-0.000023,0.000010,-0.000013,0.000014,-0.000027,-70.060588,0.000027,
2341,2398,1.84458958419904,-5.38328028865582,-0.000582959063251565,0.004784,-0.000793,0.007462,0.193202,0.028489,324.754484,23.662674,0.999660,0.987828,0.004459,0.377804,0.000001,0.000020,0.000005,0.000022,-0.000001,75.540862,0.000024,
2491,3208,4.95548222936189,12.2601219014721,0.0346541027570879,0.005609,-0.000182,0.002679,0.247767,0.033591,312.089302,26.332949,0.999411,0.991689,0.003737,0.425399,0.000031,0.000034,0.000007,0.000039,0.000025,50.412264,0.000065,
2461,3058,4.3314257503758,9.0016815984226,0.0173192779274132,0.005221,-0.000348,0.005491,0.219343,0.033417,314.304250,25.656297,0.999523,0.989457,0.004103,0.422484,-0.000001,0.000014,0.000020,0.000028,-0.000015,55.013653,0.000028,
2401,2698,3.0931659338052,1.16790130737385,-0.0271923217151198,0.005216,-0.000840,0.006451,0.215849,0.014235,319.712519,24.345250,0.999478,0.989373,0.004100,0.425125,0.000008,0.000027,0.000002,0.000027,0.000008,82.645004,0.000037,
2071,2473,-4.04619909069363,-3.7498424685873,-0.00279063677237446,0.005553,-0.000092,-0.000328,0.256326,0.030789,324.317810,24.410090,0.999441,0.989248,0.004355,0.452782,-0.000030,-0.000001,0.000001,-0.000001,-0.000030,87.207479,0.000035,
2131,2743,-2.78629760052965,2.13595457392703,-0.0212839898480865,0.005707,-0.000313,0.002255,0.255864,0.002677,319.506291,24.401194,0.999426,0.990198,0.004015,0.409584,0.000007,-0.000003,-0.000006,0.000010,-0.000006,-26.386904,0.000010,
2311,2263,1.21748102781393,-8.33790560180018,0.0130629437985021,0.005622,-0.000366,0.003380,0.246056,0.023319,327.114581,23.467973,0.999163,0.983845,0.004949,0.352185,-0.000015,-0.000017,-0.000008,-0.000008,-0.000024,-42.257353,0.000033,
2161,2908,-2.16150029971018,5.72338193415912,-0.00532341313987672,0.005434,-0.000631,0.004136,0.237476,0.012436,316.820881,24.486248,0.999600,0.991484,0.003715,0.452867,0.000001,0.000021,0.000013,0.000027,-0.000006,63.352071,0.000029,
2236,3283,-0.597965359686849,13.8639253450968,0.0138048534397512,0.005249,0.000161,0.003287,0.231586,0.040853,310.622129,25.203205,0.999162,0.992682,0.003652,0.412806,-0.000010,0.000030,0.000022,0.000040,-0.000019,66.145059,0.000040,
2101,2608,-3.4162283540844,-0.805208308225623,-0.0125565883232071,0.005321,-0.000426,0.002880,0.236348,0.021530,321.882932,24.355072,0.998931,0.986546,0.004702,0.449713,-0.000008,0.000003,0.000003,0.000004,-0.000009,76.406824,0.000009,
2326,2338,1.53050670876061,-6.69668229205647,0.00944905734797885,0.005251,0.000032,-0.000526,0.242591,0.033479,325.861907,23.539328,0.999232,0.983937,0.004890,0.407566,-0.000014,0.000007,-0.000002,0.000007,-0.000015,-83.714821,0.000015,
2176,2953,-1.84328292987555,6.70159178114359,-0.00137124016248436,0.005511,-0.000845,0.006533,0.233408,0.012228,316.063765,24.558177,0.999338,0.992413,0.003528,0.445217,-0.000004,0.000019,0.000012,0.000024,-0.000009,67.423668,0.000025,
2041,2368,-4.68302557053982,-6.04186570979152,0.000532105201216382,0.005427,-0.000662,0.006130,0.232279,0.041446,326.182016,24.562530,0.998957,0.984764,0.004954,0.422536,-0.000011,0.000011,0.000026,0.000029,-0.000028,56.312225,0.000033,
2011,2278,-5.32207233977585,-8.00883515482503,-0.00136700944693757,0.005444,-0.000244,-0.001475,0.254091,0.023839,327.820565,24.677129,0.998380,0.980131,0.005697,0.450126,-0.000028,0.000030,0.000022,0.000038,-0.000035,71.375010,0.000042,
2446,2953,4.02372441020998,6.72057846759616,-0.0164588753011685,0.005321,-0.000406,0.002503,0.235146,0.023682,315.725339,25.227461,0.999640,0.993246,0.003597,0.430532,-0.000007,0.000004,0.000012,0.000012,-0.000015,57.171478,0.000016,
2086,2548,-3.73280051013775,-2.11407592127873,-0.0122984041599352,0.005564,-0.001214,0.007132,0.235037,0.006502,322.928542,24.305371,0.999412,0.991320,0.003941,0.499724,-0.000016,0.000007,0.000007,0.000009,-0.000018,75.450725,0.000018,
2056,2443,-4.36871199606944,-4.40356909883568,-0.0103733128638055,0.005343,-0.000538,0.003543,0.235594,0.008221,324.799725,24.502995,0.999166,0.987117,0.004589,0.380274,-0.000027,0.000018,0.000015,0.000023,-0.000032,72.870372,0.000033,
2266,2068,0.270680574194341,-12.6118846113841,0.027251545018828,0.005004,-0.000643,0.006606,0.207144,0.039999,330.382947,23.332304,0.999166,0.981709,0.005224,0.334519,-0.000029,-0.000015,0.000026,0.000006,-0.000049,52.299371,0.000054,
2281,2143,0.585247091743113,-10.966179355868,0.0229085480727917,0.005619,-0.000317,0.004174,0.243396,0.043760,329.155677,23.454964,0.999245,0.981845,0.005275,0.274923,-0.000028,-0.000017,0.000001,-0.000017,-0.000028,83.579653,0.000046,
2296,2203,0.901628337322027,-9.65179884753653,0.0133247509908756,0.006004,-0.000238,0.002166,0.267770,0.017231,328.118151,23.406846,0.998555,0.976377,0.005907,0.343730,-0.000025,0.000006,0.000002,0.000006,-0.000026,86.834457,0.000027,
2221,3208,-0.907943983530853,12.2354328627459,0.0455934931812862,0.005146,-0.000161,0.004494,0.222958,0.044351,312.146346,25.026573,0.999331,0.992112,0.003697,0.421048,0.000001,0.000014,0.000014,0.000023,-0.000008,57.241579,0.000023,
2416,2788,3.4030331472472,3.12976401497083,-0.0199893060357113,0.005391,-0.000488,0.005140,0.228691,0.031990,318.336152,24.720584,0.999464,0.988215,0.004296,0.352599,-0.000001,0.000023,0.000001,0.000023,-0.000001,87.276562,0.000026,
2461,3073,4.32801033434814,9.32753529358767,0.00873284003404251,0.005429,-0.000438,0.004216,0.233640,0.017928,314.000969,25.668280,0.999606,0.991756,0.003737,0.448537,0.000001,0.000021,0.000017,0.000031,-0.000009,60.427667,0.000032,
2386,2623,2.78181988777957,-0.469199021776987,-0.0181365531355482,0.005193,-0.000835,0.004677,0.221315,0.001717,321.001251,24.087225,0.999173,0.987208,0.004417,0.453585,0.000006,0.000005,0.000003,0.000009,0.000002,39.076906,0.000012,
2026,2338,-5.00480737070967,-6.69820736469117,0.0061404585882201,0.005235,-0.000785,0.007568,0.219676,0.018408,326.789663,24.616079,0.999142,0.986575,0.004575,0.411544,-0.000013,0.000006,0.000016,0.000015,-0.000022,60.041297,0.000022,
2146,2818,-2.47351153918799,3.76833307570235,-0.021068043999378,0.005136,-0.000636,0.003828,0.224793,0.019363,318.197343,24.464395,0.999578,0.992490,0.003564,0.407252,0.000004,0.000013,0.000007,0.000016,0.000001,61.429231,0.000019,
2191,3043,-1.53169746254178,8.65612985841451,0.0225661450315329,0.005147,-0.000686,0.004479,0.223037,0.020412,314.736557,24.786173,0.999710,0.994577,0.003249,0.343595,0.000003,0.000002,0.000000,0.000003,0.000002,4.588921,0.000006,
2491,3223,4.95231385154839,12.5860305305813,0.0310824909371945,0.005747,-0.000240,0.001950,0.256932,0.030968,311.821876,26.410075,0.999400,0.991169,0.003835,0.403212,0.000029,0.000016,0.000007,0.000032,0.000013,21.694930,0.000046,
2356,2473,2.15798153372214,-3.74382435198461,-0.0082590461419727,0.005455,-0.000638,0.002035,0.242889,0.011483,323.526070,23.799072,0.999602,0.988205,0.004206,0.379789,0.000005,-0.000014,0.000019,0.000017,-0.000026,31.982837,0.000027,
2236,3298,-0.601279678413004,14.1891599645619,0.00554742361816807,0.005248,0.000081,0.004036,0.229073,0.034611,310.304287,25.214377,0.999282,0.992534,0.003577,0.414994,-0.000015,0.000030,0.000007,0.000031,-0.000016,81.053315,0.000031,
2431,2863,3.71523369496702,4.7616627499153,-0.0113873070061459,0.005128,-0.000658,0.004730,0.217906,0.006335,317.195849,24.927970,0.999537,0.990519,0.003725,0.379719,-0.000024,0.000016,-0.000012,0.000019,-0.000027,-74.617216,0.000028,
2371,2548,2.47029498549566,-2.10633656200694,-0.00971488370493034,0.005296,-0.000597,0.002993,0.232187,0.004403,322.291802,23.929933,0.999376,0.986336,0.004686,0.417244,0.000006,-0.000018,0.000015,0.000013,-0.000025,25.714640,0.000025,
2041,2383,-4.68551642636234,-5.71464895055077,-0.00162627091600598,0.005216,-0.000753,0.004478,0.227139,0.014909,325.917693,24.531488,0.999211,0.987646,0.004434,0.421416,-0.000011,0.000015,0.000018,0.000024,-0.000020,63.215268,0.000026,
2116,2713,-3.10798268292443,1.48284261666996,-0.0215520544020364,0.005120,-0.000706,0.003808,0.224227,0.006022,320.024619,24.414343,0.999331,0.990170,0.003998,0.387635,0.000019,-0.000012,-0.000009,0.000022,-0.000015,-15.058959,0.000022,
2476,3103,4.64952253652502,9.97997699189144,0.0213512286503033,0.005632,-0.000472,0.003321,0.246224,0.017226,313.661423,25.877092,0.999414,0.990858,0.003843,0.403483,0.000026,0.000024,0.000015,0.000040,0.000011,42.977381,0.000053,
2311,2278,1.21493613580667,-8.00910651049333,0.0120347129831657,0.005736,-0.000260,0.001093,0.259126,0.032700,326.876631,23.524380,0.999220,0.983955,0.004800,0.339695,-0.000014,-0.000002,-0.000014,0.000007,-0.000023,-56.555165,0.000024,
2086,2563,-3.73456563998407,-1.78664072920808,-0.0078720146597675,0.005450,-0.000731,0.000354,0.249509,0.000617,322.736983,24.393661,0.998969,0.987907,0.004483,0.405238,-0.000011,0.000002,0.000003,0.000003,-0.000012,75.972459,0.000012,
2176,2968,-1.8448965906397,7.02681925871558,0.00440326476996233,0.005804,-0.000969,0.002784,0.258524,-0.002686,315.892861,24.575248,0.999388,0.992158,0.003589,0.425045,-0.000004,0.000023,0.000012,0.000028,-0.000008,70.139521,0.000028,
2206,3133,-1.22057657980262,10.6080789945703,0.0383887347596783,0.005426,-0.000599,0.006634,0.228941,0.019416,313.360246,24.863452,0.999641,0.993959,0.003350,0.408407,-0.000007,0.000014,0.000006,0.000016,-0.000009,76.083997,0.000016,
2341,2413,1.84330428719771,-5.05630635464658,0.00831616195938523,0.005049,-0.000256,-0.000087,0.231811,0.006665,324.624884,23.725035,0.999682,0.989972,0.004168,0.331448,0.000001,0.000015,0.000006,0.000018,-0.000001,68.779980,0.000020,
2266,2083,0.267737375644241,-12.2814821624595,0.0145377721412956,0.005420,-0.000337,0.003575,0.236325,0.041352,330.064742,23.342643,0.999373,0.982798,0.005121,0.354647,-0.000021,-0.000014,0.000027,0.000009,-0.000045,48.745101,0.000047,
2161,2923,-2.16442533495707,6.04994071732378,-0.00345664672471457,0.005055,-0.000579,0.006307,0.213414,0.026548,316.567808,24.557773,0.999293,0.988697,0.004175,0.404922,-0.000003,0.000018,0.000014,0.000025,-0.000010,63.291017,0.000025,
2326,2353,1.52675094639955,-6.36700625880701,0.00083903748981129,0.004928,0.000313,-0.000575,0.228107,0.059379,325.532347,23.611976,0.999259,0.982421,0.004822,0.397297,-0.000011,0.000006,0.000002,0.000007,-0.000011,83.930529,0.000011,
2011,2293,-5.32526520203257,-7.67833870160455,-0.0125545345887872,0.005251,0.000047,0.000969,0.238727,0.053658,327.469963,24.767073,0.998980,0.986336,0.004833,0.380501,-0.000021,0.000035,0.000037,0.000053,-0.000040,63.557129,0.000055,
2446,2968,4.02137153734902,7.04676593630126,-0.00732844568233304,0.005336,-0.000373,0.003913,0.230633,0.031792,315.551838,25.338394,0.999636,0.992592,0.003611,0.379075,-0.000008,0.000015,0.000014,0.000021,-0.000015,65.534262,0.000022,
2026,2353,-5.00735313676703,-6.37023724630539,0.00503873352522533,0.005173,-0.001472,0.010796,0.207771,0.016267,326.527110,24.628833,0.999119,0.986430,0.004750,0.388942,-0.000011,0.000011,0.000023,0.000025,-0.000025,57.536082,0.000029,
2056,2458,-4.37149304030123,-4.07683761463108,-0.00817619913249246,0.004742,-0.000557,0.004019,0.206611,0.023551,324.547372,24.452909,0.999210,0.986751,0.004704,0.441789,-0.000024,0.000016,0.000003,0.000016,-0.000024,85.707384,0.000025,
2101,2623,-3.4197977611925,-0.477295669393108,-0.0301080702630543,0.005210,-0.000624,0.002019,0.233690,0.003587,321.490980,24.330184,0.999097,0.986922,0.004554,0.458921,-0.000003,0.000001,0.000002,0.000002,-0.000004,70.583699,0.000004,
2071,2488,-4.04899842530707,-3.42241577500472,-0.00541319888128555,0.005459,-0.000390,0.003227,0.241817,0.040016,324.039284,24.394828,0.999547,0.990487,0.004185,0.475547,-0.000028,-0.000004,0.000003,-0.000004,-0.000029,82.953490,0.000036,
2221,3223,-0.9113227301794,12.560956323239,0.0414144411586221,0.004775,-0.000157,0.005461,0.202780,0.049763,311.845348,25.052082,0.999538,0.993449,0.003437,0.418390,0.000003,0.000020,0.000015,0.000028,-0.000006,60.149838,0.000029,
2281,2158,0.58206292643796,-10.638398692187,0.0218420169711635,0.005305,-0.000689,0.005701,0.223801,0.036912,328.886216,23.390637,0.999538,0.982867,0.005177,0.363249,-0.000029,-0.000021,-0.000001,-0.000020,-0.000029,-84.919279,0.000050,
2491,3238,4.94823301699255,12.9118750931475,0.0209985308349019,0.005578,-0.000357,0.001927,0.249171,0.018961,311.482835,26.458262,0.999569,0.992057,0.003663,0.400529,0.000029,0.000018,0.000006,0.000032,0.000015,25.036182,0.000048,
2401,2713,3.09004928993879,1.49514642725487,-0.0321475046433193,0.005137,-0.000270,0.002989,0.225049,0.033224,319.435882,24.365203,0.999595,0.990370,0.003908,0.470119,0.000005,0.000027,0.000003,0.000028,0.000004,81.926703,0.000035,
2251,1993,-0.0453416033475698,-14.2553028503348,0.00695560274442641,0.004951,-0.001107,0.008456,0.198671,0.034586,331.434290,23.279687,0.999647,0.990283,0.004388,0.343264,-0.000001,-0.000059,-0.000008,0.000000,-0.000061,-7.538034,0.000070,
2386,2638,2.77889156956641,-0.142100209929751,-0.0160827734234772,0.005007,-0.001051,0.004764,0.212374,-0.005262,320.765629,24.153337,0.999242,0.986910,0.004427,0.424493,0.000001,0.000013,0.000002,0.000013,0.000001,80.969903,0.000015,
2116,2728,-3.11037691626394,1.80997438861924,-0.0278320767106948,0.005389,-0.000030,0.001200,0.244593,0.030227,319.748803,24.407907,0.999337,0.989730,0.004078,0.421858,0.000015,-0.000006,-0.000009,0.000018,-0.000010,-20.809769,0.000018,
2461,3088,4.3247606165396,9.65411633084452,0.00747821371464852,0.005358,-0.000346,0.004845,0.228103,0.030407,313.738615,25.771223,0.999636,0.993971,0.003458,0.411296,0.000006,0.000028,0.000015,0.000035,-0.000002,63.689446,0.000040,
2041,2398,-4.68746027971904,-5.38747243814188,-0.00529588461665753,0.005777,-0.000593,0.005037,0.251470,0.020204,325.669910,24.455810,0.999195,0.989043,0.004210,0.496335,-0.000010,-0.000003,0.000006,0.000000,-0.000013,60.687549,0.000015,
2131,2758,-2.78946136140577,2.46277433530798,-0.0208154810659948,0.005218,-0.000749,0.006021,0.221997,0.007876,319.232716,24.448606,0.999515,0.991259,0.003768,0.373100,0.000003,-0.000008,-0.000008,0.000007,-0.000012,-28.433907,0.000012,
2416,2803,3.39999571551072,3.45553720522467,-0.0211520021558727,0.005188,-0.000269,0.002652,0.228597,0.026692,318.082215,24.687359,0.999372,0.987339,0.004516,0.428376,-0.000004,0.000021,0.000002,0.000021,-0.000004,85.818085,0.000022,
2026,2368,-5.00931264428957,-6.04308918559163,0.00466866668278954,0.005296,-0.001026,0.008210,0.220696,0.034551,326.295545,24.558337,0.999137,0.987153,0.004686,0.469661,-0.000002,0.000018,0.000022,0.000032,-0.000017,56.680330,0.000032,
2176,2983,-1.84842826212278,7.35313791385,-0.00055481497912524,0.005279,-0.000960,0.004494,0.229022,-0.005018,315.577231,24.610304,0.999229,0.992122,0.003665,0.399088,-0.000005,0.000014,0.000011,0.000020,-0.000010,65.046074,0.000020,
2266,2098,0.264765859102685,-11.9522913986488,0.0163923803666535,0.005258,-0.000999,0.007473,0.215841,0.031262,329.818278,23.420732,0.999208,0.980563,0.005404,0.295365,-0.000018,-0.000011,0.000021,0.000007,-0.000036,49.826068,0.000038,
2356,2488,2.15557139280241,-3.41775093943645,0.000250632081360891,0.005563,-0.001016,0.006479,0.232107,0.020494,323.343748,23.766992,0.999521,0.987565,0.004316,0.460492,0.000002,-0.000014,0.000020,0.000015,-0.000028,34.305611,0.000028,
2086,2578,-3.73794216775873,-1.45860839669176,-0.0189864342380019,0.005149,-0.000387,0.000605,0.235083,0.020559,322.386976,24.379721,0.999149,0.988432,0.004330,0.439264,-0.000012,-0.000004,-0.000001,-0.000004,-0.000012,-83.072466,0.000016,
2146,2833,-2.47461477321506,4.09288468394718,-0.0054823077385322,0.005526,-0.000609,0.004437,0.240923,0.021998,318.100273,24.441999,0.999534,0.992974,0.003530,0.439959,0.000003,0.000019,0.000011,0.000024,-0.000003,63.212221,0.000026,
2251,2008,-0.047856977440464,-13.9274746257767,0.0139114120518116,0.004448,-0.001384,0.007007,0.180266,0.025071,331.233453,23.259176,0.999551,0.987881,0.004687,0.381098,-0.000021,-0.000053,0.000006,-0.000020,-0.000054,10.214681,0.000077,
2191,3058,-1.53423540353372,8.98065319026747,0.0199557016858876,0.005280,-0.000462,0.003178,0.233229,0.006101,314.480586,24.704228,0.999797,0.995602,0.002990,0.424731,0.000006,0.000000,0.000000,0.000006,0.000000,2.810270,0.000007,
2221,3238,-0.913957660101236,12.8859271731232,0.0323220460405764,0.005150,-0.000481,0.001542,0.232386,-0.006360,311.553425,25.064456,0.999640,0.993756,0.003332,0.367628,0.000004,0.000020,0.000015,0.000029,-0.000005,58.890036,0.000031,
2296,2218,0.89883459037409,-9.32303807143513,0.011047857726453,0.005933,-0.000050,-0.000062,0.272091,0.037474,327.861468,23.414598,0.998769,0.978580,0.005658,0.389042,-0.000023,0.000008,-0.000006,0.000009,-0.000024,-79.034124,0.000025,
2311,2293,1.21116176707916,-7.68144517206395,0.0104146351989698,0.005093,-0.000541,0.004645,0.217463,0.039988,326.579588,23.478467,0.999280,0.985037,0.004817,0.427295,-0.000012,0.000005,-0.000010,0.000009,-0.000017,-64.845302,0.000017,
2011,2308,-5.32749064629958,-7.35229975094213,-0.0032109165778138,0.004946,-0.001070,0.005904,0.211027,0.006256,327.279791,24.738225,0.998976,0.987154,0.004750,0.351864,-0.000023,0.000016,0.000030,0.000032,-0.000039,61.543802,0.000042,
2491,3253,4.94391956203951,13.2376757082105,0.0121989796574553,0.005247,-0.000273,0.004049,0.225812,0.020764,311.138773,26.500990,0.999739,0.993250,0.003359,0.417102,0.000029,0.000042,0.000004,0.000043,0.000028,74.647793,0.000072,
2431,2878,3.71209830172721,5.08818998556384,-0.0127521502972172,0.005055,-0.000802,0.004459,0.215574,0.013257,316.937076,24.972226,0.999552,0.991223,0.003604,0.392157,-0.000025,0.000012,-0.000004,0.000013,-0.000026,-83.302574,0.000026,
2161,2938,-2.16659181347748,6.3752391449056,0.00176131052836581,0.005171,-0.000648,0.007939,0.213798,0.033199,316.367643,24.548351,0.999363,0.989210,0.004121,0.430585,-0.000005,0.000020,0.000014,0.000026,-0.000011,65.811044,0.000026,
2056,2473,-4.37347847930226,-3.74823795060367,-0.00957306310311878,0.005008,-0.000251,0.001899,0.224935,0.029485,324.311216,24.554379,0.999277,0.987432,0.004773,0.342076,-0.000020,0.000009,0.000002,0.000009,-0.000020,85.668655,0.000020,
2461,3103,4.32250800477531,9.9788461568937,0.0185552073722874,0.005211,-0.000402,0.004857,0.221262,0.021061,313.579258,25.806860,0.999574,0.992090,0.003674,0.419560,0.000008,0.000026,0.000011,0.000032,0.000003,65.105201,0.000038,
2326,2368,1.52376867884416,-6.03940480431275,-0.00538099918958324,0.005275,-0.000066,0.000514,0.240114,0.021685,325.250423,23.587652,0.999401,0.985939,0.004571,0.420353,-0.000012,0.000007,0.000006,0.000009,-0.000013,73.984211,0.000014,
2101,2638,-3.42227060536937,-0.150008342522938,-0.0313029900513015,0.005185,-0.000421,0.001695,0.233578,0.015206,321.237670,24.363678,0.999106,0.987356,0.004387,0.438694,0.000004,-0.000010,0.000000,0.000004,-0.000010,-0.662244,0.000010,
2281,2173,0.578652179528984,-10.3104642605756,0.0143136747360586,0.005081,-0.000697,0.005139,0.215456,0.024073,328.574242,23.283250,0.999381,0.982007,0.005268,0.488626,-0.000024,-0.000011,0.000004,-0.000010,-0.000025,72.982721,0.000036,
2041,2413,-4.6907077490398,-5.0582029425791,-0.015165432586457,0.005387,-0.000371,0.004970,0.233820,0.048811,325.327652,24.495117,0.999040,0.985295,0.004680,0.480132,-0.000012,-0.000003,0.000015,0.000009,-0.000023,53.262736,0.000023,
2341,2428,1.84106417856583,-4.72951465726345,0.0100888413281268,0.005294,0.000319,-0.002432,0.251448,0.028145,324.416838,23.664122,0.999779,0.993847,0.003617,0.451889,0.000005,0.000001,0.000004,0.000008,-0.000002,32.544965,0.000008,
2476,3118,4.64629376301595,10.3051488652409,0.0236046480214895,0.005387,-0.000660,0.004860,0.229022,0.012476,313.417398,25.896515,0.999521,0.990898,0.003687,0.434804,0.000024,0.000030,0.000014,0.000042,0.000012,51.414689,0.000056,
2446,2983,4.01802105787233,7.37259234087819,-0.00767404875296052,0.005238,-0.000673,0.006694,0.215594,0.018627,315.288705,25.375438,0.999637,0.991270,0.003784,0.380460,-0.000007,0.000013,0.000017,0.000023,-0.000017,60.301316,0.000023,
2206,3148,-1.22346963034101,10.9336286274527,0.0336881472589425,0.005416,-0.000572,0.005780,0.231292,0.027598,313.077804,24.864941,0.999558,0.993294,0.003449,0.430782,-0.000005,0.000010,0.000007,0.000012,-0.000008,69.396845,0.000013,
2026,2383,-5.01164087679203,-5.71464952013334,0.00151188094514509,0.005068,-0.000297,0.002976,0.224783,0.028462,326.031430,24.608403,0.999384,0.989223,0.004091,0.405631,-0.000005,0.000022,0.000013,0.000027,-0.000011,67.824276,0.000027,
2131,2773,-2.79188741030524,2.78868124105186,-0.0204618827602303,0.005145,-0.000687,0.004817,0.222303,0.006264,318.992625,24.422400,0.999628,0.992539,0.003476,0.403280,0.000002,-0.000009,-0.000006,0.000005,-0.000012,-24.082011,0.000012,
2071,2503,-4.05176348353753,-3.09527486042207,-0.00912015559089241,0.005303,-0.000702,0.004130,0.231949,0.010356,323.756607,24.387506,0.999346,0.989921,0.004142,0.451329,-0.000027,-0.000002,-0.000004,-0.000001,-0.000028,-80.010815,0.000033,
2401,2728,3.08776109559863,1.82166722023115,-0.0280506719842606,0.005386,-0.000658,0.002216,0.239120,0.014066,319.240171,24.434621,0.999594,0.990273,0.004020,0.427206,-0.000001,0.000015,0.000007,0.000018,-0.000003,69.262171,0.000019,
2116,2743,-3.11339576900024,2.13771173901167,-0.035176453244901,0.005251,0.000106,0.000791,0.239551,0.043958,319.438476,24.464499,0.999407,0.990270,0.003982,0.382889,0.000007,-0.000008,-0.000007,0.000010,-0.000011,-23.049131,0.000012,
2491,3268,4.9405041898845,13.5637570357575,0.00828668240546904,0.005385,-0.000532,0.005919,0.224884,0.010555,310.858038,26.613455,0.999848,0.995063,0.002904,0.351702,0.000032,0.000045,0.000010,0.000050,0.000027,61.028803,0.000078,
2371,2563,2.46730625722286,-1.77869286144951,-0.00912734890653155,0.005404,-0.000946,0.006488,0.224614,0.005178,322.045465,24.001734,0.999433,0.988302,0.004372,0.388072,0.000002,-0.000014,0.000009,0.000007,-0.000019,24.069354,0.000019,
2266,2113,0.263290651547596,-11.6247548105411,0.0282321882026508,0.005317,-0.000201,0.003978,0.230393,0.045926,329.690266,23.436802,0.999205,0.980771,0.005348,0.321830,-0.000016,-0.000007,0.000016,0.000005,-0.000028,52.346360,0.000030,
2251,2023,-0.0490581503326517,-13.5989095353575,0.0298881719172641,0.004904,-0.000809,0.009566,0.193039,0.050890,331.137817,23.376717,0.999104,0.981736,0.005453,0.315440,-0.000029,-0.000035,0.000016,-0.000015,-0.000048,40.295560,0.000067,
2011,2323,-5.3285038638001,-7.02604882365736,0.00844894080159975,0.005255,-0.000781,0.003097,0.232970,0.017442,327.157679,24.696868,0.998902,0.984519,0.005066,0.393962,-0.000023,0.000021,0.000022,0.000030,-0.000032,67.225910,0.000036,
2041,2428,-4.69277007771257,-4.7309265630742,-0.010628222926357,0.005493,-0.000794,0.008017,0.230109,0.035085,325.119913,24.536194,0.998960,0.984441,0.004829,0.419106,-0.000020,0.000012,0.000030,0.000030,-0.000037,59.212179,0.000040,
2386,2653,2.77568643994615,0.184938425457304,-0.0129790466648956,0.004771,-0.000977,0.008838,0.187021,0.019195,320.522138,24.195753,0.999275,0.986158,0.004543,0.450206,0.000001,0.000018,0.000006,0.000019,-0.000001,73.223451,0.000022,
2461,3118,4.31984741879725,10.3042093187635,0.0164063735823561,0.005593,-0.000435,0.002996,0.245793,0.001353,313.340180,25.831434,0.999551,0.990323,0.003869,0.428603,0.000008,0.000030,0.000012,0.000035,0.000003,66.510428,0.000042,
2191,3073,-1.53621830992076,9.3055571910493,0.0259743998544764,0.005415,-0.000376,0.002391,0.242015,0.010314,314.294936,24.698592,0.999658,0.994061,0.003264,0.448356,0.000005,0.000005,0.000002,0.000007,0.000003,45.805996,0.000011,
2491,3283,4.93735541854551,13.8884086356153,0.00374258018439377,0.005467,-0.000394,0.003391,0.238436,0.005708,310.587128,26.589279,0.999874,0.995574,0.002824,0.428354,0.000035,0.000029,0.000012,0.000045,0.000020,37.923205,0.000066,
2221,3253,-0.917080831522529,13.2108475179856,0.0266038925742009,0.005193,-0.000381,0.003223,0.229066,0.009207,311.256401,25.024629,0.999641,0.993856,0.003256,0.440443,0.000004,0.000021,0.000021,0.000035,-0.000010,56.572621,0.000036,
2026,2398,-5.01322632452782,-5.38706633391492,-0.000409759095816753,0.005882,-0.000076,0.003997,0.259510,0.030698,325.808321,24.589033,0.999413,0.989843,0.003999,0.419033,-0.000006,-0.000002,0.000000,-0.000002,-0.000006,85.661295,0.000008,
2416,2818,3.39750137175202,3.78146526026491,-0.0207524505512424,0.005326,-0.000356,-0.000860,0.247733,0.007502,317.860492,24.698630,0.999303,0.988491,0.004329,0.445448,-0.000011,0.000016,0.000000,0.000016,-0.000011,89.302538,0.000017,
2311,2308,1.20724246087431,-7.35136915714541,-0.00578594434625757,0.005229,-0.000691,0.005801,0.219754,0.035114,326.203994,23.525202,0.999419,0.986666,0.004783,0.410722,-0.000013,-0.000001,-0.000005,0.000001,-0.000015,-67.840777,0.000017,
2476,3133,4.64325704167564,10.6314849048088,0.0233666723260058,0.005347,-0.000684,0.004024,0.230449,0.017168,313.170439,26.002156,0.999457,0.990472,0.003737,0.389190,0.000032,0.000025,0.000009,0.000038,0.000019,34.040333,0.000057,
2281,2188,0.576567868953507,-9.98070789184628,0.0154146884222541,0.005420,-0.000260,0.002502,0.239939,0.024298,328.365508,23.426172,0.998998,0.979387,0.005581,0.376378,-0.000024,-0.000006,0.000004,-0.000005,-0.000025,76.423913,0.000032,
2161,2953,-2.16868082602119,6.70041695381257,0.00383902982423479,0.005299,-0.000668,0.005424,0.227409,0.022839,316.154527,24.526296,0.999482,0.991533,0.003668,0.451994,-0.000005,0.000020,0.000013,0.000025,-0.000010,67.114542,0.000026,
2146,2848,-2.47783261648801,4.41973960632352,-0.0162819407720463,0.005386,-0.000552,0.002491,0.240409,0.010230,317.765500,24.450793,0.999559,0.993017,0.003474,0.427003,0.000001,0.000018,0.000011,0.000024,-0.000005,64.072745,0.000025,
2431,2893,3.70914996987217,5.41456558672605,-0.0126940088000538,0.005164,-0.000737,0.005559,0.216556,0.026973,316.693480,25.010558,0.999542,0.991214,0.003698,0.416984,-0.000023,0.000008,0.000000,0.000008,-0.000023,89.580224,0.000023,
2086,2593,-3.74062546946503,-1.13153016905343,-0.0177038380452927,0.004851,-0.000257,0.002308,0.216554,0.043515,322.136315,24.388874,0.999192,0.988230,0.004295,0.452903,-0.000012,0.000005,0.000001,0.000005,-0.000012,87.046065,0.000012,
2206,3163,-1.22617602072784,11.2587844180385,0.0310017452918601,0.005364,-0.000666,0.003621,0.235691,0.007977,312.814507,24.874471,0.999775,0.995325,0.003002,0.417359,-0.000001,0.000011,0.000008,0.000015,-0.000005,65.053931,0.000015,
2116,2758,-3.11483127569602,2.46163335740126,-0.0154613375505619,0.005126,-0.000344,0.003288,0.226297,0.035201,319.347297,24.412162,0.999523,0.990893,0.003790,0.429670,0.000002,-0.000013,-0.000010,0.000007,-0.000018,-26.689920,0.000018,
2356,2503,2.15235359648691,-3.08941245876657,-0.00518909614510221,0.005515,-0.000844,0.005299,0.234131,0.012544,323.056880,23.836454,0.999549,0.987518,0.004386,0.423508,-0.000003,-0.000013,0.000015,0.000008,-0.000024,36.130019,0.000025,
2296,2233,0.895788394188202,-8.99438764857653,0.0120025974720193,0.005631,-0.000151,0.001200,0.253972,0.032610,327.609272,23.476339,0.998836,0.979646,0.005520,0.354832,-0.000029,0.000008,-0.000006,0.000009,-0.000029,-80.924432,0.000030,
2446,2998,4.01620588552489,7.69776669634449,0.00316048786146439,0.005554,-0.000571,0.006966,0.229206,0.031751,315.147982,25.405907,0.999386,0.987973,0.004161,0.414481,-0.000007,0.000011,0.000024,0.000027,-0.000023,55.038264,0.000029,
2326,2383,1.52095497603333,-5.71130170375434,-0.00274749948061981,0.005462,-0.000962,0.005975,0.229590,0.001424,325.019164,23.683056,0.999543,0.987768,0.004502,0.340866,-0.000007,0.000011,0.000002,0.000011,-0.000007,82.567922,0.000011,
2491,3298,4.9342105188547,14.2139159654946,0.00532381366110712,0.005318,-0.000308,0.004146,0.228755,0.015061,310.343738,26.667220,0.999721,0.993142,0.003411,0.417090,0.000036,0.000043,0.000020,0.000059,0.000019,50.469253,0.000082,
2131,2788,-2.79433705361864,3.11439112439415,-0.0154444453888232,0.004959,-0.000974,0.006855,0.207594,0.017695,318.776387,24.405655,0.999630,0.992890,0.003376,0.437146,0.000001,-0.000004,0.000000,0.000001,-0.000004,-1.525573,0.000004,
2071,2518,-4.05433801519579,-2.76753806272274,-0.0140325372200891,0.005329,-0.000612,0.003636,0.234577,0.009028,323.475803,24.400954,0.999334,0.990568,0.004017,0.434610,-0.000028,-0.000005,-0.000006,-0.000003,-0.000029,-76.215120,0.000036,
2011,2338,-5.33134871164522,-6.69856035529013,0.00701930405546136,0.004980,-0.001041,0.008129,0.206632,0.018073,326.878456,24.654091,0.998959,0.985872,0.004856,0.427454,-0.000028,0.000014,0.000010,0.000016,-0.000030,77.097698,0.000030,
2461,3133,4.31676867285506,10.630191194268,0.0202478799402002,0.005373,-0.000478,0.004856,0.228716,0.015196,313.109026,25.920713,0.999495,0.989676,0.003902,0.406494,0.000015,0.000025,0.000008,0.000029,0.000011,62.591190,0.000041,
2176,2998,-1.85057653482567,7.67864159447229,0.00656192854353321,0.005213,-0.000619,0.004653,0.225705,0.023901,315.388659,24.625685,0.999418,0.991586,0.003752,0.424263,-0.000005,0.000017,0.000008,0.000020,-0.000008,71.371209,0.000020,
2056,2488,-4.37565101097146,-3.42158081497841,-0.00866511323744135,0.005181,-0.000556,0.003705,0.227725,0.019687,324.079739,24.519997,0.999402,0.988756,0.004421,0.362701,-0.000020,0.000004,0.000003,0.000004,-0.000020,82.941093,0.000021,
2401,2743,3.08479539838435,2.14857911909061,-0.032065936849051,0.005589,-0.000440,0.001344,0.251725,0.011217,318.974892,24.463070,0.999530,0.989892,0.004022,0.441579,-0.000003,0.000017,0.000008,0.000019,-0.000006,70.596026,0.000020,
2041,2443,-4.69404836834207,-4.40492489207065,-0.000530981219810656,0.005708,-0.000437,0.005631,0.246748,0.025766,324.979104,24.512460,0.998875,0.982484,0.005213,0.426991,-0.000024,0.000031,0.000021,0.000038,-0.000031,70.963361,0.000041,
2101,2653,-3.42469071744029,0.176837841778877,-0.0269132497625151,0.005062,-0.000536,0.004571,0.219475,0.010390,321.017122,24.424704,0.999458,0.989096,0.004004,0.374656,0.000002,-0.000010,-0.000001,0.000002,-0.000010,-2.856882,0.000011,
2341,2443,1.83708644827916,-4.40006484672206,-0.00139073015617441,0.005275,-0.000412,0.000976,0.238440,0.006538,324.064580,23.770549,0.999498,0.988288,0.004314,0.362538,0.000010,-0.000012,0.000006,0.000011,-0.000013,14.080765,0.000014,
2416,2833,3.3945867995182,4.10798538237619,-0.0171987473059403,0.005574,-0.001075,0.005334,0.236186,-0.003188,317.633976,24.784093,0.998855,0.987297,0.004425,0.396832,-0.000014,0.000018,0.000000,0.000018,-0.000014,89.186245,0.000019,
2476,3148,4.64018320082309,10.9573588221563,0.0251717934140743,0.005203,-0.000365,0.004459,0.222305,0.029914,312.931125,26.073512,0.999505,0.989953,0.003758,0.386274,0.000036,0.000025,0.000012,0.000043,0.000017,32.548979,0.000063,
2221,3268,-0.919653699452066,13.5357858063425,0.0220174000897373,0.005534,-0.000202,0.002412,0.247514,0.020844,310.990481,25.001055,0.999523,0.993075,0.003457,0.493437,0.000003,0.000024,0.000023,0.000039,-0.000012,57.727494,0.000040,
2266,2128,0.259897345107934,-11.2955708850603,0.0181527732097493,0.005177,-0.000272,0.002158,0.229976,0.038245,329.364725,23.392452,0.999051,0.980719,0.005364,0.387545,-0.000014,-0.000008,0.000013,0.000002,-0.000024,50.885387,0.000027,
2371,2578,2.46428526620008,-1.45150324608975,-0.0105892679815724,0.005249,-0.000769,0.005041,0.222747,0.016209,321.787859,24.008418,0.999438,0.987819,0.004450,0.434711,0.000003,0.000002,0.000011,0.000014,-0.000008,43.826934,0.000014,
2506,1993,5.53346296454383,-14.2664970211125,0.0374849628201446,0.005117,-0.000315,0.000591,0.231283,0.033836,331.912226,21.482261,0.999077,0.973204,0.006318,0.327250,0.000083,-0.000247,0.000105,0.000114,-0.000277,16.280331,0.000279,
2191,3088,-1.5391029957479,9.6313616239,0.0276181121863033,0.005341,-0.000572,0.007261,0.223303,0.028209,314.044717,24.737694,0.999478,0.992440,0.003594,0.440525,0.000005,0.000005,0.000002,0.000007,0.000003,41.478042,0.000010,
2251,2038,-0.051759290760149,-13.2700510651653,0.0299131876741967,0.004972,-0.001059,0.011679,0.189234,0.037628,330.893465,23.384454,0.998995,0.979286,0.005583,0.321372,-0.000030,-0.000022,0.000014,-0.000012,-0.000040,53.211446,0.000055,
2026,2413,-5.01603072209846,-5.05862076046434,-0.0105691446544256,0.005736,-0.000009,0.000965,0.261166,0.043551,325.483422,24.565229,0.999327,0.987646,0.004339,0.447787,-0.000007,0.000004,0.000017,0.000016,-0.000019,54.518743,0.000020,
2431,2908,3.70568336696332,5.74030573354879,-0.0137687122204966,0.004901,-0.000860,0.007384,0.197709,0.022621,316.420886,25.004649,0.999641,0.991166,0.003651,0.468189,-0.000022,0.000003,0.000005,0.000004,-0.000023,78.454187,0.000024,
2446,3013,4.01319436514882,8.02392790415998,0.000472472498358911,0.005395,-0.000263,0.002513,0.238667,0.031376,314.889388,25.452809,0.999196,0.985793,0.004309,0.418609,-0.000004,0.000010,0.000025,0.000029,-0.000023,52.543569,0.000031,
2116,2773,-3.11743041534894,2.78768292156655,-0.0146738750838153,0.005109,-0.000610,0.006409,0.216182,0.023609,319.100469,24.411733,0.999690,0.992380,0.003482,0.421882,0.000000,-0.000013,-0.000010,0.000006,-0.000018,-28.576361,0.000019,
2386,2668,2.77318728777465,0.512424851624601,-0.01888130588884,0.005256,-0.000604,0.004062,0.226538,0.008830,320.268285,24.243185,0.999362,0.987680,0.004375,0.436238,0.000000,0.000019,0.000001,0.000019,0.000000,86.407282,0.000022,
2296,2248,0.892839749833708,-8.66665310278814,0.00895681334458232,0.005602,-0.000442,0.000934,0.253493,0.005847,327.341980,23.440271,0.999059,0.982176,0.005236,0.396714,-0.000025,-0.000002,-0.000008,0.000000,-0.000027,-72.715714,0.000032,
2086,2608,-3.74261035527244,-0.804171446195951,-0.0198834445287162,0.005360,-0.000164,0.002208,0.240285,0.039154,321.898820,24.425601,0.999117,0.988365,0.004332,0.411692,-0.000010,0.000005,0.000004,0.000006,-0.000011,77.622827,0.000011,
2056,2503,-4.37868530846704,-3.09507055734064,-0.0160140067562793,0.005033,-0.000950,0.006054,0.214215,0.003678,323.763505,24.408307,0.999428,0.988925,0.004249,0.454403,-0.000020,0.000002,-0.000009,0.000006,-0.000023,-70.505235,0.000024,
2461,3148,4.31402077125746,10.9557853095956,0.0234296717093798,0.005270,-0.000202,0.003490,0.229270,0.028061,312.890139,25.974517,0.999441,0.989526,0.003844,0.418897,0.000017,0.000026,0.000010,0.000032,0.000010,56.956299,0.000044,
2161,2968,-2.17107841923697,7.02643891883439,0.00357106724942469,0.005440,-0.000904,0.005295,0.234215,0.004979,315.914593,24.577045,0.999619,0.993033,0.003385,0.392719,-0.000005,0.000023,0.000012,0.000028,-0.000009,69.345491,0.000028,
2011,2353,-5.33364527582514,-6.36879429791897,-0.00525539747883386,0.005419,-0.000619,0.004924,0.235634,0.017130,326.563048,24.720153,0.999132,0.988871,0.004553,0.350987,-0.000025,0.000026,0.000021,0.000033,-0.000032,70.548062,0.000038,
2131,2803,-2.79654000201108,3.44064221144117,-0.0159223852234049,0.005181,-0.000586,0.005849,0.220946,0.026903,318.541958,24.402254,0.999548,0.992320,0.003560,0.455511,0.000002,-0.000002,0.000005,0.000005,-0.000006,34.903798,0.000007,
2071,2533,-4.05613790049705,-2.44043042213868,-0.0085451443598572,0.005684,-0.000704,0.006387,0.243107,0.027553,323.287398,24.435318,0.999350,0.990454,0.004054,0.416529,-0.000034,0.000005,-0.000004,0.000006,-0.000035,-84.421833,0.000037,
2221,3283,-0.923232477895279,13.8625224415788,0.0121987740939176,0.005425,-0.000648,0.004223,0.236613,0.017934,310.650598,25.133864,0.999383,0.992152,0.003520,0.374656,0.000000,0.000029,0.000024,0.000042,-0.000014,60.576266,0.000043,
2041,2458,-4.69678350769182,-4.077581910501,-0.0043381329714407,0.005462,-0.000524,0.005583,0.235551,0.022716,324.694432,24.479852,0.998892,0.982722,0.005241,0.450517,-0.000022,0.000030,0.000007,0.000030,-0.000023,82.939790,0.000032,
2506,2008,5.52988190726694,-13.9370206120344,0.0337268785169726,0.004780,0.000142,-0.001748,0.225126,0.032460,331.633116,21.482672,0.999271,0.975777,0.006070,0.390425,0.000093,-0.000143,0.000050,0.000104,-0.000154,11.487473,0.000157,
2206,3178,-1.22872537046077,11.5845369748894,0.0286909722537416,0.005468,-0.000371,0.001793,0.246446,0.021108,312.560118,24.912785,0.999694,0.994886,0.003115,0.407660,0.000000,0.000015,0.000008,0.000019,-0.000003,66.258041,0.000020,
2401,2758,3.08214082239739,2.47499673628043,-0.0267736190226628,0.005519,-0.000196,0.002411,0.244703,0.018300,318.767815,24.514746,0.999357,0.988130,0.004329,0.442712,-0.000001,0.000021,0.000006,0.000023,-0.000003,75.266115,0.000025,
2476,3163,4.63718332817606,11.2831613760134,0.0229199784570255,0.005302,-0.000362,0.002866,0.232918,0.017887,312.676690,26.142294,0.999539,0.990520,0.003752,0.360735,0.000028,0.000032,0.000012,0.000042,0.000018,49.188712,0.000062,
2281,2203,0.573802326464115,-9.65224922373976,0.0145518748045106,0.005565,-0.000791,0.004644,0.239289,-0.006035,328.116122,23.465837,0.998822,0.979759,0.005563,0.336577,-0.000023,0.000005,0.000003,0.000005,-0.000023,84.112055,0.000025,
2326,2398,1.51897604446362,-5.38546513746599,0.00993961512887154,0.005241,-0.000650,0.005281,0.221972,0.008537,324.875420,23.644412,0.999563,0.987785,0.004511,0.422240,-0.000003,0.000020,0.000004,0.000020,-0.000003,81.089892,0.000022,
2146,2863,-2.48103854613711,4.74629495625531,-0.0195217804723598,0.005177,-0.000713,0.006853,0.217597,0.035957,317.471395,24.456539,0.999441,0.992294,0.003600,0.454672,0.000000,0.000014,0.000007,0.000017,-0.000003,65.869357,0.000018,
2416,2848,3.39181419781926,4.43420436334782,-0.0146696300959661,0.005460,-0.000748,0.004292,0.234916,0.005161,317.409169,24.819013,0.999291,0.988771,0.004107,0.417644,-0.000019,0.000012,-0.000005,0.000013,-0.000020,-80.938168,0.000020,
2311,2323,1.20493625406773,-7.02347248769675,-0.00366972889395356,0.005339,-0.000598,0.003456,0.232851,0.029992,325.992459,23.561691,0.999157,0.983846,0.005075,0.403254,-0.000015,-0.000006,-0.000003,-0.000006,-0.000016,-72.508259,0.000022,
2341,2458,1.83362677110349,-4.07179284933702,-0.0109418159624397,0.005409,-0.000496,0.001678,0.242125,0.002576,323.745486,23.775877,0.999625,0.988004,0.004233,0.391297,0.000008,-0.000006,0.000013,0.000016,-0.000014,31.009250,0.000017,
2026,2428,-5.01884602934246,-4.73128844713156,-0.0124820640892835,0.005371,-0.000368,0.002727,0.239452,0.025281,325.204319,24.554680,0.999082,0.985530,0.004708,0.431940,-0.000015,0.000022,0.000029,0.000038,-0.000031,60.891063,0.000040,
2221,3298,-0.926804204515943,14.1873986942327,0.0032458470903407,0.005148,-0.000524,0.004455,0.223100,0.013049,310.316166,25.106755,0.999416,0.992697,0.003353,0.414288,-0.000004,0.000032,0.000009,0.000034,-0.000006,77.511497,0.000036,
2176,3013,-1.85290604359696,8.00390521723318,0.0117597276785091,0.005262,-0.000800,0.007227,0.219939,0.026508,315.181813,24.635468,0.999355,0.989749,0.004002,0.428472,-0.000006,0.000015,0.000006,0.000016,-0.000007,75.162257,0.000016,
2116,2788,-3.12004712435816,3.11343687837677,-0.0133093106369984,0.005114,-0.001131,0.010694,0.203607,0.024255,318.855999,24.380776,0.999579,0.992260,0.003573,0.456892,-0.000002,-0.000007,-0.000004,0.000000,-0.000009,-29.936405,0.000011,
2101,2668,-3.4267011358713,0.502639755752035,-0.0244177574111291,0.005265,-0.000596,0.004284,0.229643,0.011563,320.805388,24.372218,0.999553,0.990120,0.003875,0.429815,0.000004,-0.000012,-0.000001,0.000004,-0.000012,-3.156453,0.000012,
2011,2368,-5.33560087318223,-6.04241091072567,-0.00283620944401264,0.005469,-0.000898,0.004268,0.239666,0.007513,326.346327,24.635020,0.999146,0.988328,0.004628,0.416147,-0.000017,0.000027,0.000023,0.000037,-0.000027,66.639653,0.000038,
2356,2518,2.14922229160681,-2.76186671776422,-0.00668714854379004,0.005087,-0.000497,0.002068,0.226018,0.007092,322.793012,23.871913,0.999408,0.986165,0.004553,0.422537,-0.000003,-0.000014,0.000011,0.000004,-0.000020,31.260233,0.000021,
2506,2023,5.52694179964274,-13.6065493715308,0.0321033577986896,0.005504,-0.000247,0.002807,0.240548,0.029535,331.392750,21.605480,0.999354,0.972356,0.006288,0.329317,0.000101,-0.000063,0.000015,0.000103,-0.000064,5.349558,0.000104,
2371,2593,2.46126444115771,-1.12442826966758,-0.0126989310457475,0.005233,-0.000817,0.004725,0.223121,-0.006429,321.527230,24.037532,0.999315,0.987741,0.004432,0.424557,0.000008,0.000001,0.000009,0.000013,-0.000005,33.846965,0.000014,
2446,3028,4.01069614506067,8.34995995425712,0.00629336504556477,0.005306,-0.000131,0.001130,0.239782,0.022720,314.693701,25.557007,0.999443,0.988213,0.004073,0.357184,-0.000003,0.000008,0.000022,0.000026,-0.000020,52.021072,0.000027,
2461,3163,4.3117639906652,11.2811615303273,0.0269191723321569,0.005544,-0.000225,0.001045,0.251109,0.021554,312.695300,26.032791,0.999537,0.990667,0.003796,0.407436,0.000012,0.000033,0.000010,0.000037,0.000008,68.826967,0.000048,
2056,2518,-4.38028812231569,-2.76794123634691,-0.0137012940220984,0.005301,-0.000573,0.001469,0.239595,0.002084,323.565689,24.431466,0.999263,0.989352,0.004220,0.425145,-0.000023,-0.000002,-0.000012,0.000003,-0.000029,-65.747916,0.000032,
2086,2623,-3.7453171451224,-0.478223813854385,-0.0273058278324925,0.005519,-0.000704,0.002818,0.245666,0.003692,321.600252,24.324457,0.999170,0.988509,0.004300,0.477239,-0.000007,0.000002,0.000002,0.000002,-0.000007,78.931271,0.000007,
2251,2053,-0.0540100423069951,-12.9414240243914,0.0283852012343004,0.005089,-0.001198,0.006610,0.211107,-0.001143,330.662023,23.384609,0.998975,0.979181,0.005534,0.309021,-0.000031,-0.000015,0.000015,-0.000006,-0.000040,59.758275,0.000050,
2161,2983,-2.17426347942317,7.35247646219509,0.000523576452906127,0.005158,-0.000941,0.007813,0.213459,0.007135,315.623790,24.594569,0.999546,0.993161,0.003434,0.386708,-0.000006,0.000015,0.000013,0.000021,-0.000012,64.047412,0.000021,
2476,3178,4.6342620222242,11.6082442259326,0.0278295238346686,0.005301,-0.000450,0.006314,0.219785,0.033496,312.458629,26.163761,0.999632,0.991612,0.003628,0.410347,0.000028,0.000041,0.000010,0.000046,0.000022,61.072514,0.000070,
2386,2683,2.76958183271576,0.841424103636612,-0.0286110138401909,0.005355,-0.000411,0.004521,0.229552,0.021746,319.944961,24.380356,0.999373,0.987671,0.004240,0.356153,-0.000001,0.000033,0.000000,0.000033,-0.000001,89.367739,0.000037,
2431,2923,3.70313958014465,6.06732736679285,-0.012627298163352,0.005016,-0.000648,0.004598,0.213368,0.015915,316.200656,25.139127,0.999630,0.991957,0.003689,0.376571,-0.000013,-0.000005,0.000006,-0.000002,-0.000016,63.370458,0.000020,
2041,2473,-4.69929056264827,-3.74916206798755,-0.0147763878629235,0.005614,-0.000533,0.001585,0.253682,0.011653,324.383253,24.498012,0.998747,0.983092,0.005210,0.415186,-0.000017,0.000019,0.000004,0.000019,-0.000017,82.927218,0.000021,
2191,3103,-1.54103399262737,9.95626467343575,0.0321267420326308,0.005609,-0.000676,0.006092,0.239364,0.028019,313.853571,24.733433,0.999513,0.992630,0.003547,0.458125,0.000001,0.000006,0.000005,0.000009,-0.000002,57.756577,0.000009,
2296,2263,0.889088010034772,-8.33618588877284,0.000390177667895841,0.005468,-0.000695,0.004319,0.235883,0.013454,327.010021,23.569070,0.999434,0.987951,0.004659,0.307999,-0.000023,-0.000008,-0.000010,-0.000003,-0.000028,-62.636840,0.000035,
2266,2143,0.257634337480766,-10.9640727513463,0.0130599189188274,0.005740,0.000124,-0.000868,0.265915,0.033495,329.115477,23.616455,0.999477,0.984514,0.005025,0.187433,-0.000021,-0.000022,0.000010,-0.000011,-0.000031,43.246982,0.000044,
2506,2038,5.52369897530791,-13.2787528614502,0.0391939630707157,0.005028,-0.000852,0.005713,0.207332,0.023261,331.177297,21.591474,0.999339,0.970807,0.006364,0.401568,0.000093,-0.000057,0.000025,0.000097,-0.000060,9.102707,0.000098,
2026,2443,-5.02089434878731,-4.40295158131401,-0.0128858448881601,0.005561,-0.000108,0.002381,0.249251,0.019087,324.968384,24.643110,0.999438,0.989550,0.004131,0.329081,-0.000020,0.000044,0.000018,0.000049,-0.000025,75.354198,0.000049,
2401,2773,3.07954224452591,2.8008349415801,-0.0199831625075149,0.005179,-0.000295,0.000884,0.234590,-0.000347,318.570512,24.554322,0.999421,0.988276,0.004257,0.429873,-0.000004,0.000022,0.000003,0.000022,-0.000005,83.859703,0.000023,
2416,2863,3.38876786787569,4.76105552066445,-0.0132126940155786,0.005112,-0.000350,0.002635,0.225230,0.026856,317.166499,24.894855,0.999492,0.989646,0.003912,0.411123,-0.000019,0.000018,-0.000005,0.000018,-0.000020,-82.548466,0.000022,
2131,2818,-2.79850478322021,3.76669314076324,-0.0126090893617175,0.005284,-0.000187,0.003165,0.233937,0.042411,318.338747,24.407486,0.999362,0.990879,0.003930,0.471222,0.000006,0.000009,0.000010,0.000018,-0.000003,49.889776,0.000019,
2461,3178,4.30885032192685,11.6066238144935,0.0308001590477147,0.005626,-0.000509,0.004626,0.241321,0.024513,312.471877,26.095361,0.999632,0.991323,0.003718,0.400858,0.000012,0.000042,0.000008,0.000044,0.000010,75.728865,0.000058,
2071,2548,-4.05865103045675,-2.11326693548604,-0.0160036656946545,0.005922,-0.000730,0.005751,0.255858,0.011201,322.995690,24.398908,0.999454,0.990950,0.003993,0.434581,-0.000029,0.000009,0.000001,0.000009,-0.000029,88.852487,0.000030,
2506,2053,5.51981345554595,-12.948575131166,0.0393324304423004,0.004981,-0.002005,0.014040,0.172645,0.008681,330.901328,21.729952,0.999292,0.981254,0.005463,0.313302,0.000092,-0.000068,0.000013,0.000093,-0.000069,4.647882,0.000097,
2281,2218,0.570853458253083,-9.32304061689391,0.0108008661563304,0.005361,-0.000507,0.001599,0.240184,0.023002,327.843552,23.490107,0.998949,0.981279,0.005375,0.371912,-0.000023,0.000007,-0.000005,0.000008,-0.000024,-80.946137,0.000024,
2146,2878,-2.4824705647482,5.07120470933998,-0.00690421242421735,0.005326,-0.000500,0.005722,0.227928,0.037192,317.343412,24.456283,0.999502,0.991795,0.003658,0.463557,0.000003,0.000023,0.000005,0.000024,0.000002,75.815334,0.000029,
2326,2413,1.51516880706179,-5.05747366046236,-0.0020992596255951,0.004971,-0.000401,0.003322,0.216468,0.001521,324.526971,23.585664,0.999586,0.987834,0.004469,0.510401,-0.000002,0.000012,0.000005,0.000014,-0.000003,71.812172,0.000015,
2311,2338,1.20203486254275,-6.69598210257372,-0.000535907807773128,0.005227,-0.000905,0.007126,0.215084,0.026591,325.758663,23.574233,0.999233,0.983785,0.004859,0.421246,-0.000016,0.000006,-0.000004,0.000007,-0.000017,-80.239581,0.000017,
2116,2803,-3.12176320457165,3.43957277624275,-0.00747438592264871,0.005221,-0.000755,0.007057,0.219399,0.026852,318.676726,24.421353,0.999510,0.992717,0.003512,0.422140,-0.000002,-0.000003,0.000003,0.000000,-0.000005,39.205871,0.000005,
2011,2383,-5.33781974365083,-5.71404504643072,-0.00192741279857955,0.005328,-0.000307,0.003161,0.236389,0.050766,326.108452,24.668534,0.999291,0.988347,0.004319,0.415497,-0.000021,0.000026,0.000010,0.000028,-0.000024,78.442950,0.000030,
2236,1993,-0.37062150125492,-14.259480954493,0.0394125360234625,0.004871,-0.000889,0.007778,0.197605,0.046111,331.732421,23.325698,0.999611,0.989067,0.004533,0.412983,0.000005,-0.000062,-0.000005,0.000006,-0.000063,-3.971729,0.000069,
2446,3043,4.00789183428192,8.6749501918432,0.0108702144252106,0.005323,-0.000620,0.003577,0.231211,0.002831,314.478413,25.571547,0.999403,0.987453,0.004135,0.373882,0.000000,0.000014,0.000020,0.000028,-0.000014,55.140108,0.000028,
2176,3028,-1.85509696668143,8.32922506222138,0.0114799395893215,0.005592,-0.000841,0.006411,0.237686,0.024009,314.952578,24.622492,0.999483,0.991658,0.003828,0.450503,-0.000006,0.000006,0.000001,0.000006,-0.000006,84.442012,0.000007,
2206,3193,-1.23062643909186,11.9086635197616,0.0370487099016827,0.005718,-0.000590,0.003385,0.252783,0.007730,312.391421,24.894312,0.999790,0.996190,0.002896,0.428169,0.000002,0.000012,0.000009,0.000018,-0.000003,58.815105,0.000019,
2341,2473,1.83087083556473,-3.74442886187191,-0.00684858101362806,0.005216,-0.000490,0.002546,0.230331,0.024056,323.524755,23.804628,0.999565,0.987713,0.004240,0.421962,0.000008,-0.000012,0.000019,0.000019,-0.000023,30.715414,0.000025,
2086,2638,-3.74740506531036,-0.150872705413889,-0.0238820406199238,0.005626,-0.000513,0.003517,0.248660,0.015746,321.388460,24.401805,0.999178,0.988151,0.004279,0.411579,0.000001,-0.000009,-0.000001,0.000001,-0.000009,-3.877057,0.000010,
2101,2683,-3.42912725202209,0.828805111560577,-0.0232290954353971,0.005114,-0.000471,0.003621,0.224710,0.023249,320.567429,24.336107,0.999471,0.991278,0.003720,0.479270,0.000007,-0.000014,-0.000007,0.000009,-0.000016,-15.669596,0.000016,
2056,2533,-4.38250663481855,-2.4420525231961,-0.00280562321967182,0.005193,-0.001081,0.009358,0.212284,0.034617,323.387162,24.388357,0.999031,0.987845,0.004449,0.496216,-0.000030,0.000005,-0.000009,0.000007,-0.000032,-76.113861,0.000034,
2476,3193,4.6310385386032,11.9335353446452,0.0289488605517931,0.005091,-0.000334,0.007086,0.207271,0.048400,312.209231,26.186107,0.999520,0.991766,0.003573,0.458610,0.000027,0.000043,0.000010,0.000047,0.000023,63.787109,0.000071,
2251,2068,-0.0564487451644062,-12.6124932906507,0.0300327933383073,0.004970,-0.000614,0.004062,0.214155,0.024864,330.437563,23.388735,0.999228,0.981351,0.005197,0.357671,-0.000028,-0.000015,0.000019,-0.000001,-0.000041,54.051969,0.000048,
2041,2488,-4.7008375789201,-3.42281823486746,-0.00865709814956972,0.005911,-0.000455,0.000851,0.269476,0.023191,324.208062,24.461282,0.999356,0.988178,0.004477,0.457137,-0.000017,0.000012,0.000004,0.000013,-0.000018,82.575746,0.000018,
2371,2608,2.45867949392102,-0.796464905870636,-0.0150777842919183,0.005527,-0.000086,0.002487,0.244890,0.035029,321.284896,24.086762,0.999102,0.987095,0.004483,0.458874,0.000004,-0.000003,0.000008,0.000009,-0.000008,32.299831,0.000010,
2356,2533,2.14626674488955,-2.43454933845138,-0.00987422334878829,0.005220,-0.000458,0.002141,0.231898,0.020352,322.529014,23.857635,0.999404,0.986616,0.004558,0.490134,-0.000002,-0.000020,0.000013,0.000005,-0.000026,28.232459,0.000028,
2506,2068,5.51844509060341,-12.6205053667742,0.0572487970064799,0.005169,-0.001599,0.013486,0.183556,0.029997,330.819623,21.842636,0.999380,0.983140,0.005223,0.285352,0.000080,-0.000068,-0.000009,0.000080,-0.000069,-3.427614,0.000087,
2011,2398,-5.33970394445758,-5.38738451762394,-0.000121111447128897,0.005617,-0.000498,0.004621,0.245664,0.022347,325.891625,24.630959,0.999337,0.988226,0.004281,0.414116,-0.000021,-0.000009,-0.000004,-0.000007,-0.000023,-72.461360,0.000031,
2026,2458,-5.02381718153909,-4.07594099424496,-0.025061371540346,0.005559,-0.000241,0.001721,0.250932,0.012318,324.627292,24.506754,0.999445,0.990004,0.004045,0.450469,-0.000024,0.000042,0.000002,0.000042,-0.000024,88.452416,0.000042,
2071,2563,-4.06172373740461,-1.78549739529238,-0.0216181599916467,0.005476,-0.000719,0.004877,0.237904,0.028031,322.688181,24.407064,0.999207,0.989156,0.004260,0.441012,-0.000023,0.000005,-0.000002,0.000005,-0.000023,-85.723530,0.000024,
2431,2938,3.700769832217,6.39316550229962,-0.0096270805196923,0.005396,-0.000433,0.004870,0.229920,0.028002,315.997303,25.163050,0.999623,0.991454,0.003810,0.414046,-0.000010,0.000001,0.000004,0.000003,-0.000011,72.267172,0.000012,
2401,2788,3.07611436464435,3.1285768614808,-0.0213742248254221,0.005138,-0.000497,0.005279,0.216800,0.028224,318.295886,24.661867,0.999528,0.987941,0.004299,0.396447,-0.000006,0.000024,0.000001,0.000024,-0.000006,88.774853,0.000025,
2296,2278,0.886720685877748,-8.00959176206649,0.00920774602263918,0.005294,-0.001073,0.006109,0.221749,0.017936,326.827891,23.529212,0.999418,0.986374,0.004674,0.384437,-0.000020,0.000004,-0.000016,0.000012,-0.000028,-63.441089,0.000028,
2461,3193,4.30590556309539,11.9316168163853,0.0338148606183495,0.005542,-0.000422,0.005727,0.233403,0.047928,312.243121,26.092403,0.999611,0.991038,0.003686,0.480562,0.000012,0.000045,0.000009,0.000047,0.000009,75.101529,0.000060,
2191,3118,-1.5435180298372,10.2812023773706,0.0356796301510371,0.005410,-0.000705,0.005192,0.232906,0.003738,313.632029,24.753824,0.999556,0.992977,0.003465,0.426798,-0.000001,0.000009,0.000005,0.000011,-0.000003,67.225924,0.000012,
2416,2878,3.38566336793313,5.08769102930677,-0.0161219393684178,0.005151,-0.000246,0.002165,0.228834,0.039907,316.900706,24.931567,0.999525,0.990877,0.003720,0.435007,-0.000020,0.000014,0.000000,0.000014,-0.000020,89.530534,0.000020,
2386,2698,2.76713063976539,1.16683367897202,-0.021493165657489,0.005244,-0.000761,0.004661,0.223827,-0.008558,319.755478,24.374641,0.999477,0.989700,0.003932,0.374765,0.000000,0.000028,0.000004,0.000029,0.000000,82.105920,0.000033,
2161,2998,-2.17629958204869,7.67757349529235,0.00903767273649692,0.005054,-0.000779,0.007415,0.210034,0.027698,315.447051,24.589959,0.999619,0.993184,0.003528,0.421235,-0.000007,0.000019,0.000011,0.000023,-0.000011,69.686393,0.000023,
2131,2833,-2.80116773211158,4.09342202299833,-0.0160854035279954,0.005286,-0.000283,0.002717,0.235321,0.033569,318.067093,24.452040,0.999525,0.992462,0.003628,0.423463,0.000004,0.000014,0.000012,0.000022,-0.000005,55.957580,0.000023,
2476,3208,4.6288518623107,12.2587555085355,0.0316035747384831,0.005498,-0.000156,0.004359,0.236371,0.026448,312.014575,26.251136,0.999384,0.991307,0.003713,0.426713,0.000024,0.000038,0.000006,0.000041,0.000022,68.770950,0.000063,
2236,2008,-0.373679699144137,-13.9297821991023,0.0324718281683545,0.004693,-0.000777,0.004912,0.198734,0.027081,331.435144,23.324670,0.999553,0.988253,0.004627,0.420182,-0.000021,-0.000062,0.000005,-0.000020,-0.000063,7.278715,0.000087,
2311,2353,1.1992371143524,-6.36703047344734,-0.00426702121006883,0.005122,-0.000328,0.002574,0.226039,0.029936,325.495615,23.651171,0.999451,0.985687,0.004519,0.381838,-0.000014,0.000004,-0.000002,0.000004,-0.000014,-82.253672,0.000015,
2506,2083,5.51522387360987,-12.2913203260061,0.0437655716539211,0.005561,-0.000396,0.005937,0.231080,0.070973,330.513131,21.694119,0.999412,0.984354,0.004933,0.539634,0.000064,-0.000061,-0.000013,0.000066,-0.000062,-6.021447,0.000074,
2116,2818,-3.12421505565715,3.76585562124593,-0.0118312434660766,0.005481,-0.000745,0.006958,0.231680,0.024538,318.408910,24.406419,0.999470,0.992277,0.003656,0.438228,0.000003,0.000010,0.000007,0.000014,-0.000001,58.241161,0.000015,
2041,2503,-4.7041271607908,-3.09552036916594,-0.0116934713752244,0.005319,-0.000547,0.004903,0.230946,0.027904,323.902310,24.439858,0.999484,0.989808,0.004074,0.477103,-0.000019,0.000006,-0.000011,0.000010,-0.000023,-69.349318,0.000024,
2086,2653,-3.74927010321868,0.174895293576668,-0.0157391752840681,0.005847,-0.000948,0.007252,0.247944,0.012214,321.213038,24.393241,0.999525,0.989616,0.003890,0.415850,-0.000002,-0.000011,-0.000001,-0.000001,-0.000011,-5.602229,0.000014,
2266,2158,0.254901839899674,-10.6374495728069,0.0191183247580398,0.005336,-0.000184,0.000821,0.241713,0.045664,328.901079,23.504019,0.999210,0.983158,0.005167,0.340246,-0.000020,-0.000026,0.000007,-0.000015,-0.000030,34.278486,0.000046,
2206,3208,-1.23377415960335,12.2340172685685,0.0386850257672791,0.005314,-0.000466,0.006779,0.223577,0.044613,312.130093,24.902701,0.999597,0.994325,0.003300,0.471978,0.000006,0.000015,0.000012,0.000023,-0.000003,54.613199,0.000026,
2146,2893,-2.48480396531658,5.39708112461211,-0.00719191978350864,0.005393,-0.000443,0.004013,0.236227,0.027324,317.105280,24.464806,0.999512,0.989903,0.004013,0.452497,0.000001,0.000027,0.000008,0.000029,-0.000002,74.066120,0.000033,
2056,2548,-4.3848916487198,-2.11360897232645,-0.0184999355865898,0.005789,-0.000742,0.004686,0.252959,0.001251,323.054277,24.412309,0.999297,0.989529,0.004134,0.434815,-0.000025,0.000010,-0.000006,0.000011,-0.000026,-81.298238,0.000026,
2011,2413,-5.34261472025362,-5.06054583845948,-0.00367049506030526,0.004952,-0.000838,0.001886,0.222412,-0.001013,325.597865,24.558706,0.999267,0.988268,0.004293,0.453024,-0.000021,-0.000001,0.000015,0.000007,-0.000029,61.734197,0.000030,
2281,2233,0.568019649820531,-8.99419168173761,0.0113507286325785,0.005092,-0.000423,0.000398,0.231941,0.022468,327.597783,23.561236,0.998932,0.980326,0.005427,0.330551,-0.000030,0.000006,-0.000004,0.000007,-0.000031,-83.232354,0.000032,
2356,2548,2.14371040933411,-2.10754156649881,-0.0088472841871976,0.005508,-0.000682,0.003243,0.241130,-0.009092,322.303748,23.900197,0.999275,0.986289,0.004632,0.457707,-0.000002,-0.000019,0.000014,0.000005,-0.000027,28.739870,0.000028,
2371,2623,2.45508358556162,-0.469494431519585,-0.0181912859138151,0.005220,-0.000570,0.004784,0.222477,0.022182,320.992925,24.098070,0.999146,0.987339,0.004441,0.476582,0.000003,0.000005,0.000005,0.000009,-0.000001,50.943081,0.000009,
2326,2428,1.51150328569072,-4.72656818674341,-0.0168256522065349,0.005311,-0.000525,0.004554,0.227811,0.025735,324.171193,23.743816,0.999642,0.989896,0.004136,0.412755,0.000004,-0.000004,0.000004,0.000006,-0.000005,21.727541,0.000006,
2446,3058,4.00494207267846,9.00127104941316,0.00980711653988919,0.005439,-0.000433,0.003341,0.237539,0.017578,314.229880,25.640880,0.999543,0.990060,0.003932,0.370704,0.000003,0.000017,0.000017,0.000028,-0.000009,56.080178,0.000029,
2026,2473,-5.02636592073895,-3.74870223204667,-0.0195224054535288,0.005237,-0.000656,0.007081,0.221328,0.021747,324.401817,24.544776,0.999018,0.985061,0.004765,0.413388,-0.000016,0.000027,-0.000001,0.000027,-0.000016,-88.541596,0.000027,
2101,2698,-3.4315457024801,1.1558047617121,-0.0209480836096532,0.004936,-0.000604,0.003402,0.217163,0.018421,320.335534,24.406268,0.999233,0.990889,0.003916,0.405896,0.000013,-0.000020,-0.000006,0.000014,-0.000021,-10.327808,0.000022,
2341,2488,1.8285169132443,-3.41777679878357,-0.00382357528360444,0.005389,-0.000419,0.001925,0.240486,0.034159,323.317430,23.773957,0.999481,0.987117,0.004291,0.500521,0.000004,-0.000011,0.000019,0.000017,-0.000024,33.880115,0.000025,
2176,3043,-1.85711316382373,8.655611265759,0.0180912909717108,0.005528,-0.000297,0.004027,0.242260,0.025168,314.767145,24.753328,0.999657,0.995329,0.003201,0.332071,-0.000006,-0.000002,-0.000002,-0.000001,-0.000007,-64.970548,0.000009,
2251,2083,-0.0598423829350914,-12.2817579644774,0.0195515280894938,0.005229,-0.001034,0.007778,0.213780,0.020134,330.108260,23.459766,0.999348,0.981483,0.005272,0.308734,-0.000020,-0.000015,0.000019,0.000002,-0.000037,48.655140,0.000042,
2071,2578,-4.06447414733669,-1.45795290633822,-0.0257678525577489,0.005275,-0.000281,0.004240,0.230636,0.045835,322.403486,24.411905,0.999112,0.989042,0.004313,0.451965,-0.000024,-0.000003,-0.000006,-0.000002,-0.000026,-73.691657,0.000031,
2461,3208,4.30295089009454,12.2572995109977,0.0343849783727705,0.005590,-0.000270,0.006094,0.234224,0.035019,312.002387,26.178620,0.999567,0.989382,0.003938,0.434371,0.000010,0.000039,0.000007,0.000041,0.000008,77.195944,0.000052,
2506,2098,5.51095005083691,-11.9579204442041,0.0314526422519066,0.005552,-0.000585,0.006596,0.228091,0.034850,330.163633,22.027891,0.999579,0.985878,0.004812,0.234614,0.000052,-0.000027,-0.000014,0.000054,-0.000030,-9.627818,0.000055,
2401,2803,3.07332095181902,3.45457734413247,-0.0202336765313476,0.005167,-0.000522,0.005207,0.218436,0.037646,318.062769,24.652439,0.999567,0.989861,0.004097,0.460784,-0.000008,0.000020,0.000001,0.000020,-0.000008,88.958395,0.000021,
2416,2893,3.38331161876942,5.41388903409716,-0.01238423814101,0.005543,-0.000366,0.003354,0.242422,0.025788,316.700766,25.008096,0.999539,0.990920,0.003758,0.391587,-0.000018,0.000010,0.000004,0.000010,-0.000018,82.429583,0.000018,
2191,3133,-1.54607616029157,10.6072778210227,0.0355575936160335,0.005483,-0.000545,0.005618,0.235141,0.038944,313.387459,24.800564,0.999459,0.992783,0.003605,0.428861,-0.000003,0.000013,0.000005,0.000014,-0.000005,72.967845,0.000015,
2236,2023,-0.375031000368562,-13.6009648484016,0.043669344640648,0.005215,-0.000217,0.006023,0.219320,0.053098,331.307634,23.409475,0.998848,0.981010,0.005636,0.385438,-0.000032,-0.000043,0.000013,-0.000023,-0.000051,33.549248,0.000076,
2311,2368,1.1965764188253,-6.03974947071703,-0.00646700407162371,0.005351,-0.000445,0.002283,0.237498,0.021648,325.246643,23.607309,0.999689,0.988353,0.004178,0.451586,-0.000016,0.000002,-0.000001,0.000002,-0.000016,-87.164584,0.000017,
2011,2428,-5.34478714668414,-4.73280204419845,-0.00365601178930319,0.005037,-0.000692,0.002830,0.223842,0.008476,325.357458,24.575331,0.999046,0.986851,0.004567,0.435257,-0.000025,0.000017,0.000026,0.000029,-0.000037,64.823426,0.000039,
2431,2953,3.69716012080069,6.71962079136442,-0.0165020127492994,0.005225,-0.000533,0.003754,0.226193,0.017762,315.690731,25.201051,0.999711,0.992961,0.003555,0.415281,-0.000009,0.000002,0.000008,0.000006,-0.000013,62.465295,0.000013,
2476,3223,4.62577522390916,12.5846052798308,0.0292781984785506,0.005527,-0.000321,0.002763,0.243772,0.022215,311.755904,26.331624,0.999302,0.991548,0.003738,0.397268,0.000020,0.000026,0.000007,0.000030,0.000015,56.970122,0.000046,
2086,2668,-3.7517219711614,0.501411238745838,-0.0172053820949145,0.005800,-0.000651,0.006412,0.248360,0.032109,320.958229,24.353621,0.999445,0.990180,0.003883,0.474990,-0.000003,-0.000013,0.000000,-0.000003,-0.000013,-2.593487,0.000017,
2506,2113,5.50765299529354,-11.6305755458648,0.0310891669631701,0.005358,-0.000941,0.006131,0.220877,0.018759,329.912212,21.926050,0.999588,0.986101,0.004846,0.384348,0.000041,-0.000025,-0.000013,0.000043,-0.000028,-10.810021,0.000044,
2041,2518,-4.70642853265543,-2.76813344109374,-0.0147680332519826,0.005380,-0.000364,0.003360,0.238091,0.019457,323.641567,24.444409,0.999260,0.990069,0.004166,0.457453,-0.000026,-0.000001,-0.000015,0.000006,-0.000033,-65.169122,0.000035,
2386,2713,2.76503929878995,1.49300625357858,-0.0178656792576248,0.005493,-0.000585,0.001269,0.247500,-0.011085,319.565675,24.386425,0.999640,0.991562,0.003581,0.404103,-0.000002,0.000029,0.000004,0.000030,-0.000003,82.026778,0.000033,
2026,2488,-5.02763836068735,-3.42349273575287,-0.0125124555548837,0.005659,-0.000838,0.005171,0.245955,0.008151,324.243535,24.437406,0.999278,0.986923,0.004409,0.498371,-0.000018,0.000016,-0.000002,0.000016,-0.000018,-86.765426,0.000020,
2056,2563,-4.38701216455024,-1.78680543287903,-0.0141680452180708,0.005536,-0.000317,0.001985,0.249068,0.010252,322.843986,24.426974,0.999294,0.988724,0.004249,0.424661,-0.000019,0.000005,-0.000007,0.000006,-0.000020,-75.057583,0.000021,
2461,3223,4.29945678655259,12.5833458572037,0.0273542442481585,0.005436,-0.000083,0.002936,0.239160,0.038807,311.701678,26.241996,0.999556,0.991494,0.003669,0.427974,0.000007,0.000031,0.000009,0.000034,0.000004,72.216916,0.000042,
2161,3013,-2.17880219131728,8.00324632817169,0.00879659538088617,0.005085,-0.000565,0.007203,0.212212,0.038992,315.202489,24.591824,0.999439,0.990723,0.003943,0.439977,-0.000007,0.000018,0.000009,0.000021,-0.000010,72.080041,0.000021,
2206,3223,-1.23767545327404,12.5605810185935,0.0281508247481383,0.004822,-0.000665,0.007550,0.198382,0.033782,311.770545,25.004199,0.999789,0.995751,0.002970,0.374702,0.000008,0.000020,0.000012,0.000028,0.000001,58.607006,0.000033,
2371,2638,2.45213272345431,-0.14164810338788,-0.021272420549451,0.005230,-0.000582,0.002838,0.229883,0.023607,320.730438,24.180779,0.999214,0.987739,0.004364,0.436912,-0.000003,0.000012,0.000003,0.000013,-0.000003,78.221110,0.000014,
2131,2848,-2.80447160270002,4.41997730603554,-0.0230343723908959,0.004989,-0.000664,0.004009,0.217640,0.015935,317.747546,24.468404,0.999584,0.993062,0.003484,0.394829,0.000001,0.000013,0.000013,0.000021,-0.000007,57.508067,0.000021,
2326,2443,1.50929919846449,-4.40008494822966,-0.00840155196260639,0.005297,-0.000636,0.005208,0.224892,0.020934,323.996159,23.749574,0.999515,0.988060,0.004396,0.437891,0.000006,-0.000014,0.000006,0.000008,-0.000016,14.959849,0.000016,
2341,2503,1.82492323584925,-3.09002282061076,-0.00927721764077205,0.005220,-0.000993,0.004473,0.223649,0.005712,323.012031,23.810355,0.999399,0.986449,0.004407,0.473574,-0.000002,-0.000012,0.000015,0.000009,-0.000023,36.275899,0.000023,
2146,2908,-2.48693483239332,5.72258094705376,-0.00106604356267326,0.005400,-0.000622,0.004724,0.234402,0.031221,316.910591,24.475417,0.999441,0.989227,0.004076,0.453403,0.000000,0.000018,0.000011,0.000023,-0.000006,64.553911,0.000024,
2356,2563,2.14025474810601,-1.77870105563349,-0.0126978717999009,0.005194,-0.000553,0.003205,0.226954,0.007950,322.013161,24.026237,0.999405,0.989123,0.004291,0.388607,-0.000005,-0.000019,0.000008,-0.000001,-0.000022,23.176979,0.000026,
2116,2833,-3.12712597974785,4.09321896809293,-0.0198041317328261,0.005376,-0.000525,0.004624,0.233846,0.020567,318.100259,24.470142,0.999621,0.992933,0.003569,0.374025,0.000000,0.000014,0.000009,0.000018,-0.000004,64.230761,0.000019,
2101,2713,-3.43384776210764,1.48193913664755,-0.0217736469032843,0.005142,-0.000733,0.004299,0.223970,0.009986,320.092440,24.379712,0.999325,0.990403,0.003939,0.425538,0.000017,-0.000017,-0.000009,0.000019,-0.000019,-14.111637,0.000022,
2296,2293,0.883713015117724,-7.68090817344025,0.0105154973583694,0.004955,-0.001024,0.006659,0.204393,0.020225,326.578988,23.611019,0.999375,0.985610,0.004732,0.337134,-0.000019,0.000012,-0.000010,0.000015,-0.000022,-72.731639,0.000022,
2236,2038,-0.377930731418328,-13.2711125898165,0.0327673078697899,0.005496,-0.000212,0.003397,0.240660,0.029291,330.997467,23.394414,0.998890,0.978646,0.005676,0.401860,-0.000032,-0.000026,0.000011,-0.000018,-0.000041,52.883530,0.000060,
2461,3238,4.29646070858304,12.9087703500624,0.0290499200227146,0.005408,-0.000414,0.004000,0.233771,0.027372,311.464116,26.317252,0.999757,0.994008,0.003187,0.394165,0.000007,0.000036,0.000010,0.000039,0.000004,72.805256,0.000048,
2071,2593,-4.06677117397953,-1.13165537611987,-0.0238166334696075,0.005292,-0.000831,0.005893,0.226505,0.017653,322.173397,24.406362,0.999056,0.988820,0.004261,0.426755,-0.000022,0.000008,-0.000005,0.000008,-0.000023,-81.576535,0.000023,
2476,3238,4.62150424461127,12.9104680622901,0.0175274095410032,0.005363,-0.000627,0.003788,0.232278,0.023276,311.399103,26.359005,0.999662,0.993909,0.003235,0.426295,0.000016,0.000032,0.000008,0.000035,0.000013,66.375034,0.000050,
2266,2173,0.251241606491572,-10.3096404405592,0.0136662488703791,0.004993,-0.000764,0.004574,0.213455,0.034525,328.586554,23.405574,0.999516,0.984278,0.005012,0.456440,-0.000016,-0.000013,0.000013,-0.000001,-0.000027,47.986069,0.000032,
2431,2968,3.69423019737512,7.0452491196768,-0.0143761406033036,0.005107,-0.000406,0.003925,0.220197,0.025158,315.457448,25.212632,0.999847,0.995296,0.003050,0.460433,-0.000010,0.000012,0.000009,0.000015,-0.000013,69.970244,0.000016,
2446,3073,4.00156593803401,9.32676515859017,0.00416149695161039,0.005456,-0.000469,0.002576,0.241177,0.012385,313.940711,25.628709,0.999687,0.992987,0.003485,0.429050,0.000004,0.000024,0.000015,0.000032,-0.000004,61.798954,0.000035,
2416,2908,3.38016523652837,5.73965915547889,-0.0135153582077123,0.005505,-0.000549,0.004260,0.237301,0.016442,316.441496,25.009289,0.999570,0.991304,0.003729,0.428444,-0.000017,0.000005,0.000006,0.000006,-0.000019,75.481578,0.000019,
2026,2503,-5.03106852664977,-3.09345641741387,-0.0234127338854933,0.005189,-0.000502,0.006095,0.221942,0.037117,323.885441,24.570997,0.999647,0.992839,0.003625,0.385408,-0.000021,0.000004,-0.000016,0.000012,-0.000029,-64.227088,0.000029,
2011,2443,-5.3467909441911,-4.40430277743467,-0.0014687897058252,0.005211,-0.000489,0.004479,0.227462,0.034074,325.136691,24.670198,0.999383,0.989747,0.004095,0.355444,-0.000027,0.000045,0.000015,0.000048,-0.000030,78.449561,0.000049,
2506,2128,5.50404610898267,-11.3011982703525,0.027162354087011,0.005343,-0.001115,0.007680,0.214152,0.029010,329.630385,21.950341,0.999597,0.985105,0.004959,0.434748,0.000039,-0.000033,-0.000007,0.000039,-0.000033,-5.175205,0.000043,
2401,2818,3.07113147721276,3.78082442327896,-0.0177413285892953,0.005499,-0.000651,0.002652,0.242906,0.019657,317.863732,24.707512,0.999488,0.989071,0.004301,0.433212,-0.000015,0.000017,-0.000001,0.000017,-0.000015,-88.643608,0.000018,
2086,2683,-3.7546758094272,0.828261520179986,-0.0220577792685503,0.005393,-0.000459,0.004369,0.235615,0.038655,320.661955,24.334919,0.999557,0.992004,0.003528,0.499813,-0.000001,-0.000018,-0.000007,0.000001,-0.000021,-19.759069,0.000023,
2191,3148,-1.54890757364595,10.9328999390122,0.0326912739751037,0.005435,-0.000513,0.005529,0.233283,0.043262,313.116179,24.823636,0.999190,0.991228,0.003986,0.423357,-0.000001,0.000011,0.000006,0.000013,-0.000004,67.131724,0.000014,
2176,3058,-1.8595058534189,8.9789529402893,0.0293148027618599,0.005284,-0.000865,0.009230,0.214702,0.020258,314.589672,24.643126,0.999695,0.995293,0.003154,0.448711,-0.000004,-0.000003,-0.000002,-0.000002,-0.000005,-55.727700,0.000007,
2161,3028,-2.18059638161332,8.32855033919005,0.0101544901303328,0.005531,-0.000525,0.004191,0.242014,0.024199,314.999045,24.600371,0.999368,0.989340,0.004309,0.426067,-0.000006,0.000010,0.000005,0.000011,-0.000008,73.982612,0.000012,
2041,2533,-4.70918864897687,-2.44073444317794,-0.0153286701086586,0.004942,-0.000622,0.003607,0.217248,0.020193,323.373732,24.468693,0.999088,0.989717,0.004103,0.427403,-0.000029,0.000001,-0.000013,0.000006,-0.000033,-69.767183,0.000035,
2311,2383,1.19434409721553,-5.71221353251579,0.00265177683837692,0.005111,-0.000053,0.001260,0.230169,0.032716,325.072700,23.681825,0.999432,0.986340,0.004656,0.421744,-0.000012,0.000007,-0.000003,0.000008,-0.000013,-81.787488,0.000013,
2056,2578,-4.38944126564227,-1.45913305270394,-0.0212391560972378,0.005748,0.000102,0.000399,0.263500,0.034846,322.556550,24.410369,0.999100,0.988743,0.004259,0.461583,-0.000021,-0.000006,-0.000011,0.000000,-0.000027,-61.972406,0.000032,
2461,3253,4.2927083164922,13.2344086558987,0.0202277348859639,0.005355,-0.000307,0.003429,0.233552,0.034435,311.143216,26.338635,0.999757,0.994015,0.003104,0.433107,0.000009,0.000055,0.000012,0.000058,0.000005,75.874403,0.000070,
2476,3253,4.61791445846204,13.2360903547528,0.0140112081124357,0.005257,-0.000459,0.005583,0.220640,0.031402,311.111221,26.408442,0.999702,0.993426,0.003222,0.440120,0.000015,0.000054,0.000009,0.000056,0.000013,77.208532,0.000074,
2251,2098,-0.0618624285555249,-11.9532401173387,0.021449881586534,0.005496,-0.000700,0.005009,0.235172,0.024135,329.904316,23.462149,0.999407,0.980226,0.005499,0.336947,-0.000016,-0.000009,0.000015,0.000003,-0.000028,51.926318,0.000031,
2281,2248,0.565613565568615,-8.66701719120977,0.0116450673048121,0.005423,-0.000713,0.001430,0.243573,0.000225,327.370644,23.503513,0.999135,0.981097,0.005310,0.396128,-0.000026,-0.000005,-0.000007,-0.000003,-0.000028,-73.441961,0.000034,
2386,2728,2.76192798477536,1.81959535058691,-0.0174799488960957,0.005427,-0.001048,0.003549,0.236116,-0.021821,319.313475,24.422806,0.999598,0.991048,0.003786,0.400496,-0.000007,0.000018,0.000008,0.000020,-0.000009,73.137476,0.000020,
2206,3238,-1.23919407848615,12.8845322632879,0.032436353609171,0.005423,-0.000418,0.004581,0.235513,0.017551,311.598350,24.958941,0.999734,0.994738,0.003110,0.419422,0.000009,0.000021,0.000012,0.000029,0.000001,57.947885,0.000034,
2116,2848,-3.12962060757486,4.41836012968076,-0.0150807160919726,0.005128,-0.000613,0.006396,0.217143,0.020238,317.879641,24.426449,0.999668,0.993265,0.003408,0.420569,-0.000003,0.000013,0.000010,0.000017,-0.000008,64.965362,0.000017,
2101,2728,-3.43632806403685,1.80947421357376,-0.0331457475340358,0.005435,-0.000111,-0.001253,0.253953,0.023571,319.783692,24.379676,0.999301,0.989431,0.004099,0.440902,0.000012,-0.000010,-0.000009,0.000015,-0.000013,-19.796972,0.000016,
2146,2923,-2.48934821429751,6.04817339366429,0.00168098750646095,0.005209,-0.000544,0.003303,0.229866,0.015330,316.685000,24.493602,0.999203,0.986790,0.004419,0.426636,-0.000003,0.000015,0.000013,0.000022,-0.000010,62.216869,0.000022,
2371,2653,2.44872907721152,0.185728534002656,-0.0225596084119388,0.005094,-0.000639,0.006671,0.209990,0.023302,320.455766,24.242335,0.999340,0.987293,0.004449,0.416650,-0.000003,0.000018,0.000007,0.000020,-0.000005,74.377048,0.000021,
2446,3088,3.99978561392198,9.65257811441493,0.0171024099776105,0.005716,-0.000420,0.003792,0.248681,0.024604,313.810765,25.751317,0.999679,0.993245,0.003495,0.369651,0.000006,0.000029,0.000013,0.000035,0.000001,65.906095,0.000041,
2011,2458,-5.34860186513924,-4.07813423574877,-0.000296580414214986,0.005414,-0.000206,0.002537,0.242173,0.021045,324.919831,24.585587,0.999461,0.990033,0.003990,0.416409,-0.000030,0.000040,-0.000002,0.000040,-0.000030,-88.480223,0.000042,
2431,2983,3.69245377158846,7.36990295096373,-0.000668524709737994,0.005261,-0.000627,0.004790,0.223941,0.009300,315.331389,25.240724,0.999681,0.991543,0.003630,0.465839,-0.000008,0.000009,0.000012,0.000015,-0.000015,61.751622,0.000017,
2326,2458,1.50642998751469,-4.07179430424991,-0.0143691685322551,0.005509,-0.000506,0.003164,0.241727,0.019257,323.720057,23.787825,0.999548,0.987801,0.004332,0.433727,0.000003,-0.000009,0.000013,0.000012,-0.000018,32.791239,0.000018,
2026,2518,-5.03298930941407,-2.76822619798777,-0.0213861290808381,0.005298,-0.000538,0.004727,0.230668,0.017684,323.669826,24.435503,0.999679,0.993787,0.003438,0.492893,-0.000031,-0.000004,-0.000022,0.000008,-0.000043,-60.541157,0.000046,
2506,2143,5.50079522244422,-10.9705280076775,0.0251465056694542,0.005186,-0.000301,0.005193,0.216958,0.025835,329.373270,22.132611,0.999042,0.975086,0.006068,0.313335,0.000044,-0.000012,0.000002,0.000044,-0.000012,2.051652,0.000045,
2296,2308,0.880726020407547,-7.35326987937445,0.00398750475420684,0.005154,-0.000901,0.006514,0.214053,0.014691,326.292481,23.531771,0.999256,0.984595,0.005029,0.443041,-0.000020,0.000005,-0.000006,0.000007,-0.000022,-77.464452,0.000022,
2131,2863,-2.80621968313585,4.74483484877992,-0.0105741099799843,0.004957,-0.000699,0.005037,0.213089,0.017536,317.603546,24.458414,0.999567,0.992518,0.003525,0.411679,0.000002,0.000008,0.000009,0.000015,-0.000005,53.492701,0.000015,
2461,3268,4.28812601740644,13.5609168214677,-0.000136689537498569,0.005500,-0.000260,0.003775,0.238944,0.031266,310.730608,26.392006,0.999767,0.994405,0.002977,0.429296,0.000013,0.000051,0.000021,0.000060,0.000004,66.353508,0.000071,
2356,2578,2.13746792057089,-1.45179926639413,-0.0108848938678534,0.005022,-0.000451,0.002129,0.222924,0.016333,321.780886,24.037815,0.999299,0.987525,0.004433,0.425231,-0.000003,-0.000005,0.000009,0.000005,-0.000013,41.633933,0.000013,
2266,2188,0.249416325270932,-9.98015519865336,0.018294669164618,0.005536,-0.000544,0.005080,0.236789,0.042248,328.406088,23.553223,0.999196,0.983730,0.005101,0.344380,-0.000017,-0.000006,0.000011,0.000001,-0.000024,57.685717,0.000027,
2071,2608,-4.06949459760374,-0.803949473588702,-0.0253007489068864,0.005128,-0.000844,0.007966,0.213087,0.033708,321.904483,24.460773,0.999174,0.990176,0.004032,0.386072,-0.000019,0.000008,-0.000001,0.000008,-0.000019,-88.558080,0.000019,
2341,2518,1.82180003793238,-2.76162133526297,-0.00781900096563959,0.004786,-0.000656,0.004264,0.204617,0.019962,322.761363,23.931323,0.999184,0.984152,0.004643,0.404642,-0.000004,-0.000017,0.000011,0.000003,-0.000023,29.477123,0.000025,
2476,3268,4.61447228687603,13.5620949983108,0.00993409099697828,0.005276,-0.000524,0.006516,0.217911,0.024166,310.827359,26.509663,0.999845,0.995410,0.002811,0.386768,0.000017,0.000055,0.000018,0.000062,0.000010,68.134502,0.000078,
2236,2053,-0.38099579437154,-12.9405658602667,0.0271503342353867,0.005351,-0.000300,0.002246,0.237772,0.009653,330.706379,23.504502,0.998789,0.976862,0.005776,0.296852,-0.000033,-0.000020,0.000011,-0.000013,-0.000039,60.261411,0.000055,
2056,2593,-4.39247949791713,-1.13096735367945,-0.0264157173061221,0.005641,-0.000575,0.005261,0.244722,0.033892,322.251604,24.486605,0.998748,0.987830,0.004405,0.379787,-0.000021,0.000007,-0.000010,0.000010,-0.000024,-72.731589,0.000024,
2041,2548,-4.71159360052967,-2.11319558456544,-0.0241982632668396,0.005344,-0.000551,0.003517,0.236036,0.022157,323.076107,24.435716,0.999410,0.990596,0.003846,0.456122,-0.000023,0.000009,-0.000010,0.000011,-0.000025,-74.120273,0.000025,
2401,2833,3.06772615852695,4.10785592061777,-0.0213202053114401,0.005406,-0.000683,0.003965,0.233866,0.017733,317.579851,24.777073,0.999344,0.988634,0.004242,0.407141,-0.000017,0.000019,0.000000,0.000019,-0.000017,-89.977478,0.000021,
2191,3163,-1.55233933190197,11.2588745283823,0.0238190624527306,0.005306,-0.000707,0.006968,0.222625,0.014442,312.785836,24.880524,0.999647,0.994855,0.003189,0.350745,0.000001,0.000014,0.000008,0.000018,-0.000003,64.984690,0.000019,
2206,3253,-1.24200612747618,13.2096440268413,0.0307937692500104,0.005386,-0.000040,0.005106,0.232379,0.047845,311.335481,24.944515,0.999786,0.995033,0.002968,0.479238,0.000009,0.000024,0.000017,0.000035,-0.000002,57.182968,0.000040,
2416,2923,3.37766355293506,6.06637491171453,-0.0109913625284435,0.005621,-0.000403,0.002626,0.248656,0.015047,316.228681,25.119966,0.999626,0.992124,0.003644,0.363748,-0.000011,-0.000003,0.000005,-0.000001,-0.000013,65.804174,0.000015,
2011,2473,-5.35142405611138,-3.75047697109652,-0.0067536860433961,0.005222,-0.000627,0.003156,0.231561,0.009454,324.613638,24.570298,0.999106,0.987043,0.004485,0.409674,-0.000021,0.000024,-0.000003,0.000024,-0.000021,-86.437062,0.000026,
2176,3073,-1.86205622564612,9.30365914351472,0.0282672021793928,0.005198,-0.000504,0.006797,0.218423,0.020003,314.340096,24.577468,0.999680,0.995200,0.003104,0.525478,-0.000005,0.000003,0.000000,0.000003,-0.000005,-89.588341,0.000005,
2026,2533,-5.03497424124345,-2.44069108791145,-0.020270172978087,0.005340,-0.000535,0.002178,0.239645,0.010358,323.445561,24.495234,0.999366,0.990144,0.003998,0.417001,-0.000028,-0.000008,-0.000019,0.000004,-0.000039,-58.467789,0.000043,
2446,3103,3.99685581667843,9.97722445331522,0.0203860533807187,0.005380,-0.000247,0.002194,0.239248,0.027013,313.583533,25.717751,0.999696,0.993208,0.003527,0.456934,0.000008,0.000030,0.000010,0.000033,0.000004,69.229982,0.000041,
2461,3283,4.28479974611789,13.8863898649375,-0.00264983342952974,0.005543,-0.000180,0.005512,0.234320,0.023227,310.458183,26.458278,0.999570,0.991697,0.003597,0.407828,0.000021,0.000040,0.000030,0.000062,-0.000002,53.733110,0.000071,
2086,2698,-3.7575109827486,1.15511015667819,-0.0225392641623898,0.005062,-0.000595,0.005967,0.215703,0.021313,320.394948,24.380795,0.999423,0.991505,0.003699,0.435915,0.000006,-0.000023,-0.000006,0.000007,-0.000024,-11.598593,0.000025,
2116,2863,-3.131551218808,4.74367897049952,-0.00725013543933528,0.005251,-0.000869,0.008245,0.217274,0.010065,317.701568,24.435445,0.999686,0.992727,0.003446,0.404387,-0.000003,0.000008,0.000008,0.000012,-0.000007,61.457273,0.000012,
2506,2158,5.49765110490278,-10.6416773142475,0.025729958141369,0.004928,-0.000052,0.002995,0.213787,0.027623,329.132626,22.177141,0.999213,0.977552,0.005639,0.334751,0.000040,-0.000020,-0.000020,0.000046,-0.000025,-16.656903,0.000046,
2281,2263,0.56131917159674,-8.33558980090951,0.00168102195692654,0.005007,-0.000930,0.007423,0.204484,0.027530,327.005094,23.685836,0.999461,0.986520,0.004722,0.271884,-0.000024,-0.000013,-0.000010,-0.000007,-0.000030,-59.645853,0.000040,
2251,2113,-0.0646280101020658,-11.6244894040684,0.0223896347218897,0.005240,-0.000502,0.004354,0.225688,0.028001,329.661394,23.480751,0.999233,0.980439,0.005406,0.348625,-0.000012,-0.000005,0.000011,0.000003,-0.000020,54.121784,0.000022,
2101,2743,-3.43896946778389,2.13538785696937,-0.0224997531958593,0.004915,-0.000610,0.004983,0.211675,0.032567,319.587100,24.416886,0.999431,0.989671,0.004001,0.413703,0.000003,-0.000011,-0.000007,0.000006,-0.000014,-23.676647,0.000014,
2161,3043,-2.18198602535648,8.65374339892532,0.0218536225451658,0.005810,-0.000302,0.002953,0.258757,0.030918,314.868804,24.648970,0.999543,0.993095,0.003557,0.393094,-0.000007,0.000001,0.000001,0.000001,-0.000007,82.876540,0.000008,
2146,2938,-2.4918303251469,6.37467176186578,0.00208178844439999,0.005235,-0.000504,0.003796,0.229619,0.020720,316.443460,24.561156,0.999454,0.989937,0.003958,0.371788,-0.000004,0.000018,0.000014,0.000025,-0.000011,63.884733,0.000025,
2431,2998,3.69023425976743,7.69677150685312,0.00273028133642583,0.005681,-0.000354,0.004028,0.246229,0.026360,315.136251,25.372303,0.999388,0.984981,0.004510,0.400413,-0.000009,0.000008,0.000018,0.000020,-0.000021,56.964870,0.000023,
2476,3283,4.61278775160253,13.8866381796523,0.0197939611837228,0.005527,-0.000300,0.003097,0.242554,0.021143,310.688527,26.551609,0.999845,0.995909,0.002812,0.396956,0.000020,0.000043,0.000026,0.000060,0.000003,57.258601,0.000071,
2371,2668,2.44588406117632,0.512371069473303,-0.0211075869056572,0.004921,-0.000686,0.005629,0.205756,0.004889,320.219996,24.282089,0.999489,0.988497,0.004324,0.400021,-0.000006,0.000021,0.000002,0.000021,-0.000006,86.516511,0.000022,
2071,2623,-4.07116034931341,-0.47853972360079,-0.0239803107467651,0.005467,-0.000670,0.004090,0.239845,0.028184,321.700044,24.354898,0.999124,0.988995,0.004226,0.483848,-0.000017,0.000002,-0.000002,0.000002,-0.000017,-83.593953,0.000019,
2311,2398,1.19342413089768,-5.38729944043642,0.0229628887586273,0.005515,-0.000400,0.002603,0.243985,0.028520,325.014349,23.642242,0.999463,0.987710,0.004613,0.490160,-0.000010,0.000018,-0.000001,0.000018,-0.000010,-88.817650,0.000018,
2386,2743,2.75933602202306,2.14626027517812,-0.0148472341562638,0.005409,-0.000569,0.002124,0.240660,0.010940,319.095636,24.444997,0.999631,0.991520,0.003766,0.454515,-0.000008,0.000020,0.000009,0.000022,-0.000011,73.728377,0.000022,
2011,2488,-5.35386505032266,-3.42290428481036,-0.0124366152269317,0.005489,-0.000558,0.005867,0.236514,0.026945,324.329133,24.531105,0.999279,0.987548,0.004384,0.455764,-0.000023,0.000013,0.000000,0.000013,-0.000023,-89.638343,0.000023,
2326,2473,1.50403670140131,-3.74529058015617,-0.00380348542290676,0.005144,-0.000345,0.003806,0.222836,0.021074,323.546689,23.817092,0.999554,0.987526,0.004229,0.441712,0.000005,-0.000015,0.000019,0.000017,-0.000027,30.971658,0.000027,
2041,2563,-4.71338540135518,-1.78662161642309,-0.0187947864260423,0.005436,-0.000323,0.002510,0.243164,0.036382,322.885796,24.433606,0.999527,0.990267,0.003812,0.465640,-0.000016,0.000005,-0.000010,0.000009,-0.000020,-68.556018,0.000020,
2056,2608,-4.39489678431073,-0.805929063980308,-0.0189196281688169,0.005100,-0.000780,0.005848,0.218071,0.013864,322.045772,24.409501,0.999024,0.988938,0.004236,0.431940,-0.000017,0.000006,-0.000005,0.000007,-0.000018,-77.245842,0.000018,
2506,2173,5.49491563820168,-10.3132470736541,0.0254475242359149,0.005180,0.000004,0.001154,0.232446,0.032943,328.906806,22.175691,0.998990,0.976219,0.005805,0.405375,0.000019,-0.000003,-0.000033,0.000043,-0.000026,-35.675956,0.000043,
2296,2323,0.87819210084578,-7.02487330827202,0.00442729840199263,0.005138,-0.000684,0.004163,0.221329,0.004543,326.061004,23.601492,0.998959,0.982913,0.005370,0.395106,-0.000020,0.000000,-0.000004,0.000000,-0.000021,-79.185430,0.000024,
2266,2203,0.246505268005979,-9.65240421327131,0.0156642363253923,0.005688,-0.001230,0.008068,0.233680,-0.008781,328.140098,23.530039,0.998786,0.981994,0.005388,0.344666,-0.000017,0.000003,0.000008,0.000006,-0.000020,70.834759,0.000020,
2026,2548,-5.03669097661014,-2.11380948245056,-0.01765429742386,0.005620,-0.000211,0.000655,0.256817,0.020439,323.242061,24.495707,0.999533,0.990846,0.003681,0.417530,-0.000017,0.000002,-0.000015,0.000010,-0.000025,-61.015835,0.000025,
2356,2593,2.13441884477897,-1.12375496534707,-0.016062141867053,0.005168,-0.000501,0.001495,0.231831,0.004514,321.502704,24.118292,0.999277,0.987700,0.004405,0.372616,0.000002,-0.000008,0.000007,0.000006,-0.000012,26.189480,0.000012,
2461,3298,4.28201636741827,14.2114308262312,-0.00147190725476776,0.005451,-0.000048,0.002726,0.240701,0.027165,310.227829,26.496470,0.999546,0.993092,0.003499,0.426615,0.000031,0.000041,0.000045,0.000081,-0.000008,48.178840,0.000090,
2131,2878,-2.8077674151059,5.06901030897998,-0.00189780554262597,0.005159,-0.000573,0.002831,0.229021,-0.005093,317.448796,24.384647,0.999556,0.991990,0.003569,0.467968,0.000005,0.000018,0.000008,0.000021,0.000002,64.398339,0.000026,
2476,3298,4.60861458990779,14.2126764515067,0.00736479310245386,0.005445,-0.000117,0.003275,0.238224,0.033330,310.332673,26.599315,0.999631,0.993347,0.003460,0.416666,0.000021,0.000055,0.000042,0.000083,-0.000007,55.922696,0.000092,
2341,2533,1.81938034188428,-2.43400909264852,-0.012113775054388,0.005318,-0.000420,0.001815,0.237679,0.023445,322.515248,23.943728,0.999229,0.985008,0.004652,0.433560,-0.000004,-0.000023,0.000012,0.000002,-0.000028,25.954066,0.000032,
2401,2848,3.0655317375373,4.43337538172112,-0.0157354681740003,0.005607,-0.000556,0.002968,0.246761,0.015634,317.395205,24.780972,0.999478,0.990293,0.003974,0.446255,-0.000021,0.000013,-0.000005,0.000014,-0.000021,-82.391744,0.000022,
2446,3118,3.99414599112756,10.3029557835399,0.0206085755949061,0.005609,-0.000309,0.001714,0.251604,0.022540,313.351887,25.775527,0.999647,0.991763,0.003665,0.445793,0.000010,0.000032,0.000011,0.000036,0.000005,67.473126,0.000045,
2206,3268,-1.24529315574105,13.5354128914481,0.0167300907120875,0.005651,-0.000213,0.004373,0.246853,0.034441,310.986053,24.969774,0.999551,0.992956,0.003387,0.455936,0.000008,0.000027,0.000019,0.000039,-0.000004,58.216335,0.000042,
2176,3088,-1.86504549534041,9.63069080603562,0.0227789755847425,0.005260,-0.000886,0.008416,0.216161,0.019549,314.046219,24.702074,0.999553,0.993189,0.003418,0.411712,-0.000005,0.000002,0.000000,0.000002,-0.000005,-86.120572,0.000005,
2236,2068,-0.383373238404939,-12.6121054798685,0.0321170082738149,0.005195,-0.000220,0.001987,0.231460,0.032327,330.500382,23.505755,0.999106,0.979378,0.005473,0.342558,-0.000028,-0.000020,0.000015,-0.000009,-0.000039,51.981899,0.000051,
2281,2278,0.558826733975234,-8.0093090603691,0.00512804302212544,0.004897,-0.000894,0.006842,0.201420,0.037878,326.789596,23.556843,0.999644,0.987979,0.004504,0.440966,-0.000019,-0.000003,-0.000014,0.000005,-0.000028,-59.516645,0.000030,
2011,2503,-5.35655394525617,-3.09400902934959,-0.0200656976821847,0.005382,-0.000514,0.004349,0.235768,0.031531,324.022085,24.613773,0.999619,0.992344,0.003781,0.367133,-0.000023,-0.000001,-0.000013,0.000005,-0.000029,-64.578668,0.000031,
2116,2878,-3.13403753083338,5.06934180604877,-0.00786776519339583,0.005229,-0.000754,0.007969,0.217059,-0.001099,317.452480,24.418354,0.999575,0.992324,0.003648,0.413464,0.000000,0.000020,0.000007,0.000022,-0.000002,71.428521,0.000024,
2071,2638,-4.07297793720722,-0.151221161522592,-0.0201231937203374,0.005643,-0.000203,0.002391,0.252937,0.037053,321.501969,24.435496,0.998913,0.987125,0.004540,0.409325,-0.000008,-0.000007,-0.000004,-0.000003,-0.000012,-46.536145,0.000016,
2371,2683,2.4423594231766,0.840493516418228,-0.0311874026388068,0.005245,-0.000881,0.008070,0.211899,0.012434,319.897410,24.341176,0.999464,0.988874,0.004109,0.390323,-0.000008,0.000035,0.000000,0.000035,-0.000008,-89.591986,0.000037,
2191,3178,-1.5540306744505,11.5833888022875,0.027269285125044,0.005788,-0.000440,0.004275,0.253372,0.012944,312.600269,24.853616,0.999812,0.996419,0.002918,0.389562,0.000001,0.000019,0.000008,0.000022,-0.000002,68.613052,0.000024,
2041,2578,-4.71578050951789,-1.45972321439296,-0.0251762987875281,0.005701,-0.000519,0.002447,0.255498,0.017084,322.602660,24.395838,0.999248,0.989376,0.004069,0.477311,-0.000018,-0.000009,-0.000014,0.000001,-0.000028,-54.917419,0.000032,
2086,2713,-3.75948621577333,1.48102526029258,-0.0199686969526738,0.005339,-0.000723,0.006644,0.226484,0.024585,320.184162,24.349723,0.999435,0.991122,0.003743,0.469597,0.000011,-0.000019,-0.000009,0.000013,-0.000021,-15.733566,0.000021,
2506,2188,5.49120119475186,-9.98321918563746,0.0198950118135031,0.005136,-0.000226,0.001929,0.227367,0.034350,328.612429,22.274083,0.998905,0.975073,0.006041,0.372312,0.000017,-0.000015,-0.000040,0.000044,-0.000042,-33.957927,0.000049,
2101,2758,-3.44048926507719,2.46022247503244,-0.011831793843271,0.005284,-0.000861,0.007633,0.220839,0.040183,319.442371,24.359430,0.999479,0.989664,0.003926,0.480098,-0.000003,-0.000015,-0.000011,0.000003,-0.000021,-30.135170,0.000023,
2161,3058,-2.18370564709378,8.97738582550978,0.0370930211933569,0.005717,-0.000329,0.004666,0.249174,0.023704,314.742675,24.594175,0.999646,0.995041,0.003318,0.450074,-0.000006,0.000000,0.000001,0.000000,-0.000006,82.963059,0.000007,
2296,2338,0.875002475426708,-6.69592413592159,-0.000103122138284562,0.005048,-0.000472,0.004695,0.215552,0.029705,325.774641,23.642722,0.999248,0.984811,0.004844,0.411213,-0.000022,0.000010,-0.000005,0.000011,-0.000023,-82.166729,0.000023,
2431,3013,3.68732153752439,8.02273525277831,0.00326687774810352,0.005564,-0.000417,0.002382,0.246995,0.024734,314.896085,25.423755,0.999394,0.986401,0.004287,0.396537,-0.000005,0.000007,0.000018,0.000020,-0.000019,54.081627,0.000023,
2251,2128,-0.0676528200287265,-11.2962522219324,0.0218349297269924,0.004965,-0.000903,0.005545,0.209064,0.011029,329.399232,23.462444,0.998933,0.979819,0.005450,0.376484,-0.000010,-0.000005,0.000009,0.000002,-0.000017,52.196352,0.000019,
2416,2938,3.37483122166737,6.39191353704923,-0.00462968118819163,0.005556,-0.000354,0.006784,0.230551,0.042794,316.018846,25.124210,0.999601,0.991628,0.003784,0.434410,-0.000009,0.000003,0.000003,0.000003,-0.000009,76.924620,0.000009,
2476,1993,4.87810365027554,-14.266305299214,0.0439695937505462,0.005910,0.000088,0.001134,0.265734,0.050428,331.912812,21.688071,0.998483,0.970231,0.006510,0.351688,0.000032,-0.000153,0.000100,0.000075,-0.000197,23.583824,0.000198,
2026,2563,-5.03893641891152,-1.7875029126124,-0.0139039132781136,0.005525,-0.000586,0.002794,0.246496,0.023150,323.020911,24.465330,0.999609,0.990115,0.003776,0.441666,-0.000011,0.000003,-0.000011,0.000009,-0.000017,-60.781246,0.000017,
2146,2953,-2.49449763242508,6.70030048020996,-0.00183466679345656,0.005320,-0.000338,0.003695,0.233939,0.032018,316.170756,24.516888,0.999609,0.991474,0.003639,0.434858,-0.000004,0.000018,0.000013,0.000025,-0.000011,65.085400,0.000025,
2491,1993,5.20487166314573,-14.2665060526007,0.0367748268949413,0.005071,-0.000496,0.002256,0.222805,0.028454,331.851874,21.544134,0.999014,0.967675,0.006897,0.367162,0.000020,-0.000179,0.000089,0.000054,-0.000213,20.892448,0.000222,
2011,2518,-5.35850610035713,-2.76882956252685,-0.0145944250578509,0.005311,-0.000551,0.004329,0.232552,0.029918,323.823181,24.486345,0.999647,0.992924,0.003640,0.481962,-0.000032,-0.000005,-0.000019,0.000005,-0.000042,-62.182061,0.000046,
2266,2218,0.243968457116189,-9.3233820997348,0.0146524833201056,0.005517,-0.000374,0.002995,0.242907,0.035420,327.898663,23.550266,0.998809,0.980324,0.005492,0.396898,-0.000018,0.000007,0.000000,0.000007,-0.000018,89.095925,0.000018,
2326,2488,1.50155582384191,-3.41738949949077,-0.00531025883685743,0.005366,-0.000085,0.001221,0.242089,0.045980,323.310041,23.844198,0.999455,0.987189,0.004292,0.475541,0.000001,-0.000013,0.000018,0.000014,-0.000026,34.265870,0.000026,
2386,2758,2.75563966931606,2.47379332364579,-0.0240226199617837,0.005422,-0.000617,0.003278,0.237113,-0.000872,318.770793,24.502493,0.999361,0.988899,0.004109,0.428925,-0.000008,0.000023,0.000008,0.000025,-0.000010,76.470247,0.000025,
2206,3283,-1.24800193557551,13.86062773394,0.014128405730105,0.005763,-0.000583,0.004527,0.251365,0.011069,310.722857,25.021870,0.999408,0.992029,0.003493,0.395468,0.000004,0.000031,0.000021,0.000042,-0.000008,61.587530,0.000045,
2476,2008,4.87343622978311,-13.9358290403315,0.0315236079248393,0.005439,-0.000317,0.002148,0.240254,0.016628,331.541952,21.712728,0.999063,0.976097,0.005839,0.354201,0.000059,-0.000093,0.000057,0.000079,-0.000112,18.439562,0.000115,
2176,3103,-1.86731233395396,9.9555130877133,0.0272837416808898,0.005185,-0.000710,0.007439,0.215850,0.028261,313.838732,24.681587,0.999620,0.993798,0.003233,0.452107,-0.000008,0.000002,0.000002,0.000002,-0.000009,79.051255,0.000009,
2056,2623,-4.3968822495022,-0.479367388236888,-0.0162007774900985,0.005220,-0.000685,0.005271,0.225286,0.016687,321.832930,24.412035,0.999240,0.990170,0.004031,0.427665,-0.000015,0.000000,-0.000006,0.000002,-0.000017,-70.386242,0.000019,
2311,2413,1.18894172896324,-5.0571474841552,0.00433122509917894,0.005027,0.000117,0.000478,0.229056,0.025621,324.600560,23.713505,0.999538,0.987888,0.004465,0.450506,-0.000008,0.000012,0.000002,0.000012,-0.000009,83.787817,0.000012,
2041,2593,-4.71757388280055,-1.13216435556536,-0.0228335579883492,0.005940,-0.000167,0.000675,0.271558,0.045006,322.395050,24.452552,0.998947,0.989275,0.004189,0.441877,-0.000019,0.000006,-0.000011,0.000010,-0.000024,-68.821369,0.000024,
2446,3133,3.99091530332025,10.6291050162494,0.0192690125459194,0.005584,-0.000447,0.002908,0.245982,0.025061,313.088807,25.859253,0.999529,0.988385,0.004158,0.415729,0.000015,0.000028,0.000008,0.000032,0.000011,63.868953,0.000045,
2281,2293,0.556296015122062,-7.68076318465422,0.00244723984872053,0.005081,-0.000816,0.004427,0.217931,0.018685,326.541603,23.607372,0.999401,0.985264,0.004883,0.401310,-0.000021,0.000004,-0.000010,0.000008,-0.000024,-70.232424,0.000025,
2236,2083,-0.386720766374037,-12.2814808262063,0.0227844791046437,0.005082,-0.000147,0.001565,0.227713,0.044908,330.177279,23.561712,0.999386,0.981558,0.005273,0.324185,-0.000019,-0.000017,0.000016,-0.000002,-0.000034,46.895544,0.000041,
2356,2608,2.13220808578944,-0.79718174730862,-0.0111146886690108,0.005579,-0.000428,0.003647,0.243222,0.042955,321.311839,24.105994,0.999236,0.987125,0.004461,0.463000,0.000001,-0.000012,0.000007,0.000004,-0.000015,23.493407,0.000016,
2416,2953,3.37134745862914,6.71868571527015,-0.00951834165744003,0.005382,-0.000629,0.006365,0.223998,0.030707,315.725960,25.206580,0.999732,0.991847,0.003763,0.386993,-0.000008,0.000003,0.000005,0.000005,-0.000010,67.511409,0.000010,
2116,2893,-3.13689918929966,5.39609831273767,-0.0123110426428639,0.005222,-0.000616,0.009841,0.211350,0.028095,317.165171,24.438186,0.999438,0.992178,0.003915,0.426067,-0.000002,0.000022,0.000008,0.000024,-0.000004,72.856291,0.000026,
2086,2728,-3.76156694349681,1.80817288531205,-0.0242513571434415,0.005602,-0.000196,0.001855,0.252629,0.030613,319.930893,24.378095,0.999396,0.989790,0.003971,0.446453,0.000006,-0.000011,-0.000009,0.000010,-0.000015,-22.261107,0.000015,
2011,2533,-5.36045138004664,-2.44182948498442,-0.0128760381041388,0.005424,-0.000680,0.003357,0.240391,0.021357,323.603114,24.502898,0.999290,0.988363,0.004342,0.445716,-0.000030,-0.000012,-0.000017,-0.000002,-0.000040,-58.793790,0.000048,
2401,2863,3.06251412124411,4.76040180260482,-0.0150028057856275,0.005594,-0.000385,0.004715,0.239946,0.032208,317.149327,24.872577,0.999493,0.990317,0.003857,0.416504,-0.000021,0.000018,-0.000004,0.000018,-0.000022,-83.652587,0.000023,
2491,2008,5.20195270326223,-13.9368969064416,0.0367337979762397,0.005237,-0.000407,0.002032,0.231318,0.023438,331.618320,21.602418,0.999235,0.973216,0.006237,0.366364,0.000048,-0.000101,0.000042,0.000059,-0.000112,14.657569,0.000112,
2506,2203,5.48810646841715,-9.65527658520337,0.0232323543045254,0.004919,-0.000338,0.002442,0.215441,0.025033,328.386173,22.291783,0.998979,0.973506,0.006188,0.409050,0.000017,-0.000038,-0.000037,0.000036,-0.000057,-26.705839,0.000057,
2296,2353,0.873225394980029,-6.369075111938,0.0102594858451539,0.005226,-0.000401,0.004733,0.223612,0.029648,325.627019,23.668129,0.999623,0.988188,0.004218,0.417044,-0.000023,0.000008,-0.000003,0.000008,-0.000023,-85.375031,0.000024,
2431,3028,3.68440427935665,8.34838724391837,0.00856818966775563,0.005293,-0.000510,0.003648,0.229805,0.022883,314.677903,25.482383,0.999494,0.987880,0.004150,0.385276,-0.000003,0.000007,0.000016,0.000019,-0.000015,53.545352,0.000020,
2341,2548,1.81669721810216,-2.10733733390087,-0.00810725259924538,0.005365,-0.000843,0.004755,0.229433,0.016929,322.297430,23.959041,0.998917,0.983080,0.004995,0.449165,-0.000004,-0.000022,0.000013,0.000003,-0.000029,28.290751,0.000032,
2131,2893,-2.81019320573871,5.39614694765276,-0.00551808568354772,0.005343,-0.000250,0.001290,0.242249,0.011036,317.187051,24.458212,0.999489,0.990700,0.003914,0.415886,0.000003,0.000020,0.000009,0.000024,-0.000001,67.037384,0.000027,
2476,2023,4.87049027452148,-13.6053043531222,0.0302214988684568,0.005546,-0.000029,0.000542,0.251355,0.032414,331.299892,21.825264,0.999382,0.981738,0.005238,0.317687,0.000075,-0.000056,0.000038,0.000085,-0.000066,15.107265,0.000089,
2206,3298,-1.25131723453431,14.1855287987866,0.00593020295110591,0.005608,-0.000520,0.004003,0.245898,0.004661,310.402812,25.002165,0.999445,0.992759,0.003314,0.424078,-0.000001,0.000039,0.000007,0.000040,-0.000003,80.255419,0.000045,
2191,3193,-1.55602559163839,11.9074900731598,0.0370635599894058,0.005657,-0.000354,0.003392,0.250166,0.016585,312.434005,24.824110,0.999722,0.995544,0.003086,0.436026,0.000002,0.000015,0.000008,0.000018,-0.000002,64.578361,0.000020,
2371,2698,2.44007199664983,1.16613273838314,-0.0263029155298682,0.005256,-0.000877,0.005703,0.220831,0.004992,319.703749,24.315410,0.999416,0.990196,0.003808,0.450048,-0.000006,0.000030,0.000002,0.000030,-0.000006,86.237991,0.000032,
2071,2653,-4.07572711794432,0.175458325181424,-0.0274042192553452,0.005720,-0.000642,0.002903,0.254878,0.013145,321.200579,24.401111,0.999209,0.989032,0.004191,0.417381,-0.000009,-0.000011,-0.000005,-0.000005,-0.000015,-38.289148,0.000021,
2146,2968,-2.49675060221341,7.02556722936788,0.00154228148886659,0.005378,-0.000708,0.004174,0.235043,0.013087,315.955969,24.524542,0.999681,0.993245,0.003312,0.415189,-0.000005,0.000019,0.000012,0.000024,-0.000010,67.130007,0.000024,
2026,2578,-5.04188205097433,-1.45997999441781,-0.0193499070051644,0.005255,-0.000705,0.004414,0.229638,0.019828,322.716188,24.476416,0.999347,0.988896,0.004139,0.418576,-0.000015,-0.000013,-0.000013,0.000000,-0.000027,-47.076046,0.000031,
2101,2773,-3.44345804151798,2.78781941272713,-0.0218133252481039,0.005329,-0.000752,0.007117,0.224459,0.028032,319.118787,24.416820,0.999567,0.990988,0.003810,0.412050,-0.000006,-0.000016,-0.000012,0.000002,-0.000024,-33.391702,0.000027,
2266,2233,0.241117581125916,-8.99457569086028,0.00759811566189228,0.005587,-0.000327,-0.000501,0.257653,0.016660,327.612889,23.556641,0.998808,0.979284,0.005502,0.400009,-0.000024,0.000009,-0.000001,0.000009,-0.000024,-88.583583,0.000024,
2251,2143,-0.0696893036330017,-10.9661490714844,0.0148109728569921,0.005592,0.000076,-0.001009,0.259584,0.036565,329.149182,23.507662,0.998881,0.981476,0.005321,0.382996,-0.000019,-0.000019,0.000008,-0.000011,-0.000026,45.079894,0.000039,
2041,2608,-4.7202008570437,-0.806111099453126,-0.0199279823864345,0.005599,-0.000478,0.003714,0.247348,0.028176,322.152996,24.425272,0.998935,0.987575,0.004474,0.445399,-0.000015,0.000003,-0.000008,0.000006,-0.000018,-68.470577,0.000018,
2326,2503,1.49784004267413,-3.08899948925418,-0.0107049122964895,0.005166,-0.000795,0.005410,0.218214,0.021877,322.997794,23.935015,0.999384,0.987011,0.004308,0.396090,-0.000006,-0.000012,0.000015,0.000006,-0.000025,38.856733,0.000026,
2386,2773,2.75259334205365,2.80006773799804,-0.0198945702175592,0.005161,-0.000827,0.006002,0.215247,-0.000848,318.539210,24.542360,0.999336,0.989044,0.004108,0.432246,-0.000010,0.000024,0.000005,0.000025,-0.000011,81.913456,0.000025,
2011,2548,-5.36238087111208,-2.11494386323353,-0.0137977772093336,0.005840,-0.000428,0.004612,0.256235,0.026645,323.368983,24.476331,0.999531,0.989193,0.003908,0.466586,-0.000016,0.000002,-0.000012,0.000008,-0.000022,-64.248245,0.000022,
2056,2638,-4.3991944778028,-0.152158341542943,-0.0203644262154512,0.005490,-0.000725,0.005473,0.237116,0.006226,321.567106,24.433299,0.999136,0.989219,0.004237,0.391050,-0.000005,-0.000009,-0.000008,0.000001,-0.000015,-38.734179,0.000017,
2506,2218,5.48499992690186,-9.32640571445629,0.0202717279113926,0.005346,-0.000744,0.004298,0.227662,0.005329,328.131232,22.343928,0.999019,0.974549,0.006051,0.400717,0.000013,-0.000052,-0.000032,0.000026,-0.000066,-22.466240,0.000066,
2161,3073,-2.18662959337228,9.30313177435915,0.0310692213027437,0.005620,-0.000320,0.002942,0.250007,0.020299,314.448203,24.594606,0.999629,0.994416,0.003264,0.455213,-0.000009,0.000002,0.000002,0.000003,-0.000009,78.356186,0.000009,
2116,2908,-3.13862883903778,5.72149733568679,-0.00203067157036685,0.005173,-0.000482,0.008285,0.213842,0.046759,317.009447,24.454409,0.999316,0.990614,0.004047,0.431334,-0.000003,0.000015,0.000011,0.000020,-0.000008,64.900757,0.000020,
2281,2308,0.554387533030944,-7.35269349696836,0.00633823491682506,0.005332,-0.000259,0.001058,0.240938,0.029347,326.354714,23.655604,0.999270,0.983189,0.005231,0.393446,-0.000023,-0.000003,-0.000006,-0.000001,-0.000025,-73.498468,0.000029,
2476,2038,4.8672912315666,-13.2774037900083,0.0364032595652475,0.005329,-0.000553,0.005793,0.221398,0.034386,331.080162,21.802196,0.999383,0.979503,0.005584,0.402942,0.000071,-0.000066,0.000043,0.000084,-0.000078,16.038004,0.000094,
2401,2878,3.05908846658508,5.08754490608025,-0.021247778938573,0.005478,-0.000211,0.003315,0.239799,0.046895,316.851658,24.929874,0.999517,0.991719,0.003608,0.419287,-0.000023,0.000013,0.000000,0.000013,-0.000023,-89.585078,0.000023,
2491,2023,5.19989379823086,-13.6070301404282,0.0405807341437026,0.005568,0.000381,-0.002591,0.264435,0.034061,331.441418,21.717945,0.999289,0.972348,0.006195,0.323595,0.000064,-0.000046,0.000018,0.000067,-0.000049,8.879276,0.000069,
2221,1993,-0.697254796176036,-14.2586310317786,0.0419163401737137,0.005295,-0.000443,0.003087,0.232439,0.022243,331.820157,23.522729,0.999654,0.988826,0.004466,0.297509,0.000014,-0.000073,0.000007,0.000015,-0.000073,4.799561,0.000078,
2431,3043,3.68123552671407,8.67402084222223,0.00866458655133329,0.005362,-0.000808,0.007027,0.220391,0.024351,314.423849,25.505163,0.999519,0.989026,0.004039,0.413091,0.000000,0.000014,0.000015,0.000023,-0.000009,57.960184,0.000024,
2011,2563,-5.36497077635338,-1.78809213541214,-0.0127633546064772,0.005456,-0.000741,0.005361,0.236455,0.020541,323.115684,24.480190,0.999435,0.987976,0.004154,0.445528,-0.000015,0.000009,-0.000009,0.000012,-0.000018,-70.969065,0.000018,
2146,2983,-2.49928949192147,7.35094734789385,0.00121850849814109,0.005380,-0.000719,0.004415,0.234367,0.001357,315.708347,24.513827,0.999715,0.994305,0.003156,0.421530,-0.000006,0.000013,0.000016,0.000022,-0.000015,60.808765,0.000022,
2311,2428,1.18549824929607,-4.72758504851554,-0.00607425503960712,0.005288,0.000013,0.002668,0.233584,0.044784,324.274720,23.793808,0.999689,0.989844,0.004061,0.423505,-0.000001,-0.000009,0.000000,-0.000001,-0.000009,-3.452612,0.000011,
2086,2743,-3.76407916439342,2.13342403198979,-0.0150570166940156,0.005208,-0.000972,0.006962,0.219462,0.004829,319.731840,24.376639,0.999537,0.989320,0.003996,0.421231,-0.000003,-0.000011,-0.000007,0.000002,-0.000015,-30.476467,0.000017,
2026,2593,-5.0448329636457,-1.13185466914211,-0.0284261527700096,0.005017,-0.000245,0.002970,0.222823,0.043396,322.390738,24.489972,0.999094,0.988762,0.004368,0.419868,-0.000015,0.000001,-0.000008,0.000005,-0.000018,-66.847076,0.000019,
2416,2968,3.36902269977538,7.04412133846839,-0.00364459437651021,0.005263,-0.000476,0.003006,0.230909,0.029428,315.537142,25.234268,0.999825,0.994222,0.003284,0.405059,-0.000009,0.000011,0.000006,0.000012,-0.000011,75.187947,0.000013,
2176,3118,-1.86929055788654,10.2806649852084,0.0292145829370156,0.005347,-0.000429,0.003091,0.236876,0.014353,313.630888,24.701263,0.999547,0.993304,0.003418,0.429876,-0.000010,0.000005,0.000003,0.000005,-0.000011,80.489747,0.000011,
2506,2233,5.48190487043476,-8.99630017584231,0.0212379944984491,0.005027,-0.000286,0.001049,0.225809,0.017104,327.893946,22.523794,0.998995,0.979241,0.005594,0.296349,0.000017,-0.000032,-0.000020,0.000025,-0.000039,-19.503865,0.000039,
2251,2158,-0.0723027680612027,-10.6383770870386,0.0196198033470978,0.005154,-0.000021,-0.002476,0.244271,0.022481,328.932850,23.512516,0.998309,0.980974,0.005454,0.390039,-0.000018,-0.000024,0.000005,-0.000016,-0.000026,29.823682,0.000042,
2191,3208,-1.55898999359851,12.2326618705373,0.0376159659807627,0.005371,-0.000472,0.005101,0.231644,0.026442,312.174545,24.836075,0.999480,0.993249,0.003635,0.446979,0.000004,0.000017,0.000010,0.000022,-0.000001,62.115600,0.000025,
2101,2788,-3.44528824261389,3.1130097816858,-0.0154744266076818,0.005522,-0.000851,0.007489,0.232249,0.021575,318.936372,24.379843,0.999487,0.991053,0.003922,0.443703,-0.000010,-0.000009,-0.000006,-0.000003,-0.000016,-45.811900,0.000020,
2446,3148,3.98831525355027,10.9544483013278,0.0238970347394911,0.005474,-0.000160,0.001352,0.246848,0.029893,312.882553,25.906623,0.999555,0.990684,0.003772,0.424408,0.000016,0.000027,0.000009,0.000032,0.000011,59.106347,0.000045,
2266,2248,0.237775842023623,-8.6660921516301,0.00801663385709617,0.005430,-0.000910,0.007113,0.225179,0.009936,327.342010,23.604509,0.998949,0.981836,0.005313,0.373351,-0.000018,-0.000002,-0.000004,-0.000001,-0.000018,-77.118668,0.000022,
2236,2098,-0.388836293349502,-11.9536040645972,0.0262791343874369,0.005410,-0.000329,0.002994,0.238073,0.033418,329.976005,23.538155,0.999324,0.980380,0.005426,0.360289,-0.000016,-0.000007,0.000014,0.000004,-0.000026,53.007944,0.000029,
2041,2623,-4.7225674741694,-0.479578458406365,-0.0200164630283552,0.005519,-0.000398,0.003708,0.243711,0.024666,321.906113,24.407352,0.998934,0.986899,0.004590,0.452917,-0.000015,-0.000003,-0.000008,0.000001,-0.000019,-64.165238,0.000021,
2116,2923,-3.14043322384034,6.04695683560381,-0.00207991747055303,0.005416,-0.000163,0.002044,0.243562,0.029531,316.794778,24.441152,0.999003,0.989458,0.004247,0.430376,-0.000006,0.000011,0.000014,0.000019,-0.000014,60.662107,0.000020,
2341,2563,1.81350122826335,-1.77921061906998,-0.0106375413658384,0.005191,-0.000829,0.004912,0.220945,0.018844,322.024027,24.046069,0.999050,0.985207,0.004729,0.401695,-0.000007,-0.000021,0.000008,-0.000004,-0.000024,24.219840,0.000031,
2476,2053,4.86395918622604,-12.9474958142689,0.0318282846129705,0.005399,-0.000759,0.005148,0.226964,0.019322,330.805673,21.863721,0.999423,0.982277,0.005268,0.386538,0.000073,-0.000063,0.000033,0.000080,-0.000070,13.126032,0.000088,
2131,2908,-2.81221333836795,5.72098132880591,0.00154689037231037,0.005522,-0.000506,0.004224,0.241685,0.022369,317.001772,24.406580,0.999451,0.988730,0.004158,0.483992,0.000001,0.000013,0.000011,0.000020,-0.000005,58.832686,0.000021,
2071,2668,-4.07882873039025,0.50190094710463,-0.0266490549319087,0.005028,-0.000734,0.004773,0.217716,0.016549,320.927020,24.390265,0.999145,0.988981,0.004239,0.429086,-0.000011,-0.000014,-0.000003,-0.000009,-0.000016,-33.534315,0.000025,
2356,2623,2.1285752334134,-0.46958123119299,-0.0148454396015723,0.005035,-0.000450,0.003113,0.220124,0.018024,321.013820,24.181459,0.999096,0.987315,0.004499,0.402076,0.000000,-0.000001,0.000004,0.000004,-0.000005,41.425117,0.000005,
2491,2038,5.19628886039349,-13.278946354794,0.0460357204021307,0.005050,-0.000061,0.002829,0.219918,0.043547,331.200884,21.695357,0.999336,0.972519,0.006250,0.418061,0.000063,-0.000055,0.000027,0.000069,-0.000061,12.448053,0.000075,
2296,2368,0.870345636926498,-6.04191821132792,0.0131932301043207,0.004809,-0.000425,0.004193,0.206306,0.018422,325.392122,23.664502,0.999374,0.985081,0.004726,0.441297,-0.000026,0.000004,0.000000,0.000004,-0.000026,-89.651339,0.000028,
2056,2653,-4.40192933491902,0.174636539718264,-0.0294165769560664,0.005521,-0.000725,0.003796,0.243305,-0.006220,321.255141,24.382923,0.999255,0.990408,0.004095,0.424251,-0.000008,-0.000014,-0.000008,-0.000002,-0.000020,-34.819783,0.000024,
2371,2713,2.43736970541634,1.49384149534471,-0.0286206573144909,0.005355,-0.000449,0.002483,0.237029,0.013808,319.456018,24.409007,0.999528,0.990945,0.003720,0.406623,-0.000008,0.000031,0.000003,0.000031,-0.000008,86.068520,0.000033,
2221,2008,-0.701113609150372,-13.9270001532339,0.0266886481571191,0.004988,-0.000267,0.001852,0.222439,0.022944,331.442119,23.583566,0.999631,0.987679,0.004671,0.260824,-0.000013,-0.000066,0.000012,-0.000010,-0.000068,12.225110,0.000085,
2011,2578,-5.36807448010152,-1.46054025290128,-0.0201994428604166,0.004779,-0.000274,0.001353,0.216339,0.032517,322.791159,24.460945,0.999103,0.985917,0.004754,0.465899,-0.000018,-0.000008,-0.000013,0.000001,-0.000027,-55.369587,0.000030,
2386,2788,2.74944951340932,3.12788594126766,-0.0240605160626046,0.005163,-0.000538,0.004960,0.219254,0.018884,318.263270,24.643961,0.999649,0.991639,0.003741,0.393772,-0.000011,0.000025,0.000003,0.000025,-0.000012,85.040896,0.000025,
2506,2248,5.47878924421326,-8.66906564199953,0.0211233393041539,0.005350,-0.000780,0.004805,0.225920,0.009834,327.651167,22.454163,0.999071,0.979898,0.005580,0.421937,0.000013,-0.000019,-0.000010,0.000016,-0.000022,-15.596063,0.000023,
2086,2758,-3.76710963196223,2.46019165495661,-0.0223743920297466,0.005144,-0.001107,0.008955,0.210786,0.014312,319.418654,24.352159,0.999518,0.990288,0.003916,0.454457,-0.000008,-0.000017,-0.000012,0.000001,-0.000025,-34.524265,0.000029,
2326,2518,1.49461528848694,-2.76127352908166,-0.0151572989937563,0.004881,-0.000530,0.003026,0.213457,0.011614,322.712690,23.965179,0.999356,0.986095,0.004412,0.391449,-0.000008,-0.000018,0.000012,0.000000,-0.000026,32.444630,0.000030,
2416,2983,3.36631121935271,7.36924387460879,-0.00397111121293392,0.005471,-0.000441,0.002391,0.242731,0.016511,315.301506,25.205650,0.999853,0.994625,0.003177,0.467963,-0.000007,0.000006,0.000008,0.000010,-0.000010,65.268253,0.000012,
2401,2893,3.05680154848433,5.41284752895514,-0.0145565883460108,0.005396,-0.000255,0.001010,0.244342,0.022115,316.667898,24.956311,0.999508,0.991475,0.003723,0.413142,-0.000021,0.000009,0.000003,0.000009,-0.000021,84.153145,0.000021,
2161,3088,-2.19003276231972,9.6296358899303,0.0246297131056963,0.005379,-0.000652,0.005758,0.230225,0.020401,314.129228,24.663613,0.999433,0.991317,0.003742,0.395394,-0.000011,0.000000,0.000001,0.000000,-0.000011,82.744627,0.000012,
2026,2608,-5.04710324710296,-0.804980548653774,-0.0318910397345462,0.005350,-0.000866,0.005284,0.231641,0.028216,322.128179,24.481543,0.999080,0.986333,0.004648,0.404129,-0.000011,-0.000006,-0.000006,-0.000001,-0.000015,-57.159636,0.000019,
2431,3058,3.67827222090768,9.00038376926873,0.00861549194883082,0.005275,-0.000728,0.005761,0.221090,0.017226,314.178295,25.606811,0.999557,0.990343,0.004004,0.353215,0.000003,0.000017,0.000013,0.000025,-0.000005,58.806209,0.000026,
2041,2638,-4.72504341183063,-0.152975469169526,-0.0193233729683016,0.005267,-0.000200,0.003416,0.233009,0.033121,321.658517,24.395242,0.999135,0.989172,0.004280,0.466263,-0.000006,-0.000010,-0.000007,0.000000,-0.000015,-37.353664,0.000018,
2476,2068,4.86134618115272,-12.6184117742954,0.0349397245063869,0.005508,-0.000681,0.004103,0.235978,0.015271,330.598753,21.930420,0.999234,0.979681,0.005674,0.375283,0.000065,-0.000054,0.000021,0.000069,-0.000057,9.762718,0.000074,
2266,2263,0.235715276497213,-8.33820240352998,0.0227217917818052,0.005087,-0.000788,0.008741,0.204146,0.032370,327.201261,23.719555,0.999632,0.989054,0.004414,0.308432,-0.000015,-0.000014,-0.000008,-0.000007,-0.000023,-46.782446,0.000031,
2146,2998,-2.50085391769426,7.67605760551677,0.0129873860014413,0.005429,-0.000215,0.002724,0.241999,0.033073,315.569747,24.520953,0.999630,0.993117,0.003442,0.453039,-0.000009,0.000017,0.000014,0.000023,-0.000015,67.004452,0.000024,
2491,2053,5.19138358460927,-12.9456657565971,0.0205256355768029,0.005231,-0.000120,0.000654,0.236522,0.006236,330.761900,21.852601,0.999185,0.977211,0.005835,0.286836,0.000066,-0.000058,0.000018,0.000068,-0.000060,7.936834,0.000074,
2191,3223,-1.56192581401671,12.5580302592521,0.0410446142542469,0.005155,-0.000783,0.010272,0.205441,0.033938,311.931323,24.888685,0.999680,0.994623,0.003197,0.414793,0.000004,0.000024,0.000010,0.000028,0.000000,67.628096,0.000032,
2116,2938,-3.14319930888121,6.37287068156544,-0.00366308335111398,0.005272,-0.000406,0.003105,0.233726,0.021105,316.527577,24.454434,0.999386,0.990905,0.003881,0.411635,-0.000008,0.000013,0.000016,0.000022,-0.000016,61.711163,0.000023,
2251,2173,-0.0754591934116036,-10.3098325469069,0.0153157013693317,0.005161,-0.000746,0.000656,0.234129,0.021293,328.645555,23.483072,0.999007,0.984375,0.005029,0.444780,-0.000013,-0.000009,0.000012,0.000001,-0.000024,49.945392,0.000027,
2311,2443,1.18318267087186,-4.40195525847297,0.00354570208719451,0.005186,-0.000656,0.005142,0.220200,0.018897,324.099767,23.752725,0.999578,0.988634,0.004292,0.472049,0.000001,-0.000020,0.000001,0.000001,-0.000020,2.081399,0.000023,
2101,2803,-3.44820628244823,3.43935359109289,-0.018965373573792,0.005225,-0.000932,0.007302,0.219084,0.009127,318.650591,24.382880,0.999418,0.991802,0.003735,0.429557,-0.000010,-0.000003,0.000001,-0.000003,-0.000010,78.941979,0.000014,
2011,2593,-5.37069571945035,-1.13376375002704,-0.0169728605025057,0.004473,-0.000611,0.006075,0.189389,0.042542,322.548724,24.470590,0.998984,0.986526,0.004891,0.454956,-0.000014,0.000002,-0.000008,0.000005,-0.000017,-68.661502,0.000018,
2446,3163,3.98556204057655,11.2800502539171,0.0293274899539711,0.005383,-0.000204,0.002675,0.237699,0.031664,312.672800,25.989004,0.999534,0.991299,0.003872,0.394613,0.000013,0.000033,0.000008,0.000035,0.000010,70.735705,0.000048,
2176,3133,-1.87140025526026,10.6061662025372,0.0338032259328997,0.005389,-0.000339,0.001511,0.243850,0.035415,313.430803,24.738264,0.999447,0.992967,0.003618,0.425286,-0.000012,0.000008,0.000002,0.000009,-0.000012,83.171714,0.000012,
2236,2113,-0.391694531145415,-11.626550741063,0.0286757782734526,0.005171,-0.001034,0.005853,0.217680,0.013847,329.735339,23.440663,0.999387,0.980939,0.005328,0.462503,-0.000012,0.000000,0.000011,0.000007,-0.000019,58.658978,0.000019,
2341,2578,1.81060953653502,-1.45200282991168,-0.0122213448725006,0.005142,-0.000426,0.003759,0.222875,0.025391,321.769295,24.057543,0.999076,0.985457,0.004584,0.434448,-0.000005,-0.000007,0.000009,0.000003,-0.000015,42.162228,0.000016,
2071,2683,-4.08075039480823,0.828200834945505,-0.0227047756122261,0.005148,-0.000432,0.003903,0.225857,0.036251,320.724957,24.380660,0.999393,0.990966,0.003827,0.455422,-0.000009,-0.000020,-0.000009,-0.000004,-0.000025,-29.818087,0.000031,
2221,2023,-0.703348353648767,-13.5977309148799,0.0233145872418845,0.005348,0.000269,-0.000983,0.248190,0.021205,331.199031,23.573004,0.999093,0.981587,0.005382,0.292094,-0.000024,-0.000045,0.000015,-0.000017,-0.000053,27.284107,0.000073,
2506,2263,5.47539365401783,-8.33917531780071,0.0153769416472755,0.005784,-0.001113,0.007284,0.236099,0.011137,327.370088,22.566648,0.998598,0.976777,0.005888,0.374335,0.000005,-0.000025,-0.000005,0.000005,-0.000026,-8.358167,0.000027,
2086,2773,-3.76877183967861,2.78673427798999,-0.0195355960440793,0.005525,-0.000905,0.006429,0.235707,0.015521,319.223525,24.399976,0.999611,0.990854,0.003908,0.406900,-0.000008,-0.000018,-0.000015,0.000003,-0.000029,-35.337545,0.000032,
2281,2323,0.551959003543683,-7.02505923724198,0.00692007155981855,0.005648,-0.000819,0.002317,0.251014,-0.009997,326.127796,23.685780,0.998975,0.982697,0.005329,0.353394,-0.000021,-0.000007,-0.000005,-0.000005,-0.000022,-70.427619,0.000029,
2371,2728,2.43490050283064,1.82038835553332,-0.0233182446389719,0.005474,-0.000625,0.004170,0.236460,0.015486,319.255668,24.469125,0.999526,0.990834,0.003776,0.389284,-0.000011,0.000021,0.000006,0.000022,-0.000012,80.339066,0.000022,
2296,2383,0.867064868116831,-5.71203690457411,0.000910064961999524,0.004959,-0.000438,0.001310,0.222948,0.007271,325.063108,23.768054,0.999033,0.981530,0.005331,0.358729,-0.000023,0.000006,-0.000001,0.000006,-0.000023,-87.066343,0.000024,
2056,2668,-4.40351319142619,0.500414183890932,-0.0167193614267944,0.005498,-0.000672,0.004261,0.240967,0.003150,321.115891,24.403958,0.999276,0.989724,0.004145,0.407568,-0.000012,-0.000017,-0.000004,-0.000010,-0.000019,-29.195807,0.000030,
2356,2638,2.12614854334857,-0.142936547632601,-0.0093505977936843,0.005051,-0.000612,0.003431,0.219655,0.007533,320.815701,24.237824,0.999254,0.987239,0.004467,0.374624,-0.000005,0.000006,0.000002,0.000006,-0.000005,79.866259,0.000007,
2476,2083,4.85732071413171,-12.2874136855996,0.0246478292933148,0.005297,0.000120,0.002723,0.231913,0.054471,330.266124,21.985921,0.999393,0.980225,0.005436,0.419651,0.000055,-0.000046,0.000017,0.000057,-0.000048,9.277515,0.000062,
2011,2608,-5.3737175896903,-0.805295056292266,-0.0307752776416237,0.004678,-0.000923,0.009024,0.190715,0.030118,322.192057,24.515680,0.999565,0.991064,0.003950,0.386510,-0.000014,-0.000011,-0.000007,-0.000005,-0.000020,-50.347656,0.000027,
2431,3073,3.67511336886551,9.32526044401827,0.0065367973865591,0.005091,-0.000646,0.003776,0.220031,0.010710,313.914654,25.561870,0.999639,0.991710,0.003722,0.440786,0.000005,0.000025,0.000011,0.000030,0.000000,65.534436,0.000035,
2401,2908,3.0538368319915,5.73937228331592,-0.0126377664585107,0.005443,-0.000637,0.004012,0.235485,0.017390,316.430015,25.044261,0.999475,0.991004,0.003864,0.365326,-0.000019,0.000003,0.000005,0.000004,-0.000021,77.315127,0.000022,
2491,2068,5.18779568789457,-12.6153670920439,0.0118238829967368,0.005317,0.000112,-0.001243,0.247795,0.024011,330.458347,21.878216,0.999232,0.979270,0.005745,0.341487,0.000058,-0.000050,0.000003,0.000058,-0.000051,1.696796,0.000063,
2386,2803,2.74643662185985,3.45422334109718,-0.0299909175718085,0.005427,-0.000589,0.003911,0.235180,0.014459,317.985311,24.624992,0.999879,0.995094,0.003271,0.451940,-0.000014,0.000020,0.000002,0.000020,-0.000014,86.044902,0.000020,
2026,2623,-5.04848644531343,-0.479630073450465,-0.0234515052722486,0.005616,-0.000677,0.003692,0.248297,0.016267,321.973018,24.436702,0.999079,0.986294,0.004720,0.427711,-0.000017,-0.000012,-0.000008,-0.000006,-0.000023,-53.530394,0.000030,
2131,2923,-2.81487125112249,6.04727566831068,-0.00202873568537143,0.005433,-0.000666,0.002084,0.243983,0.007078,316.729931,24.443178,0.999324,0.989313,0.004120,0.437384,-0.000002,0.000010,0.000013,0.000019,-0.000011,57.601158,0.000019,
2251,2188,-0.0785179148018535,-9.978763051351,0.0106029440803468,0.005267,-0.000642,0.003169,0.230830,0.038504,328.360167,23.667309,0.999484,0.989263,0.004423,0.304154,-0.000013,-0.000002,0.000013,0.000007,-0.000022,57.339131,0.000022,
2041,2653,-4.7277870559535,0.174846340625017,-0.0332490948141526,0.005513,-0.000029,0.000999,0.251114,0.032587,321.317342,24.385885,0.999331,0.989859,0.004093,0.468621,-0.000008,-0.000016,-0.000008,-0.000003,-0.000021,-30.947908,0.000026,
2191,3238,-1.56337314955764,12.8819865053527,0.0467707447544967,0.005536,-0.000525,0.004736,0.240374,0.010824,311.769054,24.857687,0.999720,0.994411,0.003168,0.436044,0.000004,0.000025,0.000010,0.000029,0.000000,67.668558,0.000034,
2176,3148,-1.87459564580653,10.9313502723422,0.0311181838710013,0.005288,-0.000698,0.006587,0.223362,0.031917,313.142765,24.729761,0.999475,0.993315,0.003532,0.441256,-0.000009,0.000007,0.000003,0.000008,-0.000010,78.924889,0.000010,
2326,2533,1.49207923884228,-2.4340199469454,-0.0178794376572569,0.005207,-0.000396,0.001347,0.234244,0.011539,322.467634,23.962675,0.999412,0.986182,0.004411,0.429355,-0.000006,-0.000024,0.000011,-0.000001,-0.000029,25.076601,0.000034,
2266,2278,0.232345273880984,-8.00999569974154,0.0111170114856805,0.005104,-0.001033,0.007173,0.210041,0.009779,326.868921,23.645503,0.999467,0.986428,0.004739,0.387950,-0.000012,-0.000008,-0.000013,0.000003,-0.000023,-49.589763,0.000024,
2116,2953,-3.1455673127037,6.69854524754273,7.52572970554866E-05,0.005347,-0.000606,0.006705,0.226528,0.030376,316.307325,24.469615,0.999614,0.991376,0.003632,0.408385,-0.000008,0.000012,0.000015,0.000020,-0.000016,61.989012,0.000021,
2101,2818,-3.45015608790903,3.76573656785452,-0.0194801357950496,0.005560,-0.000650,0.004810,0.241956,0.021415,318.425225,24.392262,0.999386,0.992579,0.003612,0.433527,-0.000006,0.000010,0.000006,0.000012,-0.000008,71.969387,0.000012,
2161,3103,-2.1923184095686,9.95427013546782,0.0291423616707789,0.005239,-0.000483,0.004397,0.228051,0.026679,313.920086,24.627871,0.999618,0.993807,0.003236,0.446384,-0.000013,0.000000,0.000004,0.000001,-0.000014,75.638151,0.000015,
2071,2698,-4.08326963896351,1.15434298977515,-0.0217020170819637,0.004971,-0.000586,0.004873,0.214886,0.023786,320.479574,24.368700,0.999466,0.992007,0.003608,0.451844,0.000001,-0.000024,-0.000006,0.000002,-0.000025,-12.333901,0.000028,
2146,3013,-2.50324918882615,8.00218663172895,0.0140746158856473,0.005498,-0.000220,0.003130,0.243966,0.031559,315.335949,24.585857,0.999415,0.990617,0.003933,0.393985,-0.000008,0.000018,0.000013,0.000023,-0.000013,68.105100,0.000023,
2506,2278,5.4719459946863,-8.01056072287437,0.0131450079855995,0.005530,-0.000931,0.005931,0.229785,-0.000574,327.102350,22.617105,0.998951,0.977321,0.005537,0.375460,0.000002,-0.000046,0.000003,0.000002,-0.000046,3.159394,0.000052,
2416,2998,3.36357693786488,7.69534748058096,0.000928526264317497,0.005514,-0.000634,0.005137,0.234567,0.012470,315.088962,25.298166,0.999586,0.989078,0.003965,0.418380,-0.000008,0.000006,0.000012,0.000013,-0.000015,59.896363,0.000016,
2311,2458,1.17969237309477,-4.07355866041478,-0.00486661514310072,0.005156,-0.001032,0.006112,0.215442,0.015394,323.781756,23.778836,0.999498,0.987613,0.004470,0.476192,-0.000004,-0.000016,0.000008,0.000000,-0.000020,26.772557,0.000023,
2221,2038,-0.706400497569536,-13.2685491731963,0.0190747441288863,0.005160,0.000167,-0.000895,0.239263,0.041750,330.914029,23.528667,0.998927,0.977425,0.005710,0.379898,-0.000025,-0.000028,0.000013,-0.000014,-0.000039,42.219261,0.000055,
2446,3178,3.98223324949326,11.6057148056599,0.0287672520418596,0.005224,-0.000507,0.004228,0.224456,0.014558,312.408728,26.063645,0.999647,0.991662,0.003628,0.353574,0.000013,0.000041,0.000006,0.000042,0.000012,78.869270,0.000057,
2086,2788,-3.77098420683193,3.11212874314576,-0.0156176163624195,0.005438,-0.000698,0.006339,0.232039,0.019002,319.009422,24.352652,0.999427,0.990373,0.003971,0.456662,-0.000010,-0.000011,-0.000010,-0.000001,-0.000020,-44.182978,0.000024,
2056,2683,-4.40540132404331,0.826380836133595,-0.0122167337746077,0.005523,-0.000490,0.002226,0.247912,0.008867,320.917564,24.381296,0.999406,0.990874,0.003934,0.430936,-0.000010,-0.000024,-0.000008,-0.000006,-0.000028,-24.761729,0.000037,
2371,2743,2.43203293787036,2.14686121869588,-0.0245447126799831,0.005564,-0.000633,0.004106,0.240856,0.015046,319.005755,24.476351,0.999469,0.990148,0.003853,0.423070,-0.000012,0.000023,0.000006,0.000024,-0.000013,81.148697,0.000024,
2236,2128,-0.394592921043852,-11.2957342626853,0.0269418246343207,0.005111,-0.000875,0.007307,0.210301,0.027388,329.471170,23.613688,0.999026,0.980203,0.005386,0.327247,-0.000009,-0.000003,0.000010,0.000004,-0.000016,54.448973,0.000017,
2011,2623,-5.37480889103233,-0.480328863974201,-0.0215765103743593,0.005141,-0.000821,0.006924,0.217774,0.027387,322.053715,24.432464,0.999563,0.991161,0.003852,0.455524,-0.000020,-0.000019,-0.000009,-0.000010,-0.000029,-46.671716,0.000040,
2341,2593,1.80781981703484,-1.12405224683497,-0.0149317673372593,0.005499,-0.000629,0.005356,0.233661,0.021334,321.513603,24.142911,0.999370,0.987729,0.004292,0.382453,-0.000001,-0.000012,0.000007,0.000002,-0.000016,26.470389,0.000017,
2296,2398,0.864304343888136,-5.38390169572615,-0.00190885548784081,0.004949,0.000099,-0.001141,0.230983,0.032658,324.804828,23.772606,0.999256,0.985080,0.004934,0.411320,-0.000020,0.000013,0.000001,0.000013,-0.000020,89.047139,0.000020,
2041,2668,-4.72943516158155,0.500441989542665,-0.0238044940378472,0.005614,-0.000199,0.001597,0.254057,0.021050,321.156513,24.383985,0.999299,0.988632,0.004312,0.451505,-0.000012,-0.000020,-0.000003,-0.000010,-0.000021,-19.575706,0.000032,
2191,3253,-1.56682800720858,13.2075530044275,0.0371374884470015,0.005512,-0.000550,0.007180,0.231683,0.031568,311.433670,24.848874,0.999686,0.993945,0.003215,0.478527,0.000005,0.000032,0.000016,0.000039,-0.000003,65.197868,0.000043,
2356,2653,2.12306118705245,0.184602001168535,-0.0184403311544656,0.005328,-0.000361,0.001140,0.240605,0.019064,320.516723,24.235864,0.999381,0.986779,0.004565,0.427764,-0.000005,0.000013,0.000005,0.000014,-0.000006,76.555101,0.000014,
2491,2083,5.18595924944286,-12.2882666318192,0.0261431626984745,0.005954,-0.000545,0.005780,0.249860,0.044607,330.338358,21.869584,0.999325,0.978124,0.005626,0.432191,0.000045,-0.000043,0.000001,0.000045,-0.000043,0.373472,0.000051,
2266,2293,0.229911203967731,-7.68107219515058,0.00327310583634244,0.005493,-0.000566,0.001505,0.246774,0.011450,326.597998,23.657146,0.999314,0.984278,0.005067,0.405738,-0.000014,0.000000,-0.000009,0.000004,-0.000018,-62.991479,0.000019,
2026,2638,-5.05036509135262,-0.154040591727359,-0.0166537933929476,0.005434,-0.000279,0.001215,0.246847,0.012313,321.785979,24.395455,0.999295,0.990128,0.004067,0.455733,-0.000010,-0.000018,-0.000005,-0.000008,-0.000020,-25.243032,0.000028,
2116,2968,-3.14748432792321,7.02372269304159,0.00518230082928994,0.005373,-0.000513,0.003930,0.235956,0.016571,316.115340,24.475114,0.999677,0.992672,0.003372,0.392032,-0.000009,0.000013,0.000013,0.000019,-0.000015,65.257904,0.000020,
2476,2098,4.8542787626279,-11.9580394918078,0.0271880778734612,0.005215,-0.000304,0.003874,0.223651,0.022104,330.036932,22.112239,0.999361,0.978455,0.005629,0.320549,0.000047,-0.000034,0.000008,0.000048,-0.000034,5.734833,0.000050,
2386,2818,2.74347876592037,3.78052936213275,-0.0271931748311545,0.005164,-0.000799,0.004137,0.222205,0.004536,317.751300,24.680396,0.999697,0.991754,0.003791,0.429653,-0.000020,0.000016,0.000001,0.000016,-0.000020,88.628471,0.000021,
2251,2203,-0.0808125012819865,-9.65249192923411,0.0117649825371018,0.005636,-0.000845,0.005034,0.241626,0.017637,328.140218,23.518846,0.999106,0.984681,0.004988,0.457483,-0.000013,0.000007,0.000012,0.000012,-0.000018,65.258333,0.000019,
2401,2923,3.05130185757267,6.06455934041962,-0.00767278045742614,0.005390,-0.000435,0.003495,0.235064,0.032714,316.226556,25.014700,0.999443,0.991016,0.003890,0.455488,-0.000014,-0.000004,0.000003,-0.000003,-0.000014,73.476018,0.000018,
2281,2338,0.5493094195343,-6.69626867434925,0.00210991100419733,0.005844,-0.000247,-0.000437,0.269429,-0.001341,325.863484,23.725735,0.999179,0.984359,0.004927,0.351920,-0.000023,0.000004,-0.000007,0.000005,-0.000024,-76.105219,0.000026,
2506,2293,5.46844240334892,-7.6817354238464,0.0127139196181361,0.005093,-0.000993,0.004817,0.214050,-0.003755,326.839910,22.701941,0.999209,0.978500,0.005441,0.351133,0.000002,-0.000023,0.000002,0.000002,-0.000024,3.582714,0.000026,
2161,3118,-2.19446019710591,10.2800495274685,0.0310126950082008,0.005440,-0.000213,0.003264,0.240875,0.031501,313.703178,24.685885,0.999567,0.993474,0.003356,0.402251,-0.000014,0.000004,0.000004,0.000005,-0.000014,79.242979,0.000015,
2446,3193,3.97989320323272,11.930564278985,0.0346258395426275,0.005425,-0.000527,0.004526,0.232618,0.023844,312.220097,26.078141,0.999725,0.991683,0.003516,0.399392,0.000011,0.000044,0.000006,0.000045,0.000010,79.301276,0.000059,
2326,2548,1.48923961985571,-2.1069786197514,-0.0157653918831784,0.005382,-0.000854,0.006509,0.224401,0.025223,322.232198,23.975140,0.999124,0.984360,0.004782,0.466095,-0.000005,-0.000022,0.000013,0.000002,-0.000029,28.486239,0.000032,
2086,2803,-3.77347789390086,3.43887621690983,-0.0153831830665467,0.005168,-0.000439,0.003997,0.226459,0.025676,318.761959,24.401939,0.999291,0.990858,0.003892,0.412832,-0.000010,-0.000003,-0.000002,-0.000003,-0.000011,-78.010484,0.000015,
2146,3028,-2.5057249636425,8.32712823439003,0.0142585240141671,0.005570,-0.000536,0.003911,0.244826,0.019325,315.094068,24.550152,0.999436,0.991035,0.003845,0.424396,-0.000005,0.000011,0.000010,0.000016,-0.000010,64.360911,0.000016,
2131,2938,-2.8169510214959,6.37311523116519,0.00696982425523629,0.005379,-0.000805,0.004181,0.235122,0.000425,316.551963,24.522709,0.999639,0.992273,0.003654,0.356028,-0.000004,0.000014,0.000015,0.000022,-0.000012,60.445905,0.000022,
2011,2638,-5.37734234542123,-0.152769051386642,-0.0308419018215318,0.005157,-0.000526,0.002991,0.229260,0.005332,321.745150,24.453710,0.999144,0.986346,0.004511,0.401148,-0.000011,-0.000021,-0.000002,-0.000011,-0.000022,-12.020076,0.000033,
2176,3163,-1.87677045137933,11.2561059517569,0.0392309119910124,0.005158,-0.000900,0.006925,0.216214,0.017674,312.958474,24.761444,0.999811,0.996449,0.002852,0.406339,-0.000006,0.000013,0.000005,0.000015,-0.000008,76.789670,0.000015,
2071,2713,-4.08582586745167,1.48175974513209,-0.0274134636358099,0.005283,-0.000503,0.007478,0.221878,0.044306,320.195280,24.390802,0.999356,0.990507,0.003841,0.447690,0.000009,-0.000019,-0.000008,0.000011,-0.000021,-15.460786,0.000021,
2056,2698,-4.40823758777345,1.15310616502049,-0.0171592898234962,0.005421,-0.000743,0.004022,0.238178,0.023009,320.623571,24.346729,0.999349,0.990945,0.003840,0.474695,0.000003,-0.000026,-0.000002,0.000003,-0.000027,-4.369274,0.000029,
2311,2473,1.17714458538895,-3.7454949902475,-0.00359693559414609,0.005079,-0.000607,0.003545,0.220815,0.005674,323.554544,23.875896,0.999334,0.986034,0.004584,0.402926,0.000000,-0.000020,0.000014,0.000008,-0.000027,27.396667,0.000028,
2431,3088,3.67393859112069,9.65025935884099,0.0259545144238018,0.005340,-0.000418,0.004066,0.230495,0.017271,313.842381,25.655841,0.999698,0.992814,0.003508,0.402283,0.000007,0.000029,0.000008,0.000032,0.000005,71.770669,0.000040,
2491,2098,5.18413802933433,-11.9603015603888,0.0414220562094556,0.005531,0.000021,0.000901,0.249427,0.012244,330.223539,22.006771,0.999597,0.984086,0.004959,0.324078,0.000036,-0.000024,-0.000003,0.000037,-0.000024,-2.385083,0.000037,
2101,2833,-3.45269476900054,4.09161724677892,-0.017240330535401,0.005419,-0.000922,0.006793,0.229530,0.008540,318.187983,24.405902,0.999639,0.993677,0.003336,0.407974,-0.000008,0.000014,0.000007,0.000016,-0.000011,73.517661,0.000016,
2416,3013,3.36060218965797,8.02158739635568,0.00131972170805739,0.005368,-0.000612,0.004019,0.231978,0.012687,314.844102,25.372205,0.999500,0.986948,0.004180,0.391517,-0.000005,0.000004,0.000012,0.000012,-0.000013,55.331822,0.000015,
2221,2053,-0.709450189582963,-12.9391909117329,0.0162093933569736,0.005038,-0.000288,0.001381,0.226272,0.019817,330.636337,23.564199,0.998879,0.977154,0.005729,0.344779,-0.000026,-0.000025,0.000012,-0.000014,-0.000038,46.210717,0.000053,
2236,2143,-0.396889930374524,-10.9669889584005,0.0218759668773032,0.005475,-0.000431,0.003190,0.240475,0.017777,329.217976,23.590624,0.998806,0.980598,0.005354,0.364882,-0.000019,-0.000014,0.000010,-0.000006,-0.000027,51.063133,0.000035,
2371,2758,2.42897585424127,2.47432600679047,-0.0281951635664086,0.005540,-0.000356,0.002523,0.245472,0.010970,318.735244,24.563906,0.999117,0.986904,0.004232,0.372522,-0.000010,0.000026,0.000005,0.000027,-0.000011,82.536660,0.000027,
2476,2113,4.85003001383138,-11.6284965184471,0.0189467916715103,0.004762,-0.000755,0.004342,0.201007,0.013447,329.703484,22.118052,0.999267,0.976238,0.005940,0.366392,0.000042,-0.000031,0.000007,0.000042,-0.000031,5.141530,0.000044,
2296,2413,0.861597345748262,-5.05645902120884,0.00168645654355259,0.005146,-0.000672,0.004826,0.219594,0.011965,324.580974,23.826084,0.999415,0.986167,0.004717,0.368409,-0.000018,0.000006,0.000002,0.000006,-0.000018,85.298879,0.000019,
2341,2608,1.80399188678868,-0.795834155923593,-0.0270579914728728,0.005428,-0.000487,0.005562,0.229791,0.044933,321.164404,24.149538,0.999469,0.986389,0.004457,0.437285,-0.000002,-0.000016,0.000008,0.000002,-0.000020,23.874063,0.000022,
2041,2683,-4.73241344565712,0.827624841829532,-0.028753417650762,0.005318,-0.000245,0.003058,0.236385,0.022374,320.854538,24.399669,0.999423,0.991162,0.003899,0.430099,-0.000009,-0.000032,-0.000007,-0.000007,-0.000034,-16.666892,0.000044,
2191,3268,-1.570431511317,13.5330766204277,0.0235683806893121,0.005361,-0.000458,0.005997,0.228400,0.015045,311.070873,24.856647,0.999488,0.991686,0.003630,0.467287,0.000004,0.000035,0.000019,0.000045,-0.000005,64.572687,0.000049,
2026,2653,-5.05322110058402,0.17376022046615,-0.0270991592261112,0.005462,-0.000068,0.001114,0.248529,0.031441,321.457386,24.393241,0.999348,0.991046,0.003845,0.467761,-0.000015,-0.000022,-0.000007,-0.000010,-0.000026,-32.512114,0.000038,
2506,2308,5.46550710253271,-7.35451688630653,0.019015735274138,0.004886,-0.001369,0.006574,0.197658,-0.009617,326.633637,22.714846,0.999190,0.980321,0.005338,0.395120,0.000005,0.000008,-0.000007,0.000013,-0.000001,-51.713427,0.000015,
2446,3208,3.97692307765099,12.2558408276906,0.0337382994371751,0.005466,-0.000399,0.003840,0.237087,0.015319,311.971014,26.113822,0.999639,0.990483,0.003786,0.406023,0.000008,0.000037,0.000004,0.000038,0.000008,83.040020,0.000049,
2086,2818,-3.77550868951576,3.7651826014295,-0.0182898660259525,0.005489,-0.000236,0.000551,0.251308,0.028317,318.518759,24.395138,0.999466,0.992314,0.003629,0.421582,-0.000008,0.000010,0.000002,0.000010,-0.000008,82.084724,0.000011,
2326,2563,1.48654614053421,-1.77949785905405,-0.012211591395328,0.005218,-0.000885,0.006629,0.216448,0.024201,322.010405,24.059708,0.998802,0.983167,0.005045,0.415599,-0.000008,-0.000020,0.000007,-0.000005,-0.000024,24.882092,0.000031,
2356,2668,2.11986268385774,0.510631278381027,-0.0138802931286932,0.005095,-0.001109,0.007320,0.207854,0.003975,320.278700,24.241436,0.999543,0.988908,0.004215,0.446264,-0.000007,0.000017,-0.000001,0.000017,-0.000007,-88.298732,0.000017,
2386,2833,2.74047538928185,4.10747080751447,-0.0246919420055747,0.005006,-0.000688,0.005965,0.208467,0.019053,317.513517,24.771595,0.999554,0.987875,0.004269,0.395991,-0.000021,0.000019,0.000001,0.000019,-0.000021,88.961989,0.000023,
2011,2653,-5.37957802503981,0.173757815777073,-0.0345711049863553,0.005372,-0.000367,0.002947,0.239374,0.016376,321.481485,24.399632,0.998995,0.986601,0.004550,0.454828,-0.000015,-0.000023,-0.000007,-0.000011,-0.000027,-30.238136,0.000039,
2401,2938,3.04864825353242,6.39014636521381,-0.000897177734941579,0.005330,-0.000303,0.006158,0.222739,0.053329,316.026017,25.033002,0.999421,0.991088,0.003918,0.502893,-0.000012,0.000002,0.000001,0.000002,-0.000012,87.161334,0.000012,
2116,2983,-3.14911576107328,7.34799605955341,0.0150678315536652,0.005572,-0.000485,0.004197,0.244358,0.019822,315.962476,24.416575,0.999726,0.993917,0.003164,0.456517,-0.000009,0.000008,0.000017,0.000019,-0.000019,58.277346,0.000022,
2281,2353,0.545901274636964,-6.36953337221361,0.00589368522389577,0.005232,-0.000852,0.004798,0.223677,-0.006623,325.607557,23.681560,0.999271,0.984639,0.004861,0.420565,-0.000024,0.000000,-0.000006,0.000002,-0.000025,-77.833860,0.000028,
2026,2668,-5.05525044167071,0.49941925548751,-0.0250376188579935,0.005672,-0.000484,0.002814,0.253388,0.012116,321.237114,24.342862,0.999325,0.990332,0.003919,0.489500,-0.000016,-0.000024,-0.000003,-0.000015,-0.000025,-18.637435,0.000040,
2506,2323,5.46209291739468,-7.02595103053981,0.0164615708973201,0.004941,-0.001046,0.008196,0.194099,0.017342,326.365571,22.734616,0.999034,0.983973,0.004982,0.465622,-0.000001,0.000022,0.000003,0.000022,-0.000001,82.291258,0.000025,
2176,3178,-1.87854681392628,11.5799667663238,0.0477352230491874,0.005378,-0.000869,0.006959,0.226193,0.004888,312.794882,24.714200,0.999745,0.995150,0.003076,0.451706,-0.000006,0.000020,0.000005,0.000021,-0.000007,79.343766,0.000021,
2251,2218,-0.0831248969621541,-9.32341189665308,0.016045236947491,0.005401,-0.000188,0.001530,0.242564,0.031680,327.934557,23.629494,0.998691,0.978738,0.005705,0.386704,-0.000014,0.000010,0.000006,0.000011,-0.000015,77.170370,0.000015,
2131,2953,-2.81950300783762,6.69842992332789,0.00788750533553184,0.005391,-0.000620,0.006477,0.228947,0.026682,316.309258,24.467768,0.999661,0.992323,0.003498,0.442323,-0.000004,0.000014,0.000014,0.000021,-0.000011,62.162447,0.000021,
2041,2698,-4.73461189818554,1.15393850080529,-0.0276251300019794,0.005378,-0.000557,0.003597,0.237618,0.036403,320.622184,24.377799,0.999312,0.991286,0.003851,0.458754,0.000003,-0.000032,0.000000,0.000003,-0.000032,0.110726,0.000035,
2266,2308,0.227308070614736,-7.35316369757835,0.00745964080527983,0.005130,-0.000264,-0.000157,0.235740,0.037401,326.379623,23.678191,0.998952,0.981976,0.005392,0.438257,-0.000017,-0.000005,-0.000005,-0.000003,-0.000019,-70.441613,0.000023,
2311,2488,1.1749295164904,-3.41788075442005,-0.00277246017373045,0.005279,-0.000101,-0.000181,0.242898,0.019610,323.340367,23.908751,0.999403,0.987101,0.004342,0.417345,-0.000004,-0.000019,0.000012,0.000003,-0.000026,30.132287,0.000029,
2446,3223,3.97348607619501,12.5817410616917,0.03044463080073,0.005266,-0.000215,0.003489,0.229310,0.024489,311.688990,26.179610,0.999597,0.991037,0.003813,0.400307,0.000005,0.000032,0.000004,0.000032,0.000005,82.003206,0.000040,
2476,2128,4.84771613936799,-11.3005527100607,0.0274784025395434,0.005089,-0.001315,0.007777,0.202728,-0.007413,329.534616,22.177875,0.999007,0.973833,0.006229,0.344908,0.000045,-0.000035,0.000008,0.000046,-0.000036,6.008779,0.000048,
2056,2713,-4.41073602707976,1.4804360875715,-0.0208847927218585,0.005602,-0.000657,0.006066,0.240790,0.037903,320.351569,24.381890,0.999212,0.989615,0.003966,0.449482,0.000012,-0.000020,-0.000005,0.000012,-0.000021,-8.202663,0.000021,
2491,2113,5.18128022775891,-11.6328696181121,0.046450056879678,0.005462,-0.000560,0.002368,0.240423,0.003409,330.015094,21.963480,0.999626,0.984052,0.004963,0.420079,0.000029,-0.000023,-0.000002,0.000029,-0.000023,-2.164304,0.000031,
2146,3043,-2.5080992885971,8.65284089918405,0.0116478878107955,0.005831,-0.000570,0.003176,0.259121,0.018677,314.841703,24.559517,0.999500,0.992668,0.003400,0.421584,-0.000005,0.000003,0.000006,0.000007,-0.000008,61.958643,0.000009,
2416,3028,3.35743457728474,8.34759548865772,-0.000582081957588798,0.005333,-0.000568,0.004419,0.228947,0.020669,314.579598,25.405981,0.999566,0.988771,0.004023,0.412621,-0.000004,0.000004,0.000010,0.000011,-0.000011,55.441564,0.000013,
2236,2158,-0.400692318827087,-10.6369867203884,0.0106130270825702,0.005006,-0.000646,0.002183,0.222195,-0.000404,328.864309,23.630969,0.998648,0.982129,0.005345,0.330982,-0.000017,-0.000018,0.000007,-0.000010,-0.000025,43.167559,0.000036,
2191,3283,-1.57274416379667,13.8578606921179,0.0255016767034704,0.005390,-0.000694,0.004060,0.235756,0.003264,310.848648,24.881310,0.999665,0.994319,0.003112,0.444005,0.000001,0.000043,0.000023,0.000053,-0.000009,66.051729,0.000056,
2371,2773,2.4262958695116,2.79999066030842,-0.0204781297759382,0.005306,-0.000608,0.004834,0.226450,0.013998,318.536808,24.572897,0.999453,0.990201,0.003846,0.407580,-0.000010,0.000026,0.000003,0.000026,-0.000010,85.383773,0.000026,
2221,2068,-0.71208354878755,-12.6106317698601,0.0209381663095769,0.004908,-0.000911,0.005219,0.207882,0.022617,330.416383,23.592234,0.999021,0.977741,0.005646,0.341943,-0.000022,-0.000025,0.000013,-0.000011,-0.000037,41.654446,0.000050,
2101,2848,-3.45515634845643,4.41753864901795,-0.0203222484857406,0.005381,-0.000296,0.003904,0.236496,0.030311,317.925400,24.353023,0.999781,0.994338,0.003134,0.483847,-0.000011,0.000012,0.000008,0.000015,-0.000014,72.442575,0.000017,
2086,2833,-3.77777411771575,4.090669662625,-0.0109612690968106,0.005457,-0.000769,0.005429,0.235592,0.026946,318.320816,24.399116,0.999768,0.994857,0.003029,0.414821,-0.000008,0.000013,0.000002,0.000014,-0.000008,83.600603,0.000014,
2071,2728,-4.08762235342263,1.80776563645401,-0.0238337603836385,0.005480,-0.000293,0.005387,0.237003,0.040583,319.997146,24.387464,0.999311,0.989286,0.004047,0.444164,0.000005,-0.000010,-0.000007,0.000008,-0.000013,-20.287388,0.000013,
2431,3103,3.67032622232295,9.9766270238626,0.0169966714535121,0.005270,-0.000425,0.002129,0.234508,0.022672,313.525223,25.700310,0.999752,0.993979,0.003337,0.412209,0.000011,0.000032,0.000006,0.000033,0.000009,74.842988,0.000045,
2011,2668,-5.38113340464504,0.499335618173021,-0.0261509080079918,0.005676,-0.000733,0.005024,0.247653,0.010567,321.317474,24.381278,0.999044,0.987157,0.004393,0.455481,-0.000018,-0.000024,-0.000004,-0.000016,-0.000025,-26.626549,0.000042,
2161,3133,-2.19719651192283,10.6048705285191,0.0317031008098638,0.005312,-0.000453,0.004917,0.229848,0.029452,313.453071,24.658991,0.999505,0.993223,0.003508,0.436012,-0.000014,0.000008,0.000003,0.000009,-0.000014,82.847473,0.000014,
2296,2428,0.859357136414616,-4.72836958275158,0.000241376400140325,0.005627,-0.000279,0.003324,0.246948,0.038824,324.353259,23.848141,0.999559,0.988398,0.004346,0.404817,-0.000009,-0.000017,-0.000001,-0.000008,-0.000017,-7.367902,0.000026,
2386,2848,2.73843767674427,4.43331755461839,-0.0199990123476255,0.005273,-0.000411,0.003157,0.230936,0.029065,317.330793,24.786864,0.999524,0.989464,0.004025,0.433715,-0.000023,0.000013,-0.000004,0.000014,-0.000023,-84.055653,0.000023,
2026,2683,-5.05900614118223,0.828582662079185,-0.041857040344496,0.005279,-0.000478,0.004147,0.231675,0.023007,320.831401,24.432646,0.999790,0.995812,0.002964,0.401812,-0.000012,-0.000038,-0.000004,-0.000011,-0.000039,-8.213955,0.000052,
2116,2998,-3.15237737256134,7.6742730697996,0.00912086431497983,0.005199,-0.000607,0.004895,0.225082,0.016628,315.648922,24.444427,0.999511,0.992710,0.003449,0.428056,-0.000011,0.000013,0.000015,0.000021,-0.000018,64.157713,0.000023,
2341,2623,1.80158668516042,-0.469583167196049,-0.0209065185677559,0.005288,-0.000424,0.004567,0.226843,0.030867,320.969604,24.175336,0.999379,0.987367,0.004354,0.434465,-0.000003,-0.000003,0.000005,0.000003,-0.000008,45.916191,0.000008,
2506,2338,5.45918978162084,-6.69608527961126,0.0162054791830997,0.004980,-0.000566,0.005734,0.205600,0.036590,326.130999,22.909145,0.999207,0.985784,0.005088,0.373588,0.000007,0.000010,-0.000001,0.000010,0.000007,-78.457613,0.000017,
2401,2953,3.04509579200426,6.71684244309367,-0.00803505864035969,0.005119,-0.000540,0.004254,0.219793,0.017982,315.718133,25.115423,0.999567,0.991637,0.003775,0.429941,-0.000011,0.000002,0.000002,0.000003,-0.000011,79.607232,0.000012,
2191,3298,-1.57668756054386,14.1849685368617,0.00371118536668291,0.005443,-0.000264,0.002526,0.243247,0.025261,310.426561,24.962793,0.999817,0.996182,0.002702,0.397362,-0.000004,0.000058,0.000014,0.000061,-0.000007,77.963797,0.000066,
2326,2578,1.48396424800335,-1.45222110662396,-0.0147057971762479,0.005287,-0.000627,0.002356,0.234426,-0.000754,321.764284,24.100856,0.999270,0.987597,0.004317,0.384688,-0.000006,-0.000007,0.000010,0.000004,-0.000017,42.802589,0.000017,
2056,2728,-4.41343682879305,1.80719396809677,-0.0261170370490049,0.005462,-0.000634,0.004694,0.238247,0.024448,320.062244,24.385809,0.999339,0.990248,0.003883,0.427016,0.000008,-0.000009,-0.000003,0.000008,-0.000010,-9.009091,0.000010,
2281,2368,0.543170136362235,-6.04260256037158,0.0135946168909413,0.004913,-0.001378,0.008647,0.196024,-0.009729,325.402069,23.695491,0.999152,0.982250,0.005176,0.432686,-0.000026,-0.000002,-0.000004,-0.000001,-0.000027,-80.507067,0.000031,
2356,2683,2.116823405203,0.839265554249323,-0.0214336442925287,0.005302,-0.000523,0.004947,0.225998,0.024774,319.988922,24.354332,0.999579,0.989135,0.004063,0.393591,-0.000009,0.000032,-0.000004,0.000032,-0.000010,-85.132670,0.000033,
2176,3193,-1.88001644596278,11.9033268737235,0.058308841639473,0.005547,-0.000778,0.003770,0.243917,-0.001889,312.656449,24.629537,0.999807,0.996316,0.002893,0.540984,-0.000006,0.000015,0.000005,0.000016,-0.000007,77.813860,0.000016,
2446,3238,3.96999091703733,12.9074677886294,0.0270499323589775,0.005380,-0.000386,0.007592,0.219197,0.031796,311.403786,26.234933,0.999664,0.992821,0.003427,0.403100,0.000003,0.000034,0.000003,0.000035,0.000003,83.969890,0.000042,
2131,2968,-2.82198170709392,7.0244288620754,0.00574000865714197,0.005325,-0.000584,0.003300,0.235383,0.008023,316.053361,24.503316,0.999780,0.994167,0.003068,0.393147,-0.000006,0.000015,0.000012,0.000021,-0.000011,66.217946,0.000021,
2311,2503,1.17196917786218,-3.0908982619346,-0.00310023902466128,0.005395,-0.000597,0.003797,0.234515,0.009970,323.086513,23.901672,0.999489,0.988329,0.004164,0.448242,-0.000012,-0.000016,0.000011,-0.000003,-0.000025,39.731754,0.000031,
2476,2143,4.84436663563514,-10.9692471801704,0.021354995185618,0.005057,-0.000115,0.004562,0.213973,0.056076,329.251290,22.307054,0.998429,0.974864,0.005974,0.339305,0.000053,-0.000013,0.000009,0.000054,-0.000014,7.779014,0.000056,
2266,2323,0.224680234308373,-7.02468102804389,0.00979446619476221,0.005343,-0.000887,0.004500,0.229928,0.011659,326.150932,23.789477,0.998490,0.980326,0.005790,0.328599,-0.000015,-0.000006,-0.000004,-0.000005,-0.000017,-69.709345,0.000022,
2041,2713,-4.73737005197944,1.48056648116848,-0.0291295408428027,0.005177,-0.000881,0.006386,0.220520,0.023030,320.349601,24.395175,0.999178,0.989852,0.004115,0.420727,0.000012,-0.000025,-0.000003,0.000012,-0.000026,-3.797423,0.000026,
2371,2788,2.42382628704501,3.12778384743555,-0.0164813751635506,0.005297,-0.000158,0.003489,0.231013,0.038563,318.329625,24.730479,0.999854,0.994477,0.003285,0.315683,-0.000009,0.000026,0.000002,0.000026,-0.000009,86.841798,0.000026,
2086,2848,-3.77988761054641,4.41567601465243,-0.006076382981405,0.005393,-0.000439,0.005006,0.234027,0.041299,318.116672,24.328319,0.999651,0.993515,0.003349,0.498977,-0.000011,0.000011,0.000003,0.000012,-0.000011,83.174112,0.000013,
2011,2683,-5.38287753898384,0.824693044654083,-0.0131465819164873,0.005491,-0.000888,0.006591,0.234847,0.009225,321.170643,24.379453,0.999801,0.995932,0.002895,0.444207,-0.000011,-0.000041,-0.000005,-0.000010,-0.000042,-9.763438,0.000056,
2026,2698,-5.0612467362701,1.1539101697826,-0.0406831967498533,0.005174,-0.000652,0.003197,0.229409,0.007772,320.596624,24.350469,0.999805,0.995613,0.002986,0.459163,0.000001,-0.000037,0.000007,0.000002,-0.000039,10.520868,0.000044,
2251,2233,-0.0866642280168115,-8.99454183734117,0.00763811987013696,0.005168,-0.000567,0.002494,0.228619,0.014569,327.608928,23.625875,0.998689,0.979716,0.005564,0.399375,-0.000019,0.000013,0.000006,0.000014,-0.000020,79.184438,0.000020,
2416,3043,3.35527715247391,8.67279273970135,0.0106377772081032,0.005289,-0.000456,0.005252,0.223977,0.032843,314.423310,25.451263,0.999622,0.990430,0.003866,0.426481,-0.000001,0.000012,0.000009,0.000017,-0.000006,63.028034,0.000017,
2236,2173,-0.402797573381942,-10.3086286600135,0.0128268794234714,0.005172,-0.000390,-0.000216,0.237670,-0.008155,328.656798,23.660403,0.998721,0.982986,0.005229,0.317528,-0.000014,-0.000004,0.000014,0.000006,-0.000024,55.139724,0.000025,
2221,2083,-0.714217149535894,-12.2813683674999,0.017000631427436,0.005333,-0.000480,0.001197,0.240357,0.016485,330.174966,23.602546,0.999135,0.979128,0.005543,0.347498,-0.000016,-0.000020,0.000013,-0.000005,-0.000031,39.753219,0.000039,
2491,2128,5.17861664256421,-11.3046045597329,0.0540804316712524,0.005468,-0.000795,0.004944,0.230747,0.022148,329.826953,22.001498,0.999582,0.987568,0.004626,0.462507,0.000031,-0.000030,0.000003,0.000031,-0.000030,2.988559,0.000035,
2296,2443,0.855510953269846,-4.40144943872332,-0.0116399055835927,0.005518,-0.000859,0.005189,0.235453,0.014605,324.000681,23.721850,0.999609,0.989017,0.004238,0.538737,-0.000006,-0.000028,0.000000,-0.000006,-0.000028,0.230889,0.000036,
2146,3058,-2.51070844540782,8.97780582379228,0.0170520818017508,0.005346,-0.000495,0.002726,0.238102,0.008061,314.621432,24.566495,0.999583,0.994041,0.003319,0.410513,-0.000004,0.000004,0.000005,0.000006,-0.000007,64.504210,0.000007,
2101,2863,-3.45675558886745,4.74332754979743,-0.0115034748560561,0.005604,-0.000423,0.003393,0.248211,0.022632,317.766866,24.410027,0.999634,0.992686,0.003527,0.419983,-0.000009,0.000008,0.000007,0.000011,-0.000012,69.597552,0.000013,
2506,2353,5.45655269274792,-6.36826767772536,0.0137150650134004,0.005231,-0.000425,0.000594,0.237034,0.010502,325.899025,22.924710,0.999221,0.985078,0.005188,0.394746,0.000032,0.000017,0.000005,0.000033,0.000015,16.386863,0.000049,
2041,2728,-4.73903909363384,1.80662234364773,-0.0252568477219484,0.005442,-0.000460,0.004315,0.238590,0.020791,320.156859,24.396731,0.999400,0.991348,0.003649,0.409554,0.000008,-0.000010,0.000002,0.000008,-0.000010,6.120366,0.000010,
2341,2638,1.7991316778293,-0.143125233353636,-0.0157269930258508,0.005085,-0.000174,0.002417,0.225102,0.020386,320.767707,24.212122,0.999325,0.987123,0.004440,0.424193,-0.000007,0.000003,0.000003,0.000004,-0.000008,74.508731,0.000008,
2071,2743,-4.08953550831647,2.13306266537725,-0.0200082465084392,0.005610,-0.000637,0.004311,0.245886,-0.005736,319.795350,24.367478,0.999432,0.990166,0.003936,0.415036,-0.000003,-0.000008,-0.000005,0.000000,-0.000011,-30.182506,0.000012,
2206,1993,-1.02537023991621,-14.2568859199538,0.0284727970063727,0.005559,-0.000034,0.002037,0.248157,0.033787,331.760553,23.584027,0.999480,0.983647,0.004933,0.354022,0.000003,-0.000076,0.000004,0.000003,-0.000076,2.564877,0.000087,
2386,2863,2.73623103114029,4.75919433613039,-0.0113558878774711,0.005503,-0.000597,0.005955,0.231440,0.037223,317.159019,24.839739,0.999482,0.989609,0.003934,0.431967,-0.000023,0.000016,-0.000005,0.000017,-0.000023,-83.157209,0.000024,
2161,3148,-2.20021563809891,10.930292171116,0.0271543109929553,0.005183,-0.000580,0.005508,0.222075,0.025673,313.162050,24.661150,0.999451,0.992617,0.003673,0.439007,-0.000011,0.000007,0.000003,0.000007,-0.000011,80.621924,0.000011,
2056,2743,-4.41594503119605,2.13303188539263,-0.0281647296657752,0.005372,-0.000789,0.004189,0.235443,-0.004038,319.799609,24.350860,0.999435,0.990744,0.003869,0.428150,-0.000002,-0.000004,-0.000001,-0.000002,-0.000005,-28.394013,0.000006,
2116,3013,-3.15430056260569,7.99911440009532,0.0144624769571919,0.005363,-0.000725,0.004508,0.233750,0.004036,315.458059,24.430020,0.998941,0.989282,0.004133,0.432726,-0.000008,0.000020,0.000014,0.000025,-0.000014,67.988838,0.000025,
2446,3253,3.96730644537333,13.2327449879691,0.0259769918982897,0.005343,-0.000172,0.002255,0.237598,0.037136,311.166770,26.267801,0.999803,0.994219,0.003031,0.426594,0.000001,0.000050,0.000004,0.000050,0.000001,84.964180,0.000058,
2431,3118,3.66684830039401,10.3032409422014,0.00990791289638082,0.005505,-0.000382,0.004160,0.237887,0.042182,313.222784,25.770238,0.999811,0.995138,0.003108,0.410738,0.000015,0.000034,0.000009,0.000037,0.000012,69.004679,0.000051,
2326,2593,1.48128348266743,-1.12458818243374,-0.0198741459278722,0.005715,-0.000324,0.001456,0.257294,0.001642,321.500359,24.129290,0.999658,0.991369,0.003720,0.394081,-0.000003,-0.000012,0.000009,0.000002,-0.000017,30.603931,0.000019,
2011,2698,-5.38514562151307,1.15143642540342,-0.017946861598773,0.005519,-0.000385,0.002736,0.246762,0.015991,320.899515,24.354001,0.999806,0.995794,0.002916,0.464963,0.000002,-0.000037,0.000008,0.000004,-0.000039,10.818351,0.000043,
2086,2863,-3.78222278639715,4.74283402737218,-0.0128652535982496,0.005574,-0.000159,0.000145,0.256524,0.035265,317.838141,24.392674,0.999447,0.991281,0.003865,0.427273,-0.000010,0.000007,0.000001,0.000007,-0.000010,85.129783,0.000010,
2311,2518,1.1685177131292,-2.76231179759957,-0.00947352377551169,0.005079,-0.000308,0.002425,0.224813,0.016770,322.779998,23.975629,0.999445,0.987035,0.004287,0.414468,-0.000013,-0.000022,0.000008,-0.000009,-0.000026,30.393653,0.000037,
2026,2713,-5.0631827108594,1.48025580878907,-0.0336863086980657,0.005283,-0.000790,0.006441,0.225486,0.011343,320.407940,24.394377,0.999691,0.994367,0.003353,0.409260,0.000007,-0.000031,0.000006,0.000007,-0.000031,8.896643,0.000033,
2401,2968,3.04387014136552,7.04215078540184,0.00835375316728459,0.005715,-0.000717,0.006771,0.238001,0.014774,315.628688,25.205635,0.999868,0.995120,0.003145,0.381163,-0.000011,0.000010,0.000003,0.000010,-0.000011,82.036356,0.000012,
2131,2983,-2.82451632863468,7.3500468446843,0.00352232761343885,0.005387,-0.000298,0.002890,0.239601,0.019173,315.794601,24.478120,0.999748,0.994188,0.003135,0.434609,-0.000006,0.000011,0.000016,0.000020,-0.000016,59.125635,0.000021,
2281,2383,0.539957905485675,-5.71273716557818,-0.0014791735048334,0.005022,-0.000602,0.002028,0.223420,-0.004486,325.060583,23.754055,0.998924,0.982066,0.005300,0.409457,-0.000023,0.000000,-0.000005,0.000001,-0.000024,-77.653473,0.000027,
2476,2158,4.84182414994797,-10.6409276248129,0.022497815272061,0.005489,-0.000140,0.004664,0.233361,0.032544,329.038390,22.334291,0.998520,0.972293,0.006307,0.347779,0.000045,-0.000022,-0.000009,0.000046,-0.000023,-7.103741,0.000046,
2506,2368,5.4531982941536,-6.04083790575088,0.0115967436676669,0.005321,-0.000652,0.002408,0.234046,0.003213,325.635652,22.895107,0.998850,0.979543,0.005779,0.479999,0.000038,0.000013,0.000005,0.000039,0.000011,11.409374,0.000053,
2491,2143,5.17369514524316,-10.9712219081485,0.0333000026819832,0.005406,-0.000504,0.004812,0.228577,0.043943,329.407440,22.202874,0.999051,0.980775,0.005538,0.345970,0.000037,-0.000008,0.000008,0.000038,-0.000009,10.082506,0.000040,
2176,3208,-1.88422583060943,12.2313311257473,0.0392507169208329,0.005165,-0.000449,0.003137,0.228447,0.012696,312.234687,24.782552,0.999647,0.994669,0.003188,0.413426,-0.000003,0.000018,0.000007,0.000020,-0.000005,73.220544,0.000021,
2371,2803,2.42130613901177,3.45243037232363,-0.0138608077123195,0.005529,-0.000571,0.004707,0.237226,0.020825,318.114355,24.634343,0.999852,0.994812,0.003294,0.435195,-0.000011,0.000020,0.000000,0.000020,-0.000011,89.243305,0.000020,
2221,2098,-0.716352623295123,-11.9535410289367,0.024023024810333,0.005520,-0.001024,0.004772,0.237325,0.010152,329.989597,23.608143,0.999115,0.978797,0.005606,0.357599,-0.000013,-0.000008,0.000013,0.000002,-0.000024,51.044990,0.000026,
2416,3058,3.35226783500737,8.99854848133648,0.0110462229576456,0.005290,-0.000590,0.006426,0.219597,0.017245,314.176892,25.508077,0.999614,0.990923,0.003848,0.400740,0.000001,0.000015,0.000010,0.000020,-0.000004,62.698821,0.000021,
2101,2878,-3.45950344589837,5.06871386963397,-0.0119349160615343,0.005414,-0.000658,0.005176,0.234141,0.001226,317.505768,24.379131,0.999620,0.992400,0.003663,0.430405,-0.000006,0.000021,0.000008,0.000023,-0.000008,75.121885,0.000023,
2206,2008,-1.02761863948961,-13.9288010534357,0.0329847702168422,0.005479,-0.000128,0.001414,0.246436,0.022004,331.556157,23.559114,0.999347,0.980500,0.005311,0.387331,-0.000015,-0.000064,0.000010,-0.000013,-0.000066,11.248927,0.000084,
2251,2248,-0.0897340871980745,-8.66429089014962,0.00447865969903205,0.005021,-0.000432,0.003197,0.219642,0.054483,327.330712,23.751651,0.998220,0.977909,0.006027,0.339368,-0.000011,0.000003,0.000004,0.000004,-0.000013,74.869502,0.000013,
2266,2338,0.221464484888813,-6.69565797185855,-0.00200709111999231,0.005349,-0.000265,0.000374,0.244083,0.020092,325.824205,23.781763,0.998919,0.983031,0.005266,0.372887,-0.000018,0.000003,-0.000005,0.000004,-0.000019,-75.804961,0.000020,
2056,2758,-4.41779989765203,2.45893944265745,-0.0191959910896458,0.005306,-0.000511,0.004430,0.231867,0.027725,319.627460,24.353883,0.999332,0.990406,0.004005,0.451514,-0.000006,-0.000013,-0.000008,-0.000001,-0.000018,-32.800590,0.000022,
2341,2653,1.79568445061286,0.18462968069953,-0.0257282706948558,0.005285,-0.000555,0.003274,0.231198,0.013940,320.446285,24.240640,0.999455,0.988666,0.004246,0.426821,-0.000009,0.000010,0.000006,0.000012,-0.000011,73.105009,0.000013,
2236,2188,-0.405495068970339,-9.98004585181259,0.0175934100304289,0.005102,-0.001229,0.004816,0.217904,-0.003906,328.435033,23.730380,0.999115,0.985741,0.004860,0.275417,-0.000016,0.000005,0.000014,0.000012,-0.000023,63.284695,0.000023,
2011,2713,-5.38840615739351,1.47882122956176,-0.0254563997107766,0.005056,-0.000448,0.004530,0.220560,0.019549,320.567578,24.373982,0.999678,0.994370,0.003361,0.436804,0.000007,-0.000030,0.000006,0.000008,-0.000031,9.292682,0.000032,
2161,3163,-2.2023254403199,11.2553345239267,0.0330560053640738,0.005224,-0.000559,0.005479,0.224088,0.031458,312.968171,24.685981,0.999602,0.993123,0.003435,0.428698,-0.000009,0.000014,0.000003,0.000015,-0.000009,82.807291,0.000015,
2116,3028,-3.15688403347617,8.32499189574815,0.0133113970662748,0.005318,-0.000627,0.004538,0.231647,0.016720,315.201553,24.446096,0.999299,0.991467,0.003742,0.432059,-0.000005,0.000015,0.000012,0.000020,-0.000010,64.890755,0.000020,
2506,2383,5.45010899884297,-5.71092145403163,0.00944294846277671,0.005650,-0.000229,0.003696,0.244363,0.028860,325.383763,23.065268,0.998856,0.980414,0.005398,0.398439,0.000035,0.000020,-0.000020,0.000048,0.000007,-34.994998,0.000060,
2446,3268,3.96256208202728,13.5590067496871,0.00478417332340086,0.005278,-0.000060,0.001679,0.236780,0.028322,310.741212,26.298934,0.999751,0.993690,0.003163,0.437267,0.000002,0.000043,0.000010,0.000046,0.000000,77.170843,0.000052,
2041,2743,-4.74154597081405,2.13248671364584,-0.0265012432589629,0.005329,-0.000797,0.004646,0.232387,0.004428,319.897494,24.358140,0.999487,0.991689,0.003700,0.424538,-0.000003,-0.000001,0.000004,0.000002,-0.000007,51.995981,0.000007,
2026,2728,-5.06484793447813,1.80532451876807,-0.0219274611364426,0.005196,-0.000739,0.006718,0.220770,0.016816,320.258641,24.361026,0.999603,0.992415,0.003584,0.438329,0.000000,-0.000008,0.000013,0.000009,-0.000018,36.353255,0.000018,
2326,2608,1.47819559451665,-0.797156560850389,-0.020499213712128,0.005635,-0.000560,0.003720,0.245797,0.025501,321.239851,24.162419,0.999594,0.989333,0.003987,0.420026,-0.000004,-0.000015,0.000009,0.000001,-0.000020,28.078968,0.000022,
2356,2698,2.11420951604597,1.16451848527333,-0.0168927735799116,0.005267,-0.000927,0.006151,0.220012,0.015870,319.777720,24.290924,0.999556,0.990736,0.003829,0.487266,-0.000007,0.000027,0.000001,0.000027,-0.000007,89.112324,0.000029,
2476,2173,4.83862222793526,-10.3124712724296,0.0266459000316104,0.005376,-0.001142,0.009024,0.211290,0.005968,328.808758,22.414286,0.998003,0.963983,0.007025,0.300147,0.000032,-0.000016,-0.000017,0.000038,-0.000022,-17.648280,0.000038,
2071,2758,-4.09224129464841,2.45988310818619,-0.0252110604199629,0.005475,-0.000529,0.002581,0.244684,0.006338,319.507207,24.361926,0.999446,0.991315,0.003833,0.429476,-0.000007,-0.000016,-0.000011,0.000001,-0.000023,-33.451899,0.000026,
2086,2878,-3.78465200501112,5.06754619003887,-0.00606513297066158,0.005377,-0.000562,0.004437,0.234876,0.015375,317.630142,24.351100,0.999434,0.991601,0.003861,0.447569,-0.000007,0.000021,0.000002,0.000022,-0.000007,86.960427,0.000022,
2296,2458,0.852720361230812,-4.07173841115124,-0.0132078524886197,0.005490,-0.000282,0.003938,0.238599,0.035416,323.746737,23.908407,0.999429,0.987243,0.004515,0.404403,-0.000008,-0.000025,0.000008,-0.000005,-0.000028,21.508131,0.000035,
2401,2983,3.04053771435257,7.36825135549476,0.00306637490717776,0.005523,-0.000549,0.004232,0.238461,0.013223,315.339659,25.220826,0.999720,0.992295,0.003606,0.409325,-0.000008,0.000005,0.000004,0.000006,-0.000009,74.279521,0.000009,
2146,3073,-2.5136885789458,9.30355504932569,0.0118270003554244,0.005410,-0.000751,0.005493,0.232576,0.002622,314.327325,24.575513,0.999759,0.996108,0.002892,0.403040,-0.000008,0.000006,0.000006,0.000008,-0.000010,68.882523,0.000010,
2491,2158,5.1698434650374,-10.6420641888286,0.0294471581229345,0.004966,-0.000297,0.004748,0.208820,0.027534,329.113261,22.245662,0.999119,0.979460,0.005620,0.348440,0.000033,-0.000019,-0.000011,0.000036,-0.000021,-11.633928,0.000036,
2206,2023,-1.02949683749355,-13.6004962443551,0.0407738690989845,0.005736,-0.000364,0.003518,0.251516,0.018197,331.385432,23.588089,0.998966,0.980234,0.005509,0.374513,-0.000022,-0.000044,0.000014,-0.000015,-0.000051,24.936777,0.000069,
2176,3223,-1.88631994550525,12.5565216286167,0.0476621264057258,0.005302,-0.000508,0.006422,0.224586,0.027284,312.055489,24.839689,0.999730,0.995080,0.003016,0.381552,-0.000001,0.000024,0.000008,0.000027,-0.000004,73.473713,0.000029,
2431,3133,3.66444267889478,10.6280473460111,0.0153482725986009,0.005590,-0.000274,0.003686,0.243596,0.038348,313.028604,25.778622,0.999728,0.993105,0.003346,0.447464,0.000022,0.000031,0.000007,0.000035,0.000018,60.122522,0.000054,
2311,2533,1.16587733841586,-2.43510946800281,-0.0113652799929014,0.005256,-0.000369,0.001342,0.236621,0.013315,322.532971,23.978640,0.999487,0.987886,0.004212,0.441360,-0.000012,-0.000026,0.000006,-0.000009,-0.000028,20.343249,0.000039,
2011,2728,-5.39055359631622,1.80481173324853,-0.025230984739494,0.005092,-0.000361,0.003739,0.224441,0.028922,320.330436,24.327834,0.999558,0.992520,0.003659,0.480724,0.000000,-0.000003,0.000014,0.000013,-0.000016,41.818458,0.000017,
2101,2893,-3.46139125014546,5.3940471130161,-0.00591736231638151,0.005558,-0.000578,0.005142,0.240967,0.014733,317.318979,24.359625,0.999472,0.992494,0.003776,0.464044,-0.000007,0.000022,0.000008,0.000024,-0.000009,74.980859,0.000024,
2131,2998,-2.82662386507021,7.67509223087774,0.00738208411257801,0.005444,0.000067,0.001949,0.245227,0.034605,315.588136,24.441538,0.999771,0.994361,0.003150,0.491832,-0.000010,0.000015,0.000014,0.000022,-0.000016,66.069705,0.000022,
2416,3073,3.34955835759282,9.32387737145083,0.0137158815505245,0.005205,-0.000540,0.005076,0.220663,0.012436,313.954940,25.533234,0.999615,0.990695,0.003890,0.417670,0.000005,0.000023,0.000007,0.000026,0.000003,70.198678,0.000031,
2056,2773,-4.42006785314645,2.78443345052622,-0.0140170307140011,0.004982,-0.000622,0.003372,0.219857,0.009845,319.415775,24.342008,0.999194,0.988238,0.004283,0.440118,-0.000006,-0.000016,-0.000012,0.000002,-0.000024,-33.843414,0.000026,
2281,2398,0.536698492948652,-5.384494723395,-0.00074256282624674,0.004830,-0.001369,0.007735,0.195340,0.005041,324.795854,23.818315,0.999115,0.984914,0.005076,0.384277,-0.000020,0.000009,-0.000001,0.000009,-0.000020,-87.388729,0.000020,
2341,2668,1.79295055240386,0.511148539870987,-0.0169183125723862,0.005110,-0.001276,0.008679,0.204035,-0.004745,320.249096,24.330346,0.999722,0.991220,0.003910,0.355072,-0.000010,0.000014,0.000001,0.000014,-0.000011,87.465439,0.000015,
2251,2263,-0.0918818171978266,-8.33721979224193,0.00974575415392565,0.005104,-0.000249,0.002955,0.224332,0.047926,327.137890,23.724693,0.999064,0.983394,0.005187,0.385382,-0.000009,-0.000012,0.000000,-0.000009,-0.000012,-8.788527,0.000021,
2371,2818,2.41794874371101,3.7782400932152,-0.0172599382543126,0.005427,-0.000999,0.006280,0.226732,-0.006684,317.831461,24.613174,0.999866,0.994976,0.003321,0.469743,-0.000017,0.000018,0.000000,0.000018,-0.000017,-89.417548,0.000020,
2026,2743,-5.0669032427363,2.13125994466795,-0.0205574972547993,0.005370,-0.001049,0.007341,0.226945,0.000338,320.033342,24.349218,0.999446,0.990406,0.003957,0.424037,-0.000013,0.000003,0.000015,0.000012,-0.000022,59.100500,0.000022,
2041,2758,-4.74336671376081,2.45764660702724,-0.0210089857651496,0.005500,-0.000694,0.005105,0.239058,0.025852,319.707060,24.274990,0.999252,0.991327,0.004034,0.521428,-0.000008,-0.000014,-0.000003,-0.000007,-0.000015,-25.385788,0.000022,
2446,3283,3.95867982981902,13.8847936554093,-0.00278737645413685,0.005156,-0.000165,0.003453,0.224442,0.018628,310.418508,26.367863,0.999753,0.992755,0.003334,0.409172,0.000008,0.000032,0.000017,0.000041,-0.000001,62.009755,0.000047,
2236,2203,-0.407627519451619,-9.65351635564601,0.0185758138455299,0.005334,-0.000433,0.002745,0.235529,0.013724,328.220149,23.564468,0.999462,0.988727,0.004437,0.482633,-0.000016,0.000009,0.000012,0.000014,-0.000021,67.896784,0.000021,
2266,2353,0.218310335017073,-6.36792418637759,-0.00367719290517243,0.005088,-0.000379,0.001845,0.227197,0.012805,325.551309,23.777612,0.999128,0.983757,0.005125,0.397132,-0.000020,-0.000002,-0.000004,-0.000001,-0.000021,-78.649641,0.000024,
2491,2173,5.1676661602963,-10.3150348147283,0.0352723468394629,0.005364,-0.000870,0.004503,0.227748,-0.006884,328.939445,22.220357,0.998551,0.970368,0.006394,0.400546,0.000019,-0.000011,-0.000022,0.000030,-0.000022,-28.193559,0.000032,
2221,2113,-0.719385192589552,-11.6249753582318,0.0229603658254973,0.005082,-0.000878,0.004154,0.219317,-0.007091,329.721868,23.608545,0.999097,0.980365,0.005380,0.361895,-0.000010,-0.000001,0.000010,0.000005,-0.000017,57.330354,0.000017,
2161,3178,-2.20470005515633,11.5799336524876,0.0390246256147293,0.005199,-0.000849,0.008480,0.213603,0.017393,312.762656,24.693213,0.999550,0.991417,0.003642,0.416321,-0.000008,0.000021,0.000001,0.000021,-0.000008,88.265113,0.000021,
2506,2398,5.44574034930154,-5.38127586917662,-0.00229344909172369,0.005440,-0.000162,0.004172,0.232991,0.045952,325.030375,23.132959,0.998895,0.982507,0.005097,0.411253,0.000038,0.000022,-0.000029,0.000060,0.000000,-37.403026,0.000070,
2086,2893,-3.78661930354469,5.39331653490612,-0.00386647678260488,0.005710,-0.000730,0.005113,0.248201,0.012159,317.417892,24.359945,0.999456,0.993310,0.003657,0.434129,-0.000009,0.000021,0.000001,0.000021,-0.000009,88.470653,0.000021,
2386,2878,2.73337475625533,5.08624443995677,-0.0129961707971233,0.005476,-0.000337,0.003424,0.239412,0.035691,316.908144,24.937947,0.999510,0.991647,0.003694,0.375413,-0.000025,0.000012,-0.000002,0.000012,-0.000025,-86.766823,0.000025,
2356,2713,2.11133539589951,1.4928579095026,-0.021306685388538,0.005393,-0.000402,0.003706,0.234586,0.014795,319.510640,24.434483,0.999529,0.991186,0.003716,0.381846,-0.000005,0.000029,0.000001,0.000029,-0.000005,88.401971,0.000031,
2476,2188,4.83568636567545,-9.98367050126289,0.0288362060758232,0.005117,-0.000995,0.006533,0.208931,0.024612,328.582152,22.464553,0.998411,0.967079,0.006894,0.328060,0.000034,-0.000031,-0.000027,0.000044,-0.000041,-19.669682,0.000049,
2116,3043,-3.15889517608862,8.6508703026447,0.0249421736423301,0.005232,-0.001095,0.007801,0.217899,0.012794,315.040165,24.566844,0.999598,0.993192,0.003424,0.309683,-0.000005,0.000008,0.000008,0.000012,-0.000008,64.661329,0.000012,
2146,3088,-2.51602555274503,9.62940646810474,0.0152663820664429,0.005397,-0.000729,0.006014,0.230499,0.019827,314.108757,24.631077,0.999725,0.994882,0.003072,0.371620,-0.000010,0.000004,0.000005,0.000006,-0.000011,72.344960,0.000011,
2071,2773,-4.09402097658911,2.78557891559576,-0.0180614950257905,0.005643,-0.000720,0.003215,0.250581,-0.001989,319.329549,24.375143,0.999393,0.989784,0.004046,0.404708,-0.000006,-0.000018,-0.000015,0.000004,-0.000028,-34.000971,0.000031,
2011,2743,-5.39344332018614,2.13277027361892,-0.0334848473032139,0.005129,-0.000641,0.006842,0.217661,0.028880,320.011132,24.408628,0.999567,0.992682,0.003499,0.387996,-0.000014,0.000007,0.000018,0.000017,-0.000024,60.008675,0.000025,
2176,3238,-1.88910221419627,12.8812577515427,0.0443035177901834,0.005399,-0.000525,0.007516,0.225603,0.018225,311.782986,24.814644,0.999721,0.994631,0.003094,0.408537,0.000001,0.000028,0.000010,0.000031,-0.000003,71.595081,0.000035,
2311,2548,1.16269350892089,-2.10767214324837,-0.0122072409217253,0.005284,-0.000723,0.006560,0.220036,0.026399,322.266021,24.001161,0.999367,0.985010,0.004675,0.465110,-0.000011,-0.000022,0.000009,-0.000006,-0.000027,29.631211,0.000035,
2401,2998,3.03745148482558,7.69536350523226,-0.00320706350862565,0.005550,-0.000192,0.000311,0.254075,0.012579,315.056931,25.326452,0.999603,0.989759,0.003995,0.348082,-0.000007,0.000006,0.000008,0.000010,-0.000011,65.239186,0.000012,
2206,2038,-1.03331467843667,-13.2701082268639,0.034021665714306,0.005156,-0.000512,0.006850,0.214382,0.059317,331.050842,23.603584,0.998924,0.979917,0.005481,0.420995,-0.000019,-0.000030,0.000014,-0.000010,-0.000039,34.481472,0.000052,
2056,2788,-4.42248901765999,3.11167020863961,-0.019803341427405,0.005347,-0.000605,0.004934,0.232325,0.021018,319.136029,24.379862,0.999266,0.988992,0.004130,0.408048,-0.000012,-0.000008,-0.000008,-0.000002,-0.000018,-52.462251,0.000022,
2431,3148,3.66107535643946,10.9541082729685,0.0113701492155656,0.005410,-0.000221,0.002351,0.240199,0.014078,312.745779,25.869173,0.999715,0.993527,0.003215,0.381312,0.000023,0.000029,0.000008,0.000035,0.000017,55.209964,0.000053,
2446,3298,3.9556173638898,14.2091263950254,-0.00450473732900036,0.005333,-0.000451,0.004758,0.227611,0.003613,310.161133,26.343895,0.999739,0.993356,0.003288,0.468804,0.000022,0.000028,0.000027,0.000052,-0.000002,47.882639,0.000059,
2326,2623,1.47567950688065,-0.471506913226122,-0.0113657084222041,0.005195,-0.000525,0.003527,0.226313,0.026648,321.053654,24.142641,0.999626,0.988641,0.004020,0.475617,-0.000005,0.000001,0.000007,0.000006,-0.000009,55.680159,0.000009,
2341,2683,1.78999621146754,0.838291630020272,-0.0220227642813597,0.005283,-0.001023,0.007680,0.215608,0.008604,319.974023,24.333983,0.999694,0.991007,0.003880,0.402045,-0.000012,0.000028,-0.000001,0.000028,-0.000012,-87.963701,0.000028,
2281,2413,0.534171406266196,-5.05720511592105,0.00112279800163151,0.004833,-0.001308,0.007349,0.196797,-0.008346,324.570533,23.833718,0.999296,0.986604,0.004695,0.384668,-0.000016,0.000004,0.000000,0.000004,-0.000016,-88.651561,0.000017,
2296,2473,0.849911426756758,-3.7441437216177,-0.0155721747745474,0.005453,-0.000089,0.002188,0.242880,0.011438,323.488538,23.943663,0.998882,0.981896,0.005293,0.376627,-0.000003,-0.000027,0.000015,0.000004,-0.000034,26.258164,0.000037,
2251,2278,-0.0943671211277071,-8.00973608078975,0.0106133701095814,0.005329,-0.000771,0.004909,0.228113,0.014460,326.907460,23.722218,0.999277,0.984400,0.004973,0.379921,-0.000005,-0.000006,-0.000005,0.000000,-0.000011,-41.961223,0.000013,
2086,2908,-3.78902737264532,5.71937174118048,-0.00300810177162703,0.005713,-0.000764,0.006184,0.245278,0.017625,317.178033,24.380695,0.999426,0.992191,0.003742,0.417646,-0.000010,0.000010,0.000002,0.000010,-0.000010,84.192023,0.000012,
2026,2758,-5.06883291256257,2.45710314768844,-0.0196978562275945,0.005588,-0.001021,0.006098,0.240497,0.013685,319.810929,24.299497,0.999179,0.989888,0.004173,0.477519,-0.000018,-0.000014,0.000006,-0.000010,-0.000022,54.968307,0.000033,
2416,3088,3.34712733080982,9.64988928853253,0.0156564592111295,0.005414,-0.000393,0.003152,0.237409,0.015822,313.742112,25.612115,0.999653,0.992280,0.003613,0.389032,0.000008,0.000026,0.000003,0.000027,0.000007,79.618260,0.000036,
2101,2908,-3.4634527557041,5.71976692891471,0.00118957962524746,0.005465,-0.000729,0.005127,0.236723,0.021474,317.130024,24.393647,0.999372,0.992089,0.003868,0.437737,-0.000008,0.000013,0.000010,0.000017,-0.000013,67.900043,0.000018,
2011,2758,-5.39550085578349,2.45821216310168,-0.0311539388327446,0.005079,-0.000464,0.005141,0.220057,0.030847,319.790159,24.345630,0.999499,0.991973,0.003665,0.441327,-0.000015,-0.000014,0.000008,-0.000006,-0.000023,46.938606,0.000031,
2476,2203,4.83215288195873,-9.65472027181971,0.0240102293371365,0.005158,-0.001101,0.007838,0.205860,0.019845,328.296443,22.483436,0.998224,0.968986,0.006640,0.363791,0.000031,-0.000036,-0.000026,0.000040,-0.000045,-19.070656,0.000049,
2371,2833,2.41486582959049,4.1064293191349,-0.0222181734572473,0.005427,-0.000432,0.003976,0.235224,0.021308,317.552934,24.748432,0.999677,0.990892,0.003850,0.403664,-0.000016,0.000022,0.000000,0.000022,-0.000016,89.863223,0.000022,
2221,2128,-0.72193012153976,-11.2959919644677,0.0260274227003947,0.004920,-0.000558,0.004581,0.210694,0.015274,329.497238,23.657613,0.998979,0.979457,0.005410,0.357245,-0.000009,-0.000005,0.000008,0.000002,-0.000015,51.666750,0.000017,
2161,3193,-2.20716895815808,11.9046812463224,0.0361256565005306,0.005225,-0.000633,0.004764,0.226307,0.020623,312.505856,24.647888,0.999621,0.993620,0.003277,0.473879,-0.000007,0.000016,-0.000001,0.000017,-0.000008,-87.404398,0.000017,
2266,2368,0.2154787495992,-6.03948967583562,-0.00574197686285061,0.005384,-0.000660,0.006086,0.226718,0.019307,325.290989,23.825178,0.999044,0.983423,0.005124,0.383318,-0.000024,-0.000004,-0.000004,-0.000003,-0.000025,-78.462980,0.000030,
2041,2773,-4.74652203566997,2.78480353271392,-0.0249173658342556,0.004912,-0.000983,0.005465,0.210835,-0.003772,319.402879,24.356229,0.999130,0.989656,0.004141,0.403046,-0.000008,-0.000015,-0.000006,-0.000004,-0.000019,-28.667851,0.000024,
2461,1993,4.54815881236991,-14.264377606811,0.032428610195268,0.005273,-0.000258,0.002131,0.232854,0.027338,331.745956,21.820689,0.998824,0.968002,0.006587,0.303656,0.000009,-0.000120,0.000074,0.000043,-0.000154,24.497976,0.000159,
2491,2188,5.16322552358274,-9.98387184356958,0.0250317507021691,0.005111,-0.001159,0.007052,0.206329,0.010392,328.589094,22.356445,0.998446,0.970024,0.006442,0.343930,0.000021,-0.000026,-0.000030,0.000036,-0.000041,-26.208807,0.000045,
2131,3013,-2.82890597040157,8.00109179390567,0.0129961931544926,0.005445,-0.000326,0.004455,0.237677,0.032302,315.382742,24.525736,0.999397,0.991444,0.003739,0.409997,-0.000009,0.000019,0.000012,0.000024,-0.000013,69.506599,0.000024,
2056,2803,-4.424635794402,3.43826398753131,-0.024547331237045,0.005744,-0.000509,0.003604,0.254435,0.021522,318.874829,24.382533,0.999274,0.990250,0.004022,0.400691,-0.000011,0.000002,0.000000,0.000002,-0.000011,89.096288,0.000012,
2176,3253,-1.89218206713631,13.2063130048148,0.0370247374808059,0.005522,-0.000924,0.009442,0.225258,0.013703,311.476057,24.796855,0.999748,0.994649,0.003093,0.432677,0.000004,0.000036,0.000016,0.000043,-0.000002,67.891619,0.000048,
2146,3103,-2.51835178221652,9.95360359324945,0.0199654161856984,0.005280,-0.000421,0.006110,0.224991,0.045903,313.897971,24.536912,0.999851,0.996639,0.002612,0.498723,-0.000011,0.000003,0.000007,0.000006,-0.000014,68.126489,0.000014,
2011,2773,-5.39730687135993,2.78443938874578,-0.028258405820452,0.005247,-0.000450,0.003334,0.232734,0.023205,319.583673,24.372715,0.999541,0.991227,0.003824,0.394527,-0.000008,-0.000018,0.000005,-0.000006,-0.000020,22.894137,0.000028,
2116,3058,-3.16135940579052,8.97470191616687,0.0194954634407054,0.005336,-0.000731,0.004056,0.233901,0.008364,314.766751,24.391341,0.999611,0.993124,0.003494,0.483666,-0.000003,0.000009,0.000007,0.000012,-0.000006,64.961469,0.000012,
2071,2788,-4.09613315610407,3.11102302001022,-0.0136200776028659,0.005694,-0.000659,0.004590,0.249038,0.011719,319.121874,24.325806,0.999320,0.988728,0.004161,0.464652,-0.000009,-0.000011,-0.000011,0.000001,-0.000021,-43.434821,0.000024,
2401,3013,3.0346066616966,8.02062013026537,0.000697015823277525,0.005546,-0.000535,0.003198,0.243327,0.008999,314.833853,25.337375,0.999603,0.989309,0.003963,0.378151,-0.000004,0.000002,0.000008,0.000008,-0.000010,55.451821,0.000010,
2206,2053,-1.03657602850293,-12.9387303591987,0.0196728401415385,0.005178,-0.000200,0.003143,0.227215,0.041043,330.702794,23.690094,0.998777,0.976589,0.005785,0.337114,-0.000019,-0.000027,0.000015,-0.000008,-0.000038,37.535089,0.000049,
2356,2728,2.10889706919156,1.81901563006832,-0.0149394348440524,0.005324,-0.000485,0.003944,0.230552,0.011523,319.315976,24.471644,0.999519,0.990528,0.003809,0.380326,-0.000008,0.000020,0.000004,0.000021,-0.000008,81.941785,0.000021,
2431,3163,3.6586861542294,11.2791653214202,0.0214729444160753,0.005430,-0.000408,0.005489,0.229488,0.025628,312.573862,25.920256,0.999673,0.992757,0.003409,0.390503,0.000019,0.000034,0.000007,0.000036,0.000016,68.252608,0.000053,
2386,2893,2.73052834908006,5.41208836453528,-0.0140202818254238,0.005331,0.000123,-0.000038,0.245377,0.044372,316.660893,24.923995,0.999502,0.992256,0.003664,0.441012,-0.000021,0.000009,0.000001,0.000009,-0.000021,87.420534,0.000022,
2506,2413,5.44334051119658,-5.05454179821423,0.00335227850592901,0.005513,-0.000257,0.002323,0.243427,0.023476,324.845320,23.145111,0.999062,0.983479,0.005120,0.439048,0.000031,0.000021,-0.000019,0.000046,0.000006,-37.804380,0.000057,
2326,2638,1.47222357394263,-0.143774192419599,-0.0150481515912588,0.005017,-0.000664,0.006282,0.208595,0.031261,320.761215,24.205663,0.999423,0.988537,0.004136,0.452523,-0.000008,0.000006,0.000007,0.000009,-0.000011,66.650322,0.000012,
2311,2563,1.16010644058131,-1.78049319772015,-0.0108138876209978,0.005227,-0.000710,0.004877,0.223128,0.012128,322.037532,24.051771,0.999219,0.986275,0.004613,0.433400,-0.000014,-0.000020,0.000003,-0.000012,-0.000021,24.240662,0.000034,
2416,3103,3.3445178476908,9.97581095858014,0.0164986319043123,0.005479,-0.000241,0.000570,0.250026,0.028482,313.515867,25.670253,0.999804,0.994756,0.003206,0.390288,0.000012,0.000031,0.000003,0.000031,0.000011,79.979401,0.000044,
2026,2773,-5.07171083453561,2.78530478181681,-0.0284417913891843,0.005378,-0.000506,0.003772,0.237348,0.013059,319.490800,24.409418,0.999463,0.991170,0.003966,0.357165,-0.000013,-0.000017,0.000003,-0.000012,-0.000018,27.959368,0.000031,
2341,2698,1.78776895575931,1.1637239905068,-0.0122783973573064,0.005167,-0.000999,0.008259,0.208303,0.029219,319.804705,24.299929,0.999701,0.992427,0.003730,0.493613,-0.000010,0.000023,0.000004,0.000024,-0.000010,82.318850,0.000024,
2086,2923,-3.79183738593268,6.04536223691989,-0.00452224195095141,0.005421,-0.000778,0.006553,0.230787,0.019996,316.906847,24.385862,0.999345,0.991112,0.003826,0.413149,-0.000014,0.000004,0.000005,0.000005,-0.000015,74.157194,0.000015,
2296,2488,0.847448548060513,-3.41691512755783,-0.0148807681227936,0.005502,0.000208,-0.000006,0.252698,0.027717,323.261213,23.938327,0.999416,0.988003,0.004345,0.429379,-0.000007,-0.000023,0.000014,0.000001,-0.000031,30.030630,0.000035,
2491,2203,5.15976497933695,-9.65446108786982,0.0210402306652782,0.004905,-0.000572,0.004986,0.205095,0.031471,328.311751,22.400691,0.998451,0.972000,0.006271,0.382360,0.000021,-0.000040,-0.000028,0.000032,-0.000051,-21.364977,0.000051,
2461,2008,4.54483352595803,-13.9354807178132,0.0364177740796663,0.004990,-0.000863,0.006149,0.204651,0.021709,331.509503,21.860684,0.999056,0.973094,0.006112,0.316027,0.000042,-0.000076,0.000042,0.000055,-0.000090,17.677304,0.000090,
2476,2218,4.82884094121599,-9.3245308004472,0.0201415527576501,0.005065,-0.000519,0.005727,0.209844,0.049875,328.024852,22.596689,0.999001,0.979619,0.005762,0.340115,0.000020,-0.000042,-0.000027,0.000030,-0.000052,-20.270148,0.000052,
2011,2788,-5.39893621264777,3.11006588398902,-0.0206237532646014,0.005488,-0.000290,0.004501,0.240737,0.043034,319.412055,24.358072,0.999541,0.991433,0.003766,0.416891,-0.000014,-0.000010,0.000008,-0.000003,-0.000020,53.024793,0.000026,
2281,2428,0.531783882580072,-4.72914524765557,0.000477789099079473,0.005078,-0.000751,0.005808,0.213393,0.019973,324.338772,23.859001,0.999522,0.988566,0.004366,0.417025,-0.000007,-0.000015,-0.000002,-0.000006,-0.000015,-16.047821,0.000022,
2251,2293,-0.0972583425153388,-7.68110187703812,0.00455163653811042,0.005300,-0.000392,0.002021,0.236382,0.015341,326.623122,23.726035,0.999144,0.983453,0.005052,0.402617,-0.000006,0.000000,-0.000001,0.000001,-0.000006,-78.984728,0.000007,
2266,2383,0.212910306021318,-5.7114256487239,-0.0128760750668562,0.005727,-0.000490,0.002320,0.254981,0.008419,325.017413,23.812619,0.998398,0.979568,0.005616,0.412500,-0.000023,-0.000002,-0.000006,0.000000,-0.000024,-75.092172,0.000028,
2221,2143,-0.724324880690606,-10.9665938931108,0.0220520070813564,0.005318,-0.000185,0.003777,0.231640,0.032982,329.243450,23.678401,0.998964,0.981816,0.005284,0.376155,-0.000017,-0.000015,0.000009,-0.000007,-0.000026,47.760602,0.000034,
2371,2848,2.41207749470796,4.43260777073409,-0.021922930146502,0.005357,-0.000301,0.002317,0.237966,0.029525,317.313593,24.762864,0.999582,0.990079,0.003922,0.438174,-0.000018,0.000015,-0.000004,0.000016,-0.000018,-83.043145,0.000020,
2101,2923,-3.46618487842028,6.04559833629019,-0.000574005661974297,0.005147,-0.000707,0.003210,0.227666,0.008213,316.862293,24.397997,0.999252,0.990794,0.003983,0.420840,-0.000011,0.000008,0.000014,0.000015,-0.000019,62.570520,0.000020,
2071,2803,-4.09918979368433,3.43823559025098,-0.0208080293762691,0.005381,-0.000510,0.003549,0.237702,0.015818,318.806693,24.362949,0.999326,0.990200,0.004014,0.428403,-0.000009,-0.000002,-0.000003,-0.000001,-0.000010,-71.175550,0.000013,
2056,2818,-4.42714201191097,3.76399127454498,-0.0212800410795353,0.005396,-0.000477,0.004017,0.237299,0.034392,318.641594,24.359451,0.999219,0.989674,0.004103,0.431188,-0.000011,0.000014,0.000003,0.000014,-0.000011,82.681237,0.000015,
2131,3028,-2.83157393114316,8.32602312861595,0.0140577751100182,0.005340,-0.000742,0.006715,0.225933,0.021499,315.135668,24.493284,0.999462,0.991516,0.003739,0.436473,-0.000006,0.000013,0.000010,0.000018,-0.000010,67.348313,0.000018,
2236,2218,-0.410860650876291,-9.32319972571466,0.0121560632135242,0.005322,-0.000688,0.004865,0.228080,0.019183,327.916777,23.684761,0.999043,0.983315,0.005064,0.391919,-0.000015,0.000013,0.000006,0.000014,-0.000017,78.172741,0.000018,
2116,3073,-3.16432396146746,9.30148566490633,0.0120617410743193,0.005248,-0.000323,0.002946,0.233261,0.011821,314.458596,24.471701,0.999748,0.993068,0.003612,0.409112,-0.000005,0.000012,0.000007,0.000015,-0.000008,69.240711,0.000015,
2176,3268,-1.89593404559822,13.5322005943978,0.0203315788875784,0.005369,-0.000752,0.007765,0.223417,0.006128,311.088378,24.811778,0.999663,0.993849,0.003227,0.421031,0.000007,0.000040,0.000019,0.000049,-0.000001,65.242655,0.000056,
2161,3208,-2.20927513418198,12.2296944101561,0.0418788414705205,0.005312,-0.000565,0.005164,0.229133,0.018355,312.311374,24.686799,0.999569,0.994032,0.003206,0.441156,-0.000004,0.000020,0.000000,0.000020,-0.000004,-89.010696,0.000021,
2431,3178,3.65621536394648,11.6037335588554,0.0289738670446695,0.005313,-0.000524,0.005372,0.224516,0.018518,312.386170,25.931880,0.999697,0.992344,0.003407,0.420426,0.000020,0.000042,0.000006,0.000043,0.000018,75.355564,0.000063,
2041,2788,-4.74824885616724,3.11132046277905,-0.021098373243035,0.005298,-0.000771,0.006112,0.226973,0.017454,319.207081,24.392789,0.999274,0.988754,0.004053,0.380017,-0.000014,-0.000006,-0.000001,-0.000006,-0.000014,-82.903132,0.000020,
2026,2788,-5.07377177899361,3.11082539034139,-0.0240143712471195,0.005426,-0.000525,0.005382,0.235196,0.034377,319.282413,24.359157,0.999566,0.992110,0.003613,0.418955,-0.000019,-0.000007,0.000008,-0.000004,-0.000022,62.910802,0.000028,
2401,3028,3.03202299562764,8.3463383461092,0.00147027076263839,0.005641,-0.000257,0.000907,0.256185,0.022947,314.607798,25.356019,0.999650,0.989826,0.003897,0.418333,-0.000001,0.000002,0.000007,0.000007,-0.000006,52.845526,0.000008,
2146,3118,-2.5202992218514,10.2789751664196,0.0277088713777971,0.005251,-0.000327,0.004770,0.227742,0.039372,313.720383,24.605499,0.999683,0.994919,0.003075,0.430363,-0.000011,0.000007,0.000006,0.000009,-0.000013,72.825946,0.000013,
2206,2068,-1.038546527191,-12.6116409588742,0.0296609260217906,0.005093,-0.000550,0.003888,0.220869,0.030714,330.539304,23.654998,0.999050,0.979170,0.005556,0.381421,-0.000017,-0.000024,0.000017,-0.000003,-0.000038,39.604619,0.000046,
2356,2743,2.10615901039038,2.14496618147609,-0.0113555690626868,0.005240,-0.000752,0.005110,0.222529,0.003358,319.094149,24.476136,0.999600,0.991334,0.003635,0.406680,-0.000008,0.000024,0.000004,0.000024,-0.000008,82.770831,0.000025,
2461,2023,4.54195237567955,-13.6046946651374,0.0294798714136846,0.005430,-0.000455,0.002523,0.238507,0.030275,331.243426,21.940037,0.999248,0.978420,0.005590,0.303463,0.000057,-0.000045,0.000030,0.000065,-0.000053,15.088006,0.000069,
2476,2233,4.82607678415107,-8.99646321591634,0.0174316283365101,0.005147,-0.000158,0.000486,0.233600,0.029978,327.783980,22.583576,0.999262,0.981971,0.005417,0.392140,0.000017,-0.000028,-0.000023,0.000027,-0.000038,-22.958618,0.000039,
2416,3118,3.34144941308108,10.3010744625436,0.0216238410846472,0.005295,-0.000703,0.004895,0.225557,0.020168,313.288732,25.719222,0.999830,0.995190,0.003026,0.379301,0.000016,0.000033,0.000007,0.000036,0.000014,69.906196,0.000051,
2506,2428,5.44087124681907,-4.72705591310235,0.00757482681478905,0.005699,-0.000353,0.001135,0.256491,0.015178,324.650504,23.202716,0.998858,0.981487,0.005475,0.435493,0.000027,0.000043,-0.000005,0.000044,0.000025,-74.625964,0.000071,
2086,2938,-3.79326852922688,6.37051045735309,0.0041303546358904,0.005666,-0.000303,0.003764,0.250342,0.033850,316.754572,24.378115,0.999335,0.991325,0.003799,0.433184,-0.000016,0.000005,0.000008,0.000007,-0.000019,71.147658,0.000019,
2311,2578,1.15613060114694,-1.45134620478983,-0.0230904946110968,0.004854,-0.000565,0.003784,0.209840,0.019532,321.677577,24.146586,0.999545,0.990396,0.003920,0.379265,-0.000012,-0.000006,0.000007,-0.000002,-0.000017,55.909444,0.000020,
2011,2803,-5.40178523200568,3.43554093142718,-0.0253799659298579,0.005231,-0.000734,0.005440,0.226207,0.011907,319.115193,24.288611,0.999464,0.992178,0.003667,0.443408,-0.000014,0.000008,0.000020,0.000020,-0.000026,59.617694,0.000028,
2026,2803,-5.07620836811978,3.43624176791191,-0.0233105985917632,0.005305,-0.000781,0.006672,0.225981,0.017996,319.036184,24.312088,0.999554,0.992314,0.003545,0.439739,-0.000019,0.000008,0.000018,0.000017,-0.000028,63.097404,0.000028,
2491,2218,5.15626762235133,-9.32415311137958,0.0152524434563475,0.005050,-0.000742,0.005567,0.209444,0.020250,328.024641,22.546414,0.999034,0.980045,0.005603,0.287243,0.000015,-0.000051,-0.000026,0.000024,-0.000060,-18.882481,0.000060,
2341,2713,1.78453420911193,1.49214553451285,-0.0235048310813681,0.005307,-0.000417,0.004297,0.228753,0.022417,319.486691,24.401021,0.999483,0.989744,0.004000,0.422837,-0.000008,0.000023,0.000005,0.000024,-0.000009,80.517450,0.000024,
2326,2653,1.46874098280381,0.18454436016917,-0.0279395702815464,0.005151,-0.000592,0.004300,0.221676,0.037044,320.422374,24.249210,0.999390,0.989541,0.004070,0.450035,-0.000010,0.000012,0.000010,0.000016,-0.000014,67.940378,0.000017,
2281,2443,0.528832068015973,-4.40138077688619,-0.00507393277712254,0.005194,-0.000706,0.005312,0.220406,0.009248,324.056875,23.855412,0.999617,0.989217,0.004231,0.439297,-0.000007,-0.000023,-0.000002,-0.000007,-0.000023,-7.436153,0.000031,
2236,2233,-0.414395093080639,-8.99427070931309,0.00603590183305869,0.005056,-0.001029,0.008080,0.205381,0.029551,327.601288,23.682783,0.999037,0.982933,0.005023,0.428046,-0.000019,0.000016,0.000008,0.000018,-0.000020,77.954335,0.000022,
2071,2818,-4.10125194942708,3.76412125520552,-0.0173991243744922,0.005335,-0.000125,0.001449,0.241720,0.034589,318.595531,24.349597,0.999418,0.990965,0.003981,0.457286,-0.000007,0.000011,0.000001,0.000011,-0.000007,86.245166,0.000011,
2056,2833,-4.42927815439506,4.08959105814121,-0.0136019135467222,0.005330,-0.000674,0.007363,0.224741,0.026528,318.449743,24.382410,0.998916,0.987185,0.004478,0.394452,-0.000007,0.000021,0.000001,0.000021,-0.000007,87.927485,0.000021,
2041,2803,-4.75026089630464,3.43703900384779,-0.0211883251344602,0.005571,-0.000717,0.005678,0.240776,0.013732,318.976869,24.354825,0.999409,0.990390,0.003779,0.406627,-0.000014,0.000005,0.000007,0.000008,-0.000016,70.803510,0.000016,
2266,2398,0.209962840591952,-5.38337310747179,-0.00954048139942643,0.005263,-0.000505,0.003046,0.231312,0.015879,324.778841,23.886969,0.999008,0.985126,0.004901,0.372885,-0.000021,0.000010,-0.000001,0.000010,-0.000021,-87.231940,0.000021,
2431,3193,3.65404993850001,11.9287141807449,0.0363929128964173,0.005587,-0.000689,0.006196,0.233997,0.013582,312.211973,25.981629,0.999678,0.991408,0.003563,0.414309,0.000018,0.000044,0.000007,0.000046,0.000017,75.788890,0.000065,
2386,2908,2.72704777796563,5.73875021706566,-0.0191354506740709,0.005566,-0.000478,0.005217,0.237054,0.025666,316.364773,24.987723,0.999390,0.990784,0.003917,0.401438,-0.000020,0.000003,0.000003,0.000003,-0.000021,82.566249,0.000022,
2296,2503,0.843930418498925,-3.08872213854561,-0.0167834050780584,0.005479,-0.000860,0.008325,0.223173,0.026930,322.972480,24.019765,0.999723,0.992167,0.003721,0.378448,-0.000013,-0.000019,0.000013,-0.000003,-0.000029,38.118924,0.000035,
2161,3223,-2.21147310843305,12.5545595682391,0.0454053874279907,0.005425,-0.000572,0.005064,0.234716,0.026923,312.100952,24.691517,0.999642,0.994400,0.003111,0.453805,-0.000002,0.000024,0.000000,0.000024,-0.000002,88.956343,0.000027,
2461,2038,4.53870874353732,-13.2756313999886,0.0306132429867034,0.005289,-0.000491,0.004463,0.224801,0.038233,330.997482,21.960218,0.999319,0.979703,0.005549,0.349223,0.000053,-0.000057,0.000036,0.000064,-0.000068,16.547006,0.000076,
2221,2158,-0.727200213123986,-10.6372632715704,0.0166779431280588,0.005197,-0.000026,0.000987,0.235079,0.023944,328.960654,23.710792,0.998758,0.983960,0.005343,0.356617,-0.000015,-0.000018,0.000006,-0.000010,-0.000022,37.613232,0.000033,
2371,2863,2.40946923931706,4.75862543404538,-0.0144629367693483,0.005309,-0.000392,0.005785,0.223378,0.027511,317.116839,24.830101,0.999537,0.990822,0.003822,0.409696,-0.000018,0.000016,-0.000007,0.000017,-0.000019,-79.427943,0.000021,
2506,2443,5.43695609251808,-4.39883311320212,0.00499701251141005,0.005224,-0.000572,0.002370,0.229892,0.001546,324.358779,23.274082,0.999037,0.982445,0.005231,0.413132,0.000039,0.000016,-0.000001,0.000039,0.000016,-2.354623,0.000056,
2116,3088,-3.16624258754901,9.62669926140826,0.0184565094496065,0.005398,-0.000330,0.003152,0.239598,0.021069,314.273501,24.494560,0.999734,0.992909,0.003439,0.397983,-0.000008,0.000010,0.000006,0.000013,-0.000010,72.352147,0.000013,
2146,3133,-2.52285305346678,10.6032560752351,0.0323401965938501,0.005118,-0.000747,0.007911,0.211926,0.025717,313.498799,24.564551,0.999557,0.993835,0.003386,0.464307,-0.000009,0.000012,0.000005,0.000013,-0.000010,77.423011,0.000013,
2176,3283,-1.89891346203782,13.8574475785887,0.0158320256074376,0.005108,-0.000651,0.005267,0.219238,0.009842,310.800532,24.828700,0.999727,0.994881,0.002992,0.418452,0.000011,0.000050,0.000024,0.000062,-0.000001,64.408953,0.000071,
2086,2953,-3.79597275033571,6.69613142582016,0.00320381657695634,0.005571,-0.000724,0.006099,0.239108,0.025285,316.491602,24.372410,0.999341,0.992477,0.003637,0.428875,-0.000015,0.000001,0.000006,0.000003,-0.000017,71.268786,0.000018,
2476,2248,4.82314686687961,-8.66931081687122,0.0209398949435808,0.005118,-0.000250,0.002187,0.225846,0.018823,327.563594,22.547553,0.999246,0.982047,0.005235,0.475902,0.000013,-0.000015,-0.000017,0.000021,-0.000023,-24.976289,0.000025,
2206,2083,-1.04141895867265,-12.2822249935323,0.0220105034819085,0.005336,-0.000689,0.004591,0.229759,0.028329,330.243568,23.633856,0.999018,0.978417,0.005648,0.420448,-0.000013,-0.000017,0.000016,0.000001,-0.000031,41.494040,0.000035,
2026,2818,-5.07856000768335,3.7617204501165,-0.0209598381192109,0.005092,-0.000919,0.006631,0.216305,0.016497,318.803010,24.272717,0.999397,0.991646,0.003675,0.467619,-0.000025,0.000016,0.000018,0.000023,-0.000032,68.858003,0.000033,
2401,3043,3.02986767173703,8.6715360836019,0.013539846264905,0.005648,-0.000264,0.003390,0.247470,0.027658,314.454935,25.414061,0.999651,0.991093,0.003764,0.409445,0.000001,0.000010,0.000006,0.000013,-0.000001,64.319336,0.000014,
2416,3133,3.33853731597678,10.6252792731957,0.0225265637293433,0.005318,-0.000717,0.005699,0.223671,0.020637,313.049253,25.638996,0.999858,0.995369,0.002904,0.506965,0.000022,0.000031,0.000007,0.000035,0.000018,61.952972,0.000054,
2251,2308,-0.0996421174333868,-7.35289061297127,0.00678357235915428,0.005279,-0.000129,0.000418,0.240753,0.028235,326.403834,23.767909,0.998734,0.980109,0.005480,0.398725,-0.000007,-0.000005,0.000002,-0.000003,-0.000009,57.159693,0.000013,
2101,2938,-3.46864208176152,6.37164822280927,0.00156581354104901,0.005141,-0.000576,0.005756,0.220069,0.029507,316.628180,24.419968,0.999288,0.990516,0.003990,0.420652,-0.000014,0.000009,0.000015,0.000017,-0.000021,63.612334,0.000023,
2461,2053,4.53641904384239,-12.9466495978553,0.0321964435735254,0.005590,-0.000201,0.000649,0.253022,0.024802,330.797347,22.004530,0.999273,0.980515,0.005455,0.348954,0.000054,-0.000052,0.000031,0.000062,-0.000061,15.196489,0.000071,
2131,3043,-2.8334055257532,8.65147934469283,0.0188447934194187,0.005583,-0.000741,0.005188,0.241707,0.015751,314.946728,24.532320,0.999497,0.992431,0.003557,0.396440,-0.000006,0.000007,0.000006,0.000009,-0.000009,67.701751,0.000010,
2341,2728,1.78178407922987,1.81976890044074,-0.0257444322008382,0.005528,-0.000511,0.004014,0.239901,0.021887,319.234643,24.500871,0.999421,0.988760,0.004110,0.359292,-0.000010,0.000017,0.000008,0.000019,-0.000013,74.021727,0.000020,
2356,2758,2.10195051565272,2.47334509031241,-0.0272658963134518,0.004961,-0.000276,0.003243,0.216532,0.033394,318.710089,24.515815,0.999463,0.989761,0.003874,0.436460,-0.000006,0.000027,0.000004,0.000028,-0.000006,82.311140,0.000029,
2011,2818,-5.40429034430872,3.76079208263237,-0.0240044301198168,0.005104,-0.001128,0.008861,0.210981,0.006484,318.868557,24.224660,0.999183,0.990829,0.003861,0.489595,-0.000020,0.000014,0.000021,0.000024,-0.000030,64.829628,0.000031,
2431,3208,3.65075724330145,12.2542600642606,0.0308960370371665,0.005639,-0.000635,0.005303,0.239684,0.003355,311.925377,26.016889,0.999667,0.989831,0.003876,0.417733,0.000016,0.000037,0.000005,0.000038,0.000015,78.229788,0.000054,
2476,2263,4.82021089686669,-8.33942186717519,0.0161836598452396,0.005344,0.000135,-0.001488,0.250291,0.021590,327.305137,22.668228,0.998966,0.980336,0.005299,0.417249,0.000007,-0.000011,-0.000015,0.000015,-0.000019,-29.113675,0.000020,
2176,3298,-1.90198439347698,14.1828918927134,0.00636210862950293,0.005158,-0.000463,0.003715,0.226430,0.012153,310.482234,24.842832,0.999836,0.996402,0.002544,0.417317,0.000014,0.000064,0.000018,0.000070,0.000009,71.802720,0.000086,
2056,2848,-4.43167809218033,4.4153365522521,-0.0163212759688918,0.005237,-0.000554,0.004144,0.229589,0.020209,318.188433,24.342831,0.999257,0.990486,0.003945,0.422287,-0.000010,0.000016,-0.000002,0.000017,-0.000010,-86.566272,0.000017,
2311,2593,1.15440484482248,-1.12518769589236,-0.0174167743514886,0.005265,-0.000106,0.001211,0.237668,0.029026,321.509709,24.126909,0.999607,0.991084,0.003769,0.441401,-0.000009,-0.000013,0.000006,-0.000004,-0.000017,36.529898,0.000023,
2026,2833,-5.08046539238287,4.08849693795882,-0.0218140684200989,0.005366,-0.000498,0.003965,0.236415,0.027869,318.571950,24.319447,0.999685,0.993811,0.003461,0.422465,-0.000027,0.000030,0.000016,0.000035,-0.000031,75.276662,0.000038,
2221,2173,-0.729376825890316,-10.3091296199845,0.0160827165394721,0.005409,0.000316,-0.002141,0.254907,0.031822,328.734293,23.673720,0.998897,0.983734,0.005166,0.423293,-0.000015,-0.000003,0.000010,0.000003,-0.000020,60.651151,0.000022,
2296,2518,0.840663981892757,-2.76139835605731,-0.0230451517979873,0.005319,-0.000817,0.007187,0.219704,0.029086,322.673838,23.984394,0.999661,0.991163,0.003814,0.447138,-0.000012,-0.000024,0.000010,-0.000007,-0.000029,28.764822,0.000038,
2071,2833,-4.10313426223474,4.08973589125514,-0.0081661703581517,0.005502,-0.000869,0.005639,0.237243,0.011035,318.424719,24.401285,0.999428,0.991647,0.003714,0.378573,-0.000004,0.000015,0.000000,0.000015,-0.000004,-88.847376,0.000016,
2491,2233,5.15278575441525,-8.99541605735234,0.00707804124630229,0.005133,-0.000490,0.003065,0.222930,0.018880,327.727530,22.520051,0.999058,0.980202,0.005710,0.373773,0.000015,-0.000034,-0.000019,0.000021,-0.000040,-18.615534,0.000040,
2161,3238,-2.21478739978869,12.8799785118783,0.0381328740606364,0.005122,-0.000678,0.004585,0.222090,0.007081,311.781890,24.717950,0.999687,0.994384,0.003101,0.416087,0.000000,0.000026,0.000001,0.000026,0.000000,88.650481,0.000030,
2506,2458,5.43332182861053,-4.06998706427015,-0.000112832973343302,0.005404,-0.000532,0.005477,0.226223,0.029882,324.068333,23.342308,0.999239,0.985914,0.004644,0.436037,0.000051,0.000003,0.000005,0.000052,0.000002,5.257043,0.000061,
2041,2818,-4.75280005016306,3.76268743012626,-0.0178359134200718,0.005152,-0.000683,0.005926,0.220839,0.032682,318.741606,24.318528,0.999269,0.990297,0.003929,0.454158,-0.000016,0.000015,0.000009,0.000018,-0.000018,75.547660,0.000021,
2086,2968,-3.79846829853251,7.02158460595977,0.00592203487525467,0.005198,-0.000566,0.004356,0.227017,0.026620,316.258117,24.370886,0.999350,0.991827,0.003684,0.430076,-0.000014,0.000003,0.000004,0.000004,-0.000015,77.395235,0.000015,
2386,2923,2.72471429954033,6.0640647876797,-0.0096704023076768,0.005413,-0.000562,0.005586,0.228701,0.030081,316.191019,25.013140,0.999248,0.989848,0.004133,0.423139,-0.000015,-0.000001,0.000001,-0.000001,-0.000015,86.801054,0.000019,
2116,3103,-3.1677914906553,9.95150704755616,0.0281292627848302,0.005764,-0.000398,0.004244,0.253238,0.024174,314.123208,24.509795,0.999869,0.995650,0.002893,0.388261,-0.000008,0.000010,0.000009,0.000013,-0.000012,68.295901,0.000015,
2326,2668,1.46646625728998,0.511823519008203,-0.0217226074697123,0.005415,-0.000890,0.007140,0.223891,0.020132,320.232558,24.385234,0.999671,0.991004,0.003858,0.331594,-0.000010,0.000017,0.000005,0.000017,-0.000011,80.639261,0.000018,
2266,2413,0.208103335128612,-5.05731143667805,-0.000815952189782365,0.005327,-0.000682,0.001549,0.239117,-0.004200,324.617597,23.862119,0.999131,0.986771,0.004623,0.404354,-0.000017,0.000008,-0.000001,0.000008,-0.000018,-86.793703,0.000018,
2461,2068,4.53361615643962,-12.6186600610014,0.039718112736125,0.005366,-0.000442,0.002674,0.235113,0.007185,330.600737,22.033802,0.999194,0.980695,0.005486,0.359560,0.000047,-0.000042,0.000023,0.000053,-0.000048,13.595952,0.000058,
2416,3148,3.33630431378316,10.9507712604994,0.03368347486429,0.005290,-0.000717,0.007562,0.215537,0.016976,312.888712,25.747614,0.999789,0.994469,0.003029,0.441181,0.000021,0.000030,0.000008,0.000035,0.000016,59.333295,0.000052,
2146,3148,-2.52564958514923,10.9291590714373,0.0280223984908616,0.005199,-0.000382,0.008965,0.212648,0.046314,313.217836,24.587774,0.999559,0.993023,0.003465,0.468461,-0.000005,0.000008,0.000004,0.000009,-0.000006,75.230304,0.000009,
2206,2098,-1.04398039235062,-11.9534029596342,0.0221631829298303,0.005368,-0.001042,0.005533,0.228176,0.003896,330.002325,23.672440,0.999125,0.981377,0.005348,0.377364,-0.000012,-0.000005,0.000015,0.000007,-0.000024,51.891747,0.000025,
2491,2248,5.14940070954497,-8.66766505296674,0.00937601031898794,0.004997,-0.000924,0.007282,0.200412,0.015907,327.481861,22.519090,0.999034,0.980709,0.005522,0.433163,0.000010,-0.000021,-0.000010,0.000013,-0.000024,-17.050069,0.000024,
2191,1993,-1.3529578788684,-14.2571126122972,0.0325265919196909,0.005237,-0.000385,0.003120,0.230010,0.005670,331.817538,23.705414,0.999520,0.984465,0.004981,0.310140,0.000007,-0.000094,0.000018,0.000010,-0.000097,9.851324,0.000107,
2341,2743,1.77944525954019,2.14478606964684,-0.0175921763660654,0.005474,-0.000848,0.005267,0.232952,0.014747,319.052518,24.455514,0.999572,0.990250,0.003866,0.434206,-0.000009,0.000021,0.000008,0.000023,-0.000011,75.450765,0.000023,
2011,2833,-5.40534576228129,4.08772126534923,-0.0121323167418268,0.005383,-0.000359,0.005032,0.234483,0.035986,318.746677,24.363036,0.999694,0.994233,0.003416,0.368459,-0.000024,0.000032,0.000018,0.000037,-0.000030,73.338532,0.000039,
2236,2248,-0.416385823504879,-8.66599739032023,0.00818499024717312,0.005285,-0.000438,0.004832,0.226606,0.017949,327.398597,23.733466,0.998794,0.981436,0.005411,0.389023,-0.000012,0.000008,0.000007,0.000010,-0.000014,71.706821,0.000015,
2026,2848,-5.08390725863879,4.41319359706812,-0.0391089541330416,0.004904,-0.000167,-0.001697,0.230709,-0.002073,318.179489,24.098251,0.999696,0.995071,0.003246,0.604205,-0.000028,0.000030,0.000013,0.000033,-0.000030,77.817271,0.000037,
2371,2878,2.40713249816003,5.08489400076277,-0.00945716763499149,0.005543,-0.000786,0.006898,0.230020,0.000100,316.920747,24.930986,0.999537,0.993002,0.003568,0.321985,-0.000021,0.000011,-0.000005,0.000012,-0.000022,-81.586081,0.000022,
2131,3058,-2.83587244074944,8.97705287177854,0.018740237427096,0.005378,-0.000257,0.001632,0.243039,0.013654,314.702409,24.550205,0.999429,0.992346,0.003666,0.381214,-0.000006,0.000007,0.000005,0.000009,-0.000008,70.482508,0.000010,
2056,2863,-4.43347642874057,4.740926028771,-0.0102775978829754,0.005256,-0.000163,0.001709,0.237466,0.024013,318.003072,24.348310,0.999296,0.991040,0.003882,0.414995,-0.000010,0.000009,-0.000002,0.000009,-0.000010,-84.583556,0.000011,
2221,2188,-0.732084479450275,-9.98026095494695,0.0165317686876278,0.005616,-0.000306,0.003122,0.247420,0.015345,328.488960,23.744495,0.998795,0.981987,0.005353,0.357479,-0.000015,0.000007,0.000010,0.000010,-0.000019,69.262797,0.000019,
2476,2278,4.81599997271645,-8.0091101746854,0.00937599239864539,0.005108,-0.000236,0.002480,0.224329,0.028395,326.978737,22.808880,0.999408,0.980735,0.005189,0.342763,0.000001,-0.000015,-0.000008,0.000005,-0.000018,-23.030764,0.000019,
2431,3223,3.64749052838562,12.5799971869752,0.0315057601581543,0.005223,-0.000559,0.004392,0.223966,0.003241,311.668296,26.099254,0.999548,0.990844,0.003809,0.383643,0.000012,0.000033,0.000004,0.000034,0.000012,79.268159,0.000048,
2041,2833,-4.75486895433432,4.08862779878916,-0.0128012257829937,0.005238,-0.000642,0.008393,0.217995,0.041817,318.537169,24.335298,0.998945,0.988443,0.004265,0.438522,-0.000014,0.000026,0.000006,0.000027,-0.000015,81.446569,0.000027,
2401,3058,3.02686492009852,8.99745466612734,0.0149016466477292,0.005680,-0.000463,0.006142,0.238907,0.023490,314.212206,25.480274,0.999664,0.992226,0.003631,0.383666,0.000004,0.000013,0.000007,0.000017,0.000000,60.267526,0.000020,
2086,2983,-3.80120087293947,7.34661866745366,0.00736040286369644,0.004961,-0.001056,0.007215,0.207645,0.003403,316.006974,24.350312,0.999431,0.992911,0.003515,0.425949,-0.000015,0.000001,0.000008,0.000005,-0.000018,68.349874,0.000019,
2071,2848,-4.10621429731654,4.41701688100178,-0.0191143909885909,0.005400,-0.000495,0.004498,0.235956,0.032368,318.087802,24.413734,0.999609,0.993583,0.003368,0.383980,-0.000008,0.000012,-0.000001,0.000012,-0.000008,-86.752356,0.000012,
2281,2458,0.526118868074885,-4.07316671447298,-0.0033175807045609,0.005190,-0.000680,0.007135,0.214189,0.042770,323.822017,23.922403,0.999728,0.990448,0.004059,0.434854,-0.000007,-0.000019,0.000005,-0.000006,-0.000021,19.820371,0.000028,
2161,3253,-2.21807437696214,13.2054926208265,0.0261633986244192,0.005244,-0.000547,0.005352,0.225526,0.026694,311.439157,24.692382,0.999699,0.994210,0.003133,0.470208,0.000004,0.000032,0.000005,0.000033,0.000003,80.475704,0.000040,
2506,2473,5.42968700571933,-3.74170403592819,-0.00361925396617835,0.005299,-0.001056,0.006809,0.216060,0.016107,323.785138,23.421490,0.999498,0.985089,0.004514,0.405623,0.000037,-0.000023,-0.000005,0.000038,-0.000023,-4.389470,0.000038,
2251,2323,-0.102681054624146,-7.02450813944844,0.000669215511265975,0.005493,-0.000804,0.002848,0.242438,0.000165,326.112555,23.788475,0.998668,0.982529,0.005342,0.375616,-0.000007,-0.000005,0.000003,-0.000003,-0.000009,50.787399,0.000013,
2416,3163,3.33344335117814,11.2764632979523,0.0331769510427762,0.005303,-0.000516,0.006109,0.221544,0.026351,312.644370,25.793997,0.999747,0.993859,0.003140,0.450756,0.000016,0.000033,0.000008,0.000036,0.000013,68.223568,0.000050,
2461,2083,4.52963274802804,-12.2880427693559,0.0322083605182115,0.005056,-0.000367,0.002757,0.220681,0.026258,330.281174,22.104914,0.999182,0.979216,0.005679,0.365844,0.000039,-0.000033,0.000021,0.000045,-0.000039,15.223203,0.000049,
2116,3118,-3.1706116139858,10.2764397973528,0.0277364478429831,0.005465,-0.000416,0.004647,0.238345,0.031160,313.860288,24.472883,0.999822,0.995746,0.002839,0.434412,-0.000007,0.000014,0.000008,0.000016,-0.000010,71.783682,0.000016,
2311,2608,1.15171645978174,-0.798267875453845,-0.0164916798455579,0.005441,-0.000403,0.003529,0.237784,0.033836,321.274131,24.144981,0.999624,0.990933,0.003752,0.461007,-0.000009,-0.000016,0.000007,-0.000005,-0.000021,32.396760,0.000027,
2101,2953,-3.4711133015307,6.69752015258037,-0.0012038266311265,0.005414,-0.000776,0.007926,0.226211,0.024864,316.366940,24.421027,0.999458,0.991399,0.003720,0.415881,-0.000013,0.000007,0.000014,0.000014,-0.000020,62.920330,0.000021,
2326,2683,1.46347973690679,0.838081836231808,-0.0239089929963825,0.005365,-0.000773,0.006971,0.222240,0.021955,319.969154,24.343380,0.999775,0.991245,0.003819,0.410477,-0.000011,0.000028,0.000002,0.000028,-0.000011,87.444757,0.000028,
2296,2533,0.837498715858739,-2.43473380724079,-0.0321629870038578,0.005311,-0.000630,0.003945,0.230340,0.007081,322.365868,23.892828,0.999722,0.993316,0.003477,0.547931,-0.000013,-0.000026,0.000006,-0.000010,-0.000028,22.028413,0.000040,
2191,2008,-1.35578898575882,-13.9287679687535,0.0294689005144164,0.005251,-0.001120,0.005165,0.224036,0.002753,331.546139,23.608892,0.999361,0.984216,0.005049,0.422105,-0.000009,-0.000073,0.000025,-0.000001,-0.000082,18.767401,0.000095,
2206,2113,-1.04659582864648,-11.6250683094062,0.0218235711184889,0.005224,-0.001097,0.004278,0.225530,-0.003428,329.756043,23.649557,0.998908,0.982268,0.005175,0.412631,-0.000009,0.000002,0.000012,0.000009,-0.000017,57.520800,0.000017,
2356,2773,2.0998312526635,2.8000100640472,-0.020472012553796,0.005191,-0.000191,0.003604,0.225906,0.040992,318.531842,24.604590,0.999505,0.990380,0.003759,0.394034,-0.000006,0.000026,0.000003,0.000027,-0.000006,84.880515,0.000028,
2011,2848,-5.40812173276065,4.41224034791325,-0.0141110556219814,0.005020,-0.000672,0.005660,0.215952,0.010258,318.469141,24.234651,0.999733,0.995081,0.003264,0.458902,-0.000024,0.000032,0.000016,0.000037,-0.000028,74.809480,0.000038,
2026,2863,-5.08487986953471,4.74031569617929,-0.0185771759291242,0.005550,-0.000628,0.007510,0.235128,0.031506,318.110471,24.322813,0.999224,0.991832,0.004015,0.402617,-0.000027,0.000019,0.000014,0.000023,-0.000030,74.485934,0.000032,
2056,2878,-4.43590470341774,5.06640067433818,-0.00937135500635122,0.005252,-0.000543,0.003938,0.230891,0.014265,317.760590,24.322613,0.999190,0.989809,0.004157,0.425150,-0.000007,0.000026,-0.000003,0.000027,-0.000008,-85.053799,0.000027,
2431,3238,3.6434969820642,12.9057104727734,0.0254397819396104,0.004989,-0.000460,0.008063,0.199693,0.018356,311.346516,26.130251,0.999499,0.992021,0.003680,0.416188,0.000010,0.000035,0.000003,0.000035,0.000010,82.931597,0.000047,
2266,2428,0.205143974393533,-4.72855851475165,-0.00434497078003915,0.005387,-0.000328,0.002791,0.237936,0.009972,324.343841,23.937777,0.999311,0.987656,0.004438,0.370071,-0.000010,-0.000010,-0.000003,-0.000007,-0.000013,-48.164057,0.000020,
2476,2293,4.81263371738047,-7.68296880663123,0.0122190125837847,0.004779,-0.000925,0.005195,0.198715,0.001176,326.735264,22.705160,0.999495,0.981407,0.005135,0.477914,0.000001,-0.000002,-0.000015,0.000014,-0.000015,-42.437561,0.000017,
2386,2938,2.72175233840595,6.38982352687498,-0.00652593368249654,0.005199,-0.000792,0.006829,0.214266,0.009596,315.958156,25.062666,0.999297,0.989575,0.004116,0.395716,-0.000014,0.000004,-0.000002,0.000004,-0.000014,-83.164007,0.000015,
2161,3268,-2.22078162939313,13.5303885373085,0.0238769423045824,0.005299,-0.000691,0.006109,0.225676,0.016888,311.174525,24.697842,0.999688,0.994182,0.003191,0.463494,0.000009,0.000037,0.000008,0.000039,0.000006,75.334014,0.000049,
2461,2098,4.52629471986047,-11.9578128801102,0.0281641456206785,0.005230,-0.000722,0.004322,0.222650,0.009727,330.007084,22.220675,0.999544,0.980279,0.005457,0.291003,0.000034,-0.000024,0.000013,0.000037,-0.000026,12.445568,0.000038,
2086,2998,-3.80310032394416,7.6724028472,0.0101765397594704,0.005141,-0.000967,0.004798,0.222934,-0.006668,315.801287,24.398742,0.999573,0.993137,0.003334,0.365548,-0.000018,0.000009,0.000006,0.000010,-0.000019,78.500259,0.000019,
2236,2263,-0.418810161458065,-8.33762267975859,0.0119961309244445,0.005213,-0.000562,0.005020,0.222674,0.036106,327.184324,23.785642,0.999126,0.982213,0.005333,0.378455,-0.000009,-0.000007,0.000003,-0.000005,-0.000012,53.255776,0.000017,
2506,2488,5.42681163091896,-3.41389529120825,-0.00490790915858952,0.005424,-0.000632,0.004228,0.231948,0.019004,323.546650,23.466087,0.999597,0.985303,0.004518,0.426289,0.000037,-0.000030,-0.000011,0.000039,-0.000032,-9.372927,0.000041,
2131,3073,-2.83816872024864,9.30195855846526,0.0235780624844892,0.005512,-0.000470,0.005574,0.237374,0.017055,314.492604,24.536906,0.999698,0.994246,0.003303,0.402538,-0.000008,0.000010,0.000006,0.000011,-0.000010,74.152392,0.000012,
2146,3163,-2.52700513240958,11.2538160602906,0.0374015117899944,0.005595,-0.000508,0.006662,0.237849,0.036807,313.076417,24.612751,0.999597,0.992007,0.003575,0.440652,-0.000005,0.000018,0.000002,0.000018,-0.000005,84.576364,0.000018,
2491,2263,5.14706135719063,-8.338893170745,0.0139364443287491,0.005361,-0.000907,0.007174,0.217542,0.019749,327.294120,22.632457,0.998759,0.979592,0.005382,0.384221,0.000000,-0.000020,-0.000007,0.000002,-0.000022,-16.894066,0.000024,
2221,2203,-0.734941757557436,-9.65137167563148,0.00985125842015577,0.005571,0.000115,-0.000120,0.255883,0.028206,328.200183,23.718515,0.999019,0.983751,0.005076,0.418301,-0.000015,0.000010,0.000007,0.000012,-0.000017,74.599197,0.000017,
2041,2848,-4.75726189444818,4.41475710336258,-0.0232159749468792,0.005484,-0.000465,0.003341,0.243417,0.014242,318.232180,24.294223,0.999206,0.990134,0.004053,0.444471,-0.000016,0.000024,0.000003,0.000024,-0.000016,85.973564,0.000025,
2431,3253,3.64013317224122,13.231917204142,0.0153428298502831,0.005411,-0.000571,0.007989,0.219430,0.025858,311.034703,26.196402,0.999538,0.992373,0.003504,0.406332,0.000007,0.000048,0.000004,0.000049,0.000006,85.183644,0.000060,
2026,2878,-5.08664367150049,5.0657390976175,-0.0145121478342389,0.005788,-0.000589,0.006743,0.248267,0.035297,317.913909,24.301894,0.998804,0.987649,0.004565,0.417116,-0.000021,0.000035,0.000009,0.000037,-0.000023,80.883920,0.000037,
2341,2758,1.77666844924393,2.47150315749811,-0.0147863182731385,0.005336,-0.000575,0.005732,0.225142,0.041259,318.823793,24.493900,0.999628,0.990425,0.003869,0.459161,-0.000007,0.000024,0.000010,0.000027,-0.000010,73.628648,0.000027,
2401,3073,3.02361283918077,9.32311382851347,0.0151785311055619,0.005346,-0.000416,0.006353,0.222827,0.027674,313.952875,25.511143,0.999589,0.991339,0.003774,0.401574,0.000009,0.000021,0.000006,0.000024,0.000006,66.958306,0.000032,
2356,2788,2.09727952823586,3.12621524305641,-0.0188723789002552,0.005202,0.000030,0.001581,0.233662,0.052637,318.308749,24.610323,0.999699,0.993191,0.003457,0.438727,-0.000004,0.000028,0.000001,0.000028,-0.000005,87.376637,0.000030,
2191,2023,-1.35787391345243,-13.5982219160074,0.0249231161834018,0.005614,-0.000303,-0.000248,0.257853,0.016223,331.300736,23.685470,0.998987,0.983589,0.005160,0.377204,-0.000014,-0.000057,0.000026,-0.000002,-0.000069,25.402481,0.000081,
2071,2863,-4.10797388419487,4.74180577147217,-0.0151197636112101,0.005560,-0.000438,0.001391,0.252247,0.022997,317.894176,24.344173,0.999391,0.991330,0.003843,0.440971,-0.000008,0.000006,-0.000003,0.000007,-0.000008,-79.866978,0.000009,
2101,2968,-3.47304419267975,7.02285539996402,0.00529374446591646,0.005276,-0.000601,0.004474,0.230038,0.022550,316.180863,24.438977,0.999588,0.991230,0.003623,0.396045,-0.000013,0.000008,0.000011,0.000013,-0.000018,65.892351,0.000018,
2476,2308,4.81038562573653,-7.35278915656816,0.0168170437532922,0.005178,-0.000666,0.004604,0.219337,0.015797,326.550331,22.951168,0.999122,0.977581,0.005819,0.305053,0.000004,0.000014,-0.000018,0.000028,-0.000010,-52.541935,0.000028,
2011,2863,-5.40991658606881,4.73900759258754,-0.015857231465759,0.005566,-0.000422,0.005142,0.242571,0.008719,318.237060,24.294720,0.999364,0.991458,0.004003,0.385093,-0.000021,0.000018,0.000019,0.000026,-0.000029,67.916817,0.000032,
2326,2698,1.46083443456,1.16362021631087,-0.018142898787687,0.005125,-0.000745,0.007722,0.208615,0.024583,319.760397,24.304483,0.999644,0.990519,0.003910,0.486610,-0.000010,0.000020,0.000007,0.000021,-0.000012,77.651886,0.000021,
2371,2893,2.4043531623443,5.41022284211471,-0.0101586530940381,0.005280,-0.000348,0.001709,0.236618,0.012105,316.677109,24.868215,0.999455,0.991641,0.003761,0.437710,-0.000019,0.000010,-0.000002,0.000010,-0.000019,-86.060782,0.000019,
2116,3133,-3.17348932985084,10.6020655636246,0.0254868206895935,0.005415,-0.000795,0.007852,0.226324,0.005860,313.584482,24.524501,0.999870,0.997099,0.002566,0.359709,-0.000006,0.000016,0.000005,0.000017,-0.000007,76.903513,0.000018,
2281,2473,0.523256721972945,-3.74582218864733,-0.00759112616782431,0.005270,-0.000782,0.006187,0.221005,0.029062,323.550602,23.905978,0.999507,0.988764,0.004305,0.467029,-0.000002,-0.000022,0.000012,0.000004,-0.000028,25.769103,0.000031,
2506,2503,5.42336958634487,-3.08561982205872,-0.0066249014424784,0.005353,-0.000812,0.005510,0.223684,0.010178,323.280083,23.566483,0.999448,0.985744,0.004749,0.379269,0.000039,-0.000031,-0.000018,0.000044,-0.000036,-13.538072,0.000046,
2056,2893,-4.43843072998588,5.39244592962854,-0.00467768889512854,0.005012,-0.000760,0.007640,0.209371,0.029535,317.534303,24.356081,0.999443,0.992456,0.003757,0.401034,-0.000011,0.000022,-0.000008,0.000024,-0.000013,-76.445603,0.000024,
2416,3178,3.3305322563459,11.6024510980024,0.0299797721109485,0.005351,0.000037,0.003045,0.235209,0.035067,312.384917,25.856300,0.999662,0.992702,0.003358,0.443699,0.000017,0.000041,0.000008,0.000044,0.000014,72.479973,0.000060,
2206,2128,-1.04918253893189,-11.2956963794059,0.0214014892105752,0.005156,-0.000573,0.003551,0.224927,0.004759,329.510397,23.710313,0.999028,0.981413,0.005247,0.379862,-0.000009,-0.000003,0.000011,0.000005,-0.000017,53.046638,0.000017,
2161,3283,-2.22328764838949,13.8555017044374,0.0257796574774147,0.005248,-0.000443,0.006444,0.222415,0.029626,310.941216,24.727658,0.999734,0.994774,0.002998,0.454901,0.000015,0.000050,0.000014,0.000055,0.000010,70.561642,0.000070,
2296,2548,0.835664393220355,-2.10741960285412,-0.0148587373096802,0.005289,-0.000895,0.008745,0.213071,0.026263,322.249404,24.060056,0.999409,0.988671,0.004274,0.430489,-0.000012,-0.000022,0.000010,-0.000006,-0.000028,31.663272,0.000036,
2266,2443,0.202311113802264,-4.40034128702683,-0.00336278045415384,0.005039,-0.000408,0.001110,0.227477,-0.010821,324.098696,24.046953,0.999609,0.988838,0.004262,0.267169,-0.000011,-0.000017,-0.000003,-0.000010,-0.000018,-22.149904,0.000029,
2236,2278,-0.421772140620025,-8.00929965315326,0.00556357262507845,0.005398,-0.000974,0.006206,0.227205,0.007147,326.893624,23.781157,0.999169,0.983505,0.005036,0.377507,-0.000004,-0.000004,-0.000002,-0.000002,-0.000006,-45.556064,0.000009,
2041,2863,-4.75908268686593,4.74016658101484,-0.013188930098579,0.005485,-0.000627,0.005240,0.238136,0.013524,318.067057,24.317304,0.999143,0.989874,0.004296,0.412716,-0.000016,0.000015,0.000003,0.000015,-0.000016,85.264063,0.000018,
2251,2338,-0.106092173091373,-6.69622350459511,0.000219060642223212,0.004828,-0.000814,0.003870,0.208574,0.004911,325.832643,23.829143,0.998878,0.983683,0.005221,0.365340,-0.000011,0.000000,0.000001,0.000000,-0.000011,84.386695,0.000013,
2461,2113,4.52260868007982,-11.6285502824619,0.0213888347909119,0.005366,-0.001041,0.007060,0.218473,0.016992,329.704463,22.200652,0.999437,0.977726,0.005759,0.376200,0.000031,-0.000023,0.000012,0.000033,-0.000026,11.766667,0.000035,
2086,3013,-3.80520830288828,7.99757261022982,0.00803972393589447,0.005482,-0.000486,0.003312,0.243128,0.009748,315.559220,24.334835,0.999722,0.993905,0.003042,0.444278,-0.000014,0.000018,0.000004,0.000019,-0.000015,82.260103,0.000020,
2026,2893,-5.08906272478414,5.39095398477728,-0.00940360664344553,0.005258,-0.000746,0.005087,0.228312,0.017578,317.693296,24.294606,0.999256,0.992378,0.003649,0.396506,-0.000022,0.000025,0.000000,0.000025,-0.000022,-89.444805,0.000028,
2386,2953,2.71920114330357,6.71594038587358,-0.0059825888930618,0.005419,-0.000494,0.005780,0.228254,0.004631,315.731641,25.115172,0.999246,0.988495,0.004274,0.381073,-0.000012,0.000004,-0.000001,0.000004,-0.000013,-87.420628,0.000013,
2431,3268,3.63653442636771,13.5582814997073,0.00261381664631699,0.005381,-0.000265,0.002607,0.238090,0.019573,310.699623,26.281567,0.999681,0.993380,0.003312,0.363347,0.000005,0.000040,0.000008,0.000042,0.000004,78.129940,0.000050,
2191,2038,-1.36132995829418,-13.2674670942244,0.0221240708362984,0.005273,-0.000686,0.005692,0.223560,0.037309,331.001631,23.799539,0.999027,0.985421,0.004921,0.302723,-0.000012,-0.000037,0.000025,0.000004,-0.000053,31.513300,0.000059,
2491,2278,5.14427005193118,-8.00992889440055,0.0149247797979797,0.005384,-0.000738,0.004805,0.227725,0.030833,327.069478,22.724618,0.999181,0.981439,0.005090,0.364363,-0.000007,-0.000029,0.000000,-0.000007,-0.000029,0.496455,0.000038,
2311,2623,1.14947620373636,-0.471859617631928,-0.0109839464862489,0.005537,-0.000471,0.003387,0.242682,0.026794,321.081762,24.171509,0.999499,0.989265,0.003967,0.460184,-0.000011,-0.000002,0.000005,0.000000,-0.000013,64.351580,0.000015,
2101,2983,-3.47554609687025,7.34795034500711,0.00818080125833376,0.005195,-0.000875,0.007217,0.218256,0.030171,315.949118,24.403544,0.999588,0.992835,0.003413,0.439483,-0.000012,0.000005,0.000015,0.000014,-0.000021,59.269798,0.000022,
2506,2518,5.41971367759252,-2.75814138685678,-0.00928252616114378,0.005138,-0.001010,0.006759,0.208965,0.008955,322.999494,23.582817,0.999329,0.986377,0.004792,0.424188,0.000039,-0.000011,-0.000013,0.000042,-0.000014,-13.538790,0.000043,
2161,3298,-2.22592771996166,14.1804652077851,0.0235361233921481,0.005324,-0.000265,0.006513,0.225691,0.019945,310.679849,24.747154,0.999817,0.996344,0.002586,0.434201,0.000024,0.000066,0.000009,0.000068,0.000022,77.954353,0.000094,
2221,2218,-0.737978930532133,-9.32277628518715,0.012831970981324,0.005059,-0.000577,0.002056,0.225224,0.018907,327.952661,23.794497,0.998980,0.982862,0.005089,0.354382,-0.000014,0.000014,0.000003,0.000014,-0.000015,83.588423,0.000017,
2146,3178,-2.52937028837248,11.5785326551986,0.0423705212652408,0.005524,-0.000521,0.008155,0.230060,0.034440,312.865138,24.612605,0.999498,0.991009,0.003657,0.445074,-0.000003,0.000023,-0.000001,0.000023,-0.000004,-86.790369,0.000025,
2011,2878,-5.41178754585891,5.06500352974311,-0.0139457332780921,0.005931,-0.000381,0.006502,0.255823,0.039891,318.022272,24.282807,0.999145,0.990094,0.004111,0.415786,-0.000014,0.000032,0.000010,0.000034,-0.000017,77.824844,0.000034,
2356,2803,2.09513142921258,3.45158141300665,-0.0102211999820838,0.005392,-0.000386,0.003683,0.234775,0.027959,318.138435,24.633569,0.999811,0.994702,0.003300,0.429557,-0.000006,0.000024,0.000001,0.000024,-0.000006,88.797247,0.000025,
2071,2878,-4.11081411160891,5.06760457617136,-0.0147045693121868,0.005222,-0.000651,0.003960,0.229252,0.008437,317.631093,24.350176,0.999211,0.989414,0.004259,0.416773,-0.000005,0.000022,-0.000004,0.000023,-0.000005,-82.343073,0.000024,
2131,3088,-2.8400268999587,9.62670481701497,0.0300607245950459,0.005606,-0.000401,0.003818,0.247038,0.024081,314.311780,24.519014,0.999857,0.995463,0.003041,0.432219,-0.000010,0.000008,0.000004,0.000009,-0.000011,77.645786,0.000012,
2416,3193,3.32817892604727,11.9278476216046,0.0341044939772246,0.005587,0.000006,0.002676,0.247474,0.038700,312.185665,25.916315,0.999621,0.991773,0.003452,0.433892,0.000015,0.000044,0.000010,0.000047,0.000012,72.397605,0.000062,
2476,2323,4.80680199914619,-7.0248332915212,0.0109009757081822,0.005334,-0.000970,0.006884,0.217737,0.017120,326.256773,22.907341,0.998967,0.979616,0.005557,0.409012,-0.000002,0.000017,-0.000010,0.000021,-0.000007,-66.344378,0.000022,
2371,2908,2.4012777911309,5.73678890485473,-0.0112993124564014,0.005426,-0.000425,0.005029,0.231511,0.027846,316.417352,24.916811,0.999336,0.990029,0.004008,0.445521,-0.000017,0.000005,-0.000001,0.000005,-0.000017,-88.236047,0.000018,
2431,3283,3.63324732106392,13.8833580387819,0.000539324932958607,0.005274,-0.000113,0.003110,0.231389,0.030311,310.428970,26.294312,0.999786,0.993862,0.003151,0.409798,0.000006,0.000028,0.000013,0.000034,0.000000,64.950951,0.000039,
2401,3088,3.0213217396767,9.64874914691014,0.0187009389409809,0.005584,-0.000410,0.004888,0.239130,0.029684,313.753077,25.566439,0.999496,0.990855,0.003847,0.392901,0.000011,0.000024,0.000002,0.000024,0.000011,79.328633,0.000035,
2296,2563,0.833323371586758,-1.78064026918802,-0.00536466281909043,0.005026,-0.001094,0.009379,0.198751,0.007970,322.071251,24.149314,0.999161,0.986528,0.004811,0.353406,-0.000015,-0.000021,0.000003,-0.000014,-0.000022,24.459995,0.000036,
2206,2143,-1.05177090655456,-10.9657071296897,0.0220997454261465,0.005253,-0.000503,0.006211,0.221014,0.025033,329.270260,23.832792,0.999312,0.983247,0.005027,0.297344,-0.000016,-0.000013,0.000011,-0.000004,-0.000026,49.138300,0.000032,
2026,2908,-5.09075705416984,5.71598549622301,0.000703482719075055,0.005196,-0.000591,0.004144,0.228185,0.035709,317.533844,24.274159,0.999360,0.992136,0.003616,0.424662,-0.000013,0.000006,-0.000001,0.000006,-0.000013,-86.046643,0.000013,
2056,2908,-4.44032012931682,5.71808732385757,-0.0054134637555876,0.005425,-0.000456,0.006210,0.232568,0.033690,317.307413,24.327975,0.999474,0.992186,0.003665,0.427562,-0.000010,0.000006,-0.000008,0.000009,-0.000013,-66.585847,0.000014,
2281,2488,0.519723256424776,-3.41949871281487,-0.0103176570682422,0.004958,-0.001281,0.010676,0.191565,0.028218,323.256237,23.802941,0.999657,0.990847,0.004024,0.598123,-0.000004,-0.000019,0.000010,0.000001,-0.000024,27.158928,0.000027,
2341,2773,1.77445257531923,2.79802555845636,-0.00754928645358177,0.005566,-0.000644,0.008076,0.227537,0.043317,318.642403,24.577498,0.999617,0.992184,0.003599,0.414026,-0.000006,0.000024,0.000010,0.000027,-0.000009,73.705370,0.000028,
2236,2293,-0.42489501866099,-7.68065838101507,-0.00205452919158233,0.005153,-0.000341,0.002455,0.228367,0.013858,326.589284,23.764328,0.999250,0.985024,0.004688,0.424787,-0.000006,-0.000001,0.000001,-0.000001,-0.000006,76.816925,0.000008,
2326,2713,1.45758998663142,1.49271442026505,-0.0243666605448425,0.004844,-0.000252,0.003663,0.209955,0.036660,319.464614,24.489285,0.999281,0.986604,0.004443,0.348470,-0.000010,0.000019,0.000008,0.000021,-0.000013,75.169948,0.000022,
2461,2128,4.5199876925108,-11.2996294281966,0.0248212615111925,0.005436,-0.000976,0.006278,0.224648,0.013642,329.497138,22.276718,0.999438,0.975614,0.005980,0.354148,0.000033,-0.000027,0.000013,0.000036,-0.000029,11.484689,0.000038,
2266,2458,0.19875809388925,-4.07128503520144,-0.0158003979429395,0.005322,-0.000654,0.004666,0.228730,0.024412,323.752822,24.057295,0.999716,0.990514,0.004049,0.319510,-0.000011,-0.000014,0.000004,-0.000008,-0.000017,34.478324,0.000026,
2191,2053,-1.3640943984565,-12.9386858903213,0.0168686490051755,0.005270,-0.000476,0.004288,0.227899,0.039508,330.721757,23.731026,0.999074,0.982487,0.005190,0.391496,-0.000012,-0.000035,0.000025,0.000004,-0.000051,32.409004,0.000056,
2116,3148,-3.17598392624274,10.9266910494402,0.0286541812091627,0.005209,-0.000204,0.008174,0.216131,0.040603,313.355794,24.461277,0.999738,0.995078,0.002967,0.460295,-0.000003,0.000013,0.000003,0.000013,-0.000003,79.905216,0.000014,
2491,2293,5.14075903536933,-7.68212434101402,0.0128419185733151,0.005128,-0.000814,0.004745,0.216216,0.012479,326.798189,22.714364,0.999276,0.982421,0.004973,0.417412,-0.000008,-0.000010,-0.000004,-0.000005,-0.000013,-36.980763,0.000019,
2041,2878,-4.76176550952218,5.06662830353596,-0.0167213609921646,0.005415,-0.000779,0.006522,0.231309,0.012257,317.786845,24.341173,0.998812,0.986325,0.004729,0.379805,-0.000011,0.000033,0.000000,0.000033,-0.000011,89.485626,0.000034,
2086,3028,-3.80751881881793,8.32294851060853,0.0120031044917255,0.005455,-0.000490,0.005230,0.236356,0.019377,315.341077,24.341510,0.999530,0.992876,0.003367,0.445443,-0.000010,0.000015,0.000004,0.000016,-0.000011,82.016347,0.000016,
2176,1993,-1.67957828259859,-14.2584160841872,0.0471428725889496,0.005395,-0.001217,0.008147,0.221594,0.010462,331.976372,23.816607,0.999274,0.982126,0.005245,0.308663,0.000017,-0.000088,0.000028,0.000024,-0.000095,14.060522,0.000099,
2101,2998,-3.4780049117395,7.67411573506905,0.00254995031451699,0.005314,-0.000627,0.003855,0.233673,0.020601,315.672859,24.429673,0.999607,0.993282,0.003350,0.404471,-0.000015,0.000011,0.000014,0.000017,-0.000021,66.225269,0.000022,
2026,2923,-5.09298268935079,6.0413673756463,0.0017647461044703,0.005352,-0.000732,0.006581,0.228621,0.031118,317.299464,24.246974,0.999481,0.992524,0.003519,0.437194,-0.000014,-0.000006,0.000003,-0.000005,-0.000015,73.762743,0.000021,
2476,2338,4.80338105260575,-6.69589198153273,0.0102209759645007,0.005039,-0.001102,0.006894,0.204146,0.011101,325.994193,23.018576,0.998633,0.980738,0.005631,0.350431,0.000003,0.000019,-0.000012,0.000025,-0.000004,-61.559396,0.000027,
2251,2353,-0.108059880278514,-6.36899389161068,0.00601965112065272,0.005007,-0.000548,0.002863,0.220194,0.003707,325.650561,23.845247,0.999111,0.985118,0.004961,0.372916,-0.000016,-0.000005,0.000003,-0.000004,-0.000016,73.604702,0.000022,
2431,3298,3.62973290310696,14.208117370741,-0.0063161513447767,0.005311,-0.000269,0.003433,0.231830,0.018699,310.125553,26.278390,0.999749,0.994011,0.003120,0.462547,0.000015,0.000020,0.000018,0.000036,-0.000001,49.058975,0.000042,
2011,2893,-5.41445208327582,5.39007146338427,-0.0109019764055915,0.005304,-0.000706,0.005637,0.229141,0.008757,317.777959,24.260023,0.999346,0.992440,0.003556,0.394978,-0.000014,0.000016,-0.000002,0.000016,-0.000014,-86.469724,0.000018,
2146,3193,-2.5321122038033,11.9036426691301,0.0403101810728685,0.005294,-0.000746,0.005854,0.226363,0.016326,312.598998,24.626350,0.999559,0.992715,0.003366,0.419728,-0.000002,0.000018,-0.000004,0.000019,-0.000003,-78.299458,0.000020,
2506,2533,5.41671922351094,-2.42977283458153,-0.0081118197718979,0.005273,-0.000884,0.008079,0.210091,0.023841,322.766099,23.704074,0.999519,0.988295,0.004372,0.379924,0.000043,-0.000005,0.000004,0.000043,-0.000005,4.573717,0.000047,
2221,2233,-0.740135429049172,-8.99470162747773,0.00993038701574278,0.005457,-0.000089,-0.001050,0.253604,0.004617,327.715457,23.771805,0.998924,0.982875,0.005209,0.384128,-0.000017,0.000015,0.000006,0.000016,-0.000018,79.851486,0.000020,
2131,3103,-2.84261818320717,9.95202365968991,0.0311965446257432,0.005455,-0.000375,0.004142,0.239198,0.037562,314.068475,24.516951,0.999834,0.995870,0.002873,0.452411,-0.000011,0.000007,0.000006,0.000009,-0.000013,72.706847,0.000014,
2311,2638,1.14649470058599,-0.144646705446156,-0.0118698098327741,0.005386,-0.000417,0.003411,0.235689,0.028783,320.823683,24.212789,0.999349,0.988841,0.004017,0.453674,-0.000013,0.000001,0.000007,0.000004,-0.000016,67.343886,0.000017,
2461,2143,4.51625923842814,-10.9691562030276,0.0160363213191204,0.005301,-0.000217,0.004197,0.226614,0.053631,329.182991,22.324884,0.999058,0.975889,0.005924,0.403824,0.000043,-0.000008,0.000012,0.000045,-0.000011,12.155662,0.000048,
2371,2923,2.39836574543007,6.06310199919476,-0.00671237389229873,0.005128,-0.000416,0.006278,0.213418,0.039203,316.192555,24.991753,0.999316,0.989731,0.004049,0.422352,-0.000013,0.000002,-0.000003,0.000002,-0.000014,-80.668772,0.000015,
2386,2968,2.71592593429672,7.04247838931834,-0.00858448869377071,0.005276,-0.000776,0.006109,0.220414,0.002324,315.456663,25.186267,0.999569,0.990705,0.003910,0.350237,-0.000012,0.000011,0.000001,0.000011,-0.000012,88.291255,0.000013,
2056,2923,-4.44215596808994,6.04344398509444,-0.0021662046033839,0.005679,-0.000435,0.005252,0.246972,0.026976,317.105091,24.317221,0.999475,0.992460,0.003612,0.425831,-0.000015,-0.000001,-0.000004,0.000000,-0.000015,-76.048309,0.000018,
2176,2008,-1.68362614496448,-13.9274076199003,0.0275445643578678,0.004993,-0.000961,0.005842,0.210350,0.031842,331.561409,23.749440,0.999159,0.984348,0.005033,0.414346,0.000002,-0.000065,0.000031,0.000014,-0.000077,21.331039,0.000082,
2071,2893,-4.11343547124973,5.39366526153793,-0.0108732296224048,0.004965,-0.000835,0.007665,0.206788,0.021641,317.396643,24.381586,0.999410,0.991858,0.003822,0.394900,-0.000007,0.000020,-0.000007,0.000022,-0.000009,-76.529056,0.000022,
2356,2818,2.09207015957907,3.77755712049458,-0.00805362020759048,0.005211,-0.000727,0.006323,0.217050,0.020274,317.894662,24.649800,0.999696,0.992309,0.003617,0.444330,-0.000012,0.000022,0.000001,0.000022,-0.000012,88.851369,0.000022,
2401,3103,3.01894979200175,9.97367868822352,0.0235163559465263,0.005590,-0.000341,0.002842,0.246871,0.028785,313.555832,25.571210,0.999567,0.992390,0.003529,0.431682,0.000014,0.000029,0.000004,0.000030,0.000014,76.153676,0.000045,
2326,2728,1.45513804034215,1.81875111587095,-0.0249058135319729,0.005166,-0.000320,0.002941,0.227208,0.031589,319.233734,24.461421,0.999476,0.988943,0.004084,0.406167,-0.000013,0.000015,0.000012,0.000019,-0.000017,69.398810,0.000021,
2446,1993,4.21901638435674,-14.262871520583,0.0244509128430082,0.004910,-0.000218,0.001079,0.220302,0.027677,331.633577,21.932209,0.999305,0.976196,0.005805,0.299686,-0.000020,-0.000101,0.000033,-0.000009,-0.000113,19.745448,0.000136,
2101,3013,-3.47990082986897,7.99886486215716,0.0036115166262789,0.005696,-0.000458,0.002494,0.255223,0.003645,315.459189,24.382586,0.999366,0.992086,0.003549,0.435390,-0.000010,0.000019,0.000013,0.000024,-0.000015,69.688187,0.000024,
2296,2578,0.830783520305641,-1.45367257421508,-0.00787997731191581,0.005212,-0.001254,0.006792,0.216022,-0.007142,321.824445,24.151202,0.999366,0.988751,0.004280,0.367468,-0.000012,-0.000005,0.000005,-0.000002,-0.000015,62.118804,0.000019,
2011,2908,-5.41644117535045,5.71554564322203,-0.00535524825028233,0.005099,-0.000539,0.002944,0.227144,0.028553,317.578456,24.245578,0.999261,0.992524,0.003556,0.416931,-0.000006,-0.000002,-0.000003,0.000000,-0.000008,-61.065416,0.000009,
2416,3208,3.32536161434419,12.2530305976352,0.0347322008797732,0.005632,-0.000069,0.002222,0.251160,0.027808,311.948623,25.954174,0.999547,0.990981,0.003719,0.431517,0.000013,0.000036,0.000008,0.000039,0.000011,71.700517,0.000052,
2086,3043,-3.80927496482142,8.64737333754255,0.0232014592501741,0.005363,-0.000624,0.004571,0.234008,0.009385,315.188210,24.331140,0.999625,0.992272,0.003470,0.443973,-0.000009,0.000010,0.000000,0.000010,-0.000009,-88.632073,0.000011,
2491,2308,5.13775053835208,-7.35262637545898,0.0122181363441314,0.005078,-0.000459,0.002462,0.222847,0.021821,326.556120,22.851303,0.998896,0.980568,0.005344,0.350937,-0.000007,0.000013,-0.000009,0.000017,-0.000010,-68.335363,0.000017,
2476,2353,4.80057440471493,-6.36757938840486,0.0100483068801509,0.005365,-0.000851,0.007603,0.216524,0.039041,325.761963,23.048343,0.998738,0.982283,0.005648,0.407315,0.000015,0.000023,-0.000007,0.000027,0.000011,-59.645727,0.000039,
2206,2158,-1.05452052396878,-10.6378228747305,0.0154656946276077,0.005235,-0.000437,0.002454,0.232113,0.016016,328.985487,23.719514,0.999126,0.984611,0.005015,0.421460,-0.000014,-0.000017,0.000006,-0.000009,-0.000022,39.822959,0.000032,
2341,2788,1.77143612402614,3.12448627367777,-0.00915824822271816,0.005394,-0.000521,0.006823,0.224060,0.042627,318.381268,24.593093,0.999626,0.993203,0.003483,0.434605,-0.000004,0.000028,0.000008,0.000029,-0.000006,76.692552,0.000031,
2191,2068,-1.36718106451085,-12.6102136596125,0.0108894618203976,0.005147,-0.000864,0.005076,0.219732,0.001335,330.423650,23.672840,0.999382,0.983933,0.005144,0.429696,-0.000011,-0.000031,0.000026,0.000007,-0.000049,34.161348,0.000053,
2236,2308,-0.427281518351503,-7.35181812388966,-0.00538803951741329,0.005570,-0.000266,0.001819,0.249607,0.029944,326.340301,23.805173,0.998920,0.984286,0.004899,0.423310,-0.000010,-0.000006,0.000003,-0.000004,-0.000012,61.191966,0.000016,
2281,2503,0.517533667087239,-3.08914971548536,-0.0152604899507196,0.005430,-0.000755,0.004941,0.232568,0.023611,323.011577,24.057277,0.999694,0.991756,0.003867,0.368284,-0.000008,-0.000014,0.000009,-0.000002,-0.000020,34.608640,0.000025,
2116,3163,-3.17827222922488,11.2515069706939,0.0342591552144995,0.004909,-0.000383,0.006222,0.208028,0.022793,313.149689,24.485956,0.999573,0.992953,0.003454,0.419877,-0.000002,0.000026,0.000001,0.000026,-0.000002,88.096604,0.000029,
2506,2548,5.41484139493567,-2.10295387744337,0.00469603709086641,0.005200,-0.000651,0.005526,0.216756,0.018943,322.636182,23.810789,0.999785,0.990657,0.003907,0.330016,0.000043,-0.000004,0.000000,0.000043,-0.000004,-0.407451,0.000048,
2041,2893,-4.7634601358031,5.39152883790481,-0.00633112813352454,0.005390,-0.000668,0.006246,0.231023,0.028881,317.629718,24.309577,0.999161,0.991532,0.003849,0.419976,-0.000012,0.000027,-0.000007,0.000028,-0.000014,-79.601274,0.000028,
2146,3208,-2.53434399739364,12.2288588507047,0.0421680897807164,0.005402,-0.000178,0.004856,0.234591,0.043622,312.377086,24.631366,0.999596,0.993807,0.003201,0.448732,0.000001,0.000021,-0.000004,0.000022,0.000000,-77.972285,0.000025,
2266,2473,0.196702742546503,-3.74614008647634,-0.00655804790454795,0.005227,-0.000701,0.004240,0.225774,0.020929,323.585225,23.954413,0.999763,0.991866,0.003842,0.445363,-0.000006,-0.000018,0.000012,0.000002,-0.000025,31.061185,0.000028,
2251,2368,-0.111741320096488,-6.03919080515954,-0.00861711648764185,0.005076,-0.000796,0.003598,0.220921,0.001502,325.286353,23.903877,0.999498,0.988119,0.004580,0.337665,-0.000021,-0.000007,0.000003,-0.000007,-0.000021,80.002631,0.000029,
2056,2938,-4.44442104296021,6.36909653184922,-0.00179948057001411,0.005634,-0.000235,0.003495,0.249936,0.030368,316.867098,24.307093,0.999388,0.991635,0.003698,0.433627,-0.000016,-0.000004,0.000001,-0.000004,-0.000016,84.561576,0.000021,
2446,2008,4.217128481484,-13.9360498653239,0.0365757446270436,0.005179,-0.000544,0.002972,0.225449,0.018798,331.499202,21.878998,0.999270,0.976651,0.005882,0.399359,0.000013,-0.000069,0.000014,0.000016,-0.000071,9.215251,0.000075,
2176,2023,-1.68518062885327,-13.5978492343537,0.0273113284893611,0.005533,-0.000098,0.000049,0.253257,0.056649,331.361282,23.773264,0.998595,0.984486,0.005160,0.430961,-0.000003,-0.000053,0.000029,0.000011,-0.000066,24.534655,0.000071,
2221,2248,-0.742752419940842,-8.66637724105759,0.00254712538247759,0.005984,-0.000139,-0.000277,0.275336,0.016847,327.434088,23.705182,0.998793,0.982689,0.005260,0.484471,-0.000010,0.000007,0.000007,0.000009,-0.000013,70.798081,0.000013,
2491,2323,5.13412100826419,-7.02395780204152,0.0093872772836221,0.005416,-0.001225,0.010013,0.209146,0.036863,326.275614,22.890076,0.998847,0.982159,0.005217,0.388116,-0.000012,0.000020,0.000001,0.000020,-0.000012,88.411606,0.000020,
2026,2938,-5.09562707659198,6.36706526659255,0.00336278551060332,0.005127,-0.000953,0.010130,0.208423,0.027698,317.048804,24.255556,0.999343,0.990446,0.003911,0.414701,-0.000014,-0.000009,0.000012,0.000000,-0.000024,50.857166,0.000027,
2461,2158,4.51365883208372,-10.6402602058664,0.0194518828925538,0.005604,-0.000368,0.005973,0.233805,0.046628,328.976400,22.412803,0.999164,0.974902,0.005851,0.365848,0.000037,-0.000018,-0.000003,0.000037,-0.000018,-2.866340,0.000037,
2011,2923,-5.41827283744607,6.04073432333697,0.000963968809060134,0.005273,-0.000593,0.004738,0.230310,0.031571,317.390674,24.230528,0.999404,0.992600,0.003388,0.422404,-0.000010,-0.000016,0.000001,-0.000009,-0.000017,9.899831,0.000026,
2401,3118,3.01635540758348,10.298724587537,0.0360586382685142,0.005279,-0.000826,0.007294,0.216207,0.016057,313.384786,25.649894,0.999849,0.995498,0.002884,0.384352,0.000017,0.000033,0.000008,0.000036,0.000014,65.913987,0.000052,
2311,2653,1.14339546927779,0.182308360476718,-0.0137522055305226,0.005171,-0.000598,0.003151,0.226627,0.015974,320.555348,24.241614,0.999466,0.989568,0.003967,0.444718,-0.000015,0.000007,0.000009,0.000010,-0.000018,69.813686,0.000018,
2071,2908,-4.11549210324949,5.71914766476839,-0.00837330759833321,0.005190,-0.000724,0.008749,0.214142,0.026553,317.181004,24.362187,0.999530,0.992251,0.003617,0.415687,-0.000007,0.000007,-0.000006,0.000009,-0.000009,-69.324472,0.000010,
2326,2743,1.45267835061546,2.14457408760094,-0.0198074069922427,0.005209,-0.000639,0.004250,0.224579,0.021700,319.030073,24.468246,0.999638,0.990481,0.003851,0.423968,-0.000011,0.000018,0.000012,0.000022,-0.000015,70.268940,0.000022,
2371,2938,2.39560403513046,6.38857201383309,-0.00165033356586264,0.004977,-0.000826,0.007989,0.200238,0.015875,315.977183,25.030649,0.999272,0.988871,0.004140,0.400720,-0.000012,0.000006,-0.000005,0.000008,-0.000013,-76.464886,0.000013,
2086,3058,-3.81110900975395,8.97272264890366,0.0212053370954095,0.005819,-0.000310,0.000578,0.266651,0.005031,314.959482,24.316985,0.999520,0.992494,0.003450,0.452065,-0.000007,0.000013,-0.000001,0.000013,-0.000008,-86.452130,0.000013,
2176,2038,-1.68814165064767,-13.2681062598692,0.0308639868032969,0.005155,-0.000459,0.005108,0.220265,0.044967,331.116788,23.898615,0.998929,0.984465,0.005017,0.309773,-0.000002,-0.000033,0.000028,0.000014,-0.000050,30.515921,0.000051,
2476,2368,4.79711537501454,-6.03729904757826,-0.00313749424066145,0.005527,-0.000091,0.001043,0.249145,0.028826,325.440712,23.175171,0.999492,0.985810,0.005085,0.329010,0.000019,0.000022,-0.000001,0.000023,0.000019,-70.317310,0.000042,
2506,2563,5.41217191484774,-1.77696584458272,0.00261888197343296,0.005768,-0.000693,0.005086,0.244460,0.022376,322.403507,23.704809,0.999803,0.991147,0.003863,0.501497,0.000043,0.000009,0.000003,0.000043,0.000009,4.419024,0.000056,
2416,3223,3.32188025403522,12.5783359561523,0.03108992819881,0.005255,-0.000350,0.000500,0.240017,0.013580,311.660813,25.986017,0.999430,0.990484,0.003867,0.431690,0.000011,0.000034,0.000008,0.000037,0.000008,72.752462,0.000048,
2386,2983,2.71381237539605,7.36758868209886,-0.00107703664826886,0.005524,-0.000775,0.006832,0.229290,0.010640,315.283567,25.188892,0.999557,0.989674,0.004108,0.398564,-0.000009,0.000006,0.000001,0.000006,-0.000009,86.424543,0.000009,
2116,3178,-3.1799101628962,11.5758881436142,0.0420665784222933,0.005258,-0.000477,0.006422,0.223532,0.027364,312.985490,24.464338,0.999578,0.992394,0.003425,0.448253,-0.000002,0.000030,-0.000003,0.000030,-0.000002,-84.940797,0.000034,
2341,2803,1.76835569082489,3.45137255974574,-0.0156653885780997,0.005484,-0.000755,0.004897,0.234824,0.016070,318.093299,24.640620,0.999568,0.992503,0.003597,0.397106,-0.000004,0.000022,0.000006,0.000023,-0.000005,77.000835,0.000024,
2356,2833,2.0892180327799,4.10464096826114,-0.0144856836673171,0.005502,-0.000674,0.003721,0.239572,0.000014,317.618723,24.719575,0.999707,0.990639,0.003889,0.392977,-0.000010,0.000027,0.000002,0.000027,-0.000010,86.434639,0.000027,
2131,3118,-2.84572314139403,10.27756475037,0.0275589644904812,0.005146,-0.000479,0.005089,0.222062,0.031511,313.775960,24.529002,0.999757,0.995729,0.002947,0.438808,-0.000010,0.000011,0.000006,0.000012,-0.000011,75.515925,0.000014,
2206,2173,-1.05729380052575,-10.3093658176048,0.0162990804508922,0.004914,-0.000555,0.001979,0.218860,0.019278,328.737862,23.731658,0.999312,0.986003,0.004738,0.432300,-0.000014,-0.000002,0.000009,0.000002,-0.000018,62.182647,0.000020,
2101,3028,-3.48227268451181,8.32430168454569,0.00795269085398331,0.005613,-0.000346,0.004534,0.245522,0.019236,315.241185,24.392083,0.999193,0.991877,0.003672,0.441714,-0.000006,0.000015,0.000011,0.000020,-0.000011,66.975422,0.000020,
2296,2593,0.829120618392327,-1.12714575941867,-0.00188433727026904,0.005379,-0.000206,0.000670,0.244774,0.020414,321.659941,24.148762,0.999600,0.991638,0.003683,0.427854,-0.000008,-0.000010,0.000005,-0.000004,-0.000014,37.180019,0.000019,
2281,2518,0.514937050098354,-2.76375302714775,-0.0114629423935071,0.005219,-0.001004,0.004550,0.224103,0.001030,322.792856,23.960251,0.999756,0.992134,0.003770,0.471450,-0.000006,-0.000021,0.000007,-0.000003,-0.000023,20.433155,0.000029,
2146,3223,-2.53663942399738,12.5533328992893,0.0454310342154827,0.005443,-0.000360,0.005193,0.235442,0.041180,312.160026,24.609194,0.999580,0.994106,0.003120,0.474924,0.000004,0.000025,-0.000004,0.000026,0.000003,-79.254868,0.000031,
2236,2323,-0.430207291441516,-7.02460062590858,-0.00534594891348661,0.005554,-0.001131,0.006125,0.234673,-0.003087,326.084240,23.785840,0.998568,0.986000,0.004878,0.432718,-0.000011,-0.000005,0.000003,-0.000003,-0.000012,67.403864,0.000017,
2191,2083,-1.36942160793492,-12.2799689291023,0.0158525264504306,0.004965,-0.000363,0.003350,0.216965,0.030898,330.220195,23.835291,0.999328,0.983397,0.005194,0.314347,-0.000008,-0.000023,0.000023,0.000009,-0.000040,35.695624,0.000042,
2041,2908,-4.76527665437966,5.71711949359689,-0.00651546385836355,0.005624,-0.000395,0.001598,0.254837,0.025894,317.408130,24.287648,0.999449,0.991576,0.003675,0.431081,-0.000007,0.000007,-0.000007,0.000010,-0.000010,-66.966378,0.000012,
2266,2488,0.19355839310996,-3.41846666403578,-0.0151695170059725,0.005442,-0.000750,0.005105,0.232759,0.020987,323.277598,23.919896,0.999668,0.991097,0.003944,0.506890,-0.000007,-0.000016,0.000009,-0.000002,-0.000021,30.874904,0.000026,
2491,2338,5.13098561208524,-6.69454748861084,0.00514623904109612,0.005169,-0.000337,0.003337,0.223756,0.028547,326.011382,23.011624,0.998947,0.985274,0.005274,0.319084,-0.000005,0.000017,-0.000003,0.000018,-0.000006,-83.395699,0.000018,
2446,2023,4.21402428737715,-13.6054293811696,0.0323518794543247,0.005316,-0.000581,0.001441,0.237400,0.007578,331.233910,21.993625,0.999235,0.979146,0.005463,0.329365,0.000030,-0.000042,0.000009,0.000031,-0.000043,7.152349,0.000044,
2056,2953,-4.44672899880626,6.69454710168756,0.000686656007189868,0.005391,-0.000108,0.001301,0.244979,0.030713,316.638929,24.300378,0.999354,0.992067,0.003626,0.434430,-0.000012,-0.000011,-0.000002,-0.000010,-0.000013,-48.954404,0.000023,
2461,2173,4.51076086375683,-10.3113335355755,0.0170085787974585,0.006059,-0.000696,0.007348,0.249370,0.023150,328.729490,22.462683,0.999100,0.977457,0.005607,0.349754,0.000026,-0.000015,-0.000011,0.000028,-0.000018,-13.876731,0.000029,
2011,2938,-5.42062131831614,6.36646266308364,-0.00317727338915574,0.005409,-0.000649,0.004093,0.238329,0.026513,317.120259,24.202727,0.999572,0.993222,0.003376,0.432734,-0.000010,-0.000014,0.000016,0.000004,-0.000029,40.966178,0.000031,
2071,2923,-4.11722850228286,6.04389517707053,-0.000959166652592103,0.005251,-0.000939,0.006930,0.222062,0.008724,317.007302,24.336736,0.999429,0.991754,0.003699,0.419442,-0.000011,0.000001,-0.000001,0.000001,-0.000011,-83.060242,0.000012,
2371,2953,2.39280798848936,6.71524237459549,-0.00505176434643317,0.005087,-0.000463,0.004997,0.216100,0.022298,315.719248,25.094659,0.999375,0.989097,0.004126,0.383526,-0.000011,0.000007,-0.000004,0.000008,-0.000011,-79.109541,0.000012,
2326,2758,1.44923709165385,2.4712846243275,-0.0221588455586925,0.004909,-0.000678,0.006532,0.202942,0.034779,318.744591,24.478762,0.999647,0.991901,0.003696,0.460985,-0.000011,0.000020,0.000013,0.000025,-0.000015,69.724616,0.000025,
2401,3133,3.01265663504799,10.6250914697245,0.0240209811784098,0.005299,-0.000574,0.005256,0.224685,0.027577,313.046182,25.677356,0.999811,0.994821,0.003004,0.413062,0.000021,0.000032,0.000009,0.000037,0.000016,60.069431,0.000055,
2506,2578,5.4075848780733,-1.44664023218232,-0.0135297617419496,0.005530,-0.000510,0.003382,0.240290,0.026582,322.019042,23.878505,0.999567,0.987589,0.004542,0.394523,0.000040,0.000026,0.000003,0.000040,0.000026,12.933220,0.000067,
2026,2953,-5.09674601862435,6.69265609864065,0.00559759298351992,0.005731,-0.000286,0.002705,0.256920,0.027792,316.871666,24.258991,0.999561,0.991842,0.003523,0.401198,-0.000010,-0.000019,0.000011,-0.000003,-0.000026,33.916655,0.000032,
2086,3073,-3.81422175228505,9.29855043439495,0.0223151819362215,0.005259,-0.000584,0.003807,0.231480,0.007581,314.688852,24.364402,0.999514,0.991517,0.003514,0.405128,-0.000010,0.000017,0.000000,0.000017,-0.000010,89.984521,0.000017,
2416,3238,3.31821211717632,12.9042978672724,0.0245537601004457,0.005304,-0.000412,0.003533,0.231166,0.021100,311.350494,26.044684,0.999363,0.991088,0.003785,0.426960,0.000008,0.000035,0.000008,0.000037,0.000006,75.380368,0.000046,
2476,2383,4.79373139469881,-5.70948872459476,-0.00724109988698274,0.005738,-0.000513,0.003388,0.249784,0.023419,325.164207,23.165546,0.999523,0.985083,0.005082,0.391599,0.000019,0.000022,-0.000014,0.000034,0.000007,-48.752342,0.000044,
2356,2848,2.08571113442808,4.43155014870456,-0.0218145945971173,0.005433,-0.000629,0.004071,0.235250,0.011371,317.308274,24.740405,0.999638,0.990669,0.003832,0.422592,-0.000010,0.000021,-0.000001,0.000021,-0.000011,-87.749865,0.000021,
2221,2263,-0.745981674806469,-8.33711297295119,0.005101583469866,0.005539,-0.000767,0.005067,0.237654,0.030315,327.175297,23.830785,0.998977,0.982192,0.005259,0.393880,-0.000008,-0.000009,0.000004,-0.000005,-0.000012,41.684562,0.000018,
2116,3193,-3.18239442548081,11.9013626556248,0.0379964437944409,0.005312,-0.000265,0.003237,0.235526,0.023481,312.717986,24.485048,0.999620,0.992909,0.003479,0.426124,-0.000001,0.000025,-0.000007,0.000027,-0.000003,-76.148184,0.000030,
2311,2668,1.14038742481332,0.510145096767445,-0.0148341027631886,0.005132,-0.000710,0.004762,0.219356,0.026691,320.294814,24.339414,0.999795,0.992008,0.003632,0.390413,-0.000013,0.000015,0.000003,0.000015,-0.000014,83.220219,0.000017,
2341,2818,1.7651006789434,3.77756942167844,-0.0150966667574153,0.005183,-0.000793,0.007250,0.212790,0.023808,317.831708,24.649820,0.999400,0.988920,0.003958,0.432261,-0.000010,0.000021,0.000006,0.000022,-0.000011,79.901222,0.000022,
2146,3238,-2.54003858462577,12.8794588548069,0.0372452379983201,0.005246,-0.000527,0.007100,0.220450,0.025293,311.830653,24.691383,0.999652,0.994116,0.003077,0.383202,0.000006,0.000026,-0.000005,0.000027,0.000004,-75.498124,0.000034,
2101,3043,-3.48462422660309,8.64982156300139,0.0156256122390346,0.005243,-0.000634,0.005022,0.226983,0.018084,315.042173,24.451209,0.999522,0.992808,0.003460,0.381604,-0.000006,0.000010,0.000007,0.000012,-0.000008,69.248683,0.000012,
2206,2188,-1.05987019553989,-9.98054849143242,0.0167664275857078,0.005018,-0.001040,0.004343,0.216004,0.003411,328.497372,23.797038,0.998895,0.981928,0.005297,0.370330,-0.000012,0.000008,0.000010,0.000012,-0.000016,68.543381,0.000017,
2131,3133,-2.84813838615842,10.6023801903335,0.0326161745879858,0.004995,-0.000700,0.006592,0.210474,0.014280,313.561937,24.543133,0.999704,0.995074,0.003031,0.412052,-0.000008,0.000014,0.000004,0.000015,-0.000009,80.085229,0.000015,
2251,2383,-0.114110823082537,-5.71379196082814,-0.00581703010823276,0.005157,-0.001150,0.003939,0.223403,-0.007282,325.071046,23.741100,0.999182,0.986194,0.004752,0.516585,-0.000022,-0.000004,-0.000001,-0.000004,-0.000022,-85.513518,0.000028,
2236,2338,-0.432839090702725,-6.69609735051665,0.000131244872250136,0.005045,-0.000545,0.004683,0.216188,0.025907,325.868728,23.880704,0.999015,0.986185,0.004782,0.389640,-0.000018,-0.000002,-0.000001,-0.000002,-0.000018,-86.757506,0.000022,
2296,2608,0.825520073257259,-0.798653433396801,-0.0104581832270014,0.005449,-0.000458,0.004672,0.234433,0.037926,321.333948,24.215568,0.999447,0.989830,0.003982,0.409746,-0.000008,-0.000014,0.000007,-0.000003,-0.000019,34.766757,0.000023,
2491,2353,5.12827934367928,-6.36792630822925,0.00991315088799638,0.005088,-0.000259,0.002728,0.222419,0.038521,325.807468,22.953322,0.998828,0.985289,0.005416,0.448141,0.000012,0.000026,0.000002,0.000026,0.000012,80.796189,0.000039,
2281,2533,0.512943602009447,-2.4371941122677,-0.00827428940749542,0.005470,-0.000526,0.001556,0.245821,0.001533,322.598416,23.945377,0.999642,0.992642,0.003655,0.515659,-0.000008,-0.000021,0.000003,-0.000007,-0.000022,12.280730,0.000030,
2176,2053,-1.69092481006542,-12.9392313551394,0.0283162171814411,0.005140,-0.000906,0.006907,0.213917,0.039913,330.848717,23.875218,0.999109,0.984004,0.004910,0.344063,-0.000004,-0.000035,0.000026,0.000011,-0.000050,29.506386,0.000053,
2011,2953,-5.42243329241029,6.69178932099514,0.00419689113988397,0.005478,-0.000585,0.004750,0.239780,0.031406,316.939326,24.213194,0.999736,0.994330,0.003013,0.414426,-0.000003,-0.000024,0.000018,0.000007,-0.000034,29.788943,0.000036,
2056,2968,-4.44906936207355,7.0195492600865,0.00523631434981553,0.005341,-0.000336,0.004814,0.232645,0.013660,316.420866,24.287848,0.999273,0.991249,0.003720,0.424091,-0.000011,-0.000010,-0.000006,-0.000005,-0.000016,-46.971172,0.000022,
2086,3088,-3.81657216755185,9.6238148303475,0.0229187674279956,0.005294,-0.000397,0.003869,0.233028,0.022839,314.450641,24.347839,0.999514,0.990765,0.003686,0.435112,-0.000014,0.000016,-0.000001,0.000016,-0.000014,-88.865917,0.000017,
2191,2098,-1.37275458501094,-11.9521884118776,0.00432100160645632,0.005089,-0.000940,0.005844,0.214659,0.019324,329.882009,23.638544,0.999457,0.986024,0.004965,0.517714,-0.000007,-0.000013,0.000021,0.000012,-0.000031,40.706717,0.000031,
2506,2593,5.40377149258306,-1.11749575140876,-0.0247845517513383,0.005564,-0.000462,0.000721,0.252171,0.013021,321.692113,24.010938,0.999824,0.994103,0.003559,0.310375,0.000040,0.000029,0.000004,0.000041,0.000028,16.134365,0.000069,
2446,2038,4.21102406467704,-13.276518034561,0.036696872936659,0.005194,-0.000719,0.004198,0.221536,0.012195,331.012601,22.039010,0.999201,0.978821,0.005583,0.344297,0.000026,-0.000055,0.000018,0.000030,-0.000059,11.876599,0.000059,
2416,3253,3.3148433776097,13.2301116004326,0.0193423518894633,0.005535,-0.000574,0.006428,0.231203,0.028296,311.060162,26.102038,0.999168,0.989874,0.003995,0.422910,0.000004,0.000048,0.000009,0.000049,0.000003,79.257562,0.000058,
2386,2998,2.71134336964052,7.69290347502565,0.00564294194310833,0.005341,-0.000741,0.005774,0.224648,-0.000154,315.090283,25.227228,0.999603,0.990354,0.003906,0.391961,-0.000009,0.000008,0.000005,0.000009,-0.000010,75.636774,0.000011,
2371,2968,2.38981060756688,7.04192932330748,-0.00462098301767355,0.004975,-0.000541,0.005538,0.209064,0.032951,315.470336,25.187216,0.999604,0.989531,0.004113,0.342113,-0.000010,0.000013,-0.000001,0.000013,-0.000010,-86.645394,0.000013,
2146,3253,-2.54281335376325,13.2047092938505,0.0274187115380187,0.005469,-0.000293,0.004296,0.239437,0.039170,311.521538,24.658884,0.999673,0.993625,0.003147,0.436186,0.000010,0.000029,-0.000003,0.000030,0.000009,-81.556934,0.000041,
2326,2773,1.44758094759468,2.79876285980674,-0.0178537471967957,0.005528,-0.000302,0.003932,0.240529,0.037560,318.573434,24.626724,0.999710,0.994728,0.003286,0.350230,-0.000010,0.000020,0.000013,0.000025,-0.000015,68.940116,0.000025,
2041,2923,-4.76732962217813,6.04214367791456,-0.00276127802851533,0.005764,-0.000354,0.003227,0.256763,0.024341,317.197790,24.244588,0.999451,0.992103,0.003605,0.464354,-0.000010,0.000000,-0.000003,0.000001,-0.000012,-72.843484,0.000013,
2071,2938,-4.1189947452485,6.36986588490699,-0.000474827116590859,0.005543,-0.000408,0.002317,0.248891,0.021258,316.793785,24.347746,0.999368,0.991194,0.003743,0.417464,-0.000014,0.000000,0.000002,0.000000,-0.000014,80.486215,0.000016,
2461,2188,4.5062070598951,-9.98081535686161,-3.47921812249297E-05,0.005602,-0.000417,0.003081,0.244601,0.028193,328.339774,22.481385,0.999633,0.987238,0.004698,0.393941,0.000028,-0.000030,-0.000020,0.000034,-0.000036,-17.180608,0.000041,
2266,2503,0.190900690531222,-3.0899340219228,-0.0131614451994437,0.005237,-0.000466,0.003956,0.227281,0.029118,323.045300,24.058472,0.999640,0.991875,0.003953,0.403307,-0.000010,-0.000013,0.000008,-0.000004,-0.000020,39.983432,0.000025,
2341,2833,1.76273405650575,4.10414734128602,-0.011845445130291,0.005461,-0.001038,0.008167,0.222267,0.008704,317.623866,24.741268,0.999668,0.990998,0.003746,0.362042,-0.000008,0.000027,0.000008,0.000029,-0.000009,77.922493,0.000029,
2026,2968,-5.09915313204662,7.01763420058837,0.00861927313246724,0.005518,-0.000320,0.003880,0.243824,0.017892,316.640151,24.225539,0.999505,0.991879,0.003505,0.414257,-0.000010,-0.000025,0.000003,-0.000009,-0.000025,10.961267,0.000036,
2401,3148,3.01073851436983,10.9492804804538,0.0367686197572539,0.005445,-0.000730,0.007196,0.224327,0.028027,312.907414,25.671038,0.999838,0.995121,0.002858,0.464289,0.000020,0.000030,0.000010,0.000036,0.000013,57.390695,0.000051,
2311,2683,1.13809171167053,0.836121700621646,-0.0140119401544894,0.005458,-0.000530,0.003777,0.237815,0.036502,320.076751,24.287725,0.999761,0.991128,0.003768,0.484634,-0.000013,0.000028,0.000002,0.000028,-0.000013,87.552380,0.000028,
2221,2278,-0.748416480670162,-8.0095609385037,0.0115865584028256,0.005376,-0.001238,0.007170,0.223296,0.000492,326.973423,23.887620,0.999022,0.982383,0.005151,0.328030,-0.000005,-0.000007,-0.000001,-0.000005,-0.000007,-15.585162,0.000012,
2116,3208,-3.18415729543305,12.2256933841339,0.0470385492311038,0.005546,-0.000511,0.004769,0.241758,0.026186,312.554757,24.474068,0.999672,0.994130,0.003170,0.441864,0.000001,0.000027,-0.000007,0.000028,-0.000001,-76.085572,0.000032,
2491,2368,5.12447529873736,-6.03854655238327,0.00350797409475945,0.005075,-0.000263,0.004604,0.214683,0.031064,325.502633,23.061034,0.998508,0.983275,0.005429,0.393862,0.000018,0.000024,0.000004,0.000026,0.000016,64.135779,0.000043,
2356,2863,2.08277526939826,4.75767175239406,-0.020737837153888,0.005350,-0.000621,0.005249,0.227307,0.018010,317.064766,24.761097,0.999545,0.990597,0.003865,0.447026,-0.000011,0.000019,-0.000004,0.000020,-0.000011,-82.778698,0.000020,
2416,3268,3.31102274822274,13.5556705490549,0.00818180733011786,0.005478,-0.000611,0.005432,0.232222,0.019397,310.721041,26.123672,0.999557,0.991722,0.003617,0.438849,0.000003,0.000039,0.000011,0.000042,0.000000,73.973676,0.000049,
2206,2203,-1.06243398811212,-9.65041727689938,0.0109177473677846,0.005397,-0.000535,0.004158,0.234194,0.045488,328.224454,23.863664,0.998837,0.981430,0.005423,0.365221,-0.000011,0.000013,0.000007,0.000015,-0.000013,74.154735,0.000016,
2011,2968,-5.42476455078047,7.01692372051035,0.00672430581613526,0.005326,-0.000695,0.005557,0.230513,0.017757,316.707475,24.194148,0.999712,0.994553,0.002955,0.407327,-0.000002,-0.000033,0.000008,0.000000,-0.000035,14.263731,0.000040,
2476,2398,4.79063471447661,-5.38172474707587,0.000439791012297519,0.005141,-0.000645,0.004322,0.218864,0.017006,324.954160,23.271126,0.999558,0.986361,0.004756,0.337668,0.000018,0.000027,-0.000020,0.000043,0.000002,-51.006293,0.000051,
2506,2608,5.40042209201776,-0.791388528518041,-0.0211457232606449,0.005022,-0.000221,0.000931,0.226621,0.018471,321.453370,23.979920,0.999846,0.993875,0.003592,0.408781,0.000030,0.000029,-0.000002,0.000032,0.000028,-37.711817,0.000060,
2101,3058,-3.48650830731821,8.97401970996217,0.0206389092567179,0.005397,-0.000394,0.003800,0.237770,0.023042,314.850679,24.368263,0.999671,0.993892,0.003273,0.469872,-0.000003,0.000011,0.000006,0.000013,-0.000005,68.757125,0.000014,
2131,3148,-2.8504574779089,10.9275876604306,0.0350453529753736,0.004969,-0.000192,0.005895,0.211583,0.038474,313.338090,24.539305,0.999630,0.993631,0.003225,0.444560,-0.000005,0.000011,0.000003,0.000011,-0.000005,80.510595,0.000011,
2296,2623,0.822260018056436,-0.472091903779159,-0.0136816715453847,0.005244,-0.000719,0.005820,0.221032,0.019491,321.050555,24.192616,0.999397,0.988643,0.004079,0.444817,-0.000008,0.000000,0.000006,0.000002,-0.000011,62.625721,0.000012,
2446,2053,4.20820517752855,-12.9473926036709,0.0351420081728406,0.005427,-0.000456,0.003221,0.235931,0.027228,330.772411,22.032438,0.999155,0.979386,0.005519,0.421321,0.000027,-0.000046,0.000018,0.000031,-0.000050,12.962475,0.000051,
2191,2113,-1.373369720849,-11.6239739213317,0.0239535417191519,0.005635,-0.000808,0.005758,0.240049,0.032754,329.829120,23.801917,0.999101,0.982169,0.005269,0.384400,-0.000003,-0.000005,0.000017,0.000013,-0.000022,43.229901,0.000022,
2146,3268,-2.54543723925502,13.5295199536874,0.02569530635202,0.005469,-0.000509,0.003904,0.240511,0.019183,311.262673,24.669327,0.999670,0.994280,0.003086,0.411990,0.000013,0.000035,0.000000,0.000035,0.000013,89.237961,0.000050,
2236,2353,-0.435295725884668,-6.36904707107589,0.00556692017511295,0.005065,-0.001175,0.008239,0.205404,-0.002322,325.661510,23.903669,0.998939,0.984913,0.004919,0.361408,-0.000021,-0.000009,0.000000,-0.000009,-0.000021,-88.913228,0.000031,
2176,2068,-1.69321175729679,-12.6114256078846,0.0314152968358599,0.005138,-0.001202,0.007271,0.212605,0.010842,330.632992,23.846665,0.999332,0.984523,0.004993,0.358953,-0.000003,-0.000032,0.000027,0.000013,-0.000049,30.969393,0.000051,
2281,2548,0.509459223212826,-2.10717322250127,-0.0176759008421072,0.005557,-0.000396,0.003825,0.242341,0.019338,322.272006,24.123409,0.999384,0.989828,0.004133,0.384263,-0.000007,-0.000021,0.000007,-0.000004,-0.000023,22.454089,0.000030,
2056,2983,-4.45142612994855,7.34513720522217,0.00754721830799099,0.005388,-0.000641,0.007868,0.226152,0.013334,316.189483,24.300693,0.999154,0.989502,0.003953,0.404709,-0.000016,-0.000009,-0.000003,-0.000008,-0.000017,-69.423827,0.000025,
2251,2398,-0.116199706623096,-5.3851224486793,-0.00196971679065427,0.005542,-0.001043,0.005345,0.236514,-0.008825,324.873205,23.884862,0.999388,0.989249,0.004290,0.396334,-0.000022,0.000008,0.000000,0.000008,-0.000022,89.664672,0.000022,
2416,3283,3.30737441674333,13.881917203926,0.000904879471363529,0.005356,-0.000425,0.005330,0.227084,0.027963,310.407780,26.217776,0.999744,0.991990,0.003519,0.399444,0.000004,0.000027,0.000014,0.000034,-0.000003,64.620835,0.000038,
2071,2953,-4.12163807898187,6.69590700986576,-0.00325701081158059,0.005549,-0.000318,0.003880,0.244760,0.032256,316.522125,24.348209,0.999276,0.991607,0.003742,0.424204,-0.000011,-0.000005,0.000001,-0.000005,-0.000011,85.106075,0.000017,
2461,2203,4.50260150026058,-9.65194382451987,-0.00536174698225977,0.005390,-0.000516,0.002084,0.238594,0.010594,328.047069,22.502583,0.999234,0.981610,0.005312,0.412307,0.000024,-0.000030,-0.000020,0.000031,-0.000037,-18.273699,0.000039,
2326,2788,1.44436257237461,3.12342846802488,-0.0198736441971619,0.005452,-0.000857,0.006651,0.227411,0.008579,318.300329,24.502963,0.999613,0.993860,0.003448,0.479558,-0.000007,0.000023,0.000013,0.000027,-0.000011,69.630672,0.000027,
2086,3103,-3.8186833864909,9.94884126017443,0.0268540229440077,0.005485,-0.000516,0.005906,0.235953,0.029695,314.241696,24.342520,0.999744,0.993430,0.003220,0.445151,-0.000012,0.000017,0.000003,0.000018,-0.000012,83.936684,0.000018,
2386,3013,2.70902233606894,8.01799005370843,0.0180570565607354,0.005260,-0.001024,0.009821,0.206335,0.009032,314.930899,25.265947,0.999658,0.990703,0.003779,0.404942,-0.000005,0.000002,0.000005,0.000005,-0.000007,63.062484,0.000007,
2041,2938,-4.77016612583746,6.36787971643746,-0.00546256281239721,0.005613,-0.000572,0.006427,0.240830,0.021894,316.915467,24.226085,0.999356,0.990820,0.003813,0.472326,-0.000013,-0.000006,0.000003,-0.000005,-0.000013,71.883263,0.000019,
2341,2848,1.75922960861709,4.43082821511166,-0.0212517016648235,0.005333,-0.000621,0.006079,0.223801,0.008733,317.302143,24.736487,0.999716,0.991360,0.003651,0.403481,-0.000006,0.000023,0.000004,0.000023,-0.000006,81.617468,0.000024,
2116,3223,-3.18672927882762,12.5499376116289,0.0477435732271374,0.005553,-0.001006,0.006961,0.235427,0.001818,312.309467,24.436978,0.999718,0.994754,0.003044,0.456658,0.000003,0.000029,-0.000006,0.000030,0.000002,-77.745420,0.000036,
2506,2623,5.39783902071713,-0.466638797630097,-0.010575117693179,0.004903,-0.000602,0.004073,0.208855,0.006122,321.281040,23.905234,0.999870,0.994374,0.003337,0.532684,0.000021,0.000010,-0.000010,0.000026,0.000004,-30.556101,0.000033,
2011,2983,-5.42757140950592,7.34294937502111,0.00251989508893757,0.005215,-0.000656,0.008294,0.218053,0.039851,316.415621,24.179237,0.999362,0.991621,0.003529,0.431609,-0.000008,-0.000030,0.000011,-0.000003,-0.000034,22.064859,0.000041,
2056,2998,-4.45360106290589,7.67086383929571,0.00883664740138101,0.005303,-0.000382,0.004760,0.231142,0.031981,315.960740,24.304256,0.999193,0.989729,0.003990,0.413694,-0.000021,0.000002,-0.000006,0.000003,-0.000022,-76.714046,0.000024,
2311,2698,1.13509426366104,1.16261130433593,-0.0131527342563231,0.005282,-0.000662,0.005420,0.224047,0.028479,319.826532,24.305804,0.999817,0.991801,0.003648,0.491028,-0.000013,0.000018,0.000006,0.000020,-0.000014,78.802108,0.000020,
2221,2293,-0.750966508102124,-7.68199728021956,0.0121543386579219,0.005147,-0.000644,0.004157,0.222632,0.010801,326.735827,23.850262,0.999181,0.984437,0.004806,0.396700,-0.000007,-0.000002,0.000003,0.000000,-0.000009,62.794297,0.000011,
2026,2983,-5.10161081018694,7.34315330231889,0.00559863457505116,0.005563,-0.000436,0.004090,0.245301,0.014177,316.372366,24.198028,0.999276,0.991487,0.003763,0.427689,-0.000014,-0.000025,0.000005,-0.000012,-0.000027,20.321209,0.000040,
2401,3163,3.00722607581463,11.2753522724074,0.0320933302583626,0.005164,-0.000872,0.006353,0.214381,0.011306,312.612163,25.753164,0.999663,0.993260,0.003294,0.409637,0.000017,0.000030,0.000010,0.000036,0.000012,61.860116,0.000050,
2476,2413,4.78820995438786,-5.05497150067337,0.00484058318153302,0.005219,-0.000520,0.002137,0.230783,0.021692,324.760149,23.245603,0.999501,0.987642,0.004581,0.426105,0.000008,0.000021,-0.000010,0.000027,0.000002,-61.350762,0.000032,
2146,3283,-2.54871068957962,13.8549890132073,0.0170320837479494,0.005368,-0.000476,0.004839,0.233052,0.021928,310.936708,24.684075,0.999605,0.994171,0.003162,0.406433,0.000017,0.000049,0.000006,0.000051,0.000016,79.268870,0.000070,
2101,3073,-3.48895924364092,9.30005172320029,0.0220775844802006,0.005244,-0.000261,0.002946,0.233255,0.027260,314.613148,24.435206,0.999598,0.991483,0.003653,0.407417,-0.000004,0.000016,0.000008,0.000018,-0.000007,70.421003,0.000019,
2446,2068,4.20448006192541,-12.6178081642606,0.0327210352396605,0.005077,-0.000994,0.005211,0.212392,-0.009458,330.486904,22.115704,0.998837,0.977372,0.005950,0.357064,0.000023,-0.000035,0.000014,0.000027,-0.000038,12.694461,0.000039,
2371,2983,2.38793705672706,7.36669025722544,-0.000626785171277788,0.005413,-0.000371,0.002368,0.240496,0.019116,315.290740,25.155215,0.999572,0.989814,0.004005,0.400659,-0.000009,0.000006,-0.000002,0.000006,-0.000009,-83.567804,0.000009,
2491,2383,5.12136506691179,-5.71097148841985,0.00485803475112334,0.005331,-0.001160,0.009249,0.208298,0.011184,325.264666,23.096560,0.998661,0.980700,0.005514,0.398834,0.000016,0.000027,-0.000015,0.000037,0.000006,-54.904919,0.000046,
2296,2638,0.820039569329186,-0.145395783766247,-0.0120639895546333,0.005497,-0.000475,0.003941,0.239111,0.011664,320.838743,24.217292,0.999335,0.987798,0.004173,0.442890,-0.000009,0.000003,0.000008,0.000006,-0.000013,64.121313,0.000013,
2176,2083,-1.69585469540399,-12.2805122034493,0.0230028363274073,0.005323,-0.000379,0.003936,0.231688,0.032167,330.340314,23.929285,0.999456,0.985212,0.005022,0.313766,-0.000001,-0.000022,0.000025,0.000016,-0.000039,33.447332,0.000039,
2416,3298,3.30314033430865,14.2070467815645,-0.0128115710121506,0.005286,-0.000578,0.006794,0.218417,0.016627,310.037535,26.198794,0.999736,0.992559,0.003414,0.453255,0.000009,0.000016,0.000018,0.000031,-0.000006,50.803800,0.000033,
2266,2518,0.188689546133116,-2.76473978618422,-0.00324301877532207,0.005059,-0.000953,0.005117,0.215109,0.018234,322.873910,23.985961,0.999588,0.991419,0.003892,0.491251,-0.000010,-0.000017,0.000007,-0.000005,-0.000021,30.518269,0.000028,
2281,2563,0.506341125254988,-1.78071476498997,-0.0162287107460202,0.005166,-0.000469,0.005634,0.218309,0.022349,322.017238,24.091255,0.999314,0.988129,0.004436,0.448143,-0.000011,-0.000022,0.000001,-0.000011,-0.000022,4.167633,0.000033,
2191,2128,-1.37579701256787,-11.2948038616262,0.0190010322982062,0.005784,-0.000190,0.001800,0.259459,0.029853,329.566101,23.805930,0.998911,0.980681,0.005378,0.395031,-0.000002,-0.000008,0.000015,0.000011,-0.000021,38.856573,0.000021,
2236,2368,-0.438004305210821,-6.03970475565412,-0.00293765632005716,0.005306,-0.000643,0.004427,0.229002,0.019444,325.371267,23.955384,0.999368,0.987514,0.004577,0.354605,-0.000026,-0.000011,-0.000002,-0.000011,-0.000026,-83.099144,0.000038,
2116,3238,-3.18970629621963,12.8756391938355,0.0381047077704011,0.005564,-0.000776,0.005069,0.241604,0.005959,311.989199,24.451013,0.999716,0.994979,0.002891,0.448848,0.000004,0.000028,-0.000007,0.000030,0.000002,-74.146837,0.000036,
2356,2878,2.08060494016226,5.08311362856526,-0.00984143139544358,0.005348,-0.000944,0.007361,0.219651,0.000754,316.903990,24.819251,0.999538,0.991468,0.003764,0.409742,-0.000014,0.000014,-0.000003,0.000014,-0.000014,-84.010128,0.000017,
2206,2218,-1.0652949142783,-9.32257349289299,0.0128194129274561,0.005113,-0.000941,0.006534,0.213537,0.018897,327.978489,23.876717,0.998823,0.982144,0.005401,0.344843,-0.000011,0.000015,0.000004,0.000015,-0.000011,82.130224,0.000016,
2071,2968,-4.1243330828026,7.02155102872743,-0.00545785001554577,0.005395,-0.000406,0.004272,0.236557,0.028422,316.251449,24.335525,0.999042,0.990691,0.003963,0.429222,-0.000011,-0.000003,-0.000002,-0.000003,-0.000011,-76.245279,0.000014,
2086,3118,-3.82126410365285,10.2738791213263,0.0303696020864095,0.005232,-0.000702,0.007893,0.218501,0.029153,314.008932,24.346462,0.999767,0.993882,0.003057,0.438605,-0.000013,0.000023,0.000003,0.000023,-0.000014,84.594679,0.000023,
2041,2953,-4.77230469528924,6.69357504464749,0.000589368315445427,0.005248,-0.000352,0.003349,0.232759,0.037618,316.713750,24.251333,0.999565,0.992772,0.003349,0.454605,-0.000008,-0.000015,0.000000,-0.000008,-0.000015,-1.905824,0.000023,
2011,2998,-5.42930921157187,7.66771020450133,0.011714606546434,0.005226,-0.000735,0.008417,0.218149,0.026519,316.248660,24.178613,0.999401,0.992383,0.003456,0.406147,-0.000017,-0.000007,0.000007,-0.000004,-0.000020,62.794923,0.000026,
2461,2218,4.50044897350571,-9.32404625807021,0.00452668070266782,0.005613,-0.000425,0.004020,0.241603,0.038933,327.890126,22.553019,0.999454,0.985498,0.005062,0.446843,0.000017,-0.000035,-0.000025,0.000027,-0.000045,-21.922184,0.000045,
2056,3013,-4.45617693907933,7.99645942801251,0.0067939476847414,0.005173,-0.000116,0.004103,0.227163,0.048401,315.695278,24.279635,0.998857,0.986935,0.004654,0.448575,-0.000018,0.000013,-0.000005,0.000014,-0.000019,-81.839346,0.000019,
2326,2803,1.44146684759162,3.45063974558479,-0.0226066155157127,0.005124,-0.000483,0.000894,0.232352,0.004098,318.037796,24.587855,0.999434,0.993187,0.003645,0.424500,-0.000005,0.000017,0.000011,0.000021,-0.000010,67.779533,0.000021,
2026,2998,-5.10373508574129,7.66830194653196,0.0141120400305113,0.005411,-0.000733,0.006952,0.230375,0.019050,316.184485,24.210515,0.999370,0.991989,0.003613,0.409479,-0.000021,-0.000009,0.000001,-0.000009,-0.000021,85.423169,0.000031,
2251,2413,-0.118809479349888,-5.0575913263751,0.00123252418535458,0.005314,-0.001073,0.004908,0.227495,-0.010845,324.648439,23.923372,0.999296,0.988311,0.004305,0.380413,-0.000019,0.000007,-0.000002,0.000007,-0.000019,-85.819272,0.000020,
2506,2638,5.3947783511909,-0.138367231309999,-0.00978958482266989,0.005147,-0.000856,0.007075,0.208323,0.008537,321.042294,24.059635,0.999759,0.991828,0.003789,0.442180,0.000008,0.000018,-0.000018,0.000032,-0.000006,-52.874640,0.000034,
2386,3028,2.70578820780452,8.34455814798481,0.0104309362014874,0.005292,-0.000768,0.006845,0.218613,0.012997,314.633644,25.315761,0.999605,0.990643,0.003839,0.401473,-0.000002,0.000001,0.000003,0.000004,-0.000004,58.706295,0.000005,
2476,2428,4.78483560593871,-4.72655144339414,0.00330053032962496,0.005201,-0.000400,0.004147,0.222418,0.050211,324.495238,23.297400,0.999358,0.986900,0.004644,0.461099,0.000003,0.000028,0.000000,0.000028,0.000003,89.416943,0.000034,
2131,3163,-2.85253763672264,11.2521361143031,0.0362258853736535,0.005286,-0.000744,0.005501,0.227148,-0.001662,313.118817,24.534866,0.999521,0.991623,0.003575,0.413262,-0.000005,0.000022,0.000001,0.000022,-0.000005,87.342745,0.000023,
2146,3298,-2.55126954693386,14.1793437762488,0.0175817029239624,0.005319,-0.000408,0.004968,0.230355,0.008867,310.693100,24.666110,0.999621,0.995128,0.002901,0.417561,0.000027,0.000064,0.000002,0.000064,0.000027,86.146042,0.000093,
2446,2083,4.2010659487028,-12.2870746799788,0.0282970427153941,0.005288,-0.001217,0.008163,0.210985,0.009310,330.205996,22.232032,0.998598,0.975665,0.006338,0.315222,0.000017,-0.000026,0.000015,0.000022,-0.000031,16.883436,0.000032,
2491,2398,5.11799114159355,-5.38183948528276,-0.00090864616277031,0.005133,-0.000702,0.004475,0.217709,0.006485,324.982275,23.196208,0.999437,0.987413,0.004545,0.355127,0.000018,0.000029,-0.000021,0.000045,0.000001,-52.447583,0.000053,
2401,3178,3.00415008796357,11.6009632884949,0.0296484694089827,0.005125,-0.000378,0.005341,0.216472,0.024165,312.347629,25.780957,0.999584,0.992831,0.003433,0.439041,0.000018,0.000039,0.000011,0.000044,0.000013,66.914517,0.000059,
2431,1993,3.89186258137793,-14.2630913602235,0.0342343667045384,0.005145,-0.000234,0.001363,0.230038,0.025588,331.696172,22.091918,0.999206,0.976466,0.005854,0.244319,-0.000026,-0.000092,0.000024,-0.000019,-0.000099,18.072350,0.000127,
2311,2713,1.13200086160299,1.49021646539552,-0.0170178329210557,0.005079,-0.000313,0.003217,0.222388,0.023625,319.548330,24.389294,0.999606,0.990343,0.003884,0.435204,-0.000014,0.000018,0.000008,0.000020,-0.000016,76.500015,0.000021,
2341,2863,1.75704187799883,4.75632075620717,-0.0122586415674846,0.005260,-0.000602,0.005854,0.221322,0.023230,317.130552,24.749784,0.999646,0.991265,0.003750,0.441036,-0.000006,0.000021,0.000001,0.000021,-0.000006,87.121141,0.000022,
2116,3253,-3.19268275658478,13.2013784312697,0.0361579822883868,0.005222,-0.000703,0.005375,0.224985,0.012215,311.710420,24.514457,0.999767,0.996256,0.002586,0.393488,0.000007,0.000030,-0.000006,0.000031,0.000005,-76.108432,0.000039,
2221,2308,-0.753599858536003,-7.35371344106916,0.00819440900806967,0.005299,-0.000627,0.003128,0.232938,0.021917,326.471114,23.837766,0.999128,0.986011,0.004550,0.441532,-0.000011,-0.000006,0.000004,-0.000004,-0.000013,60.512628,0.000018,
2026,3013,-5.10639900695391,7.99460956385117,0.0110984809328443,0.005101,-0.000523,0.004591,0.222634,0.016266,315.907038,24.262894,0.999505,0.992912,0.003570,0.343618,-0.000017,0.000005,0.000008,0.000007,-0.000019,71.897141,0.000019,
2296,2653,0.816087235121511,0.182280538120771,-0.020470637782239,0.004944,-0.000713,0.004462,0.211879,0.005648,320.497511,24.250737,0.999328,0.987879,0.004151,0.434110,-0.000010,0.000009,0.000009,0.000012,-0.000013,68.996109,0.000015,
2011,3013,-5.43150806702389,7.99267542366375,0.0126970272497147,0.005144,-0.000685,0.006509,0.219509,0.009660,316.014340,24.148111,0.999477,0.993237,0.003460,0.407256,-0.000013,0.000005,0.000016,0.000015,-0.000023,59.805486,0.000023,
2461,2233,4.49717518880084,-8.9953086237302,0.0109472261209476,0.004911,-0.000620,0.004753,0.206680,0.032443,327.665966,22.683279,0.999197,0.981316,0.005381,0.366790,0.000013,-0.000024,-0.000022,0.000023,-0.000034,-25.413441,0.000035,
2041,2968,-4.77454445007897,7.01827451721002,0.00488609235009108,0.005132,-0.000342,0.004276,0.224773,0.022659,316.498070,24.206798,0.999543,0.992736,0.003340,0.475968,-0.000010,-0.000017,-0.000006,-0.000006,-0.000021,-30.551337,0.000029,
2101,3088,-3.49096058066366,9.62466291278733,0.0262932293550193,0.005441,-0.000413,0.003338,0.241146,0.016040,314.411846,24.408146,0.999460,0.987455,0.004212,0.423641,-0.000007,0.000014,0.000007,0.000017,-0.000009,72.936249,0.000017,
2056,3028,-4.45862910508967,8.32146392337522,0.00919683227380119,0.005124,-0.000329,0.007155,0.216207,0.040844,315.460298,24.258354,0.999399,0.991558,0.003756,0.456309,-0.000014,0.000014,-0.000003,0.000014,-0.000014,-83.796041,0.000016,
2281,2578,0.505044821682898,-1.4548784640624,-0.00591431132897924,0.005614,-0.000699,0.002855,0.248082,-0.005215,321.890444,24.114236,0.999159,0.986441,0.004706,0.426006,-0.000007,-0.000007,0.000004,-0.000003,-0.000011,48.297953,0.000014,
2086,3133,-3.82332899939887,10.599149296071,0.0318621079719037,0.005314,-0.000336,0.004969,0.230798,0.019434,313.788733,24.371850,0.999739,0.993547,0.003066,0.401499,-0.000010,0.000024,0.000001,0.000024,-0.000010,89.084914,0.000024,
2236,2383,-0.440407718166409,-5.71331005126194,0.00260276759291855,0.005097,-0.000683,0.004178,0.220244,0.026124,325.166958,23.894074,0.999443,0.987842,0.004523,0.445312,-0.000028,-0.000009,-0.000006,-0.000007,-0.000030,-73.926773,0.000039,
2176,2098,-1.69934284217755,-11.9522504485693,0.0122453696203593,0.005207,-0.000875,0.006498,0.218319,0.028831,329.997287,23.775959,0.999406,0.983815,0.005131,0.479777,0.000001,-0.000011,0.000024,0.000020,-0.000030,38.212324,0.000031,
2371,2998,2.3855555549103,7.69236922664389,0.00431768439983671,0.005159,-0.000140,-0.002274,0.245409,0.008084,315.092006,25.215051,0.999595,0.991280,0.003742,0.370342,-0.000009,0.000009,0.000000,0.000009,-0.000009,88.735428,0.000010,
2266,2533,0.185805980543439,-2.43678982988199,-0.016220066519395,0.005321,-0.000391,-0.001357,0.248739,-0.003948,322.556225,23.975954,0.999708,0.995292,0.003242,0.506079,-0.000014,-0.000015,0.000003,-0.000012,-0.000018,40.097933,0.000030,
2326,2818,1.439136215524,3.77656649596068,-0.0136040526623447,0.005184,-0.000563,0.004578,0.222420,0.016247,317.858875,24.632219,0.999562,0.991265,0.003756,0.426592,-0.000011,0.000016,0.000010,0.000020,-0.000014,71.454204,0.000020,
2431,2008,3.88936112884197,-13.9352848000148,0.0397487977929813,0.005364,-0.000611,0.003815,0.230918,0.026869,331.502156,22.042418,0.999103,0.976250,0.006040,0.348403,0.000002,-0.000067,0.000009,0.000003,-0.000068,7.472534,0.000077,
2191,2143,-1.37874798873266,-10.9661907916987,0.0222035565258807,0.005460,-0.000717,0.006652,0.229279,0.042284,329.321340,23.837620,0.999024,0.982397,0.005210,0.393310,-0.000007,-0.000017,0.000014,0.000003,-0.000027,34.150759,0.000029,
2356,2893,2.07842999642228,5.40986298565416,-0.00637615593143437,0.005353,-0.000118,0.002168,0.238547,0.032026,316.706682,24.897964,0.999444,0.991276,0.003806,0.400949,-0.000013,0.000012,-0.000001,0.000012,-0.000013,-88.196937,0.000015,
2506,2653,5.39080005144142,0.190908171412474,-0.0211830242812425,0.005144,-0.000673,0.005807,0.213272,0.036458,320.706606,24.183222,0.999600,0.987788,0.004435,0.408714,0.000011,0.000026,-0.000014,0.000034,0.000002,-58.901601,0.000041,
2161,1993,-2.0080027417432,-14.2543239727042,0.0329036148612545,0.005186,-0.000193,0.005870,0.219603,0.051049,331.904194,24.053916,0.999154,0.982823,0.005167,0.218189,0.000000,-0.000081,0.000017,0.000003,-0.000084,11.264726,0.000095,
2206,2233,-1.06725309112602,-8.9954297960844,0.0147910967663165,0.005561,-0.001132,0.006592,0.233874,0.009216,327.774201,23.814488,0.998886,0.983017,0.005465,0.416384,-0.000016,0.000014,0.000005,0.000015,-0.000016,81.396148,0.000018,
2071,2983,-4.12609240906666,7.34582473428837,0.00433706716108873,0.005475,-0.000690,0.005397,0.236871,-0.001326,316.090022,24.309065,0.999289,0.991389,0.003715,0.421996,-0.000014,-0.000003,0.000001,-0.000002,-0.000015,83.703394,0.000018,
2026,3028,-5.10808815334637,8.31853992776551,0.0175315580410711,0.005288,-0.000732,0.003742,0.233596,0.018316,315.727984,24.158911,0.999496,0.991754,0.003788,0.439109,-0.000010,0.000009,0.000013,0.000016,-0.000017,63.003688,0.000019,
2311,2728,1.12921298019223,1.81656577216513,-0.015157554944949,0.005102,-0.000592,0.005697,0.214873,0.020388,319.312589,24.406914,0.999566,0.989928,0.003934,0.446861,-0.000017,0.000015,0.000012,0.000019,-0.000021,71.103401,0.000023,
2491,2413,5.11478585282108,-5.05505693270928,-0.0078899761264779,0.005208,-0.000875,-0.000102,0.238551,-0.022620,324.702488,23.099238,0.999454,0.987914,0.004490,0.483733,0.000008,0.000024,-0.000011,0.000030,0.000002,-62.532741,0.000036,
2131,3178,-2.8550339672965,11.5770766022431,0.0387554020140328,0.005138,-0.000860,0.005680,0.219874,0.013070,312.887481,24.523621,0.999285,0.987899,0.004046,0.443649,-0.000004,0.000026,-0.000002,0.000026,-0.000004,-85.973279,0.000028,
2386,3043,2.70269090643437,8.67036532255885,0.00735650457511383,0.005270,-0.000726,0.006018,0.220636,0.018387,314.364500,25.329094,0.999670,0.991891,0.003660,0.436384,0.000000,0.000008,0.000003,0.000009,-0.000001,72.793428,0.000010,
2476,2443,4.78108006665338,-4.39801460263798,-0.00183604544241689,0.005077,-0.000879,0.005811,0.210220,0.012562,324.196670,23.397604,0.999137,0.986036,0.004799,0.381405,0.000018,-0.000002,0.000003,0.000018,-0.000002,9.195405,0.000020,
2011,3028,-5.43311743959117,8.31753805447955,0.0214045847034185,0.005332,-0.001014,0.006885,0.227224,0.023140,315.850532,24.133061,0.999500,0.993457,0.003481,0.422832,-0.000006,0.000011,0.000023,0.000028,-0.000022,54.829444,0.000029,
2056,3043,-4.4610331113303,8.64642737771958,0.0138242494412566,0.005052,-0.001018,0.011222,0.201217,0.023765,315.239859,24.261076,0.999666,0.994438,0.003214,0.429949,-0.000012,0.000009,-0.000008,0.000011,-0.000014,-71.750833,0.000015,
2446,2098,4.19793911337595,-11.9567826667272,0.017877209008077,0.005287,-0.000262,-0.000831,0.244780,0.009817,329.910792,22.266612,0.999276,0.978915,0.005799,0.336769,0.000013,-0.000019,0.000007,0.000014,-0.000020,11.519047,0.000021,
2116,3268,-3.19514393794385,13.5261932879727,0.0348347226065471,0.005370,-0.000689,0.005907,0.230305,0.019257,311.459039,24.499286,0.999749,0.995739,0.002787,0.417653,0.000011,0.000032,-0.000002,0.000033,0.000010,-84.445761,0.000045,
2251,2428,-0.121552536064883,-4.73049954697879,-0.00175217977550801,0.005372,-0.000410,0.004264,0.232535,0.014462,324.386291,23.840604,0.998982,0.986448,0.004499,0.513400,-0.000012,-0.000009,-0.000004,-0.000007,-0.000015,-55.123494,0.000022,
2431,2023,3.88574813322438,-13.6046560411103,0.033406585997227,0.005283,-0.000871,0.004151,0.225877,0.007190,331.202355,22.142044,0.998997,0.977048,0.005865,0.282838,0.000014,-0.000043,0.000006,0.000014,-0.000044,6.231718,0.000044,
2041,2983,-4.77652605561184,7.34398043733805,0.00996117645280492,0.005379,-0.000658,0.007606,0.226803,0.018885,316.298201,24.252449,0.999362,0.991880,0.003615,0.418177,-0.000015,-0.000017,-0.000004,-0.000013,-0.000020,-37.344712,0.000033,
2401,3193,3.00153849245823,11.9263349401048,0.0319672047628501,0.005179,-0.000562,0.004367,0.222428,0.014512,312.127037,25.841227,0.999541,0.992212,0.003490,0.413326,0.000016,0.000040,0.000013,0.000045,0.000010,66.910610,0.000059,
2461,2248,4.49500857861109,-8.667604281264,0.0162817433404143,0.005225,-0.000448,0.003434,0.226065,0.026949,327.487679,22.711026,0.999046,0.978969,0.005432,0.390001,0.000009,-0.000015,-0.000016,0.000017,-0.000023,-26.335285,0.000024,
2296,2668,0.813963438398982,0.509445934326706,-0.0139871428533525,0.005121,-0.000727,0.005007,0.218157,0.005200,320.314022,24.361096,0.999604,0.990122,0.003926,0.353541,-0.000010,0.000017,0.000002,0.000017,-0.000010,84.864274,0.000017,
2101,3103,-3.49301301328216,9.95020941863319,0.0297867105516048,0.005666,-0.000598,0.004169,0.249103,0.023872,314.203938,24.447029,0.999716,0.992760,0.003318,0.392834,-0.000007,0.000015,0.000010,0.000019,-0.000011,69.048624,0.000019,
2506,2668,5.38848560827589,0.516880476986913,-0.0175162865263587,0.005464,-0.000505,0.004005,0.234971,0.022185,320.515345,24.176918,0.999456,0.986332,0.004643,0.462274,0.000013,0.000009,-0.000016,0.000027,-0.000005,-40.998603,0.000028,
2026,3043,-5.11004174852679,8.64295131681365,0.0197341391056511,0.005477,-0.000823,0.003057,0.244163,0.006620,315.513027,24.088236,0.999476,0.992013,0.003766,0.487528,-0.000013,0.000005,0.000007,0.000007,-0.000015,72.190103,0.000015,
2176,2113,-1.70114470310038,-11.6231989768183,0.0166330978134397,0.005452,-0.000559,0.004458,0.235972,0.035627,329.810028,23.855812,0.999129,0.979704,0.005559,0.421745,0.000004,-0.000004,0.000022,0.000022,-0.000022,39.288299,0.000026,
2266,2548,0.183308734505065,-2.10808991360346,-0.0137490917049945,0.005608,-0.000585,0.002450,0.249299,0.010270,322.333439,24.142012,0.999594,0.992036,0.003737,0.380514,-0.000013,-0.000016,0.000006,-0.000008,-0.000021,39.304870,0.000030,
2206,2248,-1.07043005294471,-8.66509034848232,0.00496523650286917,0.005672,-0.000726,0.007327,0.236792,0.036962,327.452715,23.890871,0.998824,0.982693,0.005315,0.387246,-0.000013,0.000004,0.000003,0.000005,-0.000013,79.188301,0.000014,
2191,2158,-1.3802391639997,-10.6395106459922,0.032316694936469,0.005638,-0.000905,0.004599,0.243844,0.012781,329.179592,23.813175,0.999124,0.985233,0.004950,0.404978,-0.000006,-0.000020,0.000007,-0.000003,-0.000023,21.836570,0.000029,
2371,3013,2.38258879058893,8.0179980408854,0.00880963177547756,0.005044,-0.000181,0.001947,0.225191,0.034281,314.864098,25.233575,0.999572,0.990885,0.003813,0.418166,-0.000006,0.000003,0.000000,0.000003,-0.000006,89.799776,0.000006,
2236,2398,-0.443413880504036,-5.3844135301348,-0.00544892806038888,0.005348,-0.000799,0.005127,0.228675,0.018645,324.865513,23.950027,0.999548,0.989695,0.004123,0.404673,-0.000027,0.000005,-0.000005,0.000006,-0.000028,-81.131510,0.000029,
2086,3148,-3.82543916294576,10.9238575656104,0.0388081387961279,0.005158,-0.000288,0.004400,0.225321,0.035153,313.596435,24.356988,0.999788,0.995443,0.002815,0.429749,-0.000006,0.000019,-0.000005,0.000020,-0.000007,-79.615314,0.000020,
2116,3283,-3.19805002017898,13.8509052183973,0.0307941109288663,0.005233,-0.000529,0.006165,0.223233,0.019945,311.172595,24.470097,0.999736,0.995492,0.002928,0.449511,0.000015,0.000043,0.000003,0.000044,0.000014,83.173830,0.000060,
2056,3058,-4.46301925940508,8.97212514401978,0.0125628181679076,0.005294,-0.000752,0.007675,0.222473,0.024831,315.005785,24.278362,0.999503,0.993247,0.003432,0.407590,-0.000010,0.000016,-0.000008,0.000019,-0.000012,-74.492240,0.000019,
2161,2008,-2.01049948878125,-13.9257324037303,0.0290501799950675,0.005301,-0.000081,0.004692,0.228520,0.054027,331.640999,23.964412,0.999011,0.984817,0.005014,0.324606,-0.000008,-0.000060,0.000021,-0.000001,-0.000067,19.494865,0.000078,
2341,2878,1.75362143853989,5.08230536698488,-0.0200326311656909,0.005187,-0.000652,0.005009,0.220896,0.019099,316.820700,24.707092,0.999624,0.990995,0.003815,0.516066,-0.000009,0.000015,0.000002,0.000015,-0.000009,85.540148,0.000015,
2281,2593,0.50173642105559,-1.12654310175328,-0.0130718078610812,0.005481,-0.000429,0.002050,0.244795,0.012013,321.583520,24.173882,0.999283,0.988338,0.004324,0.412109,-0.000003,-0.000012,0.000004,-0.000002,-0.000013,20.268133,0.000016,
2311,2743,1.12706384472932,2.14289961375548,-0.0117529419259768,0.005383,-0.000574,0.004626,0.231456,0.013607,319.113755,24.443097,0.999557,0.990634,0.003890,0.436172,-0.000014,0.000017,0.000012,0.000021,-0.000018,71.535964,0.000023,
2011,3043,-5.43511937932418,8.64242650080255,0.021683530964026,0.005487,-0.000801,0.004881,0.239867,0.018015,315.621359,24.086469,0.999464,0.993478,0.003563,0.451570,-0.000010,0.000006,0.000015,0.000015,-0.000019,58.637118,0.000020,
2431,2038,3.88248285387562,-13.2763298126053,0.040243633438763,0.004805,-0.001252,0.008675,0.187259,0.016007,330.979269,22.157736,0.999093,0.977050,0.005803,0.329353,0.000009,-0.000056,0.000012,0.000011,-0.000058,10.288855,0.000061,
2221,2323,-0.756763070052376,-7.02478463066869,-0.00276284988535735,0.005647,-0.000899,0.005398,0.241586,0.006659,326.146323,23.846918,0.999114,0.986794,0.004548,0.438512,-0.000010,-0.000005,0.000004,-0.000002,-0.000013,59.728323,0.000016,
2071,2998,-4.12743218832289,7.67035081416962,0.0209051655155577,0.005457,-0.000842,0.004927,0.237345,-0.004432,315.984905,24.327822,0.999531,0.992450,0.003431,0.396199,-0.000018,0.000007,-0.000001,0.000007,-0.000018,-86.958409,0.000018,
2026,3058,-5.11200948851238,8.96842913328191,0.0258439822687819,0.005651,-0.001044,0.006188,0.243506,-0.004698,315.318906,24.144326,0.999260,0.990663,0.003879,0.409537,-0.000019,0.000018,0.000004,0.000018,-0.000020,84.261778,0.000022,
2446,2113,4.19547806111516,-11.6284529652448,0.0257542735109837,0.005242,-0.000029,-0.000144,0.240273,0.021692,329.730040,22.316857,0.999500,0.978772,0.005659,0.353519,0.000011,-0.000020,0.000004,0.000012,-0.000020,7.942691,0.000020,
2251,2443,-0.124430762211112,-4.40085848594983,-0.00365659802713481,0.005376,-0.000947,0.005442,0.228679,-0.004327,324.123018,24.050661,0.999508,0.989378,0.004184,0.309460,-0.000013,-0.000015,-0.000004,-0.000010,-0.000018,-38.468618,0.000028,
2326,2833,1.43562118051844,4.10496865475475,-0.0238218521101317,0.005306,-0.000548,0.005405,0.225223,0.034934,317.530806,24.755827,0.999849,0.993073,0.003485,0.356102,-0.000010,0.000023,0.000013,0.000027,-0.000015,71.099535,0.000027,
2461,2263,4.49171604977127,-8.33769675962763,0.00904585169996608,0.005401,-0.000271,0.001364,0.242021,0.031969,327.200107,22.806125,0.999131,0.979538,0.005440,0.356829,0.000004,-0.000011,-0.000018,0.000016,-0.000022,-33.750520,0.000023,
2476,2458,4.77844164304159,-4.07042911688143,0.000358514434935842,0.005340,-0.000854,0.006141,0.221056,0.014085,323.982518,23.445104,0.999218,0.986412,0.004709,0.393284,0.000026,-0.000010,0.000007,0.000028,-0.000011,10.248542,0.000028,
2491,2428,5.11200412345886,-4.72607118558401,-0.00657236709918152,0.005541,-0.000676,0.001475,0.247944,0.017105,324.478786,23.219553,0.999365,0.986817,0.004636,0.463554,0.000004,0.000036,0.000001,0.000036,0.000004,87.661789,0.000044,
2041,2998,-4.77836199922369,7.66950383550975,0.0123411847048942,0.005645,-0.000735,0.006128,0.243233,0.028368,316.090109,24.253269,0.999231,0.990028,0.003923,0.418691,-0.000022,-0.000004,-0.000006,-0.000002,-0.000024,-72.076978,0.000029,
2116,3298,-3.20068125169867,14.1761930351036,0.024902272824022,0.005350,-0.000259,0.004226,0.234619,0.040702,310.888549,24.468262,0.999622,0.993431,0.003406,0.474094,0.000023,0.000064,0.000000,0.000064,0.000023,89.884767,0.000089,
2506,2683,5.38404231029849,0.845778110647402,-0.0294495771445327,0.005176,-0.000460,0.004345,0.220475,0.020665,320.155780,24.302321,0.999626,0.990357,0.003902,0.397042,0.000012,0.000020,-0.000009,0.000026,0.000006,-58.395710,0.000034,
2401,3208,2.99917371505241,12.2511301297594,0.0369425960045078,0.005418,-0.000634,0.005296,0.229992,0.007376,311.930518,25.864651,0.999471,0.991835,0.003682,0.426882,0.000013,0.000032,0.000012,0.000038,0.000007,64.363168,0.000049,
2131,3193,-2.85758147150387,11.902446934589,0.0365737172888316,0.005172,-0.000636,0.004678,0.224488,0.013338,312.628402,24.542234,0.999536,0.991974,0.003501,0.429848,-0.000003,0.000020,-0.000005,0.000022,-0.000004,-77.931647,0.000023,
2356,2908,2.0751896725248,5.73626230602326,-0.0116245229625633,0.005550,-0.000394,0.004568,0.239080,0.031535,316.418444,24.917411,0.999378,0.990385,0.003927,0.419636,-0.000011,0.000007,0.000000,0.000007,-0.000011,89.619522,0.000011,
2386,3058,2.70044234380863,8.99597841630536,0.0150939850373675,0.005305,-0.000641,0.005922,0.222666,0.020436,314.185887,25.402514,0.999641,0.992238,0.003598,0.407192,0.000003,0.000011,0.000006,0.000014,0.000000,61.640345,0.000016,
2266,2563,0.180556169211243,-1.78244811572183,-0.01196466341122,0.005372,-0.000628,0.002143,0.239501,0.003378,322.096215,24.047282,0.999551,0.989718,0.004095,0.494719,-0.000016,-0.000019,0.000000,-0.000016,-0.000019,2.165464,0.000035,
2161,2023,-2.0128615005907,-13.5965304721311,0.0236198592281198,0.005501,0.000018,0.001083,0.248759,0.050878,331.375635,23.924797,0.998827,0.983728,0.005135,0.375034,-0.000009,-0.000051,0.000019,-0.000001,-0.000058,21.308784,0.000068,
2296,2683,0.811293271029946,0.835932282135595,-0.0177135733698037,0.005357,-0.000483,0.003627,0.233822,0.030851,320.054932,24.302663,0.999657,0.989456,0.003975,0.468343,-0.000010,0.000027,-0.000001,0.000027,-0.000010,-89.094812,0.000028,
2056,3073,-4.46503440365151,9.29657817481721,0.0162128203165253,0.005229,-0.000484,0.004546,0.228521,0.045363,314.797974,24.197500,0.999381,0.991875,0.003827,0.502927,-0.000010,0.000019,-0.000005,0.000020,-0.000011,-80.924032,0.000020,
2011,3058,-5.43681670055556,8.96709722663723,0.0308885437123649,0.005454,-0.000649,0.003430,0.242304,0.015383,315.456491,24.079253,0.999319,0.992897,0.003477,0.443309,-0.000017,0.000021,0.000012,0.000025,-0.000020,73.255292,0.000026,
2206,2263,-1.07248118580569,-8.33798845832845,0.0106932090456553,0.005648,-0.000823,0.005606,0.241133,0.030571,327.263464,23.870489,0.998968,0.981481,0.005292,0.420195,-0.000012,-0.000013,0.000001,-0.000012,-0.000013,41.899332,0.000025,
2431,2053,3.87967653114348,-12.9452851897881,0.027509267252924,0.005402,-0.000371,0.001103,0.242758,0.031381,330.686500,22.200591,0.998846,0.976225,0.005987,0.355724,0.000008,-0.000042,0.000011,0.000011,-0.000044,11.798300,0.000046,
2236,2413,-0.44814225014002,-5.05341555081614,-0.0236731063574211,0.004765,-0.000998,0.008272,0.191721,0.030411,324.432921,24.088908,0.999681,0.990774,0.003809,0.301047,-0.000024,0.000003,-0.000007,0.000004,-0.000026,-76.145151,0.000028,
2101,3118,-3.49580825707628,10.2751722725767,0.0274852523372715,0.005555,-0.000626,0.005592,0.239844,0.025639,313.930739,24.405782,0.999791,0.994505,0.002949,0.436030,-0.000007,0.000019,0.000010,0.000022,-0.000011,71.373298,0.000022,
2131,1993,-2.66297273533608,-14.2547626695898,0.0297222118284139,0.004895,-0.000420,0.003215,0.214599,0.023892,331.986178,24.140766,0.999208,0.980889,0.005268,0.315216,-0.000019,-0.000101,0.000014,-0.000017,-0.000103,9.217481,0.000129,
2026,3073,-5.11403361229022,9.29335640986612,0.0253012074421122,0.005893,-0.001018,0.004720,0.258785,0.002465,315.085207,24.091828,0.999190,0.992420,0.003691,0.458348,-0.000017,0.000020,0.000009,0.000022,-0.000019,76.948982,0.000024,
2086,3163,-3.82871027469274,11.2494484945468,0.0315836729797638,0.004919,-0.000693,0.006716,0.207524,0.023620,313.273180,24.368520,0.999791,0.995575,0.002870,0.404481,-0.000007,0.000035,-0.000009,0.000037,-0.000009,-78.188956,0.000038,
2176,2128,-1.70373797484281,-11.2936321202616,0.0131647219012052,0.005497,-0.000544,0.003244,0.241853,0.014620,329.545721,23.930397,0.999019,0.980606,0.005441,0.341539,0.000004,-0.000007,0.000020,0.000019,-0.000022,37.438695,0.000024,
2191,2173,-1.38410152680958,-10.3089604677341,0.0153098599232635,0.005338,-0.000472,0.002830,0.235780,0.049916,328.788081,23.792102,0.999222,0.968650,0.006080,0.481570,-0.000007,-0.000006,0.000008,0.000001,-0.000014,46.784588,0.000016,
2311,2758,1.12380652169374,2.47005934109752,-0.0166872995488916,0.005128,-0.000223,0.002855,0.225998,0.038604,318.822653,24.461759,0.999611,0.991971,0.003778,0.474998,-0.000014,0.000021,0.000014,0.000026,-0.000019,70.487691,0.000027,
2461,2278,4.48927082686512,-8.00924847232597,0.0121815948967878,0.005532,0.000213,-0.001041,0.257240,0.045482,326.998710,22.870460,0.999441,0.980162,0.005369,0.362525,0.000000,-0.000010,-0.000012,0.000008,-0.000018,-34.248511,0.000018,
2281,2608,0.49816043983974,-0.798334461989597,-0.0196918151913792,0.005424,-0.000957,0.006429,0.227386,0.010976,321.267022,24.250543,0.999168,0.988104,0.004413,0.363174,-0.000003,-0.000013,0.000008,0.000001,-0.000018,29.537021,0.000020,
2221,2338,-0.76095385896938,-6.69443798179775,-0.01320791609038,0.005032,-0.000783,0.008978,0.202003,0.032783,325.776613,23.956290,0.999675,0.990144,0.004110,0.376541,-0.000015,-0.000005,0.000001,-0.000005,-0.000015,83.987344,0.000021,
2041,3013,-4.78142604093746,7.99643476683533,0.00551224575377773,0.005237,-0.000156,0.004522,0.229129,0.048637,315.774039,24.314989,0.999407,0.991188,0.003855,0.368756,-0.000018,0.000009,-0.000003,0.000009,-0.000019,-83.483376,0.000019,
2491,2443,5.10881205688901,-4.39762412353397,-0.00203165609929101,0.005171,-0.000538,0.002805,0.225945,0.018822,324.250845,23.363597,0.999066,0.983759,0.004880,0.381568,0.000019,0.000005,0.000005,0.000021,0.000003,18.829695,0.000026,
2476,2473,4.77404959801472,-3.74122412393988,-0.0152791579170639,0.005316,-0.000795,0.006182,0.219866,0.027392,323.606679,23.469571,0.999563,0.989553,0.004160,0.440911,0.000018,-0.000027,0.000002,0.000018,-0.000027,2.374475,0.000028,
2071,3013,-4.12969168939272,7.99584059297169,0.0224363331675477,0.005410,-0.000392,0.003700,0.238927,0.022929,315.754750,24.305963,0.999423,0.991684,0.003602,0.441439,-0.000015,0.000017,-0.000002,0.000017,-0.000015,-86.851305,0.000019,
2026,3088,-5.11660225335046,9.6194246625313,0.029450144940256,0.005403,-0.000876,0.004742,0.236208,0.013640,314.852374,24.174223,0.999578,0.994478,0.003201,0.376404,-0.000010,0.000018,0.000009,0.000020,-0.000013,74.520441,0.000021,
2371,3028,2.37975799751799,8.34412752248256,0.00778112552001176,0.005267,-0.000203,0.003211,0.230960,0.034457,314.615807,25.290982,0.999443,0.990152,0.004019,0.401283,-0.000004,0.000002,-0.000001,0.000003,-0.000004,-77.789832,0.000004,
2446,2128,4.19244689082421,-11.2993436216519,0.0263064041313896,0.005334,0.000012,0.001819,0.237230,0.036079,329.489420,22.360855,0.999419,0.978233,0.005849,0.379224,0.000013,-0.000022,0.000005,0.000013,-0.000023,7.686346,0.000023,
2011,3073,-5.43926936354518,9.2924847474926,0.026519610173807,0.005591,-0.000755,0.003980,0.247184,0.022703,315.180361,24.043701,0.999286,0.993527,0.003495,0.473366,-0.000016,0.000022,0.000019,0.000030,-0.000023,67.744688,0.000032,
2341,2893,1.7519158851426,5.40907159015782,-0.0137834021961112,0.005441,-0.000247,-0.000078,0.250526,0.024873,316.657525,24.833487,0.999415,0.990632,0.003896,0.431601,-0.000009,0.000013,0.000004,0.000014,-0.000010,80.937802,0.000014,
2056,3088,-4.46723723381803,9.62170850672282,0.0193239329170183,0.005218,-0.000833,0.004704,0.227313,0.003283,314.578410,24.241337,0.999465,0.992122,0.003590,0.410585,-0.000008,0.000017,-0.000005,0.000018,-0.000009,-78.232670,0.000018,
2506,2698,5.38176117568242,1.17187980553959,-0.0223822643734479,0.005227,-0.000405,0.002346,0.230574,0.013664,319.981023,24.337732,0.999561,0.991226,0.003783,0.415954,0.000012,0.000030,-0.000008,0.000033,0.000009,-69.967235,0.000044,
2431,2068,3.87567534454454,-12.6160214952655,0.0278390823635846,0.004707,-0.000931,0.005434,0.194869,0.023260,330.399526,22.257059,0.998401,0.973740,0.006457,0.344786,0.000003,-0.000031,0.000007,0.000005,-0.000033,11.339102,0.000035,
2401,3223,2.99562366145669,12.5769523708471,0.0304749273502125,0.005123,-0.000449,0.002978,0.224920,0.002488,311.624834,25.918344,0.999444,0.991825,0.003635,0.412496,0.000010,0.000032,0.000012,0.000038,0.000004,65.955107,0.000047,
2251,2458,-0.127224690063244,-4.07405819254692,-0.0018595234396912,0.005231,-0.001216,0.007346,0.215740,0.000774,323.882747,24.016423,0.999765,0.990906,0.004031,0.373454,-0.000011,-0.000012,0.000002,-0.000009,-0.000014,41.057511,0.000023,
2161,2038,-2.01600973519874,-13.2665076007565,0.0191664933806237,0.005247,-0.000142,0.003274,0.230432,0.031166,331.079441,23.993841,0.998985,0.983948,0.005078,0.300188,-0.000008,-0.000031,0.000022,0.000005,-0.000044,30.881319,0.000048,
2296,2698,0.808153804080266,1.16319046179868,-0.0211232502700796,0.005317,-0.000561,0.005092,0.227055,0.035540,319.775686,24.343772,0.999764,0.991919,0.003648,0.462321,-0.000011,0.000017,0.000003,0.000017,-0.000011,84.258764,0.000017,
2086,3178,-3.82991813825101,11.5728326547611,0.0433572148778012,0.005362,-0.000614,0.006148,0.229615,0.021237,313.149219,24.285023,0.999723,0.995542,0.002831,0.483789,-0.000006,0.000039,-0.000012,0.000042,-0.000009,-75.483380,0.000044,
2131,3208,-2.85940935872599,12.2275958112454,0.0428896453875609,0.005342,-0.000280,0.003233,0.236853,0.032142,312.447982,24.575229,0.999678,0.994374,0.003111,0.419843,0.000000,0.000022,-0.000005,0.000024,-0.000001,-76.964548,0.000027,
2326,2848,1.43330947846448,4.42950897526781,-0.0190542192029852,0.005205,-0.000294,0.002561,0.230450,0.014433,317.332392,24.681192,0.999764,0.992354,0.003595,0.444361,-0.000007,0.000019,0.000009,0.000022,-0.000010,72.230827,0.000022,
2266,2578,0.177446309530037,-1.45386164426037,-0.0190518613227368,0.005476,-0.000524,0.002362,0.243634,0.014664,321.797317,24.131402,0.999348,0.988271,0.004324,0.448688,-0.000014,-0.000006,0.000001,-0.000005,-0.000014,80.615248,0.000020,
2131,2008,-2.66445154807467,-13.9274835713545,0.0354975787672061,0.005472,-0.000986,0.004147,0.238039,0.024192,331.817900,24.043303,0.999166,0.984510,0.005176,0.421979,-0.000023,-0.000083,0.000013,-0.000020,-0.000086,11.846181,0.000113,
2386,3073,2.69711701566549,9.32200072184688,0.00787380439078333,0.005201,-0.000360,0.002795,0.229241,0.025623,313.886316,25.417444,0.999581,0.991580,0.003726,0.439992,0.000008,0.000017,0.000006,0.000021,0.000005,62.987399,0.000027,
2176,2143,-1.70630938112054,-10.965959095834,0.0214006650011243,0.005168,-0.000931,0.007986,0.211969,0.034107,329.343476,23.923478,0.998749,0.980427,0.005487,0.383009,0.000002,-0.000017,0.000018,0.000013,-0.000028,31.306843,0.000028,
2041,3028,-4.78349541721198,8.32052244205367,0.00971248306217376,0.005191,-0.000062,0.003566,0.229699,0.050140,315.565932,24.212004,0.999492,0.991411,0.003872,0.464937,-0.000014,0.000011,0.000000,0.000011,-0.000014,-88.897434,0.000015,
2236,2428,-0.449335193636923,-4.72861571722102,-0.0123313595269678,0.005212,-0.000968,0.006050,0.219415,0.021234,324.313861,23.967143,0.999509,0.989720,0.004057,0.435871,-0.000018,-0.000013,-0.000007,-0.000008,-0.000023,-52.695348,0.000032,
2356,2923,2.07218217914425,6.06222562594228,-0.00734322130995224,0.005219,-0.000525,0.006629,0.216575,0.033177,316.186946,24.967526,0.999408,0.990176,0.003916,0.409498,-0.000008,0.000004,-0.000003,0.000004,-0.000009,-77.413294,0.000009,
2461,2293,4.48550038204165,-7.68285011230235,0.0162984808230817,0.005031,-0.000937,0.006050,0.207257,0.017857,326.741324,22.803244,0.999333,0.979689,0.005416,0.458769,0.000003,0.000002,-0.000018,0.000020,-0.000015,-44.314167,0.000021,
2491,2458,5.10558611521953,-4.06945884103403,-0.00246029829901317,0.005347,-0.000473,0.006137,0.221340,0.043618,323.998893,23.416823,0.999230,0.985462,0.004634,0.413553,0.000030,-0.000007,0.000011,0.000033,-0.000010,15.467968,0.000034,
2206,2278,-1.07481566819783,-8.00985214355375,0.0123994910851479,0.005814,-0.001020,0.006572,0.245620,0.021473,327.040369,23.910996,0.999072,0.982349,0.005155,0.389442,-0.000011,-0.000013,-0.000004,-0.000008,-0.000016,-39.729468,0.000024,
2311,2773,1.12208084485855,2.79646859449542,-0.0114248466555864,0.005574,0.000010,0.000154,0.255786,0.032269,318.652314,24.527498,0.999578,0.992522,0.003664,0.435007,-0.000011,0.000019,0.000015,0.000025,-0.000017,67.620504,0.000026,
2101,3133,-3.49779292925058,10.6006282816388,0.0306569826131522,0.005598,-0.000349,0.002155,0.251926,0.010552,313.724264,24.464468,0.999820,0.995445,0.002801,0.362326,-0.000005,0.000021,0.000008,0.000023,-0.000007,74.629060,0.000023,
2401,3238,2.99248015538477,12.9029397718096,0.0238033077156388,0.005367,-0.000265,0.002107,0.239438,0.014494,311.336776,25.973888,0.999356,0.991973,0.003599,0.413205,0.000007,0.000033,0.000013,0.000038,0.000002,68.145388,0.000045,
2026,3103,-5.11900753123914,9.94415649034994,0.0304216976429075,0.005264,-0.000704,0.004729,0.229943,0.026531,314.609788,24.115371,0.999602,0.993981,0.003274,0.437366,-0.000007,0.000027,0.000013,0.000031,-0.000011,71.942000,0.000032,
2011,3088,-5.44144369467642,9.61748007048958,0.0328409087399564,0.005352,-0.000776,0.004128,0.235710,0.013049,314.977351,24.061417,0.999579,0.994820,0.003100,0.432894,-0.000010,0.000021,0.000017,0.000029,-0.000017,66.149098,0.000029,
2476,2488,4.77198502523792,-3.41427699495682,-0.0102640936750049,0.005387,-0.000254,0.000200,0.246051,0.019570,323.431633,23.504072,0.999553,0.986878,0.004375,0.455994,0.000019,-0.000031,-0.000003,0.000020,-0.000031,-3.737014,0.000032,
2506,2713,5.37905495701898,1.49945722120995,-0.0212906780151911,0.005413,-0.000291,0.000886,0.244848,0.023050,319.759599,24.447535,0.999556,0.990560,0.003891,0.376879,0.000007,0.000034,-0.000004,0.000034,0.000007,-80.732763,0.000044,
2431,2083,3.87240737016647,-12.284864518216,0.017848417186201,0.005240,-0.000865,0.005435,0.219284,0.032700,330.098134,22.360120,0.998759,0.976805,0.006201,0.304594,-0.000004,-0.000023,0.000007,-0.000001,-0.000025,19.169103,0.000030,
2071,3028,-4.13240886406944,8.32161821565228,0.0197115008426749,0.005449,-0.000495,0.006868,0.231668,0.030678,315.480183,24.305803,0.999582,0.993448,0.003283,0.445333,-0.000012,0.000016,-0.000002,0.000016,-0.000012,-86.659504,0.000016,
2161,2053,-2.01765373562221,-12.9390190542767,0.0268136684571232,0.005528,-0.000383,0.003270,0.243262,0.032790,330.915615,23.951554,0.999090,0.983594,0.005048,0.357285,-0.000009,-0.000035,0.000022,0.000003,-0.000047,29.868114,0.000053,
2056,3103,-4.46888532991764,9.94671524591519,0.0270114484165447,0.005380,-0.000308,0.003246,0.239150,0.030139,314.409588,24.237381,0.999524,0.991887,0.003541,0.434920,-0.000004,0.000021,-0.000001,0.000021,-0.000004,-87.423418,0.000022,
2131,2023,-2.66773855844754,-13.5941707512207,0.0173277612601623,0.005584,0.000027,0.001234,0.252256,0.038997,331.438980,24.215414,0.999068,0.983617,0.005328,0.274752,-0.000023,-0.000077,0.000007,-0.000022,-0.000078,7.726205,0.000105,
2281,2623,0.495265471009898,-0.47207832709865,-0.0191375362239228,0.005187,-0.001113,0.006356,0.216715,0.007281,321.017954,24.217450,0.999284,0.987647,0.004330,0.420797,-0.000004,-0.000001,0.000007,0.000005,-0.000010,50.402048,0.000010,
2446,2143,4.18829373076491,-10.9692603791411,0.0158406949998948,0.005146,-0.000307,0.002975,0.224214,0.027829,329.146776,22.403400,0.999202,0.978177,0.005892,0.383937,0.000018,-0.000005,0.000003,0.000018,-0.000006,7.445961,0.000019,
2221,2353,-0.763215046965232,-6.36872676379983,-0.00690568485111953,0.004954,-0.001544,0.009692,0.195877,0.006579,325.581966,23.863937,0.999463,0.988445,0.004384,0.463211,-0.000017,-0.000012,0.000002,-0.000011,-0.000018,71.191395,0.000029,
2341,2908,1.74941977766442,5.73516630132997,-0.011066779875307,0.005748,-0.000513,0.002369,0.255977,0.015165,316.441008,24.891659,0.999324,0.990060,0.003981,0.399944,-0.000008,0.000008,0.000003,0.000009,-0.000009,78.476434,0.000010,
2086,3193,-3.83218306924343,11.898506288228,0.0447887850176016,0.005496,-0.000392,0.007002,0.233354,0.025138,312.919396,24.347780,0.999479,0.994276,0.003071,0.422509,-0.000004,0.000031,-0.000017,0.000038,-0.000011,-67.741487,0.000039,
2491,2473,5.10246666293581,-3.74219730204962,-0.00137189969058227,0.005181,-0.000862,0.005657,0.215403,0.019855,323.758872,23.454721,0.999438,0.985520,0.004549,0.411856,0.000017,-0.000029,0.000004,0.000018,-0.000029,5.403041,0.000030,
2041,3043,-4.78543352417778,8.64491336872604,0.0184479250931417,0.005238,-0.000666,0.006435,0.223663,0.028082,315.389000,24.193536,0.999723,0.994652,0.003078,0.452655,-0.000014,0.000007,-0.000006,0.000009,-0.000016,-74.830983,0.000016,
2356,2938,2.06930266375835,6.38831808152919,-0.00756301660504732,0.005236,-0.000653,0.007031,0.215870,0.022077,315.939544,25.014070,0.999298,0.989234,0.004050,0.389956,-0.000007,0.000009,-0.000005,0.000011,-0.000009,-72.852897,0.000011,
2266,2593,0.174679069119154,-1.12661263539955,-0.0196492594708957,0.005628,-0.000505,0.005071,0.241673,0.030114,321.546959,24.150671,0.999205,0.987167,0.004493,0.471309,-0.000011,-0.000011,0.000001,-0.000010,-0.000012,48.660988,0.000022,
2476,2503,4.7693140198976,-3.08702872946695,-0.00517622827800324,0.005596,-0.000468,0.003177,0.244305,0.027607,323.228882,23.555262,0.999563,0.988088,0.004277,0.470550,0.000026,-0.000033,-0.000012,0.000028,-0.000035,-10.773934,0.000037,
2506,2728,5.37622341777464,1.82548339741052,-0.0163773956322188,0.005363,-0.000559,0.002040,0.238020,0.018050,319.549747,24.464304,0.999470,0.989462,0.004021,0.416585,0.000000,0.000015,-0.000001,0.000015,-0.000001,-84.599166,0.000017,
2371,3043,2.37704845332957,8.6693041305488,0.0121664913659743,0.005296,-0.000482,0.005847,0.222813,0.037620,314.399279,25.297398,0.999583,0.991779,0.003683,0.438287,-0.000002,0.000008,-0.000002,0.000008,-0.000002,-77.960162,0.000008,
2206,2293,-1.07728377797129,-7.68113718451115,0.00735524512003849,0.005787,-0.000298,-0.000047,0.265582,0.016249,326.776273,23.937593,0.999322,0.984330,0.004833,0.376294,-0.000015,-0.000007,0.000001,-0.000007,-0.000015,85.018408,0.000023,
2401,3253,2.98863393309142,13.2290989338288,0.0129027824095829,0.005521,-0.000226,0.004730,0.237069,0.026383,310.996173,26.026596,0.999458,0.991498,0.003637,0.416453,0.000003,0.000046,0.000015,0.000050,-0.000002,73.029998,0.000057,
2026,3118,-5.12126396178606,10.2700505253473,0.0285643405186988,0.005447,-0.000368,0.004696,0.238572,0.034818,314.357782,24.154237,0.999714,0.994528,0.003091,0.395901,-0.000008,0.000045,0.000011,0.000047,-0.000010,79.060876,0.000050,
2386,3088,2.69454686059146,9.64668542050185,0.017164657885985,0.005029,-0.000784,0.005722,0.210644,0.009389,313.700486,25.440397,0.999396,0.990258,0.003932,0.442851,0.000011,0.000018,0.000002,0.000019,0.000010,73.943359,0.000029,
2131,3223,-2.86187601841528,12.5519981414687,0.044360268417222,0.005405,-0.000562,0.005049,0.234272,0.033449,312.212561,24.532117,0.999661,0.994396,0.003053,0.468713,0.000003,0.000026,-0.000005,0.000027,0.000002,-77.615742,0.000033,
2461,2308,4.4822245394968,-7.35207644113095,0.00663489368355386,0.005406,-0.000765,0.003660,0.233469,0.012608,326.443131,22.980657,0.999051,0.977248,0.005714,0.332752,0.000007,0.000014,-0.000021,0.000032,-0.000010,-49.520173,0.000032,
2431,2098,3.86975256665523,-11.9558113992942,0.0217794538566523,0.005284,-0.000680,0.005903,0.219670,0.032672,329.889306,22.440065,0.999462,0.980943,0.005744,0.277653,-0.000010,-0.000016,-0.000002,-0.000010,-0.000016,-13.519184,0.000026,
2101,3148,-3.50027554431552,10.9245797499155,0.0375350844531113,0.005310,-0.000260,0.005040,0.230181,0.017671,313.515598,24.388544,0.999878,0.996628,0.002624,0.445421,-0.000003,0.000017,0.000004,0.000018,-0.000004,78.096999,0.000019,
2236,2443,-0.451353362685442,-4.40062119170988,-0.00283502990379247,0.005299,-0.001101,0.008240,0.216276,0.005096,324.146983,24.130908,0.999675,0.991318,0.003946,0.278143,-0.000018,-0.000019,-0.000007,-0.000011,-0.000025,-43.305880,0.000037,
2191,2188,-1.38688231393368,-9.97957379366456,0.0144193700649566,0.005185,-0.000579,0.003483,0.226699,0.029599,328.529886,23.899428,0.998635,0.978294,0.005676,0.370957,-0.000007,0.000008,0.000009,0.000012,-0.000011,64.012158,0.000014,
2071,3043,-4.13518217046541,8.64745261741865,0.0139582126358277,0.005285,-0.000784,0.004608,0.230496,0.012514,315.186429,24.321237,0.999535,0.993114,0.003377,0.407761,-0.000009,0.000011,-0.000005,0.000012,-0.000010,-76.872140,0.000013,
2161,2068,-2.02036504550314,-12.610824161762,0.027425640912611,0.005253,-0.000882,0.003759,0.228978,0.013869,330.666167,23.920698,0.999382,0.984942,0.004898,0.382815,-0.000008,-0.000031,0.000025,0.000008,-0.000047,32.217130,0.000050,
2056,3118,-4.47116163379284,10.2715530915347,0.0331744049066174,0.005361,-0.000680,0.007466,0.226278,0.030126,314.203639,24.238100,0.999549,0.993379,0.003214,0.427525,-0.000006,0.000032,-0.000003,0.000032,-0.000006,-86.037542,0.000034,
2011,3103,-5.44358617287788,9.94251636042567,0.0369669017061369,0.005349,-0.000858,0.005502,0.231928,0.025474,314.763443,24.050208,0.999534,0.994481,0.003161,0.443261,-0.000004,0.000033,0.000020,0.000042,-0.000013,66.357936,0.000043,
2176,2158,-1.71199288744716,-10.6308078178222,-0.0267004233829198,0.005083,-0.000468,0.005484,0.216019,0.043101,328.704175,24.012681,0.999387,0.959057,0.006930,0.319917,0.000001,-0.000024,0.000010,0.000004,-0.000027,19.468312,0.000030,
2131,2038,-2.67050404587013,-13.2667161837773,0.013981953440009,0.005466,-0.000656,0.002072,0.244146,0.005842,331.163681,24.076258,0.999152,0.983970,0.005340,0.390218,-0.000023,-0.000053,0.000010,-0.000020,-0.000056,17.320328,0.000078,
2491,2488,5.10037032589858,-3.41467034039069,0.00124189952089182,0.005690,-0.000577,0.002586,0.250631,0.022092,323.572506,23.509475,0.999575,0.985345,0.004477,0.419234,0.000018,-0.000035,0.000000,0.000018,-0.000035,-0.296337,0.000035,
2251,2473,-0.129456658946676,-3.74765992762255,0.0032324416719689,0.005120,-0.000807,0.005230,0.217750,0.006899,323.684927,23.979259,0.999657,0.990786,0.003985,0.441405,-0.000007,-0.000015,0.000009,-0.000001,-0.000021,32.679864,0.000025,
2311,2788,1.11931934536837,3.12128783064544,-0.00517511227764089,0.005466,-0.000892,0.004939,0.234145,0.002425,318.439686,24.482143,0.999680,0.994321,0.003377,0.482742,-0.000006,0.000021,0.000014,0.000027,-0.000012,66.413566,0.000027,
2296,2713,0.804418535625693,1.49078688581924,-0.0324875822028616,0.005238,-0.000494,0.006121,0.219961,0.031930,319.429543,24.364866,0.999761,0.993039,0.003512,0.468163,-0.000012,0.000016,0.000004,0.000017,-0.000012,81.927897,0.000017,
2326,2863,1.43091309787336,4.75533338153292,-0.0144328348864065,0.005308,-0.000631,0.003265,0.232674,0.005488,317.128965,24.715678,0.999699,0.992108,0.003667,0.434823,-0.000007,0.000018,0.000005,0.000019,-0.000008,78.086486,0.000019,
2086,3208,-3.83419838912145,12.2231540699122,0.0470928330079232,0.005507,-0.000376,0.002819,0.246018,0.018310,312.706215,24.335364,0.999560,0.993954,0.003177,0.425887,0.000001,0.000029,-0.000017,0.000037,-0.000007,-64.794438,0.000040,
2341,2923,1.74631899120643,6.06158713690468,-0.00889063185150007,0.005556,-0.000550,0.005663,0.235697,0.027968,316.193885,24.957489,0.999176,0.989149,0.004114,0.383081,-0.000006,0.000006,-0.000001,0.000006,-0.000006,-86.576068,0.000007,
2506,2743,5.37155879432683,2.15435396546661,-0.0280638913128541,0.005092,-0.000695,0.005443,0.212368,0.023747,319.180656,24.603636,0.999731,0.989852,0.003861,0.344248,-0.000015,0.000008,-0.000005,0.000009,-0.000016,-79.274179,0.000016,
2461,2323,4.47898463541434,-7.02482698357148,0.00599157686906437,0.005353,-0.000949,0.004985,0.226021,0.002675,326.188057,22.936311,0.999069,0.978783,0.005517,0.423786,0.000001,0.000014,-0.000015,0.000023,-0.000009,-56.636848,0.000023,
2041,3058,-4.78697234973467,8.9695678935644,0.0278340781003408,0.005532,-0.000697,0.007430,0.234507,0.036371,315.233900,24.176063,0.999699,0.994378,0.003146,0.470081,-0.000015,0.000017,-0.000008,0.000019,-0.000017,-77.402518,0.000021,
2026,3133,-5.12326712006257,10.5948903182214,0.0311577051924701,0.005530,-0.000240,0.003204,0.246519,0.029505,314.142739,24.141111,0.999645,0.993871,0.003224,0.392946,-0.000004,0.000056,0.000007,0.000057,-0.000005,83.109880,0.000063,
2476,2518,4.76581893805104,-2.75948305372133,-0.00397223494064747,0.005144,-0.000898,0.004176,0.219591,-0.005851,322.970684,23.644450,0.999329,0.984867,0.004605,0.405547,0.000029,-0.000026,-0.000012,0.000032,-0.000028,-11.691937,0.000035,
2446,2158,4.18562467167693,-10.6411584108504,0.0225484438986996,0.005201,-0.000822,0.006227,0.214489,0.007604,328.951107,22.467090,0.999316,0.978932,0.005563,0.354883,0.000015,-0.000015,-0.000009,0.000018,-0.000017,-15.211656,0.000020,
2131,3238,-2.86491783426959,12.8777407992314,0.0349757811734435,0.005441,-0.000535,0.004354,0.237975,0.015474,311.892022,24.573987,0.999666,0.994350,0.002939,0.413217,0.000005,0.000026,-0.000007,0.000028,0.000003,-73.246291,0.000035,
2101,3163,-3.50313204776401,11.2499832272226,0.0325951757882876,0.005210,-0.000508,0.004836,0.226122,0.008078,313.225130,24.394961,0.999769,0.995243,0.002917,0.429577,-0.000004,0.000031,0.000001,0.000031,-0.000004,87.680338,0.000034,
2386,3103,2.69225942502106,9.97188650608788,0.0210474021921527,0.005253,-0.000839,0.004661,0.224780,0.011815,313.501701,25.460912,0.999117,0.988453,0.004180,0.467064,0.000014,0.000024,0.000004,0.000025,0.000013,70.106228,0.000039,
2206,2308,-1.07976473582958,-7.35350102569191,0.00651783717489707,0.005681,0.000048,-0.003360,0.271357,0.026186,326.533348,23.898333,0.999089,0.984435,0.004826,0.444674,-0.000020,-0.000011,0.000001,-0.000011,-0.000020,83.508337,0.000031,
2011,3118,-5.44602486280695,10.2683303197424,0.0320702919304381,0.005565,-0.000519,0.006491,0.239272,0.031937,314.484892,24.063833,0.999638,0.995021,0.003013,0.423274,-0.000003,0.000054,0.000017,0.000059,-0.000007,74.509407,0.000064,
2401,3268,2.98419783388974,13.5555644643105,-0.00521235700341549,0.005330,-0.000117,0.003208,0.233893,0.035023,310.594014,26.076410,0.999636,0.991643,0.003644,0.419417,0.000000,0.000038,0.000016,0.000044,-0.000006,69.526172,0.000048,
2161,2083,-2.02258614120627,-12.2800000469806,0.0254814357884925,0.005323,0.000257,-0.000630,0.246020,0.031678,330.425114,24.069873,0.999330,0.983774,0.005085,0.264681,-0.000005,-0.000022,0.000023,0.000011,-0.000038,34.539982,0.000039,
2356,2953,2.06648740119102,6.71411674248807,-0.00931667084944365,0.005230,-0.000708,0.004793,0.223492,0.007950,315.687726,25.030100,0.999377,0.989490,0.003978,0.398220,-0.000005,0.000009,-0.000004,0.000010,-0.000006,-76.008433,0.000010,
2236,2458,-0.454024508420115,-4.07387725813398,-0.00166146126133526,0.005002,-0.000961,0.006052,0.209777,0.006023,323.908046,24.089576,0.999514,0.989475,0.004255,0.343070,-0.000015,-0.000016,-0.000001,-0.000014,-0.000017,-26.374675,0.000031,
2431,2113,3.86738131729316,-11.6285557720082,0.0278103291934144,0.005341,-0.000675,0.005296,0.224528,0.020128,329.703327,22.396139,0.999405,0.979474,0.005788,0.361751,-0.000013,-0.000017,-0.000005,-0.000010,-0.000020,-33.590186,0.000031,
2056,3133,-4.47350511519769,10.596647354764,0.0294695450533027,0.005440,-0.000502,0.004478,0.238344,0.013475,313.940004,24.221422,0.999178,0.992894,0.003337,0.421287,-0.000003,0.000035,-0.000006,0.000036,-0.000004,-81.880265,0.000039,
2071,3058,-4.13714849426774,8.97251769913231,0.012993994997089,0.005604,-0.000427,0.001958,0.252853,0.005766,314.956251,24.290361,0.999268,0.992297,0.003542,0.427912,-0.000007,0.000016,-0.000006,0.000017,-0.000008,-76.435041,0.000017,
2191,2203,-1.38948220141879,-9.650910149499,0.00995201251060962,0.005355,-0.000387,0.002750,0.236868,0.035556,328.261410,23.882525,0.998629,0.979395,0.005652,0.411338,-0.000006,0.000017,0.000007,0.000019,-0.000008,74.430904,0.000019,
2221,2368,-0.764963018223153,-6.04033087175033,-0.000460126259326898,0.005177,-0.001315,0.007304,0.213841,0.019587,325.410865,23.983392,0.999593,0.989180,0.004285,0.377245,-0.000021,-0.000013,0.000000,-0.000013,-0.000021,-89.956021,0.000035,
2371,3058,2.3739897933312,8.9950859307928,0.0152455157152076,0.005253,-0.001111,0.010701,0.203339,0.023840,314.160196,25.371485,0.999648,0.993253,0.003375,0.390200,0.000000,0.000010,0.000001,0.000010,0.000000,86.124220,0.000011,
2176,2173,-1.71684309653892,-10.2971617974265,-0.062702511529551,0.005002,-0.000259,0.002876,0.220478,0.047694,328.166127,24.109252,0.999817,0.925069,0.008957,0.244629,-0.000001,-0.000009,0.000011,0.000006,-0.000017,35.128748,0.000017,
2491,2503,5.09631591734511,-3.08645047078657,-0.00306384292423445,0.005168,-0.000676,0.003576,0.222898,0.013386,323.264909,23.580659,0.999510,0.986073,0.004551,0.399538,0.000023,-0.000036,-0.000008,0.000024,-0.000037,-7.160393,0.000038,
2506,2758,5.36803932530383,2.48009279268033,-0.0299270882458131,0.004927,-0.001042,0.006615,0.200116,0.006340,318.908764,24.561737,0.999765,0.990783,0.003676,0.430182,-0.000012,-0.000009,-0.000019,0.000009,-0.000030,-47.115443,0.000030,
2086,3223,-3.83677079680846,12.5479300720168,0.0509533781852838,0.005235,-0.000391,0.004493,0.228594,0.018577,312.475920,24.340125,0.999504,0.993181,0.003429,0.418855,0.000006,0.000030,-0.000016,0.000038,-0.000002,-63.774927,0.000043,
2266,2608,0.171639683526713,-0.799355850797468,-0.0191174786598935,0.005386,-0.000908,0.007183,0.223462,0.016254,321.289833,24.214444,0.999214,0.987385,0.004481,0.419705,-0.000012,-0.000011,0.000006,-0.000005,-0.000018,45.108282,0.000024,
2296,2728,0.802208044865736,1.81705444099644,-0.0248391006645647,0.005182,-0.000528,0.005871,0.218236,0.032150,319.247913,24.418840,0.999607,0.991386,0.003748,0.444352,-0.000013,0.000011,0.000006,0.000013,-0.000014,76.309344,0.000016,
2131,2053,-2.6728483430493,-12.9376209701026,0.0203452789045286,0.005223,-0.000750,0.004044,0.227168,0.002381,330.958766,24.171005,0.998751,0.980168,0.005541,0.300880,-0.000024,-0.000056,0.000008,-0.000022,-0.000058,13.531397,0.000082,
2476,2533,4.76250260572192,-2.43090051302759,-0.0102148251153835,0.005258,-0.000593,0.002379,0.231790,0.000740,322.686571,23.726661,0.999637,0.988355,0.004046,0.387973,0.000033,-0.000017,0.000003,0.000033,-0.000017,3.083969,0.000033,
2251,2488,-0.132161947762182,-3.41959559448885,-0.00493458233717092,0.005528,-0.000534,0.003572,0.242012,0.008077,323.398094,23.982490,0.999614,0.989801,0.003957,0.464122,-0.000009,-0.000015,0.000005,-0.000006,-0.000018,29.864375,0.000025,
2281,2638,0.493055880745878,-0.144924647463462,-0.017707228346751,0.005397,-0.000516,0.003870,0.234943,0.022444,320.804407,24.259742,0.999265,0.985827,0.004447,0.422245,-0.000006,0.000002,0.000008,0.000007,-0.000011,57.751619,0.000011,
2041,3073,-4.78919263205501,9.29485238974467,0.0265033021884733,0.005609,-0.000378,0.005309,0.244122,0.047771,314.987772,24.147389,0.999416,0.992326,0.003694,0.501849,-0.000014,0.000019,-0.000003,0.000019,-0.000015,-84.594624,0.000020,
2026,3148,-5.12529564077493,10.9189346814422,0.0372216448357676,0.005457,-0.000329,0.002984,0.243762,0.028803,313.946296,24.074786,0.999668,0.994882,0.003044,0.447459,0.000001,0.000044,0.000002,0.000044,0.000001,87.781855,0.000052,
2341,2938,1.74402602521532,6.38656230402596,-0.00462965391375292,0.005673,-0.000668,0.004558,0.244891,0.015747,315.994444,24.933770,0.999133,0.988400,0.004168,0.430437,-0.000005,0.000012,-0.000004,0.000013,-0.000006,-77.563944,0.000013,
2011,3133,-5.44851307456537,10.5936586218623,0.0288701221019778,0.005512,-0.000489,0.005436,0.239773,0.039520,314.213825,24.046692,0.999648,0.994061,0.003161,0.434981,0.000001,0.000067,0.000012,0.000069,-0.000001,80.268612,0.000078,
2056,3148,-4.47530304041374,10.9211889017759,0.0375652064654446,0.005409,-0.000461,0.002606,0.242255,0.015836,313.766847,24.210935,0.999513,0.993838,0.003189,0.427615,0.000001,0.000028,-0.000012,0.000032,-0.000004,-69.227067,0.000035,
2431,2128,3.8649842127285,-11.3002788855035,0.0378391891575802,0.005091,-0.000384,0.005106,0.213969,0.034634,329.534363,22.466217,0.999536,0.980369,0.005866,0.358712,-0.000012,-0.000020,-0.000004,-0.000010,-0.000022,-24.588721,0.000033,
2131,3253,-2.8676182693483,13.2027378497193,0.0325748801776058,0.005383,-0.000500,0.003960,0.236490,0.014914,311.624867,24.573798,0.999705,0.994843,0.002879,0.416970,0.000008,0.000029,-0.000005,0.000030,0.000007,-76.168077,0.000039,
2311,2803,1.11535832920464,3.44988812044562,-0.0191818427442172,0.005160,-0.000509,0.002724,0.227873,0.022071,318.071063,24.582827,0.999473,0.991662,0.003775,0.433997,-0.000004,0.000016,0.000012,0.000022,-0.000010,64.271299,0.000022,
2326,2878,1.42843291345299,5.08138907919863,-0.0102982396144284,0.005346,-0.000478,0.003730,0.232898,0.018520,316.919162,24.749605,0.999517,0.990898,0.003861,0.448217,-0.000009,0.000013,0.000005,0.000014,-0.000011,76.950294,0.000015,
2446,2173,4.18367016796406,-10.3118557642089,0.0258043904994452,0.005793,-0.000669,0.003762,0.250805,0.003590,328.772105,22.591841,0.999599,0.983705,0.004855,0.280679,0.000007,-0.000013,-0.000014,0.000014,-0.000020,-26.758916,0.000021,
2071,3073,-4.13949665485323,9.29759422970807,0.0179762602500091,0.005434,-0.000476,0.003480,0.240753,0.025300,314.741189,24.276761,0.999375,0.991587,0.003671,0.456889,-0.000008,0.000019,-0.000004,0.000019,-0.000009,-82.672997,0.000019,
2161,2098,-2.02515661473095,-11.9523955199915,0.0281839349753454,0.005300,-0.000297,0.003651,0.231732,0.042393,330.192974,23.989393,0.999580,0.984319,0.004979,0.369133,-0.000002,-0.000013,0.000023,0.000016,-0.000031,38.609601,0.000031,
2461,2338,4.47582858102995,-6.69578965046644,0.00600714672651748,0.005200,-0.000844,0.004564,0.220682,0.018531,325.939427,23.041479,0.998960,0.977836,0.005559,0.390629,0.000007,0.000018,-0.000015,0.000028,-0.000004,-55.108386,0.000030,
2386,3118,2.68934064514716,10.2980317637591,0.0237401765662639,0.005187,-0.000802,0.006724,0.214365,0.015623,313.267820,25.563206,0.999577,0.992265,0.003519,0.410714,0.000015,0.000028,0.000008,0.000033,0.000011,63.845726,0.000046,
2101,3178,-3.50565100755339,11.5745321956431,0.0283265056617665,0.005384,-0.000591,0.004311,0.235714,0.007219,312.954118,24.322466,0.999832,0.995815,0.002722,0.501194,-0.000004,0.000035,-0.000002,0.000035,-0.000004,-87.286391,0.000039,
2401,3283,2.98101922953053,13.880898318459,-0.0141227017844585,0.005656,-0.000094,0.001596,0.254736,0.017516,310.293687,26.104062,0.999684,0.991463,0.003682,0.418285,-0.000001,0.000029,0.000018,0.000037,-0.000009,65.019311,0.000039,
2086,3238,-3.83973716737433,12.8732176468174,0.0448089524862212,0.005257,-0.000570,0.007048,0.222343,0.038783,312.172683,24.318878,0.999628,0.993886,0.003193,0.458066,0.000009,0.000026,-0.000018,0.000037,-0.000003,-57.366101,0.000042,
2491,2518,5.09263896967855,-2.75915667966991,-0.00702215606168011,0.005171,-0.000978,0.006745,0.210777,-0.000886,322.976286,23.580992,0.999451,0.986416,0.004459,0.445163,0.000026,-0.000025,-0.000007,0.000027,-0.000026,-7.887469,0.000030,
2206,2323,-1.08254682538932,-7.02561454229111,0.00851066585153148,0.005691,-0.000246,0.002079,0.254517,0.023490,326.291200,23.927872,0.999086,0.985020,0.004656,0.431115,-0.000018,-0.000010,0.000001,-0.000010,-0.000018,79.534114,0.000028,
2236,2473,-0.45647105350692,-3.74773705443921,0.0001759112885793,0.004954,-0.000633,0.004935,0.211332,0.019220,323.682842,23.991519,0.999485,0.990570,0.004109,0.476633,-0.000010,-0.000018,0.000007,-0.000006,-0.000022,30.794561,0.000030,
2356,2968,2.06378427262664,7.04059615786405,-0.00623411736188473,0.005080,-0.000566,0.004006,0.219488,0.028465,315.464108,25.112102,0.999608,0.991368,0.003667,0.374914,-0.000004,0.000012,-0.000002,0.000013,-0.000004,-83.942978,0.000013,
2506,2773,5.36569210591916,2.80662750149547,-0.0286335713128665,0.005221,-0.000708,0.002501,0.229717,0.012185,318.704630,24.599041,0.999720,0.991078,0.003728,0.459895,-0.000015,0.000000,-0.000026,0.000019,-0.000034,-53.281241,0.000034,
2026,3163,-5.12745059619834,11.2438978189669,0.0404415633980193,0.005485,-0.000464,0.003637,0.243204,0.023294,313.727812,24.083758,0.999544,0.994227,0.003278,0.422125,0.000001,0.000065,-0.000007,0.000065,0.000000,-84.050283,0.000075,
2476,2548,4.75969796697616,-2.10374739810114,-0.0115802949261479,0.005508,-0.000448,0.001047,0.248415,0.011513,322.448212,23.722486,0.999608,0.987786,0.004217,0.460432,0.000031,-0.000011,0.000002,0.000031,-0.000011,2.218196,0.000032,
2221,2383,-0.767498935917871,-5.71294395965883,-0.00436816244251759,0.005275,-0.000752,0.004202,0.228480,0.017292,325.150957,23.930345,0.999498,0.988526,0.004315,0.448734,-0.000022,-0.000007,-0.000004,-0.000007,-0.000023,-76.284468,0.000031,
2281,2653,0.490397808533974,0.181891462999246,-0.0189522646214186,0.005377,-0.000491,0.001661,0.241429,0.013591,320.557046,24.277114,0.999438,0.988688,0.004147,0.424378,-0.000008,0.000008,0.000008,0.000012,-0.000012,67.265112,0.000014,
2191,2218,-1.39171058761407,-9.32277924305942,0.0119524206993447,0.005542,-0.000407,0.003299,0.243775,0.014721,328.043616,23.916757,0.998591,0.981266,0.005628,0.373208,-0.000007,0.000021,0.000002,0.000021,-0.000007,85.254437,0.000021,
2461,2353,4.47181180241325,-6.36674685973652,0.000260695462145577,0.004977,-0.001052,0.007974,0.197571,0.028563,325.624955,23.101833,0.999170,0.982087,0.005364,0.397146,0.000015,0.000019,-0.000011,0.000028,0.000006,-50.198832,0.000037,
2011,3148,-5.45091284287918,10.9176784980991,0.0327195260019266,0.005152,-0.000617,0.004732,0.224975,0.022676,313.987071,23.980573,0.999645,0.993878,0.003282,0.471308,0.000005,0.000049,0.000003,0.000050,0.000005,86.738475,0.000060,
2371,3073,2.37173037197011,9.32095160358386,0.0125585445690604,0.005418,-0.000242,0.002251,0.241380,0.032664,313.930148,25.397122,0.999561,0.991968,0.003618,0.413730,0.000003,0.000015,0.000001,0.000015,0.000003,86.136933,0.000020,
2266,2623,0.168810279194169,-0.473095298169419,-0.0162648289750678,0.005166,-0.001432,0.009052,0.206961,-0.002286,321.054205,24.215881,0.999305,0.988012,0.004381,0.425742,-0.000012,-0.000004,0.000007,0.000000,-0.000015,60.118908,0.000018,
2176,2188,-1.714673536937,-9.97832665404256,0.00385509958823604,0.005006,-0.000469,0.001419,0.225087,0.009013,328.486419,23.986935,0.999172,0.948024,0.007517,0.340370,-0.000001,0.000002,0.000012,0.000012,-0.000011,49.706808,0.000014,
2041,3088,-4.79212394765893,9.62141927859354,0.0157181169584533,0.005402,-0.000382,0.000669,0.247418,0.011035,314.656043,24.228814,0.999619,0.994068,0.003192,0.374926,-0.000010,0.000016,-0.000003,0.000016,-0.000011,-82.498690,0.000017,
2131,2068,-2.67462909482745,-12.6095363991452,0.0299502593325087,0.005298,-0.000741,0.005574,0.226037,0.033317,330.796778,24.179812,0.998203,0.975558,0.006062,0.331538,-0.000022,-0.000046,0.000011,-0.000018,-0.000050,21.444004,0.000071,
2401,3298,2.97753040085606,14.2056972689966,-0.019198281053832,0.005676,-0.000311,0.003868,0.247372,0.022226,309.997339,26.085733,0.999723,0.992854,0.003464,0.485353,0.000001,0.000015,0.000020,0.000029,-0.000014,54.734400,0.000029,
2446,2188,4.179977219655,-9.98298798605751,0.0261538868286948,0.005166,-0.000419,0.004852,0.218171,0.043908,328.499813,22.607093,0.999632,0.985716,0.004718,0.360866,0.000009,-0.000025,-0.000019,0.000017,-0.000033,-24.261921,0.000033,
2311,2818,1.11273165916168,3.77688535844143,-0.0188979579938291,0.005249,-0.000240,0.002275,0.233539,0.012379,317.834535,24.680542,0.999564,0.989880,0.003934,0.358666,-0.000009,0.000015,0.000013,0.000021,-0.000014,66.484651,0.000022,
2341,2953,1.74139119381641,6.71250658220049,-0.000739423531342709,0.005550,-0.000694,0.004354,0.239937,0.012277,315.777145,24.991572,0.999360,0.991088,0.003781,0.405407,-0.000002,0.000011,-0.000004,0.000012,-0.000004,-73.950389,0.000012,
2056,3163,-4.47757913302916,11.2461782171508,0.0404422545813077,0.005566,-0.000655,0.006293,0.239004,0.008887,313.542761,24.222402,0.999547,0.992575,0.003424,0.402594,0.000001,0.000046,-0.000017,0.000051,-0.000005,-71.386462,0.000057,
2251,2503,-0.135564540807135,-3.09036632791711,-0.0099186615991016,0.005212,-0.000345,0.004591,0.224274,0.029824,323.095007,24.106955,0.999493,0.989024,0.004192,0.386030,-0.000013,-0.000011,0.000005,-0.000007,-0.000017,48.192995,0.000025,
2431,2143,3.86047594120963,-10.9695955775943,0.0224164891100713,0.005033,-0.000992,0.007706,0.201486,0.020695,329.150866,22.515030,0.999341,0.979607,0.005648,0.349571,-0.000009,-0.000004,-0.000006,0.000000,-0.000013,-57.274560,0.000015,
2296,2743,0.800812486316087,2.1431317847418,-0.0208233822944521,0.005927,-0.000351,0.001828,0.266240,0.019044,319.085750,24.442988,0.999413,0.990157,0.003997,0.437312,-0.000010,0.000012,0.000006,0.000014,-0.000012,75.396578,0.000015,
2506,2788,5.36310924720835,3.13359474891533,-0.0242810029068323,0.005499,-0.000532,0.003995,0.236765,0.017433,318.503147,24.704814,0.999543,0.990361,0.003981,0.420367,-0.000021,0.000002,-0.000027,0.000021,-0.000039,-56.392704,0.000039,
2026,3178,-5.1295844692194,11.5682402048478,0.0465270000941587,0.005397,-0.000607,0.004862,0.235808,0.028127,313.526607,24.045678,0.999617,0.993704,0.003264,0.453986,-0.000003,0.000073,-0.000014,0.000075,-0.000006,-79.831146,0.000084,
2086,3253,-3.84206880007865,13.197671737623,0.0494029946798378,0.005149,-0.000580,0.008177,0.213997,0.027669,311.957607,24.316474,0.999740,0.994625,0.003035,0.446946,0.000014,0.000029,-0.000019,0.000042,0.000001,-56.100947,0.000049,
2131,3268,-2.87082109510994,13.5279034941251,0.0265310071039835,0.005270,-0.000768,0.006743,0.222845,0.004536,311.315022,24.582965,0.999716,0.995141,0.002845,0.401295,0.000013,0.000034,-0.000001,0.000034,0.000013,-87.093681,0.000048,
2356,2983,2.06158892204064,7.36587809847871,-0.000872307083454871,0.005375,-0.000532,0.004748,0.230409,0.013793,315.275196,25.138249,0.999532,0.988769,0.004058,0.372277,-0.000005,0.000004,-0.000003,0.000005,-0.000006,-74.703050,0.000007,
2071,3088,-4.14225682450648,9.62261113052263,0.0182464506896736,0.005106,-0.000571,0.004326,0.223175,0.024912,314.481411,24.250910,0.999336,0.990660,0.003800,0.478229,-0.000010,0.000017,-0.000004,0.000017,-0.000010,-80.935546,0.000017,
2326,2893,1.42578071163202,5.40793776128827,-0.0134206712172045,0.005492,-0.000443,0.000615,0.250414,0.009757,316.665798,24.801613,0.999268,0.990197,0.003982,0.421505,-0.000008,0.000012,0.000008,0.000015,-0.000011,70.616419,0.000015,
2461,2368,4.47012144732358,-6.03850546925693,0.00536770349629023,0.005479,-0.000375,0.002905,0.239921,0.032263,325.466814,23.206074,0.999575,0.986729,0.004957,0.352420,0.000020,0.000019,-0.000006,0.000025,0.000014,-43.869774,0.000040,
2041,3103,-4.79432512153907,9.94592645482801,0.0227532657607412,0.005173,-0.000163,0.001495,0.234652,0.030454,314.457623,24.182184,0.999662,0.994418,0.003098,0.432457,-0.000008,0.000022,0.000001,0.000022,-0.000008,88.382132,0.000022,
2206,2338,-1.0861369392428,-6.69653441628324,0.00636154936239564,0.005115,-0.000562,0.006464,0.214162,0.029651,325.990451,24.021877,0.999518,0.988710,0.004296,0.361873,-0.000021,-0.000010,-0.000002,-0.000009,-0.000021,-80.133041,0.000031,
2416,1993,3.56505986521137,-14.264308800619,0.0413961509528917,0.005485,0.000274,-0.003479,0.263535,0.012433,331.765750,22.141779,0.999097,0.975488,0.006096,0.287292,-0.000039,-0.000082,0.000016,-0.000034,-0.000087,18.443715,0.000125,
2491,2533,5.08969006569719,-2.4308961567983,-0.00973970915970312,0.005354,-0.000602,0.004574,0.227652,0.008635,322.726375,23.662576,0.999671,0.989488,0.003932,0.433140,0.000030,-0.000016,0.000009,0.000032,-0.000018,10.581692,0.000032,
2191,2233,-1.39423082350359,-8.99362729545431,0.00862951507599519,0.005518,0.000081,-0.000379,0.254350,0.033736,327.784524,23.954501,0.998737,0.982613,0.005375,0.371354,-0.000013,0.000020,0.000001,0.000020,-0.000013,88.765307,0.000020,
2236,2488,-0.459649014879947,-3.41861826093665,-0.0119099657994184,0.005252,-0.000878,0.004815,0.225347,0.005666,323.352746,24.070211,0.999497,0.988893,0.004175,0.407079,-0.000011,-0.000018,0.000004,-0.000009,-0.000020,26.355536,0.000029,
2161,2113,-2.02774647616087,-11.6229354447453,0.0219318997185383,0.005470,-0.000166,0.001998,0.244652,0.038203,329.912778,24.000495,0.999342,0.982449,0.005228,0.367127,0.000003,-0.000007,0.000022,0.000020,-0.000025,38.563723,0.000026,
2386,3133,2.68722446408376,10.623568567072,0.0298907971860558,0.005414,-0.000473,0.005779,0.228358,0.029413,313.087499,25.624135,0.999700,0.993297,0.003367,0.405804,0.000019,0.000029,0.000009,0.000035,0.000013,60.119309,0.000049,
2506,2803,5.35938833668286,3.46090938124841,-0.0275143904843844,0.005270,-0.000475,0.005337,0.221108,0.023307,318.215193,24.787572,0.999139,0.986942,0.004771,0.404574,-0.000026,0.000011,-0.000020,0.000020,-0.000035,-66.411141,0.000035,
2281,2668,0.487869693492943,0.509993266463141,-0.0189161101771447,0.005642,-0.000454,0.002742,0.249999,0.007761,320.321680,24.424886,0.999638,0.991143,0.003947,0.298883,-0.000008,0.000014,0.000002,0.000015,-0.000008,85.353928,0.000015,
2131,2083,-2.67808430114948,-12.2795187477519,0.0158955274260393,0.005253,-0.000969,0.007086,0.219409,0.020053,330.432584,24.152639,0.998740,0.978962,0.005646,0.355161,-0.000020,-0.000035,0.000010,-0.000016,-0.000040,26.370616,0.000058,
2101,3193,-3.5077497868202,11.8999035698771,0.0386012545863537,0.005166,-0.000305,0.005537,0.222156,0.024294,312.780999,24.397488,0.999651,0.994370,0.003079,0.443063,-0.000003,0.000029,-0.000006,0.000030,-0.000004,-79.464871,0.000033,
2476,2563,4.75576501150229,-1.77472193741679,-0.0184775797499697,0.005348,-0.000264,0.002668,0.235022,0.034857,322.132473,23.833976,0.998713,0.982816,0.005159,0.430208,0.000031,0.000003,0.000004,0.000032,0.000003,8.248700,0.000038,
2011,3163,-5.45270665709382,11.2426826911428,0.0418242740880714,0.005068,-0.000470,0.003661,0.224047,0.016988,313.817345,24.028714,0.999487,0.994075,0.003342,0.403913,0.000001,0.000071,-0.000010,0.000072,0.000000,-81.617520,0.000084,
2026,3193,-5.13180139930448,11.8933453507215,0.0482794940509734,0.005406,-0.000443,0.004693,0.236816,0.046254,313.297057,24.042164,0.999589,0.993152,0.003312,0.464565,-0.000007,0.000064,-0.000026,0.000072,-0.000016,-72.061425,0.000076,
2056,3178,-4.47977219501763,11.5707078924458,0.0475702062201435,0.005362,-0.000578,0.007002,0.227736,0.029536,313.346176,24.192725,0.999643,0.994195,0.003141,0.446212,0.000000,0.000052,-0.000021,0.000059,-0.000007,-70.340990,0.000065,
2446,2203,4.1762754910822,-9.65405864642041,0.0188967350460985,0.004991,-0.000350,0.003985,0.213440,0.042963,328.192325,22.594733,0.999624,0.984719,0.004847,0.427509,0.000006,-0.000021,-0.000016,0.000014,-0.000029,-25.461496,0.000029,
2221,2398,-0.769611233122028,-5.38378541918382,-0.00353247103157628,0.005521,-0.000284,0.001678,0.248041,0.024717,324.934302,24.080512,0.999680,0.990916,0.003872,0.326536,-0.000022,0.000005,-0.000004,0.000005,-0.000022,-82.677761,0.000023,
2086,3268,-3.84460795327739,13.5234598292523,0.0364603430531929,0.005592,-0.000240,0.003757,0.247350,0.027164,311.636642,24.332867,0.999712,0.995402,0.002914,0.427758,0.000020,0.000029,-0.000017,0.000042,0.000007,-52.517206,0.000053,
2131,3283,-2.87364395193321,13.8531878839166,0.0192211942681411,0.005372,-0.000447,0.005718,0.230796,0.019619,311.015783,24.575320,0.999708,0.995157,0.002935,0.428524,0.000018,0.000046,0.000005,0.000047,0.000017,80.316113,0.000066,
2371,3088,2.36891249748028,9.6458911175068,0.0187223404207657,0.005152,-0.000424,0.004259,0.221872,0.024584,313.717088,25.415049,0.999391,0.990143,0.003974,0.427689,0.000006,0.000015,-0.000004,0.000017,0.000004,-70.853236,0.000022,
2431,2158,3.85885099209717,-10.642661817226,0.0286979363336854,0.005230,-0.000471,-0.000105,0.239506,-0.014172,329.000216,22.481294,0.999297,0.978943,0.005652,0.400675,-0.000010,-0.000013,-0.000015,0.000004,-0.000027,-42.002364,0.000030,
2416,2008,3.56194850604193,-13.9376395851165,0.049444235859653,0.005244,-0.000999,0.003759,0.225630,0.006491,331.554597,22.024123,0.999010,0.974074,0.006234,0.450273,-0.000012,-0.000062,0.000007,-0.000011,-0.000063,7.829619,0.000079,
2041,3118,-4.79654412923799,10.2705794493426,0.0269939983248264,0.005330,-0.000449,0.006129,0.228968,0.040181,314.242832,24.144198,0.999701,0.994690,0.002985,0.471419,-0.000010,0.000037,-0.000002,0.000037,-0.000010,-87.601982,0.000038,
2296,2758,0.797512285745388,2.46976343079299,-0.0259512185892845,0.005686,-0.000560,0.001012,0.257862,0.005593,318.790616,24.450412,0.999411,0.990207,0.004008,0.446573,-0.000008,0.000019,0.000009,0.000021,-0.000011,73.264228,0.000021,
2311,2833,1.11059328085101,4.10275052318885,-0.0101751359847526,0.005111,-0.000305,0.000711,0.232567,0.021332,317.662235,24.723571,0.999721,0.992187,0.003639,0.356405,-0.000010,0.000022,0.000016,0.000029,-0.000017,67.158197,0.000029,
2461,2383,4.46640165097073,-5.71029309008935,0.0016827903327794,0.005315,-0.000759,0.005543,0.222344,0.030706,325.175363,23.232790,0.999602,0.986517,0.004848,0.380610,0.000020,0.000021,-0.000018,0.000038,0.000002,-45.711401,0.000046,
2176,2203,-1.71683555139034,-9.65114620956454,0.0114761573320834,0.005027,-0.000862,0.004631,0.216020,-0.005649,328.299902,23.982148,0.998452,0.976590,0.005880,0.345174,-0.000003,0.000010,0.000009,0.000015,-0.000008,62.686319,0.000015,
2026,3208,-5.13375513804178,12.2177633037235,0.0517328011560494,0.005654,-0.000649,0.005799,0.245105,0.024593,313.089429,24.028337,0.999530,0.992961,0.003356,0.445758,-0.000004,0.000057,-0.000030,0.000069,-0.000016,-67.589622,0.000072,
2251,2518,-0.138668543147585,-2.76318158552744,-0.0114047452564137,0.004840,-0.000435,0.004281,0.208168,0.018860,322.823784,24.113802,0.999250,0.986373,0.004601,0.392752,-0.000012,-0.000014,0.000005,-0.000008,-0.000017,39.862814,0.000026,
2071,3103,-4.14384883157947,9.947568128989,0.0306888180932106,0.005224,-0.000332,0.005741,0.224725,0.044670,314.342096,24.279724,0.999600,0.992505,0.003388,0.464837,-0.000006,0.000020,0.000000,0.000020,-0.000006,-89.244213,0.000020,
2506,2818,5.35678079814122,3.78783873595691,-0.0260368117082521,0.005497,-0.000276,0.003650,0.238189,0.042119,317.999526,24.862565,0.999315,0.989038,0.004280,0.409581,-0.000031,0.000009,-0.000011,0.000012,-0.000034,-75.806258,0.000035,
2266,2638,0.166227994329187,-0.145651529540679,-0.0186300920265694,0.005209,-0.000796,0.005919,0.219564,0.013025,320.803301,24.252166,0.999216,0.987377,0.004376,0.431046,-0.000013,-0.000004,0.000007,0.000000,-0.000017,61.699848,0.000020,
2131,2098,-2.67969519336895,-11.9496628371184,0.0128661772568535,0.006231,-0.000902,0.007001,0.264545,0.038021,330.211030,24.207291,0.999176,0.983464,0.004975,0.327270,-0.000017,-0.000025,0.000010,-0.000011,-0.000032,34.225884,0.000044,
2341,2968,1.73826690521597,7.0392039163537,-0.00421070135331547,0.005388,-0.000751,0.002657,0.238422,0.008124,315.501279,25.072153,0.999917,0.997681,0.002519,0.356633,-0.000001,0.000011,-0.000004,0.000012,-0.000002,-75.004549,0.000012,
2386,3148,2.68479738003608,10.9482357111766,0.0346865340227396,0.005365,-0.000634,0.003931,0.232618,0.006701,312.886655,25.636181,0.999669,0.992703,0.003396,0.413209,0.000017,0.000026,0.000010,0.000033,0.000011,57.188400,0.000045,
2476,2578,4.75275425913579,-1.44770817110266,-0.0137711661104163,0.005492,-0.001096,0.008539,0.219020,0.014509,321.912107,23.911594,0.998421,0.984110,0.005111,0.389594,0.000030,0.000016,0.000008,0.000034,0.000013,24.097889,0.000048,
2326,2908,1.42301485877418,5.73389324103189,-0.00932631706808706,0.005365,-0.000742,0.002597,0.237629,0.007271,316.442631,24.849491,0.999238,0.990153,0.004004,0.404958,-0.000006,0.000009,0.000008,0.000013,-0.000009,66.549656,0.000013,
2281,2683,0.484982255935694,0.835553447665987,-0.0183468896651107,0.005565,-0.000768,0.004755,0.239663,0.018281,320.073018,24.332155,0.999661,0.991473,0.003770,0.430467,-0.000008,0.000022,-0.000002,0.000022,-0.000008,-86.031679,0.000023,
2131,3298,-2.87564085007124,14.1777999539001,0.0187194496468805,0.005756,-0.000340,0.003150,0.256339,0.028962,310.791271,24.552569,0.999619,0.993697,0.003259,0.464744,0.000027,0.000064,0.000001,0.000064,0.000027,88.364204,0.000094,
2086,3283,-3.84748067680368,13.8479670910273,0.0399352005640026,0.005230,-0.000697,0.008266,0.217460,0.013597,311.390597,24.339115,0.999557,0.995078,0.002998,0.405235,0.000026,0.000038,-0.000014,0.000047,0.000017,-55.717202,0.000066,
2491,2548,5.08639701609048,-2.10298494905885,-0.0120039693680951,0.005253,-0.000546,0.003578,0.226886,0.016691,322.462655,23.722873,0.999650,0.988931,0.004135,0.440776,0.000031,-0.000014,0.000006,0.000032,-0.000014,7.421330,0.000032,
2191,2248,-1.39675446238544,-8.66622138156402,0.0120781011295321,0.005454,-0.000301,0.002257,0.243073,0.015437,327.560809,23.945179,0.998650,0.983585,0.005244,0.379333,-0.000011,0.000012,-0.000002,0.000012,-0.000011,-85.581615,0.000014,
2056,3193,-4.48238763059712,11.896264532305,0.0423592979798855,0.005369,-0.000518,0.005597,0.232082,0.032272,313.061607,24.205984,0.999565,0.993768,0.003213,0.429084,0.000000,0.000042,-0.000029,0.000057,-0.000014,-63.169696,0.000059,
2101,3208,-3.50948758501898,12.2251863632729,0.0432048421787954,0.005461,-0.000415,0.003445,0.241913,0.020432,312.593742,24.454668,0.999671,0.994481,0.003046,0.381896,0.000001,0.000029,-0.000005,0.000030,0.000000,-79.414332,0.000034,
2041,3133,-4.79832450305918,10.5957281690917,0.0345967203090822,0.005416,-0.000306,0.005688,0.234165,0.031046,314.066715,24.194509,0.999464,0.992924,0.003380,0.403308,-0.000007,0.000044,-0.000005,0.000045,-0.000008,-85.055149,0.000048,
2416,2023,3.55709856369712,-13.6046060700647,0.040931800075839,0.004517,-0.001467,0.009475,0.171429,0.010030,331.186240,22.294636,0.998556,0.975745,0.006157,0.235543,-0.000001,-0.000042,0.000006,-0.000001,-0.000043,7.954982,0.000050,
2431,2173,3.85574515620872,-10.312971025408,0.0296395009194157,0.005506,-0.001088,0.005676,0.230612,-0.018597,328.756529,22.616959,0.999386,0.982452,0.005059,0.313456,-0.000015,-0.000014,-0.000019,0.000004,-0.000034,-45.724868,0.000037,
2206,2353,-1.08896204808162,-6.36974703580662,0.00358117713915362,0.004951,-0.001019,0.005298,0.210194,0.005953,325.722005,23.935125,0.999646,0.989544,0.004223,0.443700,-0.000022,-0.000013,0.000000,-0.000013,-0.000022,89.245988,0.000036,
2356,2998,2.05885680513694,7.69153559648194,0.00474704538663673,0.005186,-0.000717,0.006387,0.215919,0.018778,315.062654,25.184568,0.999653,0.992141,0.003572,0.369038,-0.000007,0.000007,-0.000002,0.000007,-0.000007,-83.318634,0.000008,
2011,3178,-5.45453041026608,11.5672521915762,0.0440487180970877,0.005363,-0.000454,0.002569,0.240608,0.009646,313.607706,24.000251,0.999733,0.995518,0.002758,0.411958,-0.000001,0.000080,-0.000019,0.000084,-0.000005,-77.146031,0.000094,
2026,3223,-5.13653050899095,12.5431189798896,0.0496653556189699,0.005344,-0.000740,0.005710,0.231011,0.019970,312.812827,24.055709,0.999515,0.993377,0.003254,0.402368,0.000002,0.000052,-0.000031,0.000067,-0.000012,-64.647199,0.000071,
2461,2398,4.46283523423446,-5.38296218543485,0.00467428080565924,0.004685,-0.001040,0.007421,0.186355,0.020450,324.921477,23.256935,0.999581,0.986122,0.004799,0.402258,0.000018,0.000025,-0.000024,0.000045,-0.000002,-48.971017,0.000051,
2506,2833,5.35402973888366,4.11312840914933,-0.0160606658430424,0.005083,-0.000500,0.004683,0.215080,0.017334,317.815627,24.898708,0.999491,0.990419,0.003986,0.409204,-0.000029,0.000012,-0.000003,0.000012,-0.000029,-85.947944,0.000029,
2161,2128,-2.03110534490536,-11.2935305848726,0.011806287505749,0.005221,-0.000177,0.001699,0.234182,0.028256,329.577137,23.976851,0.999285,0.981613,0.005339,0.394559,0.000001,-0.000009,0.000020,0.000017,-0.000025,38.185267,0.000025,
2311,2848,1.10812536113845,4.42759179459193,-0.00856513682316518,0.005155,-0.000052,-0.001013,0.240563,0.014497,317.440037,24.638196,0.999793,0.992876,0.003577,0.467020,-0.000005,0.000018,0.000014,0.000025,-0.000012,64.801410,0.000025,
2371,3103,2.3663732374793,9.97175163503132,0.0198701704593987,0.005348,-0.000588,0.003576,0.233340,0.023795,313.492447,25.482100,0.999431,0.990497,0.003885,0.400248,0.000010,0.000021,-0.000001,0.000021,0.000010,-82.715565,0.000031,
2221,2413,-0.772383381775757,-5.05683677428459,0.00221152636282795,0.005264,-0.000560,0.006441,0.220945,0.037492,324.712942,24.074796,0.999681,0.990769,0.003904,0.365449,-0.000019,0.000000,-0.000004,0.000001,-0.000020,-77.644480,0.000023,
2236,2503,-0.462538488400302,-3.0907910480865,-0.0147790595557922,0.005227,-0.000398,0.005420,0.222478,0.038365,323.082816,24.074711,0.999467,0.988048,0.004256,0.457602,-0.000012,-0.000010,0.000006,-0.000005,-0.000018,49.573318,0.000024,
2176,2218,-1.71964877309712,-9.3223838088086,0.0113232801028289,0.004876,-0.000930,0.007018,0.201717,0.000420,328.042702,24.024556,0.998671,0.979971,0.005541,0.323660,-0.000005,0.000010,0.000004,0.000011,-0.000006,74.829463,0.000011,
2071,3118,-4.14534589499073,10.2717582521642,0.045458207055276,0.005425,-0.000822,0.009245,0.223805,0.027282,314.220270,24.291571,0.999793,0.994045,0.002992,0.431199,-0.000008,0.000027,0.000000,0.000027,-0.000008,-89.526712,0.000027,
2446,2218,4.17304722869008,-9.32430043697482,0.00883021498498238,0.005300,-0.000045,0.000361,0.241193,0.032318,327.893526,22.644766,0.999413,0.983546,0.005089,0.421793,0.000004,-0.000023,-0.000021,0.000015,-0.000035,-28.864998,0.000035,
2476,2593,4.75000152164332,-1.12049993612156,-0.0158602853543925,0.005575,-0.000813,0.003841,0.240777,0.007781,321.672646,23.938520,0.998720,0.983115,0.004911,0.413476,0.000032,0.000013,0.000008,0.000035,0.000009,20.299277,0.000047,
2086,3298,-3.85088233003417,14.1734798177906,0.0252662537704964,0.005013,-0.000346,0.005276,0.216265,0.025893,311.020667,24.318070,0.999546,0.994352,0.003111,0.436101,0.000039,0.000057,-0.000022,0.000071,0.000024,-56.389587,0.000099,
2146,1993,-2.33535230250977,-14.255920325994,0.0340385667608416,0.005152,-0.000883,0.006703,0.215524,0.041309,331.964718,23.999248,0.999350,0.982600,0.004971,0.368603,-0.000004,-0.000095,0.000010,-0.000003,-0.000096,6.131867,0.000112,
2296,2773,0.794952188739902,2.79658397589412,-0.0244668891293145,0.005593,-0.000225,-0.001214,0.261261,0.017614,318.562100,24.506612,0.999311,0.989068,0.004215,0.432311,-0.000005,0.000019,0.000011,0.000023,-0.000009,68.215341,0.000023,
2416,2038,3.55315445786498,-13.2756153734565,0.0321148710704051,0.004219,-0.001435,0.009458,0.157875,0.011414,330.858127,22.201849,0.998752,0.974978,0.006121,0.381493,-0.000005,-0.000054,0.000010,-0.000003,-0.000056,11.061680,0.000066,
2491,2563,5.08307951428963,-1.77477787296151,-0.0163969206459456,0.005441,-0.000303,0.004192,0.233274,0.028783,322.188083,23.792641,0.999514,0.989060,0.004355,0.443171,0.000032,0.000002,0.000007,0.000033,0.000000,13.064574,0.000039,
2041,3148,-4.8002676809039,10.9196780406273,0.0430922314532722,0.005428,-0.000680,0.007576,0.229357,0.024293,313.888590,24.140372,0.999580,0.993858,0.003296,0.441972,-0.000003,0.000035,-0.000010,0.000037,-0.000006,-76.333497,0.000040,
2341,2983,1.73593559544119,7.36409235794213,0.00317106251759469,0.005403,-0.000736,0.003830,0.235004,-0.005407,315.315141,25.074440,0.999814,0.995156,0.002986,0.376538,-0.000003,0.000000,-0.000005,0.000004,-0.000007,-54.479652,0.000007,
2026,3238,-5.13852087669819,12.8672977060358,0.0578479178054181,0.005083,-0.000394,0.003603,0.224896,0.027688,312.630151,24.024277,0.999668,0.994740,0.002966,0.430443,0.000008,0.000043,-0.000039,0.000069,-0.000017,-57.002459,0.000072,
2011,3193,-5.45699552429554,11.8923772741267,0.043011088829644,0.005316,-0.000306,0.003235,0.236720,0.018825,313.350072,23.990960,0.999712,0.995344,0.002762,0.417176,0.000000,0.000074,-0.000031,0.000085,-0.000011,-70.212682,0.000092,
2326,2923,1.42048216052656,6.05866149049048,-0.00202813655937462,0.005381,-0.001012,0.006659,0.224212,-0.003268,316.246176,24.822647,0.998840,0.987962,0.004391,0.455230,-0.000004,0.000008,0.000004,0.000009,-0.000005,74.171687,0.000009,
2251,2533,-0.141892487575834,-2.43444340186736,-0.0232860589736106,0.005042,-0.000463,0.003159,0.221152,0.024301,322.494101,24.158691,0.999609,0.991607,0.003743,0.378031,-0.000017,-0.000011,0.000001,-0.000011,-0.000017,79.346286,0.000028,
2131,2113,-2.68267338383144,-11.6225658249747,0.0201235411647644,0.005375,-0.001679,0.010225,0.215440,0.012749,329.982346,24.171595,0.999173,0.983491,0.005066,0.346413,-0.000013,-0.000019,0.000010,-0.000005,-0.000026,36.815733,0.000034,
2281,2698,0.482274864408645,1.16204356200186,-0.0106277141802593,0.005224,-0.000832,0.007763,0.213915,0.020275,319.868057,24.396207,0.999821,0.993379,0.003457,0.396369,-0.000011,0.000013,0.000001,0.000013,-0.000011,86.753163,0.000014,
2101,3223,-3.51166837407692,12.5490929283887,0.0512875001863335,0.005476,-0.000793,0.007391,0.230917,0.009076,312.405581,24.415628,0.999652,0.994243,0.003129,0.409438,0.000003,0.000030,-0.000004,0.000031,0.000003,-81.588356,0.000037,
2506,2848,5.35113344114361,4.44035423725002,-0.0151273608308884,0.005210,-0.000614,0.004651,0.221001,0.009732,317.584040,25.031137,0.999605,0.992087,0.003637,0.330058,-0.000038,0.000018,-0.000013,0.000020,-0.000041,-77.545498,0.000041,
2056,3208,-4.48462672220244,12.2209616908345,0.0441478562246402,0.005237,-0.000303,0.002795,0.233905,0.023851,312.833375,24.196227,0.999590,0.993594,0.003192,0.423746,0.000005,0.000039,-0.000030,0.000056,-0.000013,-59.905705,0.000059,
2266,2653,0.163421773551509,0.1823615212177,-0.0224961323144726,0.005309,-0.000764,0.005071,0.227026,0.014129,320.534444,24.347298,0.999522,0.989905,0.004046,0.363261,-0.000015,0.000001,0.000008,0.000005,-0.000018,67.953232,0.000018,
2101,1993,-3.31639585478309,-14.254128930936,0.0372441262348389,0.005176,0.000103,-0.001648,0.242046,0.030295,332.205532,24.414212,0.999687,0.990630,0.004221,0.258254,-0.000003,-0.000110,0.000015,-0.000001,-0.000112,8.041515,0.000130,
2461,2413,4.46091618758304,-5.05554666954396,0.00638273503994924,0.005443,-0.000663,0.004908,0.230709,0.022899,324.737246,23.268178,0.999541,0.986674,0.004706,0.449226,0.000010,0.000019,-0.000016,0.000031,-0.000002,-52.653201,0.000034,
2206,2368,-1.09160127722185,-6.04104290865449,0.000245970675393892,0.005188,-0.000986,0.006513,0.217245,0.022676,325.458646,23.983310,0.999512,0.988245,0.004387,0.430975,-0.000025,-0.000013,-0.000001,-0.000013,-0.000025,-83.637804,0.000039,
2311,2863,1.10538194672346,4.75412729500207,-0.00522751003825306,0.005326,-0.000621,0.004211,0.230440,0.016670,317.213167,24.716556,0.999648,0.992037,0.003693,0.422706,-0.000004,0.000017,0.000010,0.000020,-0.000008,69.067931,0.000021,
2446,2233,4.17062174934679,-8.99632230671659,0.0169606123664607,0.005206,-0.000070,0.000252,0.237331,0.030604,327.715138,22.717893,0.999026,0.978824,0.005612,0.401418,0.000000,-0.000014,-0.000020,0.000014,-0.000028,-35.530826,0.000028,
2356,3013,2.05581351423752,8.01744304947722,0.000862859663357085,0.004920,-0.000209,0.001581,0.220848,0.034693,314.789777,25.182597,0.999593,0.991405,0.003714,0.425055,-0.000005,0.000000,-0.000002,0.000001,-0.000006,-71.016263,0.000006,
2026,3253,-5.14151178099823,13.1931050540125,0.04286870008184,0.005189,-0.000023,0.001064,0.236892,0.031907,312.271181,24.019770,0.999848,0.996194,0.002620,0.428126,0.000021,0.000043,-0.000048,0.000081,-0.000017,-51.512290,0.000085,
2191,2263,-1.400074009559,-8.33684668546579,0.00340764679879157,0.005217,-0.000231,0.001723,0.233907,0.022632,327.237417,23.971600,0.998913,0.981817,0.005321,0.377111,-0.000010,-0.000005,-0.000004,-0.000003,-0.000012,-61.922595,0.000016,
2386,3163,2.68160514883307,11.2740179321872,0.0309673635387639,0.005385,-0.000537,0.004168,0.232794,0.018086,312.609575,25.669178,0.999485,0.991228,0.003743,0.433826,0.000014,0.000026,0.000010,0.000032,0.000009,61.342783,0.000042,
2491,2578,5.08073615326454,-1.44815114150471,-0.00851514260205022,0.005654,-0.000849,0.005813,0.236637,0.019833,322.013746,23.850971,0.998903,0.981971,0.005220,0.435175,0.000031,0.000017,0.000008,0.000035,0.000014,23.294348,0.000050,
2041,3163,-4.80252766248935,11.2449131479238,0.037638793443648,0.005760,-0.000614,0.005941,0.249248,0.019025,313.617865,24.122044,0.999580,0.993538,0.003390,0.446356,-0.000004,0.000055,-0.000016,0.000059,-0.000008,-75.794986,0.000063,
2476,2608,4.74603086099202,-0.792964574055055,-0.0182930001230943,0.004941,-0.000854,0.004790,0.208137,0.018967,321.375438,23.979849,0.999122,0.984495,0.004584,0.440693,0.000027,0.000013,0.000005,0.000029,0.000011,17.533138,0.000042,
2431,2188,3.85303955417745,-9.9838993375304,0.0366983655421222,0.005185,-0.000793,0.005358,0.217256,0.020313,328.559250,22.722420,0.999674,0.987203,0.004470,0.299479,-0.000013,-0.000022,-0.000023,0.000006,-0.000041,-39.464035,0.000044,
2236,2518,-0.465790012659756,-2.76286549154428,-0.0179994049897232,0.004785,-0.000504,0.004802,0.204124,0.014209,322.794638,24.147073,0.999443,0.988013,0.004247,0.383663,-0.000010,-0.000010,0.000007,-0.000003,-0.000017,44.971447,0.000022,
2056,3223,-4.48698109228618,12.5457298845375,0.0452008787047475,0.005273,-0.000243,0.003832,0.232684,0.029407,312.595771,24.178428,0.999614,0.993400,0.003151,0.440326,0.000009,0.000037,-0.000029,0.000055,-0.000010,-57.627630,0.000059,
2416,2053,3.55169007164566,-12.9459916769139,0.03451596603702,0.005159,-0.000919,0.005014,0.217263,0.010803,330.695696,22.300338,0.998735,0.974724,0.006169,0.332914,-0.000003,-0.000038,0.000010,-0.000001,-0.000040,15.266352,0.000047,
2071,3133,-4.14807007714491,10.5972359635513,0.0366464604247767,0.005384,-0.000584,0.004942,0.234196,0.003568,313.912166,24.285380,0.999614,0.994127,0.003023,0.409654,-0.000004,0.000028,-0.000004,0.000029,-0.000005,-83.312170,0.000031,
2371,3118,2.36331442049015,10.297038336032,0.0214422559150194,0.005364,-0.000852,0.007694,0.219338,0.030678,313.246045,25.495118,0.999643,0.991812,0.003643,0.433954,0.000010,0.000025,0.000002,0.000026,0.000010,82.467896,0.000037,
2101,3238,-3.51431153016988,12.8743311666177,0.0456113921366068,0.005577,-0.000545,0.006117,0.239466,0.026626,312.120985,24.395395,0.999715,0.994555,0.002996,0.447215,0.000005,0.000027,-0.000005,0.000028,0.000004,-76.995657,0.000035,
2146,2008,-2.33708877973102,-13.9276178464291,0.0357926003987927,0.005345,0.000065,0.001364,0.240801,0.050373,331.764389,23.940534,0.999079,0.982481,0.005162,0.447751,-0.000012,-0.000075,0.000012,-0.000009,-0.000077,10.450648,0.000095,
2296,2788,0.792158105108431,3.12266062211599,-0.0187356266617371,0.005504,-0.000560,0.004025,0.239345,0.024114,318.344065,24.537214,0.999340,0.989938,0.004036,0.438138,0.000001,0.000019,0.000011,0.000024,-0.000004,65.399594,0.000026,
2011,3208,-5.45898924124652,12.2172215530737,0.0443872317414957,0.005584,-0.000371,0.003613,0.248053,0.020056,313.127806,23.981586,0.999569,0.993354,0.003269,0.414530,0.000008,0.000066,-0.000035,0.000082,-0.000009,-64.987323,0.000090,
2131,2128,-2.68506594514921,-11.2936730947003,0.0126066627419164,0.005442,-0.001080,0.003794,0.237956,-0.021691,329.701662,24.153269,0.998913,0.981408,0.005313,0.339320,-0.000014,-0.000016,0.000012,-0.000003,-0.000027,42.407508,0.000033,
2026,3268,-5.14458450252197,13.5180093679039,0.0331937159108406,0.005239,-0.000263,0.004222,0.230469,0.034300,311.938537,23.968952,0.999835,0.996639,0.002563,0.470082,0.000037,0.000032,-0.000049,0.000084,-0.000015,-43.727163,0.000090,
2101,2008,-3.31826333480761,-13.9278925705499,0.0424054488776164,0.005552,-0.000470,0.002613,0.246736,0.030709,332.014160,24.213788,0.999664,0.991427,0.004278,0.463788,-0.000004,-0.000101,0.000016,-0.000002,-0.000104,9.128727,0.000121,
2221,2428,-0.773881501406432,-4.73308732653764,0.0109997871567202,0.005499,-0.000432,0.003362,0.241616,0.029684,324.566250,23.829466,0.999699,0.990341,0.003973,0.623039,-0.000014,-0.000015,-0.000003,-0.000011,-0.000018,-41.732822,0.000029,
2281,2713,0.479758660030676,1.48832959001869,-0.012209175149053,0.005271,-0.000562,0.004205,0.228125,0.022482,319.625483,24.369337,0.999747,0.992977,0.003512,0.453410,-0.000011,0.000013,0.000002,0.000013,-0.000012,86.216454,0.000014,
2161,2143,-2.0339713232486,-10.9655790559006,0.0141245441937485,0.004966,-0.000790,0.006400,0.207918,0.014148,329.329520,23.965157,0.999321,0.972455,0.006091,0.405126,-0.000002,-0.000017,0.000018,0.000010,-0.000029,33.892431,0.000030,
2251,2548,-0.14391778732212,-2.10829393061154,-0.019253664276107,0.005386,-0.000568,0.003340,0.236331,0.022373,322.300346,24.121181,0.999735,0.993307,0.003477,0.437877,-0.000016,-0.000013,0.000004,-0.000010,-0.000019,52.150239,0.000030,
2176,2233,-1.72195518673152,-8.99363748090865,0.00595041532386631,0.005155,-0.000377,0.003092,0.226850,0.042223,327.781282,23.981133,0.998821,0.982584,0.005165,0.423812,-0.000011,0.000009,0.000002,0.000009,-0.000011,82.929802,0.000012,
2506,2863,5.34731355133156,4.76704697534235,-0.0253452698055412,0.005359,-0.000493,0.004699,0.227710,0.020937,317.260044,25.017383,0.999719,0.992437,0.003514,0.416249,-0.000039,0.000025,-0.000014,0.000028,-0.000042,-78.422692,0.000042,
2326,2938,1.41812457070501,6.38503720120377,-0.000745583313857878,0.005525,-0.000683,0.004010,0.240123,-0.002439,316.027808,24.893058,0.999052,0.988377,0.004299,0.419694,-0.000003,0.000016,0.000001,0.000016,-0.000003,87.890399,0.000017,
2461,2428,4.45699281305653,-4.72657837660595,-0.00295030746548264,0.005284,-0.000277,0.004438,0.225365,0.037319,324.410263,23.310580,0.999369,0.984936,0.004841,0.477574,0.000007,0.000022,-0.000007,0.000024,0.000004,-68.101883,0.000031,
2266,2668,0.160813194298253,0.508754945406821,-0.0264063021563743,0.005449,-0.000656,0.002106,0.243317,0.010090,320.274800,24.303728,0.999558,0.990973,0.003883,0.429076,-0.000013,0.000006,0.000001,0.000006,-0.000013,86.267027,0.000013,
2476,2623,4.74335679815559,-0.464968078738785,-0.0193583938539064,0.005245,-0.000522,0.002773,0.229903,0.023541,321.143885,24.086613,0.999644,0.990873,0.003738,0.396007,0.000026,0.000011,-0.000001,0.000026,0.000011,-4.321288,0.000038,
2026,3283,-5.14655164523386,13.8422769771901,0.0436548003164603,0.005177,-0.000676,0.007183,0.219366,0.026261,311.769752,23.984312,0.999773,0.996154,0.002714,0.435314,0.000050,0.000050,-0.000050,0.000099,0.000000,-44.995419,0.000115,
2446,2248,4.16758092405006,-8.66711170250381,0.0157686872634599,0.005454,-0.000214,0.002453,0.240478,0.039958,327.465480,22.801067,0.999085,0.979106,0.005537,0.382094,-0.000001,-0.000009,-0.000016,0.000012,-0.000022,-38.125920,0.000022,
2056,3238,-4.48877684442051,12.8702143320882,0.0511592009822834,0.005574,-0.000611,0.004955,0.243358,0.025529,312.411084,24.175133,0.999638,0.994185,0.003081,0.433066,0.000013,0.000030,-0.000034,0.000056,-0.000013,-52.391594,0.000059,
2206,2383,-1.09460523511675,-5.71249130476332,-0.00597627891585262,0.005060,-0.000496,0.004891,0.216699,0.029197,325.163758,24.005481,0.999276,0.986166,0.004581,0.433727,-0.000027,-0.000007,-0.000004,-0.000006,-0.000028,-78.299063,0.000036,
2416,2068,3.54774448459158,-12.6166986817979,0.0310717475425122,0.004553,-0.001149,0.006433,0.184308,0.004568,330.392402,22.315034,0.998755,0.976352,0.006191,0.363407,-0.000006,-0.000028,0.000008,-0.000004,-0.000031,18.509436,0.000038,
2101,3253,-3.51702196885033,13.2000431790214,0.0421063840485658,0.005511,-0.000386,0.005415,0.238595,0.035327,311.844896,24.444300,0.999750,0.995376,0.002852,0.406826,0.000008,0.000029,-0.000005,0.000030,0.000007,-78.064109,0.000040,
2356,3028,2.05373327016634,8.34290238729018,0.0099833387046715,0.005239,-0.000465,0.004841,0.223919,0.025619,314.624111,25.255144,0.999583,0.991832,0.003688,0.381412,-0.000003,-0.000001,-0.000003,0.000001,-0.000006,-50.796614,0.000006,
2041,3178,-4.80507566747071,11.5696376672106,0.0384244864716834,0.005478,-0.000371,0.005163,0.238505,0.028511,313.368842,24.083686,0.999672,0.993934,0.003263,0.485358,-0.000009,0.000062,-0.000022,0.000068,-0.000015,-74.153897,0.000072,
2341,2998,1.73331357937884,7.68986214349626,0.00683699505862023,0.005539,-0.000806,0.006620,0.231538,0.005187,315.097234,25.111736,0.999893,0.997109,0.002775,0.385842,-0.000005,0.000002,-0.000004,0.000004,-0.000007,-67.645491,0.000007,
2431,2203,3.84960673033127,-9.65592909501517,0.0269678521501646,0.005324,-0.000828,0.003098,0.231953,-0.011569,328.251386,22.626484,0.999532,0.984665,0.004871,0.416237,-0.000012,-0.000015,-0.000020,0.000006,-0.000034,-43.111965,0.000036,
2026,3298,-5.14914322281443,14.1674402057689,0.0374153920822664,0.005190,-0.000197,0.005066,0.225926,0.034783,311.478368,23.978285,0.999424,0.994158,0.003230,0.438477,0.000064,0.000056,-0.000052,0.000112,0.000007,-42.808636,0.000134,
2311,2878,1.10198418484935,5.08155545676517,-0.0135389448644787,0.005262,-0.000311,0.003390,0.230448,0.035146,316.898502,24.779204,0.999479,0.990294,0.003981,0.410754,-0.000006,0.000010,0.000008,0.000014,-0.000009,68.280516,0.000014,
2071,3148,-4.15055447008999,10.9223453860784,0.0385543801688755,0.005202,-0.000407,0.005205,0.225148,0.023325,313.674059,24.272207,0.999745,0.996023,0.002699,0.438149,0.000001,0.000022,-0.000010,0.000026,-0.000003,-68.769881,0.000029,
2191,2278,-1.40211415311799,-8.00861607717953,0.00403463609904975,0.005689,-0.000401,0.002194,0.254066,0.018394,327.020955,24.005164,0.998976,0.981199,0.005342,0.356051,-0.000011,-0.000008,-0.000009,-0.000001,-0.000019,-49.691726,0.000023,
2491,2593,5.07792241390395,-1.12061723225964,-0.0125089183369482,0.005765,-0.000758,-0.000063,0.264283,-0.005909,321.764186,23.910044,0.999831,0.994404,0.003467,0.410051,0.000034,0.000016,0.000007,0.000036,0.000014,19.313314,0.000052,
2506,2878,5.3456210626466,5.0916455162419,-0.0105082056475112,0.005323,-0.000574,0.002602,0.234127,0.000736,317.146555,25.031703,0.999702,0.992959,0.003438,0.442275,-0.000037,0.000032,-0.000004,0.000032,-0.000037,-86.992964,0.000040,
2146,2023,-2.34036763362309,-13.5971343882135,0.0299905520464563,0.005232,-0.000778,0.006758,0.219101,0.049436,331.453523,24.010625,0.998716,0.981663,0.005287,0.388674,-0.000013,-0.000069,0.000008,-0.000012,-0.000070,7.874137,0.000088,
2011,3223,-5.4618348424726,12.5426132243796,0.0432384271335309,0.005326,-0.000623,0.006932,0.227093,0.020687,312.852039,24.012456,0.999463,0.992372,0.003519,0.370858,0.000017,0.000062,-0.000034,0.000080,-0.000001,-61.748540,0.000092,
2371,3133,2.36094022164061,10.6228195676065,0.0233894194219033,0.005525,-0.000585,0.005242,0.235551,0.024183,313.032753,25.573000,0.999629,0.991917,0.003604,0.389475,0.000013,0.000027,0.000003,0.000028,0.000013,78.747907,0.000041,
2176,2248,-1.72430634056093,-8.66540575378898,0.00576216501951876,0.005154,-0.000091,0.000861,0.233828,0.031094,327.545171,24.002654,0.998830,0.981668,0.005277,0.405805,-0.000010,0.000003,0.000001,0.000003,-0.000010,83.680328,0.000010,
2461,2443,4.45475575001628,-4.39855670553568,-0.00133745711383426,0.005582,-0.000115,0.000002,0.255741,0.015613,324.210840,23.410903,0.999073,0.984823,0.004909,0.411250,0.000019,-0.000006,-0.000004,0.000020,-0.000006,-9.212805,0.000021,
2041,1993,-4.6257287073709,-14.2522839395418,0.0241743689614395,0.005367,-0.000217,0.001335,0.242327,0.034337,332.409007,24.703162,0.998896,0.982082,0.005383,0.394193,0.000003,-0.000150,-0.000021,0.000006,-0.000153,-7.803424,0.000173,
2221,2443,-0.776966582438924,-4.40257997268165,0.00128300740834675,0.005732,-0.000749,0.003782,0.250896,0.013851,324.250764,24.041351,0.999281,0.987544,0.004540,0.415821,-0.000014,-0.000019,-0.000004,-0.000012,-0.000021,-28.473249,0.000033,
2296,2803,0.788723651399856,3.45016534500037,-0.0259019050855613,0.005257,-0.000453,0.002842,0.232138,0.042252,318.032209,24.591986,0.999215,0.989258,0.004143,0.431573,0.000003,0.000013,0.000010,0.000019,-0.000002,58.359204,0.000021,
2266,2683,0.158044902752913,0.835838699995683,-0.0283369850298527,0.005448,-0.000489,0.001321,0.245971,0.017676,320.017531,24.333406,0.999530,0.991915,0.003700,0.432955,-0.000013,0.000015,-0.000005,0.000016,-0.000014,-80.664718,0.000017,
2236,2533,-0.467500266109393,-2.43650331611634,-0.00565779731908833,0.004881,-0.000492,0.005667,0.205776,0.023519,322.656483,24.186982,0.999743,0.991457,0.003651,0.374696,-0.000014,-0.000007,0.000003,-0.000006,-0.000015,69.111761,0.000021,
2131,2143,-2.68774745149741,-10.9651523631321,0.0143748078730823,0.005258,-0.001122,0.007166,0.219461,0.015990,329.456803,24.135310,0.999092,0.983468,0.005154,0.403609,-0.000015,-0.000012,0.000013,0.000000,-0.000027,48.040999,0.000031,
2101,2023,-3.32182018247308,-13.5961328866106,0.0324469242555097,0.005254,-0.000693,0.007045,0.220117,0.037844,331.663507,24.343829,0.999319,0.986045,0.005092,0.346426,-0.000009,-0.000105,0.000008,-0.000008,-0.000106,4.927334,0.000127,
2386,3178,2.67853213414629,11.5999345283179,0.0310150704524403,0.005268,-0.000266,0.004897,0.224947,0.038707,312.355817,25.732099,0.999531,0.992081,0.003527,0.433640,0.000014,0.000035,0.000011,0.000040,0.000009,66.440397,0.000052,
2101,3268,-3.51927855984159,13.5249429402524,0.0369538778174956,0.005841,-0.000237,0.002142,0.263449,0.026742,311.581030,24.430636,0.999778,0.996068,0.002788,0.411964,0.000012,0.000030,-0.000002,0.000030,0.000012,-83.328400,0.000044,
2161,2158,-2.03893411399448,-10.6292980967237,-0.0302739866293678,0.005331,-0.000514,0.004342,0.231093,0.033541,328.739399,24.186646,0.999858,0.945498,0.008326,0.217960,-0.000002,-0.000025,0.000008,0.000000,-0.000028,18.153273,0.000032,
2011,3238,-5.46344542662534,12.8664361096597,0.0511459588000207,0.005414,-0.000396,0.004279,0.238501,0.032178,312.684634,23.942987,0.999576,0.992951,0.003443,0.438656,0.000025,0.000049,-0.000045,0.000084,-0.000009,-52.422681,0.000092,
2476,2638,4.74018067379994,-0.138240509524813,-0.0204243751596209,0.005259,-0.000564,0.003388,0.228204,0.019910,320.889424,24.089981,0.999656,0.990429,0.003779,0.446329,0.000017,0.000014,-0.000010,0.000026,0.000006,-40.857038,0.000034,
2251,2563,-0.146331583974987,-1.78176781384429,-0.0160198147566462,0.005477,-0.000604,0.004592,0.236450,0.019380,322.084641,24.116476,0.999617,0.991226,0.003775,0.463709,-0.000017,-0.000018,-0.000002,-0.000015,-0.000020,-40.792206,0.000035,
2056,3253,-4.49151489799065,13.1954993262378,0.0504584248949413,0.005305,-0.000670,0.005436,0.229517,0.009503,312.146004,24.223522,0.999757,0.995314,0.002945,0.361728,0.000019,0.000034,-0.000037,0.000064,-0.000012,-50.572335,0.000069,
2416,2083,3.54588589496763,-12.2867859855644,0.0359188822000078,0.005622,-0.001197,0.010904,0.216931,0.020579,330.223068,22.461052,0.998574,0.976870,0.006265,0.284122,-0.000011,-0.000020,0.000009,-0.000005,-0.000026,32.518959,0.000033,
2041,2008,-4.62931744788241,-13.9226989873988,0.0266429962027814,0.004469,-0.001429,0.011695,0.172081,0.037523,332.119213,24.774181,0.998119,0.980384,0.005818,0.322823,0.000018,-0.000122,0.000003,0.000018,-0.000123,1.112582,0.000132,
2446,2263,4.16437217497343,-8.33880927248599,0.0208794634810374,0.005156,-0.000878,0.006332,0.212138,0.031007,327.237165,22.889232,0.999072,0.978684,0.005661,0.339441,-0.000007,-0.000007,-0.000021,0.000014,-0.000028,-44.830820,0.000028,
2431,2218,3.84737375403826,-9.32748616147701,0.0313388831435191,0.005761,-0.000706,0.003669,0.249893,0.007145,328.063382,22.676368,0.999546,0.985144,0.004834,0.437419,-0.000012,-0.000015,-0.000024,0.000010,-0.000037,-42.981105,0.000039,
2506,2893,5.34281041994596,5.41867932852696,-0.00372768904196619,0.005106,-0.000470,0.003375,0.221301,0.023813,316.944802,25.170739,0.999579,0.990356,0.003976,0.386694,-0.000030,0.000030,0.000000,0.000030,-0.000030,89.846638,0.000035,
2206,2398,-1.09658199492801,-5.38473706888447,-0.00243776682987118,0.005317,-0.000557,0.003720,0.232218,0.021805,324.966369,24.067659,0.999482,0.988448,0.004315,0.382457,-0.000029,0.000005,-0.000003,0.000006,-0.000029,-84.305147,0.000031,
2146,2038,-2.34298565883641,-13.267129716732,0.0230339259622383,0.005296,-0.000436,0.003813,0.231092,0.020040,331.166941,24.058742,0.998934,0.982766,0.005253,0.322906,-0.000014,-0.000047,0.000010,-0.000011,-0.000050,15.184115,0.000065,
2011,3253,-5.46575568044583,13.1916547226145,0.0485233366182456,0.005487,-0.000247,0.002603,0.246533,0.036216,312.425248,23.953405,0.999845,0.995732,0.002750,0.418837,0.000042,0.000045,-0.000058,0.000102,-0.000015,-45.695458,0.000110,
2341,3013,1.73055762835061,8.01560742075649,0.00662602911035037,0.005252,-0.000365,0.001751,0.235525,0.018833,314.854272,25.121338,0.999651,0.992878,0.003457,0.425912,-0.000004,-0.000002,-0.000005,0.000002,-0.000008,-48.972913,0.000008,
2491,2608,5.07472789508211,-0.794197315396936,-0.00474286636568877,0.005221,-0.000727,0.002636,0.229033,0.008698,321.550011,23.933062,0.999837,0.994169,0.003535,0.461108,0.000028,0.000018,0.000002,0.000029,0.000017,11.844389,0.000046,
2326,2953,1.41536556082173,6.71194581802933,-0.000794264277033108,0.005614,-0.000425,0.004568,0.242420,0.022014,315.784230,24.983737,0.999012,0.988783,0.004460,0.387097,-0.000002,0.000016,0.000000,0.000016,-0.000002,89.944773,0.000018,
2041,3193,-4.80696317912407,11.8951598861879,0.0421575525627418,0.005587,-0.000283,0.002832,0.250195,0.043860,313.166231,24.133838,0.999635,0.993673,0.003273,0.441754,-0.000012,0.000051,-0.000032,0.000065,-0.000026,-67.158507,0.000065,
2281,2728,0.476358706297294,1.81568168926455,-0.0175505096523239,0.005169,-0.000701,0.006824,0.214660,0.030301,319.323247,24.409433,0.999688,0.992419,0.003547,0.449419,-0.000010,0.000009,0.000003,0.000009,-0.000010,82.003477,0.000011,
2311,2893,1.09899591124747,5.40839143949451,-0.0164053655389012,0.005302,-0.000412,0.003930,0.230454,0.033972,316.629626,24.852003,0.999450,0.991115,0.003833,0.368528,-0.000005,0.000010,0.000012,0.000016,-0.000011,61.185589,0.000017,
2461,2458,4.45188386531185,-4.07087413865542,0.00317898831099228,0.005441,-0.000132,0.000878,0.246011,0.020848,323.995390,23.485059,0.999335,0.985745,0.004751,0.398077,0.000025,-0.000012,-0.000002,0.000025,-0.000013,-2.386856,0.000025,
2101,2038,-3.32502822857263,-13.267238712282,0.0189343757356824,0.005087,-0.000754,0.004874,0.218800,0.037215,331.310120,24.187750,0.999392,0.985383,0.005217,0.507229,-0.000013,-0.000074,0.000010,-0.000011,-0.000076,8.866339,0.000094,
2011,3268,-5.46815862437808,13.5156243455718,0.0497076736108966,0.005357,-0.000369,0.002828,0.239902,0.035977,312.183614,23.878095,0.999836,0.995743,0.002763,0.480767,0.000062,0.000037,-0.000062,0.000112,-0.000013,-39.109223,0.000123,
2056,3268,-4.49432544258716,13.5203529457585,0.0451421769599847,0.005148,-0.000373,0.004274,0.225685,0.023223,311.852233,24.180942,0.999710,0.995241,0.002921,0.411289,0.000027,0.000030,-0.000037,0.000065,-0.000008,-46.531286,0.000071,
2071,3163,-4.15298157146016,11.247965192054,0.0426375824102934,0.005058,-0.000452,0.007302,0.212524,0.021007,313.450367,24.344651,0.999718,0.995169,0.002914,0.359071,0.000002,0.000040,-0.000014,0.000044,-0.000003,-71.493799,0.000049,
2356,3043,2.05095473653708,8.6683039795422,0.00673984730377697,0.005573,-0.000494,0.005034,0.238695,0.034834,314.366564,25.225775,0.999571,0.991819,0.003675,0.458341,-0.000001,0.000003,-0.000004,0.000006,-0.000003,-57.087952,0.000006,
2476,2653,4.73755525095408,0.188763127708,-0.0179860695008642,0.005559,-0.000588,0.004292,0.238527,0.015578,320.676045,24.153526,0.999584,0.990214,0.003874,0.435331,0.000019,0.000024,-0.000009,0.000032,0.000012,-52.397957,0.000045,
2101,3283,-3.52285876362946,13.8496792274378,0.028819110523898,0.005391,-0.000419,0.004373,0.236031,0.011737,311.240227,24.396647,0.999679,0.996213,0.002824,0.430478,0.000015,0.000039,0.000002,0.000039,0.000015,85.491757,0.000056,
2191,2293,-1.40529291033954,-7.68071225848939,0.00514795012060176,0.005038,-0.000509,0.003396,0.220415,0.037394,326.754858,23.995873,0.999028,0.982373,0.005187,0.400965,-0.000018,-0.000005,-0.000004,-0.000003,-0.000019,-73.221403,0.000024,
2041,2023,-4.63025950524679,-13.5934253109178,0.0216869067573384,0.005430,-0.000093,0.001905,0.243720,0.055218,331.909155,24.723306,0.998312,0.980442,0.005733,0.387411,0.000011,-0.000155,-0.000006,0.000012,-0.000155,-2.173984,0.000173,
2446,2278,4.16163881858335,-8.00931577809876,0.0138460461904515,0.005569,-0.000247,0.000985,0.251214,0.024341,326.974675,22.965347,0.999273,0.979218,0.005549,0.311192,-0.000011,-0.000002,-0.000018,0.000012,-0.000025,-51.572912,0.000025,
2371,3148,2.358542514406,10.9478882420696,0.0278923772902999,0.005580,-0.000618,0.004305,0.241433,0.015518,312.830822,25.606527,0.999654,0.991168,0.003615,0.387073,0.000012,0.000025,0.000003,0.000025,0.000012,76.407001,0.000038,
2131,2158,-2.68855323537499,-10.6372954139374,0.0287969394551624,0.005347,-0.000013,-0.001303,0.249196,0.002256,329.365267,24.247776,0.999724,0.991372,0.004123,0.285095,-0.000013,-0.000018,0.000004,-0.000011,-0.000020,27.290737,0.000031,
2491,2623,5.07119908787694,-0.467085098232076,-0.00989139630587488,0.005255,-0.000807,0.003256,0.228227,0.010288,321.262202,23.926073,0.999849,0.994278,0.003391,0.529556,0.000026,0.000009,-0.000005,0.000027,0.000007,-15.665187,0.000036,
2221,2458,-0.779871717552059,-4.07453393871395,-0.00317665264759626,0.005440,-0.000172,-0.000341,0.250904,0.022608,323.970813,24.058568,0.999133,0.985107,0.004935,0.427779,-0.000010,-0.000015,0.000001,-0.000009,-0.000015,14.609983,0.000025,
2146,2053,-2.3452177223606,-12.9391832809428,0.028132140680043,0.005171,-0.000595,0.004340,0.223731,0.026341,330.961681,24.024649,0.998883,0.981481,0.005304,0.374287,-0.000016,-0.000050,0.000008,-0.000014,-0.000052,13.124227,0.000070,
2176,2263,-1.72639413300243,-8.33642943994727,0.00752227134671557,0.005379,0.000158,-0.000100,0.247207,0.043411,327.331010,24.093810,0.999059,0.981002,0.005407,0.341375,-0.000009,-0.000011,0.000000,-0.000009,-0.000011,0.692648,0.000020,
2386,3193,2.67620940090312,11.9246147172473,0.0385408458270717,0.005411,-0.000611,0.006878,0.224274,0.026213,312.172612,25.761639,0.999487,0.992408,0.003394,0.433624,0.000013,0.000035,0.000013,0.000042,0.000007,64.909711,0.000053,
2506,2908,5.33899466395648,5.74583590292013,-0.0151754165864304,0.005220,-0.000187,0.001723,0.232986,0.007781,316.615137,25.232349,0.999577,0.989044,0.004068,0.370103,-0.000021,0.000014,0.000008,0.000016,-0.000023,77.446153,0.000024,
2251,2578,-0.148678585643264,-1.45468616115058,-0.0143611856933035,0.005585,-0.000576,0.003497,0.245019,0.016474,321.863885,24.153122,0.999479,0.989760,0.004003,0.448268,-0.000016,-0.000004,-0.000002,-0.000004,-0.000016,-80.534907,0.000021,
2431,2233,3.84306438789008,-8.99684640738671,0.023352657322846,0.005147,-0.000647,0.004384,0.219216,0.015078,327.722759,22.815067,0.999292,0.982177,0.005226,0.359580,-0.000013,-0.000007,-0.000022,0.000012,-0.000033,-48.811397,0.000033,
2416,2098,3.5422709577883,-11.9570779020642,0.0231396592699298,0.005429,-0.000640,0.004065,0.233286,0.029627,329.891195,22.407228,0.999001,0.977106,0.006089,0.398561,-0.000015,-0.000013,0.000000,-0.000013,-0.000015,78.086383,0.000029,
2056,3283,-4.49695851096187,13.8450725437673,0.0371148557947549,0.005408,-0.000345,0.004256,0.237786,0.027512,311.551669,24.125053,0.999705,0.995584,0.002863,0.464853,0.000032,0.000040,-0.000035,0.000071,0.000001,-48.438517,0.000083,
2041,2038,-4.63267825507865,-13.2655402968123,0.0191257702963412,0.005054,-0.000111,-0.003211,0.240701,0.007647,331.645577,24.644391,0.998791,0.978167,0.005706,0.414816,0.000004,-0.000127,-0.000003,0.000004,-0.000127,-1.247717,0.000145,
2236,2548,-0.470849033537124,-2.10837669910307,-0.0198345408700789,0.005129,-0.000709,0.005180,0.218656,0.013534,322.307945,24.175867,0.999724,0.992072,0.003573,0.398307,-0.000012,-0.000009,0.000006,-0.000004,-0.000017,54.456650,0.000022,
2161,2173,-2.04204185849521,-10.3029860871406,-0.0447570517424083,0.005463,-0.000291,0.001963,0.244531,0.038056,328.392674,23.842043,0.999830,0.931921,0.008713,0.580242,-0.000004,-0.000009,0.000011,0.000006,-0.000018,38.783155,0.000018,
2011,3283,-5.47110850303359,13.8402942262102,0.0474522672679996,0.005032,-0.000702,0.005505,0.217503,0.025848,311.897229,23.861986,0.999806,0.995992,0.002748,0.472982,0.000078,0.000066,-0.000064,0.000136,0.000008,-42.355332,0.000162,
2266,2698,0.155744358275388,1.16203794739481,-0.0202503983476277,0.005375,-0.000491,0.003114,0.236705,0.021138,319.832260,24.372703,0.999643,0.992308,0.003591,0.422812,-0.000017,0.000010,-0.000002,0.000010,-0.000017,-85.044616,0.000017,
2296,2818,0.786545472937245,3.77576062583208,-0.0198524703357066,0.005350,-0.000380,0.002550,0.237358,0.025563,317.844145,24.611936,0.999439,0.990375,0.003911,0.424822,0.000002,0.000013,0.000011,0.000020,-0.000005,58.491260,0.000021,
2461,2473,4.44810165910652,-3.74217555719159,-0.00415243243429586,0.005388,-0.000112,0.001978,0.239520,0.032455,323.683804,23.541047,0.999493,0.987125,0.004493,0.409533,0.000016,-0.000027,-0.000003,0.000016,-0.000027,-3.615607,0.000027,
2041,3208,-4.8093636754363,12.219536356449,0.044964507871498,0.005417,-0.000405,0.003417,0.240636,0.026816,312.935426,24.108710,0.999594,0.993331,0.003242,0.440916,-0.000008,0.000047,-0.000034,0.000063,-0.000025,-64.247511,0.000064,
2311,2908,1.09722559924412,5.73357920553683,-0.0089194542932205,0.005452,-0.000205,0.000062,0.250582,0.010823,316.468215,24.874135,0.999519,0.992394,0.003663,0.355004,-0.000003,0.000008,0.000011,0.000016,-0.000010,58.081498,0.000016,
2206,2413,-1.09789983476554,-5.0574735911481,0.0151593834121968,0.005408,-0.000174,0.004709,0.233419,0.048363,324.871535,24.188961,0.999662,0.991046,0.003961,0.305343,-0.000028,0.000000,-0.000002,0.000000,-0.000028,-85.103137,0.000032,
2101,2053,-3.32660358285512,-12.9377874974259,0.0318077009144417,0.005240,-0.000976,0.008200,0.216048,0.037752,331.173087,24.382413,0.999027,0.973760,0.006159,0.317287,-0.000016,-0.000073,0.000005,-0.000015,-0.000073,5.308103,0.000095,
2071,3178,-4.15509779374575,11.5725061621611,0.0438230043976091,0.005304,-0.000492,0.007756,0.222643,0.031909,313.225446,24.290650,0.999788,0.996503,0.002664,0.419476,0.000002,0.000044,-0.000018,0.000050,-0.000004,-69.728582,0.000056,
2341,3028,1.72836188708977,8.34159662813086,0.0135538969216213,0.005416,-0.000318,0.002544,0.240289,0.013723,314.671696,25.223567,0.999726,0.993950,0.003343,0.354300,-0.000001,-0.000003,-0.000006,0.000004,-0.000008,-41.230785,0.000008,
2101,3298,-3.52610200421887,14.1747036914404,0.0217888901653964,0.005043,-0.000305,0.003990,0.221210,0.027468,310.920770,24.369308,0.999483,0.994362,0.003253,0.473226,0.000025,0.000060,-0.000002,0.000060,0.000025,-86.105809,0.000087,
2011,3298,-5.47359396496267,14.16568612498,0.0427128214470827,0.005090,-0.000150,0.004302,0.223581,0.030131,311.617863,23.888636,0.999409,0.993000,0.003500,0.436943,0.000094,0.000062,-0.000066,0.000145,0.000011,-38.251623,0.000174,
2056,3298,-4.49963621395731,14.1703369873442,0.0295687821928254,0.005593,-0.000207,0.004187,0.246616,0.035191,311.251495,24.123378,0.999500,0.993898,0.003194,0.467350,0.000039,0.000057,-0.000040,0.000090,0.000007,-51.325861,0.000108,
2371,3163,2.35594039404233,11.2729960899524,0.0289451888613144,0.005641,-0.000441,0.002615,0.250353,0.022476,312.602852,25.610620,0.999559,0.991545,0.003672,0.430071,0.000011,0.000025,0.000002,0.000025,0.000011,80.222416,0.000037,
2476,2668,4.73407761910337,0.515421342303,-0.0230564046387371,0.005483,-0.000587,0.003456,0.238203,0.005503,320.389424,24.133005,0.999452,0.987788,0.004204,0.503130,0.000017,0.000018,-0.000010,0.000028,0.000007,-46.262187,0.000037,
2326,2968,1.41236360132399,7.03885497681011,-0.00454726728844435,0.005486,-0.000265,0.001776,0.246294,0.018568,315.511326,25.080933,0.999688,0.995235,0.003024,0.320335,-0.000003,0.000015,0.000000,0.000015,-0.000003,-89.635638,0.000016,
2446,2293,4.1579884905926,-7.68274134216902,0.0149438405318847,0.005170,-0.000906,0.005236,0.216882,0.013705,326.707737,22.866595,0.999347,0.979937,0.005446,0.453825,-0.000006,0.000006,-0.000022,0.000023,-0.000023,-52.751145,0.000027,
2281,2743,0.47407884611706,2.14195338178639,-0.0144442347453264,0.005578,-0.000981,0.009589,0.224071,0.017698,319.114880,24.443086,0.999415,0.990095,0.003943,0.430869,-0.000008,0.000010,0.000004,0.000011,-0.000009,77.816716,0.000012,
2041,2053,-4.63709932457985,-12.9315864251987,-0.0112955012539828,0.005139,-0.000477,0.003793,0.225087,0.030423,331.135496,24.743585,0.999687,0.991946,0.003764,0.335957,0.000000,-0.000118,-0.000008,0.000001,-0.000119,-4.046828,0.000136,
2386,3208,2.67289944741864,12.2501001394011,0.0341754242529078,0.005234,-0.000470,0.005456,0.221307,0.024755,311.886934,25.788415,0.999486,0.992361,0.003524,0.447302,0.000012,0.000030,0.000014,0.000037,0.000004,61.247257,0.000046,
2506,2923,5.33467588236782,6.07332056877092,-0.0258532196224337,0.005235,-0.000575,0.005557,0.218744,0.015740,316.265508,25.311665,0.999486,0.986396,0.004256,0.359376,-0.000017,0.000005,0.000007,0.000006,-0.000019,74.497640,0.000019,
2431,2248,3.83951453677508,-8.66744579574791,0.0158120499455663,0.005254,-0.000664,0.005194,0.221155,0.032979,327.419022,22.841349,0.999194,0.979947,0.005444,0.403832,-0.000012,-0.000005,-0.000020,0.000012,-0.000029,-49.534797,0.000029,
2356,3058,2.04810002454608,8.99370858617553,0.0151690874026258,0.005208,-0.000834,0.008752,0.208646,0.031131,314.161844,25.289969,0.999633,0.992951,0.003412,0.427997,0.000001,0.000005,-0.000001,0.000005,0.000001,-77.923141,0.000006,
2116,1993,-2.99183583507741,-14.2505342373737,0.0112887158728086,0.004551,-0.000515,0.003805,0.197218,0.022943,331.877149,24.384390,0.999684,0.990002,0.004227,0.177078,-0.000030,-0.000097,-0.000006,-0.000029,-0.000097,-5.505724,0.000132,
2491,2638,5.06695918653311,-0.137571507045863,-0.0221489022597439,0.005390,-0.001084,0.006235,0.222912,0.013500,320.909144,24.083350,0.999533,0.989097,0.004097,0.435204,0.000018,0.000015,-0.000016,0.000033,0.000000,-42.150675,0.000038,
2101,2068,-3.32856961957481,-12.6095854367352,0.0275314031998164,0.005586,-0.000790,0.003804,0.244829,0.022348,330.926266,24.292958,0.999243,0.950900,0.008331,0.396135,-0.000017,-0.000056,0.000008,-0.000015,-0.000057,10.626844,0.000076,
2416,2113,3.54039043533087,-11.6285874375501,0.0301917253798933,0.005590,0.000113,-0.000146,0.256301,0.035962,329.731171,22.467918,0.999122,0.977812,0.005884,0.394482,-0.000018,-0.000015,-0.000002,-0.000014,-0.000019,-58.380678,0.000033,
2176,2278,-1.72883952256631,-8.01049503741058,0.0151066419660992,0.005386,-0.001141,0.006991,0.225197,0.014314,327.131606,24.012374,0.998885,0.980554,0.005470,0.408109,-0.000011,-0.000014,-0.000005,-0.000007,-0.000018,-35.599036,0.000026,
2131,2173,-2.69231691935974,-10.3078862702171,0.0070625290178441,0.005407,-0.000052,-0.001196,0.251614,0.007895,328.946055,24.103144,0.999478,0.975945,0.005570,0.444721,-0.000012,-0.000002,0.000008,0.000003,-0.000016,60.331798,0.000017,
2221,2473,-0.783145440287168,-3.74685914644352,-0.00547629196307753,0.005102,-0.000087,0.002290,0.227005,0.026371,323.685094,24.072291,0.999359,0.986686,0.004620,0.438244,-0.000007,-0.000017,0.000006,-0.000004,-0.000020,26.048487,0.000026,
2251,2593,-0.15161983892207,-1.12759131211052,-0.0180845945666874,0.005624,-0.000844,0.004343,0.243960,0.000623,321.588676,24.161857,0.999311,0.987597,0.004400,0.447757,-0.000014,-0.000008,-0.000003,-0.000007,-0.000016,-66.563308,0.000023,
2146,2068,-2.34779242551107,-12.609506263475,0.0263033117296345,0.005070,-0.000412,0.003320,0.222271,0.037498,330.703936,24.071386,0.998842,0.980651,0.005427,0.350122,-0.000015,-0.000043,0.000012,-0.000011,-0.000048,20.042867,0.000062,
2026,1993,-4.95269606412635,-14.2520826703764,0.0297224351584191,0.004954,0.000154,-0.001023,0.230020,0.033288,332.531321,24.854694,0.998856,0.982650,0.005355,0.346347,0.000010,-0.000154,0.000002,0.000010,-0.000154,0.685209,0.000173,
2191,2308,-1.40761973609689,-7.35347620440399,0.00552242583626139,0.005133,-0.000654,0.002358,0.228009,0.023520,326.524168,23.955774,0.998821,0.982376,0.005264,0.443871,-0.000021,-0.000011,-0.000005,-0.000009,-0.000023,-68.607518,0.000033,
2206,2428,-1.10104514194673,-4.73144921030773,0.00668182965051756,0.005223,-0.000139,0.002192,0.232915,0.044114,324.559060,23.984644,0.999146,0.987737,0.004558,0.523884,-0.000024,-0.000014,0.000001,-0.000014,-0.000024,86.156025,0.000039,
2236,2563,-0.472224916677259,-1.78369157513507,-0.00674097984074251,0.005476,-0.000683,0.005727,0.232861,0.019075,322.189319,24.080347,0.999703,0.992118,0.003526,0.521185,-0.000012,-0.000015,-0.000001,-0.000012,-0.000015,-18.664247,0.000027,
2041,3223,-4.81199399886071,12.5444480232956,0.0449449365217447,0.005280,-0.000532,0.005452,0.228619,0.024296,312.678144,24.105644,0.999557,0.993512,0.003164,0.432460,-0.000003,0.000044,-0.000034,0.000062,-0.000021,-61.924959,0.000063,
2071,1993,-3.97189643851586,-14.2530742551599,0.0297862495696108,0.004986,-0.000761,0.006226,0.210626,0.045244,332.259481,24.547221,0.998697,0.979953,0.005608,0.351001,0.000025,-0.000117,0.000002,0.000025,-0.000117,0.857165,0.000123,
2266,2713,0.153442741433377,1.48845936527486,-0.013985992284745,0.005187,-0.000173,0.001482,0.233529,0.019709,319.637717,24.425917,0.999717,0.993072,0.003533,0.393870,-0.000015,0.000012,-0.000001,0.000012,-0.000015,-87.215208,0.000016,
2161,2188,-2.04148452097874,-9.98193759474203,0.003952047159828,0.005205,-0.000585,0.002310,0.231502,0.015002,328.546175,23.716856,0.999784,0.912144,0.009554,0.693162,-0.000002,0.000002,0.000015,0.000015,-0.000015,48.786366,0.000017,
2371,3178,2.35269733090694,11.5986459296847,0.0266187874210573,0.005540,-0.000316,0.003682,0.241948,0.025587,312.328911,25.652294,0.999568,0.991857,0.003540,0.431319,0.000011,0.000034,0.000004,0.000034,0.000011,80.200715,0.000047,
2476,2683,4.73053037440422,0.843585460072688,-0.0255646666697658,0.005280,-0.000789,0.004356,0.225459,0.011422,320.110784,24.261337,0.999650,0.989268,0.003972,0.437938,0.000018,0.000031,-0.000006,0.000033,0.000016,-70.152823,0.000050,
2446,2308,4.15482205433038,-7.35171574923329,0.00795913700494566,0.005539,-0.000760,0.004504,0.236602,0.014521,326.425212,23.087705,0.999238,0.980181,0.005344,0.287784,0.000000,0.000015,-0.000025,0.000033,-0.000018,-53.246264,0.000033,
2386,3223,2.66946022738729,12.5760881499161,0.0283912020182697,0.005015,-0.000443,0.003691,0.217568,0.015834,311.588290,25.865330,0.999519,0.993008,0.003391,0.403328,0.000010,0.000031,0.000015,0.000039,0.000002,63.156446,0.000046,
2461,2488,4.44552873304785,-3.41508885627668,-0.00215940062980735,0.005691,-0.000209,0.002140,0.252754,0.018839,323.470577,23.565620,0.999539,0.985647,0.004632,0.427154,0.000018,-0.000029,-0.000006,0.000018,-0.000030,-7.196932,0.000030,
2116,2008,-2.99330147644065,-13.9250324252381,0.017769902342252,0.005099,-0.001247,0.005414,0.217371,-0.002792,331.712517,24.160177,0.999657,0.991570,0.004251,0.382190,-0.000030,-0.000085,-0.000005,-0.000030,-0.000085,-4.911156,0.000119,
2311,2923,1.09407077489265,6.05915885080955,-0.00923091915478835,0.005297,-0.000016,0.002845,0.234115,0.048424,316.204492,24.819512,0.999284,0.990356,0.003921,0.479077,-0.000001,0.000006,0.000007,0.000010,-0.000006,58.045577,0.000010,
2041,2068,-4.63896051220509,-12.6048551646563,-0.00486964705476112,0.005185,-0.000796,0.005451,0.222566,0.015325,330.946968,24.640292,0.999659,0.991958,0.003726,0.419590,-0.000003,-0.000088,0.000000,-0.000003,-0.000088,0.079590,0.000103,
2281,2758,0.470484773246561,2.46857360440633,-0.0187369004082711,0.005135,-0.001549,0.011248,0.197995,0.000372,318.809118,24.459298,0.999309,0.989633,0.004044,0.425471,-0.000007,0.000018,0.000007,0.000020,-0.000009,74.621998,0.000020,
2071,3193,-4.15753729805575,11.8979049594908,0.0415668316641131,0.005328,-0.000405,0.006338,0.227860,0.034133,312.966462,24.307802,0.999605,0.994606,0.003027,0.400169,0.000004,0.000035,-0.000024,0.000048,-0.000008,-61.515809,0.000051,
2026,2008,-4.9560280747876,-13.9224181575012,0.0241398485597983,0.004802,-0.001283,0.010089,0.192223,0.052450,332.207243,24.824907,0.998561,0.983301,0.005456,0.389757,0.000027,-0.000118,0.000028,0.000033,-0.000123,10.622718,0.000127,
2491,2653,5.06435568443036,0.190121365006135,-0.0201389129077256,0.005654,-0.000606,0.005708,0.237277,0.027727,320.695756,24.188309,0.999477,0.988059,0.004312,0.403999,0.000022,0.000023,-0.000016,0.000038,0.000006,-45.469012,0.000048,
2506,2938,5.33299936878362,6.39822624524916,-0.00902982983325273,0.005321,-0.000678,0.006680,0.218332,0.021540,316.161237,25.355211,0.999616,0.990393,0.003795,0.382016,-0.000017,-0.000001,0.000012,0.000006,-0.000023,61.908133,0.000024,
2071,2008,-3.9741966541386,-13.922625312714,0.0213046713408858,0.005287,-0.000448,0.003123,0.233405,0.037115,331.971182,24.583777,0.998971,0.982456,0.005252,0.307167,0.000027,-0.000107,0.000010,0.000028,-0.000108,4.186951,0.000112,
2416,2128,3.53555828337128,-11.2974199113306,0.0181100097318563,0.005037,-0.000537,0.004137,0.215137,0.038396,329.346520,22.574732,0.999301,0.979636,0.005616,0.341645,-0.000015,-0.000018,-0.000002,-0.000014,-0.000019,-26.690317,0.000033,
2341,3043,1.72521835318691,8.66654392411716,0.00789522582510926,0.005474,-0.000455,0.001863,0.245358,0.010935,314.384571,25.148065,0.999665,0.993006,0.003438,0.463087,0.000000,0.000002,-0.000007,0.000008,-0.000006,-50.185612,0.000008,
2101,2083,-3.3324168054769,-12.2785630630314,0.00635250136917875,0.005443,-0.000560,0.004081,0.237599,0.017526,330.502087,24.270130,0.999065,0.958658,0.007798,0.419645,-0.000018,-0.000043,0.000006,-0.000017,-0.000044,13.430850,0.000063,
2326,2983,1.40972949417234,7.36328697928845,0.00261071721467943,0.005354,-0.000617,0.005046,0.228802,0.014864,315.309454,25.029726,0.999915,0.997065,0.002592,0.401504,-0.000004,0.000003,-0.000001,0.000003,-0.000004,-84.682234,0.000004,
2296,2833,0.784112128477755,4.10193410360047,-0.015170538434063,0.005204,-0.000334,0.001073,0.235703,0.021764,317.637362,24.665414,0.999679,0.992919,0.003561,0.397209,0.000000,0.000018,0.000015,0.000026,-0.000008,60.658693,0.000027,
2131,2188,-2.69395372136199,-9.9796821514111,0.0209399241925325,0.005443,-0.000295,0.001506,0.245132,0.017045,328.813495,24.228008,0.999339,0.983587,0.004980,0.336733,-0.000008,0.000011,0.000014,0.000018,-0.000015,62.482082,0.000020,
2116,2023,-2.99440773210655,-13.5946251494944,0.0161879622132801,0.006183,-0.000128,0.001275,0.279648,0.028191,331.520176,24.239431,0.999237,0.984324,0.005507,0.340748,-0.000030,-0.000083,-0.000009,-0.000028,-0.000085,-9.566765,0.000118,
2041,3238,-4.81437430178053,12.8690427879951,0.0444934492373363,0.005238,-0.000719,0.004453,0.229393,0.013564,312.430082,24.082842,0.999627,0.994842,0.002917,0.435713,0.000002,0.000037,-0.000041,0.000064,-0.000025,-56.558032,0.000065,
2431,2263,3.8356364334228,-8.3375533664226,0.00853380247394853,0.005455,-0.001202,0.011395,0.207321,0.027624,327.101402,22.944867,0.999171,0.979877,0.005495,0.347641,-0.000015,-0.000005,-0.000026,0.000016,-0.000037,-50.232749,0.000037,
2071,2023,-3.97668809481437,-13.5938610162025,0.0179672513942251,0.005265,-0.000502,0.003160,0.232301,0.033193,331.702423,24.527646,0.998929,0.983165,0.005250,0.359914,0.000017,-0.000123,0.000001,0.000017,-0.000123,0.433093,0.000133,
2041,2083,-4.63916656509191,-12.2783694753657,0.0204067798086385,0.005395,-0.000360,0.001282,0.243875,0.009743,330.938004,24.716803,0.999358,0.985962,0.004578,0.332015,-0.000011,-0.000061,0.000003,-0.000010,-0.000062,3.160815,0.000078,
2071,3208,-4.15963361344544,12.2220453878498,0.0446024229351565,0.005259,-0.000405,0.003202,0.233634,0.023321,312.752827,24.256762,0.999587,0.993878,0.003162,0.435982,0.000011,0.000033,-0.000024,0.000048,-0.000005,-57.237032,0.000053,
2176,2293,-1.7316177761397,-7.68146523512387,0.0138947941786114,0.005133,-0.000927,0.006165,0.216239,0.030821,326.870310,24.083932,0.998990,0.981586,0.005308,0.367650,-0.000016,-0.000008,0.000000,-0.000008,-0.000016,-87.586618,0.000025,
2461,2503,4.44229564097552,-3.08770665821539,5.95600383235251E-05,0.005450,-0.000520,0.003893,0.235020,0.026734,323.227860,23.602541,0.999485,0.986607,0.004420,0.453663,0.000022,-0.000030,-0.000011,0.000024,-0.000033,-11.146983,0.000034,
2371,3193,2.35021600429808,11.9234751967761,0.0344504043684424,0.005431,-0.000575,0.005015,0.232076,0.009461,312.139032,25.701145,0.999529,0.992157,0.003532,0.406116,0.000011,0.000035,0.000006,0.000037,0.000010,76.456319,0.000049,
2146,2083,-2.35094526278603,-12.2789979162563,0.0156253320075734,0.005040,-0.000471,0.003155,0.221371,0.029709,330.373040,24.121119,0.998900,0.980622,0.005443,0.304370,-0.000014,-0.000034,0.000010,-0.000010,-0.000038,23.444564,0.000050,
2506,2953,5.33091860285343,6.7232708985896,0.00136613596350799,0.005431,-0.000911,0.006423,0.224234,-0.003592,316.009514,25.399419,0.999617,0.990764,0.003830,0.373065,-0.000012,0.000003,0.000020,0.000017,-0.000026,54.516274,0.000027,
2476,2698,4.72782235156147,1.17083143313295,-0.0215478619984992,0.005319,-0.000567,0.004686,0.226092,0.019959,319.900438,24.360923,0.999659,0.988963,0.004154,0.403772,0.000018,0.000036,-0.000003,0.000036,0.000018,-80.175389,0.000055,
2161,2203,-2.04389509941911,-9.64960970586895,0.00366768599667466,0.005320,-0.000510,0.002590,0.235985,0.020274,328.304808,24.078905,0.998955,0.961475,0.006640,0.349187,-0.000004,0.000009,0.000014,0.000018,-0.000012,57.528004,0.000018,
2206,2443,-1.105259921831,-4.40136842554371,-0.0145631410288729,0.005166,-0.000794,0.003783,0.225046,0.005867,324.131035,24.072233,0.998617,0.983410,0.005307,0.417061,-0.000022,-0.000017,0.000000,-0.000017,-0.000022,86.816480,0.000040,
2191,2323,-1.40987704649983,-7.02588721945988,0.00856506544204194,0.005397,-0.000844,0.005371,0.230649,0.016249,326.310378,23.972809,0.999053,0.985148,0.004829,0.435892,-0.000018,-0.000009,-0.000006,-0.000006,-0.000021,-63.578165,0.000029,
2221,2488,-0.786054253554948,-3.41946871387168,-0.00671293275911466,0.005086,-0.000868,0.005294,0.216403,0.006605,323.421650,24.098303,0.999421,0.987153,0.004378,0.412722,-0.000008,-0.000016,0.000004,-0.000006,-0.000018,23.739983,0.000025,
2386,3238,2.6659136744033,12.902215329744,0.0155794291032976,0.005309,-0.000151,0.002814,0.234432,0.029841,311.251064,25.897060,0.999571,0.992836,0.003351,0.427688,0.000008,0.000033,0.000015,0.000040,0.000001,65.331196,0.000046,
2311,2938,1.09121823706063,6.38482985230253,-0.00931240297541081,0.005178,-0.000395,0.002232,0.230582,0.021985,315.955820,24.843039,0.999222,0.988364,0.004178,0.460645,-0.000001,0.000015,0.000005,0.000016,-0.000002,73.193192,0.000017,
2101,2098,-3.33299721302798,-11.9484423428565,0.02123136589654,0.006086,-0.000358,0.001331,0.275168,0.010501,330.421235,24.569653,0.999337,0.958883,0.007942,0.116657,-0.000017,-0.000031,0.000006,-0.000015,-0.000033,19.734114,0.000050,
2266,2728,0.149771994168667,1.81565190934371,-0.0219223117953788,0.004970,-0.000422,0.004124,0.214775,0.020022,319.308730,24.437939,0.999483,0.990973,0.003798,0.407977,-0.000011,0.000008,-0.000002,0.000008,-0.000011,-83.163391,0.000012,
2116,2038,-2.99741814404644,-13.2665137906228,0.0128989285450416,0.005636,-0.000436,-0.000226,0.258919,0.003052,331.232451,24.152575,0.999137,0.983335,0.005381,0.409680,-0.000030,-0.000055,-0.000004,-0.000029,-0.000056,-9.168969,0.000087,
2491,2668,5.06155207609808,0.516294207033368,-0.0173471354902972,0.005641,-0.000576,0.005129,0.238909,0.019552,320.476956,24.186935,0.999405,0.987132,0.004401,0.456506,0.000023,0.000011,-0.000018,0.000036,-0.000002,-35.996582,0.000041,
2446,2323,4.1516689283223,-7.02468890523887,0.00724716921121171,0.005436,-0.000507,0.004507,0.231988,0.019255,326.172503,23.007411,0.999296,0.980432,0.005237,0.427117,-0.000004,0.000011,-0.000018,0.000023,-0.000016,-56.860079,0.000024,
2281,2773,0.468242380649812,2.79526586488245,-0.0156660894392644,0.005033,-0.000917,0.006482,0.209526,0.016331,318.602047,24.511408,0.999262,0.988399,0.004218,0.417098,-0.000003,0.000019,0.000011,0.000023,-0.000007,68.017241,0.000024,
2251,2608,-0.154374799677978,-0.800984037955644,-0.0173499698337309,0.005378,-0.001028,0.003065,0.236752,-0.019738,321.344638,24.173892,0.999179,0.986259,0.004637,0.439532,-0.000013,-0.000008,0.000002,-0.000007,-0.000013,74.313357,0.000021,
2416,2143,3.53221267098931,-10.9694602974436,0.0185502484393965,0.004806,-0.001080,0.006707,0.195015,0.012326,329.088653,22.558653,0.999328,0.980938,0.005182,0.382439,-0.000012,-0.000006,-0.000005,-0.000003,-0.000015,-60.955303,0.000019,
2041,3253,-4.81673514095089,13.1937686748292,0.0448027223440022,0.005232,-0.000433,0.004467,0.229121,0.015004,312.187112,24.068035,0.999651,0.994695,0.002925,0.442916,0.000011,0.000040,-0.000047,0.000074,-0.000023,-53.570949,0.000076,
2071,2038,-3.97829994201864,-13.2646948697787,0.0159255347907674,0.005604,0.000515,-0.003854,0.268119,0.039360,331.480742,24.518346,0.999023,0.984084,0.005036,0.375789,0.000011,-0.000094,0.000003,0.000011,-0.000094,1.702812,0.000103,
2356,3073,2.04591684451,9.3194537541122,0.0167301485068947,0.005483,-0.000421,0.005221,0.233909,0.032071,313.954697,25.339477,0.999625,0.992894,0.003396,0.417403,0.000006,0.000013,0.000000,0.000013,0.000006,88.461787,0.000019,
2341,3058,1.72189981208132,8.99191750813466,0.00661879580354707,0.005176,-0.000679,0.003131,0.227188,0.018188,314.110514,25.135154,0.999687,0.993837,0.003202,0.518840,0.000000,0.000003,-0.000002,0.000004,-0.000001,-65.568905,0.000004,
2071,3223,-4.16191401781931,12.5468947820356,0.0483792628572246,0.005334,-0.000463,0.006030,0.229048,0.031390,312.534550,24.259832,0.999564,0.993411,0.003263,0.436476,0.000017,0.000032,-0.000023,0.000049,0.000000,-54.363969,0.000057,
2026,2023,-4.95692966776535,-13.5933064101474,0.0213846009619374,0.005777,-0.000012,0.002496,0.258147,0.058312,332.009858,24.795759,0.998619,0.982861,0.005516,0.418418,0.000019,-0.000162,0.000015,0.000020,-0.000163,4.624610,0.000177,
2506,2968,5.32766631236094,7.04969440182294,0.00135677090491981,0.005199,-0.000647,0.005522,0.217271,0.015866,315.756755,25.456940,0.999542,0.989700,0.004120,0.395785,-0.000011,0.000034,0.000023,0.000043,-0.000021,67.281196,0.000043,
2461,2518,4.43908154877841,-2.76063639561661,0.00617188184202178,0.004964,-0.000844,0.006353,0.203374,0.018942,323.003816,23.666197,0.999258,0.984298,0.004584,0.437454,0.000025,-0.000024,-0.000011,0.000027,-0.000027,-11.445637,0.000031,
2041,2098,-4.64109191134711,-11.9501853023175,0.0235520656113408,0.005399,-0.000254,-0.000199,0.248210,0.018472,330.728132,24.693895,0.999283,0.981467,0.005118,0.359168,-0.000014,-0.000051,0.000002,-0.000013,-0.000051,2.953891,0.000068,
2326,2998,1.40715280828579,7.68823745406123,0.00977726481642094,0.005241,-0.000979,0.007768,0.214055,0.008256,315.110079,25.032310,0.999772,0.994884,0.003065,0.426001,-0.000005,0.000007,0.000000,0.000007,-0.000005,-88.730596,0.000007,
2236,2578,-0.475480252678945,-1.45484467565819,-0.0173026623077703,0.005487,-0.000543,0.004113,0.238660,0.017551,321.863187,24.169942,0.999449,0.989437,0.004035,0.452232,-0.000011,-0.000002,-0.000001,-0.000002,-0.000012,-83.193655,0.000015,
2176,2308,-1.73431459152752,-7.35326363799515,0.0133741921721935,0.004875,-0.000262,0.004865,0.208674,0.044777,326.616495,24.094572,0.998845,0.982312,0.005248,0.385470,-0.000020,-0.000013,-0.000003,-0.000012,-0.000021,-69.823049,0.000033,
2431,2278,3.83220893265688,-8.01012077801908,0.00483724425259879,0.004922,-0.000909,0.006816,0.199926,0.015557,326.821257,22.872573,0.999230,0.978089,0.005720,0.460167,-0.000018,0.000002,-0.000023,0.000017,-0.000033,-56.467211,0.000033,
2296,2848,0.781286832097273,4.42719273446796,-0.0116339470786784,0.005149,-0.000366,0.005036,0.219740,0.019451,317.407106,24.628503,0.999676,0.992960,0.003581,0.461657,0.000004,0.000014,0.000014,0.000024,-0.000006,54.561776,0.000025,
2386,3253,2.66229793334085,13.2277683087371,0.00960127469568306,0.005329,-0.000434,0.006152,0.223255,0.025290,310.943344,25.938086,0.999672,0.992501,0.003311,0.423796,0.000004,0.000045,0.000017,0.000051,-0.000002,69.984606,0.000058,
2041,3268,-4.81936608473942,13.5196855584226,0.039870273347276,0.005329,-0.000300,0.005321,0.231382,0.037873,311.902083,24.116438,0.999601,0.994231,0.003041,0.408208,0.000022,0.000032,-0.000047,0.000074,-0.000020,-48.122328,0.000077,
2146,2098,-2.35299173832562,-11.9510273627153,0.018599901944981,0.005300,-0.000547,0.004515,0.229206,0.019391,330.165124,24.098262,0.999257,0.983141,0.005108,0.327726,-0.000012,-0.000024,0.000010,-0.000006,-0.000030,30.298914,0.000038,
2476,2713,4.72468381585204,1.49682953625479,-0.0209498049480885,0.005202,-0.000519,0.004996,0.219567,0.018685,319.654986,24.331974,0.999578,0.989379,0.004233,0.488323,0.000013,0.000037,0.000002,0.000037,0.000013,84.979148,0.000052,
2131,2203,-2.69761601092565,-9.65045872313769,0.00908348577422657,0.005162,-0.000700,0.004620,0.222876,0.018896,328.451426,24.187672,0.998706,0.979312,0.005479,0.387828,-0.000009,0.000015,0.000012,0.000019,-0.000013,67.697101,0.000020,
2191,2338,-1.41200214067083,-6.69739299681087,0.0186809013651441,0.005175,-0.000741,0.006298,0.217605,0.011277,326.139104,24.144534,0.999666,0.990132,0.004194,0.275227,-0.000020,-0.000009,-0.000010,-0.000003,-0.000026,-59.250366,0.000032,
2491,2683,5.05772413825885,0.844133913102006,-0.0240473843495579,0.005499,-0.000788,0.005591,0.230551,0.012513,320.167896,24.263596,0.999664,0.990210,0.003860,0.432089,0.000023,0.000026,-0.000012,0.000037,0.000012,-48.437824,0.000050,
2161,2218,-2.04610397996416,-9.32205773539685,0.0106403965310164,0.005313,-0.000920,0.005742,0.225917,-0.006451,328.111732,24.117779,0.998818,0.979444,0.005492,0.295972,-0.000003,0.000006,0.000010,0.000012,-0.000009,57.921908,0.000013,
2026,2038,-4.95870797780564,-13.2658996096212,0.0248263627736378,0.005837,-0.000183,0.000446,0.266507,0.014956,331.807487,24.736005,0.998634,0.979148,0.005683,0.428422,0.000011,-0.000134,0.000014,0.000012,-0.000135,5.333787,0.000150,
2371,3208,2.34698467037616,12.2488300953999,0.0306264847871489,0.005343,-0.000326,0.004605,0.229601,0.019488,311.858421,25.707628,0.999466,0.992192,0.003629,0.449290,0.000011,0.000031,0.000007,0.000033,0.000009,72.590895,0.000044,
2446,2338,4.14909936691359,-6.69660292978075,0.0145656715757809,0.005364,-0.000911,0.005558,0.224655,0.007108,325.983329,23.125148,0.999215,0.980582,0.005237,0.351041,0.000000,0.000017,-0.000016,0.000027,-0.000009,-59.048996,0.000028,
2101,2113,-3.33548129779806,-11.6235915275322,0.0317697036921913,0.005457,-0.000729,0.004777,0.236188,0.000760,330.231022,24.348256,0.999096,0.978472,0.005772,0.332528,-0.000013,-0.000025,0.000007,-0.000009,-0.000028,24.741938,0.000039,
2071,3238,-4.16413351612955,12.8716008617765,0.0486552213868094,0.005459,-0.000605,0.005138,0.237451,0.043801,312.299899,24.228804,0.999553,0.993182,0.003310,0.475520,0.000022,0.000027,-0.000025,0.000050,-0.000001,-47.683164,0.000057,
2041,3283,-4.82212638629069,13.8439690407605,0.0360336056318715,0.005186,-0.000487,0.005444,0.224413,0.028636,311.617906,24.056660,0.999542,0.993988,0.003127,0.449906,0.000031,0.000043,-0.000044,0.000082,-0.000008,-48.753737,0.000090,
2206,2458,-1.10693981871794,-4.07439275411857,-0.00718463945918302,0.005310,-0.000236,0.000556,0.242082,0.019065,323.967048,24.097657,0.999021,0.984807,0.005038,0.422411,-0.000018,-0.000014,0.000006,-0.000009,-0.000022,55.776233,0.000033,
2506,2983,5.32426751421774,7.37569068671654,-0.00012359894913061,0.005096,-0.000819,0.006391,0.209101,0.016239,315.490702,25.488298,0.999425,0.987890,0.004244,0.425183,-0.000006,0.000047,0.000030,0.000061,-0.000020,65.644325,0.000062,
2281,2788,0.466050133030041,3.12187002613275,-0.0143885220612106,0.005347,-0.000655,0.004893,0.229390,0.027100,318.388328,24.550707,0.999153,0.987104,0.004409,0.416166,0.000003,0.000020,0.000012,0.000026,-0.000003,63.072333,0.000028,
2071,2053,-3.98060997682694,-12.93645458417,0.0222124363824037,0.005425,0.000163,0.000279,0.248072,0.041600,331.272768,24.527413,0.998474,0.976749,0.005919,0.369153,0.000006,-0.000088,-0.000003,0.000006,-0.000088,-2.057409,0.000099,
2416,2158,3.52927616461875,-10.6408118095434,0.0171377462217492,0.004727,-0.001086,0.004165,0.200688,-0.018113,328.840792,22.595231,0.999222,0.979682,0.005370,0.365898,-0.000011,-0.000015,-0.000013,0.000000,-0.000026,-40.615887,0.000030,
2461,2533,4.43597198864076,-2.43197910956488,0.00107870627198281,0.005265,-0.000632,0.005820,0.219271,0.014556,322.733063,23.775631,0.999470,0.987801,0.004235,0.379153,0.000028,-0.000020,0.000001,0.000028,-0.000020,1.117333,0.000029,
2266,2743,0.147744985632155,2.14154415361544,-0.0169530932930684,0.005524,-0.000803,0.007637,0.228486,0.017925,319.120361,24.441147,0.999250,0.988172,0.004183,0.428517,-0.000010,0.000008,-0.000001,0.000008,-0.000010,-87.146329,0.000010,
2221,2503,-0.788655227892253,-3.09140753409228,-0.0107037422457665,0.005428,-0.000439,0.006301,0.229093,0.032527,323.157873,24.120138,0.999428,0.987481,0.004346,0.437064,-0.000009,-0.000008,0.000007,-0.000002,-0.000015,48.821720,0.000019,
2251,2623,-0.156688640013012,-0.473940823694186,-0.0122672426688268,0.005500,-0.000726,0.005104,0.235844,0.014131,321.142527,24.213380,0.999111,0.986217,0.004608,0.457866,-0.000012,-0.000003,0.000001,-0.000003,-0.000012,85.982447,0.000016,
2116,2053,-2.9999138312307,-12.937083775849,0.017282637816777,0.005446,-0.000262,0.003332,0.239792,0.020329,331.008796,24.234892,0.998768,0.979662,0.005459,0.351643,-0.000030,-0.000057,-0.000006,-0.000029,-0.000059,-11.292569,0.000090,
2356,3088,2.04299577441703,9.64495102775559,0.0202150385586037,0.005147,-0.000492,0.005237,0.218372,0.028983,313.722914,25.386304,0.999563,0.992123,0.003569,0.405341,0.000010,0.000014,-0.000005,0.000017,0.000007,-55.618163,0.000025,
2341,3073,1.71899568702723,9.3187736085176,0.00756786029705836,0.004925,-0.000435,0.001742,0.220567,0.017515,313.865829,25.285200,0.999677,0.993894,0.003164,0.403628,0.000005,0.000010,-0.000001,0.000010,0.000005,-83.565294,0.000015,
2476,2728,4.72219405914388,1.82461951693261,-0.0179681245164147,0.005528,-0.000698,0.005048,0.234282,0.010898,319.449749,24.497752,0.999596,0.991098,0.003700,0.371681,0.000004,0.000019,0.000008,0.000023,0.000001,66.376873,0.000027,
2041,2113,-4.64305346400394,-11.6222104656983,0.0256777329841498,0.005717,-0.000780,0.003027,0.253753,0.020990,330.511079,24.651970,0.999084,0.980346,0.005464,0.399054,-0.000016,-0.000056,0.000006,-0.000016,-0.000057,8.218478,0.000076,
2026,2053,-4.96137934616227,-12.9352532264898,0.0298937947238187,0.005338,-0.000691,0.005126,0.230669,0.028362,331.572545,24.937854,0.999716,0.992756,0.003599,0.233804,0.000009,-0.000122,0.000004,0.000009,-0.000122,1.776896,0.000136,
2386,3268,2.65899165571279,13.5533090675751,0.00607266255644845,0.005118,-0.000327,0.005050,0.217566,0.033399,310.661495,25.983385,0.999669,0.992278,0.003452,0.428527,0.000002,0.000039,0.000018,0.000046,-0.000005,68.039880,0.000051,
2041,3298,-4.82450051746271,14.1693073073202,0.0345709178529319,0.005314,-0.000252,0.005986,0.228939,0.044080,311.364254,24.086413,0.999523,0.994694,0.003154,0.426350,0.000041,0.000055,-0.000049,0.000097,-0.000001,-49.173540,0.000112,
2311,2953,1.088906573255,6.71078311501028,-0.00392716920276825,0.005233,-0.000344,0.002154,0.233418,0.030259,315.758792,24.900239,0.999326,0.990665,0.003851,0.443310,-0.000001,0.000016,0.000005,0.000017,-0.000002,76.386280,0.000019,
2146,2113,-2.35440209989245,-11.6243778497172,0.0329744258643245,0.005343,-0.000583,0.004427,0.231447,0.023313,330.046584,24.069635,0.999373,0.984159,0.005034,0.370705,-0.000008,-0.000018,0.000011,-0.000001,-0.000024,32.902842,0.000029,
2296,2863,0.778393579337536,4.75421552844785,-0.0126926995517351,0.005127,-0.000839,0.005601,0.216697,0.019552,317.150392,24.721178,0.999620,0.992871,0.003547,0.398682,0.000004,0.000013,0.000010,0.000019,-0.000002,56.597303,0.000021,
2236,2593,-0.477739317457253,-1.1285718237402,-0.0127662137844027,0.005528,-0.000795,0.004085,0.240585,0.007409,321.660167,24.169037,0.999380,0.987204,0.004467,0.464624,-0.000010,-0.000002,-0.000001,-0.000002,-0.000010,-80.818124,0.000012,
2506,2998,5.32150608253304,7.7019550338368,0.00248964962503351,0.005187,-0.000747,0.006129,0.214346,0.012965,315.272183,25.580030,0.999462,0.989663,0.003949,0.390399,-0.000006,0.000039,0.000039,0.000061,-0.000029,60.105069,0.000061,
2326,3013,1.40465788832369,8.01431958621698,0.00817582305518272,0.005455,-0.000857,0.004946,0.233766,0.011557,314.871128,25.073458,0.999392,0.989046,0.003996,0.421959,-0.000003,0.000002,-0.000001,0.000002,-0.000003,-80.389927,0.000003,
2191,2353,-1.4148219604402,-6.37017193995939,0.00766028118971462,0.005288,-0.000274,0.001349,0.238433,0.002080,325.826725,24.001326,0.999411,0.987328,0.004550,0.425818,-0.000022,-0.000013,-0.000009,-0.000008,-0.000027,-58.910031,0.000037,
2371,3223,2.34362795961505,12.5744588013846,0.0304193894986611,0.004973,-0.000519,0.005757,0.208420,0.017505,311.589241,25.776438,0.999578,0.992857,0.003383,0.418202,0.000011,0.000033,0.000007,0.000035,0.000009,74.402140,0.000046,
2056,2008,-4.30060652809865,-13.9251637779635,0.036143565479847,0.005248,-0.001131,0.006756,0.221352,0.010624,332.163568,24.615810,0.998902,0.981648,0.005449,0.350892,0.000012,-0.000116,-0.000005,0.000012,-0.000116,-2.029474,0.000128,
2176,2323,-1.73690598864494,-7.02504345113736,0.00395372440135588,0.005380,-0.000414,0.004298,0.233542,0.034862,326.321152,24.047666,0.998638,0.983062,0.005201,0.436903,-0.000018,-0.000010,-0.000005,-0.000007,-0.000020,-63.558969,0.000029,
2491,2698,5.0544496685861,1.17218017079676,-0.0274566310224031,0.005363,-0.000542,0.002835,0.234996,0.003877,319.898969,24.393235,0.999679,0.990020,0.003927,0.353206,0.000023,0.000032,-0.000012,0.000040,0.000015,-55.702310,0.000057,
2461,2548,4.43320885982036,-2.10396401669814,0.000702281843416586,0.005502,-0.000795,0.005026,0.233059,0.004507,322.499804,23.879201,0.999702,0.991552,0.003783,0.321036,0.000027,-0.000015,0.000000,0.000027,-0.000015,0.243489,0.000027,
2071,3253,-4.16696612076641,13.1971734684877,0.0428831954332054,0.005391,-0.000475,0.004893,0.234926,0.027261,312.003516,24.276445,0.999706,0.994739,0.003031,0.406662,0.000029,0.000030,-0.000027,0.000056,0.000003,-45.704358,0.000067,
2131,2218,-2.70044227174447,-9.32227113449741,0.0112895243701701,0.004723,-0.000904,0.006598,0.196774,0.016764,328.202516,24.209677,0.998292,0.978225,0.005697,0.372044,-0.000006,0.000011,0.000009,0.000015,-0.000010,67.229724,0.000015,
2431,2293,3.82957588280473,-7.68201457596762,0.0120171696776765,0.004820,-0.001319,0.008435,0.189142,0.005919,326.627717,22.974444,0.999206,0.980318,0.005405,0.400639,-0.000013,0.000009,-0.000025,0.000026,-0.000030,-56.948511,0.000032,
2071,2068,-3.98235973840544,-12.6089013880713,0.0373091500620717,0.005181,-0.000454,0.003119,0.228632,0.011574,331.138673,24.608100,0.998249,0.966501,0.007006,0.258121,0.000001,-0.000068,-0.000001,0.000001,-0.000068,-0.418096,0.000078,
2446,2353,4.1461107402478,-6.36895198465992,0.014563840183655,0.005309,-0.000743,0.004752,0.225217,0.022354,325.741173,23.108169,0.999406,0.981499,0.005293,0.437413,0.000008,0.000019,-0.000014,0.000028,-0.000002,-55.722467,0.000031,
2101,2128,-3.33817519961832,-11.294099363982,0.021557001063627,0.005466,-0.000240,0.000332,0.249710,0.000639,329.918722,24.319915,0.999000,0.986930,0.004967,0.365454,-0.000014,-0.000021,0.000011,-0.000007,-0.000029,35.895959,0.000038,
2416,2173,3.52587651540609,-10.3110699085047,0.00920087722772678,0.004952,-0.001068,0.004612,0.209410,-0.016182,328.540969,22.635661,0.998973,0.979958,0.005259,0.378035,-0.000015,-0.000016,-0.000015,0.000000,-0.000031,-43.407645,0.000036,
2476,2743,4.7186100065559,2.15146726092581,-0.0230253829229241,0.005432,-0.000723,0.005258,0.229157,0.026742,319.157752,24.493491,0.999727,0.992422,0.003528,0.448846,-0.000005,0.000016,0.000007,0.000018,-0.000007,72.544421,0.000018,
2221,2518,-0.791190690704031,-2.76466286528714,-0.00991021484941257,0.005201,-0.000272,0.003059,0.229073,0.017906,322.922002,24.110327,0.999313,0.986174,0.004479,0.452260,-0.000008,-0.000009,0.000009,0.000000,-0.000018,43.600833,0.000020,
2281,2803,0.462698140034593,3.44913907224897,-0.0202384471380697,0.005244,-0.000730,0.006277,0.220051,0.039849,318.085531,24.598772,0.999228,0.988480,0.004274,0.408686,0.000005,0.000013,0.000010,0.000019,-0.000001,55.300954,0.000022,
2116,2068,-3.00240439151638,-12.6084454159352,0.0190033439594117,0.005233,-0.000429,0.003837,0.228533,0.020134,330.771362,24.237874,0.998724,0.970581,0.006489,0.355140,-0.000029,-0.000043,-0.000001,-0.000029,-0.000044,-4.821617,0.000073,
2056,1993,-4.29849662886685,-14.2538469375073,0.0304112819379156,0.005366,-0.000970,0.004919,0.231964,0.004761,332.366671,24.592900,0.998815,0.980538,0.005509,0.369702,0.000001,-0.000134,-0.000023,0.000005,-0.000137,-9.604279,0.000156,
2161,2233,-2.04830033774313,-8.9946668526416,0.0160133616946609,0.005156,-0.000694,0.004920,0.221319,0.011445,327.910651,24.085191,0.998840,0.980444,0.005310,0.358832,-0.000008,0.000005,0.000006,0.000008,-0.000011,68.551080,0.000011,
2206,2473,-1.11017785544545,-3.74649517277618,-0.0129058571127416,0.005051,0.000060,0.000846,0.229389,0.019998,323.664001,24.103082,0.999398,0.983913,0.005059,0.436217,-0.000016,-0.000017,0.000010,-0.000006,-0.000027,43.502193,0.000036,
2266,2758,0.144277869854271,2.46906068686692,-0.0256357093749102,0.005429,-0.000764,0.008365,0.221772,0.025716,318.796773,24.479871,0.999269,0.988606,0.004158,0.423363,-0.000010,0.000015,0.000002,0.000016,-0.000010,86.367284,0.000016,
2146,2128,-2.35670451111951,-11.2948562246097,0.027893627584092,0.005546,-0.000287,0.000556,0.252582,0.001962,329.784271,24.121264,0.999241,0.982366,0.005224,0.308494,-0.000011,-0.000017,0.000011,-0.000002,-0.000025,37.162145,0.000030,
2506,3013,5.31887422890168,8.02822545215344,0.00182844882044719,0.005389,-0.000311,0.002389,0.238307,0.020800,315.044873,25.642972,0.999485,0.990610,0.003737,0.395766,-0.000007,0.000036,0.000043,0.000063,-0.000034,58.286354,0.000063,
2251,2638,-0.159786969362674,-0.145890165589421,-0.0176288579669972,0.005527,-0.000859,0.006225,0.233407,0.019003,320.851430,24.289981,0.998772,0.985763,0.004632,0.409918,-0.000012,-0.000004,0.000000,-0.000004,-0.000012,-89.258038,0.000017,
2386,3283,2.65619940324422,13.8780265843602,0.00719993095458449,0.005197,-0.000442,0.005782,0.218502,0.019560,310.425763,26.004077,0.999656,0.991622,0.003577,0.435653,0.000000,0.000034,0.000018,0.000042,-0.000008,66.133603,0.000044,
2041,2128,-4.64610674571427,-11.2927423375835,0.0187089778633549,0.005309,-0.000611,0.003056,0.234992,0.028186,330.193723,24.648496,0.998688,0.977680,0.006065,0.405726,-0.000025,-0.000047,0.000014,-0.000018,-0.000054,25.889845,0.000075,
2356,3103,2.04016540136978,9.97081293357349,0.0189321725400191,0.005289,-0.000585,0.005509,0.223956,0.022696,313.472102,25.443423,0.999573,0.991579,0.003744,0.379715,0.000015,0.000018,-0.000003,0.000020,0.000013,-58.481487,0.000034,
2476,2758,4.71615161481107,2.47623608619645,-0.0104347242175891,0.005304,-0.000995,0.009299,0.207812,0.024996,318.998059,24.460215,0.999606,0.990457,0.003834,0.536991,-0.000003,0.000008,-0.000003,0.000009,-0.000004,-75.492050,0.000009,
2371,3238,2.341027188519,12.9001666401822,0.0289083383881916,0.005338,-0.000178,0.005345,0.226883,0.041109,311.348527,25.823320,0.999737,0.993863,0.003104,0.434801,0.000010,0.000035,0.000006,0.000037,0.000008,76.816850,0.000048,
2056,2023,-4.30340481309448,-13.5944139865254,0.0276018959789894,0.005177,-0.000827,0.006129,0.219952,0.043899,331.850352,24.643293,0.998740,0.983074,0.005349,0.355495,0.000006,-0.000138,-0.000011,0.000007,-0.000138,-4.240530,0.000156,
2236,2608,-0.48019994152121,-0.801694851107108,-0.0149602231184645,0.005759,-0.000847,0.002818,0.255281,-0.015321,321.413517,24.182322,0.999176,0.985400,0.004695,0.450525,-0.000006,0.000000,0.000003,0.000001,-0.000008,65.207520,0.000008,
2101,2143,-3.34132163759016,-10.9653784657094,0.0242502016694175,0.005316,-0.001473,0.013291,0.204724,0.033144,329.655181,24.334194,0.998819,0.983060,0.005347,0.388140,-0.000014,-0.000007,0.000012,0.000002,-0.000023,53.016276,0.000026,
2341,3088,1.71578303256978,9.64395915878327,0.00942230496156071,0.004841,-0.000864,0.007557,0.196233,0.005015,313.611842,25.302810,0.999662,0.993875,0.003160,0.409120,0.000009,0.000011,-0.000006,0.000015,0.000004,-49.642891,0.000020,
2071,2083,-3.98726138634982,-12.2768102457563,0.00795104704371852,0.004644,-0.000631,0.007203,0.192345,0.055132,330.617333,24.543352,0.998732,0.968032,0.006717,0.367995,-0.000005,-0.000049,-0.000001,-0.000005,-0.000049,-1.362750,0.000060,
2326,3028,1.40216685785635,8.3401786242422,0.00984442545882303,0.005489,-0.000570,0.002956,0.242249,0.000245,314.648407,25.134684,0.999603,0.991574,0.003648,0.382952,0.000000,0.000001,-0.000002,0.000002,-0.000002,-53.019947,0.000002,
2191,2368,-1.417996079839,-6.04105916345056,0.0019949404855879,0.005110,-0.000090,0.002436,0.226961,0.029712,325.525333,24.052946,0.999531,0.988088,0.004457,0.418580,-0.000023,-0.000013,-0.000008,-0.000008,-0.000028,-60.893463,0.000038,
2176,2338,-1.74013732884725,-6.69573494914465,-0.00364130669260021,0.005253,-0.000638,0.005552,0.223827,0.025417,326.005800,24.124241,0.999110,0.985724,0.004767,0.365337,-0.000021,-0.000011,-0.000010,-0.000005,-0.000027,-58.236292,0.000034,
2071,3268,-4.17001900672073,13.5224506032839,0.0309646132265584,0.005401,-0.000205,0.003287,0.240094,0.030917,311.663325,24.247437,0.999775,0.995836,0.002834,0.434669,0.000036,0.000029,-0.000025,0.000058,0.000007,-40.805155,0.000072,
2491,2713,5.05098657306654,1.49882944912605,-0.0315766788836527,0.005277,-0.000350,0.002325,0.233114,0.014070,319.618309,24.374986,0.999584,0.989557,0.004245,0.440821,0.000018,0.000035,-0.000007,0.000037,0.000016,-70.764765,0.000054,
2116,2083,-3.00465620163761,-12.2789934440588,0.015512362000095,0.005405,-0.000530,0.001262,0.243981,-0.007321,330.516981,24.289891,0.998681,0.976206,0.006105,0.282659,-0.000028,-0.000033,-0.000001,-0.000027,-0.000033,-10.610865,0.000060,
2296,2878,0.775696094372123,5.08008508815259,-0.0145514350937788,0.005129,-0.000397,0.003173,0.225177,0.026825,316.898973,24.699223,0.999592,0.991976,0.003690,0.457612,0.000002,0.000007,0.000007,0.000012,-0.000003,56.278532,0.000012,
2446,2368,4.14290323158634,-6.0397989535031,0.00693422271967847,0.005455,-0.000525,0.001326,0.244730,-0.001768,325.453804,23.199019,0.999449,0.984842,0.004952,0.376580,0.000012,0.000017,-0.000009,0.000024,0.000006,-52.381474,0.000031,
2461,2563,4.42883985712044,-1.77518802163239,-0.0184341633798795,0.005784,-0.000495,0.005555,0.244181,0.023184,322.106765,23.863666,0.999393,0.988671,0.004341,0.411034,0.000026,-0.000002,0.000002,0.000026,-0.000002,3.560911,0.000029,
2431,2308,3.82757250535981,-7.3528192625406,0.0158559034906034,0.005277,-0.000730,0.005822,0.219963,0.025369,326.447278,23.117503,0.999259,0.983106,0.004979,0.328827,-0.000007,0.000014,-0.000025,0.000031,-0.000024,-56.754224,0.000032,
2311,2968,1.08748992652689,7.03708102279899,0.00698503568850128,0.005707,-0.000050,0.001218,0.258566,0.033994,315.630035,25.035220,0.999909,0.997411,0.002527,0.343449,-0.000001,0.000016,0.000005,0.000017,-0.000002,75.436150,0.000018,
2281,2818,0.46079000887428,3.77417218491207,-0.011948261174723,0.005233,-0.000743,0.003424,0.229008,-0.000700,317.920344,24.607262,0.999299,0.989442,0.004006,0.387087,0.000006,0.000015,0.000013,0.000024,-0.000003,55.130386,0.000026,
2161,2248,-2.05111276886299,-8.66560070802393,0.00629091222532452,0.005331,-0.000635,0.003013,0.235219,0.007612,327.601958,24.076948,0.998791,0.979501,0.005292,0.375924,-0.000008,0.000001,0.000005,0.000003,-0.000010,66.422736,0.000010,
2206,2488,-1.11330178927103,-3.41841656293511,-0.0164882202893182,0.004917,-0.000647,0.003296,0.215257,0.005565,323.377182,24.165634,0.999322,0.985728,0.004747,0.377283,-0.000016,-0.000016,0.000010,-0.000006,-0.000026,45.647901,0.000034,
2056,2038,-4.3054469492878,-13.2640570719632,0.0131426670147903,0.005640,0.000543,-0.003915,0.269822,0.036937,331.539470,24.615304,0.998619,0.980660,0.005523,0.375095,0.000003,-0.000109,-0.000007,0.000004,-0.000110,-3.319046,0.000125,
2416,2188,3.52467044761073,-9.98253492574582,0.0255260552605137,0.005243,-0.000487,0.002785,0.229622,0.016882,328.454625,22.796696,0.999283,0.982911,0.005059,0.299957,-0.000013,-0.000021,-0.000019,0.000002,-0.000036,-39.088701,0.000040,
2221,2533,-0.793883454891752,-2.43605499133974,-0.011170285634023,0.005212,-0.000147,0.003254,0.229069,0.036645,322.667845,24.224291,0.999579,0.989476,0.003979,0.376774,-0.000013,-0.000005,0.000007,-0.000001,-0.000016,59.279244,0.000020,
2266,2773,0.142026521279075,2.79565207648992,-0.0228538551868951,0.005376,-0.000405,0.004374,0.232719,0.029491,318.586847,24.532873,0.999276,0.987792,0.004206,0.399580,-0.000007,0.000018,0.000005,0.000019,-0.000008,78.255669,0.000019,
2386,3298,2.65209145193412,14.2044594519862,-0.0118673958748445,0.005432,-0.000208,0.005016,0.232260,0.039043,310.032362,26.045043,0.999728,0.992785,0.003458,0.456063,0.000001,0.000019,0.000018,0.000030,-0.000010,58.234320,0.000031,
2371,3253,2.33782099623693,13.2252975294188,0.0226404211977638,0.005527,-0.000443,0.005709,0.234183,0.022112,311.057213,25.836981,0.999691,0.993023,0.003267,0.441611,0.000008,0.000045,0.000009,0.000047,0.000006,77.673965,0.000058,
2086,2158,-3.67098699609643,-10.6350133210789,0.00785792977990241,0.005277,-0.000932,0.003766,0.231059,-0.007859,329.376114,24.438012,0.999024,0.983669,0.005130,0.328699,-0.000010,-0.000013,0.000001,-0.000009,-0.000014,16.152569,0.000023,
2101,2233,-3.35534096060725,-8.99317753827511,0.00589012791982668,0.005765,-0.000223,0.001456,0.260338,0.033707,328.111022,24.348598,0.998564,0.982762,0.005288,0.398081,-0.000008,0.000014,0.000007,0.000016,-0.000010,73.645623,0.000016,
2506,3028,5.31617507049642,8.35357972342884,0.00720457288650778,0.005426,-0.000271,0.003567,0.235449,0.020472,314.841672,25.673954,0.999609,0.992078,0.003586,0.424625,-0.000003,0.000030,0.000038,0.000056,-0.000028,56.678099,0.000056,
2236,2623,-0.482798150423623,-0.474148787623434,-0.0112199055890869,0.005794,-0.000809,0.006592,0.244762,0.019822,321.190407,24.254847,0.999187,0.984837,0.004780,0.434699,-0.000006,0.000003,0.000002,0.000003,-0.000006,75.131572,0.000006,
2341,3103,1.71438538051448,9.96895822710566,0.0206375646076822,0.005144,-0.000556,0.004000,0.222750,0.014287,313.486937,25.343797,0.999583,0.993041,0.003439,0.412993,0.000012,0.000016,-0.000005,0.000019,0.000009,-56.131721,0.000029,
2476,2773,4.71195508474635,2.80534811762747,-0.0210785107244646,0.004893,-0.000898,0.007333,0.196474,0.019636,318.651890,24.650851,0.999197,0.987118,0.004330,0.397781,-0.000010,0.000011,-0.000008,0.000013,-0.000012,-71.724155,0.000015,
2356,3118,2.03792190180146,10.2952939770714,0.0246327474672512,0.005382,-0.000587,0.004542,0.231607,0.013849,313.282443,25.423290,0.999577,0.991892,0.003680,0.428711,0.000015,0.000023,-0.000001,0.000023,0.000015,-84.487073,0.000038,
2491,2728,5.0481269669692,1.82616453305401,-0.0287884095549771,0.005459,-0.000646,0.004622,0.232576,0.017459,319.396305,24.487192,0.999550,0.991662,0.003683,0.391168,0.000008,0.000017,-0.000002,0.000017,0.000008,-80.129237,0.000026,
2326,3043,1.39961112605672,8.66571818354182,0.0135923775454216,0.005380,-0.000370,0.002014,0.240645,0.017504,314.432924,25.155481,0.999676,0.992416,0.003532,0.412996,0.000000,0.000005,-0.000003,0.000006,-0.000001,-65.147011,0.000007,
2071,2098,-3.98819867479116,-11.9511213270026,0.0340747266364474,0.004486,-0.001510,0.009454,0.178433,0.011573,330.580850,24.597913,0.998771,0.976856,0.005690,0.268954,-0.000005,-0.000037,-0.000002,-0.000005,-0.000037,-3.815521,0.000046,
2116,2098,-3.00626694333945,-11.9499718106795,0.0198258090778722,0.005907,-0.000531,0.001696,0.265758,0.011400,330.333425,24.347882,0.999106,0.975872,0.005991,0.249644,-0.000025,-0.000023,0.000000,-0.000023,-0.000025,-89.421267,0.000048,
2251,2653,-0.162584985350886,0.180690859269987,-0.0149970496064498,0.005161,-0.000811,0.005751,0.218176,0.012107,320.614884,24.315897,0.999278,0.988816,0.004233,0.401083,-0.000012,0.000001,0.000002,0.000001,-0.000012,80.317698,0.000013,
2146,2143,-2.36071553774106,-10.9658425837694,0.0166666692457511,0.004954,-0.000675,0.004392,0.213743,0.016365,329.411321,24.031363,0.999391,0.982283,0.005210,0.424413,-0.000013,-0.000017,0.000012,-0.000003,-0.000027,39.836091,0.000033,
2101,2158,-3.34358456623955,-10.636775906773,0.0262868943319745,0.004995,-0.000998,0.009128,0.202269,0.020585,329.428706,24.380366,0.998906,0.982420,0.005372,0.333382,-0.000014,-0.000016,0.000001,-0.000013,-0.000016,30.891872,0.000030,
2446,2383,4.13965096653065,-5.71126542959605,0.00910138743256539,0.005369,-0.000749,0.005425,0.225516,0.020937,325.209209,23.287007,0.999728,0.988135,0.004554,0.365364,0.000015,0.000018,-0.000020,0.000036,-0.000004,-47.307118,0.000040,
2296,2893,0.773358593747265,5.40609049637702,-0.0114907405626354,0.005303,-0.000590,0.003048,0.233538,0.016462,316.688459,24.747614,0.999535,0.991575,0.003707,0.428545,0.000002,0.000008,0.000011,0.000016,-0.000006,52.168807,0.000016,
2431,2323,3.82439354745455,-7.02471704683686,0.00969775974800768,0.005324,-0.000145,0.002843,0.233356,0.033441,326.166763,23.077521,0.999232,0.982076,0.005038,0.429055,-0.000011,0.000009,-0.000018,0.000020,-0.000022,-59.120247,0.000024,
2131,2233,-2.70205305454189,-8.99362421104421,0.0155307532683651,0.005189,-0.000477,0.005825,0.220625,0.043240,328.019763,24.270785,0.998658,0.980121,0.005470,0.345370,-0.000010,0.000010,0.000007,0.000013,-0.000012,72.169814,0.000014,
2371,3268,2.33405049139997,13.5511483560591,0.0135145161625587,0.005276,-0.000359,0.004784,0.225955,0.022651,310.725840,25.886522,0.999713,0.993345,0.003278,0.432155,0.000006,0.000040,0.000010,0.000043,0.000004,75.254355,0.000052,
2311,2983,1.08478618442863,7.36157253422129,0.0113850338267412,0.005547,-0.000357,0.002577,0.246445,0.023231,315.410522,24.976627,0.999714,0.994898,0.003032,0.422902,-0.000001,0.000003,0.000004,0.000005,-0.000003,60.723085,0.000005,
2176,2353,-1.74259205915199,-6.36720275115248,-0.012094759597403,0.005419,0.000272,-0.001071,0.252247,0.028933,325.721573,24.114555,0.998800,0.981548,0.005325,0.392944,-0.000026,-0.000015,-0.000009,-0.000010,-0.000031,-60.587038,0.000043,
2071,3283,-4.17307548128895,13.8474151880595,0.0250933327171197,0.005303,-0.000257,0.005999,0.227799,0.035965,311.356347,24.226509,0.999734,0.996145,0.002786,0.456035,0.000043,0.000038,-0.000023,0.000064,0.000017,-42.036642,0.000086,
2161,2263,-2.05436040764631,-8.33587432372779,-0.000679194720248688,0.005316,-0.000875,0.007407,0.221049,0.035518,327.287511,24.132034,0.998789,0.980279,0.005471,0.361491,-0.000009,-0.000008,0.000003,-0.000005,-0.000012,48.886258,0.000018,
2461,2578,4.42446729302093,-1.44726449736867,-0.0296355888851849,0.005421,-0.000591,0.006247,0.224949,0.032487,321.749866,23.856130,0.999556,0.991471,0.004117,0.483758,0.000028,0.000012,0.000005,0.000029,0.000010,16.853794,0.000041,
2401,1993,3.23595272297489,-14.2637039349065,0.0392583154344379,0.004900,0.000202,-0.000096,0.224399,0.048524,331.688661,22.202635,0.998722,0.968960,0.006672,0.369722,-0.000039,-0.000083,-0.000009,-0.000037,-0.000085,-11.068473,0.000125,
2056,2053,-4.30759093325122,-12.9351293642338,0.0157742293004617,0.005804,0.000432,-0.000136,0.266752,0.037203,331.317843,24.648034,0.997921,0.977316,0.006003,0.340370,0.000001,-0.000102,-0.000011,0.000003,-0.000103,-6.232799,0.000118,
2101,2248,-3.3579996785799,-8.66470464112269,-0.000208802708357325,0.005609,0.000138,-0.002175,0.263936,0.020380,327.822665,24.332398,0.998592,0.985364,0.005098,0.404946,-0.000010,0.000022,0.000006,0.000023,-0.000011,79.002966,0.000023,
2191,2383,-1.42064639659219,-5.71367214517085,0.00195701163050899,0.005261,-0.000487,0.006396,0.221415,0.023944,325.277550,24.040014,0.999323,0.987074,0.004587,0.441867,-0.000025,-0.000010,-0.000010,-0.000005,-0.000030,-64.600384,0.000038,
2506,3043,5.31285955301934,8.68066235696339,0.00534630669989156,0.005357,-0.000263,0.003444,0.232823,0.027420,314.577088,25.812872,0.999746,0.992462,0.003691,0.352943,0.000005,0.000018,0.000034,0.000046,-0.000023,50.674788,0.000046,
2416,2203,3.5213323659164,-9.65445653877702,0.0169492191628251,0.005345,-0.000389,0.000462,0.242835,0.007435,328.154737,22.700946,0.999286,0.981594,0.005333,0.436908,-0.000014,-0.000012,-0.000016,0.000003,-0.000029,-47.312699,0.000032,
2281,2833,0.457794762689385,4.10055589267525,-0.0159171878594861,0.005261,-0.000771,0.003630,0.229622,0.004496,317.643500,24.605078,0.999473,0.991455,0.003790,0.422335,0.000006,0.000017,0.000017,0.000029,-0.000006,54.801445,0.000031,
2086,2173,-3.67249827693322,-10.3071697744091,0.0115536260706222,0.005767,-0.000857,0.002606,0.256892,0.010376,329.191734,24.407764,0.999065,0.983753,0.004990,0.378966,-0.000009,-0.000005,0.000005,-0.000001,-0.000013,56.705111,0.000016,
2071,2113,-3.99014526046421,-11.6215443297902,0.0285000525758505,0.005066,-0.000956,0.007928,0.209577,0.040566,330.324507,24.591752,0.998916,0.981585,0.005337,0.304185,-0.000004,-0.000035,-0.000001,-0.000004,-0.000035,-1.910347,0.000043,
2356,3133,2.03513522889206,10.6212582586612,0.0273383942807186,0.005328,-0.000417,0.005674,0.225254,0.026661,313.052766,25.503065,0.999519,0.991391,0.003790,0.399587,0.000016,0.000027,0.000001,0.000027,0.000016,86.898806,0.000044,
2116,2113,-3.00958591332713,-11.6233939728706,0.0246331631368548,0.005132,-0.001335,0.009514,0.206936,0.007445,330.075033,24.216295,0.999230,0.984935,0.004941,0.384018,-0.000020,-0.000016,0.000002,-0.000015,-0.000021,65.714944,0.000036,
2476,2788,4.70971344989283,3.13243820523409,-0.0229772859619288,0.005535,-0.000466,0.003429,0.240984,0.026016,318.435705,24.717373,0.999220,0.985404,0.004499,0.394206,-0.000015,0.000012,-0.000010,0.000015,-0.000018,-71.677936,0.000019,
2206,2503,-1.11539023979513,-3.09217194697592,-0.00817209990157153,0.005067,-0.000638,0.006968,0.210546,0.025736,323.199412,24.138954,0.999511,0.988549,0.004271,0.441925,-0.000018,-0.000007,0.000011,0.000000,-0.000024,58.489948,0.000028,
2071,3298,-4.17558408557077,14.1722947132902,0.0224287159628602,0.005294,-0.000307,0.004524,0.231612,0.030666,311.092206,24.229684,0.999505,0.994418,0.003142,0.442823,0.000053,0.000057,-0.000030,0.000085,0.000025,-46.960736,0.000116,
2266,2788,0.139476690101905,3.12157103804704,-0.0203474239650632,0.005251,-0.000405,0.003248,0.230719,0.025274,318.362001,24.534048,0.999290,0.988009,0.004301,0.419875,-0.000002,0.000018,0.000008,0.000020,-0.000005,70.900653,0.000021,
2491,2743,5.04477741661595,2.15319037353024,-0.0314900230767989,0.005456,-0.000594,0.005129,0.230570,0.028096,319.126997,24.524162,0.999715,0.991430,0.003665,0.423995,-0.000005,0.000013,-0.000003,0.000014,-0.000005,-82.461445,0.000014,
2101,2173,-3.34623856586597,-10.3070319504351,0.0138689493269339,0.005125,-0.000586,0.003639,0.224428,0.009538,329.106333,24.381042,0.999007,0.983319,0.005169,0.326070,-0.000012,-0.000005,0.000006,-0.000001,-0.000016,60.053758,0.000019,
2341,3118,1.71240777392377,10.2939647787919,0.0304411917260836,0.005319,-0.000574,0.004935,0.227533,0.019026,313.328442,25.383684,0.999573,0.992788,0.003541,0.413216,0.000013,0.000022,-0.000003,0.000022,0.000012,-74.595856,0.000035,
2371,3283,2.33076376173068,13.8763056277817,0.00852944949912171,0.005230,-0.000460,0.004431,0.225011,0.005232,310.436816,25.917443,0.999637,0.993088,0.003360,0.423379,0.000006,0.000038,0.000009,0.000041,0.000004,75.900485,0.000050,
2221,2548,-0.795915855164591,-2.10950876020717,-0.00980477774606925,0.005463,-0.000015,0.000199,0.250405,0.027894,322.457940,24.204948,0.999714,0.991407,0.003639,0.407313,-0.000011,-0.000006,0.000010,0.000002,-0.000019,51.659854,0.000020,
2431,2338,3.82139330490866,-6.69537239998179,0.00351763032921326,0.005700,-0.000231,0.001496,0.255527,0.027131,325.894161,23.171323,0.999196,0.982563,0.004860,0.381019,-0.000007,0.000017,-0.000016,0.000025,-0.000015,-62.786166,0.000025,
2056,2068,-4.31020571158829,-12.6068153419057,0.0194501206200357,0.005586,-0.000582,0.006063,0.239052,0.025292,331.080650,24.653772,0.998685,0.978976,0.005523,0.320809,0.000000,-0.000078,-0.000005,0.000000,-0.000078,-3.615520,0.000091,
2401,2008,3.23270760507641,-13.9332672848895,0.0316451609184014,0.005201,-0.000068,0.000082,0.237479,0.015754,331.396827,22.277035,0.998432,0.968327,0.006747,0.311933,-0.000013,-0.000063,-0.000009,-0.000012,-0.000064,-9.661935,0.000082,
2251,2668,-0.165369686929619,0.507380501707971,-0.0141942057601341,0.005036,-0.000730,0.006610,0.209703,0.032387,320.369569,24.313707,0.999541,0.990932,0.003840,0.447410,-0.000008,0.000004,-0.000003,0.000004,-0.000008,-77.005921,0.000008,
2101,2263,-3.36076369250421,-8.33775815955713,0.00508035116399697,0.005271,-0.000818,0.004345,0.229096,0.007171,327.591147,24.298769,0.998702,0.984198,0.005109,0.428839,-0.000009,0.000016,0.000013,0.000021,-0.000015,67.257657,0.000022,
2506,3058,5.31028853829137,9.00497406544946,0.0120866857316173,0.005383,-0.000499,0.004389,0.230221,0.011015,314.386044,25.779777,0.999752,0.992388,0.003783,0.429940,0.000010,0.000024,0.000024,0.000042,-0.000008,53.474715,0.000045,
2146,2158,-2.36301885661959,-10.6351224813518,0.0121683878325598,0.005303,-0.000497,0.003121,0.233678,0.016782,329.151685,24.189370,0.999709,0.966031,0.006418,0.277754,-0.000013,-0.000022,0.000002,-0.000012,-0.000023,12.665608,0.000035,
2326,3058,1.39639185155525,8.99106865696257,0.012461980987041,0.005254,-0.000750,0.004736,0.225361,0.021732,314.163045,25.143784,0.999698,0.993613,0.003245,0.462482,0.000001,0.000004,0.000001,0.000005,0.000000,73.975428,0.000006,
2296,2908,0.771293232043238,5.73183606724973,-0.00537922905641608,0.005454,-0.000551,0.001996,0.244050,0.005919,316.505634,24.798048,0.999553,0.992413,0.003554,0.396835,0.000003,0.000009,0.000011,0.000017,-0.000005,52.397352,0.000017,
2461,2593,4.42265986446744,-1.12105127817182,-0.0157802829654656,0.005445,-0.000594,0.005625,0.228369,0.029889,321.625586,23.926724,0.999286,0.988118,0.004354,0.465227,0.000031,0.000008,0.000005,0.000032,0.000007,12.915354,0.000041,
2131,2248,-2.70529077750464,-8.6649581459468,0.00322164807590752,0.004858,-0.000212,0.001217,0.219282,0.020659,327.674850,24.217772,0.998872,0.981828,0.005315,0.384444,-0.000009,0.000012,0.000007,0.000014,-0.000012,73.235989,0.000015,
2161,2278,-2.05579350389717,-8.00892523689547,0.0062508536454402,0.005828,-0.001005,0.006659,0.246822,0.018901,327.129735,24.124327,0.998515,0.978430,0.005825,0.364631,-0.000014,-0.000012,-0.000002,-0.000011,-0.000015,-52.276388,0.000026,
2176,2368,-1.74502574122721,-6.03981491920149,-0.00875975414430741,0.005491,-0.000261,0.002334,0.244862,0.022989,325.500085,24.130286,0.999144,0.986755,0.004632,0.385105,-0.000027,-0.000012,-0.000010,-0.000007,-0.000031,-64.348852,0.000041,
2086,2188,-3.67514416062957,-9.97895782625263,0.0145921915569716,0.005465,-0.000972,0.006178,0.232773,0.018222,328.951971,24.419530,0.998922,0.982991,0.005188,0.376644,-0.000003,0.000015,0.000013,0.000022,-0.000010,62.695499,0.000022,
2371,3298,2.32734648133682,14.2021753835228,-0.00218037740370391,0.005512,-0.000404,0.004224,0.238860,0.022709,310.113938,25.952936,0.999697,0.993386,0.003308,0.445209,0.000008,0.000027,0.000005,0.000028,0.000007,75.165010,0.000037,
2086,1993,-3.64385085378126,-14.2533336187329,0.0302602094010922,0.005448,-0.000037,-0.000219,0.250351,0.034184,332.227206,24.471364,0.999165,0.984622,0.004945,0.310431,0.000015,-0.000113,0.000018,0.000018,-0.000116,7.852524,0.000125,
2071,2128,-3.99268726556569,-11.2918290701166,0.0161972231343839,0.005338,-0.000551,0.004245,0.232684,0.036519,330.004455,24.564713,0.999029,0.984263,0.005092,0.327427,-0.000009,-0.000029,0.000005,-0.000008,-0.000030,12.341123,0.000040,
2281,2848,0.454680075634432,4.42850960742632,-0.0180061244822127,0.005293,-0.000369,0.007333,0.218954,0.044756,317.370009,24.731245,0.999611,0.993173,0.003640,0.364138,0.000010,0.000013,0.000018,0.000029,-0.000006,47.438245,0.000031,
2236,2638,-0.485502437245607,-0.147132244995788,-0.0150833415627858,0.005826,-0.000697,0.004242,0.253855,0.008953,320.923954,24.264580,0.999027,0.986469,0.004648,0.436092,-0.000005,0.000002,0.000002,0.000003,-0.000006,75.538044,0.000006,
2446,2398,4.13560535223103,-5.38274057263141,-0.00169038078854555,0.005133,-0.000566,0.004511,0.218200,0.024239,324.868637,23.274334,0.999691,0.987426,0.004629,0.435670,0.000013,0.000021,-0.000024,0.000041,-0.000007,-49.799696,0.000044,
2416,2218,3.5177359078043,-9.32422318061096,0.0132242623956813,0.005195,-0.000468,0.002794,0.227463,0.036962,327.865112,22.820191,0.999385,0.983441,0.005147,0.397751,-0.000012,-0.000011,-0.000018,0.000007,-0.000030,-46.375155,0.000031,
2491,2758,5.04207200926672,2.478843115274,-0.0245453716339057,0.005375,-0.000704,0.006747,0.220580,0.021438,318.931026,24.533212,0.999636,0.988548,0.003988,0.467103,-0.000002,0.000001,-0.000015,0.000015,-0.000016,-47.749478,0.000018,
2401,2023,3.22893670348678,-13.6041171891536,0.0296766579049859,0.004921,-0.000768,0.005305,0.205603,-0.005725,331.107330,22.293428,0.998550,0.971878,0.006473,0.323430,-0.000006,-0.000045,-0.000006,-0.000005,-0.000046,-9.152935,0.000056,
2116,2308,-3.04103989578247,-7.35343868887728,0.00352558330280317,0.005500,-0.000863,0.003439,0.242151,-0.005471,326.798400,24.278972,0.999005,0.985196,0.004995,0.387194,-0.000014,-0.000004,0.000008,0.000001,-0.000018,61.369557,0.000021,
2461,2608,4.41967327428,-0.794113591544992,-0.0121823666146952,0.005119,-0.000896,0.004759,0.216585,0.018620,321.400076,23.987199,0.999133,0.985221,0.004656,0.448462,0.000029,0.000008,0.000003,0.000030,0.000007,8.633072,0.000039,
2086,2203,-3.67809842500314,-9.64961806526432,0.0101139697334816,0.005030,-0.000325,0.004934,0.216596,0.041011,328.657103,24.445570,0.998678,0.980267,0.005422,0.375517,-0.000004,0.000020,0.000012,0.000025,-0.000008,67.979238,0.000025,
2341,3133,1.70924524865096,10.6197887333732,0.0242097130157504,0.005367,-0.000458,0.003709,0.234064,0.010081,313.037057,25.416723,0.999479,0.992349,0.003613,0.407052,0.000012,0.000029,0.000000,0.000029,0.000012,89.080526,0.000042,
2131,2383,-2.72715122015789,-5.71352298395505,-0.00178703117626355,0.005121,-0.000382,0.002587,0.227410,0.034674,325.465844,24.250170,0.998928,0.985182,0.004800,0.435000,-0.000023,-0.000002,-0.000010,0.000002,-0.000027,-68.153169,0.000030,
2116,2128,-3.01183835387231,-11.2942076166397,0.0194425313629836,0.005240,-0.000592,0.004300,0.227509,0.012924,329.811401,24.209456,0.998871,0.983021,0.005298,0.403019,-0.000021,-0.000013,0.000007,-0.000009,-0.000025,60.935637,0.000035,
2116,2383,-3.05349821650013,-5.71430930823919,-0.00644551615096134,0.005396,-0.000613,0.000023,0.247675,-0.014091,325.512209,24.242640,0.999119,0.984797,0.004855,0.442009,-0.000024,-0.000002,-0.000008,0.000001,-0.000027,-71.223999,0.000031,
2116,2413,-3.05839443278975,-5.05828557019875,-0.00121714629688086,0.005269,-0.000932,0.004897,0.227415,0.024804,325.050824,24.344472,0.999318,0.987142,0.004596,0.389081,-0.000031,0.000001,-0.000011,0.000004,-0.000035,-72.822353,0.000038,
2086,2008,-3.6460047188682,-13.9249712103169,0.032688554581398,0.005520,-0.000309,0.001237,0.249408,0.032239,332.006530,24.435996,0.999320,0.986759,0.004785,0.346490,0.000014,-0.000105,0.000019,0.000016,-0.000108,8.721440,0.000116,
2506,3073,5.30651352836507,9.33114431704545,0.0048039815334846,0.005477,-0.000642,0.006249,0.227303,0.010728,314.076053,25.815005,0.999665,0.991850,0.003895,0.454545,0.000012,0.000031,0.000023,0.000046,-0.000003,55.896235,0.000052,
2356,3148,2.03237732882383,10.9462479849306,0.0308771196339421,0.005169,-0.000695,0.005907,0.217017,0.015788,312.828721,25.525228,0.999558,0.991985,0.003670,0.404242,0.000015,0.000025,0.000002,0.000025,0.000015,79.437679,0.000040,
2221,2563,-0.798990817161123,-1.78222651073681,-0.0161048437516911,0.005654,-0.000543,0.003438,0.248695,0.018507,322.160784,24.190960,0.999567,0.990829,0.003772,0.431897,-0.000008,-0.000013,0.000003,-0.000006,-0.000015,26.458848,0.000021,
2116,2353,-3.04944070537741,-6.36775191680513,-0.00947150421296783,0.005271,-0.000792,0.006038,0.224083,0.015702,325.946197,24.348490,0.999188,0.984036,0.004991,0.355599,-0.000022,-0.000007,-0.000002,-0.000007,-0.000022,-81.713439,0.000030,
2476,2803,4.70642481585918,3.4590275759409,-0.0205643143295333,0.005405,-0.000783,0.007123,0.220822,0.019969,318.190969,24.788348,0.999221,0.985157,0.004672,0.373692,-0.000020,0.000013,-0.000006,0.000014,-0.000021,-79.521480,0.000021,
2101,2188,-3.34946646299123,-9.97919802709876,0.0157843480816382,0.004513,-0.001163,0.009884,0.177944,0.022641,328.835138,24.341523,0.999072,0.983254,0.005151,0.382777,-0.000007,0.000013,0.000012,0.000019,-0.000013,64.690749,0.000019,
2146,2218,-2.37301419323872,-9.32209017095206,0.0142078840323734,0.005019,-0.000402,0.005236,0.214372,0.036901,328.184668,24.172508,0.998701,0.978909,0.005528,0.356984,-0.000006,0.000009,0.000008,0.000012,-0.000010,67.257637,0.000013,
2161,2533,-2.10009536054843,-2.43729532569399,-0.0204316509670548,0.005299,-0.000602,0.005015,0.228110,0.028270,322.771148,24.269610,0.999102,0.986772,0.004529,0.428028,-0.000027,0.000000,-0.000007,0.000002,-0.000028,-76.379165,0.000031,
2116,2338,-3.04665373397834,-6.69697042861279,-0.00455911499699369,0.005296,-0.000874,0.005257,0.227484,-0.000466,326.232955,24.274455,0.999212,0.986201,0.004742,0.408068,-0.000018,-0.000003,-0.000001,-0.000003,-0.000018,-87.602762,0.000022,
2311,2998,1.08194385356105,7.68689554907874,0.0160657794268673,0.005334,-0.000601,0.005309,0.227262,0.029383,315.185713,24.983125,0.999887,0.996315,0.002895,0.453869,-0.000001,0.000008,0.000003,0.000008,-0.000002,74.442063,0.000009,
2191,2398,-1.42236312633773,-5.38668903320124,0.00598319697462557,0.005461,-0.000431,0.001491,0.245958,0.015167,325.093663,24.036836,0.999309,0.985665,0.004844,0.452277,-0.000029,0.000000,-0.000010,0.000003,-0.000032,-72.767411,0.000035,
2431,2353,3.81805081294715,-6.36743240971565,0.00307901098392449,0.005466,-0.000626,0.002679,0.240314,0.022417,325.632534,23.197187,0.999109,0.981910,0.005102,0.402351,0.000002,0.000018,-0.000014,0.000026,-0.000006,-59.969224,0.000027,
2206,2518,-1.11808701213911,-2.76473752834648,-0.0144066591884098,0.005144,-0.000420,0.003748,0.224406,0.025701,322.918540,24.114041,0.999421,0.987912,0.004359,0.484462,-0.000017,-0.000011,0.000012,-0.000001,-0.000026,51.817646,0.000031,
2176,2608,-1.78646898350195,-0.80161788528622,-0.0223583639011053,0.005200,-0.000531,0.003185,0.229162,0.033247,321.489652,24.306230,0.999181,0.987929,0.004354,0.435664,-0.000012,0.000001,0.000004,0.000002,-0.000013,74.185129,0.000015,
2056,2083,-4.31355012390785,-12.2770840933005,0.0112495488521631,0.005112,-0.000899,0.008018,0.211745,0.025735,330.744731,24.650598,0.998912,0.980128,0.005356,0.322977,-0.000005,-0.000056,-0.000003,-0.000005,-0.000056,-3.203899,0.000068,
2131,2263,-2.70716436977106,-8.33827391842821,0.0123296982657166,0.004938,-0.000735,0.003472,0.216060,0.011883,327.506506,24.194835,0.998772,0.982361,0.005352,0.406019,-0.000009,0.000005,0.000010,0.000010,-0.000014,61.764518,0.000015,
2101,2278,-3.36261542194093,-8.00980019809662,0.00514154580571358,0.005685,-0.000756,0.003085,0.251813,-0.000333,327.372934,24.303147,0.998580,0.983359,0.005201,0.420524,-0.000013,0.000013,0.000012,0.000018,-0.000018,68.181058,0.000021,
2206,2758,-1.15949477424406,2.46567414735413,-0.0180976366301593,0.005289,-0.000571,0.004769,0.228107,0.018959,318.998591,24.455184,0.999455,0.990231,0.003948,0.413178,-0.000010,0.000003,-0.000005,0.000005,-0.000012,-71.416832,0.000012,
2281,2893,0.446630108967657,5.40589777018521,-0.0164363005511632,0.005112,-0.000620,0.004961,0.218478,0.019905,316.649990,24.744444,0.999600,0.991991,0.003625,0.408300,0.000006,0.000010,0.000012,0.000020,-0.000004,50.044487,0.000021,
2251,2743,-0.178265130839304,2.14138574229301,-0.0206340042322495,0.005613,-0.000362,0.002581,0.249594,0.017845,319.136963,24.452939,0.999228,0.988573,0.004201,0.411739,-0.000008,0.000005,-0.000006,0.000007,-0.000010,-67.995306,0.000011,
2266,2803,0.136613061469763,3.44853565213162,-0.0213028665519914,0.005286,-0.000335,0.005131,0.226110,0.031454,318.104997,24.598429,0.999245,0.988117,0.004539,0.387109,0.000001,0.000011,0.000006,0.000014,-0.000002,64.809909,0.000015,
2491,2773,5.03885528766753,2.80615981304986,-0.0237093190139035,0.005062,-0.000718,0.005478,0.211128,0.023083,318.683549,24.642691,0.999289,0.986672,0.004337,0.418152,-0.000007,0.000006,-0.000021,0.000021,-0.000022,-54.061363,0.000025,
2191,2443,-1.43106360583215,-4.40229481861741,-0.00474789304735168,0.005322,-0.000714,0.004709,0.229503,0.014659,324.260226,24.130331,0.998839,0.985666,0.004970,0.406708,-0.000028,-0.000018,-0.000004,-0.000017,-0.000029,-70.547675,0.000047,
2221,2593,-0.80440197762503,-1.12766797694812,-0.0202470579934584,0.005698,-0.000340,0.002965,0.252348,0.036723,321.643459,24.215556,0.999168,0.986523,0.004490,0.464922,-0.000008,0.000001,0.000002,0.000001,-0.000009,76.309670,0.000009,
2386,1993,2.90774830473285,-14.2634557783229,0.0412696876566656,0.004843,-0.000247,0.003321,0.209434,0.058279,331.674865,22.304738,0.998970,0.962004,0.007087,0.384012,-0.000009,-0.000069,0.000015,-0.000005,-0.000073,13.508971,0.000087,
2116,2398,-3.05601974962726,-5.38661193528871,-0.00258959822025417,0.005238,-0.000708,0.003424,0.230378,0.024458,325.284808,24.255347,0.999025,0.985356,0.004777,0.472777,-0.000030,0.000000,-0.000015,0.000006,-0.000036,-67.574029,0.000038,
2251,2683,-0.167591078813043,0.833796995147509,-0.0154452284678541,0.005301,-0.000599,0.002996,0.233771,0.020090,320.139838,24.306393,0.999515,0.990634,0.003820,0.466198,-0.000008,0.000012,-0.000008,0.000015,-0.000011,-71.737289,0.000015,
2116,2323,-3.04394717020969,-7.02465181603658,0.000911195730509462,0.005135,-0.000708,0.003223,0.226122,-0.004819,326.518633,24.340393,0.999201,0.986891,0.004650,0.332086,-0.000013,0.000003,0.000004,0.000004,-0.000014,75.913868,0.000014,
2236,2668,-0.490524823905709,0.506487942304481,-0.00442126542810684,0.005321,-0.000436,0.004408,0.230289,0.038287,320.502271,24.363610,0.999449,0.990391,0.003989,0.409486,0.000000,0.000005,0.000001,0.000005,0.000000,76.379782,0.000006,
2446,2413,4.13291645663459,-5.05475642317348,0.00533901661208347,0.004989,-0.000333,0.005909,0.206499,0.048674,324.672170,23.366750,0.999712,0.987994,0.004605,0.421258,0.000009,0.000013,-0.000016,0.000028,-0.000006,-49.153476,0.000029,
2116,2368,-3.05057165447065,-6.04158130208287,-0.00143403480615234,0.005744,-0.000641,0.002050,0.257632,-0.001493,325.805346,24.308252,0.999094,0.984318,0.004947,0.383659,-0.000019,-0.000005,-0.000005,-0.000004,-0.000021,-72.271980,0.000027,
2266,2818,0.134644909205441,3.77419756008404,-0.0159901795292967,0.005516,-0.000163,0.003677,0.241601,0.031662,317.920978,24.601210,0.999354,0.989643,0.004143,0.409935,0.000005,0.000016,0.000011,0.000023,-0.000002,58.325297,0.000025,
2326,3073,1.39374673016911,9.3178060508406,0.0142857787158164,0.005234,-0.000353,0.004158,0.226522,0.020833,313.933565,25.288066,0.999734,0.994968,0.002899,0.350512,0.000006,0.000010,0.000003,0.000011,0.000004,64.790413,0.000016,
2476,2818,4.70351904303832,3.7851187240009,-0.0176671262224772,0.005262,-0.000610,0.006616,0.216320,0.037486,317.966045,24.797636,0.999350,0.986813,0.004544,0.438692,-0.000028,0.000013,-0.000004,0.000013,-0.000028,-84.823344,0.000028,
2071,2143,-3.99478734125261,-10.9634217090423,0.0184384302354488,0.005416,-0.000298,0.004934,0.234400,0.075785,329.783880,24.538429,0.998993,0.984103,0.005162,0.392780,-0.000008,-0.000002,0.000005,0.000001,-0.000011,58.395187,0.000013,
2401,2038,3.22577684127866,-13.2745973785506,0.0271908757204073,0.004637,-0.000210,0.002307,0.203683,0.009853,330.843081,22.306355,0.998623,0.972391,0.006357,0.375343,-0.000010,-0.000057,-0.000003,-0.000010,-0.000057,-3.942871,0.000072,
2296,2923,0.768881153801868,6.05633098404199,0.00106489075022864,0.005528,-0.000587,0.004998,0.237384,0.028748,316.308817,24.705939,0.999554,0.992705,0.003452,0.541508,0.000002,0.000007,0.000006,0.000011,-0.000002,54.771685,0.000012,
2161,2293,-2.05823113649162,-7.68118995141298,0.00380554373276709,0.005660,-0.000488,0.001361,0.255485,0.011530,326.876597,24.089353,0.998793,0.981413,0.005378,0.404432,-0.000017,-0.000007,0.000001,-0.000006,-0.000018,83.434330,0.000025,
2431,2368,3.81498806089209,-6.03956984064317,0.00617810892936177,0.005014,-0.000418,0.001276,0.224847,0.006480,325.400106,23.266622,0.999088,0.983005,0.005006,0.368593,0.000007,0.000015,-0.000007,0.000019,0.000003,-59.978566,0.000024,
2116,2143,-3.01422886936144,-10.9649825106599,0.0195467735210286,0.005516,-0.000953,0.008988,0.226265,0.026933,329.569723,24.260616,0.998341,0.978811,0.005972,0.372178,-0.000021,-0.000004,0.000009,0.000000,-0.000025,66.015464,0.000029,
2116,2488,-3.07077189212972,-3.42170041910986,-0.00946061082987626,0.005320,-0.000876,0.003531,0.233888,-0.008332,323.778129,24.296320,0.999281,0.987708,0.004404,0.428508,-0.000021,-0.000004,-0.000007,-0.000002,-0.000023,-69.942118,0.000028,
2086,2023,-3.650055583612,-13.5946130243761,0.0236761328334296,0.004705,-0.000877,0.007054,0.195165,0.028342,331.637075,24.460665,0.998981,0.983047,0.005363,0.321494,0.000005,-0.000113,0.000009,0.000005,-0.000114,4.309633,0.000129,
2191,2413,-1.42591820569976,-5.05730037931381,-0.00212201443781623,0.005215,-0.000304,0.004632,0.224930,0.046985,324.762021,24.102781,0.999137,0.986925,0.004656,0.434797,-0.000030,-0.000005,-0.000007,-0.000003,-0.000032,-74.848490,0.000039,
2461,2623,4.41618080146796,-0.465079179560703,-0.0211283640601891,0.005334,-0.000394,0.003981,0.229615,0.032156,321.093448,24.112607,0.999489,0.988639,0.004101,0.392133,0.000030,0.000011,-0.000001,0.000030,0.000011,-2.718973,0.000042,
2506,3088,5.30410901607179,9.65705464988813,0.0115684691340903,0.005262,-0.000436,0.002345,0.232683,0.010628,313.892155,25.920274,0.999732,0.992893,0.003418,0.409420,0.000019,0.000041,0.000027,0.000059,0.000000,56.104332,0.000068,
2176,2383,-1.747434875768,-5.71280359802375,-0.00924173412255413,0.005705,-0.000333,0.003730,0.250370,0.015932,325.259869,24.080468,0.999176,0.988375,0.004466,0.442012,-0.000030,-0.000006,-0.000012,-0.000001,-0.000034,-67.981678,0.000040,
2491,2788,5.03603591373636,3.13344462803153,-0.0256943515857984,0.005317,-0.000528,0.003439,0.230729,0.021236,318.441574,24.735108,0.999320,0.987005,0.004331,0.383057,-0.000012,0.000009,-0.000023,0.000024,-0.000027,-56.974684,0.000030,
2131,2398,-2.72858213458723,-5.38704708783832,0.00884586624164285,0.005381,-0.000381,0.002159,0.240696,0.045554,325.325889,24.243332,0.998602,0.984100,0.005019,0.459851,-0.000028,0.000002,-0.000015,0.000008,-0.000034,-67.768081,0.000035,
2311,3013,1.07817137754066,8.01389094352049,0.0053832201200521,0.005249,-0.000936,0.006758,0.218288,0.020942,314.841806,25.058690,0.999518,0.990883,0.003727,0.401471,0.000001,0.000003,0.000002,0.000004,0.000000,62.871526,0.000005,
2131,2488,-2.7447575720077,-3.42103434843094,-0.0135043634987824,0.005368,-0.000901,0.004430,0.233226,0.004038,323.678939,24.249408,0.999357,0.987124,0.004600,0.455162,-0.000017,-0.000007,-0.000006,-0.000004,-0.000020,-65.084466,0.000025,
2146,2233,-2.37554657533193,-8.99346941157035,0.00913860070403416,0.005066,-0.000120,0.002409,0.225184,0.044845,327.911811,24.153838,0.998931,0.980248,0.005292,0.394035,-0.000011,0.000006,0.000005,0.000008,-0.000012,75.079304,0.000012,
2266,2833,0.131581246907754,4.10060273310054,-0.0194287615840381,0.005549,-0.000598,0.005791,0.235988,0.031627,317.642396,24.610292,0.999303,0.990287,0.003955,0.426348,0.000006,0.000017,0.000016,0.000029,-0.000005,54.614949,0.000031,
2236,2653,-0.488069450290439,0.180054984202826,-0.00613034816228719,0.005388,-0.000746,0.006075,0.227810,0.018271,320.728925,24.382469,0.999278,0.988663,0.004414,0.348968,-0.000005,0.000006,0.000005,0.000008,-0.000007,68.276318,0.000009,
2341,3148,1.70677423036354,10.9449852863444,0.0330720122377102,0.005313,-0.000629,0.007149,0.219550,0.019232,312.851123,25.470288,0.999529,0.993455,0.003485,0.398087,0.000009,0.000027,0.000003,0.000027,0.000009,80.462873,0.000038,
2101,2203,-3.35138491088835,-9.65039784927867,0.0123934699626602,0.004988,-0.000770,0.007295,0.207438,0.041902,328.594982,24.333236,0.998629,0.980452,0.005450,0.414257,-0.000009,0.000018,0.000010,0.000022,-0.000012,71.431195,0.000022,
2326,3088,1.3916060436642,9.64150940039809,0.0212664861657572,0.005472,-0.000737,0.005580,0.232432,0.003845,313.753513,25.205320,0.999667,0.994466,0.003096,0.449891,0.000008,0.000010,-0.000002,0.000011,0.000007,-52.731885,0.000018,
2176,2623,-1.78877178621811,-0.475083337651746,-0.0228213295742421,0.005387,-0.000589,0.002282,0.240542,0.012357,321.254327,24.305497,0.999458,0.988204,0.004232,0.428678,-0.000009,0.000001,0.000003,0.000002,-0.000010,75.194226,0.000011,
2506,3103,5.30129909482639,9.98231374320116,0.0142871477885365,0.005342,-0.000310,0.002699,0.235045,0.018396,313.671544,25.935254,0.999708,0.992616,0.003418,0.462204,0.000016,0.000030,0.000027,0.000051,-0.000005,52.114650,0.000057,
2116,2428,-3.06081157224336,-4.73085369246142,-0.00323902434564616,0.005218,-0.000376,0.002496,0.232364,0.032819,324.796881,24.316962,0.999336,0.987683,0.004496,0.429678,-0.000033,-0.000001,-0.000001,-0.000001,-0.000033,-88.926686,0.000038,
2146,2173,-2.36295819087081,-10.3114197581738,0.0418085738689911,0.005716,-0.000346,0.001801,0.256645,0.026747,329.181493,24.065237,0.999863,0.944973,0.008014,0.421059,-0.000012,-0.000003,0.000007,0.000001,-0.000016,61.425708,0.000018,
2131,2548,-2.75451780145407,-2.1119592518129,-0.0137761095342626,0.005171,-0.000281,0.001664,0.232758,0.011223,322.705804,24.309491,0.998731,0.982490,0.005107,0.429312,-0.000014,0.000003,0.000000,0.000003,-0.000014,-89.565798,0.000015,
2296,2968,0.761013725181932,7.03624093203037,-0.00414863121551434,0.005875,-0.000099,-0.000750,0.273011,0.024806,315.565471,24.943134,0.999383,0.991136,0.003699,0.388703,0.000001,0.000018,0.000005,0.000019,0.000000,75.975108,0.000023,
2446,2428,4.12896910196325,-4.72623930074494,-0.00231095775649237,0.005143,-0.001399,0.011602,0.191964,0.012121,324.350524,23.434609,0.999230,0.985353,0.004879,0.370782,0.000010,0.000013,-0.000009,0.000021,0.000002,-49.104764,0.000025,
2416,2233,3.5146415627147,-8.99611120329936,0.0177328614975067,0.004902,-0.000657,0.005481,0.204191,0.041995,327.637155,22.860878,0.999404,0.984795,0.005012,0.412203,-0.000013,-0.000005,-0.000016,0.000007,-0.000026,-51.726502,0.000026,
2281,2863,0.452086462856297,4.75433917673584,-0.0181886851656827,0.005474,-0.000908,0.007892,0.225197,0.020797,317.130652,24.744894,0.999682,0.993335,0.003517,0.353831,0.000009,0.000012,0.000011,0.000022,-0.000001,48.601597,0.000025,
2206,2533,-1.12015948326449,-2.43720324030855,-0.00698984484756693,0.005125,-0.000244,0.003697,0.223791,0.042577,322.736559,24.209043,0.999545,0.988868,0.004149,0.424064,-0.000019,-0.000006,0.000010,-0.000001,-0.000024,62.768059,0.000029,
2356,3163,2.02989754586865,11.2713716438195,0.032803466381381,0.005186,-0.000363,0.003216,0.227420,0.020354,312.609587,25.537980,0.999529,0.991925,0.003790,0.433765,0.000015,0.000025,0.000002,0.000025,0.000015,77.821715,0.000040,
2086,2218,-3.68025305021702,-9.32131990219926,0.00950395212919375,0.005094,-0.000219,0.002786,0.225747,0.058103,328.419956,24.428191,0.998525,0.981818,0.005306,0.411442,0.000001,0.000018,0.000014,0.000026,-0.000007,60.578769,0.000026,
2131,2518,-2.74967001020103,-2.76627043115403,-0.0107023761742653,0.005212,-0.000474,0.005649,0.222630,0.027529,323.206434,24.297181,0.999122,0.986507,0.004617,0.444496,-0.000013,-0.000010,-0.000007,-0.000004,-0.000019,-49.248024,0.000025,
2131,2278,-2.70933231850156,-8.00987774193914,0.00604748531509358,0.005574,-0.001084,0.003218,0.245926,-0.025090,327.242644,24.204552,0.998692,0.981898,0.005485,0.367374,-0.000010,0.000001,0.000008,0.000005,-0.000014,61.769242,0.000015,
2491,2803,5.03307810993347,3.45987627271076,-0.0256095586725564,0.005488,-0.000559,0.004172,0.235779,0.024525,318.202647,24.764595,0.999238,0.986995,0.004535,0.415434,-0.000015,0.000013,-0.000018,0.000021,-0.000024,-64.128619,0.000026,
2251,2758,-0.181981960246556,2.46891950357163,-0.0289927167920041,0.005487,-0.000668,0.007131,0.228836,0.024422,318.802102,24.497078,0.999242,0.988827,0.004198,0.397785,-0.000009,0.000011,-0.000003,0.000012,-0.000009,-80.828481,0.000012,
2281,2908,0.444190587541861,5.73227790097958,-0.0175266082202938,0.005331,-0.000206,0.003013,0.235260,0.034496,316.412840,24.776503,0.999606,0.992978,0.003395,0.418269,0.000005,0.000011,0.000012,0.000020,-0.000004,51.741028,0.000021,
2506,3118,5.29839731790713,10.3087027075091,0.0165138917763556,0.005474,-0.000485,0.004187,0.235324,0.023101,313.444072,26.058066,0.999516,0.991927,0.003660,0.403995,0.000011,0.000037,0.000026,0.000053,-0.000005,58.192503,0.000058,
2161,2548,-2.10256215294896,-2.11082897538055,-0.0199942433874298,0.005222,-0.000655,0.004034,0.227584,0.024962,322.531879,24.228973,0.999210,0.986889,0.004376,0.476230,-0.000020,0.000005,-0.000003,0.000005,-0.000021,-83.547667,0.000022,
2236,2683,-0.493232576384287,0.833453125605644,-0.010882495212968,0.005788,-0.000452,0.005623,0.247825,0.031516,320.222341,24.357327,0.999485,0.988825,0.004065,0.430709,-0.000001,0.000013,-0.000002,0.000013,-0.000002,-80.337512,0.000014,
2071,2158,-3.99722814847341,-10.6356898111576,0.0141715679180265,0.005380,-0.000612,0.002753,0.238897,0.016417,329.512901,24.484494,0.999095,0.984428,0.005080,0.387197,-0.000010,-0.000013,-0.000008,-0.000004,-0.000020,-39.329386,0.000026,
2056,2098,-4.31544346419915,-11.9498328592598,0.0160196509242496,0.005103,-0.001128,0.007082,0.213916,0.007537,330.546708,24.588262,0.999003,0.980132,0.005372,0.364900,-0.000005,-0.000045,-0.000002,-0.000005,-0.000045,-2.363527,0.000056,
2191,2458,-1.43379727289595,-4.07478614394994,-0.0113220963571621,0.005381,-0.000652,0.001923,0.240982,-0.003823,323.974635,24.105778,0.998934,0.986798,0.004849,0.428749,-0.000024,-0.000014,0.000001,-0.000014,-0.000024,83.757180,0.000039,
2431,2383,3.81196487885549,-5.71059093677976,0.00079759614681052,0.005440,-0.000352,0.001691,0.242933,0.026605,325.129859,23.325014,0.999558,0.986563,0.004631,0.382214,0.000010,0.000016,-0.000016,0.000030,-0.000003,-50.317303,0.000033,
2221,2578,-0.801730121343816,-1.45495916957557,-0.0180529373491822,0.005519,-0.000242,0.001584,0.248522,0.016319,321.901257,24.211999,0.999233,0.988666,0.004145,0.428474,-0.000007,-0.000001,0.000002,-0.000001,-0.000008,69.950480,0.000010,
2296,2938,0.765786891072313,6.38368491061638,0.000772995971317414,0.005222,-0.000753,0.005142,0.222751,0.026441,316.046362,24.857818,0.999374,0.990294,0.003875,0.416738,0.000002,0.000017,0.000005,0.000018,0.000000,72.854446,0.000021,
2131,2458,-2.73989527162545,-4.07342683989054,-0.0136099780277164,0.005520,-0.000332,0.006390,0.234572,0.073189,324.162607,24.369969,0.999410,0.988644,0.004436,0.390141,-0.000023,0.000002,-0.000008,0.000004,-0.000025,-74.002055,0.000027,
2116,2158,-3.01701240702916,-10.6353001746468,0.00810773927173614,0.005575,-0.000752,0.004843,0.241255,0.009939,329.248416,24.266636,0.998989,0.984113,0.005158,0.356029,-0.000018,-0.000012,0.000001,-0.000012,-0.000019,84.664629,0.000031,
2206,2773,-1.1620452407028,2.79217739036631,-0.0158005312587761,0.005140,-0.000764,0.004371,0.222476,0.018757,318.768289,24.498764,0.999400,0.989880,0.004106,0.386009,-0.000009,0.000003,-0.000001,0.000003,-0.000009,-84.046107,0.000009,
2251,2698,-0.170309060395777,1.16041723040087,-0.0167322273174477,0.005388,-0.000689,0.003751,0.235246,0.011041,319.887046,24.319074,0.999505,0.990865,0.003674,0.468054,-0.000012,0.000008,-0.000006,0.000010,-0.000014,-75.158773,0.000014,
2131,2503,-2.74785118721253,-3.09293331423366,-0.0237852947266788,0.005253,-0.000310,0.002564,0.233766,0.013197,323.351097,24.233463,0.999148,0.986021,0.004686,0.487719,-0.000013,-0.000005,-0.000009,0.000000,-0.000019,-57.413728,0.000022,
2101,2218,-3.3535495411395,-9.32091218270034,0.00329786977454205,0.005418,-0.000325,0.002064,0.242591,0.042998,328.312808,24.352093,0.998341,0.980572,0.005620,0.400391,-0.000005,0.000015,0.000009,0.000019,-0.000009,68.870876,0.000019,
2116,2503,-3.07325555737767,-3.09374426251244,-0.0160799730612098,0.005420,-0.000161,-0.000276,0.249988,0.004957,323.496319,24.295546,0.999082,0.985835,0.004588,0.447306,-0.000016,-0.000003,-0.000009,0.000002,-0.000021,-63.342762,0.000023,
2086,2038,-3.65173958178646,-13.2663296897114,0.0224592926583114,0.005026,-0.000553,0.001336,0.226419,0.013673,331.418202,24.400919,0.999025,0.982902,0.005312,0.369148,-0.000001,-0.000084,0.000010,0.000000,-0.000085,6.911672,0.000098,
2131,2413,-2.73211014234633,-5.05760632786652,-0.00459654041372914,0.005508,-0.000832,0.007450,0.230616,0.051169,324.961172,24.288197,0.998951,0.986240,0.004810,0.428104,-0.000028,0.000002,-0.000011,0.000006,-0.000031,-72.190594,0.000033,
2101,2293,-3.3656073742091,-7.68076926003587,0.00308919124603335,0.005288,-0.000542,0.004771,0.228776,0.027931,327.090838,24.353987,0.999012,0.986117,0.004865,0.401331,-0.000012,0.000010,0.000018,0.000020,-0.000022,60.386573,0.000024,
2401,2053,3.22281251061794,-12.9424983959446,0.0186397529938631,0.005203,0.000068,0.001178,0.233750,0.039254,330.558999,22.478756,0.998957,0.976366,0.006069,0.281648,-0.000008,-0.000039,-0.000001,-0.000008,-0.000039,-1.852440,0.000051,
2086,2233,-3.68259444646868,-8.99216776076806,0.00103921638765314,0.005588,-0.000264,0.002488,0.249325,0.050298,328.131651,24.437816,0.998785,0.984929,0.004859,0.395717,-0.000003,0.000014,0.000012,0.000021,-0.000009,62.351348,0.000021,
2116,2458,-3.06527221923061,-4.07570477623612,-0.00777662661170098,0.005855,-0.000610,0.002629,0.261218,0.017027,324.303486,24.330689,0.999407,0.988606,0.004345,0.409926,-0.000029,0.000002,-0.000010,0.000006,-0.000032,-73.022300,0.000034,
2491,2818,5.03016128139379,3.78601797811942,-0.0225480531540825,0.005328,-0.000370,0.003483,0.231216,0.040265,317.978980,24.782055,0.999340,0.988309,0.004416,0.472660,-0.000021,0.000014,-0.000012,0.000018,-0.000025,-72.991044,0.000025,
2461,2638,4.4131313165797,-0.137882893859256,-0.0229429552952638,0.005257,-0.000220,0.001520,0.235436,0.022233,320.840096,24.158939,0.999586,0.989285,0.004029,0.390883,0.000021,0.000013,-0.000007,0.000026,0.000008,-29.434773,0.000035,
2071,2173,-3.99918250999853,-10.307332618186,0.0165073629165136,0.005699,-0.000821,0.004948,0.247248,0.026560,329.299675,24.494070,0.999039,0.985288,0.004952,0.387290,-0.000010,-0.000007,-0.000003,-0.000006,-0.000012,-60.190517,0.000018,
2131,2293,-2.71242709389179,-7.68124498729743,0.00134581147239032,0.005232,-0.000881,0.003768,0.228695,0.006084,326.944447,24.190045,0.998808,0.983937,0.005154,0.421324,-0.000011,0.000003,0.000012,0.000010,-0.000018,60.332693,0.000018,
2176,2398,-1.74962057775489,-5.38530318287557,-0.00662196923082092,0.005701,-0.000428,0.001600,0.256783,0.023361,325.045903,24.095611,0.999151,0.986406,0.004666,0.448226,-0.000033,0.000004,-0.000013,0.000009,-0.000037,-72.036213,0.000039,
2206,2548,-1.12299592646497,-2.10916336035407,-0.0174264461531948,0.005309,-0.000152,-0.000269,0.244841,0.024827,322.427478,24.230410,0.999598,0.990398,0.003902,0.402792,-0.000017,-0.000006,0.000012,0.000002,-0.000025,56.923901,0.000027,
2131,2428,-2.73550415409953,-4.72876433774464,-0.0139775333153125,0.005214,-0.000605,0.008361,0.214434,0.046613,324.624344,24.333550,0.999228,0.987672,0.004552,0.385831,-0.000028,-0.000002,-0.000001,-0.000002,-0.000028,-88.062785,0.000033,
2341,3163,1.70427256651903,11.2708756723113,0.031150344088644,0.005360,0.000112,0.001538,0.241632,0.041003,312.610994,25.513087,0.999602,0.993322,0.003542,0.412569,0.000010,0.000026,0.000004,0.000027,0.000008,75.778002,0.000037,
2416,2248,3.51215858071193,-8.6678737234758,0.0187461794989758,0.005107,-0.000557,0.003265,0.221730,0.025748,327.420962,22.902870,0.999248,0.982691,0.005208,0.404100,-0.000011,-0.000006,-0.000016,0.000007,-0.000024,-50.027045,0.000025,
2221,2608,-0.807255892905939,-0.800791222787652,-0.0219188312486835,0.005641,-0.000475,0.004117,0.246043,0.037668,321.380122,24.210059,0.998960,0.983303,0.004898,0.491109,-0.000006,0.000001,0.000006,0.000004,-0.000010,58.862527,0.000010,
2236,2698,-0.496706914506987,1.16038842177909,-0.0170741179863398,0.005414,-0.000753,0.006014,0.229293,0.025838,319.908577,24.355030,0.999510,0.990883,0.003688,0.449057,-0.000005,0.000007,-0.000001,0.000007,-0.000005,-86.429143,0.000007,
2386,2008,2.90457565356224,-13.9325596629585,0.0329043772770774,0.005195,-0.000534,0.002868,0.227079,0.030069,331.381152,22.407591,0.998748,0.971765,0.006289,0.300136,0.000010,-0.000046,0.000018,0.000015,-0.000051,16.689725,0.000053,
2506,3133,5.29524536286845,10.6344590698286,0.014033281218758,0.005606,-0.000394,0.003984,0.242275,0.030528,313.184062,26.094516,0.999510,0.991715,0.003668,0.435151,0.000023,0.000023,0.000017,0.000041,0.000006,45.038821,0.000051,
2131,2563,-2.75701409691672,-1.7832061203647,-0.0227247363401375,0.005758,-0.000239,0.002500,0.257290,0.025282,322.412173,24.382125,0.999064,0.986905,0.004611,0.377485,-0.000009,-0.000002,-0.000002,-0.000002,-0.000010,-75.991186,0.000012,
2161,2308,-2.06061814112605,-7.35224807983912,0.00810568928648081,0.005686,-0.000511,0.004752,0.246344,0.027218,326.660849,24.214384,0.998930,0.982225,0.005220,0.307168,-0.000019,-0.000010,-0.000003,-0.000009,-0.000020,-73.159168,0.000030,
2176,2638,-1.79105381092916,-0.148782295144812,-0.0193945975613019,0.005643,-0.000889,0.005945,0.240850,0.008030,321.040298,24.304435,0.999577,0.989991,0.004007,0.438182,-0.000006,-0.000003,0.000002,-0.000003,-0.000006,63.872977,0.000009,
2356,3178,2.02735932638124,11.5970104540595,0.0316072188490466,0.005462,-0.000162,0.001489,0.246313,0.026666,312.372441,25.581559,0.999588,0.992513,0.003610,0.434095,0.000016,0.000034,0.000004,0.000035,0.000015,78.378916,0.000051,
2266,3073,0.091414895264716,9.31206993264484,0.0227777864257632,0.005222,-0.000156,0.001717,0.234814,0.012386,314.079807,25.027735,0.999371,0.991042,0.003860,0.388522,-0.000002,0.000007,0.000000,0.000007,-0.000002,-87.100894,0.000008,
2251,2773,-0.183700961156699,2.79408845753024,-0.0194935288371312,0.005503,-0.000348,0.003746,0.240759,0.020704,318.649972,24.479393,0.999331,0.988488,0.004140,0.435111,-0.000005,0.000013,0.000000,0.000013,-0.000005,88.662420,0.000014,
2056,2113,-4.31710250285198,-11.6220242848773,0.0160928713163457,0.005639,-0.001437,0.006412,0.240321,-0.018690,330.333582,24.538282,0.999047,0.982078,0.005325,0.386235,-0.000006,-0.000046,0.000002,-0.000006,-0.000046,3.022087,0.000057,
2266,2848,0.129496245898842,4.42659738273931,-0.0150684432502999,0.005700,-0.000254,0.003862,0.249474,0.039299,317.448059,24.636959,0.999546,0.992372,0.003662,0.432657,0.000011,0.000013,0.000017,0.000030,-0.000005,46.704511,0.000031,
2131,2533,-2.75223385973286,-2.43901841530918,-0.0126395077688812,0.005104,-0.000494,0.004051,0.222451,0.024606,322.947540,24.300903,0.999058,0.985461,0.004718,0.444642,-0.000019,0.000000,-0.000007,0.000002,-0.000021,-72.166017,0.000023,
2146,2188,-2.36612157743619,-9.98298024752588,0.0368675513654466,0.005454,-0.000660,0.004042,0.237804,0.020447,328.880648,24.026921,0.999438,0.954606,0.007045,0.464007,-0.000008,0.000008,0.000012,0.000015,-0.000015,61.874933,0.000017,
2491,2833,5.0270576019082,4.11231790056225,-0.0225297582525172,0.005193,-0.000447,0.002246,0.229693,0.014898,317.732953,24.836164,0.999339,0.989207,0.004180,0.451753,-0.000018,0.000016,-0.000005,0.000017,-0.000018,-82.049970,0.000020,
2326,3103,1.3894181576,9.96749371779663,0.0222648503389564,0.005736,-0.000280,0.001904,0.257518,0.019406,313.541171,25.265639,0.999525,0.993921,0.003311,0.438797,0.000010,0.000015,-0.000001,0.000015,0.000010,-81.787835,0.000025,
2311,3028,1.07628479411422,8.3389019814536,0.0127107202700927,0.005423,-0.000696,0.004533,0.234002,0.021533,314.674024,25.067398,0.999619,0.990882,0.003722,0.424730,0.000002,0.000001,0.000001,0.000003,0.000001,21.983710,0.000004,
2431,2398,3.80886287195191,-5.38276899423624,-0.00189094611062046,0.005575,-0.000257,0.002263,0.247041,0.030819,324.868612,23.324946,0.999744,0.987456,0.004558,0.438233,0.000011,0.000020,-0.000019,0.000035,-0.000004,-51.854910,0.000038,
2086,2248,-3.68551595753815,-8.66515182570939,0.00204562290639387,0.005034,-0.000775,0.004351,0.218394,0.022483,327.868700,24.376030,0.998778,0.984865,0.004921,0.431256,-0.000004,0.000024,0.000013,0.000029,-0.000009,69.248952,0.000030,
2146,2563,-2.43063834358334,-1.7849331789114,-0.00991269147505136,0.005147,-0.000511,0.003333,0.226436,0.009227,322.428546,24.295330,0.998903,0.985282,0.004723,0.426280,-0.000008,-0.000002,-0.000002,-0.000001,-0.000009,-72.760135,0.000011,
2446,2443,4.12716587339596,-4.39944893119704,0.00427100824168747,0.005324,-0.000688,0.005818,0.222067,0.016931,324.192783,23.441900,0.998450,0.982573,0.005245,0.421575,0.000022,-0.000013,-0.000007,0.000023,-0.000014,-11.274543,0.000024,
2131,2308,-2.71458908125659,-7.35292898471853,0.00310293474723267,0.005394,-0.000682,0.004188,0.234985,0.012799,326.723425,24.241037,0.999009,0.984556,0.005052,0.384685,-0.000011,-0.000003,0.000006,0.000000,-0.000014,63.536684,0.000016,
2146,2503,-2.42152085055536,-3.09219911290978,-0.0256548638677714,0.005121,-0.000348,-0.001916,0.241091,-0.005520,323.282305,24.243910,0.999032,0.984617,0.004938,0.428023,-0.000017,-0.000001,-0.000010,0.000004,-0.000022,-64.033793,0.000023,
2191,2428,-1.42789444945722,-4.7303914073746,-0.00327716862369698,0.005627,-0.000219,0.001434,0.253892,0.025708,324.539412,24.066144,0.998606,0.986151,0.004993,0.466067,-0.000029,-0.000017,-0.000002,-0.000016,-0.000029,-78.948512,0.000046,
2116,2473,-3.06826813926167,-3.74817302418897,-0.00892391366329548,0.005486,-0.000879,0.004970,0.237255,0.009106,324.027766,24.351965,0.999446,0.988920,0.004198,0.385470,-0.000026,-0.000003,-0.000007,-0.000001,-0.000028,-73.366316,0.000033,
2506,3148,5.29256580776706,10.9598497087456,0.0227610404621146,0.005431,-0.000457,0.005783,0.227195,0.024349,312.996107,26.183182,0.999525,0.990733,0.003758,0.399915,0.000029,0.000014,0.000021,0.000044,-0.000001,34.879514,0.000050,
2251,2713,-0.173371828616059,1.48770301748194,-0.0214159250419357,0.005330,-0.000696,0.003850,0.232231,-0.002010,319.601045,24.374098,0.999459,0.991090,0.003727,0.423705,-0.000011,0.000011,-0.000005,0.000012,-0.000012,-76.995857,0.000014,
2386,2023,2.90119628050151,-13.6029852636342,0.0294944951227194,0.005171,-0.000731,0.005377,0.217004,0.012732,331.101337,22.441913,0.998587,0.971048,0.006631,0.295608,0.000011,-0.000029,0.000018,0.000018,-0.000036,21.104964,0.000036,
2416,2263,3.50918434060683,-8.33896028947971,0.0195800438997367,0.005217,-0.000574,0.005744,0.217725,0.021260,327.181207,22.998239,0.999187,0.982788,0.005153,0.354094,-0.000012,-0.000008,-0.000020,0.000010,-0.000030,-48.122242,0.000031,
2281,2878,0.449787380810267,5.07864540401314,-0.0140394844402181,0.005245,-0.000575,0.003277,0.230194,0.007172,316.926857,24.644230,0.999734,0.993166,0.003523,0.468298,0.000006,0.000008,0.000007,0.000013,0.000000,49.185191,0.000015,
2146,2248,-2.37797481210081,-8.66442293664969,0.00238933940266861,0.005234,0.000563,-0.001869,0.246084,0.048452,327.634763,24.167026,0.998846,0.980940,0.005315,0.394824,-0.000010,0.000006,0.000005,0.000007,-0.000012,74.928489,0.000012,
2161,2563,-2.10456853865936,-1.78400101616558,-0.012071745859032,0.005142,-0.000400,0.003553,0.225469,0.034717,322.352944,24.278916,0.999089,0.986495,0.004488,0.446788,-0.000013,-0.000003,-0.000004,-0.000001,-0.000015,-70.291991,0.000018,
2086,2053,-3.65310824908802,-12.9379264077501,0.0355803848054279,0.005481,-0.000991,0.006924,0.231090,0.045393,331.291084,24.471278,0.998704,0.979094,0.005631,0.332392,-0.000006,-0.000079,0.000005,-0.000005,-0.000080,3.763827,0.000095,
2131,2578,-2.76054709013267,-1.45583768011238,-0.0243937207489466,0.005193,-0.000942,0.008884,0.212046,0.039936,322.110201,24.397070,0.999497,0.991952,0.004039,0.383617,-0.000009,-0.000004,-0.000005,-0.000001,-0.000012,-58.046846,0.000014,
2461,2653,4.41052190543077,0.188918311834044,-0.0188933061800753,0.005478,-0.000459,0.003174,0.239222,0.015139,320.633768,24.220222,0.999579,0.989459,0.003988,0.377381,0.000021,0.000023,-0.000006,0.000028,0.000016,-48.653658,0.000045,
2296,2983,0.758767083901827,7.36180682267577,0.00412957900289257,0.005881,-0.000188,0.000787,0.268072,0.031778,315.384935,24.992789,0.999144,0.988802,0.004113,0.375156,0.000001,0.000006,0.000003,0.000008,-0.000001,63.261024,0.000009,
2236,2713,-0.499996986027494,1.48713245507279,-0.0210936669894863,0.005092,-0.001091,0.006692,0.212134,0.000109,319.614387,24.378175,0.999338,0.990196,0.003775,0.421423,-0.000003,0.000009,-0.000001,0.000009,-0.000003,-87.525690,0.000009,
2146,2263,-2.38073547707586,-8.33611170283661,0.000631659914631655,0.005330,-0.000336,0.002675,0.236489,0.043923,327.369049,24.178247,0.998790,0.982184,0.005362,0.389418,-0.000011,-0.000004,0.000005,-0.000001,-0.000014,61.729807,0.000016,
2341,3178,1.70136800747195,11.5963491941765,0.0258124482502353,0.005526,0.000101,-0.000653,0.256946,0.032353,312.335780,25.531734,0.999660,0.994099,0.003546,0.420815,0.000010,0.000035,0.000006,0.000037,0.000009,76.420637,0.000048,
2116,2443,-3.06343616415743,-4.40499558821606,-0.00321752624159899,0.005182,-0.000758,0.005625,0.221348,0.018978,324.544850,24.191629,0.999383,0.988581,0.004431,0.545825,-0.000032,0.000004,-0.000004,0.000005,-0.000032,-83.219279,0.000035,
2281,2923,0.442093541129609,6.05725090957584,-0.00799063630552155,0.005615,-0.000899,0.007894,0.231774,0.025917,316.244966,24.782345,0.999597,0.992616,0.003528,0.431015,0.000005,0.000009,0.000008,0.000015,-0.000001,53.503208,0.000017,
2221,2638,-0.813200249935608,-0.146811031455243,-0.0305154245834842,0.005437,-0.000698,0.003169,0.239631,0.022220,320.815575,24.207491,0.998870,0.986615,0.004764,0.517485,-0.000007,0.000000,0.000004,0.000002,-0.000009,64.020412,0.000009,
2131,2443,-2.7374456348843,-4.40350881058971,-0.00722615007583727,0.005215,-0.000644,0.007936,0.215746,0.030583,324.440751,24.219148,0.999330,0.987882,0.004534,0.491239,-0.000027,0.000002,-0.000003,0.000003,-0.000028,-83.704752,0.000030,
2296,2953,0.763563421692478,6.71062237961517,-0.00302056845629295,0.005677,-0.000008,0.000383,0.260133,0.052801,315.806584,24.922434,0.999163,0.988101,0.004240,0.407977,0.000001,0.000019,0.000004,0.000020,0.000000,78.072510,0.000023,
2176,2413,-1.75249222408528,-5.05750183585291,-0.00234447891443779,0.005154,-0.000100,0.003229,0.226752,0.058149,324.809013,24.131485,0.998971,0.984839,0.004829,0.460837,-0.000033,0.000002,-0.000010,0.000005,-0.000036,-74.809551,0.000039,
2176,2653,-1.79445614824045,0.179650602687104,-0.0322806347070355,0.005475,-0.000488,0.003478,0.240937,0.020282,320.688969,24.349937,0.999591,0.989649,0.004097,0.417903,-0.000007,-0.000003,0.000001,-0.000003,-0.000007,79.781808,0.000010,
2086,2068,-3.6561221251501,-12.6072187389073,0.0145837321223894,0.005594,-0.000086,-0.000949,0.259249,0.026598,330.904068,24.427798,0.998799,0.961284,0.007445,0.360372,-0.000008,-0.000061,0.000008,-0.000007,-0.000062,8.229090,0.000076,
2206,2563,-1.12550997842029,-1.78324965720957,-0.0105176474755808,0.005247,-0.000770,0.004978,0.225151,0.007163,322.223099,24.215721,0.999617,0.991126,0.003778,0.417144,-0.000012,-0.000014,0.000004,-0.000008,-0.000017,39.509254,0.000026,
2206,2788,-1.16450369759732,3.11832512189385,-0.0206207151836111,0.005429,-0.000511,0.001905,0.243644,0.002080,318.505551,24.475025,0.999232,0.988153,0.004334,0.409923,-0.000004,0.000006,0.000004,0.000007,-0.000005,71.939128,0.000007,
2086,2263,-3.68724972292954,-8.33797307843809,0.00387093425348439,0.005379,-0.000756,0.002425,0.239800,0.010350,327.664366,24.326601,0.998902,0.984535,0.004890,0.469880,-0.000004,0.000020,0.000020,0.000031,-0.000015,60.397460,0.000031,
2071,2188,-4.00138223477657,-9.97874961553108,0.0105220363635112,0.006204,-0.000628,0.005786,0.268163,0.029508,329.029877,24.448823,0.998872,0.984690,0.005189,0.435270,-0.000005,0.000015,0.000008,0.000018,-0.000008,69.921235,0.000018,
2101,2308,-3.36733907092693,-7.35344757440061,0.00460825661036779,0.005703,-0.000671,0.003079,0.252741,0.020460,326.886109,24.325149,0.999015,0.983450,0.005356,0.425851,-0.000011,0.000001,0.000012,0.000009,-0.000019,57.348394,0.000019,
2236,2953,-0.539955172317317,6.70614615880574,-0.00256268617152955,0.005708,-0.000221,0.001300,0.258573,0.012612,315.909159,24.763648,0.999435,0.991776,0.003755,0.383364,-0.000005,0.000022,0.000008,0.000024,-0.000008,74.887136,0.000025,
2266,2863,0.127781272915225,4.75106023894217,-9.19394483958058E-05,0.005642,-0.000693,0.004559,0.244300,0.010074,317.324611,24.641924,0.999763,0.994132,0.003357,0.423551,0.000009,0.000013,0.000010,0.000022,0.000001,50.266379,0.000025,
2221,2623,-0.810186951880919,-0.473601283814553,-0.0190440189610399,0.005393,-0.000607,0.008125,0.221775,0.052152,321.136405,24.263463,0.999075,0.984984,0.004800,0.471652,-0.000006,0.000001,0.000004,0.000003,-0.000008,63.587209,0.000008,
2116,2173,-3.01932136108375,-10.3071215342219,0.0126424345718306,0.005100,-0.000528,0.001128,0.230526,0.002353,329.034445,24.302286,0.998986,0.983849,0.005164,0.318781,-0.000015,0.000000,0.000007,0.000002,-0.000018,69.158279,0.000020,
2131,2323,-2.71699592475393,-7.02514112836538,0.00440713330232256,0.005168,-0.000493,0.001963,0.231293,0.006688,326.488957,24.256986,0.999188,0.985272,0.004883,0.370067,-0.000010,0.000004,0.000002,0.000004,-0.000010,79.958398,0.000010,
2146,2623,-2.44164401551018,-0.474965022930661,-0.0267510332841425,0.005132,-0.000424,0.003391,0.225749,0.028422,321.314914,24.379736,0.999642,0.991556,0.003894,0.396050,-0.000001,-0.000001,-0.000002,0.000001,-0.000003,-38.084988,0.000003,
2191,2473,-1.4367513415569,-3.7462401697406,-0.0172075357499466,0.005322,-0.000246,0.001232,0.240617,0.022893,323.682099,24.143313,0.999158,0.984748,0.005036,0.433905,-0.000020,-0.000018,0.000006,-0.000013,-0.000025,47.664411,0.000039,
2506,3163,5.28939509839705,11.2850678121289,0.0209456788606985,0.005294,-0.000409,0.003311,0.230495,0.017257,312.738204,26.196206,0.999616,0.992179,0.003483,0.439780,0.000024,0.000023,0.000017,0.000041,0.000006,44.329299,0.000051,
2401,2068,3.21903991721461,-12.613560305129,0.00936474727302539,0.005114,-0.000104,0.001611,0.228074,0.035449,330.234852,22.394878,0.999311,0.980075,0.005874,0.410964,-0.000011,-0.000033,0.000000,-0.000011,-0.000033,0.638502,0.000045,
2146,2578,-2.43371255551176,-1.4569221326534,-0.0173046267119048,0.005253,-0.000687,0.006696,0.221112,0.026323,322.118354,24.316043,0.999147,0.988064,0.004428,0.431504,-0.000007,-0.000002,-0.000005,0.000001,-0.000010,-57.492219,0.000011,
2476,2833,4.70140603640106,4.11133272858079,-0.0155314266544906,0.005545,-0.000095,0.000938,0.251084,0.032056,317.774090,24.839250,0.999514,0.988620,0.004010,0.448158,-0.000026,0.000016,0.000001,0.000016,-0.000026,88.642180,0.000026,
2431,2413,3.80513841638274,-5.05470413764356,-0.0036064111699261,0.004910,-0.000016,0.001599,0.219150,0.044203,324.583153,23.352700,0.999630,0.987237,0.004608,0.475768,0.000008,0.000010,-0.000012,0.000021,-0.000003,-48.280405,0.000023,
2056,2128,-4.32004033993987,-11.29180341637,0.00876513039366955,0.005395,-0.001437,0.006213,0.229712,-0.008741,330.020871,24.597728,0.998895,0.981917,0.005470,0.334804,-0.000013,-0.000039,0.000011,-0.000009,-0.000042,19.823610,0.000055,
2131,2473,-2.74216821362002,-3.74716397296367,-0.00964291037280418,0.005392,-0.000634,0.006110,0.229430,0.040471,323.948844,24.347562,0.999399,0.987827,0.004512,0.386496,-0.000020,-0.000005,-0.000004,-0.000004,-0.000021,-75.170071,0.000027,
2176,2713,-1.80402266162756,1.485122530859,-0.0202363992480059,0.005217,-0.000723,0.003742,0.228247,0.005877,319.803795,24.416254,0.999454,0.990194,0.003854,0.387554,-0.000003,0.000002,-0.000007,0.000006,-0.000008,-55.148371,0.000009,
2326,3118,1.38654969625314,10.2934102735281,0.0230856321771853,0.005670,-0.000219,0.002667,0.251934,0.039219,313.296616,25.318302,0.999424,0.992553,0.003573,0.439054,0.000011,0.000019,0.000002,0.000020,0.000011,79.912895,0.000031,
2161,2578,-2.10752573560341,-1.45716580754325,-0.0149290118230851,0.005128,-0.000865,0.007456,0.212726,0.014555,322.073819,24.269033,0.999108,0.986781,0.004413,0.447453,-0.000011,-0.000002,-0.000005,0.000000,-0.000014,-65.213307,0.000016,
2251,2788,-0.186306330701992,3.12021199208868,-0.0174220712902411,0.005409,-0.000699,0.003685,0.236538,-0.002817,318.419314,24.514765,0.999488,0.989022,0.004052,0.399485,0.000000,0.000015,0.000003,0.000016,-0.000001,77.850541,0.000018,
2416,2278,3.50550409823532,-8.0102920062177,0.0116429047214979,0.004995,-0.000831,0.004143,0.213302,0.005265,326.868198,22.999023,0.999292,0.983732,0.004954,0.387640,-0.000013,0.000001,-0.000017,0.000012,-0.000024,-56.510920,0.000024,
2356,3193,2.0240693946439,11.9228580922269,0.0291013106682954,0.005366,-0.000354,0.003363,0.235235,0.022062,312.094222,25.651750,0.999596,0.992170,0.003566,0.396694,0.000015,0.000035,0.000006,0.000036,0.000014,73.819067,0.000052,
2236,2728,-0.502364417048543,1.81429091633569,-0.0203177911103012,0.005106,-0.000377,0.003902,0.222133,0.029461,319.386685,24.427912,0.999300,0.989487,0.003980,0.422353,-0.000002,0.000003,-0.000003,0.000004,-0.000003,-66.924529,0.000005,
2146,2518,-2.42437422721231,-2.76460392053691,-0.0282063594549982,0.005206,-0.000828,0.002733,0.230792,-0.003139,323.008049,24.264683,0.999085,0.986036,0.004704,0.418631,-0.000015,-0.000007,-0.000008,-0.000002,-0.000020,-58.893781,0.000024,
2281,2938,0.439408604439354,6.38284158873553,-0.00606433562535358,0.005464,-0.000680,0.007271,0.227037,0.033611,316.011801,24.778026,0.999558,0.992006,0.003629,0.470213,0.000004,0.000018,0.000008,0.000022,0.000001,65.505350,0.000025,
2461,2668,4.40750106542612,0.515527926661832,-0.0230214836911955,0.005656,-0.000286,0.001200,0.254912,0.010141,320.371105,24.197860,0.999445,0.987454,0.004260,0.449706,0.000019,0.000019,-0.000007,0.000026,0.000012,-43.428499,0.000039,
2176,2773,-1.81448087173915,2.79088490634998,-0.0270396608863734,0.005508,-0.001077,0.006078,0.234391,0.014264,318.778753,24.404848,0.999434,0.989940,0.004129,0.457158,-0.000007,-0.000001,-0.000003,0.000000,-0.000008,-69.372145,0.000009,
2266,2878,0.12457960949374,5.07703242132176,-0.00435712051165638,0.005392,-0.000630,0.003862,0.235073,-0.008839,317.035592,24.636588,0.999662,0.991943,0.003638,0.435130,0.000006,0.000010,0.000006,0.000014,0.000002,54.900791,0.000018,
2491,2848,5.02451519406281,4.43967961239918,-0.0178581873631174,0.005389,-0.000436,0.002849,0.236410,0.013643,317.533358,25.002995,0.999546,0.991771,0.003727,0.342351,-0.000025,0.000020,-0.000015,0.000024,-0.000029,-73.540645,0.000031,
2206,2578,-1.12817448798038,-1.45600312090706,-0.0106786218874504,0.005246,-0.000527,0.006162,0.221478,0.025792,321.974914,24.229038,0.999359,0.989267,0.004067,0.440247,-0.000011,-0.000004,0.000002,-0.000003,-0.000011,76.183209,0.000015,
2311,3043,1.07364251766723,8.66446027402073,0.0182079234465959,0.005269,-0.000739,0.006160,0.221334,0.016569,314.462258,25.123179,0.999588,0.991583,0.003635,0.395042,0.000000,0.000005,0.000000,0.000005,0.000000,-86.685360,0.000006,
2071,2203,-4.00364814924325,-9.65007234019598,0.00942667056119717,0.006028,-0.000058,0.001569,0.272282,0.037716,328.783681,24.464186,0.998633,0.982006,0.005334,0.427542,-0.000006,0.000020,0.000008,0.000022,-0.000008,73.178248,0.000023,
2446,2458,4.12399254336858,-4.07110133596105,0.000492942115499773,0.005157,-0.000309,0.002066,0.228573,0.020388,323.924194,23.501141,0.999188,0.985505,0.004781,0.419423,0.000027,-0.000018,-0.000006,0.000028,-0.000019,-6.857379,0.000028,
2281,3178,0.398659426496547,11.5904799184645,0.034397808476001,0.005280,-0.000587,0.005110,0.226048,0.013298,312.427251,25.261113,0.999581,0.992605,0.003443,0.396233,-0.000001,0.000024,0.000009,0.000027,-0.000004,72.129318,0.000030,
2161,2323,-2.0630994716162,-7.02518752599588,0.00298780209993765,0.005708,-0.000219,0.000289,0.261108,0.011260,326.391824,24.110280,0.999039,0.984313,0.004962,0.407649,-0.000017,-0.000004,-0.000005,-0.000002,-0.000019,-70.731854,0.000023,
2221,2878,-0.853860235462982,5.07535724411441,-0.00765392211025073,0.005167,-0.000470,0.006241,0.217782,0.034559,317.083905,24.574808,0.999551,0.992826,0.003289,0.466304,0.000005,0.000011,0.000011,0.000020,-0.000003,52.803976,0.000021,
2341,3193,1.69847743288229,11.9214637801314,0.0321313068150175,0.005446,-0.000315,0.005372,0.232033,0.027028,312.118044,25.586947,0.999661,0.993590,0.003402,0.395303,0.000009,0.000036,0.000009,0.000039,0.000007,73.772693,0.000049,
2131,2338,-2.71959603643558,-6.69755349350714,0.00762453809829822,0.005133,-0.000885,0.007512,0.213041,0.026270,326.255761,24.252793,0.999296,0.985833,0.004753,0.401535,-0.000015,-0.000002,-0.000003,-0.000001,-0.000015,-78.115169,0.000018,
2386,2038,2.8978852447378,-13.273186666709,0.0253362889671394,0.005029,-0.000553,0.004756,0.212821,0.022595,330.820876,22.467077,0.998847,0.974534,0.006210,0.327368,0.000005,-0.000043,0.000016,0.000010,-0.000048,16.870946,0.000051,
2251,2728,-0.176225622341875,1.81479055962562,-0.0231299289432627,0.005181,-0.000356,0.002749,0.229154,0.014543,319.339600,24.410430,0.999277,0.990228,0.003926,0.427576,-0.000008,0.000006,-0.000007,0.000008,-0.000011,-68.179371,0.000011,
2191,2848,-1.5003083958876,4.42171174529022,-0.010630795901136,0.005373,-0.000682,0.005123,0.231149,0.015727,317.644923,24.511735,0.999191,0.990897,0.003839,0.432617,0.000000,0.000016,0.000019,0.000029,-0.000013,56.090818,0.000029,
2146,2278,-2.382993063248,-8.00873276820912,-0.00145108224745627,0.005590,-0.000188,0.001930,0.250735,0.029023,327.124836,24.116692,0.998683,0.981480,0.005458,0.446149,-0.000013,-0.000008,0.000001,-0.000007,-0.000013,78.861150,0.000021,
2086,2278,-3.68962860188982,-8.00832903505884,0.00108316664039876,0.005496,-0.000417,0.002268,0.245766,0.025941,327.404911,24.432969,0.999252,0.988531,0.004431,0.380401,-0.000007,0.000017,0.000021,0.000029,-0.000019,60.268826,0.000029,
2266,3088,0.0886732127232968,9.63765664041391,0.0250144322148458,0.005185,-0.000362,0.003898,0.225853,0.017663,313.844272,25.064687,0.999596,0.991933,0.003647,0.381481,-0.000003,0.000005,-0.000005,0.000008,-0.000005,-64.951585,0.000008,
2401,2083,3.21766021562386,-12.2858240937277,0.0278643923896311,0.005421,-0.000555,0.004561,0.231283,0.027607,330.150642,22.518084,0.998978,0.976300,0.006107,0.327726,-0.000015,-0.000024,0.000003,-0.000014,-0.000025,18.210839,0.000039,
2236,2968,-0.543068465134635,7.03156337524798,0.00291907684010084,0.005119,-0.000291,0.005013,0.219469,0.034643,315.671352,24.760727,0.999457,0.991675,0.003730,0.428978,-0.000006,0.000021,0.000010,0.000024,-0.000009,72.431728,0.000024,
2146,2593,-2.43625331939873,-1.12985389965867,-0.0218698548131897,0.005213,-0.000375,0.002690,0.231563,0.033827,321.847819,24.290086,0.999082,0.988242,0.004536,0.473799,-0.000007,0.000001,-0.000004,0.000003,-0.000008,-68.137831,0.000009,
2506,3178,5.28722411283132,11.610623184552,0.0288092553907404,0.005462,-0.000331,0.002305,0.242196,0.016140,312.569610,26.295842,0.999602,0.992662,0.003491,0.398992,0.000024,0.000031,0.000015,0.000043,0.000012,51.747440,0.000058,
2206,2803,-1.16749379730175,3.44445589658889,-0.0202659930794766,0.005304,-0.000937,0.006252,0.224003,0.001472,318.245102,24.478663,0.998948,0.985164,0.004727,0.422309,0.000000,0.000003,0.000004,0.000006,-0.000003,56.347882,0.000006,
2161,2638,-2.11795281796292,-0.147814974421351,-0.0237053613762441,0.005183,-0.000622,0.006114,0.219518,0.024916,321.034530,24.396196,0.999782,0.993326,0.003485,0.373900,-0.000003,-0.000008,-0.000002,-0.000002,-0.000009,-21.001457,0.000011,
2296,3013,0.752266039780451,8.01254902615377,0.00553497176360906,0.005157,-0.000767,0.005929,0.217163,0.015592,314.856359,24.993859,0.999174,0.987289,0.004295,0.416338,0.000001,0.000004,0.000001,0.000004,0.000001,79.226833,0.000005,
2296,2998,0.755541899112902,7.68657426010575,0.0090559301754638,0.005308,-0.000471,0.004426,0.229283,0.018954,315.143005,24.969098,0.999395,0.990573,0.003803,0.415267,0.000000,0.000010,0.000002,0.000011,0.000000,77.417170,0.000012,
2191,2488,-1.43967409088467,-3.41874873262808,-0.0181081805994836,0.005035,-0.000369,0.001748,0.225787,0.021552,323.417171,24.163597,0.998960,0.983296,0.005281,0.428076,-0.000018,-0.000017,0.000006,-0.000011,-0.000023,47.123007,0.000035,
2191,2728,-1.48045404623019,1.81189423847196,-0.0207157409516867,0.005397,-0.000759,0.004731,0.233260,0.003130,319.513317,24.396545,0.999382,0.989877,0.003912,0.419485,-0.000006,0.000007,-0.000005,0.000008,-0.000007,-71.817676,0.000009,
2116,2188,-3.02229536340326,-9.97851336690363,0.0112821520523312,0.004873,-0.000738,0.005598,0.206874,0.012289,328.758390,24.302368,0.998956,0.982101,0.005226,0.335130,-0.000010,0.000014,0.000013,0.000020,-0.000016,66.162953,0.000021,
2176,2668,-1.79606021942891,0.50507488701178,-0.0183599576993174,0.005330,-0.000273,0.001730,0.239814,0.038208,320.561061,24.342837,0.999660,0.992144,0.003599,0.455266,-0.000005,-0.000002,-0.000002,-0.000001,-0.000006,-68.158077,0.000008,
2356,3208,2.02141443287526,12.2475569962844,0.0342072917414384,0.005267,-0.000326,0.004599,0.226301,0.019938,311.882388,25.661706,0.999573,0.992541,0.003489,0.422214,0.000016,0.000030,0.000007,0.000033,0.000013,67.914679,0.000048,
2146,2203,-2.37119823934249,-9.65015073347077,0.00818516982997153,0.004913,-0.000976,0.006839,0.204446,0.011003,328.366161,24.150217,0.998765,0.977721,0.005632,0.343186,-0.000008,0.000012,0.000011,0.000017,-0.000013,65.777378,0.000018,
2176,2788,-1.81673340489441,3.11797813083162,-0.027127909414844,0.005442,-0.000080,0.000844,0.247932,0.027648,318.547285,24.474877,0.999399,0.989293,0.004203,0.412908,-0.000007,0.000003,0.000004,0.000004,-0.000008,70.459983,0.000008,
2476,2848,4.69777789831532,4.4379539954938,-0.020851373299422,0.005785,-0.000915,0.005422,0.244714,-0.003110,317.478401,24.896587,0.999347,0.988301,0.004107,0.412136,-0.000033,0.000017,-0.000007,0.000018,-0.000034,-82.008841,0.000034,
2461,2683,4.4038679985448,0.843258849640307,-0.0255317800397847,0.005412,-0.000546,0.003031,0.236812,0.021123,320.087329,24.281189,0.999520,0.988351,0.004173,0.432339,0.000021,0.000031,-0.000003,0.000032,0.000020,-74.622668,0.000053,
2221,2653,-0.815285243928759,0.179607606881703,-0.0265228089827474,0.005680,-0.000680,0.003265,0.250510,0.002144,320.616626,24.243346,0.999207,0.988701,0.004389,0.480884,-0.000008,0.000002,0.000007,0.000005,-0.000011,62.476867,0.000011,
2161,2698,-2.12752590150435,1.15766564747796,-0.0190387607452749,0.005288,-0.000574,0.006078,0.224598,0.044897,320.105956,24.347751,0.999453,0.988037,0.004043,0.484276,0.000001,-0.000006,-0.000010,0.000007,-0.000013,-35.473056,0.000013,
2191,2788,-1.4911714777994,3.11828460181631,-0.0276753959990401,0.005307,-0.000422,0.003445,0.233384,0.017045,318.480108,24.455716,0.999069,0.986775,0.004594,0.432935,-0.000008,0.000005,0.000004,0.000006,-0.000009,73.550389,0.000010,
2446,2473,4.12103740808901,-3.74297538279848,0.00276048039734178,0.005053,-0.000269,0.002433,0.222476,0.023765,323.693379,23.601373,0.999536,0.987556,0.004429,0.376077,0.000020,-0.000029,-0.000006,0.000021,-0.000030,-7.023796,0.000031,
2311,3058,1.0709013621564,8.98949262418926,0.0210245464220407,0.005223,-0.000848,0.007888,0.213244,0.008776,314.232851,25.119204,0.999696,0.993229,0.003347,0.422596,-0.000001,0.000004,0.000003,0.000005,-0.000003,63.709311,0.000005,
2416,2293,3.50243970030995,-7.68156936919527,0.00986590011888211,0.005085,-0.000894,0.004899,0.214651,0.004070,326.611998,23.058143,0.998986,0.980142,0.005478,0.377432,-0.000007,0.000008,-0.000017,0.000019,-0.000018,-57.313136,0.000021,
2101,2323,-3.36908342462083,-7.02565532466071,0.00876742429511523,0.005903,-0.000185,0.000828,0.268673,0.022312,326.694900,24.361032,0.999137,0.986572,0.004804,0.395107,-0.000010,0.000009,0.000009,0.000012,-0.000014,67.635967,0.000015,
2086,2083,-3.66102748585689,-12.2739720664854,-0.0199275879596712,0.005438,-0.000293,0.003097,0.240452,0.043902,330.356835,24.439594,0.998998,0.948642,0.008814,0.369718,-0.000011,-0.000045,0.000007,-0.000010,-0.000047,11.397937,0.000061,
2071,2218,-4.00633719237885,-9.32112214875715,0.0109754409676839,0.005568,0.000053,0.002111,0.249648,0.052042,328.532503,24.531310,0.998297,0.981503,0.005322,0.374262,-0.000001,0.000017,0.000015,0.000025,-0.000009,60.643119,0.000026,
2086,2293,-3.69259559567836,-7.68036016430047,-0.00245057312486097,0.005065,-0.000506,0.002104,0.226419,0.004171,327.115045,24.421795,0.999657,0.991773,0.003982,0.371263,-0.000004,0.000013,0.000028,0.000034,-0.000025,53.342188,0.000036,
2341,3208,1.69611509297253,12.2455123367295,0.0369977136076045,0.005516,-0.000369,0.005039,0.236347,0.010487,311.917885,25.549445,0.999640,0.993433,0.003352,0.451663,0.000009,0.000034,0.000010,0.000037,0.000006,71.158936,0.000047,
2236,2983,-0.544904016990927,7.35715421199852,0.00906278241905056,0.005392,-0.000257,0.003479,0.237054,0.037924,315.495578,24.800191,0.999485,0.992081,0.003685,0.413082,-0.000006,0.000014,0.000009,0.000017,-0.000010,68.570787,0.000017,
2266,2893,0.121516107005938,5.40412251457128,-0.00847100035315407,0.005260,-0.000624,0.002954,0.232137,0.013357,316.753239,24.699011,0.999525,0.990245,0.003876,0.420275,0.000007,0.000013,0.000012,0.000022,-0.000002,52.208723,0.000025,
2161,2338,-2.06645042627155,-6.69584695037585,-0.00400991744277235,0.005347,0.000002,0.000973,0.242545,0.045032,326.072452,24.152405,0.999338,0.988155,0.004349,0.411719,-0.000021,-0.000005,-0.000009,-0.000001,-0.000025,-65.047297,0.000029,
2326,3133,1.38323639110286,10.6187046082731,0.0203960268480614,0.005372,-0.000388,0.002769,0.237747,0.013058,313.014561,25.341807,0.999297,0.991761,0.003637,0.422589,0.000009,0.000027,0.000005,0.000028,0.000008,74.087235,0.000038,
2146,2638,-2.44402380041861,-0.148709019779062,-0.0274914615389434,0.005311,-0.000413,0.004038,0.232029,0.030838,321.072209,24.332352,0.999727,0.992169,0.003638,0.454265,0.000004,-0.000012,-0.000004,0.000004,-0.000013,-12.619207,0.000013,
2191,2863,-1.50285479476301,4.74819018796808,-0.0150619544983215,0.005571,-0.000575,0.003259,0.246159,0.011180,317.378649,24.532115,0.999312,0.991559,0.003639,0.422142,0.000001,0.000011,0.000012,0.000020,-0.000007,55.848158,0.000020,
2161,2653,-2.12068937424959,0.178932118128174,-0.0308110572232749,0.005285,-0.000572,0.004124,0.230333,0.012412,320.743052,24.360164,0.999717,0.991879,0.003653,0.408110,-0.000004,-0.000006,-0.000003,-0.000002,-0.000008,-39.609960,0.000011,
2251,2803,-0.189200740496727,3.4473740644518,-0.0243083558190165,0.005658,-0.000412,0.003453,0.248868,0.013506,318.129625,24.541119,0.999467,0.989383,0.004170,0.412891,0.000003,0.000009,0.000001,0.000009,0.000002,78.486567,0.000013,
2281,2953,0.437203921192552,6.70940029889651,-0.00814508931642877,0.005675,-0.000117,0.000961,0.258132,0.046993,315.780338,24.832950,0.999318,0.989572,0.004014,0.456031,0.000004,0.000019,0.000006,0.000022,0.000002,71.059944,0.000026,
2116,2203,-3.02461160960237,-9.64999601776628,0.00937496595776111,0.004976,-0.000467,0.004459,0.215082,0.019006,328.509491,24.296986,0.998426,0.977714,0.005608,0.353393,-0.000012,0.000018,0.000011,0.000021,-0.000016,71.394009,0.000022,
2206,2863,-1.17668804763762,4.7483489141281,-0.00606581948090934,0.005345,-0.000401,0.004199,0.232679,0.024470,317.396275,24.547425,0.999368,0.992147,0.003522,0.442292,0.000007,0.000008,0.000012,0.000019,-0.000004,46.917499,0.000020,
2176,2683,-1.79888943446521,0.831222285068527,-0.0219294743436649,0.005314,-0.000654,0.002416,0.236833,0.020042,320.285393,24.296690,0.999541,0.991176,0.003737,0.496119,-0.000005,0.000006,-0.000007,0.000009,-0.000008,-64.716867,0.000010,
2176,2428,-1.75503744787962,-4.72907964081081,-0.00793011285179546,0.005423,-0.000065,0.002145,0.242465,0.035209,324.535638,24.193047,0.998986,0.985887,0.004806,0.390225,-0.000032,-0.000007,-0.000004,-0.000006,-0.000033,-80.497918,0.000042,
2386,2053,2.89659660158779,-12.9442539538398,0.0348885665903254,0.005557,0.000179,0.000668,0.251876,0.044573,330.697727,22.560008,0.999158,0.978274,0.005876,0.302415,0.000005,-0.000027,0.000016,0.000011,-0.000034,22.605263,0.000034,
2491,2863,5.02146435811834,4.76486460459589,-0.0154131372188999,0.005357,-0.001002,0.004685,0.227666,-0.007365,317.300790,24.976510,0.999561,0.991263,0.003754,0.406315,-0.000023,0.000029,-0.000014,0.000032,-0.000027,-76.145705,0.000035,
2056,2143,-4.32186808274598,-10.9636086825255,0.00839878701532371,0.005470,-0.000265,0.000381,0.249918,0.025712,329.797279,24.529028,0.998817,0.983646,0.005397,0.435424,-0.000011,-0.000005,0.000013,0.000006,-0.000022,50.957284,0.000022,
2206,2923,-1.18679880887329,6.05284824338858,-0.00547587911870551,0.005593,-0.000547,0.004393,0.243533,0.017638,316.434610,24.665819,0.999364,0.990248,0.003953,0.382433,0.000000,0.000015,0.000014,0.000023,-0.000008,59.119732,0.000023,
2251,2848,-0.196874090018525,4.42580647562214,-0.01815479684916,0.005432,-0.000324,0.001893,0.243721,0.025688,317.443432,24.608771,0.999507,0.991895,0.003696,0.426893,0.000012,0.000013,0.000015,0.000028,-0.000003,46.706081,0.000030,
2431,2428,3.80239098661554,-4.72553129907963,-0.00571707811275246,0.005247,-0.000143,0.000692,0.237884,0.018128,324.340613,23.522698,0.999388,0.985907,0.004823,0.330824,0.000011,0.000006,-0.000007,0.000016,0.000001,-36.675500,0.000019,
2161,2593,-2.10980228867142,-1.12969206255,-0.0174908434527765,0.005426,-0.000866,0.006084,0.230650,0.011575,321.827200,24.308094,0.999194,0.988310,0.004336,0.416352,-0.000012,0.000000,-0.000004,0.000001,-0.000013,-74.197876,0.000015,
2506,3193,5.28414927772347,11.9355055282463,0.0319901254197816,0.005400,-0.000590,0.004584,0.230368,0.005824,312.338464,26.317955,0.999615,0.992972,0.003446,0.426328,0.000023,0.000032,0.000014,0.000043,0.000012,53.887396,0.000058,
2236,2743,-0.504963457165704,2.14102663211793,-0.0214294856436936,0.005240,-0.000455,0.004158,0.227491,0.031346,319.138888,24.455647,0.999143,0.987065,0.004498,0.418070,-0.000003,0.000001,-0.000003,0.000002,-0.000004,-62.072158,0.000004,
2101,2338,-3.37210770953921,-6.69802839271129,0.00537569420856698,0.005633,-0.000641,0.003671,0.247873,-0.000610,326.404621,24.336955,0.999164,0.988045,0.004576,0.399704,-0.000014,0.000002,0.000005,0.000003,-0.000016,74.686335,0.000017,
2146,2533,-2.42621362864844,-2.43858897890436,-0.0149556894041893,0.005166,-0.000885,0.006077,0.218893,0.021577,322.864204,24.264719,0.999242,0.987078,0.004421,0.451941,-0.000019,0.000004,-0.000007,0.000006,-0.000021,-74.381409,0.000022,
2131,2353,-2.72190988482449,-6.36877945578535,0.000190156378835127,0.005461,-0.000408,0.003512,0.240217,0.021327,325.978822,24.281952,0.999221,0.985390,0.004775,0.374944,-0.000019,-0.000008,-0.000003,-0.000007,-0.000019,-75.539516,0.000027,
2461,2698,4.40125362588669,1.17045779712131,-0.0196348978748233,0.005351,-0.000291,0.003169,0.233596,0.037049,319.888849,24.384297,0.999691,0.988528,0.004238,0.399817,0.000022,0.000032,-0.000001,0.000032,0.000022,-85.273143,0.000054,
2401,2098,3.21385109695587,-11.9565353218541,0.0251647510730209,0.004990,-0.000953,0.007602,0.200436,0.045057,329.855401,22.528579,0.998847,0.972799,0.006463,0.383578,-0.000019,-0.000017,-0.000004,-0.000014,-0.000022,-52.931339,0.000036,
2296,3253,0.709344628413941,13.2186798725053,0.0198259086957364,0.005238,-0.000512,0.004932,0.224664,0.023540,311.054832,25.457910,0.999679,0.990841,0.003614,0.421862,0.000006,0.000039,0.000017,0.000046,-0.000001,67.302375,0.000052,
2146,2608,-2.43882527738323,-0.801997402516285,-0.0240762170913058,0.005254,-0.000493,0.002612,0.233669,0.022032,321.588188,24.381210,0.999404,0.990012,0.004186,0.379454,-0.000004,0.000001,0.000000,0.000001,-0.000004,87.739291,0.000004,
2146,2293,-2.38551263352857,-7.68119619536095,0.00477946684509334,0.005186,-0.000670,0.003266,0.227982,0.014246,326.912542,24.158407,0.998736,0.983409,0.005159,0.399676,-0.000015,-0.000003,0.000004,-0.000002,-0.000016,71.983727,0.000020,
2266,3103,0.0860538792516969,9.96328169617436,0.02273176581906,0.005373,-0.000280,0.002978,0.237683,0.034982,313.591528,25.068393,0.999725,0.993331,0.003408,0.419825,-0.000002,0.000011,-0.000002,0.000011,-0.000003,-80.499918,0.000012,
2206,2593,-1.13060743948659,-1.12896763958243,-0.00676587487930647,0.005315,-0.000949,0.009014,0.215514,0.036149,321.758414,24.271259,0.999101,0.986920,0.004450,0.425874,-0.000011,-0.000001,0.000001,-0.000001,-0.000011,82.699000,0.000014,
2191,2743,-1.48245284886275,2.13834768464439,-0.0157424420269194,0.005530,-0.000466,0.003490,0.243379,0.012253,319.321198,24.438759,0.999464,0.990321,0.003939,0.401150,-0.000008,0.000007,-0.000005,0.000008,-0.000010,-73.373178,0.000011,
2176,2728,-1.80692104910835,1.81098208493304,-0.0226398132154486,0.005210,-0.000997,0.006710,0.218650,0.003420,319.531040,24.351927,0.999460,0.989971,0.003994,0.461966,-0.000003,0.000002,-0.000007,0.000007,-0.000008,-53.427402,0.000009,
2191,2503,-1.44153122685224,-3.09225144884014,-0.0111453431967448,0.005361,-0.000621,0.003553,0.235037,0.014220,323.242098,24.175004,0.999243,0.985958,0.004777,0.424814,-0.000018,-0.000009,0.000006,-0.000005,-0.000021,62.932943,0.000028,
2161,2353,-2.06900988075219,-6.36753657585898,-0.0116979917486901,0.005547,0.000343,-0.002394,0.262158,0.030894,325.786048,24.147300,0.999120,0.986144,0.004656,0.414658,-0.000027,-0.000011,-0.000009,-0.000007,-0.000031,-66.364817,0.000041,
2221,2668,-0.817965127874619,0.506591738454617,-0.0214565210852129,0.005347,-0.000640,0.004621,0.230860,0.009954,320.395658,24.316356,0.999492,0.993146,0.003636,0.435020,-0.000002,0.000003,0.000002,0.000004,-0.000003,72.845946,0.000004,
2386,2068,2.89252767184111,-12.615134929462,0.025720083701799,0.005319,-0.000303,0.003505,0.230670,0.038546,330.358916,22.494800,0.999280,0.978686,0.005674,0.408834,0.000001,-0.000023,0.000016,0.000009,-0.000032,26.696829,0.000033,
2266,2908,0.119419066815112,5.73051590397828,-0.00598646704128214,0.005599,-0.000131,0.001840,0.251643,0.034885,316.548661,24.750240,0.999636,0.992238,0.003573,0.415621,0.000007,0.000013,0.000013,0.000023,-0.000004,51.665420,0.000024,
2341,3223,1.69281840119605,12.5717756329842,0.0338198976276658,0.005338,-0.000501,0.005572,0.226351,0.022161,311.634693,25.645261,0.999546,0.992575,0.003395,0.402679,0.000008,0.000038,0.000009,0.000041,0.000006,74.991244,0.000051,
2071,2233,-4.00905843982815,-8.99242194781691,0.0067798987547576,0.005390,-0.000094,0.001967,0.241885,0.040221,328.248698,24.547429,0.998799,0.984737,0.004895,0.345814,-0.000003,0.000012,0.000014,0.000021,-0.000012,58.303051,0.000021,
2281,2968,0.434891526730659,7.03559812699647,-0.00726038462380529,0.005712,0.000105,-0.003308,0.274195,0.038986,315.558853,24.901029,0.999318,0.990228,0.003916,0.407139,0.000004,0.000017,0.000006,0.000020,0.000001,67.747505,0.000023,
2191,2803,-1.49360758517103,3.44455837321946,-0.0221688678895475,0.005155,-0.000478,0.004860,0.221953,0.032038,318.270682,24.496674,0.999077,0.986910,0.004524,0.421238,-0.000006,0.000002,0.000005,0.000004,-0.000008,64.920079,0.000008,
2416,2308,3.50017618952459,-7.3538934640503,0.0149514428264865,0.005175,-0.000524,0.002637,0.227242,0.018401,326.424530,23.079831,0.999302,0.984882,0.004742,0.419496,-0.000002,0.000011,-0.000016,0.000021,-0.000013,-56.376312,0.000021,
2191,2878,-1.50547444259434,5.07486199394784,-0.0108919938659255,0.005327,-0.000861,0.004548,0.230835,0.008508,317.153698,24.636452,0.999802,0.995118,0.003026,0.329030,0.000004,0.000015,0.000009,0.000020,-0.000001,61.507065,0.000023,
2251,2863,-0.199396891068371,4.75148748067436,-0.0163314747127856,0.005565,-0.000653,0.003542,0.244312,0.012741,317.215264,24.612142,0.999577,0.991749,0.003636,0.433701,0.000009,0.000011,0.000008,0.000018,0.000003,49.325217,0.000022,
2206,2878,-1.17952921391862,5.07506500873147,-0.0108750088907641,0.005446,-0.000582,0.004379,0.236747,0.019176,317.115698,24.592245,0.999630,0.993756,0.003244,0.408784,0.000007,0.000013,0.000009,0.000020,0.000000,53.855470,0.000023,
2161,2713,-2.1303451724864,1.4850533735618,-0.0218371204654773,0.005018,-0.000502,0.003922,0.218829,0.030394,319.833140,24.427379,0.999481,0.989756,0.003982,0.400374,0.000004,-0.000001,-0.000011,0.000013,-0.000010,-38.755246,0.000013,
2236,2998,-0.547632879115863,7.6821904007618,0.0101586697280709,0.005431,-0.000508,0.006230,0.229848,0.029184,315.253165,24.769795,0.999455,0.991015,0.003813,0.455234,-0.000007,0.000017,0.000007,0.000018,-0.000009,74.603935,0.000018,
2311,3073,1.0686701762542,9.31596051344798,0.0220216334075189,0.005357,-0.000373,0.003319,0.235258,0.019662,314.017404,25.220677,0.999708,0.994358,0.003150,0.363430,0.000003,0.000010,0.000005,0.000012,0.000001,63.526034,0.000014,
2506,3208,5.28038230251545,12.2620857477734,0.0268743714515836,0.005149,-0.000592,0.004456,0.219381,0.008434,312.037549,26.439264,0.999381,0.991675,0.003710,0.367368,0.000023,0.000029,0.000009,0.000035,0.000017,53.814108,0.000053,
2146,2653,-2.44627379665201,0.1769913195687,-0.0244146554896361,0.005277,-0.000864,0.003288,0.232569,0.000477,320.855920,24.303376,0.999741,0.991158,0.003695,0.461267,0.000002,-0.000008,-0.000005,0.000004,-0.000010,-22.361106,0.000010,
2086,2308,-3.69516224803697,-7.35226563284063,-0.00657185894607437,0.005049,-0.000410,0.001565,0.227292,-0.005920,326.840208,24.410132,0.999410,0.989051,0.004468,0.373978,-0.000003,0.000004,0.000023,0.000023,-0.000023,49.416633,0.000027,
2401,2113,3.21135748473885,-11.6273549187867,0.026677613858169,0.004989,-0.000501,0.003728,0.214591,0.041319,329.640235,22.601788,0.998965,0.975015,0.006070,0.355331,-0.000022,-0.000019,-0.000005,-0.000015,-0.000026,-51.641429,0.000041,
2206,2938,-1.18933456741333,6.37805787257716,-0.00354867314649709,0.005435,-0.000521,0.003153,0.240172,0.009629,316.203274,24.640662,0.999481,0.991978,0.003649,0.415596,-0.000002,0.000018,0.000013,0.000024,-0.000008,63.635426,0.000024,
2206,2818,-1.16985589496139,3.7699553448392,-0.0151085891287153,0.005208,-0.001017,0.006781,0.217896,-0.004148,318.038467,24.470122,0.999156,0.988079,0.004277,0.441622,0.000004,0.000011,0.000012,0.000019,-0.000005,53.231946,0.000020,
2146,2548,-2.4284193810555,-2.11208330706337,-0.0138786486241997,0.005154,-0.000705,0.003169,0.227204,0.005959,322.639141,24.244908,0.999022,0.985435,0.004657,0.464793,-0.000014,0.000006,0.000000,0.000006,-0.000014,-88.768636,0.000014,
2161,2668,-2.12116503221408,0.503654766218084,-0.00739237349205268,0.005670,-0.000096,0.003198,0.251080,0.033496,320.716377,24.363948,0.999755,0.993383,0.003334,0.435264,-0.000002,-0.000005,-0.000005,0.000001,-0.000009,-36.615892,0.000010,
2476,2863,4.69472453434905,4.76415101929982,-0.0146784066805026,0.005328,-0.000713,0.006179,0.220934,0.000426,317.261326,24.966425,0.999187,0.986242,0.004364,0.401947,-0.000033,0.000026,-0.000005,0.000026,-0.000033,-84.883234,0.000035,
2086,2098,-3.66237114884168,-11.9457079636617,-0.00654278226409133,0.005428,-0.000111,0.001105,0.245801,0.038013,330.232546,24.554222,0.998981,0.966881,0.006921,0.250754,-0.000010,-0.000033,0.000007,-0.000008,-0.000035,16.697097,0.000046,
2296,3268,0.70640163516444,13.5438085749342,0.0179425210870363,0.005257,-0.000478,0.005724,0.222925,0.027750,310.791176,25.476044,0.999621,0.992511,0.003375,0.436357,0.000005,0.000037,0.000016,0.000044,-0.000002,67.267860,0.000049,
2146,2308,-2.38732442693618,-7.35376956907222,0.00816017249695733,0.005525,-0.000543,0.002352,0.246375,-0.001476,326.717581,24.166692,0.998981,0.983500,0.005127,0.385322,-0.000016,-0.000008,-0.000001,-0.000008,-0.000016,-83.835410,0.000024,
2281,3193,0.396251204790236,11.9154731092701,0.0376755820278731,0.005472,-0.000599,0.006520,0.230214,0.019568,312.213229,25.274110,0.999657,0.993030,0.003307,0.415971,0.000001,0.000028,0.000013,0.000033,-0.000004,68.123296,0.000036,
2191,2758,-1.48477990044515,2.4647396145409,-0.0154457897061206,0.005703,-0.000456,0.002930,0.253168,0.026226,319.089701,24.437415,0.999489,0.990618,0.003810,0.431112,-0.000011,0.000005,-0.000005,0.000006,-0.000012,-75.024626,0.000012,
2296,3028,0.75034714418301,8.33856082545862,0.00870555164812004,0.005565,-0.000203,0.003353,0.245000,0.051992,314.665253,25.031159,0.999324,0.989232,0.003994,0.444827,0.000003,0.000000,-0.000001,0.000003,0.000000,-22.312515,0.000003,
2221,2893,-0.85590483128998,5.40119334914171,-0.000993072743881385,0.005222,-0.000282,0.005476,0.222866,0.042822,316.900314,24.613452,0.999674,0.992751,0.003480,0.454330,0.000003,0.000017,0.000016,0.000027,-0.000007,56.151485,0.000028,
2221,2938,-0.863677780493507,6.37942714305474,-0.00513795941719764,0.005537,-0.000329,0.004445,0.240676,0.029173,316.150051,24.684325,0.999572,0.993325,0.003405,0.425204,-0.000002,0.000018,0.000011,0.000023,-0.000007,67.059987,0.000024,
2506,3223,5.27731289269444,12.5874159594291,0.02889273112811,0.005169,-0.000437,0.006490,0.212503,0.019589,311.801112,26.481918,0.999467,0.991295,0.003829,0.395630,0.000021,0.000003,0.000010,0.000025,-0.000001,23.898537,0.000028,
2341,3238,1.68953701436703,12.8976978001545,0.0284220251522811,0.005296,-0.000171,0.005501,0.224860,0.041036,311.341445,25.694098,0.999505,0.991606,0.003495,0.408225,0.000007,0.000041,0.000008,0.000043,0.000005,77.167800,0.000053,
2251,2878,-0.202092360845558,5.07783644349335,-0.0143204503547736,0.005387,-0.000611,0.003423,0.236559,0.006288,316.979880,24.675903,0.999626,0.990230,0.003794,0.386410,0.000006,0.000010,0.000004,0.000013,0.000003,59.287968,0.000017,
2236,2758,-0.507428994194473,2.4677287917,-0.0248226688297564,0.005544,-0.000387,0.002633,0.246427,0.024482,318.885589,24.475638,0.999288,0.988526,0.004186,0.412429,-0.000004,0.000005,0.000000,0.000005,-0.000004,-88.562234,0.000006,
2281,2983,0.431662179258385,7.36031207879351,-0.00243492850017901,0.005333,-0.000319,0.003269,0.234617,0.043669,315.315335,24.851051,0.999364,0.990389,0.003891,0.488859,0.000004,0.000005,0.000004,0.000009,0.000001,49.068813,0.000011,
2356,3223,2.01805465515982,12.5733408794421,0.0325617961322564,0.004996,-0.000307,0.005958,0.209103,0.034499,311.605014,25.719619,0.999591,0.992366,0.003407,0.416358,0.000016,0.000033,0.000006,0.000035,0.000014,71.637094,0.000051,
2101,2353,-3.37534970671384,-6.36804519487454,-0.00953342281741243,0.005609,-0.000038,0.002109,0.251538,0.047268,326.041479,24.350711,0.998977,0.983758,0.005071,0.437337,-0.000019,-0.000003,0.000002,-0.000002,-0.000019,82.807367,0.000024,
2431,2443,3.79912983372261,-4.39805104608197,-0.00801798978238821,0.005286,-0.000397,0.002437,0.233182,0.019433,324.073689,23.513847,0.999201,0.985458,0.004816,0.392618,0.000020,-0.000018,-0.000005,0.000021,-0.000018,-7.620756,0.000023,
2461,2713,4.39817048242164,1.49738352337892,-0.0209254947750992,0.005529,-0.000268,0.004742,0.235885,0.048961,319.635943,24.411811,0.999655,0.990539,0.003931,0.439065,0.000018,0.000032,0.000003,0.000033,0.000017,78.892209,0.000051,
2161,2368,-2.07115709961051,-6.04004797567569,-0.00454956331122958,0.005680,0.000080,0.001884,0.255150,0.048074,325.596477,24.185842,0.999070,0.989010,0.004281,0.404927,-0.000028,-0.000007,-0.000012,-0.000002,-0.000033,-65.649762,0.000039,
2176,2803,-1.819093978361,3.44306038136212,-0.0152560809650026,0.004983,-0.000148,0.003385,0.218960,0.046377,318.374062,24.451279,0.999528,0.989891,0.004135,0.467111,-0.000006,0.000002,0.000006,0.000005,-0.000009,61.756531,0.000009,
2446,2488,4.11849248627395,-3.41716389472305,0.00613761993423623,0.005379,-0.000895,0.004310,0.230168,-0.009553,323.486941,23.540777,0.999474,0.986107,0.004528,0.456622,0.000019,-0.000029,-0.000010,0.000022,-0.000031,-11.729853,0.000032,
2191,2518,-1.44367391513123,-2.76656361447097,-0.00150609118037437,0.005362,-0.000892,0.007503,0.222623,0.015187,323.067991,24.132012,0.999317,0.988058,0.004537,0.484153,-0.000017,-0.000014,0.000009,-0.000006,-0.000024,50.160428,0.000032,
2191,2818,-1.49598860244666,3.76954137425569,-0.0182962981550645,0.005103,-0.001118,0.005346,0.217805,-0.009969,318.055768,24.467057,0.998765,0.985810,0.004639,0.423225,-0.000002,0.000012,0.000011,0.000018,-0.000008,61.064345,0.000018,
2251,2818,-0.190984888332874,3.77279419648407,-0.015076024113398,0.005715,-0.000171,0.001220,0.258980,0.034530,317.972982,24.530717,0.999571,0.990726,0.004071,0.467476,0.000008,0.000016,0.000008,0.000021,0.000003,57.898701,0.000025,
2086,2323,-3.69750552053865,-7.02546095958826,-0.00139679351531186,0.005049,-0.001111,0.007030,0.211333,0.002588,326.626208,24.359851,0.999168,0.987903,0.004633,0.433737,-0.000002,0.000011,0.000020,0.000026,-0.000017,53.302848,0.000026,
2176,2443,-1.75762066001994,-4.40217643779661,-0.00832847513572688,0.005472,-0.000539,0.003637,0.239981,0.017990,324.287898,24.164191,0.999199,0.986305,0.004729,0.415666,-0.000033,-0.000008,-0.000006,-0.000007,-0.000034,-77.106812,0.000044,
2176,2743,-1.80830754157153,2.13749840990659,-0.0149242455986496,0.005593,-0.000562,0.003169,0.247431,0.014275,319.380356,24.419780,0.999504,0.990266,0.004105,0.417250,-0.000004,0.000001,-0.000007,0.000006,-0.000009,-55.458957,0.000009,
2326,3148,1.38079336976578,10.9441864181058,0.0249296985962815,0.005392,-0.000210,0.002754,0.238836,0.026950,312.807841,25.390675,0.999513,0.992843,0.003534,0.420797,0.000006,0.000024,0.000009,0.000027,0.000003,67.912701,0.000033,
2161,2608,-2.11168902796501,-0.802641066170487,-0.0143696944520002,0.005612,-0.000301,0.002927,0.249068,0.028858,321.628386,24.342040,0.999437,0.990602,0.004039,0.410325,-0.000009,0.000001,0.000001,0.000001,-0.000009,85.386029,0.000010,
2386,2083,2.8897058667066,-12.285454434287,0.0238495902437421,0.005453,-0.000301,0.002410,0.240770,0.031438,330.111580,22.568880,0.999181,0.975455,0.005826,0.374197,-0.000004,-0.000014,0.000017,0.000009,-0.000028,36.758694,0.000028,
2176,2698,-1.80162042051303,1.15854487770751,-0.0223768564325155,0.005352,-0.000667,0.005477,0.229096,0.029112,320.030152,24.361776,0.999540,0.991002,0.003697,0.452749,-0.000005,-0.000003,-0.000007,0.000003,-0.000011,-50.291750,0.000011,
2491,2878,5.01866625262862,5.08982451687031,-0.00838274006906659,0.004985,-0.000948,0.004089,0.212876,-0.013012,317.100485,24.951549,0.999494,0.992456,0.003603,0.484114,-0.000020,0.000029,-0.000004,0.000030,-0.000020,-85.096688,0.000030,
2071,2248,-4.01164303749604,-8.66516706631519,0.00708801708452711,0.005100,-0.000365,0.002425,0.227218,0.017096,327.996052,24.494853,0.998833,0.984630,0.004835,0.374659,-0.000004,0.000025,0.000015,0.000031,-0.000010,67.461694,0.000032,
2341,3253,1.68580951899358,13.2228390927618,0.0162700060076872,0.005329,-0.000650,0.005500,0.226101,0.002844,310.994944,25.694700,0.999523,0.992397,0.003394,0.404470,0.000005,0.000047,0.000011,0.000049,0.000002,76.128378,0.000058,
2056,2158,-4.32446413041584,-10.6342532202292,0.00991244646183986,0.005327,-0.000669,0.005058,0.230114,0.037884,329.548833,24.613886,0.999093,0.985827,0.004938,0.360146,-0.000015,-0.000016,-0.000001,-0.000014,-0.000017,-34.676113,0.000032,
2311,3088,1.0662394261153,9.64073563034543,0.0253723104041796,0.005563,-0.000414,0.004789,0.239668,0.013640,313.804915,25.201937,0.999746,0.995101,0.003013,0.407386,0.000005,0.000009,-0.000001,0.000009,0.000005,-81.277514,0.000015,
2281,3238,0.387752337459858,12.8912049723971,0.0339407666402849,0.005315,-0.000687,0.004461,0.229899,0.010517,311.444077,25.353749,0.999833,0.993834,0.003170,0.406572,0.000005,0.000035,0.000015,0.000042,-0.000001,67.828823,0.000047,
2296,3283,0.703413281640508,13.8694703287187,0.0115117080922005,0.005324,-0.000061,0.003195,0.234745,0.044104,310.502543,25.510463,0.999485,0.992583,0.003357,0.446907,0.000003,0.000045,0.000016,0.000050,-0.000003,71.183609,0.000057,
2266,3118,0.0837189596347301,10.2880464665669,0.0312387489620392,0.005295,-0.000360,0.005252,0.226514,0.030939,313.406532,25.085458,0.999668,0.993500,0.003384,0.423047,-0.000002,0.000012,0.000000,0.000012,-0.000002,-89.912999,0.000013,
2281,3208,0.393939886376554,12.2409749764506,0.0436093044600625,0.005146,-0.000178,0.002146,0.230070,0.034198,312.016760,25.344403,0.999836,0.995355,0.002799,0.386838,0.000003,0.000027,0.000015,0.000034,-0.000005,64.186272,0.000037,
2296,3043,0.747874887374291,8.66371626876631,0.0191669621479491,0.005342,-0.000528,0.006994,0.222263,0.038485,314.485217,25.091002,0.999359,0.989806,0.003939,0.400170,0.000000,0.000005,-0.000002,0.000006,0.000000,-70.652040,0.000006,
2206,2833,-1.17147460062387,4.09572770931789,-0.00213941578687127,0.005387,-0.001140,0.008290,0.221304,-0.001431,317.906220,24.540816,0.999320,0.990563,0.003897,0.389946,0.000005,0.000015,0.000019,0.000029,-0.000009,52.063868,0.000030,
2266,2923,0.116648985012361,6.05563918935056,-0.00157955805690335,0.005473,-0.000497,0.005547,0.233390,0.007507,316.323262,24.751149,0.999671,0.992775,0.003637,0.412212,0.000005,0.000011,0.000009,0.000017,-0.000001,54.419719,0.000020,
2206,2608,-1.13356779116129,-0.801495308679485,-0.0158769337731997,0.005343,-0.000726,0.005893,0.226784,0.026459,321.450476,24.265854,0.999006,0.985175,0.004725,0.439116,-0.000009,0.000000,0.000006,0.000003,-0.000012,64.150289,0.000012,
2221,2908,-0.858141726416719,5.72704646718703,0.00107861986799662,0.005275,-0.000401,0.002805,0.233838,0.026070,316.684342,24.648935,0.999617,0.991658,0.003865,0.420428,0.000004,0.000013,0.000016,0.000025,-0.000009,52.812823,0.000025,
2116,2218,-3.02686236170983,-9.3215550760383,0.00683061691836429,0.005042,-0.000468,0.001020,0.228247,0.010613,328.260257,24.298573,0.998399,0.979174,0.005625,0.349294,-0.000009,0.000014,0.000009,0.000018,-0.000012,70.580786,0.000018,
2086,2338,-3.69880652035075,-6.69771572983556,0.00415005477429986,0.005319,-0.000201,0.000599,0.242579,0.016331,326.461659,24.398066,0.998940,0.985421,0.004885,0.410000,-0.000006,0.000003,0.000015,0.000014,-0.000018,53.184863,0.000019,
2206,2893,-1.18312007403862,5.40166999577293,-0.0199992873133965,0.005199,-0.000783,0.006025,0.220069,0.012259,316.778387,24.602210,0.999800,0.994932,0.003137,0.408174,0.000005,0.000019,0.000015,0.000028,-0.000004,57.426201,0.000030,
2341,3268,1.68210543155859,13.5487512414253,0.00611620333540941,0.005400,-0.000625,0.007688,0.221884,0.023728,310.658905,25.723932,0.999550,0.992836,0.003292,0.431424,0.000003,0.000041,0.000012,0.000044,-0.000001,74.281313,0.000051,
2311,3283,1.02882151178016,13.8709390374051,0.00755449356569216,0.005496,-0.000190,0.002363,0.245280,0.025315,310.464992,25.594859,0.999537,0.994269,0.003000,0.428246,-0.000005,0.000042,0.000014,0.000046,-0.000009,74.418570,0.000049,
2386,2098,2.88564753146586,-11.9557998008136,0.0196652641928381,0.004926,-0.000594,0.006321,0.202544,0.042112,329.796519,22.603427,0.998976,0.973915,0.006099,0.397395,-0.000009,-0.000009,0.000009,0.000000,-0.000018,45.558600,0.000021,
2251,2893,-0.20425046220252,5.40314690168685,-0.00730281708507619,0.005470,-0.000701,0.004469,0.236963,0.015244,316.794802,24.669120,0.999655,0.991254,0.003671,0.425048,0.000006,0.000015,0.000011,0.000022,-0.000001,55.830304,0.000025,
2206,2953,-1.19253022987152,6.70403431460739,-0.00646595857290322,0.005307,-0.000535,0.006985,0.222174,0.031126,315.916268,24.626790,0.999546,0.991924,0.003618,0.467473,-0.000003,0.000019,0.000010,0.000023,-0.000007,69.323152,0.000023,
2176,2758,-1.81139441823144,2.46459411086262,-0.0224858239749892,0.005647,-0.000563,0.004551,0.245671,0.028047,319.071540,24.420997,0.999381,0.989488,0.004098,0.442486,-0.000006,-0.000001,-0.000007,0.000003,-0.000011,-55.071354,0.000011,
2221,2683,-0.820303619654027,0.833387275003602,-0.0214683476965547,0.005649,-0.000480,0.005127,0.243226,0.018144,320.164338,24.333647,0.999601,0.992257,0.003594,0.445191,-0.000004,0.000012,-0.000002,0.000012,-0.000004,-83.692904,0.000012,
2281,2998,0.428933148659478,7.68618041715819,0.0048097205304316,0.005028,-0.000568,0.006350,0.210114,0.026583,315.106551,24.948810,0.999376,0.989887,0.003909,0.400706,0.000004,0.000007,0.000002,0.000009,0.000002,65.178685,0.000012,
2161,2728,-2.13292945188335,1.81079201772621,-0.0216319696615983,0.005057,-0.000652,0.005952,0.214351,0.021975,319.587351,24.378647,0.999503,0.989546,0.004103,0.451129,0.000002,-0.000001,-0.000011,0.000012,-0.000010,-41.198809,0.000013,
2491,2893,5.01464716572302,5.41854001497966,-0.015886050617496,0.004975,-0.000844,0.007593,0.199056,0.010346,316.777374,25.141114,0.998803,0.986995,0.004430,0.376466,-0.000015,0.000027,0.000000,0.000027,-0.000015,-89.957703,0.000027,
2251,3088,-0.237487488042877,9.63691634565283,0.0149203026111877,0.005370,-0.000345,0.003401,0.236254,0.029575,313.797483,24.970634,0.999585,0.990803,0.003687,0.431875,-0.000007,0.000008,-0.000001,0.000008,-0.000007,-84.767142,0.000009,
2506,3238,5.27394643005319,12.912959500538,0.0222805553950707,0.005170,0.000014,0.003182,0.225554,0.025559,311.512086,26.504159,0.999532,0.990944,0.003818,0.439014,0.000020,0.000003,0.000009,0.000025,-0.000001,23.694738,0.000028,
2476,2878,4.69075014110017,5.09183811458051,-0.0241875897009436,0.005129,-0.000573,0.005351,0.215064,0.010406,316.930138,25.055403,0.998640,0.986557,0.004679,0.379498,-0.000029,0.000023,0.000003,0.000023,-0.000029,86.626577,0.000031,
2161,2683,-2.1246933192148,0.83063691032217,-0.0148891372086837,0.005320,-0.000705,0.005773,0.226896,0.024012,320.386467,24.352414,0.999550,0.990746,0.003732,0.448037,-0.000001,0.000000,-0.000010,0.000009,-0.000010,-46.897863,0.000011,
2341,3283,1.67887002009128,13.8739640112555,-0.00198218395604499,0.005518,-0.000743,0.006384,0.231746,0.003319,310.354643,25.746092,0.999603,0.993651,0.003157,0.423786,0.000000,0.000041,0.000012,0.000044,-0.000003,75.203378,0.000049,
2431,2458,3.79605577968384,-4.07052733529412,-0.00956159667123302,0.005240,-0.000232,0.001585,0.234290,0.017152,323.818798,23.524813,0.999433,0.986145,0.004697,0.430893,0.000024,-0.000022,-0.000004,0.000024,-0.000023,-5.385451,0.000027,
2086,2353,-3.70137296561338,-6.36912949683066,0.000406412036511483,0.005414,-0.000166,0.002045,0.242826,0.027073,326.188697,24.429894,0.998617,0.980342,0.005459,0.389880,-0.000011,-0.000002,0.000014,0.000008,-0.000021,54.472387,0.000021,
2266,3163,0.0755994782534266,11.2640224672414,0.0364568315367819,0.005061,-0.000602,0.007020,0.209778,0.015442,312.697180,25.189476,0.999366,0.989336,0.004072,0.376527,-0.000002,0.000017,0.000008,0.000020,-0.000005,70.923157,0.000021,
2356,3238,2.0152512641789,12.8987663578278,0.0285966754123592,0.005248,-0.000101,0.004587,0.225645,0.036559,311.342107,25.747748,0.999619,0.992555,0.003346,0.427795,0.000016,0.000036,0.000006,0.000038,0.000014,74.022960,0.000054,
2161,2383,-2.07468434532797,-5.71221453315329,-0.00885735647318597,0.005046,-0.000232,0.003834,0.219989,0.046998,325.283556,24.168033,0.999064,0.987532,0.004477,0.433655,-0.000031,-0.000003,-0.000015,0.000004,-0.000038,-66.414107,0.000041,
2296,3058,0.744884279688289,8.98872940773175,0.0157338552731403,0.005173,-0.000501,0.004507,0.222871,0.022575,314.212320,25.052490,0.999551,0.992503,0.003541,0.452028,-0.000001,0.000004,0.000002,0.000005,-0.000002,71.524710,0.000005,
2251,2833,-0.19393920786564,4.09901273838084,-0.0137316102660634,0.005536,-0.000818,0.004039,0.241251,0.004385,317.722516,24.588450,0.999475,0.990991,0.003868,0.402747,0.000009,0.000017,0.000013,0.000027,-0.000001,53.155827,0.000030,
2461,2728,4.39570453303937,1.82411960419358,-0.0174379274870944,0.005780,-0.000562,0.004463,0.248288,0.009741,319.433354,24.516067,0.999639,0.992089,0.003590,0.349940,0.000010,0.000017,0.000008,0.000023,0.000005,56.886752,0.000030,
2206,2908,-1.1842939906583,5.72626423959809,-0.00665449962752973,0.005483,-0.000533,0.003001,0.242846,0.014021,316.668827,24.585531,0.999645,0.992890,0.003540,0.442753,0.000004,0.000014,0.000016,0.000026,-0.000007,53.329779,0.000026,
2071,2263,-4.01348223146987,-8.33699529347147,0.00643123019989389,0.005683,-0.000479,0.003840,0.249927,0.036539,327.771823,24.478708,0.999184,0.986890,0.004640,0.409284,-0.000006,0.000022,0.000022,0.000035,-0.000018,61.138917,0.000035,
2311,3298,1.02546896765285,14.1956549366097,0.00328664456333172,0.005333,-0.000233,0.003462,0.234014,0.029076,310.171820,25.571333,0.999612,0.994805,0.002902,0.486161,-0.000007,0.000030,0.000010,0.000033,-0.000010,75.975685,0.000034,
2401,2128,3.20946307293868,-11.2985161884338,0.0321927972403842,0.005465,-0.000380,0.002301,0.241606,0.041991,329.471248,22.687801,0.999218,0.979426,0.005533,0.318147,-0.000019,-0.000022,-0.000005,-0.000016,-0.000025,-35.060567,0.000042,
2416,2323,3.49739104911444,-7.02494972830825,0.0135395798347417,0.005434,-0.000391,0.002354,0.240181,0.031941,326.182616,23.158319,0.999178,0.982203,0.005075,0.404404,-0.000005,0.000005,-0.000010,0.000010,-0.000011,-58.716173,0.000012,
2236,3013,-0.550121641588941,8.00818784036037,0.00902402320235751,0.005564,-0.000325,0.004635,0.241234,0.030614,315.010045,24.806677,0.999310,0.989117,0.004084,0.440108,-0.000007,0.000012,0.000003,0.000012,-0.000007,82.436331,0.000012,
2311,1993,1.26807779915867,-14.2594389207596,0.0306682429540501,0.005315,0.000027,0.001006,0.239795,0.032071,331.604284,22.908153,0.999185,0.979078,0.006058,0.286543,-0.000032,-0.000041,-0.000015,-0.000021,-0.000052,-35.837396,0.000075,
2281,3253,0.383857569642881,13.2175534202228,0.01883576520612,0.005364,-0.000512,0.005773,0.227849,0.025688,311.068853,25.394660,0.999766,0.992966,0.003341,0.407175,0.000006,0.000039,0.000019,0.000048,-0.000003,65.442875,0.000054,
2191,2773,-1.48882181266028,2.79193812429273,-0.0283977567260649,0.005395,-0.001123,0.007058,0.225884,0.015559,318.710435,24.435722,0.999348,0.989303,0.004160,0.436869,-0.000011,0.000004,-0.000001,0.000004,-0.000011,-85.201175,0.000011,
2146,2323,-2.39035076968625,-7.0254404618119,0.00451811517871192,0.005152,-0.000632,0.001903,0.230608,-0.004485,326.429705,24.180022,0.999248,0.983810,0.005077,0.378904,-0.000014,-0.000001,-0.000004,0.000000,-0.000015,-74.175877,0.000018,
2341,2038,1.91410545024514,-13.2717426689703,0.0149878938923962,0.005270,-0.000510,0.000880,0.237925,-0.009071,330.740295,22.711680,0.999083,0.979881,0.005553,0.350850,-0.000005,-0.000041,0.000004,-0.000005,-0.000041,5.800317,0.000050,
2266,2938,0.113364434873386,6.38111955619957,-0.00367616313207009,0.005205,-0.000692,0.007862,0.213354,0.019875,316.041292,24.703022,0.999530,0.991689,0.003693,0.497962,0.000004,0.000019,0.000008,0.000022,0.000001,66.098101,0.000026,
2131,2368,-2.72426881754877,-6.04106334502796,-0.00500430026198728,0.005586,-0.000166,-0.000608,0.258388,0.017768,325.711945,24.240867,0.999130,0.985829,0.004687,0.420179,-0.000018,-0.000005,-0.000006,-0.000003,-0.000020,-68.163738,0.000025,
2176,2458,-1.76015346607534,-4.07557649242598,-0.0051171937500385,0.005227,-0.000791,0.003647,0.228615,0.001571,324.061368,24.145249,0.999185,0.986497,0.004746,0.431586,-0.000031,-0.000004,-0.000003,-0.000004,-0.000031,-83.431018,0.000039,
2326,2083,1.57777479289058,-12.2821702792831,0.0167221941353546,0.005141,-0.000490,0.004191,0.220735,0.034627,330.014255,23.048225,0.999538,0.983480,0.005200,0.270914,-0.000015,-0.000006,0.000018,0.000009,-0.000029,52.251330,0.000030,
2506,3253,5.27083442021457,13.238865699883,0.0178972473860881,0.005486,-0.000105,0.002778,0.241669,0.027579,311.244576,26.580951,0.999744,0.992842,0.003435,0.423990,0.000021,0.000028,0.000005,0.000031,0.000019,60.937382,0.000050,
2221,2953,-0.866099411605212,6.70499759244209,-0.000243537314929654,0.005472,-0.000613,0.005504,0.234226,0.023460,315.940101,24.715081,0.999482,0.991636,0.003699,0.407055,-0.000005,0.000020,0.000008,0.000022,-0.000007,74.552130,0.000023,
2341,3298,1.67588224111769,14.1994936763968,-0.0055188132882904,0.005484,-0.000467,0.004401,0.237316,0.021888,310.083857,25.787908,0.999679,0.993215,0.003253,0.435757,-0.000005,0.000029,0.000009,0.000032,-0.000007,75.953878,0.000033,
2446,2503,4.11518550289652,-3.08879902385738,0.00221287093069122,0.005403,-0.000945,0.004354,0.231140,0.001473,323.211276,23.608075,0.999581,0.988396,0.004188,0.453787,0.000021,-0.000029,-0.000015,0.000025,-0.000033,-16.011164,0.000035,
2086,2113,-3.66353068854787,-11.6207310322273,0.0143575004062768,0.005395,-0.000698,0.003611,0.236925,0.014093,330.158064,24.472497,0.998818,0.983141,0.005240,0.310102,-0.000006,-0.000029,0.000009,-0.000002,-0.000032,19.286447,0.000038,
2386,2113,2.88278997786415,-11.6265463910898,0.0196146442764302,0.004854,-0.000477,0.004912,0.204376,0.034770,329.556053,22.670165,0.998674,0.970025,0.006402,0.369486,-0.000012,-0.000012,0.000005,-0.000007,-0.000017,45.646805,0.000024,
2161,2623,-2.11504154097972,-0.474815154402918,-0.0223313898324022,0.005423,-0.000566,0.004884,0.234325,0.026600,321.303915,24.376559,0.999580,0.990922,0.003912,0.384397,-0.000006,-0.000001,0.000000,-0.000001,-0.000006,-87.689753,0.000008,
2476,2893,4.6882309564634,5.41852874110685,-0.0242090584537209,0.005416,-0.000282,0.002401,0.239607,0.027071,316.709199,25.120410,0.998736,0.986517,0.004624,0.387444,-0.000025,0.000019,0.000006,0.000020,-0.000026,81.963772,0.000027,
2191,2833,-1.49794338937054,4.0957342790051,-0.0153793151763466,0.005557,-0.000957,0.005981,0.236770,-0.002105,317.854975,24.495409,0.999227,0.990301,0.003950,0.416939,-0.000001,0.000018,0.000018,0.000029,-0.000012,58.229094,0.000029,
2491,2908,5.01202871247567,5.74563542514822,-0.0149434189639805,0.004863,-0.000071,0.001775,0.216497,0.003305,316.557192,25.277905,0.999051,0.986923,0.004487,0.291025,-0.000012,0.000013,0.000009,0.000016,-0.000015,73.363923,0.000018,
2056,2173,-4.32687360493683,-10.3054491003653,0.00759132032663956,0.005428,-0.000366,0.006950,0.229539,0.060236,329.287932,24.602808,0.999125,0.988282,0.004551,0.391315,-0.000016,-0.000011,0.000002,-0.000010,-0.000016,67.943089,0.000027,
2311,2008,1.26567797372688,-13.9307908319924,0.0325633298795651,0.005646,-0.000384,0.002804,0.248680,0.014661,331.388228,22.911790,0.999259,0.980140,0.005899,0.301073,-0.000027,-0.000031,0.000004,-0.000024,-0.000034,30.870319,0.000059,
2281,3013,0.426038951328884,8.01219024443657,0.00146143844540347,0.005066,-0.000462,0.005796,0.213811,0.040160,314.837072,24.961066,0.999262,0.989263,0.004000,0.429174,0.000003,0.000001,-0.000001,0.000004,0.000000,-16.181917,0.000004,
2251,2908,-0.205670961956436,5.72908009709601,0.0037895248549944,0.005555,-0.000148,-0.000718,0.258101,0.024799,316.664050,24.751492,0.999745,0.992954,0.003383,0.375058,0.000005,0.000012,0.000012,0.000022,-0.000004,53.141659,0.000023,
2506,3268,5.26716404520896,13.5649111867156,0.0132188754352001,0.005523,-0.000572,0.005362,0.233225,0.022997,310.949828,26.680042,0.999855,0.995630,0.002811,0.380011,0.000028,0.000035,0.000013,0.000045,0.000018,52.721238,0.000064,
2116,2233,-3.02907325742312,-8.9932023642202,0.0105656732494595,0.005163,-0.000542,0.004083,0.224788,0.014530,328.046408,24.350235,0.998538,0.980185,0.005574,0.307394,-0.000013,0.000013,0.000008,0.000015,-0.000015,74.094198,0.000017,
2266,3133,0.0813221137062392,10.6121583060113,0.0333873540326408,0.005192,-0.000367,0.001690,0.233511,0.007123,313.186848,25.025725,0.999666,0.995004,0.003136,0.483416,-0.000005,0.000017,0.000003,0.000017,-0.000006,81.656693,0.000018,
2206,2623,-1.13591951617127,-0.474207927666342,-0.0176235954641584,0.005421,-0.000090,0.002066,0.242685,0.022415,321.208433,24.306491,0.999284,0.985182,0.004758,0.411818,-0.000007,0.000001,0.000004,0.000003,-0.000009,66.717868,0.000009,
2191,2533,-1.44721992055642,-2.43766037241063,-0.0114447935926592,0.005073,-0.000794,0.007917,0.208113,0.020662,322.727191,24.207689,0.999347,0.988575,0.004301,0.429652,-0.000020,-0.000005,0.000007,-0.000002,-0.000022,68.969738,0.000027,
2296,3298,0.699650518480109,14.1951573247251,-0.00261785676616455,0.005600,-0.000476,0.006262,0.236900,0.025318,310.139832,25.545601,0.999642,0.994139,0.003164,0.421299,0.000001,0.000032,0.000009,0.000035,-0.000001,74.925887,0.000039,
2266,2953,0.11156589373967,6.70799842860973,-0.00130115413037402,0.005658,-0.000199,0.004019,0.247210,0.039939,315.849643,24.811396,0.999232,0.987953,0.004273,0.434479,0.000002,0.000019,0.000007,0.000021,-0.000001,71.643802,0.000024,
2326,1993,1.5961440449802,-14.2597208729166,0.0288298915705809,0.005775,-0.000096,0.001844,0.257856,0.029871,331.600752,22.796854,0.997827,0.972913,0.006608,0.289338,-0.000029,-0.000055,-0.000022,-0.000016,-0.000068,-29.504102,0.000089,
2371,2308,2.51767756564734,-7.35331455063123,0.0106886034124614,0.005260,-0.000370,0.003265,0.229328,0.023366,326.347767,23.273199,0.999846,0.995645,0.003042,0.411293,-0.000003,0.000002,-0.000006,0.000006,-0.000007,-57.167588,0.000007,
2356,3253,2.01232818755595,13.2234197533158,0.0290335774790833,0.005277,-0.000534,0.006262,0.220846,0.010979,311.095196,25.761140,0.999644,0.992384,0.003377,0.426252,0.000015,0.000044,0.000009,0.000047,0.000012,73.656902,0.000062,
2311,3103,1.06310601924353,9.96667168725717,0.0227027734047169,0.005195,-0.000389,0.001894,0.232709,0.022348,313.529954,25.241220,0.999498,0.992966,0.003502,0.408031,0.000007,0.000015,0.000001,0.000016,0.000007,83.889262,0.000023,
2356,3268,2.00786978406473,13.5504981205188,0.00751811484843756,0.005296,-0.000355,0.005744,0.223705,0.029762,310.670400,25.836865,0.999611,0.992884,0.003325,0.406762,0.000014,0.000040,0.000011,0.000044,0.000010,70.466391,0.000058,
2506,3283,5.26374488238251,13.8899025665026,0.00707966238644531,0.005532,-0.000478,0.003260,0.241789,0.012151,310.660357,26.684397,0.999862,0.995840,0.002695,0.424357,0.000034,0.000016,0.000014,0.000042,0.000008,28.756499,0.000054,
2326,3163,1.37865084448157,11.2694987877064,0.0252812143581309,0.005798,-0.000232,-0.000325,0.268172,0.019340,312.594468,25.423461,0.999688,0.993810,0.003349,0.413859,0.000006,0.000023,0.000010,0.000027,0.000002,65.488055,0.000033,
2296,3073,0.742968912347486,9.31440954214881,0.0227437843288953,0.005172,-0.000507,0.000125,0.237655,0.005188,314.040513,25.148350,0.999655,0.994132,0.003339,0.367881,0.000001,0.000010,0.000003,0.000012,0.000000,71.312423,0.000014,
2281,3223,0.391226749848194,12.5653984506498,0.0461206875008315,0.005153,-0.000181,0.004418,0.222785,0.039789,311.785017,25.307692,0.999826,0.994925,0.002973,0.455598,0.000004,0.000035,0.000015,0.000041,-0.000002,67.627658,0.000046,
2221,2698,-0.823206366838821,1.1595507669143,-0.0201926929227056,0.005298,-0.000829,0.005626,0.225363,0.006555,319.913931,24.327862,0.999711,0.993647,0.003237,0.458568,-0.000007,0.000003,-0.000001,0.000003,-0.000007,-85.199432,0.000007,
2416,2338,3.49405543857085,-6.69560073698401,0.00891275841581773,0.005369,-0.000056,0.001691,0.239817,0.041014,325.900347,23.252095,0.999046,0.981502,0.005074,0.369680,-0.000002,0.000014,-0.000006,0.000017,-0.000004,-70.781954,0.000017,
2101,2368,-3.37706090319671,-6.04248477949911,0.00046858061631383,0.005562,-0.000649,0.001320,0.251511,0.003961,325.883977,24.299593,0.998937,0.982611,0.005256,0.447903,-0.000016,-0.000002,0.000000,-0.000002,-0.000016,-88.667569,0.000020,
2251,3103,-0.239454417492727,9.96164752906736,0.0255970278565769,0.005425,-0.000576,0.004824,0.233999,0.017525,313.639685,25.003126,0.999578,0.992033,0.003599,0.409559,-0.000009,0.000012,0.000002,0.000012,-0.000009,84.788282,0.000013,
2206,2848,-1.17477985285148,4.42292947838443,-0.0122220073295125,0.005215,-0.000687,0.006008,0.220869,0.023931,317.576937,24.550738,0.999318,0.991102,0.003749,0.422388,0.000006,0.000012,0.000019,0.000028,-0.000011,49.665094,0.000029,
2356,2233,2.20439485143135,-8.99495858154244,0.00968135004922033,0.005102,-0.000317,0.002106,0.226207,0.029058,327.542202,23.149876,0.997958,0.976524,0.006162,0.394652,-0.000013,-0.000009,-0.000006,-0.000004,-0.000018,-55.320058,0.000023,
2236,3028,-0.552604364902141,8.33410801411786,0.0096736550108858,0.005357,0.000076,-0.000074,0.247163,0.039195,314.776304,24.845413,0.999459,0.990903,0.003737,0.430298,-0.000005,0.000006,0.000001,0.000006,-0.000005,82.917278,0.000007,
2071,2278,-4.01596144515078,-8.00785096496844,0.00479222112670641,0.005575,-0.000322,0.003349,0.246449,0.040223,327.512867,24.562481,0.999867,0.994458,0.003652,0.328340,-0.000012,0.000018,0.000023,0.000031,-0.000024,61.675272,0.000032,
2281,3268,0.380753549596967,13.5426311477678,0.0123496221617643,0.005481,-0.000354,0.005857,0.233081,0.034728,310.773635,25.377740,0.999777,0.993377,0.003293,0.459477,0.000006,0.000038,0.000019,0.000047,-0.000003,65.623581,0.000053,
2221,2923,-0.860790532375596,6.05355041055535,-0.00211008007448754,0.005455,-0.000133,0.002541,0.243092,0.042299,316.422154,24.677910,0.999560,0.991952,0.003693,0.426360,-0.000001,0.000014,0.000013,0.000021,-0.000008,59.970505,0.000021,
2251,2923,-0.20898943179726,6.05459416173088,0.000583701983430274,0.005596,-0.000699,0.005675,0.238811,0.016344,316.373790,24.714356,0.999690,0.993081,0.003451,0.426654,0.000002,0.000010,0.000009,0.000016,-0.000004,58.211651,0.000016,
2446,2518,4.11125075865047,-2.76027515313557,-0.00452358161788879,0.004923,-0.000553,0.003122,0.213895,0.023073,322.893691,23.659552,0.999342,0.986159,0.004492,0.477558,0.000025,-0.000023,-0.000016,0.000030,-0.000028,-16.988910,0.000033,
2386,2263,2.85205105422207,-8.33583290974133,-0.0069062994240312,0.005049,-0.000159,0.003900,0.217294,0.056544,326.925443,23.105410,0.999229,0.983183,0.005070,0.416700,-0.000013,-0.000014,-0.000018,0.000005,-0.000032,-43.732325,0.000034,
2371,2068,2.56443082885328,-12.6145218674441,0.0257157726191508,0.005058,-0.000014,0.003598,0.218668,0.055315,330.335770,22.599390,0.999469,0.980942,0.005119,0.416437,0.000004,-0.000023,0.000018,0.000013,-0.000032,26.145601,0.000032,
2476,2908,4.68600191877269,5.74411644238111,-0.0183101496996869,0.005695,-0.000435,0.001842,0.254460,0.001791,316.528788,25.172699,0.998925,0.984704,0.004760,0.365967,-0.000024,0.000008,0.000014,0.000013,-0.000029,69.658264,0.000029,
2371,2188,2.54142047568437,-9.98137935170255,0.0154397734037275,0.005576,-0.000218,0.001306,0.250614,0.034851,328.347018,22.969943,0.999096,0.982149,0.005218,0.378243,-0.000011,-0.000018,-0.000009,-0.000004,-0.000024,-34.187768,0.000031,
2356,3283,2.00400613653657,13.8757758081836,-0.00157903423752259,0.005032,-0.000608,0.006281,0.209538,0.013402,310.333644,25.855758,0.999537,0.992972,0.003351,0.408690,0.000012,0.000038,0.000009,0.000042,0.000009,72.018561,0.000054,
2326,2008,1.59303711284894,-13.9313445998903,0.0378062642367354,0.005026,-0.000506,0.005378,0.211312,0.004443,331.388097,22.864723,0.998207,0.972745,0.006605,0.233942,-0.000019,-0.000038,-0.000002,-0.000019,-0.000038,-7.544118,0.000058,
2341,2053,1.91235083735696,-12.9443687774798,0.0342055158346852,0.005046,-0.000873,0.003484,0.218486,-0.005342,330.639765,22.788938,0.999246,0.980850,0.005283,0.316485,-0.000004,-0.000028,0.000006,-0.000003,-0.000029,12.682171,0.000036,
2146,2338,-2.39314730880032,-6.69714258532281,0.00385399844049061,0.005098,-0.000609,0.005780,0.216481,0.037433,326.167886,24.180580,0.999288,0.985915,0.004712,0.430160,-0.000019,-0.000005,-0.000009,-0.000001,-0.000024,-63.246258,0.000028,
2431,2473,3.79323726015922,-3.74295737652559,-0.00475448595329908,0.004972,-0.000170,0.001135,0.223704,0.023772,323.604954,23.594821,0.999375,0.985557,0.004678,0.418568,0.000018,-0.000031,-0.000004,0.000018,-0.000031,-5.215818,0.000031,
2161,2398,-2.07612678372999,-5.38646978930638,-0.00112717423581898,0.005351,-0.000436,0.000829,0.243162,0.039712,325.129763,24.085739,0.999148,0.986744,0.004523,0.520167,-0.000035,0.000005,-0.000017,0.000012,-0.000042,-69.436165,0.000043,
2356,2113,2.22706912051947,-11.6256608024646,0.019139171958102,0.004633,-0.000882,0.005334,0.193001,0.029699,329.523546,22.880764,0.999397,0.981064,0.005255,0.331509,-0.000006,-0.000014,0.000007,-0.000002,-0.000017,29.530606,0.000021,
2461,2743,4.39141198137042,2.1509601090978,-0.0264291274894504,0.005280,-0.000757,0.004800,0.224072,0.009967,319.089480,24.495325,0.999647,0.991310,0.003707,0.425603,0.000004,0.000014,0.000007,0.000018,0.000000,61.204355,0.000020,
2266,2968,0.108611875524215,7.03398427272142,-0.00472789256104988,0.005430,-0.000274,0.000940,0.246917,0.028369,315.575968,24.833063,0.999424,0.991036,0.003819,0.426286,0.000001,0.000017,0.000007,0.000019,-0.000001,68.668638,0.000022,
2356,1993,2.25135338665185,-14.2616918332828,0.0324597868076921,0.005129,-0.000631,0.004091,0.220027,0.008127,331.594200,22.547523,0.998972,0.968612,0.006917,0.304189,0.000011,-0.000062,-0.000001,0.000011,-0.000062,-0.746280,0.000067,
2236,2773,-0.509953935411918,2.79352507731689,-0.0226343503855446,0.005518,-0.000446,0.002907,0.244330,0.014960,318.658234,24.463727,0.999317,0.988311,0.004104,0.435987,-0.000001,0.000007,0.000003,0.000008,-0.000002,72.099797,0.000009,
2266,3178,0.0730965182902459,11.5887591073335,0.0338076088676758,0.005280,-0.000574,0.004523,0.228193,0.007932,312.448100,25.153402,0.999464,0.991235,0.003674,0.429488,-0.000002,0.000023,0.000009,0.000026,-0.000005,72.302615,0.000028,
2221,2968,-0.868804664947909,7.03077627125311,0.00165056412345166,0.005180,-0.000404,0.004367,0.224540,0.034010,315.701599,24.731557,0.999377,0.989518,0.004018,0.419439,-0.000006,0.000022,0.000009,0.000024,-0.000008,73.414157,0.000025,
2311,2023,1.26247374055092,-13.601896448572,0.0309925496304686,0.005251,-0.000232,0.002239,0.232641,0.012666,331.118259,22.888725,0.999120,0.981559,0.005504,0.358244,-0.000030,-0.000023,0.000012,-0.000014,-0.000039,52.216355,0.000055,
2296,3088,0.740143450739264,9.63936946057214,0.0223216473452226,0.005376,-0.000519,0.003437,0.235800,0.007187,313.790099,25.114423,0.999631,0.993222,0.003466,0.432828,0.000002,0.000010,-0.000001,0.000010,0.000002,-79.537071,0.000012,
2491,2923,5.00822774728553,6.07262177295752,-0.025196014490632,0.005254,-0.000335,0.004821,0.222804,0.029433,316.231944,25.295961,0.999446,0.986844,0.004257,0.357861,-0.000008,0.000003,0.000009,0.000007,-0.000013,61.211411,0.000013,
2056,2188,-4.32879736295401,-9.97830500681633,0.0142876193258985,0.005508,-0.000660,0.009666,0.225528,0.043626,329.099220,24.579600,0.998953,0.985218,0.004981,0.394928,-0.000012,0.000013,0.000014,0.000019,-0.000018,66.508774,0.000021,
2401,2458,3.14197539268806,-4.07169826813212,-0.00235524014397015,0.005300,-0.000447,0.006348,0.219911,0.035831,323.823980,23.587979,0.999484,0.986051,0.004769,0.461806,0.000014,-0.000023,0.000006,0.000015,-0.000024,8.813330,0.000024,
2266,3148,0.0782502874940327,10.9380102690033,0.0320798069229227,0.005277,-0.000880,0.006508,0.221329,0.002160,312.918050,25.090234,0.999304,0.991380,0.003825,0.438188,-0.000005,0.000016,0.000006,0.000017,-0.000007,75.726327,0.000017,
2326,3178,1.3755191643477,11.5948184894093,0.0221000239388331,0.005733,-0.000368,-0.000067,0.264229,0.006750,312.318191,25.444887,0.999705,0.993961,0.003364,0.412909,0.000006,0.000032,0.000011,0.000036,0.000002,70.402437,0.000042,
2086,2128,-3.66637113157639,-11.2907188311016,0.00317584047263608,0.005378,-0.000239,0.000598,0.244985,0.025950,329.832012,24.470132,0.998969,0.984603,0.005094,0.326678,-0.000008,-0.000024,0.000013,0.000000,-0.000031,29.300876,0.000036,
2386,2383,2.82975226219202,-5.71128368535897,-0.0011060012325288,0.005536,-0.000780,0.005257,0.234651,0.007635,325.050635,23.447786,0.999040,0.984102,0.005092,0.387175,0.000009,0.000010,0.000003,0.000012,0.000007,49.071428,0.000019,
2281,3028,0.424157705382431,8.33795031449291,0.00471942181354734,0.005342,0.000048,0.001264,0.241951,0.056622,314.647252,24.995712,0.999144,0.988952,0.004019,0.437849,0.000003,-0.000002,-0.000003,0.000004,-0.000003,-21.492698,0.000004,
2281,3283,0.377712423531559,13.8677627230249,0.00926371999423736,0.005498,-0.000383,0.007084,0.229707,0.025165,310.498291,25.407460,0.999509,0.992602,0.003364,0.446433,0.000006,0.000043,0.000017,0.000050,-0.000001,68.498960,0.000057,
2401,2338,3.16630323002826,-6.69657485069745,0.0129593047374215,0.005077,-0.000431,0.006759,0.208042,0.043465,325.884057,23.262796,0.999064,0.980670,0.005109,0.416789,-0.000007,0.000014,-0.000006,0.000016,-0.000008,-76.003934,0.000016,
2311,3118,1.06033099827817,10.2920009650439,0.026515866058844,0.005119,-0.000570,0.004609,0.219890,0.023517,313.303642,25.276703,0.999302,0.991743,0.003804,0.404571,0.000009,0.000018,0.000004,0.000020,0.000008,70.838063,0.000028,
2206,2638,-1.13859551885443,-0.147748815285937,-0.0176498158076583,0.005417,-0.000447,0.003448,0.238050,0.012417,320.960603,24.296623,0.999204,0.986741,0.004619,0.428950,-0.000007,0.000000,0.000003,0.000002,-0.000008,68.081648,0.000009,
2326,2098,1.57540198269835,-11.9560918987928,0.0196698161759059,0.005243,-0.000430,0.003535,0.227700,0.025878,329.805766,22.853609,0.999504,0.982266,0.005217,0.494044,-0.000016,-0.000004,0.000012,0.000004,-0.000024,58.451718,0.000026,
2251,3118,-0.241926696095273,10.2873437539568,0.0259060522209893,0.005485,-0.000306,0.002996,0.242970,0.037641,313.405659,25.030509,0.999495,0.991194,0.003827,0.424622,-0.000008,0.000013,0.000003,0.000014,-0.000008,81.472941,0.000014,
2416,2353,3.49038050728935,-6.36769622371386,0.00560696994728005,0.004912,-0.000452,0.001749,0.218525,0.030168,325.608874,23.252315,0.998745,0.980572,0.005251,0.408436,0.000007,0.000016,-0.000003,0.000016,0.000006,-73.735588,0.000023,
2326,2023,1.58972049180453,-13.6019213670152,0.0311465162506011,0.005131,-0.000880,0.007363,0.209224,-0.005043,331.089600,22.839652,0.998526,0.977071,0.006206,0.287960,-0.000021,-0.000029,0.000007,-0.000017,-0.000033,31.263699,0.000051,
2341,2158,1.89114559507026,-10.6390802468534,0.00492756709149944,0.005540,0.000008,0.001506,0.248460,0.047462,328.733937,22.879203,0.999264,0.985063,0.005024,0.558392,-0.000020,-0.000020,0.000000,-0.000019,-0.000020,-45.159577,0.000040,
2386,2128,2.88011001587039,-11.2973994403949,0.0169648082427329,0.005207,-0.000337,0.004083,0.223591,0.038064,329.311330,22.693799,0.999035,0.976396,0.005783,0.395401,-0.000010,-0.000015,0.000004,-0.000008,-0.000017,27.860771,0.000025,
2401,2143,3.20590349700214,-10.9701253676481,0.0265883690922806,0.005346,-0.000283,0.003377,0.232355,0.032855,329.173837,22.628051,0.999220,0.978536,0.005480,0.417473,-0.000017,-0.000013,-0.000008,-0.000007,-0.000023,-52.163007,0.000031,
2356,2008,2.2483860168899,-13.9310173441665,0.0262348803991586,0.005412,-0.000348,0.003231,0.236081,0.030093,331.316630,22.604650,0.998807,0.975785,0.006232,0.311875,0.000021,-0.000042,0.000013,0.000024,-0.000044,11.207660,0.000044,
2341,2068,1.90876301247834,-12.615880970732,0.0316095693349325,0.004585,-0.000823,0.005286,0.191202,0.008182,330.349821,22.719038,0.999146,0.976975,0.005652,0.440085,-0.000004,-0.000023,0.000011,0.000001,-0.000028,24.464565,0.000032,
2176,2473,-1.76315960875894,-3.7473433536936,-0.00829375561801271,0.005102,-0.001038,0.005884,0.215869,0.000371,323.779364,24.206254,0.999341,0.984984,0.004956,0.383102,-0.000028,-0.000009,0.000003,-0.000009,-0.000029,82.426996,0.000039,
2446,2563,4.10201095711882,-1.77604330636064,-0.0121442912714542,0.005400,-0.000644,0.004076,0.232277,0.028163,322.116561,23.895907,0.999601,0.988846,0.004304,0.406032,0.000025,-0.000008,-0.000004,0.000026,-0.000008,-6.496761,0.000026,
2146,2353,-2.395360200679,-6.36951202131667,0.00197776248813852,0.005237,-0.000391,0.002562,0.232664,0.022448,325.926724,24.170071,0.999272,0.985863,0.004669,0.435690,-0.000024,-0.000012,-0.000010,-0.000007,-0.000030,-60.064235,0.000038,
2101,2383,-3.38021684172674,-5.71338517461901,-0.00701379580010553,0.005292,-0.000546,0.001947,0.237343,0.011891,325.565142,24.356401,0.998853,0.983598,0.005043,0.402169,-0.000020,0.000000,-0.000004,0.000001,-0.000021,-79.356118,0.000024,
2506,3298,5.26079475856925,14.2150614044922,0.0110208136126744,0.005324,-0.000328,0.003125,0.232761,0.010741,310.437640,26.753465,0.999760,0.993716,0.003180,0.413256,0.000033,0.000029,0.000014,0.000046,0.000017,41.063616,0.000065,
2056,2203,-4.33120679434766,-9.64902960472951,0.00523734161811262,0.005564,-0.000484,0.003959,0.244227,0.041699,328.801438,24.575887,0.998686,0.981564,0.005401,0.394394,-0.000012,0.000019,0.000015,0.000025,-0.000018,68.417403,0.000026,
2191,2548,-1.44955913300582,-2.1108882271222,-0.00891600258353265,0.005026,-0.000743,0.006819,0.209408,0.017122,322.506905,24.213719,0.999514,0.990190,0.004041,0.435625,-0.000017,-0.000002,0.000011,0.000004,-0.000023,62.797925,0.000025,
2236,3043,-0.55493076914188,8.65976095513825,0.0170525561929935,0.005420,-0.000019,0.003526,0.238334,0.036129,314.584193,24.919312,0.999656,0.991545,0.003582,0.373415,-0.000004,0.000006,0.000002,0.000006,-0.000004,80.713305,0.000006,
2491,2938,5.00575442649402,6.398665645455,-0.0180439063030349,0.005263,-0.000348,0.004941,0.222792,0.040230,316.046519,25.370979,0.999523,0.989810,0.003804,0.352026,-0.000010,-0.000001,0.000013,0.000009,-0.000019,54.382493,0.000019,
2431,2488,3.78968765571189,-3.41578607322478,-0.00588120566118278,0.004846,-0.000940,0.005548,0.201332,-0.009284,323.330178,23.617923,0.999240,0.982828,0.004864,0.413620,0.000016,-0.000030,-0.000008,0.000018,-0.000031,-9.401450,0.000031,
2266,3193,0.0702329292427706,11.9145699030484,0.0343086905415362,0.005275,-0.000518,0.007004,0.219812,0.021114,312.197898,25.218453,0.999500,0.991497,0.003588,0.401834,0.000000,0.000025,0.000013,0.000031,-0.000006,67.227765,0.000033,
2371,2323,2.51440797906072,-7.02581554543679,0.0122993646769487,0.005045,-0.001060,0.007339,0.204755,-0.005347,326.094529,23.291626,0.999566,0.992083,0.003825,0.407104,-0.000005,-0.000006,-0.000001,-0.000004,-0.000007,-34.817890,0.000011,
2221,2713,-0.825772421170438,1.48624874053653,-0.0184498300441192,0.005226,-0.000945,0.005730,0.221713,0.009626,319.681163,24.364608,0.999372,0.990357,0.003799,0.444265,-0.000005,0.000005,-0.000002,0.000006,-0.000005,-81.687790,0.000006,
2326,2038,1.58652977062829,-13.2702719579826,0.0195659027105535,0.005156,-0.000086,0.001512,0.230717,0.047529,330.772321,22.906661,0.999205,0.982950,0.005168,0.311952,-0.000023,-0.000033,0.000007,-0.000020,-0.000037,28.072304,0.000057,
2371,2203,2.53871048184881,-9.65272362324654,0.0127230791648003,0.005902,-0.000218,0.000838,0.267233,0.033216,328.099004,22.980670,0.998878,0.979551,0.005563,0.409705,-0.000011,-0.000009,-0.000008,-0.000001,-0.000018,-49.281362,0.000022,
2116,2248,-3.03195553688009,-8.66572887303515,0.0100568964938361,0.004807,-0.000835,0.005972,0.202815,0.010469,327.779369,24.290908,0.998684,0.982728,0.005309,0.368614,-0.000014,0.000017,0.000007,0.000018,-0.000016,78.790235,0.000020,
2446,2533,4.10854972387881,-2.4307602568442,-0.00622381877957423,0.005189,-0.000068,0.000850,0.234770,0.032047,322.655726,23.865205,0.999282,0.987000,0.004526,0.334134,0.000027,-0.000022,-0.000005,0.000028,-0.000023,-5.606551,0.000030,
2311,2038,1.25968649451401,-13.2708514353879,0.0282296429845701,0.005104,0.000728,-0.002003,0.240682,0.046490,330.861072,23.018159,0.999601,0.987356,0.004463,0.298418,-0.000031,-0.000025,0.000010,-0.000018,-0.000039,52.961385,0.000058,
2446,2683,4.07752250147312,0.842420455615056,-0.017537266223087,0.005416,-0.000505,0.004744,0.230719,0.023651,320.117556,24.326677,0.999293,0.988156,0.004222,0.393644,0.000021,0.000031,-0.000008,0.000035,0.000017,-61.987800,0.000053,
2281,3043,0.421549899014288,8.66323641099478,0.0101996013470966,0.005281,-0.000466,0.004250,0.228942,0.031018,314.435310,25.047004,0.999389,0.990865,0.003778,0.387824,0.000001,0.000003,-0.000003,0.000005,-0.000002,-56.536099,0.000005,
2401,2353,3.16269488117807,-6.36717731018749,0.0024467355110005,0.004980,-0.000397,0.003609,0.215039,0.028499,325.560226,23.332790,0.998884,0.981112,0.005183,0.379592,0.000001,0.000014,-0.000002,0.000014,0.000001,-81.039752,0.000017,
2356,2128,2.2244914957244,-11.297340620462,0.0195662484948116,0.004783,-0.000604,0.004507,0.202921,0.022828,329.295632,22.872083,0.999209,0.982030,0.005245,0.375195,-0.000007,-0.000016,0.000005,-0.000005,-0.000018,22.317676,0.000024,
2386,2278,2.85029913978684,-8.0089989378006,0.00962101795579429,0.004934,-0.000790,0.004458,0.209754,0.008337,326.813891,23.219722,0.999669,0.991260,0.003853,0.298941,-0.000014,-0.000006,-0.000017,0.000008,-0.000028,-52.155303,0.000029,
2251,2938,-0.21201610308211,6.37980343291257,-0.00141476738752999,0.005394,-0.000806,0.005834,0.228975,0.008304,316.103112,24.661904,0.999660,0.994020,0.003234,0.493685,0.000000,0.000017,0.000007,0.000020,-0.000003,70.221023,0.000021,
2401,2158,3.20320666736814,-10.6408524492189,0.0256545725998762,0.005673,-0.000327,0.003698,0.246160,0.017666,328.937744,22.710758,0.999288,0.978890,0.005386,0.367879,-0.000017,-0.000021,-0.000013,-0.000005,-0.000032,-40.678415,0.000041,
2371,2083,2.56148557834185,-12.2846747599088,0.022773405528369,0.005272,-0.000148,0.004413,0.225556,0.057901,330.076240,22.667024,0.999332,0.978875,0.005436,0.396111,0.000000,-0.000015,0.000019,0.000013,-0.000028,34.639686,0.000028,
2356,3298,2.00148462290464,14.2019422812132,-0.0082878359153824,0.005642,-0.000275,0.003104,0.249082,0.031092,310.069890,25.940314,0.999698,0.993125,0.003380,0.379321,0.000010,0.000026,0.000007,0.000029,0.000008,69.970945,0.000038,
2251,3133,-0.244528568514042,10.6123903946454,0.027900680308619,0.005554,-0.000469,0.004774,0.240231,0.028715,313.174446,25.041276,0.999344,0.991796,0.003756,0.427209,-0.000010,0.000017,0.000007,0.000018,-0.000011,76.849182,0.000019,
2356,2248,2.20121688186094,-8.66635480634424,0.00954789360002906,0.005092,-0.000617,0.006291,0.210997,0.036661,327.283562,23.189786,0.998916,0.981698,0.005397,0.403560,-0.000010,-0.000017,-0.000008,-0.000005,-0.000022,-33.095432,0.000028,
2191,2563,-1.45161349580408,-1.78468505915124,-0.00269201960713872,0.005082,-0.000711,0.006790,0.212129,0.021078,322.318961,24.197020,0.999438,0.989675,0.004038,0.471475,-0.000011,-0.000009,0.000006,-0.000004,-0.000016,49.919595,0.000021,
2401,2473,3.13954998497136,-3.74384770558995,-0.000444880031352568,0.005306,-0.000073,0.002089,0.235767,0.034644,323.612447,23.663857,0.999369,0.987178,0.004596,0.431321,0.000011,-0.000030,0.000008,0.000012,-0.000032,10.804137,0.000032,
2416,2368,3.48770018414132,-6.04074618022193,0.00815348813301853,0.004915,-0.000778,0.001060,0.221061,-0.012990,325.390529,23.259639,0.999068,0.983087,0.004966,0.407159,0.000011,0.000012,0.000005,0.000017,0.000007,49.777012,0.000024,
2221,2983,-0.871085265819101,7.35646855863357,0.00214181677569059,0.005334,-0.000280,0.002111,0.238928,0.033539,315.475414,24.745289,0.999466,0.991033,0.003776,0.423600,-0.000005,0.000015,0.000009,0.000018,-0.000008,68.745353,0.000018,
2416,2533,3.45371138672271,-2.43237942714037,-0.0107839613203282,0.005254,-0.001088,0.005623,0.220040,-0.005779,322.554649,23.834590,0.999328,0.987791,0.004515,0.380495,0.000017,-0.000024,0.000004,0.000018,-0.000024,6.085177,0.000025,
2161,2413,-2.07963835372595,-5.05780509611746,-0.00257311469385968,0.004766,-0.000862,0.005988,0.200373,0.038058,324.832389,24.182013,0.998986,0.985971,0.004774,0.434013,-0.000034,0.000005,-0.000014,0.000010,-0.000038,-71.889752,0.000040,
2266,2983,0.105837763723013,7.35959010801295,-0.000987111576364441,0.005344,-0.000476,0.004496,0.231110,0.032325,315.346714,24.857973,0.999616,0.992639,0.003626,0.430190,0.000002,0.000008,0.000005,0.000010,0.000000,60.252585,0.000012,
2176,2488,-1.76587778595899,-3.41939169146153,-0.0119865610265606,0.004936,-0.000455,0.002823,0.217969,0.020074,323.507815,24.221216,0.999154,0.984480,0.005018,0.401549,-0.000026,-0.000009,0.000003,-0.000009,-0.000026,81.186121,0.000036,
2386,2398,2.82715349804171,-5.38435830638231,0.00539388055898371,0.005210,-0.000529,0.003954,0.224468,0.020633,324.852119,23.444411,0.999275,0.985820,0.004800,0.448432,0.000009,0.000015,0.000001,0.000015,0.000009,80.658756,0.000024,
2266,3208,0.0674162001719552,12.2402366989642,0.0310909607072745,0.005282,-0.000617,0.005258,0.225948,0.024032,311.931106,25.262662,0.999723,0.994333,0.003122,0.384785,0.000001,0.000026,0.000016,0.000034,-0.000007,63.525898,0.000036,
2236,2788,-0.512378301678279,3.11993451358545,-0.0197316930427291,0.005467,-0.000275,0.002071,0.244769,0.014872,318.438925,24.508378,0.999471,0.989448,0.004021,0.412368,0.000002,0.000010,0.000006,0.000013,-0.000001,62.632723,0.000015,
2206,2653,-1.14153181950144,0.178943361002105,-0.019681203867151,0.005544,-0.001101,0.008414,0.227948,0.006409,320.690394,24.292019,0.999187,0.986380,0.004742,0.444765,-0.000007,0.000001,0.000004,0.000003,-0.000009,66.403664,0.000009,
2356,2023,2.24564646734952,-13.6031095935907,0.0285532641553345,0.005342,-0.000441,0.003622,0.231521,0.019030,331.090787,22.545571,0.998679,0.973867,0.006584,0.402166,0.000017,-0.000029,0.000018,0.000023,-0.000035,18.847929,0.000036,
2341,2083,1.90609142505208,-12.2845255234016,0.0275877129369633,0.005062,-0.000962,0.005531,0.212099,0.015945,330.094618,22.906322,0.999424,0.981205,0.005248,0.300761,-0.000004,-0.000015,0.000014,0.000005,-0.000024,33.769453,0.000026,
2461,2758,4.38836961578394,2.47810884868709,-0.0280317007300823,0.005375,-0.000489,0.004554,0.229473,0.015816,318.836737,24.561260,0.999605,0.989858,0.003928,0.420311,0.000006,0.000012,0.000000,0.000012,0.000006,-85.321075,0.000018,
2146,2368,-2.39747567662194,-6.04169127838796,0.000789144655641394,0.005725,-0.000743,0.003744,0.251393,0.014915,325.693575,24.181466,0.999083,0.986675,0.004569,0.426374,-0.000023,-0.000009,-0.000012,-0.000002,-0.000030,-59.717359,0.000036,
2236,3058,-0.556808412061795,8.98414488264703,0.0234154385642,0.005628,-0.000190,0.001854,0.253289,0.023350,314.407934,24.882391,0.999670,0.992661,0.003376,0.418061,-0.000004,0.000005,0.000003,0.000006,-0.000005,70.570418,0.000006,
2491,2953,5.00339059576162,6.72360699969999,-0.0133222224816905,0.005396,-0.000598,0.002868,0.236733,0.012650,315.855436,25.368985,0.999434,0.989441,0.003944,0.384595,-0.000004,0.000001,0.000021,0.000019,-0.000023,48.050031,0.000024,
2446,2578,4.09804407641318,-1.44723089532928,-0.0246025809475441,0.005695,-0.000818,0.006967,0.235003,0.031721,321.770802,23.964033,0.999657,0.991515,0.003948,0.394941,0.000027,0.000008,0.000000,0.000027,0.000008,0.714762,0.000037,
2416,2413,3.47861234033545,-5.05457688631521,5.34937261136292E-05,0.005404,-0.000441,0.001938,0.240448,0.027732,324.612159,23.477076,0.999674,0.987591,0.004445,0.378921,0.000009,0.000008,0.000000,0.000009,0.000008,11.447939,0.000018,
2326,3193,1.37325765409719,11.9185818311693,0.0357182981239816,0.005529,-0.000815,0.003638,0.241858,-0.005623,312.164865,25.425283,0.999747,0.994657,0.003146,0.453363,0.000004,0.000032,0.000012,0.000037,0.000000,69.540854,0.000042,
2101,2398,-3.38249032324777,-5.38676196813607,-0.000338897451115372,0.005065,-0.000524,0.003723,0.221722,0.006655,325.363615,24.341189,0.999063,0.985387,0.004637,0.415016,-0.000027,-0.000001,-0.000011,0.000003,-0.000031,-69.935856,0.000034,
2371,1993,2.57975586149692,-14.2624625827188,0.0380168869444333,0.005232,-0.000465,0.005043,0.221242,0.041850,331.648314,22.440716,0.999103,0.968204,0.006797,0.338192,0.000001,-0.000063,0.000015,0.000004,-0.000066,12.137332,0.000074,
2356,2143,2.22225219007486,-10.9685898962895,0.0231655521475318,0.005327,-0.000984,0.007433,0.217434,0.030970,329.098255,22.927047,0.998734,0.979230,0.005660,0.369743,-0.000009,-0.000016,0.000001,-0.000009,-0.000016,4.904194,0.000026,
2086,2143,-3.66811384599707,-10.9644038911568,0.010015541569544,0.005589,-0.000334,0.002069,0.250419,0.029196,329.654420,24.339514,0.999029,0.984076,0.005077,0.462058,-0.000008,-0.000004,0.000014,0.000008,-0.000020,49.578412,0.000020,
2371,2098,2.55792058465722,-11.9550201784985,0.0178840947864956,0.004979,-0.000274,0.004749,0.210927,0.041227,329.779118,22.720981,0.999201,0.977381,0.005704,0.369849,-0.000004,-0.000011,0.000012,0.000005,-0.000020,37.312937,0.000020,
2386,2413,2.82450976251996,-5.05620232970382,0.00242183410500729,0.005262,0.000118,-0.001492,0.246649,0.020316,324.606489,23.481047,0.999386,0.985666,0.004707,0.456257,0.000005,0.000006,0.000005,0.000010,0.000000,48.119915,0.000012,
2341,2173,1.88790607002736,-10.3100006611469,0.0106091965026849,0.005068,-0.000767,0.006576,0.208978,0.029311,328.499635,23.023770,0.999118,0.983001,0.005183,0.435225,-0.000018,-0.000014,0.000002,-0.000013,-0.000019,68.112586,0.000032,
2431,2503,3.78730309017017,-3.08912705470768,-0.000707586553573947,0.004993,-0.001079,0.005293,0.208957,-0.025145,323.138060,23.638951,0.999396,0.986476,0.004465,0.427513,0.000016,-0.000028,-0.000013,0.000020,-0.000032,-14.992496,0.000032,
2401,2368,3.1592083529895,-6.03966589065778,-0.000507352574572906,0.004642,-0.000838,0.003560,0.199567,0.004188,325.277731,23.319444,0.998769,0.981116,0.005200,0.416024,0.000005,0.000011,0.000005,0.000014,0.000002,60.276985,0.000018,
2161,2428,-2.08145304823488,-4.72965344631977,-0.006389883289728,0.005477,-0.000525,0.002879,0.242676,0.008898,324.600422,24.241303,0.999169,0.986254,0.004673,0.357227,-0.000033,-0.000003,-0.000007,-0.000002,-0.000034,-77.383990,0.000041,
2296,3103,0.737657205932656,9.96517476042892,0.0236310360638754,0.005413,-0.000413,0.001582,0.243854,0.006460,313.563576,25.175970,0.999420,0.991099,0.003879,0.399455,0.000003,0.000015,0.000000,0.000015,0.000003,89.217810,0.000019,
2281,3298,0.374468641503782,14.193590296572,0.000907541319179472,0.005458,-0.000611,0.004986,0.234853,0.014542,310.186872,25.478283,0.999610,0.993815,0.003203,0.390991,0.000008,0.000028,0.000006,0.000030,0.000006,74.007574,0.000038,
2221,2728,-0.82796265670131,1.81273811847564,-0.0162939415050687,0.005436,-0.000761,0.004930,0.234021,0.009207,319.467799,24.393231,0.999442,0.990460,0.003719,0.434030,-0.000005,0.000002,-0.000005,0.000004,-0.000007,-63.605138,0.000007,
2221,2998,-0.873429537860645,7.68168576967891,0.00474352294440905,0.005566,-0.000491,0.003980,0.243545,0.028183,315.257293,24.738552,0.999506,0.991138,0.003760,0.443099,-0.000006,0.000018,0.000006,0.000020,-0.000007,76.213142,0.000020,
2311,3133,1.05729418041832,10.6173183007055,0.0270211874187112,0.004962,-0.000674,0.006438,0.206288,0.000425,313.048928,25.318394,0.999461,0.992627,0.003582,0.370957,0.000007,0.000025,0.000007,0.000027,0.000004,71.054196,0.000034,
2266,2998,0.103645297686317,7.68443614223325,0.00750782346307233,0.005404,-0.000860,0.006800,0.226064,0.009977,315.168382,24.874925,0.999466,0.991294,0.003759,0.415690,0.000002,0.000010,0.000002,0.000011,0.000002,78.075184,0.000013,
2371,2338,2.51144940898291,-6.69641032127385,0.00384330107897313,0.005205,-0.000514,0.002104,0.230908,0.008008,325.807038,23.348035,0.999041,0.985872,0.004782,0.407187,-0.000003,0.000004,0.000001,0.000004,-0.000003,84.598632,0.000004,
2446,2698,4.07297691213846,1.17024848432183,-0.0294935095264464,0.004828,-0.000579,0.004476,0.204714,0.014329,319.746996,24.366314,0.999616,0.990244,0.003940,0.397425,0.000023,0.000030,-0.000006,0.000033,0.000019,-61.016055,0.000053,
2446,2548,4.10517180053624,-2.10358602808106,-0.00780147233865591,0.005327,-0.000518,0.005580,0.223327,0.035058,322.387575,23.868408,0.999550,0.989338,0.004158,0.387313,0.000028,-0.000019,-0.000005,0.000028,-0.000020,-6.470817,0.000029,
2401,2488,3.13651186287911,-3.41635651836596,-0.000347133462298643,0.005413,-0.000929,0.004967,0.229952,0.008318,323.364348,23.720050,0.999262,0.988483,0.004423,0.395563,0.000012,-0.000029,0.000009,0.000014,-0.000031,11.452109,0.000031,
2191,2578,-1.45399981942393,-1.45730873101821,-0.0100723385052106,0.005553,-0.000460,0.003981,0.242660,0.018932,322.044890,24.179038,0.999482,0.990355,0.003896,0.502715,-0.000009,-0.000002,0.000005,0.000000,-0.000012,62.414699,0.000014,
2356,2263,2.1984333868254,-8.33832615127556,0.0113184207763766,0.004915,-0.000479,0.005135,0.206986,0.029548,327.052228,23.216391,0.999382,0.984930,0.004878,0.410960,-0.000012,-0.000023,-0.000014,-0.000003,-0.000033,-34.265394,0.000039,
2491,2968,5.00112901415565,7.04900580468092,-0.00673047340734456,0.005417,-0.000429,0.000107,0.248381,0.009263,315.677276,25.401391,0.999309,0.987803,0.004305,0.407135,-0.000004,0.000025,0.000023,0.000038,-0.000016,61.104839,0.000038,
2386,2143,2.87689284976948,-10.9681113996868,0.0143358657898034,0.005080,-0.000332,0.003951,0.218242,0.032468,329.042065,22.745275,0.999044,0.974889,0.005817,0.384911,-0.000009,-0.000009,-0.000001,-0.000008,-0.000010,-53.906839,0.000018,
2371,2218,2.53585919958436,-9.32451295389639,0.0172778502108599,0.005647,-0.000586,0.001943,0.251490,0.007386,327.879266,23.056257,0.998590,0.975023,0.006178,0.351636,-0.000010,-0.000006,-0.000011,0.000003,-0.000019,-49.634463,0.000020,
2416,2383,3.48593068177452,-5.71212832411387,0.0184275912280327,0.005497,-0.000480,0.003807,0.237806,0.017934,325.249426,23.424668,0.999671,0.987655,0.004407,0.322300,0.000013,0.000014,-0.000003,0.000017,0.000011,-50.409663,0.000028,
2371,2008,2.57577651625493,-13.9311178704407,0.0286837235311168,0.005067,-0.000941,0.007760,0.203906,0.042479,331.311257,22.544864,0.998842,0.973084,0.006254,0.279986,0.000016,-0.000041,0.000020,0.000022,-0.000047,17.495342,0.000047,
2431,2518,3.78504279000805,-2.76163850490177,0.00365913789761407,0.005287,-0.000546,0.004498,0.225644,0.012269,322.947530,23.679604,0.999246,0.984940,0.004671,0.475569,0.000019,-0.000023,-0.000014,0.000023,-0.000027,-16.728440,0.000029,
2461,2773,4.38490945572648,2.80504685372072,-0.0297579361784983,0.004908,-0.000465,0.002423,0.216095,0.019691,318.564173,24.613613,0.999403,0.987929,0.004241,0.426497,0.000000,0.000014,-0.000003,0.000015,0.000000,-77.941499,0.000017,
2401,2173,3.19955222809538,-10.3118169275559,0.0211093314130721,0.005406,-0.000797,0.005005,0.229080,0.005061,328.640764,22.736518,0.999227,0.981254,0.005235,0.378016,-0.000018,-0.000019,-0.000014,-0.000005,-0.000032,-43.385289,0.000040,
2311,2053,1.25711522369328,-12.943143902743,0.0303873579022138,0.005357,-0.000131,0.001352,0.240568,0.027244,330.638443,22.957165,0.999506,0.984972,0.004761,0.375818,-0.000029,-0.000013,0.000011,-0.000007,-0.000034,63.589982,0.000044,
2386,2293,2.84776421382365,-7.68118013578752,0.00690674761364107,0.005335,-0.000515,0.002396,0.235636,0.019396,326.574960,23.174246,0.999862,0.994233,0.003318,0.400876,-0.000009,0.000005,-0.000014,0.000013,-0.000017,-57.896500,0.000018,
2446,2593,4.09481347166109,-1.12071917932884,-0.0246139818851248,0.005234,-0.000541,0.004205,0.224275,0.033906,321.516509,23.936725,0.999733,0.992665,0.003731,0.477501,0.000031,0.000004,0.000001,0.000031,0.000004,1.872211,0.000038,
2356,2278,2.1943984259701,-8.00869302238593,-0.00169571859333928,0.004776,-0.000677,0.005826,0.198170,0.025524,326.692267,23.241993,0.999471,0.988767,0.004357,0.423199,-0.000014,-0.000016,-0.000017,0.000002,-0.000032,-43.416956,0.000035,
2146,2383,-2.4002329947762,-5.71400824799031,0.0022201454476658,0.005164,-0.000287,0.001440,0.232765,0.021498,325.444877,24.196741,0.998862,0.986000,0.004639,0.426971,-0.000027,-0.000005,-0.000017,0.000004,-0.000036,-61.490145,0.000039,
2416,2548,3.45044767550145,-2.10490812375292,-0.0141239255139567,0.005331,-0.001198,0.007195,0.217811,0.002958,322.280934,23.843646,0.999310,0.987956,0.004440,0.428967,0.000015,-0.000022,0.000004,0.000015,-0.000022,5.765849,0.000023,
2296,1993,0.939821893532397,-14.2596489126651,0.0309274680639078,0.005023,-0.000550,0.003963,0.216292,0.033582,331.593930,22.957420,0.999243,0.966592,0.007013,0.345046,-0.000033,-0.000048,-0.000020,-0.000020,-0.000062,-34.947676,0.000085,
2176,2503,-1.76841787761179,-3.09219520612866,-0.0127889112994808,0.005019,-0.000537,0.003677,0.219121,0.019615,323.259747,24.218722,0.999185,0.983928,0.005017,0.417189,-0.000024,-0.000004,0.000003,-0.000004,-0.000025,82.535661,0.000031,
2206,2668,-1.14430251100934,0.506257501106973,-0.01889492568381,0.004998,-0.000652,0.004067,0.216737,0.001554,320.442133,24.371616,0.999537,0.991825,0.003761,0.377474,-0.000002,0.000002,-0.000001,0.000002,-0.000003,-81.503573,0.000003,
2266,3223,0.0644652417354372,12.565117839079,0.0311005574035335,0.005158,-0.000471,0.006812,0.215123,0.031660,311.674669,25.252473,0.999802,0.995445,0.003030,0.427015,0.000002,0.000035,0.000018,0.000042,-0.000006,66.182883,0.000046,
2266,3013,0.101191347776403,8.00956012296633,0.0110999537398015,0.005377,-0.000829,0.006611,0.225552,0.025339,314.953186,24.849903,0.999352,0.990926,0.003777,0.480788,0.000001,0.000004,-0.000002,0.000005,0.000000,-60.476580,0.000006,
2251,3148,-0.247329155146868,10.937154660051,0.0297759373730173,0.005175,-0.000728,0.002943,0.228605,-0.007216,312.933575,25.055877,0.998609,0.988123,0.004429,0.398657,-0.000010,0.000014,0.000008,0.000017,-0.000012,73.102819,0.000018,
2281,3058,0.418934085265228,8.98847645105223,0.011178555625861,0.005346,-0.000363,0.004575,0.230868,0.034235,314.200433,25.039322,0.999493,0.992845,0.003541,0.425793,-0.000002,0.000003,0.000001,0.000003,-0.000003,79.095464,0.000003,
2326,2113,1.57283349891259,-11.6276129604044,0.0296425264108962,0.005076,-0.001404,0.008491,0.202703,-0.001835,329.622296,22.978395,0.999460,0.981751,0.005249,0.379002,-0.000018,-0.000005,0.000011,0.000001,-0.000024,60.864472,0.000027,
2101,2413,-3.38480593495487,-5.05923268250822,0.00189188630588433,0.005199,-0.000989,0.007247,0.217512,0.012313,325.135955,24.359819,0.999191,0.986379,0.004568,0.404614,-0.000030,-0.000002,-0.000006,-0.000001,-0.000031,-78.929296,0.000036,
2326,2053,1.5838834578273,-12.9430931369975,0.0247539602121947,0.005092,-0.000648,0.004356,0.217819,0.029933,330.562258,22.830464,0.999611,0.987491,0.004452,0.408172,-0.000021,-0.000019,0.000009,-0.000011,-0.000029,47.095874,0.000041,
2401,2383,3.15693639363581,-5.7106233094962,-0.00258615347405566,0.005283,-0.000269,0.001330,0.237219,0.016732,325.054628,23.423103,0.999196,0.984659,0.004866,0.372349,0.000009,0.000013,-0.000001,0.000013,0.000008,-79.960286,0.000022,
2251,2953,-0.214435882962537,6.70719445196453,7.30414378722344E-05,0.005437,-0.000497,0.004286,0.236153,0.017010,315.877255,24.822207,0.999465,0.991768,0.003681,0.365043,-0.000005,0.000018,0.000005,0.000019,-0.000006,77.310294,0.000020,
2416,2428,3.47510484909909,-4.72639604936059,-0.00499591414870793,0.005206,-0.000628,0.001374,0.233373,-0.000296,324.319879,23.530140,0.999505,0.986551,0.004617,0.347300,0.000011,0.000002,0.000003,0.000012,0.000002,15.460906,0.000015,
2371,2023,2.57309833324911,-13.6035686934719,0.0389033106094416,0.004612,-0.001224,0.009919,0.175361,0.034920,331.127055,22.538923,0.998782,0.973606,0.006361,0.322772,0.000014,-0.000026,0.000019,0.000022,-0.000034,21.552691,0.000034,
2236,3073,-0.560493102293357,9.31011347304601,0.0155337165732021,0.005411,-0.000547,0.005380,0.231792,0.025643,314.075283,24.888197,0.999668,0.992224,0.003436,0.434517,-0.000004,0.000011,0.000005,0.000013,-0.000006,73.358601,0.000013,
2461,2788,4.383026280744,3.13116506007087,-0.0215019765358306,0.005124,0.000056,-0.000499,0.237249,0.039126,318.409914,24.656973,0.999307,0.986292,0.004398,0.456676,-0.000005,0.000017,-0.000005,0.000018,-0.000006,-77.212507,0.000019,
2446,2713,4.0698959190515,1.49758870646789,-0.0319716594559623,0.004949,-0.000261,0.004473,0.210458,0.040978,319.487372,24.408098,0.999710,0.992160,0.003663,0.435057,0.000020,0.000029,-0.000003,0.000030,0.000019,-73.126749,0.000049,
2341,2098,1.90266198750482,-11.9552961940295,0.0227897320746706,0.004918,-0.001009,0.007089,0.200106,0.024311,329.801127,22.896763,0.999534,0.982640,0.005043,0.358630,-0.000007,-0.000013,0.000008,-0.000001,-0.000018,34.418673,0.000022,
2371,2113,2.55500318200967,-11.6262005783931,0.0166648233941373,0.004824,-0.000386,0.002259,0.212625,0.027183,329.529124,22.742074,0.999119,0.977428,0.005686,0.378935,-0.000007,-0.000013,0.000008,-0.000001,-0.000019,35.227059,0.000022,
2116,2263,-3.03456304113153,-8.33733066587088,0.00455012077713945,0.004940,-0.000917,0.006066,0.208599,0.012379,327.497925,24.264329,0.998735,0.983535,0.005248,0.403009,-0.000013,0.000009,0.000011,0.000014,-0.000018,67.926209,0.000019,
2386,2428,2.82178607475528,-4.72826074602302,0.00449583044320434,0.005494,-0.000395,0.001331,0.247019,0.018831,324.381063,23.552245,0.999448,0.988197,0.004459,0.428323,0.000006,-0.000003,0.000005,0.000009,-0.000006,23.837724,0.000009,
2356,2038,2.24297924534541,-13.2733480060785,0.0282911614826844,0.005455,-0.000395,0.002642,0.240154,0.022870,330.855598,22.616755,0.998981,0.977307,0.005896,0.377309,0.000011,-0.000041,0.000018,0.000016,-0.000047,16.955351,0.000047,
2236,2803,-0.515291371773383,3.44633491383946,-0.0228530582660937,0.005525,-0.000397,0.003622,0.242391,0.025150,318.166426,24.499651,0.999566,0.989667,0.004019,0.452560,0.000004,0.000007,0.000004,0.000009,0.000001,53.989421,0.000012,
2296,3118,0.734527461445463,10.2904375868627,0.0295678697746666,0.005109,-0.000747,0.008437,0.206538,0.013548,313.330596,25.212382,0.999554,0.992994,0.003518,0.398767,0.000006,0.000016,0.000002,0.000017,0.000005,78.304522,0.000023,
2191,2593,-1.45700756443805,-1.12935176714385,-0.0136485175245298,0.005445,-0.000813,0.005489,0.232909,0.011849,321.761934,24.258017,0.999103,0.987547,0.004373,0.432125,-0.000011,-0.000001,0.000005,0.000001,-0.000013,68.821611,0.000015,
2461,2803,4.3790896418391,3.45888063784328,-0.0284067512362753,0.005114,-0.000677,0.003445,0.221685,0.014653,318.091443,24.778100,0.999381,0.987013,0.004353,0.365605,-0.000010,0.000017,-0.000002,0.000017,-0.000010,-84.796312,0.000017,
2416,2563,3.44764647862582,-1.77736135202974,-0.0154198976295561,0.005450,-0.000924,0.005569,0.229375,0.021053,322.037896,23.873454,0.998871,0.984402,0.004774,0.465949,0.000011,-0.000014,0.000001,0.000011,-0.000014,1.917202,0.000015,
2296,2008,0.937443500929962,-13.9302462093912,0.0294241287460295,0.005291,-0.000464,0.001599,0.236594,0.021776,331.360742,22.985342,0.999155,0.978390,0.005725,0.338946,-0.000035,-0.000042,-0.000004,-0.000033,-0.000044,-23.510139,0.000077,
2491,2983,4.99748210801221,7.37585008004783,-0.00595704244682338,0.005021,-0.000507,0.002972,0.219145,0.006651,315.408580,25.529802,0.999315,0.987629,0.004212,0.333952,0.000001,0.000032,0.000028,0.000049,-0.000016,59.426409,0.000050,
2371,2233,2.53221527740011,-8.99561357842489,0.0152786640731506,0.005191,-0.001023,0.004068,0.222954,-0.005080,327.591775,23.118426,0.998765,0.979469,0.005797,0.320845,-0.000011,-0.000005,-0.000009,0.000002,-0.000018,-54.658171,0.000020,
2266,3238,0.0621455332190983,12.8895989708062,0.0299810385295132,0.005493,-0.000562,0.004860,0.236985,0.009111,311.441695,25.232774,0.999803,0.994731,0.003086,0.448340,0.000002,0.000036,0.000019,0.000044,-0.000007,65.665126,0.000048,
2416,2398,3.48230288133038,-5.38436610041985,0.00733124718800582,0.005694,-0.000727,0.003710,0.247142,0.011914,324.923567,23.347532,0.999598,0.987116,0.004544,0.443006,0.000013,0.000018,-0.000005,0.000021,0.000010,-58.255691,0.000032,
2401,2503,3.13270524875152,-3.08704495618404,-0.0118036381163051,0.005366,-0.000619,0.003987,0.231461,0.018463,323.026096,23.806644,0.999461,0.989091,0.004248,0.366214,0.000011,-0.000025,0.000004,0.000011,-0.000026,6.606039,0.000026,
2176,2518,-1.77047851497511,-2.76513659158865,-0.0128987001782548,0.005518,-0.000559,0.004289,0.240207,0.026737,323.037252,24.207136,0.999114,0.986277,0.004718,0.449192,-0.000023,-0.000010,0.000005,-0.000008,-0.000024,72.093247,0.000034,
2371,2038,2.57022396687072,-13.2738184480533,0.0291148140837549,0.005096,-0.000767,0.006575,0.209525,0.028589,330.838438,22.511671,0.999018,0.976424,0.005975,0.388351,0.000008,-0.000039,0.000016,0.000014,-0.000044,17.345191,0.000045,
2356,2158,2.21983014014033,-10.6394761211239,0.0259343234627067,0.005341,-0.000551,0.005032,0.226683,0.032652,328.888472,23.017619,0.999173,0.982152,0.005323,0.322578,-0.000013,-0.000026,-0.000006,-0.000011,-0.000029,-21.966550,0.000041,
2161,2443,-2.08382583718138,-4.40317406838644,-0.00279368670271651,0.005490,-0.000814,0.005140,0.236247,0.011826,324.382110,24.190541,0.999233,0.986773,0.004642,0.422300,-0.000032,-0.000005,-0.000009,-0.000003,-0.000035,-73.911453,0.000041,
2326,3208,1.37093240955775,12.2445044771229,0.0392759309110602,0.005772,-0.000022,0.004015,0.252126,0.036957,311.958459,25.493559,0.999628,0.993493,0.003297,0.460732,0.000004,0.000030,0.000013,0.000036,-0.000001,67.775766,0.000041,
2221,2743,-0.831365827091528,2.14012500596819,-0.024476230042012,0.005255,-0.000884,0.005441,0.224002,-0.003874,319.145506,24.438934,0.999379,0.989487,0.004023,0.394514,-0.000008,0.000002,-0.000005,0.000004,-0.000011,-67.542528,0.000011,
2401,2398,3.15402023125278,-5.3832225491338,-0.000563942986048005,0.005175,-0.000487,0.001975,0.229898,0.012877,324.821494,23.437545,0.999302,0.985763,0.004765,0.400944,0.000009,0.000017,-0.000003,0.000018,0.000008,-71.715724,0.000027,
2431,2533,3.78162859232417,-2.43278098272557,-0.000114071857353792,0.004955,-0.000501,0.001930,0.219922,0.008762,322.666095,23.818262,0.999368,0.987421,0.004433,0.384261,0.000020,-0.000025,-0.000004,0.000021,-0.000025,-5.474598,0.000027,
2266,3028,0.0986754842914088,8.33590236988681,0.0106881464575963,0.005307,-0.000406,0.002615,0.235719,0.026427,314.714569,24.928288,0.999312,0.990301,0.003853,0.428220,0.000000,-0.000001,-0.000003,0.000003,-0.000004,-38.808617,0.000004,
2386,2308,2.8441471660127,-7.35219758304562,-0.0037051818755458,0.005377,-0.000242,0.001562,0.240705,0.033693,326.248802,23.158767,0.999796,0.994113,0.003405,0.476684,-0.000005,0.000007,-0.000010,0.000013,-0.000011,-59.795048,0.000014,
2146,2398,-2.40274831268968,-5.38638463850811,-0.000313721383406573,0.005376,-0.000737,0.003123,0.237311,0.027468,325.186291,24.174030,0.998817,0.985723,0.004813,0.465416,-0.000031,0.000001,-0.000020,0.000011,-0.000040,-64.489779,0.000042,
2311,3148,1.05443562496822,10.9430556695335,0.0260649401765818,0.004910,-0.000415,0.005794,0.206241,0.021191,312.794989,25.349966,0.999539,0.992345,0.003664,0.391251,0.000003,0.000023,0.000010,0.000027,0.000000,67.597419,0.000031,
2341,2188,1.88572722195801,-9.98025571347083,0.00947238098575554,0.005368,-0.000332,0.001070,0.242033,0.004321,328.280866,23.168351,0.999192,0.985756,0.004905,0.304624,-0.000018,-0.000012,0.000004,-0.000010,-0.000021,64.235846,0.000031,
2356,2053,2.24097574924713,-12.945155328262,0.0400417237214583,0.005330,-0.000290,0.002073,0.236478,0.029073,330.708446,22.682099,0.999144,0.979055,0.005475,0.359979,0.000010,-0.000030,0.000017,0.000017,-0.000037,20.353055,0.000037,
2446,2608,4.09282965938622,-0.794121644856403,-0.0101946707421803,0.005408,-0.001022,0.008274,0.216895,0.027308,321.385886,24.054715,0.999476,0.988717,0.004176,0.405459,0.000029,0.000003,-0.000002,0.000029,0.000003,-3.754063,0.000035,
2401,2188,3.19679891064357,-9.9820986225642,0.020368862718783,0.005268,0.000087,0.000387,0.239817,0.034937,328.402585,22.828110,0.999199,0.982890,0.005172,0.364509,-0.000015,-0.000021,-0.000016,-0.000002,-0.000034,-39.610750,0.000040,
2236,3088,-0.562763957247139,9.63616137130711,0.0174762862985176,0.005472,-0.000187,0.002671,0.243499,0.030712,313.857745,24.965890,0.999540,0.992219,0.003498,0.382211,-0.000007,0.000007,0.000003,0.000007,-0.000008,76.704237,0.000009,
2251,2968,-0.217519053222052,7.03333149475059,0.00176129466848352,0.004901,-0.000129,0.004185,0.212041,0.050725,315.622258,24.847686,0.999531,0.993325,0.003462,0.395946,-0.000005,0.000016,0.000006,0.000018,-0.000007,75.534493,0.000018,
2326,2068,1.5805650452698,-12.6145961797266,0.0230198486919448,0.004852,-0.000996,0.006753,0.198496,0.025047,330.287540,22.789784,0.999445,0.982527,0.005100,0.481959,-0.000018,-0.000012,0.000015,0.000000,-0.000030,50.370008,0.000035,
2251,3163,-0.249443623501328,11.2627486975098,0.0387928292042261,0.005341,-0.000690,0.006233,0.225558,0.019267,312.760173,25.131108,0.999208,0.989939,0.003972,0.371954,-0.000007,0.000016,0.000009,0.000019,-0.000010,70.563682,0.000019,
2221,3013,-0.875816334734495,8.0072224133157,0.00895948340729547,0.005446,-0.000275,0.003038,0.241163,0.032241,315.045386,24.766396,0.999482,0.991133,0.003725,0.437403,-0.000005,0.000016,0.000002,0.000016,-0.000006,84.555220,0.000016,
2311,2068,1.25424823584979,-12.6138413409273,0.0241871455287423,0.005796,-0.000426,0.002698,0.256002,0.027156,330.361044,22.934923,0.999487,0.982161,0.005095,0.433594,-0.000026,-0.000008,0.000016,0.000002,-0.000035,59.376868,0.000040,
2206,2683,-1.14634207301405,0.833320855567258,-0.0229058954803918,0.005643,-0.000204,0.001603,0.254442,0.020037,320.202616,24.369760,0.999718,0.993409,0.003439,0.415092,-0.000003,0.000012,-0.000005,0.000013,-0.000004,-74.100653,0.000014,
2386,2158,2.87431589992453,-10.6390812496035,0.0166948101740445,0.005248,-0.000627,0.004390,0.224302,0.015719,328.825727,22.843251,0.999306,0.979832,0.005405,0.316126,-0.000012,-0.000017,-0.000009,-0.000005,-0.000024,-36.417449,0.000031,
2161,2458,-2.086717750481,-4.07560827410146,-0.00530536602752818,0.005296,-0.000758,0.005893,0.225112,0.045787,324.107563,24.156027,0.999264,0.987901,0.004447,0.502304,-0.000029,-0.000001,-0.000008,0.000001,-0.000031,-75.084008,0.000036,
2371,2053,2.56775188628484,-12.9433039307129,0.0295534269471887,0.005283,-0.000257,0.004315,0.226335,0.044807,330.616651,22.652600,0.999197,0.978674,0.005611,0.308190,0.000007,-0.000027,0.000016,0.000014,-0.000033,21.740147,0.000033,
2266,3253,0.0592749082449835,13.2154501914848,0.0271819861863491,0.005662,-0.000573,0.006472,0.239500,0.027107,311.174350,25.293600,0.999777,0.993812,0.003288,0.429713,0.000001,0.000039,0.000025,0.000051,-0.000011,64.028511,0.000054,
2371,2353,2.50900713997713,-6.36929214202418,0.00794097932435989,0.005275,-0.000572,0.001753,0.235349,-0.007544,325.603480,23.353058,0.999040,0.985381,0.004849,0.429569,0.000004,0.000003,0.000006,0.000009,-0.000003,43.278997,0.000009,
2326,3223,1.36764181500656,12.5695730659113,0.0357357030351864,0.005526,-0.000500,0.003577,0.242102,0.010757,311.673054,25.514505,0.999447,0.992895,0.003327,0.446626,0.000004,0.000037,0.000012,0.000041,0.000000,72.488356,0.000047,
2281,3073,0.416045874519707,9.31460190939302,0.00413197507862151,0.005427,-0.000579,0.000755,0.247265,0.000774,313.912564,25.102117,0.999556,0.992644,0.003593,0.356384,-0.000002,0.000011,0.000002,0.000011,-0.000002,79.979338,0.000012,
2296,3133,0.731900448182682,10.6159864878901,0.0269730263316319,0.005380,-0.000597,0.007739,0.221410,0.010760,313.078195,25.235581,0.999708,0.994661,0.003224,0.401730,0.000003,0.000022,0.000005,0.000023,0.000001,75.862904,0.000027,
2356,2173,2.21676007375602,-10.311861708837,0.0216102669709812,0.005240,-0.000454,0.002638,0.230529,0.008290,328.615235,22.927090,0.999248,0.982041,0.005313,0.430370,-0.000014,-0.000020,-0.000005,-0.000011,-0.000023,-28.086932,0.000034,
2386,2443,2.81780130709989,-4.39966820319928,-0.00453940341515136,0.005429,-0.000714,0.005314,0.229657,0.014468,324.044986,23.586781,0.999308,0.988733,0.004478,0.434607,0.000012,-0.000022,0.000007,0.000013,-0.000023,11.036715,0.000023,
2416,2578,3.44475126814341,-1.44898458996548,-0.0174379958929194,0.005672,-0.001219,0.005553,0.239491,-0.002175,321.787062,24.019356,0.999363,0.989042,0.004188,0.345559,0.000012,0.000004,0.000004,0.000014,0.000002,21.237838,0.000018,
2461,2818,4.37660514203867,3.78448942131342,-0.020655445464115,0.005119,-0.000568,0.004772,0.216983,0.028581,317.907196,24.783959,0.999361,0.986572,0.004491,0.427897,-0.000018,0.000015,-0.000002,0.000015,-0.000018,-85.873563,0.000019,
2176,2533,-1.77291364257304,-2.43754582638597,-0.0161653067095244,0.005576,-0.000175,0.000700,0.254094,0.030793,322.780978,24.224013,0.999013,0.987181,0.004478,0.449658,-0.000026,0.000001,0.000001,0.000001,-0.000026,86.885644,0.000030,
2371,2128,2.5524126422603,-11.2977189340193,0.0173114649731474,0.005063,-0.000415,0.002545,0.222558,0.033732,329.302856,22.737438,0.999202,0.981244,0.005381,0.434131,-0.000005,-0.000015,0.000006,-0.000002,-0.000018,25.640026,0.000023,
2326,2128,1.57054828661735,-11.2978910913784,0.0283160878007607,0.005029,-0.000278,0.000053,0.229975,0.006335,329.396462,23.062443,0.999381,0.983964,0.005060,0.340452,-0.000018,-0.000009,0.000008,-0.000004,-0.000023,59.628148,0.000029,
2341,2203,1.88275765505099,-9.65212144605145,0.0101662226874168,0.005183,-0.000275,0.001563,0.231873,0.035335,328.034606,23.134700,0.999045,0.982974,0.005276,0.408625,-0.000019,0.000000,0.000004,0.000000,-0.000020,79.554094,0.000023,
2266,3043,0.096127779318369,8.66084233004815,0.0144021844776603,0.005269,-0.000947,0.003636,0.230307,-0.013859,314.495737,24.950065,0.999559,0.991858,0.003612,0.390746,-0.000001,0.000002,-0.000004,0.000005,-0.000003,-55.786213,0.000005,
2401,2413,3.15117650577188,-5.0553029339722,-0.000517946578611372,0.005200,-0.000340,0.001385,0.233276,0.021116,324.582205,23.473315,0.999446,0.986130,0.004654,0.420505,0.000004,0.000007,0.000001,0.000007,0.000004,65.994142,0.000011,
2236,3103,-0.565489406876427,9.96038742605521,0.0176476962117249,0.005477,-0.000612,0.003866,0.239654,0.002960,313.610883,24.901145,0.999509,0.992803,0.003474,0.439044,-0.000009,0.000009,0.000006,0.000011,-0.000011,72.904799,0.000013,
2416,2443,3.47205478051191,-4.3990344303907,-0.00460241461780697,0.005247,-0.000639,0.003607,0.227122,0.012475,324.073900,23.523957,0.999535,0.987208,0.004497,0.415444,0.000018,-0.000020,0.000004,0.000019,-0.000021,5.564835,0.000023,
2221,3028,-0.878819529970961,8.33299415809758,0.00392045250436013,0.005218,-0.000226,0.000051,0.240276,0.030024,314.757479,24.764299,0.999675,0.993480,0.003279,0.455466,-0.000003,0.000010,-0.000001,0.000011,-0.000003,-87.404076,0.000011,
2101,2428,-3.38730378364276,-4.73081569857109,-0.00340092335994768,0.005321,-0.000527,0.005877,0.227266,0.028458,324.859135,24.382975,0.999415,0.987338,0.004403,0.400592,-0.000033,-0.000001,0.000005,-0.000001,-0.000034,81.164179,0.000039,
2371,2368,2.5052835853114,-6.03951210043492,0.00170788937305133,0.005175,-0.000285,0.005186,0.218760,0.019682,325.291256,23.463312,0.998729,0.984096,0.004975,0.389892,0.000006,0.000004,0.000012,0.000018,-0.000007,42.334747,0.000018,
2401,2518,3.13000075705181,-2.76055447878336,-0.0124093921858162,0.005445,0.000015,0.001812,0.243273,0.051563,322.789847,23.715819,0.999453,0.988308,0.004401,0.536781,0.000012,-0.000022,0.000000,0.000012,-0.000022,0.484249,0.000022,
2461,2833,4.37343675722707,4.11274914412355,-0.0287078578427895,0.005596,-0.000319,0.004175,0.241289,0.039972,317.618446,24.920253,0.999576,0.990211,0.003842,0.357458,-0.000018,0.000016,0.000000,0.000016,-0.000018,-89.549003,0.000019,
2416,2593,3.44117494568998,-1.12177871223665,-0.0209078634851494,0.005129,-0.000601,0.003215,0.223380,0.018289,321.498170,24.006739,0.999528,0.991241,0.003882,0.427426,0.000017,0.000000,0.000004,0.000018,-0.000001,13.299512,0.000020,
2311,3163,1.05258764714712,11.2677423456959,0.0317150486161495,0.005316,-0.000488,0.004384,0.229796,0.017760,312.620508,25.352377,0.999667,0.993116,0.003453,0.416474,0.000004,0.000021,0.000010,0.000026,0.000000,65.347081,0.000030,
2221,2758,-0.833606731771379,2.46692222318917,-0.0249771290385752,0.005501,-0.000536,0.003179,0.242802,0.027136,318.915976,24.452642,0.999449,0.989903,0.003946,0.430990,-0.000011,0.000005,-0.000001,0.000005,-0.000011,-85.025017,0.000011,
2296,3148,0.729021944342204,10.9415547448219,0.0317194421428439,0.004935,-0.000451,0.008084,0.199938,0.036763,312.850667,25.280770,0.999635,0.993273,0.003483,0.411348,0.000000,0.000019,0.000007,0.000022,-0.000002,72.658096,0.000024,
2356,2188,2.21422666312326,-9.98173073214012,0.0220124082622988,0.005641,-0.000652,0.004174,0.243457,0.022726,328.388709,23.083247,0.999155,0.983102,0.005167,0.330130,-0.000013,-0.000020,-0.000004,-0.000011,-0.000022,-21.518996,0.000033,
2356,2293,2.19232216206249,-7.67878336524832,-0.00105864484487483,0.005502,-0.000415,0.005880,0.231347,0.047792,326.487394,23.410595,0.999614,0.993275,0.003901,0.317618,-0.000010,-0.000005,-0.000012,0.000005,-0.000020,-50.161272,0.000021,
2326,2143,1.56734377998345,-10.9679825978295,0.0212561960298672,0.005609,-0.000864,0.006285,0.234934,0.039159,329.100449,23.083027,0.999261,0.984321,0.005192,0.390374,-0.000021,-0.000009,0.000005,-0.000007,-0.000023,69.008671,0.000031,
2386,2323,2.84028011447419,-7.02334598545776,-0.00789480232674578,0.004972,-0.000538,0.004562,0.211297,0.037802,325.941553,23.211883,0.999690,0.992498,0.003821,0.473264,-0.000008,-0.000002,-0.000006,0.000001,-0.000012,-59.752351,0.000013,
2446,2623,4.08985700466068,-0.467039968034015,-0.00641819395156062,0.005135,-0.000776,0.008391,0.204072,0.032378,321.160634,24.117508,0.999592,0.989177,0.003981,0.400468,0.000029,0.000010,-0.000007,0.000031,0.000008,-17.169258,0.000041,
2176,2548,-1.77603100863149,-2.11040631532838,-0.0193286817361127,0.005274,-0.000609,0.001958,0.236221,0.016487,322.494134,24.224145,0.999218,0.987822,0.004334,0.448502,-0.000022,0.000004,0.000005,0.000005,-0.000023,79.459469,0.000024,
2191,2608,-1.4598529660469,-0.802222621115668,-0.0170438309850169,0.005197,-0.000685,0.002823,0.229903,0.009534,321.487521,24.263112,0.998681,0.985296,0.004792,0.440097,-0.000011,0.000000,0.000009,0.000005,-0.000015,60.749482,0.000016,
2431,2548,3.77905329982064,-2.10575258173895,0.00848488835953276,0.005071,-0.000879,0.007019,0.206357,0.023065,322.480739,23.886453,0.999615,0.989955,0.004019,0.381209,0.000019,-0.000022,-0.000004,0.000020,-0.000023,-4.826997,0.000025,
2401,2203,3.19398589274214,-9.65411721913745,0.0196585162137239,0.005407,0.000011,0.000152,0.247018,0.018590,328.162159,22.812948,0.999133,0.981321,0.005385,0.411516,-0.000017,-0.000011,-0.000014,0.000000,-0.000028,-51.900919,0.000032,
2206,2698,-1.14980987302152,1.15975396814616,-0.029814131313401,0.005577,-0.000696,0.006565,0.235536,0.021111,319.882821,24.309131,0.999534,0.992195,0.003574,0.494041,-0.000004,0.000003,-0.000004,0.000004,-0.000006,-67.502908,0.000006,
2311,2083,1.25089442926989,-12.283251387516,0.024651491564498,0.005467,-0.001074,0.006690,0.227132,0.023996,330.093838,23.113052,0.999466,0.982513,0.005186,0.287911,-0.000022,-0.000003,0.000019,0.000009,-0.000034,57.730775,0.000035,
2386,2458,2.81457928447652,-4.07116552468874,-0.00695016216280919,0.005452,-0.000932,0.007302,0.223499,0.009574,323.775227,23.681279,0.999346,0.987355,0.004613,0.379919,0.000012,-0.000020,0.000011,0.000016,-0.000024,17.544666,0.000024,
2416,2458,3.46861567920203,-4.070432975019,-0.0102231018460088,0.005237,-0.000344,0.003968,0.225491,0.019275,323.781740,23.586357,0.999435,0.986276,0.004671,0.409145,0.000021,-0.000023,0.000006,0.000022,-0.000024,7.354414,0.000026,
2386,2173,2.87082841323082,-10.3111547825901,0.0129659720071231,0.004959,-0.000756,0.004679,0.209983,0.004060,328.538921,22.775899,0.999448,0.983277,0.005122,0.417959,-0.000014,-0.000015,-0.000010,-0.000004,-0.000025,-43.673927,0.000031,
2116,2278,-3.03589667737415,-8.00930879771983,0.00948595595821189,0.005561,-0.000812,0.004426,0.242035,0.006318,327.330720,24.322645,0.998700,0.983670,0.005214,0.343952,-0.000015,0.000005,0.000010,0.000009,-0.000019,67.886728,0.000019,
2371,2143,2.54973857645741,-10.968726621705,0.0206884028690411,0.005204,-0.001006,0.005231,0.219279,0.022799,329.085746,22.831532,0.999106,0.979409,0.005538,0.372911,-0.000006,-0.000013,0.000001,-0.000006,-0.000013,10.442578,0.000020,
2251,2983,-0.219721142317958,7.35844910644187,0.00751400756399789,0.005110,-0.000404,0.006250,0.214796,0.039709,315.428707,24.855585,0.999538,0.992442,0.003624,0.399644,-0.000004,0.000009,0.000005,0.000011,-0.000006,73.155565,0.000011,
2161,2473,-2.0889100696383,-3.74798173338839,-0.00377584132741049,0.005443,-0.000694,0.005278,0.233786,0.030988,323.886438,24.218035,0.999280,0.986304,0.004759,0.436840,-0.000027,-0.000007,-0.000003,-0.000007,-0.000028,-82.111600,0.000036,
2251,3178,-0.251735936641829,11.5873310981135,0.0402272431897472,0.005451,-0.000504,0.003685,0.239050,0.014316,312.540441,25.102059,0.999410,0.991502,0.003591,0.418388,-0.000006,0.000021,0.000010,0.000024,-0.000009,71.454843,0.000025,
2236,2818,-0.517360676338303,3.77198599086071,-0.0149147848148914,0.005485,-0.000227,0.002969,0.242772,0.035485,317.989237,24.510969,0.999562,0.990558,0.003922,0.472485,0.000009,0.000012,0.000011,0.000022,-0.000001,49.855683,0.000025,
2326,3238,1.36387315297646,12.8964392150226,0.0294748524727879,0.005292,-0.000101,0.006886,0.220127,0.046224,311.351581,25.628700,0.999455,0.992411,0.003405,0.400747,0.000003,0.000040,0.000010,0.000043,0.000000,75.660720,0.000050,
2146,2413,-2.40615034203372,-5.05727359115265,-0.0117028926709395,0.005220,-0.000643,0.003710,0.228449,0.026204,324.839965,24.215990,0.998657,0.986047,0.005072,0.431915,-0.000030,0.000003,-0.000016,0.000009,-0.000036,-67.922632,0.000037,
2281,3088,0.414155767201478,9.63896473739194,0.0148415363232743,0.005363,-0.000479,-0.000870,0.249854,0.008082,313.759980,25.079604,0.999704,0.992555,0.003633,0.412884,-0.000002,0.000010,-0.000002,0.000010,-0.000003,-80.041745,0.000011,
2311,3178,1.05003052965952,11.5931225950483,0.0302346546997114,0.005524,-0.000472,0.002646,0.245295,0.007016,312.377902,25.386867,0.999725,0.993278,0.003414,0.402159,0.000004,0.000029,0.000011,0.000033,-0.000001,69.222084,0.000038,
2401,2218,3.19071874027262,-9.32379093698282,0.018936126404185,0.005252,-0.000047,0.001651,0.234467,0.042258,327.900341,22.977389,0.999303,0.982231,0.005410,0.318960,-0.000016,-0.000009,-0.000017,0.000005,-0.000029,-51.122393,0.000032,
2386,2338,2.83868976699814,-6.69588338097919,0.00488716584555959,0.005136,-0.000147,0.002905,0.224925,0.045272,325.819170,23.307065,0.999188,0.985282,0.004721,0.430170,-0.000006,0.000008,-0.000002,0.000009,-0.000006,-80.479307,0.000009,
2431,2563,3.775972586835,-1.77826672229457,0.00307118877714174,0.005586,-0.001255,0.009276,0.221534,0.016036,322.207125,23.898106,0.999456,0.989070,0.004184,0.413576,0.000017,-0.000012,-0.000004,0.000017,-0.000012,-7.836118,0.000018,
2416,2473,3.46635870197141,-3.74353091613585,-0.0041694157416714,0.005081,0.000409,-0.000445,0.234781,0.037072,323.598521,23.595279,0.999290,0.985698,0.004720,0.466973,0.000017,-0.000030,0.000007,0.000018,-0.000031,8.600000,0.000031,
2191,2623,-1.46210154314122,-0.475196195660928,-0.0168399594829225,0.005293,-0.000302,0.000073,0.243059,-0.003397,321.259193,24.305101,0.999225,0.986867,0.004499,0.400154,-0.000009,0.000002,0.000007,0.000005,-0.000012,64.760676,0.000012,
2206,2713,-1.15234008125944,1.48607163530789,-0.0258214371554004,0.005173,-0.000575,0.003993,0.225131,0.012826,319.662345,24.340946,0.998998,0.987126,0.004465,0.470759,-0.000003,0.000005,-0.000004,0.000007,-0.000004,-66.974106,0.000007,
2341,2218,1.88025564633659,-9.32388170318724,0.0106933240915055,0.005234,-0.000118,-0.001170,0.243801,0.053119,327.808965,23.127223,0.998752,0.982074,0.005524,0.473063,-0.000017,-0.000003,-0.000001,-0.000003,-0.000017,-87.123452,0.000022,
2296,3163,0.727033081622704,11.2664925823463,0.0399047911827211,0.005017,-0.000555,0.006946,0.207529,0.030281,312.681373,25.323999,0.999718,0.993029,0.003383,0.390264,0.000001,0.000019,0.000007,0.000021,-0.000001,70.836831,0.000024,
2371,2248,2.52858597693858,-8.66558578308845,0.00235409543682863,0.005451,-0.000657,0.004286,0.234267,0.019724,327.252506,23.139812,0.999257,0.983073,0.005402,0.368149,-0.000009,-0.000010,-0.000009,0.000000,-0.000019,-43.077460,0.000021,
2446,2728,4.06756691064058,1.82267300846646,-0.0266081383632581,0.005200,-0.001039,0.004770,0.220569,0.001800,319.299037,24.376195,0.999672,0.991798,0.003661,0.480008,0.000011,0.000016,0.000002,0.000017,0.000010,70.848244,0.000027,
2401,2428,3.14816224352543,-4.72766632033233,-0.000176417070576917,0.005203,-0.000616,0.002940,0.227665,0.009473,324.336536,23.510816,0.999424,0.985499,0.004701,0.418443,0.000006,-0.000002,0.000002,0.000007,-0.000002,14.011270,0.000007,
2401,2533,3.12725069360379,-2.43196960562909,-0.0125560244250664,0.005446,0.000013,-0.000581,0.251977,0.019040,322.553428,23.891611,0.999426,0.988820,0.004412,0.375021,0.000012,-0.000025,0.000007,0.000013,-0.000026,10.365368,0.000026,
2326,3253,1.36001460301092,13.2214332549746,0.0189081624453706,0.005141,-0.000496,0.008210,0.208374,0.018929,311.005435,25.613417,0.999393,0.992760,0.003412,0.421732,0.000001,0.000045,0.000012,0.000048,-0.000003,75.369167,0.000054,
2326,2158,1.56457314347971,-10.6397862059871,0.0192672829033995,0.005737,-0.000727,0.006035,0.241712,0.037627,328.849298,23.042077,0.999161,0.983510,0.005190,0.467245,-0.000023,-0.000017,-0.000001,-0.000017,-0.000023,-81.530433,0.000040,
2176,2563,-1.77896985491319,-1.78278747645664,-0.0176205323075465,0.004892,-0.000440,0.004234,0.211699,0.035285,322.240687,24.283242,0.999137,0.987029,0.004439,0.421544,-0.000016,-0.000003,0.000001,-0.000003,-0.000016,83.994504,0.000020,
2221,2773,-0.836191221677456,2.79239659863313,-0.0157975539397057,0.005069,-0.000632,0.005842,0.214362,0.032909,318.720761,24.450403,0.999420,0.989722,0.004017,0.457969,-0.000009,0.000006,0.000003,0.000007,-0.000009,80.768918,0.000010,
2386,2188,2.86850670739118,-9.98119667189938,0.0152521010115834,0.005326,-0.000536,0.004252,0.228407,0.050663,328.333402,22.904936,0.999121,0.981722,0.005284,0.381538,-0.000012,-0.000017,-0.000013,-0.000002,-0.000028,-40.465841,0.000033,
2266,3058,0.0932508994820154,8.98704495187446,0.015200841134515,0.005120,-0.000366,0.004742,0.220040,0.019858,314.246568,24.998923,0.999496,0.992091,0.003625,0.400248,-0.000003,0.000001,-0.000001,0.000001,-0.000003,-76.594745,0.000003,
2356,2068,2.23782980253243,-12.6157699774672,0.0402801916710587,0.005126,-0.000211,0.003746,0.221336,0.051915,330.453580,22.715872,0.999309,0.979674,0.005336,0.391268,0.000007,-0.000026,0.000019,0.000015,-0.000034,24.476214,0.000034,
2371,2383,2.50239442675347,-5.7113063860128,0.00324073363833577,0.005105,-0.000452,0.006086,0.212291,0.028723,325.054588,23.528320,0.999127,0.984553,0.004937,0.376587,0.000010,0.000007,0.000005,0.000014,0.000003,34.384495,0.000018,
2146,2428,-2.40797628639467,-4.72927186543687,-0.0112318800543676,0.005619,-0.000165,0.000757,0.255826,0.005089,324.628809,24.294320,0.999088,0.986651,0.004754,0.341828,-0.000028,-0.000002,-0.000007,0.000000,-0.000030,-76.399386,0.000035,
2116,2293,-3.03901477533153,-7.68004616960304,-0.000497892808368761,0.005285,-0.000409,0.001529,0.238057,0.020780,327.001719,24.328744,0.998794,0.985886,0.004922,0.358478,-0.000015,0.000004,0.000014,0.000012,-0.000023,62.001563,0.000023,
2446,2638,4.08639286117409,-0.138711909144249,-0.0163973867200298,0.005047,-0.000168,0.002980,0.220442,0.022608,320.849176,24.197377,0.999632,0.989950,0.003933,0.363714,0.000021,0.000012,-0.000012,0.000029,0.000004,-35.033100,0.000036,
2311,3193,1.04770574307512,11.9183217291103,0.0361353419311286,0.005727,-0.000299,0.005123,0.246360,0.035091,312.182461,25.413238,0.999716,0.993396,0.003331,0.435022,0.000002,0.000030,0.000014,0.000036,-0.000003,67.916958,0.000040,
2431,2578,3.77299270174002,-1.44969036160382,-0.00315102098244324,0.005918,-0.001092,0.007149,0.244716,0.014713,321.934089,24.002549,0.999738,0.993078,0.003641,0.358873,0.000020,0.000005,0.000000,0.000020,0.000005,0.247606,0.000026,
2341,2113,1.90048484964298,-11.6269652614137,0.0290049702488204,0.004969,-0.000830,0.005825,0.206937,0.030002,329.618215,22.933681,0.999474,0.983010,0.005058,0.366791,-0.000010,-0.000012,0.000007,-0.000004,-0.000019,40.289991,0.000024,
2356,2308,2.18993197379229,-7.3529286953808,0.00681417693670028,0.005242,-0.000464,0.004803,0.223198,0.029015,326.303590,23.326797,0.999386,0.991087,0.003972,0.423456,-0.000010,-0.000005,-0.000007,0.000000,-0.000015,-55.722629,0.000018,
2401,2443,3.14555069665694,-4.40008438917999,0.00611104469675183,0.005245,-0.000618,0.005867,0.219019,0.030358,324.137132,23.571339,0.999438,0.986873,0.004611,0.425701,0.000013,-0.000023,0.000003,0.000013,-0.000023,4.831650,0.000023,
2176,2578,-1.78121247277955,-1.45659555131442,-0.0170462893458421,0.005191,-0.000609,0.005228,0.222313,0.014386,322.013675,24.245652,0.999219,0.987945,0.004276,0.451364,-0.000014,0.000000,0.000000,0.000000,-0.000014,-89.049632,0.000016,
2161,2488,-2.09205151255119,-3.41999434394453,-0.0144347230055359,0.005411,-0.000596,0.003961,0.236379,0.025018,323.557637,24.197624,0.999130,0.985713,0.004816,0.462808,-0.000026,-0.000007,-0.000004,-0.000006,-0.000027,-78.079566,0.000035,
2206,2728,-1.15463435710916,1.81284591078951,-0.0217855521563024,0.005330,-0.000664,0.006116,0.225657,0.020810,319.452735,24.402727,0.999326,0.989496,0.004006,0.433863,-0.000004,0.000003,-0.000006,0.000007,-0.000008,-59.147616,0.000009,
2251,2998,-0.222104615528508,7.68305222010979,0.0128708582568038,0.005235,-0.000739,0.009294,0.210463,0.028196,315.224960,24.817289,0.999519,0.991724,0.003723,0.448984,-0.000004,0.000012,0.000002,0.000012,-0.000005,83.212372,0.000012,
2386,2203,2.86560852111512,-9.6515159546454,0.00771326353088853,0.005873,-0.000318,0.003722,0.255492,0.031665,328.055294,22.976341,0.998743,0.978571,0.005625,0.337137,-0.000014,-0.000008,-0.000012,0.000002,-0.000023,-51.614450,0.000026,
2446,2653,4.08350297128364,0.188382616642762,-0.0177492665039267,0.005292,-0.000154,0.003285,0.230568,0.019775,320.603976,24.235433,0.999703,0.990882,0.003787,0.375677,0.000020,0.000021,-0.000009,0.000029,0.000012,-46.428707,0.000043,
2146,2443,-2.41075641185467,-4.40239135278035,-0.0098248679909716,0.005388,-0.000305,0.003701,0.236310,0.019924,324.379043,24.248059,0.999299,0.986633,0.004718,0.412339,-0.000027,0.000003,-0.000008,0.000005,-0.000029,-75.461447,0.000031,
2311,3208,1.04508210962883,12.2439558046385,0.0391195660986341,0.005479,0.000141,0.002606,0.243684,0.044928,311.958673,25.484050,0.999678,0.992986,0.003365,0.404766,0.000002,0.000028,0.000015,0.000034,-0.000005,65.677404,0.000037,
2446,2743,4.06520465066074,2.14896243341708,-0.0153752009399568,0.005068,-0.001122,0.006590,0.207687,0.000867,319.135804,24.467397,0.999617,0.990869,0.003781,0.439801,0.000006,0.000013,0.000002,0.000013,0.000005,76.443185,0.000019,
2431,2593,3.76951875143879,-1.1238151992484,-0.00115606958053149,0.004963,-0.000329,0.003683,0.213996,0.030083,321.676843,23.919426,0.999611,0.991197,0.003897,0.508071,0.000024,0.000002,0.000000,0.000024,0.000002,0.617586,0.000029,
2416,2488,3.46276961537852,-3.41592597685248,-0.0105952522439452,0.005175,-0.000628,0.002256,0.228842,-0.000831,323.295891,23.614233,0.999327,0.986687,0.004536,0.459287,0.000018,-0.000028,0.000006,0.000019,-0.000029,7.328932,0.000029,
2326,3268,1.3568539186681,13.5476127474982,0.00909387073443213,0.005331,-0.000412,0.005524,0.226549,0.026566,310.694613,25.681920,0.999531,0.993368,0.003221,0.393711,-0.000001,0.000040,0.000013,0.000043,-0.000005,74.163428,0.000047,
2401,2233,3.18736707401436,-8.99617305657204,0.0207361747417281,0.005081,-0.001034,0.006756,0.207837,0.017117,327.646963,22.974563,0.999292,0.983379,0.005273,0.344722,-0.000017,-0.000005,-0.000014,0.000005,-0.000026,-56.520819,0.000028,
2236,2833,-0.520432457347237,4.09858044767301,-0.0145541999915508,0.005134,-0.000785,0.004389,0.221835,0.016687,317.727153,24.584256,0.999518,0.991057,0.003750,0.401153,0.000009,0.000014,0.000017,0.000029,-0.000006,49.068168,0.000031,
2371,2158,2.54712461836637,-10.6400587211649,0.0258344160648676,0.005179,-0.001073,0.006861,0.212380,0.011418,328.879798,22.920233,0.999445,0.982272,0.005293,0.316610,-0.000010,-0.000021,-0.000007,-0.000006,-0.000025,-26.067724,0.000032,
2341,2233,1.87711142976302,-8.99516882592393,0.012659253418974,0.004816,0.000250,-0.000234,0.221547,0.050423,327.560842,23.203588,0.998518,0.978937,0.005774,0.433089,-0.000016,-0.000006,0.000001,-0.000006,-0.000016,84.479011,0.000023,
2296,3178,0.724079765490622,11.5917507624945,0.0345788823098587,0.005106,-0.000621,0.005444,0.216647,0.009436,312.400361,25.333733,0.999684,0.992894,0.003410,0.388634,0.000002,0.000025,0.000009,0.000028,-0.000001,71.610781,0.000032,
2386,2353,2.83565055867064,-6.36872643910196,0.00348871778618332,0.005093,-0.000549,0.002892,0.222840,0.019514,325.563352,23.272269,0.998958,0.982090,0.005172,0.484433,0.000002,0.000007,0.000002,0.000008,0.000001,73.787463,0.000010,
2356,2083,2.23382993755257,-12.284595921223,0.0263288367264067,0.005323,-0.000823,0.007325,0.217614,0.045840,330.091517,22.790775,0.999478,0.981724,0.005096,0.353164,0.000003,-0.000017,0.000019,0.000015,-0.000028,30.615646,0.000028,
2191,2638,-1.4643789773254,-0.148803457414061,-0.0170498451935259,0.005728,-0.000476,0.002270,0.256130,0.001387,321.027488,24.272465,0.999477,0.988787,0.004213,0.452590,-0.000008,0.000001,0.000005,0.000003,-0.000010,66.562837,0.000010,
2356,2203,2.21013512353203,-9.65238712866324,0.0109354712625418,0.005420,-0.000873,0.006538,0.224969,0.027592,328.035806,23.062364,0.999083,0.982461,0.005230,0.397967,-0.000013,-0.000008,-0.000004,-0.000006,-0.000016,-60.621537,0.000022,
2416,2608,3.43826064903351,-0.794205136293115,-0.023879908289075,0.005294,-0.000548,0.001876,0.235917,0.017080,321.241939,24.058888,0.999458,0.989093,0.004131,0.422468,0.000013,-0.000002,0.000004,0.000014,-0.000003,14.455252,0.000015,
2341,2128,1.89719017840239,-11.2969581040233,0.019268848668105,0.004907,-0.000205,0.001704,0.218665,0.013159,329.306978,22.978184,0.999503,0.986583,0.004685,0.345582,-0.000011,-0.000014,0.000007,-0.000005,-0.000020,38.614094,0.000027,
2281,3103,0.411239170757614,9.96488366156901,0.0129258886336174,0.005460,-0.000343,0.001054,0.247962,0.020239,313.496443,25.118848,0.999659,0.992864,0.003521,0.412456,-0.000001,0.000016,0.000000,0.000016,-0.000001,89.639339,0.000018,
2176,2593,-1.78343065668988,-1.1297841719998,-0.0153380474066012,0.005377,-0.001062,0.005200,0.230782,-0.001919,321.793531,24.274692,0.999149,0.987615,0.004355,0.419006,-0.000015,0.000001,0.000000,0.000001,-0.000015,89.777081,0.000017,
2146,2458,-2.41353673714225,-4.07354989995318,-0.0158351688890548,0.005467,-0.000086,0.003753,0.239932,0.061035,324.089466,24.290873,0.999339,0.987449,0.004604,0.420095,-0.000023,0.000005,-0.000011,0.000009,-0.000027,-70.849656,0.000027,
2311,3223,1.04218370455597,12.5681577785166,0.0381106134155402,0.005400,-0.000437,0.002062,0.241707,0.018202,311.702980,25.439810,0.999609,0.993332,0.003244,0.453109,0.000001,0.000035,0.000013,0.000039,-0.000004,70.913296,0.000044,
2326,3283,1.35346229814204,13.8726677794902,-0.00211825866148274,0.005426,-0.000630,0.003264,0.238647,0.003669,310.366625,25.674640,0.999639,0.994629,0.002945,0.411185,-0.000004,0.000041,0.000013,0.000045,-0.000008,75.398522,0.000048,
2416,2503,3.45925151910373,-3.08700824486233,-0.0179027238297067,0.005328,-0.000595,0.003887,0.229904,-0.005306,322.991974,23.717877,0.999516,0.989740,0.004135,0.400183,0.000018,-0.000025,0.000001,0.000018,-0.000025,1.135099,0.000026,
2386,2368,2.83186512785977,-6.03946565201426,-0.0012770923128187,0.004912,-0.000870,0.007081,0.199452,0.014652,325.256893,23.381810,0.998874,0.982851,0.005110,0.415222,0.000005,0.000007,0.000009,0.000015,-0.000003,48.162022,0.000016,
2236,2848,-0.523480978884038,4.42530999296983,-0.0229971657790884,0.005277,-0.000537,0.003698,0.230767,0.025187,317.421112,24.581216,0.999458,0.991123,0.003720,0.433986,0.000011,0.000011,0.000019,0.000030,-0.000008,45.322114,0.000031,
2371,2173,2.54381772587271,-10.3128779003292,0.0218657260450641,0.004853,-0.001037,0.004630,0.205410,-0.006891,328.598848,22.788045,0.999309,0.982435,0.005237,0.474526,-0.000012,-0.000016,-0.000009,-0.000005,-0.000023,-37.707733,0.000030,
2296,3193,0.72170802171583,11.9173535674481,0.0329550290938414,0.005515,-0.000442,0.004084,0.240221,0.018614,312.164346,25.371506,0.999712,0.992665,0.003400,0.388767,0.000003,0.000028,0.000012,0.000033,-0.000002,67.831509,0.000036,
2356,2098,2.22995713089903,-11.9547667999855,0.0184200177340585,0.004889,-0.000942,0.007246,0.198018,0.027304,329.764351,22.829058,0.999402,0.980702,0.005275,0.338867,-0.000001,-0.000013,0.000010,0.000005,-0.000019,29.816864,0.000020,
2356,2218,2.20808949674305,-9.32423655774046,0.0155533300799107,0.005650,-0.000614,0.003951,0.244717,0.039538,327.851997,23.095178,0.998596,0.979021,0.005774,0.418051,-0.000012,-0.000007,-0.000009,-0.000001,-0.000019,-52.097257,0.000022,
2311,3238,1.03848086380584,12.8947168587355,0.0295784411309228,0.005267,-0.000188,0.003995,0.229122,0.034429,311.372176,25.531614,0.999477,0.992381,0.003387,0.408296,0.000000,0.000037,0.000012,0.000040,-0.000004,73.474582,0.000044,
2326,3298,1.35056213124673,14.197392021412,-0.00040152511968472,0.005344,-0.000539,0.005067,0.228716,0.019359,310.124831,25.672993,0.999696,0.994908,0.002932,0.461321,-0.000009,0.000030,0.000009,0.000032,-0.000011,77.048348,0.000033,
2146,2473,-2.41549100580377,-3.74758159997326,-0.00871013547794064,0.005371,0.000007,0.001972,0.240915,0.043244,323.908085,24.256111,0.999384,0.986617,0.004815,0.445995,-0.000021,-0.000002,-0.000007,0.000000,-0.000023,-71.963670,0.000026,
2371,2263,2.52588436456874,-8.33705422654911,0.00618399181058749,0.005266,-0.000440,0.003647,0.228152,0.034700,327.035765,23.212005,0.999422,0.986225,0.004726,0.354282,-0.000010,-0.000016,-0.000013,0.000001,-0.000026,-38.741229,0.000030,
2416,2518,3.45690361337777,-2.76029942181724,-0.0100178761517782,0.005345,-0.000351,0.004570,0.228334,0.027336,322.812932,23.724636,0.999386,0.987694,0.004431,0.474758,0.000019,-0.000021,-0.000003,0.000019,-0.000021,-4.320070,0.000023,
2401,2248,3.18392627944584,-8.66786797155578,0.0136542871100573,0.005108,-0.000760,0.006671,0.209508,0.029403,327.347478,22.910892,0.999207,0.983233,0.005222,0.468699,-0.000016,-0.000007,-0.000015,0.000004,-0.000027,-53.472220,0.000029,
2446,2668,4.0811123411122,0.51491920066011,-0.0144742840044501,0.005636,-0.000277,0.003324,0.246186,0.031088,320.403042,24.251357,0.999498,0.989055,0.004120,0.423740,0.000019,0.000019,-0.000010,0.000029,0.000010,-44.461463,0.000040,
2296,3208,0.718476669674505,12.2429644632562,0.0287889047305612,0.005259,0.000010,0.002815,0.232936,0.037273,311.876075,25.390015,0.999765,0.994018,0.003115,0.417819,0.000004,0.000025,0.000015,0.000033,-0.000003,63.026717,0.000036,
2236,2863,-0.52575637739255,4.75128464286067,-0.0121367620965884,0.005178,-0.000406,0.007967,0.212446,0.047996,317.249189,24.642919,0.999412,0.990739,0.003696,0.415602,0.000009,0.000010,0.000011,0.000021,-0.000002,45.736009,0.000023,
2281,3118,0.407702957337087,10.29065114237,0.01557974640059,0.004967,-0.000535,0.007927,0.202108,0.017784,313.227302,25.191456,0.999786,0.994472,0.003164,0.363908,0.000000,0.000017,0.000002,0.000017,0.000000,82.197336,0.000020,
2206,2743,-1.15731612822336,2.13973678140356,-0.0208752162284895,0.005261,-0.000605,0.007414,0.218329,0.010367,319.209199,24.472702,0.999480,0.990522,0.003928,0.370297,-0.000008,0.000003,-0.000007,0.000006,-0.000012,-64.127480,0.000012,
2446,2758,4.06163737381734,2.47689258885281,-0.0269785822551398,0.005335,-0.000706,0.005191,0.225357,0.003946,318.811454,24.528023,0.999556,0.989561,0.004017,0.435010,0.000007,0.000014,-0.000003,0.000016,0.000006,-69.394374,0.000022,
2191,2653,-1.46751947596013,0.178525443235614,-0.0172636207597066,0.005356,-0.000719,0.005197,0.229856,0.015170,320.755911,24.321488,0.999501,0.989796,0.004070,0.432602,-0.000009,0.000001,0.000004,0.000003,-0.000011,71.053481,0.000011,
2341,2143,1.89327086370264,-10.9665952242278,0.00717173997912823,0.005205,-0.000822,0.008026,0.210135,0.043992,328.955374,22.989035,0.999191,0.983799,0.005140,0.405595,-0.000015,-0.000013,0.000005,-0.000009,-0.000019,49.245493,0.000029,
2221,2788,-0.838124935174068,3.11840352807377,-0.0128292154295195,0.005205,-0.000287,0.001090,0.235940,0.014020,318.523428,24.476518,0.999512,0.990794,0.003911,0.431588,-0.000005,0.000009,0.000006,0.000011,-0.000007,69.299662,0.000011,
2161,2503,-2.09499583671066,-3.09201711110902,-0.0233249343243074,0.005623,-0.000921,0.005058,0.242665,0.003384,323.247182,24.214262,0.999073,0.985050,0.004903,0.435947,-0.000024,-0.000004,-0.000006,-0.000003,-0.000026,-74.636760,0.000032,
2431,2608,3.7657721322765,-0.794727759159642,-0.017351343379687,0.005471,-0.000569,0.003189,0.239048,0.014688,321.322091,24.009832,0.999445,0.987804,0.004335,0.453418,0.000021,0.000000,-0.000001,0.000021,0.000000,-3.021584,0.000024,
2251,3013,-0.224771341027935,8.00897176095014,0.0122134208353941,0.005211,-0.000599,0.008128,0.213235,0.030917,314.977234,24.849007,0.999344,0.990309,0.003897,0.442691,-0.000005,0.000006,-0.000003,0.000007,-0.000006,-77.685202,0.000007,
2386,2218,2.86305587146429,-9.32401793178524,0.0179672257584116,0.005473,-0.000597,0.004612,0.233896,0.021765,327.877310,23.030703,0.998972,0.979771,0.005665,0.318328,-0.000012,-0.000005,-0.000016,0.000007,-0.000025,-51.165158,0.000026,
2341,1993,1.92331942246028,-14.261148639045,0.0321127023789245,0.005138,-0.000969,0.005645,0.215100,0.005770,331.583914,22.661930,0.998614,0.977551,0.006169,0.293916,-0.000002,-0.000071,-0.000026,0.000007,-0.000080,-18.420376,0.000089,
2311,3253,1.03506167576852,13.2202314779546,0.0218823003874604,0.005379,-0.000456,0.006246,0.226507,0.029710,311.058871,25.557560,0.999523,0.992307,0.003412,0.408235,-0.000002,0.000040,0.000015,0.000045,-0.000006,72.566222,0.000049,
2146,2488,-2.41867341545875,-3.4205528439112,-0.0136288691629147,0.005133,-0.000860,0.004425,0.222301,0.011439,323.606535,24.226285,0.999226,0.986018,0.004792,0.453176,-0.000020,-0.000003,-0.000008,0.000000,-0.000023,-67.134124,0.000027,
2296,3223,0.715551659635551,12.5670815302466,0.0296498101138241,0.005155,-0.000281,0.004497,0.222376,0.031861,311.627411,25.327885,0.999833,0.995068,0.002896,0.503218,0.000005,0.000034,0.000014,0.000040,-0.000001,67.370677,0.000045,
2371,2278,2.52409823570347,-8.00990524884081,0.0218194272374603,0.005129,-0.000569,0.003709,0.221618,0.013039,326.917553,23.318463,0.999820,0.993715,0.003555,0.268755,-0.000010,-0.000009,-0.000014,0.000004,-0.000023,-46.772017,0.000025,
2281,3133,0.405858715587353,10.6149891234062,0.0203274930354951,0.005367,-0.000409,0.006025,0.226987,0.020116,313.046921,25.143725,0.999684,0.994299,0.003297,0.440860,-0.000003,0.000021,0.000005,0.000022,-0.000004,79.187643,0.000024,
2236,2878,-0.527496563827111,5.07608317506627,-0.00181296955673815,0.005170,-0.000339,0.005475,0.220183,0.034178,317.099508,24.631790,0.999579,0.991346,0.003602,0.433537,0.000006,0.000013,0.000008,0.000018,0.000000,55.996494,0.000021,
2386,2233,2.8600765978616,-8.99621219580091,0.0287442309108883,0.004888,-0.001054,0.009058,0.191038,0.034159,327.682059,23.100194,0.999253,0.983258,0.005446,0.306789,-0.000013,-0.000005,-0.000014,0.000006,-0.000024,-53.325716,0.000025,
2341,2008,1.92002837687975,-13.9317877674069,0.0341939708214909,0.004632,-0.001064,0.007507,0.185427,0.021575,331.330235,22.699899,0.998587,0.975454,0.006403,0.312222,0.000005,-0.000046,-0.000008,0.000007,-0.000048,-8.265591,0.000052,
2431,2623,3.76217514127606,-0.4672729687802,-0.0185799908233548,0.005072,-0.000814,0.004694,0.215111,0.011194,321.043823,24.073178,0.999533,0.988902,0.004097,0.437071,0.000021,0.000009,-0.000005,0.000023,0.000007,-18.524881,0.000031,
2161,2518,-2.09817839834629,-2.76420259497307,-0.0246987417276046,0.005213,-0.000827,0.007958,0.215045,0.021765,322.965223,24.249956,0.998943,0.985941,0.004841,0.430134,-0.000023,-0.000010,-0.000005,-0.000008,-0.000025,-70.508961,0.000034,
2191,2668,-1.47060650741116,0.506235813711839,-0.0214685492614421,0.004818,-0.000368,0.000899,0.218706,0.016324,320.465954,24.389560,0.999751,0.994366,0.003229,0.380648,-0.000007,0.000003,0.000000,0.000003,-0.000007,89.939626,0.000007,
2296,3238,0.712516622420729,12.8929201506959,0.0255930163217499,0.005140,-0.000246,0.003883,0.223794,0.034932,311.348544,25.391922,0.999705,0.993031,0.003267,0.470798,0.000006,0.000035,0.000013,0.000040,0.000001,69.104639,0.000047,
2311,3268,1.03208033528727,13.5456989947303,0.0130544845884515,0.005527,-0.000341,0.001980,0.247978,0.023616,310.760081,25.579038,0.999542,0.993245,0.003236,0.411547,-0.000004,0.000037,0.000014,0.000041,-0.000008,72.126321,0.000044,
2371,2293,2.52155655508983,-7.68203406851948,0.0223108560136325,0.005381,-0.000398,0.003371,0.234460,0.027136,326.692234,23.305977,0.999786,0.994217,0.003454,0.338491,-0.000005,0.000002,-0.000009,0.000008,-0.000011,-54.570613,0.000011,
2236,2893,-0.529814521082034,5.40192991257905,0.00289281652004547,0.005162,-0.000404,0.005439,0.219932,0.034912,316.894287,24.664604,0.999727,0.991589,0.003630,0.422143,0.000004,0.000018,0.000015,0.000028,-0.000005,57.803436,0.000029,
2281,3148,0.403873527276378,10.9396067910883,0.0310486503177572,0.005500,-0.000857,0.008309,0.225318,0.011337,312.889860,25.172401,0.999575,0.993059,0.003662,0.429888,-0.000004,0.000018,0.000007,0.000020,-0.000006,74.957316,0.000021,
2251,3028,-0.227492152758188,8.33524377693726,0.00631350786716212,0.005172,-0.000199,0.002251,0.230843,0.023848,314.700290,24.892335,0.999194,0.989470,0.004004,0.415034,-0.000004,0.000002,-0.000003,0.000003,-0.000006,-64.607886,0.000006,
2221,2803,-0.84140308439958,3.44573947034086,-0.0221512088172631,0.005416,-0.000442,0.004220,0.235613,0.019473,318.200857,24.510194,0.999405,0.989101,0.004126,0.422427,-0.000002,0.000006,0.000005,0.000008,-0.000005,62.930101,0.000009,
2386,2248,2.85606503557642,-8.66605421174573,0.00971189150232021,0.005194,-0.000870,0.008112,0.208510,0.036621,327.298193,23.092369,0.999236,0.983187,0.005285,0.363625,-0.000011,-0.000010,-0.000015,0.000004,-0.000025,-46.441813,0.000027,
2401,2263,3.18061070266135,-8.3370936824663,0.00521169369045538,0.005502,-0.001052,0.007941,0.222866,0.019192,327.047061,23.087732,0.999347,0.985778,0.004728,0.329818,-0.000017,-0.000010,-0.000020,0.000007,-0.000033,-50.104695,0.000035,
2431,2638,3.75900061502115,-0.139805935509429,-0.0207894092968672,0.004906,-0.000414,0.002926,0.214212,0.014441,320.780320,24.127389,0.999647,0.990455,0.003934,0.436873,0.000013,0.000014,-0.000007,0.000021,0.000006,-45.562414,0.000028,
2341,2023,1.91785070009455,-13.6031231478845,0.0317322360131698,0.005196,-0.000627,0.004412,0.222193,0.002461,331.105779,22.662953,0.998719,0.976568,0.006186,0.370118,-0.000001,-0.000032,0.000002,-0.000001,-0.000032,4.178689,0.000038,
2191,2683,-1.47217557624612,0.831485425967102,-0.0125666944517775,0.005278,-0.000479,0.002244,0.235653,0.017416,320.314345,24.344948,0.999680,0.993388,0.003389,0.441187,-0.000007,0.000012,-0.000004,0.000013,-0.000008,-77.415763,0.000013,
2236,2908,-0.532684072028676,5.72841841452821,-0.00239548851914151,0.005117,-0.000611,0.002629,0.226923,0.017120,316.612557,24.706667,0.999693,0.992194,0.003607,0.383026,0.000004,0.000016,0.000016,0.000027,-0.000008,55.239462,0.000028,
2281,3163,0.401120684693698,11.2656519105772,0.0305759409702659,0.005465,-0.000699,0.007564,0.226311,0.022441,312.640894,25.248063,0.999560,0.992007,0.003640,0.391722,-0.000001,0.000018,0.000007,0.000020,-0.000004,71.626190,0.000022,
2251,3043,-0.229522936513614,8.66089130551715,0.0123878637974713,0.005509,-0.000410,0.003933,0.240744,0.014403,314.515977,24.963982,0.999493,0.991373,0.003671,0.356106,-0.000004,0.000004,-0.000004,0.000006,-0.000006,-67.497134,0.000007,
2221,2818,-0.843489244745005,3.7713421383669,-0.00918072030344774,0.005246,-0.000756,0.007210,0.218098,0.017891,318.047907,24.566978,0.999593,0.990781,0.003847,0.382691,0.000003,0.000011,0.000014,0.000022,-0.000007,52.893343,0.000022,
2431,2653,3.75680814135999,0.186511619602975,-0.0116774565101423,0.005203,-0.000731,0.006069,0.216145,0.020798,320.614639,24.172768,0.999606,0.989867,0.004050,0.448321,0.000013,0.000021,-0.000004,0.000023,0.000011,-65.918544,0.000034,
2401,2278,3.1760594825633,-8.00649127530412,-0.0103387450054129,0.004986,-0.001004,0.006291,0.205253,0.003945,326.656549,23.188530,0.999763,0.993910,0.003467,0.262114,-0.000018,0.000001,-0.000017,0.000011,-0.000028,-58.822055,0.000029,
2191,2698,-1.47476595244289,1.15723426648355,-0.0122677497620316,0.005396,-0.000373,0.004877,0.232867,0.025047,320.071044,24.272769,0.999711,0.994599,0.003153,0.535764,-0.000007,0.000004,-0.000003,0.000005,-0.000008,-73.900488,0.000008,
2236,2923,-0.53588236819138,6.0538903836034,-0.00811468357630929,0.005288,-0.000581,0.007154,0.220143,0.026710,316.313756,24.629913,0.999685,0.992575,0.003549,0.490131,0.000000,0.000015,0.000012,0.000022,-0.000007,61.060295,0.000022,
2251,3058,-0.230671401536327,8.98470029851916,0.0286971251184127,0.005594,-0.000050,0.000098,0.257414,0.022487,314.424721,24.918406,0.999562,0.992617,0.003486,0.432293,-0.000006,0.000003,-0.000001,0.000004,-0.000006,-82.535848,0.000006,
2431,2668,3.75291026399411,0.516008907217717,-0.0266917841400414,0.005382,-0.000682,0.004538,0.230086,0.022845,320.257896,24.317303,0.999550,0.989727,0.004212,0.356530,0.000014,0.000020,-0.000006,0.000024,0.000010,-58.574728,0.000035,
2221,2833,-0.846209761954579,4.09679235031291,-0.00862475283673803,0.005096,-0.001009,0.007159,0.211304,0.003787,317.802166,24.531199,0.999456,0.990800,0.003808,0.422990,0.000005,0.000014,0.000020,0.000031,-0.000011,51.383163,0.000031,
2191,2713,-1.47851942887103,1.48605807118511,-0.0262212835248761,0.005233,-0.000817,0.005869,0.222112,0.007487,319.699515,24.397049,0.999386,0.990449,0.003846,0.408987,-0.000005,0.000007,-0.000003,0.000008,-0.000006,-75.418688,0.000008,
2401,2293,3.17328456153068,-7.67915604325334,-0.0091034009947748,0.005128,-0.000971,0.007603,0.207060,0.019657,326.426533,23.135546,0.999599,0.990590,0.003925,0.378447,-0.000012,0.000009,-0.000015,0.000017,-0.000020,-61.723470,0.000022,
2236,2938,-0.538331405014507,6.38036073376516,-0.00719529201393243,0.005254,-0.000408,0.004739,0.226438,0.018747,316.082933,24.714245,0.999588,0.992924,0.003486,0.418498,-0.000002,0.000021,0.000010,0.000025,-0.000006,69.187735,0.000027,
2431,2683,3.75024995783113,0.842569090445409,-0.0233409349520457,0.005461,-0.000390,0.005036,0.231985,0.037572,320.043765,24.337523,0.999506,0.989065,0.004190,0.401378,0.000015,0.000032,-0.000006,0.000034,0.000013,-72.743527,0.000048,
2251,3073,-0.234454140485905,9.31097321766329,0.0202044611756378,0.005467,-0.000335,0.005168,0.234874,0.028975,314.085704,24.944028,0.999546,0.991672,0.003617,0.435487,-0.000006,0.000011,0.000001,0.000011,-0.000006,87.229880,0.000011,
2221,2848,-0.849124883546043,4.42404872562651,-0.0168965235353653,0.005195,-0.000601,0.004518,0.224517,0.024665,317.501544,24.564806,0.999394,0.990800,0.003740,0.429399,0.000007,0.000011,0.000022,0.000031,-0.000013,47.707459,0.000031,
2401,2308,3.17070542309998,-7.35162229797317,-0.0107532753971213,0.005441,-0.000603,0.005715,0.228372,0.029861,326.191889,23.082293,0.999784,0.994076,0.003439,0.489517,-0.000007,0.000011,-0.000014,0.000019,-0.000014,-61.335101,0.000020,
2221,2863,-0.85174396163497,4.75039753295489,-0.0159590481847545,0.005204,-0.000524,0.005593,0.221554,0.032457,317.262059,24.601734,0.999431,0.991628,0.003562,0.418566,0.000007,0.000007,0.000013,0.000020,-0.000006,45.430359,0.000021,
2401,2323,3.16863681618871,-7.02442956756647,0.00989574537538829,0.004871,-0.000885,0.008429,0.192343,0.027878,326.085463,23.236564,0.999429,0.987362,0.004361,0.380256,-0.000010,0.000004,-0.000009,0.000008,-0.000015,-64.286395,0.000015,
