Image X[Pixel],Image Y[Pixel],X[mm],Y[mm],Z[mm],Horizontal Displacement U[mm],Vertical Displacement V[mm],Out-Of-Plane: W[mm],Horizontal: u[Pixel],Vertical: v[Pixel],Horizontal: q[Pixel],Vertical: r[Pixel],Correlation Value 2D,Correlation Value Persp,Sigma,Epipolar Distance,Strain-global frame: Exx,Strain-global frame: Eyy,Strain-global frame: Exy,Maximum Principal Strain: EI,Minimum Principal Strain: EII,Shear Angle Gamma,Von Mises Equivalent Strain,
2026,2083,-4.96934376758079,-12.2792922890165,0.0246884378628351,0.001816,-0.000525,0.001508,0.079060,-0.033981,330.899410,24.790982,0.999358,0.987637,0.004460,0.306747,0.000024,0.000048,0.000040,0.000078,-0.000006,53.407010,0.000087,
2026,2098,-4.97141702191058,-11.9503893825122,0.0275804276028566,0.001795,-0.000450,0.002175,0.076294,-0.014129,330.680002,24.819078,0.998988,0.982382,0.005248,0.291539,0.000025,0.000043,0.000037,0.000071,-0.000004,51.901916,0.000080,
2026,2113,-4.9738706016009,-11.6213114380134,0.0187743319196443,0.002237,-0.001011,0.005166,0.088231,-0.016965,330.378386,24.763649,0.998408,0.978390,0.005941,0.338050,0.000019,0.000036,0.000040,0.000069,-0.000014,51.210941,0.000073,
2026,2128,-4.97630741854745,-11.2912393215498,0.0100702804919024,0.002207,-0.000024,0.000076,0.101101,0.005414,330.077783,24.781384,0.998607,0.977945,0.006054,0.336148,0.000010,0.000027,0.000039,0.000058,-0.000022,51.054506,0.000059,
2026,2143,-4.97838612859737,-10.9643647230643,0.0171160176615786,0.002173,-0.000511,0.004828,0.086396,0.011245,329.881727,24.699767,0.998058,0.978247,0.006027,0.416693,0.000010,0.000056,0.000031,0.000072,-0.000006,63.561485,0.000080,
2026,2158,-4.9812332165333,-10.6336458147962,0.0130518879194028,0.001750,-0.000478,0.004376,0.068215,-0.007414,329.588273,24.878887,0.999201,0.986557,0.004729,0.212347,0.000011,0.000031,0.000011,0.000036,0.000007,65.785304,0.000045,
2026,2173,-4.98286648219658,-10.3068252130553,0.0176151669528508,0.001994,-0.000756,0.003787,0.080982,-0.030572,329.398961,24.804239,0.999145,0.989166,0.004374,0.256449,0.000016,0.000024,0.000012,0.000033,0.000007,54.442637,0.000042,
2026,2188,-4.98541271995738,-9.97754296633767,0.00872578593424578,0.001814,0.000227,-0.002252,0.089534,-0.008835,329.092536,24.772535,0.999092,0.987257,0.004711,0.303257,0.000011,0.000050,0.000021,0.000059,0.000002,66.641955,0.000069,
2026,2203,-4.98820141706743,-9.64798376342289,-0.00459581223640271,0.002024,0.000359,-0.002273,0.099294,0.003717,328.750400,24.735460,0.999070,0.985478,0.004970,0.346326,0.000010,0.000046,0.000021,0.000055,0.000000,65.751978,0.000064,
2026,2218,-4.99031959483699,-9.32074488287603,-0.000290658752646777,0.001971,-0.000014,-0.000158,0.090979,-0.004632,328.537428,24.697633,0.998783,0.981993,0.005351,0.368205,0.000019,0.000037,0.000022,0.000051,0.000005,56.448166,0.000062,
2071,2293,-4.02221442846545,-7.68083309981728,-0.0025411409977778,0.001795,-0.000215,-0.001000,0.085238,-0.000955,327.051042,24.445725,0.999796,0.993569,0.003720,0.403856,0.000016,0.000008,0.000005,0.000019,0.000006,27.340457,0.000026,
2041,2143,-4.65155653700234,-10.9654781243804,0.0232258656458839,0.001859,-0.001164,0.004028,0.073814,-0.037605,329.831185,24.646938,0.998106,0.981567,0.005901,0.337614,0.000001,0.000046,0.000021,0.000055,-0.000007,68.159374,0.000059,
2236,3118,-0.571555584449698,10.2866743453611,0.0152779075820604,0.001988,-0.000256,0.000284,0.090622,-0.005120,313.196696,24.995246,0.999557,0.992400,0.003617,0.356210,-0.000006,0.000005,-0.000008,0.000009,-0.000010,-62.775645,0.000012,
2086,2368,-3.70766397672908,-6.04233017468929,-0.00172836210111882,0.001705,-0.000929,0.003906,0.066807,-0.013956,325.754779,24.371872,0.998520,0.982202,0.005321,0.408428,0.000003,-0.000009,-0.000001,0.000003,-0.000009,-5.719686,0.000009,
2056,2218,-4.33658148915807,-9.32085915606064,0.0102391427473094,0.001874,0.000268,-0.000316,0.087047,0.026738,328.445649,24.637435,0.998531,0.982657,0.005253,0.315763,0.000010,0.000026,0.000007,0.000028,0.000007,69.912469,0.000037,
2371,2398,2.49610383512006,-5.38353212519102,-0.00372141295042638,0.001828,-0.000203,0.001088,0.079866,0.007428,324.621496,23.508229,0.999369,0.988090,0.004593,0.418740,0.000012,0.000012,-0.000005,0.000017,0.000006,-45.190287,0.000024,
2011,1993,-5.28282727451429,-14.2517351070497,0.027640150062382,0.001835,0.000500,-0.002775,0.091849,-0.000187,332.469911,24.965469,0.998964,0.982411,0.005223,0.308003,0.000013,-0.000074,0.000009,0.000014,-0.000075,5.971717,0.000079,
2116,2518,-3.07969792694991,-2.76599782232667,-0.0173302892919764,0.001735,-0.000788,0.003851,0.068150,-0.013732,323.062234,24.362254,0.999283,0.987545,0.004379,0.366909,0.000008,0.000001,-0.000001,0.000008,0.000001,-8.766060,0.000010,
2296,2023,0.931403230216585,-13.602614870816,0.0298084748319525,0.002005,-0.000514,0.002783,0.082225,-0.001347,330.969586,22.890980,0.998943,0.981975,0.005517,0.444692,-0.000025,-0.000040,-0.000035,0.000003,-0.000068,-39.088431,0.000077,
2341,2248,1.87029986481842,-8.66672029964095,0.00678124018543258,0.001934,-0.001402,0.008543,0.058421,-0.020424,327.107058,23.248974,0.998921,0.982765,0.005186,0.356708,-0.000011,-0.000020,-0.000003,-0.000010,-0.000021,-15.635325,0.000031,
2476,2923,4.67919711255297,6.07103879658249,-0.0204766994942815,0.001954,-0.000179,-0.000160,0.090274,-0.008640,316.100566,25.279721,0.999297,0.986484,0.004451,0.304495,-0.000003,0.000005,0.000000,0.000005,-0.000003,87.988521,0.000005,
2431,2698,3.7439087953882,1.16938403383393,-0.0227020637800024,0.001915,-0.000951,0.003434,0.074835,-0.035272,319.647910,24.451227,0.999792,0.991710,0.003685,0.264906,0.000017,0.000039,-0.000019,0.000050,0.000007,-59.931365,0.000062,
2326,2173,1.55737455812949,-10.3092109616922,0.015115062351299,0.001647,-0.000907,0.006105,0.054139,-0.013558,328.384757,23.251381,0.998978,0.980197,0.005292,0.244765,-0.000014,-0.000014,-0.000009,-0.000005,-0.000023,-45.848560,0.000030,
2266,3268,0.052365142436944,13.5407206792055,0.0158193636398209,0.002083,-0.000363,0.003571,0.084031,-0.006434,310.678060,25.309749,0.999668,0.993114,0.003355,0.403292,0.000002,0.000026,0.000006,0.000027,0.000001,77.082341,0.000032,
2146,2668,-2.45134604430774,0.503571001154057,-0.0223641683575124,0.002207,-0.000119,-0.001718,0.106741,0.001569,320.504523,24.319804,0.999624,0.991820,0.003642,0.454057,0.000021,0.000021,0.000008,0.000029,0.000013,43.321927,0.000043,
2386,2473,2.80850105694102,-3.74367314789083,-0.00802456308394994,0.002086,-0.000864,0.003945,0.081197,-0.009471,323.380858,23.715464,0.999397,0.988987,0.004434,0.371683,0.000015,-0.000010,-0.000004,0.000015,-0.000010,-9.670891,0.000016,
2161,2743,-2.1385641913674,2.13762122495326,-0.0279763629037575,0.002100,-0.000551,0.002156,0.089875,-0.008700,319.166904,24.404987,0.999389,0.989316,0.004167,0.404413,0.000013,0.000004,0.000001,0.000013,0.000003,6.533928,0.000018,
2416,2623,3.43180401573349,-0.467788483832479,-0.0204444571059526,0.001759,-0.000878,0.005025,0.062028,-0.002104,320.853090,24.083239,0.999299,0.988321,0.004224,0.427161,0.000020,0.000013,-0.000010,0.000028,0.000006,-35.206215,0.000036,
2251,3193,-0.257943420999307,11.9129699404887,0.0383638629242569,0.002047,-0.000502,0.003376,0.083082,-0.008015,312.123484,25.172587,0.999564,0.992733,0.003385,0.346739,0.000002,0.000018,0.000000,0.000018,0.000002,88.564510,0.000022,
2311,2098,1.24467369585818,-11.9547083431662,0.0195402770211217,0.002095,-0.000902,0.003074,0.085114,-0.023634,329.668521,23.093776,0.999329,0.981657,0.005436,0.296010,-0.000018,0.000001,-0.000006,0.000003,-0.000020,-73.519956,0.000021,
2221,3043,-0.884680903495703,8.65876715781372,0.00761085182568877,0.001974,-0.000463,0.003518,0.079523,-0.001936,314.383129,24.854513,0.999734,0.993801,0.003189,0.350559,0.000004,0.000005,-0.000005,0.000009,0.000000,-47.376287,0.000011,
2356,2323,2.18305959100705,-7.0251401690848,0.00174620597374542,0.001555,-0.000732,0.004324,0.055813,-0.003903,325.851890,23.310420,0.999663,0.994765,0.003574,0.448548,-0.000010,-0.000007,-0.000005,-0.000004,-0.000014,-53.128246,0.000018,
2131,2593,-2.76582346906298,-1.12987130949591,-0.024337918821459,0.001901,-0.000239,0.002112,0.081104,0.024930,321.738015,24.333299,0.999457,0.990396,0.004134,0.439047,0.000007,0.000016,0.000012,0.000025,-0.000002,54.835804,0.000028,
2011,2008,-5.28588917974108,-13.9215941969101,0.0203119627154251,0.001774,-0.000797,0.004216,0.069789,-0.017296,332.147010,24.995077,0.998954,0.984286,0.005047,0.253507,0.000031,-0.000075,0.000020,0.000035,-0.000079,10.547284,0.000079,
2056,2233,-4.33944055162177,-8.99238691310219,0.00224708736260482,0.001834,-0.000249,0.000742,0.082065,0.001469,328.133401,24.606743,0.999198,0.988471,0.004548,0.318550,0.000010,0.000027,0.000007,0.000029,0.000008,71.062820,0.000039,
2026,2233,-4.99280737271271,-8.99188145113882,0.00240381328160311,0.001829,-0.000621,0.004790,0.070720,0.004812,328.298224,24.778328,0.999394,0.986350,0.004674,0.289842,0.000028,0.000034,0.000017,0.000048,0.000014,49.962919,0.000064,
2041,2158,-4.65482908852365,-10.6332653691443,0.00395773101661234,0.002095,-0.000931,0.005669,0.080169,-0.013248,329.435278,24.757254,0.999265,0.987581,0.004695,0.247792,-0.000001,0.000027,-0.000001,0.000027,-0.000001,-88.943190,0.000031,
2401,2548,3.12070054831654,-2.10581586613298,-0.011137785947767,0.001954,-0.000796,0.002619,0.079856,-0.018218,322.150257,23.868611,0.999378,0.989685,0.004502,0.407403,0.000016,-0.000010,-0.000011,0.000020,-0.000014,-20.520079,0.000021,
2491,2998,4.99191431466002,7.70069149032373,0.0017811504455949,0.001836,-0.000439,0.002579,0.074271,-0.010293,315.083281,25.539613,0.999530,0.988711,0.003971,0.364814,0.000015,0.000045,0.000033,0.000066,-0.000006,57.332809,0.000073,
2506,3073,5.30297489991469,9.33128973691454,0.003427082662256,0.001938,-0.000497,0.004872,0.070029,0.002737,313.906731,25.828160,0.999643,0.992166,0.003872,0.432751,0.000027,0.000048,0.000037,0.000076,0.000000,52.992639,0.000087,
2461,2848,4.36656818955714,4.43823411863043,-0.0314174484057048,0.001944,-0.000677,0.003848,0.074545,-0.000865,317.184512,24.899607,0.999726,0.993405,0.003315,0.391370,0.000000,0.000034,-0.000014,0.000039,-0.000006,-70.125745,0.000042,
2011,2023,-5.28768076249576,-13.5934890945354,0.0187975312779827,0.002030,-0.000294,0.001252,0.089721,-0.027297,331.914818,24.904264,0.998638,0.983677,0.005256,0.326004,0.000024,-0.000101,0.000012,0.000025,-0.000102,5.563016,0.000106,
2371,2413,2.49346836222442,-5.05526206397823,-0.00311449383303852,0.001965,-0.000412,0.000453,0.088360,-0.009138,324.392003,23.606035,0.999545,0.988960,0.004369,0.346852,0.000010,0.000015,0.000001,0.000015,0.000010,81.210947,0.000025,
2071,2308,-4.02545885832837,-7.3514611786761,-0.0135356423626263,0.001601,-0.000112,0.000019,0.073482,-0.010190,326.706035,24.481123,0.999801,0.993328,0.003845,0.358508,0.000014,-0.000005,0.000001,0.000014,-0.000005,2.877937,0.000014,
2071,2323,-4.02663691538683,-7.02527261030809,-7.67484942798546E-05,0.002061,-0.000546,0.002931,0.086168,-0.010206,326.589612,24.465079,0.999245,0.988164,0.004511,0.372865,0.000009,-0.000021,-0.000003,0.000010,-0.000022,-5.299410,0.000022,
2026,2248,-4.99438025664879,-8.66489251594916,-0.000520961026722944,0.002367,-0.000291,0.000460,0.107405,-0.011094,328.070100,24.660341,0.999392,0.987429,0.004494,0.384516,0.000024,0.000029,0.000008,0.000035,0.000018,53.184640,0.000054,
2131,2608,-2.76772637881509,-0.803698593646786,-0.0200953484356319,0.002099,-0.000532,0.001186,0.092834,-0.024440,321.542712,24.362713,0.999468,0.989679,0.004240,0.366465,0.000010,0.000016,0.000014,0.000028,-0.000001,50.869081,0.000031,
2146,2683,-2.45477361591098,0.831000949563162,-0.0256866130048365,0.001948,-0.000910,0.005354,0.073111,-0.017907,320.199817,24.394446,0.999399,0.990898,0.003780,0.368336,0.000022,0.000024,0.000006,0.000028,0.000017,49.729972,0.000046,
2116,2533,-3.08237779260193,-2.43826737569828,-0.0219075571853864,0.001531,0.000192,0.000389,0.069308,0.016581,322.782355,24.353271,0.999252,0.985564,0.004689,0.410740,0.000004,0.000001,0.000007,0.000010,-0.000005,40.138497,0.000010,
2356,2338,2.18048643904181,-6.69573368099488,0.00265643646008584,0.001924,-0.001057,0.006449,0.065133,-0.009010,325.625564,23.478158,0.999344,0.989746,0.004346,0.316227,-0.000009,-0.000011,-0.000004,-0.000005,-0.000014,-36.614014,0.000021,
2326,2188,1.55580174238955,-9.98266566641399,0.0222342562535687,0.001937,-0.000706,0.001327,0.083919,-0.037956,328.232991,23.189627,0.999156,0.982543,0.005160,0.318856,-0.000016,-0.000011,-0.000012,-0.000001,-0.000026,-51.185976,0.000031,
2011,2053,-5.2928120352576,-12.9350176343479,0.0186585721951928,0.001579,-0.001232,0.007474,0.051893,-0.002298,331.395405,24.933178,0.999339,0.991839,0.003890,0.305426,0.000023,-0.000061,-0.000005,0.000023,-0.000061,-3.193586,0.000062,
2446,2773,4.05508769390077,2.80321345370407,-0.0312917048253212,0.001756,-0.000777,0.000549,0.078253,-0.032765,318.383861,24.544237,0.999542,0.988735,0.004221,0.434311,0.000012,0.000032,-0.000004,0.000033,0.000011,-79.097317,0.000046,
2476,2938,4.67624901289583,6.39622071688008,-0.0138721926964536,0.001676,-0.000579,0.001949,0.069329,-0.022371,315.890175,25.295599,0.999407,0.989306,0.004016,0.330738,-0.000004,0.000006,0.000002,0.000007,-0.000004,77.589584,0.000007,
2041,2203,-4.661565268763,-9.64891478876543,0.00389800299541321,0.001749,-0.000197,0.001061,0.077310,0.008977,328.709730,24.669886,0.998683,0.983288,0.005234,0.342557,-0.000009,0.000033,0.000010,0.000035,-0.000011,77.062459,0.000036,
2386,2488,2.80532114427331,-3.41606079693184,-0.00724920843151722,0.001887,-0.000844,0.005852,0.065280,0.006007,323.128067,23.747596,0.999456,0.988992,0.004259,0.399375,0.000023,-0.000011,-0.000005,0.000023,-0.000012,-8.307352,0.000023,
2311,2113,1.24222860759904,-11.6269943287085,0.0260825029844227,0.001950,-0.000777,0.003804,0.076054,-0.013207,329.472820,23.073145,0.999223,0.981939,0.005341,0.362256,-0.000019,-0.000003,-0.000007,-0.000001,-0.000022,-69.530296,0.000025,
2056,2278,-4.3461726341551,-8.0068337608222,-0.00317162909516355,0.002225,-0.000182,0.000628,0.100400,-0.011784,327.382508,24.689914,0.999694,0.991624,0.004010,0.213145,0.000003,0.000012,0.000019,0.000027,-0.000012,51.819009,0.000027,
2086,2383,-3.71061373390862,-5.71307944725204,-0.00955413065349831,0.001387,-0.000588,0.000684,0.061585,-0.000831,325.441951,24.433822,0.998438,0.982513,0.005287,0.360670,0.000000,-0.000011,-0.000002,0.000000,-0.000011,-8.732542,0.000013,
2281,1993,0.609360742473822,-14.2587837406224,0.0313785000710141,0.002080,-0.000197,0.001605,0.089799,-0.001403,331.486239,23.143812,0.999336,0.969119,0.006752,0.230611,-0.000013,-0.000041,-0.000053,0.000028,-0.000081,-37.554114,0.000082,
2146,2713,-2.46007067842079,1.48454970878802,-0.0282732195079234,0.001849,-0.000886,0.006456,0.065253,-0.008824,319.683518,24.423340,0.999530,0.991536,0.003872,0.364904,0.000025,0.000009,0.000004,0.000025,0.000008,12.871444,0.000035,
2506,3088,5.30087226889602,9.65727083335651,0.00898288613251452,0.002025,-0.000219,-0.000241,0.093964,-0.002576,313.731304,25.937522,0.999714,0.993152,0.003393,0.378199,0.000039,0.000052,0.000040,0.000086,0.000005,49.586152,0.000103,
2191,2893,-1.51116690219833,5.40042763547568,-0.0120886252267951,0.002037,-0.000303,0.000955,0.090724,-0.005391,316.760099,24.615512,0.999803,0.995298,0.003052,0.349988,-0.000001,0.000019,0.000001,0.000019,-0.000001,87.143103,0.000021,
2161,2788,-2.14570290740535,3.11689600973941,-0.0270447832469358,0.002251,-0.000230,-0.000445,0.104935,-0.003355,318.458560,24.461001,0.999487,0.991418,0.003883,0.383994,0.000007,0.000008,-0.000001,0.000009,0.000006,-50.686990,0.000015,
2206,2968,-1.19728769008143,7.03012861418876,-0.00130835818498554,0.002234,-0.000020,-0.001110,0.106468,0.017031,315.599300,24.719930,0.999416,0.991640,0.003689,0.375701,0.000000,0.000023,0.000005,0.000024,-0.000001,78.407529,0.000027,
2476,2953,4.67385014371462,6.72185513362388,-0.0105764959904491,0.001927,-0.000564,0.000494,0.086423,-0.017842,315.689822,25.314931,0.999349,0.989114,0.004097,0.372085,0.000008,0.000013,0.000011,0.000021,0.000000,50.713329,0.000024,
2041,2218,-4.66377247991367,-9.32067611821371,0.0029414646899113,0.001825,0.000232,0.001058,0.080966,0.035587,328.464372,24.633528,0.998171,0.977251,0.005819,0.400492,0.000000,0.000028,0.000014,0.000034,-0.000006,67.309405,0.000037,
2071,2338,-4.02848522478061,-6.69837593019432,0.0053919885489222,0.002035,-0.000514,0.000783,0.091124,-0.020472,326.398852,24.448630,0.998833,0.986281,0.004752,0.377545,0.000000,-0.000021,-0.000004,0.000000,-0.000022,-10.683166,0.000025,
2176,2833,-1.82832069027166,4.09661341281968,-0.0349490480306258,0.002199,-0.000723,0.003776,0.089336,-0.009204,317.592541,24.489180,0.999625,0.993897,0.003437,0.398134,0.000007,0.000017,0.000004,0.000018,0.000006,71.910078,0.000025,
2236,3133,-0.574687907975633,10.6125089964215,0.0121035522483339,0.001759,-0.000076,0.000488,0.079475,0.008381,312.913369,25.025051,0.999633,0.992935,0.003602,0.360121,-0.000009,0.000005,-0.000007,0.000007,-0.000012,-68.517499,0.000012,
2251,3208,-0.260696538485952,12.2377643509096,0.037308719279622,0.001846,-0.000705,0.000382,0.083621,-0.021555,311.869769,25.164751,0.999734,0.995356,0.003022,0.362969,0.000003,0.000018,0.000004,0.000019,0.000002,77.201800,0.000023,
2296,2038,0.929062704837044,-13.2718294721982,0.0356229984495258,0.001886,-0.000307,0.001734,0.080388,-0.009650,330.773969,23.134923,0.999248,0.984130,0.005039,0.225660,-0.000020,-0.000047,-0.000026,-0.000005,-0.000063,-31.105819,0.000075,
2206,2983,-1.20029374647707,7.35606057502825,-0.00274866340168956,0.002081,-0.000284,0.001060,0.092467,0.005329,315.328646,24.753737,0.999435,0.992019,0.003601,0.346318,-0.000001,0.000023,0.000005,0.000024,-0.000002,79.576213,0.000027,
2161,2758,-2.14135790675752,2.46344241152148,-0.0216172663172642,0.001627,-0.000845,0.005734,0.057026,-0.009841,318.943866,24.414557,0.999107,0.986994,0.004365,0.403634,0.000011,0.000002,-0.000002,0.000012,0.000002,-10.153700,0.000015,
2416,2638,3.42921415654855,-0.140071221893294,-0.017633403723039,0.001856,-0.000655,0.004535,0.068319,-0.006742,320.638624,24.210654,0.999391,0.988770,0.004196,0.343510,0.000020,0.000020,-0.000017,0.000037,0.000003,-45.055640,0.000045,
2056,2293,-4.34837440933632,-7.68141517186913,0.00505004677876286,0.001851,-0.000446,0.001910,0.079516,-0.014655,327.189900,24.544701,0.999876,0.994379,0.003468,0.351786,0.000013,0.000013,0.000016,0.000029,-0.000004,45.086465,0.000032,
2041,2173,-4.65678636436943,-10.3068897782702,0.0146295455501217,0.001781,-0.000961,0.006980,0.062134,-0.018338,329.266009,24.689776,0.999197,0.989163,0.004414,0.304975,0.000000,0.000016,0.000002,0.000016,0.000000,84.316822,0.000018,
2056,2248,-4.34150261658294,-8.66518098112235,0.00402026923001131,0.001908,-0.000558,0.000539,0.085959,-0.042486,327.911517,24.585359,0.999135,0.985954,0.004772,0.292787,0.000004,0.000021,0.000002,0.000021,0.000004,84.999437,0.000027,
2011,2068,-5.29435229980538,-12.6078594223689,0.0246442441068666,0.001658,-0.001015,0.004663,0.063213,-0.035336,331.216948,24.878917,0.999399,0.991510,0.003892,0.317795,0.000029,-0.000008,0.000005,0.000030,-0.000009,7.306867,0.000031,
2281,2008,0.606705026869403,-13.930008940617,0.0310719649237967,0.002084,-0.000220,0.001088,0.091687,0.012746,331.244843,23.102064,0.999310,0.983221,0.005233,0.317890,-0.000007,-0.000044,-0.000040,0.000018,-0.000069,-32.453825,0.000072,
2086,2398,-3.71242075723354,-5.38590965782124,-0.00832513573158167,0.001767,-0.000401,-0.000392,0.082236,0.002079,325.231036,24.408195,0.998832,0.984591,0.004912,0.389731,-0.000001,-0.000015,-0.000001,-0.000001,-0.000015,-4.774964,0.000018,
2026,2068,-4.96659438149085,-12.6086662951858,0.0301550443560927,0.002031,-0.000297,0.001168,0.089934,-0.015129,331.195966,24.778912,0.999740,0.992733,0.003544,0.343763,0.000026,0.000013,0.000039,0.000059,-0.000020,40.078304,0.000060,
2146,2728,-2.46203116071702,1.81016392597706,-0.0202583074467384,0.001751,-0.000508,0.005225,0.064574,-0.004236,319.506590,24.413026,0.999485,0.990129,0.004050,0.387582,0.000022,0.000008,0.000003,0.000023,0.000007,12.712075,0.000031,
2491,3013,4.98871387628585,8.02717624449384,-6.83797867964131E-05,0.002005,-0.000600,0.004264,0.075529,-0.013411,314.823227,25.625288,0.999686,0.992701,0.003400,0.334024,0.000011,0.000048,0.000035,0.000069,-0.000010,59.018022,0.000075,
2356,2353,2.1783928337953,-6.36924170798606,-0.00156545317440759,0.002414,0.000071,-0.000770,0.113406,-0.006173,325.396941,23.325970,0.999389,0.989930,0.004436,0.512128,-0.000006,0.000000,0.000001,0.000001,-0.000006,77.566033,0.000007,
2116,2548,-3.08507069155503,-2.11124290579102,-0.0272176062448466,0.001671,-0.000259,0.001658,0.071881,0.009992,322.498239,24.315340,0.999252,0.987393,0.004476,0.446420,0.000004,0.000010,0.000010,0.000017,-0.000004,53.400675,0.000018,
2026,2263,-4.99672190037327,-8.33583187254865,-0.000372969911666132,0.002197,-0.000319,-0.000103,0.101114,-0.023463,327.823505,24.764838,0.998907,0.983153,0.005021,0.260119,0.000020,0.000012,0.000016,0.000033,-0.000001,37.680083,0.000037,
2251,3238,-0.265760210097095,12.8870816074406,0.0416294561728137,0.001971,-0.000426,0.001966,0.084241,-0.012957,311.415382,25.136524,0.999789,0.996009,0.002829,0.443875,0.000002,0.000017,0.000006,0.000019,0.000000,70.656945,0.000022,
2476,2968,4.67139298504002,7.04837005989213,-0.00469956414139006,0.001886,-0.000179,-0.001223,0.091252,-0.003231,315.498200,25.426910,0.999471,0.990558,0.003917,0.330756,0.000012,0.000020,0.000022,0.000038,-0.000007,49.990403,0.000041,
2176,2818,-1.82570187105136,3.77078462458586,-0.0302455023875154,0.001841,-0.000431,0.002001,0.078421,-0.005207,317.864647,24.539273,0.999345,0.990691,0.003941,0.339852,0.000002,0.000014,0.000001,0.000014,0.000002,84.094731,0.000018,
2461,2863,4.36411464930358,4.76445758851956,-0.0276339102978795,0.001950,-0.000391,0.000816,0.086373,-0.001729,316.983174,24.959056,0.999540,0.991375,0.003635,0.384867,0.000002,0.000032,-0.000011,0.000035,-0.000002,-72.438693,0.000040,
2191,2908,-1.51368048250944,5.7245232913465,-0.00493069732635831,0.001815,-0.000614,0.004113,0.070523,-0.003611,316.556329,24.507837,0.999806,0.995096,0.003116,0.473448,0.000000,0.000012,0.000000,0.000012,0.000000,89.508180,0.000014,
2026,2308,-5.00436642496794,-7.35235413012614,-0.00380832049808077,0.001715,-0.001113,0.005305,0.063916,-0.031591,327.034629,24.703696,0.998889,0.984235,0.004999,0.290481,0.000030,0.000005,0.000009,0.000033,0.000002,18.751676,0.000039,
2071,2383,-4.03652954151286,-5.71385812510438,-0.00185788608433768,0.001508,-0.000768,0.003083,0.060290,0.002718,325.582141,24.493598,0.998563,0.984489,0.005105,0.351986,-0.000007,-0.000013,-0.000006,-0.000003,-0.000017,-32.053529,0.000022,
2371,2428,2.49010319993466,-4.7283808198784,-0.00966151163879658,0.001874,-0.000301,-0.000713,0.088335,-0.010843,324.095019,23.499329,0.999733,0.992528,0.003960,0.494809,0.000013,0.000009,0.000001,0.000013,0.000009,15.881122,0.000022,
2401,2563,3.11694851643405,-1.77721081822258,-0.0173054212066859,0.001660,-0.000131,0.003193,0.064554,0.019576,321.839103,23.932681,0.999325,0.987786,0.004440,0.427967,0.000016,-0.000011,-0.000012,0.000021,-0.000016,-20.701703,0.000022,
2101,2443,-3.3930821054725,-4.4039936257674,-0.00302624511584781,0.001900,-0.000771,0.006108,0.069261,0.003319,324.463333,24.360670,0.999427,0.988213,0.004343,0.400946,-0.000009,-0.000011,-0.000006,-0.000004,-0.000017,-40.603090,0.000022,
2131,2638,-2.77168259958068,-0.151691779023949,-0.00287212864691355,0.001892,-0.000583,0.001105,0.083562,-0.013451,321.191603,24.367225,0.999780,0.992477,0.003471,0.385030,0.000017,0.000017,0.000010,0.000027,0.000007,44.387297,0.000036,
2161,2803,-2.14785805090503,3.44291078515835,-0.0228383388604811,0.002240,-0.000046,-0.001709,0.108366,-0.003370,318.253385,24.482486,0.999554,0.992103,0.003709,0.372452,0.000005,0.000002,-0.000002,0.000006,0.000001,-27.973703,0.000007,
2116,2563,-3.08715001017104,-1.78421117068834,-0.0233260435149418,0.001824,-0.000491,0.002787,0.075489,-0.009769,322.291620,24.377540,0.999231,0.987836,0.004529,0.368765,0.000007,0.000013,0.000011,0.000022,-0.000001,51.995111,0.000024,
2026,2278,-4.99916068356899,-8.00893902309541,0.000924929077598335,0.001758,-0.000268,-0.002181,0.086652,-0.023019,327.579305,24.675559,0.998602,0.983982,0.005160,0.342326,0.000022,0.000023,0.000019,0.000041,0.000004,45.613639,0.000050,
2431,2713,3.74183685576036,1.49461729900109,-0.0151622572459473,0.002103,-0.000551,0.002285,0.087855,-0.019631,319.480422,24.390892,0.999736,0.991522,0.003720,0.390984,0.000013,0.000040,-0.000015,0.000047,0.000006,-66.065834,0.000058,
2311,2128,1.23924333882182,-11.2966648125303,0.0245774056899677,0.001610,-0.000731,0.000800,0.070758,-0.049300,329.212867,23.255087,0.999146,0.983158,0.005224,0.179436,-0.000016,0.000001,-0.000007,0.000004,-0.000019,-69.692042,0.000020,
2056,2308,-4.35046369573865,-7.3534500408164,0.00476941307061907,0.002070,-0.000462,0.002271,0.088596,-0.011429,326.955176,24.545022,0.999650,0.991126,0.004054,0.351431,0.000012,-0.000002,0.000013,0.000020,-0.000009,31.039418,0.000020,
2026,2323,-5.00598231823271,-7.02533207936768,-0.00214289131019996,0.001996,-0.000862,0.001765,0.086645,-0.032709,326.830100,24.646515,0.998964,0.985055,0.004887,0.338718,0.000026,-0.000019,0.000001,0.000026,-0.000019,1.163154,0.000027,
2461,2878,4.36062725901263,5.09136855707647,-0.0299600384568635,0.001805,-0.000258,0.002346,0.074051,0.017950,316.705991,25.020352,0.999427,0.991960,0.003643,0.397537,0.000001,0.000029,-0.000008,0.000031,-0.000001,-74.312984,0.000035,
2071,2353,-4.03154200450806,-6.36949264669854,-0.000195572796030774,0.001769,-0.000752,0.002921,0.072750,-0.001964,326.091937,24.481541,0.998560,0.983436,0.005158,0.362168,-0.000007,-0.000025,-0.000005,-0.000006,-0.000026,-13.598909,0.000034,
2071,2398,-4.03878591571292,-5.38607928185692,-0.0054883749485839,0.001733,-0.000395,0.002262,0.073102,0.021795,325.322759,24.460326,0.998818,0.984803,0.005094,0.403056,-0.000007,-0.000020,-0.000004,-0.000006,-0.000021,-17.493055,0.000028,
2176,2878,-1.83424030514792,5.07326656954604,-0.0078339219592749,0.002060,-0.000561,0.003663,0.083325,-0.003164,317.081277,24.576414,0.999517,0.993055,0.003402,0.352297,0.000012,0.000024,0.000000,0.000024,0.000012,88.823034,0.000036,
2146,2743,-2.4642164528724,2.13643020935388,-0.0190245115135212,0.001783,-0.000278,0.002513,0.074379,0.001638,319.283209,24.410673,0.999477,0.989936,0.004136,0.403893,0.000019,0.000007,0.000001,0.000019,0.000006,5.129918,0.000027,
2221,3058,-0.886568686917652,8.98319202387347,0.0171321901221404,0.001985,-0.000396,0.002601,0.083046,0.005428,314.221744,24.822199,0.999773,0.994452,0.002989,0.408435,0.000006,-0.000002,-0.000006,0.000009,-0.000005,-26.291132,0.000009,
2206,3028,-1.20770201916067,8.33197310932395,0.00584766141196269,0.002076,-0.000574,0.003726,0.083583,-0.017333,314.657967,24.780836,0.999632,0.993239,0.003406,0.344053,-0.000001,0.000015,-0.000002,0.000015,-0.000001,-82.759767,0.000017,
2251,3253,-0.269374686368124,13.2141026460571,0.0297436164418627,0.001993,-0.000197,0.003192,0.081402,0.009698,311.066067,25.248864,0.999683,0.994008,0.003210,0.375898,-0.000002,0.000016,0.000008,0.000019,-0.000005,69.189753,0.000019,
2146,2698,-2.45740777366334,1.15818019333948,-0.0306872268375855,0.002093,-0.000517,0.004948,0.081211,0.007992,319.922506,24.392083,0.999448,0.990453,0.003874,0.405002,0.000023,0.000015,0.000003,0.000024,0.000014,19.822978,0.000039,
2281,2023,0.603715606362652,-13.600523414581,0.0246160646031512,0.002110,-0.000206,-0.000784,0.099142,-0.009376,330.957749,23.097413,0.999111,0.982083,0.005439,0.332106,-0.000009,-0.000045,-0.000025,0.000004,-0.000058,-27.156838,0.000065,
2176,2848,-1.83018813191732,4.42190425205251,-0.0247885699273525,0.002153,-0.000903,0.003326,0.088499,-0.032183,317.432976,24.524583,0.999384,0.991775,0.003642,0.351426,0.000008,0.000014,0.000003,0.000015,0.000006,65.556947,0.000022,
2476,2983,4.66782852848783,7.3750520390942,-0.0103010822400051,0.001968,-0.000450,0.000348,0.088927,-0.014440,315.203281,25.504958,0.999471,0.989974,0.003969,0.297469,0.000016,0.000037,0.000028,0.000056,-0.000003,55.353347,0.000063,
2266,3283,0.0489142978362658,13.8660120103075,0.00512483695911214,0.001989,-0.000451,0.001680,0.085989,-0.010812,310.344239,25.307163,0.999544,0.992797,0.003370,0.425364,-0.000004,0.000038,0.000001,0.000038,-0.000005,88.190022,0.000041,
2326,2203,1.55287620572809,-9.65278828434993,0.014403653830243,0.002115,-0.000320,-0.002239,0.104461,-0.026725,327.945873,23.244521,0.999237,0.982369,0.005318,0.312301,-0.000019,-0.000006,-0.000009,-0.000002,-0.000023,-64.071523,0.000028,
2011,2083,-5.29702340637041,-12.2781139054812,0.0170866585099816,0.001550,-0.001192,0.003949,0.060132,-0.035848,330.910628,24.883586,0.998689,0.982308,0.005351,0.304207,0.000030,0.000025,0.000013,0.000041,0.000014,39.607513,0.000057,
2191,2923,-1.51611392410087,6.05182206246481,-0.00396715074907661,0.002014,-0.000490,0.005867,0.074236,0.011330,316.322951,24.640600,0.999415,0.991420,0.003756,0.369493,-0.000001,0.000018,0.000001,0.000018,-0.000001,86.318579,0.000020,
2041,2233,-4.66588335799989,-8.99239225896152,0.00437678568579258,0.001942,-0.000466,0.002348,0.082555,0.002092,328.236912,24.691151,0.999075,0.984137,0.005044,0.304338,0.000004,0.000028,0.000011,0.000033,0.000000,68.270741,0.000037,
2011,2038,-5.29000259735651,-13.2636532973042,0.0131128178068707,0.002166,-0.000033,0.000785,0.097263,-0.001852,331.634675,24.894687,0.998100,0.980875,0.005617,0.352909,0.000021,-0.000109,0.000008,0.000022,-0.000109,3.591187,0.000115,
2446,2788,4.05258452228749,3.12994605779164,-0.0264792840939094,0.001977,-0.000608,0.001993,0.083107,-0.011263,318.184183,24.615342,0.999496,0.989071,0.004089,0.436711,0.000010,0.000025,-0.000010,0.000030,0.000005,-64.515859,0.000038,
2491,3028,4.98576255544112,8.35319866862096,-0.0011436778775078,0.002290,-0.000513,0.005173,0.085168,-0.009122,314.578176,25.670418,0.999771,0.994043,0.003214,0.351404,0.000017,0.000057,0.000033,0.000075,-0.000002,60.654133,0.000086,
2221,3088,-0.892057713155022,9.63452754024022,0.0166693117810723,0.001868,-0.000562,0.003566,0.074418,-0.013370,313.719044,24.904146,0.999370,0.992964,0.003433,0.343392,0.000003,0.000003,-0.000008,0.000011,-0.000005,-45.266437,0.000011,
2206,2998,-1.20281696428775,7.68156728769803,-0.00364115693639633,0.002309,-0.000433,0.002288,0.099018,0.009309,315.083098,24.740757,0.999458,0.991622,0.003700,0.379105,-0.000002,0.000023,0.000006,0.000024,-0.000003,77.954215,0.000026,
2416,2653,3.42650214572814,0.18697289328324,-0.0172884149063748,0.002212,-0.000701,0.006400,0.077905,0.017652,320.407010,24.230853,0.999496,0.988983,0.004212,0.395999,0.000018,0.000025,-0.000016,0.000037,0.000005,-51.277686,0.000046,
2506,3103,5.29823498892982,9.98248671409645,0.00947540727133855,0.002278,-0.000137,-0.002113,0.112799,-0.015757,313.508683,25.955603,0.999722,0.992860,0.003362,0.406905,0.000037,0.000047,0.000046,0.000088,-0.000004,48.147861,0.000099,
2341,2263,1.86782381772346,-8.33848650562442,0.00952983905091287,0.001920,-0.000965,0.006819,0.063926,-0.023479,326.893280,23.300193,0.999110,0.983713,0.005012,0.341270,-0.000011,-0.000011,-0.000010,-0.000001,-0.000021,-44.501034,0.000025,
2056,2323,-4.35201352537926,-7.02578125821057,0.00980011805540926,0.002225,0.000176,-0.001863,0.107555,0.020798,326.774236,24.547039,0.999157,0.985151,0.004820,0.378099,0.000007,-0.000022,0.000008,0.000009,-0.000024,14.564584,0.000024,
2116,2578,-3.08926792137521,-1.45750287402419,-0.0218674602568285,0.001865,-0.000384,0.000368,0.084570,-0.007893,322.070198,24.371526,0.999405,0.990051,0.004159,0.380953,0.000006,0.000014,0.000014,0.000025,-0.000005,52.932892,0.000027,
2011,2098,-5.2993284117129,-11.9480783038975,0.0137009975904334,0.001593,-0.000606,0.003754,0.062790,0.000054,330.644074,24.930458,0.998370,0.979088,0.005835,0.284549,0.000033,0.000020,0.000014,0.000042,0.000011,31.567119,0.000056,
2026,2293,-5.00167716769303,-7.68126371834011,0.00718389257735907,0.001673,-0.001121,0.007728,0.055375,-0.012130,327.358945,24.702048,0.998753,0.984294,0.005056,0.319031,0.000034,0.000024,0.000014,0.000044,0.000014,35.904427,0.000060,
2236,3148,-0.576266512867452,10.9367617620072,0.0219846497358844,0.002131,-0.000224,0.000323,0.097087,-0.003273,312.768772,25.017630,0.999284,0.991270,0.003827,0.375867,-0.000005,0.000005,-0.000004,0.000006,-0.000006,-70.658378,0.000007,
2116,2638,-3.09964405365035,-0.149436899567526,-0.0307826062453955,0.001866,-0.000518,0.002552,0.078171,-0.001777,321.017789,24.382443,0.999403,0.989195,0.004085,0.392690,0.000017,0.000017,0.000012,0.000029,0.000005,44.743777,0.000037,
2101,2458,-3.39572450625609,-4.07620949553214,-0.00946208673315141,0.001920,-0.000751,0.004237,0.075673,-0.007378,324.173956,24.353031,0.999454,0.988716,0.004219,0.400461,-0.000007,-0.000017,-0.000012,0.000001,-0.000026,-34.068101,0.000029,
2011,2143,-5.30568447844483,-10.9625447296685,0.00812682851358204,0.001999,-0.000614,0.003072,0.083310,0.007305,329.897045,24.838787,0.998056,0.979273,0.005917,0.356988,0.000020,0.000051,0.000023,0.000063,0.000007,61.910304,0.000078,
2296,2068,0.923871567384015,-12.6138906355499,0.0313021511381066,0.002364,-0.000417,0.000778,0.105463,-0.014060,330.280928,23.116876,0.999304,0.983309,0.005029,0.306018,-0.000015,-0.000010,-0.000009,-0.000003,-0.000022,-52.783152,0.000028,
2491,3043,4.98255800891345,8.67991156769539,-0.00347062474099857,0.002269,-0.000437,0.004153,0.088135,-0.007117,314.315521,25.777542,0.999747,0.993343,0.003461,0.304447,0.000015,0.000056,0.000041,0.000082,-0.000011,58.436201,0.000089,
2296,2053,0.926481600258935,-12.9425675417915,0.0301825005891487,0.002347,-0.000334,0.000787,0.104707,-0.018181,330.511955,23.119374,0.999297,0.982981,0.005044,0.266250,-0.000016,-0.000034,-0.000017,-0.000006,-0.000044,-30.929847,0.000055,
2236,3163,-0.578864615808772,11.2613201772172,0.0255641807573284,0.002080,-0.000589,0.002259,0.088325,-0.021460,312.544963,25.009669,0.999402,0.991107,0.003783,0.385297,-0.000001,0.000014,-0.000001,0.000014,-0.000001,-85.492887,0.000016,
2221,3103,-0.893969058230823,9.95883440684948,0.0253738933420209,0.002051,-0.000796,0.004566,0.079513,-0.037016,313.552411,24.896059,0.999472,0.992290,0.003613,0.345416,-0.000001,0.000005,-0.000007,0.000010,-0.000006,-56.357641,0.000010,
2086,2413,-3.71445805997941,-5.05944297012635,-0.00332928174145763,0.001908,-0.000845,0.002124,0.081307,-0.020641,325.030313,24.384391,0.999029,0.985589,0.004624,0.391050,0.000003,-0.000026,-0.000006,0.000004,-0.000028,-11.259764,0.000030,
2251,3223,-0.263139051459209,12.5624932391002,0.0501227189866427,0.001477,-0.000394,0.004558,0.053041,0.004014,311.700798,25.195159,0.999674,0.994799,0.003158,0.380091,0.000003,0.000024,0.000006,0.000026,0.000001,74.986544,0.000031,
2086,2428,-3.71692403853169,-4.7314661137037,-0.00439940356358193,0.001968,-0.000791,0.003977,0.078726,-0.024158,324.776636,24.426714,0.999251,0.986910,0.004442,0.345896,-0.000005,-0.000021,-0.000002,-0.000004,-0.000021,-8.115893,0.000027,
2041,2188,-4.65917051600533,-9.97845339760848,0.0126496696609024,0.001667,-0.000876,0.005745,0.060347,-0.014879,329.006968,24.672359,0.999098,0.986793,0.004741,0.321084,-0.000006,0.000037,0.000010,0.000039,-0.000008,77.520597,0.000042,
2461,2893,4.35808111902835,5.41812323341991,-0.0252325166671881,0.001881,-0.000310,0.002172,0.078190,0.013248,316.504434,25.147428,0.999126,0.990047,0.004053,0.319803,0.000008,0.000021,-0.000003,0.000022,0.000007,-76.685150,0.000030,
2431,2728,3.73864732734633,1.82089005291314,-0.016910792184774,0.002161,-0.000754,0.003974,0.084247,-0.018629,319.218176,24.369635,0.999723,0.991880,0.003650,0.463450,0.000006,0.000033,-0.000007,0.000034,0.000005,-75.938769,0.000043,
2281,2038,0.600048990698237,-13.2692824736442,0.0155461173037565,0.001967,-0.000390,0.001452,0.085060,-0.008429,330.626335,23.206898,0.999230,0.984208,0.005067,0.255411,-0.000006,-0.000050,-0.000019,0.000001,-0.000057,-20.265108,0.000065,
2011,2113,-5.30078202142261,-11.6212418074906,0.0219492415481568,0.001795,-0.000918,0.003668,0.072225,-0.020766,330.482302,24.874578,0.998368,0.980465,0.005763,0.310413,0.000025,0.000013,0.000025,0.000045,-0.000007,38.652228,0.000049,
2176,2863,-1.83213010913594,4.74687944210211,-0.0146655676646787,0.002036,-0.000984,0.002886,0.084459,-0.026058,317.269840,24.504600,0.998961,0.988440,0.004097,0.389388,0.000010,0.000017,0.000000,0.000017,0.000010,87.218579,0.000027,
2191,2953,-1.52100375627746,6.70245949139257,0.00396270188042536,0.001680,-0.000675,0.005165,0.060958,-0.013386,315.887695,24.650617,0.999395,0.992236,0.003609,0.362409,0.000000,0.000017,0.000003,0.000018,-0.000001,79.021330,0.000020,
2266,3298,0.0465021284128078,14.191677607918,0.00903100854367267,0.001813,-0.000340,-0.001143,0.087216,-0.024459,310.131774,25.431862,0.999612,0.993449,0.003325,0.310785,0.000001,0.000031,-0.000001,0.000031,0.000001,-87.558671,0.000037,
2131,2623,-2.77023573538257,-0.47656862638096,-0.0207635198406706,0.002019,-0.000202,0.000324,0.091838,-0.012947,321.293004,24.381556,0.999501,0.989932,0.004098,0.365481,0.000014,0.000019,0.000010,0.000026,0.000006,51.656537,0.000035,
2326,2218,1.55006538574608,-9.3243198369647,0.0122536128554884,0.002305,-0.000313,-0.001374,0.110225,-0.018177,327.691803,23.238870,0.998835,0.979827,0.005631,0.363771,-0.000017,0.000002,-0.000005,0.000003,-0.000018,-77.013684,0.000019,
2161,2773,-2.1441799028001,2.79053582721292,-0.0268300997701658,0.001692,-0.000807,0.006145,0.058794,-0.011074,318.658164,24.454035,0.999432,0.990626,0.003887,0.373060,0.000011,0.000004,-0.000003,0.000012,0.000003,-17.427582,0.000015,
2101,2473,-3.39832985621848,-3.74847625629697,-0.0110987343866782,0.001873,-0.000892,0.005483,0.069836,-0.017562,323.912169,24.390228,0.999377,0.989423,0.004174,0.355755,0.000002,-0.000008,-0.000007,0.000005,-0.000011,-26.915243,0.000011,
2506,3118,5.29505371055135,10.3090983077351,0.0106879702359493,0.002130,-0.000090,-0.001639,0.104290,0.005665,313.263691,26.076319,0.999553,0.991972,0.003632,0.367642,0.000034,0.000053,0.000041,0.000086,0.000001,51.461129,0.000100,
2071,2413,-4.04091250633192,-5.05954217342687,-0.00308375271123396,0.001862,-0.000795,0.003858,0.074388,-0.003704,325.102753,24.420651,0.998819,0.984769,0.004894,0.415407,-0.000004,-0.000032,-0.000008,-0.000002,-0.000035,-15.169833,0.000041,
2071,2368,-4.03373744133193,-6.04176373829863,-0.00333185039619366,0.001961,-0.000723,0.001116,0.086719,-0.006644,325.838136,24.461515,0.997879,0.981602,0.005536,0.376200,-0.000005,-0.000011,-0.000004,-0.000003,-0.000013,-25.843492,0.000017,
2386,2503,2.8024644774285,-3.08831913659937,-0.00294769880810009,0.001632,-0.000814,0.006410,0.051598,0.017492,322.906755,23.832318,0.999598,0.990457,0.003950,0.370522,0.000017,-0.000014,-0.000005,0.000018,-0.000014,-9.094313,0.000019,
2146,2758,-2.46668583767498,2.46306152155892,-0.0200320459817931,0.001878,-0.000573,0.002714,0.078021,-0.012007,319.034848,24.447935,0.999437,0.990602,0.003868,0.361041,0.000016,0.000002,-0.000003,0.000017,0.000001,-13.286498,0.000020,
2056,2263,-4.34399323307982,-8.3367152597452,0.00218424092724945,0.002026,-0.000993,0.004252,0.080812,-0.028633,327.649723,24.589626,0.999208,0.984985,0.005019,0.299492,0.000003,0.000008,0.000011,0.000017,-0.000006,51.339993,0.000017,
2026,2338,-5.00826015198492,-6.69842273529711,0.00237149490146749,0.001783,-0.001000,0.003799,0.071214,-0.042432,326.611269,24.620563,0.999056,0.987383,0.004526,0.347089,0.000015,-0.000035,-0.000008,0.000016,-0.000036,-8.350962,0.000036,
2011,2158,-5.30841358983171,-10.6333249385784,0.00864978173740383,0.001561,-0.001089,0.005609,0.056181,-0.013677,329.633506,24.932790,0.998046,0.979163,0.006060,0.233153,0.000019,0.000020,0.000006,0.000026,0.000014,46.304407,0.000040,
2116,2593,-3.09129762043009,-1.13215768557895,-0.0141858019642314,0.001899,-0.000715,0.002755,0.078998,-0.016183,321.886609,24.309133,0.999560,0.991395,0.003912,0.439021,0.000006,0.000020,0.000016,0.000031,-0.000005,56.383828,0.000033,
2041,2293,-4.67506755422093,-7.68215641814648,0.00971269994778368,0.001301,-0.000370,0.001263,0.056144,-0.007915,327.291229,24.579467,0.999851,0.993528,0.003747,0.384579,0.000011,0.000018,0.000013,0.000027,0.000001,53.062929,0.000032,
2101,2503,-3.40326917946735,-3.09373773879902,-0.0158043257156351,0.001762,-0.000659,0.002009,0.074913,-0.024962,323.393404,24.387328,0.999314,0.989634,0.004046,0.356197,0.000002,0.000003,-0.000009,0.000011,-0.000006,-47.322363,0.000011,
2311,2143,1.23689892497981,-10.967804572061,0.0245548339750599,0.001951,-0.000369,0.000024,0.089168,-0.023072,328.989312,23.262163,0.999283,0.984056,0.005154,0.233561,-0.000016,-0.000005,-0.000006,-0.000002,-0.000019,-66.188128,0.000023,
2371,2443,2.48776472375982,-4.39966209366003,-0.00439274011523594,0.002101,-0.000346,0.000592,0.094137,0.000827,323.901094,23.663901,0.999313,0.987512,0.004564,0.384148,0.000017,-0.000004,-0.000001,0.000017,-0.000004,-2.328528,0.000017,
2221,3073,-0.889245564408366,9.30900403694757,0.0177829941833352,0.001835,-0.000356,0.001692,0.079000,-0.003785,313.978005,24.879913,0.999617,0.993166,0.003311,0.359199,0.000004,0.000003,-0.000006,0.000009,-0.000002,-44.251258,0.000010,
2041,2248,-4.66776651964733,-8.66534895670478,0.00152675843975203,0.002307,-0.000656,-0.000153,0.106200,-0.035000,327.996472,24.600214,0.999204,0.985857,0.004703,0.353096,-0.000001,0.000022,0.000003,0.000023,-0.000001,83.805688,0.000025,
2161,2818,-2.15060368501881,3.76971877869121,-0.0185459493321218,0.001793,-0.000132,-0.000679,0.084593,-0.000356,318.021330,24.578360,0.999709,0.993569,0.003344,0.289294,0.000007,0.000015,-0.000001,0.000015,0.000007,-82.466380,0.000022,
2506,3133,5.29188134190169,10.6348833602294,0.00914866115925861,0.002242,0.000030,-0.000901,0.106661,0.018077,313.006931,26.116640,0.999533,0.991831,0.003640,0.400118,0.000041,0.000040,0.000037,0.000077,0.000004,44.531690,0.000091,
2191,2968,-1.52308548011159,7.02786607925021,0.00308122910098518,0.002035,-0.000800,0.002243,0.086453,-0.019773,315.661445,24.629604,0.999299,0.991319,0.003789,0.390934,0.000002,0.000021,0.000005,0.000022,0.000001,77.549723,0.000026,
2251,3268,-0.273026128569708,13.5397686446249,0.0131429413045225,0.002028,-0.000166,0.000412,0.092092,-0.001938,310.691520,25.249845,0.999549,0.992301,0.003522,0.385290,-0.000008,0.000022,0.000009,0.000025,-0.000010,74.873442,0.000025,
2326,2233,1.54622141777649,-8.99551582354605,0.0115315696392031,0.001659,-0.000694,0.003436,0.063917,-0.011171,327.397273,23.285915,0.998331,0.976216,0.006136,0.360839,-0.000016,-0.000010,-0.000003,-0.000008,-0.000017,-68.040939,0.000026,
2041,2308,-4.67711541908487,-7.35364850363533,0.00320174378310867,0.001967,-0.000801,0.002473,0.083286,-0.012201,327.022629,24.574035,0.999765,0.991648,0.004084,0.380575,0.000011,0.000002,0.000009,0.000017,-0.000003,31.430911,0.000018,
2146,2818,-2.47684132971917,3.7687285736119,-0.0228058783200709,0.001806,-0.000241,0.002091,0.076775,0.001253,318.035320,24.506065,0.999553,0.992887,0.003517,0.347570,0.000011,0.000012,-0.000003,0.000014,0.000009,-47.699554,0.000023,
2056,2338,-4.35523040104377,-6.69708341892441,0.000303418218322804,0.001946,-0.000034,-0.000615,0.091167,0.012494,326.437268,24.545228,0.998978,0.985839,0.004770,0.368502,-0.000004,-0.000024,0.000003,-0.000003,-0.000025,8.751472,0.000031,
2416,2668,3.4234237336334,0.514548149884078,-0.0178965976074892,0.001937,-0.000568,0.003955,0.074229,-0.009557,320.154057,24.348103,0.999447,0.988434,0.004365,0.299573,0.000014,0.000025,-0.000017,0.000038,0.000002,-53.727559,0.000045,
2071,2428,-4.04325858817446,-4.73112846944669,-0.00316318823041684,0.001718,-0.000257,0.001954,0.073328,0.008258,324.858557,24.496483,0.999033,0.986195,0.004523,0.349786,-0.000012,-0.000023,-0.000004,-0.000011,-0.000024,-17.726736,0.000035,
2236,3238,-0.591939733510035,12.8868508755289,0.0341990773189309,0.001845,-0.000357,0.003791,0.072579,-0.010785,311.373299,25.118384,0.999614,0.994057,0.003258,0.386186,0.000003,0.000016,0.000007,0.000019,0.000000,66.146970,0.000021,
2281,2098,0.589407125516846,-11.9536369560496,0.0175491428134364,0.001967,-0.000557,0.002265,0.082358,-0.011792,329.675514,23.288723,0.998766,0.979511,0.005593,0.294390,-0.000003,-0.000011,-0.000005,0.000000,-0.000014,-25.841689,0.000016,
2206,3043,-1.20979291582632,8.65735081179423,0.0130975696798146,0.001919,-0.000299,0.001256,0.084331,-0.002925,314.474422,24.810818,0.999833,0.995240,0.002995,0.344200,0.000001,0.000005,-0.000004,0.000008,-0.000002,-58.358297,0.000008,
2461,2908,4.3559904353846,5.74337369758761,-0.0165476959315924,0.001995,-0.000221,0.000985,0.087865,-0.004096,316.342301,25.180711,0.998979,0.988536,0.004347,0.322781,0.000007,0.000013,0.000002,0.000014,0.000007,73.162079,0.000021,
2191,2938,-1.51828439824321,6.37682940855875,0.00173519158971658,0.001919,-0.000767,0.004301,0.074645,-0.008524,316.127087,24.634849,0.999448,0.992731,0.003564,0.369233,-0.000003,0.000018,0.000002,0.000018,-0.000003,83.452647,0.000019,
2296,2113,0.913686862149948,-11.6254236878599,0.0157365530383231,0.001700,-0.000721,0.003793,0.064837,-0.011214,329.386272,23.167167,0.999047,0.980624,0.005444,0.359087,-0.000014,-0.000011,-0.000008,-0.000004,-0.000021,-50.393844,0.000026,
2431,2743,3.73557240465943,2.14881883511838,-0.0190404415442345,0.002261,-0.000837,0.004246,0.087833,-0.009833,318.958963,24.494495,0.999584,0.990251,0.003890,0.397688,0.000006,0.000037,-0.000006,0.000038,0.000005,-78.997645,0.000047,
2131,2653,-2.77464863381071,0.175799018256939,-0.0140004411953214,0.002013,-0.000579,-0.000235,0.093166,-0.012181,320.865112,24.349919,0.999668,0.991381,0.003691,0.410113,0.000019,0.000020,0.000009,0.000028,0.000011,46.099399,0.000041,
2041,2263,-4.67018082208807,-8.33739029307895,0.00514997885125013,0.001961,-0.000530,0.000734,0.087887,0.001795,327.767024,24.590779,0.999195,0.986416,0.004723,0.393878,-0.000003,0.000007,0.000010,0.000013,-0.000009,58.690095,0.000014,
2446,2803,4.04949577782314,3.45772852342422,-0.0291566399723138,0.002071,-0.000406,0.001512,0.089328,-0.008524,317.922748,24.747989,0.999614,0.990580,0.003798,0.359137,0.000005,0.000020,-0.000013,0.000027,-0.000003,-60.438020,0.000029,
2041,2323,-4.6791245233715,-7.02426163528499,-0.00428383173658631,0.002371,0.000075,-0.002270,0.115302,0.015610,326.750078,24.613266,0.999096,0.984014,0.004864,0.363804,0.000009,-0.000019,0.000001,0.000009,-0.000020,2.741372,0.000020,
2356,2368,2.17491136704431,-6.03918295451203,-0.00369123768632562,0.002144,-0.000153,0.001758,0.092067,0.012719,325.114060,23.510385,0.999120,0.985130,0.004859,0.387310,-0.000006,0.000013,0.000000,0.000013,-0.000006,-89.573835,0.000013,
2086,2443,-3.7198675192727,-4.40275384158336,-0.0146556529296049,0.001820,-0.000454,0.000874,0.081037,-0.004410,324.450978,24.432401,0.999467,0.988486,0.004262,0.360781,-0.000011,-0.000012,-0.000006,-0.000006,-0.000018,-41.187459,0.000024,
2176,2893,-1.83620757940433,5.39757541443207,0.00462120032511848,0.001739,-0.000655,0.002918,0.070786,-0.023840,316.929464,24.544807,0.999806,0.995563,0.003035,0.374956,0.000010,0.000021,0.000004,0.000022,0.000009,72.230031,0.000032,
2281,2053,0.597222676830416,-12.9410348495553,0.016065182842965,0.001952,-0.000687,0.003833,0.076356,-0.003643,330.381229,23.153400,0.999134,0.982656,0.005162,0.344923,-0.000004,-0.000036,-0.000010,-0.000001,-0.000039,-16.419032,0.000046,
2131,2683,-2.77929695369225,0.828481631693457,-0.00640547470680985,0.001980,-0.000631,0.003116,0.081586,-0.008504,320.430791,24.367671,0.999519,0.991443,0.003706,0.408017,0.000024,0.000025,0.000009,0.000033,0.000015,47.404020,0.000050,
2371,2458,2.48433581785056,-4.07149191560344,-0.00830046009809848,0.001962,-0.000482,0.002104,0.082311,-0.020003,323.613499,23.729786,0.999184,0.985976,0.004734,0.339976,0.000017,-0.000002,0.000001,0.000017,-0.000002,2.749101,0.000019,
2416,2683,3.42084954085414,0.84075623498974,-0.0172359518705321,0.002126,-0.000521,0.002376,0.088694,-0.014611,319.930374,24.332738,0.999439,0.986375,0.004660,0.358066,0.000014,0.000027,-0.000017,0.000038,0.000002,-55.671360,0.000045,
2146,2773,-2.46922426283873,2.79023615935891,-0.0248558050946599,0.002033,-0.000238,0.001043,0.090356,0.001684,318.762842,24.482599,0.999677,0.993976,0.003211,0.348092,0.000014,0.000002,-0.000005,0.000016,0.000001,-19.338402,0.000019,
2326,2248,1.54335305963,-8.66660573643782,0.00907932690870439,0.001716,-0.000685,0.002916,0.068341,-0.014163,327.138985,23.340014,0.998839,0.980937,0.005373,0.340360,-0.000012,-0.000019,-0.000003,-0.000011,-0.000020,-17.844588,0.000031,
2071,2503,-4.05509717071011,-3.09498528810319,-0.0130586619518454,0.001969,-0.000413,0.000191,0.089914,-0.007006,323.582550,24.396151,0.999447,0.990547,0.003979,0.425863,-0.000005,-0.000002,-0.000017,0.000013,-0.000020,-48.143551,0.000021,
2401,2578,3.11414857716163,-1.44979494179637,-0.0176848537214482,0.001796,-0.000699,0.002948,0.071450,-0.011529,321.599287,24.012564,0.999397,0.986979,0.004461,0.363154,0.000019,-0.000002,-0.000010,0.000022,-0.000006,-21.225491,0.000023,
2041,2278,-4.67242335870446,-8.00829999226601,0.00289788137303049,0.001937,0.000085,-0.001884,0.094228,0.010092,327.512857,24.658221,0.999815,0.992419,0.003978,0.329439,-0.000002,0.000016,0.000016,0.000025,-0.000011,59.219167,0.000025,
2431,2758,3.73261430770555,2.47575447501303,-0.0194966952373079,0.002209,-0.000611,0.002955,0.090270,-0.013225,318.713068,24.558279,0.999546,0.988840,0.004055,0.380562,0.000013,0.000044,-0.000003,0.000044,0.000013,-84.720048,0.000060,
2146,2833,-2.47786030235546,4.09336677386057,-0.0104804589469722,0.002281,-0.000127,-0.000562,0.106724,0.008385,317.924766,24.462654,0.999569,0.993391,0.003421,0.405554,0.000015,0.000014,0.000000,0.000015,0.000014,-16.428691,0.000030,
2281,2113,0.586602971376347,-11.6251610200964,0.0162906316790554,0.001808,-0.000239,0.000555,0.080911,-0.014389,329.422467,23.265486,0.998863,0.979950,0.005493,0.345853,-0.000005,-0.000014,-0.000007,-0.000001,-0.000018,-27.619787,0.000021,
2296,2083,0.920192112305021,-12.2833044293683,0.0255059982432044,0.001991,-0.000451,0.002872,0.081340,-0.007140,329.966592,23.214932,0.999383,0.983896,0.004974,0.248682,-0.000013,-0.000001,-0.000006,0.000001,-0.000015,-67.064603,0.000017,
2056,2353,-4.35833687205469,-6.36894187957362,-0.00643679043861312,0.001769,-0.000386,0.003258,0.072046,0.026339,326.120513,24.503836,0.998751,0.984166,0.005092,0.420622,-0.000010,-0.000027,0.000003,-0.000009,-0.000028,10.126314,0.000039,
2251,3283,-0.276060944373501,13.8646875543431,0.00714265071087539,0.002183,-0.000444,0.001300,0.096197,-0.020381,310.399462,25.252356,0.999537,0.992223,0.003512,0.386086,-0.000018,0.000031,0.000005,0.000032,-0.000018,84.546201,0.000032,
2116,2653,-3.10224415901974,0.177727067831221,-0.0322972227334617,0.001755,-0.000606,0.002091,0.074398,-0.011711,320.758218,24.428523,0.999530,0.990201,0.003838,0.340621,0.000020,0.000018,0.000011,0.000030,0.000008,42.641120,0.000040,
2236,3253,-0.594700540798765,13.2123381261118,0.024062236658267,0.002232,-0.000078,0.000386,0.101574,-0.014944,311.071329,25.125910,0.999597,0.993793,0.003244,0.394345,0.000000,0.000013,0.000010,0.000018,-0.000005,60.694032,0.000019,
2056,2368,-4.3603927634852,-6.04054148618959,-0.0117175623723256,0.002136,-0.000388,0.000284,0.097264,0.004365,325.859878,24.541692,0.998646,0.985019,0.005027,0.357416,-0.000008,-0.000012,0.000002,-0.000007,-0.000013,21.260787,0.000021,
2086,2458,-3.72244653635484,-4.07609833509004,-0.0124127058402337,0.001701,-0.000803,0.005002,0.063528,0.006599,324.210382,24.380975,0.999460,0.989317,0.004202,0.423635,-0.000008,-0.000020,-0.000013,0.000000,-0.000028,-33.484841,0.000033,
2176,2968,-1.84793169446211,7.02726887009542,0.00152007270997956,0.002769,-0.000520,-0.000099,0.127717,-0.014001,315.738266,24.608405,0.999383,0.992327,0.003568,0.380246,0.000011,0.000021,0.000008,0.000025,0.000006,61.639966,0.000033,
2221,3118,-0.896217937989917,10.2848333102621,0.0289468930415069,0.002006,-0.000341,0.001914,0.086141,-0.012321,313.343226,24.966493,0.999579,0.991999,0.003681,0.317516,-0.000006,0.000008,-0.000008,0.000011,-0.000009,-65.024291,0.000012,
2341,2278,1.86479955226019,-8.00950855610136,0.00308919940135866,0.001907,-0.000558,0.003064,0.076557,-0.009254,326.609713,23.314006,0.999030,0.983426,0.005085,0.380692,-0.000015,-0.000010,-0.000007,-0.000005,-0.000020,-53.641679,0.000026,
2491,3058,4.98023832435452,9.00436628926182,0.00592596553224212,0.001996,-0.000513,0.001436,0.086052,-0.012840,314.147141,25.764676,0.999692,0.992021,0.003766,0.369512,0.000010,0.000045,0.000037,0.000069,-0.000013,57.904116,0.000073,
2026,2353,-5.0111098848977,-6.3700874066009,0.00176196496403236,0.001416,-0.001322,0.007519,0.044076,-0.038765,326.337438,24.666009,0.999051,0.986767,0.004768,0.297316,0.000015,-0.000030,-0.000001,0.000015,-0.000030,-1.500953,0.000030,
2506,3148,5.28928245472497,10.9601439843484,0.0199200924850516,0.002147,-0.000163,0.002942,0.087251,0.001540,312.831890,26.216426,0.999487,0.991076,0.003740,0.343133,0.000039,0.000017,0.000032,0.000062,-0.000006,35.433772,0.000068,
2476,2998,4.66512175644909,7.69997530303392,-0.00227676598007065,0.001981,-0.000589,0.004510,0.073660,-0.010601,315.010216,25.503146,0.999512,0.989961,0.003835,0.358983,0.000016,0.000038,0.000032,0.000061,-0.000007,54.205618,0.000067,
2041,2338,-4.68178082207339,-6.69716252596201,-0.0020999741450396,0.002050,-0.000419,0.001420,0.090129,-0.004548,326.502145,24.592678,0.999170,0.987757,0.004416,0.358554,-0.000003,-0.000028,-0.000007,-0.000001,-0.000029,-14.284078,0.000035,
2011,2173,-5.31027196948089,-10.306055272232,0.0103947805545772,0.001584,-0.000743,0.002709,0.065202,-0.021890,329.416885,24.854371,0.998443,0.986274,0.005285,0.293933,0.000023,0.000014,0.000010,0.000029,0.000008,32.481460,0.000040,
2131,2698,-2.78258537783531,1.15645110533801,-0.0209099850138728,0.002097,-0.000660,0.003161,0.086822,-0.016458,320.071344,24.392303,0.999491,0.990748,0.003819,0.381691,0.000026,0.000017,0.000006,0.000029,0.000014,26.386437,0.000043,
2461,2923,4.35243475779655,6.07001222325236,-0.0178971097570866,0.001752,-0.000332,0.003126,0.068600,0.002895,316.066295,25.249169,0.999335,0.989859,0.004096,0.315203,0.000008,0.000002,0.000000,0.000008,0.000002,1.754799,0.000011,
2191,2983,-1.52578112192511,7.35350824258832,0.00883454589018129,0.001806,-0.000779,0.006375,0.062999,0.000935,315.441445,24.653047,0.999390,0.991840,0.003677,0.401954,0.000001,0.000021,0.000005,0.000022,-0.000001,76.284455,0.000026,
2401,2593,3.11150659765172,-1.12294976223894,-0.0175057964405596,0.002046,-0.000674,0.002811,0.083427,-0.028270,321.369359,24.035341,0.999461,0.989018,0.004203,0.369815,0.000019,-0.000001,-0.000006,0.000021,-0.000002,-16.357853,0.000023,
2086,2488,-3.72721053475653,-3.42205400515293,-0.0124702528713101,0.001717,-0.001129,0.006389,0.060184,-0.017842,323.722555,24.363526,0.999372,0.990318,0.004060,0.417150,0.000004,-0.000007,-0.000009,0.000008,-0.000012,-29.412232,0.000012,
2131,2668,-2.77518528044854,0.499052612691663,0.00757658796209171,0.002470,-0.000572,-0.000673,0.115491,-0.016852,320.825575,24.227602,0.999665,0.991587,0.003720,0.533332,0.000024,0.000022,0.000012,0.000035,0.000011,42.522490,0.000047,
2191,3043,-1.53477502543934,8.65634225151324,0.0193134058283704,0.002070,-0.000473,0.001226,0.091462,0.008094,314.578182,24.797107,0.999727,0.994753,0.003195,0.319872,0.000002,0.000001,0.000000,0.000002,0.000001,-4.773100,0.000003,
2026,2368,-5.01269097508743,-6.04282875288727,-5.49833594618576E-05,0.001918,-0.000765,0.003486,0.078389,-0.011729,326.115029,24.583031,0.999147,0.987075,0.004716,0.399332,0.000022,-0.000009,-0.000001,0.000022,-0.000009,-1.516904,0.000022,
2221,3133,-0.899080305926635,10.6091886410609,0.0288449243790296,0.001971,-0.000339,0.004552,0.076082,-0.006610,313.087500,24.885387,0.999612,0.993035,0.003505,0.422332,-0.000010,0.000007,-0.000007,0.000010,-0.000012,-70.068237,0.000013,
2206,3013,-1.20500198622709,8.00669363514262,0.00309718951314153,0.002282,-0.000395,0.002591,0.096775,-0.001951,314.892712,24.763324,0.999441,0.991318,0.003705,0.361134,0.000000,0.000016,0.000004,0.000017,-0.000001,76.048703,0.000019,
2116,2608,-3.0938707688872,-0.804722437483264,-0.0186549677243875,0.001952,-0.000659,0.001532,0.085022,-0.033575,321.612399,24.346638,0.999277,0.988528,0.004390,0.388351,0.000010,0.000019,0.000018,0.000032,-0.000004,51.995543,0.000035,
2281,2068,0.595288891688121,-12.6120516057737,0.0220625094232219,0.002067,-0.000625,0.001122,0.090721,-0.029828,330.204218,23.263844,0.999127,0.983723,0.004999,0.238966,-0.000005,-0.000015,-0.000004,-0.000003,-0.000017,-20.673005,0.000022,
2356,2383,2.17164841798135,-5.7098558405282,-0.00510457375929718,0.002039,-0.000485,0.004372,0.077981,0.015473,324.844739,23.656171,0.999329,0.982555,0.005037,0.284855,0.000003,0.000010,-0.000006,0.000014,-0.000001,-59.505078,0.000015,
2161,2893,-2.16311250936881,5.39875294792275,-0.0162738449096764,0.001883,-0.000521,0.001841,0.080861,-0.026378,316.817249,24.555415,0.999615,0.992730,0.003509,0.335032,0.000017,0.000022,0.000003,0.000024,0.000015,66.004453,0.000039,
2236,3268,-0.598073321854034,13.5377108773831,0.0187409858838805,0.002048,-0.000302,0.002326,0.086726,-0.013477,310.765851,25.149060,0.999525,0.993065,0.003410,0.392210,-0.000003,0.000018,0.000012,0.000024,-0.000008,65.686739,0.000024,
2056,2428,-4.36972387872577,-4.73085911802045,-0.00929607957476719,0.002061,-0.000389,0.004878,0.080930,0.018810,324.896709,24.512320,0.998913,0.985233,0.004778,0.386101,-0.000019,-0.000021,-0.000001,-0.000019,-0.000022,-25.736190,0.000041,
2011,2128,-5.30311950813763,-11.2905473107326,0.0107751814685457,0.002105,-0.000343,0.000620,0.094884,-0.003417,330.170750,24.926777,0.998486,0.979191,0.005926,0.266928,0.000016,0.000012,0.000026,0.000040,-0.000012,42.468028,0.000041,
2236,3178,-0.580772958538276,11.5861445197842,0.0344162877889858,0.002195,-0.000478,0.002037,0.094378,-0.017407,312.379713,25.038580,0.999441,0.991658,0.003606,0.380493,0.000001,0.000016,0.000000,0.000016,0.000001,-89.308462,0.000019,
2041,2353,-4.68472908577617,-6.36930711525236,-0.00357696114321016,0.001704,-0.000767,0.005773,0.062035,-0.016870,326.220436,24.602412,0.998908,0.984788,0.004994,0.330819,-0.000006,-0.000027,-0.000004,-0.000006,-0.000027,-10.307787,0.000036,
2161,2833,-2.15240679269954,4.09416043509423,-0.0110403707767546,0.002184,-0.000319,0.002135,0.093934,0.003892,317.850159,24.483520,0.999651,0.993742,0.003347,0.398227,0.000012,0.000017,0.000001,0.000017,0.000012,76.581573,0.000029,
2206,3058,-1.21249376061954,8.98245367568666,0.0148917802498545,0.001810,-0.000500,0.002823,0.074380,0.009715,314.234692,24.784931,0.999778,0.994632,0.003065,0.398572,0.000002,-0.000002,-0.000005,0.000006,-0.000006,-34.084291,0.000007,
2026,2398,-5.01699278878721,-5.38786403126234,-0.00168615560721719,0.002116,-0.000874,0.002721,0.089553,-0.033396,325.629543,24.568434,0.999493,0.989763,0.003957,0.376015,0.000018,-0.000019,-0.000002,0.000018,-0.000019,-2.898640,0.000022,
2446,2818,4.04688457901122,3.78303360932862,-0.0255372217666832,0.002055,-0.000159,0.000285,0.093258,-0.000339,317.712824,24.700063,0.999521,0.990414,0.003928,0.467448,0.000004,0.000025,-0.000010,0.000029,0.000000,-68.525915,0.000034,
2071,2443,-4.04529323806004,-4.40453877702956,-0.00204140489137217,0.001872,-0.000545,0.001115,0.082705,-0.023529,324.635782,24.465222,0.999305,0.988052,0.004356,0.347329,-0.000018,-0.000013,-0.000009,-0.000006,-0.000026,-52.402044,0.000033,
2146,2848,-2.48111261747595,4.41997625252741,-0.020228953284402,0.002106,-0.000316,-0.001456,0.101322,-0.014859,317.594067,24.468549,0.999588,0.993237,0.003409,0.384051,0.000017,0.000012,-0.000001,0.000017,0.000012,-10.642321,0.000029,
2086,2473,-3.72490821047197,-3.74831084504569,-0.0161114333253636,0.001832,-0.000961,0.005194,0.068951,-0.007807,323.942708,24.408219,0.999412,0.989942,0.004173,0.382468,0.000002,-0.000011,-0.000009,0.000006,-0.000016,-26.950254,0.000016,
2431,2773,3.72938788335106,2.80238820677022,-0.0189402708987814,0.001922,-0.000701,0.003093,0.076561,-0.015266,318.459527,24.605489,0.999521,0.989093,0.004115,0.381368,0.000011,0.000032,-0.000002,0.000032,0.000011,-84.176333,0.000045,
2176,2983,-1.8516402055488,7.35310953766824,0.000375640273716726,0.002067,-0.000988,0.005425,0.078098,-0.015868,315.434660,24.625370,0.999320,0.992356,0.003580,0.372815,0.000008,0.000020,0.000009,0.000025,0.000004,61.565276,0.000031,
2296,2128,0.911705659016878,-11.2968444591185,0.0221381164334389,0.001890,-0.000525,0.002838,0.076824,-0.030144,329.210053,23.258153,0.998989,0.981123,0.005399,0.281731,-0.000011,-0.000006,-0.000009,0.000001,-0.000018,-51.762207,0.000021,
2116,2668,-3.10451926750549,0.504265464896413,-0.0367542847413347,0.002117,-0.000405,0.001024,0.094277,-0.008518,320.497864,24.384493,0.999567,0.991348,0.003699,0.391923,0.000024,0.000019,0.000015,0.000036,0.000007,40.797153,0.000046,
2461,2938,4.34972543522799,6.39572910108827,-0.0166195663321673,0.001751,-0.000494,0.000604,0.077984,-0.010514,315.841478,25.275985,0.999433,0.990984,0.004005,0.328976,0.000010,0.000003,0.000002,0.000010,0.000003,12.789080,0.000014,
2506,3163,5.28612032540731,11.2853915785331,0.0188432724271479,0.002019,-0.000085,0.001209,0.088057,-0.007258,312.577669,26.238517,0.999620,0.992381,0.003450,0.372357,0.000035,0.000011,0.000027,0.000053,-0.000007,33.038213,0.000058,
2311,2158,1.23428495235452,-10.640443089815,0.0257849105550463,0.002230,-0.001007,0.003333,0.090416,-0.002231,328.759735,23.156607,0.999369,0.986221,0.004962,0.394987,-0.000016,-0.000011,-0.000006,-0.000007,-0.000020,-56.688020,0.000028,
2101,2518,-3.40593508412323,-2.76630368424879,-0.0183648155291394,0.001826,-0.001133,0.004943,0.069193,-0.025971,323.123888,24.395036,0.999650,0.992592,0.003573,0.350099,0.000003,-0.000003,-0.000001,0.000003,-0.000003,-7.315666,0.000004,
2386,2518,2.79979891695734,-2.76102006440868,-0.00803608044117254,0.001859,-0.000228,0.001393,0.080227,0.009009,322.649802,23.815931,0.999521,0.988947,0.004272,0.423060,0.000014,-0.000019,-0.000007,0.000016,-0.000020,-11.203585,0.000021,
2296,2098,0.916800900523867,-11.9540619960492,0.0210688048656493,0.001721,-0.000732,0.003928,0.065339,-0.010889,329.672297,23.222197,0.999131,0.981422,0.005362,0.271149,-0.000012,-0.000007,-0.000008,-0.000001,-0.000018,-55.251904,0.000021,
2041,2473,-4.70337831981414,-3.74955550884643,-0.00937400787097431,0.001526,-0.000927,0.006988,0.050507,0.003871,324.226358,24.520261,0.998443,0.983779,0.005281,0.385640,0.000000,-0.000015,-0.000018,0.000012,-0.000027,-33.581030,0.000027,
2026,2413,-5.01983493016198,-5.05890542074427,-0.00883401163673625,0.001932,-0.000294,0.002700,0.081348,0.008224,325.319420,24.591531,0.999288,0.987720,0.004359,0.386740,0.000022,-0.000028,0.000002,0.000022,-0.000028,2.805951,0.000030,
2416,2698,3.41723724013144,1.16774608103577,-0.0249001627399821,0.002099,-0.000603,0.002688,0.086275,-0.021234,319.619806,24.327286,0.999595,0.989618,0.004067,0.405418,0.000014,0.000035,-0.000014,0.000042,0.000007,-64.035738,0.000053,
2476,3013,4.66212851506478,8.02601821518362,0.000620458273601798,0.001828,-0.000608,0.004919,0.065057,-0.007039,314.780254,25.573400,0.999663,0.991744,0.003487,0.348010,0.000011,0.000041,0.000035,0.000064,-0.000013,56.491146,0.000068,
2086,2503,-3.72953543586837,-3.09464651188103,-0.0120134057875703,0.001651,-0.000910,0.005428,0.060011,-0.007728,323.483724,24.379490,0.999236,0.990182,0.003956,0.411296,0.000001,0.000000,-0.000011,0.000012,-0.000011,-43.613415,0.000013,
2116,2623,-3.09728810299772,-0.476351763319165,-0.0298228854653644,0.001701,-0.000469,0.001909,0.072458,-0.010281,321.263176,24.377730,0.999143,0.985760,0.004798,0.384709,0.000014,0.000019,0.000012,0.000029,0.000004,51.175690,0.000036,
2161,2848,-2.15545200057845,4.41933396351808,-0.0142562190322337,0.001849,-0.000698,0.001861,0.079211,-0.015492,317.565298,24.402782,0.999700,0.994112,0.003186,0.469548,0.000014,0.000014,0.000001,0.000015,0.000013,59.880502,0.000028,
2356,2398,2.16921263826471,-5.38371284821293,0.00164048740850831,0.001891,-0.000695,0.004107,0.072014,0.002503,324.653080,23.609374,0.999525,0.987169,0.004551,0.358802,0.000005,0.000010,-0.000009,0.000016,-0.000001,-52.753062,0.000018,
2506,3178,5.28393585771566,11.6107579571688,0.0258436513699962,0.002174,-0.000197,-0.000661,0.102442,-0.009387,312.404630,26.316746,0.999692,0.992778,0.003396,0.351709,0.000032,0.000006,0.000030,0.000052,-0.000014,33.167192,0.000054,
2056,2443,-4.37215244327946,-4.40380740295122,-0.0113580180690747,0.001903,-0.000776,0.002559,0.080063,-0.023704,324.637168,24.504407,0.999215,0.987403,0.004484,0.347378,-0.000022,-0.000009,-0.000008,-0.000005,-0.000026,-64.359693,0.000034,
2101,2488,-3.40074384247584,-3.42195755312545,-0.0132755513411098,0.001809,-0.000849,0.003007,0.074119,-0.038786,323.656557,24.327411,0.999295,0.989873,0.004062,0.399880,0.000004,-0.000004,-0.000007,0.000008,-0.000008,-29.876308,0.000009,
2206,3073,-1.21456879552869,9.30764533244586,0.0176066858274453,0.001963,-0.000369,0.000024,0.090311,0.001134,314.028458,24.797954,0.999690,0.993105,0.003340,0.392844,-0.000001,0.000002,-0.000006,0.000006,-0.000005,-52.613539,0.000007,
2026,2383,-5.01497355817063,-5.71510280462,0.00168533294583995,0.001735,-0.000751,0.003150,0.070920,-0.014895,325.880392,24.612431,0.999454,0.989555,0.004002,0.358847,0.000017,-0.000007,-0.000006,0.000019,-0.000008,-13.845773,0.000019,
2371,2473,2.48180580138697,-3.74482261214933,-0.00348623671550286,0.001960,-0.000746,0.002636,0.080247,-0.028792,323.408940,23.731908,0.999409,0.987642,0.004440,0.371138,0.000015,-0.000007,-0.000005,0.000016,-0.000008,-12.385042,0.000016,
2251,3298,-0.278173101866106,14.1896170798607,0.0125430104671409,0.002336,-0.000377,0.000650,0.105383,-0.027268,310.207802,25.309974,0.999429,0.991405,0.003611,0.343246,-0.000018,0.000027,0.000000,0.000027,-0.000018,89.606076,0.000027,
2401,2608,3.10876333737974,-0.795294360867231,-0.0182373614848643,0.001945,-0.000357,-0.001457,0.094413,-0.006959,321.130153,24.091327,0.999428,0.989544,0.004102,0.381486,0.000015,0.000013,-0.000004,0.000018,0.000009,-38.315154,0.000028,
2341,2293,1.86219866526898,-7.68016556866645,0.00122017425758258,0.002146,-0.000134,0.001562,0.092886,-0.004146,326.367584,23.422280,0.999102,0.985697,0.004747,0.316493,-0.000011,-0.000010,-0.000004,-0.000006,-0.000014,-49.279115,0.000021,
2176,2908,-1.83974670505534,5.72394151664465,-0.00155945510891797,0.001513,-0.001090,0.008021,0.044425,-0.018778,316.607152,24.545291,0.999531,0.992489,0.003576,0.391425,0.000012,0.000013,0.000003,0.000016,0.000009,51.856419,0.000026,
2326,2263,1.5411533805624,-8.33834656043314,0.00922449422910177,0.002110,-0.000370,0.000668,0.094269,-0.013749,326.924007,23.363137,0.999183,0.983589,0.004866,0.354308,-0.000012,-0.000010,-0.000010,-0.000001,-0.000022,-48.639264,0.000025,
2236,3283,-0.60130237538603,13.8637072242061,0.0121605973108672,0.001912,-0.000057,0.001642,0.082788,-0.002495,310.460260,25.217827,0.999398,0.992880,0.003480,0.353763,-0.000012,0.000029,0.000010,0.000031,-0.000014,76.771978,0.000031,
2071,2458,-4.04771855454768,-4.07765180501017,-0.00296503065703746,0.001872,-0.000578,0.002008,0.080189,-0.009131,324.383732,24.400973,0.999507,0.990123,0.004156,0.424361,-0.000016,-0.000021,-0.000017,-0.000001,-0.000036,-41.027309,0.000042,
2266,2023,0.27643378598253,-13.5994215603983,0.0266789269337551,0.001962,0.000540,-0.005468,0.108008,0.010473,331.002736,23.267853,0.998962,0.978928,0.005940,0.282903,0.000002,-0.000046,-0.000016,0.000007,-0.000051,-16.931482,0.000056,
2041,2368,-4.68661210788048,-6.04161588972489,-0.00280365517744485,0.001841,-0.000413,0.002794,0.076727,0.000979,325.999773,24.593967,0.998837,0.985273,0.004975,0.351206,-0.000002,-0.000008,-0.000004,0.000000,-0.000011,-27.235224,0.000012,
2491,3073,4.97703094640044,9.32980120801894,0.00602397341441474,0.001955,-0.000460,0.002709,0.079284,-0.002821,313.895497,25.769478,0.999649,0.991361,0.003846,0.432587,0.000014,0.000047,0.000036,0.000070,-0.000009,57.440967,0.000077,
2221,3148,-0.901515545714847,10.9348477975679,0.02990347697488,0.001933,-0.000248,0.002116,0.082163,-0.009618,312.856906,24.943988,0.999584,0.993033,0.003433,0.378542,-0.000006,0.000006,-0.000005,0.000008,-0.000008,-70.575260,0.000009,
2146,2863,-2.48436070449532,4.74612387870745,-0.0210947312328926,0.001855,-0.000884,0.005280,0.069183,-0.009958,317.310781,24.475449,0.999481,0.992475,0.003544,0.389602,0.000019,0.000015,-0.000003,0.000020,0.000013,-29.009022,0.000034,
2191,2998,-1.52851840989323,7.67978909639595,0.00224914005724486,0.001911,-0.000511,0.003610,0.076597,0.004943,315.155041,24.671615,0.999506,0.991666,0.003738,0.401319,-0.000001,0.000020,0.000007,0.000023,-0.000003,72.249077,0.000025,
2386,2533,2.79630977504173,-2.43236625861819,-0.0163355540394718,0.001937,-0.000141,0.001593,0.083122,0.024219,322.339413,23.877036,0.999535,0.989658,0.004238,0.421799,0.000014,-0.000013,-0.000009,0.000017,-0.000016,-16.709693,0.000019,
2416,2713,3.41505461802388,1.49397654761849,-0.0178284696705191,0.002076,-0.000496,-0.000047,0.095297,-0.008959,319.443932,24.358141,0.999689,0.990528,0.003875,0.434669,0.000010,0.000036,-0.000011,0.000040,0.000006,-70.335405,0.000050,
2071,2518,-4.05759034874682,-2.76761669093528,-0.0173747263544328,0.002076,-0.000691,0.000294,0.094444,-0.026177,323.308866,24.399297,0.999512,0.991306,0.003783,0.401563,-0.000007,-0.000007,-0.000011,0.000004,-0.000018,-45.646173,0.000019,
2161,2908,-2.16489943907937,5.72372118800086,-0.00929428445778058,0.002035,-0.000292,0.000165,0.093095,-0.015018,316.643878,24.516750,0.999546,0.991881,0.003686,0.394740,0.000016,0.000016,0.000004,0.000020,0.000012,43.232676,0.000032,
2116,2728,-3.11397790829973,1.80982424761098,-0.0279317581121745,0.001788,-0.000180,0.001101,0.079032,0.011126,319.583331,24.412954,0.999411,0.989762,0.004030,0.397897,0.000027,0.000009,0.000009,0.000031,0.000005,22.962939,0.000039,
2146,2788,-2.47178944242438,3.11612260497128,-0.0264518797932283,0.002101,-0.000340,0.001722,0.091413,0.000036,318.507132,24.444441,0.999607,0.992995,0.003447,0.392215,0.000012,0.000006,-0.000005,0.000014,0.000004,-29.544491,0.000019,
2266,1993,0.280858911190212,-14.2582332876638,0.0261681191672665,0.001645,-0.000014,0.001772,0.069440,0.011881,331.442038,23.188318,0.999064,0.965380,0.007260,0.305850,0.000015,-0.000053,-0.000035,0.000030,-0.000068,-22.871474,0.000068,
2356,2413,2.16626757426544,-5.05520734694338,-0.00333537065898781,0.002095,-0.000617,0.003154,0.084768,-0.014029,324.381312,23.675134,0.999739,0.990293,0.004099,0.317079,0.000004,0.000016,-0.000004,0.000017,0.000003,-72.737136,0.000022,
2041,2488,-4.70445957159647,-3.42290968192536,-0.0069566628704365,0.002289,-0.000546,0.002551,0.098082,0.005755,324.051924,24.486462,0.999350,0.988751,0.004405,0.414908,0.000004,-0.000007,-0.000014,0.000013,-0.000016,-34.832736,0.000017,
2206,3088,-1.21706214657621,9.63348899051611,0.0227170196616839,0.001954,-0.000531,0.003268,0.079581,0.011061,313.815157,24.871465,0.999507,0.992413,0.003556,0.344716,-0.000002,0.000002,-0.000007,0.000007,-0.000008,-52.169082,0.000009,
2191,3058,-1.53762770145424,8.98083478721658,0.0177320454741334,0.001887,-0.000281,0.000955,0.083968,0.010006,314.313098,24.703116,0.999815,0.995733,0.002937,0.429428,0.000005,-0.000006,0.000000,0.000005,-0.000006,-2.152485,0.000007,
2056,2383,-4.36356103969195,-5.71227735782384,-0.0181207104528198,0.001608,-0.000142,-0.000248,0.074587,0.006184,325.542161,24.538572,0.999118,0.989036,0.004504,0.358948,-0.000013,-0.000015,-0.000004,-0.000010,-0.000018,-40.604987,0.000028,
2011,2203,-5.3149037303792,-9.64817238955374,-0.00351481167024303,0.002052,-0.000462,0.001649,0.089649,0.006711,328.843761,24.790864,0.999547,0.992190,0.004116,0.367978,0.000021,0.000050,0.000024,0.000064,0.000007,60.571137,0.000078,
2476,3028,4.65957357236574,8.35176363173267,0.00501459487088596,0.001949,-0.000552,0.004884,0.070828,-0.000070,314.577295,25.626396,0.999762,0.992876,0.003350,0.357724,0.000015,0.000046,0.000034,0.000068,-0.000007,57.317219,0.000074,
2086,2638,-3.75098688443928,-0.150971955128696,-0.0230456713399576,0.002044,-0.000613,0.004353,0.081335,0.000973,321.229062,24.415094,0.999191,0.988868,0.004184,0.383386,0.000018,0.000020,0.000006,0.000025,0.000012,51.200040,0.000039,
2026,2638,-5.05375605275339,-0.154202747552468,-0.0162864981568873,0.002043,-0.000441,0.001583,0.089615,-0.009929,321.632971,24.406406,0.999314,0.990207,0.004047,0.422533,-0.000008,0.000014,-0.000008,0.000017,-0.000011,-71.565183,0.000017,
2011,2188,-5.31447780280809,-9.97380387830485,-0.0153678945368938,0.000926,-0.000181,0.000025,0.042428,-0.006542,328.938201,24.922661,0.999454,0.991874,0.004286,0.232826,0.000019,0.000052,0.000023,0.000063,0.000008,62.961250,0.000078,
2446,2833,4.04428960961893,4.1116892577621,-0.0201953863259519,0.002013,0.000179,0.000033,0.092461,0.020813,317.510689,24.964298,0.999643,0.992677,0.003553,0.275920,0.000003,0.000033,-0.000011,0.000037,-0.000001,-71.412833,0.000041,
2281,2128,0.584449490298443,-11.2972094685289,0.0232240916956243,0.001805,-0.000525,0.000188,0.081871,-0.030722,329.240004,23.302154,0.998453,0.978569,0.005618,0.323426,-0.000003,-0.000011,-0.000009,0.000002,-0.000017,-32.231151,0.000018,
2401,2623,3.10577532010704,-0.468260752400006,-0.0160133449518298,0.001975,-0.000538,0.001997,0.083226,-0.005118,320.893737,24.139767,0.999286,0.988137,0.004264,0.381024,0.000017,0.000015,-0.000007,0.000023,0.000008,-40.478028,0.000033,
2491,3088,4.97459146568332,9.65597163797876,0.0138696251534611,0.002033,-0.000264,0.003972,0.078123,0.008112,313.713937,25.894361,0.999515,0.991125,0.003738,0.376419,0.000025,0.000049,0.000037,0.000076,-0.000002,54.016970,0.000087,
2026,2428,-5.02234885063457,-4.73141702861608,-0.0120553678872852,0.001868,-0.000496,0.003153,0.077117,-0.004682,325.046734,24.577405,0.999072,0.985491,0.004738,0.379752,0.000015,-0.000010,0.000008,0.000017,-0.000012,16.079410,0.000017,
2161,2863,-2.15861958729361,4.74696518899258,-0.0191637365251722,0.001670,-0.000821,0.003908,0.064676,-0.015559,317.265085,24.520863,0.999417,0.991984,0.003571,0.361157,0.000016,0.000017,-0.000001,0.000018,0.000015,-58.193497,0.000033,
2311,2173,1.23106714556996,-10.3109974825143,0.0212975660524535,0.002080,-0.001094,0.003093,0.084359,-0.026178,328.474413,23.230578,0.999226,0.982615,0.005176,0.332189,-0.000012,-0.000014,-0.000006,-0.000007,-0.000019,-40.486297,0.000026,
2281,2083,0.592246817998969,-12.2838594956013,0.025207198425619,0.001796,-0.001079,0.005519,0.063500,-0.026843,329.962242,23.246433,0.999159,0.982741,0.005147,0.290437,-0.000003,-0.000005,-0.000003,-0.000001,-0.000007,-34.636481,0.000009,
2206,3118,-1.22194503397038,10.2829861339368,0.0303600646096811,0.001788,-0.000597,0.003602,0.070784,-0.013200,313.380730,24.854469,0.999536,0.992685,0.003581,0.368652,-0.000010,0.000007,-0.000006,0.000008,-0.000012,-72.507600,0.000012,
2326,2278,1.53741169013285,-8.00874657133255,0.000786750044312612,0.001724,-0.000266,-0.000190,0.079594,-0.015816,326.596342,23.429823,0.999162,0.983791,0.004906,0.322609,-0.000015,-0.000009,-0.000011,-0.000001,-0.000023,-52.802032,0.000028,
2131,2743,-2.78997887231772,2.13595002969731,-0.0216400081605457,0.002025,-0.000317,0.001899,0.087439,-0.009650,319.335676,24.410830,0.999459,0.990243,0.003996,0.387446,0.000024,0.000008,0.000005,0.000025,0.000007,15.252256,0.000034,
2341,2308,1.8599071436008,-7.35343895414962,0.0132341902399844,0.002038,-0.001138,0.005411,0.074180,-0.027748,326.207243,23.464034,0.998569,0.982079,0.005138,0.289368,-0.000008,-0.000012,-0.000003,-0.000006,-0.000013,-29.616914,0.000020,
2131,2713,-2.78544238137853,1.48408196350809,-0.0277554368876167,0.001940,-0.000213,0.000079,0.088975,-0.005778,319.772554,24.435895,0.999469,0.990371,0.003947,0.354890,0.000028,0.000010,0.000007,0.000031,0.000008,19.236815,0.000041,
2296,2143,0.908957156017511,-10.966306705056,0.0163999016047569,0.002240,-0.001228,0.002024,0.095326,-0.053080,328.938552,23.405985,0.999311,0.982140,0.005312,0.144061,-0.000012,-0.000013,-0.000008,-0.000005,-0.000020,-43.849697,0.000027,
2266,2008,0.279174878662797,-13.9290650537072,0.0298291725978856,0.001964,0.000393,-0.003511,0.101599,0.009883,331.263626,23.243587,0.999255,0.982758,0.005278,0.277365,0.000009,-0.000051,-0.000028,0.000020,-0.000062,-21.322334,0.000063,
2056,2458,-4.37449988921376,-4.07698830281552,-0.0105475812207487,0.001735,-0.000707,0.001647,0.074923,-0.021187,324.397030,24.462207,0.999159,0.987200,0.004677,0.388218,-0.000020,-0.000017,-0.000014,-0.000004,-0.000033,-47.778875,0.000041,
2386,2548,2.79415213695711,-2.10596000854192,-0.0111337895997394,0.002119,-0.000525,-0.000220,0.097800,-0.026704,322.154735,23.923729,0.999412,0.989115,0.004377,0.368052,0.000014,-0.000009,-0.000010,0.000018,-0.000013,-20.212551,0.000018,
2071,2533,-4.0597680707287,-2.44060619221278,-0.0102190434535601,0.002054,-0.000880,0.004713,0.080786,-0.012100,323.112320,24.444397,0.999494,0.990618,0.003935,0.368119,-0.000010,-0.000007,-0.000002,-0.000006,-0.000011,-61.244071,0.000017,
2356,2428,2.16329341681964,-4.72919778119559,-0.00708439224723634,0.002127,-0.000499,0.001802,0.091044,-0.007473,324.114388,23.506531,0.999547,0.989885,0.004209,0.532869,0.000008,0.000011,-0.000004,0.000014,0.000005,-56.611560,0.000019,
2026,2653,-5.05683562416204,0.173025094186485,-0.0249394390774569,0.001848,-0.000803,0.003273,0.075854,-0.021368,321.304381,24.397133,0.999367,0.990823,0.003870,0.411279,-0.000005,0.000015,-0.000012,0.000020,-0.000011,-65.151277,0.000020,
2221,3163,-0.903884906206674,11.2598290704651,0.0361566795611452,0.001809,-0.000526,0.002715,0.074532,-0.007443,312.656301,24.969885,0.999542,0.992877,0.003447,0.372287,-0.000002,0.000015,-0.000002,0.000015,-0.000002,-81.913575,0.000017,
2266,2038,0.273258021348902,-13.27063411147,0.0287218540002527,0.001875,-0.000349,0.002599,0.077142,0.005471,330.748029,23.284065,0.999025,0.980703,0.005512,0.290937,0.000001,-0.000046,-0.000013,0.000004,-0.000049,-14.014454,0.000054,
2446,2848,4.04196482018575,4.4356787452398,-0.010246947891801,0.002032,-0.000162,0.002101,0.085500,0.018702,317.343348,24.860550,0.999545,0.991912,0.003610,0.429498,-0.000001,0.000028,-0.000015,0.000035,-0.000007,-66.497216,0.000037,
2176,2923,-1.84245061220167,6.05096270480587,-0.00582989496535902,0.001769,-0.000814,0.009793,0.050869,0.012260,316.332908,24.598713,0.998965,0.987416,0.004465,0.380995,0.000011,0.000017,0.000004,0.000019,0.000009,61.497996,0.000029,
2011,2323,-5.33181075787663,-7.02596956310161,0.005718135832808,0.001948,-0.000702,0.000366,0.088366,-0.018180,326.991500,24.713147,0.998881,0.984717,0.005068,0.342622,0.000029,-0.000020,0.000006,0.000030,-0.000021,6.608539,0.000031,
2221,3193,-0.908509029797809,11.9101786915913,0.0390704524555758,0.002188,-0.000145,0.001579,0.095830,0.017692,312.210781,24.989257,0.999508,0.992930,0.003437,0.413300,0.000001,0.000014,0.000000,0.000014,0.000001,-89.087000,0.000017,
2071,2473,-4.0495313767342,-3.75023903219111,-0.00271243373066454,0.002221,-0.000489,-0.000249,0.102706,-0.013102,324.166071,24.418839,0.999379,0.989815,0.004311,0.400558,-0.000005,-0.000014,-0.000014,0.000005,-0.000024,-35.968703,0.000025,
2506,3193,5.28063938790432,11.9357722595463,0.0300208318087698,0.001890,-0.000323,0.002615,0.076604,-0.011442,312.167676,26.348877,0.999677,0.992898,0.003407,0.377213,0.000033,-0.000015,0.000032,0.000049,-0.000031,26.875171,0.000050,
2101,2533,-3.40912800728428,-2.43867319477593,-0.0254627532681297,0.001520,-0.000895,0.005807,0.052680,-0.008926,322.805635,24.367458,0.999554,0.990927,0.003913,0.397089,-0.000001,-0.000001,0.000007,0.000007,-0.000008,44.816554,0.000009,
2191,3013,-1.5302092460292,8.00459122569908,0.0122777718601128,0.002030,-0.000261,0.002417,0.085817,-0.007595,315.003763,24.686912,0.999487,0.991256,0.003792,0.387168,0.000001,0.000015,0.000007,0.000018,-0.000002,66.767989,0.000020,
2176,2998,-1.85392456804276,7.6784759912231,0.00687688570002365,0.001865,-0.000785,0.004968,0.070342,0.000480,315.236663,24.636436,0.999470,0.991681,0.003711,0.389709,0.000006,0.000019,0.000012,0.000026,-0.000001,59.649232,0.000030,
2431,2788,3.72642988733614,3.12936805367292,-0.0173403619838837,0.001859,-0.000855,0.003684,0.071459,-0.003447,318.222996,24.683112,0.999465,0.990037,0.004044,0.365499,0.000009,0.000026,-0.000006,0.000028,0.000007,-70.852992,0.000037,
2116,2743,-3.11694422293535,2.13716634515508,-0.0330929689932873,0.001702,-0.000439,0.002874,0.069803,0.016241,319.287264,24.459235,0.999425,0.990402,0.003959,0.360367,0.000024,0.000007,0.000006,0.000026,0.000005,18.814316,0.000033,
2041,2503,-4.70736801407124,-3.09524449935672,-0.0146504543041033,0.002078,-0.000271,0.001946,0.090111,-0.002828,323.737758,24.469441,0.999502,0.990098,0.004020,0.416965,-0.000002,-0.000005,-0.000023,0.000019,-0.000026,-43.522159,0.000027,
2041,2383,-4.68899921415346,-5.7149772332918,-0.0016728914970372,0.001733,-0.001081,0.004432,0.067032,-0.027819,325.758509,24.544225,0.999205,0.988008,0.004401,0.366362,-0.000006,-0.000010,-0.000009,0.000001,-0.000018,-39.345498,0.000020,
2416,2728,3.41129224815006,1.82146285590427,-0.023525329704853,0.001822,-0.000427,0.001241,0.078958,-0.012764,319.135397,24.421570,0.999609,0.990533,0.003909,0.415416,0.000006,0.000029,-0.000003,0.000029,0.000006,-82.837210,0.000038,
2236,3298,-0.604557558358142,14.188798960247,0.00262721095316465,0.001970,-0.000280,0.001116,0.087079,-0.017658,310.138641,25.217954,0.999395,0.992771,0.003468,0.358020,-0.000014,0.000028,0.000007,0.000029,-0.000015,80.666871,0.000029,
2011,2218,-5.31673500548117,-9.32085615821293,0.00658071053504727,0.002052,-0.000904,0.006009,0.077733,-0.010321,328.675183,24.828400,0.999139,0.987591,0.004742,0.303701,0.000029,0.000033,0.000025,0.000056,0.000006,47.138344,0.000068,
2386,2563,2.79053090721166,-1.77719172668359,-0.0160660530515315,0.001855,-0.000209,0.000666,0.082636,-0.002149,321.854047,24.026688,0.999431,0.989910,0.004136,0.334337,0.000013,-0.000011,-0.000011,0.000017,-0.000015,-21.249049,0.000019,
2131,2728,-2.78771020104217,1.80952201062867,-0.026029325273214,0.001838,0.000211,-0.002476,0.092087,-0.003235,319.547156,24.360848,0.999447,0.989132,0.004130,0.438207,0.000026,0.000011,0.000007,0.000029,0.000008,20.603515,0.000039,
2476,3043,4.65639085534301,8.67802779654463,0.00372063075076312,0.001923,-0.000480,0.004905,0.069592,0.011008,314.319306,25.689284,0.999737,0.992727,0.003472,0.361745,0.000013,0.000050,0.000043,0.000078,-0.000015,56.829352,0.000083,
2236,3193,-0.583856784423627,11.9115280656849,0.0343013688178075,0.002001,-0.000484,0.005056,0.075705,0.003147,312.114325,25.052743,0.999416,0.991417,0.003656,0.406595,0.000001,0.000016,0.000000,0.000016,0.000001,89.411786,0.000019,
2011,2338,-5.33454862689142,-6.6980515273601,0.00202314895801692,0.001780,-0.000532,0.003132,0.073196,0.002066,326.704282,24.667966,0.998947,0.986387,0.004808,0.398460,0.000016,-0.000038,-0.000005,0.000017,-0.000039,-5.601603,0.000039,
2296,2158,0.906249151894372,-10.6382018047073,0.0141266152120352,0.002354,-0.000466,0.001365,0.103069,-0.027394,328.686008,23.326440,0.999410,0.983342,0.005184,0.282245,-0.000013,-0.000018,-0.000007,-0.000008,-0.000022,-34.473127,0.000032,
2401,2638,3.10231317821763,-0.140838593904348,-0.0179520909620692,0.001729,-0.000595,0.003762,0.065544,0.006572,320.615761,24.183254,0.999228,0.986998,0.004374,0.395433,0.000016,0.000021,-0.000014,0.000032,0.000004,-50.107071,0.000040,
2461,2953,4.34757356893348,6.72148539998094,-0.0124237639829516,0.002244,-0.000364,0.000251,0.102054,-0.001884,315.655588,25.308750,0.999490,0.991017,0.003896,0.358781,0.000016,0.000008,0.000010,0.000023,0.000002,34.242550,0.000028,
2056,2398,-4.36429095901894,-5.3869818371518,-0.008822579727223,0.002570,-0.000230,-0.000340,0.119052,0.000372,325.422958,24.427236,0.998886,0.986309,0.004791,0.460208,-0.000014,-0.000023,-0.000003,-0.000013,-0.000024,-16.281556,0.000037,
2146,2878,-2.48581662747711,5.07131903227581,-0.00890635866579714,0.001980,-0.000386,0.003719,0.079815,0.005927,317.179296,24.483781,0.999543,0.991983,0.003602,0.404698,0.000022,0.000025,-0.000002,0.000026,0.000021,-64.520371,0.000046,
2101,2593,-3.41775503677947,-1.1317529431073,-0.0174091581114908,0.001662,-0.000473,0.001991,0.070479,-0.014219,321.920305,24.372817,0.999225,0.989083,0.004253,0.394409,0.000003,0.000024,0.000018,0.000034,-0.000007,60.451702,0.000036,
2446,2863,4.03922227642611,4.76172659355028,-0.00857574896991764,0.001961,-0.000076,-0.000203,0.090849,0.005339,317.118055,24.899055,0.999704,0.993380,0.003337,0.429596,0.000000,0.000025,-0.000012,0.000029,-0.000005,-68.333463,0.000031,
2491,3103,4.97207588633676,9.98168037864232,0.0150037980416187,0.002272,-0.000085,0.001378,0.099161,0.006755,313.498619,25.949619,0.999481,0.990372,0.003721,0.377630,0.000024,0.000045,0.000041,0.000077,-0.000007,52.149934,0.000085,
2056,2473,-4.37658958370827,-3.74855197177881,-0.0101441865590459,0.001897,-0.000565,0.001328,0.083341,0.001457,324.165972,24.548859,0.999050,0.987917,0.004863,0.319835,-0.000006,-0.000014,-0.000011,0.000002,-0.000021,-34.799190,0.000023,
2191,3073,-1.53955544191249,9.30594711200088,0.0209730406599533,0.002078,0.000014,-0.002611,0.104010,0.001144,314.115428,24.711990,0.999678,0.994225,0.003209,0.425237,0.000005,-0.000001,-0.000001,0.000005,-0.000001,-8.155088,0.000005,
2221,3178,-0.905880983360721,11.5847809648153,0.040099726218557,0.002013,-0.000462,0.000336,0.091526,-0.021301,312.460969,24.998267,0.999427,0.991877,0.003580,0.347703,0.000000,0.000016,-0.000001,0.000016,0.000000,-86.830068,0.000018,
2341,2323,1.85638597844349,-7.02469240147015,0.00795096177159849,0.001896,-0.001356,0.007589,0.060037,-0.012702,325.906364,23.483975,0.999148,0.986793,0.004644,0.323270,-0.000007,-0.000009,-0.000001,-0.000007,-0.000010,-19.982040,0.000017,
2086,2518,-3.73121784806303,-2.76772805437501,-0.00976452266331762,0.001861,-0.000608,0.000432,0.084141,-0.019733,323.284235,24.393509,0.999519,0.991559,0.003759,0.385518,0.000002,-0.000006,-0.000004,0.000003,-0.000007,-21.588376,0.000007,
2026,2668,-5.05889116781186,0.499047952396353,-0.0259088823188449,0.002031,-0.000855,0.001942,0.087932,-0.034781,321.065869,24.348876,0.999348,0.990319,0.003911,0.436967,-0.000002,0.000017,0.000001,0.000017,-0.000002,88.521411,0.000019,
2326,2293,1.5345149466489,-7.68027893301001,0.000216681852748479,0.001674,-0.000203,0.000141,0.076197,-0.003457,326.345755,23.463927,0.999154,0.983738,0.004957,0.337509,-0.000010,-0.000010,-0.000009,-0.000002,-0.000019,-44.765414,0.000023,
2116,2683,-3.10661415707808,0.829571639700745,-0.0322996060931473,0.002222,-0.000799,0.002097,0.095782,-0.024609,320.294028,24.325292,0.999522,0.992540,0.003507,0.438636,0.000023,0.000020,0.000011,0.000033,0.000010,40.484784,0.000045,
2011,2233,-5.31954654268737,-8.99231594705601,0.00544635072242272,0.001480,-0.000758,0.005974,0.051624,0.006270,328.398667,24.832254,0.999318,0.984759,0.004909,0.306895,0.000037,0.000031,0.000022,0.000056,0.000012,40.924779,0.000072,
2161,2878,-2.16036862555858,5.0724989576491,-0.0135687528414792,0.001969,-0.000624,0.002491,0.082811,-0.017974,317.085994,24.530385,0.999526,0.992907,0.003456,0.358821,0.000019,0.000026,0.000000,0.000026,0.000019,-86.549885,0.000045,
2476,3058,4.65431709463487,9.00322391430902,0.0125144712851011,0.001765,-0.000394,0.000147,0.080459,-0.004915,314.158561,25.750352,0.999648,0.990616,0.003931,0.340337,0.000013,0.000041,0.000041,0.000070,-0.000016,54.758904,0.000074,
2386,2578,2.78756500888807,-1.45053895542745,-0.0117339501300648,0.001781,-0.000787,0.004988,0.063584,0.012076,321.627762,24.032243,0.999385,0.988261,0.004392,0.386881,0.000015,-0.000001,-0.000008,0.000019,-0.000005,-22.721659,0.000019,
2461,2968,4.34490529659048,7.04687002581757,-0.00652086794804063,0.002150,-0.000503,0.000757,0.095788,-0.010835,315.453794,25.340356,0.999482,0.990558,0.003973,0.371729,0.000017,0.000015,0.000020,0.000037,-0.000004,43.652898,0.000040,
2116,2758,-3.1180830039882,2.46162431012688,-0.0191128233871609,0.001875,-0.000353,-0.000363,0.087311,-0.002025,319.178725,24.420125,0.999508,0.991119,0.003771,0.384364,0.000016,0.000001,0.000000,0.000016,0.000001,-0.763348,0.000019,
2371,2488,2.47894550109113,-3.41740888095021,-0.000550524487778148,0.001927,-0.000800,0.005087,0.070033,-0.005414,323.179962,23.757169,0.999436,0.987666,0.004364,0.411522,0.000022,-0.000006,-0.000006,0.000023,-0.000008,-11.706682,0.000023,
2281,2158,0.578922967244797,-10.6384470779654,0.0192652806055662,0.002165,-0.000737,0.003124,0.088510,-0.005251,328.729926,23.401405,0.999523,0.982881,0.005193,0.311093,-0.000006,-0.000022,-0.000005,-0.000005,-0.000024,-15.636445,0.000030,
2506,3208,5.2771270619626,12.2623137731551,0.0249140731185094,0.001894,-0.000364,0.002495,0.077270,-0.008480,311.878542,26.466409,0.999468,0.991718,0.003649,0.322257,0.000035,-0.000033,0.000022,0.000042,-0.000040,16.282905,0.000047,
2086,2653,-3.75321791535446,0.174820477082569,-0.0156188511002711,0.001899,-0.001022,0.007373,0.065853,0.002629,321.032955,24.397602,0.999493,0.990290,0.003821,0.401867,0.000020,0.000020,0.000004,0.000024,0.000015,44.874473,0.000040,
2266,2083,0.26443901364874,-12.2815648971041,0.0141252283620474,0.002122,-0.000420,0.003162,0.086614,-0.010820,329.912104,23.383279,0.999361,0.983833,0.005021,0.262737,0.000002,-0.000002,0.000000,0.000002,-0.000002,3.103025,0.000002,
2161,2923,-2.16799771695546,6.05004080900952,-0.00532201273580313,0.001482,-0.000479,0.004441,0.054531,0.003182,316.394020,24.577524,0.999259,0.988816,0.004185,0.361539,0.000015,0.000018,0.000005,0.000022,0.000011,54.439353,0.000034,
2281,2143,0.581423099428751,-10.96682203344,0.0226730121230503,0.001795,-0.000960,0.003938,0.068761,-0.020800,328.979929,23.458985,0.999173,0.981971,0.005309,0.207259,-0.000006,-0.000018,-0.000006,-0.000003,-0.000020,-23.429392,0.000025,
2296,2233,0.892354880689972,-8.99432493850846,0.0110523281379642,0.002197,-0.000088,0.000250,0.099824,0.004599,327.447470,23.500873,0.998962,0.981012,0.005324,0.302886,-0.000014,-0.000006,-0.000002,-0.000005,-0.000014,-76.418790,0.000020,
2266,2053,0.270081239818925,-12.9414971679335,0.024820892578532,0.001805,-0.000634,0.004995,0.065977,-0.000453,330.463479,23.271907,0.998881,0.979711,0.005538,0.326447,0.000001,-0.000032,-0.000005,0.000002,-0.000033,-7.748060,0.000037,
2251,1993,-0.0481682325141968,-14.2544282145308,-0.00386393320110301,0.002124,-0.000233,-0.002364,0.104917,-0.047802,331.250994,23.318390,0.999655,0.990523,0.004331,0.223108,0.000018,-0.000046,-0.000023,0.000026,-0.000054,-18.064416,0.000054,
2056,2488,-4.37901101100927,-3.42182104764829,-0.0101959339386894,0.001821,-0.000796,0.002174,0.077395,-0.008814,323.917804,24.513002,0.999360,0.989342,0.004362,0.341353,-0.000002,-0.000006,-0.000007,0.000003,-0.000011,-38.585572,0.000011,
2176,2938,-1.84425158036447,6.37649264962307,-0.00115930579346468,0.002021,-0.000695,0.007153,0.070744,0.011589,316.147495,24.614408,0.999256,0.990407,0.003942,0.376399,0.000008,0.000017,0.000005,0.000019,0.000006,65.130164,0.000026,
2431,2803,3.72426706272013,3.456360675254,-0.0143143381317259,0.002202,-0.000583,0.000916,0.097536,-0.013715,318.029638,24.799036,0.999498,0.990001,0.004036,0.289189,0.000004,0.000019,-0.000010,0.000024,-0.000001,-64.381470,0.000027,
2071,2548,-4.06278566345533,-2.11325474081961,-0.0173162727553517,0.001787,-0.000718,0.004439,0.069377,0.001513,322.799336,24.398759,0.999484,0.990586,0.004014,0.425378,-0.000008,0.000000,0.000000,0.000000,-0.000008,88.674125,0.000010,
2356,2443,2.16085328758954,-4.40104016248998,-0.00264690280209834,0.002044,-0.000538,-0.000072,0.093810,-0.020580,323.910952,23.636307,0.998979,0.982864,0.005103,0.430016,0.000012,0.000002,-0.000005,0.000014,0.000000,-21.631523,0.000016,
2086,2668,-3.75533260556404,0.501330559803307,-0.0190916259510914,0.002190,-0.000732,0.004526,0.087530,0.000626,320.782720,24.362509,0.999467,0.990788,0.003780,0.434529,0.000020,0.000020,0.000010,0.000030,0.000009,45.586894,0.000042,
2026,2443,-5.02433811667613,-4.40307066714962,-0.0136503133365977,0.002118,-0.000227,0.001616,0.092892,-0.009282,324.806846,24.653936,0.999410,0.990141,0.004061,0.290190,0.000006,0.000000,-0.000008,0.000011,-0.000006,-34.006700,0.000011,
2311,2188,1.22898076816379,-9.98320469761529,0.0293740178747157,0.001981,-0.000905,0.001066,0.086795,-0.033995,328.302561,23.275721,0.999120,0.981917,0.005179,0.313697,-0.000014,-0.000007,-0.000010,0.000000,-0.000021,-54.594777,0.000025,
2056,2413,-4.36647170438735,-5.05916107141177,-0.00772360646897141,0.002611,-0.000094,-0.000248,0.120736,0.000312,325.191759,24.467101,0.998396,0.982488,0.005336,0.416397,-0.000012,-0.000035,-0.000007,-0.000010,-0.000037,-14.566507,0.000049,
2071,2488,-4.05268847400379,-3.42264603611559,-0.00582799421016489,0.001769,-0.000620,0.002813,0.073173,-0.008160,323.868442,24.418602,0.999545,0.991276,0.004050,0.403852,-0.000002,-0.000008,-0.000012,0.000007,-0.000018,-38.760355,0.000018,
2506,3223,5.27419665690989,12.5873747990832,0.025938318808528,0.002053,-0.000478,0.003535,0.080509,-0.012548,311.644129,26.493847,0.999535,0.991823,0.003692,0.350623,0.000035,-0.000060,0.000013,0.000036,-0.000061,7.658327,0.000062,
2191,3028,-1.53332045529131,8.33018494935721,0.012089033887321,0.001746,-0.000621,0.005794,0.062064,-0.002831,314.733713,24.692887,0.999578,0.992449,0.003735,0.399513,0.000000,0.000012,0.000002,0.000012,0.000000,80.879361,0.000014,
2206,3103,-1.21942427071085,9.95757538627041,0.0266835537308339,0.001965,-0.000678,0.003829,0.078206,-0.009682,313.602583,24.809769,0.999465,0.991109,0.003881,0.401437,-0.000006,0.000004,-0.000005,0.000006,-0.000008,-66.024850,0.000009,
2086,2533,-3.73382652056451,-2.44043853827264,-0.00919845955041865,0.001780,-0.000731,0.003772,0.070757,-0.010742,323.033061,24.410197,0.999677,0.992156,0.003723,0.377716,-0.000001,-0.000005,0.000005,0.000002,-0.000008,34.428994,0.000008,
2131,2803,-2.79998732914623,3.440696564152,-0.0164817589288759,0.001733,-0.000531,0.005289,0.063806,-0.002528,318.380948,24.432823,0.999535,0.992667,0.003516,0.395127,0.000009,-0.000001,-0.000003,0.000009,-0.000002,-14.083686,0.000010,
2176,3013,-1.85607950726753,8.00420134995987,0.00801955039611357,0.002089,-0.000504,0.003487,0.085311,0.002173,315.016396,24.662368,0.999422,0.989590,0.003989,0.376836,0.000006,0.000016,0.000012,0.000024,-0.000002,55.752791,0.000026,
2236,3208,-0.585986616612576,12.2365523858086,0.0415842107813091,0.001820,-0.000316,0.002171,0.076808,0.006751,311.930762,25.097257,0.999486,0.992790,0.003516,0.385390,0.000002,0.000017,0.000003,0.000018,0.000001,77.447660,0.000021,
2026,2683,-5.06221502013642,0.828288051636555,-0.0434142800400537,0.002070,-0.000773,0.002589,0.088009,-0.016793,320.676033,24.432953,0.999799,0.995937,0.002923,0.361673,0.000000,-0.000001,0.000006,0.000006,-0.000007,41.591823,0.000007,
2221,3208,-0.911408302757064,12.2352293875601,0.0451282706130769,0.001682,-0.000365,0.004029,0.064579,0.016457,311.984738,25.033432,0.999396,0.992030,0.003669,0.385615,0.000002,0.000016,0.000004,0.000017,0.000001,75.227455,0.000021,
2491,3118,4.96901601001901,10.3073979627388,0.0144219013895395,0.002209,-0.000070,-0.000060,0.101772,0.001771,313.250374,26.002542,0.999492,0.991145,0.003651,0.377362,0.000025,0.000048,0.000039,0.000077,-0.000004,53.312850,0.000087,
2041,2518,-4.70966289356754,-2.76809722779472,-0.0155574541253145,0.002145,-0.000327,0.002570,0.091471,0.007550,323.489295,24.453038,0.999369,0.990350,0.004059,0.437380,-0.000013,-0.000011,-0.000018,0.000006,-0.000029,-46.443200,0.000031,
2011,2353,-5.33709081508366,-6.36872073763425,-0.0085557937349563,0.001973,-0.000546,0.001624,0.086155,-0.030129,326.387358,24.742331,0.999063,0.988901,0.004601,0.282117,0.000015,-0.000026,0.000003,0.000015,-0.000027,3.875663,0.000027,
2041,2398,-4.6912158123655,-5.38780130674767,-0.00834776946561533,0.002022,-0.000922,0.001985,0.087155,-0.029297,325.481649,24.446560,0.999211,0.988909,0.004229,0.456772,-0.000006,-0.000021,-0.000006,-0.000003,-0.000023,-20.219035,0.000029,
2101,2608,-3.41982205752859,-0.805086802317106,-0.015561565224175,0.001728,-0.000304,-0.000125,0.079767,-0.010588,321.702205,24.373007,0.998938,0.987277,0.004612,0.399658,0.000007,0.000023,0.000019,0.000035,-0.000006,56.637870,0.000037,
2146,2893,-2.48808758741293,5.39697038490589,-0.0100816717371686,0.002109,-0.000553,0.001123,0.093575,-0.019853,316.939399,24.481155,0.999582,0.990569,0.003858,0.388767,0.000018,0.000020,0.000000,0.000020,0.000018,89.256060,0.000038,
2146,2803,-2.47383775049736,3.4413469520097,-0.0188559654981759,0.002095,-0.000348,0.002662,0.088261,-0.004543,318.324104,24.423588,0.999630,0.993232,0.003404,0.416362,0.000009,0.000000,-0.000005,0.000011,-0.000002,-22.721477,0.000011,
2416,2743,3.40850084737972,2.14878880754965,-0.0241013662356977,0.001961,-0.000471,0.000407,0.088395,-0.012588,318.895406,24.512286,0.999440,0.989373,0.004084,0.372872,0.000006,0.000034,-0.000002,0.000035,0.000006,-86.865860,0.000044,
2056,2503,-4.38198828263902,-3.09490830494775,-0.0203118317643884,0.001730,-0.000788,0.001756,0.074408,-0.017499,323.588809,24.405832,0.999495,0.989426,0.004128,0.436020,-0.000005,-0.000001,-0.000012,0.000009,-0.000016,-49.695601,0.000016,
2446,2878,4.03516452737787,5.08892537013621,-0.0154804962382968,0.001817,-0.000665,0.004030,0.068204,-0.001396,316.792288,24.978187,0.999505,0.992160,0.003583,0.395687,0.000000,0.000021,-0.000009,0.000025,-0.000003,-69.189932,0.000027,
2011,2248,-5.32091911489412,-8.66516190764565,0.00424362631690656,0.002089,-0.000513,0.001598,0.091504,-0.014629,328.187956,24.751364,0.999119,0.984170,0.004984,0.357267,0.000030,0.000031,0.000010,0.000040,0.000020,46.401935,0.000062,
2431,2818,3.72070960590861,3.7828347781248,-0.0224236843878884,0.002042,-0.000097,-0.001885,0.100762,-0.001297,317.720394,24.763942,0.999507,0.991231,0.003915,0.386582,0.000002,0.000024,-0.000008,0.000027,-0.000001,-71.940174,0.000031,
2506,3238,5.270882089583,12.9126422158157,0.0226592689868426,0.002106,-0.000303,0.003561,0.082923,-0.004554,311.372529,26.507625,0.999541,0.991143,0.003785,0.404604,0.000032,-0.000062,0.000009,0.000033,-0.000063,5.289467,0.000063,
2266,2068,0.267710226181038,-12.6116828464958,0.0222406829644797,0.002034,-0.000441,0.001595,0.087722,-0.011755,330.222295,23.347359,0.999154,0.982223,0.005181,0.268418,0.000000,-0.000013,0.000000,0.000000,-0.000013,-1.410732,0.000015,
2101,2548,-3.4116953589594,-2.11193551388217,-0.0351986520348646,0.001755,-0.000769,0.002746,0.072479,-0.016594,322.502072,24.265022,0.999638,0.993397,0.003668,0.494324,0.000000,0.000008,0.000010,0.000015,-0.000007,54.614179,0.000015,
2116,2773,-3.12043246093469,2.78823609481548,-0.0202657520580374,0.002107,-0.000056,0.000817,0.094635,0.012767,318.932668,24.430049,0.999711,0.992650,0.003419,0.392767,0.000013,0.000003,-0.000002,0.000013,0.000002,-13.392174,0.000017,
2401,2653,3.09984776755846,0.18593801752408,-0.0165558056342547,0.002154,-0.000826,0.004780,0.081293,0.002912,320.399400,24.215550,0.999306,0.987557,0.004405,0.405343,0.000014,0.000026,-0.000012,0.000033,0.000007,-58.714236,0.000042,
2476,3073,4.65174344631253,9.32851199983499,0.0152157325521785,0.002106,-0.000267,0.001319,0.091707,-0.003477,313.946948,25.766226,0.999646,0.990908,0.003805,0.381716,0.000017,0.000043,0.000039,0.000071,-0.000012,54.184931,0.000076,
2206,3178,-1.23206482783117,11.5846694987338,0.0283226187101491,0.002129,-0.000238,0.001425,0.093533,-0.007657,312.404660,24.951969,0.999705,0.995137,0.003041,0.338801,-0.000005,0.000019,0.000004,0.000020,-0.000006,81.068358,0.000020,
2191,3103,-1.54459276882682,9.95645942754557,0.0281384905342179,0.002050,-0.000482,0.002103,0.087755,-0.010662,313.669225,24.765379,0.999500,0.992820,0.003521,0.386791,-0.000001,0.000003,-0.000001,0.000003,-0.000001,-73.518924,0.000003,
2461,2983,4.34199903361958,7.37343031724554,-0.00232970226670659,0.002039,-0.000445,0.002166,0.085371,-0.011774,315.232795,25.463904,0.999526,0.990638,0.003877,0.300948,0.000020,0.000029,0.000026,0.000051,-0.000001,49.912940,0.000058,
2131,2758,-2.79276574255814,2.46290416199962,-0.0237225954506357,0.001914,-0.000619,0.003114,0.078589,-0.007671,319.065712,24.453606,0.999487,0.991502,0.003759,0.352406,0.000019,0.000003,-0.000001,0.000019,0.000003,-3.326408,0.000023,
2251,2008,-0.0506934132049288,-13.9268496714346,0.0105292660047098,0.001611,-0.000759,0.003625,0.061693,-0.007384,331.086881,23.310617,0.999626,0.988957,0.004454,0.297985,0.000010,-0.000046,-0.000018,0.000015,-0.000052,-16.377187,0.000053,
2011,2368,-5.33881847519219,-6.04182457951423,-0.00898218153918151,0.002252,-0.000312,-0.001878,0.108522,-0.012675,326.164867,24.649694,0.999208,0.988398,0.004588,0.381790,0.000018,-0.000010,0.000003,0.000018,-0.000010,6.246314,0.000018,
2371,2503,2.47575072028987,-3.08897002309006,-0.00646258507487119,0.001864,-0.000693,0.002538,0.076255,-0.009598,322.893243,23.828014,0.999491,0.988364,0.004308,0.378960,0.000016,-0.000007,-0.000006,0.000018,-0.000008,-13.629664,0.000018,
2071,2563,-4.0651199999571,-1.78518176091232,-0.0248615292935597,0.002080,-0.000404,0.001634,0.090937,0.001163,322.515013,24.434784,0.999170,0.989186,0.004276,0.386822,-0.000005,0.000011,0.000002,0.000012,-0.000006,82.325723,0.000012,
2341,2338,1.85451469584987,-6.69716397153223,0.0148482017429501,0.002258,-0.000959,0.007017,0.078772,0.011854,325.740131,23.508522,0.999316,0.987750,0.004646,0.361547,-0.000005,-0.000010,-0.000002,-0.000004,-0.000011,-21.769130,0.000015,
2026,2458,-5.02742532067983,-4.07628482062411,-0.024139940524833,0.001951,-0.000585,0.002643,0.082294,-0.023063,324.467689,24.519728,0.999405,0.990536,0.003994,0.402661,0.000000,-0.000013,-0.000014,0.000009,-0.000022,-32.433433,0.000022,
2206,3133,-1.22383368077673,10.6083434323525,0.0349170297731121,0.002169,-0.000335,0.003162,0.089814,-0.003159,313.192486,24.889460,0.999650,0.994174,0.003303,0.359236,-0.000014,0.000006,-0.000003,0.000007,-0.000014,-81.030739,0.000014,
2161,2953,-2.17232212315791,6.70056166215102,0.00342765564755609,0.001658,-0.000524,0.005013,0.060830,-0.006904,315.985216,24.566929,0.999469,0.991600,0.003666,0.380879,0.000013,0.000017,0.000008,0.000023,0.000007,53.331421,0.000031,
2506,3253,5.26759358822528,13.2387156311654,0.0169930586274631,0.002246,-0.000255,0.001874,0.095961,0.002924,311.091052,26.587233,0.999690,0.992731,0.003520,0.392274,0.000035,-0.000068,0.000012,0.000036,-0.000069,6.503229,0.000069,
2446,2893,4.03103327690715,5.41636304587006,-0.0279284699702771,0.001719,-0.000758,0.004206,0.063008,-0.002930,316.437384,25.039092,0.999435,0.991910,0.003728,0.385226,0.000005,0.000014,-0.000004,0.000016,0.000003,-69.956822,0.000021,
2056,2548,-4.38916082252311,-2.11387041203476,-0.0164486762088814,0.001520,-0.001004,0.006737,0.050648,-0.015633,322.870361,24.424112,0.999430,0.989590,0.004042,0.406527,-0.000011,-0.000002,0.000000,-0.000002,-0.000011,87.782540,0.000015,
2191,3088,-1.54218425126494,9.63180661433441,0.0205338469407366,0.002260,-0.000127,0.000177,0.103593,0.006760,313.866080,24.755478,0.999506,0.992475,0.003568,0.400806,0.000004,0.000000,-0.000003,0.000005,-0.000002,-29.440396,0.000006,
2221,3223,-0.914370190829469,12.5607933555509,0.0432183593372883,0.001727,-0.000320,0.007265,0.056311,0.025554,311.714567,25.071957,0.999575,0.993592,0.003374,0.373413,0.000003,0.000022,0.000007,0.000024,0.000001,71.728800,0.000028,
2326,2308,1.53188090981307,-7.35190245856494,-0.000810274485331774,0.002009,-0.000555,0.001586,0.086417,-0.005637,326.105010,23.504820,0.999054,0.983906,0.005000,0.330725,-0.000007,-0.000013,-0.000007,-0.000002,-0.000018,-33.875271,0.000022,
2221,3253,-0.920228614654459,13.2108299916302,0.025997772292385,0.002045,-0.000398,0.002617,0.085732,-0.014981,311.108509,25.044190,0.999659,0.994114,0.003190,0.395942,0.000002,0.000010,0.000012,0.000019,-0.000007,54.244286,0.000019,
2491,3133,4.96574182083159,10.6330136977701,0.013090772491239,0.002092,-0.000299,-0.000334,0.097336,-0.013977,312.988808,26.056283,0.999468,0.991203,0.003602,0.365841,0.000032,0.000037,0.000037,0.000071,-0.000003,47.105464,0.000081,
2296,2173,0.90303699214062,-10.3100564955804,0.00762416831076962,0.002198,-0.000560,-0.000455,0.102021,-0.017424,328.389551,23.227110,0.999436,0.982126,0.005269,0.424529,-0.000008,-0.000024,-0.000007,-0.000005,-0.000027,-21.457450,0.000034,
2116,2698,-3.10902708327909,1.15652146806492,-0.0251145303740827,0.001758,-0.000734,0.001905,0.075046,-0.025104,320.089786,24.427586,0.999432,0.991092,0.003789,0.339571,0.000027,0.000011,0.000008,0.000030,0.000008,22.473190,0.000040,
2146,2998,-2.50422759124465,7.67596765796361,0.0114476375906634,0.002055,-0.000304,0.001184,0.091036,-0.005392,315.406788,24.541078,0.999632,0.993346,0.003399,0.394221,0.000004,0.000015,0.000009,0.000020,-0.000001,61.799087,0.000023,
2086,2548,-3.73677669252234,-2.11347385896585,-0.0166607737459117,0.001588,-0.000612,0.002770,0.064897,0.005532,322.722699,24.323482,0.999409,0.990997,0.003994,0.481142,0.000000,0.000003,0.000007,0.000009,-0.000006,51.686641,0.000009,
2041,2413,-4.69410806106233,-5.05849301861105,-0.0161182985553978,0.001987,-0.000661,0.004017,0.079989,-0.005302,325.167225,24.514057,0.999007,0.985281,0.004709,0.407620,-0.000001,-0.000032,-0.000007,0.000000,-0.000034,-12.835518,0.000039,
2311,2203,1.22606813339383,-9.65310653522655,0.0181295101226056,0.002544,-0.000414,-0.000472,0.118023,-0.006077,327.997649,23.297661,0.998894,0.980010,0.005514,0.355043,-0.000016,-0.000001,-0.000006,0.000000,-0.000018,-71.421764,0.000021,
2101,2563,-3.41352931375188,-1.78483890041967,-0.0272922079762452,0.001815,-0.001022,0.002952,0.074539,-0.041627,322.327309,24.373936,0.999251,0.989502,0.004242,0.362215,0.000003,0.000013,0.000012,0.000021,-0.000005,56.401553,0.000022,
2176,2953,-1.84686360913065,6.70197505111298,-0.00268273435926858,0.001930,-0.000462,0.005222,0.072573,0.000493,315.892398,24.596513,0.999274,0.992338,0.003583,0.394709,0.000010,0.000016,0.000007,0.000021,0.000005,57.477480,0.000028,
2041,2533,-4.71202875242491,-2.44076067113613,-0.0148091876353647,0.002102,-0.000648,0.004126,0.085078,-0.001684,323.246777,24.493208,0.999302,0.989747,0.003994,0.381488,-0.000014,-0.000015,-0.000009,-0.000005,-0.000024,-44.195286,0.000031,
2116,2788,-3.12318826474892,3.11394666588064,-0.0170898624193114,0.001973,-0.000621,0.006914,0.070245,0.009320,318.691564,24.413646,0.999607,0.992563,0.003501,0.408958,0.000009,0.000009,-0.000003,0.000012,0.000006,-45.748068,0.000018,
2086,2683,-3.75808002341216,0.828144922079645,-0.0240141041606989,0.001989,-0.000576,0.002413,0.084422,-0.010360,320.495558,24.357489,0.999602,0.992150,0.003461,0.428197,0.000018,0.000015,0.000006,0.000023,0.000010,38.423183,0.000034,
2026,2698,-5.06454376624616,1.15415716794273,-0.0419802529665958,0.001877,-0.000405,0.001900,0.081105,-0.015599,320.438449,24.386317,0.999831,0.995700,0.002932,0.400057,0.000010,-0.000009,0.000003,0.000011,-0.000010,8.017661,0.000012,
2206,3193,-1.23406706226445,11.9089882116083,0.033799638098742,0.002277,-0.000265,0.000136,0.104499,-0.004250,312.216291,24.917619,0.999792,0.996398,0.002842,0.392011,-0.000005,0.000018,0.000005,0.000019,-0.000006,79.148107,0.000020,
2266,2203,0.243261259954327,-9.65169218725493,0.00831448101740762,0.002444,-0.000518,0.000719,0.109484,-0.024880,327.954797,23.534790,0.998576,0.982194,0.005470,0.324844,-0.000004,-0.000012,-0.000013,0.000005,-0.000021,-37.058928,0.000022,
2026,2473,-5.0300910302394,-3.74896658521351,-0.0186915317116814,0.001512,-0.000921,0.007912,0.047577,-0.003456,324.236294,24.554002,0.998877,0.986445,0.004669,0.379265,0.000014,-0.000017,-0.000010,0.000017,-0.000020,-15.599614,0.000022,
2281,2173,0.575479041201792,-10.3106770217671,0.0137636503823728,0.001908,-0.000910,0.004589,0.071812,-0.008471,328.426462,23.291098,0.999334,0.982366,0.005270,0.448986,-0.000002,-0.000031,-0.000007,0.000000,-0.000032,-12.904694,0.000037,
2431,2833,3.71770158804745,4.11029818348669,-0.0225525970301987,0.002168,-0.000385,-0.000107,0.099846,-0.013846,317.473232,24.910527,0.999279,0.989834,0.004034,0.277495,-0.000001,0.000031,-0.000010,0.000033,-0.000004,-74.450893,0.000036,
2296,2248,0.889420941150949,-8.66650021124705,0.00634269606047155,0.002184,-0.000289,-0.001680,0.105641,-0.023521,327.172609,23.457380,0.999151,0.983292,0.005067,0.350897,-0.000010,-0.000012,0.000001,-0.000009,-0.000012,22.526626,0.000021,
2506,3268,5.26378204367083,13.5650733543789,0.0121387934846666,0.002141,-0.000410,0.004282,0.081815,0.010173,310.788887,26.702452,0.999852,0.995579,0.002832,0.343647,0.000042,-0.000064,0.000018,0.000045,-0.000067,9.293394,0.000068,
2266,2098,0.261711708509747,-11.9514550545794,0.00774355663179449,0.002204,-0.000163,-0.001176,0.104780,-0.019110,329.635464,23.453133,0.999154,0.981382,0.005355,0.213494,0.000002,-0.000006,-0.000003,0.000003,-0.000007,-17.272831,0.000007,
2071,2578,-4.06766857976609,-1.4583868122382,-0.0247508050795204,0.002081,-0.000715,0.005257,0.080579,0.015844,322.263054,24.411457,0.998955,0.989146,0.004400,0.422448,-0.000006,0.000022,0.000007,0.000024,-0.000008,77.457011,0.000024,
2131,2818,-2.80230241830906,3.76651497118606,-0.0135448265668856,0.001487,-0.000365,0.002229,0.061649,-0.013951,318.159776,24.440759,0.999307,0.991357,0.003898,0.381457,0.000011,0.000009,-0.000001,0.000012,0.000009,-17.350067,0.000021,
2401,2668,3.09693061345925,0.513236020534308,-0.0185928932237971,0.002100,-0.000765,0.001984,0.088908,-0.017817,320.145977,24.288710,0.999321,0.988388,0.004392,0.357589,0.000009,0.000027,-0.000013,0.000034,0.000002,-61.724484,0.000041,
2386,2593,2.78484569752836,-1.12337656776354,-0.00952951669779623,0.002084,-0.000774,0.008844,0.063666,0.019755,321.402576,24.076716,0.999419,0.988247,0.004430,0.394226,0.000016,0.000000,-0.000006,0.000018,-0.000002,-19.337127,0.000019,
2056,2518,-4.38357088329829,-2.76775835511972,-0.0152219004583571,0.002019,-0.000390,-0.000051,0.092894,-0.009357,323.407143,24.446482,0.999420,0.989876,0.004047,0.399124,-0.000012,-0.000007,-0.000007,-0.000002,-0.000017,-54.469216,0.000020,
2236,3223,-0.58941238861194,12.5625854352291,0.0369189910248338,0.001526,0.000014,0.004012,0.057399,0.027228,311.626080,25.152503,0.999398,0.992358,0.003717,0.370297,0.000003,0.000023,0.000006,0.000025,0.000001,74.229564,0.000029,
2356,2458,2.15726875366718,-4.07142163703838,-0.00966337996908351,0.002037,-0.000620,0.002353,0.084909,-0.016865,323.599576,23.781160,0.999329,0.986215,0.004592,0.329260,0.000010,0.000006,-0.000003,0.000012,0.000004,-26.823809,0.000016,
2101,2623,-3.42332483673982,-0.476784958652914,-0.0335688496215312,0.001683,-0.000113,-0.001442,0.081650,0.003714,321.310615,24.347981,0.999088,0.987567,0.004481,0.441412,0.000011,0.000022,0.000012,0.000030,0.000003,56.657735,0.000037,
2281,2278,0.555604241221001,-8.00942018422296,0.00393915850855819,0.001675,-0.001005,0.005654,0.057575,-0.003609,326.636300,23.576671,0.999637,0.988837,0.004391,0.380285,-0.000006,-0.000006,-0.000010,0.000004,-0.000016,-44.852054,0.000017,
2491,3148,4.96304213805642,10.958572622104,0.0207414514504194,0.002128,-0.000415,0.003356,0.084816,-0.001384,312.794235,26.135086,0.999498,0.990533,0.003729,0.357180,0.000029,0.000017,0.000036,0.000059,-0.000013,40.099553,0.000063,
2011,2263,-5.3231479847577,-8.33747011675798,0.00470016908315074,0.001986,-0.000699,0.001186,0.087840,-0.033966,327.947332,24.740351,0.998709,0.980519,0.005224,0.339394,0.000019,0.000015,0.000018,0.000035,-0.000001,41.393150,0.000040,
2071,2623,-4.0745729876108,-0.478307878099898,-0.0268294522952033,0.002055,-0.000438,0.001241,0.090908,-0.003660,321.528252,24.384162,0.999138,0.989422,0.004168,0.423015,0.000004,0.000028,0.000004,0.000029,0.000003,80.980056,0.000035,
2371,2518,2.47261094070493,-2.76203637669815,-0.00871355011906871,0.001820,-0.000972,0.003272,0.071497,-0.021555,322.626767,23.807341,0.999443,0.986997,0.004589,0.429784,0.000014,-0.000013,-0.000007,0.000016,-0.000015,-14.734500,0.000018,
2416,2758,3.40558638234154,2.47530036746508,-0.0235407586260408,0.001905,-0.000216,-0.000107,0.087808,-0.005819,318.655178,24.535163,0.999466,0.988834,0.004147,0.404396,0.000011,0.000042,0.000002,0.000042,0.000011,87.237125,0.000056,
2461,2998,4.33929776674884,7.69813979743079,0.000278040158320891,0.002291,-0.000526,0.004020,0.089943,-0.008733,315.014412,25.405732,0.999494,0.990481,0.003840,0.415925,0.000020,0.000030,0.000030,0.000056,-0.000005,49.580836,0.000062,
2206,3148,-1.22675952303492,10.9341054394971,0.0289023698059623,0.002126,-0.000095,0.000994,0.094846,0.002880,312.901634,24.904916,0.999542,0.993596,0.003414,0.365492,-0.000011,0.000007,0.000000,0.000007,-0.000011,-89.135051,0.000011,
2221,3268,-0.922875104880777,13.5356291483988,0.0192943437138524,0.002313,-0.000359,-0.000311,0.107472,-0.022829,310.828332,25.015585,0.999556,0.993288,0.003395,0.434292,0.000000,0.000017,0.000016,0.000026,-0.000009,59.601818,0.000027,
2086,2563,-3.73829696115679,-1.78679517751073,-0.00607096263394169,0.001719,-0.000885,0.002155,0.072562,-0.026052,322.576108,24.422570,0.998839,0.987850,0.004569,0.349894,0.000002,0.000012,0.000008,0.000016,-0.000003,60.322782,0.000017,
2251,2023,-0.052659952678642,-13.5988605049454,0.0271646005397201,0.001302,-0.000760,0.006843,0.037023,0.015593,330.959644,23.386367,0.999145,0.982513,0.005339,0.271563,0.000006,-0.000042,-0.000009,0.000007,-0.000043,-10.680929,0.000046,
2161,2938,-2.17029255553224,6.37514672165752,0.00138070852517558,0.001471,-0.000741,0.007558,0.044365,0.004779,316.195856,24.566062,0.999337,0.989144,0.004157,0.384274,0.000012,0.000017,0.000007,0.000022,0.000007,55.402840,0.000030,
2506,3283,5.26035534538833,13.8895725197759,0.00726176269751022,0.002143,-0.000808,0.003442,0.084905,-0.020773,310.504879,26.688382,0.999865,0.995938,0.002666,0.386388,0.000045,-0.000074,0.000013,0.000047,-0.000076,6.155297,0.000076,
2476,3088,4.64868711284405,9.65479367079796,0.015947651801298,0.002231,-0.000242,0.003662,0.088540,0.006453,313.703753,25.856414,0.999425,0.992056,0.003677,0.357063,0.000026,0.000046,0.000036,0.000073,-0.000002,52.921242,0.000084,
2086,2698,-3.76106932772255,1.15489765419967,-0.0237714594260865,0.001504,-0.000807,0.004734,0.055332,-0.007180,320.225390,24.380205,0.999461,0.991593,0.003660,0.408219,0.000024,0.000007,0.000002,0.000024,0.000007,6.168916,0.000032,
2491,3163,4.96011582244205,11.2839304023331,0.0203719933704178,0.002096,-0.000263,0.000943,0.092637,-0.010200,312.552956,26.171375,0.999578,0.991758,0.003507,0.369635,0.000026,0.000011,0.000033,0.000052,-0.000015,38.370066,0.000053,
2281,2188,0.573157867143848,-9.98082434813819,0.0146101855325469,0.002010,-0.000376,0.001698,0.086309,-0.008517,328.205597,23.440479,0.998885,0.979836,0.005619,0.329953,-0.000005,-0.000021,-0.000010,0.000000,-0.000026,-26.254714,0.000031,
2101,2578,-3.41570476274204,-1.45938390749814,-0.0161709623906177,0.001392,-0.001003,0.004281,0.051219,-0.029516,322.154603,24.327243,0.999297,0.988925,0.004202,0.422658,0.000003,0.000016,0.000015,0.000026,-0.000007,57.143450,0.000027,
2026,2488,-5.03119680530769,-3.42339133903333,-0.0129704959331889,0.002101,-0.000737,0.004713,0.083514,-0.002830,324.078295,24.454057,0.999278,0.987736,0.004308,0.471043,0.000015,-0.000010,-0.000004,0.000015,-0.000010,-8.186598,0.000016,
2056,2563,-4.39052293796962,-1.78703793387274,-0.0134558282093167,0.002025,-0.000549,0.002697,0.085429,-0.003818,322.687373,24.426567,0.999402,0.989163,0.004120,0.411054,-0.000007,0.000011,0.000001,0.000011,-0.000007,86.125565,0.000011,
2041,2548,-4.71510461021932,-2.11327772631224,-0.0247394432952888,0.001833,-0.000633,0.002975,0.075888,-0.017594,322.912647,24.463582,0.999532,0.990189,0.003816,0.388866,-0.000010,-0.000007,-0.000007,-0.000001,-0.000016,-50.340150,0.000020,
2176,3148,-1.87815003527974,10.931189119214,0.0313729409839993,0.001734,-0.000859,0.006841,0.058417,-0.017376,312.980875,24.766098,0.999499,0.993734,0.003433,0.354735,-0.000004,0.000006,0.000007,0.000010,-0.000008,63.844746,0.000010,
2446,2908,4.02850316101817,5.74193401710635,-0.0203371736743634,0.001532,-0.000810,0.003819,0.055848,-0.015730,316.249070,25.089564,0.999425,0.991204,0.003834,0.373676,0.000003,0.000009,0.000001,0.000009,0.000003,83.161140,0.000013,
2161,2968,-2.17458245871567,7.02657852767704,0.00157741566806635,0.001936,-0.000765,0.003301,0.078868,-0.012158,315.743200,24.593710,0.999638,0.993296,0.003321,0.358575,0.000014,0.000020,0.000007,0.000025,0.000009,57.419069,0.000035,
2176,3028,-1.85860734049882,8.32925172397067,0.00955047640138673,0.002082,-0.000814,0.004481,0.081844,0.001179,314.781263,24.635424,0.999490,0.991711,0.003810,0.414358,0.000004,0.000010,0.000007,0.000015,-0.000001,57.831814,0.000017,
2296,2188,0.901091864039834,-9.98153258621124,0.0209209136781396,0.002143,-0.000480,0.001600,0.092615,0.000225,328.248708,23.369344,0.998938,0.980297,0.005502,0.332347,-0.000011,-0.000015,-0.000011,-0.000002,-0.000024,-39.897126,0.000029,
2266,2218,0.240287070208677,-9.32384269314518,0.0146556806000149,0.001836,-0.000834,0.002998,0.073970,-0.022621,327.730510,23.566874,0.998669,0.981029,0.005491,0.323038,-0.000006,0.000002,-0.000014,0.000012,-0.000017,-52.820716,0.000017,
2146,3013,-2.50672293123889,8.00238968289386,0.00960214990641362,0.002024,-0.000017,-0.001343,0.097376,-0.001307,315.152687,24.607814,0.999374,0.991037,0.003910,0.338602,0.000004,0.000016,0.000010,0.000022,-0.000002,59.345830,0.000024,
2011,2278,-5.32576147451898,-8.00921444620136,0.000371093768023911,0.001755,-0.000623,0.000263,0.079733,-0.024509,327.662139,24.708917,0.998785,0.981083,0.005427,0.370737,0.000025,0.000029,0.000021,0.000048,0.000006,47.263442,0.000059,
2131,2773,-2.79534112484027,2.78880179972568,-0.0225986124132191,0.001692,-0.000566,0.002681,0.069708,-0.003743,318.822863,24.427282,0.999627,0.992871,0.003420,0.388441,0.000016,0.000004,-0.000002,0.000017,0.000003,-8.934796,0.000021,
2011,2383,-5.34061780359898,-5.71380051958661,-0.00581666110440437,0.002530,-0.000062,-0.000728,0.118305,0.014973,325.958923,24.689585,0.999318,0.988804,0.004238,0.359297,0.000008,-0.000006,-0.000003,0.000009,-0.000006,-12.774707,0.000009,
2506,3298,5.25751529327614,14.2146686734239,0.0113624971110653,0.002044,-0.000720,0.003467,0.080306,-0.020882,310.287969,26.751180,0.999775,0.994111,0.003085,0.382973,0.000034,-0.000095,-0.000004,0.000034,-0.000096,-1.599205,0.000097,
2026,2713,-5.06655415429688,1.48047792411151,-0.0366608721978992,0.001912,-0.000568,0.003466,0.078380,-0.004794,320.236977,24.407261,0.999702,0.994699,0.003280,0.380207,0.000016,-0.000003,0.000011,0.000021,-0.000008,24.429835,0.000021,
2131,2833,-2.8045256291283,4.09320859769829,-0.0178364814981364,0.001928,-0.000496,0.000966,0.085749,-0.010971,317.903902,24.464135,0.999530,0.992590,0.003603,0.366479,0.000015,0.000010,0.000001,0.000015,0.000010,7.634800,0.000025,
2146,2908,-2.49012011013527,5.7226169925319,-0.00483023760745027,0.002215,-0.000586,0.000960,0.098979,-0.009837,316.744508,24.493051,0.999437,0.989616,0.004022,0.394413,0.000016,0.000012,0.000001,0.000016,0.000012,10.327428,0.000029,
2056,2533,-4.38584269642004,-2.44182203751987,-0.00599127663872423,0.001857,-0.000851,0.006173,0.067798,0.003163,323.217059,24.412896,0.999302,0.988423,0.004220,0.440576,-0.000013,-0.000009,0.000001,-0.000009,-0.000013,81.230530,0.000022,
2296,2263,0.885783743215811,-8.33589285817298,-0.00449272903182418,0.002164,-0.000402,-0.000564,0.100959,-0.026866,326.834699,23.586944,0.999549,0.988633,0.004471,0.250728,-0.000008,-0.000001,-0.000006,0.000003,-0.000012,-60.296716,0.000013,
2206,3208,-1.23709881686673,12.2341372972724,0.034993973549831,0.001989,-0.000346,0.003088,0.081837,0.000927,311.958072,24.936400,0.999639,0.994531,0.003216,0.393712,-0.000003,0.000021,0.000009,0.000024,-0.000006,72.187806,0.000025,
2281,2293,0.553068424749849,-7.68134036232756,0.00419062556164818,0.001853,-0.001393,0.006171,0.063885,-0.024247,326.402727,23.615611,0.999427,0.985817,0.004801,0.350568,-0.000006,-0.000010,-0.000007,0.000000,-0.000015,-37.301820,0.000018,
2386,2608,2.78205379343615,-0.796022589712663,-0.016308110853231,0.002119,-0.000284,0.001239,0.092727,0.001797,321.131425,24.091530,0.999289,0.988253,0.004330,0.405463,0.000012,0.000012,-0.000004,0.000016,0.000008,-47.406164,0.000024,
2251,2128,-0.0711489769737348,-11.2959910790519,0.0191718303620974,0.001468,-0.000642,0.002882,0.057658,-0.017584,329.226003,23.486707,0.998577,0.979701,0.005648,0.324442,0.000005,-0.000004,-0.000010,0.000012,-0.000011,-34.086537,0.000013,
2326,2323,1.52870409438674,-7.02393984442134,-0.000863805025574038,0.001725,-0.000641,0.003073,0.068289,-0.006389,325.844141,23.521463,0.999044,0.982577,0.005217,0.349876,-0.000005,-0.000009,-0.000006,-0.000001,-0.000014,-35.934516,0.000016,
2371,2533,2.46941088093943,-2.43367677440349,-0.00946662786441266,0.001660,-0.000862,0.004688,0.059174,-0.017197,322.364287,23.919651,0.999416,0.987854,0.004479,0.364225,0.000015,-0.000008,-0.000010,0.000018,-0.000012,-20.048421,0.000019,
2221,3238,-0.917333538579793,12.8859918964928,0.035510654785412,0.001774,-0.000416,0.004731,0.066465,-0.005299,311.414573,25.087879,0.999672,0.994070,0.003242,0.344234,0.000003,0.000014,0.000008,0.000018,-0.000002,61.270393,0.000020,
2491,3178,4.95820288712182,11.6088632559286,0.0335928628150555,0.002180,-0.000293,0.001427,0.094662,-0.002251,312.419877,26.236175,0.999633,0.991419,0.003626,0.370404,0.000024,0.000007,0.000035,0.000051,-0.000020,37.866546,0.000051,
2221,3283,-0.926389515123223,13.8626694997148,0.00822056993081333,0.002268,-0.000501,0.000245,0.103713,-0.007137,310.484807,25.151210,0.999487,0.992774,0.003358,0.331485,-0.000008,0.000028,0.000015,0.000033,-0.000013,70.607585,0.000034,
2116,2803,-3.12493655118784,3.44002891935343,-0.0109988392350147,0.002047,-0.000299,0.003532,0.083752,0.005829,318.512208,24.457603,0.999567,0.992724,0.003472,0.364918,0.000005,0.000001,-0.000003,0.000006,-0.000001,-26.006336,0.000007,
2431,2848,3.71477620938591,4.43581458112248,-0.0180659198317699,0.001947,-0.000223,0.001124,0.085239,0.013286,317.251659,24.877276,0.999107,0.988186,0.004233,0.387448,-0.000005,0.000025,-0.000013,0.000030,-0.000010,-69.227733,0.000031,
2116,2713,-3.11137202866226,1.48307280510772,-0.0231672560045695,0.001730,-0.000476,0.002193,0.073019,-0.007389,319.860596,24.436294,0.999408,0.990069,0.003969,0.352207,0.000030,0.000007,0.000010,0.000033,0.000003,19.580115,0.000040,
2056,2578,-4.39286430296462,-1.45978814149422,-0.0160615064992271,0.002325,-0.000553,0.005576,0.091161,0.010899,322.428661,24.419987,0.999089,0.989113,0.004225,0.427986,-0.000009,0.000024,0.000001,0.000024,-0.000009,87.438212,0.000024,
2191,3223,-1.56501403271863,12.55819595206,0.0360489188491897,0.002067,-0.000617,0.005277,0.078573,-0.007383,311.763225,24.916980,0.999717,0.994908,0.003095,0.344459,-0.000006,0.000028,0.000012,0.000032,-0.000010,71.873300,0.000032,
2086,2578,-3.74141390241538,-1.45914357913978,-0.0142759563420327,0.001677,-0.000922,0.005315,0.061545,-0.008360,322.253889,24.401213,0.999049,0.988664,0.004365,0.389078,0.000001,0.000018,0.000010,0.000023,-0.000004,65.139576,0.000025,
2446,2923,4.02603852570383,6.0684661448431,-0.0157350268999608,0.001552,-0.000707,0.002115,0.063219,-0.005792,316.049623,25.187655,0.999629,0.993429,0.003582,0.336991,0.000004,0.000000,0.000000,0.000004,0.000000,-6.240518,0.000004,
2206,3163,-1.22973071716671,11.2589123687263,0.0313239655543498,0.001810,-0.000538,0.003944,0.070656,-0.023328,312.652751,24.919919,0.999755,0.995490,0.002992,0.339481,-0.000007,0.000017,0.000002,0.000018,-0.000007,85.631915,0.000018,
2161,2983,-2.17768534852722,7.35260935342501,-0.000623284318066908,0.001736,-0.000808,0.006666,0.059302,-0.003550,315.460618,24.610111,0.999581,0.993360,0.003374,0.359978,0.000011,0.000019,0.000008,0.000023,0.000006,58.689977,0.000031,
2266,2113,0.259872285793151,-11.6240329931646,0.0194454352727007,0.001899,0.000521,-0.004809,0.103041,0.000090,329.490075,23.453412,0.999187,0.981098,0.005319,0.260548,0.000001,-0.000009,-0.000006,0.000004,-0.000012,-25.017503,0.000012,
2191,3118,-1.54706370308916,10.2813225673211,0.0336759279728085,0.001864,-0.000585,0.003188,0.075704,-0.018269,313.458635,24.774895,0.999450,0.993460,0.003461,0.383015,-0.000005,0.000004,-0.000002,0.000005,-0.000006,-78.297251,0.000006,
2311,2218,1.22235198178424,-9.32385775676217,0.00735092103587931,0.002231,-0.000114,-0.002465,0.110574,-0.018886,327.658469,23.294549,0.998908,0.978442,0.005618,0.380410,-0.000015,0.000007,-0.000003,0.000008,-0.000015,-82.330905,0.000015,
2206,3223,-1.24066667264254,12.5609248190439,0.0253422265931249,0.001831,-0.000322,0.004741,0.069315,0.009283,311.618323,25.044662,0.999833,0.995911,0.002869,0.308984,-0.000003,0.000028,0.000011,0.000031,-0.000006,72.520765,0.000033,
2071,2638,-4.07658965664312,-0.151172445082196,-0.0209914142013758,0.002031,-0.000154,0.001523,0.089140,0.016036,321.331910,24.454164,0.998998,0.987951,0.004400,0.369691,0.000013,0.000021,0.000003,0.000022,0.000012,73.039160,0.000034,
2221,3298,-0.929909431842749,14.1874887843255,0.000979666995476691,0.002043,-0.000434,0.002189,0.087045,-0.012096,310.161588,25.128390,0.999478,0.993270,0.003224,0.366454,-0.000010,0.000028,0.000010,0.000030,-0.000012,76.230232,0.000030,
2491,3193,4.95542532780728,11.9339045415301,0.0406362485946374,0.002002,-0.000244,0.002924,0.080727,-0.001120,312.218906,26.283659,0.999561,0.991539,0.003637,0.381560,0.000027,-0.000009,0.000037,0.000049,-0.000032,32.099078,0.000050,
2056,2668,-4.40701751253486,0.500650945913826,-0.020179088524344,0.001994,-0.000436,0.000801,0.089402,-0.016493,320.936386,24.417056,0.999353,0.990181,0.004033,0.374774,0.000014,0.000017,0.000007,0.000022,0.000008,52.220676,0.000032,
2146,2923,-2.49260085503714,6.04837342780137,-0.00202657142455109,0.001956,-0.000344,-0.000404,0.091253,-0.007600,316.516030,24.508923,0.999190,0.986825,0.004430,0.388016,0.000013,0.000015,0.000002,0.000016,0.000012,55.745807,0.000028,
2041,2428,-4.69637254421578,-4.73034410074679,-0.0179371905417156,0.001890,-0.000212,0.000708,0.084906,0.004093,324.914763,24.552116,0.999008,0.984847,0.004768,0.372964,-0.000008,-0.000014,-0.000003,-0.000007,-0.000015,-19.778809,0.000023,
2251,2038,-0.0549377295686604,-13.2697660657099,0.0249630632496292,0.001794,-0.000774,0.006729,0.059925,0.009053,330.723352,23.383995,0.999028,0.979965,0.005502,0.294404,0.000005,-0.000041,-0.000008,0.000006,-0.000042,-9.841008,0.000045,
2266,2233,0.237531379279293,-8.99471238326667,0.00823710669448019,0.002000,-0.000464,0.000138,0.091081,-0.015075,327.452086,23.583122,0.998730,0.980495,0.005429,0.342453,-0.000013,-0.000004,-0.000013,0.000006,-0.000022,-54.495785,0.000023,
2416,2773,3.40264936004452,2.80139575081824,-0.0206644006481156,0.001620,-0.000163,-0.000877,0.077553,-0.010970,318.424808,24.554233,0.999531,0.988759,0.004142,0.428171,0.000008,0.000031,0.000000,0.000031,0.000008,89.874475,0.000041,
2341,2353,1.85174128201509,-6.36851820819093,0.00702454110341932,0.002405,-0.000271,0.000688,0.107772,0.002736,325.461248,23.529189,0.999283,0.986155,0.004689,0.370501,-0.000003,0.000004,0.000003,0.000005,-0.000004,68.562153,0.000006,
2476,3103,4.64626614032161,9.97994124567226,0.0187730652748996,0.002375,-0.000508,0.000743,0.106184,-0.017692,313.499641,25.893026,0.999380,0.991298,0.003798,0.351978,0.000025,0.000045,0.000037,0.000073,-0.000003,52.256586,0.000083,
2356,2473,2.15468275817006,-3.7439032047609,-0.00860795504524958,0.002156,-0.000717,0.001686,0.092718,-0.018478,323.373149,23.819158,0.999621,0.987939,0.004226,0.329703,0.000008,-0.000001,-0.000008,0.000013,-0.000006,-30.702473,0.000013,
2026,2728,-5.06806698334865,1.8058118091659,-0.0270683494391619,0.001977,-0.000252,0.001577,0.086708,0.003969,320.082468,24.377743,0.999598,0.992712,0.003544,0.408790,0.000012,0.000019,0.000014,0.000029,0.000001,52.462190,0.000034,
2101,2638,-3.42582920903885,-0.150417557140337,-0.0292751914419114,0.001626,-0.000830,0.003723,0.063715,-0.012939,321.085838,24.371943,0.999158,0.988343,0.004234,0.402442,0.000017,0.000019,0.000012,0.000030,0.000006,47.801782,0.000038,
2026,2503,-5.03445110780138,-3.09339363315384,-0.0252509537592118,0.001807,-0.000439,0.004256,0.071338,0.012475,323.720595,24.585192,0.999696,0.993207,0.003503,0.346974,0.000004,-0.000008,-0.000012,0.000011,-0.000015,-31.358195,0.000016,
2446,2938,4.02312935161864,6.3945346922359,-0.0205881068976623,0.001822,-0.000494,-0.000491,0.085341,-0.026001,315.786156,25.210060,0.999608,0.992450,0.003691,0.346140,0.000005,0.000001,0.000001,0.000005,0.000001,12.628425,0.000007,
2071,2593,-4.06995091192838,-1.13163050717996,-0.0257708905153322,0.002112,-0.000806,0.003938,0.085714,-0.011257,322.017244,24.421057,0.999010,0.988984,0.004279,0.383472,-0.000003,0.000036,0.000009,0.000038,-0.000005,77.522645,0.000041,
2056,2593,-4.39588136577347,-1.13098667385131,-0.0275371633209147,0.002240,-0.000594,0.004139,0.091236,-0.006213,322.089874,24.515641,0.998780,0.987950,0.004393,0.310782,-0.000008,0.000038,0.000003,0.000039,-0.000009,85.748739,0.000040,
2011,2443,-5.35016741303663,-4.4042497326546,-0.00216464931889959,0.001834,-0.000436,0.003783,0.074020,0.009019,324.978561,24.694088,0.999405,0.990189,0.004015,0.306913,0.000000,0.000006,0.000005,0.000009,-0.000002,61.026520,0.000009,
2086,2593,-3.74394950890987,-1.13173060375386,-0.0175924831182783,0.001527,-0.000458,0.002420,0.063159,0.003246,321.984924,24.412155,0.999105,0.988735,0.004288,0.389717,0.000002,0.000029,0.000012,0.000034,-0.000003,68.901216,0.000038,
2116,2818,-3.12748303510016,3.76644533896323,-0.0189008075793708,0.002213,-0.000155,-0.000112,0.102205,0.000472,318.220940,24.431239,0.999462,0.992357,0.003655,0.389592,0.000008,0.000011,-0.000001,0.000011,0.000008,-72.971291,0.000019,
2131,2848,-2.80728039064781,4.42033076585611,-0.0295956739848293,0.002180,-0.000311,-0.002552,0.107956,-0.015408,317.583616,24.483501,0.999600,0.992971,0.003484,0.348202,0.000016,0.000007,-0.000001,0.000016,0.000007,-5.454511,0.000024,
2146,3028,-2.50889969190045,8.32731150075452,0.0123626725547297,0.002395,-0.000352,0.002015,0.104190,-0.005397,314.938210,24.579538,0.999414,0.991343,0.003815,0.369811,0.000003,0.000012,0.000008,0.000016,-0.000001,59.353175,0.000018,
2161,3073,-2.19028819684307,9.30333214559116,0.0284131335631059,0.001961,-0.000120,0.000286,0.089492,0.001061,314.266103,24.615693,0.999633,0.994624,0.003217,0.414163,0.000012,-0.000003,0.000004,0.000013,-0.000004,14.922993,0.000013,
2161,2998,-2.17983801867474,7.67779700857371,0.00746749102876265,0.001515,-0.000556,0.005845,0.051792,0.012133,315.276258,24.615927,0.999633,0.993113,0.003537,0.379255,0.000008,0.000018,0.000011,0.000025,0.000001,56.655368,0.000030,
2206,3298,-1.25481127955485,14.1856622417045,0.00403591662700364,0.002114,-0.000386,0.002109,0.090684,-0.011130,310.232210,25.020518,0.999372,0.993577,0.003228,0.388813,-0.000007,0.000037,0.000012,0.000040,-0.000010,76.263836,0.000042,
2401,2683,3.09382378220645,0.84091837000696,-0.0214768552872329,0.002198,-0.000400,0.002663,0.091141,0.011941,319.879562,24.344684,0.999385,0.988112,0.004340,0.377354,0.000009,0.000029,-0.000013,0.000035,0.000002,-63.961424,0.000042,
2011,2293,-5.32868299879105,-7.67875874226178,-0.00979680245040981,0.001833,-0.000373,0.003727,0.074043,0.003791,327.329632,24.806707,0.999249,0.986520,0.004661,0.291740,0.000037,0.000028,0.000018,0.000051,0.000014,38.431781,0.000069,
2131,2788,-2.79766550633586,3.11467086926459,-0.0187310904993296,0.001631,-0.000694,0.003568,0.064196,-0.007517,318.606200,24.431511,0.999635,0.993356,0.003290,0.386051,0.000013,0.000008,-0.000002,0.000014,0.000007,-21.478956,0.000021,
2011,2398,-5.34294895999276,-5.38720088601297,-0.00336926089778444,0.002372,-0.000315,0.001373,0.105267,-0.003187,325.725224,24.642712,0.999325,0.988302,0.004280,0.377476,0.000010,-0.000022,0.000005,0.000011,-0.000023,9.174415,0.000023,
2206,3238,-1.24267395096522,12.8847348427323,0.0309587143820522,0.001943,-0.000215,0.003103,0.079678,-0.000723,311.430602,24.987973,0.999773,0.994997,0.003008,0.370904,-0.000003,0.000019,0.000011,0.000024,-0.000007,67.219357,0.000024,
2191,3238,-1.56672920009219,12.8820954210477,0.0450434957924131,0.002180,-0.000416,0.003009,0.090968,-0.005941,311.605711,24.875142,0.999777,0.994703,0.003042,0.400954,-0.000007,0.000020,0.000013,0.000025,-0.000012,68.564711,0.000025,
2176,3043,-1.86057776798222,8.65567790425471,0.0156964179259944,0.002063,-0.000230,0.001632,0.089950,-0.002264,314.595470,24.771596,0.999681,0.995591,0.003113,0.285790,0.000006,-0.000001,0.000005,0.000008,-0.000004,27.117916,0.000008,
2251,2143,-0.0734716365223846,-10.9671854791552,0.0192511840760972,0.001810,-0.000961,0.003432,0.071410,-0.026795,328.998989,23.524794,0.998755,0.981437,0.005399,0.303361,0.000003,-0.000010,-0.000009,0.000008,-0.000015,-27.403575,0.000015,
2101,2653,-3.42794992714289,0.176555813755073,-0.027280714788958,0.001803,-0.000818,0.004203,0.070440,-0.011303,320.865995,24.417930,0.999433,0.989975,0.003907,0.359988,0.000019,0.000020,0.000011,0.000031,0.000008,45.558183,0.000041,
2011,2458,-5.35169349169015,-4.07795020330229,-0.00364527245147883,0.002323,-0.000022,-0.000812,0.109052,-0.003788,324.759810,24.596615,0.999449,0.990493,0.003931,0.381057,-0.000006,-0.000013,-0.000001,-0.000005,-0.000013,-11.705720,0.000019,
2431,2863,3.71201295156876,4.76204068601986,-0.0147237565671503,0.001907,-0.000280,0.001394,0.082428,0.012372,317.032035,24.932537,0.999406,0.990666,0.003800,0.380905,-0.000005,0.000021,-0.000011,0.000025,-0.000009,-70.172485,0.000025,
2326,2338,1.52736304490696,-6.69736427779294,0.0132929358607612,0.002107,-0.000650,0.003318,0.084952,-0.004542,325.736815,23.553368,0.999224,0.984254,0.004867,0.355626,-0.000003,-0.000006,-0.000007,0.000003,-0.000012,-37.672216,0.000012,
2416,2788,3.39946685103945,3.12995837619199,-0.024004451092992,0.001824,-0.000294,0.001125,0.079587,0.002462,318.153358,24.737407,0.999482,0.988864,0.004202,0.306021,0.000006,0.000025,-0.000003,0.000025,0.000006,-81.640635,0.000033,
2356,2488,2.1523355525949,-3.41765740940952,-0.00282786336941854,0.002327,-0.000923,0.003401,0.094459,-0.021799,323.180589,23.790202,0.999510,0.987897,0.004284,0.395419,0.000013,-0.000002,-0.000009,0.000018,-0.000006,-24.696979,0.000018,
2281,2203,0.57040150337059,-9.65209011122826,0.0130276799176841,0.002164,-0.000632,0.003120,0.088562,-0.016559,327.952891,23.475572,0.998658,0.980319,0.005596,0.317252,-0.000006,-0.000012,-0.000006,-0.000002,-0.000016,-33.402384,0.000020,
2491,3208,4.9519939895685,12.2603592986387,0.0342180823818694,0.002121,0.000055,0.002243,0.089007,0.021956,311.926395,26.364555,0.999458,0.992101,0.003640,0.381396,0.000031,-0.000026,0.000027,0.000042,-0.000037,22.032425,0.000046,
2191,3133,-1.54941258021305,10.6075067857282,0.0318880771926047,0.002146,-0.000316,0.001948,0.092788,0.007393,313.214943,24.831039,0.999436,0.993211,0.003550,0.366153,-0.000008,0.000004,0.000001,0.000004,-0.000008,85.412682,0.000008,
2281,2308,0.551300201987811,-7.35306602600295,0.00599564067067604,0.002245,-0.000631,0.000716,0.100347,-0.001787,326.211789,23.649787,0.999298,0.983401,0.005198,0.368343,-0.000006,-0.000011,-0.000006,-0.000003,-0.000015,-33.260010,0.000019,
2041,2563,-4.71655737302841,-1.78651528673385,-0.0213864521534219,0.002264,-0.000216,-0.000082,0.104375,0.002681,322.726407,24.454648,0.999578,0.990249,0.003777,0.411163,-0.000007,0.000009,-0.000005,0.000011,-0.000008,-74.483764,0.000011,
2146,2938,-2.49488561508685,6.37467545032052,-8.51309113727439E-05,0.002180,-0.000501,0.001629,0.095367,-0.001199,316.291778,24.568516,0.999442,0.990008,0.003962,0.342274,0.000010,0.000014,0.000005,0.000017,0.000007,57.499534,0.000025,
2461,3013,4.33681612874434,8.02457038775916,0.00850197094280247,0.002004,-0.000388,0.002169,0.083808,0.000766,314.831330,25.541112,0.999480,0.990220,0.003811,0.343569,0.000015,0.000033,0.000033,0.000058,-0.000011,52.458814,0.000062,
2176,3163,-1.88001446623186,11.2563235694526,0.0375705048964505,0.001914,-0.000682,0.005265,0.071717,-0.006619,312.800625,24.796195,0.999844,0.996737,0.002716,0.346399,-0.000003,0.000017,0.000006,0.000019,-0.000005,73.726031,0.000020,
2371,2548,2.46696810782317,-2.10668742170375,-0.00792552766347399,0.001969,-0.000948,0.004783,0.073015,-0.012513,322.147731,23.931150,0.999304,0.987206,0.004631,0.399180,0.000014,-0.000004,-0.000011,0.000019,-0.000009,-24.795579,0.000019,
2056,2683,-4.40898114359332,0.82661092304064,-0.017100543750189,0.001943,-0.000260,-0.002658,0.096897,-0.004269,320.726728,24.375824,0.999464,0.991525,0.003789,0.423444,0.000015,0.000008,0.000008,0.000020,0.000003,32.625723,0.000024,
2131,2863,-2.80944984855352,4.74480544651225,-0.00928612049318644,0.001726,-0.000728,0.006325,0.060376,0.002421,317.462313,24.480817,0.999583,0.992483,0.003522,0.373876,0.000018,0.000010,-0.000003,0.000019,0.000009,-15.721687,0.000029,
2026,2743,-5.07043832044284,2.1315748674148,-0.0240261262756576,0.001835,-0.000735,0.003872,0.073675,-0.010112,319.852062,24.361461,0.999435,0.990818,0.003908,0.401442,0.000010,0.000022,0.000009,0.000027,0.000005,61.499660,0.000034,
2221,1993,-0.700606212356188,-14.2588228406714,0.0432519034106349,0.001943,-0.000635,0.004422,0.074676,-0.008672,331.674047,23.552064,0.999667,0.988930,0.004441,0.238269,0.000024,-0.000049,0.000000,0.000024,-0.000049,0.034512,0.000049,
2041,2443,-4.69762339558608,-4.40501953210133,-0.00643886571242547,0.002133,-0.000531,-0.000277,0.098686,-0.033852,324.783222,24.508574,0.998878,0.983748,0.005077,0.371929,-0.000014,-0.000003,-0.000013,0.000005,-0.000022,-57.071991,0.000023,
2011,2473,-5.35468969989465,-3.75046781996569,-0.00643596893996801,0.001957,-0.000618,0.003474,0.080432,-0.010592,324.466214,24.594593,0.999095,0.988242,0.004335,0.365582,0.000006,-0.000018,0.000002,0.000006,-0.000018,5.125923,0.000018,
2071,2608,-4.07263886641392,-0.803757599775238,-0.028687436625205,0.001983,-0.000653,0.004579,0.078046,0.004367,321.742056,24.479024,0.999199,0.990104,0.004034,0.338648,0.000001,0.000033,0.000011,0.000037,-0.000002,72.664127,0.000041,
2011,2413,-5.34575794047706,-5.05985862176459,-0.00430415477359247,0.001809,-0.000150,0.001252,0.079762,0.008957,325.450473,24.606150,0.999250,0.988348,0.004297,0.415885,0.000012,-0.000027,0.000015,0.000017,-0.000032,18.700866,0.000032,
2311,2233,1.21932160684377,-8.99482532648958,0.0118215656801226,0.001966,-0.000506,0.002141,0.082631,-0.009618,327.425332,23.413862,0.998781,0.979212,0.005595,0.304995,-0.000014,-0.000004,0.000000,-0.000004,-0.000014,-88.343878,0.000018,
2086,2608,-3.74610071164861,-0.804076143088942,-0.0221310824210263,0.001869,-0.000068,-0.000039,0.086160,0.019714,321.726832,24.434989,0.999089,0.988751,0.004304,0.382961,0.000006,0.000028,0.000014,0.000035,-0.000001,63.630518,0.000040,
2116,2833,-3.13069391131127,4.09292832542428,-0.0206923545978839,0.001808,-0.000816,0.003736,0.071957,-0.018987,317.932057,24.476715,0.999645,0.992641,0.003608,0.327552,0.000011,0.000011,0.000000,0.000011,0.000011,53.124386,0.000022,
2116,2848,-3.13262225168839,4.41855760194845,-0.0197561861651252,0.002126,-0.000415,0.001721,0.092724,-0.003535,317.716841,24.433797,0.999676,0.993111,0.003432,0.389434,0.000012,0.000009,-0.000002,0.000013,0.000008,-23.776498,0.000021,
2266,2128,0.256347356391796,-11.295972885087,0.0186249476771536,0.001627,-0.000674,0.002630,0.065641,-0.008740,329.204968,23.408481,0.998905,0.980915,0.005425,0.325421,0.000003,-0.000008,-0.000009,0.000008,-0.000013,-29.581394,0.000013,
2086,2713,-3.76291858408005,1.48092977416492,-0.0199476130519542,0.001907,-0.000818,0.006665,0.068296,-0.003211,320.027143,24.369382,0.999427,0.990945,0.003783,0.421946,0.000029,0.000008,0.000005,0.000031,0.000006,13.239589,0.000039,
2161,3088,-2.19338501457438,9.62997636786589,0.0213679173384662,0.002027,-0.000311,0.002496,0.085760,0.013275,313.957919,24.681821,0.999435,0.991487,0.003713,0.369440,0.000009,-0.000004,0.000003,0.000009,-0.000005,11.021347,0.000009,
2446,2953,4.02066015019077,6.72078992831117,-0.0223815382314001,0.002256,-0.000195,-0.003420,0.116377,-0.021088,315.556906,25.250776,0.999694,0.993411,0.003508,0.362053,0.000009,0.000005,0.000007,0.000014,0.000000,36.999290,0.000017,
2056,2608,-4.39834824300035,-0.80567733388537,-0.0221364980740191,0.001648,-0.000528,0.002631,0.068307,-0.007969,321.870091,24.427265,0.999065,0.989218,0.004187,0.392727,-0.000005,0.000034,0.000006,0.000035,-0.000006,82.011384,0.000037,
2401,2698,3.09015913135979,1.16770885646413,-0.0284094203839231,0.002209,-0.001033,0.005234,0.082086,-0.012383,319.568691,24.344737,0.999462,0.989860,0.004050,0.399023,0.000009,0.000036,-0.000009,0.000039,0.000006,-72.942515,0.000049,
2386,2623,2.77849370798844,-0.468957834748537,-0.0199736966167734,0.001867,-0.000594,0.002840,0.075295,-0.006964,320.839715,24.102957,0.999188,0.987686,0.004356,0.429302,0.000013,0.000014,-0.000007,0.000021,0.000006,-46.673572,0.000028,
2206,3253,-1.24549327524638,13.2092280618966,0.0301942442254699,0.001899,-0.000456,0.004506,0.073156,-0.000175,311.172175,24.951168,0.999813,0.995306,0.002878,0.423654,-0.000003,0.000016,0.000014,0.000024,-0.000010,61.490521,0.000024,
2461,3028,4.33407560390893,8.35049838378756,0.012472071647494,0.001977,-0.000432,0.002404,0.081715,0.003890,314.616901,25.611285,0.999721,0.991767,0.003651,0.330067,0.000017,0.000037,0.000032,0.000061,-0.000007,53.320725,0.000067,
2491,3223,4.94897921811183,12.5862421955718,0.0296686857914779,0.002412,-0.000028,0.000536,0.108895,0.002434,311.661625,26.450602,0.999462,0.991746,0.003705,0.333306,0.000033,-0.000048,0.000019,0.000037,-0.000052,12.608854,0.000054,
2011,2308,-5.33075403850141,-7.35227485993931,-0.00653868118899936,0.001682,-0.001045,0.002577,0.070035,-0.018205,327.112234,24.732285,0.999151,0.987219,0.004654,0.334202,0.000032,0.000003,0.000015,0.000038,-0.000004,22.753806,0.000042,
2251,2158,-0.0755983303892798,-10.6386774015688,0.019009677219799,0.001859,-0.000321,-0.003086,0.095138,-0.044401,328.779378,23.545981,0.998381,0.980815,0.005447,0.290518,0.000003,-0.000013,-0.000009,0.000007,-0.000018,-24.533290,0.000018,
2296,2278,0.883470729565811,-8.00965395353303,0.00827491940060554,0.002044,-0.001135,0.005176,0.075864,-0.007736,326.674543,23.540330,0.999477,0.986972,0.004554,0.348289,-0.000008,-0.000004,-0.000011,0.000005,-0.000017,-50.043603,0.000017,
2236,2053,-0.383967475879953,-12.9405005599515,0.025403117906194,0.002380,-0.000234,0.000499,0.107307,-0.000931,330.561721,23.502117,0.998805,0.977780,0.005706,0.289740,-0.000006,-0.000026,-0.000003,-0.000005,-0.000026,-7.121893,0.000034,
2236,1993,-0.373443323102311,-14.2590914648935,0.0338576351917936,0.002050,-0.000499,0.002223,0.086527,-0.022437,331.575665,23.366614,0.999686,0.989075,0.004457,0.304448,0.000001,-0.000047,-0.000016,0.000006,-0.000052,-16.596315,0.000057,
2476,3118,4.64303308900624,10.3052908163119,0.0225653696713835,0.002126,-0.000518,0.003821,0.083013,-0.006009,313.262350,25.922172,0.999459,0.991121,0.003704,0.390002,0.000028,0.000045,0.000035,0.000072,0.000001,51.511239,0.000084,
2056,2698,-4.41160544900997,1.15373834531467,-0.0228356915550307,0.002053,-0.000111,-0.001654,0.099224,0.006226,320.437942,24.375584,0.999387,0.991322,0.003756,0.429090,0.000026,0.000001,0.000006,0.000027,0.000000,12.386584,0.000031,
2191,3253,-1.57035499340335,13.2077853140529,0.0341800255375233,0.001985,-0.000318,0.004223,0.078225,0.006615,311.255980,24.879140,0.999697,0.994226,0.003146,0.422432,-0.000007,0.000018,0.000015,0.000026,-0.000014,64.746445,0.000026,
2266,2248,0.234186130900902,-8.66615426996221,0.00720637170695682,0.001840,-0.000972,0.006303,0.063236,-0.007026,327.173694,23.608138,0.998992,0.982840,0.005189,0.353654,-0.000009,-0.000011,-0.000009,-0.000001,-0.000020,-41.940584,0.000023,
2071,2743,-4.09280116858328,2.13322173070959,-0.0239116068113958,0.002344,-0.000478,0.000408,0.106655,-0.019224,319.624364,24.364958,0.999331,0.991074,0.003866,0.404022,0.000027,0.000013,0.000006,0.000029,0.000011,19.126995,0.000041,
2146,3043,-2.51191984815437,8.65301998077891,0.0128595356361529,0.002011,-0.000391,0.004388,0.079307,0.009210,314.672686,24.593947,0.999534,0.993102,0.003300,0.376863,0.000006,0.000001,0.000006,0.000010,-0.000003,34.219725,0.000010,
2011,2428,-5.34805244375755,-4.73223656447828,-0.00509735736369521,0.001772,-0.000127,0.001389,0.077713,0.011179,325.200009,24.611348,0.999152,0.987028,0.004494,0.402542,0.000005,-0.000004,0.000021,0.000021,-0.000021,38.953007,0.000024,
2086,2623,-3.74882492143866,-0.477968461268347,-0.0292533882493444,0.002011,-0.000449,0.000871,0.089904,-0.010204,321.429018,24.345702,0.999115,0.988886,0.004281,0.442392,0.000011,0.000025,0.000007,0.000028,0.000008,67.354067,0.000038,
2416,2803,3.39689037432207,3.45562704301025,-0.0234622718591595,0.002083,-0.000179,0.000342,0.094402,0.008069,317.928587,24.696994,0.999405,0.988155,0.004389,0.399910,0.000001,0.000019,-0.000005,0.000021,0.000000,-75.224014,0.000024,
2056,2623,-4.40033414176566,-0.479306525883743,-0.0190541467891876,0.001768,-0.000624,0.002418,0.074390,-0.018704,321.659309,24.429130,0.999241,0.990746,0.003956,0.375385,-0.000004,0.000026,-0.000001,0.000026,-0.000004,-87.177580,0.000029,
2371,2563,2.46393166112317,-1.77827915341273,-0.0116553024365089,0.002029,-0.000532,0.003960,0.078845,-0.008598,321.878410,24.031779,0.999326,0.988590,0.004416,0.344443,0.000013,-0.000007,-0.000012,0.000019,-0.000013,-25.503598,0.000019,
2026,2518,-5.03624334388448,-2.76794148098057,-0.0243896309988827,0.002044,-0.000254,0.001724,0.089257,0.013845,323.504222,24.438912,0.999726,0.994172,0.003309,0.486158,-0.000010,-0.000014,-0.000007,-0.000004,-0.000019,-36.884126,0.000025,
2176,3058,-1.86268904165671,8.97922420597831,0.0212084045676306,0.002101,-0.000593,0.001123,0.093158,-0.012293,314.400873,24.648352,0.999712,0.995543,0.003076,0.410495,0.000009,-0.000005,0.000005,0.000011,-0.000006,16.975467,0.000011,
2491,3238,4.94476096987945,12.9118981912664,0.0197750862016051,0.002106,-0.000334,0.000704,0.093996,-0.015518,311.317150,26.488519,0.999586,0.992280,0.003613,0.334764,0.000033,-0.000050,0.000015,0.000036,-0.000052,10.017508,0.000054,
2026,2758,-5.07262753907948,2.45762317959438,-0.0221164050050788,0.001793,-0.000500,0.003680,0.072391,0.001206,319.623549,24.341139,0.999193,0.990080,0.004134,0.423189,0.000001,0.000001,-0.000005,0.000006,-0.000003,-44.899757,0.000006,
2281,2323,0.5485113416579,-7.02475780009695,0.0045526391612043,0.002200,-0.000518,-0.000050,0.100886,-0.027613,325.958106,23.708097,0.999095,0.983106,0.005225,0.314240,-0.000004,-0.000012,-0.000005,-0.000002,-0.000014,-25.039800,0.000017,
2011,2683,-5.38641537532734,0.825598217687741,-0.0216705197228748,0.001953,0.000017,-0.001933,0.095220,-0.007332,320.960681,24.409261,0.999792,0.996251,0.002824,0.398062,-0.000008,-0.000003,0.000003,-0.000002,-0.000009,65.356137,0.000012,
2311,2248,1.216711588953,-8.66656390674293,0.00968446872190043,0.001980,-0.000123,-0.001609,0.096176,-0.001377,327.179116,23.400457,0.998922,0.981180,0.005303,0.361444,-0.000008,-0.000011,0.000003,-0.000007,-0.000013,31.560508,0.000020,
2191,3148,-1.55220255039354,10.9331356840557,0.029234830451685,0.002140,-0.000277,0.002073,0.092126,0.006223,312.946662,24.861751,0.999181,0.991689,0.003927,0.347336,-0.000007,0.000007,0.000004,0.000008,-0.000008,74.483853,0.000009,
2356,2503,2.14905343877576,-3.08926539265173,-0.00977640136306945,0.002215,-0.000697,0.000712,0.098850,-0.025313,322.883470,23.846654,0.999486,0.988335,0.004331,0.375551,0.000009,-0.000005,-0.000009,0.000013,-0.000010,-26.786310,0.000014,
2236,2008,-0.37671247312122,-13.9295659348464,0.0314887817646081,0.001660,-0.000561,0.003929,0.063136,0.003915,331.291663,23.356927,0.999648,0.988848,0.004452,0.365613,-0.000008,-0.000053,-0.000013,-0.000004,-0.000057,-15.070605,0.000068,
2101,2668,-3.42998271433339,0.502676463978709,-0.0258841066925584,0.001983,-0.000559,0.002818,0.082864,-0.007970,320.647189,24.383405,0.999550,0.991066,0.003732,0.399288,0.000021,0.000020,0.000016,0.000037,0.000005,44.111300,0.000046,
2071,2653,-4.07938360370635,0.175184509629794,-0.025365318936565,0.002063,-0.000915,0.004942,0.080634,-0.000523,321.044434,24.407321,0.999270,0.989626,0.004082,0.397603,0.000016,0.000019,0.000001,0.000019,0.000016,80.199030,0.000035,
2206,3268,-1.24878374246698,13.5353257196045,0.0142999849627472,0.002160,-0.000301,0.001942,0.093357,-0.008372,310.812947,24.991498,0.999540,0.993427,0.003312,0.390319,-0.000002,0.000023,0.000017,0.000031,-0.000011,63.297637,0.000032,
2251,2053,-0.0570451272578474,-12.9406243407573,0.0246114679807761,0.002054,-0.000399,0.002836,0.084704,0.000026,330.504148,23.414817,0.998991,0.979770,0.005478,0.280863,0.000003,-0.000025,-0.000001,0.000003,-0.000025,-1.725419,0.000028,
2296,2203,0.897997462814111,-9.65182850990146,0.0135763463942453,0.002373,-0.000267,0.002418,0.100519,0.018903,327.953150,23.405813,0.998310,0.977311,0.005941,0.347238,-0.000012,-0.000007,-0.000005,-0.000004,-0.000016,-58.146074,0.000021,
2191,3268,-1.57394313846587,13.5332157590332,0.0207258072812806,0.001849,-0.000319,0.003154,0.075266,-0.008842,310.894502,24.878097,0.999454,0.992087,0.003594,0.420946,-0.000007,0.000025,0.000019,0.000033,-0.000016,65.128301,0.000033,
2041,2578,-4.71933650399873,-1.45959049456016,-0.0263570709343526,0.002145,-0.000386,0.001266,0.095115,-0.004312,322.433450,24.419600,0.999221,0.990192,0.003988,0.432485,-0.000011,0.000024,-0.000006,0.000025,-0.000012,-80.365989,0.000025,
2101,2773,-3.44657961160683,2.78834861065136,-0.0274384587717122,0.002207,-0.000223,0.001492,0.097272,0.013285,318.945170,24.436580,0.999567,0.991389,0.003745,0.377446,0.000010,0.000003,-0.000003,0.000011,0.000002,-17.327418,0.000014,
2461,3043,4.33117336926002,8.67544015343454,0.0150424859748455,0.002009,-0.000602,0.003960,0.077250,0.003574,314.388820,25.588339,0.999592,0.990427,0.003834,0.406395,0.000015,0.000046,0.000040,0.000073,-0.000012,55.521942,0.000078,
2176,3178,-1.88191447144415,11.5800449696222,0.0475806131154286,0.002010,-0.000791,0.006804,0.071327,-0.009411,312.639296,24.735217,0.999762,0.995453,0.002963,0.415680,-0.000005,0.000019,0.000007,0.000021,-0.000007,74.896862,0.000021,
2476,3133,4.63988124571931,10.6315078144085,0.0226060360008091,0.001971,-0.000661,0.003264,0.077975,-0.015453,313.011383,26.032767,0.999485,0.990474,0.003722,0.325210,0.000034,0.000036,0.000032,0.000067,0.000003,45.598148,0.000079,
2326,2353,1.52372657998965,-6.36770298518626,0.000537175494685016,0.001904,-0.000384,-0.000877,0.090172,-0.006631,325.392626,23.611759,0.999307,0.982885,0.004747,0.331862,0.000002,0.000008,-0.000002,0.000008,0.000001,-70.308474,0.000011,
2221,2008,-0.704351856335009,-13.9272651602402,0.028416878816472,0.001750,-0.000532,0.003580,0.068544,0.000067,331.303129,23.602559,0.999629,0.987966,0.004636,0.219902,0.000011,-0.000055,0.000002,0.000011,-0.000055,1.902393,0.000058,
2341,2368,1.84751484830382,-6.03891357935252,-0.0078580069064742,0.002200,-0.000101,0.001651,0.095097,0.004050,325.081321,23.565054,0.999120,0.984058,0.004926,0.375084,-0.000005,0.000015,0.000002,0.000015,-0.000005,84.436198,0.000015,
2266,2263,0.232691208303859,-8.33809637413369,0.020711652501177,0.002063,-0.000682,0.006731,0.072149,0.000638,327.052865,23.740999,0.999666,0.989775,0.004276,0.255797,-0.000005,-0.000004,-0.000013,0.000008,-0.000018,-46.416478,0.000018,
2131,2923,-2.81844032925332,6.04736735260836,-0.00511528353109725,0.001864,-0.000574,-0.001003,0.088720,-0.024398,316.549707,24.461521,0.999284,0.989444,0.004132,0.387312,0.000013,0.000011,0.000003,0.000015,0.000009,33.774952,0.000024,
2116,2968,-3.1509274018469,7.02392112814869,0.0015045973202632,0.001930,-0.000315,0.000252,0.088139,-0.007017,315.937543,24.491943,0.999678,0.992820,0.003348,0.351310,0.000009,0.000010,0.000004,0.000014,0.000005,46.989334,0.000019,
2041,2458,-4.70038372374659,-4.0777241071351,-0.0091876657813259,0.001862,-0.000666,0.000733,0.083364,-0.030154,324.503220,24.475129,0.998863,0.983356,0.005205,0.402748,-0.000016,-0.000013,-0.000021,0.000006,-0.000036,-46.720122,0.000038,
2056,2713,-4.41415396448559,1.48084993204688,-0.0272851420413645,0.002184,-0.000243,-0.000335,0.101465,0.002337,320.159752,24.403969,0.999182,0.989947,0.003940,0.391945,0.000034,0.000007,0.000010,0.000038,0.000003,18.478333,0.000045,
2146,2953,-2.49784356009247,6.70027391554093,-0.001413466583017,0.001974,-0.000365,0.004116,0.078390,0.007695,316.019484,24.542135,0.999629,0.991620,0.003601,0.384712,0.000010,0.000015,0.000006,0.000019,0.000007,56.933439,0.000026,
2026,2773,-5.07537542552327,2.78510619346946,-0.0285017127525862,0.001713,-0.000705,0.003712,0.068527,-0.015658,319.322787,24.419891,0.999476,0.991513,0.003902,0.317941,0.000001,0.000008,-0.000004,0.000010,-0.000001,-65.856126,0.000010,
2056,2638,-4.40272853018999,-0.151949944209484,-0.0223581549989262,0.001956,-0.000517,0.003479,0.080081,-0.005006,321.394328,24.447331,0.999226,0.989566,0.004145,0.365828,0.000006,0.000019,-0.000002,0.000020,0.000006,-80.590024,0.000027,
2011,2923,-5.4218457947462,6.04091385805182,-0.000731478618149595,0.001700,-0.000414,0.003043,0.070082,0.005812,317.217427,24.261102,0.999370,0.993019,0.003341,0.365851,0.000031,-0.000007,0.000004,0.000031,-0.000008,6.275740,0.000033,
2116,2863,-3.13466095283176,4.74384023448764,-0.010448065262608,0.002141,-0.000708,0.005048,0.083495,-0.006688,317.541745,24.443757,0.999670,0.992502,0.003508,0.379094,0.000013,0.000012,-0.000002,0.000014,0.000010,-40.461469,0.000025,
2071,2668,-4.0820139395834,0.501806005857929,-0.0264158057623263,0.001843,-0.000829,0.005007,0.070345,-0.002495,320.782523,24.402995,0.999223,0.989646,0.004108,0.397302,0.000016,0.000019,0.000009,0.000027,0.000009,50.001617,0.000037,
2281,2218,0.567177752789103,-9.3230524974905,0.0100641573943108,0.001685,-0.000519,0.000862,0.074160,-0.024286,327.671834,23.529268,0.998860,0.981933,0.005354,0.286222,-0.000008,0.000000,-0.000006,0.000003,-0.000011,-61.146165,0.000011,
2086,2728,-3.76508306093998,1.80783177946573,-0.0222309287772759,0.002086,-0.000537,0.003876,0.084711,-0.001946,319.780987,24.396030,0.999325,0.990136,0.003974,0.395978,0.000024,0.000012,0.000005,0.000025,0.000010,19.142030,0.000037,
2371,2578,2.46101371709874,-1.45146236314484,-0.0116884408845976,0.001977,-0.000728,0.003942,0.076464,-0.012838,321.632465,24.032164,0.999292,0.987907,0.004541,0.381874,0.000014,0.000001,-0.000010,0.000020,-0.000005,-28.151483,0.000021,
2101,2788,-3.44877224298249,3.11300947565925,-0.0159437739487203,0.002038,-0.000851,0.007019,0.073138,0.010144,318.774175,24.388122,0.999515,0.991522,0.003823,0.423953,0.000007,0.000009,-0.000003,0.000011,0.000005,-52.452452,0.000017,
2416,2818,3.39416611131928,3.78160151323119,-0.01780340227333,0.001990,-0.000219,0.002089,0.083749,0.013401,317.720839,24.728337,0.999305,0.989143,0.004235,0.421467,-0.000001,0.000025,-0.000004,0.000026,-0.000001,-82.002832,0.000029,
2266,2143,0.253855488005719,-10.9654494109106,0.0211894908309773,0.001961,-0.001253,0.007262,0.065464,-0.014364,328.983690,23.626726,0.999404,0.984293,0.005114,0.130032,0.000001,-0.000013,-0.000007,0.000004,-0.000016,-23.789376,0.000017,
2011,2488,-5.35746369127294,-3.42297294148318,-0.014080861318007,0.001890,-0.000626,0.004223,0.075335,-0.006162,324.155545,24.543385,0.999247,0.988476,0.004285,0.410675,0.000002,-0.000012,0.000008,0.000006,-0.000016,25.101369,0.000016,
2296,2218,0.894992866991572,-9.32308092333082,0.010801571983734,0.002091,-0.000093,-0.000309,0.096840,0.005042,327.684502,23.441242,0.998760,0.979675,0.005559,0.330470,-0.000011,0.000002,-0.000004,0.000003,-0.000013,-73.533439,0.000013,
2161,3103,-2.19561603937673,9.95466486719467,0.0241411602953576,0.001942,-0.000089,-0.000604,0.091368,0.000716,313.742076,24.659133,0.999608,0.994044,0.003203,0.388704,0.000005,-0.000001,0.000006,0.000008,-0.000005,31.228127,0.000008,
2491,3253,4.94062232635793,13.237591195327,0.00956823386383121,0.001949,-0.000358,0.001418,0.084074,-0.013097,310.974802,26.512881,0.999748,0.993328,0.003340,0.370240,0.000040,-0.000050,0.000018,0.000043,-0.000054,10.748373,0.000057,
2431,2878,3.70884732395796,5.08846814211857,-0.0124425420631837,0.001804,-0.000523,0.004769,0.065127,0.012133,316.788843,25.001787,0.999455,0.991391,0.003623,0.361194,-0.000005,0.000016,-0.000010,0.000020,-0.000008,-68.828429,0.000020,
2071,2758,-4.09562547057637,2.45977333821674,-0.0263017877002767,0.002091,-0.000639,0.001490,0.091841,-0.018672,319.346290,24.368696,0.999406,0.992077,0.003744,0.397674,0.000019,0.000002,-0.000002,0.000019,0.000002,-5.968327,0.000024,
2011,2698,-5.38893253203398,1.15192624125805,-0.0212929486089024,0.001732,0.000105,-0.000610,0.081472,-0.001928,320.707321,24.390019,0.999827,0.995876,0.002870,0.410973,0.000003,-0.000013,-0.000002,0.000003,-0.000013,-7.805572,0.000014,
2026,2533,-5.03827574064558,-2.44067979049808,-0.0212346637039786,0.002039,-0.000523,0.001213,0.090339,-0.008649,323.289256,24.507149,0.999376,0.990071,0.004009,0.386326,-0.000012,-0.000020,-0.000002,-0.000011,-0.000021,-13.742976,0.000032,
2296,2293,0.880801298355838,-7.68056360701196,0.00731540593210411,0.002044,-0.000680,0.003459,0.081793,-0.009987,326.429876,23.641046,0.999442,0.986009,0.004638,0.277398,-0.000007,-0.000009,-0.000008,0.000000,-0.000016,-42.152045,0.000019,
2146,3058,-2.51411412152391,8.97784493769738,0.0158990941575894,0.001940,-0.000456,0.001573,0.084526,-0.013664,314.458942,24.584751,0.999575,0.994357,0.003267,0.370074,0.000009,-0.000002,0.000006,0.000012,-0.000005,23.421895,0.000012,
2146,2968,-2.50012251363511,7.02560186058943,-0.000196599540515763,0.002006,-0.000673,0.002435,0.084857,-0.014390,315.792001,24.543592,0.999696,0.993490,0.003251,0.368339,0.000011,0.000017,0.000004,0.000019,0.000009,63.351230,0.000029,
2236,2068,-0.38621521032503,-12.612248968006,0.0315760692292315,0.002353,-0.000363,0.001446,0.102990,-0.007463,330.367942,23.526950,0.999073,0.979945,0.005451,0.282399,-0.000004,-0.000007,0.000000,-0.000004,-0.000007,-3.035602,0.000012,
2476,3148,4.6367353619358,10.9572154430069,0.0244272391705067,0.001755,-0.000508,0.003714,0.066394,-0.006025,312.768860,26.092258,0.999526,0.989891,0.003755,0.330702,0.000031,0.000017,0.000031,0.000056,-0.000007,38.627312,0.000061,
2116,2983,-3.15260804894274,7.34818962626913,0.0118707741103776,0.002080,-0.000291,0.001000,0.092836,-0.002994,315.784997,24.435741,0.999731,0.994027,0.003140,0.414318,0.000005,0.000008,0.000005,0.000012,0.000001,55.224747,0.000015,
2281,2338,0.545873317689363,-6.69548859126134,-0.00229598456502345,0.002408,0.000533,-0.004843,0.126792,-0.011420,325.684047,23.764392,0.999164,0.984866,0.004874,0.304001,0.000002,-0.000003,-0.000005,0.000005,-0.000007,-30.469688,0.000007,
2446,2968,4.01808382528273,7.0468212124501,-0.0116880390613687,0.002048,-0.000318,-0.000447,0.095700,-0.011006,315.380362,25.356631,0.999670,0.992636,0.003581,0.317678,0.000011,0.000012,0.000015,0.000027,-0.000004,45.806150,0.000029,
2026,2788,-5.07730372838779,3.11088820892502,-0.0249269144739515,0.001894,-0.000462,0.004469,0.074920,0.020253,319.115585,24.372460,0.999525,0.992283,0.003631,0.391300,0.000000,0.000015,0.000005,0.000016,-0.000001,73.582968,0.000018,
2131,2878,-2.81110536849454,5.06910246890112,-0.000953249101371512,0.001821,-0.000481,0.003776,0.072437,-0.006599,317.300711,24.402067,0.999582,0.991982,0.003551,0.448968,0.000023,0.000022,-0.000001,0.000024,0.000021,-29.734479,0.000045,
2161,3013,-2.18198039114184,8.00376119882161,0.00288423161862283,0.001907,-0.000050,0.001291,0.083971,0.022040,315.025193,24.616920,0.999427,0.990739,0.003959,0.397749,0.000009,0.000016,0.000011,0.000025,0.000001,53.454680,0.000029,
2041,2833,-4.75828957396179,4.08866045309415,-0.0154454945698603,0.001818,-0.000610,0.005749,0.067601,-0.000727,318.365865,24.361232,0.998874,0.989409,0.004177,0.369989,0.000004,0.000017,-0.000004,0.000018,0.000003,-72.541047,0.000022,
2056,2728,-4.41679885867716,1.80756315450556,-0.0305544340658344,0.002100,-0.000265,0.000257,0.095930,-0.008413,319.883790,24.417299,0.999270,0.990808,0.003841,0.362703,0.000031,0.000017,0.000011,0.000037,0.000011,29.052322,0.000050,
2086,2818,-3.77885992430717,3.76517634184798,-0.0194951770338889,0.002138,-0.000242,-0.000655,0.100323,-0.001335,318.358664,24.415445,0.999417,0.992441,0.003642,0.371446,0.000004,0.000012,-0.000005,0.000014,0.000002,-65.077831,0.000017,
2401,2713,3.08659408351652,1.49466333389991,-0.0320242112200049,0.001682,-0.000753,0.003112,0.065679,-0.012946,319.277857,24.368555,0.999583,0.990644,0.003881,0.420602,0.000006,0.000036,-0.000006,0.000037,0.000004,-79.084842,0.000045,
2491,3268,4.93703853808229,13.5638147621757,0.00652226947619283,0.001919,-0.000474,0.004154,0.072140,-0.010254,310.690159,26.630431,0.999859,0.995089,0.002883,0.312771,0.000050,-0.000049,0.000023,0.000055,-0.000054,12.233125,0.000063,
2101,2803,-3.45131966285394,3.43975622209926,-0.0233738642147614,0.002112,-0.000530,0.002894,0.088650,-0.007374,318.483942,24.402905,0.999399,0.991924,0.003729,0.392739,0.000004,0.000002,-0.000002,0.000005,0.000000,-31.725124,0.000007,
2251,2173,-0.0791268518804777,-10.3101586546102,0.0175010409547554,0.001494,-0.001072,0.002842,0.058787,-0.017462,328.488992,23.515882,0.999047,0.984509,0.005001,0.374064,0.000006,-0.000026,-0.000011,0.000009,-0.000029,-17.040710,0.000030,
2311,2263,1.21400664025483,-8.3379445541005,0.0115165261983066,0.002148,-0.000405,0.001834,0.092047,-0.007314,326.947986,23.479895,0.999234,0.984453,0.004839,0.310372,-0.000008,-0.000002,-0.000004,0.000000,-0.000010,-62.324624,0.000011,
2176,3073,-1.86549969977193,9.30367025677183,0.0239417390023391,0.001755,-0.000492,0.002472,0.073034,-0.016005,314.159258,24.587092,0.999700,0.995586,0.002992,0.479559,0.000009,-0.000002,0.000004,0.000010,-0.000003,17.599046,0.000010,
2026,2548,-5.04037158701924,-2.11392609605286,-0.0172147841878427,0.001939,-0.000327,0.001094,0.086147,-0.004642,323.076282,24.514531,0.999546,0.990890,0.003669,0.373938,-0.000007,-0.000012,0.000000,-0.000007,-0.000012,0.165134,0.000019,
2101,2683,-3.43224010133984,0.828805303463824,-0.0253214571513922,0.002001,-0.000471,0.001529,0.087482,-0.008719,320.413606,24.351243,0.999495,0.991692,0.003640,0.432251,0.000020,0.000018,0.000013,0.000032,0.000006,41.972808,0.000041,
2206,3283,-1.25156839187456,13.8608666458577,0.0110665623411705,0.002196,-0.000344,0.001465,0.096569,-0.003764,310.542842,25.042520,0.999336,0.993026,0.003382,0.359253,-0.000008,0.000034,0.000017,0.000040,-0.000014,70.648167,0.000040,
2326,2368,1.52062086213087,-6.03964952199335,-0.00680014708717636,0.002127,-0.000311,-0.000905,0.100519,-0.031641,325.099454,23.605309,0.999372,0.985794,0.004623,0.349830,0.000001,0.000019,-0.000004,0.000019,0.000000,-78.933836,0.000022,
2461,3058,4.32782932543447,9.00172127307733,0.0133036690691597,0.001625,-0.000308,0.001475,0.069063,0.000899,314.120164,25.666952,0.999575,0.989542,0.004062,0.378480,0.000013,0.000039,0.000038,0.000067,-0.000014,54.299019,0.000070,
2371,2593,2.45810695415095,-1.12469754736374,-0.0105768043532635,0.002076,-0.001087,0.006847,0.070529,-0.020984,321.392469,24.046336,0.999236,0.987768,0.004488,0.401430,0.000015,0.000001,-0.000009,0.000020,-0.000003,-26.425218,0.000021,
2071,2773,-4.09745176909303,2.78573909653545,-0.0209192781173897,0.002212,-0.000560,0.000357,0.100702,-0.023539,319.156714,24.389497,0.999376,0.990594,0.003944,0.368773,0.000016,0.000008,-0.000003,0.000017,0.000007,-17.596378,0.000024,
2341,2383,1.84442573587449,-5.71031553491074,-0.00790477113520183,0.002143,-0.000551,0.004445,0.082629,0.002257,324.825434,23.661897,0.999396,0.985441,0.004765,0.314524,0.000001,0.000010,-0.000005,0.000013,-0.000002,-65.286593,0.000014,
2251,2068,-0.0592000347978789,-12.6119887937444,0.0265396712648567,0.002219,-0.000109,0.000569,0.099734,-0.000928,330.294243,23.422266,0.999248,0.981624,0.005165,0.298911,0.000002,-0.000007,0.000002,0.000002,-0.000007,10.793779,0.000008,
2476,3163,4.63372811791855,11.2832495765595,0.0214490650018888,0.001847,-0.000273,0.001395,0.079531,-0.006672,312.510687,26.166721,0.999573,0.990775,0.003692,0.310897,0.000029,0.000011,0.000029,0.000051,-0.000011,36.776810,0.000053,
2236,2023,-0.378298642880221,-13.6010606767828,0.0414010493287265,0.001948,-0.000312,0.003755,0.076975,0.016135,331.147006,23.412667,0.998964,0.982201,0.005461,0.346349,-0.000009,-0.000047,-0.000009,-0.000007,-0.000049,-12.332803,0.000061,
2491,3283,4.93387563457825,13.8882724821716,0.00255880222078986,0.001987,-0.000530,0.002207,0.082707,-0.023545,310.421271,26.600073,0.999875,0.995621,0.002815,0.387458,0.000061,-0.000061,0.000020,0.000064,-0.000065,9.038401,0.000074,
2191,3163,-1.55568058367244,11.2591451596989,0.0186681708443075,0.001964,-0.000436,0.001817,0.084659,-0.023467,312.605320,24.912793,0.999656,0.995175,0.003096,0.279976,-0.000004,0.000017,0.000005,0.000019,-0.000006,76.673175,0.000019,
2071,2683,-4.08417411020426,0.827871421676214,-0.0247301785751688,0.001725,-0.000761,0.001878,0.073837,-0.009692,320.557303,24.380088,0.999449,0.991397,0.003724,0.410046,0.000015,0.000012,0.000006,0.000020,0.000008,38.932304,0.000028,
2011,2938,-5.4239180452372,6.36689587861657,-0.00649509282720828,0.002112,-0.000216,0.000775,0.095289,0.002152,316.950436,24.243852,0.999560,0.993795,0.003278,0.367024,0.000033,-0.000011,0.000007,0.000034,-0.000012,8.720023,0.000035,
2191,3283,-1.57622173093358,13.8581364456917,0.0210292242092009,0.001912,-0.000419,-0.000413,0.089339,-0.020128,310.665262,24.906187,0.999576,0.994790,0.003097,0.394479,-0.000013,0.000035,0.000020,0.000043,-0.000020,69.793452,0.000043,
2056,2653,-4.40535138030993,0.174755334928882,-0.0312758244361362,0.002099,-0.000606,0.001937,0.091011,-0.016663,321.088236,24.389204,0.999365,0.990615,0.003999,0.408033,0.000012,0.000017,-0.000004,0.000019,0.000010,-61.686315,0.000029,
2296,2353,0.869770897741457,-6.36936748792486,0.0107919830669516,0.001772,-0.000693,0.005265,0.063239,-0.018677,325.471601,23.695478,0.999542,0.988782,0.004206,0.341919,0.000004,0.000003,-0.000002,0.000005,0.000001,-36.231724,0.000007,
2161,3118,-2.19760476227836,10.2803517586644,0.0257954043370887,0.002295,0.000090,-0.001954,0.111873,0.002201,313.531077,24.710942,0.999593,0.993747,0.003285,0.347257,0.000001,0.000001,0.000004,0.000005,-0.000003,45.347589,0.000005,
2131,2938,-2.82002828910663,6.37326909052904,0.00556541156760204,0.002301,-0.000651,0.002777,0.097532,-0.012694,316.403238,24.540486,0.999611,0.992443,0.003660,0.324914,0.000009,0.000011,0.000005,0.000015,0.000005,52.089387,0.000021,
2041,2593,-4.7210808464536,-1.13198431922264,-0.0249469311561938,0.002433,0.000013,-0.001438,0.115986,0.002164,322.222957,24.493996,0.999032,0.989783,0.004106,0.357771,-0.000014,0.000040,-0.000004,0.000040,-0.000014,-85.293457,0.000041,
2266,2278,0.22920680749225,-8.00985460905957,0.00945617739915861,0.001966,-0.000892,0.005513,0.071642,-0.018756,326.716996,23.670656,0.999492,0.987219,0.004621,0.334833,-0.000002,-0.000009,-0.000015,0.000010,-0.000021,-38.453977,0.000021,
2146,2983,-2.50256031150989,7.35093158824845,-0.000416405565658806,0.002109,-0.000734,0.002780,0.088521,-0.021641,315.549567,24.524594,0.999732,0.994676,0.003057,0.387357,0.000007,0.000016,0.000005,0.000019,0.000005,66.005202,0.000025,
2011,2503,-5.36017415332675,-3.09439562922321,-0.0204114210679904,0.001762,-0.000900,0.004003,0.069958,-0.012321,323.854893,24.619552,0.999660,0.992936,0.003638,0.317889,-0.000010,-0.000014,-0.000003,-0.000008,-0.000016,-31.114975,0.000025,
2101,2818,-3.45351418134473,3.76585620989871,-0.0233885370035978,0.002202,-0.000530,0.000902,0.098650,-0.015228,318.250178,24.410521,0.999329,0.992706,0.003640,0.378539,0.000006,0.000011,-0.000002,0.000011,0.000005,-73.469179,0.000017,
2026,2563,-5.04241988103487,-1.78714568337705,-0.0157002104401158,0.002041,-0.000229,0.000998,0.091178,0.014137,322.851495,24.491810,0.999588,0.990278,0.003775,0.406727,-0.000005,0.000012,0.000001,0.000012,-0.000005,86.259074,0.000012,
2026,2803,-5.07949959178397,3.43643068925445,-0.0254311305195074,0.002013,-0.000593,0.004552,0.080126,-0.000833,318.873592,24.332391,0.999490,0.992449,0.003581,0.400588,0.000007,0.000011,0.000010,0.000019,-0.000001,51.784053,0.000021,
2386,2638,2.7757299955998,-0.142201594031825,-0.0169129922992397,0.001845,-0.001152,0.003934,0.070144,-0.027516,320.616529,24.159801,0.999206,0.987168,0.004419,0.395642,0.000013,0.000019,-0.000013,0.000029,0.000003,-52.109762,0.000036,
2416,2833,3.39132117661673,4.10826813061267,-0.0192131716147514,0.002308,-0.000792,0.003320,0.093544,-0.029342,317.474300,24.821583,0.998858,0.987242,0.004434,0.333077,-0.000004,0.000031,-0.000004,0.000032,-0.000004,-82.885857,0.000034,
2461,3073,4.3244244598469,9.32754784803259,0.00764507156401351,0.001843,-0.000425,0.003129,0.072782,-0.006975,313.830778,25.687936,0.999658,0.992049,0.003642,0.403051,0.000016,0.000040,0.000036,0.000066,-0.000010,54.251836,0.000072,
2296,2308,0.87771296881672,-7.35286062811692,-0.00145458917330643,0.002141,-0.000492,0.001072,0.094377,-0.001131,326.127557,23.531199,0.999314,0.985132,0.004933,0.428408,-0.000008,-0.000011,-0.000006,-0.000003,-0.000016,-37.371315,0.000020,
2446,2983,4.01446886531854,7.3727659209593,-0.012137964873034,0.001686,-0.000500,0.002230,0.068977,-0.007921,315.104500,25.387970,0.999655,0.991537,0.003727,0.341043,0.000014,0.000024,0.000021,0.000040,-0.000002,51.245238,0.000045,
2236,2083,-0.390111860148199,-12.2822682008638,0.0265721473665508,0.001691,-0.000934,0.005353,0.059875,-0.004435,330.041802,23.581591,0.999357,0.981868,0.005274,0.255743,0.000000,0.000005,-0.000001,0.000005,0.000000,-81.090289,0.000006,
2116,2878,-3.13759828534448,5.0695540298415,-0.0108012119308114,0.001668,-0.000542,0.005036,0.061754,-0.006464,317.273344,24.422238,0.999549,0.992327,0.003672,0.404046,0.000018,0.000024,0.000000,0.000024,0.000018,87.061167,0.000042,
2011,2953,-5.42584605796028,6.69217030585414,3.36341840352361E-05,0.002066,-0.000204,0.000587,0.093668,0.005124,316.759441,24.245779,0.999699,0.994651,0.002986,0.355450,0.000039,-0.000015,0.000004,0.000040,-0.000015,3.844857,0.000040,
2221,2098,-0.720327833174114,-11.9536929384884,0.0249044151502176,0.001544,-0.001176,0.005654,0.052313,-0.019098,329.812528,23.633921,0.999117,0.979304,0.005569,0.303527,0.000001,0.000007,0.000006,0.000010,-0.000002,57.212640,0.000011,
2281,2233,0.564703860473927,-8.99449793376439,0.0118373619030194,0.001776,-0.000729,0.000884,0.078208,-0.018935,327.448627,23.580256,0.998931,0.981446,0.005319,0.270737,-0.000013,-0.000006,-0.000004,-0.000004,-0.000015,-63.494983,0.000020,
2041,2848,-4.76070357888647,4.41457378000476,-0.0247902183417068,0.002043,-0.000648,0.001767,0.089014,-0.026389,318.065897,24.306602,0.999120,0.990806,0.004017,0.391297,0.000008,0.000020,-0.000010,0.000026,0.000002,-59.600963,0.000031,
2341,2398,1.8417683957306,-5.38295222758342,-0.0047373331461813,0.001963,-0.000465,0.003307,0.078368,0.001357,324.605052,23.680551,0.999663,0.987741,0.004474,0.333373,0.000002,0.000011,-0.000007,0.000015,-0.000002,-60.453340,0.000016,
2221,2023,-0.706621857325406,-13.5988189607763,0.0280717195253715,0.002075,-0.000819,0.003775,0.082734,-0.041284,331.074197,23.590641,0.999086,0.982547,0.005294,0.212898,0.000006,-0.000050,0.000003,0.000006,-0.000050,2.996546,0.000054,
2086,2743,-3.76729833395162,2.13378850078197,-0.0191178544950503,0.001989,-0.000608,0.002901,0.083023,-0.010360,319.562181,24.393397,0.999368,0.990398,0.003967,0.389217,0.000021,0.000010,0.000002,0.000021,0.000010,8.316788,0.000032,
2251,2083,-0.0633336444728201,-12.2819198113156,0.0197245190547051,0.001738,-0.001196,0.007951,0.053249,-0.019796,329.949707,23.487462,0.999317,0.982103,0.005237,0.242242,0.000004,0.000004,0.000000,0.000004,0.000003,53.906502,0.000008,
2476,3178,4.63094313595859,11.6084073890242,0.0258998808289448,0.001983,-0.000287,0.004385,0.074470,0.017929,312.296783,26.183473,0.999664,0.992316,0.003488,0.374296,0.000026,0.000008,0.000030,0.000048,-0.000014,36.752502,0.000049,
2146,3073,-2.51697238752227,9.30359177994787,0.0113556712959166,0.002126,-0.000714,0.005022,0.082526,-0.018987,314.174040,24.597874,0.999741,0.996157,0.002902,0.358787,0.000009,-0.000001,0.000005,0.000010,-0.000003,22.716246,0.000011,
2251,2188,-0.0820637032250637,-9.97877864724956,0.00901703658013275,0.001721,-0.000658,0.001583,0.073471,-0.014480,328.190182,23.702732,0.999499,0.989636,0.004360,0.216533,0.000003,-0.000019,-0.000017,0.000012,-0.000028,-28.128527,0.000028,
2056,2743,-4.41951135825678,2.13323029888723,-0.0303420714274694,0.001806,-0.000591,0.002012,0.077333,-0.017296,319.624239,24.365503,0.999409,0.992064,0.003670,0.400412,0.000030,0.000017,0.000007,0.000034,0.000014,23.800170,0.000049,
2056,2908,-4.44363007474677,5.71838092668199,-0.00798699673555348,0.002115,-0.000162,0.003636,0.087283,0.023968,317.141413,24.346614,0.999491,0.992699,0.003568,0.398944,0.000021,0.000008,-0.000009,0.000026,0.000003,-27.354226,0.000032,
2071,2698,-4.08657982802146,1.1545382004645,-0.0247340408911327,0.001661,-0.000390,0.001841,0.071145,0.006426,320.311363,24.379662,0.999507,0.992265,0.003538,0.423633,0.000024,0.000005,0.000003,0.000025,0.000004,7.916274,0.000031,
2131,2893,-2.81370742956322,5.39584885489909,-0.00511018415471653,0.001829,-0.000548,0.001697,0.078960,-0.021222,317.028179,24.466466,0.999490,0.991026,0.003865,0.375207,0.000020,0.000015,0.000000,0.000020,0.000015,1.083008,0.000035,
2311,2278,1.21124835081426,-8.00928417835981,0.0126639829232431,0.002048,-0.000438,0.001722,0.087860,0.001627,326.710939,23.546242,0.999281,0.984410,0.004717,0.287369,-0.000009,-0.000002,-0.000008,0.000004,-0.000014,-57.453329,0.000015,
2266,2158,0.25182057481835,-10.6376737204159,0.0193675979552381,0.002254,-0.000408,0.001070,0.099625,0.001462,328.761586,23.530944,0.999200,0.983153,0.005189,0.269819,0.000000,-0.000016,-0.000006,0.000002,-0.000018,-18.010234,0.000019,
2491,3298,4.93074828398043,14.2141045388851,0.00375302373782915,0.001856,-0.000119,0.002575,0.075461,0.001761,310.176821,26.690065,0.999734,0.993521,0.003329,0.379858,0.000056,-0.000074,0.000012,0.000057,-0.000075,5.253890,0.000078,
2431,2893,3.70592736828907,5.41484404125701,-0.0156114169225248,0.001941,-0.000459,0.002642,0.079301,0.007792,316.531564,25.034687,0.999527,0.991243,0.003700,0.373333,-0.000002,0.000011,-0.000006,0.000013,-0.000004,-68.300941,0.000014,
2011,2968,-5.42832264122943,7.01708131424206,0.00592570379200197,0.001768,-0.000538,0.004759,0.068497,-0.003755,316.539911,24.225025,0.999670,0.994896,0.002925,0.354529,0.000041,-0.000027,0.000000,0.000041,-0.000027,-0.022008,0.000042,
2356,2518,2.14605579023296,-2.76212908661712,-0.00863144579290065,0.001921,-0.000759,0.000124,0.087401,-0.041547,322.638545,23.879478,0.999333,0.986959,0.004504,0.366565,0.000007,-0.000013,-0.000011,0.000012,-0.000018,-24.378524,0.000018,
2026,2818,-5.08189237295029,3.76173561361625,-0.0226483910050774,0.001760,-0.000904,0.004942,0.067294,-0.010207,318.641006,24.288351,0.999348,0.992082,0.003636,0.425174,0.000001,0.000015,0.000009,0.000019,-0.000003,63.455119,0.000020,
2236,2038,-0.380920636381227,-13.2713748625143,0.0322042751815843,0.002506,-0.000475,0.002834,0.105460,-0.006617,330.858173,23.400630,0.998915,0.979660,0.005577,0.360441,-0.000007,-0.000045,-0.000008,-0.000005,-0.000047,-12.009237,0.000057,
2146,3118,-2.52366961443189,10.2791525608574,0.0236333451766768,0.001881,-0.000150,0.000695,0.084634,0.011142,313.543870,24.625114,0.999668,0.995092,0.003063,0.381948,-0.000002,0.000007,0.000006,0.000010,-0.000005,63.975035,0.000010,
2086,2833,-3.7813686817439,4.09095657410798,-0.0128977657782343,0.001862,-0.000482,0.003493,0.075561,-0.001908,318.145479,24.440152,0.999793,0.994942,0.002984,0.344798,0.000009,0.000010,-0.000004,0.000014,0.000005,-46.952168,0.000020,
2011,2713,-5.39185926688758,1.47900170731591,-0.0263154634113789,0.001603,-0.000267,0.003671,0.063803,0.002448,320.404696,24.401147,0.999715,0.994496,0.003302,0.392701,0.000011,-0.000010,0.000007,0.000014,-0.000012,16.962760,0.000015,
2371,2608,2.45516249067247,-0.79666930849698,-0.0170164634712933,0.002010,-0.000290,0.000548,0.090175,-0.017273,321.114305,24.104200,0.999120,0.987536,0.004431,0.389216,0.000011,0.000012,-0.000007,0.000019,0.000004,-45.857793,0.000025,
2506,1993,5.52995356894744,-14.2668780143669,0.0388761870758003,0.001608,-0.000696,0.001982,0.065514,-0.019784,331.757911,21.517794,0.999121,0.973811,0.006242,0.238952,-0.000015,-0.000007,0.000001,-0.000007,-0.000015,84.276000,0.000023,
2011,2518,-5.36184944131877,-2.76910015842911,-0.0141589479151776,0.001967,-0.000822,0.004764,0.077393,-0.004806,323.672948,24.500651,0.999687,0.993433,0.003503,0.433104,-0.000024,-0.000017,0.000000,-0.000017,-0.000024,86.794699,0.000041,
2191,3298,-1.58013375130815,14.1849071569099,0.0017130331512476,0.001996,-0.000326,0.000528,0.090308,-0.015875,310.257651,24.987863,0.999771,0.996467,0.002686,0.330016,-0.000013,0.000043,0.000015,0.000047,-0.000017,75.573708,0.000047,
2071,2788,-4.09982929193332,3.11120011418842,-0.014576594252901,0.001997,-0.000482,0.003633,0.081506,-0.002458,318.947262,24.349348,0.999304,0.989395,0.004087,0.426623,0.000014,0.000014,-0.000001,0.000015,0.000013,-39.874117,0.000028,
2386,2653,2.77251887741388,0.18477008350925,-0.0150271714374526,0.001604,-0.001146,0.006790,0.048829,-0.017727,320.367026,24.200555,0.999179,0.985861,0.004643,0.408544,0.000010,0.000024,-0.000011,0.000030,0.000004,-61.052489,0.000037,
2101,2698,-3.43495064885766,1.15556117216779,-0.0214491797569281,0.001531,-0.000848,0.002901,0.061757,-0.013530,320.176988,24.412224,0.999308,0.991013,0.003860,0.367914,0.000025,0.000009,0.000008,0.000029,0.000005,23.048344,0.000037,
2326,2383,1.5175971031235,-5.71088561370197,-0.00817661393841718,0.002104,-0.000546,0.000546,0.094406,-0.031693,324.838813,23.702478,0.999472,0.987412,0.004622,0.288764,0.000007,0.000014,-0.000009,0.000020,0.000001,-56.836771,0.000024,
2026,2578,-5.04542586755654,-1.45975271527268,-0.0203236722227871,0.001712,-0.000478,0.003440,0.069221,0.005514,322.548631,24.503585,0.999298,0.989457,0.004095,0.377380,-0.000010,0.000029,-0.000002,0.000030,-0.000010,-87.252781,0.000030,
2116,2998,-3.15560174414697,7.67470558431082,0.00511213590078796,0.001975,-0.000175,0.000886,0.088392,0.005081,315.479251,24.469028,0.999523,0.993015,0.003393,0.391561,0.000001,0.000009,0.000010,0.000016,-0.000006,55.774452,0.000017,
2236,2098,-0.392349395070251,-11.9539382258321,0.0260834871866109,0.001897,-0.000663,0.002798,0.077638,-0.012334,329.814656,23.551895,0.999289,0.980953,0.005399,0.301744,0.000002,0.000004,-0.000003,0.000006,0.000000,-57.984321,0.000007,
2476,3193,4.62792221252132,11.9336725004184,0.0273253036194205,0.001975,-0.000197,0.005462,0.070043,0.024504,312.058114,26.213641,0.999567,0.992166,0.003480,0.406185,0.000026,-0.000003,0.000031,0.000045,-0.000023,32.532416,0.000045,
2161,3028,-2.18390965923471,8.32864970518379,0.00791455275253838,0.002218,-0.000426,0.001951,0.096090,-0.008367,314.835086,24.627597,0.999277,0.989215,0.004401,0.365630,0.000007,0.000012,0.000007,0.000017,0.000001,53.799970,0.000021,
2266,2293,0.226260688433793,-7.68179076521275,0.00695319446953135,0.001843,-0.001285,0.005185,0.066933,-0.032319,326.449570,23.672849,0.999329,0.985020,0.004978,0.346986,-0.000003,-0.000011,-0.000012,0.000006,-0.000020,-35.225597,0.000020,
2506,2008,5.52649214252739,-13.9382407432739,0.0389477777814591,0.001390,-0.001078,0.003473,0.049682,-0.027868,331.501360,21.491863,0.999265,0.976546,0.006016,0.321694,-0.000014,-0.000005,0.000001,-0.000005,-0.000014,83.416092,0.000019,
2026,2833,-5.08427366276573,4.08827271785154,-0.0196803303386446,0.001558,-0.000723,0.006099,0.054841,-0.005276,318.409570,24.348527,0.999664,0.994516,0.003334,0.359747,0.000002,0.000018,0.000007,0.000021,0.000000,69.777582,0.000024,
2416,2848,3.38854830485223,4.4345351132773,-0.0160519454098562,0.002194,-0.000417,0.002910,0.090012,0.000382,317.252376,24.844438,0.999194,0.988859,0.004164,0.387326,-0.000008,0.000026,-0.000008,0.000028,-0.000010,-77.399752,0.000028,
2176,3193,-1.8838174376553,11.9033616066824,0.0577851088825128,0.001746,-0.000743,0.003246,0.070143,-0.028216,312.479022,24.656439,0.999809,0.996717,0.002766,0.486892,-0.000007,0.000017,0.000006,0.000018,-0.000008,76.772166,0.000018,
2296,2368,0.867172262254371,-6.0421770883892,0.0132078247757477,0.001636,-0.000684,0.004208,0.060576,-0.022387,325.246976,23.682288,0.999201,0.985940,0.004732,0.382959,0.000001,0.000012,-0.000004,0.000013,0.000000,-70.852315,0.000015,
2341,2413,1.84056566656851,-5.05670994131111,0.0100749954038974,0.002311,-0.000660,0.001672,0.099919,-0.018134,324.507966,23.730077,0.999662,0.990011,0.004186,0.301769,0.000000,0.000018,-0.000004,0.000019,-0.000001,-77.992822,0.000022,
2146,3088,-2.51935004446381,9.62947899298344,0.0142891841121582,0.002072,-0.000657,0.005037,0.080124,0.001627,313.950887,24.650159,0.999703,0.994912,0.003102,0.333822,0.000005,-0.000001,0.000005,0.000007,-0.000004,29.504812,0.000007,
2296,2323,0.874936168787077,-7.0249730127889,0.00232157146075451,0.001882,-0.000784,0.002058,0.079065,-0.025366,325.901566,23.601961,0.999068,0.983891,0.005210,0.365181,-0.000005,-0.000012,-0.000005,-0.000003,-0.000014,-27.732902,0.000018,
2431,2908,3.70253034126609,5.74048691562296,-0.0170825193170572,0.001748,-0.000679,0.004070,0.065045,-0.007386,316.260354,25.027980,0.999657,0.990942,0.003679,0.414634,-0.000004,0.000006,-0.000002,0.000007,-0.000004,-77.800377,0.000007,
2191,3178,-1.55760464121247,11.5832583358185,0.0284100211009672,0.002214,-0.000570,0.005416,0.084860,-0.008984,312.442013,24.870732,0.999845,0.996784,0.002750,0.349629,-0.000005,0.000020,0.000007,0.000022,-0.000007,74.633670,0.000022,
2011,2728,-5.39388930014303,1.80474651463555,-0.0240589033804781,0.001756,-0.000426,0.004911,0.067486,0.005039,320.184409,24.355565,0.999613,0.992516,0.003624,0.428890,0.000009,0.000019,0.000010,0.000025,0.000002,58.275763,0.000031,
2221,2038,-0.709464102401508,-13.2687639278773,0.019444027032705,0.002097,-0.000048,-0.000526,0.097718,-0.009049,330.776202,23.564546,0.998862,0.978694,0.005638,0.293981,0.000004,-0.000047,0.000002,0.000004,-0.000047,1.887486,0.000051,
2041,2863,-4.76260315513789,4.74038208673073,-0.0172343126884584,0.001965,-0.000411,0.001194,0.087091,-0.019621,317.883290,24.340680,0.999237,0.990745,0.004113,0.355876,0.000007,0.000025,-0.000013,0.000033,0.000000,-61.970376,0.000038,
2086,2848,-3.7833693105343,4.41582578088508,-0.00693210272197575,0.001912,-0.000289,0.004150,0.076033,0.014772,317.952418,24.362637,0.999662,0.993546,0.003333,0.437708,0.000011,0.000009,-0.000007,0.000018,0.000003,-39.845715,0.000022,
2311,2293,1.20755670043152,-7.68165792615721,0.0111373798848149,0.001488,-0.000753,0.005367,0.049640,-0.000374,326.418174,23.507269,0.999331,0.985346,0.004749,0.358704,-0.000006,-0.000005,-0.000007,0.000001,-0.000013,-47.010199,0.000014,
2101,2833,-3.45623502959091,4.09173949555328,-0.0191025139840235,0.001878,-0.000800,0.004930,0.071856,-0.015174,318.015616,24.427258,0.999640,0.993655,0.003340,0.362600,0.000010,0.000010,-0.000001,0.000011,0.000009,-46.417539,0.000020,
2176,3088,-1.86827874438876,9.63090155562567,0.0191812064484225,0.002026,-0.000675,0.004818,0.078277,-0.001414,313.878757,24.719980,0.999556,0.993446,0.003362,0.372343,0.000007,-0.000001,0.000002,0.000007,-0.000001,11.829997,0.000008,
2056,2758,-4.42121764336822,2.4593076068222,-0.0228977020313437,0.001888,-0.000142,0.000728,0.084936,0.015127,319.450428,24.371542,0.999321,0.991289,0.003879,0.421327,0.000023,0.000004,-0.000002,0.000023,0.000004,-6.069866,0.000029,
2356,2533,2.14307374852904,-2.43489237351653,-0.00912218056987513,0.002027,-0.000801,0.002893,0.082530,-0.030608,322.386305,23.884387,0.999383,0.987553,0.004460,0.412383,0.000008,-0.000010,-0.000013,0.000015,-0.000017,-28.183688,0.000019,
2446,2998,4.01277640137655,7.69765210152705,0.0009108301231322,0.002125,-0.000686,0.004716,0.079801,-0.008559,314.979737,25.420955,0.999389,0.988774,0.004056,0.358544,0.000016,0.000025,0.000024,0.000045,-0.000004,50.375296,0.000049,
2266,2173,0.248041098802027,-10.3099996292377,0.0148916825948504,0.001793,-0.001124,0.005799,0.062614,-0.002375,328.446456,23.423244,0.999492,0.984621,0.005001,0.402364,0.000002,-0.000028,-0.000008,0.000004,-0.000030,-13.341320,0.000032,
2281,2353,0.542520485184724,-6.36910997228914,0.00529693763547812,0.001851,-0.000428,0.004202,0.070727,-0.012258,325.449638,23.720712,0.999192,0.985183,0.004849,0.376204,0.000006,0.000003,-0.000003,0.000008,0.000001,-33.082802,0.000010,
2281,2248,0.562103163817643,-8.66686451913187,0.00948508221256361,0.001912,-0.000561,-0.000730,0.089898,-0.023587,327.199248,23.519733,0.999172,0.982344,0.005170,0.356670,-0.000010,-0.000013,-0.000002,-0.000010,-0.000014,-26.070058,0.000023,
2161,3133,-2.20027812106731,10.6051754161397,0.0270254736152538,0.002230,-0.000149,0.000239,0.102081,0.001819,313.286695,24.686304,0.999524,0.993612,0.003427,0.380383,-0.000002,0.000003,0.000006,0.000007,-0.000005,55.204993,0.000007,
2476,3208,4.62540860385026,12.2588523073915,0.0311557786966432,0.002055,-0.000059,0.003911,0.079636,0.010527,311.853742,26.273962,0.999435,0.991827,0.003600,0.387106,0.000027,-0.000020,0.000022,0.000036,-0.000029,21.657296,0.000038,
2236,2173,-0.406211424997135,-10.3088183573942,0.0140504961916008,0.001759,-0.000580,0.001007,0.077163,-0.032975,328.506983,23.681504,0.998817,0.982963,0.005197,0.272161,0.000012,-0.000016,-0.000005,0.000013,-0.000016,-9.363686,0.000017,
2131,2953,-2.82283944407574,6.69867941974121,0.00601567036181905,0.002055,-0.000371,0.004605,0.080784,0.003405,316.146111,24.501329,0.999657,0.992477,0.003478,0.385363,0.000009,0.000012,0.000005,0.000016,0.000006,53.562254,0.000023,
2056,2923,-4.44540543694842,6.0435480910448,-0.00650439906110023,0.002429,-0.000331,0.000913,0.109343,-0.005685,316.932214,24.328887,0.999517,0.992660,0.003549,0.381372,0.000013,0.000003,-0.000005,0.000015,0.000002,-22.111645,0.000018,
2506,2023,5.52337479386357,-13.6069408525354,0.0335673946281645,0.001937,-0.000639,0.004271,0.071803,-0.008739,331.235997,21.625332,0.999225,0.972570,0.006375,0.272146,0.000007,0.000055,-0.000029,0.000069,-0.000007,-65.070518,0.000076,
2386,2668,2.76998971298746,0.512523475795959,-0.0214728666566657,0.002058,-0.000505,0.001471,0.088996,-0.024637,320.109130,24.264671,0.999322,0.987682,0.004403,0.381393,0.000005,0.000025,-0.000013,0.000032,-0.000002,-64.151517,0.000036,
2116,2893,-3.14031892210863,5.39630403737749,-0.0200594049752567,0.001802,-0.000410,0.002093,0.076682,-0.018922,316.966657,24.448167,0.999366,0.992364,0.003936,0.368996,0.000016,0.000017,0.000002,0.000018,0.000014,49.092681,0.000033,
2071,2713,-4.08938182378037,1.48196554199272,-0.0308180098027719,0.001727,-0.000298,0.004074,0.067823,0.008498,320.013800,24.418337,0.999314,0.990729,0.003836,0.384372,0.000032,0.000007,0.000007,0.000034,0.000005,15.200459,0.000042,
2176,3208,-1.88744177266968,12.2313048325383,0.0381348939658324,0.001949,-0.000476,0.002022,0.083506,-0.006998,312.081037,24.793742,0.999673,0.995022,0.003083,0.381659,-0.000006,0.000018,0.000009,0.000021,-0.000009,71.399120,0.000021,
2206,1993,-1.02897042993667,-14.2570448240723,0.0272919988044009,0.001959,-0.000193,0.000857,0.086974,-0.010889,331.590292,23.601363,0.999394,0.983906,0.004971,0.293171,0.000030,-0.000048,0.000001,0.000030,-0.000048,0.776807,0.000048,
2266,2308,0.223965155701961,-7.35384680841682,0.01346740399498,0.001787,-0.000947,0.005850,0.062322,-0.000124,326.256899,23.713822,0.999009,0.982297,0.005333,0.365456,-0.000004,-0.000011,-0.000010,0.000003,-0.000018,-34.981492,0.000019,
2011,2983,-5.43126443551569,7.34288477760018,0.00165333681798074,0.001522,-0.000720,0.007428,0.049895,0.004756,316.241574,24.202817,0.999348,0.992192,0.003453,0.372462,0.000033,-0.000037,-0.000003,0.000033,-0.000037,-2.329075,0.000040,
2401,2728,3.08425326953937,1.82131468199835,-0.0267879532038364,0.001878,-0.001010,0.003479,0.073231,-0.027157,319.085044,24.454187,0.999583,0.990351,0.004025,0.366078,0.000001,0.000028,0.000000,0.000028,0.000001,89.325484,0.000033,
2416,2863,3.3856122535734,4.76114194752911,-0.0140090555292431,0.001957,-0.000263,0.001838,0.083147,0.016193,317.017584,24.908103,0.999357,0.989707,0.004005,0.387126,-0.000008,0.000022,-0.000007,0.000023,-0.000009,-78.191788,0.000023,
2251,2098,-0.0651741588063786,-11.9530712368954,0.0178330635109774,0.002184,-0.000531,0.001392,0.095328,-0.018369,329.734838,23.481005,0.999301,0.981086,0.005488,0.276247,0.000004,0.000000,-0.000004,0.000006,-0.000003,-31.894035,0.000006,
2311,2308,1.20399366365976,-7.35161438751065,-0.00862474536791069,0.001980,-0.000937,0.002962,0.080357,-0.014688,326.041454,23.524758,0.999448,0.987229,0.004686,0.361899,-0.000006,-0.000010,-0.000007,-0.000001,-0.000015,-37.184963,0.000018,
2146,3133,-2.52605349008399,10.6035154604619,0.0281287289730585,0.001917,-0.000488,0.003699,0.077120,0.007503,313.329318,24.581162,0.999532,0.994192,0.003337,0.428946,-0.000004,0.000008,0.000007,0.000010,-0.000007,66.105020,0.000011,
2371,2623,2.45170484340791,-0.469510988275957,-0.0197273219527574,0.001841,-0.000587,0.003248,0.072753,-0.012576,320.830501,24.118766,0.999161,0.987782,0.004381,0.421170,0.000012,0.000014,-0.000010,0.000023,0.000003,-48.033963,0.000028,
2476,3223,4.62238144195465,12.5847720831994,0.0273699303160697,0.002134,-0.000154,0.000855,0.094811,-0.008657,311.590660,26.367513,0.999359,0.991976,0.003636,0.329563,0.000026,-0.000040,0.000015,0.000030,-0.000043,12.195480,0.000044,
2041,2608,-4.72378976583603,-0.805844753199267,-0.024479264869683,0.002010,-0.000211,-0.000838,0.094838,0.001237,321.963560,24.438020,0.999041,0.988073,0.004365,0.405877,-0.000014,0.000035,-0.000002,0.000035,-0.000014,-87.517810,0.000035,
2326,2398,1.51532015036517,-5.38518167298451,0.00365248879251112,0.001585,-0.000366,-0.001006,0.076013,-0.031852,324.677260,23.651177,0.999465,0.987877,0.004579,0.375570,0.000008,0.000014,-0.000010,0.000021,0.000000,-53.336569,0.000025,
2161,3043,-2.18588013706383,8.65376342668348,0.0215330744169364,0.001916,-0.000282,0.002632,0.080166,0.006559,314.688321,24.673561,0.999536,0.993293,0.003519,0.343766,0.000008,0.000000,0.000006,0.000011,-0.000003,27.522374,0.000012,
2041,2878,-4.76512353321444,5.06672787340545,-0.0200384595991068,0.002057,-0.000680,0.003205,0.085689,-0.018520,317.614580,24.357141,0.999030,0.987268,0.004505,0.332940,0.000018,0.000037,-0.000012,0.000042,0.000012,-64.262093,0.000057,
2086,2863,-3.78567673278839,4.74273656272847,-0.0109852695478025,0.002120,-0.000256,0.002025,0.091832,0.014811,317.690114,24.418543,0.999428,0.991138,0.003910,0.380719,0.000012,0.000014,-0.000008,0.000021,0.000005,-48.631959,0.000027,
2026,2848,-5.08687769897835,4.41281509437366,-0.0362862229958409,0.001933,-0.000546,0.001125,0.085819,-0.032383,318.059363,24.115210,0.999678,0.995377,0.003187,0.556662,0.000004,0.000024,0.000002,0.000024,0.000004,85.327435,0.000031,
2056,2773,-4.42347875140427,2.78477452823977,-0.0179300009024246,0.001571,-0.000281,-0.000541,0.073794,-0.011947,319.237908,24.364941,0.999160,0.989442,0.004151,0.395408,0.000019,0.000011,-0.000003,0.000020,0.000010,-17.890936,0.000030,
2221,2113,-0.722794980125119,-11.6248937558617,0.0222775501955539,0.001672,-0.000797,0.003471,0.065276,-0.036808,329.562617,23.638879,0.999042,0.980901,0.005360,0.302833,0.000002,0.000003,0.000003,0.000006,0.000000,50.096402,0.000007,
2116,3013,-3.15757481572021,7.99962371313508,0.0125391854173813,0.002089,-0.000216,0.002585,0.088653,0.014032,315.297262,24.454499,0.998989,0.989665,0.004070,0.417803,0.000002,0.000015,0.000011,0.000022,-0.000005,59.746252,0.000023,
2251,2203,-0.0841442203598426,-9.65186282643294,0.00756136440890032,0.002304,-0.000216,0.000830,0.102837,0.007242,327.966512,23.543291,0.999001,0.985070,0.004995,0.423563,0.000003,-0.000011,-0.000018,0.000015,-0.000023,-33.856369,0.000024,
2356,2548,2.14019261477231,-2.10768051518596,-0.00773288889882906,0.001990,-0.000821,0.004357,0.075698,-0.017711,322.147685,23.906599,0.999231,0.987004,0.004584,0.442860,0.000008,-0.000003,-0.000013,0.000017,-0.000012,-33.935624,0.000017,
2221,2053,-0.712927776173554,-12.9391440142821,0.0171898430283477,0.001560,-0.000241,0.002361,0.063846,0.017369,330.482395,23.582560,0.998831,0.977990,0.005690,0.325142,0.000002,-0.000026,0.000007,0.000003,-0.000028,13.036960,0.000030,
2011,2533,-5.36411942055965,-2.44206808279296,-0.013582709026366,0.001756,-0.000919,0.002650,0.073358,-0.027737,323.431659,24.524250,0.999254,0.988658,0.004335,0.375575,-0.000027,-0.000022,0.000004,-0.000020,-0.000029,63.093965,0.000050,
2506,2038,5.52051426888789,-13.2794090092882,0.0434806378991652,0.001843,-0.001508,0.010000,0.045073,-0.024203,331.050667,21.627937,0.999218,0.970528,0.006482,0.318457,0.000013,0.000086,-0.000042,0.000106,-0.000006,-65.341808,0.000119,
2341,2428,1.83791021356257,-4.73010774031087,0.0121821774019963,0.002140,-0.000274,-0.000339,0.099253,-0.007959,324.282555,23.666203,0.999736,0.993854,0.003675,0.414091,0.000007,0.000012,-0.000003,0.000013,0.000005,-64.351701,0.000019,
2176,3103,-1.87074287876343,9.95569779873799,0.0228646947595053,0.001754,-0.000525,0.003020,0.071361,-0.004228,313.657900,24.703701,0.999581,0.994234,0.003174,0.397129,0.000001,0.000001,0.000004,0.000005,-0.000003,45.518285,0.000005,
2101,2713,-3.43719016489844,1.48188609771206,-0.0218233559166947,0.001799,-0.000786,0.004249,0.070154,-0.019258,319.939124,24.404125,0.999377,0.990368,0.003919,0.371907,0.000030,0.000006,0.000011,0.000034,0.000002,21.206562,0.000041,
2131,2968,-2.82558937975716,7.02457471553017,0.00472207464076746,0.001717,-0.000438,0.002282,0.072153,-0.007103,315.882342,24.525303,0.999784,0.994365,0.003024,0.355699,0.000010,0.000014,0.000003,0.000015,0.000008,62.921765,0.000024,
2146,3103,-2.52185997457767,9.95327612674414,0.0195079390856563,0.001772,-0.000748,0.005653,0.064326,-0.007624,313.734589,24.557722,0.999820,0.996706,0.002638,0.423847,0.000001,0.000003,0.000009,0.000011,-0.000007,48.915494,0.000011,
2026,2593,-5.04819108436312,-1.13230681281571,-0.0256093088506759,0.001659,-0.000697,0.005787,0.060310,0.009880,322.253038,24.506876,0.999030,0.988859,0.004401,0.369696,-0.000011,0.000046,0.000001,0.000046,-0.000011,88.597976,0.000048,
2266,2188,0.245969548318278,-9.98038067962214,0.0175414591603271,0.002090,-0.000770,0.004327,0.081223,-0.007779,328.244849,23.575298,0.999113,0.984072,0.005112,0.273067,-0.000002,-0.000020,-0.000014,0.000005,-0.000027,-28.601330,0.000029,
2101,2848,-3.45835293391297,4.41779113300466,-0.0232389579771848,0.002185,-0.000043,0.000987,0.097774,0.010560,317.763015,24.374587,0.999791,0.994330,0.003128,0.442214,0.000011,0.000008,-0.000004,0.000014,0.000006,-34.422836,0.000020,
2431,2923,3.699994876649,6.06722519707127,-0.0128203793822763,0.001871,-0.000750,0.004405,0.069442,-0.010734,316.055078,25.155511,0.999659,0.992141,0.003629,0.332988,-0.000004,-0.000001,-0.000003,0.000001,-0.000006,-56.930228,0.000007,
2281,2263,0.557951158836882,-8.33529032340934,-0.00253570065240183,0.001639,-0.000631,0.003206,0.064226,-0.014248,326.830028,23.712555,0.999506,0.987397,0.004577,0.203872,-0.000008,-0.000002,-0.000008,0.000003,-0.000013,-56.282851,0.000014,
2056,2938,-4.4478227792491,6.36892057001259,-0.00395922624414879,0.002232,-0.000411,0.001335,0.099043,-0.006801,316.699353,24.313198,0.999386,0.991867,0.003664,0.389771,0.000008,-0.000003,-0.000003,0.000009,-0.000004,-12.127522,0.000009,
2266,2323,0.221447467150828,-7.02431345173863,0.00729540606226919,0.002110,-0.000519,0.002001,0.090012,-0.005600,325.990356,23.816136,0.998848,0.980264,0.005619,0.285373,-0.000003,-0.000011,-0.000010,0.000003,-0.000017,-34.613621,0.000018,
2446,3013,4.00982143560735,8.02387779819747,-0.000630100581815896,0.002022,-0.000313,0.001410,0.087601,-0.000431,314.729003,25.473149,0.999043,0.986889,0.004266,0.365951,0.000013,0.000026,0.000027,0.000047,-0.000008,51.748375,0.000051,
2086,2758,-3.77043136093127,2.46047611129248,-0.0267059025981098,0.001823,-0.000823,0.004624,0.070329,-0.016850,319.242865,24.375648,0.999454,0.990965,0.003863,0.399875,0.000012,0.000001,-0.000006,0.000014,-0.000001,-23.867027,0.000016,
2296,2338,0.871754302467245,-6.69570706882949,-0.00404293119441945,0.001800,-0.000255,0.000756,0.079926,-0.003374,325.606437,23.657402,0.999251,0.985336,0.004787,0.363981,0.000000,-0.000006,-0.000005,0.000003,-0.000009,-29.812033,0.000009,
2506,2053,5.51660562216661,-12.9488776123772,0.0414110369281389,0.001773,-0.002307,0.016119,0.017953,-0.022123,330.763700,21.757035,0.999357,0.981713,0.005377,0.256205,0.000011,0.000058,-0.000028,0.000071,-0.000002,-64.821681,0.000081,
2476,3238,4.61843569225606,12.910789559786,0.0133432994203986,0.002295,-0.000306,-0.000396,0.106988,-0.007314,311.238411,26.396097,0.999689,0.993964,0.003199,0.357601,0.000024,-0.000041,0.000010,0.000026,-0.000042,8.602080,0.000043,
2236,2113,-0.394969135010626,-11.6267333389024,0.0275516218393932,0.001897,-0.001217,0.004729,0.071213,-0.033639,329.580158,23.459806,0.999379,0.981554,0.005265,0.396835,0.000003,0.000003,-0.000005,0.000008,-0.000003,-44.891644,0.000008,
2461,3088,4.32122259499007,9.65429351433319,0.00561485651871863,0.001820,-0.000169,0.002982,0.072420,0.009890,313.567004,25.796810,0.999670,0.994278,0.003359,0.364696,0.000024,0.000042,0.000032,0.000066,0.000000,53.162118,0.000076,
2011,2548,-5.36605290924138,-2.11514412092415,-0.0156276925830525,0.002168,-0.000629,0.002782,0.092094,-0.003315,323.190959,24.472238,0.999435,0.989530,0.003942,0.441241,-0.000020,-0.000006,0.000007,-0.000002,-0.000023,66.969628,0.000028,
2221,2068,-0.715326616942566,-12.6100143581376,0.0185104716790079,0.001665,-0.000294,0.002791,0.067293,0.001209,330.255777,23.643590,0.998880,0.978505,0.005661,0.269972,0.000000,-0.000007,0.000009,0.000006,-0.000013,33.416717,0.000013,
2296,2383,0.863764343485311,-5.71195445865034,-0.00209430869068683,0.001659,-0.000356,-0.001695,0.081677,-0.024310,324.897097,23.778772,0.998691,0.983123,0.005329,0.316949,0.000004,0.000011,-0.000005,0.000013,0.000002,-62.991425,0.000016,
2161,3058,-2.18748490036265,8.97739046187679,0.0322038700783764,0.001938,-0.000324,-0.000224,0.089873,-0.015554,314.543346,24.602523,0.999654,0.995264,0.003262,0.401505,0.000011,-0.000004,0.000006,0.000013,-0.000006,18.617410,0.000013,
2416,2878,3.38252535461728,5.08763462240394,-0.0144260738954358,0.002013,-0.000302,0.003861,0.078328,0.020896,316.764311,24.958366,0.999446,0.990919,0.003767,0.388878,-0.000006,0.000016,-0.000007,0.000018,-0.000008,-74.204787,0.000018,
2026,2608,-5.0506184980531,-0.805109757966036,-0.0325410576988361,0.001835,-0.000995,0.004634,0.071510,0.002724,321.963835,24.490097,0.998967,0.987190,0.004604,0.370390,-0.000011,0.000039,0.000004,0.000040,-0.000011,85.653229,0.000041,
2356,2563,2.13676765310711,-1.77888651891691,-0.0129138940416738,0.001707,-0.000739,0.002989,0.067562,-0.014367,321.852146,24.030244,0.999278,0.989336,0.004355,0.362413,0.000007,-0.000008,-0.000015,0.000016,-0.000017,-31.723740,0.000019,
2311,2323,1.20134059727003,-7.02409025071456,0.000885921573797077,0.001744,-0.001216,0.008011,0.052213,-0.011365,325.850317,23.592356,0.999197,0.984376,0.004993,0.331625,-0.000004,-0.000010,-0.000005,-0.000001,-0.000012,-30.858239,0.000015,
2116,2908,-3.1419348095927,5.72161497605839,-0.00826454313454406,0.001867,-0.000365,0.002051,0.079881,-0.001910,316.824316,24.469359,0.999220,0.990869,0.004073,0.367634,0.000014,0.000008,0.000003,0.000015,0.000007,22.936877,0.000022,
2281,2368,0.540194240292116,-6.0421050241681,0.00871621354320951,0.001937,-0.000881,0.003768,0.075947,-0.031326,325.241431,23.715750,0.998979,0.983035,0.005195,0.391624,0.000003,0.000014,-0.000006,0.000017,0.000000,-66.224363,0.000019,
2146,3148,-2.52919498998579,10.9290463043517,0.0254905373682845,0.001654,-0.000495,0.006433,0.056625,0.002890,313.041582,24.605772,0.999551,0.993374,0.003412,0.406256,-0.000005,0.000010,0.000007,0.000013,-0.000008,68.022163,0.000013,
2446,3028,4.0075162262373,8.34980597483241,0.00731428934318501,0.002127,-0.000285,0.002151,0.089646,0.001993,314.552023,25.570851,0.999374,0.988616,0.004064,0.321953,0.000016,0.000031,0.000026,0.000051,-0.000004,52.845738,0.000056,
2086,2878,-3.78857216254632,5.06729930545212,-0.00488485997522048,0.001457,-0.000809,0.005617,0.050682,-0.008341,317.456976,24.361297,0.999372,0.991640,0.003899,0.413260,0.000018,0.000027,-0.000005,0.000029,0.000016,-66.165256,0.000046,
2041,2893,-4.76686531786903,5.3914379967857,-0.00776787342761054,0.001985,-0.000759,0.004810,0.077881,-0.015356,317.465809,24.335345,0.999323,0.991917,0.003694,0.349539,0.000019,0.000023,-0.000012,0.000034,0.000009,-50.239650,0.000045,
2506,2068,5.51557984158712,-12.6196728527619,0.0488030129918684,0.002304,-0.000766,0.005041,0.085541,-0.014394,330.650912,21.869760,0.999465,0.983475,0.005126,0.214602,0.000009,0.000065,-0.000032,0.000080,-0.000006,-65.416188,0.000089,
2026,2863,-5.08835547275011,4.7407747513785,-0.0281238364304386,0.002074,-0.000169,-0.002036,0.101159,-0.016765,317.897863,24.342877,0.999362,0.992618,0.003762,0.334147,0.000005,0.000030,0.000000,0.000030,0.000005,-89.934335,0.000038,
2236,2188,-0.408497744032562,-9.97952543899599,0.0126994996109602,0.002099,-0.000709,-0.000078,0.096240,-0.040388,328.272921,23.763291,0.999151,0.985937,0.004824,0.206675,0.000009,-0.000009,-0.000012,0.000015,-0.000015,-26.237956,0.000017,
2206,2008,-1.03100753185424,-13.9289035580445,0.031241074638956,0.002090,-0.000231,-0.000330,0.096709,-0.021395,331.392627,23.573948,0.999218,0.980812,0.005363,0.330272,0.000019,-0.000046,0.000003,0.000019,-0.000047,2.345420,0.000047,
2176,3118,-1.87253199188642,10.280794788261,0.0262438249697539,0.002106,-0.000299,0.000120,0.096615,-0.008883,313.466346,24.718381,0.999522,0.993740,0.003358,0.388902,-0.000003,0.000003,0.000003,0.000004,-0.000004,69.401570,0.000005,
2011,2563,-5.36835173870965,-1.78805287193551,-0.0145236594727294,0.002075,-0.000702,0.003600,0.085592,0.006578,322.951228,24.482785,0.999286,0.988335,0.004210,0.429372,-0.000023,0.000023,0.000002,0.000023,-0.000023,87.836923,0.000027,
2266,2563,0.177275896597376,-1.78251005589838,-0.0123741055837741,0.002092,-0.000690,0.001733,0.090131,-0.013025,321.943781,24.054952,0.999469,0.990373,0.004057,0.470943,0.000006,-0.000004,-0.000008,0.000011,-0.000009,-28.671444,0.000012,
2371,2638,2.44900503105266,-0.141721525893267,-0.0231820428693368,0.002102,-0.000655,0.000929,0.092984,-0.010674,320.577755,24.192677,0.999228,0.988128,0.004303,0.390981,0.000011,0.000018,-0.000015,0.000030,0.000000,-51.896337,0.000034,
2056,2788,-4.4261741671176,3.11182299075454,-0.0205616542154985,0.001662,-0.000452,0.004176,0.064668,0.004304,318.963020,24.405228,0.999217,0.989757,0.004061,0.365865,0.000015,0.000017,-0.000001,0.000017,0.000014,-59.998780,0.000032,
2191,3193,-1.55969584348979,11.9073417125321,0.0365919561747887,0.001986,-0.000502,0.002920,0.082233,-0.015511,312.262911,24.840185,0.999745,0.995921,0.002961,0.386942,-0.000006,0.000018,0.000007,0.000020,-0.000008,74.614778,0.000021,
2071,2803,-4.102425353639,3.43838699286994,-0.0216288338866093,0.002146,-0.000359,0.002728,0.090983,0.003880,318.653914,24.382939,0.999266,0.990640,0.003993,0.396415,0.000014,0.000007,0.000000,0.000014,0.000007,3.705757,0.000021,
2401,2743,3.08153515041652,2.14835406947989,-0.0331750214027693,0.002329,-0.000666,0.000235,0.105849,-0.028022,318.819917,24.473316,0.999492,0.989932,0.004046,0.392158,0.000000,0.000034,0.000001,0.000034,0.000000,88.284029,0.000039,
2116,3028,-3.16011862921263,8.3250271679452,0.0133480511933044,0.002083,-0.000592,0.004574,0.082351,0.000877,315.053314,24.465838,0.999298,0.991559,0.003733,0.396002,0.000001,0.000011,0.000008,0.000016,-0.000004,61.678180,0.000017,
2056,2953,-4.45009364353889,6.69445273621715,0.00204193464338687,0.002026,-0.000202,0.002656,0.085919,0.013551,316.492214,24.318749,0.999240,0.992055,0.003708,0.398559,0.000014,-0.000008,-0.000005,0.000015,-0.000009,-12.132738,0.000015,
2341,2443,1.83395327628579,-4.40007057055082,-0.00232168100546915,0.002142,-0.000418,0.000045,0.097935,-0.008004,323.916411,23.776408,0.999407,0.988416,0.004366,0.342486,0.000012,0.000004,-0.000004,0.000014,0.000002,-22.218378,0.000017,
2251,2218,-0.0863975496214451,-9.32355730656658,0.0141538072129492,0.002128,-0.000333,-0.000361,0.098643,-0.012513,327.775475,23.641275,0.998510,0.979493,0.005708,0.331475,0.000003,0.000002,-0.000018,0.000020,-0.000015,-44.589262,0.000021,
2116,2923,-3.14413295012417,6.04699080867822,-0.00715412732631648,0.001716,-0.000129,-0.003030,0.087997,-0.015606,316.597828,24.453651,0.998905,0.989320,0.004326,0.372411,0.000010,0.000009,0.000005,0.000015,0.000004,42.353769,0.000020,
2011,2743,-5.39680094488294,2.13284231295349,-0.0368634272277859,0.001771,-0.000568,0.003464,0.072039,-0.013066,319.838538,24.430624,0.999617,0.992743,0.003450,0.324288,0.000005,0.000020,0.000006,0.000022,0.000003,71.967298,0.000027,
2131,2908,-2.81582475397965,5.72063025105104,0.00034715833004384,0.001911,-0.000858,0.003025,0.078651,-0.031637,316.829890,24.420044,0.999431,0.989187,0.004113,0.416246,0.000017,0.000008,0.000001,0.000017,0.000008,5.082505,0.000026,
2161,3193,-2.21056469027758,11.9045227613616,0.0345155919413855,0.001829,-0.000791,0.003154,0.074373,-0.029053,312.341390,24.673816,0.999625,0.993866,0.003218,0.397338,-0.000003,0.000017,0.000002,0.000017,-0.000003,85.546198,0.000019,
2476,3253,4.61470700770103,13.2362028406661,0.00984764383639458,0.002050,-0.000347,0.001420,0.088819,-0.001487,310.944268,26.428965,0.999739,0.993548,0.003165,0.385822,0.000027,-0.000039,0.000011,0.000029,-0.000040,8.848167,0.000042,
2461,3103,4.31918329488766,9.97888107446816,0.0161999230263632,0.001887,-0.000368,0.002502,0.077139,-0.014175,313.415261,25.831035,0.999559,0.992650,0.003588,0.359387,0.000023,0.000042,0.000033,0.000067,-0.000002,52.956409,0.000077,
2071,2728,-4.09083794624592,1.80780354593976,-0.0269864818624228,0.002265,-0.000255,0.002235,0.097855,0.005406,319.832668,24.401175,0.999141,0.989759,0.004082,0.395328,0.000028,0.000014,0.000008,0.000031,0.000010,24.043724,0.000043,
2446,3043,4.0045856019471,8.67484826038979,0.0115497730738525,0.002017,-0.000722,0.004256,0.076600,-0.006132,314.329305,25.576136,0.999337,0.987673,0.004149,0.359890,0.000013,0.000043,0.000033,0.000064,-0.000009,57.098767,0.000069,
2041,2623,-4.72601328089407,-0.479191389363272,-0.0267905727643551,0.002073,-0.000011,-0.003066,0.103952,-0.024535,321.710922,24.434683,0.998990,0.987796,0.004455,0.376455,-0.000016,0.000025,-0.000011,0.000028,-0.000019,-76.072667,0.000029,
2101,2863,-3.46004712195422,4.74338339443797,-0.0122119265892024,0.002312,-0.000367,0.002685,0.098593,0.005144,317.612129,24.427842,0.999617,0.992608,0.003560,0.384538,0.000012,0.000012,-0.000004,0.000016,0.000008,-47.319750,0.000024,
2506,2083,5.51216175932595,-12.2909201194242,0.0367235205101792,0.002499,0.000004,-0.001105,0.118469,0.010026,330.341716,21.714471,0.999478,0.984884,0.004824,0.459236,0.000003,0.000056,-0.000033,0.000072,-0.000013,-64.056283,0.000077,
2251,2113,-0.0679772629829891,-11.6243450988871,0.0190283070589317,0.001891,-0.000357,0.000993,0.083267,-0.014000,329.491470,23.499902,0.999111,0.980860,0.005430,0.288277,0.000003,-0.000004,-0.000008,0.000008,-0.000010,-34.160469,0.000010,
2431,2938,3.69751023984697,6.39334842773675,-0.0127624493167104,0.002136,-0.000250,0.001734,0.091663,-0.004454,315.832670,25.190734,0.999675,0.991977,0.003670,0.353521,-0.000002,0.000001,-0.000003,0.000002,-0.000004,-59.563741,0.000004,
2041,2908,-4.76862233854363,5.71719594569888,-0.00652695806246584,0.002278,-0.000318,0.001586,0.100533,0.000025,317.254757,24.320836,0.999514,0.992316,0.003510,0.371708,0.000020,0.000008,-0.000009,0.000025,0.000003,-28.279957,0.000030,
2236,2128,-0.397903947460044,-11.2951553467166,0.0209025124046889,0.001800,-0.000296,0.001268,0.078266,0.006642,329.289132,23.622535,0.998853,0.980589,0.005435,0.298684,0.000006,0.000000,-0.000006,0.000010,-0.000003,-30.725771,0.000010,
2386,2683,2.76649488043654,0.841757323347196,-0.0325606081623278,0.002268,-0.000078,0.000572,0.102076,0.009267,319.784320,24.391378,0.999317,0.987825,0.004258,0.332676,0.000004,0.000029,-0.000014,0.000035,-0.000002,-66.596062,0.000039,
2161,2038,-2.01943119022457,-13.2659596416639,0.0127349259798848,0.001826,0.000406,-0.003158,0.093434,0.009643,330.889495,23.993724,0.999104,0.984479,0.004956,0.279865,0.000029,-0.000046,0.000028,0.000039,-0.000055,18.324447,0.000057,
2281,2398,0.533592713502731,-5.38435192331565,-0.0012565797395041,0.001724,-0.001226,0.007221,0.054584,-0.008110,324.650986,23.840168,0.998911,0.986163,0.005036,0.349722,0.000006,0.000011,-0.000005,0.000015,0.000003,-56.964110,0.000019,
2296,2473,0.846569679416984,-3.74471860613953,-0.015065757414618,0.002111,-0.000663,0.002694,0.087555,-0.019079,323.338025,23.926750,0.998813,0.982357,0.005289,0.363161,0.000012,-0.000002,-0.000002,0.000012,-0.000002,-9.432048,0.000013,
2011,2998,-5.43276729551838,7.6681710683828,0.00765245429715833,0.001768,-0.000274,0.004355,0.069709,0.015763,316.067169,24.204657,0.999405,0.992885,0.003375,0.368941,0.000025,-0.000034,-0.000003,0.000025,-0.000035,-3.241611,0.000036,
2221,2083,-0.718113522859891,-12.2815443737132,0.0181661421482886,0.001437,-0.000656,0.002362,0.058061,-0.015443,330.002983,23.631981,0.999080,0.979673,0.005534,0.287308,0.000002,0.000005,0.000007,0.000011,-0.000003,52.057323,0.000011,
2311,2338,1.19907355136007,-6.69578830077591,-0.00302737880798531,0.002265,-0.000711,0.004634,0.087831,-0.001523,325.610810,23.596043,0.999229,0.983806,0.004859,0.371970,0.000001,-0.000007,-0.000005,0.000003,-0.000010,-26.230218,0.000010,
2191,3208,-1.56211664050327,12.2326730194897,0.0350637199563835,0.002244,-0.000461,0.002549,0.095333,-0.007768,312.017506,24.856854,0.999533,0.993786,0.003485,0.391285,-0.000006,0.000021,0.000011,0.000025,-0.000010,70.151643,0.000025,
2071,2818,-4.10466881870417,3.76378834482951,-0.0154722091139661,0.001918,-0.000458,0.003376,0.078598,-0.000815,318.449693,24.369491,0.999359,0.991371,0.003967,0.401616,0.000012,0.000012,0.000001,0.000013,0.000011,46.458459,0.000024,
2176,3223,-1.88970991855828,12.5565682952056,0.0435423602864375,0.001912,-0.000461,0.002302,0.080976,0.005274,311.878019,24.842817,0.999726,0.995232,0.002985,0.355756,-0.000005,0.000024,0.000010,0.000027,-0.000008,73.146573,0.000028,
2101,2728,-3.43982426803879,1.80884456640533,-0.0292505871009894,0.001939,-0.000741,0.002642,0.081320,-0.015190,319.644835,24.392378,0.999364,0.989443,0.004063,0.389309,0.000026,0.000010,0.000010,0.000031,0.000005,25.672412,0.000039,
2221,2128,-0.725363411297774,-11.2951325105508,0.0208955897699639,0.001487,0.000302,-0.000551,0.070023,0.017597,329.313899,23.678869,0.998799,0.980162,0.005440,0.339295,0.000005,0.000001,0.000002,0.000006,0.000000,21.466982,0.000007,
2056,2803,-4.42837056362254,3.438253324123,-0.0239574234324209,0.002009,-0.000519,0.004194,0.080641,0.008072,318.707009,24.400064,0.999214,0.991050,0.003942,0.369470,0.000017,0.000011,0.000000,0.000017,0.000011,1.256304,0.000028,
2011,2758,-5.39898568575711,2.45812200747164,-0.033159935095739,0.001594,-0.000554,0.003135,0.064814,-0.004273,319.619469,24.357038,0.999530,0.992272,0.003584,0.394693,-0.000002,-0.000003,-0.000009,0.000007,-0.000012,-44.144142,0.000012,
2476,3268,4.61125481294984,13.5620214828353,0.0101209351083753,0.002059,-0.000598,0.006703,0.068937,-0.011587,310.679828,26.540169,0.999863,0.995437,0.002782,0.319388,0.000035,-0.000038,0.000015,0.000037,-0.000040,10.980354,0.000045,
2281,2383,0.536437468930838,-5.71262434210239,-0.00262786176637064,0.001501,-0.000489,0.000880,0.065754,-0.026837,324.893608,23.776270,0.998709,0.983345,0.005275,0.365362,0.000004,0.000011,-0.000006,0.000014,0.000000,-59.637556,0.000016,
2056,2968,-4.45263532268794,7.01900260255303,0.00753369701180873,0.001775,-0.000883,0.007111,0.061479,-0.022366,316.270300,24.289868,0.999253,0.991281,0.003733,0.385313,0.000015,-0.000012,-0.000007,0.000017,-0.000014,-13.415523,0.000018,
2026,2623,-5.05193179219061,-0.479494502860618,-0.0259161927357354,0.002171,-0.000541,0.001227,0.096420,-0.013315,321.801680,24.458157,0.998976,0.987636,0.004607,0.376892,-0.000015,0.000024,-0.000009,0.000026,-0.000017,-77.338975,0.000026,
2146,3163,-2.53078688742608,11.2540607125758,0.0346337507721159,0.001813,-0.000263,0.003894,0.071734,0.004765,312.887901,24.651122,0.999541,0.992063,0.003619,0.369505,-0.000005,0.000023,0.000004,0.000024,-0.000006,81.856980,0.000025,
2086,2773,-3.77184949305476,2.78695757456546,-0.0246334643036903,0.002448,-0.000682,0.001331,0.108703,-0.010836,319.054740,24.407336,0.999633,0.991461,0.003794,0.373041,0.000008,0.000005,-0.000007,0.000014,-0.000001,-38.948795,0.000016,
2236,2203,-0.410848350788253,-9.6529997449468,0.0142200518770323,0.002113,0.000084,-0.001611,0.102111,-0.009755,328.050705,23.590078,0.999418,0.988955,0.004442,0.434414,0.000009,-0.000007,-0.000013,0.000016,-0.000014,-28.822205,0.000017,
2446,3058,4.00148309585369,9.0010496522296,0.00957579407355524,0.001980,-0.000655,0.003109,0.079186,-0.012259,314.069568,25.649367,0.999577,0.990330,0.003858,0.331686,0.000010,0.000036,0.000032,0.000058,-0.000012,56.071005,0.000061,
2371,2653,2.44561119222075,0.185780723125973,-0.0255239755495609,0.001976,-0.000587,0.003707,0.077321,-0.010531,320.298448,24.256595,0.999307,0.987454,0.004454,0.368769,0.000008,0.000023,-0.000013,0.000030,0.000001,-60.169006,0.000036,
2011,2578,-5.37114904367686,-1.46020931387046,-0.0255199607928489,0.001705,0.000057,-0.003968,0.089236,-0.017845,322.620767,24.495478,0.998973,0.986373,0.004775,0.381453,-0.000029,0.000042,-0.000004,0.000042,-0.000029,-86.458414,0.000043,
2341,2458,1.83024204001818,-4.07190311283191,-0.0114103080870791,0.002024,-0.000606,0.001209,0.088408,-0.018956,323.588044,23.783549,0.999531,0.988082,0.004304,0.362604,0.000010,0.000007,-0.000002,0.000010,0.000006,-23.818849,0.000016,
2116,3043,-3.16224713413937,8.65116473374999,0.0215409610774486,0.001880,-0.000800,0.004400,0.073384,-0.016277,314.867942,24.601050,0.999623,0.993332,0.003376,0.245946,0.000004,0.000001,0.000006,0.000009,-0.000004,38.011639,0.000009,
2251,2233,-0.0897428520983965,-8.99447218633398,0.00511895451768396,0.002089,-0.000498,-0.000025,0.095705,-0.020100,327.455463,23.641397,0.998671,0.980772,0.005475,0.349842,-0.000004,-0.000002,-0.000015,0.000012,-0.000018,-47.029671,0.000018,
2266,2338,0.218281092109915,-6.69528816313685,-0.00692294581182296,0.002166,0.000105,-0.004542,0.114385,-0.024038,325.653870,23.811807,0.999055,0.983336,0.005159,0.299182,0.000003,-0.000002,-0.000009,0.000010,-0.000009,-37.252370,0.000011,
2401,2758,3.07885209870165,2.47508917436829,-0.0290271741336596,0.002230,-0.000103,0.000158,0.101821,0.002367,318.605997,24.521926,0.999347,0.988366,0.004308,0.419551,0.000004,0.000041,0.000004,0.000041,0.000003,84.382375,0.000050,
2131,2983,-2.82781387681393,7.35020260381538,0.00143529844814339,0.002089,-0.000142,0.000803,0.093866,0.003474,315.632078,24.494293,0.999759,0.994406,0.003078,0.402396,0.000006,0.000013,0.000004,0.000015,0.000004,66.713273,0.000020,
2116,2938,-3.1463574792235,6.37302822520443,-0.00755493252205497,0.002114,-0.000249,-0.000787,0.099674,-0.006931,316.361746,24.469868,0.999346,0.990988,0.003901,0.367987,0.000006,0.000009,0.000007,0.000015,0.000000,51.974040,0.000017,
2356,2578,2.13425367560216,-1.45189161927162,-0.0120519250457392,0.001808,-0.000544,0.000962,0.079417,-0.008639,321.627797,24.044663,0.999195,0.987575,0.004499,0.393507,0.000008,-0.000001,-0.000011,0.000016,-0.000008,-33.987863,0.000016,
2011,2773,-5.40085620840818,2.78434117850603,-0.0288481730905801,0.001698,-0.000548,0.002744,0.070670,-0.003732,319.417953,24.386458,0.999559,0.991846,0.003712,0.353835,-0.000002,0.000004,-0.000009,0.000011,-0.000008,-53.673098,0.000011,
2296,2398,0.861043615515285,-5.38408048684711,-0.00338964219150739,0.001689,-0.000079,-0.002622,0.086286,-0.005789,324.648229,23.781052,0.999042,0.986065,0.004944,0.364607,0.000006,0.000010,-0.000005,0.000014,0.000002,-56.849237,0.000018,
2326,2413,1.51218112922106,-5.05775615147557,-0.00481425541687486,0.001984,-0.000684,0.000607,0.088636,-0.041328,324.376948,23.577337,0.999508,0.988158,0.004495,0.476098,0.000006,0.000019,-0.000008,0.000022,0.000003,-64.795913,0.000028,
2476,3283,4.60924556449092,13.8864068610245,0.0204294328603964,0.001985,-0.000532,0.003732,0.076835,-0.023900,310.528106,26.579307,0.999862,0.995883,0.002793,0.323092,0.000044,-0.000051,0.000012,0.000045,-0.000052,7.190803,0.000057,
2176,3133,-1.87473129257229,10.606194848639,0.0332355167748233,0.002058,-0.000311,0.000944,0.091940,0.011815,313.274786,24.761415,0.999463,0.993519,0.003511,0.377817,-0.000005,0.000004,0.000005,0.000006,-0.000008,66.267087,0.000008,
2506,2098,5.5073955076467,-11.9581235429667,0.0317612198852544,0.001997,-0.000788,0.006905,0.064352,0.008826,330.002161,22.039464,0.999557,0.986008,0.004823,0.197996,-0.000004,0.000064,-0.000037,0.000080,-0.000020,-66.258079,0.000084,
2431,2953,3.69383860708877,6.7198129114397,-0.0176900464514347,0.001904,-0.000341,0.002566,0.077893,-0.004144,315.532272,25.232891,0.999743,0.993086,0.003505,0.361200,0.000001,0.000004,0.000002,0.000005,0.000000,61.678710,0.000005,
2071,2983,-4.12915954968887,7.345940083973,0.00125107590616835,0.002408,-0.000575,0.002311,0.104216,-0.025108,315.932424,24.322678,0.999317,0.991574,0.003667,0.384302,0.000008,-0.000007,-0.000002,0.000008,-0.000007,-8.205344,0.000009,
2131,3043,-2.83693136089726,8.65154369911477,0.0175671869920393,0.002057,-0.000677,0.003911,0.082967,0.003038,314.778037,24.543036,0.999500,0.992839,0.003483,0.372603,0.000004,0.000003,0.000007,0.000010,-0.000003,42.394684,0.000011,
2281,2413,0.531181485364979,-5.05687544461311,-0.00135632087568638,0.001843,-0.000978,0.004870,0.067974,-0.019446,324.421135,23.851971,0.999208,0.987291,0.004663,0.355855,0.000007,0.000010,-0.000003,0.000012,0.000005,-56.474276,0.000018,
2026,2878,-5.09036522884523,5.0662698630534,-0.0201589486382545,0.002066,-0.000058,0.001096,0.092253,0.004828,317.711741,24.340122,0.999141,0.989198,0.004182,0.348202,0.000016,0.000038,0.000001,0.000038,0.000016,87.805857,0.000055,
2386,2698,2.76395466262261,1.16708004988483,-0.0241154262126315,0.002069,-0.000514,0.002039,0.087490,-0.006670,319.597017,24.374490,0.999434,0.989988,0.003923,0.377034,0.000004,0.000035,-0.000010,0.000038,0.000001,-73.858443,0.000044,
2071,2833,-4.10688514258538,4.09001990717083,-0.0088958070867875,0.001751,-0.000585,0.004909,0.066497,-0.007747,318.248775,24.441144,0.999429,0.991967,0.003668,0.319514,0.000018,0.000010,0.000000,0.000019,0.000010,2.523144,0.000029,
2461,3118,4.3164789093758,10.3044008045795,0.0150391690845595,0.002225,-0.000243,0.001629,0.096049,-0.010399,313.178623,25.852902,0.999497,0.991181,0.003787,0.394794,0.000028,0.000041,0.000031,0.000066,0.000003,50.892672,0.000078,
2161,3148,-2.20367951580135,10.9301002770692,0.0262163512115876,0.001719,-0.000772,0.004570,0.065001,-0.016781,312.998056,24.680574,0.999506,0.992988,0.003577,0.376416,-0.000001,0.000005,0.000006,0.000009,-0.000005,58.398402,0.000009,
2176,3238,-1.89248265810508,12.8814092176398,0.0397939145292412,0.002018,-0.000373,0.003006,0.083704,0.006356,311.603846,24.815408,0.999738,0.994835,0.003034,0.395051,-0.000004,0.000017,0.000009,0.000021,-0.000008,69.776183,0.000021,
2086,2893,-3.79021802078709,5.39307758728842,-0.00555546770374349,0.002111,-0.000969,0.003424,0.087063,-0.030284,317.243848,24.368541,0.999333,0.993745,0.003666,0.382855,0.000016,0.000018,-0.000004,0.000021,0.000014,-50.898911,0.000035,
2056,2983,-4.45482707189211,7.34533850981492,0.00525266227072052,0.001987,-0.000439,0.005574,0.075757,-0.008297,316.020834,24.325524,0.999200,0.989351,0.003953,0.357864,0.000008,-0.000017,-0.000009,0.000011,-0.000020,-18.038232,0.000020,
2011,3013,-5.4347942958284,7.99300610325526,0.00910680521815266,0.001857,-0.000355,0.002919,0.077674,-0.002852,315.843414,24.167361,0.999476,0.993509,0.003418,0.375013,0.000020,-0.000010,0.000012,0.000024,-0.000014,19.104879,0.000024,
2101,2878,-3.46318681771784,5.06862014946424,-0.0139276354239541,0.001731,-0.000751,0.003184,0.070192,-0.018927,317.326152,24.376550,0.999580,0.992461,0.003692,0.412465,0.000018,0.000025,-0.000001,0.000025,0.000017,-83.717576,0.000043,
2161,2053,-2.02133075333496,-12.938759732006,0.0230032014381436,0.001851,-0.000124,-0.000541,0.086465,-0.004189,330.727846,23.970291,0.999141,0.984065,0.004971,0.302586,0.000025,-0.000022,0.000031,0.000040,-0.000037,26.565351,0.000045,
2296,2488,0.84403374566832,-3.41753797389767,-0.0128850883567111,0.002087,-0.000415,0.001989,0.088943,-0.015082,323.114757,23.942879,0.999375,0.988445,0.004314,0.382077,0.000010,-0.000002,-0.000007,0.000013,-0.000005,-23.911962,0.000014,
2041,2923,-4.77072577807674,6.04192761342927,-0.00672406035880613,0.002368,-0.000570,-0.000736,0.111004,-0.033224,317.020303,24.254315,0.999471,0.992463,0.003530,0.396631,0.000013,0.000003,-0.000004,0.000015,0.000001,-19.144432,0.000018,
2206,2263,-1.07637586239563,-8.33765923889926,0.00635949077820896,0.001754,-0.000494,0.001272,0.076259,-0.016825,327.063110,23.904414,0.999009,0.982768,0.005135,0.339621,0.000006,0.000002,-0.000003,0.000007,0.000001,-29.417002,0.000009,
2011,2593,-5.37386556214018,-1.13396366359442,-0.0173408291461783,0.001304,-0.000811,0.005707,0.044306,-0.009044,322.401886,24.500977,0.998912,0.986692,0.004920,0.373108,-0.000030,0.000052,-0.000001,0.000052,-0.000030,-89.611814,0.000052,
2041,2638,-4.72840612185146,-0.152661090740203,-0.0229584343055649,0.001905,0.000114,-0.000219,0.088331,0.002766,321.484468,24.424126,0.999301,0.988949,0.004225,0.407382,-0.000006,0.000018,-0.000010,0.000022,-0.000010,-70.511965,0.000022,
2101,2743,-3.44196736364281,2.13500828164369,-0.0229916488721074,0.001917,-0.000989,0.004491,0.074866,-0.015679,319.447295,24.426687,0.999391,0.990041,0.003984,0.355643,0.000023,0.000008,0.000007,0.000026,0.000005,21.389159,0.000033,
2131,2998,-2.82981438555774,7.67508536106819,0.00573576918827712,0.002254,0.000060,0.000302,0.103039,0.013381,315.432932,24.451373,0.999788,0.994557,0.003091,0.460330,0.000002,0.000013,0.000009,0.000018,-0.000003,61.226236,0.000020,
2461,3133,4.31328526763165,10.6303195930373,0.0178785589025097,0.001890,-0.000349,0.002486,0.077387,-0.010695,312.937590,25.944444,0.999526,0.989995,0.003839,0.356081,0.000033,0.000034,0.000028,0.000061,0.000006,45.041945,0.000074,
2416,2893,3.38004708957068,5.41400876909226,-0.0155670242909309,0.002279,-0.000246,0.000171,0.104054,0.007076,316.535640,25.015220,0.999561,0.990729,0.003771,0.365522,-0.000003,0.000012,-0.000004,0.000013,-0.000004,-76.424493,0.000013,
2161,3208,-2.21262824306161,12.2298786678636,0.0377271035500826,0.001959,-0.000381,0.001013,0.087139,-0.011139,312.135275,24.709578,0.999624,0.994351,0.003097,0.388274,-0.000002,0.000019,0.000004,0.000020,-0.000003,78.904649,0.000022,
2026,2998,-5.10741008058838,7.66853029509508,0.0127243816932605,0.001736,-0.000505,0.005564,0.064638,0.000641,316.008213,24.240951,0.999344,0.992725,0.003512,0.360058,0.000005,-0.000033,-0.000001,0.000005,-0.000033,-1.370004,0.000036,
2221,2143,-0.727120391077484,-10.9661324815925,0.016037677093891,0.002523,0.000276,-0.002238,0.122871,0.004202,329.084965,23.685133,0.998876,0.982666,0.005236,0.341354,0.000003,-0.000001,0.000005,0.000006,-0.000004,32.914997,0.000006,
2071,2998,-4.13078488103281,7.67094142592083,0.0172654290237233,0.002104,-0.000251,0.001287,0.093244,-0.010945,315.810974,24.364444,0.999549,0.992779,0.003363,0.352632,0.000006,-0.000003,0.000003,0.000007,-0.000004,14.247058,0.000007,
2356,2593,2.13136985777433,-1.12422718714917,-0.0143932726421667,0.002119,-0.000973,0.003164,0.085778,-0.024946,321.370928,24.119409,0.999112,0.987382,0.004549,0.342034,0.000010,-0.000004,-0.000009,0.000015,-0.000008,-26.445596,0.000015,
2026,2893,-5.09257018032567,5.3911881813312,-0.0116617621305295,0.001750,-0.000512,0.002829,0.072712,-0.023626,317.519973,24.341249,0.999418,0.992887,0.003462,0.308266,0.000018,0.000022,0.000000,0.000022,0.000018,-89.999255,0.000040,
2266,2353,0.215060559345428,-6.36778337836606,-0.00487068177187666,0.001838,-0.000238,0.000652,0.082085,0.008284,325.396447,23.783944,0.999084,0.984048,0.005119,0.386693,0.000005,0.000004,-0.000006,0.000010,-0.000002,-41.688347,0.000011,
2206,2023,-1.0330835180845,-13.6009026001084,0.0409527751650671,0.002149,-0.000770,0.003697,0.086536,-0.024005,331.222761,23.595928,0.998889,0.981326,0.005443,0.325617,0.000014,-0.000040,0.000002,0.000014,-0.000040,1.688146,0.000041,
2101,2893,-3.46513658013453,5.39392374500021,-0.00668650484885802,0.001813,-0.000701,0.004373,0.070482,-0.024480,317.143177,24.382333,0.999365,0.992794,0.003803,0.401918,0.000017,0.000017,0.000001,0.000018,0.000016,43.204924,0.000034,
2056,2818,-4.43025442375119,3.76417085909763,-0.0237589932180526,0.002284,-0.000297,0.001538,0.100861,0.013142,318.485307,24.378710,0.999193,0.990269,0.004041,0.390544,0.000014,0.000015,0.000000,0.000015,0.000014,-89.521971,0.000029,
2266,2578,0.173844592457836,-1.45425138917404,-0.0169047771008195,0.001875,-0.000913,0.004509,0.070905,-0.008449,321.643053,24.138129,0.999255,0.988838,0.004310,0.418930,0.000006,-0.000004,-0.000005,0.000009,-0.000006,-22.245477,0.000009,
2056,2998,-4.4570956337825,7.67111312708985,0.00791919764304794,0.001808,-0.000133,0.003843,0.072519,0.010488,315.795371,24.342861,0.999186,0.989985,0.003960,0.353270,0.000006,-0.000012,-0.000004,0.000006,-0.000013,-12.855146,0.000013,
2131,3058,-2.83914336027903,8.97715945848355,0.0154396031790043,0.002107,-0.000151,-0.001669,0.102094,-0.007725,314.534574,24.560350,0.999372,0.992905,0.003604,0.349196,0.000008,-0.000001,0.000007,0.000012,-0.000005,30.148475,0.000012,
2011,3028,-5.43625335490407,8.31795905919714,0.0170772591000059,0.002196,-0.000593,0.002558,0.094289,0.000582,315.682317,24.165953,0.999445,0.993274,0.003568,0.366923,0.000022,-0.000008,0.000020,0.000032,-0.000018,26.299725,0.000032,
2281,2638,0.489711929765335,-0.145054176405992,-0.0191844143806179,0.002053,-0.000646,0.002393,0.086143,-0.006274,320.643698,24.264610,0.999383,0.986583,0.004286,0.388801,0.000000,0.000017,0.000003,0.000018,-0.000001,81.957376,0.000020,
2341,2473,1.82767104444088,-3.74462868202075,-0.00731248233967108,0.002017,-0.000690,0.002082,0.085020,-0.013931,323.375882,23.820560,0.999546,0.987827,0.004245,0.368323,0.000010,0.000001,-0.000007,0.000013,-0.000003,-27.402828,0.000014,
2041,2653,-4.73132135628004,0.174296773458529,-0.031476443907593,0.001978,-0.000579,0.002772,0.083194,-0.018994,321.165699,24.402308,0.999415,0.989780,0.004060,0.400520,0.000000,0.000018,-0.000012,0.000024,-0.000006,-63.984342,0.000025,
2011,2788,-5.40250890027575,3.11026118729784,-0.0236586173764977,0.001915,-0.000094,0.001467,0.084311,0.020954,319.231414,24.375004,0.999491,0.991983,0.003727,0.377688,0.000001,0.000011,0.000000,0.000011,0.000001,87.910770,0.000013,
2086,2908,-3.79283139636492,5.7195113985306,-0.00502752445515853,0.001909,-0.000624,0.004165,0.075757,-0.005873,316.992601,24.402978,0.999313,0.992662,0.003742,0.371374,0.000013,0.000007,-0.000003,0.000014,0.000006,-20.544541,0.000021,
2206,2278,-1.07840331141004,-8.00964176849553,0.00705306193157185,0.002226,-0.000809,0.001225,0.097975,-0.020332,326.848829,23.918483,0.998967,0.983205,0.005125,0.340795,0.000009,-0.000007,-0.000008,0.000012,-0.000010,-23.474384,0.000013,
2221,2338,-0.76404707885423,-6.69426274440686,-0.0162919588051977,0.001939,-0.000608,0.005894,0.069940,-0.011706,325.619366,23.986905,0.999666,0.990490,0.004063,0.301940,0.000013,-0.000011,-0.000002,0.000013,-0.000011,-5.114172,0.000014,
2251,2248,-0.0928232885266169,-8.66422042299889,0.00194167511392607,0.001931,-0.000361,0.000660,0.086285,0.015172,327.176679,23.771871,0.998401,0.978746,0.005880,0.280550,-0.000002,-0.000010,-0.000009,0.000004,-0.000017,-33.457880,0.000017,
2236,2218,-0.413981147714146,-9.3230929240193,0.00991300230504066,0.002202,-0.000581,0.002622,0.092276,-0.011754,327.762728,23.702656,0.999004,0.984117,0.005004,0.343613,0.000008,0.000006,-0.000013,0.000020,-0.000005,-42.789749,0.000020,
2506,2113,5.50396405541712,-11.6302366426317,0.029591121825149,0.001669,-0.000602,0.004633,0.058179,0.001629,329.736443,21.958526,0.999630,0.986163,0.004803,0.335850,-0.000005,0.000059,-0.000029,0.000070,-0.000016,-68.839681,0.000073,
2176,3253,-1.89579688377173,13.2065872205102,0.0334853791542287,0.001907,-0.000649,0.005903,0.069468,-0.006664,311.291178,24.823168,0.999744,0.994807,0.003071,0.385130,-0.000001,0.000016,0.000010,0.000021,-0.000006,65.189667,0.000021,
2476,3298,4.60522183727304,14.2127026850117,0.00584766012337923,0.002052,-0.000090,0.001758,0.087721,0.003328,310.169225,26.624125,0.999630,0.993410,0.003449,0.360624,0.000039,-0.000064,0.000008,0.000039,-0.000064,4.543175,0.000065,
2101,2758,-3.44382438868157,2.46033264119223,-0.0169311852103533,0.001948,-0.000751,0.002534,0.082078,-0.018331,319.262060,24.388117,0.999408,0.989923,0.003946,0.392855,0.000014,0.000000,0.000000,0.000014,0.000000,1.944543,0.000016,
2401,2773,3.07630755419697,2.80096914280163,-0.0211763854408105,0.001944,-0.000161,-0.000309,0.090361,-0.008195,318.416140,24.565718,0.999442,0.988677,0.004193,0.410464,0.000000,0.000030,0.000000,0.000030,0.000000,-89.222398,0.000034,
2131,3013,-2.83226919277319,8.00123115225096,0.0105101125581086,0.002082,-0.000186,0.001969,0.090101,0.018739,315.215050,24.535898,0.999405,0.991819,0.003680,0.385694,0.000002,0.000017,0.000011,0.000022,-0.000003,61.905136,0.000024,
2296,2413,0.858666287043715,-5.05640883493515,-0.00359750440117068,0.002215,-0.000622,-0.000458,0.102920,-0.033783,324.420655,23.826676,0.999352,0.986778,0.004686,0.322678,0.000006,0.000012,-0.000003,0.000013,0.000005,-67.797628,0.000018,
2251,2488,-0.135598883488431,-3.41989074112036,-0.00332614883410542,0.002091,-0.000829,0.005180,0.078804,-0.008623,323.248802,23.987465,0.999653,0.989867,0.003916,0.442592,0.000008,0.000000,-0.000009,0.000013,-0.000005,-33.437761,0.000013,
2146,3178,-2.53301592126993,11.5786625222225,0.0403095304249632,0.001879,-0.000391,0.006094,0.068068,0.007068,312.686663,24.640117,0.999461,0.991293,0.003651,0.389420,-0.000004,0.000024,0.000004,0.000024,-0.000005,82.003770,0.000026,
2446,3073,3.99822617450539,9.32654781293507,0.00517824507596742,0.002116,-0.000687,0.003593,0.083588,-0.023103,313.791646,25.651235,0.999739,0.993468,0.003341,0.370351,0.000014,0.000039,0.000031,0.000060,-0.000007,55.762645,0.000065,
2116,2953,-3.14872893933815,6.69879545106406,-0.00323770570412307,0.002186,-0.000355,0.003392,0.090600,0.002853,316.144406,24.497370,0.999605,0.991479,0.003628,0.353024,0.000008,0.000010,0.000008,0.000017,0.000001,49.792535,0.000020,
2011,2608,-5.37727212291844,-0.805714624280562,-0.0290744194118133,0.001123,-0.001342,0.010725,0.022255,-0.008425,322.039233,24.530813,0.999486,0.992113,0.003837,0.333098,-0.000032,0.000045,0.000002,0.000045,-0.000032,88.332642,0.000046,
2461,3148,4.31073330015299,10.9558277605173,0.0211427801024797,0.001983,-0.000160,0.001203,0.086584,-0.002968,312.728126,25.996087,0.999534,0.989486,0.003786,0.365652,0.000030,0.000017,0.000026,0.000050,-0.000003,37.737653,0.000056,
2086,2788,-3.77434767000818,3.11200610676366,-0.0163571530163722,0.002075,-0.000821,0.005599,0.079179,-0.000568,318.851345,24.355690,0.999410,0.990780,0.003921,0.434107,0.000007,0.000011,-0.000007,0.000016,0.000002,-53.390609,0.000020,
2236,2143,-0.39996264233265,-10.966856301968,0.0183137930572457,0.002402,-0.000299,-0.000372,0.111190,-0.002922,329.059448,23.585709,0.998657,0.980938,0.005388,0.349854,0.000006,-0.000005,-0.000003,0.000006,-0.000006,-13.654145,0.000007,
2086,2923,-3.79524290398424,6.04574492669003,-0.00978980071835167,0.002015,-0.000395,0.001285,0.089081,-0.004315,316.721890,24.408230,0.999250,0.991504,0.003828,0.366264,0.000007,0.000006,-0.000001,0.000007,0.000005,-29.299845,0.000012,
2116,3058,-3.16472148653376,8.97503040532076,0.0157724100807854,0.001974,-0.000403,0.000333,0.089832,-0.028447,314.592303,24.434538,0.999582,0.993321,0.003488,0.403094,0.000009,-0.000003,0.000007,0.000012,-0.000007,25.559547,0.000012,
2176,3268,-1.89951371815502,13.5324399059223,0.0165046260819395,0.001789,-0.000513,0.003938,0.070119,-0.015004,310.903591,24.834293,0.999643,0.994189,0.003182,0.376271,0.000003,0.000020,0.000013,0.000027,-0.000004,62.474045,0.000029,
2161,2068,-2.02399447520833,-12.6103691485038,0.02478065512787,0.001623,-0.000427,0.001114,0.070856,-0.007259,330.486550,23.954633,0.999354,0.984917,0.004927,0.328790,0.000023,0.000000,0.000030,0.000043,-0.000021,34.221510,0.000043,
2041,2668,-4.73316294002288,0.50004268783087,-0.0250081343806414,0.001886,-0.000598,0.000393,0.085537,-0.036437,320.979480,24.395233,0.999360,0.988938,0.004238,0.382872,0.000001,0.000017,0.000000,0.000017,0.000001,89.006441,0.000020,
2431,2968,3.6908268126719,7.04497481822292,-0.0155713766565668,0.001704,-0.000680,0.002730,0.067921,-0.026072,315.295336,25.230859,0.999848,0.995040,0.003116,0.390589,0.000002,0.000009,0.000010,0.000016,-0.000005,55.131631,0.000017,
2011,2803,-5.40498899955524,3.4357880349183,-0.0272765912109776,0.002027,-0.000487,0.003543,0.083705,-0.001829,318.957785,24.310885,0.999415,0.992426,0.003669,0.407039,0.000014,0.000008,0.000006,0.000018,0.000004,31.020954,0.000023,
2056,2833,-4.43244719734752,4.08993888874602,-0.0177911170476364,0.002161,-0.000326,0.003174,0.090559,0.007466,318.281360,24.402221,0.998927,0.987779,0.004411,0.355533,0.000019,0.000015,-0.000002,0.000020,0.000014,-20.485540,0.000034,
2281,2428,0.52879291550725,-4.72880926031065,-0.00370589209450145,0.002087,-0.000415,0.001625,0.090203,0.004149,324.180839,23.866643,0.999524,0.988659,0.004354,0.394095,0.000012,0.000001,-0.000004,0.000013,0.000000,-16.972125,0.000014,
2071,2848,-4.10983584443269,4.41704589018404,-0.0198154525519385,0.001778,-0.000466,0.003797,0.071008,0.009245,317.918013,24.434744,0.999637,0.993775,0.003310,0.339680,0.000020,0.000010,-0.000004,0.000022,0.000009,-18.282716,0.000031,
2296,2503,0.840513385948835,-3.08817732687596,-0.022355292095142,0.002062,-0.000315,0.002753,0.085273,0.004400,322.788157,24.042171,0.999667,0.992863,0.003655,0.333831,0.000006,0.000000,-0.000009,0.000013,-0.000006,-35.202870,0.000013,
2071,3013,-4.13309049478931,7.99605582611496,0.0212605140968662,0.002012,-0.000177,0.002524,0.085538,0.009599,315.592352,24.331636,0.999385,0.991719,0.003640,0.401995,0.000007,0.000007,0.000007,0.000014,0.000000,44.053316,0.000016,
2506,2128,5.50057328411207,-11.3010751609516,0.0270963545689256,0.001870,-0.000992,0.007614,0.055701,0.017015,329.470866,21.973549,0.999603,0.984937,0.004989,0.400426,-0.000001,0.000048,-0.000019,0.000054,-0.000007,-71.464707,0.000059,
2356,2608,2.12875392760063,-0.797252060437366,-0.0122796023774754,0.002124,-0.000499,0.002482,0.088658,0.009976,321.147735,24.123077,0.999173,0.987373,0.004477,0.412980,0.000008,0.000006,-0.000008,0.000015,-0.000001,-40.653940,0.000016,
2326,2428,1.50831236519469,-4.72702793871296,-0.016407418389349,0.002120,-0.000985,0.004973,0.079784,-0.012139,324.027121,23.744070,0.999559,0.990250,0.004163,0.374999,0.000012,0.000012,-0.000007,0.000019,0.000005,-44.559611,0.000025,
2281,2653,0.487064482257303,0.182226792864725,-0.021891336821966,0.002044,-0.000156,-0.001278,0.098147,-0.007572,320.389385,24.304932,0.999463,0.989052,0.004089,0.375319,-0.000004,0.000025,0.000005,0.000025,-0.000005,80.723443,0.000027,
2386,2713,2.76177028308895,1.49295095358109,-0.0192640187793245,0.002224,-0.000640,-0.000129,0.102325,-0.034706,319.408867,24.394172,0.999598,0.991837,0.003573,0.372537,0.000001,0.000034,-0.000007,0.000035,0.000000,-78.505538,0.000041,
2056,3013,-4.4598070015485,7.99612116538583,0.00751010914586914,0.001543,-0.000454,0.004820,0.057491,0.009070,315.532936,24.293003,0.998812,0.987382,0.004630,0.395243,0.000004,0.000002,0.000002,0.000005,0.000001,26.835485,0.000007,
2221,2353,-0.766197985841632,-6.3681527415774,-0.0117710413259715,0.001971,-0.000970,0.004826,0.074704,-0.023583,325.420505,23.899506,0.999423,0.988673,0.004374,0.398000,0.000014,-0.000008,-0.000001,0.000014,-0.000008,-2.056459,0.000014,
2491,1993,5.20151708080673,-14.2669745150886,0.0376523843150949,0.001716,-0.000964,0.003134,0.066060,-0.032355,331.702469,21.572962,0.999070,0.967780,0.006861,0.278286,-0.000043,0.000009,-0.000010,0.000011,-0.000045,-79.751648,0.000046,
2011,2623,-5.37833077329454,-0.480447409594092,-0.0206354704649812,0.001619,-0.000939,0.007865,0.052981,0.009718,321.897961,24.447793,0.999522,0.992201,0.003712,0.422588,-0.000034,0.000025,-0.000013,0.000027,-0.000036,-78.308682,0.000038,
2041,2938,-4.77396133301386,6.36782796316277,-0.00888332193443375,0.001817,-0.000624,0.003006,0.075213,-0.023135,316.722603,24.242584,0.999352,0.991543,0.003701,0.410340,0.000009,-0.000004,-0.000002,0.000010,-0.000005,-9.039966,0.000010,
2296,2428,0.855943819579842,-4.72844157508096,-0.00321342816482684,0.002214,-0.000351,-0.000131,0.101924,0.002417,324.179847,23.845932,0.999537,0.988645,0.004333,0.371090,0.000010,0.000001,-0.000004,0.000012,0.000000,-19.356402,0.000014,
2416,2908,3.37681505011961,5.73944321859692,-0.0139105073889141,0.002155,-0.000765,0.003864,0.084624,-0.012431,316.285577,25.015985,0.999626,0.991211,0.003700,0.392460,-0.000005,0.000008,-0.000002,0.000008,-0.000005,-82.500681,0.000008,
2026,3013,-5.10999096674714,7.99458879810139,0.0136013440351803,0.001509,-0.000544,0.007094,0.049910,-0.005729,315.756408,24.300153,0.999473,0.993472,0.003496,0.283682,0.000003,-0.000009,0.000011,0.000009,-0.000015,29.833100,0.000015,
2116,3208,-3.18763661304223,12.2257782771492,0.0452223810509622,0.002066,-0.000426,0.002953,0.086535,0.006492,312.385140,24.491453,0.999661,0.994174,0.003176,0.403876,-0.000003,0.000030,0.000003,0.000030,-0.000003,85.521911,0.000034,
2371,2668,2.44277927382866,0.512700229443659,-0.0274477890606022,0.001817,-0.000357,-0.000711,0.085792,-0.022559,320.047048,24.287513,0.999470,0.988655,0.004317,0.367314,0.000002,0.000025,-0.000015,0.000033,-0.000006,-62.921115,0.000035,
2341,2488,1.82538107665108,-3.41764315258522,-0.00499761222306461,0.002253,-0.000285,0.000751,0.100688,-0.000358,323.167961,23.810493,0.999496,0.987646,0.004216,0.429662,0.000013,-0.000001,-0.000006,0.000016,-0.000003,-21.086548,0.000016,
2026,2908,-5.09385406166088,5.71612339098671,-0.00161313699442189,0.002099,-0.000453,0.001827,0.091654,-0.003140,317.379017,24.309287,0.999457,0.992784,0.003443,0.350401,0.000017,0.000008,0.000003,0.000018,0.000007,16.158864,0.000026,
2401,2788,3.07286142408096,3.12843294020636,-0.0216352749356474,0.001885,-0.000641,0.005018,0.068192,-0.000715,318.145168,24.676085,0.999526,0.988504,0.004231,0.353088,-0.000001,0.000023,-0.000003,0.000024,-0.000001,-82.856840,0.000027,
2191,2188,-1.38984493874846,-9.97952032940605,0.0130496679026351,0.002222,-0.000525,0.002113,0.095136,-0.017942,328.387537,23.937864,0.998711,0.978093,0.005663,0.285766,0.000012,0.000004,-0.000004,0.000013,0.000002,-21.261295,0.000016,
2011,3043,-5.43863145880322,8.64251468757084,0.0203156296381621,0.001975,-0.000713,0.003513,0.081398,-0.015331,315.452675,24.119265,0.999388,0.993473,0.003630,0.385046,0.000018,-0.000016,0.000019,0.000027,-0.000025,24.152116,0.000030,
2506,2143,5.49755463703884,-10.9708176543254,0.0243094853863681,0.001945,-0.000591,0.004356,0.071899,-0.009053,329.221104,22.132673,0.999035,0.976807,0.005925,0.279191,0.000002,0.000055,-0.000009,0.000057,0.000001,-80.603778,0.000066,
2011,2818,-5.40746472356814,3.76102728085842,-0.0286904217090296,0.001930,-0.000893,0.004175,0.077357,-0.026002,318.696854,24.243401,0.999183,0.991187,0.003797,0.438279,0.000012,0.000011,0.000005,0.000017,0.000006,41.896152,0.000024,
2266,2368,0.211917836963881,-6.03970122820975,-0.00818826960858132,0.001823,-0.000872,0.003639,0.071316,-0.013668,325.115758,23.815649,0.998921,0.984058,0.005138,0.360512,0.000000,0.000015,-0.000008,0.000019,-0.000003,-65.587850,0.000020,
2491,2008,5.19867415344148,-13.9376772562034,0.0395029949522154,0.001958,-0.001187,0.004801,0.070664,-0.030624,331.480833,21.617508,0.999273,0.972982,0.006240,0.297922,-0.000032,0.000023,-0.000015,0.000027,-0.000036,-75.496779,0.000038,
2131,3073,-2.8414844882412,9.30211260736259,0.0213170669530882,0.002196,-0.000316,0.003313,0.091248,0.000306,314.328241,24.553723,0.999653,0.994328,0.003343,0.368553,0.000009,0.000001,0.000006,0.000012,-0.000002,29.361526,0.000013,
2311,2353,1.19596266534135,-6.36734823181969,-0.00275244221973026,0.001848,-0.000646,0.004089,0.070570,-0.004102,325.353165,23.671513,0.999417,0.986073,0.004503,0.327891,0.000007,0.000004,-0.000001,0.000007,0.000003,-20.735102,0.000011,
2206,2293,-1.08041591814305,-7.68140680229084,0.0070768354661368,0.002655,-0.000568,-0.000325,0.122638,-0.019790,326.631706,23.946700,0.999157,0.984988,0.004871,0.331814,0.000009,-0.000013,-0.000005,0.000010,-0.000014,-11.578903,0.000014,
2071,2863,-4.11154881016972,4.74181935831565,-0.0154711553001903,0.001985,-0.000424,0.001039,0.088417,-0.004124,317.728440,24.370375,0.999373,0.991418,0.003842,0.387265,0.000020,0.000016,-0.000006,0.000024,0.000011,-36.155809,0.000036,
2041,2683,-4.73555246248991,0.827422861443274,-0.031357037330622,0.002179,-0.000447,0.000454,0.098955,-0.016140,320.696569,24.398562,0.999466,0.991673,0.003791,0.392759,0.000002,0.000002,0.000003,0.000005,-0.000001,46.154330,0.000006,
2056,2848,-4.43470648155543,4.41544176055401,-0.0197477982653709,0.002208,-0.000448,0.000717,0.099667,-0.001691,318.030770,24.349158,0.999241,0.990977,0.003889,0.393832,0.000021,0.000016,-0.000008,0.000027,0.000010,-35.026645,0.000038,
2251,2503,-0.139114900991263,-3.0905063152133,-0.00923448689172801,0.001662,-0.000485,0.005275,0.058905,0.006152,322.935823,24.124605,0.999543,0.989307,0.004118,0.344994,0.000007,0.000004,-0.000010,0.000016,-0.000005,-39.914086,0.000016,
2011,2638,-5.38046321516953,-0.152849721002475,-0.0294661173107897,0.002036,-0.000607,0.004367,0.081745,-0.010562,321.610150,24.474276,0.999173,0.986798,0.004450,0.364477,-0.000023,0.000011,-0.000012,0.000014,-0.000026,-72.585781,0.000026,
2116,3073,-3.16743637373579,9.30161066705199,0.0100150905054761,0.002136,-0.000198,0.000900,0.095720,-0.014770,314.304684,24.496988,0.999686,0.992953,0.003711,0.356695,0.000009,0.000000,0.000007,0.000012,-0.000004,27.468842,0.000013,
2221,2158,-0.730258596484635,-10.6373453244159,0.0148548267191018,0.002139,-0.000108,-0.000836,0.100672,-0.009310,328.811640,23.717619,0.998739,0.984713,0.005267,0.317373,0.000005,0.000001,0.000002,0.000005,0.000000,20.216906,0.000006,
2101,2908,-3.46688080388201,5.7199999134375,-0.00319372371171767,0.002037,-0.000496,0.000744,0.091551,-0.009746,316.949060,24.415142,0.999180,0.992605,0.003917,0.384752,0.000014,0.000008,0.000002,0.000015,0.000007,15.514806,0.000022,
2101,3133,-3.50123472287846,10.6006562443608,0.0290699394155922,0.002157,-0.000321,0.000568,0.097712,-0.012463,313.557665,24.480689,0.999810,0.995770,0.002742,0.322441,0.000002,0.000012,0.000011,0.000018,-0.000005,57.796473,0.000019,
2281,2668,0.484414161352809,0.510287361146396,-0.0225007816885636,0.002187,-0.000160,-0.000842,0.103284,0.006060,320.145132,24.424361,0.999633,0.991405,0.003906,0.297927,-0.000004,0.000030,0.000002,0.000030,-0.000004,87.274255,0.000032,
2086,2938,-3.79680099666173,6.37072672714859,-0.000865773346333754,0.002134,-0.000087,-0.001232,0.101953,0.007767,316.565319,24.389256,0.999327,0.991381,0.003807,0.395816,0.000002,0.000004,0.000001,0.000004,0.000001,66.888712,0.000006,
2251,2263,-0.0948568413759325,-8.33694159514249,0.00508844006947129,0.002129,0.000029,-0.001702,0.103197,0.014779,326.978314,23.736281,0.999160,0.984398,0.005021,0.341102,0.000000,-0.000005,-0.000013,0.000011,-0.000015,-40.020612,0.000016,
2461,3163,4.30826991047827,11.2811058412848,0.0260318690065446,0.002050,-0.000280,0.000158,0.093586,-0.010829,312.530206,26.055265,0.999594,0.990787,0.003736,0.351741,0.000028,0.000012,0.000024,0.000046,-0.000005,35.892335,0.000050,
2116,3223,-3.19021398154566,12.5502379265278,0.0434411592726178,0.002069,-0.000705,0.002659,0.087380,-0.015814,312.126094,24.458054,0.999723,0.994821,0.003029,0.417087,-0.000003,0.000033,0.000002,0.000033,-0.000003,86.290363,0.000037,
2506,2158,5.4946726501904,-10.6416577017325,0.0224819488896628,0.001950,-0.000032,-0.000253,0.090130,-0.014135,328.981754,22.186547,0.999134,0.978962,0.005560,0.283989,0.000004,0.000022,-0.000019,0.000033,-0.000008,-58.040981,0.000035,
2146,3193,-2.53549355979168,11.903507677185,0.0373900291295399,0.001913,-0.000881,0.002934,0.079002,-0.035398,312.428185,24.648789,0.999515,0.992821,0.003388,0.344790,-0.000004,0.000022,0.000002,0.000022,-0.000004,86.675456,0.000024,
2161,3163,-2.20572939089142,11.255477083122,0.0303965104840245,0.001820,-0.000417,0.002819,0.075200,0.005685,312.797684,24.709307,0.999611,0.993341,0.003383,0.379039,-0.000001,0.000016,0.000004,0.000017,-0.000002,78.704257,0.000019,
2311,2368,1.19349911465411,-6.04011044722141,-0.0044218081748113,0.002274,-0.000806,0.004328,0.089228,-0.017839,325.115848,23.634140,0.999591,0.988820,0.004198,0.385496,0.000006,0.000014,-0.000004,0.000015,0.000005,-67.774628,0.000021,
2236,2158,-0.40375479509397,-10.6369261606733,0.00819823307830347,0.001944,-0.000586,-0.000232,0.089647,-0.042029,328.712165,23.652845,0.998649,0.982357,0.005325,0.268070,0.000008,-0.000005,-0.000003,0.000009,-0.000006,-14.125679,0.000009,
2446,3088,3.99638440746613,9.65282548399144,0.01353254023212,0.002315,-0.000172,0.000222,0.105623,0.005970,313.637512,25.770607,0.999706,0.993725,0.003374,0.331120,0.000022,0.000040,0.000028,0.000060,0.000002,54.012272,0.000071,
2356,2623,2.12508452295979,-0.469781232833483,-0.0136949644805782,0.001545,-0.000650,0.004264,0.055701,0.001491,320.859147,24.190055,0.999106,0.987778,0.004435,0.377039,0.000007,0.000010,-0.000009,0.000017,0.000000,-50.691990,0.000020,
2011,3058,-5.43997735830852,8.96744321671596,0.0276137255477806,0.002293,-0.000303,0.000155,0.105294,-0.013379,315.293072,24.118862,0.999341,0.992875,0.003475,0.374326,0.000020,-0.000002,0.000026,0.000038,-0.000019,33.502643,0.000038,
2161,3223,-2.21506672616339,12.5546481588547,0.0429465103987923,0.001832,-0.000483,0.002605,0.076358,-0.007420,311.922778,24.720323,0.999667,0.994674,0.003033,0.389829,-0.000001,0.000024,0.000004,0.000024,-0.000002,80.759116,0.000027,
2326,2443,1.50607656743297,-4.39999833125809,-0.0102098260541652,0.002075,-0.000550,0.003400,0.083280,0.002791,323.839593,23.759282,0.999382,0.988866,0.004384,0.410426,0.000016,0.000004,-0.000009,0.000020,-0.000001,-27.951749,0.000023,
2266,2593,0.170941098167624,-1.12703197303819,-0.0149576738793371,0.001890,-0.000924,0.009763,0.054246,0.015314,321.399190,24.168306,0.999126,0.987513,0.004501,0.438951,0.000005,-0.000005,-0.000005,0.000007,-0.000007,-22.769071,0.000008,
2386,2728,2.7586197330264,1.81985480722611,-0.020333777622966,0.002118,-0.000789,0.000695,0.094481,-0.034570,319.147841,24.437008,0.999569,0.991196,0.003788,0.373461,-0.000003,0.000027,-0.000002,0.000027,-0.000003,-87.008108,0.000030,
2206,2308,-1.08352110841873,-7.35398892727846,0.00964169546966787,0.001925,-0.000440,-0.000236,0.088920,-0.012641,326.377765,23.924365,0.998962,0.984830,0.004862,0.380214,0.000010,-0.000016,-0.000006,0.000012,-0.000017,-12.964787,0.000018,
2191,2203,-1.39250203585897,-9.65040634710656,0.006284082851721,0.002335,0.000116,-0.000918,0.109996,0.009752,328.104346,23.916439,0.998607,0.979242,0.005683,0.352320,0.000014,0.000012,-0.000001,0.000015,0.000011,-23.502591,0.000026,
2341,2503,1.82123611073008,-3.08941623798993,-0.0136343114195938,0.001533,-0.000387,0.000116,0.069814,-0.005259,322.821661,23.837980,0.999344,0.987182,0.004350,0.435569,0.000009,-0.000003,-0.000007,0.000012,-0.000006,-24.487552,0.000012,
2431,2983,3.68869854332949,7.36992847792549,-0.000177111140146735,0.001505,-0.000601,0.005281,0.049448,-0.003999,315.160791,25.260371,0.999682,0.991777,0.003616,0.432145,0.000005,0.000019,0.000015,0.000029,-0.000004,57.367825,0.000031,
2041,2698,-4.73793198690123,1.15371556323574,-0.0266627827180628,0.002058,-0.000780,0.004559,0.081873,-0.004357,320.475691,24.406338,0.999394,0.991550,0.003757,0.389497,0.000012,-0.000004,0.000000,0.000012,-0.000004,1.203308,0.000012,
2416,2923,3.37426253391233,6.06602576604593,-0.00968961564785786,0.002220,-0.000752,0.003928,0.087348,-0.017763,316.078404,25.130470,0.999677,0.992217,0.003586,0.319932,-0.000007,0.000001,-0.000003,0.000002,-0.000007,-72.583748,0.000008,
2236,2233,-0.417521135806926,-8.99428194704639,0.00252843672649306,0.001930,-0.001040,0.004573,0.073349,-0.031711,327.440707,23.707243,0.999042,0.984355,0.004884,0.343160,0.000002,0.000003,-0.000009,0.000012,-0.000007,-46.697293,0.000012,
2296,2518,0.837437083450034,-2.76104403724568,-0.0273021734199688,0.002092,-0.000463,0.002930,0.086003,-0.000938,322.504784,24.009034,0.999615,0.991611,0.003786,0.392693,0.000005,-0.000010,-0.000008,0.000009,-0.000013,-24.216892,0.000014,
2026,2923,-5.09647032735003,6.0414468125624,-0.00222597244498957,0.001864,-0.000652,0.002590,0.078671,-0.010350,317.117392,24.267635,0.999474,0.993021,0.003439,0.374825,0.000009,0.000000,0.000008,0.000014,-0.000004,29.032618,0.000014,
2206,2038,-1.03652059100584,-13.269700072405,0.0294840754947359,0.001950,-0.000104,0.002312,0.081994,0.029214,330.881143,23.620503,0.998943,0.980725,0.005395,0.375174,0.000011,-0.000045,-0.000001,0.000011,-0.000045,-0.751211,0.000046,
2371,2683,2.43907122960073,0.840714925028891,-0.0366263017283472,0.001957,-0.000659,0.002631,0.080247,-0.019011,319.720357,24.348610,0.999424,0.989259,0.004082,0.351389,0.000001,0.000030,-0.000017,0.000038,-0.000006,-65.524578,0.000041,
2131,3088,-2.84345497761334,9.62670044518727,0.0276029728292428,0.002178,-0.000405,0.001360,0.096238,-0.004659,314.141263,24.532116,0.999814,0.995299,0.003155,0.389815,0.000006,0.000001,0.000007,0.000011,-0.000005,35.136455,0.000011,
2506,2173,5.49149704991274,-10.3129332670101,0.0244375469430338,0.001762,0.000318,0.000144,0.080150,0.019598,328.745522,22.207652,0.998772,0.977517,0.005799,0.360776,-0.000005,0.000026,-0.000029,0.000043,-0.000022,-59.366223,0.000043,
2176,3283,-1.9024001536836,13.8576931936861,0.0115690213290236,0.001622,-0.000406,0.001004,0.071586,-0.009549,310.617706,24.847942,0.999695,0.995131,0.002971,0.378937,0.000003,0.000033,0.000015,0.000039,-0.000004,67.169929,0.000043,
2011,2833,-5.4090060006878,4.08750810908679,-0.0120547416442491,0.001722,-0.000572,0.005110,0.065361,-0.007351,318.579650,24.387741,0.999675,0.994631,0.003349,0.300275,0.000013,0.000019,0.000006,0.000023,0.000009,56.521441,0.000033,
2401,2803,3.06999256171377,3.45461131366442,-0.0216571205199898,0.001839,-0.000488,0.003783,0.070645,0.015882,317.903028,24.666932,0.999557,0.990552,0.004003,0.424396,-0.000004,0.000018,-0.000005,0.000019,-0.000005,-77.972212,0.000020,
2101,2923,-3.46930512560216,6.04588273890775,-0.00514298877658348,0.002026,-0.000423,-0.001359,0.097239,-0.017589,316.694396,24.417757,0.999150,0.991034,0.004016,0.375012,0.000009,0.000007,0.000004,0.000012,0.000004,40.715896,0.000017,
2461,3178,4.30530351229301,11.6067634664593,0.0286589145921425,0.002080,-0.000369,0.002485,0.086211,0.005210,312.298519,26.115411,0.999648,0.991757,0.003635,0.360782,0.000026,0.000010,0.000024,0.000043,-0.000007,35.782367,0.000046,
2071,3028,-4.13579633781092,8.32188698226732,0.0146059833118102,0.002062,-0.000226,0.001763,0.089979,-0.002895,315.296726,24.330565,0.999516,0.992959,0.003434,0.386778,0.000005,0.000005,0.000005,0.000010,0.000000,44.571059,0.000011,
2131,3028,-2.83478640180193,8.32621964399627,0.0115963584110546,0.002128,-0.000545,0.004253,0.085202,0.002254,314.974999,24.514678,0.999470,0.992018,0.003651,0.395324,0.000001,0.000013,0.000008,0.000018,-0.000003,63.388625,0.000019,
2116,3238,-3.19311825040178,12.8757291644793,0.0367300546237175,0.002152,-0.000686,0.003694,0.088122,-0.017666,311.825026,24.475516,0.999686,0.995086,0.002903,0.399849,-0.000002,0.000029,0.000000,0.000029,-0.000002,89.508653,0.000032,
2491,2023,5.19637442541678,-13.6076115063784,0.0444810834414398,0.002049,-0.000200,0.001309,0.088521,0.001972,331.297817,21.741847,0.999262,0.972090,0.006243,0.268490,-0.000010,0.000067,-0.000035,0.000080,-0.000024,-68.893011,0.000083,
2041,2953,-4.77571135308114,6.69374524451821,-0.00308974991168043,0.001842,-0.000182,-0.000330,0.085856,0.006496,316.537147,24.272761,0.999513,0.992922,0.003364,0.401829,0.000014,-0.000011,-0.000007,0.000016,-0.000013,-13.833846,0.000017,
2161,2083,-2.02618572640894,-12.2801290673952,0.0255591238289981,0.001723,0.000128,-0.000552,0.080757,-0.017672,330.261358,24.108900,0.999293,0.983937,0.005089,0.177125,0.000023,0.000014,0.000022,0.000041,-0.000004,39.738082,0.000045,
2296,2443,0.851984337987599,-4.40123995493751,-0.0138514008911557,0.001992,-0.000649,0.002977,0.081125,-0.006485,323.828089,23.742026,0.999662,0.989020,0.004193,0.497911,0.000013,-0.000005,-0.000005,0.000014,-0.000007,-13.271905,0.000014,
2011,3073,-5.44283491295258,9.29251826816207,0.0251087488296093,0.002025,-0.000722,0.002569,0.086310,-0.015105,315.008981,24.075825,0.999275,0.993845,0.003444,0.402809,0.000022,0.000009,0.000029,0.000046,-0.000014,38.449552,0.000047,
2116,3088,-3.16959144787838,9.62659818151375,0.0160954729832952,0.002049,-0.000431,0.000791,0.091978,-0.020430,314.107125,24.512065,0.999685,0.992853,0.003523,0.338376,0.000006,0.000000,0.000009,0.000012,-0.000006,36.304191,0.000012,
2251,2518,-0.142003931213896,-2.76331135968839,-0.0112603993225662,0.001504,-0.000565,0.004425,0.054443,0.005671,322.671676,24.116973,0.999324,0.986966,0.004488,0.376701,0.000010,-0.000004,-0.000009,0.000015,-0.000009,-26.705149,0.000015,
2506,2188,5.48811276827059,-9.98337298299836,0.0190693267968527,0.002048,-0.000380,0.001104,0.089244,-0.009561,328.467282,22.295833,0.998653,0.976232,0.006084,0.307210,0.000017,0.000024,-0.000022,0.000043,-0.000001,-49.452368,0.000049,
2221,2368,-0.768326574570306,-6.04013426064544,-0.00272125677707891,0.001813,-0.001118,0.005043,0.066723,-0.017473,325.245387,24.017018,0.999544,0.989493,0.004283,0.307040,0.000011,0.000004,-0.000002,0.000012,0.000003,-11.724263,0.000016,
2281,2683,0.481651867425612,0.835845839858109,-0.0212921574376992,0.002234,-0.000476,0.001809,0.096497,-0.002897,319.905440,24.356411,0.999629,0.991861,0.003728,0.384921,-0.000003,0.000034,0.000000,0.000034,-0.000003,89.935085,0.000038,
2206,2053,-1.03989552007594,-12.9388223724821,0.0171290391080561,0.001858,-0.000292,0.000600,0.083128,0.005822,330.538222,23.689132,0.998777,0.976981,0.005756,0.303891,0.000008,-0.000025,0.000005,0.000009,-0.000026,8.861923,0.000027,
2116,3253,-3.19600580821886,13.2013274045297,0.0355924742585785,0.001899,-0.000754,0.004809,0.073189,-0.008152,311.554738,24.527321,0.999702,0.996306,0.002648,0.359368,0.000000,0.000024,-0.000001,0.000024,0.000000,-86.723952,0.000028,
2131,3283,-2.87703487734055,13.8531392936889,0.0185317363262243,0.001982,-0.000496,0.005028,0.076296,0.006901,310.856278,24.580204,0.999735,0.995199,0.002900,0.409987,0.000005,0.000038,0.000004,0.000039,0.000004,83.434042,0.000047,
2086,2953,-3.7997721158193,6.69630646045555,-0.000506489268843779,0.001772,-0.000549,0.002389,0.074696,0.007360,316.297100,24.381005,0.999355,0.992101,0.003708,0.402000,0.000006,0.000003,0.000001,0.000007,0.000003,18.270510,0.000010,
2371,2698,2.43663174274503,1.16630438342636,-0.0292535456542851,0.001815,-0.000706,0.002752,0.073332,-0.016355,319.531578,24.328958,0.999358,0.990431,0.003812,0.415118,0.000001,0.000033,-0.000013,0.000038,-0.000004,-70.281685,0.000042,
2491,2038,5.19291866521946,-13.2787733718469,0.0429356227693916,0.001680,0.000111,-0.000271,0.077851,0.000826,331.032762,21.719668,0.999158,0.972808,0.006354,0.351858,-0.000001,0.000078,-0.000039,0.000094,-0.000017,-67.399158,0.000100,
2221,2173,-0.732447242572743,-10.309548103097,0.0151598630459375,0.002338,-0.000102,-0.003063,0.116943,-0.015172,328.589432,23.673227,0.998941,0.984017,0.005115,0.377426,0.000007,-0.000008,0.000000,0.000007,-0.000008,-1.190941,0.000009,
2011,2653,-5.38259777292026,0.173642388908014,-0.0388497997923309,0.002353,-0.000482,-0.001332,0.111790,-0.034685,321.319483,24.404533,0.999096,0.986210,0.004558,0.399109,-0.000019,0.000014,-0.000017,0.000022,-0.000026,-66.827165,0.000028,
2446,3103,3.99362441121592,9.97750313694401,0.0161406764443086,0.002148,0.000032,-0.002051,0.106464,-0.004694,313.414963,25.748964,0.999688,0.993844,0.003408,0.393594,0.000024,0.000041,0.000029,0.000063,0.000002,53.197125,0.000075,
2026,2938,-5.09901773408017,6.36733960651881,-0.000506903884854637,0.001736,-0.000679,0.006261,0.062658,-0.004986,316.871754,24.286498,0.999348,0.991327,0.003767,0.350710,0.000008,-0.000008,0.000009,0.000012,-0.000012,23.953583,0.000014,
2131,3103,-2.84618453445901,9.95195275320279,0.0294866361915069,0.001889,-0.000446,0.002432,0.079623,-0.015955,313.895643,24.553498,0.999796,0.995819,0.002944,0.361546,0.000002,0.000005,0.000012,0.000015,-0.000008,48.607195,0.000015,
2041,2713,-4.74049320515081,1.48078003306101,-0.0315179143584032,0.002054,-0.000668,0.003998,0.083316,-0.000680,320.193357,24.419525,0.999158,0.989953,0.004133,0.372726,0.000018,0.000003,0.000007,0.000021,0.000000,21.226520,0.000024,
2416,2938,3.37129005372149,6.39178126242901,-0.00622349126894051,0.002015,-0.000487,0.005190,0.073467,0.006269,315.848485,25.137867,0.999658,0.991861,0.003697,0.383656,-0.000006,0.000002,-0.000003,0.000003,-0.000007,-69.370893,0.000007,
2086,2803,-3.77637597501954,3.43900418489921,-0.018474489946243,0.002270,-0.000311,0.000906,0.101868,-0.000372,318.612328,24.416338,0.999187,0.990743,0.003979,0.372314,0.000005,0.000004,-0.000005,0.000010,-0.000001,-44.018024,0.000011,
2071,2878,-4.1143810454919,5.06731330993669,-0.0148877916890342,0.001655,-0.000942,0.003777,0.065246,-0.017509,317.466730,24.348459,0.999146,0.989215,0.004329,0.392214,0.000026,0.000029,-0.000005,0.000032,0.000023,-53.156128,0.000056,
2101,3148,-3.50336793512705,10.924686849957,0.0346536241846707,0.002217,-0.000153,0.002158,0.095952,0.005815,313.357968,24.393138,0.999878,0.996798,0.002576,0.428468,-0.000001,0.000017,0.000009,0.000020,-0.000005,66.744376,0.000021,
2101,2938,-3.47153902109952,6.37173765877058,-0.00491235980388183,0.002244,-0.000487,-0.000722,0.105416,-0.017399,316.460268,24.429645,0.999265,0.990708,0.003992,0.363981,0.000003,0.000007,0.000005,0.000011,-0.000001,56.086101,0.000012,
2056,2863,-4.43637183356674,4.74096690590939,-0.0144860687072423,0.002361,-0.000122,-0.002499,0.115837,-0.005929,317.847215,24.351165,0.999280,0.991545,0.003820,0.382022,0.000018,0.000022,-0.000011,0.000031,0.000009,-49.801718,0.000042,
2356,2638,2.12309591354269,-0.143095992223863,-0.00963065587882284,0.001998,-0.000772,0.003151,0.080382,-0.012338,320.674251,24.241209,0.999273,0.987624,0.004411,0.351368,0.000006,0.000016,-0.000014,0.000026,-0.000004,-55.094851,0.000028,
2191,2218,-1.39497568464491,-9.32266154292309,0.00756411224688236,0.002277,-0.000289,-0.001089,0.107750,-0.020083,327.871695,23.917218,0.998627,0.981228,0.005623,0.338679,0.000012,0.000022,-0.000003,0.000022,0.000011,-74.686725,0.000034,
2311,2383,1.19096674298138,-5.71218262643802,-0.000238429325520428,0.001734,-0.000022,-0.001630,0.085080,-0.016186,324.903884,23.706236,0.999242,0.986888,0.004718,0.348847,0.000011,0.000012,-0.000006,0.000017,0.000006,-48.026672,0.000024,
2431,2998,3.68660549912606,7.69653779803944,0.00264830687495987,0.002052,-0.000588,0.003946,0.079540,-0.002446,314.968886,25.379613,0.999362,0.986190,0.004391,0.363892,0.000007,0.000021,0.000018,0.000033,-0.000005,56.021622,0.000035,
2251,2278,-0.0978154100866391,-8.00949237352524,0.00865159979957753,0.001881,-0.000527,0.002947,0.076448,-0.000618,326.739722,23.740331,0.999336,0.985242,0.004840,0.347135,0.000002,-0.000009,-0.000016,0.000013,-0.000021,-36.190596,0.000021,
2161,3238,-2.21806086314578,12.8801187681642,0.0363451645467308,0.001848,-0.000538,0.002797,0.076512,-0.010985,311.621939,24.739221,0.999707,0.994598,0.003038,0.376116,-0.000001,0.000017,0.000003,0.000018,-0.000001,82.032470,0.000020,
2266,2383,0.209063640814389,-5.71217515756643,-0.0118388040635864,0.001880,-0.001239,0.003358,0.074733,-0.053275,324.846746,23.816323,0.998257,0.981057,0.005539,0.347558,0.000000,0.000012,-0.000009,0.000016,-0.000005,-62.128905,0.000017,
2011,2848,-5.41127816275826,4.4124060537917,-0.0164965908629711,0.001864,-0.000506,0.003275,0.076895,-0.009939,318.311156,24.252619,0.999716,0.995414,0.003202,0.420549,0.000019,0.000029,0.000002,0.000029,0.000019,77.003306,0.000048,
2461,3193,4.30244916799092,11.9315283359626,0.0316944545475621,0.002085,-0.000510,0.003606,0.082213,0.008153,312.074088,26.112114,0.999603,0.991341,0.003649,0.420325,0.000025,0.000002,0.000024,0.000040,-0.000013,31.824592,0.000041,
2281,2698,0.47891280254542,1.16222577157605,-0.0156025096892449,0.001862,-0.000650,0.002789,0.076055,-0.001128,319.688913,24.394187,0.999807,0.993662,0.003417,0.376848,-0.000006,0.000026,0.000002,0.000026,-0.000006,86.815146,0.000027,
2041,2728,-4.74229567587006,1.80673126933392,-0.0280514112446895,0.002185,-0.000351,0.001521,0.096344,-0.002466,319.992271,24.407960,0.999347,0.991462,0.003671,0.374856,0.000014,0.000018,0.000007,0.000024,0.000009,53.921414,0.000033,
2236,2248,-0.419753350402548,-8.66625442052916,0.0099615109431852,0.001917,-0.000695,0.006609,0.066331,0.012453,327.253560,23.734353,0.998928,0.982552,0.005236,0.383496,0.000002,-0.000004,-0.000002,0.000003,-0.000005,-19.526410,0.000005,
2161,3178,-2.20789700737062,11.5802966169786,0.0363539084132185,0.002002,-0.000486,0.005810,0.074429,0.013755,312.601515,24.714881,0.999552,0.991575,0.003620,0.390422,-0.000002,0.000018,0.000003,0.000019,-0.000003,81.155918,0.000021,
2086,2968,-3.80213396936082,7.0218949521469,0.00505186687996684,0.001533,-0.000256,0.003486,0.060584,0.021838,316.085150,24.398705,0.999366,0.991918,0.003665,0.397028,0.000008,0.000001,-0.000001,0.000008,0.000001,-4.302231,0.000010,
2401,2818,3.06748122695322,3.78085745392891,-0.0149873923444375,0.001849,-0.000618,0.005406,0.065202,0.021301,317.708833,24.730540,0.999449,0.989945,0.004201,0.411457,-0.000005,0.000024,-0.000004,0.000024,-0.000006,-83.254094,0.000025,
2266,2608,0.168033369107025,-0.799185758124764,-0.0211163316785132,0.001780,-0.000737,0.005184,0.064405,0.001727,321.114360,24.227992,0.999275,0.987902,0.004383,0.391944,0.000006,0.000001,0.000001,0.000006,0.000001,6.826023,0.000008,
2206,2068,-1.04143876047144,-12.61141754294,0.0270319728224422,0.002201,-0.000326,0.001259,0.096755,-0.012377,330.393809,23.689769,0.999014,0.979672,0.005531,0.304378,0.000007,-0.000004,0.000009,0.000012,-0.000009,27.911526,0.000012,
2026,2953,-5.10035034817774,6.69282620693062,0.00224309492591601,0.002127,-0.000116,-0.000650,0.099897,0.006250,316.687707,24.273165,0.999521,0.992197,0.003495,0.365145,0.000012,-0.000015,0.000005,0.000013,-0.000015,9.567204,0.000016,
2491,2053,5.18779556992218,-12.946085440679,0.0213572794473293,0.001643,-0.000539,0.001486,0.069206,-0.035355,330.601413,21.865910,0.999063,0.977416,0.005895,0.232671,0.000001,0.000052,-0.000025,0.000062,-0.000009,-67.612894,0.000068,
2146,3208,-2.53772041502542,12.228585615465,0.0406789690584333,0.002025,-0.000451,0.003367,0.083085,-0.005027,312.214154,24.646493,0.999614,0.994044,0.003140,0.384032,-0.000003,0.000025,0.000005,0.000026,-0.000004,81.010542,0.000028,
2116,3103,-3.17126192524739,9.95143896775765,0.0267813391805021,0.002293,-0.000466,0.002896,0.097010,-0.012731,313.956684,24.532307,0.999825,0.995546,0.002993,0.328044,0.000002,0.000005,0.000013,0.000017,-0.000010,49.131855,0.000017,
2206,2323,-1.08600695206858,-7.02593532878087,0.00749961451299441,0.002230,-0.000567,0.001068,0.098788,-0.023157,326.127876,23.935705,0.999032,0.985365,0.004650,0.377061,0.000011,-0.000021,-0.000007,0.000013,-0.000023,-11.100123,0.000023,
2026,3028,-5.11111086706875,8.31875090721497,0.0169442997500937,0.002265,-0.000521,0.003154,0.095704,-0.001161,315.586071,24.194220,0.999376,0.991884,0.003857,0.383791,0.000003,-0.000008,0.000015,0.000013,-0.000018,34.383139,0.000019,
2221,2383,-0.770808157467489,-5.7129365011763,-0.0066494256799956,0.001966,-0.000744,0.001921,0.083834,-0.032446,324.987931,23.959268,0.999430,0.988821,0.004331,0.370462,0.000011,0.000001,-0.000003,0.000012,0.000000,-15.097131,0.000013,
2281,2443,0.525398855283861,-4.40114621716947,-0.007537453758232,0.001760,-0.000471,0.002848,0.071128,-0.001366,323.887219,23.865049,0.999645,0.989407,0.004177,0.419576,0.000011,-0.000003,-0.000004,0.000012,-0.000004,-13.001256,0.000012,
2341,2518,1.81853576765697,-2.76145418670013,-0.010469507177902,0.001522,-0.000489,0.001613,0.064055,-0.009840,322.598797,23.953094,0.999021,0.984953,0.004638,0.353464,0.000006,-0.000012,-0.000008,0.000009,-0.000015,-20.406421,0.000015,
2011,3088,-5.44482629916473,9.61793836151963,0.0286770073621483,0.001969,-0.000318,-0.000036,0.090924,-0.004626,314.798667,24.095166,0.999550,0.995211,0.003040,0.380719,0.000013,0.000018,0.000033,0.000049,-0.000017,47.084027,0.000050,
2416,2953,3.36778193948867,6.71872253067352,-0.0115395077277185,0.001817,-0.000593,0.004344,0.067421,0.002857,315.552401,25.224264,0.999754,0.991917,0.003728,0.341122,-0.000003,0.000004,0.000000,0.000004,-0.000003,87.870321,0.000004,
2086,3058,-3.81442594557484,8.97276678953011,0.0186781824835975,0.002502,-0.000265,-0.001949,0.120927,-0.016144,314.793512,24.326193,0.999462,0.992876,0.003433,0.421160,0.000010,-0.000003,0.000007,0.000013,-0.000006,21.927009,0.000013,
2221,2188,-0.735243221529576,-9.98005730293894,0.0116771239053151,0.002457,-0.000102,-0.001733,0.118165,-0.016229,328.319785,23.744043,0.998869,0.982195,0.005298,0.327349,0.000005,-0.000002,-0.000007,0.000009,-0.000006,-32.546880,0.000009,
2116,3268,-3.1984749293104,13.5263913553066,0.0287415792053025,0.002039,-0.000490,-0.000186,0.094548,-0.013094,311.273051,24.516611,0.999729,0.995801,0.002793,0.367192,0.000004,0.000029,0.000000,0.000029,0.000004,-89.816657,0.000036,
2056,3028,-4.46196423390697,8.32141402667241,0.00526617915880934,0.001789,-0.000379,0.003224,0.073316,-0.002291,315.285702,24.271107,0.999348,0.991625,0.003799,0.399698,0.000002,0.000000,0.000001,0.000003,0.000000,15.378803,0.000003,
2056,2878,-4.43913761171143,5.06644156459429,-0.010726901967189,0.002019,-0.000503,0.002583,0.085657,-0.004799,317.604970,24.335900,0.999226,0.990264,0.004077,0.392654,0.000025,0.000034,-0.000010,0.000040,0.000018,-56.828428,0.000060,
2176,3298,-1.90524407876888,14.1830999696688,0.00408544046666748,0.001898,-0.000255,0.001438,0.083003,-0.011979,310.320288,24.874280,0.999820,0.996547,0.002527,0.360829,0.000007,0.000042,0.000010,0.000045,0.000005,75.099791,0.000055,
2431,3013,3.68373237682757,8.02270965890926,0.00191807447168912,0.001975,-0.000443,0.001033,0.086864,-0.003189,314.724573,25.440849,0.999312,0.987158,0.004251,0.350850,0.000006,0.000021,0.000020,0.000035,-0.000008,54.915509,0.000037,
2041,2968,-4.77803228229851,7.01822219315061,0.00153972746858244,0.001645,-0.000395,0.000930,0.073143,-0.011085,316.319663,24.212951,0.999552,0.993012,0.003290,0.435771,0.000016,-0.000020,-0.000009,0.000018,-0.000022,-13.676017,0.000023,
2161,2098,-2.02865396688599,-11.9524567103616,0.0273792603181278,0.001803,-0.000358,0.002846,0.073851,-0.001973,330.029207,24.019942,0.999569,0.984378,0.004984,0.295223,0.000021,0.000013,0.000019,0.000037,-0.000002,39.264277,0.000041,
2506,2203,5.48450061528994,-9.65598809551986,0.0271444886066661,0.001314,-0.001050,0.006355,0.035132,-0.017308,328.238395,22.310817,0.998925,0.974661,0.006135,0.348102,0.000025,-0.000015,-0.000026,0.000037,-0.000027,-26.357752,0.000039,
2131,3298,-2.87917513291208,14.1777711470854,0.0176931537403675,0.002222,-0.000368,0.002124,0.096185,0.009369,310.623350,24.564377,0.999700,0.993732,0.003185,0.432544,0.000007,0.000060,0.000002,0.000060,0.000007,88.308376,0.000073,
2311,2398,1.18986347965039,-5.38743161062442,0.0194377287401153,0.001954,-0.000532,-0.000922,0.092587,-0.022564,324.834043,23.648062,0.999216,0.988197,0.004724,0.433899,0.000012,0.000011,-0.000007,0.000018,0.000005,-43.322518,0.000024,
2446,3118,3.99107448625534,10.3032333937112,0.0151988651869033,0.002538,-0.000031,-0.003696,0.130522,-0.010053,313.185287,25.800555,0.999646,0.992326,0.003573,0.387694,0.000029,0.000040,0.000027,0.000062,0.000007,50.681242,0.000076,
2251,2293,-0.100993974762812,-7.68161227211878,0.00648345439657305,0.001565,-0.000902,0.003952,0.058532,-0.020935,326.462069,23.735720,0.999109,0.984142,0.004998,0.357102,0.000000,-0.000012,-0.000014,0.000009,-0.000021,-32.906456,0.000021,
2371,2713,2.43400629585807,1.49386758700817,-0.0310608139810711,0.001992,-0.000423,0.000042,0.091169,-0.013913,319.289852,24.419885,0.999486,0.991183,0.003717,0.367880,-0.000002,0.000030,-0.000010,0.000033,-0.000005,-73.477399,0.000035,
2236,2263,-0.422087918472958,-8.33760252139432,0.00998999389059918,0.001935,-0.000542,0.003014,0.078819,0.008649,327.024232,23.795059,0.999234,0.983828,0.005089,0.342235,0.000005,0.000001,-0.000005,0.000008,-0.000003,-35.350505,0.000008,
2266,2398,0.206546045718071,-5.38341561366273,-0.0104402626125761,0.001846,-0.000547,0.002146,0.077447,-0.006306,324.617859,23.897241,0.998852,0.986145,0.004875,0.340964,0.000002,0.000015,-0.000007,0.000018,0.000000,-66.552337,0.000020,
2011,2668,-5.38433792821654,0.499587213001917,-0.0324236151792547,0.002472,-0.000481,-0.001249,0.117092,-0.021803,321.135653,24.384973,0.999104,0.987270,0.004363,0.419660,-0.000014,0.000021,-0.000004,0.000021,-0.000015,-83.449105,0.000022,
2236,2413,-0.450999488068799,-5.05337845164387,-0.0282716667348382,0.001908,-0.000961,0.003673,0.075395,-0.016818,324.278820,24.096261,0.999638,0.991155,0.003789,0.247001,0.000005,0.000006,-0.000011,0.000017,-0.000005,-46.191160,0.000017,
2491,2068,5.18484088813097,-12.616393389364,0.0188049105383925,0.002362,-0.000915,0.005738,0.085677,-0.018071,330.354469,21.904776,0.999300,0.978908,0.005754,0.273306,0.000003,0.000064,-0.000025,0.000073,-0.000006,-70.188185,0.000082,
2011,3103,-5.44684586576142,9.94281443717618,0.0314034086484298,0.002090,-0.000560,-0.000061,0.096546,-0.004800,314.582574,24.073239,0.999556,0.994986,0.003038,0.389641,0.000010,0.000031,0.000045,0.000067,-0.000026,51.542094,0.000067,
2026,3043,-5.11326213288538,8.64321814200174,0.0156595277176166,0.002256,-0.000556,-0.001017,0.106769,-0.017035,315.342519,24.110022,0.999355,0.992076,0.003850,0.441726,0.000001,-0.000016,0.000012,0.000007,-0.000023,27.191957,0.000023,
2206,2083,-1.04458560079517,-12.2822694563489,0.020458097751316,0.002169,-0.000734,0.003039,0.089564,-0.024990,330.091136,23.666514,0.998967,0.979016,0.005631,0.335262,0.000009,0.000009,0.000006,0.000015,0.000002,45.614546,0.000019,
2461,3208,4.29954858958861,12.2572939210136,0.0304975759450485,0.002188,-0.000275,0.002207,0.092243,0.001070,311.827693,26.190050,0.999490,0.989604,0.003969,0.388041,0.000027,-0.000014,0.000016,0.000033,-0.000019,18.690201,0.000033,
2296,2533,0.834179808311195,-2.4347103322888,-0.0325193551143457,0.001992,-0.000607,0.003589,0.079154,0.006625,322.211853,23.892849,0.999678,0.993758,0.003435,0.547736,0.000002,-0.000004,-0.000011,0.000011,-0.000012,-37.809053,0.000014,
2191,1993,-1.356183671719,-14.2571116143645,0.0315010271393703,0.002011,-0.000384,0.002095,0.085460,-0.012755,331.664999,23.712822,0.999382,0.984636,0.005076,0.285360,0.000043,-0.000062,0.000017,0.000046,-0.000064,9.064640,0.000066,
2071,3043,-4.13841602386691,8.64775934029777,0.0138046950173134,0.002051,-0.000477,0.004455,0.081825,0.012486,315.037131,24.348931,0.999483,0.993178,0.003415,0.379619,0.000007,-0.000004,0.000002,0.000008,-0.000004,7.861299,0.000008,
2506,2218,5.48131341820279,-9.32705948929787,0.0229475896060762,0.001660,-0.001397,0.006973,0.048435,-0.040851,327.974249,22.358933,0.999063,0.975900,0.005918,0.340179,0.000019,-0.000041,-0.000007,0.000019,-0.000041,-6.622955,0.000041,
2011,2863,-5.41345020682141,4.73904927386432,-0.0203278901491899,0.002032,-0.000380,0.000672,0.091766,-0.013523,318.050112,24.288129,0.999385,0.992472,0.003811,0.369385,0.000027,0.000034,0.000002,0.000034,0.000026,77.942168,0.000061,
2041,2743,-4.74506970710362,2.13240712567355,-0.0264852631632948,0.001806,-0.000877,0.004662,0.069946,-0.015013,319.736294,24.370886,0.999495,0.991933,0.003655,0.392018,0.000012,0.000020,0.000003,0.000021,0.000012,72.440191,0.000033,
2386,2743,2.75583195249819,2.14678378438839,-0.0231203424224304,0.001905,-0.000045,-0.006149,0.109532,-0.024263,318.895243,24.462916,0.999599,0.991639,0.003766,0.401550,-0.000004,0.000033,0.000000,0.000033,-0.000004,-89.984868,0.000036,
2326,2458,1.5028777021006,-4.07176273887602,-0.0148386726456806,0.001957,-0.000474,0.002694,0.080343,0.003636,323.554885,23.802604,0.999486,0.988234,0.004325,0.403843,0.000011,0.000005,-0.000007,0.000016,0.000000,-33.151273,0.000019,
2041,2983,-4.78011807893479,7.34420830497168,0.00737529482546506,0.001787,-0.000430,0.005020,0.068347,0.004532,316.119102,24.270506,0.999357,0.991893,0.003621,0.385265,0.000009,-0.000027,-0.000011,0.000013,-0.000030,-16.008835,0.000030,
2356,2653,2.1197839518399,0.184506864633448,-0.0180827144047839,0.002051,-0.000457,0.001498,0.088765,-0.004623,320.368007,24.254368,0.999352,0.987173,0.004552,0.385478,0.000003,0.000022,-0.000011,0.000027,-0.000003,-64.681757,0.000030,
2266,2623,0.165275517340131,-0.472990546343226,-0.0174571777548067,0.001631,-0.001327,0.007860,0.048473,-0.023396,320.886085,24.237006,0.999413,0.988676,0.004229,0.383787,0.000003,0.000009,0.000004,0.000011,0.000001,64.856575,0.000013,
2281,2713,0.476354578473771,1.48840421924307,-0.0147337027450476,0.001867,-0.000487,0.001680,0.080052,-0.008975,319.456672,24.387693,0.999732,0.993230,0.003480,0.403581,-0.000007,0.000017,0.000000,0.000017,-0.000007,-89.308213,0.000017,
2161,3253,-2.22146270022721,13.2055249640923,0.0257424255078718,0.001856,-0.000515,0.004931,0.070298,-0.009653,311.281185,24.729690,0.999690,0.994512,0.003084,0.395687,0.000002,0.000015,0.000003,0.000015,0.000002,78.297698,0.000019,
2011,3163,-5.45591905886992,11.2427209207206,0.0407384257746912,0.001856,-0.000431,0.002575,0.078606,-0.001866,313.663895,24.044890,0.999484,0.993552,0.003462,0.368400,-0.000009,0.000069,-0.000004,0.000069,-0.000009,-86.731989,0.000075,
2176,2113,-1.70483989766404,-11.6232987565881,0.0146623784484063,0.001757,-0.000659,0.002487,0.072630,-0.012754,329.631149,23.874257,0.999181,0.980118,0.005484,0.355845,0.000027,0.000008,0.000022,0.000041,-0.000006,33.000996,0.000045,
2086,3073,-3.81741075912183,9.29869465580781,0.0197069306650519,0.002070,-0.000440,0.001199,0.091889,-0.013957,314.528260,24.382814,0.999434,0.992092,0.003484,0.364550,0.000011,0.000002,0.000007,0.000015,-0.000002,29.541562,0.000016,
2146,1993,-2.33867403986983,-14.2552855453821,0.0263062262532117,0.001830,-0.000248,-0.001029,0.086881,-0.006149,331.772468,24.016653,0.999214,0.982692,0.005059,0.305024,0.000066,-0.000058,0.000041,0.000078,-0.000071,16.853256,0.000086,
2011,3118,-5.44956862974187,10.2684189732416,0.0299669179711373,0.002021,-0.000430,0.004388,0.081291,0.001068,314.310541,24.090107,0.999690,0.995328,0.002897,0.365380,0.000011,0.000049,0.000034,0.000069,-0.000009,59.599416,0.000075,
2026,2968,-5.10275116821969,7.01769360161087,0.00527791945330591,0.001920,-0.000260,0.000539,0.087019,-0.005687,316.456581,24.231889,0.999512,0.992460,0.003403,0.383806,0.000015,-0.000027,0.000001,0.000015,-0.000027,1.976089,0.000027,
2056,3043,-4.46428205561787,8.64667860810334,0.0101943917455856,0.001803,-0.000767,0.007592,0.061585,0.004670,315.070726,24.279827,0.999649,0.994436,0.003237,0.391604,0.000003,-0.000009,-0.000004,0.000004,-0.000010,-16.056644,0.000010,
2101,2953,-3.47453868743568,6.69765428288106,-0.00591519721808709,0.001988,-0.000642,0.003214,0.082040,-0.012810,316.184311,24.438488,0.999454,0.991424,0.003732,0.360311,0.000006,0.000008,0.000005,0.000012,0.000001,50.220879,0.000014,
2221,2398,-0.773087952651675,-5.38374302986197,-0.0053917917889521,0.002045,-0.000241,-0.000182,0.094368,-0.002481,324.765655,24.094374,0.999603,0.991404,0.003863,0.285863,0.000013,0.000004,-0.000004,0.000015,0.000002,-20.175016,0.000018,
2026,3058,-5.11555507074931,8.96901474138073,0.0195359753441267,0.002106,-0.000458,-0.000120,0.097318,-0.025601,315.120861,24.178524,0.999277,0.990817,0.003858,0.353745,0.000002,-0.000007,0.000016,0.000014,-0.000019,37.380823,0.000019,
2191,2233,-1.3975611019466,-8.99357604689091,0.00570025455112955,0.002188,0.000132,-0.003309,0.110741,-0.001113,327.617173,23.964324,0.998794,0.982799,0.005328,0.327515,0.000007,0.000014,-0.000002,0.000015,0.000007,-74.229147,0.000022,
2041,2758,-4.74677871211499,2.45756068168149,-0.0213494027659067,0.002088,-0.000780,0.004765,0.082729,0.000007,319.549005,24.290693,0.999307,0.991573,0.003952,0.479612,0.000003,0.000003,-0.000009,0.000012,-0.000006,-45.783321,0.000012,
2251,2308,-0.103387520819471,-7.35334516539194,0.00839773981442704,0.001533,-0.000583,0.002033,0.063498,0.001661,326.240666,23.769705,0.998560,0.980501,0.005536,0.371031,0.000001,-0.000013,-0.000011,0.000008,-0.000019,-28.840582,0.000019,
2011,3178,-5.45819594727068,11.5671653810983,0.0465062467612256,0.001697,-0.000541,0.005027,0.064532,-0.011457,313.453472,24.028302,0.999730,0.995622,0.002738,0.362031,-0.000013,0.000073,-0.000009,0.000073,-0.000014,-83.953139,0.000078,
2116,3283,-3.20135747665855,13.8509625099109,0.0284755451016849,0.001925,-0.000472,0.003847,0.077328,-0.006114,311.008097,24.489143,0.999759,0.995449,0.002916,0.403652,0.000007,0.000040,0.000005,0.000041,0.000006,81.947354,0.000051,
2206,2338,-1.0893897108394,-6.69653432033702,0.00398308652381729,0.001862,-0.000562,0.004086,0.072368,-0.009996,325.829472,24.038625,0.999498,0.989006,0.004269,0.306205,0.000012,-0.000013,-0.000005,0.000013,-0.000014,-10.120759,0.000016,
2431,3028,3.68108126479169,8.34845845848064,0.00557991523965029,0.001970,-0.000439,0.000660,0.087966,-0.013980,314.510984,25.506486,0.999396,0.988134,0.004189,0.323703,0.000010,0.000026,0.000020,0.000039,-0.000003,55.783847,0.000043,
2371,2728,2.43153029747117,1.82069421507016,-0.0260899116262294,0.002104,-0.000319,0.001399,0.091573,0.001666,319.087493,24.489327,0.999497,0.990956,0.003786,0.355298,-0.000006,0.000024,-0.000006,0.000025,-0.000008,-79.537908,0.000026,
2146,2008,-2.34079089300101,-13.9280353908991,0.0363125011691068,0.001643,-0.000353,0.001884,0.069496,-0.010009,331.598503,23.969387,0.999022,0.983069,0.005135,0.359543,0.000048,-0.000059,0.000039,0.000061,-0.000072,18.025877,0.000077,
2401,2833,3.06455650551364,4.10783343452063,-0.0216531409490699,0.002237,-0.000706,0.003633,0.089298,-0.023082,317.432576,24.813810,0.999343,0.988954,0.004196,0.329076,-0.000008,0.000029,-0.000004,0.000029,-0.000009,-83.904979,0.000030,
2116,3118,-3.17419449278901,10.2764584203712,0.0244930720814409,0.001883,-0.000398,0.001403,0.082601,-0.000069,313.678335,24.486051,0.999794,0.995888,0.002848,0.389311,0.000001,0.000009,0.000008,0.000014,-0.000004,58.207282,0.000014,
2386,2758,2.75231452944603,2.47386174747324,-0.0252270304636113,0.002097,-0.000549,0.002074,0.088697,-0.009537,318.612221,24.508501,0.999366,0.989056,0.004089,0.414057,0.000000,0.000040,0.000003,0.000040,-0.000001,85.228266,0.000046,
2296,2458,0.849340649893783,-4.07188593905711,-0.0142138488295132,0.002110,-0.000430,0.002932,0.086798,0.006536,323.586926,23.914994,0.999430,0.987602,0.004462,0.369255,0.000009,-0.000006,-0.000001,0.000009,-0.000006,-5.497151,0.000009,
2101,3163,-3.50645264647003,11.2502623712598,0.0304326505324184,0.001889,-0.000229,0.002674,0.079248,-0.004699,313.060843,24.420862,0.999769,0.995430,0.002876,0.389912,-0.000005,0.000032,0.000003,0.000033,-0.000005,85.340404,0.000035,
2071,2893,-4.11671400181366,5.39377289678094,-0.0126879804899431,0.001686,-0.000727,0.005850,0.060837,0.004352,317.236395,24.396007,0.999353,0.992195,0.003802,0.362999,0.000024,0.000019,-0.000004,0.000027,0.000017,-29.893125,0.000044,
2461,3223,4.29624697021751,12.5835676478764,0.0243290597445593,0.002226,0.000139,-0.000090,0.102844,0.013844,311.539724,26.270617,0.999551,0.991801,0.003629,0.373698,0.000027,-0.000031,0.000009,0.000028,-0.000032,8.301903,0.000035,
2221,2203,-0.73827730444442,-9.65132785157881,0.00927900968781614,0.002235,0.000158,-0.000692,0.104776,0.006695,328.044758,23.738633,0.999060,0.984047,0.005031,0.377339,0.000006,0.000001,-0.000007,0.000011,-0.000004,-35.355719,0.000011,
2281,2458,0.523182944306139,-4.07277937102111,-0.00867509161417956,0.002254,-0.000293,0.001778,0.097429,0.015191,323.660760,23.936148,0.999753,0.990684,0.003990,0.394098,0.000010,-0.000005,-0.000001,0.000010,-0.000005,-2.494220,0.000010,
2311,2413,1.18589083255279,-5.05773977362883,0.00506268793049003,0.001976,-0.000475,0.001209,0.086354,-0.015642,324.464542,23.707997,0.999422,0.988314,0.004501,0.415172,0.000011,0.000014,-0.000003,0.000016,0.000009,-54.730077,0.000025,
2146,3223,-2.5401699301897,12.5534254455134,0.0437750338276715,0.001912,-0.000268,0.003537,0.077447,0.007842,311.988968,24.641940,0.999610,0.994515,0.003012,0.408000,-0.000003,0.000028,0.000005,0.000029,-0.000003,81.713046,0.000031,
2416,2968,3.36572703109981,7.04402295399549,-0.00487363453305534,0.001967,-0.000575,0.001777,0.083738,-0.010002,315.379756,25.256647,0.999833,0.994042,0.003320,0.343031,-0.000001,0.000009,0.000006,0.000012,-0.000005,64.503673,0.000012,
2011,2878,-5.41562363112617,5.0652858006785,-0.0180334842145271,0.002095,-0.000098,0.002414,0.090052,0.017358,317.823524,24.301758,0.999276,0.991296,0.003849,0.374348,0.000041,0.000038,0.000001,0.000041,0.000037,14.126038,0.000079,
2131,3118,-2.84898669321133,10.2776783676954,0.0244518187736276,0.001882,-0.000366,0.001982,0.080797,0.003993,313.609446,24.548030,0.999725,0.995724,0.002991,0.391739,0.000001,0.000008,0.000008,0.000013,-0.000004,58.100553,0.000014,
2446,3133,3.9872713866474,10.6292147255356,0.0190556125685362,0.001940,-0.000337,0.002694,0.079088,0.001281,312.919889,25.892430,0.999590,0.988838,0.004060,0.357864,0.000033,0.000034,0.000024,0.000057,0.000010,45.577107,0.000072,
2086,2983,-3.80446040103506,7.34678848851638,0.00655909943020561,0.001702,-0.000887,0.006413,0.059690,-0.004053,315.853050,24.368347,0.999498,0.993461,0.003371,0.399941,0.000002,-0.000001,0.000000,0.000002,-0.000001,-7.241094,0.000003,
2191,2008,-1.35879494118209,-13.9280876319233,0.0247107495517298,0.002245,-0.000440,0.000406,0.101440,-0.015900,331.384234,23.635992,0.999291,0.984247,0.005100,0.377414,0.000028,-0.000057,0.000020,0.000032,-0.000062,12.780091,0.000062,
2281,2728,0.473178979104826,1.81540425221826,-0.0192347838158753,0.001990,-0.000978,0.005140,0.073947,-0.012242,319.169029,24.413412,0.999673,0.992506,0.003543,0.402590,-0.000004,0.000012,-0.000001,0.000012,-0.000004,-87.809907,0.000012,
2251,2533,-0.145118197812536,-2.43433595725239,-0.0231854596841004,0.001816,-0.000356,0.003259,0.072657,0.008579,322.346740,24.185701,0.999626,0.991929,0.003681,0.335459,0.000008,0.000000,-0.000009,0.000013,-0.000005,-32.643485,0.000013,
2491,2083,5.18213518108589,-12.2880355810217,0.0210541942672648,0.002130,-0.000314,0.000691,0.094620,-0.016699,330.140545,21.896561,0.999435,0.978742,0.005524,0.344977,0.000001,0.000057,-0.000025,0.000066,-0.000009,-68.926002,0.000072,
2506,2233,5.47856015617855,-8.99649715115488,0.0193900209707181,0.001682,-0.000483,-0.000799,0.079838,-0.031135,327.732467,22.535556,0.999036,0.980764,0.005409,0.236912,0.000023,-0.000032,0.000008,0.000024,-0.000033,8.323021,0.000034,
2266,2638,0.16291792502523,-0.145875067304644,-0.0179307251490854,0.001899,-0.001020,0.006618,0.065003,-0.018043,320.655082,24.269151,0.999318,0.988128,0.004234,0.383168,0.000000,0.000012,0.000004,0.000013,-0.000001,74.313288,0.000015,
2161,2113,-2.0314220361572,-11.6232811252767,0.021537926227154,0.001795,-0.000512,0.001604,0.077228,-0.016503,329.743100,24.019974,0.999401,0.982614,0.005168,0.294115,0.000020,0.000011,0.000018,0.000034,-0.000002,38.131236,0.000038,
2071,3058,-4.14051099364251,8.9722766327185,0.0132554220638212,0.002242,-0.000668,0.002219,0.096884,-0.013998,314.803539,24.290034,0.999197,0.992934,0.003481,0.408090,0.000012,-0.000004,0.000005,0.000013,-0.000005,15.528026,0.000014,
2296,2548,0.832447762463964,-2.10688323993206,-0.0195440624053163,0.002072,-0.000359,0.004059,0.081359,0.019291,322.078559,24.075172,0.999326,0.989389,0.004229,0.408738,0.000003,0.000007,-0.000008,0.000013,-0.000003,-50.939645,0.000014,
2086,3088,-3.82006366225839,9.62368056094822,0.0215732197847274,0.001803,-0.000531,0.002523,0.075696,-0.013723,314.283161,24.363830,0.999481,0.991304,0.003623,0.381860,0.000009,0.000005,0.000011,0.000018,-0.000004,39.488497,0.000019,
2056,2893,-4.44152977391726,5.39272183852156,-0.00741987296936486,0.001913,-0.000484,0.004898,0.074271,0.013597,317.377071,24.377847,0.999446,0.993026,0.003656,0.363269,0.000023,0.000022,-0.000011,0.000033,0.000012,-44.094505,0.000046,
2011,3133,-5.45192669697922,10.5937845169342,0.0264580373803938,0.002099,-0.000363,0.003024,0.088634,0.009493,314.043673,24.073787,0.999700,0.994525,0.003019,0.377285,0.000008,0.000059,0.000025,0.000069,-0.000003,67.391225,0.000078,
2221,2413,-0.775611404622158,-5.05678240762494,-0.00270355805787403,0.002036,-0.000506,0.001526,0.088458,0.005351,324.540050,24.065742,0.999620,0.991259,0.003880,0.342847,0.000015,0.000001,-0.000008,0.000019,-0.000002,-23.993162,0.000020,
2101,3178,-3.50921414393817,11.5746482604314,0.0267946911959598,0.001821,-0.000475,0.002779,0.075695,-0.018081,312.782170,24.349744,0.999819,0.995770,0.002751,0.447740,-0.000006,0.000033,0.000003,0.000033,-0.000006,84.900107,0.000035,
2116,3133,-3.1768921510006,10.6022702428712,0.022515690824207,0.002012,-0.000591,0.004881,0.078150,-0.011602,313.412168,24.542960,0.999849,0.997319,0.002534,0.323112,-0.000001,0.000009,0.000008,0.000014,-0.000005,61.066069,0.000014,
2266,2413,0.20455760071221,-5.05714364157934,-0.000366779458943256,0.001781,-0.000515,0.001999,0.074955,-0.004234,324.457333,23.882436,0.999046,0.987564,0.004577,0.384492,0.000003,0.000015,-0.000006,0.000018,0.000000,-65.825707,0.000020,
2341,2533,1.81615518424968,-2.43396329271434,-0.012476017182621,0.002093,-0.000374,0.001452,0.090887,-0.003957,322.365561,23.972632,0.999197,0.985895,0.004569,0.377565,0.000007,-0.000008,-0.000011,0.000013,-0.000014,-28.357791,0.000016,
2026,3073,-5.11808484477984,9.29340322994495,0.0255255907719629,0.001842,-0.000971,0.004945,0.071088,-0.027048,314.900710,24.127499,0.999239,0.992543,0.003644,0.392548,0.000007,0.000003,0.000019,0.000024,-0.000014,42.284894,0.000024,
2281,2473,0.519663964021756,-3.74571451365367,-0.00887439450508509,0.001677,-0.000674,0.004904,0.060380,0.011912,323.379527,23.921777,0.999500,0.988930,0.004287,0.434231,0.000013,-0.000002,0.000000,0.000013,-0.000002,-1.286179,0.000014,
2116,3298,-3.20382439197344,14.1761693878661,0.0227194654818277,0.002207,-0.000282,0.002043,0.095800,0.002698,310.732351,24.492610,0.999651,0.993421,0.003386,0.410779,0.000010,0.000065,0.000004,0.000065,0.000010,85.768160,0.000081,
2101,2968,-3.47660304824038,7.02291372025921,0.00323435924775595,0.001717,-0.000542,0.002414,0.071910,-0.012018,316.006485,24.465058,0.999590,0.991407,0.003600,0.335078,0.000007,0.000006,0.000002,0.000009,0.000004,34.171511,0.000013,
2281,2743,0.470698804079515,2.14214537807266,-0.0179925876035441,0.002198,-0.000789,0.006040,0.080549,-0.009394,318.941989,24.460053,0.999478,0.990265,0.003879,0.386881,-0.000005,0.000014,0.000001,0.000014,-0.000005,88.136676,0.000014,
2236,2278,-0.425052931412164,-8.00912961663097,0.00173944611265142,0.002117,-0.000804,0.002382,0.089121,-0.018823,326.724111,23.784518,0.999165,0.984650,0.004914,0.348890,0.000006,-0.000005,-0.000011,0.000012,-0.000012,-31.384505,0.000014,
2221,2218,-0.7413692901155,-9.32307313095251,0.0156386887586564,0.001669,-0.000874,0.004863,0.060677,-0.007499,327.812063,23.823580,0.999044,0.983665,0.004983,0.299664,0.000005,0.000014,-0.000007,0.000018,0.000002,-61.194652,0.000022,
2356,2668,2.11683078780587,0.511329529544092,-0.018613853422039,0.002063,-0.000411,0.002587,0.085486,-0.004570,320.116508,24.275222,0.999523,0.989467,0.004156,0.403884,-0.000002,0.000024,-0.000014,0.000029,-0.000008,-66.797895,0.000031,
2011,2893,-5.41778494041019,5.39023621346941,-0.0134065699803045,0.001971,-0.000542,0.003133,0.082222,-0.014681,317.611190,24.280785,0.999400,0.993063,0.003417,0.350643,0.000044,0.000019,0.000001,0.000044,0.000019,1.527822,0.000065,
2056,3058,-4.46621966964359,8.97224547547927,0.00949503674803509,0.002093,-0.000632,0.004608,0.083453,0.004745,314.842018,24.289955,0.999480,0.993596,0.003391,0.375330,0.000006,-0.000006,0.000000,0.000006,-0.000006,0.109467,0.000007,
2011,3193,-5.46033829220019,11.8923127658859,0.0430986493545333,0.001974,-0.000371,0.003322,0.082063,0.007246,313.197266,23.997478,0.999761,0.995651,0.002646,0.398350,-0.000012,0.000068,-0.000014,0.000071,-0.000015,-80.142961,0.000074,
2236,2428,-0.452582731703451,-4.72858718450212,-0.0129101555693296,0.001964,-0.000939,0.005471,0.072158,-0.016672,324.162268,24.002707,0.999414,0.990175,0.004063,0.362761,0.000006,-0.000003,-0.000012,0.000014,-0.000011,-34.207766,0.000015,
2191,2023,-1.36147943521889,-13.5989955264938,0.0308702288376708,0.002009,-0.001077,0.005699,0.073885,-0.023290,331.167104,23.722327,0.999060,0.984156,0.005068,0.301649,0.000021,-0.000048,0.000020,0.000026,-0.000054,15.263854,0.000054,
2461,3238,4.29343210265197,12.909025675439,0.0271896744078504,0.002380,-0.000159,0.002140,0.101419,0.010435,311.315843,26.347724,0.999761,0.994109,0.003165,0.345987,0.000026,-0.000033,0.000001,0.000026,-0.000033,1.307367,0.000035,
2326,2473,1.50091796394627,-3.74574461449427,-0.00343993427867417,0.002025,-0.000799,0.004169,0.078260,-0.027605,323.405664,23.828026,0.999537,0.987641,0.004234,0.382553,0.000014,0.000000,-0.000011,0.000020,-0.000006,-29.178763,0.000020,
2311,2428,1.18232048345378,-4.72805451872068,-0.00673740660158728,0.002110,-0.000457,0.002005,0.089837,-0.002478,324.126021,23.792338,0.999611,0.990123,0.004098,0.377958,0.000016,0.000004,-0.000003,0.000017,0.000003,-14.615147,0.000021,
2086,3103,-3.82220345464422,9.94901110920653,0.0242623997538658,0.001965,-0.000346,0.003314,0.080990,0.001713,314.065971,24.370221,0.999766,0.994047,0.003079,0.388831,0.000008,0.000010,0.000017,0.000026,-0.000008,47.486232,0.000026,
2386,2773,2.7492706199522,2.80010245324225,-0.020534423734091,0.001838,-0.000793,0.005362,0.064887,-0.010723,318.383429,24.550983,0.999366,0.989080,0.004091,0.413698,-0.000003,0.000030,-0.000001,0.000030,-0.000003,-87.705667,0.000033,
2431,3043,3.67795952734082,8.67442964371729,0.00379553754481776,0.002086,-0.000399,0.002158,0.087826,0.003384,314.250211,25.532337,0.999491,0.989262,0.004028,0.364217,0.000007,0.000038,0.000026,0.000052,-0.000007,60.419292,0.000057,
2131,1993,-2.66630719781577,-14.2545847545795,0.0268862848440108,0.001561,-0.000242,0.000379,0.070316,-0.003748,331.819050,24.152794,0.999100,0.981248,0.005300,0.276740,0.000063,-0.000052,0.000048,0.000080,-0.000069,19.895379,0.000087,
2206,2098,-1.04754573922559,-11.9530746904045,0.0195575170868665,0.001803,-0.000714,0.002927,0.073138,-0.028980,329.826077,23.707337,0.999107,0.981770,0.005326,0.310595,0.000007,0.000009,0.000005,0.000014,0.000003,50.987983,0.000018,
2491,2098,5.18072038093599,-11.960875075089,0.0427044769672307,0.002114,-0.000553,0.002183,0.088063,-0.026756,330.072839,22.008161,0.999659,0.984164,0.004926,0.284345,-0.000006,0.000057,-0.000030,0.000069,-0.000018,-67.866196,0.000071,
2011,3148,-5.45383330837075,10.9180437324398,0.0289356572514521,0.002231,-0.000252,0.000948,0.100412,0.002929,313.831693,24.011239,0.999679,0.993908,0.003251,0.420182,0.000000,0.000059,0.000016,0.000063,-0.000005,75.458648,0.000070,
2236,2293,-0.427961945044768,-7.68056648758116,-0.00532144560133929,0.002086,-0.000250,-0.000812,0.098248,-0.028153,326.432454,23.782375,0.999210,0.985806,0.004636,0.365222,0.000004,-0.000012,-0.000008,0.000007,-0.000015,-21.971988,0.000015,
2176,2128,-1.70768771238497,-11.294506936051,0.0171980833085854,0.001548,-0.001418,0.007277,0.048006,-0.024789,329.386550,23.934316,0.999056,0.980914,0.005388,0.299203,0.000026,0.000004,0.000020,0.000038,-0.000008,30.430163,0.000040,
2206,2353,-1.09204642755136,-6.36940067065888,0.00230670171595193,0.001867,-0.000672,0.004023,0.072752,-0.007290,325.574226,23.968121,0.999658,0.989973,0.004143,0.397962,0.000011,-0.000008,-0.000004,0.000011,-0.000009,-11.346262,0.000012,
2026,2983,-5.1053977460088,7.34335855597328,0.0046010440002533,0.001776,-0.000231,0.003093,0.073349,-0.000224,316.193158,24.224942,0.999287,0.992121,0.003656,0.385745,0.000008,-0.000037,-0.000002,0.000008,-0.000037,-2.963112,0.000039,
2041,2773,-4.74979633634781,2.78501602173954,-0.0244622106990278,0.001637,-0.000771,0.005920,0.058745,-0.003747,319.255375,24.379778,0.999102,0.990367,0.004064,0.379476,-0.000001,0.000012,-0.000009,0.000016,-0.000006,-62.339314,0.000017,
2131,2008,-2.66811553652153,-13.9269658302653,0.0312580465516135,0.001808,-0.000468,-0.000093,0.082963,-0.013371,331.628269,24.080473,0.999196,0.984376,0.005158,0.348421,0.000044,-0.000051,0.000044,0.000062,-0.000068,21.449153,0.000075,
2116,3148,-3.17913078454407,10.9267548074042,0.0252117724204481,0.002062,-0.000141,0.004732,0.081131,0.021108,313.192732,24.466094,0.999729,0.995474,0.002893,0.435399,-0.000002,0.000014,0.000007,0.000016,-0.000005,68.926675,0.000017,
2041,2998,-4.78216835321996,7.66949131023872,0.0137414035600614,0.001838,-0.000748,0.007528,0.063630,0.000292,315.923424,24.290089,0.999182,0.990430,0.003894,0.353171,0.000006,-0.000023,-0.000008,0.000009,-0.000026,-14.405348,0.000026,
2011,3208,-5.46227256678275,12.2175129582396,0.0405185673488404,0.002300,-0.000080,-0.000255,0.106936,0.003674,312.955281,24.002725,0.999624,0.993626,0.003182,0.376309,-0.000010,0.000069,-0.000010,0.000071,-0.000011,-82.662915,0.000076,
2161,3268,-2.22427162154323,13.5306168465154,0.0227548464759479,0.001809,-0.000463,0.004987,0.068024,-0.002737,311.008076,24.732732,0.999678,0.994731,0.003090,0.408121,0.000006,0.000020,0.000004,0.000021,0.000005,74.214691,0.000028,
2296,2713,0.801084780233662,1.49097432077388,-0.0361256221146959,0.001904,-0.000307,0.002483,0.079041,0.006840,319.258452,24.378189,0.999759,0.993389,0.003447,0.429808,-0.000011,0.000019,-0.000003,0.000019,-0.000011,-84.160665,0.000019,
2221,2233,-0.743763452132828,-8.99533649465144,0.0129999072329952,0.001829,-0.000724,0.002020,0.077178,-0.032727,327.565420,23.783494,0.999051,0.983831,0.005053,0.335805,0.000002,0.000010,-0.000003,0.000010,0.000001,-73.400272,0.000013,
2026,3238,-5.14152616126145,12.8673499449668,0.0558058752891384,0.002078,-0.000342,0.001561,0.091633,0.003040,312.480800,24.042451,0.999650,0.994858,0.002962,0.387063,-0.000025,0.000054,-0.000019,0.000059,-0.000030,-77.328821,0.000059,
2446,3148,3.9848997656837,10.9545898723853,0.0231728975377337,0.002059,-0.000018,0.000628,0.092380,0.008287,312.721775,25.937437,0.999602,0.990802,0.003725,0.370802,0.000031,0.000019,0.000022,0.000048,0.000002,37.396218,0.000056,
2146,2023,-2.34396812881769,-13.5973585502052,0.0299826823372769,0.001632,-0.001002,0.006750,0.054083,-0.002583,331.289400,24.042721,0.998819,0.982740,0.005136,0.305628,0.000035,-0.000053,0.000032,0.000046,-0.000063,17.757610,0.000065,
2506,2248,5.47550107499811,-8.66908368901809,0.0202261070993472,0.002062,-0.000798,0.003907,0.078935,-0.016544,327.496381,22.470309,0.999033,0.981092,0.005458,0.380051,0.000014,-0.000035,0.000002,0.000014,-0.000035,2.104729,0.000035,
2101,3193,-3.51112405017514,11.8997542866517,0.0388363766936095,0.001791,-0.000455,0.005772,0.065605,-0.002982,312.627407,24.412733,0.999628,0.994391,0.003103,0.399841,-0.000006,0.000030,0.000000,0.000030,-0.000006,89.957688,0.000031,
2191,2038,-1.36456888015766,-13.2672813043206,0.0185886688382197,0.002034,-0.000500,0.002157,0.086291,-0.013188,330.835614,23.827797,0.999246,0.985899,0.004742,0.224914,0.000018,-0.000051,0.000018,0.000023,-0.000055,13.544754,0.000055,
2131,3133,-2.85147494202443,10.6025296151998,0.0306139401899372,0.001658,-0.000550,0.004589,0.062527,-0.009169,313.397959,24.568419,0.999683,0.995371,0.002994,0.362529,-0.000001,0.000008,0.000008,0.000013,-0.000006,59.959409,0.000013,
2071,3073,-4.14309666056177,9.29742405398937,0.0174067646530602,0.001834,-0.000646,0.002910,0.076130,-0.011408,314.572999,24.294496,0.999330,0.992250,0.003595,0.401833,0.000015,0.000003,0.000006,0.000017,0.000000,22.204514,0.000020,
2266,2428,0.201918896399761,-4.72860938743987,-0.00442796542228052,0.002162,-0.000379,0.002708,0.090166,0.013192,324.195621,23.929723,0.999247,0.988165,0.004404,0.381645,0.000006,0.000006,-0.000007,0.000013,-0.000001,-45.159926,0.000014,
2371,2743,2.42869525923614,2.14663485521256,-0.0259843621605,0.002227,-0.000859,0.002667,0.092485,-0.024434,318.845616,24.484085,0.999459,0.990307,0.003842,0.375621,-0.000007,0.000030,-0.000004,0.000030,-0.000007,-83.664731,0.000032,
2251,2323,-0.106246667883315,-7.02458963578327,-0.000979923279942341,0.001928,-0.000885,0.001199,0.084200,-0.038742,325.941127,23.804164,0.998830,0.982744,0.005240,0.321706,0.000002,-0.000013,-0.000011,0.000008,-0.000019,-27.301274,0.000019,
2356,2683,2.11345584736434,0.839333949471815,-0.0241432208898686,0.001935,-0.000454,0.002237,0.080847,0.003073,319.821216,24.360519,0.999551,0.990125,0.003940,0.365741,-0.000004,0.000029,-0.000014,0.000035,-0.000009,-69.393356,0.000036,
2461,3253,4.28933969060976,13.2344948420579,0.0185880521189006,0.001986,-0.000221,0.001789,0.084614,0.006515,310.980317,26.365886,0.999778,0.994209,0.003045,0.376856,0.000029,-0.000029,0.000000,0.000029,-0.000029,-0.387515,0.000034,
2146,3238,-2.54349109836481,12.8795383776811,0.0337407847112559,0.001793,-0.000447,0.003595,0.071715,-0.000210,311.653320,24.704778,0.999640,0.994411,0.003030,0.343368,-0.000002,0.000023,0.000003,0.000023,-0.000002,83.653220,0.000026,
2026,3088,-5.1202185051989,9.61994417373073,0.0281182740710619,0.001787,-0.000356,0.003410,0.072989,-0.001680,314.678912,24.229289,0.999574,0.994831,0.003131,0.305317,0.000003,0.000013,0.000026,0.000034,-0.000018,50.323737,0.000034,
2281,2758,0.467167173046672,2.46926704000873,-0.0248965591163142,0.001818,-0.000855,0.005089,0.066245,-0.015364,318.625881,24.490602,0.999433,0.989796,0.003941,0.378199,0.000000,0.000023,0.000004,0.000024,-0.000001,79.149275,0.000027,
2056,3073,-4.46838457929379,9.29654393097306,0.0143398773253693,0.001879,-0.000518,0.002673,0.079056,0.000613,314.634008,24.227331,0.999378,0.992510,0.003718,0.427607,0.000011,0.000001,0.000002,0.000011,0.000001,10.789987,0.000013,
2041,3013,-4.78526936020323,7.9958400955498,0.00837527883879829,0.001394,-0.000751,0.007385,0.043521,-0.004393,315.614016,24.332827,0.999287,0.991774,0.003850,0.297276,0.000003,-0.000004,0.000000,0.000003,-0.000004,1.415794,0.000004,
2311,2443,1.1800340936079,-4.40174531917319,0.00100542623846422,0.002037,-0.000446,0.002601,0.084446,0.000236,323.942946,23.767372,0.999537,0.989089,0.004263,0.439215,0.000018,-0.000005,-0.000005,0.000019,-0.000006,-12.473166,0.000019,
2176,2143,-1.70990041770051,-10.9661606102405,0.0207848178236532,0.001577,-0.001132,0.007370,0.049148,-0.007234,329.176364,23.940420,0.998885,0.980405,0.005438,0.325568,0.000022,0.000001,0.000016,0.000030,-0.000007,28.255844,0.000032,
2101,3208,-3.51299240917446,12.22511002364,0.0435758854133041,0.001956,-0.000492,0.003816,0.078951,-0.003403,312.434853,24.473990,0.999616,0.994306,0.003140,0.337912,-0.000004,0.000033,0.000003,0.000033,-0.000005,85.364539,0.000036,
2506,2263,5.47201452238144,-8.33927987747918,0.0151886932017646,0.002405,-0.001218,0.007095,0.082164,-0.010512,327.214254,22.577466,0.998819,0.977076,0.005751,0.342583,0.000007,-0.000041,-0.000006,0.000008,-0.000041,-7.284256,0.000044,
2011,2908,-5.41935930918299,5.71567372397179,-0.00629440254908786,0.002181,-0.000411,0.002005,0.095045,0.000198,317.439495,24.279232,0.999316,0.992901,0.003463,0.354606,0.000042,0.000006,0.000002,0.000042,0.000006,3.575696,0.000052,
2131,3148,-2.85386384240271,10.9274583178068,0.0348387305926394,0.001562,-0.000321,0.005689,0.054906,0.004193,313.180619,24.560764,0.999624,0.994251,0.003115,0.388073,-0.000002,0.000011,0.000008,0.000015,-0.000006,65.706092,0.000015,
2101,2983,-3.47888708236738,7.34822378522162,0.00458464842063222,0.001854,-0.000602,0.003621,0.074721,-0.001077,315.776315,24.435690,0.999601,0.993177,0.003346,0.375683,0.000003,0.000004,0.000003,0.000006,0.000000,52.013369,0.000008,
2026,3253,-5.14489134676206,13.1931755257279,0.0399570403596954,0.001810,0.000047,-0.001847,0.088682,-0.001655,312.099758,24.043825,0.999841,0.996307,0.002603,0.369742,-0.000022,0.000051,-0.000028,0.000060,-0.000031,-71.436211,0.000060,
2206,2113,-1.04985857104323,-11.6246467615045,0.0196728777116277,0.001961,-0.000675,0.002127,0.082945,-0.031991,329.595912,23.693731,0.998871,0.982583,0.005166,0.340880,0.000008,0.000007,0.000004,0.000011,0.000003,40.823545,0.000015,
2041,3073,-4.79268678180712,9.29492137501625,0.0255471350203038,0.002115,-0.000309,0.004353,0.085426,0.013011,314.822217,24.182672,0.999479,0.992691,0.003586,0.431036,0.000009,0.000002,0.000006,0.000013,-0.000001,29.915759,0.000014,
2146,2038,-2.34626865255818,-13.2664310288072,0.0172977929212834,0.002013,0.000262,-0.001923,0.098139,0.017770,330.986663,24.060937,0.999003,0.983458,0.005146,0.319543,0.000029,-0.000055,0.000027,0.000037,-0.000062,16.275331,0.000063,
2086,3118,-3.82457523516364,10.2743139669715,0.0256995965908118,0.001921,-0.000267,0.003223,0.079293,0.012873,313.831329,24.374140,0.999769,0.994409,0.002954,0.393969,0.000003,0.000013,0.000010,0.000020,-0.000003,57.764206,0.000021,
2161,2128,-2.03447243257151,-11.2938383297385,0.0113129755487194,0.001854,-0.000485,0.001205,0.081189,-0.012228,329.420935,23.984494,0.999445,0.981512,0.005234,0.347083,0.000018,0.000006,0.000016,0.000029,-0.000005,35.050073,0.000031,
2221,2428,-0.777403008166463,-4.73247115912698,0.00692388286284995,0.001977,0.000184,-0.000714,0.093134,-0.011000,324.384107,23.888645,0.999651,0.990624,0.003981,0.523442,0.000016,-0.000008,-0.000009,0.000019,-0.000011,-18.276443,0.000019,
2011,3223,-5.46479051804741,12.5430196901142,0.0379046427934782,0.002370,-0.000217,0.001598,0.105129,0.008554,312.686224,24.031810,0.999393,0.992966,0.003475,0.338833,-0.000010,0.000060,-0.000017,0.000064,-0.000014,-76.807874,0.000067,
2461,3268,4.28464948075161,13.5608643564215,-0.00110130340692649,0.002023,-0.000313,0.002810,0.082405,-0.002868,310.565857,26.416518,0.999811,0.994632,0.002881,0.369734,0.000036,-0.000030,0.000001,0.000036,-0.000030,1.299668,0.000038,
2116,3163,-3.18136128812163,11.2514137295563,0.0315539295305598,0.001820,-0.000476,0.003517,0.073470,0.002834,312.993304,24.481432,0.999564,0.993528,0.003348,0.403776,-0.000004,0.000029,0.000003,0.000029,-0.000004,85.433546,0.000031,
2191,2248,-1.40004258466022,-8.66640404018521,0.0106677319953974,0.002166,-0.000483,0.000846,0.096556,-0.014099,327.403256,23.944120,0.998680,0.983842,0.005209,0.351419,0.000006,0.000005,-0.000004,0.000009,0.000002,-42.421619,0.000012,
2236,2443,-0.454727013520479,-4.40028405973424,-0.00459255486549637,0.001925,-0.000764,0.006483,0.067135,-0.024971,323.983518,24.175928,0.999587,0.991747,0.003966,0.203479,0.000005,0.000002,-0.000010,0.000013,-0.000006,-41.266787,0.000013,
2236,2308,-0.430771979868588,-7.35172775800282,-0.00817794024499108,0.002080,-0.000176,-0.000971,0.098503,0.003490,326.166419,23.812631,0.998870,0.984747,0.004888,0.389923,0.000004,-0.000015,-0.000007,0.000006,-0.000017,-18.131036,0.000018,
2266,2443,0.19908984167181,-4.40023353857727,-0.00617337175305011,0.001817,-0.000300,-0.001701,0.088923,-0.025590,323.936995,24.045836,0.999640,0.989264,0.004173,0.253890,0.000005,0.000005,-0.000006,0.000011,-0.000002,-45.466452,0.000012,
2416,2983,3.36292799439822,7.36934259232295,-0.00531636213491993,0.002088,-0.000342,0.001045,0.092055,-0.007823,315.139456,25.230405,0.999861,0.994341,0.003231,0.418508,0.000002,0.000017,0.000011,0.000023,-0.000004,62.131061,0.000024,
2071,3088,-4.14586145379621,9.62230133666845,0.0188008080451709,0.001501,-0.000881,0.004880,0.054988,-0.030516,314.319236,24.281608,0.999310,0.991463,0.003696,0.391417,0.000013,0.000007,0.000010,0.000021,-0.000001,36.157449,0.000024,
2191,2053,-1.36739389644362,-12.9386469653346,0.0140521730530736,0.001970,-0.000437,0.001471,0.085543,-0.012105,330.556695,23.755293,0.999174,0.982856,0.005093,0.316658,0.000016,-0.000030,0.000023,0.000026,-0.000039,22.332623,0.000040,
2161,3283,-2.22686313408943,13.8556559887352,0.0229953845346813,0.001673,-0.000289,0.003659,0.065913,0.007683,310.762055,24.749074,0.999737,0.995103,0.002925,0.410635,0.000008,0.000033,0.000006,0.000035,0.000007,76.967561,0.000044,
2086,2998,-3.8063655019445,7.67268174839922,0.00791308054874662,0.001876,-0.000688,0.002535,0.078935,-0.021895,315.639092,24.424697,0.999573,0.993453,0.003285,0.324026,0.000001,0.000002,0.000005,0.000006,-0.000003,47.984423,0.000006,
2281,2488,0.516301277969561,-3.41973340332093,-0.00922058977005236,0.001536,-0.001516,0.011773,0.030676,-0.006460,323.104963,23.826715,0.999685,0.990947,0.003983,0.540100,0.000011,-0.000002,-0.000005,0.000013,-0.000004,-20.113472,0.000014,
2251,2548,-0.147265688107641,-2.10826900570819,-0.0194721493161865,0.002038,-0.000543,0.003122,0.083220,-0.000998,322.145800,24.145441,0.999745,0.993679,0.003393,0.390319,0.000009,0.000005,-0.000006,0.000014,0.000001,-36.023281,0.000016,
2131,2023,-2.67109007379227,-13.5953359753716,0.0215109723328055,0.002232,-0.001138,0.005417,0.085807,-0.022541,331.308697,24.218579,0.999151,0.984070,0.005225,0.210922,0.000033,-0.000047,0.000035,0.000046,-0.000060,20.492093,0.000063,
2011,3238,-5.4665513951395,12.8664746520998,0.0470883305424081,0.002308,-0.000358,0.000222,0.105969,0.001429,312.519262,23.954584,0.999563,0.993539,0.003353,0.395557,-0.000005,0.000057,-0.000033,0.000071,-0.000019,-66.887113,0.000073,
2026,3268,-5.14798653475788,13.5179935854443,0.030835276324467,0.001837,-0.000279,0.001863,0.079645,-0.003159,311.769199,23.992191,0.999828,0.996793,0.002529,0.408405,-0.000012,0.000037,-0.000032,0.000053,-0.000028,-63.718045,0.000053,
2266,2653,0.160374091788686,0.182514430216358,-0.0247797130463141,0.002262,-0.000611,0.002788,0.094502,-0.016111,320.383173,24.372877,0.999504,0.990217,0.004026,0.307563,0.000000,0.000018,0.000005,0.000019,-0.000001,76.292368,0.000021,
2296,2563,0.830354882271084,-1.78045150541318,-0.00962944024689705,0.002057,-0.000905,0.005114,0.076875,-0.011977,321.913976,24.149504,0.998923,0.987919,0.004768,0.333799,0.000001,-0.000001,-0.000012,0.000012,-0.000012,-43.048404,0.000014,
2371,2758,2.42543866931628,2.47420766001919,-0.0279060353664136,0.002003,-0.000475,0.002812,0.081848,-0.007442,318.574117,24.574319,0.999153,0.987141,0.004192,0.343745,-0.000003,0.000037,-0.000001,0.000037,-0.000003,-89.034965,0.000041,
2326,2488,1.49832411488391,-3.41773023751152,-0.00391506579410361,0.002135,-0.000426,0.002616,0.088790,-0.006384,323.168842,23.878622,0.999436,0.987673,0.004249,0.388786,0.000016,-0.000003,-0.000012,0.000022,-0.000009,-26.636206,0.000022,
2401,2848,3.06207257418776,4.43321546086507,-0.0139516193470968,0.002148,-0.000716,0.004752,0.081190,-0.011722,317.244598,24.807536,0.999453,0.990300,0.003985,0.391994,-0.000013,0.000024,-0.000007,0.000025,-0.000014,-79.878858,0.000025,
2386,2788,2.74623730426802,3.12790122083601,-0.0258546875151637,0.001951,-0.000522,0.003166,0.078031,-0.016139,318.107128,24.666978,0.999650,0.992020,0.003675,0.335660,-0.000002,0.000024,-0.000003,0.000024,-0.000002,-84.175781,0.000026,
2056,3148,-4.47876816933339,10.9213063579389,0.0364777657574109,0.001944,-0.000344,0.001519,0.085383,0.004728,313.601802,24.226665,0.999497,0.993942,0.003183,0.399929,-0.000004,0.000032,0.000008,0.000033,-0.000005,78.286470,0.000036,
2116,3178,-3.18328103933839,11.5760191893029,0.038085184698275,0.001887,-0.000346,0.002440,0.079716,-0.005814,312.809194,24.486291,0.999554,0.992772,0.003388,0.392603,-0.000004,0.000029,0.000003,0.000029,-0.000004,84.971642,0.000032,
2206,2128,-1.05255800517537,-11.2954899500791,0.0196873256770118,0.001780,-0.000366,0.001837,0.075691,-0.012751,329.347316,23.728741,0.998923,0.982304,0.005213,0.345098,0.000009,0.000003,0.000004,0.000012,0.000001,27.837033,0.000014,
2011,3253,-5.46919137221505,13.1919267273814,0.0455555551725411,0.002052,0.000025,-0.000365,0.095844,0.014016,312.250777,23.984404,0.999854,0.995988,0.002674,0.364956,0.000006,0.000059,-0.000045,0.000084,-0.000019,-60.338637,0.000088,
2086,3133,-3.82671432452825,10.5991437311069,0.0307592898825533,0.001929,-0.000342,0.003866,0.077733,0.002207,313.627349,24.382180,0.999739,0.994001,0.002984,0.373086,0.000002,0.000015,0.000009,0.000020,-0.000003,62.363692,0.000021,
2341,2548,1.81333426267661,-2.10711658941142,-0.00837860213505337,0.002002,-0.000623,0.004483,0.076079,0.011908,322.141740,23.982496,0.998957,0.983921,0.004893,0.421012,0.000007,0.000001,-0.000012,0.000016,-0.000008,-37.184287,0.000016,
2101,3223,-3.515067091413,12.5492680862038,0.0471286016042995,0.002077,-0.000618,0.003232,0.086215,-0.011933,312.226866,24.429338,0.999647,0.994236,0.003143,0.374128,-0.000005,0.000034,0.000002,0.000035,-0.000005,86.543808,0.000037,
2026,3103,-5.12239876166162,9.94438473420984,0.0287116814370734,0.001873,-0.000476,0.003019,0.078027,-0.005745,314.444641,24.158203,0.999548,0.994380,0.003242,0.361650,0.000001,0.000024,0.000038,0.000052,-0.000027,53.492075,0.000052,
2071,2908,-4.11887606223305,5.71951332898038,-0.0113795233379506,0.001806,-0.000359,0.005743,0.066804,0.016207,317.009278,24.384973,0.999488,0.992795,0.003559,0.382196,0.000022,0.000007,-0.000003,0.000023,0.000006,-12.146969,0.000030,
2191,2263,-1.40355932731206,-8.33687259883262,0.00270894512971154,0.001731,-0.000257,0.001024,0.076157,-0.002999,327.074466,23.988343,0.998850,0.982165,0.005318,0.335540,0.000006,0.000007,-0.000006,0.000012,0.000001,-46.980434,0.000015,
2161,2143,-2.03716676693634,-10.965394696226,0.010760927992294,0.001770,-0.000605,0.003036,0.071714,-0.021146,329.165984,23.981663,0.999411,0.972131,0.006066,0.354260,0.000014,0.000005,0.000010,0.000021,-0.000002,33.290880,0.000023,
2191,2068,-1.37054379965346,-12.6103357344258,0.00953385705867049,0.001784,-0.000986,0.003720,0.069849,-0.054085,330.263280,23.702633,0.999434,0.984187,0.005076,0.345428,0.000016,-0.000009,0.000024,0.000031,-0.000024,30.997859,0.000032,
2221,2443,-0.780357319692886,-4.40278901385171,0.000691211530920555,0.002341,-0.000958,0.003190,0.096977,-0.026945,324.092600,24.057991,0.999218,0.988107,0.004510,0.358726,0.000015,-0.000003,-0.000007,0.000017,-0.000006,-19.134345,0.000018,
2041,3088,-4.79557452526846,9.62103418018926,0.0208866099675333,0.001952,-0.000767,0.005837,0.073631,0.000376,314.526675,24.237297,0.999628,0.994393,0.003120,0.355063,0.000006,0.000009,0.000012,0.000020,-0.000005,48.805845,0.000021,
2131,2038,-2.67402698464354,-13.2670238478351,0.0189276055969003,0.001943,-0.000964,0.007018,0.067809,0.005472,331.029141,24.104829,0.999222,0.984108,0.005289,0.362236,0.000027,-0.000048,0.000030,0.000037,-0.000059,19.216537,0.000059,
2266,2458,0.195680605881652,-4.07095479699027,-0.0203817243311164,0.002245,-0.000324,0.000085,0.102672,-0.004662,323.588817,24.074537,0.999721,0.990692,0.004019,0.273395,0.000006,0.000001,-0.000005,0.000009,-0.000002,-30.603484,0.000009,
2086,3013,-3.80873557887405,7.99780312063785,0.007884237997132,0.001955,-0.000255,0.003157,0.080930,0.001209,315.396491,24.364007,0.999663,0.993758,0.003133,0.406054,0.000003,0.000010,0.000008,0.000015,-0.000002,56.815488,0.000017,
2056,1993,-4.30228004511577,-14.2537009316187,0.0288182123389902,0.001583,-0.000824,0.003326,0.063009,-0.018182,332.185496,24.611631,0.998901,0.981557,0.005365,0.329299,0.000091,-0.000022,0.000073,0.000126,-0.000058,26.098814,0.000126,
2056,3088,-4.47079212114255,9.62179180732111,0.0180012303706008,0.001663,-0.000749,0.003381,0.066957,-0.017993,314.408014,24.262269,0.999440,0.992697,0.003512,0.367704,0.000009,0.000007,0.000008,0.000016,0.000001,41.066372,0.000018,
2011,3268,-5.47157107058245,13.5157994380562,0.0489723232544179,0.001944,-0.000194,0.002092,0.084152,0.011152,312.022821,23.915285,0.999835,0.995955,0.002714,0.417732,0.000023,0.000047,-0.000052,0.000089,-0.000018,-51.668668,0.000093,
2026,3283,-5.1497247635267,13.8424656559078,0.0404454068921609,0.002004,-0.000487,0.003973,0.081537,-0.000506,311.606055,24.011255,0.999767,0.996493,0.002628,0.380812,0.000002,0.000040,-0.000034,0.000060,-0.000017,-59.827581,0.000062,
2281,2773,0.464942321297432,2.79557904524763,-0.0186203643961562,0.001733,-0.000603,0.003527,0.067738,0.005058,318.435695,24.528859,0.999291,0.988695,0.004166,0.388207,0.000001,0.000014,-0.000001,0.000014,0.000001,-85.310398,0.000017,
2161,3298,-2.22941424626912,14.1806327299109,0.0195784398809451,0.001838,-0.000097,0.002555,0.076860,-0.008702,310.498544,24.770349,0.999839,0.996419,0.002537,0.381509,0.000014,0.000047,0.000000,0.000047,0.000014,-89.792670,0.000063,
2491,2113,5.17761632631694,-11.6326091131011,0.0457172648332289,0.001798,-0.000299,0.001636,0.075838,-0.004982,329.843842,21.988391,0.999669,0.984264,0.004904,0.387800,-0.000006,0.000053,-0.000022,0.000060,-0.000013,-71.831638,0.000063,
2041,3028,-4.78703182322855,8.31971750925792,0.0133774335890848,0.001655,-0.000867,0.007231,0.055924,-0.011947,315.424514,24.224587,0.999413,0.991723,0.003894,0.389625,0.000002,-0.000005,0.000001,0.000002,-0.000005,8.050041,0.000005,
2041,2788,-4.75176457663485,3.11143390443334,-0.0221682409473374,0.001783,-0.000658,0.005042,0.067952,0.005280,319.040108,24.407579,0.999190,0.989143,0.004063,0.352821,-0.000004,0.000019,-0.000004,0.000020,-0.000005,-79.467957,0.000020,
2176,2158,-1.7156009800307,-10.6311811189882,-0.0249517951689882,0.001475,-0.000841,0.007233,0.045017,0.009241,328.548567,24.031766,0.999454,0.958855,0.006900,0.267890,0.000020,-0.000003,0.000005,0.000021,-0.000004,10.893197,0.000023,
2116,3193,-3.18579604811527,11.9013486502602,0.0380245017313428,0.001910,-0.000279,0.003265,0.078397,0.004333,312.561930,24.503455,0.999595,0.993078,0.003474,0.387652,-0.000004,0.000026,0.000000,0.000026,-0.000004,-89.602215,0.000028,
2431,3058,3.67491236821651,9.00059304397304,0.00426409547003459,0.001915,-0.000518,0.001409,0.082676,-0.007157,314.003251,25.622733,0.999655,0.990636,0.003879,0.312506,0.000005,0.000031,0.000025,0.000047,-0.000010,58.889807,0.000049,
2311,2458,1.17624225394313,-4.07302237934587,-0.00761261124347357,0.001706,-0.000496,0.003366,0.066663,0.011712,323.609961,23.806741,0.999493,0.988346,0.004376,0.445112,0.000013,-0.000004,-0.000003,0.000013,-0.000004,-10.572254,0.000014,
2011,3283,-5.47419442040565,13.8404923396402,0.0456512419950741,0.001946,-0.000504,0.003704,0.079794,0.010557,311.745386,23.886022,0.999789,0.996395,0.002661,0.432747,0.000041,0.000061,-0.000059,0.000111,-0.000008,-49.937055,0.000123,
2206,2143,-1.05511977646197,-10.9656388962069,0.0190169966989515,0.001904,-0.000434,0.003128,0.077257,-0.013336,329.101469,23.844830,0.999308,0.984851,0.004849,0.247962,0.000005,0.000001,0.000004,0.000008,-0.000002,31.152718,0.000008,
2101,2998,-3.48118839518288,7.67469067547712,-0.00412167814710074,0.002131,-0.000052,-0.002817,0.106483,-0.006931,315.490488,24.465242,0.999582,0.993812,0.003273,0.341161,0.000000,0.000006,0.000009,0.000012,-0.000006,54.588342,0.000012,
2236,2323,-0.433716252418574,-7.02408541879307,-0.00901512828806972,0.002045,-0.000616,0.002455,0.085703,-0.006279,325.904853,23.800406,0.998788,0.986047,0.004780,0.415448,0.000004,-0.000017,-0.000006,0.000006,-0.000018,-15.366807,0.000019,
2206,2368,-1.09495872946448,-6.04087658982654,-0.00132198279840168,0.001830,-0.000819,0.004945,0.068115,-0.001564,325.296918,24.008103,0.999504,0.988574,0.004349,0.382356,0.000008,0.000005,-0.000004,0.000011,0.000001,-34.678958,0.000014,
2146,2053,-2.34875140679318,-12.938821937549,0.0218036089972315,0.001637,-0.000233,-0.001988,0.080968,-0.010419,330.767051,24.024346,0.998866,0.982506,0.005203,0.338916,0.000024,-0.000027,0.000029,0.000037,-0.000040,24.005951,0.000044,
2251,2338,-0.108819802389664,-6.69612898012427,-0.00605101655611406,0.002100,-0.000719,-0.002400,0.103906,-0.077543,325.676411,23.858824,0.999125,0.984164,0.005023,0.253508,0.000007,-0.000004,-0.000010,0.000012,-0.000010,-29.653363,0.000013,
2191,2278,-1.4058548493572,-8.00918942603447,0.0049637666006106,0.001948,-0.000975,0.003123,0.079299,-0.038809,326.854980,24.019949,0.998820,0.981337,0.005403,0.284713,0.000006,-0.000003,-0.000012,0.000014,-0.000011,-33.804587,0.000015,
2176,1993,-1.68274940692464,-14.2579291761131,0.0438763542634319,0.002224,-0.000730,0.004881,0.086614,-0.021453,331.814675,23.856072,0.999233,0.982346,0.005253,0.238413,0.000074,-0.000044,0.000041,0.000086,-0.000057,17.372702,0.000088,
2131,3163,-2.85602228766745,11.2523812600285,0.0341865855494348,0.001801,-0.000499,0.003462,0.072532,-0.013033,312.947769,24.557013,0.999492,0.992139,0.003515,0.378838,-0.000005,0.000026,0.000004,0.000026,-0.000005,81.935442,0.000028,
2461,3283,4.28147497838098,13.8862041388617,-0.00274607416827166,0.002218,-0.000366,0.005416,0.081475,-0.004997,310.304456,26.469347,0.999666,0.991805,0.003499,0.367668,0.000047,-0.000042,-0.000002,0.000047,-0.000042,-1.154892,0.000052,
2446,3163,3.98220708340812,11.2801090163247,0.0279527605014209,0.002028,-0.000145,0.001300,0.088410,0.006541,312.511820,26.011822,0.999619,0.991131,0.003831,0.345753,0.000029,0.000016,0.000019,0.000043,0.000002,35.664593,0.000050,
2416,2998,3.36020811236307,7.69528755635731,-0.00130255299626469,0.002146,-0.000694,0.002906,0.087726,-0.020222,314.923465,25.310740,0.999562,0.989563,0.003931,0.372700,0.000003,0.000018,0.000012,0.000025,-0.000004,60.767807,0.000027,
2401,2863,3.0591426754276,4.76038849611547,-0.0165456738715761,0.002223,-0.000399,0.003172,0.090511,-0.000152,316.987018,24.892820,0.999412,0.990384,0.003909,0.363597,-0.000014,0.000020,-0.000006,0.000021,-0.000015,-80.824725,0.000022,
2011,3298,-5.47662520763841,14.1657486509342,0.0382905213355116,0.002059,-0.000088,-0.000120,0.095409,-0.006600,311.453790,23.907551,0.999357,0.993403,0.003468,0.380723,0.000047,0.000098,-0.000059,0.000137,0.000009,-56.693084,0.000163,
2131,2053,-2.67637706207319,-12.9378945998064,0.020969146115533,0.001695,-0.001023,0.004668,0.063454,-0.028292,330.801159,24.184335,0.998687,0.980853,0.005498,0.257976,0.000023,-0.000021,0.000031,0.000039,-0.000037,27.673102,0.000044,
2071,2923,-4.12031726386147,6.04426423788112,-0.00655225047876229,0.002162,-0.000570,0.001337,0.095707,-0.009821,316.834922,24.349738,0.999423,0.992042,0.003659,0.387784,0.000014,0.000003,0.000000,0.000014,0.000003,-2.283937,0.000018,
2236,2458,-0.457333031060397,-4.07340907853894,-0.00507950184476158,0.001693,-0.000493,0.002634,0.069042,-0.014249,323.739042,24.121509,0.999470,0.989824,0.004241,0.291238,0.000007,-0.000001,-0.000008,0.000012,-0.000006,-30.430023,0.000012,
2356,2698,2.11075902169641,1.16447765630988,-0.0169508707909358,0.001817,-0.000968,0.006093,0.061654,-0.008302,319.618993,24.311444,0.999518,0.991293,0.003771,0.442536,-0.000003,0.000031,-0.000011,0.000034,-0.000006,-73.823406,0.000036,
2041,3043,-4.78895955194508,8.64479736401362,0.0173090068649913,0.001712,-0.000782,0.005296,0.064029,-0.003201,315.221059,24.207023,0.999659,0.994680,0.003143,0.407502,0.000002,-0.000013,-0.000002,0.000003,-0.000013,-8.355014,0.000014,
2041,2803,-4.7538845777636,3.43720371952377,-0.0230221604304575,0.001948,-0.000552,0.003844,0.078890,-0.004672,318.800695,24.374744,0.999348,0.990939,0.003741,0.368346,0.000001,0.000013,-0.000001,0.000013,0.000001,-84.409611,0.000016,
2056,2008,-4.3041328959412,-13.9253791689288,0.0372042972900886,0.001722,-0.001346,0.007816,0.056621,-0.019828,332.008749,24.639319,0.998927,0.982690,0.005327,0.297951,0.000080,-0.000023,0.000061,0.000108,-0.000051,24.826632,0.000108,
2386,2803,2.74323613903196,3.45432659077346,-0.0330430587106889,0.002227,-0.000485,0.000859,0.099059,-0.012332,317.823676,24.638318,0.999849,0.995605,0.003192,0.411409,-0.000004,0.000017,-0.000003,0.000018,-0.000005,-81.170624,0.000019,
2041,3103,-4.79770366299753,9.94562342984211,0.0252342329399085,0.001794,-0.000466,0.003976,0.071629,0.002680,314.316591,24.197989,0.999674,0.994746,0.003022,0.388074,0.000004,0.000017,0.000023,0.000035,-0.000013,52.755793,0.000035,
2296,2728,0.799021152802101,1.81675902778071,-0.0260299294919264,0.001995,-0.000824,0.004680,0.075573,-0.017562,319.095865,24.432296,0.999608,0.991470,0.003733,0.381037,-0.000009,0.000015,-0.000002,0.000015,-0.000009,-85.541190,0.000015,
2146,3253,-2.54620634458087,13.204683875306,0.0259440097381685,0.002076,-0.000318,0.002822,0.087155,0.000536,311.357774,24.687254,0.999632,0.993914,0.003134,0.368148,0.000001,0.000020,0.000003,0.000021,0.000000,82.591748,0.000024,
2086,3148,-3.82876104671445,10.9239148083298,0.0379656534699393,0.001836,-0.000231,0.003558,0.074390,0.011690,313.439355,24.380957,0.999795,0.995608,0.002772,0.381656,-0.000001,0.000020,0.000007,0.000022,-0.000003,72.906817,0.000024,
2431,3073,3.67200879656243,9.32533681992399,0.00476453962704682,0.001987,-0.000569,0.002004,0.083741,-0.013633,313.763400,25.582352,0.999699,0.992239,0.003577,0.395402,0.000009,0.000036,0.000024,0.000050,-0.000005,59.304498,0.000055,
2026,3118,-5.12490637555488,10.2701765736135,0.0280906067055753,0.001805,-0.000242,0.004223,0.071651,0.009031,314.188052,24.189041,0.999680,0.994620,0.003110,0.334446,0.000000,0.000039,0.000028,0.000054,-0.000015,62.262562,0.000056,
2371,2773,2.42293783463955,2.80008871542597,-0.0220163025809939,0.001948,-0.000510,0.003296,0.077614,-0.005618,318.375113,24.590035,0.999493,0.990493,0.003772,0.370737,-0.000004,0.000028,-0.000005,0.000029,-0.000005,-81.760922,0.000030,
2221,2248,-0.746421131306189,-8.66605657168476,0.00102585667514177,0.002316,0.000182,-0.001798,0.112031,-0.003071,327.258465,23.739436,0.999035,0.983280,0.005091,0.431122,0.000002,0.000003,0.000002,0.000005,0.000000,51.265946,0.000006,
2071,3103,-4.1472871758288,9.94737583876062,0.0297758698833377,0.001786,-0.000524,0.004828,0.068449,-0.005985,314.179435,24.307197,0.999578,0.993140,0.003292,0.386072,0.000013,0.000012,0.000018,0.000030,-0.000005,44.326358,0.000032,
2266,2668,0.15752119044549,0.508902504809804,-0.0272428539576026,0.002157,-0.000508,0.001270,0.094772,-0.010888,320.119546,24.331812,0.999500,0.991395,0.003865,0.379970,0.000001,0.000020,0.000000,0.000020,0.000001,-88.703412,0.000024,
2461,3298,4.27886215355157,14.2113406695656,-0.00319801403531983,0.002296,-0.000138,0.001000,0.101893,0.000794,310.074433,26.505727,0.999590,0.993330,0.003422,0.389989,0.000046,-0.000058,-0.000004,0.000046,-0.000058,-2.453206,0.000061,
2311,2473,1.17398739375751,-3.74555875336671,-0.00495274203956342,0.001922,-0.000671,0.002189,0.080498,-0.017480,323.403182,23.881241,0.999295,0.986489,0.004557,0.374814,0.000015,-0.000004,-0.000006,0.000017,-0.000005,-15.104387,0.000017,
2026,3298,-5.1525594235409,14.1674469029084,0.0361320676973946,0.001774,-0.000191,0.003782,0.071542,0.012865,311.314369,23.994230,0.999450,0.994284,0.003194,0.399940,0.000001,0.000079,-0.000034,0.000092,-0.000012,-69.350285,0.000100,
2326,2503,1.49436881484237,-3.08909824605989,-0.0113485750871973,0.001695,-0.000893,0.004766,0.061064,0.005313,322.835477,23.937289,0.999373,0.987793,0.004217,0.377759,0.000011,-0.000003,-0.000014,0.000019,-0.000012,-31.560872,0.000019,
2206,2383,-1.09788837630901,-5.71255503940718,-0.00575372635159965,0.001777,-0.000559,0.005114,0.065218,-0.000898,325.014707,24.032420,0.999241,0.986626,0.004556,0.377233,0.000007,0.000002,-0.000005,0.000011,-0.000001,-32.402997,0.000012,
2281,2503,0.513988539903369,-3.08909637896805,-0.0149650923279978,0.001884,-0.000702,0.005236,0.068793,0.001524,322.850547,24.087533,0.999689,0.992026,0.003830,0.316140,0.000009,0.000002,-0.000007,0.000014,-0.000003,-31.936420,0.000015,
2176,2173,-1.71993976595288,-10.2974108816136,-0.0625528116410123,0.001905,-0.000508,0.003026,0.077887,0.005468,328.025562,24.130825,0.999827,0.924215,0.008991,0.181414,0.000021,-0.000010,0.000000,0.000021,-0.000010,0.173619,0.000021,
2266,2473,0.193342664931805,-3.74587944009009,-0.00836802175172124,0.001867,-0.000441,0.002430,0.077563,0.008420,323.422108,23.974686,0.999749,0.991730,0.003887,0.412900,0.000011,0.000002,-0.000002,0.000011,0.000002,-14.757234,0.000014,
2161,2158,-2.04231573899111,-10.629433415747,-0.0303726931578012,0.001949,-0.000650,0.004243,0.076241,-0.001586,328.584505,24.208937,0.999864,0.944998,0.008351,0.161294,0.000014,-0.000002,-0.000002,0.000014,-0.000002,-5.339046,0.000016,
2296,2578,0.827677709650079,-1.45299438607124,-0.0143787681403182,0.002106,-0.000575,0.000293,0.095551,-0.016025,321.649652,24.166031,0.999260,0.989769,0.004201,0.343998,0.000002,0.000000,-0.000009,0.000010,-0.000008,-42.501559,0.000011,
2251,2563,-0.149625328954805,-1.7817472614166,-0.0167798514699484,0.002184,-0.000584,0.003832,0.087596,0.001195,321.929813,24.130397,0.999571,0.991567,0.003753,0.431766,0.000008,-0.000001,-0.000007,0.000012,-0.000006,-28.855532,0.000012,
2356,2713,2.10789130218817,1.49262740625863,-0.0199209900526967,0.001949,-0.000633,0.005092,0.071381,-0.000529,319.359171,24.440459,0.999492,0.991509,0.003698,0.360400,-0.000004,0.000028,-0.000009,0.000030,-0.000007,-75.926984,0.000032,
2191,2293,-1.40872894546532,-7.68144553392909,0.00665702225370524,0.001602,-0.001243,0.004905,0.057745,-0.023705,326.605860,24.005627,0.998893,0.982700,0.005228,0.330642,0.000006,-0.000011,-0.000009,0.000010,-0.000015,-23.675710,0.000015,
2236,2473,-0.459694538906401,-3.7473867175195,-0.00178340846508718,0.001730,-0.000283,0.002976,0.069741,0.008136,323.525127,24.017175,0.999519,0.990731,0.004058,0.440245,0.000011,0.000001,-0.000002,0.000012,0.000000,-11.588021,0.000014,
2476,1993,4.87484827755628,-14.2666794671173,0.0442289524637545,0.002655,-0.000286,0.001393,0.115909,-0.007112,331.765197,21.715122,0.998482,0.970788,0.006468,0.267873,-0.000009,0.000010,0.000015,0.000018,-0.000017,61.771652,0.000020,
2491,2128,5.17526427790005,-11.3042174852443,0.0527774817938393,0.002115,-0.000408,0.003641,0.082625,0.015808,329.667397,22.029732,0.999607,0.987858,0.004571,0.428933,-0.000001,0.000045,-0.000011,0.000047,-0.000003,-76.871885,0.000053,
2056,3103,-4.47240135818356,9.94650022647018,0.0273694780896108,0.001864,-0.000523,0.003604,0.075775,0.008316,314.250366,24.242050,0.999444,0.992423,0.003514,0.407859,0.000010,0.000014,0.000017,0.000029,-0.000006,48.328403,0.000031,
2191,2083,-1.37217156951842,-12.2803098735509,0.0150602373069546,0.002215,-0.000704,0.002558,0.093313,-0.028472,330.090783,23.855249,0.999349,0.983630,0.005157,0.235872,0.000018,0.000006,0.000019,0.000032,-0.000008,36.035749,0.000033,
2146,3268,-2.54877624429339,13.5297518104331,0.0234705645220288,0.002130,-0.000277,0.001679,0.093115,-0.002652,311.097278,24.700638,0.999663,0.994548,0.003045,0.358083,0.000004,0.000027,0.000004,0.000028,0.000004,80.480964,0.000034,
2176,2008,-1.68639741054076,-13.926677160732,0.0221600299705074,0.002222,-0.000230,0.000457,0.100289,-0.000943,331.406890,23.788030,0.999188,0.984430,0.005012,0.343928,0.000052,-0.000052,0.000039,0.000065,-0.000065,18.211217,0.000075,
2056,3163,-4.48118354496346,11.2461355033406,0.0389945716828493,0.001961,-0.000698,0.004845,0.076656,-0.010207,313.369388,24.229266,0.999567,0.992764,0.003387,0.375770,-0.000010,0.000047,-0.000002,0.000047,-0.000010,-87.578032,0.000050,
2386,2818,2.74045401558522,3.78089348462241,-0.0303972109086885,0.002139,-0.000435,0.000933,0.094823,-0.002997,317.596907,24.697503,0.999697,0.992292,0.003694,0.404967,-0.000006,0.000023,-0.000003,0.000024,-0.000007,-84.480627,0.000024,
2026,1993,-4.95591119375051,-14.252135298032,0.0311433545756472,0.001739,0.000101,0.000398,0.078696,0.003934,332.392799,24.896036,0.998970,0.982941,0.005269,0.276533,0.000048,-0.000035,0.000078,0.000095,-0.000081,30.934353,0.000102,
2041,1993,-4.6294863208514,-14.2528956347201,0.0255721662794599,0.001609,-0.000829,0.002733,0.065965,-0.010448,332.245724,24.708871,0.998974,0.982781,0.005267,0.344868,0.000082,-0.000023,0.000080,0.000125,-0.000066,28.394269,0.000125,
2026,3133,-5.12691295694134,10.5949397995696,0.0297278916933124,0.001884,-0.000190,0.001774,0.082155,0.020753,313.967504,24.146076,0.999599,0.993960,0.003258,0.378466,-0.000002,0.000049,0.000024,0.000058,-0.000012,68.367301,0.000062,
2416,3013,3.35721149764745,8.02167876072414,-0.000261784585177338,0.001977,-0.000520,0.002438,0.081800,-0.011603,314.680577,25.394842,0.999446,0.987417,0.004160,0.343994,0.000004,0.000016,0.000014,0.000025,-0.000006,56.776869,0.000027,
2251,2353,-0.111469578189006,-6.36917439788254,0.00611985550142435,0.001597,-0.000728,0.002963,0.063337,-0.020475,325.495029,23.854488,0.999099,0.985259,0.004961,0.339903,0.000008,0.000001,-0.000007,0.000012,-0.000003,-31.805350,0.000013,
2101,3238,-3.51758086423407,12.8744182405072,0.0412096367714412,0.002307,-0.000458,0.001715,0.101343,-0.009055,311.946914,24.414499,0.999707,0.994601,0.003000,0.391762,-0.000005,0.000030,0.000000,0.000030,-0.000005,-89.231167,0.000032,
2041,3058,-4.79038072151093,8.96943135694862,0.0265426447045343,0.002124,-0.000833,0.006138,0.080694,0.000489,315.070508,24.191307,0.999695,0.994503,0.003127,0.418427,0.000005,-0.000006,0.000003,0.000005,-0.000007,12.698718,0.000007,
2041,2818,-4.75610530312563,3.76284883356217,-0.0215852172962059,0.001846,-0.000522,0.002176,0.078907,-0.003704,318.569414,24.341540,0.999270,0.990876,0.003843,0.394779,-0.000003,0.000016,-0.000002,0.000016,-0.000003,-85.009557,0.000017,
2236,2338,-0.43594889200013,-6.69589753282827,-0.00252346431051365,0.001935,-0.000345,0.002029,0.082114,-0.020735,325.712998,23.919950,0.999100,0.986359,0.004718,0.304403,0.000006,-0.000008,-0.000005,0.000008,-0.000009,-17.607567,0.000010,
2206,2158,-1.05813548665718,-10.6378905579373,0.0149066349543432,0.001620,-0.000505,0.001895,0.068127,-0.020099,328.817495,23.744105,0.999157,0.985390,0.004908,0.361565,0.000006,0.000002,-0.000001,0.000006,0.000001,-8.308735,0.000008,
2146,3283,-2.55223124218977,13.8550857277072,0.0164906972324843,0.001847,-0.000379,0.004298,0.072151,0.005891,310.771974,24.706491,0.999664,0.994417,0.003066,0.366919,0.000004,0.000040,0.000006,0.000041,0.000003,80.453088,0.000050,
2056,2023,-4.30658110196147,-13.5943015085999,0.0265375949171585,0.002001,-0.000714,0.005064,0.077316,0.021038,331.699738,24.664948,0.998655,0.984189,0.005269,0.311771,0.000063,-0.000040,0.000043,0.000079,-0.000056,19.842891,0.000081,
2311,2488,1.17181063121758,-3.41786598775595,-0.00210285672017108,0.002160,-0.000086,0.000489,0.097436,-0.005282,323.200689,23.941652,0.999336,0.987612,0.004331,0.359638,0.000015,-0.000006,-0.000009,0.000018,-0.000009,-19.677687,0.000018,
2476,2008,4.87009813970087,-13.9360629489969,0.0302172653811681,0.002101,-0.000551,0.000842,0.092601,-0.038457,331.383437,21.732278,0.999177,0.975982,0.005795,0.280451,-0.000004,0.000020,0.000009,0.000024,-0.000007,70.787208,0.000024,
2431,3088,3.67074122558481,9.6504254782803,0.0231836900991311,0.002143,-0.000252,0.001295,0.093665,-0.005433,313.682168,25.676746,0.999725,0.993308,0.003387,0.358000,0.000017,0.000038,0.000021,0.000051,0.000004,58.369837,0.000061,
2506,2278,5.46860746794966,-8.01049861611401,0.012537811433333,0.002192,-0.000869,0.005323,0.079379,-0.023696,326.946489,22.640399,0.999003,0.977467,0.005504,0.329781,0.000004,-0.000050,0.000003,0.000004,-0.000050,3.167080,0.000056,
2101,3013,-3.48334382930065,7.99931733523908,0.00195989488133819,0.002253,-0.000005,0.000843,0.101438,0.011305,315.292098,24.406005,0.999336,0.992114,0.003577,0.419010,0.000002,0.000013,0.000011,0.000020,-0.000005,58.475100,0.000021,
2146,2068,-2.35132587854109,-12.6092619757915,0.0224368170062803,0.001537,-0.000168,-0.000547,0.072056,-0.007287,330.522350,24.096145,0.998733,0.981312,0.005412,0.281593,0.000024,-0.000005,0.000028,0.000041,-0.000023,31.414968,0.000041,
2131,2068,-2.67810092466612,-12.6093170291629,0.0287052315736105,0.001827,-0.000522,0.004329,0.070665,0.005653,330.631737,24.214275,0.997986,0.976511,0.006056,0.270469,0.000023,0.000001,0.000031,0.000045,-0.000021,35.267823,0.000045,
2071,2938,-4.12239873644566,6.36994152099489,-0.00442282390815762,0.002139,-0.000332,-0.001631,0.103210,-0.002315,316.616067,24.350831,0.999437,0.991211,0.003699,0.390442,0.000009,0.000000,0.000002,0.000010,-0.000001,9.271209,0.000011,
2491,2143,5.17063840634754,-10.9712627008377,0.0306915427865988,0.002349,-0.000544,0.002203,0.098760,-0.004675,329.255812,22.220297,0.999015,0.981921,0.005450,0.280448,0.000000,0.000047,-0.000011,0.000049,-0.000002,-77.787763,0.000055,
2446,3178,3.97908555756199,11.6059112060202,0.0264251370759325,0.002076,-0.000311,0.001886,0.088393,-0.000542,312.252765,26.083465,0.999659,0.991743,0.003610,0.318019,0.000029,0.000014,0.000018,0.000041,0.000002,33.910760,0.000048,
2071,3118,-4.1487301791215,10.2719130715777,0.040711360597868,0.002041,-0.000667,0.004498,0.081129,-0.009625,314.038882,24.313537,0.999793,0.994626,0.002878,0.371836,0.000007,0.000016,0.000011,0.000023,0.000000,57.246821,0.000026,
2086,3028,-3.8108051421917,8.32292050171831,0.0118671147045575,0.002168,-0.000518,0.005094,0.085096,-0.004564,315.189607,24.362345,0.999465,0.992580,0.003477,0.400248,0.000002,0.000008,0.000005,0.000011,-0.000001,59.857604,0.000012,
2326,2518,1.49118378115512,-2.76162643040865,-0.0139479444868584,0.001450,-0.000883,0.004235,0.051628,-0.012852,322.561299,23.968791,0.999304,0.986876,0.004347,0.363548,0.000007,-0.000013,-0.000013,0.000013,-0.000019,-26.938584,0.000020,
2266,2488,0.19005014661597,-3.41883267488866,-0.0143488110276166,0.001933,-0.001116,0.005926,0.068799,-0.012759,323.121072,23.928194,0.999693,0.991155,0.003915,0.465246,0.000009,0.000001,-0.000007,0.000013,-0.000004,-30.183319,0.000013,
2176,2023,-1.68862894726086,-13.5983346015913,0.0298241759514895,0.002084,-0.000584,0.002561,0.087399,-0.003975,331.217261,23.818598,0.998813,0.985153,0.004987,0.325884,0.000041,-0.000047,0.000036,0.000054,-0.000059,19.599598,0.000065,
2341,2563,1.80993733072245,-1.77905057806442,-0.0115280839942784,0.001627,-0.000669,0.004021,0.060459,-0.004150,321.856167,24.076505,0.999027,0.985589,0.004710,0.348670,0.000006,-0.000006,-0.000013,0.000014,-0.000014,-32.241799,0.000016,
2041,2008,-4.63268899540609,-13.9222659709069,0.024122157176464,0.001097,-0.000996,0.009174,0.024618,-0.003324,331.951712,24.826343,0.998067,0.980696,0.005809,0.231032,0.000073,-0.000021,0.000074,0.000113,-0.000062,28.727922,0.000113,
2191,2308,-1.41152128412769,-7.35383824514641,0.00722462908288435,0.001232,-0.001016,0.004060,0.043484,-0.024256,326.354726,23.988062,0.998738,0.982332,0.005328,0.364470,0.000004,-0.000016,-0.000011,0.000009,-0.000021,-23.456228,0.000021,
2386,2833,2.73737114218951,4.10786125582382,-0.029220904764145,0.001902,-0.000298,0.001436,0.082158,-0.000819,317.349176,24.793679,0.999615,0.988328,0.004163,0.353858,-0.000008,0.000029,-0.000004,0.000029,-0.000009,-83.266047,0.000030,
2221,2458,-0.783648854502832,-4.07502133711193,-0.0014191730768971,0.001663,-0.000659,0.001416,0.071608,-0.021434,323.807026,24.074893,0.999032,0.985729,0.004914,0.367638,0.000018,-0.000004,-0.000005,0.000019,-0.000005,-12.960514,0.000020,
2221,2263,-0.74954004782472,-8.33653302188134,-0.00120668911836219,0.001981,-0.000187,-0.001241,0.094777,-0.005628,326.980264,23.856008,0.999040,0.983400,0.005102,0.333414,0.000005,0.000007,-0.000001,0.000007,0.000005,-70.489645,0.000012,
2026,3148,-5.1286819750642,10.9191062167566,0.0359700957579321,0.002071,-0.000158,0.001732,0.090790,0.002597,313.783915,24.109496,0.999647,0.994793,0.003096,0.385975,-0.000007,0.000053,0.000020,0.000059,-0.000013,73.121637,0.000062,
2071,3223,-4.1651389321757,12.5470751897466,0.0442498822867492,0.002110,-0.000282,0.001901,0.091894,0.000560,312.363741,24.283932,0.999581,0.993744,0.003191,0.380794,-0.000008,0.000039,-0.000004,0.000039,-0.000008,-84.897564,0.000042,
2026,2008,-4.95932639166347,-13.9225804491432,0.0241208011930212,0.001504,-0.001445,0.010070,0.040982,0.002591,332.057054,24.860259,0.998687,0.983375,0.005398,0.305680,0.000049,-0.000034,0.000076,0.000095,-0.000079,30.788003,0.000102,
2401,2878,3.05576628450001,5.08730278847535,-0.0204433970739615,0.002155,-0.000453,0.004120,0.083979,0.004193,316.702752,24.956727,0.999412,0.991850,0.003668,0.349252,-0.000014,0.000014,-0.000007,0.000016,-0.000015,-77.430798,0.000018,
2041,3118,-4.79981043815572,10.2703465508396,0.0265097262002314,0.002064,-0.000682,0.005645,0.079316,-0.008964,314.090438,24.169111,0.999702,0.994809,0.002966,0.396791,-0.000003,0.000027,0.000013,0.000032,-0.000007,69.341196,0.000034,
2281,2518,0.511527664735784,-2.7637095921546,-0.0118236531643561,0.001809,-0.000961,0.004189,0.068736,-0.023260,322.634777,23.985836,0.999719,0.992218,0.003808,0.421850,0.000010,-0.000008,-0.000007,0.000012,-0.000010,-18.145745,0.000013,
2191,2098,-1.37554406526294,-11.9519334769926,0.000988070985727063,0.002299,-0.000685,0.002511,0.097312,-0.017565,329.737415,23.662635,0.999473,0.986179,0.004937,0.457854,0.000017,0.000007,0.000016,0.000029,-0.000005,36.097982,0.000031,
2131,3178,-2.85853901026107,11.5772508657852,0.0371527324899716,0.001633,-0.000686,0.004077,0.062929,-0.008096,312.717854,24.551731,0.999238,0.988714,0.003978,0.393719,-0.000004,0.000025,0.000005,0.000026,-0.000005,81.208645,0.000028,
2101,3253,-3.52058843132564,13.1998097539647,0.0437126841937356,0.001945,-0.000620,0.007021,0.069079,0.008173,311.689909,24.459262,0.999736,0.995549,0.002829,0.363808,-0.000004,0.000025,-0.000003,0.000025,-0.000004,-83.199199,0.000027,
2251,2368,-0.115413179956679,-6.04009101370264,-0.00288637304629447,0.001404,-0.001696,0.009329,0.033359,-0.026629,325.147361,23.905927,0.999364,0.988092,0.004698,0.308115,0.000003,0.000014,-0.000008,0.000018,-0.000002,-62.038144,0.000020,
2356,2728,2.10556888175318,1.8189969653405,-0.0147495796005614,0.001995,-0.000503,0.004134,0.076943,-0.002070,319.164007,24.485612,0.999471,0.990810,0.003806,0.352768,-0.000007,0.000026,-0.000005,0.000026,-0.000008,-82.221791,0.000027,
2056,2038,-4.30914232681085,-13.264661153582,0.0152356011820984,0.001944,-0.000061,-0.001822,0.094261,0.006219,331.382630,24.615150,0.998526,0.981668,0.005468,0.345391,0.000049,-0.000052,0.000030,0.000057,-0.000060,15.318428,0.000068,
2206,2398,-1.09979233203757,-5.38486119310947,-0.00471034159772898,0.002107,-0.000681,0.001448,0.091955,0.006052,324.807742,24.050872,0.999403,0.989081,0.004286,0.384096,0.000008,0.000006,-0.000006,0.000013,0.000000,-39.961541,0.000015,
2296,2743,0.797239534620655,2.14282840339479,-0.0183639582293722,0.002354,-0.000654,0.004287,0.093503,-0.010054,318.934010,24.464375,0.999494,0.990156,0.003940,0.386557,-0.000008,0.000017,-0.000002,0.000017,-0.000008,-86.364336,0.000017,
2281,2788,0.462686935372236,3.12152775660729,-0.0137330360134911,0.001984,-0.000998,0.005549,0.072311,-0.018940,318.237338,24.570851,0.999089,0.987694,0.004377,0.349881,0.000005,0.000013,0.000000,0.000013,0.000005,86.453718,0.000018,
2086,3163,-3.83193120312706,11.2497382882652,0.028944826455529,0.001698,-0.000403,0.004077,0.066472,-0.001262,313.110822,24.404574,0.999814,0.995622,0.002828,0.342978,-0.000006,0.000036,0.000000,0.000036,-0.000006,-89.473968,0.000038,
2506,2293,5.46525861075158,-7.68174160162709,0.0122819137076249,0.001909,-0.000999,0.004385,0.070004,-0.030875,326.691942,22.724762,0.999233,0.978824,0.005410,0.301502,0.000002,-0.000053,0.000019,0.000008,-0.000059,17.276141,0.000064,
2131,2128,-2.68838319629791,-11.2930565092915,0.00968070000732268,0.002125,-0.000463,0.000868,0.094743,-0.033141,329.534526,24.189929,0.998863,0.981607,0.005319,0.292132,0.000019,0.000005,0.000021,0.000034,-0.000010,35.067769,0.000035,
2146,3298,-2.55466082701825,14.1793801055787,0.0162424715470024,0.001928,-0.000372,0.003629,0.077842,-0.006492,310.530067,24.678014,0.999732,0.995258,0.002768,0.389266,0.000007,0.000058,0.000004,0.000058,0.000007,85.968381,0.000071,
2086,3043,-3.81252488045952,8.6474945861602,0.0207936446976191,0.002113,-0.000503,0.002164,0.091063,-0.009073,315.025950,24.345335,0.999572,0.992383,0.003506,0.410853,0.000005,-0.000001,0.000003,0.000006,-0.000002,20.996159,0.000007,
2056,2053,-4.31088019113244,-12.9352123792802,0.014198102482851,0.002514,0.000349,-0.001712,0.120272,0.005201,331.159318,24.655458,0.997947,0.977943,0.005947,0.302011,0.000042,-0.000016,0.000022,0.000049,-0.000024,18.389750,0.000049,
2416,3028,3.35400258615997,8.34748036126887,-0.000558261572393803,0.001901,-0.000683,0.004443,0.070871,-0.012202,314.421753,25.428944,0.999506,0.989039,0.004039,0.356167,0.000007,0.000020,0.000013,0.000029,-0.000002,58.419896,0.000032,
2146,2083,-2.35469718445124,-12.2790611737351,0.0157959871688718,0.001288,-0.000534,0.003326,0.048844,-0.014773,330.202805,24.162334,0.998725,0.981315,0.005460,0.219653,0.000023,0.000007,0.000022,0.000039,-0.000008,35.241973,0.000041,
2131,3193,-2.86085122954377,11.9023965810441,0.0355519321079782,0.001902,-0.000687,0.003657,0.076516,-0.024554,312.472772,24.569797,0.999514,0.992276,0.003476,0.363430,-0.000004,0.000023,0.000002,0.000023,-0.000004,86.328910,0.000025,
2056,3118,-4.47436909651337,10.2714941764737,0.0293488787312981,0.002154,-0.000739,0.003641,0.088914,-0.010975,314.035397,24.250260,0.999506,0.993704,0.003185,0.373659,0.000004,0.000021,0.000010,0.000026,-0.000001,64.446902,0.000029,
2161,2173,-2.04543603506305,-10.3030576253005,-0.0461835001963777,0.002069,-0.000363,0.000536,0.093165,-0.005010,328.230238,23.863993,0.999831,0.931519,0.008744,0.516052,0.000015,-0.000009,-0.000005,0.000015,-0.000010,-10.666500,0.000016,
2101,3268,-3.52280841295913,13.524776236816,0.0376692654801332,0.002311,-0.000404,0.002857,0.098298,0.009836,311.422845,24.436507,0.999778,0.996320,0.002720,0.387955,-0.000002,0.000028,-0.000004,0.000029,-0.000002,-83.242355,0.000032,
2236,2353,-0.438345280906404,-6.36822219319471,-0.00148569520274577,0.002016,-0.000350,0.001186,0.088534,-0.012582,325.485913,23.920958,0.998822,0.984734,0.005005,0.334586,0.000007,-0.000003,-0.000004,0.000008,-0.000004,-17.212838,0.000008,
2071,3238,-4.16730474014859,12.871647932078,0.0451978434454645,0.002288,-0.000558,0.001680,0.100630,-0.019705,312.135297,24.277229,0.999608,0.993586,0.003196,0.362721,-0.000009,0.000034,-0.000010,0.000036,-0.000011,-77.887684,0.000036,
2326,2533,1.48866156203864,-2.43423214908093,-0.0174169251943681,0.001789,-0.000608,0.001810,0.075663,-0.008424,322.313175,23.967913,0.999426,0.987152,0.004285,0.404261,0.000007,-0.000008,-0.000016,0.000017,-0.000018,-32.517580,0.000020,
2371,2788,2.42047210163537,3.12755058923803,-0.0164367335206634,0.001942,-0.000391,0.003534,0.076555,0.000834,318.175789,24.747643,0.999857,0.994891,0.003184,0.260619,-0.000002,0.000022,-0.000005,0.000023,-0.000003,-78.875158,0.000025,
2071,2068,-3.98573031516202,-12.6085933157729,0.0345363297740278,0.001810,-0.000146,0.000346,0.082002,-0.002064,330.969773,24.619711,0.998303,0.967159,0.006923,0.233944,0.000041,0.000006,0.000025,0.000054,-0.000007,27.612809,0.000059,
2056,3178,-4.48321342250861,11.5708746936535,0.0442713666154759,0.001921,-0.000411,0.003704,0.078135,0.002201,313.169966,24.216176,0.999653,0.994392,0.003101,0.394720,-0.000012,0.000050,-0.000003,0.000050,-0.000012,-87.467341,0.000052,
2446,3193,3.97645126763738,11.9306042746435,0.0336082878603179,0.001983,-0.000487,0.003508,0.077980,0.002651,312.056740,26.097604,0.999708,0.991839,0.003511,0.357844,0.000029,0.000009,0.000017,0.000038,-0.000001,29.418049,0.000043,
2176,2188,-1.71756794092938,-9.97797975190618,0.00170465039030887,0.002112,-0.000122,-0.000731,0.099090,-0.011436,328.342911,24.016892,0.999127,0.947659,0.007570,0.290702,0.000016,0.000002,-0.000004,0.000017,0.000001,-16.809854,0.000020,
2296,2593,0.826013271986728,-1.12691835125026,-0.00496716440403588,0.002272,0.000021,-0.002413,0.112519,0.003523,321.502100,24.160310,0.999587,0.992238,0.003593,0.399678,0.000000,-0.000004,-0.000008,0.000007,-0.000011,-37.236475,0.000011,
2431,3103,3.66707218106181,9.9766531727256,0.0148821688513294,0.002016,-0.000399,0.000015,0.092501,-0.018849,313.365492,25.731442,0.999760,0.994447,0.003230,0.338736,0.000019,0.000040,0.000023,0.000055,0.000004,56.943092,0.000066,
2176,2038,-1.69153637520732,-13.2679717047356,0.0287274671358659,0.001760,-0.000324,0.002972,0.071370,0.010287,330.950764,23.922165,0.999101,0.984972,0.004871,0.252705,0.000035,-0.000050,0.000031,0.000045,-0.000060,18.012975,0.000062,
2221,2473,-0.786679888263105,-3.74685036710278,-0.00643681540003627,0.001568,-0.000078,0.001329,0.067723,0.003940,323.518313,24.087254,0.999348,0.986911,0.004593,0.401169,0.000022,0.000002,0.000000,0.000022,0.000002,0.185691,0.000027,
2026,2023,-4.96058637950058,-13.5936822828279,0.0236897290101297,0.002120,-0.000388,0.004801,0.084002,0.024599,331.856156,24.821892,0.998575,0.982926,0.005536,0.359605,0.000033,-0.000055,0.000062,0.000066,-0.000087,27.309226,0.000091,
2251,2578,-0.15221958991236,-1.45469837822019,-0.0139514756876338,0.002044,-0.000588,0.003906,0.080944,-0.003438,321.703630,24.176074,0.999387,0.989730,0.004077,0.405591,0.000009,0.000000,-0.000004,0.000010,-0.000001,-22.361206,0.000011,
2026,3163,-5.13093312034397,11.2438876953702,0.0402006767671992,0.002002,-0.000474,0.003396,0.082922,-0.011039,313.566741,24.115999,0.999545,0.993993,0.003337,0.354662,-0.000015,0.000064,0.000004,0.000065,-0.000015,87.144413,0.000068,
2041,2023,-4.63398493743535,-13.594312454381,0.0237888037919447,0.001705,-0.000980,0.004007,0.066765,-0.002078,331.751309,24.724124,0.998115,0.980516,0.005805,0.330289,0.000052,-0.000041,0.000058,0.000080,-0.000069,25.562851,0.000087,
2236,2488,-0.462882073781788,-3.41839984239206,-0.0130430462957634,0.002019,-0.000660,0.003682,0.080585,-0.003169,323.198796,24.089246,0.999541,0.989110,0.004114,0.379454,0.000010,-0.000003,-0.000006,0.000012,-0.000005,-21.789364,0.000012,
2056,2068,-4.31351396981124,-12.6069184167794,0.0171793073751587,0.002277,-0.000685,0.003792,0.093641,-0.021788,330.917519,24.666799,0.998680,0.979685,0.005453,0.261849,0.000041,0.000006,0.000020,0.000051,-0.000003,24.783450,0.000057,
2131,2083,-2.68160916345811,-12.2790686247449,0.0138844682347212,0.001728,-0.000519,0.005075,0.063963,-0.019798,330.261058,24.211931,0.998560,0.979536,0.005684,0.257026,0.000023,0.000015,0.000025,0.000045,-0.000007,40.447986,0.000048,
2266,2683,0.154538641268573,0.835594729877442,-0.0266060695167312,0.001942,-0.000733,0.003052,0.078941,-0.003977,319.865430,24.347501,0.999380,0.992432,0.003729,0.397014,0.000003,0.000025,-0.000005,0.000026,0.000002,-78.172741,0.000031,
2491,2158,5.16686811200851,-10.6419427648502,0.0256793948317977,0.001990,-0.000175,0.000980,0.087202,-0.010183,328.960082,22.254767,0.999006,0.980645,0.005576,0.302461,-0.000001,0.000011,-0.000022,0.000028,-0.000018,-52.997097,0.000028,
2476,2023,4.86693114892906,-13.6055351395257,0.0331944980219419,0.001987,-0.000260,0.003515,0.077400,0.003022,331.150410,21.867956,0.999412,0.981479,0.005262,0.246570,0.000010,0.000049,-0.000004,0.000050,0.000010,-84.106937,0.000064,
2056,3193,-4.48579618904443,11.8961360633361,0.0449122854448092,0.001961,-0.000647,0.008150,0.067371,0.009876,312.919357,24.231858,0.999529,0.994227,0.003160,0.379868,-0.000014,0.000045,-0.000008,0.000046,-0.000015,-82.055700,0.000047,
2086,3298,-3.85419143755402,14.1734537916989,0.0213619426118044,0.001704,-0.000372,0.001372,0.074637,-0.006552,310.847333,24.327420,0.999601,0.994559,0.003022,0.393567,0.000008,0.000064,-0.000012,0.000066,0.000006,-78.423425,0.000080,
2071,3253,-4.17051667648759,13.1972558775506,0.0425201549687699,0.001840,-0.000392,0.004530,0.071885,-0.002497,311.838473,24.312090,0.999728,0.994955,0.002968,0.340457,-0.000008,0.000031,-0.000014,0.000036,-0.000013,-72.581892,0.000036,
2251,2383,-0.117289931595579,-5.71429893300655,-0.00540789949673126,0.001978,-0.001657,0.004348,0.075952,-0.065632,324.927799,23.757472,0.999037,0.986676,0.004802,0.442256,0.000002,0.000010,-0.000009,0.000016,-0.000004,-57.259681,0.000017,
2161,1993,-2.01099625585481,-14.2538188688832,0.0250010749289231,0.002192,0.000313,-0.002033,0.106750,0.004181,331.726297,24.056921,0.999168,0.982690,0.005181,0.169537,0.000071,-0.000042,0.000042,0.000085,-0.000056,18.323793,0.000087,
2311,2503,1.16854705377682,-3.09057616026129,-0.00738301957619569,0.001973,-0.000275,-0.000485,0.092142,-0.004886,322.908485,23.907728,0.999443,0.988969,0.004113,0.427771,0.000009,-0.000004,-0.000010,0.000015,-0.000010,-28.816154,0.000015,
2191,2323,-1.41340255424007,-7.02549681350824,0.00316718836029395,0.001871,-0.000454,-0.000026,0.085824,-0.022762,326.121148,23.994548,0.999030,0.985178,0.004853,0.375840,0.000005,-0.000023,-0.000011,0.000009,-0.000027,-19.459198,0.000028,
2236,2368,-0.441376259438261,-6.03971846428972,-0.00396054710859062,0.001934,-0.000657,0.003404,0.077530,-0.005998,325.211742,23.970213,0.999266,0.987519,0.004652,0.314764,0.000003,0.000009,-0.000005,0.000012,0.000000,-60.899568,0.000014,
2056,3133,-4.47683087956661,10.5964767919745,0.0271019813698672,0.002114,-0.000673,0.002110,0.091377,-0.024147,313.774417,24.229078,0.999087,0.992957,0.003382,0.375328,0.000000,0.000026,0.000010,0.000029,-0.000003,71.072869,0.000032,
2221,2278,-0.751556815124854,-8.0089648501008,0.0032944320499837,0.002236,-0.000642,-0.001122,0.105929,-0.029495,326.787333,23.888659,0.998882,0.983725,0.005091,0.297666,0.000008,-0.000002,-0.000006,0.000011,-0.000005,-26.262764,0.000011,
2341,2578,1.80712922368815,-1.4513000281089,-0.018570653853601,0.001662,0.000277,-0.002591,0.085432,0.011347,321.578659,24.081165,0.999098,0.985675,0.004552,0.396989,0.000007,-0.000003,-0.000010,0.000013,-0.000009,-32.298667,0.000014,
2071,2953,-4.12505418435527,6.6960582112751,-0.00586096495368338,0.002132,-0.000167,0.001276,0.094656,0.007080,316.351185,24.369494,0.999263,0.991518,0.003774,0.377519,0.000014,-0.000002,0.000001,0.000014,-0.000002,2.884408,0.000015,
2026,2038,-4.96233792619833,-13.2653946375149,0.0240471092747043,0.002207,0.000322,-0.000334,0.102262,0.018328,331.637513,24.770619,0.998601,0.979298,0.005692,0.398200,0.000025,-0.000068,0.000050,0.000047,-0.000090,23.742684,0.000090,
2446,3208,3.97347550055125,12.2559714240373,0.0312942470852704,0.002018,-0.000268,0.001396,0.087563,-0.002118,311.800754,26.129693,0.999598,0.990730,0.003787,0.371909,0.000030,-0.000005,0.000009,0.000033,-0.000007,13.997778,0.000034,
2041,3133,-4.80153599208236,10.5957081100809,0.0314489241463889,0.002205,-0.000326,0.002540,0.094623,0.002910,313.901912,24.201761,0.999384,0.993091,0.003414,0.367334,-0.000007,0.000035,0.000011,0.000037,-0.000010,76.064262,0.000039,
2101,3283,-3.52630897968856,13.8496470949382,0.0291339431074675,0.001941,-0.000451,0.004688,0.075750,-0.001704,311.083456,24.409227,0.999731,0.996388,0.002718,0.403419,0.000001,0.000038,0.000001,0.000038,0.000001,88.074967,0.000044,
2101,3028,-3.48582898967234,8.32407735325487,0.0083841311291053,0.002057,-0.000571,0.004966,0.080165,0.000681,315.080443,24.393306,0.999109,0.991221,0.003833,0.421432,0.000001,0.000010,0.000008,0.000015,-0.000003,60.919493,0.000015,
2071,3133,-4.15146620459754,10.5971997710975,0.0336633567297895,0.001988,-0.000620,0.001959,0.085913,-0.025396,313.739969,24.293022,0.999592,0.994398,0.002986,0.372353,0.000003,0.000019,0.000010,0.000024,-0.000001,64.437663,0.000027,
2041,2038,-4.6364874729667,-13.2657519322009,0.0217601736276265,0.001245,-0.000323,-0.000577,0.058606,-0.009120,331.486491,24.672156,0.998563,0.979152,0.005722,0.371320,0.000036,-0.000055,0.000044,0.000053,-0.000073,21.891346,0.000076,
2281,2533,0.509178384576884,-2.43786740005613,-0.00503503805543914,0.001705,-0.001199,0.004795,0.061807,-0.041614,322.442159,23.956387,0.999640,0.992964,0.003608,0.461409,0.000007,-0.000002,-0.000008,0.000013,-0.000007,-30.775435,0.000013,
2401,2893,3.05366616473451,5.41279830704477,-0.0136250842563186,0.002260,-0.000305,0.001942,0.096785,0.008275,316.528078,24.972919,0.999524,0.991545,0.003698,0.382273,-0.000010,0.000011,-0.000003,0.000012,-0.000010,-82.421174,0.000013,
2191,2113,-1.37681552574864,-11.6241397070203,0.0227766404055387,0.002190,-0.000974,0.004581,0.085737,-0.022914,329.665839,23.830199,0.999060,0.982625,0.005246,0.301208,0.000018,0.000007,0.000014,0.000028,-0.000003,34.363574,0.000030,
2296,2758,0.793859298928627,2.46976168888062,-0.0250884517520262,0.002033,-0.000562,0.001875,0.086960,-0.008124,318.627158,24.471382,0.999473,0.990343,0.003950,0.411702,-0.000003,0.000026,0.000003,0.000026,-0.000003,84.315787,0.000029,
2506,2308,5.46205007305126,-7.35453486965395,0.0178880692179746,0.001429,-0.001387,0.005446,0.043772,-0.044665,326.470049,22.737640,0.999044,0.980384,0.005433,0.337966,0.000007,-0.000033,0.000012,0.000011,-0.000037,15.794601,0.000038,
2416,3043,3.35183521804844,8.67301416505846,0.00717863860523948,0.001847,-0.000235,0.001793,0.078364,0.011517,314.248553,25.470815,0.999574,0.990606,0.003892,0.384935,0.000004,0.000032,0.000019,0.000042,-0.000005,62.987393,0.000045,
2176,2053,-1.69428793607781,-12.9390237667532,0.0265545245611634,0.001777,-0.000698,0.005145,0.065331,0.003836,330.686067,23.911134,0.999239,0.984356,0.004800,0.272993,0.000031,-0.000030,0.000034,0.000046,-0.000045,24.000570,0.000052,
2296,2608,0.8222812739562,-0.798376517022902,-0.0151303578682018,0.002210,-0.000181,0.000000,0.101499,0.012292,321.162200,24.226957,0.999473,0.990485,0.003872,0.372819,-0.000001,0.000004,-0.000004,0.000006,-0.000004,-59.618337,0.000006,
2251,2593,-0.154854956826863,-1.1270569730836,-0.0206074075164224,0.002389,-0.000310,0.001820,0.103732,0.000519,321.427422,24.189665,0.999322,0.987815,0.004373,0.420073,0.000008,0.000000,-0.000004,0.000010,-0.000002,-24.745596,0.000011,
2431,3118,3.66349725793515,10.3031638445951,0.00816317651685949,0.002154,-0.000459,0.002415,0.090002,-0.000546,313.060321,25.795518,0.999809,0.995442,0.003038,0.342013,0.000026,0.000039,0.000022,0.000055,0.000010,53.219605,0.000070,
2071,2083,-3.99036773443008,-12.2761059517768,0.00121224053293645,0.001537,0.000073,0.000465,0.069236,0.014408,330.438921,24.574504,0.998686,0.968929,0.006664,0.297362,0.000038,0.000033,0.000022,0.000057,0.000013,41.879997,0.000075,
2206,2413,-1.10107957195225,-5.05858356976692,0.0191543332076662,0.002229,-0.001284,0.008704,0.074368,-0.001896,324.746927,24.176058,0.999587,0.991853,0.003889,0.268274,0.000011,0.000003,-0.000009,0.000017,-0.000003,-34.003001,0.000018,
2161,2188,-2.04447269400589,-9.98131214423331,0.000538228240600347,0.002217,0.000040,-0.001104,0.105074,-0.007312,328.391652,23.760792,0.999786,0.912051,0.009582,0.627797,0.000011,0.000004,-0.000005,0.000013,0.000002,-28.281041,0.000017,
2101,3298,-3.52940525105498,14.1746436904643,0.0200823361794846,0.001740,-0.000365,0.002283,0.073546,-0.002928,310.759766,24.385299,0.999541,0.994487,0.003181,0.425916,0.000003,0.000063,0.000000,0.000063,0.000003,-89.750947,0.000075,
2371,2803,2.41802130777192,3.45220211838676,-0.0137133730796677,0.002245,-0.000799,0.004854,0.085635,0.001315,317.964147,24.634544,0.999859,0.995229,0.003186,0.415271,-0.000003,0.000015,-0.000006,0.000016,-0.000005,-74.045276,0.000017,
2101,1993,-3.31938255087743,-14.2548422369545,0.0400758709533307,0.002189,-0.000610,0.001184,0.096692,-0.007600,332.084801,24.420040,0.999666,0.990728,0.004234,0.215313,0.000091,-0.000043,0.000048,0.000106,-0.000058,18.028293,0.000106,
2386,2848,2.73523571616106,4.43343053013184,-0.0228272080215675,0.002071,-0.000298,0.000329,0.093904,0.001034,317.170113,24.804640,0.999535,0.989594,0.003999,0.387658,-0.000012,0.000023,-0.000007,0.000025,-0.000013,-79.760052,0.000025,
2311,2518,1.16515375916542,-2.76237378550153,-0.0103140137256332,0.001715,-0.000370,0.001585,0.073206,-0.005676,322.621637,23.985387,0.999395,0.987607,0.004248,0.382565,0.000006,-0.000013,-0.000009,0.000010,-0.000017,-22.855246,0.000017,
2086,3178,-3.83327105801904,11.5730482457837,0.0400609769454832,0.002009,-0.000398,0.002852,0.084348,-0.007762,312.977231,24.314645,0.999731,0.995556,0.002821,0.424233,-0.000006,0.000036,0.000000,0.000036,-0.000006,-89.745862,0.000039,
2176,2203,-1.72007196234235,-9.6506104702229,0.00791817507735004,0.001791,-0.000326,0.001073,0.078729,-0.004580,328.133269,23.993373,0.998182,0.976276,0.006045,0.335865,0.000017,0.000011,-0.000003,0.000018,0.000009,-21.381131,0.000028,
2491,2173,5.16399033693323,-10.3145979894735,0.0342810621583567,0.001688,-0.000433,0.003511,0.063613,-0.011703,328.766386,22.255276,0.998282,0.972127,0.006367,0.361752,-0.000008,0.000012,-0.000029,0.000033,-0.000029,-54.334043,0.000036,
2281,2803,0.459535656287777,3.44924989756916,-0.0221248214646721,0.002081,-0.000619,0.004391,0.080824,-0.005298,317.930924,24.640029,0.999155,0.989063,0.004244,0.322016,0.000005,0.000003,0.000000,0.000005,0.000003,-11.702474,0.000008,
2356,2743,2.10271814245911,2.14511424699086,-0.0139096366042963,0.001799,-0.000604,0.002556,0.073464,-0.008041,318.923725,24.481362,0.999586,0.991491,0.003623,0.389901,-0.000006,0.000030,-0.000003,0.000030,-0.000007,-85.824576,0.000032,
2041,2053,-4.6403314459732,-12.9319267270125,-0.0109946367666112,0.001906,-0.000818,0.004094,0.075858,0.002456,330.989920,24.744475,0.999680,0.992176,0.003735,0.307892,0.000028,-0.000020,0.000032,0.000044,-0.000036,26.337512,0.000047,
2206,2173,-1.06049579128094,-10.3093564198506,0.0138531416532715,0.001712,-0.000546,-0.000467,0.079783,-0.030862,328.579091,23.757213,0.999338,0.986196,0.004700,0.357339,0.000009,-0.000007,-0.000004,0.000010,-0.000008,-13.749590,0.000010,
2191,2338,-1.41537259233896,-6.69773713061501,0.018672139324849,0.001804,-0.001085,0.006289,0.062787,-0.021802,325.985009,24.146612,0.999635,0.990195,0.004217,0.240771,0.000004,-0.000016,-0.000009,0.000008,-0.000019,-21.701755,0.000019,
2401,2908,3.05041674669502,5.7390300841586,-0.0096499927569198,0.002023,-0.000979,0.006999,0.067213,-0.013545,316.286897,25.065772,0.999611,0.990955,0.003765,0.312476,-0.000010,0.000008,-0.000001,0.000008,-0.000010,-85.969819,0.000011,
2146,2098,-2.35645107579154,-11.9513022615603,0.0199198709380539,0.001840,-0.000822,0.005835,0.066523,-0.010954,330.014264,24.118605,0.999136,0.983360,0.005149,0.277916,0.000022,0.000006,0.000019,0.000034,-0.000007,33.132062,0.000036,
2431,3133,3.66090681250175,10.6279200030919,0.014694470625102,0.002054,-0.000402,0.003032,0.083218,0.012115,312.862704,25.789650,0.999726,0.993401,0.003301,0.409375,0.000031,0.000034,0.000020,0.000052,0.000013,47.361452,0.000069,
2476,2038,4.86370188509504,-13.2768797494446,0.033611090232057,0.001740,-0.000029,0.003001,0.068174,0.002683,330.903218,21.851016,0.999311,0.979975,0.005582,0.323429,0.000020,0.000055,-0.000007,0.000056,0.000018,-79.581482,0.000078,
2506,2323,5.45904766313566,-7.02555495805135,0.0116711608189348,0.001896,-0.000649,0.003406,0.073361,0.003257,326.204424,22.737969,0.998879,0.983742,0.005106,0.448874,0.000016,0.000010,0.000010,0.000023,0.000003,36.103703,0.000028,
2131,3208,-2.86263630824645,12.2275303303191,0.041868993361561,0.002115,-0.000345,0.002212,0.090953,0.014409,312.294312,24.581387,0.999708,0.994490,0.003062,0.395274,-0.000002,0.000027,0.000004,0.000028,-0.000003,81.873807,0.000031,
2026,2053,-4.96498193709422,-12.9353053871378,0.0300540496845088,0.001735,-0.000743,0.005286,0.064916,0.016879,331.409202,24.947068,0.999727,0.992820,0.003578,0.214112,0.000022,-0.000029,0.000036,0.000041,-0.000048,27.409306,0.000052,
2056,3208,-4.48809495743025,12.2209651118829,0.0445565791423519,0.001768,-0.000300,0.003204,0.072566,0.009127,312.676461,24.214016,0.999577,0.993954,0.003136,0.390505,-0.000014,0.000048,-0.000005,0.000048,-0.000014,-85.288923,0.000050,
2341,2593,1.80442787068733,-1.12377214304391,-0.0177458426259705,0.002107,-0.000349,0.002542,0.087789,0.001304,321.344247,24.164818,0.999294,0.987905,0.004324,0.340641,0.000007,-0.000007,-0.000009,0.000011,-0.000011,-26.462790,0.000013,
2236,2503,-0.465856884368389,-3.09083040331726,-0.0153863596760857,0.001909,-0.000437,0.004813,0.071978,0.013443,322.927725,24.091049,0.999511,0.988318,0.004193,0.416671,0.000012,0.000003,-0.000005,0.000014,0.000000,-25.109274,0.000016,
2266,2698,0.152275551125879,1.16191926629035,-0.0201941054129975,0.001907,-0.000609,0.003171,0.076968,-0.002238,319.673427,24.386190,0.999578,0.992749,0.003570,0.385903,-0.000002,0.000019,-0.000004,0.000020,-0.000002,-80.556820,0.000022,
2026,3178,-5.13300559553035,11.5681176211349,0.0474396667951282,0.001976,-0.000729,0.005775,0.075071,-0.020104,313.374852,24.088243,0.999643,0.993866,0.003218,0.362475,-0.000020,0.000068,0.000000,0.000068,-0.000020,89.808928,0.000070,
2131,2098,-2.68328713757631,-11.9494620982319,0.00953742396688995,0.002639,-0.000701,0.003673,0.109839,-0.009449,330.029498,24.237185,0.998844,0.983300,0.005183,0.251151,0.000023,0.000013,0.000022,0.000041,-0.000005,38.617813,0.000045,
2116,1993,-2.99500435121139,-14.2511888776195,0.0130970905674985,0.001383,-0.001170,0.005613,0.046447,-0.003934,331.742451,24.372923,0.999656,0.990140,0.004241,0.162582,0.000073,-0.000045,0.000037,0.000084,-0.000055,16.141041,0.000086,
2446,3223,3.97003339728499,12.5819572299977,0.029272736730718,0.001813,0.000001,0.002318,0.074820,0.014409,311.524337,26.203488,0.999591,0.991515,0.003745,0.365330,0.000030,-0.000019,0.000003,0.000030,-0.000019,3.844579,0.000030,
2326,2548,1.48599022698751,-2.10677310835798,-0.0181315460580436,0.002133,-0.000648,0.004142,0.083441,0.013839,322.071532,23.984929,0.999107,0.984993,0.004729,0.445040,0.000008,0.000002,-0.000013,0.000019,-0.000008,-39.181510,0.000019,
2101,2008,-3.32138475590839,-13.9280873010419,0.0419166178543833,0.002431,-0.000665,0.002124,0.105047,-0.016075,331.869382,24.237780,0.999696,0.991610,0.004207,0.393946,0.000065,-0.000036,0.000038,0.000078,-0.000049,18.338972,0.000079,
2101,3043,-3.48810033521399,8.64978787891992,0.0145990694624061,0.001767,-0.000668,0.003996,0.069604,-0.005117,314.877136,24.464980,0.999488,0.992758,0.003494,0.344226,0.000005,0.000001,0.000005,0.000008,-0.000002,34.101472,0.000009,
2071,2098,-3.99159282465572,-11.9505489921268,0.0300902665040326,0.001091,-0.000938,0.005470,0.034230,-0.009192,330.404226,24.627830,0.998586,0.977723,0.005691,0.219405,0.000036,0.000031,0.000021,0.000054,0.000013,41.691113,0.000071,
2386,2863,2.73270144157458,4.7593833211611,-0.0149834350002607,0.001973,-0.000408,0.002327,0.082229,0.006669,316.979445,24.861355,0.999426,0.989679,0.003978,0.379709,-0.000013,0.000020,-0.000007,0.000021,-0.000015,-79.231981,0.000022,
2221,2488,-0.789336777756454,-3.41902755848285,-0.010251359346853,0.001804,-0.000427,0.001756,0.077082,-0.005196,323.253064,24.118685,0.999483,0.987523,0.004288,0.380758,0.000020,0.000002,-0.000002,0.000020,0.000001,-7.240907,0.000024,
2161,2203,-2.04749361398462,-9.64976388416468,0.00558279825145291,0.001721,-0.000664,0.004505,0.064988,0.009276,328.150419,24.096544,0.998797,0.961589,0.006716,0.321279,0.000011,0.000009,-0.000003,0.000014,0.000007,-35.011642,0.000021,
2131,2143,-2.69132472067411,-10.964518424548,0.00960823966613589,0.001681,-0.000488,0.002399,0.069804,-0.008285,329.268050,24.166830,0.999099,0.983127,0.005186,0.348957,0.000018,0.000011,0.000017,0.000031,-0.000003,39.533383,0.000035,
2161,2008,-2.01372671560348,-13.9257912951514,0.0264582135415026,0.002074,-0.000140,0.002100,0.088567,0.004133,331.480333,23.980014,0.999130,0.984898,0.004943,0.260158,0.000049,-0.000052,0.000040,0.000063,-0.000066,19.238592,0.000075,
2266,2503,0.187710361616194,-3.08952962423392,-0.0172693193737814,0.002047,-0.000062,-0.000152,0.094482,0.014779,322.878380,24.073091,0.999685,0.992075,0.003874,0.374742,0.000008,0.000004,-0.000009,0.000015,-0.000003,-38.327029,0.000016,
2251,2608,-0.157749769232598,-0.800185907830624,-0.0200849786526192,0.002003,-0.000230,0.000330,0.090883,-0.005421,321.175778,24.209887,0.999368,0.986692,0.004475,0.417966,0.000009,0.000005,0.000000,0.000010,0.000005,-6.703830,0.000015,
2071,3148,-4.15393954749098,10.922258696832,0.0372011477803653,0.001816,-0.000494,0.003852,0.072713,0.001156,313.511323,24.278536,0.999750,0.996009,0.002698,0.408995,0.000000,0.000025,0.000007,0.000026,-0.000002,74.918002,0.000029,
2176,2068,-1.69677171872184,-12.6114117149903,0.030145674311882,0.001578,-0.001188,0.006001,0.053391,-0.025509,330.463925,23.870823,0.999388,0.984649,0.004947,0.299497,0.000029,-0.000009,0.000033,0.000049,-0.000029,29.917482,0.000049,
2191,2353,-1.41828591774808,-6.37053773279602,0.00902022231963429,0.001824,-0.000640,0.002709,0.075018,-0.027973,325.675420,24.011794,0.999393,0.987621,0.004522,0.385841,0.000000,-0.000014,-0.000009,0.000005,-0.000019,-26.107380,0.000019,
2311,2533,1.1625269271997,-2.43518287108652,-0.0114154464525313,0.001906,-0.000442,0.001292,0.082928,-0.003447,322.379084,23.988804,0.999442,0.988498,0.004166,0.414677,0.000004,-0.000007,-0.000013,0.000013,-0.000015,-33.156352,0.000016,
2341,2608,1.80068968712812,-0.795774755037144,-0.0292511490388279,0.002126,-0.000427,0.003369,0.085766,0.013300,321.002238,24.168302,0.999354,0.986794,0.004493,0.387016,0.000004,0.000003,-0.000007,0.000011,-0.000004,-42.164102,0.000011,
2476,2053,4.8603618269294,-12.9474066574794,0.0322161795545526,0.001801,-0.000670,0.005536,0.061155,-0.024112,330.642793,21.920339,0.999345,0.982196,0.005335,0.287338,0.000023,0.000034,0.000004,0.000035,0.000022,73.697036,0.000058,
2071,3268,-4.1731245617344,13.5224931918782,0.0286822767822059,0.002296,-0.000163,0.001005,0.103135,0.007838,311.508155,24.262151,0.999794,0.995934,0.002786,0.396149,-0.000007,0.000032,-0.000014,0.000037,-0.000012,-72.137699,0.000038,
2026,3193,-5.13536881933249,11.8931338704093,0.0487667211959888,0.001838,-0.000655,0.005180,0.070540,0.008417,313.136226,24.063657,0.999651,0.993302,0.003238,0.404405,-0.000022,0.000063,-0.000005,0.000064,-0.000022,-86.421435,0.000065,
2251,2398,-0.119523406144964,-5.38456973257367,-0.00682674842749975,0.002218,-0.000490,0.000488,0.100016,-0.027578,324.696381,23.908284,0.999195,0.989798,0.004347,0.354588,0.000005,0.000014,-0.000009,0.000020,-0.000001,-58.106463,0.000023,
2401,2923,3.04794053126163,6.06420639817404,-0.00645023553715873,0.002029,-0.000788,0.004717,0.075827,-0.018462,316.077829,25.042621,0.999525,0.991128,0.003814,0.375777,-0.000011,0.000003,-0.000002,0.000003,-0.000011,-80.135169,0.000011,
2191,2128,-1.37967517753954,-11.2960343958237,0.0251067545279966,0.001906,-0.001421,0.007906,0.062191,-0.027233,329.420902,23.817434,0.998713,0.981622,0.005396,0.327240,0.000019,0.000003,0.000015,0.000027,-0.000006,30.971767,0.000029,
2506,2338,5.45580529604126,-6.69598188829799,0.0127332667855171,0.001595,-0.000463,0.002262,0.064101,-0.002229,325.960267,22.923842,0.999244,0.986053,0.005021,0.320593,0.000010,-0.000005,0.000011,0.000016,-0.000010,27.932988,0.000016,
2041,2068,-4.64205160040659,-12.6046177127803,-0.00680695276815868,0.002094,-0.000559,0.003514,0.086195,-0.011567,330.795353,24.667866,0.999682,0.992375,0.003627,0.366022,0.000027,0.000010,0.000031,0.000051,-0.000014,37.357840,0.000052,
2371,2818,2.41476571080544,3.77843660863887,-0.0184708509901839,0.002244,-0.000803,0.005069,0.084794,-0.014987,317.679288,24.630854,0.999876,0.995290,0.003223,0.443588,-0.000006,0.000021,-0.000005,0.000022,-0.000007,-80.674353,0.000022,
2296,2623,0.818976468027241,-0.471964341647869,-0.0158580585382424,0.001960,-0.000591,0.003643,0.077546,-0.003303,320.889121,24.209087,0.999498,0.989378,0.003914,0.405769,-0.000003,0.000012,-0.000003,0.000013,-0.000004,-78.606155,0.000013,
2221,2293,-0.753833755897912,-7.68165218287154,0.00657530568611264,0.002280,-0.000299,-0.001422,0.109023,-0.032667,326.576192,23.869615,0.999042,0.985288,0.004799,0.334463,0.000007,-0.000011,-0.000002,0.000008,-0.000011,-7.463528,0.000011,
2041,3148,-4.80364092541104,10.9199477751385,0.0396323117358293,0.002055,-0.000410,0.004116,0.083236,-0.004646,313.714507,24.173440,0.999586,0.994037,0.003265,0.379274,-0.000012,0.000040,0.000009,0.000042,-0.000014,80.701878,0.000042,
2431,3148,3.65769635063823,10.953962359531,0.0117186666338398,0.002031,-0.000367,0.002699,0.083361,0.000885,312.591764,25.871571,0.999664,0.993752,0.003224,0.364938,0.000030,0.000021,0.000020,0.000045,0.000005,38.409107,0.000055,
2146,2113,-2.3575572791258,-11.623990971851,0.0327803351767102,0.002188,-0.000196,0.004233,0.087484,0.025731,329.901342,24.101010,0.999407,0.984448,0.004969,0.342435,0.000020,0.000004,0.000018,0.000032,-0.000007,32.860564,0.000033,
2416,3058,3.34891963229102,8.99857296929271,0.0103774347225567,0.001941,-0.000566,0.005757,0.068037,0.008532,314.019574,25.515248,0.999639,0.991252,0.003780,0.384314,0.000002,0.000026,0.000020,0.000037,-0.000009,60.645222,0.000039,
2296,2773,0.791298203589239,2.79657299921782,-0.0236577435862273,0.001939,-0.000236,-0.000405,0.090494,0.009304,318.398308,24.520856,0.999358,0.989377,0.004148,0.409761,-0.000001,0.000016,-0.000002,0.000017,-0.000001,-82.323866,0.000019,
2071,2113,-3.99325792118637,-11.6211659045888,0.0250537359279974,0.001953,-0.000578,0.004482,0.076690,0.006553,330.163748,24.623272,0.998834,0.981959,0.005342,0.239536,0.000032,0.000026,0.000021,0.000051,0.000008,40.809800,0.000064,
2446,3238,3.9666613739158,12.9073917436162,0.0257889949920695,0.002050,-0.000462,0.006331,0.070569,0.008042,311.244480,26.245057,0.999689,0.993160,0.003351,0.368227,0.000028,-0.000023,-0.000004,0.000028,-0.000023,-4.842193,0.000030,
2356,2758,2.09866386149544,2.47351250573183,-0.0282130564673935,0.001674,-0.000109,0.002295,0.068865,0.020574,318.554472,24.537088,0.999484,0.990011,0.003827,0.402176,0.000000,0.000034,0.000002,0.000034,0.000000,86.599356,0.000040,
2476,2068,4.85785557671286,-12.618762142312,0.0365689621740444,0.002018,-0.001031,0.005733,0.070137,-0.030347,330.446395,21.962854,0.999340,0.979793,0.005594,0.297985,0.000026,0.000044,0.000001,0.000044,0.000026,86.350064,0.000070,
2071,2968,-4.12769558172361,7.02139091141436,-0.00580168882572707,0.002033,-0.000566,0.003928,0.082373,0.001325,316.095462,24.345903,0.999021,0.990704,0.003982,0.391536,0.000016,-0.000005,-0.000001,0.000016,-0.000005,-2.306704,0.000016,
2206,2188,-1.06282853696017,-9.98010258569703,0.0129447110470551,0.002059,-0.000594,0.000522,0.092582,-0.031864,328.342510,23.833226,0.998956,0.981964,0.005265,0.299605,0.000007,-0.000001,-0.000009,0.000013,-0.000007,-31.628366,0.000013,
2491,2188,5.1600425584737,-9.98379006252485,0.0237395966321969,0.001928,-0.001077,0.005760,0.065716,-0.018470,328.437421,22.379764,0.998067,0.972035,0.006453,0.292551,0.000012,0.000010,-0.000024,0.000035,-0.000013,-43.542950,0.000036,
2101,2023,-3.32487648380175,-13.5958667391044,0.028162997989682,0.002197,-0.000427,0.002761,0.092589,-0.009033,331.501200,24.367043,0.999363,0.986794,0.004959,0.277342,0.000052,-0.000041,0.000028,0.000060,-0.000049,15.793229,0.000064,
2056,2083,-4.31675516417379,-12.2773678501563,0.0074226191935054,0.001907,-0.001183,0.004191,0.075385,-0.059275,330.577990,24.667943,0.998787,0.981263,0.005317,0.221707,0.000038,0.000036,0.000019,0.000056,0.000018,43.134849,0.000077,
2176,2218,-1.72291899454158,-9.32196635867821,0.00740273341438069,0.001606,-0.000512,0.003097,0.063944,-0.015785,327.872719,24.038695,0.998540,0.979800,0.005625,0.294107,0.000015,0.000019,-0.000005,0.000022,0.000011,-55.670985,0.000034,
2116,2008,-2.99694297838451,-13.9251266999252,0.0181298361360973,0.001458,-0.001341,0.005774,0.049381,-0.029059,331.548392,24.182616,0.999703,0.991945,0.004125,0.334655,0.000052,-0.000038,0.000031,0.000062,-0.000048,17.131472,0.000065,
2071,3283,-4.17623775866931,13.8476273488091,0.0204991228935114,0.002140,-0.000045,0.001405,0.094830,0.007444,311.185769,24.249853,0.999774,0.996247,0.002712,0.403345,-0.000002,0.000039,-0.000010,0.000041,-0.000005,-76.895442,0.000045,
2161,2023,-2.01649932284838,-13.5971508186468,0.025650381999526,0.001863,-0.000602,0.003113,0.075694,-0.007961,331.220554,23.950647,0.998966,0.984317,0.005005,0.291321,0.000036,-0.000043,0.000034,0.000048,-0.000056,20.132016,0.000061,
2131,2113,-2.68567083700183,-11.6215120855397,0.0142068655694629,0.002377,-0.000625,0.004309,0.095988,-0.009191,329.813930,24.225752,0.999096,0.983640,0.005089,0.271411,0.000022,0.000011,0.000021,0.000038,-0.000006,37.677579,0.000041,
2266,2518,0.185410241006252,-2.76442566916931,-0.00811070621432464,0.001779,-0.000639,0.000249,0.080649,-0.032159,322.699225,24.021735,0.999615,0.991685,0.003835,0.405344,0.000009,-0.000006,-0.000007,0.000012,-0.000009,-22.255253,0.000013,
2506,2353,5.45322469911239,-6.36810899621381,0.0136850849306143,0.001903,-0.000266,0.000564,0.084856,0.003547,325.746068,22.946538,0.999169,0.986013,0.005088,0.366595,0.000020,0.000019,0.000012,0.000032,0.000008,44.380958,0.000042,
2086,3193,-3.83553122871928,11.898651664328,0.0408002695936602,0.002148,-0.000247,0.003014,0.090316,-0.000780,312.743858,24.364039,0.999482,0.994412,0.003045,0.379655,-0.000006,0.000032,-0.000004,0.000033,-0.000007,-83.480370,0.000035,
2101,2218,-3.35706133823944,-9.32096830454974,0.00433656632577595,0.001906,-0.000381,0.003103,0.078339,0.013778,328.158090,24.387561,0.998401,0.981568,0.005496,0.336609,0.000022,0.000019,0.000006,0.000027,0.000013,38.602398,0.000041,
2236,2383,-0.443235335755265,-5.71343582529381,-0.000100936349781477,0.002270,-0.000809,0.001474,0.099126,-0.025238,325.023933,23.908274,0.999333,0.987759,0.004623,0.380010,0.000001,0.000004,-0.000007,0.000010,-0.000004,-51.946712,0.000010,
2221,2503,-0.791863844481647,-3.09113130316228,-0.0153384841037223,0.002220,-0.000162,0.001666,0.096583,-0.003519,322.987161,24.139876,0.999455,0.987874,0.004281,0.381554,0.000021,0.000009,-0.000001,0.000021,0.000009,-6.397349,0.000030,
2191,2368,-1.42113502416104,-6.04124793280628,0.00110218098865289,0.001971,-0.000279,0.001543,0.085552,-0.007991,325.377205,24.065202,0.999574,0.988203,0.004412,0.369187,-0.000001,-0.000003,-0.000008,0.000006,-0.000010,-42.113416,0.000010,
2041,3163,-4.80611721048377,11.2448239666839,0.0359162893190614,0.002170,-0.000704,0.004218,0.088189,-0.017136,313.443651,24.139958,0.999579,0.993551,0.003401,0.391595,-0.000020,0.000054,-0.000004,0.000054,-0.000020,-87.247063,0.000055,
2161,2218,-2.04987568000653,-9.32202986672241,0.0104706083750443,0.001541,-0.000892,0.005573,0.053389,-0.020332,327.938453,24.133131,0.998565,0.979594,0.005605,0.267543,0.000012,0.000014,-0.000004,0.000017,0.000009,-53.238302,0.000026,
2116,2023,-2.99825927284433,-13.5948126316864,0.0161849376627288,0.002332,-0.000315,0.001272,0.103057,-0.010654,331.344592,24.261835,0.999368,0.985056,0.005316,0.280583,0.000040,-0.000039,0.000022,0.000046,-0.000044,14.576746,0.000052,
2071,3163,-4.15604327505785,11.2480011856839,0.0392036917474456,0.001997,-0.000416,0.003868,0.080945,-0.008787,313.290987,24.357425,0.999735,0.995204,0.002893,0.315634,-0.000006,0.000040,-0.000001,0.000040,-0.000006,-88.696345,0.000044,
2281,2818,0.457553923078567,3.77429436083028,-0.0144058451056708,0.001997,-0.000621,0.000967,0.088354,-0.030286,317.759457,24.629827,0.999219,0.989951,0.003982,0.334964,0.000006,0.000014,0.000000,0.000014,0.000006,-88.989076,0.000020,
2026,3208,-5.13743122557138,12.2180925787661,0.0485355577864084,0.001978,-0.000320,0.002602,0.084138,0.005051,312.902741,24.060053,0.999592,0.993070,0.003289,0.393733,-0.000021,0.000066,-0.000001,0.000066,-0.000021,-89.087853,0.000068,
2086,2143,-3.67157187715739,-10.9647326649118,0.0094475495864117,0.002131,-0.000663,0.001501,0.093264,-0.002064,329.493651,24.335281,0.999023,0.984659,0.005020,0.436205,0.000020,0.000027,0.000021,0.000045,0.000002,49.913623,0.000054,
2386,2878,2.72993888766598,5.08614801718811,-0.0139432802588431,0.002040,-0.000433,0.002477,0.084740,-0.002067,316.745693,24.960419,0.999456,0.991930,0.003688,0.314685,-0.000013,0.000014,-0.000008,0.000016,-0.000015,-74.289175,0.000018,
2281,2548,0.505981192659508,-2.10749568553946,-0.0178396971053871,0.002079,-0.000719,0.003662,0.082979,-0.028286,322.111884,24.140546,0.999432,0.990403,0.004016,0.319762,0.000010,0.000006,-0.000006,0.000014,0.000002,-34.222852,0.000018,
2326,2563,1.48311166724261,-1.77918948483244,-0.015430460162122,0.001783,-0.000576,0.003411,0.069930,-0.001299,321.837092,24.085710,0.998776,0.983425,0.005040,0.364427,0.000005,-0.000004,-0.000013,0.000014,-0.000013,-34.662630,0.000016,
2236,2518,-0.46903297677763,-2.76296229198876,-0.0178862749477844,0.001542,-0.000601,0.004916,0.054741,0.002301,322.646625,24.151687,0.999454,0.988456,0.004192,0.367353,0.000016,-0.000003,-0.000002,0.000016,-0.000003,-5.764760,0.000017,
2206,2428,-1.10439609156827,-4.73338126653045,0.0139386396227223,0.001872,-0.002071,0.009449,0.055391,-0.013759,324.443605,23.934602,0.999129,0.988278,0.004503,0.516323,0.000012,-0.000007,-0.000008,0.000015,-0.000009,-20.387058,0.000015,
2506,2368,5.45041589696688,-6.04062626379549,0.00926288105836193,0.002538,-0.000441,0.000074,0.115751,-0.004885,325.497471,22.900428,0.998702,0.980605,0.005738,0.467028,0.000029,0.000021,0.000017,0.000043,0.000008,38.640666,0.000054,
2221,2308,-0.75684807367238,-7.35348067728954,0.00350764092496547,0.002051,-0.000394,-0.001559,0.098944,-0.023332,326.298611,23.857998,0.998921,0.986633,0.004599,0.376659,0.000008,-0.000015,-0.000004,0.000009,-0.000016,-8.237255,0.000016,
2416,3073,3.34641200565661,9.32398526587198,0.0124463185034642,0.002058,-0.000432,0.003807,0.080581,-0.000848,313.804066,25.548808,0.999676,0.991542,0.003699,0.388162,0.000008,0.000032,0.000019,0.000042,-0.000003,60.975381,0.000047,
2296,2638,0.816592576772411,-0.14567540837546,-0.0128110201588925,0.002050,-0.000755,0.003194,0.083147,-0.011938,320.676971,24.209480,0.999432,0.988179,0.004063,0.427269,-0.000006,0.000016,-0.000004,0.000017,-0.000006,-80.284254,0.000017,
2056,2098,-4.31891888969989,-11.95033883785,0.0150596528095548,0.001627,-0.001634,0.006122,0.057007,-0.062511,330.383295,24.602139,0.998859,0.980707,0.005397,0.281884,0.000038,0.000031,0.000019,0.000054,0.000015,40.216107,0.000072,
2131,3223,-2.8652045644029,12.5524144500334,0.0403130617935972,0.002076,-0.000145,0.001002,0.092799,0.008348,312.037807,24.572770,0.999663,0.994610,0.003009,0.402037,-0.000002,0.000030,0.000004,0.000030,-0.000002,82.902227,0.000034,
2446,3253,3.96371243367691,13.2325199782625,0.026967001576736,0.001749,-0.000397,0.003245,0.068227,-0.002523,311.005725,26.292770,0.999799,0.994546,0.002969,0.360453,0.000028,-0.000019,-0.000007,0.000029,-0.000020,-8.065522,0.000030,
2251,2413,-0.122473636191845,-5.05709973209228,-0.00286666915951628,0.001650,-0.000582,0.000809,0.072857,-0.031080,324.459844,23.950285,0.999165,0.988923,0.004307,0.333820,0.000006,0.000015,-0.000011,0.000023,-0.000001,-55.163164,0.000025,
2056,3223,-4.49048023824022,12.5455854108894,0.0443302160302892,0.001774,-0.000387,0.002961,0.073442,0.000074,312.430413,24.189786,0.999616,0.993780,0.003080,0.398804,-0.000017,0.000044,-0.000008,0.000045,-0.000018,-82.836501,0.000046,
2071,3298,-4.17887783731642,14.1724731948707,0.0187329052361065,0.002000,-0.000129,0.000828,0.089990,0.004861,310.920530,24.252384,0.999598,0.994738,0.003003,0.393540,-0.000004,0.000066,-0.000013,0.000069,-0.000006,-80.133052,0.000076,
2296,2788,0.788550455216928,3.12249025903701,-0.0184447823589267,0.001896,-0.000731,0.004316,0.072367,0.000193,318.179895,24.548300,0.999302,0.990407,0.004000,0.403007,0.000004,0.000013,-0.000001,0.000013,0.000004,-85.736390,0.000018,
2491,2203,5.15657714381868,-9.65416565834283,0.0188660813651609,0.001717,-0.000276,0.002812,0.067703,0.015673,328.155799,22.421317,0.998084,0.973110,0.006348,0.346876,0.000017,-0.000020,-0.000023,0.000028,-0.000031,-25.885165,0.000034,
2116,2053,-3.00334626196589,-12.937358994732,0.0183698782605575,0.002013,-0.000537,0.004419,0.079126,-0.004165,330.858076,24.247064,0.998676,0.980286,0.005445,0.315895,0.000026,-0.000010,0.000022,0.000036,-0.000020,25.315163,0.000036,
2311,2548,1.15961668481237,-2.1073906771425,-0.0148407187387534,0.002208,-0.000442,0.003927,0.087831,0.013035,322.111891,24.017483,0.999271,0.985475,0.004696,0.435611,0.000005,0.000004,-0.000010,0.000014,-0.000005,-43.350946,0.000014,
2131,2368,-2.72742687006309,-6.04091567121378,-0.00731457093542076,0.002428,-0.000019,-0.002919,0.120253,-0.010647,325.555261,24.260857,0.999060,0.986223,0.004677,0.372166,0.000000,-0.000002,-0.000009,0.000008,-0.000011,-42.007014,0.000011,
2131,2158,-2.69209843090903,-10.6374003663428,0.0270655713981682,0.001802,-0.000118,-0.003035,0.091690,-0.024450,329.194240,24.247055,0.999733,0.991272,0.004136,0.260010,0.000018,0.000006,0.000004,0.000019,0.000004,17.295161,0.000025,
2206,2203,-1.06559847049404,-9.64990532900694,0.00871650067961127,0.002233,-0.000023,0.001957,0.096212,0.011570,328.068464,23.921796,0.998908,0.981372,0.005401,0.273982,0.000010,0.000002,-0.000007,0.000014,-0.000002,-30.579566,0.000015,
2101,2038,-3.32845911634283,-13.2676771114748,0.0209109860895751,0.001657,-0.001193,0.006850,0.055620,-0.002404,331.164441,24.210194,0.999452,0.986223,0.005063,0.446338,0.000041,-0.000041,0.000024,0.000048,-0.000048,15.286706,0.000055,
2086,3208,-3.83756491500671,12.2233785650687,0.0454639481845334,0.002140,-0.000152,0.001190,0.095295,-0.002288,312.542674,24.367562,0.999549,0.994082,0.003169,0.372274,-0.000004,0.000035,-0.000002,0.000035,-0.000004,-87.612079,0.000039,
2266,2533,0.182565575055893,-2.43680065485806,-0.0183935361269505,0.002080,-0.000402,-0.003530,0.107058,-0.035527,322.396829,23.987612,0.999731,0.995480,0.003171,0.463067,0.000006,-0.000001,-0.000007,0.000011,-0.000006,-31.763249,0.000011,
2476,2083,4.85409831863909,-12.2881390528378,0.0263674155049785,0.002075,-0.000605,0.004443,0.077816,-0.011900,330.126584,22.005704,0.999488,0.980502,0.005340,0.334202,0.000023,0.000039,-0.000001,0.000039,0.000023,-87.125691,0.000063,
2041,2083,-4.64262433395643,-12.2782273333079,0.01862322873842,0.001937,-0.000218,-0.000501,0.090223,-0.030197,330.770590,24.750592,0.999310,0.987313,0.004467,0.259264,0.000021,0.000042,0.000030,0.000064,0.000000,54.399854,0.000073,
2221,2518,-0.794632537123039,-2.76486335355395,-0.00897972090729127,0.001759,-0.000473,0.003990,0.067882,-0.000328,322.769135,24.119152,0.999274,0.986948,0.004414,0.425228,0.000023,0.000001,0.000003,0.000024,0.000001,6.985612,0.000028,
2146,2128,-2.35983260867718,-11.294544536493,0.0276872588382275,0.002418,0.000025,0.000349,0.109852,0.006507,329.640188,24.143543,0.999292,0.982294,0.005191,0.291683,0.000017,0.000000,0.000016,0.000027,-0.000010,30.857321,0.000027,
2026,3223,-5.13982218959643,12.5436039620124,0.0461146350037325,0.002052,-0.000255,0.002159,0.088755,-0.001439,312.641719,24.101775,0.999562,0.993516,0.003195,0.334241,-0.000025,0.000059,-0.000006,0.000059,-0.000025,-85.582396,0.000060,
2071,2128,-3.99588448011526,-11.2919200788726,0.015134217052946,0.002140,-0.000642,0.003182,0.088983,-0.017491,329.852995,24.599375,0.999001,0.984448,0.005093,0.239549,0.000024,0.000014,0.000022,0.000041,-0.000003,38.524353,0.000046,
2101,3058,-3.48984430225333,8.97399224763053,0.0185607199275069,0.002061,-0.000421,0.001722,0.089877,-0.012460,314.686370,24.388075,0.999647,0.994096,0.003259,0.414194,0.000010,-0.000003,0.000008,0.000014,-0.000007,25.001621,0.000014,
2071,3178,-4.15834444880095,11.5724829445317,0.0407346798252206,0.002058,-0.000515,0.004668,0.081511,0.000525,313.059486,24.301866,0.999811,0.996420,0.002661,0.376277,-0.000007,0.000042,-0.000001,0.000042,-0.000007,-89.058899,0.000045,
2431,3163,3.65545560448505,11.2793329520305,0.0158893178613653,0.002200,-0.000240,-0.000095,0.101517,0.002738,312.398938,25.925564,0.999672,0.992697,0.003426,0.361800,0.000028,0.000018,0.000018,0.000042,0.000004,37.312996,0.000051,
2176,2083,-1.69904186534054,-12.2807360861769,0.0224590934946605,0.002136,-0.000603,0.003392,0.087219,-0.010862,330.192112,23.946440,0.999523,0.985137,0.004985,0.254197,0.000029,0.000007,0.000026,0.000047,-0.000010,33.537804,0.000049,
2251,2623,-0.160154000386729,-0.473845499242245,-0.0132756471575703,0.002035,-0.000631,0.004096,0.079872,-0.010179,320.978518,24.238384,0.999263,0.987096,0.004421,0.408576,0.000007,0.000011,0.000002,0.000012,0.000007,70.287784,0.000018,
2446,3268,3.95931076506713,13.5587790971666,0.00392701291542608,0.002027,-0.000287,0.000822,0.090083,-0.012679,310.587396,26.314677,0.999788,0.994053,0.003053,0.379289,0.000032,-0.000020,-0.000006,0.000032,-0.000020,-6.366735,0.000033,
2326,2578,1.48033102407291,-1.45187637399046,-0.0155603448634452,0.001654,-0.000282,0.001502,0.070654,-0.004453,321.593298,24.129351,0.999245,0.988013,0.004282,0.352780,0.000005,-0.000003,-0.000008,0.000010,-0.000008,-32.480359,0.000011,
2491,2218,5.15286992216259,-9.32309778183375,0.0075138190816233,0.001652,0.000314,-0.002172,0.084019,0.014071,327.833964,22.569130,0.998964,0.980944,0.005563,0.259242,0.000010,-0.000045,-0.000010,0.000012,-0.000047,-9.753390,0.000049,
2281,2833,0.454481436945496,4.10078879901847,-0.0172663772568171,0.001947,-0.000538,0.002281,0.081747,-0.012972,317.484531,24.634284,0.999453,0.991566,0.003793,0.375436,0.000002,0.000016,0.000002,0.000016,0.000002,83.118240,0.000020,
2116,2038,-3.00085913848937,-13.2666192281076,0.0159932230204163,0.002195,-0.000542,0.002869,0.092017,-0.000945,331.091941,24.182383,0.999179,0.983918,0.005278,0.376795,0.000031,-0.000039,0.000019,0.000036,-0.000044,13.979443,0.000047,
2506,2383,5.44659373674836,-5.71116486329311,0.00795486740776141,0.002135,-0.000473,0.002208,0.089021,-0.019606,325.215892,23.077748,0.998665,0.980804,0.005459,0.337943,0.000034,0.000027,-0.000003,0.000035,0.000026,-17.569134,0.000061,
2281,2563,0.50313912165554,-1.78082557762282,-0.0182444605667911,0.001964,-0.000580,0.003619,0.077876,-0.023220,321.860477,24.109391,0.999215,0.989108,0.004362,0.384716,0.000008,-0.000002,-0.000009,0.000014,-0.000007,-31.038368,0.000014,
2086,3223,-3.84007558068764,12.5479714765284,0.0493402873213995,0.001930,-0.000350,0.002880,0.080623,-0.006236,312.315362,24.359848,0.999541,0.993216,0.003404,0.373555,-0.000004,0.000036,-0.000003,0.000036,-0.000004,-85.745045,0.000039,
2206,2443,-1.10909445531107,-4.40139996114986,-0.0139129843519186,0.001331,-0.000826,0.004433,0.046851,-0.005876,323.958799,24.087845,0.998601,0.984330,0.005179,0.390029,0.000011,-0.000002,-0.000005,0.000013,-0.000004,-17.619897,0.000013,
2236,2398,-0.446956974276414,-5.3838272958249,-0.00871250786406108,0.001805,-0.000213,0.001863,0.076772,0.003147,324.686573,23.988553,0.999442,0.990029,0.004155,0.351462,0.000004,0.000008,-0.000007,0.000014,-0.000001,-52.970205,0.000015,
2086,2158,-3.67405723710655,-10.6355412764814,0.0103503698616692,0.002207,-0.001460,0.006258,0.082819,-0.043743,329.249682,24.452820,0.998949,0.984267,0.005111,0.278864,0.000021,0.000018,0.000006,0.000026,0.000013,38.569576,0.000039,
2266,2713,0.149847899746444,1.48851481181445,-0.0150137514243625,0.001592,-0.000117,0.000454,0.071654,0.006523,319.467570,24.436447,0.999687,0.993364,0.003511,0.370282,-0.000002,0.000011,-0.000006,0.000013,-0.000004,-70.005705,0.000014,
2341,2623,1.79809926550195,-0.469654029424944,-0.0206154958892171,0.001801,-0.000495,0.004858,0.065616,0.009524,320.810964,24.193248,0.999358,0.987785,0.004320,0.395160,0.000002,0.000009,-0.000007,0.000014,-0.000002,-59.263143,0.000015,
2101,2233,-3.35884207106594,-8.99344627656058,0.00640981790030537,0.002264,-0.000492,0.001976,0.098001,0.005258,327.954021,24.358462,0.998733,0.983530,0.005132,0.360666,0.000020,0.000020,0.000007,0.000027,0.000013,44.128884,0.000041,
2086,1993,-3.64760924208753,-14.2539037651889,0.0334640990056414,0.001690,-0.000608,0.002985,0.068682,0.001340,332.073353,24.489595,0.999165,0.984333,0.004986,0.260474,0.000088,-0.000037,0.000056,0.000110,-0.000059,20.970766,0.000110,
2056,3238,-4.4920795601074,12.8701399399607,0.0507466155148677,0.002271,-0.000685,0.004542,0.091797,-0.017303,312.257242,24.209003,0.999648,0.994390,0.003038,0.355532,-0.000020,0.000038,-0.000015,0.000042,-0.000024,-75.956460,0.000042,
2431,3178,3.65299799610933,11.6040240354886,0.0252352986235564,0.002096,-0.000234,0.001633,0.090308,-0.004668,312.220399,25.960167,0.999662,0.992247,0.003460,0.368268,0.000031,0.000017,0.000019,0.000044,0.000004,35.391218,0.000053,
2356,2773,2.09659569309984,2.8000871066433,-0.0230461345905155,0.001956,-0.000114,0.001030,0.086248,0.012560,318.370777,24.620459,0.999596,0.990860,0.003619,0.349621,-0.000001,0.000024,-0.000001,0.000024,-0.000001,-86.998524,0.000027,
2056,2113,-4.32064156861998,-11.6218466113082,0.0128641568049375,0.002100,-0.001259,0.003183,0.087045,-0.055498,330.154505,24.556743,0.998973,0.981535,0.005433,0.331967,0.000033,0.000026,0.000022,0.000051,0.000008,40.760085,0.000064,
2191,2383,-1.42401507000822,-5.71347619251814,-0.000832034950008165,0.001892,-0.000291,0.003607,0.075510,-0.002425,325.108934,24.057982,0.999283,0.987495,0.004564,0.398278,-0.000002,-0.000006,-0.000008,0.000005,-0.000012,-39.201659,0.000012,
2221,2323,-0.760185120845513,-7.02449336055718,-0.00677728529120714,0.002225,-0.000607,0.001383,0.097471,-0.026687,325.969215,23.867649,0.999102,0.987134,0.004523,0.384994,0.000010,-0.000019,-0.000004,0.000011,-0.000019,-6.934729,0.000019,
2131,3238,-2.86825666845897,12.8780250392109,0.0316687492406231,0.002102,-0.000251,0.001047,0.093818,-0.000815,311.720792,24.598162,0.999612,0.994616,0.002934,0.371654,-0.000001,0.000024,0.000002,0.000024,-0.000001,86.240100,0.000027,
2041,3178,-4.80834516725983,11.5697223351296,0.0344678113163468,0.002208,-0.000286,0.001207,0.098451,-0.013045,313.196801,24.109794,0.999703,0.994157,0.003198,0.417020,-0.000025,0.000058,-0.000005,0.000058,-0.000025,-86.486099,0.000058,
2266,2548,0.179957919373166,-2.10810430425443,-0.0157720834912993,0.002257,-0.000599,0.000427,0.102027,-0.024422,322.169733,24.157954,0.999594,0.992484,0.003659,0.330182,0.000008,0.000005,-0.000005,0.000012,0.000001,-34.603895,0.000014,
2386,2893,2.72750743560502,5.41219780054944,-0.0140506454440015,0.002310,0.000232,-0.000068,0.106625,0.037540,316.521768,24.941183,0.999513,0.992647,0.003588,0.416734,-0.000009,0.000012,-0.000004,0.000012,-0.000010,-78.759492,0.000013,
2446,3283,3.95557617744017,13.8845040343283,-0.00192119502241894,0.002052,-0.000455,0.004319,0.078103,-0.013061,310.279491,26.377998,0.999808,0.993366,0.003158,0.366083,0.000040,-0.000032,-0.000011,0.000042,-0.000034,-8.658770,0.000044,
2371,2833,2.41132791204333,4.1063529908433,-0.0220903035101401,0.001889,-0.000508,0.004104,0.072076,0.000079,317.390933,24.764186,0.999724,0.991123,0.003768,0.366167,-0.000007,0.000027,-0.000006,0.000028,-0.000008,-80.465006,0.000029,
2296,2653,0.812803311388077,0.182385770242114,-0.022713344504723,0.001660,-0.000607,0.002220,0.068570,-0.014901,320.335698,24.262666,0.999331,0.988002,0.004137,0.401633,-0.000009,0.000022,-0.000001,0.000022,-0.000009,-87.472368,0.000022,
2101,2053,-3.3297642845811,-12.9380131484331,0.0309271673609715,0.002079,-0.001202,0.007319,0.073626,-0.005851,331.024350,24.396141,0.999024,0.974763,0.006067,0.260931,0.000035,-0.000009,0.000026,0.000047,-0.000022,24.781121,0.000047,
2191,2143,-1.382113325334,-10.9664475715605,0.021216076467681,0.002094,-0.000974,0.005664,0.077995,-0.013416,329.162698,23.859806,0.999037,0.983170,0.005125,0.316432,0.000013,0.000001,0.000012,0.000021,-0.000006,31.696459,0.000021,
2251,2428,-0.124783602056748,-4.73048339871045,-0.00352795505682479,0.002141,-0.000393,0.002488,0.090003,-0.009775,324.229360,23.850113,0.998780,0.987174,0.004515,0.480340,0.000008,0.000006,-0.000012,0.000019,-0.000005,-42.219938,0.000020,
2056,3253,-4.4947319158228,13.1956558541385,0.0478666225168354,0.002088,-0.000513,0.002844,0.088185,-0.018924,311.983928,24.252179,0.999755,0.995330,0.002943,0.303825,-0.000020,0.000035,-0.000020,0.000042,-0.000027,-71.940732,0.000042,
2161,2233,-2.05160156359025,-8.99454664229957,0.0127792523135213,0.001855,-0.000574,0.001686,0.079757,-0.027138,327.742885,24.101874,0.998774,0.980528,0.005339,0.304258,0.000008,0.000007,-0.000005,0.000012,0.000003,-40.599469,0.000016,
2176,2098,-1.7024092174495,-11.9516645504718,0.00668354994826359,0.002141,-0.000290,0.000937,0.095142,-0.007363,329.828283,23.805173,0.999436,0.983953,0.005097,0.415170,0.000028,0.000009,0.000023,0.000043,-0.000007,33.621118,0.000047,
2086,2008,-3.64992369256071,-13.9255089803147,0.0350219076178746,0.001601,-0.000846,0.003570,0.062884,-0.012084,331.840684,24.458525,0.999315,0.987036,0.004765,0.280804,0.000064,-0.000035,0.000044,0.000081,-0.000052,20.860419,0.000082,
2116,2068,-3.00540667396554,-12.6084539691227,0.0169983127951241,0.002231,-0.000438,0.001832,0.096791,-0.021986,330.623789,24.257460,0.998646,0.971342,0.006460,0.294350,0.000025,0.000011,0.000022,0.000041,-0.000005,36.366532,0.000045,
2491,2233,5.14944227705122,-8.99548399351369,0.00560575484848869,0.001789,-0.000558,0.001593,0.075546,-0.011528,327.567652,22.529661,0.999086,0.981115,0.005598,0.334367,0.000013,-0.000042,0.000001,0.000013,-0.000042,0.977204,0.000043,
2236,2533,-0.470593857071552,-2.43628102657841,-0.0077784614862253,0.001788,-0.000270,0.003546,0.070555,-0.003889,322.503924,24.216277,0.999705,0.991593,0.003671,0.318237,0.000015,0.000002,-0.000001,0.000015,0.000002,-4.518035,0.000019,
2506,2398,5.44206603224164,-5.38190698884191,-0.000265723231450465,0.001766,-0.000793,0.006200,0.056610,-0.001704,324.870891,23.142928,0.998766,0.983258,0.005089,0.353885,0.000041,0.000033,-0.000001,0.000041,0.000033,-10.694634,0.000074,
2086,3238,-3.84298697736432,12.873322255035,0.0409442630888748,0.002008,-0.000465,0.003183,0.083316,-0.008671,312.002312,24.354343,0.999653,0.994093,0.003137,0.374428,-0.000005,0.000031,-0.000007,0.000032,-0.000006,-79.072643,0.000034,
2086,2173,-3.67629598908433,-10.3074330841978,0.0131899435355081,0.001969,-0.001121,0.004242,0.077803,-0.026671,329.027384,24.438751,0.998935,0.984693,0.004968,0.311738,0.000018,0.000005,0.000009,0.000023,0.000000,26.514351,0.000027,
2206,2218,-1.06844814219814,-9.32233131003169,0.0100069388822703,0.001960,-0.000699,0.003722,0.077885,-0.013659,327.819890,23.902665,0.998915,0.982572,0.005315,0.287169,0.000008,0.000012,-0.000007,0.000018,0.000003,-51.767654,0.000022,
2476,2098,4.85103730353136,-11.9577042861527,0.0209325778048992,0.001974,0.000031,-0.002382,0.099274,-0.027717,329.860318,22.124680,0.999523,0.978954,0.005458,0.259104,0.000017,0.000035,-0.000009,0.000039,0.000013,-66.872606,0.000054,
2071,3193,-4.16072394077094,11.8979042850408,0.0403092179074065,0.002142,-0.000406,0.005080,0.084248,0.006546,312.813292,24.328252,0.999595,0.994863,0.002988,0.351446,-0.000008,0.000037,-0.000006,0.000038,-0.000008,-82.806802,0.000040,
2221,2533,-0.797100954220387,-2.43622333395725,-0.0113278904964886,0.001995,-0.000316,0.003096,0.081648,0.005894,322.519709,24.238702,0.999533,0.989869,0.003966,0.331776,0.000021,0.000005,0.000004,0.000022,0.000004,14.289809,0.000028,
2356,2788,2.0940711227707,3.12611107044896,-0.0219491304342228,0.001994,-0.000074,-0.001496,0.096906,0.004310,318.146582,24.625675,0.999747,0.993617,0.003326,0.374896,0.000000,0.000018,0.000000,0.000018,0.000000,-89.540377,0.000021,
2041,2098,-4.64441900394426,-11.9502387105008,0.0214833283679923,0.002072,-0.000307,-0.002268,0.101268,-0.028959,330.565166,24.714309,0.999089,0.982309,0.005148,0.292132,0.000020,0.000036,0.000028,0.000057,-0.000001,53.259373,0.000066,
2071,2143,-3.99806452540198,-10.9632893730993,0.0158500863852282,0.002139,-0.000165,0.002346,0.091419,0.028065,329.620362,24.570894,0.998951,0.984291,0.005170,0.313367,0.000022,0.000032,0.000014,0.000042,0.000012,54.723568,0.000056,
2341,2638,1.79591296781468,-0.143314508869416,-0.0156764822030482,0.001867,-0.000363,0.002467,0.076991,-0.008087,320.620274,24.224180,0.999405,0.987416,0.004353,0.383745,0.000001,0.000018,-0.000012,0.000024,-0.000005,-62.472646,0.000025,
2056,2128,-4.3235485852092,-11.2915617925843,0.00905651799871521,0.001887,-0.001195,0.006504,0.067981,-0.040432,329.862453,24.655159,0.998824,0.981788,0.005528,0.246588,0.000024,0.000014,0.000024,0.000043,-0.000005,38.954948,0.000047,
2191,2398,-1.42548690532182,-5.38589436505335,-1.28074226495301E-05,0.002337,0.000364,-0.004505,0.121524,0.000403,324.919444,24.067466,0.999180,0.986440,0.004837,0.407595,-0.000002,-0.000002,-0.000011,0.000008,-0.000013,-45.565392,0.000013,
2056,3268,-4.49750185083318,13.5202010319501,0.0449198159996058,0.001972,-0.000525,0.004051,0.079422,-0.012738,311.705245,24.201911,0.999733,0.995294,0.002886,0.353508,-0.000018,0.000033,-0.000020,0.000040,-0.000025,-70.891333,0.000040,
2326,2593,1.47776907317241,-1.12466176032412,-0.019355972862229,0.002200,-0.000398,0.001974,0.094098,-0.000853,321.341598,24.130155,0.999613,0.991770,0.003700,0.390808,0.000003,-0.000007,-0.000007,0.000007,-0.000010,-26.923696,0.000011,
2131,2383,-2.72997489722791,-5.71347328988828,-0.00461034426405149,0.002297,-0.000332,-0.000236,0.106128,0.006442,325.321733,24.256178,0.998943,0.985592,0.004749,0.401573,-0.000005,-0.000005,-0.000010,0.000005,-0.000015,-45.112808,0.000015,
2101,2068,-3.33187266694289,-12.6092820079185,0.0246645681492623,0.002283,-0.000487,0.000937,0.101813,-0.004597,330.760150,24.316350,0.999236,0.951552,0.008303,0.346793,0.000035,0.000011,0.000026,0.000052,-0.000006,32.502447,0.000056,
2146,2143,-2.3636676246931,-10.9654488925527,0.0133392517432753,0.002002,-0.000281,0.001064,0.088517,0.005073,329.258850,24.043370,0.999452,0.981607,0.005243,0.401908,0.000014,0.000005,0.000012,0.000023,-0.000004,34.455971,0.000024,
2251,2638,-0.162909665444296,-0.145634734130624,-0.0185631677814513,0.002404,-0.000604,0.005290,0.092970,-0.003866,320.703455,24.328869,0.998971,0.987035,0.004394,0.348361,0.000004,0.000014,0.000001,0.000014,0.000004,82.751887,0.000019,
2131,3253,-2.87085602834992,13.2027875820605,0.0299004688600917,0.002145,-0.000450,0.001285,0.095020,-0.007623,311.461750,24.586333,0.999656,0.994991,0.002901,0.380897,0.000001,0.000020,0.000000,0.000020,0.000001,89.476495,0.000024,
2416,3088,3.3438863322436,9.65002474075248,0.0157287053156097,0.002173,-0.000258,0.003224,0.088048,0.005989,313.593152,25.635422,0.999694,0.992819,0.003480,0.355118,0.000016,0.000034,0.000016,0.000043,0.000007,60.271470,0.000054,
2101,3073,-3.49215510281336,9.29992878907116,0.0226096476044972,0.002048,-0.000384,0.003478,0.084155,-0.001280,314.469436,24.456189,0.999545,0.991689,0.003672,0.357188,0.000011,0.000002,0.000008,0.000015,-0.000003,30.283903,0.000016,
2146,2203,-2.3743237656781,-9.65003762209928,0.00484224373650477,0.001787,-0.000863,0.003496,0.071162,-0.014642,328.205735,24.151735,0.998653,0.978434,0.005634,0.316903,0.000013,0.000011,0.000001,0.000014,0.000010,22.197864,0.000024,
2446,3298,3.95230316323277,14.2092548891778,-0.00603321755608022,0.002019,-0.000322,0.003229,0.080716,-0.011609,310.001162,26.363290,0.999782,0.993886,0.003137,0.433156,0.000040,-0.000049,-0.000014,0.000042,-0.000051,-8.498185,0.000054,
2176,2233,-1.72508960189653,-8.99351542352808,0.00388332001892877,0.002021,-0.000255,0.001025,0.089470,-0.004947,327.627351,24.018567,0.998787,0.982101,0.005228,0.339873,0.000011,0.000013,-0.000006,0.000018,0.000006,-50.174740,0.000025,
2401,2938,3.04508204873749,6.38998261882757,-0.00348447996844925,0.001764,-0.000467,0.003571,0.067980,0.002008,315.849814,25.051520,0.999526,0.991334,0.003805,0.432495,-0.000009,0.000003,-0.000003,0.000004,-0.000010,-76.984391,0.000010,
2206,2458,-1.11059889037069,-4.07462897728226,-0.00476043952846794,0.001651,-0.000472,0.002980,0.066268,0.022954,323.811968,24.095344,0.999008,0.985174,0.004996,0.429110,0.000013,-0.000001,-0.000001,0.000014,-0.000002,-5.470401,0.000015,
2161,2278,-2.05955142552854,-8.0085120304407,0.00382595274783171,0.002070,-0.000592,0.004234,0.081881,0.018873,326.945045,24.138279,0.998330,0.978268,0.005932,0.351329,0.000011,-0.000011,-0.000010,0.000015,-0.000015,-22.038999,0.000017,
2281,2848,0.451240884323681,4.42829104338629,-0.0192832579050446,0.001854,-0.000588,0.006056,0.064865,0.008382,317.205765,24.738463,0.999585,0.993059,0.003691,0.320057,0.000003,0.000010,0.000005,0.000013,0.000000,63.569398,0.000015,
2311,2563,1.15687918792824,-1.7804769590726,-0.0129715786805491,0.001999,-0.000694,0.002719,0.082263,-0.020028,321.878939,24.066935,0.999116,0.987001,0.004585,0.386332,0.000003,-0.000002,-0.000011,0.000012,-0.000011,-38.952413,0.000014,
2086,3253,-3.84540116460975,13.1977629977141,0.0475702855997042,0.001816,-0.000489,0.006345,0.065386,0.005630,311.794534,24.337027,0.999757,0.994969,0.002947,0.403443,-0.000003,0.000027,-0.000011,0.000031,-0.000006,-71.794226,0.000033,
2056,2143,-4.32553329770483,-10.9640809288795,0.0109932642620265,0.001805,-0.000738,0.002975,0.074281,-0.034830,329.644594,24.574861,0.998758,0.983616,0.005439,0.329859,0.000020,0.000036,0.000016,0.000046,0.000011,58.065286,0.000060,
2176,2353,-1.74626488585097,-6.36759010694908,-0.00714020164775775,0.001746,-0.000115,0.003884,0.068148,0.021057,325.579452,24.136105,0.998706,0.982114,0.005315,0.364145,0.000000,-0.000017,-0.000012,0.000007,-0.000023,-27.413092,0.000024,
2371,2848,2.40854573052645,4.43257692528196,-0.0202549505177103,0.001825,-0.000332,0.003985,0.069617,0.011832,317.159217,24.790782,0.999648,0.990069,0.003872,0.392349,-0.000010,0.000022,-0.000007,0.000024,-0.000012,-77.543495,0.000024,
2041,3193,-4.81053261787213,11.8950529280375,0.0423477251417239,0.002017,-0.000390,0.003023,0.084719,0.015542,313.003560,24.153750,0.999668,0.993816,0.003224,0.392823,-0.000027,0.000051,-0.000011,0.000053,-0.000029,-82.023391,0.000053,
2131,3268,-2.87410109240252,13.5282096417278,0.019868051554738,0.001990,-0.000462,0.000080,0.091475,-0.015187,311.128459,24.594536,0.999678,0.995128,0.002888,0.369365,0.000005,0.000026,0.000001,0.000026,0.000005,87.287406,0.000033,
2071,3208,-4.16285518760836,12.2222435679596,0.0424874415843419,0.002038,-0.000207,0.001087,0.090899,-0.000480,312.593248,24.286881,0.999559,0.994394,0.003085,0.381283,-0.000006,0.000040,-0.000002,0.000041,-0.000006,-86.990093,0.000044,
2086,2188,-3.67868075740134,-9.9786791433941,0.00980832954724065,0.001929,-0.000693,0.001395,0.084305,-0.024919,328.764666,24.438253,0.998780,0.983551,0.005218,0.315757,0.000015,0.000025,0.000012,0.000033,0.000007,56.913524,0.000043,
2191,2158,-1.38392095641833,-10.6391151148688,0.029827379177334,0.001957,-0.000509,0.002110,0.082947,-0.008535,328.998420,23.844670,0.999242,0.985801,0.004818,0.353197,0.000012,-0.000001,0.000004,0.000013,-0.000002,16.903026,0.000014,
2161,2248,-2.0542813216137,-8.66560941181474,0.00451957912292755,0.002162,-0.000644,0.001242,0.095216,-0.019515,327.447887,24.085640,0.998771,0.979457,0.005322,0.340919,0.000008,-0.000004,-0.000007,0.000011,-0.000007,-24.999062,0.000011,
2281,2578,0.501764655966134,-1.45479049393522,-0.00713828439711506,0.002334,-0.000611,0.001631,0.101507,-0.022999,321.733904,24.129941,0.999036,0.987737,0.004607,0.392467,0.000009,-0.000002,-0.000005,0.000011,-0.000004,-21.809045,0.000011,
2461,1993,4.54490454960304,-14.2642510785576,0.0294802976932829,0.002019,-0.000131,-0.000817,0.095295,-0.028958,331.583798,21.855401,0.998696,0.968453,0.006623,0.213461,-0.000002,0.000016,0.000011,0.000021,-0.000007,65.213484,0.000021,
2116,2293,-3.04249156864639,-7.67927720224128,-0.00295709548726109,0.001808,0.000360,-0.000930,0.085905,0.033379,326.829382,24.362374,0.998858,0.985971,0.004880,0.338139,0.000015,-0.000011,0.000002,0.000015,-0.000011,5.181850,0.000016,
2416,3103,3.34117651950077,9.97595211565267,0.0165979175208122,0.002138,-0.000100,0.000670,0.095888,0.007972,313.362406,25.704933,0.999819,0.995194,0.003086,0.334270,0.000020,0.000037,0.000018,0.000048,0.000008,57.952645,0.000061,
2191,2413,-1.42938811721375,-5.05715827677579,-0.00926433968692209,0.001745,-0.000162,-0.002511,0.087928,-0.014048,324.566299,24.109450,0.999059,0.987396,0.004650,0.367398,0.000002,-0.000006,-0.000014,0.000013,-0.000017,-37.592576,0.000017,
2236,2653,-0.49140477555957,0.180199956929059,-0.00922724476748726,0.002053,-0.000601,0.002978,0.084487,-0.021060,320.560239,24.409606,0.999416,0.989586,0.004198,0.282464,0.000011,0.000023,0.000008,0.000027,0.000006,63.284759,0.000035,
2131,2173,-2.69583985103354,-10.3084253784449,0.0103412822277278,0.001884,-0.000591,0.002083,0.080017,-0.012768,328.802699,24.110020,0.999406,0.976016,0.005608,0.418130,0.000018,-0.000004,0.000002,0.000018,-0.000004,5.683405,0.000019,
2251,2653,-0.165482928821753,0.180883699499347,-0.0177944490738469,0.002263,-0.000618,0.002954,0.094139,-0.016157,320.467814,24.338828,0.999343,0.989591,0.004104,0.350013,0.000004,0.000019,0.000003,0.000020,0.000004,79.559291,0.000026,
2341,2653,1.79225190698664,0.184384463976372,-0.02288430058411,0.001853,-0.000801,0.006118,0.063513,-0.001187,320.302541,24.257707,0.999497,0.989105,0.004162,0.394530,-0.000001,0.000024,-0.000008,0.000027,-0.000003,-73.052847,0.000029,
2221,2548,-0.799330232952478,-2.10983211923856,-0.00780510601003925,0.002048,-0.000339,0.002199,0.086984,0.009799,322.311812,24.211717,0.999692,0.991880,0.003585,0.382562,0.000021,0.000010,0.000006,0.000023,0.000008,23.931923,0.000032,
2266,2803,0.133721969426468,3.4484801909398,-0.0251692175153266,0.002395,-0.000390,0.001264,0.105840,-0.006220,317.952883,24.601673,0.999147,0.988670,0.004535,0.346091,0.000006,0.000001,-0.000004,0.000008,-0.000001,-31.419476,0.000009,
2041,2113,-4.64650384804117,-11.621770975924,0.0195021018221269,0.002267,-0.000340,-0.003149,0.112672,-0.022026,330.319687,24.668412,0.998919,0.980796,0.005519,0.340813,0.000013,0.000031,0.000030,0.000053,-0.000009,53.403493,0.000057,
2296,2803,0.785373901999378,3.45025612913199,-0.0253246870112207,0.001908,-0.000363,0.003419,0.076122,0.027177,317.881203,24.620379,0.999164,0.989936,0.004082,0.388096,0.000006,0.000005,0.000000,0.000006,0.000005,-11.272103,0.000011,
2206,2473,-1.11347877715744,-3.74644000486533,-0.0134718519936996,0.001750,0.000115,0.000280,0.079551,0.005571,323.509903,24.117901,0.999357,0.983661,0.005113,0.407256,0.000017,0.000004,0.000005,0.000018,0.000002,19.209362,0.000023,
2356,2803,2.09179139965869,3.45179937293667,-0.0148297867287397,0.002052,-0.000168,-0.000926,0.097547,0.010836,317.962677,24.635829,0.999853,0.995128,0.003143,0.410058,-0.000001,0.000012,0.000000,0.000012,-0.000001,-87.998917,0.000014,
2206,2233,-1.07108650722239,-8.995461915468,0.0137975683488207,0.001728,-0.001164,0.005599,0.061167,-0.026629,327.593890,23.837785,0.999083,0.984025,0.005253,0.358201,0.000004,0.000007,-0.000004,0.000009,0.000002,-54.053278,0.000012,
2476,2113,4.84688938355704,-11.6280737153127,0.016652521718413,0.001622,-0.000332,0.002048,0.066274,-0.008007,329.549212,22.153720,0.999388,0.976029,0.005879,0.310083,0.000015,0.000032,-0.000003,0.000033,0.000014,-79.491919,0.000048,
2101,2083,-3.3357731174128,-12.2781782306935,0.00387442951631556,0.002087,-0.000175,0.001603,0.091006,0.002599,330.335528,24.293453,0.999082,0.959160,0.007764,0.382501,0.000034,0.000029,0.000023,0.000054,0.000008,42.042952,0.000068,
2296,2668,0.810589440408286,0.509772320264275,-0.0192380440374222,0.001747,-0.000401,-0.000244,0.080966,-0.006048,320.133081,24.359188,0.999612,0.990434,0.003868,0.344422,-0.000010,0.000028,-0.000005,0.000029,-0.000010,-83.263694,0.000029,
2386,2908,2.72337704595445,5.73827839819612,-0.0158228049885452,0.001895,-0.000949,0.008530,0.056183,0.006010,316.211815,24.988417,0.999450,0.991139,0.003824,0.380590,-0.000010,0.000008,-0.000004,0.000009,-0.000011,-78.636184,0.000011,
2431,3193,3.65050242954517,11.9288036938821,0.0355044987771862,0.002039,-0.000600,0.005308,0.073955,-0.011081,312.044328,26.009895,0.999652,0.991443,0.003586,0.360676,0.000032,0.000013,0.000019,0.000044,0.000001,31.472451,0.000051,
2506,2413,5.43990140867894,-5.05478622614528,0.00294379724624605,0.002074,-0.000502,0.001914,0.087389,-0.000977,324.685633,23.143934,0.999053,0.983967,0.005075,0.415866,0.000038,0.000043,0.000012,0.000053,0.000028,51.400470,0.000082,
2086,2023,-3.65352798402256,-13.5945400695724,0.0212133028006178,0.001233,-0.000804,0.004591,0.043072,-0.007397,331.465480,24.475834,0.998935,0.984286,0.005252,0.271753,0.000048,-0.000043,0.000033,0.000059,-0.000054,18.176914,0.000065,
2326,2608,1.47461752038281,-0.797354745134321,-0.0196214184745713,0.002057,-0.000759,0.004598,0.078339,0.000130,321.080005,24.177754,0.999537,0.989828,0.003962,0.379395,0.000001,0.000004,-0.000005,0.000008,-0.000003,-53.672417,0.000008,
2146,2158,-2.36639946191333,-10.6349894656586,0.00915721145810267,0.001923,-0.000364,0.000109,0.087743,-0.015344,328.981433,24.202064,0.999724,0.965672,0.006445,0.233863,0.000014,-0.000001,0.000000,0.000014,-0.000001,0.080092,0.000016,
2131,2398,-2.7319716685283,-5.3871062610543,0.00643132706318283,0.001992,-0.000440,-0.000256,0.092130,-0.011061,325.158189,24.271875,0.998707,0.984169,0.004971,0.375147,-0.000004,-0.000003,-0.000008,0.000005,-0.000011,-47.175071,0.000011,
2086,2203,-3.68117749432827,-9.65001228793938,0.00767280477077747,0.001951,-0.000720,0.002493,0.082152,-0.017478,328.503577,24.442947,0.998652,0.981586,0.005316,0.320199,0.000015,0.000020,0.000008,0.000026,0.000009,53.292462,0.000036,
2251,2443,-0.127944209156354,-4.40065385293779,-0.00472632099035764,0.001862,-0.000743,0.004373,0.070930,-0.017608,323.956620,24.073278,0.999437,0.989819,0.004170,0.274103,0.000006,0.000009,-0.000010,0.000018,-0.000003,-49.953651,0.000019,
2056,3283,-4.50033041068557,13.8449421744616,0.0377888354107085,0.002036,-0.000475,0.004930,0.079965,-0.003930,311.400642,24.148421,0.999744,0.995631,0.002812,0.409016,-0.000013,0.000037,-0.000015,0.000041,-0.000017,-74.516163,0.000041,
2491,2248,5.14601464245591,-8.667419859844,0.00683971918749648,0.001610,-0.000679,0.004746,0.055267,-0.011508,327.315194,22.543518,0.999088,0.981960,0.005365,0.381944,0.000008,-0.000046,-0.000004,0.000008,-0.000046,-4.245969,0.000050,
2236,2548,-0.474157639526691,-2.10844473792303,-0.0204251234207504,0.001820,-0.000777,0.004589,0.068512,-0.003180,322.153325,24.181655,0.999706,0.992409,0.003534,0.376141,0.000016,0.000007,0.000000,0.000016,0.000007,-0.918650,0.000023,
2281,2863,0.448634184106183,4.7542584516222,-0.018861303348217,0.002022,-0.000989,0.007219,0.068515,-0.009314,316.968763,24.763103,0.999678,0.993371,0.003516,0.305089,0.000004,0.000005,0.000002,0.000006,0.000002,57.398543,0.000009,
2221,2578,-0.805121313441173,-1.45480344306877,-0.0210691862232579,0.002128,-0.000086,-0.001432,0.102361,-0.000010,321.730346,24.216816,0.999284,0.989008,0.004078,0.407563,0.000020,0.000001,0.000008,0.000023,-0.000002,20.926482,0.000025,
2206,2488,-1.11642832691681,-3.41786775369477,-0.0199382862556376,0.001790,-0.000098,-0.000154,0.082716,0.001455,323.216045,24.188983,0.999354,0.985778,0.004725,0.350175,0.000015,0.000006,0.000003,0.000016,0.000005,16.240127,0.000022,
2101,3088,-3.49430567019679,9.62442571330501,0.0243815373921166,0.002096,-0.000650,0.001427,0.092219,-0.034338,314.248086,24.424813,0.999414,0.987613,0.004234,0.355867,0.000009,0.000004,0.000011,0.000018,-0.000005,38.741957,0.000018,
2281,2593,0.498342367487048,-1.12640850376603,-0.0124750877245106,0.002087,-0.000294,0.002647,0.086907,0.002784,321.430780,24.201211,0.999235,0.989054,0.004257,0.375616,0.000007,-0.000005,-0.000004,0.000009,-0.000006,-17.782282,0.000009,
2296,2818,0.783299439409952,3.77561232942628,-0.0209809594510375,0.002104,-0.000528,0.001421,0.091764,-0.008740,317.689535,24.624485,0.999397,0.990861,0.003869,0.377565,0.000007,0.000015,-0.000001,0.000015,0.000007,-83.892339,0.000022,
2071,2158,-4.00072572856155,-10.6355789329229,0.0134322563727665,0.001882,-0.000501,0.002014,0.080498,0.008738,329.349187,24.495063,0.999023,0.984443,0.005129,0.369870,0.000020,0.000020,-0.000004,0.000024,0.000016,-44.340843,0.000040,
2101,2248,-3.36142723514952,-8.66530689780589,0.00263318573030347,0.002182,-0.000464,0.000667,0.098080,-0.015434,327.681619,24.342912,0.998840,0.986295,0.004871,0.359144,0.000019,0.000013,0.000006,0.000023,0.000009,30.621575,0.000033,
2251,2668,-0.168477050716351,0.507298647081569,-0.0177131288908186,0.001929,-0.000812,0.003091,0.078285,-0.011573,320.209337,24.321320,0.999483,0.991526,0.003799,0.395887,0.000006,0.000020,-0.000002,0.000020,0.000006,-83.174388,0.000027,
2086,3268,-3.84783404971806,13.523567225098,0.0346556537758715,0.002366,-0.000133,0.001953,0.103626,0.018214,311.478575,24.342142,0.999741,0.995638,0.002832,0.408633,0.000000,0.000030,-0.000012,0.000034,-0.000004,-70.513339,0.000037,
2131,2188,-2.69710081470946,-9.97958654521559,0.0197762116021067,0.002295,-0.000199,0.000343,0.104237,-0.002673,328.663572,24.244744,0.999236,0.983798,0.005021,0.301245,0.000015,0.000012,0.000004,0.000018,0.000009,36.416243,0.000027,
2041,2128,-4.6494374176365,-11.292476956445,0.015350598464579,0.001978,-0.000346,-0.000302,0.091518,-0.001602,330.023287,24.666734,0.998565,0.977555,0.006146,0.358564,0.000004,0.000019,0.000030,0.000042,-0.000019,52.008624,0.000042,
2401,2953,3.04157678885931,6.71691783349233,-0.00906203988859033,0.001600,-0.000465,0.003227,0.061674,-0.004852,315.551347,25.138587,0.999562,0.991954,0.003733,0.383452,-0.000005,0.000004,0.000000,0.000004,-0.000005,88.005696,0.000005,
2041,3208,-4.81284685071484,12.2195431435097,0.0434875021697394,0.001934,-0.000398,0.001940,0.083818,-0.000303,312.767376,24.128216,0.999606,0.993415,0.003218,0.393413,-0.000028,0.000055,-0.000007,0.000055,-0.000029,-84.941976,0.000055,
2311,2578,1.15295062973307,-1.45115651946601,-0.0254928340109473,0.001674,-0.000375,0.001381,0.072027,-0.006983,321.519877,24.170026,0.999493,0.991184,0.003836,0.329494,0.000004,-0.000001,-0.000008,0.000009,-0.000007,-37.125064,0.000010,
2116,2083,-3.00801970259652,-12.2788812518083,0.014422294918802,0.002041,-0.000417,0.000172,0.092986,-0.025451,330.357642,24.306856,0.998686,0.977018,0.006037,0.248404,0.000024,0.000027,0.000019,0.000045,0.000007,47.091007,0.000056,
2461,2008,4.54175090659105,-13.9351059489687,0.0310358249427054,0.001908,-0.000489,0.000767,0.084134,-0.029950,331.344078,21.885863,0.999062,0.972623,0.006163,0.240130,0.000005,0.000022,0.000009,0.000026,0.000001,66.351262,0.000031,
2356,2818,2.08884984334285,3.77779063902939,-0.0115906159320502,0.001990,-0.000494,0.002786,0.081498,-0.008044,317.729575,24.673138,0.999713,0.992595,0.003534,0.392569,-0.000004,0.000019,0.000000,0.000019,-0.000004,-89.589433,0.000020,
2056,3298,-4.50320063187516,14.1703821953888,0.0278424174377392,0.002029,-0.000162,0.002461,0.086722,0.005122,311.078252,24.148641,0.999595,0.994264,0.003055,0.411015,-0.000019,0.000067,-0.000016,0.000070,-0.000022,-79.744015,0.000071,
2266,2818,0.131293873202878,3.77417169603164,-0.0203507355342367,0.002165,-0.000189,-0.000684,0.101792,-0.012227,317.745246,24.609954,0.999306,0.989977,0.004132,0.357241,0.000008,0.000013,-0.000003,0.000014,0.000007,-66.714277,0.000021,
2371,2863,2.40616572692867,4.75837039741068,-0.0147050750502444,0.002005,-0.000647,0.005543,0.072197,-0.010399,316.963898,24.843266,0.999531,0.991015,0.003795,0.358240,-0.000011,0.000018,-0.000008,0.000020,-0.000013,-75.445827,0.000021,
2416,3118,3.33816423022996,10.3012083133469,0.0202544547402113,0.002010,-0.000569,0.003526,0.079394,0.000035,313.130955,25.743699,0.999829,0.995513,0.002952,0.334138,0.000027,0.000036,0.000017,0.000049,0.000014,52.464168,0.000066,
2431,3208,3.64725268569201,12.2543075977225,0.030523011582261,0.002134,-0.000588,0.004930,0.079721,-0.013690,311.762110,26.036714,0.999601,0.989964,0.003921,0.379838,0.000035,0.000001,0.000014,0.000040,-0.000004,19.756433,0.000043,
2506,2428,5.4375613776794,-4.7270674931493,0.00627646686785965,0.002389,-0.000365,-0.000163,0.109892,-0.006100,324.492731,23.211298,0.998868,0.981913,0.005436,0.406075,0.000040,0.000033,0.000016,0.000053,0.000021,38.680023,0.000076,
2161,2263,-2.05796559309229,-8.33547545016103,-0.00420149991987273,0.001710,-0.000477,0.003884,0.066477,0.015365,327.104152,24.153359,0.998740,0.980036,0.005530,0.320868,0.000010,-0.000003,-0.000006,0.000012,-0.000006,-21.983141,0.000012,
2206,2248,-1.07375729797185,-8.66506355142263,0.00104548322701703,0.002345,-0.000699,0.003407,0.096548,-0.017915,327.280559,23.908475,0.998952,0.983478,0.005172,0.315467,0.000003,-0.000002,-0.000001,0.000004,-0.000002,-12.098779,0.000004,
2491,2263,5.14354484307594,-8.33882645520558,0.00938095764360014,0.001845,-0.000840,0.002619,0.074054,-0.024657,327.112485,22.637142,0.998946,0.979999,0.005260,0.335848,0.000000,-0.000045,-0.000011,0.000003,-0.000047,-12.749105,0.000053,
2101,2098,-3.336742960426,-11.9479607635541,0.0197770580674614,0.002340,0.000124,-0.000123,0.107743,0.011881,330.242294,24.596999,0.999339,0.958501,0.007986,0.091755,0.000032,0.000026,0.000021,0.000050,0.000008,40.584713,0.000063,
2086,3283,-3.8507749263619,13.848267305242,0.0349853331899794,0.001936,-0.000396,0.003316,0.079704,-0.001682,311.212118,24.355481,0.999637,0.995331,0.002876,0.372808,0.000006,0.000038,-0.000008,0.000040,0.000004,-76.020701,0.000048,
2221,2563,-0.802725744808573,-1.78247420727745,-0.0146869183798799,0.001920,-0.000791,0.004855,0.072409,-0.002699,321.996960,24.202553,0.999554,0.991230,0.003729,0.399012,0.000022,0.000002,0.000005,0.000023,0.000001,12.449850,0.000026,
2281,2878,0.446407669842156,5.07875891775419,-0.0162130506342351,0.001865,-0.000462,0.001103,0.081929,-0.020795,316.760728,24.667175,0.999716,0.993269,0.003526,0.417111,0.000002,0.000003,-0.000002,0.000005,0.000000,-49.961247,0.000006,
2086,2218,-3.68337077237736,-9.32137418644109,0.00979288939885237,0.001976,-0.000273,0.003075,0.081764,0.032796,328.279223,24.452057,0.998546,0.982563,0.005228,0.363086,0.000020,0.000020,0.000008,0.000028,0.000012,44.439561,0.000041,
2266,2728,0.14672680480308,1.8156603263981,-0.0221015953250685,0.001925,-0.000413,0.003945,0.075341,0.011828,319.168061,24.445968,0.999495,0.991308,0.003744,0.391987,0.000002,0.000007,-0.000007,0.000012,-0.000003,-55.777887,0.000013,
2041,3223,-4.81524769792075,12.5444692577847,0.0433355299916798,0.002027,-0.000510,0.003843,0.082719,-0.008723,312.519871,24.131667,0.999579,0.993424,0.003166,0.372626,-0.000031,0.000049,-0.000010,0.000051,-0.000032,-83.010013,0.000051,
2131,2203,-2.70087699994545,-9.6502272680498,0.00671616249763929,0.001901,-0.000468,0.002252,0.080374,-0.005281,328.289876,24.208756,0.998717,0.979818,0.005443,0.343487,0.000015,0.000011,0.000003,0.000016,0.000009,26.144363,0.000026,
2281,2608,0.494484467649993,-0.798102137395269,-0.0190252798643655,0.001748,-0.000724,0.007096,0.056352,0.015607,321.101618,24.273612,0.999191,0.988727,0.004328,0.345016,0.000006,0.000003,0.000001,0.000006,0.000003,8.392561,0.000009,
2251,2683,-0.17106999194241,0.833733231819508,-0.0161647371012918,0.001822,-0.000663,0.002277,0.076103,-0.013673,319.976671,24.328888,0.999437,0.991299,0.003785,0.410034,0.000007,0.000027,-0.000005,0.000028,0.000006,-77.450793,0.000036,
2116,2098,-3.0096501488483,-11.9501032740682,0.0177972664298522,0.002524,-0.000662,-0.000332,0.116545,-0.039975,330.168371,24.365583,0.999035,0.976006,0.006023,0.181382,0.000024,0.000024,0.000017,0.000041,0.000007,44.904191,0.000052,
2161,2293,-2.06148889373542,-7.68097611409047,-0.000597178185216762,0.002402,-0.000274,-0.003042,0.119461,-0.014517,326.704534,24.091230,0.998605,0.981861,0.005416,0.377404,0.000011,-0.000019,-0.000008,0.000013,-0.000021,-13.461221,0.000021,
2386,2923,2.72139419011843,6.06383727976983,-0.00940320168831477,0.002093,-0.000789,0.005853,0.074891,-0.010864,316.039665,25.035560,0.999288,0.990007,0.004099,0.359306,-0.000011,0.000005,-0.000005,0.000006,-0.000013,-73.585004,0.000013,
2086,2038,-3.65531393221957,-13.2671713279078,0.0273734398178362,0.001451,-0.001395,0.006250,0.048126,-0.022459,331.282024,24.416156,0.999014,0.984222,0.005176,0.318516,0.000035,-0.000045,0.000028,0.000044,-0.000054,17.342228,0.000058,
2476,2128,4.84442851053241,-11.3006284961079,0.0273462266948172,0.001801,-0.001391,0.007645,0.052863,-0.032268,329.383415,22.195022,0.999146,0.974185,0.006122,0.303579,0.000018,0.000028,0.000005,0.000030,0.000016,67.741095,0.000047,
2176,2248,-1.72757944567061,-8.66605009178528,0.00349880535441116,0.001881,-0.000736,-0.001403,0.090407,-0.043193,327.384118,23.995302,0.998782,0.981528,0.005321,0.339610,0.000009,0.000003,-0.000007,0.000014,-0.000001,-33.388348,0.000016,
2191,2668,-1.47345082164516,0.506269874651991,-0.022446368647195,0.001974,-0.000334,-0.000079,0.090885,-0.019494,320.330543,24.420749,0.999764,0.994465,0.003190,0.313555,0.000013,0.000023,0.000011,0.000030,0.000006,56.598597,0.000039,
2071,1993,-3.97543533420523,-14.2530887144403,0.0281492900737703,0.001447,-0.000776,0.004589,0.053056,-0.000218,332.089400,24.573234,0.998882,0.980627,0.005458,0.280714,0.000095,-0.000031,0.000073,0.000129,-0.000064,24.495950,0.000129,
2431,3223,3.64410531311541,12.5802471788292,0.0314223423670228,0.001838,-0.000309,0.004309,0.068519,0.000527,311.511799,26.125112,0.999579,0.991236,0.003726,0.354278,0.000034,-0.000011,0.000010,0.000036,-0.000013,11.736936,0.000036,
2146,2218,-2.37643578878602,-9.32203943603386,0.0122143061813063,0.001597,-0.000352,0.003242,0.063401,-0.000411,328.017889,24.194274,0.998704,0.979381,0.005494,0.298382,0.000014,0.000015,0.000000,0.000015,0.000014,73.331364,0.000029,
2296,2683,0.807943650456171,0.835773023894561,-0.0183832162188651,0.002007,-0.000642,0.002957,0.082040,-0.001651,319.897963,24.315540,0.999696,0.989943,0.003858,0.422896,-0.000007,0.000035,-0.000005,0.000035,-0.000008,-83.548585,0.000037,
2341,2668,1.78979135914486,0.511467772110059,-0.0171021670019513,0.001951,-0.000957,0.008495,0.059644,-0.011823,320.103061,24.365747,0.999721,0.991914,0.003813,0.312647,-0.000004,0.000026,-0.000010,0.000029,-0.000007,-72.378051,0.000030,
2146,2443,-2.41435747460874,-4.40206205614366,-0.0118895596131097,0.001787,0.000024,0.001636,0.077190,0.022379,324.203202,24.257083,0.999226,0.987291,0.004682,0.406190,-0.000005,-0.000009,-0.000011,0.000004,-0.000018,-39.566247,0.000019,
2191,2428,-1.43125809551678,-4.73087040457101,-0.00305883078976876,0.002263,-0.000698,0.001652,0.098516,-0.031973,324.386836,24.082504,0.998676,0.986307,0.004965,0.392251,0.000003,-0.000015,-0.000011,0.000009,-0.000020,-25.223052,0.000020,
2401,2968,3.04001800905359,7.04229580129833,0.00497030316807923,0.001863,-0.000572,0.003387,0.073161,-0.005483,315.435414,25.216451,0.999870,0.994869,0.003204,0.349471,-0.000003,0.000010,0.000006,0.000012,-0.000006,69.634410,0.000012,
2356,2833,2.08568327208874,4.10468127619635,-0.0144248572921128,0.001967,-0.000633,0.003782,0.076864,-0.007719,317.456522,24.732067,0.999759,0.990806,0.003814,0.372572,-0.000005,0.000026,-0.000002,0.000026,-0.000005,-85.596259,0.000028,
2176,2368,-1.74842131631753,-6.04007773519502,-0.00833520069892302,0.002096,-0.000524,0.002758,0.087522,-0.005641,325.347056,24.139554,0.999105,0.987191,0.004598,0.347813,0.000000,-0.000002,-0.000010,0.000009,-0.000012,-41.628828,0.000012,
2101,2113,-3.33887562031499,-11.6233219159226,0.0296094669130298,0.002063,-0.000460,0.002616,0.086871,-0.021549,330.064474,24.372245,0.999122,0.978757,0.005723,0.287193,0.000031,0.000022,0.000022,0.000049,0.000004,39.577488,0.000059,
2161,2518,-2.10121523586752,-2.76428901416474,-0.0300108034969071,0.002177,-0.000914,0.002646,0.091627,-0.036179,322.798405,24.252482,0.998895,0.986497,0.004805,0.369873,0.000009,0.000007,0.000001,0.000010,0.000007,20.427611,0.000017,
2266,2833,0.128164023445045,4.1005617132092,-0.0207925045152706,0.002131,-0.000639,0.004427,0.083177,-0.007852,317.478677,24.636179,0.999307,0.990395,0.003946,0.360670,0.000006,0.000016,-0.000001,0.000016,0.000006,-85.672581,0.000022,
2221,2818,-0.846807398283971,3.7712402642367,-0.0116603393469745,0.001928,-0.000858,0.004730,0.073261,-0.013784,317.882964,24.570862,0.999506,0.990849,0.003918,0.346946,0.000001,0.000017,0.000004,0.000018,0.000000,78.053159,0.000021,
2071,2008,-3.97788002593663,-13.9227323697212,0.0211701623821909,0.001604,-0.000555,0.002989,0.064891,-0.003600,331.802662,24.613832,0.999006,0.983178,0.005166,0.237524,0.000082,-0.000031,0.000059,0.000108,-0.000056,23.010822,0.000108,
2476,2143,4.84143395818571,-10.9700711968402,0.0226692297374029,0.002125,-0.000939,0.005876,0.074533,0.004283,329.123079,22.298300,0.998621,0.975618,0.005838,0.296857,0.000019,0.000028,0.000001,0.000028,0.000019,81.966934,0.000047,
2146,2173,-2.36662793176908,-10.3115028609979,0.0398731874319083,0.002046,-0.000430,-0.000134,0.094128,-0.015854,329.003791,24.080328,0.999848,0.944811,0.008051,0.364142,0.000014,-0.000008,-0.000002,0.000015,-0.000008,-4.875721,0.000015,
2116,2308,-3.0447010483254,-7.35325860481372,0.00382000226636592,0.001839,-0.000683,0.003733,0.073200,-0.008073,326.632553,24.301646,0.998996,0.985701,0.004943,0.362795,0.000014,-0.000020,-0.000004,0.000015,-0.000021,-7.051053,0.000021,
2056,2158,-4.32787283366771,-10.6343638823917,0.00985080313478193,0.001918,-0.000779,0.004997,0.073790,0.001268,329.393082,24.640286,0.999020,0.986143,0.004949,0.298017,0.000015,0.000021,-0.000005,0.000024,0.000012,-61.423426,0.000037,
2086,2053,-3.65636257678965,-12.9380289151778,0.0344719802776012,0.002227,-0.001093,0.005816,0.085023,0.006054,331.136793,24.489447,0.998733,0.980993,0.005456,0.275694,0.000030,-0.000011,0.000028,0.000044,-0.000026,26.928745,0.000044,
2086,2233,-3.6859441897857,-8.99253278537186,0.00304056213798276,0.002238,-0.000629,0.004489,0.089640,0.020169,327.989668,24.455827,0.998961,0.984676,0.004807,0.348466,0.000019,0.000022,0.000008,0.000029,0.000012,51.749750,0.000042,
2116,2113,-3.01275488298615,-11.6232609504434,0.0225197263805512,0.001963,-0.001202,0.007400,0.067872,-0.028142,329.919165,24.241533,0.999272,0.985206,0.004886,0.323975,0.000023,0.000021,0.000019,0.000041,0.000003,43.747571,0.000049,
2431,3238,3.64035567779729,12.9057258426792,0.0243091106743805,0.001848,-0.000444,0.006932,0.059189,-0.006187,311.196443,26.150301,0.999603,0.992469,0.003526,0.370816,0.000032,-0.000016,0.000003,0.000032,-0.000016,3.826923,0.000032,
2131,2218,-2.70326145118547,-9.32149595170357,0.00616212078131184,0.001904,-0.000129,0.001471,0.082954,-0.001476,328.046339,24.245854,0.998624,0.978534,0.005535,0.318501,0.000016,0.000014,0.000002,0.000017,0.000013,30.688401,0.000030,
2461,2023,4.53854428747549,-13.6049822030948,0.0303188936745755,0.002022,-0.000742,0.003362,0.079511,-0.016314,331.091383,21.970570,0.999303,0.978252,0.005581,0.227174,0.000016,0.000040,0.000000,0.000040,0.000016,-89.312610,0.000057,
2101,3103,-3.49655625411151,9.95018517417575,0.0285588738735782,0.002122,-0.000622,0.002941,0.089063,-0.020931,314.034695,24.482197,0.999695,0.993042,0.003295,0.311981,0.000005,0.000009,0.000016,0.000023,-0.000009,48.428497,0.000024,
2506,2443,5.43380611979067,-4.39861254246451,0.00227261070000395,0.002074,-0.000351,-0.000355,0.096208,-0.015687,324.201933,23.286590,0.999034,0.982565,0.005231,0.383943,0.000051,-0.000004,0.000018,0.000057,-0.000010,16.670903,0.000061,
2071,2173,-4.00328849390188,-10.3076651833015,0.0178366023868648,0.001593,-0.001153,0.006277,0.054891,-0.001845,329.119633,24.506938,0.998924,0.985721,0.004978,0.346866,0.000017,0.000008,-0.000002,0.000017,0.000007,-11.339043,0.000025,
2251,2458,-0.130485514975167,-4.07356507828869,-0.0051969759823578,0.001970,-0.000722,0.004009,0.077088,-0.013440,323.716403,24.045340,0.999741,0.991091,0.004027,0.330760,0.000008,0.000005,-0.000008,0.000014,-0.000002,-40.273618,0.000016,
2101,2263,-3.36412570585706,-8.33838723757795,0.00713849447731718,0.001909,-0.001447,0.006403,0.068512,-0.045475,327.448944,24.315400,0.998834,0.984833,0.004979,0.360217,0.000020,0.000006,0.000014,0.000029,-0.000003,31.044523,0.000031,
2311,2593,1.1512394130805,-1.12531084996309,-0.0175540011895237,0.002099,-0.000229,0.001074,0.092689,0.009163,321.363849,24.134817,0.999577,0.991698,0.003696,0.413554,0.000003,-0.000006,-0.000006,0.000007,-0.000009,-27.987170,0.000009,
2071,2023,-3.98034129087351,-13.5938241032543,0.0181411528042759,0.001612,-0.000465,0.003334,0.064307,0.011309,331.536812,24.555524,0.998883,0.984260,0.005155,0.311337,0.000067,-0.000044,0.000043,0.000082,-0.000059,19.081839,0.000084,
2131,2413,-2.7352513392471,-5.05707799559598,-0.0117341069252461,0.002367,-0.000303,0.000313,0.107748,0.002243,324.779501,24.318090,0.998942,0.985959,0.004860,0.350150,-0.000001,-0.000009,-0.000012,0.000008,-0.000018,-36.222313,0.000018,
2491,2278,5.14101916473195,-8.00982733375499,0.0116030442252395,0.002133,-0.000636,0.001483,0.091677,-0.021025,326.905583,22.752718,0.999268,0.982223,0.004969,0.285004,-0.000007,-0.000048,-0.000002,-0.000007,-0.000048,-2.231995,0.000060,
2236,2563,-0.475718119913648,-1.7835912545302,-0.00913686787004053,0.001983,-0.000583,0.003331,0.080121,-0.002010,322.017014,24.090101,0.999682,0.992485,0.003487,0.490524,0.000015,0.000000,-0.000002,0.000015,0.000000,-5.731834,0.000018,
2236,2668,-0.494011581138761,0.506659346776132,-0.00693486040000835,0.001834,-0.000265,0.001894,0.078114,0.002818,320.329575,24.394413,0.999482,0.990981,0.003889,0.343353,0.000012,0.000021,0.000004,0.000023,0.000010,68.379744,0.000034,
2191,2173,-1.38734280426011,-10.3088345134914,0.0131422792955505,0.002097,-0.000347,0.000663,0.093973,0.001888,328.628864,23.829139,0.999279,0.968576,0.006043,0.397092,0.000013,-0.000007,0.000001,0.000013,-0.000007,2.707446,0.000013,
2266,2848,0.125944912412621,4.42592797221492,-0.0118920041551291,0.002149,-0.000923,0.007039,0.075249,-0.003084,317.301193,24.642049,0.999533,0.992493,0.003658,0.384755,0.000007,0.000011,0.000003,0.000012,0.000006,62.804543,0.000018,
2176,2383,-1.75129061574678,-5.7134089653366,-0.00613378328978342,0.001850,-0.000938,0.006838,0.063475,-0.005036,325.099812,24.076675,0.999138,0.988712,0.004451,0.425116,-0.000002,-0.000003,-0.000010,0.000007,-0.000012,-42.570939,0.000012,
2281,2623,0.491668320007779,-0.471968186377062,-0.0187928430830766,0.001590,-0.001003,0.006701,0.050297,-0.004209,320.854622,24.242594,0.999371,0.988341,0.004189,0.384316,0.000003,0.000012,0.000003,0.000013,0.000003,73.679592,0.000017,
2251,2698,-0.173647567214292,1.16046192452632,-0.0167216718414807,0.002049,-0.000645,0.003761,0.081675,-0.012710,319.733948,24.347530,0.999439,0.991538,0.003624,0.415875,0.000002,0.000021,-0.000003,0.000022,0.000001,-81.106111,0.000026,
2206,2503,-1.11830441855238,-3.09163107379885,-0.0157688119986688,0.002153,-0.000097,-0.000629,0.100837,-0.018521,323.026752,24.164162,0.999550,0.988707,0.004228,0.372881,0.000016,0.000012,0.000003,0.000018,0.000010,29.082502,0.000029,
2071,2038,-3.98200738664628,-13.2654211664075,0.0218629663599472,0.001897,-0.000211,0.002084,0.081006,0.011718,331.344198,24.547125,0.998938,0.985387,0.004934,0.320335,0.000052,-0.000050,0.000033,0.000062,-0.000059,16.340813,0.000070,
2506,2458,5.43032826978399,-4.06988567238108,-0.00546073645699607,0.002411,-0.000431,0.000129,0.109767,-0.005524,323.907042,23.337815,0.999293,0.985975,0.004601,0.405505,0.000061,0.000000,0.000019,0.000067,-0.000005,16.192703,0.000074,
2206,2743,-1.16059697584222,2.13970785551049,-0.0244003451688286,0.001980,-0.000634,0.003889,0.078505,-0.021190,319.040557,24.473980,0.999565,0.990364,0.003889,0.337305,0.000000,0.000008,-0.000001,0.000008,0.000000,-80.175870,0.000009,
2221,2833,-0.84955823734699,4.09689210045813,-0.00989030518178424,0.001748,-0.000909,0.005893,0.061242,-0.014779,317.641966,24.549875,0.999393,0.990858,0.003849,0.385619,0.000005,0.000020,0.000007,0.000023,0.000002,67.595409,0.000028,
2236,2893,-0.533284630663729,5.40178075920801,0.00260437305905725,0.001692,-0.000553,0.005150,0.060998,0.000384,316.733556,24.683789,0.999710,0.992171,0.003553,0.368010,-0.000004,0.000015,0.000004,0.000016,-0.000005,78.265993,0.000016,
2101,2278,-3.36626915161905,-8.0096306489402,0.0042761628630501,0.002031,-0.000586,0.002220,0.086601,-0.008859,327.201272,24.319068,0.998697,0.983935,0.005088,0.396552,0.000023,0.000001,0.000012,0.000028,-0.000005,24.374117,0.000031,
2116,2323,-3.04746429584689,-7.02461456038954,0.000395497889655871,0.001618,-0.000671,0.002707,0.066113,-0.016062,326.355084,24.350555,0.999120,0.987461,0.004634,0.311459,0.000011,-0.000029,-0.000009,0.000012,-0.000031,-11.564787,0.000031,
2056,2173,-4.33052255013987,-10.3058338520537,0.00725841736118582,0.001779,-0.000751,0.006617,0.062847,0.003352,329.119860,24.621576,0.999032,0.988934,0.004535,0.316568,0.000012,0.000011,-0.000003,0.000014,0.000009,-38.187567,0.000022,
2161,2533,-2.10346779843587,-2.43734708928712,-0.0226019144575389,0.001927,-0.000654,0.002845,0.079645,-0.020062,322.605431,24.294240,0.999073,0.987309,0.004480,0.355285,0.000008,0.000006,0.000005,0.000012,0.000002,40.566058,0.000015,
2101,2128,-3.34209669977117,-11.2949021719808,0.0249319766186886,0.001544,-0.001043,0.003707,0.059707,-0.028730,329.758097,24.313261,0.999102,0.987189,0.004870,0.343514,0.000025,0.000012,0.000022,0.000042,-0.000004,36.656559,0.000046,
2416,3133,3.3352655783218,10.6254548821523,0.0208513748789869,0.002046,-0.000541,0.004024,0.079284,0.007772,312.890630,25.658277,0.999843,0.995569,0.002880,0.474005,0.000032,0.000033,0.000016,0.000049,0.000016,46.332301,0.000068,
2356,2848,2.08228208582437,4.43169091756893,-0.0213210374623145,0.002004,-0.000488,0.004565,0.075894,0.006975,317.152971,24.762019,0.999672,0.990771,0.003788,0.396058,-0.000008,0.000021,-0.000004,0.000022,-0.000008,-82.461883,0.000022,
2266,2743,0.144542301753656,2.14198853568143,-0.0211168358989653,0.002321,-0.000358,0.003473,0.095136,0.011421,318.952305,24.455813,0.999314,0.988603,0.004091,0.407461,0.000000,0.000009,-0.000005,0.000012,-0.000002,-66.985497,0.000012,
2281,2893,0.443542257296475,5.40604949098126,-0.0183977113283618,0.002024,-0.000468,0.002999,0.082961,0.002471,316.498288,24.762041,0.999650,0.992398,0.003518,0.373071,-0.000002,0.000003,0.000000,0.000003,-0.000002,85.327641,0.000003,
2116,2128,-3.01561452846839,-11.2945870157212,0.0196801625593253,0.001464,-0.000971,0.004538,0.053474,-0.033257,329.640496,24.224217,0.998896,0.983006,0.005281,0.342822,0.000020,0.000013,0.000020,0.000036,-0.000003,40.474875,0.000040,
2401,2983,3.03697914253913,7.36862837083676,0.00113939480661429,0.001964,-0.000172,0.002305,0.081928,0.011208,315.166667,25.244956,0.999704,0.992467,0.003609,0.382721,0.000000,0.000017,0.000009,0.000021,-0.000004,65.870891,0.000022,
2071,2053,-3.98378425267997,-12.9367448116886,0.0221816032889137,0.002251,-0.000128,0.000248,0.102493,0.002399,331.128014,24.540345,0.998480,0.977870,0.005815,0.317909,0.000043,-0.000014,0.000027,0.000054,-0.000025,21.813163,0.000054,
2221,2593,-0.807898216007636,-1.1278363278118,-0.0223004997405951,0.002202,-0.000509,0.000912,0.098102,-0.013587,321.472829,24.233120,0.999214,0.987052,0.004411,0.397263,0.000019,0.000001,0.000008,0.000022,-0.000002,21.579397,0.000024,
2476,2158,4.83838098133978,-10.6411897228816,0.0203985806880382,0.002046,-0.000402,0.002565,0.083721,-0.023430,328.871307,22.344547,0.998650,0.973797,0.006138,0.282202,0.000014,-0.000005,-0.000010,0.000018,-0.000009,-24.470958,0.000018,
2176,2593,-1.78680931230729,-1.12954879930626,-0.0191782236860831,0.001998,-0.000827,0.001360,0.087354,-0.034288,321.618662,24.295858,0.999187,0.988445,0.004229,0.365645,0.000009,0.000011,0.000013,0.000023,-0.000003,47.003204,0.000026,
2431,3253,3.63685086253282,13.2318785851566,0.0138115339410092,0.002129,-0.000610,0.006458,0.073899,0.000848,310.876263,26.209796,0.999610,0.992741,0.003390,0.366930,0.000031,-0.000012,0.000002,0.000031,-0.000012,2.315623,0.000032,
2191,2683,-1.47533231037244,0.831282432894668,-0.0117733994220544,0.002122,-0.000682,0.003037,0.087840,-0.014971,320.173857,24.365691,0.999640,0.993354,0.003432,0.388015,0.000011,0.000029,0.000007,0.000031,0.000009,71.095666,0.000042,
2041,3238,-4.81757063262105,12.8690618560341,0.0442926051396739,0.002041,-0.000700,0.004252,0.082179,-0.019525,312.282271,24.116797,0.999614,0.994863,0.002933,0.367672,-0.000033,0.000044,-0.000019,0.000049,-0.000038,-76.693540,0.000051,
2491,2293,5.13762586300657,-7.68239704285159,0.0121081110227124,0.001994,-0.001087,0.004011,0.075491,-0.028306,326.651285,22.723410,0.999328,0.982720,0.004914,0.368009,-0.000009,-0.000045,0.000008,-0.000007,-0.000047,12.280919,0.000059,
2176,2263,-1.73009264971803,-8.33697099356806,0.00855962697750101,0.001680,-0.000384,0.000938,0.074086,-0.004795,327.167562,24.103696,0.998891,0.980713,0.005526,0.284086,0.000011,0.000006,-0.000007,0.000016,0.000001,-35.216201,0.000019,
2236,2908,-0.536027169068223,5.72845572357522,-0.00261806821509936,0.001774,-0.000574,0.002407,0.073709,0.000276,316.457895,24.725832,0.999698,0.992556,0.003541,0.346567,-0.000002,0.000011,0.000002,0.000012,-0.000003,83.022530,0.000012,
2371,2878,2.4036918932986,5.08486703838806,-0.0130681336308953,0.002103,-0.000813,0.003287,0.084610,-0.034357,316.745292,24.936986,0.999471,0.993544,0.003517,0.281305,-0.000012,0.000013,-0.000011,0.000017,-0.000016,-69.874170,0.000019,
2071,2188,-4.00540478411463,-9.97883455442263,0.00707091522519931,0.002182,-0.000713,0.002335,0.093292,-0.023079,328.827623,24.457919,0.998704,0.984815,0.005281,0.374707,0.000012,0.000029,0.000003,0.000029,0.000012,81.306481,0.000042,
2131,2233,-2.70526209056615,-8.99354460182733,0.011057833808195,0.001980,-0.000398,0.001352,0.086711,0.005562,327.849453,24.270048,0.998861,0.980934,0.005297,0.309124,0.000012,0.000009,0.000000,0.000012,0.000009,3.979754,0.000021,
2146,2233,-2.37892263421092,-8.99387620634988,0.00863999238600854,0.001690,-0.000526,0.001911,0.071617,-0.005603,327.755138,24.162497,0.998972,0.980961,0.005203,0.335634,0.000010,0.000007,-0.000001,0.000010,0.000007,-14.608603,0.000018,
2146,2188,-2.36910935590126,-9.98253495265539,0.0321785531700129,0.002467,-0.000215,-0.000647,0.115045,-0.010106,328.719401,24.049201,0.999381,0.954774,0.007072,0.411991,0.000012,0.000008,0.000001,0.000012,0.000008,8.124408,0.000020,
2101,2293,-3.36918655963541,-7.68048340450736,0.000714157508127755,0.001709,-0.000257,0.002396,0.071409,0.008748,326.914454,24.376027,0.999059,0.986465,0.004807,0.360901,0.000024,-0.000004,0.000007,0.000025,-0.000006,14.265560,0.000027,
2386,2938,2.71824678785151,6.38959421089692,-0.00568225387689836,0.001693,-0.001021,0.007673,0.049906,-0.014000,315.800977,25.071674,0.999276,0.990165,0.004046,0.362771,-0.000010,0.000004,-0.000006,0.000006,-0.000012,-70.197996,0.000012,
2461,2038,4.53543665594101,-13.2757436812975,0.0302706301928879,0.002017,-0.000604,0.004120,0.076503,-0.003371,330.846239,21.988372,0.999398,0.979862,0.005481,0.280179,0.000022,0.000043,-0.000002,0.000043,0.000022,-85.415309,0.000067,
2341,2683,1.78654666162177,0.838230939504363,-0.0232069833024298,0.001834,-0.001084,0.006495,0.061195,-0.020772,319.809930,24.348577,0.999673,0.991799,0.003775,0.357953,-0.000004,0.000031,-0.000010,0.000034,-0.000007,-75.016438,0.000036,
2506,2473,5.42619888775712,-3.74141625836274,-0.0057673301062664,0.001811,-0.000768,0.004661,0.064646,-0.007367,323.615300,23.452171,0.999421,0.985276,0.004553,0.351560,0.000041,-0.000007,0.000017,0.000047,-0.000012,17.835991,0.000048,
2086,2068,-3.65966940633538,-12.6077247951994,0.0169497038526174,0.002046,-0.000592,0.001416,0.089596,-0.010883,330.755253,24.445990,0.998835,0.962318,0.007352,0.305452,0.000030,0.000008,0.000028,0.000050,-0.000011,34.230359,0.000052,
2326,2623,1.47246106701153,-0.471343716680636,-0.0145723378259959,0.001977,-0.000362,0.000320,0.089567,-0.002146,320.890292,24.159581,0.999567,0.989150,0.003999,0.430103,-0.000003,0.000014,-0.000005,0.000015,-0.000005,-73.721242,0.000016,
2176,2398,-1.75342104713465,-5.38528577442825,-0.00561420926180745,0.001901,-0.000411,0.002608,0.079117,0.013796,324.877224,24.117083,0.999045,0.986653,0.004700,0.417554,-0.000002,0.000000,-0.000011,0.000010,-0.000012,-47.878204,0.000013,
2131,2428,-2.73857055253757,-4.72836351894778,-0.0209540754271984,0.002147,-0.000205,0.001384,0.094472,0.003596,324.446934,24.347894,0.999119,0.987346,0.004661,0.328957,-0.000004,-0.000010,-0.000008,0.000001,-0.000016,-34.478796,0.000018,
2311,2608,1.14839866018521,-0.798300441059219,-0.0183296862116435,0.002123,-0.000435,0.001691,0.091602,-0.002769,321.112930,24.163318,0.999614,0.991598,0.003655,0.406222,0.000002,0.000004,-0.000004,0.000006,-0.000001,-51.212644,0.000007,
2491,2308,5.13447905709719,-7.352936314371,0.0139338285752615,0.001807,-0.000769,0.004178,0.066399,-0.002016,326.413780,22.864558,0.998719,0.980332,0.005464,0.314083,-0.000005,-0.000027,0.000002,-0.000005,-0.000028,5.869280,0.000035,
2266,2863,0.124295626377133,4.75089784337153,0.000532229956434094,0.002156,-0.000856,0.005183,0.081768,-0.006726,317.167723,24.648953,0.999756,0.994355,0.003321,0.399333,0.000007,0.000008,-0.000001,0.000008,0.000007,-67.525506,0.000015,
2296,2833,0.780944600888933,4.10181626133272,-0.0152960521088517,0.002037,-0.000451,0.000947,0.090347,-0.002306,317.491294,24.678185,0.999699,0.992857,0.003553,0.360173,0.000004,0.000019,0.000000,0.000019,0.000004,-88.303552,0.000025,
2251,2728,-0.179648635672333,1.81464100130798,-0.0228333244014607,0.001758,-0.000506,0.003045,0.070686,-0.006429,319.184087,24.420586,0.999306,0.990761,0.003832,0.396497,0.000002,0.000008,-0.000005,0.000011,-0.000001,-59.247515,0.000013,
2251,2473,-0.132857685768268,-3.74749584501777,0.00225105151099569,0.001719,-0.000643,0.004249,0.064837,-0.004603,323.524101,23.997330,0.999665,0.990855,0.003972,0.412225,0.000011,0.000005,-0.000004,0.000013,0.000002,-27.319298,0.000016,
2206,2758,-1.16272625088362,2.46575185003297,-0.0198089320620625,0.002058,-0.000493,0.003057,0.084839,0.000314,318.841510,24.467936,0.999516,0.990348,0.003886,0.381713,-0.000001,0.000009,-0.000001,0.000009,-0.000001,-86.091112,0.000010,
2266,2758,0.141001115176945,2.46946272734102,-0.0303941471894404,0.002152,-0.000362,0.003607,0.086939,0.010420,318.622337,24.495029,0.999334,0.988861,0.004086,0.392915,0.000003,0.000018,-0.000002,0.000018,0.000003,-84.352513,0.000023,
2206,2518,-1.12114992003929,-2.76482040699722,-0.0182789106370933,0.002082,-0.000503,-0.000124,0.095864,-0.016127,322.758381,24.113816,0.999398,0.988326,0.004328,0.443310,0.000018,0.000002,0.000008,0.000022,-0.000002,22.081515,0.000024,
2236,2683,-0.49705831293706,0.833590772523884,-0.0158115514798283,0.001962,-0.000314,0.000694,0.087848,-0.016925,320.021812,24.378284,0.999446,0.989699,0.003987,0.361352,0.000011,0.000027,0.000002,0.000027,0.000011,84.530107,0.000039,
2356,2863,2.07948140173267,4.75758708344051,-0.0208919112645845,0.002056,-0.000706,0.005095,0.076313,-0.007327,316.912639,24.778024,0.999578,0.990767,0.003813,0.404238,-0.000009,0.000017,-0.000006,0.000018,-0.000010,-78.471240,0.000018,
2146,2458,-2.41705245547221,-4.07382085360737,-0.0160868158290555,0.001952,-0.000357,0.003501,0.079007,0.024276,323.927389,24.301015,0.999239,0.987756,0.004637,0.373502,-0.000003,-0.000012,-0.000013,0.000007,-0.000022,-34.971380,0.000022,
2431,3268,3.63332943010896,13.5581901676164,0.00355413185502584,0.002176,-0.000357,0.003547,0.086946,0.001753,310.556280,26.296641,0.999736,0.993668,0.003203,0.329554,0.000032,-0.000013,0.000004,0.000033,-0.000013,5.603453,0.000033,
2071,2203,-4.0078064101084,-9.6504791889403,0.00962398949843646,0.001870,-0.000464,0.001766,0.080684,-0.012007,328.595158,24.479482,0.998528,0.982826,0.005310,0.363479,0.000010,0.000023,0.000000,0.000023,0.000010,89.645919,0.000035,
2221,2608,-0.810503043313592,-0.800752139450147,-0.0245599425201135,0.002394,-0.000436,0.001476,0.105182,-0.008001,321.217818,24.237057,0.999042,0.984198,0.004771,0.418646,0.000020,0.000005,0.000011,0.000026,-0.000001,27.429177,0.000030,
2176,2608,-1.78944721768733,-0.801457789759489,-0.0251643382449629,0.002222,-0.000371,0.000379,0.100906,0.003228,321.338534,24.327238,0.999159,0.988666,0.004283,0.384902,0.000012,0.000011,0.000014,0.000026,-0.000003,44.791385,0.000028,
2101,2143,-3.34507089249056,-10.9648509699458,0.0182796914974119,0.001567,-0.000946,0.007321,0.050274,-0.003741,329.451902,24.355679,0.998822,0.983285,0.005316,0.330768,0.000024,0.000023,0.000018,0.000041,0.000006,44.083230,0.000051,
2296,2698,0.804783938372239,1.1631815363528,-0.023367736757109,0.001947,-0.000570,0.002847,0.079715,0.008338,319.609918,24.352327,0.999757,0.992323,0.003586,0.426528,-0.000010,0.000027,-0.000002,0.000028,-0.000010,-86.489639,0.000028,
2191,2443,-1.4345538570294,-4.40207205378974,-0.00768855974638427,0.001832,-0.000491,0.001768,0.078437,-0.010980,324.085179,24.149403,0.998905,0.986034,0.004894,0.362482,0.000003,-0.000014,-0.000008,0.000006,-0.000017,-20.792560,0.000017,
2416,3148,3.33295984343058,10.9509006613178,0.0313577949140154,0.001946,-0.000587,0.005236,0.070118,-0.008051,312.723695,25.770957,0.999759,0.994531,0.003054,0.391976,0.000030,0.000021,0.000017,0.000043,0.000008,37.265578,0.000055,
2476,2173,4.83513962230981,-10.3120522750945,0.0248376893782734,0.001894,-0.000723,0.007216,0.059010,0.004433,328.640840,22.435575,0.997881,0.966972,0.006859,0.278302,0.000006,-0.000003,-0.000016,0.000018,-0.000015,-37.049174,0.000019,
2101,3118,-3.49930597454586,10.2752794161278,0.0251161365670782,0.002057,-0.000519,0.003223,0.085367,0.001647,313.757314,24.425305,0.999776,0.994961,0.002874,0.391878,0.000003,0.000011,0.000011,0.000019,-0.000005,54.807691,0.000020,
2251,2968,-0.220671987899138,7.03366370687002,-0.000987968818492391,0.001748,0.000203,0.001436,0.075919,0.032476,315.463364,24.877937,0.999553,0.993905,0.003336,0.347126,-0.000009,0.000019,-0.000001,0.000019,-0.000009,-88.077648,0.000019,
2281,2908,0.44071796146207,5.73222976679624,-0.0162848246033604,0.001858,-0.000254,0.004254,0.071228,0.017586,316.259513,24.798455,0.999702,0.993191,0.003273,0.378875,-0.000002,0.000005,-0.000002,0.000006,-0.000003,-73.399153,0.000006,
2431,3283,3.63022981236822,13.8833077755067,-0.000475353481760976,0.002256,-0.000163,0.002095,0.096093,0.004905,310.285122,26.310009,0.999808,0.994301,0.003035,0.367932,0.000035,-0.000025,0.000000,0.000035,-0.000025,0.214480,0.000036,
2461,2053,4.53289649752815,-12.9468932251754,0.0331919775783263,0.002068,-0.000445,0.001645,0.088194,-0.020438,330.640730,22.039363,0.999330,0.980556,0.005420,0.269741,0.000026,0.000026,0.000008,0.000034,0.000018,46.229185,0.000053,
2506,2488,5.4234270078003,-3.41397380053388,-0.00430687428746523,0.002039,-0.000710,0.004829,0.074490,-0.006087,323.393872,23.490123,0.999558,0.986024,0.004468,0.377279,0.000049,-0.000014,0.000012,0.000051,-0.000016,10.376760,0.000052,
2131,2248,-2.70855232796474,-8.66494302460313,0.00253818596763722,0.001596,-0.000197,0.000534,0.071611,-0.003638,327.522221,24.236987,0.999119,0.982660,0.005097,0.341491,0.000009,0.000000,-0.000003,0.000010,-0.000001,-14.366669,0.000011,
2221,2848,-0.852350667170878,4.42404600499908,-0.0169255218842181,0.001969,-0.000603,0.004489,0.076074,0.002514,317.353346,24.586954,0.999343,0.990997,0.003750,0.384795,0.000007,0.000013,0.000008,0.000019,0.000001,56.089933,0.000022,
2176,2278,-1.7321530074878,-8.01049204243851,0.010538855013067,0.002073,-0.001138,0.002423,0.087240,-0.037102,326.956435,24.018322,0.998724,0.980615,0.005542,0.351351,0.000012,-0.000003,-0.000012,0.000019,-0.000010,-29.305022,0.000019,
2086,2248,-3.68910939237007,-8.66551795554257,0.00477347097330494,0.001441,-0.001141,0.007079,0.045411,0.003548,327.719459,24.390138,0.998914,0.985027,0.004843,0.398901,0.000016,0.000016,0.000007,0.000023,0.000009,45.914636,0.000033,
2311,2623,1.14606733689232,-0.471980496633741,-0.0133767149357027,0.002129,-0.000592,0.000995,0.094155,-0.019582,320.913688,24.186907,0.999549,0.989720,0.003871,0.398577,-0.000001,0.000012,-0.000004,0.000013,-0.000002,-74.327869,0.000014,
2266,3043,0.0926929053447161,8.66141410778583,0.0113689797668144,0.001834,-0.000376,0.000603,0.082334,-0.012722,314.322359,24.982195,0.999583,0.991970,0.003580,0.359459,0.000002,0.000009,-0.000004,0.000011,0.000000,-66.746637,0.000012,
2191,2698,-1.47819510924197,1.15714028766137,-0.0150295650511225,0.001967,-0.000467,0.002115,0.083696,-0.011188,319.899550,24.278275,0.999687,0.994466,0.003208,0.493898,0.000006,0.000023,0.000005,0.000024,0.000005,74.579830,0.000031,
2116,2338,-3.05001360740407,-6.6970079210927,-0.00683746105335103,0.001936,-0.000911,0.002978,0.079851,-0.037063,326.067261,24.285710,0.999235,0.986673,0.004678,0.360982,0.000003,-0.000021,-0.000008,0.000005,-0.000023,-16.293820,0.000024,
2251,2743,-0.181721344591598,2.14129972181308,-0.021889522240599,0.002156,-0.000448,0.001325,0.094688,-0.006535,318.972049,24.459942,0.999238,0.988780,0.004164,0.380429,0.000000,0.000009,-0.000004,0.000011,-0.000002,-68.463673,0.000012,
2296,2848,0.7781317681684,4.42707537606164,-0.0134257644803597,0.001994,-0.000483,0.003244,0.080572,-0.012349,317.253346,24.636571,0.999690,0.992882,0.003581,0.421578,0.000002,0.000013,0.000002,0.000013,0.000002,81.620625,0.000017,
2146,2473,-2.41913347548765,-3.74738251763807,-0.0122679546072391,0.001728,0.000206,-0.001586,0.084308,0.012930,323.722562,24.272411,0.999255,0.986835,0.004877,0.399723,0.000002,-0.000002,-0.000008,0.000008,-0.000008,-37.666209,0.000009,
2056,2188,-4.33230357736314,-9.97814452880888,0.00963238456984072,0.002002,-0.000500,0.005011,0.077681,-0.002169,328.913768,24.591531,0.998855,0.985756,0.004977,0.338190,0.000005,0.000032,0.000004,0.000033,0.000005,80.756649,0.000041,
2101,2308,-3.37097349177712,-7.35352295515301,0.00591885957135219,0.002068,-0.000747,0.004389,0.081958,-0.000494,326.727131,24.352902,0.999048,0.984096,0.005267,0.378005,0.000022,-0.000015,0.000001,0.000022,-0.000015,1.620073,0.000023,
2266,2878,0.121201913498872,5.07715135411235,-0.00511667013375927,0.002014,-0.000511,0.003103,0.082185,-0.015977,316.876588,24.649625,0.999664,0.992309,0.003582,0.414811,0.000004,0.000009,-0.000003,0.000010,0.000003,-63.259867,0.000013,
2041,3253,-4.82020840435042,13.1939069567228,0.0444387824852015,0.001759,-0.000295,0.004103,0.069625,-0.009109,312.025619,24.103175,0.999659,0.994801,0.002899,0.382681,-0.000032,0.000041,-0.000025,0.000048,-0.000040,-72.790209,0.000052,
2146,2248,-2.38126607396528,-8.66503413481952,0.00386795147943531,0.001943,-0.000048,-0.000391,0.090351,0.006062,327.492399,24.169279,0.998957,0.981197,0.005241,0.350862,0.000007,-0.000002,-0.000003,0.000008,-0.000003,-17.780996,0.000008,
2236,2578,-0.478962416087029,-1.45469839796773,-0.0201627201333849,0.002005,-0.000397,0.001253,0.087916,-0.010060,321.689015,24.186528,0.999440,0.989637,0.004020,0.408264,0.000015,0.000001,0.000001,0.000015,0.000001,5.861541,0.000018,
2161,2308,-2.06431234785194,-7.35254582340718,0.00827428276357978,0.001992,-0.000809,0.004921,0.076123,-0.017631,326.492996,24.234272,0.998791,0.982782,0.005230,0.243146,0.000008,-0.000023,-0.000011,0.000012,-0.000027,-17.456175,0.000027,
2491,2323,5.13095897698897,-7.02374965357541,0.00836931448742462,0.002254,-0.001017,0.008996,0.068367,0.026416,326.125898,22.910072,0.998596,0.982446,0.005314,0.358249,0.000001,0.000007,0.000004,0.000010,-0.000001,62.650986,0.000011,
2506,2503,5.41994029930851,-3.08543319386094,-0.0106858783344705,0.001924,-0.000626,0.001449,0.082296,-0.013463,323.104400,23.570948,0.999389,0.986804,0.004670,0.351571,0.000046,-0.000018,0.000009,0.000047,-0.000019,8.092935,0.000047,
2086,2083,-3.66453387758082,-12.2740160778491,-0.0198765374922232,0.001932,-0.000337,0.003148,0.079455,0.012764,330.197212,24.467880,0.999066,0.949570,0.008728,0.311187,0.000029,0.000031,0.000025,0.000055,0.000005,46.018181,0.000066,
2386,2953,2.71561368259337,6.71574878472033,-0.00603990301215163,0.001832,-0.000686,0.005722,0.063403,-0.010644,315.566374,25.112990,0.999098,0.989694,0.004194,0.367541,-0.000006,0.000004,-0.000003,0.000005,-0.000007,-75.477252,0.000007,
2101,2158,-3.34696225603647,-10.6367208163513,0.0228674818438321,0.001617,-0.000943,0.005709,0.057271,-0.030427,329.256269,24.400411,0.998812,0.983273,0.005325,0.263163,0.000026,0.000015,0.000006,0.000028,0.000013,23.357029,0.000042,
2206,2533,-1.12307410170515,-2.43705371761569,-0.0135174774714528,0.002211,-0.000095,-0.002831,0.110537,0.000108,322.569439,24.207244,0.999461,0.989054,0.004194,0.383658,0.000015,0.000003,0.000010,0.000021,-0.000002,28.320754,0.000023,
2326,2638,1.46923179616669,-0.143920489680156,-0.0177994492233324,0.002025,-0.000810,0.003530,0.080552,-0.011128,320.610573,24.211809,0.999500,0.988809,0.004050,0.404154,-0.000006,0.000021,-0.000009,0.000024,-0.000008,-73.805274,0.000024,
2071,2218,-4.00994553691627,-9.32107553822681,0.00952002112489936,0.001959,0.000099,0.000656,0.088125,0.012953,328.359925,24.560079,0.998169,0.982420,0.005292,0.307179,0.000015,0.000023,0.000002,0.000023,0.000015,77.402374,0.000038,
2251,2713,-0.176848158271703,1.48794010604698,-0.0227950403645991,0.001853,-0.000459,0.002470,0.076930,-0.020769,319.434513,24.403989,0.999434,0.991467,0.003693,0.375088,0.000000,0.000013,-0.000004,0.000014,-0.000001,-74.006925,0.000015,
2191,2458,-1.43746470716048,-4.07408756716013,-0.0134717901968315,0.001714,0.000047,-0.000227,0.079477,0.015268,323.795290,24.131385,0.999040,0.986977,0.004778,0.422831,0.000005,-0.000012,-0.000005,0.000006,-0.000013,-14.013264,0.000013,
2296,2953,0.760011954543288,6.71042596748032,-0.00198223869034564,0.002125,-0.000205,0.001421,0.092955,0.006513,315.648607,24.958381,0.999209,0.988651,0.004141,0.325112,0.000004,0.000015,-0.000002,0.000015,0.000003,-81.947287,0.000020,
2206,2773,-1.16517690864588,2.79295174036925,-0.021330592184313,0.002008,0.000010,-0.001159,0.096137,0.017040,318.595811,24.528825,0.999430,0.990199,0.004041,0.354443,-0.000001,0.000007,-0.000003,0.000008,-0.000002,-70.430600,0.000009,
2041,3268,-4.82289663678944,13.5196679657054,0.0389015983524246,0.001798,-0.000318,0.004353,0.070827,0.000087,311.734645,24.147522,0.999639,0.994282,0.003001,0.338579,-0.000026,0.000032,-0.000026,0.000042,-0.000036,-68.918122,0.000045,
2161,2548,-2.10594885907645,-2.11104935757685,-0.0212111446283529,0.001836,-0.000876,0.002817,0.075479,-0.023437,322.370549,24.246829,0.999210,0.987297,0.004337,0.410166,0.000009,0.000012,0.000007,0.000017,0.000004,50.587025,0.000023,
2086,2263,-3.69079125535132,-8.33787544381676,0.00506716881886859,0.001838,-0.000658,0.003622,0.073746,-0.021084,327.509139,24.379687,0.998924,0.984634,0.004876,0.385918,0.000018,0.000009,0.000015,0.000028,-0.000002,36.410354,0.000032,
2311,2803,1.11209945742583,3.44958274011204,-0.0165072051966035,0.001902,-0.000815,0.005398,0.068746,0.003851,317.934630,24.594069,0.999418,0.992232,0.003730,0.404401,0.000000,0.000004,0.000003,0.000005,-0.000001,61.303088,0.000006,
2236,2923,-0.539431363757988,6.05392859683102,-0.0090750063076257,0.001739,-0.000543,0.006193,0.059798,0.000049,316.145870,24.653738,0.999718,0.993012,0.003440,0.439407,-0.000002,0.000017,0.000001,0.000017,-0.000002,88.391422,0.000018,
2116,2143,-3.01828572540216,-10.9645549129376,0.0126421043404434,0.001459,-0.000525,0.002083,0.060654,-0.022049,329.347651,24.275081,0.998348,0.978021,0.006048,0.310041,0.000017,0.000022,0.000016,0.000036,0.000003,49.276817,0.000043,
2176,2293,-1.73502754104414,-7.68177480206011,0.0104732434625134,0.001723,-0.001237,0.002743,0.070198,-0.023081,326.696765,24.075658,0.998857,0.982144,0.005308,0.322706,0.000011,-0.000011,-0.000011,0.000016,-0.000015,-21.447057,0.000018,
2491,2338,5.1272378147627,-6.6946815700113,0.00480025257667194,0.001421,-0.000471,0.002991,0.053423,-0.002022,325.837897,23.027222,0.999012,0.985821,0.005156,0.273429,-0.000006,-0.000003,0.000006,0.000002,-0.000011,52.045646,0.000012,
2341,2698,1.7842834072842,1.16351757364455,-0.0135859485518495,0.001681,-0.001206,0.006952,0.052586,-0.012191,319.638413,24.312232,0.999671,0.993105,0.003634,0.439872,-0.000003,0.000032,-0.000005,0.000033,-0.000004,-81.907982,0.000036,
2431,3298,3.62645209224221,14.208336007293,-0.00959843400289628,0.002030,-0.000051,0.000150,0.092881,-0.004780,309.958871,26.304916,0.999765,0.994275,0.003049,0.411764,0.000033,-0.000043,0.000002,0.000033,-0.000043,1.191553,0.000045,
2236,2698,-0.500147866766032,1.16072208668548,-0.0204048237135339,0.001973,-0.000420,0.002684,0.081895,-0.005032,319.733725,24.389797,0.999463,0.991251,0.003681,0.383269,0.000007,0.000020,0.000003,0.000021,0.000006,78.398594,0.000028,
2461,2068,4.53043201655536,-12.6189737640978,0.042026608377796,0.002182,-0.000755,0.004982,0.080768,-0.010429,330.465444,22.049059,0.999329,0.981033,0.005361,0.327476,0.000027,0.000036,0.000006,0.000039,0.000025,64.273443,0.000064,
2221,2623,-0.813708568648821,-0.473749282271093,-0.0233417512374672,0.001871,-0.000755,0.003828,0.073515,-0.009497,320.953101,24.275349,0.999161,0.985776,0.004671,0.398404,0.000018,0.000010,0.000011,0.000026,0.000002,34.569801,0.000031,
2266,2773,0.138767253345019,2.79572327369923,-0.0247166873366496,0.002117,-0.000334,0.002511,0.088977,0.010933,318.427855,24.543895,0.999283,0.987912,0.004196,0.369942,0.000003,0.000011,-0.000006,0.000014,0.000000,-61.431039,0.000017,
2416,3163,3.33024261773202,11.2766116323655,0.030074613122224,0.002102,-0.000368,0.003007,0.085565,-0.002910,312.482309,25.818788,0.999742,0.993659,0.003190,0.395917,0.000027,0.000018,0.000016,0.000039,0.000006,37.076565,0.000049,
2356,2878,2.07731448408497,5.08349300493424,-0.0139877920938716,0.002057,-0.000565,0.003215,0.083066,-0.010907,316.732606,24.835909,0.999548,0.992013,0.003665,0.381264,-0.000010,0.000012,-0.000008,0.000015,-0.000013,-71.114789,0.000016,
2131,2263,-2.71060250356062,-8.33832757250985,0.0119441896325156,0.001499,-0.000789,0.003086,0.059358,-0.028799,327.347464,24.227214,0.998959,0.982801,0.005216,0.333808,0.000011,-0.000001,0.000001,0.000011,-0.000001,2.902715,0.000012,
2131,2443,-2.74058954171183,-4.40309302639039,-0.0118057289909075,0.002071,-0.000228,0.003356,0.085070,0.011660,324.272451,24.233776,0.999222,0.987903,0.004611,0.458091,-0.000007,-0.000006,-0.000009,0.000002,-0.000015,-46.358724,0.000016,
2401,2998,3.03393162594919,7.69523303019587,-0.00371646408359538,0.002030,-0.000322,-0.000199,0.093919,-0.016535,314.892576,25.340649,0.999580,0.990305,0.003942,0.303992,0.000003,0.000018,0.000009,0.000022,-0.000001,65.092821,0.000024,
2176,2413,-1.75611753069329,-5.05788165577901,-0.00168432837597265,0.001529,-0.000480,0.003890,0.058039,0.014528,324.646740,24.147164,0.998794,0.984986,0.004910,0.401952,0.000002,-0.000005,-0.000015,0.000014,-0.000017,-39.007613,0.000018,
2056,2203,-4.33505832002512,-9.64895745293376,0.00318273098184818,0.001713,-0.000412,0.001905,0.073174,0.000611,328.614463,24.602656,0.998586,0.982484,0.005353,0.327398,0.000003,0.000027,0.000003,0.000027,0.000002,84.211063,0.000033,
2041,3283,-4.82559667213939,13.8439353406681,0.0350827588802076,0.001716,-0.000521,0.004493,0.066621,-0.001818,311.453323,24.079115,0.999610,0.994060,0.003063,0.395890,-0.000016,0.000032,-0.000022,0.000041,-0.000024,-68.842132,0.000041,
2296,2863,0.77522833133418,4.75432609891811,-0.0155195235419114,0.001962,-0.000729,0.002774,0.080592,-0.017189,316.990959,24.747587,0.999656,0.992802,0.003526,0.335290,0.000004,0.000008,-0.000001,0.000008,0.000003,-83.201955,0.000012,
2161,2563,-2.10779113408821,-1.7842584601508,-0.01333279844971,0.001919,-0.000657,0.002292,0.081035,-0.005694,322.198872,24.285078,0.999067,0.986957,0.004455,0.400464,0.000012,0.000009,0.000008,0.000018,0.000003,38.147095,0.000023,
2251,2983,-0.222817135490946,7.35844043674914,0.00534356888630327,0.002014,-0.000412,0.004080,0.079257,0.006924,315.275479,24.873113,0.999524,0.992978,0.003544,0.348978,-0.000007,0.000019,-0.000001,0.000019,-0.000007,-87.522082,0.000020,
2221,2863,-0.855308326307902,4.75043551361173,-0.0180910728344656,0.001640,-0.000486,0.003461,0.064278,0.007658,317.087496,24.614739,0.999372,0.991844,0.003578,0.380726,0.000006,0.000012,0.000003,0.000014,0.000004,65.736765,0.000019,
2506,2518,5.41636464020801,-2.7579699175538,-0.0133521264550609,0.001789,-0.000838,0.002689,0.071273,-0.012326,322.827437,23.583722,0.999429,0.987475,0.004578,0.402080,0.000040,-0.000010,0.000013,0.000043,-0.000014,13.502651,0.000044,
2206,2548,-1.1262815903079,-2.10932922856794,-0.0178833655427297,0.002024,-0.000318,-0.000726,0.095190,-0.010116,322.274691,24.246587,0.999547,0.990719,0.003897,0.351943,0.000016,0.000008,0.000010,0.000023,0.000001,34.806252,0.000027,
2176,2623,-1.79226768368359,-0.475255762025775,-0.0213220002382855,0.001892,-0.000762,0.003781,0.075017,-0.017483,321.102070,24.332818,0.999349,0.988987,0.004212,0.371432,0.000012,0.000014,0.000011,0.000024,0.000002,46.718146,0.000029,
2281,3118,0.404633905473606,10.2906511029345,0.0110400877501888,0.001898,-0.000535,0.003387,0.075815,-0.023547,313.063434,25.204931,0.999782,0.994808,0.003092,0.308396,0.000006,0.000016,-0.000006,0.000018,0.000003,-66.169285,0.000023,
2191,2713,-1.48136173527947,1.48640982245791,-0.0331949010532071,0.002391,-0.000465,-0.001105,0.113258,-0.029386,319.532897,24.410046,0.999245,0.990279,0.003949,0.359040,0.000004,0.000013,0.000004,0.000014,0.000003,69.690643,0.000018,
2461,2083,4.52663551673802,-12.2881611263613,0.033512704990585,0.002059,-0.000485,0.004061,0.078721,0.001288,330.149888,22.134068,0.999308,0.979684,0.005551,0.312232,0.000024,0.000037,0.000005,0.000038,0.000023,71.199064,0.000061,
2146,2263,-2.38409536381172,-8.33653490076888,0.00088813650489783,0.001971,-0.000759,0.002931,0.081343,-0.004698,327.217067,24.191325,0.998967,0.981708,0.005341,0.328289,0.000008,-0.000002,-0.000002,0.000008,-0.000003,-12.521560,0.000008,
2071,2233,-4.01237610331246,-8.99293267562759,0.00894494349228125,0.002072,-0.000605,0.004132,0.083216,-0.005996,328.109277,24.569849,0.998814,0.985018,0.004866,0.277691,0.000012,0.000026,0.000003,0.000027,0.000012,79.336445,0.000039,
2371,2893,2.40106080084692,5.41048392898546,-0.0133451073567699,0.001988,-0.000087,-0.001478,0.096656,0.002802,316.510369,24.878914,0.999478,0.992317,0.003637,0.417391,-0.000010,0.000011,-0.000007,0.000013,-0.000012,-72.476642,0.000015,
2311,2638,1.14322167475952,-0.14500681443289,-0.0115477010801328,0.002113,-0.000777,0.003733,0.084050,-0.009961,320.675214,24.221722,0.999515,0.988753,0.003916,0.406153,-0.000005,0.000018,-0.000006,0.000020,-0.000007,-75.341915,0.000020,
2266,3058,0.0900217223091637,8.98704012946939,0.0132640501522587,0.001891,-0.000370,0.002805,0.077659,-0.005669,314.088371,25.011859,0.999507,0.992350,0.003577,0.361371,0.000004,0.000001,-0.000003,0.000005,-0.000001,-31.886253,0.000006,
2446,1993,4.21606709030868,-14.262963779754,0.0237544904529159,0.001961,-0.000310,0.000382,0.088105,-0.023406,331.495608,21.967486,0.999292,0.976671,0.005776,0.214176,-0.000017,0.000015,-0.000003,0.000015,-0.000017,-85.436145,0.000019,
2116,2158,-3.02041005782455,-10.6350103874762,0.00398519484912185,0.002177,-0.000462,0.000721,0.097618,-0.022227,329.071253,24.281807,0.998926,0.984187,0.005184,0.309737,0.000018,0.000015,0.000005,0.000022,0.000011,36.448563,0.000033,
2221,2638,-0.816677887562168,-0.146523819794105,-0.0314027560427235,0.001959,-0.000411,0.002281,0.082641,0.005656,320.651512,24.243453,0.998998,0.986951,0.004668,0.465141,0.000013,0.000014,0.000012,0.000026,0.000001,46.034919,0.000030,
2386,2968,2.71234839908884,7.04251603971677,-0.00830046402376183,0.001698,-0.000738,0.006393,0.054877,-0.000276,315.293382,25.194898,0.999516,0.991203,0.003885,0.338644,-0.000005,0.000011,0.000003,0.000012,-0.000005,79.464815,0.000012,
2341,2713,1.78129163753316,1.49180060678115,-0.0232500222088561,0.002064,-0.000762,0.004552,0.078718,-0.005834,319.339123,24.400182,0.999421,0.990241,0.003973,0.395278,-0.000007,0.000029,-0.000003,0.000029,-0.000007,-84.619330,0.000030,
2101,2323,-3.37234950538352,-7.0255438691804,0.00826760913787439,0.002637,-0.000074,0.000328,0.120133,-0.000388,326.542959,24.389492,0.999162,0.986875,0.004757,0.344290,0.000017,-0.000026,-0.000004,0.000017,-0.000026,-4.914412,0.000026,
2506,2533,5.41365595060864,-2.42950116301522,-0.0130873776051317,0.002209,-0.000613,0.003103,0.089031,0.006821,322.603091,23.702030,0.999557,0.988808,0.004276,0.365096,0.000048,-0.000006,0.000009,0.000050,-0.000007,9.309791,0.000054,
2086,2098,-3.6662607780521,-11.9460989163543,-0.0038830713816651,0.001538,-0.000502,0.003764,0.059581,0.014613,330.069567,24.571805,0.998942,0.967481,0.006889,0.210896,0.000028,0.000029,0.000024,0.000052,0.000004,45.479829,0.000063,
2326,2653,1.46529155019363,0.184331194933847,-0.0279565396415933,0.001702,-0.000805,0.004283,0.063134,-0.002429,320.264062,24.269517,0.999511,0.989917,0.003931,0.390203,-0.000008,0.000028,-0.000005,0.000028,-0.000009,-82.148328,0.000029,
2416,3178,3.32739977771229,11.6024230721943,0.0291732550593338,0.002218,0.000009,0.002239,0.093903,0.010711,312.236822,25.873764,0.999656,0.992660,0.003377,0.401054,0.000029,0.000019,0.000017,0.000042,0.000007,36.573764,0.000053,
2476,2188,4.83283295881251,-9.98371838782806,0.0259302610568852,0.002264,-0.001042,0.003627,0.089384,-0.021025,328.438371,22.475698,0.998106,0.969818,0.006809,0.271747,0.000020,-0.000001,-0.000014,0.000027,-0.000007,-26.048593,0.000028,
2116,2353,-3.05286218093203,-6.36765947494435,-0.0117545234496106,0.001850,-0.000700,0.003755,0.073660,-0.015596,325.777593,24.366458,0.999250,0.984588,0.004910,0.307029,-0.000002,-0.000018,-0.000010,0.000003,-0.000023,-25.546788,0.000025,
2296,2878,0.772409265966527,5.08005427200505,-0.0152126794600349,0.001842,-0.000428,0.002512,0.076113,-0.002863,316.744712,24.721705,0.999628,0.992323,0.003605,0.405061,0.000002,0.000005,-0.000004,0.000008,0.000000,-54.363409,0.000009,
2146,2488,-2.42213193684785,-3.42041335423604,-0.014374089657224,0.001675,-0.000720,0.003680,0.065627,0.004648,323.444233,24.239628,0.999135,0.986582,0.004787,0.433399,0.000000,0.000002,-0.000012,0.000013,-0.000011,-48.311863,0.000014,
2491,2353,5.12528128247333,-6.36822775936268,0.0101169921062478,0.002090,-0.000560,0.002932,0.084231,0.009538,325.670876,22.957272,0.998898,0.985763,0.005312,0.415627,-0.000004,0.000023,0.000007,0.000024,-0.000006,76.806451,0.000025,
2131,2278,-2.71309625867337,-8.00949791202076,0.00548036586741318,0.001810,-0.000704,0.002650,0.074938,-0.021311,327.067438,24.230456,0.998879,0.982369,0.005347,0.345971,0.000013,-0.000006,-0.000002,0.000013,-0.000006,-6.971113,0.000013,
2161,2323,-2.06701711943484,-7.02523135825319,0.00156760581501203,0.001790,-0.000263,-0.001131,0.085555,-0.023935,326.205292,24.128025,0.999005,0.984545,0.004964,0.355289,0.000009,-0.000031,-0.000012,0.000012,-0.000034,-15.455303,0.000035,
2251,2758,-0.185622457217061,2.46888543710367,-0.0305304484652993,0.001846,-0.000702,0.005594,0.066369,-0.002512,318.627274,24.509287,0.999305,0.989132,0.004116,0.358558,0.000002,0.000016,-0.000002,0.000016,0.000002,-83.657158,0.000020,
2206,2563,-1.12899064604238,-1.78330511937662,-0.00938282769186571,0.001766,-0.000826,0.006113,0.061534,-0.013375,322.069501,24.241723,0.999556,0.991548,0.003765,0.371042,0.000017,0.000000,0.000009,0.000021,-0.000004,23.000772,0.000022,
2176,2428,-1.7582323391819,-4.729735209036,-0.00584447183513248,0.002228,-0.000721,0.004231,0.088999,-0.014206,324.400582,24.202577,0.998992,0.986092,0.004787,0.331595,0.000002,-0.000012,-0.000010,0.000007,-0.000017,-27.698820,0.000017,
2176,2308,-1.73750348790059,-7.35328985199601,0.0111930140011509,0.001686,-0.000288,0.002684,0.069022,0.006771,326.459385,24.108905,0.998775,0.982520,0.005271,0.333590,0.000009,-0.000017,-0.000013,0.000014,-0.000022,-21.831310,0.000023,
2221,2878,-0.857292484945372,5.07518722505006,-0.00953997129397521,0.001735,-0.000640,0.004354,0.065677,-0.008449,316.916753,24.588779,0.999426,0.993253,0.003332,0.409034,0.000003,0.000017,0.000001,0.000017,0.000003,84.825550,0.000021,
2146,2278,-2.38640034288924,-8.0088927506903,-0.00249801384239845,0.002183,-0.000348,0.000883,0.097425,-0.000793,326.963648,24.121861,0.998654,0.981649,0.005454,0.411891,0.000009,-0.000007,-0.000006,0.000011,-0.000009,-18.690353,0.000012,
2446,2008,4.21375764184636,-13.9362958123661,0.0354448649405867,0.001808,-0.000790,0.001841,0.075516,-0.036977,331.339954,21.900137,0.999330,0.976964,0.005823,0.323243,-0.000009,0.000022,-0.000003,0.000023,-0.000010,-84.388175,0.000023,
2041,3298,-4.82798196726316,14.1692843726489,0.0298671231307708,0.001833,-0.000275,0.001282,0.081078,0.003615,311.178233,24.099729,0.999587,0.995033,0.003036,0.371728,-0.000021,0.000068,-0.000023,0.000073,-0.000027,-76.546299,0.000074,
2281,2923,0.438721290522039,6.05775270125892,-0.0124341343812375,0.002243,-0.000397,0.003451,0.091567,0.010902,316.067653,24.812357,0.999632,0.992800,0.003467,0.385674,-0.000001,0.000009,-0.000005,0.000011,-0.000003,-67.388366,0.000012,
2206,2788,-1.16781726123846,3.1184220058075,-0.0229584802482918,0.002115,-0.000414,-0.000433,0.098556,-0.020594,318.341441,24.488945,0.999183,0.988388,0.004334,0.373212,-0.000001,0.000011,-0.000002,0.000011,-0.000001,-81.914536,0.000012,
2461,2098,4.522836678891,-11.9580523395227,0.0279273223916334,0.001772,-0.000962,0.004085,0.065325,-0.029045,329.847730,22.235668,0.999622,0.980878,0.005323,0.238140,0.000019,0.000030,-0.000003,0.000031,0.000018,-75.676530,0.000049,
2266,2893,0.118332899900871,5.40416675495898,-0.00927578269892138,0.002077,-0.000580,0.002150,0.088296,0.000242,316.602959,24.710833,0.999599,0.990772,0.003737,0.394928,0.000000,0.000009,0.000001,0.000009,0.000000,82.159863,0.000011,
2236,2713,-0.503072838027723,1.48760743846923,-0.0257351827340244,0.002016,-0.000616,0.002051,0.085809,-0.027891,319.449546,24.412596,0.999306,0.990207,0.003803,0.359131,0.000004,0.000010,0.000002,0.000010,0.000003,77.227585,0.000014,
2356,2893,2.07502785088147,5.41000885117077,-0.00928085473782403,0.001951,0.000028,-0.000736,0.092353,0.014285,316.536213,24.908550,0.999541,0.992129,0.003599,0.372457,-0.000010,0.000009,-0.000006,0.000011,-0.000011,-74.910463,0.000013,
2266,2788,0.136320423130027,3.12139330913656,-0.0209148431954418,0.002095,-0.000582,0.002680,0.087289,-0.010500,318.214343,24.549536,0.999245,0.988451,0.004279,0.368478,0.000006,0.000011,-0.000004,0.000013,0.000004,-60.739921,0.000017,
2296,2968,0.757563057331016,7.03594378599048,-0.00293217830784442,0.002425,-0.000396,0.000466,0.109900,-0.004673,315.413007,24.954177,0.999429,0.991453,0.003625,0.347805,0.000003,0.000020,0.000000,0.000020,0.000003,89.531618,0.000025,
2176,2638,-1.79453611943984,-0.148478437991656,-0.022538168614517,0.002161,-0.000585,0.002802,0.090515,-0.002186,320.864187,24.316508,0.999527,0.990310,0.004013,0.415894,0.000011,0.000013,0.000010,0.000022,0.000002,47.822449,0.000027,
2236,2593,-0.481091552712979,-1.12815444129931,-0.0157828728443405,0.002176,-0.000377,0.001068,0.096403,-0.009490,321.491044,24.198612,0.999408,0.987324,0.004439,0.418422,0.000014,0.000002,0.000001,0.000014,0.000002,5.151381,0.000017,
2506,2548,5.41186097968506,-2.10298782021285,0.00115862839271585,0.002220,-0.000685,0.001988,0.093783,-0.014520,322.483492,23.810260,0.999816,0.990840,0.003841,0.297062,0.000049,-0.000020,0.000000,0.000049,-0.000020,-0.249580,0.000049,
2161,2578,-2.11084230800152,-1.45687432608267,-0.0183884395210612,0.001812,-0.000573,0.003997,0.070874,-0.010409,321.903671,24.291001,0.999142,0.987048,0.004372,0.400797,0.000009,0.000010,0.000011,0.000021,-0.000002,45.797085,0.000023,
2326,2668,1.46273665496901,0.512051378207829,-0.025745231433973,0.001686,-0.000662,0.003117,0.066442,-0.014457,320.041688,24.407868,0.999692,0.991567,0.003757,0.274652,-0.000010,0.000029,-0.000007,0.000030,-0.000011,-79.637190,0.000031,
2236,2938,-0.541862291623868,6.38008290085581,-0.00573608024978967,0.001723,-0.000686,0.006199,0.058967,-0.010879,315.928318,24.729095,0.999622,0.993344,0.003386,0.373483,-0.000003,0.000020,0.000001,0.000020,-0.000003,86.825486,0.000021,
2116,2173,-3.02243665421366,-10.3071607013991,0.01128895794659,0.001985,-0.000567,-0.000225,0.091559,-0.030031,328.885042,24.317254,0.998809,0.984181,0.005225,0.272203,0.000018,0.000003,0.000006,0.000020,0.000001,19.183991,0.000024,
2131,2458,-2.74286351741435,-4.0734484147957,-0.0177724201230376,0.002552,-0.000353,0.002228,0.110535,0.016223,324.004792,24.386650,0.999231,0.988694,0.004567,0.316830,-0.000003,-0.000011,-0.000013,0.000006,-0.000021,-36.682697,0.000021,
2401,3013,3.03103298398617,8.02077420802074,-0.00252629929167369,0.001972,-0.000381,-0.000026,0.090629,-0.019778,314.654105,25.359275,0.999569,0.989786,0.003924,0.326871,0.000003,0.000013,0.000011,0.000020,-0.000003,57.558557,0.000022,
2101,2338,-3.37528396903552,-6.69809728971774,0.00142170601770886,0.002457,-0.000710,-0.000283,0.113455,-0.048925,326.238298,24.340493,0.999294,0.988046,0.004501,0.348230,0.000007,-0.000019,-0.000003,0.000007,-0.000019,-5.890050,0.000019,
2086,2278,-3.69329678131821,-8.00841171161577,0.0012728359043308,0.001828,-0.000500,0.002457,0.076717,0.007389,327.238403,24.446523,0.999282,0.988785,0.004383,0.348838,0.000021,0.000006,0.000015,0.000030,-0.000004,31.974086,0.000033,
2311,3283,1.02544044409617,13.8708679395131,0.0080462302252613,0.002115,-0.000262,0.002855,0.087607,-0.001916,310.311759,25.618651,0.999539,0.994502,0.002957,0.376020,0.000006,0.000022,-0.000005,0.000023,0.000005,-73.979730,0.000030,
2341,2728,1.77820099942382,1.81964070530758,-0.0265790789478615,0.001945,-0.000640,0.003179,0.078062,-0.009760,319.066089,24.514605,0.999308,0.989284,0.004118,0.313956,-0.000008,0.000028,0.000000,0.000028,-0.000008,-89.941466,0.000029,
2191,2728,-1.48355348710724,1.81237814925878,-0.027058303503793,0.002298,-0.000275,-0.001612,0.110647,-0.021243,319.338105,24.414814,0.999328,0.989897,0.003946,0.377233,0.000003,0.000007,0.000001,0.000008,0.000003,76.216837,0.000011,
2251,2998,-0.225348775882654,7.68334750736987,0.00614990888561806,0.001991,-0.000444,0.002573,0.083127,-0.002849,315.041733,24.830384,0.999506,0.992073,0.003685,0.404453,-0.000004,0.000017,-0.000002,0.000018,-0.000005,-83.872129,0.000018,
2416,3193,3.32499033454505,11.9278740476745,0.0337161280984333,0.002399,0.000032,0.002287,0.102060,0.017097,312.036919,25.938571,0.999639,0.991723,0.003450,0.389159,0.000031,0.000016,0.000017,0.000042,0.000005,32.946499,0.000051,
2491,2368,5.12151359539495,-6.03879206222901,0.0027004156946191,0.002113,-0.000508,0.003797,0.082030,-0.007842,325.363187,23.070168,0.998586,0.983083,0.005427,0.346215,0.000003,0.000025,0.000011,0.000029,-0.000001,67.951510,0.000033,
2266,3073,0.0881701128631356,9.31173363074261,0.0235625806884627,0.001977,-0.000493,0.002502,0.082616,-0.008212,313.934705,25.022854,0.999357,0.991399,0.003823,0.372207,0.000000,0.000005,-0.000004,0.000007,-0.000002,-61.310732,0.000007,
2296,3193,0.718332371113359,11.9174631516087,0.0295556177207459,0.002139,-0.000333,0.000685,0.096128,-0.010887,311.992064,25.391614,0.999663,0.993102,0.003369,0.338448,0.000016,0.000020,0.000000,0.000020,0.000016,87.922871,0.000036,
2176,2443,-1.76095749390414,-4.40224266879229,-0.007855246006784,0.002135,-0.000605,0.004111,0.085170,-0.013980,324.137714,24.195040,0.999300,0.986523,0.004653,0.353164,0.000000,-0.000012,-0.000007,0.000003,-0.000015,-23.547714,0.000016,
2311,3043,1.07037077150079,8.66445501200544,0.0163487591020726,0.001997,-0.000745,0.004300,0.076976,-0.014698,314.302636,25.142205,0.999571,0.991964,0.003590,0.344210,0.000001,0.000016,0.000004,0.000017,0.000000,75.981438,0.000019,
2281,2938,0.436166961742448,6.38328463877274,-0.0112889954863249,0.002223,-0.000237,0.002046,0.095394,0.006627,315.836604,24.809353,0.999557,0.992106,0.003617,0.411799,0.000003,0.000014,-0.000004,0.000015,0.000002,-73.529776,0.000018,
2311,2653,1.14001971596922,0.182077851768227,-0.0137917853642193,0.001795,-0.000829,0.003111,0.071528,-0.022734,320.400340,24.259359,0.999537,0.989765,0.003889,0.388420,-0.000008,0.000023,-0.000004,0.000023,-0.000009,-83.460406,0.000024,
2266,2908,0.115826371961571,5.73060285884885,-0.00677692861910373,0.002006,-0.000044,0.001049,0.088865,0.010141,316.379634,24.777816,0.999698,0.992448,0.003486,0.362955,0.000000,0.000010,-0.000001,0.000010,0.000000,-87.066120,0.000011,
2371,2908,2.39765264450389,5.73695399904842,-0.0143352374966526,0.001800,-0.000260,0.001993,0.075598,-0.002613,316.236069,24.941166,0.999389,0.990947,0.003843,0.390302,-0.000010,0.000008,-0.000007,0.000010,-0.000012,-71.108194,0.000013,
2311,2818,1.10957237698038,3.7765795160849,-0.0188210333845404,0.002090,-0.000546,0.002352,0.087848,-0.015064,317.689892,24.680939,0.999507,0.990699,0.003859,0.330424,-0.000001,0.000014,0.000002,0.000015,-0.000001,81.752683,0.000016,
2221,2653,-0.818671343736007,0.179841001100975,-0.0287675306871051,0.002294,-0.000447,0.001020,0.102052,-0.017552,320.449811,24.266160,0.999308,0.989221,0.004261,0.438419,0.000012,0.000018,0.000014,0.000030,0.000000,50.995046,0.000035,
2386,2983,2.71037683924396,7.36766413424324,0.000137473185873205,0.002089,-0.000699,0.008046,0.066901,0.001931,315.131234,25.213435,0.999506,0.990353,0.004057,0.364971,-0.000001,0.000017,0.000006,0.000019,-0.000003,73.272788,0.000020,
2101,2173,-3.34950336629293,-10.3069402871917,0.0114889857956086,0.001861,-0.000494,0.001259,0.081569,-0.021740,328.944521,24.395987,0.998846,0.983814,0.005207,0.280800,0.000025,0.000003,0.000008,0.000027,0.000001,17.640322,0.000032,
2356,2908,2.07163157329701,5.73623124861042,-0.0127175579273739,0.001992,-0.000425,0.003475,0.079223,0.004708,316.249588,24.934065,0.999390,0.991266,0.003787,0.375748,-0.000009,0.000008,-0.000005,0.000009,-0.000010,-74.636328,0.000011,
2296,2983,0.755215596619376,7.36192682241417,0.00428683069083036,0.002329,-0.000068,0.000944,0.104037,0.014110,315.222424,25.023115,0.999259,0.989247,0.003997,0.326570,0.000003,0.000019,0.000002,0.000020,0.000003,83.297294,0.000025,
2281,3133,0.402214166437755,10.6150637105277,0.0174314458875529,0.001723,-0.000335,0.003129,0.068748,-0.003595,312.864762,25.157008,0.999660,0.994635,0.003245,0.403049,0.000003,0.000016,-0.000006,0.000018,0.000001,-69.397849,0.000022,
2446,2023,4.21091448275343,-13.6056667392909,0.0331513147081068,0.002206,-0.000819,0.002241,0.092209,-0.029438,331.095346,22.018651,0.999339,0.979042,0.005416,0.268142,0.000002,0.000033,-0.000011,0.000036,-0.000002,-72.399451,0.000041,
2506,2563,5.40882317483457,-1.77728422267739,0.00596242065239494,0.002419,-0.001011,0.008429,0.077886,0.003981,322.264569,23.724086,0.999812,0.991334,0.003819,0.463862,0.000047,-0.000016,-0.000006,0.000048,-0.000017,-4.913669,0.000048,
2146,2293,-2.38870303838553,-7.68099195167642,1.43012171633927E-05,0.001995,-0.000466,-0.001499,0.095964,-0.035452,326.741621,24.179323,0.998441,0.984251,0.005196,0.329580,0.000011,-0.000013,-0.000006,0.000013,-0.000015,-12.618513,0.000016,
2206,2803,-1.1708918298314,3.44482944769543,-0.0245447553696181,0.001906,-0.000563,0.001973,0.081267,-0.015236,318.066976,24.497304,0.998859,0.985219,0.004773,0.386839,-0.000002,0.000004,-0.000003,0.000005,-0.000003,-71.233132,0.000005,
2161,2593,-2.11344509819746,-1.12962155303914,-0.0185958378027067,0.001783,-0.000795,0.004979,0.066502,-0.012161,321.654531,24.329277,0.999250,0.988712,0.004255,0.371645,0.000009,0.000012,0.000011,0.000021,0.000000,48.261420,0.000024,
2191,2473,-1.4403045823827,-3.74638155700402,-0.0151711762735545,0.001769,-0.000387,0.003268,0.070955,0.026340,323.529933,24.146352,0.999158,0.984636,0.005063,0.434722,0.000010,-0.000003,0.000002,0.000010,-0.000003,7.282822,0.000010,
2416,3208,3.3218728991158,12.2528732967149,0.0347328592192753,0.002143,-0.000226,0.002223,0.090432,0.001331,311.787924,25.966675,0.999556,0.991210,0.003681,0.391662,0.000033,0.000005,0.000013,0.000038,0.000000,20.614442,0.000044,
2086,2113,-3.6669608761528,-11.6209285868932,0.0123307873490148,0.001965,-0.000896,0.001584,0.085338,-0.043146,329.990810,24.490173,0.998775,0.984132,0.005150,0.235878,0.000027,0.000025,0.000026,0.000052,0.000000,43.621948,0.000060,
2116,2368,-3.05387137914927,-6.04162842883967,-0.00345205660744341,0.002444,-0.000688,0.000032,0.111965,-0.032232,325.643746,24.315612,0.999142,0.984767,0.004879,0.346167,-0.000001,-0.000006,-0.000009,0.000005,-0.000013,-36.805411,0.000013,
2176,2653,-1.79800663586456,0.179440038609982,-0.0324959107798009,0.001924,-0.000699,0.003263,0.078168,-0.015031,320.525235,24.364630,0.999555,0.989981,0.004088,0.367995,0.000012,0.000016,0.000009,0.000023,0.000004,50.473597,0.000030,
2206,2578,-1.13151110189323,-1.45595478613913,-0.0145336918839121,0.001910,-0.000478,0.002307,0.080316,0.000072,321.802155,24.226039,0.999366,0.989865,0.003986,0.417763,0.000015,0.000001,0.000012,0.000022,-0.000006,30.037966,0.000022,
2326,3118,1.38291526695297,10.2932521889902,0.0216828820070418,0.002035,-0.000377,0.001264,0.089211,-0.007965,313.122573,25.342672,0.999463,0.992603,0.003544,0.366820,0.000008,0.000022,-0.000003,0.000022,0.000007,-79.940220,0.000031,
2116,2188,-3.02510470564753,-9.97781442524732,0.00460955822683218,0.002064,-0.000039,-0.001075,0.097860,-0.010427,328.594307,24.319048,0.998807,0.982399,0.005284,0.296429,0.000014,0.000019,0.000009,0.000026,0.000008,53.699505,0.000035,
2146,2503,-2.42511785543499,-3.09245065032318,-0.0243867813517227,0.001524,-0.000600,-0.000648,0.071814,-0.018779,323.124419,24.246251,0.998972,0.985307,0.004897,0.412501,0.000000,0.000010,-0.000014,0.000020,-0.000010,-55.104176,0.000020,
2311,3298,1.0222015217797,14.195734417752,0.0025213449020498,0.002065,-0.000153,0.002697,0.085899,0.001303,310.017531,25.602754,0.999566,0.994991,0.002902,0.425991,0.000006,0.000014,-0.000006,0.000017,0.000003,-61.004638,0.000022,
2236,2728,-0.505597885694939,1.81428441179067,-0.0217906312338982,0.001873,-0.000384,0.002429,0.078129,-0.001184,319.230876,24.446590,0.999237,0.989493,0.004018,0.373093,0.000003,0.000005,-0.000002,0.000006,0.000002,-62.362356,0.000009,
2236,2608,-0.48374916382615,-0.801015795789382,-0.0194308979464495,0.002210,-0.000168,-0.001653,0.106837,-0.024024,321.227855,24.215467,0.999280,0.986049,0.004568,0.408874,0.000017,0.000006,0.000004,0.000018,0.000004,17.787375,0.000024,
2326,2683,1.45994962880435,0.837810380819967,-0.0230816042252968,0.001835,-0.001045,0.007798,0.057034,-0.014147,319.811241,24.361942,0.999749,0.992050,0.003711,0.355627,-0.000009,0.000033,-0.000007,0.000034,-0.000010,-81.421873,0.000035,
2296,3208,0.715062789373491,12.2426886607145,0.0284056458667692,0.001845,-0.000266,0.002432,0.076681,-0.006250,311.717164,25.406297,0.999744,0.994111,0.003125,0.356989,0.000017,0.000018,0.000002,0.000020,0.000015,50.282280,0.000035,
2476,2203,4.82951615988844,-9.6539049883166,0.0163576785445798,0.002522,-0.000286,0.000186,0.114546,-0.003993,328.140943,22.502070,0.997818,0.970361,0.006699,0.322073,0.000019,-0.000023,-0.000012,0.000022,-0.000027,-14.854116,0.000029,
2086,2293,-3.69615190877522,-7.68030379092151,-0.00262306867432471,0.001508,-0.000449,0.001931,0.063582,0.004766,326.951557,24.425295,0.999633,0.991856,0.003993,0.368970,0.000024,0.000002,0.000010,0.000028,-0.000002,21.437373,0.000031,
2446,2038,4.20773715101778,-13.2762834420816,0.0350508491195569,0.001907,-0.000484,0.002552,0.077498,-0.007940,330.854574,22.062684,0.999252,0.978692,0.005568,0.301429,0.000007,0.000034,-0.000011,0.000037,0.000003,-70.138224,0.000045,
2131,2293,-2.71580697182204,-7.6809210839518,-0.000606814858542748,0.001852,-0.000557,0.001815,0.079440,-0.007397,326.779502,24.214089,0.998784,0.984467,0.005103,0.384368,0.000014,-0.000012,-0.000003,0.000015,-0.000012,-6.097471,0.000016,
2311,3058,1.06763199540382,8.98973268141356,0.0161112764738505,0.001954,-0.000608,0.002975,0.079507,-0.023075,314.058176,25.141688,0.999707,0.993525,0.003281,0.367743,0.000002,0.000010,0.000004,0.000012,0.000000,67.964368,0.000014,
2101,2353,-3.37865817167885,-6.36809380720968,-0.0125970039333083,0.002300,-0.000087,-0.000955,0.108429,-0.012362,325.873928,24.376366,0.999076,0.984332,0.004968,0.352675,0.000001,-0.000018,-0.000005,0.000002,-0.000019,-14.333483,0.000021,
2221,2668,-0.821379381640337,0.506758257878623,-0.0233735742023669,0.001932,-0.000473,0.002704,0.080019,-0.012411,320.229243,24.338582,0.999581,0.993115,0.003571,0.390473,0.000013,0.000019,0.000011,0.000028,0.000004,53.544659,0.000035,
2386,2998,2.70794942171839,7.69267083470087,0.00565232612865429,0.001947,-0.000973,0.005783,0.068352,-0.029758,314.934233,25.235996,0.999564,0.990911,0.003860,0.352988,0.000002,0.000017,0.000005,0.000018,0.000001,73.818173,0.000022,
2416,3223,3.31852499238219,12.5783051314903,0.0314249978967496,0.001899,-0.000381,0.000835,0.084219,-0.010572,311.507778,26.009757,0.999521,0.990997,0.003712,0.382913,0.000033,-0.000005,0.000009,0.000035,-0.000007,13.296081,0.000037,
2251,3013,-0.228196219682896,8.00915755830997,0.00754067486008125,0.001786,-0.000413,0.003455,0.070798,-0.001790,314.796109,24.867922,0.999387,0.990795,0.003804,0.390450,-0.000001,0.000007,-0.000004,0.000008,-0.000003,-68.073474,0.000009,
2251,2773,-0.187344388784009,2.7940468101008,-0.018997354974772,0.001859,-0.000389,0.004242,0.071478,-0.001982,318.485288,24.502695,0.999347,0.988839,0.004087,0.389130,0.000002,0.000010,-0.000006,0.000013,-0.000001,-63.100803,0.000015,
2071,2248,-4.01487583653822,-8.66557583260676,0.00878343847068663,0.001868,-0.000773,0.004121,0.073797,-0.000396,327.857780,24.492979,0.998930,0.984502,0.004816,0.359476,0.000007,0.000020,0.000000,0.000020,0.000007,-89.218924,0.000029,
2146,2308,-2.39076223837626,-7.3537733317913,0.00804350556995814,0.002087,-0.000547,0.002235,0.088876,-0.032462,326.559862,24.196719,0.998858,0.984200,0.005106,0.324902,0.000008,-0.000018,-0.000010,0.000012,-0.000022,-19.092428,0.000022,
2491,2383,5.11802373672387,-5.71062115116248,0.000164176052578568,0.001990,-0.000809,0.004555,0.073368,-0.016247,325.090196,23.111407,0.998736,0.981562,0.005384,0.356938,0.000011,0.000028,-0.000005,0.000029,0.000010,-74.679614,0.000041,
2326,1993,1.59241114369792,-14.2599292549781,0.0293216996449814,0.002042,-0.000305,0.002336,0.085326,-0.004634,331.432608,22.818711,0.997553,0.973504,0.006677,0.234123,-0.000031,-0.000032,-0.000036,0.000005,-0.000068,-44.381845,0.000076,
2266,2923,0.112948171232667,6.05557918438932,-0.00377341426769817,0.001773,-0.000557,0.003353,0.070290,-0.008805,316.142222,24.746861,0.999717,0.992702,0.003613,0.400082,-0.000001,0.000014,-0.000003,0.000014,-0.000001,-79.443783,0.000016,
2296,2998,0.752228283547623,7.68671088611764,0.00658448628070119,0.001995,-0.000334,0.001955,0.085067,-0.009930,314.978369,24.994274,0.999442,0.990932,0.003718,0.360570,0.000004,0.000018,-0.000001,0.000018,0.000004,-85.871586,0.000024,
2236,2953,-0.543300654814558,6.7060851277089,-0.00295306370361459,0.002362,-0.000282,0.000909,0.105719,-0.008451,315.753529,24.776842,0.999487,0.992722,0.003560,0.348711,-0.000007,0.000019,0.000002,0.000019,-0.000007,86.609097,0.000020,
2461,2113,4.51922365475221,-11.6280745744902,0.0157114157192382,0.001981,-0.000565,0.001382,0.085163,-0.016026,329.523582,22.215882,0.999498,0.977919,0.005698,0.329057,0.000017,0.000024,0.000001,0.000025,0.000017,82.758804,0.000042,
2296,3223,0.712194670333314,12.5669654249362,0.0282773248637795,0.001798,-0.000397,0.003125,0.072119,-0.010945,311.466124,25.352529,0.999828,0.995033,0.002914,0.434566,0.000018,0.000022,0.000003,0.000023,0.000016,61.335768,0.000040,
2371,2923,2.39514718068712,6.06356057159703,-0.0128846914149676,0.001909,0.000042,0.000105,0.087436,0.005646,316.014859,25.023987,0.999302,0.990472,0.003955,0.356372,-0.000011,0.000005,-0.000008,0.000008,-0.000014,-68.304851,0.000014,
2446,2053,4.20469836918596,-12.9475249430044,0.0341429195432852,0.001920,-0.000588,0.002222,0.079286,-0.019969,330.607431,22.057082,0.999248,0.979134,0.005502,0.350332,0.000010,0.000020,-0.000001,0.000020,0.000010,-87.118023,0.000030,
2191,2743,-1.48576058509636,2.13862517996891,-0.0200909415133879,0.002222,-0.000188,-0.000858,0.104867,-0.008425,319.146835,24.450763,0.999481,0.990332,0.003926,0.368405,0.000002,0.000008,0.000000,0.000008,0.000002,-87.749773,0.000010,
2236,2743,-0.508481070540519,2.14083420932321,-0.0201149983884079,0.001723,-0.000647,0.005472,0.061320,0.006209,318.984267,24.474118,0.999027,0.986624,0.004616,0.374167,0.000000,0.000007,-0.000001,0.000007,0.000000,-80.909752,0.000008,
2326,2698,1.45757720583485,1.16355316223937,-0.0205897801721449,0.001867,-0.000812,0.005275,0.067320,-0.007688,319.598947,24.311094,0.999600,0.991130,0.003852,0.447872,-0.000011,0.000030,-0.000003,0.000030,-0.000011,-86.460310,0.000031,
2071,2263,-4.0169250103188,-8.33726455825394,0.00555631772073184,0.002240,-0.000748,0.002965,0.094204,-0.002991,327.609991,24.485258,0.999234,0.987209,0.004571,0.363843,0.000007,0.000011,0.000008,0.000017,0.000001,51.107853,0.000020,
2221,2893,-0.859546254651097,5.40049484714297,-0.00123364519066627,0.001581,-0.000980,0.005235,0.055670,-0.013612,316.732180,24.604342,0.999638,0.993142,0.003442,0.406699,-0.000001,0.000014,0.000005,0.000016,-0.000002,73.559091,0.000017,
2416,3238,3.31497585439076,12.9044930346982,0.0219779082785863,0.002067,-0.000217,0.000957,0.091632,0.005728,311.189177,26.064000,0.999475,0.991615,0.003628,0.391359,0.000031,-0.000010,0.000003,0.000031,-0.000010,4.709764,0.000031,
2191,2488,-1.44300155634595,-3.41875061867703,-0.0173897493195341,0.001708,-0.000371,0.002466,0.070629,0.004560,323.268535,24.187540,0.999025,0.983222,0.005271,0.387379,0.000009,0.000002,-0.000001,0.000009,0.000002,-5.337971,0.000012,
2266,3088,0.0853189712351785,9.63736534303703,0.0252952846077505,0.001831,-0.000654,0.004178,0.070229,-0.014895,313.691581,25.072633,0.999581,0.992280,0.003601,0.340261,-0.000001,0.000004,-0.000011,0.000013,-0.000010,-50.263751,0.000014,
2401,3028,3.02830082634647,8.34622571734494,0.00100734440252381,0.001919,-0.000370,0.000444,0.086475,-0.019679,314.434330,25.385764,0.999608,0.989999,0.003916,0.345299,0.000006,0.000018,0.000009,0.000023,0.000001,60.629899,0.000027,
2506,2578,5.40425160629836,-1.44737174991159,-0.0112691454264109,0.002197,-0.001242,0.005643,0.078446,0.006583,321.876045,23.851747,0.999566,0.985341,0.004811,0.401211,0.000042,-0.000009,-0.000004,0.000043,-0.000009,-4.489889,0.000045,
2116,2203,-3.02787333863413,-9.64988316451407,0.00681672372201092,0.001714,-0.000354,0.001900,0.072970,-0.017892,328.346911,24.317926,0.998354,0.978508,0.005581,0.296250,0.000013,0.000016,0.000005,0.000020,0.000009,51.766839,0.000029,
2311,2833,1.10743739300504,4.10272068179215,-0.0106513570254947,0.001955,-0.000335,0.000235,0.089024,0.006423,317.514916,24.732645,0.999719,0.992388,0.003609,0.332186,-0.000004,0.000021,0.000001,0.000021,-0.000004,87.619149,0.000022,
2311,3073,1.06530971315829,9.31591253829058,0.0208957580961737,0.001997,-0.000421,0.002193,0.084287,-0.007131,313.857304,25.236288,0.999701,0.994666,0.003090,0.320269,0.000002,0.000012,0.000004,0.000013,0.000001,71.730153,0.000016,
2206,2818,-1.17318638033126,3.77008284784318,-0.0195735753784447,0.001878,-0.000890,0.002316,0.078746,-0.036663,317.862568,24.480791,0.999065,0.987884,0.004363,0.398578,0.000002,0.000016,0.000000,0.000016,0.000002,89.721741,0.000020,
2101,2188,-3.3523305769989,-9.9783788079893,0.00720778502818575,0.001649,-0.000344,0.001307,0.071753,-0.009739,328.658114,24.358764,0.998827,0.983110,0.005307,0.334132,0.000020,0.000022,0.000010,0.000031,0.000011,48.617528,0.000044,
2086,2128,-3.66976033827025,-11.2914872070678,0.00574297036831695,0.001989,-0.001007,0.003165,0.081850,-0.026398,329.691570,24.480669,0.998975,0.985107,0.005033,0.264618,0.000021,0.000013,0.000027,0.000044,-0.000010,40.791658,0.000047,
2326,2008,1.58989101058274,-13.9315959111202,0.0366084769791541,0.001879,-0.000757,0.004180,0.071373,-0.020242,331.238516,22.853490,0.997801,0.974400,0.006651,0.221452,-0.000014,-0.000027,-0.000030,0.000010,-0.000052,-39.109437,0.000055,
2296,2893,0.769821203593182,5.40607740568699,-0.012677366245839,0.001765,-0.000603,0.001861,0.074722,-0.012782,316.520057,24.767549,0.999584,0.992359,0.003534,0.378940,0.000000,0.000003,0.000000,0.000004,0.000000,-82.555305,0.000004,
2446,2068,4.20165475983971,-12.6178364047438,0.0320405049350825,0.002252,-0.001022,0.004531,0.085730,-0.028829,330.354436,22.125495,0.998994,0.977764,0.005833,0.328742,0.000011,0.000031,0.000000,0.000031,0.000011,-88.900885,0.000044,
2221,2683,-0.824058510913286,0.833459983207447,-0.0241170091466643,0.001894,-0.000407,0.002479,0.079027,-0.006404,319.978561,24.343603,0.999595,0.992377,0.003598,0.410697,0.000010,0.000027,0.000008,0.000030,0.000007,68.491905,0.000039,
2266,2938,0.110011866033865,6.38107811212674,-0.00528283865639878,0.001852,-0.000734,0.006255,0.064273,-0.008740,315.879205,24.716954,0.999554,0.991751,0.003671,0.454909,0.000000,0.000017,-0.000001,0.000017,0.000000,-85.205567,0.000020,
2086,2308,-3.69845428592751,-7.35234643724108,-0.00447338083375826,0.001757,-0.000491,0.003664,0.069991,-0.006400,326.701137,24.424789,0.999417,0.989294,0.004433,0.359469,0.000023,-0.000010,0.000004,0.000023,-0.000011,6.658562,0.000023,
2326,3133,1.37962949581895,10.6185360460015,0.0210044025238858,0.001765,-0.000557,0.003378,0.069344,-0.024780,312.851629,25.368339,0.999279,0.991824,0.003645,0.357536,0.000008,0.000024,-0.000002,0.000024,0.000008,-84.030318,0.000034,
2281,2953,0.433777682659308,6.70919690482052,-0.00758262437341273,0.002249,-0.000320,0.001523,0.098329,0.000515,315.625801,24.865089,0.999347,0.989826,0.003966,0.376944,0.000001,0.000015,-0.000003,0.000016,0.000001,-78.543880,0.000019,
2356,2923,2.06897481181349,6.06256383886409,-0.0136074397373704,0.002011,-0.000186,0.000365,0.091193,0.006376,316.009151,24.981273,0.999335,0.991308,0.003794,0.368423,-0.000010,0.000007,-0.000005,0.000009,-0.000012,-74.386605,0.000012,
2161,2338,-2.07022098031062,-6.69666020216686,-0.000360734151001907,0.001576,-0.000812,0.004622,0.057972,0.006205,325.919430,24.153406,0.999274,0.988085,0.004399,0.372382,0.000007,-0.000021,-0.000010,0.000010,-0.000025,-17.559927,0.000025,
2146,2323,-2.39368727563931,-7.02550658794528,0.00648492123644928,0.001815,-0.000698,0.003870,0.071432,-0.021426,326.287571,24.210986,0.999241,0.984491,0.005009,0.331458,0.000007,-0.000025,-0.000012,0.000011,-0.000029,-18.494865,0.000029,
2386,3013,2.70569453536721,8.01814763582849,0.0121934968321398,0.001932,-0.000866,0.003957,0.074284,-0.032181,314.749835,25.282820,0.999643,0.991423,0.003678,0.346093,0.000004,0.000011,0.000007,0.000016,-0.000001,58.609251,0.000018,
2176,2458,-1.76338610309367,-4.07537666697944,-0.00545418003412124,0.001994,-0.000592,0.003310,0.081196,-0.004313,323.911557,24.166862,0.999198,0.986597,0.004736,0.404702,0.000001,-0.000010,-0.000005,0.000003,-0.000012,-19.802711,0.000012,
2101,2368,-3.38035967552335,-6.0421997144964,-0.00267226007827048,0.002263,-0.000364,-0.001821,0.109184,-0.020293,325.716222,24.319958,0.998986,0.983001,0.005205,0.403714,0.000004,-0.000006,-0.000003,0.000005,-0.000007,-17.297234,0.000008,
2131,2308,-2.71806891468153,-7.35327241234571,0.0018899880766412,0.001915,-0.001025,0.002976,0.078691,-0.032484,326.558102,24.243350,0.998958,0.985276,0.004990,0.337504,0.000012,-0.000019,-0.000009,0.000014,-0.000021,-14.594647,0.000021,
2326,2878,1.42511780538328,5.08156897299531,-0.013037285209009,0.002031,-0.000298,0.000991,0.089893,-0.002738,316.753360,24.767817,0.999563,0.991413,0.003741,0.408378,-0.000013,0.000007,-0.000006,0.000009,-0.000015,-74.591391,0.000015,
2146,2518,-2.4276915285152,-2.76459904391881,-0.0299446059108277,0.001888,-0.000823,0.000995,0.083521,-0.028016,322.847017,24.274854,0.999083,0.986355,0.004673,0.383953,0.000005,0.000002,-0.000005,0.000009,-0.000001,-38.863980,0.000009,
2416,3253,3.31160695852549,13.230032931867,0.0181059002379698,0.002299,-0.000652,0.005192,0.086563,-0.006600,310.905207,26.123242,0.999302,0.990282,0.003864,0.366176,0.000029,-0.000005,0.000002,0.000029,-0.000006,3.153210,0.000031,
2176,2323,-1.74068221189497,-7.02465071418551,-0.00156363481994504,0.001603,-0.000021,-0.001219,0.077370,0.007285,326.119614,24.057080,0.998714,0.982822,0.005216,0.400589,0.000008,-0.000025,-0.000013,0.000013,-0.000030,-19.137314,0.000030,
2476,2218,4.82610486578438,-9.32428514011263,0.0166742710568997,0.002329,-0.000273,0.002260,0.097885,0.026238,327.883750,22.607201,0.999053,0.979887,0.005715,0.306488,0.000009,-0.000041,-0.000003,0.000009,-0.000041,-2.858873,0.000043,
2176,2668,-1.79936114378815,0.505108022452404,-0.0202348129552661,0.002029,-0.000240,-0.000145,0.093730,0.003231,320.400011,24.365717,0.999618,0.992333,0.003605,0.397657,0.000014,0.000017,0.000009,0.000024,0.000007,48.724862,0.000032,
2401,3043,3.02632523065938,8.67166396889246,0.00999555649548256,0.002105,-0.000136,-0.000154,0.097380,0.005782,314.275083,25.424993,0.999629,0.991190,0.003774,0.376326,0.000004,0.000028,0.000014,0.000035,-0.000002,65.071385,0.000039,
2116,2383,-3.05643792879707,-5.71468301268768,-0.00794671155114202,0.002457,-0.000987,-0.001478,0.116902,-0.053673,325.369936,24.234003,0.999272,0.985255,0.004725,0.411526,-0.000006,-0.000009,-0.000009,0.000001,-0.000016,-39.854164,0.000018,
2341,2743,1.77602541392016,2.14488371305393,-0.0195443561390221,0.002054,-0.000750,0.003315,0.082590,-0.008844,318.885954,24.473070,0.999530,0.990470,0.003868,0.392882,-0.000007,0.000031,0.000001,0.000031,-0.000007,88.534745,0.000032,
2251,2788,-0.189663783869467,3.12020451545119,-0.0163510114300038,0.002052,-0.000707,0.004756,0.078553,-0.013273,318.270622,24.533380,0.999461,0.989527,0.004008,0.370293,0.000004,0.000011,-0.000003,0.000012,0.000003,-68.433085,0.000016,
2161,2608,-2.11505669021346,-0.802487780582723,-0.0151838327005862,0.002244,-0.000148,0.002113,0.096714,0.018026,321.469782,24.360476,0.999402,0.990893,0.004025,0.381285,0.000011,0.000011,0.000012,0.000023,-0.000001,45.788939,0.000026,
2206,2593,-1.13387999532121,-1.12909108803342,-0.00821191786963027,0.002042,-0.001072,0.007568,0.069559,-0.008160,321.601104,24.292172,0.999124,0.987677,0.004354,0.360617,0.000013,0.000001,0.000012,0.000020,-0.000007,31.708751,0.000020,
2191,2758,-1.48809273377017,2.46486481101752,-0.0170093984898472,0.002390,-0.000331,0.001366,0.105602,-0.000355,318.929627,24.463613,0.999548,0.990643,0.003766,0.378300,0.000000,0.000006,-0.000002,0.000006,-0.000001,-73.922722,0.000007,
2281,3148,0.400337069828307,10.9397435480612,0.0299738716552156,0.001963,-0.000720,0.007234,0.065946,-0.009488,312.721761,25.199789,0.999509,0.993636,0.003607,0.380698,0.000006,0.000011,-0.000004,0.000013,0.000004,-62.987445,0.000018,
2236,2758,-0.510853140480354,2.46763646456498,-0.0223871705657643,0.002120,-0.000479,0.005068,0.080967,0.015029,318.740894,24.496398,0.999298,0.988683,0.004152,0.382153,0.000000,0.000011,0.000000,0.000011,0.000000,87.515844,0.000013,
2296,3013,0.748991736680551,8.01287266965908,0.00137054445968943,0.001883,-0.000443,0.001765,0.080515,-0.015885,314.685047,25.027649,0.999196,0.987808,0.004226,0.350532,0.000006,0.000010,-0.000001,0.000010,0.000006,-81.423571,0.000016,
2251,3028,-0.230786019936641,8.33501780950814,0.00621037704848959,0.001878,-0.000425,0.002148,0.079338,-0.002978,314.548477,24.898116,0.999269,0.990008,0.003889,0.381669,0.000000,0.000006,-0.000006,0.000010,-0.000004,-59.980659,0.000010,
2341,2038,1.91064779715055,-13.2722065364308,0.0159243680526515,0.001813,-0.000974,0.001817,0.076300,-0.057166,330.586893,22.728645,0.998996,0.980894,0.005503,0.286483,0.000002,-0.000041,-0.000020,0.000010,-0.000049,-21.499084,0.000051,
2461,2128,4.51706064692031,-11.2998145317053,0.0222703704038167,0.002509,-0.001161,0.003727,0.100275,-0.036879,329.351612,22.283278,0.999485,0.976140,0.005906,0.297644,0.000019,0.000021,0.000007,0.000027,0.000013,49.335550,0.000040,
2236,2623,-0.486578947768297,-0.473493130744643,-0.0184434776228954,0.002014,-0.000153,-0.000632,0.094522,-0.018836,320.980184,24.292613,0.999301,0.985981,0.004587,0.358707,0.000015,0.000011,0.000005,0.000019,0.000007,36.584806,0.000027,
2311,2848,1.10483168767414,4.42717759237766,-0.00537909028690819,0.001861,-0.000466,0.002173,0.078030,-0.001361,317.304523,24.640328,0.999822,0.992811,0.003554,0.448870,-0.000007,0.000015,0.000002,0.000015,-0.000008,85.899845,0.000015,
2326,2713,1.45445547920986,1.49264560661648,-0.027367715738194,0.001710,-0.000321,0.000662,0.076181,-0.001882,319.306092,24.497646,0.999213,0.987067,0.004442,0.301656,-0.000015,0.000025,-0.000002,0.000025,-0.000015,-86.940417,0.000025,
2311,3088,1.0627745076123,9.64069795782229,0.0245879620214282,0.002098,-0.000452,0.004004,0.082719,-0.010322,313.641678,25.217936,0.999745,0.995429,0.002937,0.366656,0.000002,0.000012,-0.000004,0.000014,0.000001,-69.561931,0.000017,
2086,2323,-3.70026948864782,-7.02480902779848,-0.00411059224285282,0.002285,-0.000459,0.004316,0.092377,0.000708,326.485007,24.394909,0.999187,0.987895,0.004627,0.397390,0.000016,-0.000024,-0.000001,0.000016,-0.000024,-1.385133,0.000024,
2236,2968,-0.54641697448762,7.03159908963227,0.00197781289398336,0.001770,-0.000255,0.004072,0.068283,0.015294,315.512726,24.777326,0.999456,0.992507,0.003599,0.392366,-0.000009,0.000021,0.000003,0.000021,-0.000009,83.867202,0.000021,
2266,3103,0.0826677085399048,9.96348859745324,0.0212034338388207,0.001986,-0.000073,0.001449,0.086708,0.009252,313.428062,25.104029,0.999733,0.993602,0.003346,0.357727,0.000000,0.000009,-0.000010,0.000016,-0.000007,-57.201771,0.000016,
2326,2023,1.58640019878985,-13.6021957992355,0.0293726637506779,0.001811,-0.001155,0.005589,0.063275,-0.039982,330.929292,22.830150,0.998396,0.978975,0.006112,0.263437,-0.000011,-0.000028,-0.000021,0.000002,-0.000042,-33.743481,0.000047,
2491,2398,5.11477410840767,-5.38227209668669,0.000342533388845823,0.001916,-0.001135,0.005726,0.065387,-0.022227,324.840307,23.197886,0.999412,0.987727,0.004519,0.325177,0.000015,0.000036,-0.000006,0.000038,0.000013,-75.332418,0.000053,
2071,2278,-4.0194352401804,-8.00782279239311,0.00290935551106486,0.002101,-0.000294,0.001466,0.092246,-0.000849,327.344046,24.587585,0.999875,0.994713,0.003574,0.262768,0.000009,0.000011,0.000012,0.000021,-0.000002,46.966112,0.000024,
2101,2203,-3.35455370464858,-9.65052994295195,0.00997906961725903,0.001819,-0.000902,0.004881,0.068994,-0.028192,328.437565,24.366387,0.998559,0.981193,0.005425,0.311725,0.000018,0.000018,0.000007,0.000025,0.000011,44.473761,0.000037,
2131,2473,-2.74535502750554,-3.74668586847888,-0.0159222328938995,0.002205,-0.000156,-0.000170,0.101836,0.001497,323.769549,24.372859,0.999279,0.988090,0.004569,0.322868,0.000003,-0.000001,-0.000007,0.000008,-0.000006,-37.219286,0.000008,
2176,2338,-1.74392288151878,-6.69585237721545,-0.00310683577748705,0.001468,-0.000755,0.006087,0.048324,0.001335,325.835480,24.143490,0.999082,0.985804,0.004787,0.322641,0.000007,-0.000018,-0.000012,0.000011,-0.000023,-21.821673,0.000023,
2296,3238,0.709261311370796,12.8924650550572,0.0279207423414505,0.001885,-0.000701,0.006210,0.065543,-0.014132,311.210463,25.412545,0.999702,0.993087,0.003266,0.400050,0.000019,0.000015,0.000001,0.000019,0.000015,11.551663,0.000034,
2116,2218,-3.03009645341636,-9.32109774329675,0.00441706194118296,0.001808,-0.000011,-0.001394,0.087074,-0.004502,328.099529,24.330914,0.998527,0.980048,0.005492,0.302497,0.000014,0.000017,0.000004,0.000020,0.000012,56.237006,0.000032,
2176,2473,-1.76669408116537,-3.74726524895769,-0.00801529883176499,0.001567,-0.000960,0.006162,0.052639,0.005939,323.618917,24.211061,0.999207,0.984684,0.005088,0.384438,0.000005,0.000003,0.000003,0.000007,0.000001,32.430505,0.000009,
2191,2503,-1.4449166226811,-3.09193908429094,-0.0144808428726719,0.001976,-0.000308,0.000217,0.089975,-0.023572,323.069755,24.211610,0.999212,0.986312,0.004759,0.350760,0.000012,0.000008,-0.000001,0.000012,0.000008,-11.661658,0.000020,
2206,2833,-1.17458825112341,4.09620468196533,-0.00830272722379277,0.002273,-0.000663,0.002127,0.097672,-0.012488,317.731340,24.549660,0.999235,0.990362,0.003982,0.370069,0.000006,0.000018,0.000004,0.000019,0.000005,73.130999,0.000026,
2341,2758,1.77316597731351,2.47161236424537,-0.014351600277962,0.001833,-0.000466,0.006166,0.062659,0.026202,318.664981,24.523008,0.999601,0.990553,0.003876,0.414634,0.000000,0.000033,0.000006,0.000034,-0.000001,80.384688,0.000038,
2251,2803,-0.192679376061488,3.44743915785239,-0.0255501468403168,0.002179,-0.000347,0.002211,0.092898,0.000036,317.963628,24.551569,0.999420,0.989668,0.004170,0.388863,0.000004,0.000002,-0.000004,0.000007,-0.000001,-39.108370,0.000007,
2296,2908,0.76779672597905,5.7317564664846,-0.00453215941485041,0.001957,-0.000631,0.002843,0.080229,-0.012075,316.349197,24.815355,0.999592,0.992920,0.003434,0.361108,0.000000,0.000006,-0.000002,0.000007,-0.000001,-74.563350,0.000007,
2371,2938,2.39250861511401,6.38905152558472,-0.00560601977690567,0.001882,-0.000347,0.004033,0.072095,0.006996,315.815715,25.056239,0.999194,0.989624,0.004084,0.365953,-0.000009,0.000005,-0.000008,0.000008,-0.000013,-65.622250,0.000013,
2281,2968,0.431606744164547,7.03536632832763,-0.00651597951969052,0.002427,-0.000127,-0.002564,0.120327,0.006544,315.411705,24.917741,0.999338,0.990387,0.003890,0.357447,0.000001,0.000020,-0.000001,0.000020,0.000001,-86.906869,0.000023,
2416,3268,3.30753359806127,13.555910890022,0.00532602669380822,0.001989,-0.000371,0.002576,0.082028,-0.000459,310.546699,26.150497,0.999616,0.992066,0.003519,0.391140,0.000028,-0.000007,0.000004,0.000029,-0.000008,6.470718,0.000030,
2311,2668,1.13692253581033,0.510604151470275,-0.0198564367251493,0.001667,-0.000251,-0.000260,0.077406,-0.002445,320.110999,24.369456,0.999788,0.992387,0.003571,0.331499,-0.000009,0.000029,-0.000006,0.000030,-0.000010,-80.838511,0.000030,
2236,2773,-0.513427341089521,2.79370080487418,-0.0241429595031946,0.002045,-0.000271,0.001398,0.089419,-0.011306,318.491126,24.494836,0.999340,0.988788,0.004028,0.378295,0.000000,0.000009,-0.000002,0.000009,-0.000001,-76.066350,0.000011,
2446,2083,4.19762189983847,-12.2872872544556,0.0300815849734022,0.001844,-0.001429,0.009948,0.046785,-0.007528,330.056467,22.249842,0.998794,0.976324,0.006179,0.281499,0.000007,0.000035,0.000001,0.000035,0.000007,87.421344,0.000046,
2161,2353,-2.0726605325134,-6.36850082381792,-0.00545655399542966,0.001896,-0.000621,0.003847,0.075097,-0.001194,325.652120,24.152820,0.999047,0.986651,0.004635,0.377427,0.000001,-0.000019,-0.000011,0.000005,-0.000024,-23.777955,0.000025,
2221,2908,-0.861525857760096,5.7265764756037,0.00168419684263199,0.001891,-0.000871,0.003411,0.075854,-0.014415,316.532261,24.650988,0.999591,0.991917,0.003849,0.377640,0.000000,0.000009,0.000002,0.000010,0.000000,79.240425,0.000011,
2506,2593,5.4004656489125,-1.11739617047455,-0.0249110324457433,0.002258,-0.000363,0.000595,0.101099,-0.007105,321.539565,24.039722,0.999809,0.994222,0.003555,0.261535,0.000043,-0.000009,-0.000004,0.000043,-0.000009,-4.713588,0.000045,
2326,2038,1.58277089960705,-13.270554285498,0.0200542279146134,0.001397,-0.000368,0.002000,0.056940,-0.003541,330.603018,22.938167,0.999116,0.983661,0.005167,0.230344,-0.000011,-0.000037,-0.000017,-0.000003,-0.000046,-26.489080,0.000055,
2491,2413,5.11120130946176,-5.05482931059318,-0.010285891652245,0.001623,-0.000647,-0.002498,0.083622,-0.028980,324.527065,23.104339,0.999449,0.988692,0.004386,0.472837,0.000011,0.000046,0.000006,0.000047,0.000010,79.987337,0.000061,
2086,2338,-3.70186854311254,-6.69765921275883,0.00219725089181111,0.002257,-0.000144,-0.001354,0.107527,-0.022474,326.311235,24.423248,0.999023,0.985979,0.004783,0.346606,0.000005,-0.000019,-0.000001,0.000005,-0.000019,-2.817624,0.000020,
2206,2608,-1.13689720083321,-0.801534278206162,-0.0172009388308538,0.002014,-0.000765,0.004569,0.077840,-0.013749,321.291137,24.291577,0.999042,0.986047,0.004613,0.373238,0.000014,0.000004,0.000015,0.000025,-0.000006,35.949134,0.000026,
2326,2893,1.42220547875464,5.40784796655902,-0.0141803465544399,0.001917,-0.000532,-0.000145,0.088519,-0.010598,316.497782,24.808743,0.999338,0.990796,0.003844,0.393745,-0.000013,0.000006,-0.000003,0.000006,-0.000014,-80.989548,0.000014,
2266,2953,0.108118043501477,6.70779523394082,-0.00250660681723502,0.002211,-0.000402,0.002814,0.092317,-0.000137,315.685251,24.824806,0.999285,0.988160,0.004214,0.380558,-0.000003,0.000017,-0.000002,0.000017,-0.000003,-85.731046,0.000018,
2356,2113,2.22384062306884,-11.6253120489176,0.0182114363441315,0.001404,-0.000534,0.004406,0.048622,0.007509,329.371344,22.925286,0.999477,0.981514,0.005166,0.265434,-0.000004,-0.000003,-0.000005,0.000002,-0.000008,-48.566795,0.000008,
2356,2938,2.06604667458005,6.38853800639742,-0.0112146615957727,0.001980,-0.000433,0.003380,0.078998,0.000056,315.772130,25.031057,0.999245,0.990078,0.003964,0.350805,-0.000007,0.000007,-0.000005,0.000009,-0.000008,-73.526051,0.000010,
2311,2863,1.10220943001644,4.75407052977202,-0.00704960923928866,0.002154,-0.000678,0.002389,0.090643,-0.019268,317.058473,24.734231,0.999698,0.992214,0.003617,0.368944,-0.000008,0.000010,0.000000,0.000010,-0.000008,-88.559178,0.000010,
2131,2488,-2.7480986349917,-3.42069118257041,-0.0153038946496054,0.002027,-0.000558,0.002631,0.085112,-0.008223,323.516367,24.277176,0.999283,0.987674,0.004587,0.415743,0.000003,0.000002,-0.000009,0.000012,-0.000007,-43.518212,0.000012,
2476,2233,4.82258836104238,-8.99667193457498,0.015960026102448,0.001658,-0.000367,-0.000985,0.079453,-0.002027,327.617452,22.581945,0.999334,0.982454,0.005325,0.362533,0.000010,-0.000039,0.000004,0.000010,-0.000039,4.170460,0.000040,
2446,2098,4.19428984554013,-11.9575912743968,0.0236179900853699,0.001638,-0.001071,0.004910,0.056232,-0.011558,329.770058,22.277857,0.999360,0.979233,0.005714,0.305056,0.000002,0.000028,-0.000006,0.000029,0.000001,-78.171513,0.000034,
2221,2698,-0.826664832396464,1.1595490267503,-0.0209569796426763,0.001839,-0.000830,0.004861,0.068714,-0.016374,319.751416,24.344911,0.999660,0.993560,0.003309,0.418499,0.000005,0.000021,0.000008,0.000025,0.000002,66.687219,0.000029,
2491,2428,5.10838182529651,-4.72626882265911,-0.00523486383468708,0.001919,-0.000874,0.002813,0.076783,-0.017857,324.318552,23.249716,0.999375,0.987386,0.004561,0.398618,0.000015,0.000035,0.000015,0.000042,0.000007,61.508261,0.000054,
2146,2533,-2.42969154853223,-2.43854248683589,-0.0149780820559045,0.001688,-0.000838,0.006055,0.059036,-0.006003,322.704890,24.296878,0.999307,0.987485,0.004332,0.392344,0.000004,0.000003,0.000002,0.000006,0.000001,39.873869,0.000007,
2386,3028,2.70238746412957,8.34471992603233,0.0069497016090736,0.001891,-0.000606,0.003364,0.074627,-0.021980,314.460532,25.343039,0.999606,0.991076,0.003773,0.338819,0.000007,0.000015,0.000006,0.000018,0.000003,60.545107,0.000023,
2296,3028,0.74725651556081,8.33896014683179,0.00389347179822153,0.002475,0.000197,-0.001460,0.118982,0.014550,314.499136,25.073834,0.999309,0.989452,0.003978,0.364236,0.000008,0.000010,-0.000001,0.000010,0.000007,-71.489625,0.000018,
2311,2683,1.1346452857636,0.836339006987785,-0.0150270137361872,0.002012,-0.000313,0.002762,0.082925,0.007864,319.913537,24.328485,0.999750,0.991669,0.003691,0.415397,-0.000007,0.000035,-0.000005,0.000035,-0.000008,-83.311233,0.000037,
2281,3163,0.397585072722705,11.265831080971,0.0296428949432652,0.001929,-0.000520,0.006631,0.066550,0.012694,312.473511,25.269235,0.999537,0.992691,0.003548,0.360218,0.000009,0.000015,-0.000002,0.000016,0.000009,-75.635872,0.000025,
2176,2488,-1.76949030391883,-3.41988589980804,-0.007891817584607,0.001324,-0.000949,0.006917,0.039117,0.005259,323.363920,24.228853,0.999057,0.984785,0.005051,0.379506,0.000005,0.000008,-0.000001,0.000008,0.000005,-79.972165,0.000013,
2326,3148,1.37757215323378,10.9439023363195,0.0243880684007536,0.002171,-0.000494,0.002213,0.092155,-0.009930,312.657046,25.398504,0.999493,0.993008,0.003528,0.375379,0.000009,0.000017,0.000003,0.000019,0.000008,70.922165,0.000027,
2161,2623,-2.11848412647138,-0.474800469786693,-0.0244029728278292,0.001980,-0.000552,0.002812,0.082283,-0.007594,321.135346,24.394926,0.999530,0.991215,0.003919,0.331972,0.000012,0.000014,0.000008,0.000021,0.000005,48.133696,0.000027,
2341,2053,1.90900622155441,-12.9443879339712,0.034680295727469,0.001701,-0.000893,0.003959,0.063794,-0.031413,330.489135,22.819202,0.999164,0.981390,0.005288,0.261063,0.000002,-0.000037,-0.000013,0.000006,-0.000041,-17.176513,0.000044,
2311,3103,1.05982722760431,9.96686824020924,0.0203590349363481,0.001916,-0.000192,-0.000449,0.089754,0.007768,313.367484,25.259659,0.999535,0.993134,0.003450,0.374248,0.000003,0.000018,-0.000003,0.000019,0.000003,-77.624853,0.000024,
2101,2383,-3.38339273684625,-5.71355901927438,-0.00829884042673257,0.002116,-0.000720,0.000662,0.095078,-0.026879,325.413157,24.367347,0.998935,0.984057,0.004965,0.353043,0.000000,-0.000009,-0.000003,0.000001,-0.000010,-16.811744,0.000012,
2401,3058,3.02341530277369,8.9973800118645,0.0146677637853827,0.002230,-0.000538,0.005908,0.081002,0.007672,314.052311,25.488244,0.999650,0.992222,0.003649,0.359426,0.000003,0.000024,0.000015,0.000032,-0.000005,61.767077,0.000035,
2116,2398,-3.05934347864093,-5.38616474541077,-0.00873915364348932,0.001914,-0.000261,-0.002725,0.095927,-0.021968,325.099887,24.284304,0.999071,0.985324,0.004767,0.398026,-0.000006,-0.000008,-0.000007,0.000000,-0.000015,-41.376623,0.000017,
2131,2323,-2.72022643576313,-7.02500168077914,0.00213518618119224,0.001937,-0.000354,-0.000309,0.089757,-0.023038,326.329220,24.277447,0.999149,0.985956,0.004825,0.320390,0.000010,-0.000027,-0.000011,0.000014,-0.000030,-15.930051,0.000030,
2461,2143,4.51305612302657,-10.9694928004123,0.0143828856209893,0.002098,-0.000553,0.002544,0.086171,-0.002349,329.028916,22.332948,0.999129,0.976850,0.005810,0.340519,0.000021,0.000019,0.000003,0.000023,0.000017,31.078418,0.000040,
2326,2728,1.45179698522429,1.81850776880351,-0.0270577755697445,0.001825,-0.000564,0.000789,0.080904,-0.022962,319.069939,24.476801,0.999414,0.989183,0.004104,0.335921,-0.000016,0.000024,0.000000,0.000024,-0.000016,89.626569,0.000024,
2296,3253,0.705889736024186,13.2186049951113,0.0209925968449056,0.001783,-0.000587,0.006098,0.061323,-0.003471,310.901634,25.484983,0.999708,0.990896,0.003584,0.366853,0.000019,0.000019,0.000002,0.000021,0.000017,40.858774,0.000038,
2371,2953,2.38961929352125,6.71523279788385,-0.00672731963106799,0.001899,-0.000473,0.003322,0.075311,-0.010469,315.564569,25.115316,0.999312,0.989833,0.004065,0.329813,-0.000005,0.000004,-0.000005,0.000006,-0.000007,-66.683755,0.000008,
2296,2923,0.76534559359699,6.05647575238314,-0.00208429781650921,0.001993,-0.000443,0.001848,0.085278,-0.012541,316.130702,24.738583,0.999554,0.993203,0.003366,0.467119,0.000000,0.000009,-0.000004,0.000011,-0.000001,-68.220399,0.000012,
2326,2053,1.58060375482343,-12.9432772862245,0.0247002093891524,0.001812,-0.000833,0.004302,0.067846,-0.007974,330.412146,22.851586,0.999549,0.987417,0.004523,0.350063,-0.000010,-0.000031,-0.000010,-0.000006,-0.000035,-22.545707,0.000045,
2116,2233,-3.03219199502583,-8.9928600756842,0.00628919479112255,0.002044,-0.000199,-0.000193,0.094351,-0.008319,327.881025,24.360702,0.998730,0.981580,0.005354,0.274770,0.000011,0.000014,0.000003,0.000016,0.000009,57.766997,0.000026,
2476,2248,4.81986287330585,-8.66946070547999,0.0184268818773603,0.001834,-0.000400,-0.000326,0.085010,-0.018200,327.401738,22.545675,0.999323,0.982572,0.005140,0.441494,0.000005,-0.000041,-0.000002,0.000005,-0.000041,-2.167238,0.000045,
2341,2953,1.73791269979605,6.71245266986821,-0.000985535451604846,0.002071,-0.000747,0.004108,0.080654,-0.019681,315.616030,25.017367,0.999357,0.991335,0.003739,0.346949,-0.000005,0.000007,-0.000003,0.000008,-0.000006,-74.432276,0.000008,
2266,2968,0.105343143061734,7.03394281901535,-0.00634332610877664,0.002162,-0.000316,-0.000676,0.101669,-0.006745,315.417670,24.853622,0.999450,0.991413,0.003741,0.370265,-0.000005,0.000020,-0.000001,0.000020,-0.000005,-88.799407,0.000021,
2161,2368,-2.07438919039366,-6.04061968226681,-0.00516874994650607,0.002448,-0.000491,0.001265,0.108392,-0.010821,325.445675,24.186876,0.999001,0.989734,0.004216,0.345557,0.000001,-0.000004,-0.000009,0.000008,-0.000011,-36.500552,0.000011,
2206,2623,-1.13947966814911,-0.474915347750155,-0.0140193363342291,0.001861,-0.000797,0.005670,0.067295,-0.018665,321.064102,24.313928,0.999303,0.985975,0.004659,0.363345,0.000014,0.000008,0.000015,0.000026,-0.000005,39.110423,0.000028,
2506,2608,5.39742240749188,-0.79125901974993,-0.0218910284180538,0.002023,-0.000091,0.000186,0.091970,-0.007507,321.312137,24.011929,0.999832,0.993819,0.003629,0.350733,0.000034,0.000005,-0.000013,0.000039,0.000000,-20.483442,0.000045,
2236,2638,-0.489152846484636,-0.146601175112643,-0.0181593093496986,0.002175,-0.000166,0.001166,0.096165,-0.000071,320.740754,24.296920,0.999171,0.987388,0.004462,0.395025,0.000011,0.000017,0.000006,0.000020,0.000007,58.245376,0.000029,
2206,2848,-1.17794931202554,4.42311942885205,-0.0146943157595842,0.002046,-0.000497,0.003536,0.082801,-0.001448,317.418667,24.575526,0.999294,0.991026,0.003782,0.371831,0.000006,0.000012,0.000005,0.000015,0.000004,61.367785,0.000019,
2191,2518,-1.44721203426717,-2.7664405100608,-0.0068018434378132,0.001824,-0.000769,0.002207,0.076621,-0.023473,322.878509,24.134749,0.999306,0.988595,0.004478,0.443223,0.000015,-0.000002,0.000005,0.000016,-0.000003,16.612707,0.000017,
2371,2968,2.38661255678982,7.04179321825817,-0.0050542205933084,0.001777,-0.000677,0.005105,0.063389,0.005268,315.321196,25.199861,0.999588,0.989895,0.004086,0.301321,-0.000004,0.000012,0.000002,0.000012,-0.000004,83.813517,0.000012,
2251,3043,-0.233075054833559,8.66089086090181,0.0117640544943924,0.001957,-0.000411,0.003309,0.079146,0.000586,314.349555,24.974177,0.999522,0.991601,0.003621,0.331528,0.000000,0.000006,-0.000007,0.000010,-0.000004,-55.729078,0.000010,
2266,3118,0.0803746992935608,10.2882035596414,0.029245809957672,0.001951,-0.000203,0.003259,0.078978,0.001369,313.242658,25.117547,0.999670,0.993846,0.003311,0.360577,-0.000001,0.000012,-0.000010,0.000017,-0.000006,-61.297010,0.000017,
2086,2353,-3.7050816670585,-6.36904526659411,-0.0019853686657143,0.001705,-0.000082,-0.000347,0.079320,-0.007465,326.006286,24.449325,0.998776,0.981694,0.005255,0.336380,-0.000002,-0.000021,-0.000003,-0.000001,-0.000021,-8.272023,0.000026,
2146,2338,-2.39655233096196,-6.69727012263377,0.00216687142813043,0.001693,-0.000737,0.004092,0.065156,-0.003965,326.003400,24.194225,0.999250,0.986460,0.004672,0.375870,0.000002,-0.000015,-0.000011,0.000007,-0.000021,-27.232378,0.000021,
2176,2683,-1.80224682524797,0.831194841516805,-0.0222883998555403,0.001957,-0.000682,0.002057,0.083412,-0.015451,320.129685,24.327163,0.999420,0.991354,0.003808,0.430053,0.000014,0.000022,0.000005,0.000024,0.000012,64.922058,0.000037,
2236,2983,-0.548300297368808,7.35707103824571,0.00732722939056885,0.001995,-0.000340,0.001744,0.086173,0.007062,315.330744,24.811963,0.999413,0.992735,0.003634,0.370121,-0.000007,0.000020,0.000003,0.000020,-0.000007,83.707639,0.000020,
2131,2503,-2.75107019011243,-3.09339912129002,-0.0230185371091807,0.002034,-0.000776,0.003331,0.083323,-0.008448,323.207999,24.219924,0.999121,0.986251,0.004684,0.479713,0.000003,0.000009,-0.000012,0.000018,-0.000006,-51.938640,0.000019,
2251,2818,-0.194603991967089,3.77306353483536,-0.0189624647404685,0.002096,0.000098,-0.002667,0.105231,0.007287,317.787100,24.553633,0.999552,0.990892,0.004063,0.417114,0.000007,0.000014,-0.000002,0.000014,0.000006,-76.114161,0.000021,
2221,2923,-0.864224773357943,6.05328293676229,-0.00146589251187379,0.002020,-0.000400,0.003185,0.082721,0.006948,316.267887,24.693700,0.999594,0.992244,0.003619,0.374765,0.000000,0.000016,0.000002,0.000016,0.000000,83.572608,0.000018,
2221,2713,-0.829102535870437,1.48626639979534,-0.019196995259847,0.001895,-0.000928,0.004983,0.070898,-0.015403,319.524611,24.385697,0.999232,0.990150,0.003911,0.397821,0.000003,0.000010,0.000006,0.000014,0.000000,60.515737,0.000015,
2281,2983,0.428550418437926,7.36050516398424,-0.00289340831017171,0.002221,-0.000126,0.002810,0.092858,0.018650,315.169971,24.891142,0.999410,0.990720,0.003818,0.423284,0.000002,0.000020,0.000001,0.000020,0.000002,87.782600,0.000025,
2386,3043,2.69941706119756,8.6705647702621,0.00361219817222036,0.001996,-0.000527,0.002274,0.083459,-0.010126,314.195941,25.351882,0.999685,0.991934,0.003641,0.384335,0.000005,0.000023,0.000011,0.000028,0.000000,65.107663,0.000032,
2116,2413,-3.06126024149073,-5.05754777235406,-0.00974782492659187,0.002404,-0.000194,-0.003633,0.121125,-0.010199,324.873963,24.366369,0.999260,0.986411,0.004728,0.332574,-0.000004,-0.000016,-0.000013,0.000005,-0.000024,-33.054924,0.000026,
2476,2263,4.81688714520113,-8.33981428524649,0.0160951682753421,0.002021,-0.000258,-0.001576,0.098335,-0.016200,327.152433,22.669860,0.999122,0.980877,0.005176,0.378392,0.000000,-0.000037,-0.000010,0.000003,-0.000039,-14.756515,0.000044,
2446,2113,4.19236423131338,-11.6290816354452,0.0282030115423595,0.002128,-0.000658,0.002304,0.088507,-0.014946,329.598801,22.323392,0.999497,0.978630,0.005682,0.310993,0.000001,0.000020,-0.000004,0.000021,0.000000,-79.960045,0.000024,
2416,3283,3.30419881734533,13.8819979585089,-0.00221330735718084,0.002181,-0.000345,0.002212,0.092212,0.001118,310.246695,26.235569,0.999742,0.992229,0.003485,0.353920,0.000030,-0.000017,-0.000002,0.000030,-0.000017,-2.280647,0.000030,
2341,3193,1.69500811010835,11.9210729609974,0.0329747801845883,0.001976,-0.000705,0.006216,0.069027,-0.015765,311.962571,25.599103,0.999602,0.993870,0.003410,0.339476,0.000016,0.000025,0.000008,0.000030,0.000011,58.586567,0.000043,
2401,3073,3.02042722712158,9.3229917232336,0.013015073052145,0.002161,-0.000538,0.004189,0.084002,-0.003387,313.796031,25.517525,0.999641,0.991699,0.003675,0.363524,0.000007,0.000030,0.000015,0.000037,0.000000,63.508185,0.000043,
2236,2788,-0.515550824105585,3.12005460812469,-0.0211087356203166,0.002295,-0.000154,0.000694,0.103287,0.002410,318.286271,24.521686,0.999445,0.989736,0.004008,0.386368,0.000000,0.000012,-0.000001,0.000012,0.000000,-86.744972,0.000014,
2356,2128,2.2212425602178,-11.2976517425776,0.0204748747865438,0.001534,-0.000915,0.005416,0.050895,-0.019371,329.151458,22.896313,0.999296,0.982698,0.005130,0.309309,-0.000004,0.000001,-0.000003,0.000003,-0.000006,-65.797353,0.000006,
2341,2773,1.77094073395876,2.79804974010173,-0.00964654066962112,0.002054,-0.000619,0.005979,0.073407,0.018554,318.470903,24.588625,0.999650,0.992428,0.003534,0.378186,-0.000001,0.000022,0.000002,0.000022,-0.000001,84.996008,0.000025,
2356,2953,2.06324030395238,6.71431431544391,-0.0113516568477507,0.001983,-0.000510,0.002758,0.081288,-0.015900,315.528517,25.058412,0.999368,0.990117,0.003896,0.345616,-0.000004,0.000007,-0.000002,0.000007,-0.000004,-79.986533,0.000007,
2326,2743,1.44955534498279,2.14502163421122,-0.0239466579155305,0.002086,-0.000192,0.000111,0.095444,0.004932,318.866307,24.493645,0.999627,0.990551,0.003854,0.381906,-0.000014,0.000026,0.000001,0.000026,-0.000014,88.777936,0.000026,
2131,2338,-2.7229131886073,-6.69711344859275,0.00312767368825462,0.001816,-0.000445,0.003015,0.074254,-0.007058,326.080159,24.282594,0.999278,0.986596,0.004669,0.338978,0.000004,-0.000017,-0.000010,0.000008,-0.000021,-21.840153,0.000021,
2311,2878,1.09867306350355,5.0815284782329,-0.0154245042281218,0.001951,-0.000338,0.001504,0.084509,0.006298,316.737088,24.792223,0.999556,0.990861,0.003835,0.368469,-0.000009,0.000005,-0.000003,0.000006,-0.000009,-79.229315,0.000009,
2311,3118,1.05705488574005,10.2921931503577,0.0225123327912229,0.001843,-0.000378,0.000606,0.082676,-0.005040,313.133096,25.298529,0.999399,0.991652,0.003765,0.353818,0.000007,0.000020,-0.000002,0.000021,0.000007,-81.120337,0.000029,
2161,2383,-2.07767084090788,-5.71239646704962,-0.0102557345934429,0.002059,-0.000413,0.002435,0.087014,0.006250,325.139728,24.179098,0.998985,0.987910,0.004474,0.382416,-0.000001,-0.000004,-0.000009,0.000006,-0.000012,-39.600817,0.000012,
2491,2443,5.10571427957203,-4.39787274753743,-0.00092778215571343,0.002073,-0.000787,0.003909,0.079671,-0.016850,324.113656,23.387410,0.999148,0.983712,0.004838,0.322146,0.000031,-0.000005,0.000017,0.000038,-0.000012,22.054289,0.000039,
2251,3058,-0.233951007921316,8.98460753167041,0.0293708464590168,0.002315,-0.000142,0.000772,0.104070,0.007764,314.277433,24.929433,0.999580,0.992863,0.003433,0.406100,0.000003,-0.000001,-0.000006,0.000008,-0.000005,-35.817888,0.000008,
2356,3268,2.00439662794602,13.5501481088113,0.00865101005086899,0.001822,-0.000705,0.006877,0.059502,0.002085,310.516013,25.838972,0.999620,0.993179,0.003266,0.375905,0.000013,0.000015,0.000011,0.000025,0.000003,48.282403,0.000030,
2311,2698,1.13170989501189,1.16287600387097,-0.0155599081966784,0.001897,-0.000397,0.003013,0.076793,0.008776,319.659269,24.330673,0.999767,0.992296,0.003622,0.446445,-0.000009,0.000030,-0.000001,0.000030,-0.000009,-88.531655,0.000031,
2341,3208,1.69280597049643,12.245639682199,0.0342587627361013,0.002207,-0.000242,0.002300,0.093502,-0.003089,311.752140,25.559378,0.999591,0.993706,0.003347,0.427445,0.000018,0.000022,0.000009,0.000028,0.000011,51.367776,0.000041,
2506,2623,5.39505026471877,-0.46646997470873,-0.0128667242246934,0.002115,-0.000433,0.001781,0.089865,-0.021333,321.142590,23.929142,0.999870,0.994369,0.003343,0.481209,0.000035,-0.000013,-0.000024,0.000045,-0.000023,-22.857128,0.000045,
2296,2938,0.762516386509152,6.38416400192192,-0.00230274630484928,0.001951,-0.000274,0.002067,0.082724,0.005869,315.880650,24.901248,0.999356,0.990833,0.003808,0.352321,0.000005,0.000013,-0.000003,0.000014,0.000003,-71.169077,0.000018,
2146,2548,-2.43176632458732,-2.11221227121833,-0.0129539677474213,0.001807,-0.000833,0.004093,0.070445,-0.015996,322.490853,24.263766,0.999075,0.985940,0.004580,0.424304,0.000005,0.000010,0.000006,0.000014,0.000001,55.184986,0.000017,
2176,2698,-1.80537678343154,1.15881591149729,-0.0263013513296642,0.001595,-0.000396,0.001553,0.068483,0.005505,319.837367,24.378730,0.999448,0.991187,0.003743,0.412165,0.000010,0.000015,0.000002,0.000016,0.000010,68.790815,0.000026,
2461,2158,4.509821033082,-10.6405127588721,0.0170712940246176,0.001766,-0.000621,0.003593,0.067082,-0.022037,328.789955,22.433684,0.999199,0.976404,0.005703,0.277170,0.000018,-0.000009,-0.000009,0.000021,-0.000011,-16.107939,0.000021,
2296,3268,0.703052023903741,13.543800692256,0.0155996079484453,0.001908,-0.000486,0.003381,0.076310,-0.009118,310.625310,25.499674,0.999615,0.992711,0.003348,0.374873,0.000019,0.000022,0.000002,0.000023,0.000018,68.418238,0.000041,
2161,2638,-2.12143337593461,-0.147764767453076,-0.0264825006470915,0.001702,-0.000572,0.003337,0.067908,-0.000529,320.860454,24.403285,0.999757,0.993168,0.003557,0.341484,0.000014,0.000011,0.000008,0.000020,0.000005,41.116068,0.000026,
2176,2503,-1.77203182611926,-3.09251681082858,-0.0123705225412891,0.001405,-0.000859,0.004096,0.051589,-0.024818,323.096629,24.238016,0.998965,0.984725,0.005060,0.353733,0.000007,0.000015,-0.000002,0.000016,0.000007,-76.041204,0.000023,
2326,3163,1.37503720143913,11.2693766693136,0.0276029664576072,0.002184,-0.000354,0.001996,0.093599,0.001617,312.439580,25.444402,0.999659,0.994025,0.003342,0.374288,0.000010,0.000019,0.000005,0.000021,0.000008,63.907510,0.000030,
2326,2908,1.41930661899064,5.73350637234294,-0.00718436995657612,0.001657,-0.001129,0.004739,0.059429,-0.029072,316.282799,24.866214,0.999245,0.990613,0.003931,0.351538,-0.000011,0.000006,-0.000003,0.000007,-0.000012,-79.177051,0.000012,
2236,2998,-0.551032907591026,7.68235343071109,0.00422501407655318,0.002031,-0.000345,0.000296,0.092487,-0.002980,315.066629,24.777189,0.999426,0.991556,0.003757,0.415104,-0.000005,0.000018,0.000003,0.000019,-0.000006,83.218608,0.000019,
2356,3028,2.05039033543099,8.34284176600421,0.00835841491374367,0.001896,-0.000525,0.003216,0.075694,-0.009690,314.462498,25.274568,0.999617,0.992327,0.003575,0.326195,0.000006,0.000012,0.000002,0.000012,0.000005,71.485025,0.000018,
2206,2863,-1.1802391064368,4.74857401612687,-0.00943961317295816,0.001794,-0.000176,0.000826,0.079926,0.003176,317.215797,24.564928,0.999348,0.992095,0.003545,0.403360,0.000005,0.000013,0.000000,0.000013,0.000005,87.386103,0.000019,
2326,2068,1.57766699685846,-12.6142750890158,0.0204037257673235,0.001954,-0.000675,0.004137,0.074988,-0.017203,330.142385,22.832800,0.999344,0.982830,0.005141,0.397323,-0.000011,-0.000003,-0.000004,-0.000001,-0.000012,-67.450135,0.000015,
2356,2968,2.06062641651566,7.04075366254621,-0.00734280453303882,0.001922,-0.000409,0.002897,0.078077,0.000564,315.313479,25.147310,0.999589,0.991741,0.003623,0.311544,-0.000002,0.000013,0.000003,0.000014,-0.000003,79.607529,0.000014,
2191,2773,-1.49196259765141,2.79250248290094,-0.0332143319128022,0.002254,-0.000559,0.002241,0.096559,-0.005712,318.541176,24.471574,0.999354,0.989511,0.004124,0.379674,-0.000002,0.000003,-0.000005,0.000006,-0.000006,-58.595565,0.000007,
2356,2143,2.2187698006454,-10.968704445571,0.0211311555186739,0.001845,-0.001099,0.005399,0.065091,-0.005972,328.929212,22.932298,0.998814,0.980436,0.005511,0.328270,-0.000006,-0.000003,-0.000004,0.000000,-0.000009,-54.951839,0.000010,
2341,2968,1.73511402875362,7.03971891337187,-0.00474118432975956,0.002235,-0.000236,0.002126,0.095371,0.014014,315.353527,25.110533,0.999919,0.997837,0.002451,0.323533,-0.000003,0.000010,0.000000,0.000010,-0.000003,-88.461240,0.000010,
2506,2638,5.39142374213393,-0.137974875544224,-0.0159697558148082,0.001792,-0.000464,0.000895,0.078513,-0.018422,320.860400,24.070918,0.999724,0.991845,0.003814,0.404140,0.000031,-0.000001,-0.000036,0.000055,-0.000024,-32.925942,0.000055,
2341,2068,1.90583091927714,-12.6160582103081,0.0301750644443359,0.001653,-0.001000,0.003851,0.061937,-0.034900,330.208943,22.730567,0.998958,0.977387,0.005723,0.386429,0.000002,-0.000010,-0.000007,0.000005,-0.000013,-24.755343,0.000013,
2326,2758,1.44605234676926,2.47143258188215,-0.0229110514700892,0.001724,-0.000530,0.005780,0.059169,0.020304,318.594600,24.501411,0.999638,0.991965,0.003695,0.424005,-0.000010,0.000029,0.000005,0.000029,-0.000011,82.386400,0.000030,
2236,2803,-0.518631434927794,3.44653367419166,-0.0245566214532573,0.002185,-0.000198,0.001919,0.094259,0.009914,318.004385,24.520565,0.999519,0.989581,0.004076,0.416074,-0.000002,0.000006,-0.000001,0.000006,-0.000002,-85.841010,0.000006,
2221,2728,-0.831452154515699,1.8125660486721,-0.0152008596134579,0.001946,-0.000933,0.006023,0.069920,-0.009772,319.313399,24.405737,0.999309,0.990380,0.003820,0.402707,0.000002,0.000006,0.000001,0.000006,0.000001,73.440116,0.000008,
2476,2278,4.81263326953286,-8.00957568779093,0.00933268564438094,0.001741,-0.000702,0.002436,0.070185,-0.019726,326.824305,22.814619,0.999457,0.981389,0.005101,0.289128,-0.000010,-0.000038,-0.000002,-0.000009,-0.000038,-3.658384,0.000050,
2461,2173,4.50686261428671,-10.3109579713761,0.0112308086418125,0.002161,-0.000321,0.001570,0.092856,-0.013111,328.524562,22.472638,0.999062,0.978920,0.005504,0.304394,0.000011,-0.000008,-0.000014,0.000019,-0.000016,-27.550271,0.000020,
2386,3058,2.69704776140014,8.99600883011121,0.0144480198567862,0.001911,-0.000611,0.005276,0.068736,-0.002944,314.026555,25.425025,0.999685,0.992346,0.003540,0.360733,0.000004,0.000020,0.000013,0.000027,-0.000003,60.616007,0.000030,
2401,3088,3.01775847620418,9.64871877901064,0.0163837203062371,0.002021,-0.000441,0.002571,0.083521,0.003163,313.578072,25.575976,0.999558,0.991230,0.003749,0.356079,0.000014,0.000032,0.000011,0.000037,0.000009,65.169329,0.000049,
2116,2248,-3.03514808224255,-8.66556897059059,0.00731714493747404,0.001615,-0.000675,0.003232,0.064384,-0.017518,327.618880,24.305916,0.998890,0.983750,0.005101,0.326321,0.000010,0.000005,0.000001,0.000010,0.000005,11.828564,0.000015,
2371,2983,2.3845864855283,7.36655077510866,0.000823043947036695,0.002062,-0.000511,0.003818,0.081107,0.000166,315.143586,25.171784,0.999525,0.990231,0.003990,0.364618,-0.000001,0.000017,0.000004,0.000018,-0.000002,77.796930,0.000019,
2446,2128,4.18946252163805,-11.2994340022384,0.0225700259503583,0.002350,-0.000078,-0.001918,0.114579,-0.025809,329.335812,22.374597,0.999427,0.978664,0.005811,0.304328,0.000002,0.000017,0.000001,0.000018,0.000002,85.007953,0.000021,
2356,3283,2.00086668156876,13.8757841242425,-0.00361651091861859,0.001892,-0.000600,0.004244,0.072002,-0.008795,310.179139,25.868070,0.999583,0.993044,0.003314,0.373184,0.000012,0.000013,0.000002,0.000015,0.000010,47.256033,0.000025,
2296,3283,0.700100296843992,13.8689157648058,0.0126742997070437,0.002011,-0.000615,0.004358,0.077721,-0.008210,310.356007,25.518299,0.999445,0.992914,0.003334,0.385779,0.000017,0.000033,-0.000005,0.000034,0.000015,-74.443232,0.000051,
2191,2533,-1.45043667803815,-2.43744830697745,-0.0154288996139371,0.001856,-0.000582,0.003933,0.072806,0.002002,322.559132,24.210672,0.999282,0.989000,0.004290,0.408410,0.000012,0.000003,0.000008,0.000016,-0.000002,29.679960,0.000018,
2251,2833,-0.197461454111508,4.0995159535394,-0.0183446754684269,0.002014,-0.000315,-0.000574,0.094401,-0.017268,317.537308,24.622056,0.999458,0.991169,0.003858,0.347370,0.000007,0.000015,0.000001,0.000015,0.000007,85.983749,0.000023,
2101,2398,-3.3858559385834,-5.38678880415683,-0.00283603811720923,0.001699,-0.000551,0.001226,0.074318,-0.021550,325.196328,24.343580,0.999044,0.985461,0.004643,0.384852,0.000000,-0.000011,-0.000002,0.000000,-0.000012,-9.540686,0.000014,
2161,2653,-2.12417400134903,0.178910988353145,-0.0320340567612334,0.001800,-0.000593,0.002901,0.073733,-0.011955,320.576970,24.372856,0.999686,0.991986,0.003678,0.371149,0.000014,0.000014,0.000007,0.000021,0.000008,43.808965,0.000029,
2146,2353,-2.39861265763905,-6.369552635566,0.000748873958116292,0.001985,-0.000432,0.001333,0.086986,0.006696,325.771501,24.170661,0.999206,0.986670,0.004609,0.419775,-0.000004,-0.000014,-0.000013,0.000005,-0.000023,-35.646203,0.000024,
2281,2998,0.425800537682555,7.68622842352534,0.00156512483340521,0.001895,-0.000520,0.003106,0.076690,-0.005163,314.946336,24.963405,0.999418,0.990049,0.003864,0.353942,0.000003,0.000018,-0.000001,0.000018,0.000003,-84.770050,0.000023,
2266,3133,0.0778345502623132,10.6122932144328,0.035949358742414,0.001704,-0.000232,0.004252,0.064320,0.001867,313.039331,25.059679,0.999624,0.995397,0.003079,0.443493,-0.000003,0.000012,-0.000009,0.000016,-0.000007,-65.358654,0.000016,
2221,2938,-0.867370819701964,6.3793493097411,-0.00389075020711971,0.001844,-0.000407,0.005693,0.066570,0.019460,315.986886,24.696239,0.999627,0.993609,0.003308,0.403259,-0.000001,0.000018,0.000002,0.000018,-0.000001,82.804721,0.000020,
2191,2788,-1.49420758438145,3.11848368684026,-0.0299977170588477,0.002271,-0.000223,0.001122,0.100921,-0.010110,318.328729,24.483558,0.998983,0.987087,0.004602,0.377898,-0.000005,0.000005,-0.000004,0.000007,-0.000006,-72.040111,0.000007,
2311,2893,1.09536940730827,5.40798474879617,-0.0183836900292818,0.001676,-0.000818,0.001952,0.070139,-0.018919,316.453391,24.853597,0.999501,0.991736,0.003694,0.313568,-0.000010,0.000004,0.000000,0.000004,-0.000010,88.079237,0.000010,
2176,2518,-1.77400719609443,-2.76508222015396,-0.0173204391984996,0.001990,-0.000505,-0.000133,0.091681,-0.023808,322.852664,24.223295,0.999012,0.986943,0.004697,0.382741,0.000011,0.000005,0.000005,0.000013,0.000002,29.558795,0.000017,
2491,2458,5.10229815260302,-4.06956341558514,-0.00573451461968943,0.002059,-0.000578,0.002863,0.083147,-0.008947,323.833319,23.429954,0.999284,0.985483,0.004598,0.347999,0.000039,-0.000001,0.000020,0.000047,-0.000009,22.324571,0.000050,
2326,2923,1.41711874940541,6.0592105192887,-0.00711926989993117,0.002018,-0.000463,0.001568,0.087215,-0.014822,316.066477,24.848951,0.998816,0.988047,0.004405,0.417090,-0.000010,0.000008,-0.000004,0.000009,-0.000011,-77.519734,0.000012,
2206,2638,-1.14223549477801,-0.147889829430483,-0.0177662066888047,0.001778,-0.000588,0.003331,0.070934,-0.028384,320.793253,24.324021,0.999246,0.987316,0.004531,0.360878,0.000009,0.000011,0.000015,0.000025,-0.000005,47.116958,0.000027,
2116,2428,-3.06420572158646,-4.73110589579177,-0.00378485909010351,0.001824,-0.000628,0.001950,0.077869,-0.017738,324.638911,24.339743,0.999291,0.987352,0.004570,0.356748,-0.000008,-0.000015,-0.000009,-0.000002,-0.000021,-35.179691,0.000025,
2266,2983,0.102718965700557,7.35957513700359,-0.00350022468194311,0.002225,-0.000491,0.001983,0.095760,0.001517,315.190760,24.870612,0.999624,0.993199,0.003522,0.386362,-0.000003,0.000022,0.000000,0.000022,-0.000003,88.873013,0.000024,
2176,2713,-1.80716821726199,1.48539287109691,-0.0244601450283994,0.002072,-0.000453,-0.000482,0.096632,-0.024987,319.637454,24.438124,0.999314,0.990299,0.003933,0.334808,0.000010,0.000006,0.000003,0.000011,0.000005,27.268734,0.000016,
2371,2188,2.53806517039808,-9.98174385368836,0.0132504567345109,0.002221,-0.000582,-0.000884,0.104590,-0.032824,328.183229,22.981817,0.998977,0.982094,0.005302,0.299348,-0.000009,-0.000015,-0.000013,0.000002,-0.000025,-38.346098,0.000028,
2356,3298,1.9979219236448,14.20190098111,-0.0102657449900221,0.002079,-0.000316,0.001126,0.091731,-0.005179,309.896173,25.962621,0.999686,0.993063,0.003414,0.319756,0.000007,-0.000003,0.000002,0.000007,-0.000003,13.606307,0.000007,
2356,2983,2.05815833530825,7.36620177558395,-0.00386041777193213,0.001945,-0.000208,0.001760,0.083200,0.004681,315.102864,25.157245,0.999480,0.989114,0.004058,0.343720,0.000000,0.000016,0.000004,0.000017,-0.000001,76.083137,0.000019,
2416,3298,3.29985925295444,14.2071191341615,-0.0173663697872257,0.002005,-0.000505,0.002239,0.083957,-0.011013,309.864813,26.209115,0.999712,0.992711,0.003416,0.414556,0.000027,-0.000037,0.000000,0.000027,-0.000037,-0.303859,0.000038,
2446,2143,4.18465681767309,-10.969362253201,0.0140851226706786,0.001509,-0.000408,0.001220,0.064317,-0.003321,328.972166,22.407059,0.999210,0.979238,0.005794,0.350049,0.000004,0.000016,-0.000003,0.000016,0.000004,-76.390782,0.000021,
2356,2158,2.21643587830557,-10.6399757442931,0.0251429130722727,0.001947,-0.001051,0.004240,0.073851,-0.016812,328.729518,23.013622,0.999215,0.982765,0.005237,0.277622,-0.000009,-0.000015,-0.000008,-0.000003,-0.000021,-35.585348,0.000026,
2326,2083,1.5745351442012,-12.2826184489346,0.0161180725526719,0.001901,-0.000938,0.003586,0.074355,-0.027782,329.863427,23.063654,0.999462,0.983880,0.005220,0.193870,-0.000011,0.000007,-0.000001,0.000007,-0.000011,-87.458920,0.000011,
2131,2518,-2.75305462462736,-2.76682757021924,-0.0101630147793799,0.001828,-0.001031,0.006188,0.065188,-0.016300,323.054632,24.295304,0.999157,0.986132,0.004658,0.402840,0.000008,0.000000,-0.000003,0.000009,-0.000001,-18.870856,0.000010,
2461,2188,4.50325073816316,-9.98087310168621,-0.00329526480902587,0.002646,-0.000475,-0.000180,0.121539,-0.006591,328.189513,22.477051,0.999632,0.987608,0.004660,0.363916,0.000020,-0.000007,-0.000014,0.000026,-0.000013,-22.502191,0.000026,
2116,2263,-3.03769375392154,-8.33755100105162,0.00342432470466747,0.001809,-0.001138,0.004940,0.068105,-0.036035,327.349051,24.281591,0.998873,0.984466,0.005081,0.337966,0.000011,0.000000,0.000007,0.000015,-0.000004,25.810051,0.000015,
2206,2878,-1.18301938119491,5.07532629072819,-0.0136238195269129,0.001956,-0.000321,0.001630,0.084817,0.002679,316.941209,24.613102,0.999593,0.993971,0.003233,0.371164,0.000003,0.000020,-0.000001,0.000020,0.000003,-86.987814,0.000025,
2341,3223,1.68954454013164,12.5718242084982,0.0300309521198301,0.002064,-0.000452,0.001784,0.088702,-0.006569,311.465470,25.657227,0.999572,0.992755,0.003353,0.361240,0.000016,0.000020,0.000008,0.000027,0.000010,52.214474,0.000038,
2311,2713,1.12869957135764,1.49033622998925,-0.0188748041975941,0.001778,-0.000193,0.001360,0.076997,-0.002357,319.387624,24.411738,0.999562,0.990645,0.003878,0.386689,-0.000012,0.000023,-0.000001,0.000024,-0.000012,-88.887295,0.000024,
2131,2353,-2.7252756627554,-6.36835978893952,-0.00408756201011329,0.002095,0.000012,-0.000766,0.098522,-0.005665,325.802118,24.306041,0.999199,0.986019,0.004716,0.324717,-0.000002,-0.000014,-0.000012,0.000005,-0.000021,-30.984690,0.000022,
2251,3073,-0.237838095679422,9.31085747914135,0.0189232525048624,0.002083,-0.000451,0.003887,0.083061,-0.002641,313.923706,24.957186,0.999529,0.991882,0.003602,0.390021,0.000000,0.000005,-0.000007,0.000010,-0.000005,-55.947482,0.000010,
2326,3178,1.37190449281985,11.5948187840299,0.0246058179253055,0.002118,-0.000368,0.002439,0.088993,-0.007214,312.164103,25.474290,0.999658,0.994173,0.003374,0.368932,0.000012,0.000021,0.000006,0.000024,0.000009,64.995199,0.000034,
2296,3043,0.744804490920821,8.66376531655441,0.015194185091957,0.002272,-0.000479,0.003021,0.094259,0.002726,314.324299,25.105589,0.999364,0.990068,0.003906,0.349465,0.000004,0.000014,0.000001,0.000014,0.000004,85.443657,0.000019,
2281,3178,0.395479986133854,11.5905198745643,0.0328867688651826,0.002101,-0.000547,0.003599,0.084550,-0.007663,312.273400,25.277217,0.999611,0.993183,0.003315,0.358368,0.000013,0.000017,-0.000001,0.000017,0.000013,-81.643945,0.000030,
2311,3133,1.05403122852684,10.6177506393316,0.0244955840742023,0.001699,-0.000241,0.003913,0.064811,0.007462,312.886171,25.336203,0.999489,0.992684,0.003560,0.359606,0.000008,0.000022,-0.000002,0.000022,0.000008,-82.166550,0.000031,
2476,2293,4.80954945654537,-7.68327376271973,0.0117055872026981,0.001695,-0.001230,0.004681,0.059339,-0.027851,326.591551,22.701705,0.999509,0.982111,0.005055,0.452797,-0.000013,-0.000035,0.000005,-0.000012,-0.000036,11.377716,0.000050,
2356,3043,2.04746686071408,8.66828754457897,0.00698854199129073,0.002085,-0.000511,0.005283,0.077194,0.005187,314.207295,25.256061,0.999658,0.992096,0.003554,0.397372,0.000003,0.000017,0.000005,0.000018,0.000002,73.116877,0.000022,
2146,2563,-2.4340934021955,-1.78500386618328,-0.0119021585149426,0.001692,-0.000582,0.001343,0.073555,-0.005494,322.259824,24.286626,0.998900,0.986203,0.004632,0.420630,0.000009,0.000010,0.000006,0.000016,0.000003,47.540398,0.000020,
2191,2548,-1.45320881323846,-2.11098541540259,-0.00836756415270656,0.001376,-0.000840,0.007368,0.039902,0.005456,322.342579,24.221960,0.999479,0.990393,0.004042,0.416054,0.000014,0.000011,0.000010,0.000022,0.000003,40.542303,0.000027,
2341,2788,1.76824428600863,3.12471050493311,-0.0146023263856705,0.002202,-0.000297,0.001379,0.096352,0.011693,318.208171,24.602879,0.999681,0.993588,0.003359,0.393751,0.000001,0.000017,0.000002,0.000017,0.000000,81.926475,0.000020,
2116,2443,-3.0667080613397,-4.40510639386724,-0.00422593298793572,0.001910,-0.000869,0.004617,0.073884,-0.015249,324.389883,24.206756,0.999310,0.988282,0.004532,0.497022,-0.000011,-0.000007,-0.000011,0.000001,-0.000020,-50.444130,0.000022,
2176,2533,-1.77669572490605,-2.43780311276177,-0.0167882336521075,0.001793,-0.000432,0.000077,0.082046,-0.015171,322.604673,24.241371,0.998882,0.987956,0.004446,0.386714,0.000009,0.000007,0.000007,0.000015,0.000001,41.073495,0.000018,
2506,2653,5.38747498998042,0.190739995229862,-0.0218593010638415,0.001819,-0.000841,0.005130,0.063274,0.002541,320.550750,24.196620,0.999555,0.988251,0.004410,0.361423,0.000030,0.000014,-0.000037,0.000060,-0.000016,-39.208686,0.000062,
2326,2773,1.44424337184498,2.7989371437,-0.0209306155834952,0.002191,-0.000127,0.000855,0.097746,0.015957,318.405055,24.640783,0.999721,0.994710,0.003283,0.314626,-0.000010,0.000018,0.000000,0.000018,-0.000010,89.354848,0.000018,
2236,2818,-0.52083494635664,3.77242330665114,-0.0191238789329304,0.002011,0.000211,-0.001240,0.096631,0.013703,317.808192,24.541384,0.999517,0.990637,0.003951,0.420043,0.000002,0.000018,0.000002,0.000018,0.000002,81.599694,0.000022,
2371,2998,2.38227632960409,7.69198691648432,0.00880045680293051,0.001880,-0.000523,0.002209,0.078416,-0.009142,314.962733,25.227985,0.999526,0.991562,0.003761,0.339514,0.000003,0.000016,0.000002,0.000016,0.000003,82.949835,0.000021,
2296,3298,0.696125776583305,14.1948980803991,-0.00282409590312227,0.002075,-0.000735,0.006056,0.074893,-0.009452,309.976604,25.555772,0.999626,0.994634,0.003082,0.375293,0.000019,0.000022,-0.000007,0.000028,0.000013,-49.792216,0.000042,
2356,2998,2.05536594844475,7.69157181905243,0.0031416253966654,0.001695,-0.000681,0.004781,0.060902,-0.007927,314.894318,25.204255,0.999620,0.992510,0.003535,0.322153,0.000003,0.000015,0.000001,0.000015,0.000002,85.033160,0.000019,
2221,2743,-0.834726540187479,2.14023751503821,-0.0252060818056066,0.001894,-0.000771,0.004711,0.071767,-0.010530,318.987540,24.450654,0.999356,0.989389,0.004044,0.376117,-0.000002,0.000009,0.000001,0.000009,-0.000002,86.849265,0.000010,
2251,2848,-0.200251791879143,4.42544653000902,-0.0172024341148358,0.002054,-0.000684,0.002845,0.084966,-0.013290,317.293316,24.622243,0.999484,0.992163,0.003675,0.374243,0.000008,0.000009,0.000002,0.000011,0.000006,51.385326,0.000018,
2161,2668,-2.12452549149122,0.503493648250156,-0.0104539789026035,0.002310,-0.000258,0.000136,0.105754,-0.009463,320.546387,24.367108,0.999734,0.993534,0.003336,0.389402,0.000017,0.000016,0.000008,0.000025,0.000008,43.491763,0.000035,
2116,2278,-3.03961063385006,-8.00924999123343,0.00799572986244357,0.001847,-0.000753,0.002936,0.075916,-0.017328,327.153054,24.337214,0.998827,0.984185,0.005099,0.306600,0.000014,-0.000005,0.000005,0.000015,-0.000007,14.010100,0.000015,
2266,2998,0.100364639397309,7.6846828343677,0.00252659784081288,0.002123,-0.000614,0.001819,0.091511,-0.020153,314.992462,24.894441,0.999496,0.991623,0.003689,0.365531,-0.000001,0.000020,-0.000001,0.000020,-0.000001,-87.259015,0.000023,
2161,2398,-2.07919374421949,-5.38617414975896,-0.0015673204109703,0.002285,-0.000140,0.000389,0.103703,0.004962,324.987149,24.143770,0.999068,0.986473,0.004603,0.427638,-0.000001,-0.000001,-0.000009,0.000008,-0.000010,-45.320031,0.000010,
2281,3013,0.422519705416523,8.01222447444968,-0.00156506507067888,0.001546,-0.000428,0.002770,0.061819,0.003751,314.660166,24.980796,0.999290,0.989354,0.003973,0.372536,0.000005,0.000008,-0.000002,0.000009,0.000004,-64.924752,0.000014,
2221,2953,-0.869603448632855,6.70524406026999,-0.00269703925641807,0.001968,-0.000367,0.003050,0.080777,0.012056,315.766487,24.732533,0.999512,0.992388,0.003558,0.377803,-0.000002,0.000019,0.000002,0.000019,-0.000002,83.187365,0.000021,
2326,3193,1.36981442370429,11.9188318000014,0.0344181713955436,0.002086,-0.000565,0.002338,0.087682,-0.032942,311.999908,25.468505,0.999671,0.994926,0.003173,0.381916,0.000012,0.000022,0.000007,0.000026,0.000009,63.140134,0.000036,
2311,2908,1.09349006531555,5.73324636956618,-0.00774461983797892,0.001716,-0.000537,0.001236,0.074540,-0.016898,316.302437,24.880259,0.999526,0.992928,0.003564,0.320638,-0.000010,0.000006,0.000000,0.000006,-0.000010,-88.310466,0.000010,
2236,3013,-0.55366066365054,8.00842576202363,0.00542945112675852,0.002025,-0.000087,0.001040,0.089893,0.006997,314.829016,24.828567,0.999337,0.989929,0.003954,0.394216,-0.000002,0.000008,0.000002,0.000008,-0.000003,79.650030,0.000009,
2266,3148,0.0750883382788565,10.9383866340059,0.0289358515277058,0.002115,-0.000503,0.003364,0.086079,-0.017546,312.756646,25.125950,0.999245,0.991944,0.003768,0.382159,0.000001,0.000009,-0.000006,0.000012,-0.000002,-62.267526,0.000013,
2431,1993,3.88851023371942,-14.2633868782761,0.0344424743760214,0.001793,-0.000530,0.001571,0.075958,-0.023209,331.543923,22.116815,0.999240,0.976452,0.005839,0.171471,-0.000022,0.000013,-0.000003,0.000013,-0.000023,-85.970217,0.000023,
2341,3238,1.6863204124472,12.8976993017536,0.0247185331406286,0.002080,-0.000170,0.001797,0.089514,0.009753,311.175274,25.705008,0.999543,0.992017,0.003409,0.365064,0.000014,0.000014,0.000005,0.000019,0.000009,43.240032,0.000029,
2176,2728,-1.81028198957469,1.81117689975208,-0.0259896908831365,0.001849,-0.000802,0.003360,0.074380,-0.026692,319.359397,24.373467,0.999404,0.990133,0.004011,0.410445,0.000009,0.000001,0.000001,0.000009,0.000001,6.769650,0.000011,
2491,2473,5.09905845048884,-3.74198510388045,-0.00395819055336233,0.001773,-0.000650,0.003071,0.069200,-0.007556,323.590712,23.478343,0.999395,0.985294,0.004609,0.361206,0.000021,-0.000007,0.000015,0.000027,-0.000013,23.698968,0.000027,
2326,2098,1.57208598673121,-11.9565250621615,0.0193385559617241,0.001927,-0.000864,0.003204,0.076873,-0.024424,329.652686,22.861355,0.999413,0.982709,0.005243,0.437020,-0.000014,0.000000,-0.000006,0.000002,-0.000016,-70.211591,0.000017,
2341,2083,1.90305691208999,-12.2846818263696,0.0262425838985223,0.002027,-0.001119,0.004186,0.077833,-0.032826,329.949498,22.926543,0.999346,0.981549,0.005274,0.232471,0.000002,0.000001,-0.000003,0.000004,-0.000002,-42.980833,0.000005,
2131,2533,-2.75574326084785,-2.43916168149414,-0.0122021756863546,0.001595,-0.000638,0.004489,0.059693,-0.005697,322.789319,24.322508,0.999150,0.985489,0.004674,0.392855,0.000005,-0.000002,0.000005,0.000008,-0.000004,28.296541,0.000008,
2446,2158,4.18191200065547,-10.6414924184878,0.022353779799289,0.001489,-0.001156,0.006032,0.045223,-0.036343,328.780259,22.479160,0.999311,0.980115,0.005456,0.299714,0.000005,-0.000007,-0.000012,0.000013,-0.000014,-32.244791,0.000016,
2146,2368,-2.4009400522148,-6.04171210247043,-0.000315674082628448,0.002260,-0.000764,0.002639,0.095590,-0.015050,325.529350,24.199355,0.999000,0.987338,0.004532,0.378880,-0.000003,-0.000002,-0.000012,0.000009,-0.000014,-45.799593,0.000015,
2356,2173,2.21343392511292,-10.3117303680027,0.018865568571016,0.001914,-0.000323,-0.000107,0.087897,-0.020330,328.449836,22.939184,0.999258,0.982549,0.005258,0.390564,-0.000011,-0.000016,-0.000008,-0.000005,-0.000022,-35.061005,0.000029,
2296,3058,0.7418593482214,8.98887233105778,0.0126481094281417,0.002148,-0.000358,0.001422,0.093987,-0.005181,314.057846,25.073772,0.999550,0.992774,0.003498,0.402526,0.000005,0.000009,0.000003,0.000010,0.000004,61.294836,0.000014,
2371,1993,2.57609984872821,-14.2628327157,0.0384131659366176,0.001576,-0.000835,0.005439,0.052525,-0.003641,331.483177,22.457710,0.998967,0.968593,0.006866,0.276664,-0.000021,-0.000013,-0.000035,0.000018,-0.000052,-48.337507,0.000052,
2311,1993,1.2649159575576,-14.2600110639567,0.0295013786265486,0.002153,-0.000545,-0.000161,0.098903,-0.035735,331.454406,22.911029,0.999173,0.979774,0.006013,0.216700,-0.000040,-0.000030,-0.000049,0.000014,-0.000085,-47.909628,0.000091,
2251,2863,-0.202670373071019,4.75179440696947,-0.018997004083019,0.002291,-0.000346,0.000876,0.102481,0.004082,317.051344,24.629784,0.999548,0.992098,0.003606,0.407056,0.000007,0.000007,-0.000002,0.000009,0.000006,-48.456795,0.000014,
2311,3148,1.0513378710722,10.9430302665548,0.0239108612553878,0.001812,-0.000441,0.003640,0.070878,0.002165,312.641822,25.353999,0.999550,0.992564,0.003626,0.367439,0.000010,0.000016,0.000002,0.000016,0.000010,74.235957,0.000026,
2161,2683,-2.12792279020067,0.830994129576624,-0.0198732356573146,0.002090,-0.000348,0.000789,0.093624,-0.012464,320.212177,24.380995,0.999481,0.991104,0.003737,0.383246,0.000018,0.000021,0.000006,0.000025,0.000013,53.620965,0.000039,
2461,2203,4.49966638956748,-9.65154145512425,-0.00884494511319645,0.002454,-0.000113,-0.001400,0.117522,-0.012829,327.896651,22.526829,0.999155,0.982440,0.005249,0.365193,0.000017,-0.000025,-0.000012,0.000020,-0.000028,-15.031445,0.000029,
2341,2983,1.73265369324664,7.36429702524128,0.00222556706239629,0.002122,-0.000531,0.002885,0.087359,-0.008738,315.159531,25.090671,0.999801,0.995393,0.002934,0.356624,0.000000,0.000011,0.000000,0.000011,-0.000001,87.477678,0.000012,
2356,3058,2.04490122112293,8.99383171058522,0.0133931003444445,0.002009,-0.000711,0.006976,0.067637,0.004351,314.006042,25.317025,0.999693,0.993196,0.003314,0.373605,0.000002,0.000013,0.000006,0.000016,-0.000001,65.921684,0.000018,
2386,3073,2.69371850627212,9.32192037279909,0.00635538736480612,0.001802,-0.000441,0.001276,0.078162,-0.014731,313.722680,25.441131,0.999681,0.991800,0.003602,0.375217,0.000008,0.000025,0.000013,0.000032,0.000001,62.076186,0.000037,
2101,2413,-3.38800936614753,-5.05880664975297,-0.00212384108760943,0.001996,-0.000563,0.003232,0.082126,-0.005487,324.967736,24.378981,0.999203,0.986208,0.004588,0.368206,0.000002,-0.000022,-0.000007,0.000004,-0.000024,-15.666001,0.000025,
2506,2668,5.38510437508048,0.51672683303201,-0.017474769015223,0.002083,-0.000658,0.004046,0.079650,0.006674,320.360047,24.179278,0.999510,0.986409,0.004594,0.444282,0.000022,0.000008,-0.000042,0.000057,-0.000027,-40.048580,0.000057,
2401,3103,3.01550221940085,9.97389211246031,0.0198474335349488,0.002142,-0.000127,-0.000827,0.101528,-0.001330,313.379678,25.598451,0.999592,0.992894,0.003424,0.373728,0.000017,0.000035,0.000013,0.000042,0.000010,61.819153,0.000055,
2311,2728,1.1261617497653,1.81661416663323,-0.0189447945494408,0.002051,-0.000544,0.001909,0.087494,-0.026504,319.153919,24.428238,0.999508,0.989829,0.004001,0.378434,-0.000013,0.000021,0.000002,0.000022,-0.000013,86.257330,0.000022,
2221,2968,-0.872142548296761,7.03093155495297,-0.000246880086649526,0.001842,-0.000249,0.002470,0.076854,0.005916,315.538513,24.761253,0.999371,0.990666,0.003865,0.361234,-0.000002,0.000022,0.000004,0.000023,-0.000003,81.519831,0.000025,
2431,2008,3.88571925945408,-13.9352193198677,0.0374092103397743,0.001723,-0.000546,0.001476,0.073099,-0.015717,331.324806,22.065060,0.999203,0.976081,0.006009,0.284178,-0.000012,0.000020,-0.000007,0.000022,-0.000014,-78.976732,0.000022,
2491,2488,5.09683023438061,-3.41461705808926,0.0006466510905625,0.002150,-0.000524,0.001991,0.090682,-0.005116,323.407243,23.536775,0.999552,0.985765,0.004448,0.365014,0.000031,-0.000010,0.000009,0.000033,-0.000012,11.329079,0.000033,
2116,2458,-3.06910017195063,-4.07619028077815,-0.0068104755952163,0.002027,-0.001095,0.003595,0.082214,-0.030160,324.133781,24.342946,0.999335,0.988713,0.004390,0.350935,-0.000007,-0.000011,-0.000015,0.000006,-0.000024,-41.076358,0.000025,
2476,2308,4.80712828560781,-7.35267400402771,0.0129460022117769,0.001921,-0.000551,0.000733,0.084924,-0.001486,326.383376,22.940905,0.999103,0.977650,0.005831,0.298597,-0.000015,-0.000022,0.000000,-0.000015,-0.000022,-2.690107,0.000037,
2356,3013,2.05278769872129,8.01710537632056,0.00232837319799728,0.001894,-0.000547,0.003046,0.076174,-0.015262,314.657787,25.211702,0.999586,0.992009,0.003613,0.345394,0.000003,0.000010,0.000003,0.000011,0.000002,69.703547,0.000015,
2326,2113,1.5695613713137,-11.6273222510459,0.0247820400130081,0.001804,-0.001114,0.003630,0.069701,-0.034184,329.449006,22.984939,0.999370,0.982317,0.005261,0.340998,-0.000016,-0.000003,-0.000006,-0.000001,-0.000019,-67.448840,0.000022,
2146,2578,-2.43710079791694,-1.45683141290482,-0.0200313906073006,0.001864,-0.000596,0.003969,0.073571,0.013989,321.948720,24.313436,0.999211,0.988441,0.004347,0.422184,0.000007,0.000012,0.000009,0.000019,0.000000,53.238731,0.000022,
2326,2938,1.41443410082999,6.38516205740032,-0.0010346088353117,0.001835,-0.000558,0.003720,0.071355,-0.010395,315.856682,24.911059,0.999015,0.988701,0.004281,0.393247,-0.000006,0.000010,-0.000004,0.000011,-0.000007,-77.100685,0.000011,
2341,2803,1.76494310845171,3.45171867888475,-0.0186512732432789,0.002072,-0.000409,0.001911,0.088455,0.004801,317.921901,24.661306,0.999575,0.992886,0.003510,0.364903,0.000001,0.000010,0.000002,0.000011,0.000001,79.575192,0.000013,
2371,2203,2.53506180470228,-9.6530219510204,0.0123853722153626,0.002254,-0.000516,0.000501,0.101220,-0.004416,327.930423,22.988180,0.998845,0.980006,0.005556,0.365253,-0.000011,-0.000012,-0.000010,-0.000002,-0.000021,-42.629737,0.000026,
2191,2803,-1.49668355504284,3.44468658433108,-0.0230912189294941,0.002079,-0.000350,0.003937,0.083211,0.000519,318.124775,24.533285,0.998972,0.986901,0.004590,0.352981,-0.000007,0.000000,-0.000004,0.000001,-0.000009,-67.606521,0.000010,
2341,3253,1.68240440182885,13.2230150007422,0.0118636090708151,0.001923,-0.000474,0.001093,0.084565,-0.024673,310.816582,25.714304,0.999516,0.992712,0.003352,0.356296,0.000012,0.000016,0.000007,0.000021,0.000006,52.126811,0.000029,
2206,2653,-1.1447224179606,0.179208262345874,-0.0221822963584373,0.002354,-0.000836,0.005913,0.089198,-0.015584,320.531169,24.317825,0.999236,0.987233,0.004605,0.397037,0.000010,0.000015,0.000016,0.000029,-0.000003,49.867164,0.000032,
2446,2173,4.17979716398363,-10.3119537729092,0.0256947276622554,0.001920,-0.000767,0.003652,0.073965,-0.020383,328.594161,22.606444,0.999538,0.984694,0.004793,0.242879,-0.000002,-0.000008,-0.000016,0.000012,-0.000022,-39.381065,0.000022,
2221,2758,-0.836890685169536,2.46691170825751,-0.0235489714159485,0.002217,-0.000546,0.004607,0.087090,0.009826,318.772651,24.480767,0.999521,0.990188,0.003850,0.385574,-0.000003,0.000012,0.000003,0.000013,-0.000003,79.877211,0.000013,
2326,3208,1.36729359845646,12.2446716464598,0.0369263059501463,0.002133,0.000145,0.001665,0.092566,0.010813,311.779365,25.522009,0.999634,0.993628,0.003275,0.405394,0.000013,0.000019,0.000008,0.000024,0.000008,54.818778,0.000033,
2236,3028,-0.555866009890579,8.33377416366714,0.00996738573411449,0.002096,-0.000258,0.000220,0.095744,-0.002397,314.628073,24.858611,0.999484,0.991362,0.003654,0.374969,-0.000002,0.000006,-0.000001,0.000007,-0.000002,-81.668976,0.000007,
2176,2548,-1.77952619794678,-2.11085903157374,-0.0186354398791195,0.001779,-0.001062,0.002651,0.073198,-0.033885,322.337897,24.239655,0.999147,0.988232,0.004326,0.383035,0.000010,0.000014,0.000009,0.000022,0.000003,51.064061,0.000027,
2251,3088,-0.24088047949575,9.63679450520804,0.0156667969433215,0.001977,-0.000467,0.004148,0.077343,0.000400,313.645346,24.993773,0.999545,0.991126,0.003668,0.378821,-0.000002,0.000004,-0.000012,0.000014,-0.000012,-51.389693,0.000015,
2296,3073,0.739621665122971,9.31462453844466,0.020302229725246,0.001825,-0.000293,-0.002317,0.091785,-0.013777,313.874376,25.171909,0.999622,0.994332,0.003333,0.324604,0.000003,0.000011,0.000002,0.000012,0.000003,76.127910,0.000015,
2266,3013,0.0978068950776247,8.00995945831528,0.00634442166034432,0.001993,-0.000430,0.001856,0.085487,-0.004611,314.773566,24.885172,0.999435,0.991170,0.003686,0.415242,0.000002,0.000010,-0.000002,0.000010,0.000001,-75.524176,0.000013,
2326,2788,1.44106059372976,3.12390245665398,-0.02692151274249,0.002150,-0.000383,-0.000397,0.100060,-0.015799,318.114079,24.516722,0.999600,0.994148,0.003405,0.441545,-0.000008,0.000014,0.000001,0.000014,-0.000009,86.771122,0.000014,
2191,2563,-1.45513987940071,-1.78466629752737,-0.00142190581294699,0.001556,-0.000692,0.008060,0.046050,0.011352,322.163986,24.220238,0.999388,0.990112,0.004008,0.438678,0.000018,0.000008,0.000010,0.000024,0.000002,31.630459,0.000029,
2131,2548,-2.75783148596888,-2.11198574819053,-0.013557692296672,0.001858,-0.000307,0.001883,0.079697,-0.003700,322.555284,24.324455,0.998885,0.982774,0.005019,0.399687,0.000006,0.000007,0.000008,0.000014,-0.000001,47.346640,0.000015,
2491,2503,5.09327121160447,-3.08637240747737,-0.0031432978988164,0.002123,-0.000598,0.003496,0.083664,-0.014946,323.124712,23.615994,0.999519,0.986719,0.004467,0.336184,0.000031,-0.000017,0.000007,0.000032,-0.000018,8.467713,0.000032,
2506,2683,5.38093044327559,0.84534880012491,-0.0300425914830384,0.002064,-0.000890,0.003752,0.079815,-0.013961,320.010126,24.293167,0.999609,0.990274,0.003926,0.371543,0.000017,0.000012,-0.000037,0.000051,-0.000023,-42.930390,0.000051,
2356,2188,2.21049529804995,-9.98166949719722,0.0190466037481656,0.001910,-0.000591,0.001209,0.083004,-0.021447,328.203756,23.102412,0.999159,0.983352,0.005141,0.267707,-0.000009,-0.000014,-0.000012,0.000001,-0.000024,-39.386424,0.000027,
2161,2698,-2.13084037234759,1.15787699994882,-0.0225935950539338,0.001973,-0.000362,0.002523,0.082963,0.003581,319.935330,24.379820,0.999373,0.988631,0.004024,0.410805,0.000017,0.000014,0.000003,0.000019,0.000012,33.054070,0.000031,
2101,2428,-3.39078323346632,-4.73118557816148,-0.00145529294769631,0.001841,-0.000896,0.007823,0.061500,-0.022012,324.710739,24.418391,0.999476,0.987370,0.004359,0.315176,-0.000004,-0.000019,-0.000003,-0.000003,-0.000020,-11.719443,0.000025,
2461,2218,4.49715471242992,-9.32409743352952,0.00138355032913751,0.002319,-0.000476,0.000877,0.102618,-0.005469,327.724914,22.560638,0.999496,0.986251,0.004939,0.395503,0.000010,-0.000037,-0.000004,0.000010,-0.000037,-4.596732,0.000038,
2281,3193,0.392857580489931,11.9157181353704,0.0336427880241672,0.002079,-0.000354,0.002487,0.087347,-0.002081,312.036804,25.295152,0.999666,0.993349,0.003257,0.372611,0.000014,0.000021,0.000000,0.000021,0.000014,89.235460,0.000036,
2311,2008,1.26216325210617,-13.9312323868282,0.0329981026213773,0.002131,-0.000826,0.003239,0.086216,-0.027921,331.229881,22.919733,0.999085,0.981158,0.005919,0.251592,-0.000025,-0.000030,-0.000040,0.000013,-0.000067,-43.205332,0.000071,
2161,2413,-2.08281326458038,-5.05805793649996,-0.00202274291171989,0.001591,-0.001115,0.006538,0.052727,-0.006070,324.690181,24.208682,0.998935,0.985980,0.004803,0.363705,0.000003,-0.000004,-0.000013,0.000013,-0.000014,-37.007311,0.000015,
2371,3013,2.37940538042019,8.01783475122998,0.0094906194344162,0.001861,-0.000344,0.002628,0.076189,0.010439,314.720944,25.247438,0.999561,0.991486,0.003728,0.379900,0.000005,0.000011,0.000005,0.000013,0.000002,60.697994,0.000017,
2191,2818,-1.49912208724049,3.77002932926638,-0.0216822721704943,0.001970,-0.000630,0.001960,0.084339,-0.008181,317.894218,24.484822,0.998658,0.985105,0.004780,0.407095,-0.000003,0.000013,-0.000001,0.000013,-0.000003,-84.982488,0.000013,
2266,3163,0.0725201337872292,11.2644370924467,0.0312541983682877,0.001981,-0.000187,0.001817,0.085183,-0.003877,312.529166,25.216176,0.999328,0.990736,0.003894,0.330013,0.000004,0.000015,-0.000003,0.000016,0.000004,-74.617780,0.000021,
2251,2878,-0.205363047591888,5.07795726053783,-0.0156337000223061,0.002117,-0.000490,0.002109,0.090327,-0.011521,316.822998,24.695670,0.999584,0.990840,0.003743,0.348637,0.000003,0.000010,-0.000004,0.000011,0.000001,-64.883126,0.000014,
2491,2518,5.08974291883716,-2.75877258785339,-0.0102490672368276,0.002275,-0.000594,0.003518,0.090537,-0.016358,322.828665,23.603111,0.999526,0.987042,0.004327,0.407718,0.000027,-0.000017,0.000011,0.000030,-0.000020,12.956437,0.000030,
2401,3118,3.01297254774047,10.2992784856187,0.0306432842747881,0.001896,-0.000272,0.001879,0.080374,0.009639,313.203224,25.674246,0.999846,0.995845,0.002802,0.353131,0.000023,0.000034,0.000013,0.000043,0.000015,56.504249,0.000060,
2281,3028,0.420759338756518,8.3377824790736,0.00386711047315202,0.001944,-0.000119,0.000412,0.088120,0.010087,314.486843,25.021563,0.999110,0.988391,0.004117,0.364946,0.000006,0.000009,-0.000003,0.000011,0.000004,-57.194470,0.000016,
2311,2923,1.09104081169084,6.05913127668384,-0.015234763889282,0.002267,-0.000044,-0.003159,0.115085,-0.009093,316.035700,24.832062,0.999250,0.990888,0.003861,0.408699,-0.000008,0.000008,-0.000002,0.000008,-0.000008,-83.884837,0.000009,
2506,2698,5.37851124082293,1.17154390520789,-0.0223525858685889,0.001977,-0.000741,0.002375,0.081182,-0.023221,319.831775,24.344580,0.999560,0.991359,0.003767,0.372146,0.000012,0.000042,-0.000037,0.000067,-0.000012,-56.079110,0.000071,
2386,2023,2.89807511653767,-13.6033106534151,0.027946160771819,0.002050,-0.001057,0.003828,0.079686,-0.043441,330.951479,22.451492,0.998673,0.971231,0.006593,0.230548,0.000001,-0.000008,-0.000029,0.000026,-0.000033,-40.082812,0.000034,
2176,2563,-1.78203008534504,-1.78324020240397,-0.0191465451997033,0.001832,-0.000892,0.002708,0.075527,-0.022160,322.092787,24.286134,0.999017,0.987280,0.004478,0.361410,0.000014,0.000010,0.000010,0.000022,0.000002,39.767341,0.000026,
2326,2953,1.41158671729783,6.71200498678046,-0.0016697838334494,0.001835,-0.000366,0.003692,0.071526,-0.001770,315.606196,25.007424,0.999058,0.988125,0.004530,0.339166,-0.000006,0.000009,-0.000003,0.000009,-0.000006,-79.766119,0.000010,
2371,2008,2.57262648016573,-13.9311690621764,0.0256573589010145,0.001917,-0.000992,0.004734,0.070547,-0.009184,331.152985,22.558016,0.998823,0.974124,0.006205,0.216025,-0.000012,-0.000017,-0.000033,0.000019,-0.000048,-42.660923,0.000048,
2326,2128,1.56731292508502,-11.298138348309,0.0275829868393203,0.001793,-0.000525,-0.000680,0.084271,-0.050411,329.245105,23.089250,0.999338,0.984303,0.005054,0.257521,-0.000014,0.000002,-0.000006,0.000004,-0.000016,-71.134327,0.000017,
2296,3088,0.736722073212913,9.63931000303085,0.0212798824471179,0.001954,-0.000578,0.002395,0.081646,-0.023397,313.627594,25.133373,0.999620,0.993581,0.003412,0.382581,0.000002,0.000010,-0.000006,0.000013,-0.000002,-61.574721,0.000015,
2371,2218,2.53261961718481,-9.32405260012283,0.0147310033810868,0.002407,-0.000126,-0.000604,0.112325,-0.003593,327.718675,23.083407,0.998615,0.975654,0.006131,0.314216,-0.000008,-0.000005,-0.000003,-0.000004,-0.000010,-61.447559,0.000014,
2146,2383,-2.40323550045836,-5.71434708337216,0.00359191734338538,0.002161,-0.000626,0.002812,0.090577,-0.003675,325.314919,24.204621,0.998733,0.986723,0.004625,0.394458,-0.000006,-0.000005,-0.000013,0.000007,-0.000019,-46.249928,0.000019,
2341,2098,1.89974476343263,-11.9554311660282,0.0210278755279774,0.002000,-0.001144,0.005327,0.072650,-0.027300,329.659358,22.917264,0.999490,0.982982,0.005056,0.287260,-0.000001,-0.000007,-0.000008,0.000004,-0.000012,-34.949340,0.000012,
2146,2593,-2.43995759514252,-1.12968450021513,-0.0228412181608064,0.001509,-0.000205,0.001718,0.064168,0.020661,321.672972,24.310961,0.999269,0.988463,0.004394,0.439957,0.000007,0.000016,0.000009,0.000022,0.000001,57.458974,0.000026,
2431,2023,3.88235828347972,-13.6047043765389,0.0331129758513953,0.001893,-0.000920,0.003858,0.071983,-0.022260,331.045913,22.164431,0.999087,0.976643,0.005860,0.232037,-0.000002,0.000025,-0.000010,0.000029,-0.000006,-71.215968,0.000030,
2341,2998,1.7296338018811,7.69008700171704,0.00419940244120198,0.001860,-0.000581,0.003983,0.071466,-0.007011,314.915086,25.127337,0.999888,0.997357,0.002706,0.357654,0.000001,0.000010,-0.000002,0.000010,0.000000,-75.134461,0.000012,
2206,2668,-1.14754446659306,0.5069194894144,-0.0232399871113671,0.001756,0.000010,-0.000278,0.081621,0.001468,320.270857,24.396859,0.999568,0.991986,0.003722,0.352334,0.000011,0.000016,0.000012,0.000026,0.000001,51.037613,0.000031,
2326,3223,1.36396106046103,12.5699071752381,0.0351431959955448,0.001845,-0.000166,0.002984,0.074586,-0.003469,311.500574,25.556694,0.999591,0.992757,0.003251,0.389197,0.000013,0.000019,0.000008,0.000024,0.000007,55.137766,0.000033,
2161,2713,-2.133290175972,1.48508139971346,-0.0233897467664406,0.002073,-0.000474,0.002369,0.088003,-0.003625,319.690018,24.451767,0.999426,0.990094,0.003973,0.341954,0.000017,0.000007,0.000004,0.000018,0.000005,18.717330,0.000025,
2476,2323,4.80368231927632,-7.02445487000887,0.00700478368992208,0.002214,-0.000591,0.002988,0.089819,0.002919,326.095961,22.918086,0.998953,0.979802,0.005556,0.384696,-0.000012,0.000008,0.000003,0.000008,-0.000012,80.989046,0.000013,
2206,2893,-1.18660597001827,5.40172531573053,-0.0221198113586638,0.001713,-0.000728,0.003904,0.066258,-0.009413,316.607396,24.614049,0.999824,0.995227,0.003034,0.374571,0.000000,0.000019,0.000003,0.000020,0.000000,80.366256,0.000023,
2371,3103,2.36279796855463,9.97187732172782,0.0190161955357553,0.001773,-0.000463,0.002722,0.071700,-0.014730,313.323743,25.527359,0.999424,0.991068,0.003815,0.315438,0.000017,0.000026,0.000006,0.000029,0.000014,62.809452,0.000044,
2311,3163,1.04925646088424,11.267805376899,0.0308284877190204,0.001985,-0.000425,0.003497,0.079351,0.002038,312.462817,25.369065,0.999656,0.993314,0.003434,0.383253,0.000012,0.000018,0.000003,0.000019,0.000011,66.021292,0.000030,
2341,3268,1.67868083466643,13.5488456390518,0.00347904553137823,0.001976,-0.000530,0.005051,0.073251,0.001699,310.488279,25.740608,0.999508,0.993446,0.003221,0.391659,0.000012,0.000015,0.000011,0.000024,0.000002,49.112618,0.000029,
2341,2818,1.76196029712189,3.77777439074165,-0.0175503415685512,0.002043,-0.000588,0.004797,0.076954,-0.009770,317.675470,24.684021,0.999366,0.989156,0.003954,0.364369,-0.000002,0.000019,0.000002,0.000019,-0.000002,85.519051,0.000021,
2491,2533,5.08651741163333,-2.43085934968246,-0.0104191503518791,0.002181,-0.000565,0.003894,0.084838,-0.000792,322.577516,23.669884,0.999707,0.989937,0.003831,0.416440,0.000033,-0.000012,0.000009,0.000035,-0.000014,10.253007,0.000035,
2506,2713,5.37571024496425,1.49922106689941,-0.0212797254860675,0.002068,-0.000527,0.000897,0.091188,-0.018052,319.605884,24.467625,0.999585,0.991039,0.003796,0.315607,0.000002,0.000031,-0.000025,0.000045,-0.000013,-60.290493,0.000046,
2386,3178,2.67538020290221,11.600096939576,0.0262356825783741,0.002116,-0.000104,0.000118,0.096959,0.001798,312.187823,25.756060,0.999509,0.992460,0.003485,0.372086,0.000024,0.000019,0.000013,0.000035,0.000009,39.756942,0.000046,
2386,3088,2.69124381117333,9.64685147850811,0.0133578640944734,0.001726,-0.000617,0.001915,0.072273,-0.026047,313.530257,25.467417,0.999440,0.990745,0.003832,0.379659,0.000015,0.000026,0.000007,0.000030,0.000011,64.059440,0.000043,
2446,2188,4.17673994520855,-9.98354702145868,0.0263835395413707,0.001928,-0.000978,0.005081,0.068953,-0.000961,328.352704,22.603921,0.999637,0.986408,0.004630,0.319725,0.000005,-0.000007,-0.000015,0.000015,-0.000017,-34.383500,0.000019,
2326,2803,1.43780506910202,3.45074857684124,-0.0208752283111835,0.001462,-0.000374,0.002625,0.058038,-0.000137,317.877981,24.616029,0.999401,0.993674,0.003585,0.391905,-0.000007,0.000006,0.000002,0.000007,-0.000008,83.758242,0.000008,
2386,2263,2.84865801991402,-8.33634661834305,-0.00858367738965171,0.001656,-0.000673,0.002222,0.067656,-0.022559,326.762371,23.121011,0.999159,0.983370,0.005096,0.322481,-0.000002,-0.000007,-0.000002,-0.000001,-0.000008,-17.111855,0.000010,
2221,2983,-0.8743817663117,7.35636873262943,0.00205566905111709,0.002037,-0.000380,0.002025,0.087228,-0.001270,315.323616,24.770736,0.999417,0.991726,0.003714,0.362682,-0.000002,0.000023,0.000004,0.000023,-0.000002,81.776623,0.000026,
2116,2473,-3.07179205072627,-3.74789369890841,-0.0123097266446734,0.001962,-0.000600,0.001585,0.085323,-0.018887,323.848373,24.374850,0.999346,0.989159,0.004244,0.335029,0.000001,-0.000001,-0.000008,0.000009,-0.000008,-41.586770,0.000010,
2461,2233,4.49348154092936,-8.9953339483706,0.00993081028303777,0.001218,-0.000646,0.003737,0.041436,-0.003995,327.492071,22.707594,0.999256,0.981914,0.005282,0.306820,0.000009,-0.000033,0.000001,0.000009,-0.000033,0.942407,0.000035,
2356,3073,2.0427443758957,9.31920435616536,0.0165727796662622,0.002310,-0.000670,0.005064,0.088252,-0.005762,313.808039,25.353768,0.999660,0.993251,0.003303,0.364822,0.000006,0.000019,0.000006,0.000021,0.000004,69.367950,0.000027,
2251,2893,-0.207763705042193,5.40302597141878,-0.00846294423848803,0.001957,-0.000821,0.003309,0.078966,-0.012965,316.627632,24.678276,0.999667,0.991727,0.003589,0.387410,-0.000001,0.000010,0.000000,0.000010,-0.000001,-88.858020,0.000011,
2431,2038,3.87930349542482,-13.2759837846119,0.0376478990658597,0.001626,-0.000905,0.006079,0.051602,-0.006299,330.821752,22.183041,0.999024,0.976729,0.005875,0.282883,0.000001,0.000023,-0.000010,0.000027,-0.000002,-69.347817,0.000030,
2311,2938,1.08804952434528,6.38531272317995,-0.0143094862098678,0.002009,0.000088,-0.002765,0.101985,0.008912,315.785383,24.865758,0.999104,0.989373,0.004108,0.424551,-0.000004,0.000009,-0.000001,0.000009,-0.000004,-85.121704,0.000009,
2161,2428,-2.08471223635257,-4.73001256602434,-0.00684366680195581,0.002218,-0.000884,0.002425,0.094193,-0.026171,324.449053,24.239725,0.999199,0.986552,0.004618,0.323925,0.000003,-0.000009,-0.000008,0.000007,-0.000013,-26.704036,0.000013,
2176,2578,-1.78439075608771,-1.45647885768003,-0.0211785694527293,0.002013,-0.000492,0.001096,0.088978,-0.022172,321.846519,24.257265,0.999211,0.988500,0.004207,0.403361,0.000010,0.000012,0.000014,0.000025,-0.000003,46.367066,0.000027,
2251,3103,-0.242795719934147,9.96187387399527,0.0238901517351451,0.002083,-0.000350,0.003118,0.085640,-0.001607,313.477337,25.032835,0.999574,0.992349,0.003550,0.359913,-0.000003,0.000009,-0.000011,0.000015,-0.000009,-59.837482,0.000015,
2131,2563,-2.760472778477,-1.78325582924742,-0.024930884315097,0.002299,-0.000288,0.000294,0.104780,-0.002737,322.242119,24.386685,0.999137,0.987216,0.004543,0.345004,0.000010,0.000009,0.000008,0.000017,0.000002,43.962545,0.000021,
2311,2743,1.12389613010249,2.14308368853801,-0.0152197622766721,0.002215,-0.000390,0.001159,0.097708,-0.011655,318.951214,24.458133,0.999559,0.990645,0.003891,0.395696,-0.000011,0.000023,0.000003,0.000023,-0.000011,85.707167,0.000023,
2266,3178,0.0700015025570551,11.5889766375505,0.03284339277144,0.002185,-0.000357,0.003559,0.088706,-0.015012,312.300799,25.191080,0.999511,0.992019,0.003518,0.368176,0.000007,0.000017,-0.000002,0.000018,0.000007,-78.034357,0.000025,
2236,3043,-0.558252996256563,8.65948290206542,0.0153702951668606,0.002098,-0.000297,0.001844,0.090586,0.000824,314.423050,24.918384,0.999654,0.991563,0.003583,0.338472,0.000000,0.000002,-0.000003,0.000004,-0.000002,-50.897275,0.000004,
2401,3133,3.00942977794697,10.6253189418018,0.0226481836714925,0.002072,-0.000347,0.003884,0.081173,0.011416,312.891007,25.706558,0.999792,0.994974,0.002995,0.367161,0.000028,0.000032,0.000013,0.000043,0.000017,50.163851,0.000062,
2236,2833,-0.523544992211338,4.09862932099155,-0.0138185539086635,0.002021,-0.000736,0.005125,0.076164,-0.004857,317.588029,24.616298,0.999489,0.991225,0.003746,0.347261,0.000005,0.000019,0.000006,0.000021,0.000003,69.897259,0.000026,
2371,2233,2.52906587202899,-8.99554685713548,0.0168622981253179,0.002042,-0.000956,0.005652,0.073116,-0.010768,327.455005,23.147189,0.998768,0.979794,0.005781,0.286840,-0.000008,-0.000010,0.000001,-0.000008,-0.000011,23.318996,0.000019,
2281,3043,0.418203438778662,8.66322477489329,0.00898759453423281,0.001935,-0.000478,0.003038,0.078796,0.000130,314.275410,25.069313,0.999391,0.990899,0.003769,0.334066,0.000004,0.000012,-0.000002,0.000012,0.000003,-75.863916,0.000017,
2176,2743,-1.81201722914665,2.13734963093321,-0.0136484584568848,0.001883,-0.000711,0.004445,0.072652,-0.013676,319.217012,24.444764,0.999484,0.990424,0.004102,0.364345,0.000009,0.000001,0.000001,0.000009,0.000001,4.466870,0.000011,
2221,2773,-0.839383195391495,2.79297418215139,-0.0211224895827513,0.001877,-0.000055,0.000517,0.084691,0.008110,318.546843,24.487030,0.999437,0.990056,0.003960,0.396260,-0.000003,0.000009,0.000000,0.000009,-0.000003,88.798053,0.000010,
2506,2728,5.37288108309109,1.82554358228948,-0.0174123589014812,0.002021,-0.000499,0.001005,0.088647,-0.007060,319.391357,24.487225,0.999500,0.989875,0.003945,0.368399,-0.000008,0.000016,-0.000016,0.000024,-0.000016,-62.826619,0.000025,
2146,2608,-2.4422452009077,-0.80202368665995,-0.0245097824316076,0.001834,-0.000519,0.002178,0.077634,-0.000986,321.429283,24.398606,0.999438,0.990212,0.004135,0.339202,0.000010,0.000017,0.000011,0.000025,0.000001,54.251324,0.000030,
2191,2578,-1.45759547388479,-1.457539500949,-0.00873153780042912,0.001957,-0.000690,0.005321,0.073080,0.004421,321.887169,24.184699,0.999500,0.991228,0.003748,0.482726,0.000015,0.000010,0.000014,0.000026,-0.000002,40.037025,0.000029,
2341,3013,1.72718629282864,8.01569052486899,0.00582781072660055,0.001881,-0.000282,0.000953,0.083075,-0.013635,314.695307,25.156595,0.999646,0.993355,0.003374,0.357520,0.000001,0.000007,-0.000001,0.000008,0.000000,-78.045434,0.000009,
2191,2833,-1.501282613841,4.09620858875849,-0.0196652192115039,0.002218,-0.000483,0.001695,0.096618,-0.010319,317.679310,24.515372,0.999192,0.990003,0.004012,0.388636,0.000001,0.000014,0.000002,0.000014,0.000000,80.931574,0.000016,
2326,2968,1.4089588076591,7.03894238845321,-0.00430742538981121,0.002082,-0.000178,0.002015,0.088778,0.005579,315.355916,25.104162,0.999701,0.995188,0.002993,0.283587,-0.000006,0.000013,0.000000,0.000013,-0.000006,-89.651848,0.000013,
2311,3178,1.04649050565948,11.5931044456494,0.0318383049562954,0.001984,-0.000491,0.004250,0.076667,-0.006029,312.222916,25.408277,0.999715,0.993460,0.003393,0.366972,0.000013,0.000020,0.000003,0.000021,0.000012,68.834209,0.000033,
2281,3208,0.390503788332605,12.2409226535094,0.0414589066826352,0.001710,-0.000230,-0.000004,0.078802,0.002044,311.847910,25.359706,0.999803,0.995184,0.002885,0.338461,0.000016,0.000020,0.000002,0.000021,0.000014,65.005734,0.000035,
2446,2203,4.17277954611631,-9.65389465501353,0.0179806451012041,0.001495,-0.000186,0.003069,0.056929,0.020813,328.027898,22.622938,0.999673,0.985539,0.004700,0.378025,0.000001,-0.000022,-0.000011,0.000006,-0.000027,-22.380541,0.000028,
2326,2143,1.56372217618437,-10.9674365086803,0.0170691005987464,0.001988,-0.000318,0.002098,0.083698,-0.002226,328.914410,23.129888,0.999305,0.984707,0.005118,0.302975,-0.000015,-0.000002,-0.000007,0.000001,-0.000018,-67.367638,0.000020,
2386,2038,2.89496943212007,-13.272972287369,0.0211052767159572,0.002113,-0.000338,0.000525,0.094673,-0.016095,330.667588,22.478311,0.998912,0.974878,0.006160,0.278313,0.000003,-0.000018,-0.000026,0.000021,-0.000035,-34.406665,0.000036,
2371,2023,2.57040574444497,-13.6030796390696,0.0321100988576291,0.001920,-0.000734,0.003126,0.076466,-0.019853,330.971757,22.561951,0.998881,0.974167,0.006281,0.245722,-0.000005,-0.000015,-0.000027,0.000017,-0.000037,-39.747415,0.000037,
2146,2398,-2.40618841795954,-5.38654855865965,0.0034080703223367,0.001936,-0.000901,0.006845,0.067946,-0.002981,325.048708,24.225614,0.998797,0.985818,0.004820,0.383854,-0.000006,-0.000003,-0.000012,0.000008,-0.000017,-47.970960,0.000017,
2251,2908,-0.209276283499552,5.72918927970718,0.00237321211398012,0.001950,-0.000039,-0.002135,0.096802,0.011520,316.491251,24.765167,0.999773,0.993124,0.003323,0.347790,-0.000001,0.000007,-0.000002,0.000008,-0.000001,-77.259289,0.000008,
2491,2548,5.08315215382234,-2.10301990969693,-0.0130494072274132,0.002008,-0.000581,0.002532,0.082091,-0.014851,322.308898,23.742517,0.999710,0.989445,0.004004,0.389775,0.000034,-0.000019,0.000001,0.000034,-0.000019,1.599715,0.000034,
2506,2743,5.36814873700155,2.15416981046947,-0.0277672332035763,0.001682,-0.000879,0.005740,0.054636,0.001027,319.025128,24.612407,0.999742,0.990201,0.003804,0.312646,-0.000018,0.000035,-0.000020,0.000041,-0.000025,-71.761219,0.000041,
2461,2248,4.49177780769968,-8.66749661853203,0.0147285604210765,0.001994,-0.000340,0.001881,0.084063,-0.007447,327.332535,22.739924,0.999081,0.979683,0.005340,0.327371,0.000005,-0.000036,-0.000004,0.000005,-0.000036,-4.808730,0.000039,
2341,2113,1.89729429879874,-11.62688400771,0.0297537865675963,0.001779,-0.000749,0.006574,0.058319,0.011249,329.475852,22.968610,0.999467,0.983460,0.005024,0.313970,-0.000004,-0.000009,-0.000008,0.000002,-0.000014,-35.458685,0.000016,
2311,2758,1.12038417238987,2.46975742263524,-0.0160786437892284,0.001706,-0.000525,0.003464,0.066444,0.010323,318.668592,24.467646,0.999606,0.992045,0.003769,0.440594,-0.000006,0.000028,0.000006,0.000029,-0.000007,79.581611,0.000030,
2341,2833,1.75934516374368,4.10456703350488,-0.0168534173267858,0.002072,-0.000618,0.003159,0.084025,-0.010260,317.443702,24.761549,0.999669,0.991147,0.003723,0.322877,-0.000003,0.000027,-0.000001,0.000027,-0.000003,-88.528999,0.000029,
2281,3058,0.415731059111209,8.98808240958336,0.0109166013110666,0.002143,-0.000757,0.004313,0.083974,-0.013691,314.052009,25.049642,0.999509,0.993168,0.003472,0.366652,0.000006,0.000006,0.000001,0.000007,0.000005,54.688337,0.000012,
2206,2683,-1.15001080651718,0.833243285406532,-0.0231706955310642,0.001975,-0.000282,0.001339,0.086492,0.000341,320.033062,24.380726,0.999691,0.993132,0.003523,0.384576,0.000009,0.000024,0.000008,0.000027,0.000006,65.457276,0.000035,
2326,2818,1.43566739797486,3.77663938386665,-0.0150478882623588,0.001716,-0.000490,0.003134,0.067872,-0.010979,317.692443,24.655683,0.999530,0.991679,0.003717,0.375691,-0.000009,0.000015,0.000001,0.000015,-0.000009,87.060840,0.000015,
2266,3193,0.0668641515802584,11.9148728081348,0.0311703981311098,0.001907,-0.000216,0.003865,0.074999,0.007480,312.026989,25.242071,0.999587,0.991926,0.003458,0.363844,0.000008,0.000020,-0.000001,0.000020,0.000008,-85.581674,0.000029,
2221,2788,-0.84117800340854,3.1184808821512,-0.0147712855884379,0.002152,-0.000210,-0.000852,0.101649,-0.013778,318.373379,24.496786,0.999459,0.991048,0.003920,0.383495,-0.000002,0.000012,0.000001,0.000012,-0.000002,85.106027,0.000013,
2386,3193,2.67319079233212,11.9250202008152,0.0336527819677599,0.002392,-0.000206,0.001990,0.102919,0.003239,312.010144,25.793786,0.999459,0.992788,0.003350,0.377672,0.000024,0.000017,0.000013,0.000034,0.000007,37.160644,0.000044,
2386,2053,2.8931969801224,-12.944081361693,0.031346378517128,0.002158,0.000352,-0.002874,0.109110,0.004628,330.525540,22.576771,0.999229,0.978374,0.005839,0.246864,0.000004,-0.000020,-0.000016,0.000012,-0.000028,-26.620410,0.000028,
2401,2098,3.21039183647401,-11.9562628010056,0.0179493433834068,0.001530,-0.000681,0.000386,0.068358,-0.036989,329.663501,22.557007,0.998890,0.974044,0.006336,0.274251,-0.000009,0.000011,-0.000011,0.000017,-0.000014,-65.649236,0.000018,
2341,3283,1.67556792494947,13.8743462689363,-0.00614634033178163,0.002216,-0.000361,0.002220,0.094235,-0.001533,310.182095,25.764045,0.999645,0.994013,0.003059,0.400367,0.000012,0.000012,0.000004,0.000016,0.000008,45.643565,0.000024,
2206,2908,-1.18790773959734,5.72621942864862,-0.00754844133444976,0.001869,-0.000578,0.002107,0.079200,-0.012139,316.498339,24.601633,0.999665,0.993170,0.003470,0.400232,0.000001,0.000013,0.000001,0.000013,0.000000,84.871890,0.000016,
2116,2488,-3.07412223366836,-3.42158437136221,-0.0105040203715703,0.001970,-0.000760,0.002487,0.082946,-0.034645,323.619256,24.324215,0.999249,0.988149,0.004372,0.374673,0.000003,0.000002,-0.000009,0.000011,-0.000006,-44.468898,0.000011,
2296,3103,0.734362284327805,9.96508218325191,0.0234437736623363,0.002118,-0.000505,0.001395,0.092599,-0.024352,313.411134,25.197520,0.999424,0.991568,0.003814,0.346258,0.000003,0.000015,-0.000006,0.000018,0.000000,-68.627073,0.000020,
2311,2023,1.2589323248058,-13.6025489059475,0.0324216032859113,0.001710,-0.000884,0.003668,0.065482,-0.036550,330.963601,22.895276,0.998987,0.982366,0.005519,0.303421,-0.000022,-0.000031,-0.000026,0.000000,-0.000053,-40.057327,0.000061,
2431,2053,3.87647930685986,-12.9463568785231,0.0323124616654695,0.002204,-0.001443,0.005906,0.078486,-0.030061,330.562645,22.218554,0.998900,0.976228,0.005967,0.276935,0.000002,0.000012,0.000000,0.000012,0.000002,-88.002824,0.000016,
2371,3028,2.37630295334235,8.34414859223817,0.00694356606925339,0.001812,-0.000182,0.002373,0.074912,0.011074,314.452804,25.311279,0.999489,0.990949,0.003859,0.357053,0.000007,0.000013,0.000005,0.000016,0.000005,60.846689,0.000022,
2446,2218,4.16960929271725,-9.32488680805137,0.009183498375819,0.001862,-0.000631,0.000714,0.082289,-0.030309,327.737834,22.658119,0.999461,0.984250,0.004971,0.346474,-0.000002,-0.000029,-0.000001,-0.000002,-0.000029,-2.942832,0.000035,
2401,3148,3.00737955267227,10.949529038739,0.0317313146123865,0.002086,-0.000482,0.002159,0.087963,-0.012916,312.728818,25.704776,0.999789,0.995144,0.002923,0.388724,0.000027,0.000020,0.000013,0.000038,0.000010,38.017362,0.000050,
2326,3238,1.36048996949398,12.8962883714965,0.026693489337049,0.001909,-0.000252,0.004104,0.073682,0.005528,311.182217,25.640181,0.999492,0.992545,0.003363,0.347581,0.000012,0.000012,0.000005,0.000017,0.000007,47.328889,0.000025,
2356,2203,2.20627427380633,-9.6525184282204,0.0093634975875716,0.001559,-0.001004,0.004966,0.053601,-0.020135,327.851624,23.082321,0.999110,0.983079,0.005155,0.331010,-0.000012,-0.000008,-0.000010,0.000000,-0.000021,-50.108609,0.000024,
2251,3118,-0.245492262047758,10.2873916660981,0.0244026333954253,0.001919,-0.000258,0.001492,0.083476,-0.000120,313.234092,25.063777,0.999542,0.991578,0.003728,0.352882,-0.000004,0.000011,-0.000010,0.000016,-0.000009,-64.313153,0.000016,
2476,2338,4.80029392475262,-6.69537966929433,0.00407405140117589,0.001952,-0.000589,0.000747,0.086282,-0.021565,325.824736,23.038118,0.998774,0.981373,0.005494,0.298786,-0.000019,0.000000,0.000005,0.000002,-0.000020,75.506806,0.000023,
2161,2443,-2.08735532757388,-4.40324500420061,-0.00371417877744307,0.001960,-0.000885,0.004219,0.076855,-0.016793,324.215812,24.204610,0.999242,0.987143,0.004594,0.379883,0.000001,-0.000010,-0.000005,0.000003,-0.000012,-21.991447,0.000012,
2491,2563,5.07936375142808,-1.77516265940058,-0.0156227133501261,0.001725,-0.000688,0.004966,0.059748,-0.016931,322.020949,23.810550,0.999534,0.989659,0.004259,0.379367,0.000034,-0.000013,-0.000001,0.000034,-0.000013,-0.778131,0.000035,
2311,3193,1.04422648962195,11.9183354750094,0.0323168953204913,0.002248,-0.000286,0.001305,0.098966,-0.012032,312.003472,25.439658,0.999683,0.993653,0.003316,0.360418,0.000014,0.000022,0.000004,0.000024,0.000012,69.690139,0.000037,
2371,3118,2.36003642441248,10.2971650060106,0.019043598754763,0.002086,-0.000725,0.005296,0.076903,-0.004269,313.083598,25.527300,0.999614,0.992243,0.003605,0.366096,0.000020,0.000029,0.000006,0.000031,0.000017,63.737697,0.000049,
2341,3298,1.67242452397747,14.1996062135548,-0.00805446642908692,0.002026,-0.000354,0.001865,0.086781,0.001146,309.912161,25.805894,0.999680,0.993475,0.003209,0.395969,0.000007,0.000001,0.000005,0.000010,-0.000002,27.576069,0.000011,
2266,3028,0.0952695657781852,8.33590677314859,0.0088297471926353,0.001901,-0.000401,0.000756,0.084940,-0.004286,314.548671,24.947527,0.999349,0.990384,0.003818,0.377662,0.000002,0.000009,-0.000004,0.000011,0.000001,-65.935245,0.000013,
2326,2983,1.40644450149928,7.36334303626199,4.46984610675827E-05,0.002069,-0.000561,0.002480,0.086447,-0.012322,315.145829,25.044979,0.999917,0.997264,0.002519,0.358776,-0.000002,0.000013,0.000001,0.000013,-0.000002,84.724931,0.000014,
2386,2278,2.84686363249363,-8.00948968024005,0.0105053907789738,0.001498,-0.001281,0.005342,0.049004,-0.038170,326.660836,23.230932,0.999646,0.991467,0.003831,0.241658,-0.000006,-0.000006,0.000001,-0.000005,-0.000007,37.924907,0.000012,
2131,2578,-2.76359197252246,-1.45528269790087,-0.0311692794344367,0.002148,-0.000387,0.002109,0.092439,0.029576,321.934508,24.399626,0.999533,0.992049,0.003991,0.371144,0.000007,0.000011,0.000011,0.000020,-0.000002,49.744280,0.000022,
2506,2758,5.36508719529781,2.48011574891909,-0.0300617543366002,0.001975,-0.001019,0.006481,0.065145,-0.007276,318.772308,24.576934,0.999735,0.990867,0.003702,0.401209,-0.000017,0.000029,-0.000022,0.000038,-0.000025,-68.259131,0.000038,
2431,2068,3.87282835992982,-12.6161238044595,0.0271315617789014,0.001860,-0.001033,0.004727,0.067258,-0.016769,330.266052,22.280445,0.998606,0.974563,0.006291,0.282040,0.000001,0.000026,0.000000,0.000026,0.000001,89.152739,0.000030,
2146,2623,-2.44519876838412,-0.475126580237308,-0.0260960980634195,0.001578,-0.000586,0.004046,0.060133,-0.007156,321.155656,24.406573,0.999611,0.991812,0.003882,0.333703,0.000013,0.000020,0.000007,0.000024,0.000009,59.137888,0.000034,
2161,2728,-2.13592633150836,1.81065649906792,-0.0217535719257853,0.002060,-0.000788,0.005831,0.076696,-0.010606,319.449418,24.398204,0.999488,0.989912,0.004063,0.398789,0.000015,0.000003,0.000003,0.000015,0.000003,12.053458,0.000019,
2371,2038,2.56739899978206,-13.273009892506,0.0221753214140676,0.002271,0.000041,-0.000365,0.105188,0.002251,330.676175,22.534279,0.999082,0.977249,0.005873,0.340507,-0.000004,-0.000025,-0.000025,0.000013,-0.000042,-33.928288,0.000043,
2191,2593,-1.46051963402151,-1.12922051460983,-0.0151793536957143,0.001933,-0.000682,0.003958,0.076246,-0.011408,321.593052,24.280589,0.999127,0.988422,0.004250,0.386426,0.000013,0.000010,0.000013,0.000025,-0.000002,41.753020,0.000028,
2176,2758,-1.81523125517305,2.46444904793384,-0.0222430243974827,0.001810,-0.000708,0.004793,0.068211,-0.007844,318.896957,24.446006,0.999399,0.989545,0.004080,0.381296,0.000006,0.000000,-0.000001,0.000006,0.000000,-10.972748,0.000007,
2326,2158,1.56066924320918,-10.6396739174246,0.0166937686531128,0.001833,-0.000615,0.003462,0.071806,0.005990,328.658168,23.057193,0.999262,0.984217,0.005056,0.421485,-0.000017,-0.000009,-0.000009,-0.000003,-0.000023,-57.533446,0.000028,
2221,2998,-0.876865590858891,7.68187445777751,0.00114816407909757,0.002129,-0.000302,0.000384,0.096784,-0.000351,315.080928,24.760532,0.999448,0.991485,0.003756,0.392087,-0.000001,0.000022,0.000004,0.000023,-0.000002,80.528366,0.000025,
2116,2503,-3.07680338557263,-3.09410157689518,-0.0144504560943233,0.001872,-0.000518,0.001353,0.081900,-0.027324,323.342862,24.310422,0.999073,0.985890,0.004595,0.400410,0.000003,0.000010,-0.000010,0.000017,-0.000004,-53.746315,0.000018,
2251,2923,-0.212712049029687,6.05468389535596,-0.000724240205499882,0.001873,-0.000609,0.004367,0.071732,0.001503,316.196144,24.728689,0.999716,0.993218,0.003403,0.396941,-0.000001,0.000011,-0.000004,0.000012,-0.000002,-75.447764,0.000013,
2311,2038,1.25626379675169,-13.2715333630874,0.0298461995486718,0.001681,0.000046,-0.000386,0.078285,-0.000057,330.712735,23.021329,0.999524,0.987357,0.004530,0.249652,-0.000019,-0.000040,-0.000020,-0.000007,-0.000052,-30.984121,0.000065,
2356,3088,2.03971008567875,9.6448552116566,0.0212298420490811,0.001861,-0.000587,0.006251,0.063402,-0.002669,313.576644,25.416057,0.999558,0.992595,0.003494,0.343228,0.000012,0.000021,-0.000001,0.000021,0.000012,-81.957952,0.000034,
2236,3058,-0.560270015514984,8.98402568668589,0.0222553425464298,0.002167,-0.000310,0.000694,0.097461,-0.006653,314.242983,24.894329,0.999661,0.992755,0.003372,0.375415,0.000003,-0.000005,-0.000004,0.000005,-0.000007,-22.525090,0.000007,
2311,2953,1.08580565251938,6.71098276161394,-0.00621864439415276,0.002132,-0.000144,-0.000137,0.098490,-0.007758,315.604917,24.941041,0.999320,0.990919,0.003813,0.364093,-0.000004,0.000010,0.000001,0.000010,-0.000004,87.404447,0.000010,
2311,2773,1.11831222683747,2.79605836143982,-0.00797341712058142,0.001805,-0.000401,0.003606,0.070599,0.023679,318.496319,24.526051,0.999571,0.992688,0.003648,0.427694,-0.000005,0.000016,0.000001,0.000016,-0.000005,88.571864,0.000016,
2191,2848,-1.50345122039677,4.42130107728781,-0.00911841894662757,0.002230,-0.001093,0.006635,0.081500,-0.022352,317.508756,24.523775,0.999250,0.990650,0.003849,0.382391,0.000000,0.000010,0.000003,0.000011,0.000000,74.211433,0.000012,
2251,3133,-0.248444762663706,10.6123862348835,0.0285091545003411,0.001638,-0.000473,0.005382,0.057754,0.019881,312.997466,25.054035,0.999329,0.991979,0.003725,0.404769,-0.000007,0.000011,-0.000008,0.000014,-0.000010,-69.132223,0.000015,
2146,2413,-2.40938683453985,-5.05755402445435,-0.0105648092282422,0.001984,-0.000923,0.004848,0.076196,-0.007647,324.698056,24.235478,0.998681,0.985907,0.005080,0.379170,-0.000002,-0.000008,-0.000016,0.000011,-0.000022,-39.843221,0.000022,
2386,3103,2.68890510772826,9.97236340163263,0.0152283696242534,0.001899,-0.000362,-0.001158,0.091386,-0.017756,313.319411,25.498348,0.999145,0.989307,0.004057,0.399598,0.000018,0.000029,0.000010,0.000035,0.000012,59.047493,0.000049,
2401,2113,3.20746279114987,-11.6271034963197,0.0265568367699416,0.001094,-0.000249,0.003607,0.036935,0.025581,329.461309,22.639914,0.998983,0.975588,0.006015,0.302460,-0.000010,0.000005,-0.000010,0.000009,-0.000015,-63.215336,0.000015,
2281,3073,0.412669251850684,9.31482650527246,0.00351651212145043,0.002050,-0.000355,0.000140,0.093871,-0.001313,313.754131,25.121460,0.999545,0.992973,0.003548,0.334090,0.000003,0.000010,0.000001,0.000010,0.000003,85.972869,0.000014,
2356,1993,2.24786362060235,-14.2622475461419,0.0338706279189296,0.001639,-0.001186,0.005502,0.055266,-0.031547,331.441553,22.553371,0.998837,0.968420,0.007042,0.259680,-0.000011,-0.000016,-0.000028,0.000015,-0.000041,-42.542648,0.000041,
2461,2263,4.48854924986891,-8.33758696351041,0.00725269747545099,0.002235,-0.000161,-0.000429,0.103832,0.012093,327.046719,22.818347,0.999161,0.980013,0.005382,0.325314,0.000003,-0.000029,-0.000014,0.000008,-0.000034,-20.542307,0.000036,
2341,2848,1.75573024787803,4.43075023872351,-0.0216309001040713,0.001833,-0.000699,0.005700,0.064178,-0.004176,317.139485,24.739960,0.999705,0.991441,0.003654,0.386850,-0.000006,0.000022,-0.000002,0.000022,-0.000006,-85.890430,0.000023,
2491,2578,5.07749980477978,-1.44794810339157,-0.00955038393090035,0.002417,-0.000646,0.004778,0.092276,0.003300,321.860313,23.877683,0.998871,0.982202,0.005215,0.392209,0.000031,-0.000007,0.000002,0.000031,-0.000007,3.437999,0.000033,
2206,2698,-1.153454023308,1.15985374072276,-0.0330803381284568,0.001933,-0.000596,0.003299,0.078240,-0.013732,319.698867,24.326944,0.999422,0.991903,0.003688,0.441466,0.000006,0.000018,0.000008,0.000022,0.000002,65.050691,0.000027,
2371,2053,2.5647479090203,-12.943243769797,0.0277066305707763,0.002279,-0.000197,0.002468,0.095482,0.008709,330.470533,22.674122,0.999240,0.979215,0.005546,0.251274,-0.000003,-0.000026,-0.000016,0.000005,-0.000034,-26.732475,0.000036,
2401,2338,3.16275931408083,-6.69602088726402,0.00335366551729521,0.001533,0.000123,-0.002846,0.080594,0.004733,325.676444,23.258194,0.999040,0.982320,0.004958,0.383381,-0.000010,0.000002,0.000000,0.000002,-0.000010,89.630342,0.000010,
2371,2248,2.52509558883377,-8.6654767278918,0.000146428188884329,0.001961,-0.000548,0.002078,0.082238,-0.010180,327.082129,23.157652,0.999170,0.983649,0.005390,0.321229,-0.000006,-0.000015,0.000003,-0.000005,-0.000016,15.922976,0.000023,
2236,2848,-0.526603079090616,4.42503502910013,-0.0220213638200448,0.002155,-0.000812,0.004674,0.083731,-0.013344,317.282884,24.602180,0.999421,0.991354,0.003714,0.373990,0.000006,0.000013,0.000007,0.000018,0.000002,57.539323,0.000022,
2161,2458,-2.08996298140964,-4.07529447720182,-0.00955445255402765,0.002051,-0.000444,0.001644,0.089067,0.010622,323.936698,24.180925,0.999244,0.988205,0.004423,0.442689,0.000002,-0.000009,-0.000005,0.000004,-0.000011,-21.318619,0.000011,
2386,2068,2.88923660439808,-12.6150935827228,0.0233370892564722,0.002028,-0.000261,0.001122,0.088676,-0.017433,330.197251,22.528703,0.999318,0.979056,0.005629,0.319637,0.000003,-0.000002,-0.000009,0.000010,-0.000008,-36.959892,0.000011,
2341,2128,1.89392122026701,-11.2974048569148,0.0206455546710913,0.001638,-0.000651,0.003080,0.064060,-0.035726,329.164255,23.001779,0.999530,0.987029,0.004613,0.273952,-0.000003,-0.000003,-0.000006,0.000003,-0.000008,-43.814167,0.000009,
2356,2218,2.2047761725912,-9.32392378185306,0.0132821754087331,0.002337,-0.000301,0.001680,0.101043,0.002592,327.689423,23.137661,0.998660,0.979343,0.005724,0.339381,-0.000010,-0.000003,-0.000004,-0.000002,-0.000012,-65.181060,0.000015,
2356,3103,2.03686089511937,9.97086915129493,0.0182705697998244,0.001985,-0.000529,0.004848,0.074048,-0.012490,313.316807,25.480102,0.999561,0.992079,0.003678,0.306859,0.000017,0.000024,0.000002,0.000024,0.000017,77.446503,0.000041,
2221,2803,-0.844984597138474,3.44558083516544,-0.0253543425405383,0.001835,-0.000600,0.001017,0.080951,-0.021816,318.020157,24.512761,0.999336,0.989174,0.004172,0.378544,-0.000004,0.000006,0.000000,0.000006,-0.000004,87.863150,0.000006,
2221,3013,-0.879158272045334,8.00749539495551,0.0065430115752747,0.002104,-0.000002,0.000622,0.094996,0.016145,314.879350,24.791877,0.999475,0.991670,0.003652,0.395282,0.000002,0.000014,0.000003,0.000014,0.000001,77.864442,0.000017,
2341,3028,1.72480188828172,8.34142781167678,0.0145255989842212,0.001856,-0.000486,0.003516,0.072933,-0.010877,314.512719,25.239605,0.999734,0.994256,0.003274,0.312875,0.000003,0.000008,-0.000002,0.000009,0.000002,-71.517730,0.000012,
2266,3208,0.0642138573960764,12.2404683364339,0.0286597648838551,0.002080,-0.000385,0.002827,0.086377,0.001494,311.771434,25.292885,0.999725,0.994485,0.003107,0.331153,0.000009,0.000020,0.000002,0.000021,0.000008,78.334376,0.000030,
2506,2773,5.36245979866126,2.80671469220766,-0.0288445209603765,0.001989,-0.000620,0.002290,0.082157,-0.013952,318.554936,24.632127,0.999700,0.991313,0.003715,0.400426,-0.000022,0.000022,-0.000016,0.000027,-0.000027,-71.851796,0.000032,
2371,3133,2.35762165542366,10.6228100255745,0.0226907732379118,0.002206,-0.000594,0.004544,0.085212,0.004612,312.876619,25.587898,0.999618,0.992237,0.003568,0.354194,0.000022,0.000029,0.000006,0.000033,0.000018,58.239593,0.000052,
2386,2293,2.84428259707645,-7.68163293549699,0.00972275456973648,0.001853,-0.000968,0.005212,0.065861,-0.011964,326.428843,23.193169,0.999831,0.994493,0.003307,0.351123,-0.000007,-0.000005,0.000001,-0.000004,-0.000007,71.726106,0.000012,
2251,3148,-0.250575595763848,10.9372981665296,0.0277865844305438,0.001929,-0.000584,0.000954,0.085568,-0.012723,312.774137,25.062993,0.998518,0.988005,0.004491,0.385470,-0.000003,0.000008,-0.000005,0.000010,-0.000005,-69.008529,0.000010,
2446,2233,4.1669171329537,-8.9968929135656,0.0182068306143037,0.001502,-0.000641,0.001499,0.062894,-0.030008,327.551291,22.739927,0.999114,0.979270,0.005523,0.319049,-0.000003,-0.000026,0.000005,-0.000002,-0.000027,11.432199,0.000032,
2326,3253,1.35664353692569,13.2215182314948,0.0161859570801539,0.001770,-0.000411,0.005488,0.062392,-0.005097,310.836814,25.630541,0.999371,0.992940,0.003401,0.379783,0.000009,0.000015,0.000005,0.000018,0.000006,58.130770,0.000025,
2191,2863,-1.50639654723005,4.74819961318516,-0.0159201318701889,0.002029,-0.000566,0.002400,0.085748,-0.005399,317.211655,24.543722,0.999334,0.991623,0.003628,0.393682,0.000002,0.000013,-0.000001,0.000013,0.000002,-82.666350,0.000016,
2401,3163,3.00380862006438,11.2755437257648,0.0284042419183947,0.001746,-0.000681,0.002664,0.070457,-0.015637,312.437244,25.776118,0.999640,0.993374,0.003306,0.359084,0.000026,0.000018,0.000012,0.000035,0.000009,36.239792,0.000046,
2206,2923,-1.19030477486438,6.0530565872429,-0.00627807807376257,0.002087,-0.000338,0.003591,0.084620,-0.001063,316.269442,24.698460,0.999439,0.990439,0.003880,0.330731,0.000001,0.000019,0.000002,0.000019,0.000000,82.274177,0.000022,
2386,3208,2.66933464964019,12.2500471439647,0.0339929943152697,0.001669,-0.000523,0.005274,0.057711,-0.001762,311.721875,25.809514,0.999481,0.992804,0.003452,0.398543,0.000027,0.000009,0.000011,0.000032,0.000003,26.349484,0.000039,
2386,3118,2.68617613031873,10.2983644216171,0.0207062597726235,0.002023,-0.000470,0.003690,0.079693,0.002032,313.107557,25.589093,0.999573,0.992683,0.003460,0.370687,0.000023,0.000031,0.000010,0.000038,0.000015,55.894777,0.000055,
2326,2833,1.43217975434463,4.10505082633316,-0.0258210436224999,0.001864,-0.000466,0.003406,0.073807,-0.001912,317.362914,24.785648,0.999847,0.993186,0.003469,0.289204,-0.000009,0.000021,-0.000001,0.000021,-0.000010,-87.590117,0.000021,
2476,2353,4.79733370298447,-6.36762534399561,0.00622479057375358,0.002124,-0.000897,0.003779,0.082576,-0.004749,325.596065,23.051103,0.998973,0.982991,0.005446,0.361001,-0.000020,0.000018,0.000005,0.000019,-0.000020,82.347037,0.000023,
2281,3088,0.410743556001179,9.63906704075367,0.0143392338108583,0.001951,-0.000377,-0.001372,0.094295,-0.018182,313.600527,25.112567,0.999691,0.992992,0.003566,0.352989,0.000002,0.000009,-0.000007,0.000013,-0.000003,-57.250126,0.000014,
2506,2788,5.359644315847,3.13367789706703,-0.0282689743776245,0.002034,-0.000448,0.000007,0.093144,-0.016149,318.325863,24.715689,0.999577,0.990721,0.003905,0.375715,-0.000025,0.000023,-0.000021,0.000031,-0.000033,-69.271662,0.000037,
2296,3118,0.731472657893015,10.2905385453543,0.024436403620939,0.002054,-0.000646,0.003306,0.083118,-0.026490,313.164547,25.230201,0.999583,0.993181,0.003469,0.340325,0.000007,0.000016,-0.000005,0.000018,0.000005,-67.943533,0.000024,
2491,2593,5.07434550565748,-1.12037604169821,-0.0121962142904977,0.002188,-0.000517,0.000250,0.099158,-0.009349,321.601097,23.939000,0.999821,0.994457,0.003475,0.377861,0.000032,-0.000008,0.000003,0.000032,-0.000008,4.149787,0.000034,
2341,2863,1.75344996235011,4.75624028152895,-0.0136523188689921,0.001668,-0.000682,0.004461,0.060909,-0.010593,316.958738,24.766425,0.999660,0.991551,0.003688,0.390233,-0.000008,0.000017,-0.000004,0.000018,-0.000009,-80.124112,0.000018,
2221,3028,-0.882014027431136,8.33287335114941,0.00303055687237475,0.002023,-0.000346,-0.000839,0.095805,-0.007936,314.606206,24.785612,0.999674,0.993949,0.003191,0.395750,0.000001,0.000012,-0.000003,0.000013,0.000001,-77.234054,0.000015,
2401,3253,2.98524310808628,13.2289601066892,0.0135610429360327,0.002131,-0.000365,0.005388,0.078342,-0.007314,310.843072,26.051651,0.999537,0.991921,0.003520,0.356910,0.000025,-0.000003,0.000002,0.000025,-0.000003,4.799116,0.000027,
2371,3043,2.37372487184424,8.66957960588672,0.00903780546059352,0.001972,-0.000206,0.002719,0.081063,0.020332,314.231245,25.320028,0.999639,0.992102,0.003581,0.397834,0.000005,0.000020,0.000009,0.000024,0.000001,65.861923,0.000028,
2311,2053,1.25383235474436,-12.9430070860702,0.0305185532409951,0.002074,0.000006,0.001483,0.089929,0.001232,330.489019,22.997733,0.999444,0.985097,0.004799,0.310140,-0.000016,-0.000031,-0.000012,-0.000009,-0.000038,-29.487157,0.000050,
2401,2128,3.20590794408005,-11.2989225826377,0.03506648299566,0.001910,-0.000786,0.005175,0.068394,0.016259,329.322027,22.708225,0.999206,0.979924,0.005487,0.272668,-0.000008,0.000004,-0.000005,0.000006,-0.000010,-70.174679,0.000010,
2281,3223,0.387717478756997,12.5653977704812,0.0470807915199885,0.001644,-0.000182,0.005378,0.057739,0.019586,311.628353,25.333803,0.999804,0.994911,0.003010,0.408300,0.000016,0.000023,0.000003,0.000025,0.000015,68.833327,0.000040,
2236,2863,-0.52875511716147,4.7514445239389,-0.0184650392993717,0.002179,-0.000246,0.001639,0.094912,0.006517,317.079236,24.652591,0.999370,0.991032,0.003686,0.364205,0.000005,0.000013,0.000003,0.000014,0.000004,73.978196,0.000019,
2356,2008,2.245164598159,-13.9308598790413,0.0244623309346252,0.002190,-0.000190,0.001458,0.095021,-0.004749,331.160905,22.634290,0.998816,0.975278,0.006308,0.248334,0.000003,-0.000016,-0.000021,0.000017,-0.000030,-33.170808,0.000030,
2416,2173,3.52265075250751,-10.3114127289176,0.00990702738874916,0.001726,-0.001411,0.005318,0.059059,-0.046358,328.396588,22.642634,0.999079,0.980324,0.005173,0.341776,-0.000010,-0.000011,-0.000011,0.000000,-0.000022,-43.569111,0.000025,
2401,3178,3.00098064294312,11.6010203787302,0.0260888283048075,0.001956,-0.000321,0.001781,0.083424,-0.008384,312.184776,25.798104,0.999581,0.993009,0.003410,0.388589,0.000027,0.000020,0.000014,0.000038,0.000009,37.049003,0.000050,
2461,2278,4.48550823783064,-8.01008427783648,0.0163427519013339,0.001769,-0.000622,0.003120,0.069019,-0.008883,326.845369,22.891261,0.999425,0.980766,0.005327,0.287892,-0.000005,-0.000029,-0.000006,-0.000004,-0.000030,-12.493836,0.000037,
2506,2803,5.35580436505536,3.46064537477881,-0.0280371556642081,0.001686,-0.000739,0.004814,0.058459,-0.011290,318.047984,24.794497,0.999179,0.986668,0.004805,0.362689,-0.000027,0.000028,-0.000022,0.000035,-0.000034,-70.665456,0.000040,
2431,2083,3.8689991472148,-12.2851011848029,0.0195885016910324,0.001832,-0.001101,0.007175,0.056923,0.003525,329.950193,22.387563,0.998905,0.977343,0.006078,0.249006,-0.000002,0.000033,0.000002,0.000033,-0.000002,86.275205,0.000037,
2341,2143,1.88969435309509,-10.9665142266582,0.0049713408704406,0.001628,-0.000741,0.005826,0.054049,-0.003063,328.781195,23.020464,0.999262,0.984479,0.005023,0.328264,-0.000007,-0.000006,-0.000006,0.000000,-0.000013,-46.587313,0.000015,
2146,2428,-2.41134329481955,-4.72938963929438,-0.0119101290383128,0.002252,-0.000283,0.000078,0.103131,-0.004997,324.471178,24.287824,0.999056,0.986774,0.004761,0.338791,-0.000004,-0.000011,-0.000012,0.000005,-0.000020,-36.773279,0.000021,
2326,2998,1.40373738403198,7.68845609785771,0.00585860642848957,0.001825,-0.000761,0.003849,0.070448,-0.009495,314.933759,25.044145,0.999768,0.995261,0.002979,0.395975,0.000000,0.000012,-0.000002,0.000012,0.000000,-81.600163,0.000013,
2311,2788,1.11590509867812,3.121683575666,-0.00504823596747883,0.002052,-0.000496,0.005066,0.076842,-0.000491,318.283368,24.522986,0.999598,0.994622,0.003394,0.438554,-0.000001,0.000011,0.000002,0.000011,-0.000001,79.911289,0.000012,
2446,2248,4.16427934286068,-8.66758507390468,0.0156745802166824,0.002153,-0.000687,0.002358,0.089493,-0.034023,327.314001,22.831408,0.999090,0.979325,0.005515,0.278296,-0.000003,-0.000029,0.000000,-0.000003,-0.000029,0.766746,0.000036,
2326,3268,1.35344212796372,13.5477552069919,0.00788641800278356,0.001919,-0.000269,0.004317,0.073460,0.008904,310.531516,25.706550,0.999509,0.993711,0.003179,0.350528,0.000009,0.000013,0.000007,0.000019,0.000004,52.630539,0.000024,
2311,2968,1.0838665711393,7.0368377622437,0.00404931038383438,0.002084,-0.000293,-0.001718,0.101667,-0.014102,315.449099,25.041103,0.999910,0.997527,0.002471,0.289045,-0.000004,0.000016,0.000003,0.000016,-0.000005,81.777208,0.000017,
2416,2413,3.47508766878147,-5.05466718031179,-0.00139617454357222,0.001879,-0.000531,0.000489,0.084114,-0.023348,324.443828,23.506725,0.999658,0.987943,0.004424,0.298650,0.000005,0.000016,0.000001,0.000016,0.000005,84.934366,0.000022,
2191,2878,-1.5086456642727,5.07538311826446,-0.013490290271136,0.002156,-0.000340,0.001949,0.093099,0.006262,316.994459,24.668034,0.999775,0.995308,0.003021,0.295045,0.000001,0.000019,-0.000002,0.000020,0.000001,-82.239136,0.000023,
2206,2713,-1.15555787514078,1.48576904474446,-0.0271076151752254,0.001955,-0.000877,0.002707,0.080985,-0.043987,319.508322,24.359940,0.998652,0.986454,0.004710,0.395039,0.000004,0.000009,0.000005,0.000012,0.000000,57.003576,0.000014,
2191,2608,-1.46298377395061,-0.801858972197266,-0.0201896932954355,0.002066,-0.000321,-0.000322,0.095892,-0.010043,321.327639,24.289480,0.998699,0.986338,0.004667,0.394344,0.000015,0.000014,0.000015,0.000030,-0.000001,43.848391,0.000033,
2491,2608,5.07145202780064,-0.793931172934428,-0.00551902383193692,0.001945,-0.000461,0.001859,0.081867,-0.005068,321.395880,23.965186,0.999844,0.994166,0.003530,0.415438,0.000027,0.000007,-0.000003,0.000027,0.000007,-7.261157,0.000036,
2251,2938,-0.21543517262533,6.3797058509525,-0.00193704666622807,0.001975,-0.000903,0.005311,0.073183,-0.019420,315.943453,24.677441,0.999658,0.994034,0.003238,0.450259,-0.000002,0.000016,-0.000003,0.000016,-0.000002,-81.769164,0.000017,
2386,3133,2.68395197079399,10.6235166191282,0.0299341088040137,0.002142,-0.000525,0.005823,0.077509,0.011355,312.937036,25.638174,0.999688,0.993338,0.003374,0.372960,0.000026,0.000030,0.000011,0.000039,0.000017,50.860970,0.000058,
2326,2848,1.42980311326338,4.42927253238548,-0.0176991870184793,0.001699,-0.000531,0.003916,0.064377,-0.014268,317.177981,24.698828,0.999782,0.992455,0.003558,0.397563,-0.000012,0.000016,-0.000002,0.000016,-0.000012,-86.153771,0.000017,
2431,2248,3.83618429891031,-8.66742031319767,0.0138617266521237,0.001924,-0.000639,0.003244,0.075878,-0.003947,327.257436,22.861191,0.999151,0.979621,0.005513,0.347830,-0.000011,-0.000023,-0.000002,-0.000010,-0.000023,-6.993798,0.000035,
2401,3268,2.98068919393247,13.5553787930224,-0.00489520035830537,0.001821,-0.000303,0.003525,0.070887,-0.010986,310.433864,26.107523,0.999686,0.992086,0.003526,0.341310,0.000024,-0.000004,0.000005,0.000025,-0.000005,8.853601,0.000027,
2176,2773,-1.8180133974818,2.79105250498719,-0.0276152587392176,0.001975,-0.000909,0.005503,0.073557,-0.012751,318.613715,24.443241,0.999456,0.990118,0.004087,0.391654,0.000004,0.000001,-0.000003,0.000006,-0.000001,-28.004677,0.000006,
2311,2068,1.25096180865862,-12.6132853136546,0.0210649354631869,0.002510,0.000130,-0.000424,0.116427,-0.019412,330.195569,22.998128,0.999408,0.982635,0.005099,0.324785,-0.000017,-0.000003,-0.000006,-0.000001,-0.000019,-68.763090,0.000022,
2341,2878,1.75004629078572,5.08258055070146,-0.0234529368855192,0.001612,-0.000377,0.001589,0.068443,-0.005399,316.639678,24.732353,0.999603,0.991612,0.003730,0.465879,-0.000010,0.000011,-0.000007,0.000014,-0.000012,-72.616490,0.000015,
2371,2068,2.56112704745417,-12.614643753498,0.0229238860271153,0.001754,-0.000136,0.000806,0.077358,0.002415,330.171514,22.610788,0.999497,0.981373,0.005067,0.353261,-0.000003,-0.000005,-0.000008,0.000005,-0.000012,-41.293191,0.000012,
2356,2233,2.20147405872438,-8.99533348222395,0.0115520337016051,0.002181,-0.000691,0.003977,0.085696,-0.000950,327.417531,23.165495,0.998053,0.976355,0.006158,0.349477,-0.000011,-0.000014,-0.000002,-0.000010,-0.000015,-30.427602,0.000025,
2446,2263,4.16160741039505,-8.33820881786308,0.0118482887957043,0.002391,-0.000278,-0.002699,0.119384,-0.002253,327.068953,22.885760,0.999015,0.978725,0.005686,0.310312,-0.000004,-0.000022,-0.000010,0.000000,-0.000027,-24.741102,0.000031,
2371,3058,2.37059035825556,8.99537547761736,0.0123913353308467,0.001853,-0.000821,0.007847,0.057077,-0.000417,313.989975,25.404388,0.999725,0.993428,0.003270,0.332405,0.000004,0.000017,0.000010,0.000023,-0.000002,60.828764,0.000025,
2311,3208,1.04145414246583,12.2438970942005,0.0390038309654983,0.001851,0.000082,0.002490,0.076776,0.012304,311.791143,25.511071,0.999683,0.993124,0.003331,0.344177,0.000014,0.000019,0.000005,0.000022,0.000010,58.080534,0.000034,
2146,2638,-2.44765419911677,-0.14881313509818,-0.027968338536482,0.001681,-0.000518,0.003561,0.066379,0.000624,320.903441,24.349507,0.999711,0.992179,0.003661,0.407072,0.000016,0.000017,0.000007,0.000023,0.000009,46.897914,0.000033,
2401,2353,3.15944675143808,-6.36736992196827,-0.000599811465974653,0.001732,-0.000590,0.000562,0.077113,-0.018389,325.397120,23.332811,0.998835,0.982146,0.005113,0.333039,-0.000004,0.000011,0.000003,0.000012,-0.000005,79.250757,0.000012,
2161,2473,-2.09233659067258,-3.74736972568056,-0.0106242263558443,0.002016,-0.000082,-0.001571,0.097461,0.008428,323.693476,24.234037,0.999184,0.986558,0.004793,0.398651,0.000006,0.000004,0.000002,0.000007,0.000003,35.409081,0.000010,
2341,3043,1.72157937148664,8.66641841020256,0.00911199946517627,0.001835,-0.000580,0.003080,0.073499,-0.014658,314.223125,25.170634,0.999692,0.993271,0.003367,0.413963,-0.000001,0.000013,-0.000001,0.000013,-0.000001,-85.565445,0.000015,
2266,3223,0.0609994010840005,12.5652696587463,0.0286248919799164,0.001692,-0.000319,0.004336,0.063493,0.001787,311.502664,25.282607,0.999774,0.995473,0.003063,0.365934,0.000009,0.000025,0.000004,0.000026,0.000008,75.365720,0.000036,
2356,3118,2.03476137186846,10.2954617826339,0.0234509316068738,0.002221,-0.000419,0.003360,0.090247,-0.006650,313.131204,25.452379,0.999576,0.992268,0.003627,0.378545,0.000019,0.000026,0.000001,0.000027,0.000018,80.876769,0.000045,
2386,2083,2.88625710778115,-12.2855554353208,0.0226360295545192,0.002005,-0.000402,0.001197,0.087294,-0.012356,329.948148,22.590718,0.999192,0.976286,0.005760,0.309294,0.000002,0.000012,-0.000004,0.000013,0.000000,-72.033841,0.000016,
2281,3238,0.384326290214638,12.891378785153,0.0338109264131958,0.001889,-0.000513,0.004331,0.072372,-0.007607,311.285700,25.387634,0.999812,0.993954,0.003176,0.353649,0.000017,0.000015,0.000001,0.000018,0.000015,28.819851,0.000032,
2476,2368,4.79311738726355,-6.03778014755993,0.00202752501974146,0.001529,-0.000572,0.006208,0.046258,0.016597,325.280632,23.194310,0.999594,0.986230,0.004938,0.297950,-0.000011,0.000019,0.000010,0.000023,-0.000014,73.050181,0.000023,
2326,3013,1.40100285573186,8.01458140851878,0.00645694113234185,0.001800,-0.000595,0.003227,0.071458,-0.016577,314.694543,25.114707,0.999374,0.989799,0.003904,0.351882,0.000000,0.000010,0.000000,0.000010,0.000000,-88.209197,0.000011,
2446,2323,4.14816547191968,-7.02495648845377,0.00774383006051949,0.001932,-0.000775,0.005004,0.069574,0.000843,326.014127,23.006928,0.999275,0.980513,0.005244,0.409744,-0.000010,0.000009,0.000000,0.000009,-0.000010,-88.743692,0.000011,
2311,2983,1.08129664944488,7.3615186359871,0.00942367607854067,0.002058,-0.000411,0.000616,0.092398,-0.022075,315.240468,25.004010,0.999745,0.995165,0.002943,0.349551,-0.000002,0.000016,0.000004,0.000017,-0.000003,76.598271,0.000018,
2281,3103,0.407827557533185,9.96503912155028,0.011402729556437,0.002048,-0.000188,-0.000469,0.095845,-0.008573,313.331876,25.152865,0.999658,0.993243,0.003454,0.349018,0.000003,0.000014,-0.000007,0.000017,0.000000,-64.462083,0.000020,
2506,2818,5.35396650519089,3.78726494944368,-0.0238144070759176,0.002682,-0.000850,0.005872,0.100064,-0.007747,317.880115,24.877086,0.999350,0.988614,0.004329,0.344614,-0.000021,0.000042,-0.000010,0.000044,-0.000022,-81.030662,0.000044,
2461,2293,4.48212555752819,-7.68293971933556,0.017569144214292,0.001657,-0.001026,0.007321,0.047940,0.004477,326.592323,22.821863,0.999320,0.980113,0.005389,0.427457,-0.000008,-0.000025,0.000001,-0.000007,-0.000025,3.374352,0.000034,
2236,3073,-0.5640832302084,9.31019153562603,0.0129965177059148,0.001821,-0.000469,0.002842,0.074541,-0.004845,313.897305,24.910028,0.999635,0.992142,0.003483,0.381620,0.000001,0.000001,-0.000005,0.000006,-0.000004,-45.520442,0.000006,
2431,2263,3.83222860783905,-8.33669999098402,0.000869069231669073,0.002047,-0.000349,0.003730,0.079859,0.008136,326.909622,22.964826,0.999163,0.979899,0.005494,0.309230,-0.000011,-0.000016,-0.000013,0.000000,-0.000027,-39.462517,0.000031,
2326,3283,1.35012278586559,13.8731267546388,-0.0039966992197833,0.002087,-0.000171,0.001386,0.091356,0.005392,310.203430,25.705558,0.999634,0.994857,0.002904,0.381049,0.000009,0.000014,0.000000,0.000014,0.000009,87.391939,0.000023,
2206,2938,-1.19286470428045,6.37831620892009,-0.00477721606836212,0.001905,-0.000263,0.001925,0.081537,0.000300,316.034747,24.665608,0.999519,0.992334,0.003563,0.381093,-0.000002,0.000020,0.000004,0.000020,-0.000002,80.442618,0.000022,
2416,2428,3.47184717316958,-4.72666931475882,-0.00632241252588983,0.001948,-0.000901,0.000047,0.088739,-0.053667,324.164397,23.546526,0.999506,0.986630,0.004617,0.277828,0.000009,0.000010,0.000002,0.000011,0.000008,56.476821,0.000019,
2401,3283,2.97775295595698,13.8807122648616,-0.0149047359051906,0.002390,-0.000280,0.000814,0.106986,-0.010669,310.139490,26.111286,0.999711,0.991836,0.003600,0.382040,0.000028,-0.000012,-0.000002,0.000028,-0.000012,-2.914535,0.000028,
2431,2488,3.78662184567164,-3.41565815104872,-0.00769302772658875,0.001780,-0.000812,0.003737,0.067482,-0.027876,323.181029,23.632200,0.999204,0.983053,0.004861,0.380960,0.000016,-0.000018,-0.000021,0.000026,-0.000028,-25.470594,0.000032,
2401,2143,3.20242549149399,-10.9699914765761,0.0248622991687171,0.001868,-0.000149,0.001650,0.079468,0.023382,329.006414,22.631859,0.999209,0.979067,0.005436,0.405043,-0.000008,0.000001,-0.000007,0.000005,-0.000011,-61.750671,0.000011,
2356,2023,2.24244080916066,-13.6030081977709,0.0272443895643733,0.002136,-0.000339,0.002313,0.089540,-0.028264,330.938062,22.587900,0.998945,0.974062,0.006453,0.313570,0.000008,-0.000018,-0.000015,0.000014,-0.000025,-24.404783,0.000025,
2491,2623,5.06796179697372,-0.467202582206447,-0.00923387094786676,0.002018,-0.000924,0.003913,0.077145,-0.022130,321.116401,23.953907,0.999852,0.994331,0.003376,0.469072,0.000032,-0.000005,-0.000013,0.000036,-0.000009,-17.578096,0.000037,
2341,2158,1.88694716088374,-10.6400405743997,0.00912070724416481,0.001341,-0.000953,0.005700,0.041271,-0.003126,328.562290,22.887677,0.999398,0.985743,0.004850,0.500077,-0.000011,-0.000013,-0.000010,-0.000002,-0.000022,-42.180358,0.000027,
2326,3298,1.34716032586925,14.1977821148183,-0.00273356550189874,0.001942,-0.000149,0.002735,0.080051,0.011104,309.956549,25.705216,0.999707,0.995215,0.002857,0.419946,0.000007,0.000008,0.000002,0.000009,0.000006,52.237464,0.000015,
2386,2308,2.84059002152895,-7.3526375606672,-0.00110060158175429,0.001820,-0.000682,0.004167,0.068210,-0.001703,326.098220,23.180591,0.999789,0.994290,0.003375,0.419738,-0.000003,-0.000002,0.000000,-0.000002,-0.000003,72.363333,0.000005,
2506,2833,5.35087169512117,4.11330594718362,-0.018630470650578,0.001925,-0.000322,0.002114,0.080072,-0.003915,317.658724,24.917438,0.999559,0.990012,0.004000,0.368997,-0.000014,0.000057,-0.000001,0.000057,-0.000014,-88.949101,0.000060,
2281,3253,0.38033731407835,13.2176555081705,0.0191618793185171,0.001843,-0.000409,0.006099,0.064413,0.006833,310.908434,25.425227,0.999774,0.993053,0.003322,0.356683,0.000017,0.000017,0.000002,0.000019,0.000015,48.105570,0.000034,
2371,2083,2.55833474906108,-12.2849193715805,0.019720164152659,0.002121,-0.000392,0.001360,0.092103,-0.000150,329.917765,22.669647,0.999340,0.979435,0.005392,0.336067,-0.000004,0.000009,-0.000004,0.000010,-0.000005,-75.493078,0.000010,
2401,2368,3.15658064919975,-6.03999609640909,0.002540691649358,0.002015,-0.001168,0.006608,0.067972,-0.023603,325.171659,23.347098,0.998737,0.981589,0.005180,0.360924,-0.000002,0.000020,0.000004,0.000021,-0.000003,79.979277,0.000022,
2461,2398,4.45975675014471,-5.38264992045176,-0.000129457977948277,0.001607,-0.000727,0.002617,0.063474,-0.012131,324.758298,23.272666,0.999603,0.986760,0.004691,0.354322,0.000006,0.000022,-0.000007,0.000025,0.000003,-68.952784,0.000031,
2446,2338,4.14558086040794,-6.6969789933295,0.0143231082935813,0.001846,-0.001287,0.005316,0.064242,-0.022454,325.820917,23.118558,0.999230,0.981196,0.005166,0.328666,-0.000016,0.000003,0.000001,0.000003,-0.000016,87.261971,0.000017,
2476,2473,4.77076395757789,-3.74181236572915,-0.014024357582116,0.002030,-0.001384,0.007436,0.064252,-0.022753,323.461676,23.477977,0.999574,0.989826,0.004109,0.382222,0.000012,-0.000014,0.000002,0.000012,-0.000014,3.769651,0.000015,
2311,2083,1.24772399332313,-12.2824489894607,0.0211376351261379,0.002297,-0.000271,0.003176,0.094259,-0.000904,329.931593,23.172974,0.999395,0.983017,0.005182,0.204217,-0.000016,0.000007,-0.000003,0.000007,-0.000017,-82.597374,0.000017,
2296,3133,0.728491972911673,10.6162493784754,0.0253138518662013,0.001971,-0.000334,0.006080,0.070120,0.011670,312.913047,25.249230,0.999726,0.994697,0.003204,0.388432,0.000007,0.000017,-0.000005,0.000019,0.000005,-68.045929,0.000025,
2446,2563,4.09900394263937,-1.77589451727464,-0.0125533359916972,0.002393,-0.000495,0.003667,0.095911,0.007332,321.976542,23.927326,0.999594,0.988705,0.004334,0.354002,0.000031,-0.000009,-0.000014,0.000035,-0.000013,-17.301620,0.000036,
2311,3223,1.03843842723658,12.5683756748828,0.0382286523982884,0.001654,-0.000219,0.002180,0.068706,0.001931,311.531090,25.477389,0.999641,0.993345,0.003222,0.398366,0.000012,0.000020,0.000005,0.000023,0.000010,63.082181,0.000033,
2386,3223,2.66602624001685,12.5762167810052,0.0269984337073197,0.001581,-0.000314,0.002298,0.064467,0.005407,311.423408,25.880181,0.999571,0.993619,0.003239,0.377143,0.000025,0.000003,0.000010,0.000029,-0.000001,20.325483,0.000033,
2251,2953,-0.217639479046245,6.70751649860662,-0.00335698786193461,0.002233,-0.000175,0.000856,0.099925,-0.007005,315.712608,24.852329,0.999496,0.992205,0.003587,0.310383,-0.000006,0.000016,-0.000002,0.000016,-0.000007,-83.565661,0.000016,
2206,2728,-1.15782588178454,1.81276699378508,-0.0235940504849168,0.002139,-0.000743,0.004308,0.084464,-0.019609,319.297106,24.421787,0.999214,0.989274,0.004091,0.374237,0.000003,0.000005,0.000000,0.000005,0.000003,78.966512,0.000008,
2371,3148,2.35533842573594,10.9480796733782,0.0254054474173131,0.002376,-0.000427,0.001818,0.102732,-0.013239,312.671304,25.638288,0.999643,0.991663,0.003550,0.326027,0.000022,0.000019,0.000008,0.000029,0.000013,39.537909,0.000043,
2431,2098,3.86607615074341,-11.9559913377377,0.0209052599340112,0.001607,-0.000860,0.005029,0.054656,0.003613,329.716975,22.443828,0.999525,0.981101,0.005670,0.245744,-0.000008,0.000026,-0.000005,0.000026,-0.000009,-81.252854,0.000027,
2356,3133,2.03186272952371,10.621163042774,0.0254908058875571,0.002056,-0.000512,0.003826,0.080962,-0.009100,312.893237,25.519149,0.999525,0.991702,0.003744,0.346976,0.000020,0.000027,0.000002,0.000028,0.000019,73.777094,0.000048,
2206,2953,-1.19586448351474,6.70488248289535,-0.0142692415337251,0.001972,0.000313,-0.000819,0.093584,0.020677,315.722513,24.661223,0.999560,0.992556,0.003501,0.422013,0.000000,0.000020,0.000004,0.000020,-0.000001,78.657557,0.000023,
2326,2863,1.42742010768282,4.75525616595884,-0.0151646024358456,0.001815,-0.000708,0.002534,0.074437,-0.031493,316.964919,24.740653,0.999756,0.992383,0.003553,0.372655,-0.000012,0.000011,-0.000004,0.000012,-0.000013,-80.612146,0.000014,
2446,2278,4.15840183269217,-8.00954629052211,0.0122680644852267,0.002332,-0.000478,-0.000593,0.108772,-0.017290,326.819139,22.970506,0.999235,0.979429,0.005552,0.264776,-0.000012,-0.000022,-0.000003,-0.000011,-0.000023,-17.568436,0.000035,
2401,3193,2.99827402208058,11.9263931500975,0.0299584623293754,0.001915,-0.000504,0.002359,0.079388,-0.009180,311.967128,25.858997,0.999536,0.992419,0.003462,0.370923,0.000028,0.000017,0.000014,0.000037,0.000008,34.025041,0.000048,
2341,3058,1.71867641990324,8.99210825534915,0.00464501162468878,0.001952,-0.000488,0.001157,0.085649,-0.012913,313.952557,25.171463,0.999729,0.994010,0.003129,0.451025,-0.000002,0.000010,0.000001,0.000010,-0.000002,86.508791,0.000010,
2266,3238,0.058890724378589,12.8896566693311,0.0253795802572085,0.002239,-0.000504,0.000259,0.102045,-0.036683,311.268690,25.258225,0.999793,0.994841,0.003078,0.376143,0.000008,0.000017,0.000004,0.000019,0.000007,69.869017,0.000026,
2476,2713,4.72134488496694,1.49675702576815,-0.0223276581505161,0.001863,-0.000592,0.003618,0.071519,-0.003632,319.495205,24.337039,0.999613,0.989914,0.004121,0.461023,0.000011,0.000044,-0.000017,0.000051,0.000004,-67.592668,0.000061,
2416,2188,3.52130256117639,-9.98236564507706,0.0223095025106659,0.001875,-0.000318,-0.000432,0.087266,-0.009807,328.285375,22.805556,0.999371,0.983601,0.004924,0.265162,-0.000007,-0.000010,-0.000013,0.000005,-0.000022,-41.770672,0.000023,
2191,2623,-1.46554142630125,-0.475250551741794,-0.0161483975201691,0.001853,-0.000357,0.000765,0.082679,-0.017395,321.105154,24.320565,0.999199,0.987601,0.004433,0.370858,0.000016,0.000018,0.000014,0.000031,0.000002,47.208382,0.000037,
2461,2308,4.47878420674058,-7.35209449764152,0.00490223877807239,0.001965,-0.000783,0.001927,0.082432,-0.015986,326.277474,22.990927,0.999074,0.977273,0.005712,0.294542,-0.000010,-0.000015,-0.000003,-0.000008,-0.000017,-22.280698,0.000026,
2236,3088,-0.566413426774755,9.63582403718538,0.0178922670993416,0.001822,-0.000524,0.003087,0.073778,-0.007666,313.692264,24.976289,0.999506,0.992330,0.003510,0.332591,-0.000001,0.000000,-0.000010,0.000009,-0.000010,-45.120970,0.000011,
2476,2383,4.78959882979969,-5.70955044986494,-0.00639637722747466,0.001606,-0.000575,0.004233,0.057268,0.015715,324.978305,23.176532,0.999631,0.985537,0.004924,0.373447,-0.000002,0.000019,-0.000001,0.000019,-0.000002,-86.709781,0.000021,
2176,2788,-1.82005014721872,3.11746952646331,-0.0253138016104231,0.002125,-0.000588,0.002659,0.089399,-0.011792,318.404870,24.482097,0.999329,0.989704,0.004194,0.366024,0.000001,0.000005,0.000000,0.000005,0.000001,-84.773272,0.000007,
2491,2788,5.03268790006029,3.13347237975094,-0.0277303754800187,0.001969,-0.000501,0.001403,0.084791,-0.012715,318.278364,24.756392,0.999351,0.987760,0.004225,0.327389,-0.000016,0.000022,-0.000025,0.000034,-0.000028,-63.426577,0.000036,
2236,2878,-0.530618253883478,5.07618017903263,-0.00575711015630986,0.002048,-0.000242,0.001531,0.089232,-0.002119,316.936069,24.648471,0.999522,0.991824,0.003579,0.380407,0.000001,0.000018,0.000000,0.000018,0.000001,-89.670400,0.000021,
2506,2863,5.34402906453017,4.76680760738289,-0.0250742990162394,0.002074,-0.000733,0.004970,0.075698,-0.008138,317.110106,25.027016,0.999731,0.992845,0.003425,0.376984,-0.000011,0.000061,-0.000003,0.000061,-0.000011,-88.013440,0.000065,
2371,2263,2.5226960135356,-8.33707467480998,0.00207184643477376,0.002078,-0.000460,-0.000465,0.096642,-0.018521,326.870263,23.221965,0.999363,0.986508,0.004726,0.291577,-0.000006,-0.000006,-0.000005,-0.000001,-0.000011,-43.854976,0.000013,
2401,2158,3.2001143123967,-10.6409059478991,0.0229911919649339,0.002580,-0.000380,0.001035,0.114225,-0.019310,328.783736,22.714962,0.999300,0.979287,0.005343,0.327407,-0.000007,-0.000014,-0.000009,-0.000001,-0.000020,-34.231366,0.000024,
2341,1993,1.92011511027397,-14.2612584413783,0.0308869582339639,0.001934,-0.001079,0.004419,0.072750,-0.032126,331.431629,22.676398,0.998427,0.977335,0.006299,0.242512,-0.000011,-0.000029,-0.000033,0.000014,-0.000054,-37.025940,0.000056,
2506,2848,5.34778095514372,4.44030464251513,-0.0175805773264983,0.001858,-0.000664,0.002197,0.076532,-0.012886,317.418747,25.031420,0.999686,0.992283,0.003529,0.306948,-0.000012,0.000058,-0.000007,0.000058,-0.000013,-84.570853,0.000061,
2371,3073,2.3683753648113,9.32077070439347,0.0116125729680903,0.002063,-0.000423,0.001305,0.090110,-0.019513,313.771275,25.427013,0.999610,0.992280,0.003524,0.331128,0.000007,0.000021,0.000010,0.000026,0.000002,63.725381,0.000031,
2326,3028,1.39853390949241,8.34023049276699,0.0102962911048508,0.001856,-0.000518,0.003408,0.073434,-0.015055,314.483509,25.158320,0.999580,0.992079,0.003588,0.343243,0.000003,0.000011,0.000000,0.000011,0.000003,-87.746812,0.000015,
2386,3148,2.68163465457263,10.9484276887887,0.0319753260405946,0.002202,-0.000442,0.001220,0.096744,-0.021593,312.728039,25.666167,0.999642,0.992957,0.003387,0.354237,0.000025,0.000019,0.000012,0.000035,0.000010,38.290748,0.000047,
2491,2638,5.06361253394595,-0.137524748162846,-0.0225082428050314,0.002043,-0.001037,0.005876,0.070772,-0.010015,320.753666,24.108727,0.999508,0.989557,0.004052,0.386344,0.000031,0.000004,-0.000028,0.000048,-0.000013,-31.610147,0.000050,
2356,2248,2.19790059251632,-8.66695024206835,0.0119518269743821,0.001776,-0.001212,0.008695,0.050395,-0.012475,327.143432,23.209767,0.998862,0.981961,0.005411,0.335257,-0.000011,-0.000022,-0.000002,-0.000010,-0.000023,-11.202823,0.000034,
2461,2638,4.40987249431693,-0.138141738923196,-0.0241305937882998,0.001999,-0.000479,0.000332,0.090252,-0.013321,320.684986,24.161247,0.999624,0.989777,0.003925,0.352883,0.000040,0.000019,-0.000021,0.000053,0.000006,-31.249645,0.000065,
2386,2098,2.8825380210763,-11.9557890958296,0.01533991506642,0.001816,-0.000584,0.001996,0.075748,-0.020552,329.633989,22.620208,0.999004,0.974768,0.006019,0.318679,-0.000003,0.000008,-0.000008,0.000012,-0.000007,-62.744871,0.000012,
2401,2383,3.15385912737464,-5.71078175528958,-0.000704796716775036,0.002205,-0.000428,0.003212,0.089296,-0.002647,324.922377,23.446690,0.999199,0.984816,0.004854,0.329438,0.000005,0.000018,-0.000002,0.000018,0.000005,-79.574315,0.000024,
2371,2098,2.5550967138632,-11.9556900859978,0.0172028216168769,0.002155,-0.000944,0.004068,0.083854,-0.020889,329.646952,22.715003,0.999199,0.978131,0.005643,0.314408,-0.000008,0.000004,-0.000007,0.000007,-0.000011,-64.968680,0.000011,
2146,2653,-2.44987516208786,0.177001997337534,-0.0239448058010225,0.001675,-0.000854,0.003758,0.065430,-0.014117,320.693412,24.323450,0.999696,0.991259,0.003733,0.426721,0.000018,0.000019,0.000005,0.000024,0.000013,50.059324,0.000038,
2476,2728,4.71881432078925,1.82480509486204,-0.0199300595895693,0.002148,-0.000512,0.003086,0.086662,-0.007121,319.285363,24.517646,0.999618,0.991490,0.003619,0.333523,0.000003,0.000030,-0.000005,0.000031,0.000002,-80.611887,0.000037,
2371,3163,2.35235774501953,11.2729058262367,0.0302222687114408,0.002058,-0.000531,0.003893,0.080735,-0.001852,312.444045,25.634832,0.999541,0.992015,0.003613,0.380611,0.000021,0.000018,0.000008,0.000027,0.000012,39.483900,0.000040,
2251,3163,-0.252803477058823,11.2628345267856,0.0352958228534703,0.001981,-0.000604,0.002736,0.082099,-0.013984,312.587886,25.151677,0.999192,0.990520,0.003893,0.317396,-0.000001,0.000015,-0.000002,0.000016,-0.000001,-82.572048,0.000018,
2386,3238,2.66249883493032,12.9021600161332,0.0135028892266291,0.001894,-0.000206,0.000738,0.084541,0.002262,311.083848,25.908287,0.999628,0.993261,0.003236,0.387942,0.000023,-0.000005,0.000005,0.000024,-0.000005,9.921114,0.000025,
2476,2488,4.76847218632765,-3.41429609959123,-0.0118683674033946,0.001874,-0.000273,-0.001404,0.091111,-0.006182,323.263056,23.514021,0.999592,0.987113,0.004313,0.420588,0.000024,-0.000016,-0.000007,0.000025,-0.000017,-9.771405,0.000025,
2386,2323,2.83657189523768,-7.02367858992408,-0.00642416957924752,0.001263,-0.000870,0.006032,0.035963,0.005348,325.778633,23.229178,0.999674,0.992710,0.003801,0.423930,-0.000003,0.000004,0.000001,0.000004,-0.000003,86.107445,0.000005,
2341,2008,1.91682476018374,-13.9315352056683,0.0332223348321463,0.001428,-0.000811,0.006535,0.042348,0.005925,331.179037,22.728140,0.998419,0.975506,0.006508,0.269347,0.000002,-0.000027,-0.000028,0.000019,-0.000044,-31.592025,0.000044,
2311,3238,1.03493309840178,12.8944010765084,0.0298407380689696,0.001720,-0.000503,0.004257,0.064478,-0.009595,311.210269,25.548431,0.999463,0.992465,0.003390,0.346341,0.000011,0.000013,0.000002,0.000014,0.000010,57.989465,0.000024,
2461,2323,4.47570945691767,-7.02486672353788,0.00514970533583892,0.002078,-0.000989,0.004143,0.079181,-0.019620,326.034001,22.947230,0.999080,0.979011,0.005497,0.391012,-0.000008,0.000010,0.000000,0.000010,-0.000008,-89.773918,0.000010,
2491,2653,5.0608537694186,0.190038728516591,-0.0200381354095498,0.002152,-0.000689,0.005809,0.076196,0.006170,320.535214,24.203758,0.999443,0.988556,0.004273,0.366861,0.000032,0.000013,-0.000032,0.000055,-0.000011,-36.589402,0.000058,
2431,2503,3.78435168937211,-3.08917841959052,-0.00157057987621556,0.002041,-0.001130,0.004430,0.076783,-0.036968,322.998559,23.638757,0.999375,0.986579,0.004455,0.416173,0.000013,-0.000022,-0.000022,0.000024,-0.000032,-25.976363,0.000034,
2296,3148,0.725752904853739,10.9413901381739,0.0284020644925818,0.001666,-0.000615,0.004766,0.060380,-0.010695,312.683846,25.293290,0.999622,0.993526,0.003453,0.350567,0.000009,0.000012,-0.000003,0.000013,0.000007,-59.455240,0.000021,
2461,2653,4.40713313352999,0.188889455778678,-0.0201549052850396,0.002089,-0.000488,0.001913,0.088449,-0.005727,320.472247,24.228453,0.999593,0.989703,0.003947,0.348305,0.000035,0.000025,-0.000024,0.000054,0.000005,-39.049411,0.000066,
2401,2173,3.19643286918999,-10.3116281075407,0.018462592763683,0.002287,-0.000608,0.002358,0.095936,-0.025816,328.485523,22.757123,0.999289,0.981720,0.005152,0.327167,-0.000010,-0.000017,-0.000008,-0.000005,-0.000022,-34.543981,0.000029,
2341,3073,1.71585816556954,9.31872043168933,0.00690608645049906,0.001787,-0.000488,0.001080,0.078349,-0.008257,313.718270,25.302274,0.999689,0.994262,0.003080,0.360083,0.000001,0.000014,0.000000,0.000014,0.000001,88.999701,0.000016,
2311,2998,1.07865284031131,7.68681556692482,0.0133281617624448,0.002043,-0.000681,0.002572,0.084981,-0.019505,315.020957,25.006519,0.999894,0.996623,0.002785,0.380987,0.000000,0.000015,0.000001,0.000015,0.000000,86.481573,0.000018,
2446,2578,4.09477462705383,-1.44723091080884,-0.0237186154185451,0.002426,-0.000818,0.007851,0.081720,0.018179,321.624663,23.985896,0.999671,0.991594,0.003920,0.359650,0.000032,-0.000002,-0.000011,0.000035,-0.000006,-16.631418,0.000038,
2356,3148,2.02957919835569,10.9461219523904,0.0288506372604616,0.002371,-0.000821,0.003880,0.095166,-0.022246,312.690164,25.539703,0.999544,0.992334,0.003630,0.350873,0.000020,0.000019,0.000006,0.000025,0.000014,43.983311,0.000040,
2506,2878,5.34230906059004,5.09176397996256,-0.0107677332883895,0.002011,-0.000456,0.002342,0.083050,-0.014706,316.992861,25.056734,0.999689,0.993341,0.003376,0.401298,-0.000011,0.000061,0.000001,0.000061,-0.000011,89.494481,0.000065,
2401,3298,2.97420053926168,14.2054972168141,-0.0211999090353743,0.002346,-0.000511,0.001866,0.101008,-0.026268,309.834416,26.105451,0.999718,0.993022,0.003446,0.416258,0.000026,-0.000034,0.000000,0.000026,-0.000034,0.279038,0.000036,
2191,2638,-1.46787095322892,-0.1482838912764,-0.0182663087804258,0.002236,0.000044,0.001053,0.099516,0.004240,320.860939,24.307586,0.999446,0.989105,0.004194,0.420622,0.000012,0.000020,0.000013,0.000030,0.000003,53.351936,0.000037,
2371,2113,2.55187119152193,-11.6264114620881,0.0180477168719904,0.001692,-0.000597,0.003642,0.064310,-0.001673,329.392442,22.767339,0.999194,0.978017,0.005594,0.325470,-0.000009,-0.000002,-0.000007,0.000002,-0.000013,-59.052121,0.000014,
2266,3253,0.0557284864186407,13.2156462544908,0.024813942546416,0.002115,-0.000377,0.004104,0.083803,0.002369,310.999132,25.323652,0.999796,0.993927,0.003245,0.373981,0.000006,0.000018,0.000005,0.000020,0.000004,69.979304,0.000025,
2416,2443,3.46855463807183,-4.39909867207344,-0.0049322304014936,0.001747,-0.000703,0.003277,0.067827,-0.006973,323.911765,23.535069,0.999489,0.987153,0.004549,0.385183,0.000015,-0.000009,0.000000,0.000015,-0.000009,-0.848445,0.000015,
2401,3208,2.99553847021361,12.2511752224052,0.0356252792665259,0.001782,-0.000589,0.003979,0.067357,-0.015514,311.756790,25.884619,0.999464,0.992157,0.003639,0.383129,0.000030,0.000007,0.000011,0.000034,0.000002,21.382691,0.000041,
2341,2173,1.88438617595994,-10.3100376557911,0.0117366132932375,0.001548,-0.000804,0.007704,0.043851,0.001842,328.344013,23.060480,0.999231,0.983544,0.005063,0.371568,-0.000011,-0.000015,-0.000009,-0.000004,-0.000023,-38.612829,0.000029,
2341,2893,1.74857959669108,5.40936840399439,-0.0171756222413251,0.002105,0.000050,-0.003470,0.108988,0.010813,316.487586,24.850723,0.999445,0.991304,0.003771,0.400180,-0.000011,0.000009,-0.000005,0.000010,-0.000012,-76.492964,0.000013,
2461,2413,4.45788839621449,-5.05573745818531,0.00555290838184419,0.002416,-0.000854,0.004078,0.095016,-0.001292,324.594548,23.267562,0.999555,0.987140,0.004634,0.426108,0.000003,0.000028,0.000001,0.000028,0.000003,88.567609,0.000034,
2356,2038,2.23961112197549,-13.2729628302913,0.022987177574521,0.002087,-0.000010,-0.002662,0.104845,-0.045660,330.676363,22.661395,0.999044,0.978017,0.005808,0.265171,0.000007,-0.000032,-0.000014,0.000011,-0.000036,-17.793852,0.000037,
2356,2263,2.19534016257849,-8.33852605947092,0.00840386245914715,0.001821,-0.000679,0.002220,0.075402,-0.014362,326.896700,23.212841,0.999306,0.985074,0.004911,0.371406,-0.000010,-0.000014,-0.000011,-0.000001,-0.000023,-41.070245,0.000027,
2446,2353,4.14294989821797,-6.36863032755821,0.0087546186880445,0.002148,-0.000422,-0.001057,0.102155,-0.027745,325.569574,23.131428,0.999426,0.982550,0.005162,0.364636,-0.000014,0.000016,-0.000001,0.000016,-0.000014,-88.781782,0.000018,
2446,2293,4.15462677799932,-7.68243648791803,0.0131726979508358,0.001808,-0.000601,0.003465,0.069660,0.000017,326.545389,22.890982,0.999273,0.980301,0.005461,0.416356,-0.000014,-0.000018,0.000002,-0.000013,-0.000019,24.602086,0.000032,
2386,2338,2.83527888734983,-6.69608307940463,0.00289398378794203,0.001725,-0.000347,0.000911,0.075649,-0.014955,325.653577,23.329965,0.999156,0.986024,0.004665,0.347510,-0.000005,-0.000002,0.000001,-0.000002,-0.000005,73.396177,0.000007,
2491,2803,5.02964681579173,3.45985468431751,-0.0266925909187421,0.002057,-0.000581,0.003089,0.082335,-0.006502,318.039888,24.785907,0.999252,0.987250,0.004508,0.362927,-0.000017,0.000022,-0.000026,0.000035,-0.000030,-63.526601,0.000038,
2476,2503,4.76582728804575,-3.08711858233317,-0.00714527342876181,0.002110,-0.000558,0.001208,0.091882,-0.016933,323.059913,23.574295,0.999638,0.988087,0.004216,0.407174,0.000026,-0.000022,-0.000009,0.000027,-0.000024,-10.311331,0.000030,
2416,1993,3.56161137028713,-14.2650507627617,0.0459139793642294,0.002037,-0.000468,0.001039,0.089172,-0.030326,331.629179,22.169307,0.999088,0.975212,0.006128,0.217956,-0.000032,0.000008,-0.000017,0.000014,-0.000038,-70.182784,0.000038,
2386,3163,2.67820511846633,11.2741267477782,0.0289050384024563,0.001985,-0.000428,0.002105,0.083652,-0.005357,312.443131,25.690779,0.999448,0.991684,0.003702,0.387787,0.000023,0.000017,0.000012,0.000032,0.000008,38.027572,0.000042,
2506,2893,5.33993013387831,5.41881895116136,-0.00639526576350136,0.002226,-0.000331,0.000708,0.099371,0.002805,316.800210,25.185701,0.999574,0.990752,0.003918,0.350571,0.000001,0.000050,0.000005,0.000050,0.000000,83.862036,0.000058,
2311,3013,1.07473217373288,8.0140601731298,0.0015824844192025,0.001809,-0.000767,0.002958,0.072862,-0.028224,314.664893,25.098389,0.999508,0.991442,0.003644,0.311869,0.000002,0.000011,0.000002,0.000012,0.000002,79.501182,0.000014,
2161,2488,-2.09558920153002,-3.42008065329086,-0.0153519618399969,0.001873,-0.000682,0.003044,0.076566,0.011895,323.390880,24.195051,0.999030,0.986510,0.004785,0.452699,0.000004,0.000010,-0.000003,0.000011,0.000003,-68.528581,0.000015,
2431,2113,3.86395559944868,-11.6285761587373,0.026103382080862,0.001915,-0.000695,0.003589,0.074106,-0.015713,329.538642,22.412178,0.999409,0.979539,0.005779,0.310747,-0.000011,0.000018,-0.000005,0.000019,-0.000011,-79.983546,0.000019,
2476,2743,4.71522563422793,2.15158368583112,-0.0255792070825009,0.002048,-0.000606,0.002704,0.083505,-0.005095,318.990494,24.516259,0.999721,0.992398,0.003542,0.394200,-0.000001,0.000038,-0.000007,0.000040,-0.000002,-79.909764,0.000044,
2416,2458,3.46522545806259,-4.07037593133521,-0.0116066607952234,0.001847,-0.000287,0.002584,0.075123,0.006307,323.619673,23.592308,0.999450,0.986653,0.004613,0.390716,0.000018,-0.000008,-0.000001,0.000019,-0.000008,-2.663763,0.000019,
2401,3223,2.99225058864766,12.5767954368736,0.0295388225777629,0.001750,-0.000606,0.002042,0.072886,-0.025572,311.465042,25.927064,0.999508,0.992371,0.003500,0.374830,0.000029,-0.000001,0.000008,0.000031,-0.000003,14.343822,0.000034,
2506,2908,5.33562236095732,5.74543161324016,-0.0135352467869438,0.001848,-0.000591,0.003363,0.071556,-0.017923,316.467284,25.233237,0.999557,0.989410,0.004038,0.342881,0.000004,0.000025,0.000009,0.000028,0.000001,68.780796,0.000033,
2491,2668,5.05794768471482,0.516632963830148,-0.0215020548323537,0.002037,-0.000238,0.000974,0.089596,-0.000728,320.292446,24.204393,0.999438,0.987330,0.004364,0.418694,0.000025,0.000008,-0.000036,0.000054,-0.000021,-38.169919,0.000055,
2371,2128,2.54929036395314,-11.2978301362242,0.016761440629125,0.001941,-0.000527,0.001995,0.081567,-0.016821,329.157503,22.772451,0.999365,0.981812,0.005230,0.349081,-0.000008,0.000000,-0.000004,0.000002,-0.000009,-67.896816,0.000010,
2341,2188,1.88224970207238,-9.98069699382602,0.0122154212333498,0.001890,-0.000773,0.003813,0.073055,-0.021360,328.135021,23.183303,0.999290,0.985688,0.004850,0.264711,-0.000012,-0.000012,-0.000012,0.000000,-0.000024,-45.143607,0.000028,
2416,2203,3.51769522779971,-9.6542020118309,0.0170144598723141,0.001708,-0.000135,0.000527,0.076207,0.003838,327.988295,22.729189,0.999385,0.982788,0.005126,0.405874,-0.000010,-0.000017,-0.000011,-0.000002,-0.000026,-36.012951,0.000031,
2371,3178,2.34925073492055,11.5986143145996,0.0257944516236535,0.002093,-0.000348,0.002858,0.086070,-0.004481,312.166251,25.675053,0.999548,0.992358,0.003476,0.377698,0.000022,0.000021,0.000009,0.000030,0.000013,42.523936,0.000044,
2281,3268,0.377301782349623,13.5426537999052,0.0104871098089347,0.002029,-0.000331,0.003994,0.080041,-0.001890,310.605406,25.406592,0.999782,0.993433,0.003283,0.393113,0.000015,0.000023,0.000002,0.000023,0.000015,79.019704,0.000038,
2356,2053,2.23771771069486,-12.9450713200624,0.0383956590246726,0.002072,-0.000206,0.000427,0.093247,-0.023477,330.551710,22.724518,0.999153,0.979865,0.005403,0.265893,0.000006,-0.000032,-0.000007,0.000008,-0.000033,-10.649837,0.000035,
2401,2398,3.15090981129406,-5.38323151511079,-0.000303450771184544,0.002065,-0.000496,0.002235,0.086368,-0.000716,324.680044,23.453385,0.999305,0.985566,0.004790,0.371859,0.000007,0.000014,-0.000005,0.000016,0.000005,-62.018118,0.000022,
2341,2908,1.74605189379714,5.73520297485045,-0.0104205906762331,0.002380,-0.000476,0.003016,0.098772,-0.002742,316.289306,24.918126,0.999297,0.990680,0.003912,0.355296,-0.000010,0.000008,-0.000006,0.000009,-0.000012,-74.029013,0.000013,
2431,2518,3.78183569078438,-2.76159961355562,7.98377858473032E-05,0.002080,-0.000507,0.000919,0.091764,-0.025299,322.783753,23.689013,0.999128,0.984347,0.004804,0.428655,0.000015,-0.000023,-0.000019,0.000023,-0.000031,-22.421727,0.000032,
2446,2308,4.15121429705008,-7.35102088026826,0.00359349434637579,0.001931,-0.000065,0.000139,0.087905,0.008881,326.239557,23.113970,0.999235,0.980418,0.005328,0.256639,-0.000014,-0.000011,-0.000002,-0.000010,-0.000015,-63.260756,0.000026,
2476,2398,4.78745466637794,-5.38159824301,-0.000899101381662604,0.001961,-0.000518,0.002983,0.078310,-0.005173,324.802133,23.292663,0.999593,0.986758,0.004655,0.294334,0.000000,0.000024,-0.000006,0.000025,-0.000001,-76.112655,0.000029,
2386,2353,2.83255869563563,-6.36860361493459,0.00257049825205513,0.002001,-0.000426,0.001973,0.084457,-0.010539,325.417291,23.305132,0.998904,0.982526,0.005173,0.421946,0.000000,0.000007,0.000005,0.000010,-0.000003,61.017178,0.000010,
2416,2008,3.55834792140805,-13.9371785658976,0.0484385578999991,0.001644,-0.000538,0.002753,0.064913,-0.016029,331.385152,22.077934,0.999050,0.973944,0.006228,0.375025,-0.000021,0.000013,-0.000019,0.000022,-0.000029,-65.679087,0.000031,
2491,2818,5.02698855650083,3.785809930173,-0.0228783453838446,0.002155,-0.000578,0.003153,0.086639,-0.004157,317.831570,24.805373,0.999364,0.988006,0.004449,0.404599,-0.000012,0.000034,-0.000018,0.000040,-0.000018,-71.401308,0.000040,
2176,2803,-1.82219264375823,3.44335414658859,-0.0205110386479532,0.001884,0.000146,-0.001870,0.092603,0.004667,318.204388,24.479950,0.999389,0.990195,0.004204,0.396857,-0.000002,0.000000,0.000000,0.000000,-0.000002,-87.033258,0.000002,
2371,2278,2.52106293139819,-8.01021218227331,0.0189622394096887,0.002094,-0.000876,0.000852,0.092549,-0.040282,326.765078,23.315300,0.999817,0.993940,0.003506,0.219161,-0.000009,-0.000005,-0.000003,-0.000004,-0.000011,-62.280983,0.000015,
2431,2278,3.82907958350212,-8.01000153412699,0.0031670694044692,0.001793,-0.000790,0.005146,0.062823,-0.011877,326.670091,22.894573,0.999228,0.977922,0.005734,0.411301,-0.000018,-0.000016,-0.000007,-0.000010,-0.000024,-50.107896,0.000035,
2371,3088,2.36540789547566,9.64567454129307,0.0191756001192971,0.001647,-0.000641,0.004713,0.058706,-0.026277,313.558039,25.449323,0.999374,0.990642,0.003919,0.341781,0.000013,0.000023,0.000003,0.000023,0.000013,75.780118,0.000036,
2461,2668,4.40391871558645,0.51533660172511,-0.0222547764503815,0.002073,-0.000477,0.001967,0.087527,-0.018409,320.209991,24.215855,0.999501,0.987410,0.004235,0.403157,0.000029,0.000024,-0.000026,0.000053,0.000000,-42.130669,0.000061,
2311,3253,1.0315078288664,13.2204002136322,0.0188231246425516,0.001825,-0.000287,0.003187,0.073126,0.000364,310.880070,25.585857,0.999517,0.992476,0.003391,0.349688,0.000009,0.000016,0.000002,0.000016,0.000008,74.299943,0.000025,
2236,3103,-0.568887154356826,9.96034882872661,0.0165668125580964,0.002079,-0.000651,0.002785,0.086462,-0.030594,313.449203,24.924768,0.999475,0.993088,0.003456,0.381352,-0.000003,0.000004,-0.000008,0.000009,-0.000009,-56.456046,0.000010,
2461,2428,4.4542491778013,-4.72693069260592,-0.00475542933043016,0.002541,-0.000630,0.002633,0.106275,0.005719,324.276200,23.293361,0.999424,0.985340,0.004757,0.463563,0.000009,0.000020,0.000006,0.000023,0.000006,66.068048,0.000031,
2191,2653,-1.4707867904947,0.178733831031856,-0.0190866082323282,0.002089,-0.000510,0.003374,0.085328,-0.006866,320.596645,24.347846,0.999500,0.990196,0.004019,0.384258,0.000013,0.000022,0.000013,0.000032,0.000004,55.198317,0.000039,
2386,2113,2.87964068632285,-11.6263558850493,0.0189273013364186,0.001705,-0.000287,0.004225,0.062798,0.018489,329.408619,22.696953,0.998736,0.970610,0.006336,0.327188,-0.000005,0.000002,-0.000007,0.000007,-0.000009,-57.624844,0.000010,
2251,3178,-0.255048607249361,11.5872819853276,0.040619813563012,0.002138,-0.000553,0.004078,0.084918,-0.019442,312.390112,25.134021,0.999519,0.992232,0.003404,0.351844,0.000002,0.000017,-0.000001,0.000017,0.000002,-87.050453,0.000021,
2476,2518,4.76274075754423,-2.75931339484646,-0.0076536607473372,0.002066,-0.000728,0.000495,0.092506,-0.031516,322.812611,23.653020,0.999425,0.984962,0.004533,0.371545,0.000025,-0.000022,-0.000004,0.000025,-0.000023,-4.768797,0.000028,
2386,3253,2.65885431279733,13.2278890771178,0.00771043751689149,0.001886,-0.000313,0.004261,0.071405,0.002271,310.775610,25.962198,0.999686,0.992601,0.003283,0.375738,0.000020,0.000002,0.000005,0.000021,0.000001,14.022540,0.000025,
2461,2338,4.47265191978834,-6.69612337240042,0.00540763430655034,0.002024,-0.001178,0.003964,0.077300,-0.027914,325.791121,23.052059,0.999018,0.978457,0.005475,0.334127,-0.000014,0.000003,0.000002,0.000003,-0.000015,83.608176,0.000015,
2506,2923,5.33139993991545,6.07332410381159,-0.0268774034284434,0.001959,-0.000571,0.004533,0.072201,-0.003674,316.110043,25.324673,0.999477,0.986853,0.004213,0.326672,0.000002,0.000012,0.000007,0.000015,-0.000002,62.210289,0.000017,
2341,3088,1.712438830718,9.64391958037977,0.00872009157546927,0.001497,-0.000904,0.006855,0.044647,-0.018234,313.454556,25.318440,0.999637,0.994407,0.003075,0.369603,0.000005,0.000016,-0.000007,0.000020,0.000002,-63.276476,0.000024,
2446,2368,4.13973786797692,-6.03978016899206,0.00563779821317212,0.002289,-0.000506,0.000029,0.104540,-0.030043,325.302667,23.217002,0.999464,0.985403,0.004874,0.330697,-0.000006,0.000021,0.000003,0.000021,-0.000006,82.898947,0.000022,
2296,3163,0.723534053464515,11.2667613463708,0.0366923792698799,0.001518,-0.000286,0.003734,0.057212,0.008927,312.504320,25.351320,0.999701,0.993208,0.003375,0.340823,0.000012,0.000015,-0.000001,0.000015,0.000011,-76.643484,0.000027,
2326,3043,1.39605437699099,8.66560821145277,0.0130295990216496,0.001823,-0.000480,0.001451,0.078778,-0.005363,314.266607,25.165049,0.999645,0.992722,0.003511,0.379993,0.000000,0.000015,0.000001,0.000015,0.000000,85.338067,0.000018,
2311,3028,1.07314537351406,8.3389697497077,0.01072676308479,0.002283,-0.000628,0.002549,0.096124,-0.023962,314.519875,25.106371,0.999568,0.991540,0.003661,0.339605,0.000004,0.000012,0.000002,0.000013,0.000003,76.102824,0.000017,
2446,2593,4.09147695266226,-1.12094094042646,-0.0246723462068985,0.001897,-0.000762,0.004147,0.071298,-0.004756,321.363052,23.955116,0.999723,0.992962,0.003689,0.420477,0.000034,-0.000001,-0.000009,0.000036,-0.000003,-13.248097,0.000040,
2416,2023,3.55401004401369,-13.603630049356,0.036209062588739,0.001429,-0.000491,0.004753,0.047835,0.001444,331.022812,22.339410,0.998783,0.974721,0.006142,0.183083,-0.000009,0.000015,-0.000019,0.000025,-0.000019,-61.099739,0.000026,
2356,3163,2.02672170191982,11.2711264492972,0.0331805693085698,0.002010,-0.000608,0.003593,0.079684,-0.009888,312.465285,25.548329,0.999524,0.992352,0.003725,0.392476,0.000019,0.000020,0.000007,0.000027,0.000013,46.889249,0.000040,
2356,2068,2.23486269478791,-12.615642473129,0.0381102649665195,0.002159,-0.000083,0.001576,0.093243,0.010795,330.307565,22.745082,0.999270,0.980144,0.005322,0.321890,0.000005,-0.000006,-0.000002,0.000005,-0.000007,-9.444315,0.000007,
2401,2413,3.14795451274995,-5.05551992960079,0.0025737651284885,0.001978,-0.000557,0.004476,0.074290,0.003837,324.448980,23.500706,0.999434,0.985890,0.004697,0.376115,0.000004,0.000016,0.000001,0.000016,0.000004,87.317965,0.000021,
2461,2683,4.40036412769237,0.843584132304713,-0.02848409198225,0.001909,-0.000221,0.000078,0.087186,-0.012056,319.912712,24.320498,0.999538,0.988513,0.004141,0.359822,0.000029,0.000027,-0.000024,0.000052,0.000004,-43.796681,0.000063,
2356,2278,2.19146493347027,-8.0079128611919,-0.0102047497129547,0.001843,0.000103,-0.002683,0.093905,-0.004236,326.516976,23.257404,0.999452,0.988996,0.004327,0.378722,-0.000016,-0.000011,-0.000010,-0.000003,-0.000023,-51.483104,0.000029,
2341,2203,1.87944210184179,-9.65196243923707,0.00943310185027713,0.001867,-0.000116,0.000830,0.082610,-0.000600,327.879337,23.178074,0.999125,0.983355,0.005194,0.330176,-0.000015,-0.000006,-0.000009,0.000000,-0.000020,-57.722309,0.000024,
2431,2533,3.77835442210231,-2.43312420973876,0.00169553916470022,0.001680,-0.000844,0.003740,0.062913,-0.025201,322.524256,23.837527,0.999333,0.987428,0.004444,0.331274,0.000019,-0.000015,-0.000018,0.000027,-0.000022,-23.001942,0.000029,
2461,2443,4.45143231026367,-4.39892680366179,-0.000184843121758149,0.002258,-0.000485,0.001155,0.098942,-0.016006,324.063635,23.420022,0.999204,0.985427,0.004772,0.370797,0.000022,-0.000013,0.000008,0.000024,-0.000015,12.493367,0.000024,
2431,2128,3.8620506075925,-11.2998423816838,0.0315247473083105,0.002158,0.000053,-0.001209,0.103197,-0.014253,329.370949,22.487141,0.999514,0.980648,0.005864,0.289742,-0.000010,0.000016,-0.000002,0.000016,-0.000010,-86.597333,0.000016,
2401,2188,3.19345168093694,-9.98249740074891,0.0222830779765673,0.001921,-0.000311,0.002301,0.079521,-0.008303,328.258416,22.855733,0.999316,0.983500,0.005028,0.294426,-0.000009,-0.000014,-0.000011,0.000000,-0.000023,-37.819064,0.000026,
2416,2473,3.46279955072084,-3.74437288848274,-0.00167478719282599,0.001522,-0.000433,0.002049,0.062108,-0.012712,323.447072,23.591547,0.999301,0.986346,0.004635,0.421017,0.000013,-0.000014,-0.000009,0.000016,-0.000017,-17.241422,0.000019,
2506,2938,5.32964932002112,6.39848521393234,-0.0124079907349142,0.001971,-0.000419,0.003302,0.077559,-0.005402,315.991759,25.382725,0.999586,0.990237,0.003852,0.327337,-0.000001,0.000014,0.000008,0.000017,-0.000005,67.566773,0.000018,
2491,2683,5.05415658974284,0.844197901081813,-0.0252671959520399,0.001931,-0.000724,0.004371,0.071569,-0.000029,319.998309,24.272594,0.999663,0.990582,0.003809,0.410594,0.000023,0.000013,-0.000034,0.000052,-0.000017,-40.892254,0.000053,
2476,2413,4.78480705155254,-5.05484542782028,0.00283631913112004,0.001816,-0.000394,0.000132,0.082535,0.001341,324.594855,23.259079,0.999515,0.987983,0.004517,0.392824,-0.000003,0.000033,0.000003,0.000033,-0.000003,84.971252,0.000036,
2446,2383,4.13609792472805,-5.711037366947,0.0045448516855231,0.001816,-0.000521,0.000869,0.079764,-0.017243,325.025290,23.302759,0.999729,0.988570,0.004492,0.311786,0.000004,0.000019,-0.000006,0.000021,0.000002,-70.685556,0.000025,
2386,3268,2.65559206104001,13.55328136397,0.00581685939948784,0.001718,-0.000355,0.004795,0.061789,0.008310,310.503626,26.005002,0.999700,0.992658,0.003357,0.380820,0.000018,0.000002,0.000006,0.000020,0.000000,19.503473,0.000023,
2281,3283,0.374431026786393,13.8678534983281,0.00443871004301855,0.002217,-0.000292,0.002259,0.094517,-0.006517,310.323005,25.421648,0.999466,0.992748,0.003379,0.399708,0.000011,0.000033,-0.000005,0.000034,0.000010,-78.665976,0.000046,
2431,2293,3.82622195983005,-7.68179425095605,0.0126231715403264,0.001466,-0.001098,0.009041,0.033400,-0.010917,326.476712,23.018167,0.999191,0.980531,0.005393,0.340775,-0.000019,-0.000012,-0.000004,-0.000010,-0.000021,-64.371986,0.000031,
2341,3103,1.71118526437956,9.96892858491668,0.0202006563258692,0.001944,-0.000585,0.003563,0.076862,-0.008591,313.337561,25.361664,0.999593,0.993355,0.003380,0.371627,0.000010,0.000021,-0.000004,0.000023,0.000009,-72.968683,0.000032,
2386,2368,2.82877332336005,-6.03932717238653,-0.00149633494623913,0.001820,-0.000732,0.006862,0.058565,-0.001166,325.114069,23.408742,0.998841,0.983038,0.005118,0.373099,0.000003,0.000017,0.000006,0.000019,0.000000,69.079498,0.000022,
2416,2218,3.51426737583958,-9.32436196341356,0.0106071525223115,0.001727,-0.000606,0.000177,0.078161,-0.019742,327.694177,22.837599,0.999413,0.984029,0.005048,0.324233,-0.000010,-0.000018,-0.000003,-0.000009,-0.000018,-17.094006,0.000028,
2386,2128,2.87683190164296,-11.2976914588103,0.0176280806608133,0.001929,-0.000629,0.004747,0.071091,-0.008733,329.164569,22.721726,0.999084,0.976878,0.005716,0.321466,-0.000004,0.000004,-0.000004,0.000006,-0.000006,-66.103200,0.000007,
2326,3058,1.39309881016211,8.99139429152537,0.00940107837806181,0.001961,-0.000425,0.001675,0.084424,0.012868,313.996454,25.163262,0.999703,0.993909,0.003183,0.433616,0.000000,0.000011,0.000002,0.000011,0.000000,79.213828,0.000013,
2341,2023,1.91431427479568,-13.6034660425624,0.0336925921745319,0.001659,-0.000969,0.006373,0.053460,-0.015507,330.953555,22.672523,0.998689,0.977359,0.006144,0.343657,0.000003,-0.000029,-0.000021,0.000014,-0.000039,-26.454074,0.000040,
2371,3193,2.34690165687336,11.9236470778718,0.0328919057558892,0.002117,-0.000403,0.003456,0.085004,-0.007386,311.978856,25.725200,0.999498,0.992591,0.003485,0.364327,0.000023,0.000020,0.000009,0.000031,0.000012,39.603820,0.000044,
2371,2143,2.54648977080821,-10.9681683174588,0.0160381537368153,0.001955,-0.000447,0.000580,0.087249,0.003257,328.914830,22.852648,0.999149,0.979937,0.005470,0.333035,-0.000007,-0.000002,-0.000005,0.000001,-0.000010,-57.563635,0.000011,
2371,2293,2.51850185902024,-7.68225445423015,0.0216133120426321,0.002326,-0.000618,0.002673,0.096871,-0.017240,326.549096,23.323717,0.999788,0.994413,0.003411,0.277006,-0.000008,-0.000005,-0.000001,-0.000004,-0.000009,-74.809037,0.000013,
2431,2548,3.77606832679752,-2.1054933222433,0.00324621549737003,0.002086,-0.000620,0.001781,0.088833,-0.022301,322.319427,23.909586,0.999689,0.990138,0.003921,0.312898,0.000018,-0.000010,-0.000018,0.000027,-0.000019,-25.360974,0.000027,
2506,2953,5.32783181524372,6.72387266240797,-0.00456304138361929,0.002344,-0.000309,0.000494,0.105628,-0.008162,315.840618,25.418490,0.999617,0.990879,0.003815,0.349164,0.000011,0.000023,0.000013,0.000031,0.000003,57.203391,0.000038,
2491,2833,5.02378716972938,4.11237950980061,-0.0243637942388659,0.001923,-0.000385,0.000412,0.086519,-0.015986,317.574166,24.859434,0.999397,0.988549,0.004237,0.397507,-0.000007,0.000047,-0.000012,0.000049,-0.000010,-78.215668,0.000052,
2491,2698,5.05086448023939,1.1719936441702,-0.0284419003572225,0.001778,-0.000729,0.001849,0.074176,-0.021863,319.729695,24.394414,0.999693,0.990383,0.003858,0.326185,0.000019,0.000039,-0.000033,0.000064,-0.000005,-53.371596,0.000071,
2401,2428,3.14502498981843,-4.72780824180035,-0.000191106354236581,0.002066,-0.000758,0.002926,0.083806,-0.025084,324.192636,23.532790,0.999434,0.985120,0.004751,0.362243,0.000007,0.000010,0.000001,0.000010,0.000007,77.802684,0.000017,
2401,3238,2.98925677514439,12.9028300930582,0.0257903077973651,0.002144,-0.000374,0.004094,0.083653,-0.009191,311.197686,25.999174,0.999474,0.992713,0.003409,0.363438,0.000027,-0.000008,0.000003,0.000027,-0.000009,4.862289,0.000028,
2476,2533,4.75935504570171,-2.43066875088215,-0.0115651352273289,0.002111,-0.000361,0.001028,0.092707,-0.004204,322.535777,23.741357,0.999655,0.988634,0.003990,0.368480,0.000031,-0.000013,-0.000004,0.000031,-0.000013,-4.978641,0.000032,
2476,2428,4.78151247738956,-4.72645753690551,0.000207371785393207,0.001878,-0.000306,0.001053,0.081917,0.016474,324.328715,23.311155,0.999425,0.987534,0.004515,0.414011,0.000004,0.000024,0.000010,0.000028,-0.000001,67.287036,0.000032,
2416,2488,3.45930158682413,-3.41608728210654,-0.00968754943619388,0.001707,-0.000789,0.003164,0.066400,-0.030238,323.141015,23.637790,0.999371,0.987148,0.004443,0.406504,0.000022,-0.000017,-0.000013,0.000026,-0.000021,-16.277600,0.000027,
2401,2203,3.19052132080519,-9.65443817950472,0.0216662227433631,0.001943,-0.000310,0.002159,0.081025,-0.013765,328.012976,22.837667,0.999161,0.982012,0.005288,0.355244,-0.000013,-0.000017,-0.000010,-0.000005,-0.000025,-38.145302,0.000032,
2296,3178,0.72086591380026,11.591854743949,0.0321705258912743,0.001892,-0.000517,0.003035,0.076746,-0.002219,312.240466,25.341140,0.999672,0.993238,0.003363,0.368832,0.000014,0.000017,-0.000001,0.000017,0.000014,-75.639905,0.000031,
2461,2698,4.39782607543866,1.17053244963753,-0.0227675450173024,0.001923,-0.000216,0.000036,0.088039,-0.004734,319.716977,24.407895,0.999710,0.988952,0.004156,0.334350,0.000028,0.000043,-0.000022,0.000059,0.000012,-54.352642,0.000076,
2416,2233,3.51148783023786,-8.99641583034553,0.0172794713930102,0.001749,-0.000962,0.005028,0.061330,-0.021722,327.490773,22.892631,0.999438,0.984823,0.004978,0.317190,-0.000010,-0.000015,0.000003,-0.000009,-0.000016,24.989686,0.000025,
2446,2608,4.08917971557654,-0.794441118417311,-0.00906210282420261,0.001758,-0.001342,0.009407,0.045070,-0.002335,321.223491,24.065428,0.999424,0.988854,0.004197,0.365181,0.000028,0.000013,-0.000011,0.000034,0.000007,-28.818156,0.000044,
2416,2038,3.55038573702136,-13.2751087828663,0.0296580968778244,0.001450,-0.000928,0.007001,0.040434,0.004488,330.719893,22.227904,0.998799,0.974649,0.006138,0.349381,-0.000005,0.000011,-0.000016,0.000021,-0.000014,-58.192986,0.000021,
2161,2503,-2.09846400020849,-3.0920523272375,-0.0256304819434945,0.002154,-0.000956,0.002753,0.090284,-0.020339,323.076313,24.214375,0.998966,0.985760,0.004887,0.412658,0.000005,0.000017,-0.000006,0.000019,0.000002,-68.128892,0.000024,
2461,2458,4.44852161617396,-4.07049611732978,0.000703433815260723,0.002079,0.000246,-0.001598,0.101375,0.016073,323.829624,23.502082,0.999377,0.986683,0.004610,0.376612,0.000027,-0.000011,0.000007,0.000028,-0.000012,10.350562,0.000028,
2281,3298,0.371102468163684,14.1937901860084,-0.00246508772806919,0.002092,-0.000412,0.001613,0.090867,-0.015872,310.014908,25.509433,0.999569,0.994468,0.003119,0.328511,0.000015,0.000021,-0.000009,0.000027,0.000009,-55.006933,0.000038,
2356,3178,2.02425676659997,11.5968549327065,0.0288021754715828,0.002359,-0.000318,-0.001317,0.113146,-0.017002,312.216089,25.594642,0.999555,0.992890,0.003580,0.376689,0.000020,0.000023,0.000009,0.000031,0.000013,49.468606,0.000045,
2386,3283,2.65299711061411,13.8779635374806,0.00572682345369913,0.001995,-0.000505,0.004309,0.076199,-0.004316,310.271179,26.014576,0.999680,0.992165,0.003465,0.400386,0.000019,-0.000003,-0.000002,0.000020,-0.000004,-5.404965,0.000021,
2341,2923,1.74300982810476,6.06173887258542,-0.0129829880327179,0.002247,-0.000398,0.001570,0.097743,-0.001166,316.021826,24.971904,0.999133,0.989824,0.004048,0.339190,-0.000011,0.000008,-0.000006,0.000010,-0.000012,-74.232222,0.000013,
2311,3268,1.02872309246798,13.5457908453672,0.012280473784017,0.002170,-0.000249,0.001206,0.095814,0.000677,310.601641,25.606637,0.999524,0.993600,0.003189,0.360064,0.000008,0.000017,0.000003,0.000018,0.000007,73.509956,0.000025,
2446,2398,4.13230578825577,-5.38274156223017,-0.00409900852480405,0.001834,-0.000567,0.002103,0.075958,-0.013470,324.706233,23.289483,0.999678,0.987910,0.004579,0.383094,0.000006,0.000017,-0.000009,0.000022,0.000000,-60.572175,0.000026,
2326,3073,1.39042009017174,9.31774494767804,0.0147716072412436,0.001907,-0.000414,0.004644,0.071660,0.012286,313.782921,25.294622,0.999730,0.995378,0.002811,0.334925,0.000003,0.000014,0.000002,0.000014,0.000002,79.761268,0.000018,
2476,2758,4.71292279630281,2.47631849485138,-0.0151341325653789,0.002076,-0.000913,0.004600,0.077403,-0.024442,318.828252,24.480636,0.999615,0.990322,0.003851,0.466703,0.000003,0.000037,-0.000009,0.000040,0.000001,-75.586642,0.000046,
2356,2083,2.23070874724388,-12.2841499079497,0.0225226418336888,0.002202,-0.000377,0.003519,0.088310,0.008802,329.930529,22.827092,0.999472,0.981950,0.005095,0.280686,0.000003,0.000008,0.000001,0.000008,0.000003,74.831530,0.000012,
2341,2218,1.87709388804996,-9.32380744744216,0.00906385851465075,0.002073,-0.000044,-0.002800,0.104652,-0.007310,327.656518,23.178008,0.998863,0.982282,0.005453,0.362485,-0.000012,0.000000,-0.000003,0.000001,-0.000013,-74.805392,0.000014,
2491,2848,5.02103496222853,4.43956013980174,-0.0183255691948716,0.001909,-0.000556,0.002381,0.078322,-0.005516,317.371083,25.008274,0.999583,0.991966,0.003660,0.317527,-0.000008,0.000047,-0.000018,0.000052,-0.000013,-73.289976,0.000054,
2371,2308,2.51428893672972,-7.35385287906866,0.0144847028120125,0.001871,-0.000908,0.007061,0.060372,-0.002430,326.210687,23.288309,0.999851,0.995675,0.003023,0.370893,-0.000005,-0.000003,-0.000001,-0.000003,-0.000006,-70.145011,0.000009,
2416,2053,3.54841184100851,-12.9463954150441,0.0352081735504157,0.001880,-0.001322,0.005706,0.064666,-0.021165,330.548977,22.303851,0.998722,0.974486,0.006199,0.298456,-0.000003,0.000004,-0.000006,0.000007,-0.000006,-60.185989,0.000008,
2386,3298,2.64870718948299,14.2043332127541,-0.0140379312175014,0.002047,-0.000334,0.002846,0.083908,-0.011725,309.866057,26.072939,0.999698,0.992973,0.003462,0.376350,0.000016,-0.000024,-0.000002,0.000016,-0.000024,-2.121310,0.000025,
2461,2713,4.39479102776984,1.4976462537892,-0.0253644747815542,0.002149,-0.000006,0.000303,0.097538,0.019468,319.460222,24.430017,0.999685,0.990796,0.003864,0.391301,0.000020,0.000044,-0.000015,0.000051,0.000013,-64.416724,0.000067,
2431,2563,3.77262275853979,-1.77790096477673,0.00189536373125065,0.002236,-0.000889,0.008100,0.072341,0.005774,322.047740,23.932169,0.999536,0.989116,0.004132,0.369552,0.000020,-0.000010,-0.000018,0.000029,-0.000018,-24.767756,0.000029,
2386,2143,2.87349914984932,-10.9677383389107,0.0101059566069353,0.001686,0.000041,-0.000279,0.078182,0.010411,328.866666,22.756543,0.999029,0.975167,0.005810,0.352505,-0.000003,0.000001,-0.000005,0.000005,-0.000007,-55.464485,0.000007,
2341,2938,1.74042335915042,6.3861069062859,-0.00455335037662508,0.002070,-0.001123,0.004635,0.078651,-0.027071,315.829329,24.935739,0.999082,0.989261,0.004080,0.385181,-0.000007,0.000009,-0.000005,0.000010,-0.000009,-73.177415,0.000011,
2446,2413,4.13010826691523,-5.05481485211846,0.00378581840925563,0.002181,-0.000392,0.004356,0.083554,0.012602,324.536247,23.383211,0.999679,0.988476,0.004572,0.368808,0.000003,0.000021,-0.000002,0.000021,0.000003,-82.381743,0.000026,
2491,2863,5.01807090171389,4.76501975393881,-0.016154599097888,0.001964,-0.000847,0.003943,0.074742,-0.008526,317.141166,24.987056,0.999610,0.991834,0.003617,0.394427,-0.000005,0.000050,-0.000014,0.000053,-0.000008,-76.823147,0.000057,
2476,2548,4.75628780709118,-2.10350790606734,-0.0117576625700622,0.002098,-0.000209,0.000870,0.092825,0.005637,322.290651,23.749392,0.999590,0.988383,0.004152,0.427885,0.000033,-0.000012,-0.000007,0.000034,-0.000013,-8.593560,0.000034,
2326,3088,1.38809556606445,9.64138197862063,0.0219771126382398,0.001962,-0.000864,0.006290,0.068259,-0.014734,313.595531,25.217199,0.999670,0.994775,0.003027,0.418799,0.000005,0.000015,-0.000005,0.000017,0.000002,-66.367357,0.000021,
2401,1993,3.23304520295826,-14.2642016670703,0.0386966305443366,0.001992,-0.000295,-0.000658,0.093340,-0.018613,331.553349,22.218521,0.998612,0.969422,0.006685,0.287436,-0.000023,-0.000001,-0.000037,0.000027,-0.000050,-53.197644,0.000050,
2416,2068,3.54518664072272,-12.6161654520199,0.02560874959579,0.001995,-0.000616,0.000970,0.087451,-0.017769,330.249884,22.325853,0.998843,0.976656,0.006127,0.331112,-0.000003,0.000018,-0.000003,0.000019,-0.000003,-82.345518,0.000020,
2461,2728,4.39208886966501,1.82435450538749,-0.0197393095897951,0.002164,-0.000327,0.002162,0.091066,-0.000496,319.256490,24.530022,0.999676,0.992350,0.003509,0.325744,0.000013,0.000033,-0.000003,0.000033,0.000012,-80.507814,0.000047,
2341,2233,1.8740869994431,-8.99575397746096,0.0144844822390837,0.001791,-0.000335,0.001591,0.076416,-0.001485,327.431421,23.221412,0.998542,0.979405,0.005733,0.363892,-0.000012,-0.000012,-0.000002,-0.000010,-0.000014,-49.039726,0.000024,
2371,2323,2.51063672451746,-7.0262149439977,0.0138971412498563,0.001273,-0.001460,0.008936,0.026099,-0.022770,325.929358,23.289067,0.999549,0.992423,0.003781,0.392698,-0.000005,0.000002,-0.000001,0.000002,-0.000005,-78.401210,0.000005,
2461,2353,4.46885177543667,-6.36687745909256,-0.00355002236733526,0.002016,-0.001183,0.004163,0.076234,-0.027418,325.471946,23.109098,0.999258,0.982801,0.005234,0.334423,-0.000015,0.000019,0.000001,0.000019,-0.000015,87.646151,0.000020,
2341,3118,1.70906388125653,10.2939987972175,0.0295776552319467,0.001975,-0.000540,0.004071,0.076510,-0.006426,313.170344,25.407386,0.999602,0.993048,0.003479,0.363546,0.000012,0.000025,-0.000003,0.000025,0.000011,-78.845650,0.000037,
2356,2293,2.18934122332811,-7.67860389257076,-0.00635443739042785,0.002521,-0.000235,0.000584,0.113380,-0.006211,326.325533,23.428230,0.999654,0.993544,0.003806,0.246577,-0.000014,-0.000008,-0.000008,-0.000002,-0.000019,-54.657531,0.000024,
2506,2968,5.32455819731794,7.05015512761634,-0.00243141740889996,0.002091,-0.000186,0.001734,0.089278,0.000429,315.596494,25.489136,0.999569,0.990187,0.004027,0.347675,0.000016,0.000027,0.000028,0.000049,-0.000007,50.857865,0.000053,
2431,2143,3.85712441090812,-10.9691829077423,0.0186684176711083,0.001681,-0.000579,0.003958,0.062112,-0.000003,328.979994,22.533736,0.999330,0.980475,0.005574,0.311028,-0.000009,0.000014,-0.000005,0.000015,-0.000010,-77.423284,0.000015,
2446,2623,4.08644083578684,-0.467243167599598,-0.00695043279057472,0.001719,-0.000979,0.007858,0.049201,-0.001768,321.001297,24.129059,0.999539,0.989158,0.004029,0.354797,0.000034,0.000013,-0.000017,0.000043,0.000004,-29.379076,0.000052,
2371,3208,2.34364095556851,12.2486226170053,0.0307928413498644,0.002000,-0.000534,0.004772,0.074863,-0.010823,311.705291,25.720243,0.999429,0.992650,0.003579,0.405532,0.000025,0.000013,0.000008,0.000030,0.000009,27.154749,0.000041,
2431,2308,3.82412341241576,-7.35251812670538,0.0133225130882124,0.001828,-0.000429,0.003288,0.071444,0.003991,326.277374,23.141756,0.999317,0.983586,0.004894,0.283931,-0.000017,-0.000008,-0.000007,-0.000004,-0.000020,-61.987871,0.000027,
2356,2098,2.22707133917557,-11.954437206716,0.0144133084755254,0.002004,-0.000613,0.003240,0.080127,-0.014917,329.613198,22.857956,0.999410,0.981144,0.005240,0.268399,-0.000001,0.000001,-0.000003,0.000003,-0.000003,-51.985860,0.000004,
2296,1993,0.936730132165767,-14.2600237396804,0.0312803350159925,0.001931,-0.000924,0.004316,0.073533,-0.029089,331.454686,22.990510,0.999179,0.965811,0.007152,0.250180,-0.000041,-0.000038,-0.000064,0.000024,-0.000104,-45.638353,0.000109,
2476,2443,4.7779824029825,-4.39766144712927,-0.00538240115560029,0.001979,-0.000526,0.002265,0.081845,-0.026765,324.038416,23.436632,0.999353,0.986312,0.004637,0.303384,0.000020,-0.000016,0.000012,0.000023,-0.000019,16.670456,0.000025,
2386,2383,2.8267169180111,-5.71137649845851,-0.00242167618063149,0.002501,-0.000873,0.003941,0.100165,-0.030572,324.905321,23.465338,0.999078,0.984061,0.005084,0.331745,0.000011,0.000016,0.000000,0.000016,0.000011,84.961669,0.000027,
2401,2443,3.1423060467652,-4.40000251478904,0.00213990738592429,0.002000,-0.000536,0.001896,0.084641,0.004805,323.969617,23.567771,0.999451,0.986905,0.004604,0.404132,0.000013,-0.000009,-0.000002,0.000013,-0.000009,-5.182391,0.000013,
2401,2218,3.18750813956805,-9.32376736431844,0.0169281853759458,0.002041,-0.000023,-0.000357,0.094729,-0.005839,327.743969,23.007322,0.999264,0.982562,0.005365,0.241467,-0.000012,-0.000015,-0.000002,-0.000010,-0.000016,-30.621852,0.000027,
2491,2878,5.01538732366141,5.09040149324166,-0.0123260472473703,0.001706,-0.000371,0.000146,0.077602,-0.023566,316.931599,24.986825,0.999489,0.992913,0.003522,0.438169,-0.000005,0.000049,-0.000010,0.000051,-0.000007,-79.620034,0.000056,
2461,2473,4.44472006377351,-3.74261439228874,-0.00131798675550954,0.002007,-0.000551,0.004812,0.073684,0.010035,323.541556,23.550033,0.999517,0.987649,0.004409,0.378436,0.000015,-0.000015,-0.000001,0.000015,-0.000015,-2.138165,0.000017,
2431,2578,3.76950000793513,-1.44974691581163,-0.00214903089727159,0.002426,-0.001149,0.008151,0.080763,0.005765,321.778298,24.015702,0.999771,0.993050,0.003610,0.336924,0.000022,-0.000003,-0.000015,0.000029,-0.000010,-25.073436,0.000029,
2491,2713,5.04758864637469,1.49834760049156,-0.0293074972701675,0.001879,-0.000832,0.004594,0.068263,-0.016672,319.472361,24.380470,0.999643,0.990065,0.004111,0.404578,0.000008,0.000035,-0.000023,0.000048,-0.000005,-59.905374,0.000053,
2416,2503,3.45605034659875,-3.08730055168262,-0.0165325162129761,0.002127,-0.000887,0.005257,0.077967,-0.017020,322.851460,23.715832,0.999585,0.990335,0.003986,0.390675,0.000019,-0.000020,-0.000013,0.000023,-0.000024,-17.176426,0.000027,
2401,2008,3.22948961937262,-13.9330827672478,0.0307489505180456,0.001983,0.000117,-0.000814,0.093656,0.000724,331.245371,22.299323,0.998466,0.968890,0.006699,0.275585,-0.000014,-0.000002,-0.000040,0.000032,-0.000048,-49.178912,0.000049,
2506,2983,5.32114722856658,7.37603184667809,-0.00436780890419186,0.001975,-0.000478,0.002147,0.082226,-0.012228,315.327867,25.519650,0.999423,0.988729,0.004142,0.364859,0.000022,0.000052,0.000034,0.000074,-0.000001,56.890337,0.000085,
2476,2773,4.70891574415192,2.80545108303684,-0.0259009612389605,0.001854,-0.000795,0.002511,0.075249,-0.018668,318.490195,24.661363,0.999261,0.987277,0.004282,0.348830,-0.000007,0.000025,-0.000009,0.000027,-0.000009,-75.696027,0.000028,
2296,2008,0.933945700463948,-13.9306233479847,0.030826179363487,0.001794,-0.000841,0.003001,0.071668,-0.011213,331.207919,23.000569,0.998965,0.979073,0.005790,0.291692,-0.000028,-0.000041,-0.000051,0.000016,-0.000086,-41.410955,0.000091,
2371,2338,2.50813489765952,-6.69691370361555,0.0066023582702428,0.001890,-0.001017,0.004863,0.069003,-0.021994,325.668400,23.359763,0.999007,0.986541,0.004726,0.365919,-0.000006,-0.000004,-0.000002,-0.000003,-0.000007,-60.791200,0.000010,
2356,3193,2.02091717827897,11.922964492977,0.02708845801493,0.002214,-0.000247,0.001350,0.097134,0.002480,311.939305,25.669797,0.999558,0.992569,0.003533,0.358564,0.000021,0.000023,0.000010,0.000032,0.000012,48.926403,0.000046,
2431,2158,3.85541664000757,-10.6425474882701,0.0302570919266714,0.001796,-0.000357,0.001455,0.076677,-0.019921,328.850023,22.514821,0.999295,0.980125,0.005535,0.362265,-0.000009,-0.000006,-0.000014,0.000006,-0.000021,-48.539078,0.000022,
2476,2563,4.75307702328838,-1.77539432213278,-0.0131507238264703,0.002660,-0.000936,0.007995,0.091245,0.004815,322.033272,23.849763,0.998633,0.983754,0.005054,0.384502,0.000036,-0.000005,-0.000007,0.000037,-0.000007,-9.268797,0.000040,
2386,2158,2.87106943664148,-10.6391757916905,0.015109020322484,0.002002,-0.000722,0.002804,0.081334,-0.028673,328.669721,22.862659,0.999295,0.980138,0.005386,0.252961,-0.000002,-0.000014,-0.000008,0.000002,-0.000018,-28.006764,0.000020,
2491,2893,5.01182789164813,5.41871687697695,-0.0225578270629967,0.002156,-0.000667,0.000921,0.095177,-0.025220,316.617469,25.144905,0.998752,0.988123,0.004312,0.336943,0.000003,0.000041,-0.000005,0.000042,0.000002,-82.838281,0.000050,
2431,2323,3.82082162948036,-7.02486334558367,0.00772148934231609,0.001752,-0.000291,0.000867,0.076963,0.006529,325.993864,23.072095,0.999230,0.982670,0.004959,0.408086,-0.000013,0.000008,-0.000005,0.000009,-0.000014,-77.225582,0.000014,
2401,2233,3.18423117305369,-8.99565006238021,0.0153532008079651,0.001945,-0.000511,0.001373,0.083899,-0.021952,327.478051,23.006342,0.999307,0.983582,0.005237,0.274484,-0.000011,-0.000013,0.000003,-0.000009,-0.000016,39.757760,0.000025,
2431,2593,3.76629417909738,-1.12383517764708,-0.0038650869518051,0.001738,-0.000349,0.000974,0.075994,-0.016015,321.516250,23.940750,0.999614,0.991279,0.003879,0.440819,0.000024,-0.000002,-0.000012,0.000028,-0.000006,-21.652667,0.000030,
2401,2458,3.13901836697436,-4.07182282892121,-0.00718585325023469,0.002343,-0.000572,0.001517,0.101726,-0.007366,323.665704,23.575351,0.999524,0.986669,0.004657,0.431516,0.000016,-0.000009,-0.000002,0.000016,-0.000009,-4.716491,0.000016,
2386,2398,2.82402932514949,-5.38444463302609,0.00364792724730023,0.002085,-0.000615,0.002208,0.087442,-0.020290,324.700688,23.461254,0.999273,0.985662,0.004823,0.391059,0.000013,0.000013,-0.000002,0.000015,0.000011,-48.341557,0.000026,
2446,2428,4.12596707206405,-4.72571335158072,-0.00932859842845346,0.002141,-0.000873,0.004584,0.080701,-0.018383,324.180453,23.447597,0.999302,0.985873,0.004789,0.327618,0.000009,0.000015,0.000002,0.000016,0.000008,74.561713,0.000025,
2416,2248,3.5089032058397,-8.66781827920651,0.0171976048401916,0.001852,-0.000502,0.001716,0.078339,-0.003961,327.264602,22.922350,0.999284,0.982800,0.005175,0.355525,-0.000008,-0.000018,0.000000,-0.000008,-0.000018,-2.088789,0.000026,
2506,2998,5.31829803898984,7.70224729482741,-0.00329439483164151,0.001979,-0.000454,0.000345,0.089387,-0.018111,315.098411,25.599353,0.999523,0.990081,0.003856,0.339716,0.000022,0.000050,0.000039,0.000078,-0.000005,54.949061,0.000087,
2371,2158,2.5441264499222,-10.6399072868172,0.0224542380981347,0.002181,-0.000922,0.003481,0.087152,-0.017571,328.726488,22.927489,0.999390,0.982332,0.005329,0.281022,-0.000008,-0.000015,-0.000009,-0.000001,-0.000021,-33.827411,0.000025,
2476,2788,4.70627100214162,3.13257653651527,-0.0254868161412674,0.002093,-0.000328,0.000920,0.092499,0.006601,318.265898,24.730628,0.999329,0.986331,0.004334,0.361388,-0.000010,0.000018,-0.000014,0.000024,-0.000016,-67.372476,0.000025,
2476,2458,4.77527249520078,-4.06997750726577,-0.00506079556726036,0.002171,-0.000402,0.000721,0.096544,-0.021343,323.812453,23.472098,0.999319,0.986980,0.004575,0.331295,0.000026,-0.000011,0.000011,0.000029,-0.000014,14.819084,0.000029,
2371,3223,2.34030038545115,12.5743056440221,0.0301259771953823,0.001646,-0.000673,0.005463,0.056116,-0.003310,311.434615,25.781932,0.999585,0.993231,0.003309,0.390915,0.000024,0.000008,0.000006,0.000027,0.000006,19.315391,0.000035,
2416,2518,3.45380580156535,-2.76061429632649,-0.0120998192364823,0.002247,-0.000666,0.002488,0.093701,-0.020004,322.661154,23.724854,0.999371,0.987894,0.004401,0.427308,0.000020,-0.000022,-0.000012,0.000023,-0.000025,-15.306231,0.000028,
2416,2083,3.54253111904966,-12.2857991243861,0.0235574979330977,0.002267,-0.000210,-0.001458,0.108935,-0.023662,330.011992,22.459580,0.998693,0.977383,0.006171,0.242424,-0.000004,0.000029,0.000000,0.000029,-0.000005,89.307392,0.000031,
2491,2728,5.04466437896393,1.82596399821447,-0.0295086150543966,0.001996,-0.000846,0.003901,0.076304,-0.018274,319.233862,24.499315,0.999616,0.992014,0.003568,0.343110,-0.000001,0.000022,-0.000014,0.000029,-0.000008,-64.778172,0.000030,
2446,2638,4.08306394909767,-0.139325976366223,-0.0146624369141932,0.001718,-0.000782,0.004715,0.060946,-0.017390,320.704370,24.196257,0.999590,0.990209,0.003932,0.324826,0.000035,0.000020,-0.000024,0.000052,0.000002,-36.639043,0.000062,
2371,2353,2.50560327325839,-6.36928397048962,0.00982768937342371,0.001871,-0.000564,0.003640,0.072637,-0.007349,325.456372,23.372716,0.998986,0.985743,0.004843,0.410550,-0.000001,0.000005,0.000004,0.000007,-0.000003,66.562337,0.000007,
2341,3133,1.70575081639573,10.6197874178897,0.0256164121791471,0.001873,-0.000459,0.005116,0.068188,-0.004626,312.883073,25.440484,0.999472,0.992548,0.003592,0.367867,0.000013,0.000027,-0.000001,0.000027,0.000013,-86.609493,0.000040,
2431,2173,3.85209227831652,-10.3129549799589,0.0283764101093311,0.001853,-0.001072,0.004413,0.068115,-0.048978,328.583388,22.636090,0.999404,0.983234,0.004967,0.264647,-0.000015,-0.000009,-0.000017,0.000005,-0.000030,-49.670158,0.000032,
2461,2488,4.4418450038444,-3.41513666839959,-0.00315932136368247,0.002007,-0.000257,0.001141,0.087630,0.000577,323.296860,23.571017,0.999576,0.986130,0.004543,0.403498,0.000025,-0.000018,-0.000010,0.000028,-0.000020,-12.857268,0.000029,
2461,2368,4.46665976024812,-6.03899321360961,0.00700053846026094,0.002017,-0.000863,0.004538,0.075010,-0.007531,325.315569,23.217724,0.999614,0.987207,0.004852,0.301280,-0.000005,0.000022,0.000006,0.000024,-0.000007,77.485561,0.000024,
2431,2338,3.81758532652922,-6.69586896202447,0.00394541959065009,0.001892,-0.000728,0.001924,0.079296,-0.015940,325.721655,23.173865,0.999198,0.983265,0.004782,0.335858,-0.000017,0.000001,-0.000003,0.000001,-0.000018,-79.944464,0.000020,
2491,2908,5.00892052679418,5.74507632984076,-0.0137852594073138,0.001755,-0.000630,0.002933,0.068987,-0.039047,316.419475,25.277656,0.999124,0.986968,0.004449,0.248277,0.000003,0.000023,0.000001,0.000023,0.000003,86.001815,0.000029,
2386,2173,2.86791991805338,-10.3106976321383,0.00805872883250913,0.002050,-0.000299,-0.000228,0.094569,-0.026033,328.382545,22.796182,0.999460,0.983766,0.005062,0.368337,-0.000006,-0.000017,-0.000009,-0.000001,-0.000022,-29.507511,0.000025,
2491,2743,5.04125963957308,2.15283178764226,-0.0326034940237605,0.001938,-0.000953,0.004015,0.073199,-0.012676,318.960272,24.523710,0.999720,0.991742,0.003610,0.383506,-0.000010,0.000038,-0.000019,0.000044,-0.000016,-70.768441,0.000045,
2371,3238,2.3375402353999,12.9002215742506,0.0265808754263617,0.001851,-0.000123,0.003017,0.074502,0.014564,311.176704,25.842273,0.999779,0.994112,0.003012,0.388221,0.000022,0.000001,0.000001,0.000022,0.000000,3.400920,0.000026,
2386,2413,2.82139161085408,-5.05676026790456,0.00693969281036289,0.002144,-0.000440,0.003026,0.087269,-0.005584,324.485002,23.499363,0.999338,0.984931,0.004824,0.412309,0.000010,0.000017,0.000005,0.000020,0.000008,63.179528,0.000028,
2446,2443,4.12360850222245,-4.39996993819509,0.00511926870484558,0.001766,-0.001209,0.006667,0.055639,-0.021989,324.033554,23.441676,0.998664,0.983375,0.005086,0.383114,0.000020,-0.000011,0.000002,0.000020,-0.000012,3.918702,0.000020,
2416,2098,3.53857378282196,-11.9568583176301,0.0200054345421563,0.001732,-0.000420,0.000931,0.075692,-0.018062,329.707449,22.441291,0.999052,0.977576,0.006019,0.317520,-0.000009,0.000022,-0.000006,0.000023,-0.000010,-79.655893,0.000023,
2446,2653,4.08044385735591,0.188320230846273,-0.0202386739372287,0.002233,-0.000216,0.000795,0.099438,0.001845,320.451936,24.227280,0.999653,0.991125,0.003800,0.365863,0.000030,0.000026,-0.000025,0.000053,0.000003,-42.688368,0.000063,
2476,2578,4.74941582019519,-1.44746559814843,-0.0166507517145078,0.002154,-0.000854,0.005660,0.076960,0.007333,321.745570,23.916465,0.998403,0.984264,0.005110,0.377806,0.000034,0.000001,-0.000003,0.000034,0.000001,-4.494830,0.000040,
2371,2173,2.54112418952759,-10.3126999904374,0.0191204239545755,0.002160,-0.000859,0.001885,0.091879,-0.027165,328.462453,22.795927,0.999271,0.982685,0.005238,0.447025,-0.000011,-0.000016,-0.000010,-0.000003,-0.000024,-37.616541,0.000029,
2416,2533,3.45022662472613,-2.43274984145671,-0.008896875746359,0.001770,-0.001458,0.007510,0.053124,-0.036086,322.403578,23.848436,0.999264,0.988217,0.004502,0.336457,0.000021,-0.000012,-0.000012,0.000025,-0.000016,-18.156525,0.000025,
2431,2188,3.8496045981499,-9.98384772534806,0.03333021845134,0.001750,-0.000741,0.001990,0.072482,-0.027540,328.386433,22.740099,0.999703,0.987791,0.004368,0.234536,-0.000010,-0.000009,-0.000018,0.000009,-0.000027,-46.117704,0.000028,
2356,3208,2.01835555143152,12.247604488684,0.0290931367098892,0.002208,-0.000279,-0.000515,0.103416,-0.007546,311.716779,25.664355,0.999535,0.992867,0.003466,0.391403,0.000022,0.000019,0.000010,0.000031,0.000011,40.675701,0.000043,
2431,2353,3.81465917311249,-6.36786718733705,0.00199713562108172,0.002075,-0.001061,0.001597,0.088716,-0.044167,325.472216,23.213989,0.999092,0.982812,0.005020,0.319276,-0.000015,0.000014,-0.000004,0.000015,-0.000015,-82.573425,0.000017,
2461,2743,4.38799833267555,2.15109728085656,-0.0266079807030906,0.001867,-0.000619,0.004621,0.068063,-0.002212,318.931624,24.519294,0.999674,0.991407,0.003669,0.389500,0.000010,0.000038,-0.000006,0.000039,0.000009,-78.838035,0.000051,
2356,2308,2.18677425248914,-7.35299417410967,0.00462555318739533,0.002084,-0.000530,0.002615,0.086123,-0.009939,326.148501,23.338448,0.999434,0.991516,0.003885,0.373249,-0.000011,-0.000009,-0.000006,-0.000004,-0.000017,-50.129399,0.000022,
2491,2758,5.03868938232594,2.47872704896555,-0.0276226648887246,0.001992,-0.000820,0.003669,0.077011,-0.022975,318.761617,24.543219,0.999570,0.988938,0.003999,0.412435,-0.000006,0.000035,-0.000021,0.000044,-0.000015,-66.910902,0.000045,
2386,2188,2.86508028792025,-9.98146191818783,0.0127046396305559,0.001899,-0.000801,0.001704,0.080546,-0.023911,328.164734,22.929009,0.999108,0.982140,0.005257,0.283621,-0.000005,-0.000015,-0.000013,0.000004,-0.000024,-33.501430,0.000025,
2371,3253,2.33418325779314,13.2252485542468,0.0210812274762588,0.001890,-0.000492,0.004150,0.072081,-0.004132,310.882154,25.850521,0.999714,0.993235,0.003206,0.401000,0.000020,0.000006,0.000001,0.000020,0.000005,5.549909,0.000027,
2386,2428,2.81836430154519,-4.72864991363828,0.00600540053170562,0.002072,-0.000784,0.002840,0.084530,-0.027900,324.231437,23.578170,0.999465,0.987814,0.004499,0.355911,0.000013,0.000012,0.000005,0.000017,0.000008,42.969422,0.000026,
2401,2023,3.22573716811786,-13.6039890463782,0.0269938164053087,0.001721,-0.000640,0.002622,0.069035,-0.037359,330.948423,22.307022,0.998647,0.971875,0.006442,0.279054,-0.000004,-0.000001,-0.000034,0.000032,-0.000037,-46.147276,0.000040,
2446,2458,4.12061644477366,-4.07063367706047,-0.00211524286447684,0.001781,0.000159,-0.000542,0.083720,0.015320,323.757104,23.525438,0.999268,0.986115,0.004670,0.390522,0.000023,-0.000011,0.000000,0.000023,-0.000011,0.393602,0.000023,
2461,2503,4.43874138526822,-3.08779120831515,-0.00123353574093699,0.001896,-0.000604,0.002600,0.076893,-0.002515,323.058781,23.612929,0.999516,0.986743,0.004381,0.414215,0.000025,-0.000022,-0.000011,0.000028,-0.000025,-12.680961,0.000031,
2341,3148,1.70358484933418,10.9450198968775,0.0309393876258923,0.002124,-0.000594,0.005016,0.080095,0.000176,312.693930,25.480040,0.999483,0.993618,0.003500,0.368415,0.000013,0.000020,0.000004,0.000022,0.000011,65.132461,0.000033,
2476,2593,4.74656885220281,-1.12044681544349,-0.0171142210892299,0.002142,-0.000760,0.002587,0.088103,-0.017482,321.509219,23.958407,0.998661,0.982961,0.004963,0.368451,0.000036,0.000001,-0.000001,0.000036,0.000001,-1.619332,0.000042,
2416,2113,3.5366512545672,-11.62803519368,0.027510067069386,0.001851,0.000665,-0.002828,0.095253,0.011153,329.547444,22.514638,0.999100,0.977774,0.005900,0.323932,-0.000010,0.000014,-0.000005,0.000015,-0.000011,-77.964833,0.000016,
2401,2248,3.18091131255482,-8.66764768229812,0.00993294445515858,0.002093,-0.000539,0.002950,0.084967,0.000597,327.191879,22.922170,0.999291,0.983429,0.005163,0.429273,-0.000008,-0.000015,0.000003,-0.000007,-0.000016,18.593217,0.000024,
2476,2803,4.7029717878623,3.45914806884977,-0.0222792784007311,0.001952,-0.000662,0.005408,0.068830,0.008415,318.024259,24.798399,0.999332,0.985607,0.004560,0.351971,-0.000014,0.000017,-0.000014,0.000023,-0.000020,-68.759920,0.000025,
2371,2368,2.50178257438431,-6.03967068214263,0.00171081130764605,0.001674,-0.000444,0.005189,0.058186,-0.000254,325.130802,23.469401,0.998644,0.983976,0.005036,0.364202,0.000001,0.000016,0.000004,0.000017,0.000000,74.973772,0.000020,
2506,3013,5.31544266329957,8.02816510590509,0.00106295575392323,0.001957,-0.000372,0.001623,0.083480,-0.009844,314.883355,25.663508,0.999501,0.990974,0.003677,0.344078,0.000019,0.000048,0.000041,0.000077,-0.000010,55.003496,0.000084,
2401,2038,3.22292437464557,-13.2748855435449,0.0264775321068669,0.001785,-0.000499,0.001594,0.075695,-0.025105,330.709334,22.307563,0.998665,0.972658,0.006336,0.339965,-0.000002,-0.000007,-0.000030,0.000025,-0.000035,-42.500679,0.000036,
2386,2203,2.86178805268299,-9.65198389050534,0.00553037938726675,0.002053,-0.000786,0.001540,0.088173,-0.023377,327.870199,22.966450,0.998677,0.979198,0.005634,0.292881,-0.000008,-0.000016,-0.000010,-0.000001,-0.000023,-34.505891,0.000027,
2476,2608,4.74270570924595,-0.792899682869773,-0.0213815074990862,0.001616,-0.000789,0.001702,0.067314,-0.029326,321.208683,24.008117,0.999085,0.984757,0.004587,0.364162,0.000031,0.000017,-0.000005,0.000033,0.000016,-17.161565,0.000050,
2386,2443,2.81457680837541,-4.39967153397917,-0.00704165881887775,0.002205,-0.000717,0.002812,0.090730,-0.023131,323.885293,23.601194,0.999355,0.988679,0.004460,0.382975,0.000017,-0.000004,0.000002,0.000017,-0.000005,5.767003,0.000017,
2341,3163,1.7007441914824,11.2705875040319,0.0343523801632273,0.001832,-0.000177,0.004741,0.067840,0.028037,312.464266,25.519249,0.999564,0.993569,0.003539,0.392645,0.000014,0.000021,0.000006,0.000025,0.000010,59.025014,0.000036,
2416,2128,3.53271670245578,-11.2971631289051,0.0164813220577003,0.002195,-0.000281,0.002508,0.091180,0.004484,329.208877,22.614993,0.999280,0.980059,0.005588,0.268145,-0.000008,0.000013,-0.000002,0.000013,-0.000008,-85.021095,0.000013,
2491,2923,5.00482102900603,6.07272649503581,-0.0280729532455553,0.001848,-0.000230,0.001945,0.077340,0.006011,316.062065,25.309091,0.999445,0.986857,0.004269,0.321032,0.000001,0.000010,0.000001,0.000010,0.000001,86.660729,0.000013,
2401,2473,3.13643542195711,-3.7441006233508,-0.00443659298883858,0.002191,-0.000326,-0.001903,0.107247,-0.021205,323.450937,23.660213,0.999404,0.987715,0.004504,0.379302,0.000013,-0.000016,-0.000009,0.000016,-0.000018,-15.794355,0.000020,
2476,2818,4.70010159117858,3.78508112967829,-0.021289893399171,0.001844,-0.000647,0.002993,0.073097,0.001401,317.792376,24.803227,0.999390,0.986984,0.004494,0.396570,-0.000011,0.000028,-0.000009,0.000030,-0.000013,-77.903142,0.000030,
2431,2608,3.76246986016499,-0.795048570082081,-0.0166606257170088,0.002168,-0.000890,0.003880,0.084802,-0.025576,321.173718,24.027166,0.999365,0.987802,0.004400,0.395890,0.000018,0.000012,-0.000013,0.000028,0.000001,-38.707606,0.000033,
2401,2263,3.17701545105563,-8.33685319151037,-5.89793394283333E-05,0.001906,-0.000812,0.002670,0.077337,-0.018045,326.857595,23.093845,0.999371,0.986048,0.004679,0.287123,-0.000007,-0.000006,-0.000005,-0.000002,-0.000011,-48.913472,0.000014,
2461,2758,4.38481930950988,2.47814095299979,-0.0276450117622744,0.001825,-0.000457,0.004940,0.065017,0.005809,318.675185,24.577906,0.999671,0.989967,0.003857,0.393601,0.000015,0.000042,-0.000006,0.000043,0.000013,-77.060045,0.000059,
2446,2668,4.07764696234541,0.515002327593237,-0.0164023449200386,0.002170,-0.000194,0.001396,0.094368,0.019808,320.234849,24.254842,0.999502,0.989109,0.004119,0.409205,0.000025,0.000026,-0.000026,0.000051,-0.000001,-45.665893,0.000059,
2401,2053,3.21981474106211,-12.9438602890195,0.0251712819659815,0.002205,-0.001294,0.007710,0.072534,-0.013830,330.452747,22.481154,0.998992,0.976427,0.006056,0.226692,-0.000001,-0.000012,-0.000018,0.000013,-0.000026,-37.118419,0.000026,
2476,2623,4.74031263209968,-0.465194714893713,-0.0218265545603344,0.002201,-0.000749,0.000305,0.099510,-0.017232,320.992879,24.086053,0.999632,0.991077,0.003725,0.355921,0.000037,0.000011,-0.000013,0.000042,0.000005,-22.984489,0.000052,
2386,2218,2.85950183664639,-9.32398776974983,0.013728006822987,0.001919,-0.000567,0.000373,0.086322,-0.022008,327.694575,23.033753,0.998948,0.980232,0.005644,0.272343,-0.000006,-0.000011,-0.000002,-0.000005,-0.000012,-22.461155,0.000017,
2461,2383,4.46286105179632,-5.71057348813383,0.00167093314945532,0.001774,-0.001039,0.005531,0.060066,-0.004594,325.012933,23.242957,0.999645,0.987018,0.004740,0.335366,0.000004,0.000021,-0.000003,0.000022,0.000004,-80.412973,0.000027,
2386,2458,2.8114113811246,-4.07120612208995,-0.0075919940577478,0.002284,-0.000973,0.006660,0.080483,-0.012534,323.626881,23.694265,0.999365,0.987578,0.004571,0.345328,0.000017,-0.000004,0.000002,0.000017,-0.000004,6.897703,0.000018,
2416,2143,3.52923300709788,-10.9690321862073,0.016092335151086,0.001826,-0.000652,0.004249,0.067807,0.000417,328.940675,22.583790,0.999300,0.981890,0.005102,0.346225,-0.000005,0.000010,-0.000004,0.000011,-0.000006,-76.221788,0.000011,
2341,3178,1.6980505375398,11.5959908879988,0.0288382866459074,0.002209,-0.000257,0.002373,0.093326,-0.005398,312.197923,25.554858,0.999588,0.994281,0.003587,0.359007,0.000016,0.000024,0.000008,0.000029,0.000011,58.801804,0.000041,
2431,2203,3.84609109389729,-9.65549120558268,0.0257495143243887,0.001809,-0.000390,0.001879,0.075715,-0.021074,328.084565,22.663912,0.999581,0.985515,0.004729,0.370311,-0.000011,-0.000021,-0.000014,-0.000001,-0.000031,-35.965152,0.000036,
2416,2263,3.50610680940814,-8.33901600154998,0.0166430765512473,0.002140,-0.000630,0.002807,0.087483,-0.010334,327.026538,22.995344,0.999257,0.983329,0.005045,0.326126,-0.000007,-0.000011,-0.000009,0.000001,-0.000019,-39.188260,0.000021,
2371,3268,2.33066370767933,13.550979341107,0.0124237729210677,0.001889,-0.000528,0.003693,0.073705,-0.002800,310.564618,25.890841,0.999747,0.993782,0.003153,0.401540,0.000018,0.000007,0.000003,0.000019,0.000006,12.159000,0.000026,
2356,3223,2.01485781440239,12.5733832370615,0.0281382774541044,0.001799,-0.000264,0.001534,0.077360,-0.001328,311.436378,25.734457,0.999561,0.992542,0.003407,0.364785,0.000021,0.000017,0.000009,0.000028,0.000009,38.846294,0.000039,
2506,3028,5.31277806406714,8.35366007752761,0.00466988851388805,0.002029,-0.000190,0.001032,0.089096,-0.013126,314.673773,25.698703,0.999629,0.992585,0.003479,0.365725,0.000025,0.000058,0.000037,0.000082,0.000001,56.948314,0.000095,
2326,3103,1.3857545621067,9.96720253536122,0.0226592442357401,0.002073,-0.000571,0.002298,0.087307,-0.008280,313.374641,25.269497,0.999571,0.993887,0.003286,0.406361,0.000007,0.000020,-0.000003,0.000021,0.000006,-76.851794,0.000028,
2461,2518,4.43587095521214,-2.76090241495859,0.00350706332420714,0.001753,-0.001110,0.003689,0.066048,-0.035852,322.844366,23.673123,0.999269,0.984172,0.004597,0.375978,0.000027,-0.000023,-0.000006,0.000028,-0.000024,-6.674272,0.000030,
2476,2833,4.69790238053984,4.11119167163451,-0.0154749055904517,0.002041,-0.000236,0.000995,0.089859,0.001810,317.613163,24.857556,0.999501,0.988591,0.004022,0.399162,-0.000010,0.000039,-0.000008,0.000040,-0.000011,-81.263434,0.000042,
2401,2278,3.17242021619341,-8.00639359112031,-0.0120460873367279,0.001347,-0.000907,0.004584,0.044755,-0.016663,326.481721,23.201452,0.999777,0.994064,0.003413,0.229230,-0.000012,-0.000005,0.000000,-0.000005,-0.000012,-87.458648,0.000018,
2371,2383,2.49929548249089,-5.71123746951374,0.00134285203449735,0.002006,-0.000383,0.004188,0.076969,0.015049,324.903435,23.530565,0.999105,0.984670,0.004938,0.360981,0.000010,0.000014,-0.000002,0.000015,0.000008,-66.067448,0.000024,
2431,2623,3.75915407925593,-0.467465863634153,-0.0196038610385472,0.002051,-0.001007,0.003670,0.080133,-0.030094,320.900383,24.088539,0.999436,0.989015,0.004157,0.380487,0.000023,0.000012,-0.000018,0.000036,-0.000001,-36.803511,0.000041,
2446,2473,4.11773359385652,-3.74294253595657,0.00179425041875447,0.001749,-0.000236,0.001466,0.074618,-0.003053,323.537291,23.622886,0.999541,0.987957,0.004373,0.328070,0.000013,-0.000015,-0.000010,0.000016,-0.000018,-17.117457,0.000020,
2416,2548,3.44698624549289,-2.10482061139551,-0.0183654286570345,0.001870,-0.001110,0.002953,0.074523,-0.036708,322.102236,23.854267,0.999356,0.988153,0.004397,0.378784,0.000018,-0.000008,-0.000014,0.000024,-0.000014,-23.032885,0.000024,
2491,2773,5.03568773526816,2.80617051408143,-0.0257000333150472,0.001895,-0.000707,0.003487,0.073302,-0.012524,318.528871,24.664243,0.999222,0.986799,0.004367,0.360880,-0.000013,0.000025,-0.000018,0.000032,-0.000020,-68.423930,0.000032,
2461,2773,4.38172922070069,2.80481250618973,-0.0306134414497023,0.001728,-0.000700,0.001567,0.073143,-0.018339,318.414070,24.623938,0.999459,0.988228,0.004163,0.377648,0.000009,0.000030,-0.000004,0.000030,0.000008,-78.903569,0.000041,
2431,2368,3.81193166307497,-6.04022457448056,0.00690866059005657,0.001957,-0.001072,0.002007,0.081822,-0.064484,325.263599,23.285281,0.999084,0.983285,0.004991,0.279177,-0.000009,0.000020,0.000000,0.000020,-0.000009,-89.434846,0.000020,
2401,2488,3.13289631656226,-3.41617652171742,-0.00269888526980822,0.001798,-0.000749,0.002615,0.072689,-0.020046,323.187365,23.744014,0.999393,0.988860,0.004288,0.343722,0.000022,-0.000018,-0.000010,0.000024,-0.000020,-12.740250,0.000026,
2446,2683,4.07389312882957,0.84297125033472,-0.0251987023260085,0.001786,0.000046,-0.002917,0.092882,-0.005272,319.915342,24.343589,0.999320,0.987912,0.004246,0.348052,0.000025,0.000029,-0.000024,0.000051,0.000003,-47.755667,0.000061,
2491,2938,5.00226928971012,6.39845592844284,-0.0190834834834845,0.001778,-0.000558,0.003901,0.066481,-0.004086,315.881414,25.389232,0.999466,0.989755,0.003858,0.288797,-0.000003,0.000012,0.000002,0.000012,-0.000003,82.308632,0.000012,
2476,2638,4.73682283415486,-0.138460870466119,-0.0219663764543157,0.001901,-0.000784,0.001846,0.079913,-0.010186,320.728149,24.087390,0.999644,0.990707,0.003749,0.418714,0.000037,0.000018,-0.000025,0.000054,0.000001,-34.596958,0.000063,
2401,2068,3.21581303069685,-12.6138912831031,0.00975312741468315,0.001887,-0.000435,0.001999,0.078957,-0.017171,330.089192,22.422221,0.999353,0.980192,0.005847,0.331683,-0.000002,0.000004,-0.000012,0.000014,-0.000012,-52.586348,0.000015,
2371,3283,2.32756943499151,13.876263978522,0.00637012050998464,0.002036,-0.000502,0.002272,0.085506,-0.010945,310.279268,25.918485,0.999652,0.993327,0.003305,0.405450,0.000021,0.000005,-0.000008,0.000024,0.000002,-21.421135,0.000029,
2506,3043,5.30947126898512,8.6803090081841,0.00776535660810396,0.001969,-0.000616,0.005863,0.067508,-0.004017,314.431887,25.828219,0.999745,0.992911,0.003609,0.305364,0.000026,0.000052,0.000044,0.000085,-0.000007,53.101145,0.000095,
2461,2533,4.43260505217589,-2.43216939608588,-0.000885696750685838,0.001898,-0.000822,0.003855,0.072189,-0.016175,322.569520,23.771931,0.999473,0.987923,0.004212,0.352603,0.000034,-0.000014,-0.000005,0.000034,-0.000015,-5.579255,0.000034,
2431,2218,3.84368518457613,-9.32751884522342,0.0299235389551313,0.002072,-0.000739,0.002253,0.086255,-0.024237,327.887859,22.690726,0.999562,0.985942,0.004722,0.392493,-0.000011,-0.000024,-0.000004,-0.000010,-0.000025,-17.304631,0.000036,
2476,2848,4.69418602127795,4.43824432391353,-0.0229344789420338,0.002193,-0.000625,0.003339,0.087776,-0.009016,317.303533,24.914250,0.999375,0.988462,0.004073,0.388083,-0.000013,0.000039,-0.000014,0.000042,-0.000017,-75.803002,0.000042,
2416,2158,3.52632491613088,-10.640297605376,0.0136926446833172,0.001775,-0.000572,0.000720,0.078403,-0.034964,328.689520,22.622786,0.999244,0.980407,0.005288,0.322241,-0.000005,-0.000007,-0.000009,0.000003,-0.000016,-41.591132,0.000016,
2356,3238,2.01188643377439,12.8986665640256,0.0262826189415932,0.001883,-0.000200,0.002273,0.078641,-0.002921,311.175972,25.765384,0.999632,0.992779,0.003301,0.369862,0.000018,0.000010,0.000005,0.000021,0.000007,25.629650,0.000029,
2431,2638,3.75576324824535,-0.140432912039984,-0.0195117938482099,0.001669,-0.001041,0.004204,0.060627,-0.033710,320.637709,24.129339,0.999543,0.990778,0.003975,0.386750,0.000024,0.000020,-0.000023,0.000045,-0.000002,-42.935800,0.000051,
2446,2488,4.11496024537784,-3.4165034308401,0.00226161208388476,0.001847,-0.000235,0.000434,0.082921,-0.019899,323.306805,23.576811,0.999476,0.986431,0.004486,0.410647,0.000022,-0.000019,-0.000018,0.000029,-0.000026,-20.835313,0.000032,
2386,2233,2.85669751332181,-8.99657962212504,0.0301361579278705,0.001509,-0.001421,0.010450,0.031162,-0.001888,327.533977,23.117675,0.999234,0.983516,0.005444,0.254032,-0.000005,-0.000014,0.000003,-0.000004,-0.000014,17.242839,0.000020,
2416,2563,3.44402876205082,-1.77725542096849,-0.0165413830242187,0.001833,-0.000818,0.004448,0.067531,0.007139,321.866494,23.887854,0.999092,0.984572,0.004662,0.437953,0.000020,-0.000009,-0.000014,0.000026,-0.000015,-22.792552,0.000026,
2416,2278,3.50234928407921,-8.01030517561787,0.00868967441556379,0.001840,-0.000844,0.001189,0.079581,-0.036420,326.709929,23.010153,0.999302,0.983908,0.004919,0.335264,-0.000013,-0.000011,-0.000003,-0.000008,-0.000015,-53.122672,0.000024,
2401,2293,3.16970087562209,-7.67904063592979,-0.0106626325516572,0.001544,-0.000856,0.006044,0.048564,-0.007190,326.254957,23.157921,0.999589,0.990789,0.003893,0.330030,-0.000013,-0.000003,0.000000,-0.000003,-0.000013,89.777671,0.000017,
2461,2788,4.37977139815322,3.13094431341941,-0.0214265822226025,0.001869,-0.000165,-0.000424,0.087357,0.003447,318.260617,24.673498,0.999363,0.986934,0.004292,0.404397,0.000007,0.000023,-0.000010,0.000027,0.000002,-64.935011,0.000033,
2491,2953,5.00000405414233,6.72376754361545,-0.0151934807996668,0.002009,-0.000438,0.000997,0.088322,-0.009253,315.690982,25.393175,0.999392,0.989478,0.003972,0.338098,0.000008,0.000018,0.000009,0.000023,0.000002,59.941378,0.000028,
2431,2383,3.80854139623931,-5.71095289590166,0.00132925059745048,0.002017,-0.000714,0.002222,0.083934,-0.019941,324.975428,23.344165,0.999548,0.986934,0.004602,0.316923,0.000000,0.000018,-0.000008,0.000021,-0.000003,-68.692297,0.000023,
2446,2698,4.07007479500666,1.17041983749334,-0.0313022861657828,0.001926,-0.000407,0.002668,0.078281,-0.004051,319.605218,24.386143,0.999641,0.990136,0.003939,0.359231,0.000025,0.000042,-0.000021,0.000056,0.000010,-55.813087,0.000071,
2476,2653,4.7339945750925,0.188828512788739,-0.0206083754130759,0.001999,-0.000523,0.001669,0.085135,-0.009061,320.500459,24.162795,0.999593,0.990502,0.003826,0.401529,0.000033,0.000024,-0.000028,0.000057,0.000001,-40.547695,0.000066,
2401,2503,3.12926166378221,-3.08720005986864,-0.0118411379966119,0.001922,-0.000774,0.003949,0.073568,-0.005475,322.867919,23.816636,0.999521,0.989582,0.004134,0.332484,0.000019,-0.000021,-0.000009,0.000021,-0.000023,-12.566855,0.000025,
2371,3298,2.3239848972135,14.2021165250714,-0.00397052805948306,0.002150,-0.000462,0.002434,0.090214,-0.010145,309.950442,25.971198,0.999659,0.993320,0.003367,0.392965,0.000018,-0.000013,-0.000008,0.000021,-0.000015,-14.075775,0.000021,
2506,3058,5.30679492155892,9.00480096058829,0.0123972953385305,0.001889,-0.000672,0.004699,0.068335,-0.011071,314.226474,25.788523,0.999735,0.992693,0.003754,0.398236,0.000021,0.000042,0.000038,0.000070,-0.000008,52.886351,0.000077,
2461,2548,4.42964217889483,-2.10367138627458,-0.00438244475463989,0.001935,-0.000502,-0.000058,0.088751,-0.009127,322.312680,23.875162,0.999714,0.991878,0.003712,0.311668,0.000034,-0.000011,-0.000005,0.000035,-0.000012,-6.215916,0.000035,
2401,2083,3.21445532128934,-12.2854261315113,0.0213596606900524,0.002216,-0.000157,-0.001944,0.108324,-0.022080,329.973569,22.532912,0.999032,0.976976,0.006029,0.264115,-0.000004,0.000017,-0.000007,0.000019,-0.000006,-72.638943,0.000019,
2476,2863,4.69135709623493,4.76436524807708,-0.0210959794303562,0.001961,-0.000499,-0.000238,0.090738,-0.021755,317.077130,24.961314,0.999303,0.986755,0.004246,0.384597,-0.000010,0.000039,-0.000011,0.000041,-0.000012,-77.912802,0.000042,
2431,2233,3.83959984107597,-8.99669600092418,0.0205386444960709,0.001682,-0.000497,0.001570,0.071038,-0.019976,327.551016,22.835419,0.999316,0.982414,0.005184,0.304732,-0.000011,-0.000020,0.000002,-0.000010,-0.000020,14.141520,0.000032,
2356,3253,2.00876827434748,13.2232941826598,0.0279276859125162,0.001717,-0.000660,0.005156,0.060644,-0.013993,310.925918,25.768853,0.999643,0.992445,0.003374,0.392479,0.000015,0.000013,0.000007,0.000021,0.000007,41.850723,0.000029,
2491,2968,4.99747923264689,7.04928905076519,-0.00725312688769009,0.001767,-0.000145,-0.000416,0.082745,-0.002667,315.506725,25.436433,0.999310,0.988075,0.004275,0.359415,0.000011,0.000024,0.000022,0.000041,-0.000005,53.199729,0.000045,
2431,2653,3.75357538145446,0.186401219209799,-0.0124078655226754,0.001971,-0.000841,0.005339,0.070420,0.002772,320.462727,24.175097,0.999556,0.990219,0.004046,0.427883,0.000021,0.000026,-0.000023,0.000046,0.000000,-48.006915,0.000054,
2446,2503,4.1116331850919,-3.08871855993696,0.000829764167860958,0.001851,-0.000864,0.002971,0.073446,-0.016134,323.041786,23.621136,0.999581,0.988583,0.004168,0.423514,0.000020,-0.000022,-0.000019,0.000027,-0.000030,-21.004965,0.000033,
2461,2803,4.37567256253037,3.45886280779747,-0.0269859428497057,0.001697,-0.000695,0.004866,0.059385,0.004366,317.940728,24.798284,0.999407,0.987572,0.004274,0.334814,0.000002,0.000019,-0.000010,0.000024,-0.000003,-64.574701,0.000027,
2401,2308,3.16730212922957,-7.3514175764323,-0.0137850252649514,0.002037,-0.000398,0.002684,0.083488,0.013191,326.021595,23.088025,0.999801,0.994283,0.003369,0.467819,-0.000009,-0.000001,-0.000001,-0.000001,-0.000009,-80.181573,0.000011,
2386,2248,2.8522737055044,-8.66648127045553,0.0110401350148663,0.001402,-0.001297,0.009440,0.029934,0.001889,327.130893,23.102406,0.999214,0.983491,0.005273,0.319495,-0.000002,-0.000018,0.000004,-0.000001,-0.000019,14.614752,0.000022,
2416,2578,3.44091690895969,-1.4490551835049,-0.0165030277035498,0.001838,-0.001290,0.006488,0.060120,-0.006824,321.615306,24.026398,0.999465,0.988976,0.004138,0.334043,0.000021,-0.000001,-0.000011,0.000026,-0.000006,-22.682598,0.000027,
2416,2293,3.49924342661646,-7.68186933045846,0.0105425288879246,0.001888,-0.001194,0.005576,0.065657,-0.031802,326.468746,23.073976,0.998945,0.980316,0.005484,0.326072,-0.000014,-0.000008,-0.000002,-0.000007,-0.000014,-73.696018,0.000022,
2386,1993,2.9045656395801,-14.2635890493491,0.0399873274769789,0.001660,-0.000380,0.002038,0.068480,0.002562,331.523468,22.334229,0.998771,0.962826,0.007145,0.299754,-0.000014,-0.000005,-0.000033,0.000024,-0.000042,-48.976043,0.000042,
2446,2713,4.06697776715233,1.49749808063068,-0.034808366183313,0.002030,-0.000352,0.001636,0.087017,0.014733,319.340180,24.403501,0.999740,0.991970,0.003670,0.413342,0.000019,0.000043,-0.000016,0.000051,0.000011,-63.701591,0.000066,
2431,2398,3.80541934073967,-5.38339455482255,-4.726460593929E-05,0.002131,-0.000882,0.004106,0.082167,-0.015384,324.719358,23.332141,0.999702,0.987836,0.004561,0.385118,0.000003,0.000016,-0.000011,0.000022,-0.000003,-60.351754,0.000023,
2476,2668,4.73059391155687,0.515336859604432,-0.0243623990060087,0.001999,-0.000672,0.002150,0.083255,-0.025343,320.223376,24.145840,0.999503,0.987998,0.004149,0.459522,0.000025,0.000021,-0.000030,0.000053,-0.000007,-43.125042,0.000058,
2461,2563,4.42559619004794,-1.7751149972329,-0.020376939275593,0.002540,-0.000422,0.003612,0.102768,0.016324,321.948827,23.860698,0.999384,0.988999,0.004286,0.407530,0.000037,-0.000007,-0.000005,0.000037,-0.000008,-6.090758,0.000039,
2401,2518,3.12668968280868,-2.76073708867094,-0.0127609295374214,0.002134,-0.000168,0.001460,0.092555,0.013868,322.636311,23.734173,0.999507,0.988676,0.004311,0.480920,0.000018,-0.000023,-0.000009,0.000020,-0.000025,-11.736333,0.000026,
2476,2878,4.68734397820257,5.09171077313631,-0.0251390611205693,0.001723,-0.000700,0.004399,0.062147,-0.010834,316.769058,25.058523,0.998688,0.987289,0.004572,0.354895,-0.000010,0.000036,-0.000009,0.000038,-0.000011,-79.733006,0.000039,
2491,2983,4.99436174984795,7.37588594609562,-0.00737032704722651,0.001901,-0.000471,0.001558,0.081179,-0.007175,315.258454,25.537785,0.999347,0.988477,0.004092,0.311581,0.000015,0.000045,0.000028,0.000062,-0.000001,59.337926,0.000070,
2461,2818,4.37316915959423,3.78439685744912,-0.0238072171139265,0.001683,-0.000660,0.001620,0.070949,-0.012595,317.734749,24.793172,0.999320,0.987167,0.004448,0.377475,0.000004,0.000027,-0.000007,0.000029,0.000002,-74.672731,0.000035,
2446,2518,4.10811863902068,-2.7606171300955,-0.00358535070478183,0.001791,-0.000895,0.004061,0.066615,-0.014639,322.754304,23.674929,0.999308,0.986028,0.004530,0.424569,0.000023,-0.000023,-0.000015,0.000028,-0.000027,-16.328974,0.000032,
2431,2668,3.74921413534131,0.516136820913047,-0.0263209715280937,0.001686,-0.000554,0.004908,0.059097,0.014567,320.089701,24.341077,0.999533,0.989991,0.004196,0.324418,0.000018,0.000026,-0.000024,0.000046,-0.000003,-50.086759,0.000052,
2386,2008,2.90137420036421,-13.9331555820246,0.034572287830315,0.001993,-0.001130,0.004536,0.074516,-0.026679,331.242851,22.429596,0.998792,0.972914,0.006188,0.222139,-0.000007,-0.000011,-0.000036,0.000027,-0.000044,-43.437640,0.000045,
2416,2593,3.43756926384306,-1.12168466894946,-0.0230369766190393,0.001523,-0.000507,0.001086,0.065700,-0.018480,321.322650,24.034298,0.999599,0.991303,0.003817,0.363162,0.000022,-0.000001,-0.000008,0.000024,-0.000003,-17.300004,0.000026,
2401,2323,3.16494181560612,-7.0237113723082,0.00343538737826066,0.001176,-0.000167,0.001968,0.046688,0.025672,325.885542,23.241065,0.999412,0.988158,0.004261,0.374308,-0.000008,0.000009,-0.000001,0.000009,-0.000008,-86.277479,0.000010,
2446,2728,4.06437438270946,1.82306630779816,-0.0280525897669008,0.002007,-0.000646,0.003325,0.079493,-0.014243,319.145500,24.417326,0.999692,0.991778,0.003650,0.422656,0.000010,0.000034,-0.000006,0.000036,0.000009,-76.427459,0.000047,
2476,2683,4.72721644295347,0.843658998555014,-0.0261774262409631,0.001966,-0.000715,0.003743,0.075728,-0.006157,319.955609,24.281210,0.999623,0.989778,0.003926,0.400277,0.000024,0.000025,-0.000028,0.000052,-0.000003,-45.370173,0.000058,
2416,2308,3.49733080227557,-7.35366442242993,0.00996286418831005,0.002330,-0.000294,-0.002352,0.115196,-0.014342,326.270863,23.084187,0.999299,0.985376,0.004665,0.383192,-0.000011,-0.000005,-0.000004,-0.000003,-0.000013,-61.308570,0.000017,
2431,2413,3.80245797836101,-5.05553240301921,-0.00012625520076881,0.002230,-0.000845,0.005079,0.083114,-0.005686,324.476539,23.360292,0.999620,0.987640,0.004575,0.418069,0.000001,0.000019,-0.000005,0.000020,0.000000,-76.458809,0.000023,
2461,2578,4.42111596085865,-1.4472834614727,-0.0304554641121513,0.002070,-0.000610,0.005428,0.074313,0.020444,321.592123,23.859874,0.999597,0.991659,0.004044,0.468280,0.000037,0.000000,-0.000002,0.000037,-0.000001,-3.128493,0.000042,
2476,2893,4.68503573846175,5.41857551994392,-0.0265679596827226,0.002220,-0.000235,0.000042,0.101762,0.001207,316.551385,25.133969,0.998665,0.987780,0.004493,0.347803,-0.000003,0.000029,-0.000004,0.000030,-0.000003,-82.686112,0.000032,
2401,2533,3.1236698697765,-2.43219926981319,-0.0107546563954202,0.001865,-0.000217,0.001220,0.081096,0.012783,322.397530,23.893584,0.999421,0.989059,0.004388,0.367021,0.000018,-0.000014,-0.000010,0.000021,-0.000017,-16.007887,0.000022,
2461,2833,4.36963350505669,4.11279966958898,-0.0319883976296182,0.001793,-0.000268,0.000894,0.078930,0.008833,317.428435,24.931908,0.999547,0.990460,0.003834,0.314630,0.000003,0.000036,-0.000009,0.000039,0.000001,-76.213036,0.000045,
2446,2533,4.10530825445043,-2.43144258405903,-0.00391098513051702,0.001947,-0.000750,0.003163,0.077192,-0.018642,322.517730,23.874589,0.999253,0.987010,0.004550,0.274167,0.000029,-0.000015,-0.000013,0.000032,-0.000018,-15.189414,0.000032,
2431,2683,3.7463663394017,0.842617129964928,-0.0280614893177358,0.001577,-0.000342,0.000315,0.071125,0.000079,319.843395,24.341133,0.999521,0.988997,0.004197,0.360305,0.000017,0.000029,-0.000022,0.000046,0.000000,-52.294670,0.000053,
2476,2698,4.72429643248362,1.17085182116725,-0.0240703240071412,0.001793,-0.000547,0.002164,0.073845,-0.008882,319.726874,24.371617,0.999670,0.989335,0.004087,0.364069,0.000021,0.000045,-0.000026,0.000062,0.000004,-57.564451,0.000074,
2416,2608,3.43458023424387,-0.79434081229784,-0.0234946605357891,0.001614,-0.000684,0.002261,0.065532,-0.006960,321.074727,24.074439,0.999423,0.989242,0.004136,0.382831,0.000017,0.000012,-0.000007,0.000022,0.000007,-35.916961,0.000030,
2446,2743,4.06223851941833,2.14936790117218,-0.0190266401887129,0.002102,-0.000716,0.002938,0.085248,-0.015193,318.982497,24.492125,0.999628,0.990914,0.003770,0.399166,0.000008,0.000038,-0.000007,0.000040,0.000007,-77.418420,0.000050,
2416,2323,3.49379623405037,-7.02453661207618,0.00876605842745448,0.001839,0.000022,-0.002420,0.093088,0.019758,325.995444,23.161599,0.999132,0.983318,0.004916,0.389729,-0.000008,0.000007,-0.000003,0.000008,-0.000009,-79.415452,0.000009,
2431,2428,3.79917182230294,-4.72600504564951,-0.00655124630958426,0.002028,-0.000616,-0.000142,0.093193,-0.031926,324.189220,23.522050,0.999441,0.986303,0.004743,0.281722,0.000006,0.000013,-0.000002,0.000014,0.000006,-75.230171,0.000020,
2476,2908,4.68264920106455,5.74398409156714,-0.0186405660752484,0.002342,-0.000567,0.001512,0.101613,-0.017024,316.372966,25.177528,0.998851,0.985468,0.004712,0.341937,-0.000003,0.000017,0.000002,0.000017,-0.000003,83.467656,0.000018,
2461,2593,4.41935648644843,-1.12092768712299,-0.018823986334553,0.002141,-0.000471,0.002582,0.088285,-0.016926,321.459954,23.959066,0.999263,0.988269,0.004342,0.386266,0.000040,0.000000,0.000000,0.000040,0.000000,-0.100134,0.000046,
2446,2548,4.10194573430604,-2.1036774675514,-0.00960785040308565,0.002100,-0.000609,0.003774,0.082036,-0.000630,322.231166,23.880236,0.999562,0.989433,0.004129,0.339978,0.000029,-0.000011,-0.000014,0.000033,-0.000015,-17.242470,0.000033,
2446,2758,4.05817634892128,2.47701688670379,-0.0278494462094727,0.001874,-0.000582,0.004320,0.069696,-0.014630,318.648249,24.551746,0.999596,0.989614,0.003976,0.392680,0.000015,0.000044,-0.000005,0.000045,0.000014,-80.254179,0.000062,
2416,2338,3.49056635958474,-6.69536144955999,0.0030984977938715,0.001880,0.000183,-0.004123,0.101275,0.009447,325.713256,23.248895,0.999007,0.982763,0.004950,0.341802,-0.000011,0.000000,-0.000001,0.000000,-0.000011,-85.023447,0.000012,
2461,2608,4.41644496138639,-0.794524732279761,-0.010671321615348,0.001890,-0.001307,0.006270,0.062613,-0.017194,321.258759,23.998850,0.999071,0.985494,0.004670,0.401278,0.000035,0.000015,-0.000004,0.000036,0.000014,-10.052467,0.000051,
2431,2443,3.79573935294489,-4.39836895419128,-0.00792832905807472,0.001896,-0.000715,0.002527,0.077287,-0.015765,323.918615,23.521368,0.999271,0.985819,0.004747,0.350120,0.000015,-0.000008,-0.000003,0.000016,-0.000009,-6.175243,0.000016,
2461,2623,4.41309562418901,-0.465263947122999,-0.0232661968685193,0.002249,-0.000579,0.001843,0.096004,-0.009000,320.941995,24.119098,0.999466,0.988876,0.004087,0.344600,0.000041,0.000012,-0.000011,0.000045,0.000009,-18.386175,0.000057,
2431,2458,3.79285203076559,-4.07026165300051,-0.0109949406951841,0.002036,0.000033,0.000152,0.092806,0.009423,323.665034,23.544152,0.999488,0.986446,0.004611,0.404256,0.000018,-0.000008,-0.000004,0.000019,-0.000009,-9.221345,0.000019,
2416,2353,3.48741769822706,-6.36763152783615,0.0039794365978878,0.001949,-0.000388,0.000122,0.088722,-0.007410,325.465487,23.280422,0.998660,0.982149,0.005143,0.343121,-0.000006,0.000011,0.000001,0.000011,-0.000006,87.942078,0.000011,
2416,2368,3.48484673283647,-6.04064598530808,0.00805418121382218,0.002062,-0.000678,0.000961,0.090701,-0.028501,325.259181,23.283886,0.999039,0.983767,0.004919,0.367914,-0.000002,0.000019,0.000004,0.000019,-0.000003,80.626902,0.000021,
2431,2473,3.7900573404289,-3.74331752670994,-0.00451857213715812,0.001792,-0.000530,0.001371,0.076874,-0.015546,323.460221,23.603874,0.999384,0.985951,0.004620,0.370386,0.000009,-0.000014,-0.000014,0.000016,-0.000021,-25.585461,0.000022,
2416,2383,3.48235594640108,-5.71193419020859,0.0166885496395253,0.001922,-0.000285,0.002068,0.080407,0.000803,325.077314,23.443459,0.999676,0.988047,0.004363,0.286878,0.000005,0.000016,-0.000003,0.000017,0.000004,-74.237810,0.000023,
2416,2398,3.47844038140125,-5.3841535237593,0.00459596106816207,0.001832,-0.000515,0.000974,0.080175,-0.017753,324.733623,23.371171,0.999585,0.987348,0.004534,0.390186,0.000008,0.000013,-0.000005,0.000016,0.000005,-58.310629,0.000022,
