Image X[Pixel],Image Y[Pixel],X[mm],Y[mm],Z[mm],Horizontal Displacement U[mm],Vertical Displacement V[mm],Out-Of-Plane: W[mm],Horizontal: u[Pixel],Vertical: v[Pixel],Horizontal: q[Pixel],Vertical: r[Pixel],Correlation Value 2D,Correlation Value Persp,Sigma,Epipolar Distance,Strain-global frame: Exx,Strain-global frame: Eyy,Strain-global frame: Exy,Maximum Principal Strain: EI,Minimum Principal Strain: EII,Shear Angle Gamma,Von Mises Equivalent Strain,
2011,1993,-5.29070696296491,-14.2889217496089,0.0214217371902237,-0.006044,-0.036687,-0.008994,-0.263993,-1.697873,332.092102,23.204214,0.998344,0.980988,0.005634,0.375198,0.001014,0.000628,0.000145,0.001063,0.000579,18.459840,0.001666,
2026,2068,-4.97305283363715,-12.6437828975798,0.0228876394081112,-0.004427,-0.035413,-0.006099,-0.197281,-1.631948,330.876158,23.112644,0.999586,0.990312,0.004125,0.395898,0.000823,0.000634,0.000159,0.000914,0.000543,29.649400,0.001472,
2041,2143,-4.65589434594661,-10.9987442006901,0.0110049331802884,-0.002479,-0.034430,-0.008193,-0.101774,-1.599972,329.580069,23.040956,0.998032,0.979479,0.006104,0.383240,0.000631,0.000578,0.000121,0.000728,0.000481,38.885211,0.001217,
2086,2368,-3.70929864552471,-6.0746838688427,-0.00937838206351671,0.000071,-0.033282,-0.003744,0.003154,-1.511806,325.651930,22.833301,0.998193,0.980458,0.005602,0.449503,0.000292,0.000200,0.000042,0.000308,0.000184,20.988064,0.000498,
2101,2443,-3.39428485690637,-4.43622084451884,-0.00668623941396618,0.000697,-0.032998,0.002448,0.013972,-1.450018,324.401640,22.826740,0.999279,0.987603,0.004510,0.481373,0.000205,0.000102,0.000033,0.000215,0.000092,16.365893,0.000315,
2071,2293,-4.02486262772395,-7.7137040245257,-0.00719062599341669,-0.000853,-0.033086,-0.005649,-0.033761,-1.508211,326.918348,22.899539,0.999763,0.992826,0.003910,0.443511,0.000392,0.000294,0.000071,0.000430,0.000257,27.824065,0.000694,
2266,3268,0.0545752460206863,13.507985484131,0.0244157468474668,0.004293,-0.033099,0.012168,0.144960,-1.463379,310.835349,23.790069,0.999636,0.992648,0.003455,0.463899,0.000004,-0.000005,0.000012,0.000013,-0.000013,34.772730,0.000015,
2026,2098,-4.97681076011265,-11.9846605374374,0.014829274556746,-0.003599,-0.034721,-0.010577,-0.146855,-1.626067,330.378056,23.164519,0.998958,0.980632,0.005432,0.337053,0.000749,0.000631,0.000158,0.000859,0.000521,34.764454,0.001394,
2161,2743,-2.13820497835916,2.1050678370362,-0.0254163234918678,0.002459,-0.033104,0.004716,0.087141,-1.466805,319.209603,22.890689,0.999418,0.988810,0.004202,0.459585,0.000045,0.000052,-0.000014,0.000063,0.000033,-52.450960,0.000098,
2296,2023,0.929208931898671,-13.64096561027,0.0186318233149905,-0.000189,-0.038864,-0.008393,0.004887,-1.791003,330.827989,21.057095,0.998712,0.980216,0.005797,0.486035,0.000817,0.000867,-0.000023,0.000876,0.000808,-68.682922,0.001684,
2056,2218,-4.34010017388971,-9.35404677690271,0.00296127648658739,-0.001644,-0.032920,-0.007594,-0.064593,-1.504826,328.259019,23.060543,0.998394,0.981210,0.005442,0.362304,0.000498,0.000462,0.000122,0.000603,0.000357,40.818208,0.000971,
2206,2968,-1.1960470505188,6.99737762218252,0.00562210587787604,0.003474,-0.032771,0.005821,0.129655,-1.450087,315.704660,23.217501,0.999376,0.990699,0.003846,0.409322,0.000010,0.000016,0.000005,0.000019,0.000007,63.246177,0.000027,
2236,3118,-0.569746247050151,10.2541926599765,0.0249242723095904,0.003798,-0.032738,0.009930,0.130634,-1.438096,313.341410,23.491538,0.999562,0.991789,0.003704,0.425309,-0.000004,0.000003,-0.000011,0.000011,-0.000012,-54.225457,0.000014,
2026,2083,-4.97570528353152,-12.3141149796664,0.0178710523658765,-0.004546,-0.035348,-0.005309,-0.204897,-1.625800,330.586297,23.131391,0.999143,0.986128,0.004777,0.377216,0.000785,0.000644,0.000162,0.000891,0.000538,33.269242,0.001444,
2176,2818,-1.82541882698691,3.73831977240737,-0.0238512274408436,0.002124,-0.032896,0.008395,0.060101,-1.445305,317.923701,23.041247,0.999367,0.989805,0.004050,0.396378,0.000035,0.000057,-0.000007,0.000059,0.000033,-73.235736,0.000093,
2011,2038,-5.2965838660242,-13.298684616066,-0.00367732938047993,-0.004415,-0.035064,-0.016005,-0.169906,-1.683175,331.256404,23.193667,0.997510,0.978435,0.006043,0.376132,0.000891,0.000574,0.000144,0.000947,0.000518,21.196133,0.001486,
2506,3073,5.30462398354133,9.29772131802966,0.00899207904683408,0.003587,-0.034065,0.010437,0.109709,-1.504072,314.018302,24.274430,0.999627,0.991681,0.003953,0.473926,0.000018,0.000012,0.000030,0.000046,-0.000015,42.108291,0.000047,
2131,2593,-2.76592610154258,-1.16242615597168,-0.0207211537273224,0.001799,-0.032794,0.005729,0.054438,-1.431261,321.765543,22.832642,0.999301,0.989426,0.004371,0.482832,0.000102,0.000044,0.000009,0.000103,0.000043,8.750390,0.000150,
2221,3043,-0.883496771685802,8.6262218778027,0.0146698618252117,0.003158,-0.033008,0.010577,0.099482,-1.441391,314.486177,23.339842,0.999702,0.993411,0.003294,0.424154,0.000004,0.000007,-0.000010,0.000015,-0.000005,-49.479137,0.000016,
2071,2308,-4.02814560429196,-7.3843331781443,-0.0158874392961934,-0.001085,-0.032984,-0.002332,-0.053842,-1.486893,326.583974,22.927081,0.999803,0.992485,0.003998,0.436633,0.000369,0.000270,0.000060,0.000397,0.000242,25.046605,0.000645,
2371,2398,2.49537060836392,-5.41727249334153,-0.00610110206582704,0.001094,-0.033943,-0.001291,0.041191,-1.518461,324.587911,21.920576,0.999275,0.987225,0.004766,0.476277,0.000254,0.000205,0.000015,0.000258,0.000201,15.432488,0.000461,
2116,2518,-3.08019761867871,-2.7982664045804,-0.0215640590610064,0.001235,-0.033056,-0.000383,0.046829,-1.473138,323.029643,22.824025,0.999151,0.986627,0.004564,0.445169,0.000149,0.000052,0.000019,0.000153,0.000048,10.888149,0.000210,
2311,2098,1.24318173763247,-11.9912163331069,0.0115133848094615,0.000603,-0.037410,-0.004952,0.030119,-1.704200,329.573864,21.354005,0.999178,0.980533,0.005628,0.351880,0.000685,0.000761,-0.000021,0.000766,0.000680,-75.449470,0.001447,
2476,2923,4.68010662793121,6.03741971963988,-0.0153038554788623,0.002863,-0.033798,0.005013,0.098071,-1.508903,316.176710,23.720128,0.999115,0.985336,0.004678,0.358181,0.000018,0.000001,0.000000,0.000018,0.000001,-1.148895,0.000022,
2191,2893,-1.51008186864154,5.36827818912682,-0.0108678326295149,0.003122,-0.032453,0.002175,0.125327,-1.441367,316.828637,23.100323,0.999770,0.994799,0.003205,0.428024,0.000019,0.000028,0.000003,0.000029,0.000018,73.812171,0.000047,
2041,2173,-4.66129984427844,-10.3402886358718,0.00379167085168319,-0.002732,-0.034359,-0.003858,-0.125461,-1.559655,329.014371,23.065965,0.999285,0.987969,0.004527,0.389363,0.000583,0.000490,0.000104,0.000651,0.000423,32.922885,0.001081,
2461,2848,4.36751604775619,4.40497577534195,-0.0295598142558333,0.002891,-0.033935,0.005706,0.097002,-1.502492,317.247371,23.353690,0.999702,0.992641,0.003475,0.430260,0.000034,0.000001,-0.000005,0.000034,0.000000,-8.812137,0.000040,
2086,2383,-3.71170156002371,-5.74540514836033,-0.0143289628595653,0.000299,-0.032914,-0.004091,0.014771,-1.488968,325.379652,22.915717,0.998015,0.980444,0.005635,0.390696,0.000275,0.000172,0.000039,0.000288,0.000159,18.793802,0.000453,
2056,2233,-4.34329152768285,-9.02541490846458,-0.00240733241298585,-0.002017,-0.033277,-0.003912,-0.092182,-1.500894,327.945804,23.042401,0.999197,0.986770,0.004748,0.381770,0.000477,0.000422,0.000105,0.000558,0.000341,37.671448,0.000907,
2341,2248,1.86906619878858,-8.70137057633396,0.000781659852350458,0.000701,-0.036052,0.002543,0.009161,-1.598065,327.033492,21.596466,0.998744,0.980948,0.005439,0.428076,0.000429,0.000402,-0.000014,0.000435,0.000396,-23.372961,0.000831,
2146,2668,-2.45127716626412,0.471080365235679,-0.020428703013522,0.002276,-0.032610,0.000217,0.092795,-1.456590,320.530763,22.809392,0.999586,0.990931,0.003815,0.505577,0.000084,0.000043,-0.000009,0.000086,0.000041,-12.145322,0.000130,
2281,1993,0.607172225053411,-14.2972790617881,0.0207030235412731,-0.000108,-0.038692,-0.009070,0.010761,-1.778729,331.347149,21.289985,0.999113,0.967220,0.007044,0.304420,0.000845,0.000901,-0.000040,0.000922,0.000824,-62.386072,0.001747,
2041,2158,-4.65977323195108,-10.6675498150184,0.0013661988093645,-0.002849,-0.035216,0.003077,-0.150302,-1.576426,329.209821,23.162284,0.999175,0.985689,0.004993,0.281416,0.000596,0.000525,0.000106,0.000672,0.000449,35.675652,0.001129,
2056,2248,-4.34503445632642,-8.69869277564806,-0.00072386549067005,-0.001624,-0.034070,-0.004205,-0.073553,-1.554369,327.738131,22.985180,0.999041,0.984243,0.004997,0.382455,0.000450,0.000408,0.000091,0.000523,0.000335,38.491934,0.000865,
2266,3283,0.0509723200618915,13.8332484362703,0.0122471140740572,0.004047,-0.033214,0.008802,0.144804,-1.470315,310.487121,23.778354,0.999548,0.992248,0.003443,0.492695,0.000003,0.000009,0.000016,0.000023,-0.000011,50.648002,0.000023,
2251,3193,-0.256201877310335,11.8800729679401,0.045352323180964,0.003788,-0.033399,0.010365,0.128041,-1.474945,312.251394,23.643674,0.999490,0.992006,0.003547,0.406791,0.000003,0.000012,-0.000006,0.000015,0.000000,-63.662754,0.000018,
2101,2488,-3.40157029888494,-3.45406421440981,-0.0166364311801885,0.000983,-0.032956,-0.000354,0.035280,-1.475535,323.613591,22.789907,0.999145,0.988848,0.004290,0.500473,0.000175,0.000062,0.000023,0.000180,0.000057,10.998093,0.000247,
2011,2053,-5.29896166934271,-12.9695979020078,0.00384029874419411,-0.004571,-0.035812,-0.007345,-0.200682,-1.658599,331.047575,23.270810,0.999231,0.989870,0.004245,0.314805,0.000853,0.000608,0.000141,0.000918,0.000544,24.552377,0.001478,
2086,2398,-3.71388447514692,-5.41840678098696,-0.0122335721777063,0.000303,-0.032898,-0.004300,0.015592,-1.473461,325.156232,22.870077,0.998590,0.983058,0.005163,0.452631,0.000262,0.000140,0.000035,0.000271,0.000130,14.874604,0.000410,
2026,2113,-4.97924879003556,-11.6552574169911,0.00721056519671492,-0.003141,-0.034957,-0.006398,-0.137386,-1.611672,330.083553,23.134709,0.998493,0.977381,0.005989,0.374827,0.000713,0.000609,0.000151,0.000821,0.000502,35.500623,0.001335,
2326,2173,1.55646981488968,-10.3443708063088,0.00516092842332228,0.000743,-0.036067,-0.003850,0.033285,-1.624536,328.307185,21.544358,0.998631,0.978313,0.005618,0.337395,0.000545,0.000562,-0.000017,0.000573,0.000535,-57.925188,0.001108,
2506,3088,5.30252813242464,9.62387920471278,0.0161964329590205,0.003681,-0.033611,0.006973,0.127664,-1.493682,313.850532,24.394134,0.999676,0.992549,0.003527,0.424632,0.000022,0.000022,0.000030,0.000053,-0.000008,45.083487,0.000057,
2446,2773,4.05568407670078,2.77054729163034,-0.0340548177291566,0.002352,-0.033443,-0.002214,0.102262,-1.510261,318.409174,22.995389,0.999486,0.987583,0.004432,0.500473,0.000056,0.000052,0.000018,0.000072,0.000036,41.740149,0.000110,
2356,2323,2.18245509952479,-7.05978688871068,-0.000433390708849402,0.000950,-0.035379,0.002144,0.022039,-1.573293,325.825530,21.687104,0.999661,0.993691,0.003813,0.498220,0.000321,0.000281,0.000002,0.000321,0.000281,2.894768,0.000602,
2491,2998,4.99325478637673,7.66735304256113,0.00691832686123917,0.003176,-0.033778,0.007716,0.101798,-1.508594,315.178830,23.999774,0.999336,0.987190,0.004268,0.400698,0.000030,0.000016,0.000026,0.000050,-0.000005,37.637262,0.000055,
2011,2008,-5.29343086824319,-13.9574435977841,0.0084787030622806,-0.005767,-0.036647,-0.007618,-0.255026,-1.689785,331.752827,23.266276,0.997944,0.981748,0.005735,0.313598,0.000993,0.000649,0.000170,0.001063,0.000579,22.387443,0.001665,
2191,2908,-1.51245375739618,5.69178476090499,0.0013826383847686,0.003042,-0.033352,0.010426,0.095475,-1.447035,316.658092,22.982127,0.999769,0.994638,0.003259,0.554360,0.000020,0.000021,0.000004,0.000024,0.000017,49.415540,0.000041,
2296,2038,0.926818167322768,-13.3091233701472,0.0237367494949581,-0.000359,-0.037601,-0.010153,0.003515,-1.743077,330.626141,21.333435,0.998967,0.983029,0.005303,0.290884,0.000786,0.000844,-0.000025,0.000854,0.000777,-69.456172,0.001631,
2236,3148,-0.574614851435978,10.9042922986698,0.0292884599572858,0.003782,-0.032693,0.007627,0.137392,-1.451807,312.894298,23.514251,0.999330,0.990753,0.003882,0.429016,-0.000002,0.000005,-0.000008,0.000011,-0.000007,-56.946516,0.000011,
2161,2773,-2.14359619492858,2.75821956487815,-0.0263896159490855,0.002276,-0.033123,0.006586,0.072993,-1.455084,318.699898,22.929584,0.999434,0.989784,0.004004,0.452527,0.000043,0.000046,-0.000012,0.000057,0.000033,-48.336970,0.000090,
2026,2128,-4.98190321512527,-11.3260619699171,0.00308766718478637,-0.003389,-0.034846,-0.006907,-0.147343,-1.612210,329.798716,23.145115,0.998449,0.976882,0.006193,0.357228,0.000674,0.000599,0.000149,0.000790,0.000483,37.906886,0.001285,
2266,3298,0.0488383960860084,14.1590838830662,0.0183865526737463,0.004149,-0.032934,0.008213,0.151544,-1.467170,310.298695,23.913112,0.999596,0.992474,0.003499,0.384961,0.000010,0.000015,0.000013,0.000026,-0.000001,51.368715,0.000029,
2401,2548,3.12036921913753,-2.1387148964473,-0.0122169045574196,0.001623,-0.033695,0.001540,0.055144,-1.500635,322.140880,22.322697,0.999404,0.989156,0.004539,0.466365,0.000128,0.000047,0.000012,0.000130,0.000046,8.195842,0.000182,
2011,2023,-5.29446467060743,-13.6291238110087,0.00463457261116673,-0.004754,-0.035928,-0.012911,-0.194014,-1.699315,331.542089,23.168263,0.997963,0.980449,0.005839,0.393445,0.000936,0.000581,0.000146,0.000989,0.000528,19.720410,0.001540,
2206,2983,-1.19886769313951,7.32382215165264,0.00218751380776894,0.003508,-0.032522,0.005997,0.130743,-1.435851,315.432015,23.257999,0.999419,0.991284,0.003707,0.399340,0.000010,0.000018,0.000005,0.000020,0.000008,64.708710,0.000029,
2116,2548,-3.08552636322848,-2.14363622883219,-0.0271894170140285,0.001215,-0.032653,0.001686,0.039914,-1.450172,322.490556,22.803830,0.999171,0.986835,0.004569,0.497606,0.000130,0.000045,0.000023,0.000136,0.000039,14.292133,0.000184,
2311,2113,1.24103601020928,-11.6630126977006,0.0137209777594762,0.000757,-0.036795,-0.008558,0.049700,-1.709850,329.370647,21.346806,0.999087,0.980837,0.005515,0.388623,0.000656,0.000731,-0.000020,0.000736,0.000652,-76.081261,0.001388,
2236,3133,-0.573057555497005,10.5800072180717,0.0173167778584684,0.003389,-0.032578,0.005701,0.125621,-1.437396,313.027227,23.503914,0.999626,0.992118,0.003747,0.433778,-0.000003,0.000005,-0.000009,0.000011,-0.000009,-57.941965,0.000011,
2161,2758,-2.14068845096296,2.43093713924739,-0.0197157640681667,0.002296,-0.033350,0.007635,0.070601,-1.467708,318.997312,22.898603,0.999196,0.986251,0.004387,0.460737,0.000043,0.000049,-0.000015,0.000062,0.000030,-50.203426,0.000094,
2071,2323,-4.02911411524083,-7.05798874189193,-0.00325142287624658,-0.000416,-0.033262,-0.000243,-0.029152,-1.489752,326.472604,22.919653,0.999170,0.987288,0.004648,0.439376,0.000346,0.000237,0.000049,0.000365,0.000218,20.877977,0.000589,
2386,2473,2.80835127873653,-3.77653817999061,-0.0122433020418953,0.001936,-0.033729,-0.000274,0.076174,-1.496540,323.365010,22.150378,0.999301,0.988697,0.004530,0.445534,0.000183,0.000114,0.000022,0.000190,0.000108,16.471666,0.000301,
2491,3013,4.98992702650177,7.99383560056382,0.00393138945662486,0.003219,-0.033941,0.008263,0.101578,-1.514777,314.907798,24.079892,0.999601,0.992133,0.003565,0.372616,0.000031,0.000022,0.000024,0.000051,0.000002,39.745227,0.000060,
2476,2938,4.67746321109431,6.3629632254536,-0.0100996069177768,0.002890,-0.033836,0.005722,0.096622,-1.506037,315.973884,23.742011,0.999243,0.988362,0.004238,0.395288,0.000022,-0.000002,-0.000004,0.000023,-0.000002,-8.880812,0.000025,
2431,2698,3.74413223205883,1.13646387415832,-0.0237921077396095,0.002139,-0.033871,0.002344,0.075497,-1.500166,319.663837,22.881596,0.999753,0.991476,0.003758,0.364750,0.000076,0.000056,0.000018,0.000086,0.000046,29.583286,0.000134,
2146,2698,-2.45712724679736,1.12548401881857,-0.0292014172219979,0.002374,-0.033213,0.006434,0.078300,-1.454067,319.956139,22.861750,0.999423,0.989569,0.004006,0.472247,0.000073,0.000045,-0.000014,0.000079,0.000040,-22.502425,0.000121,
2131,2608,-2.76803340808589,-0.83606467375354,-0.018388995156954,0.001792,-0.032898,0.002892,0.062588,-1.454144,321.550563,22.835890,0.999272,0.988912,0.004481,0.463256,0.000101,0.000040,0.000006,0.000101,0.000039,5.700945,0.000145,
2446,2788,4.05317779236488,3.09696723618777,-0.0254641098026696,0.002570,-0.033586,0.003008,0.092721,-1.501603,318.226879,23.079730,0.999433,0.988057,0.004265,0.476829,0.000053,0.000042,0.000011,0.000059,0.000035,31.712554,0.000095,
2326,2188,1.55501037370434,-10.0171412550967,0.0093605050116139,0.001146,-0.035181,-0.011547,0.078557,-1.641814,328.146277,21.507325,0.998917,0.981111,0.005421,0.393828,0.000520,0.000538,-0.000019,0.000550,0.000509,-58.148670,0.001059,
2101,2458,-3.39687770871451,-4.10868971179802,-0.0128879915412767,0.000767,-0.033231,0.000812,0.021868,-1.484418,324.115933,22.821459,0.999293,0.988123,0.004390,0.455127,0.000187,0.000076,0.000023,0.000192,0.000071,11.168475,0.000272,
2131,2623,-2.77036133708421,-0.509120300211791,-0.0175301859798651,0.001894,-0.032753,0.003558,0.065301,-1.445291,321.317371,22.852756,0.999407,0.989247,0.004260,0.461377,0.000098,0.000041,0.000002,0.000099,0.000041,2.193161,0.000144,
2416,2623,3.43208464769636,-0.500839543295008,-0.0229459932881468,0.002040,-0.033929,0.002524,0.070454,-1.493906,320.865185,22.518398,0.999297,0.987680,0.004298,0.495847,0.000097,0.000024,0.000023,0.000103,0.000017,15.863413,0.000130,
2221,3058,-0.885115352200391,8.95050469951342,0.0226916185438881,0.003439,-0.033083,0.008160,0.120143,-1.449000,314.329523,23.298756,0.999757,0.994065,0.003078,0.475686,0.000005,-0.000001,-0.000010,0.000012,-0.000008,-37.509617,0.000013,
2296,2068,0.921798080195757,-12.6512077607301,0.0232384487524087,0.000290,-0.037735,-0.007285,0.023546,-1.741209,330.159724,21.349770,0.999113,0.981146,0.005366,0.343367,0.000730,0.000816,-0.000015,0.000818,0.000727,-80.111382,0.001547,
2146,2683,-2.45444306615758,0.798483482668956,-0.0251661404991523,0.002278,-0.033427,0.005874,0.075480,-1.479850,320.230569,22.873013,0.999433,0.989862,0.003896,0.427040,0.000077,0.000046,-0.000012,0.000081,0.000042,-18.340188,0.000125,
2011,2068,-5.30039557813969,-12.641284234191,0.00799272980231081,-0.004385,-0.034439,-0.011988,-0.179236,-1.629897,330.863145,23.240418,0.999350,0.990432,0.004138,0.364831,0.000817,0.000629,0.000153,0.000902,0.000544,29.125811,0.001461,
2071,2353,-4.03338789479226,-6.40155351881567,-0.00439979044301708,-0.000077,-0.032812,-0.001283,-0.010449,-1.450690,325.997867,22.954530,0.998347,0.981559,0.005415,0.440969,0.000308,0.000193,0.000047,0.000325,0.000176,19.416487,0.000508,
2056,2263,-4.34708268503367,-8.36943001557914,-0.00454954035205901,-0.001063,-0.033708,-0.002482,-0.052558,-1.516709,327.485325,23.017906,0.999077,0.982227,0.005367,0.384419,0.000429,0.000382,0.000095,0.000503,0.000308,38.003933,0.000819,
2461,2863,4.36484851626598,4.73135829066114,-0.0253871065109479,0.002684,-0.033490,0.003063,0.097646,-1.483318,317.037905,23.410131,0.999481,0.990186,0.003829,0.446983,0.000034,0.000005,-0.000002,0.000034,0.000005,-2.928100,0.000042,
2281,2038,0.597682151626152,-13.3064085118443,0.00369478677566804,-0.000400,-0.037516,-0.010399,0.002242,-1.725479,330.472725,21.404643,0.998880,0.983574,0.005324,0.338117,0.000771,0.000829,-0.000015,0.000833,0.000767,-75.948302,0.001601,
2086,2413,-3.71604052609461,-5.09195960155911,-0.00617062840268545,0.000325,-0.033362,-0.000717,0.006117,-1.486816,324.955832,22.845131,0.998802,0.983695,0.004928,0.464686,0.000254,0.000118,0.000035,0.000263,0.000110,13.644953,0.000383,
2026,2143,-4.98351095691915,-10.9979009453064,0.00523307490425395,-0.002952,-0.034048,-0.007055,-0.126642,-1.579259,329.596512,23.100964,0.997951,0.977385,0.006116,0.427475,0.000647,0.000577,0.000128,0.000745,0.000479,37.421281,0.001234,
2086,2428,-3.7181783892564,-4.76355008199564,-0.0102242515249031,0.000713,-0.032875,-0.001848,0.027348,-1.483073,324.700827,22.891296,0.999087,0.985968,0.004635,0.422819,0.000236,0.000109,0.000045,0.000250,0.000094,17.770502,0.000356,
2341,2263,1.86656889711413,-8.37290776888981,0.00463619143232563,0.000665,-0.035386,0.001925,0.009936,-1.579132,326.823954,21.657840,0.998957,0.982021,0.005258,0.424333,0.000401,0.000370,-0.000019,0.000410,0.000361,-24.653256,0.000772,
2446,2803,4.05022477383818,3.42461957430483,-0.0262899852332339,0.002800,-0.033515,0.004379,0.098257,-1.485500,317.980242,23.200754,0.999534,0.989468,0.004014,0.424255,0.000045,0.000032,0.000008,0.000049,0.000028,24.833994,0.000078,
2011,2083,-5.30339645551237,-12.3123305618332,0.00772552936854254,-0.004823,-0.035409,-0.005412,-0.217424,-1.625398,330.582596,23.248889,0.998535,0.980710,0.005552,0.352512,0.000778,0.000633,0.000157,0.000878,0.000533,32.631969,0.001425,
2101,2503,-3.40388402218563,-3.12625566856155,-0.0166676084311348,0.001147,-0.033177,0.001145,0.038363,-1.475831,323.373749,22.848631,0.999164,0.988698,0.004257,0.444008,0.000172,0.000059,0.000022,0.000176,0.000055,10.544115,0.000241,
2281,2008,0.604453126444138,-13.9678296160077,0.017398074400603,-0.000168,-0.038040,-0.012586,0.019981,-1.760422,331.087862,21.271524,0.999207,0.981828,0.005450,0.372752,0.000825,0.000872,-0.000025,0.000882,0.000814,-66.815711,0.001697,
2026,2158,-4.98579882288769,-10.6675647744119,0.00696982418133985,-0.002816,-0.034397,-0.001706,-0.135190,-1.556617,329.360643,23.266103,0.999132,0.985159,0.004935,0.277932,0.000607,0.000522,0.000111,0.000683,0.000446,34.514964,0.001138,
2296,2053,0.924373360001834,-12.9801065028002,0.0232706893309569,0.000239,-0.037873,-0.006125,0.017231,-1.731476,330.394800,21.331150,0.998794,0.981328,0.005493,0.338369,0.000758,0.000832,-0.000020,0.000838,0.000753,-75.775783,0.001591,
2161,2803,-2.14736682039541,3.41042986223302,-0.0188000323797155,0.002731,-0.032527,0.002329,0.107196,-1.449921,318.309908,22.972227,0.999565,0.991053,0.003862,0.434934,0.000038,0.000052,-0.000009,0.000056,0.000034,-64.350278,0.000091,
2236,3178,-0.579137581418376,11.5535539261262,0.040661809529297,0.003831,-0.033068,0.008283,0.137365,-1.466298,312.499148,23.516400,0.999404,0.990713,0.003764,0.452103,0.000000,0.000010,-0.000007,0.000014,-0.000003,-63.423000,0.000014,
2176,2848,-1.82957831997296,4.38982062657703,-0.0205603124934441,0.002763,-0.032986,0.007554,0.092137,-1.441003,317.495518,23.012429,0.999305,0.990869,0.003820,0.453693,0.000032,0.000047,0.000001,0.000048,0.000032,85.966776,0.000080,
2041,2188,-4.66345284754942,-10.0109281026254,-3.41380967938676E-05,-0.002615,-0.033350,-0.006939,-0.111246,-1.536140,328.755375,23.093543,0.999111,0.985968,0.004821,0.380528,0.000549,0.000496,0.000111,0.000636,0.000408,38.276057,0.001052,
2176,2833,-1.82779695485805,4.06404412668232,-0.0270920350159827,0.002723,-0.033293,0.011633,0.077499,-1.455065,317.670356,22.997400,0.999602,0.993396,0.003546,0.442777,0.000036,0.000054,-0.000002,0.000054,0.000036,-84.095425,0.000091,
2236,3163,-0.577238703938768,11.2292541879315,0.0308898607016772,0.003706,-0.032655,0.007584,0.134063,-1.447466,312.659051,23.508248,0.999423,0.990401,0.003867,0.459333,0.000001,0.000012,-0.000006,0.000015,-0.000001,-66.894946,0.000016,
2221,3073,-0.887649651154192,9.27634784891793,0.0247168866130778,0.003431,-0.033012,0.008626,0.118241,-1.458729,314.099408,23.367885,0.999648,0.992855,0.003337,0.414725,0.000004,0.000003,-0.000010,0.000013,-0.000006,-43.369916,0.000013,
2191,2953,-1.5199167955241,6.67017928068846,0.00819037470944295,0.002767,-0.032955,0.009393,0.086232,-1.430187,315.972027,23.123425,0.999357,0.991484,0.003749,0.471795,0.000016,0.000016,0.000004,0.000020,0.000012,46.417421,0.000032,
2116,2533,-3.08278263081101,-2.47106767440719,-0.0222212537723863,0.001126,-0.032608,0.000076,0.040587,-1.446753,322.775280,22.805101,0.999047,0.984800,0.004878,0.495146,0.000136,0.000052,0.000022,0.000141,0.000047,13.872775,0.000196,
2476,2953,4.67531952689922,6.68872017112043,-0.00633582032298818,0.003396,-0.033699,0.004735,0.123715,-1.494821,315.787387,23.768511,0.999141,0.988409,0.004304,0.436016,0.000028,-0.000005,0.000004,0.000028,-0.000005,6.724162,0.000030,
2506,3103,5.29988590150472,9.94917133391136,0.0159618024979409,0.003929,-0.033453,0.004374,0.149180,-1.494382,313.624418,24.401281,0.999643,0.992411,0.003503,0.477046,0.000014,0.000020,0.000032,0.000049,-0.000015,47.496528,0.000050,
2191,2923,-1.51493909992948,6.01938702234376,-0.00126805152211773,0.003189,-0.032925,0.008566,0.108177,-1.447265,316.403449,23.131280,0.999344,0.990722,0.003900,0.418971,0.000020,0.000021,0.000006,0.000027,0.000014,45.377045,0.000042,
2071,2368,-4.03584757645121,-6.07394332750617,-0.00802246345597268,-0.000149,-0.032902,-0.003575,-0.007307,-1.486738,325.729472,22.950000,0.997735,0.978989,0.005798,0.408099,0.000294,0.000189,0.000042,0.000309,0.000175,19.397181,0.000489,
2056,2278,-4.34938945931556,-8.04012103134339,-0.00786520457825191,-0.000992,-0.033469,-0.004065,-0.044753,-1.508747,327.223638,23.095364,0.999630,0.990386,0.004264,0.311598,0.000404,0.000320,0.000086,0.000458,0.000266,31.933430,0.000733,
2251,3208,-0.258719883961955,12.2052717632067,0.0409889502477085,0.003823,-0.033197,0.004062,0.150474,-1.469654,311.991552,23.634229,0.999706,0.995012,0.003128,0.443650,0.000002,0.000010,-0.000001,0.000010,0.000001,-80.498123,0.000013,
2161,2788,-2.14544449651944,3.08453601149369,-0.0241784061339558,0.002510,-0.032590,0.002421,0.096661,-1.456421,318.498199,22.959970,0.999467,0.989947,0.004116,0.431130,0.000038,0.000051,-0.000010,0.000057,0.000032,-60.387534,0.000090,
2086,2443,-3.72095702041505,-4.43495137502908,-0.018565036743496,0.000731,-0.032651,-0.003036,0.031655,-1.472376,324.393159,22.913356,0.999320,0.987567,0.004480,0.412129,0.000216,0.000094,0.000042,0.000229,0.000081,17.240356,0.000322,
2146,2728,-2.46145038898674,1.7779881762802,-0.0231530862534441,0.002331,-0.032684,0.002330,0.088911,-1.460291,319.530600,22.888154,0.999431,0.989505,0.004163,0.455967,0.000064,0.000050,-0.000016,0.000074,0.000039,-33.506300,0.000116,
2371,2413,2.49311966592819,-5.08853673028692,-0.00871684735409417,0.001617,-0.033687,-0.005149,0.078921,-1.538358,324.360620,22.033276,0.999483,0.988280,0.004524,0.386070,0.000234,0.000187,0.000017,0.000240,0.000181,18.098234,0.000422,
2401,2563,3.11745326397423,-1.81008631850818,-0.0228095459189603,0.002164,-0.033007,-0.002311,0.094199,-1.495495,321.847400,22.381921,0.999337,0.987269,0.004482,0.459030,0.000120,0.000043,0.000019,0.000124,0.000038,13.091388,0.000170,
2491,3028,4.98686169927997,8.32009761492021,0.000667918241163079,0.003389,-0.033614,0.006984,0.114513,-1.499683,314.647556,24.121064,0.999734,0.993830,0.003288,0.404684,0.000036,0.000039,0.000022,0.000059,0.000015,46.967184,0.000079,
2251,3223,-0.260921304060599,12.5297651084018,0.0539020829745027,0.003695,-0.033122,0.008337,0.130584,-1.456175,311.834274,23.654964,0.999671,0.994366,0.003241,0.458345,0.000002,0.000006,0.000000,0.000006,0.000002,-86.613367,0.000008,
2206,3028,-1.20623827623956,8.29961118209528,0.0115938409034015,0.003539,-0.032936,0.009472,0.121009,-1.454906,314.767331,23.273320,0.999551,0.992605,0.003581,0.412718,0.000009,0.000016,-0.000005,0.000019,0.000006,-62.641581,0.000026,
2461,2878,4.36176556477097,5.05841975236144,-0.0285733827451509,0.002943,-0.033207,0.003733,0.107228,-1.453711,316.775362,23.468348,0.999398,0.990666,0.003859,0.472813,0.000031,0.000004,-0.000003,0.000032,0.000003,-6.136838,0.000039,
2431,2713,3.74267702848439,1.46162390751694,-0.0152221015864598,0.002943,-0.033544,0.002225,0.112960,-1.496959,319.529546,22.834885,0.999686,0.991273,0.003799,0.464736,0.000069,0.000060,0.000020,0.000085,0.000043,38.674057,0.000131,
2311,2128,1.23812266760127,-11.3319252129176,0.0117233917899284,0.000489,-0.035992,-0.012054,0.049629,-1.670610,329.111083,21.517604,0.999058,0.983229,0.005243,0.292456,0.000630,0.000704,-0.000019,0.000709,0.000625,-76.288316,0.001335,
2041,2203,-4.66544549963107,-9.68221121335444,-0.00226383090131321,-0.002131,-0.033493,-0.005101,-0.094184,-1.527215,328.512727,23.099449,0.998447,0.982687,0.005384,0.378549,0.000519,0.000475,0.000118,0.000617,0.000377,39.618921,0.001004,
2146,2713,-2.45987943655607,1.45236570423742,-0.0307859608379886,0.002040,-0.033070,0.003943,0.070508,-1.463857,319.691695,22.900042,0.999482,0.991027,0.003979,0.432352,0.000071,0.000049,-0.000017,0.000080,0.000041,-28.232241,0.000123,
2506,3118,5.29676829482321,10.2751555267219,0.0193350272323869,0.003845,-0.034032,0.007008,0.134908,-1.506408,313.392268,24.510150,0.999475,0.991523,0.003740,0.416025,0.000012,0.000015,0.000029,0.000042,-0.000015,46.548117,0.000043,
2221,3103,-0.892397687682983,9.9265926335914,0.0283555293629547,0.003623,-0.033038,0.007547,0.130466,-1.483029,313.652227,23.386712,0.999485,0.991942,0.003647,0.407329,-0.000003,0.000008,-0.000012,0.000016,-0.000011,-57.147261,0.000016,
2386,2488,2.80551524588921,-3.44878767424601,-0.0139305590470826,0.002081,-0.033571,-0.000829,0.084896,-1.495586,323.116363,22.186852,0.999360,0.988276,0.004413,0.454532,0.000172,0.000099,0.000024,0.000179,0.000092,16.533604,0.000276,
2206,2998,-1.20162162455633,7.64921757112348,0.000788326465624323,0.003504,-0.032782,0.006718,0.128215,-1.442696,315.173309,23.241411,0.999381,0.990919,0.003844,0.424959,0.000008,0.000022,0.000003,0.000023,0.000008,77.685751,0.000032,
2326,2203,1.55179610311761,-9.68757176980446,0.00600203896556195,0.001035,-0.035104,-0.010641,0.070383,-1.632684,327.867747,21.583408,0.998961,0.980687,0.005633,0.364155,0.000492,0.000503,-0.000018,0.000516,0.000479,-53.324992,0.000996,
2236,3193,-0.582098914451734,11.8785869686097,0.0417587157003823,0.003759,-0.033425,0.012514,0.120169,-1.477986,312.245744,23.536682,0.999330,0.990547,0.003828,0.439773,-0.000001,0.000007,-0.000007,0.000011,-0.000005,-59.803102,0.000011,
2056,2308,-4.35329211358348,-7.38572317344055,-0.00211351974195395,-0.000758,-0.032735,-0.004612,-0.032276,-1.478811,326.801650,22.991352,0.999656,0.990131,0.004214,0.438830,0.000377,0.000268,0.000070,0.000411,0.000234,26.168887,0.000653,
2086,2458,-3.72329645883226,-4.10823285036719,-0.0184511786488883,0.000851,-0.032937,-0.001037,0.031303,-1.471106,324.151975,22.857378,0.999340,0.988602,0.004377,0.469746,0.000199,0.000067,0.000030,0.000205,0.000061,12.256856,0.000279,
2356,2338,2.17985465643232,-6.72884275836066,-0.0100246527411514,0.001292,-0.034166,-0.006232,0.067568,-1.566769,325.547228,21.879974,0.999343,0.988290,0.004547,0.352821,0.000305,0.000268,0.000003,0.000305,0.000268,4.583796,0.000574,
2236,3208,-0.583852007040118,12.2040634393425,0.0469017553739377,0.003955,-0.032805,0.007488,0.145843,-1.442618,312.068400,23.577878,0.999436,0.992194,0.003640,0.453837,-0.000003,0.000004,-0.000002,0.000004,-0.000004,-71.900751,0.000005,
2071,2338,-4.03054820024723,-6.73107178244832,0.0030295179717541,-0.000028,-0.033210,-0.001580,-0.007479,-1.483303,326.305128,22.896077,0.998559,0.984871,0.005027,0.467983,0.000329,0.000215,0.000046,0.000345,0.000199,19.506337,0.000550,
2011,2098,-5.30535683702698,-11.982571181051,0.00576910676340958,-0.004436,-0.035099,-0.004178,-0.202945,-1.577348,330.339701,23.274136,0.998236,0.978291,0.005942,0.366396,0.000743,0.000621,0.000150,0.000844,0.000520,33.915495,0.001377,
2491,3043,4.98358090028271,8.64651775102875,0.00358175545852646,0.003292,-0.033831,0.011205,0.093730,-1.497123,314.405147,24.234587,0.999730,0.992892,0.003554,0.351477,0.000032,0.000027,0.000030,0.000060,0.000000,42.683509,0.000069,
2011,2143,-5.3106636377996,-10.9958844665602,0.000492303084683954,-0.002980,-0.033953,-0.004563,-0.134788,-1.532687,329.641688,23.253162,0.997972,0.978622,0.005969,0.405121,0.000658,0.000576,0.000118,0.000742,0.000492,35.415534,0.001242,
2116,2563,-3.08750766048911,-1.81664809692256,-0.0220987891366349,0.001466,-0.032928,0.004015,0.044457,-1.471471,322.294873,22.873662,0.999261,0.986770,0.004632,0.410527,0.000123,0.000039,0.000014,0.000125,0.000036,9.256383,0.000170,
2506,3133,5.29360240490685,10.6010571855396,0.0196348784731413,0.003963,-0.033796,0.009585,0.130500,-1.484746,313.144038,24.562281,0.999419,0.991328,0.003784,0.445590,0.000020,-0.000004,0.000024,0.000035,-0.000018,31.684223,0.000035,
2131,2638,-2.77174578782011,-0.183870706500443,-0.00127919543177768,0.001829,-0.032762,0.002698,0.064880,-1.456067,321.210011,22.868381,0.999730,0.991990,0.003610,0.440683,0.000096,0.000046,0.000000,0.000096,0.000046,0.442587,0.000145,
2281,2023,0.601268935649269,-13.6381917589589,0.0129247903634564,-0.000336,-0.037875,-0.012476,0.011949,-1.753752,330.801512,21.274728,0.998887,0.980681,0.005695,0.408009,0.000798,0.000851,-0.000015,0.000855,0.000794,-75.051024,0.001649,
2296,2083,0.918645283115705,-12.3198793198258,0.0115333079863831,0.000444,-0.037026,-0.011101,0.043664,-1.704214,329.840073,21.420072,0.999266,0.981958,0.005255,0.343544,0.000701,0.000798,-0.000016,0.000801,0.000699,-80.859058,0.001500,
2251,3238,-0.263890208471668,12.8543525036989,0.0498444879252702,0.003841,-0.033155,0.010181,0.131165,-1.468983,311.555419,23.616553,0.999793,0.995616,0.002917,0.505898,0.000001,-0.000001,0.000003,0.000003,-0.000004,35.449090,0.000004,
2446,2818,4.04775368520107,3.75043538494673,-0.024954272737375,0.002924,-0.032757,0.000868,0.117307,-1.477359,317.766124,23.181775,0.999468,0.989260,0.004124,0.503411,0.000040,0.000018,0.000005,0.000041,0.000017,11.308363,0.000060,
2086,2518,-3.73175987877083,-2.80035897781417,-0.00880073647311974,0.001319,-0.033239,0.001396,0.045694,-1.480915,323.277996,22.870854,0.999387,0.990963,0.003941,0.447034,0.000161,0.000044,0.000031,0.000169,0.000037,13.997518,0.000220,
2041,2233,-4.6693508844028,-9.02539726827492,-0.00318620153115035,-0.001525,-0.033471,-0.005215,-0.066053,-1.532952,328.050903,23.131394,0.999108,0.981915,0.005245,0.330595,0.000466,0.000419,0.000097,0.000542,0.000343,38.125366,0.000893,
2071,2383,-4.03814178063835,-5.74583585964977,-0.00521231291384083,-0.000105,-0.032746,-0.000271,-0.014595,-1.448205,325.503362,22.984103,0.998383,0.982719,0.005340,0.410939,0.000278,0.000159,0.000039,0.000289,0.000148,16.671437,0.000445,
2101,2473,-3.39950826531976,-3.78106394828916,-0.0116586548183477,0.000695,-0.033480,0.004923,0.006480,-1.473935,323.868403,22.854407,0.999254,0.988585,0.004362,0.435134,0.000180,0.000070,0.000023,0.000185,0.000065,11.313845,0.000259,
2281,2053,0.594981124142688,-12.9780829804867,0.00573931685863727,-0.000290,-0.037735,-0.006493,-0.005772,-1.720529,330.240906,21.375300,0.998823,0.981130,0.005483,0.403500,0.000744,0.000820,-0.000010,0.000821,0.000743,-82.478894,0.001565,
2476,2968,4.67276886274139,7.01491913862433,-0.000361720006651467,0.003262,-0.033630,0.003115,0.123743,-1.495958,315.592020,23.867131,0.999335,0.989862,0.004100,0.392131,0.000020,0.000013,0.000012,0.000029,0.000004,37.500072,0.000036,
2176,2863,-1.83146263946439,4.71510849186505,-0.0116005557694052,0.002703,-0.032755,0.005951,0.094436,-1.433189,317.328842,23.010212,0.998798,0.987325,0.004288,0.475554,0.000031,0.000043,-0.000002,0.000043,0.000031,-82.554174,0.000074,
2026,2173,-4.98739492206642,-10.3401957723219,0.0086011390578733,-0.002534,-0.034126,-0.005227,-0.112550,-1.565521,329.156533,23.196068,0.999240,0.987225,0.004574,0.331969,0.000595,0.000492,0.000108,0.000663,0.000424,32.365818,0.001096,
2341,2278,1.8636533446818,-8.04392244220285,-0.00411141827424899,0.000761,-0.034972,-0.004137,0.035558,-1.584767,326.534296,21.668499,0.999064,0.981989,0.005195,0.447057,0.000376,0.000356,-0.000011,0.000381,0.000351,-23.490369,0.000733,
2101,2518,-3.40666352839878,-2.79874660824833,-0.0188506755065418,0.001098,-0.033576,0.004457,0.026306,-1.490747,323.101098,22.880042,0.999578,0.991857,0.003759,0.400102,0.000152,0.000049,0.000025,0.000158,0.000043,13.073371,0.000211,
2416,2638,3.42954929164666,-0.17335279363067,-0.01917683099839,0.002191,-0.033937,0.002992,0.075642,-1.509628,320.657786,22.643552,0.999378,0.988106,0.004291,0.403018,0.000086,0.000029,0.000022,0.000094,0.000022,18.869662,0.000123,
2461,2893,4.35911574649712,5.38472567242509,-0.0227605836078624,0.002916,-0.033708,0.004644,0.102337,-1.474353,316.574153,23.577469,0.999076,0.988347,0.004296,0.396794,0.000034,0.000003,-0.000001,0.000034,0.000003,-2.273416,0.000041,
2116,2578,-3.08960872437891,-1.49004924485572,-0.0180201676562888,0.001524,-0.032930,0.004216,0.046518,-1.467202,322.088304,22.877579,0.999405,0.989096,0.004293,0.415099,0.000110,0.000035,0.000008,0.000111,0.000034,6.177739,0.000151,
2221,3088,-0.890102320925219,9.60208291372574,0.0181382379407182,0.003823,-0.033007,0.005035,0.147819,-1.477918,313.828803,23.385452,0.999460,0.992880,0.003376,0.396138,0.000000,0.000005,-0.000010,0.000012,-0.000008,-51.607137,0.000013,
2251,3253,-0.267143634929432,13.1812429350299,0.0355597721366507,0.004224,-0.033057,0.009008,0.152813,-1.455528,311.210595,23.711516,0.999661,0.993478,0.003323,0.446242,-0.000001,-0.000010,0.000008,0.000004,-0.000015,30.906755,0.000016,
2491,3058,4.98158348800286,8.97113376972788,0.0126349243152504,0.003342,-0.033745,0.008145,0.107843,-1.497515,314.250034,24.228132,0.999656,0.991362,0.003896,0.415571,0.000032,0.000020,0.000027,0.000054,-0.000002,38.932935,0.000061,
2026,2218,-4.99457140740748,-9.35446605421895,-0.00248388215158002,-0.002281,-0.033735,-0.002351,-0.108709,-1.556549,328.345608,23.145330,0.998431,0.980319,0.005655,0.370464,0.000504,0.000472,0.000128,0.000617,0.000359,41.447226,0.000988,
2236,3268,-0.595796218305431,13.5050129488025,0.0276129308837199,0.004325,-0.033000,0.011198,0.150782,-1.454770,310.928391,23.618815,0.999447,0.992328,0.003578,0.479614,-0.000007,-0.000013,0.000009,0.000000,-0.000020,35.947041,0.000023,
2071,2443,-4.04664498878058,-4.43637386589155,-0.00641770609689729,0.000520,-0.032380,-0.003261,0.022703,-1.468555,324.563241,22.952279,0.999182,0.987417,0.004503,0.415874,0.000216,0.000086,0.000043,0.000228,0.000073,16.615641,0.000314,
2161,2818,-2.15002628024442,3.73707246051128,-0.0132152690680414,0.002370,-0.032779,0.004652,0.083353,-1.455202,318.088692,23.070321,0.999702,0.992904,0.003471,0.341505,0.000040,0.000056,-0.000004,0.000057,0.000039,-76.925372,0.000097,
2221,3118,-0.894562245967816,10.2527609523481,0.032932694389558,0.003661,-0.032413,0.005900,0.137838,-1.444280,313.452026,23.464402,0.999566,0.991363,0.003779,0.386381,-0.000004,0.000005,-0.000011,0.000013,-0.000012,-56.408013,0.000014,
2431,2728,3.73963408327231,1.78760964751573,-0.0148105447935905,0.003148,-0.034034,0.006074,0.107967,-1.509131,319.284176,22.817319,0.999695,0.991638,0.003703,0.520309,0.000063,0.000068,0.000023,0.000089,0.000042,47.909444,0.000133,
2056,2293,-4.3509789731252,-7.71378450217761,-0.00189471573230549,-0.000754,-0.032816,-0.005034,-0.030911,-1.487736,327.046323,22.987291,0.999854,0.993740,0.003648,0.437194,0.000398,0.000296,0.000083,0.000445,0.000249,29.313596,0.000703,
2326,2218,1.54842180442642,-9.35954755225661,0.00718699063162376,0.000662,-0.035541,-0.006441,0.038685,-1.621450,327.604146,21.569343,0.998508,0.978069,0.005932,0.426532,0.000465,0.000473,-0.000018,0.000487,0.000451,-51.404444,0.000938,
2251,3283,-0.274057450467112,13.8320611137194,0.0154989092035294,0.004186,-0.033070,0.009657,0.148885,-1.467811,310.546394,23.730942,0.999446,0.991355,0.003701,0.458398,-0.000007,0.000004,0.000012,0.000012,-0.000015,57.676490,0.000016,
2506,3148,5.29091697292232,10.9264642506328,0.0287512313694265,0.003782,-0.033843,0.011773,0.113631,-1.492321,312.957558,24.655491,0.999436,0.990019,0.003919,0.404377,0.000017,-0.000010,0.000022,0.000030,-0.000023,29.165531,0.000031,
2056,2323,-4.35431264344484,-7.05809570527038,0.00329398160374694,-0.000074,-0.032138,-0.008369,0.009908,-1.470776,326.647063,23.017328,0.999199,0.983732,0.004948,0.417301,0.000352,0.000233,0.000060,0.000377,0.000208,22.476226,0.000593,
2161,2833,-2.15168512155484,4.0613597084874,-0.00480121719505178,0.002906,-0.033120,0.008374,0.096466,-1.461961,317.929005,22.978351,0.999633,0.993023,0.003493,0.436389,0.000039,0.000051,-0.000001,0.000051,0.000039,-86.962341,0.000091,
2116,2608,-3.0940135886898,-0.837249513770956,-0.0166726507193289,0.001809,-0.033186,0.003515,0.061642,-1.467533,321.629487,22.811691,0.999194,0.987636,0.004554,0.488758,0.000098,0.000036,0.000008,0.000099,0.000035,7.472474,0.000140,
2236,3223,-0.587409714596596,12.5294363222535,0.0458139097955268,0.003528,-0.033135,0.012907,0.108494,-1.443646,311.776216,23.613440,0.999397,0.991565,0.003833,0.436809,-0.000004,0.000000,-0.000001,0.000000,-0.000004,-74.360583,0.000004,
2356,2353,2.17775694127642,-6.40299665063812,-0.00961502788504731,0.001778,-0.033684,-0.008820,0.099144,-1.553053,325.340718,21.703508,0.999411,0.988401,0.004636,0.583659,0.000289,0.000255,0.000011,0.000292,0.000252,16.181082,0.000545,
2041,2248,-4.67155563650611,-8.69848586480897,-0.00361590874916828,-0.001482,-0.033793,-0.005296,-0.063963,-1.539970,327.809018,23.023341,0.999132,0.984172,0.004923,0.426550,0.000439,0.000403,0.000079,0.000502,0.000341,38.503802,0.000848,
2131,2653,-2.77460158384786,0.143652962804921,-0.0126901577897911,0.002060,-0.032725,0.001075,0.080395,-1.458668,320.887069,22.854913,0.999622,0.990534,0.003858,0.457946,0.000090,0.000049,0.000000,0.000090,0.000049,-0.370823,0.000141,
2401,2578,3.11440738175568,-1.48293454350703,-0.0210171866302744,0.002054,-0.033839,-0.000384,0.081860,-1.520752,321.606549,22.450682,0.999358,0.986740,0.004506,0.411192,0.000114,0.000048,0.000023,0.000122,0.000040,17.525194,0.000168,
2206,3043,-1.20825106234871,8.62449457448172,0.0215166121338939,0.003461,-0.033155,0.009675,0.116680,-1.458123,314.601409,23.292175,0.999789,0.994719,0.003172,0.406146,0.000007,0.000010,-0.000006,0.000014,0.000003,-50.828307,0.000018,
2026,2188,-4.98972413742781,-10.0113349618312,0.00333731317067532,-0.002498,-0.033565,-0.007640,-0.104110,-1.559937,328.880297,23.180176,0.999107,0.986215,0.004820,0.346414,0.000562,0.000503,0.000114,0.000650,0.000415,37.753818,0.001073,
2191,2968,-1.52186435680106,6.9958296420827,0.00637064803441945,0.003256,-0.032836,0.005532,0.120857,-1.447998,315.746999,23.128993,0.999317,0.990541,0.003880,0.462253,0.000017,0.000015,0.000005,0.000022,0.000011,40.158118,0.000033,
2476,2983,4.66889631848601,7.34181274680476,-0.00744637365897916,0.003036,-0.033689,0.003203,0.112956,-1.512634,315.276133,23.959247,0.999227,0.988639,0.004300,0.339468,0.000020,0.000016,0.000020,0.000038,-0.000002,42.605107,0.000043,
2011,2113,-5.30612538385348,-11.6547080200185,0.0100469195443225,-0.003548,-0.034384,-0.008235,-0.151042,-1.580268,330.186672,23.250666,0.998358,0.979695,0.005829,0.377624,0.000709,0.000602,0.000142,0.000808,0.000504,34.712790,0.001324,
2491,3073,4.97866526026262,9.29635534254198,0.0112392804488195,0.003589,-0.033906,0.007924,0.119977,-1.509336,314.005068,24.224544,0.999588,0.990704,0.003994,0.465323,0.000031,0.000023,0.000030,0.000057,-0.000003,40.725949,0.000064,
2086,2533,-3.73432839417231,-2.47261184430931,-0.0104365485585731,0.001278,-0.032904,0.002533,0.040644,-1.462957,323.016547,22.900266,0.999600,0.991707,0.003865,0.435585,0.000150,0.000048,0.000035,0.000160,0.000038,17.331578,0.000210,
2041,2218,-4.66767507607915,-9.35431743174913,-0.0032004257075755,-0.002077,-0.033409,-0.005084,-0.091737,-1.539351,328.266689,23.070309,0.997906,0.976218,0.005985,0.390496,0.000489,0.000463,0.000118,0.000594,0.000357,41.796793,0.000961,
2251,3298,-0.276016049162351,14.1572502015058,0.019929863178163,0.004493,-0.032743,0.008037,0.168498,-1.454789,310.356790,23.786501,0.999277,0.990380,0.003844,0.437776,-0.000003,0.000011,0.000005,0.000013,-0.000005,73.475105,0.000013,
2191,2938,-1.51713470112512,6.34464979606575,0.00548652954671525,0.003068,-0.032947,0.008053,0.104259,-1.442083,316.211800,23.130932,0.999327,0.991934,0.003770,0.438342,0.000016,0.000017,0.000005,0.000022,0.000011,47.167034,0.000033,
2446,2833,4.04551321380592,4.07846050495416,-0.0188298796812205,0.003237,-0.033050,0.001399,0.129690,-1.458846,317.584077,23.396051,0.999663,0.991584,0.003708,0.359696,0.000035,0.000009,0.000003,0.000035,0.000008,6.798044,0.000046,
2146,2758,-2.46624349167691,2.43088728072177,-0.0197830505333059,0.002320,-0.032747,0.002963,0.086467,-1.454816,319.069159,22.934385,0.999446,0.990109,0.003924,0.430854,0.000057,0.000043,-0.000018,0.000069,0.000031,-33.973283,0.000103,
2311,2143,1.23583142253032,-11.0040110580959,0.0188103702521403,0.000884,-0.036575,-0.005721,0.045934,-1.657450,328.924980,21.528175,0.999169,0.983654,0.005261,0.329780,0.000600,0.000643,-0.000019,0.000651,0.000593,-69.026276,0.001244,
2011,2158,-5.31345827517891,-10.6670638547834,0.00583964738348186,-0.003484,-0.034828,0.002799,-0.178113,-1.545510,329.402142,23.354130,0.997943,0.978274,0.006144,0.282231,0.000609,0.000527,0.000100,0.000675,0.000460,33.878807,0.001142,
2461,2908,4.35684632064959,5.71007118241057,-0.0149715620873963,0.002851,-0.033524,0.002561,0.107240,-1.484732,316.399667,23.605565,0.998885,0.986366,0.004643,0.412007,0.000030,-0.000010,0.000003,0.000030,-0.000010,3.935008,0.000031,
2146,2743,-2.46344163681306,2.10414403926932,-0.017030868168888,0.002558,-0.032564,0.004507,0.092806,-1.440799,319.342043,22.900796,0.999472,0.989838,0.004132,0.470465,0.000060,0.000049,-0.000017,0.000072,0.000037,-35.418561,0.000111,
2206,3013,-1.20376977691662,7.97430094495726,0.00811120920451458,0.003514,-0.032788,0.007605,0.125765,-1.461548,314.987675,23.270839,0.999276,0.990440,0.003924,0.392469,0.000010,0.000018,-0.000002,0.000019,0.000010,-76.093932,0.000029,
2236,3283,-0.599181939187638,13.8308983889623,0.0219796067167977,0.004032,-0.032866,0.011461,0.136447,-1.456900,310.620505,23.694568,0.999184,0.991841,0.003779,0.421415,-0.000009,0.000004,0.000013,0.000012,-0.000017,58.300438,0.000017,
2101,2593,-3.41809827134187,-1.16431355810337,-0.0131023424144132,0.001319,-0.033033,0.006297,0.031252,-1.452388,321.940977,22.859817,0.999192,0.988137,0.004391,0.468908,0.000096,0.000039,0.000016,0.000101,0.000034,14.858644,0.000140,
2386,2503,2.80304306341918,-3.12124896574687,-0.00774874339128928,0.002210,-0.033744,0.001609,0.082016,-1.497270,322.921695,22.283170,0.999558,0.989772,0.004075,0.400800,0.000157,0.000092,0.000020,0.000163,0.000086,15.869259,0.000254,
2176,2908,-1.83875160277138,5.6917688322977,-0.00137096618095711,0.002508,-0.033263,0.008210,0.078217,-1.464600,316.666326,23.029962,0.999488,0.991862,0.003707,0.460061,0.000030,0.000020,0.000000,0.000030,0.000020,2.680824,0.000051,
2236,3238,-0.590026743238258,12.8539978733562,0.040240037355602,0.003758,-0.033210,0.009832,0.128935,-1.472418,311.504617,23.580244,0.999625,0.993463,0.003350,0.461016,-0.000004,-0.000005,0.000003,-0.000002,-0.000008,39.927410,0.000010,
2056,2368,-4.36303566953376,-6.0728522520081,-0.0141700970517604,-0.000507,-0.032699,-0.002169,-0.027640,-1.477327,325.739173,23.041573,0.998627,0.983299,0.005188,0.376417,0.000303,0.000182,0.000049,0.000320,0.000164,19.625166,0.000493,
2026,2233,-4.99641336042346,-9.02459212355673,-0.00599261352658687,-0.001777,-0.033332,-0.003607,-0.082030,-1.508488,328.100991,23.215218,0.999315,0.984282,0.004959,0.341239,0.000482,0.000425,0.000104,0.000561,0.000345,37.295107,0.000915,
2041,2263,-4.67350889278041,-8.37004853263998,-0.000255291673965985,-0.001367,-0.033188,-0.004671,-0.060238,-1.501751,327.599048,23.053258,0.999152,0.985448,0.004850,0.429387,0.000419,0.000377,0.000084,0.000485,0.000311,38.016675,0.000802,
2296,2113,0.912362143221976,-11.6611180959009,0.00282073128005322,0.000376,-0.036416,-0.009123,0.034128,-1.698629,329.274951,21.455098,0.998872,0.978465,0.005734,0.380852,0.000644,0.000725,-0.000019,0.000729,0.000639,-77.642419,0.001369,
2221,3193,-0.906677438681154,11.8774457738242,0.0477157155909822,0.004019,-0.032878,0.010225,0.140377,-1.443113,312.351973,23.479147,0.999456,0.992142,0.003607,0.461453,-0.000004,0.000002,-0.000007,0.000007,-0.000008,-56.646020,0.000009,
2071,2458,-4.04872972480675,-4.10951630387977,-0.00941203557920289,0.000861,-0.032442,-0.004439,0.041705,-1.478041,324.315540,22.889649,0.999473,0.989566,0.004259,0.467166,0.000197,0.000058,0.000029,0.000203,0.000052,11.236389,0.000269,
2206,3058,-1.21092075952356,8.94979898929809,0.0202727599485115,0.003383,-0.033154,0.008204,0.117840,-1.453188,314.347333,23.271780,0.999763,0.994096,0.003196,0.447374,0.000007,0.000002,-0.000007,0.000012,-0.000003,-34.667064,0.000013,
2266,1993,0.278175046892393,-14.2967041316186,0.0152393926213676,-0.001039,-0.038485,-0.009156,-0.031652,-1.772844,331.278879,21.341297,0.998763,0.962240,0.007647,0.365945,0.000841,0.000879,-0.000010,0.000882,0.000838,-75.949534,0.001720,
2371,2428,2.48972015156666,-4.76211044552313,-0.0114207445261059,0.001491,-0.034030,-0.002473,0.063528,-1.515933,324.080388,21.896944,0.999672,0.991655,0.004183,0.587918,0.000222,0.000168,0.000020,0.000229,0.000161,18.383609,0.000392,
2071,2398,-4.04037303129,-5.41882961718291,-0.00856529051878852,0.000146,-0.033145,-0.000815,-0.001693,-1.474408,325.246995,22.927674,0.998621,0.983893,0.005259,0.439960,0.000266,0.000125,0.000036,0.000275,0.000116,13.475022,0.000402,
2011,2173,-5.31504475144345,-10.3394147288615,0.00470746937810418,-0.003189,-0.034103,-0.002979,-0.148748,-1.543785,329.181694,23.269514,0.998671,0.984528,0.005375,0.359129,0.000594,0.000499,0.000093,0.000651,0.000442,31.468133,0.001099,
2356,2368,2.17438061115643,-6.07291141986917,-0.00952028871836319,0.001613,-0.033881,-0.004071,0.074841,-1.524671,325.073280,21.902461,0.999043,0.984037,0.005013,0.453892,0.000273,0.000240,0.000013,0.000278,0.000236,19.654812,0.000514,
2506,3163,5.28785162768683,11.2515989298245,0.0257007398126916,0.003750,-0.033878,0.008066,0.126518,-1.506953,312.699010,24.660070,0.999556,0.991284,0.003669,0.445204,0.000014,-0.000008,0.000016,0.000023,-0.000016,27.543196,0.000023,
2026,2203,-4.99258448144907,-9.68226469866931,-0.00784670920501185,-0.002359,-0.033922,-0.005524,-0.103674,-1.571309,328.546957,23.144440,0.998756,0.984570,0.005224,0.364171,0.000533,0.000481,0.000124,0.000634,0.000380,39.136389,0.001025,
2416,2653,3.42673778355367,0.153650864760692,-0.0161817885821165,0.002448,-0.034023,0.007507,0.070941,-1.483652,320.434002,22.680374,0.999435,0.988250,0.004349,0.440469,0.000071,0.000030,0.000025,0.000082,0.000018,25.434950,0.000107,
2446,2848,4.04290555382968,4.40266609101435,-0.00964911866350349,0.002973,-0.033175,0.002698,0.112607,-1.479640,317.400172,23.324689,0.999602,0.991006,0.003700,0.461909,0.000029,0.000002,-0.000003,0.000029,0.000002,-7.213376,0.000035,
2056,2338,-4.35697727195918,-6.72961247857484,-0.00425527125031522,0.000199,-0.032563,-0.005174,0.013341,-1.474221,326.346042,23.010019,0.998887,0.984296,0.004971,0.417794,0.000334,0.000210,0.000054,0.000354,0.000190,20.471651,0.000552,
2401,2593,3.11163244627029,-1.15604037797984,-0.0208617249033409,0.002172,-0.033765,-0.000545,0.087837,-1.537297,321.370397,22.477332,0.999418,0.988390,0.004314,0.414213,0.000106,0.000038,0.000029,0.000116,0.000028,20.311798,0.000153,
2296,2098,0.915615450460795,-11.9903258413279,0.00920327712265134,0.000536,-0.036996,-0.007938,0.037262,-1.712949,329.572689,21.484040,0.998902,0.979449,0.005660,0.304215,0.000671,0.000757,-0.000019,0.000761,0.000667,-77.836402,0.001429,
2431,2743,3.73608113987671,2.11595904321094,-0.0187519040732695,0.002770,-0.033697,0.004534,0.096473,-1.489215,318.994461,22.954728,0.999576,0.989751,0.003961,0.453175,0.000062,0.000071,0.000023,0.000091,0.000043,50.888063,0.000136,
2176,2878,-1.83332762910127,5.04098151999604,-0.00501371836634235,0.002972,-0.032846,0.006483,0.105127,-1.445306,317.150475,23.067250,0.999450,0.992352,0.003555,0.418346,0.000033,0.000042,-0.000001,0.000042,0.000032,-80.990335,0.000074,
2086,2548,-3.73737561707244,-2.14550090215623,-0.0190399550309621,0.000989,-0.032639,0.000390,0.033655,-1.439980,322.695483,22.809724,0.999413,0.990392,0.004078,0.549302,0.000144,0.000038,0.000037,0.000156,0.000027,17.286652,0.000197,
2461,2923,4.35373536890295,6.03672890771438,-0.0146538367225162,0.003052,-0.033615,0.006369,0.102119,-1.477345,316.151782,23.686670,0.999228,0.988702,0.004307,0.392296,0.000026,-0.000005,-0.000001,0.000026,-0.000005,-0.963518,0.000028,
2281,2068,0.593285608179702,-12.6488474526797,0.0108331634719434,0.000064,-0.037421,-0.010108,0.022597,-1.737123,330.070214,21.489238,0.998998,0.981296,0.005326,0.303723,0.000719,0.000804,-0.000005,0.000804,0.000718,-86.965676,0.001523,
2086,2473,-3.72615842253388,-3.78083223113195,-0.0169116212023823,0.000581,-0.033482,0.004394,0.003096,-1.468874,323.894464,22.880937,0.999276,0.989152,0.004380,0.448668,0.000193,0.000061,0.000029,0.000199,0.000055,11.905991,0.000267,
2491,3088,4.97619236345798,9.62267720873505,0.0185003933585222,0.003634,-0.033559,0.008603,0.119639,-1.484157,313.819290,24.344710,0.999448,0.990387,0.003881,0.428223,0.000035,0.000026,0.000027,0.000058,0.000003,40.014687,0.000068,
2281,2098,0.587434756892321,-11.9904087310943,0.0103707227960967,-0.000005,-0.037329,-0.004913,0.002168,-1.718470,329.563021,21.560399,0.998293,0.976838,0.006024,0.313237,0.000661,0.000750,-0.000009,0.000751,0.000660,-84.414272,0.001412,
2341,2293,1.86110270723505,-7.71463177471644,-0.004140911918455,0.001050,-0.034601,-0.003799,0.047781,-1.550088,326.303241,21.760916,0.998980,0.984234,0.004969,0.428214,0.000353,0.000336,-0.000005,0.000354,0.000335,-14.942619,0.000690,
2236,3253,-0.592749448689229,13.1796821717498,0.0310453994823661,0.004184,-0.032734,0.007370,0.156780,-1.452136,311.209167,23.585964,0.999605,0.993107,0.003354,0.495658,-0.000006,-0.000015,0.000007,-0.000002,-0.000019,29.243154,0.000023,
2476,2998,4.6665187482493,7.6668405457842,0.00194203784553793,0.003378,-0.033724,0.008728,0.107681,-1.498745,315.104411,23.965666,0.999234,0.988719,0.004174,0.402551,0.000023,0.000010,0.000028,0.000045,-0.000012,38.263403,0.000047,
2161,2848,-2.15457155796444,4.38675245724393,-0.00787357375440934,0.002729,-0.033280,0.008243,0.088745,-1.453513,317.652077,22.890175,0.999639,0.993208,0.003413,0.543084,0.000035,0.000046,0.000001,0.000046,0.000035,82.052056,0.000081,
2116,2623,-3.09708450287582,-0.508786003132009,-0.0301764595149052,0.001904,-0.032903,0.001556,0.071925,-1.459071,321.283615,22.845409,0.999096,0.984820,0.004910,0.468284,0.000096,0.000037,0.000005,0.000097,0.000037,4.409096,0.000138,
2011,2188,-5.3185471231071,-10.0073416437829,-0.0230909012671532,-0.003143,-0.033718,-0.007698,-0.133794,-1.562638,328.723893,23.333679,0.999466,0.991342,0.004354,0.268041,0.000560,0.000510,0.000094,0.000632,0.000438,37.471253,0.001076,
2026,2248,-4.99846343014598,-8.69771326881015,-0.00590963910798337,-0.001716,-0.033112,-0.004929,-0.075567,-1.511211,327.867740,23.105037,0.999292,0.985783,0.004752,0.441405,0.000456,0.000402,0.000083,0.000517,0.000342,35.969321,0.000865,
2011,2128,-5.30888059842295,-11.3249119449138,0.00599708802559462,-0.003656,-0.034707,-0.004158,-0.167120,-1.564431,329.896027,23.299779,0.998238,0.978341,0.006091,0.335717,0.000674,0.000597,0.000138,0.000779,0.000492,37.165897,0.001282,
2026,2278,-5.00219846760718,-8.04098323051693,-0.0076903518781819,-0.001280,-0.032313,-0.010796,-0.039252,-1.509847,327.406469,23.144766,0.998376,0.982378,0.005404,0.387930,0.000413,0.000313,0.000077,0.000455,0.000271,28.458021,0.000734,
2101,2608,-3.42001819390287,-0.837623225336799,-0.0117716063548414,0.001532,-0.032841,0.003664,0.048840,-1.438131,321.726787,22.846417,0.998920,0.986353,0.004709,0.498673,0.000095,0.000036,0.000012,0.000098,0.000034,11.307135,0.000137,
2251,3268,-0.270703397928667,13.5069901599015,0.0227485838141774,0.004350,-0.032945,0.010018,0.155285,-1.461865,310.859527,23.734718,0.999501,0.991719,0.003639,0.438552,-0.000004,-0.000009,0.000010,0.000004,-0.000017,37.961659,0.000018,
2206,3118,-1.22019971275353,10.2506295760355,0.0378680234637159,0.003534,-0.032954,0.011110,0.115558,-1.453391,313.512233,23.356357,0.999526,0.992099,0.003677,0.425144,-0.000002,0.000007,-0.000010,0.000014,-0.000008,-57.206848,0.000014,
2131,2683,-2.77896387343834,0.795981474576607,-0.00514522545768159,0.002313,-0.033131,0.004376,0.082000,-1.467618,320.465724,22.851278,0.999489,0.990582,0.003854,0.464740,0.000077,0.000046,-0.000009,0.000079,0.000044,-14.261067,0.000125,
2236,3298,-0.60239622260745,14.1562651324057,0.0120848413892531,0.004131,-0.032814,0.010574,0.143906,-1.460398,310.298840,23.705363,0.999211,0.991837,0.003724,0.426535,-0.000005,0.000014,0.000006,0.000016,-0.000007,74.902096,0.000016,
2161,2893,-2.1623171779206,5.3665273174897,-0.0106604420076906,0.002678,-0.032747,0.007455,0.088951,-1.451825,316.895964,23.054764,0.999552,0.991905,0.003689,0.409565,0.000031,0.000028,0.000001,0.000031,0.000028,22.280424,0.000059,
2146,2773,-2.46869607580981,2.75789924372379,-0.0233758551398182,0.002561,-0.032575,0.002523,0.098923,-1.457903,318.807709,22.979969,0.999661,0.993482,0.003310,0.390070,0.000056,0.000040,-0.000014,0.000064,0.000032,-29.735906,0.000097,
2506,3178,5.28573047179044,11.5771352237822,0.0354237151068446,0.003969,-0.033819,0.008919,0.133331,-1.496051,312.541064,24.756304,0.999601,0.991853,0.003621,0.419803,0.000012,0.000001,0.000012,0.000020,-0.000007,32.416070,0.000020,
2206,3073,-1.21319027506063,9.27476261290305,0.0253025820331914,0.003341,-0.033252,0.007720,0.117356,-1.470308,314.144249,23.286484,0.999695,0.992551,0.003427,0.431397,0.000006,0.000006,-0.000007,0.000013,-0.000001,-44.823172,0.000014,
2116,2593,-3.09160733919294,-1.16473614812762,-0.0110167185334831,0.001590,-0.033293,0.005924,0.044392,-1.463109,321.902472,22.793345,0.999490,0.990457,0.004116,0.507334,0.000099,0.000040,0.000012,0.000101,0.000038,10.848255,0.000144,
2101,2533,-3.40975964626904,-2.4707700987859,-0.027249029713289,0.000889,-0.032991,0.004021,0.018147,-1.461720,322.780125,22.860071,0.999472,0.990380,0.004045,0.451497,0.000138,0.000052,0.000028,0.000147,0.000043,16.674378,0.000199,
2221,3133,-0.897301207013751,10.5770583050263,0.0302383942749884,0.003750,-0.032470,0.005945,0.141788,-1.443651,313.188670,23.366388,0.999613,0.992365,0.003612,0.502931,-0.000004,0.000007,-0.000010,0.000012,-0.000010,-59.366170,0.000013,
2251,2008,-0.0534959519447149,-13.9647965816862,-0.00504405050799051,-0.001191,-0.038706,-0.011949,-0.029749,-1.802590,330.894686,21.468965,0.999344,0.987257,0.004940,0.342625,0.000830,0.000864,0.000012,0.000868,0.000826,72.345233,0.001694,
2176,2923,-1.84166857799131,6.01900734454054,-0.00716203929130188,0.002551,-0.032769,0.008461,0.079603,-1.438196,316.374276,23.096709,0.998900,0.986695,0.004550,0.431486,0.000031,0.000019,0.000003,0.000031,0.000018,13.278738,0.000050,
2311,2158,1.23310384013555,-10.6763438974213,0.0170858338925086,0.001049,-0.036908,-0.005366,0.052157,-1.673535,328.675867,21.455643,0.999153,0.985205,0.005221,0.421363,0.000565,0.000593,-0.000015,0.000599,0.000559,-66.461815,0.001159,
2056,2353,-4.35978653385433,-6.4012465958451,-0.0109645393595201,0.000320,-0.032691,-0.001270,0.007842,-1.459517,326.042973,22.988277,0.998689,0.982348,0.005278,0.451054,0.000315,0.000187,0.000056,0.000337,0.000166,20.588449,0.000512,
2326,2233,1.54534436857507,-9.03013502826741,0.00262498759599339,0.000781,-0.035313,-0.005470,0.040932,-1.614747,327.325944,21.632199,0.997867,0.974595,0.006447,0.407525,0.000433,0.000437,-0.000014,0.000449,0.000421,-49.125398,0.000870,
2041,2278,-4.67542452032921,-8.04114683253015,-0.00187735221891216,-0.001065,-0.032762,-0.006659,-0.040706,-1.495386,327.363324,23.111564,0.999758,0.991585,0.004212,0.372040,0.000398,0.000316,0.000075,0.000443,0.000272,30.751195,0.000721,
2431,2758,3.73305930361103,2.44285101246498,-0.0199053266109672,0.002654,-0.033514,0.002546,0.098558,-1.491283,318.742414,23.007195,0.999521,0.988310,0.004130,0.448763,0.000060,0.000065,0.000024,0.000086,0.000038,47.773096,0.000128,
2191,2983,-1.52409581868801,7.32158184053499,0.0098319409925125,0.003492,-0.032705,0.007373,0.125958,-1.442254,315.536366,23.161096,0.999355,0.991100,0.003801,0.449715,0.000017,0.000015,0.000007,0.000023,0.000009,42.492091,0.000033,
2056,2383,-4.36534225436327,-5.74466531634412,-0.0178805170349392,-0.000173,-0.032530,-0.000008,-0.018312,-1.450218,325.475549,23.031627,0.999160,0.987548,0.004668,0.410027,0.000288,0.000149,0.000043,0.000300,0.000137,15.770224,0.000447,
2296,2128,0.909959766715037,-11.3322362164535,0.00946216327514549,0.000144,-0.035917,-0.009838,0.026090,-1.657073,329.080285,21.516359,0.998888,0.980111,0.005537,0.394032,0.000618,0.000698,-0.000019,0.000703,0.000614,-77.205929,0.001318,
2446,2863,4.04013873793969,4.72839522163578,-0.00484272241641293,0.002878,-0.033408,0.003530,0.105037,-1.489801,317.188311,23.353473,0.999746,0.992823,0.003386,0.474808,0.000028,0.000005,0.000000,0.000028,0.000005,-0.489596,0.000036,
2281,2113,0.584608107521795,-11.6613449394061,0.00828295986650573,-0.000186,-0.036423,-0.007453,0.002646,-1.683797,329.304548,21.544434,0.998606,0.978131,0.005773,0.394987,0.000633,0.000718,-0.000008,0.000719,0.000632,-84.603151,0.001352,
2491,3103,4.97358366358989,9.94863163063815,0.0200698585036889,0.003780,-0.033134,0.006444,0.134889,-1.461792,313.601581,24.400951,0.999359,0.989793,0.003864,0.452278,0.000030,0.000023,0.000029,0.000055,-0.000003,41.826370,0.000062,
2356,2383,2.17090834489079,-5.74386380831589,-0.00953617544075769,0.001299,-0.034493,-0.000059,0.046142,-1.525783,324.801133,22.039927,0.999204,0.981449,0.005214,0.355843,0.000259,0.000216,0.000011,0.000262,0.000213,14.124245,0.000476,
2371,2443,2.48690136639408,-4.43360737583414,-0.000542098497476218,0.001238,-0.034291,0.004443,0.027318,-1.493301,323.891195,22.083143,0.999082,0.986356,0.004846,0.466496,0.000209,0.000156,0.000027,0.000220,0.000145,22.537488,0.000368,
2281,2083,0.59059957807542,-12.3199553538603,0.00905633188551747,0.000149,-0.037175,-0.010632,0.028332,-1.738745,329.820005,21.486069,0.998975,0.980511,0.005455,0.336190,0.000690,0.000789,-0.000005,0.000790,0.000690,-86.939125,0.001481,
2146,2818,-2.47619641750858,3.73623699285129,-0.019548552367155,0.002451,-0.032732,0.005348,0.085325,-1.440874,318.094998,22.983757,0.999579,0.991984,0.003645,0.426751,0.000048,0.000051,-0.000005,0.000055,0.000044,-51.367800,0.000099,
2086,2488,-3.72821155479959,-3.45418037949494,-0.0164700099238075,0.000716,-0.033255,0.002389,0.015141,-1.466315,323.668188,22.830122,0.999223,0.989574,0.004260,0.502367,0.000186,0.000054,0.000029,0.000192,0.000048,11.859343,0.000254,
2506,3193,5.28273275414378,11.9023827244449,0.0362232514738139,0.003983,-0.033712,0.008817,0.134443,-1.494337,312.302689,24.785251,0.999583,0.991923,0.003647,0.452399,0.000014,-0.000009,0.000009,0.000017,-0.000012,19.322638,0.000017,
2401,2608,3.10914570840098,-0.828395323140754,-0.0200146943454911,0.002327,-0.033458,-0.003234,0.104878,-1.509722,321.150397,22.539409,0.999401,0.988778,0.004219,0.426069,0.000095,0.000032,0.000030,0.000107,0.000020,22.100250,0.000137,
2026,2293,-5.00460457535283,-7.71315022948507,-0.00162650511430229,-0.001254,-0.033007,-0.001082,-0.064891,-1.487803,327.189963,23.172699,0.998484,0.981857,0.005414,0.374129,0.000408,0.000287,0.000071,0.000441,0.000255,24.772232,0.000704,
2386,2518,2.80014775501242,-2.79410916722715,-0.0128095497269101,0.002208,-0.033317,-0.003381,0.099965,-1.497959,322.654335,22.244499,0.999454,0.988039,0.004435,0.483164,0.000145,0.000087,0.000018,0.000150,0.000081,15.845315,0.000235,
2206,3133,-1.22201455629573,10.5760125383882,0.0392329912415903,0.003988,-0.032666,0.007478,0.148158,-1.445682,313.310848,23.375503,0.999665,0.993539,0.003403,0.429549,0.000000,0.000008,-0.000008,0.000013,-0.000006,-57.943333,0.000013,
2131,2668,-2.7750793375806,0.467067178724754,0.00768466836183279,0.002576,-0.032558,-0.000565,0.109098,-1.449312,320.843737,22.722945,0.999614,0.990766,0.003892,0.605084,0.000084,0.000043,-0.000006,0.000085,0.000043,-7.856022,0.000130,
2416,2668,3.42367976412418,0.480842312280345,-0.013866465141291,0.002193,-0.034273,0.007985,0.057369,-1.510986,320.195746,22.786301,0.999423,0.988221,0.004398,0.355116,0.000067,0.000029,0.000021,0.000077,0.000019,24.237382,0.000102,
2191,3043,-1.5334557151609,8.62387992470163,0.0253915058212328,0.003389,-0.032936,0.007304,0.121350,-1.460100,314.683012,23.312398,0.999703,0.994106,0.003363,0.335082,0.000013,0.000003,-0.000001,0.000013,0.000003,-6.154074,0.000017,
2221,3208,-0.909144785944978,12.2029618336361,0.0499587671083646,0.003945,-0.032632,0.008859,0.141474,-1.430134,312.125984,23.528906,0.999313,0.991651,0.003773,0.442196,-0.000004,-0.000001,-0.000002,0.000001,-0.000006,-64.901349,0.000006,
2251,1993,-0.0513899291213491,-14.2930509083325,-0.0123534177195097,-0.001098,-0.038855,-0.010853,-0.029059,-1.819427,331.075258,21.472273,0.999546,0.989860,0.004543,0.295847,0.000867,0.000883,-0.000008,0.000887,0.000864,-67.650893,0.001751,
2176,2893,-1.83521723707418,5.36542831049931,0.00623613466382267,0.002729,-0.032802,0.004533,0.099966,-1.458621,316.995861,23.031677,0.999781,0.995197,0.003155,0.452231,0.000029,0.000027,0.000000,0.000029,0.000027,-8.523201,0.000056,
2041,2293,-4.67724182259263,-7.71497030607848,0.00579917249001483,-0.000874,-0.033184,-0.002651,-0.043197,-1.513873,327.184211,23.044659,0.999825,0.992678,0.003967,0.414662,0.000393,0.000294,0.000071,0.000430,0.000256,27.639763,0.000693,
2341,2308,1.85935003940269,-7.38771504298733,0.00851014808745276,0.001481,-0.035414,0.000687,0.051631,-1.573082,326.170649,21.825637,0.998273,0.980497,0.005405,0.378622,0.000333,0.000306,0.000004,0.000333,0.000305,8.391848,0.000639,
2116,2668,-3.10474856721379,0.472143233926019,-0.0367672443537685,0.001888,-0.032528,0.001011,0.072885,-1.450319,320.500200,22.875373,0.999501,0.990508,0.003870,0.458938,0.000080,0.000038,-0.000005,0.000080,0.000037,-6.423328,0.000120,
2071,2473,-4.05068172699739,-3.78215794813901,-0.00463233539056773,0.001071,-0.032408,-0.002169,0.044912,-1.455545,324.116162,22.917914,0.999340,0.989034,0.004449,0.459489,0.000190,0.000052,0.000028,0.000196,0.000047,10.835330,0.000257,
2161,2863,-2.15767271558976,4.71474224337064,-0.0141145262574014,0.002617,-0.033044,0.008957,0.081451,-1.451022,317.347775,23.027843,0.999344,0.990994,0.003762,0.417618,0.000034,0.000042,-0.000001,0.000042,0.000034,-85.258112,0.000076,
2461,2938,4.35110480397671,6.36224617740591,-0.0107966620448678,0.003130,-0.033977,0.006427,0.105284,-1.502338,315.942494,23.724263,0.999316,0.990315,0.004178,0.383590,0.000031,-0.000007,-0.000004,0.000031,-0.000008,-6.208568,0.000032,
2296,2173,0.901328918833226,-10.3448722128466,-0.00282252881839895,0.000490,-0.035376,-0.010902,0.045724,-1.628665,328.272331,21.546693,0.999443,0.981146,0.005350,0.490969,0.000528,0.000559,-0.000009,0.000562,0.000526,-75.200527,0.001088,
2086,2563,-3.73872625250776,-1.81876945571612,-0.00773504755233034,0.001289,-0.032859,0.000491,0.047050,-1.479295,322.560547,22.927381,0.998935,0.986755,0.004644,0.391915,0.000134,0.000031,0.000024,0.000140,0.000026,12.680969,0.000178,
2071,2413,-4.04255476264585,-5.09166304991599,-0.00710830208936386,0.000220,-0.032916,-0.000166,-0.000044,-1.462610,325.018989,22.899145,0.998594,0.983677,0.005092,0.478414,0.000257,0.000105,0.000036,0.000265,0.000097,12.844839,0.000375,
2266,2008,0.276238521422275,-13.9677665929153,0.0233450503321819,-0.000973,-0.038308,-0.009995,-0.025786,-1.761237,331.111083,21.412726,0.999068,0.981652,0.005504,0.334885,0.000811,0.000859,0.000007,0.000859,0.000810,82.279872,0.001669,
2056,2398,-4.3669860897264,-5.41996134377049,-0.00678693312210044,-0.000125,-0.033210,0.001696,-0.021118,-1.481740,325.324672,22.908723,0.998734,0.985100,0.004984,0.497169,0.000273,0.000115,0.000038,0.000282,0.000106,12.791167,0.000401,
2131,2698,-2.78242739172297,1.12384975594297,-0.0172659071342309,0.002255,-0.033262,0.006805,0.072053,-1.452924,320.110950,22.862946,0.999467,0.989748,0.003971,0.473899,0.000074,0.000044,-0.000011,0.000078,0.000040,-18.740022,0.000120,
2101,2623,-3.42324984112081,-0.509730188534625,-0.0282060234046071,0.001758,-0.033059,0.003921,0.058422,-1.453912,321.356320,22.826403,0.999117,0.986633,0.004558,0.505120,0.000093,0.000036,0.000008,0.000094,0.000035,7.834035,0.000134,
2356,2398,2.16876446434838,-5.4171116803164,-0.00357642422062554,0.001442,-0.034094,-0.001110,0.056551,-1.519571,324.618915,22.021998,0.999444,0.986345,0.004709,0.420472,0.000241,0.000208,0.000016,0.000247,0.000202,21.855372,0.000450,
2191,2998,-1.52716101434248,7.6475037389287,0.00827768143142293,0.003268,-0.032797,0.009638,0.108545,-1.437787,315.261247,23.179841,0.999430,0.991156,0.003856,0.449073,0.000015,0.000018,0.000007,0.000023,0.000010,49.824252,0.000034,
2026,2308,-5.00741148180295,-7.38485294869609,-0.00608077726752754,-0.001331,-0.033612,0.003032,-0.079886,-1.517402,326.896795,23.193830,0.998773,0.981309,0.005350,0.316132,0.000384,0.000247,0.000055,0.000404,0.000228,19.320770,0.000640,
2146,2833,-2.47715126470261,4.06089152331056,-0.00676403906771839,0.002990,-0.032602,0.003155,0.116790,-1.445145,317.989844,22.956090,0.999588,0.992582,0.003543,0.457628,0.000045,0.000045,-0.000003,0.000047,0.000042,-44.214480,0.000090,
2281,2128,0.582722449207175,-11.3329789893641,0.0153121494504376,0.000078,-0.036294,-0.007724,0.015681,-1.652664,329.134513,21.572532,0.998353,0.977120,0.005781,0.428385,0.000608,0.000693,-0.000008,0.000693,0.000607,-84.970399,0.001301,
2326,2248,1.54260796043237,-8.70113840789677,0.000799365524983386,0.000971,-0.035218,-0.005364,0.049278,-1.611005,327.076703,21.693942,0.998461,0.979231,0.005700,0.386390,0.000412,0.000391,-0.000015,0.000420,0.000383,-27.599062,0.000803,
2311,2173,1.2295939865062,-10.346014221139,0.0107546788152604,0.000607,-0.036111,-0.007450,0.039313,-1.643434,328.367747,21.536825,0.999045,0.981306,0.005394,0.405789,0.000535,0.000564,-0.000011,0.000568,0.000531,-71.160533,0.001100,
2206,3088,-1.21537645908001,9.6011359103807,0.0285776799074142,0.003639,-0.032884,0.009129,0.126789,-1.443418,313.935371,23.379225,0.999521,0.991992,0.003605,0.381192,0.000002,0.000008,-0.000008,0.000014,-0.000003,-55.071113,0.000014,
2416,2683,3.42134780816461,0.807622970258137,-0.0154924544424944,0.002624,-0.033655,0.004119,0.091540,-1.502935,319.972360,22.790749,0.999392,0.986351,0.004678,0.407027,0.000067,0.000049,0.000024,0.000084,0.000032,34.851085,0.000120,
2251,2128,-0.0729629152522158,-11.3315164358439,0.0107664789230739,-0.000345,-0.036167,-0.005523,-0.011093,-1.641826,329.113791,21.776363,0.998315,0.978127,0.005897,0.408536,0.000603,0.000675,0.000022,0.000681,0.000597,74.395323,0.001279,
2161,2908,-2.16391462761548,5.69153797857821,-0.00578977585621487,0.003019,-0.032475,0.003669,0.116390,-1.444692,316.720164,23.008228,0.999504,0.990917,0.003862,0.472832,0.000030,0.000021,0.000003,0.000031,0.000020,14.783324,0.000051,
2041,2353,-4.68658751480002,-6.40154446681348,-0.00924829494687174,-0.000155,-0.033004,0.000102,-0.017787,-1.474438,326.117740,23.053801,0.998821,0.983919,0.005100,0.422818,0.000317,0.000179,0.000048,0.000332,0.000164,17.455617,0.000505,
2071,2488,-4.05360451821874,-3.45479547957755,-0.0063755815103832,0.000853,-0.032770,0.002265,0.022168,-1.448511,323.836797,22.906652,0.999458,0.990504,0.004244,0.475898,0.000182,0.000047,0.000029,0.000188,0.000041,11.767546,0.000244,
2476,3013,4.66359856241496,7.99261312241843,0.00716711948308557,0.003298,-0.034013,0.011466,0.093483,-1.497728,314.888497,24.028490,0.999500,0.991196,0.003697,0.396567,0.000022,0.000016,0.000027,0.000046,-0.000009,41.950304,0.000049,
2011,2203,-5.31884757868824,-9.68050885584177,-0.0170838826002182,-0.001892,-0.032798,-0.011921,-0.064663,-1.521509,328.602081,23.222565,0.999427,0.991415,0.004345,0.410366,0.000532,0.000486,0.000101,0.000613,0.000405,38.551100,0.001025,
2251,2023,-0.0554885224708421,-13.6360674576364,0.00903459669217455,-0.001527,-0.037967,-0.011287,-0.047001,-1.773273,330.753255,21.577475,0.998991,0.980987,0.005596,0.289842,0.000799,0.000849,0.000025,0.000860,0.000789,67.165662,0.001649,
2011,2323,-5.33475408292237,-7.05767164457548,0.00223242881241958,-0.000995,-0.032404,-0.003120,-0.047220,-1.464408,326.851223,23.224335,0.998859,0.983194,0.005229,0.387007,0.000373,0.000186,0.000031,0.000378,0.000181,9.238040,0.000570,
2116,2683,-3.10664682518351,0.797289194997525,-0.0318801044443262,0.002189,-0.033081,0.002517,0.082107,-1.468738,320.307749,22.806916,0.999439,0.991950,0.003656,0.512476,0.000071,0.000039,-0.000009,0.000074,0.000037,-13.993369,0.000113,
2266,2023,0.27369315416918,-13.6372691171658,0.0167197176256195,-0.000779,-0.037308,-0.015427,0.001345,-1.752557,330.841612,21.467153,0.998749,0.977107,0.006211,0.318367,0.000782,0.000844,0.000018,0.000849,0.000777,74.759117,0.001626,
2161,2878,-2.15935819075699,5.0403061904752,-0.00871637999506447,0.002979,-0.032816,0.007344,0.103157,-1.443459,317.170543,23.028002,0.999464,0.992073,0.003627,0.434932,0.000036,0.000042,-0.000001,0.000043,0.000036,-84.644114,0.000078,
2506,3208,5.27917551797026,12.2289564581092,0.0314128362079487,0.003942,-0.033722,0.008994,0.131940,-1.485545,312.012828,24.900792,0.999358,0.990737,0.003865,0.405281,0.000016,-0.000002,-0.000004,0.000017,-0.000002,-10.862543,0.000018,
2341,2323,1.85521629988867,-7.05801527445961,-0.00101624593355609,0.000727,-0.034678,-0.001378,0.024521,-1.532596,325.820912,21.865102,0.998997,0.985514,0.004870,0.418722,0.000312,0.000278,0.000009,0.000314,0.000276,13.332701,0.000591,
2446,2878,4.03626215186678,5.05629274104579,-0.0154273911026053,0.002914,-0.033298,0.004083,0.104738,-1.478072,316.853713,23.450623,0.999533,0.991232,0.003702,0.441538,0.000024,0.000003,0.000000,0.000024,0.000003,-0.885945,0.000030,
2176,2968,-1.84687496401363,6.99512559881379,0.00338997469702917,0.003826,-0.032663,0.001771,0.159107,-1.460573,315.809102,23.106474,0.999380,0.991550,0.003689,0.434496,0.000026,0.000015,0.000003,0.000027,0.000014,15.563383,0.000041,
2131,2743,-2.78938358302395,2.10351628148335,-0.0189824442576878,0.002621,-0.032751,0.004556,0.095754,-1.456770,319.390057,22.897414,0.999411,0.989543,0.004115,0.453282,0.000063,0.000044,-0.000012,0.000069,0.000038,-25.455017,0.000108,
2101,2548,-3.41258631203923,-2.14416000948282,-0.033085714320805,0.000864,-0.032994,0.004859,0.014598,-1.447904,322.485708,22.758787,0.999663,0.993155,0.003678,0.568921,0.000132,0.000043,0.000030,0.000141,0.000034,16.930379,0.000186,
2491,3118,4.97070518334737,10.2738505300827,0.0208859173304745,0.003898,-0.033618,0.006404,0.140229,-1.492508,313.368194,24.441511,0.999460,0.990785,0.003708,0.438810,0.000029,0.000017,0.000027,0.000051,-0.000005,38.477305,0.000056,
2071,2428,-4.04443041075147,-4.76329449300606,-0.00598544165433168,0.000546,-0.032423,-0.000868,0.017076,-1.446297,324.802859,22.977555,0.998897,0.985826,0.004615,0.414630,0.000236,0.000100,0.000047,0.000251,0.000085,17.384821,0.000349,
2431,2773,3.72995874759641,2.76948741929652,-0.0181551126166255,0.002493,-0.033602,0.003878,0.086269,-1.472779,318.500174,23.043044,0.999478,0.988195,0.004262,0.481536,0.000054,0.000055,0.000021,0.000075,0.000034,46.188243,0.000112,
2116,2638,-3.09969950569963,-0.181591460293959,-0.0322960495926736,0.001811,-0.032673,0.001038,0.069228,-1.446205,321.020047,22.861205,0.999369,0.988331,0.004216,0.469223,0.000094,0.000043,0.000002,0.000094,0.000042,2.661101,0.000139,
2221,3148,-0.89980835385494,10.9023513575149,0.0349692258727714,0.003640,-0.032744,0.007181,0.132581,-1.463939,312.973821,23.430360,0.999596,0.992441,0.003518,0.436317,-0.000002,0.000006,-0.000009,0.000012,-0.000008,-56.792404,0.000012,
2056,2413,-4.36881491309343,-5.09188481822542,-0.0046144659875722,0.000268,-0.032817,0.002861,-0.006201,-1.453095,325.115282,22.952878,0.998054,0.981293,0.005566,0.477898,0.000261,0.000097,0.000038,0.000269,0.000088,12.382099,0.000372,
2221,3223,-0.912582913721909,12.5282065620772,0.0489769572990326,0.003515,-0.032907,0.013024,0.108158,-1.432777,311.838831,23.554368,0.999552,0.993055,0.003483,0.431361,-0.000004,-0.000005,-0.000001,-0.000004,-0.000006,-29.438811,0.000010,
2026,2263,-5.00041666301913,-8.3681424539946,-0.00767366321389318,-0.001498,-0.032629,-0.007403,-0.058638,-1.507845,327.628044,23.220723,0.998764,0.981456,0.005236,0.321465,0.000433,0.000373,0.000091,0.000498,0.000307,35.814354,0.000813,
2251,2038,-0.0580526032569466,-13.3064930842444,0.00946320861913819,-0.001321,-0.037501,-0.008771,-0.045628,-1.738975,330.516814,21.608306,0.998956,0.979255,0.005579,0.320163,0.000770,0.000825,0.000024,0.000834,0.000761,69.658723,0.001596,
2086,2578,-3.74152355457861,-1.49086885083227,-0.0180019054212153,0.001567,-0.032647,0.001589,0.056758,-1.458712,322.241674,22.907485,0.999063,0.987739,0.004465,0.432531,0.000117,0.000029,0.000017,0.000121,0.000026,10.667758,0.000156,
2296,2143,0.907106679592271,-11.0014796387816,0.00843045293885325,0.000389,-0.036401,-0.005946,0.024055,-1.669101,328.827129,21.724174,0.999270,0.981629,0.005389,0.207064,0.000590,0.000638,-0.000016,0.000643,0.000585,-73.139626,0.001229,
2056,2428,-4.37134483210518,-4.76330543090877,-0.0104530398651264,0.000440,-0.032836,0.003721,-0.000734,-1.445677,324.829770,22.993427,0.998691,0.984409,0.004955,0.440834,0.000237,0.000095,0.000046,0.000251,0.000081,16.542917,0.000346,
2296,2188,0.899623568791927,-10.0164610611935,0.00994107356882523,0.000675,-0.035408,-0.009380,0.049058,-1.627680,328.139923,21.689859,0.998776,0.978868,0.005681,0.381040,0.000506,0.000533,-0.000014,0.000539,0.000500,-66.641278,0.001039,
2371,2458,2.48356978570385,-4.10514867804168,-0.00799431398502293,0.001196,-0.034139,0.002410,0.032606,-1.547159,323.591225,22.174641,0.998768,0.984499,0.005120,0.363533,0.000200,0.000139,0.000030,0.000212,0.000127,22.287533,0.000343,
2281,2158,0.576918761735374,-10.673653590599,0.00959060567953429,0.000161,-0.035944,-0.006551,0.015703,-1.633123,328.602927,21.710194,0.999475,0.982049,0.005308,0.371844,0.000547,0.000587,0.000003,0.000587,0.000547,85.315173,0.001134,
2176,2938,-1.84335434003878,6.34444027604999,-0.000999235767551454,0.002918,-0.032747,0.007313,0.100115,-1.439476,316.202010,23.114326,0.999208,0.989729,0.004054,0.424301,0.000026,0.000015,0.000003,0.000027,0.000014,13.691971,0.000041,
2161,2923,-2.16669597836376,6.0180425434428,-0.00448382146856829,0.002784,-0.032478,0.005280,0.100619,-1.438226,316.470748,23.077994,0.999193,0.988045,0.004310,0.418902,0.000031,0.000019,0.000005,0.000033,0.000017,21.417412,0.000050,
2146,2788,-2.47144913216417,3.08362501168514,-0.0250439814159904,0.002441,-0.032838,0.003130,0.091495,-1.464467,318.543066,22.930877,0.999596,0.992069,0.003605,0.440697,0.000051,0.000046,-0.000012,0.000061,0.000036,-39.598827,0.000097,
2326,2263,1.54010420341128,-8.3728350396092,0.00324477834993786,0.001061,-0.034858,-0.005312,0.053373,-1.598971,326.858933,21.733065,0.998781,0.981908,0.005240,0.395710,0.000386,0.000359,-0.000018,0.000395,0.000350,-26.618960,0.000745,
2281,2143,0.580125696187093,-11.0021569235305,0.0128101266138287,0.000498,-0.036295,-0.005924,0.028923,-1.647355,328.884359,21.752512,0.999106,0.981204,0.005419,0.284573,0.000578,0.000634,-0.000004,0.000634,0.000578,-85.598362,0.001213,
2071,2503,-4.05592350087812,-3.12701028847302,-0.0135236037974096,0.001143,-0.032438,-0.000274,0.042796,-1.464463,323.555484,22.912870,0.999303,0.989871,0.004171,0.451773,0.000177,0.000052,0.000028,0.000183,0.000046,11.969766,0.000243,
2041,2368,-4.68905976250088,-6.07435953605683,-0.00274276554483777,-0.000607,-0.033156,0.002855,-0.046269,-1.457500,325.901961,23.055635,0.998924,0.984313,0.005007,0.432194,0.000309,0.000173,0.000042,0.000320,0.000161,15.793022,0.000490,
2146,2848,-2.48064213136674,4.38753675379824,-0.0131820620229632,0.002577,-0.032755,0.005591,0.090375,-1.440163,317.665827,22.961343,0.999573,0.992402,0.003565,0.465265,0.000040,0.000038,0.000000,0.000040,0.000038,-0.768296,0.000078,
2206,3148,-1.22493802580547,10.9015855257489,0.0341279015535747,0.003948,-0.032615,0.006219,0.150314,-1.451651,313.024909,23.390316,0.999534,0.993005,0.003521,0.424222,0.000003,0.000008,-0.000007,0.000013,-0.000002,-54.230721,0.000013,
2416,2698,3.41741266327903,1.13500810063277,-0.02609434700679,0.002274,-0.033341,0.001494,0.085216,-1.498902,319.633112,22.786318,0.999534,0.989344,0.004146,0.463865,0.000067,0.000056,0.000023,0.000085,0.000038,38.296848,0.000126,
2266,2083,0.261893547401353,-12.3181922437813,0.00455154643009337,-0.000424,-0.037047,-0.006412,-0.012017,-1.689835,329.761172,21.614319,0.999343,0.981950,0.005216,0.350633,0.000682,0.000782,0.000018,0.000785,0.000679,80.166731,0.001465,
2476,3028,4.6610148355741,8.31842044356072,0.0102356840367293,0.003391,-0.033895,0.010105,0.103049,-1.481692,314.678176,24.068471,0.999692,0.992661,0.003456,0.428772,0.000025,0.000030,0.000025,0.000052,0.000003,47.597128,0.000062,
2011,2338,-5.3374830170028,-6.7299393362544,-0.00134702795725161,-0.001154,-0.032420,-0.000238,-0.062376,-1.462898,326.565166,23.181702,0.998969,0.985407,0.004898,0.421379,0.000354,0.000155,0.000023,0.000356,0.000152,6.573123,0.000522,
2206,3103,-1.21788844175655,9.925235399383,0.0335070277161549,0.003501,-0.033018,0.010653,0.115498,-1.452175,313.720897,23.312094,0.999432,0.990964,0.003905,0.455245,-0.000001,0.000011,-0.000010,0.000017,-0.000007,-59.527409,0.000017,
2266,2038,0.270378441604297,-13.3078669976808,0.0180555019578605,-0.001005,-0.037582,-0.008068,-0.033344,-1.732015,330.576790,21.506035,0.998802,0.979564,0.005726,0.329247,0.000757,0.000825,0.000016,0.000829,0.000753,77.438833,0.001583,
2251,2143,-0.0751838181994664,-11.0021393207448,0.00826414850831725,0.000098,-0.035915,-0.007555,0.015937,-1.629378,328.878224,21.817196,0.998604,0.980012,0.005594,0.406291,0.000570,0.000618,0.000025,0.000629,0.000559,66.903762,0.001188,
2011,2218,-5.3205605268499,-9.35306287554233,-0.00602976898380803,-0.001774,-0.033110,-0.006602,-0.073716,-1.521036,328.444133,23.264937,0.998838,0.986510,0.005031,0.358551,0.000505,0.000478,0.000107,0.000599,0.000384,41.403009,0.000991,
2086,2503,-3.73015527967414,-3.12668204625739,-0.0181891146950761,0.001032,-0.032945,-0.000748,0.038771,-1.476119,323.435018,22.854214,0.999014,0.989793,0.004127,0.468572,0.000182,0.000055,0.000027,0.000187,0.000049,11.601742,0.000250,
2026,2398,-5.01864230843659,-5.41925389203914,-0.00540220911346978,0.000466,-0.032263,-0.000995,0.014110,-1.450725,325.546816,23.075622,0.999327,0.988893,0.004186,0.452577,0.000310,0.000089,0.000031,0.000314,0.000085,7.881911,0.000420,
2191,3013,-1.52884923416832,7.9719991991904,0.0211006542880909,0.003390,-0.032853,0.011240,0.109042,-1.447441,315.124756,23.182045,0.999364,0.990502,0.003980,0.450779,0.000016,0.000014,0.000003,0.000018,0.000012,33.181746,0.000030,
2386,2533,2.79639525550741,-2.46524323295826,-0.0183415824690769,0.002022,-0.033018,-0.000413,0.080967,-1.447558,322.344824,22.314528,0.999481,0.988659,0.004411,0.508277,0.000134,0.000066,0.000016,0.000138,0.000062,12.832690,0.000204,
2506,3223,5.27617448764141,12.5543627945076,0.0297745789811188,0.004031,-0.033490,0.007372,0.142308,-1.500231,311.763122,24.954629,0.999518,0.990825,0.003855,0.396411,0.000012,-0.000023,-0.000008,0.000014,-0.000025,-12.349699,0.000025,
2086,2593,-3.74434780523564,-1.16400113536098,-0.0158237700278505,0.001129,-0.032728,0.004188,0.029063,-1.443987,321.989498,22.912806,0.999025,0.987867,0.004432,0.441661,0.000105,0.000038,0.000019,0.000110,0.000033,14.881516,0.000150,
2116,2698,-3.10881636640139,1.12427762066244,-0.0223356429948467,0.001969,-0.032978,0.004684,0.065614,-1.455722,320.127285,22.918114,0.999323,0.990207,0.003979,0.417966,0.000069,0.000038,-0.000013,0.000073,0.000034,-19.947085,0.000109,
2431,2788,3.72718076956857,3.09653628732001,-0.0149043518455301,0.002610,-0.033686,0.006120,0.083268,-1.486315,318.279638,23.164655,0.999418,0.989152,0.004185,0.396290,0.000051,0.000046,0.000015,0.000063,0.000033,40.762454,0.000098,
2311,2188,1.22780015077054,-10.0179390974273,0.0184375602494811,0.000801,-0.035639,-0.009871,0.056596,-1.646104,328.207294,21.598626,0.998953,0.980563,0.005388,0.375759,0.000512,0.000541,-0.000014,0.000546,0.000506,-68.288502,0.001052,
2176,2983,-1.850378837255,7.32130339561163,0.000237573479410003,0.003328,-0.032794,0.005287,0.125281,-1.449174,315.504240,23.126891,0.999255,0.991418,0.003762,0.437182,0.000025,0.000015,0.000006,0.000028,0.000012,22.993065,0.000041,
2056,2443,-4.37358925010939,-4.43581578342782,-0.0135846379848772,0.000466,-0.032784,0.000332,0.009998,-1.476003,324.572605,23.002961,0.999038,0.986708,0.004659,0.397351,0.000219,0.000081,0.000040,0.000230,0.000070,14.966067,0.000314,
2116,2653,-3.10205908343461,0.145555241326726,-0.0323865048201242,0.001940,-0.032778,0.002002,0.072294,-1.455195,320.779144,22.916305,0.999485,0.989187,0.004004,0.409064,0.000086,0.000045,0.000001,0.000086,0.000045,1.857501,0.000133,
2221,3238,-0.915301202809626,12.8533024926641,0.038751758953822,0.003806,-0.033105,0.007972,0.137677,-1.471464,311.537196,23.553518,0.999704,0.993564,0.003295,0.411225,-0.000005,-0.000010,0.000004,-0.000002,-0.000012,29.326404,0.000015,
2041,2383,-4.69111369555422,-5.74632310934208,-0.0076627909050444,-0.000381,-0.032427,-0.001558,-0.023430,-1.456655,325.641998,23.045256,0.999235,0.987081,0.004481,0.437602,0.000297,0.000137,0.000036,0.000305,0.000129,12.050164,0.000446,
2071,2518,-4.05860096703437,-2.80013564414369,-0.0142838672133507,0.001066,-0.033209,0.003385,0.028563,-1.480020,323.292920,22.898813,0.999357,0.990495,0.004012,0.448430,0.000155,0.000041,0.000031,0.000163,0.000033,14.324643,0.000210,
2281,2173,0.573615734144191,-10.3456287263067,0.00442548356431871,0.000045,-0.035862,-0.004749,0.004422,-1.622964,328.307473,21.613392,0.999326,0.981326,0.005368,0.509809,0.000521,0.000554,0.000004,0.000554,0.000521,83.392002,0.001075,
2161,2953,-2.17112140257822,6.66813705412503,0.00751162420965557,0.002859,-0.032948,0.009097,0.092205,-1.445578,316.074587,23.047304,0.999452,0.990868,0.003787,0.461168,0.000027,0.000014,0.000005,0.000028,0.000012,17.921206,0.000042,
2401,2623,3.10627553913908,-0.501145266000265,-0.01805233798882,0.002475,-0.033423,-0.000042,0.100167,-1.483937,320.918059,22.581206,0.999251,0.987423,0.004362,0.456125,0.000087,0.000027,0.000027,0.000097,0.000017,20.676282,0.000123,
2131,2713,-2.78539790765278,1.45119092096309,-0.0214770743367012,0.001984,-0.033104,0.006357,0.060987,-1.448709,319.821125,22.907029,0.999389,0.989457,0.004122,0.440131,0.000073,0.000047,-0.000014,0.000079,0.000041,-23.314495,0.000122,
2026,2323,-5.00880017042464,-7.05729055783337,-0.00829474439063915,-0.000822,-0.032821,-0.004387,-0.035933,-1.495703,326.680829,23.124451,0.998943,0.983104,0.005099,0.399296,0.000358,0.000211,0.000046,0.000371,0.000198,15.904911,0.000578,
2131,2758,-2.79217003944734,2.43092773828525,-0.0230298084561014,0.002509,-0.032595,0.003806,0.092951,-1.443384,319.109467,22.954632,0.999457,0.990865,0.003867,0.415212,0.000060,0.000038,-0.000013,0.000066,0.000031,-25.250816,0.000099,
2176,2953,-1.84565527846755,6.66947377553998,0.000811107086803986,0.003139,-0.032963,0.008716,0.105855,-1.439657,315.978811,23.067102,0.999337,0.991711,0.003635,0.483093,0.000025,0.000015,0.000002,0.000025,0.000014,11.408115,0.000040,
2101,2563,-3.4140473657525,-1.8168578546404,-0.0262603682247118,0.001297,-0.033041,0.003984,0.037034,-1.466465,322.322101,22.869932,0.999298,0.988638,0.004316,0.441168,0.000123,0.000036,0.000020,0.000127,0.000032,12.160547,0.000168,
2461,2953,4.34848831159767,6.68785758083118,-0.00428650061263625,0.003158,-0.033992,0.008388,0.099238,-1.490422,315.745865,23.755874,0.999376,0.990254,0.004083,0.417814,0.000032,-0.000011,0.000002,0.000032,-0.000011,3.349387,0.000032,
2356,2413,2.1659996805268,-5.08846255432348,-0.00880815237553634,0.001827,-0.033873,-0.002319,0.078520,-1.538802,324.354172,22.100954,0.999706,0.989198,0.004304,0.362730,0.000220,0.000191,0.000016,0.000227,0.000184,24.185515,0.000412,
2041,2308,-4.68012048673031,-7.38596968890723,0.000562561311710397,-0.001038,-0.033122,-0.000166,-0.057633,-1.487023,326.884439,23.065795,0.999769,0.990567,0.004261,0.415270,0.000371,0.000262,0.000058,0.000396,0.000237,23.506923,0.000640,
2491,3133,4.96746777366585,10.599588099693,0.0213201000184426,0.003818,-0.033725,0.007896,0.130809,-1.488690,313.116278,24.496932,0.999411,0.990686,0.003703,0.444882,0.000036,-0.000001,0.000024,0.000048,-0.000013,26.206559,0.000049,
2326,2278,1.53680384237827,-8.04327260430411,-0.00559345235234332,0.001117,-0.034792,-0.006570,0.060285,-1.597852,326.549526,21.788798,0.998941,0.982397,0.005156,0.378206,0.000364,0.000349,-0.000011,0.000370,0.000343,-27.979251,0.000713,
2416,2713,3.41586975737595,1.46104418518683,-0.0167873242048131,0.002891,-0.033428,0.000994,0.115380,-1.476471,319.497130,22.806885,0.999616,0.990251,0.003974,0.513645,0.000061,0.000062,0.000026,0.000087,0.000035,45.411379,0.000126,
2251,2053,-0.0598679886779294,-12.9777036196364,0.0127253178167166,-0.000768,-0.037478,-0.009050,-0.019411,-1.732622,330.329098,21.632433,0.998803,0.978633,0.005666,0.328883,0.000741,0.000809,0.000028,0.000819,0.000731,70.530916,0.001550,
2266,2053,0.267500391784097,-12.9781728892626,0.0114437184323037,-0.000776,-0.037309,-0.008382,-0.021723,-1.715529,330.292137,21.492032,0.998622,0.978322,0.005789,0.389216,0.000732,0.000812,0.000018,0.000816,0.000728,77.841236,0.001545,
2026,2413,-5.02169015252915,-5.09099385257522,-0.0109856397241401,0.000077,-0.032382,0.000548,-0.008086,-1.445064,325.236301,23.085286,0.999097,0.986924,0.004562,0.440759,0.000295,0.000078,0.000038,0.000302,0.000072,9.587567,0.000397,
2071,2623,-4.07452770900167,-0.510461347359694,-0.0269239209611101,0.002100,-0.032591,0.001146,0.082748,-1.446687,321.543076,22.874195,0.999148,0.988461,0.004271,0.490055,0.000089,0.000035,0.000012,0.000092,0.000032,12.299129,0.000129,
2206,3163,-1.22785230645654,11.2265930765458,0.0368701020111644,0.003688,-0.032857,0.009490,0.127866,-1.456349,312.780234,23.403548,0.999731,0.994938,0.003148,0.421758,0.000003,0.000012,-0.000005,0.000014,0.000001,-66.856856,0.000017,
2086,2698,-3.76076128168253,1.12331683326941,-0.0252225590712669,0.001812,-0.032388,0.003283,0.063209,-1.436482,320.244558,22.895701,0.999268,0.990551,0.003936,0.463176,0.000061,0.000030,-0.000009,0.000064,0.000028,-15.685235,0.000093,
2446,2893,4.03212915484897,5.38337789614656,-0.0268301316021962,0.002814,-0.033743,0.005304,0.095471,-1.477497,316.503655,23.484062,0.999406,0.990715,0.003925,0.460615,0.000024,0.000002,0.000002,0.000024,0.000002,6.177753,0.000029,
2011,2353,-5.33994939156578,-6.40071352311146,-0.0115233062649054,-0.000885,-0.032538,-0.001344,-0.047061,-1.469697,326.253859,23.224788,0.999105,0.988180,0.004672,0.361584,0.000344,0.000146,0.000032,0.000349,0.000141,8.897956,0.000505,
2191,3058,-1.53633132733463,8.94855851678199,0.0217395453989866,0.003184,-0.032557,0.004962,0.119430,-1.440735,314.406013,23.203842,0.999813,0.995048,0.003105,0.476872,0.000014,-0.000003,-0.000001,0.000014,-0.000004,-4.621834,0.000015,
2296,2203,0.896700631627123,-9.68649253910591,0.00223589180455974,0.001077,-0.034932,-0.008922,0.066132,-1.614930,327.850414,21.752721,0.997845,0.975177,0.006265,0.363549,0.000479,0.000501,-0.000015,0.000509,0.000471,-63.494205,0.000980,
2281,2278,0.554672849280042,-8.04311781788065,-0.00483177415031832,0.000743,-0.034703,-0.003117,0.031436,-1.562636,326.562292,21.964332,0.999635,0.987730,0.004536,0.430831,0.000347,0.000342,0.000000,0.000347,0.000342,-1.402830,0.000689,
2056,2548,-4.38951404010042,-2.14537494185723,-0.0215022485537588,0.001167,-0.032508,0.001684,0.038470,-1.450691,322.839574,22.924085,0.999310,0.988703,0.004228,0.471965,0.000135,0.000031,0.000029,0.000143,0.000024,14.753356,0.000180,
2506,3238,5.27275219816234,12.8794813337915,0.0283267901980366,0.003976,-0.033464,0.009228,0.132653,-1.486412,311.494842,24.958556,0.999584,0.990253,0.003873,0.466284,0.000009,-0.000020,-0.000012,0.000013,-0.000024,-19.785583,0.000024,
2146,2803,-2.47334971036129,3.40864214657337,-0.0151090508033462,0.002583,-0.033053,0.006409,0.088008,-1.462124,318.379274,22.901584,0.999647,0.992232,0.003557,0.479923,0.000049,0.000047,-0.000009,0.000057,0.000039,-42.922906,0.000097,
2056,2458,-4.37608216342679,-4.10903848112456,-0.0112875054382471,0.000153,-0.032758,0.000907,-0.006047,-1.474312,324.333996,22.971273,0.999106,0.986272,0.004803,0.426572,0.000201,0.000052,0.000025,0.000205,0.000048,9.299651,0.000269,
2191,3028,-1.53177097083497,8.29779895651209,0.0151128778387033,0.003295,-0.033007,0.008818,0.112265,-1.455762,314.833148,23.180445,0.999521,0.991738,0.003916,0.457789,0.000014,0.000011,0.000000,0.000014,0.000011,-2.213595,0.000025,
2386,2548,2.79393854835629,-2.13910428936878,-0.0100512314818957,0.001905,-0.033669,0.000863,0.070741,-1.502385,322.161126,22.367808,0.999411,0.988205,0.004484,0.444030,0.000124,0.000047,0.000019,0.000129,0.000043,13.164691,0.000179,
2341,2338,1.85393815476325,-6.72971531707729,-0.00295492321629354,0.001681,-0.033510,-0.010786,0.101437,-1.546804,325.639162,21.911862,0.999317,0.986649,0.004762,0.396149,0.000295,0.000266,0.000006,0.000297,0.000265,11.325838,0.000562,
2401,2638,3.10289161447934,-0.174001108704033,-0.0173443744122324,0.002308,-0.033757,0.004369,0.076342,-1.492391,320.656263,22.641359,0.999284,0.986531,0.004380,0.433739,0.000076,0.000031,0.000025,0.000087,0.000021,23.723796,0.000114,
2296,2158,0.904402203197609,-10.6735708016677,0.00382160579857782,0.000507,-0.035835,-0.008940,0.039731,-1.657150,328.563304,21.615441,0.999335,0.982507,0.005317,0.360685,0.000556,0.000590,-0.000011,0.000593,0.000553,-74.208716,0.001146,
2161,2968,-2.17349779706747,6.99429533109937,0.00562506013193342,0.003021,-0.033048,0.007349,0.104999,-1.458668,315.827026,23.093953,0.999609,0.992531,0.003478,0.410820,0.000028,0.000013,0.000005,0.000029,0.000011,16.968666,0.000042,
2041,2398,-4.69277342319769,-5.41934397007297,-0.0131805611570144,0.000464,-0.032464,-0.002847,0.019001,-1.466087,325.397056,22.948379,0.999101,0.987666,0.004443,0.519113,0.000284,0.000105,0.000033,0.000290,0.000099,10.083950,0.000404,
2371,2473,2.48110014653082,-3.77816870317702,-0.0049284672070371,0.001254,-0.034092,0.001194,0.039657,-1.528581,323.380943,22.161249,0.999204,0.986952,0.004645,0.437932,0.000184,0.000117,0.000027,0.000194,0.000108,19.574034,0.000306,
2086,2608,-3.7464915374597,-0.836844982240187,-0.0165777847957429,0.001479,-0.032837,0.005514,0.041327,-1.428221,321.752461,22.922593,0.999094,0.987928,0.004388,0.447425,0.000102,0.000037,0.000015,0.000105,0.000034,12.114642,0.000145,
2251,2158,-0.0775776815550451,-10.6746487841744,0.0161841414206947,-0.000121,-0.036292,-0.005911,0.000421,-1.651906,328.687679,21.837895,0.998150,0.978962,0.005689,0.389140,0.000541,0.000570,0.000028,0.000587,0.000524,58.411076,0.001112,
2131,2728,-2.7872603739339,1.77655735121266,-0.0212326274283896,0.002288,-0.032754,0.002321,0.087143,-1.460121,319.606462,22.826274,0.999298,0.987949,0.004377,0.515388,0.000066,0.000047,-0.000012,0.000072,0.000040,-25.884596,0.000114,
2101,2638,-3.4260566351005,-0.182523243053417,-0.028544766350592,0.001399,-0.032936,0.004453,0.040393,-1.442656,321.092355,22.859582,0.999167,0.987326,0.004340,0.485029,0.000091,0.000042,0.000005,0.000092,0.000042,5.939244,0.000137,
2221,3253,-0.918380357636902,13.1784988751473,0.0319853605417961,0.003893,-0.032730,0.008605,0.139782,-1.456458,311.236697,23.532971,0.999650,0.993518,0.003301,0.464267,-0.000005,-0.000021,0.000008,-0.000002,-0.000025,23.615124,0.000029,
2266,2098,0.259310407055143,-11.9883850523633,0.00415932912807193,-0.000197,-0.037093,-0.004760,-0.007098,-1.690905,329.521080,21.715006,0.998927,0.979542,0.005633,0.277381,0.000655,0.000742,0.000012,0.000743,0.000653,82.141612,0.001397,
2116,2713,-3.1110361422557,1.45066101582291,-0.0198379158640591,0.002066,-0.032887,0.005522,0.067628,-1.454733,319.906883,22.931893,0.999307,0.989104,0.004161,0.408743,0.000066,0.000041,-0.000015,0.000074,0.000034,-25.208828,0.000110,
2206,3178,-1.23022997169355,11.552110050788,0.0348141244127191,0.003964,-0.032797,0.007916,0.145634,-1.451683,312.535149,23.429269,0.999684,0.994399,0.003226,0.416332,0.000001,0.000009,-0.000005,0.000011,-0.000001,-65.186921,0.000012,
2011,2233,-5.3234342847211,-9.025046453226,-0.000733036034318957,-0.002407,-0.033489,-0.000205,-0.120256,-1.493176,328.200780,23.276546,0.999166,0.983068,0.005184,0.365340,0.000481,0.000429,0.000080,0.000539,0.000371,35.926441,0.000915,
2071,2533,-4.06047920640411,-2.47253955290088,-0.0127410456766484,0.001343,-0.032814,0.002191,0.044867,-1.452795,323.079190,22.933543,0.999345,0.989867,0.004135,0.438593,0.000140,0.000046,0.000036,0.000152,0.000034,18.777515,0.000198,
2101,2578,-3.41582447491372,-1.49157935631494,-0.0147327300167035,0.001273,-0.033199,0.005720,0.030760,-1.473721,322.169935,22.829386,0.999334,0.987872,0.004309,0.476176,0.000108,0.000032,0.000014,0.000110,0.000029,9.902387,0.000147,
2176,3028,-1.85714907653984,8.29717878918794,0.0115164414102651,0.003540,-0.032887,0.006447,0.131425,-1.448552,314.871052,23.141604,0.999437,0.990988,0.003961,0.457494,0.000023,0.000010,0.000002,0.000024,0.000010,10.097064,0.000035,
2281,2188,0.571410929962358,-10.0163120436443,0.00729241370453337,0.000263,-0.035864,-0.005620,0.017313,-1.634925,328.102101,21.747112,0.998865,0.978587,0.005720,0.394234,0.000498,0.000528,-0.000003,0.000528,0.000498,-84.035366,0.001026,
2011,2368,-5.34140739376346,-6.07377330941577,-0.0104152583357973,-0.000337,-0.032260,-0.003311,-0.016462,-1.454443,326.052263,23.152909,0.999082,0.987571,0.004769,0.438349,0.000347,0.000133,0.000022,0.000349,0.000131,5.866082,0.000496,
2476,3043,4.65774612206741,8.64462132095663,0.0106710201286546,0.003278,-0.033887,0.011856,0.091241,-1.473051,314.424132,24.138562,0.999719,0.992448,0.003531,0.423147,0.000025,0.000024,0.000031,0.000056,-0.000007,44.715394,0.000061,
2491,3148,4.96462726037351,10.92520109113,0.0276832607141841,0.003713,-0.033787,0.010298,0.116705,-1.494257,312.909402,24.590135,0.999410,0.989684,0.003898,0.403641,0.000035,-0.000006,0.000026,0.000048,-0.000019,26.067728,0.000048,
2221,3163,-0.902022920040043,11.2274350707529,0.0416324512951292,0.003671,-0.032920,0.008190,0.130850,-1.447789,312.782411,23.453509,0.999546,0.992090,0.003575,0.447027,-0.000001,0.000011,-0.000007,0.000014,-0.000004,-65.321748,0.000015,
2356,2428,2.16273527361734,-4.76285847160892,-0.0108403198404972,0.001569,-0.034160,-0.001954,0.065299,-1.530371,324.082252,21.909464,0.999473,0.988830,0.004427,0.603198,0.000207,0.000172,0.000018,0.000214,0.000165,23.022160,0.000380,
2161,2938,-2.16892056472322,6.34298849400125,0.00384946134829534,0.002843,-0.032899,0.010027,0.088582,-1.450797,316.284493,23.077025,0.999268,0.988578,0.004262,0.416722,0.000027,0.000014,0.000006,0.000030,0.000012,21.353759,0.000043,
2206,3298,-1.2524570661056,14.1531697028547,0.0119999032554574,0.004468,-0.032879,0.010073,0.162046,-1.458841,310.394341,23.508713,0.999441,0.992631,0.003330,0.452037,0.000006,0.000024,0.000003,0.000025,0.000006,80.548982,0.000033,
2026,2428,-5.02426736376376,-4.76344094835025,-0.0137748605527577,-0.000050,-0.032520,0.001434,-0.016399,-1.442125,324.963042,23.065011,0.998998,0.984735,0.004829,0.455714,0.000267,0.000085,0.000046,0.000277,0.000074,13.334192,0.000371,
2116,2728,-3.11370971294194,1.77751126663267,-0.0232822299711302,0.002056,-0.032493,0.005750,0.066643,-1.428347,319.633568,22.919687,0.999333,0.988805,0.004204,0.451254,0.000058,0.000041,-0.000013,0.000065,0.000034,-29.124414,0.000101,
2041,2413,-4.69613779531108,-5.09078921830738,-0.0181847264981911,-0.000043,-0.032957,0.001951,-0.017804,-1.457926,325.076588,22.988914,0.998740,0.983896,0.004972,0.480968,0.000271,0.000089,0.000035,0.000277,0.000083,10.474117,0.000377,
2026,2338,-5.01062970789107,-6.73045411276115,-0.00124046396302901,-0.000587,-0.033032,0.000187,-0.037753,-1.487701,326.496535,23.099067,0.999063,0.986103,0.004662,0.424459,0.000341,0.000181,0.000037,0.000350,0.000172,12.450808,0.000532,
2311,2203,1.22400561129503,-9.68855337114604,0.0136031423180043,0.000482,-0.035861,-0.004998,0.025330,-1.624740,327.893541,21.629517,0.998577,0.977995,0.005828,0.401400,0.000484,0.000507,-0.000012,0.000512,0.000478,-67.036618,0.000991,
2086,2713,-3.76264183573984,1.44893638788206,-0.0211679164040675,0.002183,-0.032811,0.005445,0.073917,-1.452159,320.046304,22.868170,0.999248,0.989930,0.004030,0.474488,0.000058,0.000036,-0.000010,0.000062,0.000032,-21.351544,0.000095,
2041,2323,-4.68171591599889,-7.05712251106275,-0.00556148892326291,-0.000220,-0.032785,-0.003548,-0.010580,-1.485204,326.638532,23.094660,0.999064,0.982690,0.005015,0.382531,0.000348,0.000227,0.000050,0.000367,0.000209,19.761322,0.000582,
2491,3163,4.96176214937678,11.2504386712049,0.0291164295846897,0.003742,-0.033754,0.009687,0.120449,-1.488067,312.679147,24.610282,0.999501,0.991035,0.003664,0.447347,0.000031,-0.000004,0.000021,0.000041,-0.000014,25.566744,0.000041,
2506,3253,5.26960849474127,13.2054923469374,0.0232763274519243,0.004260,-0.033479,0.008157,0.149907,-1.487096,311.222851,25.043160,0.999752,0.992299,0.003522,0.440648,0.000007,0.000013,-0.000016,0.000026,-0.000007,-50.587680,0.000027,
2296,2233,0.891234877811151,-9.02906886399003,0.0063269665698158,0.001077,-0.034832,-0.004476,0.051210,-1.547836,327.385112,21.828055,0.998752,0.978378,0.005662,0.420416,0.000418,0.000438,-0.000011,0.000442,0.000414,-66.034392,0.000856,
2011,2248,-5.32481494069526,-8.69768459381436,-0.000993021892952584,-0.001807,-0.033036,-0.003639,-0.083257,-1.507639,327.994877,23.217772,0.999011,0.982479,0.005213,0.399808,0.000460,0.000398,0.000056,0.000493,0.000365,30.401685,0.000861,
2386,2563,2.79066424695853,-1.81037560208475,-0.0184380027440056,0.001988,-0.033393,-0.001706,0.083837,-1.508258,321.860099,22.466407,0.999486,0.989034,0.004203,0.384068,0.000113,0.000043,0.000025,0.000121,0.000036,17.555146,0.000164,
2251,2068,-0.0618318953958621,-12.6485301608928,0.0165949578511686,-0.000413,-0.036651,-0.009376,-0.001789,-1.688625,330.137382,21.665787,0.998963,0.980341,0.005444,0.365972,0.000713,0.000789,0.000031,0.000800,0.000702,70.442040,0.001503,
2341,2353,1.85108119807277,-6.40157340519482,-0.0034800994413331,0.001745,-0.033326,-0.009817,0.101046,-1.544379,325.391780,21.947045,0.999177,0.985099,0.004861,0.402032,0.000279,0.000256,0.000012,0.000284,0.000250,23.431917,0.000535,
2056,2563,-4.39078994481915,-1.81893155535113,-0.0159926981659169,0.001758,-0.032443,0.000160,0.069998,-1.448208,322.674511,22.922256,0.999383,0.988134,0.004262,0.471547,0.000128,0.000024,0.000017,0.000131,0.000022,8.954690,0.000165,
2281,2293,0.552053595944503,-7.714876587321,-0.00284720515884374,0.000838,-0.034929,-0.000867,0.028197,-1.564220,326.333405,22.016547,0.999342,0.984811,0.004969,0.407062,0.000325,0.000322,0.000010,0.000333,0.000313,40.777017,0.000646,
2191,3073,-1.5382418481981,9.27336455733378,0.0276881211842124,0.003392,-0.032569,0.004105,0.131685,-1.449588,314.223366,23.201269,0.999680,0.993516,0.003345,0.484032,0.000013,0.000002,-0.000002,0.000014,0.000002,-8.132627,0.000017,
2266,2068,0.264951352785037,-12.6482381877747,0.0127254693626924,-0.000725,-0.036997,-0.007920,-0.020829,-1.694313,330.061922,21.589204,0.998981,0.980477,0.005444,0.342096,0.000708,0.000794,0.000021,0.000799,0.000703,77.120906,0.001503,
2371,2488,2.47851126378047,-3.4505003260184,-0.00503460063669081,0.001493,-0.033892,0.000602,0.052771,-1.516542,323.149898,22.192865,0.999305,0.986850,0.004549,0.460865,0.000171,0.000103,0.000027,0.000180,0.000093,19.142486,0.000278,
2071,2638,-4.07680562959453,-0.183250827160535,-0.0209397155191482,0.001815,-0.032232,0.001574,0.068541,-1.430020,321.335559,22.954963,0.999092,0.986536,0.004507,0.423339,0.000087,0.000042,0.000009,0.000089,0.000040,11.189453,0.000132,
2431,2803,3.7248888370916,3.42325085643228,-0.0117675556446102,0.002824,-0.033693,0.003463,0.102979,-1.480994,318.080902,23.239713,0.999439,0.988873,0.004227,0.376158,0.000042,0.000036,0.000012,0.000052,0.000027,37.376343,0.000080,
2056,2473,-4.37774381210403,-3.78050702571538,-0.0100716594184291,0.000742,-0.032520,0.001400,0.019775,-1.454032,324.126959,23.075965,0.999153,0.986913,0.004913,0.337833,0.000195,0.000046,0.000024,0.000199,0.000042,8.822989,0.000258,
2296,2218,0.893983561054664,-9.35743828148504,0.00249845426048978,0.001082,-0.034451,-0.008612,0.065504,-1.571213,327.609604,21.790461,0.998471,0.977163,0.005897,0.402291,0.000453,0.000470,-0.000014,0.000477,0.000445,-60.977131,0.000922,
2011,2383,-5.34313469804386,-5.74576128610281,-0.00679059807708882,0.000013,-0.032023,-0.001702,-0.004632,-1.426894,325.852172,23.195837,0.999143,0.987623,0.004491,0.412652,0.000338,0.000093,0.000015,0.000339,0.000092,3.375596,0.000453,
2071,2548,-4.06340249330882,-2.14515472532958,-0.0206179168264384,0.001171,-0.032618,0.001137,0.040020,-1.438967,322.766245,22.883472,0.999453,0.989950,0.004124,0.500491,0.000135,0.000035,0.000038,0.000148,0.000023,18.551823,0.000185,
2506,3268,5.26595097011728,13.5314668776154,0.021204904699232,0.004310,-0.034017,0.013348,0.131933,-1.484116,310.940436,25.141742,0.999850,0.995287,0.002900,0.404595,0.000011,0.000007,-0.000005,0.000015,0.000003,-33.667792,0.000020,
2176,2998,-1.85267514030182,7.64637383300997,0.010192654718935,0.003115,-0.032887,0.008284,0.106171,-1.431577,315.323914,23.132561,0.999380,0.990926,0.003879,0.460405,0.000026,0.000017,0.000008,0.000030,0.000013,30.522119,0.000044,
2026,2443,-5.02612799013248,-4.43481592892103,-0.0147325592089373,0.000328,-0.031972,0.000534,0.003619,-1.431718,324.732443,23.157643,0.999364,0.989137,0.004226,0.365242,0.000253,0.000075,0.000040,0.000262,0.000066,12.170273,0.000347,
2416,2728,3.41204176562661,1.78852369975859,-0.0205945649224191,0.002572,-0.033366,0.004172,0.089127,-1.469896,319.194408,22.873974,0.999578,0.990080,0.003995,0.501218,0.000058,0.000069,0.000030,0.000094,0.000032,50.240242,0.000131,
2101,2653,-3.42776050009174,0.144369818515457,-0.0249734805157118,0.001992,-0.033004,0.006511,0.061634,-1.451605,320.900177,22.921411,0.999395,0.988979,0.004062,0.415772,0.000084,0.000045,0.000005,0.000084,0.000044,7.126239,0.000130,
2161,3073,-2.18862458776779,9.27092316112386,0.0360533404505077,0.003625,-0.032529,0.007926,0.131258,-1.433182,314.395583,23.110539,0.999610,0.993965,0.003359,0.484589,0.000021,0.000002,0.000001,0.000021,0.000002,3.123147,0.000025,
2116,2743,-3.11712214712631,2.10476209662338,-0.026322445632502,0.001525,-0.032843,0.009645,0.030541,-1.428261,319.328498,22.978774,0.999419,0.989519,0.004083,0.395686,0.000054,0.000039,-0.000013,0.000061,0.000032,-29.465742,0.000095,
2206,3193,-1.23218292758663,11.8767881801582,0.0403594579526043,0.004161,-0.032465,0.006696,0.158694,-1.448758,312.349280,23.428121,0.999747,0.995792,0.003059,0.435859,0.000000,0.000003,-0.000006,0.000008,-0.000004,-53.584131,0.000008,
2251,2173,-0.0810463685629479,-10.3451655626499,0.00923858805197142,-0.000426,-0.036079,-0.005421,-0.015099,-1.633817,328.372528,21.846517,0.998922,0.983563,0.005155,0.424958,0.000516,0.000536,0.000030,0.000558,0.000495,54.110544,0.001053,
2356,2443,2.16005754236372,-4.43443060246934,-0.00346779255289675,0.001249,-0.033929,-0.000893,0.046963,-1.521764,323.881897,22.069650,0.998808,0.981423,0.005338,0.491667,0.000195,0.000163,0.000025,0.000208,0.000150,28.703864,0.000360,
2281,2203,0.568594482704611,-9.68681105849165,0.00284396263526787,0.000357,-0.035353,-0.007064,0.026643,-1.627131,327.832201,21.806312,0.998528,0.978470,0.005799,0.373428,0.000472,0.000496,-0.000006,0.000498,0.000470,-76.438041,0.000968,
2446,2908,4.02969215260567,5.70874524368703,-0.0164933590745591,0.002721,-0.033999,0.007663,0.082280,-1.486484,316.332357,23.531308,0.999376,0.990140,0.004008,0.456002,0.000020,-0.000009,0.000006,0.000021,-0.000010,10.973681,0.000021,
2266,2113,0.258031870834049,-11.6605581065632,0.0148780940123174,0.000059,-0.036004,-0.009376,0.020244,-1.666278,329.396347,21.735709,0.998905,0.980100,0.005555,0.309419,0.000628,0.000705,0.000010,0.000707,0.000626,82.625333,0.001334,
2146,2863,-2.48358388564149,4.71415110728152,-0.0162920120516787,0.002632,-0.032857,0.010083,0.079274,-1.429655,317.384534,22.987925,0.999474,0.991368,0.003720,0.456902,0.000038,0.000035,-0.000002,0.000039,0.000034,-24.418171,0.000073,
2401,2653,3.10020171755868,0.153364983643392,-0.0196329294054749,0.002508,-0.033399,0.001703,0.095377,-1.480980,320.412075,22.681307,0.999335,0.987318,0.004406,0.451308,0.000061,0.000033,0.000027,0.000078,0.000017,31.451420,0.000101,
2086,2623,-3.74921742493777,-0.510882976911184,-0.0230253906667599,0.001619,-0.033363,0.007099,0.042990,-1.460391,321.458293,22.827053,0.999286,0.988033,0.004274,0.510754,0.000098,0.000036,0.000010,0.000099,0.000034,8.742204,0.000138,
2461,2968,4.34610311540513,7.01312011322175,0.00271492317824595,0.003348,-0.034253,0.009993,0.101799,-1.499773,315.562191,23.783241,0.999401,0.989619,0.004158,0.434648,0.000023,0.000007,0.000009,0.000027,0.000003,23.339086,0.000033,
2041,2338,-4.68398596131061,-6.72985502028396,-0.00403414852490869,-0.000156,-0.033111,-0.000514,-0.016135,-1.477972,326.404452,23.055242,0.999100,0.986234,0.004630,0.423438,0.000331,0.000201,0.000043,0.000344,0.000188,16.534119,0.000539,
2221,3268,-0.920851716148977,13.5032906713447,0.0264068735137926,0.004336,-0.032697,0.006802,0.166041,-1.451984,310.970394,23.496757,0.999499,0.992643,0.003542,0.522761,-0.000005,-0.000018,0.000012,0.000002,-0.000025,29.595234,0.000028,
2506,3283,5.26240600063359,13.8563438230906,0.0146501298393673,0.004193,-0.034037,0.010831,0.136242,-1.505493,310.643343,25.142821,0.999845,0.995614,0.002769,0.441504,0.000017,-0.000011,-0.000002,0.000017,-0.000011,-3.849903,0.000017,
2116,2848,-3.13226944657683,4.38627808568916,-0.0145217971292482,0.002479,-0.032695,0.006955,0.082519,-1.423039,317.774102,22.922042,0.999670,0.992716,0.003503,0.481368,0.000037,0.000027,0.000004,0.000039,0.000026,18.156981,0.000065,
2131,2773,-2.79458080570467,2.75682068190075,-0.0207919137564545,0.002452,-0.032547,0.004487,0.088293,-1.440979,318.880123,22.937614,0.999609,0.992206,0.003540,0.440477,0.000058,0.000035,-0.000009,0.000061,0.000032,-19.325146,0.000095,
2146,2878,-2.48498150834692,5.03917590111561,-0.00692706897041262,0.002815,-0.032529,0.005699,0.101080,-1.431448,317.240824,22.976808,0.999492,0.991028,0.003785,0.473381,0.000039,0.000038,-0.000002,0.000041,0.000036,-34.796096,0.000077,
2011,2263,-5.32655152762716,-8.36981637558759,-0.00187234510690359,-0.001418,-0.033045,-0.005387,-0.060658,-1.518190,327.769155,23.200259,0.998600,0.978539,0.005437,0.396988,0.000436,0.000365,0.000071,0.000480,0.000321,31.829974,0.000806,
2191,3103,-1.54300509681544,9.92400477191553,0.0368798650094391,0.003638,-0.032936,0.010845,0.121733,-1.452559,313.800292,23.268655,0.999471,0.992053,0.003666,0.440441,0.000005,0.000008,-0.000005,0.000012,0.000002,-53.779121,0.000015,
2086,2728,-3.76473751812548,1.77572777308482,-0.0222750121621402,0.002432,-0.032641,0.003832,0.090097,-1.438251,319.809702,22.881151,0.999266,0.988951,0.004165,0.474487,0.000047,0.000035,-0.000007,0.000050,0.000032,-26.243754,0.000083,
2041,2428,-4.69803507465062,-4.76265593572164,-0.021941526757189,0.000228,-0.032524,-0.003296,0.009355,-1.465198,324.830248,23.023446,0.998777,0.983809,0.004979,0.433372,0.000245,0.000091,0.000043,0.000257,0.000080,14.652767,0.000352,
2176,3043,-1.85908059656187,8.62354293015266,0.0196321460509239,0.003560,-0.032365,0.005567,0.135182,-1.450514,314.697406,23.283035,0.999689,0.994922,0.003260,0.325257,0.000022,0.000002,0.000000,0.000022,0.000002,0.548931,0.000026,
2161,2983,-2.17634166664926,7.32042514234256,0.00198202605645292,0.003079,-0.032992,0.009271,0.101811,-1.452762,315.548701,23.111519,0.999542,0.992602,0.003535,0.408676,0.000027,0.000011,0.000007,0.000029,0.000008,21.545347,0.000040,
2476,3058,4.65571820980835,8.97006970356807,0.0192789925591228,0.003166,-0.033548,0.006912,0.105009,-1.484000,314.264592,24.215859,0.999586,0.989981,0.004067,0.390399,0.000028,0.000020,0.000030,0.000054,-0.000006,40.964927,0.000059,
2491,3178,4.95987002406223,11.5754847655999,0.0394739377788937,0.003847,-0.033671,0.007308,0.134476,-1.484475,312.534068,24.671937,0.999542,0.990574,0.003816,0.446913,0.000029,0.000003,0.000018,0.000038,-0.000007,27.288353,0.000041,
2221,3178,-0.904122138663549,11.552326842841,0.0456764182565621,0.003772,-0.032916,0.005913,0.142768,-1.459969,312.582891,23.474555,0.999434,0.990579,0.003768,0.431488,-0.000002,0.000008,-0.000007,0.000011,-0.000005,-63.501078,0.000011,
2056,2578,-4.39317727977006,-1.4915750073402,-0.0203863274699074,0.002012,-0.032340,0.001251,0.078662,-1.441335,322.403846,22.917354,0.999026,0.988143,0.004372,0.478889,0.000110,0.000025,0.000009,0.000111,0.000024,5.725174,0.000144,
2026,2458,-5.02902003352498,-4.10810504587496,-0.0247419202825085,0.000356,-0.032405,0.002041,0.000649,-1.436186,324.404861,23.011263,0.999422,0.989394,0.004142,0.499015,0.000235,0.000050,0.000028,0.000239,0.000046,8.313676,0.000306,
2221,3283,-0.924545815795309,13.8301912663765,0.0145163792148537,0.004112,-0.032979,0.006540,0.156476,-1.461151,310.614467,23.638900,0.999323,0.991541,0.003650,0.388613,-0.000005,0.000002,0.000016,0.000016,-0.000018,51.154011,0.000019,
2296,2248,0.888187024878597,-8.70130553857759,0.00203125864987896,0.000950,-0.035095,-0.005992,0.050383,-1.593712,327.107167,21.800690,0.998910,0.981614,0.005354,0.434265,0.000400,0.000392,-0.000010,0.000407,0.000385,-35.533151,0.000792,
2251,2083,-0.0654246201094004,-12.3175798135733,0.00380070888195405,-0.000353,-0.036856,-0.007973,-0.003691,-1.700747,329.787296,21.738566,0.999206,0.980681,0.005432,0.308344,0.000686,0.000776,0.000029,0.000784,0.000677,73.825432,0.001463,
2446,2923,4.0276404142803,6.03520542569335,-0.0084399889090605,0.003154,-0.033968,0.009410,0.095673,-1.481045,316.167886,23.651177,0.999594,0.992791,0.003729,0.393015,0.000019,-0.000007,0.000003,0.000019,-0.000007,7.047441,0.000019,
2206,3208,-1.23517025794665,12.2017142557613,0.0425366561418627,0.003918,-0.032769,0.010631,0.134936,-1.440780,312.098297,23.428422,0.999596,0.993937,0.003378,0.458808,0.000000,0.000001,-0.000003,0.000004,-0.000003,-49.361917,0.000004,
2041,2473,-4.70426041125867,-3.78115642799855,-0.0139991440908034,0.000644,-0.032528,0.002362,0.012730,-1.460805,324.173865,23.045596,0.998609,0.981889,0.005378,0.396354,0.000206,0.000039,0.000021,0.000209,0.000037,7.100076,0.000265,
2086,2638,-3.75115383815391,-0.183352372310502,-0.020011785758129,0.001877,-0.032993,0.007387,0.054177,-1.443198,321.251133,22.911494,0.999251,0.987792,0.004274,0.443094,0.000096,0.000042,0.000006,0.000097,0.000042,6.720306,0.000142,
2251,2188,-0.0838108799248793,-10.0134952447001,0.00232162673614766,-0.000026,-0.035374,-0.005112,0.002464,-1.590506,328.089249,22.036062,0.999497,0.988764,0.004479,0.304924,0.000491,0.000512,0.000022,0.000526,0.000478,57.885557,0.001004,
2071,2563,-4.06565515568692,-1.81737805695271,-0.0244783979038061,0.001545,-0.032600,0.002017,0.054713,-1.448904,322.505917,22.934045,0.999182,0.988326,0.004376,0.437819,0.000125,0.000028,0.000025,0.000132,0.000022,13.656452,0.000166,
2056,2488,-4.3803061451306,-3.45392156830797,-0.00955430858743966,0.000526,-0.032897,0.002816,0.005692,-1.464504,323.875509,23.031753,0.999342,0.988337,0.004509,0.367554,0.000185,0.000042,0.000026,0.000189,0.000038,9.931044,0.000243,
2371,2503,2.4757462883354,-3.12218832192812,-0.00848694274736772,0.001860,-0.033911,0.000514,0.069919,-1.525156,322.894689,22.278581,0.999414,0.987485,0.004469,0.408778,0.000156,0.000096,0.000024,0.000164,0.000087,18.943131,0.000256,
2281,2218,0.565595313457823,-9.35746954257698,0.00297866090107846,0.000102,-0.034936,-0.006223,0.012311,-1.589819,327.576563,21.875147,0.998738,0.979544,0.005632,0.372285,0.000447,0.000463,-0.000006,0.000465,0.000445,-71.921510,0.000910,
2131,2803,-2.79940996244105,3.40848215399073,-0.0148519678213574,0.002311,-0.032746,0.006919,0.074435,-1.442039,318.428960,22.921596,0.999548,0.991839,0.003636,0.466594,0.000051,0.000043,-0.000004,0.000053,0.000041,-23.876893,0.000095,
2341,2368,1.84688255924985,-6.07245486962976,-0.0165272263622001,0.001568,-0.033643,-0.007018,0.083081,-1.539440,325.022065,21.952753,0.998971,0.984450,0.004939,0.440140,0.000263,0.000245,0.000014,0.000270,0.000237,28.522193,0.000508,
2266,2203,0.241138870982578,-9.68614957918658,-0.00121337658282528,0.000322,-0.034976,-0.008809,0.030815,-1.621828,327.822648,21.882925,0.998663,0.980572,0.005578,0.377525,0.000468,0.000487,0.000003,0.000487,0.000467,80.315652,0.000954,
2116,2863,-3.13413873261597,4.71157068915733,-0.0050080993801771,0.002664,-0.032978,0.010487,0.080431,-1.440337,317.607909,22.947776,0.999668,0.992090,0.003571,0.441118,0.000037,0.000025,0.000004,0.000038,0.000024,16.381066,0.000063,
2101,2773,-3.44624222929393,2.75582263540211,-0.0228852228812002,0.002545,-0.032749,0.006045,0.088542,-1.435454,318.998433,22.929969,0.999578,0.990380,0.003887,0.435190,0.000042,0.000026,-0.000008,0.000046,0.000023,-21.647320,0.000069,
2326,2293,1.53426810031718,-7.71437004209192,-0.00789059752599997,0.001428,-0.034294,-0.007966,0.079540,-1.569322,326.306931,21.828962,0.998957,0.982247,0.005202,0.403198,0.000340,0.000329,-0.000005,0.000342,0.000327,-21.528826,0.000670,
2266,2128,0.254699083191788,-11.3313572347705,0.00617378945639757,-0.000021,-0.036058,-0.009821,0.018030,-1.649254,329.080289,21.683374,0.998725,0.979842,0.005607,0.407767,0.000603,0.000680,0.000010,0.000681,0.000602,83.075491,0.001284,
2176,3013,-1.85482865560275,7.97181357533619,0.0128686840706678,0.003340,-0.032892,0.008336,0.116339,-1.439603,315.111873,23.151564,0.999228,0.988674,0.004224,0.444728,0.000026,0.000014,0.000005,0.000028,0.000012,19.033483,0.000041,
2506,3298,5.25971302562504,14.1815328284052,0.0181068269129128,0.004242,-0.033856,0.010211,0.140934,-1.506544,310.430317,25.210781,0.999765,0.993464,0.003213,0.432227,0.000001,-0.000018,-0.000024,0.000017,-0.000034,-34.294203,0.000034,
2026,2353,-5.01288543833911,-6.40140038941686,-0.00926739652334163,-0.000359,-0.032635,-0.003510,-0.017045,-1.478328,326.208368,23.131618,0.999039,0.986086,0.004835,0.393758,0.000333,0.000163,0.000045,0.000344,0.000152,14.089944,0.000509,
2011,2278,-5.32895958268989,-8.04145516644618,-0.00635352074323237,-0.001443,-0.032864,-0.006461,-0.058904,-1.494581,327.492384,23.162704,0.998487,0.979611,0.005665,0.448516,0.000419,0.000306,0.000059,0.000444,0.000281,23.090730,0.000731,
2401,2668,3.09719387733903,0.480524873459274,-0.0213591180076946,0.002363,-0.033477,-0.000782,0.097682,-1.491968,320.155959,22.734400,0.999356,0.988484,0.004339,0.433229,0.000057,0.000033,0.000023,0.000071,0.000019,31.468351,0.000095,
2011,2398,-5.34512317974034,-5.41920135759405,-0.00432238999781021,0.000198,-0.032315,0.000420,-0.001997,-1.444663,325.634245,23.144679,0.999111,0.987179,0.004542,0.435642,0.000324,0.000063,0.000016,0.000325,0.000062,3.545222,0.000415,
2416,2743,3.40915928356584,2.11592901133181,-0.0216074613205706,0.002620,-0.033330,0.002901,0.096003,-1.472640,318.948187,22.970767,0.999497,0.988756,0.004125,0.449663,0.000056,0.000073,0.000031,0.000096,0.000033,52.689238,0.000134,
2476,3073,4.65321165782298,9.29502501299336,0.0224075408961539,0.003574,-0.033754,0.008510,0.117561,-1.499977,314.058143,24.220333,0.999529,0.990196,0.004001,0.425549,0.000030,0.000024,0.000031,0.000058,-0.000004,42.328371,0.000064,
2221,1993,-0.704078676234147,-14.2967714210959,0.029193179980723,-0.001529,-0.038583,-0.009636,-0.053083,-1.781733,331.458163,21.705559,0.999581,0.987746,0.004691,0.310570,0.000848,0.000857,0.000023,0.000876,0.000829,50.698201,0.001705,
2491,3193,4.95732450648164,11.9004920717689,0.0450572067593953,0.003901,-0.033656,0.007344,0.136817,-1.488099,312.337227,24.711661,0.999461,0.990774,0.003815,0.461134,0.000031,-0.000004,0.000015,0.000037,-0.000010,19.745950,0.000038,
2386,2578,2.78776767186566,-1.4835369556094,-0.0154595089462646,0.001984,-0.033785,0.001262,0.072893,-1.490711,321.630538,22.473557,0.999372,0.987864,0.004438,0.438458,0.000108,0.000051,0.000029,0.000120,0.000039,22.980024,0.000165,
2191,3088,-1.54074585070873,9.59926792484532,0.0284937576705033,0.003698,-0.032665,0.008137,0.133103,-1.443599,313.986239,23.255454,0.999498,0.991575,0.003711,0.449330,0.000010,0.000006,-0.000003,0.000012,0.000004,-27.227346,0.000017,
2086,2743,-3.76723424270299,2.10162589416248,-0.0166651621551637,0.002053,-0.032771,0.005354,0.068201,-1.444994,319.591605,22.891000,0.999407,0.989236,0.004101,0.457095,0.000042,0.000031,-0.000008,0.000046,0.000027,-27.820381,0.000075,
2281,2308,0.550456393783296,-7.38742575427499,0.00249707067644067,0.001401,-0.034991,-0.002783,0.060384,-1.566054,326.168146,22.035001,0.999158,0.982909,0.005325,0.416302,0.000303,0.000294,0.000015,0.000314,0.000283,36.882531,0.000597,
2221,3298,-0.927959500757904,14.1547521168784,0.0101292344759258,0.003993,-0.033171,0.011339,0.135509,-1.460651,310.310967,23.601280,0.999403,0.992284,0.003425,0.444100,0.000001,0.000015,0.000007,0.000018,-0.000002,67.056601,0.000020,
2146,2893,-2.48744477207257,5.36487184419705,-0.00522179662090139,0.002752,-0.032652,0.005983,0.097286,-1.440667,317.007365,22.982190,0.999460,0.989431,0.004112,0.466458,0.000032,0.000024,0.000000,0.000032,0.000024,-1.185154,0.000056,
2026,2473,-5.03130740408284,-3.78071365670688,-0.0221605510939753,0.000296,-0.032668,0.004443,-0.008794,-1.430132,324.174822,23.038831,0.998937,0.984456,0.004862,0.468910,0.000229,0.000042,0.000029,0.000234,0.000037,8.621791,0.000294,
2296,2353,0.868889119267941,-6.40298151729552,0.00322954542122034,0.000890,-0.034307,-0.002297,0.035493,-1.561997,325.405899,22.087367,0.999590,0.987679,0.004316,0.403777,0.000255,0.000252,0.000007,0.000261,0.000246,38.114401,0.000507,
2251,2098,-0.0673696742229062,-11.9887385041061,0.00535597864831061,-0.000012,-0.036198,-0.011085,0.022349,-1.682099,329.584904,21.752560,0.999166,0.979281,0.005737,0.339089,0.000657,0.000737,0.000025,0.000744,0.000650,74.164166,0.001395,
2056,2503,-4.38332436720289,-3.12724283463086,-0.0177087729060759,0.000394,-0.033123,0.004359,-0.004778,-1.466747,323.555465,22.913983,0.999385,0.988693,0.004300,0.479143,0.000180,0.000052,0.000023,0.000184,0.000048,10.046226,0.000244,
2431,2818,3.72135975895094,3.75021203643111,-0.0227282830684885,0.002692,-0.032720,-0.002190,0.118203,-1.470177,317.759616,23.228571,0.999485,0.989842,0.004135,0.448436,0.000035,0.000023,0.000006,0.000037,0.000021,23.806353,0.000059,
2311,2218,1.22086745600673,-9.35889874626832,0.0033280756239833,0.000746,-0.035155,-0.006488,0.042790,-1.593206,327.583026,21.624000,0.998547,0.975552,0.006027,0.473612,0.000458,0.000475,-0.000010,0.000479,0.000453,-65.589231,0.000932,
2071,2578,-4.06814767818597,-1.49008211942693,-0.025973965746573,0.001602,-0.032411,0.004033,0.051655,-1.424183,322.247568,22.932073,0.998956,0.988464,0.004476,0.462211,0.000107,0.000028,0.000020,0.000112,0.000023,13.252408,0.000145,
2446,2938,4.02442204108224,6.36125777706167,-0.0145925465254209,0.003115,-0.033771,0.005505,0.108461,-1.499182,315.884210,23.659909,0.999549,0.991767,0.003851,0.417959,0.000024,-0.000009,0.000001,0.000024,-0.000009,0.879920,0.000024,
2461,2983,4.34329281583017,7.34004871503919,0.00281479201993307,0.003333,-0.033827,0.007310,0.111351,-1.501061,315.326781,23.911930,0.999377,0.989453,0.004143,0.358526,0.000023,0.000008,0.000016,0.000033,-0.000002,32.717203,0.000037,
2191,3118,-1.54547592365055,10.2489754278176,0.042793910548653,0.003452,-0.032932,0.012306,0.108524,-1.458024,313.591644,23.287314,0.999442,0.992530,0.003622,0.429837,0.000004,0.000006,-0.000004,0.000009,0.000001,-53.571033,0.000011,
2101,2668,-3.42996430489709,0.470784202447533,-0.0255989958631062,0.002001,-0.032452,0.003103,0.072188,-1.441419,320.662511,22.889598,0.999465,0.990131,0.003927,0.459525,0.000077,0.000035,0.000000,0.000077,0.000035,-0.444769,0.000115,
2116,2758,-3.11764322688129,2.42944315875993,-0.0151666876412264,0.002314,-0.032534,0.003583,0.084955,-1.431242,319.232993,22.921683,0.999510,0.990366,0.003874,0.453323,0.000051,0.000033,-0.000014,0.000058,0.000025,-28.275339,0.000086,
2161,3088,-2.1918043730168,9.59764416735006,0.0270100782929603,0.003607,-0.032644,0.008138,0.129808,-1.433942,314.073034,23.182983,0.999397,0.990315,0.003904,0.420247,0.000016,0.000005,-0.000001,0.000016,0.000004,-7.223900,0.000021,
2236,2053,-0.38675556009547,-12.9774422577957,0.0133725496444868,-0.000408,-0.037176,-0.011532,0.005048,-1.749898,330.387362,21.746970,0.998672,0.976613,0.005850,0.294182,0.000736,0.000806,0.000037,0.000822,0.000720,66.811768,0.001543,
2026,2488,-5.03230059470036,-3.45508531453807,-0.0151182769233174,0.000997,-0.032431,0.002566,0.028673,-1.444965,324.029362,22.971004,0.999319,0.985439,0.004554,0.513061,0.000219,0.000036,0.000033,0.000224,0.000031,9.886613,0.000278,
2356,2458,2.15673635820825,-4.10508885146607,-0.0116397163944839,0.001504,-0.034288,0.000377,0.054079,-1.543546,323.577192,22.203314,0.999131,0.985325,0.004802,0.376723,0.000184,0.000148,0.000028,0.000199,0.000132,28.891504,0.000334,
2041,2488,-4.70585536251079,-3.45454255019143,-0.0115454395247525,0.000894,-0.032179,-0.002038,0.036547,-1.462948,323.976154,23.013177,0.999373,0.987236,0.004579,0.420335,0.000196,0.000035,0.000023,0.000199,0.000031,7.958162,0.000250,
2326,2308,1.53119508775027,-7.38567576456984,-0.00906939849119226,0.001323,-0.034329,-0.006673,0.070278,-1.566425,326.045255,21.892434,0.998803,0.982597,0.005258,0.379175,0.000320,0.000302,0.000003,0.000321,0.000301,10.403571,0.000622,
2206,3223,-1.2388096018903,12.5283063208157,0.0312856768623533,0.003688,-0.032940,0.010685,0.124081,-1.454050,311.747067,23.530094,0.999794,0.995441,0.003033,0.359217,0.000000,-0.000003,-0.000003,0.000003,-0.000005,-30.603824,0.000005,
2131,2788,-2.79705668163333,3.08252140967675,-0.0170872730262204,0.002239,-0.032843,0.005212,0.076262,-1.442815,318.655695,22.922685,0.999607,0.992615,0.003439,0.458975,0.000053,0.000043,-0.000008,0.000057,0.000038,-28.323625,0.000096,
2341,2383,1.84349078677741,-5.74414197940637,-0.0133417359177201,0.001208,-0.034377,-0.000992,0.045389,-1.535621,324.767964,22.049234,0.999309,0.985152,0.004834,0.385796,0.000250,0.000222,0.000011,0.000253,0.000218,18.989518,0.000472,
2401,2683,3.09437474163379,0.808100713663514,-0.0239632279133275,0.002749,-0.033218,0.000177,0.112065,-1.467679,319.904129,22.788026,0.999357,0.987656,0.004401,0.449902,0.000055,0.000053,0.000024,0.000079,0.000030,43.605176,0.000112,
2041,2443,-4.69895142052133,-4.43667950467995,-0.00856067883785272,0.000805,-0.032191,-0.002398,0.033489,-1.460301,324.724083,23.014280,0.998665,0.982538,0.005286,0.440479,0.000229,0.000077,0.000036,0.000237,0.000069,12.740640,0.000322,
2176,3148,-1.87615122976752,10.8993737569102,0.0333290920921741,0.003733,-0.032675,0.008798,0.133149,-1.432882,313.095396,23.257688,0.999412,0.992901,0.003638,0.447083,0.000014,0.000009,-0.000003,0.000015,0.000008,-26.049782,0.000023,
2176,3058,-1.86133117671186,8.94692525700239,0.0282320475289453,0.003458,-0.032892,0.008147,0.122408,-1.441512,314.512662,23.145203,0.999715,0.994892,0.003221,0.483504,0.000023,-0.000003,0.000000,0.000023,-0.000003,-0.521731,0.000025,
2071,2653,-4.07929641366465,0.14291454249696,-0.0226813025929573,0.002150,-0.033185,0.007626,0.066401,-1.450832,321.076437,22.916330,0.999220,0.988401,0.004268,0.438475,0.000076,0.000044,0.000009,0.000079,0.000042,14.306179,0.000123,
2131,2818,-2.80138835077124,3.73418425889828,-0.00994504538459751,0.002401,-0.032696,0.005829,0.081860,-1.446159,318.233775,22.926010,0.999376,0.990217,0.004011,0.463501,0.000051,0.000046,-0.000001,0.000052,0.000045,-13.500483,0.000097,
2161,2998,-2.17814480798203,7.64553964152384,0.0109793401873617,0.003209,-0.032813,0.009357,0.107622,-1.432173,315.385199,23.111281,0.999605,0.992457,0.003676,0.438804,0.000027,0.000016,0.000009,0.000032,0.000011,30.509142,0.000045,
2071,2593,-4.07057257614473,-1.16349786293651,-0.0251070777896985,0.001490,-0.032674,0.004602,0.044799,-1.444130,322.005576,22.934782,0.998944,0.988245,0.004393,0.437006,0.000097,0.000039,0.000021,0.000104,0.000032,17.805731,0.000142,
2221,2008,-0.707929071112627,-13.9650141445434,0.0175031586816772,-0.001827,-0.038281,-0.007334,-0.073988,-1.748013,331.098313,21.785302,0.999482,0.986022,0.005035,0.287966,0.000815,0.000836,0.000041,0.000867,0.000783,52.226387,0.001651,
2026,2368,-5.01526677561034,-6.0751817527046,-0.00275449297714658,-0.000658,-0.033118,0.000787,-0.042697,-1.467418,325.996043,23.050911,0.999053,0.986281,0.004847,0.477197,0.000332,0.000155,0.000038,0.000340,0.000147,11.488866,0.000500,
2101,2788,-3.44811932601118,3.08098397502299,-0.013117697758446,0.002691,-0.032876,0.009846,0.084095,-1.440100,318.832411,22.914817,0.999556,0.990215,0.003986,0.446912,0.000037,0.000037,-0.000009,0.000046,0.000028,-44.595768,0.000075,
2296,2368,0.86641269541445,-6.07567182353272,0.00824218126246024,0.000876,-0.034178,-0.000758,0.029728,-1.541032,325.199587,22.085701,0.999257,0.984814,0.004845,0.458160,0.000241,0.000245,0.000009,0.000253,0.000234,51.900011,0.000486,
2011,2443,-5.35200883631733,-4.43639321658834,-0.00193255386363944,-0.000007,-0.032579,0.004015,-0.021246,-1.440351,324.909466,23.200617,0.999332,0.989264,0.004189,0.352285,0.000263,0.000058,0.000034,0.000268,0.000052,9.207248,0.000344,
2161,3103,-2.19402923501471,9.92205155439611,0.0315578591345229,0.003529,-0.032702,0.006813,0.130200,-1.444964,313.866961,23.143279,0.999547,0.993134,0.003412,0.458310,0.000010,0.000004,-0.000002,0.000011,0.000003,-18.674267,0.000014,
2431,2833,3.71866970088138,4.07715823734643,-0.0169486759193092,0.003136,-0.033525,0.005497,0.109870,-1.480227,317.554672,23.369286,0.999325,0.988485,0.004174,0.347193,0.000027,0.000014,0.000004,0.000028,0.000013,16.474773,0.000042,
2206,3238,-1.24067679004663,12.8521219746488,0.0364598852071367,0.003940,-0.032828,0.008604,0.142361,-1.455742,311.563501,23.462361,0.999760,0.994496,0.003126,0.440548,0.000000,-0.000006,0.000000,0.000000,-0.000006,2.414578,0.000007,
2146,2998,-2.50285521597009,7.64405832388803,0.0145208112256228,0.003428,-0.032214,0.004257,0.133875,-1.412065,315.498721,23.028087,0.999608,0.992560,0.003562,0.499997,0.000019,0.000016,0.000010,0.000027,0.000008,39.777820,0.000037,
2266,2218,0.238621302172831,-9.35776818813181,0.00473745149980687,0.000170,-0.034760,-0.006920,0.017706,-1.585019,327.617056,21.925107,0.998685,0.978754,0.005686,0.400019,0.000444,0.000454,0.000002,0.000454,0.000444,77.564410,0.000898,
2041,2503,-4.70873202939968,-3.12730863471788,-0.014394370011928,0.000714,-0.032335,0.002202,0.016460,-1.444879,323.690268,22.973939,0.999441,0.989093,0.004200,0.471194,0.000189,0.000049,0.000020,0.000192,0.000046,7.904083,0.000252,
2191,3133,-1.54774932980284,10.5752786228165,0.0371663612430666,0.003810,-0.032545,0.007227,0.141225,-1.429290,313.331365,23.326681,0.999383,0.992409,0.003712,0.432774,0.000006,0.000008,-0.000002,0.000009,0.000005,-56.762155,0.000014,
2491,3208,4.95399245621269,12.2268907536301,0.0397317587558064,0.004119,-0.033414,0.007757,0.145391,-1.475797,312.054276,24.803729,0.999399,0.991043,0.003838,0.439119,0.000036,0.000002,0.000003,0.000037,0.000002,5.199446,0.000043,
2311,2233,1.21819541895799,-9.02943989674179,0.00415959946388966,0.000840,-0.035121,-0.005521,0.043813,-1.586453,327.348404,21.746823,0.998404,0.977000,0.005952,0.392097,0.000426,0.000438,-0.000006,0.000440,0.000424,-68.775969,0.000864,
2116,2878,-3.13657964673648,5.03732491500292,-0.00803673922462167,0.002687,-0.032771,0.007800,0.089425,-1.464204,317.347922,22.933443,0.999535,0.991812,0.003759,0.434964,0.000041,0.000032,0.000004,0.000042,0.000030,19.700236,0.000073,
2476,3088,4.65013885785265,9.62141346855175,0.0214932888261501,0.003682,-0.033623,0.009208,0.119979,-1.484051,313.806683,24.302979,0.999332,0.991175,0.003866,0.414586,0.000033,0.000024,0.000027,0.000056,0.000002,40.015912,0.000066,
2461,2998,4.34060639921598,7.6651761921763,0.00546811222301358,0.003600,-0.033490,0.009210,0.116643,-1.471832,315.109166,23.865644,0.999284,0.989324,0.004135,0.487924,0.000025,0.000007,0.000023,0.000040,-0.000009,33.987362,0.000042,
2011,2413,-5.34793604674669,-5.09233150973757,-0.00573065751984814,-0.000369,-0.032623,-0.000175,-0.026584,-1.478422,325.356952,23.105711,0.999092,0.987433,0.004499,0.430310,0.000305,0.000056,0.000027,0.000308,0.000053,6.093701,0.000390,
2056,2593,-4.39635752169552,-1.16330732402758,-0.0272522063487486,0.001763,-0.032915,0.004424,0.058088,-1.455548,322.083099,23.000954,0.998651,0.987188,0.004527,0.376763,0.000098,0.000037,0.000010,0.000099,0.000035,8.979534,0.000139,
2011,2293,-5.3321227201382,-7.71167201958823,-0.014185914494135,-0.001607,-0.033286,-0.000663,-0.082241,-1.469479,327.162057,23.225687,0.998941,0.985144,0.004972,0.401239,0.000416,0.000276,0.000058,0.000437,0.000255,19.778165,0.000700,
2236,2068,-0.389300561120709,-12.6489384635544,0.0226399238448494,-0.000733,-0.037052,-0.007490,-0.022816,-1.705774,330.195365,21.778919,0.998964,0.978761,0.005606,0.330503,0.000711,0.000786,0.000040,0.000804,0.000694,66.713014,0.001499,
2101,2683,-3.43223442634327,0.796617835748322,-0.0228391376817854,0.002006,-0.032659,0.004011,0.069709,-1.440873,320.440303,22.846738,0.999350,0.990847,0.003859,0.504555,0.000067,0.000036,-0.000005,0.000067,0.000035,-8.339372,0.000104,
2296,2263,0.884375815018402,-8.36988710284245,-0.0107803869338454,0.000756,-0.034397,-0.006852,0.044683,-1.578779,326.751313,21.965662,0.999425,0.987664,0.004690,0.317205,0.000374,0.000361,-0.000009,0.000378,0.000356,-25.787338,0.000735,
2236,1993,-0.376744714241166,-14.2973712025078,0.0231656545035435,-0.001252,-0.038779,-0.008469,-0.044023,-1.789482,331.384967,21.522327,0.999554,0.987991,0.004740,0.380201,0.000855,0.000881,0.000008,0.000883,0.000853,73.627609,0.001736,
2356,2473,2.15423441311337,-3.77731592514558,-0.00914361851317835,0.001708,-0.034130,0.001150,0.060796,-1.514918,323.361398,22.247360,0.999444,0.987762,0.004383,0.401298,0.000167,0.000125,0.000027,0.000180,0.000112,25.787813,0.000295,
2086,2653,-3.75287388580259,0.142433907556807,-0.0118319918969405,0.002243,-0.033409,0.011159,0.060019,-1.443458,321.082529,22.900957,0.999461,0.989273,0.003975,0.452599,0.000087,0.000045,0.000006,0.000088,0.000044,8.182333,0.000134,
2056,2518,-4.38471946952845,-2.80024857700935,-0.0122288855152988,0.000870,-0.032880,0.002942,0.021157,-1.474357,323.384611,22.958927,0.999256,0.988972,0.004270,0.422078,0.000155,0.000039,0.000025,0.000160,0.000034,11.641211,0.000207,
2086,2758,-3.76987862696451,2.42862201994412,-0.0265894049670123,0.002375,-0.032677,0.004740,0.084853,-1.445768,319.281860,22.876672,0.999476,0.989897,0.004002,0.469797,0.000038,0.000022,-0.000009,0.000042,0.000017,-24.340648,0.000061,
2191,3223,-1.56323361401786,12.5257972894445,0.0431343542480249,0.003848,-0.033016,0.012362,0.126670,-1.449176,311.894611,23.407875,0.999706,0.994350,0.003218,0.410887,-0.000002,0.000003,-0.000002,0.000004,-0.000003,-69.085584,0.000004,
2386,2593,2.78496136121318,-1.15638555391219,-0.014387184548923,0.002200,-0.033783,0.003986,0.073038,-1.487743,321.396008,22.511718,0.999399,0.987633,0.004513,0.447295,0.000099,0.000041,0.000033,0.000114,0.000026,23.986242,0.000149,
2266,2143,0.252461474561954,-11.0001653809457,0.00501462374904804,0.000567,-0.035969,-0.008913,0.042019,-1.632810,328.851793,21.900786,0.999328,0.984019,0.005197,0.235235,0.000570,0.000622,0.000011,0.000624,0.000568,78.121101,0.001192,
2401,2698,3.09041438441686,1.13479440227859,-0.0292486557366942,0.002464,-0.033947,0.004395,0.083421,-1.493003,319.587461,22.793397,0.999374,0.989296,0.004174,0.465000,0.000055,0.000059,0.000023,0.000081,0.000034,47.474652,0.000118,
2146,2908,-2.48935917656263,5.69056062111201,-0.00290381065275369,0.002976,-0.032642,0.002886,0.116991,-1.448780,316.802338,22.994159,0.999355,0.988688,0.004198,0.453724,0.000030,0.000016,0.000001,0.000030,0.000016,3.947865,0.000047,
2116,2773,-3.11992675869335,2.75577712101168,-0.0146395776029635,0.002613,-0.032515,0.006444,0.090230,-1.427760,318.999103,22.929796,0.999710,0.991862,0.003545,0.452070,0.000049,0.000031,-0.000011,0.000055,0.000026,-25.962196,0.000082,
2041,2458,-4.70175919801281,-4.10945251344152,-0.00957847205989992,0.000486,-0.032395,0.000343,0.011134,-1.458803,324.451508,22.992503,0.998760,0.981899,0.005380,0.457732,0.000212,0.000048,0.000021,0.000214,0.000045,7.267238,0.000277,
2011,2458,-5.35337175718341,-4.10977836889882,-0.00474089893435803,0.000645,-0.031850,-0.001908,0.024975,-1.435231,324.690579,23.101269,0.999416,0.989529,0.004089,0.446172,0.000244,0.000034,0.000025,0.000247,0.000031,6.798643,0.000304,
2281,2323,0.547329885047539,-7.05886587768149,0.00339743572510542,0.001019,-0.034626,-0.001205,0.037723,-1.536764,325.910378,22.084337,0.998924,0.982328,0.005388,0.426166,0.000287,0.000269,0.000014,0.000295,0.000262,28.577757,0.000557,
2326,2323,1.52779078100314,-7.05784912933094,-0.00676270398605539,0.000812,-0.034550,-0.002826,0.033550,-1.546467,325.785390,21.899485,0.998737,0.981219,0.005499,0.428591,0.000303,0.000279,0.000009,0.000306,0.000276,18.231893,0.000582,
2026,2383,-5.0173481694412,-5.74689225427132,-0.00211446417654315,-0.000639,-0.032540,-0.000650,-0.037742,-1.451457,325.764250,23.101827,0.999363,0.988687,0.004171,0.433980,0.000323,0.000118,0.000032,0.000328,0.000113,8.665894,0.000458,
2251,2203,-0.086162212754278,-9.6869871792229,0.00145188164759702,0.000286,-0.035340,-0.005279,0.017344,-1.598783,327.856341,21.875412,0.999039,0.983575,0.005128,0.483077,0.000467,0.000483,0.000018,0.000494,0.000455,56.646564,0.000950,
2416,2758,3.40632264738959,2.44203791306025,-0.0211546177138189,0.002641,-0.033478,0.002279,0.099200,-1.491953,318.711198,22.981202,0.999479,0.988093,0.004229,0.467624,0.000055,0.000068,0.000030,0.000092,0.000030,51.056836,0.000127,
2041,2518,-4.71093512896944,-2.80008193086259,-0.015451097900268,0.000873,-0.032312,0.002676,0.022444,-1.448909,323.445196,22.977286,0.999313,0.989383,0.004230,0.457444,0.000162,0.000034,0.000021,0.000165,0.000031,9.027499,0.000211,
2491,3223,4.95083975088798,12.5528274083337,0.0354932190091972,0.004273,-0.033443,0.006361,0.157783,-1.490341,311.784556,24.890758,0.999472,0.990842,0.003824,0.394818,0.000035,-0.000014,-0.000004,0.000035,-0.000014,-4.354213,0.000035,
2026,2503,-5.03547145476631,-3.12508460786366,-0.0276789805401449,0.000786,-0.032130,0.001828,0.021106,-1.421311,323.673878,23.091139,0.999673,0.992232,0.003700,0.408377,0.000207,0.000053,0.000029,0.000212,0.000048,10.376887,0.000277,
2161,3013,-2.18054650014693,7.97120554935994,0.00821979732160116,0.003340,-0.032606,0.006627,0.122140,-1.432800,315.131984,23.106926,0.999382,0.989956,0.004095,0.451939,0.000028,0.000014,0.000007,0.000031,0.000011,23.068460,0.000043,
2281,2233,0.563157459407115,-9.02890364417028,0.00474910440021858,0.000230,-0.035135,-0.006204,0.018018,-1.584899,327.354987,21.927520,0.998814,0.979187,0.005583,0.354959,0.000412,0.000429,-0.000004,0.000430,0.000412,-77.483469,0.000842,
2131,2923,-2.81720870518197,6.01540427109271,-0.00225426809248575,0.003096,-0.032537,0.001858,0.125894,-1.439941,316.634237,22.953967,0.999249,0.988694,0.004244,0.478885,0.000035,0.000012,0.000005,0.000036,0.000010,11.771729,0.000049,
2446,2953,4.02144675704384,6.68736956481853,-0.0151148809683832,0.003043,-0.033615,0.003847,0.111439,-1.496687,315.637589,23.697955,0.999646,0.992674,0.003691,0.434151,0.000023,-0.000013,0.000005,0.000024,-0.000014,7.593421,0.000024,
2476,3103,4.64740364656851,9.94690230164921,0.0252366661475207,0.003513,-0.033547,0.007206,0.119869,-1.482654,313.592170,24.350596,0.999279,0.990479,0.003974,0.423935,0.000029,0.000022,0.000029,0.000054,-0.000003,41.221837,0.000061,
2266,2233,0.235565449042621,-9.02918151762861,0.0005911607539133,0.000034,-0.034933,-0.007508,0.013353,-1.602311,327.336456,21.940137,0.998755,0.977883,0.005646,0.395889,0.000413,0.000423,0.000001,0.000423,0.000413,83.094465,0.000836,
2221,2023,-0.710229015926512,-13.6360712991576,0.0150039120712222,-0.001532,-0.038071,-0.009293,-0.054155,-1.768266,330.856819,21.773342,0.998971,0.980317,0.005589,0.302189,0.000792,0.000827,0.000048,0.000861,0.000758,54.962398,0.001620,
2371,2518,2.47263150340895,-2.79487302230928,-0.0124902699339486,0.001840,-0.033809,-0.000504,0.072692,-1.515770,322.620855,22.255392,0.999345,0.986091,0.004759,0.483558,0.000145,0.000089,0.000023,0.000153,0.000080,19.678052,0.000237,
2116,2893,-3.13942976885903,5.3643256405931,-0.0147807380514564,0.002692,-0.032389,0.007372,0.091074,-1.444291,317.048692,22.967788,0.999270,0.991769,0.004092,0.423679,0.000034,0.000017,0.000005,0.000036,0.000016,14.918891,0.000052,
2011,2428,-5.35006800511446,-4.7647714738486,-0.00429539821317348,-0.000244,-0.032662,0.002191,-0.027214,-1.455888,325.126324,23.105596,0.999012,0.986254,0.004649,0.442487,0.000270,0.000063,0.000033,0.000276,0.000058,8.942458,0.000357,
2056,2608,-4.39870339168013,-0.837820257591339,-0.0214490173453896,0.001293,-0.032671,0.003318,0.039612,-1.462298,321.871035,22.936825,0.998928,0.988410,0.004347,0.429279,0.000095,0.000037,0.000006,0.000096,0.000036,5.446927,0.000137,
2071,2608,-4.07294355450446,-0.835973755504419,-0.026895448982259,0.001679,-0.032869,0.006371,0.048379,-1.439830,321.751200,22.981188,0.999145,0.989461,0.004135,0.392629,0.000096,0.000039,0.000017,0.000100,0.000034,15.677241,0.000140,
2341,2398,1.84114939145134,-5.41661453004439,-0.00974017669147997,0.001344,-0.034128,-0.001696,0.054176,-1.518076,324.564072,22.068481,0.999590,0.987507,0.004552,0.422275,0.000229,0.000216,0.000014,0.000238,0.000207,32.800271,0.000446,
2011,2473,-5.35632644391549,-3.78232688573945,-0.00712713953612365,0.000320,-0.032477,0.002783,-0.002853,-1.439977,324.401139,23.097674,0.999089,0.986424,0.004560,0.434340,0.000239,0.000030,0.000033,0.000244,0.000025,8.711484,0.000298,
2491,3238,4.94677980979321,12.8786203747054,0.0287669137954367,0.004124,-0.033612,0.009695,0.138079,-1.491192,311.461690,24.941281,0.999593,0.991680,0.003696,0.401176,0.000032,-0.000011,-0.000008,0.000033,-0.000012,-9.673994,0.000034,
2176,3073,-1.86405324661166,9.27127711330646,0.0301980321943347,0.003201,-0.032886,0.008728,0.108747,-1.444139,314.271136,23.068374,0.999714,0.994890,0.003135,0.569178,0.000022,0.000002,0.000000,0.000022,0.000002,-1.199150,0.000027,
2071,2668,-4.08218070649547,0.469465587986853,-0.0210363413199275,0.001676,-0.033170,0.010386,0.036709,-1.443266,320.817648,22.917857,0.999104,0.988192,0.004360,0.441806,0.000065,0.000029,0.000004,0.000066,0.000029,5.756570,0.000097,
2356,2488,2.15206605544801,-3.4505735612332,-0.00638503977313576,0.002058,-0.033839,-0.000157,0.081556,-1.503590,323.162379,22.221136,0.999405,0.987090,0.004457,0.478880,0.000153,0.000108,0.000026,0.000165,0.000096,24.424775,0.000263,
2176,3163,-1.87808631095681,11.2241821426346,0.0415059186973394,0.003842,-0.032824,0.009200,0.136859,-1.445292,312.922435,23.292269,0.999822,0.996307,0.002875,0.411180,0.000010,0.000016,-0.000002,0.000017,0.000010,-70.880506,0.000027,
2056,2533,-4.38643420787336,-2.47368013146303,-0.0087001597846097,0.001265,-0.032709,0.003464,0.037952,-1.439433,323.188397,22.909198,0.998969,0.987317,0.004539,0.502099,0.000140,0.000043,0.000029,0.000148,0.000035,15.684874,0.000194,
2131,2833,-2.80376308964215,4.06105847783993,-0.0161049806985147,0.002690,-0.032646,0.002698,0.104585,-1.456451,317.960951,22.964398,0.999549,0.991849,0.003708,0.420378,0.000048,0.000037,0.000000,0.000048,0.000037,1.009175,0.000085,
2026,2758,-5.07220813237803,2.42566003366582,-0.0199077565117705,0.002213,-0.032464,0.005888,0.075517,-1.410591,319.668557,22.831845,0.999053,0.989300,0.004319,0.521662,0.000052,-0.000009,-0.000018,0.000057,-0.000014,-15.334228,0.000060,
2041,2593,-4.72168248593093,-1.16445406815976,-0.0217570394490281,0.001831,-0.032457,0.001752,0.069092,-1.428237,322.226647,22.972047,0.998932,0.988447,0.004307,0.449912,0.000107,0.000034,0.000007,0.000108,0.000033,5.599408,0.000147,
2101,2803,-3.45111883008527,3.40752950270991,-0.0175048220292524,0.002313,-0.032756,0.008763,0.069865,-1.440189,318.537949,22.916560,0.999452,0.991131,0.003810,0.446186,0.000038,0.000039,-0.000004,0.000043,0.000034,-48.489974,0.000078,
2191,3238,-1.56476668942569,12.849605307828,0.0525272537279875,0.004143,-0.032906,0.010492,0.146159,-1.454008,311.747593,23.365283,0.999748,0.994224,0.003162,0.461659,-0.000003,0.000002,0.000001,0.000003,-0.000004,77.292358,0.000004,
2476,3118,4.64456590612815,10.2719062305906,0.0278829680332251,0.003659,-0.033902,0.009139,0.119043,-1.500153,313.368017,24.368994,0.999427,0.990696,0.003772,0.443505,0.000029,0.000016,0.000028,0.000052,-0.000006,38.234641,0.000056,
2086,2668,-3.75530892757862,0.469204991479707,-0.0165188273439867,0.002213,-0.032858,0.007099,0.070534,-1.437916,320.810930,22.871492,0.999362,0.989719,0.003997,0.487256,0.000078,0.000033,0.000001,0.000078,0.000033,1.039222,0.000113,
2086,2773,-3.77146607833359,2.75517586925098,-0.0233557088895395,0.002831,-0.032464,0.002609,0.112081,-1.436822,319.092270,22.920773,0.999590,0.990223,0.004017,0.433693,0.000037,0.000022,-0.000007,0.000039,0.000019,-21.176003,0.000059,
2221,2038,-0.712638312277118,-13.3060857639735,0.00648536006656286,-0.001077,-0.037370,-0.013484,-0.019721,-1.746435,330.579211,21.752635,0.998760,0.975483,0.005957,0.367342,0.000768,0.000802,0.000042,0.000830,0.000740,55.849203,0.001571,
2011,2308,-5.33410966188212,-7.38419082222185,-0.00806831030081412,-0.001673,-0.032961,0.001047,-0.089841,-1.466510,326.964145,23.245780,0.999035,0.985507,0.004913,0.373749,0.000396,0.000222,0.000040,0.000405,0.000213,12.399591,0.000628,
2026,2518,-5.03756980432795,-2.80036728515457,-0.02250753561691,0.000717,-0.032679,0.003606,0.012832,-1.459769,323.467844,22.955853,0.999732,0.993392,0.003454,0.496312,0.000178,0.000038,0.000026,0.000183,0.000033,10.319837,0.000233,
2146,3013,-2.50523352008649,7.97035989819084,0.011754507198475,0.003514,-0.032046,0.000810,0.148299,-1.430026,315.245177,23.098880,0.999383,0.990074,0.004036,0.418148,0.000020,0.000014,0.000009,0.000027,0.000008,36.447022,0.000036,
2206,3253,-1.24369838771334,13.1767947202137,0.0378432704010834,0.003694,-0.032889,0.012155,0.119760,-1.441212,311.306862,23.439447,0.999794,0.994757,0.003016,0.493050,0.000000,-0.000017,0.000003,0.000000,-0.000018,9.649150,0.000020,
2311,2248,1.21565263436728,-8.70131789453839,0.00333134891462805,0.000921,-0.034877,-0.007962,0.055928,-1.598718,327.111796,21.754548,0.998452,0.979474,0.005673,0.406508,0.000407,0.000392,-0.000006,0.000409,0.000390,-19.953763,0.000799,
2461,3013,4.33820237943871,7.99167708178208,0.0111054312681063,0.003390,-0.033281,0.004773,0.123817,-1.477001,314.917813,24.004040,0.999375,0.989356,0.003999,0.397765,0.000022,0.000012,0.000022,0.000040,-0.000006,38.947412,0.000043,
2071,2743,-4.09277348698023,2.10112498213817,-0.0203854416067202,0.002372,-0.032575,0.003934,0.087297,-1.454383,319.658178,22.877687,0.999345,0.989630,0.004061,0.456116,0.000039,0.000028,-0.000005,0.000041,0.000026,-20.338526,0.000067,
2146,2923,-2.49161202671398,6.01640612468125,0.000420477366446903,0.002945,-0.032312,0.002043,0.118238,-1.434497,316.587040,23.009362,0.999099,0.985989,0.004566,0.460117,0.000030,0.000016,0.000004,0.000031,0.000015,13.231262,0.000047,
2281,2338,0.544793606113611,-6.72967521012615,-0.00384329753137536,0.001328,-0.033653,-0.006390,0.069561,-1.540582,325.639126,22.149034,0.999068,0.984351,0.004988,0.387235,0.000265,0.000261,0.000009,0.000272,0.000253,38.803924,0.000526,
2296,2278,0.882442913496241,-8.0437625495187,0.00118087736433381,0.001017,-0.035244,-0.001918,0.039680,-1.573956,326.604665,21.914628,0.999338,0.986035,0.004751,0.404937,0.000355,0.000350,-0.000007,0.000360,0.000345,-34.300990,0.000705,
2281,2248,0.560418389276279,-8.70187825115539,0.00821986740953662,0.000228,-0.035574,-0.001995,0.003717,-1.592605,327.128334,21.874264,0.999010,0.980941,0.005389,0.430524,0.000391,0.000387,-0.000004,0.000394,0.000384,-31.173077,0.000777,
2386,2608,2.78219669609974,-0.82967920153272,-0.0148876273807446,0.002262,-0.033941,0.002659,0.080610,-1.493809,321.155990,22.509082,0.999175,0.987288,0.004501,0.487980,0.000088,0.000033,0.000035,0.000105,0.000017,25.795100,0.000132,
2401,2713,3.08712263548558,1.46158180266548,-0.0334038431674344,0.002210,-0.033835,0.001732,0.081487,-1.490065,319.306682,22.793505,0.999503,0.990058,0.004021,0.514023,0.000048,0.000066,0.000026,0.000085,0.000029,54.368457,0.000118,
2161,3118,-2.19636996849759,10.2478484877425,0.033818589165719,0.003530,-0.032414,0.006069,0.132631,-1.441330,313.642970,23.206000,0.999477,0.992716,0.003554,0.407964,0.000009,0.000004,-0.000003,0.000011,0.000002,-23.849251,0.000014,
2326,2338,1.52656471833473,-6.73094194090628,0.00567687729608224,0.001309,-0.034228,-0.004298,0.061518,-1.538434,325.674890,21.938586,0.999071,0.983030,0.005066,0.433373,0.000284,0.000266,0.000006,0.000286,0.000264,15.911564,0.000550,
2116,2788,-3.12273346594518,3.08155637162677,-0.014988845989194,0.002428,-0.033011,0.009015,0.073946,-1.439177,318.736723,22.899480,0.999608,0.991746,0.003627,0.474553,0.000044,0.000041,-0.000011,0.000053,0.000031,-41.897696,0.000086,
2041,2533,-4.71316613092779,-2.47250183401593,-0.0165059259225018,0.000965,-0.032389,0.002430,0.027346,-1.443884,323.198744,23.008935,0.999127,0.988779,0.004212,0.424134,0.000148,0.000036,0.000026,0.000153,0.000030,12.470731,0.000197,
2191,3148,-1.55074531379147,10.9008727604616,0.0347852695683741,0.003597,-0.032540,0.007623,0.130230,-1.425734,313.055061,23.350392,0.999143,0.991101,0.004014,0.425807,0.000008,0.000009,-0.000001,0.000010,0.000007,-51.744730,0.000017,
2446,2968,4.01931252870167,7.01337923331648,-0.00590368845581679,0.003277,-0.033760,0.005338,0.116619,-1.489796,315.474580,23.793794,0.999613,0.991832,0.003763,0.396716,0.000017,0.000003,0.000009,0.000021,-0.000002,25.831354,0.000023,
2296,2383,0.863200578942468,-5.74579827652248,-0.00358298745766206,0.001095,-0.034200,-0.003183,0.047943,-1.559750,324.875994,22.200234,0.998811,0.981785,0.005463,0.357008,0.000228,0.000225,0.000010,0.000237,0.000216,41.637406,0.000453,
2101,2698,-3.43477729345735,1.1235678494496,-0.0200798910852313,0.001704,-0.032841,0.004270,0.055009,-1.443354,320.205291,22.913477,0.999077,0.990025,0.004128,0.436665,0.000064,0.000035,-0.000010,0.000067,0.000032,-17.191253,0.000100,
2431,2848,3.7159563972859,4.4028917755704,-0.0159005463017934,0.003127,-0.033145,0.003290,0.117757,-1.468782,317.326866,23.345087,0.999296,0.986975,0.004230,0.432870,0.000020,0.000006,-0.000003,0.000020,0.000006,-12.353083,0.000028,
2041,2608,-4.72409387796831,-0.838088737293923,-0.0219117462494296,0.001706,-0.032455,0.001730,0.063397,-1.438809,321.977384,22.940270,0.998848,0.987178,0.004557,0.464296,0.000105,0.000035,0.000003,0.000105,0.000034,2.746881,0.000146,
2026,2533,-5.0394642573151,-2.472698005218,-0.0231352358687218,0.000850,-0.032542,-0.000687,0.030777,-1.465149,323.237940,23.009933,0.999354,0.989170,0.004137,0.428132,0.000164,0.000033,0.000029,0.000170,0.000027,12.076931,0.000214,
2491,3253,4.9426508410589,13.204248687497,0.0172418224999547,0.003978,-0.033700,0.009091,0.133594,-1.504987,311.113875,24.967412,0.999727,0.992891,0.003434,0.418471,0.000030,0.000019,-0.000012,0.000038,0.000011,-33.070153,0.000052,
2056,2623,-4.40000767100911,-0.510591744442266,-0.0239257025617121,0.002095,-0.031909,-0.002453,0.093015,-1.443671,321.660513,22.940054,0.999069,0.989814,0.004167,0.439717,0.000088,0.000031,0.000000,0.000088,0.000031,-0.005627,0.000123,
2086,2683,-3.75797026874715,0.79619274147371,-0.0229309761807031,0.002099,-0.032528,0.003496,0.075749,-1.442209,320.519543,22.862742,0.999418,0.991281,0.003727,0.491194,0.000064,0.000032,-0.000004,0.000064,0.000031,-6.914926,0.000098,
2251,2218,-0.0880075461875371,-9.3581688874736,0.00689660218552035,0.000518,-0.034945,-0.007618,0.035781,-1.597548,327.678004,21.987160,0.998583,0.977017,0.005887,0.398238,0.000444,0.000449,0.000018,0.000464,0.000429,49.406905,0.000893,
2251,2113,-0.0702340890981006,-11.6602037115295,0.0106199661203163,-0.000366,-0.036216,-0.007416,-0.005873,-1.660774,329.359155,21.781704,0.998905,0.979368,0.005674,0.357725,0.000629,0.000699,0.000022,0.000705,0.000623,73.947776,0.001329,
2011,2488,-5.35846284717313,-3.4543592785546,-0.0159673714950941,0.000891,-0.032013,0.002336,0.024736,-1.432178,324.112772,23.074825,0.999266,0.986492,0.004518,0.454446,0.000228,0.000027,0.000041,0.000235,0.000019,10.987283,0.000283,
2341,2413,1.84042404017055,-5.08954033064062,0.00317583995803261,0.002169,-0.033490,-0.005228,0.104517,-1.535311,324.479550,22.173735,0.999582,0.989235,0.004372,0.337517,0.000208,0.000200,0.000012,0.000217,0.000191,36.797265,0.000408,
2371,2533,2.46968316154572,-2.46635235656488,-0.0145298197798525,0.001932,-0.033538,-0.000376,0.076568,-1.497199,322.363713,22.356480,0.999365,0.986784,0.004639,0.443132,0.000136,0.000068,0.000022,0.000142,0.000062,16.302741,0.000209,
2011,2923,-5.42081518087564,6.00945283295367,0.00169535483968275,0.002731,-0.031875,0.005470,0.101034,-1.397704,317.291692,22.784983,0.999360,0.992244,0.003468,0.439622,0.000053,-0.000024,0.000007,0.000053,-0.000025,5.078124,0.000053,
2116,2908,-3.14098505846421,5.68952957414781,-0.00180311465499017,0.002817,-0.032450,0.008512,0.093544,-1.422972,316.915527,22.982659,0.999195,0.990171,0.004184,0.432916,0.000033,0.000011,0.000006,0.000034,0.000009,13.899713,0.000046,
2071,2683,-4.08424650457045,0.795627130523201,-0.0200137421477962,0.001652,-0.033006,0.006594,0.046468,-1.444949,320.593081,22.891974,0.999297,0.990256,0.003991,0.463231,0.000050,0.000027,-0.000001,0.000050,0.000027,-2.742017,0.000079,
2146,3028,-2.50775947994505,8.29475915833458,0.0180852324331227,0.003536,-0.032905,0.007737,0.127991,-1.450904,315.033855,23.062487,0.999427,0.990578,0.003913,0.440835,0.000018,0.000013,0.000009,0.000025,0.000007,37.467950,0.000033,
2461,3028,4.33561307338628,8.31736869776338,0.0155300273667649,0.003515,-0.033562,0.005462,0.126883,-1.479644,314.712520,24.060620,0.999673,0.991382,0.003754,0.392188,0.000025,0.000025,0.000021,0.000046,0.000004,44.756371,0.000056,
2056,2668,-4.4068501691127,0.468653558260741,-0.0168942152699856,0.002161,-0.032433,0.004086,0.077492,-1.438863,320.975420,22.927646,0.999223,0.989131,0.004256,0.442420,0.000060,0.000022,-0.000005,0.000061,0.000022,-7.858101,0.000085,
2236,2083,-0.393032233350194,-12.3181378816246,0.014579067420982,-0.001229,-0.036804,-0.006641,-0.048247,-1.669951,329.860963,21.841793,0.999351,0.981151,0.005331,0.328642,0.000686,0.000776,0.000038,0.000790,0.000672,69.695233,0.001464,
2476,3133,4.64163113291158,10.5983044858769,0.0290685999713105,0.003721,-0.033865,0.009726,0.119767,-1.487130,313.132223,24.480092,0.999425,0.989960,0.003822,0.401066,0.000036,0.000002,0.000024,0.000048,-0.000011,27.317541,0.000050,
2071,2758,-4.09540740915945,2.42785876638395,-0.0233438158790022,0.002309,-0.032553,0.004448,0.082922,-1.448169,319.385648,22.887282,0.999450,0.990907,0.003890,0.449893,0.000037,0.000016,-0.000008,0.000040,0.000013,-17.686156,0.000055,
2101,2818,-3.45315921226662,3.73413326673925,-0.0183111152632023,0.002557,-0.032253,0.005979,0.089472,-1.419002,318.306757,22.934608,0.999376,0.991871,0.003741,0.450518,0.000039,0.000041,-0.000001,0.000042,0.000038,-63.777362,0.000080,
2416,2773,3.40355725188848,2.76812682017955,-0.0162121065817473,0.002528,-0.033432,0.003575,0.089272,-1.488576,318.498384,23.006728,0.999486,0.987735,0.004301,0.493196,0.000048,0.000059,0.000025,0.000080,0.000028,50.849165,0.000111,
2266,2248,0.232378738323323,-8.70072521381404,0.00302209138271792,0.000033,-0.035543,0.002118,-0.018691,-1.577142,327.082588,21.974266,0.998879,0.980960,0.005432,0.414891,0.000391,0.000384,0.000000,0.000391,0.000384,-3.209332,0.000775,
2191,3253,-1.5684492582259,13.1752812785439,0.0416513864141166,0.003891,-0.032822,0.011694,0.130810,-1.446039,311.395215,23.371535,0.999685,0.993709,0.003251,0.476688,-0.000003,-0.000007,0.000004,-0.000001,-0.000009,33.104363,0.000011,
2131,2938,-2.81912881452818,6.34137451601779,0.00994442387474237,0.003201,-0.032546,0.007156,0.114834,-1.431203,316.480631,23.052415,0.999629,0.991726,0.003756,0.394045,0.000032,0.000009,0.000007,0.000034,0.000007,15.491706,0.000044,
2026,2773,-5.07487130484838,2.75350728642789,-0.0281138186388148,0.002217,-0.032303,0.004100,0.080656,-1.422876,319.361387,22.924557,0.999365,0.990906,0.004067,0.407021,0.000055,-0.000007,-0.000013,0.000058,-0.000010,-11.472197,0.000062,
2491,3268,4.93922867519019,13.5303026696026,0.0161555283270332,0.004110,-0.033986,0.013787,0.121519,-1.501688,310.845635,25.078698,0.999832,0.994636,0.003020,0.367730,0.000031,0.000011,-0.000005,0.000032,0.000010,-14.219547,0.000044,
2386,2623,2.77898066534243,-0.502032947160856,-0.0215989797681573,0.002354,-0.033669,0.001215,0.090115,-1.493897,320.865501,22.538538,0.999024,0.986702,0.004552,0.502422,0.000080,0.000028,0.000030,0.000093,0.000015,24.533060,0.000117,
2296,2293,0.879727329889551,-7.71455792557112,0.00165648014348108,0.000970,-0.034674,-0.002200,0.038697,-1.563472,326.364895,22.027479,0.999329,0.985302,0.004791,0.334505,0.000332,0.000328,0.000002,0.000333,0.000328,22.817022,0.000660,
2086,2788,-3.77371103393568,3.08029312417792,-0.0174765163330903,0.002712,-0.032534,0.004480,0.101132,-1.440929,318.887442,22.870649,0.999445,0.989662,0.004054,0.478921,0.000033,0.000034,-0.000008,0.000041,0.000026,-47.927533,0.000068,
2011,2683,-5.3867799135089,0.792940052642265,-0.012687982537841,0.001589,-0.032641,0.007049,0.043880,-1.424668,321.008219,22.900764,0.999773,0.995746,0.002981,0.490251,0.000070,-0.000017,-0.000013,0.000072,-0.000019,-8.210624,0.000075,
2356,2503,2.14882767416316,-3.12274177756048,-0.0079385510594534,0.001989,-0.034174,0.002550,0.068766,-1.517326,322.893355,22.285221,0.999448,0.987228,0.004495,0.440966,0.000138,0.000098,0.000022,0.000148,0.000088,23.970896,0.000238,
2101,2713,-3.43697055982768,1.4498090574826,-0.0204857659244908,0.002019,-0.032863,0.005587,0.065587,-1.455475,319.969418,22.903259,0.999235,0.989427,0.004129,0.436394,0.000061,0.000038,-0.000012,0.000066,0.000033,-23.212450,0.000100,
2311,2263,1.21287961240321,-8.37241817385551,0.00495850197199843,0.001021,-0.034879,-0.004724,0.049479,-1.579324,326.876384,21.832148,0.998905,0.983123,0.005148,0.382793,0.000381,0.000359,-0.000006,0.000383,0.000358,-14.923015,0.000741,
2476,3148,4.63842141943841,10.9241021310027,0.0302027499381552,0.003441,-0.033621,0.009490,0.107902,-1.477408,312.883623,24.542583,0.999449,0.989166,0.003894,0.403643,0.000035,0.000000,0.000025,0.000047,-0.000013,27.360727,0.000049,
2191,3163,-1.55389385017221,11.2267203558398,0.027724895328447,0.003751,-0.032861,0.010874,0.126938,-1.444378,312.747226,23.395697,0.999631,0.994658,0.003242,0.375021,0.000006,0.000015,0.000000,0.000015,0.000006,-89.679257,0.000021,
2236,2008,-0.379753496771993,-13.9679982685768,0.0212980593011594,-0.001381,-0.038993,-0.006262,-0.057164,-1.777943,331.115488,21.519238,0.999424,0.986988,0.004915,0.419976,0.000816,0.000857,0.000026,0.000869,0.000803,64.206454,0.001673,
2146,2938,-2.4940308358372,6.34262835338294,0.00374404139250828,0.003034,-0.032548,0.005458,0.111898,-1.442536,316.364033,23.085217,0.999397,0.989236,0.004090,0.383260,0.000026,0.000013,0.000005,0.000028,0.000011,17.923620,0.000041,
2281,2353,0.541461701306854,-6.40321090309771,0.00164684298744078,0.000792,-0.034529,0.000552,0.021486,-1.563845,325.395290,22.114624,0.999191,0.984058,0.004973,0.427989,0.000246,0.000252,0.000011,0.000260,0.000238,52.557733,0.000498,
2266,2158,0.249777927124711,-10.6731333583957,0.0102145203804298,0.000212,-0.035868,-0.008083,0.023030,-1.625302,328.635287,21.821142,0.999119,0.982138,0.005322,0.350572,0.000542,0.000574,0.000016,0.000581,0.000535,67.125757,0.001117,
2071,2698,-4.08653909876188,1.12236006653875,-0.0221727057326575,0.001702,-0.032569,0.004402,0.055135,-1.436569,320.340529,22.886901,0.999329,0.990967,0.003860,0.473801,0.000052,0.000025,-0.000007,0.000054,0.000023,-12.655758,0.000079,
2011,2938,-5.42303284351945,6.33492218079009,0.000232340809759535,0.002998,-0.032189,0.007503,0.107727,-1.402421,317.042410,22.751448,0.999490,0.993010,0.003470,0.455908,0.000056,-0.000022,0.000017,0.000059,-0.000026,11.766784,0.000059,
2206,3268,-1.24677152612997,13.50293010148,0.0217663094213094,0.004172,-0.032696,0.009409,0.150609,-1.443627,310.956689,23.475437,0.999531,0.992668,0.003445,0.470353,0.000000,-0.000014,0.000005,0.000001,-0.000016,17.645577,0.000018,
2326,2353,1.5229017461959,-6.40137917154374,-0.00290021640523719,0.001079,-0.034060,-0.004314,0.051098,-1.539666,325.349855,22.027931,0.999010,0.980896,0.005109,0.379376,0.000270,0.000256,0.000010,0.000275,0.000251,27.440270,0.000526,
2236,2098,-0.395199046216025,-11.9894796238927,0.0138717516648512,-0.000953,-0.036205,-0.009414,-0.026434,-1.663766,329.635807,21.825796,0.999147,0.979578,0.005602,0.374865,0.000660,0.000742,0.000038,0.000756,0.000645,68.654977,0.001403,
2401,2728,3.08475046641555,1.78829538945816,-0.0252451931511359,0.002375,-0.034030,0.005022,0.077012,-1.502264,319.126189,22.906053,0.999505,0.989673,0.004178,0.434687,0.000044,0.000071,0.000030,0.000090,0.000024,57.401939,0.000121,
2026,2548,-5.04126161580588,-2.14577918064109,-0.0168649534476231,0.001049,-0.032180,0.001444,0.034202,-1.434967,323.051017,23.025976,0.999446,0.989847,0.003890,0.433310,0.000168,0.000016,0.000029,0.000174,0.000011,10.573479,0.000207,
2176,3178,-1.87996791661913,11.5477757073395,0.052461241680362,0.003957,-0.033060,0.011685,0.134282,-1.461147,312.766978,23.237561,0.999756,0.994994,0.003089,0.460822,0.000006,0.000012,-0.000003,0.000013,0.000005,-68.115021,0.000019,
2131,2848,-2.80700374205625,4.38787572556524,-0.0215624371861622,0.002456,-0.032766,0.005481,0.085490,-1.436882,317.652109,22.978430,0.999591,0.992451,0.003585,0.431341,0.000042,0.000030,0.000003,0.000043,0.000029,13.530418,0.000072,
2161,3028,-2.18278301785527,8.29614873330024,0.0162783544860758,0.003344,-0.032926,0.010315,0.110822,-1.453062,314.943740,23.131942,0.999311,0.988619,0.004444,0.415789,0.000025,0.000012,0.000006,0.000027,0.000010,19.607689,0.000038,
2446,2983,4.01606437103868,7.33952673547322,-0.00687748846428349,0.003281,-0.033739,0.007490,0.108803,-1.478619,315.213144,23.831237,0.999597,0.990230,0.003980,0.422020,0.000017,0.000004,0.000015,0.000027,-0.000006,33.083788,0.000029,
2056,2683,-4.40894108512409,0.794644829628233,-0.0136932286239926,0.001983,-0.032226,0.000750,0.078756,-1.435705,320.760627,22.898685,0.999335,0.990584,0.004018,0.469515,0.000048,0.000018,-0.000007,0.000050,0.000017,-11.683278,0.000069,
2056,2638,-4.40282354795751,-0.183669478413819,-0.0245538709499442,0.001861,-0.032236,0.001284,0.071615,-1.442300,321.391130,22.953296,0.999112,0.988674,0.004317,0.423367,0.000086,0.000038,-0.000003,0.000086,0.000038,-3.546449,0.000127,
2041,2623,-4.72625877147829,-0.511105728674949,-0.0246709973470729,0.001828,-0.031925,-0.000947,0.076566,-1.444549,321.724794,22.942708,0.998796,0.987309,0.004585,0.449144,0.000094,0.000028,-0.000004,0.000094,0.000027,-3.461333,0.000127,
2341,2428,1.83758139888012,-4.76357765438273,0.0115710323643157,0.001812,-0.033744,-0.000950,0.073160,-1.514635,324.276065,22.100224,0.999705,0.993043,0.003882,0.469772,0.000196,0.000180,0.000012,0.000202,0.000174,28.361568,0.000376,
2131,2953,-2.8217015592013,6.66653013423668,0.00831714344479906,0.003193,-0.032520,0.006907,0.115208,-1.432023,316.223455,22.991422,0.999622,0.991739,0.003627,0.459516,0.000031,0.000010,0.000006,0.000032,0.000008,14.134439,0.000043,
2176,3088,-1.86671801110326,9.59875166247838,0.0235182880192042,0.003587,-0.032825,0.009155,0.125197,-1.446357,313.985752,23.227311,0.999531,0.992481,0.003544,0.419268,0.000018,0.000006,-0.000003,0.000019,0.000005,-11.352127,0.000025,
2071,2773,-4.09704022104497,2.75410764935393,-0.0198903836225099,0.002624,-0.032191,0.001386,0.106321,-1.435418,319.194243,22.900785,0.999382,0.989277,0.004119,0.445988,0.000037,0.000017,-0.000006,0.000039,0.000016,-15.567476,0.000056,
2116,2803,-3.12462977289622,3.40779816181142,-0.00964612675863918,0.002354,-0.032530,0.004885,0.082910,-1.435114,318.546497,22.944287,0.999560,0.992291,0.003540,0.437134,0.000044,0.000043,-0.000006,0.000050,0.000037,-42.418611,0.000087,
2296,2398,0.860491985685091,-5.4181735250237,-0.00160180338014015,0.001137,-0.034172,-0.000834,0.041969,-1.526514,324.643872,22.195980,0.999071,0.984665,0.005103,0.425957,0.000209,0.000212,0.000012,0.000223,0.000198,48.397009,0.000421,
2431,2863,3.71290549486305,4.72883094742279,-0.0117051371379944,0.002800,-0.033490,0.004412,0.098457,-1.481283,317.098078,23.391341,0.999508,0.989826,0.003835,0.423659,0.000019,0.000009,-0.000002,0.000019,0.000009,-9.404561,0.000028,
2281,2263,0.556671375581562,-8.36936609982654,-0.00907542759830449,0.000359,-0.034706,-0.003333,0.014542,-1.567732,326.751200,22.082838,0.999417,0.986298,0.004773,0.277638,0.000365,0.000355,-0.000003,0.000365,0.000355,-15.674930,0.000720,
2251,2248,-0.0945400032103159,-8.69857604226453,-0.00207945922824138,0.000215,-0.034717,-0.003361,0.008044,-1.549950,327.090490,22.154332,0.998152,0.976160,0.006217,0.330884,0.000389,0.000383,0.000018,0.000404,0.000368,40.108117,0.000772,
2011,2503,-5.36130975556854,-3.12562351858932,-0.024554089646756,0.000626,-0.032128,-0.000140,0.019246,-1.428290,323.793152,23.134657,0.999655,0.991778,0.003841,0.387959,0.000216,0.000045,0.000039,0.000225,0.000036,12.296399,0.000283,
2026,2788,-5.07655430540754,3.07906637044562,-0.0247116387446908,0.002643,-0.032284,0.004684,0.098689,-1.416507,319.164595,22.884266,0.999464,0.991406,0.003809,0.443659,0.000055,0.000014,-0.000008,0.000057,0.000012,-11.134795,0.000074,
2086,2803,-3.77606031642332,3.40683330654421,-0.014650099207131,0.002585,-0.032482,0.004730,0.094639,-1.431369,318.660756,22.917639,0.999314,0.990146,0.003975,0.440164,0.000035,0.000037,-0.000003,0.000039,0.000032,-51.745161,0.000072,
2191,3268,-1.57196159913724,13.5005687673892,0.0308472886625282,0.003831,-0.032966,0.013276,0.122993,-1.458234,311.051143,23.367692,0.999449,0.991465,0.003684,0.481054,-0.000004,-0.000004,0.000006,0.000002,-0.000010,44.539353,0.000010,
2161,3133,-2.19896521644871,10.5727321414634,0.0340170005625282,0.003543,-0.032592,0.007231,0.129614,-1.443992,313.396717,23.181860,0.999398,0.992487,0.003711,0.438302,0.000012,0.000006,-0.000003,0.000013,0.000005,-22.392260,0.000019,
2116,2923,-3.14306422748959,6.01502035662627,-0.00182452947836964,0.002785,-0.032100,0.002299,0.110575,-1.422873,316.688356,22.954828,0.998909,0.988644,0.004402,0.463805,0.000033,0.000009,0.000008,0.000036,0.000007,17.616697,0.000046,
2371,2548,2.46663309629536,-2.13979105278204,-0.0109557327048719,0.001634,-0.034051,0.001752,0.055132,-1.518386,322.129155,22.372628,0.999274,0.985971,0.004785,0.447875,0.000127,0.000053,0.000025,0.000134,0.000045,16.820965,0.000187,
2281,2368,0.53911157846451,-6.07618443819221,0.00869344970988095,0.000854,-0.034960,0.003746,0.013512,-1.565992,325.203970,22.129750,0.999048,0.981849,0.005274,0.440036,0.000232,0.000250,0.000013,0.000256,0.000226,62.205131,0.000482,
2296,2308,0.876413183029314,-7.38696532704886,-0.00519329407910618,0.000841,-0.034597,-0.002667,0.034402,-1.559792,326.061754,21.931740,0.999171,0.984445,0.005094,0.466109,0.000311,0.000300,0.000007,0.000315,0.000296,26.253367,0.000611,
2086,2818,-3.77822638448823,3.73353586984677,-0.0176605499680136,0.002771,-0.031883,0.001180,0.113635,-1.421512,318.410642,22.938749,0.999452,0.991799,0.003720,0.428038,0.000034,0.000037,-0.000001,0.000037,0.000034,-78.646391,0.000071,
2476,3163,4.63572778927787,11.2499453155345,0.02751130209964,0.003847,-0.033578,0.007457,0.134249,-1.495201,312.641298,24.617412,0.999501,0.990143,0.003824,0.366492,0.000032,0.000004,0.000021,0.000043,-0.000008,27.793529,0.000046,
2266,2263,0.231445754955029,-8.3721710552813,0.013553171545766,0.000818,-0.034757,-0.000428,0.025979,-1.561054,326.972470,22.113456,0.999598,0.988858,0.004477,0.319057,0.000365,0.000355,-0.000001,0.000366,0.000355,-8.361420,0.000721,
2041,2548,-4.71611034244431,-2.14532029314839,-0.0240335950493886,0.000827,-0.032676,0.003681,0.017456,-1.446275,322.883972,22.959136,0.999435,0.989410,0.003989,0.465244,0.000147,0.000022,0.000027,0.000152,0.000017,11.624256,0.000186,
2461,3043,4.33271514680279,8.64241850447661,0.0183653503378878,0.003551,-0.033623,0.007283,0.121605,-1.488410,314.485844,24.057213,0.999529,0.989920,0.003945,0.440319,0.000023,0.000026,0.000027,0.000052,-0.000003,46.133903,0.000058,
2011,2698,-5.38877707672668,1.11972501423006,-0.0141873555465963,0.001888,-0.032097,0.006495,0.059324,-1.399187,320.767937,22.886922,0.999780,0.995302,0.003076,0.517749,0.000079,-0.000021,-0.000015,0.000081,-0.000023,-8.163040,0.000083,
2401,2743,3.08202428700138,2.11539087739459,-0.0315487659378846,0.002818,-0.033629,0.001861,0.108981,-1.499831,318.861077,22.927104,0.999493,0.989283,0.004136,0.462117,0.000041,0.000075,0.000029,0.000091,0.000024,59.915757,0.000122,
2101,2728,-3.43958840583959,1.7770119171476,-0.0287508109867076,0.002175,-0.032573,0.003142,0.080014,-1.447391,319.671266,22.902607,0.999308,0.988647,0.004196,0.446841,0.000051,0.000038,-0.000009,0.000056,0.000033,-26.857159,0.000090,
2041,2638,-4.72876625686769,-0.184542902523631,-0.0217492528411753,0.001544,-0.031768,0.000990,0.058203,-1.417287,321.488041,22.926918,0.999066,0.988744,0.004366,0.485097,0.000091,0.000035,-0.000006,0.000091,0.000034,-5.907283,0.000130,
2491,3283,4.93591674404132,13.8550071418417,0.0122954462756866,0.004029,-0.033795,0.011943,0.124945,-1.503559,310.570289,25.059224,0.999840,0.995253,0.002955,0.442674,0.000035,-0.000005,-0.000001,0.000035,-0.000005,-1.814477,0.000038,
2101,2833,-3.45531791616202,4.05964591712338,-0.0176176285545466,0.002795,-0.032893,0.006415,0.098900,-1.461998,318.078733,22.932225,0.999638,0.993215,0.003421,0.410933,0.000035,0.000029,0.000000,0.000035,0.000029,-2.701224,0.000064,
2221,2053,-0.715814844534986,-12.9762080253278,0.00411257506692664,-0.001327,-0.037305,-0.010716,-0.039954,-1.732730,330.297938,21.805692,0.998669,0.975879,0.005936,0.350512,0.000741,0.000789,0.000045,0.000816,0.000714,58.973889,0.001531,
2236,2113,-0.397947632789954,-11.6628046116657,0.0201646765414125,-0.001082,-0.037288,-0.002658,-0.054525,-1.692777,329.419989,21.745919,0.999235,0.979965,0.005507,0.449825,0.000634,0.000703,0.000037,0.000719,0.000618,66.813044,0.001338,
2446,2998,4.01411716507227,7.66495084295799,0.00405196838266875,0.003465,-0.033387,0.007857,0.116035,-1.467416,315.066714,23.886906,0.999311,0.987405,0.004280,0.428954,0.000019,0.000006,0.000020,0.000034,-0.000009,35.815702,0.000035,
2056,2698,-4.41157379791921,1.12163873106272,-0.019947579903544,0.002085,-0.032210,0.001234,0.082146,-1.417173,320.468620,22.873235,0.999283,0.990277,0.003976,0.508487,0.000054,0.000016,-0.000011,0.000057,0.000013,-14.543473,0.000074,
2161,3043,-2.18434725133869,8.62130980692174,0.0294615795484106,0.003449,-0.032736,0.010561,0.114935,-1.444892,314.813328,23.185178,0.999533,0.992641,0.003637,0.379641,0.000023,0.000003,0.000002,0.000024,0.000003,5.979403,0.000029,
2146,2953,-2.49681693338916,6.66812079061978,0.000922404290804479,0.003001,-0.032518,0.006452,0.107357,-1.434901,316.091738,23.039186,0.999593,0.990651,0.003775,0.444373,0.000025,0.000013,0.000004,0.000026,0.000012,15.692692,0.000038,
2251,2233,-0.0913788023068456,-9.02923036606981,0.000633168907370418,0.000453,-0.035256,-0.004511,0.022545,-1.603279,327.370783,22.000582,0.998641,0.978312,0.005703,0.405181,0.000413,0.000420,0.000018,0.000435,0.000397,50.121947,0.000833,
2131,2863,-2.80865194956358,4.71285433179804,-0.00729501061357496,0.002524,-0.032680,0.008316,0.080126,-1.432567,317.522298,22.989791,0.999575,0.991787,0.003640,0.429357,0.000041,0.000027,0.000002,0.000041,0.000027,7.315285,0.000069,
2311,2278,1.21061448490394,-8.0439354755626,0.00636753934526268,0.001414,-0.035089,-0.004574,0.066934,-1.584014,326.663295,21.898337,0.998961,0.983444,0.004988,0.346371,0.000360,0.000350,-0.000004,0.000362,0.000348,-17.451648,0.000710,
2176,3103,-1.86909822044378,9.92339721784579,0.0268992585453702,0.003399,-0.032825,0.007055,0.123027,-1.457838,313.767232,23.203210,0.999514,0.993145,0.003427,0.442970,0.000011,0.000006,-0.000004,0.000014,0.000003,-28.112003,0.000018,
2476,3178,4.63271149641858,11.5749346703521,0.0320138287069653,0.003751,-0.033760,0.010498,0.118249,-1.485559,312.417043,24.633126,0.999594,0.991697,0.003640,0.415991,0.000031,0.000010,0.000018,0.000041,0.000000,29.048450,0.000048,
2056,2653,-4.40512083735269,0.142776050067418,-0.0306822173086516,0.002330,-0.032586,0.002531,0.089577,-1.459219,321.115392,22.899577,0.999222,0.989602,0.004229,0.455338,0.000072,0.000041,-0.000003,0.000072,0.000041,-5.095395,0.000114,
2461,3058,4.32927182070233,8.96873091854174,0.019201601224097,0.003068,-0.033298,0.007373,0.099174,-1.480511,314.224421,24.144267,0.999461,0.988891,0.004228,0.414611,0.000024,0.000024,0.000026,0.000050,-0.000002,44.818565,0.000056,
2491,3298,4.93302659334182,14.180542043273,0.0117110291597555,0.004134,-0.033682,0.010533,0.135318,-1.498277,310.328851,25.131107,0.999724,0.992853,0.003456,0.433608,0.000022,-0.000003,-0.000012,0.000027,-0.000008,-22.035070,0.000028,
2236,2023,-0.381140334949869,-13.6383134132396,0.0237284742852353,-0.000894,-0.037565,-0.013918,-0.009647,-1.763066,330.941846,21.595288,0.998916,0.980331,0.005655,0.383109,0.000788,0.000844,0.000037,0.000862,0.000770,63.700638,0.001633,
2296,2323,0.873596336936846,-7.05904828557488,-0.000676277741774811,0.000542,-0.034859,-0.000940,0.014765,-1.566956,325.837509,21.995271,0.998952,0.983144,0.005334,0.427402,0.000295,0.000275,0.000009,0.000299,0.000272,21.190558,0.000571,
2131,2968,-2.82409689169862,6.99249071335647,0.0053988363578128,0.003209,-0.032522,0.002959,0.127778,-1.451802,315.967268,23.018756,0.999754,0.993547,0.003217,0.417416,0.000031,0.000009,0.000005,0.000032,0.000008,12.057674,0.000042,
2266,2173,0.24567458757554,-10.3447445968291,0.00389657545503042,-0.000574,-0.035868,-0.005196,-0.022494,-1.617612,328.295948,21.747695,0.999523,0.983524,0.005093,0.460524,0.000518,0.000542,0.000017,0.000551,0.000509,62.505623,0.001060,
2071,2713,-4.0891167894498,1.44963593094394,-0.0297781478775505,0.001992,-0.032627,0.005114,0.066459,-1.433958,320.044954,22.898110,0.999187,0.989368,0.004101,0.462370,0.000051,0.000033,-0.000007,0.000054,0.000030,-18.785452,0.000085,
2191,3178,-1.55582190787662,11.5508415763183,0.0346832080326749,0.003996,-0.032987,0.011689,0.135605,-1.453832,312.569233,23.360748,0.999827,0.996286,0.002931,0.413832,0.000002,0.000012,0.000000,0.000012,0.000002,-87.337228,0.000015,
2416,2788,3.40025334418945,3.09682904727103,-0.0200975885686034,0.002611,-0.033423,0.005032,0.087776,-1.474943,318.218779,23.197528,0.999429,0.987838,0.004362,0.363992,0.000046,0.000050,0.000020,0.000068,0.000029,48.118594,0.000099,
2326,2368,1.51968184668933,-6.07325291730218,-0.0092609549668623,0.001188,-0.033915,-0.003366,0.052881,-1.539324,325.056094,22.012013,0.999258,0.985123,0.004751,0.432010,0.000255,0.000247,0.000012,0.000264,0.000238,35.774311,0.000503,
2026,2803,-5.07901670488491,3.40456373071298,-0.0234933655846703,0.002496,-0.032459,0.006489,0.086866,-1.430894,318.920014,22.846224,0.999476,0.991875,0.003677,0.457705,0.000062,0.000015,0.000002,0.000062,0.000015,2.712092,0.000082,
2116,2818,-3.12668553097321,3.73404419996515,-0.0145892980268059,0.003010,-0.032556,0.004200,0.115133,-1.441614,318.293695,22.925304,0.999488,0.991631,0.003747,0.452805,0.000045,0.000045,-0.000003,0.000048,0.000042,-42.757659,0.000090,
2086,2833,-3.78045744550697,4.05908948210826,-0.012514639198173,0.002773,-0.032349,0.003876,0.105768,-1.440746,318.202393,22.949724,0.999752,0.994667,0.003089,0.396659,0.000030,0.000024,-0.000001,0.000030,0.000023,-11.140255,0.000054,
2116,2938,-3.14560735923748,6.34095744138051,-0.00173927651678696,0.002864,-0.032319,0.005028,0.106075,-1.422365,316.440331,22.972650,0.999297,0.990417,0.004007,0.449420,0.000031,0.000007,0.000010,0.000035,0.000003,20.796245,0.000042,
2506,1993,5.53260425481579,-14.3045014284529,0.0157768266794847,0.004259,-0.038320,-0.021117,0.259161,-1.832593,331.788501,19.635228,0.998821,0.970417,0.006670,0.300697,0.001098,0.000678,0.000036,0.001101,0.000675,4.899898,0.001793,
2176,3193,-1.88154691538246,11.8710631803322,0.0660708640428425,0.004016,-0.033041,0.011532,0.137448,-1.472932,312.639495,23.168400,0.999809,0.996360,0.002869,0.529455,0.000003,0.000008,-0.000004,0.000010,0.000001,-61.475988,0.000012,
2161,3058,-2.18591255540305,8.94497682468633,0.0432928682068336,0.003510,-0.032738,0.010865,0.116830,-1.444302,314.686829,23.114863,0.999646,0.994709,0.003384,0.459811,0.000023,-0.000002,0.000001,0.000023,-0.000002,2.748927,0.000026,
2206,3283,-1.24942564460954,13.8285831685084,0.0170971995516425,0.004339,-0.032628,0.007496,0.164396,-1.446082,310.685112,23.535085,0.999384,0.991808,0.003537,0.423300,0.000000,0.000006,0.000011,0.000015,-0.000008,53.312260,0.000015,
2236,2128,-0.400277770243452,-11.3308562909154,0.0128296653666666,-0.000574,-0.035997,-0.006805,-0.017416,-1.655763,329.153085,21.938005,0.998715,0.978989,0.005648,0.319193,0.000608,0.000674,0.000037,0.000691,0.000592,66.166557,0.001283,
2386,2638,2.77619101010643,-0.17513419026745,-0.0162683678992153,0.002306,-0.034085,0.004578,0.075670,-1.510647,320.651858,22.623561,0.999168,0.986505,0.004505,0.444322,0.000070,0.000032,0.000027,0.000084,0.000018,27.418683,0.000109,
2011,2953,-5.42491983304556,6.66011431927421,0.00696997304225988,0.002992,-0.032260,0.007523,0.107372,-1.409068,316.854519,22.756005,0.999631,0.994057,0.003160,0.432024,0.000060,-0.000021,0.000019,0.000065,-0.000025,12.612328,0.000065,
2401,2758,3.07938696551718,2.44155937062428,-0.023826591334057,0.002765,-0.033633,0.005358,0.093843,-1.492589,318.666305,22.974489,0.999413,0.987569,0.004358,0.467364,0.000040,0.000070,0.000029,0.000088,0.000022,58.541926,0.000116,
2161,3148,-2.20199382242868,10.8981744375925,0.0288136736200499,0.003405,-0.032698,0.007167,0.123329,-1.463269,313.101799,23.196804,0.999399,0.991729,0.003852,0.413108,0.000013,0.000008,-0.000004,0.000015,0.000006,-26.843761,0.000022,
2056,2713,-4.4139177120133,1.44883323826535,-0.0259426011599544,0.002420,-0.032260,0.001008,0.098181,-1.423885,320.191269,22.898795,0.999072,0.988586,0.004180,0.471478,0.000054,0.000027,-0.000009,0.000057,0.000024,-17.020837,0.000083,
2296,2413,0.857875011399297,-5.08902316454634,-0.0094826871368241,0.001423,-0.033236,-0.006343,0.074022,-1.537808,324.367040,22.286720,0.999217,0.985810,0.004874,0.355661,0.000190,0.000191,0.000007,0.000198,0.000183,46.917400,0.000381,
2026,2563,-5.04300742404025,-1.81907167884134,-0.0167299700202648,0.001454,-0.032155,-0.000032,0.056906,-1.424277,322.832422,22.991962,0.999443,0.989218,0.004037,0.468900,0.000157,0.000018,0.000017,0.000159,0.000016,7.068691,0.000193,
2191,3283,-1.57429436007791,13.8255918684676,0.0310956338308301,0.003839,-0.032963,0.009654,0.134807,-1.460438,310.819102,23.394806,0.999566,0.994036,0.003249,0.464854,-0.000005,0.000016,0.000012,0.000021,-0.000011,64.828964,0.000021,
2356,2518,2.14569646572114,-2.79511933274433,-0.00922016987010466,0.001562,-0.033750,-0.000465,0.059906,-1.521549,322.630502,22.328123,0.999324,0.985613,0.004665,0.433878,0.000129,0.000085,0.000024,0.000139,0.000075,23.671084,0.000217,
2146,3043,-2.51060484378613,8.62046235857409,0.0188254854881507,0.003326,-0.032949,0.010354,0.110397,-1.441552,314.777668,23.082418,0.999487,0.992313,0.003462,0.437030,0.000016,0.000005,0.000005,0.000019,0.000003,22.515626,0.000024,
2476,3193,4.62967479311274,11.9001648174296,0.0317854939786457,0.003727,-0.033704,0.009922,0.119403,-1.480951,312.170144,24.651504,0.999445,0.991372,0.003685,0.457648,0.000033,0.000005,0.000014,0.000039,-0.000001,22.914835,0.000045,
2041,2563,-4.71734860133874,-1.81861502526444,-0.0200511403867267,0.001473,-0.032316,0.001254,0.054041,-1.422619,322.711033,22.946612,0.999464,0.989341,0.003985,0.494576,0.000137,0.000018,0.000016,0.000139,0.000015,7.320460,0.000170,
2371,2563,2.46364178121709,-1.81160180029305,-0.0143304822651089,0.001739,-0.033854,0.001285,0.061678,-1.526059,321.863684,22.467566,0.999320,0.987985,0.004480,0.387263,0.000115,0.000048,0.000029,0.000126,0.000037,20.264275,0.000171,
2461,3073,4.32599646833738,9.29442129303081,0.0129038452607801,0.003415,-0.033552,0.008387,0.111213,-1.494519,313.938136,24.153825,0.999555,0.991329,0.003848,0.444549,0.000025,0.000028,0.000027,0.000053,0.000000,46.443288,0.000061,
2071,2788,-4.09919941312266,3.0791809514736,-0.0133501825634426,0.002627,-0.032501,0.004860,0.096488,-1.429642,318.996036,22.841336,0.999319,0.988064,0.004240,0.507746,0.000032,0.000032,-0.000007,0.000039,0.000025,-44.466210,0.000065,
2056,2908,-4.44279942310146,5.68648640527862,-0.00443473729279731,0.002946,-0.032057,0.007189,0.105052,-1.409129,317.212369,22.868658,0.999393,0.991792,0.003781,0.444274,0.000033,-0.000009,-0.000001,0.000033,-0.000009,-1.696580,0.000035,
2176,3208,-1.88555776646198,12.1990329950219,0.045579570360303,0.003833,-0.032748,0.009466,0.135631,-1.449660,312.219344,23.300184,0.999667,0.994496,0.003190,0.431813,0.000001,0.000005,-0.000003,0.000007,-0.000001,-60.977987,0.000008,
2101,2743,-3.44213446441828,2.10316884867405,-0.0200413277227085,0.001750,-0.032829,0.007442,0.047860,-1.431340,319.468476,22.938982,0.999397,0.989156,0.004095,0.427575,0.000048,0.000035,-0.000008,0.000052,0.000031,-25.993916,0.000083,
2101,2848,-3.45778418745031,4.38570845131662,-0.0201227478645478,0.002753,-0.032126,0.004103,0.104058,-1.412384,317.818948,22.868471,0.999784,0.994178,0.003160,0.525347,0.000033,0.000021,0.000004,0.000035,0.000020,17.094133,0.000055,
2416,2803,3.39755915715594,3.42247999171518,-0.0218811213106846,0.002752,-0.033326,0.001923,0.105682,-1.480099,317.977749,23.147630,0.999321,0.987030,0.004576,0.456334,0.000040,0.000041,0.000017,0.000057,0.000023,46.119348,0.000083,
2086,3058,-3.81317782076715,8.94040020714764,0.027093675789331,0.003750,-0.032632,0.006466,0.143208,-1.452789,314.909930,22.833490,0.999460,0.991987,0.003570,0.477428,0.000028,0.000007,0.000011,0.000033,0.000003,23.059601,0.000040,
2296,2338,0.870693038432783,-6.72990130426532,-0.00676144047059779,0.000739,-0.034449,-0.001963,0.027407,-1.550593,325.556565,22.047782,0.999208,0.984633,0.004883,0.423456,0.000273,0.000263,0.000006,0.000276,0.000260,25.492474,0.000536,
2431,2878,3.71002618512567,5.05559025657878,-0.0137962497183253,0.002983,-0.033401,0.003415,0.110628,-1.476371,316.847656,23.453156,0.999581,0.990725,0.003639,0.416302,0.000014,0.000005,-0.000002,0.000014,0.000005,-11.926881,0.000020,
2236,2143,-0.402526904999988,-11.0023451989647,0.011352276869161,-0.000162,-0.035788,-0.007334,0.003256,-1.651033,328.920212,21.918203,0.998621,0.978940,0.005592,0.367434,0.000575,0.000620,0.000041,0.000644,0.000551,59.483171,0.001197,
2311,2293,1.20720877243698,-7.71553954325648,0.00264111221781604,0.001140,-0.034635,-0.003129,0.049603,-1.552822,326.372574,21.874275,0.999123,0.984355,0.004976,0.436124,0.000336,0.000328,0.000001,0.000337,0.000328,10.013299,0.000665,
2506,2008,5.52951163127326,-13.9750758257758,0.0166141966254258,0.004410,-0.037913,-0.018861,0.257590,-1.800085,331.552001,19.650202,0.998945,0.972799,0.006539,0.383114,0.001069,0.000620,0.000012,0.001069,0.000619,1.475999,0.001709,
2056,2728,-4.41649793562965,1.77540040208942,-0.0277470828729065,0.002401,-0.032427,0.003064,0.091454,-1.432736,319.926383,22.908043,0.999239,0.989310,0.004066,0.448071,0.000045,0.000027,-0.000005,0.000046,0.000026,-14.094018,0.000073,
2266,2188,0.24406523772544,-10.0151979874251,0.00798514235185621,0.000185,-0.035587,-0.005229,0.012521,-1.617859,328.122668,21.903306,0.999137,0.982862,0.005218,0.332539,0.000493,0.000517,0.000008,0.000520,0.000490,72.585469,0.001010,
2221,2068,-0.718622223281784,-12.6468918428466,0.010190016338413,-0.001630,-0.037171,-0.005530,-0.070379,-1.687845,330.076561,21.875995,0.998872,0.976938,0.005797,0.347398,0.000715,0.000771,0.000047,0.000797,0.000689,60.527195,0.001487,
2266,2278,0.227979674397787,-8.04336789565495,0.000455529986936654,0.000739,-0.034405,-0.003488,0.032590,-1.551841,326.627986,22.047074,0.999422,0.985878,0.004833,0.423019,0.000347,0.000343,0.000000,0.000347,0.000343,2.780152,0.000689,
2011,2518,-5.36311222223717,-2.80094007663679,-0.0166207535188505,0.000704,-0.032662,0.002302,0.016058,-1.450024,323.615074,23.003902,0.999704,0.992478,0.003658,0.485990,0.000189,0.000034,0.000036,0.000197,0.000026,12.542315,0.000244,
2251,2263,-0.0962816085363976,-8.37154222109451,0.00132865408494354,0.000704,-0.034572,-0.005462,0.037390,-1.571968,326.906941,22.120301,0.999004,0.982638,0.005296,0.368058,0.000364,0.000356,0.000014,0.000375,0.000345,36.458283,0.000720,
2176,3118,-1.87111954439091,10.2483467070722,0.0338219382040847,0.003518,-0.032747,0.007698,0.126553,-1.453610,313.583670,23.216889,0.999429,0.992714,0.003603,0.444869,0.000009,0.000005,-0.000004,0.000011,0.000003,-29.174775,0.000015,
2116,2953,-3.14790892625898,6.66660733108646,0.0025171226599241,0.003006,-0.032544,0.009147,0.100353,-1.419351,316.225927,22.994885,0.999511,0.991031,0.003759,0.432861,0.000032,0.000008,0.000010,0.000036,0.000005,19.800239,0.000044,
2191,3193,-1.55781053141074,11.8750096820029,0.0430614060016978,0.003872,-0.032834,0.009390,0.137106,-1.458892,312.395848,23.336923,0.999728,0.995325,0.003127,0.445780,-0.000001,0.000007,-0.000002,0.000007,-0.000001,-75.336591,0.000008,
2341,2443,1.83363908442836,-4.43335739037776,-0.00312451721237039,0.001827,-0.033705,-0.000758,0.073250,-1.505419,323.909601,22.215582,0.999357,0.987474,0.004519,0.401954,0.000185,0.000171,0.000018,0.000197,0.000159,34.462276,0.000357,
2131,2878,-2.80994731998971,5.03696979201419,0.000180378593256592,0.002980,-0.032613,0.004910,0.111261,-1.456564,317.372723,22.902429,0.999570,0.991239,0.003683,0.497971,0.000044,0.000033,0.000001,0.000044,0.000033,7.109081,0.000077,
2446,3013,4.01085182291041,7.99108864499495,0.00220484972442136,0.003053,-0.033102,0.004245,0.110642,-1.472924,314.800327,23.941977,0.999042,0.985523,0.004411,0.419652,0.000018,0.000011,0.000019,0.000034,-0.000005,40.182354,0.000037,
2281,2398,0.532992087180837,-5.41738712032157,-0.00771276048175196,0.001124,-0.034261,0.000764,0.036108,-1.524072,324.603319,22.268235,0.999009,0.984509,0.005165,0.402808,0.000202,0.000217,0.000017,0.000228,0.000191,57.002880,0.000419,
2026,2578,-5.04580309574812,-1.49128658772349,-0.0237089868195994,0.001334,-0.032012,0.000055,0.051189,-1.435129,322.525943,23.020834,0.999035,0.988455,0.004378,0.420523,0.000138,0.000026,0.000006,0.000138,0.000026,2.972007,0.000177,
2071,2728,-4.09079066524025,1.77576300827049,-0.0266842757554855,0.002312,-0.032295,0.002537,0.088636,-1.433585,319.849715,22.897627,0.999101,0.987989,0.004333,0.460158,0.000042,0.000032,-0.000003,0.000043,0.000031,-18.778711,0.000074,
2401,2773,3.07685370291322,2.76742875598296,-0.014739597931225,0.002490,-0.033701,0.006127,0.078424,-1.497064,318.482796,23.020154,0.999419,0.987598,0.004340,0.462667,0.000034,0.000061,0.000022,0.000073,0.000021,60.567472,0.000099,
2506,2023,5.52603237829307,-13.6443435974791,0.0168139373802774,0.004595,-0.038042,-0.012482,0.241451,-1.763620,331.294789,19.778700,0.999033,0.969692,0.006715,0.355944,0.001050,0.000631,-0.000041,0.001054,0.000627,-5.488689,0.001699,
2011,2968,-5.42703602375861,6.98535656539468,0.00997902685861618,0.003055,-0.032262,0.008812,0.106773,-1.407079,316.635163,22.734027,0.999605,0.994224,0.003110,0.443424,0.000056,-0.000023,0.000018,0.000060,-0.000027,12.352510,0.000061,
2386,2653,2.77311496328539,0.151795307653103,-0.0174826587209509,0.002200,-0.034121,0.004334,0.071674,-1.506697,320.393885,22.639712,0.999266,0.986008,0.004555,0.475928,0.000057,0.000035,0.000030,0.000078,0.000013,35.041166,0.000099,
2476,3208,4.62735266232628,12.225523444707,0.0355968674895735,0.003999,-0.033388,0.008352,0.137991,-1.480765,311.974472,24.713355,0.999321,0.990614,0.003851,0.451153,0.000038,0.000011,0.000005,0.000039,0.000010,10.664809,0.000051,
2131,2983,-2.82655433008464,7.31792452208683,0.00675908246381596,0.003349,-0.032420,0.006127,0.124743,-1.440157,315.731240,23.000233,0.999723,0.993698,0.003255,0.452493,0.000027,0.000008,0.000009,0.000030,0.000004,20.998074,0.000038,
2161,3163,-2.20380065975137,11.2232283900021,0.0351147733969128,0.003748,-0.032665,0.007538,0.138171,-1.438044,312.923931,23.205232,0.999582,0.992577,0.003536,0.438788,0.000011,0.000016,-0.000004,0.000018,0.000009,-61.383743,0.000027,
2461,3088,4.32279872780922,9.62077605103502,0.0110857512258917,0.003396,-0.033686,0.008453,0.110091,-1.492709,313.675671,24.242256,0.999595,0.993541,0.003576,0.411446,0.000030,0.000027,0.000022,0.000051,0.000006,42.842075,0.000062,
2041,2653,-4.7311436376295,0.142720577611264,-0.0330975543199088,0.002156,-0.032155,0.001151,0.085771,-1.444946,321.178132,22.914567,0.999266,0.989102,0.004243,0.463103,0.000075,0.000037,-0.000007,0.000076,0.000036,-10.079814,0.000114,
2296,2428,0.855648247727437,-4.76140162959717,-0.00745660924553704,0.001919,-0.033311,-0.004374,0.090089,-1.519355,324.157205,22.307365,0.999453,0.988142,0.004452,0.384785,0.000181,0.000166,0.000008,0.000185,0.000162,24.408669,0.000347,
2236,2038,-0.383872883590872,-13.308191031768,0.0166744032213728,-0.000447,-0.037291,-0.012696,0.007006,-1.752427,330.658558,21.614328,0.998826,0.977920,0.005761,0.399518,0.000763,0.000820,0.000033,0.000835,0.000748,65.586027,0.001583,
2146,3058,-2.51273370530411,8.94533816979029,0.0228731465147121,0.003321,-0.032962,0.008547,0.115594,-1.458366,314.572273,23.077611,0.999535,0.993826,0.003395,0.432062,0.000015,0.000001,0.000005,0.000016,0.000000,17.809417,0.000019,
2011,2533,-5.36497308880819,-2.47366383411953,-0.0142622226786102,0.000902,-0.032514,0.001970,0.026111,-1.439966,323.402296,23.032580,0.999293,0.987287,0.004475,0.456160,0.000171,0.000027,0.000038,0.000181,0.000018,13.812858,0.000220,
2191,3298,-1.57813094835677,14.1523173330912,0.0111285537051344,0.003999,-0.032916,0.009943,0.141270,-1.462981,310.411606,23.474360,0.999775,0.995854,0.002839,0.395407,-0.000003,0.000038,0.000006,0.000039,-0.000004,81.173183,0.000042,
2041,2578,-4.71970313319427,-1.49168230496606,-0.0277407169097046,0.001779,-0.032478,-0.000117,0.071835,-1.460464,322.422537,22.918598,0.999114,0.988786,0.004224,0.478069,0.000119,0.000021,0.000006,0.000119,0.000021,3.419191,0.000151,
2221,2098,-0.722962727013059,-11.9895155548296,0.0143195924293877,-0.001090,-0.036999,-0.004931,-0.047501,-1.682511,329.651649,21.911948,0.998834,0.977913,0.005831,0.360676,0.000661,0.000734,0.000045,0.000755,0.000639,64.478530,0.001396,
2086,2848,-3.78267233696687,4.38391827597256,-0.00530462821922129,0.002609,-0.032196,0.005777,0.092803,-1.407184,318.006273,22.860619,0.999651,0.993261,0.003391,0.517878,0.000029,0.000016,0.000003,0.000030,0.000015,12.330108,0.000046,
2101,2758,-3.44327229541236,2.42835411406756,-0.0145116140616324,0.002500,-0.032729,0.004953,0.089693,-1.439383,319.313386,22.888111,0.999456,0.989221,0.004001,0.471683,0.000045,0.000027,-0.000010,0.000049,0.000023,-23.561391,0.000073,
2221,2083,-0.721164492924647,-12.3176868871557,0.00788394584890284,-0.001614,-0.036799,-0.007920,-0.061895,-1.683704,329.824709,21.888913,0.999007,0.978279,0.005687,0.360920,0.000688,0.000765,0.000045,0.000785,0.000667,65.231103,0.001454,
2131,2893,-2.81280891126989,5.36368542427824,-0.00228117614778967,0.002727,-0.032711,0.004526,0.100726,-1.470659,317.097362,22.975317,0.999415,0.990214,0.004035,0.416389,0.000037,0.000018,0.000002,0.000037,0.000018,7.060077,0.000056,
2011,2713,-5.39201007761094,1.44741305956978,-0.0241476476576281,0.001452,-0.031856,0.005839,0.041085,-1.398559,320.423406,22.916997,0.999691,0.993559,0.003512,0.476784,0.000077,-0.000002,-0.000005,0.000077,-0.000002,-3.915541,0.000088,
2146,2968,-2.49893647927972,6.99330105167216,0.0027165655478143,0.003192,-0.032974,0.005348,0.119364,-1.461862,315.874701,23.035328,0.999664,0.992683,0.003424,0.428497,0.000024,0.000011,0.000004,0.000025,0.000010,15.177859,0.000035,
2431,2893,3.7068476004338,5.38195746881484,-0.0143242558070824,0.002861,-0.033345,0.003929,0.103178,-1.466688,316.590745,23.490159,0.999531,0.990623,0.003787,0.438707,0.000013,0.000002,0.000000,0.000013,0.000002,1.422523,0.000017,
2236,2158,-0.406251378401329,-10.6720690201117,0.00483294945456691,-0.000553,-0.035729,-0.003597,-0.026696,-1.630193,328.593907,21.995341,0.998464,0.981096,0.005521,0.335926,0.000549,0.000572,0.000043,0.000605,0.000515,52.389482,0.001121,
2356,2533,2.14321055619211,-2.46724671379513,-0.0144899178506535,0.002164,-0.033156,-0.002474,0.094850,-1.498214,322.377889,22.335613,0.999361,0.986416,0.004601,0.489831,0.000119,0.000063,0.000022,0.000126,0.000055,18.844227,0.000186,
2161,3193,-2.20863519385777,11.8725690616839,0.0394291500678037,0.003758,-0.032745,0.008068,0.136884,-1.459054,312.468613,23.183001,0.999620,0.993390,0.003304,0.457708,0.000006,0.000010,-0.000007,0.000016,0.000001,-52.757482,0.000018,
2176,3133,-1.87285429588124,10.5740878153138,0.0365863929584407,0.003935,-0.032418,0.004295,0.156522,-1.431909,313.391145,23.263388,0.999282,0.992465,0.003809,0.431352,0.000012,0.000008,-0.000003,0.000013,0.000006,-26.931789,0.000019,
2281,2383,0.53597951020252,-5.74653671033026,-0.00519162074783708,0.001043,-0.034402,-0.001684,0.040513,-1.563657,324.872102,22.182466,0.998804,0.981804,0.005395,0.419686,0.000219,0.000231,0.000014,0.000240,0.000209,56.476022,0.000450,
2071,2983,-4.12799582938252,7.313529951684,0.00712492127354381,0.003572,-0.032985,0.008185,0.130302,-1.467447,316.031386,22.819120,0.999229,0.990592,0.003863,0.445882,0.000033,-0.000008,0.000011,0.000036,-0.000011,14.288249,0.000036,
2071,2803,-4.10190253938883,3.4061016376681,-0.0173943545828479,0.002669,-0.032644,0.006963,0.092352,-1.426991,318.714360,22.876741,0.999307,0.989603,0.004103,0.472146,0.000035,0.000034,-0.000003,0.000037,0.000032,-37.448884,0.000069,
2026,2593,-5.04857684332002,-1.16401492582693,-0.026119223203807,0.001273,-0.032405,0.005277,0.033950,-1.415911,322.245985,23.018037,0.998854,0.988348,0.004548,0.433404,0.000126,0.000036,0.000007,0.000126,0.000036,4.307934,0.000170,
2296,2473,0.846060582499632,-3.77782951256606,-0.015225760522469,0.001602,-0.033774,0.002534,0.052116,-1.495387,323.325656,22.366039,0.998841,0.981874,0.005302,0.444437,0.000147,0.000123,0.000027,0.000165,0.000105,32.769166,0.000272,
2251,2278,-0.0989707307837051,-8.04358904326849,0.00278217601999131,0.000725,-0.034624,-0.002923,0.030062,-1.565231,326.669857,22.126634,0.999210,0.983623,0.005095,0.394092,0.000347,0.000341,0.000013,0.000357,0.000330,38.558486,0.000688,
2371,2578,2.46087711290766,-1.48464645912868,-0.0136831498228958,0.001840,-0.033912,0.001947,0.063999,-1.504991,321.627927,22.461013,0.999245,0.988049,0.004531,0.456769,0.000109,0.000055,0.000033,0.000125,0.000040,25.248717,0.000172,
2026,2818,-5.08123270889648,3.72998372422797,-0.0192044896089669,0.002420,-0.032655,0.008386,0.078076,-1.428518,318.703874,22.811954,0.999294,0.991569,0.003746,0.484320,0.000056,0.000008,0.000001,0.000056,0.000008,1.665441,0.000070,
2056,2923,-4.44482003698316,6.01161437525906,-0.00110970125643917,0.003015,-0.032264,0.006308,0.110677,-1.412979,317.002072,22.834166,0.999399,0.992018,0.003732,0.469163,0.000031,-0.000011,0.000003,0.000031,-0.000011,4.294187,0.000032,
2401,2788,3.07349884162235,3.09543195611971,-0.0198535053398246,0.002523,-0.033642,0.006800,0.077553,-1.476958,318.193929,23.130397,0.999490,0.987434,0.004386,0.417915,0.000032,0.000052,0.000016,0.000061,0.000023,61.191256,0.000087,
2326,2383,1.51645018950244,-5.74474656709621,-0.00727544279584436,0.000957,-0.034407,0.001447,0.025559,-1.539923,324.802355,22.118285,0.999472,0.987202,0.004629,0.361149,0.000243,0.000225,0.000011,0.000248,0.000220,25.204187,0.000468,
2131,2998,-2.82866434519375,7.64290684456243,0.0112074173310361,0.003404,-0.032118,0.005774,0.128485,-1.418667,315.527821,22.955201,0.999744,0.993708,0.003313,0.523981,0.000026,0.000015,0.000012,0.000033,0.000007,32.626655,0.000043,
2311,2308,1.2027777667409,-7.38545761086669,-0.0141399602961201,0.000764,-0.034780,-0.002553,0.030385,-1.558613,325.970660,21.916643,0.999244,0.986425,0.004925,0.423076,0.000314,0.000299,0.000007,0.000317,0.000297,21.191557,0.000614,
2206,1993,-1.03300228908368,-14.2954478434364,0.013997085674589,-0.002073,-0.038596,-0.012438,-0.069319,-1.811343,331.352674,21.749561,0.999312,0.982276,0.005209,0.343826,0.000853,0.000835,0.000008,0.000856,0.000832,21.197168,0.001688,
2266,2293,0.225123218074927,-7.71464946076672,-0.00326668614388836,0.000705,-0.034143,-0.005035,0.036252,-1.547625,326.358365,22.079146,0.999245,0.983301,0.005223,0.422840,0.000323,0.000325,0.000010,0.000334,0.000314,46.613632,0.000648,
2056,2743,-4.41911539035479,2.10114168779366,-0.0261759377127078,0.002202,-0.032679,0.006178,0.073382,-1.447969,319.678671,22.879543,0.999424,0.990388,0.003920,0.455969,0.000044,0.000022,-0.000006,0.000045,0.000021,-15.409001,0.000067,
2341,2458,1.82952588668618,-4.10557747635236,-0.0099118062830712,0.001308,-0.034280,0.002708,0.037126,-1.521610,323.574033,22.213430,0.999505,0.987616,0.004369,0.426373,0.000173,0.000156,0.000022,0.000188,0.000141,34.536296,0.000331,
2506,2038,5.52244417970086,-13.3163755618178,0.0259206831622691,0.003773,-0.038475,-0.007560,0.184779,-1.762761,331.072417,19.796454,0.998789,0.968090,0.006918,0.403702,0.001011,0.000650,-0.000059,0.001021,0.000641,-9.079892,0.001676,
2011,2728,-5.39376919217704,1.77311709878473,-0.0226486230471892,0.001876,-0.032056,0.006322,0.059288,-1.398628,320.211288,22.863623,0.999564,0.991528,0.003821,0.518327,0.000066,0.000006,0.000003,0.000066,0.000006,3.000739,0.000080,
2041,2833,-4.75728892582681,4.0570330000899,-0.0148103288643142,0.002818,-0.032237,0.006384,0.101737,-1.416439,318.428500,22.871765,0.998869,0.988420,0.004294,0.444670,0.000031,0.000007,-0.000007,0.000033,0.000004,-15.400887,0.000041,
2011,2983,-5.42993779505878,7.31094082788353,0.00585475978186878,0.002849,-0.032664,0.011629,0.089529,-1.410982,316.339600,22.704322,0.999249,0.991439,0.003613,0.456616,0.000044,-0.000031,0.000022,0.000050,-0.000037,15.074527,0.000052,
2476,3223,4.62411872500688,12.5513600393368,0.0316074198727847,0.003871,-0.033566,0.005092,0.144417,-1.501819,311.700976,24.799233,0.999273,0.991052,0.003824,0.399611,0.000036,-0.000002,0.000000,0.000036,-0.000002,-0.193059,0.000040,
2446,3028,4.00889674369109,8.31692299476407,0.00786420295099788,0.003507,-0.033168,0.002701,0.137311,-1.474238,314.628961,24.018958,0.999347,0.987664,0.004191,0.392743,0.000022,0.000022,0.000019,0.000041,0.000003,45.411227,0.000049,
2026,2608,-5.05072259831406,-0.836604195580279,-0.0349805507291308,0.001731,-0.032489,0.002194,0.063460,-1.426521,321.958859,23.007174,0.998775,0.986304,0.004797,0.424815,0.000122,0.000034,0.000003,0.000122,0.000034,1.661819,0.000164,
2386,2668,2.77003072976842,0.479144989715031,-0.0196734703919219,0.002099,-0.033883,0.003270,0.070958,-1.505444,320.130752,22.693805,0.999334,0.987348,0.004422,0.467231,0.000053,0.000036,0.000027,0.000073,0.000016,36.143526,0.000094,
2176,3223,-1.88779596543128,12.5242938431746,0.0498528509648963,0.003826,-0.032736,0.008613,0.137989,-1.442761,312.011757,23.347010,0.999751,0.994870,0.003029,0.402636,0.000001,0.000001,-0.000004,0.000005,-0.000003,-45.994041,0.000005,
2296,2443,0.851757068729704,-4.43485867482811,-0.0155145561345762,0.001764,-0.034268,0.001314,0.063465,-1.548179,323.821537,22.186918,0.999575,0.988651,0.004318,0.508134,0.000172,0.000157,0.000017,0.000183,0.000146,33.408705,0.000330,
2281,2413,0.530647791726622,-5.08988056060318,-0.00704846292410366,0.001310,-0.033983,-0.000823,0.050028,-1.529205,324.380308,22.283799,0.999181,0.986234,0.004802,0.411473,0.000184,0.000197,0.000011,0.000203,0.000178,59.267183,0.000381,
2026,2833,-5.08370182229819,4.0564467889772,-0.0181339521099062,0.002130,-0.032549,0.007645,0.066784,-1.426913,318.457854,22.853692,0.999664,0.993808,0.003475,0.434066,0.000047,-0.000004,-0.000005,0.000048,-0.000005,-5.688384,0.000053,
2071,2998,-4.12938997783346,7.63864524091879,0.0227496498137612,0.003499,-0.032547,0.006772,0.131191,-1.436907,315.918342,22.851675,0.999487,0.991852,0.003553,0.439953,0.000035,0.000008,0.000017,0.000043,0.000000,25.447196,0.000049,
2191,3208,-1.56043110700081,12.2001712146004,0.0434094933038978,0.003929,-0.032963,0.010895,0.135059,-1.450601,312.151132,23.347471,0.999531,0.992863,0.003648,0.456725,-0.000002,0.000005,-0.000001,0.000006,-0.000002,-80.489945,0.000006,
2011,2548,-5.36658041411532,-2.14686461629357,-0.0156495583447622,0.001641,-0.032349,0.002761,0.058009,-1.428616,323.180271,22.987507,0.999299,0.987921,0.004238,0.501499,0.000179,0.000009,0.000040,0.000188,0.000000,12.511158,0.000217,
2206,2008,-1.03468639184271,-13.9667551465452,0.0201203901167446,-0.001589,-0.038082,-0.011451,-0.050093,-1.787266,331.182025,21.762820,0.999045,0.978377,0.005700,0.374631,0.000827,0.000821,0.000030,0.000854,0.000794,42.228740,0.001649,
2266,2323,0.220088202649098,-7.05827412688426,0.00464135054778581,0.000751,-0.034480,-0.000653,0.023778,-1.519047,325.927067,22.195348,0.998517,0.978907,0.005904,0.390271,0.000283,0.000280,0.000015,0.000296,0.000266,41.496721,0.000563,
2461,3103,4.32060703574104,9.94556945143238,0.0219704588813556,0.003310,-0.033679,0.008272,0.106824,-1.494116,313.518221,24.274018,0.999519,0.991739,0.003766,0.431551,0.000028,0.000025,0.000024,0.000050,0.000003,43.179689,0.000060,
2356,2548,2.13995575760849,-2.14009685869885,-0.012635531955425,0.001753,-0.033237,-0.000545,0.069199,-1.493054,322.124394,22.363977,0.999210,0.985858,0.004717,0.506444,0.000111,0.000049,0.000025,0.000120,0.000040,19.512264,0.000166,
2116,2968,-3.14964426170111,6.99142891187474,0.00765484935078575,0.003213,-0.032807,0.006402,0.117914,-1.452109,316.042584,22.986182,0.999612,0.992210,0.003503,0.411740,0.000033,0.000006,0.000009,0.000036,0.000004,17.075116,0.000044,
2221,2113,-0.725758724526802,-11.6608609333407,0.0147525005476723,-0.001292,-0.036764,-0.004054,-0.059441,-1.688024,329.402269,21.925065,0.998898,0.979687,0.005542,0.364110,0.000634,0.000694,0.000044,0.000717,0.000611,62.210502,0.001329,
2236,2173,-0.408536974745278,-10.3433632226614,0.00689948340880164,-0.000567,-0.035125,-0.006144,-0.018922,-1.606097,328.377168,22.023054,0.998517,0.983004,0.005359,0.355930,0.000524,0.000534,0.000044,0.000573,0.000485,48.224772,0.001060,
2476,3238,4.6202351753216,12.8773901934555,0.0209957479124796,0.004094,-0.033705,0.007256,0.146509,-1.483545,311.367184,24.830619,0.999636,0.993704,0.003290,0.441941,0.000034,0.000000,-0.000002,0.000034,0.000000,-3.116680,0.000039,
2221,2338,-0.765958458397677,-6.72776904595369,-0.02318833559724,0.000028,-0.034115,-0.001002,-0.007842,-1.545357,325.509237,22.385695,0.999587,0.988918,0.004374,0.368053,0.000273,0.000254,0.000037,0.000302,0.000226,37.740260,0.000529,
2041,2668,-4.73282550794726,0.468521352173454,-0.0235750885736365,0.002223,-0.032119,0.001826,0.087002,-1.441054,321.016075,22.916361,0.999231,0.988144,0.004419,0.457918,0.000061,0.000014,-0.000010,0.000063,0.000012,-11.362023,0.000081,
2266,2308,0.2234893852036,-7.38746002309576,0.00219735891926121,0.001311,-0.034560,-0.005420,0.065169,-1.560751,326.191053,22.085992,0.998813,0.980855,0.005564,0.430224,0.000300,0.000301,0.000016,0.000317,0.000284,46.010085,0.000601,
2371,2593,2.45806452525117,-1.1576476070105,-0.0138479614350899,0.002033,-0.034037,0.003576,0.067000,-1.512896,321.386114,22.484989,0.999170,0.987190,0.004578,0.466811,0.000102,0.000044,0.000035,0.000118,0.000027,25.204704,0.000155,
2146,3073,-2.51574169918583,9.2714984473164,0.0159597119587147,0.003357,-0.032807,0.009626,0.114002,-1.456427,314.267755,23.105413,0.999684,0.995944,0.003013,0.413105,0.000011,0.000006,0.000005,0.000014,0.000003,33.273013,0.000018,
2176,3268,-1.89731032293712,13.500080891932,0.0242585634305215,0.003993,-0.032872,0.011692,0.136056,-1.449811,311.058313,23.322814,0.999639,0.993482,0.003315,0.452347,0.000001,-0.000002,0.000004,0.000003,-0.000005,33.362847,0.000005,
2131,2908,-2.8145165793725,5.68883523522852,0.000885637964643138,0.003219,-0.032653,0.003563,0.126349,-1.451551,316.905460,22.916205,0.999358,0.988417,0.004254,0.499771,0.000035,0.000012,0.000003,0.000035,0.000012,6.542203,0.000049,
2056,2758,-4.42081951438812,2.42688964606879,-0.0171459032775374,0.002286,-0.032560,0.006480,0.076453,-1.441378,319.513864,22.892927,0.999328,0.989968,0.004064,0.443825,0.000041,0.000009,-0.000010,0.000044,0.000006,-15.318711,0.000054,
2446,3043,4.00620586774928,8.64198477185711,0.0130350287676606,0.003637,-0.033585,0.005741,0.131744,-1.493140,314.421623,24.042504,0.999263,0.986957,0.004266,0.401616,0.000020,0.000027,0.000024,0.000048,-0.000001,49.117838,0.000054,
2101,2863,-3.45926683039803,4.71121116516431,-0.00841856634093574,0.003092,-0.032540,0.006478,0.112579,-1.428136,317.681477,22.928214,0.999622,0.992291,0.003599,0.450692,0.000034,0.000020,0.000005,0.000035,0.000019,17.052384,0.000055,
2086,2863,-3.78495312404856,4.71072798573051,-0.00726776682188301,0.002844,-0.032265,0.005742,0.103729,-1.411803,317.756620,22.926798,0.999402,0.990743,0.003977,0.445865,0.000031,0.000016,0.000004,0.000032,0.000015,14.709779,0.000048,
2341,2473,1.82724761030687,-3.777728998588,-0.008764717002407,0.001593,-0.033790,0.000630,0.057656,-1.499554,323.360849,22.258149,0.999436,0.987243,0.004391,0.441375,0.000158,0.000134,0.000020,0.000170,0.000122,29.708258,0.000293,
2281,2638,0.489884645423228,-0.17804172504232,-0.0199149940807501,0.002226,-0.033633,0.001663,0.084034,-1.489235,320.659924,22.711720,0.999272,0.984808,0.004544,0.455819,0.000060,0.000033,0.000016,0.000068,0.000025,25.106386,0.000097,
2506,2053,5.518555005832,-12.9856690086256,0.0218335521957442,0.003722,-0.039098,-0.003459,0.166438,-1.785798,330.777505,19.944666,0.998989,0.980370,0.005758,0.297229,0.000973,0.000665,-0.000081,0.000993,0.000645,-13.843985,0.001650,
2101,2893,-3.46393530326735,5.36199847299599,-0.001959905668798,0.003014,-0.032626,0.009100,0.101259,-1.430645,317.236767,22.883777,0.999397,0.992232,0.003863,0.494361,0.000034,0.000012,0.000005,0.000035,0.000011,12.506090,0.000048,
2476,3253,4.61654392548221,13.2028521590505,0.0181733098943369,0.003887,-0.033698,0.009745,0.127467,-1.484603,311.077845,24.877677,0.999651,0.993100,0.003325,0.448931,0.000033,0.000030,-0.000004,0.000035,0.000027,-34.725969,0.000063,
2386,2683,2.76673709413952,0.80833880859565,-0.0305009468572166,0.002510,-0.033496,0.002631,0.092299,-1.484493,319.816474,22.831211,0.999305,0.986492,0.004416,0.394681,0.000050,0.000054,0.000027,0.000079,0.000025,47.501179,0.000109,
2206,2263,-1.07842491603962,-8.37253319245868,0.00521679381733975,-0.000295,-0.035368,0.000130,-0.026566,-1.579901,326.976629,22.266766,0.998564,0.981381,0.005478,0.412730,0.000382,0.000365,0.000042,0.000416,0.000331,39.287044,0.000748,
2116,2833,-3.12981375288792,4.06101267081947,-0.019694094026022,0.002688,-0.032732,0.004734,0.098637,-1.457397,317.990636,22.985927,0.999639,0.992146,0.003695,0.379704,0.000042,0.000035,0.000000,0.000042,0.000034,-3.699059,0.000076,
2236,2413,-0.452031758490261,-5.08651806941452,-0.0301956158879193,0.000876,-0.034101,0.001749,0.022122,-1.495792,324.234009,22.520876,0.999611,0.990319,0.003932,0.341380,0.000177,0.000185,0.000019,0.000201,0.000162,51.326687,0.000363,
2056,2938,-4.44702526776834,6.33708337968163,0.00229416348827272,0.003030,-0.032248,0.007588,0.107728,-1.415270,316.783649,22.833776,0.999286,0.991266,0.003809,0.461296,0.000031,-0.000012,0.000008,0.000032,-0.000013,10.684387,0.000033,
2311,2323,1.20017468115825,-7.05794668640713,-0.00510631924697691,0.000578,-0.035072,0.002019,0.006148,-1.555865,325.779476,21.978787,0.999038,0.983536,0.005163,0.397682,0.000296,0.000275,0.000010,0.000300,0.000271,21.804786,0.000571,
2086,3073,-3.8160100757476,9.26661014893152,0.0249799433258886,0.003471,-0.032524,0.006472,0.130379,-1.448839,314.634440,22.893103,0.999392,0.991044,0.003661,0.419729,0.000024,0.000015,0.000013,0.000033,0.000006,35.589346,0.000042,
2416,2818,3.39477979168119,3.74890839255431,-0.0223142569496986,0.002604,-0.032912,-0.002422,0.114948,-1.486112,317.738867,23.185056,0.999295,0.987709,0.004421,0.460505,0.000033,0.000030,0.000011,0.000043,0.000021,40.971463,0.000065,
2071,2818,-4.1036510815631,3.73216322514619,-0.015687181281919,0.002936,-0.032083,0.003161,0.115669,-1.420215,318.508207,22.877819,0.999367,0.990512,0.004076,0.474427,0.000036,0.000033,-0.000001,0.000036,0.000033,-18.329033,0.000069,
2146,2983,-2.50118763268742,7.31880795539048,0.00391875398611319,0.003482,-0.032858,0.007115,0.127405,-1.450316,315.648314,23.022999,0.999700,0.994002,0.003225,0.459687,0.000020,0.000009,0.000007,0.000024,0.000006,26.071300,0.000031,
2431,2908,3.70352407743762,5.70737062797081,-0.0128535488332204,0.002742,-0.033796,0.008299,0.081323,-1.485344,316.336677,23.486453,0.999619,0.990686,0.003736,0.473147,0.000009,-0.000007,0.000002,0.000010,-0.000007,8.631657,0.000010,
2206,2023,-1.03661029849077,-13.6377238855938,0.0277305481529311,-0.001378,-0.037591,-0.009526,-0.046323,-1.754369,331.007966,21.819644,0.998725,0.979431,0.005707,0.370761,0.000807,0.000817,0.000040,0.000852,0.000772,48.528761,0.001624,
2116,2983,-3.15123611635919,7.3159521992545,0.0185974872846941,0.003452,-0.032529,0.007727,0.125098,-1.430499,315.897111,22.939060,0.999694,0.993538,0.003265,0.483270,0.000030,0.000004,0.000013,0.000035,-0.000001,22.685054,0.000040,
2041,2848,-4.75942011247848,4.38313773872893,-0.0237168714508584,0.003326,-0.032084,0.002840,0.135036,-1.428112,318.143837,22.823491,0.999185,0.989381,0.004165,0.473629,0.000032,0.000001,-0.000005,0.000032,0.000000,-9.110648,0.000037,
2011,2743,-5.39662703733891,2.10137276325766,-0.0359811102301819,0.001945,-0.032038,0.004346,0.067794,-1.412278,319.864855,22.944074,0.999560,0.992446,0.003540,0.412753,0.000064,0.000001,-0.000002,0.000064,0.000001,-2.075395,0.000075,
2131,3013,-2.83084541062913,7.96906963734923,0.0113218063329441,0.003506,-0.032348,0.002781,0.142081,-1.438427,315.297605,23.034241,0.999396,0.990925,0.003819,0.429989,0.000027,0.000016,0.000012,0.000035,0.000008,32.748164,0.000046,
2011,2998,-5.4315760316322,7.63611249185534,0.0120456630360763,0.002959,-0.032333,0.008748,0.102511,-1.410058,316.160130,22.706324,0.999361,0.992423,0.003469,0.442749,0.000043,-0.000003,0.000031,0.000058,-0.000019,26.550405,0.000060,
2356,2563,2.13672318141979,-1.81162224038631,-0.0158988785304928,0.001662,-0.033474,0.000004,0.063033,-1.492789,321.846988,22.478112,0.999273,0.988887,0.004403,0.432405,0.000099,0.000044,0.000029,0.000111,0.000032,23.078322,0.000151,
2266,2563,0.177016926037162,-1.81518649336501,-0.0149844089872317,0.001833,-0.033366,-0.000877,0.074623,-1.492443,321.930763,22.512750,0.999470,0.989641,0.004157,0.531310,0.000081,0.000044,0.000020,0.000089,0.000035,23.631331,0.000129,
2161,3208,-2.21068820378921,12.1977532700523,0.0438217804262422,0.003899,-0.032506,0.007107,0.146468,-1.442620,312.269305,23.210570,0.999579,0.993891,0.003212,0.455242,0.000004,0.000007,-0.000007,0.000013,-0.000002,-50.954766,0.000014,
2026,2848,-5.08661976837371,4.38165738784072,-0.0368893530080072,0.002191,-0.031704,0.000522,0.089434,-1.422222,318.080986,22.633410,0.999687,0.994867,0.003300,0.649431,0.000047,-0.000005,-0.000002,0.000047,-0.000005,-2.378379,0.000051,
2161,3178,-2.20599650974251,11.5480282513117,0.0408825239272232,0.003902,-0.032754,0.010338,0.136663,-1.433116,312.725482,23.210331,0.999568,0.991024,0.003681,0.447383,0.000009,0.000014,-0.000006,0.000017,0.000005,-56.828777,0.000024,
2281,2428,0.52814252824842,-4.76193634037778,-0.00644970711920223,0.001436,-0.033542,-0.001119,0.057014,-1.496599,324.149334,22.306045,0.999440,0.988469,0.004432,0.451015,0.000176,0.000174,0.000013,0.000188,0.000162,42.983341,0.000350,
2101,2878,-3.4619489836455,5.03661217547788,-0.00983791818788404,0.002969,-0.032759,0.007273,0.104440,-1.444782,317.418025,22.886022,0.999632,0.992152,0.003688,0.477094,0.000039,0.000027,0.000005,0.000041,0.000025,18.224925,0.000067,
2476,3268,4.61350952102049,13.528855758595,0.0174358288887788,0.004313,-0.033763,0.014018,0.130758,-1.486738,310.828027,24.991383,0.999822,0.994948,0.002951,0.388120,0.000033,0.000020,0.000004,0.000034,0.000019,17.109436,0.000054,
2041,2683,-4.73556215762786,0.795575858768508,-0.028058442638212,0.002169,-0.032294,0.003752,0.079114,-1.436629,320.727757,22.920491,0.999333,0.991087,0.003961,0.451006,0.000051,0.000007,-0.000010,0.000053,0.000005,-12.291294,0.000064,
2026,2623,-5.05233594035023,-0.51125548121896,-0.0254062362995455,0.001767,-0.032302,0.001737,0.066380,-1.436075,321.799472,22.969314,0.998781,0.987323,0.004729,0.443868,0.000109,0.000022,-0.000007,0.000110,0.000022,-4.780549,0.000141,
2221,2353,-0.767763738930348,-6.40153054428369,-0.0169308419673371,0.000406,-0.034348,-0.000333,0.007273,-1.540648,325.334987,22.310421,0.999403,0.987266,0.004586,0.468269,0.000254,0.000241,0.000035,0.000283,0.000212,39.464908,0.000497,
2011,2563,-5.36884594355314,-1.81970408034458,-0.0179450526677556,0.001581,-0.032353,0.000179,0.062247,-1.437217,322.923041,22.992432,0.999070,0.986409,0.004564,0.477024,0.000164,0.000012,0.000025,0.000168,0.000008,9.095473,0.000199,
2056,2953,-4.44917297682589,6.66250482240718,0.00632522704324856,0.002947,-0.032150,0.006940,0.105766,-1.413676,316.571356,22.833232,0.999215,0.991979,0.003723,0.457566,0.000036,-0.000011,0.000007,0.000037,-0.000013,8.696157,0.000038,
2116,2998,-3.15446368612874,7.64209530430836,0.0127881803796299,0.003113,-0.032785,0.008562,0.106932,-1.436709,315.585907,22.957833,0.999491,0.992117,0.003566,0.460796,0.000030,0.000012,0.000016,0.000039,0.000003,30.560675,0.000047,
2176,3283,-1.90013981875555,13.8253160053009,0.021083539457436,0.003882,-0.032783,0.010519,0.134676,-1.441190,310.784331,23.340278,0.999709,0.994387,0.003112,0.454291,0.000002,0.000017,0.000010,0.000022,-0.000003,62.995323,0.000024,
2251,2293,-0.102097403358822,-7.71469666625802,-0.00136214239296351,0.000461,-0.033987,-0.003893,0.021340,-1.550272,326.384279,22.159300,0.998947,0.982336,0.005264,0.402124,0.000323,0.000324,0.000022,0.000346,0.000302,45.487658,0.000648,
2011,2758,-5.39862608382403,2.42659425968955,-0.0316445448128775,0.001954,-0.032082,0.004650,0.067336,-1.419378,319.657900,22.885468,0.999437,0.992086,0.003681,0.452262,0.000060,-0.000020,-0.000011,0.000062,-0.000022,-7.891629,0.000062,
2236,2188,-0.410566856657095,-10.0138792857668,0.00687840945590779,0.000030,-0.035062,-0.005899,0.007683,-1.608740,328.161525,22.131417,0.998988,0.985199,0.004992,0.268370,0.000498,0.000511,0.000034,0.000538,0.000470,50.441504,0.001009,
2296,2458,0.849130085726923,-4.10524587470652,-0.0148629842044556,0.001899,-0.033790,0.002283,0.066603,-1.497861,323.585972,22.355396,0.999376,0.987015,0.004583,0.421441,0.000158,0.000142,0.000024,0.000175,0.000125,35.442685,0.000301,
2266,2338,0.216757509356306,-6.72938086400042,-0.00636746366205898,0.000642,-0.033988,-0.003986,0.029959,-1.534533,325.599146,22.207213,0.998843,0.982079,0.005396,0.390740,0.000261,0.000271,0.000011,0.000278,0.000253,56.733420,0.000532,
2101,2908,-3.46575297205377,5.68765427529431,0.00445610246208616,0.003165,-0.032842,0.008394,0.110215,-1.434307,317.055287,22.916616,0.999242,0.991854,0.003987,0.458404,0.000032,0.000005,0.000005,0.000033,0.000004,10.933679,0.000040,
2041,2863,-4.76164261780754,4.70841443226037,-0.0126768883511659,0.002925,-0.032379,0.005752,0.108370,-1.429344,317.965968,22.842139,0.999159,0.989238,0.004369,0.445773,0.000033,0.000004,-0.000003,0.000033,0.000004,-5.361561,0.000041,
2056,2773,-4.42309216338014,2.75266996470715,-0.0125925148678903,0.001957,-0.032385,0.004797,0.066105,-1.434701,319.298360,22.877432,0.999168,0.987916,0.004330,0.460591,0.000040,0.000013,-0.000007,0.000042,0.000011,-14.049289,0.000056,
2071,3013,-4.13184612139594,7.96369191256573,0.0273855389276605,0.003256,-0.032541,0.008649,0.114686,-1.417682,315.696369,22.817512,0.999332,0.991150,0.003735,0.489328,0.000037,0.000013,0.000020,0.000048,0.000002,29.277123,0.000057,
2296,2488,0.843651917339049,-3.45065539206537,-0.0142214227578847,0.001706,-0.033532,0.000653,0.063309,-1.495281,323.102424,22.374188,0.999370,0.987576,0.004439,0.467628,0.000135,0.000108,0.000023,0.000148,0.000094,29.834967,0.000244,
2131,3043,-2.83561957711196,8.61937498050357,0.0233358493753144,0.003369,-0.032845,0.009680,0.114921,-1.439455,314.881973,23.057825,0.999493,0.992184,0.003589,0.414914,0.000022,0.000008,0.000008,0.000025,0.000005,23.811456,0.000032,
2371,2608,2.45559769320504,-0.829956604778666,-0.0172529856995993,0.002445,-0.033578,0.000311,0.097689,-1.498687,321.144430,22.527170,0.998878,0.986040,0.004720,0.480729,0.000090,0.000035,0.000037,0.000108,0.000016,26.464252,0.000135,
2221,2128,-0.727706156057192,-11.3311931166724,0.0122125614230413,-0.000856,-0.035759,-0.009234,-0.022574,-1.658229,329.176157,21.968346,0.998689,0.978922,0.005598,0.372387,0.000607,0.000665,0.000044,0.000689,0.000584,61.638208,0.001274,
2176,3238,-1.89061029978279,12.8489642535795,0.0480427572222197,0.003891,-0.032818,0.011255,0.132716,-1.444962,311.745941,23.317294,0.999737,0.994382,0.003121,0.441206,0.000000,0.000002,0.000000,0.000002,0.000000,-84.326917,0.000002,
2461,3118,4.3181836445483,10.2709113698221,0.0226976857896375,0.003930,-0.033733,0.009288,0.131395,-1.508100,313.303275,24.308128,0.999510,0.990098,0.003922,0.436792,0.000029,0.000019,0.000024,0.000049,-0.000001,39.233211,0.000056,
2311,2338,1.19794104925721,-6.73021137190652,-0.00391923607617173,0.001133,-0.035134,0.003742,0.025705,-1.552786,325.566647,21.987532,0.999221,0.983358,0.004895,0.425700,0.000276,0.000261,0.000007,0.000279,0.000258,21.303506,0.000537,
2011,3013,-5.43349441139501,7.96108155019967,0.0141563335136539,0.003157,-0.032279,0.007968,0.113801,-1.408043,315.944977,22.664511,0.999523,0.993197,0.003426,0.474071,0.000040,0.000007,0.000044,0.000071,-0.000024,34.636855,0.000072,
2401,2803,3.07083851793623,3.42159734648094,-0.0201792862200136,0.002685,-0.033502,0.005261,0.090668,-1.467001,317.959975,23.123735,0.999549,0.989340,0.004189,0.480176,0.000028,0.000043,0.000014,0.000051,0.000020,58.936193,0.000074,
2086,2878,-3.78737768321146,5.03525422760914,-0.00248484832803797,0.002652,-0.032854,0.008017,0.088064,-1.441560,317.537921,22.862398,0.999394,0.991210,0.003939,0.479227,0.000036,0.000023,0.000004,0.000037,0.000022,15.460613,0.000060,
2446,3058,4.00301677799913,8.96833030008975,0.0123967016075426,0.003514,-0.033374,0.005930,0.125436,-1.487221,314.164032,24.125168,0.999480,0.989570,0.004041,0.376102,0.000017,0.000025,0.000024,0.000045,-0.000003,50.046054,0.000050,
2086,3088,-3.81808332959855,9.59213786423097,0.0252343059821669,0.003783,-0.032074,0.006185,0.145801,-1.421272,314.406929,22.885680,0.999363,0.990581,0.003807,0.452984,0.000018,0.000018,0.000013,0.000031,0.000005,45.652321,0.000039,
2341,2488,1.82485819150417,-3.45094467783501,-0.00700396588939611,0.001731,-0.033587,-0.001256,0.070601,-1.500002,323.145773,22.238211,0.999423,0.986519,0.004400,0.498836,0.000142,0.000116,0.000019,0.000152,0.000106,27.783804,0.000259,
2416,2833,3.39194387649761,4.07544434669053,-0.0201810301546175,0.002931,-0.033616,0.002352,0.112167,-1.514016,317.509342,23.278115,0.998856,0.985538,0.004621,0.386981,0.000027,0.000022,0.000009,0.000034,0.000015,38.155046,0.000051,
2041,2698,-4.73775423921839,1.12225492099188,-0.0289176728282996,0.002235,-0.032241,0.002304,0.086233,-1.425908,320.484562,22.918673,0.999398,0.990971,0.003848,0.456354,0.000056,0.000007,-0.000013,0.000060,0.000003,-14.247712,0.000071,
2071,2833,-4.10591428888985,4.05784524567206,-0.00664730104449518,0.002722,-0.032760,0.007158,0.094167,-1.451153,318.318869,22.941162,0.999424,0.991352,0.003756,0.376461,0.000034,0.000019,-0.000003,0.000034,0.000019,-10.182752,0.000053,
2026,2638,-5.05412906913852,-0.185742713990251,-0.0173773481837429,0.001670,-0.031981,0.000492,0.065442,-1.438353,321.623213,22.929494,0.999140,0.990140,0.004150,0.471954,0.000105,0.000028,-0.000009,0.000106,0.000027,-6.843930,0.000140,
2116,3208,-3.18573447153725,12.1936228232905,0.0526347852230629,0.003968,-0.032581,0.010365,0.141153,-1.429066,312.525444,23.001553,0.999614,0.993231,0.003391,0.458324,0.000001,0.000012,-0.000012,0.000020,-0.000007,-58.245340,0.000020,
2026,2863,-5.08735718524659,4.70873867692647,-0.0220248513828096,0.003073,-0.032205,0.004063,0.120246,-1.410905,317.991137,22.833925,0.999242,0.991248,0.004092,0.449860,0.000050,0.000001,0.000003,0.000050,0.000001,3.297563,0.000059,
2146,3088,-2.51792065356239,9.59734999963815,0.0185884287140539,0.003502,-0.032786,0.009336,0.121641,-1.444356,314.052134,23.160263,0.999666,0.994500,0.003210,0.377172,0.000006,0.000009,0.000004,0.000011,0.000004,54.194035,0.000016,
2176,2113,-1.70809308109881,-11.6591185575112,0.0032463229281916,-0.001497,-0.036479,-0.008929,-0.053692,-1.694285,329.437146,22.161841,0.998846,0.979038,0.005757,0.386173,0.000670,0.000683,0.000065,0.000742,0.000611,47.682458,0.001355,
2281,2653,0.487418942582625,0.14902776072924,-0.0187751824360589,0.002398,-0.033355,0.001839,0.091461,-1.481807,320.433173,22.755756,0.999446,0.988062,0.004216,0.447385,0.000056,0.000039,0.000019,0.000068,0.000027,33.007990,0.000098,
2011,2578,-5.37191056155442,-1.49278490369216,-0.0196569753010181,0.000943,-0.032518,0.001895,0.028166,-1.447568,322.632626,22.987291,0.998809,0.984941,0.004987,0.460819,0.000147,0.000022,0.000010,0.000148,0.000021,4.344133,0.000185,
2056,2968,-4.45129534663729,6.98753747296614,0.0108333164510555,0.003115,-0.032348,0.010411,0.103622,-1.423001,316.363032,22.814718,0.999184,0.990640,0.003856,0.460745,0.000039,-0.000011,0.000008,0.000041,-0.000013,8.926239,0.000041,
2476,3283,4.61146185707191,13.8534409329871,0.0271388355709519,0.004201,-0.033498,0.010442,0.139279,-1.492590,310.671725,25.038404,0.999818,0.995442,0.002967,0.390255,0.000033,0.000004,0.000009,0.000036,0.000002,15.694367,0.000042,
2176,3298,-1.90309423792639,14.1506390049421,0.0122295060182296,0.004048,-0.032716,0.009582,0.145234,-1.449500,310.474680,23.356305,0.999794,0.996026,0.002695,0.440705,0.000004,0.000040,0.000004,0.000041,0.000004,83.160306,0.000049,
2206,2278,-1.08059379898704,-8.04421030391145,0.00623713152793925,0.000035,-0.035378,0.000410,-0.012276,-1.574553,326.757459,22.302775,0.998737,0.981981,0.005351,0.400854,0.000364,0.000337,0.000036,0.000389,0.000311,34.711062,0.000702,
2116,3013,-3.15627829302787,7.96732271907185,0.0162252284416695,0.003386,-0.032517,0.006271,0.126334,-1.444491,315.389629,22.960724,0.998930,0.988610,0.004215,0.453018,0.000032,0.000015,0.000016,0.000042,0.000006,30.941285,0.000052,
2041,2878,-4.76459454992508,5.03488105150333,-0.0160874783991289,0.002586,-0.032527,0.007156,0.088794,-1.426337,317.674081,22.862657,0.998625,0.985601,0.004878,0.420097,0.000041,0.000012,-0.000003,0.000041,0.000012,-5.631900,0.000055,
2071,3028,-4.13445445878363,8.28957992933646,0.0217143195960716,0.003404,-0.032533,0.008871,0.120820,-1.427475,315.410601,22.824620,0.999507,0.992908,0.003435,0.468384,0.000034,0.000011,0.000017,0.000044,0.000002,28.269442,0.000052,
2161,3223,-2.21306704125881,12.5224598187534,0.0488650954088143,0.003831,-0.032672,0.008524,0.138948,-1.443633,312.058655,23.218449,0.999658,0.994125,0.003141,0.455212,0.000003,0.000003,-0.000009,0.000012,-0.000006,-43.785315,0.000012,
2011,3028,-5.43476495751066,8.28569721064547,0.0230394665562699,0.003685,-0.032855,0.008520,0.136499,-1.422433,315.797807,22.655165,0.999513,0.993035,0.003544,0.456236,0.000039,0.000013,0.000042,0.000070,-0.000017,36.306281,0.000073,
2206,2038,-1.03978172009488,-13.3067861044626,0.0149809378545456,-0.001311,-0.037190,-0.012191,-0.034779,-1.712832,330.671972,21.817510,0.998693,0.978771,0.005684,0.435108,0.000783,0.000792,0.000035,0.000823,0.000753,48.845303,0.001576,
2041,2713,-4.74031648331396,1.44922668746672,-0.0339553565855226,0.002231,-0.032221,0.001560,0.088089,-1.431620,320.201219,22.930914,0.999096,0.988988,0.004285,0.431287,0.000055,0.000021,-0.000010,0.000058,0.000018,-15.277310,0.000080,
2281,2443,0.524937884431839,-4.43475696946486,-0.00990142977968844,0.001300,-0.034082,0.000484,0.045174,-1.523685,323.866462,22.284881,0.999571,0.988943,0.004307,0.474387,0.000164,0.000162,0.000019,0.000182,0.000143,43.851296,0.000326,
2326,2398,1.51512451544975,-5.41883048739297,0.00160336017376039,0.001389,-0.034015,-0.003055,0.061031,-1.538320,324.669998,22.055706,0.999409,0.987113,0.004710,0.461261,0.000225,0.000219,0.000014,0.000236,0.000208,38.709800,0.000444,
2101,3133,-3.49951490196723,10.5687327801762,0.0342582209993907,0.003876,-0.032245,0.005756,0.150927,-1.438018,313.677727,22.992946,0.999775,0.995237,0.002903,0.384871,0.000011,0.000020,0.000005,0.000022,0.000009,63.628908,0.000032,
2236,2428,-0.453303467499271,-4.76157881254084,-0.0177131485805262,0.001243,-0.033931,0.000668,0.042529,-1.513936,324.117134,22.431628,0.999439,0.989279,0.004165,0.434562,0.000170,0.000162,0.000023,0.000189,0.000143,40.246724,0.000333,
2236,2203,-0.412827012574194,-9.68807906860179,0.00832816221765142,0.000134,-0.034995,-0.007503,0.017654,-1.621967,327.943403,21.934836,0.999411,0.987946,0.004567,0.475468,0.000474,0.000481,0.000030,0.000507,0.000447,48.066598,0.000955,
2011,2773,-5.40034616037525,2.75286758352664,-0.0294119798053885,0.002208,-0.032021,0.002180,0.085791,-1.418510,319.451577,22.902732,0.999475,0.991112,0.003888,0.423871,0.000062,-0.000016,-0.000008,0.000063,-0.000017,-5.592832,0.000065,
2011,2593,-5.37399754524293,-1.16526422779682,-0.0201305374434924,0.001172,-0.032111,0.002917,0.036037,-1.422819,322.393603,23.017805,0.998928,0.986112,0.004959,0.443859,0.000134,0.000028,0.000010,0.000135,0.000027,5.138477,0.000174,
2401,2818,3.06850381451618,3.74811721111175,-0.0170576333017038,0.002872,-0.033358,0.003335,0.106283,-1.471682,317.757131,23.194996,0.999518,0.988426,0.004354,0.449558,0.000024,0.000034,0.000009,0.000039,0.000019,60.587195,0.000059,
2026,2653,-5.05672027615756,0.141717113996549,-0.0283436575767837,0.001963,-0.032111,-0.000131,0.080594,-1.443893,321.303984,22.915703,0.999229,0.990515,0.003993,0.471173,0.000083,0.000030,-0.000013,0.000086,0.000027,-13.046106,0.000118,
2446,3073,3.99976860470548,9.29347665812693,0.00863033448996475,0.003659,-0.033758,0.007045,0.127732,-1.513953,313.889564,24.113909,0.999635,0.992688,0.003585,0.411960,0.000017,0.000029,0.000024,0.000047,-0.000002,51.963994,0.000054,
2266,2353,0.213879777558368,-6.40183847214617,-0.00770926581009235,0.000657,-0.034293,-0.002187,0.024577,-1.547352,325.340596,22.194004,0.999059,0.982353,0.005314,0.418571,0.000240,0.000261,0.000013,0.000268,0.000234,64.470398,0.000502,
2146,3118,-2.52222737332201,10.24694804908,0.0304753906300448,0.003323,-0.032354,0.007537,0.119051,-1.420525,313.659267,23.128506,0.999609,0.994323,0.003266,0.446412,0.000003,0.000010,0.000000,0.000010,0.000003,-89.381476,0.000013,
2131,3058,-2.83780096574662,8.94473123925072,0.0236913646227777,0.003449,-0.032579,0.006583,0.127980,-1.442693,314.653298,23.059089,0.999325,0.992336,0.003722,0.415180,0.000020,0.000004,0.000007,0.000023,0.000002,21.432919,0.000027,
2191,1993,-1.3601106065693,-14.2952445483135,0.0163365936711557,-0.001916,-0.038517,-0.013070,-0.060402,-1.828337,331.422288,21.879360,0.999420,0.983809,0.005131,0.302852,0.000864,0.000810,0.000026,0.000875,0.000799,22.092086,0.001675,
2131,3028,-2.83363045537082,8.29364455677384,0.0177160846139941,0.003284,-0.033120,0.010373,0.108788,-1.456276,315.073812,23.011175,0.999529,0.991307,0.003711,0.439962,0.000024,0.000015,0.000012,0.000032,0.000007,34.225320,0.000042,
2041,2893,-4.76627612699073,5.35965611863242,-0.00417057675070964,0.002574,-0.032541,0.008407,0.084766,-1.419769,317.526081,22.840250,0.999041,0.990854,0.004010,0.440957,0.000035,-0.000004,-0.000004,0.000035,-0.000004,-5.728525,0.000038,
2371,2623,2.45244314261295,-0.502542331635723,-0.0231743768582646,0.002579,-0.033618,-0.000199,0.105681,-1.497570,320.859171,22.540853,0.998975,0.986427,0.004632,0.510007,0.000080,0.000030,0.000031,0.000095,0.000015,25.305244,0.000119,
2506,2068,5.51740295698782,-12.6569834410342,0.0375632827199297,0.004127,-0.038077,-0.006199,0.195921,-1.746239,330.695864,20.071695,0.999283,0.983444,0.005246,0.273177,0.000929,0.000660,-0.000104,0.000964,0.000625,-18.880729,0.001601,
2296,2503,0.839687642730574,-3.12118951121722,-0.0249392912878648,0.001236,-0.033327,0.000169,0.043496,-1.483740,322.749298,22.479318,0.999642,0.991800,0.003867,0.405688,0.000122,0.000094,0.000016,0.000130,0.000086,24.618695,0.000217,
2266,2578,0.173892765972571,-1.48684068937807,-0.0190735821968815,0.001923,-0.033503,0.002340,0.068084,-1.478514,321.646291,22.598065,0.999246,0.987552,0.004467,0.486443,0.000077,0.000045,0.000020,0.000086,0.000036,25.481804,0.000125,
2206,2293,-1.08197519666097,-7.71516544949321,0.000395784223258033,0.001095,-0.034327,-0.007006,0.060155,-1.575384,326.538883,22.346752,0.998954,0.984284,0.005040,0.374542,0.000341,0.000316,0.000045,0.000375,0.000282,37.161898,0.000659,
2176,2128,-1.71076117077375,-11.3297354467752,0.00469406622045199,-0.001526,-0.036647,-0.005227,-0.066543,-1.666702,329.194778,22.224727,0.998688,0.979679,0.005681,0.366342,0.000640,0.000655,0.000066,0.000714,0.000582,48.200779,0.001298,
2176,3253,-1.89384373831821,13.174350081377,0.038984689632457,0.003861,-0.032886,0.011402,0.130872,-1.446850,311.422471,23.316745,0.999747,0.994390,0.003144,0.450701,0.000000,-0.000005,0.000002,0.000001,-0.000005,14.939920,0.000006,
2386,2698,2.76417859208506,1.13358738701289,-0.0198474043854162,0.002292,-0.034007,0.006307,0.068895,-1.506079,319.638854,22.830696,0.999366,0.989061,0.004085,0.416920,0.000049,0.000060,0.000025,0.000080,0.000029,51.372858,0.000113,
2101,2923,-3.46827350376721,6.0137589082681,-0.000221556352983043,0.003058,-0.032546,0.003563,0.119525,-1.440405,316.781372,22.917472,0.999141,0.990253,0.004122,0.452501,0.000032,0.000003,0.000007,0.000033,0.000001,13.558872,0.000039,
2011,2788,-5.40210315115575,3.07810130651932,-0.0200489991311201,0.002321,-0.032254,0.005076,0.083079,-1.410585,319.283964,22.877027,0.999458,0.990845,0.003922,0.445272,0.000063,0.000005,-0.000005,0.000064,0.000004,-5.316702,0.000076,
2116,3223,-3.18812377744524,12.5180546323668,0.051524949278928,0.004159,-0.032889,0.010743,0.148692,-1.447848,312.278681,22.964999,0.999661,0.993973,0.003259,0.478245,0.000000,0.000010,-0.000016,0.000021,-0.000012,-53.815202,0.000021,
2476,3298,4.6074524464752,14.1794072545883,0.0151055785625545,0.004283,-0.033386,0.011016,0.140950,-1.480623,310.325266,25.080805,0.999592,0.992711,0.003603,0.415092,0.000017,0.000004,0.000004,0.000018,0.000003,15.692843,0.000023,
2071,3043,-4.13701945970776,8.61558329805523,0.0191021999270333,0.003448,-0.032653,0.009752,0.120362,-1.420143,315.143549,22.850240,0.999498,0.992649,0.003477,0.446350,0.000032,0.000006,0.000010,0.000035,0.000003,19.068003,0.000042,
2026,2878,-5.08949537526367,5.03419082609439,-0.0159879486540717,0.002936,-0.032137,0.005267,0.110608,-1.423052,317.788445,22.845883,0.998681,0.987409,0.004631,0.415673,0.000057,0.000007,0.000002,0.000057,0.000007,2.326427,0.000071,
2056,2983,-4.45353218820863,7.31317404476884,0.0113550062694685,0.003282,-0.032604,0.011676,0.107645,-1.440643,316.127273,22.836214,0.999103,0.988497,0.004106,0.415489,0.000030,-0.000014,0.000013,0.000033,-0.000017,15.125978,0.000033,
2251,2308,-0.103829223686351,-7.38661488055104,-0.00141359210260816,0.001092,-0.033853,-0.007779,0.062999,-1.566514,326.183453,22.195365,0.998330,0.978301,0.005804,0.375075,0.000303,0.000302,0.000027,0.000329,0.000275,44.408887,0.000605,
2161,3238,-2.21614207002089,12.8479247722531,0.0424539253449439,0.003767,-0.032732,0.008906,0.134710,-1.460330,311.755126,23.250167,0.999700,0.994043,0.003150,0.415292,0.000002,0.000003,-0.000007,0.000009,-0.000004,-46.536147,0.000009,
2056,2788,-4.42556737423132,3.07995692798843,-0.0208192336157254,0.002268,-0.032318,0.003919,0.082922,-1.440047,319.002694,22.916842,0.999219,0.988357,0.004233,0.410621,0.000034,0.000029,-0.000008,0.000040,0.000024,-35.977249,0.000064,
2101,3148,-3.50180567522131,10.8924201959201,0.0424300535481166,0.003780,-0.032420,0.009935,0.134185,-1.430549,313.484982,22.899616,0.999862,0.996432,0.002709,0.485775,0.000008,0.000023,0.000004,0.000024,0.000007,76.203324,0.000032,
2011,2608,-5.37735277964174,-0.83679141422607,-0.0348289451794699,0.001043,-0.032419,0.004971,0.024443,-1.424776,322.016605,23.044885,0.999500,0.990981,0.004007,0.403896,0.000127,0.000024,0.000007,0.000127,0.000024,3.927601,0.000163,
2011,3043,-5.43726122131542,8.61054095986811,0.0261182801759787,0.003345,-0.032687,0.009316,0.118631,-1.435740,315.561750,22.630553,0.999467,0.993075,0.003628,0.454463,0.000032,0.000013,0.000035,0.000059,-0.000014,37.109651,0.000062,
2026,2668,-5.05885634906014,0.467175165059047,-0.0243673146907213,0.002066,-0.032728,0.003484,0.075210,-1.457719,321.089535,22.857016,0.999239,0.990199,0.003985,0.506558,0.000071,0.000003,-0.000019,0.000076,-0.000001,-14.310322,0.000087,
2296,2713,0.801420628519882,1.45781308702843,-0.0310456567610231,0.002240,-0.033468,0.007563,0.064618,-1.467600,319.310927,22.845771,0.999716,0.992827,0.003599,0.484556,0.000049,0.000072,0.000015,0.000079,0.000042,64.060977,0.000122,
2356,2578,2.13429879385266,-1.48513937516853,-0.0113375685257893,0.001853,-0.033792,0.001677,0.065797,-1.493416,321.644682,22.483993,0.999162,0.987243,0.004539,0.465625,0.000095,0.000054,0.000033,0.000113,0.000035,28.930765,0.000155,
2206,2053,-1.04350792417687,-12.9753154309871,0.0056475938789049,-0.001754,-0.036786,-0.010882,-0.059068,-1.705982,330.328255,21.944090,0.998371,0.974482,0.006141,0.336335,0.000755,0.000780,0.000040,0.000810,0.000726,53.600024,0.001536,
2491,1993,5.20424724627658,-14.3050461799926,0.0204031257096062,0.004447,-0.039036,-0.014116,0.240190,-1.830425,331.762175,19.701838,0.998434,0.965236,0.007345,0.343537,0.001095,0.000742,-0.000014,0.001095,0.000741,-2.289383,0.001848,
2071,2848,-4.10903047263096,4.38474331548841,-0.013344215035147,0.002584,-0.032769,0.010269,0.078943,-1.429087,318.003707,22.948910,0.999663,0.993454,0.003340,0.387434,0.000034,0.000011,0.000001,0.000034,0.000011,3.350110,0.000047,
2041,2728,-4.74208836371112,1.77467149408798,-0.0252702271919247,0.002393,-0.032411,0.004302,0.087821,-1.442680,320.030648,22.923826,0.999360,0.990276,0.003830,0.419695,0.000046,0.000023,-0.000004,0.000046,0.000022,-10.529948,0.000070,
2131,3283,-2.87488020644708,13.8209648707332,0.0250909259932541,0.004136,-0.032670,0.011587,0.144666,-1.445027,311.003358,23.095519,0.999653,0.994732,0.003080,0.442686,-0.000002,0.000022,-0.000020,0.000034,-0.000014,-59.949724,0.000034,
2266,2368,0.21128510565638,-6.07309128705708,-0.00961814405707173,0.001190,-0.034262,0.002210,0.034556,-1.512432,325.091723,22.243028,0.998963,0.982655,0.005257,0.431908,0.000224,0.000260,0.000016,0.000266,0.000218,69.081067,0.000485,
2446,3088,3.9979350216776,9.61931986208483,0.0205447151942622,0.003866,-0.033678,0.007235,0.136667,-1.494777,313.752410,24.225193,0.999650,0.992790,0.003603,0.371003,0.000021,0.000027,0.000020,0.000044,0.000004,48.848600,0.000054,
2311,2353,1.19526826779545,-6.40085434303179,-0.0100388968651259,0.001153,-0.034152,-0.003198,0.050656,-1.545650,325.297503,22.074043,0.999350,0.984969,0.004661,0.380814,0.000262,0.000250,0.000009,0.000266,0.000245,27.920506,0.000512,
2416,2848,3.38953914139573,4.40167745321176,-0.0160833940539646,0.003185,-0.033275,0.002879,0.122098,-1.485893,317.308760,23.306057,0.999251,0.987734,0.004254,0.434841,0.000020,0.000014,0.000002,0.000021,0.000013,15.407225,0.000035,
2221,2368,-0.769192228993536,-6.07322745226818,-0.00836625886671527,0.000948,-0.034211,-0.000602,0.033082,-1.513808,325.189301,22.428352,0.999530,0.988152,0.004475,0.397432,0.000234,0.000240,0.000036,0.000273,0.000202,47.383143,0.000477,
2221,2143,-0.729991359007311,-11.0019913329347,0.0103775674869553,-0.000348,-0.035583,-0.007898,-0.003540,-1.633477,328.938271,21.987541,0.998761,0.981239,0.005426,0.399855,0.000576,0.000615,0.000049,0.000648,0.000543,55.640950,0.001193,
2176,2143,-1.71273038990495,-11.001096195389,0.00917552001266131,-0.001253,-0.036068,-0.004239,-0.056906,-1.638561,329.000267,22.256874,0.998322,0.979503,0.005757,0.377218,0.000606,0.000609,0.000066,0.000673,0.000542,45.476403,0.001217,
2461,3133,4.31508154109061,10.5966400282894,0.0283303794667518,0.003686,-0.034029,0.012938,0.106355,-1.505301,313.079354,24.395302,0.999446,0.989036,0.004013,0.405516,0.000034,0.000007,0.000019,0.000043,-0.000003,27.484890,0.000048,
2026,2893,-5.09174172132258,5.35902870221592,-0.00469235870752982,0.002579,-0.032671,0.009798,0.081505,-1.427377,317.610401,22.835303,0.999159,0.992003,0.003762,0.411441,0.000049,-0.000009,0.000002,0.000049,-0.000009,1.502204,0.000053,
2371,2638,2.44937945672877,-0.174696025464279,-0.0223460841372116,0.002476,-0.033630,0.001765,0.093986,-1.493952,320.610170,22.654350,0.999098,0.986781,0.004533,0.441724,0.000071,0.000032,0.000027,0.000085,0.000018,27.404742,0.000110,
2281,2668,0.484853855808737,0.476812810856536,-0.0171684899193565,0.002626,-0.033635,0.004490,0.092971,-1.486486,320.204013,22.885912,0.999625,0.991075,0.003960,0.340783,0.000053,0.000049,0.000014,0.000066,0.000036,41.242932,0.000103,
2011,3058,-5.43906728249554,8.93544258461372,0.036215761616063,0.003203,-0.032304,0.008757,0.113698,-1.422341,315.396809,22.633790,0.999289,0.992143,0.003616,0.451814,0.000029,0.000019,0.000035,0.000060,-0.000011,40.764245,0.000063,
2236,2443,-0.45539494735225,-4.43369251777733,-0.00781706841786445,0.001257,-0.034172,0.003258,0.034674,-1.534404,323.948955,22.593505,0.999615,0.991298,0.003994,0.274386,0.000156,0.000151,0.000026,0.000180,0.000128,42.505943,0.000309,
2251,2488,-0.135991746676705,-3.4530513464758,-0.00652983027936216,0.001698,-0.033990,0.001977,0.058958,-1.513411,323.226866,22.422405,0.999594,0.989106,0.004073,0.500772,0.000122,0.000104,0.000025,0.000140,0.000087,34.990494,0.000229,
2191,2008,-1.36270734058261,-13.966150522648,0.01508249659787,-0.001667,-0.038503,-0.009222,-0.061050,-1.781407,331.170503,21.822261,0.999010,0.982565,0.005456,0.425085,0.000836,0.000796,0.000049,0.000869,0.000764,33.828905,0.001633,
2116,3028,-3.15909805391023,8.29282837124307,0.0178440772478439,0.003104,-0.032791,0.009071,0.104964,-1.446122,315.137337,22.974749,0.999357,0.991025,0.003761,0.439780,0.000030,0.000014,0.000015,0.000039,0.000005,30.964344,0.000048,
2431,2923,3.70077881266171,6.03416354394815,-0.009835394716049,0.002655,-0.033812,0.007390,0.080719,-1.486577,316.115955,23.607355,0.999617,0.991633,0.003746,0.400568,0.000007,-0.000007,0.000001,0.000007,-0.000007,2.502388,0.000008,
2326,2413,1.51162396897504,-5.09064109364738,-0.0105970098982766,0.001427,-0.033568,-0.005176,0.070199,-1.546132,324.334769,22.014260,0.999326,0.987190,0.004751,0.531171,0.000204,0.000201,0.000010,0.000212,0.000192,40.657347,0.000405,
2161,3253,-2.21945661585589,13.1730881981784,0.0320871211836788,0.003862,-0.032951,0.011276,0.131728,-1.466776,311.419747,23.226444,0.999679,0.993771,0.003231,0.441108,0.000002,-0.000006,-0.000006,0.000005,-0.000009,-30.001959,0.000009,
2491,2008,5.20101689434847,-13.9748416686191,0.0171907224976735,0.004301,-0.038351,-0.017511,0.246818,-1.814811,331.499992,19.758190,0.998818,0.969948,0.006732,0.365499,0.001073,0.000690,-0.000038,0.001077,0.000686,-5.633398,0.001777,
2401,2833,3.06520593921613,4.075230697722,-0.0209892379208441,0.002886,-0.033308,0.004296,0.103450,-1.480165,317.476516,23.275450,0.999338,0.987590,0.004368,0.406016,0.000019,0.000027,0.000008,0.000032,0.000014,59.573575,0.000047,
2071,3058,-4.13935719465276,8.94010900162074,0.0179311561964823,0.003396,-0.032836,0.006895,0.125961,-1.456120,314.895424,22.796793,0.999203,0.991586,0.003687,0.459845,0.000032,0.000007,0.000012,0.000038,0.000002,22.258204,0.000045,
2266,2593,0.170842097068224,-1.15992407822048,-0.0189519559414748,0.001791,-0.033817,0.005769,0.050576,-1.478051,321.386655,22.607612,0.999032,0.986216,0.004694,0.503838,0.000074,0.000034,0.000019,0.000081,0.000026,21.580933,0.000112,
2206,2308,-1.08472214368398,-7.38741728281374,-0.000198910329970658,0.000724,-0.033868,-0.010077,0.052970,-1.562236,326.284977,22.316942,0.998824,0.984132,0.004987,0.436609,0.000323,0.000294,0.000046,0.000357,0.000260,36.458257,0.000620,
2236,2218,-0.415821029125102,-9.35797258409517,0.00283937921210509,0.000362,-0.035461,-0.004452,0.018060,-1.629408,327.655760,22.058558,0.998997,0.982216,0.005184,0.368068,0.000450,0.000445,0.000029,0.000477,0.000419,42.524597,0.000896,
2086,3103,-3.82075055220973,9.91679429883767,0.0308086923121778,0.003418,-0.032563,0.009860,0.118207,-1.424956,314.181556,22.866670,0.999674,0.993280,0.003313,0.465991,0.000015,0.000017,0.000012,0.000029,0.000004,47.333193,0.000036,
2146,3133,-2.52452501083217,10.5714074497174,0.0330334682174112,0.003446,-0.032596,0.008604,0.121361,-1.437119,313.438354,23.093584,0.999434,0.993039,0.003626,0.471451,0.000006,0.000011,-0.000001,0.000011,0.000006,-78.844032,0.000018,
2011,2803,-5.404857977734,3.40378200026188,-0.0222489679551927,0.002158,-0.032493,0.008571,0.066008,-1.420607,319.005647,22.824560,0.999426,0.991684,0.003774,0.475829,0.000071,0.000006,0.000008,0.000072,0.000005,6.697082,0.000087,
2086,2893,-3.78942233858755,5.36090862327472,0.001566755618569,0.002906,-0.033138,0.010546,0.092427,-1.440321,317.332244,22.868978,0.999444,0.993155,0.003686,0.472252,0.000031,0.000009,0.000004,0.000032,0.000008,9.140067,0.000042,
2341,2503,1.82133031433822,-3.12296238853756,-0.0143677926364489,0.001627,-0.033933,-0.000617,0.063514,-1.514055,322.834035,22.263464,0.999347,0.985823,0.004506,0.497414,0.000126,0.000104,0.000016,0.000134,0.000096,27.564531,0.000231,
2131,3298,-2.87711591640586,14.1456505237664,0.026382798190582,0.004281,-0.032489,0.010814,0.153798,-1.431086,310.777463,23.083872,0.999581,0.993376,0.003348,0.472559,0.000002,0.000045,-0.000026,0.000057,-0.000011,-64.662647,0.000061,
2101,2938,-3.47070614210654,6.34019687332636,-0.00241909536504181,0.003077,-0.032028,0.001771,0.125813,-1.428668,316.524774,22.953580,0.999139,0.990268,0.004110,0.428798,0.000030,0.000001,0.000010,0.000033,-0.000002,17.339489,0.000037,
2011,3073,-5.44147572268466,9.26109563544514,0.0337520830224776,0.003385,-0.032144,0.011213,0.115560,-1.387236,315.133295,22.606461,0.999228,0.992818,0.003651,0.501431,0.000020,0.000023,0.000039,0.000061,-0.000018,45.794149,0.000062,
2116,3238,-3.19130106768324,12.8435059439841,0.0436734758753801,0.003969,-0.032909,0.010637,0.140177,-1.458996,311.958957,22.980639,0.999629,0.994295,0.003111,0.453589,-0.000002,0.000014,-0.000016,0.000024,-0.000012,-58.340653,0.000024,
2491,2023,5.19822871093049,-13.6455410982072,0.0285794963543253,0.003903,-0.038130,-0.014592,0.217585,-1.785050,331.323370,19.889231,0.998991,0.970037,0.006540,0.326333,0.001049,0.000689,-0.000079,0.001066,0.000672,-11.796132,0.001753,
2251,2323,-0.107176572602039,-7.05757951769916,-0.00472116380672105,0.000998,-0.033875,-0.002543,0.041600,-1.512825,325.891726,22.221955,0.998454,0.981436,0.005528,0.427723,0.000285,0.000278,0.000024,0.000305,0.000258,40.556920,0.000564,
2176,2158,-1.7185158882961,-10.6657555196387,-0.0357651844024076,-0.001440,-0.035415,-0.003580,-0.067283,-1.614665,328.372595,22.382160,0.999193,0.958093,0.007089,0.293051,0.000579,0.000563,0.000064,0.000636,0.000507,41.462893,0.001145,
2011,2818,-5.40703355146886,3.7292075523004,-0.0210640981499068,0.002361,-0.032713,0.011801,0.066489,-1.429046,318.772970,22.777475,0.999113,0.990601,0.003925,0.502235,0.000069,-0.000005,0.000008,0.000070,-0.000006,6.030542,0.000077,
2446,3103,3.99502813472448,9.94404821837788,0.0253533637647934,0.003552,-0.033423,0.007162,0.122632,-1.481500,313.533255,24.197309,0.999691,0.992837,0.003595,0.463285,0.000022,0.000027,0.000022,0.000047,0.000002,48.371013,0.000056,
2146,3103,-2.52012420555237,9.92123192268416,0.0254468010343203,0.003507,-0.032792,0.011592,0.115093,-1.430591,313.858587,23.062321,0.999799,0.996362,0.002764,0.495843,0.000003,0.000007,0.000002,0.000008,0.000002,70.560351,0.000011,
2041,2908,-4.76788150835984,5.68522219228758,-0.000925157926985776,0.003019,-0.032292,0.007188,0.108721,-1.416631,317.333200,22.834053,0.999350,0.991331,0.003769,0.442483,0.000033,-0.000014,-0.000002,0.000033,-0.000014,-2.413803,0.000033,
2191,2188,-1.39275630373034,-10.0140608103914,0.00584152489443568,-0.000689,-0.035066,-0.005095,-0.028022,-1.604723,328.230412,22.292977,0.998369,0.977402,0.005852,0.342897,0.000525,0.000521,0.000053,0.000576,0.000469,44.152071,0.001048,
2311,2368,1.1924414202565,-6.07322855400663,-0.0119019713938542,0.001216,-0.033925,-0.003152,0.053463,-1.529702,325.042396,22.040703,0.999581,0.987942,0.004325,0.464000,0.000248,0.000242,0.000010,0.000255,0.000235,36.382357,0.000491,
2071,2863,-4.11076252761432,4.70944639030893,-0.0101950958085126,0.002771,-0.032797,0.006315,0.098857,-1.448359,317.806750,22.874256,0.999356,0.990793,0.003936,0.439435,0.000036,0.000013,0.000002,0.000036,0.000012,5.711275,0.000051,
2281,2458,0.522483263888493,-4.10644089738113,-0.00684856065834083,0.001554,-0.033954,0.003604,0.046510,-1.490086,323.649881,22.372991,0.999679,0.989958,0.004186,0.448986,0.000150,0.000147,0.000026,0.000174,0.000123,42.973081,0.000298,
2011,2623,-5.37856623416262,-0.511976362664718,-0.0234876732003499,0.001383,-0.032468,0.005013,0.040004,-1.425004,321.884714,22.963505,0.999454,0.991373,0.003891,0.473230,0.000117,0.000008,-0.000001,0.000117,0.000008,-0.420487,0.000140,
2356,2593,2.13115099344947,-1.15721072143759,-0.0157866443630041,0.001900,-0.033956,0.001770,0.067560,-1.502966,321.365481,22.557442,0.999160,0.987039,0.004548,0.422039,0.000089,0.000041,0.000035,0.000107,0.000023,27.538369,0.000139,
2506,2083,5.5139615731222,-12.3274789810654,0.0238182497581079,0.004299,-0.036555,-0.014010,0.234543,-1.702439,330.378059,19.947301,0.999326,0.984494,0.004963,0.506650,0.000886,0.000640,-0.000111,0.000929,0.000598,-21.032301,0.001538,
2056,2803,-4.42768218084506,3.4061201835741,-0.0201608697669826,0.002698,-0.032652,0.007990,0.091179,-1.420693,318.772827,22.902369,0.999229,0.989690,0.004120,0.438938,0.000038,0.000030,-0.000003,0.000039,0.000029,-16.745329,0.000068,
2386,2713,2.76225709612251,1.45961558732353,-0.0162910706819162,0.002711,-0.033976,0.002844,0.100568,-1.509120,319.456552,22.828571,0.999515,0.991012,0.003759,0.459415,0.000042,0.000068,0.000028,0.000086,0.000024,57.484490,0.000116,
2236,2458,-0.458334251532467,-4.10697842478987,-0.00539728173066578,0.000692,-0.034062,0.002316,0.011820,-1.512675,323.703982,22.540184,0.999465,0.989111,0.004330,0.371913,0.000142,0.000131,0.000029,0.000166,0.000107,39.569421,0.000276,
2191,2023,-1.36522297703377,-13.6356176891316,0.0169392621835414,-0.001735,-0.037699,-0.008232,-0.066977,-1.736399,330.938329,21.938957,0.998676,0.982696,0.005406,0.371578,0.000814,0.000796,0.000060,0.000866,0.000745,40.828610,0.001612,
2071,3073,-4.14140445068867,9.26552117422459,0.0194437953091438,0.003527,-0.032549,0.004947,0.137721,-1.437634,314.674990,22.792051,0.999270,0.991148,0.003796,0.478950,0.000028,0.000015,0.000015,0.000037,0.000005,33.293428,0.000047,
2026,2908,-5.09305933143596,5.68417969202139,0.00396764135348349,0.002894,-0.032397,0.007408,0.102693,-1.422256,317.460100,22.827626,0.999251,0.991767,0.003736,0.414078,0.000045,-0.000017,0.000002,0.000045,-0.000017,2.264029,0.000046,
2146,1993,-2.34392979435687,-14.2930012520962,0.0186302574464321,-0.003425,-0.037964,-0.008705,-0.143521,-1.744559,331.507084,22.230224,0.999045,0.980836,0.005319,0.353657,0.000953,0.000746,0.000062,0.000970,0.000729,15.481914,0.001705,
2116,3043,-3.16102866204286,8.61918559658819,0.0246802223477971,0.003098,-0.032779,0.007539,0.109246,-1.450508,314.953653,23.107851,0.999630,0.992778,0.003459,0.304733,0.000027,0.000008,0.000010,0.000031,0.000004,22.628834,0.000039,
2236,2233,-0.419054020101068,-9.02865779572467,-0.00466931247177627,0.000397,-0.035416,-0.002625,0.013781,-1.615170,327.346907,22.073574,0.999076,0.982189,0.005063,0.391209,0.000419,0.000418,0.000031,0.000449,0.000387,44.364168,0.000837,
2011,3088,-5.44332492648595,9.58605998220006,0.0359249568377322,0.003471,-0.032196,0.007212,0.130320,-1.412699,314.921865,22.609788,0.999532,0.994440,0.003212,0.459532,0.000015,0.000016,0.000034,0.000050,-0.000019,45.649771,0.000051,
2041,2743,-4.7447689184315,2.10054164040001,-0.0230688037167397,0.002106,-0.032742,0.008079,0.064072,-1.424673,319.782342,22.878581,0.999458,0.991095,0.003807,0.475496,0.000044,0.000018,-0.000008,0.000047,0.000016,-16.063687,0.000065,
2026,2683,-5.06252389340764,0.795701213878317,-0.0366376966339885,0.001761,-0.033360,0.009366,0.044866,-1.445260,320.713402,22.923687,0.999762,0.995576,0.003058,0.443437,0.000064,-0.000008,-0.000018,0.000068,-0.000012,-13.059944,0.000072,
2131,3073,-2.84015746619097,9.2699252368374,0.0266714067491876,0.003523,-0.032503,0.008667,0.125109,-1.449472,314.430691,23.069814,0.999609,0.994170,0.003405,0.402337,0.000015,0.000010,0.000008,0.000020,0.000004,36.522063,0.000026,
2491,2038,5.19481304449586,-13.316637566224,0.0309960371852185,0.003574,-0.037753,-0.012210,0.193668,-1.761603,331.077772,19.893455,0.999035,0.970881,0.006569,0.408199,0.001006,0.000699,-0.000091,0.001031,0.000674,-15.384914,0.001718,
2056,2998,-4.45586138091092,7.6386418245152,0.0140810405789011,0.003042,-0.032604,0.010004,0.101398,-1.421785,315.899476,22.824867,0.999102,0.989026,0.004126,0.439497,0.000030,0.000004,0.000019,0.000040,-0.000005,27.877424,0.000043,
2116,3253,-3.19404168087346,13.1694477959502,0.0401263337953992,0.003863,-0.032634,0.009343,0.139335,-1.432170,311.682294,23.032519,0.999691,0.995811,0.002775,0.430433,-0.000003,0.000006,-0.000019,0.000021,-0.000018,-51.225160,0.000023,
2296,2728,0.799586159389136,1.78370541263797,-0.0241476397287101,0.002560,-0.033877,0.006562,0.082556,-1.487256,319.142982,22.878512,0.999589,0.990607,0.003879,0.462172,0.000047,0.000073,0.000017,0.000081,0.000039,63.700844,0.000122,
2161,3268,-2.22195522624279,13.4981868915781,0.0295577021452118,0.004126,-0.032893,0.011790,0.142405,-1.451870,311.163339,23.223805,0.999653,0.993686,0.003319,0.467465,0.000002,-0.000004,-0.000005,0.000005,-0.000007,-28.254668,0.000007,
2221,2158,-0.732557827758448,-10.6719830938816,0.00548942921636808,-0.000161,-0.034746,-0.010202,0.012713,-1.595727,328.671715,22.040399,0.998565,0.983480,0.005445,0.406805,0.000553,0.000570,0.000050,0.000612,0.000511,49.877471,0.001124,
2086,3118,-3.82300075594468,10.2420924498861,0.0318454335646265,0.003496,-0.032489,0.009369,0.123237,-1.422245,313.950328,22.875225,0.999697,0.993647,0.003172,0.458086,0.000011,0.000022,0.000009,0.000027,0.000006,60.022452,0.000035,
2161,2038,-2.02338588059386,-13.304128498877,0.00995664172711486,-0.002129,-0.037763,-0.005936,-0.092368,-1.728215,330.709260,22.219738,0.998824,0.983202,0.005243,0.315947,0.000839,0.000753,0.000067,0.000876,0.000716,28.778735,0.001595,
2416,2863,3.38640646235973,4.72784733779622,-0.00878501100766016,0.002751,-0.033558,0.007062,0.086774,-1.474651,317.089663,23.372699,0.999408,0.988782,0.004086,0.426797,0.000020,0.000016,0.000002,0.000020,0.000015,23.903311,0.000036,
2116,3058,-3.16327355113393,8.94291886680673,0.0222825240975908,0.003422,-0.032514,0.006843,0.126303,-1.444686,314.706742,22.932467,0.999554,0.992908,0.003574,0.488802,0.000026,0.000004,0.000010,0.000030,0.000001,20.680414,0.000035,
2011,2833,-5.40834649340687,4.05568717717972,-0.0099432916342721,0.002382,-0.032393,0.007221,0.079937,-1.440447,318.635302,22.909111,0.999662,0.994090,0.003477,0.346871,0.000061,-0.000014,0.000001,0.000061,-0.000014,0.796631,0.000064,
2206,2068,-1.04488834237199,-12.6478099999247,0.0167466864202197,-0.001249,-0.036719,-0.009026,-0.041754,-1.695067,330.197247,21.938360,0.998823,0.977994,0.005780,0.372122,0.000729,0.000767,0.000045,0.000796,0.000699,56.395865,0.001496,
2446,3118,3.99255949147802,10.2697964562621,0.0256200626900522,0.004023,-0.033468,0.006725,0.145846,-1.499213,313.312931,24.269356,0.999608,0.991380,0.003754,0.424781,0.000024,0.000021,0.000024,0.000047,-0.000002,43.475331,0.000053,
2281,2683,0.481858545359561,0.802881545755646,-0.0181496633094866,0.002441,-0.033440,0.004952,0.083017,-1.466457,319.942510,22.817006,0.999603,0.991404,0.003833,0.458111,0.000051,0.000061,0.000010,0.000067,0.000045,58.088584,0.000113,
2461,3148,4.31247748460205,10.9224226714378,0.0291285017412406,0.003727,-0.033565,0.009189,0.122615,-1.484341,312.856105,24.442922,0.999403,0.988402,0.004005,0.432326,0.000031,0.000005,0.000019,0.000041,-0.000005,27.903798,0.000045,
2506,2098,5.50933510835173,-11.9939251427626,0.0159016150348066,0.003937,-0.036590,-0.008955,0.198544,-1.684411,330.031630,20.289987,0.999480,0.985743,0.004908,0.246819,0.000849,0.000652,-0.000110,0.000899,0.000603,-24.145503,0.001511,
2266,2383,0.208341676925265,-5.74521455769044,-0.0153789516252232,0.001158,-0.034279,-0.000182,0.040987,-1.520441,324.807856,22.223477,0.998346,0.979074,0.005679,0.471006,0.000209,0.000241,0.000018,0.000249,0.000201,65.177172,0.000451,
2041,2923,-4.77016132810715,6.01018032444333,0.000160324738374129,0.002932,-0.032317,0.006148,0.107626,-1.417665,317.097661,22.764638,0.999318,0.991651,0.003756,0.502787,0.000032,-0.000015,0.000001,0.000032,-0.000015,1.126707,0.000032,
2221,2383,-0.772143221809827,-5.74623360137095,-0.0101442929031919,0.000631,-0.034041,-0.001574,0.021678,-1.546264,324.921456,22.390067,0.999438,0.987962,0.004425,0.424157,0.000217,0.000222,0.000034,0.000254,0.000185,47.451474,0.000441,
2281,2473,0.519477869733105,-3.77879329425764,-0.00963743143557849,0.001491,-0.033753,0.004141,0.041901,-1.472186,323.379108,22.366228,0.999478,0.988269,0.004407,0.502991,0.000140,0.000127,0.000028,0.000163,0.000104,38.338301,0.000269,
2086,2908,-3.79199405443291,5.68731218354195,0.000868437734425243,0.002746,-0.032824,0.010061,0.086546,-1.427803,317.076266,22.902728,0.999359,0.991745,0.003851,0.449801,0.000028,0.000000,0.000003,0.000028,0.000000,6.104490,0.000033,
2251,2503,-0.139205663653851,-3.12334597646247,-0.0146956199522492,0.001571,-0.033325,-0.000186,0.060413,-1.503877,322.916279,22.573283,0.999487,0.988426,0.004274,0.384006,0.000112,0.000088,0.000018,0.000122,0.000078,28.161420,0.000202,
2101,3163,-3.50435751445452,11.2181140301423,0.0355146433178106,0.003984,-0.032378,0.007756,0.149996,-1.442907,313.197675,22.922849,0.999753,0.994977,0.002998,0.450287,0.000001,0.000033,0.000001,0.000034,0.000001,88.270481,0.000039,
2026,2698,-5.06461339965653,1.12220161676474,-0.0383038075874538,0.001807,-0.032360,0.005576,0.057702,-1.420527,320.469226,22.885198,0.999780,0.995124,0.003142,0.496950,0.000071,-0.000010,-0.000020,0.000076,-0.000015,-13.353292,0.000080,
2386,2728,2.75935402774853,1.78648845994058,-0.0141933633552753,0.002853,-0.034155,0.006836,0.092697,-1.505686,319.221951,22.890044,0.999497,0.990448,0.003952,0.445017,0.000037,0.000073,0.000032,0.000092,0.000019,59.537268,0.000118,
2191,2038,-1.36780517085146,-13.3039720503071,0.00449918406428651,-0.001203,-0.037191,-0.011933,-0.030889,-1.719821,330.629135,22.030083,0.998916,0.985690,0.004932,0.315384,0.000790,0.000778,0.000054,0.000839,0.000730,41.947310,0.001570,
2101,2953,-3.47338448359353,6.66568520861189,-8.35028657206749E-05,0.003142,-0.032611,0.009046,0.107331,-1.432944,316.281803,22.954584,0.999349,0.990878,0.003873,0.423993,0.000032,0.000004,0.000009,0.000035,0.000001,16.357049,0.000041,
2326,2428,1.5076624076469,-4.76007766022425,-0.0217748524808599,0.001470,-0.034035,-0.000395,0.055594,-1.521445,323.982754,22.174159,0.999506,0.989422,0.004325,0.432399,0.000193,0.000178,0.000010,0.000199,0.000173,27.233612,0.000372,
2296,2518,0.837046411539074,-2.7940653753796,-0.0307566875619045,0.001701,-0.033484,-0.000524,0.067109,-1.506692,322.481635,22.454645,0.999625,0.990633,0.003925,0.438494,0.000117,0.000081,0.000019,0.000125,0.000073,23.181078,0.000200,
2206,2323,-1.08767717852662,-7.05919103182512,0.000348904442887488,0.000560,-0.033823,-0.006083,0.032857,-1.550297,326.027323,22.348586,0.998930,0.984422,0.004792,0.435544,0.000304,0.000266,0.000037,0.000327,0.000243,31.330161,0.000572,
2071,3088,-4.14380464296969,9.59074918636458,0.021674351821332,0.003558,-0.032433,0.007753,0.131172,-1.429003,314.442401,22.788570,0.999136,0.990520,0.003931,0.486807,0.000023,0.000018,0.000015,0.000036,0.000005,40.713610,0.000045,
2011,2638,-5.3810534465136,-0.184311850763308,-0.0312142400139237,0.001446,-0.032069,0.002619,0.049465,-1.431529,321.586801,22.991500,0.998980,0.986032,0.004628,0.427708,0.000116,0.000017,0.000000,0.000116,0.000017,0.094641,0.000145,
2341,2518,1.81867813776457,-2.7946744445147,-0.0126395684191039,0.001664,-0.033709,-0.000557,0.065082,-1.515981,322.606353,22.392402,0.999142,0.982717,0.004804,0.404220,0.000118,0.000090,0.000019,0.000127,0.000080,26.604409,0.000209,
2506,2113,5.50631474412185,-11.666017077307,0.0163637201849838,0.004020,-0.036383,-0.008594,0.201053,-1.687053,329.796455,20.235552,0.999491,0.985377,0.005018,0.362653,0.000817,0.000637,-0.000107,0.000867,0.000587,-25.033291,0.001463,
2401,2848,3.06307560830851,4.40056178283789,-0.0147597891699434,0.003151,-0.033370,0.003944,0.116894,-1.479973,317.297902,23.264131,0.999446,0.989639,0.004078,0.462814,0.000015,0.000018,0.000001,0.000019,0.000014,75.719352,0.000033,
2191,2203,-1.39491823471382,-9.68483253682192,-0.00130445425003245,-0.000081,-0.034310,-0.008506,0.010763,-1.580299,327.967876,22.281052,0.998410,0.977958,0.005866,0.396530,0.000499,0.000495,0.000052,0.000550,0.000445,43.766994,0.000996,
2161,3283,-2.22428733745629,13.8231962822047,0.0300708210921812,0.004249,-0.032748,0.010735,0.151421,-1.441416,310.930712,23.237978,0.999693,0.994288,0.003138,0.472170,0.000006,0.000017,-0.000001,0.000017,0.000006,-86.216046,0.000024,
2011,2848,-5.41066333437834,4.38068309591298,-0.0135859779389307,0.002479,-0.032229,0.006185,0.087293,-1.427638,318.369194,22.773045,0.999712,0.994924,0.003323,0.483854,0.000063,-0.000011,0.000003,0.000064,-0.000011,2.665727,0.000068,
2266,2608,0.168310243746831,-0.83210209360783,-0.0247604998642146,0.002057,-0.033654,0.001540,0.076860,-1.480048,321.120798,22.656220,0.999167,0.986661,0.004584,0.479352,0.000064,0.000024,0.000022,0.000074,0.000014,23.687225,0.000095,
2356,2608,2.12860501113702,-0.830837752858194,-0.0107398944350052,0.001976,-0.034084,0.004021,0.063070,-1.497975,321.159837,22.560620,0.999071,0.986288,0.004646,0.463511,0.000079,0.000031,0.000037,0.000098,0.000011,28.413480,0.000120,
2026,2713,-5.06643188965623,1.44890318577747,-0.0355846786052894,0.002034,-0.032142,0.004542,0.071034,-1.416731,320.261934,22.926263,0.999684,0.993483,0.003539,0.450264,0.000070,0.000009,-0.000015,0.000073,0.000005,-12.847588,0.000087,
2296,2743,0.797778956044855,2.10989408649375,-0.0182259368302766,0.002894,-0.033589,0.004425,0.105233,-1.486146,318.971298,22.913492,0.999424,0.988969,0.004150,0.458324,0.000045,0.000073,0.000016,0.000081,0.000038,65.925562,0.000121,
2236,2248,-0.421309246623078,-8.69999257500813,0.00179705071980152,0.000361,-0.034433,-0.001556,0.009051,-1.545937,327.153573,22.124005,0.998807,0.980637,0.005474,0.433629,0.000394,0.000385,0.000032,0.000422,0.000357,41.404554,0.000780,
2416,2878,3.38331509552539,5.05453150544772,-0.0117962274831598,0.002803,-0.033405,0.006491,0.091364,-1.459654,316.823983,23.410421,0.999493,0.990279,0.003821,0.451535,0.000016,0.000010,0.000001,0.000016,0.000010,8.514297,0.000026,
2236,2473,-0.460827208420167,-3.78089188937575,-0.00085057396756838,0.000598,-0.033788,0.003909,0.002435,-1.496674,323.490415,22.459204,0.999492,0.990377,0.004118,0.491259,0.000136,0.000112,0.000031,0.000157,0.000091,34.638314,0.000251,
2041,2938,-4.77338912601398,6.33591487054852,-0.000398017586917376,0.002390,-0.032537,0.011491,0.067669,-1.411800,316.809284,22.752272,0.999124,0.990936,0.003912,0.512826,0.000033,-0.000016,0.000007,0.000034,-0.000017,7.844851,0.000034,
2371,2653,2.44591018466301,0.152572477322948,-0.0235135640684234,0.002275,-0.033795,0.005717,0.070633,-1.482666,320.333043,22.695016,0.999247,0.986974,0.004536,0.454057,0.000058,0.000035,0.000031,0.000079,0.000014,34.862324,0.000101,
2086,3133,-3.82490882372407,10.5674375864972,0.0340888518687734,0.003735,-0.032048,0.007195,0.140681,-1.412327,313.741378,22.892080,0.999683,0.993296,0.003163,0.449265,0.000010,0.000023,0.000006,0.000026,0.000007,68.313904,0.000035,
2191,2053,-1.37137607989617,-12.9752886566069,0.00471432206660438,-0.002012,-0.037079,-0.007867,-0.080626,-1.708614,330.340637,22.005472,0.998806,0.981849,0.005381,0.369387,0.000762,0.000770,0.000058,0.000824,0.000708,46.940067,0.001534,
2101,2968,-3.47523979311972,6.99059352351352,0.00862868211959267,0.003080,-0.032863,0.007809,0.107990,-1.450460,316.111350,22.963296,0.999487,0.990724,0.003770,0.398158,0.000033,0.000002,0.000008,0.000036,0.000000,13.901400,0.000041,
2176,2173,-1.72344005652905,-10.3319784159312,-0.0700157720082188,-0.001595,-0.035076,-0.004437,-0.071639,-1.595714,327.840143,22.494755,0.999762,0.923636,0.009035,0.215993,0.000558,0.000525,0.000062,0.000606,0.000478,37.550348,0.001086,
2026,2923,-5.09564014579605,6.0096943956537,0.00187891910729832,0.002694,-0.032405,0.006695,0.095489,-1.417561,317.191775,22.780367,0.999343,0.992021,0.003693,0.455718,0.000042,-0.000018,0.000004,0.000042,-0.000019,3.755210,0.000042,
2086,2923,-3.79434579657565,6.01354300054911,-0.00241347447337148,0.002913,-0.032597,0.008662,0.098339,-1.422222,316.816368,22.913409,0.999273,0.990245,0.003991,0.443325,0.000027,-0.000002,0.000005,0.000028,-0.000003,9.120011,0.000030,
2281,2698,0.479107971765544,1.12931807302279,-0.0134718148610204,0.002057,-0.033557,0.004919,0.065419,-1.476995,319.720430,22.863338,0.999742,0.993244,0.003581,0.429187,0.000047,0.000062,0.000009,0.000066,0.000043,64.164865,0.000110,
2041,2758,-4.74636329337574,2.42576588932378,-0.0196200884329869,0.002503,-0.032574,0.006494,0.086847,-1.410951,319.590932,22.792187,0.999271,0.990661,0.004116,0.567988,0.000039,0.000002,-0.000015,0.000044,-0.000003,-19.073340,0.000049,
2281,2488,0.516146080420398,-3.45190414834575,-0.0165993736458745,0.001381,-0.033687,0.004395,0.036019,-1.492621,323.072825,22.295348,0.999666,0.990116,0.004128,0.582611,0.000130,0.000112,0.000023,0.000146,0.000096,34.686743,0.000243,
2011,3103,-5.44508416216027,9.91103982389117,0.0385342297432203,0.003852,-0.032335,0.007070,0.148263,-1.416899,314.717021,22.599768,0.999544,0.994399,0.003164,0.452585,0.000013,0.000023,0.000031,0.000050,-0.000014,49.796110,0.000051,
2221,2173,-0.735018650120256,-10.3436123137112,0.00432422029223289,-0.000233,-0.034167,-0.013899,0.021397,-1.594046,328.429409,22.025355,0.998620,0.983334,0.005346,0.445225,0.000528,0.000533,0.000050,0.000581,0.000480,46.273889,0.001063,
2431,2938,3.69818203235754,6.359979472019,-0.00863648044702359,0.002808,-0.033619,0.005860,0.093451,-1.488234,315.893800,23.629663,0.999639,0.991289,0.003807,0.425981,0.000010,-0.000009,-0.000001,0.000011,-0.000009,-2.518381,0.000011,
2311,2383,1.19034385795045,-5.74610900600582,-0.000280936019976252,0.001111,-0.033949,-0.001672,0.043625,-1.515081,324.886960,22.097617,0.999278,0.985871,0.004832,0.455185,0.000235,0.000223,0.000009,0.000240,0.000218,28.203711,0.000458,
2071,2878,-4.11354005074561,5.03540438618003,-0.0119506869349379,0.002496,-0.032851,0.006714,0.085045,-1.445222,317.534549,22.860549,0.999096,0.988789,0.004404,0.452822,0.000043,0.000020,0.000002,0.000043,0.000020,4.990685,0.000064,
2161,2053,-2.02530049125698,-12.9757653773077,0.0169563450831447,-0.002118,-0.037129,-0.006587,-0.089698,-1.694034,330.529345,22.217551,0.998903,0.983276,0.005182,0.365453,0.000802,0.000748,0.000071,0.000851,0.000699,34.566468,0.001553,
2056,3013,-4.45861809100752,7.96414172814569,0.0131669767600897,0.002732,-0.032434,0.010476,0.085841,-1.407245,315.631987,22.800129,0.998635,0.986425,0.004803,0.472670,0.000030,0.000011,0.000024,0.000046,-0.000006,33.929003,0.000050,
2041,2953,-4.7749912166694,6.66160739788076,0.00537125708206077,0.002562,-0.032319,0.008131,0.085068,-1.405893,316.630596,22.784252,0.999427,0.992595,0.003469,0.478596,0.000038,-0.000017,0.000006,0.000039,-0.000017,6.184240,0.000039,
2221,2398,-0.774003296158345,-5.41693291052959,-0.00998789353837992,0.001129,-0.033431,-0.004778,0.055035,-1.513596,324.712730,22.521407,0.999610,0.990728,0.003945,0.345964,0.000204,0.000199,0.000033,0.000235,0.000168,43.164728,0.000405,
2056,2818,-4.42985752037711,3.73207408098853,-0.0189075216692913,0.002680,-0.032394,0.006389,0.095003,-1.409571,318.543570,22.885715,0.999162,0.989246,0.004188,0.461255,0.000036,0.000029,-0.000001,0.000036,0.000029,-7.506280,0.000065,
2491,2053,5.18960287260402,-12.983516459783,0.00819500661913253,0.003450,-0.037970,-0.011676,0.185923,-1.789906,330.636891,20.057694,0.999005,0.977278,0.005938,0.278948,0.000965,0.000716,-0.000106,0.001005,0.000677,-20.244632,0.001692,
2116,3268,-3.19649823705475,13.4942615359499,0.0382897118831238,0.004016,-0.032620,0.009362,0.146298,-1.439696,311.428357,23.028268,0.999697,0.995361,0.002924,0.429119,-0.000004,0.000006,-0.000021,0.000022,-0.000020,-51.813046,0.000025,
2326,2443,1.50572632450438,-4.43298825922061,-0.0156607158359066,0.001724,-0.033540,-0.002051,0.073151,-1.501297,323.808535,22.188719,0.999411,0.987814,0.004485,0.473387,0.000183,0.000169,0.000017,0.000195,0.000158,33.634017,0.000353,
2251,2338,-0.110402560122367,-6.72949859867187,-0.00625747398629528,0.000517,-0.034089,-0.002607,0.019663,-1.560685,325.615050,22.285596,0.998728,0.982704,0.005378,0.341518,0.000263,0.000267,0.000021,0.000286,0.000244,47.730315,0.000531,
2206,2338,-1.09129560467583,-6.73012140582772,-0.00136667526118117,-0.000043,-0.034149,-0.001264,-0.010198,-1.540697,325.727472,22.442505,0.999452,0.987604,0.004495,0.370304,0.000281,0.000250,0.000033,0.000302,0.000230,32.047028,0.000533,
2116,3073,-3.16590061155734,9.26948348635903,0.0153438417944471,0.003672,-0.032325,0.006228,0.139672,-1.448460,314.416827,23.002357,0.999641,0.993019,0.003723,0.417534,0.000022,0.000010,0.000011,0.000028,0.000004,30.551547,0.000035,
2266,2398,0.205585401884189,-5.41688194263561,-0.0126148396627741,0.000886,-0.034014,-0.000028,0.028063,-1.506134,324.575086,22.310794,0.998910,0.984599,0.005012,0.424888,0.000194,0.000223,0.000022,0.000235,0.000183,61.960028,0.000419,
2026,2938,-5.09820375601486,6.3353443065872,0.00615222102300095,0.002550,-0.032674,0.012920,0.071629,-1.413686,316.959761,22.795743,0.999194,0.990598,0.003963,0.433648,0.000045,-0.000020,0.000011,0.000047,-0.000022,9.441459,0.000047,
2401,2863,3.06020166353465,4.72740460803781,-0.0148011666421439,0.003282,-0.033383,0.004917,0.119374,-1.482449,317.055060,23.351603,0.999436,0.989680,0.003980,0.418031,0.000014,0.000020,0.000001,0.000020,0.000013,82.383680,0.000034,
2461,3163,4.3105951544794,11.2477662595634,0.0332707316417782,0.004375,-0.033620,0.007397,0.159188,-1.492031,312.681538,24.502458,0.999506,0.990030,0.003901,0.418409,0.000032,0.000010,0.000017,0.000041,0.000001,28.235197,0.000047,
2296,2533,0.834134909937958,-2.46722389651529,-0.0383848239406461,0.001947,-0.033120,-0.002277,0.084426,-1.509090,322.192556,22.373009,0.999712,0.993052,0.003532,0.548851,0.000105,0.000059,0.000014,0.000109,0.000055,15.084028,0.000167,
2146,3148,-2.52741363481472,10.896934598363,0.03066077237537,0.003435,-0.032607,0.011603,0.111752,-1.434949,313.163655,23.111930,0.999487,0.992275,0.003645,0.461813,0.000006,0.000012,-0.000002,0.000013,0.000005,-71.186062,0.000018,
2446,3133,3.98913933754909,10.5959547684963,0.0255725203231805,0.003808,-0.033597,0.009211,0.126660,-1.496730,313.047098,24.361182,0.999448,0.987684,0.004303,0.386300,0.000027,0.000010,0.000019,0.000039,-0.000003,33.203948,0.000044,
2236,2263,-0.423618158310699,-8.37168711473718,0.00492217440330478,0.000405,-0.034626,-0.002054,0.012582,-1.565374,326.941262,22.200269,0.999058,0.981913,0.005395,0.360918,0.000371,0.000359,0.000030,0.000396,0.000334,39.415716,0.000731,
2161,3298,-2.22700025346518,14.1480275787441,0.0277927544214549,0.004252,-0.032702,0.010769,0.151381,-1.457583,310.665867,23.250888,0.999779,0.995968,0.002729,0.451733,0.000009,0.000038,-0.000007,0.000039,0.000007,-76.364448,0.000050,
2101,3178,-3.50719459842666,11.5423343520392,0.0345761271141214,0.003841,-0.032789,0.010561,0.134992,-1.456728,312.930258,22.852206,0.999787,0.995404,0.002878,0.507009,0.000000,0.000028,-0.000001,0.000028,0.000000,-88.151564,0.000033,
2011,3118,-5.4477738397092,10.2365867577759,0.036932714069394,0.003816,-0.032262,0.011354,0.134962,-1.414166,314.445614,22.612533,0.999650,0.994812,0.003042,0.429173,0.000016,0.000052,0.000024,0.000063,0.000004,63.510567,0.000076,
2146,2008,-2.34503235266783,-13.9646022414741,0.0228557802428213,-0.002599,-0.036920,-0.011573,-0.096651,-1.717309,331.348576,22.190577,0.998508,0.980931,0.005597,0.431536,0.000910,0.000751,0.000079,0.000943,0.000718,22.448782,0.001666,
2071,3103,-4.14551976392665,9.91532341427988,0.0360684226656076,0.003553,-0.032577,0.011121,0.121304,-1.425226,314.308308,22.809818,0.999470,0.992368,0.003504,0.464890,0.000022,0.000018,0.000015,0.000035,0.000005,41.788567,0.000044,
2011,2653,-5.38299939692677,0.141988530578367,-0.0377384510993011,0.001951,-0.032136,-0.000221,0.080411,-1.437153,321.320810,22.909333,0.998819,0.985780,0.004733,0.492754,0.000093,0.000025,-0.000005,0.000093,0.000025,-4.475352,0.000125,
2491,2068,5.1858377000294,-12.6529980461502,0.00323343540827636,0.003359,-0.037519,-0.009833,0.174884,-1.722115,330.341680,20.095107,0.999176,0.979256,0.005785,0.372149,0.000921,0.000713,-0.000119,0.000975,0.000659,-24.475118,0.001644,
2281,2713,0.476599531361753,1.45526376246833,-0.0105908261597847,0.002112,-0.033628,0.005823,0.064904,-1.481461,319.500575,22.847823,0.999692,0.992570,0.003642,0.468216,0.000046,0.000067,0.000010,0.000071,0.000042,68.059964,0.000115,
2131,3088,-2.84195671244978,9.59458830062558,0.0314860168834343,0.003676,-0.032518,0.005243,0.142421,-1.456441,314.243683,23.047020,0.999785,0.995379,0.003161,0.422764,0.000009,0.000012,0.000006,0.000016,0.000005,50.730937,0.000022,
2206,2083,-1.04815902033531,-12.3186138097665,0.0109175499787284,-0.001404,-0.037078,-0.006502,-0.056973,-1.702067,329.892683,21.922180,0.998972,0.977114,0.005791,0.401656,0.000701,0.000764,0.000047,0.000788,0.000676,61.920976,0.001466,
2506,2128,5.50250524945087,-11.3369429649151,0.0122130794176201,0.003802,-0.036859,-0.007269,0.185783,-1.677934,329.504354,20.231304,0.999498,0.983525,0.005241,0.440559,0.000788,0.000621,-0.000105,0.000838,0.000570,-25.703671,0.001417,
2281,2503,0.513469256766907,-3.12200378449165,-0.0184600717751096,0.001365,-0.033609,0.001741,0.044202,-1.482427,322.821206,22.521840,0.999676,0.991225,0.003973,0.395262,0.000119,0.000097,0.000017,0.000128,0.000088,28.051146,0.000217,
2296,2758,0.794690767901212,2.43693156257713,-0.0235959171356512,0.002865,-0.033392,0.003368,0.107547,-1.485926,318.684559,22.941928,0.999418,0.989201,0.004136,0.460474,0.000044,0.000077,0.000017,0.000084,0.000037,67.473602,0.000124,
2071,2893,-4.11582426171563,5.36170262370521,-0.0105832905251191,0.002576,-0.032797,0.007955,0.085206,-1.431901,317.301958,22.895111,0.999341,0.991441,0.003928,0.428012,0.000038,0.000005,0.000001,0.000038,0.000005,1.695287,0.000046,
2221,2413,-0.776430656398645,-5.08964592885426,-0.00636855216237109,0.001217,-0.033370,-0.002139,0.050671,-1.485501,324.496145,22.511093,0.999609,0.990560,0.003989,0.404735,0.000192,0.000177,0.000024,0.000210,0.000159,35.850842,0.000370,
2386,2743,2.75667331293285,2.11316174460413,-0.0139619150164094,0.002746,-0.033667,0.003010,0.101734,-1.495551,318.988681,22.915785,0.999557,0.991133,0.003885,0.472696,0.000035,0.000076,0.000031,0.000093,0.000018,61.605859,0.000119,
2041,2773,-4.74924984184744,2.7534101197349,-0.0246568117592005,0.002184,-0.032377,0.005725,0.074265,-1.429324,319.292609,22.897498,0.999066,0.989130,0.004241,0.436755,0.000037,0.000006,-0.000011,0.000040,0.000002,-17.560849,0.000048,
2176,2188,-1.72055711854135,-10.0126061306773,-0.00246112085511641,-0.000877,-0.034749,-0.004897,-0.037196,-1.583155,328.197935,22.381184,0.998996,0.946784,0.007664,0.353969,0.000529,0.000513,0.000057,0.000579,0.000463,41.187289,0.001044,
2161,2068,-2.0275093121292,-12.6466798654173,0.0170221748064137,-0.001892,-0.036738,-0.006644,-0.079009,-1.680890,330.299647,22.229775,0.999043,0.984284,0.005171,0.379716,0.000768,0.000734,0.000075,0.000828,0.000674,38.590314,0.001505,
2011,2863,-5.4128388899881,4.70719401292214,-0.0135800150181922,0.002644,-0.032235,0.007420,0.091571,-1.416363,318.129573,22.809396,0.999300,0.991385,0.004050,0.446295,0.000067,-0.000003,0.000010,0.000068,-0.000004,7.803780,0.000077,
2341,2533,1.81611536453547,-2.46701669143437,-0.0156370482780517,0.002053,-0.033427,-0.001709,0.087065,-1.505265,322.359911,22.413218,0.999180,0.984292,0.004750,0.431910,0.000108,0.000068,0.000015,0.000113,0.000062,18.478602,0.000178,
2251,2518,-0.141963036364373,-2.79611543775474,-0.0149309197089451,0.001545,-0.033369,0.000754,0.056164,-1.487994,322.667152,22.568596,0.999202,0.986156,0.004646,0.428960,0.000107,0.000075,0.000020,0.000116,0.000065,25.751520,0.000184,
2101,2983,-3.47756980932255,7.3159758863345,0.0104329605435964,0.003171,-0.032850,0.009469,0.107359,-1.438280,315.881513,22.941682,0.999542,0.992271,0.003541,0.432801,0.000030,0.000000,0.000012,0.000034,-0.000004,19.987459,0.000038,
2026,2728,-5.06779500164887,1.77363911424091,-0.0207955948263816,0.002249,-0.032424,0.007850,0.071766,-1.423384,320.143497,22.898541,0.999594,0.991463,0.003749,0.461450,0.000060,0.000014,-0.000007,0.000061,0.000013,-8.443462,0.000079,
2416,2893,3.38099983183792,5.38066537454206,-0.00965271246985822,0.003231,-0.033590,0.006085,0.112448,-1.476573,316.618278,23.471516,0.999520,0.990365,0.003846,0.420936,0.000016,0.000006,0.000002,0.000017,0.000005,10.889697,0.000023,
2086,2938,-3.79558267910588,6.33895764368594,0.0036753593402068,0.003352,-0.031856,0.003309,0.134318,-1.407983,316.658931,22.911134,0.999269,0.990533,0.003956,0.458371,0.000025,-0.000003,0.000007,0.000027,-0.000005,13.769949,0.000029,
2176,1993,-1.68710413039306,-14.2958003159605,0.0283792943555454,-0.002131,-0.038601,-0.010616,-0.078149,-1.808838,331.550172,22.014752,0.999177,0.981536,0.005359,0.292333,0.000920,0.000804,0.000032,0.000928,0.000796,14.408846,0.001726,
2086,3148,-3.82722734506122,10.8919331588082,0.0450786368367631,0.003369,-0.032212,0.010671,0.113774,-1.401847,313.561673,22.886977,0.999761,0.995142,0.002914,0.462611,0.000006,0.000027,0.000004,0.000028,0.000006,80.377198,0.000036,
2056,3028,-4.46066686095151,8.28908605971363,0.0142184860213774,0.003086,-0.032707,0.012177,0.097232,-1.429091,315.408079,22.777675,0.999320,0.991269,0.003837,0.467230,0.000028,0.000010,0.000021,0.000041,-0.000004,33.449955,0.000046,
2371,2668,2.44279589917069,0.479265783218807,-0.0221134614086509,0.001833,-0.033791,0.004623,0.054226,-1.499441,320.084634,22.737018,0.999408,0.988410,0.004379,0.436848,0.000053,0.000038,0.000027,0.000073,0.000018,37.102531,0.000096,
2266,2623,0.165838586150176,-0.505907178934834,-0.0195358805715387,0.002194,-0.034244,0.005781,0.068911,-1.495379,320.913491,22.668555,0.999361,0.987777,0.004364,0.477842,0.000060,0.000027,0.000019,0.000069,0.000019,24.359727,0.000092,
2356,2623,2.12545082078461,-0.503152323924731,-0.0159701325906099,0.001911,-0.034021,0.001988,0.067273,-1.507158,320.876509,22.614727,0.998901,0.986186,0.004724,0.439764,0.000069,0.000029,0.000031,0.000086,0.000013,28.231728,0.000107,
2491,2083,5.18339097822485,-12.3244493766611,0.00614880940048579,0.003386,-0.036728,-0.014215,0.193232,-1.725884,330.142637,20.117253,0.999153,0.978699,0.005702,0.407963,0.000880,0.000692,-0.000121,0.000939,0.000633,-26.034679,0.001582,
2221,2188,-0.737488005058612,-10.0144107549301,0.00191953142348211,0.000212,-0.034456,-0.011490,0.034043,-1.614763,328.180334,22.100860,0.998524,0.981084,0.005564,0.370506,0.000502,0.000514,0.000042,0.000550,0.000466,49.119587,0.001017,
2011,2668,-5.38493597324374,0.467633839082268,-0.026678155347156,0.001874,-0.032434,0.004496,0.063967,-1.434201,321.154111,22.910284,0.998954,0.986807,0.004487,0.482876,0.000076,-0.000001,-0.000014,0.000078,-0.000003,-9.740508,0.000088,
2431,2953,3.6946502483132,6.68645611303693,-0.0129737114821751,0.002716,-0.033698,0.007283,0.083952,-1.480930,315.602591,23.669305,0.999700,0.992565,0.003641,0.443181,0.000009,-0.000013,0.000003,0.000009,-0.000014,7.816378,0.000014,
2011,3133,-5.4502080723363,10.5620688161851,0.0328020619307381,0.003817,-0.032079,0.009368,0.140525,-1.400053,314.171714,22.596571,0.999633,0.994031,0.003171,0.446252,0.000014,0.000062,0.000013,0.000065,0.000011,76.074080,0.000082,
2146,2023,-2.34849253112604,-13.6338485433719,0.0164238783211772,-0.002893,-0.037492,-0.006808,-0.124707,-1.717425,331.026013,22.277590,0.998232,0.979447,0.005708,0.356510,0.000871,0.000748,0.000079,0.000910,0.000710,26.093344,0.001623,
2236,2488,-0.463680025268989,-3.45171243401312,-0.0145148193715841,0.001221,-0.033972,0.002211,0.036492,-1.506226,323.167146,22.524432,0.999506,0.988263,0.004246,0.439120,0.000123,0.000097,0.000025,0.000138,0.000082,31.285716,0.000223,
2041,2968,-4.77682386937091,6.98646708937031,0.00853470558269009,0.002853,-0.032150,0.007925,0.099041,-1.418451,316.427217,22.743438,0.999483,0.992277,0.003457,0.498579,0.000039,-0.000017,0.000007,0.000040,-0.000018,7.389007,0.000040,
2236,2278,-0.426851170181223,-8.04327619120725,-0.00164840284486445,0.000319,-0.034951,-0.001006,0.005132,-1.569152,326.637301,22.177252,0.998994,0.982828,0.005201,0.403953,0.000354,0.000340,0.000027,0.000375,0.000319,37.419455,0.000695,
2191,2218,-1.39708205094489,-9.35631696854391,0.000203540268330471,0.000171,-0.033944,-0.008450,0.022269,-1.553422,327.750167,22.297933,0.998546,0.979423,0.005808,0.423411,0.000470,0.000456,0.000048,0.000511,0.000415,40.928877,0.000928,
2191,2068,-1.37426589550359,-12.6467244384812,-0.00044345925982725,-0.001938,-0.037375,-0.006257,-0.082340,-1.741411,330.055690,21.959555,0.999076,0.983440,0.005391,0.400653,0.000735,0.000755,0.000061,0.000807,0.000683,49.688785,0.001492,
2326,2458,1.50243981053523,-4.10521638181149,-0.0180687071595571,0.001519,-0.033928,-0.000536,0.058360,-1.516267,323.530781,22.225883,0.999424,0.987521,0.004448,0.457257,0.000171,0.000151,0.000021,0.000185,0.000138,32.146208,0.000324,
2056,2833,-4.43195239037286,4.05795819261071,-0.013713037658647,0.002656,-0.032306,0.007252,0.091390,-1.423117,318.339826,22.921138,0.998914,0.986775,0.004519,0.406473,0.000034,0.000015,-0.000004,0.000035,0.000014,-10.392683,0.000050,
2101,3193,-3.50921807718474,11.8675857116566,0.0446854440641573,0.003697,-0.032623,0.011621,0.125372,-1.439738,312.759744,22.914530,0.999574,0.993587,0.003293,0.461460,-0.000002,0.000023,-0.000005,0.000024,-0.000004,-78.410722,0.000026,
2461,3178,4.30732067266321,11.5733644998867,0.0361949535309236,0.004097,-0.033768,0.010021,0.136446,-1.489217,312.437059,24.571274,0.999598,0.991281,0.003744,0.405497,0.000031,0.000015,0.000013,0.000039,0.000008,30.076587,0.000050,
2446,3148,3.98664380287819,10.9213240041488,0.0295122242640105,0.003803,-0.033284,0.006967,0.135029,-1.468224,312.842467,24.382274,0.999497,0.989898,0.003924,0.444915,0.000024,0.000008,0.000019,0.000036,-0.000004,33.616696,0.000039,
2146,3163,-2.5287940962105,11.2215348006227,0.0414537401380812,0.003806,-0.032789,0.010714,0.131552,-1.429817,313.028625,23.125090,0.999539,0.991250,0.003736,0.460591,0.000004,0.000020,-0.000003,0.000021,0.000003,-79.064967,0.000026,
2251,2353,-0.112361915098724,-6.4028296269833,0.00468613350835767,0.000705,-0.034383,0.001530,0.014660,-1.534304,325.459276,22.273205,0.999013,0.983993,0.005137,0.405112,0.000243,0.000257,0.000022,0.000273,0.000226,53.923854,0.000500,
2071,3118,-4.14699194564971,10.2399185874513,0.0483980858609812,0.003779,-0.032662,0.012185,0.128659,-1.424784,314.174054,22.825351,0.999724,0.993767,0.003119,0.445640,0.000016,0.000025,0.000011,0.000032,0.000008,56.591073,0.000043,
2506,2143,5.49891882316561,-11.0067580832221,0.0140637695288888,0.003309,-0.036531,-0.005889,0.158127,-1.672628,329.249033,20.402902,0.999063,0.974622,0.006092,0.338433,0.000759,0.000609,-0.000104,0.000812,0.000556,-27.087144,0.001376,
2116,3283,-3.19918346120925,13.8188613353502,0.036774105690256,0.004099,-0.032573,0.012145,0.141872,-1.439154,311.165731,23.001984,0.999702,0.995232,0.003020,0.457911,-0.000004,0.000027,-0.000022,0.000038,-0.000015,-63.159594,0.000039,
2206,2353,-1.09366419460605,-6.40300712348084,-0.00200155771091204,0.000249,-0.034279,-0.000285,0.000101,-1.531596,325.490751,22.373826,0.999628,0.988425,0.004399,0.466370,0.000261,0.000236,0.000028,0.000280,0.000218,33.189522,0.000499,
2296,2548,0.832072375148524,-2.14021321382008,-0.0184256248293764,0.001697,-0.033689,0.005178,0.047609,-1.481757,322.078798,22.527983,0.999268,0.988354,0.004390,0.451648,0.000098,0.000052,0.000018,0.000105,0.000045,19.117997,0.000154,
2026,2743,-5.07014549398179,2.09968637196508,-0.018298532038898,0.002127,-0.032623,0.009600,0.061307,-1.414829,319.910865,22.880592,0.999367,0.989921,0.004080,0.478254,0.000059,0.000010,-0.000011,0.000061,0.000008,-11.851550,0.000075,
2266,2413,0.203881005799854,-5.09062287004431,-0.00201411121275896,0.001104,-0.033994,0.000351,0.036845,-1.513567,324.430260,22.308968,0.999057,0.986148,0.004736,0.446016,0.000178,0.000202,0.000016,0.000211,0.000170,63.360134,0.000381,
2491,2098,5.18211552234433,-11.997186690489,0.0303776904834763,0.003509,-0.036864,-0.010144,0.183269,-1.735117,330.092875,20.266247,0.999468,0.983985,0.005100,0.310729,0.000843,0.000686,-0.000120,0.000908,0.000621,-28.314177,0.001538,
2221,2428,-0.778064173166086,-4.76534610273683,0.00170651364368268,0.001316,-0.032691,-0.005932,0.067541,-1.525214,324.339588,22.341401,0.999655,0.989808,0.004095,0.554707,0.000185,0.000154,0.000028,0.000201,0.000137,30.448209,0.000340,
2296,2773,0.791892894244388,2.76358240616315,-0.0213656069789749,0.002534,-0.033226,0.001887,0.097407,-1.481173,318.448877,22.995070,0.999341,0.987981,0.004329,0.441953,0.000042,0.000070,0.000013,0.000075,0.000036,68.031293,0.000114,
2071,2908,-4.11813034045178,5.68733272139941,-0.00852918952148229,0.002552,-0.032539,0.008593,0.082362,-1.423274,317.072375,22.881989,0.999476,0.991725,0.003739,0.446133,0.000035,-0.000005,0.000000,0.000035,-0.000005,-0.135959,0.000038,
2206,2098,-1.05028523203483,-11.9890160397293,0.0110725933360527,-0.000937,-0.036655,-0.005558,-0.038376,-1.690507,329.671014,21.995682,0.998968,0.980589,0.005514,0.359524,0.000673,0.000735,0.000048,0.000761,0.000647,61.344829,0.001410,
2026,2953,-5.09926484822417,6.66071413850497,0.00928378982194999,0.003212,-0.032228,0.006391,0.120282,-1.410173,316.790351,22.781137,0.999413,0.991789,0.003627,0.441611,0.000047,-0.000021,0.000011,0.000049,-0.000023,8.870673,0.000049,
2281,2518,0.511421465999003,-2.79660843522191,-0.0135570410042192,0.001703,-0.033860,0.002456,0.057228,-1.499473,322.633133,22.428807,0.999730,0.991634,0.003887,0.499772,0.000115,0.000081,0.000020,0.000124,0.000072,24.436333,0.000198,
2176,2203,-1.72237774626264,-9.68502650055244,0.00075364889607954,-0.000515,-0.034742,-0.006091,-0.016884,-1.600221,328.003975,22.368950,0.998141,0.974861,0.006146,0.363661,0.000501,0.000486,0.000056,0.000550,0.000437,41.351490,0.000989,
2026,2998,-5.10599330664482,7.63695337680671,0.0149505977661306,0.003153,-0.032081,0.007790,0.113659,-1.416761,316.098959,22.763786,0.999348,0.991837,0.003645,0.420834,0.000032,-0.000003,0.000025,0.000044,-0.000016,27.533581,0.000045,
2191,2083,-1.37617462540913,-12.3160529389979,0.00224316214746523,-0.001788,-0.036447,-0.010260,-0.062665,-1.717834,329.855557,22.141917,0.999142,0.982605,0.005405,0.259255,0.000707,0.000756,0.000061,0.000797,0.000665,55.865273,0.001465,
2116,3088,-3.16792250442638,9.59470849540218,0.0212994713232888,0.003718,-0.032321,0.005995,0.142539,-1.440051,314.224620,23.023744,0.999617,0.992821,0.003568,0.407143,0.000016,0.000012,0.000009,0.000023,0.000005,38.788878,0.000030,
2491,2113,5.17928086058213,-11.6688682709162,0.034033405957814,0.003463,-0.036558,-0.010048,0.180937,-1.710770,329.879101,20.255933,0.999478,0.983627,0.005140,0.407397,0.000812,0.000673,-0.000113,0.000875,0.000610,-29.160914,0.001492,
2461,3193,4.30433063657582,11.8980973359195,0.0389111643302158,0.003967,-0.033941,0.010823,0.127422,-1.484833,312.204939,24.560826,0.999521,0.990516,0.003829,0.473355,0.000031,0.000012,0.000011,0.000036,0.000006,24.925135,0.000046,
2311,2398,1.18958539364182,-5.42140244582247,0.0177808153600267,0.001676,-0.034503,-0.002579,0.072410,-1.552700,324.825134,22.050661,0.999248,0.986554,0.004908,0.497729,0.000217,0.000215,0.000012,0.000228,0.000203,42.693360,0.000432,
2371,2683,2.43937401980063,0.807578720899023,-0.0341046705685244,0.002259,-0.033796,0.005153,0.071935,-1.491557,319.757578,22.796983,0.999375,0.988412,0.004214,0.426423,0.000049,0.000056,0.000026,0.000078,0.000026,49.063800,0.000109,
2176,2008,-1.69103732755897,-13.9645525958086,0.0100924316434998,-0.002418,-0.038106,-0.011610,-0.088149,-1.771613,331.147082,21.968944,0.998891,0.983198,0.005311,0.392355,0.000884,0.000791,0.000055,0.000909,0.000766,24.714430,0.001677,
2056,3043,-4.46314347983026,8.61489397785916,0.0168454131074327,0.002942,-0.032551,0.014243,0.084827,-1.408197,315.172904,22.806409,0.999659,0.994285,0.003245,0.452931,0.000025,0.000004,0.000013,0.000031,-0.000002,25.522528,0.000035,
2161,2083,-2.02983914843034,-12.3161829386913,0.0152275310874188,-0.001930,-0.035926,-0.010884,-0.067554,-1.680192,330.054512,22.367970,0.999041,0.983346,0.005308,0.255494,0.000736,0.000736,0.000077,0.000813,0.000659,44.941706,0.001475,
2416,2908,3.37797896270861,5.706558504411,-0.0117993009545216,0.003319,-0.033649,0.005976,0.116804,-1.497370,316.360012,23.487492,0.999573,0.990814,0.003797,0.431419,0.000013,-0.000003,0.000003,0.000014,-0.000004,9.761755,0.000014,
2281,2728,0.473501541733903,1.78231003493133,-0.0157659570249393,0.002312,-0.034072,0.008609,0.064639,-1.483168,319.213126,22.870014,0.999662,0.991636,0.003696,0.472481,0.000047,0.000067,0.000011,0.000072,0.000042,65.824275,0.000115,
2101,2998,-3.48001011125965,7.64235980338336,0.00319139267173796,0.003309,-0.032383,0.004496,0.128473,-1.425978,315.597266,22.954598,0.999598,0.992612,0.003471,0.432687,0.000030,0.000011,0.000017,0.000040,0.000001,30.569175,0.000047,
2251,2533,-0.14556113225542,-2.46782673444964,-0.0242278154815949,0.001373,-0.033847,0.002217,0.043307,-1.504067,322.333527,22.616635,0.999571,0.991376,0.003814,0.389469,0.000097,0.000057,0.000016,0.000103,0.000051,19.601705,0.000158,
2251,2368,-0.115745600677965,-6.0727041039451,-0.00896506690958176,0.001072,-0.034309,0.003250,0.025921,-1.520303,325.113536,22.354141,0.999399,0.987344,0.004760,0.363904,0.000223,0.000255,0.000025,0.000269,0.000209,61.101361,0.000480,
2041,2788,-4.75101334794578,3.07981972712003,-0.0222018504666153,0.002534,-0.032272,0.005008,0.092450,-1.419476,319.087614,22.924541,0.999161,0.987759,0.004243,0.411924,0.000032,0.000025,-0.000008,0.000037,0.000019,-34.530918,0.000057,
2086,2953,-3.79842372371971,6.66437609771859,0.00467683135815378,0.003120,-0.032480,0.007572,0.111076,-1.430033,316.400276,22.913359,0.999259,0.991489,0.003853,0.432566,0.000029,-0.000001,0.000007,0.000031,-0.000003,11.960317,0.000034,
2236,2503,-0.466336371024052,-3.12379369895362,-0.0175767875344377,0.001429,-0.033400,0.002622,0.044947,-1.483890,322.906919,22.545522,0.999484,0.987091,0.004366,0.462986,0.000114,0.000084,0.000020,0.000124,0.000074,26.202378,0.000200,
2131,3103,-2.8446236536637,9.91972422133668,0.0361853221618844,0.003449,-0.032675,0.009131,0.120345,-1.437845,314.016037,23.044968,0.999776,0.995581,0.003027,0.448177,0.000006,0.000010,0.000003,0.000012,0.000004,59.601956,0.000017,
2191,2233,-1.39979125213874,-9.02799453226542,0.00293656723312097,-0.000043,-0.034286,-0.006072,0.004945,-1.561856,327.514043,22.350189,0.998608,0.981397,0.005533,0.379822,0.000440,0.000421,0.000043,0.000475,0.000387,38.848039,0.000863,
2011,3148,-5.45233156969885,10.8859453662799,0.037918869821965,0.003733,-0.032350,0.009932,0.134980,-1.418826,313.964821,22.526222,0.999601,0.993441,0.003401,0.485005,0.000006,0.000066,0.000003,0.000066,0.000006,87.319422,0.000080,
2281,2533,0.509349116597917,-2.4703234166772,-0.00918565002251626,0.001875,-0.033655,0.000645,0.071249,-1.509858,322.441053,22.409985,0.999658,0.992240,0.003714,0.536763,0.000104,0.000060,0.000015,0.000109,0.000055,17.281872,0.000167,
2506,2158,5.49570163342847,-10.6774495742319,0.0144114789785021,0.002979,-0.035824,-0.008324,0.152726,-1.666006,329.003924,20.482097,0.999248,0.976509,0.005707,0.329709,0.000729,0.000598,-0.000125,0.000804,0.000523,-31.143677,0.001337,
2086,3163,-3.83018085570709,11.2176271149781,0.0352028073531869,0.003449,-0.032514,0.010335,0.118232,-1.432444,313.238494,22.910129,0.999802,0.995260,0.002926,0.406739,-0.000001,0.000040,-0.000001,0.000040,-0.000001,-89.172668,0.000045,
2011,2878,-5.41511386882494,5.03335219216572,-0.0105278087773968,0.002604,-0.032032,0.009920,0.083043,-1.398396,317.902650,22.833381,0.998968,0.990145,0.004184,0.427720,0.000075,0.000002,0.000008,0.000076,0.000002,6.258502,0.000088,
2236,2293,-0.42993406253257,-7.71450261821151,-0.00736564001454099,0.000114,-0.034186,-0.002856,0.002008,-1.552114,326.344350,22.181235,0.999001,0.984116,0.004935,0.440541,0.000330,0.000319,0.000035,0.000359,0.000289,40.730872,0.000650,
2491,2128,5.17653633366963,-11.3404033124137,0.0397305588620611,0.003387,-0.036594,-0.009406,0.175015,-1.681868,329.678509,20.281432,0.999495,0.986882,0.004795,0.472588,0.000785,0.000653,-0.000108,0.000845,0.000593,-29.320339,0.001445,
2026,2968,-5.10146382162018,6.98581025998912,0.0107379205551865,0.003208,-0.032143,0.005999,0.121109,-1.421380,316.559568,22.748311,0.999425,0.991653,0.003587,0.452956,0.000045,-0.000023,0.000012,0.000047,-0.000025,9.301779,0.000047,
2041,2983,-4.77877313144137,7.3123629898528,0.0122489603446638,0.003132,-0.032275,0.009894,0.106382,-1.421699,316.221196,22.796077,0.999304,0.991160,0.003758,0.434310,0.000029,-0.000021,0.000013,0.000032,-0.000024,13.786788,0.000034,
2446,3163,3.98428230789015,11.2469537449523,0.0345191809149128,0.004103,-0.033301,0.007866,0.145509,-1.462078,312.648804,24.459481,0.999521,0.990294,0.004030,0.424748,0.000026,0.000013,0.000016,0.000037,0.000002,33.935360,0.000044,
2206,2368,-1.09591613419666,-6.07402937475816,-0.00682372720262947,0.000873,-0.033972,-0.000557,0.029704,-1.510603,325.237371,22.428107,0.999482,0.987266,0.004533,0.451752,0.000240,0.000238,0.000029,0.000268,0.000210,44.098406,0.000480,
2296,2563,0.830294641979222,-1.81336762686175,-0.0111040435855898,0.001997,-0.033821,0.003640,0.066536,-1.485540,321.915665,22.589424,0.998835,0.986409,0.004989,0.417228,0.000085,0.000049,0.000018,0.000092,0.000042,22.497455,0.000137,
2401,2878,3.05654230575656,5.05440832873438,-0.0193196250829146,0.002932,-0.033348,0.005244,0.102181,-1.461421,316.754810,23.401974,0.999463,0.991242,0.003714,0.434121,0.000011,0.000012,0.000000,0.000012,0.000011,-87.132335,0.000023,
2116,3298,-3.20178253163954,14.1442109724029,0.0312234774087869,0.004249,-0.032241,0.010547,0.153701,-1.420759,310.884982,23.009211,0.999605,0.993350,0.003425,0.471265,-0.000004,0.000052,-0.000027,0.000063,-0.000015,-67.721126,0.000066,
2056,3058,-4.46522474339556,8.94022772898946,0.0163594742900841,0.003088,-0.032650,0.011472,0.099374,-1.420442,314.938894,22.807902,0.999473,0.992822,0.003520,0.433010,0.000025,0.000007,0.000014,0.000033,-0.000001,29.549102,0.000038,
2311,2413,1.18551782924109,-5.09136844525457,0.0031958502568159,0.001603,-0.034104,-0.000657,0.062661,-1.536262,324.450156,22.129933,0.999343,0.987298,0.004679,0.469257,0.000197,0.000196,0.000009,0.000206,0.000187,43.335664,0.000393,
2041,2803,-4.75325599744142,3.40539289026103,-0.0208201516296072,0.002576,-0.032363,0.006046,0.091463,-1.425394,318.855043,22.886418,0.999265,0.989894,0.003935,0.436579,0.000036,0.000025,-0.000002,0.000036,0.000025,-7.707607,0.000061,
2266,2428,0.201043338480705,-4.76157282682239,-0.0077749919602752,0.001286,-0.033342,-0.000639,0.048719,-1.485396,324.150765,22.376318,0.999240,0.987250,0.004525,0.434326,0.000170,0.000178,0.000019,0.000193,0.000155,50.897681,0.000348,
2116,3103,-3.16975533327634,9.91907044737625,0.0334450625734917,0.003800,-0.032835,0.009560,0.135655,-1.437325,314.074776,23.013392,0.999792,0.995405,0.003064,0.422564,0.000012,0.000010,0.000006,0.000018,0.000005,41.040135,0.000024,
2356,2638,2.12334805834117,-0.176254990223804,-0.00886187188234544,0.002250,-0.033931,0.003919,0.076075,-1.508773,320.700948,22.698658,0.999085,0.986542,0.004640,0.393559,0.000060,0.000032,0.000026,0.000075,0.000017,30.743208,0.000097,
2101,3208,-3.51095835283171,12.193017769616,0.050246790981987,0.003990,-0.032584,0.010487,0.142222,-1.438987,312.577510,22.985646,0.999556,0.993278,0.003377,0.391235,-0.000005,0.000016,-0.000009,0.000019,-0.000009,-69.208393,0.000019,
2431,2968,3.69189798950707,7.01198162877554,-0.0118895748795467,0.002775,-0.033673,0.006412,0.089895,-1.488304,315.372688,23.678266,0.999810,0.994805,0.003222,0.476235,0.000002,0.000001,0.000006,0.000007,-0.000005,42.251609,0.000008,
2026,3013,-5.10840850859004,7.96315772161634,0.0135845416983216,0.003091,-0.031975,0.007077,0.112828,-1.414718,315.842148,22.812408,0.999514,0.993068,0.003525,0.363867,0.000029,0.000007,0.000035,0.000055,-0.000019,36.225360,0.000056,
2146,2038,-2.35057675987122,-13.3034211360128,0.00753876124923636,-0.002295,-0.036728,-0.011682,-0.082369,-1.713823,330.753334,22.309802,0.998782,0.981882,0.005404,0.339371,0.000836,0.000732,0.000074,0.000875,0.000694,27.470272,0.001572,
2056,2848,-4.43389124034238,4.38356806672241,-0.0154389490970743,0.003024,-0.032322,0.005026,0.114622,-1.432025,318.105162,22.878609,0.999256,0.989949,0.004012,0.434735,0.000035,0.000008,-0.000001,0.000035,0.000008,-1.209314,0.000045,
2071,2923,-4.11958120986647,6.01216953254092,-0.00212809185256901,0.002898,-0.032664,0.005761,0.106382,-1.431942,316.906153,22.848003,0.999388,0.991029,0.003833,0.467800,0.000034,-0.000007,0.000003,0.000034,-0.000007,3.793341,0.000036,
2071,3133,-4.14965925964527,10.5652296620733,0.0413550291171418,0.003795,-0.032591,0.009651,0.136596,-1.441627,313.878329,22.807199,0.999534,0.993657,0.003174,0.442638,0.000012,0.000027,0.000006,0.000030,0.000010,69.743156,0.000041,
2236,2518,-0.469334488708114,-2.79571546940831,-0.0214927712539179,0.001241,-0.033354,0.001309,0.040550,-1.481835,322.626682,22.599089,0.999431,0.987465,0.004326,0.433675,0.000108,0.000075,0.000023,0.000120,0.000063,27.478091,0.000186,
2011,3163,-5.45421339172502,11.2109592052093,0.0468500721875102,0.003562,-0.032193,0.008687,0.130489,-1.417599,313.790070,22.566659,0.999503,0.993521,0.003439,0.432369,-0.000004,0.000079,-0.000010,0.000080,-0.000005,-83.438088,0.000090,
2296,2788,0.789323394419018,3.09003760648847,-0.0182504121859779,0.002669,-0.033183,0.004511,0.094820,-1.456316,318.228043,23.021153,0.999320,0.988875,0.004190,0.470726,0.000041,0.000064,0.000012,0.000069,0.000036,67.043747,0.000107,
2101,3013,-3.48229637784946,7.96669294886297,0.0120142030088459,0.003300,-0.032630,0.010897,0.109154,-1.438573,315.407878,22.916611,0.999391,0.991511,0.003623,0.458442,0.000033,0.000016,0.000018,0.000044,0.000004,32.130504,0.000054,
2026,3238,-5.13972944516556,12.8354555922495,0.0634665756786035,0.003875,-0.032236,0.009222,0.143041,-1.419047,312.619630,22.563156,0.999601,0.994571,0.003055,0.445504,0.000004,0.000071,-0.000036,0.000087,-0.000012,-66.522234,0.000094,
2176,2023,-1.69310994504549,-13.6353962921873,0.0184866158083992,-0.002397,-0.037645,-0.008776,-0.095770,-1.719126,330.968074,22.026730,0.998053,0.983098,0.005529,0.402639,0.000853,0.000786,0.000063,0.000891,0.000748,31.137265,0.001641,
2446,3178,3.98104017383006,11.5727107979776,0.0321965688003729,0.004031,-0.033511,0.007657,0.142869,-1.480319,312.380554,24.532534,0.999593,0.991075,0.003765,0.384326,0.000027,0.000018,0.000012,0.000035,0.000010,35.124515,0.000047,
2191,2098,-1.37925524102741,-11.98760523268,-0.00954141748616166,-0.001412,-0.036357,-0.008019,-0.052438,-1.683202,329.527202,21.957331,0.999233,0.985381,0.005202,0.496944,0.000680,0.000727,0.000060,0.000768,0.000640,55.786215,0.001409,
2326,2473,1.50037767373209,-3.77854735914595,-0.0109319659409266,0.001485,-0.033602,-0.003323,0.066517,-1.523178,323.355869,22.247118,0.999372,0.987076,0.004414,0.464505,0.000159,0.000128,0.000020,0.000169,0.000118,26.233496,0.000289,
2026,2983,-5.10406748660441,7.31147995173413,0.00864962668566704,0.003106,-0.032109,0.007141,0.113287,-1.422599,316.290238,22.737988,0.999259,0.991233,0.003802,0.451631,0.000034,-0.000029,0.000017,0.000038,-0.000033,13.844505,0.000041,
2041,2998,-4.78092354757791,7.63765158926258,0.0155747335784326,0.003083,-0.032588,0.009361,0.105529,-1.431171,316.004044,22.800089,0.999181,0.989329,0.004042,0.412645,0.000029,0.000001,0.000019,0.000038,-0.000009,27.120033,0.000040,
2146,3178,-2.53101768256279,11.5462517851835,0.0475762976811893,0.003877,-0.032802,0.013361,0.126798,-1.425782,312.829984,23.124803,0.999465,0.990382,0.003764,0.471595,0.000005,0.000016,-0.000006,0.000019,0.000002,-67.194843,0.000023,
2341,2548,1.81319767259021,-2.14019600412217,-0.0110792447334234,0.001865,-0.033702,0.001783,0.066194,-1.493180,322.133901,22.428345,0.998931,0.982160,0.005077,0.466455,0.000101,0.000056,0.000019,0.000108,0.000049,19.786539,0.000161,
2221,2443,-0.780748707449593,-4.43575138001076,-0.0032843959455704,0.001950,-0.033920,-0.000785,0.079775,-1.529621,324.066765,22.502641,0.999224,0.987122,0.004608,0.409555,0.000170,0.000144,0.000030,0.000190,0.000124,33.296672,0.000317,
2386,2758,2.75276972749163,2.44062652564092,-0.0202999232894854,0.002552,-0.033784,0.007001,0.078472,-1.490087,318.667761,22.971649,0.999289,0.987955,0.004265,0.466017,0.000034,0.000072,0.000031,0.000089,0.000017,60.719683,0.000114,
2041,2818,-4.75551526012221,3.73090138927068,-0.0162116531010383,0.002437,-0.032469,0.007550,0.080850,-1.412534,318.639619,22.852435,0.999138,0.990005,0.004039,0.475542,0.000034,0.000021,-0.000002,0.000034,0.000021,-8.962993,0.000055,
2371,2698,2.43701005509226,1.13330582392562,-0.0276300288844027,0.002194,-0.033704,0.004376,0.071733,-1.486143,319.567947,22.779264,0.999270,0.989442,0.003990,0.490891,0.000047,0.000061,0.000024,0.000079,0.000029,52.600455,0.000112,
2236,2308,-0.432022047969856,-7.38574208702805,-0.0108554392634801,0.000830,-0.034190,-0.003648,0.037391,-1.546338,326.108275,22.223269,0.998582,0.983515,0.005130,0.427399,0.000307,0.000296,0.000038,0.000339,0.000263,40.945445,0.000604,
2011,2893,-5.41719021961738,5.35858324470223,-0.00732828455664958,0.002566,-0.032195,0.009211,0.083097,-1.419673,317.686073,22.816177,0.999208,0.992097,0.003690,0.411598,0.000067,-0.000014,0.000009,0.000068,-0.000015,6.385267,0.000071,
2266,2638,0.163309633358601,-0.178782266277103,-0.018832445368048,0.002291,-0.033927,0.005716,0.073667,-1.490380,320.680541,22.711583,0.999233,0.986792,0.004430,0.465758,0.000056,0.000029,0.000014,0.000062,0.000023,23.626210,0.000088,
2221,2203,-0.740521381180042,-9.68567526656255,-0.00212863261629082,-0.000009,-0.034189,-0.012100,0.025943,-1.600118,327.896931,22.087077,0.998860,0.982723,0.005252,0.420657,0.000478,0.000485,0.000039,0.000521,0.000443,47.317523,0.000964,
2401,2893,3.05448742844755,5.3797179460575,-0.0105857293349345,0.003082,-0.033385,0.004981,0.110010,-1.469437,316.591337,23.426619,0.999502,0.990867,0.003817,0.446493,0.000011,0.000007,0.000002,0.000012,0.000007,18.383950,0.000019,
2056,3073,-4.46701091319451,9.2645170091381,0.0200263091399506,0.003253,-0.032545,0.008359,0.115815,-1.417725,314.741753,22.729152,0.999351,0.991441,0.003906,0.508340,0.000020,0.000015,0.000016,0.000034,0.000001,40.911083,0.000041,
2491,2143,5.17130168015089,-11.0077833261611,0.0246590934548294,0.003012,-0.037065,-0.003829,0.136380,-1.652214,329.270226,20.467077,0.999004,0.979714,0.005666,0.379423,0.000748,0.000633,-0.000109,0.000814,0.000567,-31.153230,0.001389,
2206,2113,-1.05280255846009,-11.6601941468018,0.00996705523124319,-0.000983,-0.036223,-0.007579,-0.033968,-1.679342,329.425078,21.990598,0.998835,0.981946,0.005232,0.395489,0.000646,0.000696,0.000047,0.000724,0.000618,58.845456,0.001343,
2026,3253,-5.14305536836155,13.1612810995598,0.0499023972305395,0.003646,-0.031847,0.008098,0.135630,-1.414926,312.253207,22.567505,0.999837,0.995765,0.002746,0.434050,0.000012,0.000078,-0.000045,0.000101,-0.000011,-62.903832,0.000111,
2011,3178,-5.45613702175436,11.5355445860969,0.0492968036015213,0.003756,-0.032162,0.007817,0.141790,-1.429815,313.577095,22.545127,0.999729,0.995394,0.002786,0.428590,0.000000,0.000078,-0.000011,0.000079,-0.000001,-82.175317,0.000091,
2131,3118,-2.84719725273181,10.2457638989727,0.0287376395307319,0.003671,-0.032280,0.006268,0.139288,-1.433074,313.727328,23.067596,0.999726,0.995177,0.003118,0.434925,0.000007,0.000012,0.000001,0.000012,0.000007,84.591783,0.000019,
2251,2548,-0.147644945838721,-2.14142390612089,-0.0200181601870213,0.001658,-0.033698,0.002576,0.055301,-1.489562,322.137865,22.587140,0.999678,0.993307,0.003533,0.457731,0.000090,0.000049,0.000018,0.000097,0.000042,20.918221,0.000142,
2311,2428,1.18176329169641,-4.7613699045796,-0.00933523665952407,0.001553,-0.033772,-0.000593,0.060289,-1.524287,324.099548,22.236809,0.999580,0.989639,0.004183,0.408536,0.000188,0.000173,0.000010,0.000193,0.000168,27.126599,0.000361,
2131,1993,-2.67216808133337,-14.2924435323564,0.0168098940446271,-0.004300,-0.038100,-0.009698,-0.180831,-1.778722,331.513456,22.362508,0.998724,0.979152,0.005684,0.293229,0.000947,0.000743,0.000069,0.000968,0.000721,17.137338,0.001695,
2101,3223,-3.51298530448942,12.5171196428523,0.055292388714463,0.004159,-0.032766,0.011395,0.147250,-1.453825,312.379854,22.949835,0.999568,0.993373,0.003370,0.412078,-0.000007,0.000013,-0.000013,0.000020,-0.000014,-63.217673,0.000020,
2296,2578,0.827637782519744,-1.48581801181306,-0.0145164805949776,0.002066,-0.033399,0.000155,0.081662,-1.482412,321.658854,22.618548,0.999244,0.988396,0.004388,0.422153,0.000085,0.000054,0.000020,0.000095,0.000045,26.170241,0.000143,
2146,2053,-2.35302204745885,-12.9756493753516,0.0161729349932784,-0.002633,-0.037061,-0.007619,-0.110267,-1.690759,330.556896,22.283097,0.998884,0.981835,0.005251,0.400238,0.000800,0.000729,0.000077,0.000849,0.000680,32.493539,0.001532,
2056,2863,-4.43589165395993,4.70870464729724,-0.00744932723074498,0.002841,-0.032384,0.004538,0.107539,-1.440987,317.921441,22.869213,0.999260,0.990186,0.004023,0.429415,0.000036,0.000010,0.000000,0.000036,0.000009,0.832635,0.000047,
2176,2218,-1.72492135968854,-9.35576046237029,-0.00193637862111018,-0.000396,-0.034307,-0.006242,-0.010838,-1.569814,327.745643,22.406810,0.998517,0.978572,0.005722,0.371172,0.000470,0.000448,0.000050,0.000511,0.000408,38.882688,0.000921,
2281,2743,0.471214925884016,2.10910506928754,-0.0162538505455814,0.002714,-0.033829,0.007779,0.085941,-1.484747,318.986342,22.911502,0.999380,0.988949,0.004115,0.457265,0.000044,0.000069,0.000010,0.000073,0.000040,70.281341,0.000114,
2191,2248,-1.40228102969307,-8.700478988508,0.00203623738116221,-0.000073,-0.034558,-0.007785,0.008819,-1.607604,327.269429,22.333468,0.998298,0.982196,0.005524,0.367504,0.000411,0.000393,0.000040,0.000442,0.000361,38.658923,0.000805,
2461,3208,4.30142197189486,12.2242653273838,0.0382373816041763,0.004061,-0.033304,0.009947,0.135326,-1.464716,311.960462,24.650853,0.999419,0.988305,0.004186,0.456843,0.000034,0.000014,0.000005,0.000035,0.000013,14.126770,0.000050,
2086,3178,-3.83152527528884,11.5407487942428,0.0489531326944643,0.003755,-0.032698,0.011744,0.128266,-1.429396,313.119153,22.808265,0.999694,0.995109,0.002947,0.509480,-0.000002,0.000035,-0.000002,0.000035,-0.000002,-86.700298,0.000039,
2236,2323,-0.435015925175303,-7.05760142351055,-0.0134425650743992,0.000746,-0.034132,-0.001972,0.028141,-1.535366,325.835366,22.218205,0.998242,0.985830,0.005024,0.466635,0.000287,0.000269,0.000031,0.000310,0.000246,37.153509,0.000557,
2326,2488,1.49777766871902,-3.45085397055342,-0.00865085830344015,0.001588,-0.033550,-0.002120,0.067150,-1.502557,323.132272,22.294191,0.999375,0.986734,0.004400,0.473615,0.000145,0.000111,0.000018,0.000152,0.000103,23.083639,0.000257,
2011,3193,-5.4583788176984,11.8604651081567,0.0474530562273685,0.003933,-0.032218,0.007677,0.150338,-1.428863,313.325247,22.519682,0.999719,0.995320,0.002758,0.441861,0.000004,0.000081,-0.000014,0.000083,0.000002,-80.088373,0.000097,
2086,2968,-3.80084511395157,6.98958282242089,0.00973476580327315,0.002821,-0.032568,0.008169,0.095554,-1.429240,316.183025,22.905405,0.999268,0.991058,0.003854,0.439488,0.000031,-0.000002,0.000007,0.000033,-0.000003,10.814718,0.000036,
2296,2803,0.78606390164153,3.41750473869536,-0.0265284594592003,0.002598,-0.033114,0.002215,0.099359,-1.452084,317.918742,23.077231,0.999240,0.987731,0.004320,0.449016,0.000039,0.000058,0.000011,0.000063,0.000034,65.597858,0.000098,
2056,1993,-4.30926918153388,-14.2902529546784,0.0134151990994837,-0.005406,-0.037376,-0.012077,-0.225682,-1.759073,331.798105,22.845850,0.998359,0.979041,0.005854,0.357143,0.001037,0.000660,0.000114,0.001069,0.000628,15.544928,0.001716,
2071,3148,-4.15228014124747,10.8903948010546,0.0448693581206498,0.003476,-0.032358,0.011520,0.116687,-1.410731,313.642753,22.797149,0.999697,0.995580,0.002856,0.479162,0.000008,0.000032,0.000003,0.000032,0.000007,82.837154,0.000042,
2206,2128,-1.05518889573832,-11.3306235602457,0.00881804291020671,-0.000851,-0.035500,-0.009032,-0.023072,-1.640706,329.184638,22.031432,0.998761,0.980983,0.005415,0.413313,0.000618,0.000667,0.000048,0.000697,0.000588,58.522907,0.001287,
2506,2173,5.49300378633999,-10.348747102377,0.016574580596,0.003269,-0.035496,-0.007719,0.163792,-1.633872,328.790550,20.504902,0.998776,0.975038,0.005994,0.402977,0.000678,0.000579,-0.000132,0.000770,0.000488,-34.645733,0.001268,
2491,2158,5.16772978516772,-10.6778602318034,0.0160928901001398,0.002852,-0.036093,-0.008606,0.147740,-1.657697,328.967622,20.518339,0.999095,0.978049,0.005750,0.384630,0.000721,0.000610,-0.000124,0.000802,0.000529,-33.017055,0.001340,
2161,2098,-2.03182892130283,-11.9878831593489,0.0147641034852768,-0.001372,-0.035784,-0.009769,-0.045349,-1.662508,329.832122,22.309232,0.999334,0.983840,0.005213,0.345206,0.000705,0.000709,0.000077,0.000784,0.000631,45.641763,0.001417,
2401,2908,3.05152395607462,5.7064700220895,-0.0108052447224054,0.003130,-0.033539,0.005844,0.109005,-1.482779,316.343373,23.527979,0.999536,0.990438,0.003897,0.376839,0.000008,-0.000002,0.000003,0.000009,-0.000002,13.772562,0.000009,
2116,3118,-3.17235256774456,10.24440526151,0.0298052003738576,0.003724,-0.032451,0.006715,0.140733,-1.432090,313.804444,22.994238,0.999768,0.995450,0.002980,0.449433,0.000011,0.000014,0.000003,0.000016,0.000009,58.655815,0.000025,
2386,2773,2.75008546872131,2.7669782903638,-0.0173767679252705,0.002653,-0.033917,0.008520,0.077578,-1.492885,318.447088,23.011247,0.999286,0.987654,0.004316,0.466985,0.000028,0.000065,0.000024,0.000077,0.000016,63.414380,0.000099,
2041,3073,-4.79122540941692,9.26258133655363,0.0318864739657556,0.003576,-0.032649,0.010693,0.124579,-1.426785,314.938039,22.681352,0.999402,0.991662,0.003808,0.493709,0.000021,0.000016,0.000020,0.000039,-0.000002,41.124905,0.000044,
2341,2563,1.81028812059003,-1.81231132326242,-0.0137658974191481,0.001978,-0.033930,0.001784,0.071297,-1.496560,321.872942,22.496743,0.998909,0.984613,0.004855,0.432117,0.000091,0.000051,0.000023,0.000101,0.000040,24.421479,0.000146,
2041,3013,-4.78381943510286,7.96437042428669,0.0104775035492821,0.002844,-0.032221,0.009487,0.094299,-1.407935,315.705371,22.850269,0.999397,0.991222,0.003845,0.377223,0.000028,0.000008,0.000026,0.000046,-0.000010,34.363411,0.000049,
2251,2383,-0.118393296653782,-5.74715150490712,-0.00825412930953462,0.000874,-0.034509,0.001502,0.022493,-1.534149,324.874920,22.189910,0.999087,0.985608,0.004885,0.539130,0.000208,0.000235,0.000027,0.000252,0.000191,58.570682,0.000444,
2071,2938,-4.12116288337823,6.33789898913145,0.000906513988979896,0.003375,-0.032375,0.003698,0.134310,-1.429927,316.715176,22.864965,0.999406,0.990128,0.003870,0.449068,0.000033,-0.000007,0.000007,0.000034,-0.000008,9.084523,0.000036,
2146,3193,-2.53344771781933,11.8717382094275,0.0434784968505824,0.003959,-0.032650,0.009022,0.143725,-1.443741,312.567185,23.160308,0.999525,0.992286,0.003453,0.424762,0.000003,0.000011,-0.000009,0.000017,-0.000003,-56.755633,0.000018,
2221,2458,-0.784148603201718,-4.10774647381292,-0.00510975833128668,0.001163,-0.033384,-0.002274,0.048610,-1.500962,323.777550,22.520609,0.999064,0.984119,0.005063,0.440685,0.000157,0.000123,0.000031,0.000175,0.000105,30.547844,0.000283,
2206,2383,-1.09913871290313,-5.74586327040949,-0.0109722812459268,0.000527,-0.033868,-0.000105,0.012398,-1.517652,324.943262,22.448527,0.999237,0.985618,0.004651,0.442897,0.000222,0.000220,0.000028,0.000249,0.000193,43.970451,0.000443,
2011,2908,-5.41879914096544,5.68386286228493,-0.000817474579832833,0.002741,-0.032221,0.007482,0.095898,-1.414663,317.509492,22.804833,0.999227,0.991982,0.003654,0.415332,0.000059,-0.000021,0.000009,0.000060,-0.000022,5.985902,0.000061,
2131,3133,-2.84972514254066,10.5705308096902,0.0343307687429046,0.003408,-0.032549,0.008306,0.120897,-1.445337,313.511013,23.075190,0.999646,0.994568,0.003189,0.419400,0.000010,0.000013,0.000000,0.000013,0.000010,-82.221543,0.000023,
2266,2653,0.160751178182302,0.14982245527306,-0.0243355450070908,0.002639,-0.033303,0.003232,0.098121,-1.475563,320.414640,22.833048,0.999493,0.989248,0.004162,0.385374,0.000054,0.000035,0.000016,0.000063,0.000026,28.830135,0.000091,
2011,3208,-5.46023838111512,12.1854094175492,0.0475886313540173,0.004334,-0.032183,0.006815,0.171269,-1.423829,313.102099,22.507849,0.999608,0.993224,0.003257,0.445318,0.000004,0.000076,-0.000022,0.000082,-0.000002,-74.228779,0.000094,
2176,2038,-1.69513884366048,-13.304902596311,0.0155869874419068,-0.001842,-0.037255,-0.010169,-0.065929,-1.725914,330.732390,22.142919,0.998663,0.983944,0.005192,0.295405,0.000823,0.000768,0.000058,0.000860,0.000731,32.539486,0.001593,
2026,3268,-5.14602155554435,13.486133616508,0.0411595480800315,0.003802,-0.032139,0.012188,0.131505,-1.416070,311.930698,22.519643,0.999817,0.996232,0.002701,0.469658,0.000022,0.000065,-0.000049,0.000097,-0.000010,-56.877577,0.000107,
2056,3088,-4.46911804131423,9.58984999355965,0.0243783936405748,0.003337,-0.032691,0.009758,0.115597,-1.442136,314.533338,22.781286,0.999352,0.991911,0.003692,0.425126,0.000016,0.000018,0.000017,0.000034,0.000000,47.171013,0.000040,
2431,2983,3.69023421905653,7.3366380518605,0.00413599841539281,0.003041,-0.033892,0.009594,0.090298,-1.483009,315.262580,23.700845,0.999646,0.990894,0.003776,0.508106,0.000001,0.000002,0.000012,0.000014,-0.000010,46.344458,0.000014,
2371,2713,2.43432800105144,1.46084815650728,-0.0306718841637235,0.002313,-0.033442,0.000431,0.091356,-1.486858,319.317738,22.860825,0.999413,0.990316,0.003888,0.450028,0.000041,0.000069,0.000028,0.000086,0.000024,58.424159,0.000115,
2026,3028,-5.10972535879526,8.28692609579061,0.0203077319157501,0.003650,-0.032346,0.006518,0.140079,-1.423248,315.681850,22.705410,0.999496,0.991639,0.003803,0.451899,0.000027,0.000010,0.000032,0.000052,-0.000015,37.592279,0.000054,
2356,2653,2.11988486453606,0.151315168202764,-0.0170263141662872,0.002152,-0.033648,0.002554,0.076496,-1.497386,320.389150,22.707007,0.999217,0.986698,0.004678,0.436235,0.000048,0.000036,0.000028,0.000071,0.000013,38.751348,0.000090,
2191,2113,-1.37982601585867,-11.6591632577349,0.00829147650472351,-0.000821,-0.035997,-0.009905,-0.019324,-1.684543,329.467053,22.137096,0.998816,0.981453,0.005488,0.332409,0.000654,0.000690,0.000059,0.000733,0.000611,53.497671,0.001346,
2296,2593,0.826109387590868,-1.16002245648071,-0.00190093506893163,0.002368,-0.033083,0.000654,0.093934,-1.473179,321.533505,22.624770,0.999589,0.991098,0.003778,0.455428,0.000084,0.000042,0.000019,0.000091,0.000035,21.418885,0.000130,
2086,2983,-3.80319922244052,7.31479122848339,0.00902719662377649,0.002963,-0.032884,0.008881,0.099909,-1.443229,315.937463,22.876252,0.999390,0.992211,0.003656,0.453146,0.000026,-0.000004,0.000011,0.000030,-0.000007,17.892280,0.000031,
2221,2218,-0.743289449051726,-9.35694533824092,0.00279462948134324,-0.000252,-0.034746,-0.007981,0.001447,-1.599359,327.671554,22.185771,0.998917,0.981714,0.005217,0.344031,0.000454,0.000449,0.000037,0.000489,0.000414,43.171662,0.000904,
2236,2533,-0.471004037796046,-2.4694066394262,-0.0100569697069091,0.001378,-0.033396,0.001267,0.046942,-1.496263,322.485866,22.649520,0.999664,0.991094,0.003791,0.390422,0.000100,0.000064,0.000020,0.000109,0.000055,23.605148,0.000167,
2266,2443,0.198317085771667,-4.4337578569915,-0.00713024961970632,0.001045,-0.033824,-0.002658,0.044082,-1.544223,323.909020,22.483179,0.999589,0.988693,0.004294,0.295280,0.000156,0.000164,0.000023,0.000184,0.000137,49.962281,0.000321,
2041,3028,-4.78563022358995,8.28809077702996,0.0159638538237346,0.003056,-0.032494,0.009817,0.103069,-1.420490,315.516415,22.735284,0.999480,0.991459,0.003864,0.471424,0.000026,0.000009,0.000023,0.000042,-0.000008,34.823263,0.000045,
2056,2878,-4.43851811585478,5.03459963006302,-0.00789655598384797,0.002639,-0.032345,0.005413,0.095770,-1.435054,317.662233,22.855988,0.999082,0.989167,0.004298,0.442881,0.000043,0.000017,0.000000,0.000043,0.000017,-0.539411,0.000062,
2446,3193,3.9783637867182,11.8973992035832,0.0386986517750643,0.003895,-0.033692,0.008599,0.133011,-1.490009,312.179460,24.554375,0.999620,0.991108,0.003702,0.403530,0.000027,0.000016,0.000009,0.000032,0.000010,29.506355,0.000044,
2056,3148,-4.47688099582894,10.889336975433,0.0436078818754027,0.003831,-0.032313,0.008649,0.141629,-1.433468,313.741121,22.758490,0.999452,0.993149,0.003355,0.430796,0.000002,0.000040,0.000004,0.000040,0.000002,84.116250,0.000047,
2056,2008,-4.31096602582614,-13.9613114710842,0.0214331426180934,-0.005111,-0.037279,-0.007955,-0.223725,-1.731323,331.626154,22.896938,0.998402,0.980258,0.005817,0.331741,0.001001,0.000687,0.000133,0.001050,0.000638,20.111225,0.001704,
2281,2548,0.505855027179244,-2.14043950476783,-0.0185052993100498,0.001953,-0.033663,0.002996,0.066978,-1.496540,322.114637,22.580174,0.999452,0.989327,0.004149,0.408902,0.000098,0.000051,0.000019,0.000105,0.000044,19.783831,0.000153,
2041,3088,-4.79399644361954,9.58964242574276,0.0211293882691166,0.003530,-0.032159,0.006080,0.135429,-1.421911,314.613589,22.766137,0.999576,0.993778,0.003278,0.405051,0.000017,0.000017,0.000021,0.000038,-0.000004,44.719904,0.000042,
2071,2953,-4.12400740939098,6.6635738523934,0.000793442508324915,0.003179,-0.032651,0.007930,0.113088,-1.440352,316.449084,22.871251,0.999204,0.990851,0.003896,0.428612,0.000038,-0.000006,0.000006,0.000039,-0.000007,8.285339,0.000042,
2101,3028,-3.48471427805258,8.29224037793482,0.0132012868163542,0.003172,-0.032408,0.009783,0.106518,-1.441726,315.170650,22.933048,0.999338,0.991406,0.003657,0.439289,0.000030,0.000014,0.000016,0.000040,0.000004,32.078298,0.000049,
2326,2503,1.49397575968189,-3.12212578575098,-0.0142671310855462,0.001302,-0.033921,0.001848,0.040210,-1.502137,322.814828,22.389211,0.999375,0.986829,0.004325,0.414680,0.000130,0.000100,0.000013,0.000135,0.000095,20.250890,0.000231,
2461,3223,4.29792620750592,12.5500367647437,0.0306522656375137,0.003905,-0.033392,0.006234,0.142122,-1.480641,311.657227,24.704664,0.999489,0.990872,0.003810,0.440056,0.000032,0.000003,0.000001,0.000032,0.000003,1.561500,0.000039,
2101,3238,-3.51566040454656,12.8421593987518,0.050071259880383,0.004228,-0.032716,0.010577,0.152898,-1.445833,312.096341,22.922721,0.999614,0.993830,0.003232,0.447059,-0.000009,0.000018,-0.000015,0.000025,-0.000016,-66.576803,0.000025,
2506,2188,5.48888222237981,-10.0188155712798,0.0132966398816166,0.002817,-0.035822,-0.004669,0.131270,-1.605287,328.487485,20.591407,0.998516,0.974582,0.006255,0.409029,0.000653,0.000586,-0.000123,0.000747,0.000492,-37.423005,0.001248,
2146,2068,-2.35511121557903,-12.6456761003899,0.0153993968287978,-0.002248,-0.036582,-0.007584,-0.092579,-1.669285,330.326754,22.358341,0.998619,0.980516,0.005543,0.357695,0.000766,0.000718,0.000081,0.000827,0.000658,36.707361,0.001488,
2251,2398,-0.120821014829534,-5.41776622384414,-0.0084594792189705,0.000920,-0.033687,-0.001145,0.033537,-1.518607,324.640879,22.343056,0.999228,0.988664,0.004470,0.426451,0.000194,0.000216,0.000029,0.000236,0.000175,55.437748,0.000412,
2281,2758,0.467847384416345,2.43619147887892,-0.0216887700308916,0.002498,-0.033931,0.008296,0.074236,-1.494145,318.685129,22.953195,0.999288,0.988480,0.004202,0.434271,0.000043,0.000074,0.000012,0.000078,0.000039,71.416443,0.000120,
2431,2998,3.6877715528394,7.6633280088276,0.00864319268413283,0.003218,-0.033797,0.009940,0.097212,-1.474178,315.061467,23.831021,0.999321,0.984543,0.004594,0.435968,0.000002,0.000006,0.000016,0.000020,-0.000013,48.552312,0.000020,
2206,2143,-1.05787050840239,-11.0013796583292,0.0125359351424095,-0.000847,-0.036175,-0.003353,-0.041082,-1.641813,328.955955,22.140038,0.999169,0.983614,0.005069,0.323158,0.000585,0.000618,0.000053,0.000657,0.000546,53.487244,0.001205,
2056,2893,-4.44078983561532,5.36081283153082,-0.00483968037843852,0.002653,-0.032393,0.007478,0.090616,-1.419538,317.438506,22.892213,0.999347,0.992093,0.003885,0.416179,0.000037,0.000001,-0.000001,0.000037,0.000001,-2.394695,0.000043,
2206,2398,-1.10073095536886,-5.41793293296347,-0.0115601565782413,0.001169,-0.033753,-0.005402,0.058671,-1.521257,324.742154,22.483322,0.999377,0.988207,0.004400,0.422763,0.000208,0.000196,0.000026,0.000229,0.000175,38.541387,0.000405,
2026,3283,-5.14757328023772,13.8108603597421,0.0479649374086648,0.004156,-0.032092,0.011493,0.149753,-1.418743,311.760299,22.551151,0.999764,0.995956,0.002771,0.424255,0.000031,0.000095,-0.000055,0.000127,-0.000001,-60.070635,0.000146,
2146,3208,-2.53597085721736,12.196551718867,0.0462988072728763,0.003775,-0.032485,0.008987,0.135451,-1.429889,312.337167,23.146653,0.999592,0.993378,0.003276,0.458783,0.000002,0.000007,-0.000010,0.000015,-0.000006,-52.037186,0.000016,
2401,2923,3.04899873307147,6.03159506066287,-0.00503406066712841,0.003087,-0.033399,0.006133,0.106013,-1.483770,316.144208,23.514239,0.999436,0.990436,0.003974,0.434513,0.000006,-0.000004,0.000001,0.000006,-0.000004,6.437270,0.000007,
2176,2233,-1.72763280477955,-9.02756355629184,-0.00038178833500524,-0.000522,-0.034303,-0.003240,-0.025906,-1.517710,327.501843,22.374969,0.998689,0.981407,0.005315,0.470000,0.000442,0.000414,0.000045,0.000476,0.000381,36.256976,0.000858,
2086,3193,-3.83375112369222,11.866427834477,0.0488002175877114,0.003928,-0.032470,0.011014,0.138423,-1.421905,312.882466,22.857879,0.999373,0.993633,0.003256,0.465025,-0.000003,0.000030,-0.000006,0.000031,-0.000004,-79.622937,0.000033,
2461,3238,4.29540168378946,12.8758326886509,0.0302670620044978,0.004349,-0.033352,0.005217,0.166408,-1.484686,311.431733,24.794353,0.999712,0.993725,0.003287,0.399415,0.000030,0.000002,-0.000002,0.000030,0.000002,-3.490450,0.000036,
2386,2788,2.74684858294716,3.09463237013841,-0.0222595546328535,0.002562,-0.033791,0.006761,0.079759,-1.498124,318.163555,23.116488,0.999620,0.990857,0.003896,0.399833,0.000027,0.000056,0.000018,0.000065,0.000019,64.417229,0.000087,
2161,2113,-2.03462353399022,-11.6583085315705,0.00996572582710087,-0.001407,-0.035540,-0.009968,-0.046253,-1.654301,329.550067,22.334570,0.999169,0.981923,0.005379,0.341347,0.000675,0.000671,0.000074,0.000748,0.000599,44.281149,0.001349,
2491,2173,5.16587214300482,-10.3499676283024,0.0211640795346852,0.003570,-0.035803,-0.009606,0.184529,-1.642758,328.804769,20.514860,0.998504,0.968524,0.006527,0.464286,0.000677,0.000585,-0.000128,0.000767,0.000495,-35.092343,0.001272,
2191,2263,-1.40590295991178,-8.37101089171389,-0.00348735890690932,-0.000612,-0.034395,-0.005172,-0.024054,-1.574466,326.948339,22.374779,0.998575,0.981001,0.005550,0.376600,0.000389,0.000362,0.000037,0.000415,0.000336,35.206245,0.000752,
2131,2008,-2.67241623226716,-13.9652138883174,0.0265033266358046,-0.002493,-0.038717,-0.004847,-0.112733,-1.746806,331.421950,22.273606,0.998935,0.983682,0.005410,0.422433,0.000906,0.000750,0.000087,0.000945,0.000711,24.126380,0.001661,
2056,3103,-4.47074151085854,9.91447395256468,0.0324124021194621,0.003524,-0.032550,0.008647,0.127460,-1.429486,314.367714,22.757735,0.999344,0.991903,0.003654,0.455072,0.000015,0.000020,0.000018,0.000036,-0.000001,48.794379,0.000041,
2236,2548,-0.474564622143358,-2.14107133773167,-0.0225381488896232,0.001413,-0.033404,0.002476,0.044662,-1.487997,322.136119,22.654140,0.999655,0.991927,0.003662,0.416459,0.000092,0.000057,0.000021,0.000101,0.000047,24.986933,0.000152,
2026,3043,-5.11188351529961,8.61140122177341,0.0240985136499035,0.003635,-0.032373,0.007422,0.136849,-1.426144,315.466358,22.641727,0.999472,0.991598,0.003829,0.502104,0.000023,0.000007,0.000025,0.000042,-0.000012,36.125599,0.000043,
2221,2233,-0.745292008543412,-9.02953093672711,0.00568863675908915,0.000300,-0.034918,-0.005292,0.018113,-1.608529,327.471072,22.157687,0.998959,0.982188,0.005246,0.384079,0.000423,0.000421,0.000041,0.000463,0.000381,43.996552,0.000845,
2101,3253,-3.51836866053782,13.1679274483091,0.0481537120603548,0.004164,-0.032502,0.011462,0.147567,-1.416223,311.828944,22.964131,0.999691,0.995010,0.002989,0.435210,-0.000010,0.000010,-0.000020,0.000022,-0.000023,-58.370460,0.000026,
2266,2668,0.157861818959141,0.476175417841134,-0.0266474674245387,0.002498,-0.033235,0.001865,0.096182,-1.478312,320.150138,22.797472,0.999501,0.990585,0.003983,0.444242,0.000052,0.000043,0.000011,0.000059,0.000036,32.894799,0.000096,
2341,2578,1.80760505462787,-1.48494777681307,-0.0171631759657203,0.002138,-0.033371,-0.001183,0.089154,-1.494451,321.618970,22.510759,0.998971,0.984999,0.004676,0.457901,0.000089,0.000054,0.000026,0.000103,0.000040,28.252341,0.000148,
2506,2203,5.48591205895263,-9.69054576007751,0.0176923698907103,0.002725,-0.035607,-0.003098,0.121097,-1.596077,328.271535,20.631481,0.998865,0.972819,0.006283,0.441819,0.000637,0.000521,-0.000108,0.000702,0.000457,-30.965122,0.001167,
2416,2923,3.375266717572,6.03335887992965,-0.00855468053140385,0.003224,-0.033419,0.005063,0.115861,-1.494251,316.140854,23.606097,0.999616,0.991767,0.003710,0.363194,0.000011,-0.000005,0.000001,0.000011,-0.000005,3.151437,0.000011,
2071,2068,-3.99104428496548,-12.6443798400898,0.0277741764104462,-0.003504,-0.035932,-0.006416,-0.153895,-1.663790,330.705481,22.942446,0.997941,0.964303,0.007277,0.251174,0.000812,0.000666,0.000130,0.000888,0.000590,30.282624,0.001488,
2056,2023,-4.31300522410227,-13.6306480940563,0.0151668083267396,-0.004423,-0.037061,-0.006306,-0.196781,-1.688040,331.359929,22.932451,0.998506,0.982813,0.005481,0.337842,0.000947,0.000661,0.000124,0.000993,0.000615,20.421011,0.001624,
2101,3043,-3.48687903274131,8.61755348652679,0.0208716681666488,0.002988,-0.032902,0.010268,0.096525,-1.449662,314.980272,22.979147,0.999553,0.992375,0.003512,0.385401,0.000027,0.000010,0.000010,0.000032,0.000005,25.199295,0.000040,
2041,3043,-4.78738675082671,8.61343997816728,0.0213482537721461,0.003284,-0.032139,0.009335,0.115056,-1.406830,315.328787,22.746573,0.999704,0.994511,0.003121,0.465471,0.000024,0.000005,0.000016,0.000033,-0.000004,29.508641,0.000036,
2191,2128,-1.38229814103427,-11.3300903290817,0.00781200162487039,-0.000717,-0.035477,-0.009389,-0.016019,-1.647783,329.224909,22.141567,0.998351,0.979449,0.005761,0.382071,0.000626,0.000662,0.000060,0.000707,0.000582,53.299785,0.001290,
2146,3223,-2.53814481054899,12.5211456120795,0.0517680998141827,0.003937,-0.032548,0.011530,0.135267,-1.416247,312.137383,23.131485,0.999600,0.993695,0.003172,0.493982,0.000003,0.000004,-0.000014,0.000017,-0.000011,-46.666651,0.000018,
2026,3298,-5.15020691755952,14.1356939687057,0.0429846127590281,0.004126,-0.031944,0.010635,0.150843,-1.411622,311.474178,22.522222,0.999330,0.993734,0.003365,0.448903,0.000023,0.000118,-0.000059,0.000147,-0.000005,-64.322752,0.000167,
2131,2023,-2.67610752079254,-13.6312127125188,0.00561628300062011,-0.002785,-0.037015,-0.010478,-0.108749,-1.738203,331.010017,22.483780,0.998898,0.982548,0.005514,0.231119,0.000866,0.000746,0.000088,0.000913,0.000700,27.798972,0.001617,
2101,3268,-3.52079122617446,13.492733800041,0.0455362590414552,0.004328,-0.032446,0.010724,0.157284,-1.423148,311.571259,22.953391,0.999755,0.995904,0.002854,0.438748,-0.000013,0.000008,-0.000024,0.000024,-0.000029,-56.403052,0.000031,
2206,2413,-1.10182800352478,-5.09042714049285,0.01330512594825,0.001480,-0.033127,0.002855,0.047100,-1.456893,324.694670,22.658379,0.999558,0.991385,0.003986,0.329422,0.000198,0.000172,0.000018,0.000207,0.000163,27.307727,0.000371,
2446,3208,3.97535523715865,12.2227066007315,0.0390729842329733,0.003898,-0.033533,0.009174,0.131042,-1.486370,311.934439,24.587399,0.999540,0.989754,0.003970,0.425176,0.000027,0.000017,0.000004,0.000029,0.000015,20.165921,0.000045,
2281,2563,0.50311771209682,-1.81347548611863,-0.0228858203419122,0.001942,-0.033230,-0.001023,0.080081,-1.488935,321.848150,22.537936,0.999220,0.987775,0.004519,0.487581,0.000085,0.000046,0.000018,0.000091,0.000039,21.327480,0.000134,
2131,3148,-2.85201567729456,10.8953039770321,0.0387273731490723,0.003411,-0.032475,0.009577,0.117277,-1.431921,313.299178,23.053578,0.999576,0.993084,0.003365,0.458865,0.000008,0.000014,-0.000002,0.000015,0.000007,-73.399105,0.000023,
2296,2818,0.784003971131479,3.74301173171078,-0.0191474607513555,0.002808,-0.033129,0.003255,0.105454,-1.473224,317.742743,23.103290,0.999420,0.989538,0.004039,0.431490,0.000036,0.000053,0.000007,0.000056,0.000034,70.664619,0.000090,
2491,2188,5.16117837460594,-10.0183337526159,0.0098733918639482,0.003064,-0.035621,-0.008106,0.155749,-1.623290,328.438031,20.681083,0.998324,0.969729,0.006503,0.379915,0.000656,0.000586,-0.000116,0.000742,0.000500,-36.641562,0.001250,
2146,2083,-2.35839609771697,-12.314969585777,0.00526742199321006,-0.002411,-0.036443,-0.007203,-0.101141,-1.681116,329.992650,22.436266,0.998499,0.980776,0.005612,0.279485,0.000733,0.000720,0.000082,0.000809,0.000645,42.771292,0.001457,
2086,2998,-3.80509428231758,7.64067765144975,0.0110550998061854,0.003147,-0.032692,0.005677,0.117734,-1.443206,315.727624,22.918185,0.999544,0.992523,0.003458,0.409459,0.000028,0.000009,0.000016,0.000038,0.000000,29.760651,0.000043,
2011,3223,-5.46315064899407,12.5107382604591,0.0491156636331311,0.004010,-0.032498,0.012810,0.139968,-1.411641,312.838371,22.536167,0.999443,0.992078,0.003575,0.415909,0.000007,0.000071,-0.000032,0.000084,-0.000006,-67.654856,0.000093,
2056,2038,-4.31502194624679,-13.3006115465407,0.00750154824129368,-0.003935,-0.036011,-0.009556,-0.164975,-1.668879,331.087301,22.925652,0.998201,0.979665,0.005784,0.362238,0.000901,0.000635,0.000124,0.000950,0.000586,21.522900,0.001550,
2311,2443,1.17954027546486,-4.43558518130732,0.00195836095207369,0.001543,-0.034286,0.003554,0.045505,-1.524717,323.936927,22.199955,0.999494,0.988420,0.004378,0.478257,0.000178,0.000164,0.000018,0.000190,0.000152,34.647603,0.000343,
2461,3253,4.2913826649605,13.2011348528809,0.0258783381065086,0.004029,-0.033581,0.009080,0.137015,-1.487162,311.119021,24.818552,0.999721,0.993644,0.003211,0.425406,0.000028,0.000028,-0.000003,0.000031,0.000025,-45.442118,0.000056,
2326,2518,1.49119717236453,-2.79456550084845,-0.0171758358405896,0.001463,-0.033822,0.001007,0.050534,-1.511946,322.557744,22.417311,0.999305,0.985367,0.004515,0.412493,0.000122,0.000086,0.000017,0.000129,0.000080,21.573399,0.000210,
2401,2938,3.04630243553359,6.35674219546803,0.00290712626531331,0.002984,-0.033707,0.009962,0.087297,-1.482221,315.947354,23.518771,0.999429,0.990629,0.003978,0.476532,0.000011,-0.000007,0.000001,0.000011,-0.000007,2.897384,0.000011,
2356,2668,2.11671154454221,0.477884021685043,-0.0157926721291233,0.001944,-0.033856,0.005408,0.056806,-1.498220,320.136104,22.719637,0.999458,0.988875,0.004275,0.461973,0.000042,0.000039,0.000025,0.000066,0.000016,43.328787,0.000087,
2071,3163,-4.15436686196547,11.2158874260387,0.0452008305218783,0.003673,-0.032530,0.009865,0.130411,-1.433714,313.414130,22.855069,0.999711,0.994685,0.003020,0.394008,0.000000,0.000046,-0.000002,0.000046,0.000000,-87.681422,0.000053,
2236,2338,-0.437726594830103,-6.72995630328837,-0.00291663736220471,0.000157,-0.034404,0.001636,-0.010617,-1.549890,325.642213,22.327866,0.998856,0.985256,0.004968,0.365357,0.000263,0.000257,0.000027,0.000287,0.000233,42.286030,0.000521,
2221,2473,-0.787413847410637,-3.77996876367146,-0.00851079781102726,0.000834,-0.033196,-0.000745,0.028629,-1.503620,323.486565,22.539613,0.999329,0.985972,0.004707,0.439208,0.000150,0.000106,0.000031,0.000166,0.000090,27.070745,0.000260,
2056,3163,-4.4794780261489,11.2142903123217,0.0427625334916684,0.003667,-0.032543,0.008613,0.134128,-1.437118,313.481739,22.740253,0.999532,0.991759,0.003571,0.438866,-0.000007,0.000055,-0.000002,0.000055,-0.000007,-88.127969,0.000060,
2191,2278,-1.40763917597281,-8.04248853296421,-0.00164628534503208,0.000164,-0.034274,-0.003487,0.006333,-1.551325,326.751872,22.419869,0.998724,0.980603,0.005507,0.371157,0.000368,0.000330,0.000030,0.000384,0.000314,28.752624,0.000699,
2041,3103,-4.79610339811171,9.91399849487085,0.0280341144021463,0.003395,-0.032091,0.006776,0.127297,-1.412278,314.418828,22.713793,0.999615,0.994294,0.003160,0.458426,0.000014,0.000020,0.000022,0.000040,-0.000005,49.045858,0.000043,
2176,2053,-1.69774640760126,-12.9753854397654,0.013821402879671,-0.001681,-0.037060,-0.007588,-0.066459,-1.697126,330.476098,22.153392,0.998860,0.983784,0.005061,0.329592,0.000790,0.000761,0.000062,0.000839,0.000712,38.375572,0.001553,
2071,2083,-3.99618717497889,-12.3124365575104,-0.000144986628981769,-0.004282,-0.036258,-0.000893,-0.205444,-1.633250,330.180990,22.892931,0.998421,0.965871,0.007028,0.333099,0.000774,0.000678,0.000133,0.000868,0.000584,35.018277,0.001461,
2101,3058,-3.48843209854597,8.94183578973791,0.025132927562538,0.003473,-0.032578,0.008294,0.124816,-1.437466,314.799850,22.891069,0.999621,0.993498,0.003392,0.486349,0.000027,0.000007,0.000012,0.000033,0.000002,24.753539,0.000039,
2071,2968,-4.12652096854523,6.98929317311344,-0.00218294587153878,0.003207,-0.032664,0.007547,0.115505,-1.435162,316.182429,22.850399,0.998936,0.989807,0.004138,0.450930,0.000041,-0.000005,0.000007,0.000042,-0.000007,8.621094,0.000045,
2296,2608,0.822022521972332,-0.831257172507819,-0.0144259946803231,0.001951,-0.033061,0.000704,0.074677,-1.459492,321.165570,22.685983,0.999445,0.989142,0.004070,0.438915,0.000074,0.000033,0.000023,0.000084,0.000022,24.413957,0.000112,
2041,1993,-4.63731692283771,-14.2893614336318,0.015249304942472,-0.006221,-0.037295,-0.007590,-0.275822,-1.701426,331.847357,22.959480,0.998568,0.980827,0.005665,0.406641,0.001027,0.000652,0.000138,0.001073,0.000607,18.166589,0.001701,
2011,3238,-5.46488226231328,12.8349755802139,0.0540618912251603,0.003977,-0.031857,0.007195,0.153833,-1.409794,312.648556,22.496997,0.999560,0.992916,0.003453,0.443461,0.000013,0.000080,-0.000044,0.000102,-0.000009,-63.810542,0.000113,
2056,3118,-4.4728503878122,10.2394003188769,0.0378003306216215,0.003672,-0.032833,0.012092,0.124483,-1.434048,314.165130,22.765557,0.999428,0.993055,0.003354,0.436225,0.000011,0.000030,0.000013,0.000037,0.000004,62.758795,0.000046,
2041,3058,-4.78909484797988,8.93768871782766,0.0310902472832026,0.003409,-0.032576,0.010686,0.116906,-1.425337,315.168075,22.720254,0.999678,0.993978,0.003243,0.464618,0.000025,0.000010,0.000017,0.000036,-0.000001,32.688479,0.000040,
2146,3238,-2.54122361377379,12.8472593504324,0.0424581590669391,0.004060,-0.032726,0.012313,0.138410,-1.442115,311.816753,23.215210,0.999617,0.993567,0.003202,0.390802,0.000003,0.000005,-0.000014,0.000018,-0.000010,-47.481690,0.000018,
2191,2143,-1.38507825657366,-11.0010945784525,0.0099769365388056,-0.000871,-0.035621,-0.005575,-0.035021,-1.626284,328.982450,22.188146,0.998679,0.981763,0.005440,0.374457,0.000594,0.000615,0.000063,0.000668,0.000541,49.658976,0.001211,
2056,2053,-4.31638558992345,-12.9704811182595,0.000954565316476419,-0.002991,-0.034920,-0.014956,-0.106179,-1.652044,330.850602,22.948627,0.997276,0.974164,0.006499,0.354046,0.000861,0.000653,0.000128,0.000922,0.000592,25.545599,0.001526,
2446,3223,3.97183077320745,12.5483466200646,0.0383552875040323,0.003611,-0.033609,0.011400,0.109520,-1.478339,311.660396,24.644308,0.999550,0.990405,0.003943,0.426899,0.000025,0.000006,0.000000,0.000025,0.000006,1.155876,0.000033,
2026,3058,-5.11412500417958,8.9368760759497,0.0279228966440428,0.003536,-0.032597,0.008266,0.129847,-1.441464,315.246903,22.686056,0.999195,0.989840,0.004033,0.431602,0.000020,0.000010,0.000024,0.000040,-0.000010,39.756704,0.000042,
2506,2218,5.48259260893375,-9.36148614580484,0.0130119994964843,0.002939,-0.035824,-0.002962,0.130284,-1.617806,327.999158,20.684816,0.999096,0.974093,0.006025,0.430393,0.000605,0.000494,-0.000097,0.000661,0.000437,-30.146732,0.001106,
2371,2728,2.43206373281361,1.78757625715587,-0.0228546786194102,0.002637,-0.033437,0.004634,0.091306,-1.475835,319.138764,22.948189,0.999411,0.989974,0.003984,0.414682,0.000036,0.000072,0.000030,0.000089,0.000019,60.377884,0.000116,
2251,2563,-0.150013722727682,-1.81431986401227,-0.0218861510552983,0.001795,-0.033156,-0.001275,0.074375,-1.481191,321.898261,22.578699,0.999531,0.990882,0.003889,0.498887,0.000078,0.000044,0.000015,0.000084,0.000038,20.133426,0.000125,
2236,2563,-0.475904940014054,-1.81618014203545,-0.0107831439186725,0.001796,-0.033172,0.001685,0.064902,-1.471810,322.012223,22.554891,0.999616,0.991955,0.003630,0.553739,0.000081,0.000052,0.000017,0.000088,0.000045,24.563235,0.000135,
2116,3133,-3.17539541309178,10.5703060580447,0.0274371411536549,0.003509,-0.032555,0.009802,0.121510,-1.448433,313.520306,23.061005,0.999848,0.996973,0.002645,0.368498,0.000013,0.000015,0.000001,0.000016,0.000013,64.338004,0.000029,
2206,2158,-1.06034502613526,-10.6727285247332,0.00524679998193278,-0.000589,-0.035343,-0.007765,-0.015063,-1.620156,328.680087,22.059098,0.998870,0.984337,0.005175,0.445360,0.000564,0.000575,0.000054,0.000624,0.000515,47.756092,0.001141,
2101,3283,-3.52415014868829,13.8174283474226,0.0376466097285402,0.004100,-0.032670,0.013201,0.139357,-1.435480,311.241974,22.913178,0.999702,0.996009,0.002848,0.466320,-0.000015,0.000031,-0.000026,0.000043,-0.000027,-65.362715,0.000043,
2461,3268,4.28661497735176,13.5276022858517,0.00786936846327535,0.003989,-0.033575,0.011781,0.125027,-1.474612,310.708715,24.864571,0.999750,0.993966,0.003081,0.445043,0.000028,0.000016,0.000004,0.000029,0.000015,16.513299,0.000045,
2146,2098,-2.36052138235254,-11.9861804561525,0.00606970141717511,-0.002230,-0.035701,-0.008016,-0.090152,-1.642410,329.769244,22.415503,0.998978,0.982921,0.005283,0.349967,0.000702,0.000694,0.000079,0.000777,0.000618,43.510994,0.001399,
2281,2773,0.465593129442983,2.7627248517606,-0.0169136754205397,0.002384,-0.033458,0.005234,0.079451,-1.478599,318.486059,23.004262,0.999230,0.987178,0.004380,0.426359,0.000041,0.000069,0.000010,0.000072,0.000038,72.827798,0.000111,
2311,2458,1.17574228135246,-4.10731449166003,-0.00455008589699446,0.001206,-0.034788,0.006429,0.020068,-1.527140,323.614162,22.230766,0.999410,0.987576,0.004526,0.478871,0.000165,0.000149,0.000023,0.000181,0.000133,35.924949,0.000315,
2206,2428,-1.10487585027859,-4.76579909872102,0.00618032439331273,0.001392,-0.034489,0.001691,0.046282,-1.498849,324.394048,22.376214,0.999096,0.987542,0.004601,0.588097,0.000188,0.000148,0.000023,0.000199,0.000137,24.443203,0.000338,
2071,3178,-4.15657249870609,11.5405490434268,0.0466565035716258,0.003830,-0.032449,0.010590,0.135646,-1.418603,313.186539,22.809053,0.999814,0.996140,0.002727,0.450752,-0.000001,0.000041,-0.000003,0.000042,-0.000001,-85.456996,0.000047,
2266,2458,0.194848541838329,-4.10446731158812,-0.0193032449509474,0.001413,-0.033837,0.001163,0.048392,-1.504708,323.568262,22.512813,0.999671,0.990108,0.004160,0.332572,0.000142,0.000146,0.000029,0.000173,0.000116,46.987799,0.000290,
2491,2203,5.15743588697942,-9.68963856038536,0.0101990230362503,0.002576,-0.035749,-0.005855,0.124817,-1.623793,328.167271,20.727325,0.998340,0.971336,0.006362,0.394738,0.000636,0.000523,-0.000103,0.000696,0.000462,-30.604767,0.001166,
2056,3133,-4.4752303286962,10.5645892144435,0.0329762087125118,0.003715,-0.032560,0.007985,0.138008,-1.455578,313.893600,22.754830,0.999033,0.991986,0.003558,0.419005,0.000008,0.000034,0.000008,0.000036,0.000005,74.300207,0.000045,
2011,3253,-5.46738021447947,13.1604325863323,0.0519657472125914,0.003863,-0.031469,0.006046,0.151830,-1.392990,312.383419,22.519051,0.999846,0.995516,0.002799,0.424833,0.000023,0.000092,-0.000054,0.000121,-0.000007,-61.354846,0.000136,
2041,2008,-4.63972019228919,-13.9580037075579,0.00850740825137564,-0.005934,-0.036733,-0.006441,-0.265688,-1.671223,331.560310,23.060009,0.997020,0.978518,0.006368,0.332683,0.000996,0.000679,0.000155,0.001059,0.000616,22.153961,0.001695,
2266,2683,0.154915762241753,0.803276614973207,-0.0292846593159197,0.002319,-0.033051,0.000373,0.092994,-1.471043,319.881150,22.822810,0.999440,0.991487,0.003837,0.452298,0.000050,0.000054,0.000004,0.000057,0.000047,58.590488,0.000104,
2296,2623,0.818642508710607,-0.50504533070373,-0.0163290515682775,0.001626,-0.033672,0.003172,0.051152,-1.490670,320.883316,22.654744,0.999461,0.987667,0.004162,0.469703,0.000069,0.000035,0.000020,0.000078,0.000026,24.394312,0.000108,
2461,3283,4.28332794119177,13.8530484914986,0.00276611881241706,0.004071,-0.033521,0.010928,0.132037,-1.477800,310.426218,24.908420,0.999538,0.990931,0.003738,0.451048,0.000031,0.000000,0.000007,0.000032,-0.000001,12.248232,0.000036,
2221,2248,-0.748309162697097,-8.70038833755337,-0.00501283567638211,0.000428,-0.034150,-0.007837,0.032347,-1.561512,327.154106,22.096780,0.998943,0.982286,0.005222,0.513736,0.000396,0.000393,0.000042,0.000437,0.000352,43.824085,0.000791,
2056,2068,-4.31920157028614,-12.6419429918447,0.00622329401664956,-0.003410,-0.035709,-0.007164,-0.147537,-1.657909,330.612847,22.986903,0.998347,0.977208,0.005833,0.307823,0.000822,0.000649,0.000137,0.000897,0.000574,28.868044,0.001483,
2041,3118,-4.7983421054022,10.2387261514199,0.0319138229172609,0.003532,-0.032303,0.011049,0.121684,-1.407015,314.201098,22.684151,0.999613,0.994565,0.003087,0.484587,0.000010,0.000036,0.000016,0.000043,0.000002,64.146557,0.000052,
2071,3223,-4.16325122272796,12.5151131203993,0.0519181786672789,0.003997,-0.032244,0.009569,0.146407,-1.408064,312.505750,22.785725,0.999464,0.992960,0.003414,0.471028,-0.000005,0.000027,-0.000016,0.000034,-0.000012,-67.196221,0.000035,
2086,3208,-3.83552652768208,12.1911416370105,0.0517362804551453,0.004179,-0.032389,0.007463,0.160282,-1.434236,312.683726,22.860015,0.999455,0.993169,0.003401,0.448645,-0.000005,0.000022,-0.000010,0.000025,-0.000008,-71.745747,0.000026,
2341,2593,1.80453448471594,-1.15712939327301,-0.0174429624148047,0.002214,-0.033706,0.002845,0.078531,-1.488814,321.362154,22.595307,0.999275,0.987212,0.004407,0.416277,0.000084,0.000039,0.000027,0.000097,0.000026,25.219557,0.000130,
2026,3073,-5.11656174161412,9.26171517153792,0.0310077798142174,0.003365,-0.032659,0.010427,0.116083,-1.422713,315.014591,22.636755,0.999087,0.991558,0.003884,0.488816,0.000013,0.000015,0.000028,0.000042,-0.000014,45.690417,0.000043,
2431,3013,3.68489927583442,7.98956189073283,0.00809314663302985,0.003142,-0.033591,0.007208,0.103911,-1.478258,314.818035,23.901671,0.999302,0.985832,0.004403,0.410363,0.000001,0.000010,0.000015,0.000021,-0.000010,53.836555,0.000021,
2221,2488,-0.790096319857085,-3.45202803223286,-0.0124768974675931,0.001044,-0.033427,-0.000470,0.037339,-1.502883,323.219307,22.570237,0.999456,0.986480,0.004426,0.429663,0.000137,0.000091,0.000024,0.000147,0.000080,23.131606,0.000231,
2161,2128,-2.03778535555459,-11.3289850514441,0.00328642753237318,-0.001459,-0.035632,-0.006821,-0.058287,-1.633657,329.241319,22.310412,0.999233,0.980728,0.005451,0.399605,0.000644,0.000646,0.000073,0.000718,0.000572,45.394225,0.001292,
2356,2683,2.11395087956851,0.805998322975569,-0.0209671663926088,0.002430,-0.033790,0.005413,0.079172,-1.485368,319.870710,22.811936,0.999518,0.989305,0.004070,0.422041,0.000037,0.000058,0.000024,0.000073,0.000021,56.908525,0.000099,
2251,2413,-0.123239432040304,-5.09036425965775,-0.00326997556345532,0.000884,-0.033846,0.000406,0.026749,-1.509753,324.434879,22.377729,0.999192,0.987705,0.004444,0.425450,0.000180,0.000196,0.000021,0.000210,0.000166,55.757354,0.000377,
2296,2833,0.781584350670325,4.06919258162999,-0.0129111790018328,0.002677,-0.033075,0.003332,0.099164,-1.472381,317.544286,23.164100,0.999680,0.992274,0.003683,0.401044,0.000032,0.000052,0.000008,0.000055,0.000029,70.730129,0.000085,
2146,3253,-2.54395115490694,13.1723973316575,0.0328613747104782,0.004331,-0.032605,0.009739,0.158741,-1.446955,311.511081,23.191464,0.999617,0.992963,0.003310,0.416574,0.000003,-0.000003,-0.000016,0.000016,-0.000016,-39.010373,0.000019,
2281,2578,0.501852503850646,-1.4872690629493,-0.0128832106299228,0.002421,-0.033089,-0.004114,0.112464,-1.494674,321.721070,22.570404,0.999123,0.985724,0.004782,0.477880,0.000082,0.000049,0.000019,0.000091,0.000041,24.317611,0.000135,
2176,2248,-1.72991803096282,-8.70001864083126,0.000239859450346103,-0.000457,-0.034704,-0.004662,-0.018669,-1.570259,327.273257,22.383271,0.998607,0.980479,0.005483,0.423648,0.000414,0.000387,0.000042,0.000445,0.000357,35.984724,0.000803,
2086,2143,-3.67583343190376,-10.9989415561515,-0.00137191232556688,-0.002130,-0.034872,-0.009319,-0.082223,-1.591412,329.254675,22.685060,0.998931,0.983471,0.005188,0.498209,0.000622,0.000592,0.000109,0.000717,0.000496,41.052186,0.001220,
2131,2038,-2.67869597431187,-13.3028737861017,0.00103325081806815,-0.002726,-0.036814,-0.010877,-0.104851,-1.706238,330.735688,22.346474,0.999187,0.983044,0.005415,0.409608,0.000833,0.000729,0.000085,0.000881,0.000681,29.254039,0.001566,
2401,2953,3.04285351518845,6.68361273067663,-0.00617542488282652,0.002876,-0.033770,0.006114,0.096274,-1.502473,315.634986,23.587798,0.999528,0.991152,0.003886,0.432034,0.000012,-0.000011,0.000004,0.000012,-0.000012,8.761201,0.000014,
2116,3148,-3.17769211021415,10.8943923775452,0.0327451409349351,0.003501,-0.032503,0.012265,0.113924,-1.427685,313.312449,22.974565,0.999711,0.994825,0.003050,0.477744,0.000011,0.000018,0.000000,0.000018,0.000011,-86.590522,0.000029,
2086,3013,-3.80769870266736,7.96546378074849,0.0134879133087793,0.002992,-0.032595,0.008760,0.101670,-1.432187,315.487841,22.854631,0.999699,0.993417,0.003150,0.482348,0.000031,0.000014,0.000018,0.000043,0.000003,32.143750,0.000051,
2446,3238,3.96873211096751,12.8742513358661,0.0294517490800104,0.004121,-0.033602,0.009994,0.138234,-1.490579,311.367926,24.703350,0.999626,0.992401,0.003533,0.406619,0.000021,0.000004,-0.000003,0.000022,0.000003,-8.312765,0.000027,
2236,2353,-0.439584084085421,-6.4021022402013,-0.00320180023743433,0.000777,-0.034230,-0.000530,0.024856,-1.548869,325.433078,22.338796,0.998867,0.983570,0.005096,0.378370,0.000241,0.000246,0.000026,0.000270,0.000218,47.992241,0.000488,
2491,2218,5.15393762967703,-9.35905089430888,0.00581329231010841,0.002720,-0.035639,-0.003872,0.123882,-1.619231,327.886298,20.897591,0.998867,0.979401,0.005745,0.290679,0.000599,0.000493,-0.000097,0.000656,0.000435,-30.639403,0.001099,
2056,3178,-4.48126862360438,11.5389522109854,0.051221969065125,0.003866,-0.032333,0.010654,0.137671,-1.413173,313.310926,22.726832,0.999646,0.993589,0.003247,0.469635,-0.000007,0.000051,-0.000004,0.000052,-0.000008,-86.098305,0.000056,
2131,3163,-2.854089620775,11.220155627332,0.0392779109451453,0.003734,-0.032724,0.008553,0.135165,-1.449893,313.076688,23.050564,0.999475,0.991029,0.003692,0.448412,0.000004,0.000024,-0.000003,0.000024,0.000004,-81.098694,0.000030,
2236,2578,-0.479105394477127,-1.48791920912478,-0.0168777614958913,0.001862,-0.033618,0.004538,0.058536,-1.481398,321.711486,22.637587,0.999331,0.988777,0.004199,0.483481,0.000075,0.000055,0.000016,0.000084,0.000046,28.695942,0.000132,
2386,2803,2.74364616397439,3.42121706930096,-0.0304401882149818,0.002637,-0.033595,0.003462,0.095134,-1.500930,317.866123,23.100724,0.999869,0.994468,0.003441,0.456332,0.000024,0.000047,0.000015,0.000054,0.000017,63.534963,0.000074,
2326,2533,1.48866416994064,-2.46702454679361,-0.0192993445576235,0.001791,-0.033401,-0.000072,0.069496,-1.494749,322.315623,22.428897,0.999286,0.985875,0.004518,0.453553,0.000112,0.000063,0.000013,0.000116,0.000060,14.077472,0.000178,
2071,3238,-4.16561987115553,12.8396185799281,0.0531390325019174,0.003973,-0.032588,0.009622,0.144988,-1.428853,312.269534,22.774018,0.999474,0.992978,0.003399,0.457498,-0.000006,0.000035,-0.000019,0.000043,-0.000013,-68.330527,0.000044,
2176,2068,-1.69994502014179,-12.6470233290198,0.0165400981996981,-0.001596,-0.036800,-0.007604,-0.062398,-1.694632,330.262142,22.140237,0.999066,0.983998,0.005215,0.360648,0.000759,0.000746,0.000065,0.000818,0.000687,42.098177,0.001507,
2416,2938,3.37222238503892,6.3585847726717,-0.00271674815354572,0.002948,-0.033683,0.008697,0.089802,-1.479621,315.918913,23.590430,0.999597,0.991294,0.003835,0.440820,0.000015,-0.000008,0.000000,0.000015,-0.000008,0.915237,0.000015,
2371,2743,2.42913802402299,2.11401748899093,-0.0246022786722619,0.002669,-0.033477,0.004049,0.094869,-1.475082,318.883688,22.946674,0.999346,0.989329,0.004038,0.458485,0.000033,0.000075,0.000029,0.000090,0.000019,62.950059,0.000116,
2461,3298,4.28089725803618,14.1780803079157,0.00575727480776322,0.004332,-0.033399,0.009955,0.147756,-1.477142,310.220477,24.958000,0.999514,0.992623,0.003596,0.454940,0.000020,-0.000005,0.000001,0.000020,-0.000005,2.901252,0.000021,
2191,2293,-1.40982491268305,-7.71435199291354,-0.000734444167107995,0.000506,-0.034149,-0.002486,0.018937,-1.531896,326.530100,22.429062,0.998784,0.982202,0.005312,0.397900,0.000345,0.000306,0.000037,0.000367,0.000284,31.136880,0.000653,
2071,2098,-3.99661955039141,-11.9853755883743,0.0214689522135245,-0.003935,-0.035765,-0.003152,-0.182967,-1.637694,330.142507,22.984208,0.998362,0.974704,0.006055,0.236187,0.000740,0.000661,0.000131,0.000837,0.000564,36.584775,0.001410,
2191,2158,-1.38659854126013,-10.6732814795748,0.0168157185560176,-0.000721,-0.034675,-0.010902,-0.011197,-1.620839,328.822042,22.197579,0.998873,0.984487,0.005171,0.387265,0.000572,0.000572,0.000062,0.000634,0.000510,45.065931,0.001146,
2041,2023,-4.64034572880027,-13.6289049723812,0.00420934393815742,-0.004656,-0.035573,-0.015573,-0.181444,-1.668174,331.368365,23.015768,0.997361,0.978411,0.006266,0.375661,0.000943,0.000644,0.000140,0.000999,0.000588,21.609578,0.001605,
2146,2113,-2.36177144078763,-11.6597638607025,0.0243538134952246,-0.002026,-0.035969,-0.004193,-0.092460,-1.625036,329.678612,22.395154,0.999265,0.984085,0.005094,0.397766,0.000671,0.000659,0.000076,0.000741,0.000589,42.724899,0.001333,
2131,2053,-2.68061029618511,-12.9739904037844,0.00910026315301593,-0.002539,-0.037119,-0.007201,-0.107310,-1.700002,330.559401,22.431524,0.998632,0.979578,0.005632,0.339723,0.000798,0.000728,0.000088,0.000858,0.000668,34.271587,0.001530,
2011,3268,-5.46954949830863,13.4841533598767,0.0562980459259848,0.003966,-0.031840,0.009418,0.147275,-1.406733,312.170354,22.451005,0.999829,0.995542,0.002820,0.465791,0.000035,0.000076,-0.000058,0.000117,-0.000006,-54.934862,0.000132,
2056,2083,-4.32279808638226,-12.312558139591,0.00206690364490214,-0.004136,-0.036373,-0.001164,-0.197927,-1.649905,330.287568,22.989512,0.998680,0.979255,0.005547,0.311612,0.000785,0.000661,0.000141,0.000877,0.000569,33.146686,0.001457,
2341,2608,1.80058833407674,-0.829064208917899,-0.0277368683358077,0.002025,-0.033717,0.004883,0.062767,-1.469482,321.016443,22.607568,0.999346,0.985888,0.004590,0.461203,0.000073,0.000028,0.000030,0.000088,0.000013,26.454155,0.000110,
2026,3088,-5.11869240753889,9.58792153801044,0.0348716662422817,0.003313,-0.032379,0.010163,0.114515,-1.409167,314.800187,22.726860,0.999524,0.993984,0.003342,0.401479,0.000009,0.000014,0.000027,0.000038,-0.000016,47.495691,0.000039,
2476,1993,4.87652379264116,-14.3053774686533,0.0281789401252581,0.004330,-0.038984,-0.014657,0.236609,-1.818811,331.781644,19.814561,0.997688,0.969558,0.006848,0.349422,0.001098,0.000775,0.000006,0.001098,0.000775,1.064434,0.001882,
2071,3193,-4.15889276558959,11.8659289887076,0.0455658803338679,0.003973,-0.032381,0.010337,0.142994,-1.417816,312.939439,22.832134,0.999543,0.994030,0.003176,0.424113,-0.000003,0.000036,-0.000008,0.000038,-0.000004,-79.019771,0.000042,
2101,3073,-3.49075503302618,9.26813258891368,0.0260959103144955,0.003448,-0.032180,0.006964,0.127635,-1.430309,314.565513,22.975668,0.999476,0.991261,0.003775,0.409107,0.000023,0.000014,0.000014,0.000033,0.000004,36.372310,0.000041,
2251,2578,-0.152239263545656,-1.48742698361485,-0.0162080444106323,0.002025,-0.033317,0.001650,0.075305,-1.470148,321.703380,22.619187,0.999359,0.988627,0.004234,0.493479,0.000074,0.000046,0.000015,0.000081,0.000040,23.191644,0.000123,
2446,3253,3.96585887782497,13.1993907830092,0.0341393452347916,0.003895,-0.033527,0.010417,0.126310,-1.484619,311.148922,24.754581,0.999770,0.993784,0.003154,0.412042,0.000017,0.000025,-0.000005,0.000027,0.000015,-65.560210,0.000043,
2311,2473,1.17311964146413,-3.7792112977091,-0.00391512804077365,0.001054,-0.034324,0.003227,0.024186,-1.520053,323.380323,22.308303,0.999238,0.985760,0.004675,0.441750,0.000153,0.000129,0.000023,0.000167,0.000115,31.351261,0.000283,
2206,2443,-1.10957650951636,-4.43420566271237,-0.0210711350555357,0.000849,-0.033632,-0.002725,0.035603,-1.501409,323.912338,22.509845,0.998560,0.983264,0.005282,0.470953,0.000173,0.000140,0.000026,0.000188,0.000126,28.491746,0.000315,
2041,3133,-4.80011753301881,10.5638677701207,0.0375496764952459,0.003623,-0.032166,0.008641,0.132572,-1.422518,314.014272,22.727373,0.999311,0.992545,0.003541,0.417215,0.000009,0.000042,0.000010,0.000045,0.000006,74.176048,0.000055,
2506,2233,5.47986928673208,-9.0313033007363,0.0154420056117601,0.002992,-0.035289,-0.004747,0.139822,-1.599951,327.785407,20.880707,0.998969,0.979243,0.005584,0.316024,0.000578,0.000524,-0.000071,0.000627,0.000475,-34.470779,0.001105,
2296,2848,0.778953380018621,4.39421293265904,-0.00974363849644533,0.002816,-0.033346,0.006926,0.093331,-1.471870,317.321186,23.099098,0.999671,0.992143,0.003727,0.496478,0.000030,0.000043,0.000005,0.000044,0.000029,70.364691,0.000074,
2266,2698,0.152771179142505,1.12925216927162,-0.021229376234146,0.002402,-0.033276,0.002135,0.090898,-1.479995,319.702961,22.853341,0.999585,0.991903,0.003714,0.438347,0.000045,0.000057,0.000003,0.000057,0.000044,76.398741,0.000102,
2206,2173,-1.06292676774435,-10.3439017852823,0.00412322539358456,-0.000719,-0.035091,-0.010197,-0.013246,-1.619828,328.431082,22.087235,0.998872,0.985767,0.005014,0.437030,0.000542,0.000535,0.000053,0.000592,0.000485,43.058756,0.001078,
2266,2473,0.192603512913241,-3.77931979100641,-0.00890915410207072,0.001128,-0.033881,0.001889,0.032909,-1.501232,323.397712,22.413703,0.999724,0.991130,0.004012,0.461718,0.000135,0.000124,0.000031,0.000161,0.000098,40.063490,0.000262,
2476,2008,4.87136913725096,-13.9740255552663,0.0144767999341866,0.003372,-0.038514,-0.014898,0.193961,-1.805348,331.382459,19.857907,0.998663,0.974725,0.006154,0.380873,0.001068,0.000727,-0.000015,0.001069,0.000726,-2.484827,0.001806,
2041,2038,-4.64316132866912,-13.3008004650205,0.00627481597183532,-0.005429,-0.035371,-0.016062,-0.215466,-1.686921,331.111954,22.980704,0.998215,0.977858,0.005983,0.388002,0.000898,0.000620,0.000139,0.000955,0.000563,22.441546,0.001535,
2431,3028,3.68231453036228,8.31500987572809,0.012376177900876,0.003203,-0.033888,0.007456,0.105676,-1.493779,314.610501,23.947611,0.999411,0.986795,0.004333,0.397983,0.000005,0.000019,0.000014,0.000028,-0.000004,58.720571,0.000030,
2236,2593,-0.481422947917963,-1.16140175006678,-0.0136542467024015,0.001844,-0.033624,0.003197,0.062099,-1.482028,321.499006,22.637769,0.999246,0.986265,0.004665,0.504674,0.000072,0.000048,0.000016,0.000080,0.000041,26.209924,0.000123,
2086,3223,-3.83783946830176,12.5159406620241,0.0544034516408942,0.004166,-0.032381,0.007943,0.158285,-1.435324,312.458817,22.860703,0.999441,0.992411,0.003613,0.444540,-0.000007,0.000020,-0.000014,0.000026,-0.000013,-66.523537,0.000026,
2086,2158,-3.67824041770148,-10.6686284700645,-0.00351226211307676,-0.001976,-0.034548,-0.007605,-0.079972,-1.596806,328.997378,22.836414,0.998963,0.982729,0.005261,0.343318,0.000596,0.000544,0.000101,0.000674,0.000465,37.879594,0.001146,
2056,3193,-4.48364391698648,11.8641803233315,0.0498448993570832,0.004113,-0.032602,0.013083,0.142114,-1.422366,313.058713,22.743514,0.999535,0.992995,0.003367,0.437244,-0.000010,0.000047,-0.000010,0.000049,-0.000012,-80.046698,0.000051,
2101,3298,-3.52697932285099,14.1424884525364,0.0281060849326877,0.004166,-0.032520,0.010307,0.150992,-1.426434,310.927894,22.881194,0.999562,0.994071,0.003239,0.507116,-0.000017,0.000055,-0.000034,0.000069,-0.000031,-68.225700,0.000069,
2281,2593,0.498000657821471,-1.15949759441241,-0.0141586346811664,0.001745,-0.033383,0.000964,0.064334,-1.480303,321.418662,22.632272,0.999206,0.987590,0.004451,0.458831,0.000079,0.000038,0.000018,0.000086,0.000031,20.732754,0.000121,
2026,3103,-5.12079318376161,9.9125691005804,0.0354389726670092,0.003479,-0.032292,0.009746,0.123371,-1.400991,314.569337,22.661608,0.999538,0.993629,0.003391,0.464274,0.000007,0.000019,0.000027,0.000041,-0.000015,51.393872,0.000041,
2176,2263,-1.73227552227578,-8.37091825165494,0.00334844966732817,-0.000502,-0.034331,-0.004273,-0.021817,-1.559090,327.053752,22.500546,0.998713,0.979824,0.005692,0.331885,0.000394,0.000359,0.000039,0.000419,0.000333,33.003607,0.000754,
2371,2758,2.42621554181411,2.44148919548064,-0.0266590717596387,0.002780,-0.033193,0.004059,0.100012,-1.467269,318.626954,23.035098,0.998901,0.985463,0.004499,0.419006,0.000032,0.000072,0.000029,0.000087,0.000017,62.464853,0.000112,
2011,3283,-5.47183641842805,13.809054345615,0.0512782578162501,0.004304,-0.031942,0.009331,0.163126,-1.404615,311.898704,22.428028,0.999816,0.995980,0.002731,0.477399,0.000045,0.000108,-0.000064,0.000148,0.000005,-58.287254,0.000174,
2191,2308,-1.4124160533402,-7.38688724901601,-0.00438242495141594,0.000337,-0.034065,-0.007547,0.027025,-1.558377,326.266455,22.382182,0.998660,0.982013,0.005361,0.434852,0.000326,0.000283,0.000038,0.000348,0.000261,30.440821,0.000611,
2416,2953,3.3688740221115,6.68568159948738,-0.00942917813569011,0.002909,-0.033634,0.006454,0.096278,-1.481558,315.623607,23.679163,0.999704,0.991492,0.003844,0.397315,0.000014,-0.000012,0.000004,0.000015,-0.000013,8.154261,0.000016,
2131,2068,-2.6823616275702,-12.6454886873662,0.0201994417469678,-0.002434,-0.036693,-0.004176,-0.111423,-1.655059,330.406524,22.481176,0.998052,0.975170,0.006139,0.343450,0.000765,0.000717,0.000094,0.000838,0.000644,37.821956,0.001486,
2176,2083,-1.70295456675371,-12.3165744302762,0.008707745810284,-0.001777,-0.036441,-0.010359,-0.062104,-1.696348,329.955876,22.210336,0.999286,0.984483,0.005237,0.304914,0.000728,0.000748,0.000067,0.000806,0.000671,49.276678,0.001479,
2056,2098,-4.32446443645595,-11.9847743239596,0.00721996595837027,-0.003918,-0.036070,-0.001717,-0.186294,-1.639552,330.101717,22.951475,0.998740,0.978735,0.005632,0.357538,0.000750,0.000646,0.000140,0.000848,0.000549,34.802686,0.001407,
2086,3298,-3.85186196667982,14.1413316093485,0.0313108127214718,0.004034,-0.032494,0.011321,0.142431,-1.429748,311.021900,22.836473,0.999627,0.994040,0.003096,0.462033,-0.000021,0.000064,-0.000039,0.000079,-0.000036,-68.588875,0.000079,
2446,3268,3.96132897798421,13.5256040148638,0.0118040587279324,0.004045,-0.033463,0.008699,0.139710,-1.479295,310.727997,24.759652,0.999732,0.993187,0.003274,0.463369,0.000015,0.000012,0.000000,0.000015,0.000012,0.877990,0.000028,
2116,3163,-3.17951839183377,11.2192564445065,0.0377489639787427,0.003663,-0.032634,0.009712,0.128900,-1.448513,313.124300,23.002373,0.999559,0.992814,0.003480,0.431586,0.000006,0.000028,-0.000002,0.000028,0.000006,-84.456983,0.000036,
2491,2233,5.15049216089339,-9.03041701361427,0.000281509004935288,0.002839,-0.035491,-0.003731,0.128881,-1.607648,327.602652,20.876230,0.998848,0.979929,0.005834,0.385207,0.000572,0.000503,-0.000077,0.000622,0.000453,-32.942870,0.001080,
2296,2638,0.816678351699991,-0.178395207493736,-0.013310501919932,0.002136,-0.033475,0.002694,0.076253,-1.489361,320.690180,22.677621,0.999364,0.986826,0.004267,0.478570,0.000064,0.000034,0.000017,0.000072,0.000026,24.688876,0.000101,
2236,2368,-0.441961691197726,-6.07285467288565,-0.00988686163032071,0.001349,-0.033793,-0.002522,0.057714,-1.512629,325.167173,22.385056,0.999293,0.986604,0.004740,0.391215,0.000220,0.000245,0.000027,0.000263,0.000202,57.646594,0.000466,
2326,2548,1.48569247361821,-2.13988108257229,-0.0169651018150603,0.001835,-0.033756,0.005309,0.052869,-1.466945,322.075128,22.438239,0.998938,0.983767,0.004937,0.507510,0.000106,0.000053,0.000018,0.000111,0.000048,16.932769,0.000164,
2221,2503,-0.792607413358336,-3.124274386215,-0.0154269559813542,0.001476,-0.033306,0.001578,0.050686,-1.492433,322.965080,22.588666,0.999458,0.986812,0.004402,0.441763,0.000127,0.000078,0.000020,0.000134,0.000071,19.535238,0.000208,
2221,2263,-0.751434006092783,-8.37157621895056,-0.000972462236518368,0.000087,-0.035230,-0.001007,-0.005478,-1.581690,326.907895,22.229777,0.998818,0.981809,0.005369,0.381703,0.000374,0.000367,0.000041,0.000411,0.000329,42.526914,0.000742,
2086,3238,-3.84102847225006,12.8410789661525,0.0491634930948521,0.003966,-0.032708,0.011403,0.138960,-1.439506,312.150363,22.854479,0.999558,0.993428,0.003335,0.443983,-0.000009,0.000026,-0.000016,0.000033,-0.000015,-68.442806,0.000033,
2506,2248,5.476674710642,-8.70398566841605,0.0166463954438996,0.003236,-0.035700,0.000328,0.131264,-1.603802,327.544849,20.828683,0.998911,0.979516,0.005674,0.427550,0.000545,0.000514,-0.000063,0.000594,0.000465,-38.143774,0.001061,
2011,3298,-5.47457638116645,14.1338448123142,0.0484914694638974,0.004108,-0.031992,0.010081,0.151938,-1.421209,311.618924,22.429913,0.999400,0.992962,0.003501,0.445406,0.000038,0.000127,-0.000062,0.000159,0.000006,-62.874435,0.000187,
2146,3268,-2.54658744870642,13.4973986548851,0.0317638960098634,0.004319,-0.032630,0.009972,0.157498,-1.439778,311.254904,23.195116,0.999618,0.993679,0.003247,0.426295,0.000004,-0.000001,-0.000017,0.000018,-0.000016,-40.885683,0.000020,
2161,2143,-2.04014572794023,-10.9997748058832,-0.0018312638043767,-0.001209,-0.034986,-0.009556,-0.038260,-1.643191,328.977538,22.328937,0.999172,0.971389,0.006257,0.384602,0.000607,0.000606,0.000071,0.000677,0.000536,44.669892,0.001216,
2026,3118,-5.12314253629419,10.2380820160746,0.0368061588457635,0.003569,-0.032337,0.012938,0.118686,-1.403079,314.331266,22.695047,0.999658,0.994144,0.003222,0.417806,0.000009,0.000042,0.000022,0.000053,-0.000002,63.552738,0.000060,
2056,3208,-4.48604924252482,12.1890806149296,0.0507011203716843,0.003814,-0.032184,0.009349,0.138971,-1.420067,312.817610,22.735523,0.999503,0.993070,0.003344,0.440811,-0.000012,0.000040,-0.000016,0.000044,-0.000016,-73.766278,0.000045,
2281,2788,0.463660966372288,3.08944838726937,-0.0158723414326118,0.002958,-0.033077,0.003409,0.112102,-1.461178,318.283051,23.045664,0.999074,0.985992,0.004575,0.430273,0.000039,0.000066,0.000008,0.000068,0.000036,73.980154,0.000106,
2476,2023,4.86840100040636,-13.6436749032638,0.0193905628623838,0.003457,-0.038400,-0.010289,0.180475,-1.769356,331.167333,20.005280,0.999196,0.980869,0.005453,0.329737,0.001037,0.000718,-0.000048,0.001044,0.000711,-8.427622,0.001765,
2041,2053,-4.64675482817155,-12.9667962006542,-0.0200452219690987,-0.004517,-0.035687,-0.004956,-0.204527,-1.652206,330.662089,23.118216,0.999503,0.992277,0.003865,0.282377,0.000856,0.000640,0.000138,0.000923,0.000573,25.938050,0.001509,
2206,2188,-1.06568369536312,-10.0149808740779,0.00823346958787852,-0.000796,-0.035472,-0.004190,-0.035869,-1.625433,328.200979,22.190563,0.998588,0.981100,0.005522,0.347516,0.000516,0.000519,0.000047,0.000565,0.000471,45.985474,0.001037,
2071,3208,-4.16093322178439,12.1903137437446,0.047590675393792,0.003959,-0.032136,0.006191,0.154284,-1.423728,312.722712,22.792217,0.999451,0.993352,0.003356,0.453580,-0.000004,0.000029,-0.000012,0.000033,-0.000008,-71.780807,0.000034,
2146,2128,-2.36371234855797,-11.3305783413512,0.0215058151583207,-0.001462,-0.036009,-0.005832,-0.061638,-1.644628,329.444610,22.438436,0.999127,0.981405,0.005376,0.345636,0.000639,0.000634,0.000074,0.000711,0.000562,43.951569,0.001276,
2266,2488,0.189578731860511,-3.4518351385554,-0.0191841738219978,0.001462,-0.034119,0.001090,0.050775,-1.523893,323.087322,22.368909,0.999663,0.990426,0.004056,0.510926,0.000125,0.000109,0.000026,0.000144,0.000090,36.410113,0.000235,
2401,2968,3.04156747441534,7.00922420949776,0.00701882901387307,0.003412,-0.033643,0.005436,0.123465,-1.488851,315.527574,23.666546,0.999818,0.994681,0.003322,0.411723,0.000009,0.000000,0.000006,0.000012,-0.000003,25.838182,0.000012,
2356,2698,2.1112592960332,1.13146155745717,-0.0168136225527178,0.002317,-0.033984,0.006231,0.071046,-1.488247,319.654007,22.758201,0.999474,0.990477,0.003917,0.511819,0.000038,0.000063,0.000023,0.000077,0.000024,59.196687,0.000106,
2431,3043,3.67924130455865,8.64093353850356,0.0109056846515045,0.003368,-0.033895,0.009269,0.106548,-1.487191,314.353467,23.980999,0.999447,0.988296,0.004177,0.420183,0.000004,0.000026,0.000020,0.000037,-0.000008,59.560658,0.000039,
2131,3178,-2.8567529929805,11.5452410072989,0.0439608309433765,0.003419,-0.032696,0.010886,0.113729,-1.429650,312.849156,23.059415,0.999226,0.986968,0.004186,0.464147,0.000004,0.000019,-0.000005,0.000020,0.000003,-71.237614,0.000025,
2191,2173,-1.38970327619494,-10.3428686603119,0.00113234246737193,-0.000263,-0.034381,-0.011347,0.011270,-1.595912,328.472051,22.190431,0.998969,0.967823,0.006268,0.437143,0.000550,0.000533,0.000060,0.000602,0.000481,41.008620,0.001085,
2071,3253,-4.1684175522953,13.1651213788614,0.0501302276537672,0.003939,-0.032527,0.012140,0.136253,-1.421710,311.989970,22.806366,0.999674,0.994523,0.003099,0.427781,-0.000006,0.000032,-0.000025,0.000044,-0.000018,-64.040432,0.000045,
2026,1993,-4.96380596267531,-14.2887195861357,0.0176195958356402,-0.006156,-0.036483,-0.013126,-0.257545,-1.720750,331.973813,23.132958,0.998743,0.981715,0.005501,0.318688,0.001009,0.000632,0.000144,0.001058,0.000583,18.754207,0.001664,
2251,2428,-0.125676879876437,-4.76331147000827,-0.00688467828712191,0.001248,-0.033221,-0.000869,0.047832,-1.494857,324.183583,22.295570,0.998873,0.985690,0.004638,0.547277,0.000172,0.000173,0.000024,0.000196,0.000149,45.514233,0.000346,
2116,1993,-3.00045877131679,-14.2877552576857,-0.00283358238743858,-0.004072,-0.037736,-0.010318,-0.168651,-1.747835,331.423591,22.602182,0.999483,0.989883,0.004434,0.190894,0.000977,0.000732,0.000067,0.000994,0.000715,14.363220,0.001717,
2131,2083,-2.68540134139943,-12.3152832910136,0.00304053839323615,-0.002064,-0.036734,-0.005769,-0.089720,-1.687393,330.044831,22.455774,0.998381,0.978617,0.005839,0.346171,0.000733,0.000719,0.000096,0.000822,0.000630,42.923502,0.001457,
2101,1993,-3.32558707444526,-14.2916049839032,0.0251003188457162,-0.004015,-0.037373,-0.013792,-0.156067,-1.747971,331.736531,22.639255,0.999465,0.990096,0.004519,0.257642,0.001013,0.000712,0.000079,0.001033,0.000692,13.844127,0.001736,
2251,2593,-0.155120065820359,-1.16029426801404,-0.0206918497952984,0.002124,-0.033547,0.001736,0.079475,-1.504186,321.427132,22.642559,0.999208,0.986609,0.004580,0.460128,0.000072,0.000037,0.000013,0.000076,0.000032,18.962382,0.000111,
2086,2173,-3.68017160056349,-10.3414065170502,0.00395597052613539,-0.001907,-0.035094,-0.004992,-0.084507,-1.582130,328.814365,22.793385,0.998951,0.982866,0.005144,0.402588,0.000578,0.000507,0.000099,0.000648,0.000437,35.076331,0.001092,
2206,2458,-1.11122669495592,-4.10770634874464,-0.00960347045906929,0.001023,-0.033549,-0.001863,0.040896,-1.479202,323.770844,22.520700,0.998973,0.984080,0.005121,0.500001,0.000159,0.000119,0.000027,0.000173,0.000105,26.804766,0.000281,
2086,3028,-3.80977698714218,8.29106951166636,0.0154456475376037,0.003196,-0.032369,0.008672,0.111407,-1.431494,315.269337,22.877234,0.999542,0.992388,0.003446,0.458608,0.000029,0.000012,0.000015,0.000038,0.000003,30.720199,0.000046,
2446,3283,3.95751444409557,13.8514565549308,0.00301220935989477,0.003990,-0.033502,0.009252,0.135071,-1.489248,310.402754,24.827305,0.999755,0.992200,0.003420,0.436252,0.000017,-0.000001,0.000000,0.000017,-0.000001,1.433969,0.000019,
2101,3088,-3.492803947499,9.59282175391143,0.0292532642457672,0.003598,-0.032254,0.006298,0.136427,-1.443868,314.356260,22.950745,0.999250,0.987482,0.004325,0.420698,0.000017,0.000017,0.000012,0.000029,0.000004,45.280996,0.000037,
2056,3223,-4.48845492731337,12.5138791484691,0.0516857126322066,0.003799,-0.032094,0.010317,0.135586,-1.410596,312.577259,22.715413,0.999490,0.993099,0.003290,0.463496,-0.000013,0.000037,-0.000022,0.000046,-0.000022,-69.319962,0.000046,
2416,2968,3.36693322833275,7.01104486421779,-0.00248121817486435,0.003173,-0.033553,0.004169,0.116856,-1.485752,315.457521,23.710090,0.999797,0.993744,0.003424,0.409111,0.000009,0.000000,0.000006,0.000012,-0.000003,26.182312,0.000013,
2041,2068,-4.64845831046911,-12.6392189852891,-0.017045767458626,-0.004313,-0.035160,-0.006725,-0.190127,-1.625362,330.461425,23.012232,0.999492,0.991110,0.004011,0.410669,0.000817,0.000642,0.000145,0.000898,0.000560,29.431732,0.001471,
2266,2713,0.150490921446714,1.45567364594884,-0.0136381666813463,0.002235,-0.032959,0.001830,0.084315,-1.471711,319.516035,22.907287,0.999649,0.992574,0.003693,0.418528,0.000045,0.000061,0.000003,0.000062,0.000045,81.095432,0.000107,
2386,2818,2.74067327554973,3.7475883104636,-0.0262065233029602,0.002359,-0.033740,0.005124,0.076334,-1.501119,317.638204,23.162968,0.999693,0.991047,0.003915,0.436954,0.000019,0.000039,0.000009,0.000042,0.000015,68.301056,0.000060,
2071,3268,-4.17132798021322,13.4905307461533,0.0371020684233372,0.004092,-0.032125,0.009424,0.151184,-1.417116,311.650166,22.781512,0.999793,0.995804,0.002812,0.452507,-0.000011,0.000029,-0.000028,0.000044,-0.000025,-62.495305,0.000044,
2191,2323,-1.41515268059548,-7.05886051808073,-0.00212195386910707,0.000121,-0.033817,-0.005316,0.010240,-1.541028,326.026463,22.407192,0.998957,0.984143,0.004990,0.443676,0.000309,0.000257,0.000029,0.000321,0.000244,23.852441,0.000567,
2236,2383,-0.444251532540331,-5.74648607853794,-0.00338069275653652,0.001254,-0.033859,-0.001806,0.051009,-1.518798,324.973014,22.343479,0.999376,0.987350,0.004630,0.449280,0.000202,0.000228,0.000027,0.000245,0.000186,57.704387,0.000431,
2056,2113,-4.32589347016169,-11.6560166564325,0.000120945872993161,-0.003152,-0.035429,-0.009560,-0.128967,-1.644073,329.859410,22.888301,0.998777,0.980613,0.005613,0.413912,0.000716,0.000617,0.000137,0.000812,0.000521,35.110644,0.001344,
2491,2248,5.14702264405139,-8.70229306002231,0.000631372875659508,0.002618,-0.035552,-0.001463,0.110095,-1.611319,327.344326,20.889987,0.998901,0.980018,0.005655,0.429141,0.000541,0.000485,-0.000070,0.000589,0.000438,-34.089206,0.001030,
2086,3253,-3.84321297364086,13.1655986946207,0.0551998185472371,0.004005,-0.032653,0.013974,0.133309,-1.432275,311.949892,22.847256,0.999703,0.994494,0.003097,0.456028,-0.000010,0.000021,-0.000022,0.000032,-0.000022,-62.224466,0.000033,
2176,2098,-1.70586793810945,-11.9877271870637,-0.00127527298747054,-0.001318,-0.036352,-0.007022,-0.051351,-1.670501,329.642859,22.089944,0.999175,0.983186,0.005352,0.466931,0.000699,0.000721,0.000066,0.000777,0.000643,49.639936,0.001422,
2101,2008,-3.32719799355335,-13.9652958156941,0.030113931847211,-0.003382,-0.037874,-0.009678,-0.139193,-1.752158,331.556044,22.448549,0.999542,0.990422,0.004580,0.448742,0.000963,0.000728,0.000095,0.000997,0.000694,19.422551,0.001700,
2056,3238,-4.49011213065659,12.838267970834,0.0552330136112573,0.004238,-0.032557,0.009029,0.159337,-1.438880,312.385637,22.713159,0.999557,0.993889,0.003199,0.430875,-0.000015,0.000046,-0.000028,0.000057,-0.000025,-68.926605,0.000057,
2281,2803,0.460191937511993,3.41666392434337,-0.0206440963641512,0.002738,-0.033205,0.005872,0.093719,-1.453843,317.980281,23.102153,0.999174,0.987158,0.004467,0.408878,0.000037,0.000060,0.000007,0.000062,0.000035,73.837878,0.000098,
2041,3148,-4.8019453780806,10.8881452766344,0.0468644141150207,0.003750,-0.032213,0.011348,0.130814,-1.427666,313.845861,22.706229,0.999546,0.993270,0.003434,0.424484,0.000005,0.000048,0.000005,0.000048,0.000004,82.895074,0.000058,
2161,2158,-2.04500877623798,-10.6639339435385,-0.041341347675484,-0.000744,-0.035150,-0.006725,-0.025629,-1.641314,328.417712,22.580131,0.999813,0.944746,0.008390,0.149897,0.000579,0.000562,0.000068,0.000639,0.000503,41.402213,0.001145,
2221,2518,-0.795003529899351,-2.79764518245609,-0.0109770466017949,0.001388,-0.033255,0.001992,0.045343,-1.473000,322.754218,22.567114,0.999374,0.985520,0.004503,0.502617,0.000118,0.000070,0.000024,0.000128,0.000060,22.215749,0.000192,
2146,2143,-2.36733960280154,-11.0004433903602,0.00517486869182449,-0.001670,-0.035276,-0.007100,-0.067131,-1.619872,329.061963,22.385293,0.999322,0.980579,0.005431,0.435333,0.000603,0.000597,0.000071,0.000671,0.000529,43.712496,0.001203,
2116,3178,-3.18153243630041,11.5437753968904,0.0472495960254378,0.003636,-0.032590,0.011605,0.122047,-1.437678,312.951900,22.996744,0.999538,0.991805,0.003551,0.450201,0.000006,0.000023,-0.000005,0.000024,0.000005,-76.114400,0.000031,
2131,3193,-2.85892511279981,11.870533718235,0.0412349547578401,0.003828,-0.032550,0.009340,0.137149,-1.452583,312.604443,23.089986,0.999498,0.991232,0.003642,0.415202,0.000002,0.000013,-0.000009,0.000018,-0.000003,-60.987219,0.000019,
2251,2443,-0.128560327722145,-4.43433617111089,-0.00570761475245263,0.001246,-0.034425,0.003391,0.033398,-1.535787,323.935829,22.495484,0.999442,0.989083,0.004268,0.331310,0.000157,0.000162,0.000027,0.000187,0.000132,47.592709,0.000321,
2026,2008,-4.96646284113941,-13.9577444172338,0.00617531978508623,-0.005633,-0.036609,-0.007876,-0.248007,-1.674997,331.647537,23.129368,0.998127,0.981833,0.005779,0.362398,0.000986,0.000655,0.000165,0.001054,0.000586,22.493266,0.001662,
2371,2773,2.42367348943414,2.76699675267724,-0.020726429464446,0.002684,-0.033602,0.004586,0.093591,-1.479261,318.426392,23.030134,0.999379,0.989142,0.004033,0.453085,0.000027,0.000066,0.000024,0.000077,0.000016,64.666228,0.000099,
2311,2488,1.17100045732754,-3.45180683794311,-0.000671662027457387,0.001350,-0.034027,0.001920,0.042328,-1.503051,323.182448,22.340550,0.999330,0.986513,0.004460,0.459761,0.000140,0.000112,0.000020,0.000150,0.000102,27.490816,0.000253,
2506,2263,5.4725972703527,-8.37384333129295,0.00960150242588043,0.002988,-0.035781,0.001508,0.115353,-1.599927,327.226650,20.948227,0.998404,0.975178,0.006090,0.375852,0.000515,0.000467,-0.000069,0.000564,0.000417,-35.470999,0.000985,
2131,2098,-2.68770181420502,-11.9847536930853,-0.00135945459197728,-0.001776,-0.035993,-0.007224,-0.071943,-1.641960,329.784200,22.529838,0.998814,0.982984,0.005211,0.326375,0.000704,0.000693,0.000094,0.000792,0.000604,43.372681,0.001401,
2221,2278,-0.753309419365941,-8.04346918385041,0.00244353479547499,0.000483,-0.035147,-0.001973,0.015808,-1.585419,326.715698,22.280017,0.998706,0.981658,0.005380,0.348613,0.000357,0.000342,0.000037,0.000388,0.000312,39.229850,0.000701,
2071,2113,-3.99834393979537,-11.6559969993326,0.0160631200729426,-0.003133,-0.035409,-0.004509,-0.142221,-1.613823,329.897235,22.967120,0.998601,0.979974,0.005642,0.277190,0.000706,0.000629,0.000127,0.000800,0.000535,36.562929,0.001344,
2296,2863,0.775853411873058,4.72142229477494,-0.0106042777846369,0.002587,-0.033633,0.007690,0.080111,-1.479521,317.055916,23.217587,0.999617,0.991884,0.003714,0.400073,0.000025,0.000039,0.000002,0.000039,0.000025,81.351862,0.000065,
2341,2623,1.79792289890894,-0.503215212903825,-0.0196495434542499,0.001624,-0.034056,0.005824,0.040967,-1.490106,320.819181,22.619214,0.999214,0.986659,0.004535,0.465950,0.000065,0.000027,0.000025,0.000077,0.000015,26.463443,0.000099,
2086,2188,-3.68220827562186,-10.0123729520754,0.00273920066530309,-0.001599,-0.034387,-0.005675,-0.068190,-1.550659,328.579060,22.811585,0.998693,0.982908,0.005305,0.417639,0.000544,0.000505,0.000104,0.000630,0.000419,39.559235,0.001056,
2041,2083,-4.64860575792657,-12.3128216609029,0.00868339001249296,-0.004045,-0.034813,-0.010441,-0.167450,-1.618154,330.457564,23.073392,0.999248,0.986153,0.004645,0.351110,0.000777,0.000653,0.000146,0.000874,0.000556,33.482264,0.001442,
2026,3133,-5.12531257894627,10.5631759246808,0.0366646649083577,0.003485,-0.031954,0.008711,0.126580,-1.393851,314.093152,22.673099,0.999567,0.993570,0.003343,0.438170,0.000009,0.000051,0.000014,0.000056,0.000004,73.064596,0.000067,
2116,2008,-3.00252497573274,-13.9624798954526,0.00464855195156133,-0.004124,-0.038694,-0.007707,-0.179073,-1.789048,331.236980,22.384673,0.999510,0.991002,0.004495,0.374031,0.000933,0.000743,0.000085,0.000966,0.000711,20.870369,0.001683,
2356,2713,2.10825694838651,1.4595994366891,-0.0215383533118825,0.002314,-0.033661,0.003475,0.080723,-1.501536,319.379609,22.892442,0.999455,0.990838,0.003819,0.403726,0.000035,0.000072,0.000026,0.000086,0.000021,62.635650,0.000114,
2191,2428,-1.43205867121489,-4.76364410321318,-0.00808235508498001,0.001462,-0.033472,-0.003372,0.065846,-1.521231,324.336719,22.521481,0.998612,0.985712,0.005042,0.462664,0.000188,0.000139,0.000016,0.000193,0.000134,16.626526,0.000329,
2281,2608,0.494612983018058,-0.831469538972421,-0.0194283049628439,0.001876,-0.034092,0.006693,0.050984,-1.481032,321.117566,22.703199,0.999080,0.987322,0.004550,0.415942,0.000069,0.000028,0.000023,0.000079,0.000018,23.984775,0.000103,
2476,2038,4.86547788591313,-13.3146727319192,0.0198642438783168,0.003516,-0.037822,-0.010746,0.185194,-1.762138,330.934376,20.013316,0.999194,0.978941,0.005759,0.389004,0.000993,0.000721,-0.000063,0.001006,0.000708,-12.365326,0.001723,
2086,3043,-3.81128977290669,8.61520966936492,0.0270489741189408,0.003348,-0.032788,0.008419,0.119024,-1.448238,315.129949,22.849465,0.999625,0.991819,0.003542,0.467616,0.000027,0.000008,0.000009,0.000030,0.000004,21.248414,0.000037,
2206,2203,-1.06822908065768,-9.68437784110373,-0.000374470527276571,-0.000398,-0.034495,-0.007134,-0.007986,-1.579017,327.914575,22.267009,0.998586,0.980148,0.005658,0.336958,0.000492,0.000490,0.000046,0.000537,0.000445,44.277713,0.000984,
2401,2983,3.03835637371264,7.33532404191046,0.00598313404418604,0.003341,-0.033476,0.007149,0.114053,-1.480841,315.264192,23.700898,0.999680,0.991880,0.003723,0.430445,0.000009,0.000001,0.000010,0.000016,-0.000005,33.973622,0.000016,
2176,2278,-1.73415873115611,-8.0437790522061,0.00470372630002203,0.000067,-0.034425,-0.003412,0.001611,-1.552524,326.847170,22.430210,0.998611,0.979596,0.005671,0.423148,0.000373,0.000324,0.000031,0.000388,0.000308,25.835015,0.000698,
2071,3283,-4.17424666510625,13.8155743799333,0.0277287376263757,0.004131,-0.032098,0.008635,0.155273,-1.417851,311.330221,22.753695,0.999779,0.996054,0.002750,0.475096,-0.000012,0.000052,-0.000032,0.000066,-0.000025,-67.307929,0.000066,
2206,2473,-1.11415457686407,-3.77945721601393,-0.015856866822503,0.001074,-0.032902,-0.002105,0.044211,-1.486567,323.479197,22.561242,0.999303,0.982911,0.005221,0.470295,0.000152,0.000104,0.000027,0.000165,0.000092,24.345905,0.000260,
2296,2653,0.813001843119356,0.14942544808153,-0.0197253557601016,0.001859,-0.033568,0.005207,0.055015,-1.477168,320.371381,22.722369,0.999394,0.987115,0.004197,0.476673,0.000057,0.000038,0.000019,0.000070,0.000026,31.958742,0.000099,
2101,2023,-3.33074122413415,-13.6331153746299,0.0222700919283056,-0.003667,-0.037676,-0.003132,-0.171267,-1.710083,331.217068,22.606085,0.999223,0.985439,0.005241,0.338811,0.000911,0.000724,0.000092,0.000949,0.000686,22.338003,0.001642,
2446,3298,3.95441542177528,14.1761325414885,0.000468686015096864,0.004131,-0.033445,0.009731,0.139795,-1.488972,310.139762,24.814525,0.999754,0.992833,0.003359,0.499917,0.000008,-0.000007,-0.000009,0.000012,-0.000011,-24.293650,0.000013,
2101,2218,-3.36055150700298,-9.35470276077299,-0.00414899457530282,-0.001584,-0.034116,-0.005383,-0.068230,-1.541654,327.966753,22.771842,0.998141,0.980685,0.005672,0.397423,0.000481,0.000450,0.000092,0.000559,0.000372,40.085028,0.000937,
2251,2608,-0.157787553773016,-0.83346646299659,-0.0203324263219997,0.001965,-0.033510,0.000082,0.077589,-1.510207,321.185103,22.656983,0.999196,0.985328,0.004727,0.463607,0.000067,0.000026,0.000014,0.000071,0.000022,17.682533,0.000097,
2056,3253,-4.49265539426761,13.1635959405716,0.055451623350109,0.004165,-0.032573,0.010429,0.152024,-1.428764,312.134559,22.743942,0.999726,0.994818,0.003087,0.403451,-0.000015,0.000046,-0.000034,0.000061,-0.000030,-65.845740,0.000061,
2431,3058,3.67636661025988,8.96742676422945,0.0109205290603995,0.003369,-0.033685,0.008066,0.111177,-1.477911,314.112242,24.078098,0.999561,0.989744,0.004082,0.381547,0.000001,0.000024,0.000020,0.000035,-0.000010,60.388478,0.000036,
2266,2503,0.187150173271679,-3.12300835564616,-0.0184577070514251,0.001486,-0.033540,-0.001340,0.060151,-1.503000,322.858979,22.509800,0.999666,0.991351,0.004010,0.417565,0.000115,0.000092,0.000020,0.000126,0.000081,29.935145,0.000209,
2071,2128,-4.00093929818703,-11.3270983273497,0.0126144645462318,-0.002914,-0.035820,0.000662,-0.147043,-1.602536,329.623033,22.946311,0.998819,0.982760,0.005360,0.309305,0.000665,0.000611,0.000125,0.000766,0.000511,38.845980,0.001285,
2236,2608,-0.483939901636322,-0.834120672820504,-0.0177351805002672,0.002019,-0.033273,0.000043,0.080448,-1.490575,321.240017,22.657312,0.999106,0.984666,0.004815,0.498534,0.000071,0.000037,0.000016,0.000077,0.000030,21.139164,0.000111,
2281,2818,0.458511159694854,3.74147677644822,-0.0106912765687071,0.002954,-0.033438,0.004681,0.107524,-1.483512,317.833876,23.091836,0.999273,0.988409,0.004151,0.417011,0.000036,0.000058,0.000004,0.000059,0.000036,79.415175,0.000095,
2056,2128,-4.32856111205443,-11.3256978778762,0.000172610071899726,-0.003126,-0.035331,-0.002379,-0.147907,-1.590211,329.599218,22.993131,0.998660,0.980585,0.005709,0.360522,0.000674,0.000601,0.000138,0.000780,0.000495,37.617624,0.001286,
2101,3103,-3.49509766143697,9.9180992645427,0.0353290874286927,0.003581,-0.032708,0.009712,0.125590,-1.440507,314.151378,22.985027,0.999606,0.992603,0.003449,0.389753,0.000013,0.000015,0.000010,0.000025,0.000004,48.065731,0.000031,
2371,2788,2.42126633860725,3.0946917756213,-0.0169898909777544,0.002737,-0.033250,0.002981,0.101815,-1.487911,318.220924,23.209422,0.999837,0.993872,0.003442,0.305875,0.000026,0.000059,0.000019,0.000068,0.000017,65.028337,0.000090,
2041,3163,-4.80457746259307,11.212975432934,0.0433049538073647,0.003710,-0.032552,0.011607,0.128166,-1.433652,313.568755,22.662090,0.999580,0.992929,0.003500,0.454045,-0.000004,0.000063,-0.000002,0.000063,-0.000004,-88.545188,0.000071,
2491,2263,5.14448630958473,-8.37328190137666,0.00303926294941448,0.002786,-0.035296,-0.003723,0.126533,-1.614235,327.137885,21.010140,0.998676,0.978087,0.005550,0.366967,0.000509,0.000441,-0.000075,0.000557,0.000392,-32.714221,0.000955,
2191,2338,-1.4167426231029,-6.7309403016048,0.0112275902806118,0.000434,-0.034288,-0.001156,0.011440,-1.541899,325.896518,22.554415,0.999663,0.988653,0.004414,0.311620,0.000286,0.000242,0.000024,0.000297,0.000232,23.592894,0.000530,
2161,2173,-2.0482672135925,-10.3376978434635,-0.0487213062581304,-0.000762,-0.035003,-0.002002,-0.040848,-1.612786,328.101220,22.280153,0.999766,0.931073,0.008786,0.491611,0.000561,0.000527,0.000067,0.000613,0.000474,37.846777,0.001090,
2131,3208,-2.8609191806515,12.1954673240406,0.0494610168170766,0.003832,-0.032408,0.009804,0.136147,-1.417794,312.426699,23.097667,0.999663,0.993640,0.003266,0.446699,0.000000,0.000008,-0.000011,0.000016,-0.000008,-54.381255,0.000016,
2116,3193,-3.18392731414171,11.8690365670878,0.0448848968910625,0.003779,-0.032591,0.010126,0.133020,-1.446612,312.697780,23.012061,0.999579,0.992034,0.003662,0.428064,0.000003,0.000018,-0.000009,0.000022,-0.000001,-65.343362,0.000025,
2146,2158,-2.36984342773807,-10.669767923541,0.00045555824181065,-0.001521,-0.035143,-0.008592,-0.055776,-1.626277,328.791998,22.543901,0.999656,0.965213,0.006536,0.281136,0.000575,0.000554,0.000068,0.000633,0.000496,40.447774,0.001132,
2176,2353,-1.74773436514674,-6.40197611540316,-0.00905115961523961,0.000277,-0.034501,0.001973,-0.005445,-1.542364,325.515574,22.532954,0.998725,0.980377,0.005462,0.402431,0.000271,0.000220,0.000015,0.000275,0.000216,15.162148,0.000492,
2071,3298,-4.17656053750017,14.1403975498597,0.0257972959508379,0.004317,-0.032205,0.007893,0.165964,-1.421384,311.079078,22.753275,0.999540,0.994319,0.003128,0.467499,-0.000019,0.000075,-0.000040,0.000090,-0.000034,-69.623755,0.000091,
2341,2638,1.79585890048719,-0.1762123411253,-0.0163038890191274,0.001813,-0.033261,0.001840,0.063760,-1.485913,320.626179,22.675230,0.999125,0.986503,0.004624,0.451126,0.000056,0.000029,0.000019,0.000066,0.000019,27.363298,0.000089,
2116,2023,-3.00387625088013,-13.6315784587517,0.00548087114600548,-0.003285,-0.037081,-0.009432,-0.135025,-1.722344,331.046037,22.500894,0.999239,0.984020,0.005524,0.331223,0.000889,0.000739,0.000086,0.000928,0.000700,24.428553,0.001633,
2416,2983,3.36411294040699,7.33614959226144,0.000190078759999324,0.003273,-0.033535,0.006552,0.112696,-1.485592,315.230919,23.686847,0.999857,0.993999,0.003308,0.479692,0.000009,0.000001,0.000011,0.000017,-0.000007,35.029413,0.000017,
2296,2668,0.810773278982811,0.476267862416826,-0.0137143127942636,0.001931,-0.033905,0.005280,0.057905,-1.508279,320.180895,22.829298,0.999602,0.990000,0.003936,0.369022,0.000054,0.000048,0.000014,0.000065,0.000037,39.530260,0.000104,
2086,3268,-3.84606338585735,13.4914134713195,0.044799898633471,0.004136,-0.032287,0.012097,0.144978,-1.416710,311.628518,22.863318,0.999724,0.995236,0.002938,0.453175,-0.000014,0.000018,-0.000027,0.000033,-0.000029,-60.344559,0.000036,
2356,2728,2.10606105295187,1.78560443191867,-0.0109150834043135,0.002488,-0.033896,0.007968,0.072811,-1.485274,319.216573,22.929882,0.999390,0.990026,0.003966,0.421403,0.000032,0.000077,0.000029,0.000091,0.000018,63.821474,0.000117,
2041,3178,-4.80683617628523,11.537710906595,0.0448889219540547,0.003717,-0.032297,0.011628,0.128523,-1.423974,313.337440,22.628483,0.999701,0.993461,0.003322,0.488368,-0.000004,0.000061,-0.000004,0.000061,-0.000005,-86.792527,0.000068,
2206,2488,-1.11734323666805,-3.450836737335,-0.0230667419771748,0.000876,-0.033067,-0.003282,0.038753,-1.492546,323.170545,22.631461,0.999324,0.985024,0.004820,0.412165,0.000139,0.000089,0.000022,0.000147,0.000081,20.596509,0.000231,
2311,2503,1.16825516570387,-3.12401903231235,-0.00684701677852217,0.001681,-0.033718,0.000051,0.064031,-1.505980,322.909537,22.346697,0.999441,0.987797,0.004267,0.484368,0.000124,0.000100,0.000014,0.000131,0.000094,24.428384,0.000226,
2101,2038,-3.33360155913922,-13.3036136194296,0.00631829955761987,-0.003486,-0.037129,-0.007742,-0.149423,-1.682657,330.866117,22.449877,0.999304,0.985011,0.005316,0.527749,0.000867,0.000707,0.000094,0.000910,0.000663,24.740178,0.001580,
2326,2563,1.48316563151777,-1.81242867188121,-0.016532124318644,0.001837,-0.033815,0.002309,0.063282,-1.487697,321.845809,22.511990,0.998461,0.982405,0.005265,0.448245,0.000093,0.000050,0.000021,0.000102,0.000041,22.426640,0.000147,
2371,2803,2.41857684861543,3.41944224511111,-0.013698608724269,0.002800,-0.033559,0.004869,0.097922,-1.488738,318.001014,23.110756,0.999843,0.994288,0.003428,0.444925,0.000024,0.000049,0.000016,0.000057,0.000016,64.252669,0.000077,
2476,2053,4.86189787937454,-12.9854093035053,0.0183494708724083,0.003338,-0.038673,-0.008331,0.167593,-1.806544,330.662527,20.080136,0.999257,0.982323,0.005370,0.337832,0.000954,0.000734,-0.000077,0.000978,0.000710,-17.570957,0.001695,
2221,2533,-0.797160735632236,-2.46917873026345,-0.0149186137617789,0.001935,-0.033271,-0.000495,0.078431,-1.487056,322.510999,22.676312,0.999544,0.989048,0.004067,0.399390,0.000110,0.000061,0.000022,0.000119,0.000053,20.830267,0.000175,
2266,2728,0.147192635653099,1.7826389979822,-0.0201355037355597,0.002391,-0.033435,0.005911,0.077834,-1.471641,319.211429,22.909668,0.999427,0.990146,0.003955,0.442087,0.000048,0.000061,0.000002,0.000061,0.000047,81.058508,0.000109,
2461,1993,4.54598664548528,-14.3031790671763,0.0159219894813418,0.003101,-0.039059,-0.014375,0.179049,-1.829364,331.583927,19.951152,0.998271,0.967119,0.006871,0.310374,0.001094,0.000819,-0.000015,0.001095,0.000818,-3.055655,0.001919,
2026,2023,-4.96746821939938,-13.6288422615972,0.00885685027645877,-0.004762,-0.035548,-0.010032,-0.201849,-1.638758,331.475405,23.112914,0.998114,0.980123,0.005997,0.408670,0.000932,0.000610,0.000149,0.000990,0.000552,21.351910,0.001563,
2056,3268,-4.49537313889115,13.4884505468942,0.0514712230191208,0.004100,-0.032275,0.010603,0.148642,-1.419651,311.852443,22.712647,0.999721,0.994859,0.002984,0.437034,-0.000018,0.000041,-0.000037,0.000059,-0.000036,-64.359162,0.000059,
2131,2113,-2.69000823818505,-11.6572199495748,0.0049188058159757,-0.001960,-0.036333,-0.004979,-0.087213,-1.643815,329.580770,22.500273,0.998947,0.982903,0.005239,0.362668,0.000674,0.000659,0.000091,0.000758,0.000575,42.611798,0.001337,
2146,3283,-2.54989008608355,13.8228017566452,0.0227147222692565,0.004189,-0.032663,0.010522,0.149824,-1.441399,310.925572,23.205181,0.999563,0.993570,0.003312,0.420740,0.000006,0.000021,-0.000015,0.000030,-0.000003,-58.673375,0.000033,
2086,2203,-3.6846364792638,-9.68363888035369,-0.000714345484936985,-0.001508,-0.034346,-0.005895,-0.063397,-1.559769,328.314003,22.825018,0.998422,0.981320,0.005416,0.396612,0.000516,0.000480,0.000105,0.000605,0.000392,40.127761,0.001004,
2401,2998,3.03529483557999,7.66236943190164,0.00143362142023307,0.003393,-0.033186,0.004951,0.124510,-1.479148,314.990761,23.809071,0.999562,0.989545,0.004051,0.368942,0.000010,0.000008,0.000013,0.000022,-0.000004,42.804813,0.000023,
2131,3223,-2.86327319272694,12.5200735294302,0.0505240795558848,0.004007,-0.032486,0.011213,0.139984,-1.418837,312.194192,23.072509,0.999619,0.993719,0.003219,0.475172,0.000000,0.000005,-0.000015,0.000018,-0.000013,-49.782367,0.000018,
2041,2098,-4.65002954340894,-11.9849118607459,0.0155004971949211,-0.003539,-0.034980,-0.008251,-0.150397,-1.607697,330.290840,23.064118,0.999142,0.980367,0.005312,0.366033,0.000740,0.000638,0.000143,0.000841,0.000537,35.156692,0.001389,
2131,2128,-2.69205178339775,-11.3289754850896,0.00361207857145018,-0.001544,-0.036382,-0.005200,-0.067464,-1.673928,329.349072,22.486049,0.998691,0.980226,0.005527,0.355534,0.000643,0.000633,0.000089,0.000727,0.000549,43.319522,0.001280,
2506,2278,5.46918086281925,-8.04513322973086,0.00543300415921522,0.002765,-0.035504,-0.001781,0.117970,-1.593721,326.951627,20.969681,0.998725,0.975626,0.005781,0.424137,0.000489,0.000408,-0.000052,0.000514,0.000383,-26.131517,0.000900,
2056,2143,-4.32996763725911,-10.9984163649808,0.00499471062801149,-0.002629,-0.035073,-0.003023,-0.123249,-1.589084,329.423622,22.930063,0.998787,0.982686,0.005502,0.422205,0.000638,0.000581,0.000125,0.000738,0.000481,38.578440,0.001229,
2086,1993,-3.65373202996664,-14.2908177629054,0.0189247594240669,-0.004433,-0.037522,-0.011554,-0.182047,-1.741161,331.730884,22.702127,0.998700,0.982514,0.005419,0.307591,0.001007,0.000696,0.000094,0.001033,0.000670,15.599208,0.001716,
2236,2623,-0.486329734861979,-0.506417244820234,-0.0160254006897276,0.002263,-0.033077,0.001786,0.086075,-1.477682,321.016140,22.748851,0.999168,0.984581,0.004816,0.441577,0.000067,0.000040,0.000013,0.000072,0.000035,21.645279,0.000109,
2026,3148,-5.12690251158595,10.887001925086,0.0449704427272195,0.003850,-0.032262,0.010732,0.137733,-1.412815,313.929469,22.617694,0.999626,0.994195,0.003228,0.463740,0.000004,0.000057,0.000007,0.000058,0.000003,82.692228,0.000069,
2491,2278,5.14171276634373,-8.04422856377109,0.00438289081444054,0.002827,-0.035038,-0.005737,0.136201,-1.598617,326.915613,21.109738,0.999074,0.979912,0.005299,0.344045,0.000480,0.000391,-0.000058,0.000508,0.000363,-26.363878,0.000875,
2461,2008,4.54296164903467,-13.9736893929906,0.0192353861482957,0.003119,-0.039072,-0.011034,0.167355,-1.817601,331.358015,20.020569,0.998550,0.972090,0.006426,0.310783,0.001066,0.000774,-0.000029,0.001069,0.000771,-5.650829,0.001848,
2176,2293,-1.73633947512366,-7.7144139132319,0.00220883758117907,0.000411,-0.033876,-0.005521,0.024133,-1.521034,326.606357,22.504631,0.998796,0.981909,0.005340,0.394769,0.000352,0.000302,0.000038,0.000373,0.000281,28.272544,0.000656,
2206,2218,-1.07074838483187,-9.35619724221007,0.000624707508677602,-0.000340,-0.034564,-0.005660,-0.010039,-1.574206,327.679359,22.270284,0.998737,0.980961,0.005541,0.357754,0.000466,0.000452,0.000043,0.000503,0.000415,40.610745,0.000919,
2116,2038,-3.00604954375442,-13.3027454035005,-0.000170029994421839,-0.002995,-0.036668,-0.013295,-0.110260,-1.705007,330.783504,22.410816,0.999034,0.982584,0.005495,0.445718,0.000850,0.000722,0.000086,0.000893,0.000678,26.676638,0.001576,
2026,2038,-4.96943570524046,-13.3015623365409,0.0171728696612945,-0.004891,-0.035846,-0.007208,-0.215583,-1.667227,331.291357,23.081806,0.998193,0.977740,0.006000,0.404712,0.000891,0.000595,0.000148,0.000953,0.000534,22.511260,0.001506,
2161,2188,-2.04756715151251,-10.0157675569592,-0.00427775374043904,-0.000878,-0.034415,-0.005920,-0.034030,-1.578172,328.238437,22.133020,0.999712,0.911237,0.009622,0.684132,0.000531,0.000514,0.000066,0.000588,0.000456,41.187606,0.001047,
2176,2368,-1.74971136907237,-6.0734301556139,-0.0120189693915904,0.000806,-0.033876,-0.000926,0.028000,-1.525586,325.281743,22.569906,0.999147,0.985919,0.004720,0.396441,0.000251,0.000225,0.000016,0.000259,0.000218,25.201877,0.000477,
2116,2053,-3.0080925081209,-12.9732748577156,0.00377483778834176,-0.002733,-0.036453,-0.010176,-0.107360,-1.687985,330.578126,22.492414,0.998404,0.978263,0.005724,0.387736,0.000812,0.000724,0.000091,0.000869,0.000667,32.049241,0.001541,
2221,2293,-0.755402735752355,-7.71536480368388,0.00211396799073782,0.000711,-0.034012,-0.005884,0.039134,-1.560868,326.494236,22.268850,0.998854,0.983967,0.005028,0.405463,0.000333,0.000321,0.000045,0.000373,0.000281,40.967137,0.000656,
2296,2878,0.77337165544607,5.04743711470859,-0.0139106675965195,0.002805,-0.033045,0.003814,0.103429,-1.476347,316.807187,23.201815,0.999613,0.991622,0.003730,0.448739,0.000018,0.000031,0.000004,0.000032,0.000017,74.366378,0.000050,
2281,2623,0.491845141940985,-0.505053546676159,-0.0209128742434359,0.001766,-0.034089,0.004581,0.052989,-1.494494,320.864146,22.676603,0.999294,0.986893,0.004405,0.457337,0.000065,0.000031,0.000020,0.000074,0.000023,24.628437,0.000101,
2146,2173,-2.36966420389926,-10.3465083346204,0.0361934790313967,-0.000990,-0.035435,-0.003814,-0.045926,-1.619080,328.859507,22.447244,0.999778,0.944674,0.008095,0.393838,0.000560,0.000520,0.000067,0.000610,0.000471,36.658612,0.001083,
2386,2833,2.73797546744001,4.07440906773908,-0.0236885730737981,0.002506,-0.033750,0.006968,0.076520,-1.490973,317.414590,23.247010,0.999533,0.986757,0.004417,0.406065,0.000015,0.000034,0.000007,0.000036,0.000012,71.258851,0.000050,
2191,2443,-1.43519620857758,-4.43499518477678,-0.0130236298354021,0.001189,-0.033414,-0.003567,0.053956,-1.502983,324.040729,22.574317,0.998807,0.985154,0.005029,0.444218,0.000172,0.000133,0.000019,0.000180,0.000125,22.361557,0.000306,
2086,2218,-3.68657656946359,-9.35460295474252,-0.00257456183834393,-0.001230,-0.033502,-0.009292,-0.040591,-1.521882,328.079601,22.841383,0.998298,0.981750,0.005397,0.419895,0.000489,0.000453,0.000103,0.000575,0.000367,40.073538,0.000950,
2236,2398,-0.447704772763341,-5.41708499871114,-0.0150718731284769,0.001057,-0.033470,-0.004496,0.050840,-1.519751,324.632446,22.404166,0.999456,0.989265,0.004244,0.410988,0.000190,0.000208,0.000027,0.000228,0.000170,54.240461,0.000400,
2251,2458,-0.131074978405579,-4.10689464883671,-0.00633635833486323,0.001381,-0.034052,0.002869,0.041426,-1.511066,323.695890,22.477424,0.999690,0.990650,0.004148,0.398827,0.000143,0.000143,0.000031,0.000174,0.000112,44.981700,0.000288,
2506,2293,5.46594054253547,-7.71607982473586,0.00777800993296296,0.002591,-0.035337,-0.000119,0.103668,-1.575269,326.713511,21.081667,0.999143,0.977131,0.005597,0.393604,0.000463,0.000355,-0.000040,0.000476,0.000342,-18.264890,0.000822,
2356,2743,2.10316973105249,2.1121622196609,-0.0143083393346615,0.002251,-0.033556,0.002157,0.082515,-1.493815,318.953942,22.934177,0.999514,0.990746,0.003785,0.447490,0.000030,0.000080,0.000028,0.000092,0.000018,66.212469,0.000118,
2206,2503,-1.11932277954636,-3.1246797977692,-0.0161020697302661,0.001134,-0.033145,-0.000962,0.043252,-1.496793,322.990886,22.608833,0.999517,0.988155,0.004312,0.448248,0.000130,0.000077,0.000018,0.000136,0.000071,16.857501,0.000210,
2101,2233,-3.36213151880077,-9.02729336090449,0.000782379336442318,-0.001026,-0.034339,-0.003652,-0.047733,-1.558864,327.787297,22.770667,0.998448,0.982395,0.005361,0.384974,0.000462,0.000413,0.000082,0.000523,0.000353,36.662377,0.000881,
2476,2068,4.85929336446845,-12.655252297968,0.0201196705414759,0.003456,-0.037521,-0.010717,0.182490,-1.742661,330.449495,20.162229,0.999170,0.979901,0.005690,0.379749,0.000910,0.000723,-0.000091,0.000947,0.000686,-22.016754,0.001640,
2131,3238,-2.86635062016862,12.8455857425413,0.0416469905592862,0.004008,-0.032690,0.011025,0.140418,-1.447337,311.874831,23.105634,0.999551,0.993566,0.003178,0.417611,-0.000001,0.000007,-0.000016,0.000019,-0.000014,-52.136512,0.000020,
2041,2113,-4.65148250783675,-11.6564313170041,0.0120482410957266,-0.002712,-0.035001,-0.010603,-0.105937,-1.613071,330.066108,23.015339,0.998785,0.979552,0.005697,0.404820,0.000704,0.000612,0.000138,0.000803,0.000513,35.749502,0.001326,
2461,2023,4.53977941137946,-13.6427359350976,0.015137579120676,0.003257,-0.038496,-0.011819,0.176873,-1.784550,331.090904,20.123408,0.998993,0.977631,0.005800,0.299390,0.001031,0.000762,-0.000054,0.001042,0.000751,-10.828011,0.001801,
2491,2293,5.13829615960519,-7.71623251442863,0.00371759218717216,0.002665,-0.034923,-0.004380,0.123669,-1.596173,326.654896,21.110649,0.999182,0.980766,0.005196,0.406702,0.000457,0.000347,-0.000047,0.000474,0.000330,-20.102590,0.000808,
2086,2008,-3.6554998575318,-13.9619623105641,0.0213441320800598,-0.003975,-0.037300,-0.010107,-0.165154,-1.720938,331.527523,22.689520,0.999091,0.985599,0.005081,0.342886,0.000962,0.000715,0.000110,0.001004,0.000673,20.843027,0.001688,
2086,3283,-3.84874286145145,13.8161051163379,0.0442505746181041,0.003968,-0.032559,0.012581,0.135757,-1.424044,311.369279,22.857480,0.999644,0.994741,0.002989,0.449209,-0.000015,0.000041,-0.000030,0.000053,-0.000028,-66.472117,0.000053,
2131,2368,-2.72943543786474,-6.07387504613309,-0.00950070279657211,0.000420,-0.032978,-0.005105,0.023363,-1.504714,325.464891,22.716126,0.999019,0.985565,0.004755,0.422653,0.000274,0.000214,0.000024,0.000282,0.000205,19.139991,0.000489,
2311,2518,1.16498167502426,-2.79558710573367,-0.0137295651230147,0.001543,-0.033583,-0.001831,0.064140,-1.519377,322.608767,22.421746,0.999417,0.986047,0.004415,0.429327,0.000117,0.000088,0.000018,0.000126,0.000079,24.897779,0.000207,
2341,2653,1.79257207553428,0.151511793386824,-0.0258412136323614,0.002173,-0.033673,0.003161,0.075579,-1.491345,320.314368,22.703276,0.999349,0.988312,0.004358,0.455304,0.000045,0.000031,0.000022,0.000061,0.000015,36.147839,0.000080,
2071,2143,-4.00268120062695,-10.9975372142157,0.00712782211894591,-0.002478,-0.034413,-0.006376,-0.106597,-1.555268,329.376383,22.933819,0.998915,0.982968,0.005319,0.368778,0.000629,0.000588,0.000113,0.000723,0.000494,39.921088,0.001224,
2251,2623,-0.160009534734716,-0.506789408582797,-0.0142589386289842,0.002179,-0.033575,0.003113,0.077509,-1.488731,320.992330,22.683466,0.999133,0.985755,0.004639,0.482635,0.000062,0.000031,0.000011,0.000066,0.000027,17.015782,0.000096,
2431,3073,3.67319737068981,9.29215272552535,0.0102839567844057,0.003175,-0.033754,0.007524,0.104251,-1.483231,313.854886,24.026773,0.999621,0.991165,0.003823,0.476678,0.000002,0.000028,0.000019,0.000038,-0.000008,62.274940,0.000040,
2041,3193,-4.8089534782097,11.8632194910962,0.0484145080384906,0.003597,-0.032223,0.009089,0.130151,-1.411951,313.123135,22.678696,0.999604,0.993229,0.003362,0.441488,-0.000006,0.000056,-0.000010,0.000058,-0.000008,-80.996570,0.000063,
2116,2293,-3.04499525046225,-7.71315766797268,-0.00526601107623037,-0.000695,-0.033521,-0.003239,-0.033549,-1.500813,326.716192,22.774229,0.998699,0.985354,0.005017,0.392067,0.000383,0.000292,0.000060,0.000413,0.000262,26.572658,0.000680,
2176,2308,-1.73905332777784,-7.38654463462581,3.68833850075134E-05,0.000137,-0.033543,-0.008472,0.020747,-1.534514,326.343301,22.496059,0.998685,0.981734,0.005366,0.404215,0.000331,0.000277,0.000036,0.000349,0.000259,26.745055,0.000610,
2416,2998,3.36164270201381,7.66241895290442,0.00212825004285833,0.003580,-0.033563,0.006337,0.127590,-1.488837,315.016602,23.773006,0.999543,0.988638,0.004056,0.437188,0.000009,0.000006,0.000015,0.000022,-0.000007,42.162517,0.000023,
2296,2683,0.807951025266309,0.802580685934096,-0.0152166392438744,0.002014,-0.033835,0.006124,0.058979,-1.484458,319.925882,22.774638,0.999606,0.989811,0.003955,0.478070,0.000053,0.000064,0.000011,0.000071,0.000046,58.072088,0.000117,
2026,2053,-4.97156086406131,-12.9703715593012,0.0209308088921603,-0.004844,-0.035809,-0.003837,-0.222650,-1.646877,331.073875,23.311537,0.999596,0.992163,0.003837,0.188640,0.000857,0.000621,0.000148,0.000929,0.000550,25.757215,0.001495,
2116,2068,-3.01041781649739,-12.6444944177175,0.00674078998804362,-0.002780,-0.036478,-0.008425,-0.114668,-1.703174,330.354912,22.537391,0.998369,0.969213,0.006761,0.334375,0.000778,0.000712,0.000098,0.000848,0.000641,35.721501,0.001494,
2461,2038,4.53691777944606,-13.3127956427461,0.0127156932649655,0.003498,-0.037656,-0.013435,0.194316,-1.757138,330.846113,20.164412,0.999098,0.978481,0.005800,0.343740,0.000988,0.000754,-0.000063,0.001003,0.000738,-14.077162,0.001748,
2206,2518,-1.12176702767069,-2.79718470630095,-0.0209236631037584,0.001464,-0.032867,-0.002769,0.064270,-1.469224,322.728743,22.574673,0.999413,0.987475,0.004412,0.527919,0.000121,0.000066,0.000023,0.000129,0.000058,19.867222,0.000191,
2146,3298,-2.55249310308982,14.1471524938925,0.0227471936233314,0.004096,-0.032600,0.010133,0.146665,-1.452964,310.677181,23.181821,0.999576,0.994584,0.003041,0.439081,0.000009,0.000041,-0.000021,0.000052,-0.000002,-63.540721,0.000059,
2191,2458,-1.43807445786139,-4.10740003877131,-0.0144785404250456,0.001104,-0.033265,-0.001233,0.042813,-1.472784,323.774860,22.556786,0.998966,0.986027,0.004916,0.507776,0.000157,0.000115,0.000021,0.000165,0.000107,22.372200,0.000274,
2101,2053,-3.3349523014271,-12.9733807030673,0.0147993393829324,-0.003109,-0.036569,-0.008808,-0.128861,-1.674492,330.715506,22.659430,0.998730,0.972508,0.006411,0.330585,0.000826,0.000712,0.000100,0.000884,0.000654,30.082449,0.001544,
2176,2383,-1.75250033251062,-5.74638818501008,-0.0113175569436521,0.000640,-0.033917,0.001654,0.012402,-1.510289,325.030206,22.511792,0.999159,0.987724,0.004558,0.483769,0.000233,0.000208,0.000015,0.000240,0.000200,25.057240,0.000441,
2056,2158,-4.33232518700767,-10.6677397283155,-3.37251865971666E-05,-0.002534,-0.034155,-0.004888,-0.113359,-1.561750,329.149799,23.050063,0.999059,0.984757,0.005091,0.327124,0.000605,0.000532,0.000113,0.000687,0.000449,35.967707,0.001145,
2326,2578,1.48044645828417,-1.48511300863444,-0.0166302420831244,0.001769,-0.033518,0.000432,0.066706,-1.498782,321.605021,22.563644,0.999120,0.987171,0.004440,0.420723,0.000092,0.000055,0.000025,0.000105,0.000042,26.731923,0.000152,
2056,3283,-4.4980510363922,13.8130431901578,0.0449408176664861,0.004315,-0.032374,0.012082,0.154399,-1.415458,311.558161,22.652455,0.999745,0.995243,0.002893,0.494505,-0.000020,0.000065,-0.000041,0.000082,-0.000037,-67.821446,0.000082,
2131,2143,-2.69491899463857,-10.9990303059932,-0.00270705843013275,-0.001913,-0.035000,-0.009916,-0.069915,-1.621221,329.052390,22.496172,0.998956,0.982044,0.005360,0.406985,0.000608,0.000597,0.000084,0.000687,0.000518,43.052217,0.001209,
2401,3013,3.03235335569075,7.98762646334546,0.00488274543914713,0.003293,-0.033529,0.007383,0.110961,-1.483621,314.761090,23.817168,0.999531,0.988922,0.004065,0.400850,0.000009,0.000008,0.000011,0.000020,-0.000003,42.645396,0.000021,
2236,2653,-0.491220740067913,0.147150178727216,-0.00473414873039246,0.002237,-0.033651,0.007471,0.066264,-1.483862,320.603826,22.874480,0.999251,0.988663,0.004425,0.352751,0.000065,0.000048,0.000014,0.000073,0.000040,29.689707,0.000115,
2506,2308,5.46278690660422,-7.3883849487234,0.0106803986255386,0.002165,-0.035237,-0.001762,0.090592,-1.589594,326.482056,21.112505,0.999077,0.979056,0.005519,0.411689,0.000450,0.000326,-0.000037,0.000461,0.000315,-15.324715,0.000780,
2086,2233,-3.6893480525492,-9.02610265998142,-0.00390575688294348,-0.001166,-0.034199,-0.002457,-0.057545,-1.535570,327.810434,22.871385,0.998650,0.984236,0.004982,0.377955,0.000468,0.000416,0.000090,0.000536,0.000348,36.941092,0.000891,
2146,2188,-2.37267024722643,-10.0172540930017,0.0282966386445196,-0.001094,-0.034934,-0.004529,-0.048401,-1.586262,328.549875,22.412858,0.999360,0.953625,0.007164,0.472046,0.000532,0.000511,0.000069,0.000591,0.000452,40.535591,0.001046,
2041,2128,-4.6543157703721,-11.327342364714,0.00807042915602096,-0.002900,-0.035211,-0.007583,-0.123046,-1.619972,329.775393,23.023955,0.998258,0.976282,0.006359,0.384983,0.000664,0.000598,0.000137,0.000772,0.000490,38.267479,0.001272,
2371,2818,2.41511341128557,3.74536047136026,-0.01608852125986,0.002592,-0.033879,0.007452,0.079028,-1.497872,317.718008,23.088452,0.999851,0.994538,0.003448,0.499245,0.000018,0.000043,0.000010,0.000047,0.000015,70.618783,0.000064,
2296,2893,0.771149567367356,5.37370881089588,-0.0130497349230154,0.003094,-0.032972,0.001489,0.124629,-1.481247,316.590970,23.252766,0.999599,0.992104,0.003552,0.422604,0.000014,0.000019,0.000005,0.000022,0.000011,59.408968,0.000034,
2266,2743,0.14488140339687,2.1089787021526,-0.0182477369437493,0.002660,-0.033368,0.006342,0.088818,-1.467712,318.994389,22.922882,0.999148,0.986711,0.004413,0.458419,0.000044,0.000065,0.000002,0.000065,0.000043,83.782311,0.000109,
2221,2548,-0.79928592607888,-2.14249874103442,-0.0105110435274582,0.002093,-0.033005,-0.000507,0.085816,-1.468198,322.312293,22.668506,0.999661,0.991352,0.003696,0.445984,0.000100,0.000055,0.000024,0.000111,0.000045,23.131772,0.000160,
2236,2638,-0.488851207919961,-0.179454512494779,-0.0161351459066168,0.002477,-0.033019,0.003190,0.091399,-1.468801,320.777127,22.765529,0.999052,0.986071,0.004674,0.455436,0.000063,0.000044,0.000010,0.000068,0.000039,23.486493,0.000108,
2026,3163,-5.1291604467335,11.2122020909768,0.0458024198039766,0.003775,-0.032159,0.008998,0.139044,-1.416267,313.692799,22.631200,0.999589,0.993596,0.003361,0.435733,-0.000005,0.000072,-0.000003,0.000072,-0.000005,-87.515322,0.000080,
2056,3298,-4.500710691327,14.1385900373793,0.03420909996197,0.004519,-0.031954,0.008827,0.173122,-1.405815,311.241067,22.656756,0.999499,0.993700,0.003223,0.493208,-0.000034,0.000086,-0.000047,0.000103,-0.000050,-70.904944,0.000103,
2251,2473,-0.133428449732229,-3.78084354881729,0.00148141655120071,0.001149,-0.033991,0.003479,0.028811,-1.502011,323.506318,22.430581,0.999625,0.990316,0.004088,0.479305,0.000135,0.000121,0.000032,0.000161,0.000095,38.991481,0.000259,
2221,2308,-0.758265549783825,-7.3872524389905,0.000433322486060206,0.000633,-0.034166,-0.004633,0.031544,-1.542307,326.230648,22.256214,0.998754,0.985810,0.004756,0.457717,0.000313,0.000298,0.000048,0.000354,0.000257,40.650107,0.000614,
2041,3208,-4.81103815284213,12.1875340630866,0.0498066662603378,0.003743,-0.032408,0.008259,0.139155,-1.422237,312.898966,22.632105,0.999535,0.992833,0.003364,0.468966,-0.000008,0.000050,-0.000016,0.000054,-0.000012,-75.330396,0.000057,
2476,2083,4.85532741822423,-12.3248423868954,0.0112310340521162,0.003304,-0.037309,-0.010694,0.175598,-1.740342,330.126150,20.216743,0.999241,0.980449,0.005516,0.387900,0.000871,0.000701,-0.000095,0.000913,0.000658,-24.123859,0.001578,
2056,2173,-4.33446618974203,-10.3391822512528,-0.00718457435891651,-0.002165,-0.034099,-0.007826,-0.088180,-1.556814,328.874737,22.982705,0.999152,0.987701,0.004641,0.396941,0.000589,0.000496,0.000110,0.000662,0.000423,33.516122,0.001094,
2161,2203,-2.05030279183456,-9.68396052500369,-0.00193280680610997,-0.001088,-0.034861,-0.003011,-0.052702,-1.576375,327.996086,22.478618,0.998814,0.960191,0.006796,0.353084,0.000501,0.000486,0.000065,0.000559,0.000428,41.671364,0.000990,
2101,2068,-3.33716432964003,-12.6456484509295,0.0162877222165321,-0.003009,-0.036853,-0.007440,-0.128336,-1.684138,330.488469,22.585960,0.998860,0.947881,0.008787,0.398908,0.000789,0.000701,0.000108,0.000862,0.000628,33.868008,0.001496,
2176,2323,-1.74223237324605,-7.05801502307674,-0.00988088497098261,0.000053,-0.033385,-0.009536,0.020256,-1.527134,326.018305,22.455697,0.998574,0.981484,0.005393,0.466734,0.000313,0.000251,0.000025,0.000322,0.000243,19.465142,0.000567,
2191,2353,-1.41958128207058,-6.404133256937,0.00652059382980497,0.000528,-0.034235,0.000209,0.011490,-1.543186,325.616031,22.427142,0.999387,0.986081,0.004721,0.454003,0.000267,0.000225,0.000019,0.000275,0.000218,21.411517,0.000493,
2341,2668,1.78997496488214,0.478318660880376,-0.0160571764841393,0.002134,-0.034106,0.009540,0.051394,-1.500323,320.128089,22.817418,0.999690,0.991089,0.003972,0.368868,0.000040,0.000035,0.000018,0.000055,0.000019,41.008719,0.000077,
2251,2638,-0.162959586652953,-0.178854390118033,-0.0143702015344616,0.002354,-0.033823,0.009483,0.064649,-1.469653,320.734562,22.779326,0.998806,0.985335,0.004649,0.429813,0.000058,0.000034,0.000007,0.000060,0.000032,14.763664,0.000093,
2311,2533,1.16238840818644,-2.46811778921592,-0.014295740164016,0.001767,-0.033377,-0.001588,0.073678,-1.504717,322.370288,22.442800,0.999372,0.987400,0.004339,0.456055,0.000107,0.000065,0.000014,0.000111,0.000061,16.368437,0.000175,
2326,2593,1.47773711169427,-1.15778226128874,-0.0198375599212568,0.002168,-0.033518,0.001492,0.081392,-1.490654,321.349396,22.575278,0.999622,0.990924,0.003814,0.452418,0.000088,0.000041,0.000026,0.000099,0.000030,23.762814,0.000136,
2356,2758,2.09921482211915,2.44036388844403,-0.0267068920904876,0.002225,-0.033258,0.003802,0.075686,-1.472873,318.598510,22.994021,0.999368,0.988874,0.004046,0.448016,0.000029,0.000077,0.000028,0.000090,0.000016,65.308218,0.000114,
2206,2233,-1.07281925540576,-9.02973444515322,0.00619085414564324,-0.000005,-0.035437,-0.002008,-0.006487,-1.618945,327.488662,22.218341,0.998900,0.982562,0.005483,0.383814,0.000435,0.000420,0.000043,0.000471,0.000383,40.257002,0.000856,
2506,2323,5.45949101465019,-7.05926282614055,0.00624807940084793,0.002339,-0.034357,-0.002017,0.099927,-1.539309,326.210888,21.141208,0.998787,0.983076,0.005201,0.496616,0.000419,0.000302,-0.000036,0.000430,0.000292,-15.791416,0.000726,
2386,2848,2.73620101016667,4.40038843840598,-0.0199177162751312,0.003036,-0.033340,0.003239,0.114442,-1.477880,317.239549,23.263971,0.999505,0.988689,0.004134,0.445357,0.000013,0.000025,0.000001,0.000025,0.000012,87.044625,0.000038,
2101,2248,-3.36445792046853,-8.69920678543673,-0.000941511434746189,-0.000849,-0.034364,-0.002908,-0.041798,-1.545104,327.537614,22.736807,0.998627,0.984924,0.005121,0.436157,0.000438,0.000397,0.000073,0.000493,0.000341,37.150436,0.000839,
2281,2833,0.455291882235709,4.06809280994845,-0.0154054580299885,0.002758,-0.033234,0.004142,0.100379,-1.476842,317.542948,23.103387,0.999472,0.990385,0.003953,0.439708,0.000033,0.000054,0.000007,0.000056,0.000031,73.576047,0.000089,
2101,3118,-3.49770958540275,10.2430781431568,0.0308370913797944,0.003654,-0.032721,0.008944,0.131196,-1.442511,313.874708,22.934566,0.999707,0.994246,0.003094,0.438699,0.000011,0.000019,0.000008,0.000023,0.000006,58.739270,0.000031,
2461,2053,4.53393113055034,-12.9846179972012,0.0191079866035579,0.003102,-0.038169,-0.012439,0.172329,-1.797020,330.636111,20.216361,0.998993,0.979751,0.005684,0.309263,0.000948,0.000760,-0.000072,0.000972,0.000736,-18.662481,0.001714,
2086,2023,-3.6590328116608,-13.6303554893172,0.009881858072049,-0.004272,-0.036620,-0.006740,-0.188282,-1.668219,331.167862,22.743738,0.998805,0.982303,0.005543,0.344778,0.000909,0.000707,0.000104,0.000953,0.000663,22.892787,0.001625,
2416,3013,3.35862040113729,7.98883860429919,0.0039407864398413,0.003386,-0.033360,0.006640,0.117712,-1.467364,314.776144,23.851431,0.999434,0.986466,0.004272,0.427292,0.000008,0.000008,0.000013,0.000021,-0.000005,44.892984,0.000022,
2116,2308,-3.04702445441612,-7.38701495465973,0.00132459523837269,-0.000485,-0.034440,0.001238,-0.037399,-1.539594,326.526561,22.719961,0.998876,0.984818,0.005093,0.412779,0.000363,0.000269,0.000051,0.000386,0.000247,23.742466,0.000638,
2071,1993,-3.98182622943283,-14.2895347279779,0.0107397470569595,-0.004944,-0.037222,-0.012821,-0.202045,-1.747698,331.718712,22.800551,0.997935,0.978238,0.006067,0.308530,0.001026,0.000679,0.000108,0.001057,0.000648,15.941096,0.001721,
2176,2398,-1.75432885665271,-5.41863282504046,-0.0106477930563642,0.000993,-0.033758,-0.002426,0.041299,-1.517593,324.822395,22.545854,0.999002,0.985754,0.004817,0.456384,0.000218,0.000183,0.000011,0.000221,0.000180,16.281138,0.000402,
2146,2203,-2.37709164984843,-9.68401331079533,-0.00365565229577669,-0.000981,-0.034839,-0.005002,-0.041739,-1.585109,328.047884,22.528570,0.998710,0.976069,0.005795,0.369209,0.000505,0.000484,0.000068,0.000563,0.000426,40.702890,0.000992,
2131,2383,-2.73172867339954,-5.74590974923466,-0.0105500417015492,0.000543,-0.032768,-0.006176,0.032321,-1.472931,325.222857,22.708050,0.998898,0.984533,0.004880,0.469781,0.000256,0.000189,0.000023,0.000263,0.000182,17.239709,0.000448,
2431,3088,3.67221500031329,9.61720688062262,0.0278411536625072,0.003617,-0.033471,0.005953,0.130423,-1.489243,313.782807,24.125984,0.999676,0.992091,0.003657,0.420223,0.000006,0.000025,0.000015,0.000033,-0.000002,60.722872,0.000037,
2116,2083,-3.0124638526784,-12.3145778714576,0.00316310660286945,-0.002403,-0.036114,-0.011087,-0.089439,-1.690448,330.109127,22.590908,0.998161,0.975537,0.006395,0.300242,0.000745,0.000715,0.000102,0.000833,0.000627,40.837297,0.001465,
2491,2308,5.13500763596796,-7.38673975763518,0.003759045153231,0.002335,-0.034573,-0.005997,0.114926,-1.592431,326.402974,21.259516,0.998634,0.979212,0.005593,0.322557,0.000448,0.000317,-0.000042,0.000460,0.000305,-16.298586,0.000770,
2296,2908,0.76874274676295,5.69916555771091,-0.00175288298640908,0.002903,-0.033222,0.005622,0.101823,-1.475226,316.418244,23.297257,0.999540,0.992363,0.003562,0.413326,0.000012,0.000017,0.000004,0.000019,0.000009,60.838507,0.000029,
2296,2698,0.804837899972185,1.13011737954834,-0.0212109200311374,0.002001,-0.033634,0.005004,0.062232,-1.479722,319.634961,22.819439,0.999697,0.991951,0.003716,0.468411,0.000051,0.000065,0.000011,0.000071,0.000045,61.752896,0.000117,
2476,2098,4.85221079681821,-11.9946666770566,0.0124681565438323,0.003147,-0.036932,-0.010846,0.169168,-1.721700,329.887314,20.351262,0.999190,0.978759,0.005699,0.331722,0.000834,0.000683,-0.000100,0.000884,0.000633,-26.527754,0.001524,
2266,2518,0.185263227713868,-2.7976749669259,-0.00783543364622119,0.001632,-0.033888,0.000524,0.060563,-1.515319,322.705950,22.457712,0.999584,0.991022,0.003958,0.483459,0.000110,0.000077,0.000023,0.000122,0.000065,27.318042,0.000190,
2071,2008,-3.98374013959745,-13.9593788797035,0.0084778535596115,-0.004256,-0.037201,-0.009703,-0.179385,-1.721047,331.481702,22.846996,0.998597,0.981778,0.005496,0.289160,0.000989,0.000702,0.000127,0.001038,0.000654,20.809756,0.001706,
2236,2893,-0.531861490211877,5.36935760731409,0.00320273752612366,0.003115,-0.032976,0.005749,0.112615,-1.443880,316.814104,23.147122,0.999663,0.991454,0.003713,0.458554,0.000013,0.000031,0.000004,0.000032,0.000012,78.158584,0.000046,
2176,2338,-1.74501567684485,-6.72900785736377,-0.0121009432779147,0.000375,-0.033911,-0.002908,0.014366,-1.524650,325.751479,22.546081,0.999050,0.984555,0.004933,0.392970,0.000290,0.000237,0.000020,0.000297,0.000230,18.341133,0.000529,
2281,2878,0.447168382713787,5.04592596926319,-0.0118599013921425,0.002626,-0.033295,0.005457,0.089882,-1.482532,316.829379,23.138193,0.999699,0.992415,0.003696,0.481749,0.000022,0.000036,0.000002,0.000036,0.000022,81.927931,0.000058,
2206,2533,-1.12300437214572,-2.46961473080117,-0.0133332238852404,0.002281,-0.032656,-0.002647,0.101459,-1.462383,322.585938,22.684381,0.999476,0.988228,0.004280,0.442354,0.000113,0.000057,0.000022,0.000121,0.000049,18.885771,0.000175,
2071,2158,-4.00492646565631,-10.6693290021828,0.00328475950828988,-0.002319,-0.034251,-0.008134,-0.094231,-1.579347,329.116330,22.892826,0.999122,0.982954,0.005228,0.385525,0.000600,0.000540,0.000102,0.000676,0.000463,36.767402,0.001146,
2161,2278,-2.06178121983008,-8.0421875764424,-0.00290629704500134,-0.000160,-0.034268,-0.002499,-0.011514,-1.534926,326.821005,22.543879,0.998211,0.976049,0.006146,0.391348,0.000377,0.000318,0.000038,0.000396,0.000299,26.031684,0.000697,
2146,2218,-2.37873578589154,-9.35558656051851,0.00215453449595771,-0.000703,-0.033899,-0.006817,-0.023186,-1.548899,327.872981,22.572075,0.998622,0.978002,0.005635,0.372081,0.000477,0.000449,0.000062,0.000527,0.000399,38.641620,0.000928,
2071,2023,-3.98628717861051,-13.6300805570869,0.00662362686858842,-0.004334,-0.036721,-0.008184,-0.187159,-1.677085,331.218079,22.808761,0.998679,0.982679,0.005423,0.372071,0.000937,0.000686,0.000120,0.000985,0.000638,21.798279,0.001635,
2401,3028,3.02972825848028,8.31289401236435,0.00935591725340146,0.003346,-0.033702,0.008793,0.108281,-1.481828,314.550754,23.830336,0.999522,0.989232,0.004081,0.434168,0.000013,0.000015,0.000009,0.000023,0.000005,47.957481,0.000029,
2041,3223,-4.8132866841363,12.5124780289711,0.0511691909197225,0.003988,-0.032502,0.011676,0.140891,-1.422440,312.666882,22.636864,0.999502,0.993250,0.003240,0.455128,-0.000008,0.000047,-0.000022,0.000055,-0.000016,-70.510308,0.000057,
2056,2188,-4.33632684970606,-10.0111422420611,-0.000141101460883419,-0.002022,-0.033497,-0.004762,-0.090031,-1.507103,328.690277,22.979309,0.998854,0.984805,0.005075,0.446924,0.000552,0.000499,0.000116,0.000644,0.000407,38.605180,0.001060,
2191,2473,-1.44100217538329,-3.77928196832277,-0.0191678027439366,0.001072,-0.033287,-0.000729,0.039720,-1.477967,323.489929,22.597672,0.999136,0.983936,0.005135,0.477878,0.000151,0.000104,0.000023,0.000160,0.000095,22.266438,0.000258,
2371,2833,2.41217021489782,4.07336558824314,-0.0196704477558001,0.002732,-0.033495,0.006524,0.088945,-1.478618,317.452553,23.225323,0.999672,0.990152,0.003965,0.422391,0.000014,0.000040,0.000008,0.000042,0.000012,74.591291,0.000056,
2191,2368,-1.42217095109371,-6.07433948592025,-0.0022957159455359,0.000935,-0.033371,-0.001855,0.036916,-1.496974,325.324823,22.491303,0.999532,0.986867,0.004607,0.452799,0.000247,0.000228,0.000021,0.000261,0.000215,32.840818,0.000476,
2161,1993,-2.01559562624992,-14.2915891165489,0.0144627486685636,-0.002407,-0.037458,-0.012571,-0.084742,-1.739310,331.475986,22.237670,0.998981,0.981490,0.005402,0.245493,0.000955,0.000770,0.000048,0.000967,0.000758,13.677665,0.001729,
2146,2443,-2.41495784954245,-4.43521611569373,-0.0146491060402241,0.001187,-0.033130,-0.001123,0.046565,-1.479752,324.174225,22.695137,0.999194,0.986403,0.004810,0.465233,0.000199,0.000121,0.000016,0.000203,0.000118,11.310201,0.000324,
2266,2758,0.141379459122419,2.43658883073785,-0.0265397222680122,0.002530,-0.033236,0.007461,0.079236,-1.451151,318.671111,22.964127,0.999224,0.987254,0.004345,0.459606,0.000042,0.000071,0.000004,0.000071,0.000042,82.072827,0.000114,
2221,2323,-0.761630632953445,-7.05794352145325,-0.0114795545651987,0.000780,-0.034057,-0.003319,0.034092,-1.537537,325.891544,22.270624,0.998878,0.986245,0.004736,0.469384,0.000295,0.000270,0.000040,0.000324,0.000240,36.167755,0.000567,
2131,3253,-2.86897980090734,13.1705276967659,0.0376703792882154,0.004021,-0.032710,0.009055,0.146933,-1.451328,311.602527,23.094113,0.999625,0.994210,0.003077,0.429555,-0.000002,-0.000002,-0.000019,0.000017,-0.000021,-44.843749,0.000023,
2506,2338,5.45679627877911,-6.72952214945916,0.00623065002201884,0.002586,-0.034003,-0.004241,0.119984,-1.533290,325.987007,21.320022,0.999088,0.985790,0.005147,0.387063,0.000411,0.000278,-0.000031,0.000418,0.000271,-12.634721,0.000694,
2341,2683,1.78682850619169,0.805225591604923,-0.0217430099879721,0.002115,-0.034089,0.007959,0.056062,-1.496995,319.841447,22.804051,0.999645,0.990995,0.003925,0.422826,0.000036,0.000053,0.000018,0.000065,0.000024,57.324804,0.000092,
2356,2773,2.09731141757593,2.76724533088316,-0.0231225072556072,0.002672,-0.032956,0.000954,0.106358,-1.463841,318.414656,23.075615,0.999493,0.989578,0.003874,0.414266,0.000025,0.000069,0.000023,0.000079,0.000016,67.052750,0.000101,
2221,2563,-0.802641624132637,-1.81526519500726,-0.0168559837883322,0.002004,-0.033582,0.002686,0.071309,-1.480827,322.002048,22.652463,0.999485,0.990563,0.003872,0.469384,0.000090,0.000051,0.000018,0.000097,0.000044,21.037950,0.000144,
2416,3028,3.35526008754309,8.31449360080403,0.00330704888494893,0.003158,-0.033670,0.008308,0.100995,-1.477121,314.508838,23.878246,0.999480,0.988045,0.004178,0.437524,0.000011,0.000016,0.000011,0.000025,0.000002,51.096640,0.000030,
2071,2173,-4.00734322025472,-10.3413553239213,0.00803739306752504,-0.002462,-0.034843,-0.003522,-0.114149,-1.552657,328.895125,22.876891,0.998970,0.984496,0.005084,0.427490,0.000583,0.000502,0.000099,0.000650,0.000436,33.986509,0.001092,
2251,2653,-0.165486868369644,0.147675831038129,-0.0132033234374376,0.002259,-0.033826,0.007545,0.066641,-1.474497,320.503029,22.785515,0.999249,0.988443,0.004303,0.442559,0.000059,0.000039,0.000010,0.000063,0.000035,21.969403,0.000099,
2086,2038,-3.66064225832482,-13.3018933384318,0.00780702924259913,-0.003877,-0.036117,-0.013316,-0.151121,-1.685833,330.947683,22.693891,0.998817,0.982504,0.005461,0.379472,0.000866,0.000685,0.000106,0.000915,0.000636,24.643766,0.001560,
2026,3178,-5.13115432943215,11.5366500236183,0.0513742850817493,0.003827,-0.032197,0.009709,0.139479,-1.419703,313.495100,22.607288,0.999650,0.993534,0.003258,0.445268,-0.000002,0.000071,-0.000005,0.000071,-0.000002,-86.333011,0.000081,
2131,2158,-2.69532301184705,-10.6717130252266,0.016239470353014,-0.001422,-0.034431,-0.013861,-0.035454,-1.620256,329.003255,22.593740,0.999713,0.990851,0.004225,0.317764,0.000582,0.000552,0.000081,0.000649,0.000484,39.855867,0.001138,
2236,2668,-0.493946003992729,0.473604535783323,-0.00490769334174956,0.001900,-0.033320,0.003922,0.062410,-1.473654,320.355217,22.851194,0.999358,0.989968,0.004123,0.407837,0.000065,0.000053,0.000009,0.000070,0.000048,28.509712,0.000119,
2491,2323,5.13136179670085,-7.05725388179592,-0.00158374129239292,0.002657,-0.034521,-0.000958,0.110428,-1.533454,326.110150,21.304238,0.998405,0.980539,0.005580,0.398139,0.000420,0.000297,-0.000036,0.000430,0.000287,-15.256657,0.000722,
2476,2113,4.8481032714883,-11.6646065415676,0.00637296634209861,0.002836,-0.036865,-0.008232,0.145077,-1.697154,329.569812,20.394823,0.999050,0.975184,0.006157,0.372973,0.000804,0.000675,-0.000094,0.000853,0.000625,-27.649154,0.001485,
2296,2953,0.761398804767026,6.67787152918932,0.000682694543741036,0.003512,-0.032759,0.004086,0.135288,-1.442245,315.737351,23.426575,0.999082,0.987778,0.004315,0.405512,0.000005,0.000006,0.000003,0.000008,0.000002,49.817364,0.000011,
2086,2248,-3.69206587383401,-8.69891353421796,-9.09412618739225E-05,-0.001516,-0.034537,0.002214,-0.087191,-1.518083,327.571745,22.808857,0.998707,0.984048,0.005031,0.459189,0.000441,0.000400,0.000081,0.000504,0.000337,38.020764,0.000847,
2161,2518,-2.10219288132494,-2.7966156559721,-0.0320344431610238,0.001199,-0.033240,0.000622,0.041635,-1.495338,322.755629,22.728509,0.998740,0.985605,0.004968,0.433828,0.000140,0.000062,0.000017,0.000144,0.000058,11.820965,0.000208,
2116,2098,-3.01426747866751,-11.9848769166035,0.00627907436683017,-0.002093,-0.035436,-0.011850,-0.072783,-1.657468,329.910136,22.683806,0.998765,0.974578,0.006282,0.246757,0.000715,0.000690,0.000100,0.000803,0.000602,41.360797,0.001410,
2041,3238,-4.8154356004096,12.8371150865849,0.0490112058514001,0.004176,-0.032646,0.008970,0.157041,-1.446716,312.419926,22.620944,0.999539,0.994660,0.003021,0.437874,-0.000007,0.000058,-0.000029,0.000069,-0.000018,-68.997589,0.000071,
2176,2593,-1.78699522038092,-1.16191641673756,-0.0200033677226656,0.001812,-0.033194,0.000535,0.069946,-1.495050,321.618381,22.778372,0.999072,0.986761,0.004491,0.421057,0.000084,0.000049,0.000010,0.000087,0.000046,14.136039,0.000135,
2206,2248,-1.07616221836647,-8.69939568060709,-0.00363438577613806,-0.000060,-0.035031,-0.001273,-0.011224,-1.567591,327.159441,22.271130,0.998676,0.982106,0.005427,0.401917,0.000405,0.000393,0.000043,0.000443,0.000355,40.932020,0.000800,
2386,2863,2.73393885840439,4.72629494873011,-0.0120479609231552,0.003211,-0.033496,0.005263,0.115150,-1.478504,317.061553,23.322239,0.999429,0.989057,0.004042,0.429208,0.000011,0.000026,0.000000,0.000026,0.000011,-88.375544,0.000038,
2101,2083,-3.34092772552805,-12.3137440442775,-0.00626338029979934,-0.003068,-0.035741,-0.008535,-0.127524,-1.638771,330.060248,22.578337,0.998697,0.956029,0.008204,0.457395,0.000754,0.000707,0.000112,0.000845,0.000615,39.011532,0.001467,
2056,2203,-4.33854043823378,-9.68253636239481,-0.000514970733149767,-0.001769,-0.033991,-0.001793,-0.086956,-1.503511,328.449121,23.000186,0.998496,0.981089,0.005516,0.427040,0.000525,0.000478,0.000121,0.000625,0.000378,39.495457,0.001014,
2461,2068,4.53142217318507,-12.6554281150199,0.0234836101707288,0.003172,-0.037210,-0.013561,0.180110,-1.743266,330.438177,20.249108,0.999011,0.980132,0.005650,0.388029,0.000905,0.000745,-0.000081,0.000939,0.000711,-22.788912,0.001655,
2071,2038,-3.98808272820025,-13.3005780278684,0.00605290490159405,-0.004178,-0.035368,-0.013726,-0.163903,-1.638153,330.995743,22.814144,0.998807,0.983824,0.005171,0.405816,0.000892,0.000660,0.000120,0.000943,0.000610,22.976886,0.001565,
2236,2908,-0.534748115982925,5.69582975059454,-2.10942739613529E-05,0.003053,-0.033200,0.005004,0.112112,-1.455446,316.542114,23.195863,0.999626,0.992121,0.003677,0.419045,0.000013,0.000027,0.000004,0.000027,0.000012,75.973850,0.000041,
2281,2848,0.452061329384048,4.39583052418315,-0.0173765440307534,0.002675,-0.033049,0.007963,0.083862,-1.454392,317.264812,23.227880,0.999569,0.992247,0.003839,0.365165,0.000032,0.000045,0.000005,0.000047,0.000030,70.029568,0.000077,
2161,2008,-2.01868135572373,-13.9629469437955,0.0135869050539554,-0.002881,-0.037295,-0.010771,-0.111901,-1.728468,331.201403,22.179507,0.998685,0.983352,0.005346,0.328502,0.000912,0.000767,0.000067,0.000938,0.000741,21.397057,0.001683,
2101,2263,-3.36685544847542,-8.37166442503774,0.00358214308840843,-0.000821,-0.034724,0.002847,-0.057414,-1.539676,327.318494,22.730673,0.998632,0.983343,0.005225,0.451052,0.000421,0.000369,0.000077,0.000476,0.000313,35.623080,0.000795,
2131,2398,-2.7336226037658,-5.41951869675136,0.00094278256818825,0.000341,-0.032853,-0.005744,0.021698,-1.488075,325.066398,22.727887,0.998572,0.983210,0.005122,0.441724,0.000242,0.000161,0.000018,0.000246,0.000157,12.101257,0.000406,
2506,2353,5.45370066483032,-6.40154669726555,0.00659723236026366,0.002379,-0.033704,-0.006524,0.119473,-1.522879,325.746529,21.341778,0.999069,0.985121,0.005259,0.438553,0.000407,0.000263,-0.000026,0.000412,0.000258,-9.871257,0.000676,
2431,3103,3.66861558021245,9.94376744305476,0.0199594348923711,0.003559,-0.033285,0.005092,0.131097,-1.477081,313.471197,24.187658,0.999733,0.993586,0.003435,0.419651,0.000010,0.000028,0.000017,0.000038,0.000000,58.561548,0.000044,
2161,2293,-2.06368083564322,-7.71426022591094,-0.00529679872755651,0.000210,-0.033558,-0.007742,0.021715,-1.525808,326.592625,22.510550,0.998519,0.980902,0.005519,0.445893,0.000358,0.000296,0.000044,0.000381,0.000273,27.381573,0.000657,
2266,2533,0.182289298951329,-2.47014116844295,-0.0155762726527087,0.001804,-0.033743,-0.000713,0.072576,-1.525595,322.410431,22.444320,0.999739,0.994949,0.003289,0.513455,0.000099,0.000059,0.000020,0.000108,0.000051,22.534046,0.000161,
2326,2608,1.47470418135187,-0.830390190572743,-0.0206411707904977,0.002143,-0.033794,0.003578,0.072970,-1.485477,321.090595,22.621394,0.999525,0.988838,0.004099,0.446614,0.000077,0.000032,0.000028,0.000091,0.000019,25.501433,0.000117,
2221,2818,-0.846078704422144,3.73897634387441,-0.0104320252749517,0.002656,-0.033121,0.005959,0.091050,-1.463357,317.934911,23.061321,0.999509,0.990085,0.004019,0.405145,0.000030,0.000065,0.000000,0.000065,0.000030,-89.752591,0.000098,
2041,3253,-4.81791922590036,13.1618880991236,0.0503950911025299,0.004048,-0.032314,0.010060,0.148171,-1.429294,312.177279,22.599913,0.999619,0.994076,0.003071,0.467158,-0.000004,0.000060,-0.000036,0.000076,-0.000020,-65.987057,0.000079,
2131,3268,-2.87205227614617,13.4960495975172,0.029804632082346,0.004039,-0.032622,0.010016,0.144872,-1.451492,311.288763,23.115104,0.999639,0.994497,0.003048,0.412528,-0.000003,0.000000,-0.000021,0.000019,-0.000022,-46.584292,0.000024,
2371,2848,2.40965806108317,4.40004807557174,-0.0214558064839707,0.002937,-0.032861,0.002784,0.111943,-1.462331,317.215803,23.261805,0.999611,0.989302,0.003999,0.443339,0.000013,0.000031,0.000001,0.000031,0.000013,87.430536,0.000045,
2401,3043,3.02787338825269,8.63839847322571,0.0154106775661944,0.003653,-0.033401,0.005261,0.135336,-1.479782,314.383222,23.878796,0.999573,0.990377,0.003937,0.432738,0.000011,0.000021,0.000013,0.000030,0.000001,55.028941,0.000036,
2176,2413,-1.75720438932293,-5.09061930120001,-0.00693544683241498,0.000442,-0.033218,-0.001361,0.012893,-1.468951,324.582259,22.581757,0.998758,0.984410,0.004977,0.482895,0.000208,0.000161,0.000003,0.000208,0.000160,3.776142,0.000369,
2476,2128,4.84551505161879,-11.3364158310894,0.0137133315952269,0.002888,-0.037179,-0.005988,0.138849,-1.697886,329.382855,20.444554,0.998793,0.972672,0.006431,0.382108,0.000779,0.000658,-0.000090,0.000827,0.000610,-27.936799,0.001442,
2251,2728,-0.179009729850616,1.78209474567128,-0.0250728803933384,0.002397,-0.033052,0.000806,0.095264,-1.485833,319.214162,22.890009,0.999249,0.989664,0.004017,0.445268,0.000046,0.000062,-0.000003,0.000063,0.000046,-81.284007,0.000109,
2146,2458,-2.41808657353154,-4.10626495387692,-0.0187497492355533,0.000917,-0.032801,0.000838,0.028404,-1.436531,323.878751,22.763492,0.999226,0.986882,0.004746,0.449676,0.000179,0.000099,0.000012,0.000181,0.000097,8.496257,0.000282,
2311,2548,1.15923091520751,-2.14090870607797,-0.0129249502795119,0.001822,-0.033960,0.005842,0.050664,-1.486136,322.115441,22.458277,0.999074,0.984627,0.004890,0.492449,0.000101,0.000057,0.000019,0.000108,0.000050,20.478173,0.000161,
2491,2338,5.12791185020804,-6.72834445386516,-0.00268195968368445,0.002095,-0.034134,-0.004491,0.098401,-1.538145,325.845618,21.407592,0.998723,0.984905,0.005424,0.350957,0.000407,0.000281,-0.000033,0.000416,0.000272,-13.879945,0.000693,
2161,2218,-2.0520308391808,-9.3554570624355,-0.00209785748643299,-0.000614,-0.034319,-0.006996,-0.018618,-1.582325,327.787238,22.509167,0.998692,0.978596,0.005619,0.329092,0.000471,0.000446,0.000059,0.000519,0.000398,39.102922,0.000920,
2026,3193,-5.13356449894774,11.8615217211334,0.0530941183200184,0.003643,-0.032267,0.009508,0.131521,-1.419537,313.256600,22.599286,0.999567,0.993124,0.003328,0.442208,-0.000001,0.000070,-0.000009,0.000072,-0.000002,-82.585576,0.000081,
2086,2263,-3.69354841403824,-8.37134449449364,0.00197751793950829,-0.000920,-0.034127,0.000532,-0.054856,-1.518301,327.380048,22.785236,0.998792,0.983231,0.005070,0.483683,0.000423,0.000374,0.000084,0.000486,0.000311,36.818224,0.000804,
2101,2098,-3.34153935092396,-11.9829610067347,0.0117709371478441,-0.002456,-0.034876,-0.008130,-0.100376,-1.605043,329.994600,22.932559,0.999065,0.955473,0.008398,0.140446,0.000723,0.000684,0.000111,0.000816,0.000591,39.981598,0.001413,
2191,2383,-1.42525843793068,-5.74682072152511,-0.00302118983813671,0.000649,-0.033636,0.001418,0.013466,-1.505195,325.053427,22.486103,0.999257,0.986326,0.004708,0.465791,0.000228,0.000209,0.000021,0.000241,0.000195,32.640942,0.000438,
2116,2323,-3.0495861430216,-7.05766221830755,-0.00320681786729438,-0.000504,-0.033718,-0.000895,-0.031740,-1.511637,326.252067,22.786403,0.999144,0.986783,0.004703,0.380071,0.000342,0.000244,0.000039,0.000355,0.000231,19.114277,0.000590,
2461,2083,4.52776624387916,-12.3249631610525,0.0190720465478194,0.003190,-0.037287,-0.010379,0.168983,-1.726047,330.147728,20.342778,0.999086,0.978965,0.005761,0.369846,0.000865,0.000722,-0.000085,0.000905,0.000682,-25.070156,0.001592,
2221,2578,-0.805079527477673,-1.4878971791511,-0.0181046832388461,0.002170,-0.033180,0.001532,0.082760,-1.478457,321.759873,22.683802,0.999103,0.988262,0.004267,0.460035,0.000083,0.000053,0.000018,0.000091,0.000045,24.718378,0.000139,
2086,2053,-3.66180906191435,-12.9735037061577,0.0196381767153753,-0.003220,-0.036568,-0.009018,-0.133495,-1.681248,330.822911,22.776123,0.998352,0.978876,0.005816,0.303520,0.000828,0.000694,0.000111,0.000891,0.000631,29.399177,0.001529,
2071,2188,-4.00936118155266,-10.0128447778107,0.00306981554945196,-0.001775,-0.034723,-0.001666,-0.087854,-1.544358,328.639121,22.830378,0.998655,0.984462,0.005322,0.481966,0.000547,0.000503,0.000104,0.000631,0.000419,39.032066,0.001057,
2176,2608,-1.78991426454235,-0.834300528043869,-0.0228521857193869,0.001755,-0.033214,0.002691,0.060684,-1.465932,321.341921,22.801148,0.999025,0.986898,0.004561,0.440434,0.000082,0.000038,0.000009,0.000084,0.000036,11.245390,0.000124,
2236,2683,-0.496858439919141,0.8005689393949,-0.013294799475716,0.002162,-0.033336,0.003211,0.076770,-1.478279,320.056069,22.826363,0.999283,0.988398,0.004260,0.449858,0.000058,0.000063,0.000004,0.000066,0.000056,61.244620,0.000122,
2251,2968,-0.219251578474083,7.00102273961749,0.00334913082377852,0.003168,-0.032438,0.005773,0.114883,-1.426052,315.562762,23.358986,0.999581,0.993061,0.003462,0.405352,0.000004,0.000009,-0.000003,0.000011,0.000002,-66.739603,0.000014,
2116,2113,-3.01695961240361,-11.658082063692,0.0110786004221382,-0.002241,-0.036023,-0.004041,-0.102799,-1.646881,329.680178,22.557683,0.999021,0.984317,0.005125,0.390095,0.000686,0.000657,0.000099,0.000772,0.000571,40.768159,0.001348,
2206,2548,-1.12651386994859,-2.14172695496046,-0.0177486963935394,0.001791,-0.032716,-0.000592,0.072454,-1.459967,322.277019,22.725176,0.999525,0.989905,0.004026,0.421922,0.000104,0.000050,0.000023,0.000112,0.000042,20.025205,0.000159,
2266,2773,0.139329270949919,2.76297744643123,-0.0226933581263893,0.002679,-0.033079,0.004534,0.095808,-1.457551,318.475843,23.016596,0.999215,0.986260,0.004416,0.426384,0.000038,0.000067,0.000003,0.000067,0.000038,84.654802,0.000106,
2161,2023,-2.0213431901697,-13.6344822828112,0.0153185744394477,-0.002980,-0.037933,-0.007219,-0.127517,-1.742341,330.960001,22.164829,0.998448,0.982275,0.005457,0.343128,0.000874,0.000769,0.000071,0.000910,0.000733,26.769299,0.001647,
2191,2668,-1.47358967443746,0.473223838717061,-0.0193058364747003,0.001835,-0.033380,0.003062,0.062893,-1.482637,320.353129,22.874329,0.999731,0.993844,0.003354,0.395436,0.000064,0.000050,0.000002,0.000065,0.000049,8.190706,0.000114,
2281,2893,0.44429129783256,5.37322083110593,-0.0149126648500442,0.002773,-0.033297,0.006485,0.093249,-1.471200,316.562094,23.238291,0.999588,0.991827,0.003659,0.420265,0.000018,0.000025,0.000005,0.000028,0.000016,64.882521,0.000044,
2371,2863,2.40714774927935,4.72567277801084,-0.0150127055572966,0.002987,-0.033344,0.005235,0.105291,-1.489652,317.018830,23.310190,0.999510,0.990309,0.003909,0.408019,0.000011,0.000030,-0.000001,0.000030,0.000011,-86.500387,0.000043,
2356,2788,2.09481843340911,3.09314216630574,-0.0196025343651058,0.002741,-0.033043,0.000851,0.109886,-1.470709,318.203629,23.086152,0.999684,0.992598,0.003577,0.435485,0.000025,0.000063,0.000019,0.000070,0.000017,67.566003,0.000093,
2071,2053,-3.98955492604278,-12.9722927055369,0.0122722375180047,-0.003520,-0.035676,-0.009662,-0.145343,-1.642638,330.825622,22.833207,0.998094,0.975292,0.006191,0.382113,0.000852,0.000674,0.000123,0.000915,0.000611,27.086914,0.001536,
2416,3043,3.35319211645541,8.6398106379488,0.0114037659529913,0.003204,-0.033439,0.006018,0.111603,-1.473840,314.341998,23.922281,0.999554,0.989687,0.004025,0.443825,0.000009,0.000023,0.000017,0.000034,-0.000002,56.128313,0.000038,
2191,2488,-1.44368290776569,-3.45141808816166,-0.0239099581166897,0.001026,-0.033038,-0.004054,0.048124,-1.489766,323.216086,22.626900,0.999022,0.982550,0.005319,0.452424,0.000141,0.000092,0.000020,0.000148,0.000085,19.785870,0.000235,
2146,2233,-2.38134493103633,-9.02756176712451,0.00178111019027938,-0.000732,-0.034212,-0.004948,-0.030304,-1.562304,327.621599,22.569076,0.998777,0.979313,0.005430,0.371917,0.000452,0.000411,0.000055,0.000490,0.000373,34.679931,0.000865,
2266,2548,0.179656395949017,-2.14135096206799,-0.015146252205227,0.001955,-0.033846,0.001052,0.073668,-1.513762,322.171160,22.602410,0.999585,0.991806,0.003782,0.393923,0.000093,0.000050,0.000023,0.000103,0.000040,23.579196,0.000147,
2431,3118,3.66523444928213,10.2700007068953,0.015606217474442,0.003891,-0.033622,0.009859,0.128545,-1.486224,313.186095,24.267470,0.999783,0.994901,0.003196,0.379574,0.000014,0.000022,0.000019,0.000037,-0.000002,50.851039,0.000042,
2476,2143,4.84225379625778,-11.0061211160383,0.0132229258902044,0.002945,-0.036989,-0.003570,0.132376,-1.646853,329.129159,20.554831,0.998355,0.974126,0.006054,0.382561,0.000744,0.000634,-0.000096,0.000799,0.000579,-30.005439,0.001384,
2506,2368,5.45076924906562,-6.07299111452531,-0.00138491203949798,0.002892,-0.032806,-0.010574,0.158950,-1.520456,325.476270,21.348400,0.998581,0.979270,0.005917,0.497346,0.000387,0.000218,-0.000018,0.000389,0.000216,-5.869013,0.000613,
2296,2923,0.766387210886968,6.02351155168441,0.00443926496865288,0.003035,-0.033407,0.008372,0.098456,-1.482685,316.222861,23.219230,0.999469,0.992476,0.003545,0.513443,0.000010,0.000012,0.000004,0.000015,0.000007,48.666720,0.000023,
2161,2308,-2.06633486334455,-7.38561099161903,-0.00142706079719801,-0.000031,-0.033874,-0.004781,0.001502,-1.539955,326.362563,22.634480,0.998711,0.981532,0.005372,0.320013,0.000338,0.000275,0.000039,0.000357,0.000256,25.490041,0.000616,
2131,2413,-2.73668078791067,-5.08969719401699,-0.0129579460677292,0.000938,-0.032922,-0.000911,0.034676,-1.458602,324.720525,22.779312,0.998866,0.985707,0.004912,0.427445,0.000230,0.000138,0.000014,0.000232,0.000136,8.640624,0.000372,
2491,2353,5.12505457263373,-6.4014768666088,0.000211120646952168,0.001863,-0.033809,-0.006974,0.097410,-1.529756,325.626326,21.355161,0.998588,0.984456,0.005623,0.472373,0.000396,0.000268,-0.000031,0.000403,0.000261,-12.909343,0.000670,
2401,3058,3.02503801517696,8.96444117235755,0.0155681877440088,0.003853,-0.033477,0.006808,0.138926,-1.472674,314.142463,23.936785,0.999614,0.991444,0.003805,0.426242,0.000011,0.000020,0.000015,0.000031,-0.000001,53.299935,0.000035,
2086,2068,-3.66513058902539,-12.6437062277418,0.00881386370804194,-0.003415,-0.036573,-0.006719,-0.149067,-1.679323,330.476907,22.742289,0.998463,0.959071,0.007778,0.342449,0.000793,0.000684,0.000120,0.000870,0.000606,32.839282,0.001484,
2071,2203,-4.0112698726867,-9.68428732080359,0.00333226185017566,-0.001594,-0.034273,-0.004526,-0.071265,-1.555778,328.416724,22.868453,0.998388,0.981908,0.005443,0.431640,0.000520,0.000480,0.000107,0.000608,0.000391,39.707986,0.001007,
2026,3208,-5.13533664962348,12.1858592867801,0.0571659089473542,0.004073,-0.032553,0.011232,0.146572,-1.421379,313.060786,22.561213,0.999499,0.992785,0.003399,0.467661,-0.000002,0.000065,-0.000017,0.000069,-0.000006,-76.435003,0.000076,
2251,2668,-0.168337419922011,0.474353836841637,-0.0144174077396997,0.002069,-0.033756,0.006386,0.061678,-1.480108,320.244558,22.790718,0.999445,0.990527,0.003975,0.455479,0.000058,0.000047,0.000005,0.000059,0.000045,20.255609,0.000105,
2041,3268,-4.82078380826756,13.4878646772722,0.0473229990739696,0.003911,-0.032121,0.012774,0.134468,-1.397672,311.891860,22.654606,0.999620,0.993573,0.003144,0.434865,-0.000003,0.000052,-0.000038,0.000071,-0.000022,-63.067819,0.000073,
2296,2968,0.758778700287234,7.00333484964487,-9.45869469433092E-05,0.003640,-0.033005,0.003304,0.143725,-1.461892,315.494779,23.426413,0.999353,0.990686,0.003777,0.415409,0.000003,0.000008,0.000000,0.000008,0.000003,-86.028276,0.000012,
2176,2428,-1.75923936487282,-4.76260427524311,-0.00850119313014375,0.001221,-0.033590,0.001574,0.039445,-1.492134,324.353304,22.643909,0.998899,0.985505,0.004895,0.411116,0.000195,0.000140,0.000011,0.000197,0.000138,10.718611,0.000336,
2176,2623,-1.79215420980317,-0.50772332045004,-0.0228231840874855,0.002005,-0.033229,0.002280,0.073415,-1.488165,321.112031,22.809412,0.999307,0.987143,0.004465,0.422924,0.000080,0.000039,0.000007,0.000081,0.000038,8.715750,0.000122,
2251,2983,-0.221894654549011,7.32594694723437,0.00870187615061013,0.002936,-0.032906,0.007438,0.098525,-1.455888,315.347002,23.364703,0.999562,0.992214,0.003634,0.392369,0.000004,0.000009,-0.000005,0.000012,0.000001,-58.025433,0.000015,
2461,2098,4.52393819449529,-11.9943505574228,0.0158108622223949,0.002874,-0.037260,-0.008031,0.145764,-1.720579,329.854587,20.480435,0.999412,0.980502,0.005529,0.295357,0.000828,0.000698,-0.000091,0.000875,0.000651,-27.343716,0.001531,
2161,2533,-2.10398270448883,-2.47005316315543,-0.0219889563188644,0.001412,-0.033360,0.003458,0.042734,-1.475616,322.597800,22.755146,0.998943,0.986296,0.004656,0.437670,0.000128,0.000056,0.000018,0.000132,0.000051,13.170634,0.000190,
2281,2863,0.449320480708412,4.72161176762302,-0.0157213815818409,0.002708,-0.033635,0.010359,0.077160,-1.471773,317.027870,23.243696,0.999655,0.992510,0.003692,0.359486,0.000027,0.000042,0.000002,0.000042,0.000027,83.932105,0.000070,
2146,2473,-2.41962310424097,-3.78012049019613,-0.0136795492985584,0.001239,-0.032532,-0.002998,0.054829,-1.461166,323.705586,22.732407,0.999318,0.985974,0.004925,0.465051,0.000170,0.000091,0.000013,0.000172,0.000089,9.323514,0.000265,
2266,2803,0.134196657169255,3.41566319840816,-0.0215201379977543,0.002869,-0.033207,0.004913,0.103243,-1.472586,318.005069,23.077075,0.999110,0.986499,0.004821,0.401794,0.000033,0.000062,0.000001,0.000062,0.000033,88.549314,0.000096,
2266,3043,0.0943123369439895,8.62835239145957,0.0179296056736575,0.003454,-0.033437,0.007163,0.122716,-1.473029,314.442058,23.437354,0.999507,0.991656,0.003672,0.441655,-0.000001,0.000009,-0.000011,0.000016,-0.000008,-56.358541,0.000016,
2131,2173,-2.69891559050338,-10.3426111141345,0.000357338421338227,-0.001192,-0.034776,-0.007901,-0.042790,-1.604978,328.622923,22.473662,0.999404,0.975482,0.005665,0.462146,0.000566,0.000518,0.000080,0.000625,0.000459,36.614426,0.001088,
2416,3058,3.35062691241731,8.96576765493822,0.0116754871111766,0.003649,-0.033371,0.007055,0.128270,-1.470510,314.115315,23.977312,0.999585,0.990253,0.003970,0.438815,0.000007,0.000021,0.000017,0.000033,-0.000005,56.288258,0.000035,
2206,2743,-1.16012536958551,2.10725528835118,-0.022586473239528,0.002451,-0.033086,0.005703,0.082722,-1.475815,319.083916,22.959429,0.999528,0.989561,0.004032,0.395844,0.000036,0.000063,-0.000002,0.000063,0.000036,-85.367769,0.000100,
2041,3283,-4.82341966945576,13.8123076321757,0.0430040657193445,0.003893,-0.032148,0.012415,0.134589,-1.407502,311.610645,22.606561,0.999560,0.993787,0.003145,0.464249,-0.000001,0.000076,-0.000042,0.000095,-0.000019,-66.310914,0.000100,
2026,3223,-5.13793668541033,12.5111666994925,0.0567054022782827,0.003938,-0.032692,0.012750,0.136149,-1.419011,312.801244,22.585600,0.999504,0.993229,0.003282,0.434411,-0.000001,0.000061,-0.000026,0.000070,-0.000011,-69.741654,0.000076,
2116,2128,-3.01940245159542,-11.3299190307622,0.0113844262739349,-0.002324,-0.036303,-0.003758,-0.107540,-1.654379,329.437445,22.530299,0.998666,0.981819,0.005506,0.416417,0.000653,0.000631,0.000097,0.000740,0.000545,41.707612,0.001289,
2491,2368,5.1216332290223,-6.07195803473781,-0.00840645216828761,0.002233,-0.033674,-0.007310,0.115713,-1.532272,325.329077,21.449179,0.998190,0.981405,0.005733,0.436979,0.000373,0.000232,-0.000022,0.000377,0.000229,-8.640654,0.000612,
2236,2698,-0.499875579241554,1.12778800228389,-0.018777922766958,0.002245,-0.033354,0.004310,0.077033,-1.475216,319.766781,22.846772,0.999408,0.990357,0.003838,0.454087,0.000052,0.000065,0.000005,0.000066,0.000050,72.716106,0.000117,
2341,2698,1.78495282006971,1.1306239089144,-0.012158688789043,0.002350,-0.034099,0.008379,0.065433,-1.481216,319.687517,22.769913,0.999651,0.992324,0.003787,0.509461,0.000038,0.000060,0.000020,0.000072,0.000027,59.753231,0.000102,
2161,2233,-2.05437084805236,-9.02832999112362,0.00447641097582618,-0.000915,-0.034358,-0.006617,-0.033593,-1.571739,327.585949,22.472611,0.998722,0.979451,0.005441,0.388515,0.000445,0.000408,0.000053,0.000482,0.000371,35.495497,0.000855,
2476,2158,4.83918652435679,-10.6777181146806,0.0144302244654568,0.002852,-0.036931,-0.003404,0.127550,-1.672088,328.892482,20.592158,0.998367,0.970530,0.006497,0.379190,0.000715,0.000601,-0.000107,0.000779,0.000537,-31.096663,0.001323,
2431,3133,3.6626357681676,10.594911129798,0.0202557410850659,0.003783,-0.033410,0.008593,0.128403,-1.473741,312.979302,24.263546,0.999663,0.992736,0.003471,0.445000,0.000017,0.000013,0.000016,0.000031,-0.000001,40.980404,0.000035,
2191,2503,-1.44545773002458,-3.12509676572827,-0.0150697909237465,0.001435,-0.033466,-0.000372,0.055176,-1.516311,323.054619,22.658358,0.999193,0.985681,0.004828,0.409808,0.000136,0.000079,0.000018,0.000141,0.000073,16.038661,0.000218,
2281,3118,0.406232115435426,10.2579217623327,0.0174669716664653,0.003496,-0.033265,0.009814,0.115420,-1.477290,313.181129,23.678981,0.999736,0.994080,0.003298,0.378211,0.000005,0.000012,-0.000008,0.000016,0.000000,-56.499450,0.000019,
2281,2908,0.441697654735126,5.69940054806354,-0.015265618572073,0.002838,-0.033084,0.005274,0.100409,-1.456263,316.321603,23.256365,0.999594,0.992615,0.003463,0.444639,0.000016,0.000023,0.000004,0.000025,0.000014,64.212341,0.000039,
2071,2218,-4.01326565870484,-9.35471494253103,0.00173774208889199,-0.001361,-0.033540,-0.007126,-0.052967,-1.534771,328.179873,22.952746,0.997978,0.980761,0.005518,0.368014,0.000491,0.000458,0.000105,0.000581,0.000368,40.570090,0.000956,
2326,2623,1.47238569893546,-0.504457000206138,-0.013679176162384,0.001901,-0.033475,0.001213,0.070123,-1.488721,320.902810,22.613041,0.999483,0.988059,0.004200,0.486575,0.000068,0.000034,0.000023,0.000080,0.000023,26.513761,0.000108,
2221,2833,-0.848824187986967,4.06466040758132,-0.0072488417048362,0.002482,-0.033141,0.008535,0.074810,-1.442554,317.701370,23.031730,0.999354,0.989831,0.004014,0.474314,0.000031,0.000060,0.000006,0.000061,0.000030,79.156128,0.000093,
2191,2398,-1.42664303311609,-5.41974038415978,0.000805505329651623,0.001181,-0.033482,-0.003687,0.053879,-1.533843,324.883750,22.509523,0.999101,0.985096,0.005017,0.429884,0.000212,0.000185,0.000018,0.000221,0.000176,26.398306,0.000398,
2371,2878,2.40466439637663,5.05208410768206,-0.012664011323352,0.003075,-0.033596,0.003691,0.114722,-1.509891,316.803220,23.397181,0.999497,0.992601,0.003659,0.341459,0.000007,0.000022,-0.000002,0.000022,0.000007,-83.038251,0.000030,
2041,3298,-4.8255877200022,14.1374397794445,0.0401594380630286,0.004227,-0.032120,0.011574,0.152388,-1.407203,311.358843,22.624076,0.999476,0.994502,0.003224,0.437793,-0.000012,0.000098,-0.000047,0.000115,-0.000029,-69.824369,0.000120,
2386,2878,2.73092214045571,5.05328134085958,-0.013158081088477,0.003023,-0.033300,0.003262,0.113842,-1.470876,316.805817,23.408961,0.999469,0.991080,0.003806,0.393290,0.000008,0.000018,-0.000001,0.000018,0.000008,-82.225272,0.000027,
2101,2278,-3.3684295755602,-8.04281342461883,-0.00210158669892735,-0.000130,-0.033769,-0.004158,-0.004944,-1.517590,327.081674,22.728471,0.998478,0.981992,0.005380,0.479029,0.000401,0.000317,0.000068,0.000439,0.000279,29.072263,0.000723,
2266,2818,0.132094135483193,3.74143325466816,-0.0180658265187503,0.002966,-0.032928,0.001601,0.118735,-1.472898,317.805498,23.075774,0.999323,0.988283,0.004342,0.428194,0.000033,0.000064,-0.000001,0.000064,0.000033,-88.975850,0.000099,
2266,2788,0.13712277623603,3.08887431272092,-0.0200496167890947,0.002897,-0.033101,0.003546,0.109100,-1.469177,318.267469,23.023701,0.999191,0.986778,0.004507,0.433207,0.000034,0.000065,0.000002,0.000066,0.000034,86.999997,0.000101,
2296,3193,0.720286290482598,11.8845092794955,0.0378296506627862,0.004093,-0.033286,0.008959,0.145462,-1.466728,312.135152,23.853748,0.999556,0.992488,0.003564,0.417964,0.000011,0.000014,0.000000,0.000014,0.000011,-82.866108,0.000025,
2251,2743,-0.181031564178376,2.10820526367085,-0.0190598525561541,0.002846,-0.033542,0.004155,0.104813,-1.490375,319.030277,22.923584,0.999188,0.987408,0.004363,0.430470,0.000042,0.000065,-0.000003,0.000065,0.000042,-83.589405,0.000108,
2101,2113,-3.343027120305,-11.6576847985676,0.017715217355601,-0.002089,-0.034823,-0.009278,-0.080173,-1.615794,329.825056,22.700901,0.998848,0.976955,0.006045,0.365477,0.000693,0.000650,0.000111,0.000784,0.000559,39.425156,0.001350,
2086,2278,-3.69579631526505,-8.04161026433179,-0.00419671443347625,-0.000672,-0.033698,-0.003012,-0.033128,-1.496520,327.108139,22.858954,0.999166,0.987575,0.004611,0.433065,0.000404,0.000318,0.000076,0.000448,0.000274,30.290467,0.000728,
2206,2563,-1.12909422426796,-1.81554861899607,-0.01351380947915,0.001663,-0.033069,0.001982,0.058263,-1.473625,322.055724,22.706794,0.999558,0.990682,0.003894,0.444006,0.000094,0.000045,0.000016,0.000099,0.000041,16.385005,0.000144,
2206,2758,-1.16226761815535,2.43361493456099,-0.0196345038623349,0.002516,-0.032630,0.003232,0.093776,-1.441276,318.875693,22.955877,0.999473,0.989379,0.004051,0.450533,0.000034,0.000062,-0.000002,0.000062,0.000034,-86.576378,0.000098,
2311,2563,1.15682456174605,-1.81381917494859,-0.0114880092259568,0.001945,-0.034036,0.004203,0.061879,-1.489298,321.895435,22.489526,0.998949,0.985949,0.004787,0.491096,0.000087,0.000056,0.000020,0.000097,0.000046,26.305928,0.000146,
2461,2113,4.51990104028524,-11.6639858036986,0.00443852697986813,0.002658,-0.036477,-0.009891,0.143208,-1.677020,329.514653,20.474873,0.999262,0.977114,0.005932,0.402743,0.000796,0.000686,-0.000086,0.000843,0.000639,-28.605237,0.001487,
2491,2383,5.11845446649391,-5.74417748330712,-0.0043989541143219,0.002421,-0.034366,-0.000008,0.096108,-1.530274,325.099775,21.507656,0.998352,0.979250,0.005773,0.440813,0.000347,0.000206,-0.000036,0.000356,0.000197,-13.637709,0.000561,
2431,3148,3.6590029673587,10.9210807636881,0.0162912138571301,0.003338,-0.033249,0.007272,0.112916,-1.465848,312.684268,24.331347,0.999614,0.993213,0.003359,0.433801,0.000014,0.000012,0.000016,0.000029,-0.000003,43.253488,0.000031,
2251,2998,-0.224086855126583,7.65075514351015,0.0128226788550592,0.003253,-0.033036,0.009246,0.107150,-1.453381,315.145691,23.322424,0.999552,0.991644,0.003699,0.459885,0.000002,0.000012,-0.000009,0.000017,-0.000003,-59.665216,0.000018,
2221,2593,-0.80797505957219,-1.16066214618139,-0.0210715711509692,0.002125,-0.033334,0.002141,0.078733,-1.466983,321.487890,22.683964,0.999022,0.985837,0.004647,0.491149,0.000078,0.000048,0.000018,0.000086,0.000040,25.048935,0.000129,
2311,3283,1.02777177405328,13.8382502480144,0.0139673124909336,0.004446,-0.032879,0.008776,0.162062,-1.461396,310.460218,24.096609,0.999544,0.993484,0.003134,0.436343,0.000016,0.000006,0.000011,0.000023,-0.000001,31.883612,0.000026,
2086,2083,-3.66977405928583,-12.3096986031269,-0.0277999488375826,-0.003308,-0.036020,-0.004776,-0.149642,-1.636122,329.929895,22.773891,0.998700,0.945224,0.009233,0.357851,0.000757,0.000693,0.000125,0.000855,0.000596,37.879880,0.001458,
2416,3073,3.34777757682631,9.29089688309881,0.0175044443496972,0.003424,-0.033520,0.008865,0.111247,-1.473234,313.901804,24.001916,0.999611,0.990138,0.003969,0.458175,0.000007,0.000025,0.000017,0.000035,-0.000003,58.907911,0.000038,
2116,2143,-3.02183773649701,-10.9990486863314,0.00210846890627181,-0.002093,-0.035019,-0.008451,-0.082693,-1.607891,329.143055,22.598273,0.998097,0.976521,0.006255,0.401546,0.000617,0.000596,0.000091,0.000698,0.000516,41.753428,0.001218,
2161,2323,-2.06844037869707,-7.05801935321647,-0.00986944745341134,0.000367,-0.033051,-0.012568,0.043828,-1.555036,326.093125,22.545086,0.998955,0.983649,0.005064,0.406563,0.000323,0.000251,0.000029,0.000333,0.000241,19.446075,0.000576,
2131,2428,-2.73988513960443,-4.76120792219614,-0.0206204449900156,0.000833,-0.033049,0.001718,0.021935,-1.463428,324.401579,22.808867,0.999178,0.987435,0.004603,0.400712,0.000214,0.000123,0.000023,0.000219,0.000118,13.486212,0.000342,
2341,2713,1.78160203403168,1.45915528167799,-0.0250304941304762,0.002375,-0.033407,0.002771,0.086329,-1.480657,319.356138,22.859853,0.999360,0.989512,0.004106,0.457269,0.000036,0.000069,0.000023,0.000081,0.000024,62.612798,0.000111,
2176,2443,-1.76223921381785,-4.43531136119991,-0.0104433097228025,0.000854,-0.033674,0.001523,0.022709,-1.496852,324.078278,22.623402,0.999091,0.985612,0.004876,0.440918,0.000179,0.000132,0.000014,0.000183,0.000128,15.600886,0.000313,
2311,2803,1.11284359089217,3.41693586849755,-0.0176649381464813,0.002646,-0.033462,0.004241,0.094261,-1.475524,317.974786,23.061023,0.999420,0.991036,0.003908,0.454957,0.000036,0.000053,0.000016,0.000063,0.000026,58.694725,0.000091,
2071,2233,-4.01605865456627,-9.02571382167243,0.000777948338679835,-0.001610,-0.033386,-0.004035,-0.073171,-1.513670,327.910189,22.997025,0.998646,0.983892,0.005049,0.344174,0.000469,0.000420,0.000092,0.000539,0.000349,37.528328,0.000895,
2401,3073,3.02155860191869,9.28997226006147,0.0195259790760929,0.003292,-0.033558,0.010700,0.098964,-1.464921,313.890100,23.975567,0.999586,0.990704,0.003873,0.439624,0.000012,0.000023,0.000015,0.000034,0.000002,54.817027,0.000040,
2236,2713,-0.502900992271698,1.45471366951366,-0.0229854337090956,0.002188,-0.033509,0.004801,0.072722,-1.485486,319.483679,22.869235,0.999256,0.989251,0.003951,0.442763,0.000050,0.000066,0.000004,0.000067,0.000049,77.356115,0.000117,
2116,2338,-3.0521280340115,-6.73029167839391,-0.0104879909385431,-0.000178,-0.034195,-0.000672,-0.017609,-1.530067,325.964354,22.696635,0.999215,0.985978,0.004763,0.456799,0.000318,0.000228,0.000033,0.000329,0.000218,17.963601,0.000550,
2476,2173,4.83610686670882,-10.3478787255765,0.0124709043582243,0.002861,-0.036549,-0.005151,0.134758,-1.645299,328.640467,20.680200,0.997792,0.963398,0.007112,0.377471,0.000673,0.000580,-0.000108,0.000744,0.000509,-33.371632,0.001260,
2161,2248,-2.05711450381832,-8.69977866815704,-0.00132381325613551,-0.000671,-0.034813,-0.004602,-0.028727,-1.577067,327.301054,22.459285,0.998729,0.978488,0.005400,0.409135,0.000419,0.000383,0.000048,0.000453,0.000350,34.609337,0.000804,
2161,2548,-2.10650476030336,-2.14349510110035,-0.0213902429064206,0.001280,-0.033322,0.002638,0.039175,-1.479368,322.356811,22.724424,0.999001,0.986021,0.004585,0.475483,0.000121,0.000049,0.000019,0.000126,0.000044,13.793801,0.000177,
2251,2683,-0.170682466184889,0.800864810062933,-0.0170550452999692,0.002210,-0.033531,0.001387,0.084631,-1.487361,320.002093,22.775161,0.999419,0.990180,0.003954,0.487606,0.000051,0.000058,-0.000001,0.000058,0.000051,-84.175777,0.000110,
2296,2938,0.763754423159568,6.35120196473267,0.00370090281558078,0.003189,-0.033236,0.008070,0.106763,-1.449758,315.979249,23.363014,0.999264,0.989922,0.003988,0.431966,0.000009,0.000008,0.000003,0.000012,0.000005,38.274758,0.000017,
2266,3058,0.0916297645801976,8.95438530068892,0.018066346705325,0.003499,-0.033025,0.007608,0.123485,-1.455636,314.198559,23.481883,0.999485,0.991828,0.003671,0.439067,0.000000,0.000005,-0.000011,0.000013,-0.000008,-50.810871,0.000014,
2371,2893,2.40205287198314,5.37768140012291,-0.0105411792745826,0.002980,-0.032889,0.001326,0.119100,-1.473055,316.580707,23.354634,0.999444,0.991105,0.003849,0.461779,0.000008,0.000014,0.000000,0.000014,0.000008,-85.710236,0.000023,
2176,2638,-1.79441109666383,-0.181175856057187,-0.0217859100170585,0.002286,-0.033282,0.003554,0.082361,-1.483240,320.886555,22.801061,0.999468,0.989254,0.004199,0.448927,0.000076,0.000042,0.000002,0.000076,0.000042,4.051813,0.000119,
2131,2188,-2.70058978445994,-10.0140361513247,0.0130080777888679,-0.001194,-0.034649,-0.006425,-0.047226,-1.590769,328.482021,22.614395,0.999239,0.982521,0.005144,0.343663,0.000537,0.000510,0.000082,0.000607,0.000440,40.256805,0.001052,
2221,2848,-0.85174057224415,4.39140486551909,-0.0145727238904101,0.002579,-0.033244,0.006841,0.084664,-1.458750,317.405771,23.061770,0.999245,0.990221,0.003908,0.446795,0.000028,0.000050,0.000006,0.000052,0.000026,75.230630,0.000079,
2296,2983,0.75628494006585,7.32918777476148,0.0066571117254739,0.003399,-0.032807,0.003315,0.132662,-1.450279,315.295208,23.486785,0.999137,0.988142,0.004196,0.395903,0.000003,0.000006,-0.000002,0.000007,0.000002,-67.356212,0.000010,
2461,2128,4.51761923384597,-11.3359755615335,0.0155642282829831,0.003067,-0.037322,-0.002979,0.135653,-1.665042,329.357886,20.536396,0.999254,0.974668,0.006194,0.410208,0.000769,0.000668,-0.000083,0.000815,0.000621,-29.369073,0.001441,
2146,2248,-2.38362667992685,-8.69937049855915,0.000673002830126279,-0.000417,-0.034385,-0.003585,-0.020041,-1.545036,327.381124,22.548354,0.998710,0.979922,0.005458,0.420234,0.000426,0.000387,0.000049,0.000459,0.000354,33.959831,0.000815,
2251,2758,-0.18485083442906,2.43649222010256,-0.031258695171914,0.002618,-0.033095,0.004865,0.092174,-1.464592,318.671021,22.986773,0.999244,0.987562,0.004351,0.416807,0.000042,0.000070,-0.000001,0.000070,0.000042,-88.394166,0.000113,
2086,2098,-3.67101588796904,-11.9806563028061,-0.0137042609350146,-0.003217,-0.035059,-0.006057,-0.141454,-1.598706,329.813716,22.924093,0.998644,0.964305,0.007306,0.246559,0.000726,0.000674,0.000124,0.000827,0.000573,39.118670,0.001407,
2266,2833,0.12906741374773,4.06812125438039,-0.0205130683850712,0.003035,-0.033080,0.004706,0.111618,-1.460641,317.533488,23.105752,0.999366,0.988610,0.004138,0.435790,0.000031,0.000060,0.000002,0.000061,0.000031,85.476505,0.000093,
2311,3298,1.02420386999266,14.1629520549572,0.00982697428742085,0.004068,-0.032936,0.010003,0.140377,-1.465174,310.157771,24.079175,0.999617,0.993854,0.003075,0.480468,0.000016,0.000014,0.000007,0.000022,0.000007,40.020978,0.000031,
2341,2728,1.77890919162958,1.78670954745716,-0.0235046158406362,0.002653,-0.033571,0.006253,0.086930,-1.479553,319.125000,22.981651,0.999181,0.988548,0.004276,0.373520,0.000036,0.000074,0.000025,0.000086,0.000023,63.603524,0.000115,
2086,2293,-3.69861138700761,-7.71326505262318,-0.00626196578792815,-0.000951,-0.033410,-0.001708,-0.049639,-1.506626,326.833020,22.885067,0.999563,0.991089,0.004167,0.398205,0.000393,0.000292,0.000076,0.000434,0.000252,28.080484,0.000693,
2191,2683,-1.47530995278714,0.798671043566642,-0.0110277542436279,0.002144,-0.033293,0.003783,0.074895,-1.474337,320.191267,22.834985,0.999631,0.992865,0.003526,0.457821,0.000057,0.000059,-0.000002,0.000061,0.000056,-53.489093,0.000116,
2236,2728,-0.505201129001421,1.78154252851221,-0.0197531276882614,0.002269,-0.033125,0.004466,0.077700,-1.471200,319.271697,22.923173,0.999251,0.988467,0.004140,0.424367,0.000048,0.000063,0.000002,0.000064,0.000047,83.279951,0.000112,
2116,2158,-3.02402003446336,-10.6693096708543,-0.00566585159225497,-0.001433,-0.034761,-0.008930,-0.050938,-1.608136,328.868671,22.632331,0.998886,0.983220,0.005290,0.373765,0.000590,0.000550,0.000087,0.000659,0.000481,38.633041,0.001144,
2356,2803,2.09250202461684,3.41881831708647,-0.00979181729820766,0.002762,-0.033149,0.004112,0.099335,-1.464941,318.031026,23.116115,0.999817,0.994274,0.003383,0.450119,0.000021,0.000053,0.000015,0.000059,0.000015,68.234780,0.000079,
2236,2923,-0.53806100030425,6.0213971334795,-0.00747109841580595,0.003109,-0.033075,0.007797,0.105644,-1.458067,316.229204,23.127099,0.999611,0.992543,0.003617,0.506162,0.000013,0.000022,0.000004,0.000024,0.000012,69.277041,0.000036,
2281,3133,0.404178089452888,10.5823474518417,0.0238456630107748,0.003686,-0.033051,0.009543,0.125255,-1.454845,312.999225,23.628846,0.999650,0.993770,0.003430,0.477743,0.000003,0.000012,-0.000006,0.000016,0.000000,-62.549752,0.000018,
2206,2773,-1.16502349250283,2.76008263979866,-0.0148752832726018,0.002162,-0.032859,0.005296,0.070856,-1.437631,318.648680,23.011361,0.999375,0.989032,0.004238,0.415293,0.000035,0.000055,-0.000002,0.000055,0.000035,-84.202099,0.000090,
2431,3163,3.65712970016108,11.2462149225418,0.0239459230999159,0.003874,-0.033358,0.007962,0.134958,-1.471359,312.524703,24.391103,0.999610,0.992135,0.003567,0.417339,0.000017,0.000017,0.000014,0.000030,0.000003,45.187642,0.000037,
2191,2413,-1.43067301009335,-5.08992167933198,-0.0138056367173931,0.000460,-0.032925,-0.007052,0.031515,-1.504713,324.496512,22.555545,0.999007,0.986651,0.004756,0.429347,0.000201,0.000162,0.000010,0.000203,0.000160,13.187194,0.000364,
2251,3013,-0.226777984547436,7.97666689350706,0.0115525334936137,0.003204,-0.032904,0.007467,0.110815,-1.447455,314.893730,23.345708,0.999369,0.989848,0.003931,0.465060,0.000001,0.000005,-0.000013,0.000016,-0.000010,-49.625619,0.000016,
2101,2128,-3.346038551793,-11.3297157126966,0.017052945045009,-0.002398,-0.035856,-0.004172,-0.109576,-1.629692,329.549952,22.651126,0.998857,0.986212,0.005117,0.405503,0.000658,0.000625,0.000108,0.000750,0.000533,40.721193,0.001289,
2146,2488,-2.42244416022693,-3.45277255534487,-0.0184348491202968,0.001362,-0.033079,-0.000381,0.052417,-1.476113,323.421290,22.716252,0.999129,0.985604,0.004889,0.475426,0.000162,0.000081,0.000009,0.000163,0.000080,5.985208,0.000247,
2491,2398,5.11520923210409,-5.41588067694701,-0.00565121924432788,0.002352,-0.034743,-0.000268,0.093770,-1.563446,324.843781,21.602625,0.999292,0.986942,0.004704,0.373049,0.000321,0.000191,-0.000031,0.000328,0.000184,-12.664845,0.000518,
2251,2698,-0.173135778468353,1.12778428120824,-0.0192829067617026,0.002561,-0.033322,0.001200,0.101427,-1.494692,319.756594,22.805489,0.999507,0.990307,0.003745,0.473566,0.000045,0.000061,-0.000001,0.000061,0.000045,-84.757994,0.000107,
2311,3043,1.07186237240153,8.63179652611376,0.0211528771189933,0.003489,-0.033403,0.009104,0.116541,-1.470685,314.406674,23.618598,0.999532,0.990924,0.003781,0.409038,-0.000003,0.000019,0.000001,0.000019,-0.000003,88.646167,0.000020,
2116,2353,-3.0545820535443,-6.40094894789645,-0.01508684187894,0.000130,-0.033989,0.000423,-0.006633,-1.514889,325.694452,22.785866,0.999194,0.983635,0.005029,0.388240,0.000298,0.000211,0.000029,0.000306,0.000202,16.743331,0.000512,
2191,2518,-1.44771936926066,-2.79910935555026,-0.00825983921424722,0.001316,-0.033438,0.000749,0.046248,-1.505559,322.860261,22.607412,0.999285,0.987997,0.004552,0.486773,0.000124,0.000067,0.000024,0.000133,0.000058,19.955462,0.000196,
2161,2338,-2.07170992031732,-6.72909453345387,-0.0116482958358688,0.000087,-0.033246,-0.006666,0.012888,-1.496938,325.804841,22.576675,0.999236,0.987705,0.004464,0.445128,0.000301,0.000236,0.000025,0.000310,0.000228,18.721153,0.000540,
2281,2923,0.439376242279991,6.02493753966156,-0.00718113129522635,0.002898,-0.033212,0.008704,0.091636,-1.450222,316.135970,23.288663,0.999533,0.992159,0.003652,0.445322,0.000016,0.000017,0.000005,0.000022,0.000011,48.846777,0.000033,
2476,2188,4.83314757526844,-10.0182109468871,0.0123336607560418,0.002578,-0.035535,-0.009970,0.140513,-1.624067,328.402168,20.782958,0.998290,0.968322,0.006820,0.355514,0.000652,0.000575,-0.000098,0.000719,0.000508,-34.228103,0.001233,
2206,2578,-1.13149622482455,-1.48851530935855,-0.01491989555484,0.001924,-0.033039,0.001921,0.070504,-1.467327,321.813224,22.701674,0.999252,0.988837,0.004184,0.472953,0.000087,0.000049,0.000016,0.000092,0.000043,19.958204,0.000138,
2401,3088,3.01918780024495,9.6155471606724,0.0243220670264463,0.003450,-0.033612,0.010509,0.106878,-1.476369,313.692682,24.046171,0.999522,0.990375,0.003896,0.402013,0.000015,0.000020,0.000010,0.000028,0.000007,51.712774,0.000038,
2326,3118,1.38437813660672,10.2604768689048,0.0299332744021399,0.003498,-0.033153,0.009515,0.115259,-1.453250,313.242025,23.815401,0.999303,0.992048,0.003731,0.445616,0.000010,0.000012,0.000000,0.000012,0.000010,80.056429,0.000022,
2416,3088,3.3453355600929,9.61690081971281,0.0197085085944195,0.003622,-0.033382,0.007204,0.126438,-1.485151,313.689723,24.096369,0.999647,0.991779,0.003703,0.398647,0.000010,0.000022,0.000013,0.000030,0.000002,56.809094,0.000036,
2101,2293,-3.37163753523114,-7.71423581032253,-0.00139479932545328,-0.000742,-0.034009,0.000287,-0.046126,-1.511740,326.804736,22.787987,0.998892,0.985298,0.005019,0.428810,0.000388,0.000290,0.000068,0.000423,0.000255,27.006911,0.000685,
2311,2578,1.15315594593759,-1.48449565365726,-0.0220805392557963,0.001879,-0.033715,0.004794,0.056993,-1.474524,321.557786,22.607315,0.999428,0.990354,0.004004,0.421496,0.000086,0.000062,0.000024,0.000101,0.000047,31.502269,0.000151,
2371,2908,2.39868878808281,5.70408371248477,-0.00975253518970476,0.002837,-0.033130,0.006576,0.093768,-1.461685,316.316960,23.406075,0.999296,0.989518,0.004102,0.462268,0.000005,0.000007,0.000000,0.000007,0.000005,81.704165,0.000013,
2146,2263,-2.38626651540826,-8.36997589513602,-0.00638777849434291,-0.000201,-0.034200,-0.004344,-0.007741,-1.535071,327.092611,22.589516,0.998502,0.980829,0.005619,0.399409,0.000406,0.000360,0.000048,0.000436,0.000330,32.286695,0.000768,
2296,3208,0.717127644600748,12.2100361928539,0.0345377910468301,0.003910,-0.032919,0.008564,0.138491,-1.455784,311.854613,23.876513,0.999711,0.993577,0.003255,0.434930,0.000012,0.000012,0.000005,0.000017,0.000007,45.130146,0.000025,
2356,2818,2.08935491237417,3.74490055334142,-0.00866240150929798,0.002496,-0.033384,0.005715,0.081344,-1.473129,317.778273,23.134279,0.999664,0.991724,0.003737,0.462465,0.000017,0.000046,0.000009,0.000049,0.000014,74.066620,0.000066,
2296,2998,0.753448669562605,7.65420524476069,0.00928765159164868,0.003215,-0.032840,0.004658,0.119584,-1.468360,315.059682,23.475158,0.999309,0.990118,0.003909,0.418667,-0.000001,0.000013,-0.000003,0.000014,-0.000002,-77.424263,0.000015,
2131,2203,-2.70416973173795,-9.68491307405022,0.00195803317456011,-0.001391,-0.035154,-0.002506,-0.068186,-1.589771,328.127983,22.574082,0.998536,0.978381,0.005626,0.393853,0.000508,0.000482,0.000080,0.000576,0.000414,40.396366,0.000995,
2266,3073,0.0896351966103346,9.27919195326243,0.0301622205526542,0.003442,-0.033034,0.009102,0.115857,-1.467132,314.047358,23.523151,0.999366,0.990720,0.003912,0.410847,0.000002,0.000008,-0.000012,0.000018,-0.000008,-52.837353,0.000018,
2071,2248,-4.01817530290962,-8.69847648903995,0.00145395440659968,-0.001432,-0.033674,-0.003209,-0.067439,-1.517551,327.680810,22.927248,0.998759,0.983802,0.004950,0.409265,0.000440,0.000406,0.000081,0.000506,0.000341,38.901091,0.000851,
2326,2638,1.46905571050963,-0.176695995754812,-0.0169919417763253,0.001849,-0.033586,0.004338,0.056922,-1.475519,320.617917,22.672855,0.999326,0.987808,0.004287,0.475170,0.000059,0.000034,0.000019,0.000069,0.000024,28.233023,0.000097,
2326,2878,1.42587968008424,5.04867059364788,-0.00872520972694701,0.002793,-0.033196,0.005303,0.097196,-1.468733,316.821108,23.236703,0.999509,0.990586,0.003911,0.470277,0.000008,0.000026,0.000002,0.000027,0.000007,82.873134,0.000036,
2326,1993,1.59057452086195,-14.2991210221306,0.0184206740740365,0.000206,-0.039496,-0.008565,0.023580,-1.817690,331.309371,20.934348,0.997843,0.969984,0.006828,0.301680,0.000915,0.000925,-0.000030,0.000950,0.000890,-49.949672,0.001840,
2191,2698,-1.47792224271166,1.1243799263767,-0.0103103046425872,0.002240,-0.033227,0.006835,0.069789,-1.453591,319.949107,22.748929,0.999684,0.994327,0.003235,0.579474,0.000049,0.000059,-0.000003,0.000060,0.000049,-76.182385,0.000109,
2116,2173,-3.02599755224432,-10.3418937273461,0.00727600109377136,-0.001576,-0.035300,-0.004238,-0.071532,-1.592606,328.714816,22.664925,0.998887,0.983884,0.005196,0.362399,0.000574,0.000515,0.000086,0.000635,0.000453,35.504319,0.001093,
2146,2503,-2.4249820201914,-3.12473557796757,-0.0286478814886664,0.001660,-0.032885,-0.004909,0.079830,-1.492525,323.120885,22.720516,0.998830,0.984190,0.005082,0.463979,0.000159,0.000070,0.000006,0.000159,0.000069,3.910715,0.000235,
2086,2308,-3.70107054855715,-7.38577838723479,-0.00635962270416712,-0.000859,-0.033923,0.001778,-0.055648,-1.517649,326.585027,22.858681,0.999328,0.988599,0.004574,0.414810,0.000373,0.000270,0.000064,0.000404,0.000239,25.448474,0.000650,
2176,2458,-1.76465370023805,-4.10841355061474,-0.00519261351814748,0.000727,-0.033628,0.003572,0.010568,-1.477445,323.867606,22.614610,0.999122,0.985775,0.004863,0.482499,0.000163,0.000114,0.000015,0.000167,0.000110,15.585437,0.000278,
2251,2773,-0.18656846405889,2.76139351773462,-0.0179114921149903,0.002635,-0.033042,0.005328,0.091435,-1.471899,318.538510,22.978013,0.999250,0.987316,0.004328,0.441510,0.000038,0.000066,-0.000002,0.000066,0.000038,-86.718866,0.000105,
2101,2143,-3.34876410240348,-10.9994508820151,0.00876173904856614,-0.002126,-0.035546,-0.002197,-0.102791,-1.591684,329.246160,22.682313,0.998683,0.981957,0.005511,0.416904,0.000620,0.000594,0.000099,0.000707,0.000508,41.231308,0.001220,
2266,2848,0.12700829558668,4.3937516594411,-0.012500014829925,0.003212,-0.033100,0.006431,0.114039,-1.461333,317.358829,23.134292,0.999536,0.991341,0.003836,0.431798,0.000030,0.000050,0.000002,0.000050,0.000030,85.054934,0.000081,
2221,2608,-0.810544628504118,-0.833795773293012,-0.0229860585513961,0.002353,-0.033480,0.003050,0.086241,-1.472365,321.236355,22.681257,0.998812,0.982491,0.005050,0.508258,0.000076,0.000037,0.000018,0.000083,0.000030,21.158257,0.000117,
2206,2593,-1.13389606769881,-1.16110353383576,-0.0126746544593175,0.002026,-0.033085,0.003105,0.071455,-1.449022,321.589511,22.755849,0.998927,0.986329,0.004604,0.454559,0.000079,0.000047,0.000017,0.000087,0.000039,23.061680,0.000129,
2221,2863,-0.854432145634437,4.71793354712169,-0.0147189978242181,0.002516,-0.032988,0.006833,0.081863,-1.453473,317.157338,23.109123,0.999284,0.991007,0.003750,0.423408,0.000023,0.000045,0.000000,0.000045,0.000023,-89.357698,0.000069,
2131,2443,-2.74159219891903,-4.4356627515298,-0.0155589676685395,0.001068,-0.032798,-0.000397,0.039162,-1.455683,324.219542,22.681428,0.999190,0.987431,0.004684,0.542702,0.000198,0.000112,0.000021,0.000203,0.000107,13.096562,0.000315,
2176,2653,-1.7978788014102,0.147525467820962,-0.03606298432328,0.002052,-0.032613,-0.000304,0.083815,-1.466193,320.524850,22.854354,0.999457,0.989040,0.004286,0.425856,0.000074,0.000046,0.000001,0.000074,0.000046,2.661327,0.000121,
2476,2203,4.82994994931078,-9.68963704463197,0.0110666614726256,0.002955,-0.036018,-0.005105,0.139170,-1.632903,328.147990,20.809340,0.998070,0.969452,0.006655,0.379719,0.000625,0.000516,-0.000092,0.000678,0.000463,-29.730640,0.001148,
2086,2113,-3.67187007854771,-11.6551863966867,0.00287499711822647,-0.002944,-0.035154,-0.007872,-0.123750,-1.629970,329.729697,22.847601,0.998447,0.981819,0.005539,0.293014,0.000696,0.000640,0.000123,0.000794,0.000542,38.641781,0.001344,
2086,2323,-3.7026220750252,-7.05769116090391,-0.00882717827784063,-0.000068,-0.033341,-0.000401,-0.012834,-1.492036,326.365387,22.832094,0.999118,0.988065,0.004620,0.467853,0.000350,0.000241,0.000051,0.000370,0.000220,21.584289,0.000597,
2341,2038,1.90938766430451,-13.3097014910307,0.00316188636560355,0.000552,-0.038469,-0.010946,0.048276,-1.816916,330.480771,20.924808,0.998896,0.979141,0.005719,0.326703,0.000858,0.000819,-0.000028,0.000873,0.000804,-27.796060,0.001677,
2296,3223,0.714074555609425,12.5343531037148,0.0345088323677487,0.003678,-0.033009,0.009356,0.125078,-1.460262,311.595559,23.826022,0.999805,0.994626,0.003029,0.509472,0.000014,0.000006,0.000004,0.000016,0.000005,20.213309,0.000022,
2161,2353,-2.07427984730228,-6.40155807474346,-0.0118431840980406,0.000277,-0.033678,-0.002540,0.008822,-1.514612,325.557470,22.577588,0.999101,0.985589,0.004716,0.438608,0.000280,0.000220,0.000020,0.000286,0.000214,16.497916,0.000502,
2311,2818,1.11001363055939,3.74373740409935,-0.0150884653149888,0.002531,-0.033388,0.006085,0.082668,-1.484880,317.740258,23.157384,0.999489,0.989737,0.003999,0.380962,0.000030,0.000048,0.000010,0.000053,0.000026,65.838431,0.000080,
2326,3133,1.38137759480431,10.5861085729108,0.0237746584213596,0.003513,-0.032984,0.006148,0.127598,-1.469928,312.957241,23.838240,0.999141,0.991068,0.003823,0.439526,0.000008,0.000013,0.000001,0.000013,0.000007,78.540052,0.000021,
2266,3088,0.0866863432937741,9.60472593847136,0.0290097624373402,0.003198,-0.033293,0.007893,0.108518,-1.481606,313.785253,23.552503,0.999585,0.991496,0.003726,0.391506,0.000001,0.000005,-0.000017,0.000020,-0.000014,-49.124094,0.000020,
2341,2743,1.77652526356868,2.11199575617098,-0.0192255900243481,0.002554,-0.033638,0.003633,0.091514,-1.481212,318.921926,22.924088,0.999459,0.989777,0.004009,0.466182,0.000035,0.000077,0.000024,0.000088,0.000024,65.382735,0.000117,
2416,3103,3.34272467877919,9.94296162264672,0.0206644585817912,0.003686,-0.033090,0.004736,0.138611,-1.468374,313.463906,24.163256,0.999780,0.994513,0.003291,0.395262,0.000015,0.000026,0.000014,0.000036,0.000005,55.698484,0.000045,
2191,2713,-1.48160273083196,1.45406969699955,-0.0296353301266663,0.002150,-0.032805,0.002455,0.079491,-1.458395,319.552720,22.895678,0.999231,0.989699,0.004035,0.443107,0.000046,0.000058,-0.000005,0.000059,0.000044,-71.634276,0.000104,
2176,2473,-1.76718290515751,-3.77984624246229,-0.0116992123301429,0.001078,-0.033541,0.002478,0.030136,-1.472582,323.589934,22.668841,0.999252,0.984257,0.005082,0.446797,0.000156,0.000104,0.000018,0.000161,0.000099,17.124709,0.000263,
2236,2743,-0.507705274609005,2.10798727388416,-0.0166936818590102,0.002499,-0.033494,0.008894,0.073781,-1.470677,319.049585,22.958295,0.999112,0.985695,0.004669,0.411097,0.000042,0.000064,0.000002,0.000064,0.000042,85.944569,0.000107,
2236,2938,-0.540718034810826,6.34777865226827,-0.00304886394053483,0.002867,-0.032990,0.008886,0.090965,-1.458802,316.006718,23.220372,0.999537,0.992540,0.003595,0.432431,0.000009,0.000019,0.000002,0.000019,0.000009,76.988211,0.000028,
2311,3058,1.06895629675199,8.95708088872334,0.0209375441702377,0.003278,-0.033260,0.007801,0.111326,-1.472974,314.154636,23.612052,0.999669,0.992562,0.003492,0.444672,-0.000003,0.000013,0.000002,0.000013,-0.000004,84.422088,0.000013,
2116,2188,-3.02851600496225,-10.0124832320597,0.000261660782598483,-0.001348,-0.034708,-0.005423,-0.057372,-1.590718,328.429180,22.686336,0.998689,0.981574,0.005388,0.349237,0.000543,0.000509,0.000090,0.000618,0.000434,39.566758,0.001057,
2386,2893,2.72830796319822,5.37910672051021,-0.01231250786077,0.003111,-0.032859,0.001670,0.123757,-1.454565,316.578127,23.398823,0.999487,0.991421,0.003811,0.462878,0.000010,0.000012,0.000000,0.000012,0.000010,79.926523,0.000022,
2401,3103,3.01702194369913,9.94079827972377,0.02571761439998,0.003662,-0.033221,0.005044,0.136665,-1.466615,313.488660,24.047612,0.999548,0.991991,0.003608,0.455082,0.000019,0.000026,0.000012,0.000035,0.000010,52.896355,0.000047,
2431,3178,3.65490469128681,11.5707220607194,0.0335534516498797,0.004003,-0.033536,0.009951,0.133423,-1.484236,312.358178,24.414827,0.999632,0.991616,0.003584,0.429425,0.000020,0.000021,0.000010,0.000031,0.000010,46.380183,0.000043,
2311,2593,1.15110346971456,-1.15849833583351,-0.0151134548728464,0.001963,-0.033417,0.003515,0.065324,-1.470185,321.381331,22.588770,0.999572,0.990715,0.003847,0.477185,0.000084,0.000047,0.000024,0.000095,0.000035,25.965495,0.000135,
2491,2413,5.11201524127044,-5.08826789460409,-0.0141022930876602,0.002437,-0.034086,-0.006314,0.121102,-1.553670,324.557643,21.528611,0.999350,0.987316,0.004637,0.517441,0.000297,0.000160,-0.000024,0.000301,0.000156,-9.624506,0.000465,
2461,2143,4.51394877051532,-11.005566427763,0.00375129565884436,0.002990,-0.036627,-0.008088,0.151603,-1.664911,329.032805,20.585914,0.998933,0.975030,0.006063,0.418652,0.000733,0.000638,-0.000091,0.000788,0.000583,-31.162627,0.001376,
2281,2938,0.43704370212189,6.35045223590582,-0.00515515082406637,0.003099,-0.033069,0.008180,0.102698,-1.456176,315.919537,23.291153,0.999469,0.991392,0.003790,0.464349,0.000014,0.000013,0.000004,0.000018,0.000009,40.252316,0.000028,
2116,2368,-3.05567998968464,-6.07446805556446,-0.00433752464783765,0.000636,-0.033528,-0.000853,0.020512,-1.501901,325.569432,22.770166,0.998971,0.983848,0.005049,0.421567,0.000281,0.000210,0.000029,0.000291,0.000200,19.657672,0.000494,
2161,2263,-2.06045099063083,-8.36930527062801,-0.0102707367541939,-0.000775,-0.034306,-0.002185,-0.040715,-1.544256,326.971968,22.557489,0.998539,0.978797,0.005714,0.356669,0.000398,0.000355,0.000046,0.000427,0.000326,32.432479,0.000756,
2251,3028,-0.229445114545559,8.30243660998194,0.0117506079801615,0.003219,-0.033006,0.007688,0.110692,-1.461777,314.650354,23.390139,0.999225,0.988877,0.004052,0.428821,0.000000,0.000005,-0.000013,0.000015,-0.000011,-49.986908,0.000016,
2281,3148,0.401856830723315,10.9070263239353,0.0345104807670964,0.003483,-0.033438,0.011771,0.108281,-1.466799,312.826404,23.665475,0.999549,0.992174,0.003841,0.455424,0.000005,0.000013,-0.000005,0.000015,0.000002,-63.345442,0.000019,
2296,3013,0.750574408014469,7.98012534256969,0.0069836677446915,0.003465,-0.033191,0.007378,0.121822,-1.465048,314.797554,23.495885,0.999048,0.987205,0.004358,0.430563,-0.000004,0.000009,-0.000006,0.000011,-0.000006,-68.402908,0.000011,
2356,2833,2.08676998992623,4.07189407938326,-0.0128767660972926,0.003053,-0.033421,0.005330,0.108341,-1.474607,317.525292,23.193271,0.999693,0.990011,0.003994,0.440843,0.000014,0.000042,0.000007,0.000044,0.000012,76.567511,0.000059,
2326,2653,1.46539534285222,0.151583596842642,-0.0292995673507903,0.001806,-0.033553,0.002940,0.059781,-1.473763,320.273772,22.721354,0.999365,0.988958,0.004159,0.463901,0.000049,0.000036,0.000021,0.000065,0.000020,36.203577,0.000089,
2071,2263,-4.01975200759517,-8.36973332799001,-0.00267434936080235,-0.000587,-0.033217,-0.005265,-0.022650,-1.519881,327.449577,22.949369,0.999115,0.985813,0.004803,0.383734,0.000421,0.000379,0.000083,0.000486,0.000315,38.005066,0.000806,
2206,2788,-1.16741197018684,3.08551134290734,-0.0164390104877725,0.002521,-0.033325,0.006087,0.084642,-1.476136,318.406224,22.968082,0.999183,0.987413,0.004449,0.436725,0.000033,0.000056,-0.000003,0.000057,0.000032,-81.845604,0.000090,
2131,2218,-2.70647823980157,-9.35544700405575,-0.000340058537858567,-0.001313,-0.034080,-0.005031,-0.056696,-1.540031,327.878274,22.614065,0.998309,0.978030,0.005694,0.411818,0.000481,0.000448,0.000075,0.000541,0.000388,38.816311,0.000933,
2146,2518,-2.42777604759258,-2.79676115384256,-0.0331569461969821,0.001804,-0.032985,-0.002217,0.078269,-1.494852,322.838889,22.762754,0.998947,0.985550,0.004824,0.428482,0.000145,0.000057,0.000013,0.000147,0.000056,8.176193,0.000209,
2206,2608,-1.13699448404756,-0.833953148820122,-0.0187130644718536,0.001916,-0.033184,0.003057,0.066498,-1.469117,321.291190,22.757637,0.998853,0.984268,0.004889,0.450183,0.000079,0.000037,0.000018,0.000085,0.000030,20.379189,0.000120,
2266,2863,0.125289280207529,4.71823712372408,0.00333034266526511,0.003150,-0.033517,0.007981,0.105895,-1.473908,317.239453,23.130548,0.999734,0.993494,0.003518,0.447943,0.000025,0.000047,-0.000004,0.000048,0.000024,-81.187538,0.000074,
2146,2278,-2.38822637814506,-8.04253049504288,-0.0097350017200597,0.000357,-0.033986,-0.006354,0.023983,-1.535414,326.855226,22.506597,0.998422,0.980819,0.005610,0.491963,0.000384,0.000318,0.000040,0.000403,0.000300,25.035013,0.000705,
2296,3238,0.71101238721387,12.8601990115013,0.0311709981817785,0.003636,-0.032967,0.009461,0.122851,-1.446644,311.319022,23.883533,0.999687,0.992437,0.003386,0.494136,0.000016,-0.000003,0.000005,0.000018,-0.000004,14.169296,0.000019,
2176,2668,-1.79940234874843,0.472408339968311,-0.0172644216855247,0.001988,-0.032939,0.002826,0.071058,-1.465569,320.426335,22.855318,0.999566,0.991582,0.003773,0.437879,0.000070,0.000046,-0.000004,0.000070,0.000046,-9.352274,0.000117,
2191,2533,-1.4507993800254,-2.47003834776307,-0.016242901693488,0.001493,-0.033172,0.003119,0.047076,-1.478651,322.550830,22.694420,0.999260,0.988072,0.004414,0.442648,0.000115,0.000062,0.000024,0.000125,0.000053,20.981143,0.000182,
2221,2878,-0.856327604648801,5.04305313021983,-0.00786638149696728,0.002700,-0.032774,0.006028,0.092938,-1.453775,316.981813,23.088128,0.999323,0.992377,0.003537,0.462590,0.000020,0.000042,0.000001,0.000042,0.000019,87.582478,0.000062,
2101,2308,-3.37344565056332,-7.38689727046898,0.00126341732345736,-0.000404,-0.034121,-0.000266,-0.029021,-1.531597,326.602676,22.784207,0.998827,0.982755,0.005511,0.415725,0.000369,0.000269,0.000057,0.000395,0.000243,24.316690,0.000644,
2086,2128,-3.67448509586618,-11.3261451538353,-0.0014239620435319,-0.002736,-0.035665,-0.004002,-0.125516,-1.622357,329.451367,22.835477,0.998764,0.983566,0.005301,0.315169,0.000658,0.000618,0.000120,0.000760,0.000517,40.283544,0.001284,
2116,2203,-3.03086466949642,-9.68443818854894,0.00153618153410662,-0.001277,-0.034909,-0.003380,-0.060221,-1.595086,328.195932,22.682422,0.997885,0.976906,0.005873,0.354837,0.000513,0.000481,0.000089,0.000587,0.000407,39.966015,0.000999,
2371,2923,2.3959600512363,6.03019478931328,-0.00392854131541753,0.002722,-0.033324,0.009062,0.079621,-1.453453,316.106582,23.473841,0.999224,0.989254,0.004163,0.443340,0.000002,0.000006,0.000000,0.000006,0.000002,-85.518120,0.000009,
2236,2758,-0.510465756341556,2.43501751411392,-0.0202812342367906,0.002507,-0.033098,0.007174,0.079915,-1.452140,318.781608,22.980783,0.999256,0.987314,0.004348,0.428182,0.000040,0.000067,0.000003,0.000067,0.000040,84.431325,0.000108,
2251,2788,-0.189095131710921,3.08737990015844,-0.0146239916497848,0.002621,-0.033531,0.006483,0.086800,-1.492214,318.317647,23.006475,0.999363,0.988362,0.004218,0.415864,0.000034,0.000066,-0.000003,0.000067,0.000034,-84.670190,0.000103,
2221,2623,-0.813603441373608,-0.50665279569332,-0.0203765951556534,0.001976,-0.033658,0.006793,0.056905,-1.466260,320.985446,22.736089,0.999056,0.984263,0.004884,0.478815,0.000070,0.000039,0.000014,0.000075,0.000034,20.599814,0.000112,
2491,2428,5.10898614284266,-4.75910764718595,-0.0153943706717996,0.002523,-0.033713,-0.007347,0.129204,-1.529424,324.310878,21.655717,0.999205,0.986006,0.004843,0.475245,0.000280,0.000127,-0.000013,0.000281,0.000126,-4.904792,0.000417,
2341,2053,1.90781174917493,-12.9820850452764,0.0241793832694839,0.000507,-0.038590,-0.006542,0.030835,-1.776856,330.396878,21.008320,0.998953,0.979829,0.005551,0.322317,0.000824,0.000814,-0.000026,0.000846,0.000792,-39.450499,0.001638,
2131,2458,-2.74438088566808,-4.10599831299951,-0.0188124237853913,0.001034,-0.032903,0.001188,0.032870,-1.434054,323.942703,22.844143,0.999210,0.987948,0.004670,0.408515,0.000179,0.000089,0.000014,0.000181,0.000087,8.871224,0.000274,
2251,2713,-0.176385524922733,1.45508109365473,-0.0236908723114766,0.002316,-0.033318,0.001575,0.088928,-1.495386,319.463364,22.851155,0.999415,0.990449,0.003851,0.451194,0.000045,0.000063,-0.000002,0.000063,0.000045,-84.905841,0.000109,
2161,2563,-2.10814582106418,-1.81707399992449,-0.00970278838696004,0.001565,-0.033473,0.005922,0.042187,-1.465340,322.214498,22.765603,0.998996,0.985492,0.004647,0.459221,0.000113,0.000043,0.000011,0.000115,0.000042,8.664717,0.000163,
2401,3118,3.01470788909413,10.2661006337836,0.0362078554682057,0.003631,-0.033450,0.007443,0.126430,-1.477121,313.320743,24.134432,0.999823,0.995293,0.002970,0.401887,0.000019,0.000021,0.000017,0.000037,0.000003,45.948367,0.000045,
2281,3163,0.399312647672097,11.2332621935124,0.0337011937552916,0.003657,-0.033089,0.010690,0.120070,-1.448926,312.585283,23.749274,0.999512,0.991587,0.003749,0.416274,0.000009,0.000017,-0.000002,0.000017,0.000008,-78.636081,0.000026,
2086,2338,-3.70405112591057,-6.73051296403423,-0.0023437506770847,0.000074,-0.032998,-0.005895,0.009621,-1.501968,326.200267,22.851385,0.998820,0.985208,0.004944,0.439351,0.000328,0.000222,0.000047,0.000346,0.000204,20.750170,0.000556,
2386,2908,2.72427931880279,5.70562421393009,-0.0151574739456919,0.002797,-0.033604,0.009195,0.082014,-1.472781,316.267627,23.464649,0.999371,0.990072,0.004030,0.421373,0.000007,0.000003,0.000001,0.000008,0.000003,19.291344,0.000011,
2461,2158,4.51080108405042,-10.6763879594116,0.00587699456889368,0.002746,-0.036496,-0.007602,0.138724,-1.694762,328.795327,20.709071,0.999041,0.973856,0.005982,0.322699,0.000699,0.000599,-0.000100,0.000761,0.000538,-31.715420,0.001305,
2266,3103,0.0841862756501861,9.93061170627721,0.0274348556917516,0.003505,-0.032950,0.007681,0.123584,-1.449912,313.541463,23.569626,0.999690,0.992948,0.003509,0.430690,0.000001,0.000011,-0.000018,0.000024,-0.000012,-52.943585,0.000024,
2356,2848,2.08335360009229,4.39891128398006,-0.0205315585404833,0.003075,-0.033268,0.005354,0.109352,-1.460901,317.217399,23.218631,0.999619,0.990159,0.003919,0.468007,0.000013,0.000033,0.000000,0.000033,0.000013,89.265166,0.000047,
2341,2758,1.77382117728625,2.4388513259351,-0.01601375951401,0.002489,-0.033227,0.004504,0.085634,-1.461237,318.698486,22.984603,0.999562,0.989708,0.004027,0.462309,0.000034,0.000075,0.000025,0.000087,0.000022,64.637331,0.000115,
2431,3193,3.65250062664387,11.8957371269149,0.0405430502806325,0.004038,-0.033666,0.010346,0.133524,-1.488441,312.170978,24.463881,0.999593,0.990750,0.003736,0.424654,0.000023,0.000019,0.000008,0.000030,0.000012,39.426428,0.000043,
2296,3253,0.708139710923763,13.1859576428986,0.0269117043881693,0.004033,-0.033235,0.012018,0.132383,-1.456710,311.046600,23.955675,0.999674,0.990079,0.003722,0.440436,0.000018,-0.000004,0.000009,0.000021,-0.000007,20.499374,0.000022,
2251,3043,-0.231423210775095,8.62834940972061,0.0152822113695947,0.003608,-0.032952,0.006827,0.131504,-1.453549,314.455458,23.451108,0.999490,0.991055,0.003711,0.398458,-0.000001,0.000008,-0.000011,0.000015,-0.000009,-55.642279,0.000016,
2326,2008,1.58821687578995,-13.9694813535669,0.0223845123178421,0.000205,-0.038643,-0.010044,0.028964,-1.790183,331.106188,21.007402,0.998126,0.970995,0.006794,0.294120,0.000893,0.000892,-0.000022,0.000915,0.000870,-44.405988,0.001785,
2311,2608,1.14822285446698,-0.831403190340517,-0.0164075777035464,0.001947,-0.033538,0.003613,0.064198,-1.483814,321.126026,22.621631,0.999649,0.990483,0.003791,0.463646,0.000073,0.000036,0.000026,0.000087,0.000023,27.334429,0.000116,
2161,2368,-2.07585040350529,-6.07337138039659,-0.0101812878147598,0.000987,-0.033243,-0.003747,0.045283,-1.489629,325.365268,22.618329,0.999171,0.988706,0.004251,0.434601,0.000260,0.000223,0.000019,0.000268,0.000215,22.718135,0.000484,
2176,2683,-1.80219107604406,0.798790869428579,-0.0208173548576269,0.002012,-0.033086,0.003528,0.069966,-1.465910,320.152488,22.812543,0.999437,0.990541,0.003908,0.492978,0.000063,0.000055,-0.000008,0.000068,0.000050,-30.747148,0.000118,
2476,2218,4.82638978454337,-9.35974642812986,0.0118000920647319,0.002614,-0.035735,-0.002615,0.114243,-1.606831,327.885852,20.947553,0.998945,0.978559,0.005893,0.326807,0.000586,0.000489,-0.000093,0.000643,0.000432,-31.241189,0.001082,
2491,2443,5.10602123431369,-4.43103998616548,-0.0076099138226482,0.002380,-0.033954,-0.002773,0.105040,-1.520527,324.107967,21.788340,0.998873,0.982421,0.005112,0.411720,0.000270,0.000109,-0.000005,0.000271,0.000109,-1.632097,0.000391,
2191,2728,-1.48366008678571,1.77988433711644,-0.0245584047364105,0.002191,-0.032769,0.000888,0.086310,-1.465788,319.358667,22.892630,0.999235,0.988895,0.004131,0.453258,0.000041,0.000056,-0.000006,0.000058,0.000039,-71.390081,0.000098,
2326,2893,1.42324115835348,5.37505961124445,-0.00981188172403336,0.002953,-0.033321,0.004224,0.108235,-1.479160,316.578379,23.289934,0.999298,0.989867,0.003997,0.440489,0.000006,0.000016,0.000004,0.000017,0.000005,70.065882,0.000023,
2101,2158,-3.35064024129169,-10.6708383521778,0.0144823866593811,-0.002061,-0.035060,-0.002676,-0.098260,-1.579372,329.057021,22.744387,0.998847,0.981625,0.005483,0.371050,0.000593,0.000547,0.000094,0.000666,0.000474,38.137007,0.001145,
2131,2233,-2.70820661046612,-9.02762792268069,0.00785500314094634,-0.000964,-0.034481,-0.001850,-0.050341,-1.551046,327.711475,22.678153,0.998573,0.979535,0.005544,0.344314,0.000459,0.000412,0.000067,0.000506,0.000365,35.297677,0.000874,
2206,2623,-1.13949779569085,-0.507331014783006,-0.0168252838167291,0.001843,-0.033213,0.002864,0.063662,-1.490064,321.061155,22.784879,0.999258,0.984275,0.004866,0.419317,0.000075,0.000040,0.000014,0.000080,0.000035,19.555895,0.000118,
2206,2803,-1.17038934623458,3.41201995305516,-0.0187747920570587,0.002409,-0.033373,0.007743,0.074250,-1.463940,318.132315,22.972224,0.998883,0.984472,0.004826,0.461703,0.000032,0.000056,-0.000004,0.000057,0.000031,-81.385243,0.000089,
2071,2278,-4.02240866463773,-8.04087609521066,-0.00467043038469228,-0.000872,-0.033348,-0.006114,-0.033389,-1.502837,327.180530,22.990148,0.999832,0.993990,0.003827,0.359188,0.000399,0.000319,0.000074,0.000443,0.000275,30.819554,0.000725,
2176,2488,-1.77000745871471,-3.45215407768259,-0.0142526701495171,0.000806,-0.033217,0.000556,0.023700,-1.466949,323.319558,22.684247,0.999068,0.984118,0.005097,0.450710,0.000148,0.000092,0.000014,0.000151,0.000089,13.521293,0.000243,
2116,2218,-3.03326264650207,-9.35537372136383,0.00171417002917451,-0.001359,-0.034287,-0.004096,-0.061671,-1.553068,327.954152,22.718976,0.998177,0.978839,0.005727,0.366268,0.000485,0.000449,0.000084,0.000553,0.000381,38.952703,0.000939,
2296,3028,0.748688586994561,8.30567922423407,0.0123095955333383,0.003907,-0.033084,0.006957,0.143633,-1.458437,314.618852,23.534573,0.999225,0.988594,0.004127,0.427550,-0.000003,0.000011,-0.000007,0.000014,-0.000006,-67.173703,0.000014,
2296,3268,0.705110314479761,13.5112186912463,0.0224442025070175,0.003966,-0.033068,0.010226,0.135464,-1.451652,310.766058,23.970031,0.999585,0.991883,0.003497,0.459693,0.000021,-0.000009,0.000011,0.000024,-0.000012,18.162428,0.000024,
2326,3148,1.37908573624117,10.9112094802868,0.0290882722074457,0.003684,-0.033187,0.006913,0.132746,-1.480501,312.761443,23.880534,0.999448,0.992133,0.003698,0.419783,0.000007,0.000013,0.000002,0.000014,0.000006,72.597543,0.000020,
2311,2833,1.10828894481851,4.06977834502833,-0.00594604288460232,0.002806,-0.033277,0.004940,0.099305,-1.477840,317.588989,23.220932,0.999705,0.991755,0.003724,0.356558,0.000025,0.000048,0.000010,0.000052,0.000021,69.495427,0.000075,
2461,2173,4.50721481784295,-10.3465396044051,0.000156426014655153,0.002513,-0.035903,-0.009504,0.135451,-1.663408,328.501557,20.753968,0.998978,0.976817,0.005722,0.366812,0.000659,0.000578,-0.000100,0.000726,0.000510,-33.978296,0.001243,
2371,2938,2.39361660253636,6.35567726227905,0.00131324827538037,0.002990,-0.033721,0.010952,0.085029,-1.475662,315.911306,23.513381,0.999084,0.988463,0.004289,0.421793,0.000006,0.000002,-0.000002,0.000006,0.000001,-18.308531,0.000008,
2086,2353,-3.70682592259187,-6.40159425358173,-0.00639558591029754,-0.000039,-0.032631,-0.004757,0.001262,-1.474090,325.915934,22.893463,0.998405,0.980027,0.005558,0.426322,0.000307,0.000202,0.000045,0.000323,0.000185,20.244855,0.000515,
2326,2668,1.46289738383131,0.479295395987187,-0.0268698441323068,0.001846,-0.033418,0.001993,0.064935,-1.491831,320.055101,22.866419,0.999640,0.990827,0.003909,0.335159,0.000044,0.000040,0.000017,0.000059,0.000025,41.640818,0.000087,
2236,2953,-0.542416284951301,6.67374641340648,0.00189073648925842,0.003247,-0.032621,0.005753,0.118733,-1.454821,315.831016,23.277941,0.999403,0.991404,0.003833,0.399366,0.000004,0.000016,-0.000001,0.000016,0.000004,-86.530729,0.000021,
2416,3118,3.33973725761967,10.2680133083651,0.0267790515729871,0.003583,-0.033764,0.010050,0.114146,-1.484174,313.245220,24.205662,0.999799,0.994964,0.003121,0.383653,0.000018,0.000021,0.000018,0.000037,0.000001,47.675900,0.000044,
2221,2893,-0.858355836479191,5.36874601089015,-0.00265915899632319,0.002771,-0.032729,0.003810,0.103419,-1.443083,316.791541,23.100241,0.999574,0.992510,0.003608,0.479791,0.000015,0.000028,0.000002,0.000029,0.000015,82.774319,0.000044,
2131,2473,-2.74643908778167,-3.77959446677617,-0.014820748581144,0.001121,-0.033065,0.000932,0.037554,-1.457895,323.738817,22.825880,0.999287,0.987187,0.004668,0.409814,0.000171,0.000084,0.000015,0.000173,0.000081,9.748832,0.000260,
2161,2578,-2.11104562826451,-1.489699198714,-0.0167807841102103,0.001608,-0.033398,0.005604,0.045181,-1.468490,321.915593,22.750651,0.999006,0.985810,0.004573,0.482144,0.000101,0.000043,0.000007,0.000102,0.000043,7.165434,0.000148,
2311,3073,1.06676123119446,9.28291845278386,0.0278037225508001,0.003448,-0.033415,0.009101,0.114678,-1.474502,313.970027,23.705222,0.999654,0.993941,0.003280,0.381078,-0.000003,0.000012,0.000000,0.000012,-0.000003,88.480496,0.000013,
2236,2773,-0.512980376062931,2.76096828297338,-0.0218651578485947,0.002492,-0.033003,0.003676,0.090516,-1.479881,318.535492,22.970925,0.999178,0.987080,0.004327,0.431528,0.000037,0.000061,0.000003,0.000062,0.000037,83.155349,0.000099,
2326,2023,1.58508195733706,-13.6394364483036,0.0130792810999765,0.000493,-0.038396,-0.010704,0.044501,-1.793712,330.803018,21.003436,0.998529,0.976793,0.006243,0.332828,0.000863,0.000866,-0.000019,0.000883,0.000845,-47.354843,0.001729,
2491,2458,5.1021909726411,-4.10311226339401,-0.00815415743062431,0.001952,-0.034127,0.000443,0.073083,-1.503003,323.827786,21.825981,0.999040,0.984133,0.004881,0.451848,0.000265,0.000087,-0.000005,0.000265,0.000087,-1.518163,0.000366,
2341,2068,1.90483299199764,-12.6532009772691,0.0173436845534525,0.000655,-0.038143,-0.008980,0.046278,-1.777308,330.114349,20.941342,0.998735,0.975096,0.006032,0.429259,0.000791,0.000801,-0.000025,0.000822,0.000771,-50.937930,0.001593,
2341,2773,1.77152027033872,2.76472441156757,-0.00645089472510563,0.002634,-0.033945,0.009175,0.075765,-1.475082,318.524672,23.042345,0.999590,0.991532,0.003728,0.427036,0.000031,0.000068,0.000021,0.000077,0.000021,66.095352,0.000104,
2266,2878,0.122136716271061,5.04445054016649,-0.00203073722371983,0.002949,-0.033212,0.006189,0.102612,-1.490954,316.947100,23.136769,0.999622,0.991498,0.003750,0.450003,0.000019,0.000041,-0.000003,0.000042,0.000019,-83.487423,0.000062,
2356,2113,2.22310970690345,-11.6614289478376,0.00731292343834866,0.000673,-0.036650,-0.006492,0.039098,-1.663229,329.298027,21.179797,0.999339,0.980314,0.005366,0.336224,0.000706,0.000718,-0.000029,0.000742,0.000683,-50.686931,0.001425,
2326,2908,1.42039883831478,5.70109924798899,-0.00515744362621717,0.002749,-0.033536,0.006766,0.090028,-1.474465,316.354402,23.341781,0.999181,0.989727,0.004079,0.427234,0.000006,0.000013,0.000005,0.000016,0.000003,61.448595,0.000021,
2116,2383,-3.05836957724027,-5.74727767170133,-0.00776347764690399,0.000525,-0.033582,-0.001295,0.016699,-1.520169,325.295647,22.717639,0.999054,0.983818,0.004996,0.461156,0.000261,0.000185,0.000029,0.000271,0.000175,18.607313,0.000450,
2461,2188,4.50333085770458,-10.0157440975221,-0.0135379926285282,0.002726,-0.035346,-0.010422,0.148874,-1.628455,328.157615,20.803808,0.999596,0.986849,0.004792,0.409545,0.000633,0.000565,-0.000090,0.000695,0.000503,-34.554352,0.001204,
2251,3058,-0.232407756808112,8.95204703102802,0.0356037912758893,0.003858,-0.032703,0.007005,0.142493,-1.444588,314.392129,23.419983,0.999588,0.992351,0.003506,0.460939,0.000000,0.000004,-0.000011,0.000013,-0.000009,-49.357394,0.000013,
2251,2803,-0.192337740492537,3.41441679372136,-0.0206225970512151,0.002521,-0.033370,0.007139,0.080166,-1.470650,318.016485,23.022299,0.999371,0.988218,0.004391,0.445160,0.000034,0.000063,-0.000003,0.000064,0.000034,-83.637116,0.000099,
2176,2503,-1.77246564859674,-3.12496657964185,-0.0151071611835505,0.000971,-0.033308,0.001359,0.028726,-1.486655,323.075021,22.699292,0.998947,0.984020,0.005128,0.429361,0.000145,0.000080,0.000012,0.000147,0.000078,9.864229,0.000228,
2341,3193,1.69680371289532,11.8883987903376,0.0372412988451174,0.003772,-0.033380,0.010482,0.123862,-1.484544,312.077615,24.076359,0.999624,0.993123,0.003519,0.390393,0.000007,0.000023,0.000005,0.000024,0.000005,73.815048,0.000031,
2386,2923,2.72220227480319,6.03100916130598,-0.00590722359595475,0.002901,-0.033617,0.009349,0.086202,-1.476168,316.104641,23.502114,0.999165,0.988909,0.004312,0.423395,0.000005,0.000002,0.000001,0.000005,0.000002,10.708565,0.000007,
2401,3133,3.01117059289511,10.5921890650967,0.0272217957519842,0.003813,-0.033477,0.008457,0.131143,-1.467949,313.004096,24.156833,0.999779,0.994512,0.003109,0.433144,0.000020,0.000015,0.000015,0.000032,0.000003,40.851452,0.000039,
2326,3163,1.37650726582093,11.236328162417,0.0363214954418822,0.003654,-0.033403,0.010715,0.118162,-1.474033,312.561817,23.922189,0.999626,0.993244,0.003518,0.417836,0.000009,0.000018,0.000003,0.000019,0.000008,73.007627,0.000028,
2101,2173,-3.35335710624142,-10.3417461251568,0.00762802967528842,-0.001993,-0.035300,-0.002602,-0.095450,-1.587631,328.761792,22.742034,0.998857,0.982840,0.005291,0.369325,0.000575,0.000510,0.000092,0.000640,0.000445,35.336819,0.001091,
2416,3133,3.33704561301721,10.5927018214449,0.0255420807749829,0.003827,-0.033294,0.008715,0.130517,-1.450848,313.005692,24.123259,0.999808,0.995148,0.003026,0.546240,0.000020,0.000014,0.000015,0.000033,0.000001,39.987615,0.000039,
2296,3043,0.746347646121372,8.63114780700581,0.0200964062503886,0.003815,-0.033096,0.007923,0.136114,-1.463245,314.431458,23.596376,0.999370,0.989142,0.004011,0.389980,-0.000006,0.000016,-0.000003,0.000017,-0.000006,-81.582892,0.000017,
2191,2743,-1.48557110396544,2.10581560799114,-0.0152507537456472,0.002412,-0.032998,0.003982,0.086689,-1.463585,319.193264,22.928209,0.999448,0.989603,0.004044,0.434487,0.000036,0.000057,-0.000006,0.000059,0.000035,-74.513334,0.000095,
2281,3178,0.397272356835202,11.5577182310189,0.0415929556527317,0.003893,-0.033349,0.012306,0.125398,-1.466790,312.411528,23.760281,0.999506,0.992506,0.003505,0.413805,0.000011,0.000015,-0.000001,0.000016,0.000011,-73.407435,0.000027,
2221,2638,-0.81657538993441,-0.179341999387695,-0.032540946146753,0.002061,-0.033229,0.001143,0.079059,-1.469250,320.662739,22.694659,0.998984,0.985704,0.004806,0.537330,0.000064,0.000043,0.000011,0.000069,0.000038,23.679891,0.000108,
2101,2323,-3.3748623996212,-7.05867292119537,0.00446166210105048,0.000124,-0.033203,-0.003478,0.004875,-1.503486,326.421037,22.823548,0.999072,0.986367,0.004851,0.407471,0.000346,0.000243,0.000044,0.000362,0.000227,20.095941,0.000594,
2326,2038,1.58093500018477,-13.3072976041881,0.00561751939017086,-0.000439,-0.037112,-0.012437,0.008304,-1.738972,330.461922,21.159917,0.999095,0.982273,0.005326,0.269845,0.000830,0.000843,-0.000025,0.000862,0.000811,-52.362548,0.001673,
2476,2233,4.82324691239299,-9.03169369958028,0.0105721742515925,0.002317,-0.035389,-0.006373,0.115042,-1.617223,327.634253,20.938989,0.999087,0.980800,0.005649,0.384133,0.000559,0.000491,-0.000080,0.000612,0.000438,-33.366907,0.001055,
2131,2488,-2.74876070355133,-3.45345546285125,-0.0179184206864988,0.001364,-0.033322,0.000016,0.051364,-1.481410,323.485168,22.722504,0.999317,0.986607,0.004690,0.496474,0.000166,0.000073,0.000012,0.000167,0.000072,7.354607,0.000245,
2131,2248,-2.71096459281929,-8.69984386364843,0.00404460095739978,-0.000816,-0.035098,0.002040,-0.055359,-1.565842,327.433789,22.623883,0.998830,0.981059,0.005384,0.391948,0.000433,0.000390,0.000059,0.000474,0.000349,35.157841,0.000826,
2431,3208,3.64909004304208,12.2211939853299,0.036466535825582,0.003972,-0.033701,0.010874,0.128467,-1.501957,311.885606,24.501758,0.999571,0.989197,0.004048,0.421854,0.000025,0.000020,0.000005,0.000028,0.000017,30.326108,0.000046,
2206,2638,-1.14208738675131,-0.180371101544495,-0.0171848507970367,0.001926,-0.033069,0.003913,0.064235,-1.469886,320.815343,22.787485,0.999220,0.985809,0.004719,0.454232,0.000069,0.000043,0.000010,0.000072,0.000040,19.439745,0.000113,
2146,2533,-2.42995472632083,-2.47112632427537,-0.0164465802521931,0.001425,-0.033422,0.004586,0.040170,-1.468046,322.697902,22.756869,0.999156,0.986853,0.004480,0.469584,0.000134,0.000055,0.000016,0.000138,0.000051,10.933414,0.000195,
2326,2923,1.41808511863355,6.02625949083426,-0.000699593929937237,0.002984,-0.033414,0.007987,0.096637,-1.474523,316.153985,23.319567,0.998698,0.986957,0.004568,0.483366,0.000006,0.000011,0.000005,0.000014,0.000002,58.610724,0.000018,
2311,2848,1.10575007057856,4.39426842456637,-0.00198098185165918,0.002780,-0.033375,0.005572,0.095902,-1.475560,317.375211,23.111094,0.999817,0.992168,0.003670,0.500596,0.000024,0.000039,0.000006,0.000041,0.000022,70.880448,0.000064,
2146,2293,-2.39124547917232,-7.71502390858458,-0.000152428239687197,-0.000547,-0.034498,-0.001666,-0.031860,-1.544210,326.637762,22.573497,0.998356,0.984118,0.005219,0.426322,0.000366,0.000296,0.000044,0.000388,0.000274,25.782245,0.000665,
2296,3283,0.702480664780133,13.8365777155108,0.0162415784584482,0.004391,-0.032953,0.007925,0.162921,-1.447642,310.495191,23.989287,0.999396,0.991838,0.003535,0.473052,0.000022,0.000005,0.000016,0.000032,-0.000004,30.781618,0.000035,
2341,2953,1.73867253290888,6.67999044006488,-0.000419206898300217,0.002831,-0.033210,0.004674,0.100874,-1.467036,315.665126,23.477987,0.999303,0.990526,0.003887,0.435786,0.000005,-0.000005,0.000003,0.000006,-0.000006,17.326778,0.000007,
2236,2788,-0.515109605824843,3.08706097892849,-0.0181389418276012,0.002736,-0.033148,0.003663,0.101751,-1.484225,318.334018,22.996594,0.999364,0.988567,0.004204,0.422634,0.000032,0.000062,0.000001,0.000062,0.000032,88.097360,0.000096,
2401,3148,3.0092568952539,10.9163810836001,0.0384042648655623,0.003963,-0.033630,0.008831,0.136538,-1.497539,312.858144,24.170739,0.999805,0.994909,0.002944,0.434072,0.000016,0.000015,0.000015,0.000030,0.000000,44.004003,0.000035,
2356,2128,2.22050116809467,-11.3331748981039,0.00709696961729378,0.000793,-0.036438,-0.007962,0.049813,-1.675309,329.065626,21.163558,0.999152,0.981131,0.005368,0.382240,0.000676,0.000699,-0.000027,0.000717,0.000658,-56.237074,0.001375,
2491,2473,5.09954487953812,-3.77490407333502,-0.0118381667444964,0.002259,-0.033569,-0.004809,0.107480,-1.516537,323.587881,21.896149,0.999179,0.984607,0.004822,0.428311,0.000240,0.000085,-0.000010,0.000240,0.000084,-3.608794,0.000337,
2116,2233,-3.03517370233278,-9.02728271317995,0.00522731134600463,-0.000937,-0.034622,-0.001255,-0.050831,-1.560444,327.752895,22.755495,0.998374,0.979736,0.005670,0.327950,0.000463,0.000413,0.000075,0.000517,0.000359,35.635824,0.000880,
2371,2953,2.39057640367292,6.68188511476433,-0.00220634818782628,0.002856,-0.033821,0.007843,0.089882,-1.491812,315.641736,23.555909,0.999259,0.988633,0.004253,0.403757,0.000006,-0.000004,0.000000,0.000006,-0.000004,-0.600799,0.000006,
2461,2203,4.49968121122637,-9.68693258492056,-0.0136923677767413,0.002469,-0.035505,-0.006247,0.121418,-1.636100,327.886395,20.864179,0.999157,0.981740,0.005344,0.398752,0.000604,0.000512,-0.000084,0.000654,0.000462,-30.663672,0.001122,
2191,2548,-1.45350769873102,-2.14306684559858,-0.011989090099064,0.001077,-0.032922,0.003746,0.026089,-1.449477,322.322420,22.701355,0.999407,0.989360,0.004236,0.480220,0.000106,0.000056,0.000024,0.000115,0.000047,22.287386,0.000167,
2281,2953,0.434912290825661,6.67663639306987,-0.00463348886074755,0.003384,-0.032881,0.004472,0.128257,-1.461699,315.704589,23.348170,0.999236,0.989047,0.004131,0.429020,0.000010,0.000009,0.000002,0.000012,0.000008,40.496550,0.000020,
2386,2938,2.71936744881818,6.35664703195236,-0.00276930339805403,0.002814,-0.033968,0.010585,0.077603,-1.495074,315.877629,23.538199,0.999210,0.988952,0.004244,0.410973,0.000009,-0.000002,0.000000,0.000009,-0.000002,-2.424842,0.000009,
2176,2698,-1.80496875377099,1.12633278359377,-0.0228826553389467,0.002003,-0.032879,0.004971,0.065200,-1.432486,319.886508,22.859711,0.999424,0.990460,0.003852,0.492094,0.000055,0.000054,-0.000010,0.000065,0.000044,-44.497952,0.000110,
2266,3118,0.0820777901041936,10.2555632636518,0.0358581218474683,0.003654,-0.032843,0.009872,0.123171,-1.448349,313.366390,23.597086,0.999662,0.993204,0.003446,0.429263,0.000002,0.000009,-0.000014,0.000020,-0.000009,-52.435647,0.000020,
2326,2053,1.5791823562964,-12.9804771481967,0.0127436160000229,0.000391,-0.038032,-0.007655,0.029479,-1.747655,330.302138,21.064009,0.999472,0.986161,0.004744,0.394203,0.000798,0.000830,-0.000023,0.000842,0.000786,-62.639466,0.001629,
2326,2683,1.46022176710744,0.805301052002818,-0.0251560205879855,0.002107,-0.033554,0.005724,0.064046,-1.470160,319.825024,22.813590,0.999720,0.991262,0.003871,0.444696,0.000042,0.000058,0.000017,0.000069,0.000031,57.959707,0.000103,
2251,3073,-0.236624111932361,9.27822492919754,0.026860863233253,0.003297,-0.033083,0.011825,0.100702,-1.453881,314.031960,23.450101,0.999558,0.991348,0.003654,0.443900,0.000001,0.000008,-0.000012,0.000017,-0.000007,-53.747016,0.000017,
2356,3268,2.00639164155438,13.5174461089461,0.014675230973296,0.003817,-0.033407,0.012902,0.117070,-1.463225,310.648609,24.316288,0.999601,0.992300,0.003425,0.430063,0.000006,0.000009,0.000013,0.000021,-0.000006,48.606787,0.000022,
2161,2383,-2.07915243049096,-5.74528726959351,-0.0154956982424892,0.000578,-0.033304,-0.002805,0.023597,-1.492035,325.057292,22.614865,0.999067,0.986939,0.004543,0.447556,0.000243,0.000203,0.000019,0.000250,0.000196,21.352098,0.000447,
2326,3178,1.37382761847334,11.5619902378222,0.0296302869525107,0.004041,-0.033197,0.007463,0.147329,-1.472625,312.289017,23.939088,0.999643,0.993502,0.003512,0.435680,0.000010,0.000019,0.000003,0.000020,0.000010,74.366428,0.000030,
2311,2623,1.14609937927126,-0.504756003826543,-0.0138808255899789,0.002161,-0.033368,0.000490,0.084712,-1.487398,320.924287,22.640720,0.999481,0.988481,0.004079,0.473585,0.000066,0.000038,0.000021,0.000077,0.000027,27.683989,0.000108,
2206,2818,-1.17266461482328,3.73755304479644,-0.0149409688225433,0.002400,-0.033420,0.006949,0.076291,-1.485120,317.922840,22.971676,0.999080,0.986867,0.004472,0.457346,0.000031,0.000061,0.000000,0.000061,0.000031,89.249485,0.000094,
2101,2188,-3.35579023818505,-10.0125199657574,0.00068694556898663,-0.001811,-0.034485,-0.005214,-0.079231,-1.572423,328.478906,22.733805,0.998744,0.982986,0.005339,0.397127,0.000540,0.000506,0.000096,0.000620,0.000426,39.940720,0.001052,
2236,2968,-0.545108882437244,6.99921331458253,0.0050720722783808,0.003079,-0.032641,0.007166,0.106445,-1.441804,315.600787,23.271894,0.999450,0.991330,0.003782,0.438871,0.000003,0.000012,-0.000001,0.000012,0.000003,-82.306249,0.000016,
2416,3148,3.33471483551267,10.9179716086571,0.0361264965520718,0.003701,-0.033516,0.010005,0.119818,-1.480527,312.838044,24.233377,0.999725,0.994172,0.003156,0.452621,0.000015,0.000014,0.000016,0.000030,-0.000001,43.731678,0.000034,
2341,2788,1.76909685497341,3.09168336720379,-0.00989804263213045,0.003055,-0.033324,0.006084,0.106123,-1.461991,318.281705,23.075047,0.999588,0.992670,0.003610,0.444148,0.000030,0.000062,0.000018,0.000070,0.000022,66.242868,0.000096,
2491,2488,5.09718536188128,-3.44774134672839,-0.00533744834120853,0.002505,-0.033648,-0.003993,0.115606,-1.516097,323.406944,21.955260,0.999358,0.984595,0.004717,0.429655,0.000220,0.000069,-0.000009,0.000220,0.000069,-3.574897,0.000302,
2101,2338,-3.37782283223487,-6.73051832468261,-0.00489448183083141,-0.000082,-0.033131,-0.006599,0.004542,-1.522139,326.101364,22.784456,0.999197,0.987866,0.004570,0.431578,0.000322,0.000226,0.000038,0.000335,0.000213,19.387220,0.000552,
2236,2803,-0.518036025716448,3.41382540930173,-0.0224812506826311,0.002780,-0.032906,0.003994,0.102839,-1.459548,318.054543,22.996977,0.999469,0.988395,0.004265,0.468325,0.000032,0.000062,0.000001,0.000062,0.000032,88.832210,0.000095,
2476,2248,4.82092406974543,-8.70410359821162,0.011809104902909,0.002896,-0.035043,-0.006944,0.143847,-1.618464,327.431352,20.909545,0.999012,0.980646,0.005530,0.471104,0.000533,0.000466,-0.000075,0.000581,0.000418,-32.933463,0.001003,
2341,2083,1.90211471243469,-12.3211070188975,0.012912355113599,0.001085,-0.037544,-0.009144,0.066723,-1.733172,329.854738,21.155483,0.999209,0.980598,0.005438,0.299347,0.000758,0.000782,-0.000028,0.000800,0.000740,-56.610814,0.001540,
2341,3208,1.69455034161909,12.212480173791,0.0401928389433124,0.003951,-0.033401,0.008234,0.140007,-1.481769,311.873134,24.010764,0.999627,0.992937,0.003447,0.494238,0.000008,0.000025,0.000008,0.000028,0.000005,68.295904,0.000036,
2311,3088,1.0644062190493,9.60794597164383,0.0296758998536006,0.003730,-0.033204,0.009092,0.127773,-1.461653,313.753632,23.680696,0.999687,0.995031,0.003085,0.449812,-0.000002,0.000006,-0.000006,0.000010,-0.000006,-63.016850,0.000010,
2221,2653,-0.818759444212699,0.146846829913272,-0.0245021161064756,0.002206,-0.033441,0.005286,0.072335,-1.481471,320.480019,22.735281,0.999229,0.987982,0.004474,0.503592,0.000065,0.000047,0.000015,0.000074,0.000039,29.166986,0.000114,
2296,3298,0.698218967520152,14.1626100555715,0.00137022334030235,0.004168,-0.033024,0.010250,0.144670,-1.460260,310.105692,24.045422,0.999632,0.993304,0.003330,0.432674,0.000026,0.000011,0.000013,0.000033,0.000004,29.602993,0.000041,
2131,2263,-2.71268194960426,-8.37213479111996,0.00667747779738193,-0.000580,-0.034596,-0.002181,-0.031768,-1.568027,327.237900,22.621372,0.998645,0.981849,0.005447,0.400078,0.000412,0.000364,0.000060,0.000452,0.000323,33.853183,0.000779,
2326,2938,1.41591371588231,6.35229684898854,0.00366017051675271,0.003314,-0.033423,0.008415,0.110348,-1.478709,315.959345,23.385060,0.998932,0.987562,0.004448,0.447543,0.000007,0.000005,0.000004,0.000010,0.000002,38.035240,0.000013,
2146,2308,-2.39293834907701,-7.38735219383143,0.00288557728237038,-0.000089,-0.034126,-0.002923,-0.006913,-1.540521,326.446273,22.581216,0.998800,0.983476,0.005191,0.431824,0.000345,0.000273,0.000038,0.000361,0.000257,23.052288,0.000621,
2356,2863,2.08053733132703,4.72483976293595,-0.0198098832995584,0.003112,-0.033453,0.006177,0.108044,-1.471885,316.977758,23.235982,0.999504,0.990277,0.003936,0.478145,0.000012,0.000031,-0.000002,0.000031,0.000011,-84.324426,0.000044,
2191,2758,-1.48768475525965,2.43250083728364,-0.0157724821152669,0.002798,-0.032695,0.002603,0.108952,-1.438026,318.967183,22.935258,0.999497,0.990007,0.003892,0.467587,0.000034,0.000055,-0.000007,0.000057,0.000031,-72.611246,0.000090,
2461,2218,4.49754554977516,-9.35943895864848,-0.00358534021466994,0.002709,-0.035818,-0.004092,0.124195,-1.610301,327.731267,20.882597,0.999379,0.985688,0.005084,0.462683,0.000570,0.000488,-0.000086,0.000624,0.000434,-32.314427,0.001064,
2356,3283,2.00268554932984,13.8429249612949,0.00453407078430246,0.003711,-0.033459,0.012394,0.113899,-1.475752,310.313994,24.343264,0.999557,0.992187,0.003464,0.427842,0.000002,0.000013,0.000014,0.000022,-0.000007,56.161160,0.000023,
2206,2653,-1.14491998426694,0.147001931411921,-0.0236547747829832,0.002156,-0.033043,0.004440,0.073172,-1.466198,320.526767,22.797886,0.999230,0.985275,0.004836,0.464839,0.000071,0.000048,0.000013,0.000077,0.000043,24.022241,0.000121,
2326,3193,1.3718288429264,11.8859173947868,0.039352457373127,0.004100,-0.033480,0.007273,0.150501,-1.502934,312.128625,23.928744,0.999675,0.994437,0.003264,0.448795,0.000011,0.000018,0.000003,0.000019,0.000010,67.364435,0.000029,
2371,2968,2.38797807417885,7.00883826413368,-0.00218009181412526,0.003143,-0.033632,0.007979,0.102722,-1.473258,315.409159,23.661589,0.999469,0.989023,0.004288,0.357312,0.000003,0.000004,0.000002,0.000006,0.000002,52.242116,0.000008,
2116,2248,-3.03789602298097,-8.6994880587115,0.00430063249910972,-0.001133,-0.034594,0.000216,-0.064155,-1.550238,327.490774,22.706769,0.998615,0.982237,0.005376,0.392789,0.000437,0.000394,0.000065,0.000484,0.000347,36.008484,0.000835,
2476,2263,4.81769208800365,-8.37401833074181,0.00810245981574553,0.002825,-0.034462,-0.009569,0.150844,-1.592921,327.163926,21.036224,0.998873,0.978857,0.005485,0.429229,0.000505,0.000425,-0.000080,0.000554,0.000376,-31.819304,0.000936,
2251,3088,-0.239479363493427,9.60407047959068,0.0200477971328041,0.003378,-0.033191,0.008529,0.115220,-1.467729,313.744212,23.471464,0.999596,0.990397,0.003730,0.431136,-0.000002,0.000006,-0.000015,0.000017,-0.000014,-51.823879,0.000018,
2101,2203,-3.35805750601443,-9.68421572132599,0.00169914583852915,-0.001685,-0.034588,-0.003399,-0.078766,-1.568111,328.246653,22.741806,0.998298,0.980474,0.005575,0.396941,0.000509,0.000480,0.000095,0.000591,0.000398,40.687808,0.000995,
2206,2833,-1.17411388414046,4.06376060468375,-0.00308394044253646,0.002747,-0.033107,0.007346,0.091212,-1.453463,317.792432,23.044716,0.999211,0.989120,0.004165,0.432374,0.000032,0.000055,0.000006,0.000057,0.000031,76.955022,0.000089,
2131,2503,-2.75140312882878,-3.12606131006342,-0.0250391150025848,0.001701,-0.033438,0.001310,0.062941,-1.485687,323.195020,22.683613,0.999032,0.985161,0.004848,0.538292,0.000163,0.000065,0.000009,0.000164,0.000064,5.462488,0.000235,
2161,2593,-2.11350039509536,-1.16241258728017,-0.0192322494781365,0.001728,-0.033586,0.004343,0.054472,-1.487069,321.661469,22.788736,0.999073,0.987333,0.004522,0.436181,0.000092,0.000042,0.000010,0.000094,0.000040,10.430553,0.000137,
2221,2908,-0.860596916342448,5.6944375363155,0.00538518342114003,0.002820,-0.033010,0.007112,0.094975,-1.448531,316.606083,23.152330,0.999540,0.991663,0.003922,0.440457,0.000016,0.000022,0.000001,0.000022,0.000016,77.796797,0.000038,
2266,2893,0.119140295835138,5.37136069469528,-0.00504786169608451,0.002884,-0.033386,0.006378,0.099038,-1.475908,316.673409,23.197123,0.999462,0.990175,0.003924,0.430127,0.000016,0.000029,0.000002,0.000029,0.000016,81.966604,0.000046,
2491,2503,5.09358113226232,-3.11989802787353,-0.00462543510485602,0.002433,-0.034124,0.002014,0.089123,-1.521931,323.142628,22.034560,0.999396,0.985600,0.004684,0.404552,0.000203,0.000064,-0.000016,0.000205,0.000062,-6.408710,0.000279,
2326,2068,1.57642249610037,-12.6513890023444,0.00729869192099386,0.000709,-0.037789,-0.008968,0.048701,-1.769443,330.034935,21.052980,0.999267,0.981007,0.005372,0.421547,0.000767,0.000818,-0.000021,0.000825,0.000759,-70.444501,0.001585,
2356,3028,2.05151177158885,8.30997580260912,0.0133649551141843,0.003017,-0.033391,0.008223,0.096594,-1.468467,314.549735,23.736643,0.999521,0.991094,0.003851,0.401481,0.000003,0.000014,-0.000001,0.000014,0.000003,-83.610300,0.000018,
2311,2638,1.14318615169651,-0.177778167676408,-0.0110019251771405,0.002077,-0.033549,0.004279,0.067926,-1.471829,320.687863,22.678461,0.999330,0.987714,0.004165,0.484332,0.000058,0.000035,0.000018,0.000068,0.000025,28.295547,0.000096,
2116,2398,-3.06105953669479,-5.41868619647718,-0.0118336370520069,0.000198,-0.032783,-0.005820,0.015324,-1.487346,325.017869,22.741600,0.998921,0.984493,0.004923,0.475273,0.000246,0.000157,0.000023,0.000252,0.000151,13.888461,0.000407,
2416,3163,3.33201767821148,11.2434439540021,0.0360478083924818,0.003877,-0.033536,0.008980,0.131612,-1.496198,312.603339,24.286494,0.999672,0.993415,0.003295,0.430438,0.000016,0.000019,0.000014,0.000031,0.000003,48.080728,0.000038,
2341,3223,1.69137727387873,12.5389955180393,0.0372918821896633,0.003897,-0.033281,0.009044,0.134688,-1.483747,311.596900,24.144392,0.999528,0.991995,0.003500,0.393859,0.000008,0.000018,0.000006,0.000021,0.000006,65.904479,0.000028,
2191,2563,-1.45527993439407,-1.81720257146537,-0.00604146944385775,0.001416,-0.033228,0.003441,0.042484,-1.473445,322.146127,22.678747,0.999364,0.988897,0.004185,0.494075,0.000097,0.000052,0.000017,0.000103,0.000047,18.460036,0.000153,
2146,2548,-2.43219434975519,-2.14477577983257,-0.0124319096031513,0.001379,-0.033397,0.004616,0.037983,-1.467416,322.486818,22.732371,0.998943,0.985039,0.004736,0.503470,0.000130,0.000050,0.000018,0.000134,0.000046,12.303476,0.000186,
2176,2518,-1.77469462687181,-2.79778445830424,-0.0179039913014662,0.001302,-0.033207,-0.000716,0.050391,-1.497395,322.830789,22.692299,0.998961,0.986082,0.004809,0.438855,0.000132,0.000067,0.000017,0.000136,0.000063,13.932585,0.000203,
2281,3193,0.394641551700762,11.8827385341046,0.0422731533571437,0.003863,-0.033334,0.011117,0.128001,-1.468451,312.174250,23.767599,0.999586,0.992755,0.003420,0.431358,0.000013,0.000016,0.000000,0.000016,0.000013,-88.143850,0.000028,
2341,2098,1.89876532621063,-11.9912015551178,0.00819886956310256,0.001021,-0.036914,-0.007502,0.058344,-1.691993,329.565049,21.176114,0.999318,0.982800,0.005183,0.359989,0.000723,0.000743,-0.000031,0.000766,0.000700,-54.198056,0.001466,
2311,3103,1.06138274754931,9.93409678878207,0.0290915499415973,0.003471,-0.032964,0.008283,0.118811,-1.438945,313.493945,23.738186,0.999392,0.992581,0.003638,0.446167,0.000002,0.000012,-0.000007,0.000015,-0.000001,-63.563860,0.000017,
2341,2803,1.76565379657439,3.41871030247015,-0.0146984081402479,0.002782,-0.033417,0.005864,0.094335,-1.469351,317.985276,23.129101,0.999507,0.991973,0.003724,0.419602,0.000027,0.000054,0.000014,0.000059,0.000021,67.268099,0.000083,
2281,2968,0.432540949456417,7.00262355918879,-0.00165035332423713,0.003361,-0.032870,0.002302,0.134563,-1.454128,315.490930,23.395202,0.999289,0.989557,0.004021,0.416608,0.000009,0.000009,-0.000001,0.000009,0.000008,-47.759640,0.000018,
2236,2818,-0.520030511331385,3.73923677023576,-0.0132425978015931,0.002815,-0.032976,0.004641,0.102311,-1.466633,317.887517,23.013135,0.999493,0.989498,0.004127,0.465644,0.000033,0.000066,0.000003,0.000066,0.000033,85.344168,0.000101,
2101,2353,-3.38096239402299,-6.40111735987486,-0.013278196520389,-0.000004,-0.033110,-0.001636,-0.006351,-1.482429,325.778208,22.817012,0.998853,0.983475,0.005144,0.442054,0.000299,0.000208,0.000034,0.000311,0.000197,18.518328,0.000512,
2356,3298,2.00023718250657,14.169014482571,-0.00214960332061764,0.004394,-0.033203,0.009242,0.156656,-1.466358,310.053765,24.428270,0.999688,0.992457,0.003506,0.389805,-0.000008,0.000013,0.000009,0.000017,-0.000012,69.841331,0.000017,
2386,2953,2.71684173165778,6.68271153620383,-0.00531973537948716,0.003060,-0.033723,0.006442,0.103871,-1.505375,315.637594,23.568864,0.999162,0.987806,0.004398,0.412826,0.000009,-0.000008,0.000001,0.000009,-0.000008,3.520972,0.000010,
2236,2983,-0.547223956458087,7.32446617941933,0.0134155871342045,0.003072,-0.032945,0.007832,0.103849,-1.456938,315.423530,23.313223,0.999491,0.991634,0.003747,0.402710,0.000004,0.000011,-0.000002,0.000012,0.000003,-75.210728,0.000016,
2431,3223,3.64582487403271,12.5467676502581,0.0396416039126848,0.003557,-0.033789,0.012528,0.103341,-1.485867,311.640617,24.566786,0.999502,0.990306,0.003916,0.421449,0.000025,0.000010,0.000001,0.000025,0.000010,2.087405,0.000036,
2191,2773,-1.49179464228648,2.75989999253405,-0.0273140447230844,0.002422,-0.033161,0.008142,0.074199,-1.425369,318.592015,22.939286,0.999328,0.988553,0.004265,0.490893,0.000032,0.000051,-0.000007,0.000053,0.000030,-71.028541,0.000084,
2296,3058,0.743528039358825,8.95608195600263,0.0163258316004544,0.003817,-0.033149,0.005099,0.145787,-1.463509,314.164758,23.532261,0.999536,0.991972,0.003642,0.483084,-0.000005,0.000012,-0.000001,0.000012,-0.000006,-85.182404,0.000012,
2116,2263,-3.04053605900433,-8.37088872981055,-0.00150573503390206,-0.001033,-0.034475,0.000010,-0.058949,-1.552057,327.206183,22.699037,0.998630,0.983227,0.005328,0.404609,0.000418,0.000367,0.000068,0.000465,0.000320,34.553925,0.000790,
2461,2233,4.49419178539646,-9.030299155455,0.0045529304095453,0.001928,-0.035611,-0.001641,0.079330,-1.597683,327.511128,21.048367,0.999028,0.980402,0.005558,0.366256,0.000542,0.000484,-0.000075,0.000593,0.000433,-34.342003,0.001030,
2326,2698,1.45777946982052,1.13090530663688,-0.0212824068798341,0.002070,-0.033460,0.004582,0.066296,-1.467275,319.616322,22.764624,0.999562,0.990462,0.003982,0.531197,0.000042,0.000064,0.000018,0.000074,0.000033,61.060781,0.000109,
2311,2863,1.10294429260086,4.72103739728043,-0.000362992162308728,0.002889,-0.033711,0.009075,0.088800,-1.486857,317.136964,23.210739,0.999664,0.991450,0.003774,0.421637,0.000021,0.000037,0.000003,0.000038,0.000020,79.232642,0.000059,
2326,2083,1.57312170832021,-12.3191049371653,0.00124048831031587,0.000488,-0.037425,-0.011291,0.046643,-1.743723,329.739348,21.285539,0.999470,0.982767,0.005322,0.252846,0.000734,0.000798,-0.000023,0.000805,0.000727,-72.197012,0.001533,
2251,3103,-0.24104842060888,9.92931563686429,0.0279282711565543,0.003831,-0.032908,0.007156,0.140702,-1.452493,313.590320,23.505742,0.999586,0.991756,0.003632,0.434313,-0.000003,0.000010,-0.000017,0.000021,-0.000014,-56.234215,0.000022,
2476,2278,4.81318990603311,-8.04326036415878,-0.00144730765180157,0.002298,-0.034387,-0.008344,0.122116,-1.578619,326.811665,21.182406,0.999265,0.979586,0.005398,0.356565,0.000470,0.000383,-0.000065,0.000505,0.000348,-28.200566,0.000858,
2371,2188,2.53755830597686,-10.0164251413931,0.00664658926132233,0.001714,-0.035263,-0.007488,0.090920,-1.609802,328.140222,21.319845,0.999030,0.980868,0.005386,0.380003,0.000558,0.000544,-0.000035,0.000587,0.000515,-39.441044,0.001102,
2146,2323,-2.39558077154537,-7.05866273226508,0.000339748131409578,-0.000078,-0.033854,-0.002275,-0.008275,-1.538123,326.181631,22.632690,0.999299,0.983876,0.005029,0.392686,0.000327,0.000249,0.000026,0.000335,0.000240,16.944016,0.000579,
2176,2533,-1.77706653209392,-2.47052394030142,-0.0146251649244391,0.001423,-0.033153,0.002241,0.046818,-1.463586,322.611579,22.707661,0.998873,0.986705,0.004589,0.470659,0.000122,0.000063,0.000017,0.000126,0.000058,15.397626,0.000189,
2161,2398,-2.08062882662867,-5.41939251395554,-0.0056040891390694,0.000849,-0.033358,-0.003647,0.038615,-1.510081,324.913295,22.577717,0.998988,0.985786,0.004717,0.477862,0.000229,0.000176,0.000015,0.000233,0.000172,14.661480,0.000407,
2101,2368,-3.38211492816129,-6.07495099234421,-0.00299580921250708,0.000508,-0.033115,-0.002145,0.018664,-1.471157,325.647392,22.769338,0.998616,0.982373,0.005418,0.503583,0.000284,0.000207,0.000033,0.000296,0.000195,20.573711,0.000494,
2431,3238,3.64243076269987,12.872553736329,0.0288114232884595,0.003923,-0.033616,0.011434,0.124288,-1.484811,311.324238,24.590460,0.999472,0.991689,0.003746,0.447645,0.000023,0.000006,-0.000003,0.000024,0.000006,-9.279360,0.000031,
2251,2818,-0.19397745421691,3.73980219958512,-0.0120765318825988,0.002723,-0.033163,0.004219,0.099103,-1.466006,317.863037,23.019149,0.999542,0.989616,0.004260,0.475932,0.000035,0.000066,-0.000003,0.000066,0.000035,-85.040726,0.000103,
2311,1993,1.26231256210527,-14.2997423420656,0.0245902360226182,-0.000450,-0.040276,-0.005072,-0.018712,-1.844553,331.325250,21.042056,0.999190,0.978359,0.006142,0.273672,0.000890,0.000921,-0.000041,0.000950,0.000861,-55.374689,0.001812,
2356,2878,2.07822081158761,5.05024907910926,-0.0105665592577679,0.002964,-0.033809,0.006636,0.099471,-1.494622,316.802306,23.284068,0.999503,0.991121,0.003839,0.445767,0.000008,0.000022,-0.000002,0.000022,0.000008,-83.547089,0.000030,
2326,3208,1.36919040885765,12.2114212740353,0.043304366474672,0.004030,-0.033105,0.008043,0.144839,-1.472642,311.909887,23.972381,0.999622,0.992922,0.003401,0.468622,0.000012,0.000019,0.000007,0.000023,0.000008,59.206085,0.000033,
2221,2668,-0.820854334515548,0.473734387530037,-0.0199246219108318,0.002457,-0.033497,0.006153,0.081114,-1.472229,320.283391,22.793263,0.999452,0.992285,0.003830,0.473890,0.000065,0.000052,0.000009,0.000070,0.000047,27.493651,0.000117,
2341,2818,1.76247759457785,3.74514174792063,-0.0167142579120423,0.002560,-0.033221,0.005633,0.084989,-1.466867,317.714703,23.144876,0.999293,0.988072,0.004124,0.442931,0.000021,0.000049,0.000007,0.000051,0.000019,76.472374,0.000073,
2401,3163,3.00577664613416,11.2423148515363,0.036385143712323,0.003714,-0.033910,0.010645,0.118440,-1.498272,312.576980,24.239599,0.999620,0.992906,0.003393,0.408711,0.000016,0.000020,0.000013,0.000031,0.000005,48.691616,0.000039,
2266,2908,0.11704721961932,5.69799758771599,-0.00561994878421501,0.003227,-0.032650,0.002206,0.128925,-1.453583,316.453552,23.247273,0.999587,0.991942,0.003664,0.427450,0.000015,0.000026,0.000003,0.000027,0.000014,76.912807,0.000041,
2341,3238,1.68807628807645,12.8647110022164,0.0348891594397287,0.003835,-0.033158,0.011968,0.121792,-1.457966,311.317420,24.183569,0.999501,0.990844,0.003606,0.415636,0.000008,0.000010,0.000006,0.000015,0.000003,48.550759,0.000020,
2221,2923,-0.863166360408091,6.02075131657712,0.00268204725398391,0.003079,-0.032932,0.007333,0.106221,-1.444145,316.350109,23.178328,0.999516,0.991645,0.003774,0.437342,0.000017,0.000019,0.000003,0.000021,0.000015,56.786298,0.000036,
2461,2248,4.49217795718301,-8.70193029369182,0.00416610526974637,0.002394,-0.034774,-0.008682,0.127442,-1.596313,327.313671,21.071081,0.998821,0.977121,0.005718,0.401639,0.000518,0.000455,-0.000070,0.000563,0.000410,-32.768799,0.000977,
2236,2833,-0.522903173976029,4.06597423812818,-0.0107391969689843,0.002663,-0.033391,0.008204,0.083681,-1.456745,317.645401,23.086556,0.999452,0.989896,0.003963,0.423062,0.000033,0.000059,0.000008,0.000062,0.000031,74.277277,0.000094,
2371,1993,2.57560149549962,-14.301899910209,0.0284782922349223,0.001078,-0.039902,-0.004496,0.049330,-1.818803,331.426402,20.597585,0.998558,0.956705,0.008018,0.316663,0.001003,0.000903,-0.000001,0.001003,0.000903,-0.389026,0.001907,
2386,2968,2.71362222132835,7.0093800599614,-0.00634260896100614,0.002972,-0.033874,0.008351,0.093012,-1.484402,315.372624,23.639168,0.999483,0.990201,0.004055,0.406144,0.000006,0.000002,0.000003,0.000008,0.000000,25.269220,0.000009,
2341,2968,1.73608653619082,7.00657519761596,-0.000498133575149495,0.003207,-0.033379,0.006369,0.112268,-1.456930,315.430521,23.556917,0.999898,0.997614,0.002590,0.402933,0.000003,0.000000,0.000001,0.000003,-0.000001,16.648889,0.000004,
2266,3133,0.0799627646757521,10.5798252080497,0.0384877871861704,0.003832,-0.032700,0.006790,0.141635,-1.457371,313.162034,23.538648,0.999645,0.994673,0.003218,0.503164,0.000001,0.000012,-0.000012,0.000019,-0.000007,-57.391779,0.000019,
2356,3043,2.0487371820169,8.63520991370222,0.0121532124177861,0.003356,-0.033588,0.010448,0.104345,-1.453177,314.302230,23.698472,0.999541,0.991098,0.003809,0.493164,0.000002,0.000017,0.000003,0.000018,0.000001,80.157854,0.000021,
2311,2653,1.14034944464182,0.149171530095828,-0.0121621771738774,0.002125,-0.033735,0.004741,0.068434,-1.485878,320.435130,22.713501,0.999469,0.988946,0.004039,0.467754,0.000050,0.000036,0.000020,0.000064,0.000022,35.248890,0.000089,
2356,2143,2.2183995594115,-11.0036966597067,0.00590865141310815,0.001474,-0.036091,-0.009824,0.087683,-1.654956,328.851430,21.221488,0.998674,0.978238,0.005770,0.386262,0.000642,0.000646,-0.000028,0.000672,0.000616,-46.883204,0.001288,
2326,2953,1.41281787498448,6.67942593340435,0.000955639619121484,0.003066,-0.032945,0.006318,0.106366,-1.459419,315.687219,23.481919,0.998993,0.987462,0.004624,0.403881,0.000005,-0.000001,0.000003,0.000006,-0.000003,23.536897,0.000006,
2371,2983,2.38565911388057,7.33361964309024,0.00259668380152789,0.003135,-0.033442,0.005591,0.110883,-1.483974,315.212811,23.633235,0.999477,0.989218,0.004159,0.415270,0.000003,0.000005,0.000004,0.000008,0.000000,53.291967,0.000009,
2236,2998,-0.549869055219151,7.6494769594677,0.0139648423975132,0.003195,-0.033221,0.010036,0.102284,-1.460106,315.182174,23.270500,0.999450,0.990661,0.003860,0.462807,0.000001,0.000015,-0.000005,0.000017,-0.000001,-71.629837,0.000019,
2161,2608,-2.11531151319848,-0.835506364567095,-0.0129408177008372,0.001989,-0.033167,0.004356,0.066614,-1.453679,321.482784,22.820276,0.999308,0.989710,0.004248,0.448620,0.000089,0.000033,0.000008,0.000090,0.000032,7.711544,0.000126,
2296,3073,0.741355346167161,9.28144895092791,0.0301294201497626,0.003559,-0.033468,0.007510,0.125560,-1.485124,314.014986,23.646859,0.999624,0.993602,0.003472,0.375593,-0.000005,0.000014,-0.000003,0.000014,-0.000005,-81.358915,0.000015,
2131,2278,-2.71473791179382,-8.04314123897883,-0.00192955097020331,0.000168,-0.034347,-0.004759,0.010347,-1.565627,326.966467,22.622652,0.998617,0.982280,0.005458,0.409155,0.000391,0.000318,0.000051,0.000417,0.000292,27.128454,0.000713,
2176,2713,-1.80711418003419,1.4530312321171,-0.0204349855143846,0.002126,-0.032814,0.003543,0.075234,-1.451944,319.673482,22.923556,0.999268,0.989334,0.004087,0.421125,0.000050,0.000054,-0.000012,0.000064,0.000040,-50.112280,0.000105,
2191,2788,-1.49385318620745,3.08578899188592,-0.0247985481538535,0.002626,-0.032917,0.006322,0.089283,-1.442949,318.384539,22.949638,0.999028,0.985716,0.004728,0.477520,0.000029,0.000052,-0.000007,0.000054,0.000027,-74.648551,0.000082,
2281,2983,0.429415619712394,7.32773656736674,-0.00125418911926545,0.003087,-0.032894,0.004449,0.114703,-1.453949,315.229923,23.355283,0.999306,0.989776,0.004000,0.483828,0.000010,0.000008,-0.000003,0.000012,0.000006,-34.115707,0.000018,
2326,2713,1.45504998871102,1.46006460549074,-0.0282153679948465,0.002304,-0.032902,-0.000186,0.093706,-1.473864,319.340744,22.967906,0.999152,0.986339,0.004540,0.356009,0.000040,0.000072,0.000021,0.000083,0.000029,63.629623,0.000116,
2281,3208,0.392872500391714,12.2080474251307,0.0501858313937191,0.004079,-0.033106,0.008722,0.146095,-1.463341,312.012720,23.840330,0.999787,0.994887,0.002973,0.390251,0.000012,0.000014,0.000005,0.000018,0.000008,49.865829,0.000027,
2311,2878,1.09963771460165,5.04861444595517,-0.0116640273025723,0.002915,-0.033252,0.005265,0.103236,-1.476867,316.811730,23.272726,0.999536,0.990083,0.003960,0.401770,0.000014,0.000028,0.000005,0.000030,0.000012,71.489181,0.000043,
2356,2893,2.07592748169067,5.37685301106342,-0.00452883203683996,0.002850,-0.033128,0.004016,0.103757,-1.473331,316.612016,23.377752,0.999495,0.990880,0.003823,0.411565,0.000009,0.000011,-0.000001,0.000012,0.000008,-71.394422,0.000020,
2221,2938,-0.866120794474998,6.34686525379013,-0.000638006659130497,0.003094,-0.032891,0.008945,0.101727,-1.445715,316.073326,23.192201,0.999534,0.992755,0.003534,0.440330,0.000012,0.000015,0.000002,0.000016,0.000012,63.666291,0.000028,
2491,2518,5.08980306067675,-2.7922199644134,-0.0143849369181339,0.002335,-0.034042,-0.000618,0.094745,-1.528711,322.823187,22.009855,0.999339,0.985929,0.004588,0.482635,0.000186,0.000089,-0.000023,0.000191,0.000083,-12.791791,0.000282,
2326,3223,1.36583319979355,12.5367636470623,0.0415083167330295,0.003717,-0.033310,0.009349,0.125731,-1.497160,311.629879,24.026221,0.999491,0.992007,0.003439,0.423019,0.000013,0.000014,0.000005,0.000018,0.000009,47.365632,0.000027,
2401,3178,3.00280173999522,11.5678896160702,0.0348203584343878,0.003777,-0.033452,0.010512,0.121933,-1.490733,312.321284,24.273866,0.999551,0.992560,0.003500,0.426266,0.000018,0.000024,0.000012,0.000033,0.000009,52.371103,0.000044,
2251,3118,-0.243585915838917,10.2547440731259,0.0325135699113162,0.003826,-0.032906,0.009603,0.132495,-1.440319,313.375100,23.542445,0.999577,0.991115,0.003759,0.432150,-0.000002,0.000008,-0.000014,0.000018,-0.000012,-54.828497,0.000018,
2206,2668,-1.1475462983221,0.473968127177088,-0.0224254973654752,0.001754,-0.032941,0.000536,0.067088,-1.470691,320.287490,22.848695,0.999521,0.991038,0.003907,0.426564,0.000069,0.000050,0.000007,0.000071,0.000048,18.060495,0.000120,
2386,2983,2.71160157515326,7.33471195109345,0.00138384644361622,0.003314,-0.033651,0.009293,0.105383,-1.483191,315.204792,23.670257,0.999482,0.989294,0.004213,0.418934,0.000006,0.000003,0.000006,0.000011,-0.000002,37.309899,0.000012,
2476,2293,4.80969606635918,-7.71717605151695,0.0055548066989104,0.001842,-0.035133,-0.001470,0.074876,-1.580599,326.581035,21.090395,0.999366,0.980685,0.005298,0.505333,0.000446,0.000344,-0.000056,0.000471,0.000319,-23.823169,0.000795,
2311,3118,1.05860222679573,10.2594095429434,0.0312497973562245,0.003390,-0.033161,0.009343,0.111356,-1.448644,313.259226,23.771872,0.999225,0.991409,0.003892,0.433928,0.000006,0.000012,-0.000002,0.000012,0.000005,-71.910193,0.000018,
2341,2983,1.73375861260385,7.33114026926807,0.00773018652847668,0.003226,-0.033688,0.008389,0.105929,-1.479765,315.248765,23.543901,0.999776,0.994864,0.003080,0.428933,0.000001,0.000001,0.000001,0.000002,0.000000,50.718644,0.000003,
2341,2833,1.76014647703399,4.07181780777335,-0.0150661456710282,0.002873,-0.033368,0.004946,0.101743,-1.473582,317.500660,23.224548,0.999622,0.990492,0.003852,0.392860,0.000018,0.000047,0.000007,0.000049,0.000017,78.057022,0.000068,
2116,2413,-3.06297812631379,-5.09062088039948,-0.00800659995525166,0.000686,-0.033267,-0.001892,0.025952,-1.497020,324.817977,22.840230,0.999138,0.986742,0.004744,0.371890,0.000234,0.000135,0.000020,0.000238,0.000131,10.875075,0.000374,
2116,2278,-3.04130088080634,-8.04185565633522,-0.00383704239993676,0.000157,-0.033359,-0.008897,0.022350,-1.529461,327.025715,22.747382,0.998606,0.983213,0.005296,0.384505,0.000397,0.000318,0.000059,0.000429,0.000287,27.949977,0.000720,
2311,2668,1.1374798120538,0.477347282200697,-0.0173794429327359,0.002224,-0.033507,0.002217,0.081718,-1.487894,320.160555,22.820079,0.999785,0.991997,0.003634,0.392003,0.000048,0.000043,0.000015,0.000061,0.000030,40.613133,0.000092,
2431,3253,3.63884984533172,13.1988688936105,0.0179480946578678,0.004128,-0.033619,0.010595,0.136900,-1.476064,310.998813,24.660433,0.999547,0.991900,0.003582,0.434982,0.000019,0.000025,-0.000005,0.000028,0.000017,-59.976535,0.000045,
2326,2098,1.57075602913234,-11.9925813297075,0.00796715250635316,0.000597,-0.036920,-0.008168,0.041105,-1.710754,329.549276,21.131803,0.999302,0.981805,0.005397,0.476710,0.000700,0.000757,-0.000026,0.000767,0.000690,-68.545902,0.001457,
2416,3178,3.32893690226112,11.5690323129458,0.0358657519016674,0.003756,-0.033382,0.008931,0.126301,-1.486034,312.350359,24.327839,0.999601,0.992167,0.003497,0.445718,0.000018,0.000024,0.000012,0.000033,0.000009,51.554089,0.000044,
2131,2518,-2.75340758095999,-2.79889830346148,-0.0152484551870771,0.001475,-0.033101,0.001103,0.053239,-1.481435,323.024214,22.773209,0.999063,0.985553,0.004766,0.459265,0.000147,0.000054,0.000015,0.000149,0.000051,8.860212,0.000208,
2491,2533,5.08677518055307,-2.4641546490852,-0.0133723569950348,0.002439,-0.033861,0.000941,0.093614,-1.522615,322.586451,22.110408,0.999614,0.988763,0.004077,0.448340,0.000179,0.000084,-0.000016,0.000182,0.000081,-9.477022,0.000269,
2161,2623,-2.11866792062555,-0.507513765507881,-0.0212253318464946,0.001796,-0.033265,0.005990,0.052711,-1.452138,321.156369,22.862908,0.999462,0.990242,0.004107,0.418540,0.000086,0.000033,0.000004,0.000086,0.000033,4.706104,0.000123,
2356,2908,2.07253915099988,5.70333143903974,-0.00860591926743837,0.002899,-0.033325,0.007587,0.093377,-1.466173,316.322586,23.404710,0.999343,0.990088,0.003983,0.430250,0.000006,0.000006,-0.000001,0.000006,0.000005,-42.940456,0.000011,
2371,2008,2.57244346025805,-13.9700180517198,0.0148269063648172,0.001734,-0.039841,-0.006096,0.085031,-1.820622,331.106336,20.703715,0.998220,0.971046,0.006729,0.254011,0.000975,0.000863,-0.000001,0.000975,0.000863,-0.542258,0.001840,
2461,2263,4.4889358550331,-8.37204322974729,-0.00105346731351119,0.002621,-0.034617,-0.008735,0.138123,-1.575911,327.037517,21.169755,0.999021,0.978082,0.005634,0.380135,0.000491,0.000417,-0.000076,0.000539,0.000369,-32.124438,0.000913,
2251,2833,-0.196485277575732,4.06669906779927,-0.014230496215589,0.002990,-0.033131,0.003540,0.113650,-1.465301,317.615098,23.081300,0.999459,0.989784,0.004053,0.437669,0.000034,0.000060,0.000001,0.000061,0.000034,87.585274,0.000096,
2236,2848,-0.525960630079727,4.39253539071592,-0.0203371537406838,0.002797,-0.033312,0.006358,0.095843,-1.466051,317.333137,23.076392,0.999360,0.990369,0.003890,0.445046,0.000029,0.000049,0.000008,0.000051,0.000026,70.889072,0.000079,
2191,2578,-1.45771728325157,-1.49002798765486,-0.0110932296062742,0.001835,-0.033179,0.002960,0.063307,-1.463057,321.881804,22.649846,0.999418,0.990077,0.003973,0.548810,0.000088,0.000055,0.000016,0.000095,0.000048,22.147390,0.000145,
2206,2848,-1.17741447577504,4.39032906318571,-0.0108139160566907,0.002580,-0.033288,0.007416,0.083218,-1.468226,317.475779,23.053618,0.999236,0.989994,0.003956,0.425130,0.000027,0.000045,0.000007,0.000047,0.000025,71.413798,0.000073,
2326,3238,1.36243287704043,12.8636598730229,0.0337272656681193,0.003852,-0.032880,0.011138,0.126016,-1.457370,311.317898,24.129376,0.999466,0.991481,0.003544,0.392882,0.000013,0.000005,0.000005,0.000016,0.000003,26.033836,0.000020,
2191,2803,-1.49641379592756,3.41224659081785,-0.0222933176870583,0.002348,-0.032790,0.004735,0.081510,-1.452323,318.153779,23.008096,0.999018,0.985777,0.004684,0.423760,0.000028,0.000052,-0.000007,0.000054,0.000026,-75.261693,0.000081,
2341,2113,1.89667670482512,-11.6629217278131,0.0144431489199519,0.001161,-0.036786,-0.008737,0.069103,-1.701334,329.386396,21.224146,0.999337,0.982636,0.005191,0.342113,0.000692,0.000720,-0.000029,0.000738,0.000674,-57.980185,0.001413,
2146,2338,-2.39820022466637,-6.73007532273873,-0.0031900462528256,0.000046,-0.033542,-0.001265,-0.005543,-1.492864,325.912664,22.627891,0.999283,0.985695,0.004732,0.452633,0.000305,0.000233,0.000021,0.000311,0.000227,15.316371,0.000540,
2371,2998,2.38353548612664,7.65927870979101,0.00988985758993977,0.003139,-0.033231,0.003298,0.119342,-1.474671,315.037185,23.686222,0.999539,0.990715,0.003878,0.412019,0.000004,0.000010,0.000006,0.000014,0.000000,58.759418,0.000016,
2341,3253,1.684523584545,13.1899177621748,0.0217447333924383,0.004043,-0.033572,0.010974,0.134608,-1.487989,310.974116,24.175561,0.999513,0.991533,0.003536,0.428847,0.000007,0.000013,0.000009,0.000019,0.000001,55.929869,0.000023,
2131,2293,-2.71834183199489,-7.714791388952,-0.00325492021636364,-0.000683,-0.034428,-0.000833,-0.040470,-1.555159,326.663069,22.636976,0.998627,0.984033,0.005209,0.413438,0.000373,0.000294,0.000054,0.000401,0.000267,26.757759,0.000672,
2296,3088,0.73861337934596,9.60655388302031,0.0255466164026075,0.003846,-0.033334,0.006662,0.141747,-1.473366,313.747682,23.589133,0.999574,0.992789,0.003586,0.474248,-0.000005,0.000009,-0.000009,0.000014,-0.000009,-62.959796,0.000014,
2341,2848,1.75655998800667,4.39839697834091,-0.0208198842529441,0.002663,-0.033052,0.006511,0.086727,-1.463675,317.192908,23.227646,0.999667,0.991044,0.003746,0.436095,0.000017,0.000039,0.000001,0.000039,0.000017,88.234214,0.000057,
2176,2728,-1.81010581537264,1.77883234937076,-0.0252102622328039,0.002025,-0.033146,0.004139,0.068628,-1.475104,319.384093,22.854995,0.999377,0.989346,0.004127,0.479233,0.000045,0.000052,-0.000012,0.000061,0.000036,-52.900030,0.000098,
2326,2728,1.45252236686675,1.78578479304718,-0.0254924726866079,0.002550,-0.033287,0.002354,0.096093,-1.482716,319.122409,22.940821,0.999367,0.988498,0.004209,0.408906,0.000038,0.000075,0.000024,0.000087,0.000027,64.010294,0.000119,
2311,3133,1.05582890489377,10.5848149890921,0.0296813232855015,0.003497,-0.033177,0.009099,0.117065,-1.461660,313.006365,23.798101,0.999398,0.992001,0.003722,0.425697,0.000004,0.000013,-0.000001,0.000013,0.000004,-82.584635,0.000018,
2326,2968,1.41032470563147,7.00594296398345,-0.000226386643817023,0.003448,-0.033177,0.006096,0.124616,-1.469893,315.450424,23.567193,0.999675,0.994827,0.003110,0.341943,0.000002,0.000003,0.000000,0.000003,0.000002,72.961068,0.000005,
2176,2548,-1.78003115801094,-2.14321892206726,-0.0193478128750826,0.001274,-0.033421,0.001938,0.040833,-1.471120,322.323508,22.701721,0.999088,0.986889,0.004512,0.482306,0.000113,0.000058,0.000018,0.000118,0.000053,16.792317,0.000175,
2101,2383,-3.38498085747205,-5.74599405823881,-0.010338350341101,0.000528,-0.033155,-0.001378,0.017321,-1.492374,325.342696,22.843120,0.998652,0.982709,0.005220,0.411789,0.000264,0.000181,0.000033,0.000275,0.000170,19.059803,0.000449,
2311,2008,1.26007972010315,-13.9701539902655,0.0240105063951432,0.000047,-0.039747,-0.005749,0.006547,-1.827520,331.104407,21.068527,0.999218,0.979148,0.006031,0.299929,0.000868,0.000888,-0.000031,0.000911,0.000846,-53.953442,0.001757,
2251,3133,-0.246254275123903,10.5793298984783,0.0379173074387609,0.003828,-0.033530,0.014790,0.115403,-1.445990,313.158299,23.527652,0.999381,0.991490,0.003780,0.463407,-0.000001,0.000010,-0.000011,0.000017,-0.000008,-58.964201,0.000017,
2356,3058,2.046586220379,8.96076881520619,0.0173415507045434,0.003694,-0.033774,0.010925,0.118084,-1.475058,314.114212,23.773094,0.999606,0.992441,0.003519,0.434478,0.000003,0.000014,0.000005,0.000016,0.000001,69.342369,0.000019,
2356,2158,2.2159280451324,-10.6747397572445,0.00913113867568427,0.001439,-0.035815,-0.011772,0.093006,-1.667926,328.641627,21.317878,0.999152,0.980762,0.005466,0.318328,0.000607,0.000597,-0.000030,0.000633,0.000572,-40.362748,0.001205,
2281,2998,0.426848546371783,7.65350414474104,0.00479494362429023,0.002943,-0.033244,0.006335,0.101655,-1.468301,315.022630,23.432455,0.999174,0.988887,0.004154,0.419225,0.000007,0.000012,-0.000005,0.000015,0.000003,-59.021479,0.000020,
2401,3193,3.00020367768672,11.8933869911214,0.0368903592645893,0.003844,-0.033510,0.009291,0.129575,-1.473321,312.100098,24.316502,0.999486,0.991630,0.003615,0.445482,0.000019,0.000022,0.000010,0.000031,0.000010,49.942525,0.000043,
2461,2278,4.48616327126185,-8.04417314974942,0.00669783889009068,0.002424,-0.034711,-0.006525,0.120783,-1.576753,326.842255,21.242618,0.999363,0.978983,0.005538,0.362959,0.000457,0.000381,-0.000063,0.000492,0.000345,-29.368566,0.000842,
2236,3013,-0.552151319121869,7.97552319516775,0.0122967350203567,0.003534,-0.032990,0.007908,0.124931,-1.453808,314.945796,23.302715,0.999359,0.988570,0.004108,0.457307,0.000001,0.000008,-0.000010,0.000015,-0.000006,-55.467696,0.000015,
2266,2923,0.114303203742026,6.02312718210292,-0.00112157029946047,0.003128,-0.033009,0.006005,0.111577,-1.475691,316.229799,23.243735,0.999602,0.992154,0.003812,0.433673,0.000015,0.000020,0.000004,0.000022,0.000013,63.882864,0.000035,
2161,2638,-2.12153269976078,-0.180748436229344,-0.0219085373674943,0.001603,-0.033556,0.007911,0.037799,-1.473346,320.892858,22.885750,0.999701,0.992848,0.003676,0.385084,0.000081,0.000037,0.000001,0.000081,0.000037,0.823689,0.000121,
2266,3148,0.0767842391684432,10.9057117443644,0.0362928714627628,0.003811,-0.033178,0.010721,0.127479,-1.463710,312.883846,23.601577,0.999312,0.991085,0.003872,0.458305,0.000003,0.000013,-0.000010,0.000019,-0.000003,-58.239925,0.000021,
2326,3253,1.3589993367376,13.1883476310632,0.022830675955845,0.004125,-0.033582,0.012133,0.134974,-1.477812,310.989817,24.076333,0.999407,0.991471,0.003608,0.458296,0.000012,0.000007,0.000008,0.000017,0.000001,35.594327,0.000021,
2431,3268,3.63509889857215,13.5250138924149,0.01031645370864,0.003946,-0.033533,0.010310,0.129631,-1.470634,310.680580,24.741175,0.999652,0.992799,0.003442,0.408114,0.000017,0.000013,-0.000002,0.000017,0.000012,-17.706709,0.000029,
2326,2113,1.56851835723178,-11.6636007574376,0.0148554721736787,0.000761,-0.037392,-0.006296,0.042022,-1.726950,329.365811,21.257464,0.999241,0.981120,0.005454,0.372150,0.000669,0.000729,-0.000025,0.000738,0.000660,-70.174408,0.001400,
2161,2413,-2.08385577534047,-5.09090909969434,-0.00665063301477176,0.000549,-0.033966,0.001910,0.007614,-1.487359,324.630973,22.636654,0.998865,0.985481,0.004889,0.453386,0.000219,0.000155,0.000008,0.000220,0.000154,6.941978,0.000377,
2146,2563,-2.43430316456243,-1.81766876339067,-0.00881675387688574,0.001482,-0.033247,0.004428,0.043322,-1.458189,322.279393,22.769244,0.998904,0.984666,0.004788,0.484224,0.000122,0.000043,0.000011,0.000123,0.000042,7.761440,0.000172,
2371,2203,2.5346402078436,-9.68798298510239,0.00544468299636947,0.001832,-0.035477,-0.006440,0.092537,-1.608048,327.889880,21.323624,0.998737,0.978974,0.005686,0.421842,0.000532,0.000507,-0.000031,0.000553,0.000486,-33.992719,0.001039,
2371,2023,2.56965855420227,-13.6408632699871,0.0180717914727779,0.001172,-0.038518,-0.010912,0.076895,-1.787699,330.883688,20.725179,0.998216,0.971836,0.006772,0.310139,0.000937,0.000829,-0.000012,0.000938,0.000828,-6.417323,0.001767,
2311,2683,1.13511154533879,0.80325134664448,-0.0153172274413578,0.002478,-0.033400,0.002472,0.092579,-1.472280,319.945256,22.765911,0.999709,0.991248,0.003797,0.494386,0.000046,0.000061,0.000015,0.000070,0.000037,58.037445,0.000109,
2281,3223,0.390008798765304,12.5327540180079,0.0496707267158172,0.003935,-0.032826,0.007968,0.142143,-1.447420,311.758785,23.801269,0.999797,0.994557,0.003089,0.471835,0.000013,0.000008,0.000005,0.000016,0.000006,31.028246,0.000023,
2416,3193,3.32673693042783,11.8945988429267,0.0392493839372037,0.004145,-0.033243,0.007821,0.148464,-1.465151,312.154641,24.381149,0.999549,0.991077,0.003609,0.460083,0.000019,0.000022,0.000010,0.000031,0.000010,49.761094,0.000043,
2116,2428,-3.06533551488765,-4.76356375787569,-0.00748232699652362,0.000694,-0.033086,-0.001747,0.025980,-1.490910,324.580484,22.804305,0.999205,0.987224,0.004629,0.418644,0.000217,0.000120,0.000030,0.000226,0.000111,15.634509,0.000343,
2341,3268,1.68060908210872,13.5160143514466,0.012558339752502,0.003904,-0.033362,0.014130,0.117368,-1.459008,310.633044,24.218274,0.999524,0.991962,0.003452,0.450066,0.000005,0.000008,0.000012,0.000019,-0.000006,48.668429,0.000020,
2221,2683,-0.823518733028305,0.800654374637325,-0.0219865620127848,0.002434,-0.033213,0.004609,0.085084,-1.467322,320.026578,22.807814,0.999498,0.991726,0.003773,0.483755,0.000057,0.000064,0.000005,0.000067,0.000055,63.962682,0.000122,
2206,2683,-1.14950930249075,0.800693007673779,-0.0235785275806393,0.002476,-0.032832,0.000931,0.099105,-1.463640,320.066346,22.850515,0.999671,0.992748,0.003609,0.449113,0.000061,0.000062,0.000002,0.000064,0.000059,49.769230,0.000123,
2191,2818,-1.4989426478489,3.73778187722486,-0.0196964313504395,0.002149,-0.032878,0.003946,0.074735,-1.474704,317.925234,22.999547,0.998718,0.983791,0.004878,0.424422,0.000029,0.000058,-0.000002,0.000058,0.000029,-85.300041,0.000088,
2356,2923,2.06975673049574,6.02955778850941,-0.00766688036253527,0.002793,-0.033193,0.006306,0.093094,-1.461468,316.085233,23.451464,0.999351,0.990125,0.003949,0.426709,0.000004,0.000004,-0.000001,0.000005,0.000003,-61.816653,0.000008,
2221,2953,-0.86843402886123,6.67276097497303,0.00227108403896636,0.003137,-0.032850,0.008019,0.106756,-1.438967,315.858030,23.225849,0.999427,0.991283,0.003791,0.431835,0.000007,0.000015,-0.000002,0.000015,0.000007,-76.820890,0.000022,
2191,2593,-1.46072457454698,-1.16204488646726,-0.0140859071757404,0.001728,-0.033506,0.005052,0.051737,-1.468069,321.601873,22.733785,0.998958,0.986786,0.004527,0.475043,0.000080,0.000051,0.000017,0.000088,0.000043,25.345628,0.000133,
2476,2308,4.80748994856024,-7.38661853563586,0.00564647397055751,0.002282,-0.034496,-0.006567,0.114646,-1.561316,326.377573,21.321181,0.999054,0.976506,0.005945,0.352694,0.000431,0.000316,-0.000051,0.000450,0.000297,-20.755243,0.000752,
2251,2848,-0.199362259248858,4.39294584453209,-0.0173409706355301,0.002944,-0.033185,0.002706,0.114216,-1.478828,317.345538,23.095474,0.999476,0.991014,0.003849,0.433360,0.000031,0.000050,0.000001,0.000050,0.000031,87.675005,0.000082,
2296,3103,0.736196958281106,9.93234571194625,0.0285315356022124,0.003953,-0.033242,0.006483,0.147314,-1.473635,313.532707,23.658900,0.999293,0.990604,0.004036,0.433051,-0.000001,0.000014,-0.000010,0.000020,-0.000006,-63.141636,0.000020,
2311,2893,1.09663129123501,5.37535668782275,-0.015787658661452,0.002938,-0.033446,0.004548,0.106608,-1.498236,316.535880,23.347323,0.999482,0.991078,0.003800,0.337460,0.000011,0.000017,0.000007,0.000022,0.000006,56.882985,0.000029,
2386,2998,2.70938696496946,7.66015107290339,0.00740042323701573,0.003385,-0.033493,0.007531,0.115072,-1.475730,315.019814,23.696453,0.999547,0.989999,0.004000,0.442712,0.000007,0.000008,0.000010,0.000017,-0.000003,46.967110,0.000019,
2131,2533,-2.75593071893904,-2.47149244487321,-0.0145752851673251,0.001407,-0.032968,0.002115,0.047170,-1.459453,322.780958,22.789365,0.998995,0.984955,0.004803,0.471776,0.000135,0.000053,0.000018,0.000138,0.000049,11.896157,0.000195,
2311,3148,1.05306361669504,10.9104044507907,0.0285678100213431,0.003538,-0.033066,0.008297,0.121752,-1.454482,312.756000,23.828042,0.999554,0.991375,0.003808,0.434029,0.000005,0.000012,-0.000001,0.000012,0.000005,-84.203648,0.000018,
2371,3103,2.36469089753504,9.93896591263748,0.0240762311775029,0.003666,-0.033374,0.007782,0.127618,-1.474954,313.446566,23.983169,0.999358,0.989762,0.004035,0.395757,0.000015,0.000016,0.000006,0.000022,0.000010,48.624401,0.000032,
2206,2863,-1.17943866153503,4.71592076984105,-0.00478867743760247,0.002594,-0.032829,0.005477,0.090186,-1.450728,317.289028,23.047789,0.999304,0.991087,0.003719,0.465049,0.000023,0.000040,0.000000,0.000040,0.000023,88.751708,0.000064,
2341,2128,1.89287366735055,-11.3332927946773,0.0100592446934229,0.000590,-0.036539,-0.007506,0.038803,-1.694616,329.077631,21.269005,0.999450,0.986311,0.004763,0.343825,0.000663,0.000699,-0.000025,0.000711,0.000651,-62.776352,0.001362,
2326,2743,1.44993679812701,2.11187234979057,-0.0209828514618948,0.002467,-0.033341,0.003075,0.089829,-1.472292,318.909970,22.946621,0.999581,0.990106,0.003948,0.448085,0.000038,0.000076,0.000023,0.000087,0.000027,64.633042,0.000119,
2281,3013,0.423856039783526,7.9794154286559,0.00371209249198046,0.002883,-0.033237,0.008047,0.093200,-1.450336,314.759988,23.446055,0.999133,0.988550,0.004154,0.450610,0.000005,0.000006,-0.000008,0.000014,-0.000003,-47.138597,0.000015,
2341,2998,1.73102006156284,7.65687127780699,0.00955830353569809,0.003246,-0.033797,0.009342,0.103415,-1.493585,315.016603,23.588828,0.999885,0.997034,0.002826,0.406028,-0.000003,0.000007,0.000001,0.000007,-0.000003,84.488456,0.000007,
2356,2173,2.21256570020419,-10.3474354054401,0.0107721099329865,0.001046,-0.036028,-0.008201,0.062409,-1.666688,328.383504,21.237446,0.999319,0.980317,0.005431,0.441777,0.000572,0.000568,-0.000027,0.000598,0.000543,-42.891724,0.001141,
2416,3208,3.32368112491117,12.2197558771712,0.0414349773935214,0.003952,-0.033344,0.008925,0.135399,-1.481708,311.913941,24.430608,0.999484,0.990316,0.003857,0.440251,0.000020,0.000023,0.000008,0.000030,0.000014,49.992725,0.000045,
2341,3283,1.6774407298619,13.8413238974135,0.00490549919459227,0.004088,-0.033383,0.013272,0.128807,-1.471092,310.334017,24.242595,0.999605,0.992854,0.003293,0.449141,0.000001,0.000013,0.000014,0.000023,-0.000008,55.936033,0.000023,
2311,2023,1.25699411804888,-13.6408202188437,0.0214042620332862,-0.000228,-0.039156,-0.007350,-0.000411,-1.811081,330.834621,21.055272,0.998985,0.980789,0.005667,0.365562,0.000838,0.000866,-0.000024,0.000880,0.000824,-59.567605,0.001704,
2176,2743,-1.81153245731228,2.10484036712065,-0.010084563111775,0.002368,-0.033221,0.008009,0.072389,-1.467597,319.270497,22.938393,0.999531,0.989948,0.004123,0.415241,0.000042,0.000052,-0.000013,0.000061,0.000033,-55.145563,0.000095,
2131,2308,-2.72037173687434,-7.38663094654056,-0.0013646542044512,-0.000388,-0.034384,-0.000279,-0.028593,-1.543546,326.448781,22.669984,0.998835,0.984380,0.005143,0.399701,0.000352,0.000271,0.000046,0.000373,0.000250,24.270134,0.000628,
2146,2353,-2.40039218479835,-6.4028192560304,-0.00139668703860707,0.000205,-0.033698,-0.000813,0.000363,-1.503339,325.691899,22.614499,0.999271,0.985568,0.004688,0.465253,0.000285,0.000217,0.000017,0.000290,0.000213,13.345636,0.000504,
2371,2038,2.56658913812079,-13.311184422275,0.0112929906573527,0.001461,-0.038133,-0.011247,0.091439,-1.776395,330.600342,20.708415,0.998505,0.975338,0.006338,0.382998,0.000894,0.000802,-0.000022,0.000899,0.000797,-12.712655,0.001697,
2431,3283,3.6323072727324,13.8500063055028,0.00644034234727542,0.004334,-0.033464,0.009011,0.152316,-1.477359,310.424401,24.752756,0.999731,0.993446,0.003286,0.438562,0.000014,0.000002,-0.000002,0.000014,0.000002,-8.842390,0.000018,
2146,2578,-2.43729285876567,-1.48941609313377,-0.018911282670615,0.001672,-0.033181,0.005089,0.050101,-1.451255,321.958713,22.797991,0.999088,0.987203,0.004562,0.471427,0.000110,0.000043,0.000005,0.000111,0.000042,4.554139,0.000158,
2221,2968,-0.871024785364074,6.99812034125526,0.005018381151217,0.002960,-0.033060,0.007735,0.099384,-1.458103,315.629343,23.238659,0.999324,0.989223,0.004086,0.418088,0.000008,0.000013,-0.000002,0.000014,0.000007,-72.066844,0.000021,
2341,2863,1.75438145038069,4.72352114608962,-0.0102811215259067,0.002600,-0.033401,0.007832,0.079082,-1.474068,317.029389,23.242977,0.999593,0.990929,0.003842,0.446771,0.000014,0.000036,-0.000001,0.000036,0.000014,-87.253095,0.000052,
2371,2218,2.5317748412016,-9.35933402605378,0.00830631743059485,0.001562,-0.035407,-0.007028,0.082305,-1.618362,327.661290,21.406097,0.998343,0.975360,0.006250,0.372473,0.000505,0.000484,-0.000028,0.000525,0.000464,-35.058120,0.000989,
2251,3148,-0.248678167984298,10.904717698469,0.033181222012729,0.003826,-0.033165,0.006349,0.143006,-1.478484,312.900967,23.554922,0.998676,0.988054,0.004396,0.425834,0.000000,0.000010,-0.000010,0.000017,-0.000006,-58.524970,0.000017,
2476,2323,4.80400305843088,-7.05821175777,-0.00027557738150108,0.002535,-0.034348,-0.004292,0.117681,-1.535086,326.088257,21.293845,0.999016,0.978283,0.005648,0.465066,0.000405,0.000299,-0.000043,0.000420,0.000283,-19.517153,0.000708,
2356,3073,2.04419168039717,9.28626484854178,0.0212631703402621,0.003758,-0.033609,0.009754,0.125183,-1.480696,313.908826,23.820892,0.999577,0.992484,0.003502,0.418876,0.000005,0.000017,0.000005,0.000019,0.000003,69.946774,0.000024,
2176,2563,-1.78227876529835,-1.81555608193868,-0.021961919285161,0.001583,-0.033208,-0.000107,0.061430,-1.484378,322.079215,22.758143,0.999073,0.985471,0.004639,0.426026,0.000104,0.000052,0.000010,0.000106,0.000050,10.754044,0.000159,
2371,3013,2.38068979911358,7.98512251382668,0.0110504753935174,0.003145,-0.033056,0.004188,0.116596,-1.455722,314.798829,23.708607,0.999506,0.990252,0.003954,0.448866,0.000003,0.000007,0.000004,0.000010,0.000000,57.499961,0.000011,
2221,2698,-0.82632517413035,1.12699618080379,-0.0201298837147874,0.002179,-0.033383,0.005688,0.069828,-1.472115,319.783496,22.815939,0.999584,0.993471,0.003395,0.490024,0.000050,0.000067,0.000004,0.000068,0.000049,76.700003,0.000118,
2161,2653,-2.12406340702385,0.146510950094651,-0.0300974959689029,0.001911,-0.032993,0.004838,0.061583,-1.453948,320.604873,22.855134,0.999614,0.991246,0.003858,0.445739,0.000078,0.000042,0.000000,0.000078,0.000042,-0.794738,0.000122,
2101,2398,-3.38739485664999,-5.41962218554026,-0.00253668861085998,0.000160,-0.033385,0.001525,-0.008137,-1.484430,325.140808,22.802386,0.998921,0.984201,0.004829,0.463064,0.000249,0.000151,0.000028,0.000257,0.000143,14.788199,0.000405,
2161,2428,-2.08575159130622,-4.76307590984961,-0.00842725601023631,0.001179,-0.033948,0.000841,0.039834,-1.505839,324.406026,22.675173,0.999136,0.986285,0.004684,0.407924,0.000206,0.000139,0.000016,0.000209,0.000135,12.821684,0.000347,
2461,2293,4.48230901990872,-7.71671963002553,0.00729564715288689,0.001840,-0.034806,-0.002953,0.080604,-1.566388,326.564688,21.198380,0.999182,0.978798,0.005584,0.474435,0.000434,0.000347,-0.000054,0.000460,0.000321,-25.544664,0.000785,
2281,3238,0.386422569036913,12.8587679851965,0.0375932771376029,0.003985,-0.033124,0.008114,0.143894,-1.455835,311.413139,23.845537,0.999806,0.993444,0.003270,0.445266,0.000014,-0.000001,0.000007,0.000017,-0.000003,20.853310,0.000018,
2326,3268,1.35568060748391,13.5149664757923,0.0134568713795034,0.004158,-0.033058,0.009887,0.144467,-1.456563,310.673727,24.173529,0.999521,0.992415,0.003388,0.415381,0.000011,0.000001,0.000011,0.000018,-0.000006,32.324915,0.000019,
2401,3208,2.99780280388086,12.2182054235536,0.0409056389619877,0.004047,-0.033559,0.009259,0.138885,-1.497462,311.897373,24.352790,0.999403,0.991057,0.003845,0.429126,0.000020,0.000023,0.000010,0.000031,0.000012,49.842021,0.000044,
2371,3118,2.36153430048047,10.2641387665394,0.0266175525951553,0.003583,-0.033751,0.012870,0.105597,-1.473131,313.200356,23.996112,0.999591,0.991197,0.003778,0.424700,0.000014,0.000015,0.000012,0.000026,0.000003,45.639398,0.000032,
2206,2698,-1.1531604930655,1.12739779085885,-0.0319198026955405,0.002226,-0.033052,0.004460,0.076372,-1.459017,319.730646,22.799122,0.999419,0.991697,0.003731,0.522240,0.000053,0.000063,0.000003,0.000064,0.000052,76.709954,0.000116,
2491,2548,5.08327196861213,-2.13655007520526,-0.0133122717714969,0.002128,-0.034111,0.002270,0.074149,-1.534136,322.323629,22.182601,0.999648,0.988269,0.004221,0.424214,0.000165,0.000046,-0.000013,0.000167,0.000045,-5.985869,0.000223,
2431,3298,3.62856001165158,14.1750664937803,-0.000308217701103786,0.004138,-0.033320,0.009441,0.141730,-1.480369,310.110654,24.755799,0.999716,0.993460,0.003253,0.480704,0.000007,-0.000003,-0.000011,0.000014,-0.000010,-32.745125,0.000015,
2341,3298,1.67470324011162,14.1666905023521,0.000624516730056257,0.004305,-0.033270,0.010544,0.148383,-1.470617,310.071193,24.282494,0.999678,0.992681,0.003341,0.444755,-0.000009,0.000016,0.000013,0.000022,-0.000014,67.539097,0.000022,
2356,2938,2.06725754914864,6.35566402034895,-0.00773439664857278,0.003190,-0.033307,0.006860,0.109353,-1.467477,315.856045,23.494803,0.999189,0.988904,0.004143,0.415677,0.000006,0.000000,-0.000001,0.000006,0.000000,-7.059490,0.000008,
2311,2038,1.25431975551948,-13.3085617338493,0.0134254624004484,-0.000263,-0.036982,-0.016807,0.030962,-1.753119,330.556769,21.212528,0.999482,0.986998,0.004597,0.302298,0.000807,0.000843,-0.000027,0.000857,0.000792,-61.750134,0.001650,
2311,3163,1.05084438641446,11.2348159902821,0.0392354497466272,0.003573,-0.033415,0.011904,0.110925,-1.458447,312.589313,23.835330,0.999612,0.992410,0.003630,0.453750,0.000008,0.000016,0.000000,0.000016,0.000008,-89.803048,0.000025,
2326,2758,1.44640258122523,2.43844769716334,-0.0206293249592591,0.002074,-0.033515,0.008061,0.054507,-1.461765,318.633475,22.968285,0.999620,0.991340,0.003809,0.471401,0.000034,0.000075,0.000024,0.000086,0.000023,64.936377,0.000115,
2236,3028,-0.554650213319999,8.30107320345849,0.0169438121572512,0.003311,-0.032959,0.007196,0.116984,-1.453864,314.731857,23.341917,0.999461,0.990577,0.003771,0.438319,0.000000,0.000006,-0.000010,0.000013,-0.000007,-54.633135,0.000013,
2266,3163,0.0741330679642935,11.2317734660606,0.0379148195649464,0.003594,-0.032851,0.008478,0.125113,-1.444563,312.649047,23.682312,0.999377,0.989437,0.004034,0.420949,0.000007,0.000018,-0.000006,0.000021,0.000004,-66.825836,0.000027,
2191,2608,-1.46335321896881,-0.835219138087467,-0.0138927822076766,0.001697,-0.033682,0.005974,0.047316,-1.478573,321.356123,22.749585,0.998413,0.983977,0.005038,0.463987,0.000077,0.000042,0.000017,0.000084,0.000035,22.142639,0.000122,
2191,2833,-1.50062082332974,4.06371697266096,-0.0163563951783772,0.002880,-0.032975,0.005004,0.105026,-1.468344,317.739405,23.008553,0.999178,0.988963,0.004155,0.436162,0.000029,0.000054,0.000003,0.000054,0.000029,82.593600,0.000085,
2386,3013,2.70713731296435,7.98511917921477,0.016527830477628,0.003375,-0.033895,0.008292,0.111760,-1.490931,314.848139,23.726069,0.999604,0.990444,0.003856,0.440202,0.000006,0.000006,0.000008,0.000014,-0.000003,44.085025,0.000015,
2326,2983,1.40759080688576,7.33038761042879,0.00594597396019481,0.003216,-0.033516,0.008382,0.105901,-1.483422,315.239146,23.519543,0.999906,0.996967,0.002647,0.409817,0.000001,0.000004,0.000001,0.000004,0.000001,76.668428,0.000005,
2236,2863,-0.52812850301483,4.7186372913286,-0.0108782016910141,0.002805,-0.033053,0.009226,0.087026,-1.448053,317.158971,23.143633,0.999265,0.990344,0.003837,0.416651,0.000024,0.000045,0.000001,0.000045,0.000024,87.735568,0.000070,
2341,2878,1.75097284294045,5.04928367350729,-0.0186655335658656,0.002538,-0.033674,0.006376,0.081185,-1.501319,316.717210,23.197821,0.999516,0.990728,0.003936,0.500928,0.000009,0.000026,0.000001,0.000026,0.000009,86.863564,0.000037,
2371,2053,2.56388889552332,-12.9806723544192,0.0164566921938558,0.001420,-0.037626,-0.008782,0.081075,-1.734109,330.390435,20.876551,0.998798,0.977960,0.005901,0.301725,0.000859,0.000798,-0.000022,0.000866,0.000791,-17.720262,0.001658,
2251,2863,-0.20204689911014,4.71879127754895,-0.014942625194351,0.002915,-0.033349,0.004931,0.105546,-1.475821,317.112769,23.101857,0.999518,0.991190,0.003766,0.452984,0.000026,0.000046,-0.000005,0.000047,0.000025,-77.466959,0.000073,
2416,3223,3.32039162862055,12.5451243153645,0.0394837834031705,0.003766,-0.033561,0.008894,0.126888,-1.491328,311.642902,24.472451,0.999414,0.989933,0.003927,0.435171,0.000019,0.000014,0.000004,0.000021,0.000012,31.673901,0.000033,
2476,2338,4.80077092256878,-6.7297969225373,0.00139703521324464,0.002429,-0.035007,-0.001930,0.103580,-1.579205,325.845200,21.418410,0.998778,0.980515,0.005557,0.354736,0.000391,0.000284,-0.000041,0.000405,0.000270,-18.643190,0.000679,
2146,2368,-2.40241894198947,-6.07479977317168,-0.00496690310137637,0.000781,-0.033852,-0.002012,0.030393,-1.528508,325.450220,22.638209,0.999102,0.986345,0.004585,0.426061,0.000269,0.000219,0.000017,0.000274,0.000213,16.778779,0.000489,
2296,3118,0.733267725874622,10.2578236754721,0.031568854258353,0.003849,-0.033361,0.010438,0.129107,-1.467921,313.294467,23.697726,0.999482,0.992562,0.003647,0.428830,0.000003,0.000013,-0.000006,0.000016,0.000000,-63.623006,0.000019,
2221,2983,-0.873255979592194,7.32377688712238,0.00701427433506296,0.003163,-0.032972,0.006983,0.111181,-1.458342,315.413170,23.258529,0.999408,0.990734,0.003857,0.416127,0.000008,0.000014,-0.000002,0.000015,0.000008,-74.380239,0.000023,
2341,3013,1.72867408606936,7.9827511625754,0.00901263896827231,0.003368,-0.033222,0.004138,0.127456,-1.479110,314.790831,23.607074,0.999611,0.992425,0.003567,0.438136,-0.000005,0.000006,-0.000002,0.000006,-0.000006,-82.353248,0.000007,
2356,1993,2.24606202818201,-14.3007240911,0.0196503633942484,-0.000162,-0.039663,-0.008718,0.007490,-1.832162,331.304295,20.683705,0.998542,0.957376,0.008075,0.324635,0.000987,0.000909,-0.000018,0.000991,0.000905,-12.266547,0.001896,
2176,2578,-1.78455199264893,-1.48902106280433,-0.0220749721502784,0.001852,-0.033034,0.000199,0.072892,-1.478173,321.847024,22.718804,0.999142,0.987030,0.004419,0.484648,0.000092,0.000053,0.000008,0.000094,0.000051,10.802302,0.000147,
2131,2548,-2.75831822502693,-2.1446455017921,-0.0119827096274321,0.001371,-0.032967,0.003458,0.041480,-1.462787,322.554362,22.801268,0.998713,0.982615,0.005089,0.463089,0.000130,0.000048,0.000020,0.000134,0.000043,12.957386,0.000185,
2401,3223,2.99436175889936,12.543934500993,0.0367178053122075,0.003861,-0.033467,0.009221,0.130533,-1.495465,311.607537,24.403357,0.999423,0.991323,0.003717,0.424624,0.000018,0.000015,0.000007,0.000023,0.000009,38.804771,0.000033,
2266,2938,0.111004732501915,6.34851372828777,-0.000769276823348264,0.002845,-0.033298,0.010769,0.082708,-1.468113,315.959548,23.208594,0.999444,0.991116,0.003848,0.501459,0.000012,0.000016,0.000002,0.000017,0.000011,64.759038,0.000028,
2341,2143,1.88899919956592,-11.0018826858887,-0.00749465901139956,0.000933,-0.036109,-0.006640,0.051647,-1.643207,328.701460,21.296110,0.999145,0.983402,0.005201,0.408595,0.000630,0.000643,-0.000025,0.000662,0.000611,-52.446294,0.001274,
2251,3163,-0.250964831692688,11.2305000546178,0.0409154956346924,0.003819,-0.032939,0.008356,0.136309,-1.444386,312.713064,23.631663,0.999226,0.989804,0.003973,0.405361,0.000003,0.000016,-0.000006,0.000019,0.000000,-67.976712,0.000022,
2311,3178,1.04842287161505,11.5602798117489,0.0374936746943604,0.003916,-0.033315,0.009905,0.133583,-1.466618,312.351634,23.872453,0.999649,0.992789,0.003576,0.439311,0.000010,0.000016,0.000000,0.000016,0.000010,-86.879111,0.000027,
2356,2188,2.20986612002423,-10.0169774718743,0.0145885464502271,0.001281,-0.035899,-0.003250,0.055870,-1.625725,328.165561,21.433212,0.999124,0.981986,0.005295,0.328543,0.000544,0.000546,-0.000027,0.000573,0.000518,-45.871589,0.001091,
2371,3028,2.37764705595693,8.31135864020226,0.0102126461274565,0.003157,-0.032972,0.005642,0.111958,-1.452955,314.541664,23.773975,0.999339,0.989426,0.004185,0.426500,0.000006,0.000012,0.000002,0.000013,0.000006,75.412772,0.000019,
2281,3253,0.382683796471802,13.1848952944543,0.0236921376045984,0.004190,-0.033170,0.010629,0.144794,-1.466561,311.051215,23.897854,0.999744,0.992537,0.003432,0.408644,0.000015,-0.000004,0.000012,0.000021,-0.000010,25.648198,0.000021,
2221,2713,-0.828834985771731,1.45379517051676,-0.0192959797897743,0.002163,-0.033399,0.004884,0.071689,-1.470889,319.548616,22.855964,0.999241,0.989555,0.003988,0.470465,0.000047,0.000068,0.000002,0.000068,0.000047,84.679511,0.000116,
2356,3088,2.04122681151219,9.61182248524427,0.0258269153835613,0.003378,-0.033620,0.010848,0.103844,-1.477929,313.680219,23.873611,0.999469,0.991581,0.003718,0.406687,0.000008,0.000013,0.000000,0.000013,0.000008,-88.728210,0.000021,
2101,2413,-3.38983000869479,-5.0917518621859,-0.00291749503077199,0.000175,-0.033508,0.002438,-0.010148,-1.489825,324.893538,22.838092,0.999047,0.985355,0.004755,0.424918,0.000239,0.000129,0.000026,0.000245,0.000123,12.617069,0.000375,
2341,2893,1.74965626220569,5.37623692590404,-0.0115936262286027,0.003182,-0.033082,0.002112,0.125905,-1.481692,316.575840,23.333027,0.999385,0.990326,0.003954,0.421543,0.000008,0.000016,0.000002,0.000016,0.000008,76.658213,0.000025,
2131,2323,-2.72217245989429,-7.05849139841997,0.0029796250629488,-0.000009,-0.033844,0.000535,-0.013433,-1.510952,326.257948,22.709313,0.999151,0.985167,0.004906,0.400214,0.000334,0.000246,0.000034,0.000346,0.000234,18.906604,0.000583,
2116,2443,-3.06805395723321,-4.43757350339698,-0.00752051286571032,0.000564,-0.033336,0.001322,0.010864,-1.479631,324.323694,22.665291,0.999176,0.987938,0.004652,0.574083,0.000202,0.000107,0.000027,0.000209,0.000100,14.981333,0.000315,
2326,2128,1.56575807329577,-11.3341398186435,0.0197495656633464,0.000238,-0.036526,-0.008513,0.026035,-1.678727,329.148294,21.345582,0.999236,0.983804,0.005163,0.369551,0.000642,0.000704,-0.000023,0.000712,0.000634,-71.509851,0.001347,
2476,2353,4.79774737977545,-6.40176725187761,0.00283416841767803,0.002538,-0.035039,0.000389,0.099802,-1.545476,325.610300,21.432386,0.998892,0.982346,0.005522,0.433223,0.000379,0.000268,-0.000036,0.000389,0.000257,-16.659693,0.000651,
2281,3028,0.422031888566885,8.30510939212081,0.00967797393508363,0.003216,-0.032793,0.006223,0.114812,-1.440343,314.586368,23.498508,0.998972,0.987807,0.004240,0.435090,0.000005,0.000007,-0.000010,0.000016,-0.000004,-47.449195,0.000016,
2326,2998,1.40498506074857,7.6557016162178,0.00919226318939081,0.003073,-0.033515,0.007183,0.103469,-1.489400,315.019125,23.527766,0.999756,0.994764,0.003109,0.429213,-0.000003,0.000010,-0.000001,0.000010,-0.000003,-87.111369,0.000010,
2311,2908,1.09430164036505,5.70044108426136,-0.00405692984952566,0.002528,-0.033343,0.004924,0.086510,-1.496728,316.369668,23.365605,0.999497,0.992257,0.003690,0.352256,0.000010,0.000015,0.000007,0.000020,0.000005,53.733980,0.000026,
2326,2773,1.44452158452427,2.76565954762993,-0.0152431139136979,0.002469,-0.033405,0.006543,0.077914,-1.466980,318.457354,23.107734,0.999717,0.994171,0.003399,0.361140,0.000030,0.000066,0.000020,0.000075,0.000021,66.357463,0.000101,
2356,2008,2.24432022219633,-13.9696044465394,0.0155492309747842,0.001346,-0.038935,-0.007455,0.072335,-1.786664,331.092789,20.781992,0.998492,0.973071,0.006661,0.314279,0.000960,0.000872,-0.000010,0.000961,0.000871,-6.129623,0.001833,
2311,2053,1.25208789804576,-12.9803748806567,0.0191085153703057,0.000330,-0.037362,-0.009927,0.034582,-1.746600,330.366720,21.209233,0.999285,0.983622,0.005056,0.347631,0.000778,0.000830,-0.000022,0.000838,0.000770,-69.507732,0.001608,
2146,2593,-2.43975240273574,-1.16219679895943,-0.0243337264188312,0.001714,-0.032718,0.000226,0.066859,-1.467034,321.687373,22.801242,0.998907,0.987051,0.004775,0.461243,0.000101,0.000043,0.000006,0.000102,0.000043,6.000149,0.000149,
2461,2308,4.4788050394916,-7.38625322673853,-0.00209549917752838,0.001986,-0.034942,-0.005071,0.095206,-1.580781,326.257326,21.359608,0.998799,0.975795,0.005967,0.355285,0.000416,0.000321,-0.000051,0.000438,0.000299,-23.464656,0.000741,
2386,3028,2.70388324587166,8.31169973378833,0.0106025760914008,0.003387,-0.033627,0.007017,0.116978,-1.487346,314.558055,23.788361,0.999517,0.990062,0.003990,0.424148,0.000009,0.000011,0.000006,0.000016,0.000004,50.022275,0.000021,
2446,1993,4.21696238223823,-14.3014180666288,0.00648616331176299,0.002856,-0.038765,-0.016886,0.177005,-1.837597,331.469907,20.077698,0.999167,0.975319,0.005941,0.283279,0.001100,0.000842,0.000009,0.001100,0.000841,1.896836,0.001947,
2386,2023,2.89758521085796,-13.6405997401671,0.0116929434973372,0.001560,-0.038346,-0.012425,0.100329,-1.797678,330.864938,20.621026,0.997934,0.968830,0.007064,0.301977,0.000961,0.000827,-0.000019,0.000964,0.000825,-7.740049,0.001790,
2356,2203,2.20573201666092,-9.68774941451611,0.00393519631364825,0.001017,-0.036235,-0.000462,0.033876,-1.626503,327.812757,21.411720,0.999025,0.981879,0.005317,0.391239,0.000519,0.000509,-0.000026,0.000540,0.000488,-39.915236,0.001028,
2146,2383,-2.40450668827931,-5.74691463096446,-0.00358659991400145,0.000890,-0.033193,-0.004366,0.042719,-1.509949,325.231778,22.659312,0.998948,0.985541,0.004648,0.432978,0.000253,0.000195,0.000016,0.000257,0.000191,14.219047,0.000450,
2416,3238,3.31732196952688,12.8714744193022,0.0269267526459771,0.004413,-0.033235,0.005906,0.167846,-1.476344,311.331758,24.524268,0.999388,0.990663,0.003823,0.444847,0.000016,0.000010,0.000001,0.000016,0.000009,10.878866,0.000026,
2401,3238,2.9914411723296,12.8701170874139,0.0287885114667574,0.004328,-0.033087,0.007092,0.159977,-1.473557,311.323740,24.458995,0.999371,0.991703,0.003631,0.435222,0.000015,0.000008,0.000005,0.000017,0.000006,27.526367,0.000024,
2311,3193,1.04622869684911,11.8854053653228,0.0403985309729364,0.004250,-0.033216,0.009387,0.150801,-1.463713,312.147441,23.898683,0.999644,0.993005,0.003464,0.447035,0.000011,0.000016,0.000001,0.000016,0.000011,78.107730,0.000028,
2356,2953,2.0640821388602,6.68148954772246,-0.00947237651905652,0.002825,-0.033335,0.004637,0.100345,-1.483192,315.587729,23.514637,0.999321,0.989241,0.004036,0.418347,0.000006,-0.000006,0.000001,0.000006,-0.000006,4.899274,0.000006,
2161,2668,-2.12446212384332,0.471079086431146,-0.00816187178304517,0.002373,-0.032672,0.002429,0.090314,-1.458721,320.574022,22.857821,0.999637,0.992905,0.003546,0.448256,0.000073,0.000041,-0.000005,0.000073,0.000040,-9.438831,0.000115,
2206,2878,-1.18204287340276,5.04289248651872,-0.0110752523029305,0.002933,-0.032755,0.004178,0.109888,-1.458651,317.011609,23.107284,0.999539,0.993206,0.003416,0.413951,0.000020,0.000039,0.000002,0.000040,0.000020,85.044236,0.000061,
2221,2998,-0.875730419932101,7.64916866745141,0.00838563028935368,0.003265,-0.033008,0.007622,0.113798,-1.459823,315.182681,23.254927,0.999398,0.990794,0.003887,0.436490,0.000005,0.000019,-0.000004,0.000020,0.000004,-75.153625,0.000026,
2371,3133,2.35923301026306,10.5898575472644,0.0283849741474569,0.003817,-0.033547,0.010238,0.125870,-1.462961,312.989574,24.049729,0.999595,0.991343,0.003721,0.421234,0.000012,0.000012,0.000010,0.000022,0.000002,45.083651,0.000027,
2221,2728,-0.831029536871743,1.78049775481641,-0.018024750434563,0.002369,-0.033001,0.003199,0.086691,-1.466107,319.330436,22.891479,0.999388,0.989257,0.003922,0.458770,0.000043,0.000067,0.000000,0.000067,0.000043,-88.940803,0.000111,
2371,2068,2.56034728346981,-12.6516504266858,0.0133788882552608,0.000974,-0.037142,-0.008739,0.060705,-1.710401,330.102954,20.840764,0.999134,0.979828,0.005454,0.405849,0.000823,0.000782,-0.000022,0.000833,0.000773,-23.827374,0.001605,
2326,3283,1.35223689274466,13.840091410343,0.00512992512096844,0.004201,-0.033207,0.010513,0.144208,-1.468777,310.357490,24.177022,0.999632,0.993768,0.003114,0.432610,0.000007,0.000008,0.000013,0.000021,-0.000006,45.804357,0.000022,
2491,2563,5.08003088268942,-1.80842955103526,-0.0164748579963998,0.002392,-0.033955,0.004114,0.079296,-1.509638,322.058074,22.242430,0.999490,0.988781,0.004405,0.449045,0.000158,0.000040,0.000000,0.000158,0.000040,-0.240055,0.000210,
2266,3178,0.0716888729046268,11.5560855618726,0.0395961034240599,0.003873,-0.033248,0.010312,0.131672,-1.466478,312.424671,23.646698,0.999452,0.991102,0.003692,0.459119,0.000008,0.000016,-0.000006,0.000019,0.000005,-62.046392,0.000026,
2176,2758,-1.81475647955394,2.43208768060337,-0.0206554806011923,0.002285,-0.033069,0.006381,0.073672,-1.457871,318.939595,22.932963,0.999409,0.988915,0.004152,0.442967,0.000040,0.000049,-0.000015,0.000061,0.000029,-53.272759,0.000091,
2131,2563,-2.76100848667466,-1.81598515894402,-0.0205290562835785,0.001764,-0.033018,0.004695,0.055832,-1.451235,322.254010,22.870809,0.999103,0.986334,0.004656,0.412008,0.000123,0.000042,0.000012,0.000125,0.000040,8.322918,0.000172,
2296,3133,0.730382552795273,10.5833704594985,0.0285868751875569,0.003862,-0.033213,0.009353,0.133403,-1.469306,313.028267,23.716435,0.999672,0.994152,0.003364,0.437782,0.000002,0.000014,-0.000006,0.000016,-0.000001,-68.721919,0.000019,
2236,2878,-0.52953745985587,5.0435936886625,-0.00127235385048152,0.003129,-0.032828,0.006016,0.112395,-1.452578,317.020772,23.131975,0.999461,0.991021,0.003737,0.444325,0.000018,0.000043,0.000002,0.000043,0.000018,85.409353,0.000063,
2191,2848,-1.50302221490997,4.38917543555519,-0.00834958500422545,0.002659,-0.033218,0.007404,0.087299,-1.467740,317.544821,23.018426,0.999182,0.989546,0.004033,0.440700,0.000025,0.000046,0.000005,0.000047,0.000024,76.810240,0.000072,
2161,2443,-2.08841157724548,-4.43581129525837,-0.00744561004432853,0.000904,-0.033451,0.000488,0.028454,-1.479291,324.160545,22.647949,0.999150,0.986376,0.004738,0.473318,0.000191,0.000131,0.000019,0.000197,0.000125,15.942276,0.000325,
2236,3043,-0.556764870984086,8.62716867454574,0.0180911581931014,0.003586,-0.032611,0.004565,0.138312,-1.446358,314.517492,23.404143,0.999642,0.991337,0.003613,0.403922,-0.000001,0.000005,-0.000008,0.000011,-0.000007,-55.575870,0.000011,
2341,2158,1.8863106215345,-10.6749195499455,-0.00485219466639819,0.000705,-0.035832,-0.008273,0.046989,-1.656854,328.477963,21.205770,0.999261,0.984503,0.005082,0.524521,0.000594,0.000594,-0.000025,0.000619,0.000570,-45.013679,0.001189,
2191,2623,-1.46549918241551,-0.50818822379572,-0.0150462385904575,0.001895,-0.033294,0.001867,0.069429,-1.493067,321.125443,22.781257,0.999097,0.985845,0.004684,0.432846,0.000074,0.000044,0.000013,0.000079,0.000039,20.659589,0.000120,
2356,2023,2.24152371562502,-13.6400665256926,0.00874392425799897,0.001219,-0.037398,-0.016187,0.097748,-1.770790,330.820297,20.741479,0.998205,0.972131,0.006958,0.413254,0.000922,0.000840,-0.000013,0.000924,0.000838,-8.641223,0.001764,
2281,3268,0.379398810672043,13.5098181979565,0.0197598569948241,0.004126,-0.033166,0.013267,0.133047,-1.459286,310.760535,23.881778,0.999749,0.993155,0.003353,0.458379,0.000017,-0.000006,0.000012,0.000022,-0.000012,23.361388,0.000022,
2311,2923,1.09172952237726,6.02595873095561,-0.0054979347176527,0.002956,-0.033216,0.006578,0.100631,-1.475544,316.127203,23.312726,0.999175,0.989933,0.004026,0.458348,0.000010,0.000010,0.000007,0.000017,0.000003,45.320732,0.000021,
2476,2368,4.79355775604668,-6.07128864538264,-0.00483174783323648,0.001969,-0.034080,-0.000651,0.078132,-1.502064,325.280231,21.577463,0.999522,0.985788,0.005039,0.390385,0.000356,0.000235,-0.000026,0.000361,0.000229,-11.527068,0.000596,
2491,2578,5.07800986605586,-1.48089001010847,-0.0113122426164409,0.002927,-0.033588,0.003016,0.108232,-1.488646,321.886076,22.330317,0.998561,0.981106,0.005442,0.441665,0.000145,0.000040,0.000003,0.000145,0.000040,1.813994,0.000195,
2386,3043,2.70086458242657,8.63763819174086,0.00884588770003347,0.003443,-0.033454,0.007507,0.117909,-1.476160,314.298758,23.816213,0.999604,0.991145,0.003838,0.450011,0.000007,0.000015,0.000010,0.000022,0.000000,56.178841,0.000026,
2386,2038,2.89449842516983,-13.3107732386302,0.00890750040696275,0.001642,-0.038139,-0.011673,0.101481,-1.766762,330.601085,20.643657,0.998370,0.973336,0.006532,0.357436,0.000914,0.000799,-0.000028,0.000921,0.000792,-13.043790,0.001715,
2326,2788,1.44166765441025,3.09081549064169,-0.021464578834582,0.002757,-0.033470,0.005060,0.096224,-1.485847,318.180299,22.985593,0.999564,0.993378,0.003581,0.498894,0.000029,0.000061,0.000018,0.000069,0.000021,65.234469,0.000094,
2326,3298,1.34924214484754,14.1648074307213,0.00596509534841516,0.004024,-0.033123,0.011433,0.132922,-1.461449,310.107020,24.177364,0.999693,0.994143,0.003090,0.472494,0.000001,0.000015,0.000011,0.000021,-0.000005,61.389362,0.000021,
2371,3043,2.37504433844903,8.63649479262752,0.0155789424658224,0.003291,-0.033291,0.009260,0.105183,-1.454644,314.334774,23.787394,0.999533,0.991102,0.003825,0.451402,0.000004,0.000015,0.000006,0.000018,0.000002,65.160865,0.000021,
2416,3253,3.31371841268827,13.1972539878981,0.0233347021260215,0.004410,-0.033431,0.010421,0.151177,-1.455444,311.038232,24.573295,0.999295,0.989328,0.003987,0.463140,0.000011,0.000026,0.000000,0.000026,0.000011,-89.359226,0.000038,
2176,2773,-1.81773041934129,2.7587654483323,-0.0256404649830415,0.002258,-0.033196,0.007478,0.069083,-1.434570,318.649507,22.911381,0.999411,0.989454,0.004205,0.500564,0.000039,0.000047,-0.000013,0.000057,0.000029,-53.216164,0.000087,
2371,2233,2.52830593267507,-9.03064907098921,0.0103678581630788,0.001282,-0.036058,-0.000842,0.047298,-1.624985,327.401149,21.484865,0.998659,0.978789,0.005905,0.330674,0.000476,0.000461,-0.000021,0.000490,0.000446,-35.022466,0.000937,
2101,2428,-3.39233350726903,-4.76372626424545,-0.00587943702646498,0.000291,-0.033437,0.003399,-0.007624,-1.492727,324.629171,22.866208,0.999327,0.986782,0.004519,0.396551,0.000222,0.000116,0.000036,0.000233,0.000105,17.149526,0.000346,
2371,2083,2.55738256242947,-12.3214905043699,0.0115118613674099,0.001169,-0.036963,-0.006848,0.063004,-1.689545,329.847503,20.930770,0.999075,0.978201,0.005655,0.381215,0.000787,0.000763,-0.000025,0.000803,0.000747,-32.251417,0.001550,
2356,2218,2.20335967736598,-9.35929021052634,0.00772646513479458,0.000921,-0.035668,-0.003876,0.041664,-1.618158,327.609973,21.467733,0.998498,0.978281,0.005879,0.384669,0.000491,0.000484,-0.000025,0.000513,0.000462,-40.769458,0.000975,
2206,2713,-1.15543280075108,1.4533570259641,-0.0243093548349407,0.002080,-0.033289,0.005505,0.066214,-1.474195,319.540787,22.833943,0.998737,0.986241,0.004685,0.488986,0.000049,0.000062,0.000001,0.000062,0.000049,87.522229,0.000111,
2116,2458,-3.07012364094679,-4.10869311673498,-0.00804066242665158,0.001004,-0.033598,0.002365,0.027896,-1.490965,324.093400,22.813490,0.999246,0.988057,0.004525,0.419217,0.000184,0.000084,0.000018,0.000187,0.000080,10.049558,0.000274,
2326,3013,1.40261769950486,7.98192053549082,0.00817749252564681,0.003415,-0.033256,0.004948,0.127054,-1.480741,314.788862,23.579700,0.999356,0.988814,0.004036,0.419660,-0.000004,0.000008,-0.000003,0.000009,-0.000005,-75.970354,0.000009,
2251,2878,-0.204515397943386,5.0452333627178,-0.0132541847685275,0.002964,-0.033214,0.004489,0.109296,-1.484644,316.886148,23.173620,0.999596,0.989908,0.003860,0.395173,0.000019,0.000042,-0.000003,0.000043,0.000019,-82.442310,0.000063,
2401,3253,2.98725736758139,13.1959965751415,0.0192747680274579,0.004145,-0.033328,0.011102,0.136909,-1.470313,310.974251,24.501526,0.999478,0.991126,0.003680,0.440058,0.000010,0.000023,0.000005,0.000024,0.000009,70.933800,0.000034,
2476,2383,4.7901130416815,-5.74314585797737,-0.0116707366794344,0.002120,-0.034170,-0.001041,0.086485,-1.500810,324.988480,21.564784,0.999531,0.984717,0.005104,0.462923,0.000332,0.000205,-0.000035,0.000341,0.000196,-14.375957,0.000543,
2161,2458,-2.09113519156335,-4.10798432969099,-0.0121629318924761,0.000878,-0.033134,-0.000964,0.031856,-1.448177,323.882037,22.619457,0.999181,0.987203,0.004580,0.544536,0.000173,0.000109,0.000017,0.000178,0.000105,14.295704,0.000286,
2131,2338,-2.72477991646394,-6.73009275401049,-0.00124532329124349,-0.000051,-0.033424,-0.001358,-0.009558,-1.491443,325.984621,22.705624,0.999325,0.985629,0.004749,0.431356,0.000310,0.000230,0.000028,0.000319,0.000221,17.534994,0.000544,
2446,2008,4.215115789119,-13.9743707740085,0.0181164627967405,0.003167,-0.038865,-0.015488,0.185978,-1.847457,331.335142,20.041090,0.999067,0.976349,0.006015,0.365186,0.001065,0.000801,-0.000011,0.001065,0.000801,-2.373706,0.001872,
2146,2608,-2.44221283990549,-0.834256294807517,-0.0244605541745955,0.001867,-0.032752,0.002227,0.067852,-1.445843,321.443734,22.884742,0.999254,0.989235,0.004386,0.407330,0.000100,0.000037,0.000004,0.000100,0.000037,3.333659,0.000142,
2341,3028,1.72627400039877,8.30855329489987,0.0173903494224419,0.003328,-0.033361,0.006381,0.117714,-1.480161,314.605960,23.697160,0.999661,0.993428,0.003511,0.382882,-0.000001,0.000011,-0.000004,0.000012,-0.000002,-75.397069,0.000013,
2146,2398,-2.40747027536377,-5.41905046430146,-0.0054922077027868,0.000654,-0.033403,-0.002056,0.024818,-1.506889,324.955937,22.667473,0.998771,0.984995,0.004916,0.437415,0.000240,0.000167,0.000012,0.000241,0.000165,8.952110,0.000409,
2341,2908,1.74704484814631,5.70228833440668,-0.00813226432512693,0.003373,-0.033391,0.005304,0.123452,-1.484399,316.357640,23.385048,0.999232,0.989828,0.004058,0.403069,0.000006,0.000011,0.000003,0.000012,0.000004,64.622736,0.000017,
2311,3208,1.04367442228278,12.2107927025644,0.0471947926043299,0.004071,-0.033022,0.010681,0.138111,-1.466611,311.945772,23.980892,0.999697,0.992307,0.003453,0.392723,0.000012,0.000016,0.000005,0.000019,0.000008,56.398737,0.000028,
2266,2953,0.109079170142223,6.67523083379546,0.00173658410858479,0.003172,-0.032967,0.007057,0.110197,-1.458037,315.762782,23.312372,0.999104,0.987459,0.004397,0.432734,0.000007,0.000011,0.000000,0.000011,0.000007,-85.058674,0.000018,
2221,2743,-0.834331348825007,2.10759622209813,-0.022516519157648,0.002289,-0.033413,0.007401,0.069394,-1.476422,319.031790,22.936970,0.999380,0.988357,0.004167,0.422116,0.000036,0.000068,-0.000001,0.000068,0.000036,-87.630066,0.000105,
2326,2143,1.56259009580333,-11.0035793064461,0.010715861209178,0.000856,-0.036460,-0.004256,0.039675,-1.627397,328.844153,21.385893,0.999194,0.984555,0.005190,0.418156,0.000612,0.000645,-0.000024,0.000658,0.000599,-62.011628,0.001257,
2356,3103,2.03837233828832,9.93805611945217,0.0234818590882924,0.003496,-0.033342,0.010059,0.112224,-1.465450,313.423038,23.938765,0.999461,0.991009,0.003914,0.391808,0.000014,0.000018,0.000002,0.000019,0.000013,68.571390,0.000032,
2131,2578,-2.76393363995857,-1.48811247792245,-0.0258140204484789,0.001807,-0.033217,0.007464,0.049489,-1.435824,321.960454,22.898857,0.999534,0.991285,0.004113,0.405786,0.000111,0.000041,0.000007,0.000111,0.000040,5.483770,0.000157,
2281,3043,0.419518551081328,8.6304715134252,0.0130159152337797,0.003250,-0.033231,0.007066,0.113386,-1.459731,314.368020,23.535777,0.999332,0.990297,0.003879,0.405334,0.000002,0.000011,-0.000006,0.000014,-0.000002,-63.649048,0.000016,
2446,2023,4.21201740086672,-13.6432086986438,0.0165903668194574,0.003309,-0.038361,-0.014320,0.188375,-1.800323,331.082107,20.177903,0.999130,0.979084,0.005523,0.331461,0.001025,0.000786,-0.000037,0.001030,0.000780,-8.549214,0.001816,
2311,2938,1.08910538793208,6.35184849286424,-0.00466744896493765,0.003065,-0.033377,0.006877,0.104604,-1.477988,315.893428,23.338153,0.999035,0.988042,0.004301,0.461976,0.000011,0.000004,0.000006,0.000014,0.000000,29.964080,0.000017,
2311,2068,1.24915047674682,-12.6505675061468,0.0119759375040758,0.000699,-0.037152,-0.009513,0.050139,-1.740043,330.081409,21.216150,0.999393,0.980003,0.005390,0.382973,0.000749,0.000818,-0.000018,0.000822,0.000744,-76.093747,0.001567,
2281,3283,0.376488932083909,13.8350750371994,0.011125532723554,0.004275,-0.033070,0.008946,0.154424,-1.466047,310.463367,23.889078,0.999427,0.992114,0.003493,0.470604,0.000018,0.000008,0.000016,0.000030,-0.000004,36.832924,0.000032,
2341,1993,1.91845261918072,-14.3004273622545,0.0194636569250406,0.000272,-0.040248,-0.007004,0.021020,-1.846811,331.314050,20.789708,0.998208,0.976331,0.006471,0.310521,0.000956,0.000909,-0.000029,0.000970,0.000896,-25.388017,0.001866,
2371,3148,2.3569918591026,10.9151809102886,0.0335767889880003,0.004030,-0.033326,0.009989,0.136515,-1.475125,312.798079,24.113687,0.999622,0.990623,0.003722,0.384888,0.000010,0.000011,0.000010,0.000020,0.000001,47.688329,0.000024,
2401,3268,2.98256920441144,13.5222451293073,0.00115366492570956,0.003701,-0.033437,0.009574,0.121962,-1.486727,310.560530,24.555378,0.999581,0.991508,0.003705,0.413480,0.000007,0.000012,0.000008,0.000018,0.000001,52.761117,0.000021,
2461,2323,4.47600765309204,-7.05841446519052,-0.00284513253154728,0.002376,-0.034536,-0.003852,0.108660,-1.553954,326.021838,21.331373,0.999013,0.977536,0.005652,0.466997,0.000391,0.000302,-0.000043,0.000408,0.000284,-22.043178,0.000696,
2416,3268,3.30966125634037,13.5224951668172,0.0150831279265162,0.004117,-0.033787,0.012333,0.130520,-1.467798,310.702000,24.584410,0.999534,0.991237,0.003722,0.485915,0.000007,0.000014,0.000003,0.000015,0.000006,71.043354,0.000022,
2356,2233,2.2003692740924,-9.03019424095497,0.00303337871662279,0.001076,-0.035552,-0.004542,0.051181,-1.612304,327.338030,21.501482,0.997965,0.974443,0.006328,0.398306,0.000460,0.000453,-0.000020,0.000477,0.000436,-39.579518,0.000913,
2371,2248,2.52451095049754,-8.69994143216065,-0.00888897652322385,0.001376,-0.035012,-0.006957,0.073701,-1.591871,327.023962,21.494722,0.999222,0.982461,0.005476,0.398168,0.000453,0.000421,-0.000019,0.000462,0.000413,-25.131693,0.000875,
2386,2053,2.89271931473507,-12.9818793979999,0.0225752077598713,0.001680,-0.037446,-0.011646,0.103385,-1.738378,330.474880,20.773333,0.998844,0.977755,0.006104,0.302156,0.000875,0.000796,-0.000029,0.000885,0.000787,-18.077091,0.001672,
2491,2593,5.07478843172095,-1.15348032108851,-0.0148386508542444,0.002631,-0.033621,-0.002393,0.115357,-1.503888,321.619859,22.371314,0.999782,0.994056,0.003616,0.445152,0.000128,0.000040,0.000013,0.000130,0.000038,8.264765,0.000177,
2356,2968,2.06179603433447,7.00785903424546,-0.00451165095137185,0.003092,-0.033303,0.005728,0.108857,-1.460618,315.392388,23.597020,0.999526,0.990929,0.003793,0.396824,0.000004,0.000002,0.000001,0.000005,0.000001,29.427401,0.000006,
2191,2863,-1.50568029206853,4.71578867055589,-0.0112581991785987,0.002746,-0.032977,0.007062,0.092441,-1.455952,317.281270,23.045591,0.999261,0.990693,0.003797,0.439607,0.000022,0.000042,0.000001,0.000042,0.000022,88.351359,0.000066,
2326,3028,1.3999605162171,8.30753592445564,0.0138130642279179,0.003283,-0.033213,0.006925,0.114150,-1.476242,314.577989,23.628705,0.999527,0.991059,0.003792,0.408709,-0.000001,0.000013,-0.000004,0.000014,-0.000003,-73.728086,0.000015,
2116,2473,-3.07270138322274,-3.78064216470879,-0.0120246007556375,0.001053,-0.033349,0.001870,0.031682,-1.484784,323.821414,22.841507,0.999304,0.988219,0.004388,0.402283,0.000175,0.000078,0.000019,0.000179,0.000075,10.516675,0.000260,
2386,2263,2.84847198424161,-8.37027117867035,-0.0166455395594198,0.001470,-0.034597,-0.005839,0.074296,-1.576286,326.727060,21.489378,0.999184,0.981822,0.005227,0.395914,0.000435,0.000392,-0.000030,0.000450,0.000377,-27.367845,0.000828,
2296,3148,0.727436201632866,10.9088244989327,0.0323940850675513,0.003349,-0.033181,0.008758,0.111843,-1.468628,312.792999,23.770187,0.999598,0.992483,0.003658,0.413228,0.000003,0.000013,-0.000005,0.000015,0.000001,-67.735341,0.000018,
2191,2638,-1.46773697052588,-0.181227058489874,-0.0171442159648336,0.002370,-0.032899,0.002176,0.090407,-1.474687,320.885552,22.770612,0.999408,0.987984,0.004368,0.477229,0.000068,0.000047,0.000009,0.000072,0.000044,19.364843,0.000116,
2161,2683,-2.12765378035227,0.798298379483434,-0.0177747808080539,0.002359,-0.033044,0.002887,0.088137,-1.473395,320.248333,22.855237,0.999454,0.990236,0.003882,0.447093,0.000066,0.000048,-0.000008,0.000069,0.000045,-21.623450,0.000115,
2266,3193,0.0686692665693371,11.8819109779336,0.037690938888602,0.003712,-0.033177,0.010386,0.124026,-1.468458,312.155156,23.713321,0.999496,0.991140,0.003637,0.414519,0.000008,0.000016,-0.000004,0.000018,0.000006,-65.378403,0.000025,
2386,3058,2.69860473791436,8.96302566674163,0.0179311589225222,0.003468,-0.033594,0.008759,0.114487,-1.478058,314.126115,23.881101,0.999615,0.991547,0.003732,0.425569,0.000008,0.000014,0.000013,0.000024,-0.000002,51.908930,0.000027,
2206,2893,-1.18526561015582,5.36979105898818,-0.0234525207551997,0.003053,-0.032662,0.002572,0.120593,-1.454239,316.674257,23.108748,0.999771,0.994549,0.003260,0.433600,0.000016,0.000028,0.000003,0.000028,0.000015,74.856830,0.000044,
2356,2038,2.23879104356361,-13.3105401344666,0.00941978251631781,0.001267,-0.037587,-0.016229,0.100007,-1.782972,330.586691,20.818530,0.998579,0.976382,0.006181,0.366214,0.000881,0.000815,-0.000021,0.000887,0.000809,-16.003647,0.001697,
2221,3013,-0.877883716293912,7.97463441943699,0.0138294201136091,0.003379,-0.032863,0.007908,0.118183,-1.457361,314.987836,23.285408,0.999413,0.990832,0.003808,0.426628,0.000006,0.000014,-0.000009,0.000020,0.000000,-57.287236,0.000023,
2341,2173,1.8835014748365,-10.3455402140566,0.00319454914745165,0.000663,-0.036306,-0.000838,0.019086,-1.614277,328.274451,21.342240,0.999084,0.982003,0.005294,0.470029,0.000561,0.000566,-0.000020,0.000584,0.000543,-48.503580,0.001127,
2386,2068,2.88849465131236,-12.6522587369581,0.0120166592869282,0.001286,-0.037427,-0.010198,0.080203,-1.730165,330.122222,20.724386,0.998960,0.977507,0.005986,0.406687,0.000837,0.000780,-0.000030,0.000850,0.000767,-23.594131,0.001617,
2251,3178,-0.253217492747066,11.5544018930909,0.0473325517521062,0.003969,-0.033433,0.010790,0.134993,-1.471295,312.520712,23.590868,0.999429,0.991325,0.003594,0.441171,0.000003,0.000014,-0.000007,0.000018,0.000000,-63.905683,0.000020,
2266,2968,0.106237228168592,7.00119486659491,0.000236971976335099,0.003056,-0.033064,0.005904,0.108711,-1.450897,315.503941,23.326040,0.999400,0.990649,0.003877,0.451236,0.000005,0.000008,-0.000003,0.000010,0.000003,-57.719548,0.000014,
2221,2758,-0.83666793375718,2.43439203392767,-0.0227098916724344,0.002440,-0.033066,0.005446,0.082785,-1.446260,318.799443,22.953253,0.999490,0.988917,0.004045,0.454931,0.000034,0.000068,0.000000,0.000068,0.000034,-89.501296,0.000104,
2281,3298,0.373389118602788,14.1610917442372,0.00572266649186304,0.004379,-0.033110,0.009801,0.156374,-1.460099,310.173323,23.976138,0.999592,0.993069,0.003345,0.415649,0.000026,0.000012,0.000012,0.000033,0.000005,30.033068,0.000041,
2206,2728,-1.15763760442636,1.7804775051139,-0.0251762433491081,0.002327,-0.033033,0.002726,0.086510,-1.463215,319.309850,22.884534,0.999222,0.988489,0.004192,0.466414,0.000043,0.000061,-0.000002,0.000061,0.000043,-84.884293,0.000105,
2491,2608,5.07193085587793,-0.827383051021364,-0.00680543254298982,0.002423,-0.033913,0.000573,0.094402,-1.494068,321.422451,22.371478,0.999835,0.993668,0.003651,0.514086,0.000120,0.000037,0.000010,0.000122,0.000036,6.753893,0.000165,
2476,2398,4.78725880465008,-5.41601214133065,-0.00105790608756706,0.001765,-0.034932,0.002824,0.055273,-1.534622,324.803025,21.667943,0.999533,0.986026,0.004807,0.383837,0.000303,0.000196,-0.000032,0.000312,0.000188,-15.409153,0.000505,
2326,2158,1.55950712493065,-10.6754769060092,0.00932445512660252,0.000671,-0.036418,-0.003908,0.030043,-1.640159,328.581652,21.354156,0.999060,0.983144,0.005278,0.474686,0.000577,0.000593,-0.000021,0.000608,0.000563,-55.200286,0.001171,
2356,2983,2.05926519592482,7.33327012692938,0.000981714466433914,0.003051,-0.033140,0.006602,0.103942,-1.465271,315.188628,23.625513,0.999417,0.987840,0.004258,0.401652,0.000002,0.000004,0.000003,0.000006,0.000000,57.189210,0.000007,
2401,3283,2.97994149088654,13.8476410949027,-0.00570926131297256,0.004579,-0.033351,0.010009,0.160768,-1.493008,310.295279,24.587742,0.999567,0.991167,0.003829,0.419180,0.000002,0.000009,0.000008,0.000014,-0.000003,56.596210,0.000015,
2341,2923,1.74396078969106,6.02857615889344,-0.00873163190641435,0.003198,-0.033561,0.005822,0.113609,-1.472195,316.097835,23.418801,0.999070,0.988674,0.004218,0.417596,0.000004,0.000009,0.000004,0.000011,0.000002,62.942512,0.000013,
2371,3058,2.37232675994438,8.96233275425467,0.0163050271600582,0.003590,-0.033864,0.011761,0.109760,-1.479190,314.100100,23.861411,0.999647,0.992739,0.003466,0.392931,0.000006,0.000012,0.000009,0.000018,0.000000,53.856366,0.000020,
2386,3178,2.67722523380693,11.5671467403024,0.0345032890324433,0.003961,-0.033054,0.008385,0.138775,-1.466234,312.323559,24.231445,0.999497,0.991572,0.003626,0.424636,0.000012,0.000023,0.000012,0.000031,0.000004,57.604011,0.000038,
2146,2413,-2.41051908645284,-5.0905423306069,-0.0136203316705519,0.000852,-0.033911,0.001792,0.022112,-1.494756,324.643083,22.671634,0.998577,0.985442,0.005179,0.455279,0.000228,0.000145,0.000007,0.000229,0.000145,4.883381,0.000377,
2161,2473,-2.09292134990028,-3.78027245007893,-0.0116629153321242,0.001432,-0.032984,-0.002610,0.062360,-1.456144,323.674033,22.672898,0.999200,0.985769,0.004861,0.494389,0.000165,0.000101,0.000020,0.000170,0.000095,15.822735,0.000269,
2326,2803,1.43842072572908,3.41784805599386,-0.0197263728792336,0.002078,-0.033275,0.003774,0.069545,-1.472319,317.923496,23.070211,0.999328,0.992876,0.003776,0.462246,0.000026,0.000053,0.000015,0.000060,0.000019,65.257843,0.000083,
2341,3043,1.72295460432173,8.6334310546813,0.0148509008412816,0.003211,-0.033567,0.008819,0.103776,-1.475088,314.325934,23.627230,0.999610,0.992435,0.003585,0.493732,-0.000002,0.000016,0.000000,0.000016,-0.000002,-89.520560,0.000018,
2281,3058,0.417087721769338,8.95585960595858,0.0121824570661602,0.003500,-0.032979,0.005579,0.129927,-1.458572,314.132531,23.531367,0.999481,0.992585,0.003594,0.437811,0.000001,0.000007,-0.000005,0.000010,-0.000001,-62.390955,0.000011,
2251,2893,-0.206865216966865,5.37060782317263,-0.00595014593415044,0.002855,-0.033240,0.005822,0.099973,-1.465473,316.693675,23.164195,0.999603,0.991090,0.003739,0.446877,0.000015,0.000030,0.000000,0.000030,0.000015,88.155468,0.000046,
2311,3223,1.04059677826308,12.5351132437678,0.0469536344064636,0.003813,-0.033482,0.010905,0.125287,-1.485895,311.685586,23.943633,0.999614,0.992635,0.003361,0.441557,0.000012,0.000009,0.000003,0.000014,0.000007,28.078184,0.000021,
2116,2488,-3.0747681936972,-3.45411539684781,-0.0140378643275767,0.001324,-0.033291,-0.001047,0.052773,-1.492494,323.583791,22.767262,0.999171,0.986992,0.004555,0.473452,0.000170,0.000070,0.000017,0.000173,0.000067,9.449704,0.000248,
2236,3058,-0.558715923431503,8.95166165106543,0.0251691366982527,0.003721,-0.032674,0.003608,0.147577,-1.456293,314.341470,23.378657,0.999667,0.992419,0.003416,0.439648,0.000001,0.000000,-0.000009,0.000009,-0.000008,-42.634222,0.000010,
2311,2083,1.24599485436515,-12.3193960187632,0.0103613027469578,0.000567,-0.037218,-0.007600,0.037585,-1.706240,329.812799,21.387664,0.999327,0.981315,0.005399,0.281099,0.000718,0.000801,-0.000019,0.000805,0.000714,-77.800271,0.001520,
2146,2623,-2.44517834114517,-0.507288919435226,-0.0253615554419184,0.001598,-0.032748,0.004781,0.047769,-1.436100,321.173130,22.888664,0.999531,0.991264,0.004039,0.421956,0.000097,0.000038,-0.000001,0.000097,0.000038,-1.125104,0.000139,
2326,3043,1.39738890747028,8.63301989966436,0.0213388820943123,0.003158,-0.033069,0.009761,0.098737,-1.450412,314.380295,23.660015,0.999581,0.991773,0.003721,0.436775,-0.000001,0.000018,0.000000,0.000018,-0.000001,-89.369318,0.000021,
2341,2008,1.91596399554731,-13.9698546571908,0.0198040928656837,0.000567,-0.039130,-0.006883,0.034538,-1.778494,331.088257,20.865909,0.998380,0.973998,0.006644,0.343054,0.000930,0.000876,-0.000022,0.000937,0.000868,-19.318929,0.001806,
2371,2098,2.55381061858904,-11.9923998011556,0.01163418394583,0.000869,-0.037653,-0.001501,0.030068,-1.699708,329.573920,20.981882,0.999021,0.976992,0.005834,0.364332,0.000751,0.000730,-0.000030,0.000773,0.000709,-35.225624,0.001482,
2491,2623,5.06846250791957,-0.500365145401908,-0.0108256638416719,0.002518,-0.034087,0.002321,0.091976,-1.502512,321.142540,22.375121,0.999830,0.993613,0.003569,0.561865,0.000108,0.000019,0.000006,0.000109,0.000019,3.974165,0.000138,
2461,2338,4.47294043126682,-6.72990554532414,0.000901379652475498,0.002312,-0.034960,-0.000542,0.093144,-1.564530,325.794463,21.451482,0.999007,0.977046,0.005587,0.392338,0.000377,0.000287,-0.000041,0.000393,0.000271,-20.972279,0.000668,
2356,2053,2.23665753684237,-12.9823499136359,0.0265086480598029,0.001012,-0.037484,-0.011460,0.071647,-1.733048,330.458925,20.900451,0.998708,0.978917,0.005709,0.375983,0.000846,0.000813,-0.000019,0.000855,0.000804,-24.723686,0.001659,
2476,2413,4.78507326834463,-5.08876787779409,0.000772120398721654,0.002082,-0.034317,-0.001932,0.088086,-1.524803,324.608271,21.657370,0.999419,0.986894,0.004736,0.462387,0.000277,0.000171,-0.000028,0.000283,0.000164,-13.753167,0.000453,
2416,3283,3.30656025111935,13.8489272589752,0.00652735614471567,0.004542,-0.033415,0.010953,0.155261,-1.468275,310.407901,24.696692,0.999610,0.991313,0.003753,0.419284,0.000003,0.000007,0.000002,0.000008,0.000002,70.783087,0.000010,
2266,3208,0.0657102395555391,12.2078132341321,0.0351563432021749,0.003576,-0.033040,0.009324,0.121440,-1.448896,311.885177,23.765980,0.999694,0.994077,0.003206,0.405764,0.000007,0.000014,0.000001,0.000014,0.000007,80.159979,0.000021,
2386,3193,2.6748897318962,11.8919922543136,0.0414808092755834,0.004091,-0.033234,0.009818,0.139617,-1.459502,312.137098,24.253238,0.999442,0.991827,0.003508,0.451601,0.000013,0.000022,0.000011,0.000030,0.000005,55.695123,0.000038,
2401,3298,2.97641421443064,14.1727133401414,-0.0148188026196294,0.004560,-0.033295,0.008247,0.166370,-1.490064,309.977962,24.573701,0.999598,0.992299,0.003683,0.480272,-0.000007,0.000002,0.000002,0.000003,-0.000008,78.357797,0.000008,
2356,2998,2.05668073327886,7.65904648279042,0.00589790840410842,0.003010,-0.033207,0.007538,0.098727,-1.464573,314.979454,23.681755,0.999596,0.991503,0.003715,0.384244,0.000001,0.000011,0.000003,0.000012,0.000000,72.845993,0.000013,
2356,3118,2.03626019056997,10.2623411711857,0.0297933207365872,0.003720,-0.033540,0.009703,0.123660,-1.485565,313.242450,23.914920,0.999507,0.991373,0.003812,0.433469,0.000012,0.000016,0.000007,0.000021,0.000007,52.374350,0.000029,
2191,2653,-1.47077287945102,0.146378656842167,-0.021365715907848,0.002103,-0.032865,0.001095,0.081550,-1.474209,320.597899,22.824182,0.999457,0.989035,0.004211,0.439215,0.000069,0.000050,0.000008,0.000072,0.000047,20.427522,0.000119,
2311,2953,1.08685594760704,6.67839334746061,-0.00586215250308442,0.003182,-0.032734,0.000219,0.132970,-1.472722,315.666646,23.406033,0.999254,0.990137,0.003954,0.431259,0.000006,0.000000,0.000005,0.000009,-0.000003,28.585101,0.000009,
2386,2083,2.8856292095347,-12.3222834059401,0.0127971817221351,0.001377,-0.037130,-0.008642,0.078924,-1.699502,329.885165,20.817217,0.998833,0.974258,0.006115,0.391033,0.000799,0.000762,-0.000035,0.000820,0.000741,-30.959061,0.001562,
2371,3163,2.35429738738968,11.2400823227874,0.034262279090342,0.003998,-0.033355,0.007933,0.142438,-1.471218,312.564168,24.098812,0.999523,0.990951,0.003788,0.443758,0.000010,0.000017,0.000009,0.000023,0.000004,55.375898,0.000029,
2401,2098,3.21022746081919,-11.993275736872,0.0106352911524255,0.001366,-0.037694,-0.006928,0.072162,-1.716189,329.633765,20.777183,0.998607,0.972041,0.006622,0.369608,0.000772,0.000731,-0.000053,0.000808,0.000694,-34.442487,0.001504,
2446,2038,4.20899008523882,-13.3135698149171,0.0197314813432286,0.003160,-0.037771,-0.012768,0.176031,-1.761308,330.853789,20.242208,0.998906,0.977696,0.005839,0.362066,0.000975,0.000771,-0.000046,0.000985,0.000761,-12.079009,0.001751,
2416,2413,3.47544704790221,-5.08865994488457,-0.00328939335992118,0.002238,-0.034524,-0.001405,0.093511,-1.562389,324.462599,21.913123,0.999605,0.986934,0.004602,0.348335,0.000243,0.000191,0.000004,0.000243,0.000190,4.874804,0.000434,
2386,2278,2.84665503559551,-8.04322638465544,0.00190281849239682,0.001290,-0.035018,-0.003260,0.056623,-1.582340,326.621868,21.601620,0.999658,0.990872,0.003896,0.322555,0.000409,0.000374,-0.000020,0.000418,0.000365,-24.357629,0.000784,
2161,2698,-2.13063453963877,1.12495377713046,-0.0200871091846011,0.002179,-0.033286,0.005029,0.073257,-1.457573,319.970809,22.836143,0.999308,0.987638,0.004178,0.492237,0.000059,0.000048,-0.000011,0.000066,0.000041,-32.287612,0.000108,
2416,2173,3.52246247182844,-10.3463927290653,-0.00140247958017881,0.001538,-0.036391,-0.005992,0.077299,-1.683855,328.346850,20.963790,0.998793,0.979404,0.005385,0.377936,0.000608,0.000573,-0.000066,0.000659,0.000522,-37.623470,0.001184,
2371,2263,2.5218854607331,-8.37182243851221,-0.00364353430330766,0.001267,-0.035208,-0.006180,0.065879,-1.601555,326.817607,21.568532,0.999368,0.985295,0.004850,0.357745,0.000427,0.000389,-0.000022,0.000437,0.000378,-24.794656,0.000816,
2221,2773,-0.838723369228688,2.7601122703013,-0.0189193222638551,0.002537,-0.032917,0.002720,0.095974,-1.465479,318.600832,22.955667,0.999372,0.988865,0.004154,0.452382,0.000032,0.000059,-0.000001,0.000059,0.000032,-87.580528,0.000093,
2206,2908,-1.18678535897569,5.69375330153991,-0.00305581579470982,0.002992,-0.033044,0.006600,0.104871,-1.451427,316.585481,23.083690,0.999615,0.992618,0.003616,0.477283,0.000016,0.000022,0.000004,0.000024,0.000014,63.672912,0.000038,
2386,3073,2.69523107401632,9.28891164358848,0.0142462195275925,0.003315,-0.033449,0.009167,0.106060,-1.469898,313.841192,23.902606,0.999596,0.990857,0.003822,0.454689,0.000010,0.000017,0.000013,0.000027,0.000000,52.543998,0.000031,
2311,3238,1.03692933030533,12.8616033077043,0.0367499794932087,0.003716,-0.033301,0.011166,0.120028,-1.474280,311.348184,24.023134,0.999464,0.991601,0.003523,0.404435,0.000013,-0.000001,0.000003,0.000014,-0.000001,12.911973,0.000015,
2491,2638,5.06388255353189,-0.170550164803174,-0.0245248965431983,0.002313,-0.034063,0.003859,0.076689,-1.499342,320.767292,22.547464,0.999465,0.988580,0.004211,0.452568,0.000095,0.000034,0.000003,0.000095,0.000034,2.734891,0.000134,
2131,2353,-2.72714355605818,-6.40172676776743,-0.00499767056544442,0.000227,-0.033355,-0.001676,0.004172,-1.493310,325.725044,22.730488,0.999202,0.985099,0.004805,0.412128,0.000290,0.000213,0.000024,0.000297,0.000206,15.729091,0.000506,
2461,2353,4.4687267880523,-6.40050700687672,-0.00693884117953303,0.001892,-0.034812,0.000774,0.069015,-1.544462,325.461308,21.513680,0.999203,0.981885,0.005343,0.407112,0.000364,0.000271,-0.000035,0.000376,0.000259,-18.345125,0.000639,
2431,2008,3.88655730650886,-13.9740798029178,0.0236049896452641,0.002561,-0.039406,-0.012328,0.146083,-1.856414,331.312218,20.204889,0.999042,0.974428,0.006229,0.297288,0.001043,0.000829,0.000001,0.001043,0.000829,0.258077,0.001876,
2386,3208,2.67150935485745,12.2171729683631,0.0381634308446905,0.003844,-0.033398,0.009444,0.129471,-1.478624,311.853282,24.275015,0.999422,0.991825,0.003646,0.452458,0.000014,0.000024,0.000013,0.000033,0.000006,55.740898,0.000042,
2191,2878,-1.50786494602754,5.04312476114519,-0.00946483932386855,0.002937,-0.032598,0.005975,0.104773,-1.449304,317.063689,23.183501,0.999760,0.994812,0.003148,0.322551,0.000022,0.000041,0.000001,0.000041,0.000022,86.083727,0.000064,
2176,2788,-1.81976988155113,3.08514087036171,-0.0224951649090599,0.002406,-0.032917,0.005477,0.082144,-1.440677,318.444989,22.959449,0.999338,0.988561,0.004338,0.458455,0.000034,0.000051,-0.000013,0.000057,0.000027,-61.916143,0.000086,
2416,1993,3.56171131585629,-14.3045173257559,0.0360425003302112,0.002137,-0.039934,-0.008833,0.113482,-1.849144,331.600682,20.277035,0.998907,0.974070,0.006310,0.285432,0.001039,0.000885,0.000001,0.001039,0.000885,0.204422,0.001926,
2251,2908,-0.208028449739576,5.69650833590003,0.00756248191953546,0.003198,-0.032720,0.003055,0.125007,-1.447473,316.586999,23.252091,0.999690,0.992824,0.003458,0.399523,0.000014,0.000026,0.000001,0.000026,0.000014,86.594926,0.000041,
2296,1993,0.934494841120934,-14.298485278434,0.0197305796352794,-0.000304,-0.039386,-0.007234,-0.004493,-1.793159,331.309263,21.116494,0.998961,0.963906,0.007408,0.357291,0.000864,0.000927,-0.000046,0.000952,0.000840,-62.058774,0.001793,
2281,3073,0.413907972166307,9.28184620561024,0.012289141234703,0.003289,-0.033335,0.008912,0.108904,-1.471934,313.867086,23.606876,0.999540,0.992206,0.003683,0.375568,0.000001,0.000011,-0.000006,0.000014,-0.000001,-65.548713,0.000015,
2416,3298,3.30220650207565,14.1741351091951,-0.00774778461254755,0.004353,-0.033489,0.011858,0.143130,-1.482514,310.029495,24.683984,0.999602,0.991622,0.003697,0.463940,-0.000004,0.000001,-0.000007,0.000006,-0.000008,-55.318525,0.000009,
2341,3058,1.72032158625311,8.95894307896575,0.0101704482908076,0.003598,-0.033654,0.006683,0.129020,-1.483237,314.066831,23.619276,0.999659,0.993443,0.003299,0.529326,-0.000002,0.000013,0.000001,0.000014,-0.000002,84.803364,0.000015,
2341,2023,1.91347622069247,-13.6407795327831,0.0159226296548809,0.000821,-0.038283,-0.011397,0.062186,-1.790809,330.842659,20.843916,0.998503,0.975516,0.006391,0.392881,0.000895,0.000844,-0.000020,0.000902,0.000837,-19.355017,0.001740,
2341,2938,1.74158892183212,6.35391801678571,-0.0041360705141642,0.003236,-0.033312,0.005052,0.118102,-1.476779,315.896274,23.423176,0.999001,0.987785,0.004298,0.444808,0.000006,0.000003,0.000003,0.000008,0.000001,32.201596,0.000010,
2356,2248,2.197202025866,-8.7012879649576,0.00176590014433486,0.001078,-0.035550,-0.001491,0.040540,-1.600389,327.074361,21.552973,0.998793,0.980272,0.005600,0.400024,0.000438,0.000409,-0.000020,0.000449,0.000399,-27.628250,0.000848,
2386,2098,2.88195793050384,-11.9924154056767,0.00776946278949708,0.001236,-0.037210,-0.005574,0.061500,-1.692350,329.583823,20.865543,0.998733,0.972905,0.006294,0.396688,0.000763,0.000731,-0.000041,0.000791,0.000703,-34.288701,0.001495,
2326,2818,1.43630097066644,3.74363068788179,-0.0117230777424311,0.002349,-0.033499,0.006459,0.072664,-1.477507,317.749449,23.110391,0.999486,0.990881,0.003861,0.451017,0.000021,0.000048,0.000008,0.000050,0.000019,75.081819,0.000071,
2371,3073,2.36986001802451,9.28781064054009,0.0178964852074159,0.003548,-0.033383,0.007589,0.122845,-1.480439,313.881156,23.888447,0.999534,0.991285,0.003739,0.404972,0.000008,0.000014,0.000009,0.000020,0.000002,53.895628,0.000024,
2431,2248,3.83633310358784,-8.70210760901875,0.00535615638341369,0.002073,-0.035326,-0.005262,0.099611,-1.607952,327.236187,21.205526,0.999059,0.979129,0.005593,0.394123,0.000484,0.000444,-0.000056,0.000524,0.000405,-35.095761,0.000931,
2236,3073,-0.562490672333755,9.27775552466073,0.0199563163356515,0.003414,-0.032905,0.009802,0.113282,-1.445738,314.018265,23.404366,0.999681,0.991924,0.003468,0.444734,0.000002,0.000004,-0.000009,0.000012,-0.000006,-48.070346,0.000012,
2206,2923,-1.18930000676777,6.02027248896442,-0.000990385505190261,0.003092,-0.033122,0.008879,0.102216,-1.458394,316.355433,23.174228,0.999381,0.989620,0.004023,0.395969,0.000017,0.000020,0.000007,0.000026,0.000011,51.044074,0.000038,
2446,2053,4.20584166773182,-12.9855772990637,0.0233074029580962,0.003063,-0.038640,-0.008613,0.155852,-1.786589,330.622311,20.230572,0.998606,0.978069,0.005914,0.403792,0.000932,0.000776,-0.000053,0.000948,0.000760,-17.071420,0.001712,
2356,2068,2.23354204949148,-12.6527336224548,0.027531969316442,0.000838,-0.037175,-0.009003,0.055233,-1.705725,330.209147,20.959836,0.998972,0.978892,0.005602,0.386354,0.000810,0.000798,-0.000020,0.000825,0.000783,-36.556015,0.001608,
2221,3028,-0.880811057078496,8.30029435635472,0.0124430545216114,0.003226,-0.032925,0.008574,0.109034,-1.449587,314.722223,23.286529,0.999619,0.993525,0.003313,0.451242,0.000004,0.000012,-0.000011,0.000019,-0.000003,-54.556354,0.000021,
2146,2428,-2.41249896761446,-4.76272353099119,-0.0116177160544453,0.001096,-0.033617,0.000371,0.037716,-1.501661,324.432955,22.733173,0.999021,0.986391,0.004819,0.395919,0.000213,0.000131,0.000016,0.000216,0.000128,10.305556,0.000348,
2416,2008,3.55924790973515,-13.9768473879482,0.0432062921595957,0.002544,-0.040207,-0.002479,0.108816,-1.813046,331.414771,20.198145,0.998990,0.971703,0.006424,0.451687,0.001008,0.000843,-0.000012,0.001008,0.000843,-4.123538,0.001854,
2431,2023,3.88298560374585,-13.6427738726145,0.0180142648636092,0.002520,-0.038989,-0.011241,0.140410,-1.822032,331.017411,20.321128,0.998894,0.975560,0.006041,0.269366,0.001002,0.000807,-0.000022,0.001005,0.000805,-6.345669,0.001813,
2476,2428,4.7816220923115,-4.76038656534813,-0.00217480717941498,0.001987,-0.034235,-0.001329,0.081492,-1.520394,324.333549,21.716201,0.999252,0.986254,0.004798,0.466149,0.000258,0.000145,-0.000018,0.000261,0.000142,-8.713857,0.000409,
2386,3088,2.69284506327675,9.61375973442833,0.0219302866988755,0.003328,-0.033709,0.010488,0.101728,-1.492539,313.656148,23.935968,0.999375,0.989518,0.004041,0.440823,0.000013,0.000014,0.000009,0.000022,0.000004,47.294122,0.000028,
2161,2713,-2.13342979132372,1.45243772057651,-0.022997844695567,0.001934,-0.033118,0.002761,0.068951,-1.467808,319.698453,22.919026,0.999383,0.989301,0.004102,0.409547,0.000056,0.000052,-0.000014,0.000068,0.000040,-40.732232,0.000109,
2296,3163,0.72548563043576,11.2337734371835,0.0438189551259143,0.003469,-0.033274,0.010860,0.110303,-1.451210,312.641565,23.809690,0.999618,0.992232,0.003619,0.419957,0.000006,0.000016,-0.000002,0.000016,0.000006,-76.580330,0.000023,
2431,1993,3.88952585356943,-14.3026497084527,0.0203792905315368,0.002808,-0.039792,-0.012492,0.157832,-1.877382,331.538369,20.230115,0.999137,0.975624,0.005962,0.197473,0.001082,0.000870,0.000021,0.001084,0.000868,5.690557,0.001956,
2161,2488,-2.0960912328185,-3.45215473811356,-0.0218217796753493,0.001371,-0.032756,-0.003426,0.062135,-1.455378,323.346479,22.662273,0.999052,0.985644,0.004857,0.517280,0.000157,0.000089,0.000014,0.000159,0.000086,11.520996,0.000249,
2356,3013,2.0539555122782,7.98444744420208,0.00627475188952076,0.003062,-0.033205,0.006993,0.103033,-1.465383,314.741954,23.677887,0.999542,0.990423,0.003897,0.425561,-0.000001,0.000008,0.000001,0.000008,-0.000001,83.444854,0.000009,
2116,2503,-3.07702557212722,-3.12648210519885,-0.0193242519150658,0.001650,-0.032899,-0.003520,0.075223,-1.475393,323.319534,22.744991,0.998919,0.984295,0.004852,0.517566,0.000167,0.000064,0.000015,0.000170,0.000061,8.269991,0.000239,
2341,3073,1.71749515151128,9.28566353353708,0.0139047759294044,0.003424,-0.033545,0.008079,0.116200,-1.480686,313.839318,23.770869,0.999599,0.993567,0.003290,0.415802,0.000000,0.000015,0.000001,0.000015,0.000000,86.229565,0.000018,
2401,2338,3.16238520881236,-6.73073148132937,0.00116774255127439,0.001159,-0.034588,-0.005032,0.057208,-1.567601,325.660459,21.631426,0.998847,0.980904,0.005176,0.433176,0.000336,0.000282,-0.000006,0.000337,0.000281,-6.657958,0.000619,
2491,2653,5.0610801940866,0.156652859053771,-0.0187865772910527,0.002379,-0.034074,0.007060,0.067436,-1.489874,320.561640,22.643264,0.999396,0.987632,0.004413,0.425353,0.000086,0.000034,0.000003,0.000086,0.000034,3.674181,0.000123,
2371,3178,2.35114980840985,11.5657366439256,0.0300955006456434,0.003992,-0.033225,0.007159,0.144951,-1.477422,312.285797,24.138461,0.999543,0.991162,0.003662,0.437804,0.000011,0.000020,0.000007,0.000024,0.000007,60.050513,0.000033,
2266,2983,0.103394399574466,7.32679708418451,0.0034027427542469,0.002901,-0.033269,0.008886,0.091607,-1.454883,315.268644,23.353867,0.999625,0.992518,0.003628,0.444042,0.000006,0.000008,-0.000006,0.000013,0.000002,-50.382029,0.000016,
2461,2368,4.46680436750924,-6.07248923326701,0.00164042457595315,0.002162,-0.034359,-0.000823,0.087600,-1.527175,325.308317,21.617699,0.999581,0.987037,0.004896,0.376154,0.000344,0.000240,-0.000025,0.000350,0.000234,-12.933300,0.000588,
2431,2488,3.78669636619756,-3.44973786313943,-0.00695055403156175,0.001854,-0.034892,0.004479,0.054003,-1.560796,323.198906,22.046772,0.999126,0.981603,0.005047,0.428243,0.000185,0.000090,-0.000003,0.000185,0.000090,-1.540066,0.000281,
2386,2293,2.84399604698007,-7.71544161231859,-0.000518773986982524,0.001567,-0.034776,-0.005030,0.075743,-1.571835,326.378625,21.556531,0.999843,0.994134,0.003366,0.423645,0.000389,0.000353,-0.000014,0.000394,0.000348,-18.382721,0.000742,
2371,2278,2.51996025173561,-8.04464436411697,0.0133038939438279,0.000991,-0.035308,-0.004806,0.048327,-1.601672,326.699164,21.669711,0.999828,0.993659,0.003541,0.299062,0.000402,0.000371,-0.000013,0.000407,0.000366,-20.194142,0.000773,
2266,3223,0.0629618793772444,12.5327229670893,0.0333085674362223,0.003654,-0.032866,0.009020,0.126055,-1.454902,311.628681,23.760686,0.999789,0.995271,0.003085,0.429319,0.000007,0.000009,0.000002,0.000010,0.000006,58.102349,0.000016,
2446,2068,4.20203367485488,-12.6548777876033,0.0191926653319001,0.002631,-0.038063,-0.008317,0.135230,-1.746773,330.324734,20.320452,0.998645,0.976084,0.006149,0.409819,0.000888,0.000761,-0.000061,0.000912,0.000736,-21.869140,0.001652,
2356,2263,2.19444239233779,-8.37269180122346,0.000214736789871495,0.000924,-0.034845,-0.005969,0.049481,-1.587747,326.827992,21.577812,0.999240,0.983237,0.005157,0.429091,0.000411,0.000376,-0.000026,0.000424,0.000362,-27.859691,0.000787,
2146,2638,-2.44768956704322,-0.181312352328405,-0.0262012636323448,0.001645,-0.033017,0.005328,0.048165,-1.455479,320.924002,22.836000,0.999656,0.991574,0.003813,0.463730,0.000094,0.000042,-0.000004,0.000094,0.000042,-4.535499,0.000139,
2341,2188,1.88158281824865,-10.0155353288796,0.000643780170321406,0.001224,-0.035611,-0.007759,0.069052,-1.636870,328.060703,21.493121,0.999123,0.984880,0.005043,0.335605,0.000533,0.000544,-0.000021,0.000560,0.000517,-52.672180,0.001077,
2416,2023,3.55435162499376,-13.6421628616508,0.0245999994207864,0.001771,-0.039024,-0.006856,0.089916,-1.788379,330.997068,20.483528,0.998615,0.973581,0.006294,0.243291,0.000969,0.000819,-0.000028,0.000974,0.000814,-10.161835,0.001791,
2176,2803,-1.82210735764442,3.41071178343662,-0.0142156265354743,0.001970,-0.032496,0.004426,0.065479,-1.427692,318.253878,22.958132,0.999444,0.989127,0.004305,0.484877,0.000033,0.000051,-0.000012,0.000057,0.000027,-63.422961,0.000086,
2431,2038,3.87988833724031,-13.3139008432443,0.0259172332304729,0.002210,-0.038823,-0.005652,0.105769,-1.780766,330.806715,20.366693,0.998790,0.975149,0.006119,0.318619,0.000954,0.000788,-0.000032,0.000960,0.000782,-10.523512,0.001745,
2326,3058,1.39452031218437,8.95861532452198,0.0162838183992449,0.003382,-0.033204,0.008558,0.113210,-1.451197,314.107250,23.649336,0.999636,0.993087,0.003396,0.480403,0.000001,0.000014,0.000001,0.000014,0.000001,86.507197,0.000016,
2476,2443,4.77811849357614,-4.43127284729857,-0.00989997129528319,0.002115,-0.034138,-0.002253,0.090896,-1.530738,324.034637,21.817476,0.999107,0.985016,0.004934,0.412827,0.000247,0.000125,-0.000010,0.000248,0.000124,-4.805905,0.000379,
2461,2638,4.41007230029997,-0.171270942940332,-0.0250427607671213,0.002198,-0.033608,-0.000580,0.088858,-1.501742,320.700546,22.598944,0.999488,0.988784,0.004173,0.421374,0.000107,0.000032,0.000010,0.000108,0.000030,7.724393,0.000146,
2296,2008,0.931657959133652,-13.9689705647355,0.0222531642752983,-0.000494,-0.039188,-0.005572,-0.018679,-1.792434,331.074852,21.188116,0.999021,0.976359,0.006003,0.320052,0.000844,0.000891,-0.000032,0.000907,0.000828,-63.127684,0.001736,
2356,3133,2.03321209350625,10.5882987214756,0.0318444287559601,0.003405,-0.033377,0.010180,0.107643,-1.460383,312.997576,23.976995,0.999490,0.990855,0.003888,0.434386,0.000009,0.000014,0.000005,0.000018,0.000006,57.933420,0.000025,
2446,2083,4.19815175414873,-12.3242219323043,0.0148450106406131,0.002374,-0.038364,-0.005289,0.112107,-1.731435,330.022748,20.434343,0.998679,0.974777,0.006350,0.367109,0.000847,0.000737,-0.000066,0.000878,0.000706,-24.988944,0.001587,
2221,2788,-0.840661554470035,3.08577581485808,-0.0124500829580825,0.002668,-0.032915,0.001469,0.106025,-1.475737,318.421331,22.968618,0.999446,0.990432,0.004006,0.447925,0.000029,0.000059,-0.000003,0.000060,0.000029,-83.934684,0.000090,
2476,2713,4.72195790275645,1.46341306124489,-0.0217464544264203,0.002476,-0.033936,0.004199,0.083245,-1.495961,319.536567,22.768945,0.999616,0.988857,0.004267,0.531077,0.000064,0.000040,0.000021,0.000076,0.000027,30.316938,0.000107,
2311,3253,1.03389638629829,13.1873675113675,0.0266889435911253,0.004214,-0.033320,0.011053,0.143370,-1.476403,311.040886,24.055291,0.999517,0.991402,0.003558,0.400955,0.000014,-0.000001,0.000006,0.000016,-0.000003,19.592334,0.000017,
2371,3088,2.36735231022824,9.61278773812833,0.0226879046379622,0.003591,-0.033527,0.008225,0.122500,-1.490915,313.675786,23.902703,0.999315,0.989059,0.004168,0.420142,0.000011,0.000010,0.000004,0.000014,0.000006,42.007964,0.000021,
2371,2113,2.55122677003967,-11.6627262081265,0.00633366984419581,0.001048,-0.036912,-0.008072,0.061798,-1.694513,329.319567,21.016937,0.998994,0.976324,0.005844,0.378685,0.000721,0.000706,-0.000029,0.000744,0.000684,-37.922816,0.001428,
2386,3223,2.66796876044948,12.5431530466403,0.0331907268183045,0.003523,-0.033378,0.008491,0.118154,-1.482384,311.553845,24.350008,0.999503,0.992598,0.003466,0.415564,0.000012,0.000017,0.000010,0.000025,0.000005,51.974788,0.000031,
2311,2968,1.0853054855972,7.00406844516549,0.00836931452005274,0.003523,-0.033063,0.002602,0.140386,-1.482059,315.548304,23.519544,0.999904,0.997265,0.002578,0.339678,0.000004,0.000005,0.000001,0.000006,0.000003,52.850461,0.000008,
2206,2938,-1.19175679788598,6.34580980361808,-0.00117879255924436,0.003013,-0.032769,0.005523,0.109337,-1.450187,316.116649,23.147362,0.999422,0.991514,0.003759,0.447438,0.000012,0.000016,0.000006,0.000021,0.000007,54.459785,0.000029,
2461,2398,4.45961672228878,-5.41673003339844,-0.00187947035817615,0.001467,-0.034807,0.000867,0.049235,-1.531869,324.754539,21.653572,0.999548,0.986033,0.004829,0.448225,0.000296,0.000202,-0.000029,0.000305,0.000194,-15.874789,0.000503,
2161,2503,-2.09892718813465,-3.12409432117552,-0.0295083700066812,0.001691,-0.032998,-0.001125,0.069718,-1.474386,323.047265,22.694796,0.998892,0.984865,0.005009,0.477297,0.000154,0.000076,0.000012,0.000156,0.000074,8.682456,0.000235,
2401,2113,3.20820075715462,-11.6640378690496,0.0177603253129632,0.001832,-0.037184,-0.005189,0.087422,-1.670964,329.466042,20.868219,0.998804,0.974048,0.006218,0.372235,0.000742,0.000708,-0.000050,0.000778,0.000672,-35.556459,0.001451,
2446,2323,4.148217662415,-7.05823293242021,-0.00155225772687118,0.001985,-0.034051,-0.004292,0.092587,-1.539110,325.984536,21.408674,0.999231,0.979018,0.005404,0.462834,0.000378,0.000303,-0.000028,0.000387,0.000294,-18.695893,0.000683,
2356,2083,2.22987680335078,-12.3206101782117,0.0106000515599476,0.001370,-0.036838,-0.008404,0.077619,-1.683195,329.847834,21.059950,0.999314,0.981728,0.005215,0.351654,0.000775,0.000777,-0.000025,0.000800,0.000751,-46.366894,0.001552,
2386,3103,2.69049931918752,9.93913745548766,0.0240271336378441,0.003493,-0.033588,0.007641,0.119674,-1.485107,313.446118,23.955820,0.999066,0.987783,0.004277,0.470537,0.000016,0.000020,0.000010,0.000029,0.000008,50.366290,0.000039,
2401,2353,3.15886128423233,-6.40123649166801,-0.00471631265190808,0.001147,-0.034456,-0.003554,0.051367,-1.552303,325.362091,21.725623,0.998603,0.980861,0.005325,0.401971,0.000321,0.000267,0.000001,0.000321,0.000267,0.656851,0.000589,
2236,3088,-0.564443713384112,9.60350608417862,0.0207094476620568,0.003792,-0.032842,0.005904,0.143369,-1.456991,313.809371,23.462636,0.999554,0.991941,0.003526,0.395230,-0.000002,0.000002,-0.000011,0.000011,-0.000011,-50.201382,0.000013,
2506,2623,5.39553862323141,-0.499886994929533,-0.0135385918501925,0.002603,-0.033850,0.001109,0.100387,-1.513196,321.172283,22.346287,0.999846,0.993950,0.003476,0.566322,0.000098,0.000012,-0.000008,0.000099,0.000011,-5.481304,0.000121,
2356,2278,2.19058350858527,-8.04240348024192,-0.0157764414791473,0.000961,-0.034388,-0.008254,0.059416,-1.586258,326.461662,21.627719,0.999439,0.987773,0.004492,0.422304,0.000386,0.000359,-0.000018,0.000395,0.000350,-26.791689,0.000746,
2386,2113,2.87953929697148,-11.6628018070701,0.00782269156746906,0.001603,-0.036733,-0.006880,0.083173,-1.677446,329.363784,20.944191,0.998470,0.968330,0.006603,0.379278,0.000733,0.000707,-0.000039,0.000761,0.000679,-35.902587,0.001440,
2461,2383,4.46300937087736,-5.74409243807673,-0.00450669264097314,0.001922,-0.034558,-0.000646,0.075889,-1.528065,325.002147,21.636582,0.999589,0.986395,0.004866,0.412697,0.000322,0.000210,-0.000032,0.000331,0.000202,-14.900561,0.000538,
2146,2653,-2.44958707940409,0.144593539282852,-0.0228036823500588,0.001963,-0.033262,0.004899,0.064013,-1.469440,320.725454,22.811629,0.999661,0.990192,0.003925,0.482240,0.000089,0.000047,-0.000004,0.000090,0.000046,-5.754611,0.000138,
2416,2038,3.55071470119546,-13.3129484048937,0.0182083452643269,0.001779,-0.038768,-0.004449,0.081652,-1.759917,330.694125,20.411727,0.998497,0.973582,0.006345,0.395256,0.000925,0.000797,-0.000035,0.000934,0.000788,-14.339994,0.001724,
2371,3193,2.34870636727578,11.8906761819141,0.03767391692827,0.003922,-0.033374,0.008238,0.137827,-1.477115,312.096410,24.179005,0.999474,0.991595,0.003652,0.437260,0.000013,0.000019,0.000008,0.000025,0.000008,56.059600,0.000034,
2431,2263,3.83201955320682,-8.37198904916231,-0.00261435473794336,0.001838,-0.035638,0.000247,0.068466,-1.610457,326.895335,21.320008,0.999025,0.979182,0.005629,0.329849,0.000458,0.000408,-0.000058,0.000496,0.000369,-33.367147,0.000869,
2326,3073,1.39189504512706,9.28489072405251,0.0194123050926578,0.003382,-0.033268,0.009284,0.110619,-1.462933,313.885235,23.769605,0.999637,0.994570,0.003073,0.381609,0.000003,0.000014,0.000001,0.000014,0.000003,87.193905,0.000018,
2416,2428,3.47179450988359,-4.75986762681227,-0.0106208020122267,0.001895,-0.034100,-0.004251,0.088372,-1.553522,324.152765,21.963483,0.999448,0.985932,0.004737,0.356215,0.000230,0.000168,0.000009,0.000231,0.000167,7.924769,0.000400,
2281,3088,0.412221066757134,9.60612069048852,0.0208077898618626,0.003428,-0.033323,0.005097,0.128097,-1.484783,313.712928,23.581457,0.999690,0.991918,0.003753,0.414740,0.000001,0.000007,-0.000011,0.000016,-0.000007,-53.168699,0.000016,
2476,2458,4.77507448832725,-4.10412446388187,-0.00174502743732319,0.001973,-0.034549,0.004037,0.060344,-1.532882,323.828916,21.884224,0.999150,0.985988,0.004793,0.401715,0.000239,0.000107,-0.000013,0.000241,0.000106,-5.739323,0.000355,
2296,3178,0.722780961547841,11.5591478366078,0.0384862750773891,0.003807,-0.033224,0.009351,0.130926,-1.468039,312.371921,23.825353,0.999582,0.992503,0.003566,0.416367,0.000009,0.000014,-0.000002,0.000015,0.000008,-70.272257,0.000024,
2266,3238,0.0607024057641006,12.8570144957217,0.0344572003809276,0.004050,-0.033146,0.009336,0.143124,-1.473760,311.409995,23.732115,0.999783,0.994450,0.003164,0.463215,0.000007,0.000000,0.000005,0.000009,-0.000003,27.279274,0.000010,
2371,2128,2.54856041883794,-11.3333945619864,0.00314349147652138,0.001211,-0.036091,-0.011623,0.082153,-1.654998,329.071283,21.015526,0.999146,0.979661,0.005573,0.463774,0.000691,0.000689,-0.000029,0.000719,0.000661,-44.000844,0.001380,
2446,2098,4.19494798203699,-11.9935103618421,0.00605999558240455,0.002296,-0.036990,-0.012648,0.136497,-1.724223,329.731432,20.518703,0.999202,0.978456,0.005895,0.345540,0.000809,0.000709,-0.000073,0.000848,0.000671,-27.797222,0.001522,
2491,2788,5.03344143701569,3.10045164473054,-0.0261917720989686,0.002722,-0.033521,0.002942,0.099301,-1.492136,318.330336,23.209984,0.999198,0.987105,0.004383,0.388551,0.000040,0.000017,-0.000005,0.000041,0.000015,-11.837206,0.000058,
2386,3238,2.66439629659883,12.8692266080216,0.0205454231081603,0.003792,-0.033139,0.007780,0.133153,-1.477681,311.216242,24.386216,0.999559,0.992433,0.003426,0.426129,0.000010,0.000010,0.000007,0.000017,0.000003,46.710509,0.000022,
2446,2563,4.09880137198455,-1.80910715322072,-0.0161820163239668,0.002190,-0.033708,0.000039,0.086211,-1.504593,321.961241,22.359140,0.999567,0.988239,0.004410,0.404980,0.000151,0.000040,0.000012,0.000152,0.000039,6.314367,0.000202,
2506,2383,5.44722649857615,-5.74497760599973,0.00271563297229704,0.002768,-0.034285,-0.003031,0.123531,-1.557683,325.231897,21.468030,0.998421,0.979488,0.005675,0.403247,0.000356,0.000194,-0.000037,0.000364,0.000186,-12.304119,0.000560,
2206,2953,-1.19477282598869,6.67196521183975,-0.00794289620694144,0.003064,-0.032604,0.005508,0.111834,-1.439423,315.817943,23.133114,0.999445,0.991749,0.003711,0.488717,0.000008,0.000016,0.000004,0.000018,0.000007,69.075082,0.000025,
2491,2668,5.05848697334958,0.482809736815305,-0.0182935989445241,0.002576,-0.034061,0.004182,0.087501,-1.509791,320.342202,22.632419,0.999359,0.986474,0.004502,0.475528,0.000082,0.000018,0.000000,0.000082,0.000018,-0.072623,0.000107,
2476,2473,4.77106130494164,-3.77466255000753,-0.0222418105503266,0.002327,-0.034234,-0.000781,0.095015,-1.541735,323.448499,21.908951,0.999491,0.989360,0.004239,0.426750,0.000214,0.000100,-0.000016,0.000216,0.000097,-7.960023,0.000321,
2251,2923,-0.211555752876798,6.02224608070917,0.00142140422872217,0.003029,-0.033047,0.006512,0.105790,-1.455329,316.272199,23.213309,0.999626,0.992745,0.003570,0.453600,0.000013,0.000022,0.000002,0.000022,0.000013,78.615373,0.000036,
2341,3088,1.71405710644045,9.61121661712518,0.0125674129461686,0.003115,-0.033607,0.010702,0.092809,-1.477053,313.559302,23.785122,0.999522,0.993771,0.003286,0.440851,0.000002,0.000010,-0.000005,0.000012,0.000000,-64.631437,0.000014,
2506,2638,5.39207168728507,-0.171448666663892,-0.0138621716978378,0.002440,-0.033938,0.003002,0.085559,-1.517661,320.909884,22.513295,0.999694,0.991524,0.003909,0.456353,0.000081,0.000037,-0.000007,0.000082,0.000036,-8.615054,0.000121,
2416,2188,3.5214007947612,-10.0173338089574,0.0131687846952104,0.001973,-0.035286,-0.009573,0.110723,-1.639803,328.258839,21.143455,0.999179,0.982564,0.005145,0.292168,0.000581,0.000554,-0.000061,0.000630,0.000506,-38.593291,0.001138,
2356,3148,2.03074431423797,10.9132599460385,0.0355961494471444,0.003536,-0.033683,0.010626,0.111933,-1.483304,312.787935,24.009121,0.999514,0.991401,0.003796,0.416933,0.000007,0.000014,0.000006,0.000017,0.000004,60.471087,0.000022,
2506,2863,5.34493008607643,4.73358884311511,-0.0229490529442273,0.002975,-0.033952,0.007095,0.094462,-1.497096,317.171462,23.473490,0.999745,0.992144,0.003529,0.435725,0.000023,0.000003,0.000004,0.000023,0.000002,11.286753,0.000028,
2431,2503,3.78423060090219,-3.12258617339025,-0.00377064942989591,0.001920,-0.034538,0.002230,0.065480,-1.540864,322.993611,22.058683,0.999311,0.985625,0.004606,0.487359,0.000174,0.000086,-0.000006,0.000174,0.000085,-4.141578,0.000264,
2311,3268,1.03086691752251,13.5131231427105,0.0189243073849639,0.004314,-0.032917,0.007850,0.159159,-1.454317,310.745038,24.080338,0.999523,0.992458,0.003378,0.428798,0.000016,-0.000007,0.000007,0.000018,-0.000009,16.245100,0.000018,
2431,2053,3.87733998228304,-12.9831824809052,0.0168621842728385,0.003065,-0.038268,-0.009544,0.159413,-1.782520,330.542860,20.438253,0.998517,0.974688,0.006266,0.298612,0.000912,0.000791,-0.000039,0.000924,0.000780,-16.581359,0.001705,
2356,2098,2.22583787612825,-11.9908328170718,0.00772103025934712,0.000770,-0.037008,-0.003453,0.032748,-1.673560,329.537011,21.121006,0.999248,0.980458,0.005399,0.342750,0.000738,0.000741,-0.000030,0.000769,0.000710,-46.271865,0.001480,
2506,2398,5.44279771165956,-5.41586658944696,-0.00693686002568938,0.002498,-0.034753,-0.000471,0.101110,-1.564475,324.885181,21.530488,0.998434,0.981633,0.005386,0.397083,0.000333,0.000172,-0.000027,0.000337,0.000167,-9.227783,0.000514,
2341,2203,1.87874908818743,-9.68687874731808,-0.00181343930711364,0.001174,-0.035032,-0.010417,0.076245,-1.610868,327.805374,21.479168,0.998942,0.982222,0.005403,0.414859,0.000507,0.000508,-0.000019,0.000527,0.000488,-45.369825,0.001015,
2401,2368,3.15617821946461,-6.07377104853985,-0.00296482607154758,0.001612,-0.034943,0.001103,0.055672,-1.557409,325.138489,21.734435,0.998618,0.980423,0.005322,0.435219,0.000304,0.000246,0.000006,0.000305,0.000246,6.259273,0.000552,
2416,2053,3.54886015879747,-12.9834173853266,0.0189418561179764,0.002329,-0.038344,-0.010560,0.129246,-1.791884,330.506228,20.514891,0.998387,0.974178,0.006347,0.311097,0.000887,0.000798,-0.000039,0.000902,0.000783,-20.592645,0.001686,
2446,2113,4.19260251276802,-11.6649394266784,0.0144020217379648,0.002366,-0.036515,-0.011497,0.135631,-1.685877,329.557945,20.569833,0.999331,0.978101,0.005847,0.387884,0.000777,0.000694,-0.000070,0.000817,0.000654,-29.640014,0.001474,
2461,2653,4.40744899521912,0.155641047245339,-0.0204620693763786,0.002405,-0.033737,0.001606,0.090049,-1.500724,320.495959,22.666459,0.999528,0.988779,0.004121,0.409822,0.000092,0.000031,0.000012,0.000094,0.000029,10.716836,0.000128,
2491,2803,5.03061483723411,3.42673957467734,-0.0244847596786713,0.003025,-0.033696,0.005297,0.104080,-1.490224,318.104791,23.239688,0.999184,0.986330,0.004643,0.419670,0.000038,0.000011,-0.000006,0.000039,0.000010,-12.692183,0.000052,
2326,2833,1.43297716113607,4.07242311922018,-0.0233660573813381,0.002662,-0.033093,0.005861,0.089286,-1.453835,317.423077,23.253451,0.999835,0.992840,0.003544,0.365992,0.000018,0.000046,0.000006,0.000047,0.000017,77.845312,0.000066,
2221,2803,-0.844152991514491,3.41320963810718,-0.0224204441470874,0.002666,-0.032971,0.003950,0.098001,-1.461199,318.085588,22.996736,0.999327,0.988346,0.004279,0.453426,0.000029,0.000060,-0.000004,0.000060,0.000029,-82.691871,0.000091,
2416,2443,3.46858184325837,-4.43253463293318,-0.00884733137922922,0.001774,-0.034139,-0.000638,0.069608,-1.530752,323.905720,21.957544,0.999461,0.986680,0.004618,0.434245,0.000219,0.000151,0.000014,0.000222,0.000148,11.012710,0.000372,
2161,2728,-2.13575416359134,1.77848813315622,-0.0248916231784051,0.002233,-0.032956,0.002693,0.082957,-1.467973,319.453402,22.873385,0.999473,0.989205,0.004164,0.465533,0.000049,0.000052,-0.000014,0.000065,0.000037,-48.736252,0.000103,
2311,2983,1.08261035305347,7.32884487872206,0.0131388462376663,0.003371,-0.033085,0.004331,0.127454,-1.489134,315.330916,23.485546,0.999706,0.994653,0.003087,0.398007,0.000003,0.000004,0.000001,0.000004,0.000003,61.153148,0.000007,
2446,2338,4.14577250602929,-6.73041747054354,0.00710592902078133,0.002037,-0.034725,-0.001902,0.085849,-1.555674,325.807271,21.519404,0.999136,0.979782,0.005347,0.389380,0.000365,0.000289,-0.000025,0.000372,0.000282,-16.648019,0.000656,
2236,3103,-0.567279837943055,9.92789687814587,0.0213018634254354,0.003686,-0.033103,0.007520,0.133092,-1.479368,313.559513,23.409751,0.999480,0.992562,0.003529,0.445960,-0.000004,0.000006,-0.000013,0.000015,-0.000013,-55.838148,0.000016,
2476,2728,4.71917372953293,1.79142058757732,-0.0176903161624864,0.002508,-0.033897,0.005326,0.080428,-1.500304,319.322605,22.959593,0.999569,0.990461,0.003809,0.392967,0.000054,0.000052,0.000023,0.000076,0.000030,43.503030,0.000109,
2326,3088,1.38963470376385,9.60888172948099,0.0252476677297864,0.003501,-0.033364,0.009561,0.115080,-1.470179,313.693968,23.695657,0.999552,0.994163,0.003246,0.481606,0.000004,0.000008,-0.000005,0.000011,0.000000,-56.024365,0.000014,
2461,2413,4.4579449730875,-5.08935902244529,0.000635532000046624,0.002472,-0.034475,-0.000839,0.101860,-1.530373,324.585346,21.669275,0.999458,0.986194,0.004831,0.489752,0.000271,0.000178,-0.000026,0.000278,0.000172,-14.514894,0.000453,
2506,2653,5.38799394007569,0.157471872614536,-0.0229454156047382,0.002338,-0.034109,0.004044,0.076836,-1.503729,320.580034,22.637437,0.999476,0.987355,0.004586,0.407956,0.000072,0.000039,-0.000002,0.000072,0.000039,-3.507033,0.000112,
2491,2683,5.05459874217751,0.810901397095876,-0.0268028339816055,0.002373,-0.034021,0.002835,0.083429,-1.501288,320.022132,22.701296,0.999598,0.989483,0.004021,0.474831,0.000087,0.000031,0.000008,0.000088,0.000030,8.166411,0.000122,
2311,2698,1.1320355282753,1.12941886261561,-0.014089692198695,0.002223,-0.033854,0.004483,0.073832,-1.482439,319.693318,22.759216,0.999726,0.991923,0.003730,0.523482,0.000046,0.000065,0.000015,0.000073,0.000038,60.666356,0.000113,
2356,2293,2.18787780880768,-7.71315678970661,-0.0224437258228818,0.001057,-0.034788,-0.015505,0.089112,-1.566369,326.192944,21.665102,0.999625,0.992205,0.004073,0.445906,0.000365,0.000342,-0.000012,0.000369,0.000337,-22.633296,0.000706,
2266,2998,0.10138873509651,7.65208883343878,0.0075454985959027,0.003148,-0.033208,0.006838,0.109764,-1.463589,315.076819,23.368011,0.999422,0.990838,0.003837,0.446276,0.000003,0.000011,-0.000009,0.000017,-0.000002,-57.067420,0.000019,
2431,2278,3.82901278176277,-8.04443803637963,-0.00420738424736555,0.001726,-0.035226,-0.002229,0.072625,-1.596969,326.644075,21.254458,0.998998,0.977544,0.005883,0.461044,0.000427,0.000381,-0.000045,0.000455,0.000353,-31.586485,0.000810,
2266,3253,0.0580528481570788,13.1825397917468,0.034621614709863,0.004440,-0.033484,0.013912,0.145865,-1.463080,311.167906,23.786004,0.999745,0.993469,0.003384,0.444093,0.000006,-0.000006,0.000010,0.000012,-0.000012,30.166420,0.000014,
2386,2308,2.8404522951285,-7.38638634363002,-0.01033459462883,0.001682,-0.034431,-0.005067,0.081328,-1.559297,326.059573,21.557305,0.999780,0.993774,0.003487,0.480976,0.000371,0.000323,-0.000008,0.000372,0.000322,-9.302466,0.000695,
2401,2128,3.20637874273745,-11.3350860409434,0.025378708364542,0.002381,-0.036950,-0.004513,0.110215,-1.683960,329.310291,21.001043,0.999132,0.978899,0.005628,0.274417,0.000713,0.000689,-0.000050,0.000753,0.000650,-38.421305,0.001403,
2371,3208,2.34554615178491,12.2157551924504,0.0354841859177668,0.003905,-0.033401,0.009463,0.132671,-1.478236,311.827021,24.180003,0.999341,0.991816,0.003766,0.474811,0.000015,0.000022,0.000010,0.000030,0.000008,54.905636,0.000039,
2371,2143,2.54592232784188,-11.0037529250471,0.00341590941354752,0.001387,-0.036032,-0.012042,0.091763,-1.658733,328.840911,21.128710,0.998989,0.977612,0.005767,0.390894,0.000657,0.000640,-0.000033,0.000683,0.000614,-37.613492,0.001297,
2506,2413,5.44046983771807,-5.08839204460511,-0.00263224344809032,0.002642,-0.034108,-0.003662,0.120344,-1.541650,324.697182,21.552241,0.998923,0.982708,0.005265,0.460801,0.000312,0.000140,-0.000018,0.000314,0.000138,-5.809318,0.000464,
2431,2068,3.87384891588602,-12.6526242409888,0.0111964578433117,0.002881,-0.037533,-0.011209,0.157396,-1.733167,330.251130,20.488757,0.998284,0.971358,0.006682,0.351433,0.000868,0.000774,-0.000048,0.000888,0.000754,-22.752259,0.001644,
2491,2818,5.02791378095339,3.75267381765131,-0.0207262281313092,0.003081,-0.033714,0.005305,0.106602,-1.497537,317.894289,23.265886,0.999138,0.987584,0.004635,0.444867,0.000034,0.000003,0.000002,0.000034,0.000003,3.065044,0.000040,
2461,2668,4.40433971288768,0.482031634229479,-0.0211203450690505,0.002494,-0.033782,0.003101,0.088507,-1.509669,320.245139,22.656463,0.999467,0.986362,0.004379,0.465621,0.000089,0.000024,0.000009,0.000090,0.000023,7.822907,0.000119,
2281,3103,0.409452146847595,9.93205231868028,0.018380625616885,0.003673,-0.033174,0.006509,0.134706,-1.474699,313.453621,23.619862,0.999602,0.992388,0.003649,0.413455,0.000003,0.000013,-0.000012,0.000021,-0.000004,-56.877964,0.000022,
2371,2293,2.51753133599982,-7.71675616557391,0.0140225083499104,0.001356,-0.035120,-0.004917,0.065524,-1.566293,326.479986,21.639837,0.999791,0.993862,0.003508,0.407703,0.000382,0.000350,-0.000006,0.000383,0.000349,-10.244730,0.000732,
2416,2458,3.46561441309091,-4.10426502173055,-0.0151455010708332,0.002236,-0.034177,-0.000955,0.091929,-1.537404,323.632143,21.996333,0.999344,0.985859,0.004773,0.437993,0.000208,0.000131,0.000012,0.000210,0.000130,8.340369,0.000343,
2476,2743,4.71573088969062,2.11839624541624,-0.025508227365151,0.002553,-0.033794,0.002775,0.092287,-1.496995,319.024571,22.957041,0.999733,0.991898,0.003604,0.455609,0.000050,0.000063,0.000021,0.000079,0.000034,53.526539,0.000115,
2356,3163,2.02818493458466,11.2384235215156,0.0376897035438333,0.003474,-0.033311,0.008102,0.118093,-1.475805,312.565934,24.022932,0.999475,0.991280,0.003934,0.448289,0.000008,0.000018,0.000006,0.000021,0.000005,64.407194,0.000028,
2506,2668,5.3856405039706,0.483419544863288,-0.01882089186131,0.002619,-0.033966,0.002700,0.094995,-1.500095,320.388980,22.614463,0.999348,0.985705,0.004783,0.496190,0.000071,0.000019,-0.000004,0.000071,0.000019,-4.927727,0.000095,
2341,3103,1.71290872653303,9.93608956370282,0.0259240365654705,0.003668,-0.033424,0.009287,0.123293,-1.462605,313.456331,23.822219,0.999458,0.992623,0.003602,0.453856,0.000008,0.000017,-0.000003,0.000018,0.000007,-71.478768,0.000025,
2251,2938,-0.214379313843484,6.34759432866856,6.76282386393723E-05,0.003031,-0.033015,0.007316,0.103194,-1.463692,316.014072,23.177994,0.999601,0.993457,0.003394,0.503144,0.000009,0.000017,0.000001,0.000018,0.000009,84.790199,0.000027,
2476,2488,4.76859964356968,-3.44727254200316,-0.0163627718102362,0.002001,-0.033249,-0.005899,0.099920,-1.514405,323.258925,21.956938,0.999466,0.986481,0.004486,0.463875,0.000202,0.000084,-0.000012,0.000203,0.000083,-5.540977,0.000294,
2416,2203,3.51778581733602,-9.68968626805984,0.0086009110468126,0.001799,-0.035619,-0.007886,0.096448,-1.642937,327.964933,21.044358,0.999196,0.981333,0.005392,0.438599,0.000552,0.000511,-0.000055,0.000590,0.000473,-34.615311,0.001066,
2326,2848,1.43060111880662,4.39642696722969,-0.0144708336440544,0.002497,-0.033376,0.007144,0.077146,-1.468055,317.242030,23.153705,0.999751,0.991929,0.003678,0.485702,0.000017,0.000037,0.000001,0.000037,0.000017,86.689612,0.000055,
2386,3118,2.68768189194782,10.2651082217171,0.0272482209002192,0.003529,-0.033726,0.010232,0.111948,-1.487003,313.219483,24.050406,0.999539,0.991742,0.003630,0.416252,0.000016,0.000017,0.000016,0.000033,0.000000,45.598568,0.000038,
2446,2128,4.18984126539449,-11.3361708667006,0.0184305918565997,0.002728,-0.036815,-0.006057,0.131876,-1.673867,329.345676,20.622904,0.999285,0.977378,0.006024,0.401836,0.000748,0.000675,-0.000069,0.000790,0.000634,-31.167889,0.001426,
2446,2353,4.14294302168946,-6.40282757218787,0.00714763225170145,0.002141,-0.034619,-0.002664,0.093496,-1.553652,325.572671,21.510445,0.999334,0.981110,0.005369,0.454214,0.000351,0.000274,-0.000019,0.000355,0.000269,-13.162376,0.000627,
2386,3253,2.66093189451877,13.1949565396917,0.0136955250829942,0.003963,-0.033246,0.010246,0.132195,-1.467232,310.911284,24.422924,0.999665,0.991965,0.003396,0.442015,0.000006,0.000025,0.000007,0.000027,0.000003,71.488637,0.000033,
2356,2308,2.18599553880228,-7.38675755208118,-0.00437746965337737,0.001305,-0.034293,-0.006388,0.068666,-1.559140,326.081168,21.707969,0.999357,0.990461,0.004085,0.450817,0.000344,0.000310,-0.000003,0.000344,0.000310,-4.652898,0.000654,
2446,2578,4.09449825933405,-1.47999312316726,-0.0290571689339458,0.002149,-0.033580,0.002513,0.075179,-1.487924,321.598003,22.437965,0.999622,0.991104,0.004042,0.396506,0.000142,0.000040,0.000015,0.000144,0.000038,8.028860,0.000192,
2461,2428,4.45394176087997,-4.76018053165144,-0.0104634401552062,0.002233,-0.033880,-0.003075,0.099559,-1.521322,324.246617,21.719449,0.999250,0.984252,0.004997,0.504956,0.000255,0.000154,-0.000018,0.000258,0.000151,-9.670874,0.000414,
2386,2128,2.8766187438837,-11.3334655863875,0.00559012864471242,0.001716,-0.036403,-0.007291,0.089955,-1.673855,329.109974,20.989571,0.998883,0.974863,0.005988,0.383872,0.000702,0.000689,-0.000039,0.000735,0.000656,-40.293941,0.001392,
2506,2428,5.4379359209513,-4.76097078530082,0.00124244943748408,0.002763,-0.034268,-0.005197,0.131741,-1.568369,324.497916,21.619004,0.998736,0.980254,0.005649,0.429538,0.000293,0.000106,-0.000008,0.000293,0.000106,-2.509208,0.000414,
2371,3223,2.34249082214879,12.5412539404029,0.03621521348947,0.003836,-0.033724,0.011553,0.121891,-1.497211,311.576279,24.258389,0.999508,0.992518,0.003488,0.416981,0.000013,0.000015,0.000008,0.000022,0.000006,48.866979,0.000030,
2506,2878,5.34340639242695,5.05854929699886,-0.00847066460630685,0.003108,-0.033670,0.004639,0.110148,-1.508182,317.064044,23.508845,0.999689,0.992659,0.003497,0.449772,0.000022,0.000011,-0.000001,0.000022,0.000011,-5.517146,0.000033,
2416,2068,3.54547367309336,-12.6534621985942,0.0131729853752063,0.002282,-0.037912,-0.011465,0.130568,-1.757285,330.217428,20.523666,0.998492,0.974774,0.006464,0.388144,0.000847,0.000781,-0.000044,0.000869,0.000759,-26.415908,0.001629,
2491,2698,5.05151398678673,1.13913006798104,-0.0295209599526629,0.002427,-0.033593,0.000770,0.093999,-1.498752,319.764974,22.841859,0.999682,0.989341,0.004021,0.396151,0.000081,0.000039,0.000012,0.000084,0.000036,14.591478,0.000124,
2341,2218,1.87576420117556,-9.35895032732257,0.00161567972713783,0.000743,-0.035187,-0.010248,0.055840,-1.609806,327.571738,21.490541,0.998657,0.981443,0.005620,0.443922,0.000482,0.000481,-0.000018,0.000499,0.000463,-44.271465,0.000962,
2431,2083,3.86976287737746,-12.3214989890613,0.00414880402462359,0.002596,-0.037499,-0.008265,0.133556,-1.715909,329.925799,20.614234,0.998654,0.975487,0.006361,0.296725,0.000827,0.000751,-0.000055,0.000856,0.000722,-27.674029,0.001580,
2431,2518,3.78153085400976,-2.79506006513246,-0.00226857166450145,0.001775,-0.033967,-0.001430,0.072565,-1.528471,322.769691,22.101748,0.999080,0.984065,0.004845,0.507686,0.000163,0.000088,-0.000007,0.000164,0.000087,-5.568118,0.000255,
2461,2683,4.40093112424245,0.809904630826644,-0.0248333018303128,0.002476,-0.033900,0.003729,0.085260,-1.504277,319.966170,22.747829,0.999503,0.987295,0.004325,0.434806,0.000093,0.000042,0.000014,0.000097,0.000038,14.492795,0.000139,
2266,3013,0.0989009518554056,7.97714717436037,0.0117347789994824,0.003087,-0.033242,0.007246,0.105616,-1.463944,314.863111,23.356254,0.999339,0.990301,0.003865,0.482322,0.000002,0.000006,-0.000012,0.000016,-0.000009,-49.523396,0.000016,
2311,2713,1.1292291173468,1.45724896942324,-0.0156489498500036,0.002308,-0.033280,0.004586,0.077545,-1.475491,319.439550,22.869822,0.999537,0.990022,0.003985,0.452324,0.000044,0.000073,0.000019,0.000083,0.000034,63.282535,0.000121,
2311,2998,1.07995429249495,7.65426039859901,0.0181013254147615,0.003345,-0.033236,0.007345,0.115877,-1.484225,315.116032,23.503176,0.999879,0.996239,0.002927,0.416873,-0.000001,0.000012,-0.000001,0.000012,-0.000001,-87.808647,0.000013,
2416,2473,3.46270790159799,-3.77803012429542,-0.00531981852464014,0.001430,-0.034091,-0.001596,0.057368,-1.539815,323.436889,21.999148,0.999118,0.985136,0.004880,0.481453,0.000188,0.000109,0.000007,0.000189,0.000109,4.693079,0.000301,
2401,2143,3.2024162492432,-11.0065267180873,0.0159878328370837,0.001859,-0.036684,-0.007224,0.096222,-1.672538,328.976513,20.895284,0.999093,0.977464,0.005643,0.440462,0.000677,0.000644,-0.000056,0.000719,0.000602,-36.772609,0.001323,
2401,2383,3.1535144958031,-5.74462381570295,-0.00578798901864275,0.001861,-0.034270,-0.001871,0.078086,-1.545696,324.893891,21.841023,0.999066,0.983941,0.005016,0.387475,0.000285,0.000221,0.000004,0.000285,0.000221,3.888273,0.000507,
2491,2833,5.02476707072213,4.07894312191534,-0.0202504928086,0.002902,-0.033822,0.004525,0.101376,-1.506657,317.648322,23.303827,0.999240,0.988057,0.004395,0.456311,0.000035,-0.000006,0.000003,0.000035,-0.000006,4.330102,0.000037,
2326,3103,1.3872658924269,9.93438671409433,0.0295763727182248,0.003584,-0.033387,0.009215,0.120176,-1.458107,313.489786,23.735609,0.999361,0.993282,0.003542,0.487225,0.000009,0.000014,-0.000004,0.000016,0.000006,-60.831640,0.000023,
2371,2158,2.54374934947299,-10.6749803027406,0.00807948183069129,0.001804,-0.035995,-0.010894,0.106794,-1.669359,328.652832,21.221638,0.999356,0.979991,0.005579,0.330700,0.000623,0.000592,-0.000038,0.000649,0.000567,-33.875595,0.001217,
2386,2323,2.83686488543566,-7.05752199217006,-0.0154541044651637,0.001556,-0.034714,-0.002998,0.068047,-1.568311,325.760784,21.615304,0.999635,0.991707,0.004021,0.459436,0.000345,0.000293,-0.000003,0.000345,0.000293,-3.655788,0.000638,
2431,2293,3.82655686995369,-7.71548359091,-0.00105596254587681,0.001801,-0.034788,-0.004639,0.085135,-1.576188,326.439771,21.363047,0.998996,0.979843,0.005554,0.425245,0.000403,0.000352,-0.000040,0.000425,0.000330,-28.525659,0.000757,
2506,2683,5.38146588779689,0.812310776668269,-0.0310242801614322,0.002600,-0.033928,0.002771,0.093843,-1.506863,320.040579,22.741775,0.999562,0.989683,0.004056,0.424069,0.000074,0.000031,0.000006,0.000075,0.000030,7.754905,0.000108,
2506,2893,5.34115228057892,5.38544935859663,-0.000994597171711575,0.003448,-0.033700,0.006109,0.120147,-1.481420,316.891064,23.636315,0.999530,0.989976,0.004065,0.409757,0.000029,0.000014,0.000001,0.000029,0.000014,2.208662,0.000044,
2416,2083,3.54301940009389,-12.3234722176755,0.0195371244358853,0.002755,-0.037883,-0.005478,0.130444,-1.731332,330.027798,20.684340,0.998268,0.975373,0.006558,0.304322,0.000810,0.000759,-0.000050,0.000841,0.000728,-31.337044,0.001570,
2356,3178,2.02568950494757,11.5641186162324,0.0371132615139231,0.003792,-0.033054,0.006995,0.136741,-1.473296,312.333741,24.078432,0.999553,0.991890,0.003740,0.433111,0.000009,0.000020,0.000006,0.000022,0.000006,65.640317,0.000030,
2446,2143,4.18577743581347,-11.004896035526,0.000585462789274516,0.002629,-0.035942,-0.012280,0.150855,-1.683786,328.973157,20.696316,0.999082,0.977471,0.006022,0.374473,0.000708,0.000641,-0.000079,0.000760,0.000589,-33.362783,0.001353,
2416,2218,3.5141247173417,-9.35921764811766,0.00205413231674356,0.001584,-0.035462,-0.008376,0.088487,-1.614503,327.659156,21.156790,0.999273,0.982967,0.005252,0.405371,0.000524,0.000490,-0.000053,0.000563,0.000451,-36.024168,0.001016,
2506,2443,5.43406377669049,-4.43238947961792,-0.00073295950744523,0.002331,-0.034128,-0.003360,0.104944,-1.550801,324.210680,21.697580,0.998949,0.981429,0.005372,0.431336,0.000284,0.000088,-0.000001,0.000284,0.000088,-0.307153,0.000389,
2461,2443,4.45198873891743,-4.43210011821066,-0.00707818568622542,0.002815,-0.033659,-0.005738,0.136316,-1.526490,324.068248,21.825220,0.998932,0.984239,0.005047,0.449665,0.000247,0.000134,-0.000010,0.000248,0.000133,-5.120178,0.000387,
2476,2758,4.71392462766574,2.44301585486603,-0.0117613098356628,0.003077,-0.034215,0.007973,0.096459,-1.483384,318.900133,22.903538,0.999565,0.989851,0.003950,0.579431,0.000050,0.000047,0.000017,0.000065,0.000031,42.800495,0.000098,
2371,2308,2.51402461800718,-7.38764224422852,0.00594149011658374,0.001607,-0.034697,-0.001482,0.065035,-1.549459,326.169304,21.657832,0.999868,0.995451,0.003049,0.449950,0.000363,0.000319,-0.000001,0.000363,0.000319,-0.779884,0.000682,
2386,3268,2.65789417747564,13.5203857412798,0.0112440836597898,0.004020,-0.033251,0.010222,0.134918,-1.466069,310.646992,24.470078,0.999643,0.991989,0.003515,0.437706,0.000002,0.000017,0.000009,0.000021,-0.000002,64.557674,0.000024,
2326,2863,1.4282244625668,4.72254230310229,-0.0122472253203227,0.002620,-0.033422,0.005451,0.088571,-1.496035,317.027731,23.215425,0.999685,0.991664,0.003751,0.429918,0.000014,0.000034,-0.000001,0.000034,0.000014,-88.043791,0.000050,
2446,2368,4.13973846685142,-6.07375975783732,0.000536458090607539,0.002290,-0.034485,-0.005072,0.109311,-1.570294,325.290085,21.595856,0.999422,0.984741,0.004976,0.406302,0.000331,0.000244,-0.000011,0.000333,0.000242,-6.817779,0.000577,
2476,2503,4.76599049874896,-3.12045295987639,-0.00805700213811633,0.002273,-0.033893,0.000296,0.088606,-1.516212,323.073688,22.007904,0.999496,0.987294,0.004434,0.468464,0.000191,0.000075,-0.000016,0.000193,0.000073,-7.462656,0.000275,
2251,2953,-0.216690286193383,6.67483850928141,0.0019003193960998,0.003182,-0.032853,0.006114,0.114221,-1.451168,315.794999,23.322863,0.999422,0.991345,0.003772,0.393529,0.000004,0.000014,-0.000002,0.000015,0.000003,-80.956147,0.000019,
2386,3133,2.68556252129585,10.5904737708545,0.0338071539807743,0.003752,-0.033567,0.009696,0.124242,-1.481376,313.041021,24.105609,0.999677,0.992697,0.003495,0.408897,0.000015,0.000014,0.000014,0.000028,0.000000,43.800939,0.000033,
2371,3238,2.33959063426756,12.8673391807452,0.0327095074158024,0.003901,-0.033005,0.009146,0.133790,-1.466455,311.312068,24.320902,0.999696,0.993465,0.003213,0.425166,0.000012,0.000009,0.000006,0.000017,0.000004,38.846685,0.000022,
2386,2143,2.87274468357426,-11.0039664456316,0.00131676068099296,0.000932,-0.036187,-0.009068,0.060481,-1.672619,328.802764,21.036097,0.998782,0.972561,0.006146,0.385289,0.000667,0.000642,-0.000044,0.000701,0.000609,-37.187757,0.001310,
2431,2533,3.77854035971403,-2.46618497010224,-0.00484585436021234,0.001866,-0.033905,-0.002802,0.081850,-1.531198,322.513243,22.251766,0.999294,0.987147,0.004495,0.406145,0.000154,0.000071,-0.000006,0.000154,0.000070,-3.940763,0.000229,
2446,2593,4.0912872969784,-1.15437939367541,-0.0261712418728166,0.001708,-0.034201,0.002648,0.054162,-1.518333,321.358206,22.385798,0.999673,0.991980,0.003922,0.470817,0.000132,0.000035,0.000021,0.000137,0.000030,11.686049,0.000178,
2491,2713,5.04801199731176,1.46568373390119,-0.0323840484932134,0.002302,-0.033496,0.001517,0.085460,-1.489393,319.488202,22.825528,0.999631,0.989143,0.004256,0.480948,0.000062,0.000026,0.000017,0.000069,0.000019,21.983594,0.000093,
2341,2233,1.87317337488783,-9.03018871311076,0.00378711898912343,0.000878,-0.034770,-0.009106,0.058222,-1.590424,327.349834,21.551413,0.998308,0.977857,0.005959,0.441281,0.000450,0.000446,-0.000014,0.000462,0.000434,-40.492060,0.000896,
2476,2773,4.709574572345,2.77247270451883,-0.0245667583934051,0.002513,-0.033773,0.003845,0.086397,-1.490369,318.537008,23.110137,0.999191,0.986257,0.004425,0.422795,0.000040,0.000037,0.000013,0.000051,0.000026,41.638844,0.000078,
2506,2908,5.33669852392729,5.71221067125978,-0.0125976305868107,0.002924,-0.033812,0.004301,0.103007,-1.501688,316.531428,23.664042,0.999544,0.988397,0.004179,0.422386,0.000028,-0.000010,0.000003,0.000028,-0.000010,4.042359,0.000028,
2491,2848,5.02187625835109,4.40636977698203,-0.0173815112955822,0.002750,-0.033746,0.003325,0.099048,-1.506173,317.424545,23.460874,0.999517,0.991227,0.003830,0.358430,0.000028,-0.000005,-0.000004,0.000029,-0.000006,-6.489819,0.000030,
2266,3028,0.0966406079408806,8.30313343625755,0.0162624375371365,0.003272,-0.033174,0.008189,0.111027,-1.466043,314.661238,23.437369,0.999261,0.989660,0.003958,0.423725,0.000001,0.000005,-0.000013,0.000017,-0.000010,-49.492875,0.000017,
2506,2698,5.37933841012323,1.13842120776999,-0.022610158219436,0.002804,-0.033864,0.002118,0.105785,-1.506533,319.878890,22.781358,0.999572,0.990789,0.003837,0.445884,0.000069,0.000043,0.000011,0.000073,0.000039,19.464527,0.000114,
2416,2488,3.45924635499157,-3.44983315249518,-0.0121799572744408,0.001652,-0.034535,0.000672,0.059075,-1.564670,323.137931,22.054845,0.999265,0.985949,0.004650,0.450063,0.000180,0.000094,0.000008,0.000181,0.000093,5.015086,0.000279,
2461,2458,4.44881286936057,-4.10446330798153,0.00308200526325209,0.002370,-0.033721,0.000781,0.091417,-1.507636,323.864543,21.934093,0.999230,0.985503,0.004845,0.415081,0.000238,0.000114,-0.000012,0.000239,0.000113,-5.615489,0.000360,
2386,3283,2.65526467194514,13.8449812453651,0.0138444841478531,0.004262,-0.033487,0.012427,0.138027,-1.476048,310.425839,24.482930,0.999620,0.991286,0.003656,0.456673,-0.000003,0.000015,0.000010,0.000019,-0.000007,66.333554,0.000019,
2401,2398,3.15076567749405,-5.41686372249664,-0.00666603375219665,0.001921,-0.034128,-0.004127,0.089045,-1.558232,324.654771,21.868927,0.999133,0.985114,0.004938,0.394357,0.000261,0.000211,0.000007,0.000261,0.000210,7.581157,0.000472,
2506,2458,5.43033437954628,-4.1033023919054,-0.00975101812304047,0.002417,-0.033848,-0.004161,0.112116,-1.513637,323.898363,21.742554,0.999092,0.985013,0.004828,0.486558,0.000280,0.000066,-0.000004,0.000280,0.000066,-1.173086,0.000367,
2431,2098,3.86648993625916,-11.9924508933592,0.00883684724209388,0.002021,-0.037320,-0.007040,0.102860,-1.699394,329.692047,20.685988,0.999384,0.980442,0.005853,0.294695,0.000788,0.000721,-0.000064,0.000827,0.000682,-31.348004,0.001511,
2416,2098,3.53861061387314,-11.9940138369587,0.0127840188332016,0.001769,-0.037576,-0.006291,0.088425,-1.719024,329.687595,20.671172,0.998817,0.976194,0.006263,0.381207,0.000774,0.000728,-0.000058,0.000813,0.000689,-34.099883,0.001504,
2401,2158,3.1998608661404,-10.6768709164338,0.0171399651669049,0.002327,-0.036345,-0.004817,0.109120,-1.672542,328.756561,21.020196,0.999231,0.978403,0.005461,0.363924,0.000642,0.000598,-0.000059,0.000683,0.000557,-34.865280,0.001242,
2371,2173,2.54059006037295,-10.3475867273486,0.00763246479743884,0.001626,-0.035746,-0.009603,0.094184,-1.663512,328.395250,21.122761,0.999281,0.980586,0.005439,0.479452,0.000586,0.000565,-0.000036,0.000613,0.000539,-36.841416,0.001152,
2341,3118,1.71091935623459,10.2612994047127,0.0336455775632771,0.003830,-0.033239,0.008139,0.134806,-1.468804,313.287104,23.878097,0.999487,0.992432,0.003666,0.427354,0.000008,0.000015,0.000001,0.000015,0.000008,79.366717,0.000023,
2431,2308,3.82423357361539,-7.38637975244246,0.00477930604415633,0.001938,-0.034291,-0.005255,0.093905,-1.546315,326.253850,21.507767,0.999106,0.982116,0.005169,0.362361,0.000385,0.000326,-0.000035,0.000401,0.000310,-24.983679,0.000713,
2416,2233,3.51131604211703,-9.03069171575002,0.00762425126026756,0.001577,-0.035238,-0.004627,0.074581,-1.589065,327.449088,21.226104,0.999326,0.984163,0.005132,0.411430,0.000500,0.000474,-0.000043,0.000532,0.000442,-36.695691,0.000976,
2311,3013,1.07635719743466,7.98132260263373,0.00741232359985133,0.003434,-0.033504,0.008787,0.115063,-1.476481,314.780118,23.568038,0.999448,0.990620,0.003805,0.391190,-0.000004,0.000010,-0.000003,0.000011,-0.000005,-79.970615,0.000011,
2356,3193,2.02244654451139,11.8900708934688,0.0340522839350115,0.003743,-0.033141,0.008314,0.129810,-1.475554,312.054969,24.151870,0.999570,0.991577,0.003675,0.394733,0.000010,0.000019,0.000007,0.000022,0.000007,61.031203,0.000030,
2311,2728,1.1264954533911,1.78353066423482,-0.0160522882735563,0.002384,-0.033627,0.004802,0.080194,-1.495633,319.195210,22.879338,0.999554,0.988998,0.004072,0.455089,0.000043,0.000075,0.000022,0.000086,0.000032,62.827468,0.000122,
2461,2698,4.39853294977379,1.13721503701115,-0.020450056411903,0.002630,-0.033533,0.002354,0.097717,-1.480575,319.770669,22.840489,0.999621,0.987486,0.004446,0.420336,0.000091,0.000050,0.000015,0.000096,0.000045,17.429483,0.000144,
2371,3253,2.3363092064393,13.1924142700549,0.0281821773406818,0.004016,-0.033326,0.011251,0.131446,-1.474015,311.025674,24.327053,0.999671,0.992620,0.003348,0.451017,0.000008,0.000020,0.000008,0.000024,0.000004,63.620551,0.000031,
2461,2473,4.44498808974234,-3.77609170308374,-0.00665940853878055,0.002275,-0.034028,-0.000529,0.091878,-1.518700,323.540128,21.959959,0.999420,0.986839,0.004575,0.434253,0.000213,0.000102,-0.000015,0.000215,0.000100,-7.372390,0.000322,
2446,2158,4.18272328181171,-10.6766168717456,0.00945820095699901,0.002300,-0.036281,-0.006864,0.115532,-1.677698,328.769610,20.773654,0.999235,0.978049,0.005680,0.357785,0.000673,0.000600,-0.000087,0.000731,0.000542,-33.579981,0.001278,
2386,2338,2.83486851930135,-6.73031449927895,-0.00144564266076941,0.001315,-0.034578,-0.003428,0.058566,-1.561884,325.625620,21.700447,0.999007,0.984494,0.004911,0.425669,0.000327,0.000276,-0.000002,0.000327,0.000276,-2.324677,0.000604,
2446,2383,4.1362962551274,-5.74470395055754,-0.00173547697073673,0.002015,-0.034188,-0.005412,0.098114,-1.546610,325.016283,21.687800,0.999696,0.987793,0.004637,0.392143,0.000312,0.000214,-0.000016,0.000314,0.000211,-9.209073,0.000529,
2386,3298,2.65095808986032,14.1713556830107,-0.00449177275606871,0.004298,-0.033311,0.012392,0.139930,-1.464563,310.026803,24.529475,0.999665,0.992233,0.003618,0.463291,-0.000013,0.000010,0.000003,0.000010,-0.000014,81.766610,0.000014,
2476,2788,4.70687939966528,3.0992627262024,-0.0228593919993614,0.002701,-0.033642,0.003547,0.096218,-1.496388,318.316414,23.189351,0.999151,0.985021,0.004566,0.394194,0.000038,0.000025,0.000005,0.000039,0.000024,18.184386,0.000064,
2491,2863,5.01905960406126,4.73215731808573,-0.0166787934675767,0.002953,-0.033710,0.003419,0.108002,-1.502176,317.194719,23.451416,0.999595,0.990755,0.003797,0.430580,0.000029,0.000001,-0.000005,0.000030,0.000000,-9.002303,0.000035,
2446,2608,4.08970036451131,-0.82745958404319,-0.0146772684753955,0.002278,-0.034360,0.003792,0.076020,-1.517434,321.232271,22.500343,0.999277,0.987729,0.004436,0.409853,0.000120,0.000033,0.000018,0.000124,0.000029,11.352359,0.000162,
2431,2548,3.77580335044998,-2.13880315827983,0.00357392893829456,0.001821,-0.033930,0.002108,0.061660,-1.505839,322.319524,22.339666,0.999638,0.989477,0.004059,0.394449,0.000146,0.000047,-0.000001,0.000146,0.000047,-0.641971,0.000201,
2476,2518,4.76270401247423,-2.79265957853142,-0.00964732202163532,0.002029,-0.034074,-0.001499,0.084167,-1.534594,322.812319,22.079177,0.999241,0.983995,0.004750,0.436794,0.000178,0.000089,-0.000019,0.000182,0.000085,-11.750042,0.000273,
2371,2323,2.51036444627532,-7.06026096750563,0.0101903759222068,0.001001,-0.035506,0.005230,0.013150,-1.570953,325.910711,21.684357,0.999537,0.991317,0.003965,0.445041,0.000338,0.000288,0.000003,0.000338,0.000288,3.407360,0.000627,
2371,3268,2.33276037810699,13.5182208835952,0.0187008231504819,0.003986,-0.033287,0.009970,0.134715,-1.467639,310.702830,24.363855,0.999705,0.993198,0.003303,0.460236,0.000005,0.000014,0.000011,0.000021,-0.000003,56.437845,0.000023,
2506,2923,5.33244950278704,6.03993846380323,-0.0235718578582578,0.003009,-0.033957,0.007838,0.093218,-1.482208,316.183613,23.751404,0.999419,0.985856,0.004355,0.415330,0.000022,0.000007,-0.000006,0.000024,0.000005,-20.297974,0.000031,
2386,2158,2.8702638423613,-10.6748379777701,0.0048466634081592,0.001196,-0.036384,-0.007458,0.066778,-1.679570,328.596288,21.146100,0.999197,0.978031,0.005636,0.314000,0.000632,0.000596,-0.000048,0.000665,0.000563,-34.776802,0.001230,
2491,2728,5.04512574382313,1.79341211120121,-0.032011386067893,0.002458,-0.033398,0.001399,0.093100,-1.484451,319.254006,22.952498,0.999554,0.991219,0.003741,0.418136,0.000047,0.000041,0.000017,0.000061,0.000027,40.067850,0.000091,
2506,2473,5.42674991115753,-3.77497133062179,-0.00866505455377364,0.002362,-0.034323,0.001763,0.086523,-1.519882,323.637915,21.861191,0.999222,0.984486,0.004763,0.423952,0.000254,0.000061,-0.000012,0.000255,0.000060,-3.422930,0.000334,
2401,2173,3.19631480621246,-10.3469415520477,0.0095821486269756,0.002169,-0.035921,-0.006522,0.108229,-1.666091,328.450203,21.076487,0.999133,0.980339,0.005373,0.362506,0.000603,0.000571,-0.000057,0.000646,0.000528,-36.873983,0.001176,
2416,2113,3.53708666189767,-11.6658505846978,0.025249542604513,0.002286,-0.037150,-0.005089,0.107857,-1.673391,329.568931,20.721845,0.999009,0.976920,0.006017,0.426584,0.000744,0.000708,-0.000055,0.000784,0.000668,-35.996745,0.001453,
2506,2713,5.37626644814391,1.46596125428415,-0.0202996261563726,0.002624,-0.033787,0.001877,0.098550,-1.491754,319.646077,22.891858,0.999574,0.990150,0.003933,0.411716,0.000050,0.000021,0.000015,0.000057,0.000015,22.946249,0.000076,
2461,2713,4.39539950326032,1.46370802213002,-0.0196409882402122,0.002758,-0.033944,0.006027,0.089608,-1.478895,319.525164,22.855110,0.999625,0.989913,0.004047,0.462359,0.000080,0.000050,0.000019,0.000089,0.000041,25.353859,0.000134,
2401,1993,3.23278518692259,-14.3026723065458,0.0217955366518936,0.001732,-0.038766,-0.017559,0.126782,-1.842680,331.475199,20.341761,0.998265,0.966728,0.007020,0.334697,0.001043,0.000891,-0.000010,0.001044,0.000890,-3.660041,0.001936,
2446,2173,4.18018465994204,-10.3474991200289,0.0170191423741812,0.002307,-0.036313,-0.005023,0.109036,-1.655366,328.583459,20.901407,0.999482,0.983163,0.005000,0.307181,0.000635,0.000578,-0.000089,0.000699,0.000513,-36.084150,0.001217,
2386,3148,2.68335934475448,10.915382719075,0.0397364765105408,0.003927,-0.033487,0.008981,0.134791,-1.495974,312.855810,24.138075,0.999639,0.992242,0.003499,0.403840,0.000012,0.000013,0.000015,0.000027,-0.000002,46.808951,0.000030,
2461,2488,4.44226591383272,-3.44822784271952,-0.00656384742052296,0.002428,-0.033348,-0.002264,0.105737,-1.489141,323.311106,21.994937,0.999495,0.985406,0.004681,0.484544,0.000203,0.000086,-0.000011,0.000204,0.000085,-5.581243,0.000297,
2431,2323,3.8212404639929,-7.05853617608528,-0.000237579943473065,0.002171,-0.033964,-0.007092,0.111485,-1.547105,325.987198,21.464475,0.999067,0.981301,0.005201,0.456901,0.000361,0.000302,-0.000026,0.000371,0.000292,-20.756730,0.000664,
2416,2503,3.45587601967216,-3.12056077447184,-0.0221726289479989,0.001952,-0.034147,-0.000383,0.076868,-1.550233,322.828123,22.147197,0.999537,0.989270,0.004174,0.421370,0.000168,0.000089,0.000003,0.000168,0.000089,2.388712,0.000261,
2476,2803,4.7037712670111,3.42576317628163,-0.0203513505675801,0.002751,-0.034047,0.007336,0.083926,-1.508326,318.080447,23.258293,0.999140,0.984529,0.004772,0.369748,0.000034,0.000017,0.000002,0.000034,0.000017,6.866145,0.000052,
2416,2248,3.50919836380661,-8.70179170472523,0.00587296338693477,0.002147,-0.034475,-0.009608,0.119187,-1.557405,327.236451,21.252457,0.999129,0.982150,0.005327,0.467041,0.000479,0.000437,-0.000043,0.000506,0.000410,-32.040952,0.000918,
2476,2533,4.75949947069708,-2.4639830304227,-0.0145695154819805,0.002255,-0.033675,-0.001976,0.096495,-1.528184,322.539301,22.181866,0.999589,0.987553,0.004184,0.398305,0.000169,0.000082,-0.000013,0.000171,0.000080,-8.070874,0.000256,
2341,3133,1.70769889622233,10.5872549522031,0.0269473256495303,0.003821,-0.032991,0.006447,0.140401,-1.460924,312.990732,23.902946,0.999397,0.991800,0.003754,0.446095,0.000005,0.000016,0.000002,0.000016,0.000005,81.840546,0.000022,
2401,2413,3.1479536093787,-5.08892032851773,-0.0060162831979369,0.001978,-0.033958,-0.004114,0.091691,-1.539795,324.419719,21.902337,0.999346,0.985397,0.004810,0.426586,0.000237,0.000190,0.000010,0.000239,0.000188,11.399295,0.000429,
2446,2623,4.08702579571163,-0.500214266685752,-0.0103809633368996,0.002304,-0.033950,0.004428,0.075035,-1.482273,321.022991,22.552332,0.999349,0.988084,0.004305,0.445956,0.000112,0.000024,0.000014,0.000114,0.000022,8.618966,0.000146,
2491,2878,5.01650761618275,5.05731734043502,-0.0113165221924305,0.002826,-0.033455,0.001155,0.110937,-1.519971,316.998196,23.444416,0.999538,0.992245,0.003595,0.478324,0.000028,0.000007,-0.000009,0.000031,0.000004,-19.643427,0.000039,
2311,2743,1.12435213515551,2.11008028893481,-0.0127689772430699,0.002671,-0.033393,0.003610,0.097551,-1.484389,318.995945,22.916012,0.999545,0.989862,0.004008,0.461848,0.000043,0.000075,0.000022,0.000086,0.000032,63.365132,0.000122,
2506,2938,5.3309653130126,6.36526973737572,-0.00814533842003584,0.003287,-0.033634,0.007564,0.107204,-1.468438,316.081837,23.815799,0.999550,0.989455,0.003980,0.425265,0.000025,0.000005,-0.000011,0.000030,0.000000,-24.131362,0.000035,
2446,2398,4.132364407352,-5.41676268670542,-0.00776801075414824,0.001892,-0.034588,-0.001566,0.078048,-1.544149,324.702878,21.668283,0.999628,0.987090,0.004739,0.468312,0.000288,0.000206,-0.000012,0.000289,0.000204,-8.479644,0.000496,
2311,3028,1.07453843500594,8.3058703514221,0.016784774061648,0.003676,-0.033728,0.008607,0.126742,-1.485376,314.625698,23.556630,0.999510,0.990221,0.003901,0.424930,-0.000003,0.000013,-0.000004,0.000014,-0.000003,-77.687754,0.000015,
2401,2008,3.22937832906007,-13.9723543761315,0.0210136022469101,0.001872,-0.039155,-0.010550,0.107707,-1.803408,331.207562,20.411647,0.998210,0.965070,0.007072,0.353620,0.001011,0.000850,-0.000016,0.001013,0.000848,-5.722060,0.001863,
2491,2743,5.04174486294876,2.11988281412879,-0.0331125555587732,0.002424,-0.033902,0.003506,0.083252,-1.500322,318.990637,22.977467,0.999687,0.991213,0.003721,0.436279,0.000038,0.000057,0.000014,0.000065,0.000030,62.399929,0.000097,
2371,3283,2.32949345811644,13.8433784097283,0.0138331190260033,0.003960,-0.033388,0.009735,0.134270,-1.482813,310.415291,24.392420,0.999658,0.992687,0.003405,0.456100,0.000001,0.000015,0.000011,0.000021,-0.000005,61.128640,0.000022,
2431,2563,3.77306680384244,-1.81123724451538,-0.0019592850474055,0.002680,-0.034225,0.004245,0.093073,-1.514776,322.061146,22.359272,0.999513,0.988689,0.004201,0.416872,0.000140,0.000041,0.000010,0.000141,0.000040,5.790708,0.000190,
2356,3208,2.020079237247,12.2146092348647,0.038110233342536,0.003932,-0.033274,0.008502,0.137818,-1.474067,311.851372,24.136586,0.999507,0.992131,0.003599,0.449057,0.000013,0.000021,0.000009,0.000027,0.000007,56.776448,0.000035,
2431,2113,3.864279272338,-11.6647098351984,0.0142610388608659,0.002238,-0.036829,-0.008253,0.117475,-1.679651,329.510402,20.647795,0.999299,0.978684,0.005938,0.405387,0.000754,0.000703,-0.000063,0.000797,0.000661,-34.046926,0.001460,
2461,2728,4.39292653798741,1.79075740563047,-0.0136699279601658,0.003002,-0.033924,0.008231,0.092482,-1.489570,319.333475,22.979098,0.999581,0.991582,0.003716,0.382010,0.000072,0.000061,0.000021,0.000088,0.000045,37.770049,0.000135,
2506,2728,5.37361522622527,1.79246202698188,-0.0176281920838619,0.002755,-0.033580,0.000790,0.108856,-1.485780,319.434384,22.922696,0.999447,0.988925,0.004107,0.448132,0.000037,0.000039,0.000014,0.000052,0.000024,46.909669,0.000077,
2446,2188,4.17710518375559,-10.0184832388024,0.01634676961163,0.002294,-0.035914,-0.004955,0.108323,-1.623652,328.334621,20.927917,0.999575,0.985530,0.004788,0.367346,0.000609,0.000562,-0.000077,0.000666,0.000505,-36.581483,0.001175,
2476,2548,4.75635633050944,-2.13700677179691,-0.0149143023325564,0.002167,-0.033708,-0.002287,0.093617,-1.536914,322.290092,22.189911,0.999553,0.986952,0.004364,0.439030,0.000158,0.000050,-0.000006,0.000158,0.000050,-3.374362,0.000217,
2461,2503,4.43926336211573,-3.12093894454495,-0.00354868056274427,0.002418,-0.033752,0.000284,0.095509,-1.498273,323.082681,22.047356,0.999386,0.985914,0.004565,0.478628,0.000193,0.000080,-0.000015,0.000195,0.000078,-7.317118,0.000281,
2386,2353,2.83191816073267,-6.40252591774012,-0.00241221342969311,0.001360,-0.034348,-0.003009,0.059247,-1.550536,325.375661,21.690495,0.998560,0.980947,0.005470,0.492227,0.000311,0.000261,0.000005,0.000312,0.000260,5.635985,0.000573,
2431,2338,3.81764195285102,-6.7295036691691,-0.0034374925688212,0.001949,-0.034362,-0.005459,0.095127,-1.558460,325.700987,21.564380,0.998974,0.981952,0.005028,0.397675,0.000346,0.000288,-0.000023,0.000353,0.000280,-19.043870,0.000635,
2506,2488,5.42398826047082,-3.44736989232916,-0.00811317204130546,0.002601,-0.034106,0.001023,0.100422,-1.511865,323.412869,21.898363,0.999382,0.984476,0.004778,0.457141,0.000229,0.000045,-0.000015,0.000230,0.000043,-4.760620,0.000294,
2416,2128,3.53250708384205,-11.3335968550371,0.00907810835815326,0.001985,-0.036714,-0.004895,0.093586,-1.646337,329.176565,20.858487,0.999210,0.978771,0.005754,0.368661,0.000716,0.000689,-0.000056,0.000760,0.000645,-38.307544,0.001407,
2491,2893,5.01282072572021,5.3852246913719,-0.0157644972151729,0.003148,-0.034160,0.007715,0.100355,-1.506420,316.704372,23.591296,0.998766,0.986934,0.004436,0.403447,0.000033,0.000010,-0.000006,0.000035,0.000009,-12.968250,0.000046,
2371,2338,2.50737025658255,-6.73081337997249,0.000801907593540818,0.001126,-0.034917,-0.000938,0.040966,-1.571598,325.617177,21.748983,0.998985,0.984418,0.004978,0.423045,0.000322,0.000272,0.000003,0.000322,0.000272,3.973624,0.000595,
2386,3163,2.6800523690736,11.2411688875671,0.0354086926842001,0.003832,-0.033386,0.008609,0.131938,-1.472050,312.570546,24.154498,0.999452,0.990741,0.003835,0.453759,0.000011,0.000019,0.000013,0.000029,0.000001,53.480594,0.000034,
2446,2638,4.08348070005207,-0.171978892284628,-0.0189051424312083,0.002135,-0.033435,0.000473,0.082239,-1.481474,320.714492,22.625198,0.999474,0.989276,0.004155,0.426773,0.000099,0.000032,0.000013,0.000101,0.000030,10.601042,0.000138,
2401,2188,3.19334873962808,-10.0174441546165,0.0118498387528803,0.001818,-0.035258,-0.008132,0.098258,-1.629122,328.216366,21.172834,0.999087,0.982379,0.005289,0.351533,0.000575,0.000550,-0.000053,0.000617,0.000508,-38.181502,0.001127,
2371,3298,2.32622225918189,14.169236225257,0.00477974120809677,0.004387,-0.033343,0.011184,0.148861,-1.473797,310.107116,24.443329,0.999669,0.992783,0.003442,0.453638,-0.000009,0.000013,0.000006,0.000015,-0.000010,76.602433,0.000015,
2416,2263,3.50582708240521,-8.37344908684526,0.00837993722677766,0.001860,-0.035063,-0.005456,0.090655,-1.606949,326.986545,21.358179,0.999014,0.982689,0.005245,0.361630,0.000453,0.000402,-0.000045,0.000479,0.000376,-30.191864,0.000856,
2401,2428,3.14489856531751,-4.76101492527506,-0.00793558107551462,0.001939,-0.033965,-0.004819,0.092490,-1.541337,324.161456,21.932894,0.999368,0.984497,0.004854,0.441417,0.000225,0.000169,0.000014,0.000229,0.000166,13.444085,0.000396,
2506,2953,5.32880750970751,6.69045012333669,0.00179551236249154,0.003320,-0.033732,0.006852,0.111385,-1.489232,315.924492,23.864587,0.999514,0.990180,0.003998,0.416089,0.000027,0.000004,-0.000004,0.000028,0.000003,-9.011789,0.000034,
2476,2818,4.70088065802208,3.75182654572415,-0.0173559486831891,0.002623,-0.033902,0.006927,0.079723,-1.492341,317.856675,23.266860,0.999260,0.986225,0.004660,0.433762,0.000030,0.000006,0.000004,0.000031,0.000005,9.988546,0.000039,
2341,3148,1.70524110678362,10.912303785454,0.0330982904443999,0.003780,-0.033310,0.007175,0.135834,-1.478092,312.792270,23.952140,0.999472,0.992845,0.003641,0.415044,0.000003,0.000017,0.000003,0.000017,0.000002,78.105656,0.000022,
2401,2023,3.22517689984354,-13.6419279103791,0.0149095608499579,0.001161,-0.038579,-0.009463,0.071562,-1.789163,330.878652,20.462046,0.998239,0.969725,0.006763,0.367117,0.000970,0.000823,-0.000029,0.000975,0.000818,-10.674944,0.001795,
2416,2518,3.4535681514641,-2.79375372104992,-0.0161585133985227,0.002010,-0.033806,-0.001571,0.083994,-1.522938,322.642176,22.151266,0.999324,0.987186,0.004516,0.493394,0.000155,0.000088,0.000000,0.000155,0.000088,0.078369,0.000247,
2386,2173,2.86737589091024,-10.3467179489659,0.00352405762146191,0.001506,-0.036319,-0.004763,0.071359,-1.662752,328.348147,21.093635,0.999419,0.981169,0.005358,0.429542,0.000593,0.000569,-0.000046,0.000629,0.000533,-37.781805,0.001162,
2461,2743,4.38865590929192,2.11775659800204,-0.0251165967040379,0.002524,-0.033960,0.006112,0.078539,-1.500679,318.979371,22.963878,0.999622,0.990737,0.003811,0.441083,0.000069,0.000068,0.000019,0.000088,0.000050,44.379931,0.000139,
2431,2578,3.76985217470749,-1.48215872534421,-0.00860705182441279,0.002778,-0.033561,0.001693,0.107269,-1.485777,321.775155,22.475635,0.999745,0.992894,0.003653,0.380403,0.000134,0.000042,0.000014,0.000136,0.000040,8.659428,0.000184,
2446,2413,4.13020586210404,-5.08880963270069,-0.000371434894304912,0.002278,-0.034386,0.000199,0.089258,-1.521609,324.532453,21.763097,0.999615,0.987598,0.004761,0.449507,0.000263,0.000182,-0.000009,0.000265,0.000181,-6.391322,0.000448,
2431,2128,3.86228328119313,-11.3362924568229,0.0266651501343631,0.002391,-0.036397,-0.006069,0.116574,-1.639107,329.370646,20.730757,0.999474,0.979272,0.006034,0.415744,0.000725,0.000685,-0.000064,0.000772,0.000637,-36.363961,0.001411,
2491,2758,5.03931958741263,2.44552096485528,-0.0251321455091329,0.002622,-0.034026,0.006160,0.082148,-1.497982,318.812205,22.984030,0.999544,0.988171,0.004106,0.491053,0.000040,0.000038,0.000009,0.000049,0.000030,41.983491,0.000079,
2356,3223,2.01697212080123,12.5404218434116,0.0349731376479667,0.003913,-0.033226,0.008369,0.137414,-1.481217,311.578415,24.209558,0.999492,0.992193,0.003507,0.406456,0.000012,0.000014,0.000007,0.000020,0.000006,48.821121,0.000028,
2506,2743,5.36911489738726,2.12124703789961,-0.0306137079183486,0.002648,-0.033802,0.002893,0.095675,-1.505220,319.067119,23.068439,0.999668,0.989303,0.003999,0.344277,0.000027,0.000057,0.000010,0.000060,0.000024,72.833539,0.000086,
2491,2908,5.00999629893027,5.71184273843684,-0.00750876948757195,0.002830,-0.033864,0.009209,0.080105,-1.501925,316.507791,23.724946,0.999099,0.985984,0.004561,0.332620,0.000030,-0.000008,-0.000001,0.000030,-0.000008,-1.273883,0.000031,
2401,2203,3.19049569503838,-9.68982880994653,0.0130177442623562,0.001917,-0.035701,-0.006489,0.096674,-1.636845,327.982908,21.135330,0.998992,0.980773,0.005500,0.429379,0.000546,0.000510,-0.000048,0.000580,0.000476,-34.593193,0.001058,
2476,2563,4.752629785366,-1.80821883421346,-0.0194629814077985,0.002213,-0.033761,0.001683,0.080667,-1.510212,321.994507,22.296623,0.998612,0.982288,0.005247,0.416915,0.000153,0.000044,0.000007,0.000153,0.000044,3.466747,0.000207,
2461,2518,4.43626059060413,-2.79375772448012,-0.000670522824066211,0.002143,-0.033965,-0.000489,0.085715,-1.533004,322.853647,22.118674,0.999052,0.983396,0.004787,0.427749,0.000181,0.000089,-0.000017,0.000184,0.000086,-9.834488,0.000276,
2431,2353,3.81436912162377,-6.4008890344013,-0.00644147128161876,0.001785,-0.034083,-0.006841,0.092816,-1.555629,325.430543,21.619269,0.998944,0.981815,0.005183,0.397677,0.000332,0.000272,-0.000016,0.000336,0.000268,-14.374360,0.000606,
2506,2503,5.42054764106733,-3.11883664434536,-0.0109811755539226,0.002531,-0.034029,0.001153,0.096758,-1.524167,323.141202,22.015114,0.999351,0.984960,0.004909,0.390227,0.000206,0.000043,-0.000024,0.000210,0.000040,-8.317544,0.000268,
2446,2653,4.08076042258269,0.155613667782198,-0.0215604088083978,0.002550,-0.032923,-0.000526,0.105196,-1.469515,320.470944,22.682919,0.999564,0.990273,0.004004,0.433851,0.000084,0.000031,0.000015,0.000088,0.000027,15.069251,0.000120,
2386,1993,2.90461126442937,-14.3027932007101,0.0269499533243334,0.001706,-0.039584,-0.010999,0.101368,-1.831074,331.477236,20.444422,0.998458,0.948978,0.008250,0.350487,0.001039,0.000902,0.000000,0.001039,0.000902,-0.114680,0.001942,
2311,2758,1.121113159018,2.43702021189677,-0.0149678586133746,0.002435,-0.033262,0.004575,0.083473,-1.468616,318.719222,22.944898,0.999619,0.991375,0.003863,0.481225,0.000040,0.000076,0.000023,0.000087,0.000029,64.109030,0.000120,
2476,2833,4.69898109128021,4.07815039210472,-0.0139967462647519,0.003120,-0.033277,0.002473,0.119697,-1.481817,317.680045,23.311395,0.999444,0.987634,0.004176,0.456257,0.000029,-0.000002,0.000004,0.000029,-0.000003,7.357423,0.000032,
2446,2203,4.17302845387544,-9.68876779472767,0.00894082148442976,0.001744,-0.035059,-0.005971,0.087301,-1.595035,328.009018,20.956406,0.999582,0.984970,0.004845,0.422967,0.000580,0.000513,-0.000069,0.000623,0.000470,-32.124642,0.001097,
2506,2968,5.32569733529679,7.01664792479401,0.00247508892687165,0.003230,-0.033693,0.006641,0.108109,-1.495368,315.681455,23.931201,0.999432,0.989672,0.004197,0.403735,0.000018,0.000025,0.000009,0.000031,0.000011,55.473134,0.000044,
2416,2143,3.52894621846412,-11.0051487799979,0.00527326852056831,0.001539,-0.036769,-0.006570,0.079285,-1.689222,328.889086,20.858190,0.999227,0.979992,0.005335,0.376760,0.000681,0.000646,-0.000063,0.000729,0.000598,-37.258793,0.001328,
2416,2278,3.50228126208448,-8.04440150789841,0.000877365356814153,0.001772,-0.034940,-0.006623,0.090945,-1.595226,326.681536,21.370503,0.999117,0.983522,0.005051,0.411374,0.000423,0.000379,-0.000033,0.000440,0.000362,-27.911726,0.000803,
2386,2368,2.82828554671198,-6.07368536563597,-0.004905060277963,0.001332,-0.035090,0.003453,0.034553,-1.539840,325.086961,21.767954,0.998662,0.981645,0.005327,0.470665,0.000295,0.000243,0.000010,0.000297,0.000241,10.327101,0.000539,
2491,2773,5.03637142278583,2.77335449012557,-0.0268799128675141,0.002578,-0.033523,0.002307,0.095123,-1.488174,318.565315,23.112153,0.999183,0.986347,0.004426,0.431596,0.000037,0.000027,0.000006,0.000040,0.000024,25.251607,0.000065,
2401,2038,3.22244364676932,-13.3126145200635,0.0156915813267915,0.001304,-0.038228,-0.009192,0.077262,-1.761039,330.649189,20.480651,0.998195,0.971419,0.006620,0.425656,0.000923,0.000798,-0.000037,0.000933,0.000788,-15.211828,0.001723,
2506,2758,5.36562201407625,2.44689988533404,-0.0305042018336508,0.002509,-0.034235,0.006038,0.076997,-1.507770,318.805251,23.019096,0.999692,0.990020,0.003866,0.452412,0.000031,0.000031,0.000005,0.000036,0.000026,45.725420,0.000062,
2461,2758,4.38582402706232,2.44496621845164,-0.0283100740705891,0.002830,-0.033631,0.004275,0.099640,-1.484534,318.728997,23.011929,0.999583,0.989168,0.004039,0.463738,0.000069,0.000057,0.000016,0.000080,0.000046,34.066889,0.000127,
2416,2533,3.45018855063987,-2.46559900826573,-0.0132012388067437,0.001732,-0.034307,0.003206,0.053596,-1.523835,322.392520,22.283875,0.999246,0.987775,0.004552,0.408627,0.000144,0.000069,0.000000,0.000144,0.000069,0.285611,0.000218,
2371,2353,2.50497939928233,-6.4032334369393,0.0053331425992269,0.001247,-0.034514,-0.000855,0.046409,-1.535177,325.417753,21.748293,0.998886,0.983903,0.005087,0.503022,0.000307,0.000256,0.000011,0.000309,0.000254,11.471476,0.000564,
2356,3238,2.01382390289843,12.8656686446569,0.0332322772594011,0.003821,-0.033198,0.009223,0.130202,-1.472520,311.310453,24.226647,0.999577,0.992089,0.003451,0.435716,0.000012,0.000006,0.000007,0.000016,0.000001,32.951970,0.000019,
2491,2923,5.00586846912205,6.0392980451862,-0.0224553186095022,0.002895,-0.033659,0.007562,0.089577,-1.475246,316.146205,23.751131,0.999283,0.986266,0.004426,0.391950,0.000024,0.000004,-0.000005,0.000026,0.000002,-13.844509,0.000031,
2431,2593,3.76644301465069,-1.15764408174019,0.00051624265557848,0.001887,-0.034158,0.005355,0.052641,-1.504083,321.554297,22.363100,0.999561,0.990513,0.004037,0.525427,0.000125,0.000036,0.000021,0.000130,0.000031,12.320982,0.000171,
2461,2533,4.43311667716304,-2.46509953007486,-0.00381685540128274,0.002410,-0.033752,0.000924,0.092742,-1.508117,322.590099,22.216333,0.999390,0.987473,0.004306,0.410685,0.000172,0.000076,-0.000013,0.000174,0.000075,-7.470443,0.000255,
2401,2218,3.18693192847684,-9.35886431264235,0.00916690424099897,0.001465,-0.035120,-0.008118,0.082089,-1.615372,327.692730,21.327632,0.999133,0.981591,0.005529,0.306923,0.000518,0.000488,-0.000047,0.000552,0.000454,-36.159599,0.001007,
2401,2443,3.14221663400191,-4.43343364589367,-0.00145848020196127,0.001911,-0.033967,-0.001702,0.079922,-1.516623,323.959690,21.991405,0.999337,0.986234,0.004755,0.454533,0.000214,0.000154,0.000020,0.000220,0.000148,16.825033,0.000371,
2386,2188,2.86454559786165,-10.0166829804784,0.00704064598454579,0.001365,-0.036022,-0.003960,0.062119,-1.620947,328.125143,21.247669,0.999022,0.980551,0.005456,0.363171,0.000562,0.000547,-0.000046,0.000602,0.000508,-40.333317,0.001111,
2446,2668,4.0782381496445,0.482195628129723,-0.0179583680995279,0.002762,-0.033000,-0.000160,0.113551,-1.461190,320.265458,22.708571,0.999461,0.988349,0.004242,0.469224,0.000080,0.000026,0.000013,0.000083,0.000024,12.801550,0.000112,
2431,2368,3.81182643093053,-6.07321244047394,-0.000497552206752516,0.001852,-0.034060,-0.005399,0.090612,-1.553858,325.235096,21.681717,0.999079,0.983025,0.005001,0.388417,0.000317,0.000245,-0.000008,0.000318,0.000244,-6.506688,0.000563,
2341,3163,1.70244491903508,11.2379105182388,0.0366073435476437,0.003532,-0.032854,0.006995,0.125279,-1.454038,312.565122,23.998811,0.999549,0.992727,0.003696,0.427685,0.000005,0.000022,0.000004,0.000023,0.000004,76.500527,0.000029,
2431,2143,3.85758128728628,-11.0053177850359,0.00753794098284288,0.002138,-0.036714,-0.007172,0.108986,-1.687266,328.961270,20.800593,0.999280,0.978610,0.005777,0.351411,0.000686,0.000644,-0.000073,0.000741,0.000589,-37.079095,0.001333,
2386,2008,2.90113467074207,-13.9714069581374,0.0201565248514157,0.001754,-0.039381,-0.009879,0.099675,-1.826416,331.176788,20.577314,0.998278,0.969332,0.006687,0.269639,0.001004,0.000860,-0.000006,0.001004,0.000859,-2.224495,0.001866,
2476,2578,4.74934518744056,-1.48015730141166,-0.0177642524879502,0.002083,-0.033545,0.004546,0.064002,-1.469533,321.747546,22.382735,0.998184,0.983303,0.005279,0.429279,0.000142,0.000042,0.000010,0.000144,0.000041,5.865076,0.000194,
2506,2983,5.32246473589224,7.34274813230736,-0.00181334092104635,0.003293,-0.033761,0.004701,0.118522,-1.490031,315.410457,23.947361,0.999280,0.987367,0.004397,0.453529,0.000018,0.000033,0.000022,0.000049,0.000002,54.926475,0.000058,
2446,2428,4.12562121202464,-4.75947141453895,-0.0106237616234921,0.001795,-0.034631,0.003289,0.055520,-1.546604,324.169403,21.869986,0.999091,0.984913,0.005011,0.371728,0.000251,0.000159,-0.000003,0.000251,0.000159,-1.566397,0.000413,
2311,2773,1.11921799717046,2.7629971536379,-0.00766755059100888,0.002711,-0.033462,0.003911,0.098360,-1.478032,318.551246,22.989456,0.999575,0.991831,0.003782,0.459413,0.000038,0.000064,0.000019,0.000074,0.000028,62.652357,0.000106,
2506,2773,5.36327444275537,2.77371421438958,-0.0308143835673036,0.002804,-0.033621,0.000320,0.112873,-1.504168,318.593877,23.071374,0.999663,0.990490,0.003870,0.464802,0.000030,0.000017,0.000003,0.000031,0.000017,10.928184,0.000048,
2506,2518,5.41651377094747,-2.79112848354725,-0.0159347594695873,0.001939,-0.033997,0.000107,0.073684,-1.519105,322.832933,22.025360,0.999337,0.985941,0.004830,0.447444,0.000185,0.000086,-0.000036,0.000196,0.000074,-18.046228,0.000279,
2476,2848,4.69506047955727,4.4050573520069,-0.0212638836136421,0.003068,-0.033812,0.005010,0.107412,-1.509333,317.361966,23.372246,0.999269,0.986887,0.004324,0.424439,0.000023,-0.000002,-0.000003,0.000024,-0.000003,-6.543312,0.000026,
2446,2218,4.16991654863481,-9.3593561821103,0.00196234759550862,0.002169,-0.035100,-0.006507,0.108744,-1.606025,327.729750,21.007318,0.999306,0.983360,0.005166,0.415680,0.000548,0.000491,-0.000069,0.000594,0.000445,-33.771641,0.001043,
2461,2773,4.38237117485008,2.77197686031062,-0.0326682651261194,0.002370,-0.033535,-0.000488,0.096502,-1.494949,318.444740,23.064152,0.999388,0.987258,0.004332,0.455659,0.000061,0.000047,0.000012,0.000068,0.000040,30.276764,0.000109,
2416,2158,3.5258302094576,-10.6760895140444,0.00303384963098097,0.001281,-0.036364,-0.009938,0.079916,-1.711805,328.629049,20.915947,0.999147,0.978876,0.005474,0.346844,0.000646,0.000600,-0.000067,0.000693,0.000552,-35.566917,0.001248,
2461,2548,4.42977282264702,-2.13713745715223,-0.00403521616192393,0.002066,-0.033969,0.000289,0.079258,-1.531653,322.330921,22.329884,0.999709,0.991670,0.003733,0.328968,0.000163,0.000048,-0.000007,0.000163,0.000048,-3.371083,0.000221,
2401,2053,3.21929238162284,-12.9812402647928,0.0111913343950505,0.001683,-0.038674,-0.006270,0.083885,-1.767977,330.375784,20.668678,0.998613,0.975385,0.006335,0.279812,0.000884,0.000797,-0.000038,0.000898,0.000783,-20.691134,0.001682,
2431,2608,3.76255120889568,-0.828268348287168,-0.016180357265398,0.002250,-0.034110,0.004360,0.072984,-1.508009,321.190453,22.463493,0.999310,0.986769,0.004554,0.471908,0.000114,0.000032,0.000020,0.000119,0.000028,12.860133,0.000156,
2416,2548,3.44669494047568,-2.13797223166279,-0.0162552904328663,0.001578,-0.034262,0.005063,0.039807,-1.518227,322.109553,22.312559,0.999347,0.987638,0.004458,0.434172,0.000135,0.000047,0.000004,0.000136,0.000046,2.685700,0.000189,
2356,3253,2.01087808957409,13.19063210633,0.0344196147042339,0.003827,-0.033322,0.011648,0.121881,-1.472243,311.066023,24.246339,0.999619,0.991853,0.003479,0.453704,0.000009,0.000013,0.000009,0.000020,0.000002,50.810130,0.000024,
2416,2293,3.4994017139043,-7.71562823171099,-0.00161410626941461,0.002047,-0.034953,-0.006581,0.103375,-1.603436,326.430492,21.434229,0.998679,0.979984,0.005630,0.389170,0.000401,0.000352,-0.000027,0.000412,0.000340,-23.924241,0.000754,
2401,2458,3.13914516452482,-4.10528338160408,-0.00841211390127228,0.002470,-0.034032,0.000291,0.098325,-1.523378,323.676847,22.012595,0.999437,0.985911,0.004808,0.473416,0.000205,0.000135,0.000020,0.000210,0.000130,14.521036,0.000343,
2476,2593,4.74669872696694,-1.15311712355578,-0.0180837194496348,0.002272,-0.033430,0.001617,0.083851,-1.466977,321.520990,22.400093,0.998249,0.983150,0.005083,0.471664,0.000128,0.000039,0.000019,0.000132,0.000035,11.293087,0.000176,
2386,2383,2.8259593922634,-5.74556416163109,-0.00286765467103578,0.001743,-0.035061,0.003495,0.053243,-1.558683,324.879802,21.857964,0.998879,0.983363,0.005253,0.406599,0.000277,0.000218,0.000008,0.000278,0.000217,7.204659,0.000496,
2491,2938,5.00340649683201,6.36531858493807,-0.015093781056521,0.002915,-0.033695,0.007891,0.089241,-1.471791,315.962268,23.832245,0.999377,0.988879,0.004026,0.372552,0.000026,0.000001,-0.000010,0.000029,-0.000002,-18.970424,0.000032,
2506,2533,5.4135517904534,-2.46260551362292,-0.0143397931910272,0.002105,-0.033717,0.001851,0.074719,-1.494115,322.602859,22.154462,0.999477,0.987648,0.004483,0.405615,0.000178,0.000086,-0.000028,0.000185,0.000079,-15.684971,0.000271,
2506,2998,5.31958735610008,7.66900783817587,0.00254175544506552,0.003268,-0.033694,0.006181,0.111652,-1.496758,315.194403,24.053688,0.999451,0.988782,0.004075,0.400787,0.000024,0.000019,0.000029,0.000050,-0.000008,42.423023,0.000054,
2341,3178,1.69951485586177,11.5633559837314,0.0329779359516351,0.003673,-0.032892,0.006513,0.133418,-1.461976,312.297067,24.023507,0.999624,0.993540,0.003691,0.430553,0.000006,0.000024,0.000005,0.000025,0.000005,76.545442,0.000031,
2476,2863,4.6923249302579,4.73134364949789,-0.0186357747821262,0.002928,-0.033520,0.002222,0.111751,-1.507181,317.143397,23.424947,0.999079,0.984615,0.004593,0.430232,0.000024,0.000003,-0.000001,0.000024,0.000003,-3.219047,0.000029,
2371,2368,2.50140251759109,-6.07409229138552,-0.000361558721124311,0.001294,-0.034865,0.003116,0.034366,-1.526086,325.114983,21.823004,0.998588,0.981845,0.005264,0.480623,0.000291,0.000240,0.000014,0.000295,0.000236,14.479640,0.000532,
2461,2788,4.38038660598977,3.0974918994056,-0.0193908827279188,0.002484,-0.033617,0.001612,0.093776,-1.506012,318.308989,23.121387,0.999295,0.986025,0.004431,0.441705,0.000057,0.000036,0.000005,0.000059,0.000035,13.102700,0.000095,
2431,2383,3.80855312250595,-5.74442715078662,-0.00620359838609374,0.002029,-0.034188,-0.005311,0.098338,-1.549958,324.951940,21.735405,0.999516,0.986155,0.004730,0.390599,0.000299,0.000217,-0.000012,0.000301,0.000215,-8.387223,0.000518,
2431,2158,3.85562740465634,-10.6784711487928,0.0185635791997356,0.002007,-0.036281,-0.010239,0.114448,-1.694720,328.817337,20.782813,0.999336,0.977706,0.005715,0.413834,0.000649,0.000600,-0.000080,0.000709,0.000541,-36.490519,0.001254,
2446,2233,4.16750788750062,-9.03122000300647,0.00991564709755721,0.002092,-0.034968,-0.006792,0.106367,-1.612493,327.551318,21.097787,0.998826,0.977999,0.005780,0.373324,0.000521,0.000482,-0.000059,0.000564,0.000440,-35.889476,0.001006,
2311,2788,1.11685844731223,3.08882586534087,-0.00541172778764576,0.003005,-0.033354,0.004702,0.109205,-1.478150,318.337090,22.975430,0.999624,0.993798,0.003538,0.505431,0.000038,0.000058,0.000018,0.000069,0.000028,59.254889,0.000099,
2401,2233,3.18361866613047,-9.0309424413301,0.0111444892028203,0.001333,-0.035803,-0.002835,0.056683,-1.616916,327.441783,21.330971,0.999171,0.982817,0.005391,0.350001,0.000492,0.000469,-0.000037,0.000520,0.000442,-36.586215,0.000962,
2386,2203,2.86148549574586,-9.6869127930641,-0.0038120454582895,0.001750,-0.035715,-0.007803,0.093653,-1.642600,327.823921,21.295119,0.998551,0.977790,0.005792,0.340477,0.000534,0.000509,-0.000042,0.000565,0.000477,-36.763982,0.001044,
2506,2788,5.36022621322627,3.10055094356757,-0.0256214998435098,0.002616,-0.033575,0.002655,0.095252,-1.500655,318.374758,23.173227,0.999466,0.990015,0.004086,0.427622,0.000032,0.000008,-0.000008,0.000035,0.000005,-16.161664,0.000043,
2446,2683,4.07450995267751,0.809662131641019,-0.0212886046392669,0.002403,-0.033263,0.000993,0.092697,-1.474794,319.972396,22.784438,0.999303,0.986964,0.004361,0.432296,0.000083,0.000046,0.000017,0.000090,0.000039,21.140328,0.000132,
2446,2443,4.12398697687694,-4.43309196457198,-0.000415369988445491,0.002145,-0.034331,0.001132,0.079700,-1.535443,324.036127,21.867379,0.998141,0.982184,0.005413,0.438772,0.000243,0.000140,0.000005,0.000243,0.000139,2.674269,0.000387,
2461,2563,4.42544431494921,-1.80860682092222,-0.0223901149734616,0.002388,-0.033913,0.001599,0.089181,-1.517044,321.943352,22.302495,0.999348,0.988375,0.004393,0.426868,0.000157,0.000041,0.000005,0.000157,0.000041,2.723297,0.000209,
2401,2068,3.21540674404936,-12.6515271454686,-0.00325779015327043,0.001481,-0.038071,-0.011012,0.092011,-1.772868,330.022110,20.598907,0.999028,0.978189,0.006271,0.394147,0.000844,0.000781,-0.000041,0.000864,0.000761,-26.196215,0.001627,
2416,2563,3.44442660053678,-1.81026943824585,-0.0173463147880284,0.002231,-0.033832,0.003643,0.075113,-1.492578,321.891887,22.350497,0.999102,0.984146,0.004681,0.470696,0.000129,0.000041,0.000013,0.000131,0.000039,8.515650,0.000178,
2476,2878,4.68821907381458,5.05894363040343,-0.0241501162226996,0.002598,-0.033467,0.005388,0.084636,-1.480938,316.824299,23.518821,0.998586,0.984925,0.004876,0.418995,0.000022,0.000005,-0.000004,0.000023,0.000004,-13.470063,0.000029,
2506,2548,5.41182664540844,-2.13635861197047,0.00232358619251727,0.002186,-0.034056,0.003153,0.073253,-1.497448,322.497248,22.241424,0.999745,0.990009,0.004053,0.376968,0.000164,0.000041,-0.000026,0.000169,0.000036,-11.506067,0.000218,
2431,2623,3.75913951579958,-0.500358136135958,-0.0217805891248872,0.002036,-0.033899,0.001494,0.073863,-1.504892,320.900307,22.524095,0.999363,0.988124,0.004323,0.465229,0.000106,0.000025,0.000015,0.000108,0.000022,10.399505,0.000140,
2476,2608,4.74284598512164,-0.826213316973217,-0.018088247365597,0.001756,-0.034103,0.004995,0.047081,-1.496680,321.240440,22.444876,0.998853,0.984234,0.004739,0.454491,0.000118,0.000038,0.000017,0.000121,0.000034,11.352610,0.000163,
2386,2398,2.82349809521876,-5.41817741143517,-0.00151113977199202,0.001554,-0.034348,-0.002951,0.067940,-1.561469,324.663215,21.862925,0.999142,0.985186,0.004950,0.443866,0.000255,0.000207,0.000010,0.000257,0.000205,11.780898,0.000463,
2401,2473,3.1357874995332,-3.7777207923789,-0.0024469614374425,0.001544,-0.033946,0.000087,0.056642,-1.513617,323.441592,22.088704,0.999284,0.986882,0.004680,0.454003,0.000186,0.000111,0.000015,0.000189,0.000108,10.835578,0.000301,
2491,2953,5.00135320174218,6.69033046384077,-0.00987673237773379,0.003359,-0.033875,0.006314,0.115546,-1.500364,315.787709,23.840552,0.999248,0.988890,0.004129,0.393860,0.000029,-0.000002,-0.000001,0.000029,-0.000002,-2.742438,0.000032,
2506,3013,5.31661913699332,7.9950237139017,0.0051056582086062,0.003134,-0.033513,0.005666,0.107561,-1.488348,314.966107,24.113905,0.999498,0.989708,0.003858,0.409195,0.000022,0.000021,0.000023,0.000045,-0.000002,44.614784,0.000050,
2461,2803,4.37634776531548,3.42538687200017,-0.024320458068587,0.002373,-0.034171,0.007531,0.066193,-1.500194,317.994753,23.243316,0.999290,0.986542,0.004464,0.379810,0.000050,0.000027,0.000003,0.000050,0.000027,6.407219,0.000078,
2416,2308,3.49682800794103,-7.38783287975791,0.00698742931774632,0.001827,-0.034463,-0.005327,0.088971,-1.552933,326.245009,21.466229,0.999129,0.984505,0.004879,0.457470,0.000382,0.000326,-0.000021,0.000389,0.000318,-18.617511,0.000709,
2446,2248,4.16440625387176,-8.70179299142042,0.00601842432644162,0.002280,-0.034895,-0.007298,0.116862,-1.608918,327.286440,21.178643,0.998934,0.977904,0.005721,0.350644,0.000499,0.000450,-0.000057,0.000537,0.000412,-33.404143,0.000951,
2371,2383,2.49831460952564,-5.74565147210491,0.000571517009177569,0.001025,-0.034797,0.003416,0.020978,-1.529632,324.866341,21.915976,0.998987,0.983471,0.005124,0.426831,0.000275,0.000216,0.000012,0.000277,0.000213,10.650059,0.000492,
2431,2398,3.80544692477022,-5.41708410194086,-0.00532591846257446,0.002159,-0.034572,-0.001172,0.088894,-1.555615,324.707112,21.735481,0.999653,0.986938,0.004730,0.436532,0.000276,0.000209,-0.000009,0.000278,0.000208,-7.504851,0.000487,
2461,2578,4.42129115803633,-1.48022413387049,-0.0340170698426618,0.002245,-0.033551,0.001866,0.081763,-1.503180,321.594483,22.328481,0.999504,0.991302,0.004181,0.470388,0.000147,0.000040,0.000007,0.000148,0.000039,3.928527,0.000197,
2506,2803,5.35691535373902,3.42744751315927,-0.0240585829681663,0.002797,-0.033937,0.008793,0.079693,-1.487805,318.127204,23.247048,0.999005,0.985749,0.004996,0.427729,0.000035,0.000008,-0.000007,0.000036,0.000006,-13.278463,0.000046,
2431,2173,3.85207601443389,-10.3482834461777,0.0156954827062918,0.001837,-0.036401,-0.008268,0.099373,-1.682178,328.535464,20.906635,0.999312,0.981853,0.005154,0.355498,0.000612,0.000576,-0.000082,0.000678,0.000510,-38.707980,0.001192,
2476,2893,4.68592231551036,5.38501193377564,-0.0216435264837855,0.003107,-0.033799,0.004967,0.109483,-1.492273,316.625289,23.572459,0.998617,0.985642,0.004758,0.410154,0.000025,0.000006,-0.000002,0.000026,0.000006,-6.284107,0.000034,
2476,2623,4.7402720806935,-0.498693774938239,-0.0172217187958381,0.002161,-0.034248,0.004910,0.065882,-1.510900,321.022390,22.542618,0.999491,0.990238,0.003960,0.399734,0.000108,0.000022,0.000013,0.000110,0.000021,8.175397,0.000140,
2446,2458,4.12072737012776,-4.10434785422604,-0.00400739699824726,0.001892,-0.033555,-0.002434,0.081705,-1.520312,323.764317,21.952831,0.999049,0.985120,0.004894,0.422229,0.000232,0.000119,0.000003,0.000232,0.000119,1.433143,0.000357,
2401,2248,3.18059475789214,-8.70209273792253,0.0030315014891471,0.001776,-0.034985,-0.003952,0.081370,-1.565665,327.156306,21.267529,0.999118,0.982621,0.005337,0.512849,0.000470,0.000430,-0.000037,0.000493,0.000407,-30.794322,0.000901,
2506,3028,5.31404464833875,8.32075193463453,0.00611240291317472,0.003295,-0.033099,0.002474,0.127516,-1.483998,314.748978,24.144986,0.999628,0.991815,0.003602,0.442965,0.000023,0.000037,0.000021,0.000053,0.000008,53.837993,0.000066,
2446,2698,4.07034855628948,1.13719556749588,-0.0304328771782139,0.002199,-0.033632,0.003537,0.073704,-1.488194,319.632522,22.823767,0.999590,0.989413,0.004081,0.432324,0.000082,0.000053,0.000016,0.000089,0.000046,24.495339,0.000137,
2506,2563,5.40936603531425,-1.81053040161969,0.00448952309471906,0.002962,-0.034257,0.006956,0.094044,-1.490235,322.293121,22.154061,0.999760,0.990874,0.003956,0.533338,0.000157,0.000035,-0.000013,0.000158,0.000033,-6.069500,0.000204,
2491,2968,4.99880749507392,7.01563702299539,-0.00226561695808414,0.003096,-0.033797,0.004572,0.110201,-1.500570,315.601086,23.867774,0.999123,0.987180,0.004476,0.424466,0.000020,0.000018,0.000009,0.000028,0.000010,41.028587,0.000040,
2401,2083,3.21393434145189,-12.3225481076003,0.0105382461390491,0.001695,-0.037279,-0.012765,0.108441,-1.741570,329.911268,20.744876,0.998684,0.974965,0.006392,0.327539,0.000807,0.000761,-0.000046,0.000836,0.000733,-31.767286,0.001570,
2416,2578,3.44164579108088,-1.48185808329852,-0.02244359341978,0.002567,-0.034093,0.000547,0.101742,-1.520519,321.631920,22.476957,0.999430,0.988547,0.004215,0.364976,0.000123,0.000044,0.000018,0.000127,0.000040,12.354135,0.000174,
2386,2218,2.85891852728647,-9.35932316835166,0.00634078526871917,0.001336,-0.035902,-0.007015,0.071791,-1.661797,327.644823,21.366398,0.998784,0.979408,0.005785,0.295169,0.000506,0.000487,-0.000040,0.000538,0.000456,-38.127285,0.000995,
2401,2488,3.13273842616748,-3.44951753406335,-0.00456585453684966,0.001640,-0.034090,0.000748,0.058601,-1.531277,323.182399,22.180820,0.999278,0.987785,0.004500,0.390815,0.000176,0.000095,0.000017,0.000179,0.000092,11.354414,0.000276,
2386,2413,2.82112944839255,-5.09010623803611,-0.00238468431683714,0.001882,-0.033786,-0.006298,0.095169,-1.552797,324.440110,21.902673,0.999280,0.985041,0.004843,0.457452,0.000233,0.000187,0.000014,0.000237,0.000184,15.402044,0.000422,
2461,2818,4.37427033554961,3.75120425012116,-0.017929016072344,0.002784,-0.033853,0.007498,0.085356,-1.489782,317.822974,23.260743,0.999192,0.986145,0.004638,0.427049,0.000044,0.000013,0.000002,0.000044,0.000013,3.340007,0.000060,
2431,2638,3.75599512343933,-0.173457265210246,-0.0216878273681118,0.001901,-0.034065,0.002028,0.065608,-1.515321,320.649016,22.559221,0.999495,0.989962,0.004137,0.470231,0.000094,0.000032,0.000015,0.000098,0.000029,12.627488,0.000132,
2506,2818,5.35472236878832,3.75408232439288,-0.0219109932834272,0.003438,-0.034032,0.007775,0.113036,-1.491953,317.933732,23.322253,0.999145,0.988240,0.004494,0.409344,0.000031,0.000003,0.000007,0.000032,0.000002,12.888920,0.000038,
2446,2263,4.16156339052791,-8.37305254597612,0.00723263088690373,0.002347,-0.035121,-0.007315,0.119928,-1.602246,327.056885,21.251548,0.999028,0.977365,0.005793,0.338875,0.000471,0.000413,-0.000062,0.000510,0.000374,-32.366240,0.000888,
2416,2323,3.49414056089157,-7.05882341758372,0.0071939245274848,0.002183,-0.034265,-0.003992,0.100496,-1.528590,326.015056,21.556003,0.998958,0.982117,0.005202,0.441707,0.000357,0.000300,-0.000013,0.000360,0.000297,-12.565730,0.000658,
2461,2593,4.41953103489349,-1.15459553614701,-0.0197550050123709,0.002316,-0.034139,0.001651,0.085567,-1.530562,321.474413,22.373640,0.999050,0.987629,0.004537,0.452426,0.000135,0.000035,0.000015,0.000138,0.000032,8.194630,0.000181,
2506,3043,5.31085987861204,8.64718919443392,0.0110270956064937,0.003357,-0.033736,0.009125,0.104402,-1.479755,314.520943,24.271311,0.999727,0.992271,0.003737,0.380756,0.000020,0.000018,0.000030,0.000049,-0.000011,44.251051,0.000052,
2476,2638,4.73708551134407,-0.171638047772056,-0.0213163728213317,0.002164,-0.033962,0.002496,0.075341,-1.504700,320.753623,22.539995,0.999606,0.990077,0.003870,0.465961,0.000095,0.000035,0.000012,0.000098,0.000033,10.728507,0.000135,
2476,2908,4.68355155815503,5.71101541860701,-0.0159338569564511,0.003245,-0.033536,0.004219,0.118747,-1.490714,316.437350,23.634287,0.998861,0.983395,0.004923,0.406031,0.000023,-0.000009,0.000004,0.000023,-0.000009,6.681187,0.000024,
2431,2413,3.80222959301409,-5.08903228282174,-0.00533182381821007,0.002001,-0.034344,-0.000126,0.077938,-1.514356,324.452739,21.750061,0.999558,0.986772,0.004742,0.514712,0.000253,0.000186,-0.000005,0.000254,0.000186,-4.606900,0.000441,
2446,2473,4.11790757068954,-3.77673359772523,0.00200705437487159,0.001923,-0.034027,0.001679,0.067640,-1.522412,323.557042,22.046057,0.999466,0.987087,0.004534,0.380249,0.000208,0.000102,-0.000001,0.000208,0.000102,-0.621479,0.000316,
2491,2983,4.99540990385028,7.34259537231961,-0.00416085264322419,0.002949,-0.033761,0.004768,0.102706,-1.505520,315.331810,23.989940,0.999065,0.987078,0.004412,0.355431,0.000022,0.000024,0.000019,0.000042,0.000004,47.190087,0.000051,
2431,2188,3.85006023115359,-10.0192473627482,0.0235019836818537,0.002206,-0.036141,-0.007838,0.114819,-1.661360,328.373346,21.035138,0.999638,0.987139,0.004514,0.300182,0.000587,0.000558,-0.000074,0.000648,0.000497,-39.476836,0.001148,
2446,2713,4.06706954532092,1.4645777583401,-0.0362733004010352,0.002122,-0.033272,0.000171,0.082868,-1.483809,319.348338,22.863969,0.999681,0.991726,0.003760,0.449254,0.000073,0.000057,0.000020,0.000086,0.000043,33.746387,0.000132,
2506,2578,5.40446646813819,-1.4799493933604,-0.0144173962471541,0.002412,-0.033819,0.002495,0.086299,-1.487457,321.881934,22.327801,0.999529,0.986931,0.004648,0.425112,0.000142,0.000035,-0.000009,0.000142,0.000034,-4.853193,0.000187,
2461,2833,4.37088866954756,4.07964660865967,-0.0276153769329426,0.003048,-0.033421,0.005267,0.106094,-1.472667,317.516875,23.395101,0.999500,0.989501,0.003999,0.364212,0.000040,0.000005,0.000000,0.000040,0.000005,0.716745,0.000049,
2401,2263,3.17694126834572,-8.37158778330176,-0.00352169236066402,0.001832,-0.035546,-0.000792,0.072305,-1.581848,326.849309,21.445195,0.999273,0.985251,0.004814,0.367277,0.000445,0.000396,-0.000038,0.000465,0.000375,-28.433680,0.000842,
2386,2233,2.85618651972458,-9.0323799014018,0.0256886256952953,0.000998,-0.037222,0.006003,0.009237,-1.647098,327.501526,21.443732,0.999107,0.982891,0.005567,0.277871,0.000480,0.000465,-0.000031,0.000504,0.000441,-38.058040,0.000946,
2446,2278,4.15812682378191,-8.04431709913797,0.00794572061698773,0.002057,-0.035248,-0.004915,0.097684,-1.588659,326.797689,21.317144,0.999148,0.978405,0.005687,0.341372,0.000439,0.000381,-0.000047,0.000466,0.000355,-29.322517,0.000823,
2401,2503,3.12944580746396,-3.12015958341549,-0.016521216359024,0.002106,-0.033734,-0.000731,0.085497,-1.514017,322.865350,22.259641,0.999451,0.988615,0.004311,0.376515,0.000162,0.000090,0.000013,0.000165,0.000088,9.952370,0.000256,
2386,2428,2.81850182431085,-4.76158445563421,-0.00316244665771137,0.002210,-0.033718,-0.006328,0.110391,-1.525258,324.205371,21.970900,0.999350,0.987261,0.004656,0.461657,0.000221,0.000168,0.000017,0.000227,0.000163,16.501621,0.000391,
2461,2608,4.41696845957182,-0.827549895088431,-0.015225054112932,0.002414,-0.034332,0.001716,0.089775,-1.526364,321.272582,22.436334,0.998773,0.984084,0.004962,0.448889,0.000125,0.000033,0.000013,0.000127,0.000031,8.132735,0.000168,
2506,3058,5.30847690627674,8.97165813347819,0.0151747766932431,0.003571,-0.033815,0.007477,0.120559,-1.494187,314.326913,24.233062,0.999719,0.992132,0.003858,0.464949,0.000018,0.000009,0.000027,0.000041,-0.000014,40.611679,0.000042,
2476,2653,4.73446893439754,0.155512923890754,-0.0205000816650909,0.002473,-0.033839,0.001778,0.092290,-1.503358,320.533247,22.597372,0.999594,0.989698,0.003929,0.466940,0.000082,0.000034,0.000012,0.000085,0.000031,13.493456,0.000120,
2506,2833,5.35189543148362,4.07998828878157,-0.0147066255466939,0.002949,-0.033640,0.006037,0.097445,-1.494255,317.733766,23.371006,0.999470,0.989453,0.004143,0.419152,0.000032,-0.000006,0.000011,0.000035,-0.000009,14.738119,0.000036,
2416,2593,3.4378745393128,-1.15520748872702,-0.0236659338194158,0.001828,-0.034030,0.000457,0.068207,-1.528318,321.344758,22.461015,0.999517,0.990410,0.004018,0.421669,0.000115,0.000035,0.000025,0.000123,0.000028,15.912892,0.000160,
2446,2488,4.11521820748337,-3.45030781722475,0.00383628013122461,0.002105,-0.034039,0.002008,0.074724,-1.528784,323.336653,22.000251,0.999397,0.985414,0.004655,0.473055,0.000197,0.000088,-0.000001,0.000197,0.000088,-0.763092,0.000291,
2431,2653,3.75408103320418,0.153425011148684,-0.0137872675676363,0.002476,-0.033818,0.003960,0.085012,-1.489486,320.490340,22.626416,0.999501,0.989571,0.004179,0.479219,0.000079,0.000031,0.000018,0.000085,0.000025,18.442651,0.000115,
2431,2428,3.79845656179586,-4.75967603662599,-0.00700962500565083,0.001312,-0.034287,-0.000600,0.048111,-1.556296,324.165144,21.956581,0.999359,0.985618,0.004875,0.317929,0.000241,0.000163,0.000000,0.000241,0.000163,-0.034108,0.000406,
2506,2593,5.40056432439065,-1.15100052689195,-0.0248955929523618,0.002357,-0.033967,0.000610,0.091001,-1.512207,321.554450,22.459722,0.999830,0.993744,0.003624,0.330561,0.000125,0.000040,-0.000001,0.000125,0.000040,-0.432357,0.000171,
2431,2203,3.84646287477736,-9.69087115013319,0.0155543444255386,0.002181,-0.035770,-0.008316,0.115579,-1.668571,328.066002,20.970640,0.999463,0.984556,0.004926,0.410225,0.000560,0.000512,-0.000066,0.000606,0.000465,-35.065034,0.001075,
2416,2338,3.49029673783221,-6.72984486598313,0.00231464071248411,0.001611,-0.034300,-0.004907,0.077601,-1.541922,325.708425,21.635754,0.998792,0.981536,0.005184,0.398773,0.000340,0.000285,-0.000011,0.000342,0.000283,-11.184054,0.000626,
2446,2728,4.06479283445711,1.78957251105548,-0.0258822449488889,0.002426,-0.034140,0.005495,0.076577,-1.514435,319.185572,22.855647,0.999637,0.991312,0.003766,0.479121,0.000064,0.000066,0.000022,0.000087,0.000043,46.215392,0.000133,
2476,2668,4.73138602215245,0.482071486747031,-0.0238481375698711,0.002791,-0.033937,0.002664,0.103476,-1.513276,320.272606,22.581488,0.999499,0.987134,0.004245,0.530145,0.000077,0.000022,0.000009,0.000079,0.000021,9.550202,0.000105,
2461,2623,4.41322421639062,-0.498188253082802,-0.0234581597534316,0.002377,-0.033503,0.001651,0.088714,-1.488254,320.957498,22.573025,0.999275,0.987797,0.004350,0.405902,0.000118,0.000022,0.000011,0.000120,0.000021,6.152006,0.000151,
2506,2848,5.34865427539686,4.40685691041458,-0.0123703043003616,0.002731,-0.034112,0.007408,0.081989,-1.499585,317.492657,23.478330,0.999674,0.991776,0.003619,0.367007,0.000023,-0.000003,0.000006,0.000024,-0.000005,12.593999,0.000026,
2446,2293,4.1546443607782,-7.71663093077839,0.00389884249864281,0.001826,-0.034796,-0.005809,0.090614,-1.587372,326.514628,21.256184,0.999201,0.979728,0.005535,0.458201,0.000418,0.000350,-0.000040,0.000436,0.000331,-24.966138,0.000770,
2401,2278,3.17235539475919,-8.04086636778201,-0.017754296560156,0.001282,-0.035380,-0.001124,0.048372,-1.589909,326.463328,21.563008,0.999776,0.993871,0.003448,0.289776,0.000418,0.000376,-0.000026,0.000430,0.000363,-25.633730,0.000794,
2446,2503,4.11186026181831,-3.12223190285962,-0.000449991978484832,0.002078,-0.034378,0.001691,0.074575,-1.528801,323.057061,22.048451,0.999502,0.987562,0.004358,0.478274,0.000187,0.000082,-0.000005,0.000187,0.000082,-2.620935,0.000276,
2506,2608,5.39782957195805,-0.824819424305076,-0.021762528023487,0.002430,-0.033651,0.000315,0.095618,-1.499932,321.341683,22.423743,0.999834,0.993243,0.003745,0.440482,0.000116,0.000033,-0.000006,0.000117,0.000033,-4.427675,0.000157,
2401,2518,3.12655029932854,-2.79410224400942,-0.0159337907801955,0.001995,-0.033533,-0.001712,0.084046,-1.489699,322.626042,22.148518,0.999432,0.987634,0.004495,0.558553,0.000149,0.000087,0.000010,0.000151,0.000086,9.026957,0.000240,
2386,2443,2.81441122368011,-4.43278691931768,-0.0107966374444572,0.002039,-0.033833,-0.000943,0.083234,-1.505471,323.870935,22.013206,0.999080,0.987848,0.004741,0.484286,0.000209,0.000155,0.000024,0.000218,0.000146,20.540594,0.000367,
2386,2248,2.85206656378199,-8.70096302875787,0.00202031199353314,0.001195,-0.035779,0.000420,0.038808,-1.585707,327.090310,21.443962,0.999158,0.982449,0.005402,0.385743,0.000460,0.000425,-0.000029,0.000476,0.000408,-29.511480,0.000885,
2431,2443,3.79549290796608,-4.43177377968799,-0.01015574846042,0.001649,-0.034120,0.000299,0.060331,-1.527235,323.907785,21.950232,0.999080,0.985048,0.004922,0.404713,0.000232,0.000145,0.000006,0.000233,0.000144,4.174324,0.000380,
2416,2608,3.43499157900474,-0.827515122238538,-0.024684082869328,0.002025,-0.033858,0.001072,0.075082,-1.512271,321.099015,22.523332,0.999381,0.988409,0.004272,0.423881,0.000105,0.000030,0.000026,0.000113,0.000022,17.373000,0.000145,
2431,2668,3.74978154834737,0.48251525941118,-0.0251807944009101,0.002254,-0.034175,0.006049,0.066951,-1.500427,320.132050,22.776353,0.999511,0.989797,0.004226,0.369234,0.000075,0.000028,0.000015,0.000080,0.000024,16.389830,0.000109,
2431,2218,3.84414092049474,-9.36236333915108,0.0198224602410164,0.002528,-0.035583,-0.007848,0.129841,-1.645814,327.873404,21.021621,0.999437,0.984782,0.004953,0.434592,0.000530,0.000491,-0.000066,0.000579,0.000442,-36.691991,0.001024,
2446,2743,4.0626207740246,2.11602915875748,-0.0165405611984966,0.002484,-0.034055,0.005424,0.079545,-1.512397,319.022327,22.943689,0.999591,0.990301,0.003885,0.445011,0.000061,0.000071,0.000021,0.000088,0.000044,51.315817,0.000135,
2416,2353,3.48695546303267,-6.40125683028339,-0.001742791279014,0.001487,-0.034013,-0.005600,0.074598,-1.538359,325.428585,21.676615,0.998388,0.981171,0.005332,0.411108,0.000326,0.000271,-0.000005,0.000326,0.000270,-5.368458,0.000597,
2476,2683,4.72775251774869,0.810318820714642,-0.0269558992081329,0.002502,-0.034055,0.002965,0.089071,-1.508112,319.987261,22.712849,0.999622,0.988368,0.004116,0.461177,0.000082,0.000038,0.000015,0.000087,0.000033,17.259844,0.000124,
2446,2308,4.15097947691697,-7.38550536098404,-0.00318926801475072,0.001697,-0.034550,-0.006644,0.087924,-1.573093,326.208668,21.472228,0.999084,0.979164,0.005519,0.310936,0.000401,0.000325,-0.000037,0.000416,0.000310,-22.372056,0.000728,
2401,2293,3.16970360343659,-7.71348461382011,-0.0176944498650755,0.001547,-0.035300,-0.000988,0.060068,-1.586137,326.233469,21.514328,0.999518,0.990448,0.003989,0.389734,0.000397,0.000351,-0.000020,0.000404,0.000344,-20.516732,0.000749,
2446,2518,4.1081421173836,-2.79396738058271,-0.00670158497058537,0.001814,-0.034245,0.000944,0.065317,-1.527386,322.751758,22.100298,0.999211,0.985574,0.004628,0.481358,0.000175,0.000087,-0.000005,0.000176,0.000087,-3.481018,0.000268,
2386,2458,2.81172724643598,-4.10374321786007,-0.0139158158306714,0.002600,-0.033510,0.000337,0.104483,-1.498279,323.622364,22.138427,0.999146,0.986739,0.004800,0.410958,0.000200,0.000137,0.000026,0.000209,0.000128,19.639003,0.000341,
2431,2458,3.79292272459454,-4.10378771971053,-0.015715155499322,0.002107,-0.033493,-0.004568,0.099518,-1.525368,323.657324,21.961579,0.999359,0.985708,0.004784,0.446868,0.000218,0.000125,0.000004,0.000219,0.000125,2.528157,0.000347,
2401,2533,3.12354792991377,-2.46533083547209,-0.0123639382219949,0.001743,-0.033348,-0.000389,0.067823,-1.477449,322.395337,22.329774,0.999391,0.988306,0.004499,0.436086,0.000138,0.000068,0.000009,0.000139,0.000067,7.456709,0.000210,
2431,2683,3.74710791111622,0.809474537680359,-0.0269843895283088,0.002319,-0.033485,0.001393,0.087427,-1.484544,319.893291,22.788940,0.999490,0.988647,0.004256,0.422815,0.000077,0.000048,0.000019,0.000086,0.000039,26.106351,0.000128,
2416,2368,3.48451316623749,-6.07445188160588,0.00383611408102524,0.001728,-0.034484,-0.003257,0.076911,-1.557682,325.235222,21.676294,0.998930,0.982871,0.005051,0.441459,0.000309,0.000246,0.000002,0.000309,0.000246,1.453731,0.000557,
2431,2233,3.83995130585302,-9.0318035629097,0.013965859438315,0.002034,-0.035604,-0.005003,0.096759,-1.647836,327.548158,21.185157,0.999162,0.981518,0.005365,0.321630,0.000505,0.000479,-0.000057,0.000550,0.000434,-38.520140,0.000987,
2446,2758,4.058664230267,2.44387890209931,-0.0287036847673789,0.002362,-0.033720,0.003466,0.081397,-1.509496,318.677504,22.992284,0.999545,0.988841,0.004121,0.451983,0.000061,0.000062,0.000020,0.000081,0.000041,45.590885,0.000124,
2476,2698,4.72493521789678,1.13759948385496,-0.0223040323923556,0.002432,-0.033799,0.003930,0.082298,-1.490034,319.774738,22.810966,0.999664,0.988085,0.004264,0.438008,0.000078,0.000045,0.000017,0.000086,0.000037,23.134164,0.000126,
2401,2308,3.16711671554668,-7.38604610124017,-0.0163199472243605,0.001852,-0.035027,0.000149,0.070043,-1.559779,326.012608,21.466521,0.999773,0.993801,0.003513,0.511723,0.000379,0.000325,-0.000014,0.000383,0.000321,-13.823253,0.000705,
2416,2383,3.48250765601152,-5.74599013066863,0.0108492212684723,0.002074,-0.034341,-0.003771,0.094657,-1.567156,325.068254,21.835816,0.999634,0.986863,0.004551,0.321528,0.000291,0.000220,-0.000001,0.000291,0.000220,-1.156162,0.000512,
2446,2533,4.10568412951579,-2.46391426715963,-0.0115530107793802,0.002323,-0.033222,-0.004479,0.109294,-1.498766,322.510297,22.307040,0.999210,0.987273,0.004521,0.356502,0.000165,0.000072,-0.000003,0.000166,0.000072,-1.780136,0.000243,
2431,2473,3.78984410111136,-3.77697650171749,-0.00568881488459283,0.001579,-0.034189,0.000201,0.057442,-1.528044,323.455871,22.019564,0.999267,0.984884,0.004811,0.437045,0.000195,0.000105,-0.000002,0.000195,0.000105,-1.141553,0.000305,
2401,2323,3.16525585893114,-7.05850808488293,0.00379929945773938,0.001490,-0.034964,0.002332,0.045587,-1.531297,325.913044,21.616647,0.999303,0.987132,0.004478,0.436730,0.000353,0.000297,-0.000008,0.000354,0.000296,-8.050157,0.000651,
2416,2398,3.4788564750189,-5.41831352267742,0.00148368745038852,0.002248,-0.034675,-0.002138,0.096544,-1.577589,324.749408,21.771769,0.999506,0.986462,0.004705,0.424736,0.000267,0.000212,0.000002,0.000267,0.000212,1.561917,0.000480,
2446,2548,4.10183947633169,-2.13652562999575,-0.0129952025582156,0.001994,-0.033457,0.000386,0.076027,-1.482490,322.221237,22.317818,0.999531,0.989165,0.004181,0.415486,0.000157,0.000046,0.000001,0.000157,0.000046,0.687410,0.000213,
