Image X[Pixel],Image Y[Pixel],X[mm],Y[mm],Z[mm],Horizontal Displacement U[mm],Vertical Displacement V[mm],Out-Of-Plane: W[mm],Horizontal: u[Pixel],Vertical: v[Pixel],Horizontal: q[Pixel],Vertical: r[Pixel],Correlation Value 2D,Correlation Value Persp,Sigma,Epipolar Distance,Strain-global frame: Exx,Strain-global frame: Eyy,Strain-global frame: Exy,Maximum Principal Strain: EI,Minimum Principal Strain: EII,Shear Angle Gamma,Von Mises Equivalent Strain,
2011,1993,-5.29216351244105,-14.3230275363258,0.00991788701043106,-0.007501,-0.070793,-0.020498,-0.309954,-3.301801,331.976500,21.567998,0.998105,0.980349,0.005797,0.409391,0.001395,0.001117,0.000196,0.001496,0.001015,27.354152,0.002527,
2071,2293,-4.02462741316939,-7.74571472161551,-0.0198824730690603,-0.000618,-0.065096,-0.018341,0.002857,-3.019494,326.873350,21.354452,0.999738,0.993047,0.003907,0.477749,0.000537,0.000474,0.000090,0.000601,0.000410,35.399873,0.001016,
2026,2068,-4.97385468655995,-12.6773307644484,0.0097848965593812,-0.005229,-0.068961,-0.019202,-0.208434,-3.237188,330.781601,21.511730,0.999400,0.989863,0.004349,0.393037,0.001111,0.000939,0.000173,0.001218,0.000831,31.787361,0.002061,
2041,2143,-4.65684961042253,-11.0327190475941,0.00772605528834447,-0.003434,-0.068404,-0.011472,-0.147089,-3.151546,329.532782,21.454933,0.997789,0.980809,0.006061,0.418383,0.000860,0.000836,0.000153,0.001001,0.000695,42.741971,0.001706,
2056,2218,-4.34011177532782,-9.38751727662496,-0.00341625303826731,-0.001656,-0.066391,-0.013971,-0.057794,-3.050445,328.237617,21.480473,0.998051,0.981006,0.005621,0.397206,0.000676,0.000635,0.000130,0.000787,0.000524,40.583467,0.001320,
2086,2368,-3.70809449239257,-6.10700421926425,-0.0167529630929835,0.001275,-0.065603,-0.011119,0.069164,-3.018533,325.680404,21.308707,0.997994,0.980822,0.005634,0.467207,0.000400,0.000289,0.000040,0.000413,0.000276,17.878178,0.000694,
2026,2083,-4.97600009463877,-12.3472511338472,0.00490662651787943,-0.004841,-0.068484,-0.018274,-0.193044,-3.212341,330.515442,21.551079,0.998901,0.985904,0.004945,0.372101,0.001067,0.000937,0.000180,0.001193,0.000811,35.018337,0.002016,
2221,3043,-0.880314784464286,8.59371010848331,0.011719984212732,0.006340,-0.065520,0.007627,0.243408,-2.948907,314.629605,21.830079,0.999641,0.993242,0.003384,0.425097,0.000014,0.000010,-0.000004,0.000016,0.000008,-29.824628,0.000024,
2146,2668,-2.44922863421969,0.438537316536355,-0.0218800112750159,0.004325,-0.065153,-0.001234,0.180103,-2.954833,320.629896,21.305654,0.999596,0.991001,0.003788,0.510160,0.000114,0.000038,0.000001,0.000114,0.000038,0.874558,0.000159,
2266,3268,0.0582709458340993,13.475533099817,0.024842174258481,0.007989,-0.065551,0.012594,0.301340,-2.967467,311.019640,22.298269,0.999586,0.992632,0.003505,0.450051,0.000004,0.000045,0.000002,0.000045,0.000004,86.871155,0.000055,
2101,2443,-3.39282557341425,-4.46853647673795,-0.0135721457687055,0.002156,-0.065314,-0.004438,0.090377,-2.973304,324.444610,21.323700,0.999219,0.987672,0.004534,0.460872,0.000294,0.000143,0.000024,0.000298,0.000139,8.938396,0.000446,
2191,2893,-1.50749346088678,5.33542909257251,-0.0078005438978721,0.005711,-0.065302,0.005243,0.222903,-2.958061,316.976148,21.614542,0.999751,0.994671,0.003260,0.395732,0.000021,0.000033,-0.000010,0.000039,0.000016,-60.199561,0.000056,
2161,2743,-2.13568902878196,2.07279945748795,-0.0269395760290081,0.004975,-0.065373,0.003193,0.196155,-2.967625,319.329699,21.412260,0.999335,0.988819,0.004246,0.436110,0.000069,0.000035,-0.000019,0.000077,0.000027,-24.283955,0.000108,
2071,2323,-4.02829306504939,-7.09039244429749,-0.011840210052867,0.000405,-0.065666,-0.008832,0.022566,-3.011470,326.476891,21.390441,0.999077,0.987399,0.004702,0.447048,0.000462,0.000370,0.000057,0.000489,0.000342,25.715840,0.000836,
2176,2818,-1.82266111730321,3.70619830730581,-0.0274401290399169,0.004882,-0.065017,0.004806,0.186614,-2.949283,318.044025,21.561992,0.999268,0.990040,0.004068,0.370767,0.000039,0.000035,-0.000015,0.000052,0.000022,-41.346355,0.000076,
2506,3073,5.30773172450341,9.26474368480482,0.0105763369136298,0.006695,-0.067043,0.012021,0.231981,-3.021665,314.179104,22.760165,0.999614,0.991391,0.004010,0.464755,0.000033,0.000024,0.000055,0.000084,-0.000027,42.739403,0.000086,
2101,2458,-3.39558966265334,-4.14076441360833,-0.0176311064647052,0.002055,-0.065305,-0.003932,0.084251,-2.965101,324.162414,21.317925,0.999273,0.988290,0.004376,0.477541,0.000272,0.000122,0.000016,0.000274,0.000120,6.182413,0.000404,
2431,2698,3.74708444219067,1.10365015442201,-0.024781707734121,0.005091,-0.066685,0.001355,0.200927,-3.024161,319.805813,21.381164,0.999740,0.991655,0.003748,0.335931,0.000117,0.000088,0.000005,0.000118,0.000087,10.350543,0.000205,
2266,3283,0.0546582765346741,13.8005772833345,0.0158176681146074,0.007733,-0.065885,0.012373,0.290197,-2.982467,310.686941,22.291095,0.999476,0.992224,0.003503,0.466291,0.000003,0.000048,0.000002,0.000048,0.000003,86.841558,0.000057,
2176,2833,-1.82528935045686,4.0322091519303,-0.0326678802489369,0.005231,-0.065128,0.006057,0.198793,-2.943530,317.768685,21.513821,0.999601,0.993856,0.003458,0.436884,0.000037,0.000034,-0.000011,0.000047,0.000024,-41.898872,0.000073,
2071,2308,-4.02759009206691,-7.41652076061767,-0.027023041580776,-0.000530,-0.065171,-0.013468,-0.007002,-3.018002,326.562219,21.401385,0.999750,0.992732,0.004031,0.431483,0.000494,0.000426,0.000069,0.000537,0.000383,31.855628,0.000924,
2116,2533,-3.08120594669311,-2.5036624240746,-0.0259376088625345,0.002702,-0.065203,-0.003641,0.113042,-2.957705,322.840771,21.292427,0.998922,0.985264,0.004903,0.496443,0.000200,0.000101,0.000019,0.000204,0.000098,10.337204,0.000308,
2236,3133,-0.569509601550276,10.5469368921462,0.0204989212014652,0.006937,-0.065648,0.008884,0.266261,-2.961896,313.219105,21.996205,0.999604,0.992079,0.003759,0.415499,-0.000004,0.000022,0.000000,0.000022,-0.000004,-89.866468,0.000023,
2401,2548,3.12322854258937,-2.17195055001577,-0.013907424493766,0.004482,-0.066931,-0.000151,0.178858,-3.015012,322.275320,20.771848,0.999166,0.988793,0.004758,0.497848,0.000221,0.000114,0.000009,0.000222,0.000113,4.652168,0.000341,
2236,3118,-0.566536675431891,10.2215509610688,0.0230138621948299,0.007007,-0.065379,0.008019,0.272392,-2.950912,313.491529,21.980658,0.999566,0.991751,0.003704,0.422061,0.000000,0.000017,-0.000001,0.000017,0.000000,-88.239869,0.000020,
2161,2758,-2.13830806857208,2.39861871437662,-0.0218941977178133,0.004676,-0.065668,0.005457,0.175378,-2.968302,319.107758,21.409902,0.998997,0.985765,0.004543,0.448038,0.000063,0.000033,-0.000019,0.000073,0.000024,-25.720461,0.000101,
2251,3208,-0.255082602862654,12.1724497474679,0.0467525811009182,0.007460,-0.066019,0.009825,0.286568,-2.986862,312.200433,22.154202,0.999685,0.994732,0.003216,0.404942,-0.000003,0.000048,-0.000004,0.000048,-0.000003,-85.360459,0.000054,
2206,2968,-1.19305171774548,6.96508898494358,0.00288296743514138,0.006470,-0.065059,0.003082,0.264414,-2.944782,315.840457,21.717940,0.999323,0.990264,0.003949,0.413123,0.000019,0.000014,-0.000005,0.000022,0.000012,-30.077928,0.000034,
2026,2098,-4.97720538706617,-12.0174263151272,0.00296547632905231,-0.003994,-0.067487,-0.022440,-0.142518,-3.164186,330.308422,21.582127,0.998892,0.980314,0.005502,0.382408,0.001019,0.000924,0.000182,0.001160,0.000783,37.675941,0.001955,
2446,2773,4.05832944658917,2.73731745473285,-0.0324031841913666,0.004998,-0.066673,-0.000562,0.203542,-3.036131,318.549325,21.477356,0.999515,0.987773,0.004378,0.487481,0.000076,0.000036,0.000010,0.000078,0.000034,13.455996,0.000115,
2221,3058,-0.881778699216394,8.91793746550981,0.0217218918144795,0.006775,-0.065650,0.007190,0.264769,-2.964619,314.490273,21.804697,0.999690,0.994092,0.003140,0.452822,0.000017,0.000012,-0.000003,0.000018,0.000011,-22.431102,0.000030,
2116,2518,-3.07864287863126,-2.83059461559908,-0.0215590998317907,0.002790,-0.065385,-0.000378,0.107371,-2.959479,323.113938,21.345026,0.999110,0.986815,0.004571,0.437340,0.000221,0.000112,0.000016,0.000223,0.000109,8.269148,0.000339,
2011,2038,-5.29794314943561,-13.3328838347963,-0.0103230132569365,-0.005775,-0.069264,-0.022651,-0.224615,-3.253373,331.172147,21.570357,0.997409,0.978386,0.006075,0.430643,0.001234,0.000901,0.000172,0.001307,0.000828,22.921873,0.002153,
2011,2008,-5.2942609717189,-13.9909489201553,-0.00208165941756988,-0.006597,-0.070152,-0.018178,-0.274602,-3.277868,331.670836,21.679616,0.997674,0.980428,0.005962,0.313759,0.001357,0.001076,0.000208,0.001467,0.000966,27.956111,0.002450,
2296,2023,0.9297851298778,-13.6761963092866,0.00945445780217824,0.000387,-0.074095,-0.017571,0.048824,-3.427050,330.821789,19.376124,0.998478,0.979048,0.006017,0.527483,0.001148,0.001178,-0.000059,0.001224,0.001102,-52.024227,0.002327,
2131,2608,-2.76614030386784,-0.868177559336651,-0.0258467874114103,0.003686,-0.065011,-0.004565,0.160920,-2.966881,321.610504,21.335842,0.999322,0.988853,0.004446,0.449739,0.000150,0.000054,0.000014,0.000152,0.000052,8.119088,0.000212,
2101,2473,-3.39809473212523,-3.81266054667204,-0.0197433324287886,0.002109,-0.065076,-0.003161,0.084531,-2.953842,323.902475,21.362846,0.999202,0.988516,0.004403,0.446725,0.000257,0.000124,0.000025,0.000262,0.000120,10.456619,0.000391,
2041,2173,-4.66182659522133,-10.3738984071309,-0.0035481207175394,-0.003259,-0.067969,-0.011198,-0.139746,-3.131666,328.964229,21.489704,0.999113,0.987933,0.004623,0.394625,0.000782,0.000717,0.000133,0.000887,0.000612,38.205608,0.001508,
2221,3073,-0.884281133097623,9.24387225937713,0.0222819192188695,0.006799,-0.065487,0.006191,0.269081,-2.972594,314.254065,21.870757,0.999603,0.992784,0.003391,0.396763,0.000014,0.000017,-0.000005,0.000020,0.000011,-52.733479,0.000032,
2386,2473,2.81064838909445,-3.80958379841048,-0.0180616307305286,0.004233,-0.066774,-0.006092,0.189006,-3.020609,323.454054,20.590453,0.999146,0.988432,0.004667,0.476623,0.000303,0.000184,0.000018,0.000306,0.000181,8.560481,0.000492,
2206,2983,-1.19639579749614,7.29129602155773,0.000925937516342401,0.005979,-0.065049,0.004735,0.236603,-2.942076,315.551519,21.758061,0.999409,0.990950,0.003761,0.391586,0.000018,0.000017,-0.000001,0.000019,0.000016,-34.326422,0.000036,
2026,2128,-4.98213296101699,-11.3585215046176,-0.00979473844415679,-0.003619,-0.067306,-0.019789,-0.132553,-3.164840,329.730930,21.594497,0.997978,0.977746,0.006299,0.356561,0.000930,0.000858,0.000178,0.001075,0.000713,39.244280,0.001800,
2296,2038,0.927862991178845,-13.3438704741474,0.0139009010633799,0.000686,-0.072348,-0.019989,0.071316,-3.367164,330.638011,19.677179,0.998737,0.982622,0.005460,0.319654,0.001113,0.001147,-0.000054,0.001186,0.001073,-53.758290,0.002260,
2461,2848,4.37040094118504,4.37218868841403,-0.0293960286797414,0.005776,-0.066722,0.005870,0.214930,-3.008861,317.391521,21.842903,0.999712,0.992358,0.003514,0.429302,0.000038,0.000024,0.000006,0.000040,0.000022,19.753567,0.000063,
2311,2098,1.24442786618041,-12.0253028940332,-0.00181150260249296,0.001849,-0.071496,-0.018277,0.119462,-3.319484,329.577939,19.711174,0.998817,0.980772,0.005821,0.375710,0.000982,0.001079,-0.000038,0.001092,0.000969,-71.023291,0.002063,
2086,2398,-3.71257417577282,-5.4507643460692,-0.0182167934164568,0.001614,-0.065256,-0.010283,0.082429,-3.007791,325.197222,21.382891,0.998501,0.983542,0.005140,0.405506,0.000356,0.000213,0.000028,0.000362,0.000208,10.805946,0.000576,
2056,2233,-4.34262484142191,-9.0582598565174,-0.0108307317801746,-0.001350,-0.066122,-0.012336,-0.048293,-3.038220,327.943973,21.489739,0.998687,0.986411,0.005096,0.397511,0.000646,0.000596,0.000120,0.000743,0.000499,39.040879,0.001250,
2491,2998,4.99635873580631,7.63430878691813,0.00602116415893761,0.006280,-0.066822,0.006819,0.233550,-3.032273,315.328334,22.471196,0.999354,0.987912,0.004153,0.400243,0.000031,0.000008,0.000045,0.000066,-0.000027,37.913373,0.000066,
2131,2593,-2.7641976477977,-1.19414070343077,-0.0316859682284871,0.003527,-0.064509,-0.005236,0.155868,-2.916242,321.799055,21.310974,0.999258,0.989732,0.004350,0.519048,0.000155,0.000073,0.000020,0.000159,0.000069,13.177159,0.000234,
2341,2248,1.8703643502042,-8.73454466674019,-0.00997895494964496,0.001999,-0.069226,-0.008218,0.093030,-3.167945,327.052672,20.021628,0.998929,0.980542,0.005396,0.428809,0.000629,0.000609,-0.000032,0.000652,0.000586,-36.465418,0.001239,
2026,2113,-4.98002836400457,-11.6880034291636,-0.00590575638193513,-0.003921,-0.067703,-0.019514,-0.147281,-3.170714,329.989486,21.561619,0.998017,0.977653,0.006151,0.390067,0.000975,0.000884,0.000177,0.001112,0.000747,37.739528,0.001871,
2116,2548,-3.08353899699054,-2.17608333651992,-0.0297946561946105,0.003203,-0.065100,-0.000919,0.128024,-2.947719,322.580733,21.300866,0.999058,0.987099,0.004605,0.502487,0.000188,0.000094,0.000025,0.000194,0.000088,14.284497,0.000289,
2251,3193,-0.252736818731815,11.8476133595515,0.0476163862555836,0.007253,-0.065858,0.012629,0.267902,-2.968191,312.434422,22.153425,0.999428,0.991790,0.003628,0.402369,-0.000002,0.000051,-0.000004,0.000051,-0.000002,-85.538333,0.000058,
2056,2248,-4.34467191531705,-8.73148840164814,-0.00741112543016698,-0.001261,-0.066865,-0.010892,-0.048503,-3.077672,327.731860,21.441006,0.998724,0.984176,0.005183,0.403808,0.000617,0.000589,0.000112,0.000716,0.000490,41.341128,0.001213,
2191,2908,-1.5096029683247,5.6594011936021,-0.0018951191590304,0.005893,-0.065736,0.007148,0.225191,-2.964823,316.784474,21.493889,0.999708,0.994532,0.003365,0.523582,0.000023,0.000027,-0.000008,0.000033,0.000017,-52.698953,0.000051,
2191,2923,-1.51209412145367,5.98693780408993,-0.00312143806110043,0.006034,-0.065374,0.006713,0.233145,-2.960928,316.537005,21.642857,0.999313,0.990533,0.003965,0.392700,0.000024,0.000026,-0.000009,0.000034,0.000016,-48.645440,0.000051,
2101,2503,-3.40238326784552,-3.15813712296769,-0.0235094829275795,0.002647,-0.065058,-0.005697,0.116703,-2.960592,323.418604,21.347268,0.999098,0.988647,0.004304,0.460340,0.000234,0.000104,0.000019,0.000236,0.000102,8.168307,0.000347,
2371,2398,2.49704338327308,-5.45098678874463,-0.00954637355806653,0.002767,-0.067657,-0.004737,0.116597,-3.078811,324.659740,20.359074,0.999197,0.987611,0.004775,0.472829,0.000393,0.000318,-0.000001,0.000393,0.000318,-1.043744,0.000712,
2476,2923,4.68302348489568,6.00468221887074,-0.015322802838682,0.005780,-0.066536,0.004994,0.218052,-3.022802,316.321480,22.217992,0.999168,0.985209,0.004656,0.340819,0.000030,0.000007,0.000024,0.000045,-0.000009,32.474455,0.000048,
2506,3088,5.30571803923317,9.59077001930518,0.0174831579979013,0.006871,-0.066720,0.008259,0.254815,-3.018269,314.013847,22.872350,0.999667,0.992602,0.003527,0.416318,0.000042,0.000037,0.000061,0.000100,-0.000021,43.717737,0.000106,
2071,2338,-4.02955233341338,-6.76291995974123,-0.00878169538390239,0.000968,-0.065058,-0.013391,0.061610,-3.009426,326.299700,21.390362,0.998546,0.985396,0.004975,0.447623,0.000437,0.000337,0.000050,0.000458,0.000316,22.518157,0.000778,
2041,2188,-4.66348218774324,-10.0444354085426,-0.0065526402041769,-0.002645,-0.066858,-0.013458,-0.104954,-3.087564,328.732345,21.514619,0.998894,0.985830,0.004955,0.408817,0.000736,0.000696,0.000130,0.000847,0.000585,40.710573,0.001440,
2026,2143,-4.98397488209918,-11.0310923648461,-0.000243177349318557,-0.003416,-0.067239,-0.012531,-0.143126,-3.109155,329.559202,21.541027,0.997683,0.977533,0.006195,0.458356,0.000887,0.000843,0.000172,0.001038,0.000692,41.409971,0.001741,
2326,2173,1.55810621469518,-10.3783663256805,-0.0039769827756686,0.002379,-0.070063,-0.012988,0.126496,-3.213752,328.349698,19.929993,0.998646,0.977748,0.005667,0.358730,0.000803,0.000859,-0.000037,0.000878,0.000785,-63.310985,0.001663,
2281,2008,0.604709452587837,-14.003746314099,0.0135339299436055,0.000089,-0.073957,-0.016450,0.031172,-3.403762,331.093353,19.595877,0.998790,0.980933,0.005787,0.401792,0.001141,0.001150,-0.000091,0.001237,0.001054,-46.302272,0.002293,
2086,2383,-3.71052958143599,-5.77764283459824,-0.022665483934702,0.001471,-0.065151,-0.012427,0.082090,-3.011049,325.401472,21.404684,0.997777,0.980466,0.005712,0.379889,0.000379,0.000260,0.000036,0.000389,0.000250,15.632386,0.000644,
2041,2158,-4.66075542799089,-10.7010885576089,-0.00679232474368519,-0.003832,-0.068754,-0.005081,-0.183200,-3.139031,329.134317,21.574500,0.999150,0.985935,0.004967,0.307454,0.000814,0.000781,0.000137,0.000936,0.000659,41.624420,0.001603,
2131,2623,-2.76834148457272,-0.541345440059118,-0.023583820547401,0.003913,-0.064978,-0.002496,0.165241,-2.949409,321.390611,21.345862,0.999421,0.988982,0.004285,0.463562,0.000140,0.000049,0.000010,0.000141,0.000048,5.971427,0.000196,
2491,3013,4.99323777193215,7.96089363401085,0.00420159419462607,0.006529,-0.066883,0.008534,0.238436,-3.023183,315.072075,22.552917,0.999585,0.992429,0.003521,0.385594,0.000031,0.000012,0.000049,0.000071,-0.000028,39.512143,0.000072,
2101,2488,-3.40041516398136,-3.48614669115506,-0.0185204906845229,0.002138,-0.065038,-0.002238,0.083189,-2.952519,323.669409,21.307863,0.999066,0.988475,0.004379,0.505152,0.000247,0.000122,0.000024,0.000251,0.000118,10.506196,0.000377,
2011,2053,-5.29997956721786,-13.0038677117958,-0.00430437249463012,-0.005588,-0.070082,-0.015489,-0.235681,-3.261435,330.970689,21.656712,0.999038,0.990192,0.004312,0.327581,0.001188,0.000914,0.000175,0.001273,0.000829,25.926564,0.002118,
2026,2158,-4.98641019554777,-10.7008616795662,-0.000796374003414257,-0.003427,-0.067694,-0.009472,-0.152220,-3.100232,329.303961,21.685645,0.999020,0.984981,0.005011,0.316021,0.000834,0.000782,0.000151,0.000962,0.000655,40.179050,0.001626,
2416,2623,3.43454243622295,-0.533923172332443,-0.0239214918223638,0.004497,-0.067012,0.001548,0.173100,-3.029038,320.984581,21.006519,0.999266,0.987481,0.004337,0.467381,0.000158,0.000090,0.000008,0.000159,0.000090,6.463136,0.000252,
2476,2938,4.6804042459676,6.33011005472302,-0.00922879197264592,0.005831,-0.066690,0.006593,0.214287,-3.022692,316.123861,22.237888,0.999337,0.988151,0.004209,0.377068,0.000026,0.000008,0.000023,0.000042,-0.000008,33.723954,0.000044,
2116,2578,-3.08779516793878,-1.5221660791437,-0.0239323335443942,0.003337,-0.065047,-0.001697,0.136514,-2.963328,322.152692,21.374063,0.999328,0.989213,0.004323,0.421901,0.000160,0.000071,0.000020,0.000165,0.000067,12.266168,0.000238,
2236,3148,-0.571321129913695,10.8717368869329,0.02977059793227,0.007076,-0.065249,0.008109,0.275325,-2.949773,313.060498,22.010593,0.999269,0.990425,0.003954,0.433094,-0.000006,0.000026,-0.000005,0.000027,-0.000007,-82.241881,0.000028,
2086,2413,-3.7144995152826,-5.12393490597788,-0.013600545352574,0.001867,-0.065337,-0.008147,0.087849,-3.005589,324.999367,21.363576,0.998740,0.984608,0.004853,0.427297,0.000339,0.000176,0.000030,0.000345,0.000170,10.204370,0.000525,
2056,2263,-4.34669479776425,-8.40183315644877,-0.0129144095946572,-0.000675,-0.066111,-0.010847,-0.021513,-3.027911,327.470855,21.480311,0.999039,0.982791,0.005360,0.411182,0.000587,0.000560,0.000107,0.000681,0.000466,41.362897,0.001153,
2176,2878,-1.83077938436746,5.00837486857979,-0.00402222678872022,0.005521,-0.065453,0.007475,0.207612,-2.958059,317.285371,21.585286,0.999417,0.992352,0.003574,0.386412,0.000031,0.000037,-0.000014,0.000048,0.000019,-50.955968,0.000070,
2071,2353,-4.03304551790346,-6.4339612074227,-0.0126230870729955,0.000266,-0.065220,-0.009506,0.018216,-2.980250,325.982289,21.436609,0.998177,0.981842,0.005450,0.429579,0.000415,0.000305,0.000047,0.000433,0.000288,20.477338,0.000725,
2176,2848,-1.82698771496116,4.35726370394099,-0.021197341347829,0.005354,-0.065543,0.006917,0.201627,-2.961752,317.623814,21.531686,0.999280,0.991335,0.003751,0.412605,0.000031,0.000032,-0.000011,0.000042,0.000020,-46.871213,0.000064,
2296,2083,0.919163008160307,-12.3548571124303,0.00563335720408986,0.000962,-0.072004,-0.017001,0.074007,-3.322724,329.847241,19.780989,0.999065,0.982811,0.005281,0.360628,0.001004,0.001104,-0.000035,0.001115,0.000993,-72.413473,0.002109,
2296,2053,0.925029357087073,-13.0148740997248,0.013147970079217,0.000895,-0.072641,-0.016247,0.068197,-3.365121,330.387523,19.679534,0.998392,0.981264,0.005690,0.352725,0.001076,0.001141,-0.000045,0.001164,0.001053,-62.741449,0.002218,
2461,2863,4.36778034739513,4.69830559910839,-0.0248620133913278,0.005616,-0.066543,0.003588,0.216244,-3.006468,317.185979,21.893931,0.999451,0.990283,0.003852,0.434671,0.000038,0.000024,0.000007,0.000040,0.000022,22.487908,0.000063,
2356,2323,2.1841628511867,-7.09295231958483,-0.0074974772452947,0.002658,-0.068544,-0.004920,0.111973,-3.111478,325.881364,20.119160,0.999624,0.993436,0.003913,0.523606,0.000486,0.000405,-0.000019,0.000490,0.000401,-12.456479,0.000892,
2131,2653,-2.77252172420989,0.111355083444067,-0.0171475620883257,0.004140,-0.065023,-0.003382,0.178296,-2.958799,320.971584,21.350733,0.999633,0.990445,0.003862,0.461444,0.000117,0.000047,0.000008,0.000118,0.000046,6.744561,0.000170,
2011,2023,-5.29590876584535,-13.6628296851744,-0.00405482756735864,-0.006198,-0.069634,-0.021600,-0.246896,-3.282412,331.442546,21.579789,0.997641,0.979981,0.005996,0.400540,0.001287,0.000953,0.000168,0.001357,0.000883,22.586295,0.002257,
2101,2518,-3.40527923671507,-2.83071525569202,-0.0240118493759951,0.002482,-0.065544,-0.000704,0.094348,-2.975566,323.149716,21.385926,0.999505,0.991869,0.003813,0.409101,0.000216,0.000100,0.000026,0.000221,0.000094,12.239996,0.000324,
2191,2953,-1.51687903885295,6.63759459693011,0.00730421595591224,0.005805,-0.065540,0.008507,0.216987,-2.948977,316.119535,21.633888,0.999285,0.991099,0.003856,0.441387,0.000026,0.000008,-0.000010,0.000030,0.000003,-24.368308,0.000037,
2221,3103,-0.889084713770519,9.89383594684453,0.0305161605883768,0.006936,-0.065795,0.009708,0.263950,-2.986747,313.828082,21.882120,0.999499,0.991765,0.003667,0.407065,0.000007,0.000016,-0.000001,0.000016,0.000006,-84.286526,0.000023,
2206,3028,-1.20307847837876,8.26718207112899,0.0118427521156832,0.006699,-0.065365,0.009721,0.253804,-2.951429,314.926234,21.781688,0.999549,0.992493,0.003607,0.406523,0.000015,0.000015,-0.000002,0.000017,0.000013,-46.172884,0.000031,
2386,2488,2.80737149133472,-3.48194103324595,-0.0170980393040168,0.003938,-0.066724,-0.003997,0.167956,-3.026414,323.197783,20.648105,0.999246,0.988360,0.004479,0.457946,0.000286,0.000162,0.000015,0.000288,0.000160,6.856942,0.000454,
2161,2803,-2.14462612594395,3.37794485445742,-0.0182763047340586,0.005472,-0.065012,0.002853,0.220249,-2.939664,318.451170,21.477309,0.999505,0.991146,0.003895,0.439395,0.000046,0.000033,-0.000016,0.000057,0.000022,-34.283359,0.000081,
2206,2998,-1.19896025350064,7.61622949045107,0.00352465135529201,0.006165,-0.065770,0.009454,0.229960,-2.955454,315.322376,21.732266,0.999401,0.990687,0.003859,0.419987,0.000015,0.000015,-0.000001,0.000016,0.000014,-44.618217,0.000030,
2281,2023,0.601720256917265,-13.673451897726,0.0042046522282817,0.000115,-0.073135,-0.021196,0.048481,-3.399279,330.791748,19.605718,0.998642,0.980177,0.005875,0.428166,0.001111,0.001162,-0.000057,0.001198,0.001074,-57.091712,0.002274,
2251,3253,-0.263767959536338,13.148854716826,0.0398562015645894,0.007600,-0.065445,0.013305,0.281902,-2.945962,311.399879,22.234236,0.999606,0.993526,0.003374,0.431620,-0.000006,0.000035,-0.000001,0.000035,-0.000006,-88.696261,0.000037,
2146,2683,-2.45233426913092,0.76624252608886,-0.0288836050690975,0.004387,-0.065668,0.002157,0.172513,-2.978275,320.320375,21.378055,0.999359,0.989975,0.003932,0.422756,0.000106,0.000039,-0.000004,0.000106,0.000038,-3.074705,0.000150,
2431,2713,3.74489394852819,1.42852309538681,-0.014891183675104,0.005160,-0.066645,0.002556,0.199678,-3.016295,319.643906,21.313959,0.999692,0.991355,0.003784,0.461148,0.000103,0.000083,0.000012,0.000109,0.000078,24.621125,0.000187,
2341,2263,1.86826788129703,-8.40634008613478,-0.00678546654410184,0.002364,-0.068819,-0.009496,0.114371,-3.146667,326.858332,20.050480,0.999002,0.981749,0.005271,0.460154,0.000590,0.000551,-0.000038,0.000614,0.000527,-31.388713,0.001142,
2506,3103,5.30303091349676,9.91602512404808,0.0178873839068387,0.007074,-0.066599,0.006299,0.271787,-3.018534,313.788556,22.879189,0.999638,0.992153,0.003553,0.469232,0.000041,0.000028,0.000070,0.000105,-0.000035,42.210628,0.000106,
2401,2563,3.11974176719709,-1.84380017831217,-0.0208836005363082,0.004453,-0.066720,-0.000385,0.178466,-3.007684,321.972749,20.816601,0.999125,0.986862,0.004671,0.507280,0.000203,0.000108,0.000010,0.000203,0.000107,5.754181,0.000315,
2056,2278,-4.34882461563107,-8.07215229807341,-0.0156861370476804,-0.000427,-0.065501,-0.011886,-0.006997,-3.028376,327.220189,21.605622,0.999610,0.990629,0.004251,0.282294,0.000562,0.000508,0.000102,0.000640,0.000430,37.541039,0.001077,
2146,2698,-2.45483091733151,1.09352529003637,-0.0330706310967912,0.004670,-0.065171,0.002564,0.184497,-2.949362,320.053654,21.388070,0.999338,0.989738,0.004037,0.450127,0.000098,0.000038,-0.000005,0.000098,0.000037,-4.519586,0.000140,
2251,3223,-0.257014556406912,12.4971291674662,0.0565271367188416,0.007602,-0.065758,0.010962,0.289541,-2.959364,312.039545,22.159368,0.999618,0.994129,0.003346,0.449429,-0.000003,0.000046,-0.000003,0.000046,-0.000003,-86.777886,0.000052,
2476,2953,4.67791213400865,6.65559632082925,-0.00431910306264172,0.005989,-0.066822,0.006751,0.220910,-3.019360,315.926623,22.254971,0.999340,0.987906,0.004253,0.419533,0.000032,0.000012,0.000025,0.000049,-0.000005,34.021721,0.000054,
2221,3088,-0.887103788660227,9.56955938688836,0.0194720656888308,0.006822,-0.065531,0.006368,0.269536,-2.977296,313.985861,21.893260,0.999488,0.992722,0.003382,0.387580,0.000012,0.000011,-0.000002,0.000014,0.000009,-42.460106,0.000023,
2026,2218,-4.99448402087244,-9.38707710066008,-0.0119732103950128,-0.002193,-0.066346,-0.011840,-0.088758,-3.080868,328.310968,21.590087,0.998103,0.980502,0.005757,0.402548,0.000695,0.000642,0.000162,0.000832,0.000504,40.356251,0.001350,
2041,2263,-4.6728647701413,-8.40273686338607,-0.00769242568713935,-0.000723,-0.065876,-0.012108,-0.020248,-3.034585,327.601401,21.520651,0.998942,0.984361,0.005097,0.429833,0.000572,0.000553,0.000103,0.000666,0.000459,42.371147,0.001131,
2011,2068,-5.30130896602894,-12.6752380188929,-0.00220129575956207,-0.005299,-0.068393,-0.022182,-0.203827,-3.225635,330.779465,21.625298,0.999039,0.990891,0.004252,0.385806,0.001143,0.000946,0.000186,0.001255,0.000834,31.113803,0.002103,
2266,3298,0.0526850829784493,14.1262788682703,0.0214798376456997,0.007996,-0.065739,0.011306,0.305839,-2.993415,310.503565,22.424387,0.999529,0.992501,0.003551,0.345885,0.000008,0.000039,0.000004,0.000040,0.000007,82.136588,0.000051,
2296,2068,0.922451900473337,-12.6855937807108,0.0134110159844454,0.000944,-0.072121,-0.017113,0.073563,-3.356525,330.153661,19.718049,0.998733,0.981380,0.005544,0.356006,0.001039,0.001134,-0.000037,0.001146,0.001026,-70.925344,0.002174,
2086,2428,-3.71729898446543,-4.79610631151919,-0.0139154342834331,0.001593,-0.065431,-0.005539,0.067711,-2.996124,324.734512,21.386320,0.998998,0.986360,0.004636,0.414771,0.000320,0.000151,0.000041,0.000329,0.000141,13.048203,0.000483,
2446,2788,4.05579212888401,3.06381046832711,-0.0267766661551718,0.005184,-0.066743,0.001696,0.203655,-3.038088,318.351955,21.555461,0.999421,0.988183,0.004250,0.459480,0.000072,0.000042,0.000011,0.000076,0.000038,17.781232,0.000116,
2371,2413,2.4950274863009,-5.12220560448826,-0.0109090889671961,0.003525,-0.067355,-0.007341,0.160683,-3.091309,324.449184,20.480138,0.999405,0.988299,0.004588,0.381952,0.000368,0.000295,0.000004,0.000369,0.000295,2.907349,0.000665,
2161,2773,-2.14105688482151,2.72596730519135,-0.0287374602675072,0.004815,-0.065376,0.004238,0.185638,-2.949980,318.816716,21.439590,0.999342,0.989542,0.004097,0.446771,0.000057,0.000041,-0.000016,0.000067,0.000032,-31.684819,0.000100,
2206,3043,-1.20531737088773,8.59219939024394,0.0199113744187116,0.006394,-0.065450,0.008070,0.244967,-2.959377,314.740292,21.805071,0.999758,0.994807,0.003190,0.390838,0.000015,0.000011,-0.000004,0.000017,0.000009,-31.126072,0.000026,
2116,2563,-3.08556570027838,-1.84839012730025,-0.0308790965448225,0.003408,-0.064670,-0.004766,0.148951,-2.968382,322.349657,21.379985,0.999090,0.986830,0.004728,0.406857,0.000178,0.000084,0.000020,0.000182,0.000080,11.730541,0.000268,
2326,2188,1.55631758746574,-10.0509379096152,0.00127133606918051,0.002453,-0.068978,-0.019636,0.153163,-3.214549,328.178719,19.905918,0.998878,0.980932,0.005462,0.418513,0.000760,0.000826,-0.000036,0.000841,0.000744,-66.197691,0.001586,
2101,2533,-3.40828024324544,-2.5028145503325,-0.0344225648591419,0.002368,-0.065036,-0.003153,0.096396,-2.967677,322.822321,21.361874,0.999374,0.990618,0.004086,0.443701,0.000194,0.000092,0.000028,0.000201,0.000085,14.366973,0.000294,
2116,2593,-3.08995536084559,-1.19678175661612,-0.0179773555424845,0.003242,-0.065339,-0.001037,0.130082,-2.955623,321.953805,21.283691,0.999475,0.990911,0.004058,0.524194,0.000149,0.000069,0.000021,0.000154,0.000064,13.963812,0.000224,
2311,2113,1.24166887709219,-11.6979318531809,0.00576418339062457,0.001390,-0.071714,-0.016515,0.092380,-3.323392,329.373045,19.685318,0.998825,0.980493,0.005702,0.432970,0.000941,0.001056,-0.000035,0.001065,0.000931,-74.258720,0.001998,
2131,2638,-2.76984217666523,-0.216964326533756,-0.00235205702932717,0.003733,-0.065856,0.001625,0.144275,-2.979210,321.304779,21.343092,0.999701,0.991840,0.003663,0.442095,0.000128,0.000050,0.000011,0.000130,0.000049,8.201282,0.000184,
2461,2878,4.36437653749628,5.02517124561505,-0.0284013037954765,0.005554,-0.066456,0.003905,0.212327,-2.991785,316.907140,21.946001,0.999322,0.990662,0.003909,0.451511,0.000039,0.000031,0.000014,0.000050,0.000020,37.913158,0.000072,
2056,2293,-4.35032518437164,-7.74650909293611,-0.0105695048016514,-0.000100,-0.065540,-0.013709,0.013103,-3.026439,327.042476,21.444727,0.999831,0.993954,0.003638,0.441609,0.000545,0.000474,0.000098,0.000614,0.000405,35.029811,0.001026,
2191,2938,-1.51408967657901,6.31197581797603,0.00192859141139934,0.006113,-0.065621,0.004495,0.243685,-2.976153,316.345771,21.629858,0.999313,0.991463,0.003856,0.404412,0.000026,0.000020,-0.000009,0.000032,0.000014,-35.819966,0.000047,
2146,2728,-2.45948713588712,1.74523601715575,-0.0197346757941546,0.004295,-0.065436,0.005748,0.157459,-2.955750,319.651726,21.400232,0.999395,0.989673,0.004167,0.447473,0.000085,0.000037,-0.000012,0.000088,0.000034,-13.578757,0.000126,
2236,3178,-0.575681847463162,11.521170067893,0.0408493815396014,0.007286,-0.065452,0.008470,0.283759,-2.962893,312.671249,22.024655,0.999320,0.990559,0.003841,0.445948,-0.000003,0.000043,-0.000003,0.000043,-0.000003,-86.194571,0.000048,
2011,2083,-5.30422149472696,-12.3455611162597,-0.0044620084976259,-0.005648,-0.068639,-0.017600,-0.232370,-3.200055,330.491540,21.656784,0.998049,0.981182,0.005705,0.371543,0.001092,0.000936,0.000193,0.001222,0.000806,33.944570,0.002042,
2146,2713,-2.45734117138038,1.41967038281032,-0.0277683760252785,0.004578,-0.065765,0.006960,0.166695,-2.981233,319.837087,21.436460,0.999378,0.991157,0.004040,0.377773,0.000094,0.000040,-0.000011,0.000096,0.000038,-11.024727,0.000138,
2086,2458,-3.72236457959914,-4.1409046689185,-0.0183377618473628,0.001782,-0.065609,-0.000924,0.063068,-2.966187,324.208681,21.358768,0.999225,0.988590,0.004450,0.473068,0.000272,0.000111,0.000026,0.000276,0.000107,8.867879,0.000395,
2026,2233,-4.99611627981566,-9.05730280259682,-0.015636998638854,-0.001480,-0.066042,-0.013251,-0.052058,-3.042417,328.075118,21.658924,0.999054,0.984460,0.005102,0.364763,0.000667,0.000603,0.000146,0.000785,0.000485,38.796041,0.001282,
2431,2728,3.74172269106623,1.75484787206306,-0.016180470418135,0.005237,-0.066796,0.004704,0.195231,-3.015830,319.384649,21.300761,0.999726,0.991802,0.003644,0.525320,0.000087,0.000067,0.000020,0.000099,0.000055,31.201669,0.000156,
2491,3028,4.98995388036223,8.28707457586728,0.00254430011881368,0.006482,-0.066637,0.008860,0.235110,-3.013699,314.809061,22.602502,0.999714,0.993787,0.003318,0.403505,0.000032,0.000016,0.000049,0.000073,-0.000026,40.247237,0.000074,
2446,2803,4.0527663807664,3.39159516625598,-0.0272271513641726,0.005342,-0.066539,0.003442,0.204525,-3.011171,318.103664,21.680393,0.999538,0.989720,0.003975,0.413520,0.000068,0.000038,0.000011,0.000072,0.000034,17.968794,0.000108,
2506,3118,5.2999176083784,10.2422248120549,0.0194220081511389,0.006994,-0.066963,0.007095,0.264968,-3.020472,313.548314,22.985872,0.999455,0.991304,0.003793,0.420567,0.000034,0.000041,0.000059,0.000096,-0.000021,46.767853,0.000101,
2251,3268,-0.267116737815567,13.4745329075426,0.0243174426290125,0.007937,-0.065402,0.011587,0.303072,-2.955828,311.044702,22.238721,0.999435,0.991972,0.003647,0.439571,-0.000009,0.000044,0.000001,0.000044,-0.000009,89.233490,0.000047,
2056,2308,-4.35243068972938,-7.41882325459204,-0.00608441591469955,0.000103,-0.065835,-0.008583,0.007933,-3.015417,326.833195,21.459443,0.999568,0.990459,0.004240,0.434517,0.000502,0.000421,0.000075,0.000547,0.000376,30.773359,0.000928,
2206,3013,-1.20050799317266,7.94139640965162,0.00983963730328696,0.006776,-0.065692,0.009334,0.258425,-2.966981,315.159077,21.754662,0.999351,0.990414,0.003872,0.402127,0.000014,0.000015,-0.000001,0.000016,0.000013,-46.284060,0.000029,
2386,2503,2.80491561443283,-3.15420193086536,-0.0109503210227899,0.004083,-0.066697,-0.001592,0.166028,-3.021748,323.003654,20.755909,0.999424,0.989661,0.004194,0.398849,0.000260,0.000168,0.000012,0.000261,0.000166,7.548517,0.000431,
2071,2368,-4.03472630208442,-6.1058291054693,-0.0177640860389374,0.000972,-0.064788,-0.013317,0.061645,-2.986022,325.740960,21.434773,0.997168,0.979337,0.005955,0.424266,0.000404,0.000280,0.000044,0.000418,0.000266,17.763301,0.000690,
2101,2593,-3.41637966312194,-1.19630284215289,-0.018924108768033,0.003037,-0.065022,0.000476,0.116582,-2.939419,322.001345,21.359743,0.999095,0.987737,0.004486,0.481800,0.000143,0.000065,0.000027,0.000152,0.000056,17.560118,0.000215,
2191,2968,-1.51884638035774,6.9632201588829,0.00621687975637997,0.006274,-0.065446,0.005378,0.248457,-2.950972,315.897410,21.626123,0.999300,0.990159,0.003949,0.460890,0.000024,0.000013,-0.000007,0.000027,0.000010,-25.304142,0.000038,
2416,2638,3.43197109750508,-0.206061672984511,-0.0246121799930279,0.004612,-0.066646,-0.002443,0.193086,-3.052223,320.754638,21.135355,0.999348,0.987901,0.004334,0.363520,0.000144,0.000100,0.000003,0.000144,0.000100,3.676922,0.000245,
2461,2893,4.36197433336912,5.35171511252582,-0.0204975094157476,0.005775,-0.066718,0.006907,0.211052,-2.991896,316.726827,22.071298,0.998986,0.988363,0.004345,0.379984,0.000037,0.000027,0.000018,0.000050,0.000013,37.165688,0.000067,
2101,2548,-3.41027767151399,-2.17638443388224,-0.0388008704375125,0.003173,-0.065218,-0.000857,0.126657,-2.963831,322.573816,21.266837,0.999578,0.993584,0.003680,0.544635,0.000182,0.000088,0.000033,0.000192,0.000077,17.545847,0.000277,
2011,2143,-5.31120778656618,-11.0288725576605,-0.0110393924039158,-0.003524,-0.066942,-0.016094,-0.138599,-3.074316,329.566832,21.658389,0.997525,0.978785,0.006111,0.459525,0.000901,0.000843,0.000183,0.001057,0.000687,40.574219,0.001757,
2296,2113,0.913215995654515,-11.6961500171772,-0.00429494199767078,0.001229,-0.071448,-0.016239,0.083929,-3.318244,329.291516,19.798455,0.998461,0.977772,0.005999,0.414374,0.000925,0.001040,-0.000031,0.001048,0.000917,-75.988659,0.001967,
2296,2098,0.916675945062824,-12.0245839092725,-0.0031047827196744,0.001596,-0.071254,-0.020246,0.114294,-3.326466,329.572964,19.835006,0.998598,0.979679,0.005793,0.336353,0.000966,0.001066,-0.000034,0.001076,0.000956,-73.034435,0.002033,
2131,2668,-2.77321176148471,0.434453945730127,0.00519578788481567,0.004444,-0.065171,-0.003054,0.191238,-2.951821,320.929120,21.208645,0.999686,0.990817,0.003816,0.616041,0.000110,0.000037,0.000008,0.000110,0.000036,6.032982,0.000153,
2071,2383,-4.03736635475927,-5.77798411681383,-0.0129892016696544,0.000671,-0.064894,-0.008048,0.032777,-2.952746,325.509845,21.469341,0.998129,0.983199,0.005383,0.421515,0.000384,0.000253,0.000041,0.000396,0.000241,15.809124,0.000643,
2251,3238,-0.260493992956309,12.8218968311928,0.0508297239475155,0.007237,-0.065610,0.011167,0.272070,-2.964012,311.728824,22.119635,0.999735,0.995426,0.003038,0.506285,-0.000003,0.000039,-0.000003,0.000039,-0.000004,-86.109038,0.000043,
2176,2893,-1.8324246797722,5.3330216345351,0.00518394887797058,0.005522,-0.065209,0.003480,0.220128,-2.963182,317.131188,21.544596,0.999772,0.995043,0.003202,0.433735,0.000027,0.000033,-0.000014,0.000044,0.000016,-50.817175,0.000062,
2476,2968,4.67550125816098,6.9823144075848,-0.000385704773520956,0.005994,-0.066235,0.003091,0.235326,-3.008747,315.728278,22.374960,0.999420,0.989817,0.004048,0.366386,0.000031,0.000011,0.000033,0.000056,-0.000013,36.596125,0.000058,
2506,3133,5.29706622422818,10.5682268894198,0.0166777102929814,0.007427,-0.066626,0.006628,0.286821,-3.012673,313.300932,23.041901,0.999518,0.991303,0.003717,0.432551,0.000042,0.000024,0.000042,0.000076,-0.000010,38.899440,0.000083,
2026,2248,-4.99819064015663,-8.73068763997733,-0.0123441717594233,-0.001443,-0.066086,-0.011363,-0.055593,-3.042905,327.858642,21.555554,0.999116,0.985274,0.004927,0.460073,0.000634,0.000586,0.000126,0.000738,0.000482,39.599152,0.001229,
2146,2743,-2.46108185316885,2.07149171021795,-0.0179390093006191,0.004918,-0.065217,0.003599,0.192747,-2.943934,319.458399,21.394460,0.999435,0.990156,0.004110,0.473092,0.000078,0.000033,-0.000018,0.000085,0.000026,-18.857045,0.000116,
2116,2608,-3.09229837589533,-0.868869870183566,-0.0235933725038535,0.003524,-0.064806,-0.003406,0.150218,-2.965503,321.683832,21.346756,0.999137,0.987411,0.004603,0.455453,0.000143,0.000052,0.000016,0.000146,0.000049,9.415217,0.000203,
2236,3163,-0.57387438171078,11.196729454402,0.0304384242978699,0.007071,-0.065180,0.007133,0.278297,-2.946241,312.823725,22.002185,0.999363,0.990094,0.003951,0.465133,-0.000003,0.000031,-0.000004,0.000032,-0.000004,-84.118631,0.000035,
2311,2128,1.23903733215257,-11.3669290070149,0.00645538277484548,0.001404,-0.070995,-0.017322,0.096043,-3.276018,329.139524,19.869312,0.998945,0.982632,0.005387,0.331416,0.000904,0.001024,-0.000034,0.001033,0.000895,-75.134931,0.001929,
2221,3133,-0.89400392474985,10.5441273777747,0.0350321028524831,0.007047,-0.065401,0.010739,0.265989,-2.957889,313.377448,21.871379,0.999615,0.992201,0.003638,0.482433,-0.000002,0.000022,-0.000001,0.000022,-0.000002,-87.503223,0.000024,
2281,1993,0.607861903735369,-14.3320702931589,0.0100790064101943,0.000581,-0.073484,-0.019694,0.064700,-3.402138,331.338660,19.619795,0.998285,0.967733,0.007416,0.347940,0.001169,0.001167,-0.000107,0.001275,0.001061,-44.670057,0.002339,
2371,2428,2.49188510048504,-4.79527607276464,-0.0169315113368498,0.003656,-0.067196,-0.007983,0.169056,-3.061830,324.164813,20.351060,0.999571,0.991760,0.004270,0.583336,0.000354,0.000269,0.000011,0.000355,0.000268,7.429685,0.000625,
2341,2278,1.86551505067698,-8.07762564234072,-0.00946456450174082,0.002623,-0.068675,-0.009490,0.126271,-3.156878,326.605540,20.102676,0.999030,0.981580,0.005261,0.436568,0.000562,0.000517,-0.000032,0.000579,0.000500,-27.592267,0.001080,
2401,2578,3.11661224171266,-1.51605651029369,-0.0217492887056778,0.004259,-0.066961,-0.001116,0.172136,-3.030675,321.715437,20.913532,0.999138,0.985922,0.004748,0.433628,0.000190,0.000107,0.000012,0.000192,0.000105,8.230925,0.000301,
2356,2338,2.18146521858091,-6.76280677254945,-0.0120349405938214,0.002902,-0.068130,-0.008242,0.135006,-3.105878,325.623013,20.289687,0.999209,0.988214,0.004657,0.399608,0.000461,0.000386,-0.000011,0.000462,0.000384,-8.436778,0.000848,
2431,2743,3.73857228777171,2.08275791622692,-0.0190362102897552,0.005261,-0.066898,0.004250,0.198030,-3.013234,319.118639,21.423310,0.999569,0.989993,0.003926,0.455441,0.000083,0.000061,0.000022,0.000096,0.000048,31.517802,0.000147,
2251,3283,-0.270452752527934,13.7995636793913,0.0181374564454018,0.007791,-0.065568,0.012295,0.293952,-2.966553,310.737872,22.241313,0.999371,0.991642,0.003709,0.447839,-0.000013,0.000049,-0.000001,0.000049,-0.000013,-89.024372,0.000051,
2041,2278,-4.67441368112774,-8.07384948380525,-0.0060055513706061,-0.000054,-0.065464,-0.010787,0.006939,-3.024206,327.400692,21.607071,0.999735,0.991589,0.004236,0.348155,0.000552,0.000506,0.000097,0.000628,0.000430,38.368070,0.001064,
2086,2443,-3.71991806952163,-4.46731271094735,-0.0229394324908867,0.001770,-0.065012,-0.007410,0.081385,-2.975541,324.430348,21.409638,0.999155,0.987566,0.004577,0.412594,0.000296,0.000132,0.000036,0.000304,0.000125,11.767560,0.000441,
2041,2203,-4.66531901712294,-9.71489283850227,-0.0108292389438134,-0.002005,-0.066175,-0.013666,-0.074813,-3.044828,328.485166,21.540590,0.998211,0.982362,0.005517,0.420505,0.000696,0.000658,0.000138,0.000816,0.000538,41.039112,0.001364,
2206,3118,-1.21656195062082,10.2181070333131,0.0368516278952598,0.007171,-0.065476,0.010093,0.274394,-2.953439,313.686640,21.849384,0.999509,0.991918,0.003726,0.431100,0.000006,0.000018,-0.000002,0.000019,0.000006,-80.577756,0.000025,
2176,2863,-1.82871987370178,4.68255155278295,-0.0148317649289424,0.005446,-0.065311,0.002720,0.218948,-2.969426,317.450560,21.525310,0.998681,0.987683,0.004286,0.423160,0.000031,0.000032,-0.000015,0.000047,0.000017,-45.934847,0.000066,
2011,2098,-5.30585302180139,-12.0153929180142,-0.00754206671695101,-0.004932,-0.067921,-0.017489,-0.199654,-3.134237,330.257176,21.689477,0.998044,0.978182,0.006030,0.395842,0.001040,0.000921,0.000195,0.001184,0.000777,36.564331,0.001975,
2101,2608,-3.41830300033561,-0.869667457560574,-0.0159009680903068,0.003247,-0.064885,-0.000465,0.129016,-2.937406,321.796191,21.368020,0.998693,0.985417,0.004931,0.477627,0.000138,0.000051,0.000022,0.000144,0.000046,13.199686,0.000198,
2206,3058,-1.20777727574267,8.91742419552672,0.0204911498670413,0.006527,-0.065529,0.008423,0.249955,-2.957812,314.505336,21.792252,0.999720,0.994170,0.003226,0.421069,0.000017,0.000013,-0.000004,0.000019,0.000011,-28.579134,0.000031,
2131,2743,-2.78752073975929,2.07139544356832,-0.0210026675255222,0.004484,-0.064872,0.002536,0.176417,-2.944444,319.477573,21.415673,0.999420,0.989649,0.004092,0.446919,0.000079,0.000029,-0.000010,0.000081,0.000028,-11.007183,0.000113,
2266,2023,0.274043826265586,-13.6722154245165,0.00463841549577637,-0.000428,-0.072254,-0.027508,0.044277,-3.387035,330.810178,19.777753,0.998599,0.977662,0.006229,0.370436,0.001077,0.001151,-0.000024,0.001158,0.001070,-73.524066,0.002229,
2116,2668,-3.10254373934954,0.439887750181136,-0.0384005426004705,0.004093,-0.064783,-0.000623,0.168175,-2.940167,320.605521,21.388042,0.999487,0.990330,0.003904,0.456136,0.000102,0.000034,0.000011,0.000103,0.000032,9.257562,0.000142,
2476,2983,4.6720199015781,7.30904914365332,-0.00778445573314457,0.006159,-0.066453,0.002865,0.243677,-3.027116,315.429046,22.451440,0.999296,0.988993,0.004205,0.327266,0.000030,0.000011,0.000034,0.000056,-0.000014,36.840366,0.000058,
2146,2758,-2.46378922535515,2.39821216207628,-0.0188137836376541,0.004774,-0.065422,0.003932,0.185053,-2.955854,319.199815,21.438295,0.999391,0.989937,0.003977,0.425285,0.000073,0.000030,-0.000018,0.000080,0.000023,-20.298052,0.000108,
2281,2038,0.598580979594107,-13.3409809978679,-0.00701161069923728,0.000498,-0.072088,-0.021105,0.066130,-3.347681,330.473354,19.752528,0.998702,0.983066,0.005468,0.364620,0.001078,0.001128,-0.000051,0.001159,0.001047,-58.004925,0.002207,
2191,2983,-1.52158509996499,7.28908382741485,0.00912437277651179,0.006002,-0.065203,0.006665,0.231952,-2.946606,315.660573,21.665756,0.999307,0.991028,0.003838,0.439728,0.000022,0.000014,-0.000004,0.000024,0.000013,-20.891577,0.000037,
2101,2563,-3.41189953324747,-1.84869987532229,-0.0346722736841798,0.003445,-0.064883,-0.004428,0.149691,-2.977599,322.388170,21.384476,0.999191,0.988603,0.004381,0.415367,0.000170,0.000077,0.000025,0.000177,0.000071,14.392616,0.000255,
2446,2818,4.05029892456163,3.7166175330625,-0.0214868034977371,0.005469,-0.066575,0.004335,0.207041,-3.006004,317.910236,21.624684,0.999434,0.989160,0.004163,0.526449,0.000057,0.000027,0.000010,0.000059,0.000024,16.547002,0.000086,
2056,2323,-4.35353681910639,-7.09081051379736,-0.00148403817439657,0.000702,-0.064853,-0.013147,0.048570,-2.987161,326.670088,21.492279,0.998989,0.984226,0.005013,0.426321,0.000471,0.000361,0.000064,0.000500,0.000332,24.811616,0.000838,
2461,2908,4.35952034844005,5.67681500992256,-0.01144525929476,0.005525,-0.066780,0.006088,0.202639,-3.003924,316.549710,22.087047,0.998749,0.986592,0.004685,0.406200,0.000031,0.000011,0.000024,0.000047,-0.000005,33.522186,0.000052,
2416,2653,3.42886378872334,0.120943569597202,-0.0202570145296477,0.004574,-0.066731,0.003431,0.169883,-3.002008,320.523561,21.159531,0.999430,0.988033,0.004376,0.437997,0.000129,0.000093,0.000005,0.000130,0.000092,7.746529,0.000223,
2026,2263,-4.99980482866117,-8.40090187277988,-0.0130842528215567,-0.000886,-0.065389,-0.012814,-0.025832,-3.029170,327.640020,21.690814,0.998587,0.980771,0.005385,0.331110,0.000601,0.000552,0.000115,0.000694,0.000460,38.959927,0.001162,
2491,3043,4.98690605960774,8.61354076649176,0.00189909760331375,0.006617,-0.066808,0.009523,0.238802,-3.002261,314.561319,22.687385,0.999717,0.992598,0.003621,0.388172,0.000030,0.000025,0.000059,0.000086,-0.000031,43.885876,0.000087,
2236,3193,-0.578468276389575,11.8464320148669,0.0390150766438069,0.007390,-0.065580,0.009770,0.284314,-2.956191,312.410822,22.030055,0.999239,0.990395,0.003903,0.466945,-0.000004,0.000048,-0.000003,0.000048,-0.000004,-86.365091,0.000053,
2026,2173,-4.98763875911281,-10.3736758434347,0.00100017887064041,-0.002778,-0.067606,-0.012828,-0.113220,-3.120137,329.117625,21.611556,0.999112,0.987290,0.004637,0.362776,0.000809,0.000716,0.000149,0.000919,0.000606,36.388114,0.001535,
2071,2443,-4.04536471544739,-4.46908353896365,-0.00863973604350576,0.001800,-0.065090,-0.005483,0.077265,-2.974191,324.623283,21.439397,0.999015,0.987527,0.004595,0.423209,0.000299,0.000121,0.000041,0.000308,0.000112,12.413897,0.000435,
2161,2788,-2.14290987730654,3.05196912000353,-0.0243030394729544,0.005044,-0.065157,0.002296,0.202170,-2.956974,318.626632,21.463741,0.999403,0.989943,0.004171,0.425730,0.000048,0.000037,-0.000018,0.000062,0.000024,-36.204315,0.000088,
2506,3148,5.29462422134261,10.8933934262605,0.0277998026945738,0.007489,-0.066913,0.010822,0.273299,-3.020196,313.134755,23.124929,0.999488,0.990062,0.003877,0.401834,0.000038,0.000015,0.000038,0.000066,-0.000013,36.377388,0.000070,
2041,2293,-4.67646353855462,-7.74807483738149,0.00138284884184259,-0.000095,-0.066288,-0.007067,-0.005569,-3.031729,327.209403,21.489544,0.999792,0.992789,0.003989,0.452468,0.000534,0.000475,0.000090,0.000599,0.000409,35.899893,0.001015,
2041,2218,-4.66743084835397,-9.38690582834378,-0.0149935865875364,-0.001833,-0.065998,-0.016877,-0.057979,-3.084459,328.226775,21.513796,0.997631,0.976779,0.006025,0.402755,0.000664,0.000633,0.000139,0.000789,0.000509,41.836815,0.001308,
2341,2293,1.86303016613504,-7.74875115354284,-0.00431593188045554,0.002978,-0.068720,-0.003974,0.123360,-3.113582,326.402573,20.200435,0.998884,0.984251,0.005005,0.420899,0.000529,0.000482,-0.000030,0.000544,0.000468,-25.796253,0.001013,
2221,3118,-0.891227248483329,10.2196591541149,0.0365985149236963,0.006996,-0.065515,0.009566,0.267346,-2.966455,313.636783,21.955282,0.999599,0.991230,0.003776,0.371975,0.000003,0.000019,-0.000001,0.000019,0.000003,-87.127076,0.000023,
2221,3148,-0.896365655678768,10.8695658323823,0.0391849924765779,0.007082,-0.065530,0.011397,0.265475,-2.957750,313.166261,21.924145,0.999605,0.992216,0.003548,0.447672,-0.000005,0.000025,-0.000004,0.000025,-0.000005,-81.581312,0.000027,
2011,2158,-5.31370996366062,-10.699189292637,-0.00860949389408461,-0.003736,-0.066954,-0.011651,-0.160351,-3.070813,329.324048,21.790816,0.998015,0.977924,0.006154,0.321482,0.000836,0.000787,0.000160,0.000973,0.000650,40.630493,0.001634,
2296,2128,0.911152770462515,-11.3667312264318,-0.000352798870721927,0.001337,-0.070412,-0.019653,0.100726,-3.281314,329.099009,19.883976,0.998657,0.979760,0.005690,0.398612,0.000889,0.001011,-0.000029,0.001018,0.000882,-77.389788,0.001902,
2401,2593,3.1140475682907,-1.1890326262188,-0.0208769211096183,0.004587,-0.066757,-0.000560,0.185244,-3.028342,321.492251,20.938989,0.999375,0.987849,0.004407,0.456879,0.000174,0.000098,0.000017,0.000177,0.000094,11.817207,0.000276,
2176,2908,-1.83565012846358,5.65935959882457,-0.00206501338948328,0.005609,-0.065672,0.007516,0.211494,-2.968745,316.817720,21.544365,0.999480,0.991682,0.003757,0.440440,0.000027,0.000026,-0.000012,0.000038,0.000015,-43.055216,0.000055,
2146,2818,-2.47379709489208,3.70377929596954,-0.0199069024915843,0.004851,-0.065190,0.004990,0.185481,-2.935576,318.216046,21.489169,0.999546,0.992286,0.003614,0.426110,0.000053,0.000034,-0.000015,0.000062,0.000025,-28.701617,0.000090,
2281,2098,0.588003550401734,-12.0253500251945,0.0029358634150185,0.000564,-0.072270,-0.012348,0.039901,-3.330884,329.564795,19.901556,0.998050,0.977361,0.006072,0.356583,0.000942,0.001046,-0.000029,0.001054,0.000934,-75.554022,0.001989,
2026,2188,-4.98996772978436,-10.0439799350798,-0.00755245562521623,-0.002741,-0.066210,-0.018530,-0.095521,-3.088447,328.822814,21.611096,0.999025,0.986105,0.004879,0.388271,0.000764,0.000701,0.000149,0.000885,0.000580,39.002627,0.001476,
2131,2683,-2.77720029440303,0.763562596444039,-0.00903073192284864,0.004076,-0.065550,0.000490,0.163596,-2.968972,320.538840,21.341764,0.999505,0.990608,0.003836,0.472322,0.000101,0.000037,0.000002,0.000101,0.000037,2.218301,0.000143,
2101,2623,-3.42136796516439,-0.541282465499407,-0.0356836358039345,0.003640,-0.064611,-0.003557,0.156216,-2.942194,321.415103,21.353255,0.998985,0.986074,0.004698,0.489709,0.000128,0.000047,0.000016,0.000131,0.000044,10.755660,0.000182,
2296,2173,0.90236954916001,-10.379152893949,-0.010388360063132,0.001530,-0.069657,-0.018467,0.105890,-3.226085,328.295022,19.931296,0.999222,0.980732,0.005556,0.505545,0.000777,0.000853,-0.000020,0.000858,0.000772,-76.272047,0.001631,
2011,2113,-5.30709831224135,-11.6881339267646,0.0008503148248451,-0.004521,-0.067810,-0.017431,-0.180932,-3.158458,330.105611,21.677465,0.998042,0.979108,0.006016,0.374129,0.000990,0.000880,0.000190,0.001133,0.000737,36.959205,0.001884,
2266,2038,0.270841604176585,-13.3428594816628,0.00701349709191845,-0.000542,-0.072574,-0.019110,0.011308,-3.370584,330.555722,19.828433,0.998585,0.979224,0.005867,0.365512,0.001048,0.001119,-0.000020,0.001124,0.001042,-75.073373,0.002167,
2056,2368,-4.36192856699453,-6.1052448597891,-0.0206928607578902,0.000600,-0.065092,-0.008692,0.031244,-2.974376,325.767589,21.509061,0.998327,0.983373,0.005313,0.412498,0.000413,0.000275,0.000049,0.000429,0.000259,17.486321,0.000695,
2311,2143,1.23676303537908,-11.0386751757893,0.015949084675924,0.001816,-0.071239,-0.008582,0.085078,-3.248607,328.965882,19.922409,0.999106,0.983209,0.005361,0.340723,0.000869,0.000958,-0.000031,0.000968,0.000859,-72.484712,0.001828,
2356,2353,2.17938209658545,-6.437065359368,-0.0109532639967256,0.003403,-0.067753,-0.010158,0.164844,-3.112355,325.420510,20.130012,0.999246,0.988237,0.004787,0.593569,0.000441,0.000369,-0.000001,0.000441,0.000369,-0.958111,0.000811,
2086,2518,-3.73033548793119,-2.8324856285282,-0.0145841097813104,0.002743,-0.065366,-0.004387,0.117237,-2.996254,323.325142,21.387156,0.999279,0.991008,0.004003,0.415414,0.000213,0.000090,0.000035,0.000222,0.000081,14.704271,0.000314,
2476,2998,4.669612921952,7.63394591139349,0.00011347748471735,0.006473,-0.066619,0.006900,0.242654,-3.027626,315.249255,22.449726,0.999252,0.989196,0.004088,0.384257,0.000030,0.000008,0.000045,0.000066,-0.000027,37.999842,0.000066,
2056,2338,-4.35655475203614,-6.76244100278252,-0.00855834276831047,0.000622,-0.065392,-0.009477,0.034387,-2.997618,326.355583,21.486081,0.998765,0.984370,0.005030,0.418820,0.000447,0.000326,0.000056,0.000469,0.000304,21.263634,0.000779,
2206,3133,-1.21868139460526,10.5431875590156,0.0419130814462392,0.007321,-0.065491,0.010159,0.281052,-2.961543,313.490535,21.878939,0.999651,0.993279,0.003468,0.409147,0.000003,0.000020,-0.000003,0.000021,0.000003,-81.867625,0.000026,
2011,2173,-5.31512349775547,-10.3721380045542,-0.00760583714480845,-0.003268,-0.066826,-0.015292,-0.129002,-3.092818,329.123660,21.698418,0.998581,0.984636,0.005403,0.382571,0.000807,0.000722,0.000156,0.000927,0.000602,37.379088,0.001540,
2251,3298,-0.272215174331112,14.1245254542581,0.0235317876234262,0.008294,-0.065468,0.011639,0.319365,-2.961567,310.562292,22.288557,0.999249,0.990485,0.003850,0.427602,-0.000014,0.000043,-0.000002,0.000044,-0.000014,-87.685697,0.000044,
2071,2398,-4.0390559633077,-5.45071923585436,-0.0178825211941671,0.001463,-0.065035,-0.010132,0.075034,-2.982785,325.269778,21.425554,0.998659,0.985096,0.005099,0.433869,0.000361,0.000204,0.000033,0.000368,0.000197,11.396201,0.000573,
2281,2053,0.596060108068837,-13.0121928470271,-0.00648870279889024,0.000789,-0.071845,-0.018721,0.071591,-3.318610,330.242032,19.724408,0.998490,0.980864,0.005668,0.453066,0.001045,0.001123,-0.000041,0.001140,0.001027,-66.818812,0.002168,
2191,3043,-1.53037182850402,8.59132253346902,0.0248068309532528,0.006473,-0.065493,0.006719,0.253382,-2.958397,314.834229,21.804962,0.999683,0.994160,0.003371,0.343412,0.000013,0.000006,-0.000006,0.000016,0.000003,-28.404201,0.000021,
2461,2923,4.35640463799064,6.00393236794486,-0.0155224053918914,0.005722,-0.066412,0.005501,0.214058,-2.989587,316.281367,22.171431,0.999221,0.988513,0.004337,0.390326,0.000033,0.000008,0.000022,0.000046,-0.000005,30.184041,0.000050,
2041,2308,-4.67902170522732,-7.41842689628091,-0.00809627319466699,0.000061,-0.065579,-0.008825,0.006690,-3.013006,326.900709,21.535195,0.999702,0.990923,0.004278,0.420405,0.000490,0.000415,0.000068,0.000530,0.000375,30.641832,0.000909,
2161,2818,-2.14742590881995,3.70452760073084,-0.0108129238177526,0.004970,-0.065323,0.007054,0.184163,-2.942836,318.233444,21.581726,0.999658,0.993042,0.003492,0.341443,0.000047,0.000036,-0.000016,0.000058,0.000024,-35.406948,0.000085,
2026,2278,-5.0012350924352,-8.07350847136986,-0.0160476107407703,-0.000317,-0.064838,-0.019154,0.017845,-3.030469,327.418054,21.605490,0.998071,0.982207,0.005545,0.407589,0.000579,0.000508,0.000102,0.000652,0.000435,35.323403,0.001094,
2116,2623,-3.09526769493123,-0.540719225412694,-0.0336684375512846,0.003721,-0.064836,-0.001936,0.154950,-2.950012,321.361082,21.373977,0.999060,0.984464,0.004976,0.448209,0.000132,0.000047,0.000011,0.000134,0.000046,7.170363,0.000187,
2326,2203,1.55287179579383,-9.72152431637378,-0.000578529185361276,0.002110,-0.069056,-0.017222,0.129140,-3.205836,327.896954,19.984043,0.998886,0.980712,0.005682,0.386419,0.000718,0.000780,-0.000036,0.000796,0.000702,-65.325400,0.001499,
2071,2458,-4.04746249513111,-4.14210257117985,-0.011186976033116,0.002128,-0.065028,-0.006214,0.094426,-2.978890,324.377382,21.387091,0.999237,0.989504,0.004419,0.469238,0.000272,0.000098,0.000030,0.000277,0.000093,9.445569,0.000385,
2371,2443,2.48883869305755,-4.46709839330217,-0.00533391585622667,0.003175,-0.067782,-0.000349,0.119721,-3.059541,323.968744,20.534523,0.998908,0.986483,0.004919,0.444490,0.000341,0.000226,0.000022,0.000345,0.000222,10.294465,0.000572,
2101,2578,-3.41387146442115,-1.52378225429612,-0.0199297249782262,0.003226,-0.065402,0.000523,0.124968,-2.973811,322.244505,21.328218,0.999319,0.987414,0.004378,0.477074,0.000153,0.000065,0.000026,0.000160,0.000058,15.311411,0.000226,
2386,2518,2.80215838218517,-2.82722036511333,-0.0141257779314969,0.004219,-0.066428,-0.004697,0.183500,-3.018765,322.751595,20.715773,0.999349,0.987984,0.004517,0.486540,0.000239,0.000164,0.000012,0.000241,0.000162,8.944962,0.000406,
2431,2758,3.73555400587083,2.4098728281774,-0.0206751931773397,0.005149,-0.066492,0.001776,0.202172,-3.007082,318.864447,21.483767,0.999471,0.988760,0.004105,0.451414,0.000084,0.000058,0.000021,0.000095,0.000047,29.210285,0.000145,
2146,2773,-2.46625617999542,2.72547264629631,-0.0264068512894937,0.005001,-0.065002,-0.000508,0.209063,-2.957802,318.916420,21.473669,0.999666,0.993055,0.003387,0.396039,0.000067,0.000039,-0.000015,0.000073,0.000033,-23.244603,0.000109,
2236,3268,-0.592166525313431,13.4726136466055,0.02503762704049,0.007955,-0.065399,0.008623,0.314125,-2.970697,311.094443,22.127213,0.999418,0.992632,0.003549,0.454381,-0.000008,0.000038,-0.000001,0.000038,-0.000008,-89.231369,0.000040,
2506,3163,5.29138248419848,11.2185477037328,0.0282011843538044,0.007281,-0.066929,0.010567,0.264693,-3.029545,312.883564,23.146516,0.999535,0.991251,0.003694,0.430591,0.000030,0.000015,0.000036,0.000059,-0.000014,39.299767,0.000062,
2446,2833,4.04779154708674,4.04515432059918,-0.0156220154015614,0.005515,-0.066356,0.004607,0.208237,-3.001736,317.714628,21.897694,0.999664,0.991403,0.003743,0.309768,0.000049,0.000029,0.000009,0.000052,0.000026,21.080702,0.000079,
2086,2473,-3.72486671929222,-3.81294257112074,-0.0219026022490993,0.001873,-0.065593,-0.000597,0.066297,-2.962905,323.939770,21.385005,0.999233,0.989000,0.004429,0.450574,0.000259,0.000114,0.000034,0.000267,0.000106,12.586259,0.000384,
2491,3058,4.98502933078802,8.9378960007397,0.0136493934699047,0.006787,-0.066983,0.009159,0.247914,-3.026697,314.424051,22.698255,0.999651,0.990933,0.003970,0.410613,0.000036,0.000014,0.000056,0.000082,-0.000032,39.575751,0.000082,
2416,2668,3.42599284454325,0.44814011448657,-0.0175327995606267,0.004506,-0.066976,0.004319,0.163430,-3.019440,320.295797,21.259248,0.999369,0.987906,0.004474,0.368860,0.000117,0.000090,0.000009,0.000120,0.000087,15.927753,0.000208,
2206,3073,-1.21003377592557,9.24235004760401,0.0244313584103679,0.006498,-0.065664,0.006849,0.253553,-2.971911,314.297227,21.793072,0.999652,0.992604,0.003456,0.421955,0.000015,0.000017,-0.000006,0.000022,0.000010,-49.860902,0.000033,
2176,2923,-1.8386054351989,5.98657290931543,-0.00678996182273295,0.005614,-0.065203,0.008833,0.207817,-2.936643,316.529511,21.610321,0.998962,0.986324,0.004569,0.418577,0.000029,0.000026,-0.000011,0.000039,0.000016,-40.233162,0.000057,
2056,2383,-4.36479228887461,-5.77734517137557,-0.0225955736221977,0.000377,-0.065209,-0.004723,0.009779,-2.960000,325.488549,21.503007,0.998914,0.987897,0.004767,0.429222,0.000393,0.000249,0.000042,0.000404,0.000238,15.024959,0.000649,
2011,2128,-5.30911266676574,-11.3573665823808,-0.010318211203014,-0.003888,-0.067162,-0.020474,-0.143481,-3.134623,329.808724,21.730027,0.997799,0.977826,0.006305,0.336891,0.000942,0.000855,0.000190,0.001093,0.000704,38.497654,0.001811,
2131,2758,-2.78996720066106,2.39840129821341,-0.0231932691286829,0.004712,-0.065122,0.003643,0.183566,-2.943282,319.222635,21.462143,0.999466,0.990772,0.003869,0.407347,0.000074,0.000027,-0.000012,0.000078,0.000024,-13.815755,0.000106,
2236,3208,-0.580437959930759,12.1715508453259,0.0480107415550606,0.007369,-0.065318,0.008597,0.287244,-2.950024,312.243369,22.089665,0.999347,0.991857,0.003757,0.433303,-0.000005,0.000044,-0.000004,0.000045,-0.000005,-85.659251,0.000049,
2176,2968,-1.84426973461328,6.96242888003689,0.00662643785733508,0.006431,-0.065360,0.005008,0.257256,-2.960496,315.958448,21.616108,0.999282,0.991508,0.003757,0.424073,0.000030,0.000012,-0.000012,0.000036,0.000006,-26.639874,0.000046,
2071,2413,-4.04108676765282,-5.12391416603239,-0.0139212181580319,0.001688,-0.065167,-0.006979,0.076363,-2.983857,325.062484,21.400739,0.998568,0.984766,0.004983,0.455800,0.000342,0.000166,0.000034,0.000349,0.000159,10.652974,0.000520,
2266,1993,0.278765462768856,-14.3312930443884,0.00212238192028735,-0.000449,-0.073074,-0.022273,0.025805,-3.401166,331.253162,19.665888,0.998156,0.963527,0.007845,0.410046,0.001151,0.001153,-0.000066,0.001218,0.001085,-45.536648,0.002305,
2116,2683,-3.10463789692276,0.765076382710319,-0.0355849258093599,0.004198,-0.065294,-0.001188,0.174503,-2.970520,320.392991,21.318017,0.999476,0.991602,0.003688,0.499375,0.000093,0.000032,0.000005,0.000093,0.000032,4.703143,0.000130,
2356,2368,2.17605541536448,-6.10648663369952,-0.0112939484536696,0.003288,-0.067456,-0.005844,0.144547,-3.059828,325.153092,20.345336,0.998919,0.984344,0.005061,0.471500,0.000417,0.000349,-0.000004,0.000417,0.000348,-3.258507,0.000767,
2476,3013,4.66696058126513,7.95974326741236,0.00626865502687224,0.006660,-0.066883,0.010568,0.237295,-3.011078,315.049902,22.505273,0.999493,0.991195,0.003693,0.401466,0.000029,0.000012,0.000049,0.000070,-0.000029,40.156473,0.000070,
2281,2113,0.585349553894158,-11.6965251008477,0.00228944137654707,0.000555,-0.071603,-0.013446,0.043415,-3.319674,329.321536,19.902825,0.998286,0.977996,0.005928,0.397490,0.000903,0.001021,-0.000026,0.001026,0.000898,-78.230238,0.001925,
2041,2323,-4.68095514345153,-7.08932769300792,-0.01478822465657,0.000540,-0.064991,-0.012774,0.039863,-2.996324,326.636093,21.566761,0.998927,0.982714,0.005074,0.400068,0.000458,0.000350,0.000059,0.000484,0.000324,23.820841,0.000813,
2191,2998,-1.52431561532452,7.61488349883681,0.0064104139742085,0.006114,-0.065417,0.007771,0.233577,-2.945233,315.394835,21.668042,0.999401,0.991213,0.003859,0.452396,0.000019,0.000011,-0.000002,0.000020,0.000011,-16.416935,0.000031,
2101,2638,-3.42392289904582,-0.214768937134316,-0.033415838053088,0.003533,-0.065182,-0.000418,0.141895,-2.967907,321.177053,21.381791,0.999002,0.986906,0.004483,0.437251,0.000117,0.000051,0.000020,0.000122,0.000045,15.561481,0.000173,
2131,2698,-2.78041339400047,1.09167428111785,-0.0223434440108576,0.004269,-0.065437,0.001728,0.168805,-2.955752,320.189120,21.367159,0.999498,0.990037,0.003908,0.466469,0.000094,0.000035,0.000002,0.000094,0.000035,1.913276,0.000134,
2206,3148,-1.22150480627051,10.8687913940705,0.0366273042266698,0.007381,-0.065409,0.008719,0.288462,-2.956371,313.208258,21.883759,0.999519,0.992764,0.003575,0.425071,0.000002,0.000025,-0.000005,0.000025,0.000001,-78.500854,0.000030,
2341,2308,1.86077633083993,-7.42101641060799,0.00279038289835398,0.002907,-0.068715,-0.005033,0.123825,-3.120392,326.220008,20.267993,0.998098,0.980319,0.005499,0.384846,0.000503,0.000444,-0.000021,0.000509,0.000438,-17.665570,0.000948,
2146,2833,-2.47450964381582,4.02885866508473,-0.0112657646731691,0.005631,-0.064635,-0.001347,0.240789,-2.938289,318.099886,21.467297,0.999566,0.992787,0.003495,0.452757,0.000049,0.000032,-0.000014,0.000057,0.000024,-29.708595,0.000083,
2161,2893,-2.15961316145023,5.33420502095561,-0.0114747049543666,0.005382,-0.065069,0.006641,0.204466,-2.942599,317.028494,21.563354,0.999525,0.991780,0.003727,0.409339,0.000028,0.000037,-0.000016,0.000049,0.000016,-52.598658,0.000068,
2026,2293,-5.00392556415779,-7.74517650179077,-0.0119216858195728,-0.000575,-0.065034,-0.011377,-0.015400,-2.958381,327.177446,21.609833,0.998179,0.982539,0.005467,0.467545,0.000560,0.000475,0.000094,0.000621,0.000414,32.768079,0.001042,
2041,2233,-4.6690633840201,-9.05800284684501,-0.0142602580520474,-0.001238,-0.066076,-0.016289,-0.032318,-3.057508,328.016835,21.560568,0.998550,0.981578,0.005566,0.377574,0.000634,0.000595,0.000126,0.000742,0.000487,40.516081,0.001238,
2236,3283,-0.595516448569366,13.7984919465961,0.0198518147770983,0.007698,-0.065273,0.009333,0.300019,-2.967427,310.790511,22.199137,0.999139,0.992226,0.003746,0.405228,-0.000013,0.000044,-0.000004,0.000044,-0.000013,-86.420654,0.000046,
2506,3178,5.28926178838649,11.5441726316568,0.0349833971270073,0.007500,-0.066782,0.008479,0.283007,-3.015818,312.712441,23.230095,0.999528,0.991763,0.003697,0.420837,0.000025,0.000020,0.000035,0.000058,-0.000013,43.118334,0.000061,
2056,2398,-4.36574272518357,-5.45140719219391,-0.0171447918837089,0.001119,-0.064655,-0.008662,0.055099,-2.962806,325.337942,21.410065,0.998703,0.986161,0.004880,0.515364,0.000368,0.000198,0.000030,0.000373,0.000193,9.812213,0.000576,
2491,3073,4.98172155497967,9.2632218496826,0.01420103173092,0.006645,-0.067039,0.010886,0.234738,-3.024553,314.169906,22.702454,0.999613,0.990319,0.004027,0.466748,0.000042,0.000022,0.000056,0.000089,-0.000024,39.812967,0.000092,
2176,2938,-1.8402753667009,6.31198577224413,-0.00391937756722882,0.005997,-0.065202,0.004393,0.239257,-2.950382,316.340745,21.614833,0.999151,0.989448,0.004130,0.412180,0.000031,0.000019,-0.000012,0.000038,0.000012,-30.953295,0.000053,
2026,2203,-4.99270902869319,-9.71466134332865,-0.0139011560926861,-0.002484,-0.066318,-0.011578,-0.102791,-3.061870,328.521536,21.610969,0.998519,0.984319,0.005361,0.408008,0.000726,0.000664,0.000161,0.000859,0.000531,39.595202,0.001403,
2401,2608,3.11108140929765,-0.861610072958477,-0.0194494682871778,0.004263,-0.066673,-0.002669,0.178082,-3.017273,321.253067,21.001757,0.999386,0.988048,0.004326,0.451472,0.000154,0.000095,0.000016,0.000158,0.000092,14.029449,0.000253,
2311,2158,1.23394043417479,-10.7104249682283,0.0114863127408285,0.001885,-0.070989,-0.010966,0.096483,-3.250437,328.698860,19.859214,0.999125,0.984744,0.005302,0.437162,0.000826,0.000897,-0.000028,0.000907,0.000816,-70.667459,0.001724,
2371,2458,2.48551546950592,-4.13864734677644,-0.0128594529699626,0.003141,-0.067637,-0.002455,0.125677,-3.093100,323.668744,20.604139,0.998832,0.985136,0.005009,0.383894,0.000319,0.000209,0.000023,0.000324,0.000205,11.356551,0.000533,
2221,3193,-0.903348427767202,11.8450757093762,0.0480730134601117,0.007348,-0.065248,0.010582,0.280534,-2.936922,312.519211,21.986599,0.999374,0.991886,0.003698,0.459193,-0.000005,0.000043,-0.000003,0.000043,-0.000005,-86.539120,0.000047,
2461,2938,4.3538851111573,6.32956045572116,-0.0136457131844168,0.005910,-0.066663,0.003578,0.229842,-3.015167,316.068105,22.205441,0.999336,0.989670,0.004274,0.384439,0.000031,0.000007,0.000020,0.000043,-0.000005,29.383698,0.000047,
2416,2683,3.42358409874284,0.774727522922376,-0.0171337322848331,0.004861,-0.066550,0.002478,0.186597,-3.012828,320.078408,21.263927,0.999301,0.985874,0.004800,0.419297,0.000110,0.000089,0.000008,0.000112,0.000086,18.097227,0.000199,
2386,2533,2.79849097747112,-2.49852436054954,-0.0203977358867178,0.004118,-0.066299,-0.002469,0.170986,-2.985118,322.442584,20.779871,0.999368,0.988539,0.004506,0.500790,0.000226,0.000134,0.000014,0.000228,0.000132,8.482251,0.000364,
2161,2833,-2.14916374697953,4.02927366492307,-0.00919321284646912,0.005427,-0.065206,0.003982,0.214639,-2.946447,318.034172,21.476878,0.999617,0.993328,0.003443,0.452781,0.000043,0.000035,-0.000014,0.000054,0.000025,-37.121955,0.000081,
2071,2473,-4.04923290648185,-3.8142955534928,-0.0119719160334171,0.002520,-0.064545,-0.009509,0.121966,-2.964445,324.155817,21.412717,0.999190,0.988935,0.004562,0.456035,0.000259,0.000103,0.000039,0.000268,0.000093,13.356141,0.000376,
2116,2638,-3.09772938025344,-0.213903867074485,-0.0342375197365072,0.003781,-0.064985,-0.000903,0.154573,-2.957270,321.113026,21.387936,0.999311,0.988037,0.004292,0.430949,0.000120,0.000050,0.000014,0.000123,0.000048,10.886795,0.000176,
2146,2788,-2.4688353707235,3.0512510194534,-0.0258601498692315,0.005055,-0.065212,0.002314,0.202926,-2.962122,318.671486,21.444110,0.999576,0.991920,0.003650,0.429164,0.000058,0.000036,-0.000017,0.000067,0.000026,-28.357560,0.000096,
2086,2488,-3.72695218858182,-3.48642384812883,-0.020166783254524,0.001976,-0.065498,-0.001307,0.073070,-2.965006,323.719092,21.338381,0.999113,0.989325,0.004359,0.495358,0.000249,0.000113,0.000034,0.000258,0.000105,13.368211,0.000373,
2296,2188,0.900802521486593,-10.0501291108369,0.00115846713447354,0.001853,-0.069076,-0.018163,0.119894,-3.206923,328.162771,20.099447,0.998672,0.978561,0.005786,0.388653,0.000735,0.000819,-0.000022,0.000825,0.000730,-76.454069,0.001555,
2011,2203,-5.31901567006102,-9.71320626189556,-0.0211944766202805,-0.002060,-0.065496,-0.016031,-0.071202,-3.037439,328.585647,21.707251,0.999295,0.991389,0.004444,0.410696,0.000717,0.000678,0.000166,0.000865,0.000530,41.710943,0.001408,
2176,2983,-1.84777124517342,7.2884093741197,0.00383135239695775,0.005936,-0.065688,0.008880,0.222345,-2.960952,315.655663,21.631978,0.999118,0.991790,0.003782,0.419216,0.000028,0.000013,-0.000010,0.000033,0.000008,-26.824737,0.000043,
2296,2143,0.908170691246777,-11.0349068772467,-0.00325712741755524,0.001453,-0.069828,-0.017633,0.099480,-3.234078,328.830271,20.110048,0.999156,0.981292,0.005500,0.252979,0.000854,0.000944,-0.000024,0.000950,0.000848,-76.053090,0.001798,
2011,2188,-5.31884698300157,-10.0399406330907,-0.033352337002384,-0.003443,-0.066317,-0.017959,-0.129719,-3.096859,328.667122,21.780954,0.999413,0.991409,0.004387,0.287784,0.000758,0.000713,0.000155,0.000892,0.000579,40.938544,0.001482,
2056,2353,-4.35957556195222,-6.43372053972699,-0.0175124519993233,0.000530,-0.065165,-0.007818,0.025585,-2.965128,326.030351,21.456851,0.998566,0.981892,0.005391,0.477433,0.000426,0.000297,0.000055,0.000446,0.000277,20.155924,0.000730,
2506,3193,5.28649813595564,11.8691417745787,0.0370536533699237,0.007749,-0.066953,0.009647,0.289875,-3.017718,312.490667,23.244048,0.999556,0.992083,0.003639,0.464783,0.000025,0.000015,0.000032,0.000053,-0.000012,40.340153,0.000055,
2446,2848,4.045744571312,4.36925501317523,-0.00748440217643065,0.005812,-0.066586,0.004863,0.220846,-3.003684,317.551717,21.789326,0.999581,0.990738,0.003768,0.468108,0.000039,0.000023,0.000009,0.000042,0.000019,23.790357,0.000063,
2266,2008,0.276764303869605,-14.0028593168312,0.011448261793646,-0.000447,-0.073401,-0.021892,0.024508,-3.406870,331.088662,19.722991,0.998917,0.981826,0.005573,0.375979,0.001111,0.001136,-0.000056,0.001181,0.001067,-51.471993,0.002248,
2086,2533,-3.73286302587709,-2.50481902437642,-0.0155705068182783,0.002743,-0.065111,-0.002601,0.112184,-2.969064,323.069084,21.405726,0.999491,0.991756,0.003950,0.424079,0.000191,0.000082,0.000035,0.000201,0.000072,16.423989,0.000283,
2281,2068,0.594155463886509,-12.6833784078712,0.00304909999056235,0.000934,-0.071952,-0.017892,0.075436,-3.333523,330.083890,19.848010,0.998557,0.981333,0.005536,0.345164,0.001011,0.001111,-0.000031,0.001120,0.001002,-74.215211,0.002123,
2071,2428,-4.04375527794364,-4.79616871097824,-0.00837510854177026,0.001221,-0.065297,-0.003258,0.044237,-2.969749,324.834418,21.466239,0.998803,0.986337,0.004597,0.402676,0.000322,0.000144,0.000048,0.000334,0.000132,14.067918,0.000481,
2206,3088,-1.21239834665329,9.56857089983747,0.0298763468699121,0.006617,-0.065449,0.010428,0.247849,-2.940944,314.091449,21.881248,0.999497,0.991916,0.003639,0.380548,0.000014,0.000012,-0.000003,0.000017,0.000010,-36.361583,0.000027,
2266,2053,0.268146848367802,-13.0129064430731,0.00206633596826578,-0.000129,-0.072043,-0.017759,0.025931,-3.329665,330.287610,19.832344,0.998309,0.977792,0.005977,0.431731,0.001017,0.001113,-0.000014,0.001115,0.001015,-81.690507,0.002131,
2101,2653,-3.42563067568469,0.112328990451076,-0.0311516472495441,0.004122,-0.065045,0.000333,0.166882,-2.953539,320.977512,21.428114,0.999303,0.988652,0.004165,0.407175,0.000106,0.000045,0.000017,0.000110,0.000040,14.851737,0.000156,
2236,3223,-0.583590075517471,12.4975086280363,0.0412015356995425,0.007348,-0.065062,0.008295,0.287373,-2.941566,311.940370,22.136342,0.999291,0.991338,0.003947,0.415072,-0.000005,0.000042,-0.000003,0.000043,-0.000005,-86.439702,0.000046,
2191,3058,-1.53330365471296,8.91581531319185,0.0218409247844988,0.006211,-0.065300,0.005064,0.246579,-2.961840,314.558320,21.706124,0.999780,0.995176,0.003117,0.452398,0.000017,0.000009,-0.000004,0.000019,0.000007,-22.505215,0.000027,
2386,2548,2.79660088337719,-2.17273285943648,-0.0113407925364299,0.004568,-0.067298,-0.000427,0.183888,-3.042200,322.288620,20.809974,0.999199,0.987988,0.004659,0.457321,0.000211,0.000116,0.000015,0.000213,0.000114,8.577685,0.000332,
2281,2128,0.58373579674997,-11.3675561689128,0.00720698550776433,0.001091,-0.070872,-0.015830,0.076164,-3.273401,329.153295,19.947784,0.998065,0.977345,0.005873,0.429043,0.000868,0.000995,-0.000022,0.000999,0.000864,-80.413611,0.001865,
2236,3298,-0.598727297105643,14.1238813899848,0.0107129403981503,0.007800,-0.065197,0.009202,0.305217,-2.964995,310.472880,22.209902,0.999243,0.992005,0.003685,0.416454,-0.000015,0.000036,-0.000007,0.000037,-0.000016,-82.268619,0.000037,
2191,3013,-1.52575732187226,7.93958125086157,0.019837630064103,0.006482,-0.065271,0.009977,0.243561,-2.954251,315.272750,21.692062,0.999388,0.990725,0.003926,0.432982,0.000017,0.000013,-0.000003,0.000018,0.000011,-29.263630,0.000030,
2011,2218,-5.32060264448492,-9.38565892430595,-0.0137920227672907,-0.001816,-0.065706,-0.014364,-0.064579,-3.042691,328.413025,21.726408,0.998570,0.986318,0.005185,0.376696,0.000681,0.000651,0.000163,0.000830,0.000502,42.286608,0.001345,
2476,3028,4.66417978123715,8.28540540049147,0.011674998307285,0.006556,-0.066910,0.011544,0.228827,-3.001771,314.841199,22.553869,0.999674,0.992477,0.003500,0.417928,0.000025,0.000012,0.000048,0.000067,-0.000030,41.229161,0.000068,
2506,3208,5.28282925739073,12.1957922751924,0.0335225861972503,0.007596,-0.066886,0.011104,0.277185,-3.028792,312.201395,23.393511,0.999455,0.990653,0.003808,0.363710,0.000024,0.000004,0.000025,0.000041,-0.000012,34.347595,0.000042,
2221,3163,-0.898406232252203,11.1950378385159,0.0427694169540587,0.007288,-0.065317,0.009327,0.281789,-2.932634,312.966872,21.954939,0.999507,0.991901,0.003632,0.459739,-0.000002,0.000029,-0.000004,0.000029,-0.000002,-83.290245,0.000032,
2491,3088,4.97947613006969,9.58951374722878,0.0185440514738957,0.006918,-0.066722,0.008646,0.256030,-3.014630,313.981470,22.815896,0.999479,0.990339,0.003867,0.421105,0.000050,0.000030,0.000057,0.000098,-0.000018,39.963063,0.000105,
2026,2398,-5.01809306831672,-5.45150777813298,-0.0112837963867491,0.001016,-0.064517,-0.006877,0.045407,-2.957234,325.553083,21.571496,0.999396,0.989445,0.004056,0.451388,0.000382,0.000178,0.000026,0.000385,0.000174,7.055080,0.000573,
2041,2338,-4.68330048594517,-6.76168228264047,-0.0123702473607068,0.000530,-0.064938,-0.008850,0.028484,-2.976262,326.403348,21.558020,0.998956,0.985966,0.004741,0.423148,0.000432,0.000309,0.000049,0.000449,0.000291,19.331115,0.000746,
2071,2488,-4.05196152953527,-3.48674689591709,-0.014769588172669,0.002496,-0.064721,-0.006129,0.111211,-2.953051,323.879506,21.404480,0.999310,0.990337,0.004376,0.473902,0.000248,0.000105,0.000042,0.000260,0.000094,15.255163,0.000366,
2131,2713,-2.7832822636322,1.41897181018324,-0.023624482978903,0.004100,-0.065323,0.004210,0.153610,-2.951384,319.919606,21.430729,0.999382,0.989471,0.004129,0.412990,0.000091,0.000039,-0.000004,0.000092,0.000039,-4.344874,0.000134,
2026,2308,-5.00633351890856,-7.41663476954395,-0.0194530574343617,-0.000253,-0.065394,-0.010340,-0.003561,-3.025267,326.885483,21.659778,0.998501,0.982343,0.005362,0.343332,0.000513,0.000406,0.000071,0.000549,0.000370,26.642273,0.000925,
2056,2413,-4.36741426587237,-5.12388235163844,-0.0137607600102001,0.001669,-0.064815,-0.006285,0.073655,-2.961164,325.142636,21.442418,0.998069,0.983025,0.005382,0.480682,0.000349,0.000160,0.000030,0.000353,0.000155,8.716854,0.000521,
2401,2623,3.10822649671767,-0.534372845159524,-0.0172787779708869,0.004426,-0.066650,0.000731,0.173293,-3.002552,321.022458,21.054707,0.999253,0.987006,0.004417,0.459310,0.000144,0.000092,0.000009,0.000145,0.000090,9.654787,0.000238,
2011,2323,-5.33387676775114,-7.08936055807327,-0.0101403041401227,-0.000118,-0.064093,-0.015492,0.016867,-2.947094,326.835859,21.684183,0.998615,0.984055,0.005245,0.445760,0.000475,0.000303,0.000053,0.000490,0.000289,15.764812,0.000788,
2266,2083,0.262612657708768,-12.3531585043058,-0.00358207186178561,0.000295,-0.072013,-0.014545,0.034801,-3.325803,329.766332,19.969007,0.999168,0.981780,0.005344,0.356846,0.000954,0.001071,-0.000010,0.001072,0.000953,-85.145154,0.002026,
2431,2773,3.73249881463335,2.73678918341712,-0.0216095707745581,0.005033,-0.066300,0.000423,0.201959,-3.001983,318.611801,21.537283,0.999458,0.988465,0.004238,0.452964,0.000075,0.000037,0.000017,0.000082,0.000030,20.681274,0.000116,
2131,2773,-2.79249890992726,2.72437403834362,-0.0222763097378333,0.004534,-0.064994,0.003003,0.177303,-2.947203,318.980690,21.448005,0.999597,0.991956,0.003593,0.423130,0.000069,0.000038,-0.000008,0.000071,0.000035,-14.301179,0.000108,
2116,2653,-3.09987664757004,0.113504010391949,-0.0351100675080147,0.004123,-0.064829,-0.000722,0.169835,-2.944626,320.877520,21.438505,0.999482,0.988937,0.004045,0.396997,0.000109,0.000046,0.000012,0.000111,0.000044,10.352664,0.000160,
2341,2323,1.85735068673235,-7.09131858399076,-0.00830627531024675,0.002861,-0.067982,-0.008668,0.134632,-3.093163,325.895195,20.304588,0.998865,0.985566,0.004946,0.414465,0.000476,0.000407,-0.000016,0.000480,0.000403,-12.595630,0.000884,
2041,2248,-4.67108410068992,-8.73083181751635,-0.0129764489064428,-0.001010,-0.066139,-0.014656,-0.026453,-3.049761,327.792690,21.479298,0.998615,0.983314,0.005284,0.461481,0.000602,0.000584,0.000111,0.000705,0.000482,42.664346,0.001193,
2161,2848,-2.15190357762046,4.35462119691613,-0.00952217323668947,0.005397,-0.065411,0.006595,0.205182,-2.949630,317.778478,21.416521,0.999643,0.993627,0.003325,0.519777,0.000035,0.000035,-0.000015,0.000050,0.000020,-45.002715,0.000072,
2356,2383,2.17279431426232,-5.77687573862689,-0.0168210988326223,0.003185,-0.067505,-0.007344,0.145095,-3.077036,324.864130,20.496770,0.999090,0.982175,0.005208,0.343499,0.000399,0.000331,-0.000002,0.000399,0.000331,-1.950251,0.000731,
2236,3238,-0.586355525379144,12.8217470552091,0.0389586772777193,0.007429,-0.065461,0.008550,0.290063,-2.973254,311.679117,22.095081,0.999558,0.993374,0.003430,0.444416,-0.000005,0.000035,-0.000004,0.000035,-0.000005,-84.826863,0.000038,
2071,2503,-4.05467334286006,-3.15925140541771,-0.0190774256785176,0.002393,-0.064679,-0.005827,0.105604,-2.956658,323.595775,21.397834,0.999165,0.989824,0.004262,0.475048,0.000231,0.000089,0.000034,0.000239,0.000081,12.824917,0.000333,
2161,2908,-2.16105526952046,5.65915262511226,-0.00750307711911091,0.005879,-0.064861,0.001956,0.241776,-2.945831,316.855124,21.514518,0.999476,0.990830,0.003894,0.464817,0.000027,0.000028,-0.000015,0.000042,0.000013,-46.202460,0.000057,
2146,2848,-2.47776466150405,4.35498958437649,-0.0151031407915525,0.005454,-0.065302,0.003670,0.217214,-2.954991,317.800592,21.466043,0.999571,0.992562,0.003525,0.444989,0.000039,0.000030,-0.000016,0.000051,0.000018,-36.770389,0.000072,
2326,2218,1.55005197841783,-9.39341254460637,-0.00118159127191575,0.002292,-0.069406,-0.014810,0.129030,-3.200076,327.650063,19.964622,0.998526,0.977946,0.005950,0.448596,0.000681,0.000733,-0.000031,0.000748,0.000666,-65.001037,0.001415,
2446,2863,4.04282209092762,4.69514027526029,-0.0024611069542857,0.005561,-0.066662,0.005912,0.205415,-2.998608,317.333645,21.818329,0.999723,0.992494,0.003471,0.496176,0.000036,0.000022,0.000010,0.000041,0.000017,27.269863,0.000060,
2251,1993,-0.0509730303679774,-14.3283940167479,-0.0215375120507133,-0.000681,-0.074198,-0.020038,0.007072,-3.472280,331.061312,19.797551,0.999376,0.989571,0.004743,0.314915,0.001166,0.001143,-0.000026,0.001183,0.001126,-32.845797,0.002310,
2146,2803,-2.47061110154377,3.37652191605801,-0.0176232764209203,0.005321,-0.065173,0.003895,0.210409,-2.956271,318.504331,21.421221,0.999643,0.992439,0.003525,0.465609,0.000053,0.000032,-0.000015,0.000061,0.000025,-27.554876,0.000088,
2026,2413,-5.02105564302289,-5.12334212560804,-0.0141454689484704,0.000711,-0.064730,-0.002612,0.019645,-2.929157,325.261545,21.575943,0.999103,0.987089,0.004533,0.466919,0.000363,0.000139,0.000029,0.000367,0.000136,7.283732,0.000520,
2056,2428,-4.37026654446887,-4.79536118412434,-0.0167569451883196,0.001518,-0.064891,-0.002583,0.056297,-2.930396,324.857932,21.481378,0.998603,0.985112,0.004930,0.468630,0.000326,0.000139,0.000044,0.000336,0.000130,12.581527,0.000481,
2101,2773,-3.44365022978075,2.72369912869357,-0.0253904572113015,0.005137,-0.064872,0.003540,0.204299,-2.926684,319.116820,21.447046,0.999571,0.990306,0.003901,0.426770,0.000055,0.000032,-0.000008,0.000057,0.000029,-17.805086,0.000088,
2086,2503,-3.72906489947021,-3.15901384456039,-0.0217715405254921,0.002122,-0.065277,-0.004331,0.088567,-2.976693,323.478839,21.357102,0.998844,0.989488,0.004253,0.465255,0.000234,0.000095,0.000028,0.000239,0.000090,10.863855,0.000340,
2176,2998,-1.84988080835548,7.61396852319385,0.010300823677369,0.005909,-0.065292,0.008392,0.222836,-2.929098,315.465457,21.644108,0.999332,0.991261,0.003862,0.450504,0.000025,0.000011,-0.000007,0.000028,0.000008,-22.247809,0.000037,
2116,2698,-3.1066674510259,1.09208931483001,-0.0277032650390083,0.004118,-0.065166,-0.000684,0.169386,-2.957854,320.210007,21.418054,0.999350,0.990059,0.003983,0.415488,0.000088,0.000030,0.000005,0.000088,0.000030,4.583213,0.000123,
2176,2953,-1.84277533376565,6.6371487650744,-0.000654372977180628,0.006018,-0.065288,0.007250,0.231348,-2.944297,316.115992,21.583289,0.999180,0.991482,0.003761,0.461463,0.000031,0.000007,-0.000013,0.000037,0.000001,-24.085873,0.000044,
2221,3208,-0.905912844654619,12.1705845562714,0.0515233143078149,0.007177,-0.065010,0.010424,0.273238,-2.928826,312.294991,22.047202,0.999175,0.990962,0.003961,0.424079,-0.000006,0.000040,-0.000003,0.000040,-0.000006,-86.404721,0.000043,
2026,2323,-5.00777079300783,-7.08881613115214,-0.0182994894067292,0.000208,-0.064346,-0.014392,0.029008,-2.971747,326.685825,21.615937,0.998805,0.983547,0.005117,0.432606,0.000473,0.000335,0.000061,0.000496,0.000311,20.761644,0.000814,
2086,2548,-3.7352659496483,-2.17813208511583,-0.0224909847098047,0.003099,-0.065270,-0.003061,0.129812,-2.973189,322.786851,21.318013,0.999290,0.990615,0.004128,0.507774,0.000178,0.000078,0.000037,0.000190,0.000066,18.449717,0.000266,
2491,3103,4.97676808608977,9.91529855006065,0.0200414468230292,0.006965,-0.066467,0.006416,0.266929,-2.999822,313.758928,22.863211,0.999371,0.989591,0.003886,0.446758,0.000053,0.000024,0.000064,0.000104,-0.000027,38.585467,0.000108,
2311,2173,1.23089072310196,-10.3801423520479,0.00389832270400348,0.001904,-0.070239,-0.014306,0.108976,-3.228088,328.405694,19.930179,0.998972,0.980811,0.005499,0.424081,0.000793,0.000860,-0.000028,0.000870,0.000782,-69.921834,0.001653,
2206,3103,-1.21451539550248,9.89274411439921,0.0341257955818719,0.006874,-0.065509,0.011272,0.256950,-2.947009,313.891583,21.813432,0.999369,0.990585,0.004021,0.457773,0.000009,0.000016,-0.000002,0.000016,0.000009,-74.410808,0.000026,
2041,2353,-4.68581090112407,-6.43349169218242,-0.0163770035292714,0.000622,-0.064951,-0.007027,0.027632,-2.959554,326.127443,21.544346,0.998693,0.983511,0.005220,0.447955,0.000410,0.000285,0.000050,0.000428,0.000268,19.481692,0.000702,
2461,2953,4.35128782363286,6.65512954185525,-0.00651900490993285,0.005958,-0.066720,0.006156,0.222302,-3.014140,315.875221,22.248182,0.999419,0.989868,0.004123,0.396324,0.000035,0.000007,0.000022,0.000047,-0.000005,29.031466,0.000052,
2296,2203,0.897830140445901,-9.72004141395308,-0.0058384217143157,0.002206,-0.068480,-0.016997,0.132363,-3.180170,327.874412,20.166662,0.998002,0.975336,0.006208,0.381046,0.000696,0.000779,-0.000024,0.000785,0.000689,-75.041440,0.001476,
2476,3043,4.66092175635471,8.61162181895471,0.00893607086953807,0.006454,-0.066886,0.010121,0.229644,-2.992445,314.573221,22.603285,0.999664,0.992172,0.003630,0.433818,0.000022,0.000022,0.000055,0.000077,-0.000034,45.039690,0.000077,
2266,2068,0.26553626223145,-12.6831002173079,0.00475046795810385,-0.000140,-0.071859,-0.015895,0.019348,-3.315571,330.061648,19.940583,0.998680,0.979937,0.005648,0.366396,0.000985,0.001097,-0.000007,0.001098,0.000985,-86.213335,0.002083,
2206,3163,-1.22417812513553,11.1941430436348,0.0372222188891556,0.007362,-0.065307,0.009842,0.284067,-2.951603,312.963415,21.905756,0.999750,0.994605,0.003201,0.423354,0.000004,0.000029,-0.000004,0.000029,0.000003,-81.211134,0.000036,
2266,2098,0.259789591069168,-12.0232789634518,-0.00263419826313793,0.000282,-0.071987,-0.011554,0.024331,-3.309286,329.521867,20.073472,0.998692,0.979519,0.005756,0.297529,0.000921,0.001036,-0.000012,0.001038,0.000919,-84.312756,0.001958,
2026,2338,-5.01002957452853,-6.76212386000703,-0.0109263499542749,0.000013,-0.064702,-0.009499,0.006530,-2.974801,326.483770,21.591868,0.998953,0.985767,0.004762,0.445643,0.000440,0.000287,0.000049,0.000455,0.000273,16.204776,0.000735,
2386,2563,2.79291846454514,-1.84378570166403,-0.0156602723985202,0.004242,-0.066803,0.001072,0.163770,-3.025671,321.988042,20.941743,0.999285,0.988940,0.004366,0.386509,0.000191,0.000109,0.000015,0.000194,0.000106,9.893020,0.000304,
2506,3223,5.2798136676346,12.5211015596177,0.034202799761772,0.007670,-0.066751,0.011800,0.277908,-3.033281,311.961472,23.440966,0.999517,0.990595,0.003891,0.371710,0.000021,-0.000021,0.000013,0.000025,-0.000025,15.968241,0.000028,
2221,3178,-0.900597800876366,11.5200020826679,0.0454853970346107,0.007296,-0.065241,0.005722,0.293673,-2.958481,312.756261,21.987970,0.999311,0.990690,0.003827,0.418354,-0.000003,0.000039,-0.000003,0.000040,-0.000003,-86.420155,0.000044,
2236,3253,-0.589354001796011,13.1472547983863,0.0333431011198968,0.007579,-0.065161,0.009667,0.293501,-2.954638,311.389378,22.105913,0.999551,0.993301,0.003362,0.471990,-0.000006,0.000030,-0.000001,0.000030,-0.000006,-87.769749,0.000032,
2011,2338,-5.33623910959232,-6.76230074129492,-0.00946536310294732,0.000090,-0.064781,-0.008356,0.006843,-2.955381,326.590552,21.632053,0.998652,0.985437,0.005046,0.479359,0.000445,0.000252,0.000043,0.000454,0.000243,11.984986,0.000707,
2281,2083,0.591287912566649,-12.3548328327224,0.00261523846290856,0.000837,-0.072053,-0.017073,0.068253,-3.340862,329.832123,19.833768,0.998710,0.980821,0.005558,0.383138,0.000977,0.001083,-0.000030,0.001091,0.000969,-75.130043,0.002061,
2131,2788,-2.79459768848793,3.05022995980172,-0.018550372242089,0.004698,-0.065135,0.003749,0.182622,-2.941666,318.773606,21.439774,0.999593,0.992244,0.003514,0.442817,0.000059,0.000034,-0.000010,0.000063,0.000030,-19.997687,0.000095,
2341,2338,1.85568544929754,-6.76349226014823,-0.0051615685289903,0.003429,-0.067287,-0.012993,0.175960,-3.098549,325.720336,20.349417,0.999157,0.987175,0.004807,0.402610,0.000453,0.000389,-0.000011,0.000455,0.000387,-9.441991,0.000843,
2401,2638,3.10482951153535,-0.206696547069903,-0.0236643961272307,0.004245,-0.066453,-0.001951,0.174778,-3.014433,320.726568,21.106481,0.999207,0.986110,0.004482,0.442038,0.000130,0.000100,0.000004,0.000130,0.000099,7.660621,0.000230,
2371,2473,2.48348832346392,-3.81122783109724,-0.0113618183543736,0.003643,-0.067151,-0.005239,0.158752,-3.075979,323.471219,20.617760,0.999169,0.987227,0.004635,0.429687,0.000298,0.000187,0.000021,0.000302,0.000183,10.564618,0.000489,
2026,2428,-5.02270707959266,-4.79538232032001,-0.0229611526181088,0.001510,-0.064462,-0.007753,0.070535,-2.954667,324.997056,21.563888,0.998887,0.985015,0.004856,0.445387,0.000345,0.000124,0.000048,0.000355,0.000114,11.723448,0.000489,
2161,2923,-2.16387182281505,5.98550114214687,-0.00493229860614974,0.005608,-0.065019,0.004831,0.220489,-2.932529,316.610813,21.571872,0.999163,0.987879,0.004348,0.430046,0.000029,0.000026,-0.000014,0.000041,0.000014,-41.548063,0.000057,
2041,2473,-4.70308090744208,-3.81333901930034,-0.0235948415481175,0.001823,-0.064710,-0.007233,0.083383,-2.991540,324.188522,21.537259,0.998149,0.981796,0.005583,0.374806,0.000261,0.000079,0.000042,0.000270,0.000070,12.223759,0.000359,
2011,2233,-5.32315266705983,-9.05731155637895,-0.0109458444842971,-0.002126,-0.065754,-0.010418,-0.089528,-3.016269,328.170669,21.744312,0.999082,0.983523,0.005185,0.375530,0.000656,0.000611,0.000145,0.000780,0.000487,40.520849,0.001278,
2356,2398,2.17039283614352,-5.45059353776913,-0.00783582330296895,0.003071,-0.067576,-0.005369,0.132898,-3.062820,324.684687,20.456936,0.999360,0.986637,0.004744,0.438031,0.000376,0.000315,-0.000001,0.000376,0.000315,-1.201963,0.000692,
2176,3013,-1.85167621270705,7.93946503577421,0.0133728679361411,0.006492,-0.065241,0.008840,0.248276,-2.937764,315.271927,21.671186,0.999299,0.989520,0.004063,0.426269,0.000022,0.000012,-0.000007,0.000026,0.000008,-27.818542,0.000036,
2041,2368,-4.68790237838776,-6.10650146631829,-0.0101368267490898,0.000550,-0.065298,-0.004539,0.017313,-2.966564,325.927735,21.549636,0.998661,0.984366,0.005140,0.429840,0.000400,0.000264,0.000042,0.000412,0.000252,15.814440,0.000670,
2071,2623,-4.07276203951268,-0.542161657130585,-0.0326707318954504,0.003866,-0.064291,-0.004601,0.169969,-2.920745,321.605695,21.388176,0.999058,0.988424,0.004327,0.502528,0.000118,0.000041,0.000018,0.000121,0.000037,12.359134,0.000166,
2296,2218,0.894785544647217,-9.39166696087364,-0.00249049748890684,0.001884,-0.068679,-0.013601,0.106081,-3.169880,327.634095,20.207914,0.998434,0.977391,0.005900,0.382563,0.000659,0.000732,-0.000020,0.000738,0.000653,-75.573805,0.001392,
2116,2713,-3.10891210531285,1.41829363112917,-0.0230659256907302,0.004190,-0.065255,0.002294,0.163861,-2.958612,320.000016,21.434461,0.999338,0.988715,0.004199,0.402114,0.000086,0.000035,-0.000002,0.000086,0.000035,-2.675403,0.000124,
2446,2878,4.03882878038343,5.02278112125283,-0.0140445763676098,0.005481,-0.066810,0.005465,0.203367,-3.006979,316.989188,21.903929,0.999466,0.991007,0.003785,0.454140,0.000036,0.000029,0.000017,0.000050,0.000015,39.385959,0.000068,
2311,2188,1.22909897524359,-10.0514030308623,0.00843037405473979,0.002099,-0.069103,-0.019878,0.137329,-3.215733,328.229734,20.004340,0.998897,0.980019,0.005472,0.396816,0.000750,0.000827,-0.000027,0.000836,0.000742,-72.257553,0.001578,
2131,2728,-2.78523743431372,1.74421318014329,-0.0208927069464266,0.004311,-0.065098,0.002661,0.168054,-2.943151,319.713963,21.338666,0.999315,0.987976,0.004370,0.519218,0.000085,0.000035,-0.000006,0.000086,0.000035,-6.282658,0.000124,
2416,2698,3.42017245614773,1.10170524781863,-0.0253015153834895,0.005034,-0.066644,0.002287,0.195217,-3.029140,319.774764,21.261837,0.999487,0.989275,0.004188,0.453091,0.000102,0.000088,0.000012,0.000109,0.000081,30.695665,0.000191,
2206,3298,-1.24903817208847,14.1206138950024,0.0141427999165558,0.007887,-0.065435,0.012216,0.300810,-2.951955,310.575246,22.004967,0.999304,0.992685,0.003409,0.462049,-0.000002,0.000031,-0.000009,0.000034,-0.000004,-75.380051,0.000037,
2011,2248,-5.32486193502825,-8.73021626954247,-0.00894436301473434,-0.001854,-0.065567,-0.011590,-0.073834,-3.024477,327.962433,21.678455,0.998993,0.982473,0.005228,0.423545,0.000628,0.000583,0.000117,0.000725,0.000486,39.607366,0.001218,
2461,2968,4.3485559327239,6.98061201433283,0.00135046192104937,0.005801,-0.066761,0.008629,0.205758,-3.011597,315.679496,22.289792,0.999368,0.989542,0.004196,0.410999,0.000035,0.000005,0.000028,0.000052,-0.000011,30.925305,0.000055,
2506,3238,5.27648564958381,12.8465733847168,0.029102494289134,0.007710,-0.066372,0.010004,0.286942,-3.008179,311.681062,23.444793,0.999570,0.990462,0.003853,0.452962,0.000014,-0.000025,0.000004,0.000015,-0.000025,6.436478,0.000025,
2086,2578,-3.7397718915742,-1.52319219509378,-0.0220509368992339,0.003319,-0.064970,-0.002460,0.138295,-2.962516,322.313235,21.409061,0.998971,0.987253,0.004572,0.427326,0.000145,0.000057,0.000028,0.000153,0.000049,15.999765,0.000211,
2266,2203,0.242428596123172,-9.71969634637938,-0.00960778621691816,0.001612,-0.068522,-0.017204,0.105160,-3.182547,327.852042,20.289183,0.998530,0.980994,0.005590,0.407657,0.000677,0.000760,-0.000006,0.000761,0.000676,-85.762125,0.001438,
2176,3028,-1.8540573846892,8.26471931494909,0.0131479068211888,0.006632,-0.065347,0.008079,0.257051,-2.943041,315.034275,21.654416,0.999456,0.991206,0.003917,0.449183,0.000021,0.000011,-0.000008,0.000025,0.000007,-28.967760,0.000033,
2191,3073,-1.53501463092761,9.24052006006603,0.028110249196061,0.006619,-0.065413,0.004527,0.267008,-2.969528,314.386553,21.694736,0.999644,0.993579,0.003368,0.469812,0.000017,0.000015,-0.000005,0.000021,0.000011,-40.228330,0.000032,
2116,2728,-3.11166206702006,1.74512848121642,-0.027053332954722,0.004104,-0.064875,0.001979,0.160964,-2.933086,319.720292,21.417096,0.999348,0.988658,0.004214,0.448912,0.000077,0.000031,-0.000004,0.000077,0.000031,-4.987028,0.000111,
2056,2548,-4.38771789325172,-2.17762287158968,-0.0252320864202034,0.002963,-0.064756,-0.002046,0.121161,-2.950836,322.914824,21.432160,0.999149,0.989111,0.004273,0.464227,0.000173,0.000061,0.000041,0.000187,0.000048,18.049229,0.000248,
2146,2878,-2.48251003581678,5.00671399519523,-0.00741522914108828,0.005286,-0.064991,0.005211,0.204914,-2.935769,317.364538,21.488925,0.999450,0.990947,0.003822,0.456434,0.000035,0.000039,-0.000019,0.000056,0.000018,-47.857833,0.000077,
2101,2788,-3.44567614816827,3.04912909491988,-0.0183128463292519,0.005134,-0.064731,0.004650,0.200992,-2.914978,318.929311,21.419208,0.999576,0.990441,0.003928,0.467582,0.000045,0.000029,-0.000011,0.000051,0.000023,-26.305856,0.000076,
2341,2353,1.85281059358077,-6.43529795771806,-0.00507944856826725,0.003474,-0.067050,-0.011416,0.172658,-3.098448,325.475083,20.397295,0.998994,0.985279,0.004954,0.393599,0.000433,0.000376,-0.000002,0.000433,0.000376,-2.070363,0.000809,
2041,2383,-4.6904171776271,-5.77890479702372,-0.0128523566142462,0.000315,-0.065009,-0.006748,0.012699,-2.978765,325.659054,21.533386,0.999133,0.987581,0.004479,0.428100,0.000385,0.000241,0.000037,0.000393,0.000232,13.505405,0.000632,
2041,2488,-4.70429868811776,-3.48677407105524,-0.0185201696083368,0.002450,-0.064411,-0.009012,0.117260,-2.974101,324.022502,21.505002,0.999214,0.987288,0.004668,0.417932,0.000255,0.000082,0.000047,0.000267,0.000070,14.387159,0.000356,
2356,2413,2.16775753564962,-5.12150277227511,-0.0126371247318389,0.003585,-0.066913,-0.006148,0.159471,-3.063061,324.427814,20.561187,0.999599,0.989371,0.004387,0.374039,0.000352,0.000294,0.000002,0.000352,0.000294,2.057092,0.000646,
2281,2158,0.578078573021156,-10.7073760108963,-0.00144413815013422,0.001321,-0.069666,-0.017585,0.092970,-3.215176,328.613544,20.093436,0.999294,0.981625,0.005490,0.403427,0.000797,0.000879,-0.000005,0.000879,0.000796,-86.282256,0.001676,
2281,2143,0.580981118427687,-11.0360711918067,0.00443396206520674,0.001353,-0.070209,-0.014301,0.083323,-3.239850,328.894339,20.157155,0.998927,0.980976,0.005551,0.284055,0.000835,0.000930,-0.000016,0.000933,0.000832,-80.716164,0.001766,
2011,2353,-5.33905241307118,-6.43294486086464,-0.0165032083630194,0.000012,-0.064770,-0.006324,-0.002256,-2.962978,326.280932,21.718551,0.998924,0.988009,0.004795,0.375645,0.000424,0.000253,0.000053,0.000439,0.000238,15.835083,0.000687,
2161,2863,-2.1549255018878,4.68271588969917,-0.0180055251747149,0.005364,-0.065071,0.005066,0.208454,-2.948445,317.465965,21.548126,0.999298,0.991219,0.003743,0.399222,0.000034,0.000036,-0.000018,0.000053,0.000017,-46.799435,0.000073,
2056,2443,-4.37258377768206,-4.46806592095547,-0.0185903855328888,0.001472,-0.065034,-0.004674,0.059953,-2.974389,324.604671,21.498847,0.998864,0.986703,0.004787,0.403407,0.000303,0.000111,0.000036,0.000310,0.000105,10.365428,0.000431,
2071,2518,-4.05711098048249,-2.83206104967474,-0.0217130916248607,0.002556,-0.065135,-0.004044,0.107823,-2.980461,323.333875,21.403836,0.999276,0.990920,0.003997,0.443142,0.000207,0.000083,0.000041,0.000219,0.000070,16.649394,0.000302,
2026,2353,-5.01228102919338,-6.43408081871206,-0.0111946245215222,0.000245,-0.065315,-0.005438,0.005843,-2.989213,326.239292,21.631769,0.998886,0.985588,0.004985,0.383288,0.000420,0.000273,0.000053,0.000437,0.000256,17.964896,0.000701,
2191,3028,-1.52859415989192,8.26528689095385,0.0168488054784461,0.006472,-0.065519,0.010554,0.241254,-2.958231,315.000708,21.697048,0.999503,0.991752,0.003909,0.437897,0.000015,0.000012,-0.000003,0.000017,0.000010,-34.261694,0.000028,
2386,2578,2.78991811239831,-1.51700875586249,-0.0134329549455856,0.004134,-0.067257,0.003289,0.150701,-3.033379,321.750256,20.961244,0.999242,0.987298,0.004601,0.403455,0.000180,0.000109,0.000018,0.000184,0.000105,13.435789,0.000293,
2431,2788,3.72984680288304,3.06331311437169,-0.0155800086985778,0.005276,-0.066910,0.005445,0.194263,-3.029816,318.410131,21.646327,0.999425,0.989447,0.004141,0.365966,0.000071,0.000043,0.000018,0.000080,0.000034,26.134322,0.000117,
2296,2158,0.905369121800909,-10.7074066070645,-0.00429697498094583,0.001474,-0.069671,-0.017059,0.098542,-3.226709,328.579695,20.007022,0.999199,0.982098,0.005462,0.396034,0.000810,0.000887,-0.000019,0.000892,0.000806,-76.786128,0.001698,
2371,2488,2.48058044786614,-3.4833961560854,-0.0107449484123663,0.003562,-0.066788,-0.005108,0.154758,-3.038710,323.228876,20.645788,0.999281,0.987218,0.004513,0.481238,0.000281,0.000168,0.000019,0.000283,0.000165,9.100528,0.000453,
2266,2113,0.258440739427321,-11.6953365539521,0.00708060462784488,0.000467,-0.070782,-0.017174,0.051805,-3.290593,329.388910,20.099675,0.998568,0.979505,0.005769,0.318262,0.000885,0.001007,-0.000011,0.001008,0.000883,-84.810077,0.001893,
2461,2983,4.34617783103399,7.30733548294483,0.00254391928154973,0.006218,-0.066540,0.007039,0.231005,-3.010146,315.469069,22.403964,0.999380,0.989518,0.004131,0.352173,0.000033,0.000006,0.000028,0.000050,-0.000012,31.911196,0.000052,
2176,3148,-1.87255806930699,10.8669575638191,0.0328923850209435,0.007326,-0.065091,0.008361,0.288305,-2.937842,313.270875,21.768342,0.999353,0.992950,0.003671,0.430807,0.000010,0.000022,-0.000011,0.000029,0.000003,-58.632959,0.000035,
2266,2218,0.239544847078196,-9.39174759835007,-0.000862628312404468,0.001094,-0.068739,-0.012520,0.065893,-3.165556,327.643839,20.340901,0.998496,0.978603,0.005775,0.400753,0.000643,0.000717,-0.000005,0.000717,0.000643,-86.177715,0.001361,
2026,2443,-5.02453339805743,-4.46715942537412,-0.0227467230174625,0.001922,-0.064316,-0.007480,0.088781,-2.962513,324.774718,21.649042,0.999220,0.989133,0.004323,0.343929,0.000326,0.000089,0.000043,0.000333,0.000081,9.874174,0.000439,
2131,2803,-2.79700362509935,3.37626843941634,-0.0175627361051625,0.004717,-0.064960,0.004208,0.182135,-2.940578,318.537774,21.435597,0.999530,0.991930,0.003635,0.453639,0.000056,0.000031,-0.000008,0.000058,0.000028,-17.023625,0.000088,
2296,2233,0.892593549928993,-9.06264694395603,-0.000384127002632795,0.002436,-0.068410,-0.011187,0.123346,-3.119321,327.426371,20.259703,0.998631,0.979356,0.005624,0.413790,0.000618,0.000683,-0.000019,0.000688,0.000613,-74.937557,0.001302,
2446,2893,4.03492046500151,5.34992979451272,-0.0250378034025402,0.005606,-0.067191,0.007097,0.202899,-3.011323,316.651375,21.950456,0.999355,0.990575,0.003986,0.455383,0.000033,0.000025,0.000020,0.000050,0.000008,39.655828,0.000063,
2326,2233,1.54648358027105,-9.06401049931483,-0.00384786262873149,0.001921,-0.069189,-0.011943,0.102264,-3.190684,327.358594,20.043561,0.998088,0.974378,0.006390,0.416232,0.000641,0.000680,-0.000027,0.000694,0.000627,-62.814976,0.001321,
2116,2848,-3.1295080907198,4.35410611850577,-0.0172222684818166,0.005240,-0.064867,0.004255,0.206562,-2.926433,317.899262,21.444049,0.999682,0.992716,0.003494,0.455701,0.000035,0.000019,-0.000018,0.000046,0.000008,-33.318677,0.000058,
2221,1993,-0.703768367547955,-14.3319111044714,0.0182086718192522,-0.001219,-0.073723,-0.020621,-0.016372,-3.432218,331.429775,20.026788,0.999363,0.987729,0.004884,0.336718,0.001138,0.001126,0.000001,0.001138,0.001126,4.812176,0.002263,
2101,2668,-3.42798883336826,0.438431138007211,-0.0275908074606264,0.003977,-0.064805,0.001111,0.158002,-2.938402,320.755475,21.397592,0.999304,0.989963,0.004067,0.454306,0.000098,0.000032,0.000017,0.000102,0.000027,13.636591,0.000137,
2251,2008,-0.053496569623146,-14.0001204403065,-0.0131247098246945,-0.001192,-0.074029,-0.020029,-0.016349,-3.435041,330.867091,19.788381,0.999132,0.986413,0.005217,0.388192,0.001121,0.001126,-0.000023,0.001147,0.001100,-47.769863,0.002247,
2146,2863,-2.48078494569462,4.68170314663806,-0.0196338706960546,0.005431,-0.065305,0.006741,0.206797,-2.956398,317.508154,21.502767,0.999429,0.991470,0.003732,0.414575,0.000036,0.000032,-0.000019,0.000053,0.000015,-42.091301,0.000072,
2476,3058,4.65904327222099,8.93689157404849,0.0186944045478867,0.006491,-0.066726,0.006327,0.245815,-3.012568,314.425872,22.680531,0.999552,0.989491,0.004164,0.391905,0.000029,0.000011,0.000054,0.000075,-0.000035,40.279593,0.000075,
2161,2938,-2.16578045881018,6.31094490514015,-0.00208062816653865,0.005983,-0.064943,0.004097,0.239999,-2.937980,316.409967,21.570448,0.999149,0.988525,0.004334,0.435713,0.000030,0.000018,-0.000013,0.000038,0.000010,-32.195604,0.000051,
2086,2593,-3.74261346701528,-1.19603272037399,-0.0224883132014497,0.002863,-0.064760,-0.002476,0.117459,-2.936051,322.045934,21.406573,0.998896,0.987204,0.004577,0.455909,0.000137,0.000060,0.000029,0.000147,0.000050,18.348804,0.000205,
2011,2263,-5.32667054305396,-8.40233579575609,-0.00879828504417901,-0.001537,-0.065565,-0.012312,-0.057324,-3.022633,327.739092,21.660218,0.998571,0.978827,0.005421,0.433761,0.000595,0.000543,0.000106,0.000678,0.000461,38.081629,0.001146,
2056,2458,-4.37479997999052,-4.14154808145864,-0.0137026969320004,0.001435,-0.065267,-0.001508,0.049284,-2.948310,324.392935,21.443057,0.998888,0.986124,0.004950,0.481087,0.000279,0.000085,0.000027,0.000282,0.000081,7.760576,0.000382,
2221,3253,-0.914471767289033,13.1459327039176,0.0325101734398459,0.007802,-0.065296,0.009130,0.306092,-2.955430,311.431585,22.026641,0.999630,0.993721,0.003285,0.470726,-0.000009,0.000022,0.000000,0.000022,-0.000009,89.360402,0.000022,
2491,3118,4.97370666446353,10.2407185445194,0.0231845765483172,0.006900,-0.066750,0.008703,0.255044,-3.009570,313.527568,22.915510,0.999464,0.990634,0.003727,0.442231,0.000052,0.000035,0.000056,0.000100,-0.000013,40.794903,0.000109,
2041,2398,-4.69224043751465,-5.45111598471153,-0.0208328022960131,0.000997,-0.064236,-0.010500,0.054699,-2.959525,325.392702,21.458246,0.999168,0.988627,0.004273,0.516482,0.000361,0.000191,0.000025,0.000365,0.000187,8.329455,0.000561,
2131,2923,-2.81446076587667,5.98245203402555,0.00120752452011175,0.005844,-0.065489,0.005320,0.230517,-2.966928,316.792042,21.470650,0.999219,0.988409,0.004302,0.434818,0.000037,0.000015,-0.000016,0.000045,0.000007,-27.533157,0.000056,
2056,2563,-4.38950059543554,-1.85136124951737,-0.0189092348408622,0.003047,-0.064872,-0.002756,0.127025,-2.948518,322.731097,21.420935,0.999095,0.988246,0.004418,0.473156,0.000159,0.000046,0.000028,0.000166,0.000040,13.199421,0.000218,
2206,3178,-1.22677744535533,11.5195288030461,0.0356036213192965,0.007416,-0.065379,0.008706,0.290148,-2.958649,312.710475,21.933274,0.999660,0.994241,0.003280,0.404275,0.000002,0.000040,-0.000003,0.000040,0.000002,-85.833214,0.000047,
2116,2743,-3.11476000410127,2.07238565867726,-0.0298886351868077,0.003887,-0.065220,0.006079,0.138741,-2.930352,319.430732,21.475507,0.999465,0.989694,0.004019,0.396730,0.000070,0.000026,-0.000009,0.000072,0.000024,-11.535373,0.000100,
2506,3253,5.27314209461933,13.172486667562,0.0255781758598346,0.007794,-0.066484,0.010459,0.289092,-3.003017,311.406758,23.522641,0.999709,0.992412,0.003545,0.439908,0.000007,-0.000026,-0.000007,0.000008,-0.000027,-11.317411,0.000028,
2071,2638,-4.07482583645605,-0.215783094645062,-0.0249763531054441,0.003795,-0.064765,-0.002462,0.160442,-2.946254,321.417696,21.449130,0.999011,0.987272,0.004454,0.413238,0.000104,0.000049,0.000023,0.000112,0.000041,19.680189,0.000159,
2086,2563,-3.7367600354093,-1.85051549145642,-0.0165610068045794,0.003256,-0.064606,-0.008335,0.152428,-2.976767,322.615794,21.433652,0.998775,0.986585,0.004740,0.388310,0.000163,0.000066,0.000028,0.000170,0.000059,14.824575,0.000238,
2281,2278,0.555941672030844,-8.07656274302921,-0.0121962609648563,0.002012,-0.068148,-0.010482,0.101592,-3.117055,326.595986,20.384252,0.999486,0.987320,0.004729,0.453409,0.000526,0.000522,-0.000007,0.000532,0.000517,-37.978658,0.001048,
2401,2653,3.10246824734592,0.120078934074535,-0.019413147131047,0.004775,-0.066685,0.001923,0.185005,-2.992662,320.528388,21.136737,0.999204,0.986962,0.004527,0.479502,0.000116,0.000093,0.000007,0.000118,0.000091,16.304241,0.000209,
2041,2503,-4.70726677902752,-3.15940841525916,-0.0198936402060212,0.002179,-0.064435,-0.003297,0.088921,-2.932619,323.740483,21.467920,0.999311,0.989332,0.004250,0.490103,0.000239,0.000071,0.000034,0.000246,0.000065,11.205806,0.000327,
2071,2533,-4.05905696069033,-2.50486265831937,-0.0159608545109222,0.002765,-0.065137,-0.001028,0.108889,-2.951007,323.140154,21.437680,0.999229,0.990321,0.004148,0.436413,0.000181,0.000075,0.000042,0.000196,0.000060,18.939577,0.000268,
2176,3043,-1.85603175795363,8.59118070933788,0.0189020087552194,0.006609,-0.064728,0.004837,0.266184,-2.950215,314.846252,21.793999,0.999692,0.994907,0.003265,0.313916,0.000017,0.000005,-0.000011,0.000024,-0.000002,-29.689313,0.000026,
2311,2203,1.22534676365251,-9.72218732196146,0.00434106510630272,0.001823,-0.069495,-0.014260,0.105407,-3.202916,327.921636,20.036165,0.998564,0.977946,0.005853,0.412914,0.000711,0.000783,-0.000027,0.000792,0.000702,-71.679587,0.001495,
2221,3223,-0.908778414805596,12.495754736623,0.050191806130556,0.007319,-0.065359,0.014239,0.267373,-2.943530,312.032409,22.075236,0.999477,0.992819,0.003574,0.398727,-0.000007,0.000036,-0.000002,0.000036,-0.000007,-87.080480,0.000038,
2266,2128,0.255672424984059,-11.3660893539683,-0.0004967698296241,0.000952,-0.070790,-0.016492,0.071755,-3.266812,329.104274,20.056822,0.998446,0.979513,0.005769,0.413516,0.000850,0.000983,-0.000009,0.000984,0.000850,-85.987291,0.001835,
2266,2233,0.236818196489931,-9.06275207534139,-0.00569302586353615,0.001287,-0.068504,-0.013792,0.079039,-3.160924,327.374722,20.364069,0.998654,0.977211,0.005746,0.410481,0.000606,0.000668,-0.000008,0.000669,0.000605,-83.166983,0.001274,
2341,2368,1.84842315773193,-6.10609934540346,-0.017466538592771,0.003108,-0.067287,-0.007957,0.143777,-3.086659,325.099876,20.409445,0.998757,0.984526,0.005043,0.432226,0.000405,0.000355,-0.000005,0.000406,0.000355,-6.096487,0.000761,
2101,2803,-3.44882797842645,3.37498873582009,-0.017781642326554,0.004604,-0.065297,0.008486,0.165103,-2.939707,318.654744,21.420309,0.999447,0.991144,0.003807,0.442938,0.000043,0.000028,-0.000008,0.000046,0.000024,-24.119063,0.000071,
2161,2878,-2.15702184835876,5.00775982300015,-0.00751822082446552,0.005315,-0.065363,0.008542,0.195452,-2.948453,317.296903,21.545401,0.999439,0.992095,0.003630,0.411645,0.000033,0.000043,-0.000017,0.000055,0.000021,-52.836777,0.000079,
2461,2998,4.34363220033315,7.63201892685933,0.00496502349801631,0.006626,-0.066647,0.008707,0.243388,-3.019607,315.257052,22.353452,0.999282,0.989251,0.004134,0.446896,0.000032,0.000004,0.000038,0.000058,-0.000022,34.981072,0.000059,
2011,2368,-5.34064928381341,-6.10568716242347,-0.0183107661055146,0.000421,-0.064174,-0.011207,0.029929,-2.962665,326.056648,21.662126,0.999079,0.987600,0.004763,0.421994,0.000421,0.000221,0.000035,0.000428,0.000215,9.702925,0.000654,
2026,2458,-5.02782036045804,-4.14030726676583,-0.0298978115044974,0.001556,-0.064607,-0.003115,0.059856,-2.939585,324.444854,21.514944,0.999207,0.989088,0.004330,0.492687,0.000299,0.000053,0.000034,0.000303,0.000048,7.755658,0.000381,
2131,2818,-2.79912332213211,3.70217803723469,-0.0142256452845118,0.004666,-0.064702,0.001549,0.187841,-2.935299,318.327646,21.437542,0.999316,0.990878,0.003945,0.462288,0.000057,0.000030,-0.000010,0.000060,0.000027,-17.756155,0.000090,
2281,2173,0.574524337223082,-10.3799928785625,-0.00294447129482478,0.000954,-0.070226,-0.012119,0.057733,-3.224994,328.324995,19.997165,0.999095,0.980897,0.005567,0.520733,0.000765,0.000847,-0.000006,0.000847,0.000765,-86.067824,0.001613,
2296,2353,0.870867915622956,-6.43582550760986,-0.00242037074212931,0.002869,-0.067151,-0.007947,0.132796,-3.071563,325.480461,20.534136,0.999477,0.987779,0.004386,0.444271,0.000388,0.000366,-0.000004,0.000389,0.000365,-9.567380,0.000754,
2011,2278,-5.32858877751058,-8.07397464685848,-0.0138785864484134,-0.001073,-0.065383,-0.013986,-0.031450,-3.023447,327.481433,21.640742,0.998164,0.979445,0.005822,0.442748,0.000574,0.000500,0.000091,0.000635,0.000438,33.868130,0.001080,
2251,2023,-0.0552082635723998,-13.670986960535,-0.000178081305477917,-0.001246,-0.072886,-0.020500,-0.016906,-3.392596,330.732679,19.907836,0.998807,0.980596,0.005759,0.337497,0.001085,0.001143,0.000000,0.001143,0.001085,-89.781854,0.002229,
2086,2608,-3.74447933048529,-0.868807918798531,-0.0240206227740032,0.003491,-0.064800,-0.001929,0.144729,-2.943762,321.817439,21.439288,0.998947,0.987244,0.004552,0.415399,0.000134,0.000049,0.000022,0.000140,0.000043,13.855107,0.000192,
2476,3073,4.65639025015966,9.26193235197692,0.0262375746322618,0.006753,-0.066847,0.012340,0.234886,-3.011478,314.232742,22.703968,0.999561,0.989622,0.004058,0.425229,0.000035,0.000019,0.000054,0.000082,-0.000027,40.788588,0.000083,
2026,2368,-5.01422816572626,-6.10722921918339,-0.0106229953507295,0.000381,-0.065166,-0.007082,0.016618,-2.989300,326.013639,21.561751,0.999040,0.986014,0.004893,0.445331,0.000416,0.000247,0.000038,0.000425,0.000239,12.197546,0.000672,
2101,2683,-3.43013835436243,0.764433599357254,-0.0262611659046001,0.004102,-0.064843,0.000589,0.165290,-2.942075,320.531028,21.362295,0.999331,0.990613,0.003910,0.487499,0.000089,0.000029,0.000011,0.000091,0.000027,9.795615,0.000124,
2146,2893,-2.48491917957482,5.33218011602138,-0.00204069044008293,0.005278,-0.065344,0.009164,0.192409,-2.944061,317.153123,21.498585,0.999413,0.989152,0.004184,0.445949,0.000030,0.000032,-0.000017,0.000048,0.000014,-46.648650,0.000065,
2416,2713,3.41822576202656,1.42792043662087,-0.0165151451375323,0.005247,-0.066552,0.001266,0.208801,-3.010049,319.617763,21.297586,0.999615,0.990444,0.003949,0.484502,0.000091,0.000082,0.000018,0.000105,0.000068,38.372375,0.000174,
2446,2908,4.03235578281056,5.67563736673344,-0.0159601601457098,0.005385,-0.067107,0.008196,0.188643,-3.021277,316.468314,22.020434,0.999349,0.990004,0.004043,0.426878,0.000027,0.000012,0.000025,0.000046,-0.000006,36.936882,0.000049,
2041,2518,-4.70925838951345,-2.83198944413221,-0.0226324251052574,0.002550,-0.064220,-0.004505,0.109382,-2.924275,323.495678,21.461244,0.999163,0.989444,0.004304,0.498682,0.000210,0.000060,0.000043,0.000221,0.000049,14.863553,0.000288,
2056,2473,-4.37668506711153,-3.81264159984384,-0.0168760926525806,0.001801,-0.064655,-0.005404,0.077280,-2.943197,324.151502,21.556397,0.998980,0.986900,0.005025,0.368827,0.000268,0.000091,0.000039,0.000276,0.000083,12.055067,0.000376,
2056,2578,-4.39158060297583,-1.5239183878624,-0.0214398009080696,0.003609,-0.064684,0.000198,0.144600,-2.935948,322.484709,21.434197,0.998857,0.987684,0.004516,0.467972,0.000141,0.000043,0.000026,0.000147,0.000036,14.176955,0.000194,
2191,3088,-1.53764723354142,9.56654983735274,0.0293906963084964,0.006797,-0.065383,0.009034,0.261034,-2.961462,314.145959,21.761108,0.999477,0.991751,0.003699,0.424872,0.000016,0.000012,-0.000004,0.000018,0.000010,-29.765215,0.000028,
2221,3238,-0.911332015514724,12.8209919510443,0.0388939327371531,0.007776,-0.065416,0.008114,0.308060,-2.966065,311.732786,22.064676,0.999656,0.993429,0.003374,0.404485,-0.000007,0.000027,-0.000003,0.000028,-0.000008,-85.821811,0.000028,
2356,2428,2.16461958917418,-4.79544431865646,-0.0162004638184499,0.003453,-0.066746,-0.007314,0.157611,-3.039412,324.154208,20.381369,0.999272,0.988880,0.004544,0.617938,0.000337,0.000268,0.000007,0.000337,0.000267,6.000064,0.000606,
2431,2803,3.72769102131972,3.39046786945951,-0.0132969385407478,0.005626,-0.066476,0.001934,0.223576,-3.005510,318.213562,21.735910,0.999413,0.989172,0.004207,0.350486,0.000067,0.000038,0.000018,0.000075,0.000030,25.334578,0.000108,
2116,2863,-3.13139996553288,4.67943184176029,-0.00870028958104285,0.005402,-0.065117,0.006795,0.206397,-2.939783,317.726685,21.461371,0.999652,0.992077,0.003589,0.428037,0.000031,0.000022,-0.000020,0.000047,0.000005,-38.719005,0.000057,
2221,2008,-0.707536857813903,-14.0001368317713,0.00556127646507321,-0.001435,-0.073404,-0.019276,-0.030465,-3.406101,331.068814,20.104823,0.999155,0.985733,0.005334,0.308138,0.001095,0.001105,-0.000002,0.001105,0.001095,-80.283386,0.002200,
2011,2383,-5.34228438560969,-5.77763105280353,-0.0157764183930453,0.000863,-0.063893,-0.010688,0.048955,-2.935305,325.854647,21.698830,0.999129,0.987674,0.004488,0.402301,0.000410,0.000201,0.000029,0.000414,0.000197,7.785093,0.000624,
2206,3193,-1.22882554067659,11.8439174369544,0.0417195495007263,0.007519,-0.065336,0.008056,0.296963,-2.956745,312.523307,21.909434,0.999772,0.995496,0.003101,0.445673,0.000001,0.000043,-0.000003,0.000043,0.000001,-85.191640,0.000050,
2041,2413,-4.69538797926613,-5.12274777048234,-0.0228153794585637,0.000707,-0.064916,-0.002680,0.019412,-2.940898,325.098857,21.499995,0.998654,0.984709,0.004922,0.487510,0.000342,0.000152,0.000025,0.000345,0.000149,7.299330,0.000506,
2131,2938,-2.81622529499886,6.3089837660337,0.00721705638733283,0.006104,-0.064936,0.004428,0.245393,-2.943499,316.612285,21.561726,0.999549,0.991860,0.003796,0.372230,0.000035,0.000010,-0.000015,0.000042,0.000003,-25.145766,0.000050,
2386,2593,2.78703791564005,-1.18953074979871,-0.0154504090930914,0.004276,-0.066929,0.002923,0.158675,-3.023652,321.497606,20.995180,0.999398,0.986992,0.004597,0.423595,0.000166,0.000100,0.000021,0.000172,0.000094,16.341048,0.000270,
2161,2953,-2.16805868958669,6.63588152631814,0.003637245447635,0.005921,-0.065204,0.005222,0.233626,-2.949005,316.207456,21.551858,0.999348,0.990972,0.003838,0.452587,0.000030,0.000006,-0.000016,0.000038,-0.000002,-25.916547,0.000043,
2071,2653,-4.07715208822622,0.110936253097265,-0.0288434003375073,0.004295,-0.065164,0.001464,0.172146,-2.936327,321.154232,21.412608,0.999225,0.988197,0.004290,0.457152,0.000091,0.000044,0.000017,0.000096,0.000039,17.855117,0.000139,
2146,2998,-2.50011730731884,7.61160155275577,0.0145805137615298,0.006165,-0.064671,0.004317,0.248251,-2.929484,315.637641,21.554499,0.999562,0.992557,0.003603,0.455765,0.000021,0.000006,-0.000010,0.000026,0.000001,-26.416388,0.000031,
2221,3268,-0.917046355109779,13.4706165064957,0.0260449705680799,0.008141,-0.065372,0.006440,0.330316,-2.973507,311.156023,21.997616,0.999547,0.993028,0.003439,0.499463,-0.000009,0.000030,0.000002,0.000031,-0.000009,87.771312,0.000031,
2026,2473,-5.03016500402952,-3.81303849294538,-0.0252330770910589,0.001438,-0.064993,0.001371,0.042018,-2.931048,324.223817,21.547949,0.998713,0.983025,0.005130,0.459731,0.000288,0.000059,0.000051,0.000299,0.000048,12.071470,0.000376,
2506,3268,5.26948400411563,13.4984163539629,0.0236769019525127,0.007843,-0.067067,0.015820,0.270396,-3.006696,311.125116,23.624125,0.999842,0.995285,0.002913,0.394117,-0.000005,-0.000048,-0.000024,0.000006,-0.000059,-24.288312,0.000065,
2251,2038,-0.0579332885154038,-13.341963313043,0.00370584423876608,-0.001202,-0.072971,-0.014528,-0.034378,-3.357962,330.506342,19.927095,0.998731,0.978375,0.005796,0.379783,0.001051,0.001111,-0.000001,0.001111,0.001051,-89.126910,0.002162,
2086,2623,-3.74709235973438,-0.541887850450841,-0.0342617109533876,0.003744,-0.064368,-0.004137,0.162883,-2.931156,321.507415,21.354575,0.999184,0.987509,0.004403,0.512673,0.000125,0.000044,0.000016,0.000128,0.000041,10.776982,0.000177,
2281,2293,0.553492393819337,-7.74775312315953,-0.0145298801725744,0.002277,-0.067806,-0.012550,0.120762,-3.111955,326.353280,20.438230,0.999269,0.984559,0.005058,0.434590,0.000494,0.000484,-0.000003,0.000495,0.000483,-17.026252,0.000979,
2461,3013,4.34143906813777,7.95840655994932,0.0147799333003604,0.006627,-0.066552,0.008447,0.244543,-2.999574,315.094580,22.483953,0.999402,0.989181,0.004006,0.390040,0.000029,0.000008,0.000042,0.000061,-0.000025,37.802268,0.000062,
2236,2053,-0.386707858119429,-13.0120358895047,0.00672385075336024,-0.000361,-0.071770,-0.018181,0.016170,-3.350212,330.368830,20.116930,0.998339,0.975472,0.006112,0.321605,0.001000,0.001094,0.000006,0.001095,0.001000,86.298752,0.002095,
2356,2443,2.1617476414256,-4.46747767296253,-0.00957890280494667,0.002939,-0.066976,-0.007004,0.132809,-3.071831,323.941571,20.533207,0.998291,0.981239,0.005572,0.473622,0.000323,0.000230,0.000018,0.000327,0.000226,10.639190,0.000556,
2011,2398,-5.34429053343446,-5.45120620977251,-0.010867265106242,0.001030,-0.064320,-0.006125,0.044130,-2.936829,325.649543,21.642676,0.999191,0.987710,0.004422,0.446314,0.000389,0.000157,0.000021,0.000391,0.000155,5.191408,0.000563,
2026,2383,-5.01643589852333,-5.77927494933004,-0.00854136729719812,0.000273,-0.064923,-0.007077,0.011700,-2.981234,325.784201,21.603877,0.999338,0.988767,0.004175,0.402976,0.000403,0.000225,0.000035,0.000410,0.000218,10.555827,0.000638,
2131,2833,-2.80104690247578,4.02918772082035,-0.0209090603083837,0.005407,-0.064517,-0.002106,0.232950,-2.943828,318.072675,21.482416,0.999543,0.992133,0.003652,0.414628,0.000054,0.000027,-0.000010,0.000057,0.000023,-18.932282,0.000083,
2056,2593,-4.39445527874149,-1.19509518968092,-0.0305691008139206,0.003666,-0.064703,0.001107,0.144656,-2.924190,322.165257,21.522704,0.998504,0.986278,0.004687,0.386819,0.000132,0.000054,0.000026,0.000140,0.000046,16.710797,0.000194,
2251,2128,-0.0722588984180845,-11.3659058884868,0.00194969876019968,0.000359,-0.070557,-0.014340,0.037331,-3.259640,329.114496,20.158190,0.997957,0.977562,0.006093,0.406217,0.000846,0.000971,0.000003,0.000971,0.000846,88.650505,0.001818,
2266,2248,0.234199353375477,-8.7341360189049,-0.00718390603071839,0.001854,-0.068954,-0.008088,0.086030,-3.155452,327.127278,20.391949,0.998682,0.980574,0.005565,0.416161,0.000578,0.000613,-0.000007,0.000614,0.000577,-79.315628,0.001191,
2086,2698,-3.75871820377499,1.09084839903441,-0.0267311181925152,0.003855,-0.064856,0.001775,0.150742,-2.942216,320.343344,21.405183,0.999258,0.990406,0.003962,0.448294,0.000078,0.000023,0.000009,0.000079,0.000022,8.909887,0.000107,
2371,2503,2.47768739748263,-3.15536359039656,-0.0110371021108904,0.003801,-0.067086,-0.002037,0.154715,-3.045047,322.982928,20.732295,0.999298,0.987756,0.004514,0.430592,0.000254,0.000175,0.000017,0.000258,0.000171,11.458858,0.000432,
2101,2818,-3.45054906009007,3.70163432045236,-0.0200822107169643,0.005168,-0.064752,0.004208,0.203767,-2.931198,318.430123,21.442953,0.999309,0.991876,0.003778,0.429819,0.000044,0.000028,-0.000011,0.000050,0.000023,-26.050226,0.000074,
2071,2548,-4.06182045582608,-2.17762987629134,-0.0232746140838458,0.002753,-0.065093,-0.001520,0.109730,-2.945262,322.837669,21.386408,0.999314,0.990536,0.004144,0.491336,0.000169,0.000071,0.000042,0.000184,0.000055,20.477843,0.000251,
2011,2293,-5.33169011603437,-7.74340061192611,-0.0247233885469882,-0.001174,-0.065015,-0.011200,-0.043565,-2.973201,327.136769,21.720541,0.998722,0.985351,0.005069,0.403809,0.000553,0.000459,0.000084,0.000603,0.000410,30.404202,0.001019,
2296,2248,0.889296721439383,-8.73465854015171,-0.0047243253141005,0.002059,-0.068448,-0.012747,0.111341,-3.140454,327.136661,20.227696,0.998811,0.981646,0.005411,0.457113,0.000588,0.000618,-0.000018,0.000627,0.000579,-64.335435,0.001206,
2026,2488,-5.03106782689774,-3.48706852449285,-0.0232902502892784,0.002230,-0.064414,-0.005606,0.097726,-2.954746,324.054030,21.473283,0.999173,0.985577,0.004644,0.501807,0.000281,0.000060,0.000060,0.000296,0.000045,14.168762,0.000370,
2041,2428,-4.69650209175488,-4.79466131407424,-0.0270972045831286,0.001761,-0.064529,-0.008452,0.084013,-2.962652,324.885479,21.539380,0.998677,0.984382,0.004954,0.420391,0.000321,0.000135,0.000042,0.000329,0.000126,12.095493,0.000470,
2101,2698,-3.43261724759504,1.09164806134566,-0.0239241094044473,0.003865,-0.064761,0.000426,0.154867,-2.929707,320.296552,21.434840,0.999087,0.989881,0.004136,0.429004,0.000085,0.000026,0.000010,0.000086,0.000025,9.430000,0.000117,
2401,2668,3.09965569829968,0.447420037774506,-0.020343955204055,0.004825,-0.066581,0.000233,0.193466,-2.997011,320.284952,21.205937,0.999237,0.988148,0.004462,0.452000,0.000104,0.000091,0.000011,0.000110,0.000085,28.690717,0.000196,
2341,2383,1.84537925722747,-5.77718500331316,-0.0192290405597646,0.003097,-0.067420,-0.006879,0.139474,-3.078479,324.837672,20.508338,0.999194,0.985185,0.004910,0.379876,0.000386,0.000337,-0.000005,0.000387,0.000336,-6.040851,0.000723,
2431,2818,3.72391832358381,3.71672230167718,-0.0172923247029644,0.005251,-0.066209,0.003246,0.201650,-2.983264,317.913598,21.701184,0.999422,0.990020,0.004159,0.457766,0.000055,0.000028,0.000015,0.000061,0.000021,24.511115,0.000086,
2221,3283,-0.921018377607037,13.7976022317924,0.0163337829702073,0.007639,-0.065568,0.008358,0.301081,-2.955733,310.798532,22.132259,0.999332,0.991969,0.003578,0.399859,-0.000014,0.000040,-0.000001,0.000040,-0.000014,-88.722698,0.000041,
2506,3283,5.26605188044867,13.8234495898624,0.0147475060298916,0.007839,-0.066931,0.010928,0.289214,-3.022196,310.822543,23.620183,0.999836,0.995503,0.002813,0.442387,-0.000020,-0.000063,-0.000034,-0.000001,-0.000082,-28.484307,0.000095,
2176,3058,-1.85810941193025,8.9142804380642,0.0282195824522091,0.006680,-0.065537,0.008134,0.259003,-2.961855,314.673338,21.655089,0.999697,0.994877,0.003247,0.452417,0.000021,0.000009,-0.000009,0.000026,0.000004,-28.281598,0.000032,
2296,2368,0.868420293998557,-6.10865763939048,0.000305992439507463,0.002884,-0.067164,-0.008694,0.136002,-3.078299,325.264312,20.524828,0.999112,0.984841,0.004925,0.478447,0.000360,0.000338,-0.000008,0.000363,0.000335,-18.523415,0.000698,
2161,2968,-2.17052537417603,6.96170510570125,0.00436445109693295,0.005993,-0.065638,0.006088,0.234122,-2.970708,315.969676,21.594283,0.999529,0.992599,0.003535,0.397840,0.000029,0.000008,-0.000015,0.000037,0.000000,-27.660863,0.000044,
2311,2218,1.2218624165091,-9.39298688236589,-0.00170291667512856,0.001741,-0.069243,-0.011519,0.092440,-3.182418,327.616129,20.044361,0.998471,0.975715,0.006052,0.460202,0.000676,0.000737,-0.000022,0.000744,0.000668,-72.165434,0.001413,
2116,2758,-3.11515015879677,2.39713917965167,-0.0165795468191163,0.004807,-0.064838,0.002170,0.192814,-2.929102,319.352769,21.437740,0.999522,0.990261,0.003879,0.439195,0.000065,0.000023,-0.000013,0.000068,0.000019,-16.140782,0.000092,
2116,2878,-3.13413446866748,5.00509031518483,-0.00893590234767316,0.005132,-0.065005,0.006901,0.193648,-2.936123,317.468242,21.431206,0.999547,0.991599,0.003790,0.465060,0.000031,0.000032,-0.000020,0.000052,0.000011,-45.603653,0.000068,
2446,2923,4.03063819704302,6.00274718478307,-0.0114533279224815,0.006152,-0.066426,0.006397,0.230942,-2.987345,316.302660,22.145821,0.999632,0.992582,0.003733,0.387349,0.000027,0.000009,0.000024,0.000043,-0.000007,34.296811,0.000046,
2191,3223,-1.55954266381971,12.4931858357168,0.0436198476391496,0.007539,-0.065627,0.012848,0.283253,-2.963680,312.079463,21.913620,0.999703,0.994273,0.003237,0.390064,-0.000001,0.000042,-0.000009,0.000044,-0.000002,-78.626620,0.000049,
2191,3103,-1.5396973772003,9.8915802172626,0.0361375472440955,0.006946,-0.065361,0.010102,0.264583,-2.955431,313.960965,21.775640,0.999440,0.992054,0.003693,0.429781,0.000011,0.000014,-0.000003,0.000016,0.000009,-60.899786,0.000026,
2281,2188,0.572506802279566,-10.0499997970256,-0.000185965428329382,0.001359,-0.069552,-0.013099,0.079823,-3.210400,328.127433,20.164928,0.998566,0.978158,0.005909,0.397791,0.000726,0.000811,-0.000009,0.000812,0.000725,-83.943417,0.001538,
2506,3298,5.26327062985699,14.1484346612624,0.0201492529051848,0.007800,-0.066954,0.012254,0.282266,-3.020325,310.614266,23.676529,0.999754,0.993399,0.003241,0.447413,-0.000046,-0.000081,-0.000059,-0.000003,-0.000125,-36.811127,0.000146,
2416,2728,3.41471620866705,1.7554833053358,-0.021868461599297,0.005246,-0.066407,0.002898,0.202894,-2.994266,319.322426,21.350112,0.999592,0.990139,0.003972,0.495873,0.000078,0.000066,0.000025,0.000098,0.000046,38.093908,0.000147,
2041,2533,-4.71130371271711,-2.5042408202685,-0.0238198937339575,0.002827,-0.064128,-0.004884,0.123230,-2.924326,323.256955,21.512175,0.998992,0.988871,0.004262,0.441180,0.000185,0.000049,0.000042,0.000197,0.000037,15.958634,0.000252,
2176,3163,-1.87463593021898,11.1916139438609,0.0420196070561474,0.007293,-0.065392,0.009714,0.282442,-2.951635,313.096409,21.795745,0.999800,0.996243,0.002921,0.400777,0.000011,0.000029,-0.000011,0.000034,0.000006,-64.450129,0.000043,
2491,3133,4.97066976635947,10.566505685215,0.0228212546256827,0.007020,-0.066807,0.009397,0.257912,-3.010630,313.281299,22.974870,0.999482,0.990764,0.003643,0.439638,0.000062,0.000021,0.000042,0.000088,-0.000005,32.000795,0.000099,
2251,2053,-0.0594911063777808,-13.0123767443732,0.00450190915273652,-0.000392,-0.072151,-0.017273,0.011972,-3.335966,330.317802,19.980473,0.998516,0.977620,0.005906,0.374955,0.001017,0.001101,0.000003,0.001101,0.001017,88.269470,0.002118,
2086,2638,-3.7490301891024,-0.215429616561565,-0.0269935949884257,0.004001,-0.065070,0.000405,0.161340,-2.959237,321.323751,21.422195,0.999155,0.987622,0.004352,0.416429,0.000114,0.000050,0.000021,0.000120,0.000044,16.497803,0.000170,
2221,2023,-0.709931810382788,-13.6706072281774,0.00273957229643429,-0.001235,-0.072607,-0.021558,-0.013754,-3.396970,330.821089,20.113582,0.998695,0.980167,0.005773,0.331114,0.001059,0.001123,0.000007,0.001124,0.001058,84.228614,0.002182,
2011,2413,-5.34741410724426,-5.12454827410923,-0.00886461484157053,0.000153,-0.064840,-0.003308,-0.004041,-2.954120,325.377139,21.600369,0.999092,0.988055,0.004410,0.461199,0.000367,0.000121,0.000025,0.000369,0.000119,5.814273,0.000509,
2266,2143,0.252910770094513,-11.0344463169098,-0.000696251435840622,0.001017,-0.070250,-0.014624,0.068753,-3.254239,328.856566,20.329580,0.999193,0.983641,0.005341,0.182006,0.000816,0.000916,-0.000004,0.000916,0.000815,-87.803266,0.001733,
2146,2908,-2.48650883351269,5.65803267741535,-0.00194304137028212,0.005826,-0.065170,0.003847,0.233865,-2.950068,316.951159,21.506821,0.999321,0.988431,0.004254,0.439306,0.000028,0.000023,-0.000016,0.000042,0.000009,-40.850028,0.000055,
2476,3088,4.65337521431585,9.58826091234481,0.024031986809689,0.006919,-0.066775,0.011747,0.244850,-3.003386,313.978111,22.779995,0.999377,0.991157,0.003847,0.413178,0.000042,0.000025,0.000053,0.000087,-0.000020,40.508369,0.000091,
2011,2308,-5.33341752760191,-7.41654934877927,-0.0197515876703847,-0.000981,-0.065320,-0.010636,-0.036332,-2.975911,326.944460,21.677573,0.998855,0.986360,0.004904,0.434047,0.000510,0.000380,0.000063,0.000535,0.000354,21.909346,0.000896,
2026,2503,-5.0342760764362,-3.15745493869992,-0.0311915263925471,0.001982,-0.064500,-0.001684,0.075560,-2.907729,323.722805,21.577089,0.999566,0.992118,0.003820,0.436669,0.000261,0.000054,0.000048,0.000272,0.000043,12.383745,0.000342,
2071,2668,-4.07987522076525,0.43723502015132,-0.0245477525571118,0.003982,-0.065400,0.006875,0.142197,-2.944422,320.917446,21.428629,0.999159,0.987353,0.004439,0.430179,0.000079,0.000030,0.000018,0.000084,0.000024,18.328478,0.000114,
2101,2713,-3.43453054493772,1.41793311492086,-0.0246992313030887,0.004459,-0.064739,0.001373,0.179410,-2.946946,320.071513,21.430523,0.999227,0.989187,0.004165,0.417725,0.000082,0.000032,0.000001,0.000082,0.000032,1.629636,0.000118,
2461,3028,4.33851745007934,8.28409954673028,0.0197539095049137,0.006419,-0.066831,0.009685,0.230259,-3.003586,314.876518,22.545098,0.999638,0.991072,0.003835,0.378389,0.000026,0.000008,0.000040,0.000058,-0.000024,38.912514,0.000058,
2041,2548,-4.71389872258439,-2.17718223063443,-0.0303220714326358,0.003039,-0.064538,-0.002607,0.126496,-2.941745,322.963916,21.475118,0.999350,0.989589,0.004026,0.454417,0.000172,0.000049,0.000040,0.000184,0.000037,16.656847,0.000237,
2131,2848,-2.80400684748536,4.35546084170358,-0.0250360601962711,0.005453,-0.065181,0.002008,0.222611,-2.945172,317.784031,21.477095,0.999645,0.992364,0.003547,0.424000,0.000043,0.000022,-0.000015,0.000051,0.000014,-27.754420,0.000068,
2086,2713,-3.76012832792618,1.41688503149259,-0.0257251587395899,0.004697,-0.064863,0.000888,0.192051,-2.948340,320.149909,21.381260,0.999209,0.989905,0.004058,0.465327,0.000076,0.000031,-0.000001,0.000076,0.000030,-1.157483,0.000110,
2236,2068,-0.388783005506436,-12.6836149590597,0.0146560627305803,-0.000215,-0.071729,-0.015474,0.014114,-3.327247,330.191665,20.147469,0.998670,0.978117,0.005825,0.338077,0.000970,0.001075,0.000009,0.001075,0.000969,85.025392,0.002046,
2056,2608,-4.39650082886635,-0.869604526848555,-0.0270228231426586,0.003496,-0.064455,-0.002256,0.146352,-2.940497,321.954541,21.448775,0.998834,0.987955,0.004447,0.439691,0.000131,0.000043,0.000020,0.000135,0.000039,12.052256,0.000183,
2296,2263,0.885464989166998,-8.40366028379391,-0.0146728746018994,0.001845,-0.068170,-0.010744,0.094901,-3.128018,326.794087,20.385849,0.999329,0.986998,0.004850,0.344390,0.000552,0.000561,-0.000022,0.000579,0.000534,-50.545363,0.001113,
2491,3148,4.96814133479104,10.8921602793488,0.0273523323334075,0.007227,-0.066827,0.009967,0.265258,-3.011576,313.080535,23.055615,0.999405,0.989528,0.003924,0.415610,0.000059,0.000017,0.000041,0.000084,-0.000008,31.280083,0.000093,
2011,2443,-5.35050165217194,-4.46809831056172,-0.0101190562718898,0.001500,-0.064284,-0.004172,0.060419,-2.931532,324.946299,21.709478,0.999128,0.989263,0.004310,0.353497,0.000335,0.000069,0.000045,0.000343,0.000062,9.265213,0.000435,
2026,2518,-5.03573820247183,-2.83195069245475,-0.0309169204075488,0.002549,-0.064263,-0.004804,0.110236,-2.932087,323.518326,21.455321,0.999609,0.993425,0.003571,0.525443,0.000233,0.000044,0.000056,0.000248,0.000029,15.313578,0.000304,
2146,3013,-2.5025182645339,7.93760303189984,0.0157443231291268,0.006229,-0.064803,0.004800,0.249625,-2.945169,315.404053,21.621395,0.999362,0.990042,0.004053,0.380135,0.000021,0.000008,-0.000009,0.000026,0.000003,-27.743208,0.000032,
2071,2563,-4.06413459832789,-1.84955577592947,-0.029079495763483,0.003065,-0.064778,-0.002584,0.127256,-2.933732,322.563747,21.425407,0.999020,0.988293,0.004474,0.461893,0.000152,0.000057,0.000030,0.000161,0.000048,16.072293,0.000219,
2101,2833,-3.45280640972407,4.02759039347967,-0.0192866801805849,0.005307,-0.064949,0.004746,0.208510,-2.951082,318.197949,21.458753,0.999616,0.993151,0.003454,0.395358,0.000042,0.000022,-0.000013,0.000048,0.000016,-26.946634,0.000067,
2356,2458,2.1581315826538,-4.13769648126499,-0.0175925416354517,0.002899,-0.066895,-0.005576,0.126034,-3.062282,323.623913,20.677237,0.998956,0.985599,0.004856,0.379855,0.000302,0.000213,0.000021,0.000307,0.000208,12.690146,0.000518,
2221,2038,-0.712678142184313,-13.3404586789139,-0.00354004756570703,-0.001117,-0.071743,-0.023510,-0.001848,-3.353619,330.539361,20.111703,0.998352,0.975543,0.006150,0.398902,0.001029,0.001093,0.000003,0.001093,0.001029,87.430246,0.002122,
2011,2683,-5.38436366414335,0.761059249855094,-0.0175595875501244,0.004005,-0.064522,0.002178,0.158247,-2.931442,321.105269,21.437929,0.999769,0.995678,0.003004,0.447443,0.000065,0.000017,0.000023,0.000074,0.000008,22.011082,0.000090,
2161,2983,-2.1733253434235,7.28773563035214,0.0038706510853217,0.006096,-0.065681,0.011160,0.223327,-2.945375,315.710008,21.604603,0.999457,0.992689,0.003586,0.422274,0.000026,0.000007,-0.000014,0.000033,0.000000,-27.384307,0.000039,
2011,2428,-5.34889804617166,-4.79641652849261,-0.0118557572790223,0.000926,-0.064307,-0.005370,0.037271,-2.939683,325.151215,21.618451,0.998861,0.986859,0.004650,0.447023,0.000346,0.000103,0.000044,0.000354,0.000096,9.910144,0.000474,
2206,3208,-1.23191753785912,12.1692034189488,0.0425537831746965,0.007171,-0.065280,0.010648,0.272751,-2.941097,312.260426,21.927016,0.999570,0.993641,0.003441,0.458991,0.000001,0.000041,-0.000003,0.000041,0.000001,-85.110515,0.000048,
2176,3178,-1.87669623885995,11.5155025460875,0.0517800408613311,0.007228,-0.065333,0.011004,0.275440,-2.957485,312.926358,21.750826,0.999737,0.994838,0.003143,0.450799,0.000008,0.000040,-0.000011,0.000043,0.000005,-73.279266,0.000053,
2371,2518,2.47483862410872,-2.82824835984938,-0.0133166370255253,0.004047,-0.067184,-0.001331,0.163485,-3.048493,322.729627,20.718765,0.999229,0.986231,0.004815,0.483087,0.000233,0.000170,0.000017,0.000238,0.000165,14.426855,0.000405,
2161,3073,-2.18534528539334,9.2384056383577,0.0328741137943211,0.006904,-0.065047,0.004747,0.280417,-2.951749,314.542219,21.609660,0.999596,0.993984,0.003377,0.466311,0.000020,0.000012,-0.000012,0.000028,0.000003,-36.069204,0.000035,
2251,2143,-0.0747182610257049,-11.0361657302642,0.000737105769132995,0.000563,-0.069941,-0.015083,0.049358,-3.224160,328.874351,20.223121,0.998355,0.979560,0.005752,0.403007,0.000811,0.000908,0.000010,0.000909,0.000810,84.465603,0.001720,
2131,2953,-2.81863549316814,6.6341970995375,0.00817100196246656,0.006259,-0.064853,0.006760,0.245562,-2.929019,316.376332,21.508604,0.999567,0.991840,0.003649,0.444982,0.000034,-0.000001,-0.000017,0.000041,-0.000008,-22.517240,0.000043,
2281,2308,0.551659167525127,-7.41994996903847,-0.0103214384974422,0.002604,-0.067515,-0.015601,0.146045,-3.114686,326.171504,20.478808,0.999130,0.982350,0.005414,0.420834,0.000465,0.000451,0.000003,0.000466,0.000451,10.709042,0.000917,
2386,2608,2.78420465825331,-0.862857644803661,-0.0139536571789449,0.004270,-0.067120,0.003593,0.155912,-3.030960,321.263931,21.007550,0.999220,0.986916,0.004526,0.447543,0.000148,0.000094,0.000019,0.000154,0.000088,17.672981,0.000245,
2221,3298,-0.924487281866543,14.1225183545552,0.00944130137401089,0.007465,-0.065405,0.010651,0.285673,-2.958529,310.479456,22.116687,0.999364,0.992452,0.003421,0.429855,-0.000015,0.000034,-0.000007,0.000035,-0.000016,-81.857253,0.000035,
2026,2758,-5.06990543726177,2.39329434522048,-0.020847594989732,0.004515,-0.064829,0.004948,0.173699,-2.931858,319.782608,21.369469,0.999031,0.988818,0.004395,0.463751,0.000034,0.000000,-0.000010,0.000037,-0.000003,-15.410197,0.000041,
2326,2248,1.54352946916239,-8.73475821860215,-0.00590009629945598,0.001892,-0.068838,-0.012063,0.101514,-3.186731,327.098243,20.126065,0.998626,0.979215,0.005629,0.374645,0.000606,0.000608,-0.000029,0.000636,0.000578,-46.189882,0.001214,
2191,3118,-1.54208448495947,10.2165882328145,0.0391308916778144,0.006843,-0.065320,0.008643,0.264436,-2.963314,313.740930,21.781648,0.999416,0.992578,0.003640,0.429454,0.000009,0.000016,-0.000002,0.000017,0.000008,-74.490657,0.000025,
2056,2488,-4.37864372828546,-3.48565419873558,-0.0189786261691438,0.002188,-0.064629,-0.006608,0.098439,-2.959938,323.913168,21.531103,0.999184,0.988270,0.004623,0.373356,0.000257,0.000095,0.000045,0.000269,0.000084,14.386264,0.000368,
2491,3163,4.96530336805329,11.2174508645584,0.027892610188303,0.007283,-0.066742,0.008463,0.273636,-3.020794,312.847503,23.090312,0.999461,0.990657,0.003754,0.429546,0.000049,0.000019,0.000040,0.000076,-0.000009,34.813751,0.000084,
2401,2683,3.09662604034294,0.775238352194279,-0.0234026374058658,0.005000,-0.066080,0.000737,0.199912,-2.973653,320.021271,21.278488,0.999287,0.987471,0.004476,0.448696,0.000097,0.000091,0.000009,0.000104,0.000084,35.207230,0.000188,
2086,2653,-3.75068891572673,0.110453630416337,-0.019291399804672,0.004428,-0.065389,0.003700,0.171435,-2.946033,321.155291,21.403211,0.999424,0.988802,0.004066,0.447887,0.000102,0.000045,0.000017,0.000107,0.000040,15.064965,0.000152,
2266,2263,0.232524850469456,-8.40619836650147,0.010134648754331,0.001897,-0.068784,-0.003846,0.074080,-3.121425,327.017222,20.526604,0.999535,0.988314,0.004619,0.342659,0.000546,0.000563,-0.000010,0.000567,0.000542,-65.436159,0.001109,
2296,2383,0.865010422202761,-5.7793789390383,-0.0064466160615666,0.002905,-0.067780,-0.006047,0.127831,-3.094903,324.956834,20.631798,0.998697,0.981801,0.005516,0.386631,0.000341,0.000316,-0.000004,0.000341,0.000316,-8.052540,0.000657,
2236,2083,-0.392511027512487,-12.3527791388,0.00539409798187762,-0.000708,-0.071445,-0.015826,-0.007263,-3.299070,329.851371,20.207840,0.999043,0.981011,0.005549,0.330761,0.000939,0.001048,0.000006,0.001049,0.000938,86.715156,0.001988,
2236,1993,-0.376222460608918,-14.332463771711,0.0124775758622491,-0.000729,-0.073872,-0.019157,0.001687,-3.433999,331.367966,19.845164,0.999342,0.987901,0.004936,0.410436,0.001136,0.001135,-0.000011,0.001147,0.001125,-43.577508,0.002272,
2011,2698,-5.3866602107954,1.08741777994997,-0.017347665343209,0.004005,-0.064404,0.003335,0.155121,-2.919485,320.861056,21.412394,0.999794,0.995234,0.003072,0.473251,0.000062,0.000010,0.000029,0.000074,-0.000003,23.899946,0.000084,
2251,2068,-0.0612818026804085,-12.6832399671689,0.00717448008157362,0.000137,-0.071361,-0.018796,0.041431,-3.313271,330.128096,20.018429,0.998684,0.978843,0.005737,0.386036,0.000983,0.001083,0.000007,0.001083,0.000982,86.171099,0.002066,
2296,2278,0.88375881646078,-8.07709089243184,-0.00484958556563697,0.002332,-0.068572,-0.007948,0.107663,-3.117843,326.647175,20.348231,0.999229,0.985780,0.004867,0.423826,0.000524,0.000525,-0.000022,0.000546,0.000503,-45.348511,0.001049,
2101,2728,-3.43738442277118,1.74534820547784,-0.0353134756431928,0.004379,-0.064237,-0.003421,0.189919,-2.934083,319.749774,21.425515,0.999273,0.988246,0.004268,0.437032,0.000071,0.000026,-0.000001,0.000071,0.000026,-1.050681,0.000101,
2416,2743,3.41185999680124,2.08264238740455,-0.0213081223938048,0.005320,-0.066617,0.003201,0.205105,-3.010865,319.084875,21.450307,0.999501,0.989146,0.004060,0.426846,0.000075,0.000062,0.000028,0.000097,0.000040,38.392365,0.000140,
2026,2773,-5.07206130208058,2.7213919010946,-0.0305894901804322,0.005027,-0.064419,0.001624,0.206539,-2.928586,319.489988,21.457118,0.999199,0.990717,0.004209,0.369807,0.000030,0.000016,-0.000014,0.000039,0.000007,-32.395125,0.000049,
2101,2848,-3.45525017354806,4.35355743315507,-0.0218807244168033,0.005287,-0.064277,0.002345,0.214890,-2.918478,317.938782,21.402175,0.999784,0.993919,0.003216,0.485611,0.000033,0.000015,-0.000020,0.000046,0.000002,-33.427385,0.000055,
2446,2938,4.02723058623444,6.3285202925389,-0.0158289497760506,0.005923,-0.066509,0.004268,0.228317,-3.006682,316.018566,22.142397,0.999561,0.991335,0.003919,0.423047,0.000025,0.000007,0.000022,0.000040,-0.000008,34.230015,0.000043,
2176,3073,-1.86048837229066,9.23861249587573,0.0307414634310703,0.006766,-0.065550,0.009271,0.259405,-2.967883,314.450507,21.582972,0.999669,0.994784,0.003199,0.530141,0.000020,0.000014,-0.000010,0.000027,0.000006,-36.347666,0.000036,
2131,2863,-2.80595509588904,4.68020474221537,-0.00838685357723534,0.005221,-0.065329,0.007224,0.196178,-2.952211,317.653282,21.495839,0.999562,0.991745,0.003653,0.403230,0.000040,0.000025,-0.000019,0.000053,0.000012,-34.386516,0.000068,
2191,3238,-1.56099740440793,12.8170233087598,0.0531079390081004,0.007912,-0.065488,0.011073,0.306079,-2.964338,311.936539,21.869771,0.999723,0.994300,0.003178,0.446463,0.000000,0.000032,-0.000011,0.000036,-0.000004,-72.538135,0.000039,
2206,3223,-1.23540846570625,12.4957831097131,0.031967720693558,0.007089,-0.065463,0.011367,0.266565,-2.964831,311.919492,22.041314,0.999787,0.995547,0.003013,0.336100,0.000000,0.000038,-0.000004,0.000039,0.000000,-84.264600,0.000045,
2041,2443,-4.69753200051218,-4.4688950432409,-0.0154570363613971,0.002224,-0.064407,-0.009295,0.107694,-2.966242,324.764575,21.503144,0.998569,0.982056,0.005382,0.446493,0.000297,0.000103,0.000035,0.000303,0.000097,9.913283,0.000417,
2116,2893,-3.13674246900292,5.33155038913129,-0.0151436234880862,0.005379,-0.065164,0.007009,0.204675,-2.940982,317.183231,21.444009,0.999415,0.991238,0.004083,0.450738,0.000028,0.000026,-0.000021,0.000048,0.000006,-43.473888,0.000059,
2356,2473,2.15585031805461,-3.81041412572153,-0.0137476471014111,0.003324,-0.067228,-0.003454,0.137946,-3.049244,323.424878,20.704274,0.999416,0.988120,0.004352,0.405834,0.000280,0.000191,0.000020,0.000284,0.000187,11.833618,0.000474,
2491,3178,4.96353924544729,11.5426981354603,0.0386714473972347,0.007516,-0.066458,0.006505,0.292055,-3.000947,312.710177,23.156542,0.999506,0.990592,0.003840,0.440851,0.000045,0.000022,0.000040,0.000075,-0.000008,37.022130,0.000083,
2386,2623,2.78083239958835,-0.535267665417862,-0.0206706799241942,0.004206,-0.066904,0.002143,0.158270,-3.022605,320.966241,21.022800,0.999152,0.986384,0.004523,0.485089,0.000138,0.000090,0.000013,0.000141,0.000086,13.893555,0.000230,
2161,2998,-2.17528472269045,7.61328514554112,0.0101536565068727,0.006069,-0.065068,0.008531,0.230396,-2.918266,315.524857,21.619001,0.999510,0.992522,0.003742,0.444370,0.000024,0.000008,-0.000010,0.000029,0.000003,-25.599679,0.000035,
2011,2458,-5.35200837208398,-4.14176929439911,-0.00792310429096688,0.002008,-0.063841,-0.005090,0.086382,-2.918825,324.748915,21.623042,0.999211,0.989290,0.004254,0.441797,0.000308,0.000029,0.000041,0.000314,0.000023,8.279608,0.000376,
2311,2233,1.21956802448662,-9.06290416374307,-0.0033853784417488,0.002213,-0.068585,-0.013066,0.119561,-3.141587,327.386232,20.163875,0.998423,0.977408,0.005911,0.416263,0.000636,0.000685,-0.000018,0.000690,0.000630,-71.794895,0.001321,
2281,2203,0.569747757341183,-9.72016673365424,-0.00467082923290718,0.001511,-0.068709,-0.014578,0.092027,-3.178061,327.859816,20.229504,0.998432,0.978412,0.005856,0.396015,0.000690,0.000772,-0.000012,0.000773,0.000689,-81.889529,0.001463,
2071,2683,-4.08182586774168,0.76384147646781,-0.0250553656754278,0.004073,-0.064791,0.001553,0.161780,-2.925168,320.689593,21.409841,0.999337,0.989759,0.004037,0.465487,0.000069,0.000025,0.000011,0.000072,0.000023,13.512382,0.000098,
2176,3193,-1.87841973203198,11.8388642425617,0.0643313476123808,0.007144,-0.065240,0.009793,0.275286,-2.962634,312.786649,21.675459,0.999824,0.996202,0.002895,0.532275,0.000007,0.000042,-0.000012,0.000046,0.000003,-72.357895,0.000055,
2266,2158,0.250847294654545,-10.7071500997871,0.000411614617064515,0.001281,-0.069884,-0.017886,0.091749,-3.231941,328.647838,20.215283,0.998955,0.981796,0.005472,0.346858,0.000782,0.000868,0.000006,0.000869,0.000781,85.761363,0.001651,
2341,2398,1.84264179299182,-5.44967927885801,-0.0144578793671144,0.002837,-0.067192,-0.006413,0.126027,-3.053998,324.621260,20.529891,0.999553,0.987393,0.004607,0.421052,0.000363,0.000323,-0.000007,0.000364,0.000321,-9.232901,0.000685,
2086,2728,-3.76236253718386,1.74383615082807,-0.028412661394384,0.004807,-0.064532,-0.002306,0.206456,-2.937797,319.898325,21.399421,0.999211,0.988862,0.004209,0.456962,0.000064,0.000024,-0.000005,0.000064,0.000023,-6.385251,0.000090,
2431,2833,3.72107539195613,4.04427919587918,-0.0186857893752972,0.005542,-0.066404,0.003760,0.213027,-3.000701,317.668171,21.850402,0.999226,0.988426,0.004245,0.340753,0.000046,0.000030,0.000014,0.000054,0.000021,30.280106,0.000078,
2026,2788,-5.07416193446081,3.04715363388899,-0.0284992415120087,0.005035,-0.064196,0.000897,0.209026,-2.907278,319.266651,21.410197,0.999319,0.991520,0.003892,0.428110,0.000025,0.000025,-0.000014,0.000040,0.000011,-44.505327,0.000053,
2041,2563,-4.71555243690402,-1.85095564969782,-0.0231087176385358,0.003269,-0.064657,-0.001804,0.134827,-2.925890,322.790018,21.455069,0.999345,0.989432,0.004050,0.483514,0.000155,0.000035,0.000028,0.000161,0.000029,12.395303,0.000204,
2371,2533,2.47165751318864,-2.49961172411325,-0.0158884608546259,0.003906,-0.066797,-0.001734,0.158619,-3.028987,322.459245,20.824375,0.999210,0.986840,0.004731,0.439175,0.000220,0.000142,0.000019,0.000224,0.000138,12.733408,0.000366,
2476,3103,4.65092980243071,9.91362418448203,0.0265054228981967,0.007039,-0.066825,0.008475,0.262867,-3.007956,313.771233,22.813383,0.999256,0.990374,0.004011,0.430717,0.000046,0.000019,0.000058,0.000092,-0.000027,38.576579,0.000094,
2101,2743,-3.43966237266831,2.0707920611155,-0.0222000459587548,0.004222,-0.065206,0.005283,0.157017,-2.926107,319.583314,21.439674,0.999402,0.988921,0.004120,0.431972,0.000065,0.000022,-0.000006,0.000066,0.000021,-7.702921,0.000091,
2401,2698,3.09303393279926,1.10187982355074,-0.0290000875595524,0.005084,-0.066862,0.004643,0.189264,-3.014299,319.720123,21.291208,0.999293,0.989127,0.004253,0.441540,0.000091,0.000089,0.000015,0.000105,0.000075,43.624121,0.000181,
2191,3133,-1.54442612417818,10.5427106680076,0.036904720455766,0.007133,-0.065112,0.006965,0.283217,-2.940407,313.495334,21.830961,0.999334,0.992363,0.003755,0.416521,0.000007,0.000019,-0.000003,0.000020,0.000007,-76.591839,0.000027,
2146,3028,-2.50462231129272,8.26280131394457,0.0164451686504776,0.006673,-0.064863,0.006097,0.266208,-2.925780,315.181863,21.580262,0.999400,0.990554,0.003941,0.447733,0.000023,0.000008,-0.000008,0.000027,0.000004,-22.720972,0.000034,
2251,2158,-0.0766243288406763,-10.7079839033766,0.0031621313909227,0.000833,-0.069628,-0.018933,0.074365,-3.233929,328.678268,20.235342,0.998034,0.978846,0.005744,0.407126,0.000777,0.000865,0.000017,0.000868,0.000774,79.406919,0.001643,
2236,2008,-0.379335212696763,-14.0027324294492,0.00832979715187321,-0.000963,-0.073727,-0.019230,-0.008762,-3.402848,331.082019,19.829348,0.999224,0.986213,0.005181,0.482527,0.001095,0.001111,-0.000012,0.001117,0.001089,-62.515915,0.002207,
2266,2278,0.229270494906959,-8.07668229900872,-0.00880068813961543,0.002030,-0.067720,-0.012744,0.109924,-3.114685,326.653092,20.468208,0.999392,0.985694,0.004893,0.436102,0.000520,0.000522,-0.000010,0.000531,0.000511,-48.783761,0.001042,
2446,2953,4.02442787387811,6.65453927080009,-0.0159906481786152,0.006024,-0.066445,0.002971,0.237834,-3.011284,315.781605,22.181147,0.999632,0.992355,0.003770,0.431422,0.000027,0.000005,0.000024,0.000042,-0.000010,32.736915,0.000044,
2026,2533,-5.03777641302638,-2.5046183690943,-0.0270424663901281,0.002538,-0.064462,-0.004594,0.109083,-2.948231,323.307054,21.529697,0.999254,0.989325,0.004182,0.426089,0.000210,0.000033,0.000053,0.000225,0.000018,15.542724,0.000271,
2116,2908,-3.13809942904335,5.65710566620615,-0.00515019239344383,0.005703,-0.064874,0.005165,0.225169,-2.930748,317.043016,21.480359,0.999237,0.989601,0.004240,0.427416,0.000027,0.000015,-0.000019,0.000040,0.000001,-36.263103,0.000047,
2011,2713,-5.38956640520489,1.4152361086646,-0.0282042131348703,0.003896,-0.064033,0.001782,0.154446,-2.900843,320.526368,21.428867,0.999680,0.993638,0.003508,0.463869,0.000057,0.000020,0.000016,0.000063,0.000014,20.506223,0.000082,
2326,2263,1.54136190635752,-8.40600647250538,-0.00556889608299116,0.002319,-0.068030,-0.014125,0.128461,-3.152960,326.885418,20.162757,0.998985,0.981758,0.005153,0.408236,0.000567,0.000550,-0.000036,0.000596,0.000522,-38.106346,0.001118,
2296,2398,0.86224978741383,-5.45106546978931,-0.00807190141466663,0.002895,-0.067064,-0.007304,0.131884,-3.059152,324.704370,20.653203,0.998915,0.984630,0.005200,0.432966,0.000323,0.000299,-0.000005,0.000324,0.000298,-10.925372,0.000622,
2296,2293,0.880907563656329,-7.74784201140793,-0.00413883341013843,0.002150,-0.067958,-0.007995,0.099689,-3.081738,326.402236,20.441848,0.999155,0.985488,0.004887,0.398705,0.000491,0.000485,-0.000017,0.000506,0.000471,-40.085869,0.000977,
2491,3193,4.96095213107185,11.8673737579405,0.0475807100249312,0.007529,-0.066775,0.009868,0.279579,-3.009337,312.526573,23.189704,0.999448,0.991151,0.003764,0.456659,0.000047,0.000019,0.000037,0.000073,-0.000006,34.602962,0.000081,
2116,2773,-3.11748022252457,2.72359855782163,-0.0183345500103087,0.005060,-0.064694,0.002749,0.202716,-2.935914,319.104474,21.449404,0.999663,0.991751,0.003603,0.424202,0.000059,0.000035,-0.000010,0.000063,0.000032,-20.369235,0.000096,
2146,2923,-2.48883841390201,5.98386840235249,0.000182991883718842,0.005719,-0.064849,0.001805,0.235182,-2.946393,316.726005,21.522689,0.999065,0.985835,0.004597,0.434271,0.000031,0.000021,-0.000015,0.000041,0.000010,-35.606138,0.000055,
2221,2053,-0.715703321548837,-13.0104715468132,-0.00447550639495375,-0.001215,-0.071568,-0.019304,-0.019667,-3.351477,330.272387,20.202392,0.998337,0.975705,0.006107,0.333172,0.000997,0.001085,0.000006,0.001086,0.000996,86.137051,0.002082,
2191,3253,-1.56462047994254,13.1428123488121,0.0420608673286438,0.007719,-0.065291,0.012104,0.294087,-2.947298,311.585977,21.875951,0.999650,0.993830,0.003259,0.470411,0.000002,0.000031,-0.000008,0.000033,0.000000,-75.626393,0.000038,
2461,3043,4.33569315203257,8.6092638896428,0.0189622294162746,0.006529,-0.066778,0.007880,0.242163,-3.001815,314.636584,22.517123,0.999507,0.989771,0.003987,0.462077,0.000021,0.000020,0.000044,0.000065,-0.000024,44.718791,0.000065,
2161,3088,-2.18874918372576,9.56500249107435,0.0272109488909678,0.006663,-0.065285,0.008339,0.258278,-2.937775,314.227277,21.677315,0.999403,0.990595,0.003859,0.421862,0.000017,0.000007,-0.000012,0.000026,-0.000001,-33.942551,0.000029,
2131,2968,-2.82125590417719,6.9600448980851,0.008198994987481,0.006050,-0.064968,0.005759,0.238898,-2.943835,316.125613,21.540649,0.999748,0.993652,0.003200,0.403131,0.000033,0.000000,-0.000019,0.000041,-0.000009,-24.538952,0.000044,
2011,2923,-5.41803500134523,5.97742258145865,-0.000267565876754361,0.005511,-0.063905,0.003507,0.224211,-2.889300,317.421782,21.312720,0.999273,0.992411,0.003491,0.421758,0.000011,0.000001,-0.000024,0.000031,-0.000019,-38.880691,0.000031,
2086,2668,-3.75312949871991,0.436813856195556,-0.0189025395530393,0.004393,-0.065249,0.004715,0.166919,-2.935043,320.911145,21.372939,0.999336,0.989281,0.004080,0.488709,0.000093,0.000031,0.000017,0.000097,0.000027,14.105706,0.000130,
2056,2503,-4.38158417035426,-3.15923114531594,-0.0238959993586718,0.002134,-0.065111,-0.001828,0.082362,-2.955756,323.614529,21.413070,0.999230,0.988553,0.004422,0.491463,0.000240,0.000081,0.000034,0.000247,0.000074,11.456425,0.000336,
2056,2623,-4.39866834058234,-0.542963999598214,-0.0252858851050064,0.003434,-0.064281,-0.003814,0.147947,-2.940278,321.727930,21.452472,0.999024,0.990068,0.004155,0.431304,0.000120,0.000036,0.000012,0.000122,0.000034,7.745339,0.000164,
2026,2548,-5.03943386027825,-2.17784098143868,-0.0226018719382637,0.002877,-0.064242,-0.004293,0.123895,-2.945021,323.116463,21.543227,0.999421,0.990160,0.003859,0.406793,0.000199,0.000037,0.000052,0.000215,0.000022,16.470023,0.000261,
2011,2473,-5.35484931483201,-3.81421919891061,-0.0132122471068215,0.001797,-0.064370,-0.003302,0.071681,-2.924411,324.448388,21.602239,0.998952,0.985731,0.004710,0.446506,0.000297,0.000039,0.000064,0.000312,0.000024,13.232393,0.000375,
2071,2578,-4.06619190798499,-1.52256022708001,-0.0309820905972629,0.003557,-0.064889,-0.000975,0.145265,-2.933564,322.323250,21.416587,0.998893,0.987807,0.004593,0.468570,0.000134,0.000051,0.000031,0.000144,0.000041,18.247768,0.000194,
2071,2698,-4.08432735493962,1.09019372590911,-0.0243033893738129,0.003913,-0.064735,0.002271,0.152381,-2.931764,320.443564,21.408524,0.999282,0.990832,0.003909,0.457408,0.000066,0.000022,0.000012,0.000069,0.000019,13.794030,0.000093,
2266,2173,0.246812982188306,-10.3790638799853,-0.00564052917650315,0.000565,-0.070188,-0.014733,0.048401,-3.238783,328.313098,20.131615,0.999298,0.983073,0.005314,0.452647,0.000750,0.000838,0.000006,0.000839,0.000749,86.121982,0.001589,
2011,2728,-5.39153680453019,1.74117379426022,-0.0259420230588034,0.004109,-0.063999,0.003028,0.160883,-2.899024,320.308785,21.401058,0.999495,0.991649,0.003851,0.481752,0.000043,0.000005,0.000007,0.000044,0.000004,10.700915,0.000053,
2356,2488,2.15367031388051,-3.4838802342602,-0.00803293795644322,0.003662,-0.067146,-0.001804,0.147708,-3.032890,323.239567,20.680893,0.999294,0.987630,0.004458,0.485570,0.000263,0.000171,0.000016,0.000266,0.000168,9.851384,0.000438,
2041,2458,-4.70025427713202,-4.14173778515868,-0.0156961859075864,0.001991,-0.064680,-0.005775,0.087100,-2.948057,324.500172,21.465588,0.998469,0.981391,0.005566,0.496054,0.000271,0.000073,0.000026,0.000274,0.000069,7.254348,0.000364,
2191,3148,-1.54710242677856,10.8682244058448,0.0349924739406333,0.007240,-0.065188,0.007830,0.285423,-2.946529,313.236213,21.859335,0.999070,0.990958,0.004082,0.395409,0.000006,0.000024,-0.000005,0.000026,0.000005,-75.692792,0.000033,
2401,2713,3.08968513757553,1.42845267777407,-0.0316208502730433,0.004773,-0.066964,0.003515,0.179075,-3.013252,319.444021,21.285472,0.999491,0.989883,0.004055,0.494098,0.000080,0.000082,0.000020,0.000101,0.000061,47.023218,0.000164,
2461,3058,4.33257372339948,8.93542284131865,0.0189006213824428,0.006369,-0.066606,0.007072,0.237932,-3.007680,314.386040,22.597432,0.999480,0.988672,0.004236,0.429406,0.000026,0.000011,0.000044,0.000063,-0.000026,40.234960,0.000064,
2416,2758,3.40897216481299,2.40895430845146,-0.0215738451654488,0.005291,-0.066562,0.001860,0.208682,-3.018927,318.842112,21.462008,0.999433,0.988399,0.004215,0.455094,0.000076,0.000057,0.000026,0.000094,0.000039,35.427600,0.000137,
2386,2638,2.77830129463153,-0.207880014631009,-0.0214892484464144,0.004416,-0.066830,-0.000643,0.177952,-3.038028,320.735207,21.098704,0.999086,0.986282,0.004580,0.437549,0.000125,0.000097,0.000008,0.000127,0.000095,14.912537,0.000223,
2176,3088,-1.86343412227172,9.56598571807203,0.0278204828154003,0.006871,-0.065591,0.013457,0.251271,-2.950380,314.171979,21.736423,0.999512,0.992607,0.003543,0.405369,0.000019,0.000010,-0.000010,0.000026,0.000004,-32.852177,0.000032,
2311,2248,1.21685393593372,-8.73432454500341,-0.00640515229810035,0.002122,-0.067884,-0.017698,0.131461,-3.143418,327.130919,20.180484,0.998502,0.980184,0.005579,0.432599,0.000604,0.000616,-0.000018,0.000629,0.000591,-54.033871,0.001220,
2251,2083,-0.0651363278918602,-12.3525077766865,-0.00340394896022644,-0.000065,-0.071784,-0.015177,0.020227,-3.319756,329.777192,20.090185,0.998969,0.980266,0.005617,0.334888,0.000949,0.001056,0.000003,0.001056,0.000949,88.619047,0.002007,
2296,2413,0.859359842573124,-5.12279914903078,-0.0094658552279725,0.002908,-0.067012,-0.006326,0.129226,-3.059760,324.447228,20.714037,0.999058,0.985736,0.004986,0.402999,0.000302,0.000275,-0.000006,0.000303,0.000273,-11.659322,0.000577,
2281,2323,0.548733056303146,-7.09145846681989,-0.00738391229282342,0.002422,-0.067218,-0.011987,0.125754,-3.089235,325.933078,20.546309,0.998847,0.982106,0.005456,0.408645,0.000441,0.000406,-0.000001,0.000441,0.000406,-1.930639,0.000847,
2011,2938,-5.42012973210804,6.30315668956823,-0.00467078400714627,0.005901,-0.063955,0.002599,0.244573,-2.907232,317.161533,21.295585,0.999470,0.993279,0.003435,0.408426,0.000006,-0.000005,-0.000019,0.000021,-0.000019,-36.932954,0.000023,
2281,2218,0.566505008464603,-9.390838386783,-0.0059970214497298,0.001012,-0.068305,-0.015199,0.071399,-3.158830,327.585851,20.299998,0.998631,0.979159,0.005717,0.375316,0.000656,0.000726,-0.000007,0.000726,0.000655,-84.465424,0.001382,
2191,3268,-1.56822231769922,13.4681834099416,0.028552763284722,0.007570,-0.065352,0.010981,0.290721,-2.954889,311.223654,21.859820,0.999380,0.991582,0.003709,0.491886,0.000005,0.000032,-0.000006,0.000034,0.000003,-78.158877,0.000041,
2101,2758,-3.44059506153065,2.39663849165221,-0.0187198850867389,0.005178,-0.064445,0.000745,0.214524,-2.906012,319.426281,21.404957,0.999492,0.988828,0.004024,0.488257,0.000060,0.000018,-0.000010,0.000062,0.000015,-13.081622,0.000082,
2326,2278,1.53848043391527,-8.07650030410472,-0.0140210766433029,0.002793,-0.068019,-0.014998,0.153227,-3.164640,326.597151,20.229985,0.998941,0.982229,0.005173,0.366347,0.000541,0.000518,-0.000032,0.000563,0.000496,-35.002130,0.001060,
2446,2968,4.02202969790899,6.98087411894819,-0.00464681317947679,0.005994,-0.066265,0.006595,0.223055,-2.985304,315.616190,22.302412,0.999567,0.991743,0.003831,0.387654,0.000028,0.000003,0.000028,0.000046,-0.000015,33.340688,0.000047,
2236,2098,-0.394801003894454,-12.0239756205337,0.00785082204805576,-0.000555,-0.070701,-0.015435,-0.001262,-3.256936,329.636421,20.204009,0.998829,0.979724,0.005770,0.401081,0.000907,0.001020,0.000008,0.001021,0.000906,85.943843,0.001929,
2431,2848,3.71845934229247,4.36961997961333,-0.0160916000669431,0.005630,-0.066417,0.003099,0.219505,-3.003588,317.452160,21.815657,0.999224,0.986695,0.004342,0.422383,0.000035,0.000023,0.000013,0.000043,0.000015,32.365050,0.000060,
2236,2023,-0.381046107120159,-13.6731596813013,0.014348004315309,-0.000800,-0.072411,-0.023298,0.012311,-3.376659,330.911701,19.924888,0.998768,0.979935,0.005793,0.437452,0.001061,0.001129,0.000005,0.001130,0.001061,85.848606,0.002191,
2026,2563,-5.04150012413194,-1.85137176247872,-0.0190187812829095,0.002961,-0.064455,-0.002321,0.122314,-2.927064,322.902463,21.510524,0.999434,0.989423,0.004012,0.448584,0.000181,0.000027,0.000039,0.000191,0.000018,13.438542,0.000231,
2056,2518,-4.38276392819057,-2.83189385583282,-0.0223265615368859,0.002826,-0.064525,-0.007156,0.129311,-2.966200,323.431932,21.456929,0.999127,0.989248,0.004306,0.432737,0.000213,0.000072,0.000041,0.000224,0.000060,15.182561,0.000300,
2041,2578,-4.71800772452645,-1.52426928313297,-0.0282738523980584,0.003474,-0.065065,-0.000650,0.140901,-2.955240,322.510939,21.417810,0.998936,0.988404,0.004367,0.484807,0.000136,0.000037,0.000025,0.000142,0.000031,13.455348,0.000185,
2476,3118,4.64786382969773,10.2389568138973,0.02744063007043,0.006957,-0.066852,0.008696,0.258189,-3.019417,313.528689,22.844960,0.999477,0.990450,0.003772,0.443365,0.000047,0.000027,0.000052,0.000090,-0.000016,39.582729,0.000096,
2086,2743,-3.76490157521808,2.06921271094492,-0.0176907578149326,0.004386,-0.065184,0.004328,0.167676,-2.947993,319.706272,21.405666,0.999378,0.988916,0.004168,0.439511,0.000058,0.000021,-0.000010,0.000061,0.000019,-14.311885,0.000083,
2206,3238,-1.23703774565934,12.8195564332961,0.0373933495995971,0.007579,-0.065394,0.009538,0.295000,-2.968144,311.748194,21.972303,0.999733,0.994600,0.003133,0.417440,0.000000,0.000028,-0.000006,0.000029,-0.000001,-79.215163,0.000033,
2491,3208,4.95751802634146,12.1935946895429,0.0435293356765101,0.007645,-0.066710,0.011555,0.278515,-2.999296,312.244757,23.274444,0.999420,0.991297,0.003785,0.439657,0.000048,0.000012,0.000029,0.000064,-0.000005,29.172214,0.000071,
2011,2488,-5.35693622514955,-3.48610988789282,-0.0242364105149591,0.002417,-0.063763,-0.005933,0.107504,-2.917834,324.150010,21.573458,0.999165,0.986049,0.004629,0.471401,0.000291,0.000045,0.000075,0.000312,0.000024,15.709901,0.000374,
2101,2863,-3.45665997071876,4.6791434862125,-0.0112474090901173,0.005699,-0.064607,0.003649,0.229959,-2.923267,317.798810,21.450480,0.999629,0.992182,0.003619,0.433431,0.000028,0.000020,-0.000022,0.000046,0.000001,-39.580762,0.000054,
2041,2593,-4.719773865674,-1.19662582529035,-0.0253024548247822,0.003740,-0.064628,-0.001794,0.156482,-2.912407,322.307972,21.472188,0.998744,0.988248,0.004418,0.466309,0.000126,0.000052,0.000024,0.000134,0.000045,16.634854,0.000185,
2116,2788,-3.1201313854875,3.04968513241055,-0.0189140065314177,0.005030,-0.064882,0.005090,0.194406,-2.925635,318.847849,21.423696,0.999600,0.991649,0.003650,0.463750,0.000049,0.000032,-0.000012,0.000055,0.000025,-26.939464,0.000083,
2146,2938,-2.49098444956752,6.3104137972032,-0.000472156385967537,0.006081,-0.064762,0.001242,0.253623,-2.941834,316.494265,21.587155,0.999324,0.989375,0.004112,0.381723,0.000030,0.000016,-0.000013,0.000037,0.000008,-30.513247,0.000049,
2146,3043,-2.50733758117405,8.58839710234659,0.0175098448416406,0.006593,-0.065014,0.009038,0.253557,-2.927662,314.933432,21.603341,0.999456,0.992390,0.003474,0.429901,0.000020,0.000002,-0.000012,0.000025,-0.000003,-26.938229,0.000028,
2341,2413,1.84187040969831,-5.12283587045054,5.03398246110009E-05,0.003616,-0.066786,-0.008353,0.168628,-3.077257,324.542401,20.635116,0.999529,0.989059,0.004450,0.329929,0.000339,0.000300,-0.000005,0.000340,0.000299,-7.387681,0.000639,
2371,2548,2.46895311782633,-2.17307143248003,-0.0130693342126733,0.003954,-0.067332,-0.000361,0.155719,-3.054525,322.236980,20.835800,0.998977,0.985679,0.005004,0.444127,0.000205,0.000124,0.000018,0.000209,0.000120,12.121026,0.000333,
2251,2173,-0.0801317452155814,-10.3788891728027,-0.00155000252692616,0.000489,-0.069802,-0.016210,0.049648,-3.228956,328.372716,20.245639,0.998855,0.983230,0.005242,0.428131,0.000744,0.000836,0.000017,0.000839,0.000741,79.969351,0.001581,
2356,2503,2.15061330517006,-3.15588726974108,-0.0110530783762215,0.003775,-0.067319,-0.000565,0.148458,-3.047365,322.971795,20.746715,0.999260,0.987914,0.004533,0.445339,0.000240,0.000175,0.000015,0.000243,0.000172,12.384248,0.000417,
2056,2638,-4.40100444160413,-0.216014674330651,-0.0282730299579725,0.003680,-0.064581,-0.002436,0.155268,-2.951801,321.467550,21.460621,0.999090,0.988974,0.004284,0.407012,0.000106,0.000045,0.000019,0.000112,0.000040,15.645369,0.000157,
2131,2878,-2.807622378699,5.00421621462142,0.000508357287799299,0.005304,-0.065367,0.005238,0.205942,-2.962210,317.494247,21.395171,0.999520,0.991069,0.003744,0.499195,0.000040,0.000033,-0.000019,0.000056,0.000017,-40.131693,0.000077,
2071,2713,-4.08665803395346,1.41762695460701,-0.0318472766680884,0.004451,-0.064636,0.003045,0.174954,-2.921452,320.159579,21.426605,0.999131,0.989575,0.004103,0.446797,0.000066,0.000031,0.000001,0.000066,0.000031,2.296941,0.000099,
2191,3283,-1.57034478348114,13.7934225051843,0.0297255322237788,0.007789,-0.065132,0.008283,0.309361,-2.954014,311.006038,21.908599,0.999593,0.994300,0.003174,0.457013,0.000005,0.000037,-0.000006,0.000038,0.000003,-79.141429,0.000046,
2416,2773,3.40615760532521,2.73543609207552,-0.0197121334994677,0.005128,-0.066123,0.000075,0.207917,-3.015379,318.612541,21.498921,0.999419,0.987881,0.004328,0.469361,0.000068,0.000037,0.000021,0.000079,0.000026,27.038214,0.000109,
2491,3223,4.95442709753112,12.5196806591883,0.0396597231155056,0.007860,-0.066590,0.010527,0.292424,-3.002935,311.979531,23.365782,0.999423,0.990475,0.003918,0.402218,0.000046,-0.000007,0.000019,0.000052,-0.000013,17.825929,0.000055,
2011,2743,-5.39418382644269,2.06933350344109,-0.0394564143389289,0.004388,-0.064077,0.000871,0.179578,-2.913068,319.971018,21.471316,0.999513,0.991945,0.003660,0.385931,0.000031,0.000005,0.000001,0.000031,0.000005,1.729299,0.000040,
2011,2953,-5.4219187622441,6.62806117223646,0.00448590769025259,0.005993,-0.064313,0.005039,0.242127,-2.905594,316.991822,21.282360,0.999607,0.994243,0.003149,0.410995,0.000014,-0.000028,-0.000020,0.000022,-0.000036,-21.884319,0.000036,
2311,2263,1.21410929978295,-8.40573435188915,-0.00220027243847198,0.002250,-0.068195,-0.011883,0.117424,-3.134003,326.909541,20.266242,0.998940,0.983064,0.005146,0.390510,0.000567,0.000558,-0.000023,0.000586,0.000539,-39.348274,0.001125,
2176,3208,-1.88200281172778,12.1666570130066,0.0451484673133677,0.007388,-0.065124,0.009035,0.289048,-2.949611,312.393119,21.808282,0.999688,0.994227,0.003228,0.423404,0.000006,0.000041,-0.000013,0.000045,0.000002,-71.451604,0.000053,
2191,3163,-1.55041092603831,11.1943481393765,0.0261995998185398,0.007234,-0.065233,0.009349,0.280333,-2.951619,312.911895,21.905717,0.999607,0.994495,0.003299,0.357085,0.000007,0.000030,-0.000004,0.000031,0.000006,-79.870361,0.000040,
2401,2728,3.08714774227166,1.75563459360082,-0.0269624687579721,0.004772,-0.066690,0.003304,0.179922,-3.004734,319.239295,21.391656,0.999527,0.989165,0.004233,0.442066,0.000065,0.000066,0.000026,0.000092,0.000039,45.516810,0.000135,
2281,2338,0.546356521874717,-6.76260800619576,-0.0123086125570921,0.002891,-0.066586,-0.014855,0.157074,-3.088942,325.680711,20.598795,0.998975,0.984441,0.005027,0.385988,0.000417,0.000385,-0.000002,0.000417,0.000385,-3.792675,0.000802,
2161,3013,-2.17755454065422,7.93867491220946,0.0107699613074601,0.006332,-0.065136,0.009177,0.240477,-2.935470,315.295645,21.628056,0.999376,0.990182,0.004072,0.427490,0.000022,0.000010,-0.000010,0.000027,0.000005,-28.691646,0.000035,
2011,2503,-5.36024694604191,-3.1577022321854,-0.0278740339932142,0.001689,-0.064207,-0.003460,0.067172,-2.901844,323.836963,21.636312,0.999551,0.991915,0.003913,0.413790,0.000272,0.000045,0.000065,0.000290,0.000028,14.896031,0.000352,
2026,2803,-5.07643393864741,3.37250859397986,-0.0253451837194234,0.005079,-0.064515,0.004638,0.200649,-2.908850,319.041615,21.361043,0.999457,0.991796,0.003702,0.465772,0.000030,0.000010,-0.000008,0.000033,0.000007,-19.406964,0.000043,
2476,3133,4.645145304246,10.565411772275,0.0277140841445203,0.007235,-0.066757,0.008372,0.272312,-3.016608,313.298714,22.965478,0.999509,0.989782,0.003789,0.381147,0.000056,0.000018,0.000039,0.000081,-0.000007,31.906801,0.000090,
2071,2593,-4.06847055071752,-1.19577271002795,-0.0280160732751824,0.003592,-0.064949,0.001693,0.139241,-2.925554,322.099295,21.428139,0.998827,0.987534,0.004538,0.462575,0.000129,0.000057,0.000031,0.000141,0.000046,20.227561,0.000194,
2026,2578,-5.04442926338435,-1.5241659641726,-0.0226736399257561,0.002708,-0.064891,0.001090,0.101165,-2.938177,322.608570,21.515330,0.999019,0.988514,0.004375,0.423853,0.000164,0.000038,0.000037,0.000174,0.000028,15.005881,0.000219,
2221,2068,-0.717928864904739,-12.6808561184152,-0.00284123209615927,-0.000937,-0.071136,-0.018561,-0.009158,-3.315492,330.054923,20.259455,0.998613,0.977142,0.005902,0.333944,0.000965,0.001066,0.000008,0.001067,0.000964,85.673541,0.002032,
2236,2038,-0.384398417369532,-13.3437025143008,0.0126319990239381,-0.000972,-0.072802,-0.016738,-0.016895,-3.355492,330.627168,19.932976,0.998547,0.977331,0.005963,0.475412,0.001032,0.001101,0.000003,0.001101,0.001031,87.912021,0.002133,
2266,2293,0.226431961241389,-7.74805011626794,-0.0121837188304994,0.002014,-0.067544,-0.013952,0.113260,-3.109716,326.386002,20.495150,0.999306,0.983078,0.005200,0.441898,0.000488,0.000486,-0.000006,0.000493,0.000481,-38.696024,0.000974,
2191,3298,-1.57446408792411,14.119965884405,0.0109617329558773,0.007666,-0.065267,0.009776,0.298980,-2.956608,310.591919,21.977526,0.999755,0.995971,0.002835,0.398568,0.000005,0.000040,-0.000012,0.000044,0.000001,-72.476537,0.000051,
2161,3103,-2.19081777863992,9.88953274610083,0.0322635089154915,0.006740,-0.065221,0.007518,0.264343,-2.946903,314.031011,21.649817,0.999527,0.993341,0.003398,0.449185,0.000012,0.000006,-0.000011,0.000021,-0.000002,-37.387627,0.000023,
2491,3238,4.95042183813066,12.8455424277749,0.0275530035127645,0.007766,-0.066690,0.008482,0.295944,-3.016349,311.634860,23.403958,0.999615,0.991474,0.003711,0.408226,0.000042,-0.000009,0.000012,0.000045,-0.000012,12.559678,0.000046,
2296,2308,0.877497834711374,-7.42085275162931,-0.0111001656425742,0.001926,-0.068484,-0.008574,0.091156,-3.124026,326.094466,20.335565,0.999085,0.984333,0.005162,0.494821,0.000463,0.000451,-0.000010,0.000469,0.000446,-28.685934,0.000915,
2011,2758,-5.3960973655536,2.39463930461326,-0.0355456374446703,0.004482,-0.064037,0.000749,0.184239,-2.917144,319.765552,21.413892,0.999429,0.991647,0.003760,0.427399,0.000029,-0.000011,-0.000011,0.000032,-0.000013,-14.271922,0.000032,
2041,2833,-4.75496900698296,4.02483411299082,-0.0165886572038971,0.005138,-0.064436,0.004606,0.203077,-2.903559,318.538513,21.382533,0.999126,0.987929,0.004220,0.447583,0.000015,0.000010,-0.000020,0.000033,-0.000007,-41.264949,0.000034,
2251,2098,-0.0674865342252851,-12.0235810205035,0.00172699042389013,-0.000128,-0.071041,-0.014714,0.016067,-3.273112,329.574125,20.123273,0.998981,0.979430,0.005841,0.374907,0.000916,0.001023,0.000001,0.001023,0.000916,89.500241,0.001940,
2086,2683,-3.75585245165048,0.764001735753084,-0.0259932681145756,0.004217,-0.064719,0.000434,0.171331,-2.929609,320.613167,21.366928,0.999456,0.991006,0.003747,0.499731,0.000083,0.000027,0.000009,0.000085,0.000025,9.045165,0.000115,
2461,3073,4.32923074460854,9.26123539682149,0.0158462557957932,0.006649,-0.066738,0.011330,0.234667,-3.013809,314.111491,22.630868,0.999583,0.991152,0.003847,0.443113,0.000030,0.000019,0.000042,0.000067,-0.000019,41.238842,0.000069,
2056,2533,-4.38463799733315,-2.50542300605424,-0.0168826597558791,0.003061,-0.064452,-0.004719,0.133341,-2.934436,323.238998,21.418841,0.998837,0.988073,0.004502,0.498102,0.000186,0.000063,0.000042,0.000200,0.000050,17.186970,0.000264,
2056,2653,-4.40304374743608,0.110873377369202,-0.036939115599921,0.004407,-0.064488,-0.003726,0.192401,-2.955302,321.189481,21.412521,0.999307,0.989360,0.004201,0.446945,0.000091,0.000042,0.000013,0.000094,0.000039,13.909731,0.000137,
2041,2608,-4.72209311704417,-0.870359117582112,-0.0253001141015829,0.003707,-0.064726,-0.001659,0.154559,-2.925253,322.063832,21.434762,0.998792,0.986631,0.004648,0.483994,0.000124,0.000039,0.000017,0.000127,0.000036,10.576259,0.000171,
2131,2983,-2.82369951195273,7.28549286521431,0.00708255061277896,0.006204,-0.064852,0.006450,0.243964,-2.930336,315.876979,21.503997,0.999701,0.993662,0.003284,0.458502,0.000030,-0.000001,-0.000016,0.000037,-0.000008,-23.681648,0.000039,
2176,3103,-1.8657792395772,9.89077176706859,0.0303654612328046,0.006718,-0.065451,0.010521,0.253357,-2.959506,313.950644,21.716967,0.999499,0.993300,0.003414,0.426891,0.000014,0.000010,-0.000009,0.000021,0.000003,-38.053346,0.000027,
2011,2968,-5.42395864163268,6.95340798846957,0.00804082661801431,0.006132,-0.064211,0.006874,0.243570,-2.903342,316.778997,21.273287,0.999616,0.994406,0.003066,0.409701,0.000013,-0.000036,-0.000026,0.000025,-0.000047,-23.500492,0.000047,
2341,2428,1.83906952385046,-4.79572478922855,0.00152344308372676,0.003300,-0.065892,-0.010998,0.163721,-3.016752,324.306980,20.561348,0.999626,0.993152,0.003945,0.502599,0.000325,0.000272,-0.000003,0.000325,0.000271,-3.033300,0.000597,
2236,2113,-0.397553256787472,-11.6971739714307,0.0104229118492754,-0.000688,-0.071658,-0.012399,-0.017468,-3.309818,329.401666,20.118840,0.998899,0.980307,0.005670,0.457356,0.000872,0.000991,0.000010,0.000992,0.000871,85.094934,0.001864,
2476,3148,4.6419337146513,10.8911338604176,0.0306794961215928,0.006954,-0.066589,0.009966,0.253416,-2.995863,313.058402,23.020852,0.999464,0.988759,0.003943,0.402169,0.000053,0.000017,0.000039,0.000078,-0.000008,32.508518,0.000086,
2251,2188,-0.0826150960098779,-10.0471699697742,-0.00956273742281155,0.001169,-0.069049,-0.016997,0.083697,-3.196340,328.096821,20.438849,0.999457,0.988207,0.004586,0.293538,0.000706,0.000797,0.000012,0.000799,0.000705,82.805037,0.001505,
2491,3253,4.94636310378949,13.1712414209955,0.0194197846029738,0.007690,-0.066707,0.011269,0.281744,-3.010496,311.305632,23.435592,0.999732,0.992752,0.003449,0.439946,0.000038,-0.000008,0.000004,0.000038,-0.000008,4.860059,0.000040,
2191,3178,-1.55245616753111,11.5186423282646,0.0321928039255681,0.007362,-0.065186,0.009199,0.286722,-2.949962,312.723419,21.869683,0.999808,0.996174,0.002992,0.408107,0.000005,0.000042,-0.000003,0.000042,0.000004,-84.884497,0.000051,
2266,2188,0.245426560931154,-10.048928125012,-0.00266425197855824,0.001547,-0.069317,-0.015879,0.097517,-3.208540,328.144221,20.298934,0.998963,0.982608,0.005350,0.343427,0.000711,0.000802,0.000001,0.000802,0.000711,89.674670,0.001514,
2086,2758,-3.76738181473867,2.39638337220681,-0.0287428638177971,0.004872,-0.064916,0.002587,0.195233,-2.934895,319.397833,21.384155,0.999448,0.989657,0.004055,0.473680,0.000053,0.000015,-0.000014,0.000057,0.000011,-18.819292,0.000073,
2281,2353,0.543074253177256,-6.43587550527503,-0.00542602613529652,0.002405,-0.067194,-0.006521,0.106744,-3.070097,325.445861,20.560642,0.999014,0.984218,0.005053,0.472594,0.000390,0.000364,0.000003,0.000390,0.000364,6.408736,0.000754,
2041,2848,-4.75685855051382,4.35133014675245,-0.0264869455950247,0.005888,-0.063892,0.000070,0.250376,-2.907994,318.259279,21.355155,0.999275,0.990071,0.004004,0.462948,0.000011,0.000002,-0.000031,0.000038,-0.000025,-40.695009,0.000038,
2206,3253,-1.23985386251402,13.1442645966152,0.0366974029151947,0.007539,-0.065419,0.011009,0.288484,-2.959066,311.490217,21.945993,0.999766,0.995126,0.002966,0.468133,0.000001,0.000024,-0.000002,0.000024,0.000000,-84.439717,0.000028,
2011,2773,-5.39766569922406,2.72079639824185,-0.032490839531647,0.004888,-0.064093,-0.000899,0.207414,-2.919249,319.570840,21.429722,0.999381,0.991026,0.003977,0.397523,0.000024,0.000007,-0.000017,0.000035,-0.000003,-31.962953,0.000039,
2416,2788,3.40274482155212,3.06385355822306,-0.0236634454798832,0.005102,-0.066399,0.001466,0.201564,-3.010825,318.327721,21.671888,0.999396,0.988259,0.004329,0.348842,0.000064,0.000044,0.000023,0.000079,0.000029,32.752240,0.000112,
2461,3088,4.3259987753883,9.58781327814719,0.0118776200761772,0.006596,-0.066649,0.009245,0.240141,-3.017124,313.837544,22.730661,0.999648,0.993541,0.003530,0.393551,0.000036,0.000021,0.000040,0.000069,-0.000012,40.035996,0.000074,
2026,2818,-5.07893640233909,3.69789654915832,-0.0217465572989113,0.004716,-0.064743,0.005844,0.180527,-2.914269,318.808532,21.326103,0.999411,0.991168,0.003720,0.485627,0.000028,0.000003,-0.000012,0.000033,-0.000002,-22.388971,0.000038,
2176,3118,-1.86779568425612,10.2158495671816,0.0328589963028207,0.006842,-0.065244,0.006735,0.270929,-2.956464,313.744020,21.715467,0.999385,0.992917,0.003600,0.442739,0.000012,0.000013,-0.000008,0.000020,0.000004,-47.221378,0.000026,
2191,3193,-1.5545674007616,11.8426096099996,0.0429070934956712,0.007115,-0.065235,0.009236,0.275191,-2.952526,312.556668,21.838472,0.999738,0.995108,0.003169,0.450073,0.000003,0.000044,-0.000006,0.000045,0.000002,-82.471959,0.000053,
2176,3223,-1.88418840425261,12.4916929075932,0.0530640821351085,0.007433,-0.065337,0.011824,0.282448,-2.942355,312.207181,21.854597,0.999754,0.994685,0.003068,0.395208,0.000004,0.000039,-0.000014,0.000044,-0.000001,-70.315287,0.000050,
2491,3268,4.94281369396996,13.4972886457696,0.0178425180938575,0.007695,-0.067000,0.015474,0.265685,-3.013718,311.029324,23.549538,0.999839,0.994615,0.003012,0.379932,0.000030,-0.000029,-0.000012,0.000032,-0.000031,-10.756058,0.000037,
2446,2983,4.01857733509117,7.30654957809757,-0.0051891548215508,0.005794,-0.066716,0.009179,0.204069,-2.990092,315.347509,22.314813,0.999572,0.990285,0.003987,0.422014,0.000025,0.000005,0.000028,0.000045,-0.000015,34.895682,0.000046,
2431,2863,3.71563394415482,4.69545868111837,-0.00997883897264273,0.005528,-0.066862,0.006139,0.203462,-3.008592,317.242686,21.858982,0.999431,0.989464,0.003948,0.423522,0.000032,0.000021,0.000013,0.000040,0.000012,33.922296,0.000055,
2116,2803,-3.12198232499447,3.37529845829518,-0.0104444939460677,0.005002,-0.065029,0.004087,0.195984,-2.941484,318.676748,21.454582,0.999567,0.992160,0.003554,0.420081,0.000047,0.000030,-0.000009,0.000051,0.000026,-23.431205,0.000078,
2326,2293,1.53534465545154,-7.74781864369456,-0.0134656735658609,0.002504,-0.067742,-0.013541,0.135088,-3.111466,326.340884,20.254246,0.998805,0.982265,0.005276,0.431932,0.000508,0.000481,-0.000029,0.000527,0.000463,-32.748337,0.000990,
2071,2728,-4.08831419970311,1.74382108936578,-0.0303708203914539,0.004788,-0.064237,-0.001150,0.202594,-2.919043,319.956273,21.416956,0.998985,0.988382,0.004343,0.455981,0.000056,0.000021,-0.000003,0.000056,0.000021,-5.150778,0.000080,
2056,2668,-4.40504511453899,0.436555049792638,-0.0205184134909473,0.003966,-0.064532,0.000462,0.160280,-2.944967,321.051638,21.454654,0.999301,0.988532,0.004289,0.409857,0.000076,0.000029,0.000018,0.000082,0.000023,18.341386,0.000110,
2206,1993,-1.03271184889281,-14.3301168702312,0.0025330275224178,-0.001782,-0.073265,-0.023902,-0.032079,-3.442035,331.320503,20.088324,0.999274,0.982275,0.005233,0.372473,0.001146,0.001107,-0.000015,0.001151,0.001102,-19.072567,0.002253,
2356,2518,2.14790522054892,-2.8282449760581,-0.0126907640866989,0.003770,-0.066875,-0.003935,0.160284,-3.046460,322.726638,20.782741,0.999165,0.985992,0.004711,0.450280,0.000221,0.000169,0.000018,0.000226,0.000164,17.084270,0.000392,
2371,2563,2.46576024657964,-1.84451655551604,-0.013725510391339,0.003858,-0.066769,0.001890,0.143542,-3.020565,321.975049,20.946354,0.999151,0.987676,0.004635,0.409764,0.000185,0.000116,0.000018,0.000189,0.000112,13.638194,0.000305,
2101,2878,-3.4593631619345,5.00461111933923,-0.0124023422103505,0.005554,-0.064760,0.004709,0.220090,-2.938801,317.535806,21.415015,0.999599,0.992012,0.003744,0.454227,0.000029,0.000032,-0.000022,0.000052,0.000009,-47.071529,0.000065,
2041,2863,-4.75898264727729,4.67652396880835,-0.0139013404076991,0.005585,-0.064269,0.004527,0.223878,-2.916812,318.094541,21.385041,0.999248,0.989589,0.004258,0.416196,0.000004,0.000010,-0.000027,0.000034,-0.000020,-47.751748,0.000034,
2101,2893,-3.46102550702873,5.32982553209656,-0.00805854559934005,0.005924,-0.064799,0.003001,0.242128,-2.939893,317.350357,21.386191,0.999421,0.991763,0.003929,0.482764,0.000025,0.000027,-0.000022,0.000048,0.000004,-45.685663,0.000058,
2011,2983,-5.42697614274809,7.27926002666302,0.00351323440139595,0.005811,-0.064345,0.009288,0.222139,-2.902923,316.475764,21.260846,0.999207,0.991791,0.003586,0.409732,0.000005,-0.000051,-0.000027,0.000015,-0.000062,-21.911671,0.000065,
2296,2428,0.857072034364535,-4.79468671347113,-0.00896982620054132,0.003342,-0.066597,-0.005887,0.147829,-3.037867,324.226933,20.761249,0.999324,0.987866,0.004592,0.409223,0.000289,0.000240,-0.000009,0.000291,0.000239,-9.723127,0.000530,
2011,2788,-5.3996664521255,3.04665368164132,-0.0276940442435603,0.004757,-0.063702,-0.002569,0.206053,-2.897078,319.366186,21.411489,0.999330,0.991055,0.003976,0.425582,0.000021,0.000022,-0.000019,0.000041,0.000003,-45.855115,0.000049,
2311,2278,1.21215092476008,-8.07662485890238,-0.00419180220080762,0.002951,-0.067779,-0.015134,0.160759,-3.133720,326.693712,20.350190,0.998944,0.983314,0.005002,0.341165,0.000540,0.000524,-0.000022,0.000555,0.000509,-34.922642,0.001064,
2146,3058,-2.50953112991378,8.91329820003715,0.0206341018948706,0.006523,-0.065002,0.006308,0.258580,-2.946492,314.720158,21.596597,0.999518,0.993750,0.003428,0.424597,0.000020,0.000009,-0.000011,0.000027,0.000002,-32.349664,0.000032,
2296,2323,0.875108367814402,-7.09219791823021,-0.0100245559047494,0.002054,-0.068009,-0.010288,0.102992,-3.130347,325.872674,20.431368,0.998878,0.982636,0.005434,0.424614,0.000439,0.000407,-0.000010,0.000442,0.000404,-16.199928,0.000846,
2281,2233,0.564282526860179,-9.06263053009393,-0.00130959787873053,0.001355,-0.068862,-0.012262,0.077121,-3.150322,327.388678,20.346334,0.998675,0.978944,0.005669,0.367395,0.000617,0.000675,-0.000005,0.000676,0.000616,-84.743360,0.001293,
2266,2308,0.224169479306607,-7.42022288694651,-0.00733076360199902,0.001992,-0.067323,-0.014948,0.115596,-3.104361,326.186651,20.536002,0.998831,0.980913,0.005553,0.434043,0.000458,0.000454,0.000000,0.000458,0.000454,6.367548,0.000912,
2131,2998,-2.82594194942988,7.61058241958348,0.0097428670922568,0.006126,-0.064442,0.004310,0.246952,-2.920199,315.657903,21.467620,0.999706,0.993816,0.003332,0.509892,0.000025,0.000004,-0.000013,0.000031,-0.000003,-25.273290,0.000035,
2056,2908,-4.43968514494364,5.65466386554112,-0.00664190163445255,0.006060,-0.063879,0.004981,0.244235,-2.888377,317.356270,21.401501,0.999480,0.991615,0.003743,0.433127,0.000015,0.000008,-0.000031,0.000043,-0.000020,-41.883986,0.000043,
2476,3163,4.63896767328083,11.2170269776893,0.029412448960727,0.007087,-0.066496,0.009358,0.261866,-3.003775,312.810009,23.098595,0.999490,0.989569,0.003922,0.371883,0.000044,0.000021,0.000040,0.000074,-0.000009,37.169984,0.000081,
2491,3283,4.93954216507131,13.8220725687657,0.0113879360858391,0.007654,-0.066730,0.011036,0.281013,-3.014210,310.744099,23.521325,0.999852,0.995154,0.002958,0.465274,0.000024,-0.000043,-0.000018,0.000028,-0.000048,-14.073732,0.000048,
2251,2203,-0.0848301707489121,-9.72019929890694,-0.0118269960616431,0.001618,-0.068553,-0.018558,0.109535,-3.168277,327.862871,20.269801,0.998847,0.983581,0.005222,0.516729,0.000674,0.000753,0.000006,0.000754,0.000673,85.836196,0.001428,
2401,2743,3.08410870375655,2.08230840250524,-0.0309872971590153,0.004903,-0.066711,0.002423,0.189083,-3.019790,318.970693,21.409308,0.999489,0.989214,0.004144,0.455105,0.000059,0.000063,0.000028,0.000089,0.000033,46.746452,0.000126,
2236,2173,-0.407560026164749,-10.3771299080422,-0.00369769910003015,0.000410,-0.068892,-0.016741,0.047814,-3.204316,328.380953,20.423349,0.998634,0.982794,0.005323,0.354796,0.000741,0.000829,0.000025,0.000836,0.000734,75.126382,0.001571,
2071,2608,-4.07091543275462,-0.86752274891434,-0.0355671607142654,0.003707,-0.064418,-0.002301,0.156052,-2.926592,321.809827,21.496533,0.999016,0.988845,0.004296,0.390840,0.000128,0.000047,0.000025,0.000135,0.000040,15.743421,0.000184,
2206,3268,-1.24305263469339,13.4703839576197,0.0222459446476364,0.007891,-0.065242,0.009888,0.308441,-2.947867,311.142724,21.975536,0.999504,0.992974,0.003408,0.465212,0.000002,0.000028,-0.000001,0.000028,0.000002,-88.311220,0.000034,
2161,3028,-2.17969472091276,8.26392365759311,0.014588409175019,0.006433,-0.065152,0.008625,0.246779,-2.939887,315.089320,21.636665,0.999331,0.988646,0.004429,0.423829,0.000023,0.000009,-0.000009,0.000028,0.000004,-26.462399,0.000035,
2146,2953,-2.49373367470697,6.63568823864676,0.000673316463178253,0.006084,-0.064951,0.006203,0.238692,-2.928866,316.244807,21.543390,0.999533,0.991282,0.003721,0.445853,0.000028,0.000005,-0.000014,0.000035,-0.000002,-25.108653,0.000039,
2386,2653,2.77546808038518,0.11891091607329,-0.0182547664667823,0.004553,-0.067005,0.003562,0.169093,-3.025728,320.509514,21.131041,0.998943,0.985557,0.004788,0.461378,0.000112,0.000092,0.000010,0.000116,0.000088,22.631208,0.000205,
2236,2128,-0.399805605910146,-11.3649017005126,0.00462394928712229,-0.000102,-0.070042,-0.015011,0.018362,-3.245208,329.145921,20.329615,0.998353,0.978737,0.005836,0.335690,0.000838,0.000965,0.000013,0.000966,0.000837,84.206957,0.001804,
2011,2518,-5.36171394718318,-2.83243310601198,-0.0233236228838791,0.002103,-0.064155,-0.004401,0.088752,-2.915545,323.655074,21.520412,0.999580,0.992720,0.003732,0.505003,0.000244,0.000041,0.000070,0.000265,0.000020,17.271710,0.000318,
2026,2593,-5.04697293585912,-1.19610348138744,-0.0295891375558313,0.002877,-0.064493,0.001807,0.107129,-2.900039,322.313748,21.526466,0.998873,0.988291,0.004544,0.441752,0.000152,0.000056,0.000039,0.000166,0.000042,19.308836,0.000220,
2176,3238,-1.88697997959641,12.8164888668266,0.050191909290902,0.007521,-0.065294,0.013404,0.281578,-2.940461,311.936797,21.825739,0.999734,0.994304,0.003144,0.436838,0.000005,0.000031,-0.000016,0.000039,-0.000002,-64.571723,0.000044,
2221,2083,-0.720657938698359,-12.3515930938651,-0.0041101316461436,-0.001108,-0.070705,-0.019914,-0.012532,-3.295897,329.799729,20.274055,0.998681,0.978372,0.005850,0.361272,0.000932,0.001042,0.000005,0.001043,0.000932,87.667095,0.001975,
2131,2893,-2.81024754852057,5.33114143676394,-0.00120241446472846,0.005289,-0.065255,0.005605,0.204118,-2.965245,317.233666,21.481257,0.999419,0.989841,0.004088,0.415400,0.000036,0.000027,-0.000019,0.000051,0.000012,-38.358823,0.000067,
2086,2773,-3.76904505566459,2.72283954485766,-0.022931099220898,0.005252,-0.064800,0.003033,0.211462,-2.930340,319.218848,21.443612,0.999552,0.990205,0.004048,0.417673,0.000049,0.000032,-0.000012,0.000056,0.000025,-27.489663,0.000083,
2026,2833,-5.0807047394799,4.0246679909151,-0.0253018431177452,0.005127,-0.064327,0.000477,0.214285,-2.932156,318.568722,21.380252,0.999702,0.993512,0.003498,0.403660,0.000020,0.000006,-0.000020,0.000034,-0.000008,-35.402749,0.000035,
2041,2878,-4.76160327640956,5.00283691468481,-0.0169382778585714,0.005577,-0.064571,0.006305,0.218473,-2.921772,317.819982,21.401715,0.998881,0.985155,0.004816,0.386834,0.000009,0.000031,-0.000024,0.000046,-0.000007,-57.467291,0.000050,
2011,2998,-5.42837295354807,7.6043521990663,0.0108124306748891,0.006162,-0.064093,0.007515,0.243245,-2.896125,316.313615,21.256991,0.999297,0.992317,0.003525,0.407814,-0.000002,-0.000028,-0.000024,0.000012,-0.000042,-30.866617,0.000044,
2491,3298,4.93642782458196,14.1475975693865,0.0124369642234115,0.007536,-0.066626,0.011259,0.274814,-3.002906,310.499736,23.594808,0.999749,0.992624,0.003471,0.460372,0.000002,-0.000051,-0.000035,0.000020,-0.000069,-26.465142,0.000071,
2011,2803,-5.40200199626918,3.37211032670915,-0.0280789506506949,0.005014,-0.064164,0.002741,0.203330,-2.904075,319.117328,21.349447,0.999396,0.991703,0.003787,0.468775,0.000025,0.000008,-0.000011,0.000030,0.000002,-26.765208,0.000036,
2461,3103,4.32392489402794,9.91230680966527,0.0246814373354596,0.006628,-0.066942,0.010983,0.234957,-3.021960,313.694430,22.749899,0.999518,0.991754,0.003764,0.422815,0.000041,0.000018,0.000045,0.000076,-0.000017,37.825086,0.000080,
2266,2323,0.221039732539811,-7.09150857514955,0.00124034420059616,0.001703,-0.067714,-0.004054,0.066254,-3.069861,325.965907,20.670397,0.998404,0.978997,0.005948,0.361547,0.000433,0.000412,-0.000004,0.000434,0.000411,-11.635649,0.000845,
2041,2623,-4.72456858598295,-0.54341999217111,-0.0277099354538564,0.003518,-0.064240,-0.003986,0.152410,-2.947393,321.799028,21.452296,0.998680,0.987062,0.004671,0.437529,0.000112,0.000028,0.000007,0.000113,0.000027,4.474025,0.000149,
2086,2818,-3.77581511626488,3.70117438189146,-0.0186640183337659,0.005182,-0.064244,0.000176,0.216726,-2.905928,318.529004,21.437972,0.999429,0.991626,0.003771,0.444404,0.000044,0.000026,-0.000012,0.000050,0.000020,-27.224295,0.000072,
2116,2923,-3.14018052252715,5.98215899459655,0.000911058938470433,0.005668,-0.064961,0.005035,0.223912,-2.941452,316.848650,21.466316,0.998931,0.988035,0.004470,0.433620,0.000031,0.000013,-0.000016,0.000040,0.000004,-29.798887,0.000049,
2101,2908,-3.46264717477998,5.65638149089551,-0.00496815977402321,0.006270,-0.064115,-0.001030,0.270190,-2.902704,317.159496,21.437114,0.999273,0.991228,0.004062,0.469981,0.000024,0.000014,-0.000020,0.000040,-0.000001,-38.009973,0.000045,
2056,2923,-4.44161888688775,5.97968812775341,-0.00472756015824416,0.006216,-0.064191,0.002690,0.257761,-2.913346,317.142245,21.368192,0.999510,0.991746,0.003691,0.435844,0.000017,0.000004,-0.000026,0.000037,-0.000016,-38.284383,0.000037,
2206,3283,-1.24592054776688,13.7959785528203,0.0194712612668582,0.007844,-0.065232,0.009870,0.306368,-2.942534,310.871182,22.031963,0.999324,0.992160,0.003519,0.429404,-0.000001,0.000034,-0.000002,0.000035,-0.000001,-86.616166,0.000039,
2251,2218,-0.0869805477256058,-9.39157865027897,-0.00291280846971631,0.001545,-0.068355,-0.017428,0.102594,-3.154696,327.688036,20.387810,0.998167,0.977050,0.006047,0.437971,0.000643,0.000711,0.000008,0.000712,0.000642,83.100055,0.001355,
2011,2533,-5.3636287209225,-2.50565136873902,-0.0198147526874664,0.002247,-0.064502,-0.003582,0.093023,-2.940037,323.446526,21.548544,0.999171,0.987675,0.004500,0.441258,0.000217,0.000031,0.000063,0.000237,0.000012,16.936550,0.000280,
2431,2878,3.71265582328497,5.02238164724543,-0.0125430355075764,0.005613,-0.066610,0.004668,0.212900,-3.002710,316.985492,21.930847,0.999462,0.990298,0.003774,0.407519,0.000031,0.000027,0.000019,0.000048,0.000009,42.103315,0.000062,
2191,3208,-1.5567007799102,12.1677288382859,0.0418366515881416,0.007660,-0.065405,0.009322,0.300033,-2.952974,312.326973,21.845159,0.999548,0.992559,0.003690,0.456271,0.000002,0.000044,-0.000007,0.000045,0.000001,-81.027681,0.000052,
2311,2293,1.20830435169519,-7.74884745590997,-0.00391753465231659,0.002235,-0.067943,-0.009687,0.109364,-3.098358,326.402495,20.305996,0.999021,0.984481,0.005020,0.455460,0.000507,0.000484,-0.000019,0.000518,0.000473,-29.455629,0.000991,
2446,2998,4.01710521539225,7.63156467654656,0.00659461717810927,0.006453,-0.066773,0.010400,0.229740,-3.004733,315.227055,22.363890,0.999330,0.987249,0.004283,0.409616,0.000026,0.000005,0.000036,0.000053,-0.000023,36.788390,0.000053,
2161,3118,-2.19299872170842,10.2152070498547,0.0359435804058421,0.006901,-0.065055,0.008194,0.269746,-2.944287,313.821915,21.710653,0.999424,0.993154,0.003514,0.400060,0.000011,0.000011,-0.000011,0.000021,0.000000,-45.228758,0.000024,
2506,1993,5.53485964972963,-14.3412563396589,0.0104816915869606,0.006514,-0.075074,-0.026413,0.366613,-3.524951,331.879396,17.915394,0.998476,0.970176,0.006867,0.320309,0.001504,0.001056,-0.000131,0.001540,0.001021,-15.220398,0.002578,
2206,2008,-1.03468251654839,-14.0020951853393,0.0124460004799971,-0.001585,-0.073422,-0.019125,-0.038178,-3.423804,331.156346,20.089750,0.998669,0.978177,0.005917,0.409287,0.001106,0.001095,-0.000012,0.001114,0.001087,-31.996602,0.002201,
2266,2563,0.179092982108465,-1.84804595372596,-0.018735122792009,0.003909,-0.066226,-0.004628,0.170028,-3.012753,322.019279,20.984103,0.999362,0.989618,0.004242,0.536786,0.000162,0.000118,0.000013,0.000165,0.000114,14.811044,0.000281,
2176,3253,-1.89012462453131,13.141992362408,0.0398255909896648,0.007580,-0.065244,0.012243,0.287942,-2.940464,311.610506,21.826241,0.999729,0.994311,0.003182,0.447456,0.000009,0.000033,-0.000011,0.000037,0.000005,-67.852924,0.000046,
2296,2338,0.87242702554126,-6.7631833982056,-0.0120261117863265,0.002473,-0.067732,-0.007228,0.112009,-3.087991,325.621997,20.486151,0.999105,0.984590,0.004951,0.444336,0.000414,0.000385,-0.000009,0.000416,0.000383,-15.377743,0.000799,
2026,2608,-5.04886353951489,-0.868643482503508,-0.0405613653172168,0.003590,-0.064529,-0.003387,0.154185,-2.921025,322.026547,21.511969,0.998796,0.985461,0.004890,0.426471,0.000147,0.000040,0.000031,0.000156,0.000032,14.919699,0.000200,
2401,2758,3.08146324772872,2.40861444089309,-0.0263037032587476,0.004841,-0.066578,0.002881,0.184606,-3.029520,318.761238,21.461792,0.999340,0.987809,0.004366,0.438545,0.000059,0.000057,0.000026,0.000084,0.000032,44.042321,0.000120,
2086,2788,-3.7713523425416,3.0480901793478,-0.0187641630948292,0.005070,-0.064736,0.003192,0.202642,-2.930059,319.001796,21.387648,0.999447,0.989657,0.004052,0.472817,0.000043,0.000029,-0.000014,0.000052,0.000020,-31.689322,0.000074,
2476,3178,4.6362189482227,11.542264948389,0.0321757818121,0.007258,-0.066430,0.010660,0.264896,-2.989424,312.590105,23.121654,0.999583,0.991405,0.003697,0.418823,0.000041,0.000025,0.000039,0.000073,-0.000006,39.246483,0.000081,
2176,3133,-1.86956904556839,10.5415384659749,0.0368502203531875,0.007220,-0.064967,0.004558,0.295297,-2.932895,313.556188,21.762555,0.999199,0.992638,0.003832,0.430452,0.000011,0.000017,-0.000009,0.000023,0.000004,-53.632546,0.000030,
2101,3133,-3.49605844256156,10.5364676048208,0.0339007535278597,0.007333,-0.064510,0.005399,0.300237,-2.919587,313.847596,21.495247,0.999765,0.995115,0.002947,0.401650,0.000010,0.000019,-0.000012,0.000027,0.000002,-55.250179,0.000033,
2281,2248,0.561477029147564,-8.73543256369229,0.000315969542270977,0.001286,-0.069129,-0.009899,0.065987,-3.148807,327.149741,20.280599,0.998783,0.980048,0.005591,0.464871,0.000588,0.000615,-0.000004,0.000615,0.000587,-80.751300,0.001203,
2461,3118,4.32138264566479,10.2378807732807,0.0233475138435324,0.007129,-0.066763,0.009937,0.261998,-3.019162,313.464493,22.775220,0.999512,0.990053,0.003921,0.453599,0.000045,0.000025,0.000041,0.000077,-0.000007,38.321338,0.000085,
2506,2008,5.53152747249533,-14.0119300012317,0.0137895835850941,0.006426,-0.074767,-0.021685,0.344545,-3.479462,331.642843,17.936300,0.998532,0.972767,0.006779,0.409888,0.001445,0.001069,-0.000167,0.001509,0.001006,-20.749423,0.002531,
2206,2023,-1.03634758779799,-13.6726352871226,0.0181217871999593,-0.001115,-0.072503,-0.019134,-0.016292,-3.389741,330.984109,20.162512,0.998507,0.979455,0.005814,0.390513,0.001070,0.001107,-0.000004,0.001107,0.001069,-83.946875,0.002177,
2131,2908,-2.81179239378111,5.6561486493908,0.00359425068882047,0.005943,-0.065339,0.006272,0.232231,-2.967866,317.058033,21.441935,0.999329,0.987904,0.004343,0.457390,0.000034,0.000017,-0.000018,0.000045,0.000006,-32.504872,0.000056,
2101,2923,-3.4656686021659,5.98154751172198,0.00112556326865842,0.005663,-0.064758,0.004910,0.224554,-2.925634,316.921275,21.445654,0.999174,0.989865,0.004154,0.439011,0.000029,0.000012,-0.000016,0.000039,0.000002,-30.889225,0.000046,
2356,2533,2.14509968400629,-2.50073585353037,-0.0143818533169338,0.004053,-0.066645,-0.002366,0.167846,-3.025235,322.476656,20.790865,0.999267,0.986909,0.004600,0.503301,0.000208,0.000141,0.000018,0.000212,0.000136,14.524212,0.000352,
2116,2818,-3.12439661550357,3.70201575496128,-0.0173463611917555,0.005299,-0.064585,0.001443,0.217674,-2.926817,318.396798,21.442489,0.999459,0.991854,0.003725,0.450583,0.000049,0.000030,-0.000010,0.000053,0.000025,-23.792844,0.000080,
2341,2443,1.83509913778125,-4.4665807096276,-0.00765410888823226,0.003287,-0.066928,-0.005288,0.142906,-3.048099,323.966286,20.670521,0.999073,0.987460,0.004686,0.400383,0.000311,0.000235,0.000007,0.000311,0.000234,5.408007,0.000548,
2071,2983,-4.12522639024306,7.28162607073287,0.00665474143357869,0.006341,-0.064889,0.007715,0.248515,-2.951577,316.169056,21.360096,0.999285,0.990838,0.003793,0.421544,0.000018,-0.000017,-0.000026,0.000032,-0.000030,-27.796577,0.000036,
2296,2443,0.853095725018935,-4.46794624334238,-0.0176746341655303,0.003103,-0.067356,-0.000846,0.119553,-3.063063,323.884121,20.648763,0.999450,0.988223,0.004482,0.528208,0.000277,0.000216,0.000002,0.000277,0.000215,1.913730,0.000493,
2011,2818,-5.40438390757084,3.69729014111256,-0.0258053642660911,0.005011,-0.064630,0.007060,0.191264,-2.920740,318.881418,21.296321,0.999166,0.990190,0.003952,0.493244,0.000024,0.000000,-0.000017,0.000032,-0.000009,-27.530562,0.000033,
2416,2803,3.40005931488,3.38971787929398,-0.0224959349028495,0.005252,-0.066089,0.001308,0.209187,-2.988173,318.100807,21.636369,0.999266,0.987501,0.004555,0.454721,0.000062,0.000038,0.000022,0.000076,0.000025,31.036875,0.000105,
2086,2833,-3.77809570785145,4.02689674466498,-0.0128583102240896,0.005135,-0.064542,0.003532,0.204709,-2.920143,318.322019,21.464112,0.999726,0.994306,0.003201,0.402889,0.000041,0.000020,-0.000016,0.000050,0.000011,-28.230771,0.000065,
2266,2338,0.218200085316891,-6.76225613475091,-0.0146126620334712,0.002085,-0.066863,-0.012232,0.111094,-3.064706,325.636057,20.646286,0.998687,0.982361,0.005446,0.418662,0.000410,0.000392,-0.000005,0.000411,0.000391,-15.241750,0.000802,
2236,2188,-0.409511484203005,-10.0474333211749,-0.00311851171306898,0.001085,-0.068616,-0.015896,0.076151,-3.187396,328.171815,20.538112,0.998959,0.985028,0.005036,0.280868,0.000704,0.000791,0.000017,0.000794,0.000701,79.131732,0.001496,
2146,3073,-2.51242100475113,9.23914970071299,0.0148138248593455,0.006677,-0.065156,0.008480,0.259031,-2.951762,314.427003,21.609897,0.999664,0.995918,0.003044,0.413095,0.000017,0.000015,-0.000011,0.000027,0.000004,-42.290851,0.000034,
2041,2638,-4.72681349610185,-0.216827822954009,-0.0251963569632494,0.003497,-0.064053,-0.002457,0.147251,-2.931373,321.572055,21.446662,0.999018,0.989197,0.004325,0.452002,0.000100,0.000040,0.000015,0.000104,0.000037,13.451101,0.000145,
2326,2308,1.53236856161659,-7.41943826121095,-0.0124696244084248,0.002496,-0.068091,-0.010074,0.122669,-3.108953,326.094300,20.310995,0.998666,0.982693,0.005314,0.414313,0.000482,0.000446,-0.000021,0.000491,0.000437,-24.626986,0.000929,
2026,2623,-5.0504252356699,-0.543243539466928,-0.0320900582561876,0.003677,-0.064290,-0.004947,0.162509,-2.938221,321.863380,21.476992,0.998786,0.986429,0.004838,0.434935,0.000135,0.000025,0.000020,0.000139,0.000022,10.046600,0.000174,
2281,2368,0.540770462723753,-6.10882956377431,-0.000113241458279845,0.002513,-0.067605,-0.005061,0.106686,-3.083884,325.248082,20.572336,0.998759,0.981899,0.005419,0.476497,0.000362,0.000337,-0.000001,0.000362,0.000337,-2.823776,0.000700,
2371,2578,2.46298884045236,-1.51820681738644,-0.0111738310120586,0.003952,-0.067473,0.004456,0.138523,-3.029609,321.748315,20.926815,0.999148,0.987337,0.004692,0.462034,0.000174,0.000115,0.000020,0.000180,0.000109,17.257511,0.000292,
2251,2113,-0.0700958520370385,-11.6951224948739,0.00544172513446028,-0.000228,-0.071135,-0.012594,0.004570,-3.283097,329.352410,20.159482,0.998601,0.979201,0.005843,0.354956,0.000880,0.000993,0.000001,0.000993,0.000880,89.440928,0.001875,
2236,2143,-0.402056975293476,-11.036430664069,0.00245667359843083,0.000308,-0.069873,-0.016229,0.041133,-3.235220,328.909422,20.293493,0.998235,0.978190,0.005830,0.405680,0.000804,0.000903,0.000021,0.000907,0.000800,78.261676,0.001708,
2056,2938,-4.44405022384671,6.30492301106293,-0.000624581140300506,0.006005,-0.064408,0.004670,0.242370,-2.915754,316.917399,21.351246,0.999345,0.991101,0.003796,0.444491,0.000016,-0.000001,-0.000025,0.000033,-0.000019,-35.647309,0.000033,
2071,2743,-4.09039525164324,2.06902353455892,-0.0232014897641761,0.004750,-0.064676,0.001118,0.194170,-2.951602,319.765082,21.400915,0.999274,0.989585,0.004114,0.436321,0.000053,0.000021,-0.000008,0.000055,0.000019,-12.707034,0.000077,
2056,2683,-4.40680870561652,0.762775359232407,-0.0179348797240095,0.004115,-0.064096,-0.003492,0.178465,-2.916637,320.848295,21.416305,0.999450,0.989845,0.004052,0.471541,0.000066,0.000023,0.000014,0.000070,0.000019,16.365223,0.000094,
2386,2668,2.77237926853792,0.446341482044964,-0.0188284041814768,0.004448,-0.066687,0.004115,0.162415,-3.009995,320.253803,21.191155,0.999200,0.987045,0.004545,0.460729,0.000101,0.000092,0.000013,0.000110,0.000082,35.020688,0.000194,
2431,2893,3.70971597884491,5.34860178046287,-0.0124665877984853,0.005730,-0.066701,0.005787,0.214125,-2.999476,316.742443,21.964594,0.999484,0.990308,0.003867,0.426491,0.000028,0.000024,0.000021,0.000048,0.000005,42.279703,0.000058,
2146,2968,-2.49610270392596,6.96088767178953,0.00521391919022562,0.006026,-0.065387,0.007846,0.230835,-2.958588,316.030918,21.562732,0.999620,0.992845,0.003436,0.403860,0.000027,0.000006,-0.000015,0.000035,-0.000002,-27.020504,0.000040,
2011,2548,-5.36532929936774,-2.17855720693338,-0.0219137908180187,0.002892,-0.064042,-0.003504,0.122626,-2.928141,323.216159,21.523531,0.999347,0.988381,0.004145,0.467234,0.000204,0.000039,0.000062,0.000225,0.000018,18.377702,0.000271,
2461,3133,4.31864874282943,10.5638410946438,0.0273026882865111,0.007253,-0.066828,0.011910,0.260287,-3.017857,313.249790,22.874447,0.999475,0.988896,0.004010,0.409146,0.000051,0.000019,0.000029,0.000068,0.000002,30.562074,0.000080,
2116,2938,-3.14286914034061,6.30848541448778,-0.00184201177034993,0.005602,-0.064791,0.004926,0.221267,-2.926632,316.578537,21.485018,0.999270,0.990074,0.004074,0.432580,0.000030,0.000009,-0.000015,0.000038,0.000001,-27.258707,0.000044,
2101,3148,-3.49833277878475,10.8598743401103,0.0431957291838216,0.007252,-0.064966,0.010700,0.280777,-2.938821,313.661827,21.409201,0.999832,0.996342,0.002783,0.468429,0.000012,0.000025,-0.000013,0.000033,0.000004,-58.466536,0.000041,
2191,2188,-1.39229526851946,-10.0479294667163,-0.0017379035631393,-0.000228,-0.068935,-0.012675,0.004890,-3.168195,328.225358,20.681521,0.998046,0.977356,0.005985,0.389354,0.000706,0.000780,0.000032,0.000792,0.000694,69.714867,0.001487,
2011,3013,-5.43050019608212,7.92906902474895,0.0140422784579641,0.006151,-0.064292,0.007854,0.241767,-2.903790,316.095294,21.208873,0.999500,0.993022,0.003481,0.435490,0.000001,-0.000019,-0.000016,0.000010,-0.000028,-29.202975,0.000028,
2206,2263,-1.07732998568732,-8.40554034943634,-0.00626752519553975,0.000800,-0.068375,-0.011355,0.048187,-3.139269,326.980434,20.689821,0.998499,0.980594,0.005589,0.428413,0.000552,0.000567,0.000030,0.000591,0.000528,52.310286,0.001119,
2476,3193,4.63321711339095,11.8673537998179,0.0330104069450954,0.007269,-0.066515,0.011147,0.263543,-2.991257,312.349721,23.139281,0.999501,0.991299,0.003658,0.454631,0.000042,0.000025,0.000035,0.000070,-0.000003,38.061835,0.000079,
2026,2848,-5.08378244469995,4.34979803902759,-0.0448112577896609,0.005029,-0.063563,-0.007400,0.231556,-2.953238,318.180401,21.172553,0.999699,0.994853,0.003289,0.580758,0.000016,-0.000002,-0.000033,0.000041,-0.000027,-37.457147,0.000042,
2206,2038,-1.03966943688833,-13.3414695781905,0.00726856698196343,-0.001199,-0.071873,-0.019903,-0.017529,-3.340438,330.650908,20.194723,0.998467,0.978597,0.005815,0.428291,0.001039,0.001072,-0.000005,0.001073,0.001038,-81.147084,0.002111,
2071,2998,-4.12654330754569,7.60697365626606,0.0201328592676759,0.006346,-0.064219,0.004155,0.259173,-2.915938,316.047688,21.394091,0.999494,0.991925,0.003539,0.419163,0.000016,-0.000002,-0.000020,0.000029,-0.000015,-32.859063,0.000029,
2176,3268,-1.89350155416635,13.4676003113176,0.0242471242548277,0.007801,-0.065352,0.011681,0.299863,-2.952991,311.246056,21.825262,0.999616,0.993506,0.003328,0.446676,0.000014,0.000034,-0.000009,0.000038,0.000010,-68.771528,0.000050,
2311,2308,1.20378987167038,-7.41899074026486,-0.0195279294826491,0.001776,-0.068313,-0.007941,0.082247,-3.125577,326.002631,20.360701,0.999179,0.986856,0.004915,0.408353,0.000478,0.000448,-0.000012,0.000482,0.000444,-18.722603,0.000927,
2056,2953,-4.44636278257312,6.6303375648313,0.00456530775255715,0.005757,-0.064317,0.005180,0.229567,-2.902793,316.703934,21.346707,0.999197,0.991826,0.003754,0.455884,0.000023,-0.000018,-0.000028,0.000037,-0.000033,-26.947633,0.000041,
2401,2773,3.07912164391622,2.73488981529335,-0.0201522535898562,0.004758,-0.066240,0.000715,0.188817,-3.019161,318.572582,21.506675,0.999359,0.988002,0.004323,0.449493,0.000052,0.000038,0.000019,0.000065,0.000025,35.224302,0.000093,
2026,2638,-5.05208074354227,-0.217790439308665,-0.0221987456218926,0.003719,-0.064029,-0.004330,0.162763,-2.938684,321.703811,21.445699,0.999155,0.990103,0.004141,0.456277,0.000121,0.000040,0.000029,0.000131,0.000030,18.055079,0.000171,
2041,2893,-4.76342076089345,5.32768755279954,-0.00551300866459314,0.005429,-0.064510,0.007064,0.209572,-2.912358,317.662994,21.379586,0.999235,0.990822,0.003910,0.410164,0.000003,0.000025,-0.000031,0.000047,-0.000019,-54.496345,0.000047,
2161,3133,-2.19563702599184,10.5400818729943,0.0363324541489192,0.006871,-0.065242,0.009546,0.264205,-2.937869,313.574701,21.677294,0.999339,0.992804,0.003692,0.448836,0.000011,0.000015,-0.000012,0.000026,0.000001,-49.584449,0.000031,
2101,2938,-3.46813213299422,6.30757657342714,0.00144238505225758,0.005651,-0.064648,0.005633,0.221936,-2.920916,316.677034,21.468420,0.999162,0.989838,0.004150,0.421780,0.000027,0.000007,-0.000015,0.000035,-0.000002,-28.421006,0.000039,
2266,2578,0.175652815803144,-1.5196896669655,-0.0221237790369742,0.003683,-0.066352,-0.000710,0.146654,-3.001289,321.723843,21.078781,0.999178,0.987718,0.004493,0.480245,0.000151,0.000110,0.000011,0.000154,0.000107,14.517307,0.000263,
2296,2473,0.847491921573322,-3.81122659443273,-0.0168321136411009,0.003033,-0.067171,0.000928,0.110444,-3.048425,323.395439,20.842024,0.998491,0.981684,0.005494,0.412138,0.000247,0.000179,0.000007,0.000248,0.000178,6.115044,0.000428,
2506,2023,5.5282378156667,-13.6802196113194,0.0116873184898054,0.006800,-0.073918,-0.017609,0.346366,-3.409412,331.383871,18.093879,0.998705,0.970872,0.006814,0.387400,0.001394,0.001116,-0.000197,0.001496,0.001014,-27.417128,0.002525,
2281,2263,0.557544805146222,-8.40320760919901,-0.0135775757757415,0.001233,-0.068548,-0.007835,0.056877,-3.130683,326.781123,20.504320,0.999284,0.985670,0.004947,0.289976,0.000553,0.000561,-0.000007,0.000566,0.000548,-60.028613,0.001114,
2416,2818,3.39743664186864,3.71553275213533,-0.0153670315572185,0.005261,-0.066288,0.004525,0.197757,-2.986537,317.904682,21.667063,0.999186,0.987978,0.004451,0.473336,0.000052,0.000031,0.000020,0.000065,0.000019,30.830119,0.000087,
2446,3013,4.01416103056041,7.95791290091361,0.00161914721439871,0.006362,-0.066278,0.003660,0.250908,-3.005144,314.960965,22.411545,0.999196,0.985205,0.004360,0.413148,0.000025,0.000007,0.000041,0.000058,-0.000025,38.729609,0.000058,
2221,2098,-0.722729426192622,-12.0237781813901,0.00606415151236206,-0.000857,-0.071261,-0.013186,-0.022744,-3.266668,329.633166,20.278005,0.998392,0.978150,0.006021,0.408462,0.000898,0.001017,0.000007,0.001018,0.000897,86.819613,0.001916,
2161,3043,-2.18109098619214,8.58901016481966,0.0278210363956077,0.006705,-0.065036,0.008920,0.258510,-2.922473,314.966902,21.673939,0.999532,0.992645,0.003643,0.412941,0.000019,0.000003,-0.000013,0.000027,-0.000004,-29.131133,0.000029,
2011,2833,-5.40527002790478,4.02364781714356,-0.0139546363363934,0.005458,-0.064432,0.003210,0.222383,-2.929078,318.767431,21.419148,0.999667,0.993797,0.003535,0.349693,0.000017,0.000006,-0.000022,0.000035,-0.000011,-37.911373,0.000035,
2251,2233,-0.0899711574312363,-9.06245661316521,-0.00890808398617082,0.001861,-0.068482,-0.014052,0.106007,-3.151181,327.399517,20.411568,0.998294,0.978496,0.005829,0.443731,0.000606,0.000665,0.000007,0.000665,0.000605,83.478252,0.001271,
2131,3013,-2.82811037615791,7.93674912600104,0.0141347895995523,0.006241,-0.064668,0.005594,0.248367,-2.914435,315.451124,21.550029,0.999332,0.990861,0.003871,0.438188,0.000024,0.000009,-0.000012,0.000031,0.000003,-28.722362,0.000037,
2371,2593,2.45999632621973,-1.19090711895334,-0.0148610400078724,0.003965,-0.067296,0.002563,0.145891,-3.040712,321.481374,20.950366,0.999153,0.986842,0.004637,0.469359,0.000161,0.000105,0.000023,0.000170,0.000097,19.624523,0.000270,
2071,2758,-4.09260673379172,2.39580984360498,-0.0301407172005383,0.005109,-0.064602,-0.002349,0.220623,-2.957766,319.490118,21.395857,0.999371,0.990679,0.003982,0.432201,0.000049,0.000013,-0.000013,0.000053,0.000010,-17.530722,0.000068,
2026,2863,-5.08484592788122,4.67702945562066,-0.0246774089172845,0.005584,-0.063914,0.001410,0.232896,-2.914837,318.104942,21.399255,0.999304,0.991071,0.004051,0.381977,0.000010,0.000007,-0.000026,0.000034,-0.000017,-43.079172,0.000034,
2146,3088,-2.51455955992186,9.56506404770467,0.0187172729258691,0.006863,-0.065071,0.009465,0.264706,-2.929840,314.219993,21.668530,0.999662,0.994603,0.003199,0.383251,0.000014,0.000011,-0.000011,0.000023,0.000001,-41.208627,0.000028,
2086,2848,-3.78000947590471,4.35179244692486,-0.00802988704873542,0.005271,-0.064322,0.003052,0.212424,-2.918703,318.126776,21.394911,0.999655,0.993033,0.003440,0.472270,0.000033,0.000012,-0.000023,0.000048,-0.000003,-32.630664,0.000054,
2341,2458,1.8310687505993,-4.13860465440422,-0.0139239043035673,0.002850,-0.067307,-0.001304,0.108869,-3.046407,323.636928,20.673050,0.999283,0.987899,0.004491,0.437969,0.000292,0.000216,0.000013,0.000294,0.000214,9.219217,0.000510,
2086,2803,-3.77363399525079,3.37427530267158,-0.0140181734821567,0.005012,-0.065040,0.005362,0.193596,-2.930747,318.788797,21.426690,0.999335,0.990099,0.003968,0.432107,0.000043,0.000027,-0.000011,0.000048,0.000022,-27.232903,0.000072,
2326,2323,1.52953121798245,-7.09145161733351,-0.0114982766708067,0.002552,-0.068153,-0.007561,0.116587,-3.106105,325.853967,20.336115,0.998582,0.981333,0.005565,0.428493,0.000457,0.000408,-0.000017,0.000462,0.000403,-17.244159,0.000866,
2056,2698,-4.40963592222203,1.08976403747145,-0.0206368147887588,0.004023,-0.064085,0.000545,0.162851,-2.900193,320.566960,21.421363,0.999287,0.990084,0.004006,0.477776,0.000064,0.000019,0.000016,0.000070,0.000014,17.841427,0.000090,
2011,3028,-5.43192812202452,8.25410293803511,0.021259691219484,0.006521,-0.064450,0.006740,0.261936,-2.886854,315.931348,21.195437,0.999480,0.992996,0.003583,0.453026,0.000013,-0.000015,-0.000011,0.000017,-0.000019,-19.689279,0.000021,
2026,2653,-5.05462194052697,0.109766006987059,-0.0314480714477554,0.004061,-0.064063,-0.003235,0.175545,-2.928041,321.396371,21.438859,0.999208,0.990781,0.003961,0.464716,0.000096,0.000041,0.000019,0.000102,0.000035,17.445438,0.000142,
2101,3163,-3.50126823647032,11.1856740763269,0.038479415309439,0.007074,-0.064818,0.010721,0.272503,-2.937887,313.368802,21.441747,0.999715,0.994839,0.003081,0.436841,0.000008,0.000037,-0.000017,0.000045,0.000000,-65.715520,0.000052,
2041,2653,-4.72910285735465,0.110521696984748,-0.0343211449294927,0.004197,-0.064354,-0.000073,0.172744,-2.932615,321.278400,21.434246,0.999283,0.989408,0.004183,0.456279,0.000082,0.000039,0.000009,0.000084,0.000037,10.942205,0.000124,
2206,2278,-1.07971225824722,-8.07727445704825,-0.00178495282557378,0.000917,-0.068442,-0.007613,0.041727,-3.121782,326.769273,20.743934,0.998658,0.981891,0.005397,0.410502,0.000519,0.000516,0.000025,0.000543,0.000492,43.156827,0.001036,
2296,2458,0.850482083018093,-4.13850415921019,-0.0195598775800931,0.003251,-0.067048,-0.002414,0.131776,-3.048614,323.636789,20.813448,0.999151,0.986658,0.004781,0.409348,0.000262,0.000199,0.000008,0.000263,0.000198,7.276886,0.000462,
2116,2953,-3.14483694825068,6.63422207867678,0.00116133985000033,0.006078,-0.064929,0.007792,0.234667,-2.922902,316.372678,21.505320,0.999437,0.990565,0.003881,0.418815,0.000031,-0.000002,-0.000016,0.000037,-0.000009,-22.614214,0.000039,
2236,2158,-0.405297580845389,-10.7056060532734,-0.00675114834854185,0.000401,-0.069266,-0.015181,0.042235,-3.202376,328.591465,20.379866,0.998350,0.980716,0.005613,0.376561,0.000774,0.000861,0.000027,0.000869,0.000766,73.935904,0.001636,
2281,2383,0.537266430134896,-5.78009159543422,-0.00722309547319355,0.002330,-0.067957,-0.003716,0.093682,-3.091894,324.933106,20.617633,0.998542,0.981634,0.005526,0.453158,0.000341,0.000312,0.000003,0.000341,0.000312,5.564435,0.000653,
2221,2338,-0.764695996642821,-6.76064205544638,-0.0287587212042126,0.001290,-0.066988,-0.006573,0.056026,-3.062207,325.551018,20.838052,0.999551,0.989467,0.004318,0.396625,0.000404,0.000385,0.000017,0.000414,0.000375,30.381755,0.000789,
2266,2353,0.215104110992559,-6.43531143993584,-0.0111609245920476,0.001881,-0.067766,-0.005639,0.079652,-3.090969,325.391697,20.638866,0.998844,0.982752,0.005380,0.427156,0.000383,0.000369,0.000000,0.000383,0.000369,-0.637788,0.000753,
2506,2038,5.52492774689701,-13.3516307238968,0.0179058815697317,0.006257,-0.073730,-0.015575,0.313797,-3.391312,331.161297,18.118266,0.998520,0.968582,0.007011,0.445737,0.001334,0.001128,-0.000190,0.001447,0.001015,-30.796777,0.002475,
2161,3148,-2.19851733925104,10.8654287619003,0.033497059751312,0.006881,-0.065443,0.011851,0.257502,-2.946941,313.299156,21.687092,0.999341,0.991960,0.003848,0.438892,0.000011,0.000020,-0.000015,0.000032,0.000000,-53.045084,0.000037,
2011,2848,-5.40813597077722,4.34848827422077,-0.0158724535958186,0.005006,-0.064424,0.003899,0.199685,-2.920559,318.485931,21.285905,0.999690,0.994626,0.003425,0.479395,0.000016,-0.000003,-0.000036,0.000044,-0.000030,-37.555427,0.000045,
2431,2908,3.70636999653715,5.67416623678419,-0.012335585458402,0.005588,-0.067000,0.008817,0.196245,-3.019929,316.481092,21.966389,0.999659,0.990268,0.003769,0.453750,0.000023,0.000014,0.000026,0.000045,-0.000008,39.849057,0.000048,
2356,2548,2.14216963159562,-2.17352333431844,-0.0129005253417631,0.003967,-0.066664,-0.000810,0.158444,-3.014825,322.236257,20.815872,0.999084,0.986030,0.004777,0.528667,0.000194,0.000123,0.000020,0.000199,0.000118,14.735715,0.000321,
2446,3028,4.0120101358485,8.28380704469881,0.0107085445762323,0.006620,-0.066284,0.005546,0.255752,-3.004610,314.796419,22.514724,0.999326,0.987549,0.004226,0.361710,0.000024,0.000008,0.000040,0.000056,-0.000025,39.231896,0.000057,
2191,2203,-1.39463635010252,-9.718578216279,-0.00677688989685521,0.000200,-0.068056,-0.013979,0.028917,-3.126341,327.965435,20.685485,0.997970,0.977824,0.006053,0.444542,0.000677,0.000738,0.000033,0.000753,0.000663,66.651710,0.001416,
2236,2203,-0.411534742494929,-9.72127640238991,-0.00317366401407071,0.001427,-0.068193,-0.019005,0.101961,-3.171032,327.956698,20.328914,0.999236,0.988076,0.004667,0.529935,0.000673,0.000745,0.000013,0.000747,0.000670,79.881053,0.001418,
2251,2248,-0.0933857174867647,-8.73198960481817,-0.00830078135999202,0.001369,-0.068131,-0.009582,0.068989,-3.095454,327.124387,20.580098,0.997757,0.976721,0.006303,0.356955,0.000579,0.000613,0.000010,0.000616,0.000577,75.384037,0.001192,
2461,3148,4.31601442486098,10.8895168720546,0.0296849127441874,0.007264,-0.066471,0.009745,0.269131,-3.000684,313.032467,22.925338,0.999371,0.988290,0.004044,0.428640,0.000048,0.000019,0.000029,0.000066,0.000002,31.636537,0.000077,
2476,3208,4.63079623811926,12.192379653854,0.0370745354330211,0.007443,-0.066532,0.009830,0.276463,-3.011486,312.150774,23.191861,0.999349,0.990872,0.003796,0.437036,0.000042,0.000018,0.000028,0.000060,-0.000001,33.199040,0.000069,
2056,2713,-4.4116181940494,1.41681478126164,-0.0278995213864164,0.004719,-0.064278,-0.000949,0.199066,-2.916655,320.299258,21.432669,0.999050,0.989182,0.004103,0.445171,0.000066,0.000031,0.000006,0.000067,0.000030,8.898206,0.000099,
2221,2113,-0.725417697369657,-11.6951467333403,0.00468603803903989,-0.000951,-0.071050,-0.014121,-0.023963,-3.300434,329.379609,20.297444,0.998546,0.979876,0.005691,0.377273,0.000862,0.000984,0.000009,0.000985,0.000862,85.626971,0.001848,
2206,2053,-1.04365221870202,-13.0108368063973,0.00079978362299471,-0.001899,-0.072307,-0.015730,-0.062905,-3.362803,330.310453,20.306039,0.998043,0.974665,0.006264,0.315296,0.001006,0.001066,0.000002,0.001066,0.001006,87.624245,0.002072,
2041,2908,-4.76505094113364,5.65339027085028,-0.00300339874382871,0.005849,-0.064124,0.005110,0.234503,-2.897882,317.464829,21.369059,0.999410,0.991031,0.003772,0.427199,0.000002,0.000006,-0.000029,0.000033,-0.000025,-47.227022,0.000035,
2011,2563,-5.36771601178086,-1.85161594282812,-0.0203084855779139,0.002711,-0.064265,-0.002184,0.110650,-2.925523,322.975277,21.531550,0.999209,0.986963,0.004413,0.450629,0.000180,0.000027,0.000042,0.000191,0.000016,14.494078,0.000230,
2386,2683,2.76918935926533,0.775734433027495,-0.0313311386915416,0.004962,-0.066101,0.001801,0.194651,-2.971747,319.936271,21.315105,0.999316,0.986735,0.004388,0.419085,0.000094,0.000092,0.000012,0.000105,0.000081,41.941118,0.000186,
2071,3013,-4.12858535873324,7.93208194017011,0.0221496270665398,0.006517,-0.064151,0.003413,0.269179,-2.920250,315.830346,21.371197,0.999387,0.991156,0.003713,0.433900,0.000019,0.000004,-0.000018,0.000031,-0.000008,-33.269717,0.000032,
2341,2473,1.82901400614818,-3.81085167486434,-0.0134522113178264,0.003359,-0.066913,-0.004058,0.141968,-3.032367,323.430781,20.710535,0.999257,0.987701,0.004449,0.452339,0.000272,0.000194,0.000011,0.000274,0.000193,7.768694,0.000468,
2026,2878,-5.08667302323065,5.00223709938884,-0.0178127870705111,0.005759,-0.064091,0.003442,0.235351,-2.904968,317.921168,21.372696,0.998917,0.987108,0.004567,0.408035,0.000015,0.000030,-0.000022,0.000046,0.000000,-54.433809,0.000053,
2026,2668,-5.05669120517581,0.435368049500475,-0.0284563246391372,0.004231,-0.064535,-0.000605,0.175966,-2.945833,321.179458,21.388908,0.999225,0.989837,0.004047,0.487665,0.000084,0.000028,0.000021,0.000091,0.000021,18.288389,0.000119,
2086,3058,-3.81016735086885,8.90811082807118,0.0304253396964214,0.006760,-0.064921,0.009798,0.261335,-2.933540,315.079487,21.358630,0.999469,0.991750,0.003606,0.472159,0.000018,0.000007,-0.000015,0.000028,-0.000004,-34.835235,0.000031,
2101,3178,-3.50387763932253,11.5101282308755,0.0347246790543068,0.007157,-0.064995,0.010709,0.276352,-2.945046,313.096478,21.368634,0.999744,0.995111,0.002999,0.503102,0.000005,0.000046,-0.000018,0.000053,-0.000001,-69.792994,0.000060,
2476,3223,4.62799400730615,12.5184884955094,0.034419471747924,0.007746,-0.066438,0.007904,0.297849,-3.006553,311.903198,23.283974,0.999248,0.990862,0.003870,0.405286,0.000040,0.000003,0.000019,0.000048,-0.000005,23.507357,0.000053,
2131,3028,-2.83044119206013,8.26201099986469,0.0158762612105647,0.006473,-0.064754,0.008533,0.250266,-2.899529,315.223021,21.525977,0.999449,0.991137,0.003806,0.481962,0.000026,0.000009,-0.000010,0.000030,0.000005,-25.112641,0.000038,
2146,2983,-2.49825760245171,7.28633324120206,0.00454308850993357,0.006412,-0.065333,0.007739,0.248975,-2.953884,315.799037,21.538142,0.999670,0.993846,0.003287,0.440329,0.000025,0.000004,-0.000013,0.000031,-0.000002,-25.794109,0.000035,
2131,3043,-2.83239675375831,8.58708282118422,0.0221402378473385,0.006591,-0.065138,0.008484,0.255668,-2.936452,315.036465,21.569577,0.999444,0.992129,0.003638,0.406066,0.000021,0.000004,-0.000014,0.000029,-0.000003,-28.529142,0.000032,
2116,2833,-3.12738055214314,4.02893970892869,-0.0203805970521671,0.005121,-0.064805,0.004048,0.201665,-2.942070,318.111506,21.513851,0.999645,0.992503,0.003622,0.367067,0.000045,0.000025,-0.000012,0.000050,0.000019,-25.236076,0.000072,
2311,2323,1.20192975958891,-7.09131958694376,-0.0126684501589125,0.002333,-0.068445,-0.005543,0.099546,-3.108693,325.834741,20.401566,0.998933,0.983583,0.005218,0.418377,0.000450,0.000405,-0.000011,0.000453,0.000402,-13.400767,0.000856,
2281,2398,0.534492328931155,-5.45055864469193,-0.0132494178102434,0.002624,-0.067433,-0.004772,0.110894,-3.067481,324.656643,20.719596,0.998840,0.984802,0.005225,0.405067,0.000322,0.000291,0.000002,0.000323,0.000291,3.863023,0.000614,
2116,2968,-3.14681536320055,6.9592155934849,0.00605647949527111,0.006042,-0.065021,0.004804,0.241818,-2.944890,316.176809,21.499775,0.999592,0.991992,0.003550,0.405293,0.000030,-0.000003,-0.000019,0.000039,-0.000011,-24.132636,0.000040,
2416,2833,3.39447593360956,4.04262505217129,-0.016891173171814,0.005463,-0.066435,0.005642,0.202872,-3.000062,317.652150,21.768352,0.998596,0.985584,0.004736,0.406103,0.000045,0.000033,0.000019,0.000059,0.000019,35.895455,0.000082,
2176,3283,-1.89628104773472,13.7930677496,0.0215372921384187,0.007741,-0.065031,0.010973,0.299385,-2.940848,310.976742,21.862784,0.999682,0.994391,0.003135,0.432033,0.000017,0.000039,-0.000008,0.000042,0.000014,-71.190538,0.000058,
2296,2488,0.845257349717965,-3.48377971152289,-0.0175435596655689,0.003311,-0.066657,-0.002669,0.135537,-3.028942,323.171586,20.839680,0.999179,0.987591,0.004554,0.465118,0.000231,0.000166,0.000002,0.000231,0.000166,1.489479,0.000398,
2086,2863,-3.78213353557381,4.67847046709009,-0.0112244220829893,0.005663,-0.064522,0.001786,0.234103,-2.927897,317.877657,21.444148,0.999479,0.990719,0.003926,0.412718,0.000028,0.000017,-0.000025,0.000048,-0.000003,-38.826838,0.000054,
2251,2488,-0.134240854564542,-3.48547594476813,-0.014351356062491,0.003449,-0.066414,-0.005845,0.152878,-3.038719,323.279782,20.902502,0.999450,0.989479,0.004130,0.492774,0.000214,0.000173,-0.000004,0.000215,0.000172,-5.255198,0.000388,
2431,2923,3.70393302636254,6.00138875413069,-0.0104659076513371,0.005810,-0.066586,0.006759,0.214280,-2.994409,316.269082,22.091402,0.999649,0.991258,0.003780,0.404006,0.000023,0.000011,0.000025,0.000042,-0.000008,38.352770,0.000045,
2011,2863,-5.40988225146446,4.67498936890458,-0.0135405917656044,0.005600,-0.064440,0.007459,0.217441,-2.900653,318.279032,21.329681,0.999324,0.990713,0.004131,0.443106,0.000012,0.000008,-0.000025,0.000035,-0.000015,-43.149229,0.000035,
2506,2053,5.52073538972089,-13.0211323443439,0.0160502761832504,0.005903,-0.074562,-0.009242,0.272936,-3.415664,330.862439,18.273773,0.998729,0.980146,0.005928,0.330750,0.001288,0.001135,-0.000189,0.001415,0.001007,-33.997737,0.002434,
2476,3238,4.62393346683478,12.8446337399091,0.0204513349588069,0.007792,-0.066462,0.006712,0.304590,-3.001477,311.545936,23.319512,0.999668,0.993386,0.003325,0.430177,0.000036,0.000004,0.000014,0.000041,-0.000002,20.408820,0.000047,
2401,2788,3.07587324724657,3.06236307482791,-0.0202433784097025,0.004897,-0.066711,0.006410,0.174448,-2.997015,318.312428,21.605108,0.999475,0.988206,0.004294,0.418721,0.000050,0.000045,0.000019,0.000067,0.000028,41.770885,0.000097,
2071,2773,-4.09423461108334,2.72185061045519,-0.0220108065811928,0.005429,-0.064448,-0.000735,0.230810,-2.946526,319.324624,21.428469,0.999296,0.989138,0.004190,0.407733,0.000046,0.000031,-0.000013,0.000054,0.000023,-30.676033,0.000080,
2056,2968,-4.44817620211162,6.95554234453714,0.00600538916916094,0.006234,-0.064343,0.005583,0.250309,-2.929838,316.492809,21.340107,0.999193,0.990814,0.003828,0.429319,0.000021,-0.000021,-0.000032,0.000038,-0.000038,-28.627057,0.000044,
2461,3163,4.31357161736617,11.2147522265146,0.0348179606790495,0.007352,-0.066634,0.008944,0.276124,-3.016128,312.836667,22.988299,0.999485,0.989746,0.003961,0.403393,0.000041,0.000026,0.000030,0.000064,0.000003,38.233486,0.000076,
2131,3283,-2.87127649663608,13.7889955755132,0.0241465378869066,0.007740,-0.064640,0.010643,0.302402,-2.921532,311.176705,21.613218,0.999635,0.994986,0.003037,0.448902,0.000007,0.000033,-0.000033,0.000055,-0.000016,-55.483770,0.000057,
2056,2728,-4.41414991480291,1.7434786188652,-0.031473669870536,0.004749,-0.064349,-0.000662,0.199610,-2.918952,320.026800,21.429698,0.999174,0.989408,0.004088,0.440701,0.000055,0.000019,-0.000001,0.000055,0.000019,-1.070876,0.000077,
2161,3163,-2.20048418777751,11.1906321574388,0.0379238889298676,0.007065,-0.065262,0.010347,0.270683,-2.936969,313.103995,21.712555,0.999550,0.992548,0.003566,0.432389,0.000013,0.000028,-0.000016,0.000038,0.000003,-57.769689,0.000046,
2296,2713,0.803538244725736,1.42483749078491,-0.0330461007525287,0.004358,-0.066444,0.005563,0.155978,-2.998259,319.410208,21.328790,0.999716,0.992627,0.003636,0.467902,0.000066,0.000074,0.000012,0.000082,0.000057,53.931324,0.000140,
2176,3298,-1.89935512586861,14.1182134388715,0.0129813127697957,0.007787,-0.065142,0.010334,0.303491,-2.947910,310.663244,21.862383,0.999809,0.996035,0.002674,0.436040,0.000020,0.000043,-0.000013,0.000049,0.000014,-65.291667,0.000066,
2146,3118,-2.51878899821575,10.2142898185742,0.0316027818196289,0.006761,-0.065013,0.008664,0.262449,-2.934129,313.836160,21.636007,0.999575,0.994566,0.003249,0.425070,0.000008,0.000015,-0.000010,0.000022,0.000001,-54.374709,0.000026,
2266,2368,0.212569649078983,-6.10612373140462,-0.0187745477945782,0.002475,-0.067294,-0.006947,0.111378,-3.080124,325.117009,20.696439,0.998669,0.982434,0.005421,0.407901,0.000356,0.000343,-0.000003,0.000356,0.000342,-12.545014,0.000699,
2266,2593,0.172898730800799,-1.19257078210377,-0.0209867034338345,0.003847,-0.066463,0.003734,0.139497,-2.985296,321.482822,21.099882,0.998999,0.986921,0.004635,0.501487,0.000143,0.000096,0.000013,0.000146,0.000093,14.355540,0.000241,
2236,2413,-0.450712995300339,-5.11908612680537,-0.0374825422680374,0.002195,-0.066669,-0.005538,0.094270,-3.037671,324.269769,21.009106,0.999492,0.990295,0.004045,0.309000,0.000289,0.000258,-0.000007,0.000290,0.000256,-11.629173,0.000547,
2011,2578,-5.37044151180926,-1.5244792184863,-0.0243520322592872,0.002412,-0.064213,-0.002800,0.098576,-2.925485,322.687203,21.515252,0.998830,0.986077,0.004861,0.455875,0.000164,0.000043,0.000038,0.000175,0.000032,16.018098,0.000223,
2101,2953,-3.470668203621,6.63333836116822,-0.00215194325608081,0.005859,-0.064958,0.006978,0.227468,-2.927946,316.408393,21.455118,0.999335,0.990669,0.003910,0.428613,0.000028,-0.000005,-0.000017,0.000035,-0.000012,-22.657013,0.000035,
2446,3043,4.00920440532682,8.60897129119768,0.0145145646550873,0.006636,-0.066599,0.007221,0.250148,-3.000788,314.577455,22.515462,0.999248,0.987168,0.004249,0.416029,0.000020,0.000020,0.000043,0.000064,-0.000023,45.181639,0.000064,
2011,3043,-5.43420731785632,8.57884563263161,0.0251143948589743,0.006399,-0.064382,0.008312,0.251933,-2.904106,315.709652,21.170286,0.999433,0.993141,0.003646,0.448210,0.000007,-0.000008,-0.000013,0.000015,-0.000015,-30.449989,0.000017,
2146,3103,-2.51695708581439,9.88855578902016,0.0263176258781073,0.006675,-0.065469,0.012463,0.246791,-2.938747,314.021652,21.561607,0.999782,0.996314,0.002804,0.488174,0.000009,0.000009,-0.000010,0.000019,-0.000001,-44.964220,0.000022,
2371,2608,2.45737257070451,-0.863479907750076,-0.0130305076478407,0.004220,-0.067101,0.004534,0.150665,-3.028358,321.257570,21.014896,0.998945,0.986242,0.004658,0.458814,0.000145,0.000094,0.000020,0.000151,0.000087,18.814268,0.000242,
2221,2353,-0.766440585940838,-6.43434231308979,-0.0248510531007469,0.001729,-0.067160,-0.008254,0.081449,-3.079742,325.367608,20.767471,0.999269,0.987901,0.004584,0.470284,0.000378,0.000357,0.000013,0.000384,0.000351,24.687404,0.000736,
2116,3208,-3.18206038305128,12.161459413939,0.0512420466760659,0.007642,-0.064745,0.008972,0.303448,-2.918099,312.699666,21.512948,0.999616,0.993414,0.003354,0.458598,0.000005,0.000041,-0.000025,0.000054,-0.000008,-63.242541,0.000058,
2476,3253,4.62035183766327,13.1698061318813,0.0201513815342196,0.007695,-0.066744,0.011723,0.280904,-3.003895,311.273268,23.354946,0.999677,0.992768,0.003362,0.447547,0.000035,0.000007,0.000008,0.000037,0.000005,15.430931,0.000046,
2131,3298,-2.87326006980305,14.1134110108204,0.0250169337147099,0.008137,-0.064729,0.009448,0.324310,-2.926103,310.960253,21.592512,0.999565,0.993403,0.003355,0.469530,0.000011,0.000044,-0.000038,0.000068,-0.000014,-56.710278,0.000072,
2026,2683,-5.06043879260161,0.764474493854706,-0.0452203401325164,0.003846,-0.064587,0.000783,0.154454,-2.926660,320.774406,21.464785,0.999777,0.995424,0.003081,0.421704,0.000073,0.000021,0.000019,0.000079,0.000015,18.427430,0.000101,
2131,3058,-2.83487083390979,8.91213639243161,0.0238921096137119,0.006379,-0.065174,0.006784,0.250950,-2.947916,314.801950,21.560001,0.999301,0.992051,0.003789,0.408924,0.000022,0.000011,-0.000013,0.000030,0.000002,-33.906900,0.000036,
2251,2263,-0.0955939903737679,-8.40503201165623,-0.00341657926855987,0.001392,-0.068061,-0.010207,0.072086,-3.098289,326.926848,20.535052,0.998868,0.982821,0.005344,0.424464,0.000547,0.000564,0.000007,0.000566,0.000545,69.895489,0.001111,
2236,2218,-0.415016191922266,-9.39113118178126,-0.00696880870856376,0.001166,-0.068620,-0.014260,0.074572,-3.180527,327.655347,20.476181,0.998646,0.982556,0.005323,0.397216,0.000644,0.000704,0.000017,0.000708,0.000639,75.446341,0.001348,
2101,3193,-3.50582163157203,11.8354122366376,0.0457420186342006,0.007094,-0.064797,0.012677,0.267735,-2.926575,312.934532,21.437499,0.999579,0.993564,0.003304,0.452300,0.000004,0.000045,-0.000021,0.000054,-0.000005,-67.117363,0.000059,
2041,2923,-4.76729483098024,5.97790314395046,0.000361915171936289,0.005798,-0.064594,0.006350,0.228530,-2.921488,317.243791,21.297211,0.999450,0.991561,0.003678,0.467360,0.000007,0.000005,-0.000024,0.000029,-0.000018,-43.752113,0.000030,
2281,2638,0.491938232322116,-0.210469402852517,-0.0219164583770066,0.004280,-0.066061,-0.000339,0.172713,-2.995026,320.756053,21.221913,0.999147,0.984572,0.004647,0.437033,0.000108,0.000086,0.000009,0.000111,0.000082,19.898532,0.000194,
2296,2503,0.841654483806991,-3.15463299440231,-0.0246554343546563,0.003203,-0.066770,0.000453,0.120040,-3.010744,322.852930,20.941332,0.999605,0.991753,0.003911,0.413434,0.000215,0.000166,0.000003,0.000216,0.000166,3.749080,0.000383,
2056,2743,-4.41688718135748,2.06958947237123,-0.0319969771264255,0.004430,-0.064232,0.000357,0.182046,-2.922534,319.761919,21.406652,0.999363,0.990365,0.003964,0.455107,0.000049,0.000021,-0.000006,0.000050,0.000020,-11.932842,0.000073,
2011,3058,-5.43593829550773,8.90360914092674,0.0338295208958357,0.006332,-0.064137,0.006371,0.254124,-2.910622,315.540450,21.171387,0.999165,0.992150,0.003687,0.427648,0.000002,0.000018,-0.000012,0.000025,-0.000005,-61.848132,0.000026,
2206,2068,-1.04447509120143,-12.6827288859179,0.00727234712365998,-0.000836,-0.071638,-0.018500,-0.005265,-3.328226,330.180933,20.279958,0.998609,0.978061,0.005876,0.395367,0.000973,0.001052,0.000008,0.001053,0.000973,84.568324,0.002026,
2161,3058,-2.18252726049328,8.9126295481856,0.0400904287644721,0.006895,-0.065085,0.007663,0.271057,-2.943379,314.838122,21.610291,0.999649,0.994640,0.003404,0.464936,0.000021,0.000008,-0.000012,0.000028,0.000002,-30.415906,0.000034,
2431,2938,3.70134761241752,6.32697174818315,-0.00615950568021617,0.005973,-0.066627,0.008337,0.215959,-2.996245,316.061982,22.114064,0.999645,0.990731,0.003897,0.428799,0.000019,0.000009,0.000023,0.000038,-0.000010,38.813096,0.000039,
2071,2788,-4.09668091314215,3.04670660342366,-0.013464500751013,0.005146,-0.064975,0.004745,0.201974,-2.936632,319.124312,21.360358,0.999326,0.987882,0.004264,0.482336,0.000040,0.000029,-0.000016,0.000052,0.000017,-36.117649,0.000072,
2161,3178,-2.20274259825836,11.5154219355734,0.0437126860244348,0.007156,-0.065360,0.013168,0.266155,-2.944958,312.902802,21.729192,0.999516,0.990734,0.003764,0.416472,0.000012,0.000040,-0.000016,0.000047,0.000004,-65.229553,0.000057,
2056,2983,-4.45059547867522,7.28120629277407,0.0100360251822167,0.006219,-0.064571,0.010357,0.236101,-2.918720,316.268010,21.359511,0.999116,0.989069,0.004017,0.415036,0.000012,-0.000025,-0.000031,0.000029,-0.000042,-29.644111,0.000043,
2041,2668,-4.73091882275137,0.4363273911692,-0.0249436148540667,0.004130,-0.064313,0.000458,0.168218,-2.921241,321.109380,21.427559,0.999288,0.987572,0.004463,0.467235,0.000067,0.000026,0.000014,0.000071,0.000021,17.402010,0.000097,
2191,1993,-1.36053955889024,-14.330164785589,0.00771953435292971,-0.002345,-0.073437,-0.021687,-0.065359,-3.441690,331.371659,20.210752,0.999258,0.983755,0.005251,0.356553,0.001160,0.001087,-0.000005,0.001161,0.001086,-3.963742,0.002248,
2461,3178,4.31059903669376,11.5405068761682,0.0380622785629043,0.007375,-0.066626,0.011888,0.266159,-3.000772,312.607537,23.060390,0.999590,0.990938,0.003808,0.399888,0.000039,0.000032,0.000028,0.000064,0.000007,41.164779,0.000078,
2146,1993,-2.34391835207328,-14.327188980925,0.00450355484156262,-0.003414,-0.072152,-0.022832,-0.111876,-3.384541,331.447090,20.591806,0.998727,0.980846,0.005488,0.351303,0.001231,0.001097,0.000047,0.001246,0.001082,17.385584,0.002330,
2476,3268,4.61706717501159,13.4957265699271,0.0188594539356473,0.007871,-0.066893,0.015442,0.274774,-3.010264,311.009429,23.461655,0.999832,0.994859,0.002958,0.389440,0.000029,-0.000010,-0.000004,0.000030,-0.000010,-5.143432,0.000030,
2026,2893,-5.08898380214259,5.32734005716763,-0.00840534456347086,0.005337,-0.064360,0.006085,0.208481,-2.921382,317.729557,21.384555,0.999303,0.992082,0.003665,0.369551,0.000011,0.000022,-0.000028,0.000046,-0.000012,-50.539267,0.000047,
2251,2503,-0.137473602140016,-3.15611179455556,-0.0160750137364971,0.003303,-0.066090,-0.001566,0.132307,-3.003082,323.000862,21.054699,0.999379,0.988490,0.004335,0.400910,0.000200,0.000165,-0.000001,0.000200,0.000165,-1.321698,0.000365,
2386,2698,2.76660286063852,1.10089904281326,-0.0232213742585259,0.004717,-0.066695,0.002933,0.179065,-3.003817,319.745346,21.296182,0.999362,0.988937,0.004113,0.449303,0.000087,0.000090,0.000016,0.000105,0.000072,47.618086,0.000178,
2356,2563,2.13873461465716,-1.84451852643975,-0.0174476272409265,0.003674,-0.066371,-0.001545,0.147714,-2.997421,321.943234,20.949731,0.999194,0.988748,0.004477,0.452006,0.000174,0.000115,0.000020,0.000180,0.000109,16.874986,0.000292,
2161,2038,-2.02399765660299,-13.338021152069,-0.00614061859204185,-0.002741,-0.071656,-0.022033,-0.082861,-3.350346,330.610637,20.569476,0.998796,0.983167,0.005250,0.343281,0.001081,0.001049,0.000016,0.001088,0.001042,22.236137,0.002130,
2026,2698,-5.06256775002623,1.09017373168105,-0.0432711750395924,0.003853,-0.064388,0.000609,0.155295,-2.920665,320.548882,21.401238,0.999807,0.994921,0.003152,0.482038,0.000068,0.000015,0.000022,0.000076,0.000007,19.923699,0.000093,
2071,3028,-4.13146505037755,8.25776735447605,0.0187649318222043,0.006393,-0.064346,0.005921,0.256259,-2.919599,315.544744,21.364445,0.999540,0.993095,0.003380,0.437490,0.000024,0.000003,-0.000017,0.000034,-0.000006,-29.323572,0.000036,
2116,3223,-3.18456664426457,12.4856781359026,0.0524725872277259,0.007716,-0.065265,0.011690,0.298523,-2.950687,312.460249,21.483674,0.999664,0.994229,0.003201,0.457312,0.000003,0.000039,-0.000028,0.000054,-0.000013,-61.196077,0.000057,
2416,2848,3.39197489882278,4.36846415850576,-0.0125320664929518,0.005621,-0.066488,0.006430,0.207231,-2.998835,317.448525,21.788257,0.999148,0.987476,0.004352,0.434931,0.000036,0.000027,0.000018,0.000050,0.000013,37.148571,0.000066,
2326,2338,1.52813012531879,-6.76420528992988,-9.62298798867778E-06,0.002874,-0.067491,-0.009984,0.139932,-3.086113,325.730712,20.384849,0.998911,0.983298,0.005127,0.435534,0.000432,0.000389,-0.000013,0.000436,0.000385,-15.193257,0.000822,
2341,2488,1.82667999252966,-3.48412491423788,-0.00942605856340606,0.003552,-0.066767,-0.003678,0.149551,-3.030124,323.229227,20.703249,0.999219,0.987267,0.004435,0.499624,0.000254,0.000176,0.000009,0.000255,0.000175,6.144733,0.000432,
2191,2218,-1.39670623644739,-9.39090976726384,-0.00262871313253754,0.000546,-0.068537,-0.011282,0.036194,-3.158587,327.766118,20.711314,0.997962,0.979140,0.006081,0.403143,0.000648,0.000699,0.000035,0.000718,0.000630,62.919841,0.001349,
2086,3073,-3.81305762543861,9.23433829464225,0.0249154616600435,0.006424,-0.064796,0.006408,0.255669,-2.936867,314.782821,21.404603,0.999410,0.990587,0.003725,0.420843,0.000012,0.000015,-0.000012,0.000026,0.000001,-47.867853,0.000031,
2221,2368,-0.767921778541346,-6.10583453231252,-0.0172165844717256,0.002218,-0.066818,-0.009452,0.107882,-3.051595,325.214705,20.893896,0.999451,0.988741,0.004455,0.392285,0.000355,0.000330,0.000008,0.000358,0.000328,16.965913,0.000686,
2506,2068,5.51949278134464,-12.6923049038493,0.0289773627380328,0.006217,-0.073398,-0.014785,0.309137,-3.376582,330.764191,18.382997,0.999130,0.982848,0.005418,0.324375,0.001242,0.001150,-0.000204,0.001405,0.000987,-38.681940,0.002404,
2131,3073,-2.83734224917603,9.23755809828652,0.0263924802897577,0.006339,-0.064870,0.008388,0.244363,-2.932342,314.571407,21.565953,0.999603,0.994217,0.003393,0.423312,0.000018,0.000018,-0.000013,0.000031,0.000005,-45.124802,0.000039,
2221,2128,-0.727244460216344,-11.3654856857976,0.00608540913361821,-0.000394,-0.070052,-0.015361,0.005855,-3.246706,329.179010,20.358984,0.998319,0.978890,0.005752,0.391008,0.000827,0.000955,0.000013,0.000957,0.000826,84.287464,0.001784,
2056,2998,-4.45262748418801,7.60691959271996,0.0103531151630136,0.006276,-0.064326,0.006276,0.250346,-2.916203,316.040479,21.370323,0.999124,0.989259,0.004086,0.400617,0.000007,-0.000007,-0.000024,0.000026,-0.000025,-36.953831,0.000029,
2236,2233,-0.418199341170538,-9.06150579052602,-0.014091047538102,0.001251,-0.068264,-0.012047,0.071445,-3.151955,327.350617,20.509345,0.998598,0.983001,0.005221,0.416423,0.000606,0.000661,0.000017,0.000666,0.000601,74.516123,0.001268,
2206,2293,-1.08127868154819,-7.74772244853293,-0.00766309259290665,0.001792,-0.066884,-0.015065,0.105964,-3.103277,326.541862,20.814625,0.998877,0.984679,0.005027,0.377141,0.000492,0.000473,0.000030,0.000514,0.000451,36.257399,0.000965,
2311,2338,1.19927107171157,-6.76359793790058,-0.00924182005189778,0.002463,-0.068521,-0.001580,0.091982,-3.098843,325.613402,20.424491,0.999092,0.983505,0.004956,0.439357,0.000424,0.000383,-0.000010,0.000426,0.000380,-13.322443,0.000807,
2101,2968,-3.47237581340824,6.95845284440316,0.00523266011776968,0.005944,-0.065003,0.004413,0.238849,-2.949253,316.237463,21.477136,0.999504,0.990419,0.003801,0.385966,0.000026,-0.000006,-0.000020,0.000035,-0.000016,-25.412414,0.000035,
2101,3208,-3.50745952482971,12.160944962401,0.0489328135892038,0.007489,-0.064657,0.009173,0.296336,-2.918728,312.744101,21.496636,0.999560,0.993379,0.003352,0.401135,0.000001,0.000041,-0.000023,0.000052,-0.000010,-65.452713,0.000055,
2011,2878,-5.41218325940789,5.00178104575699,-0.0166454310452764,0.005535,-0.063603,0.003802,0.224639,-2.869707,318.016079,21.353301,0.999132,0.989911,0.004125,0.438148,0.000017,0.000031,-0.000022,0.000047,0.000001,-53.523335,0.000054,
2446,3058,4.00605553504989,8.9351101339502,0.0133812019343509,0.006552,-0.066594,0.006915,0.247448,-3.008398,314.319519,22.588842,0.999465,0.989677,0.004033,0.386495,0.000023,0.000013,0.000042,0.000060,-0.000024,41.575208,0.000061,
2401,2803,3.07334088757935,3.38828343953626,-0.0191335564876454,0.005187,-0.066816,0.006307,0.188133,-2.996827,318.091220,21.596296,0.999515,0.989877,0.004132,0.473270,0.000048,0.000038,0.000020,0.000064,0.000023,38.032368,0.000090,
2011,2593,-5.37203059175325,-1.19712314003471,-0.024442899957819,0.003138,-0.063970,-0.001395,0.128277,-2.906405,322.473163,21.539435,0.998842,0.986441,0.004962,0.439816,0.000150,0.000058,0.000043,0.000167,0.000041,21.411575,0.000220,
2476,3283,4.6152980504094,13.8204424523812,0.0258741113790961,0.008037,-0.066496,0.009177,0.306450,-3.010488,310.853689,23.499988,0.999824,0.995396,0.002969,0.406236,0.000026,-0.000020,-0.000006,0.000027,-0.000021,-7.153312,0.000028,
2191,2008,-1.36267804394252,-14.0009799523855,0.00144784713791068,-0.001638,-0.073332,-0.022856,-0.029323,-3.427964,331.115021,20.137839,0.998815,0.981803,0.005659,0.461497,0.001120,0.001079,0.000000,0.001120,0.001079,-0.067510,0.002199,
2146,3133,-2.52097870856351,10.5388342653391,0.0347227326965935,0.006992,-0.065169,0.010293,0.268078,-2.941889,313.623165,21.603110,0.999391,0.993466,0.003575,0.457066,0.000009,0.000018,-0.000012,0.000027,0.000000,-54.716977,0.000031,
2086,2878,-3.78451168791289,5.00336439870624,-0.00654954966040577,0.005518,-0.064744,0.003952,0.221007,-2.941738,317.660349,21.396759,0.999413,0.990993,0.003967,0.445000,0.000029,0.000030,-0.000025,0.000055,0.000005,-45.654461,0.000066,
2461,3193,4.30779233571412,11.8653485764998,0.0404902300605841,0.007428,-0.066690,0.012402,0.266731,-2.988052,312.382526,23.049434,0.999529,0.990448,0.003836,0.476916,0.000040,0.000032,0.000026,0.000063,0.000010,40.830509,0.000078,
2026,2713,-5.06409588200722,1.41707116003844,-0.0405717727567776,0.004370,-0.063974,-0.000445,0.182149,-2.895026,320.354656,21.438235,0.999689,0.993783,0.003478,0.460928,0.000065,0.000028,0.000012,0.000069,0.000024,16.257733,0.000096,
2071,2803,-4.09933692985433,3.3737566267691,-0.0192384737777616,0.005234,-0.064989,0.005119,0.205000,-2.929454,318.835275,21.389352,0.999286,0.989444,0.004140,0.457372,0.000043,0.000026,-0.000013,0.000050,0.000019,-27.954119,0.000071,
2026,2908,-5.09008263867363,5.65259843154625,-0.000422315276580321,0.005870,-0.063978,0.003018,0.241697,-2.900702,317.585433,21.366256,0.999328,0.991452,0.003733,0.398172,0.000010,0.000005,-0.000028,0.000036,-0.000021,-42.573776,0.000036,
2236,2428,-0.451712155327666,-4.79455780579377,-0.0209766420507549,0.002835,-0.066910,-0.002596,0.114068,-3.016926,324.185773,20.881509,0.999308,0.989123,0.004276,0.479427,0.000271,0.000226,-0.000011,0.000274,0.000224,-12.526519,0.000498,
2041,2683,-4.73354477273333,0.763519468679377,-0.0300603777439505,0.004187,-0.064350,0.001751,0.167246,-2.907443,320.822557,21.429339,0.999404,0.990331,0.004049,0.472018,0.000056,0.000019,0.000012,0.000060,0.000015,16.669179,0.000079,
2056,2758,-4.4183739168987,2.39513885895584,-0.0239776792426483,0.004732,-0.064311,-0.000352,0.197884,-2.937223,319.601610,21.415019,0.999217,0.989739,0.004163,0.426629,0.000045,0.000011,-0.000013,0.000049,0.000007,-18.526555,0.000061,
2206,2083,-1.04777072042011,-12.3527376046319,0.0013910303952116,-0.001016,-0.071202,-0.016028,-0.021200,-3.285410,329.874581,20.286021,0.998677,0.977187,0.005929,0.452721,0.000939,0.001032,0.000007,0.001032,0.000938,85.738029,0.001971,
2266,2383,0.209809323718122,-5.77808393578371,-0.0236198844698947,0.002626,-0.067148,-0.008423,0.123263,-3.058881,324.845974,20.671511,0.997871,0.978033,0.005945,0.481610,0.000334,0.000318,0.000002,0.000334,0.000318,5.208062,0.000652,
2281,2413,0.531767868548719,-5.12354600631262,-0.00800080256800584,0.002430,-0.067649,-0.001775,0.091893,-3.066887,324.439109,20.727820,0.999050,0.986045,0.004910,0.426655,0.000302,0.000268,-0.000001,0.000302,0.000268,-0.844647,0.000570,
2266,2608,0.1704471376435,-0.864918811206408,-0.0232947831509591,0.004194,-0.066471,0.003006,0.157800,-2.999247,321.238307,21.174582,0.999092,0.986864,0.004602,0.439100,0.000129,0.000081,0.000013,0.000132,0.000078,14.005245,0.000212,
2161,2053,-2.02550265376621,-13.0101325215972,0.00431726467411409,-0.002321,-0.071496,-0.019226,-0.072116,-3.331224,330.467705,20.578222,0.998782,0.983404,0.005225,0.366710,0.001043,0.001041,0.000027,0.001069,0.001015,44.156150,0.002084,
2386,2713,2.76460144776479,1.42677004211699,-0.0169592480539791,0.005055,-0.066821,0.002175,0.197268,-3.017539,319.572288,21.312096,0.999528,0.990797,0.003785,0.463092,0.000075,0.000083,0.000020,0.000100,0.000058,50.452431,0.000160,
2431,2953,3.69785370404172,6.65390953822064,-0.0154639099242218,0.005919,-0.066244,0.004793,0.226737,-2.991988,315.749311,22.163772,0.999613,0.992255,0.003788,0.433100,0.000019,0.000005,0.000025,0.000038,-0.000015,37.088145,0.000039,
2146,2008,-2.34449240471344,-13.9987067375464,0.0075878949137973,-0.002059,-0.071024,-0.026841,-0.037343,-3.345443,331.306604,20.535262,0.998057,0.980789,0.005801,0.457875,0.001179,0.001075,0.000042,0.001194,0.001061,19.542050,0.002256,
2071,3043,-4.13381873790437,8.58343075197273,0.0174180324625013,0.006649,-0.064806,0.008068,0.261846,-2.917795,315.294465,21.372384,0.999503,0.992519,0.003503,0.427410,0.000021,-0.000003,-0.000022,0.000034,-0.000016,-30.535551,0.000034,
2296,2728,0.80186094066109,1.7512836021132,-0.0251529240293848,0.004835,-0.066299,0.005557,0.177992,-2.988493,319.254209,21.390747,0.999550,0.990603,0.003911,0.445609,0.000057,0.000064,0.000015,0.000077,0.000045,51.182349,0.000123,
2011,2893,-5.41441127755219,5.32653870353467,-0.00951198841494261,0.005345,-0.064239,0.007027,0.206851,-2.904374,317.814854,21.334625,0.999234,0.992139,0.003668,0.409937,0.000017,0.000021,-0.000026,0.000045,-0.000007,-46.855012,0.000048,
2506,2083,5.51633557691655,-12.3622997357227,0.0151546699638629,0.006673,-0.071376,-0.022673,0.361278,-3.311676,330.458945,18.282183,0.999147,0.984243,0.005110,0.555001,0.001188,0.001157,-0.000215,0.001388,0.000957,-42.922066,0.002358,
2221,2143,-0.729861981273483,-11.0368164038227,0.00637030965521035,-0.000219,-0.070408,-0.011905,0.002694,-3.235185,328.936899,20.365530,0.998529,0.980981,0.005561,0.418021,0.000794,0.000895,0.000023,0.000899,0.000789,77.852290,0.001690,
2251,2278,-0.0975461743285173,-8.07647621833483,-0.00720644551398664,0.002150,-0.067511,-0.012911,0.115894,-3.101313,326.697002,20.552697,0.999240,0.984064,0.005022,0.429353,0.000521,0.000521,0.000005,0.000525,0.000516,44.284112,0.001042,
2056,2773,-4.42026326813048,2.72098996716075,-0.0191857204797543,0.004786,-0.064065,-0.001796,0.204520,-2.933428,319.404961,21.410773,0.998934,0.987786,0.004466,0.429195,0.000040,0.000030,-0.000015,0.000051,0.000019,-36.721044,0.000073,
2416,2863,3.38923187307178,4.69476834825014,-0.0102495072657689,0.005576,-0.066637,0.005598,0.208223,-3.001297,317.223872,21.842982,0.999317,0.988371,0.004206,0.425319,0.000033,0.000024,0.000017,0.000046,0.000011,36.986853,0.000061,
2116,2983,-3.14823124234474,7.28368968127487,0.0163009032550576,0.006457,-0.064791,0.005430,0.259174,-2.924342,316.035674,21.444154,0.999678,0.993333,0.003319,0.484262,0.000027,-0.000002,-0.000016,0.000034,-0.000010,-23.808795,0.000035,
2206,2098,-1.05034203417025,-12.023145999863,0.0013334369423319,-0.000994,-0.070785,-0.015297,-0.022351,-3.261010,329.631402,20.344009,0.998687,0.980648,0.005646,0.439015,0.000904,0.001008,0.000010,0.001009,0.000903,84.514177,0.001913,
2056,3013,-4.45526634351381,7.93247443079011,0.00982414283942035,0.006084,-0.064101,0.007134,0.239170,-2.894852,315.780496,21.346284,0.998841,0.986292,0.004735,0.439894,0.000010,-0.000001,-0.000021,0.000026,-0.000017,-37.577243,0.000027,
2041,2698,-4.73555774311604,1.08999850300684,-0.0293407911906911,0.004432,-0.064497,0.001881,0.178106,-2.918691,320.596436,21.443628,0.999365,0.990477,0.003962,0.439406,0.000052,0.000015,0.000017,0.000058,0.000008,21.047393,0.000072,
2041,2938,-4.77022694723356,6.3034996223079,-0.00188542722213469,0.005552,-0.064952,0.010004,0.206866,-2.926510,316.959658,21.270586,0.999267,0.990501,0.003901,0.480958,0.000007,0.000000,-0.000022,0.000026,-0.000019,-40.299564,0.000027,
2476,3298,4.61130461504009,14.1463089765447,0.0143180473482403,0.008135,-0.066484,0.010228,0.306968,-3.009564,310.510198,23.546407,0.999630,0.992640,0.003574,0.415823,0.000009,-0.000022,-0.000013,0.000013,-0.000026,-19.771833,0.000026,
2176,2113,-1.70778694927086,-11.6926976311242,-0.00421487576318214,-0.001190,-0.070058,-0.016390,-0.028267,-3.235202,329.425349,20.555756,0.998807,0.978623,0.005810,0.450084,0.000898,0.000962,0.000041,0.000982,0.000878,63.906713,0.001861,
2101,2983,-3.4747697875723,7.283757992214,0.00799047909623596,0.005971,-0.065068,0.007026,0.232447,-2.938889,316.009891,21.456623,0.999566,0.992177,0.003541,0.417441,0.000022,-0.000006,-0.000017,0.000030,-0.000014,-25.146345,0.000030,
2341,2503,1.82299604542578,-3.15591230641985,-0.0165632364348198,0.003293,-0.066883,-0.002813,0.134591,-3.045925,322.911397,20.753070,0.999161,0.986480,0.004533,0.471865,0.000233,0.000176,0.000009,0.000234,0.000175,8.791507,0.000410,
2086,3088,-3.8153860794676,9.55952864935388,0.0273915354039218,0.006480,-0.064683,0.008342,0.252775,-2.918856,314.555862,21.389447,0.999420,0.990553,0.003776,0.452181,0.000007,0.000013,-0.000013,0.000024,-0.000003,-51.249151,0.000026,
2116,3238,-3.18763161340764,12.8112807604573,0.0439581134551759,0.007638,-0.065134,0.010922,0.297255,-2.949689,312.142060,21.496897,0.999624,0.994455,0.003083,0.447185,0.000002,0.000034,-0.000033,0.000055,-0.000019,-58.183335,0.000056,
2011,3073,-5.43802094137377,9.22904344708793,0.0300432617508477,0.006839,-0.064197,0.007504,0.274484,-2.900839,315.284542,21.140341,0.999210,0.992970,0.003635,0.455740,-0.000002,0.000028,-0.000003,0.000028,-0.000002,-84.533246,0.000031,
2086,2893,-3.78630813943878,5.32885407526638,-0.00492457035988991,0.006021,-0.065193,0.004055,0.243741,-2.961811,317.452926,21.391629,0.999396,0.992574,0.003826,0.428760,0.000024,0.000026,-0.000027,0.000052,-0.000002,-45.581616,0.000059,
2461,3208,4.30483724304339,12.1911648131728,0.0397336209871355,0.007476,-0.066404,0.011443,0.272604,-2.997133,312.135665,23.135200,0.999416,0.988627,0.004144,0.435135,0.000040,0.000025,0.000020,0.000054,0.000011,34.905127,0.000069,
2446,3073,4.00274261838783,9.26053263575516,0.01021325310262,0.006633,-0.066702,0.008628,0.244669,-3.018325,314.044759,22.589614,0.999642,0.992772,0.003565,0.427131,0.000026,0.000020,0.000040,0.000063,-0.000018,42.878787,0.000065,
2161,3193,-2.20522597146151,11.8399407789047,0.0404129129025819,0.007168,-0.065373,0.009052,0.279266,-2.964848,312.643325,21.682347,0.999627,0.993185,0.003339,0.452447,0.000011,0.000041,-0.000019,0.000050,0.000002,-64.434544,0.000059,
2371,2623,2.45423010889347,-0.536015439112425,-0.017438557733783,0.004366,-0.067091,0.005537,0.153867,-3.015372,320.980069,21.033448,0.999013,0.986415,0.004615,0.495280,0.000135,0.000089,0.000013,0.000139,0.000085,14.749525,0.000226,
2326,2353,1.52472736539763,-6.43461405535932,-0.00860629923090528,0.002904,-0.067295,-0.010020,0.141532,-3.079775,325.417481,20.468818,0.998815,0.981177,0.005178,0.394430,0.000411,0.000375,-0.000006,0.000412,0.000374,-8.396056,0.000786,
2011,2908,-5.41597610764117,5.65187611093336,-0.00435151130619715,0.005564,-0.064208,0.003948,0.225341,-2.907167,317.632697,21.326402,0.999213,0.991617,0.003721,0.402735,0.000011,0.000002,-0.000029,0.000036,-0.000023,-40.516460,0.000037,
2356,2578,2.13647008760823,-1.51838198934195,-0.0143799427069666,0.004024,-0.067034,-0.001366,0.162918,-3.026941,321.741250,20.939259,0.999050,0.986926,0.004645,0.472659,0.000164,0.000116,0.000022,0.000173,0.000107,20.861755,0.000282,
2281,2653,0.489703599945123,0.11630444676009,-0.0225380615815993,0.004683,-0.066078,-0.001924,0.196538,-3.005874,320.531249,21.241906,0.999348,0.987853,0.004302,0.434460,0.000098,0.000080,0.000009,0.000102,0.000076,23.345222,0.000179,
2011,2608,-5.37523535142172,-0.868470654863437,-0.0400268211168964,0.003160,-0.064098,-0.000227,0.126056,-2.908901,322.098034,21.575609,0.999482,0.990878,0.004039,0.390227,0.000138,0.000038,0.000035,0.000149,0.000027,17.397869,0.000190,
2236,2248,-0.420580641736056,-8.73352126926362,-0.00463992172535654,0.001090,-0.067962,-0.007992,0.051046,-3.098203,327.166849,20.543925,0.998468,0.981117,0.005583,0.459053,0.000578,0.000616,0.000022,0.000626,0.000568,65.698336,0.001194,
2161,2068,-2.0277549469543,-12.6812276178904,0.00727428746927217,-0.002137,-0.071286,-0.016392,-0.072327,-3.295512,330.251076,20.583898,0.999014,0.984556,0.005175,0.409932,0.001007,0.001030,0.000036,0.001057,0.000980,53.881641,0.002037,
2491,1993,5.20699866056909,-14.3413955748046,0.0164663300185452,0.007198,-0.075385,-0.018052,0.365260,-3.487168,331.881611,17.998892,0.998106,0.963705,0.007622,0.382159,0.001497,0.001148,-0.000148,0.001552,0.001094,-20.186754,0.002659,
2311,2353,1.1966409411532,-6.43431337805293,-0.0134230741348347,0.002526,-0.067611,-0.006582,0.112262,-3.089206,325.355733,20.520665,0.999225,0.985087,0.004725,0.386858,0.000400,0.000366,-0.000006,0.000401,0.000365,-9.055046,0.000766,
2026,2728,-5.0655631757947,1.74201872029098,-0.0266578759461709,0.004481,-0.064045,0.001988,0.180531,-2.901243,320.226497,21.422477,0.999572,0.991234,0.003797,0.460673,0.000052,0.000013,0.000006,0.000053,0.000012,8.510713,0.000069,
2281,2428,0.530106877313546,-4.79563581703322,-0.00766005995325258,0.003401,-0.067242,-0.002330,0.138460,-3.050155,324.245620,20.759759,0.999339,0.988084,0.004571,0.440668,0.000288,0.000236,-0.000005,0.000288,0.000236,-5.534189,0.000525,
2296,2743,0.800091315776417,2.07733080637762,-0.0176340131064876,0.005206,-0.066152,0.005017,0.196961,-2.982775,319.092202,21.420546,0.999385,0.989471,0.004100,0.451875,0.000050,0.000055,0.000014,0.000067,0.000038,50.011976,0.000106,
2101,3223,-3.50935648546064,12.4850141823719,0.0544811338717182,0.007788,-0.064872,0.010584,0.305874,-2.934527,312.555162,21.461398,0.999567,0.993438,0.003353,0.420522,-0.000001,0.000038,-0.000028,0.000052,-0.000015,-62.904663,0.000054,
2026,2923,-5.09269942651979,5.97802083654079,-0.000463813874603147,0.005635,-0.064078,0.004352,0.227135,-2.903264,317.326945,21.332238,0.999384,0.992145,0.003639,0.419542,0.000014,0.000003,-0.000022,0.000031,-0.000015,-38.256918,0.000031,
2146,3148,-2.52383637924551,10.8645480790878,0.0307083745033196,0.007013,-0.064993,0.011651,0.265008,-2.924235,313.341089,21.612701,0.999460,0.992506,0.003619,0.471975,0.000009,0.000022,-0.000016,0.000033,-0.000002,-56.325244,0.000037,
2221,2158,-0.73178341746971,-10.7058115531976,-0.00335477922595828,0.000614,-0.068575,-0.019046,0.064320,-3.192299,328.674958,20.452024,0.998496,0.983035,0.005557,0.396257,0.000766,0.000858,0.000025,0.000865,0.000760,75.497420,0.001626,
2041,2713,-4.7378081044445,1.41719958135366,-0.0364854048859797,0.004739,-0.064248,-0.000970,0.200274,-2.916517,320.315608,21.451450,0.999123,0.989098,0.004246,0.426549,0.000052,0.000027,0.000008,0.000054,0.000025,17.230638,0.000081,
2116,3253,-3.1903210976037,13.1372074427417,0.0410856569988027,0.007583,-0.064874,0.010302,0.296769,-2.921968,311.871404,21.549844,0.999640,0.995946,0.002792,0.423798,0.000003,0.000031,-0.000032,0.000051,-0.000018,-56.830113,0.000052,
2206,2308,-1.08365585818213,-7.42016536679224,-0.00828235476694772,0.001790,-0.066616,-0.018161,0.115754,-3.099410,326.304825,20.776337,0.998772,0.984684,0.004951,0.438041,0.000462,0.000440,0.000028,0.000482,0.000421,34.309091,0.000903,
2431,2968,3.69491731627135,6.97934721818711,-0.013521241805222,0.005794,-0.066308,0.004780,0.221006,-3.002672,315.514968,22.173704,0.999694,0.994790,0.003370,0.461778,0.000018,0.000003,0.000028,0.000040,-0.000019,37.404952,0.000040,
2191,2023,-1.36481525613382,-13.6699951297373,0.00444705544714452,-0.001327,-0.072076,-0.020724,-0.021299,-3.371338,330.905913,20.297326,0.998529,0.982108,0.005549,0.376535,0.001081,0.001089,0.000005,0.001092,0.001079,64.989356,0.002170,
2296,2518,0.838838300865806,-2.82682638460927,-0.0333258061152719,0.003493,-0.066245,-0.003093,0.145520,-3.007850,322.562908,20.927122,0.999542,0.990600,0.004001,0.461705,0.000204,0.000162,0.000007,0.000205,0.000161,9.668032,0.000367,
2491,2008,5.20272643279248,-14.0111400939906,0.0138167226222095,0.006011,-0.074650,-0.020885,0.322170,-3.466330,331.574191,18.060924,0.998576,0.970102,0.006857,0.403975,0.001445,0.001155,-0.000176,0.001528,0.001072,-25.263502,0.002614,
2191,2233,-1.3986729127512,-9.06132823964588,-0.00644593211166011,0.001076,-0.067620,-0.015455,0.073828,-3.125071,327.529613,20.768467,0.998327,0.981042,0.005699,0.396512,0.000613,0.000655,0.000034,0.000674,0.000594,60.853540,0.001268,
2461,3223,4.30163164786752,12.5172492881101,0.0313690931844235,0.007611,-0.066179,0.006950,0.295842,-2.999226,311.842149,23.199016,0.999485,0.991006,0.003790,0.422519,0.000039,0.000013,0.000014,0.000045,0.000007,23.392799,0.000056,
2506,2098,5.51162786424612,-12.0290032020367,0.00741516892855998,0.006230,-0.071668,-0.017441,0.320788,-3.300180,330.109638,18.609836,0.999334,0.985971,0.004992,0.303967,0.001133,0.001150,-0.000219,0.001360,0.000922,-46.111951,0.002296,
2146,2023,-2.34850570280301,-13.6677707663427,0.00281823606479747,-0.002906,-0.071414,-0.020414,-0.095734,-3.307657,330.967305,20.620430,0.997446,0.979885,0.005940,0.422583,0.001124,0.001073,0.000032,0.001139,0.001058,25.488155,0.002198,
2086,3103,-3.81740417264881,9.88484211578865,0.0283254657468319,0.006764,-0.064515,0.007377,0.268703,-2.918715,314.334716,21.397279,0.999733,0.993328,0.003246,0.442356,0.000007,0.000011,-0.000014,0.000023,-0.000005,-49.339563,0.000024,
2221,2383,-0.770406751620438,-5.77911519914422,-0.0173290006945876,0.002367,-0.066923,-0.008758,0.112463,-3.064656,324.976701,20.827248,0.999339,0.987790,0.004520,0.466242,0.000334,0.000308,0.000009,0.000337,0.000305,17.805554,0.000642,
2131,3088,-2.83891276859798,9.56239801106538,0.0334241744590145,0.006720,-0.064708,0.007182,0.265629,-2.926071,314.406697,21.559993,0.999797,0.995585,0.003089,0.440157,0.000014,0.000015,-0.000012,0.000026,0.000002,-46.270405,0.000032,
2401,2818,3.07100951486656,3.71455090335881,-0.0137435867567319,0.005377,-0.066925,0.006650,0.195592,-3.001178,317.899303,21.660841,0.999459,0.988807,0.004353,0.449718,0.000039,0.000032,0.000018,0.000053,0.000017,39.293496,0.000073,
2356,2593,2.13333539603508,-1.19027988108003,-0.0198255654575519,0.004084,-0.067026,-0.002269,0.168863,-3.032002,321.457816,21.015180,0.999119,0.986795,0.004603,0.431292,0.000154,0.000105,0.000024,0.000164,0.000095,22.161202,0.000262,
2386,2728,2.76145910957505,1.75408620856585,-0.0193272754937084,0.004958,-0.066558,0.001702,0.194622,-3.008264,319.305385,21.372128,0.999522,0.990283,0.003957,0.456113,0.000060,0.000068,0.000026,0.000090,0.000038,49.212489,0.000132,
2491,2023,5.20011669461182,-13.6813395361832,0.0226467805728134,0.005791,-0.073928,-0.020525,0.311082,-3.431460,331.394243,18.203139,0.998838,0.970933,0.006561,0.358860,0.001398,0.001171,-0.000192,0.001507,0.001061,-29.675999,0.002581,
2236,2443,-0.45347255956629,-4.46619292408283,-0.0142477741099469,0.003180,-0.066673,-0.003172,0.131827,-3.032887,324.016549,21.052748,0.999534,0.990980,0.004123,0.314623,0.000251,0.000214,-0.000008,0.000253,0.000213,-11.723668,0.000466,
2071,3058,-4.13576924938991,8.90838575921832,0.0172986296350928,0.006984,-0.064559,0.006263,0.282523,-2.914798,315.069685,21.326131,0.999258,0.991476,0.003673,0.472468,0.000017,0.000007,-0.000018,0.000031,-0.000007,-37.338801,0.000033,
2056,3028,-4.45742136499513,8.257712754952,0.00719013780769728,0.006332,-0.064080,0.005148,0.256172,-2.910684,315.531251,21.320247,0.999375,0.991144,0.003839,0.444128,0.000017,0.000000,-0.000020,0.000030,-0.000013,-33.157513,0.000030,
2251,2518,-0.140076801447034,-2.82865759195219,-0.0188191093115506,0.003432,-0.065911,-0.003134,0.143431,-2.983210,322.746074,21.043460,0.999100,0.985625,0.004765,0.456508,0.000189,0.000160,0.000004,0.000190,0.000159,7.932012,0.000349,
2416,2878,3.38620207634811,5.02151641088967,-0.0137253603712679,0.005690,-0.066421,0.004562,0.217334,-2.997315,316.958865,21.893802,0.999398,0.990001,0.003928,0.425890,0.000033,0.000029,0.000022,0.000053,0.000009,41.820639,0.000067,
2071,2818,-4.10133032557108,3.70024535139738,-0.0199042855627454,0.005256,-0.064001,-0.001056,0.223961,-2.907342,318.604736,21.396022,0.999346,0.990223,0.004139,0.469701,0.000046,0.000023,-0.000015,0.000053,0.000016,-26.274996,0.000072,
2191,2038,-1.36779274761819,-13.3385353209861,-0.00453534479458995,-0.001190,-0.071754,-0.020967,-0.014187,-3.339008,330.596476,20.394956,0.998967,0.984727,0.005032,0.329613,0.001049,0.001059,0.000004,0.001060,0.001048,71.227312,0.002109,
2041,2953,-4.77184579966554,6.62974971784972,-0.000314976715969806,0.005707,-0.064177,0.002445,0.235352,-2.911684,316.756676,21.315286,0.999430,0.992291,0.003525,0.442981,0.000015,-0.000020,-0.000026,0.000029,-0.000034,-28.034221,0.000036,
2086,2908,-3.78880880068611,5.65568390211345,-0.00569923890856217,0.005931,-0.064452,0.003493,0.241552,-2.916048,317.199594,21.430912,0.999381,0.991432,0.003886,0.433879,0.000022,0.000012,-0.000025,0.000042,-0.000009,-39.516553,0.000044,
2326,2368,1.52185889302913,-6.10643016095145,-0.0171881329995927,0.003365,-0.067092,-0.011293,0.167098,-3.092447,325.129055,20.449335,0.999116,0.985059,0.004846,0.437650,0.000384,0.000350,-0.000009,0.000387,0.000348,-14.024614,0.000735,
2266,2398,0.207467346138134,-5.4496080530572,-0.0216916251466159,0.002768,-0.066740,-0.009105,0.132163,-3.047092,324.627982,20.766453,0.998675,0.984181,0.005166,0.425544,0.000317,0.000293,0.000002,0.000317,0.000293,5.900654,0.000610,
2461,3238,4.29898150852701,12.8426624397688,0.0326473639966594,0.007929,-0.066522,0.007597,0.307953,-3.010741,311.618648,23.269856,0.999761,0.993682,0.003241,0.393112,0.000037,0.000013,0.000009,0.000039,0.000010,17.777022,0.000052,
2101,2998,-3.47735860061197,7.6102356729837,0.00255404452946095,0.005961,-0.064507,0.003859,0.241412,-2.928981,315.728588,21.492535,0.999591,0.992612,0.003480,0.391943,0.000019,0.000002,-0.000012,0.000025,-0.000005,-28.083230,0.000027,
2026,2938,-5.09524059107085,6.30318928109992,0.00283050317176503,0.005513,-0.064829,0.009598,0.206830,-2.927591,317.090707,21.324314,0.999205,0.990362,0.003991,0.392529,0.000012,-0.000003,-0.000019,0.000025,-0.000017,-34.090057,0.000025,
2311,2368,1.19431385303504,-6.10670514935969,-0.0165630325184338,0.003088,-0.067401,-0.007813,0.142340,-3.069342,325.117259,20.469004,0.999517,0.987886,0.004379,0.492561,0.000374,0.000340,-0.000012,0.000378,0.000336,-17.864450,0.000714,
2026,2743,-5.06782372506956,2.0677015503623,-0.0229373966666913,0.004449,-0.064608,0.004961,0.170697,-2.918265,320.004985,21.406294,0.999383,0.989054,0.004188,0.450141,0.000040,0.000016,0.000000,0.000040,0.000016,0.362036,0.000058,
2011,3163,-5.45092382422081,11.1787601317953,0.0505302208345597,0.006851,-0.064392,0.012367,0.261767,-2.894449,313.975401,21.094272,0.999462,0.993644,0.003442,0.429876,-0.000006,0.000060,-0.000034,0.000074,-0.000020,-67.106918,0.000076,
2086,3118,-3.81973681564407,10.2100577753622,0.0295184322510522,0.006760,-0.064523,0.007042,0.269449,-2.919531,314.100597,21.402534,0.999712,0.993582,0.003168,0.434356,0.000004,0.000017,-0.000015,0.000027,-0.000006,-56.199922,0.000029,
2206,2113,-1.05225232108242,-11.6941798622942,0.000442526781398556,-0.000433,-0.070209,-0.017103,0.009271,-3.260424,329.414351,20.364948,0.998572,0.982158,0.005321,0.438213,0.000868,0.000974,0.000014,0.000976,0.000867,82.626310,0.001843,
2506,2113,5.50835493605727,-11.7014991055771,0.0115387117680257,0.006060,-0.071865,-0.013419,0.297472,-3.295010,329.879165,18.550737,0.999339,0.985378,0.005141,0.432250,0.001092,0.001099,-0.000213,0.001308,0.000882,-45.524791,0.002205,
2281,2668,0.487020351980476,0.444334804710223,-0.0226289446155192,0.004793,-0.066113,-0.000971,0.198394,-3.002946,320.288124,21.372674,0.999637,0.990866,0.003979,0.334986,0.000089,0.000079,0.000007,0.000093,0.000075,27.961076,0.000168,
2176,2128,-1.71072693305536,-11.3638731550534,-0.000648930884324272,-0.001492,-0.070785,-0.010570,-0.060300,-3.246266,329.181874,20.629201,0.998595,0.979249,0.005767,0.381088,0.000858,0.000931,0.000044,0.000952,0.000837,64.803078,0.001790,
2341,2518,1.8208029000151,-2.82744178903971,-0.0153588854591931,0.003789,-0.066476,-0.003276,0.159153,-3.019933,322.702121,20.865731,0.998903,0.982912,0.004897,0.423168,0.000216,0.000167,0.000014,0.000219,0.000164,14.764516,0.000384,
2266,2623,0.167708362448217,-0.53848523630878,-0.0214247016481295,0.004064,-0.066822,0.003892,0.148788,-3.001003,321.001813,21.166130,0.999259,0.987625,0.004448,0.471869,0.000116,0.000078,0.000013,0.000120,0.000074,16.701003,0.000196,
2041,2728,-4.73958740940546,1.74292414357866,-0.0294216469030744,0.004894,-0.064158,0.000151,0.204305,-2.904878,320.135566,21.434180,0.999298,0.989704,0.003943,0.447785,0.000042,0.000014,0.000003,0.000043,0.000014,6.698219,0.000059,
2116,3268,-3.19272082296931,13.4622717905055,0.0350016801751849,0.007793,-0.064610,0.006074,0.319016,-2.932722,311.597073,21.547983,0.999674,0.995450,0.002927,0.417131,0.000003,0.000027,-0.000031,0.000049,-0.000018,-55.674284,0.000049,
2251,2293,-0.100667108333436,-7.74778559258906,-0.00987020328994959,0.001891,-0.067076,-0.012401,0.102532,-3.080252,326.419163,20.575891,0.999029,0.982754,0.005173,0.452977,0.000491,0.000483,0.000009,0.000496,0.000477,33.322819,0.000974,
2011,2623,-5.37654370383681,-0.543670260802138,-0.0296705608963634,0.003406,-0.064162,-0.001170,0.139900,-2.916380,321.956300,21.491708,0.999453,0.990961,0.003959,0.454959,0.000128,0.000015,0.000022,0.000133,0.000010,10.791673,0.000159,
2371,2638,2.45176613590467,-0.20757052032836,-0.0232012302388398,0.004863,-0.066504,0.000910,0.193366,-3.004292,320.726984,21.137592,0.999041,0.987076,0.004528,0.443988,0.000123,0.000094,0.000008,0.000125,0.000092,14.722229,0.000218,
2116,2998,-3.1514741749342,7.60998465089435,0.0108476728239566,0.006102,-0.064896,0.006622,0.239291,-2.924749,315.725630,21.473247,0.999447,0.992053,0.003606,0.457515,0.000023,0.000004,-0.000013,0.000029,-0.000003,-26.562983,0.000032,
2146,3163,-2.52517005585483,11.1894148067876,0.0409716604247592,0.007430,-0.064909,0.010232,0.288585,-2.923589,313.205299,21.651374,0.999542,0.991256,0.003729,0.440624,0.000008,0.000029,-0.000017,0.000039,-0.000001,-60.551403,0.000044,
2221,2173,-0.73456280635925,-10.3778016946037,-0.00127737838641906,0.000223,-0.068356,-0.019501,0.047908,-3.179107,328.434643,20.427124,0.998658,0.983082,0.005357,0.456155,0.000732,0.000825,0.000023,0.000830,0.000727,76.992785,0.001558,
2491,2038,5.19713143187849,-13.351957885387,0.0216221579242415,0.005893,-0.073073,-0.021584,0.320175,-3.400525,331.152899,18.204477,0.998664,0.971192,0.006747,0.450962,0.001339,0.001157,-0.000182,0.001452,0.001044,-31.726727,0.002507,
2461,3253,4.29512167477231,13.1680901822521,0.0288256252015344,0.007768,-0.066625,0.012027,0.283837,-3.001248,311.315864,23.296260,0.999744,0.993518,0.003211,0.429134,0.000037,0.000014,0.000004,0.000037,0.000013,9.875775,0.000052,
2221,2398,-0.77251398006057,-5.45002849319188,-0.0134689274827338,0.002619,-0.066527,-0.008259,0.122552,-3.035687,324.775668,20.978234,0.999548,0.990789,0.004001,0.364828,0.000319,0.000277,0.000005,0.000319,0.000276,7.248626,0.000596,
2101,3238,-3.511928354329,12.8100029172072,0.0490615284725777,0.007960,-0.064873,0.009567,0.316819,-2.935423,312.275347,21.436949,0.999628,0.993944,0.003195,0.444041,-0.000003,0.000033,-0.000033,0.000053,-0.000022,-59.268114,0.000053,
2206,2323,-1.08633693323174,-7.09222350217603,-0.00690289363376451,0.001900,-0.066855,-0.013335,0.105483,-3.095556,326.064079,20.798313,0.998773,0.985034,0.004794,0.438740,0.000436,0.000394,0.000020,0.000444,0.000386,21.764984,0.000831,
2296,2758,0.797056346081938,2.40441724664893,-0.0276374922549394,0.005230,-0.065906,-0.000674,0.217403,-2.996123,318.784967,21.429815,0.999368,0.989150,0.004179,0.459462,0.000049,0.000052,0.000018,0.000068,0.000032,47.074269,0.000103,
2041,2968,-4.77384239921318,6.9545952478044,0.00207836808527873,0.005835,-0.064022,0.001468,0.243890,-2.930323,316.541519,21.273928,0.999418,0.992351,0.003489,0.457541,0.000014,-0.000023,-0.000030,0.000031,-0.000040,-29.202096,0.000042,
2146,2038,-2.35114309069585,-13.3380915889839,-0.00199264151524403,-0.002861,-0.071398,-0.021214,-0.091271,-3.330877,330.691111,20.657440,0.998451,0.982082,0.005513,0.373930,0.001086,0.001034,0.000030,0.001100,0.001020,24.251761,0.002120,
2161,2083,-2.02987661585462,-12.3505803325834,0.00833961270240025,-0.001968,-0.070323,-0.017772,-0.060008,-3.272465,330.030300,20.745106,0.998977,0.983535,0.005338,0.285070,0.000970,0.001014,0.000039,0.001036,0.000947,59.802230,0.001984,
2506,2128,5.50442722955461,-11.3723397104868,0.00806742270810901,0.005724,-0.072256,-0.011415,0.274246,-3.302655,329.584761,18.578162,0.999314,0.984020,0.005325,0.461578,0.001050,0.001048,-0.000211,0.001260,0.000839,-44.843988,0.002112,
2071,2833,-4.10360191428032,4.02576988193746,-0.00742821291180462,0.005035,-0.064835,0.006377,0.192226,-2.928836,318.433875,21.461399,0.999431,0.990963,0.003822,0.379137,0.000043,0.000017,-0.000019,0.000053,0.000007,-27.694072,0.000065,
2281,2443,0.526732578363177,-4.46830405881794,-0.0114218218997166,0.003094,-0.067629,-0.001036,0.119917,-3.082153,323.953425,20.754126,0.999441,0.988412,0.004496,0.443578,0.000271,0.000216,0.000002,0.000271,0.000216,2.033466,0.000488,
2446,3088,4.00119356980866,9.58664051125565,0.0200212184942643,0.007124,-0.066357,0.006711,0.274635,-3.001383,313.910915,22.713624,0.999648,0.992958,0.003575,0.371416,0.000029,0.000020,0.000037,0.000062,-0.000014,41.604425,0.000065,
2056,3043,-4.45966477588039,8.58243574577386,0.0149992784836286,0.006420,-0.065009,0.012397,0.239544,-2.922795,315.335830,21.316223,0.999633,0.993987,0.003335,0.429818,0.000013,-0.000006,-0.000024,0.000029,-0.000023,-34.376133,0.000031,
2401,2833,3.06780266904891,4.04230178322673,-0.0218962477255218,0.005483,-0.066237,0.003389,0.212498,-2.999186,317.602804,21.756785,0.999262,0.987645,0.004400,0.401219,0.000032,0.000034,0.000017,0.000050,0.000015,47.088305,0.000069,
2026,2953,-5.0964917934052,6.62890915482356,0.00386982471684405,0.005986,-0.064033,0.000977,0.252573,-2.915921,316.900756,21.318990,0.999388,0.991345,0.003722,0.399315,0.000014,-0.000025,-0.000023,0.000025,-0.000036,-24.487380,0.000037,
2326,2383,1.51837617345089,-5.77779389591952,-0.015097825362659,0.002883,-0.067454,-0.006376,0.127952,-3.092355,324.864296,20.567923,0.999375,0.986647,0.004784,0.355366,0.000367,0.000331,-0.000007,0.000368,0.000330,-11.002352,0.000698,
2056,2788,-4.42295838988499,3.04764011553512,-0.0222432679101985,0.004877,-0.064635,0.002494,0.196469,-2.937183,319.127918,21.430307,0.999090,0.988180,0.004324,0.400566,0.000032,0.000030,-0.000018,0.000049,0.000013,-43.903887,0.000065,
2206,2128,-1.054689989337,-11.3648850005715,0.000575629960451352,-0.000352,-0.069761,-0.017275,0.013672,-3.233323,329.178253,20.406128,0.998567,0.981099,0.005484,0.443936,0.000831,0.000944,0.000018,0.000946,0.000828,81.161681,0.001776,
2386,2743,2.75842523250889,2.08087334680162,-0.0218139654404581,0.004498,-0.065956,-0.004842,0.197203,-3.017782,319.043002,21.406225,0.999590,0.990738,0.003918,0.455918,0.000055,0.000065,0.000028,0.000088,0.000032,50.467513,0.000124,
2491,2053,5.19217786336897,-13.0190074315218,-0.0026281171913638,0.006025,-0.073461,-0.022499,0.329660,-3.463736,330.717499,18.371663,0.998734,0.976452,0.006162,0.283638,0.001291,0.001163,-0.000179,0.001417,0.001037,-35.152688,0.002464,
2296,2533,0.835839855992209,-2.50079984060198,-0.037742846263086,0.003652,-0.066696,-0.001635,0.147688,-3.042012,322.286019,20.830929,0.999625,0.992946,0.003640,0.554822,0.000190,0.000140,0.000003,0.000191,0.000140,3.296749,0.000331,
2011,3088,-5.44000080060642,9.55381872205765,0.0352083757784953,0.006795,-0.064437,0.006495,0.275097,-2.911142,315.084024,21.130144,0.999523,0.994538,0.003198,0.442619,-0.000005,0.000019,-0.000010,0.000022,-0.000008,-69.523043,0.000023,
2191,2053,-1.37115190723965,-13.0098537289246,-0.00520879153975784,-0.001788,-0.071644,-0.017790,-0.051450,-3.336138,330.313095,20.368571,0.998752,0.981540,0.005444,0.377066,0.001015,0.001056,0.000012,0.001059,0.001012,74.571837,0.002071,
2416,2893,3.3837852724442,5.34793156533261,-0.0130783441618973,0.006017,-0.066324,0.002660,0.239368,-3.002570,316.741399,21.957960,0.999461,0.990091,0.003939,0.403994,0.000032,0.000027,0.000023,0.000053,0.000006,41.860451,0.000065,
2356,2608,2.13119030569033,-0.863703621201708,-0.0146436593009298,0.004561,-0.066950,0.000118,0.182386,-3.018211,321.271170,21.029159,0.999038,0.986068,0.004696,0.470880,0.000140,0.000092,0.000020,0.000147,0.000085,19.759020,0.000235,
2101,3013,-3.47921081446667,7.93471462152564,0.00616342996852381,0.006386,-0.064608,0.005046,0.257479,-2.934839,315.530810,21.425868,0.999315,0.991391,0.003689,0.453231,0.000021,0.000008,-0.000011,0.000027,0.000002,-29.685357,0.000033,
2131,3103,-2.84136453985993,9.88732036311578,0.0362455473177192,0.006709,-0.065079,0.009191,0.258996,-2.929438,314.178983,21.547809,0.999773,0.995744,0.002987,0.453772,0.000009,0.000012,-0.000011,0.000022,-0.000001,-49.465530,0.000025,
2086,3133,-3.8216358480162,10.5351372455691,0.0337905232546518,0.007008,-0.064348,0.006897,0.281348,-2.916201,313.903244,21.413778,0.999687,0.993111,0.003190,0.424561,0.000008,0.000020,-0.000019,0.000033,-0.000006,-54.003908,0.000036,
2191,2248,-1.40105123909491,-8.73345278605883,-0.00774237294513114,0.001157,-0.067532,-0.017564,0.084176,-3.139537,327.287837,20.749441,0.998371,0.981722,0.005552,0.417863,0.000585,0.000615,0.000037,0.000640,0.000560,56.410789,0.001201,
2116,3283,-3.19546447813851,13.7868594024893,0.0350562237701979,0.007818,-0.064575,0.010427,0.307271,-2.922896,311.340249,21.519766,0.999693,0.995198,0.003036,0.457033,0.000002,0.000038,-0.000031,0.000056,-0.000016,-60.109746,0.000058,
2236,2263,-0.42286181062067,-8.40506165952075,-0.00185091386606473,0.001161,-0.068001,-0.008827,0.056990,-3.092622,326.953963,20.605816,0.998940,0.982184,0.005433,0.425887,0.000546,0.000567,0.000021,0.000580,0.000533,57.947801,0.001114,
2236,2458,-0.456356014994039,-4.14009849371309,-0.00629065219021641,0.002670,-0.067182,0.001423,0.093395,-3.029596,323.802491,21.012580,0.999376,0.989142,0.004406,0.380181,0.000240,0.000201,-0.000005,0.000241,0.000201,-6.597372,0.000442,
2011,3178,-5.4526205040336,11.5036203357572,0.0491367142729473,0.007273,-0.064086,0.007657,0.294053,-2.907363,313.751105,21.075257,0.999690,0.995197,0.002871,0.422700,-0.000006,0.000066,-0.000039,0.000083,-0.000023,-66.563240,0.000086,
2101,3253,-3.51480741600368,13.1357731397344,0.049698708781591,0.007726,-0.064656,0.013007,0.296096,-2.903891,312.013983,21.490656,0.999678,0.995038,0.002995,0.421595,-0.000003,0.000030,-0.000033,0.000051,-0.000024,-57.886379,0.000051,
2086,2923,-3.79152415611163,5.98139878684389,-0.00481786176294463,0.005734,-0.064741,0.006257,0.224368,-2.923868,316.945908,21.437323,0.999330,0.990360,0.003932,0.418259,0.000026,0.000009,-0.000021,0.000040,-0.000006,-34.354264,0.000043,
2431,2983,3.69335743968887,7.30405120322891,0.0021095649051972,0.006164,-0.066479,0.007568,0.227648,-3.001210,315.407805,22.201578,0.999591,0.990830,0.003841,0.484378,0.000016,0.000006,0.000028,0.000039,-0.000017,39.806732,0.000040,
2281,2683,0.4846168218189,0.770194679313505,-0.0225757168971654,0.005199,-0.066127,0.000526,0.212101,-2.989516,320.059018,21.299543,0.999590,0.991218,0.003872,0.449545,0.000084,0.000079,0.000006,0.000088,0.000075,33.953566,0.000163,
2311,2383,1.19227955968927,-5.77948221602331,-0.00631588714395548,0.003047,-0.067322,-0.007707,0.140120,-3.064779,324.958008,20.532037,0.999163,0.985629,0.004939,0.467537,0.000356,0.000321,-0.000009,0.000358,0.000319,-13.045940,0.000677,
2071,3073,-4.13848301681584,9.23327687242764,0.0222165182642584,0.006448,-0.064793,0.007720,0.253578,-2.921933,314.837594,21.320640,0.999320,0.990842,0.003818,0.466832,0.000013,0.000015,-0.000015,0.000029,-0.000001,-47.338346,0.000033,
2161,3208,-2.20731938910685,12.1652483122181,0.0452089967370171,0.007268,-0.065011,0.008495,0.285767,-2.946238,312.444256,21.721044,0.999625,0.993461,0.003259,0.441074,0.000011,0.000040,-0.000020,0.000050,0.000001,-63.049529,0.000058,
2041,2983,-4.77580433840089,7.28026267620871,0.0100587324243975,0.006101,-0.064376,0.007704,0.238792,-2.905454,316.358658,21.306906,0.999211,0.991658,0.003731,0.441178,0.000007,-0.000030,-0.000029,0.000023,-0.000046,-28.704254,0.000046,
2251,2308,-0.103092773703121,-7.41989384221143,-0.00761080965713745,0.001828,-0.067132,-0.013976,0.104751,-3.092614,326.198241,20.614029,0.998483,0.979225,0.005650,0.427732,0.000462,0.000452,0.000012,0.000470,0.000444,34.666627,0.000914,
2056,2803,-4.42503194830997,3.37401666514177,-0.0233056363734931,0.005348,-0.064756,0.004846,0.211524,-2.920252,318.890396,21.424244,0.999136,0.989571,0.004189,0.418169,0.000037,0.000023,-0.000015,0.000047,0.000014,-32.351941,0.000063,
2041,2743,-4.74247090153149,2.06856108187756,-0.0261718184423216,0.004404,-0.064723,0.004976,0.168161,-2.912239,319.883918,21.401059,0.999422,0.990354,0.003947,0.466170,0.000035,0.000018,-0.000001,0.000035,0.000018,-4.953689,0.000054,
2116,3298,-3.19798277277745,14.1119873611802,0.0313553493170389,0.008049,-0.064464,0.010679,0.317224,-2.917407,311.073295,21.529084,0.999598,0.993082,0.003486,0.455152,0.000005,0.000053,-0.000034,0.000070,-0.000012,-62.652680,0.000075,
2266,2638,0.165527050697424,-0.210796570374981,-0.0246463376009274,0.004508,-0.065941,-0.000098,0.182709,-2.986174,320.764945,21.217430,0.999114,0.986858,0.004491,0.461750,0.000109,0.000079,0.000009,0.000111,0.000076,16.156312,0.000189,
2341,2533,1.81808110011234,-2.50028103732147,-0.0163944509234852,0.004019,-0.066691,-0.002466,0.166808,-3.032478,322.458072,20.881510,0.999102,0.984602,0.004754,0.432425,0.000203,0.000139,0.000013,0.000205,0.000136,11.350462,0.000344,
2386,2758,2.75537992591889,2.40787154366093,-0.0243005591218548,0.005163,-0.066539,0.003000,0.199360,-3.019854,318.779958,21.457140,0.999286,0.988083,0.004252,0.446291,0.000054,0.000059,0.000027,0.000084,0.000029,47.684128,0.000118,
2056,3058,-4.46180826010946,8.90812151043105,0.0154267734417317,0.006505,-0.064756,0.010539,0.248778,-2.912592,315.103865,21.333430,0.999485,0.992662,0.003551,0.416363,0.000009,0.000007,-0.000021,0.000029,-0.000012,-43.660447,0.000029,
2011,2638,-5.37906200379833,-0.21633742527559,-0.036285215505643,0.003437,-0.064095,-0.002452,0.144826,-2.925815,321.663308,21.501554,0.999030,0.986080,0.004594,0.424322,0.000117,0.000032,0.000035,0.000130,0.000019,19.607241,0.000162,
2461,3268,4.29027920939771,13.4942341468679,0.00937906842096936,0.007653,-0.066943,0.013290,0.273646,-3.018949,310.895640,23.333983,0.999765,0.993786,0.003101,0.426680,0.000033,0.000000,-0.000005,0.000034,-0.000001,-8.905962,0.000039,
2251,2533,-0.143544533633968,-2.50025399319686,-0.0281125370024142,0.003390,-0.066274,-0.001668,0.136574,-3.009330,322.418460,21.111783,0.999502,0.990998,0.003931,0.386738,0.000177,0.000138,0.000002,0.000177,0.000138,3.511763,0.000316,
2011,3103,-5.44193058627427,9.87897408369057,0.0391497755791193,0.007005,-0.064400,0.007685,0.281709,-2.882765,314.878767,21.111946,0.999505,0.994331,0.003207,0.476288,-0.000009,0.000016,-0.000014,0.000022,-0.000016,-65.548391,0.000023,
2266,2413,0.20528624200151,-5.12384812180094,-0.00757102007480626,0.002510,-0.067219,-0.005206,0.107261,-3.057914,324.479069,20.756119,0.998961,0.985557,0.004858,0.451702,0.000299,0.000271,0.000000,0.000299,0.000271,-0.176961,0.000570,
2506,2143,5.50088997345724,-11.0413459889541,0.00956368585121936,0.005280,-0.071119,-0.010389,0.250566,-3.262749,329.329899,18.784931,0.998762,0.974873,0.006235,0.359114,0.001005,0.001011,-0.000197,0.001205,0.000811,-45.483594,0.002029,
2026,2968,-5.09859438593775,6.95403256317741,0.00751822433335292,0.006077,-0.063921,0.002779,0.251831,-2.915359,316.686627,21.292126,0.999422,0.991618,0.003596,0.416610,0.000013,-0.000029,-0.000027,0.000026,-0.000042,-25.757892,0.000042,
2011,3193,-5.45487081750444,11.8288144937859,0.0469001225577017,0.007441,-0.063869,0.007124,0.303330,-2.901124,313.496549,21.067063,0.999706,0.995053,0.002826,0.424130,-0.000004,0.000062,-0.000042,0.000083,-0.000025,-64.053140,0.000085,
2146,2053,-2.35306699673962,-13.0099009809539,0.00409228057418431,-0.002678,-0.071312,-0.019700,-0.087420,-3.324076,330.505049,20.656661,0.998424,0.982377,0.005405,0.392515,0.001047,0.001026,0.000037,0.001075,0.000998,37.161323,0.002073,
2371,2653,2.44831378087567,0.119720040037691,-0.0260071609647525,0.004678,-0.066648,0.003224,0.176600,-3.009366,320.442855,21.182432,0.999136,0.986743,0.004629,0.435600,0.000110,0.000089,0.000010,0.000114,0.000085,21.358072,0.000200,
2191,2068,-1.37412486707666,-12.6809553639749,-0.01476240888951,-0.001797,-0.071606,-0.020576,-0.043162,-3.364086,330.001517,20.299546,0.999102,0.983252,0.005409,0.436429,0.000982,0.001043,0.000019,0.001049,0.000977,74.243015,0.002026,
2026,2998,-5.10286778719314,7.60479635508513,0.0143515554954661,0.006278,-0.064238,0.007191,0.248897,-2.910212,316.252547,21.289633,0.999269,0.992120,0.003643,0.402888,-0.000002,-0.000017,-0.000023,0.000014,-0.000033,-36.342318,0.000034,
2101,3028,-3.48146475690332,8.26016251043747,0.00977682593685358,0.006421,-0.064485,0.006358,0.255337,-2.919675,315.314270,21.431033,0.999187,0.991189,0.003784,0.463713,0.000025,0.000007,-0.000010,0.000029,0.000003,-23.746922,0.000036,
2356,2623,2.12757274413024,-0.53562130490036,-0.0173690342469968,0.004033,-0.066490,0.000590,0.156688,-2.991745,320.978446,21.105340,0.998912,0.985960,0.004749,0.460602,0.000130,0.000090,0.000013,0.000134,0.000086,16.779227,0.000221,
2116,3013,-3.1534311861393,7.93472335684471,0.018599850138628,0.006233,-0.065116,0.008645,0.239248,-2.926048,315.546217,21.453498,0.998811,0.988449,0.004295,0.478778,0.000023,0.000010,-0.000012,0.000030,0.000003,-30.137307,0.000037,
2086,2938,-3.7928716738848,6.30641292301274,0.00469530960890552,0.006063,-0.064401,0.004329,0.245229,-2.912309,316.802203,21.424923,0.999284,0.990595,0.003933,0.440615,0.000023,0.000004,-0.000021,0.000036,-0.000010,-32.663907,0.000037,
2176,2143,-1.7123906115935,-11.0350864554197,0.00481553773448695,-0.000914,-0.070058,-0.008599,-0.039645,-3.201731,329.006343,20.668807,0.998107,0.978881,0.005917,0.400654,0.000818,0.000881,0.000052,0.000910,0.000789,60.564270,0.001701,
2326,2398,1.51667116138651,-5.45214106944473,-0.00140977717228452,0.002936,-0.067326,-0.006068,0.129366,-3.092442,324.738045,20.529222,0.999333,0.986635,0.004832,0.429459,0.000347,0.000317,-0.000009,0.000349,0.000314,-15.494772,0.000664,
2491,2068,5.18786468865484,-12.6885889515165,-0.00578398521571444,0.005386,-0.073110,-0.018850,0.286662,-3.402351,330.405309,18.426678,0.999155,0.978490,0.005876,0.353017,0.001245,0.001174,-0.000185,0.001398,0.001022,-39.563286,0.002430,
2206,2338,-1.08968989319137,-6.76287121082834,-0.00841179435275308,0.001562,-0.066899,-0.008309,0.074062,-3.067236,325.777312,20.901369,0.999345,0.988169,0.004494,0.382712,0.000411,0.000371,0.000015,0.000416,0.000366,18.893779,0.000783,
2161,3223,-2.20941771374868,12.4899001570543,0.0504854913198187,0.007481,-0.065231,0.010144,0.290452,-2.948901,312.247760,21.726389,0.999669,0.993879,0.003180,0.441802,0.000009,0.000037,-0.000022,0.000049,-0.000003,-61.246265,0.000055,
2041,2998,-4.77764647291919,7.60571142802932,0.0134930032673424,0.006360,-0.064528,0.007280,0.251906,-2.907573,316.156179,21.318787,0.999046,0.989749,0.004054,0.418743,0.000003,-0.000011,-0.000025,0.000022,-0.000030,-37.486382,0.000031,
2281,2458,0.524107070210768,-4.13957785783528,-0.00983945556390609,0.003178,-0.067091,0.000613,0.118485,-3.023080,323.721520,20.840341,0.999519,0.989506,0.004405,0.445825,0.000255,0.000201,0.000007,0.000256,0.000200,7.499359,0.000458,
2461,3283,4.2870771402865,13.8199859606975,0.00301741504546271,0.007820,-0.066584,0.011179,0.289426,-3.016603,310.611198,23.393120,0.999581,0.990812,0.003722,0.422690,0.000035,-0.000008,-0.000006,0.000035,-0.000009,-7.397509,0.000037,
2446,3103,3.99829347793485,9.91087964411582,0.0267228152961252,0.006817,-0.066592,0.008531,0.253612,-3.011659,313.700998,22.675771,0.999656,0.993049,0.003592,0.450013,0.000033,0.000020,0.000041,0.000068,-0.000015,40.271888,0.000072,
2296,2548,0.834132075773834,-2.17280591789171,-0.0235587716151713,0.003757,-0.066281,0.000045,0.146996,-3.011845,322.159736,21.021403,0.999164,0.988430,0.004452,0.424954,0.000179,0.000130,0.000010,0.000181,0.000128,11.225460,0.000311,
2206,2143,-1.05729156627752,-11.035094983676,0.000406547802242585,-0.000268,-0.069891,-0.015482,0.011793,-3.229596,328.933129,20.517929,0.999064,0.983809,0.005104,0.355577,0.000795,0.000887,0.000029,0.000896,0.000787,74.014567,0.001684,
2131,1993,-2.67212494089078,-14.3271809207391,0.00600861600969438,-0.004257,-0.072838,-0.020499,-0.158210,-3.403460,331.472210,20.696937,0.998349,0.978227,0.005948,0.333403,0.001223,0.001116,0.000055,0.001247,0.001093,22.850048,0.002341,
2401,2848,3.0656477849739,4.36753103844235,-0.0138727143755659,0.005723,-0.066401,0.004831,0.218250,-3.004208,317.431570,21.754433,0.999454,0.989253,0.004124,0.443972,0.000025,0.000028,0.000017,0.000044,0.000009,47.641403,0.000057,
2041,2758,-4.74413814882302,2.3937282744872,-0.0221430175801061,0.004728,-0.064612,0.003971,0.185916,-2.908289,319.692429,21.323559,0.999201,0.990126,0.004241,0.540007,0.000030,0.000005,-0.000010,0.000033,0.000001,-19.233412,0.000039,
2236,2278,-0.425807275666656,-8.07673241706638,-0.00668707255516665,0.001363,-0.068407,-0.006045,0.057098,-3.112080,326.672057,20.608400,0.999007,0.983160,0.005156,0.427447,0.000518,0.000520,0.000017,0.000536,0.000502,46.248867,0.001038,
2161,2098,-2.03150415460786,-12.021524925599,0.00244937358166908,-0.001047,-0.069426,-0.022084,-0.004386,-3.247967,329.795842,20.688783,0.999164,0.983839,0.005334,0.378999,0.000934,0.000991,0.000044,0.001015,0.000910,61.359784,0.001925,
2056,2818,-4.42718161981849,3.70007224253938,-0.0215558756917176,0.005356,-0.064396,0.003741,0.215149,-2.907106,318.665018,21.418490,0.999196,0.988897,0.004215,0.431563,0.000039,0.000020,-0.000017,0.000049,0.000010,-29.935040,0.000063,
2086,3148,-3.82351410089436,10.8597085684444,0.0419239573108143,0.007083,-0.064437,0.007516,0.283009,-2.915718,313.728137,21.407873,0.999737,0.994960,0.002986,0.428528,0.000010,0.000026,-0.000019,0.000039,-0.000003,-56.374830,0.000044,
2101,3268,-3.51720620048264,13.4605351645728,0.0465801545256568,0.007913,-0.064645,0.011768,0.308368,-2.913761,311.754700,21.475501,0.999743,0.995909,0.002866,0.426858,-0.000004,0.000026,-0.000034,0.000048,-0.000026,-56.861144,0.000048,
2416,2908,3.38076873238537,5.67333533350516,-0.0114919422850335,0.006109,-0.066873,0.006283,0.230060,-3.033241,316.500977,21.965499,0.999560,0.990595,0.003840,0.412866,0.000028,0.000018,0.000026,0.000050,-0.000004,39.827892,0.000055,
2011,2653,-5.38119277451038,0.110119175398331,-0.0385865452125813,0.003758,-0.064005,-0.001069,0.155857,-2.909042,321.412443,21.446726,0.998826,0.985918,0.004713,0.484661,0.000091,0.000033,0.000019,0.000096,0.000027,16.680616,0.000130,
2011,3208,-5.45672604536497,12.1537115222623,0.0477697419182732,0.007847,-0.063881,0.006996,0.322509,-2.885743,313.277756,21.044517,0.999563,0.993244,0.003284,0.448701,-0.000001,0.000061,-0.000046,0.000085,-0.000025,-62.258535,0.000088,
2011,3118,-5.44456524990843,10.2046365191832,0.0357286033524247,0.007025,-0.064213,0.010150,0.275820,-2.900988,314.599620,21.144414,0.999630,0.994822,0.003055,0.412505,-0.000005,0.000038,-0.000017,0.000044,-0.000011,-71.051056,0.000045,
2146,3178,-2.52754515826233,11.5139014816694,0.0468059632440259,0.007350,-0.065152,0.012591,0.277618,-2.934199,312.998264,21.642468,0.999444,0.990535,0.003760,0.445430,0.000007,0.000039,-0.000019,0.000048,-0.000001,-65.182436,0.000054,
2296,2773,0.794292236707026,2.73120003133609,-0.0228465056820824,0.004933,-0.065609,0.000406,0.200215,-2.976943,318.563473,21.500618,0.999339,0.987830,0.004346,0.437862,0.000044,0.000041,0.000014,0.000057,0.000028,41.344259,0.000087,
2026,2983,-5.10097309700762,7.27960769670999,0.00680292342576649,0.006201,-0.063982,0.005295,0.250621,-2.906000,316.435305,21.271776,0.999210,0.991657,0.003761,0.435747,0.000005,-0.000040,-0.000026,0.000017,-0.000052,-24.857440,0.000053,
2371,2668,2.445406007517,0.446194342753998,-0.023146163653962,0.004443,-0.066863,0.003590,0.164403,-3.030728,320.210988,21.220769,0.999302,0.987741,0.004542,0.417375,0.000098,0.000090,0.000012,0.000107,0.000082,34.975393,0.000189,
2071,3088,-4.14107411474207,9.55825536207867,0.0258764481528146,0.006288,-0.064927,0.011956,0.234049,-2.921287,314.604203,21.310706,0.999233,0.989965,0.003962,0.473262,0.000007,0.000013,-0.000016,0.000027,-0.000007,-50.350257,0.000028,
2131,3118,-2.84410802107218,10.2131409068502,0.0309320787177967,0.006761,-0.064903,0.008462,0.263598,-2.935701,313.894002,21.574124,0.999705,0.995331,0.003102,0.425770,0.000008,0.000017,-0.000011,0.000025,0.000000,-56.303519,0.000029,
2236,2473,-0.458550775032688,-3.81362140989742,-0.00711310888226535,0.002874,-0.066517,-0.002354,0.115199,-3.024611,323.575250,20.928309,0.999392,0.990534,0.004164,0.491902,0.000229,0.000185,-0.000001,0.000230,0.000185,-1.406096,0.000416,
2206,2353,-1.09207212721596,-6.4356732318023,-0.0104912119614369,0.001841,-0.066945,-0.008775,0.088330,-3.063869,325.532535,20.831902,0.999491,0.989228,0.004396,0.474180,0.000385,0.000345,0.000011,0.000388,0.000342,13.916279,0.000731,
2071,2848,-4.10649653955959,4.35313458378812,-0.0180015136077714,0.005117,-0.064377,0.005611,0.198419,-2.902048,318.107469,21.477825,0.999631,0.993189,0.003418,0.386102,0.000036,0.000007,-0.000026,0.000052,-0.000009,-30.669783,0.000055,
2281,2698,0.481908828627553,1.09653900893896,-0.0171369711219995,0.004858,-0.066336,0.001254,0.193893,-2.998628,319.842717,21.342103,0.999749,0.992776,0.003669,0.425985,0.000074,0.000074,0.000011,0.000085,0.000064,45.157525,0.000149,
2116,3028,-3.15591093237784,8.26064425525449,0.0182850737014633,0.006291,-0.064975,0.009511,0.239431,-2.913345,315.298967,21.477982,0.999254,0.990928,0.003842,0.469675,0.000026,0.000009,-0.000010,0.000031,0.000004,-24.951380,0.000039,
2056,3073,-4.46415975919063,9.23229954086137,0.0206429686921865,0.006104,-0.064762,0.008976,0.234706,-2.914958,314.889404,21.259256,0.999381,0.991339,0.003914,0.482095,0.000006,0.000015,-0.000016,0.000028,-0.000006,-52.664079,0.000029,
2191,2263,-1.40447547876522,-8.40413751521384,-0.013557300824516,0.000815,-0.067522,-0.015242,0.061234,-3.130111,326.974414,20.797545,0.998497,0.980682,0.005623,0.396422,0.000558,0.000563,0.000036,0.000596,0.000524,47.030547,0.001121,
2026,3013,-5.1052217623952,7.9311335679631,0.0120725273387166,0.006278,-0.063999,0.005565,0.253439,-2.906073,315.993395,21.341876,0.999500,0.992982,0.003556,0.344579,0.000000,-0.000008,-0.000018,0.000014,-0.000022,-39.128878,0.000023,
2356,2638,2.1257636399082,-0.208218307108346,-0.0152519871468826,0.004666,-0.065894,-0.002471,0.196738,-2.985865,320.792224,21.185530,0.999068,0.986473,0.004656,0.425669,0.000116,0.000094,0.000006,0.000118,0.000092,14.143367,0.000211,
2506,2158,5.49826907742829,-10.7119789853067,0.00823189172541561,0.005546,-0.070353,-0.014503,0.278935,-3.252690,329.104662,18.847681,0.998955,0.976057,0.005916,0.370327,0.000969,0.000936,-0.000222,0.001175,0.000730,-42.893801,0.001922,
2251,2323,-0.106143898217592,-7.09085205053293,-0.0115721167964011,0.002031,-0.067148,-0.009394,0.099073,-3.058887,325.916866,20.654461,0.998407,0.981903,0.005504,0.446655,0.000435,0.000411,0.000005,0.000436,0.000410,12.164664,0.000846,
2446,3118,3.99572067269668,10.2368877715051,0.0231631205203939,0.007184,-0.066377,0.004268,0.286535,-3.010024,313.458118,22.728115,0.999621,0.991388,0.003734,0.450494,0.000039,0.000026,0.000038,0.000071,-0.000006,39.952363,0.000079,
2431,2998,3.69111785189307,7.63065835609018,0.0066880358113508,0.006564,-0.066467,0.007985,0.244535,-2.993619,315.217333,22.325572,0.999270,0.984256,0.004649,0.417363,0.000017,0.000006,0.000034,0.000046,-0.000023,40.297922,0.000046,
2221,2413,-0.775074528614827,-5.12280365482284,-0.00929233344152181,0.002573,-0.066527,-0.005063,0.110263,-3.013893,324.555875,20.973610,0.999544,0.990609,0.004045,0.411656,0.000301,0.000250,0.000002,0.000301,0.000250,1.782614,0.000552,
2221,2188,-0.736858200159968,-10.0479391817587,-0.00574537933084684,0.000842,-0.067984,-0.019155,0.075346,-3.167646,328.182723,20.508866,0.998510,0.981037,0.005567,0.407309,0.000696,0.000787,0.000017,0.000790,0.000693,80.014891,0.001484,
2101,3043,-3.48352672950409,8.58542265510712,0.0185042963107662,0.006340,-0.065033,0.007901,0.246905,-2.941131,315.134376,21.492559,0.999491,0.992266,0.003574,0.381015,0.000022,0.000001,-0.000014,0.000029,-0.000006,-26.666841,0.000030,
2461,3298,4.28480537909879,14.1451653374601,0.00618214719094112,0.008240,-0.066314,0.010380,0.311979,-2.991172,310.413559,23.432117,0.999556,0.992337,0.003610,0.462251,0.000024,-0.000011,-0.000007,0.000025,-0.000012,-11.528185,0.000025,
2011,2668,-5.38295595341311,0.435935672710983,-0.0312579828195112,0.003854,-0.064133,-0.000083,0.157551,-2.917267,321.232719,21.443099,0.998922,0.986708,0.004512,0.468267,0.000073,0.000025,0.000021,0.000081,0.000018,20.500474,0.000105,
2266,2653,0.162790803694808,0.117121321410345,-0.0270461669863948,0.004678,-0.066004,0.000521,0.188470,-2.993777,320.506708,21.324261,0.999388,0.989106,0.004254,0.373427,0.000101,0.000072,0.000009,0.000103,0.000070,15.922465,0.000174,
2086,2953,-3.79555377517545,6.63230932166465,0.00184917901754034,0.005990,-0.064546,0.004744,0.240643,-2.913269,316.529678,21.422652,0.999237,0.991853,0.003810,0.440455,0.000024,-0.000010,-0.000023,0.000035,-0.000021,-26.728305,0.000035,
2176,2158,-1.7177098671948,-10.6988876408959,-0.0467833763311205,-0.000634,-0.068547,-0.014598,-0.007782,-3.179254,328.365139,20.801946,0.999086,0.959550,0.007079,0.307399,0.000784,0.000840,0.000054,0.000872,0.000752,58.691670,0.001625,
2311,2398,1.19134872391737,-5.45415633260537,0.0108126757347122,0.003440,-0.067256,-0.009547,0.164413,-3.080363,324.883508,20.510895,0.999066,0.986181,0.005076,0.506351,0.000338,0.000308,-0.000009,0.000340,0.000305,-16.129806,0.000646,
2326,2413,1.51301318124431,-5.12426205907819,-0.011306686325895,0.002816,-0.067189,-0.005886,0.123259,-3.112838,324.406936,20.493495,0.999338,0.986320,0.004861,0.481170,0.000325,0.000293,-0.000009,0.000327,0.000290,-14.056128,0.000618,
2191,2083,-1.37595560846176,-12.35023231263,-0.00796515257559349,-0.001569,-0.070626,-0.020468,-0.032740,-3.299554,329.825991,20.491552,0.999026,0.982524,0.005481,0.326361,0.000947,0.001024,0.000019,0.001029,0.000943,77.106944,0.001972,
2101,3283,-3.52043410185061,13.7854071755638,0.0367988147988854,0.007816,-0.064691,0.012353,0.302089,-2.924092,311.421103,21.438825,0.999693,0.996046,0.002844,0.452980,-0.000006,0.000039,-0.000034,0.000057,-0.000024,-61.688045,0.000057,
2041,3013,-4.78043307108039,7.93248758214188,0.00909042444516217,0.006230,-0.064103,0.008100,0.243718,-2.898295,315.866383,21.392492,0.999334,0.991060,0.003921,0.345859,0.000006,-0.000004,-0.000021,0.000023,-0.000021,-38.274055,0.000025,
2491,2083,5.18543515543354,-12.3596151944239,-0.00232764828353993,0.005430,-0.071894,-0.022691,0.303910,-3.371290,330.209276,18.458825,0.999188,0.977921,0.005760,0.413996,0.001196,0.001178,-0.000188,0.001375,0.000999,-43.600877,0.002384,
2041,2773,-4.74644676479079,2.72181868336234,-0.0304472509364473,0.004987,-0.063968,-0.000065,0.209229,-2.906921,319.402269,21.424173,0.998938,0.989206,0.004319,0.433393,0.000023,0.000025,-0.000013,0.000037,0.000011,-46.563649,0.000050,
2266,2428,0.202668273804846,-4.79472060078692,-0.0121441305751091,0.002911,-0.066490,-0.005008,0.125334,-3.013759,324.215528,20.825633,0.999093,0.986686,0.004690,0.453863,0.000285,0.000237,-0.000005,0.000285,0.000237,-5.692685,0.000523,
2416,2923,3.37822329281704,6.00019638683629,-0.0071138979029115,0.006181,-0.066582,0.006503,0.232723,-3.007956,316.294772,22.075187,0.999660,0.991452,0.003720,0.375885,0.000027,0.000016,0.000024,0.000045,-0.000003,38.593817,0.000051,
2506,2173,5.49565557671861,-10.3834667547264,0.00961597046784846,0.005920,-0.070216,-0.014677,0.296802,-3.258113,328.891906,18.882247,0.998456,0.974163,0.006222,0.393881,0.000913,0.000894,-0.000215,0.001119,0.000689,-43.693697,0.001824,
2161,3238,-2.21250086922644,12.8154497412822,0.0438494530397406,0.007408,-0.065207,0.010302,0.286640,-2.949357,311.942649,21.747919,0.999729,0.993921,0.003148,0.428360,0.000010,0.000029,-0.000025,0.000046,-0.000007,-55.914930,0.000050,
2026,3028,-5.1067428097125,8.25505710601856,0.0181969088214942,0.006633,-0.064215,0.004407,0.272972,-2.907516,315.820324,21.237897,0.999434,0.991605,0.003860,0.436545,0.000010,-0.000004,-0.000015,0.000019,-0.000013,-32.040374,0.000020,
2281,2473,0.521261161890358,-3.81187960899658,-0.0119851214317919,0.003274,-0.066840,0.001793,0.119068,-3.002922,323.461251,20.841567,0.999291,0.988169,0.004557,0.493938,0.000240,0.000181,0.000007,0.000241,0.000180,6.542037,0.000422,
2146,2068,-2.35534689900235,-12.6794674407413,0.00250102430641164,-0.002484,-0.070373,-0.020483,-0.075901,-3.253315,330.261535,20.715928,0.998388,0.980793,0.005614,0.415196,0.001010,0.001016,0.000045,0.001059,0.000968,46.957872,0.002027,
2476,1993,4.87877215728274,-14.3408894006327,0.0167824603707913,0.006578,-0.074496,-0.026053,0.367306,-3.496269,331.844432,18.123299,0.997348,0.967989,0.007103,0.356074,0.001523,0.001185,-0.000134,0.001570,0.001138,-19.260698,0.002720,
2056,3088,-4.46615931461697,9.55752457390214,0.0262072199698764,0.006296,-0.065017,0.011587,0.236012,-2.936442,314.692666,21.305843,0.999409,0.991623,0.003706,0.407534,0.000001,0.000013,-0.000019,0.000027,-0.000012,-53.733201,0.000027,
2206,2158,-1.05973415351877,-10.7060863276069,-0.00705640109089245,0.000022,-0.068701,-0.020068,0.039971,-3.223679,328.657843,20.483672,0.998851,0.984233,0.005201,0.415406,0.000768,0.000854,0.000030,0.000864,0.000759,72.327180,0.001624,
2386,2773,2.75240789093997,2.73420686457452,-0.0184735723080394,0.004975,-0.066688,0.007423,0.174846,-3.005030,318.559822,21.500318,0.999203,0.988112,0.004304,0.461552,0.000047,0.000043,0.000020,0.000065,0.000025,41.542587,0.000093,
2296,2788,0.79166158707153,3.05699714116727,-0.0169631773623564,0.005007,-0.066224,0.005798,0.185208,-2.973292,318.353785,21.508609,0.999297,0.988999,0.004181,0.463447,0.000044,0.000044,0.000012,0.000056,0.000032,45.108378,0.000089,
2131,3133,-2.84627934037497,10.5380966372799,0.0348875270776148,0.006854,-0.064983,0.008863,0.266599,-2.949448,313.685231,21.589944,0.999625,0.994755,0.003173,0.400730,0.000011,0.000019,-0.000013,0.000029,0.000001,-53.354952,0.000034,
2011,3223,-5.4594162989702,12.4791115320395,0.0462433539854601,0.007744,-0.064125,0.009937,0.309733,-2.886736,313.006991,21.074598,0.999343,0.992129,0.003629,0.404309,0.000002,0.000050,-0.000051,0.000082,-0.000030,-57.660420,0.000083,
2341,2548,1.81504388688753,-2.17325640026883,-0.0114962894921291,0.003711,-0.066763,0.001366,0.139348,-3.009913,322.228160,20.907520,0.998899,0.982782,0.005027,0.466503,0.000190,0.000123,0.000016,0.000194,0.000120,12.956688,0.000316,
2401,2863,3.06279419778806,4.69458742076645,-0.0140759142229285,0.005874,-0.066200,0.005642,0.222388,-2.985143,317.188824,21.838329,0.999391,0.989422,0.004047,0.424350,0.000023,0.000027,0.000018,0.000042,0.000007,48.213832,0.000053,
2131,2008,-2.67240961571526,-13.998830732137,0.0094154113918421,-0.002486,-0.072333,-0.021935,-0.072691,-3.354330,331.345390,20.621610,0.998323,0.982810,0.005815,0.466399,0.001172,0.001088,0.000052,0.001197,0.001063,25.545991,0.002261,
2251,2548,-0.14563902289057,-2.17403479482501,-0.0238307261942055,0.003664,-0.066309,-0.001237,0.147780,-2.999217,322.222733,21.070312,0.999621,0.993165,0.003614,0.462449,0.000169,0.000125,0.000009,0.000171,0.000124,10.816610,0.000296,
2281,2713,0.479176865968096,1.42255891152855,-0.0120538710642109,0.004690,-0.066333,0.004360,0.175759,-2.997382,319.623565,21.345449,0.999680,0.992307,0.003701,0.451839,0.000065,0.000066,0.000011,0.000077,0.000054,45.791639,0.000131,
2041,3073,-4.78808421095009,9.23088637509118,0.0316780362527993,0.006718,-0.064344,0.010484,0.259510,-2.893428,315.094280,21.223842,0.999441,0.991749,0.003768,0.485809,0.000005,0.000018,-0.000015,0.000028,-0.000005,-57.254597,0.000030,
2161,2113,-2.03438855776483,-11.692153504126,0.000732851238751664,-0.001172,-0.069384,-0.019201,-0.018883,-3.234199,329.525843,20.723906,0.999106,0.981598,0.005453,0.370925,0.000898,0.000952,0.000049,0.000981,0.000869,59.414849,0.001851,
2356,2653,2.12230960276958,0.119242987942322,-0.0233169942468407,0.004577,-0.065720,-0.003736,0.197153,-2.998643,320.481424,21.208785,0.999256,0.986598,0.004658,0.429163,0.000103,0.000088,0.000007,0.000106,0.000086,21.149390,0.000191,
2236,2293,-0.428568669501434,-7.74785133497287,-0.0139787277938694,0.001480,-0.067534,-0.009469,0.073845,-3.109262,326.385873,20.620262,0.999089,0.984649,0.004820,0.441917,0.000487,0.000477,0.000022,0.000504,0.000460,38.359692,0.000965,
2296,2563,0.832274392478332,-1.84657005641279,-0.0105398351786903,0.003977,-0.067024,0.004204,0.142794,-3.018385,322.021282,21.079902,0.998716,0.986358,0.005053,0.390458,0.000163,0.000126,0.000011,0.000166,0.000123,15.414240,0.000290,
2086,3163,-3.82666649783033,11.1852880723544,0.034284372519835,0.006963,-0.064853,0.009416,0.271890,-2.925925,313.408078,21.413438,0.999738,0.994937,0.003079,0.410730,0.000005,0.000040,-0.000024,0.000052,-0.000007,-62.914255,0.000056,
2011,3238,-5.46112495104564,12.8028320514536,0.0539650493134332,0.007734,-0.064000,0.007099,0.317040,-2.884722,312.834085,21.003263,0.999464,0.992688,0.003569,0.464584,0.000006,0.000030,-0.000066,0.000085,-0.000049,-50.354616,0.000085,
2041,3028,-4.78261530375547,8.25625891672109,0.0139477762263027,0.006071,-0.064325,0.007801,0.237083,-2.918616,315.656894,21.285537,0.999487,0.991202,0.003905,0.424121,0.000015,-0.000002,-0.000020,0.000028,-0.000015,-33.476780,0.000028,
2086,2968,-3.79782847833405,6.95751186398212,0.00787436114859474,0.005838,-0.064639,0.006309,0.229061,-2.915214,316.324437,21.423546,0.999318,0.991157,0.003807,0.435894,0.000021,-0.000011,-0.000025,0.000035,-0.000024,-28.710324,0.000036,
2491,2098,5.18389176562413,-12.0325711564091,0.0234309179245429,0.005285,-0.072249,-0.017091,0.275754,-3.367338,330.154038,18.591726,0.999381,0.983894,0.005181,0.345977,0.001145,0.001156,-0.000191,0.001341,0.000960,-45.788823,0.002311,
2041,2788,-4.74853641259249,3.04765540632044,-0.0250985909336805,0.005011,-0.064436,0.002112,0.204160,-2.908629,319.198598,21.432664,0.998964,0.987480,0.004378,0.415648,0.000015,0.000029,-0.000014,0.000037,0.000006,-58.325761,0.000047,
2236,2488,-0.461734242259791,-3.48437304188531,-0.0193067799684172,0.003167,-0.066633,-0.002581,0.129335,-3.033440,323.244296,21.012517,0.999364,0.988509,0.004311,0.421615,0.000210,0.000172,-0.000007,0.000211,0.000171,-10.163672,0.000383,
2131,2023,-2.6763004021265,-13.6656610440735,-0.00552865246856982,-0.002978,-0.071463,-0.021623,-0.095863,-3.332339,330.955937,20.810424,0.998519,0.982390,0.005702,0.309921,0.001116,0.001074,0.000041,0.001140,0.001050,31.496144,0.002191,
2506,2188,5.49159985607622,-10.0528880450254,0.00156829714876494,0.005535,-0.069895,-0.016397,0.285975,-3.233552,328.570616,18.981390,0.998425,0.973521,0.006396,0.383678,0.000880,0.000873,-0.000210,0.001087,0.000666,-44.499408,0.001770,
2026,3238,-5.13612115050931,12.8034799484547,0.0618593558081102,0.007483,-0.064212,0.007614,0.303405,-2.899052,312.789723,21.081422,0.999546,0.994343,0.003143,0.449198,0.000000,0.000030,-0.000064,0.000081,-0.000051,-51.633635,0.000082,
2266,2668,0.159710380642647,0.443218413101306,-0.0282869401206085,0.004346,-0.066192,0.000226,0.174104,-3.007887,320.238920,21.285209,0.999446,0.990584,0.004016,0.424256,0.000094,0.000069,0.000005,0.000095,0.000068,11.209904,0.000164,
2221,2203,-0.739588673068095,-9.7192287592937,-0.00830563588408495,0.000924,-0.067742,-0.018277,0.076369,-3.131876,327.920684,20.487225,0.998658,0.982734,0.005353,0.486524,0.000666,0.000741,0.000014,0.000743,0.000663,79.496101,0.001407,
2326,2428,1.50924760143927,-4.79330155638292,-0.0248232514353504,0.003055,-0.067259,-0.003443,0.125879,-3.048794,324.052297,20.627781,0.999375,0.989110,0.004467,0.447478,0.000311,0.000263,-0.000008,0.000313,0.000261,-9.644999,0.000575,
2446,3133,3.99258344979471,10.5631335658938,0.0250873506434459,0.007252,-0.066419,0.008726,0.273038,-2.999198,313.214422,22.831558,0.999507,0.987458,0.004285,0.408959,0.000045,0.000021,0.000027,0.000063,0.000003,33.094508,0.000074,
2131,3148,-2.84843901973323,10.862988549629,0.039681408557783,0.006987,-0.064791,0.010531,0.267858,-2.930603,313.481494,21.575865,0.999567,0.993342,0.003322,0.438005,0.000011,0.000024,-0.000016,0.000034,0.000000,-55.564739,0.000040,
2056,3103,-4.46737426976763,9.88257462518989,0.0311784234473862,0.006891,-0.064449,0.007413,0.275536,-2.906892,314.528687,21.284873,0.999430,0.991514,0.003661,0.451623,0.000001,0.000010,-0.000019,0.000025,-0.000014,-51.903866,0.000025,
2251,2338,-0.109133631481939,-6.76290501070215,-0.0118005168358195,0.001786,-0.067495,-0.008150,0.083662,-3.092812,325.657576,20.704762,0.998523,0.983254,0.005427,0.387468,0.000412,0.000390,0.000003,0.000412,0.000390,6.893497,0.000802,
2011,3133,-5.44675394545687,10.5302590724468,0.0306279951655597,0.007271,-0.063889,0.007194,0.295394,-2.883898,314.331468,21.132091,0.999626,0.994017,0.003176,0.428860,-0.000008,0.000050,-0.000025,0.000060,-0.000017,-69.881292,0.000061,
2101,3298,-3.52347848508004,14.1103342623847,0.0307021258964824,0.007666,-0.064674,0.012903,0.293607,-2.920622,311.115910,21.418344,0.999558,0.994278,0.003201,0.476456,-0.000003,0.000053,-0.000038,0.000073,-0.000022,-63.370290,0.000074,
2431,3013,3.68828556422084,7.95680997511732,0.00602056270633966,0.006528,-0.066343,0.005136,0.253512,-2.994769,314.975233,22.384640,0.999251,0.985544,0.004470,0.406299,0.000019,0.000008,0.000038,0.000051,-0.000025,40.956177,0.000051,
2071,2863,-4.10796921727637,4.67766746585963,-0.0135170545433425,0.005565,-0.064576,0.002993,0.226404,-2.927577,317.929789,21.403564,0.999402,0.990776,0.003912,0.431372,0.000031,0.000014,-0.000026,0.000050,-0.000005,-35.927383,0.000055,
2146,2083,-2.35825451465773,-12.3490088991688,-0.00367377810403013,-0.002270,-0.070482,-0.016144,-0.079198,-3.244859,329.965470,20.794864,0.998511,0.981181,0.005573,0.356270,0.000971,0.001001,0.000046,0.001035,0.000938,53.833239,0.001973,
2101,3058,-3.48543464879874,8.90958129930107,0.0257886576301303,0.006471,-0.064832,0.008950,0.249933,-2.927405,314.954105,21.411106,0.999623,0.993420,0.003404,0.476603,0.000021,0.000008,-0.000011,0.000028,0.000001,-29.891587,0.000033,
2161,3253,-2.21565760545131,13.1410939533708,0.0304021806740593,0.007661,-0.064946,0.009591,0.300621,-2.934258,311.598053,21.729247,0.999683,0.993760,0.003230,0.471022,0.000013,0.000030,-0.000021,0.000044,-0.000001,-56.087789,0.000050,
2146,3193,-2.5299598930091,11.8391512862674,0.0425254144993232,0.007447,-0.065237,0.008069,0.295774,-2.954337,312.735297,21.656917,0.999543,0.992343,0.003439,0.417409,0.000007,0.000040,-0.000022,0.000052,-0.000004,-63.398476,0.000057,
2011,3253,-5.46362870936184,13.1282710219969,0.049668498193796,0.007614,-0.063631,0.003748,0.320747,-2.874252,312.556299,21.017276,0.999811,0.995556,0.002839,0.447576,0.000013,0.000039,-0.000068,0.000095,-0.000044,-50.311875,0.000095,
2476,2008,4.87361506999618,-14.0099623260185,0.00759538409192828,0.005618,-0.074451,-0.021780,0.307293,-3.466037,331.465453,18.162690,0.998502,0.974403,0.006270,0.408237,0.001467,0.001185,-0.000159,0.001539,0.001113,-24.222872,0.002663,
2206,2368,-1.09473279258331,-6.10644139741108,-0.0163558779329378,0.002056,-0.066384,-0.010089,0.102547,-3.053743,325.255066,20.910251,0.999335,0.987511,0.004607,0.424526,0.000363,0.000320,0.000007,0.000364,0.000319,9.537723,0.000684,
2056,2833,-4.429378296188,4.0260260355657,-0.0179552375490175,0.005230,-0.064239,0.003010,0.211373,-2.917705,318.447793,21.445146,0.999023,0.986136,0.004531,0.388782,0.000036,0.000015,-0.000022,0.000050,0.000001,-32.469627,0.000058,
2386,2788,2.74936905512022,3.06170010779694,-0.0225712225695247,0.005082,-0.066723,0.006449,0.183272,-3.006993,318.289171,21.593169,0.999593,0.991374,0.003824,0.410007,0.000046,0.000049,0.000021,0.000068,0.000027,46.735052,0.000098,
2281,2488,0.517700895629215,-3.48526817653075,-0.0180903505146262,0.002936,-0.067051,0.002904,0.099745,-3.023163,323.148825,20.752574,0.999530,0.990241,0.004233,0.591900,0.000222,0.000170,0.000001,0.000222,0.000170,0.856415,0.000393,
2491,2113,5.18099342558424,-11.7045240646928,0.0296285253979249,0.005175,-0.072214,-0.014453,0.260688,-3.331955,329.948710,18.573290,0.999334,0.983373,0.005280,0.461779,0.001104,0.001113,-0.000184,0.001293,0.000925,-45.669403,0.002227,
2311,2413,1.18702770734347,-5.12447248970105,-0.00279391796414075,0.003113,-0.067208,-0.006647,0.139575,-3.076932,324.501831,20.580338,0.999227,0.986914,0.004813,0.474619,0.000316,0.000284,-0.000009,0.000318,0.000282,-14.269450,0.000601,
2116,3043,-3.15794604131585,8.58668158716315,0.0270322394561617,0.006181,-0.065283,0.009891,0.233116,-2.928593,315.120910,21.604674,0.999569,0.992936,0.003483,0.330016,0.000023,0.000002,-0.000014,0.000030,-0.000005,-27.251768,0.000032,
2221,2428,-0.776651159723794,-4.79874799953183,-0.0017988872573369,0.002729,-0.066093,-0.009437,0.131526,-3.051399,324.398994,20.773635,0.999590,0.989952,0.004134,0.594105,0.000281,0.000218,-0.000002,0.000281,0.000218,-2.250191,0.000500,
2176,2173,-1.72318831336439,-10.3656040281673,-0.0784142531507541,-0.001343,-0.068701,-0.012836,-0.045828,-3.157639,327.821061,20.894760,0.999718,0.927049,0.008892,0.252621,0.000750,0.000803,0.000051,0.000833,0.000719,58.699694,0.001554,
2281,2728,0.476117241504337,1.74991993331969,-0.0162292854192856,0.004928,-0.066462,0.008146,0.174004,-2.994979,319.342789,21.400097,0.999620,0.991423,0.003765,0.427776,0.000059,0.000059,0.000014,0.000073,0.000045,45.670536,0.000119,
2041,3088,-4.79087840366112,9.55766046844013,0.0202230792556293,0.006648,-0.064141,0.005174,0.271092,-2.914172,314.765033,21.302836,0.999591,0.993674,0.003285,0.377422,0.000000,0.000013,-0.000019,0.000027,-0.000013,-54.901457,0.000027,
2011,3268,-5.46580236626467,13.4520923394785,0.0560573018535706,0.007713,-0.063901,0.009177,0.310354,-2.891042,312.354589,20.972714,0.999807,0.995650,0.002821,0.461934,0.000017,0.000025,-0.000063,0.000084,-0.000042,-46.726067,0.000084,
2026,3043,-5.10890905703939,8.57958788670376,0.0196467063330488,0.006609,-0.064186,0.002970,0.275877,-2.903579,315.591344,21.156921,0.999381,0.991606,0.003901,0.510947,0.000005,-0.000004,-0.000018,0.000019,-0.000018,-37.861700,0.000022,
2251,2353,-0.111060556449569,-6.43611168669663,-0.00287250588047527,0.002006,-0.067665,-0.006029,0.086763,-3.092845,325.493206,20.710302,0.998788,0.984306,0.005229,0.406921,0.000384,0.000365,0.000005,0.000385,0.000364,14.741325,0.000749,
2296,2803,0.78854129872267,3.38446390865829,-0.023892576274875,0.005075,-0.066155,0.004851,0.191576,-2.970423,318.057585,21.575784,0.999238,0.988323,0.004239,0.429144,0.000041,0.000037,0.000013,0.000052,0.000025,41.186054,0.000079,
2056,3118,-4.46939236284443,10.2074303620158,0.0349466638355693,0.007130,-0.064803,0.009239,0.281261,-2.925816,314.321360,21.290137,0.999470,0.992931,0.003349,0.421101,0.000000,0.000020,-0.000021,0.000033,-0.000013,-57.930708,0.000033,
2026,3253,-5.13907259094096,13.1292165487569,0.0485854331112137,0.007628,-0.063912,0.006781,0.312546,-2.884722,312.442157,21.068656,0.999811,0.995827,0.002759,0.465204,0.000008,0.000034,-0.000065,0.000087,-0.000045,-50.634666,0.000087,
2446,3148,3.99023060214746,10.8887789726459,0.0273117824254427,0.007390,-0.065829,0.004767,0.294430,-2.977551,313.008367,22.874171,0.999508,0.989742,0.003937,0.439142,0.000043,0.000022,0.000026,0.000060,0.000004,33.897925,0.000072,
2236,2308,-0.431008205165998,-7.41923703132122,-0.0168442034565146,0.001844,-0.067685,-0.009637,0.091028,-3.111326,326.136935,20.662976,0.998638,0.983995,0.005050,0.420302,0.000456,0.000447,0.000023,0.000475,0.000428,39.526573,0.000903,
2476,2023,4.87070249124438,-13.6795653473192,0.0130713344361766,0.005758,-0.074290,-0.016608,0.294260,-3.432481,331.255435,18.322993,0.999120,0.981040,0.005489,0.341640,0.001415,0.001188,-0.000169,0.001505,0.001097,-28.040748,0.002613,
2431,3028,3.68553002188132,8.28256804812821,0.00995516171667532,0.006419,-0.066329,0.005035,0.248869,-2.993099,314.758121,22.439456,0.999222,0.986752,0.004461,0.402125,0.000018,0.000008,0.000037,0.000050,-0.000024,41.016276,0.000050,
2161,2128,-2.03788863119936,-11.3627868754143,-0.00558094629275274,-0.001562,-0.069433,-0.015689,-0.047531,-3.214631,329.203547,20.708812,0.999155,0.979952,0.005580,0.419358,0.000857,0.000921,0.000051,0.000950,0.000829,60.981425,0.001780,
2041,2803,-4.75080288149652,3.37313567049537,-0.0231273101999818,0.005029,-0.064620,0.003739,0.200377,-2.924078,318.968261,21.399823,0.999272,0.989641,0.003967,0.425443,0.000020,0.000018,-0.000009,0.000028,0.000010,-40.697829,0.000040,
2251,2563,-0.14824395134281,-1.84737836109178,-0.0229811073576798,0.003565,-0.066215,-0.002370,0.146961,-2.996851,321.986163,21.050622,0.999486,0.990779,0.003944,0.508739,0.000155,0.000116,0.000007,0.000156,0.000115,9.909762,0.000273,
2011,3283,-5.46825554917871,13.7768375197887,0.0546631878783614,0.007885,-0.064159,0.012716,0.308537,-2.900202,312.095829,20.966024,0.999799,0.995778,0.002807,0.446104,0.000019,0.000040,-0.000057,0.000087,-0.000028,-50.368985,0.000089,
2146,2098,-2.35992044137274,-12.0197270473678,-0.00714517418060723,-0.001629,-0.069247,-0.021231,-0.034068,-3.229598,329.740527,20.795495,0.998897,0.983281,0.005296,0.381874,0.000934,0.000978,0.000050,0.001010,0.000902,56.989753,0.001913,
2086,3178,-3.82779104972735,11.5084600453403,0.0482107312116113,0.007489,-0.064986,0.011002,0.291538,-2.926432,313.299776,21.320547,0.999673,0.994833,0.003045,0.501269,0.000003,0.000049,-0.000025,0.000060,-0.000008,-66.504147,0.000065,
2071,2878,-4.11040222776233,5.00388695190389,-0.016907656099761,0.005634,-0.064369,0.001757,0.233199,-2.924738,317.664335,21.401910,0.999177,0.988665,0.004372,0.432683,0.000033,0.000029,-0.000027,0.000057,0.000004,-42.715203,0.000069,
2086,2983,-3.8004143927427,7.28257136118051,0.00919066213339192,0.005748,-0.065104,0.009045,0.216739,-2.950438,316.079364,21.415478,0.999491,0.992345,0.003564,0.407107,0.000016,-0.000011,-0.000022,0.000029,-0.000024,-28.903183,0.000031,
2236,2503,-0.464582938530324,-3.15664931077676,-0.0198231456642475,0.003183,-0.066256,0.000376,0.120668,-2.998514,322.988207,21.026208,0.999334,0.987167,0.004458,0.465238,0.000196,0.000164,-0.000004,0.000196,0.000164,-6.357590,0.000360,
2116,1993,-3.00051913096382,-14.322431404075,-0.0137583584755134,-0.004132,-0.072413,-0.021242,-0.150619,-3.372502,331.376715,20.940607,0.999338,0.988942,0.004708,0.227371,0.001252,0.001134,0.000049,0.001270,0.001116,19.737370,0.002388,
2206,2173,-1.06208682525741,-10.3775655156917,-0.00743010908939823,0.000121,-0.068755,-0.021750,0.049805,-3.221135,328.423201,20.489908,0.998991,0.985464,0.004983,0.431288,0.000735,0.000822,0.000026,0.000829,0.000728,74.422957,0.001558,
2071,3103,-4.1420966874262,9.88327385281946,0.0350341993722054,0.006977,-0.064626,0.010086,0.271275,-2.904525,314.472959,21.326256,0.999530,0.992143,0.003496,0.470262,0.000006,0.000010,-0.000017,0.000026,-0.000009,-48.077143,0.000026,
2506,2203,5.48840766906328,-9.72439137385216,0.00668529330067713,0.005221,-0.069453,-0.014105,0.262970,-3.192360,328.347525,19.018130,0.998583,0.972093,0.006489,0.451925,0.000850,0.000771,-0.000195,0.001010,0.000612,-39.327589,0.001638,
2041,3043,-4.78418459201457,8.58107400863393,0.0200816657203973,0.006487,-0.064505,0.008068,0.255497,-2.914448,315.482226,21.261843,0.999677,0.994389,0.003177,0.443799,0.000010,-0.000006,-0.000024,0.000028,-0.000023,-35.693374,0.000030,
2296,2578,0.829596269010725,-1.51894505703389,-0.0147336180788784,0.004025,-0.066526,-0.000062,0.159624,-3.007016,321.759597,21.100335,0.999130,0.988470,0.004446,0.412254,0.000156,0.000123,0.000011,0.000159,0.000119,16.757825,0.000279,
2101,3073,-3.48758934252777,9.23566567346896,0.025215575936727,0.006614,-0.064647,0.006084,0.264942,-2.932742,314.719260,21.478254,0.999497,0.991413,0.003738,0.404524,0.000017,0.000016,-0.000009,0.000026,0.000007,-43.586135,0.000035,
2221,2218,-0.742572282631745,-9.39081018959568,-0.00186584038760884,0.000466,-0.068611,-0.012642,0.037039,-3.153150,327.693351,20.595233,0.998582,0.982098,0.005356,0.378544,0.000637,0.000700,0.000018,0.000705,0.000633,74.798483,0.001338,
2011,3298,-5.47064464901636,14.1020256262624,0.0483568828133798,0.008040,-0.063811,0.009946,0.323377,-2.888036,311.812146,20.956325,0.999425,0.992264,0.003610,0.454379,0.000025,0.000043,-0.000055,0.000090,-0.000021,-49.703106,0.000094,
2131,3163,-2.8507699896765,11.1878783625705,0.0405872519072545,0.007054,-0.065002,0.009862,0.272897,-2.935124,313.249092,21.564697,0.999458,0.991342,0.003655,0.449413,0.000009,0.000032,-0.000018,0.000042,0.000000,-61.526489,0.000048,
2026,3268,-5.14223106539495,13.4543185343217,0.0399497937066826,0.007592,-0.063954,0.010978,0.299246,-2.888619,312.111334,21.046802,0.999805,0.996316,0.002696,0.471912,0.000016,0.000020,-0.000060,0.000077,-0.000042,-45.940776,0.000077,
2356,2668,2.11923398565428,0.444948946932378,-0.0167884850449695,0.004466,-0.066791,0.004412,0.162976,-3.024566,320.258628,21.211361,0.999394,0.988616,0.004362,0.439807,0.000091,0.000090,0.000009,0.000099,0.000081,42.699045,0.000181,
2476,2038,4.86764343706811,-13.3498930169372,0.0116114916988295,0.005681,-0.073042,-0.018999,0.300371,-3.403275,331.007370,18.348265,0.998992,0.978759,0.005896,0.406078,0.001353,0.001172,-0.000164,0.001450,0.001075,-30.557249,0.002534,
2146,3208,-2.5322733527734,12.1643869744127,0.0462747934076333,0.007472,-0.064650,0.008963,0.294553,-2.910043,312.519695,21.656910,0.999602,0.993221,0.003301,0.468620,0.000006,0.000039,-0.000025,0.000053,-0.000008,-61.905210,0.000057,
2011,3148,-5.4490150391037,10.8541005992565,0.0376168086732491,0.007050,-0.064195,0.009629,0.278428,-2.893180,314.128816,21.060298,0.999617,0.993546,0.003359,0.478471,-0.000006,0.000042,-0.000026,0.000053,-0.000017,-66.594058,0.000054,
2191,2098,-1.3792466490998,-12.0220663591234,-0.016078182225101,-0.001404,-0.070818,-0.014555,-0.043712,-3.269166,329.507083,20.325867,0.999106,0.985096,0.005316,0.540560,0.000914,0.001002,0.000022,0.001007,0.000908,76.833540,0.001916,
2266,2443,0.199932622826967,-4.46621641175186,-0.0148234024903786,0.002660,-0.066283,-0.010351,0.131504,-3.055283,323.956487,20.946974,0.999456,0.987836,0.004525,0.317814,0.000267,0.000220,0.000000,0.000267,0.000220,-0.348074,0.000487,
2191,2278,-1.40652361062753,-8.07570930341836,-0.00903427191224182,0.001279,-0.067494,-0.010875,0.068894,-3.099495,326.777557,20.854013,0.998498,0.980547,0.005623,0.387193,0.000523,0.000508,0.000029,0.000545,0.000486,37.664411,0.001032,
2131,2038,-2.67891402518237,-13.3378922888773,-0.00799122223583026,-0.002944,-0.071832,-0.019901,-0.099594,-3.345911,330.692051,20.690570,0.999138,0.982896,0.005457,0.425331,0.001078,0.001033,0.000041,0.001102,0.001009,30.524051,0.002112,
2116,3058,-3.16040458897392,8.91006720490902,0.0253864978147362,0.006291,-0.065366,0.009947,0.237931,-2.945665,314.868404,21.424451,0.999536,0.992930,0.003582,0.496059,0.000022,0.000009,-0.000013,0.000030,0.000001,-31.336115,0.000036,
2056,3133,-4.47191405479184,10.5324890956518,0.0335124970981724,0.007031,-0.064661,0.008521,0.278709,-2.929426,314.062107,21.270267,0.999081,0.992216,0.003492,0.430956,0.000000,0.000026,-0.000024,0.000040,-0.000014,-59.258985,0.000041,
2206,2383,-1.09770539268979,-5.77841241309737,-0.0187944812050773,0.001960,-0.066417,-0.007927,0.091282,-3.029456,324.981113,20.903473,0.999067,0.985272,0.004800,0.474287,0.000341,0.000298,0.000009,0.000343,0.000296,11.150902,0.000639,
2416,2938,3.3753442424645,6.32569661093348,-0.00321170546396843,0.006069,-0.066571,0.008202,0.221431,-2.997139,316.071313,22.074372,0.999559,0.990946,0.003931,0.434608,0.000022,0.000013,0.000022,0.000040,-0.000005,38.833324,0.000044,
2266,2683,0.157246179363046,0.770431904294682,-0.0307336242361202,0.004650,-0.065896,-0.001076,0.192464,-3.000305,319.992982,21.321664,0.999333,0.991771,0.003863,0.421395,0.000089,0.000069,0.000001,0.000089,0.000069,2.197793,0.000159,
2371,2683,2.44195336980897,0.774867349563664,-0.0373003505438305,0.004839,-0.066507,0.001957,0.188553,-3.007586,319.872074,21.280208,0.999348,0.988115,0.004282,0.423230,0.000091,0.000091,0.000009,0.000101,0.000082,45.375848,0.000183,
2116,2008,-3.0027664450974,-13.996915087687,-0.00568754575169805,-0.004366,-0.073129,-0.018043,-0.171012,-3.397427,331.184851,20.735755,0.999268,0.990321,0.004834,0.414237,0.001197,0.001101,0.000050,0.001219,0.001079,23.135850,0.002300,
2056,2848,-4.43153460158215,4.35156150596364,-0.0186113264245478,0.005380,-0.064329,0.001854,0.221571,-2.918272,318.209076,21.395384,0.999313,0.989982,0.003971,0.432551,0.000029,0.000005,-0.000031,0.000050,-0.000016,-34.294429,0.000052,
2026,1993,-4.96459795428837,-14.3224152403475,0.00563177826290939,-0.006948,-0.070179,-0.025114,-0.271322,-3.298473,331.885848,21.502211,0.998321,0.981174,0.005754,0.373086,0.001331,0.001134,0.000195,0.001451,0.001014,31.636678,0.002478,
2086,2998,-3.80206780611141,7.6087410303597,0.010288229656112,0.006174,-0.064629,0.004910,0.248500,-2.937719,315.875427,21.464062,0.999562,0.992549,0.003445,0.369636,0.000014,0.000000,-0.000016,0.000025,-0.000011,-33.239272,0.000025,
2281,2743,0.473717337914621,2.07654216056362,-0.0170058821523753,0.005216,-0.066392,0.007027,0.191034,-2.992789,319.109408,21.419252,0.999370,0.989155,0.004097,0.438585,0.000052,0.000052,0.000013,0.000065,0.000040,44.978104,0.000106,
2041,2818,-4.75314522706752,3.69876984308156,-0.0182318247047988,0.004807,-0.064601,0.005530,0.185176,-2.903646,318.750569,21.371799,0.999278,0.989658,0.004002,0.466101,0.000020,0.000012,-0.000013,0.000030,0.000002,-35.979950,0.000036,
2296,2818,0.786516497217136,3.70986969330968,-0.0170654351230155,0.005321,-0.066271,0.005337,0.201129,-2.995408,317.880499,21.591569,0.999416,0.989687,0.004022,0.418102,0.000036,0.000036,0.000012,0.000048,0.000023,44.953986,0.000073,
2026,3283,-5.14403087028159,13.778664488367,0.0497450539967303,0.007698,-0.064288,0.013273,0.297628,-2.908668,311.946468,21.076631,0.999769,0.995860,0.002794,0.410683,0.000021,0.000034,-0.000053,0.000081,-0.000026,-48.506953,0.000083,
2401,2878,3.05945035982334,5.02157200356761,-0.0200793199711597,0.005840,-0.066184,0.004484,0.225043,-2.980587,316.896132,21.891896,0.999352,0.991243,0.003792,0.420538,0.000022,0.000030,0.000022,0.000048,0.000003,50.399655,0.000058,
2041,3103,-4.79270242065527,9.88218946646021,0.0262295894644353,0.006796,-0.063900,0.004971,0.278594,-2.894863,314.578184,21.250804,0.999629,0.994083,0.003188,0.440322,-0.000004,0.000010,-0.000019,0.000024,-0.000018,-54.788457,0.000025,
2386,2803,2.74614324201563,3.38802237739259,-0.0281343535465908,0.005134,-0.066790,0.005768,0.188081,-3.011629,318.003184,21.574802,0.999858,0.994993,0.003328,0.467099,0.000044,0.000040,0.000021,0.000063,0.000021,42.060941,0.000087,
2161,3268,-2.21830334540617,13.466049612963,0.0288565045778455,0.007777,-0.065030,0.011089,0.301350,-2.939240,311.340157,21.738432,0.999674,0.993741,0.003284,0.465542,0.000015,0.000028,-0.000020,0.000043,0.000001,-53.984092,0.000050,
2326,2443,1.50720717142592,-4.46646390369558,-0.0167159364850704,0.003205,-0.067015,-0.003107,0.131680,-3.041374,323.883111,20.650465,0.999090,0.987549,0.004734,0.467945,0.000297,0.000231,0.000002,0.000297,0.000231,1.645803,0.000529,
2071,2893,-4.11323907568513,5.32945305932481,-0.0107580066029982,0.005161,-0.065047,0.007780,0.193974,-2.933665,317.432917,21.426195,0.999394,0.991231,0.003926,0.395699,0.000027,0.000024,-0.000031,0.000057,-0.000005,-43.381509,0.000063,
2176,2188,-1.72050823319341,-10.0461591545677,-0.0135922273024676,-0.000828,-0.068302,-0.016028,-0.012236,-3.160038,328.155398,20.774481,0.998732,0.948531,0.007688,0.382541,0.000711,0.000768,0.000044,0.000792,0.000687,61.191519,0.001480,
2026,3058,-5.11108192200475,8.90504696683823,0.0260644849087726,0.006579,-0.064426,0.006408,0.264893,-2.913138,315.389542,21.210877,0.999156,0.989946,0.004037,0.436498,0.000000,0.000015,-0.000018,0.000027,-0.000012,-56.495509,0.000028,
2146,2113,-2.36129386148562,-11.6928830928865,0.00975435577970529,-0.001549,-0.069088,-0.018793,-0.037713,-3.204415,329.636837,20.791758,0.999298,0.983977,0.005086,0.421066,0.000898,0.000941,0.000052,0.000976,0.000863,55.964765,0.001840,
2431,3043,3.68246632069787,8.60817082483087,0.0105555272351125,0.006593,-0.066658,0.008918,0.242415,-2.990147,314.511277,22.460296,0.999369,0.988442,0.004210,0.433602,0.000015,0.000021,0.000040,0.000058,-0.000022,47.062971,0.000058,
2221,2233,-0.744522732348425,-9.06241877580511,-0.00339900484664213,0.001070,-0.067806,-0.014379,0.070583,-3.148443,327.472400,20.596519,0.998616,0.982401,0.005404,0.403304,0.000601,0.000657,0.000020,0.000663,0.000595,71.836254,0.001259,
2161,2143,-2.04008929569052,-11.0341012287014,-0.00660224720536462,-0.001152,-0.069312,-0.014327,-0.032877,-3.213117,328.968579,20.712537,0.999041,0.971664,0.006344,0.429952,0.000815,0.000875,0.000057,0.000909,0.000781,58.984665,0.001691,
2131,3178,-2.85331326577807,11.5126088139524,0.0431859453860852,0.006859,-0.065328,0.010111,0.263098,-2.942042,313.016069,21.555060,0.999175,0.987806,0.004107,0.456395,0.000008,0.000042,-0.000019,0.000050,0.000000,-65.854434,0.000058,
2116,3073,-3.16297295298013,9.2370726762527,0.0146560660842852,0.006599,-0.064736,0.005541,0.265393,-2.941089,314.560607,21.501505,0.999650,0.993313,0.003652,0.426155,0.000018,0.000016,-0.000012,0.000029,0.000005,-43.035130,0.000037,
2341,2563,1.81203147373752,-1.84516292498339,-0.0157940284709639,0.003721,-0.066781,-0.000244,0.145420,-3.011092,321.954634,20.978200,0.998830,0.984704,0.004890,0.432460,0.000171,0.000116,0.000018,0.000177,0.000111,16.732267,0.000290,
2251,2578,-0.150580203560104,-1.52032625401675,-0.0182881099323708,0.003684,-0.066216,-0.000430,0.146071,-2.990190,321.781208,21.101117,0.999383,0.988553,0.004228,0.488966,0.000144,0.000108,0.000005,0.000145,0.000108,8.439023,0.000254,
2146,3223,-2.53448287127673,12.4888149384985,0.0528224731255591,0.007599,-0.064878,0.012584,0.289344,-2.910795,312.324095,21.646652,0.999570,0.993449,0.003244,0.484563,0.000004,0.000038,-0.000028,0.000054,-0.000012,-60.444027,0.000056,
2056,1993,-4.30974224850233,-14.3236638849918,-0.00116381269197063,-0.005879,-0.070787,-0.026656,-0.216873,-3.359046,331.711097,21.233347,0.997563,0.977650,0.006295,0.370456,0.001339,0.001135,0.000147,0.001416,0.001058,27.628955,0.002482,
2071,3118,-4.14362452699615,10.2075514776134,0.0471663762766639,0.007147,-0.065029,0.010953,0.276441,-2.933726,314.335214,21.340627,0.999726,0.993764,0.003116,0.422379,0.000004,0.000018,-0.000020,0.000032,-0.000010,-54.727671,0.000032,
2026,2008,-4.96739492841395,-13.9916149828718,-0.00514476119747087,-0.006565,-0.070479,-0.019196,-0.270081,-3.269946,331.556999,21.507648,0.997686,0.981034,0.006025,0.390647,0.001297,0.001101,0.000202,0.001424,0.000975,32.085462,0.002413,
2086,3193,-3.8302801603566,11.8341897160479,0.0505226388350479,0.007399,-0.064709,0.012736,0.282362,-2.923003,313.064455,21.393061,0.999440,0.993348,0.003264,0.429617,0.000002,0.000046,-0.000028,0.000060,-0.000012,-63.866974,0.000064,
2101,3088,-3.4895579961226,9.56004945024617,0.0304463851925334,0.006844,-0.065026,0.007492,0.271272,-2.951768,314.525055,21.443553,0.999305,0.988333,0.004172,0.420395,0.000013,0.000015,-0.000009,0.000023,0.000005,-47.935626,0.000030,
2446,3163,3.98766497801439,11.214204532955,0.029379680225361,0.007486,-0.066050,0.002727,0.306360,-3.001561,312.791795,22.944803,0.999491,0.990189,0.004070,0.395430,0.000037,0.000029,0.000026,0.000060,0.000007,41.120335,0.000073,
2416,2953,3.37195305479926,6.65279618439001,-0.00955008601658847,0.005988,-0.066519,0.006333,0.224574,-2.999373,315.775808,22.165847,0.999483,0.991143,0.004115,0.388305,0.000022,0.000006,0.000023,0.000039,-0.000010,35.735045,0.000040,
2056,2863,-4.43345292713462,4.6767364999743,-0.00911516962958103,0.005280,-0.064352,0.002872,0.214040,-2.918246,318.037397,21.391583,0.999323,0.990532,0.003930,0.430498,0.000023,0.000012,-0.000029,0.000047,-0.000011,-39.528243,0.000049,
2251,2368,-0.114425562090499,-6.10609012946048,-0.0156341097880386,0.002392,-0.067695,-0.003419,0.095935,-3.088244,325.152869,20.799663,0.999201,0.987051,0.004939,0.347637,0.000355,0.000338,0.000003,0.000356,0.000337,10.341687,0.000693,
2206,2398,-1.09940374892548,-5.45036532588062,-0.015253723450769,0.002496,-0.066185,-0.009096,0.119678,-3.000577,324.796267,20.956174,0.999299,0.988104,0.004470,0.468713,0.000325,0.000263,0.000004,0.000325,0.000263,3.508108,0.000589,
2026,3298,-5.14669858248623,14.1036570687672,0.0428906572986421,0.007635,-0.063981,0.010541,0.302409,-2.891021,311.648225,21.041272,0.999435,0.993363,0.003366,0.452544,0.000030,0.000046,-0.000053,0.000092,-0.000016,-49.389284,0.000099,
2071,2068,-3.99099876074989,-12.6772240135402,0.0136796727181263,-0.003458,-0.068777,-0.020511,-0.122187,-3.214471,330.644705,21.340021,0.997584,0.964874,0.007343,0.303389,0.001071,0.000950,0.000107,0.001134,0.000888,30.277521,0.002027,
2056,3148,-4.47342915931036,10.8575438217299,0.0405110500838077,0.007283,-0.064106,0.005552,0.298950,-2.901680,313.895648,21.274100,0.999464,0.993319,0.003320,0.448494,0.000004,0.000030,-0.000024,0.000044,-0.000010,-59.766662,0.000046,
2176,2203,-1.72221371758465,-9.71819739251217,-0.00938157701364162,-0.000351,-0.067913,-0.016227,0.010413,-3.157800,327.971731,20.788544,0.997566,0.975075,0.006325,0.385459,0.000679,0.000728,0.000044,0.000754,0.000654,59.532188,0.001409,
2311,2428,1.18308626576276,-4.7945961129859,-0.0130597356488806,0.002876,-0.066998,-0.004318,0.120882,-3.044243,324.153728,20.676615,0.999448,0.989420,0.004328,0.445383,0.000304,0.000251,-0.000010,0.000305,0.000250,-10.559964,0.000556,
2236,2323,-0.433334028248641,-7.09061750779227,-0.0218176433910457,0.002428,-0.067148,-0.010347,0.120313,-3.091186,325.882368,20.668592,0.998219,0.986135,0.004993,0.457986,0.000427,0.000406,0.000014,0.000434,0.000399,26.687063,0.000833,
2026,2023,-4.96873180172765,-13.6630565848297,-0.000640370422217984,-0.006025,-0.069763,-0.019529,-0.244232,-3.241373,331.379958,21.488440,0.997743,0.980040,0.006144,0.431816,0.001230,0.000987,0.000159,0.001309,0.000908,26.360314,0.002229,
2266,2698,0.155489477206245,1.09670654147068,-0.0248873048029168,0.005121,-0.065822,-0.001523,0.215656,-2.988539,319.821375,21.340517,0.999532,0.991931,0.003754,0.440260,0.000079,0.000067,0.000004,0.000080,0.000066,17.810211,0.000146,
2506,2218,5.48487263658825,-9.39513781237741,0.00526425671773723,0.005219,-0.069476,-0.010710,0.249823,-3.171207,328.079553,19.080537,0.998850,0.973737,0.006187,0.474695,0.000826,0.000734,-0.000168,0.000954,0.000606,-37.345494,0.001573,
2206,2188,-1.0646989814619,-10.0483824940578,-0.00268200252736506,0.000189,-0.068874,-0.015105,0.031888,-3.189734,328.202775,20.587239,0.998463,0.980895,0.005589,0.384556,0.000701,0.000784,0.000021,0.000789,0.000696,76.366796,0.001486,
2236,2518,-0.46747569776425,-2.82831244805637,-0.0244939792570449,0.003100,-0.065951,-0.001692,0.123640,-2.993634,322.708899,21.093461,0.999290,0.987159,0.004460,0.425190,0.000184,0.000162,0.000004,0.000185,0.000162,9.436802,0.000347,
2116,2023,-3.00445340746862,-13.6663221387848,-0.000240535983834889,-0.003862,-0.071825,-0.015154,-0.156046,-3.323125,331.003249,20.868697,0.999167,0.983967,0.005596,0.362217,0.001135,0.001077,0.000037,0.001153,0.001059,25.925374,0.002213,
2041,3118,-4.79483611360409,10.2068375248228,0.0289603321455161,0.007038,-0.064191,0.008096,0.280933,-2.909694,314.358932,21.226442,0.999642,0.994230,0.003129,0.441378,-0.000004,0.000023,-0.000021,0.000035,-0.000015,-61.375413,0.000035,
2401,2893,3.05731967115582,5.34685302575727,-0.0118927758169889,0.005914,-0.066250,0.003674,0.231401,-2.981726,316.726596,21.902749,0.999399,0.990857,0.003893,0.453688,0.000021,0.000029,0.000022,0.000047,0.000002,50.227611,0.000056,
2191,2113,-1.37965450953189,-11.6932893951068,0.00264531451705352,-0.000649,-0.070124,-0.015551,-0.005801,-3.243078,329.458796,20.518513,0.998699,0.981354,0.005551,0.390466,0.000879,0.000966,0.000026,0.000974,0.000872,74.420926,0.001847,
2266,2458,0.196178335952741,-4.13720432410528,-0.024121664098459,0.002743,-0.066574,-0.003655,0.113103,-3.015145,323.617107,20.977255,0.999550,0.989768,0.004324,0.354987,0.000253,0.000205,0.000004,0.000254,0.000204,4.991140,0.000459,
2356,2683,2.11625202353382,0.773396408546205,-0.0252977121613753,0.004731,-0.066392,0.001083,0.187045,-3.009708,319.966942,21.304293,0.999464,0.988895,0.004173,0.401302,0.000082,0.000092,0.000007,0.000095,0.000079,61.403953,0.000174,
2326,2458,1.50433255400555,-4.13798542089447,-0.024154683481072,0.003412,-0.066697,-0.006622,0.153382,-3.048179,323.599562,20.696839,0.999156,0.987547,0.004622,0.450623,0.000280,0.000211,0.000007,0.000281,0.000210,5.909913,0.000493,
2296,2593,0.828142478185548,-1.19263316102749,-0.00682918131747101,0.004401,-0.065694,-0.004275,0.191445,-2.980680,321.614188,21.095557,0.999476,0.991317,0.003827,0.474160,0.000147,0.000109,0.000011,0.000150,0.000106,15.711483,0.000257,
2296,2833,0.784233551340293,4.03614005494822,-0.0120942459630555,0.005326,-0.066128,0.004149,0.205445,-2.991883,317.682027,21.647794,0.999651,0.992313,0.003707,0.395235,0.000029,0.000038,0.000014,0.000049,0.000018,54.299603,0.000069,
2041,3058,-4.7859457005653,8.90571625746408,0.0314869559027784,0.006559,-0.064548,0.011083,0.250438,-2.900347,315.328150,21.249851,0.999668,0.993847,0.003281,0.461368,0.000007,0.000011,-0.000021,0.000031,-0.000012,-47.378301,0.000031,
2431,3058,3.67944364852334,8.93431065709952,0.0129753435722364,0.006446,-0.066801,0.010121,0.231194,-2.992451,314.274564,22.551711,0.999489,0.990098,0.004083,0.388744,0.000018,0.000014,0.000038,0.000054,-0.000022,43.366669,0.000054,
2056,2008,-4.31166984939241,-13.9958715563335,0.0114660274330163,-0.005815,-0.071839,-0.017922,-0.238804,-3.357726,331.554229,21.259179,0.998047,0.979781,0.006013,0.343834,0.001294,0.001107,0.000149,0.001376,0.001025,28.941864,0.002409,
2476,2053,4.86417180213172,-13.0203818113784,0.00781044278681975,0.005611,-0.073645,-0.018870,0.296484,-3.446538,330.730152,18.410907,0.998995,0.981960,0.005582,0.360071,0.001301,0.001174,-0.000161,0.001411,0.001065,-34.246012,0.002484,
2131,2053,-2.68097545330907,-13.0088792979805,0.00192727025489603,-0.002904,-0.072008,-0.014374,-0.114289,-3.317771,330.518736,20.786402,0.998342,0.979748,0.005736,0.366339,0.001039,0.001024,0.000049,0.001082,0.000982,40.661423,0.002065,
2086,3208,-3.83208268574039,12.1590240795097,0.0526582083165863,0.007623,-0.064506,0.008385,0.305374,-2.923343,312.860054,21.389246,0.999475,0.993086,0.003400,0.431052,0.000001,0.000042,-0.000031,0.000059,-0.000015,-61.926617,0.000061,
2071,2908,-4.11521420320049,5.65519916712272,-0.0071387184148648,0.005468,-0.064673,0.009984,0.201964,-2.911345,317.227031,21.420935,0.999524,0.991566,0.003723,0.419622,0.000024,0.000009,-0.000028,0.000046,-0.000013,-37.402189,0.000047,
2251,2383,-0.116811651810611,-5.78081036398341,-0.0161761866626762,0.002456,-0.068168,-0.006420,0.108512,-3.106238,324.919981,20.602425,0.998847,0.984944,0.005087,0.552015,0.000333,0.000312,0.000006,0.000334,0.000311,13.920769,0.000645,
2491,2128,5.17871086139233,-11.3756682101646,0.0345060331887908,0.005562,-0.071859,-0.014630,0.279197,-3.294973,329.765571,18.617189,0.999361,0.986399,0.004961,0.516629,0.001063,0.001061,-0.000183,0.001245,0.000879,-44.902741,0.002134,
2116,3088,-3.16451202802644,9.56245964200068,0.0201559740430639,0.007128,-0.064569,0.004851,0.291890,-2.934796,314.388057,21.536631,0.999640,0.993244,0.003467,0.399886,0.000014,0.000014,-0.000011,0.000025,0.000003,-45.522874,0.000031,
2161,3283,-2.22076909106563,13.7910725210405,0.0314797575989587,0.007767,-0.064872,0.012144,0.297716,-2.924791,311.112561,21.761096,0.999702,0.994440,0.003092,0.465995,0.000019,0.000035,-0.000019,0.000047,0.000006,-56.355562,0.000058,
2281,2503,0.515193998613665,-3.15518598612279,-0.0165462804985168,0.003090,-0.066791,0.003655,0.104433,-2.991124,322.921859,21.004468,0.999609,0.991363,0.004015,0.400674,0.000208,0.000169,0.000003,0.000208,0.000169,4.343240,0.000378,
2056,2878,-4.43570481261347,5.00247444530655,-0.00852957970744228,0.005452,-0.064470,0.004780,0.216568,-2.916465,317.801119,21.375294,0.999215,0.989117,0.004225,0.442952,0.000025,0.000029,-0.000027,0.000055,0.000000,-47.074358,0.000063,
2026,3073,-5.11313438966906,9.22970826197125,0.0303718590428161,0.006792,-0.064666,0.009791,0.265392,-2.907956,315.181772,21.166304,0.999179,0.991851,0.003786,0.475554,-0.000003,0.000023,-0.000010,0.000026,-0.000007,-71.287061,0.000027,
2341,2578,1.80959130452294,-1.51819009978658,-0.01906211469651,0.004124,-0.066613,-0.003082,0.173825,-3.027399,321.712585,20.975497,0.998739,0.984826,0.004807,0.456380,0.000163,0.000112,0.000020,0.000169,0.000105,19.015132,0.000277,
2041,1993,-4.63767234321753,-14.3233788078073,0.00156129889001022,-0.006577,-0.071312,-0.021278,-0.264666,-3.312558,331.770432,21.313143,0.997819,0.979392,0.006116,0.442842,0.001346,0.001144,0.000181,0.001452,0.001038,30.403727,0.002501,
2161,2158,-2.04449321119155,-10.6971726035148,-0.0508538465379047,-0.000228,-0.068389,-0.016238,0.015680,-3.221204,328.404722,21.021590,0.999662,0.947645,0.008344,0.127416,0.000781,0.000833,0.000059,0.000872,0.000743,56.872717,0.001616,
2416,2968,3.36977826459004,6.97798758286405,-0.000541301311329789,0.006019,-0.066610,0.006109,0.226807,-2.998492,315.608664,22.189851,0.999675,0.993612,0.003590,0.412083,0.000020,0.000005,0.000025,0.000039,-0.000014,36.831799,0.000040,
2191,2293,-1.40884309036106,-7.74640678151243,-0.0137766769326504,0.001488,-0.066204,-0.015528,0.093439,-3.054239,326.520032,20.887088,0.998704,0.982559,0.005313,0.416043,0.000496,0.000461,0.000031,0.000515,0.000443,30.463312,0.000959,
2146,2128,-2.36342638243249,-11.3640405730851,0.0110827173717212,-0.001176,-0.069471,-0.016255,-0.028390,-3.225979,329.416187,20.851421,0.999069,0.980875,0.005467,0.350554,0.000858,0.000910,0.000054,0.000944,0.000824,57.856169,0.001770,
2251,2593,-0.152957535566497,-1.19262291354862,-0.0255994271042255,0.004287,-0.065875,-0.003172,0.182857,-2.997589,321.513552,21.125241,0.999206,0.986875,0.004546,0.481827,0.000138,0.000094,0.000005,0.000139,0.000093,6.945822,0.000233,
2371,2698,2.43935031248599,1.10045657018775,-0.0290977557036172,0.004534,-0.066553,0.002908,0.171182,-3.001532,319.679759,21.263205,0.999312,0.989088,0.004025,0.487471,0.000083,0.000090,0.000014,0.000101,0.000072,52.384820,0.000174,
2056,3163,-4.4758176440672,11.1824038907212,0.0406397874008348,0.007327,-0.064430,0.006491,0.298214,-2.921694,313.651273,21.269233,0.999538,0.992031,0.003521,0.426808,0.000001,0.000046,-0.000030,0.000061,-0.000014,-63.569482,0.000064,
2056,2023,-4.31344835806171,-13.6645005039281,0.000805907338360612,-0.004866,-0.070913,-0.020667,-0.187376,-3.300910,331.275596,21.295972,0.998221,0.982982,0.005589,0.362320,0.001224,0.001020,0.000111,0.001272,0.000971,23.651154,0.002250,
2221,2443,-0.779413513592569,-4.46862745303796,-0.00969065519575452,0.003285,-0.066796,-0.007192,0.149652,-3.049609,324.107629,20.949347,0.999133,0.987250,0.004662,0.440858,0.000259,0.000210,-0.000001,0.000259,0.000210,-0.823941,0.000470,
2041,2008,-4.64080937139618,-13.992678580963,-0.00103862006488953,-0.007023,-0.071408,-0.015987,-0.299870,-3.291520,331.472917,21.410531,0.996724,0.977946,0.006507,0.363031,0.001304,0.001114,0.000181,0.001414,0.001005,31.204479,0.002430,
2476,2068,4.8613907703387,-12.6905474439753,0.0117391610705795,0.005553,-0.072817,-0.019097,0.295029,-3.393122,330.518864,18.498232,0.999067,0.978986,0.005851,0.386230,0.001254,0.001177,-0.000163,0.001383,0.001048,-38.404213,0.002439,
2431,3073,3.67659517099154,9.25923796687396,0.0112980670324987,0.006573,-0.066668,0.008538,0.242914,-3.001832,314.027098,22.515687,0.999596,0.991460,0.003795,0.464464,0.000020,0.000020,0.000035,0.000055,-0.000015,44.944612,0.000057,
2071,2083,-3.99635048635546,-12.3453100990305,-0.0145232316863826,-0.004445,-0.069131,-0.015271,-0.182525,-3.188657,330.109143,21.289672,0.998134,0.966527,0.007092,0.381359,0.001023,0.000948,0.000112,0.001104,0.000868,35.796175,0.001976,
2401,2908,3.05438594670096,5.67312389089545,-0.00802190949826809,0.005992,-0.066886,0.008627,0.216677,-3.020323,316.499488,22.014224,0.999460,0.990571,0.003933,0.348722,0.000017,0.000022,0.000025,0.000045,-0.000006,47.390340,0.000049,
2071,3133,-4.14630512929599,10.5330682845048,0.0407105363469213,0.007149,-0.064752,0.009006,0.282178,-2.935650,314.042025,21.329828,0.999546,0.993635,0.003173,0.427176,0.000005,0.000022,-0.000024,0.000038,-0.000012,-54.594341,0.000039,
2161,3298,-2.22319142345009,14.1155440864432,0.0286329685883402,0.008061,-0.065186,0.011610,0.312735,-2.953922,310.858220,21.750173,0.999799,0.996125,0.002662,0.456070,0.000022,0.000039,-0.000025,0.000057,0.000005,-54.193761,0.000068,
2086,3013,-3.80452488623538,7.93339602587062,0.0125007292753025,0.006165,-0.064662,0.007773,0.239854,-2.925790,315.641251,21.385714,0.999672,0.993314,0.003197,0.458264,0.000018,0.000006,-0.000015,0.000028,-0.000005,-34.176762,0.000030,
2266,2713,0.153066177151167,1.4233343656793,-0.0177966167420891,0.004810,-0.065298,-0.002328,0.204250,-2.966109,319.625288,21.395112,0.999636,0.992403,0.003733,0.433778,0.000070,0.000059,0.000005,0.000072,0.000057,21.158124,0.000129,
2041,3133,-4.79674266360773,10.5317021952694,0.0397310557559081,0.006998,-0.064332,0.010822,0.271480,-2.900649,314.194740,21.251237,0.999372,0.992429,0.003517,0.416561,-0.000003,0.000032,-0.000024,0.000044,-0.000015,-63.511649,0.000045,
2071,3223,-4.15972518906055,12.4829208465533,0.0527775023971344,0.007523,-0.064437,0.010428,0.295581,-2.904434,312.685657,21.314537,0.999468,0.992829,0.003433,0.447225,0.000000,0.000041,-0.000041,0.000066,-0.000025,-58.046771,0.000067,
2311,2443,1.18100916002459,-4.46867787135144,-0.00345660003682724,0.003012,-0.067379,-0.001861,0.118592,-3.058381,323.989526,20.649630,0.999283,0.988103,0.004572,0.491437,0.000290,0.000223,0.000000,0.000290,0.000223,0.287487,0.000515,
2386,2818,2.74350045169504,3.71479764765903,-0.0270788334858594,0.005186,-0.066531,0.004251,0.195988,-3.017021,317.775267,21.654487,0.999679,0.991411,0.003853,0.425271,0.000035,0.000033,0.000019,0.000053,0.000015,44.004637,0.000071,
2041,2023,-4.6412686387716,-13.6643745431558,-0.000240296368758663,-0.005579,-0.071042,-0.020023,-0.222380,-3.292544,331.316819,21.355617,0.997088,0.978284,0.006367,0.412399,0.001235,0.001010,0.000138,0.001301,0.000944,25.402708,0.002254,
2101,3103,-3.49141717474615,9.88590677946382,0.0322291229823009,0.007262,-0.064901,0.006612,0.293219,-2.939245,314.316626,21.494543,0.999637,0.992883,0.003373,0.382253,0.000010,0.000012,-0.000008,0.000019,0.000003,-48.987977,0.000024,
2221,2248,-0.747462221492189,-8.73356720881043,-0.011752100404351,0.001275,-0.067329,-0.014576,0.080777,-3.119302,327.171120,20.551006,0.998576,0.982563,0.005377,0.499696,0.000574,0.000617,0.000027,0.000630,0.000561,64.411222,0.001192,
2206,2413,-1.10044989210665,-5.12289353909482,0.00819046701866455,0.002858,-0.065594,-0.002260,0.114898,-2.972282,324.743939,21.150502,0.999546,0.991399,0.004000,0.320245,0.000310,0.000233,0.000001,0.000310,0.000233,0.650819,0.000544,
2476,2083,4.85727362356134,-12.360197618229,0.00555348492918029,0.005250,-0.072664,-0.016371,0.270972,-3.364888,330.200674,18.551184,0.999207,0.978737,0.005718,0.421972,0.001205,0.001176,-0.000163,0.001354,0.001027,-42.505049,0.002388,
2281,2758,0.470322181589719,2.40396456910267,-0.027512148254516,0.004973,-0.066158,0.002473,0.195143,-3.007071,318.781545,21.456123,0.999238,0.988201,0.004265,0.415669,0.000051,0.000051,0.000016,0.000068,0.000035,45.017577,0.000104,
2056,3178,-4.47772199159429,11.5070323305865,0.0486290209731237,0.007413,-0.064253,0.008061,0.297791,-2.906073,313.472662,21.258071,0.999613,0.993720,0.003262,0.446879,-0.000001,0.000057,-0.000031,0.000071,-0.000015,-66.409514,0.000075,
2176,1993,-1.68737355150655,-14.3310908369951,0.0200154761421345,-0.002400,-0.073891,-0.018980,-0.076866,-3.437086,331.508131,20.330283,0.998833,0.980875,0.005623,0.347260,0.001206,0.001107,0.000022,0.001211,0.001102,11.937554,0.002314,
2131,2068,-2.68252383142723,-12.6794783115874,0.0104068201333689,-0.002596,-0.070683,-0.013969,-0.101031,-3.217866,330.360771,20.834076,0.997603,0.975057,0.006302,0.427280,0.001004,0.001011,0.000058,0.001066,0.000949,46.631921,0.002017,
2026,2038,-4.97047016964991,-13.3355596732658,0.00444805876929877,-0.005925,-0.069843,-0.019933,-0.238591,-3.264797,331.188362,21.435914,0.998132,0.978039,0.005986,0.454453,0.001185,0.000924,0.000160,0.001261,0.000849,25.364392,0.002123,
2026,3088,-5.11536296582043,9.55603465845387,0.0317064652805357,0.006643,-0.064266,0.006998,0.266296,-2.897745,314.948694,21.254365,0.999563,0.994004,0.003303,0.387027,-0.000007,0.000016,-0.000016,0.000024,-0.000015,-62.899497,0.000024,
2131,3193,-2.85568945147526,11.8379451565292,0.042532074897224,0.007064,-0.065138,0.010637,0.270985,-2.943620,312.773067,21.580239,0.999490,0.991549,0.003603,0.434054,0.000008,0.000042,-0.000022,0.000054,-0.000003,-63.805524,0.000060,
2071,2923,-4.11648958103885,5.97989239230532,-0.00173093553377157,0.005990,-0.064942,0.006158,0.236817,-2.940349,317.063496,21.386422,0.999442,0.991001,0.003796,0.421437,0.000027,0.000006,-0.000024,0.000042,-0.000010,-32.901516,0.000044,
2146,3238,-2.53787833956413,12.8150645819042,0.0417780839400166,0.007406,-0.064921,0.011633,0.283268,-2.922654,311.979641,21.718649,0.999615,0.993535,0.003211,0.406890,0.000004,0.000032,-0.000033,0.000053,-0.000018,-56.483377,0.000054,
2086,3223,-3.83433326724778,12.4838265239104,0.0543354000627119,0.007672,-0.064495,0.007875,0.309106,-2.929346,312.632609,21.389040,0.999414,0.992200,0.003666,0.422945,0.000000,0.000039,-0.000036,0.000060,-0.000021,-59.410945,0.000061,
2041,2038,-4.64417378980532,-13.3352889938536,-0.00321183831420058,-0.006441,-0.069860,-0.025549,-0.246286,-3.281655,331.028188,21.323516,0.998191,0.978137,0.005964,0.451495,0.001189,0.000942,0.000139,0.001251,0.000880,24.224306,0.002142,
2251,2608,-0.155482563827576,-0.865979798724069,-0.0230301501329109,0.004270,-0.066024,-0.002615,0.180206,-3.012507,321.289306,21.150488,0.999144,0.985930,0.004677,0.465364,0.000129,0.000078,0.000005,0.000130,0.000077,5.908876,0.000210,
2266,2473,0.194513332465597,-3.81192894336267,-0.0152088939132682,0.003038,-0.066490,-0.004411,0.129184,-3.016693,323.465710,20.881000,0.999626,0.991247,0.004095,0.476135,0.000240,0.000184,0.000006,0.000240,0.000184,6.015499,0.000425,
2116,2038,-3.00658598977218,-13.3372160144264,-0.0126931849406446,-0.003532,-0.071139,-0.025818,-0.109289,-3.340603,330.706350,20.761516,0.998941,0.982563,0.005553,0.459303,0.001093,0.001032,0.000042,0.001114,0.001011,26.983401,0.002126,
2446,3178,3.98432372341533,11.5399807695214,0.0313901250118533,0.007315,-0.066241,0.006851,0.283036,-2.997714,312.539018,23.023330,0.999575,0.990837,0.003816,0.371620,0.000037,0.000035,0.000025,0.000061,0.000012,43.792672,0.000078,
2056,2038,-4.31606524605361,-13.3349597288518,-0.00264060208081673,-0.004979,-0.070359,-0.019698,-0.195106,-3.277727,330.998766,21.287908,0.998019,0.979652,0.005865,0.391796,0.001176,0.000955,0.000113,0.001224,0.000907,22.860506,0.002139,
2506,2233,5.48160542439951,-9.0647074692022,0.00252697061898743,0.004728,-0.068693,-0.017662,0.254526,-3.175512,327.817932,19.267802,0.998796,0.978067,0.005785,0.346633,0.000801,0.000730,-0.000141,0.000911,0.000621,-37.919653,0.001541,
2236,2338,-0.435938838328603,-6.76238595340836,-0.0141996297909373,0.001945,-0.066833,-0.009647,0.096029,-3.071080,325.679037,20.768781,0.998719,0.985756,0.004977,0.400811,0.000401,0.000386,0.000008,0.000405,0.000383,24.500255,0.000787,
2296,2608,0.8243669075081,-0.864402147531294,-0.0139540269752843,0.004296,-0.066206,0.001176,0.168027,-2.986442,321.287464,21.173410,0.999297,0.989253,0.004153,0.421397,0.000132,0.000093,0.000010,0.000134,0.000090,13.124479,0.000226,
2401,2923,3.05191909406887,5.99863463603171,-0.00570643025452,0.006007,-0.066360,0.005461,0.229081,-3.010816,316.286592,22.000206,0.999410,0.990488,0.003982,0.417298,0.000017,0.000019,0.000021,0.000039,-0.000003,46.503701,0.000044,
2071,3148,-4.1486947640621,10.8584629944549,0.0407924094151895,0.007061,-0.064289,0.007443,0.282751,-2.917798,313.798133,21.332661,0.999690,0.995450,0.002892,0.437730,0.000008,0.000028,-0.000024,0.000043,-0.000008,-56.405575,0.000046,
2191,2308,-1.41138985993146,-7.41951754450047,-0.0124814860811284,0.001363,-0.066695,-0.015646,0.087912,-3.082312,326.284147,20.838989,0.998676,0.983054,0.005247,0.452626,0.000467,0.000427,0.000028,0.000481,0.000413,26.808314,0.000894,
2356,2698,2.1134324373316,1.0987233942243,-0.0196227981807624,0.004490,-0.066722,0.003421,0.167648,-3.008486,319.751714,21.246320,0.999458,0.990312,0.003957,0.499629,0.000076,0.000092,0.000012,0.000098,0.000069,62.181535,0.000168,
2311,2458,1.17784632778728,-4.14004612476796,-0.0132760729022152,0.003310,-0.067519,-0.002297,0.133729,-3.057161,323.679551,20.678765,0.999143,0.987220,0.004745,0.497377,0.000275,0.000204,0.000005,0.000275,0.000204,4.287688,0.000481,
2326,2473,1.50261071296067,-3.81190880469054,-0.0132515619109199,0.003718,-0.066963,-0.005642,0.163963,-3.061569,323.458769,20.704999,0.999109,0.987518,0.004519,0.464462,0.000264,0.000188,0.000005,0.000264,0.000187,4.078928,0.000454,
2071,3238,-4.1620487262549,12.8073248000658,0.0543587793885081,0.007544,-0.064881,0.010841,0.295175,-2.929505,312.453544,21.299360,0.999514,0.992905,0.003382,0.432840,0.000000,0.000033,-0.000049,0.000069,-0.000035,-54.334957,0.000069,
2191,2128,-1.38192801691384,-11.3643397833043,0.000887843617647377,-0.000347,-0.069726,-0.016313,0.010558,-3.227298,329.219241,20.518612,0.998312,0.979541,0.005759,0.423771,0.000842,0.000936,0.000030,0.000945,0.000833,73.688418,0.001779,
2116,3103,-3.16629141916622,9.88708363713138,0.0305543613225723,0.007264,-0.064822,0.006669,0.292666,-2.939016,314.231167,21.546082,0.999807,0.995744,0.002953,0.388360,0.000009,0.000012,-0.000010,0.000021,0.000000,-48.933559,0.000024,
2041,2053,-4.64739177113338,-13.0003149709615,-0.0343579317460012,-0.005154,-0.069206,-0.019269,-0.204444,-3.238709,330.568578,21.487051,0.999502,0.992104,0.003896,0.328100,0.001142,0.000939,0.000143,0.001216,0.000865,27.275448,0.002091,
2056,2893,-4.43802414838099,5.32868954968524,-0.00540579019741472,0.005418,-0.064516,0.006912,0.208993,-2.910204,317.575599,21.421046,0.999478,0.992118,0.003784,0.397601,0.000018,0.000024,-0.000033,0.000055,-0.000012,-47.521755,0.000058,
2491,2143,5.17354370680428,-11.0419430402163,0.0154101241262197,0.005254,-0.071225,-0.013078,0.259510,-3.237354,329.342132,18.832093,0.998664,0.979287,0.005888,0.422360,0.001009,0.001020,-0.000171,0.001185,0.000844,-45.960644,0.002038,
2416,2983,3.36702319381356,7.30315053563368,0.00285245958298219,0.006183,-0.066534,0.009214,0.223038,-2.991143,315.388442,22.169202,0.999826,0.993990,0.003356,0.487305,0.000018,0.000008,0.000025,0.000038,-0.000012,39.385500,0.000039,
2221,2263,-0.750482489111377,-8.40455096946947,-0.0104011438303928,0.001039,-0.068205,-0.010435,0.056408,-3.117398,326.915810,20.653127,0.998693,0.981771,0.005437,0.420550,0.000545,0.000569,0.000028,0.000588,0.000526,56.304959,0.001115,
2086,3238,-3.83741445281449,12.8088732135961,0.0498450383960858,0.007580,-0.064914,0.012084,0.292583,-2.931603,312.333249,21.376293,0.999564,0.993350,0.003343,0.431189,-0.000001,0.000033,-0.000042,0.000061,-0.000030,-55.705551,0.000062,
2176,2008,-1.69095551964771,-13.9991373547062,-0.00119170220955311,-0.002337,-0.072691,-0.022894,-0.061524,-3.387931,331.105706,20.303376,0.998619,0.981876,0.005601,0.440313,0.001160,0.001084,0.000020,0.001165,0.001079,13.827921,0.002244,
2221,2458,-0.78270358050759,-4.14057852388771,-0.00835468255570504,0.002608,-0.066216,-0.005519,0.113427,-3.014453,323.839598,20.994198,0.998979,0.984574,0.005065,0.451520,0.000250,0.000197,0.000001,0.000250,0.000197,0.794464,0.000448,
2506,2248,5.47884803633162,-8.73798733869549,0.0114886073068874,0.005409,-0.069702,-0.004830,0.235808,-3.179785,327.632037,19.241690,0.998779,0.978458,0.005854,0.431665,0.000765,0.000672,-0.000134,0.000861,0.000576,-35.443212,0.001447,
2161,2173,-2.04755552986741,-10.3710147960098,-0.0580132890655136,-0.000050,-0.068320,-0.011294,0.008747,-3.184426,328.098315,20.708612,0.999654,0.933987,0.008722,0.490419,0.000749,0.000797,0.000059,0.000837,0.000709,56.138559,0.001548,
2386,2833,2.7407491452658,4.0418403456251,-0.0266254572293292,0.005280,-0.066319,0.004031,0.201222,-3.004609,317.539335,21.740702,0.999541,0.986937,0.004389,0.394540,0.000029,0.000036,0.000019,0.000051,0.000013,50.660272,0.000068,
2101,3118,-3.49431728599777,10.2108672607263,0.0302053084913041,0.007046,-0.064931,0.008312,0.278309,-2.933841,314.040123,21.450222,0.999704,0.994126,0.003120,0.432055,0.000007,0.000017,-0.000009,0.000022,0.000002,-60.409179,0.000027,
2281,2518,0.513120002422916,-2.82946380806771,-0.0156991856550803,0.003402,-0.066715,0.000313,0.129908,-3.019155,322.712350,20.915142,0.999671,0.991769,0.003928,0.490746,0.000197,0.000163,0.000007,0.000198,0.000161,10.630138,0.000360,
2371,2713,2.43666963007442,1.42781389216582,-0.0278136737432533,0.004655,-0.066476,0.003290,0.175425,-2.996026,319.450340,21.356338,0.999429,0.990345,0.003874,0.441312,0.000071,0.000083,0.000017,0.000095,0.000059,54.634305,0.000155,
2116,2053,-3.00864489310176,-13.0076370602317,-0.00337847194208507,-0.003285,-0.070815,-0.017329,-0.122911,-3.289323,330.528742,20.879133,0.998204,0.978660,0.005778,0.399357,0.001052,0.001022,0.000052,0.001091,0.000983,37.053105,0.002075,
2176,2218,-1.72491418640617,-9.39010461499652,-0.0045820074028029,-0.000389,-0.068651,-0.008887,-0.014276,-3.162449,327.745643,20.832418,0.997996,0.978448,0.005941,0.351451,0.000648,0.000691,0.000045,0.000720,0.000620,57.762909,0.001341,
2146,2143,-2.36711026518376,-11.0338315693372,-0.0045660205902891,-0.001441,-0.068664,-0.016841,-0.038528,-3.182217,329.034436,20.793487,0.999241,0.980179,0.005536,0.463911,0.000815,0.000865,0.000058,0.000903,0.000777,56.702056,0.001682,
2071,3253,-4.16488925171825,13.1330472416497,0.0499841083184833,0.007467,-0.064601,0.011994,0.288457,-2.913399,312.164423,21.334911,0.999691,0.994444,0.003099,0.408756,0.000001,0.000034,-0.000050,0.000070,-0.000035,-54.246652,0.000070,
2041,3148,-4.79867840998079,10.8559120158821,0.0475110258673226,0.007017,-0.064446,0.011994,0.269042,-2.904426,314.012874,21.212705,0.999548,0.993580,0.003373,0.442787,0.000000,0.000034,-0.000023,0.000046,-0.000012,-62.769761,0.000047,
2086,3028,-3.80665893742296,8.25883478644111,0.0165386010027078,0.006314,-0.064604,0.009765,0.240992,-2.916359,315.431590,21.397778,0.999496,0.992279,0.003496,0.453701,0.000023,0.000005,-0.000014,0.000031,-0.000003,-28.216738,0.000034,
2236,2533,-0.469021645098127,-2.50193654037793,-0.0148481831647587,0.003360,-0.065926,-0.003524,0.141531,-3.007190,322.564628,21.132926,0.999604,0.990450,0.003947,0.393917,0.000174,0.000143,0.000003,0.000174,0.000143,4.634153,0.000318,
2341,2593,1.80691863687474,-1.19016347118654,-0.019772262804338,0.004598,-0.066741,0.000515,0.183045,-3.019380,321.471909,21.072611,0.999135,0.986971,0.004522,0.404703,0.000152,0.000100,0.000021,0.000159,0.000093,19.937599,0.000255,
2431,3088,3.67540765722261,9.58425950007109,0.0304303762549694,0.006809,-0.066418,0.008542,0.253844,-2.998266,313.952917,22.612048,0.999648,0.992470,0.003615,0.420844,0.000023,0.000018,0.000033,0.000053,-0.000012,43.204932,0.000056,
2071,2098,-3.99642099418784,-12.0180004097202,0.00638855901365787,-0.003737,-0.068389,-0.018232,-0.141381,-3.178963,330.083226,21.382370,0.998125,0.975470,0.006060,0.297046,0.000977,0.000933,0.000113,0.001070,0.000840,39.400768,0.001915,
2311,2473,1.17535911541408,-3.81230962070236,-0.00839656317793924,0.003294,-0.067422,-0.001254,0.129456,-3.052684,323.472856,20.764634,0.998958,0.985777,0.004834,0.449417,0.000259,0.000183,0.000003,0.000259,0.000183,2.106667,0.000444,
2251,2398,-0.119006231408132,-5.4519265515726,-0.0110084027140829,0.002735,-0.067847,-0.003694,0.112519,-3.092952,324.723852,20.763426,0.999030,0.988333,0.004638,0.429182,0.000316,0.000284,0.000004,0.000316,0.000284,6.659912,0.000600,
2071,3163,-4.15081257437896,11.1839587162312,0.0434280395587621,0.007227,-0.064459,0.008092,0.288483,-2.929029,313.580739,21.392946,0.999684,0.994588,0.003082,0.361723,0.000004,0.000042,-0.000028,0.000057,-0.000011,-62.004934,0.000061,
2086,2143,-3.67573611843878,-11.0319266092455,-0.0124306877116851,-0.002033,-0.067857,-0.020378,-0.056560,-3.163622,329.213132,21.125770,0.998672,0.983548,0.005308,0.485534,0.000834,0.000838,0.000110,0.000946,0.000726,45.484530,0.001677,
2236,2353,-0.438273084709351,-6.43470914232697,-0.0121502772290683,0.002088,-0.066837,-0.009478,0.102014,-3.078637,325.460000,20.795286,0.998584,0.984167,0.005168,0.389828,0.000373,0.000361,0.000006,0.000375,0.000358,21.659793,0.000733,
2026,2053,-4.97230069903958,-13.0041437287473,0.00808227985874055,-0.005583,-0.069581,-0.016686,-0.231716,-3.253086,330.983621,21.693640,0.999537,0.991961,0.003927,0.201873,0.001148,0.000926,0.000163,0.001234,0.000840,27.842817,0.002086,
2056,2053,-4.31687100342,-13.0043303450062,-0.0102911278790998,-0.003476,-0.068769,-0.026201,-0.107461,-3.255328,330.781337,21.338409,0.997201,0.974334,0.006505,0.361573,0.001131,0.000952,0.000120,0.001191,0.000892,26.584395,0.002090,
2026,3103,-5.11745691351718,9.88061470173051,0.0349289158219221,0.006815,-0.064246,0.009236,0.268135,-2.885414,314.733037,21.195323,0.999558,0.993628,0.003370,0.447730,-0.000012,0.000012,-0.000018,0.000022,-0.000021,-61.850753,0.000025,
2416,2998,3.36481838674425,7.62949179672168,0.00403190558813549,0.006756,-0.066490,0.008241,0.252893,-3.007844,315.182798,22.269632,0.999481,0.988374,0.004136,0.417207,0.000018,0.000008,0.000029,0.000043,-0.000017,39.796281,0.000043,
2401,2938,3.04938898750197,6.32406961313283,0.000365671693487002,0.006071,-0.066380,0.007421,0.224930,-2.995969,316.088476,22.004376,0.999446,0.990457,0.003991,0.472882,0.000014,0.000015,0.000020,0.000034,-0.000005,45.545185,0.000037,
2131,2083,-2.6861405286088,-12.3491029112629,-0.00670538833594492,-0.002803,-0.070553,-0.015515,-0.105871,-3.245870,329.972914,20.820463,0.998217,0.979046,0.005864,0.422575,0.000968,0.000995,0.000061,0.001044,0.000919,51.203874,0.001964,
2116,3118,-3.16908245931628,10.2121157999642,0.0300252847489446,0.006995,-0.064740,0.006936,0.279549,-2.925883,313.968812,21.510393,0.999763,0.995521,0.002967,0.439515,0.000007,0.000017,-0.000011,0.000024,0.000000,-57.201836,0.000028,
2506,2263,5.47476082631713,-8.40753718365808,0.00428233294292113,0.005151,-0.069475,-0.003811,0.220217,-3.159692,327.312582,19.371289,0.998464,0.974372,0.006131,0.386101,0.000737,0.000613,-0.000124,0.000814,0.000536,-31.660642,0.001360,
2251,2623,-0.157988441526001,-0.539483762113235,-0.0181303372555703,0.004200,-0.066269,-0.000759,0.170844,-3.008414,321.077675,21.167502,0.999026,0.986190,0.004640,0.476529,0.000119,0.000076,0.000007,0.000120,0.000075,9.330789,0.000197,
2056,3193,-4.48027355115667,11.8322708106389,0.0483734888646836,0.007483,-0.064512,0.011611,0.290942,-2.910373,313.218561,21.277252,0.999525,0.993249,0.003332,0.416808,-0.000002,0.000052,-0.000036,0.000070,-0.000020,-63.391544,0.000072,
2206,2428,-1.10360001922353,-4.79849405224479,0.0022100967262304,0.002668,-0.067184,-0.002279,0.105687,-3.013501,324.444576,20.857329,0.998995,0.987810,0.004624,0.590639,0.000289,0.000202,-0.000002,0.000289,0.000202,-1.624588,0.000494,
2281,2773,0.467915956879899,2.73003175582086,-0.0172195556638712,0.004707,-0.066151,0.004928,0.174781,-2.980364,318.603148,21.496531,0.999165,0.987142,0.004416,0.429568,0.000047,0.000044,0.000014,0.000060,0.000031,41.428413,0.000092,
2191,2143,-1.38489261317634,-11.0354318611779,0.0042521983093593,-0.000685,-0.069958,-0.011299,-0.020683,-3.201144,328.974546,20.565415,0.998585,0.981714,0.005485,0.420436,0.000805,0.000885,0.000040,0.000902,0.000788,67.347935,0.001691,
2116,2293,-3.04392250663937,-7.74542412975855,-0.0124615204982774,0.000377,-0.065787,-0.010434,0.026185,-2.997386,326.739852,21.246174,0.998645,0.985215,0.005056,0.423111,0.000534,0.000462,0.000068,0.000574,0.000421,31.011699,0.001000,
2191,2323,-1.41364592372579,-7.09192793971176,-0.00905419375061456,0.001628,-0.066885,-0.012248,0.089384,-3.075120,326.072322,20.845741,0.998882,0.984459,0.005001,0.469514,0.000444,0.000381,0.000019,0.000449,0.000375,15.697335,0.000825,
2071,3268,-4.16759822867478,13.4584209804894,0.0367736408446149,0.007822,-0.064235,0.009096,0.313184,-2.914041,311.832897,21.310510,0.999792,0.995716,0.002834,0.428014,-0.000002,0.000029,-0.000049,0.000065,-0.000038,-53.616389,0.000065,
2296,2848,0.781722758104525,4.36118896859323,-0.00990130165854453,0.005585,-0.066370,0.006769,0.208451,-2.992393,317.459619,21.578641,0.999597,0.992190,0.003795,0.493728,0.000028,0.000036,0.000017,0.000050,0.000015,51.444013,0.000067,
2491,2158,5.17050292635745,-10.7121940223114,0.00686721805959678,0.005625,-0.070427,-0.017832,0.295010,-3.248270,329.064044,18.873052,0.998714,0.977370,0.006029,0.432444,0.000971,0.000936,-0.000187,0.001141,0.000766,-42.279167,0.001919,
2266,2488,0.191404786849546,-3.48446239049824,-0.0249196774203142,0.003288,-0.066746,-0.004645,0.141331,-3.043662,323.154335,20.843913,0.999559,0.990664,0.004111,0.513508,0.000221,0.000172,0.000000,0.000221,0.000172,0.489065,0.000394,
2131,3208,-2.85723211705483,12.1632253763299,0.0477508498638599,0.007519,-0.064650,0.008094,0.299885,-2.912277,312.599822,21.605352,0.999669,0.993633,0.003261,0.445054,0.000007,0.000041,-0.000025,0.000054,-0.000006,-62.397638,0.000059,
2476,2098,4.85432123841785,-12.0295672798989,0.00517500477076283,0.005257,-0.071832,-0.018139,0.278362,-3.329161,329.961959,18.692158,0.999041,0.978543,0.005810,0.376787,0.001154,0.001146,-0.000166,0.001316,0.000984,-44.255917,0.002308,
2266,2728,0.149692574297827,1.75000004043238,-0.0216705966511199,0.004891,-0.066073,0.004376,0.185471,-2.988892,319.330551,21.413709,0.999429,0.990285,0.003940,0.418265,0.000066,0.000055,0.000007,0.000069,0.000051,26.496184,0.000121,
2326,2488,1.49986139011075,-3.48391005038842,-0.0104861994386738,0.003672,-0.066606,-0.003955,0.156223,-3.005953,323.230515,20.749265,0.999171,0.987324,0.004450,0.511561,0.000247,0.000170,0.000002,0.000247,0.000170,1.457353,0.000419,
2146,3253,-2.54053606067984,13.1401707198312,0.0325217509472964,0.007746,-0.064831,0.009400,0.305805,-2.924043,311.679016,21.690041,0.999599,0.993068,0.003307,0.440975,0.000006,0.000031,-0.000030,0.000051,-0.000015,-56.281775,0.000052,
2116,2068,-3.01043455178907,-12.6778915751446,-0.00530217296835644,-0.002797,-0.069875,-0.020468,-0.090982,-3.253268,330.303402,20.906520,0.998116,0.969409,0.006857,0.414791,0.001014,0.001005,0.000063,0.001073,0.000946,42.864562,0.002021,
2041,2068,-4.64911086752948,-12.672677913643,-0.0304511351234851,-0.004965,-0.068619,-0.020130,-0.193263,-3.207854,330.372164,21.393039,0.999309,0.990860,0.004188,0.448417,0.001097,0.000935,0.000151,0.001187,0.000845,30.934579,0.002042,
2071,3283,-4.17056525280242,13.7832681543746,0.0294418424304013,0.007813,-0.064404,0.010348,0.309210,-2.907166,311.522053,21.267753,0.999757,0.996054,0.002775,0.473186,-0.000003,0.000045,-0.000047,0.000074,-0.000032,-58.499568,0.000074,
2071,2938,-4.11823919390747,6.30560587026861,0.000254732661232993,0.006298,-0.064668,0.003047,0.260032,-2.931736,316.859067,21.387540,0.999406,0.990330,0.003838,0.425419,0.000024,0.000001,-0.000023,0.000038,-0.000013,-31.411899,0.000039,
2446,3193,3.98193252169174,11.8647656297692,0.0373932507464474,0.007464,-0.066325,0.007293,0.288262,-2.994285,312.348741,23.037699,0.999610,0.990927,0.003734,0.411709,0.000039,0.000037,0.000023,0.000061,0.000015,43.610244,0.000080,
2071,3178,-4.1529889935344,11.508509578314,0.0466927189256694,0.007413,-0.064489,0.010626,0.289887,-2.908768,313.364474,21.342118,0.999771,0.995934,0.002836,0.428592,0.000001,0.000052,-0.000029,0.000066,-0.000012,-65.460812,0.000070,
2026,3118,-5.11968506629844,10.2062756392985,0.0329951185395885,0.007026,-0.064143,0.009127,0.278156,-2.893807,314.482009,21.227750,0.999675,0.994168,0.003194,0.396159,-0.000008,0.000030,-0.000018,0.000037,-0.000016,-67.837588,0.000037,
2086,3253,-3.83970738239733,13.1334343145686,0.0551395599290458,0.007510,-0.064817,0.013914,0.284142,-2.915240,312.123734,21.359283,0.999701,0.994350,0.003128,0.462048,-0.000001,0.000031,-0.000044,0.000062,-0.000031,-55.090241,0.000062,
2206,2203,-1.06756037393004,-9.71767011729953,-0.00655769345075896,0.000271,-0.067787,-0.013318,0.030370,-3.102495,327.926048,20.682773,0.998305,0.979726,0.005822,0.395900,0.000672,0.000741,0.000021,0.000747,0.000666,74.257009,0.001414,
2296,2623,0.821092952586728,-0.537860803548668,-0.0181913763026387,0.004077,-0.066488,0.001310,0.157378,-3.014530,320.998444,21.148838,0.999229,0.988058,0.004259,0.448674,0.000121,0.000091,0.000008,0.000123,0.000088,14.275232,0.000213,
2146,3268,-2.54321986208862,13.465141862944,0.0312514868587641,0.007686,-0.064887,0.009460,0.302785,-2.935826,311.419760,21.708503,0.999614,0.993850,0.003215,0.416924,0.000006,0.000028,-0.000030,0.000049,-0.000015,-55.157381,0.000050,
2086,3043,-3.80833416143735,8.58309934009804,0.0290266056483119,0.006304,-0.064898,0.010396,0.238589,-2.926924,315.289527,21.380749,0.999583,0.991518,0.003624,0.458439,0.000020,-0.000002,-0.000018,0.000031,-0.000012,-29.251418,0.000031,
2056,2068,-4.31965820264849,-12.6749962825668,-0.00534745269044379,-0.003867,-0.068762,-0.018734,-0.146382,-3.198947,330.542626,21.383808,0.998141,0.977317,0.005918,0.370694,0.001085,0.000940,0.000128,0.001159,0.000866,30.193790,0.002032,
2371,2728,2.43447168547745,1.75490622461277,-0.0251808410412764,0.005045,-0.066107,0.002308,0.196996,-2.986112,319.249549,21.435888,0.999444,0.990431,0.003892,0.412626,0.000057,0.000067,0.000021,0.000083,0.000041,51.854015,0.000127,
2476,2113,4.85016405971182,-11.6994788204781,0.000112653769804183,0.004896,-0.071738,-0.014492,0.248110,-3.290807,329.646786,18.735666,0.998931,0.975151,0.006223,0.431963,0.001114,0.001108,-0.000159,0.001270,0.000952,-44.523695,0.002230,
2311,2488,1.17310478776508,-3.48466927793018,-0.00648437462143647,0.003454,-0.066889,-0.003893,0.146040,-3.021769,323.262156,20.792265,0.999091,0.986686,0.004580,0.486157,0.000241,0.000166,-0.000002,0.000241,0.000166,-1.637692,0.000409,
2176,2023,-1.6925731659042,-13.6690508303488,0.00273202614187085,-0.001860,-0.071300,-0.024531,-0.034155,-3.341981,330.924104,20.402002,0.997826,0.982448,0.005692,0.403069,0.001114,0.001085,0.000016,0.001122,0.001078,24.393805,0.002199,
2161,2188,-2.04660100580405,-10.0491219599003,-0.0159054933643574,0.000088,-0.067770,-0.017547,0.034333,-3.141044,328.234875,20.525067,0.999599,0.914644,0.009551,0.728222,0.000710,0.000763,0.000054,0.000797,0.000677,58.240555,0.001475,
2236,2548,-0.472616202208538,-2.17333985505415,-0.0285557954878186,0.003361,-0.065672,-0.003541,0.141761,-2.989831,322.207001,21.141304,0.999608,0.991632,0.003753,0.425477,0.000166,0.000130,0.000007,0.000167,0.000128,10.824901,0.000296,
2386,2848,2.73874757528869,4.36752435681296,-0.0201373532652269,0.005582,-0.066204,0.003019,0.218820,-3.000349,317.366865,21.759527,0.999508,0.988626,0.004140,0.423094,0.000025,0.000031,0.000019,0.000047,0.000008,49.539265,0.000060,
2071,3298,-4.17313843387145,14.1081391474498,0.0287002159987537,0.007739,-0.064463,0.010795,0.304562,-2.902498,311.265539,21.269523,0.999538,0.994526,0.003084,0.471084,0.000002,0.000061,-0.000050,0.000090,-0.000027,-60.249645,0.000092,
2221,2473,-0.785903925412946,-3.81263448446693,-0.0121335917024794,0.002344,-0.065862,-0.004368,0.097689,-3.016348,323.549619,21.023879,0.999216,0.986279,0.004745,0.440151,0.000240,0.000182,0.000003,0.000241,0.000182,2.724707,0.000424,
2041,3163,-4.80116402481256,11.1809150792523,0.0416096590620896,0.007123,-0.064612,0.009912,0.279682,-2.919782,313.729408,21.179253,0.999581,0.993222,0.003448,0.452103,-0.000001,0.000051,-0.000030,0.000065,-0.000015,-65.064698,0.000068,
2131,3223,-2.85966146242094,12.4875648109829,0.0502033738140426,0.007619,-0.064995,0.010892,0.295921,-2.933451,312.371417,21.583401,0.999617,0.993753,0.003213,0.449877,0.000005,0.000038,-0.000028,0.000054,-0.000011,-60.038959,0.000057,
2281,2533,0.511083641563964,-2.50347060017914,-0.0115255764883386,0.003610,-0.066802,-0.001695,0.146110,-3.057293,322.521093,20.895193,0.999558,0.992243,0.003805,0.501261,0.000185,0.000141,0.000004,0.000185,0.000141,5.026658,0.000327,
2281,2788,0.46586853503883,3.056310325411,-0.0121612579685575,0.005165,-0.066215,0.007120,0.188504,-2.978127,318.415067,21.543031,0.998993,0.985961,0.004609,0.413073,0.000045,0.000047,0.000011,0.000057,0.000035,47.477652,0.000093,
2251,2413,-0.121384597692792,-5.1237608199925,-0.00766577312055006,0.002739,-0.067243,-0.003990,0.113884,-3.059442,324.510126,20.825513,0.999025,0.987363,0.004586,0.425401,0.000297,0.000262,-0.000001,0.000297,0.000262,-2.384416,0.000560,
2086,2158,-3.67849725537794,-10.702260808497,-0.0115404731021727,-0.002233,-0.068180,-0.015633,-0.079508,-3.172518,328.956212,21.254255,0.998720,0.982649,0.005388,0.350062,0.000798,0.000795,0.000109,0.000906,0.000688,44.600322,0.001599,
2131,2098,-2.68731605806525,-12.0175039651271,-0.0207194969170246,-0.001390,-0.068743,-0.026584,-0.007459,-3.227977,329.712536,20.913898,0.998616,0.984126,0.005191,0.355919,0.000932,0.000973,0.000065,0.001020,0.000884,53.667408,0.001906,
2191,2338,-1.41534411676707,-6.76372965481257,0.00565970412634442,0.001833,-0.067078,-0.006723,0.081445,-3.064527,325.944394,21.020484,0.999564,0.988947,0.004467,0.321210,0.000418,0.000359,0.000013,0.000421,0.000357,11.968073,0.000779,
2191,2158,-1.38601513985905,-10.7068077569074,0.00846900091772795,-0.000138,-0.068202,-0.019249,0.029860,-3.194059,328.818610,20.618975,0.998855,0.984625,0.005162,0.390986,0.000775,0.000850,0.000041,0.000869,0.000757,66.233578,0.001627,
2401,2953,3.04595861462426,6.65096694229367,-0.00538671906144828,0.005982,-0.066416,0.006903,0.222695,-3.006243,315.792681,22.088930,0.999458,0.990994,0.003997,0.423123,0.000015,0.000006,0.000022,0.000033,-0.000012,38.950309,0.000033,
2176,2233,-1.72684489898628,-9.06124683536699,-0.00839941867292282,0.000266,-0.067986,-0.011258,0.023288,-3.091152,327.509325,20.785716,0.998269,0.981363,0.005500,0.484280,0.000613,0.000647,0.000043,0.000676,0.000584,56.116111,0.001261,
2311,2503,1.17042856916249,-3.15703311964268,-0.0106231900545026,0.003855,-0.066732,-0.003726,0.163903,-3.035769,323.002494,20.813961,0.999307,0.988049,0.004321,0.483871,0.000223,0.000167,0.000000,0.000223,0.000167,0.275909,0.000391,
2071,2953,-4.12115304477387,6.63173975354115,-0.00157456807619383,0.006034,-0.064485,0.005562,0.240754,-2.905879,316.580176,21.387525,0.999220,0.991005,0.003863,0.447669,0.000028,-0.000014,-0.000025,0.000040,-0.000026,-25.247835,0.000040,
2431,3103,3.67204172062353,9.91061459133658,0.0219075949499938,0.006986,-0.066438,0.007040,0.267499,-3.008912,313.649176,22.672842,0.999726,0.993792,0.003396,0.398417,0.000027,0.000021,0.000036,0.000060,-0.000012,42.438756,0.000064,
2506,2278,5.47138172984855,-8.07914451767056,0.0018284841012246,0.004966,-0.069515,-0.005386,0.217801,-3.159612,327.046978,19.387038,0.998666,0.975151,0.005842,0.433846,0.000700,0.000544,-0.000107,0.000755,0.000490,-26.950790,0.001254,
2476,2128,4.84760779377894,-11.3711993116099,0.00608901606017298,0.004980,-0.071962,-0.013612,0.248556,-3.298937,329.455174,18.786021,0.998773,0.972108,0.006482,0.432700,0.001072,0.001062,-0.000157,0.001225,0.000910,-44.075296,0.002142,
2446,3208,3.97908235005073,12.1898611901218,0.0388879929074051,0.007625,-0.066378,0.008990,0.289323,-2.995737,312.116290,23.062460,0.999522,0.989823,0.003972,0.436293,0.000039,0.000029,0.000018,0.000052,0.000016,37.025029,0.000071,
2296,2863,0.778862741792899,4.68886181921048,-0.012059701600208,0.005596,-0.066193,0.006234,0.210903,-2.964931,317.198756,21.694601,0.999520,0.992068,0.003785,0.434794,0.000028,0.000032,0.000017,0.000047,0.000013,48.067165,0.000063,
2176,2038,-1.69538056952848,-13.3390543637173,0.00383538832420527,-0.002084,-0.071407,-0.021920,-0.052524,-3.342097,330.673727,20.511904,0.998621,0.983465,0.005261,0.308974,0.001079,0.001051,0.000014,0.001085,0.001045,22.532380,0.002130,
2371,2743,2.43155739856335,2.08106610540836,-0.025936288325056,0.005089,-0.066428,0.002715,0.197442,-2.997745,318.999850,21.428513,0.999386,0.989428,0.004002,0.449830,0.000052,0.000064,0.000022,0.000080,0.000035,52.773218,0.000118,
2356,2713,2.11061295789243,1.42657576373177,-0.0201467003502103,0.004670,-0.066685,0.004866,0.170865,-3.008946,319.505999,21.375337,0.999433,0.991065,0.003795,0.409411,0.000066,0.000085,0.000015,0.000093,0.000057,60.782878,0.000152,
2236,2368,-0.441076482174839,-6.10587981678801,-0.0135094845267076,0.002234,-0.066818,-0.006145,0.097971,-3.036375,325.201712,20.849214,0.999131,0.986579,0.004847,0.401053,0.000346,0.000333,0.000002,0.000346,0.000333,7.219680,0.000679,
2026,3133,-5.12178327458119,10.531180128037,0.0351575850996255,0.007014,-0.063950,0.007204,0.283000,-2.879296,314.260156,21.197173,0.999603,0.993803,0.003260,0.430193,-0.000010,0.000041,-0.000023,0.000050,-0.000018,-68.927285,0.000050,
2146,3283,-2.54644367088091,13.7906941631899,0.0212348580141111,0.007635,-0.064771,0.009042,0.301777,-2.927590,311.088850,21.716825,0.999564,0.993847,0.003255,0.423458,0.000005,0.000036,-0.000030,0.000055,-0.000013,-58.502085,0.000057,
2326,2503,1.49580658406708,-3.15535415384223,-0.0169794587534398,0.003133,-0.067149,-0.000865,0.120625,-3.025387,322.897304,20.839980,0.999263,0.987828,0.004268,0.437190,0.000228,0.000171,0.000003,0.000228,0.000171,2.718646,0.000400,
2116,3133,-3.17200988559799,10.538401907905,0.026343905632416,0.006894,-0.064459,0.008709,0.269711,-2.921980,313.682749,21.583951,0.999837,0.996880,0.002695,0.372378,0.000011,0.000019,-0.000014,0.000029,0.000001,-53.312896,0.000034,
2266,2503,0.188991839970253,-3.15518058391783,-0.0239237053287411,0.003328,-0.065713,-0.006806,0.150704,-3.002417,322.927898,21.008553,0.999630,0.991687,0.003987,0.416721,0.000208,0.000167,0.000004,0.000208,0.000166,5.949702,0.000375,
2116,2308,-3.04572245858628,-7.41888553492529,-0.0102078359073516,0.000817,-0.066310,-0.010295,0.045782,-3.057010,326.537483,21.205499,0.998833,0.984649,0.005129,0.409480,0.000499,0.000424,0.000052,0.000526,0.000398,27.143814,0.000927,
2221,2278,-0.752198638279058,-8.07636671994983,-0.00327119520295582,0.001594,-0.068044,-0.007687,0.073166,-3.081952,326.749703,20.709124,0.998757,0.981745,0.005351,0.421019,0.000516,0.000520,0.000025,0.000543,0.000493,47.802940,0.001036,
2146,2158,-2.36958676204944,-10.7029250433692,-0.0077642598366765,-0.001265,-0.068300,-0.016812,-0.030429,-3.176887,328.773648,20.977813,0.999552,0.966240,0.006580,0.295489,0.000783,0.000826,0.000061,0.000869,0.000740,54.816834,0.001610,
2086,3298,-3.84842744713332,14.1090626381835,0.0326996052458526,0.007468,-0.064763,0.012709,0.285722,-2.920705,311.200481,21.353390,0.999602,0.994259,0.003075,0.455155,-0.000003,0.000058,-0.000049,0.000085,-0.000030,-60.776478,0.000086,
2206,2443,-1.10830827574118,-4.46695418781597,-0.0266245632428763,0.002118,-0.066380,-0.008279,0.099635,-3.039310,323.954461,20.993991,0.998429,0.983494,0.005326,0.446936,0.000266,0.000198,-0.000002,0.000266,0.000198,-1.327158,0.000466,
2341,2608,1.8027553606146,-0.862089334504262,-0.0290858259311335,0.004192,-0.066742,0.003534,0.153914,-2.992886,321.120972,21.086640,0.999176,0.985274,0.004774,0.454782,0.000138,0.000087,0.000017,0.000143,0.000082,16.688546,0.000227,
2086,1993,-3.65427135984228,-14.3249989485851,0.00594871016267007,-0.004972,-0.071703,-0.024530,-0.180380,-3.367757,331.650525,21.064386,0.998456,0.982175,0.005591,0.318976,0.001304,0.001131,0.000101,0.001350,0.001085,24.709890,0.002440,
2131,3238,-2.862791977763,12.8132184578638,0.0412195934600277,0.007567,-0.065057,0.010597,0.294316,-2.949604,312.049001,21.616252,0.999564,0.993700,0.003145,0.405138,0.000005,0.000031,-0.000033,0.000054,-0.000018,-55.862622,0.000055,
2206,2218,-1.07047874990453,-9.39031152736507,-0.00344288865539966,-0.000071,-0.068679,-0.009728,0.003040,-3.135350,327.683776,20.670581,0.998389,0.980727,0.005731,0.394412,0.000645,0.000701,0.000025,0.000711,0.000635,68.955260,0.001346,
2086,3268,-3.84229131854783,13.459217821707,0.0438998419121504,0.007908,-0.064482,0.011197,0.310468,-2.914729,311.810037,21.382344,0.999709,0.995226,0.002954,0.437369,-0.000003,0.000026,-0.000044,0.000058,-0.000035,-54.291990,0.000058,
2491,2173,5.16820390679679,-10.3848553242908,0.0146672799200473,0.005902,-0.070690,-0.016102,0.300980,-3.277930,328.893460,18.892806,0.997820,0.966911,0.006925,0.444005,0.000920,0.000891,-0.000180,0.001086,0.000725,-42.751067,0.001823,
2221,2488,-0.788731675405263,-3.48510566926542,-0.0137545153074257,0.002409,-0.066505,-0.001747,0.092077,-3.023219,323.287832,21.045628,0.999281,0.986855,0.004494,0.431941,0.000221,0.000172,-0.000003,0.000221,0.000172,-3.209936,0.000394,
2146,3298,-2.54887959771495,14.11472688462,0.0232068069419711,0.007709,-0.065025,0.010593,0.300339,-2.947179,310.858610,21.682303,0.999636,0.994803,0.002951,0.444497,0.000008,0.000041,-0.000036,0.000064,-0.000015,-57.732882,0.000067,
2071,2113,-3.99864656981724,-11.6899319362265,0.0057598845735356,-0.003436,-0.069344,-0.014812,-0.137615,-3.204537,329.841599,21.347740,0.998494,0.980452,0.005632,0.306117,0.000937,0.000892,0.000114,0.001030,0.000799,39.349435,0.001834,
2041,2083,-4.64905594852934,-12.3466947081532,-0.000686738681679344,-0.004495,-0.068686,-0.019811,-0.172599,-3.215286,330.399956,21.476067,0.998939,0.986008,0.004838,0.352191,0.001047,0.000938,0.000155,0.001157,0.000828,35.322639,0.001994,
2251,2428,-0.123704311859864,-4.79634513612753,-0.0129669291264918,0.003220,-0.066255,-0.006951,0.146033,-3.017922,324.255546,20.733832,0.998615,0.985266,0.004804,0.583616,0.000282,0.000231,-0.000006,0.000282,0.000231,-6.382805,0.000514,
2191,2173,-1.38942877639336,-10.3771734958276,-0.00472092145309944,0.000011,-0.068685,-0.017201,0.030089,-3.174061,328.467551,20.572170,0.998903,0.968623,0.006256,0.475796,0.000741,0.000817,0.000038,0.000832,0.000725,67.405139,0.001559,
2266,2743,0.14733113770945,2.07603017011274,-0.0170702524769695,0.005110,-0.066317,0.007519,0.185086,-2.978665,319.124916,21.413545,0.999238,0.987526,0.004256,0.454353,0.000059,0.000049,0.000008,0.000063,0.000045,28.789914,0.000109,
2296,2638,0.818637644695873,-0.211049782558206,-0.0137493060612996,0.004095,-0.066129,0.002255,0.155185,-2.994984,320.789737,21.180109,0.999174,0.986746,0.004390,0.467484,0.000113,0.000091,0.000007,0.000115,0.000089,15.217340,0.000205,
2086,2173,-3.67987622289921,-10.3743320274102,-0.00602692117018933,-0.001611,-0.068020,-0.014975,-0.052849,-3.144052,328.787617,21.241153,0.998778,0.982402,0.005273,0.393008,0.000764,0.000750,0.000110,0.000867,0.000647,43.079143,0.001520,
2071,3193,-4.15566208675546,11.8338639870942,0.0473070017684449,0.007203,-0.064446,0.012078,0.276044,-2.909340,313.110568,21.373880,0.999555,0.993987,0.003188,0.391852,0.000001,0.000048,-0.000033,0.000065,-0.000016,-62.722727,0.000068,
2296,2878,0.7761980067061,5.01458683725651,-0.0129978125527259,0.005631,-0.065895,0.004727,0.217684,-2.969440,316.953482,21.676942,0.999526,0.991370,0.003846,0.477730,0.000024,0.000032,0.000020,0.000048,0.000008,50.717366,0.000060,
2056,2083,-4.32309857822849,-12.3454329051852,-0.0124181500825671,-0.004437,-0.069248,-0.015649,-0.181359,-3.219103,330.208589,21.398782,0.998472,0.979201,0.005634,0.334028,0.001037,0.000941,0.000132,0.001130,0.000849,35.037696,0.001985,
2161,2203,-2.04937139696298,-9.71718396206709,-0.0145217610456712,-0.000156,-0.068084,-0.015600,0.017051,-3.139262,327.985860,20.872857,0.998339,0.960932,0.006959,0.394897,0.000678,0.000725,0.000053,0.000760,0.000643,57.028307,0.001405,
2251,2638,-0.160455185272685,-0.211158563224082,-0.022850384273795,0.004859,-0.066127,0.001003,0.195410,-2.994050,320.818697,21.264537,0.998663,0.986130,0.004616,0.417741,0.000112,0.000077,0.000005,0.000113,0.000077,7.489379,0.000191,
2176,2248,-1.72872638713961,-8.7327199884966,-0.0104478975028428,0.000734,-0.067406,-0.015349,0.057635,-3.089598,327.284854,20.802252,0.998431,0.980174,0.005589,0.483894,0.000586,0.000610,0.000045,0.000644,0.000551,52.662959,0.001197,
2446,3223,3.97575329997937,12.5156115855166,0.0346618444851856,0.007533,-0.066344,0.007707,0.289919,-2.999897,311.835005,23.121184,0.999514,0.990851,0.003903,0.424361,0.000038,0.000018,0.000011,0.000043,0.000013,24.107330,0.000059,
2506,2293,5.46763853046157,-7.75071637002691,0.00855753663938685,0.004289,-0.069974,0.000661,0.163311,-3.156076,326.805443,19.500770,0.998883,0.976418,0.005798,0.386848,0.000668,0.000482,-0.000102,0.000713,0.000437,-23.855357,0.001161,
2101,1993,-3.32612796850414,-14.325841961131,0.0130065318245443,-0.004556,-0.071610,-0.025885,-0.156730,-3.378623,331.661183,21.010584,0.999393,0.989833,0.004629,0.255767,0.001299,0.001130,0.000075,0.001327,0.001102,20.707018,0.002433,
2056,3208,-4.48243759215297,12.1570406250599,0.0485002650147521,0.007426,-0.064224,0.007148,0.300982,-2.910745,312.984557,21.255377,0.999499,0.993035,0.003353,0.431614,-0.000002,0.000048,-0.000039,0.000069,-0.000023,-61.292917,0.000070,
2476,2143,4.84422524089324,-11.0400412663281,0.00270472831221014,0.004916,-0.070909,-0.014088,0.247879,-3.243551,329.182761,18.939591,0.997950,0.973424,0.006268,0.394568,0.001019,0.001015,-0.000152,0.001169,0.000865,-44.611744,0.002042,
2416,3013,3.36193582333965,7.95574815574226,0.00380511057227295,0.006702,-0.066451,0.006505,0.256795,-3.013187,314.939304,22.345523,0.999315,0.985963,0.004411,0.382783,0.000018,0.000007,0.000033,0.000046,-0.000021,40.138363,0.000046,
2371,2758,2.42859254114354,2.40873495443769,-0.0302965200875747,0.005157,-0.065947,0.000421,0.208896,-2.993813,318.730123,21.520326,0.999011,0.985673,0.004422,0.403191,0.000051,0.000059,0.000023,0.000078,0.000031,49.849526,0.000113,
2116,2083,-3.01288561427672,-12.348390949428,-0.00372480709768297,-0.002825,-0.069927,-0.017975,-0.099642,-3.244852,330.066771,20.983626,0.998137,0.975820,0.006391,0.352906,0.000976,0.000990,0.000069,0.001052,0.000914,47.800673,0.001967,
2386,2863,2.73645159940826,4.69361786707144,-0.0102873820747504,0.005723,-0.066173,0.007023,0.210980,-2.974558,317.196641,21.822966,0.999440,0.988822,0.004064,0.428307,0.000022,0.000028,0.000019,0.000044,0.000006,49.323438,0.000055,
2131,2113,-2.68964546142624,-11.6900818858153,-0.0106952966950189,-0.001597,-0.069195,-0.020594,-0.034995,-3.214013,329.527888,20.900038,0.998851,0.982922,0.005287,0.392352,0.000899,0.000935,0.000069,0.000988,0.000846,52.428500,0.001836,
2281,2803,0.462720486079085,3.38368512150905,-0.018322306647633,0.005266,-0.066184,0.008194,0.189601,-2.965159,318.120062,21.597036,0.999096,0.987517,0.004455,0.399847,0.000041,0.000041,0.000011,0.000052,0.000029,45.361537,0.000082,
2086,2008,-3.65624915886221,-13.9961493787369,0.00988088211357763,-0.004724,-0.071487,-0.021571,-0.177506,-3.320093,331.445607,21.041485,0.998721,0.985554,0.005304,0.392080,0.001249,0.001099,0.000102,0.001301,0.001047,26.768466,0.002353,
2431,3118,3.66859170171978,10.2371861650445,0.0124865467028599,0.007248,-0.066437,0.006739,0.280710,-3.011472,313.337210,22.745119,0.999807,0.994990,0.003138,0.372545,0.000034,0.000026,0.000034,0.000064,-0.000004,41.664646,0.000072,
2236,2563,-0.47411947809719,-1.84896265900903,-0.0131669881025118,0.003581,-0.065954,-0.000699,0.142555,-2.989951,322.094298,21.043319,0.999579,0.991779,0.003690,0.545040,0.000155,0.000120,0.000006,0.000156,0.000119,9.686830,0.000276,
2176,2053,-1.69784785249886,-13.0097723541726,0.00266501407531905,-0.001783,-0.071447,-0.018744,-0.048558,-3.312923,330.426964,20.507419,0.998894,0.983516,0.005071,0.358484,0.001043,0.001045,0.000023,0.001067,0.001020,46.605117,0.002088,
2101,2218,-3.35964149935749,-9.38806280632593,-0.00997203725944473,-0.000674,-0.067476,-0.011206,-0.020428,-3.087515,327.990693,21.207523,0.997684,0.980731,0.005838,0.415677,0.000657,0.000651,0.000099,0.000753,0.000555,44.099145,0.001313,
2131,3253,-2.86526475310226,13.1383541508818,0.0376572838849256,0.007736,-0.064883,0.009042,0.306904,-2.939121,311.786037,21.610102,0.999606,0.994365,0.003065,0.426106,0.000006,0.000028,-0.000032,0.000051,-0.000017,-54.250355,0.000052,
2146,2173,-2.36951260220201,-10.3802228520718,0.0292246776566571,-0.000838,-0.069150,-0.010783,-0.029367,-3.197000,328.843192,20.871135,0.999636,0.946612,0.008101,0.391237,0.000753,0.000794,0.000062,0.000839,0.000708,54.222867,0.001549,
2026,3148,-5.12378652102166,10.8550358206717,0.0448412662033775,0.006966,-0.064228,0.010603,0.271306,-2.889947,314.085213,21.144454,0.999637,0.994601,0.003128,0.461400,-0.000007,0.000038,-0.000023,0.000047,-0.000017,-66.981558,0.000048,
2191,2428,-1.43083141248475,-4.79633941722366,-0.0111854796584225,0.002690,-0.066167,-0.006475,0.120316,-3.018725,324.389435,20.993576,0.998416,0.986395,0.005034,0.491410,0.000291,0.000195,-0.000004,0.000292,0.000194,-2.404412,0.000489,
2071,2128,-4.00122141259077,-11.3598332855291,-0.00327113080271602,-0.003197,-0.068555,-0.015223,-0.125260,-3.166607,329.537529,21.349481,0.998778,0.983354,0.005307,0.342382,0.000892,0.000866,0.000118,0.000998,0.000761,41.797356,0.001764,
2401,2968,3.04433770103278,6.97617879733811,0.0100210363823976,0.006182,-0.066689,0.008438,0.226312,-3.000528,315.680441,22.153808,0.999698,0.994525,0.003519,0.408565,0.000013,0.000006,0.000024,0.000034,-0.000014,40.777378,0.000034,
2161,1993,-2.01633062609178,-14.326690890186,0.00591274464306935,-0.003142,-0.072559,-0.021121,-0.104264,-3.388241,331.411658,20.588894,0.998631,0.981371,0.005589,0.244462,0.001218,0.001109,0.000027,0.001225,0.001102,13.165920,0.002328,
2266,2518,0.187460381138003,-2.82984995934113,-0.0151698153089228,0.003830,-0.066063,-0.006810,0.173600,-3.031678,322.781854,20.956165,0.999521,0.990959,0.004019,0.466246,0.000197,0.000159,0.000009,0.000199,0.000157,12.851086,0.000357,
2251,2443,-0.126809045592292,-4.46661730294578,-0.0163918284783335,0.002997,-0.066706,-0.007293,0.136767,-3.040859,323.974198,20.941516,0.999301,0.988641,0.004431,0.377662,0.000262,0.000219,-0.000003,0.000262,0.000219,-3.406276,0.000482,
2056,3223,-4.48484963567043,12.4818937948826,0.0484729816109848,0.007404,-0.064079,0.007104,0.300195,-2.898646,312.738300,21.231672,0.999461,0.992796,0.003366,0.460662,-0.000002,0.000043,-0.000045,0.000071,-0.000030,-58.438168,0.000071,
2236,2383,-0.442862986708679,-5.77949480311938,-0.0102727723778457,0.002642,-0.066868,-0.008698,0.124938,-3.054400,325.014038,20.789109,0.999287,0.986359,0.004825,0.465813,0.000324,0.000309,0.000002,0.000324,0.000309,7.584716,0.000633,
2326,2518,1.49309189194638,-2.82718453742756,-0.0211704014172369,0.003358,-0.066441,-0.002987,0.138538,-3.013739,322.636712,20.890591,0.999194,0.985619,0.004546,0.433801,0.000213,0.000164,0.000008,0.000214,0.000163,8.684960,0.000379,
2086,2188,-3.68207143785719,-10.0453043416548,-0.00726694512979975,-0.001462,-0.067319,-0.015681,-0.043749,-3.119625,328.544970,21.265770,0.998454,0.982651,0.005434,0.394560,0.000722,0.000722,0.000105,0.000827,0.000617,44.962052,0.001449,
2071,3208,-4.15736335711583,12.1581877202756,0.047546520428341,0.007529,-0.064262,0.006147,0.308137,-2.910878,312.899628,21.313102,0.999486,0.993417,0.003319,0.446829,0.000001,0.000044,-0.000036,0.000065,-0.000019,-60.580025,0.000066,
2206,2233,-1.07233805955853,-9.06306681114277,-0.00166523821371811,0.000476,-0.068769,-0.009864,0.028532,-3.151791,327.483000,20.622362,0.998706,0.981943,0.005664,0.445052,0.000608,0.000657,0.000025,0.000668,0.000598,67.060890,0.001266,
2251,2653,-0.163257340020781,0.115119213703636,-0.0189033654529567,0.004489,-0.066383,0.001845,0.175557,-3.010843,320.588712,21.283031,0.999197,0.988629,0.004303,0.406329,0.000107,0.000072,0.000006,0.000108,0.000072,8.877106,0.000181,
2446,3238,3.97243593085365,12.8414489349079,0.028178505918163,0.007825,-0.066405,0.008721,0.299528,-3.005670,311.543695,23.181128,0.999642,0.992608,0.003483,0.409338,0.000035,0.000016,0.000005,0.000037,0.000015,14.372091,0.000053,
2086,3283,-3.84485548913569,13.7837031397433,0.0452823210412703,0.007856,-0.064961,0.013613,0.300927,-2.923591,311.566745,21.369233,0.999599,0.994926,0.002987,0.439031,-0.000005,0.000042,-0.000044,0.000068,-0.000031,-59.216639,0.000068,
2476,2158,4.8412701403175,-10.7122178828306,0.00449754882475872,0.004935,-0.071431,-0.013336,0.245730,-3.290640,328.954037,18.952255,0.998011,0.969713,0.006712,0.394065,0.000976,0.000926,-0.000161,0.001114,0.000788,-40.542908,0.001911,
2116,3148,-3.17413573959194,10.8622051362143,0.0325087315118253,0.007057,-0.064690,0.012029,0.267348,-2.915375,313.487476,21.490456,0.999696,0.994883,0.003066,0.474925,0.000012,0.000024,-0.000015,0.000035,0.000002,-55.947529,0.000041,
2041,2098,-4.65028035810723,-12.0181785505533,0.00661172741683913,-0.003790,-0.068247,-0.017140,-0.147555,-3.172720,330.244695,21.495416,0.998846,0.980326,0.005470,0.370412,0.000997,0.000924,0.000155,0.001120,0.000801,38.432108,0.001930,
2116,2098,-3.01402738987457,-12.0182077954063,-0.00598077851680046,-0.001853,-0.068767,-0.024110,-0.036640,-3.226233,329.869264,21.075707,0.998655,0.975174,0.006299,0.285760,0.000940,0.000968,0.000074,0.001029,0.000879,50.297047,0.001910,
2281,2548,0.507891942445585,-2.17301475423141,-0.0225940407632947,0.003990,-0.066238,-0.001093,0.161815,-3.006954,322.199597,21.064871,0.999252,0.989502,0.004257,0.411101,0.000175,0.000130,0.000011,0.000178,0.000128,12.807264,0.000307,
2026,3163,-5.12617396828845,11.1800142991332,0.0483932936718929,0.006761,-0.064347,0.011588,0.259092,-2.893400,313.857921,21.153573,0.999535,0.993754,0.003379,0.437793,-0.000006,0.000056,-0.000031,0.000069,-0.000019,-67.213972,0.000071,
2311,2518,1.16694481180925,-2.82834094936275,-0.0166999710593814,0.003506,-0.066337,-0.004801,0.151732,-3.024738,322.695913,20.895518,0.999268,0.985931,0.004527,0.446799,0.000210,0.000163,0.000006,0.000211,0.000162,6.934469,0.000374,
2431,3133,3.6662627653964,10.5620941460141,0.0195753205532014,0.007410,-0.066227,0.007913,0.283939,-2.995604,313.154218,22.752439,0.999710,0.992690,0.003423,0.430032,0.000040,0.000023,0.000025,0.000058,0.000005,36.065645,0.000070,
2101,2008,-3.32770116831239,-13.9994698855661,0.0180197090928687,-0.003885,-0.072048,-0.021773,-0.138133,-3.369820,331.482321,20.812938,0.999357,0.990070,0.004812,0.466797,0.001239,0.001097,0.000075,0.001271,0.001064,23.296960,0.002339,
2356,2728,2.10868899291929,1.75324115987546,-0.0147151308707407,0.005116,-0.066259,0.004168,0.193960,-2.987928,319.330291,21.426342,0.999415,0.990095,0.003937,0.418465,0.000053,0.000070,0.000020,0.000083,0.000040,56.422520,0.000126,
2041,3178,-4.80312689875177,11.5059535090468,0.0397234341459693,0.007426,-0.064055,0.006462,0.303409,-2.916796,313.492250,21.159279,0.999620,0.993667,0.003359,0.466450,-0.000003,0.000061,-0.000033,0.000075,-0.000017,-67.209323,0.000078,
2161,2008,-2.01853097481849,-13.9973072776385,0.00175045717037392,-0.002731,-0.071656,-0.022607,-0.080623,-3.338777,331.159950,20.522145,0.998492,0.983014,0.005475,0.374488,0.001168,0.001089,0.000022,0.001174,0.001083,14.591532,0.002258,
2416,3028,3.35851770558551,8.28156119695612,0.00245049183268975,0.006416,-0.066602,0.007452,0.240190,-3.005035,314.665909,22.363814,0.999394,0.987799,0.004269,0.419778,0.000017,0.000007,0.000032,0.000044,-0.000020,40.656728,0.000044,
2491,2188,5.16359075402373,-10.0527898300444,0.0027185728359882,0.005476,-0.070077,-0.015261,0.278595,-3.230356,328.527309,19.063196,0.997716,0.968296,0.006853,0.383709,0.000890,0.000867,-0.000174,0.001053,0.000704,-43.088059,0.001768,
2341,2623,1.80020256767714,-0.53574677149777,-0.0221160360321733,0.003904,-0.066588,0.003358,0.141374,-2.995433,320.923313,21.115639,0.999123,0.986349,0.004635,0.460393,0.000127,0.000086,0.000012,0.000131,0.000083,14.610350,0.000215,
2506,2308,5.46499577720831,-7.42182236990075,0.0050343949350804,0.004374,-0.068675,-0.007408,0.198932,-3.136501,326.568567,19.542423,0.998707,0.978147,0.005788,0.428190,0.000647,0.000445,-0.000093,0.000683,0.000409,-21.377295,0.001103,
2371,2773,2.42624357087263,2.73460550077129,-0.0227919728317829,0.005254,-0.065993,0.002520,0.205929,-2.977021,318.545814,21.532132,0.999379,0.989377,0.004000,0.449206,0.000045,0.000043,0.000015,0.000059,0.000029,43.153609,0.000090,
2056,3238,-4.48685542622318,12.8063335830291,0.0563522617771923,0.007495,-0.064492,0.010148,0.295678,-2.906291,312.554620,21.238043,0.999573,0.993695,0.003220,0.439987,-0.000001,0.000035,-0.000054,0.000074,-0.000040,-54.168447,0.000074,
2191,2353,-1.41793950259138,-6.43648529007231,-0.00454035849890033,0.002170,-0.066587,-0.010852,0.109988,-3.070470,325.646499,20.883867,0.999138,0.986075,0.004863,0.468556,0.000392,0.000334,0.000007,0.000393,0.000333,7.065632,0.000727,
2071,2968,-4.12366117795826,6.95722790727135,-0.00129961971720149,0.006067,-0.064729,0.008430,0.233992,-2.916932,316.331717,21.383857,0.999040,0.990012,0.004052,0.436328,0.000025,-0.000015,-0.000028,0.000039,-0.000029,-27.291249,0.000041,
2176,2263,-1.73126134605648,-8.40361829398216,-0.00714017916976672,0.000512,-0.067031,-0.014762,0.045731,-3.091190,327.058325,20.934681,0.998620,0.979865,0.005728,0.364348,0.000560,0.000564,0.000044,0.000606,0.000518,46.176977,0.001125,
2266,2758,0.143975332740464,2.4040067790188,-0.0292854770361259,0.005126,-0.065818,0.004715,0.195330,-2.965946,318.788551,21.460621,0.999176,0.987487,0.004341,0.445816,0.000057,0.000049,0.000012,0.000066,0.000040,36.434230,0.000107,
2251,2458,-0.129711729053628,-4.14019965144097,-0.008502473263718,0.002744,-0.067357,0.000703,0.098757,-3.034773,323.759772,20.927896,0.999599,0.990481,0.004271,0.422018,0.000249,0.000206,0.000000,0.000249,0.000206,0.389966,0.000456,
2131,3268,-2.86827619969415,13.4637365322172,0.029759654275324,0.007815,-0.064935,0.009971,0.307721,-2.944147,311.474977,21.622474,0.999621,0.994745,0.003014,0.412888,0.000007,0.000024,-0.000032,0.000049,-0.000018,-52.449431,0.000049,
2401,2983,3.04143931507838,7.30242191267813,0.00778758118667611,0.006424,-0.066379,0.008953,0.235693,-2.989009,315.425770,22.188935,0.999623,0.991715,0.003817,0.429972,0.000011,0.000009,0.000023,0.000033,-0.000013,43.332438,0.000033,
2131,2128,-2.69141397235762,-11.3623269547343,-0.00761933580116647,-0.000906,-0.069734,-0.016432,-0.015871,-3.235336,329.332075,20.880335,0.998581,0.979392,0.005667,0.399054,0.000861,0.000905,0.000071,0.000958,0.000809,53.594814,0.001768,
2251,2668,-0.16610694896082,0.441746353220736,-0.0186629073151607,0.004299,-0.066364,0.002141,0.165884,-3.003350,320.337623,21.282543,0.999428,0.990592,0.003969,0.438025,0.000101,0.000069,0.000002,0.000101,0.000068,3.995712,0.000170,
2206,2458,-1.10995128236604,-4.14042392877523,-0.0123422369683226,0.002298,-0.066267,-0.004602,0.096359,-3.007291,323.827759,21.024057,0.998852,0.984132,0.005188,0.466654,0.000255,0.000188,0.000000,0.000255,0.000188,0.079544,0.000444,
2221,2293,-0.754155288434866,-7.74824149559518,-0.00435692029884649,0.001958,-0.066888,-0.012355,0.105184,-3.076188,326.530712,20.710839,0.998871,0.984261,0.004983,0.446135,0.000486,0.000478,0.000030,0.000512,0.000451,41.095567,0.000964,
2296,2893,0.773702676513185,5.34066153018772,-0.00906162009613354,0.005647,-0.066019,0.005477,0.215821,-2.979781,316.740049,21.737161,0.999516,0.991500,0.003725,0.436588,0.000021,0.000028,0.000019,0.000044,0.000005,50.498869,0.000054,
2056,2098,-4.32470625380022,-12.0176486669113,-0.00521469426843169,-0.004160,-0.068944,-0.014152,-0.172793,-3.201115,330.036610,21.376124,0.998505,0.979085,0.005698,0.372062,0.000991,0.000926,0.000133,0.001096,0.000822,38.112677,0.001924,
2386,2878,2.73381680322942,5.02024763853053,-0.011204250435128,0.005918,-0.066334,0.005216,0.226372,-2.988641,316.959536,21.899353,0.999396,0.991019,0.003866,0.380762,0.000020,0.000030,0.000023,0.000048,0.000002,51.122047,0.000057,
2101,2023,-3.33112180581178,-13.6674634990016,0.0111205484901689,-0.004048,-0.072024,-0.014281,-0.167395,-3.333718,331.154066,20.971435,0.999005,0.985191,0.005409,0.349789,0.001169,0.001062,0.000055,0.001192,0.001039,22.788911,0.002233,
2476,2173,4.83824563584621,-10.3819624547789,0.00333321825718258,0.005000,-0.070633,-0.014289,0.252648,-3.257294,328.708086,19.080315,0.997428,0.961082,0.007402,0.359016,0.000926,0.000880,-0.000154,0.001059,0.000748,-40.771002,0.001815,
2116,2113,-3.01708688586162,-11.6911003336325,-0.00190142928795467,-0.002369,-0.069042,-0.017021,-0.081285,-3.211476,329.618594,20.966482,0.998909,0.984192,0.005206,0.416382,0.000906,0.000930,0.000079,0.000998,0.000838,49.414927,0.001838,
2161,2023,-2.02133866536326,-13.6679675405879,-0.00139899366456575,-0.002976,-0.071419,-0.023936,-0.087744,-3.338700,330.886091,20.518328,0.998140,0.982129,0.005589,0.392345,0.001118,0.001088,0.000016,0.001124,0.001081,23.322065,0.002206,
2296,2653,0.815360522209833,0.116639163823635,-0.0231798972653792,0.004218,-0.066354,0.001753,0.162409,-3.010775,320.474450,21.214811,0.999222,0.986867,0.004327,0.447642,0.000102,0.000084,0.000006,0.000103,0.000082,16.728632,0.000186,
2446,3253,3.96985159807626,13.166711230413,0.0343746828458507,0.007888,-0.066206,0.010652,0.295325,-2.989499,311.344967,23.241649,0.999772,0.993838,0.003141,0.415873,0.000033,0.000016,-0.000001,0.000033,0.000016,-1.873643,0.000049,
2506,2323,5.46163274612569,-7.09349263179507,0.00370919144813797,0.004481,-0.068587,-0.004556,0.192879,-3.085145,326.308254,19.528276,0.998637,0.982263,0.005352,0.557022,0.000612,0.000425,-0.000071,0.000636,0.000401,-18.600187,0.001046,
2086,2023,-3.65968010334896,-13.6649652527531,-0.000174168998455571,-0.004919,-0.071229,-0.016796,-0.200123,-3.295405,331.098426,21.101165,0.998240,0.981998,0.005847,0.360486,0.001179,0.001049,0.000075,0.001213,0.001015,24.376523,0.002231,
2281,2818,0.460866244799277,3.70901393880294,-0.0112987747280044,0.005309,-0.065901,0.004074,0.205412,-2.985151,317.950908,21.601617,0.999252,0.988666,0.004125,0.402789,0.000036,0.000040,0.000011,0.000050,0.000026,50.546706,0.000077,
2146,2188,-2.37235306389496,-10.0507055767243,0.0172846940827185,-0.000777,-0.068386,-0.015541,-0.011966,-3.165169,328.519726,20.818933,0.999040,0.954821,0.007276,0.486247,0.000716,0.000763,0.000059,0.000803,0.000676,55.834551,0.001481,
2281,2563,0.505032336623191,-1.84665845846459,-0.0230950245862118,0.003857,-0.066413,-0.001232,0.156127,-3.004861,321.946998,21.006443,0.999074,0.987815,0.004605,0.500363,0.000158,0.000124,0.000010,0.000160,0.000121,14.626942,0.000282,
2236,2578,-0.477239926936814,-1.52080318603143,-0.0203530741943609,0.003727,-0.066502,0.001063,0.143355,-3.011569,321.791742,21.118798,0.999325,0.988443,0.004244,0.470030,0.000144,0.000110,0.000005,0.000145,0.000110,7.616931,0.000255,
2161,2218,-2.05159934320529,-9.38896483855454,-0.00913895192343261,-0.000183,-0.067827,-0.014037,0.011166,-3.155698,327.783371,20.946095,0.998186,0.978212,0.005860,0.317538,0.000647,0.000685,0.000055,0.000724,0.000608,54.624094,0.001334,
2056,3253,-4.48939484860861,13.131699918639,0.0566047759122057,0.007425,-0.064469,0.011583,0.288370,-2.909408,312.303903,21.285279,0.999758,0.994806,0.003052,0.382683,0.000002,0.000037,-0.000055,0.000077,-0.000038,-53.788677,0.000077,
2491,2203,5.15984966900102,-9.72383390437759,0.00155421141624856,0.004990,-0.069945,-0.014500,0.253537,-3.213704,328.249837,19.100413,0.997730,0.970425,0.006669,0.425068,0.000857,0.000776,-0.000162,0.000984,0.000650,-37.959144,0.001645,
2041,2113,-4.65221502306528,-11.689356755082,0.000773265674979484,-0.003444,-0.067926,-0.021878,-0.118495,-3.176408,329.984725,21.450211,0.998299,0.979940,0.005881,0.407815,0.000953,0.000881,0.000152,0.001073,0.000761,38.348854,0.001844,
2071,2143,-4.00257481301658,-11.030322941589,-0.00562122357723638,-0.002372,-0.067199,-0.019125,-0.075921,-3.105439,329.325642,21.352674,0.998739,0.983295,0.005371,0.400068,0.000847,0.000834,0.000115,0.000956,0.000725,43.430761,0.001687,
2221,2503,-0.790964260135912,-3.15718161693316,-0.0169247445308542,0.003119,-0.066213,0.000080,0.118976,-3.011706,323.045205,21.076130,0.999298,0.986866,0.004500,0.433146,0.000206,0.000163,0.000001,0.000206,0.000163,1.641986,0.000369,
2266,2533,0.184297566589333,-2.5027514282966,-0.0211087368935523,0.003812,-0.066353,-0.006246,0.170807,-3.066666,322.486896,20.943703,0.999684,0.994754,0.003397,0.470501,0.000185,0.000137,0.000008,0.000186,0.000136,9.146269,0.000324,
2191,2368,-1.42097327909472,-6.107027172899,-0.0103025451641656,0.002132,-0.066058,-0.009862,0.105351,-3.040911,325.350929,20.963916,0.999328,0.986805,0.004778,0.434545,0.000370,0.000309,0.000004,0.000371,0.000309,4.190748,0.000681,
2101,2233,-3.36146069501807,-9.06004586702264,-0.00689650062832925,-0.000355,-0.067092,-0.011331,-0.005314,-3.070882,327.790032,21.208843,0.998161,0.981986,0.005519,0.434427,0.000627,0.000612,0.000092,0.000712,0.000527,42.752447,0.001244,
2116,2323,-3.04835926203723,-7.09000849249158,-0.0120839403589343,0.000723,-0.066064,-0.009772,0.039995,-3.041928,326.273925,21.267946,0.999217,0.986041,0.004741,0.367470,0.000470,0.000377,0.000037,0.000483,0.000364,19.158944,0.000850,
2131,2368,-2.72837268670693,-6.10648915677219,-0.0165468590984119,0.001482,-0.065592,-0.012151,0.082176,-3.028389,325.489197,21.184689,0.998914,0.985281,0.004839,0.429722,0.000388,0.000303,0.000014,0.000390,0.000301,9.007554,0.000693,
2221,2308,-0.757094837478721,-7.42011221647252,-0.00740917235594907,0.001804,-0.067026,-0.012476,0.098458,-3.083330,326.256706,20.711609,0.998763,0.985970,0.004736,0.459272,0.000456,0.000449,0.000030,0.000483,0.000422,41.950493,0.000905,
2326,2533,1.49054426713742,-2.50027909212572,-0.0203358080517546,0.003672,-0.066655,-0.001109,0.146387,-3.019908,322.408568,20.893546,0.999340,0.985805,0.004492,0.460170,0.000201,0.000137,0.000006,0.000202,0.000137,4.934363,0.000341,
2146,2203,-2.37652045118898,-9.71779417160366,-0.0138963505423817,-0.000409,-0.068620,-0.015242,0.003914,-3.183894,328.033559,20.932422,0.998003,0.975798,0.006099,0.365642,0.000683,0.000723,0.000058,0.000765,0.000641,54.371478,0.001408,
2056,3268,-4.49184207566362,13.456508986033,0.0509432163782435,0.007631,-0.064217,0.010075,0.302156,-2.915637,312.024934,21.255269,0.999731,0.994889,0.002969,0.399704,0.000002,0.000030,-0.000053,0.000071,-0.000039,-52.488211,0.000071,
2506,2338,5.45920634580286,-6.76377309615011,0.00185523949579647,0.004996,-0.068254,-0.008616,0.232303,-3.105819,326.088642,19.713306,0.998992,0.985956,0.005184,0.414111,0.000572,0.000397,-0.000066,0.000594,0.000375,-18.604682,0.000977,
2176,2278,-1.73343327643012,-8.0772352377332,-0.000349034343514631,0.000792,-0.067881,-0.008465,0.038848,-3.108735,326.867134,20.874681,0.998488,0.979898,0.005700,0.421134,0.000528,0.000510,0.000037,0.000557,0.000481,37.966613,0.001039,
2191,2443,-1.43398235084243,-4.46810009000606,-0.0132514686903846,0.002403,-0.066519,-0.003795,0.098653,-3.025001,324.107931,21.060017,0.998641,0.985254,0.005099,0.434725,0.000268,0.000193,-0.000004,0.000269,0.000193,-3.226788,0.000463,
2446,3268,3.96486233351468,13.4924436318376,0.0139702660412127,0.007578,-0.066623,0.010865,0.280128,-3.011096,310.911990,23.239425,0.999711,0.993011,0.003326,0.447191,0.000027,0.000006,-0.000010,0.000031,0.000002,-22.489084,0.000036,
2311,2533,1.16444803787002,-2.50155443839662,-0.0150173844342589,0.003827,-0.066814,-0.002310,0.157759,-3.041388,322.473164,20.905096,0.999324,0.987399,0.004379,0.453830,0.000198,0.000140,0.000003,0.000198,0.000140,3.333351,0.000340,
2206,2248,-1.07525857644808,-8.73286891879964,-0.0118588987603516,0.000843,-0.068504,-0.009498,0.044292,-3.138963,327.171408,20.696782,0.998538,0.981705,0.005545,0.402911,0.000580,0.000619,0.000030,0.000635,0.000564,61.466763,0.001200,
2026,3178,-5.12761430963219,11.5048261022069,0.0500489283426759,0.007367,-0.064021,0.008384,0.295913,-2.902359,313.663557,21.144780,0.999596,0.993321,0.003350,0.426830,-0.000007,0.000065,-0.000035,0.000079,-0.000021,-67.899083,0.000082,
2431,3148,3.66260559444952,10.8879941128378,0.0173677634342084,0.006941,-0.066335,0.008348,0.260682,-3.004115,312.866357,22.822092,0.999662,0.993031,0.003350,0.400398,0.000038,0.000024,0.000024,0.000056,0.000006,37.471933,0.000069,
2041,2128,-4.65473796402166,-11.3601046226185,-0.0036288499740067,-0.003322,-0.067974,-0.019282,-0.120156,-3.165573,329.705692,21.451591,0.997771,0.977202,0.006473,0.412895,0.000907,0.000854,0.000156,0.001038,0.000722,40.197343,0.001770,
2266,2773,0.14162284803211,2.73003641673282,-0.0228117406312549,0.004973,-0.066020,0.004416,0.189215,-2.964909,318.592702,21.493130,0.999088,0.986574,0.004444,0.439950,0.000052,0.000044,0.000011,0.000060,0.000036,35.197498,0.000097,
2146,2443,-2.41383707154946,-4.46731794242128,-0.0193126287474001,0.002307,-0.065232,-0.005787,0.101111,-2.976352,324.213694,21.205804,0.999033,0.987237,0.004792,0.457116,0.000287,0.000170,0.000002,0.000287,0.000170,1.085441,0.000462,
2086,2038,-3.66103600242732,-13.3365183288248,-0.00528063294370895,-0.004271,-0.070742,-0.026404,-0.142645,-3.321242,330.873437,21.024114,0.998484,0.982370,0.005623,0.414124,0.001133,0.000994,0.000078,0.001168,0.000959,24.094133,0.002130,
2491,2218,5.15544052031024,-9.39237981478634,-0.00553257429123732,0.004223,-0.068968,-0.015218,0.221636,-3.181717,327.914755,19.294485,0.998768,0.979004,0.005828,0.324846,0.000829,0.000733,-0.000140,0.000929,0.000633,-35.555395,0.001571,
2041,3193,-4.80536075713519,11.8311099660865,0.0495889031237766,0.007189,-0.064333,0.010264,0.281857,-2.904682,313.308016,21.214261,0.999579,0.993180,0.003400,0.414683,-0.000005,0.000053,-0.000039,0.000072,-0.000025,-63.599568,0.000073,
2116,3163,-3.17631345784669,11.1870147357128,0.0398388134912011,0.006868,-0.064875,0.011802,0.259223,-2.928146,313.295754,21.518943,0.999547,0.992966,0.003463,0.435729,0.000010,0.000035,-0.000018,0.000044,0.000001,-62.324611,0.000052,
2416,3043,3.35655757682445,8.60693377907504,0.00858007431105534,0.006570,-0.066315,0.003194,0.263046,-2.993132,314.494799,22.391088,0.999515,0.989751,0.004049,0.451367,0.000014,0.000019,0.000035,0.000051,-0.000019,47.140246,0.000052,
2161,2233,-2.05364047606071,-9.06175996387552,-0.00343825596519309,-0.000184,-0.067788,-0.014532,0.012590,-3.129657,327.591073,20.892146,0.998367,0.979077,0.005621,0.409862,0.000614,0.000639,0.000051,0.000679,0.000573,51.950094,0.001254,
2236,2593,-0.479220274331208,-1.19402126631909,-0.0190598212261648,0.004047,-0.066244,-0.002209,0.168723,-3.025924,321.584883,21.139894,0.999299,0.986097,0.004642,0.456193,0.000139,0.000098,0.000004,0.000140,0.000098,5.979628,0.000239,
2056,3283,-4.49457925698693,13.7810914342176,0.0429472757015219,0.007787,-0.064326,0.010088,0.309334,-2.912106,311.719833,21.186444,0.999735,0.995272,0.002898,0.465599,0.000001,0.000045,-0.000050,0.000078,-0.000031,-56.881784,0.000078,
2296,2908,0.771616859823308,5.66607534377562,0.000395670957743732,0.005778,-0.066312,0.007771,0.213938,-2.995583,316.573003,21.785526,0.999513,0.992110,0.003625,0.401925,0.000019,0.000028,0.000016,0.000040,0.000007,53.264466,0.000051,
2086,2203,-3.68457352076134,-9.71659326156053,-0.00986155111183962,-0.001445,-0.067301,-0.015042,-0.044842,-3.108415,328.281091,21.266014,0.998127,0.980971,0.005572,0.407304,0.000690,0.000678,0.000107,0.000791,0.000576,43.429218,0.001373,
2401,2998,3.03841967948191,7.62961509589225,-0.000323398543400799,0.006518,-0.065940,0.003194,0.261023,-3.002359,315.137441,22.300957,0.999515,0.989287,0.004128,0.349580,0.000012,0.000007,0.000027,0.000037,-0.000017,42.517009,0.000037,
2101,2038,-3.33380711036432,-13.3379542899106,-0.00758430429249302,-0.003691,-0.071470,-0.021645,-0.129525,-3.317875,330.796337,20.796551,0.999253,0.984729,0.005381,0.545852,0.001122,0.001014,0.000059,0.001148,0.000988,23.721269,0.002138,
2446,3283,3.96111112130558,13.818323609177,0.00508796618049701,0.007587,-0.066635,0.011328,0.278742,-3.024211,310.589262,23.311675,0.999705,0.992079,0.003491,0.412393,0.000028,-0.000001,-0.000013,0.000032,-0.000006,-20.819186,0.000034,
2206,2473,-1.11266739835859,-3.81223831032111,-0.0186413832412882,0.002562,-0.065683,-0.004889,0.109532,-3.007228,323.545569,21.050573,0.999211,0.983151,0.005256,0.458274,0.000243,0.000176,0.000001,0.000243,0.000176,1.191879,0.000421,
2161,2518,-2.10042526793537,-2.82894765798013,-0.0337010474083854,0.002967,-0.065572,-0.001044,0.116686,-2.988600,322.840584,21.240784,0.998984,0.985493,0.004856,0.427048,0.000210,0.000138,0.000008,0.000211,0.000137,6.380779,0.000350,
2371,2788,2.42362331897825,3.06158030290479,-0.0141142479748737,0.005094,-0.066361,0.005856,0.186543,-2.991506,318.354395,21.689235,0.999836,0.994185,0.003372,0.318451,0.000046,0.000049,0.000017,0.000064,0.000030,47.575452,0.000096,
2281,2578,0.503821963880011,-1.52067788781049,-0.0123089388178528,0.004391,-0.066498,-0.003540,0.188326,-3.017765,321.826419,21.031805,0.998966,0.985781,0.004867,0.490279,0.000149,0.000118,0.000010,0.000152,0.000115,16.345780,0.000268,
2071,2158,-4.00513693957124,-10.7029901254009,-0.00311256898112333,-0.002529,-0.067912,-0.014531,-0.096438,-3.139091,329.085960,21.309631,0.998904,0.983214,0.005316,0.409273,0.000807,0.000789,0.000111,0.000909,0.000687,42.572006,0.001601,
2251,2683,-0.168338134519121,0.768371703733102,-0.0190935759526951,0.004554,-0.066024,-0.000652,0.186876,-3.004374,320.111507,21.289302,0.999366,0.990441,0.003950,0.454118,0.000094,0.000070,-0.000001,0.000094,0.000070,-3.193487,0.000165,
2236,2398,-0.446190333195904,-5.45113134760636,-0.0145712914272735,0.002572,-0.067517,-0.003995,0.106280,-3.069285,324.717071,20.839470,0.999339,0.988944,0.004377,0.423449,0.000308,0.000281,-0.000001,0.000308,0.000281,-2.826991,0.000590,
2116,2338,-3.05111377497228,-6.76271061981316,-0.0165433187232793,0.000836,-0.066614,-0.006728,0.036009,-3.042222,325.991539,21.181373,0.999235,0.985624,0.004792,0.459293,0.000442,0.000351,0.000028,0.000450,0.000343,15.863924,0.000795,
2056,2113,-4.3263287152041,-11.6894625681034,-0.00907921850665616,-0.003587,-0.068875,-0.018760,-0.133601,-3.223858,329.803405,21.314538,0.998578,0.981342,0.005628,0.408745,0.000952,0.000884,0.000133,0.001055,0.000781,37.856294,0.001842,
2386,2893,2.73097132505691,5.34600517372999,-0.0119984980015033,0.005774,-0.065960,0.001984,0.231556,-2.971453,316.713445,21.869623,0.999322,0.991522,0.003909,0.471027,0.000019,0.000028,0.000022,0.000046,0.000001,51.085704,0.000054,
2056,3298,-4.49731336634854,14.1065360333937,0.0351414589535466,0.007916,-0.064008,0.009760,0.316351,-2.895347,311.415568,21.189713,0.999546,0.993948,0.003138,0.472126,0.000007,0.000060,-0.000052,0.000092,-0.000025,-58.686676,0.000095,
2506,2353,5.45692990066631,-6.43531310247228,-0.000917585785089159,0.005609,-0.067470,-0.014039,0.281624,-3.097225,325.871762,19.750082,0.998998,0.984744,0.005349,0.448905,0.000558,0.000396,-0.000062,0.000579,0.000375,-18.649093,0.000961,
2341,2638,1.79843962965971,-0.208648719247918,-0.0211611253138813,0.004393,-0.065697,-0.003017,0.186376,-2.987381,320.732521,21.155957,0.999064,0.986259,0.004690,0.465469,0.000115,0.000089,0.000005,0.000116,0.000088,10.292200,0.000205,
2191,2458,-1.43658835030357,-4.1404953538953,-0.0161429811461176,0.002590,-0.066361,-0.002898,0.104499,-3.010145,323.847135,21.044759,0.998788,0.985309,0.005103,0.480821,0.000255,0.000184,-0.000004,0.000256,0.000184,-3.053936,0.000442,
2176,2593,-1.78562252321948,-1.19477991167222,-0.0206064272050526,0.003185,-0.066058,-0.000068,0.123289,-3.001863,321.690948,21.263033,0.998995,0.987196,0.004483,0.428298,0.000140,0.000090,0.000009,0.000142,0.000088,10.075776,0.000232,
2041,3208,-4.80736516248771,12.1555726184583,0.0508470917440604,0.007416,-0.064369,0.009299,0.294996,-2.907121,313.086731,21.172266,0.999525,0.992680,0.003397,0.445564,-0.000007,0.000049,-0.000042,0.000072,-0.000029,-61.967602,0.000072,
2146,2218,-2.37846471127549,-9.38889759598079,-0.00482928344860056,-0.000431,-0.067210,-0.013801,-0.000984,-3.104409,327.861849,21.009840,0.998141,0.977604,0.005855,0.377855,0.000652,0.000683,0.000059,0.000728,0.000606,52.345612,0.001336,
2116,2128,-3.01915603194203,-11.3631631526942,-0.00101012083985097,-0.002078,-0.069547,-0.016152,-0.070686,-3.229872,329.396144,20.935989,0.998363,0.980744,0.005738,0.434669,0.000866,0.000901,0.000083,0.000968,0.000798,50.940403,0.001769,
2491,2233,5.1521245876677,-9.0645081684299,-0.00686545449764253,0.004472,-0.069582,-0.010878,0.216199,-3.184310,327.656036,19.261299,0.998857,0.978935,0.005920,0.417046,0.000800,0.000714,-0.000119,0.000884,0.000630,-35.056245,0.001521,
2176,2293,-1.73550620488485,-7.7471306504844,-0.00653676041184781,0.001245,-0.066592,-0.014267,0.077981,-3.068409,326.611809,20.970465,0.998766,0.981957,0.005353,0.380244,0.000502,0.000462,0.000038,0.000525,0.000439,31.376526,0.000966,
2326,2548,1.48776450047816,-2.1727933558624,-0.0221253663435164,0.003907,-0.066668,0.000149,0.152886,-3.008811,322.156747,20.913845,0.998947,0.983990,0.004906,0.486468,0.000190,0.000124,0.000010,0.000192,0.000122,8.724289,0.000316,
2176,2068,-1.69969420496576,-12.6816698564103,0.00589046770215873,-0.001345,-0.071446,-0.018254,-0.030010,-3.318848,330.231817,20.484778,0.999058,0.983972,0.005231,0.390538,0.001007,0.001034,0.000031,0.001055,0.000987,56.708718,0.002042,
2131,2383,-2.73066642909598,-5.77861825788357,-0.0161032233756941,0.001605,-0.065477,-0.011729,0.086607,-3.007843,325.255150,21.193563,0.998773,0.984394,0.004953,0.448744,0.000366,0.000277,0.000013,0.000368,0.000275,8.127812,0.000646,
2101,2248,-3.36374053640431,-8.73183117823902,-0.0113108505385071,-0.000132,-0.066989,-0.013277,0.010642,-3.100635,327.528151,21.202393,0.998364,0.984090,0.005339,0.414916,0.000603,0.000598,0.000091,0.000692,0.000509,44.099322,0.001206,
2221,2323,-0.760328879425021,-7.09094156152621,-0.0187615787178288,0.002081,-0.067056,-0.010601,0.105180,-3.079870,325.926497,20.720174,0.998827,0.986651,0.004710,0.475415,0.000429,0.000408,0.000022,0.000442,0.000394,31.870872,0.000837,
2476,2188,4.83556985928367,-10.0527114138237,0.00499702862032336,0.005001,-0.070035,-0.017307,0.264382,-3.231217,328.490952,19.159209,0.997831,0.966652,0.007153,0.365393,0.000891,0.000855,-0.000150,0.001023,0.000722,-41.524083,0.001754,
2191,2383,-1.42397747582996,-5.77970915876973,-0.00995779865326085,0.001930,-0.066524,-0.005519,0.082318,-3.035752,325.088881,20.937379,0.999082,0.986139,0.004849,0.482412,0.000346,0.000287,0.000006,0.000347,0.000287,5.778072,0.000635,
2296,2923,0.769135528412306,5.99061478039191,0.00548876997078196,0.005783,-0.066303,0.009421,0.208621,-2.985687,316.366313,21.699613,0.999483,0.992509,0.003528,0.527341,0.000015,0.000029,0.000010,0.000034,0.000010,62.491691,0.000046,
2251,2473,-0.131440554569632,-3.81365267032009,-0.00433930153553774,0.003137,-0.066800,-0.002342,0.126941,-3.025434,323.580273,20.892019,0.999517,0.990435,0.004165,0.491603,0.000235,0.000186,0.000002,0.000235,0.000186,2.410332,0.000423,
2221,2518,-0.793125821601006,-2.83025895821492,-0.0157043226595306,0.003266,-0.065869,-0.002735,0.134832,-3.000573,322.828520,21.060197,0.999123,0.985393,0.004671,0.480113,0.000192,0.000160,0.000010,0.000195,0.000157,15.224111,0.000353,
2266,2788,0.139550703371381,3.05590920646944,-0.0199563322428844,0.005325,-0.066066,0.003639,0.207984,-2.974878,318.391574,21.497573,0.999075,0.986947,0.004543,0.451159,0.000049,0.000045,0.000008,0.000055,0.000038,39.461523,0.000094,
2281,2833,0.457594319729008,4.03512351911293,-0.0143499202142152,0.005060,-0.066204,0.005198,0.190068,-3.003569,317.666069,21.603810,0.999402,0.990593,0.003978,0.409744,0.000030,0.000040,0.000014,0.000050,0.000020,55.498540,0.000072,
2071,1993,-3.98242695673238,-14.3232730430635,-0.00399752231027151,-0.005545,-0.070960,-0.027558,-0.198374,-3.360734,331.625505,21.169435,0.997400,0.976816,0.006398,0.327156,0.001322,0.001132,0.000117,0.001378,0.001076,25.569069,0.002460,
2086,2218,-3.68623639171994,-9.38760270665876,-0.0112217107474635,-0.000890,-0.066502,-0.017939,-0.010769,-3.072760,328.062074,21.285704,0.998029,0.981511,0.005525,0.424785,0.000661,0.000645,0.000109,0.000763,0.000544,42.851770,0.001312,
2161,2533,-2.10211676196196,-2.50225960212271,-0.0266523013228834,0.003278,-0.065567,-0.001206,0.131501,-2.983605,322.671514,21.266464,0.999043,0.986318,0.004602,0.417150,0.000191,0.000122,0.000010,0.000193,0.000120,7.824261,0.000316,
2266,2548,0.181981643949481,-2.17355678787651,-0.0207368806872523,0.004281,-0.066052,-0.004538,0.186825,-3.022605,322.261682,21.106043,0.999480,0.991759,0.003878,0.378746,0.000177,0.000127,0.000015,0.000181,0.000123,15.024959,0.000306,
2116,3178,-3.17802379311867,11.5113967901351,0.0458550695225313,0.007144,-0.064968,0.010210,0.276645,-2.935185,313.118585,21.497285,0.999509,0.992075,0.003543,0.452540,0.000009,0.000044,-0.000019,0.000052,0.000001,-66.651619,0.000061,
2356,2743,2.10566719060328,2.07972946184661,-0.0165111942137628,0.004748,-0.065988,-0.000045,0.192026,-2.995143,319.069384,21.435504,0.999499,0.990869,0.003777,0.441261,0.000048,0.000065,0.000020,0.000079,0.000034,56.328732,0.000116,
2131,2143,-2.69488569511349,-11.0328595377089,-0.00880758568479223,-0.001880,-0.068829,-0.016017,-0.061517,-3.179556,329.035105,20.899316,0.998669,0.980997,0.005589,0.444648,0.000819,0.000859,0.000074,0.000916,0.000762,52.612953,0.001681,
2416,3058,3.35359045519238,8.93262077655383,0.0153548327186286,0.006612,-0.066518,0.010734,0.237275,-2.987870,314.280202,22.461537,0.999553,0.990443,0.003966,0.432928,0.000017,0.000013,0.000034,0.000048,-0.000019,43.211293,0.000049,
2176,2353,-1.74633380320928,-6.43400336536896,-0.0217217281303874,0.001678,-0.066528,-0.010697,0.086826,-3.043554,325.526156,20.977565,0.998169,0.979320,0.005809,0.455488,0.000389,0.000329,0.000004,0.000389,0.000329,3.396354,0.000719,
2311,2548,1.16125079366887,-2.17406562638677,-0.0174634956362638,0.003842,-0.067117,0.001304,0.146015,-3.043469,322.197751,20.932481,0.999063,0.984913,0.004857,0.457592,0.000187,0.000129,0.000011,0.000189,0.000127,10.345568,0.000318,
2086,2053,-3.66185534790256,-13.0075642484144,0.0102385673700951,-0.003266,-0.070629,-0.018418,-0.119525,-3.262465,330.784097,21.145270,0.997979,0.979603,0.005861,0.353358,0.001089,0.000985,0.000086,0.001138,0.000936,29.390892,0.002078,
2161,2248,-2.05597104496792,-8.73289403694937,-0.00967575114333385,0.000473,-0.067929,-0.012954,0.037852,-3.103254,327.322567,20.871316,0.998465,0.977746,0.005576,0.469809,0.000589,0.000603,0.000053,0.000649,0.000543,48.615053,0.001193,
2176,2608,-1.78804313881095,-0.866408309240313,-0.0276736748070334,0.003626,-0.065322,-0.002131,0.150263,-2.958909,321.415045,21.304447,0.998937,0.987427,0.004537,0.442912,0.000135,0.000067,0.000006,0.000135,0.000066,4.720488,0.000205,
2176,2083,-1.70257489794045,-12.3511300513324,0.00285322522927345,-0.001398,-0.070997,-0.016214,-0.038581,-3.287554,329.956225,20.583226,0.999221,0.984563,0.005271,0.339129,0.000970,0.001019,0.000032,0.001034,0.000954,63.906741,0.001989,
2071,2173,-4.00716697502164,-10.3742687131103,-0.00123081650974655,-0.002286,-0.067757,-0.012790,-0.090201,-3.115240,328.866620,21.334091,0.998770,0.984477,0.005178,0.408149,0.000772,0.000738,0.000110,0.000867,0.000643,40.629861,0.001516,
2161,2278,-2.06108120750715,-8.07567886271158,-0.00662134727815555,0.000540,-0.067759,-0.006214,0.020416,-3.090408,326.846783,20.997950,0.998067,0.977222,0.006094,0.380378,0.000533,0.000505,0.000044,0.000565,0.000473,36.288963,0.001039,
2281,2593,0.500318475414552,-1.19196379505195,-0.0176496801246913,0.004063,-0.065849,-0.002528,0.170116,-2.988620,321.519477,21.129486,0.999102,0.987750,0.004495,0.450502,0.000141,0.000104,0.000012,0.000144,0.000101,16.279349,0.000247,
2431,3163,3.66055938461884,11.2131516365809,0.0230520396502243,0.007303,-0.066421,0.007068,0.282114,-3.006566,312.689649,22.868691,0.999622,0.991938,0.003587,0.400201,0.000031,0.000033,0.000025,0.000057,0.000007,45.879240,0.000070,
2026,3193,-5.12999754603412,11.829699353206,0.0541061967264227,0.007210,-0.064089,0.010520,0.282826,-2.884577,313.439376,21.132856,0.999579,0.992743,0.003379,0.445475,-0.000008,0.000059,-0.000040,0.000077,-0.000026,-64.895961,0.000079,
2116,2143,-3.0218047196751,-11.0323976590444,-0.00977690241074924,-0.002060,-0.068368,-0.020336,-0.057169,-3.185985,329.094749,21.002759,0.997187,0.973895,0.006817,0.418613,0.000822,0.000854,0.000086,0.000926,0.000751,50.303300,0.001680,
2236,2653,-0.48875586537066,0.11497980991674,-0.00942144813728873,0.004702,-0.065821,0.002784,0.182823,-2.985636,320.705173,21.381495,0.999307,0.988687,0.004371,0.341704,0.000112,0.000075,0.000008,0.000114,0.000073,10.893049,0.000188,
2101,2263,-3.36634014603333,-8.40448060833481,-0.00607917680912351,-0.000306,-0.067540,-0.006815,-0.016387,-3.089021,327.303613,21.180084,0.998404,0.983322,0.005329,0.452275,0.000579,0.000565,0.000090,0.000662,0.000482,42.808438,0.001149,
2071,2008,-3.98471535078543,-13.9930667263644,-0.00661767676695035,-0.005231,-0.070889,-0.024799,-0.191868,-3.330406,331.369412,21.213242,0.998126,0.981469,0.005735,0.314363,0.001274,0.001102,0.000118,0.001334,0.001042,27.061432,0.002382,
2386,2908,2.72709186537108,5.67234334982868,-0.0123237770685591,0.005610,-0.066884,0.012029,0.187540,-2.994101,316.421858,21.941056,0.999267,0.990290,0.004064,0.419366,0.000016,0.000022,0.000024,0.000043,-0.000005,48.850001,0.000047,
2056,2128,-4.32911802667543,-11.358954169927,-0.010874941613622,-0.003683,-0.068588,-0.013427,-0.152894,-3.168339,329.527467,21.415127,0.998433,0.981241,0.005740,0.361295,0.000907,0.000857,0.000138,0.001023,0.000741,39.962638,0.001772,
2296,2668,0.813113945291278,0.443767057073302,-0.0168686189414871,0.004271,-0.066406,0.002125,0.163614,-3.008189,320.284474,21.316639,0.999560,0.989756,0.004000,0.378568,0.000092,0.000085,0.000004,0.000094,0.000083,22.574990,0.000177,
2506,2368,5.453289325876,-6.10709715982225,-0.00346340175622117,0.005412,-0.066912,-0.012652,0.267538,-3.053204,325.593048,19.737009,0.998142,0.978520,0.006178,0.569414,0.000545,0.000382,-0.000065,0.000568,0.000359,-19.236030,0.000935,
2206,2488,-1.11541762361665,-3.4834631674832,-0.0260295425028971,0.002801,-0.065693,-0.006245,0.124838,-3.004827,323.256027,21.124539,0.999211,0.985087,0.004887,0.405077,0.000225,0.000168,-0.000003,0.000225,0.000168,-3.500511,0.000395,
2326,2563,1.48516040451081,-1.84556976579496,-0.0180024613545129,0.003832,-0.066957,0.000839,0.146958,-3.023318,321.941928,20.992833,0.998486,0.982460,0.005248,0.427892,0.000171,0.000119,0.000013,0.000174,0.000116,13.277242,0.000292,
2236,2608,-0.48176029320636,-0.866271273974213,-0.0235349877384579,0.004199,-0.065424,-0.005757,0.187481,-3.004923,321.322634,21.169452,0.999094,0.984954,0.004780,0.469583,0.000135,0.000079,0.000004,0.000136,0.000079,4.013226,0.000217,
2086,2233,-3.68878971822409,-9.05828248578839,-0.0144634872764868,-0.000607,-0.066378,-0.013015,-0.011953,-3.031904,327.792092,21.316463,0.998626,0.983928,0.005033,0.436602,0.000631,0.000607,0.000101,0.000721,0.000517,41.528275,0.001243,
2266,2803,0.136800000512512,3.38298084647141,-0.0188653336247171,0.005473,-0.065889,0.007568,0.201840,-2.952763,318.149992,21.570704,0.998900,0.987118,0.004847,0.425436,0.000043,0.000041,0.000009,0.000051,0.000032,41.432368,0.000084,
2116,2353,-3.05376714810196,-6.43374399669777,-0.0165874093378875,0.000945,-0.066784,-0.001078,0.024257,-3.023069,325.736983,21.276759,0.999173,0.983381,0.005078,0.388587,0.000414,0.000323,0.000022,0.000419,0.000318,12.892511,0.000739,
2041,3223,-4.80982910885396,12.4806827803071,0.048725416255877,0.007445,-0.064297,0.009233,0.296563,-2.907721,312.825311,21.172341,0.999472,0.992589,0.003375,0.435902,-0.000006,0.000043,-0.000048,0.000072,-0.000036,-58.663670,0.000072,
2266,3043,0.0973800779050471,8.5960897413604,0.0177080025433725,0.006521,-0.065700,0.006942,0.252282,-2.978338,314.593945,21.966241,0.999498,0.991162,0.003762,0.405299,0.000006,0.000012,0.000000,0.000012,0.000006,-86.128022,0.000018,
2101,2053,-3.33500288629834,-13.0070841149339,0.00381730787330525,-0.003160,-0.070273,-0.019790,-0.110175,-3.249477,330.668076,21.037148,0.998489,0.972773,0.006494,0.377793,0.001077,0.001004,0.000069,0.001119,0.000963,30.994793,0.002083,
2401,3013,3.0356172210926,7.95509245643625,0.00134237823499461,0.006557,-0.066063,0.003843,0.260431,-3.003318,314.905690,22.313560,0.999496,0.988509,0.004148,0.380770,0.000014,0.000005,0.000030,0.000040,-0.000021,41.027790,0.000040,
2146,2458,-2.41677377163957,-4.13870347192979,-0.0225126731105547,0.002230,-0.065239,-0.002925,0.088920,-2.955997,323.931937,21.274292,0.999048,0.987179,0.004818,0.418335,0.000268,0.000157,-0.000002,0.000268,0.000157,-0.946100,0.000429,
2476,2203,4.83193526116084,-9.72335941088425,0.0016981290974627,0.004941,-0.069741,-0.014474,0.251078,-3.204208,328.207314,19.199561,0.997717,0.967807,0.006906,0.411507,0.000851,0.000772,-0.000143,0.000960,0.000663,-37.266456,0.001632,
2416,3073,3.351224237003,9.25806284736491,0.0167889453420003,0.006871,-0.066354,0.008149,0.258682,-2.995844,314.068250,22.491190,0.999604,0.990502,0.003917,0.442045,0.000018,0.000018,0.000030,0.000049,-0.000012,45.056345,0.000051,
2296,2938,0.766483193686241,6.31849080913926,0.00389232713752108,0.005918,-0.065947,0.008262,0.218971,-2.956477,316.117506,21.857612,0.999208,0.989881,0.004019,0.428060,0.000015,0.000023,0.000011,0.000031,0.000007,54.676177,0.000040,
2131,2398,-2.73209304595093,-5.45193223417887,-0.00502797490526063,0.001870,-0.065266,-0.011715,0.098798,-3.007348,325.117721,21.220672,0.998507,0.983121,0.005158,0.428782,0.000345,0.000239,0.000008,0.000345,0.000238,4.287613,0.000587,
2446,3298,3.95794271998679,14.1431176499355,0.00235065570200277,0.007659,-0.066460,0.011613,0.281095,-3.012361,310.322157,23.296666,0.999731,0.992696,0.003407,0.490115,0.000019,-0.000006,-0.000015,0.000026,-0.000013,-25.379949,0.000026,
2491,2248,5.14901372387747,-8.73646748079847,-0.0024582033651086,0.004610,-0.069727,-0.004552,0.198293,-3.175874,327.432337,19.296983,0.998821,0.979745,0.005725,0.450823,0.000762,0.000648,-0.000115,0.000833,0.000576,-31.841100,0.001417,
2086,2068,-3.66524209434534,-12.6766142065821,-0.00896573506292953,-0.003526,-0.069481,-0.024499,-0.113610,-3.266097,330.389556,21.128973,0.998109,0.959785,0.007873,0.369232,0.001047,0.000967,0.000096,0.001111,0.000903,33.677484,0.002018,
2221,2578,-0.803188978453473,-1.52059445168692,-0.0216719492257198,0.004060,-0.065877,-0.002035,0.169109,-2.998612,321.840720,21.171344,0.999041,0.987343,0.004415,0.450464,0.000149,0.000108,0.000013,0.000153,0.000104,16.420668,0.000259,
2341,2653,1.79479124810389,0.118861126293147,-0.0275009118319645,0.004392,-0.066324,0.001501,0.170354,-3.002319,320.419698,21.200574,0.999287,0.988211,0.004419,0.442926,0.000101,0.000084,0.000007,0.000103,0.000082,18.542316,0.000185,
2251,2698,-0.170635717493511,1.0951656989664,-0.0201698222982714,0.005061,-0.065941,0.000313,0.207046,-3.001933,319.878998,21.307445,0.999408,0.990774,0.003752,0.462023,0.000085,0.000067,0.000001,0.000085,0.000067,3.978593,0.000152,
2116,3193,-3.18055294520859,11.8366606996929,0.0457756927499418,0.007153,-0.064967,0.011016,0.274669,-2.935119,312.870624,21.517043,0.999571,0.992416,0.003603,0.435163,0.000008,0.000044,-0.000023,0.000054,-0.000003,-64.248018,0.000061,
2206,2503,-1.11725047455463,-3.15704360028155,-0.0198479505015712,0.003207,-0.065509,-0.004708,0.138662,-2.989350,323.078929,21.098921,0.999456,0.988049,0.004377,0.463608,0.000209,0.000158,-0.000002,0.000209,0.000158,-1.993482,0.000368,
2251,2728,-0.176957021205848,1.74925187929679,-0.0255761793848137,0.004449,-0.065895,0.000302,0.178975,-3.003996,319.318083,21.384612,0.999220,0.989788,0.004007,0.430250,0.000073,0.000054,0.000004,0.000074,0.000054,12.048430,0.000128,
2131,2158,-2.69508543788428,-10.7053751798876,0.00934333062338055,-0.001185,-0.068093,-0.020757,-0.015258,-3.180730,328.991053,21.005723,0.999668,0.990525,0.004338,0.344526,0.000787,0.000820,0.000076,0.000882,0.000725,51.175683,0.001609,
2191,2398,-1.42547148169616,-5.45236024252772,-0.00244675363319402,0.002352,-0.066102,-0.006939,0.106303,-3.006284,324.933022,20.962744,0.999033,0.984955,0.005080,0.502320,0.000327,0.000253,0.000000,0.000327,0.000253,-0.213012,0.000582,
2071,2023,-3.98702672933768,-13.6636657472973,-0.00900433572024895,-0.005073,-0.070306,-0.023812,-0.187304,-3.282369,331.113581,21.174685,0.998263,0.982401,0.005643,0.401551,0.001207,0.001034,0.000087,0.001243,0.000998,22.594602,0.002245,
2116,2158,-3.02389324139952,-10.702795559864,-0.0146380400312296,-0.001306,-0.068247,-0.017902,-0.029758,-3.163480,328.840135,21.032989,0.998488,0.982376,0.005545,0.417319,0.000789,0.000813,0.000089,0.000891,0.000711,48.940545,0.001605,
2431,3178,3.65830753808033,11.5376669217047,0.0341648536573302,0.007406,-0.066591,0.010563,0.273799,-3.011494,312.528910,22.893932,0.999609,0.991294,0.003652,0.418643,0.000033,0.000039,0.000024,0.000061,0.000012,48.835723,0.000078,
2371,2803,2.42125658195228,3.38612902426961,-0.0111689392081757,0.005480,-0.066872,0.007399,0.198600,-3.013215,318.147774,21.589530,0.999844,0.994613,0.003352,0.437459,0.000045,0.000038,0.000018,0.000060,0.000023,39.833259,0.000086,
2161,2548,-2.10425257384236,-2.17563802400787,-0.027417885455236,0.003532,-0.065465,-0.003389,0.149924,-2.970979,322.440974,21.212909,0.999165,0.986610,0.004423,0.494599,0.000181,0.000115,0.000016,0.000184,0.000111,12.627541,0.000299,
2221,2533,-0.795622266005598,-2.5016935117979,-0.0198077648088315,0.003474,-0.065786,-0.005384,0.152900,-3.003208,322.568868,21.165508,0.999439,0.988668,0.004195,0.392075,0.000180,0.000142,0.000011,0.000183,0.000139,14.768074,0.000323,
2191,2473,-1.43911157296143,-3.81210163031854,-0.0216208457189282,0.002962,-0.066107,-0.003182,0.122556,-3.002780,323.576538,21.090602,0.998981,0.983626,0.005268,0.458071,0.000246,0.000176,-0.000001,0.000246,0.000176,-0.755311,0.000424,
2161,2293,-2.06253227658259,-7.74677191832801,-0.0171690957218971,0.001359,-0.066070,-0.019614,0.099488,-3.071866,326.595851,20.962248,0.998419,0.980973,0.005556,0.447106,0.000508,0.000460,0.000044,0.000535,0.000433,30.764824,0.000970,
2386,2923,2.72520077246554,5.9981325598779,-0.00778749074402185,0.005899,-0.066494,0.007469,0.217324,-3.008441,316.244931,21.992383,0.999072,0.989473,0.004282,0.396521,0.000014,0.000020,0.000020,0.000038,-0.000003,49.411481,0.000042,
2071,2188,-4.00858084113217,-10.0455384032116,-0.00773787650973645,-0.000994,-0.067417,-0.012474,-0.031725,-3.121704,328.629824,21.306048,0.998432,0.984435,0.005422,0.429082,0.000727,0.000712,0.000106,0.000825,0.000613,42.947974,0.001444,
2491,2263,5.14652772250067,-8.40691875135658,-0.00188300855273837,0.004828,-0.068933,-0.008645,0.224278,-3.157696,327.219845,19.426158,0.998717,0.978115,0.005527,0.400907,0.000730,0.000591,-0.000107,0.000788,0.000533,-28.456219,0.001329,
2266,2818,0.134590285662465,3.70884244142875,-0.0163377148851964,0.005462,-0.065518,0.003329,0.215439,-2.973178,317.940865,21.590214,0.999208,0.988755,0.004347,0.410978,0.000039,0.000042,0.000011,0.000052,0.000029,49.111387,0.000082,
2086,2083,-3.67006368194695,-12.3429154603566,-0.0389996835930333,-0.003598,-0.069237,-0.015975,-0.141385,-3.202790,329.869972,21.185406,0.998355,0.946564,0.009329,0.379952,0.001001,0.000960,0.000101,0.001084,0.000878,39.201257,0.001965,
2146,2233,-2.38120145260531,-9.06084998844753,-0.00624917029688277,-0.000589,-0.067500,-0.012979,-0.010798,-3.119768,327.599103,21.000026,0.998547,0.978985,0.005548,0.382760,0.000618,0.000637,0.000054,0.000682,0.000573,50.143100,0.001257,
2176,2623,-1.79017097478768,-0.540094904597119,-0.0249553934618802,0.003988,-0.065601,0.000148,0.159749,-2.972962,321.204405,21.303188,0.999271,0.987593,0.004428,0.443042,0.000124,0.000063,0.000005,0.000124,0.000063,4.547602,0.000191,
2056,2143,-4.33003154008625,-11.0309400166485,-0.0108250891354942,-0.002693,-0.067597,-0.018843,-0.091990,-3.157840,329.347992,21.358361,0.998604,0.983066,0.005552,0.425681,0.000863,0.000832,0.000137,0.000986,0.000709,41.806865,0.001702,
2236,2668,-0.491441364175717,0.4414980315142,-0.0098243087520018,0.004404,-0.065426,-0.000995,0.181581,-2.966822,320.457187,21.353442,0.999378,0.990090,0.004081,0.410468,0.000107,0.000067,0.000004,0.000108,0.000067,5.920582,0.000177,
2116,2368,-3.05433912155358,-6.10677277979919,-0.0137514299626105,0.001976,-0.065833,-0.010267,0.099080,-3.018594,325.593550,21.237066,0.998938,0.983765,0.005078,0.437642,0.000396,0.000296,0.000018,0.000400,0.000293,10.059089,0.000695,
2071,2038,-3.98880548317223,-13.3345097718025,-0.00912318793263012,-0.004901,-0.069300,-0.028902,-0.164673,-3.262010,330.894617,21.172603,0.998465,0.983153,0.005403,0.424188,0.001161,0.000973,0.000091,0.001198,0.000936,22.109113,0.002139,
2131,2413,-2.73552814711575,-5.12254164294154,-0.0165273699353179,0.002090,-0.065767,-0.004481,0.087150,-2.972079,324.767464,21.249636,0.998826,0.985677,0.004927,0.442959,0.000328,0.000204,0.000010,0.000329,0.000204,4.548135,0.000537,
2176,2308,-1.7382855189259,-7.41959399071043,-0.00513543860068921,0.000904,-0.066592,-0.013645,0.060434,-3.057840,326.364358,20.943333,0.998677,0.981876,0.005358,0.432201,0.000469,0.000426,0.000029,0.000484,0.000411,26.896750,0.000896,
2266,3058,0.0944909808665884,8.92153461432866,0.0204273817881813,0.006360,-0.065876,0.009969,0.234823,-2.967184,314.354175,21.979310,0.999394,0.991604,0.003766,0.428110,0.000008,0.000011,0.000000,0.000011,0.000008,-79.389791,0.000019,
2251,2743,-0.179172990564584,2.07530755228109,-0.0171597897459606,0.004705,-0.066440,0.006055,0.171730,-2.994016,319.137438,21.417508,0.999140,0.987837,0.004330,0.430716,0.000067,0.000047,0.000003,0.000067,0.000047,7.413938,0.000115,
2311,2563,1.15859568939956,-1.84701109012122,-0.0121510986360249,0.003716,-0.067228,0.003540,0.132560,-3.045544,321.985389,20.993514,0.998907,0.986038,0.004799,0.427413,0.000168,0.000126,0.000014,0.000172,0.000122,16.541557,0.000296,
2221,2593,-0.806148255899767,-1.19318644341092,-0.0239886137861163,0.003952,-0.065859,-0.000776,0.160126,-2.981492,321.569092,21.187144,0.999041,0.985538,0.004669,0.471458,0.000142,0.000097,0.000013,0.000146,0.000094,14.474714,0.000241,
2251,2713,-0.17414401485598,1.42236882658079,-0.0241732619818436,0.004557,-0.066030,0.001092,0.181324,-2.997524,319.575973,21.342329,0.999365,0.990572,0.003865,0.455431,0.000078,0.000059,0.000002,0.000078,0.000059,6.661331,0.000138,
2026,3208,-5.13178927846296,12.1540955596226,0.0566996779522242,0.007620,-0.064317,0.010766,0.301008,-2.896956,313.234373,21.101678,0.999528,0.992609,0.003404,0.453261,-0.000008,0.000055,-0.000045,0.000078,-0.000031,-62.479014,0.000079,
2071,2203,-4.01078232208586,-9.71677539226502,-0.00501175676828325,-0.001106,-0.066761,-0.012870,-0.035543,-3.069897,328.407144,21.325981,0.998111,0.981560,0.005589,0.460227,0.000695,0.000670,0.000111,0.000794,0.000571,41.705939,0.001371,
2146,2473,-2.41844440121737,-3.81278538020746,-0.0163383294180903,0.002417,-0.065197,-0.005657,0.105775,-2.973740,323.758506,21.225653,0.998981,0.985670,0.005195,0.458112,0.000256,0.000156,0.000004,0.000256,0.000155,2.427936,0.000416,
2431,3193,3.65599475845134,11.8627540271363,0.0410026333298106,0.007532,-0.066649,0.010806,0.278696,-3.013379,312.345199,22.946026,0.999580,0.990499,0.003783,0.413520,0.000035,0.000042,0.000022,0.000061,0.000016,49.064310,0.000081,
2041,3238,-4.81218979160505,12.8050912912467,0.0503928671278118,0.007422,-0.064670,0.010352,0.292283,-2.917039,312.590025,21.141976,0.999559,0.994274,0.003079,0.448061,-0.000004,0.000033,-0.000058,0.000076,-0.000046,-53.775779,0.000077,
2356,2758,2.10180358253069,2.40786762892879,-0.0289122598898643,0.004814,-0.065754,0.001596,0.189395,-2.973154,318.718164,21.488052,0.999370,0.989028,0.004030,0.449844,0.000047,0.000057,0.000022,0.000075,0.000030,51.362704,0.000108,
2086,2248,-3.69134454729896,-8.73175446460108,-0.010147561916483,-0.000794,-0.067378,-0.007843,-0.035775,-3.058490,327.563897,21.242864,0.998586,0.983915,0.005103,0.484652,0.000606,0.000595,0.000100,0.000701,0.000500,43.485191,0.001207,
2116,2173,-3.02578368823552,-10.3748658392487,-0.00248128416177451,-0.001362,-0.068273,-0.013996,-0.043871,-3.140620,328.685924,21.096959,0.998570,0.983653,0.005372,0.381896,0.000757,0.000774,0.000090,0.000856,0.000675,47.645321,0.001535,
2101,2068,-3.33675716725732,-12.678628694459,-0.000873089349681777,-0.002601,-0.069833,-0.024601,-0.070436,-3.263563,330.428581,20.965519,0.998518,0.948101,0.008957,0.439836,0.001036,0.000986,0.000079,0.001095,0.000928,36.267290,0.002025,
2461,1993,4.54779712559675,-14.3386589918348,0.0038035716489162,0.004911,-0.074539,-0.026494,0.292238,-3.521891,331.623190,18.269602,0.998020,0.966947,0.007003,0.292677,0.001488,0.001224,-0.000146,0.001553,0.001159,-23.894040,0.002722,
2236,2623,-0.484516119141322,-0.539361585531935,-0.0172976838036902,0.004077,-0.066022,0.000514,0.161358,-3.002957,321.105249,21.237782,0.999037,0.985076,0.004819,0.424947,0.000124,0.000078,0.000006,0.000125,0.000078,7.235391,0.000204,
2176,2098,-1.70538971570737,-12.021651830227,-0.012616913553245,-0.000840,-0.070277,-0.018364,-0.006163,-3.262863,329.619030,20.461076,0.999074,0.983030,0.005433,0.502014,0.000934,0.000997,0.000036,0.001014,0.000918,65.650017,0.001932,
2476,2218,4.82822791963089,-9.3929476090809,0.00278529726176657,0.004452,-0.068936,-0.011629,0.218310,-3.149890,327.939849,19.361009,0.998840,0.977981,0.005998,0.364140,0.000816,0.000728,-0.000128,0.000907,0.000637,-35.524929,0.001552,
2281,2848,0.454590056072878,4.36264320187443,-0.0161572369195255,0.005203,-0.066236,0.009182,0.183344,-2.986372,317.399230,21.714162,0.999469,0.992152,0.003941,0.344222,0.000030,0.000037,0.000017,0.000051,0.000016,51.216695,0.000070,
2266,2833,0.13143559267731,4.03504578225682,-0.0187093873287267,0.005403,-0.066155,0.006510,0.201983,-2.989308,317.663562,21.603986,0.999236,0.989240,0.004139,0.406522,0.000033,0.000042,0.000013,0.000051,0.000023,54.130611,0.000076,
2206,2743,-1.15778774558649,2.07435036794283,-0.0231407474113325,0.004789,-0.065991,0.005149,0.180032,-2.990791,319.200915,21.444381,0.999520,0.989754,0.004005,0.394173,0.000063,0.000043,-0.000007,0.000065,0.000041,-17.377520,0.000106,
2191,2668,-1.47189216374049,0.440929128687181,-0.0245948691461422,0.003532,-0.065674,-0.002227,0.145918,-2.988250,320.416023,21.368737,0.999710,0.993987,0.003350,0.393848,0.000096,0.000053,0.000002,0.000096,0.000053,2.027185,0.000152,
2101,2278,-3.36807155713917,-8.07626506140964,-0.00825670092552855,0.000228,-0.067220,-0.010313,0.018425,-3.111541,327.078818,21.199958,0.998218,0.982874,0.005394,0.412990,0.000555,0.000513,0.000084,0.000621,0.000447,38.063929,0.001073,
2206,2518,-1.12000865208815,-2.82996288307648,-0.0235462779698423,0.003223,-0.065645,-0.005391,0.141539,-2.986964,322.808378,21.061863,0.999296,0.987231,0.004523,0.520996,0.000194,0.000153,0.000007,0.000195,0.000151,9.018644,0.000348,
2041,3253,-4.81437853901284,13.1299682102571,0.050637284571053,0.007588,-0.064234,0.010302,0.300237,-2.898283,312.354534,21.122325,0.999651,0.994074,0.003018,0.477601,0.000001,0.000037,-0.000059,0.000080,-0.000042,-53.505097,0.000080,
2491,2278,5.14403781411925,-8.07792121947988,-0.000773877306471604,0.005152,-0.068730,-0.010894,0.247810,-3.142089,327.009557,19.518047,0.999024,0.980340,0.005284,0.385747,0.000691,0.000534,-0.000092,0.000734,0.000491,-24.779058,0.001233,
2296,2683,0.810346154929181,0.770078739343802,-0.0200019915030794,0.004410,-0.066337,0.001338,0.172673,-3.002803,320.023937,21.266539,0.999640,0.989458,0.003977,0.464815,0.000086,0.000088,0.000003,0.000090,0.000083,53.143031,0.000174,
2416,3088,3.34853918981452,9.58386071383706,0.0203910874766962,0.006825,-0.066422,0.007886,0.257552,-3.000640,313.851609,22.568149,0.999647,0.992010,0.003660,0.407193,0.000019,0.000015,0.000027,0.000044,-0.000010,42.685001,0.000046,
2296,2953,0.764202176451104,6.64509973095993,-6.62157569308874E-05,0.006315,-0.065531,0.003337,0.254085,-2.956412,315.874411,21.915971,0.999041,0.987842,0.004337,0.399179,0.000012,0.000012,0.000012,0.000024,0.000000,44.638841,0.000027,
2401,3028,3.03286836943836,8.28013619627311,0.00666978931047879,0.006487,-0.066459,0.006107,0.248868,-3.010425,314.693778,22.320577,0.999524,0.988730,0.004154,0.411291,0.000014,0.000006,0.000029,0.000039,-0.000019,41.314227,0.000039,
2086,2098,-3.67096959970354,-12.0136066054189,-0.0291702787291115,-0.003170,-0.068010,-0.021523,-0.105427,-3.182724,329.746052,21.330693,0.998483,0.965058,0.007333,0.256271,0.000959,0.000942,0.000104,0.001055,0.000846,42.698040,0.001905,
2071,2053,-3.98998800505344,-13.0053431393593,-0.00289118090711327,-0.003953,-0.068726,-0.024825,-0.132587,-3.229197,330.737418,21.235363,0.997807,0.975491,0.006278,0.394009,0.001116,0.000967,0.000099,0.001165,0.000918,26.424429,0.002088,
2071,2218,-4.01278933728019,-9.38735311659656,-0.007170625097217,-0.000885,-0.066178,-0.016035,-0.016209,-3.060548,328.166778,21.402370,0.997680,0.980412,0.005657,0.392712,0.000667,0.000640,0.000114,0.000769,0.000539,41.595355,0.001314,
2326,2578,1.48240937486444,-1.51820235483977,-0.0176699226967685,0.003732,-0.066608,-0.000608,0.147475,-3.020953,321.701737,21.039202,0.999023,0.987175,0.004500,0.419173,0.000163,0.000116,0.000015,0.000167,0.000112,15.740428,0.000281,
2176,2368,-1.74846935132845,-6.10568188752264,-0.0200730353967629,0.002048,-0.066128,-0.008980,0.098645,-3.016114,325.309167,21.028622,0.998784,0.985438,0.004970,0.445768,0.000369,0.000308,0.000000,0.000369,0.000308,0.250597,0.000678,
2161,2263,-2.05926152378891,-8.40242029529052,-0.0177653695229765,0.000414,-0.067421,-0.009680,0.025360,-3.089792,327.000172,20.997566,0.998392,0.978820,0.005778,0.369593,0.000564,0.000558,0.000051,0.000612,0.000510,43.504209,0.001123,
2356,2773,2.09988330426894,2.73459681805253,-0.0240784106900378,0.005243,-0.065605,-0.000002,0.214841,-2.965795,318.539608,21.566867,0.999465,0.989536,0.003901,0.417311,0.000042,0.000042,0.000013,0.000055,0.000028,45.339722,0.000085,
2161,2563,-2.10645952717808,-1.84907744045006,-0.0170996047098697,0.003251,-0.065476,-0.001475,0.131151,-2.959017,322.265507,21.256993,0.998963,0.986285,0.004566,0.472953,0.000175,0.000105,0.000014,0.000178,0.000103,10.641436,0.000284,
2161,2308,-2.06497428090138,-7.41784700344586,-0.0131459007027956,0.001330,-0.066110,-0.016500,0.088640,-3.052194,326.376089,21.079491,0.998750,0.981689,0.005338,0.361562,0.000474,0.000426,0.000033,0.000491,0.000409,26.745397,0.000901,
2281,2608,0.49708611794571,-0.864296811467625,-0.0217114503366247,0.004349,-0.066919,0.004410,0.159717,-3.009738,321.231683,21.197756,0.998966,0.986980,0.004649,0.389639,0.000125,0.000087,0.000011,0.000128,0.000084,15.363976,0.000214,
2131,2428,-2.73894921056192,-4.79381350737293,-0.0232548713842675,0.001768,-0.065655,-0.000917,0.061731,-2.966005,324.443486,21.298740,0.999117,0.987303,0.004645,0.407200,0.000309,0.000177,0.000015,0.000311,0.000175,6.430821,0.000492,
2026,3223,-5.13433666289577,12.4795162764027,0.053379984335038,0.007538,-0.064343,0.009425,0.300864,-2.907155,312.961202,21.132264,0.999465,0.992844,0.003369,0.401368,-0.000005,0.000045,-0.000052,0.000078,-0.000038,-57.832205,0.000078,
2386,2938,2.7225209457644,6.32405792485218,-0.00359128869860115,0.005967,-0.066557,0.009764,0.212205,-3.002269,316.029980,22.037081,0.999199,0.989105,0.004228,0.400940,0.000011,0.000016,0.000019,0.000032,-0.000005,48.940534,0.000035,
2371,2818,2.417996459445,3.71266576018724,-0.0176988258590995,0.005475,-0.066574,0.005842,0.203997,-3.016387,317.854149,21.585849,0.999860,0.994905,0.003342,0.479242,0.000035,0.000033,0.000017,0.000051,0.000016,43.297694,0.000071,
2206,2758,-1.1600384675263,2.40054531197026,-0.0186154601435078,0.004745,-0.065700,0.004251,0.181031,-2.965010,318.995916,21.446511,0.999427,0.989530,0.004059,0.434460,0.000056,0.000041,-0.000004,0.000057,0.000040,-12.642543,0.000097,
2176,2638,-1.79233885293083,-0.213804546172454,-0.0230739692048587,0.004358,-0.065911,0.002266,0.170062,-2.986314,320.987549,21.296309,0.999465,0.989492,0.004163,0.449265,0.000111,0.000063,0.000003,0.000112,0.000062,3.122082,0.000176,
2056,2158,-4.33273731785649,-10.7012596892832,-0.00818703156767242,-0.002946,-0.067675,-0.013041,-0.119936,-3.127863,329.100504,21.467378,0.998906,0.985018,0.005134,0.344350,0.000819,0.000782,0.000129,0.000931,0.000670,40.928517,0.001608,
2221,2548,-0.797533090871461,-2.17502927364273,-0.0156072734675945,0.003845,-0.065536,-0.005603,0.170798,-2.981230,322.378922,21.151165,0.999627,0.991136,0.003762,0.448166,0.000170,0.000129,0.000016,0.000176,0.000123,18.922314,0.000300,
2191,2413,-1.42904409717812,-5.12269983316745,-0.0159110266616835,0.002089,-0.065704,-0.009157,0.101280,-3.007830,324.572830,21.035320,0.998888,0.987018,0.004769,0.444809,0.000312,0.000223,-0.000002,0.000312,0.000223,-1.493950,0.000538,
2341,2668,1.79222914550376,0.445337668179732,-0.0149776856173389,0.004389,-0.067087,0.010620,0.138118,-3.012597,320.248398,21.308239,0.999555,0.991232,0.004076,0.362070,0.000090,0.000084,0.000009,0.000097,0.000077,37.173561,0.000175,
2146,2488,-2.42062254812517,-3.4853107477259,-0.023184670625767,0.003184,-0.065618,-0.005131,0.139282,-2.986668,323.492542,21.199476,0.998966,0.985049,0.005063,0.480518,0.000243,0.000151,-0.000001,0.000243,0.000151,-0.626777,0.000398,
2266,3073,0.0927787222071323,9.24627581614354,0.0302526077349512,0.006586,-0.065950,0.009192,0.247748,-2.976914,314.204540,21.997635,0.999185,0.990610,0.004035,0.424440,0.000006,0.000016,-0.000004,0.000017,0.000004,-68.869802,0.000023,
2461,2008,4.54507843108898,-14.0093737095163,0.00771022348737915,0.005235,-0.074756,-0.022559,0.292218,-3.498691,331.413958,18.315912,0.998353,0.971889,0.006548,0.327606,0.001448,0.001214,-0.000159,0.001528,0.001134,-26.879656,0.002672,
2116,2188,-3.02815038132589,-10.0457769940892,-0.00967661529733732,-0.000982,-0.068002,-0.015361,-0.022325,-3.154534,328.406381,21.102929,0.998319,0.981437,0.005559,0.368479,0.000721,0.000742,0.000088,0.000820,0.000643,48.392813,0.001467,
2221,2608,-0.808631336930464,-0.866181452928153,-0.0263679127893965,0.004266,-0.065866,-0.000332,0.173148,-2.982137,321.319099,21.188128,0.998895,0.982713,0.004982,0.489418,0.000138,0.000077,0.000011,0.000140,0.000075,9.918712,0.000218,
2191,2488,-1.44149977973759,-3.48417455282187,-0.0252035748691242,0.003209,-0.065795,-0.005347,0.140808,-2.996555,323.322042,21.117866,0.998897,0.982292,0.005423,0.453047,0.000231,0.000170,-0.000006,0.000232,0.000169,-5.222548,0.000402,
2251,2968,-0.216542818884925,6.96793803835467,0.00527062682988344,0.005877,-0.065522,0.007695,0.220744,-2.951355,315.709333,21.848956,0.999423,0.992694,0.003656,0.387973,0.000010,0.000013,0.000003,0.000015,0.000008,60.408859,0.000023,
2101,2083,-3.34151780636574,-12.3473608221372,-0.0159037953852703,-0.003658,-0.069358,-0.018175,-0.137470,-3.208368,329.995339,20.973720,0.998492,0.956761,0.008271,0.492601,0.000994,0.000974,0.000084,0.001069,0.000899,41.722979,0.001970,
2221,2818,-0.843585698943546,3.70623688431121,-0.0118035844068913,0.005149,-0.065861,0.004587,0.198094,-2.969729,318.054743,21.544656,0.999473,0.990170,0.004030,0.413540,0.000045,0.000043,0.000001,0.000046,0.000042,18.629437,0.000088,
2176,2323,-1.74129559948907,-7.09154224838085,-0.0123447479867309,0.000990,-0.066913,-0.012000,0.059161,-3.055991,326.061344,20.891442,0.998515,0.980803,0.005494,0.500615,0.000444,0.000378,0.000017,0.000448,0.000374,13.919520,0.000823,
2296,2698,0.807234472068846,1.09740207798813,-0.0229461833425262,0.004398,-0.066349,0.003269,0.165632,-2.989576,319.748236,21.308106,0.999709,0.991675,0.003756,0.466718,0.000077,0.000084,0.000009,0.000090,0.000071,55.773608,0.000161,
2266,2848,0.129592623969931,4.36094511976278,-0.0142583595135761,0.005796,-0.065906,0.004672,0.226271,-2.980633,317.480827,21.620666,0.999429,0.991694,0.003866,0.423798,0.000033,0.000039,0.000017,0.000053,0.000019,50.030211,0.000075,
2416,3103,3.34607342435028,9.90984514623998,0.0220935344080999,0.007035,-0.066207,0.006165,0.273610,-2.991528,313.636023,22.639890,0.999794,0.994659,0.003237,0.391234,0.000024,0.000019,0.000030,0.000052,-0.000008,42.994919,0.000055,
2236,2683,-0.494434654737784,0.768336776452756,-0.0158722397636666,0.004586,-0.065568,0.000634,0.184600,-2.972441,320.166287,21.337242,0.999293,0.988628,0.004217,0.442583,0.000100,0.000067,0.000001,0.000100,0.000067,2.028459,0.000168,
2281,2863,0.451917254577307,4.68901202608406,-0.0179313953374844,0.005305,-0.066235,0.008149,0.191467,-2.989920,317.148099,21.744219,0.999564,0.992657,0.003754,0.338332,0.000030,0.000033,0.000015,0.000047,0.000016,47.439365,0.000065,
2086,2113,-3.67171589462478,-11.6887481601723,-0.00962400404961272,-0.002790,-0.068715,-0.020371,-0.091522,-3.216045,329.683145,21.233467,0.998494,0.981640,0.005534,0.321407,0.000922,0.000903,0.000107,0.001020,0.000804,42.412005,0.001829,
2491,2293,5.14039197229945,-7.75031617174458,-0.000254256508412709,0.004761,-0.069006,-0.008352,0.220097,-3.153689,326.743754,19.509043,0.999102,0.980737,0.005256,0.444028,0.000659,0.000479,-0.000091,0.000697,0.000441,-22.703256,0.001147,
2431,3208,3.65274504035812,12.1882507970765,0.0382165659724478,0.007627,-0.066644,0.012624,0.276344,-3.011877,312.073260,22.979613,0.999549,0.988887,0.004106,0.429897,0.000036,0.000034,0.000017,0.000052,0.000018,43.574430,0.000073,
2251,2758,-0.182648366446031,2.40365591552418,-0.0296105936902222,0.004820,-0.065931,0.006514,0.175740,-2.972214,318.792700,21.487584,0.999140,0.987649,0.004398,0.406166,0.000063,0.000046,0.000008,0.000066,0.000043,21.741270,0.000110,
2101,2293,-3.37113154024206,-7.74664738535968,-0.0122697338476883,-0.000236,-0.066421,-0.010588,-0.001867,-3.046826,326.782726,21.248204,0.998800,0.985541,0.005042,0.433353,0.000534,0.000468,0.000081,0.000589,0.000413,33.885685,0.001007,
2086,2263,-3.69277917578305,-8.40428762701299,-0.00849519128081511,-0.000150,-0.067071,-0.009941,-0.000077,-3.084464,327.372263,21.231509,0.998800,0.983454,0.005046,0.471329,0.000580,0.000567,0.000098,0.000672,0.000475,43.139020,0.001152,
2041,3268,-4.81711085126986,13.4559442997716,0.0445924850737924,0.007584,-0.064041,0.010044,0.300821,-2.892900,312.058648,21.186248,0.999638,0.993763,0.003091,0.409844,0.000004,0.000027,-0.000055,0.000071,-0.000040,-51.083812,0.000072,
2461,2023,4.54180009699659,-13.6789162802698,0.0084316042222099,0.005278,-0.074676,-0.018525,0.279098,-3.467540,331.164419,18.430201,0.998827,0.977801,0.005876,0.302690,0.001400,0.001212,-0.000162,0.001494,0.001118,-29.921600,0.002621,
2311,2578,1.15499236600049,-1.51714836170914,-0.0282020266488985,0.003716,-0.066367,-0.001328,0.149534,-3.006489,321.623722,21.088219,0.999364,0.990423,0.004038,0.405261,0.000159,0.000124,0.000015,0.000165,0.000118,20.520320,0.000285,
2326,2593,1.47972498180047,-1.19065752381172,-0.0198849378144246,0.004156,-0.066394,0.001445,0.159968,-3.002251,321.452034,21.068100,0.999504,0.990989,0.003906,0.444388,0.000152,0.000104,0.000015,0.000156,0.000099,16.145589,0.000258,
2476,2233,4.82534907191452,-9.06572507473238,0.00127700909467876,0.004419,-0.069420,-0.015668,0.231909,-3.207400,327.699405,19.320782,0.999104,0.980178,0.005701,0.405639,0.000783,0.000701,-0.000111,0.000860,0.000624,-34.775246,0.001491,
2236,2893,-0.529158685361121,5.3367446649058,0.00225778844480828,0.005818,-0.065589,0.004804,0.227841,-2.961165,316.945721,21.654430,0.999685,0.991306,0.003716,0.432088,0.000028,0.000031,0.000006,0.000035,0.000024,52.468545,0.000059,
2131,2173,-2.69823019165788,-10.3763883838105,-0.00408386573599273,-0.000507,-0.068554,-0.012342,-0.009414,-3.158496,328.644217,20.894000,0.999199,0.975755,0.005791,0.487762,0.000755,0.000785,0.000077,0.000849,0.000692,50.550788,0.001543,
2146,2248,-2.38319891107703,-8.73222080821516,-0.00763183072024276,0.000010,-0.067235,-0.011890,0.013485,-3.081711,327.369992,20.995706,0.998477,0.979457,0.005606,0.435400,0.000593,0.000604,0.000053,0.000652,0.000545,47.958731,0.001199,
2161,2578,-2.10927657782458,-1.52176739868867,-0.0214765175469438,0.003377,-0.065466,0.000908,0.129646,-2.964038,321.984630,21.261578,0.998924,0.986460,0.004539,0.474355,0.000157,0.000093,0.000015,0.000161,0.000090,12.268838,0.000254,
2206,2773,-1.16245235456181,2.72746455674486,-0.0174319802740683,0.004733,-0.065477,0.002739,0.185289,-2.970288,318.766022,21.523776,0.999285,0.989301,0.004256,0.368603,0.000051,0.000046,-0.000001,0.000051,0.000045,-13.678896,0.000097,
2116,2383,-3.05717649362053,-5.77980797205538,-0.0153676804644647,0.001718,-0.066112,-0.008899,0.083053,-3.046985,325.322788,21.191620,0.999062,0.983660,0.005007,0.459888,0.000373,0.000268,0.000017,0.000375,0.000266,8.839717,0.000644,
2356,2788,2.0972598209801,3.06026611676118,-0.0202366096940523,0.005183,-0.065919,0.000217,0.211156,-2.981047,318.324220,21.567035,0.999676,0.992737,0.003556,0.440625,0.000040,0.000048,0.000014,0.000059,0.000029,52.441728,0.000090,
2236,2638,-0.486556308946287,-0.211991242513477,-0.0192552801556758,0.004772,-0.065556,0.000070,0.194944,-2.978623,320.878766,21.260319,0.998979,0.986438,0.004659,0.448658,0.000117,0.000079,0.000005,0.000117,0.000079,7.840272,0.000197,
2281,3118,0.40941781151977,10.2252683993783,0.0178313480685688,0.006682,-0.065918,0.010179,0.248251,-2.989392,313.341492,22.180356,0.999712,0.994112,0.003316,0.362802,0.000006,0.000020,0.000000,0.000020,0.000006,88.508026,0.000028,
2401,3043,3.03087169466352,8.60543975345724,0.0158162325869284,0.006652,-0.066360,0.005667,0.258139,-3.000293,314.534388,22.362657,0.999577,0.990311,0.003941,0.423903,0.000012,0.000018,0.000032,0.000046,-0.000017,47.697338,0.000047,
2206,2533,-1.12181130622291,-2.50222539087729,-0.019255345142426,0.003474,-0.065267,-0.008569,0.163253,-2.984736,322.622634,21.161826,0.999403,0.987695,0.004402,0.440715,0.000180,0.000135,0.000009,0.000182,0.000134,11.027225,0.000317,
2266,3088,0.089962515780833,9.57158775205529,0.0316988357176911,0.006474,-0.066431,0.010582,0.237787,-3.002488,313.961727,22.033727,0.999497,0.991617,0.003767,0.387395,0.000005,0.000008,-0.000006,0.000013,0.000000,-49.760663,0.000015,
2176,2383,-1.75090400880635,-5.77882468313405,-0.0201072289178796,0.002236,-0.066354,-0.007135,0.101511,-3.035307,325.070181,20.980902,0.998897,0.987522,0.004736,0.488255,0.000346,0.000287,0.000001,0.000346,0.000287,1.139492,0.000634,
2281,2878,0.449879319214094,5.01328664636507,-0.0115760517630861,0.005337,-0.065934,0.005740,0.201090,-2.992347,316.967319,21.644838,0.999609,0.992595,0.003754,0.462642,0.000026,0.000033,0.000016,0.000046,0.000013,51.331223,0.000061,
2131,2443,-2.74045352755333,-4.46820833464983,-0.0190099542393227,0.002207,-0.065344,-0.003848,0.090715,-2.974277,324.266423,21.184793,0.999113,0.987633,0.004699,0.519896,0.000287,0.000165,0.000012,0.000288,0.000164,5.409555,0.000458,
2311,3043,1.07512889422318,8.59924846550179,0.0203284738690854,0.006755,-0.065951,0.008280,0.256887,-2.982171,314.564589,22.123314,0.999537,0.990784,0.003794,0.390191,0.000002,0.000020,0.000016,0.000029,-0.000007,59.768545,0.000031,
2056,2173,-4.33443786819847,-10.3725380083963,-0.0166974191364488,-0.002137,-0.067455,-0.017339,-0.070666,-3.141153,328.838135,21.418595,0.998967,0.987858,0.004703,0.377395,0.000784,0.000726,0.000126,0.000884,0.000625,38.504166,0.001517,
2461,2038,4.53885531051202,-13.3486523593499,0.00754972828917744,0.005436,-0.073512,-0.018601,0.287109,-3.412799,330.922666,18.490598,0.998856,0.978275,0.005952,0.355098,0.001342,0.001188,-0.000155,0.001438,0.001092,-31.753129,0.002538,
2176,2653,-1.79600591541062,0.115054173365039,-0.0361549994601091,0.003925,-0.065084,-0.000396,0.158703,-2.956754,320.622896,21.361168,0.999511,0.989291,0.004206,0.427303,0.000102,0.000057,0.000002,0.000102,0.000057,1.885819,0.000162,
2221,2623,-0.811630145071664,-0.539367935515607,-0.0214169891657434,0.003950,-0.066373,0.005752,0.138975,-2.971639,321.083017,21.228142,0.999011,0.984609,0.004865,0.479468,0.000125,0.000073,0.000011,0.000128,0.000071,11.638036,0.000201,
2296,3193,0.723547963482375,11.8520287147857,0.0392454612406254,0.007355,-0.065767,0.010374,0.278149,-2.973364,312.304140,22.369828,0.999642,0.992480,0.003488,0.392988,0.000010,0.000049,0.000005,0.000050,0.000009,83.043037,0.000063,
2191,2683,-1.47307243321404,0.766206983319989,-0.0138065195447439,0.004382,-0.065757,0.001004,0.174826,-2.980160,320.292016,21.334679,0.999564,0.992861,0.003575,0.450761,0.000088,0.000054,-0.000003,0.000089,0.000054,-4.996467,0.000144,
2371,2833,2.41478954236579,4.04043034957883,-0.0200725548809828,0.005351,-0.066431,0.006122,0.197422,-2.999950,317.582434,21.712250,0.999679,0.990408,0.003909,0.410102,0.000029,0.000036,0.000018,0.000051,0.000014,50.778793,0.000069,
2386,2953,2.71967814725294,6.64981171922797,-0.00183142058040175,0.005896,-0.066623,0.009931,0.208284,-3.014764,315.795962,22.071207,0.999206,0.987852,0.004365,0.396812,0.000012,0.000006,0.000020,0.000030,-0.000012,41.145955,0.000030,
2071,2233,-4.0155613986015,-9.05841552954872,-0.00876390282104467,-0.001113,-0.066088,-0.013577,-0.033678,-3.036402,327.894586,21.431359,0.998387,0.983734,0.005195,0.387331,0.000636,0.000601,0.000106,0.000727,0.000511,40.302647,0.001244,
2101,2098,-3.34177596116415,-12.0161590149578,-0.00202964408543949,-0.002693,-0.068075,-0.021930,-0.081858,-3.182707,329.923403,21.328725,0.998958,0.956559,0.008407,0.166671,0.000953,0.000954,0.000089,0.001042,0.000865,45.217660,0.001910,
2101,2308,-3.37233351764077,-7.41889549921058,-0.0106330041558635,0.000708,-0.066119,-0.012162,0.046187,-3.052602,326.602715,21.258093,0.998802,0.982755,0.005525,0.420633,0.000499,0.000428,0.000063,0.000535,0.000391,30.322961,0.000930,
2041,3283,-4.81965398844154,13.7800226313211,0.0408028898383463,0.007659,-0.064433,0.010214,0.303630,-2.917459,311.784797,21.121943,0.999594,0.993653,0.003139,0.440597,0.000006,0.000041,-0.000050,0.000076,-0.000029,-54.653920,0.000077,
2491,2308,5.13729851195533,-7.41998602879521,-0.00385695688026999,0.004626,-0.067819,-0.013613,0.234589,-3.118688,326.484215,19.666497,0.998457,0.978313,0.005753,0.382888,0.000642,0.000436,-0.000082,0.000670,0.000408,-19.306378,0.001088,
2116,2203,-3.03076097025697,-9.71777709449046,-0.00537743125454426,-0.001173,-0.068248,-0.010294,-0.046138,-3.133432,328.177231,21.101417,0.997307,0.977069,0.006041,0.397233,0.000688,0.000696,0.000087,0.000779,0.000605,46.392463,0.001388,
2341,2683,1.78915729077981,0.772544302369283,-0.0240901573486667,0.004444,-0.066771,0.005612,0.158259,-3.012919,319.948516,21.297120,0.999578,0.990922,0.003999,0.409972,0.000082,0.000087,0.000009,0.000094,0.000075,53.438106,0.000169,
2326,2608,1.47672760718383,-0.863506403961125,-0.0197719482845287,0.004167,-0.066910,0.004447,0.149923,-3.007838,321.199435,21.110272,0.999385,0.988706,0.004221,0.431737,0.000138,0.000089,0.000010,0.000140,0.000087,11.518951,0.000229,
2086,2278,-3.69544530197301,-8.07479828122783,-0.0102487089048964,-0.000321,-0.066886,-0.009064,-0.010374,-3.068082,327.105282,21.333263,0.999097,0.987957,0.004600,0.387486,0.000557,0.000514,0.000094,0.000632,0.000439,38.606311,0.001077,
2476,2248,4.82303380800811,-8.73822516212095,0.00402123048820613,0.005005,-0.069164,-0.014732,0.255324,-3.202845,327.503659,19.292920,0.998927,0.980835,0.005543,0.496988,0.000744,0.000632,-0.000107,0.000809,0.000567,-31.188476,0.001384,
2251,2773,-0.184182852742982,2.72883375414951,-0.0203326739883209,0.005021,-0.065602,0.002907,0.196863,-2.976480,318.647920,21.468782,0.999185,0.987441,0.004347,0.444082,0.000058,0.000043,0.000008,0.000062,0.000039,23.826402,0.000102,
2221,2563,-0.800989016994379,-1.84751931726911,-0.021313907428862,0.003656,-0.065836,-0.001772,0.149736,-2.983309,322.067259,21.155415,0.999437,0.990298,0.003942,0.461927,0.000162,0.000119,0.000015,0.000167,0.000114,17.506844,0.000282,
2311,3283,1.03122002963004,13.8054859509691,0.0143356000968993,0.007894,-0.065644,0.009144,0.306724,-2.976672,310.632687,22.586352,0.999557,0.993691,0.003086,0.428803,0.000018,0.000030,0.000004,0.000031,0.000016,71.790498,0.000048,
2236,2908,-0.532235766763534,5.66347286647195,-0.00075377319404879,0.005565,-0.065556,0.004271,0.217997,-2.956089,316.665974,21.711299,0.999622,0.991913,0.003717,0.401021,0.000028,0.000029,0.000004,0.000032,0.000025,49.022278,0.000057,
2251,2983,-0.218813960111984,7.29318837199692,0.00842298906837868,0.006017,-0.065664,0.007159,0.228853,-2.971461,315.499402,21.859307,0.999434,0.991833,0.003801,0.380238,0.000011,0.000018,0.000005,0.000021,0.000008,61.336755,0.000029,
2431,3223,3.6495614088076,12.5137719582788,0.0378818950848085,0.007294,-0.066784,0.010768,0.267922,-3.012656,311.815705,23.035995,0.999508,0.990472,0.003885,0.421329,0.000035,0.000024,0.000011,0.000042,0.000017,31.337013,0.000061,
2311,2593,1.15336629567859,-1.19112287222708,-0.0189571268762165,0.004226,-0.066041,-0.000329,0.169715,-2.978746,321.477963,21.068603,0.999465,0.990847,0.003912,0.485267,0.000149,0.000110,0.000016,0.000154,0.000104,19.754444,0.000260,
2356,2803,2.09489328164562,3.38545614658257,-0.0112801551746315,0.005153,-0.066511,0.002624,0.201093,-3.008185,318.145395,21.578262,0.999823,0.994369,0.003365,0.440754,0.000040,0.000039,0.000015,0.000054,0.000024,44.319766,0.000080,
2086,2128,-3.67465927253672,-11.3589736431497,-0.0122071953454679,-0.002910,-0.068494,-0.014786,-0.113072,-3.154195,329.398698,21.253051,0.998679,0.983510,0.005353,0.365985,0.000879,0.000875,0.000111,0.000988,0.000766,44.548391,0.001759,
2116,2398,-3.05955590620836,-5.45161581324012,-0.0157051855607051,0.001702,-0.065712,-0.009691,0.084783,-3.028027,325.079360,21.228574,0.998901,0.984318,0.004948,0.446899,0.000350,0.000229,0.000009,0.000351,0.000228,4.403411,0.000584,
2146,2503,-2.42325373968785,-3.15734961030248,-0.0299204460480951,0.003388,-0.065499,-0.006182,0.151838,-3.011649,323.206323,21.236744,0.998826,0.983509,0.005166,0.427523,0.000233,0.000134,-0.000002,0.000233,0.000134,-1.364524,0.000372,
2146,2263,-2.3856085408599,-8.40286107044262,-0.0125087648413569,0.000457,-0.067085,-0.010465,0.029742,-3.068211,327.103533,21.052398,0.998416,0.980446,0.005712,0.402379,0.000568,0.000561,0.000051,0.000615,0.000513,43.071442,0.001130,
2236,2698,-0.497283907143281,1.09565064601521,-0.0219878684108608,0.004837,-0.065491,0.001100,0.194673,-2.966203,319.881456,21.357668,0.999374,0.990516,0.003837,0.449983,0.000093,0.000064,0.000003,0.000093,0.000063,5.681850,0.000157,
2191,2503,-1.44379069884644,-3.15755995277189,-0.0176780232848728,0.003102,-0.065929,-0.002980,0.128384,-2.999766,323.129967,21.140725,0.999101,0.985442,0.004917,0.442404,0.000216,0.000156,-0.000005,0.000217,0.000156,-4.842316,0.000374,
2461,2053,4.5361743680675,-13.0200727765419,0.0111385159650013,0.005346,-0.073624,-0.020409,0.289772,-3.442322,330.713842,18.537229,0.998740,0.979381,0.005856,0.336683,0.001290,0.001181,-0.000150,0.001396,0.001076,-35.050060,0.002478,
2161,2593,-2.11157347143834,-1.19455578875788,-0.0258781093095877,0.003655,-0.065729,-0.002303,0.152159,-2.982296,321.727497,21.275375,0.999004,0.987879,0.004491,0.453181,0.000147,0.000085,0.000015,0.000150,0.000081,12.675774,0.000235,
2206,2548,-1.12490488448177,-2.17452114701801,-0.0231468400397148,0.003400,-0.065510,-0.005990,0.151651,-2.979353,322.335512,21.187332,0.999470,0.989889,0.004069,0.438639,0.000170,0.000123,0.000014,0.000174,0.000119,15.731929,0.000295,
2296,2968,0.761471152894519,6.97052632146428,-5.07373181335424E-06,0.006333,-0.065813,0.003394,0.254567,-2.976072,315.630926,21.917902,0.999352,0.990646,0.003786,0.407135,0.000009,0.000013,0.000012,0.000023,-0.000001,49.219321,0.000026,
2221,2833,-0.846063431022767,4.03206261893826,-0.010060140539224,0.005243,-0.065738,0.005723,0.198792,-2.962919,317.826095,21.530787,0.999366,0.990340,0.003930,0.453050,0.000044,0.000041,0.000006,0.000048,0.000036,36.472636,0.000085,
2311,3298,1.02808610693459,14.1302716134286,0.00954618115235917,0.007950,-0.065616,0.009722,0.307352,-2.969627,310.347002,22.561872,0.999620,0.994034,0.003039,0.491127,0.000018,0.000021,0.000009,0.000029,0.000010,48.162096,0.000040,
2266,3103,0.0876949720372977,9.89803970430885,0.0264451492525382,0.007014,-0.065522,0.006691,0.275954,-2.960067,313.709904,22.068489,0.999683,0.993219,0.003461,0.419757,0.000004,0.000014,-0.000005,0.000017,0.000002,-66.239805,0.000020,
2071,2248,-4.01771910931971,-8.73168546972119,-0.00663302107733443,-0.000976,-0.066883,-0.011296,-0.034138,-3.061091,327.671464,21.351106,0.998556,0.984187,0.004992,0.442028,0.000609,0.000593,0.000103,0.000704,0.000497,42.807133,0.001207,
2131,2458,-2.74285734444268,-4.13791982365882,-0.0249717414183124,0.002558,-0.064825,-0.004971,0.110413,-2.934917,323.992564,21.361416,0.999148,0.988091,0.004689,0.389721,0.000268,0.000148,0.000006,0.000268,0.000148,2.622856,0.000422,
2176,2338,-1.74431913462278,-6.7620277490179,-0.01659862687859,0.001072,-0.066930,-0.007405,0.048702,-3.043616,325.772772,20.997969,0.998850,0.984140,0.005079,0.420846,0.000417,0.000355,0.000010,0.000419,0.000353,8.781747,0.000773,
2101,2323,-3.37386932541611,-7.09090312961378,-0.0057436871464347,0.001117,-0.065433,-0.013683,0.069604,-3.027919,326.424806,21.296810,0.999079,0.985934,0.004899,0.409568,0.000468,0.000379,0.000048,0.000490,0.000358,23.669585,0.000851,
2281,3133,0.407382308451133,10.5494332709425,0.0233742056205983,0.006891,-0.065965,0.009072,0.261665,-2.976287,313.156359,22.109979,0.999605,0.993847,0.003457,0.472972,0.000002,0.000025,0.000000,0.000025,0.000002,89.145676,0.000030,
2476,2263,4.81964808399106,-8.40833245278856,0.0056993143392674,0.004781,-0.068776,-0.011972,0.234822,-3.175546,327.253550,19.455278,0.998910,0.978735,0.005480,0.420846,0.000714,0.000578,-0.000102,0.000769,0.000524,-28.099480,0.001300,
2056,2188,-4.33636256588531,-10.0447244753023,-0.00799301592843449,-0.002057,-0.067080,-0.012614,-0.080198,-3.105094,328.659969,21.425835,0.998625,0.984636,0.005196,0.403067,0.000737,0.000702,0.000121,0.000841,0.000597,40.890326,0.001445,
2416,3118,3.34318214292196,10.2351141041054,0.0261128630044141,0.007028,-0.066663,0.009384,0.261285,-3.015508,313.411885,22.696967,0.999819,0.995088,0.003061,0.356568,0.000030,0.000025,0.000029,0.000057,-0.000002,42.193514,0.000065,
2311,2803,1.11561283764271,3.38419464889513,-0.0205863367390293,0.005415,-0.066203,0.001319,0.218767,-2.998243,318.099406,21.548659,0.999454,0.991116,0.003874,0.441609,0.000037,0.000033,0.000016,0.000051,0.000019,41.633443,0.000072,
2491,2323,5.13349784314542,-7.09140823201055,-0.00405877004413924,0.004793,-0.068675,-0.003433,0.202965,-3.089559,326.207606,19.709076,0.998495,0.979892,0.005598,0.430560,0.000613,0.000409,-0.000059,0.000629,0.000393,-15.044248,0.001031,
2131,2188,-2.70018855539635,-10.0472891277166,0.0046340893657657,-0.000792,-0.067902,-0.014799,-0.014983,-3.148226,328.469344,21.044923,0.998921,0.982230,0.005354,0.354936,0.000719,0.000752,0.000074,0.000811,0.000660,51.384674,0.001474,
2311,3058,1.07223595195473,8.92432725503942,0.0220447852508983,0.006558,-0.066014,0.008908,0.245629,-2.981358,314.322763,22.106971,0.999685,0.992644,0.003458,0.438521,0.000006,0.000018,0.000016,0.000029,-0.000006,55.332402,0.000031,
2176,2398,-1.75305093703443,-5.45081181212577,-0.016233392169795,0.002271,-0.065937,-0.008012,0.105971,-3.014678,324.864359,21.041543,0.998835,0.985927,0.004885,0.462200,0.000325,0.000254,-0.000005,0.000326,0.000254,-4.069618,0.000581,
2326,2878,1.42863299727445,5.01555921814749,-0.00932109425122007,0.005546,-0.066308,0.004707,0.212839,-2.986963,316.956526,21.701805,0.999458,0.990268,0.003991,0.483587,0.000009,0.000035,0.000022,0.000048,-0.000003,60.616230,0.000053,
2206,2788,-1.1645594109154,3.05322921790619,-0.0200167152648874,0.005373,-0.065607,0.002509,0.215460,-2.972003,318.531035,21.466418,0.998974,0.987554,0.004539,0.441155,0.000046,0.000043,-0.000006,0.000051,0.000038,-38.940625,0.000089,
2041,3298,-4.8221357958897,14.1052122491388,0.0399838652617746,0.007679,-0.064347,0.011398,0.301337,-2.904900,311.529857,21.143274,0.999541,0.994410,0.003190,0.422807,0.000015,0.000054,-0.000051,0.000089,-0.000019,-55.444656,0.000093,
2251,2788,-0.186712809887155,3.05539857595196,-0.0189595937403055,0.005003,-0.065513,0.002148,0.198572,-2.974628,318.417015,21.513142,0.999317,0.988136,0.004272,0.424682,0.000053,0.000044,0.000006,0.000056,0.000041,24.842914,0.000097,
2326,2638,1.47132984908841,-0.209397228464937,-0.0207666227673826,0.004123,-0.066287,0.000563,0.161548,-3.002944,320.715532,21.164434,0.999195,0.987602,0.004399,0.452532,0.000115,0.000092,0.000001,0.000115,0.000092,2.985328,0.000208,
2146,2278,-2.38816017980536,-8.0756977076506,-0.0143567068431025,0.000423,-0.067153,-0.010976,0.029670,-3.083993,326.847129,20.974297,0.998239,0.980614,0.005715,0.474908,0.000540,0.000506,0.000044,0.000570,0.000475,34.718537,0.001047,
2281,2623,0.494244270137937,-0.537602719005825,-0.0243893610886516,0.004166,-0.066638,0.001104,0.162417,-3.015414,320.968838,21.178402,0.999150,0.986809,0.004500,0.431925,0.000114,0.000084,0.000011,0.000118,0.000080,17.940097,0.000200,
2476,2278,4.8154101198623,-8.07762051614494,-0.00395473689752635,0.004518,-0.068747,-0.010851,0.218571,-3.173835,326.913019,19.608282,0.999186,0.979780,0.005434,0.329094,0.000677,0.000528,-0.000088,0.000718,0.000487,-24.950989,0.001212,
2461,2068,4.5337219505832,-12.6909634233172,0.017294205794542,0.005472,-0.072745,-0.019750,0.293447,-3.387719,330.526612,18.581563,0.998955,0.979574,0.005737,0.404526,0.001241,0.001176,-0.000151,0.001363,0.001054,-38.860681,0.002424,
2161,2323,-2.06743369447183,-7.09129362795073,-0.0123821107077902,0.001374,-0.066325,-0.015081,0.086229,-3.074191,326.139051,20.993806,0.998903,0.983326,0.005133,0.437359,0.000450,0.000377,0.000020,0.000455,0.000372,14.345616,0.000828,
2191,2698,-1.47558792993738,1.09204404531923,-0.0149051484663687,0.004574,-0.065563,0.002240,0.179878,-2.972294,320.044857,21.258083,0.999638,0.994462,0.003250,0.549988,0.000079,0.000051,-0.000005,0.000080,0.000050,-9.804778,0.000131,
2101,2113,-3.34368798101528,-11.6914476594136,0.0105626559225129,-0.002750,-0.068585,-0.016430,-0.100665,-3.188026,329.770331,21.113105,0.998784,0.976972,0.006103,0.380734,0.000916,0.000916,0.000093,0.001009,0.000823,44.905001,0.001835,
2371,2848,2.41200037465674,4.36680587127886,-0.0207712753448277,0.005279,-0.066103,0.003469,0.203729,-2.986851,317.338248,21.731453,0.999598,0.989490,0.003983,0.445115,0.000026,0.000032,0.000020,0.000049,0.000009,49.532803,0.000063,
2311,2608,1.15066486389172,-0.86437595447525,-0.0184377130328812,0.004389,-0.066511,0.001583,0.170503,-3.001038,321.239911,21.093546,0.999518,0.990658,0.003877,0.470949,0.000135,0.000093,0.000013,0.000139,0.000089,15.706068,0.000230,
2116,2218,-3.03262500660097,-9.38815209968556,-0.00923632295223342,-0.000721,-0.067065,-0.015047,-0.010994,-3.095698,327.938154,21.151217,0.997697,0.978604,0.005915,0.390828,0.000657,0.000659,0.000088,0.000746,0.000570,45.242216,0.001320,
2296,3208,0.720468097206005,12.1772405232453,0.0364085357739441,0.007251,-0.065714,0.010435,0.273174,-2.971016,312.029619,22.374242,0.999713,0.993392,0.003295,0.419611,0.000012,0.000048,0.000005,0.000048,0.000011,82.151093,0.000063,
2221,2638,-0.814572530758387,-0.212143335127379,-0.031529577549577,0.004064,-0.066030,0.002154,0.155899,-2.966519,320.772194,21.187613,0.998911,0.985858,0.004828,0.544908,0.000115,0.000071,0.000010,0.000117,0.000069,12.578240,0.000188,
2386,2968,2.71644749059586,6.9763784219513,-0.00577179943695683,0.005797,-0.066876,0.008921,0.207315,-3.018641,315.516679,22.136044,0.999456,0.990101,0.004110,0.370873,0.000008,0.000008,0.000022,0.000030,-0.000015,44.671047,0.000030,
2326,1993,1.59152303884639,-14.3347159857983,0.00888869048696961,0.001154,-0.075091,-0.018097,0.085996,-3.485563,331.319048,19.247697,0.997727,0.971253,0.006755,0.316260,0.001257,0.001200,-0.000099,0.001332,0.001126,-37.027191,0.002460,
2071,2263,-4.01924295321227,-8.40291412154988,-0.0114679723043309,-0.000078,-0.066398,-0.014059,0.015092,-3.052313,327.438727,21.357527,0.999058,0.986153,0.004792,0.443360,0.000579,0.000565,0.000099,0.000671,0.000472,42.978926,0.001149,
2176,2668,-1.79739616997692,0.440208084124968,-0.0222195823553193,0.003994,-0.065140,-0.002129,0.167233,-2.960817,320.504993,21.350827,0.999542,0.991581,0.003784,0.445981,0.000096,0.000048,-0.000001,0.000096,0.000048,-0.983203,0.000147,
2086,2293,-3.69857586749751,-7.74530930759048,-0.0192464880050238,-0.000916,-0.065455,-0.014692,-0.021046,-3.029828,326.777681,21.345854,0.999535,0.991320,0.004192,0.414589,0.000538,0.000472,0.000092,0.000602,0.000408,35.194804,0.001016,
2101,2338,-3.37687433061731,-6.76360319114038,-0.0117756113316432,0.000867,-0.066216,-0.013481,0.057250,-3.061840,326.121258,21.227744,0.999273,0.987697,0.004543,0.448145,0.000439,0.000352,0.000039,0.000455,0.000337,20.953908,0.000794,
2116,2413,-3.06160440133977,-5.12296612560903,-0.0138726579930335,0.002059,-0.065612,-0.007758,0.095534,-3.004919,324.862578,21.328840,0.999205,0.986490,0.004730,0.374820,0.000333,0.000195,0.000010,0.000334,0.000194,3.973440,0.000534,
2401,3058,3.02800250757376,8.93162200306312,0.0195033423230484,0.006818,-0.066296,0.010743,0.247437,-2.974525,314.308708,22.437436,0.999604,0.991421,0.003814,0.419603,0.000015,0.000013,0.000031,0.000045,-0.000017,44.372234,0.000046,
2206,2563,-1.12732986510242,-1.84804764947139,-0.0169429431451817,0.003427,-0.065568,-0.001447,0.138479,-2.968969,322.131352,21.189286,0.999502,0.990934,0.003899,0.464435,0.000164,0.000114,0.000014,0.000168,0.000110,14.116115,0.000280,
2431,3238,3.64600723679315,12.839649625195,0.0296053659646986,0.007500,-0.066520,0.012228,0.272091,-3.002708,311.503846,23.073416,0.999521,0.992061,0.003646,0.442536,0.000033,0.000020,0.000005,0.000035,0.000018,20.223706,0.000053,
2056,2203,-4.33838412507702,-9.71535867964602,-0.0100516711102614,-0.001613,-0.066813,-0.011330,-0.063360,-3.040727,328.417881,21.437816,0.998205,0.980421,0.005703,0.452689,0.000702,0.000662,0.000126,0.000810,0.000554,40.503183,0.001372,
2266,2863,0.128219171997262,4.68583278365237,-0.001614667508818,0.006080,-0.065921,0.003036,0.244674,-3.000352,317.361194,21.637116,0.999660,0.993812,0.003533,0.412734,0.000032,0.000035,0.000013,0.000047,0.000021,48.341927,0.000069,
2161,2608,-2.11328216915663,-0.867389185407561,-0.0202954543510145,0.004019,-0.065050,-0.002998,0.171251,-2.949870,321.549712,21.325670,0.999290,0.990393,0.004176,0.446090,0.000141,0.000062,0.000009,0.000142,0.000060,6.683132,0.000208,
2326,2623,1.4745176193624,-0.537138827957051,-0.0169883401993616,0.004033,-0.066157,-0.002096,0.166636,-3.003317,320.996120,21.097821,0.999341,0.987903,0.004325,0.483718,0.000127,0.000089,0.000005,0.000128,0.000088,7.929223,0.000217,
2236,2923,-0.535660444915905,5.98877364413546,-0.00805365634738564,0.005510,-0.065698,0.007215,0.205830,-2.962815,316.348795,21.622781,0.999563,0.992358,0.003696,0.503781,0.000026,0.000027,-0.000001,0.000028,0.000025,-59.842879,0.000053,
2356,2818,2.09220706523791,3.71223739865978,-0.011645875804561,0.005348,-0.066047,0.002731,0.209807,-2.997369,317.906414,21.629885,0.999693,0.991925,0.003676,0.438799,0.000031,0.000034,0.000015,0.000047,0.000018,48.300244,0.000067,
2296,2983,0.759276926705169,7.29646744514098,0.00826761944125565,0.006391,-0.065527,0.004925,0.252183,-2.955278,315.452651,21.987247,0.999148,0.988120,0.004185,0.387609,0.000009,0.000014,0.000012,0.000024,0.000000,51.065731,0.000027,
2236,2713,-0.500443318421386,1.42221769521952,-0.0241987556670438,0.004645,-0.066005,0.003587,0.177614,-2.982551,319.602497,21.369261,0.999195,0.989324,0.003969,0.443422,0.000087,0.000056,0.000003,0.000087,0.000056,5.002158,0.000145,
2251,2998,-0.221121321119345,7.61783626250418,0.0135226700691078,0.006219,-0.065955,0.009946,0.228920,-2.970695,315.297825,21.810314,0.999438,0.991169,0.003860,0.452649,0.000010,0.000012,0.000003,0.000015,0.000007,54.187653,0.000022,
2311,2623,1.14822567814985,-0.537541406889119,-0.0166124136033545,0.004287,-0.066153,-0.002241,0.178964,-3.009438,321.020213,21.128383,0.999297,0.988527,0.004198,0.460690,0.000124,0.000092,0.000010,0.000127,0.000089,15.717514,0.000218,
2341,2713,1.78402320301491,1.42581018450204,-0.022980175658688,0.004796,-0.066752,0.004822,0.177208,-3.007863,319.488993,21.338329,0.999384,0.989297,0.004121,0.447659,0.000065,0.000082,0.000018,0.000094,0.000054,57.362909,0.000149,
2311,3073,1.07011300139825,9.25008611051349,0.0286543077173178,0.006800,-0.066247,0.009952,0.253152,-2.986944,314.140245,22.194843,0.999674,0.993948,0.003257,0.376402,0.000005,0.000021,0.000014,0.000029,-0.000004,59.925995,0.000032,
2491,2338,5.12998798976338,-6.76257422387607,-0.00237657773095634,0.004171,-0.068364,-0.004186,0.177542,-3.087519,325.952802,19.825896,0.998692,0.984920,0.005430,0.376752,0.000574,0.000388,-0.000054,0.000589,0.000374,-15.043086,0.000970,
2131,2473,-2.74529390386888,-3.81185058162537,-0.0204506616717595,0.002267,-0.065321,-0.004698,0.096010,-2.968052,323.774290,21.326729,0.999138,0.987051,0.004788,0.398046,0.000256,0.000148,0.000013,0.000258,0.000146,6.722632,0.000410,
2341,2698,1.78723653701651,1.09805739673918,-0.0152652441847181,0.004634,-0.066666,0.005272,0.168237,-3.000411,319.788821,21.270348,0.999623,0.992201,0.003837,0.486132,0.000075,0.000089,0.000015,0.000098,0.000065,57.953658,0.000164,
2326,2008,1.58959986899037,-14.0039403394656,0.00853609221320539,0.001588,-0.073102,-0.023893,0.126518,-3.429329,331.114490,19.346414,0.997792,0.972211,0.006801,0.311822,0.001232,0.001185,-0.000087,0.001299,0.001119,-37.412049,0.002420,
2281,2893,0.447177172902162,5.34072710751033,-0.0183064468207021,0.005659,-0.065790,0.003091,0.224921,-2.973064,316.689650,21.723108,0.999567,0.991755,0.003692,0.431218,0.000023,0.000030,0.000015,0.000042,0.000011,51.333566,0.000056,
2476,2293,4.81191439383855,-7.75118621985987,-0.0004909244618716,0.004060,-0.069143,-0.007515,0.184803,-3.163799,326.666218,19.500290,0.999267,0.981013,0.005330,0.505904,0.000645,0.000477,-0.000090,0.000684,0.000438,-23.497561,0.001131,
2401,3073,3.02498535133477,9.25713165969019,0.0201457822712428,0.006719,-0.066398,0.011320,0.240745,-2.982699,314.061997,22.468054,0.999600,0.990827,0.003840,0.425300,0.000016,0.000019,0.000028,0.000045,-0.000011,46.541211,0.000047,
2311,2818,1.11281693598261,3.71114722838353,-0.017442929033848,0.005334,-0.065978,0.003730,0.206883,-2.993558,317.869178,21.648995,0.999525,0.989448,0.004018,0.377741,0.000029,0.000032,0.000015,0.000045,0.000015,48.300690,0.000063,
2431,3253,3.6426379158297,13.1660299581164,0.0210243826231817,0.007916,-0.066458,0.013671,0.285969,-2.996121,311.198819,23.163802,0.999521,0.991940,0.003595,0.407296,0.000028,0.000019,0.000000,0.000029,0.000019,-2.643730,0.000048,
2191,2713,-1.47919921855459,1.42149468975228,-0.0325358373305562,0.004553,-0.065380,-0.000446,0.187429,-2.960790,319.660487,21.380110,0.999202,0.989462,0.004081,0.454844,0.000073,0.000045,-0.000007,0.000075,0.000043,-13.459974,0.000120,
2341,2038,1.91036610106026,-13.3447564379177,-0.00463546414221128,0.001531,-0.073524,-0.018743,0.106432,-3.441315,330.500097,19.263518,0.998613,0.979285,0.005849,0.359251,0.001200,0.001153,-0.000063,0.001243,0.001109,-34.739014,0.002354,
2176,2683,-1.79991073989723,0.766295326526929,-0.0246203325709757,0.004293,-0.065581,-0.000275,0.175084,-2.968448,320.249847,21.297569,0.999270,0.990019,0.004100,0.504338,0.000089,0.000050,-0.000005,0.000089,0.000049,-7.737213,0.000140,
2281,3148,0.405530284171729,10.8740166428741,0.036220236234044,0.007157,-0.066447,0.013480,0.258938,-2.991302,313.016088,22.153791,0.999486,0.992576,0.003816,0.440756,0.000001,0.000028,-0.000003,0.000029,0.000001,-84.716539,0.000034,
2461,2083,4.52944190803486,-12.3605146291822,0.010920936563025,0.004865,-0.072838,-0.018530,0.261135,-3.377882,330.198683,18.659384,0.998858,0.978040,0.005969,0.394614,0.001191,0.001171,-0.000149,0.001331,0.001032,-43.084912,0.002369,
2326,3118,1.38794348335157,10.2281114231362,0.0267657802620533,0.007063,-0.065518,0.006347,0.277470,-2.960397,313.402148,22.316306,0.999332,0.991864,0.003728,0.434903,0.000013,0.000022,0.000012,0.000030,0.000005,55.253841,0.000038,
2191,2518,-1.44587925156045,-2.83177912674164,-0.0105997479838038,0.003156,-0.066108,-0.001590,0.126490,-3.000085,322.945022,21.084039,0.999202,0.987789,0.004641,0.514215,0.000200,0.000151,0.000003,0.000200,0.000151,4.028803,0.000352,
2251,2803,-0.18956116976489,3.3820527544798,-0.0214420380035563,0.005297,-0.065734,0.006319,0.198404,-2.963552,318.151895,21.531111,0.999256,0.988421,0.004432,0.441218,0.000049,0.000040,0.000006,0.000052,0.000036,26.604401,0.000089,
2206,2578,-1.12963275022463,-1.52114171588541,-0.0169780677754829,0.003788,-0.065665,-0.000137,0.150860,-2.980478,321.900558,21.201980,0.999215,0.988710,0.004219,0.457719,0.000150,0.000102,0.000012,0.000153,0.000099,13.037046,0.000254,
2221,2848,-0.84894420809994,4.35873191470201,-0.0145978092427299,0.005376,-0.065917,0.006816,0.201393,-2.954883,317.546424,21.550336,0.999291,0.990730,0.003805,0.460537,0.000041,0.000037,0.000007,0.000046,0.000032,35.894097,0.000078,
2161,2623,-2.11660198969857,-0.539141692711723,-0.0283026662550014,0.003862,-0.064893,-0.001087,0.158267,-2.938454,321.226339,21.384185,0.999473,0.990370,0.004080,0.409904,0.000130,0.000057,0.000007,0.000131,0.000056,5.133121,0.000192,
2491,2353,5.12772557031966,-6.43464102240577,-0.00672311627363342,0.004534,-0.066974,-0.013908,0.231932,-3.071999,325.728175,19.792274,0.998570,0.984300,0.005646,0.486495,0.000554,0.000387,-0.000050,0.000568,0.000373,-15.431405,0.000948,
2071,2278,-4.02187720528115,-8.07288903369999,-0.0154727902624927,-0.000341,-0.065361,-0.016916,0.011466,-3.022464,327.159429,21.471886,0.999837,0.994180,0.003768,0.358185,0.000555,0.000512,0.000095,0.000631,0.000436,38.514846,0.001073,
2116,2233,-3.03486132893437,-9.06036081370381,-0.00290358015791981,-0.000625,-0.067700,-0.009386,-0.023502,-3.108866,327.737201,21.195626,0.997971,0.979193,0.005868,0.338969,0.000626,0.000618,0.000081,0.000703,0.000541,43.577812,0.001247,
2101,2128,-3.34618723990327,-11.3632593868102,0.00637429810012691,-0.002547,-0.069400,-0.014851,-0.096238,-3.215128,329.499653,21.058144,0.998774,0.985498,0.005264,0.413055,0.000874,0.000887,0.000097,0.000978,0.000783,46.935092,0.001765,
2326,2893,1.42587136973316,5.34216530200874,-0.0108469222586791,0.005583,-0.066215,0.003189,0.219804,-2.994412,316.705937,21.768453,0.999176,0.989699,0.004091,0.443691,0.000005,0.000031,0.000020,0.000042,-0.000006,61.823910,0.000045,
2341,3193,1.70035365865425,11.8555668763422,0.0385229627023591,0.007322,-0.066211,0.011764,0.269721,-2.990118,312.258947,22.558061,0.999620,0.992990,0.003542,0.400137,0.000013,0.000050,0.000014,0.000055,0.000009,71.534260,0.000069,
2131,2203,-2.70352200241061,-9.71828527060104,-0.00693105039357533,-0.000744,-0.068526,-0.011395,-0.023140,-3.154514,328.123881,20.995513,0.998015,0.978129,0.005852,0.407038,0.000686,0.000708,0.000072,0.000770,0.000625,49.393170,0.001397,
2086,2308,-3.70040619908193,-7.4182253002762,-0.0159234147309348,-0.000195,-0.066370,-0.007786,-0.008157,-3.037686,326.577048,21.313992,0.999277,0.988513,0.004634,0.439522,0.000498,0.000429,0.000071,0.000542,0.000384,31.924120,0.000931,
2416,3133,3.34039093902079,10.5593916315762,0.0283661177086287,0.007172,-0.066604,0.011539,0.260100,-2.995490,313.184301,22.611131,0.999862,0.995281,0.002919,0.509268,0.000036,0.000024,0.000023,0.000053,0.000007,38.013863,0.000066,
2176,2413,-1.75553613373346,-5.12333842124239,-0.0142002190706876,0.002110,-0.065937,-0.008626,0.100465,-3.031252,324.633690,21.076937,0.998556,0.985323,0.004961,0.423781,0.000311,0.000223,-0.000006,0.000312,0.000223,-3.900317,0.000537,
2296,3223,0.71794013316801,12.5014713994619,0.0356840429338376,0.007544,-0.065891,0.010532,0.286301,-2.977914,311.791318,22.313648,0.999795,0.994346,0.003103,0.502090,0.000014,0.000045,0.000006,0.000046,0.000013,79.877072,0.000062,
2116,2428,-3.06402851813454,-4.79654476990449,-0.0104107988458395,0.002001,-0.066067,-0.004676,0.083614,-3.005515,324.637949,21.269107,0.999192,0.987157,0.004640,0.438749,0.000313,0.000168,0.000016,0.000315,0.000166,6.266328,0.000489,
2431,3268,3.63878599014039,13.4920896268744,0.0108685203587697,0.007633,-0.066457,0.010862,0.283409,-2.995280,310.864211,23.226658,0.999600,0.992339,0.003572,0.393993,0.000021,0.000013,-0.000009,0.000026,0.000008,-33.876619,0.000036,
2266,3118,0.0854327726619353,10.222608322603,0.0364325750488206,0.007009,-0.065798,0.010446,0.263120,-2.973822,313.535797,22.085453,0.999636,0.993316,0.003445,0.413467,0.000006,0.000016,-0.000003,0.000017,0.000005,-75.735095,0.000023,
2101,2353,-3.3802653550048,-6.43396801619787,-0.019496514827722,0.000693,-0.065961,-0.007854,0.032937,-3.022656,325.790123,21.288663,0.998870,0.983640,0.005123,0.429983,0.000411,0.000322,0.000032,0.000422,0.000311,17.905250,0.000736,
2311,2638,1.14515421779338,-0.210106583750516,-0.0164682868591512,0.004046,-0.065877,-0.001187,0.164395,-2.994823,320.762981,21.185608,0.999100,0.987489,0.004329,0.450879,0.000114,0.000093,0.000007,0.000116,0.000091,16.456555,0.000208,
2146,2518,-2.42611041176918,-2.8294628202162,-0.032720596734066,0.003469,-0.065686,-0.001781,0.142235,-2.984179,322.930435,21.256271,0.999008,0.985217,0.004833,0.444484,0.000218,0.000129,0.000006,0.000219,0.000128,3.998042,0.000351,
2251,3013,-0.223718508114999,7.94368158745355,0.0147118864300069,0.006264,-0.065889,0.010626,0.228803,-2.966047,315.062691,21.844805,0.999347,0.989450,0.004006,0.445362,0.000009,0.000010,0.000003,0.000012,0.000007,49.466839,0.000020,
2326,2653,1.46769287641107,0.118567433036247,-0.0314830008579747,0.004103,-0.066569,0.000757,0.159861,-3.017864,320.380361,21.213755,0.999272,0.988758,0.004251,0.423669,0.000101,0.000085,0.000003,0.000102,0.000085,9.644460,0.000187,
2221,2653,-0.816247133447643,0.11455460697767,-0.0310835110027483,0.004718,-0.065733,-0.001296,0.197077,-2.991738,320.573824,21.223557,0.999210,0.988203,0.004447,0.503295,0.000110,0.000066,0.000012,0.000113,0.000063,14.093130,0.000178,
2236,2938,-0.537832487653645,6.31475605801388,-0.0024996667572168,0.005753,-0.066013,0.009435,0.209633,-2.985151,316.154526,21.708463,0.999471,0.992329,0.003682,0.416234,0.000025,0.000023,-0.000001,0.000025,0.000023,-21.665028,0.000048,
2131,2488,-2.74760784085247,-3.48586393241948,-0.0215452946039818,0.002517,-0.065731,-0.003611,0.104140,-2.982780,323.531670,21.218891,0.999189,0.986142,0.004840,0.498210,0.000246,0.000142,0.000008,0.000247,0.000142,4.660684,0.000393,
2146,2293,-2.39036614850349,-7.74774326558038,-0.00825708461707109,0.000332,-0.067217,-0.009770,0.021821,-3.082242,326.648304,21.036259,0.998092,0.983024,0.005441,0.424433,0.000517,0.000459,0.000044,0.000541,0.000435,28.646386,0.000978,
2386,2983,2.71454933902426,7.30176493983718,0.00242674979557478,0.006261,-0.066598,0.010336,0.223662,-3.009826,315.356716,22.167385,0.999454,0.989059,0.004264,0.391111,0.000006,0.000010,0.000021,0.000029,-0.000014,47.076895,0.000029,
2356,2833,2.08938632921035,4.03907004831454,-0.013654681726166,0.005670,-0.066245,0.004552,0.218196,-2.982086,317.653250,21.673819,0.999717,0.990299,0.003923,0.448926,0.000024,0.000038,0.000016,0.000048,0.000013,56.507153,0.000065,
2476,2308,4.80984721319266,-7.42032158054827,0.000532034475668297,0.004640,-0.068199,-0.011681,0.227551,-3.109289,326.473170,19.733144,0.998860,0.976477,0.006053,0.386209,0.000626,0.000435,-0.000081,0.000656,0.000405,-20.154788,0.001071,
2461,2098,4.52622753124861,-12.0294029922272,0.0069600579080884,0.005163,-0.072313,-0.016882,0.268815,-3.344647,329.930310,18.806975,0.999240,0.980663,0.005637,0.338202,0.001141,0.001137,-0.000152,0.001291,0.000988,-44.609990,0.002285,
2206,2803,-1.16739579543486,3.37938244711346,-0.0207770497881938,0.005402,-0.066010,0.005741,0.206422,-2.975516,318.271882,21.465486,0.998627,0.984719,0.004901,0.455137,0.000042,0.000039,-0.000007,0.000048,0.000033,-38.035802,0.000081,
2341,2053,1.90898290164943,-13.0167464835109,0.012289074260309,0.001678,-0.073251,-0.018433,0.112179,-3.420531,330.405332,19.356465,0.998775,0.979794,0.005651,0.326364,0.001158,0.001150,-0.000055,0.001209,0.001098,-42.904931,0.002308,
2191,2533,-1.44894779497266,-2.50261497004558,-0.0218833241502239,0.003345,-0.065748,-0.002522,0.138189,-2.997070,322.619046,21.173470,0.999198,0.987987,0.004468,0.443673,0.000184,0.000136,0.000006,0.000185,0.000135,6.683611,0.000322,
2161,2338,-2.07056273817026,-6.76201651454758,-0.0171682764853358,0.001234,-0.066168,-0.012186,0.071041,-3.032905,325.841399,21.044331,0.999152,0.987490,0.004547,0.440458,0.000424,0.000353,0.000014,0.000426,0.000351,10.480866,0.000778,
2416,3148,3.33816407538834,10.8847678340284,0.03838562033377,0.007150,-0.066720,0.012264,0.256389,-3.004078,313.018762,22.706016,0.999764,0.994072,0.003132,0.452407,0.000035,0.000026,0.000023,0.000054,0.000007,39.606581,0.000066,
2176,2698,-1.80285355487952,1.09378315178108,-0.0265006479621661,0.004118,-0.065428,0.001353,0.162085,-2.955051,319.977335,21.361075,0.999312,0.990314,0.003946,0.466876,0.000080,0.000047,-0.000008,0.000082,0.000045,-12.359601,0.000129,
2236,2728,-0.502714374876494,1.74897213677632,-0.0230430954324561,0.004756,-0.065696,0.001176,0.190625,-2.980313,319.381325,21.411317,0.999158,0.988719,0.004153,0.425061,0.000081,0.000051,0.000003,0.000082,0.000051,6.120972,0.000133,
2341,3208,1.69798345357069,12.1796620271737,0.0440839022840009,0.007384,-0.066219,0.012125,0.271360,-2.984568,312.061807,22.505698,0.999622,0.992746,0.003488,0.493617,0.000016,0.000048,0.000012,0.000052,0.000012,71.438229,0.000068,
2086,2323,-3.70198436270583,-7.0906882160991,-0.0145973957556293,0.000570,-0.066338,-0.006171,0.022320,-3.024976,326.376938,21.287786,0.999023,0.987243,0.004788,0.479295,0.000467,0.000377,0.000058,0.000496,0.000349,26.128395,0.000849,
2281,2908,0.444582696255946,5.66678452665001,-0.0153845255119336,0.005723,-0.065700,0.005155,0.221044,-2.952143,316.465527,21.747399,0.999623,0.992638,0.003430,0.455203,0.000021,0.000030,0.000012,0.000038,0.000013,54.752045,0.000053,
2341,2728,1.78137843351983,1.7540739998421,-0.0254896143096062,0.005122,-0.066206,0.004268,0.194351,-2.991530,319.240290,21.476988,0.999282,0.988014,0.004286,0.362380,0.000055,0.000069,0.000022,0.000085,0.000040,53.755373,0.000127,
2311,3088,1.06773160626852,9.57500590190464,0.0283948134247112,0.007055,-0.066144,0.007811,0.272199,-3.003449,313.912187,22.175655,0.999730,0.995089,0.003026,0.410376,0.000004,0.000010,0.000008,0.000016,-0.000002,54.871662,0.000017,
2341,2953,1.74204134903622,6.647352961422,-0.000955597935046626,0.006200,-0.065847,0.004138,0.244642,-2.984719,315.828991,21.984573,0.999148,0.990366,0.003990,0.408229,0.000005,0.000010,0.000016,0.000023,-0.000008,49.963547,0.000024,
2161,2638,-2.11935737070221,-0.213056082724798,-0.0263692130369577,0.003778,-0.065863,0.003450,0.140148,-2.976556,320.981847,21.383719,0.999731,0.992723,0.003661,0.382875,0.000118,0.000056,0.000005,0.000119,0.000055,4.737783,0.000178,
2326,2668,1.46529638830854,0.446237324639441,-0.025124112183903,0.004245,-0.066476,0.003738,0.156177,-2.997767,320.185461,21.349308,0.999560,0.990796,0.003988,0.342960,0.000091,0.000086,0.000004,0.000092,0.000084,27.905677,0.000176,
2296,2998,0.756554859237742,7.62123680176979,0.0114301034465711,0.006321,-0.065808,0.006801,0.242488,-2.978678,315.225114,21.961175,0.999274,0.989751,0.003974,0.419651,0.000009,0.000010,0.000010,0.000019,-0.000001,46.485504,0.000022,
2371,2863,2.40949284032149,4.69286027627545,-0.0136207679278186,0.005332,-0.066157,0.006627,0.194897,-2.983190,317.144634,21.793238,0.999515,0.990253,0.003913,0.427745,0.000024,0.000029,0.000019,0.000046,0.000007,48.491035,0.000057,
2146,2533,-2.42811295354461,-2.50360939990777,-0.0214868510644806,0.003267,-0.065905,-0.000454,0.128819,-3.001196,322.768607,21.264624,0.999185,0.986496,0.004513,0.427841,0.000201,0.000116,0.000009,0.000202,0.000115,5.899662,0.000321,
2266,2878,0.125199914756699,5.01195622810447,-0.00522571329099719,0.006012,-0.065706,0.002994,0.241764,-2.998100,317.083771,21.628541,0.999582,0.991683,0.003758,0.448947,0.000027,0.000036,0.000013,0.000046,0.000018,54.157624,0.000066,
2356,2113,2.22435283017422,-11.6962635109857,1.63677370892401E-05,0.001916,-0.071485,-0.013789,0.107840,-3.277264,329.331950,19.533475,0.999407,0.980461,0.005308,0.363716,0.000999,0.001062,-0.000058,0.001097,0.000964,-59.305677,0.002062,
2296,3238,0.714910723449378,12.8274125977057,0.0312391723488759,0.007534,-0.065753,0.009529,0.289407,-2.957729,311.510762,22.366630,0.999644,0.992444,0.003427,0.498001,0.000016,0.000035,0.000004,0.000036,0.000015,79.731434,0.000052,
2131,2503,-2.75011063129887,-3.15852041137731,-0.028159119150871,0.002994,-0.065897,-0.001810,0.120571,-3.009703,323.250705,21.202235,0.999007,0.984944,0.004893,0.494853,0.000236,0.000123,0.000007,0.000237,0.000122,3.442064,0.000365,
2431,3283,3.63595137026098,13.8170961739296,0.00767234430651342,0.007978,-0.066374,0.010243,0.301596,-3.002624,310.609236,23.243443,0.999722,0.993151,0.003353,0.418477,0.000018,0.000008,-0.000012,0.000026,0.000000,-33.907044,0.000029,
2341,2068,1.90579306945455,-12.6880702705409,0.00823739952460301,0.001615,-0.073012,-0.018086,0.108215,-3.406592,330.126528,19.287336,0.998529,0.974686,0.006160,0.449768,0.001113,0.001145,-0.000050,0.001181,0.001077,-53.955845,0.002260,
2086,2338,-3.70312784112304,-6.76294802693346,-0.008738338752039,0.000997,-0.065433,-0.012289,0.059875,-3.002949,326.221225,21.320316,0.998818,0.985270,0.004947,0.469531,0.000439,0.000347,0.000050,0.000461,0.000325,23.547181,0.000790,
2191,2548,-1.45129250085476,-2.17582374525564,-0.0156545746832535,0.003292,-0.065679,0.000081,0.127659,-2.972762,322.417612,21.186172,0.999349,0.989791,0.004213,0.470675,0.000173,0.000128,0.000012,0.000176,0.000125,13.530980,0.000302,
2281,3163,0.403020409614975,11.2003961635897,0.0342688579844435,0.007364,-0.065955,0.011257,0.276167,-2.975498,312.770792,22.245496,0.999470,0.991676,0.003764,0.391370,0.000004,0.000033,0.000000,0.000033,0.000004,-89.809059,0.000041,
2326,2023,1.58590397317439,-13.6740195163599,0.001072534142736,0.001315,-0.072979,-0.022711,0.109996,-3.412745,330.794507,19.332322,0.998280,0.976633,0.006340,0.381087,0.001202,0.001193,-0.000062,0.001260,0.001135,-42.969926,0.002396,
2251,3028,-0.226283804554985,8.2698464667908,0.0131638594139645,0.006380,-0.065596,0.009101,0.239311,-2.952862,314.814995,21.885917,0.999275,0.988249,0.004108,0.439894,0.000007,0.000009,0.000001,0.000009,0.000007,68.013535,0.000017,
2326,3133,1.38473011891025,10.5532944120203,0.0254516881074096,0.006866,-0.065799,0.007825,0.263045,-2.995413,313.131495,22.345763,0.999004,0.990982,0.003903,0.403671,0.000009,0.000028,0.000011,0.000033,0.000004,65.903342,0.000040,
2416,3163,3.33535360329953,11.2103254993841,0.0357452717548199,0.007213,-0.066654,0.008678,0.272452,-3.013688,312.766802,22.744980,0.999725,0.993238,0.003277,0.450519,0.000028,0.000034,0.000024,0.000055,0.000007,48.637498,0.000068,
2461,2113,4.52189038686042,-11.6987099083842,-0.00482698247293456,0.004647,-0.071201,-0.019156,0.254252,-3.296512,329.574700,18.822293,0.999176,0.976910,0.006005,0.429322,0.001101,0.001103,-0.000145,0.001247,0.000957,-45.135091,0.002210,
2131,2218,-2.70584225701736,-9.38852204030243,-0.0102056928044476,-0.000677,-0.067155,-0.014897,-0.009179,-3.103640,327.868376,21.051386,0.997828,0.977421,0.005915,0.410254,0.000655,0.000668,0.000071,0.000733,0.000590,47.598251,0.001326,
2251,2818,-0.191620253427534,3.70720718751432,-0.0123499427894558,0.005080,-0.065758,0.003946,0.196139,-2.978857,317.982069,21.530557,0.999445,0.989997,0.004277,0.449584,0.000046,0.000041,0.000009,0.000053,0.000034,37.865111,0.000088,
2326,2908,1.42319914576625,5.66842102590641,-0.00525399971195384,0.005549,-0.066214,0.006670,0.206253,-2.981287,316.494308,21.838185,0.999020,0.989409,0.004200,0.421025,0.000003,0.000029,0.000019,0.000039,-0.000007,62.008887,0.000042,
2101,2368,-3.38098400486026,-6.10710401639334,-0.0149080149436145,0.001639,-0.065269,-0.014057,0.094715,-3.006241,325.648267,21.244236,0.998604,0.982739,0.005390,0.493380,0.000396,0.000294,0.000028,0.000404,0.000287,14.580762,0.000694,
2356,3028,2.05469942923401,8.27737629348761,0.0136720751559096,0.006205,-0.065991,0.008530,0.229023,-2.973328,314.709311,22.237771,0.999584,0.991393,0.003754,0.392201,0.000002,0.000009,0.000021,0.000027,-0.000016,50.092844,0.000027,
2206,2818,-1.16979398325626,3.70507010695654,-0.0166014477282488,0.005270,-0.065902,0.005288,0.201841,-2.969889,318.058442,21.454770,0.998947,0.987179,0.004489,0.488012,0.000042,0.000042,-0.000004,0.000046,0.000038,-44.637151,0.000084,
2311,2653,1.14251011904496,0.116389662408451,-0.0164438205828787,0.004285,-0.066517,0.000459,0.169518,-3.032420,320.525091,21.212376,0.999334,0.988737,0.004156,0.419133,0.000101,0.000085,0.000007,0.000103,0.000082,21.361493,0.000186,
2401,3088,3.02261107504257,9.5826940260223,0.0220352056158504,0.006873,-0.066466,0.008222,0.259087,-2.995443,313.850703,22.519856,0.999542,0.990411,0.003871,0.405413,0.000017,0.000013,0.000024,0.000039,-0.000009,43.042157,0.000041,
2311,2833,1.11078575099194,4.03704165480187,-0.00678676316465499,0.005303,-0.066014,0.004100,0.204220,-2.982555,317.711321,21.706415,0.999686,0.991706,0.003760,0.363371,0.000020,0.000038,0.000016,0.000048,0.000011,59.342256,0.000062,
2236,2743,-0.505787099111025,2.07505365253893,-0.0188811863832825,0.004417,-0.066428,0.006706,0.156839,-2.997813,319.138885,21.439763,0.998962,0.986385,0.004658,0.400269,0.000072,0.000044,0.000000,0.000072,0.000044,0.308554,0.000117,
2116,2443,-3.06684902731258,-4.47029907326139,-0.0112701963728341,0.001769,-0.066061,-0.002427,0.066296,-3.002657,324.372058,21.153884,0.999153,0.987903,0.004668,0.561871,0.000291,0.000155,0.000012,0.000292,0.000154,4.937692,0.000453,
2191,2728,-1.48093484901141,1.74724439537111,-0.0257846613747006,0.004916,-0.065409,-0.000338,0.203797,-2.959120,319.489897,21.375279,0.999237,0.988575,0.004169,0.476043,0.000069,0.000043,-0.000007,0.000071,0.000041,-14.679998,0.000113,
2206,2593,-1.13262520835448,-1.19446222671277,-0.00880615716840794,0.003297,-0.066443,0.006974,0.105542,-2.973644,321.680473,21.251689,0.998929,0.986001,0.004638,0.432252,0.000141,0.000092,0.000011,0.000143,0.000089,12.063044,0.000234,
2116,2248,-3.03735017527083,-8.7326697966063,-0.00197850996840998,-0.000587,-0.067775,-0.006063,-0.031610,-3.095456,327.495664,21.153248,0.998262,0.981701,0.005583,0.400893,0.000602,0.000598,0.000079,0.000679,0.000521,44.097991,0.001203,
2146,2308,-2.39187147791902,-7.41986296473861,-0.00700510112250186,0.000978,-0.066636,-0.012814,0.060841,-3.070436,326.455872,21.037131,0.998677,0.983155,0.005281,0.445304,0.000482,0.000425,0.000033,0.000497,0.000410,24.678013,0.000909,
2176,2428,-1.75776427849027,-4.79538728686059,-0.0147641339522693,0.002696,-0.066373,-0.004689,0.115043,-3.029864,324.401044,21.118242,0.998713,0.986118,0.004905,0.397661,0.000291,0.000194,-0.000005,0.000291,0.000194,-3.158347,0.000489,
2476,2323,4.80600930010949,-7.09208391676079,-0.00608607183670529,0.004541,-0.068221,-0.010103,0.217086,-3.109277,326.164737,19.709477,0.998835,0.978302,0.005745,0.468865,0.000601,0.000411,-0.000062,0.000619,0.000392,-16.474851,0.001020,
2341,2968,1.73913816701814,6.9740466539093,-0.00260963114152446,0.006259,-0.065908,0.004258,0.246958,-2.982145,315.572133,22.069799,0.999905,0.997560,0.002595,0.361507,0.000002,0.000009,0.000016,0.000021,-0.000011,51.548782,0.000021,
2296,3253,0.71167519778367,13.1533000340927,0.0268213441664784,0.007568,-0.065892,0.011927,0.282796,-2.965703,311.220820,22.447325,0.999595,0.990335,0.003759,0.437848,0.000017,0.000035,0.000006,0.000037,0.000015,73.350053,0.000054,
2386,2998,2.71224213448817,7.62726382869559,0.00955606911099949,0.006240,-0.066380,0.009687,0.225106,-3.000439,315.172763,22.204293,0.999517,0.989714,0.004063,0.406234,0.000007,0.000008,0.000025,0.000033,-0.000018,45.264673,0.000033,
2491,2368,5.12421964684373,-6.10555792525503,-0.0113222567271691,0.004819,-0.067274,-0.010226,0.230826,-3.067016,325.445127,19.877937,0.997671,0.981427,0.005929,0.466804,0.000535,0.000376,-0.000050,0.000550,0.000362,-16.168753,0.000918,
2341,3223,1.69501847475847,12.5061591212409,0.0395606559360999,0.007538,-0.066117,0.011313,0.281354,-2.980100,311.787278,22.621187,0.999551,0.991800,0.003518,0.417788,0.000019,0.000043,0.000011,0.000047,0.000015,69.456698,0.000065,
2311,3103,1.06461206137428,9.9012494786014,0.0281005139736976,0.006701,-0.065811,0.007292,0.257895,-2.968968,313.649485,22.231474,0.999456,0.992484,0.003602,0.420294,0.000005,0.000017,0.000008,0.000021,0.000001,63.947605,0.000024,
2326,2683,1.46249603175029,0.772423615266618,-0.0270706344394966,0.004382,-0.066431,0.003809,0.162231,-2.989446,319.931779,21.295589,0.999671,0.991360,0.003908,0.439881,0.000082,0.000088,0.000004,0.000090,0.000081,65.770539,0.000171,
2221,2668,-0.81866504665922,0.441178487327988,-0.0215840967293843,0.004647,-0.066053,0.004493,0.175136,-2.981279,320.387686,21.297226,0.999482,0.992454,0.003768,0.459039,0.000105,0.000059,0.000008,0.000106,0.000058,9.087723,0.000167,
2266,3133,0.083284959237524,10.5467508703889,0.0391114470161824,0.007154,-0.065775,0.007414,0.279909,-2.980204,313.330233,22.013272,0.999627,0.994761,0.003213,0.503858,0.000000,0.000022,-0.000002,0.000022,0.000000,-84.496811,0.000025,
2356,2848,2.08601720185731,4.36593987663324,-0.0199405619973163,0.005739,-0.066239,0.005945,0.216452,-2.987644,317.354219,21.714676,0.999633,0.990285,0.003886,0.441412,0.000022,0.000034,0.000018,0.000047,0.000009,53.877160,0.000060,
2161,2653,-2.12201750916531,0.114705325800308,-0.0369174111712027,0.003957,-0.064799,-0.001982,0.165360,-2.951555,320.675362,21.373563,0.999646,0.991306,0.003818,0.428928,0.000109,0.000050,0.000003,0.000110,0.000050,2.579840,0.000163,
2431,3298,3.63228126557864,14.142188336393,0.00105267969235001,0.007859,-0.066198,0.010801,0.294126,-3.001000,310.299660,23.244989,0.999708,0.993302,0.003291,0.466981,0.000010,0.000002,-0.000013,0.000020,-0.000008,-36.548358,0.000020,
2296,3013,0.75344816892526,7.94758626230923,0.00830293388770542,0.006339,-0.065730,0.008697,0.236980,-2.959168,314.948074,21.999194,0.998960,0.986238,0.004524,0.430478,0.000008,0.000007,0.000012,0.000019,-0.000004,44.521233,0.000020,
2281,3178,0.400688041071543,11.5251580552261,0.0401938090524254,0.007309,-0.065909,0.010906,0.274809,-2.973691,312.573645,22.253046,0.999506,0.992496,0.003510,0.412234,0.000007,0.000042,0.000001,0.000042,0.000007,88.657355,0.000054,
2221,2863,-0.85166435122424,4.68555734405464,-0.018304508669587,0.005284,-0.065364,0.003247,0.208773,-2.956643,317.278332,21.605130,0.999343,0.991201,0.003684,0.422553,0.000041,0.000032,0.000000,0.000041,0.000032,2.809052,0.000073,
2131,2518,-2.75188405835749,-2.83150904183609,-0.0164217094859964,0.002998,-0.065712,-0.000070,0.115650,-2.978336,323.100797,21.268260,0.999037,0.985370,0.004798,0.466519,0.000221,0.000117,0.000015,0.000223,0.000115,8.021782,0.000343,
2371,2878,2.40707114551567,5.01917893921911,-0.00975413563361371,0.005482,-0.066501,0.006601,0.201706,-3.010411,316.939178,21.889318,0.999471,0.992489,0.003699,0.344817,0.000022,0.000031,0.000022,0.000049,0.000003,50.607937,0.000059,
2401,3103,3.02041577323413,9.90770768804905,0.027242899065925,0.007056,-0.066312,0.006569,0.273590,-2.985885,313.663432,22.523412,0.999526,0.992045,0.003602,0.455918,0.000021,0.000019,0.000027,0.000047,-0.000007,43.717624,0.000051,
2191,2743,-1.48291376890751,2.07312590968449,-0.0166508541360031,0.005069,-0.065687,0.002582,0.201549,-2.970568,319.320529,21.418226,0.999422,0.989612,0.004058,0.435936,0.000062,0.000040,-0.000012,0.000067,0.000034,-24.050866,0.000103,
2101,2143,-3.34857078226915,-11.0326430154279,-0.00448373330561935,-0.001933,-0.068738,-0.015442,-0.066162,-3.196220,329.197682,21.112869,0.998290,0.981093,0.005761,0.381743,0.000828,0.000844,0.000097,0.000933,0.000739,47.400980,0.001676,
2251,2833,-0.193959733839765,4.03402349473037,-0.0141823596363224,0.005515,-0.065807,0.003588,0.217362,-2.976810,317.743519,21.585938,0.999386,0.990385,0.004015,0.419367,0.000041,0.000039,0.000012,0.000052,0.000028,43.186504,0.000081,
2311,2668,1.13950594622954,0.444590043876758,-0.0184392770880208,0.004250,-0.066265,0.001157,0.165686,-3.001206,320.260103,21.314719,0.999741,0.991834,0.003717,0.380830,0.000092,0.000086,0.000006,0.000095,0.000083,30.474453,0.000178,
2176,2713,-1.80467764289783,1.42050067324109,-0.0249587997217304,0.004562,-0.065345,-0.000980,0.189746,-2.964829,319.774278,21.409432,0.999221,0.988990,0.004164,0.421148,0.000075,0.000043,-0.000011,0.000078,0.000040,-16.896449,0.000120,
2416,3178,3.33249189459785,11.5360888914741,0.0366820449027045,0.007311,-0.066325,0.009747,0.273154,-3.001623,312.529127,22.806828,0.999619,0.991942,0.003516,0.447123,0.000030,0.000042,0.000024,0.000060,0.000011,52.033706,0.000077,
2461,2128,4.51911655253676,-11.3702928356108,0.00371971308987895,0.004564,-0.071640,-0.014824,0.234060,-3.304910,329.383714,18.913623,0.999301,0.973913,0.006223,0.386671,0.001060,0.001059,-0.000145,0.001204,0.000915,-44.971835,0.002126,
2341,2743,1.77892868530503,2.07935690202299,-0.0203390063049369,0.004958,-0.066277,0.002520,0.192890,-2.984946,319.038413,21.417585,0.999458,0.989640,0.004033,0.465179,0.000048,0.000063,0.000021,0.000078,0.000033,54.736571,0.000114,
2236,2953,-0.539163780100107,6.6406431901832,0.00201084947883601,0.006499,-0.065724,0.005873,0.255693,-2.977585,315.993521,21.751550,0.999274,0.991076,0.003976,0.401223,0.000017,0.000012,-0.000001,0.000018,0.000012,-7.274639,0.000030,
2266,2893,0.122145917893452,5.33917871252521,-0.0115888985961874,0.005890,-0.065568,-0.000163,0.246726,-2.985161,316.790520,21.695134,0.999522,0.990287,0.003859,0.420574,0.000025,0.000035,0.000013,0.000044,0.000016,55.465252,0.000062,
2326,2038,1.58220320031992,-13.3430138741463,-0.00151058803277238,0.000830,-0.072828,-0.019565,0.077013,-3.363661,330.497690,19.446149,0.998887,0.982373,0.005424,0.354716,0.001163,0.001164,-0.000059,0.001223,0.001105,-45.198119,0.002328,
2281,2923,0.442294866383271,5.99199999537991,-0.00664321458879158,0.005816,-0.066150,0.009242,0.211466,-2.967248,316.284858,21.775546,0.999550,0.992289,0.003611,0.439175,0.000018,0.000030,0.000006,0.000033,0.000015,66.308979,0.000050,
2356,3043,2.05191492964781,8.60248102332536,0.0106016860000295,0.006534,-0.066317,0.008896,0.242754,-2.985271,314.452454,22.202196,0.999627,0.991443,0.003681,0.453878,0.000001,0.000018,0.000022,0.000033,-0.000014,55.279653,0.000033,
2161,2353,-2.07301387430454,-6.4341674635747,-0.0196988068288988,0.001543,-0.066288,-0.010395,0.079675,-3.043539,325.587098,21.043794,0.998778,0.984937,0.004956,0.442270,0.000394,0.000327,0.000006,0.000394,0.000327,5.403502,0.000722,
2191,2563,-1.45346163911876,-1.84933430601492,-0.0126727357049958,0.003234,-0.065360,-0.003190,0.135335,-2.968723,322.207497,21.166670,0.999306,0.989486,0.004145,0.509166,0.000170,0.000119,0.000011,0.000172,0.000117,11.790311,0.000290,
2341,2083,1.90275083208371,-12.3556784780161,0.00202758197150388,0.001721,-0.072115,-0.020029,0.120114,-3.350755,329.843406,19.497396,0.999036,0.980702,0.005531,0.335735,0.001071,0.001123,-0.000049,0.001153,0.001041,-58.954118,0.002195,
2146,2548,-2.4301791450013,-2.17709920074888,-0.0195108138793216,0.003395,-0.065720,-0.002463,0.140843,-2.989930,322.554597,21.225916,0.998943,0.985309,0.004701,0.486401,0.000192,0.000108,0.000016,0.000195,0.000105,10.606999,0.000304,
2236,2758,-0.508282011774913,2.402257622547,-0.0221837155246476,0.004691,-0.065858,0.005272,0.174330,-2.970306,318.884488,21.471145,0.999180,0.987584,0.004357,0.417808,0.000066,0.000042,0.000005,0.000066,0.000042,10.810176,0.000109,
2326,3148,1.38267172284074,10.8783869636026,0.0295328567615911,0.007270,-0.066010,0.007357,0.283288,-2.992799,312.940409,22.366110,0.999354,0.992149,0.003756,0.419336,0.000007,0.000027,0.000009,0.000030,0.000004,69.153437,0.000037,
2206,2608,-1.13515958277729,-0.866775850362025,-0.0196782381678418,0.003751,-0.066006,0.002092,0.142022,-2.980006,321.382908,21.246428,0.998804,0.984508,0.004879,0.448751,0.000135,0.000070,0.000010,0.000137,0.000069,8.433187,0.000209,
2086,2353,-3.70603278312094,-6.43406998798424,-0.0129133213392265,0.000754,-0.065107,-0.011275,0.045868,-2.988653,325.930336,21.370940,0.998428,0.980744,0.005481,0.434206,0.000412,0.000316,0.000044,0.000429,0.000299,21.042017,0.000732,
2296,3268,0.70878179318694,13.478661141449,0.0218967876155034,0.007638,-0.065625,0.009678,0.293710,-2.962321,310.944242,22.469641,0.999551,0.991958,0.003519,0.447478,0.000019,0.000042,0.000008,0.000045,0.000017,73.251496,0.000063,
2206,2833,-1.17150656865387,4.03110579343154,-0.00486630044963476,0.005355,-0.065762,0.005563,0.204898,-2.967459,317.915433,21.540045,0.999189,0.989729,0.004094,0.421714,0.000041,0.000040,0.000000,0.000041,0.000040,13.140565,0.000081,
2386,3013,2.71039277249698,7.95275256575382,0.0153812563342512,0.006631,-0.066261,0.007145,0.252272,-3.004788,315.003646,22.248253,0.999630,0.990057,0.003896,0.400313,0.000010,0.000006,0.000029,0.000037,-0.000021,42.777372,0.000037,
2146,2323,-2.39490188218635,-7.09147636047014,-0.00335002980222043,0.000601,-0.066668,-0.005965,0.022832,-3.046748,326.206234,21.101488,0.999196,0.983323,0.005153,0.414271,0.000456,0.000377,0.000020,0.000461,0.000372,13.668866,0.000834,
2251,3043,-0.228628537699468,8.59574097847508,0.0181205478728543,0.006403,-0.065560,0.009666,0.238522,-2.950334,314.610501,21.959845,0.999458,0.990689,0.003797,0.391001,0.000006,0.000012,-0.000003,0.000013,0.000005,-69.331698,0.000019,
2311,2848,1.10838044009595,4.3613025754675,-0.00289408341052422,0.005410,-0.066341,0.004658,0.207090,-2.999916,317.503433,21.594199,0.999748,0.992228,0.003747,0.489955,0.000019,0.000036,0.000017,0.000047,0.000008,57.905394,0.000060,
2266,3148,0.0801118566156731,10.8730378587226,0.0363448934368762,0.007139,-0.065852,0.010773,0.268030,-2.975191,313.049282,22.097846,0.999218,0.990994,0.003930,0.448760,-0.000001,0.000027,-0.000006,0.000028,-0.000002,-78.489049,0.000031,
2341,3238,1.69168254915927,12.8321311687437,0.0339552172265485,0.007442,-0.065738,0.011034,0.278105,-2.957838,311.490514,22.668838,0.999498,0.990775,0.003621,0.427744,0.000021,0.000035,0.000008,0.000038,0.000017,66.341453,0.000057,
2446,1993,4.21852530905997,-14.3372957069286,-0.0010977782112036,0.004419,-0.074642,-0.024470,0.261591,-3.502495,331.518191,18.384260,0.998918,0.975779,0.006055,0.305395,0.001443,0.001234,-0.000152,0.001523,0.001154,-27.726026,0.002686,
2281,3193,0.39806827924621,11.8501957019955,0.0428630976724662,0.007289,-0.065877,0.011707,0.271248,-2.972894,312.346845,22.270928,0.999586,0.992670,0.003433,0.421375,0.000009,0.000051,0.000002,0.000051,0.000009,87.597646,0.000065,
2461,2143,4.51567451497001,-11.0399404843665,-0.00322577185892214,0.004716,-0.071001,-0.015065,0.242194,-3.283144,329.091169,18.988903,0.998729,0.974480,0.006208,0.390937,0.001008,0.001007,-0.000145,0.001153,0.000863,-44.906754,0.002023,
2416,3193,3.33024373011918,11.8616036268401,0.0418902049116241,0.007652,-0.066238,0.010461,0.286303,-2.995985,312.339790,22.880908,0.999550,0.990888,0.003639,0.425360,0.000032,0.000044,0.000023,0.000062,0.000014,52.827529,0.000081,
2221,2683,-0.821377221162361,0.768333015462709,-0.024030488575761,0.004576,-0.065534,0.002565,0.178248,-2.958630,320.126611,21.312082,0.999503,0.991849,0.003749,0.486131,0.000097,0.000060,0.000004,0.000097,0.000059,5.890198,0.000158,
2326,2923,1.42089674808055,5.99353452760703,-0.000126760516081958,0.005796,-0.066139,0.008560,0.211073,-2.977010,316.297706,21.811739,0.998306,0.986500,0.004777,0.485583,0.000000,0.000030,0.000014,0.000035,-0.000005,68.879099,0.000038,
2476,2338,4.80248429103415,-6.76318656926119,-0.00109967008501144,0.004142,-0.068396,-0.004426,0.177242,-3.097434,325.922948,19.854926,0.998528,0.980566,0.005666,0.393975,0.000563,0.000393,-0.000058,0.000581,0.000375,-17.126325,0.000963,
2311,2683,1.13718788858952,0.770369402691955,-0.0160346558561173,0.004554,-0.066282,0.001754,0.177626,-2.995494,320.048856,21.261437,0.999696,0.991123,0.003836,0.472347,0.000085,0.000090,0.000005,0.000094,0.000082,59.236992,0.000175,
2341,2983,1.7369059489928,7.29856886477005,0.00450037554418259,0.006374,-0.066259,0.005159,0.248919,-3.007729,315.389367,22.047681,0.999773,0.994848,0.003078,0.393867,0.000000,0.000011,0.000015,0.000021,-0.000010,55.456905,0.000021,
2131,2233,-2.70764900550348,-9.06031901492841,-0.00501165586229035,-0.000407,-0.067172,-0.014717,0.002654,-3.092904,327.681856,21.098046,0.998207,0.979062,0.005730,0.382019,0.000623,0.000626,0.000065,0.000689,0.000559,45.573699,0.001251,
2356,2128,2.22179886200591,-11.3682206529312,0.00302781218516657,0.002090,-0.071484,-0.012031,0.109660,-3.280973,329.117514,19.524503,0.999113,0.981360,0.005354,0.410739,0.000959,0.001031,-0.000057,0.001062,0.000927,-61.052854,0.001991,
2356,3268,2.00999286836555,13.484798726593,0.0128414192076889,0.007419,-0.066054,0.011068,0.276170,-2.978907,310.817132,22.805346,0.999550,0.992170,0.003488,0.422324,0.000014,0.000033,0.000005,0.000035,0.000013,74.803308,0.000049,
2326,2698,1.46029087776251,1.09824619492481,-0.0244214066598261,0.004581,-0.066119,0.001443,0.179666,-2.988935,319.727948,21.258667,0.999556,0.990327,0.004013,0.512094,0.000072,0.000088,0.000009,0.000092,0.000068,65.286890,0.000161,
2491,2383,5.12059962781993,-5.77779577220956,-0.0063023068153143,0.004566,-0.067984,-0.001911,0.187145,-3.059304,325.200102,19.938605,0.998310,0.979279,0.005769,0.474504,0.000512,0.000360,-0.000067,0.000537,0.000335,-20.707634,0.000880,
2161,2668,-2.12261736640635,0.438623884268125,-0.0128335722913562,0.004218,-0.065127,-0.002243,0.178084,-2.953747,320.646771,21.332210,0.999678,0.993027,0.003479,0.477960,0.000103,0.000041,0.000001,0.000103,0.000041,0.996658,0.000148,
2326,2053,1.5800563010086,-13.0157668734052,0.00572385835420164,0.001265,-0.073322,-0.014674,0.079984,-3.392195,330.320466,19.410194,0.999283,0.986465,0.004845,0.399527,0.001125,0.001156,-0.000051,0.001194,0.001086,-53.481809,0.002281,
2191,2578,-1.45566321928918,-1.52213284781179,-0.0161100137826224,0.003889,-0.065284,-0.002057,0.161924,-2.967534,321.962387,21.163443,0.999388,0.990564,0.003923,0.529190,0.000153,0.000106,0.000011,0.000156,0.000103,12.660712,0.000261,
2116,2263,-3.03970888136934,-8.40348880513355,-0.00982391504493307,-0.000206,-0.067076,-0.008308,-0.007285,-3.081129,327.212823,21.161547,0.998234,0.982872,0.005537,0.412688,0.000579,0.000560,0.000076,0.000646,0.000493,41.464457,0.001142,
2311,3118,1.06204848348243,10.2269563263454,0.0309994842482411,0.006836,-0.065614,0.009093,0.258101,-2.949031,313.428267,22.276176,0.999207,0.990922,0.003977,0.426603,0.000012,0.000022,0.000011,0.000029,0.000004,56.995011,0.000036,
2476,2353,4.80014216349516,-6.43458158054139,-0.0057585913276057,0.004932,-0.067854,-0.008204,0.228011,-3.080365,325.691756,19.878000,0.998741,0.982070,0.005634,0.446445,0.000540,0.000388,-0.000054,0.000557,0.000371,-17.736667,0.000934,
2356,2863,2.0832099923627,4.6918243174334,-0.0195730060808046,0.005784,-0.066469,0.006414,0.216803,-2.999174,317.113313,21.725418,0.999551,0.990212,0.003907,0.457668,0.000022,0.000030,0.000018,0.000044,0.000007,51.476143,0.000056,
2296,3283,0.706002639990636,13.8039776430398,0.015297237865127,0.007913,-0.065553,0.006981,0.315578,-2.967050,310.664547,22.491174,0.999359,0.991976,0.003535,0.449990,0.000022,0.000047,0.000011,0.000051,0.000018,69.751745,0.000071,
2416,3208,3.32723784553487,12.1868261723155,0.0429208230534641,0.007508,-0.066273,0.010411,0.279870,-3.000282,312.095962,22.916890,0.999503,0.990231,0.003859,0.431184,0.000032,0.000037,0.000019,0.000054,0.000015,49.105749,0.000073,
2401,3118,3.01773002204971,10.2331142906328,0.0373706142163996,0.006653,-0.066436,0.008606,0.247582,-3.000323,313.476666,22.621139,0.999815,0.995422,0.002951,0.387979,0.000027,0.000024,0.000027,0.000052,-0.000002,43.431475,0.000059,
2116,2458,-3.06849743270219,-4.14048542260812,-0.0174766655483722,0.002630,-0.065390,-0.007071,0.119795,-2.994412,324.130266,21.314779,0.999202,0.988146,0.004540,0.414002,0.000272,0.000137,0.000005,0.000272,0.000136,2.287112,0.000416,
2356,3283,2.00651189114409,13.8100703280364,0.00265638500917476,0.007537,-0.066313,0.010517,0.283514,-2.990421,310.492769,22.811592,0.999528,0.991842,0.003533,0.442209,0.000014,0.000026,0.000003,0.000027,0.000013,75.462757,0.000041,
2206,2623,-1.13740425924785,-0.540003825034994,-0.018380251949111,0.003936,-0.065886,0.001309,0.153022,-2.984868,321.161609,21.265908,0.999203,0.984790,0.004833,0.441534,0.000123,0.000067,0.000011,0.000125,0.000065,10.437726,0.000194,
2326,3163,1.38017761783764,11.2038389876936,0.0339689176930733,0.007324,-0.065892,0.008362,0.282404,-2.976618,312.730844,22.411579,0.999629,0.993236,0.003514,0.423268,0.000009,0.000033,0.000011,0.000037,0.000005,69.453538,0.000046,
2191,2758,-1.48516685057033,2.39964292223024,-0.01603150890503,0.005316,-0.065553,0.002344,0.213708,-2.967550,319.094093,21.440999,0.999480,0.990168,0.003877,0.430861,0.000055,0.000037,-0.000010,0.000059,0.000032,-23.815734,0.000093,
2491,2398,5.11726872817898,-5.44915980636876,-0.0100397967414665,0.004411,-0.068023,-0.004657,0.190542,-3.093137,324.928984,20.041080,0.999273,0.987147,0.004682,0.398755,0.000479,0.000335,-0.000061,0.000501,0.000313,-20.147394,0.000822,
2281,2938,0.439689864801576,6.3173353093187,-0.0028180831645841,0.005746,-0.066186,0.010517,0.203902,-2.975753,316.064967,21.776401,0.999477,0.991445,0.003770,0.456754,0.000018,0.000025,0.000008,0.000030,0.000013,56.092632,0.000044,
2356,3058,2.04948879809103,8.92781195071039,0.018672232417714,0.006596,-0.066731,0.012256,0.233629,-2.999461,314.265769,22.266698,0.999649,0.992550,0.003463,0.413024,0.000003,0.000017,0.000023,0.000034,-0.000014,53.493397,0.000034,
2176,2443,-1.76081183955233,-4.46794607940944,-0.0163638700974502,0.002281,-0.066309,-0.004398,0.095112,-3.020400,324.125535,21.100311,0.998931,0.985820,0.004933,0.438930,0.000269,0.000188,-0.000005,0.000269,0.000188,-3.705094,0.000459,
2101,2383,-3.3836390953254,-5.7784933095166,-0.0190921480204906,0.001870,-0.065654,-0.010132,0.093728,-3.033791,325.370342,21.323383,0.998567,0.982716,0.005251,0.389891,0.000374,0.000265,0.000025,0.000380,0.000260,12.500393,0.000643,
2326,2713,1.45739402248716,1.42696782721116,-0.0284187231637816,0.004648,-0.065999,-0.000389,0.189135,-2.990449,319.459133,21.440284,0.999199,0.985907,0.004566,0.363631,0.000062,0.000079,0.000014,0.000087,0.000054,60.520898,0.000142,
2101,2158,-3.3505949213528,-10.7043999385107,0.00426635028424016,-0.002016,-0.068622,-0.012892,-0.077383,-3.172914,329.018096,21.163115,0.998527,0.981433,0.005654,0.358653,0.000792,0.000803,0.000098,0.000895,0.000700,46.538241,0.001599,
2446,2008,4.2168017597936,-14.0098053548651,0.00834044582018123,0.004853,-0.074300,-0.025264,0.284515,-3.505228,331.378955,18.355924,0.998816,0.976704,0.006132,0.386234,0.001404,0.001225,-0.000163,0.001500,0.001129,-30.652604,0.002638,
2341,2758,1.77628988667766,2.40597879130918,-0.0172295417463033,0.004957,-0.066099,0.003289,0.190266,-2.980304,318.817579,21.470768,0.999506,0.990033,0.004021,0.453375,0.000048,0.000054,0.000022,0.000073,0.000029,49.108192,0.000105,
2386,3028,2.70681579964166,8.27870511739238,0.0145502486780629,0.006319,-0.066621,0.010965,0.224146,-3.000324,314.723145,22.285404,0.999568,0.989966,0.003965,0.410015,0.000010,0.000007,0.000028,0.000036,-0.000020,43.074871,0.000036,
2311,2698,1.13434676659786,1.0966953663232,-0.0160310064314899,0.004534,-0.066578,0.002542,0.173911,-3.003630,319.801649,21.256801,0.999731,0.991839,0.003741,0.501315,0.000076,0.000088,0.000010,0.000094,0.000070,60.351004,0.000164,
2371,2893,2.4046599904869,5.34471405419971,-0.00853380813782678,0.005587,-0.065857,0.003334,0.218464,-2.984509,316.721608,21.844739,0.999380,0.991117,0.003887,0.456349,0.000019,0.000028,0.000021,0.000044,0.000002,51.063339,0.000052,
2236,2773,-0.510609858734945,2.72827419955173,-0.0224713823309344,0.004862,-0.065697,0.003070,0.189377,-2.981209,318.653505,21.460347,0.999195,0.987404,0.004273,0.438937,0.000060,0.000043,0.000006,0.000062,0.000041,18.848301,0.000104,
2326,2068,1.5772155327582,-12.6862110653673,-0.00116199541156448,0.001502,-0.072611,-0.017429,0.100628,-3.397239,330.042414,19.408949,0.999009,0.981219,0.005505,0.433771,0.001083,0.001151,-0.000045,0.001173,0.001061,-63.359873,0.002235,
2176,2728,-1.80745718473352,1.74612368415857,-0.0264254918481015,0.004674,-0.065855,0.002924,0.182590,-2.983541,319.511977,21.346520,0.999341,0.989230,0.004166,0.478088,0.000070,0.000040,-0.000011,0.000074,0.000036,-18.085552,0.000112,
2146,2338,-2.39748050804474,-6.76282127797926,-0.00836180897175609,0.000765,-0.066288,-0.006436,0.031930,-3.010577,325.931322,21.097040,0.999168,0.985256,0.004855,0.464971,0.000428,0.000352,0.000014,0.000431,0.000350,10.279999,0.000782,
2221,2698,-0.823898164577869,1.09478652323579,-0.0235381983779916,0.004606,-0.065593,0.002280,0.180516,-2.970206,319.889622,21.325704,0.999601,0.993337,0.003409,0.480185,0.000090,0.000057,0.000004,0.000090,0.000057,7.336584,0.000148,
2131,2533,-2.75450744183048,-2.50457986700988,-0.0166019275445137,0.002830,-0.066056,0.000089,0.107350,-2.985886,322.848623,21.262180,0.998947,0.984962,0.004831,0.472007,0.000201,0.000105,0.000017,0.000204,0.000102,9.685825,0.000312,
2341,3253,1.68811060981961,13.1573922478023,0.023497465844514,0.007630,-0.066097,0.012727,0.280689,-2.978279,311.159420,22.670928,0.999469,0.991529,0.003570,0.440478,0.000021,0.000032,0.000007,0.000036,0.000018,63.038177,0.000054,
2161,2368,-2.07494060354879,-6.10627710680708,-0.0114991683344101,0.001897,-0.066149,-0.005065,0.079692,-3.003202,325.412946,21.105787,0.998742,0.988106,0.004556,0.432070,0.000373,0.000305,0.000001,0.000373,0.000305,1.076909,0.000680,
2476,2368,4.795940189265,-6.10528853996022,-0.00633776852902201,0.004352,-0.068080,-0.002157,0.178431,-3.051829,325.393415,19.998416,0.999420,0.985650,0.005133,0.413361,0.000519,0.000375,-0.000053,0.000536,0.000358,-18.088276,0.000900,
2491,2413,5.11377938894413,-5.12162877296154,-0.0202250154059129,0.004201,-0.067447,-0.012437,0.210945,-3.106672,324.621601,19.966157,0.999306,0.987989,0.004581,0.520881,0.000453,0.000301,-0.000043,0.000464,0.000289,-14.819920,0.000761,
2296,3028,0.751396464455606,8.27314623050501,0.0112903015326538,0.006615,-0.065617,0.005937,0.258984,-2.979717,314.750164,22.049549,0.999214,0.988206,0.004187,0.388688,0.000007,0.000007,0.000010,0.000016,-0.000003,45.242402,0.000018,
2281,2953,0.437624228092886,6.64389657423348,-0.0056354740394795,0.006096,-0.065621,0.003470,0.243831,-2.969741,315.836230,21.832629,0.999213,0.989138,0.004132,0.434028,0.000016,0.000013,0.000008,0.000023,0.000006,39.032771,0.000031,
2311,3133,1.05894301780783,10.5519440142286,0.0327583054311162,0.006611,-0.066048,0.012176,0.236950,-2.977845,313.176716,22.299838,0.999285,0.991844,0.003827,0.405205,0.000007,0.000027,0.000010,0.000031,0.000003,67.067270,0.000038,
2341,2998,1.73400148148464,7.62433401977249,0.00850045199956639,0.006227,-0.066334,0.008284,0.231274,-2.999157,315.160108,22.088014,0.999892,0.997066,0.002797,0.397946,-0.000001,0.000007,0.000016,0.000020,-0.000014,52.524600,0.000020,
2206,2848,-1.17464551315698,4.357822292206,-0.00967290266515874,0.005349,-0.065794,0.008557,0.195185,-2.951193,317.621219,21.553124,0.999252,0.990481,0.003874,0.441277,0.000035,0.000036,0.000001,0.000036,0.000035,58.261313,0.000071,
2461,2158,4.51264344095009,-10.7104717316169,-0.00290250611135434,0.004589,-0.070580,-0.016381,0.241523,-3.284002,328.850667,19.090207,0.998730,0.973798,0.006161,0.346170,0.000967,0.000915,-0.000149,0.001093,0.000790,-40.071925,0.001890,
2446,2023,4.21367514204091,-13.6790171305285,0.0102324005014793,0.004967,-0.074169,-0.020678,0.272774,-3.446041,331.140259,18.485393,0.998980,0.980000,0.005517,0.371904,0.001356,0.001218,-0.000160,0.001461,0.001113,-33.317391,0.002582,
2116,2278,-3.04036864546734,-8.07494965940324,-0.00823976744976562,0.001089,-0.066453,-0.013300,0.067120,-3.061593,327.058232,21.207531,0.998369,0.983181,0.005400,0.391487,0.000555,0.000508,0.000070,0.000605,0.000458,35.750125,0.001066,
2191,2593,-1.45891118660304,-1.19440167139689,-0.0174831196027867,0.003542,-0.065863,0.001654,0.134126,-2.979680,321.679925,21.245365,0.998876,0.987072,0.004527,0.450426,0.000142,0.000094,0.000010,0.000144,0.000092,11.223930,0.000238,
2326,2938,1.41863568362266,6.31933393306085,0.00444217635640598,0.006036,-0.066386,0.009197,0.219814,-3.000348,316.100075,21.875513,0.998656,0.987265,0.004612,0.432199,0.000001,0.000025,0.000014,0.000032,-0.000005,64.845708,0.000034,
2356,2143,2.21925267329501,-11.0387612425708,0.00294426848154217,0.002327,-0.071155,-0.012788,0.123300,-3.260895,328.888267,19.592677,0.998364,0.979022,0.005826,0.404715,0.000918,0.000974,-0.000053,0.001006,0.000886,-58.968572,0.001893,
2221,2878,-0.853728119683876,5.01006249364074,-0.00659995969948568,0.005299,-0.065764,0.007294,0.196308,-2.972577,317.120215,21.578812,0.999448,0.992355,0.003460,0.451339,0.000035,0.000033,0.000000,0.000035,0.000033,13.727095,0.000068,
2101,2398,-3.38596976542471,-5.45233839944103,-0.0079246434200968,0.001585,-0.066101,-0.003863,0.062197,-3.032106,325.190486,21.301428,0.998827,0.983999,0.004895,0.415933,0.000352,0.000222,0.000018,0.000354,0.000220,7.796902,0.000579,
2116,2473,-3.07103959714678,-3.81206421141955,-0.0240068637128275,0.002715,-0.064771,-0.010113,0.132857,-2.985447,323.846153,21.350550,0.999234,0.988300,0.004427,0.392103,0.000259,0.000139,0.000014,0.000260,0.000138,6.496233,0.000404,
2266,3163,0.0778015229483628,11.1993442291523,0.0382138154491827,0.007263,-0.065280,0.008777,0.280544,-2.963605,312.831335,22.209728,0.999258,0.989324,0.004135,0.372705,0.000002,0.000033,-0.000003,0.000033,0.000001,-84.319924,0.000039,
2416,3223,3.32391651146546,12.5122215024977,0.0393490736302056,0.007291,-0.066464,0.008759,0.275867,-3.011230,311.815856,22.952740,0.999446,0.990087,0.003887,0.431004,0.000032,0.000029,0.000015,0.000045,0.000016,41.297059,0.000063,
2356,3298,2.00393485029945,14.1363517695595,-0.00205393216947414,0.008092,-0.065866,0.009338,0.313473,-2.966847,310.236117,22.910533,0.999688,0.992594,0.003480,0.404186,0.000012,0.000013,0.000005,0.000018,0.000007,45.686290,0.000026,
2296,3298,0.702197685080304,14.1299353081927,0.00223884779387618,0.008147,-0.065698,0.011119,0.312298,-2.965486,310.305157,22.535564,0.999624,0.993471,0.003307,0.435498,0.000025,0.000035,0.000016,0.000046,0.000013,54.186147,0.000063,
2266,2908,0.119603659294771,5.66541255911624,-0.00765784635137834,0.005783,-0.065235,0.000168,0.240874,-2.968756,316.572826,21.746709,0.999625,0.992030,0.003613,0.410579,0.000023,0.000034,0.000010,0.000040,0.000017,58.945025,0.000059,
2236,2788,-0.5125265394183,3.05472787070308,-0.0202860487333965,0.005319,-0.065481,0.001516,0.215521,-2.972995,318.453814,21.494264,0.999294,0.988560,0.004252,0.434443,0.000054,0.000043,0.000003,0.000054,0.000043,13.011191,0.000097,
2146,2563,-2.43272530225131,-1.84967171148177,-0.0158863972093854,0.003060,-0.065249,-0.002641,0.126167,-2.958029,322.327037,21.269760,0.998777,0.985414,0.004757,0.483194,0.000185,0.000097,0.000014,0.000187,0.000095,8.659706,0.000286,
2251,2848,-0.196657433630723,4.36056656868701,-0.0180843554985017,0.005648,-0.065564,0.001963,0.228941,-2.962380,317.478058,21.593042,0.999352,0.991573,0.003850,0.449963,0.000040,0.000037,0.000014,0.000053,0.000024,41.973584,0.000079,
2491,2428,5.11099435678407,-4.79263608499532,-0.016947694471412,0.004532,-0.067241,-0.008900,0.212688,-3.062397,324.406537,20.100962,0.999202,0.986436,0.004771,0.490785,0.000432,0.000278,-0.000027,0.000436,0.000273,-9.780670,0.000715,
2311,2863,1.10569576378443,4.68871855814649,-0.00479609252704449,0.005640,-0.066030,0.004642,0.217882,-2.980500,317.253187,21.696170,0.999598,0.991284,0.003863,0.439589,0.000020,0.000032,0.000016,0.000043,0.000009,54.774002,0.000056,
2356,2878,2.08084211512655,5.01754384866601,-0.00943781220155415,0.005585,-0.066514,0.007765,0.202852,-3.006005,316.939700,21.792343,0.999517,0.991025,0.003842,0.422124,0.000019,0.000032,0.000022,0.000048,0.000003,53.840623,0.000057,
2281,3208,0.396309212159391,12.1753795513063,0.0521199811271345,0.007516,-0.065774,0.010657,0.285194,-2.980354,312.192567,22.352111,0.999773,0.994726,0.003023,0.359406,0.000011,0.000051,0.000002,0.000051,0.000011,86.807810,0.000066,
2131,2248,-2.71054829973333,-8.73239918523767,-0.0079091907732618,-0.000400,-0.067653,-0.009914,-0.011533,-3.099197,327.402492,21.057440,0.998481,0.980649,0.005587,0.424403,0.000599,0.000600,0.000065,0.000664,0.000535,45.157802,0.001202,
2236,2968,-0.541804781026574,6.96626672857577,0.00524492917389807,0.006383,-0.065588,0.007339,0.245646,-2.963395,315.765892,21.758695,0.999330,0.990980,0.003925,0.428890,0.000011,0.000013,0.000001,0.000013,0.000011,74.960197,0.000024,
2341,2098,1.89932677743034,-12.0259398069185,0.00108154390983373,0.001582,-0.071653,-0.014619,0.095177,-3.292156,329.568422,19.526926,0.999181,0.982883,0.005271,0.405088,0.001026,0.001085,-0.000051,0.001115,0.000996,-60.048036,0.002112,
2311,3148,1.05646735647549,10.8773979591692,0.0303868876978868,0.006941,-0.066073,0.010116,0.259219,-2.982244,312.933534,22.320514,0.999334,0.991531,0.003948,0.411107,0.000005,0.000026,0.000008,0.000029,0.000003,72.150821,0.000035,
2326,3178,1.37726283716406,11.5295485970197,0.0296702639129194,0.007477,-0.065638,0.007503,0.292580,-2.951911,312.458949,22.423619,0.999661,0.993506,0.003491,0.469322,0.000011,0.000043,0.000011,0.000046,0.000007,72.303775,0.000058,
2401,3133,3.01446965800198,10.559381433018,0.0273569477901106,0.007112,-0.066284,0.008592,0.268837,-2.988580,313.167877,22.650531,0.999778,0.994508,0.003102,0.415092,0.000030,0.000025,0.000022,0.000050,0.000006,41.784002,0.000061,
2191,2773,-1.48929133279535,2.72779144738583,-0.0321082723895074,0.004926,-0.065270,0.003347,0.192728,-2.950673,318.694455,21.473564,0.999188,0.988701,0.004322,0.429939,0.000047,0.000043,-0.000008,0.000054,0.000036,-37.602697,0.000091,
2176,2458,-1.76298102666243,-4.14081267747017,-0.0134544799781224,0.002400,-0.066028,-0.004690,0.101565,-2.997711,323.913803,21.087947,0.998944,0.985650,0.004981,0.487600,0.000255,0.000178,-0.000005,0.000255,0.000178,-3.606948,0.000435,
2251,3058,-0.229422325025912,8.91918571402099,0.0378984145399386,0.006843,-0.065564,0.009300,0.260004,-2.949226,314.553277,21.909241,0.999523,0.992280,0.003568,0.465213,0.000010,0.000012,-0.000003,0.000015,0.000007,-56.200092,0.000022,
2326,2728,1.4549042516484,1.75297593252819,-0.027295955400632,0.004932,-0.066095,0.000550,0.198871,-3.001254,319.234662,21.428274,0.999376,0.988115,0.004261,0.399463,0.000052,0.000067,0.000019,0.000080,0.000039,55.556821,0.000122,
2341,3268,1.68434811037047,13.4833374376401,0.0107686200466901,0.007643,-0.066039,0.012340,0.282679,-2.981681,310.808153,22.711818,0.999480,0.991935,0.003488,0.431198,0.000022,0.000034,0.000007,0.000038,0.000018,65.908947,0.000057,
2371,2908,2.40162777011641,5.67121253477378,-0.00835393733763112,0.005776,-0.066001,0.007974,0.210624,-2.964181,316.470185,21.891070,0.999213,0.989594,0.004132,0.470987,0.000015,0.000023,0.000021,0.000040,-0.000003,50.066420,0.000045,
2206,2638,-1.14007664117428,-0.212899336474628,-0.0213032042281043,0.003936,-0.065597,-0.000206,0.157944,-2.974205,320.898771,21.269208,0.999150,0.986205,0.004710,0.466512,0.000111,0.000066,0.000009,0.000113,0.000064,11.188674,0.000179,
2476,2383,4.79223444128561,-5.77740390231295,-0.0105837995425304,0.004241,-0.068428,0.000046,0.164901,-3.050414,325.101465,19.986580,0.999476,0.984502,0.005172,0.485178,0.000495,0.000355,-0.000065,0.000520,0.000329,-21.423733,0.000857,
2341,2773,1.77432073395308,2.73239243626423,-0.0111593311270894,0.005434,-0.066277,0.004466,0.207989,-2.995523,318.641932,21.551800,0.999553,0.991680,0.003736,0.393824,0.000042,0.000041,0.000014,0.000055,0.000028,43.922167,0.000084,
2311,2713,1.13138552065874,1.42438126008919,-0.0194953935940134,0.004464,-0.066148,0.000740,0.176980,-3.002079,319.531454,21.343769,0.999531,0.989816,0.004021,0.448525,0.000065,0.000078,0.000014,0.000087,0.000057,57.605922,0.000145,
2491,2443,5.1083171308809,-4.46480349010699,-0.00767257256762832,0.004676,-0.067718,-0.002835,0.195907,-3.055698,324.223594,20.227838,0.998881,0.982532,0.005089,0.430607,0.000430,0.000214,-0.000015,0.000431,0.000212,-3.979428,0.000656,
2161,2683,-2.12539949997391,0.765899116981302,-0.0203697560325509,0.004613,-0.065443,0.000292,0.188385,-2.968381,320.350781,21.351598,0.999356,0.990201,0.003945,0.454748,0.000095,0.000042,-0.000004,0.000096,0.000042,-4.307024,0.000141,
2101,2173,-3.35303970769965,-10.3745003891365,-0.00332551187648278,-0.001676,-0.068054,-0.013556,-0.059688,-3.135292,328.730938,21.180900,0.998589,0.982571,0.005442,0.382833,0.000758,0.000760,0.000098,0.000857,0.000661,45.284501,0.001523,
2356,3073,2.04710504879081,9.25334519082325,0.0239646188363736,0.006671,-0.066529,0.012456,0.236453,-2.990601,314.067491,22.311811,0.999626,0.992336,0.003490,0.414882,0.000004,0.000022,0.000019,0.000034,-0.000008,57.440464,0.000036,
2281,3223,0.393547666489869,12.4999087204658,0.0528581411830373,0.007474,-0.065671,0.011155,0.281710,-2.964841,311.949690,22.303757,0.999782,0.994366,0.003151,0.449664,0.000013,0.000049,0.000004,0.000050,0.000013,84.535036,0.000066,
2266,2923,0.116912012443031,5.99037497248432,-0.000891322189545463,0.005736,-0.065761,0.006235,0.218419,-2.976637,316.362931,21.729548,0.999618,0.992562,0.003717,0.444737,0.000021,0.000033,0.000004,0.000035,0.000019,72.545610,0.000055,
2296,3043,0.749314482675778,8.59813129254573,0.021339422887138,0.006782,-0.066113,0.009166,0.255608,-2.985381,314.586081,22.082251,0.999288,0.988856,0.004102,0.379295,0.000005,0.000015,0.000009,0.000020,0.000000,59.891778,0.000022,
2326,2083,1.57395855027301,-12.3541290141478,-0.00473379036469623,0.001324,-0.072449,-0.017265,0.091939,-3.345086,329.760807,19.624102,0.999305,0.983614,0.005348,0.308694,0.001044,0.001123,-0.000043,0.001142,0.001025,-66.278486,0.002168,
2311,2878,1.1023946572331,5.01582034472889,-0.0130585689921077,0.005672,-0.066046,0.003870,0.222015,-2.981805,316.943343,21.747871,0.999461,0.989318,0.004121,0.418728,0.000017,0.000033,0.000021,0.000048,0.000003,55.652991,0.000057,
2341,3013,1.73164505371211,7.94999721900558,0.0108136215392278,0.006339,-0.065976,0.005939,0.244804,-2.980472,314.947832,22.100989,0.999629,0.992511,0.003530,0.439691,-0.000001,0.000007,0.000020,0.000023,-0.000018,50.898349,0.000024,
2416,3238,3.32047515718177,12.8385167631583,0.0313636430170163,0.007567,-0.066193,0.010343,0.282944,-2.986338,311.509099,23.015126,0.999375,0.990869,0.003796,0.440085,0.000030,0.000023,0.000010,0.000037,0.000016,35.436769,0.000055,
2266,3178,0.0750641912353167,11.5237142119181,0.0396214145039266,0.007248,-0.065619,0.010337,0.274614,-2.967632,312.592079,22.159633,0.999388,0.990963,0.003760,0.443125,0.000004,0.000043,-0.000002,0.000043,0.000004,-87.188951,0.000052,
2161,2383,-2.07811025999302,-5.77817667234417,-0.0183668053159067,0.001620,-0.066194,-0.005676,0.068832,-3.014172,325.102900,21.096893,0.998776,0.986762,0.004716,0.442110,0.000350,0.000282,0.000002,0.000350,0.000282,1.537602,0.000634,
2221,2713,-0.826396350777269,1.42144502645323,-0.0217938824628732,0.004602,-0.065749,0.002386,0.179946,-2.972130,319.659997,21.363163,0.999191,0.989466,0.004025,0.460016,0.000085,0.000051,0.000004,0.000086,0.000051,6.006019,0.000138,
2191,2608,-1.46112332610737,-0.867272873530808,-0.0198045284400337,0.003926,-0.065735,0.000063,0.156851,-2.977874,321.440096,21.254733,0.998190,0.984527,0.005063,0.458158,0.000135,0.000073,0.000007,0.000135,0.000072,5.967375,0.000210,
2311,1993,1.26370124130798,-14.3342827330236,0.00766464209755213,0.000939,-0.074816,-0.021998,0.089194,-3.508424,331.318546,19.362748,0.999098,0.978049,0.006235,0.285104,0.001218,0.001187,-0.000103,0.001307,0.001098,-40.831645,0.002408,
2446,2038,4.21094158303599,-13.3493057159901,0.0132216487698997,0.005111,-0.073507,-0.019277,0.274456,-3.401137,330.924675,18.548521,0.998511,0.977901,0.006008,0.409584,0.001301,0.001190,-0.000148,0.001404,0.001087,-34.780333,0.002498,
2461,2173,4.50947970589291,-10.380623841335,-0.00776079268871399,0.004778,-0.069987,-0.017421,0.254360,-3.251242,328.580202,19.142759,0.998775,0.976166,0.005873,0.383694,0.000920,0.000868,-0.000141,0.001038,0.000751,-39.780761,0.001796,
2311,2728,1.12885873454594,1.75090999271077,-0.0197744021168091,0.004748,-0.066248,0.001080,0.188806,-3.012202,319.297150,21.366751,0.999477,0.988893,0.004142,0.447849,0.000055,0.000067,0.000019,0.000081,0.000042,53.720516,0.000124,
2371,1993,2.57634758897429,-14.3370991770652,0.0131324385119456,0.001824,-0.075102,-0.019842,0.123721,-3.483656,331.399684,18.877391,0.998090,0.949176,0.008791,0.367313,0.001367,0.001193,-0.000100,0.001413,0.001148,-24.436320,0.002565,
2386,3043,2.70409712612966,8.60479723186251,0.00763352115160387,0.006676,-0.066295,0.006295,0.257472,-3.001642,314.453081,22.305169,0.999665,0.991344,0.003745,0.431874,0.000009,0.000017,0.000030,0.000043,-0.000017,48.893546,0.000043,
2101,2413,-3.38805721923284,-5.12377282245547,-0.0106817696131998,0.001948,-0.065529,-0.005326,0.083335,-3.000909,324.946000,21.341477,0.999017,0.985507,0.004749,0.409963,0.000334,0.000187,0.000020,0.000337,0.000184,7.458093,0.000528,
2341,2113,1.89762945169104,-11.697496524721,0.00752310876015372,0.002114,-0.071361,-0.015657,0.123233,-3.295116,329.408588,19.585542,0.999284,0.982623,0.005231,0.382473,0.000984,0.001059,-0.000050,0.001084,0.000959,-63.658913,0.002044,
2341,3283,1.68125943854025,13.8085325653481,0.00355806274239967,0.007907,-0.066174,0.011925,0.296246,-2.991686,310.515013,22.725607,0.999577,0.992781,0.003326,0.442736,0.000025,0.000028,0.000007,0.000034,0.000019,49.626094,0.000054,
2311,3163,1.05432320204174,11.2020696162273,0.0383173589333978,0.007052,-0.066161,0.010986,0.261272,-2.990029,312.756707,22.338658,0.999568,0.992489,0.003646,0.416200,0.000007,0.000032,0.000009,0.000035,0.000005,72.450034,0.000043,
2371,2923,2.39926578643406,5.99756116095219,-0.00693107629479073,0.006028,-0.065957,0.006059,0.229019,-2.979564,316.255577,21.972281,0.999157,0.989438,0.004174,0.414845,0.000013,0.000022,0.000017,0.000035,0.000000,52.559902,0.000040,
2326,2953,1.41606991471096,6.64690183370689,-2.74502704655788E-05,0.006318,-0.065469,0.005335,0.246449,-2.976551,315.843562,21.995312,0.998830,0.987382,0.004729,0.370213,0.000001,0.000014,0.000015,0.000024,-0.000009,56.142623,0.000024,
2146,2353,-2.39923160183698,-6.43540271573418,-0.00813943310373588,0.001366,-0.066282,-0.007556,0.062883,-3.016030,325.722363,21.077907,0.999048,0.984832,0.004913,0.488398,0.000400,0.000327,0.000008,0.000401,0.000326,6.360390,0.000728,
2221,2893,-0.855632959248613,5.33591765614885,-0.00201994301966124,0.005494,-0.065558,0.004449,0.214492,-2.969431,316.932359,21.608298,0.999596,0.992384,0.003621,0.443529,0.000029,0.000030,0.000000,0.000030,0.000029,-67.655933,0.000059,
2236,2983,-0.544216988880162,7.29180868616163,0.014360376250977,0.006079,-0.065603,0.008777,0.226984,-2.960709,315.578819,21.813828,0.999389,0.991493,0.003843,0.396536,0.000011,0.000016,0.000004,0.000018,0.000009,62.447181,0.000028,
2401,3148,3.01254837416015,10.8835726231266,0.0393588255040527,0.007255,-0.066438,0.009786,0.271005,-2.997393,313.025454,22.648282,0.999807,0.994739,0.002982,0.452779,0.000030,0.000027,0.000022,0.000051,0.000006,42.921741,0.000062,
2356,2158,2.2173652882189,-10.709002651174,0.00362154266207426,0.002876,-0.070077,-0.017281,0.164601,-3.232657,328.692718,19.693411,0.998948,0.981287,0.005526,0.373581,0.000874,0.000906,-0.000052,0.000945,0.000836,-53.508286,0.001782,
2266,2938,0.114051998620425,6.31548699754467,0.000598784979217726,0.005892,-0.066325,0.012137,0.205836,-2.984325,316.118673,21.691923,0.999423,0.991334,0.003822,0.499677,0.000020,0.000027,0.000005,0.000029,0.000018,63.822148,0.000048,
2296,3058,0.746377672252716,8.9231622827747,0.0192284669639662,0.006667,-0.066068,0.008002,0.254247,-2.990555,314.322226,22.042262,0.999480,0.991873,0.003692,0.443480,0.000007,0.000014,0.000010,0.000021,0.000000,54.482694,0.000025,
2101,2188,-3.35547285128134,-10.0457927014937,-0.00694051592341793,-0.001494,-0.067757,-0.012841,-0.053339,-3.118507,328.466044,21.159060,0.998479,0.982795,0.005471,0.425437,0.000719,0.000731,0.000096,0.000821,0.000629,46.668153,0.001454,
2326,2743,1.45233076129257,2.07899574460995,-0.0199677178703155,0.004861,-0.066218,0.004090,0.183438,-2.976240,319.036547,21.435498,0.999546,0.989644,0.004049,0.451797,0.000044,0.000060,0.000020,0.000073,0.000030,55.991545,0.000107,
2356,2893,2.078754604118,5.34416200989671,-0.00443066425845018,0.005677,-0.065819,0.004114,0.220304,-2.968936,316.753887,21.863573,0.999512,0.990864,0.003809,0.426621,0.000015,0.000028,0.000019,0.000041,0.000001,54.931725,0.000049,
2281,2968,0.435594632513503,6.97014781228547,-0.00247688458949824,0.006415,-0.065346,0.001475,0.265332,-2.962158,315.639086,21.904785,0.999313,0.989378,0.004034,0.396700,0.000013,0.000011,0.000008,0.000020,0.000004,42.683947,0.000026,
2116,2488,-3.07330529759576,-3.48627881798691,-0.0198962823030797,0.002787,-0.065455,-0.006905,0.126476,-2.993759,323.632442,21.265532,0.999116,0.986918,0.004604,0.473329,0.000249,0.000135,0.000012,0.000250,0.000134,5.776961,0.000390,
2326,2098,1.57133962213734,-12.0273237937771,-0.000976900888247201,0.001180,-0.071662,-0.017112,0.085125,-3.327666,329.544753,19.478927,0.999095,0.982016,0.005510,0.508779,0.001000,0.001086,-0.000044,0.001104,0.000981,-67.117942,0.002087,
2191,2623,-1.46360378469432,-0.540321711505833,-0.018340427075259,0.003791,-0.065428,-0.001427,0.155380,-2.976249,321.207658,21.285374,0.999003,0.986317,0.004670,0.444221,0.000122,0.000069,0.000006,0.000123,0.000068,6.826737,0.000194,
2281,3238,0.389887543070966,12.8262654960045,0.0392500593551404,0.007450,-0.065627,0.009770,0.285271,-2.971522,311.592871,22.368558,0.999799,0.993372,0.003298,0.404803,0.000016,0.000040,0.000002,0.000040,0.000016,85.073118,0.000058,
2371,2188,2.53883065015155,-10.0504763251834,-0.00308351165620024,0.002986,-0.069315,-0.017218,0.170057,-3.199451,328.163831,19.694674,0.998806,0.981903,0.005401,0.411003,0.000804,0.000827,-0.000060,0.000876,0.000754,-50.319547,0.001632,
2206,2653,-1.1427786829362,0.114259112952034,-0.027226282241827,0.004297,-0.065785,0.000869,0.171040,-2.994907,320.619132,21.288597,0.999141,0.985814,0.004822,0.443665,0.000106,0.000061,0.000010,0.000108,0.000059,12.357544,0.000170,
2461,2188,4.50537714751547,-10.0500897408621,-0.0182330703079856,0.004772,-0.069691,-0.015117,0.245598,-3.211242,328.240924,19.197658,0.999532,0.986912,0.004838,0.426539,0.000881,0.000841,-0.000136,0.000998,0.000724,-40.853512,0.001729,
2311,2008,1.26141753557871,-14.0039834151221,0.0054109092261001,0.001385,-0.073577,-0.024348,0.118069,-3.453054,331.086891,19.397246,0.998958,0.978619,0.006251,0.341939,0.001194,0.001170,-0.000089,0.001272,0.001092,-41.189504,0.002365,
2206,2863,-1.17645710861088,4.68373890762523,-0.00747406110315296,0.005576,-0.065011,0.002791,0.224179,-2.934503,317.424359,21.549064,0.999336,0.991290,0.003665,0.478541,0.000035,0.000034,-0.000006,0.000040,0.000028,-43.115927,0.000069,
2311,2893,1.09940310299351,5.34261630075847,-0.0156189651012824,0.005709,-0.066187,0.004716,0.220742,-3.000278,316.675874,21.835542,0.999396,0.990578,0.003939,0.344280,0.000014,0.000030,0.000020,0.000044,0.000000,55.559030,0.000050,
2476,2398,4.78980867776564,-5.44903901322908,-0.00683431049208139,0.004315,-0.067959,-0.002952,0.179862,-3.055984,324.904357,20.107816,0.999450,0.985484,0.004938,0.416415,0.000460,0.000336,-0.000060,0.000484,0.000311,-22.203829,0.000802,
2161,2698,-2.12832714350768,1.09288349504529,-0.0224360380605617,0.004486,-0.065356,0.002680,0.175293,-2.944164,320.076882,21.356035,0.999119,0.987785,0.004269,0.484867,0.000088,0.000042,-0.000007,0.000089,0.000041,-8.498439,0.000132,
2341,2788,1.77160166467901,3.05877433468487,-0.0131737107486174,0.005560,-0.066233,0.002808,0.219551,-3.001298,318.392530,21.561359,0.999580,0.992857,0.003584,0.414868,0.000040,0.000047,0.000014,0.000058,0.000030,51.955390,0.000089,
2251,2863,-0.199083471920289,4.68659854676797,-0.0195545303146787,0.005878,-0.065542,0.000319,0.244848,-2.983709,317.237567,21.611730,0.999462,0.991463,0.003769,0.433002,0.000038,0.000032,0.000009,0.000045,0.000025,36.457586,0.000070,
2416,3253,3.31744238315531,13.164379429993,0.0251277986242258,0.008134,-0.066306,0.012214,0.302230,-2.979094,311.229450,23.069846,0.999190,0.989520,0.004022,0.438976,0.000026,0.000024,0.000004,0.000029,0.000021,37.180009,0.000050,
2191,2788,-1.49123134019581,3.05321022463914,-0.0255841695448566,0.005248,-0.065496,0.005536,0.200588,-2.957329,318.513385,21.460888,0.998683,0.985927,0.004869,0.450563,0.000040,0.000038,-0.000012,0.000051,0.000027,-42.831802,0.000079,
2176,2473,-1.76567577995356,-3.81209494414084,-0.0192625219607407,0.002585,-0.065790,-0.005085,0.111407,-2.993761,323.632168,21.163381,0.999026,0.983754,0.005291,0.429830,0.000245,0.000172,0.000000,0.000245,0.000172,-0.274830,0.000419,
2251,3073,-0.233108751092377,9.24549853760267,0.0269732130584543,0.006812,-0.065810,0.011937,0.249844,-2.956655,314.206368,21.935160,0.999450,0.991268,0.003744,0.454151,0.000007,0.000018,-0.000007,0.000021,0.000003,-64.739442,0.000026,
2446,2053,4.20761101744629,-13.0211206103127,0.014517003403455,0.004832,-0.074184,-0.017404,0.254519,-3.442430,330.674480,18.544857,0.998154,0.977713,0.006152,0.427307,0.001252,0.001182,-0.000141,0.001362,0.001072,-38.078240,0.002440,
2326,3193,1.37508411847762,11.8533523170962,0.0424990676273751,0.007355,-0.066045,0.010419,0.276696,-2.977153,312.305565,22.414821,0.999712,0.994195,0.003276,0.485740,0.000011,0.000047,0.000011,0.000051,0.000008,73.983755,0.000064,
2221,2728,-0.828613111460502,1.74818722788705,-0.0211224107362682,0.004785,-0.065312,0.000102,0.195883,-2.960444,319.437702,21.390343,0.999255,0.989381,0.003979,0.463722,0.000079,0.000047,0.000003,0.000080,0.000047,6.119811,0.000128,
2236,2803,-0.515452531500141,3.38124192406357,-0.0231975111537395,0.005364,-0.065490,0.003278,0.211858,-2.969550,318.181779,21.503524,0.999362,0.988433,0.004331,0.449620,0.000050,0.000040,0.000002,0.000050,0.000040,8.848485,0.000090,
2131,2548,-2.75679280295842,-2.17702845564481,-0.0170336095969219,0.002896,-0.065350,-0.001593,0.115648,-2.961501,322.610321,21.283779,0.998644,0.982717,0.005111,0.481282,0.000189,0.000098,0.000023,0.000195,0.000092,13.591710,0.000293,
2491,2458,5.10487668458959,-4.13678611151936,-0.0113833011686211,0.004638,-0.067801,-0.002786,0.193962,-3.057553,323.947168,20.262988,0.998982,0.983537,0.004982,0.453872,0.000415,0.000203,-0.000015,0.000416,0.000201,-4.065158,0.000630,
2326,2968,1.41308773356534,6.97336704936476,-0.000446930161729142,0.006211,-0.065753,0.005876,0.239585,-2.979439,315.588033,22.073257,0.999639,0.994774,0.003139,0.323085,-0.000002,0.000013,0.000015,0.000023,-0.000011,58.266790,0.000023,
2236,2998,-0.546890567731811,7.61703403146507,0.0134795410864399,0.006173,-0.065664,0.009551,0.228845,-2.954530,315.328785,21.771350,0.999406,0.990216,0.003959,0.465807,0.000009,0.000012,0.000003,0.000014,0.000007,57.795782,0.000021,
2311,2023,1.25800824775007,-13.6749953724391,0.0055982266094361,0.000786,-0.073331,-0.023156,0.086667,-3.429911,330.815970,19.378173,0.998773,0.980353,0.005818,0.420275,0.001165,0.001183,-0.000060,0.001235,0.001113,-49.273720,0.002348,
2176,2743,-1.80878469914245,2.07263705782479,-0.014442870195353,0.005116,-0.065424,0.003651,0.200834,-2.961799,319.386303,21.436763,0.999452,0.989953,0.004181,0.421819,0.000064,0.000036,-0.000016,0.000071,0.000029,-24.110274,0.000103,
2326,2758,1.4489399219442,2.4054853104113,-0.023127232019192,0.004612,-0.066478,0.005564,0.166774,-2.988648,318.749552,21.443825,0.999556,0.991267,0.003878,0.465630,0.000042,0.000050,0.000022,0.000068,0.000024,50.541386,0.000096,
2266,3193,0.0723378010592803,11.8494880068381,0.0382256142427764,0.007380,-0.065600,0.010920,0.278829,-2.960741,312.338652,22.215205,0.999423,0.990977,0.003710,0.418911,0.000004,0.000051,0.000000,0.000051,0.000004,-89.410235,0.000061,
2401,3163,3.00925127849917,11.2096485426487,0.0348899862382268,0.007189,-0.066576,0.009150,0.270244,-3.008930,312.741117,22.725786,0.999655,0.992670,0.003404,0.407898,0.000025,0.000034,0.000024,0.000054,0.000005,50.503520,0.000065,
2341,3298,1.67840324521557,14.133965670164,0.000636698429445914,0.008005,-0.065995,0.010556,0.305703,-2.974251,310.253348,22.761759,0.999671,0.992718,0.003341,0.459238,0.000027,0.000015,0.000012,0.000035,0.000007,32.080820,0.000045,
2146,2578,-2.43561698574678,-1.52142311691829,-0.0229551474803316,0.003348,-0.065188,0.001045,0.128314,-2.930868,322.026812,21.304373,0.998984,0.987760,0.004548,0.484589,0.000168,0.000085,0.000015,0.000171,0.000082,9.928247,0.000258,
2191,2638,-1.46577809867838,-0.213681240216054,-0.0198590703370769,0.004328,-0.065353,-0.000539,0.177326,-2.980971,320.973840,21.273006,0.999346,0.988360,0.004356,0.467006,0.000109,0.000068,0.000004,0.000109,0.000067,6.025391,0.000178,
2281,3253,0.386238004797203,13.1523723227565,0.0229336136599159,0.007744,-0.065693,0.009870,0.298480,-2.971979,311.222975,22.394618,0.999707,0.992510,0.003482,0.404449,0.000018,0.000038,0.000004,0.000039,0.000017,78.381742,0.000058,
2131,2263,-2.71189557316607,-8.40443832607707,-0.00501312399609333,0.000206,-0.066900,-0.013871,0.028343,-3.085392,327.224794,21.064927,0.998378,0.981432,0.005612,0.438420,0.000575,0.000561,0.000062,0.000630,0.000506,41.804996,0.001138,
2386,3058,2.70177500004709,8.9301744171768,0.0183920014653722,0.006638,-0.066445,0.009220,0.245183,-2.996397,314.285544,22.372630,0.999652,0.991680,0.003674,0.411712,0.000012,0.000014,0.000030,0.000043,-0.000017,46.023521,0.000043,
2311,3178,1.05181369868555,11.5274780038136,0.0370607784406047,0.007307,-0.066117,0.009472,0.278252,-2.990014,312.517405,22.365069,0.999678,0.992884,0.003526,0.420693,0.000010,0.000041,0.000009,0.000044,0.000007,75.554452,0.000055,
2161,2398,-2.07938489153475,-5.45221125471278,-0.00716107537175503,0.002093,-0.066177,-0.005204,0.089123,-3.017488,324.974971,21.063845,0.998855,0.985907,0.004765,0.483097,0.000330,0.000246,-0.000003,0.000330,0.000246,-2.313282,0.000578,
2146,2368,-2.40141009499056,-6.10763946411515,-0.00727186178778538,0.001790,-0.066691,-0.004317,0.072447,-3.032907,325.497231,21.113018,0.998828,0.985933,0.004779,0.445966,0.000382,0.000304,0.000004,0.000382,0.000304,2.773138,0.000687,
2371,2008,2.57384415934304,-14.0050979585691,0.00113072334193021,0.003135,-0.074921,-0.019793,0.183616,-3.491390,331.117449,19.019326,0.997367,0.970054,0.007127,0.262629,0.001332,0.001191,-0.000089,0.001376,0.001148,-25.804665,0.002527,
2371,2938,2.39659007136419,6.32296911839499,-0.000281994211206893,0.005963,-0.066429,0.009357,0.214177,-2.985433,316.051768,21.998487,0.999072,0.988640,0.004275,0.423232,0.000010,0.000017,0.000016,0.000030,-0.000003,51.828566,0.000033,
2161,2713,-2.13077237756751,1.42028818409835,-0.0242145918585948,0.004591,-0.065267,0.001544,0.183600,-2.953448,319.826564,21.439529,0.999293,0.989333,0.004156,0.402371,0.000083,0.000043,-0.000012,0.000086,0.000040,-15.507833,0.000129,
2461,2203,4.50151110155243,-9.72092476604293,-0.0216819976932356,0.004299,-0.069497,-0.014237,0.220751,-3.208574,327.944698,19.245248,0.999055,0.981187,0.005436,0.438955,0.000838,0.000767,-0.000132,0.000939,0.000666,-37.406232,0.001613,
2206,2668,-1.14543313274475,0.441430796220757,-0.0252931649771995,0.003867,-0.065478,-0.002332,0.161514,-2.985087,320.382111,21.349649,0.999493,0.991308,0.003885,0.409530,0.000101,0.000054,0.000006,0.000102,0.000054,7.427968,0.000158,
2356,2908,2.07549801327557,5.67059887229392,-0.00996300967221941,0.005858,-0.066058,0.006230,0.221077,-2.974239,316.463542,21.888162,0.999291,0.990037,0.004016,0.435431,0.000011,0.000024,0.000019,0.000038,-0.000003,54.430127,0.000042,
2116,2503,-3.07551903733986,-3.15876983783993,-0.0253906526158403,0.003157,-0.065186,-0.009587,0.151490,-2.992861,323.369154,21.246022,0.998975,0.984756,0.004769,0.498534,0.000238,0.000117,0.000008,0.000238,0.000116,3.982791,0.000362,
2311,2908,1.09722994657662,5.66740751776611,-0.00156790070002444,0.005456,-0.066376,0.007413,0.199785,-3.009427,316.528401,21.853848,0.999432,0.991794,0.003817,0.348314,0.000013,0.000030,0.000018,0.000041,0.000002,57.325006,0.000049,
2371,2203,2.53619729613934,-9.72210042467856,-0.00405261512599964,0.003389,-0.069594,-0.015937,0.183877,-3.221381,327.927769,19.718562,0.998298,0.980039,0.005772,0.408702,0.000765,0.000778,-0.000056,0.000828,0.000715,-48.261694,0.001544,
2341,2128,1.89457154556681,-11.3675224614334,0.000757796739719652,0.002288,-0.070769,-0.016807,0.135440,-3.268866,329.122301,19.616314,0.999471,0.986352,0.004745,0.418128,0.000945,0.001026,-0.000048,0.001048,0.000922,-65.139519,0.001972,
2101,2203,-3.35807981266793,-9.71801220948678,-0.00224458479482337,-0.001707,-0.068384,-0.007343,-0.079371,-3.131327,328.238288,21.175005,0.997899,0.980392,0.005730,0.400348,0.000686,0.000686,0.000096,0.000783,0.000590,44.965007,0.001377,
2236,2818,-0.517610679564438,3.70703350775457,-0.0170716533857558,0.005235,-0.065179,0.000812,0.214050,-2.962645,317.991238,21.516614,0.999448,0.989833,0.004108,0.464207,0.000048,0.000042,0.000005,0.000051,0.000039,30.626173,0.000090,
2311,2038,1.25550989832645,-13.344013040088,0.00588953826269289,0.000927,-0.072434,-0.024343,0.097514,-3.387628,330.586886,19.528233,0.999375,0.987111,0.004664,0.348309,0.001129,0.001153,-0.000058,0.001200,0.001082,-50.901917,0.002283,
2191,2803,-1.49383251032287,3.37967345199772,-0.0213282002096093,0.004930,-0.065363,0.005700,0.185496,-2.950005,318.289844,21.516340,0.998781,0.985977,0.004773,0.416686,0.000037,0.000034,-0.000012,0.000047,0.000023,-41.709781,0.000072,
2476,2413,4.78730742604344,-5.12213494669221,-0.00274864926336704,0.004316,-0.067684,-0.005453,0.189505,-3.080562,324.705505,20.121929,0.999327,0.986758,0.004819,0.435639,0.000435,0.000305,-0.000044,0.000449,0.000292,-17.253175,0.000746,
2401,3178,3.00623222791224,11.5351335110833,0.0361491389261346,0.007207,-0.066208,0.011841,0.261453,-2.992111,312.496787,22.759028,0.999592,0.992348,0.003498,0.435961,0.000026,0.000043,0.000025,0.000060,0.000008,54.452543,0.000075,
2176,2488,-1.76828461060323,-3.48499919034028,-0.0165450342236682,0.002529,-0.066062,-0.001736,0.098376,-2.986015,323.399337,21.170365,0.998911,0.983639,0.005248,0.444091,0.000233,0.000165,-0.000005,0.000233,0.000165,-4.356377,0.000400,
2326,2113,1.569105753173,-11.6983906207631,0.00528579284798525,0.001348,-0.072182,-0.015866,0.088344,-3.343560,329.358422,19.593236,0.999078,0.980796,0.005602,0.415710,0.000957,0.001060,-0.000043,0.001075,0.000942,-70.232421,0.002018,
2416,3268,3.3135489567501,13.4898784901526,0.0127767558949472,0.008004,-0.066403,0.010027,0.304284,-2.986995,310.881434,23.077064,0.999491,0.990998,0.003795,0.470189,0.000020,0.000022,-0.000004,0.000025,0.000017,-52.002766,0.000042,
2266,2953,0.112127126058617,6.64248884292759,0.00291478902119024,0.006220,-0.065709,0.008235,0.234108,-2.958907,315.920887,21.804763,0.999020,0.987888,0.004385,0.437432,0.000016,0.000015,0.000005,0.000021,0.000011,40.838741,0.000032,
2326,3208,1.37271196275825,12.1789375427167,0.0442538626098781,0.007552,-0.065589,0.008992,0.290860,-2.962011,312.088298,22.467698,0.999630,0.992717,0.003437,0.481166,0.000013,0.000045,0.000009,0.000048,0.000011,74.796618,0.000062,
2356,3088,2.04434680633811,9.57922369856571,0.0258364029158429,0.006498,-0.066219,0.010858,0.234228,-2.984404,313.835300,22.372925,0.999526,0.991512,0.003693,0.397582,0.000006,0.000015,0.000013,0.000024,-0.000004,54.375824,0.000026,
2371,2023,2.57055696357295,-13.6758573144546,0.00708312210025497,0.002071,-0.073512,-0.021901,0.142953,-3.433661,330.884548,19.054980,0.997617,0.971061,0.007079,0.329505,0.001288,0.001184,-0.000075,0.001327,0.001145,-27.495715,0.002474,
2131,2563,-2.75934242843934,-1.84800101200429,-0.0281632454571081,0.003430,-0.065034,-0.002939,0.144296,-2.955924,322.302565,21.369929,0.998985,0.986664,0.004681,0.407658,0.000181,0.000088,0.000020,0.000185,0.000084,11.709262,0.000275,
2281,2983,0.432767332795631,7.29540255576413,-0.00180463049457558,0.006438,-0.065228,0.003899,0.258319,-2.956006,315.393119,21.873450,0.999262,0.989502,0.004076,0.461341,0.000013,0.000014,0.000008,0.000022,0.000005,45.138296,0.000029,
2326,2773,1.44702796981383,2.73300061294461,-0.0181459820906866,0.004975,-0.066064,0.003640,0.190248,-2.991486,318.569957,21.605377,0.999659,0.994294,0.003437,0.335611,0.000035,0.000036,0.000014,0.000050,0.000022,46.268540,0.000073,
2296,3073,0.744631349122617,9.24859240741232,0.0329832806885406,0.006835,-0.066325,0.010364,0.253876,-3.001497,314.191800,22.151133,0.999577,0.993628,0.003507,0.352338,0.000006,0.000018,0.000007,0.000021,0.000003,64.950114,0.000026,
2356,2173,2.21406001019146,-10.3809899071457,0.000894112284925086,0.002540,-0.069582,-0.018079,0.152225,-3.237247,328.416203,19.636873,0.999078,0.980633,0.005548,0.467465,0.000835,0.000861,-0.000051,0.000901,0.000796,-52.104280,0.001698,
2101,2428,-3.39069633071447,-4.79614093180024,-0.0129282347595563,0.001928,-0.065852,-0.003650,0.077415,-3.009153,324.679399,21.345722,0.999294,0.986931,0.004516,0.400297,0.000316,0.000159,0.000029,0.000321,0.000154,10.189386,0.000485,
2311,3193,1.04941211679614,11.8528716729325,0.0398711574774211,0.007434,-0.065750,0.008859,0.286357,-2.973720,312.303115,22.401804,0.999668,0.992894,0.003464,0.431609,0.000010,0.000048,0.000009,0.000050,0.000008,77.235329,0.000063,
2266,3208,0.0695648791357222,12.1750978463134,0.0383547410507958,0.007431,-0.065756,0.012522,0.275786,-2.964887,312.090802,22.279564,0.999661,0.993864,0.003283,0.374523,0.000004,0.000050,0.000000,0.000050,0.000004,89.591845,0.000061,
2311,2743,1.12671335249916,2.07742380004204,-0.0130167757708364,0.005032,-0.066050,0.003362,0.194206,-2.987129,319.114875,21.413907,0.999480,0.989776,0.004074,0.458236,0.000047,0.000058,0.000018,0.000071,0.000034,54.014184,0.000107,
2386,2023,2.89922192741667,-13.6757576559052,0.00264777463712562,0.003197,-0.073504,-0.021470,0.193361,-3.422236,330.908916,18.936291,0.997543,0.968426,0.007268,0.356935,0.001310,0.001189,-0.000090,0.001358,0.001141,-28.061617,0.002501,
2146,2383,-2.40329717440157,-5.779663883067,-0.00879427513700648,0.002100,-0.065942,-0.009574,0.102782,-3.033213,325.272676,21.132819,0.998609,0.985516,0.004806,0.435352,0.000361,0.000278,0.000003,0.000361,0.000278,1.934787,0.000641,
2371,2218,2.53351606261976,-9.39327674591497,-0.00117226591396502,0.003303,-0.069350,-0.016507,0.182081,-3.206914,327.707570,19.792540,0.997795,0.975512,0.006461,0.392870,0.000734,0.000738,-0.000046,0.000782,0.000690,-46.236751,0.001473,
2341,3028,1.72940418873786,8.27584604250902,0.0200805907805943,0.006458,-0.066068,0.009071,0.239289,-2.980955,314.774608,22.200222,0.999705,0.993595,0.003433,0.375644,-0.000001,0.000009,0.000018,0.000023,-0.000015,52.225051,0.000023,
2311,2053,1.25304707743348,-13.015471902539,0.0108258411169118,0.001289,-0.072459,-0.018210,0.093250,-3.381102,330.382579,19.548898,0.998992,0.983738,0.005217,0.369558,0.001094,0.001146,-0.000051,0.001177,0.001063,-58.627432,0.002241,
2386,3073,2.69855246757042,9.25597815149401,0.0141013466623576,0.006636,-0.066383,0.009022,0.245869,-2.991921,314.004741,22.385844,0.999649,0.990974,0.003757,0.445479,0.000013,0.000018,0.000028,0.000043,-0.000013,47.285495,0.000045,
2281,3268,0.382934188168864,13.4773582988949,0.0184853969515757,0.007662,-0.065626,0.011992,0.287613,-2.965319,310.928833,22.381782,0.999730,0.992929,0.003422,0.450537,0.000022,0.000046,0.000005,0.000047,0.000021,78.366568,0.000069,
2476,2428,4.78391951223824,-4.79375794748042,-0.00266434235720681,0.004285,-0.067606,-0.001818,0.174334,-3.051852,324.447334,20.184440,0.999195,0.986474,0.004798,0.460353,0.000416,0.000283,-0.000031,0.000423,0.000276,-12.405972,0.000704,
2491,2473,5.10153214688121,-3.80885804810089,-0.0102039922829249,0.004246,-0.067523,-0.003175,0.177631,-3.067854,323.697072,20.349047,0.999092,0.983922,0.004943,0.417803,0.000389,0.000192,-0.000019,0.000391,0.000190,-5.478808,0.000592,
2191,2653,-1.46879647805614,0.113948834897343,-0.0238949581676025,0.004079,-0.065295,-0.001434,0.168720,-2.970970,320.687929,21.320572,0.999427,0.989363,0.004184,0.444376,0.000102,0.000061,0.000004,0.000102,0.000061,5.811421,0.000165,
2461,2218,4.49929181311127,-9.39342115763996,-0.00872563234634072,0.004456,-0.069800,-0.009232,0.209027,-3.184618,327.798732,19.296241,0.999375,0.985312,0.005136,0.468540,0.000803,0.000724,-0.000119,0.000889,0.000638,-35.788066,0.001534,
2131,2278,-2.71407489637188,-8.07643196312755,-0.00796441967696637,0.000831,-0.067638,-0.010794,0.047581,-3.104599,326.978092,21.055155,0.998380,0.981762,0.005611,0.437014,0.000549,0.000508,0.000056,0.000588,0.000469,35.165362,0.001059,
2206,2878,-1.17910298530542,5.01013181321383,-0.00965669158875926,0.005873,-0.065516,0.005597,0.228727,-2.960638,317.166466,21.603408,0.999577,0.993189,0.003400,0.414361,0.000031,0.000037,-0.000005,0.000040,0.000028,-61.189034,0.000068,
2356,1993,2.2469539222724,-14.3360714768391,0.00859442115336151,0.000730,-0.075010,-0.019774,0.073117,-3.502488,331.304456,19.004573,0.998061,0.950561,0.008815,0.328853,0.001348,0.001188,-0.000106,0.001401,0.001135,-26.535038,0.002541,
2401,3193,3.0036026397176,11.8606022963652,0.038698811130871,0.007243,-0.066295,0.011099,0.265829,-2.988066,312.276447,22.814740,0.999520,0.991493,0.003613,0.428575,0.000027,0.000046,0.000024,0.000063,0.000010,55.726279,0.000079,
2176,2758,-1.81216767914905,2.39956378912747,-0.0228605818677465,0.004874,-0.065593,0.004176,0.188005,-2.964718,319.059512,21.431353,0.999308,0.988823,0.004222,0.436735,0.000058,0.000034,-0.000015,0.000065,0.000027,-25.193494,0.000095,
2386,2038,2.89625824606333,-13.3460129108571,0.000835574575319242,0.003402,-0.073379,-0.019745,0.196669,-3.410823,330.655420,18.981898,0.998057,0.973181,0.006686,0.369734,0.001255,0.001154,-0.000086,0.001304,0.001105,-29.718936,0.002412,
2326,2983,1.4104672764331,7.29764356525475,0.0062351458348644,0.006092,-0.066260,0.008671,0.224281,-2.995365,315.384531,22.015649,0.999915,0.996908,0.002643,0.398527,-0.000001,0.000015,0.000014,0.000024,-0.000009,59.468947,0.000024,
2251,2878,-0.201664324729691,5.01254050755949,-0.0119613180117426,0.005815,-0.065907,0.005782,0.223945,-2.983070,317.035841,21.671419,0.999538,0.990037,0.003887,0.396754,0.000031,0.000032,0.000009,0.000040,0.000022,46.550333,0.000064,
2266,2968,0.109583662438425,6.96860097668602,-0.00199473873738043,0.006402,-0.065658,0.003673,0.257651,-2.972319,315.658588,21.828361,0.999310,0.990484,0.003980,0.425442,0.000011,0.000013,0.000005,0.000017,0.000007,48.651423,0.000025,
2326,3223,1.36950595167673,12.5041373437335,0.0425212969089444,0.007390,-0.065936,0.010362,0.278497,-2.984247,311.815630,22.505995,0.999544,0.991909,0.003418,0.453640,0.000015,0.000040,0.000008,0.000043,0.000013,73.649603,0.000058,
2356,2188,2.21083507773234,-10.0512637338619,0.00701154083770916,0.002250,-0.070185,-0.010827,0.113273,-3.216040,328.185421,19.810119,0.998923,0.982701,0.005332,0.356863,0.000791,0.000828,-0.000052,0.000865,0.000755,-55.009931,0.001621,
2191,2818,-1.49578836671939,3.7052814260587,-0.0202365840859215,0.005303,-0.065378,0.003406,0.209891,-2.958347,318.079719,21.488409,0.998497,0.984100,0.004932,0.450621,0.000037,0.000037,-0.000010,0.000047,0.000027,-45.491297,0.000075,
2311,2923,1.09452267471765,5.99324567863984,-0.00497878983810551,0.005749,-0.065929,0.007097,0.214605,-2.964780,316.269901,21.792380,0.999013,0.989633,0.004141,0.486422,0.000011,0.000030,0.000012,0.000036,0.000005,64.258415,0.000045,
2416,3283,3.31043877597704,13.816078297417,0.0058830698382053,0.008421,-0.066264,0.010309,0.322506,-2.979507,310.594829,23.168750,0.999619,0.990954,0.003804,0.432386,0.000019,0.000018,-0.000009,0.000027,0.000010,-43.702061,0.000038,
2221,2908,-0.85752435468061,5.66220061972072,0.000147918326263152,0.005893,-0.065247,0.001874,0.241230,-2.959854,316.732575,21.656938,0.999504,0.991356,0.004011,0.423146,0.000031,0.000026,-0.000002,0.000031,0.000025,-17.482403,0.000057,
2446,2068,4.20394771875281,-12.6898137692066,0.00935755604393762,0.004545,-0.072999,-0.018152,0.244661,-3.385540,330.378615,18.661417,0.998220,0.974992,0.006429,0.423819,0.001205,0.001172,-0.000138,0.001328,0.001049,-41.672447,0.002382,
2236,2833,-0.520190818943739,4.03382409898732,-0.0152080804577395,0.005375,-0.065541,0.003736,0.210981,-2.950356,317.759276,21.587491,0.999512,0.990731,0.003792,0.426729,0.000045,0.000039,0.000010,0.000052,0.000031,36.995144,0.000084,
2221,2743,-0.831996016686485,2.07486096281461,-0.0255555361489428,0.004624,-0.066148,0.004362,0.174500,-2.995786,319.135818,21.422018,0.999290,0.988604,0.004185,0.415866,0.000068,0.000042,-0.000001,0.000068,0.000042,-1.505106,0.000112,
2296,3088,0.741729934428331,9.57348092089596,0.0265219425959344,0.006962,-0.066407,0.007637,0.268987,-3.008056,313.907927,22.079167,0.999567,0.992898,0.003574,0.447122,0.000005,0.000008,0.000002,0.000009,0.000003,61.059566,0.000013,
2491,2488,5.09930199826245,-3.4814025434984,-0.00457492612872556,0.004622,-0.067309,-0.003230,0.195163,-3.048528,323.518066,20.407523,0.999274,0.984466,0.004779,0.438463,0.000367,0.000149,-0.000026,0.000370,0.000146,-6.692775,0.000532,
2236,3013,-0.549271162109481,7.94310041110761,0.0117554302106555,0.006415,-0.065413,0.007366,0.247095,-2.961849,315.087623,21.818251,0.999353,0.988029,0.004189,0.432005,0.000008,0.000009,0.000003,0.000012,0.000005,46.115414,0.000017,
2341,2803,1.76823396239867,3.38556076170701,-0.0157361936612119,0.005362,-0.066567,0.004826,0.203355,-3.006550,318.110498,21.608183,0.999552,0.992042,0.003683,0.399696,0.000039,0.000038,0.000014,0.000052,0.000024,43.461736,0.000079,
2281,3283,0.379819712430319,13.8022713012243,0.0148959852447774,0.007606,-0.065874,0.012717,0.282528,-2.974407,310.647690,22.386908,0.999446,0.992036,0.003492,0.462410,0.000026,0.000047,0.000006,0.000049,0.000024,74.949396,0.000074,
2311,3208,1.04697857876358,12.1782604936502,0.0466924259555981,0.007375,-0.065555,0.010179,0.279257,-2.956283,312.107133,22.463692,0.999641,0.992017,0.003566,0.417950,0.000011,0.000045,0.000008,0.000047,0.000010,77.927514,0.000060,
2476,2443,4.78032379226047,-4.46476660751054,-0.00967443787720867,0.004320,-0.067631,-0.002027,0.176762,-3.066308,324.147479,20.284816,0.998976,0.985286,0.004970,0.403870,0.000413,0.000217,-0.000020,0.000415,0.000215,-5.829964,0.000641,
2371,2038,2.56790384827386,-13.3460721106978,0.00180614566431814,0.002775,-0.073021,-0.020734,0.171266,-3.401474,330.627282,19.043988,0.998330,0.974594,0.006499,0.417478,0.001238,0.001151,-0.000071,0.001278,0.001111,-29.205360,0.002391,
2176,2503,-1.77126686728805,-3.15773388830598,-0.0169053511605171,0.002170,-0.066076,-0.000439,0.077835,-2.986238,323.133299,21.177368,0.998851,0.983637,0.005228,0.450402,0.000220,0.000151,-0.000005,0.000221,0.000151,-4.307071,0.000374,
2206,2683,-1.14744496308883,0.768341195759703,-0.0261595103852414,0.004540,-0.065184,-0.001650,0.190455,-2.963971,320.160128,21.356579,0.999636,0.992976,0.003601,0.440994,0.000093,0.000056,0.000001,0.000093,0.000056,1.429925,0.000150,
2401,3208,3.00115619741831,12.1852963768223,0.0427337059795718,0.007400,-0.066468,0.011087,0.272988,-3.006288,312.071772,22.833283,0.999467,0.991060,0.003806,0.435915,0.000026,0.000040,0.000021,0.000055,0.000011,53.845662,0.000071,
2356,2008,2.24561502640197,-14.0049450934119,0.00405744386517881,0.002641,-0.074275,-0.018947,0.157943,-3.468686,331.109365,19.110244,0.997436,0.971940,0.007172,0.299236,0.001313,0.001181,-0.000093,0.001361,0.001133,-27.331798,0.002498,
2326,2128,1.56717284871953,-11.3685410466964,0.0092925298270643,0.001653,-0.070928,-0.018970,0.113450,-3.287629,329.174381,19.699472,0.999173,0.983487,0.005247,0.402800,0.000918,0.001026,-0.000042,0.001040,0.000904,-71.025323,0.001946,
2251,3088,-0.236049168946661,9.57141819149719,0.0228008299467888,0.006808,-0.065844,0.011282,0.251768,-2.969539,313.928097,21.978770,0.999510,0.990466,0.003785,0.420151,0.000005,0.000009,-0.000007,0.000014,-0.000001,-53.597527,0.000016,
2341,2143,1.89018687172081,-11.0363959870913,-0.0128574148903908,0.002121,-0.070622,-0.012003,0.111161,-3.226372,328.741882,19.668900,0.999044,0.983635,0.005231,0.448380,0.000907,0.000969,-0.000045,0.000993,0.000883,-62.368420,0.001877,
2266,3223,0.0666428560397492,12.4999854113169,0.0358941730172546,0.007335,-0.065603,0.011605,0.274562,-2.949459,311.823246,22.246742,0.999762,0.995019,0.003181,0.447162,0.000004,0.000049,0.000002,0.000049,0.000004,88.023204,0.000059,
2371,2953,2.39377873067196,6.6492228185749,-0.00197071145203154,0.006058,-0.066483,0.008078,0.223034,-3.002430,315.801501,22.058537,0.999236,0.988633,0.004266,0.386866,0.000010,0.000008,0.000018,0.000027,-0.000009,43.558225,0.000027,
2371,2233,2.53019764196661,-9.0640774123944,-0.000379594138962602,0.003173,-0.069486,-0.011590,0.158674,-3.196512,327.448141,19.888271,0.998364,0.978699,0.006056,0.351195,0.000697,0.000690,-0.000039,0.000733,0.000655,-42.320698,0.001388,
2131,2293,-2.71717198692561,-7.7474476468742,-0.0103451066352136,0.000487,-0.067084,-0.007923,0.023397,-3.056015,326.691959,21.078613,0.998447,0.983646,0.005325,0.470124,0.000526,0.000462,0.000055,0.000558,0.000430,30.033444,0.000991,
2491,2503,5.09563039590893,-3.15331006836983,-0.00629386473713112,0.004483,-0.067536,0.000346,0.175015,-3.051180,323.239695,20.483812,0.999428,0.985436,0.004677,0.419768,0.000330,0.000150,-0.000033,0.000336,0.000144,-9.952614,0.000492,
2281,2998,0.430156991022489,7.62110811475507,0.00386062485569028,0.006252,-0.065641,0.005401,0.244521,-2.979564,315.181958,21.951169,0.999104,0.988535,0.004240,0.386873,0.000012,0.000007,0.000006,0.000016,0.000003,33.668346,0.000021,
2371,3103,2.36773687868366,9.90594526920519,0.0247628950514809,0.006712,-0.066395,0.008469,0.251868,-3.004115,313.601566,22.470097,0.999353,0.989760,0.004037,0.376062,0.000016,0.000017,0.000019,0.000035,-0.000002,45.824745,0.000040,
2356,2923,2.07285912139647,5.99658910836791,-0.00832573341938314,0.005896,-0.066161,0.005647,0.224837,-2.980898,316.236255,21.929175,0.999272,0.990047,0.004009,0.425902,0.000008,0.000023,0.000015,0.000033,-0.000001,58.525419,0.000037,
2206,2893,-1.1827456606056,5.33696327675674,-0.0207049814958964,0.005573,-0.065490,0.005319,0.215812,-2.969223,316.816767,21.620789,0.999748,0.994522,0.003295,0.405121,0.000026,0.000033,-0.000005,0.000036,0.000024,-63.901304,0.000060,
2326,3238,1.36597272447537,12.8308516201228,0.0350378062065033,0.007392,-0.065688,0.012449,0.271537,-2.958098,311.499076,22.607182,0.999447,0.991464,0.003557,0.411559,0.000017,0.000032,0.000005,0.000033,0.000016,73.185591,0.000050,
2326,2998,1.40808719077325,7.62293880345536,0.00981113475256734,0.006175,-0.066278,0.007802,0.231128,-2.992120,315.176510,22.014730,0.999765,0.994667,0.003111,0.436472,-0.000001,0.000011,0.000014,0.000020,-0.000011,56.383005,0.000020,
2476,2458,4.77742684756789,-4.13692454741964,-0.0104290372596552,0.004325,-0.067349,-0.004647,0.187035,-3.071004,323.908087,20.334194,0.999048,0.985382,0.004927,0.407789,0.000395,0.000205,-0.000022,0.000397,0.000202,-6.484575,0.000610,
2176,2773,-1.81520674533417,2.72649493722412,-0.0278160264887788,0.004782,-0.065467,0.005302,0.180381,-2.943182,318.766531,21.434712,0.999303,0.989406,0.004288,0.467249,0.000050,0.000041,-0.000013,0.000059,0.000032,-34.281877,0.000092,
2311,2068,1.25015128668277,-12.685107248207,0.0022909455802278,0.001699,-0.071692,-0.019198,0.115706,-3.366414,330.092202,19.582851,0.998917,0.980112,0.005667,0.386134,0.001057,0.001143,-0.000043,0.001160,0.001039,-67.427821,0.002201,
2161,2728,-2.13356058620072,1.74554763153317,-0.0211461682064282,0.004426,-0.065897,0.006438,0.160736,-2.989846,319.586709,21.397057,0.999454,0.989402,0.004150,0.418707,0.000076,0.000040,-0.000014,0.000081,0.000035,-18.350210,0.000119,
2221,2923,-0.86039767861838,5.98844096712116,0.00157691499202883,0.005848,-0.065242,0.006228,0.225239,-2.939072,316.483880,21.689322,0.999451,0.991492,0.003854,0.429910,0.000030,0.000024,-0.000005,0.000033,0.000021,-30.214422,0.000054,
2161,2413,-2.08263187506619,-5.12366637756567,-0.0134629394948433,0.001772,-0.066723,-0.004902,0.073260,-3.046312,324.664299,21.129417,0.998709,0.985990,0.004897,0.400554,0.000316,0.000216,-0.000002,0.000316,0.000216,-1.306524,0.000535,
2341,3043,1.72623065089894,8.60059597181161,0.0131969062679218,0.006487,-0.066402,0.007165,0.247133,-3.004293,314.480246,22.117638,0.999651,0.992537,0.003531,0.470779,-0.000003,0.000015,0.000019,0.000027,-0.000015,57.640117,0.000027,
2386,2053,2.89406991298017,-13.0166627824749,0.0105296445893259,0.003030,-0.072229,-0.023691,0.194229,-3.375700,330.491634,19.102161,0.998683,0.978225,0.006149,0.330847,0.001209,0.001150,-0.000078,0.001263,0.001096,-34.663978,0.002361,
2146,2398,-2.40626114941396,-5.45168069202138,-0.00958473566839757,0.001863,-0.066033,-0.006148,0.081528,-3.023276,325.002663,21.155541,0.998612,0.985084,0.004976,0.432201,0.000341,0.000240,-0.000002,0.000341,0.000240,-1.010052,0.000583,
2311,2758,1.12360465464881,2.40426893610928,-0.0185361509535937,0.004926,-0.066014,0.001007,0.197396,-2.995749,318.827881,21.431682,0.999511,0.991097,0.004005,0.464224,0.000044,0.000050,0.000020,0.000067,0.000027,49.313945,0.000098,
2446,2083,4.20024976424076,-12.3596930284837,0.00758658170360604,0.004472,-0.073835,-0.012547,0.220183,-3.393658,330.097049,18.778436,0.998028,0.973185,0.006782,0.354264,0.001158,0.001164,-0.000134,0.001296,0.001027,-45.681651,0.002327,
2281,3298,0.377081636282679,14.1283824216446,0.00693800389126409,0.008071,-0.065819,0.011017,0.309685,-2.983402,310.361464,22.483093,0.999593,0.993298,0.003313,0.383425,0.000035,0.000033,0.000009,0.000043,0.000025,42.560910,0.000069,
2356,2203,2.20701782627588,-9.72179300799358,-0.00318459730908671,0.002303,-0.070279,-0.007582,0.104292,-3.216519,327.849299,19.815122,0.998723,0.983020,0.005352,0.393113,0.000750,0.000783,-0.000050,0.000819,0.000714,-54.049140,0.001534,
2416,3298,3.30596085456264,14.1412388089168,-0.0073088315222094,0.008107,-0.066386,0.012297,0.300709,-2.988240,310.215835,23.151603,0.999647,0.991452,0.003686,0.486948,0.000014,0.000009,-0.000008,0.000020,0.000003,-36.595898,0.000024,
2356,2023,2.24224551542914,-13.6764817311747,0.004232594223879,0.001941,-0.073813,-0.020699,0.132257,-3.455904,330.844217,19.054174,0.997229,0.971169,0.007421,0.410743,0.001273,0.001178,-0.000071,0.001311,0.001140,-28.215885,0.002453,
2236,2848,-0.523172567085371,4.36021514284849,-0.0226883723541391,0.005585,-0.065632,0.004007,0.219729,-2.954170,317.461338,21.571886,0.999363,0.990866,0.003813,0.459562,0.000043,0.000036,0.000012,0.000052,0.000027,37.406276,0.000080,
2386,2263,2.8501918416934,-8.40392186950684,-0.0244182954324401,0.003190,-0.068248,-0.013612,0.167319,-3.131417,326.780468,19.886710,0.998849,0.982687,0.005326,0.438774,0.000633,0.000567,-0.000051,0.000661,0.000539,-28.530532,0.001202,
2311,3223,1.04430890984499,12.5026715693022,0.0457400864181636,0.007525,-0.065924,0.009691,0.287674,-2.978281,311.862194,22.433005,0.999592,0.992499,0.003408,0.457514,0.000013,0.000039,0.000006,0.000041,0.000011,77.435181,0.000055,
2371,2053,2.5653297538097,-13.0155400334953,0.00489977512768291,0.002861,-0.072494,-0.020339,0.174010,-3.366571,330.413340,19.198260,0.998648,0.977813,0.005999,0.342456,0.001194,0.001148,-0.000063,0.001238,0.001104,-34.811338,0.002343,
2221,2758,-0.834333961168124,2.40188205104652,-0.0256006867998622,0.004774,-0.065576,0.002555,0.187448,-2.951138,318.904082,21.445476,0.999421,0.988897,0.004097,0.456244,0.000060,0.000040,0.000004,0.000060,0.000039,10.495466,0.000101,
2461,2233,4.49601578796387,-9.06452520734623,-0.00215572091775584,0.003752,-0.069837,-0.008350,0.173507,-3.189699,327.575128,19.441023,0.999022,0.980157,0.005585,0.375425,0.000766,0.000693,-0.000106,0.000841,0.000617,-35.509940,0.001464,
2131,2578,-2.76231535608559,-1.51994951982674,-0.0337179356853881,0.003425,-0.065054,-0.000440,0.136649,-2.919497,322.005269,21.391101,0.999428,0.991697,0.004128,0.429266,0.000165,0.000076,0.000021,0.000169,0.000071,12.720590,0.000247,
2386,3178,2.68058311136566,11.53368967185,0.038780551169225,0.007319,-0.066511,0.012663,0.264219,-2.995517,312.510136,22.697400,0.999525,0.991378,0.003636,0.425631,0.000020,0.000043,0.000024,0.000058,0.000005,57.847659,0.000070,
2266,3238,0.0640532659914506,12.824193488347,0.0374351022094856,0.007401,-0.065967,0.012314,0.274996,-2.987529,311.591399,22.231359,0.999750,0.994305,0.003241,0.448489,0.000005,0.000040,0.000001,0.000040,0.000005,89.076417,0.000049,
2386,3088,2.69612128873715,9.58078309653324,0.0198406415314594,0.006604,-0.066686,0.008398,0.246414,-3.027087,313.808393,22.415009,0.999380,0.989619,0.004017,0.423333,0.000014,0.000011,0.000024,0.000036,-0.000011,42.812944,0.000037,
2251,3103,-0.237516449766584,9.89664248591174,0.02793504084201,0.007363,-0.065581,0.007162,0.290930,-2.964803,313.764972,22.003745,0.999564,0.991844,0.003632,0.422500,0.000002,0.000015,-0.000006,0.000017,0.000000,-68.886612,0.000020,
2431,1993,3.89103752975402,-14.3385657245169,0.0136905099775504,0.004320,-0.075708,-0.019180,0.236627,-3.515978,331.588161,18.517291,0.998831,0.975840,0.006113,0.265536,0.001431,0.001238,-0.000127,0.001494,0.001176,-26.354825,0.002676,
2296,3103,0.739295181283243,9.89975078072569,0.0284879434568097,0.007051,-0.065837,0.006439,0.277326,-2.993663,313.686888,22.171482,0.999352,0.990701,0.003975,0.398001,0.000004,0.000015,0.000002,0.000015,0.000004,81.998617,0.000021,
2311,2938,1.09173905776979,6.31899210881173,-0.00434723491650857,0.005699,-0.066233,0.007197,0.211841,-2.982232,316.027892,21.817762,0.998832,0.987727,0.004441,0.475430,0.000011,0.000023,0.000014,0.000032,0.000002,57.179224,0.000038,
2266,2983,0.106729800989388,7.29430020843237,0.00112431358002141,0.006236,-0.065766,0.006608,0.240225,-2.974219,315.422526,21.862482,0.999485,0.991976,0.003844,0.414228,0.000013,0.000017,0.000006,0.000021,0.000008,53.967721,0.000030,
2236,3028,-0.551514847367219,8.26873474103679,0.0154574416901028,0.006447,-0.065298,0.005710,0.254052,-2.948962,314.880553,21.845649,0.999436,0.990086,0.003876,0.437922,0.000008,0.000007,0.000002,0.000010,0.000006,38.621707,0.000016,
2206,2698,-1.15094500851375,1.09513560128678,-0.0353780401336508,0.004442,-0.065314,0.001001,0.177457,-2.970579,319.826843,21.317068,0.999397,0.991649,0.003750,0.491058,0.000085,0.000053,0.000000,0.000085,0.000053,-0.225771,0.000139,
2326,2788,1.44421484868861,3.05821048620737,-0.0235794679044261,0.005304,-0.066075,0.002945,0.207737,-3.006991,318.298617,21.490671,0.999573,0.993461,0.003565,0.469578,0.000034,0.000043,0.000015,0.000054,0.000023,53.736668,0.000080,
2326,2143,1.56392974429243,-11.0373917129745,-0.00188111308801808,0.002195,-0.070273,-0.016853,0.131249,-3.239874,328.856335,19.774159,0.999199,0.984168,0.005254,0.413642,0.000883,0.000967,-0.000039,0.000982,0.000867,-68.441731,0.001851,
2296,1993,0.935374962881912,-14.333574950688,0.00743087550495147,0.000576,-0.074476,-0.019534,0.063912,-3.441912,331.301624,19.425148,0.998064,0.964950,0.007746,0.396244,0.001205,0.001186,-0.000108,0.001304,0.001087,-42.434976,0.002394,
2176,2518,-1.77304822250138,-2.83102396690555,-0.0144588084275483,0.002949,-0.066446,0.002729,0.103672,-3.002289,322.937103,21.179284,0.998969,0.985898,0.004835,0.445455,0.000204,0.000145,0.000003,0.000204,0.000145,2.950955,0.000351,
2191,2833,-1.49766781119031,4.03105994044057,-0.015378153088534,0.005833,-0.065632,0.005982,0.226035,-2.974957,317.892657,21.517067,0.999120,0.989464,0.004104,0.419436,0.000035,0.000036,-0.000006,0.000041,0.000030,-47.641150,0.000071,
2476,2473,4.77317296898214,-3.80788759309739,-0.0267276720740597,0.004439,-0.067459,-0.005267,0.194596,-3.076669,323.535692,20.355611,0.999462,0.989144,0.004292,0.439034,0.000370,0.000192,-0.000026,0.000374,0.000188,-8.061908,0.000572,
2176,2788,-1.81726602881592,3.05257913678003,-0.02374617251985,0.004910,-0.065479,0.004226,0.189577,-2.953606,318.566045,21.467265,0.999176,0.988610,0.004430,0.436745,0.000042,0.000036,-0.000016,0.000055,0.000023,-39.831668,0.000080,
2356,3103,2.0414077416104,9.90500192324352,0.0250655766082559,0.006532,-0.066396,0.011643,0.232985,-2.989419,313.582004,22.423091,0.999530,0.990822,0.003892,0.380270,0.000012,0.000020,0.000014,0.000031,0.000001,53.392075,0.000036,
2371,2968,2.39077005704608,6.97604522430399,-0.00298710184910078,0.005935,-0.066425,0.007172,0.220693,-2.986580,315.545106,22.147282,0.999464,0.988969,0.004293,0.354507,0.000005,0.000010,0.000021,0.000028,-0.000013,48.037098,0.000029,
2446,2098,4.19699950754149,-12.0290469172333,0.00140724771341638,0.004348,-0.072526,-0.017301,0.232728,-3.348240,329.815369,18.847102,0.998917,0.977926,0.006106,0.386741,0.001110,0.001128,-0.000137,0.001256,0.000981,-46.867172,0.002243,
2326,3253,1.3624240323581,13.1558465616698,0.024097393651175,0.007550,-0.066083,0.013399,0.275410,-2.975903,311.165390,22.579078,0.999359,0.991450,0.003643,0.455016,0.000017,0.000029,0.000005,0.000031,0.000015,71.450710,0.000047,
2371,2068,2.56192445963773,-12.6863349629511,0.00490803621357827,0.002552,-0.071827,-0.017210,0.149039,-3.321206,330.146660,19.192014,0.998904,0.979692,0.005597,0.438902,0.001149,0.001141,-0.000058,0.001203,0.001087,-42.947805,0.002291,
2311,2773,1.12134935829154,2.73065947260055,-0.0112012235069301,0.004842,-0.065799,0.000378,0.195783,-2.982566,318.643384,21.491874,0.999532,0.991775,0.003829,0.449414,0.000040,0.000035,0.000014,0.000052,0.000023,40.742236,0.000077,
2431,2008,3.88831282956423,-14.0095492265354,0.0136944834243877,0.004316,-0.074876,-0.022239,0.248077,-3.503868,331.358330,18.504748,0.998504,0.974331,0.006517,0.343952,0.001387,0.001227,-0.000135,0.001464,0.001150,-29.706218,0.002621,
2251,2893,-0.203981211952595,5.33791388489489,-0.0067225829365043,0.005740,-0.065934,0.005050,0.222873,-2.979398,316.834451,21.661840,0.999620,0.991065,0.003727,0.433232,0.000027,0.000031,0.000008,0.000037,0.000020,52.012340,0.000058,
2386,2068,2.88993451555453,-12.6875176839669,0.00818919346318125,0.002726,-0.072686,-0.014025,0.145576,-3.343277,330.181809,19.077165,0.998693,0.977431,0.006130,0.435392,0.001162,0.001142,-0.000073,0.001226,0.001078,-41.097535,0.002305,
2356,2938,2.07000660792063,6.32242996036202,-0.00526286170349977,0.005939,-0.066541,0.009331,0.213744,-2.983132,316.006006,21.966149,0.999050,0.988802,0.004229,0.425137,0.000006,0.000020,0.000015,0.000029,-0.000003,57.036533,0.000032,
2371,2248,2.52601293421514,-8.73340285602006,-0.0158056857798101,0.002878,-0.068474,-0.013874,0.153650,-3.143240,327.071263,19.914516,0.999046,0.982441,0.005588,0.422482,0.000662,0.000621,-0.000038,0.000685,0.000598,-30.977075,0.001284,
2356,2038,2.24036693565597,-13.3458190637126,0.00122016608077047,0.002843,-0.072866,-0.024429,0.186949,-3.424313,330.631685,19.149121,0.998212,0.975947,0.006380,0.389714,0.001225,0.001148,-0.000068,0.001264,0.001109,-30.252525,0.002375,
2341,2158,1.88807250196416,-10.7090190480781,-0.0147220044346454,0.002467,-0.069931,-0.018143,0.148600,-3.233827,328.522830,19.561648,0.999142,0.984999,0.005100,0.587602,0.000862,0.000903,-0.000044,0.000931,0.000835,-57.543856,0.001766,
2356,2218,2.20470850600392,-9.393345281717,-0.000415498584516172,0.002269,-0.069723,-0.012018,0.118546,-3.199221,327.644460,19.850457,0.998225,0.978477,0.005978,0.416709,0.000717,0.000741,-0.000042,0.000773,0.000686,-53.170592,0.001459,
2341,2818,1.76526808573514,3.71220993088264,-0.0174339366104732,0.005350,-0.066153,0.004913,0.202647,-2.996922,317.851077,21.638847,0.999371,0.988127,0.004072,0.415199,0.000030,0.000035,0.000013,0.000046,0.000019,50.637386,0.000067,
2146,2593,-2.4377921203237,-1.19444432428708,-0.0305707565274815,0.003674,-0.064965,-0.006011,0.164725,-2.955121,321.756975,21.274740,0.998808,0.987469,0.004769,0.498952,0.000158,0.000078,0.000015,0.000161,0.000075,9.999662,0.000241,
2401,2098,3.21175949671735,-12.0279350855401,0.00243733343859276,0.002898,-0.072353,-0.015126,0.157765,-3.330319,329.677042,19.137022,0.998134,0.972213,0.006831,0.390491,0.001070,0.001099,-0.000097,0.001183,0.000986,-49.231939,0.002172,
2401,3223,2.99792559211343,12.510927788508,0.0371938831196985,0.007425,-0.066474,0.009697,0.279219,-3.009059,311.785289,22.871261,0.999428,0.991360,0.003710,0.439482,0.000026,0.000031,0.000017,0.000046,0.000011,49.304546,0.000061,
2491,2518,5.09230512058478,-2.82533406329698,-0.0159738907079259,0.004837,-0.067156,-0.002207,0.201230,-3.038526,322.941327,20.467191,0.999381,0.985560,0.004607,0.509389,0.000296,0.000159,-0.000041,0.000307,0.000148,-15.489247,0.000464,
2206,2908,-1.1835137977286,5.66139541398908,-0.00719132601335559,0.006263,-0.065402,0.002464,0.256706,-2.963038,316.726754,21.585343,0.999557,0.992555,0.003685,0.462862,0.000027,0.000028,-0.000004,0.000032,0.000023,-48.910374,0.000056,
2476,2488,4.77083443701088,-3.48062052638225,-0.0202145745412281,0.004236,-0.066597,-0.009750,0.202687,-3.057589,323.354705,20.406229,0.999438,0.986434,0.004508,0.465380,0.000356,0.000153,-0.000032,0.000360,0.000148,-8.704538,0.000523,
2296,2008,0.932290835838778,-14.0042147947342,0.0122590880503139,0.000139,-0.074432,-0.015566,0.030596,-3.433841,331.067247,19.501938,0.998422,0.975125,0.006406,0.361323,0.001178,0.001165,-0.000093,0.001265,0.001078,-42.923807,0.002346,
2326,3013,1.40557062833153,7.94907884563522,0.0111555956254961,0.006368,-0.066097,0.007926,0.239663,-2.983112,314.950979,22.074478,0.999370,0.988584,0.004056,0.419601,-0.000001,0.000011,0.000018,0.000024,-0.000013,53.988201,0.000024,
2266,2998,0.104665916545301,7.61953293710015,0.00617474380931071,0.006425,-0.065764,0.005467,0.252686,-2.980238,315.232621,21.874468,0.999337,0.990509,0.003953,0.420991,0.000011,0.000010,0.000005,0.000015,0.000006,39.196877,0.000022,
2131,2308,-2.71897316132101,-7.41886096903224,-0.0100752072365822,0.001010,-0.066614,-0.008990,0.050753,-3.054411,326.479464,21.144289,0.998670,0.984583,0.005192,0.413676,0.000490,0.000427,0.000043,0.000512,0.000406,26.903529,0.000920,
2281,3013,0.427116899312264,7.94679503455433,0.00382544240466132,0.006144,-0.065857,0.008160,0.230315,-2.962276,314.922454,21.951490,0.999109,0.988223,0.004211,0.430961,0.000012,0.000005,0.000007,0.000016,0.000000,31.243286,0.000018,
2251,3118,-0.240380207829748,10.2218984640356,0.0333761560133325,0.007032,-0.065751,0.010466,0.264815,-2.959879,313.539171,22.036810,0.999522,0.991173,0.003789,0.416453,0.000002,0.000018,-0.000004,0.000019,0.000001,-75.503988,0.000023,
2401,2338,3.16381816687106,-6.76383354543263,-0.00468321102681557,0.002592,-0.067690,-0.010883,0.130518,-3.103369,325.709765,20.078818,0.998631,0.980166,0.005347,0.444855,0.000507,0.000407,-0.000025,0.000513,0.000401,-13.153089,0.000916,
2431,2023,3.8847220102539,-13.6784484331883,0.0085250642133019,0.004257,-0.074664,-0.020730,0.239898,-3.469415,331.064613,18.607031,0.998456,0.976032,0.006212,0.330007,0.001337,0.001216,-0.000132,0.001422,0.001131,-32.732899,0.002558,
2326,3268,1.35925087238233,13.482251905689,0.0143725567287447,0.007728,-0.065773,0.010803,0.292753,-2.964623,310.854377,22.664031,0.999490,0.992513,0.003393,0.414435,0.000017,0.000032,0.000005,0.000034,0.000016,74.086039,0.000050,
2161,2428,-2.08442128974887,-4.79576959342411,-0.0135479519620958,0.002509,-0.066641,-0.004280,0.105222,-3.045629,324.453026,21.170568,0.998950,0.986935,0.004690,0.371628,0.000298,0.000188,0.000002,0.000298,0.000188,0.875059,0.000490,
2371,3118,2.3648914922026,10.2314275785817,0.0259611701109179,0.006941,-0.066462,0.012213,0.249112,-2.985903,313.363145,22.486353,0.999557,0.991130,0.003816,0.418075,0.000021,0.000023,0.000019,0.000041,0.000003,46.357803,0.000049,
2311,2953,1.08963863538002,6.64532353963732,-0.00274863472878906,0.005965,-0.065804,0.003333,0.237426,-2.981392,315.821816,21.889505,0.999152,0.990049,0.004023,0.436145,0.000008,0.000013,0.000015,0.000025,-0.000005,49.828932,0.000027,
2146,2413,-2.40962313574398,-5.12309308852319,-0.0191306690878719,0.001748,-0.066462,-0.003718,0.068736,-3.022075,324.668001,21.164174,0.998477,0.985794,0.005174,0.434534,0.000326,0.000207,0.000000,0.000326,0.000207,-0.163957,0.000538,
2371,2083,2.55896520070059,-12.3559913664129,0.00116861752212571,0.002752,-0.071464,-0.017192,0.158288,-3.295995,329.882511,19.273736,0.998763,0.978021,0.005833,0.426897,0.001103,0.001126,-0.000057,0.001173,0.001056,-50.670525,0.002231,
2386,2278,2.84830277243051,-8.07679425513319,-0.00537233938166537,0.002937,-0.068585,-0.010535,0.144597,-3.151680,326.674382,20.025930,0.999525,0.990904,0.004029,0.324040,0.000604,0.000530,-0.000040,0.000622,0.000512,-23.494702,0.001136,
2386,3193,2.67839456245978,11.8588193748773,0.0430888285182505,0.007596,-0.066407,0.011426,0.281499,-2.991772,312.317646,22.732025,0.999473,0.991674,0.003510,0.436743,0.000021,0.000047,0.000024,0.000061,0.000007,59.531296,0.000075,
2176,2533,-1.77543095879703,-2.50315484217167,-0.017097878123252,0.003058,-0.065784,-0.000232,0.118089,-2.987688,322.686397,21.215845,0.998838,0.986672,0.004616,0.437109,0.000187,0.000130,0.000005,0.000187,0.000130,4.580100,0.000319,
2266,3253,0.061709185653374,13.1502127593995,0.0342726802319362,0.008096,-0.065811,0.013563,0.303061,-2.960003,311.346406,22.294754,0.999703,0.993405,0.003447,0.436942,0.000004,0.000036,0.000002,0.000036,0.000004,86.462759,0.000045,
2461,2248,4.49401077072305,-8.73646382651118,-0.000980631677748534,0.004227,-0.069308,-0.013828,0.216041,-3.199916,327.385288,19.463194,0.998773,0.977104,0.005729,0.399664,0.000726,0.000625,-0.000103,0.000791,0.000560,-31.918546,0.001358,
2296,3118,0.736346676063011,10.2253216071377,0.0313399321527754,0.006928,-0.065863,0.010209,0.258956,-2.972400,313.446811,22.201831,0.999466,0.992419,0.003687,0.417839,0.000010,0.000019,0.000004,0.000020,0.000008,67.728112,0.000030,
2311,3238,1.04062419418186,12.8290841633655,0.0350614568573064,0.007411,-0.065820,0.009478,0.283212,-2.974070,311.521698,22.509696,0.999387,0.991724,0.003546,0.415892,0.000014,0.000029,0.000004,0.000030,0.000013,77.172164,0.000044,
2326,2803,1.44159423825289,3.38508523971667,-0.0230613364892633,0.005251,-0.066038,0.000439,0.214005,-3.003366,318.064700,21.560881,0.999433,0.992814,0.003712,0.437161,0.000032,0.000034,0.000016,0.000049,0.000017,47.356766,0.000069,
2386,2083,2.88696401888317,-12.3572007040368,0.00505449320559137,0.002712,-0.072047,-0.016385,0.153633,-3.327085,329.921494,19.172075,0.998269,0.973979,0.006393,0.403635,0.001115,0.001130,-0.000073,0.001196,0.001049,-47.798506,0.002247,
2191,2848,-1.50007509093355,4.35606536015922,-0.00378286688078333,0.005607,-0.066328,0.011971,0.196622,-2.983031,317.716637,21.520399,0.999193,0.990174,0.003933,0.422238,0.000028,0.000033,-0.000005,0.000037,0.000024,-58.438520,0.000061,
2236,3043,-0.553694080788755,8.59451390529905,0.018297759273139,0.006657,-0.065266,0.004772,0.266813,-2.948029,314.671989,21.896171,0.999534,0.991067,0.003750,0.408412,0.000008,0.000008,-0.000001,0.000009,0.000008,-44.004346,0.000017,
2446,2113,4.19472103027675,-11.6996934137598,0.00607620010856635,0.004485,-0.071269,-0.019822,0.248917,-3.310659,329.628056,18.930139,0.999233,0.977912,0.005937,0.396451,0.001071,0.001095,-0.000134,0.001217,0.000949,-47.612289,0.002171,
2371,2983,2.38892897539735,7.30094873429494,0.00370436099302651,0.006405,-0.066113,0.006699,0.244056,-2.990020,315.379888,22.135649,0.999442,0.989085,0.004199,0.403155,0.000004,0.000012,0.000020,0.000028,-0.000012,50.980787,0.000028,
2221,2938,-0.863440151358834,6.31426358179087,-0.000490416172908681,0.005774,-0.065493,0.009093,0.212615,-2.938590,316.209589,21.682866,0.999471,0.992441,0.003639,0.455122,0.000028,0.000020,-0.000005,0.000031,0.000017,-25.676852,0.000049,
2401,3238,2.99466103369194,12.8368721069328,0.0328557240690088,0.007548,-0.066332,0.011159,0.279595,-3.007405,311.502741,22.945088,0.999343,0.991806,0.003627,0.411271,0.000024,0.000023,0.000013,0.000036,0.000010,43.970386,0.000049,
2371,2263,2.52354559118298,-8.40486063192891,-0.0121252756185868,0.002927,-0.068246,-0.014662,0.158791,-3.130225,326.864545,19.988313,0.999177,0.985398,0.004978,0.404773,0.000624,0.000562,-0.000042,0.000645,0.000540,-26.804403,0.001187,
2236,2863,-0.52534553419293,4.68612863631282,-0.0152911709471368,0.005588,-0.065562,0.004813,0.217239,-2.966334,317.276539,21.636391,0.999296,0.990430,0.003804,0.403748,0.000042,0.000032,0.000006,0.000045,0.000030,25.517219,0.000075,
2326,2158,1.56114004167375,-10.7097287061463,-0.000109876308272305,0.002304,-0.070670,-0.013342,0.124006,-3.241191,328.622650,19.724973,0.999028,0.982915,0.005331,0.498711,0.000840,0.000903,-0.000037,0.000920,0.000822,-65.150846,0.001743,
2221,2773,-0.836524504853674,2.72751304062165,-0.0194118165126156,0.004735,-0.065516,0.002228,0.186707,-2.965456,318.711598,21.453422,0.999301,0.988968,0.004189,0.452713,0.000054,0.000044,0.000005,0.000056,0.000041,22.122098,0.000098,
2476,2503,4.76812456238207,-3.15384203085215,-0.0110066135907232,0.004407,-0.067282,-0.002653,0.183333,-3.049519,323.168911,20.451624,0.999436,0.987499,0.004448,0.485616,0.000325,0.000152,-0.000038,0.000333,0.000144,-11.900690,0.000490,
2341,3058,1.7233055417842,8.92599297999504,0.012240156950611,0.006582,-0.066604,0.008752,0.245924,-3.002367,314.225860,22.113014,0.999654,0.993441,0.003302,0.513338,0.000000,0.000015,0.000020,0.000029,-0.000014,55.126146,0.000029,
2491,2533,5.08902850539795,-2.49749652867771,-0.0152797289517252,0.004692,-0.067202,-0.000966,0.189812,-3.055374,322.691854,20.566610,0.999588,0.988829,0.004091,0.452918,0.000283,0.000134,-0.000026,0.000287,0.000130,-9.454380,0.000427,
2356,2233,2.20164850341395,-9.06403942716715,-0.00372376139046082,0.002356,-0.069397,-0.011299,0.120107,-3.185666,327.375916,19.910029,0.997725,0.974396,0.006420,0.411900,0.000679,0.000688,-0.000036,0.000720,0.000647,-48.553955,0.001368,
2311,2083,1.24709317899478,-12.3538638578026,0.000599310151926602,0.001666,-0.071686,-0.017362,0.107885,-3.307370,329.827533,19.734938,0.999026,0.981827,0.005529,0.328671,0.001022,0.001115,-0.000040,0.001130,0.001007,-69.581803,0.002138,
2401,2113,3.20963007174718,-11.698183747463,0.00627071885674013,0.003261,-0.071330,-0.016679,0.180426,-3.286714,329.489137,19.240698,0.998558,0.973779,0.006364,0.378584,0.001030,0.001070,-0.000094,0.001146,0.000953,-51.049232,0.002102,
2356,2053,2.23799113147161,-13.0178800015615,0.0195296031832299,0.002345,-0.073014,-0.018439,0.143132,-3.382594,330.498752,19.230148,0.998675,0.978741,0.005750,0.392069,0.001182,0.001148,-0.000059,0.001226,0.001103,-36.878605,0.002331,
2146,2608,-2.44034693759152,-0.866574732420645,-0.0308719283537471,0.003733,-0.065070,-0.004184,0.161841,-2.957878,321.508180,21.374093,0.999255,0.989372,0.004362,0.405171,0.000154,0.000057,0.000009,0.000154,0.000056,5.383243,0.000218,
2341,2173,1.88507749869819,-10.3798688423282,-0.00555040993094735,0.002239,-0.070635,-0.009583,0.108216,-3.227648,328.316451,19.725731,0.998987,0.982157,0.005336,0.468920,0.000824,0.000858,-0.000043,0.000887,0.000795,-55.907335,0.001683,
2206,2713,-1.15304462069524,1.42099375336525,-0.0288689040103236,0.004468,-0.065653,0.000946,0.178705,-2.989526,319.639258,21.337245,0.998712,0.985820,0.004741,0.468791,0.000080,0.000047,-0.000002,0.000080,0.000047,-2.811034,0.000128,
2371,2098,2.55554241585637,-12.0268664847153,-0.000150147788815502,0.002601,-0.072120,-0.013285,0.137298,-3.309051,329.608913,19.315155,0.998752,0.976786,0.005999,0.416853,0.001055,0.001092,-0.000060,0.001136,0.001011,-53.445585,0.002148,
2461,2263,4.49052249902924,-8.4067738370816,-0.00246020715945861,0.004208,-0.069348,-0.010142,0.201344,-3.176838,327.114903,19.579216,0.998952,0.977946,0.005688,0.363490,0.000693,0.000575,-0.000102,0.000752,0.000516,-29.912993,0.001276,
2356,3118,2.03951689595491,10.2298220363802,0.0281368893225817,0.006977,-0.066059,0.008046,0.266272,-2.989236,313.395774,22.407608,0.999550,0.991270,0.003794,0.434034,0.000017,0.000025,0.000015,0.000036,0.000005,52.359256,0.000045,
2326,3283,1.3557625300334,13.8074406267446,0.00688789759783504,0.007727,-0.065858,0.012271,0.287573,-2.969665,310.540219,22.670367,0.999598,0.994074,0.003081,0.435827,0.000019,0.000028,0.000005,0.000030,0.000017,67.198659,0.000048,
2251,2908,-0.205403782514967,5.66397016357579,0.00592112639310471,0.005823,-0.065258,0.001413,0.238888,-2.953975,316.711407,21.750156,0.999736,0.992632,0.003444,0.393116,0.000025,0.000029,0.000006,0.000033,0.000021,54.501348,0.000055,
2311,2968,1.08825941479915,6.97109513739517,0.0126610806967165,0.006477,-0.066036,0.006894,0.248752,-2.977936,315.717120,22.006734,0.999907,0.997245,0.002587,0.353711,0.000005,0.000014,0.000015,0.000026,-0.000007,53.850489,0.000027,
2386,3103,2.6938069380747,9.90613276496245,0.024564054637608,0.006800,-0.066593,0.008177,0.256386,-3.007311,313.612329,22.436264,0.998953,0.987688,0.004349,0.464279,0.000020,0.000017,0.000026,0.000044,-0.000007,43.450411,0.000047,
2266,3013,0.102411951589108,7.94445271719793,0.0123018562492803,0.006598,-0.065937,0.007813,0.252866,-2.973496,315.039467,21.855584,0.999323,0.990355,0.003868,0.471546,0.000011,0.000008,0.000004,0.000014,0.000004,36.284284,0.000019,
2311,2788,1.11902358697553,3.05621334249403,-0.00887311617265141,0.005170,-0.065967,0.001241,0.207813,-3.000594,318.431252,21.470848,0.999619,0.993881,0.003529,0.484575,0.000040,0.000041,0.000014,0.000055,0.000026,45.508154,0.000082,
2416,2413,3.4775656507695,-5.12153397743373,-0.010399502003736,0.004357,-0.067398,-0.008515,0.203033,-3.092814,324.537564,20.363387,0.999513,0.986472,0.004741,0.362399,0.000392,0.000305,-0.000010,0.000393,0.000303,-6.347717,0.000698,
2311,3253,1.03722955509725,13.1547259876808,0.027172748093335,0.007547,-0.065961,0.011536,0.282441,-2.972575,311.208548,22.538847,0.999465,0.991526,0.003577,0.419019,0.000015,0.000026,0.000004,0.000027,0.000013,72.932162,0.000041,
2176,2803,-1.81978399591399,3.37820324615354,-0.0150400879493873,0.004293,-0.065005,0.003601,0.163275,-2.944382,318.368884,21.477603,0.999316,0.989163,0.004391,0.447565,0.000038,0.000032,-0.000015,0.000050,0.000020,-38.891003,0.000072,
2251,3133,-0.243115971768241,10.547010047157,0.0332916769536951,0.006966,-0.065849,0.010165,0.262781,-2.964300,313.291236,22.034997,0.999314,0.991332,0.003829,0.436155,-0.000002,0.000024,-0.000003,0.000024,-0.000002,-83.519734,0.000027,
2296,3133,0.73346926745625,10.5507187655134,0.0299644191350126,0.006948,-0.065864,0.010730,0.258109,-2.978212,313.189022,22.220669,0.999594,0.993939,0.003481,0.422282,0.000005,0.000024,0.000004,0.000025,0.000004,79.796565,0.000031,
2401,3253,2.99121578803826,13.1630240353315,0.0188348616367762,0.008103,-0.066301,0.010662,0.307019,-3.004344,311.165881,22.986850,0.999424,0.991111,0.003720,0.416970,0.000020,0.000024,0.000009,0.000032,0.000013,51.414901,0.000046,
2431,2038,3.88219263127241,-13.3489444852421,0.0134952358158671,0.004515,-0.073866,-0.018074,0.242284,-3.420942,330.866306,18.669920,0.998055,0.975614,0.006412,0.368946,0.001282,0.001186,-0.000125,0.001368,0.001100,-34.541379,0.002473,
2401,2353,3.1604678207157,-6.43470881676648,-0.00806439863731612,0.002753,-0.067929,-0.006902,0.123439,-3.093977,325.431206,20.169377,0.998362,0.980160,0.005492,0.411367,0.000484,0.000389,-0.000017,0.000487,0.000387,-9.633411,0.000876,
2176,2548,-1.77811979316388,-2.17601958002894,-0.0214752903504518,0.003185,-0.066222,-0.000189,0.123653,-3.000632,322.412828,21.202428,0.999084,0.987433,0.004450,0.450797,0.000175,0.000124,0.000011,0.000177,0.000121,11.522759,0.000300,
2206,2923,-1.18646057956982,5.98802440576539,-0.00318996958981188,0.005932,-0.065370,0.006679,0.228101,-2.947424,316.486816,21.677244,0.999267,0.989811,0.004071,0.402676,0.000027,0.000027,-0.000006,0.000033,0.000021,-42.925702,0.000054,
2446,2128,4.19149612612265,-11.3706226256898,0.00562910566964092,0.004383,-0.071267,-0.018858,0.240714,-3.314045,329.374062,18.977788,0.999215,0.976898,0.006120,0.400614,0.001030,0.001056,-0.000133,0.001177,0.000910,-47.763705,0.002092,
2161,2443,-2.08721457551225,-4.46842796705108,-0.0124721086791055,0.002101,-0.066068,-0.004539,0.087459,-3.008457,324.201879,21.140579,0.998986,0.986927,0.004753,0.450346,0.000278,0.000179,0.000002,0.000278,0.000179,1.180359,0.000460,
2491,2548,5.08591233600199,-2.16973777419955,-0.0179359374673709,0.004768,-0.067298,-0.002354,0.198562,-3.071263,322.434611,20.632715,0.999565,0.988398,0.004276,0.430978,0.000259,0.000102,-0.000032,0.000265,0.000096,-11.171040,0.000374,
2356,2068,2.23504265030917,-12.6879430394146,0.0195856553351064,0.002339,-0.072384,-0.016949,0.137885,-3.350554,330.251930,19.303181,0.998809,0.978687,0.005713,0.393518,0.001136,0.001141,-0.000054,0.001193,0.001085,-46.274087,0.002278,
2386,2293,2.84584029639035,-7.74904146349992,-0.00597769402958193,0.003411,-0.068376,-0.010489,0.166212,-3.134318,326.448724,19.989293,0.999796,0.993815,0.003507,0.423346,0.000575,0.000500,-0.000036,0.000590,0.000485,-22.099578,0.001076,
2281,3028,0.42531032865141,8.27233454337037,0.00909704394842947,0.006495,-0.065567,0.005642,0.255021,-2.957686,314.746234,21.990117,0.999050,0.987763,0.004213,0.423883,0.000009,0.000005,0.000005,0.000012,0.000002,32.601945,0.000015,
2386,2098,2.88340216790363,-12.0271250320817,-0.00216284308515924,0.002680,-0.071920,-0.015507,0.149128,-3.317773,329.614789,19.213050,0.998358,0.972747,0.006483,0.418721,0.001066,0.001095,-0.000075,0.001157,0.001004,-50.328410,0.002163,
2326,2818,1.43948610244772,3.71102548780328,-0.0147070451673699,0.005534,-0.066104,0.003475,0.216518,-2.998752,317.892850,21.608294,0.999537,0.990806,0.003843,0.428621,0.000022,0.000032,0.000014,0.000042,0.000012,54.364587,0.000057,
2446,2323,4.15012701063511,-7.09205743740587,-0.00745377870828179,0.003894,-0.067876,-0.010193,0.187794,-3.115796,326.055985,19.830296,0.999099,0.978793,0.005497,0.458696,0.000571,0.000432,-0.000055,0.000590,0.000413,-19.171695,0.001008,
2146,2428,-2.41121421448432,-4.79488275578188,-0.0182447268141459,0.002381,-0.065776,-0.006256,0.105712,-3.012149,324.469607,21.234049,0.998894,0.986817,0.004825,0.383658,0.000308,0.000180,0.000004,0.000308,0.000180,1.714794,0.000493,
2341,2833,1.76307693441769,4.03891870754978,-0.0148712847673096,0.005804,-0.066267,0.005141,0.222672,-2.996975,317.647900,21.721393,0.999643,0.990600,0.003824,0.368900,0.000022,0.000041,0.000015,0.000049,0.000014,61.325564,0.000067,
2431,2248,3.83788500281772,-8.73540080304954,-0.00308782794888884,0.003625,-0.068619,-0.013706,0.187938,-3.165655,327.279202,19.631335,0.998931,0.978438,0.005734,0.405097,0.000696,0.000624,-0.000083,0.000750,0.000569,-33.300680,0.001323,
2356,2953,2.06734697438807,6.64850609231823,-0.00833963732105758,0.006090,-0.066318,0.005770,0.233246,-3.000280,315.754900,22.000406,0.999203,0.989070,0.004132,0.412045,0.000006,0.000009,0.000018,0.000025,-0.000010,47.116340,0.000025,
2416,2173,3.52407411023482,-10.3808929236522,-0.0051758529940571,0.003150,-0.070891,-0.009765,0.150640,-3.247286,328.414313,19.334437,0.998459,0.979473,0.005515,0.438302,0.000871,0.000859,-0.000106,0.000972,0.000759,-43.354218,0.001735,
2476,2518,4.76515382168558,-2.82585185699528,-0.011378443556282,0.004479,-0.067266,-0.003230,0.188845,-3.049618,322.927493,20.533325,0.999159,0.983815,0.004818,0.461578,0.000295,0.000158,-0.000044,0.000308,0.000146,-16.367275,0.000463,
2191,2863,-1.50283469785421,4.6833020052065,-0.013631437999436,0.005591,-0.065464,0.004689,0.219071,-2.967632,317.412127,21.548995,0.999247,0.990934,0.003766,0.423438,0.000028,0.000033,-0.000011,0.000042,0.000019,-51.688862,0.000063,
2371,3133,2.36259205953892,10.5569290025572,0.0307885872149996,0.007176,-0.066476,0.012641,0.258444,-2.987080,313.167220,22.549784,0.999582,0.991244,0.003750,0.393611,0.000021,0.000026,0.000015,0.000039,0.000009,49.810647,0.000051,
2341,3073,1.72050460735312,9.25270649281245,0.0139996238286244,0.006434,-0.066502,0.008174,0.241178,-3.004172,313.989932,22.255059,0.999640,0.993424,0.003283,0.405085,0.000001,0.000019,0.000017,0.000029,-0.000009,59.247599,0.000030,
2371,2998,2.38657770952733,7.62654197658227,0.0133111117552858,0.006181,-0.065968,0.006719,0.233746,-2.987322,315.204915,22.204490,0.999469,0.990453,0.003963,0.376963,0.000005,0.000010,0.000023,0.000031,-0.000016,47.988282,0.000031,
2221,2953,-0.865324651956829,6.64016892991533,0.000556694795477597,0.006247,-0.065442,0.006304,0.243306,-2.951275,316.004451,21.723264,0.999332,0.990866,0.003925,0.420626,0.000023,0.000010,-0.000007,0.000026,0.000007,-23.641162,0.000034,
2401,2128,3.20770272041141,-11.3690536022134,0.0134305953996545,0.003705,-0.070917,-0.016461,0.200119,-3.277686,329.326282,19.363138,0.999078,0.978876,0.005666,0.313407,0.000991,0.001038,-0.000092,0.001109,0.000920,-52.168261,0.002032,
2386,3208,2.67501622338057,12.1840134580005,0.0402641498528737,0.007351,-0.066557,0.011545,0.269704,-3.006275,312.036286,22.752762,0.999452,0.991722,0.003645,0.443596,0.000021,0.000042,0.000021,0.000055,0.000008,58.398291,0.000069,
2236,3058,-0.555514399028343,8.91906735696839,0.0255380782912766,0.006922,-0.065268,0.003977,0.281585,-2.957497,314.502793,21.876458,0.999582,0.992290,0.003511,0.439015,0.000012,0.000011,-0.000001,0.000013,0.000011,-20.759424,0.000023,
2326,3298,1.35308368463965,14.1320760491773,0.00656977185991536,0.007865,-0.065855,0.012038,0.294833,-2.964543,310.298680,22.658725,0.999653,0.994507,0.003052,0.485613,0.000021,0.000018,0.000010,0.000030,0.000009,41.499190,0.000040,
2206,2728,-1.15494795152229,1.74817676092114,-0.0281463537008335,0.005017,-0.065334,-0.000244,0.207871,-2.965123,319.430316,21.392800,0.999181,0.988383,0.004224,0.454587,0.000074,0.000045,-0.000002,0.000074,0.000045,-4.149711,0.000120,
2236,2878,-0.52707132008975,5.01081648259282,-0.00145609485980458,0.005595,-0.065606,0.005832,0.214238,-2.964359,317.145436,21.624657,0.999492,0.991032,0.003717,0.437882,0.000034,0.000034,0.000005,0.000039,0.000028,43.646249,0.000068,
2326,3028,1.40314938289133,8.27483396834818,0.0137218638305967,0.006471,-0.065915,0.006834,0.248227,-2.992392,314.735908,22.129064,0.999562,0.990954,0.003776,0.389138,0.000000,0.000013,0.000016,0.000024,-0.000011,55.227858,0.000024,
2311,2983,1.08573288800327,7.29576509174878,0.0169708368634929,0.006494,-0.066164,0.008163,0.245144,-2.983559,315.505263,21.957617,0.999713,0.994596,0.003091,0.428767,0.000005,0.000017,0.000015,0.000027,-0.000005,55.984203,0.000029,
2356,2083,2.23082036909532,-12.3560637475684,0.00291488028648246,0.002314,-0.072291,-0.016089,0.133777,-3.343377,329.866477,19.399189,0.999128,0.981627,0.005344,0.347604,0.001091,0.001124,-0.000055,0.001165,0.001050,-53.562238,0.002216,
2416,2428,3.47355089417342,-4.79340260220825,-0.0144358244907039,0.003652,-0.067635,-0.008066,0.168994,-3.100764,324.226658,20.401168,0.999386,0.985818,0.004801,0.366007,0.000377,0.000277,0.000001,0.000377,0.000277,0.650799,0.000657,
2461,2398,4.46186269696256,-5.45004688805899,-0.0080378244749113,0.003713,-0.068124,-0.005291,0.161150,-3.075342,324.840209,20.085391,0.999512,0.985475,0.004930,0.466801,0.000449,0.000341,-0.000058,0.000474,0.000316,-23.422429,0.000795,
2356,3133,2.03669314036956,10.5555041197362,0.0322691851199579,0.006886,-0.066171,0.010605,0.253080,-2.982849,313.171397,22.475579,0.999534,0.990799,0.003863,0.410044,0.000015,0.000028,0.000011,0.000035,0.000008,60.357189,0.000046,
2431,2488,3.78878854880403,-3.48283421224617,-0.00990227884301476,0.003947,-0.067988,0.001527,0.147035,-3.084824,323.292125,20.508390,0.999115,0.981785,0.005025,0.437287,0.000314,0.000148,-0.000012,0.000315,0.000147,-4.170499,0.000471,
2341,2188,1.88245232539261,-10.0501382828071,-0.00342069856367289,0.002093,-0.070214,-0.011823,0.109470,-3.244333,328.092973,19.895260,0.999084,0.985250,0.005027,0.321856,0.000779,0.000827,-0.000042,0.000851,0.000754,-59.778382,0.001606,
2461,2278,4.48830273730531,-8.07764730943944,-0.000833541495978807,0.004564,-0.068186,-0.014056,0.232830,-3.137596,326.916785,19.664261,0.999155,0.978784,0.005697,0.374190,0.000659,0.000533,-0.000087,0.000703,0.000489,-27.082590,0.001198,
2371,2278,2.52172243488661,-8.07803247171186,0.00704445124085851,0.002753,-0.068696,-0.011066,0.137903,-3.156264,326.761541,20.106113,0.999749,0.993350,0.003722,0.303541,0.000595,0.000524,-0.000033,0.000608,0.000511,-21.450366,0.001121,
2251,2923,-0.208467640659894,5.98939011338422,0.00244558215439383,0.006117,-0.065903,0.007537,0.232164,-2.964896,316.431518,21.703817,0.999624,0.992748,0.003569,0.451175,0.000023,0.000027,0.000002,0.000028,0.000022,74.370502,0.000050,
2281,3043,0.422736947358459,8.59791339532031,0.0136643538502881,0.006469,-0.065789,0.007715,0.246813,-2.960918,314.531202,22.038988,0.999302,0.990037,0.003944,0.398642,0.000006,0.000012,0.000003,0.000013,0.000005,70.152410,0.000019,
2146,2623,-2.4428652216025,-0.539774143330575,-0.0298186678166985,0.003911,-0.065234,0.000323,0.156353,-2.949799,321.268472,21.380967,0.999600,0.990773,0.004056,0.415069,0.000143,0.000052,0.000005,0.000143,0.000052,3.139804,0.000202,
2386,3118,2.69120456803009,10.2323876637331,0.0262465729716155,0.007051,-0.066446,0.009230,0.264199,-3.003133,313.388190,22.540939,0.999489,0.991708,0.003668,0.405978,0.000024,0.000023,0.000026,0.000050,-0.000003,44.154035,0.000056,
2431,2263,3.8340352299368,-8.4060215971784,-0.00652245505830251,0.003854,-0.069671,-0.003661,0.161028,-3.170664,326.980712,19.726975,0.998909,0.978450,0.005769,0.356985,0.000660,0.000574,-0.000085,0.000712,0.000522,-31.531810,0.001239,
2401,3268,2.98649340892391,13.4895487572441,-0.000746452112537099,0.007625,-0.066133,0.007674,0.296050,-2.991296,310.743604,23.028229,0.999554,0.991179,0.003784,0.432774,0.000014,0.000024,0.000004,0.000025,0.000013,70.995363,0.000039,
2221,2788,-0.837976347471855,3.05319361636067,-0.013417558960839,0.005353,-0.065497,0.000502,0.220669,-2.973640,318.551977,21.461735,0.999302,0.990268,0.004131,0.455054,0.000049,0.000043,0.000000,0.000049,0.000042,-3.380448,0.000092,
2296,3148,0.730839383292103,10.8759608958875,0.0332261642303138,0.006752,-0.066044,0.009590,0.252876,-2.991949,312.965693,22.265440,0.999511,0.992588,0.003710,0.392366,0.000003,0.000027,0.000001,0.000027,0.000003,87.127283,0.000033,
2356,2248,2.19867581797028,-8.73498119464865,-0.00356209735753055,0.002551,-0.069243,-0.006819,0.113430,-3.155270,327.127923,19.971533,0.998691,0.980123,0.005670,0.422217,0.000643,0.000616,-0.000037,0.000669,0.000591,-34.844080,0.001261,
2461,2293,4.48464918808159,-7.75079481028953,0.00420353372118143,0.004180,-0.068881,-0.006045,0.184935,-3.120488,326.668712,19.603018,0.999075,0.978457,0.005685,0.509462,0.000631,0.000490,-0.000086,0.000671,0.000449,-25.388792,0.001128,
2191,2878,-1.50517022936777,5.01006537238619,-0.00715460646154042,0.005632,-0.065658,0.008285,0.209560,-2.972988,317.212204,21.680432,0.999776,0.994588,0.003177,0.300628,0.000026,0.000037,-0.000011,0.000044,0.000019,-57.849533,0.000064,
2491,2563,5.08250506374572,-1.84169119099783,-0.0204091089860867,0.004866,-0.067216,0.000180,0.193427,-3.049318,322.164551,20.694246,0.999391,0.988627,0.004501,0.451182,0.000248,0.000098,-0.000029,0.000254,0.000092,-10.650587,0.000359,
2341,2848,1.75947265958898,4.36516196750595,-0.018805729480448,0.005576,-0.066287,0.008525,0.200398,-2.988074,317.348274,21.707753,0.999663,0.991137,0.003734,0.427999,0.000021,0.000039,0.000017,0.000049,0.000010,59.055759,0.000064,
2371,3148,2.36026893692376,10.8823094747133,0.0336607288817845,0.007307,-0.066197,0.010073,0.273696,-2.984827,312.960810,22.589968,0.999606,0.990457,0.003764,0.395619,0.000021,0.000027,0.000014,0.000038,0.000009,51.016667,0.000050,
2311,3268,1.03435038798654,13.4803593170926,0.0205810331366365,0.007797,-0.065681,0.009507,0.301043,-2.963358,310.925482,22.571453,0.999521,0.992593,0.003360,0.426369,0.000016,0.000030,0.000004,0.000031,0.000015,75.070153,0.000046,
2461,2413,4.45975967463025,-5.12246386189042,-0.00697952445523242,0.004287,-0.067580,-0.008454,0.199568,-3.090725,324.644610,20.123536,0.999410,0.985884,0.004905,0.469367,0.000425,0.000311,-0.000042,0.000439,0.000297,-18.280990,0.000740,
2401,2368,3.15786163207252,-6.10715668511126,-0.00899868639999113,0.003296,-0.068329,-0.004931,0.141010,-3.116308,325.198574,20.176915,0.998457,0.979881,0.005437,0.428791,0.000460,0.000369,-0.000017,0.000463,0.000366,-10.021952,0.000831,
2176,2563,-1.78108487295451,-1.84804293180076,-0.0230446121134946,0.002777,-0.065695,-0.001190,0.108168,-2.981088,322.140948,21.263893,0.998985,0.986658,0.004546,0.422304,0.000169,0.000114,0.000009,0.000170,0.000112,9.504248,0.000284,
2461,2638,4.41241455929169,-0.204432319954009,-0.0248956510448011,0.004541,-0.066769,-0.000433,0.181673,-3.024156,320.819547,21.076292,0.999444,0.988527,0.004243,0.416054,0.000170,0.000086,-0.000016,0.000173,0.000083,-10.343828,0.000262,
2446,2563,4.10101019543121,-1.8423855797909,-0.0166637958863589,0.004399,-0.066986,-0.000443,0.175351,-3.008227,322.071212,20.803966,0.999455,0.988443,0.004472,0.451267,0.000243,0.000100,-0.000008,0.000244,0.000100,-3.164394,0.000354,
2251,3148,-0.245454295719917,10.8722256349015,0.0340242176209813,0.007050,-0.065657,0.007192,0.276357,-2.984115,313.065668,22.066953,0.998502,0.987313,0.004556,0.406500,-0.000003,0.000028,-0.000007,0.000030,-0.000005,-77.867599,0.000032,
2476,2533,4.76166108477924,-2.49725344554465,-0.0167654170513174,0.004417,-0.066946,-0.004172,0.189691,-3.056456,322.639197,20.637572,0.999483,0.987486,0.004277,0.408376,0.000283,0.000134,-0.000029,0.000289,0.000129,-10.727496,0.000428,
2131,2323,-2.72100599941859,-7.09051883398347,-0.00767498768334463,0.001157,-0.065871,-0.010120,0.061122,-3.024692,326.267639,21.185880,0.999089,0.984831,0.004973,0.409517,0.000463,0.000380,0.000029,0.000472,0.000371,17.607543,0.000845,
2386,2113,2.8809244780089,-11.6971059544951,-0.0035272368617143,0.002989,-0.071037,-0.018230,0.173337,-3.292778,329.385256,19.303284,0.998275,0.968010,0.006707,0.399786,0.001024,0.001066,-0.000074,0.001122,0.000968,-52.925414,0.002092,
2416,2188,3.52303987372974,-10.0518274130549,0.00733591222905261,0.003612,-0.069780,-0.015405,0.192842,-3.223349,328.318070,19.512857,0.998927,0.982625,0.005273,0.333649,0.000832,0.000830,-0.000101,0.000932,0.000730,-44.597684,0.001666,
2341,1993,1.91927501510663,-14.3354183810736,0.00703672278945078,0.001094,-0.075239,-0.019431,0.088116,-3.501560,331.304049,19.111811,0.998048,0.975848,0.006581,0.329378,0.001309,0.001191,-0.000099,0.001366,0.001135,-29.613238,0.002504,
2326,2833,1.43552810841836,4.03933103258666,-0.024089978882273,0.005213,-0.066185,0.005137,0.196015,-2.985598,317.548554,21.733983,0.999821,0.992835,0.003568,0.350606,0.000014,0.000038,0.000015,0.000045,0.000007,64.313824,0.000056,
2266,3028,0.0998255516642423,8.2709206824954,0.0135955156215459,0.006457,-0.065387,0.005522,0.254205,-2.954761,314.806151,21.938389,0.999286,0.989382,0.003988,0.432036,0.000008,0.000007,0.000003,0.000010,0.000005,38.382825,0.000015,
2431,2053,3.87887318642995,-13.0185080679952,0.00756487656644822,0.004598,-0.073594,-0.018841,0.249054,-3.402533,330.581483,18.730928,0.997911,0.973938,0.006588,0.380197,0.001233,0.001179,-0.000121,0.001330,0.001082,-38.712201,0.002416,
2341,3088,1.71723984538988,9.57820750237508,0.0125769963525499,0.006298,-0.066616,0.010712,0.226015,-3.009613,313.717513,22.272581,0.999575,0.993489,0.003302,0.417565,0.000001,0.000011,0.000011,0.000018,-0.000006,57.121813,0.000018,
2311,2998,1.08302995441121,7.62130735014426,0.0206212009254614,0.006420,-0.066189,0.009865,0.235993,-2.966749,315.281718,21.965481,0.999884,0.996112,0.002947,0.469140,0.000004,0.000013,0.000014,0.000024,-0.000007,54.533501,0.000024,
2446,2143,4.18763926016575,-11.0401965638521,-0.00387261377881032,0.004491,-0.071243,-0.016738,0.237813,-3.299781,329.049269,19.039564,0.998936,0.976785,0.006180,0.408903,0.000979,0.001001,-0.000137,0.001127,0.000853,-47.201583,0.001986,
2401,2143,3.20416323581113,-11.0404173551064,0.00735055890004332,0.003606,-0.070575,-0.015861,0.193568,-3.240316,329.027286,19.274255,0.999010,0.977534,0.005681,0.488676,0.000947,0.000982,-0.000092,0.001058,0.000872,-50.397362,0.001933,
2476,2713,4.72429632754475,1.43055366116582,-0.0232479193412587,0.004814,-0.066795,0.002698,0.182147,-3.019375,319.647816,21.259267,0.999594,0.989186,0.004235,0.511435,0.000097,0.000068,0.000007,0.000099,0.000066,13.038356,0.000166,
2371,3013,2.38386602544535,7.95209976671588,0.0138833760045713,0.006322,-0.066079,0.007021,0.239150,-2.982404,314.970021,22.209919,0.999526,0.990261,0.003940,0.416993,0.000007,0.000008,0.000026,0.000033,-0.000018,45.180230,0.000033,
2356,2098,2.2269248642883,-12.0259548367786,-0.00103773008902408,0.001857,-0.072130,-0.012212,0.099345,-3.301873,329.556873,19.446772,0.999117,0.980439,0.005480,0.384108,0.001043,0.001088,-0.000058,0.001127,0.001003,-55.724643,0.002132,
2326,3043,1.40065023347501,8.60018940400543,0.0188273441031583,0.006419,-0.065899,0.007249,0.244449,-2.982030,314.529756,22.147680,0.999616,0.991671,0.003708,0.414420,-0.000001,0.000019,0.000016,0.000028,-0.000010,60.411659,0.000029,
2386,2308,2.84215362976557,-7.41975322636738,-0.0166946641014079,0.003384,-0.067798,-0.011428,0.168578,-3.101050,326.118742,19.981458,0.999702,0.993406,0.003666,0.510403,0.000550,0.000460,-0.000030,0.000559,0.000451,-16.718784,0.001011,
2206,2938,-1.18899898522026,6.31317594565976,0.000751170268301848,0.005770,-0.065403,0.007453,0.218226,-2.944024,316.265784,21.648643,0.999349,0.991252,0.003856,0.450707,0.000026,0.000021,-0.000005,0.000030,0.000018,-31.105920,0.000048,
2461,2428,4.4556898453203,-4.79400672524651,-0.0110068306988751,0.003981,-0.067706,-0.003618,0.167370,-3.069036,324.335153,20.161815,0.999208,0.984020,0.005043,0.508887,0.000409,0.000286,-0.000029,0.000415,0.000279,-12.694722,0.000699,
2506,2383,5.44942409647472,-5.77893264706444,0.000292252917290625,0.004965,-0.068240,-0.005455,0.218749,-3.108392,325.332393,19.884814,0.998404,0.979445,0.005682,0.428991,0.000523,0.000371,-0.000088,0.000563,0.000330,-24.620091,0.000904,
2221,2968,-0.867674764838849,6.96568341069874,0.0034065726914605,0.006310,-0.065497,0.006123,0.246783,-2.954118,315.787282,21.734498,0.999236,0.988657,0.004224,0.424684,0.000018,0.000013,-0.000006,0.000022,0.000009,-34.437766,0.000032,
2371,2293,2.51970115689025,-7.75029714382392,0.0119446494677504,0.003526,-0.068661,-0.006995,0.158899,-3.126796,326.581035,20.110137,0.999739,0.993758,0.003618,0.372211,0.000566,0.000493,-0.000029,0.000576,0.000483,-19.338789,0.001060,
2356,3148,2.03445234383706,10.8804924825703,0.0345711009837828,0.007244,-0.066450,0.009601,0.272943,-3.009028,312.965205,22.504197,0.999506,0.991250,0.003829,0.392967,0.000013,0.000028,0.000011,0.000034,0.000008,61.986549,0.000044,
2476,2548,4.75887992529364,-2.1700838721483,-0.0181939667135111,0.004690,-0.066785,-0.005566,0.207621,-3.053750,322.401660,20.641872,0.999430,0.987134,0.004430,0.464336,0.000261,0.000108,-0.000031,0.000267,0.000101,-10.997841,0.000381,
2386,3223,2.67163157900677,12.5100089813463,0.0353158518141754,0.007186,-0.066522,0.010616,0.265533,-3.002375,311.744165,22.821078,0.999454,0.992486,0.003521,0.421242,0.000021,0.000035,0.000018,0.000047,0.000009,55.314283,0.000060,
2341,2203,1.87962759782305,-9.72166173203453,-0.00270027566779163,0.002053,-0.069815,-0.011303,0.105969,-3.204669,327.853376,19.884263,0.998838,0.982490,0.005435,0.411776,0.000738,0.000781,-0.000042,0.000806,0.000712,-58.482703,0.001519,
2371,2113,2.55296335743443,-11.696938814442,-0.00322089326499508,0.002784,-0.071124,-0.017626,0.161477,-3.294405,329.365326,19.388486,0.998911,0.976216,0.005888,0.402344,0.001013,0.001063,-0.000060,0.001103,0.000973,-56.273468,0.002077,
2416,2443,3.47043659849487,-4.46569726291413,-0.0137092469839217,0.003629,-0.067302,-0.005500,0.158709,-3.076354,323.979186,20.417636,0.999378,0.986315,0.004727,0.423419,0.000366,0.000221,0.000013,0.000367,0.000220,4.975886,0.000593,
2296,3163,0.729031861174803,11.2013558060819,0.0431537097454111,0.007015,-0.065692,0.010195,0.263125,-2.966492,312.813246,22.328629,0.999629,0.992307,0.003595,0.383359,0.000006,0.000032,0.000004,0.000033,0.000005,82.378611,0.000041,
2356,2968,2.06474021077965,6.97486013267575,-0.00416245583875252,0.006036,-0.066302,0.006077,0.229776,-2.979098,315.541047,22.076909,0.999488,0.990864,0.003824,0.394957,0.000003,0.000009,0.000019,0.000026,-0.000013,49.889687,0.000026,
2431,2503,3.78641792596878,-3.15570341436189,-0.00791433555991716,0.004107,-0.067655,-0.001914,0.167267,-3.070856,323.085710,20.513211,0.999243,0.985514,0.004664,0.497509,0.000291,0.000153,-0.000015,0.000293,0.000152,-6.031986,0.000451,
2401,3283,2.98355458794033,13.8147520766332,-0.00430659026562807,0.008192,-0.066240,0.011412,0.308535,-2.985722,310.479747,23.048765,0.999566,0.990628,0.003914,0.462055,0.000012,0.000020,0.000001,0.000021,0.000012,82.794030,0.000033,
2341,2008,1.91679549818069,-14.0049013934746,0.00919121399624601,0.001399,-0.074177,-0.017496,0.095761,-3.439790,331.087471,19.210405,0.997852,0.973020,0.006942,0.332928,0.001280,0.001183,-0.000087,0.001331,0.001132,-30.428586,0.002465,
2161,2458,-2.08998698443037,-4.14051229479229,-0.0178495181107223,0.002027,-0.065662,-0.006651,0.090661,-2.979471,323.917654,21.116022,0.999031,0.987716,0.004597,0.515487,0.000262,0.000167,0.000001,0.000262,0.000167,0.871771,0.000433,
2461,2653,4.40981073735467,0.122546411128766,-0.0199754829283734,0.004766,-0.066831,0.002092,0.182531,-3.011597,320.617377,21.140804,0.999496,0.988752,0.004145,0.418909,0.000154,0.000082,-0.000012,0.000156,0.000080,-9.488428,0.000239,
2446,2338,4.14779805241582,-6.76431759011901,0.00203568354453409,0.004063,-0.068625,-0.006972,0.183270,-3.108892,325.887793,19.918782,0.999022,0.979638,0.005422,0.430873,0.000537,0.000413,-0.000047,0.000553,0.000398,-18.581387,0.000954,
2461,2308,4.48128739866395,-7.4201493408345,-0.00523445698979685,0.004469,-0.068838,-0.008210,0.206312,-3.129229,326.367632,19.774096,0.998750,0.974938,0.006067,0.386272,0.000611,0.000450,-0.000079,0.000643,0.000418,-22.352010,0.001069,
2251,3163,-0.247440879260893,11.1978746495006,0.0413142189149767,0.007343,-0.065564,0.008754,0.284815,-2.972469,312.889375,22.150685,0.999122,0.989447,0.004082,0.356500,-0.000002,0.000034,-0.000005,0.000035,-0.000002,-81.779424,0.000039,
2506,2623,5.39771657795897,-0.533326336781023,-0.0136298666881203,0.004781,-0.067289,0.001018,0.186028,-3.053258,321.282410,20.814272,0.999822,0.993980,0.003505,0.551905,0.000175,0.000041,-0.000018,0.000177,0.000039,-7.638141,0.000230,
2476,2563,4.75534658964854,-1.84099744729513,-0.0233427468311902,0.004929,-0.066539,-0.002197,0.205949,-3.013370,322.112157,20.756680,0.998244,0.982840,0.005327,0.447965,0.000251,0.000104,-0.000026,0.000255,0.000100,-9.833638,0.000366,
2431,2068,3.8756079771455,-12.6877608344547,0.00300036271090676,0.004640,-0.072670,-0.019405,0.253417,-3.350164,330.305167,18.807873,0.997743,0.969497,0.007043,0.409135,0.001186,0.001167,-0.000121,0.001298,0.001055,-42.768752,0.002357,
2236,3073,-0.559025127413229,9.24514462719123,0.0178856254771631,0.006879,-0.065516,0.007732,0.267314,-2.965750,314.179296,21.903177,0.999581,0.991719,0.003587,0.424349,0.000009,0.000017,-0.000003,0.000018,0.000008,-68.845199,0.000027,
2251,2938,-0.211229865442899,6.31444646682498,0.00197498925405171,0.006180,-0.066163,0.009223,0.229358,-2.992408,316.180817,21.666483,0.999576,0.993440,0.003417,0.484126,0.000021,0.000023,0.000002,0.000024,0.000020,57.007920,0.000044,
2491,2788,5.0361473210898,3.0675383010843,-0.0281402731484945,0.005428,-0.066435,0.000994,0.216749,-3.008536,318.456504,21.683006,0.999175,0.986683,0.004447,0.393359,0.000065,0.000038,-0.000006,0.000066,0.000036,-12.205344,0.000104,
2446,2578,4.09726126158253,-1.51381781520729,-0.0238506447367399,0.004912,-0.067405,0.007719,0.168295,-3.014852,321.759814,20.905119,0.999563,0.991046,0.004113,0.396481,0.000227,0.000095,-0.000003,0.000227,0.000095,-1.243441,0.000331,
2386,3133,2.68888925532659,10.5576137903625,0.0338178696692353,0.007079,-0.066427,0.009706,0.263781,-3.001775,313.205588,22.593544,0.999630,0.992592,0.003556,0.396806,0.000026,0.000026,0.000022,0.000047,0.000004,45.172517,0.000057,
2356,3163,2.03189598021653,11.2054540198674,0.0391600641087848,0.007185,-0.066281,0.009573,0.270419,-2.994403,312.755484,22.506991,0.999436,0.990895,0.004029,0.442517,0.000011,0.000035,0.000013,0.000040,0.000006,66.074237,0.000050,
2431,2278,3.83086190737982,-8.0784790947373,-0.00910318268955734,0.003575,-0.069267,-0.007125,0.161200,-3.159471,326.717266,19.652671,0.998860,0.976425,0.006071,0.494711,0.000628,0.000539,-0.000071,0.000667,0.000499,-28.989422,0.001171,
2221,2803,-0.841205245958076,3.38034775935485,-0.0245440107387367,0.005614,-0.065833,0.001827,0.228293,-2.988974,318.222505,21.484559,0.999191,0.988397,0.004348,0.436033,0.000046,0.000040,-0.000003,0.000047,0.000039,-20.481684,0.000086,
2371,3163,2.35758816657223,11.2071599819058,0.0353914996843514,0.007289,-0.066277,0.009062,0.276470,-2.988880,312.732582,22.584248,0.999519,0.990710,0.003832,0.437043,0.000016,0.000033,0.000016,0.000042,0.000007,59.368063,0.000054,
2386,2323,2.8388035644902,-7.09072677360337,-0.023064085523572,0.003495,-0.067919,-0.010608,0.170722,-3.103063,325.824877,20.034708,0.999582,0.991276,0.004153,0.500810,0.000521,0.000420,-0.000023,0.000526,0.000415,-12.260591,0.000942,
2326,3058,1.39758508595657,8.92567140401133,0.0169962895440108,0.006447,-0.066147,0.009270,0.238765,-2.965102,314.263499,22.129640,0.999665,0.993046,0.003377,0.483076,0.000003,0.000017,0.000017,0.000029,-0.000008,55.750069,0.000030,
2506,2863,5.3476195722207,4.70062536119766,-0.0228758461623784,0.005665,-0.066915,0.007169,0.203263,-3.017760,317.305986,21.959671,0.999638,0.992089,0.003648,0.422886,0.000053,0.000031,0.000002,0.000053,0.000031,4.259591,0.000086,
2476,2728,4.72189724930034,1.75873784996465,-0.0216512455862699,0.005231,-0.066580,0.001365,0.206450,-3.014772,319.440365,21.436993,0.999566,0.990381,0.003824,0.395417,0.000080,0.000055,0.000017,0.000088,0.000047,26.576369,0.000137,
2341,2863,1.75727517688538,4.69058419098533,-0.0109883829976525,0.005494,-0.066338,0.007125,0.201492,-2.993119,317.170587,21.724447,0.999603,0.990851,0.003848,0.442500,0.000020,0.000034,0.000017,0.000045,0.000008,55.722302,0.000058,
2131,2338,-2.72393758234733,-6.76254939604251,-0.00756948831798354,0.000792,-0.065881,-0.007682,0.037037,-2.998901,326.002592,21.179655,0.999275,0.985377,0.004806,0.449170,0.000434,0.000355,0.000022,0.000440,0.000349,14.544800,0.000791,
2461,2668,4.4069571860608,0.448835933842901,-0.0206906047823736,0.005112,-0.066978,0.003531,0.192899,-3.026158,320.378108,21.126112,0.999364,0.986498,0.004425,0.474196,0.000142,0.000077,-0.000007,0.000142,0.000076,-6.164857,0.000222,
2146,2638,-2.44562551039301,-0.213996303546224,-0.0289105534097871,0.003709,-0.065701,0.002619,0.139922,-2.977320,321.017274,21.332881,0.999674,0.991380,0.003826,0.443918,0.000132,0.000051,0.000005,0.000132,0.000051,3.657819,0.000189,
2341,2023,1.91421616571654,-13.6759810315967,0.00521811782419945,0.001561,-0.073484,-0.022102,0.119473,-3.455211,330.837270,19.176502,0.997993,0.975027,0.006638,0.391632,0.001244,0.001180,-0.000065,0.001284,0.001140,-31.924942,0.002426,
2446,2158,4.18447580073483,-10.7109929302643,0.00149594441336376,0.004052,-0.070657,-0.014826,0.210894,-3.260452,328.824393,19.130421,0.999087,0.977773,0.005802,0.412254,0.000941,0.000912,-0.000138,0.001064,0.000788,-41.997661,0.001859,
2296,3178,0.72622305889363,11.5264448599337,0.0390995855269693,0.007249,-0.065927,0.009964,0.274564,-2.984115,312.545285,22.326027,0.999614,0.992542,0.003530,0.397235,0.000008,0.000041,0.000004,0.000042,0.000008,83.352158,0.000053,
2461,2443,4.45400506683628,-4.46580933055311,-0.00704136805507005,0.004831,-0.067368,-0.005702,0.214279,-3.081147,324.171771,20.290194,0.998908,0.983860,0.005100,0.423992,0.000404,0.000219,-0.000016,0.000406,0.000218,-5.010262,0.000633,
2491,2803,5.03305906873425,3.39352896629811,-0.0231431131470572,0.005469,-0.066907,0.006639,0.196788,-3.007112,318.233824,21.710974,0.999112,0.985752,0.004756,0.425587,0.000065,0.000036,-0.000007,0.000067,0.000034,-13.245208,0.000103,
2326,2848,1.43325484146952,4.36363939861094,-0.016060221223313,0.005150,-0.066164,0.005555,0.191669,-3.000562,317.367923,21.656151,0.999724,0.991930,0.003711,0.447375,0.000013,0.000037,0.000016,0.000045,0.000005,62.821617,0.000055,
2491,2578,5.08068789869954,-1.51441552772522,-0.0154916371070044,0.005605,-0.067114,-0.001163,0.232549,-3.037359,322.000909,20.764588,0.998641,0.980411,0.005484,0.452571,0.000232,0.000086,-0.000024,0.000236,0.000082,-9.201627,0.000330,
2206,2953,-1.19184234566243,6.63954084783621,-0.00909395835964233,0.005995,-0.065029,0.004357,0.238518,-2.936237,315.959020,21.634435,0.999346,0.991291,0.003859,0.489081,0.000023,0.000010,-0.000007,0.000026,0.000006,-23.833108,0.000034,
2281,3058,0.42002210399167,8.92306572799503,0.0151675372679279,0.006434,-0.065773,0.008564,0.242441,-2.947215,314.294427,22.015158,0.999370,0.992366,0.003700,0.463115,0.000007,0.000013,0.000004,0.000015,0.000005,61.954769,0.000021,
2386,2128,2.8781487374127,-11.3676098872444,-0.00560276386215719,0.003246,-0.070548,-0.018484,0.186263,-3.289526,329.138811,19.365474,0.998813,0.974835,0.006017,0.387130,0.000984,0.001035,-0.000073,0.001087,0.000932,-54.601487,0.002021,
2506,2398,5.44490045177629,-5.44875528363965,-0.0161430640502545,0.004601,-0.067641,-0.009677,0.218641,-3.096949,324.950900,19.961224,0.998506,0.982266,0.005290,0.427388,0.000490,0.000338,-0.000078,0.000523,0.000305,-22.778609,0.000837,
2356,2263,2.19631211954067,-8.40621291324004,-0.0070338830545893,0.002793,-0.068366,-0.013217,0.147323,-3.140517,326.890454,19.990127,0.999063,0.983113,0.005274,0.459547,0.000604,0.000554,-0.000043,0.000629,0.000529,-29.926867,0.001160,
2401,2158,3.20165510752519,-10.7114107851834,0.0111191062832177,0.004121,-0.070885,-0.010837,0.198928,-3.256701,328.821932,19.384300,0.999157,0.978269,0.005514,0.410108,0.000905,0.000905,-0.000091,0.000996,0.000814,-45.073578,0.001813,
2401,2383,3.15515848168258,-5.7781762810359,-0.00968400223194976,0.003505,-0.067822,-0.005767,0.153824,-3.103674,324.962244,20.287860,0.999030,0.983774,0.005053,0.377600,0.000439,0.000347,-0.000020,0.000443,0.000343,-11.677322,0.000788,
2401,3298,2.98004587744257,14.1397987018765,-0.0103719260070534,0.008191,-0.066210,0.012694,0.303851,-2.990556,310.177736,23.056000,0.999613,0.991864,0.003747,0.493859,0.000007,0.000007,0.000004,0.000011,0.000003,47.557748,0.000015,
2371,2128,2.5499981360721,-11.3679771286031,-0.0030889785523982,0.002648,-0.070674,-0.017855,0.156269,-3.278532,329.119336,19.413071,0.999211,0.979607,0.005536,0.437862,0.000974,0.001032,-0.000060,0.001069,0.000936,-58.011702,0.002007,
2221,2983,-0.870490900124292,7.29107428294856,0.00853260645646969,0.005928,-0.065674,0.008501,0.221461,-2.968144,315.560442,21.764953,0.999370,0.990318,0.003943,0.398348,0.000017,0.000018,-0.000003,0.000020,0.000015,-50.006724,0.000036,
2356,2983,2.06264481099867,7.30039181603055,-0.00137579508515273,0.006431,-0.066018,0.004245,0.254474,-2.987873,315.344236,22.101562,0.999382,0.987857,0.004275,0.399665,0.000001,0.000012,0.000018,0.000025,-0.000013,53.465137,0.000025,
2506,2638,5.39404620990033,-0.204579702991936,-0.0151624206849874,0.004414,-0.067069,0.001702,0.166710,-3.036826,321.005159,20.978011,0.999660,0.991532,0.003935,0.466419,0.000157,0.000052,-0.000022,0.000161,0.000047,-11.356471,0.000218,
2371,2308,2.51589581761214,-7.42111507948634,0.000552431743642501,0.003478,-0.068170,-0.006871,0.156501,-3.095579,326.240818,20.086481,0.999806,0.995028,0.003258,0.470756,0.000539,0.000454,-0.000022,0.000544,0.000448,-13.809847,0.000994,
2431,2293,3.82823414016933,-7.75046777651605,-0.00240865415889857,0.003478,-0.069772,-0.005991,0.152403,-3.177782,326.521773,19.749637,0.998789,0.979312,0.005717,0.431273,0.000600,0.000503,-0.000070,0.000636,0.000467,-27.650991,0.001107,
2251,2953,-0.213532540875637,6.64196106285123,0.00237280636355308,0.006340,-0.065730,0.006586,0.245599,-2.965688,315.954762,21.811474,0.999323,0.991274,0.003859,0.388443,0.000015,0.000013,0.000003,0.000017,0.000011,30.576981,0.000028,
2341,3103,1.71601452078732,9.90305244055669,0.0273961802723761,0.006773,-0.066462,0.010759,0.247819,-2.997414,313.618137,22.318267,0.999555,0.992465,0.003557,0.419836,0.000007,0.000019,0.000011,0.000025,0.000000,59.257108,0.000029,
2416,2458,3.46728393873525,-4.13745278587889,-0.0150941686474653,0.003905,-0.067364,-0.000903,0.154593,-3.060122,323.719971,20.476851,0.999249,0.985886,0.004837,0.429566,0.000343,0.000201,0.000011,0.000344,0.000200,4.244599,0.000550,
2161,2473,-2.09173646645473,-3.81291418485251,-0.0155920176612199,0.002617,-0.065626,-0.006539,0.117432,-2.984963,323.720587,21.172713,0.998977,0.985503,0.005033,0.464684,0.000252,0.000164,0.000007,0.000252,0.000163,4.603673,0.000419,
2461,2323,4.47787722817321,-7.09216359488703,-0.00932637900518785,0.004246,-0.068286,-0.010333,0.204317,-3.128426,326.088888,19.751897,0.998872,0.977143,0.005759,0.466062,0.000586,0.000425,-0.000064,0.000608,0.000402,-19.152438,0.001018,
2446,2593,4.09412958512869,-1.1871968773103,-0.0294406640585407,0.004550,-0.067018,-0.000621,0.182927,-3.027943,321.484424,20.853598,0.999668,0.992128,0.003899,0.488135,0.000208,0.000087,0.000003,0.000208,0.000087,1.443299,0.000303,
2311,3013,1.07932725687451,7.94864221935077,0.0073045402678531,0.006405,-0.066185,0.008680,0.239294,-2.983594,314.927951,22.061670,0.999443,0.990225,0.003858,0.387713,0.000003,0.000013,0.000017,0.000026,-0.000009,53.118712,0.000026,
2446,2353,4.14535841805146,-6.43677558509144,0.00333830074629304,0.004557,-0.068567,-0.006473,0.204058,-3.132985,325.677002,19.943657,0.999232,0.981095,0.005434,0.435905,0.000511,0.000400,-0.000042,0.000525,0.000386,-18.565567,0.000914,
2491,2818,5.03032132421685,3.7194529770675,-0.0193741651676191,0.005488,-0.066935,0.006657,0.197635,-2.999262,318.021671,21.720644,0.999206,0.987010,0.004673,0.482665,0.000055,0.000030,-0.000001,0.000055,0.000029,-2.314328,0.000086,
2251,3178,-0.249873786588044,11.5221080437749,0.0474124446665769,0.007313,-0.065727,0.010870,0.276464,-2.966688,312.686993,22.105614,0.999366,0.991055,0.003684,0.429664,-0.000001,0.000044,-0.000005,0.000045,-0.000001,-84.176486,0.000051,
2416,2203,3.51953701523417,-9.7234442896858,-0.00077306354069151,0.003550,-0.069377,-0.017260,0.196927,-3.229578,328.012748,19.446691,0.998899,0.981337,0.005574,0.444136,0.000792,0.000770,-0.000095,0.000876,0.000685,-41.667768,0.001565,
2431,2083,3.8717009241539,-12.3568842077783,-0.00209457424534776,0.004534,-0.072884,-0.014508,0.230505,-3.349218,329.997178,18.948442,0.998159,0.974338,0.006686,0.323325,0.001138,0.001156,-0.000120,0.001267,0.001027,-47.087303,0.002299,
2506,2413,5.44250550180518,-5.12142949600592,-0.0104810257046779,0.004678,-0.067145,-0.011510,0.229504,-3.080547,324.765923,19.988889,0.998878,0.983551,0.005202,0.478779,0.000462,0.000306,-0.000059,0.000482,0.000286,-18.522209,0.000776,
2326,3073,1.39509603465554,9.25216343815871,0.0200278234748907,0.006583,-0.065995,0.009900,0.242853,-2.970506,314.047216,22.262468,0.999704,0.994430,0.003039,0.378182,0.000004,0.000021,0.000015,0.000030,-0.000005,59.560383,0.000031,
2476,2578,4.75184214682201,-1.51349445114437,-0.0229126442975485,0.004580,-0.066882,-0.000602,0.183760,-3.019980,321.849596,20.827541,0.998088,0.983303,0.005310,0.427883,0.000234,0.000093,-0.000017,0.000236,0.000091,-6.691337,0.000338,
2326,2863,1.4310078115282,4.68986769487724,-0.0141393021841623,0.005403,-0.066096,0.003559,0.210228,-3.000813,317.158032,21.698006,0.999662,0.991521,0.003796,0.439442,0.000012,0.000032,0.000016,0.000041,0.000003,60.439944,0.000050,
2506,2878,5.34625952802672,5.02558703371756,-0.00776167076372758,0.005961,-0.066633,0.005348,0.224047,-3.015252,317.208938,21.985860,0.999546,0.992617,0.003639,0.459757,0.000050,0.000038,0.000008,0.000054,0.000034,26.838634,0.000089,
2386,2338,2.83686267117264,-6.76353243092998,-0.00829725684366167,0.003309,-0.067796,-0.010280,0.161059,-3.115955,325.695934,20.145538,0.998844,0.983945,0.005063,0.421607,0.000492,0.000397,-0.000016,0.000494,0.000394,-9.518780,0.000890,
2341,2218,1.87709610215787,-9.39314199812537,-0.0026907425178706,0.002075,-0.069379,-0.014554,0.118435,-3.181943,327.623808,19.891826,0.998658,0.980979,0.005677,0.466094,0.000704,0.000736,-0.000035,0.000759,0.000681,-57.265486,0.001441,
2176,2578,-1.78327226110403,-1.52158089078235,-0.0239162464440597,0.003132,-0.065594,-0.001642,0.125883,-2.987637,321.908786,21.223538,0.999073,0.987719,0.004373,0.469098,0.000151,0.000101,0.000010,0.000153,0.000099,10.613138,0.000254,
2356,2278,2.19233813531354,-8.0772461263738,-0.0148726784709083,0.002716,-0.069230,-0.007351,0.122866,-3.159173,326.558274,20.021920,0.999362,0.987721,0.004560,0.450532,0.000575,0.000517,-0.000036,0.000592,0.000499,-25.576921,0.001093,
2386,3238,2.66791827839855,12.836111387852,0.0231045310425202,0.007314,-0.066255,0.010339,0.272474,-3.001919,311.402159,22.866050,0.999509,0.992515,0.003449,0.418517,0.000020,0.000025,0.000014,0.000036,0.000008,50.909730,0.000048,
2416,1993,3.56344059777932,-14.3398458541235,0.0226653030569537,0.003866,-0.075263,-0.022210,0.226745,-3.501450,331.629261,18.554878,0.998665,0.973847,0.006456,0.349454,0.001392,0.001230,-0.000135,0.001469,0.001153,-29.576861,0.002628,
2356,3178,2.02915813382259,11.5311035200062,0.0393763182945577,0.007261,-0.066069,0.009258,0.275106,-2.990921,312.515995,22.561573,0.999530,0.991762,0.003776,0.429067,0.000013,0.000044,0.000014,0.000049,0.000008,69.586220,0.000062,
2446,2173,4.18210188300475,-10.3815156711614,0.00886438306525861,0.004225,-0.070329,-0.013178,0.212813,-3.233000,328.644860,19.283871,0.999411,0.982873,0.005089,0.341230,0.000898,0.000865,-0.000130,0.001013,0.000751,-41.344986,0.001770,
2491,2593,5.076959436087,-1.18706152734761,-0.0139893715716539,0.004802,-0.067203,-0.001544,0.197151,-3.037988,321.733980,20.829440,0.999757,0.993843,0.003702,0.446807,0.000208,0.000075,-0.000015,0.000210,0.000074,-6.247435,0.000295,
2386,3148,2.68668982903302,10.8824206197748,0.0408007281036475,0.007257,-0.066449,0.010046,0.270732,-3.007455,313.025610,22.613757,0.999635,0.992036,0.003541,0.412999,0.000025,0.000027,0.000022,0.000048,0.000004,46.183498,0.000058,
2431,2518,3.78402713637497,-2.82770294121479,-0.011061527559832,0.004271,-0.066610,-0.010223,0.205857,-3.066634,322.854385,20.565680,0.998999,0.983776,0.004918,0.500410,0.000272,0.000154,-0.000015,0.000274,0.000152,-7.026992,0.000432,
2371,2143,2.54710189156132,-11.0383180230595,-0.000332531636558997,0.002567,-0.070597,-0.015790,0.145265,-3.255265,328.888837,19.527549,0.998868,0.977993,0.005788,0.390625,0.000932,0.000976,-0.000058,0.001016,0.000892,-55.274564,0.001910,
2506,2653,5.39021941915351,0.124191737503921,-0.0226543441029889,0.004564,-0.067389,0.004335,0.163297,-3.019367,320.693995,21.097822,0.999453,0.987340,0.004607,0.425917,0.000150,0.000054,-0.000010,0.000151,0.000053,-5.697484,0.000212,
2146,2653,-2.44762383833679,0.112474875449116,-0.0275430898041122,0.003927,-0.065381,0.000160,0.157466,-2.974866,320.803151,21.326707,0.999662,0.990184,0.003925,0.461017,0.000122,0.000048,0.000002,0.000122,0.000048,1.570893,0.000175,
2386,2143,2.87460713225515,-11.0377902494617,-0.00687910922118817,0.002794,-0.070011,-0.017264,0.161418,-3.245135,328.860752,19.430547,0.998688,0.972850,0.006158,0.413064,0.000940,0.000980,-0.000073,0.001036,0.000885,-52.668665,0.001922,
2371,3178,2.35438090141564,11.5327168308921,0.032365992898292,0.007224,-0.066245,0.009429,0.272167,-2.991426,312.456990,22.617560,0.999537,0.991132,0.003674,0.441109,0.000017,0.000043,0.000016,0.000050,0.000010,64.467815,0.000064,
2371,3028,2.38074717737706,8.2782788532335,0.0128750903202786,0.006257,-0.066052,0.008305,0.231629,-2.976386,314.708569,22.265047,0.999454,0.989734,0.004066,0.408318,0.000008,0.000009,0.000024,0.000033,-0.000015,45.898549,0.000033,
2236,3088,-0.561194647886303,9.57106787924441,0.0197620509716216,0.007041,-0.065280,0.004957,0.283846,-2.967091,313.966135,21.974410,0.999530,0.991857,0.003561,0.371805,0.000007,0.000009,-0.000003,0.000011,0.000005,-56.080404,0.000016,
2401,2173,3.19773721930189,-10.3814526791683,0.00266058343612485,0.003591,-0.070433,-0.013444,0.184291,-3.257818,328.494351,19.441074,0.998936,0.980551,0.005447,0.400993,0.000863,0.000858,-0.000088,0.000949,0.000772,-44.288960,0.001724,
2506,2428,5.44023528774182,-4.79454450325773,0.00115689222951687,0.005063,-0.067842,-0.005283,0.222793,-3.087607,324.613385,20.060300,0.998624,0.981007,0.005627,0.462357,0.000436,0.000282,-0.000036,0.000444,0.000274,-12.577208,0.000724,
2476,2743,4.71845715833443,2.08534617923712,-0.02436921924442,0.005280,-0.066844,0.003914,0.198909,-3.013651,319.165704,21.443382,0.999681,0.991636,0.003701,0.447023,0.000076,0.000056,0.000015,0.000084,0.000048,28.438524,0.000134,
2341,2878,1.75348214130549,5.0166653005746,-0.0196283048823034,0.005047,-0.066292,0.005414,0.186988,-2.993848,316.839378,21.679863,0.999534,0.990533,0.003953,0.523072,0.000017,0.000036,0.000022,0.000051,0.000002,56.684732,0.000060,
2281,3073,0.417607972677224,9.24953748303184,0.00757942612540319,0.006989,-0.065644,0.004203,0.282613,-2.966032,314.025539,22.090494,0.999435,0.992194,0.003757,0.395887,0.000005,0.000019,0.000001,0.000019,0.000005,85.256398,0.000025,
2371,2323,2.51243704669876,-7.09360618831065,0.00268455856883065,0.003074,-0.068851,-0.002276,0.121402,-3.125526,325.981392,20.111933,0.999456,0.990937,0.004111,0.458290,0.000510,0.000412,-0.000016,0.000512,0.000409,-9.057474,0.000923,
2506,2893,5.34403944728627,5.35276975371254,-0.00202012315952516,0.006335,-0.066380,0.005083,0.242478,-2.974307,317.029692,22.112091,0.999446,0.989950,0.004135,0.435404,0.000050,0.000033,0.000016,0.000059,0.000024,30.614966,0.000085,
2356,2998,2.05983012115555,7.62607553072603,0.00750905294631821,0.006159,-0.066178,0.009149,0.224647,-2.981274,315.143662,22.170172,0.999573,0.991544,0.003718,0.375543,0.000000,0.000009,0.000020,0.000026,-0.000016,51.165903,0.000026,
2461,2338,4.47484549481647,-6.76362402524103,-0.00453107975374678,0.004217,-0.068678,-0.005975,0.186514,-3.119855,325.867850,19.865975,0.998806,0.976538,0.005728,0.416669,0.000550,0.000406,-0.000058,0.000571,0.000385,-19.516567,0.000962,
2476,2593,4.74881545457329,-1.18632090971766,-0.0207989456766882,0.004389,-0.066634,-0.001098,0.176981,-3.015263,321.616570,20.876070,0.998156,0.982404,0.005187,0.441501,0.000212,0.000082,-0.000009,0.000212,0.000081,-3.771373,0.000303,
2461,2683,4.40337737943402,0.776825254032211,-0.0250714362479698,0.004922,-0.066980,0.003491,0.184389,-3.008679,320.088176,21.210066,0.999424,0.987588,0.004337,0.462720,0.000135,0.000075,-0.000007,0.000135,0.000074,-6.500352,0.000212,
2461,2458,4.45126974231812,-4.13703024503015,-0.00914945636844777,0.004827,-0.066288,-0.011450,0.236150,-3.058416,323.932141,20.385067,0.999204,0.984771,0.004940,0.407749,0.000385,0.000201,-0.000017,0.000386,0.000200,-5.282124,0.000596,
2401,2398,3.15243760489242,-5.45029057608956,-0.00938401954761048,0.003593,-0.067555,-0.006845,0.161870,-3.091631,324.729837,20.313756,0.999249,0.984733,0.004912,0.411078,0.000411,0.000327,-0.000018,0.000415,0.000324,-11.381835,0.000740,
2356,3193,2.02594273407552,11.8570272463832,0.0362017244933668,0.007239,-0.066185,0.010463,0.269855,-2.992369,312.237972,22.630328,0.999522,0.991310,0.003753,0.396562,0.000014,0.000049,0.000014,0.000054,0.000010,71.012553,0.000068,
2131,2353,-2.72607624124363,-6.43422039873068,-0.0118973849105828,0.001295,-0.065849,-0.008576,0.062797,-3.019756,325.750326,21.214298,0.999103,0.984718,0.004909,0.401236,0.000406,0.000328,0.000016,0.000409,0.000325,11.407852,0.000735,
2326,3088,1.39293765703488,9.57601173919837,0.0236348387618932,0.006804,-0.066234,0.007948,0.259618,-2.998448,313.849793,22.181409,0.999636,0.994058,0.003199,0.464895,0.000003,0.000010,0.000010,0.000017,-0.000003,55.360656,0.000018,
2431,2098,3.86840960536351,-12.0280594769404,0.00765141042870709,0.003941,-0.072928,-0.008225,0.180279,-3.320096,329.785922,19.042645,0.999167,0.979945,0.006070,0.311294,0.001089,0.001119,-0.000124,0.001229,0.000979,-48.501527,0.002213,
2416,2008,3.56122305209196,-14.012331964229,0.0295576634567851,0.004519,-0.075692,-0.016127,0.234287,-3.499007,331.453552,18.492640,0.998529,0.971534,0.006678,0.465228,0.001353,0.001221,-0.000134,0.001437,0.001137,-31.910511,0.002580,
2491,2833,5.02747537355926,4.04585679365571,-0.0230079392382549,0.005611,-0.066908,0.001768,0.221982,-3.036202,317.771066,21.767070,0.999179,0.987839,0.004463,0.457854,0.000056,0.000034,0.000004,0.000057,0.000034,9.541918,0.000092,
2356,2293,2.1900484802725,-7.747417319562,-0.0108191246690126,0.003228,-0.069049,-0.003881,0.134232,-3.129891,326.359998,20.210435,0.999605,0.992840,0.003984,0.332097,0.000543,0.000485,-0.000034,0.000558,0.000470,-24.770088,0.001029,
2506,2668,5.3883971768296,0.450361016759757,-0.0191382098862505,0.005376,-0.067024,0.002383,0.208277,-3.006530,320.524610,21.080373,0.999321,0.985578,0.004817,0.517760,0.000141,0.000045,-0.000004,0.000141,0.000045,-2.571348,0.000195,
2416,2218,3.51625648865727,-9.39313223060993,-0.00491644852894524,0.003716,-0.069377,-0.015346,0.197570,-3.197259,327.735625,19.565979,0.999085,0.983042,0.005369,0.407843,0.000759,0.000730,-0.000083,0.000829,0.000661,-39.907192,0.001492,
2161,2488,-2.09440171661881,-3.48507203395786,-0.0223824456560351,0.003060,-0.065673,-0.003986,0.130017,-2.966831,323.433861,21.150040,0.998869,0.984873,0.005050,0.516839,0.000238,0.000159,0.000001,0.000238,0.000159,1.044534,0.000400,
2506,2443,5.43644080474716,-4.46601129132955,-0.00235347386461626,0.004709,-0.067750,-0.004981,0.205459,-3.088719,324.322968,20.138208,0.998763,0.981395,0.005474,0.446226,0.000433,0.000218,-0.000021,0.000435,0.000216,-5.562616,0.000664,
2431,2533,3.78087866388497,-2.49923469130419,-0.00693925917443039,0.004205,-0.066954,-0.004895,0.183027,-3.059009,322.621784,20.728259,0.999206,0.987142,0.004543,0.396478,0.000262,0.000127,-0.000007,0.000262,0.000127,-3.116761,0.000397,
2416,2473,3.46472613910924,-3.81124514535093,-0.00888283637283394,0.003448,-0.067306,-0.005159,0.149218,-3.074397,323.523911,20.455115,0.999053,0.985159,0.004910,0.485970,0.000319,0.000177,0.000008,0.000319,0.000176,3.016875,0.000503,
2341,3118,1.71425484297412,10.2286368958912,0.0339458629496789,0.007166,-0.065902,0.008439,0.274205,-2.977727,313.453652,22.375048,0.999582,0.992328,0.003603,0.418366,0.000014,0.000024,0.000013,0.000033,0.000005,56.416783,0.000041,
2236,3103,-0.563796876466988,9.89524129151191,0.0213654028170254,0.007169,-0.065758,0.007584,0.281014,-2.991052,313.732281,21.909094,0.999542,0.992520,0.003490,0.433402,0.000002,0.000014,-0.000001,0.000014,0.000002,-84.304043,0.000018,
2371,2158,2.54517957657764,-10.7096145290733,0.00502163779634657,0.003234,-0.070629,-0.013951,0.169297,-3.260584,328.715516,19.615938,0.999208,0.980495,0.005629,0.340249,0.000889,0.000904,-0.000059,0.000957,0.000837,-48.632593,0.001795,
2446,2608,4.09184852257643,-0.860481505299902,-0.0147416745152782,0.004426,-0.067382,0.003727,0.160930,-3.020983,321.341373,20.970908,0.999297,0.987489,0.004448,0.430292,0.000189,0.000088,0.000002,0.000189,0.000088,0.876940,0.000283,
2221,2998,-0.872970879142628,7.61644040593651,0.0102340944810635,0.006024,-0.065736,0.009470,0.222764,-2.968084,315.331413,21.759189,0.999445,0.990173,0.003943,0.422383,0.000014,0.000016,-0.000002,0.000017,0.000012,-55.738818,0.000030,
2461,2698,4.40103669388516,1.10378354957901,-0.0202353226688956,0.005134,-0.066965,0.002568,0.197605,-3.013299,319.897547,21.301970,0.999604,0.988163,0.004361,0.420764,0.000123,0.000079,-0.000003,0.000123,0.000078,-3.333905,0.000203,
2476,2758,4.71620754298247,2.41024051259046,-0.0141294357534321,0.005360,-0.066991,0.005605,0.196113,-3.023352,319.004947,21.410307,0.999545,0.989478,0.004012,0.526873,0.000076,0.000058,0.000011,0.000081,0.000053,25.929607,0.000135,
2371,3043,2.37819081657051,8.60354750877232,0.0146908648798103,0.006438,-0.066239,0.008372,0.239679,-2.983143,314.486769,22.271787,0.999609,0.991375,0.003718,0.435080,0.000007,0.000019,0.000026,0.000039,-0.000014,51.551354,0.000040,
2386,3253,2.66467558860331,13.1619623796836,0.0148598010830483,0.007707,-0.066240,0.011411,0.286800,-2.990088,311.100745,22.904095,0.999610,0.991941,0.003448,0.434293,0.000016,0.000028,0.000011,0.000035,0.000009,59.510382,0.000046,
2431,2308,3.82580667317618,-7.42061442959015,0.00239407073451048,0.003511,-0.068525,-0.007640,0.160521,-3.118976,326.326085,19.923284,0.998811,0.982098,0.005329,0.368574,0.000577,0.000463,-0.000063,0.000605,0.000435,-23.846184,0.001045,
2341,2893,1.75209574443635,5.34343958980029,-0.0104198725749711,0.005621,-0.065879,0.003286,0.220960,-2.981607,316.705249,21.821244,0.999347,0.990185,0.003992,0.430010,0.000012,0.000031,0.000019,0.000043,0.000000,58.414452,0.000050,
2446,2368,4.14179760510628,-6.10697759706831,-0.00421269446638917,0.004349,-0.067703,-0.009821,0.207363,-3.121239,325.373545,20.058159,0.999342,0.984623,0.005039,0.387368,0.000489,0.000381,-0.000041,0.000502,0.000367,-18.684759,0.000873,
2491,2608,5.07437618008364,-0.860587054060247,-0.00809135605925349,0.004869,-0.067117,-0.000713,0.197111,-3.024412,321.539515,20.841539,0.999776,0.993415,0.003796,0.507684,0.000187,0.000071,-0.000010,0.000188,0.000071,-4.935257,0.000267,
2356,3208,2.02349505639519,12.1816695945832,0.0423833694165978,0.007348,-0.066214,0.012775,0.266694,-2.985483,312.040922,22.631096,0.999525,0.991873,0.003632,0.440033,0.000017,0.000046,0.000012,0.000050,0.000013,70.689323,0.000067,
2461,2353,4.47102330671155,-6.43400752500531,-0.0134612385490982,0.004188,-0.068313,-0.005748,0.184510,-3.093067,325.547651,19.930446,0.999068,0.981690,0.005440,0.435788,0.000525,0.000395,-0.000054,0.000544,0.000376,-19.890644,0.000925,
2341,2233,1.87440662304711,-9.06440894870369,-8.49331434551459E-05,0.002111,-0.068990,-0.012978,0.114780,-3.165549,327.399509,19.957357,0.998350,0.977574,0.005971,0.456146,0.000665,0.000680,-0.000031,0.000704,0.000641,-52.011031,0.001346,
2476,2608,4.7452177703302,-0.85886496120257,-0.022364343135223,0.004128,-0.066754,0.000719,0.158119,-3.002250,321.340459,20.915050,0.998746,0.983165,0.004895,0.472918,0.000188,0.000081,-0.000006,0.000188,0.000081,-3.371724,0.000277,
2446,2188,4.17901539675175,-10.0526370890823,0.0107428683095918,0.004204,-0.070068,-0.010559,0.202258,-3.206051,328.407452,19.329566,0.999524,0.985385,0.004847,0.377291,0.000859,0.000836,-0.000123,0.000971,0.000724,-42.422496,0.001701,
2506,2908,5.33955505269269,5.67910228895825,-0.00956574922571463,0.005780,-0.066921,0.007333,0.208022,-3.009126,316.686948,22.143749,0.999455,0.988322,0.004256,0.429331,0.000047,0.000004,0.000020,0.000055,-0.000004,21.646052,0.000061,
2506,2683,5.38381394723732,0.779087911795202,-0.0284791566099898,0.004948,-0.067151,0.005316,0.177231,-3.021617,320.170270,21.224124,0.999493,0.989840,0.004081,0.420522,0.000137,0.000037,0.000000,0.000137,0.000037,0.194507,0.000183,
2386,2353,2.83386771008312,-6.43588047579626,-0.00606604904601227,0.003310,-0.067703,-0.006663,0.148205,-3.082847,325.459007,20.132648,0.998353,0.980331,0.005631,0.513025,0.000469,0.000380,-0.000008,0.000470,0.000380,-5.036682,0.000851,
2416,2023,3.5558146064104,-13.6776945147865,0.0139914958280087,0.003234,-0.074556,-0.017465,0.180875,-3.446143,331.026391,18.780288,0.998287,0.974185,0.006403,0.283085,0.001305,0.001209,-0.000125,0.001391,0.001123,-34.517811,0.002519,
2506,2458,5.4331520230746,-4.13694547362113,-0.0125386160068501,0.005235,-0.067491,-0.006949,0.237305,-3.075125,324.025799,20.193385,0.998864,0.984268,0.005030,0.467434,0.000420,0.000207,-0.000022,0.000422,0.000205,-5.841649,0.000639,
2371,3193,2.35223144550166,11.857802058555,0.0386403348560407,0.007447,-0.066248,0.009205,0.283201,-3.003710,312.274850,22.675903,0.999487,0.991446,0.003670,0.410179,0.000019,0.000048,0.000016,0.000054,0.000012,66.210677,0.000071,
2491,2848,5.024842070766,4.37329976587838,-0.0190980344739273,0.005716,-0.066816,0.001609,0.227470,-3.040565,317.563855,21.937998,0.999391,0.991190,0.003929,0.341149,0.000045,0.000031,0.000000,0.000045,0.000031,-0.404605,0.000077,
2401,2188,3.1951465188033,-10.0514992420763,0.00345344712729911,0.003616,-0.069313,-0.016529,0.197020,-3.201832,328.270660,19.544364,0.998792,0.982651,0.005408,0.402186,0.000823,0.000828,-0.000085,0.000911,0.000741,-45.881018,0.001654,
2401,2413,3.14979067208627,-5.12221218819087,-0.0098889549704495,0.003815,-0.067249,-0.007986,0.176320,-3.073728,324.496926,20.348722,0.999330,0.985077,0.004863,0.441226,0.000385,0.000302,-0.000010,0.000386,0.000300,-6.476847,0.000688,
2431,2113,3.86617947643745,-11.699921966971,0.0101341969390205,0.004139,-0.072041,-0.012380,0.204991,-3.295420,329.589743,19.003153,0.999133,0.978214,0.006100,0.428420,0.001048,0.001089,-0.000123,0.001193,0.000944,-49.753768,0.002142,
2371,2338,2.50926378206379,-6.76409015565469,-0.00616001128628341,0.003019,-0.068194,-0.007899,0.139116,-3.129268,325.682250,20.191252,0.998810,0.984008,0.005122,0.418622,0.000482,0.000389,-0.000009,0.000483,0.000389,-5.682438,0.000873,
2356,3013,2.05697250921309,7.95151943786863,0.00819403845360966,0.006079,-0.066133,0.008912,0.221769,-2.986297,314.901565,22.176035,0.999551,0.990798,0.003835,0.402840,0.000001,0.000008,0.000023,0.000028,-0.000019,49.154907,0.000028,
2386,3268,2.6614008508241,13.4876583464185,0.0109069550458685,0.007527,-0.065978,0.009885,0.284129,-2.980542,310.818297,22.958762,0.999615,0.991728,0.003586,0.431225,0.000010,0.000029,0.000007,0.000031,0.000008,73.124693,0.000041,
2416,2233,3.51338358122962,-9.06472221128488,0.00122081256745332,0.003644,-0.069268,-0.011031,0.178612,-3.168192,327.525260,19.626943,0.999187,0.984069,0.005239,0.426116,0.000724,0.000691,-0.000073,0.000782,0.000633,-38.559386,0.001417,
2326,3103,1.39046721327117,9.90186709213647,0.0272302695451003,0.006785,-0.065907,0.006869,0.262676,-2.979675,313.637232,22.242100,0.999533,0.993222,0.003431,0.456373,0.000006,0.000017,0.000010,0.000023,0.000000,60.738486,0.000027,
2311,3028,1.07760013757905,8.27368065519035,0.01408832186479,0.006738,-0.065917,0.005910,0.264161,-2.994146,314.764832,22.079530,0.999556,0.989966,0.003907,0.390713,0.000004,0.000014,0.000016,0.000025,-0.000008,53.785682,0.000026,
2356,2308,2.18758467347007,-7.42096647547812,-0.00446526472927644,0.002894,-0.068502,-0.006476,0.128263,-3.120707,326.165313,20.137772,0.999283,0.990406,0.004164,0.454826,0.000515,0.000446,-0.000024,0.000522,0.000438,-17.499769,0.000962,
2161,2503,-2.0973882855514,-3.15725635641672,-0.0281747050377135,0.003230,-0.066160,0.000209,0.124805,-2.982440,323.137767,21.173517,0.998883,0.984378,0.005075,0.489174,0.000226,0.000144,0.000000,0.000226,0.000144,0.304926,0.000373,
2281,3088,0.415544200409034,9.57355750046228,0.0199003690219115,0.006751,-0.065886,0.004189,0.271604,-2.983311,313.873178,22.070339,0.999609,0.992173,0.003788,0.425303,0.000003,0.000011,-0.000002,0.000011,0.000003,-75.086761,0.000015,
2386,3163,2.6833442732129,11.2079608389157,0.0388203443968109,0.007124,-0.066594,0.012021,0.257480,-3.006195,312.749859,22.643776,0.999497,0.990357,0.003860,0.426424,0.000019,0.000034,0.000023,0.000051,0.000002,53.622291,0.000060,
2386,2158,2.87201900176581,-10.7089717633751,-0.00192942113449135,0.002951,-0.070518,-0.014234,0.157608,-3.256508,328.656135,19.531923,0.999097,0.978356,0.005663,0.346286,0.000896,0.000907,-0.000074,0.000976,0.000827,-47.060635,0.001804,
2431,2548,3.77842327197176,-2.17178331146026,0.00183816344735988,0.004441,-0.066910,0.000373,0.174480,-3.021339,322.442619,20.813089,0.999597,0.989672,0.004063,0.400130,0.000248,0.000106,-0.000006,0.000248,0.000106,-2.521243,0.000363,
2506,2923,5.33554666955225,6.00697564695851,-0.0241205225026988,0.006106,-0.066920,0.007290,0.223162,-3.011265,316.334213,22.239764,0.999337,0.985869,0.004403,0.392123,0.000045,-0.000003,0.000017,0.000050,-0.000008,17.969759,0.000054,
2461,2473,4.44731753361507,-3.80865139627778,-0.015132871222761,0.004604,-0.066588,-0.009002,0.216673,-3.048560,323.618955,20.425753,0.999387,0.986582,0.004626,0.432872,0.000361,0.000185,-0.000021,0.000363,0.000183,-6.710871,0.000556,
2356,3223,2.0203771881281,12.5075520870128,0.0385538767001776,0.007318,-0.066095,0.011950,0.268345,-2.978149,311.764118,22.691378,0.999540,0.991769,0.003543,0.424670,0.000019,0.000041,0.000010,0.000045,0.000014,68.443681,0.000062,
2476,2773,4.71198344120248,2.73917552920975,-0.0237537574523117,0.004922,-0.067070,0.004658,0.179606,-3.017065,318.662167,21.580228,0.999003,0.985805,0.004574,0.420130,0.000061,0.000033,0.000004,0.000061,0.000032,8.508281,0.000095,
2416,2038,3.55255847973948,-13.3477460116008,0.00319318744999464,0.003623,-0.073565,-0.019464,0.206401,-3.420817,330.720345,18.728962,0.997927,0.973552,0.006597,0.411391,0.001253,0.001178,-0.000117,0.001338,0.001092,-36.091546,0.002435,
2491,2623,5.07063015637091,-0.53389930655932,-0.0107478714006675,0.004686,-0.067621,0.002399,0.176586,-3.046985,321.253087,20.840291,0.999795,0.993617,0.003622,0.545972,0.000178,0.000051,-0.000020,0.000181,0.000047,-8.722409,0.000241,
2506,2473,5.42867565408489,-3.80834644360468,-0.0116378170301914,0.004288,-0.067698,-0.001209,0.171700,-3.064492,323.723456,20.317867,0.999030,0.983779,0.004953,0.416128,0.000397,0.000196,-0.000022,0.000399,0.000193,-6.108341,0.000605,
2461,2713,4.39795179365153,1.4309742946796,-0.022180581773739,0.005310,-0.066678,0.003487,0.202368,-2.998735,319.641518,21.344959,0.999617,0.990066,0.004034,0.447085,0.000108,0.000076,0.000008,0.000110,0.000075,12.996821,0.000185,
2431,2323,3.82254396854124,-7.09234982696714,-0.00496855671656249,0.003475,-0.067777,-0.011823,0.174574,-3.106234,326.036105,19.881321,0.998872,0.981401,0.005271,0.475559,0.000550,0.000433,-0.000049,0.000568,0.000415,-19.894725,0.000987,
2341,3133,1.71104970563514,10.5541828412631,0.031341571147891,0.007172,-0.066064,0.010841,0.266005,-2.988583,313.178075,22.405606,0.999392,0.991739,0.003757,0.412567,0.000010,0.000030,0.000011,0.000035,0.000006,66.474345,0.000044,
2371,3058,2.37530312674467,8.92937098284743,0.0172259147984732,0.006566,-0.066826,0.012682,0.230016,-2.997700,314.252950,22.345968,0.999691,0.992980,0.003380,0.386144,0.000009,0.000016,0.000026,0.000039,-0.000013,49.038903,0.000039,
2446,2623,4.08888270175397,-0.533378686663923,-0.0116565319136726,0.004161,-0.067114,0.003152,0.150987,-3.023775,321.113277,21.037007,0.999346,0.987760,0.004356,0.414197,0.000182,0.000082,-0.000007,0.000182,0.000082,-3.766839,0.000270,
2221,3013,-0.874756886177241,7.9422358555574,0.0120237132978787,0.006506,-0.065262,0.006102,0.255909,-2.961618,315.134552,21.790902,0.999433,0.990404,0.003865,0.415337,0.000013,0.000013,-0.000002,0.000015,0.000011,-46.538369,0.000026,
2386,3283,2.65876437230797,13.8124204771117,0.013839309038076,0.007762,-0.066048,0.012422,0.285814,-2.979205,310.598363,22.977184,0.999643,0.990847,0.003708,0.455821,0.000007,0.000026,0.000004,0.000027,0.000006,79.212178,0.000035,
2446,2383,4.13855855790296,-5.77857488107443,-0.00167658139736204,0.004277,-0.068059,-0.005353,0.187325,-3.099616,325.131276,20.138590,0.999689,0.987740,0.004648,0.382488,0.000468,0.000357,-0.000049,0.000486,0.000339,-20.665924,0.000830,
2401,2428,3.14668804299346,-4.79442753366283,-0.011780261091701,0.003729,-0.067377,-0.008664,0.174790,-3.083180,324.236670,20.376146,0.999303,0.984647,0.004879,0.451433,0.000369,0.000274,0.000001,0.000369,0.000274,0.418257,0.000646,
2461,2368,4.46879504013996,-6.10606212557283,-0.00344923054638002,0.004153,-0.067932,-0.005912,0.183684,-3.072920,325.387160,20.038986,0.999495,0.987057,0.004961,0.403288,0.000506,0.000380,-0.000052,0.000525,0.000362,-19.758775,0.000892,
2491,2863,5.02175203822064,4.69920286448352,-0.0158242973428173,0.005645,-0.066664,0.004273,0.214072,-3.021945,317.332994,21.943399,0.999426,0.990678,0.003942,0.412954,0.000044,0.000034,-0.000003,0.000045,0.000034,-14.483605,0.000079,
2506,2698,5.38148310932325,1.10518871176784,-0.0218275706093891,0.004949,-0.067096,0.002900,0.186641,-3.036589,319.991405,21.263122,0.999526,0.990596,0.003903,0.427730,0.000131,0.000046,0.000001,0.000131,0.000046,0.941626,0.000184,
2431,2128,3.86393982504215,-11.3712019815576,0.0187255697884439,0.004047,-0.071307,-0.014008,0.207115,-3.279971,329.421309,19.097336,0.999389,0.978981,0.006143,0.402062,0.001008,0.001053,-0.000123,0.001156,0.000905,-50.186893,0.002066,
2446,2203,4.17512367540133,-9.7229015082947,0.00181523445240828,0.003839,-0.069193,-0.013097,0.195375,-3.184824,328.083393,19.351058,0.999595,0.984717,0.004865,0.432307,0.000818,0.000768,-0.000116,0.000912,0.000674,-38.914627,0.001592,
2476,2623,4.74277431924681,-0.531497221288483,-0.0229798744787786,0.004663,-0.067052,-0.000848,0.188440,-3.045707,321.121810,21.015224,0.999503,0.990002,0.003985,0.386536,0.000178,0.000067,-0.000015,0.000180,0.000065,-7.657677,0.000254,
2416,2488,3.46124374998052,-3.48307767388302,-0.0150154267290077,0.003650,-0.067779,-0.002164,0.147306,-3.097675,323.227404,20.512915,0.999198,0.986037,0.004680,0.453728,0.000305,0.000151,0.000003,0.000305,0.000151,1.063562,0.000464,
2416,2248,3.5106933180654,-8.73552441575386,-0.000608351836660859,0.003642,-0.068208,-0.016090,0.197412,-3.123094,327.285917,19.666290,0.999002,0.981547,0.005469,0.482114,0.000691,0.000624,-0.000071,0.000736,0.000579,-32.351370,0.001318,
2401,2203,3.19227341144254,-9.72368486988687,0.00137817962564668,0.003695,-0.069557,-0.018129,0.206326,-3.238324,328.021180,19.519801,0.998607,0.981378,0.005637,0.438364,0.000783,0.000774,-0.000080,0.000858,0.000698,-43.425545,0.001559,
2371,3208,2.34891730244986,12.1829516842098,0.0386365258455612,0.007276,-0.066205,0.012615,0.263210,-2.995761,312.008857,22.686621,0.999415,0.991666,0.003744,0.447255,0.000020,0.000044,0.000014,0.000050,0.000014,65.562529,0.000068,
2386,2368,2.82999403165109,-6.10682036840492,-0.00964730297096139,0.003041,-0.068225,-0.001289,0.116445,-3.083963,325.154119,20.231181,0.998572,0.981618,0.005366,0.458697,0.000446,0.000361,-0.000008,0.000447,0.000360,-5.522793,0.000809,
2371,2353,2.50697686961638,-6.43623288499351,-0.00249278560733046,0.003245,-0.067513,-0.008681,0.152500,-3.085599,325.483406,20.200216,0.998748,0.983753,0.005187,0.496162,0.000460,0.000373,0.000000,0.000460,0.000373,0.059651,0.000835,
2371,2173,2.54190340560884,-10.3819927666355,-0.000325453062657743,0.002939,-0.070152,-0.017561,0.168772,-3.253950,328.429220,19.484689,0.999106,0.981211,0.005482,0.522481,0.000848,0.000860,-0.000059,0.000913,0.000795,-47.976516,0.001709,
2506,2488,5.42614948593991,-3.48060061397128,-0.0111399948457915,0.004762,-0.067337,-0.002004,0.196670,-3.046372,323.508947,20.357350,0.999153,0.984403,0.004926,0.457097,0.000372,0.000147,-0.000026,0.000375,0.000144,-6.458871,0.000535,
2431,2563,3.77534323777394,-1.84468805700328,-0.00165686465942372,0.004957,-0.067676,0.004548,0.182463,-3.025006,322.177998,20.801907,0.999407,0.988541,0.004306,0.458717,0.000234,0.000103,-0.000002,0.000234,0.000103,-0.968498,0.000345,
2506,2938,5.33392640688136,6.33198671365592,-0.00624935793325676,0.006248,-0.066917,0.009460,0.221248,-3.017373,316.237228,22.311593,0.999565,0.989875,0.003904,0.374459,0.000033,0.000001,0.000012,0.000037,-0.000003,19.173740,0.000041,
2461,2488,4.44474709313544,-3.48133227175808,-0.0124252406110372,0.004910,-0.066453,-0.008125,0.227439,-3.042143,323.409001,20.457971,0.999475,0.985278,0.004705,0.462708,0.000347,0.000149,-0.000027,0.000351,0.000145,-7.754910,0.000510,
2341,2908,1.74977923913635,5.66976834568528,-0.00856895715634209,0.006107,-0.065911,0.004867,0.237784,-2.980875,316.492713,21.883195,0.999166,0.989644,0.004115,0.405066,0.000008,0.000028,0.000018,0.000039,-0.000003,59.479108,0.000043,
2446,2638,4.08595858369285,-0.205149382923501,-0.0197434513218582,0.004613,-0.066605,-0.000366,0.185061,-3.019216,320.835341,21.108707,0.999470,0.989090,0.004184,0.400057,0.000166,0.000093,-0.000011,0.000168,0.000091,-8.580494,0.000262,
2476,2788,4.70957896745007,3.06651481449097,-0.0252245690796826,0.005401,-0.066390,0.001182,0.215117,-2.999175,318.440364,21.660779,0.999027,0.984721,0.004661,0.414387,0.000059,0.000036,0.000004,0.000059,0.000035,9.201905,0.000095,
2356,3238,2.01722520986177,12.832775170057,0.0351367240964464,0.007222,-0.066092,0.011127,0.266862,-2.976423,311.487903,22.703089,0.999551,0.992082,0.003473,0.452238,0.000019,0.000032,0.000007,0.000035,0.000016,65.380068,0.000052,
2386,2173,2.86879680458897,-10.3809770064503,-0.00411794738357685,0.002927,-0.070578,-0.012405,0.149930,-3.236986,328.388593,19.456081,0.999333,0.981813,0.005350,0.487812,0.000853,0.000861,-0.000074,0.000931,0.000783,-46.554589,0.001717,
2281,3103,0.412878664489885,9.89974944423394,0.0171898704720661,0.007099,-0.065477,0.005318,0.283988,-2.970862,313.617132,22.128217,0.999589,0.992551,0.003635,0.406813,0.000003,0.000018,-0.000002,0.000018,0.000002,-81.829579,0.000023,
2416,2053,3.5503589644891,-13.0186103015051,0.00899822594465149,0.003828,-0.073537,-0.020504,0.219573,-3.427633,330.540152,18.828209,0.997694,0.972928,0.006743,0.356190,0.001208,0.001171,-0.000111,0.001302,0.001077,-40.346887,0.002382,
2461,2383,4.465153165134,-5.77802577174228,-0.00659276346590332,0.004066,-0.068492,-0.002732,0.167563,-3.080038,325.101805,20.059880,0.999543,0.986194,0.004928,0.431566,0.000483,0.000358,-0.000062,0.000509,0.000333,-22.319024,0.000848,
2386,3298,2.65471433751454,14.138661890402,-0.00332340116409569,0.008055,-0.066005,0.013560,0.295245,-2.975345,310.216821,23.024849,0.999683,0.992128,0.003622,0.453784,0.000001,0.000014,0.000005,0.000016,-0.000001,69.521252,0.000018,
2371,3073,2.3731804738611,9.25486038253652,0.0184484264188995,0.006869,-0.066333,0.008141,0.260284,-2.993582,314.048082,22.365813,0.999585,0.991423,0.003679,0.410998,0.000009,0.000019,0.000023,0.000037,-0.000009,51.140436,0.000039,
2491,2638,5.06626682837319,-0.203592459795836,-0.0257287467904348,0.004697,-0.067105,0.002655,0.176371,-3.023854,320.881908,21.026355,0.999430,0.988407,0.004262,0.442905,0.000159,0.000060,-0.000028,0.000166,0.000053,-14.703937,0.000229,
2461,2728,4.39554379985647,1.75816081932736,-0.0182060500407033,0.005619,-0.066521,0.003695,0.215818,-3.004236,319.443659,21.460041,0.999585,0.991396,0.003744,0.381049,0.000091,0.000061,0.000017,0.000098,0.000054,24.337570,0.000154,
2491,2878,5.01923377334804,5.02379079803258,-0.00624420293257799,0.005553,-0.066982,0.006228,0.202245,-3.019801,317.157164,21.894387,0.999342,0.991963,0.003789,0.522692,0.000045,0.000042,0.000005,0.000049,0.000038,37.494149,0.000087,
2506,2953,5.33203135371911,6.65694767649578,0.00258452895172923,0.006543,-0.067234,0.007641,0.241706,-3.048327,316.087116,22.342031,0.999605,0.990441,0.003881,0.373454,0.000035,0.000013,0.000013,0.000042,0.000007,24.940505,0.000052,
2506,2503,5.4229865176168,-3.15203092158867,-0.0156666228799054,0.004970,-0.067223,-0.003532,0.212151,-3.070357,323.242692,20.473661,0.999207,0.984611,0.005045,0.379057,0.000329,0.000148,-0.000028,0.000334,0.000144,-8.479353,0.000490,
2506,2713,5.37867906196624,1.43265729799796,-0.0182652903682197,0.005037,-0.067091,0.003912,0.186838,-3.017660,319.776531,21.372532,0.999489,0.990264,0.003981,0.398780,0.000117,0.000036,0.000015,0.000119,0.000034,9.932802,0.000161,
2476,2638,4.73960440028232,-0.204607873103328,-0.0249812935444425,0.004683,-0.066931,-0.001169,0.190693,-3.021027,320.863294,20.996500,0.999586,0.989927,0.003908,0.487306,0.000158,0.000078,-0.000022,0.000164,0.000072,-14.145236,0.000242,
2371,2368,2.50327211286432,-6.10719763604712,-0.00330193234424314,0.003164,-0.067971,0.000176,0.117237,-3.061212,325.198033,20.297510,0.998583,0.982436,0.005208,0.466254,0.000438,0.000355,-0.000001,0.000438,0.000355,-0.507226,0.000794,
2371,3223,2.34612249574361,12.5082636398381,0.0383592113637974,0.007468,-0.066715,0.013697,0.268029,-3.010969,311.765356,22.737584,0.999510,0.992437,0.003503,0.420686,0.000021,0.000037,0.000011,0.000043,0.000016,62.731713,0.000061,
2341,3148,1.70881391429424,10.8792877484395,0.0371470847964588,0.007353,-0.066326,0.011224,0.272900,-3.002172,312.988145,22.453597,0.999448,0.992847,0.003660,0.386407,0.000009,0.000029,0.000010,0.000033,0.000005,68.329553,0.000042,
2221,3028,-0.877607869458114,8.26804686332481,0.0085968790191373,0.006429,-0.065173,0.004728,0.256910,-2.946918,314.861909,21.785152,0.999582,0.993000,0.003458,0.454131,0.000013,0.000012,-0.000003,0.000015,0.000010,-38.453442,0.000025,
2401,2218,3.18870135245151,-9.39238449854201,-0.0043790568116151,0.003234,-0.068640,-0.021664,0.198390,-3.197784,327.721545,19.704107,0.998871,0.981802,0.005693,0.342940,0.000750,0.000734,-0.000068,0.000811,0.000673,-41.631485,0.001486,
2446,2398,4.13465599022494,-5.45047318006571,-0.0106921425933137,0.004184,-0.068299,-0.004491,0.179774,-3.101649,324.805515,20.109068,0.999597,0.986773,0.004809,0.464207,0.000436,0.000340,-0.000043,0.000452,0.000323,-20.937443,0.000779,
2386,2383,2.82781310566918,-5.77867131808183,-0.00819457743824614,0.003597,-0.068168,-0.001831,0.143901,-3.102226,324.950855,20.317321,0.998894,0.983823,0.005188,0.398895,0.000427,0.000341,-0.000011,0.000428,0.000340,-6.962652,0.000770,
2431,2338,3.81893479407546,-6.76387983231267,-0.00361492734396052,0.003242,-0.068739,-0.005636,0.140728,-3.112039,325.770545,19.968933,0.998953,0.982125,0.005027,0.433952,0.000519,0.000413,-0.000040,0.000533,0.000400,-18.566473,0.000936,
2446,2218,4.17164524263834,-9.39317593660116,-0.00565162156806309,0.003898,-0.068920,-0.014121,0.201996,-3.174998,327.784953,19.404730,0.999298,0.983255,0.005186,0.443686,0.000786,0.000726,-0.000102,0.000862,0.000650,-36.762097,0.001516,
2431,2143,3.85949104672341,-11.0399719306825,0.00112383251700976,0.004048,-0.071368,-0.013587,0.205606,-3.293836,329.030401,19.172433,0.999178,0.978386,0.005871,0.366954,0.000960,0.000995,-0.000126,0.001105,0.000850,-49.001917,0.001961,
2416,2263,3.50763607880037,-8.40718459309996,0.00165116124077258,0.003669,-0.068798,-0.012185,0.184170,-3.154730,327.049185,19.751206,0.998876,0.981774,0.005424,0.415472,0.000656,0.000573,-0.000074,0.000699,0.000529,-30.277383,0.001232,
2401,1993,3.23403448678371,-14.3398208863248,0.0178198349512968,0.002981,-0.075915,-0.021534,0.183158,-3.534997,331.525899,18.601503,0.997982,0.965642,0.007218,0.376961,0.001397,0.001208,-0.000140,0.001471,0.001134,-28.011016,0.002613,
2431,2578,3.77228852105688,-1.51647844002471,0.000272790615497343,0.005214,-0.067880,0.010573,0.171975,-3.012489,321.939358,20.929544,0.999665,0.992256,0.003877,0.394262,0.000221,0.000099,0.000003,0.000221,0.000099,1.461892,0.000328,
2506,2968,5.32861857286772,6.98378987348539,-0.00108916530126635,0.006152,-0.066551,0.003076,0.241699,-3.033606,315.810476,22.416524,0.999538,0.989320,0.004163,0.374117,0.000030,0.000016,0.000022,0.000046,0.000000,36.010038,0.000054,
2446,2653,4.08323744929352,0.122141240609388,-0.0209330958861642,0.005027,-0.066395,0.000101,0.202409,-3.010250,320.598586,21.153583,0.999602,0.990094,0.003998,0.416890,0.000152,0.000087,-0.000008,0.000153,0.000086,-7.229973,0.000242,
2416,2068,3.54712983019625,-12.6896980440619,0.00873943639680874,0.003938,-0.074148,-0.015899,0.207616,-3.427637,330.284488,18.837721,0.998013,0.973744,0.006754,0.397766,0.001163,0.001159,-0.000109,0.001270,0.001052,-44.447119,0.002326,
2506,2728,5.37608024622556,1.75931445486251,-0.018182044601474,0.005220,-0.066728,0.000236,0.209640,-3.011184,319.555671,21.395783,0.999337,0.989197,0.004138,0.443531,0.000098,0.000030,0.000021,0.000105,0.000024,16.042939,0.000137,
2416,2503,3.45790891488877,-3.15394159339077,-0.0231143961978546,0.003985,-0.067528,-0.001324,0.159774,-3.072183,322.928069,20.598594,0.999492,0.989075,0.004241,0.442953,0.000282,0.000158,0.000001,0.000282,0.000158,0.423233,0.000446,
2491,2893,5.01550631293014,5.35286743368945,-0.0181322149201151,0.005834,-0.066517,0.005347,0.218751,-3.008025,316.827662,22.095630,0.998579,0.986141,0.004610,0.391743,0.000045,0.000035,0.000013,0.000054,0.000026,34.996243,0.000081,
2401,2443,3.14422950737817,-4.4669444455732,-0.00508764096207415,0.003923,-0.067478,-0.005331,0.171644,-3.066665,324.046225,20.435644,0.999214,0.986267,0.004832,0.455110,0.000358,0.000222,0.000012,0.000359,0.000221,4.992014,0.000586,
2506,2518,5.41903574784912,-2.8248395548962,-0.0149806541986095,0.004461,-0.067708,0.001061,0.170903,-3.054565,322.963459,20.476539,0.999309,0.985574,0.004896,0.454261,0.000290,0.000169,-0.000034,0.000299,0.000160,-14.663657,0.000466,
2356,3253,2.01440246749415,13.157739202419,0.0365816061487294,0.007351,-0.066215,0.013810,0.263317,-2.974032,311.250404,22.721645,0.999538,0.991955,0.003527,0.473412,0.000017,0.000031,0.000007,0.000034,0.000014,66.446744,0.000049,
2386,2188,2.86587802477564,-10.0509398098756,-0.000306458435488821,0.002697,-0.070279,-0.011307,0.135596,-3.203310,328.162973,19.621576,0.998700,0.981522,0.005508,0.402046,0.000811,0.000830,-0.000074,0.000895,0.000746,-48.562087,0.001643,
2341,2923,1.74672398500688,5.99581988707716,-0.00731552890619014,0.005961,-0.066317,0.007238,0.222705,-2.976667,316.243330,21.916025,0.998850,0.988410,0.004350,0.412506,0.000004,0.000027,0.000014,0.000034,-0.000002,65.214823,0.000038,
2476,2803,4.70671567496531,3.39305644577877,-0.0218885957718271,0.005696,-0.066754,0.005799,0.210931,-3.011529,318.219431,21.740007,0.998990,0.984034,0.004915,0.379291,0.000057,0.000034,0.000005,0.000058,0.000033,11.053726,0.000092,
2461,2743,4.39143980881158,2.08482099593376,-0.0246467524802938,0.005308,-0.066896,0.006582,0.190536,-3.018962,319.120212,21.457029,0.999610,0.990692,0.003829,0.424057,0.000086,0.000059,0.000016,0.000094,0.000051,24.833198,0.000147,
2461,2503,4.44133618263355,-3.15462373066151,-0.0042003143168472,0.004490,-0.067437,-0.000367,0.178688,-3.047257,323.185687,20.500622,0.999294,0.985848,0.004627,0.470336,0.000320,0.000151,-0.000031,0.000325,0.000146,-10.153273,0.000483,
2491,2653,5.06327413355006,0.123842828168371,-0.0242957365395569,0.004572,-0.066884,0.001551,0.174995,-3.017340,320.648103,21.109921,0.999366,0.987586,0.004438,0.425303,0.000151,0.000060,-0.000021,0.000156,0.000056,-12.544962,0.000219,
2371,3238,2.3433082771295,12.8344046390865,0.0334519622176686,0.007619,-0.065940,0.009888,0.288898,-2.983694,311.498375,22.800199,0.999630,0.993828,0.003202,0.425225,0.000021,0.000029,0.000007,0.000033,0.000016,59.197060,0.000050,
2476,2653,4.73656517303527,0.122566120823599,-0.0233651813799156,0.004569,-0.066785,-0.001087,0.185228,-3.020132,320.627120,21.063037,0.999573,0.989889,0.003916,0.478818,0.000144,0.000075,-0.000016,0.000148,0.000071,-12.479355,0.000223,
2506,2983,5.32532660733034,7.30971902788384,-0.000736264856641355,0.006155,-0.066791,0.005779,0.231327,-3.026251,315.557580,22.446600,0.999393,0.987617,0.004283,0.412062,0.000026,0.000017,0.000027,0.000049,-0.000006,40.353655,0.000054,
2371,3088,2.37042078217148,9.57998806763181,0.0238546055814481,0.006660,-0.066327,0.009392,0.246176,-3.005207,313.834028,22.398648,0.999374,0.989401,0.004089,0.406414,0.000010,0.000012,0.000017,0.000028,-0.000006,46.069631,0.000030,
2431,2353,3.8158874197849,-6.43519151949603,-0.00762399178762507,0.003303,-0.068385,-0.008024,0.152479,-3.121158,325.505845,20.032072,0.998786,0.981520,0.005282,0.413671,0.000496,0.000398,-0.000034,0.000506,0.000387,-17.326298,0.000896,
2416,2083,3.54449954388587,-12.3583563289438,0.0114392857319672,0.004235,-0.072767,-0.013576,0.213340,-3.349119,330.069351,19.028495,0.997698,0.974725,0.006849,0.336575,0.001120,0.001148,-0.000108,0.001242,0.001025,-48.647094,0.002271,
2401,2008,3.23106923887576,-14.0088877661321,0.013219785116064,0.003562,-0.075688,-0.018343,0.198322,-3.501795,331.260580,18.689575,0.997735,0.963120,0.007406,0.371460,0.001356,0.001203,-0.000132,0.001432,0.001127,-29.905783,0.002565,
2386,2398,2.82533367158534,-5.45165181564615,-0.00196480833756141,0.003390,-0.067822,-0.003404,0.140178,-3.092308,324.756530,20.322587,0.999149,0.985155,0.004949,0.448408,0.000400,0.000322,-0.000009,0.000401,0.000321,-6.208323,0.000723,
2506,2533,5.41595260170981,-2.49601159175205,-0.0173693301396156,0.004506,-0.067123,-0.001179,0.181924,-3.026862,322.710003,20.594646,0.999508,0.987546,0.004473,0.426309,0.000277,0.000143,-0.000016,0.000279,0.000141,-6.778371,0.000427,
2341,3163,1.70622841352383,11.2051066014637,0.037655292488239,0.007316,-0.065658,0.008043,0.282673,-2.964501,312.756025,22.487479,0.999534,0.992672,0.003713,0.425676,0.000010,0.000036,0.000012,0.000041,0.000005,68.132949,0.000050,
2446,2413,4.13271129983839,-5.12207175843405,-0.00590244279857188,0.004784,-0.067649,-0.005332,0.210674,-3.075257,324.632856,20.215977,0.999592,0.987281,0.004828,0.437245,0.000412,0.000311,-0.000028,0.000419,0.000304,-14.327372,0.000726,
2446,2233,4.16920193376804,-9.06500863283792,0.00339918504295156,0.003786,-0.068757,-0.013309,0.193974,-3.171479,327.609929,19.499486,0.998838,0.978032,0.005772,0.406561,0.000749,0.000691,-0.000090,0.000814,0.000626,-35.999875,0.001445,
2461,2518,4.43837692261903,-2.82722919766249,0.000112765988035335,0.004259,-0.067437,0.000294,0.165623,-3.044571,322.965058,20.566630,0.998900,0.983195,0.004882,0.462543,0.000297,0.000155,-0.000034,0.000305,0.000147,-12.818098,0.000461,
2401,2233,3.18528243627323,-9.0649879313065,0.00403155879001815,0.002996,-0.069849,-0.009948,0.144702,-3.187462,327.495971,19.714640,0.998991,0.982556,0.005541,0.390781,0.000715,0.000692,-0.000060,0.000764,0.000643,-39.684678,0.001408,
2506,2743,5.37152802378456,2.08820596166015,-0.0302432228621115,0.005061,-0.066843,0.003264,0.190596,-3.009594,319.190099,21.537172,0.999647,0.989488,0.003987,0.365088,0.000087,0.000037,0.000018,0.000093,0.000031,18.251007,0.000129,
2476,2818,4.70378859402701,3.71895886378056,-0.017932271293148,0.005531,-0.066769,0.006350,0.201315,-3.008506,317.998421,21.753761,0.999175,0.985528,0.004811,0.424987,0.000046,0.000025,0.000006,0.000047,0.000023,15.371229,0.000072,
2431,2593,3.76909128274231,-1.19058619105273,-0.00308186835223978,0.004535,-0.067100,0.001757,0.173666,-3.029392,321.670124,20.832542,0.999576,0.990395,0.004057,0.525295,0.000204,0.000091,0.000008,0.000204,0.000091,4.118912,0.000302,
2446,2668,4.08084702691174,0.448625170545554,-0.0185989672486926,0.005370,-0.066571,-0.000801,0.221487,-3.018430,320.393400,21.175639,0.999421,0.988252,0.004278,0.439323,0.000139,0.000083,-0.000003,0.000139,0.000082,-3.337739,0.000224,
2461,2758,4.3885432931449,2.41141874547853,-0.0239565085344111,0.005549,-0.067179,0.008629,0.193786,-3.022651,318.884826,21.498914,0.999596,0.989474,0.003978,0.433003,0.000086,0.000060,0.000013,0.000091,0.000055,21.737016,0.000147,
2341,2938,1.74440183153871,6.32058088411856,-0.00234383772635738,0.006049,-0.066649,0.006844,0.227920,-3.013403,316.046108,21.901203,0.998655,0.987451,0.004501,0.426662,0.000004,0.000022,0.000014,0.000030,-0.000003,61.459909,0.000033,
2491,2668,5.06104579761868,0.450247072508816,-0.0239245137909734,0.005135,-0.066623,-0.001448,0.212399,-3.017481,320.444813,21.100871,0.999259,0.986314,0.004582,0.493763,0.000142,0.000056,-0.000016,0.000145,0.000053,-10.138193,0.000205,
2416,2518,3.45571897065199,-2.82695709733301,-0.0207223108891412,0.004160,-0.067009,-0.006134,0.185613,-3.056241,322.730640,20.597143,0.999246,0.987046,0.004582,0.509041,0.000262,0.000158,0.000000,0.000262,0.000158,0.246305,0.000424,
2371,2383,2.50013545422152,-5.77883348819776,-0.00546247629642949,0.002846,-0.067979,-0.002618,0.112556,-3.082656,324.932492,20.371170,0.998941,0.984011,0.005095,0.414122,0.000419,0.000337,-0.000003,0.000419,0.000336,-1.792551,0.000757,
2506,2998,5.32250865166232,7.63588204934518,0.00322315191880307,0.006190,-0.066819,0.006862,0.228755,-3.021333,315.342523,22.529209,0.999495,0.989015,0.004000,0.394730,0.000023,0.000011,0.000044,0.000061,-0.000027,40.915034,0.000061,
2431,2158,3.85767126982139,-10.7126436845789,0.0104327833211073,0.004050,-0.070453,-0.018370,0.223711,-3.263181,328.884453,19.142109,0.999269,0.977635,0.005778,0.480434,0.000919,0.000910,-0.000127,0.001042,0.000787,-43.968493,0.001835,
2416,2278,3.50406351279042,-8.0781034296814,-0.0060758286713849,0.003554,-0.068642,-0.013576,0.184075,-3.158899,326.741980,19.780089,0.998949,0.982898,0.005219,0.432754,0.000626,0.000538,-0.000060,0.000656,0.000507,-26.913113,0.001166,
2401,2023,3.22680123437063,-13.677387797144,0.00622332783910906,0.002785,-0.074038,-0.018149,0.162785,-3.437092,330.924082,18.777205,0.997809,0.969303,0.006976,0.398389,0.001307,0.001192,-0.000118,0.001381,0.001119,-32.023005,0.002504,
2431,2368,3.81344359523052,-6.10718313802433,-0.00226431671217142,0.003469,-0.068031,-0.007166,0.157091,-3.119114,325.312193,20.118517,0.998954,0.982598,0.005111,0.380846,0.000474,0.000377,-0.000032,0.000484,0.000367,-16.677436,0.000854,
2506,2548,5.4144627535251,-2.16963703545994,-0.00314644217007753,0.004822,-0.067334,-0.002317,0.200699,-3.054200,322.604388,20.695406,0.999686,0.989899,0.004139,0.359815,0.000252,0.000104,-0.000026,0.000256,0.000100,-9.584598,0.000367,
2491,2908,5.01276380596265,5.67884775776503,-0.00702560503833638,0.005598,-0.066859,0.009693,0.191091,-3.014014,316.647897,22.201408,0.998907,0.985939,0.004662,0.338345,0.000040,0.000010,0.000021,0.000051,0.000000,27.360663,0.000058,
2446,2428,4.12796026784303,-4.7932628259023,-0.0138641225059928,0.004134,-0.068422,0.000049,0.160595,-3.093954,324.272767,20.289575,0.999098,0.984625,0.005044,0.399141,0.000399,0.000285,-0.000014,0.000401,0.000283,-6.679358,0.000688,
2476,2668,4.73362772649013,0.449050065365078,-0.0258926326085884,0.005033,-0.066958,0.000619,0.199950,-3.028941,320.376917,21.045720,0.999389,0.987299,0.004297,0.544559,0.000134,0.000070,-0.000010,0.000135,0.000069,-8.676695,0.000208,
2341,3178,1.70327578147986,11.5306284681874,0.03409427556835,0.007434,-0.065619,0.007629,0.289617,-2.960638,312.487254,22.507366,0.999624,0.993709,0.003650,0.445162,0.000012,0.000045,0.000014,0.000050,0.000007,70.167944,0.000062,
2461,2533,4.43504173388699,-2.49878264181056,-0.00372879718958075,0.004335,-0.067436,0.001012,0.166395,-3.043189,322.689676,20.661602,0.999273,0.987382,0.004398,0.424523,0.000285,0.000129,-0.000022,0.000288,0.000126,-7.806598,0.000424,
2371,3253,2.34014177187508,13.1597887267041,0.0282997453234657,0.007848,-0.065952,0.011368,0.294230,-2.974798,311.214186,22.814459,0.999608,0.992667,0.003395,0.459759,0.000017,0.000031,0.000006,0.000033,0.000015,67.917239,0.000049,
2386,2203,2.86319974382893,-9.72131308968356,-0.00649299798266156,0.003464,-0.070115,-0.010484,0.167879,-3.217604,327.901307,19.697336,0.997867,0.979722,0.005875,0.357924,0.000771,0.000777,-0.000070,0.000844,0.000704,-46.241019,0.001550,
2401,2458,3.14097099996018,-4.13838936229008,-0.0125121825195151,0.004296,-0.067138,-0.003809,0.183357,-3.046349,323.752428,20.462229,0.999237,0.986313,0.004897,0.496022,0.000337,0.000202,0.000012,0.000338,0.000201,5.019122,0.000545,
2506,2758,5.36818656367212,2.41390469826835,-0.0303656487439525,0.005074,-0.067230,0.006177,0.179786,-3.012928,318.934175,21.490491,0.999672,0.989888,0.003903,0.469800,0.000083,0.000048,0.000016,0.000089,0.000042,21.305774,0.000134,
2401,2248,3.18193129554988,-8.7360572036109,-0.00262137725576395,0.003113,-0.068949,-0.009605,0.149165,-3.110128,327.202229,19.647518,0.999013,0.981907,0.005480,0.583471,0.000681,0.000624,-0.000060,0.000719,0.000587,-32.274073,0.001308,
2491,2683,5.05720745927607,0.777880061459264,-0.0253522813829932,0.004982,-0.067042,0.004286,0.183268,-3.015648,320.159036,21.192714,0.999513,0.989614,0.004072,0.462935,0.000138,0.000051,-0.000014,0.000140,0.000048,-8.903111,0.000195,
2506,3013,5.32010427478935,7.96190199176425,0.00546145429842682,0.006619,-0.066635,0.006022,0.251829,-3.016176,315.138771,22.590317,0.999467,0.990228,0.003798,0.399341,0.000022,0.000011,0.000049,0.000065,-0.000033,41.672723,0.000065,
2461,2773,4.3849824277602,2.73877659289991,-0.032017918860106,0.004981,-0.066735,0.000163,0.199802,-3.023481,318.578581,21.543635,0.999330,0.987211,0.004359,0.442090,0.000074,0.000035,0.000007,0.000075,0.000034,10.346967,0.000111,
2476,2833,4.70175969401819,4.04493942065851,-0.0144292208963748,0.005898,-0.066488,0.002040,0.234643,-3.019964,317.816627,21.789418,0.999380,0.987261,0.004273,0.434436,0.000042,0.000029,0.000008,0.000046,0.000026,24.084391,0.000072,
2386,2413,2.82313272213806,-5.12313291900155,-0.00682678535861214,0.003885,-0.066812,-0.010740,0.189569,-3.073947,324.522133,20.355163,0.999254,0.984454,0.004920,0.479263,0.000375,0.000297,-0.000002,0.000375,0.000297,-1.135923,0.000673,
2446,2248,4.16617573699777,-8.73550949517322,-0.00255784074863641,0.004049,-0.068611,-0.015874,0.215618,-3.182964,327.339124,19.580668,0.998878,0.977684,0.005770,0.368780,0.000713,0.000624,-0.000088,0.000767,0.000570,-31.607854,0.001342,
2431,2608,3.76448164422324,-0.861579732321708,-0.0169065218057085,0.004180,-0.067421,0.003634,0.150344,-3.035031,321.286708,20.925290,0.999393,0.986764,0.004495,0.477951,0.000184,0.000092,0.000006,0.000185,0.000092,3.914585,0.000281,
2416,2533,3.45247415869612,-2.49916209013797,-0.0143474388602272,0.004017,-0.067870,0.002060,0.148755,-3.068168,322.503248,20.738256,0.999120,0.987827,0.004614,0.404790,0.000248,0.000131,0.000005,0.000248,0.000131,2.503349,0.000385,
2431,2173,3.85405973132449,-10.3825935470516,0.0108245549116077,0.003820,-0.070711,-0.013139,0.193847,-3.251930,328.614925,19.289328,0.999174,0.981755,0.005244,0.397376,0.000879,0.000862,-0.000122,0.000993,0.000748,-43.046385,0.001746,
2506,2563,5.41160303869723,-1.8432882545189,-0.000786586787910437,0.005199,-0.067015,0.001680,0.202681,-3.024535,322.382631,20.635064,0.999703,0.990685,0.004057,0.512003,0.000240,0.000098,-0.000026,0.000245,0.000093,-10.085872,0.000349,
2416,2098,3.54047166074676,-12.0288073218615,0.00552991345676901,0.003630,-0.072369,-0.013545,0.185707,-3.318637,329.750433,19.014558,0.998436,0.975726,0.006500,0.432516,0.001074,0.001111,-0.000111,0.001205,0.000980,-49.733701,0.002189,
2446,2683,4.07690872590271,0.776453304391708,-0.0217723449443952,0.004802,-0.066472,0.000509,0.190600,-3.000690,320.091262,21.254285,0.999208,0.986848,0.004431,0.431260,0.000132,0.000082,-0.000004,0.000132,0.000082,-4.254336,0.000216,
2401,2038,3.22417874189214,-13.3474501584063,0.00726008847664161,0.003039,-0.073063,-0.017624,0.172901,-3.386461,330.700722,18.833100,0.997672,0.971479,0.006829,0.442316,0.001253,0.001160,-0.000110,0.001326,0.001087,-33.526391,0.002417,
2416,2293,3.50126569166277,-7.74984785936029,-0.00512492328806502,0.003911,-0.069173,-0.010092,0.187483,-3.180608,326.510868,19.844569,0.998356,0.979628,0.005821,0.396297,0.000597,0.000504,-0.000057,0.000624,0.000477,-25.350942,0.001104,
2491,2923,5.00864206702984,6.0064980558724,-0.0222573390744287,0.005669,-0.066459,0.007760,0.202010,-2.986223,316.285278,22.241830,0.999313,0.985975,0.004438,0.384505,0.000040,0.000005,0.000020,0.000049,-0.000005,24.723383,0.000054,
2506,2773,5.36589872241469,2.7406504389842,-0.0299898413202868,0.005428,-0.066685,0.001145,0.215696,-3.021818,318.728673,21.553864,0.999617,0.990364,0.003934,0.458619,0.000072,0.000029,0.000010,0.000074,0.000027,12.690058,0.000105,
2431,2383,3.81035544591515,-5.77819847024512,-0.00640065438432202,0.003831,-0.067959,-0.005508,0.167607,-3.094551,325.044706,20.184504,0.999440,0.985899,0.004817,0.391280,0.000456,0.000354,-0.000037,0.000469,0.000342,-18.046765,0.000814,
2476,2683,4.72997559845817,0.777124244838923,-0.0264632977800829,0.004725,-0.067250,0.003458,0.174982,-3.027094,320.102283,21.185129,0.999522,0.988842,0.004132,0.464223,0.000130,0.000066,-0.000009,0.000131,0.000065,-8.080905,0.000200,
2476,2848,4.69798227006502,4.37199760144657,-0.0223494047609734,0.005989,-0.066872,0.003924,0.231478,-3.046131,317.502154,21.857449,0.999150,0.986998,0.004373,0.396635,0.000031,0.000025,0.000005,0.000034,0.000023,29.793777,0.000057,
2461,2548,4.43238436040397,-2.17003780937283,-0.00967205470851695,0.004677,-0.066869,-0.005348,0.206269,-3.039111,322.435694,20.767790,0.999600,0.991556,0.003857,0.377964,0.000265,0.000105,-0.000022,0.000268,0.000102,-7.736377,0.000382,
2446,2443,4.12609363536147,-4.46683665113513,-0.00166395661130991,0.004251,-0.068076,-0.000117,0.166711,-3.098674,324.138038,20.325653,0.998245,0.981364,0.005448,0.411385,0.000393,0.000220,-0.000001,0.000393,0.000220,-0.429671,0.000621,
2371,3268,2.33635918017414,13.4854955580462,0.018275027443508,0.007585,-0.066012,0.009545,0.288571,-2.986828,310.878016,22.857013,0.999653,0.992946,0.003404,0.444823,0.000012,0.000033,0.000003,0.000033,0.000012,82.939117,0.000047,
2491,2698,5.05399543608694,1.10583908089046,-0.0283517229796644,0.004909,-0.066884,0.001939,0.188970,-3.025973,319.894863,21.318485,0.999636,0.989823,0.003988,0.386111,0.000128,0.000058,-0.000011,0.000130,0.000056,-9.041478,0.000191,
2506,3028,5.31741738760808,8.2873016325703,0.0104705412418298,0.006668,-0.066549,0.006833,0.250981,-3.015564,314.934500,22.621083,0.999514,0.992022,0.003672,0.429431,0.000023,0.000014,0.000050,0.000068,-0.000032,42.299128,0.000068,
2386,2218,2.86106345280144,-9.39289559280509,-0.00388955477808395,0.003481,-0.069474,-0.017245,0.193075,-3.216177,327.706054,19.744586,0.998356,0.979871,0.005945,0.357628,0.000740,0.000737,-0.000058,0.000797,0.000680,-44.293078,0.001478,
2461,2788,4.38300528202847,3.06481271581881,-0.0207590873027925,0.005103,-0.066297,0.000244,0.205267,-3.009026,318.433777,21.607178,0.999205,0.985794,0.004507,0.447465,0.000071,0.000040,0.000007,0.000072,0.000038,12.736605,0.000112,
2401,2473,3.13824313024077,-3.8106632232574,-0.0106078352403642,0.003999,-0.066889,-0.008074,0.185316,-3.046671,323.527002,20.525578,0.999142,0.987008,0.004754,0.479138,0.000312,0.000176,0.000009,0.000312,0.000176,3.755746,0.000495,
2401,2263,3.17848856952898,-8.40518245362416,-0.0097207219632196,0.003379,-0.069141,-0.006991,0.151888,-3.122604,326.902275,19.849476,0.999111,0.985033,0.004948,0.417119,0.000645,0.000573,-0.000063,0.000682,0.000537,-29.998328,0.001222,
2491,2938,5.00634247226667,6.33227261032662,-0.012917912271746,0.005851,-0.066741,0.010067,0.201414,-2.995141,316.117835,22.326244,0.999467,0.989041,0.003943,0.349336,0.000031,0.000006,0.000018,0.000040,-0.000004,27.919580,0.000045,
2506,2578,5.40693121040773,-1.51320385732886,-0.0153895532515662,0.004877,-0.067074,0.001523,0.188575,-3.007875,322.001181,20.786758,0.999405,0.986623,0.004797,0.439217,0.000222,0.000083,-0.000024,0.000226,0.000080,-9.395956,0.000317,
2416,2548,3.44936274975204,-2.17129570262853,-0.0176747320811614,0.004246,-0.067585,0.003644,0.153627,-3.036916,322.236449,20.760360,0.999199,0.987521,0.004562,0.462648,0.000231,0.000112,0.000006,0.000231,0.000112,2.932989,0.000350,
2446,2263,4.16312174708737,-8.40761320854201,0.00541556407267763,0.003905,-0.069682,-0.009132,0.183546,-3.187721,327.131075,19.656992,0.998971,0.977161,0.005846,0.341895,0.000677,0.000575,-0.000089,0.000729,0.000523,-30.020476,0.001258,
2506,2788,5.36327696973488,3.06736120393374,-0.0273149685378939,0.005667,-0.066765,0.000961,0.227340,-3.033642,318.518006,21.639323,0.999452,0.989499,0.004174,0.422391,0.000068,0.000034,0.000002,0.000069,0.000034,2.880000,0.000105,
2446,2698,4.07273730474286,1.10385626679731,-0.028519510112119,0.004588,-0.066971,0.005450,0.162155,-3.015752,319.762020,21.302449,0.999559,0.989546,0.004084,0.420770,0.000121,0.000084,-0.000001,0.000121,0.000084,-0.824721,0.000207,
2401,2053,3.22068411979931,-13.0158021838637,0.00185892393864151,0.003075,-0.073235,-0.015602,0.167175,-3.373654,330.407242,19.016317,0.998241,0.975115,0.006525,0.321137,0.001206,0.001155,-0.000101,0.001285,0.001077,-37.917198,0.002365,
2386,2428,2.82041926768073,-4.7945930977346,-0.00693290371327748,0.004127,-0.066727,-0.010098,0.198452,-3.055437,324.286677,20.440230,0.999266,0.987164,0.004723,0.457474,0.000361,0.000272,0.000008,0.000361,0.000271,5.346954,0.000634,
2476,2698,4.72735082486318,1.10433595023333,-0.0236657781445047,0.004848,-0.067062,0.002568,0.184059,-3.020088,319.890258,21.272269,0.999630,0.988743,0.004202,0.440933,0.000116,0.000072,-0.000006,0.000117,0.000071,-7.063529,0.000190,
2461,2563,4.42816636119732,-1.841852015528,-0.0243758651841404,0.005110,-0.067159,-0.000387,0.207378,-3.040601,322.070007,20.756848,0.999191,0.988549,0.004465,0.443073,0.000252,0.000101,-0.000018,0.000254,0.000099,-6.794322,0.000364,
2416,2113,3.53904750196147,-11.6996648601061,0.0121678877122804,0.004247,-0.070964,-0.018170,0.231367,-3.278454,329.609154,19.096472,0.998745,0.976020,0.006251,0.441156,0.001036,0.001082,-0.000109,0.001170,0.000947,-50.935089,0.002122,
2431,2188,3.85176898530192,-10.0535272507042,0.0165880670282377,0.003915,-0.070421,-0.014752,0.204254,-3.254484,328.430875,19.422262,0.999557,0.987038,0.004594,0.314092,0.000840,0.000832,-0.000115,0.000951,0.000720,-44.011141,0.001677,
2431,2623,3.76134721198931,-0.533786923464561,-0.0198295961282042,0.004244,-0.067328,0.003445,0.154001,-3.037223,321.021776,21.002788,0.999373,0.987996,0.004332,0.448986,0.000175,0.000087,-0.000002,0.000175,0.000087,-1.213619,0.000267,
2371,3283,2.33347093509603,13.8106046619665,0.0130691035086556,0.007937,-0.066161,0.008971,0.306789,-3.000486,310.606335,22.877313,0.999625,0.992461,0.003476,0.450343,0.000010,0.000028,0.000000,0.000028,0.000010,88.901667,0.000040,
2446,2458,4.12269119766268,-4.13760335183432,-0.00714365442468079,0.003856,-0.066811,-0.005571,0.169416,-3.059911,323.850842,20.414311,0.999046,0.984757,0.004942,0.415428,0.000370,0.000199,-0.000003,0.000370,0.000199,-0.916943,0.000577,
2416,2308,3.49876787503849,-7.42160035868773,0.00109790187212866,0.003767,-0.068230,-0.011217,0.185424,-3.120684,326.317683,19.884465,0.998854,0.984455,0.005032,0.466110,0.000573,0.000463,-0.000048,0.000591,0.000444,-20.590188,0.001039,
2431,2398,3.80742569367795,-5.45078733178359,-0.00571712995849794,0.004138,-0.068275,-0.001564,0.166997,-3.097208,324.807069,20.185428,0.999597,0.986597,0.004832,0.439388,0.000427,0.000337,-0.000032,0.000437,0.000326,-17.770228,0.000766,
2491,2713,5.05047831261566,1.4324459552826,-0.0303432966435935,0.004769,-0.066733,0.003558,0.176431,-3.009957,319.621310,21.306914,0.999595,0.989601,0.004214,0.472991,0.000110,0.000052,0.000003,0.000110,0.000052,2.710658,0.000165,
2461,2803,4.37919225283644,3.39260202093394,-0.0260517176437247,0.005217,-0.066956,0.005800,0.189372,-3.013510,318.128332,21.726463,0.999211,0.986261,0.004542,0.377982,0.000066,0.000037,0.000008,0.000068,0.000035,14.456648,0.000105,
2506,3043,5.3140448490058,8.61413729188221,0.0118858822474976,0.006542,-0.066788,0.009984,0.232978,-3.003643,314.682041,22.752750,0.999685,0.991929,0.003843,0.369836,0.000021,0.000025,0.000061,0.000084,-0.000038,45.871275,0.000084,
2476,2863,4.69512885699099,4.69797958784682,-0.016360120990953,0.005732,-0.066884,0.004497,0.217509,-3.046084,317.293520,21.908899,0.999046,0.985619,0.004513,0.401442,0.000031,0.000028,0.000004,0.000034,0.000026,34.890247,0.000060,
2491,2953,5.00432631687101,6.65690436382832,-0.00647274838706835,0.006332,-0.067301,0.009718,0.224565,-3.034748,315.950656,22.318628,0.999398,0.988779,0.004054,0.375642,0.000034,0.000013,0.000020,0.000045,0.000001,30.909774,0.000053,
2386,2233,2.85795658447606,-9.06566279868089,0.0142380971148555,0.002768,-0.070504,-0.005448,0.117840,-3.192549,327.539733,19.827217,0.998891,0.982447,0.005753,0.344354,0.000704,0.000691,-0.000050,0.000748,0.000648,-41.233669,0.001397,
2506,2593,5.40292774944487,-1.18386105902224,-0.0282356616013431,0.004721,-0.066827,-0.002730,0.197981,-3.016724,321.658374,20.917893,0.999762,0.993522,0.003776,0.361587,0.000202,0.000074,-0.000014,0.000203,0.000073,-6.185337,0.000286,
2506,2803,5.35922771283174,3.3945927269864,-0.027418326374459,0.005109,-0.066792,0.005433,0.184477,-3.017291,318.228943,21.727421,0.999041,0.985740,0.004976,0.411863,0.000069,0.000037,-0.000005,0.000070,0.000036,-8.515757,0.000108,
2401,2068,3.21708078834287,-12.6869672571062,-0.0055063524754928,0.003155,-0.073511,-0.013260,0.162314,-3.388499,330.099860,18.955049,0.998916,0.977826,0.006380,0.416783,0.001161,0.001146,-0.000096,0.001250,0.001057,-42.821725,0.002309,
2401,2488,3.13504796690937,-3.48266498271706,-0.00905090795924934,0.003949,-0.067237,-0.003737,0.167204,-3.058126,323.278416,20.626518,0.999133,0.988127,0.004544,0.413602,0.000296,0.000153,0.000006,0.000297,0.000152,2.492085,0.000457,
2401,2278,3.17382972742542,-8.07457938873559,-0.0241874257395693,0.002756,-0.069093,-0.007557,0.125418,-3.156504,326.511986,19.979716,0.999705,0.993764,0.003560,0.301309,0.000617,0.000537,-0.000050,0.000641,0.000513,-25.835216,0.001157,
2371,3298,2.32995138201565,14.1362752869743,0.00534374375035895,0.008117,-0.066304,0.011748,0.305161,-2.993965,310.293187,22.920247,0.999672,0.992803,0.003438,0.453511,0.000005,0.000016,0.000001,0.000017,0.000005,84.375101,0.000023,
2446,2713,4.06930433694323,1.43149980034155,-0.0344214916066221,0.004357,-0.066350,0.002023,0.164581,-3.006810,319.470423,21.360998,0.999685,0.991518,0.003796,0.423816,0.000107,0.000082,0.000007,0.000109,0.000080,14.899216,0.000189,
2446,2278,4.16021417287908,-8.0779962736962,0.0022403752846003,0.004144,-0.068928,-0.010621,0.200352,-3.145579,326.878073,19.734685,0.999029,0.977866,0.005815,0.361109,0.000643,0.000537,-0.000075,0.000682,0.000498,-27.358640,0.001185,
2461,2578,4.42390484400888,-1.51395676931828,-0.0348940511861997,0.004859,-0.067284,0.000989,0.190597,-3.062391,321.721436,20.783043,0.999465,0.991359,0.004201,0.450578,0.000235,0.000093,-0.000012,0.000236,0.000092,-4.768360,0.000339,
2386,2443,2.81614395086881,-4.46638274620945,-0.0129084805665229,0.003772,-0.067428,-0.003055,0.156643,-3.065220,323.951838,20.473593,0.998937,0.987795,0.004825,0.459232,0.000349,0.000226,0.000020,0.000352,0.000223,8.807931,0.000579,
2416,2128,3.53420027686586,-11.3680073291562,-0.00293060326475825,0.003679,-0.071125,-0.016904,0.200722,-3.292160,329.209787,19.231335,0.999082,0.978504,0.005861,0.344325,0.000999,0.001048,-0.000108,0.001134,0.000913,-51.389808,0.002051,
2416,2563,3.44655373628911,-1.84356350961441,-0.0200831941083379,0.004358,-0.067126,0.000906,0.168973,-3.011229,321.987803,20.789034,0.998912,0.983791,0.004811,0.508438,0.000215,0.000107,0.000008,0.000215,0.000107,4.376219,0.000328,
2491,2968,5.00195126018159,6.98263435597763,-0.00410401128709736,0.006239,-0.066800,0.002733,0.247321,-3.043811,315.748157,22.356692,0.999282,0.987192,0.004385,0.386625,0.000032,0.000013,0.000029,0.000053,-0.000008,35.669853,0.000057,
2491,2728,5.04775923181937,1.76017508323739,-0.0330212229467861,0.005091,-0.066635,0.000389,0.203454,-3.010981,319.381100,21.414691,0.999554,0.991382,0.003708,0.423260,0.000090,0.000044,0.000011,0.000092,0.000042,12.473695,0.000137,
2446,2473,4.11979615979555,-3.80956634420703,-0.00408792757156107,0.003812,-0.066860,-0.004416,0.163114,-3.041890,323.626376,20.498598,0.999407,0.987136,0.004567,0.402699,0.000345,0.000179,-0.000008,0.000345,0.000179,-2.778567,0.000533,
2431,2638,3.75832250086822,-0.206254573839686,-0.0235693032264521,0.004228,-0.066862,0.000146,0.165644,-3.037414,320.758065,21.052534,0.999488,0.989979,0.004139,0.449650,0.000160,0.000098,-0.000006,0.000160,0.000097,-5.901945,0.000260,
2431,2203,3.84824554085464,-9.72446120552683,0.00692005324270895,0.003963,-0.069360,-0.016950,0.215023,-3.237689,328.118786,19.378600,0.999358,0.984512,0.005001,0.427474,0.000800,0.000767,-0.000109,0.000894,0.000673,-40.692775,0.001572,
2506,2818,5.35734287930018,3.72095963621739,-0.0230202979876708,0.006059,-0.067155,0.006666,0.223164,-3.020054,318.059791,21.793540,0.999252,0.987606,0.004514,0.403930,0.000060,0.000030,0.000005,0.000060,0.000029,8.578731,0.000091,
2506,2608,5.4002440976442,-0.857674407846638,-0.0262394058570976,0.004844,-0.066506,-0.004162,0.209327,-3.018374,321.442936,20.886321,0.999782,0.993160,0.003847,0.453198,0.000183,0.000070,-0.000009,0.000184,0.000070,-4.497114,0.000262,
2506,3058,5.31165356558951,8.93831537532007,0.0187312665881905,0.006748,-0.067157,0.011033,0.238157,-3.029269,314.499819,22.716021,0.999699,0.991707,0.003955,0.441088,0.000025,0.000016,0.000055,0.000076,-0.000035,42.574501,0.000076,
2431,2413,3.80445751230772,-5.12210470163699,-0.0106428203175142,0.004229,-0.067417,-0.005437,0.185855,-3.056629,324.541267,20.211077,0.999513,0.986547,0.004815,0.506148,0.000403,0.000309,-0.000019,0.000407,0.000305,-11.086402,0.000714,
2461,2818,4.37668764736656,3.71820782979274,-0.0211069392952936,0.005202,-0.066849,0.004320,0.194291,-3.015225,317.930361,21.725296,0.999112,0.985496,0.004773,0.431882,0.000053,0.000026,0.000007,0.000055,0.000025,13.177321,0.000081,
2416,2323,3.49528728085138,-7.09230892808511,0.000501055546578755,0.003330,-0.067750,-0.010685,0.163666,-3.095078,326.047565,19.990827,0.998622,0.982591,0.005232,0.435397,0.000544,0.000430,-0.000037,0.000555,0.000419,-16.301483,0.000977,
2476,2878,4.69120069363917,5.02548966658526,-0.0218636819294602,0.005580,-0.066921,0.007675,0.198488,-3.022937,316.982700,21.996998,0.998396,0.985281,0.004908,0.393248,0.000033,0.000035,0.000011,0.000045,0.000023,48.362405,0.000069,
2386,1993,2.905600327852,-14.3381606126256,0.0148701151445039,0.002695,-0.074951,-0.023079,0.175539,-3.495783,331.477470,18.746111,0.997878,0.938593,0.009163,0.379013,0.001400,0.001203,-0.000111,0.001451,0.001153,-24.202475,0.002609,
2386,2248,2.85380069365058,-8.73451914119991,-0.00574823428769378,0.002929,-0.069335,-0.007348,0.132496,-3.136710,327.144354,19.845988,0.998950,0.982370,0.005537,0.427867,0.000670,0.000621,-0.000049,0.000700,0.000591,-31.619009,0.001293,
2401,2503,3.13142389043313,-3.15363400199058,-0.0175215571462672,0.004084,-0.067208,-0.001731,0.166157,-3.047146,322.962635,20.713162,0.999356,0.988592,0.004383,0.384903,0.000272,0.000160,0.000003,0.000272,0.000160,1.725723,0.000436,
2491,2983,4.99851831507338,7.30971873390531,-0.00479111341388716,0.006057,-0.066638,0.004138,0.233679,-3.026902,315.482663,22.476619,0.999230,0.987512,0.004249,0.341779,0.000030,0.000013,0.000031,0.000054,-0.000011,37.135845,0.000057,
2401,2083,3.21564932286663,-12.3578012836845,0.00579286786842204,0.003410,-0.072532,-0.017511,0.189707,-3.363495,329.979207,19.096441,0.998255,0.974686,0.006613,0.348643,0.001117,0.001134,-0.000095,0.001221,0.001030,-47.670871,0.002254,
2401,2293,3.17120195671439,-7.74765923676835,-0.0196381059375312,0.003045,-0.069475,-0.002932,0.121808,-3.154800,326.304396,19.936047,0.999371,0.990178,0.004158,0.394333,0.000589,0.000505,-0.000047,0.000610,0.000484,-24.158228,0.001096,
2386,2458,2.81332669982445,-4.13731663769898,-0.0134659580961056,0.004199,-0.067084,0.000786,0.162643,-3.021057,323.709162,20.587436,0.999038,0.986919,0.004850,0.434356,0.000327,0.000208,0.000021,0.000330,0.000205,9.599425,0.000540,
2416,2578,3.44373753845422,-1.51537778345629,-0.0195006294444511,0.004658,-0.067613,0.003490,0.173131,-3.029645,321.752776,20.934691,0.999324,0.988100,0.004348,0.393005,0.000203,0.000104,0.000012,0.000204,0.000103,7.058373,0.000313,
2461,2593,4.42209638477566,-1.18767170820679,-0.0208451083174168,0.004881,-0.067215,0.000561,0.193282,-3.053105,321.597953,20.849640,0.999018,0.987299,0.004582,0.448284,0.000215,0.000084,-0.000005,0.000215,0.000084,-2.128587,0.000308,
2506,2833,5.35449002543897,4.04668861994885,-0.0172868486032485,0.005544,-0.066939,0.003457,0.212012,-3.033654,317.852130,21.825857,0.999514,0.989064,0.004166,0.418762,0.000063,0.000034,0.000011,0.000067,0.000030,18.622005,0.000100,
2446,2728,4.06719018904088,1.75660217377278,-0.0266030360463674,0.004823,-0.067110,0.004775,0.175411,-3.033815,319.303259,21.337672,0.999643,0.991245,0.003769,0.472257,0.000089,0.000066,0.000016,0.000097,0.000058,26.502770,0.000157,
2416,2143,3.53056443593988,-11.0392616241138,-0.000329015611953309,0.003158,-0.070882,-0.012173,0.159743,-3.251388,328.948264,19.243884,0.999116,0.980142,0.005384,0.423365,0.000955,0.000990,-0.000109,0.001083,0.000862,-49.521784,0.001949,
2491,2743,5.04437666518706,2.08669256128292,-0.0329709786191188,0.005055,-0.067092,0.003648,0.189152,-3.017854,319.122826,21.443772,0.999669,0.991094,0.003754,0.446412,0.000079,0.000051,0.000009,0.000081,0.000048,15.983334,0.000131,
2446,2293,4.15685362027028,-7.75086859519723,0.000400979683035985,0.004035,-0.069033,-0.009307,0.190432,-3.148140,326.610840,19.648550,0.999128,0.979096,0.005646,0.499102,0.000617,0.000499,-0.000075,0.000653,0.000462,-25.875361,0.001121,
2446,2488,4.11744325907341,-3.48348495841771,-0.000586445050373641,0.004330,-0.067216,-0.002414,0.179236,-3.075064,323.429289,20.463242,0.999341,0.985404,0.004692,0.458062,0.000329,0.000147,-0.000017,0.000331,0.000145,-5.303843,0.000488,
2461,2833,4.37314442372227,4.04655939495019,-0.0290039054310114,0.005304,-0.066509,0.003879,0.200828,-3.001243,317.625060,21.867715,0.999467,0.989130,0.004076,0.357695,0.000047,0.000029,0.000006,0.000049,0.000027,16.872204,0.000077,
2431,2218,3.84645163734143,-9.39593112256959,0.0115426344735283,0.004839,-0.069151,-0.016128,0.252166,-3.208128,327.952012,19.428502,0.999383,0.984958,0.004971,0.459413,0.000766,0.000726,-0.000096,0.000844,0.000648,-39.039254,0.001497,
2431,2428,3.80087798204278,-4.79261936112784,-0.0131407415081526,0.003734,-0.067231,-0.006731,0.168009,-3.068666,324.258635,20.391605,0.999348,0.985836,0.004857,0.365035,0.000389,0.000282,-0.000007,0.000390,0.000282,-3.489491,0.000675,
2431,2653,3.75620364501664,0.120559955162342,-0.0165181143603945,0.004599,-0.066683,0.001229,0.178790,-3.004632,320.586042,21.099184,0.999507,0.989419,0.004193,0.486390,0.000146,0.000091,-0.000004,0.000146,0.000091,-3.701928,0.000239,
2386,2008,2.90282861776216,-14.0069464860949,0.00905699398532533,0.003448,-0.074921,-0.020979,0.202501,-3.479215,331.213864,18.862626,0.997654,0.967261,0.007101,0.326151,0.001359,0.001199,-0.000104,0.001410,0.001148,-26.113516,0.002562,
2476,2893,4.68876713023905,5.35219211044399,-0.0189859152704344,0.005952,-0.066619,0.007624,0.215915,-3.005254,316.778892,22.082159,0.998520,0.985623,0.004800,0.382009,0.000032,0.000029,0.000017,0.000048,0.000014,43.089604,0.000064,
2416,2338,3.49219611309696,-6.76295603443652,-0.00623528262798345,0.003510,-0.067411,-0.013457,0.182195,-3.086292,325.766665,20.064167,0.998553,0.981286,0.005290,0.420681,0.000513,0.000409,-0.000029,0.000520,0.000401,-14.543443,0.000924,
2506,2848,5.35150393777298,4.37381261182988,-0.0144399017753472,0.005581,-0.067156,0.005338,0.206392,-3.030726,317.624990,21.951965,0.999634,0.991420,0.003716,0.356229,0.000055,0.000031,0.000007,0.000057,0.000029,15.121605,0.000087,
2401,2518,3.12862887727485,-2.82730488564209,-0.0179525383843497,0.004073,-0.066735,-0.003731,0.173114,-3.016042,322.723090,20.610539,0.999374,0.987504,0.004554,0.565246,0.000251,0.000158,0.000003,0.000251,0.000158,1.978621,0.000413,
2461,2608,4.41909454704707,-0.860413491519409,-0.0143182701086744,0.004540,-0.067196,0.002623,0.169950,-3.021228,321.384947,20.921106,0.998781,0.983305,0.005041,0.463728,0.000194,0.000084,-0.000004,0.000194,0.000084,-1.889520,0.000285,
2401,2308,3.16859598484301,-7.41989423718127,-0.0183904559831376,0.003331,-0.068875,-0.001922,0.131504,-3.102205,326.081918,19.890236,0.999624,0.993503,0.003746,0.540267,0.000565,0.000464,-0.000040,0.000579,0.000451,-19.160930,0.001032,
2491,2758,5.04188574309175,2.41218453663469,-0.0243955529291497,0.005189,-0.067363,0.006896,0.182676,-3.028656,318.944127,21.454351,0.999490,0.987882,0.004187,0.483863,0.000078,0.000057,0.000004,0.000079,0.000057,10.652057,0.000136,
2416,2593,3.44013198928591,-1.18814175134668,-0.0244433441632737,0.004086,-0.066964,-0.000321,0.161031,-3.032714,321.455731,20.934699,0.999580,0.990432,0.003956,0.438761,0.000187,0.000095,0.000016,0.000189,0.000092,9.887252,0.000287,
2416,2158,3.52765695146249,-10.7100701755319,-0.00225500663913181,0.003108,-0.070344,-0.015227,0.168833,-3.258784,328.699165,19.301666,0.999001,0.978880,0.005548,0.408661,0.000913,0.000908,-0.000109,0.001020,0.000801,-44.322674,0.001826,
2446,2743,4.06522351094252,2.08296902974138,-0.0170712960073161,0.005087,-0.067115,0.004894,0.187055,-3.039421,319.150385,21.426244,0.999578,0.990263,0.003894,0.430073,0.000085,0.000061,0.000016,0.000093,0.000052,26.773658,0.000147,
2446,2308,4.15321333162132,-7.419681105004,-0.0052149816017959,0.003930,-0.068726,-0.008670,0.183433,-3.128547,326.312754,19.879335,0.998947,0.978731,0.005635,0.342544,0.000596,0.000460,-0.000069,0.000625,0.000431,-22.739769,0.001062,
2446,2503,4.11408605563129,-3.15561624505039,-0.00195227228141448,0.004304,-0.067762,0.000189,0.168174,-3.069374,323.163191,20.513121,0.999366,0.987419,0.004472,0.467272,0.000303,0.000151,-0.000021,0.000306,0.000148,-7.622568,0.000463,
2431,2233,3.841763279778,-9.065464441957,0.00659677101407397,0.003846,-0.069265,-0.012372,0.192872,-3.198064,327.608071,19.580975,0.999085,0.981374,0.005429,0.370114,0.000729,0.000689,-0.000086,0.000797,0.000622,-38.439530,0.001422,
2461,2623,4.41546461414471,-0.531474336863404,-0.0239111346087952,0.004618,-0.066789,0.001198,0.179029,-3.030712,321.069138,21.054339,0.999269,0.987398,0.004406,0.376287,0.000188,0.000076,-0.000011,0.000189,0.000075,-5.513654,0.000272,
2431,2443,3.79766242094462,-4.46486305309259,-0.0149852282528968,0.003819,-0.067209,-0.004530,0.163812,-3.060140,323.995851,20.404575,0.999075,0.984818,0.004962,0.412289,0.000380,0.000221,0.000005,0.000381,0.000221,1.854953,0.000609,
2476,2908,4.68617668552493,5.67796919772003,-0.0137793570105487,0.005870,-0.066582,0.006373,0.216925,-3.011649,316.578637,22.126923,0.998635,0.984083,0.004945,0.386954,0.000027,0.000010,0.000025,0.000045,-0.000008,35.591861,0.000049,
2431,2668,3.75165315590824,0.449753685541531,-0.0288357590370083,0.004125,-0.066937,0.002394,0.152668,-3.017079,320.211921,21.252113,0.999510,0.989568,0.004260,0.371578,0.000134,0.000088,0.000001,0.000134,0.000088,1.629676,0.000223,
2491,2773,5.03888553946402,2.74028209547411,-0.0263322594298074,0.005092,-0.066596,0.002855,0.194113,-3.006164,318.693925,21.592078,0.999016,0.986089,0.004550,0.427843,0.000066,0.000034,-0.000002,0.000066,0.000034,-2.913406,0.000102,
2401,2533,3.12581872984515,-2.49856595991772,-0.0132105968873475,0.004014,-0.066583,-0.001236,0.161453,-3.005228,322.506749,20.800401,0.999257,0.988166,0.004608,0.432721,0.000238,0.000131,0.000007,0.000238,0.000131,3.819610,0.000374,
2416,2353,3.48905834999619,-6.43448092732973,-0.00765988994044164,0.003590,-0.067237,-0.011517,0.178870,-3.075754,325.508438,20.113543,0.998006,0.980261,0.005554,0.431582,0.000490,0.000392,-0.000022,0.000495,0.000388,-11.895386,0.000885,
2401,2323,3.16653459958489,-7.09156721024412,-0.0038012506570908,0.002768,-0.068023,-0.005268,0.118165,-3.080922,325.947102,20.064578,0.999115,0.986884,0.004620,0.434431,0.000536,0.000428,-0.000032,0.000545,0.000420,-15.194944,0.000967,
2416,2608,3.43710053423544,-0.860675098710729,-0.0256248217360167,0.004134,-0.067018,0.000131,0.161595,-3.031666,321.202505,20.989479,0.999406,0.988181,0.004279,0.433305,0.000168,0.000095,0.000015,0.000171,0.000092,11.152098,0.000266,
2431,2683,3.74947343398738,0.776404886871788,-0.0275660929085575,0.004684,-0.066554,0.000811,0.184348,-3.002761,320.010213,21.263071,0.999440,0.988486,0.004310,0.425305,0.000127,0.000087,0.000001,0.000127,0.000087,1.871809,0.000215,
2446,2758,4.06132883173541,2.41074837097293,-0.0285199301293915,0.005027,-0.066850,0.003649,0.189075,-3.033044,318.811728,21.470037,0.999540,0.989067,0.004089,0.445342,0.000085,0.000059,0.000014,0.000091,0.000053,23.720870,0.000146,
2446,2518,4.1105234853297,-2.82683420370731,-0.0109491792845233,0.004195,-0.067112,-0.003303,0.176491,-3.058427,322.852301,20.577626,0.999093,0.985420,0.004712,0.467456,0.000283,0.000153,-0.000022,0.000287,0.000149,-9.394928,0.000443,
2431,2458,3.79476373585645,-4.13694022496129,-0.0147647058529969,0.003948,-0.066645,-0.003618,0.166621,-3.028055,323.757000,20.433633,0.999327,0.985758,0.004813,0.466748,0.000355,0.000200,0.000002,0.000355,0.000200,0.688889,0.000562,
2416,2368,3.48656660237342,-6.10737480676008,-0.00568520461473554,0.003782,-0.067407,-0.012779,0.192195,-3.109679,325.296016,20.120257,0.998735,0.982350,0.005194,0.440411,0.000467,0.000371,-0.000019,0.000471,0.000367,-10.965276,0.000840,
2446,2533,4.10781609469622,-2.49729409317241,-0.00861761251746884,0.004455,-0.066602,-0.001544,0.182111,-3.002888,322.632443,20.774647,0.999107,0.987291,0.004577,0.379291,0.000272,0.000126,-0.000012,0.000273,0.000125,-4.741623,0.000408,
2431,2473,3.79203586260032,-3.80988164907975,-0.0110633544408643,0.003770,-0.067094,-0.005174,0.164050,-3.049717,323.542384,20.474230,0.999226,0.984960,0.004829,0.455628,0.000330,0.000177,-0.000004,0.000330,0.000177,-1.507684,0.000514,
2416,2383,3.4844546675786,-5.77923217460673,0.00547300094302727,0.004021,-0.067583,-0.009147,0.189815,-3.106587,325.143505,20.278285,0.999522,0.986659,0.004675,0.334349,0.000448,0.000348,-0.000023,0.000453,0.000343,-12.565386,0.000799,
2446,2548,4.10419464663384,-2.16975229003973,-0.0139762424534524,0.004349,-0.066684,-0.000595,0.173727,-3.000807,322.335655,20.778072,0.999440,0.989240,0.004242,0.431350,0.000257,0.000103,-0.000012,0.000258,0.000102,-4.500827,0.000371,
2416,2398,3.48065303628055,-5.45182352836724,-0.00304437145115344,0.004044,-0.068185,-0.006666,0.181606,-3.128305,324.821806,20.208941,0.999470,0.986115,0.004790,0.431834,0.000418,0.000330,-0.000020,0.000423,0.000326,-12.202063,0.000751,
