Image X[Pixel],Image Y[Pixel],X[mm],Y[mm],Z[mm],Horizontal Displacement U[mm],Vertical Displacement V[mm],Out-Of-Plane: W[mm],Horizontal: u[Pixel],Vertical: v[Pixel],Horizontal: q[Pixel],Vertical: r[Pixel],Correlation Value 2D,Correlation Value Persp,Sigma,Epipolar Distance,Strain-global frame: Exx,Strain-global frame: Eyy,Strain-global frame: Exy,Maximum Principal Strain: EI,Minimum Principal Strain: EII,Shear Angle Gamma,Von Mises Equivalent Strain,
2011,1993,-5.29117619646215,-14.3474173536544,-7.05922450947583E-05,-0.006514,-0.095182,-0.030486,-0.244929,-4.490878,331.976716,20.419136,0.997651,0.980372,0.005973,0.369851,0.001641,0.001331,0.000129,0.001687,0.001284,19.836670,0.002981,
2026,2068,-4.97284736238444,-12.7018703158731,0.00637177923084664,-0.004222,-0.093501,-0.022615,-0.160335,-4.374001,330.819200,20.371532,0.999096,0.990698,0.004418,0.396708,0.001336,0.001236,0.000171,0.001464,0.001108,36.791340,0.002580,
2056,2218,-4.33747298635469,-9.41060765168399,-0.0142486397303969,0.000983,-0.089481,-0.024804,0.086527,-4.187009,328.308747,20.392931,0.997731,0.980401,0.005792,0.347999,0.000896,0.000840,0.000132,0.001003,0.000733,38.977930,0.001744,
2041,2143,-4.65493054683193,-11.0556450503724,-0.0041261702000952,-0.001515,-0.091330,-0.023324,-0.033241,-4.261552,329.564976,20.343291,0.998048,0.980423,0.006018,0.420398,0.001103,0.001089,0.000163,0.001259,0.000932,43.767815,0.002200,
2011,2008,-5.29377145565843,-14.0158695135918,-0.0128240239770321,-0.006108,-0.095072,-0.028920,-0.230573,-4.476711,331.644286,20.483939,0.997298,0.980845,0.006061,0.311503,0.001596,0.001377,0.000184,0.001701,0.001272,29.645394,0.002983,
2101,2443,-3.39040794975932,-4.49183068449155,-0.0125265251016913,0.004574,-0.088608,-0.003392,0.190716,-4.027874,324.570323,20.252994,0.999256,0.988063,0.004462,0.476520,0.000423,0.000203,0.000022,0.000425,0.000201,5.633366,0.000639,
2176,2818,-1.81883853011352,3.68304115218827,-0.0282853290328262,0.008704,-0.088174,0.003961,0.356947,-4.003345,318.223998,20.478465,0.999306,0.989852,0.004071,0.399496,0.000068,0.000071,-0.000011,0.000080,0.000059,-48.843132,0.000139,
2326,2173,1.56069725694086,-10.402819515147,-0.0115677647659709,0.004970,-0.094516,-0.020578,0.261826,-4.385484,328.440216,18.786176,0.998062,0.977707,0.005913,0.327433,0.001007,0.001044,-0.000035,0.001065,0.000986,-59.135923,0.002052,
2296,2023,0.932554474513996,-13.7009279133548,0.000231117424277727,0.003156,-0.098827,-0.026794,0.197318,-4.615921,330.912108,18.204393,0.998390,0.979009,0.006081,0.507014,0.001369,0.001447,-0.000033,0.001459,0.001357,-70.005464,0.002817,
2311,2098,1.24694554331429,-12.0500204323678,-0.00981616926122797,0.004366,-0.096214,-0.026282,0.252539,-4.493641,329.662901,18.540526,0.998252,0.981367,0.006038,0.369143,0.001198,0.001297,-0.000029,0.001305,0.001190,-74.928885,0.002496,
2161,2743,-2.13216820175328,2.04993831940295,-0.027768408812733,0.008496,-0.088234,0.002364,0.352654,-4.018287,319.495783,20.353984,0.999362,0.988778,0.004242,0.443265,0.000114,0.000058,-0.000017,0.000119,0.000053,-15.395606,0.000176,
2491,2998,5.00068145359291,7.61110378739897,0.00727754531311575,0.010603,-0.090027,0.008075,0.417322,-4.088122,315.540547,21.396112,0.999291,0.988158,0.004179,0.415624,0.000043,0.000021,0.000051,0.000084,-0.000021,38.938462,0.000088,
2131,2593,-2.76092946591713,-1.21731420028122,-0.0302834852952856,0.006795,-0.087682,-0.003834,0.294036,-3.976891,321.965513,20.256067,0.999242,0.989610,0.004393,0.512679,0.000228,0.000101,0.000019,0.000231,0.000098,8.330543,0.000338,
2221,3043,-0.876106359933026,8.57074473413799,0.0133847827723912,0.010549,-0.088485,0.009292,0.423366,-4.002934,314.840277,20.777204,0.999708,0.993513,0.003265,0.423385,0.000018,0.000023,-0.000012,0.000033,0.000008,-50.709839,0.000043,
2191,2893,-1.5036820782967,5.31256173905383,-0.00903889038983152,0.009522,-0.088169,0.004004,0.393992,-4.008734,317.153503,20.550262,0.999781,0.994754,0.003202,0.408592,0.000043,0.000047,0.000000,0.000047,0.000043,-89.964411,0.000090,
2431,2698,3.75074246618545,1.08013124507002,-0.0243586556970854,0.008749,-0.090204,0.001778,0.357453,-4.102674,319.983691,20.300991,0.999663,0.991986,0.003782,0.334042,0.000177,0.000114,-0.000004,0.000177,0.000114,-3.246982,0.000293,
2476,2923,4.68705108152087,5.98144483547276,-0.0157160922890967,0.009808,-0.089773,0.004601,0.394625,-4.082344,316.512617,21.133696,0.999159,0.986007,0.004567,0.361962,0.000055,0.000035,0.000046,0.000092,-0.000002,38.789277,0.000105,
2011,2023,-5.29443689541138,-13.687432845847,-0.0136360716804234,-0.004726,-0.094238,-0.031181,-0.160841,-4.456184,331.467066,20.401260,0.997592,0.979583,0.006070,0.405877,0.001516,0.001228,0.000158,0.001585,0.001159,23.848569,0.002755,
2266,3268,0.0625532664023858,13.4522154225372,0.0296650114219688,0.012271,-0.088869,0.017417,0.473801,-4.021341,311.249722,21.224391,0.999595,0.992890,0.003447,0.469465,0.000021,0.000049,0.000004,0.000050,0.000021,82.945534,0.000072,
2341,2248,1.87344830205916,-8.75922159863601,-0.0108663888135538,0.005083,-0.093903,-0.009105,0.227766,-4.302821,327.198261,18.890063,0.998625,0.980391,0.005560,0.421987,0.000809,0.000761,-0.000036,0.000828,0.000742,-27.953157,0.001570,
2086,2368,-3.70594367006461,-6.12983555125958,-0.0232593771366396,0.003425,-0.088434,-0.017625,0.179267,-4.116350,325.753065,20.252164,0.998026,0.981265,0.005586,0.425910,0.000556,0.000395,0.000048,0.000569,0.000382,15.464476,0.000957,
2056,2233,-4.340286698541,-9.08200590837184,-0.014896824259381,0.000988,-0.089868,-0.016402,0.063005,-4.150867,328.038542,20.388916,0.998677,0.986495,0.005102,0.385522,0.000862,0.000792,0.000121,0.000953,0.000701,36.860764,0.001661,
2146,2668,-2.44575794866853,0.415478054800985,-0.0230306743617348,0.007795,-0.088212,-0.002385,0.335237,-4.015130,320.792021,20.237473,0.999521,0.991218,0.003814,0.517597,0.000178,0.000060,-0.000004,0.000178,0.000060,-2.150069,0.000248,
2071,2293,-4.02214165502829,-7.77012188160344,-0.0163580888387855,0.001868,-0.089504,-0.014817,0.099173,-4.121054,327.016271,20.258148,0.999695,0.992874,0.003996,0.471951,0.000725,0.000626,0.000093,0.000781,0.000570,31.007149,0.001357,
2446,2773,4.06219216026783,2.71421877319698,-0.0320341838375384,0.008860,-0.089772,-0.000193,0.369820,-4.082815,318.736226,20.401734,0.999365,0.988364,0.004414,0.512915,0.000121,0.000056,0.000014,0.000124,0.000053,11.746407,0.000182,
2461,2848,4.37433183237846,4.34898212925724,-0.0310464878868402,0.009707,-0.089929,0.004219,0.391843,-4.068623,317.572394,20.753574,0.999691,0.992722,0.003473,0.455479,0.000089,0.000050,0.000025,0.000101,0.000038,26.062081,0.000144,
2206,2968,-1.18912302275164,6.94214464466343,0.006902787672459,0.010398,-0.088004,0.007102,0.424207,-3.975401,316.050454,20.662035,0.999292,0.990693,0.003906,0.437748,0.000028,0.000028,-0.000006,0.000034,0.000023,-44.834032,0.000057,
2026,2083,-4.97503455401084,-12.3714430050291,-0.00169492270964611,-0.003875,-0.092676,-0.024875,-0.138039,-4.347039,330.533352,20.405088,0.998839,0.985929,0.004978,0.383834,0.001294,0.001237,0.000181,0.001449,0.001083,40.531719,0.002540,
2116,2518,-3.07559765785455,-2.85358045650304,-0.0265197029759179,0.005835,-0.088370,-0.005339,0.254265,-4.044245,323.236139,20.276168,0.999026,0.986864,0.004609,0.421037,0.000309,0.000164,0.000016,0.000311,0.000163,6.152703,0.000481,
2236,3118,-0.56213489835525,10.1986226571779,0.0225356684549638,0.011409,-0.088308,0.007541,0.468124,-4.006188,313.700099,20.917110,0.999589,0.992060,0.003634,0.429505,0.000014,0.000019,-0.000005,0.000022,0.000011,-57.908699,0.000034,
2251,3193,-0.24817567279063,11.8246675409526,0.047527268701856,0.011814,-0.088804,0.012540,0.469590,-4.034385,312.652347,21.100332,0.999483,0.991778,0.003596,0.388455,0.000020,0.000040,0.000005,0.000041,0.000018,75.922726,0.000061,
2416,2623,3.43800369660218,-0.557563395141102,-0.0252607272625482,0.007959,-0.090653,0.000209,0.327064,-4.114632,321.145211,19.909072,0.999085,0.987703,0.004411,0.475561,0.000219,0.000119,-0.000001,0.000219,0.000119,-0.606032,0.000342,
2356,2323,2.18739217096529,-7.11666106229037,-0.0123567307055055,0.005888,-0.092253,-0.009779,0.267658,-4.209554,326.014271,18.998263,0.999502,0.993345,0.004052,0.543187,0.000626,0.000540,-0.000027,0.000634,0.000532,-15.993898,0.001168,
2041,2158,-4.65884489418914,-10.7253570927581,-0.0108074290152445,-0.001921,-0.093023,-0.009096,-0.091889,-4.261153,329.209717,20.436655,0.998892,0.986133,0.005094,0.323192,0.001053,0.000992,0.000142,0.001167,0.000878,38.983052,0.002052,
2371,2398,2.50047219466047,-5.47445413380184,-0.0144197923798401,0.006196,-0.091125,-0.009610,0.281686,-4.177893,324.801857,19.260952,0.999193,0.987552,0.004788,0.468301,0.000508,0.000407,-0.000021,0.000513,0.000403,-11.305822,0.000917,
2491,3013,4.99734102317202,7.93755453426151,0.00464249895918556,0.010633,-0.090222,0.008974,0.415175,-4.096653,315.270573,21.477246,0.999579,0.992608,0.003496,0.384021,0.000041,0.000031,0.000051,0.000087,-0.000015,42.360556,0.000093,
2401,2548,3.12676486070642,-2.19530550637122,-0.0156349208530742,0.008018,-0.090286,-0.001878,0.337776,-4.097552,322.437438,19.695343,0.999072,0.989188,0.004757,0.488576,0.000289,0.000155,-0.000009,0.000290,0.000155,-3.866412,0.000451,
2011,2038,-5.29646166571867,-13.3569949671687,-0.0203975654326882,-0.004293,-0.093375,-0.032725,-0.136617,-4.422013,331.194226,20.426165,0.997211,0.979806,0.006016,0.406700,0.001442,0.001158,0.000152,0.001508,0.001093,23.452322,0.002611,
2386,2473,2.81400712345301,-3.83301703981626,-0.0210026910105512,0.007592,-0.090207,-0.009033,0.344101,-4.101969,323.602210,19.495513,0.998978,0.988810,0.004719,0.486705,0.000397,0.000240,-0.000003,0.000397,0.000240,-1.252499,0.000644,
2266,3283,0.0591200175398612,13.7777528498703,0.0168374139456091,0.012195,-0.088710,0.013393,0.483730,-4.026509,310.905921,21.231468,0.999458,0.992563,0.003460,0.481202,0.000022,0.000061,-0.000001,0.000061,0.000022,-87.988903,0.000086,
2296,2038,0.930429053295615,-13.3684592436899,0.00539554922346497,0.003252,-0.096937,-0.028494,0.208133,-4.533023,330.722437,18.503866,0.998629,0.983090,0.005473,0.323943,0.001335,0.001410,-0.000037,0.001425,0.001320,-67.909245,0.002745,
2056,2248,-4.34238517492212,-8.75460885444349,-0.0153059013581469,0.001026,-0.089986,-0.018787,0.071390,-4.182567,327.802895,20.350165,0.998665,0.984299,0.005200,0.389608,0.000825,0.000772,0.000107,0.000908,0.000689,38.106431,0.001602,
2341,2263,1.8713970396004,-8.43069018858451,-0.00924433971891858,0.005493,-0.093169,-0.011955,0.256774,-4.297641,326.998433,18.948485,0.998852,0.981441,0.005380,0.407713,0.000766,0.000703,-0.000041,0.000786,0.000683,-26.353452,0.001470,
2101,2458,-3.3931986933946,-4.16379820987417,-0.0187128928540687,0.004446,-0.088339,-0.005013,0.189651,-4.027694,324.275407,20.258809,0.999315,0.988461,0.004328,0.473850,0.000397,0.000188,0.000019,0.000399,0.000186,5.255578,0.000598,
2326,2188,1.55937542669562,-10.074926070677,-0.00742889707669292,0.005511,-0.092966,-0.028336,0.313875,-4.363665,328.285050,18.770331,0.998624,0.980835,0.005593,0.401789,0.000959,0.001006,-0.000036,0.001026,0.000940,-61.771953,0.001966,
2476,2938,4.68445635690357,6.30688622823095,-0.00971212914231501,0.009883,-0.089913,0.006109,0.392329,-4.086227,316.315735,21.157948,0.999315,0.988789,0.004130,0.389923,0.000050,0.000026,0.000043,0.000083,-0.000007,37.025396,0.000092,
2086,2383,-3.70825613005728,-5.800941204518,-0.0254039701162014,0.003744,-0.088450,-0.015166,0.186824,-4.103822,325.500279,20.336834,0.997706,0.980061,0.005792,0.354468,0.000538,0.000349,0.000044,0.000547,0.000340,12.419853,0.000895,
2176,2833,-1.82158635994647,4.00891974853063,-0.0308854080257106,0.008934,-0.088417,0.007839,0.355340,-4.023926,317.957043,20.464014,0.999608,0.993598,0.003506,0.405436,0.000061,0.000068,-0.000006,0.000071,0.000057,-60.884218,0.000129,
2461,2863,4.37181442864728,4.67521906978911,-0.0249004620568485,0.009650,-0.089630,0.003549,0.391867,-4.061981,317.378960,20.823200,0.999457,0.990718,0.003779,0.446432,0.000084,0.000061,0.000036,0.000110,0.000034,36.143136,0.000151,
2191,2908,-1.50598061401368,5.63678729125156,-0.00347316624919358,0.009515,-0.088350,0.005570,0.388739,-4.004728,316.951297,20.439575,0.999788,0.994444,0.003289,0.537436,0.000045,0.000035,0.000000,0.000045,0.000035,1.988864,0.000080,
2251,3208,-0.25068663921963,12.149361232648,0.0479997794820974,0.011856,-0.089108,0.011073,0.476265,-4.046930,312.417614,21.089376,0.999722,0.994978,0.003131,0.409111,0.000020,0.000038,0.000007,0.000040,0.000018,70.798275,0.000060,
2221,3058,-0.877629104934524,8.89505275986176,0.0241508990723105,0.010925,-0.088535,0.009619,0.439657,-4.000209,314.702138,20.745508,0.999772,0.994345,0.003004,0.475770,0.000019,0.000024,-0.000013,0.000034,0.000009,-49.492319,0.000046,
2311,2113,1.24463597011279,-11.721923821988,-0.00475639376071513,0.004357,-0.095706,-0.027035,0.254879,-4.479283,329.466074,18.535276,0.998425,0.980806,0.005865,0.423801,0.001153,0.001263,-0.000026,0.001268,0.001147,-77.486126,0.002417,
2071,2308,-4.02495367964647,-7.44008177240467,-0.0295433006534722,0.002107,-0.088732,-0.015988,0.113711,-4.104481,326.678792,20.306233,0.999713,0.992527,0.004132,0.439952,0.000680,0.000569,0.000075,0.000718,0.000532,26.724518,0.001254,
2026,2098,-4.97614160155929,-12.0416845915353,-0.00391357845126095,-0.002930,-0.091745,-0.029319,-0.082250,-4.319200,330.329388,20.447301,0.998757,0.980902,0.005520,0.362769,0.001245,0.001201,0.000182,0.001406,0.001039,41.527884,0.002455,
2431,2713,3.74861475482657,1.40510786909919,-0.0165651890431491,0.008881,-0.090060,0.000882,0.366885,-4.096338,319.814930,20.227469,0.999628,0.991632,0.003803,0.464046,0.000159,0.000108,0.000003,0.000159,0.000108,3.377247,0.000268,
2146,2683,-2.4489470524429,0.743229700920956,-0.0288270715801104,0.007774,-0.088681,0.002214,0.320196,-4.024737,320.485039,20.310057,0.999223,0.990011,0.004013,0.443607,0.000166,0.000057,-0.000007,0.000166,0.000057,-3.445754,0.000232,
2206,2983,-1.19214680780209,7.26819315733771,0.00278607285264343,0.010228,-0.088151,0.006595,0.417912,-3.995931,315.765154,20.695277,0.999407,0.991071,0.003750,0.399876,0.000025,0.000033,-0.000007,0.000037,0.000021,-60.697044,0.000058,
2266,3298,0.0568126794856418,14.10332299003,0.0236783452528471,0.012124,-0.088695,0.013505,0.480035,-4.037280,310.713181,21.358561,0.999542,0.993247,0.003409,0.367034,0.000031,0.000050,-0.000004,0.000051,0.000030,-78.685035,0.000082,
2356,2338,2.18477767116178,-6.78670933620404,-0.0173604754032226,0.006215,-0.092033,-0.013568,0.296068,-4.235003,325.757663,19.177395,0.999149,0.988134,0.004724,0.379275,0.000602,0.000514,-0.000021,0.000607,0.000509,-12.936838,0.001117,
2041,2173,-4.66045582233081,-10.3979979612415,-0.00758154018205914,-0.001888,-0.092069,-0.015231,-0.073111,-4.257265,329.014873,20.370542,0.998783,0.987907,0.004813,0.388305,0.001018,0.000950,0.000139,0.001127,0.000841,38.181791,0.001975,
2446,2788,4.05987194158746,3.04044405346814,-0.0272352310140604,0.009264,-0.090110,0.001237,0.382892,-4.098434,318.545136,20.462080,0.999352,0.988465,0.004268,0.489064,0.000119,0.000057,0.000011,0.000121,0.000055,10.100075,0.000179,
2011,2053,-5.29956674473938,-13.0282842510721,-0.0075087454715117,-0.005176,-0.094498,-0.018694,-0.215410,-4.385212,330.982226,20.517307,0.998837,0.990325,0.004398,0.343788,0.001391,0.001183,0.000151,0.001470,0.001104,27.737677,0.002583,
2131,2608,-2.76303457407337,-0.891144304378685,-0.0243391784791243,0.006791,-0.087977,-0.003058,0.291390,-4.010721,321.769986,20.283669,0.999271,0.989132,0.004456,0.457544,0.000217,0.000089,0.000016,0.000219,0.000087,6.831781,0.000315,
2416,2638,3.43550806307393,-0.229593315415812,-0.0249064999520101,0.008149,-0.090177,-0.002738,0.346796,-4.112635,320.923556,20.031320,0.999203,0.988100,0.004408,0.403919,0.000201,0.000124,-0.000003,0.000201,0.000124,-2.373850,0.000328,
2161,2758,-2.13461960611179,2.37583540826555,-0.0230956140811145,0.008365,-0.088452,0.004255,0.340779,-4.012289,319.279538,20.348915,0.999064,0.985991,0.004494,0.464468,0.000105,0.000062,-0.000017,0.000111,0.000056,-19.262761,0.000170,
2236,3133,-0.565309297045435,10.5241832603795,0.0214427154559189,0.011137,-0.088401,0.009827,0.448184,-4.002590,313.425628,20.942754,0.999653,0.992514,0.003637,0.427461,0.000010,0.000022,-0.000004,0.000024,0.000008,-73.187442,0.000033,
2491,3028,4.99394306494006,8.26375052273724,0.00418770109774869,0.010471,-0.089961,0.010504,0.402031,-4.078268,315.007738,21.527021,0.999685,0.993938,0.003323,0.410993,0.000045,0.000022,0.000051,0.000086,-0.000018,38.568638,0.000090,
2056,2263,-4.34461852853957,-8.42520396214723,-0.0181218206413973,0.001401,-0.089482,-0.016054,0.081085,-4.124281,327.547048,20.385738,0.998902,0.982742,0.005421,0.409280,0.000791,0.000723,0.000106,0.000869,0.000646,36.107194,0.001520,
2296,2053,0.927467613726474,-13.0398342516891,0.00617769062552043,0.003333,-0.097601,-0.023218,0.193849,-4.525744,330.473691,18.484512,0.998142,0.982197,0.005703,0.384170,0.001297,0.001386,-0.000029,0.001395,0.001288,-73.651369,0.002683,
2371,2413,2.49884480802662,-5.14542707506013,-0.0176261993872231,0.007342,-0.090577,-0.014059,0.350244,-4.178720,324.600257,19.375214,0.999363,0.988470,0.004599,0.395956,0.000476,0.000375,-0.000014,0.000477,0.000373,-7.532080,0.000853,
2461,2878,4.3683196078306,5.00138752664071,-0.0240472566405856,0.009498,-0.090239,0.008259,0.366977,-4.055165,317.116251,20.851009,0.999270,0.991188,0.003866,0.479486,0.000081,0.000069,0.000043,0.000118,0.000031,41.076288,0.000158,
2401,2563,3.12308643323979,-1.86726181482356,-0.0231988874136846,0.007797,-0.090182,-0.002701,0.330679,-4.103359,322.123377,19.738022,0.999005,0.987302,0.004672,0.486461,0.000267,0.000157,0.000001,0.000267,0.000157,0.442351,0.000428,
2026,2113,-4.97834323860798,-11.712400236627,-0.011186851411594,-0.002236,-0.092100,-0.024796,-0.062904,-4.330121,330.047722,20.435850,0.997858,0.977501,0.006250,0.356938,0.001198,0.001170,0.000179,0.001364,0.001005,42.721757,0.002378,
2011,2068,-5.30028214268156,-12.6999112844145,-0.0043517386733356,-0.004272,-0.093067,-0.024333,-0.158290,-4.367239,330.825033,20.491663,0.998989,0.990307,0.004349,0.378414,0.001347,0.001222,0.000149,0.001446,0.001122,33.636148,0.002575,
2116,2533,-3.0781125226628,-2.52694120218734,-0.027109729055951,0.005796,-0.088482,-0.004813,0.250878,-4.033229,322.985550,20.221448,0.998881,0.985415,0.004906,0.491413,0.000287,0.000148,0.000018,0.000289,0.000146,7.146500,0.000442,
2326,2203,1.5560297077226,-9.74552573253492,-0.00826711783037126,0.005268,-0.093058,-0.024910,0.290964,-4.347598,328.012766,18.850710,0.998920,0.980125,0.005732,0.374662,0.000917,0.000954,-0.000037,0.000977,0.000894,-58.026662,0.001871,
2101,2473,-3.39599511588868,-3.83627871750068,-0.0167826376883795,0.004208,-0.088694,-0.000201,0.164555,-4.019223,324.024110,20.290138,0.999112,0.988573,0.004448,0.453530,0.000378,0.000192,0.000025,0.000381,0.000189,7.401972,0.000581,
2386,2488,2.81101138259057,-3.50571695876329,-0.0168361691942209,0.007577,-0.090500,-0.003735,0.324357,-4.098481,323.374066,19.541685,0.999101,0.988682,0.004529,0.488566,0.000373,0.000208,-0.000002,0.000373,0.000208,-0.755756,0.000588,
2446,2803,4.05652933106096,3.36801594497847,-0.0263747728500903,0.009105,-0.090119,0.004294,0.364201,-4.091844,318.288420,20.597638,0.999473,0.989724,0.004028,0.412240,0.000112,0.000054,0.000012,0.000115,0.000052,11.014707,0.000171,
2476,2953,4.68207873967227,6.63246938233094,-0.00650905232942023,0.010155,-0.089949,0.004562,0.410764,-4.081636,316.116003,21.170467,0.999279,0.988352,0.004234,0.438265,0.000053,0.000018,0.000048,0.000087,-0.000016,34.996930,0.000092,
2281,1993,0.610586897748963,-14.3576264191914,0.00252347739700554,0.003306,-0.099040,-0.027250,0.205097,-4.627727,331.435278,18.428318,0.997202,0.968570,0.007797,0.310602,0.001416,0.001462,-0.000045,0.001489,0.001389,-58.551620,0.002878,
2341,2278,1.86879945775282,-8.10182675623176,-0.0148193977304913,0.005907,-0.092876,-0.014845,0.285919,-4.277808,326.738611,18.954651,0.998894,0.980926,0.005417,0.460343,0.000726,0.000674,-0.000032,0.000741,0.000659,-25.564046,0.001401,
2431,2728,3.74539943638862,1.73138263249935,-0.0179444293381152,0.008914,-0.090261,0.002940,0.360695,-4.115757,319.553303,20.228612,0.999653,0.992077,0.003674,0.493805,0.000143,0.000098,0.000015,0.000147,0.000094,16.427458,0.000243,
2191,2923,-1.50810571019489,5.96402993640294,-0.00354712427230197,0.010022,-0.088282,0.006287,0.409847,-4.008344,316.726750,20.576990,0.999391,0.990721,0.003881,0.410562,0.000040,0.000028,-0.000001,0.000040,0.000028,-5.858646,0.000069,
2221,3073,-0.880308018232192,9.22084268491983,0.0242301833896477,0.010772,-0.088517,0.008139,0.437327,-4.018552,314.455423,20.805047,0.999616,0.992921,0.003348,0.415832,0.000020,0.000021,-0.000010,0.000030,0.000010,-46.602525,0.000042,
2311,2128,1.24164335062815,-11.3907247390679,-0.00450500527705344,0.004010,-0.094791,-0.028282,0.243598,-4.442034,329.213905,18.742930,0.998814,0.982433,0.005477,0.288666,0.001113,0.001225,-0.000024,0.001230,0.001108,-78.458288,0.002339,
2161,2773,-2.13750748016102,2.7029281868906,-0.0286456644699342,0.008365,-0.088415,0.004330,0.340560,-4.013599,318.989068,20.384589,0.999378,0.989626,0.004070,0.437595,0.000097,0.000064,-0.000015,0.000103,0.000059,-20.818898,0.000164,
2356,2353,2.18235412996548,-6.46022432357177,-0.0166278224033931,0.006376,-0.090912,-0.015833,0.311828,-4.213003,325.537650,19.053969,0.999162,0.987771,0.004910,0.565510,0.000574,0.000478,-0.000013,0.000576,0.000477,-7.791235,0.001054,
2086,2398,-3.71041307603314,-5.47394952158761,-0.019568081602074,0.003775,-0.088441,-0.011635,0.178042,-4.083863,325.298331,20.321923,0.998303,0.983285,0.005262,0.389959,0.000507,0.000307,0.000039,0.000515,0.000300,10.608455,0.000824,
2251,3223,-0.252743404271488,12.4738434091636,0.0598936692612142,0.011873,-0.089044,0.014329,0.466406,-4.032918,312.261836,21.101691,0.999672,0.994166,0.003297,0.432742,0.000020,0.000039,0.000007,0.000042,0.000017,71.717172,0.000061,
2041,2188,-4.66211415971346,-10.0681500508929,-0.00981266288340521,-0.001277,-0.090572,-0.016718,-0.040467,-4.200467,328.786996,20.425941,0.998647,0.985816,0.005079,0.384633,0.000978,0.000935,0.000145,0.001103,0.000809,40.829632,0.001920,
2146,2698,-2.45156240956282,1.0702810375673,-0.0295615701636507,0.007939,-0.088416,0.006074,0.316190,-3.994035,320.231255,20.325019,0.999315,0.989526,0.004084,0.467782,0.000152,0.000051,-0.000012,0.000153,0.000049,-6.659944,0.000211,
2176,2848,-1.82311555738159,4.33406227469257,-0.0214912281019224,0.009226,-0.088745,0.006623,0.372497,-4.026542,317.809008,20.458445,0.999336,0.991258,0.003743,0.420483,0.000054,0.000065,-0.000003,0.000066,0.000054,-77.032133,0.000120,
2011,2083,-5.3027354711603,-12.3694142230114,-0.0138727027245409,-0.004162,-0.092493,-0.027011,-0.145899,-4.343518,330.517336,20.519259,0.998038,0.981390,0.005698,0.366111,0.001299,0.001217,0.000164,0.001427,0.001089,37.925782,0.002523,
2056,2278,-4.34694627301805,-8.0960097157454,-0.0177670341554403,0.001452,-0.089358,-0.013967,0.077573,-4.109883,327.304552,20.483525,0.999563,0.990624,0.004292,0.322815,0.000758,0.000652,0.000101,0.000819,0.000591,31.155831,0.001415,
2236,3148,-0.566774927950277,10.8485236418765,0.0310198087319122,0.011622,-0.088462,0.009358,0.472020,-4.012610,313.284670,20.938392,0.999291,0.990912,0.003879,0.442022,0.000009,0.000030,-0.000003,0.000030,0.000009,-82.411397,0.000041,
2416,2653,3.43269443721315,0.0977701170140506,-0.0210665395489968,0.008405,-0.089904,0.002622,0.339086,-4.061574,320.703506,20.082862,0.999228,0.988291,0.004496,0.451521,0.000186,0.000113,0.000000,0.000186,0.000113,-0.001072,0.000302,
2461,2893,4.36603162300094,5.32835673572418,-0.0227743912575988,0.009832,-0.090077,0.004630,0.396016,-4.086187,316.910793,20.997386,0.998994,0.988804,0.004284,0.355999,0.000075,0.000059,0.000046,0.000114,0.000020,39.827958,0.000145,
2026,2128,-4.98037209237402,-11.3827896661824,-0.0164368227806904,-0.001858,-0.091574,-0.026431,-0.040934,-4.326559,329.785047,20.467956,0.997664,0.976748,0.006545,0.321507,0.001151,0.001140,0.000179,0.001324,0.000967,44.152381,0.002300,
2491,3043,4.99087477072731,8.59037427250357,0.00205706411219353,0.010585,-0.089975,0.009681,0.410493,-4.081194,314.752336,21.630589,0.999691,0.993251,0.003528,0.362712,0.000037,0.000019,0.000060,0.000088,-0.000032,40.541061,0.000090,
2296,2068,0.924992508113871,-12.7107474428698,0.00711197471912328,0.003485,-0.097274,-0.023412,0.201569,-4.513439,330.247831,18.509191,0.998410,0.982277,0.005606,0.404990,0.001256,0.001344,-0.000022,0.001349,0.001251,-76.799450,0.002601,
2206,2998,-1.19482127737777,7.59328690023381,0.0034048678516001,0.010304,-0.088713,0.009334,0.412522,-4.015010,315.520681,20.676070,0.999452,0.990765,0.003811,0.415992,0.000021,0.000030,-0.000011,0.000037,0.000014,-56.857782,0.000053,
2131,2623,-2.76529524383962,-0.564660634057702,-0.0205553700463952,0.006960,-0.088294,0.000532,0.288296,-4.009554,321.555631,20.290575,0.999374,0.989362,0.004268,0.457954,0.000207,0.000073,0.000010,0.000208,0.000072,4.276545,0.000291,
2071,2323,-4.02604678800374,-7.11384567742599,-0.0144475439817029,0.002651,-0.089119,-0.011439,0.125634,-4.097838,326.575137,20.304120,0.998990,0.987367,0.004756,0.446927,0.000643,0.000511,0.000063,0.000669,0.000486,21.932796,0.001160,
2281,2008,0.607760402627395,-14.0277608562468,-0.00327914542248209,0.003140,-0.097971,-0.033263,0.217888,-4.609959,331.158640,18.420064,0.998470,0.981852,0.005862,0.368366,0.001392,0.001451,-0.000030,0.001464,0.001380,-67.255678,0.002844,
2446,2818,4.05425444123833,3.69364709038367,-0.0225240756987546,0.009425,-0.089545,0.003298,0.382869,-4.067406,318.094972,20.563842,0.999445,0.989495,0.004118,0.522506,0.000100,0.000046,0.000014,0.000104,0.000043,14.082203,0.000151,
2371,2428,2.49511632727098,-4.81866887493373,-0.0196351817250502,0.006887,-0.090589,-0.010687,0.317444,-4.146869,324.308178,19.266225,0.999487,0.991918,0.004319,0.579683,0.000457,0.000335,-0.000008,0.000458,0.000334,-3.702671,0.000795,
2041,2203,-4.66376420644596,-9.73840343167322,-0.01610550903888,-0.000450,-0.089686,-0.018942,0.003899,-4.144335,328.537103,20.435847,0.998148,0.981909,0.005595,0.425961,0.000938,0.000886,0.000140,0.001054,0.000769,39.819901,0.001831,
2101,2488,-3.39793530713687,-3.50924706697719,-0.0192124256943771,0.004618,-0.088138,-0.002930,0.191528,-4.010420,323.788588,20.241001,0.998792,0.988436,0.004534,0.513906,0.000356,0.000185,0.000021,0.000359,0.000183,6.891552,0.000551,
2476,2968,4.67974894449118,6.95895405502073,0.00152844986035916,0.010242,-0.089595,0.005005,0.413248,-4.059215,315.940115,21.285514,0.999332,0.989820,0.004116,0.401827,0.000048,0.000023,0.000059,0.000096,-0.000025,39.082471,0.000100,
2401,2578,3.12000909143409,-1.53959642282059,-0.0229818817244904,0.007656,-0.090500,-0.002349,0.322836,-4.106090,321.873527,19.816826,0.999072,0.986559,0.004707,0.451494,0.000255,0.000157,0.000004,0.000255,0.000157,2.194803,0.000416,
2011,2098,-5.30444799977267,-12.0396561928388,-0.0139872435754,-0.003527,-0.092184,-0.023934,-0.125028,-4.289167,330.295985,20.558764,0.998048,0.978102,0.006056,0.372170,0.001248,0.001175,0.000170,0.001385,0.001038,38.927785,0.002432,
2431,2743,3.74243215222326,2.05922960055948,-0.0201272236941463,0.009121,-0.090426,0.003159,0.369423,-4.105366,319.298852,20.342707,0.999473,0.990354,0.003951,0.440267,0.000134,0.000084,0.000018,0.000140,0.000078,17.743198,0.000220,
2221,3088,-0.882849414458274,9.54646821274061,0.021834540137263,0.011076,-0.088622,0.008731,0.449385,-4.027646,314.202318,20.828425,0.999400,0.992707,0.003445,0.401521,0.000019,0.000017,-0.000012,0.000029,0.000006,-42.848784,0.000038,
2341,2293,1.8663129327861,-7.77217450523724,-0.0120817811076108,0.006260,-0.092143,-0.011740,0.291622,-4.225990,326.523767,19.090729,0.998705,0.983853,0.005154,0.414832,0.000686,0.000630,-0.000024,0.000695,0.000621,-20.386686,0.001317,
2026,2143,-4.9820756229582,-11.0543305443217,-0.0123136269089059,-0.001516,-0.090477,-0.024601,-0.029986,-4.244589,329.589137,20.423898,0.997757,0.977244,0.006213,0.440494,0.001113,0.001091,0.000181,0.001283,0.000921,43.249311,0.002213,
2491,3058,4.98915007403187,8.91468424136,0.0122064820046148,0.010908,-0.090195,0.007716,0.432808,-4.094071,314.614865,21.615023,0.999600,0.991797,0.003876,0.423136,0.000043,0.000013,0.000056,0.000086,-0.000030,37.524844,0.000087,
2146,2713,-2.45409521694171,1.39703036087537,-0.0299156153878357,0.007824,-0.088405,0.004813,0.314702,-4.015921,319.983480,20.372419,0.999466,0.990984,0.004007,0.406624,0.000141,0.000051,-0.000016,0.000144,0.000049,-9.573732,0.000200,
2191,2938,-1.51030017560176,6.288988858349,0.00169617374325526,0.009903,-0.088608,0.004262,0.410656,-4.012090,316.527410,20.546438,0.999402,0.992094,0.003693,0.451225,0.000037,0.000029,-0.000003,0.000038,0.000028,-16.973464,0.000066,
2251,3238,-0.25611294032862,12.7986027127563,0.0529982191592353,0.011618,-0.088904,0.013335,0.457983,-4.033657,311.950108,21.049946,0.999776,0.995418,0.002994,0.505846,0.000020,0.000031,0.000007,0.000034,0.000016,63.487975,0.000052,
2086,2413,-3.71218870366534,-5.14720782349983,-0.0158595177380221,0.004177,-0.088610,-0.010406,0.192941,-4.077990,325.102407,20.282038,0.998530,0.984644,0.004949,0.436165,0.000488,0.000264,0.000035,0.000493,0.000258,8.739395,0.000764,
2326,2218,1.55295258529164,-9.41721568890944,-0.0105383006575153,0.005192,-0.093209,-0.024166,0.284885,-4.337973,327.745932,18.828344,0.998399,0.977503,0.006052,0.443783,0.000872,0.000903,-0.000036,0.000926,0.000849,-56.586891,0.001776,
2176,2863,-1.82488854967248,4.65948345681076,-0.012410500368901,0.009277,-0.088380,0.005141,0.379608,-4.008881,317.648028,20.458984,0.998855,0.988242,0.004148,0.449551,0.000056,0.000061,-0.000002,0.000062,0.000055,-71.939735,0.000117,
2296,2083,0.921502711903027,-12.3802393174034,-0.000418475892843162,0.003302,-0.097386,-0.023052,0.191940,-4.519935,329.933689,18.594266,0.998706,0.983771,0.005380,0.347048,0.001216,0.001316,-0.000024,0.001321,0.001210,-77.355406,0.002532,
2281,2023,0.604439981901439,-13.6979851677144,-0.00768323889008116,0.002835,-0.097668,-0.033084,0.203449,-4.595955,330.866349,18.429676,0.998433,0.980746,0.005935,0.404517,0.001355,0.001438,-0.000011,0.001439,0.001354,-82.805522,0.002794,
2116,2548,-3.08104660306184,-2.19908988399133,-0.0322556897312438,0.005695,-0.088106,-0.003380,0.242126,-4.015959,322.690997,20.235937,0.999034,0.987072,0.004637,0.498675,0.000275,0.000132,0.000021,0.000278,0.000129,8.130220,0.000416,
2206,3013,-1.19667295108902,7.91843693470543,0.0108287081860681,0.010611,-0.088652,0.010323,0.423467,-4.024132,315.349174,20.701774,0.999423,0.990309,0.003839,0.397052,0.000021,0.000026,-0.000013,0.000037,0.000010,-50.934714,0.000050,
2356,2368,2.17917453825113,-6.12981007530777,-0.0165825463791975,0.006407,-0.090780,-0.011133,0.296863,-4.167498,325.278895,19.265020,0.998874,0.984035,0.005124,0.440972,0.000546,0.000447,-0.000016,0.000548,0.000444,-8.795148,0.000994,
2161,2788,-2.13928299904694,3.0290292230226,-0.0244113753281567,0.008671,-0.088097,0.002188,0.361317,-4.015089,318.801452,20.410502,0.999526,0.989690,0.004119,0.420337,0.000084,0.000065,-0.000013,0.000091,0.000059,-27.033625,0.000150,
2386,2503,2.80861482449481,-3.1780576105776,-0.0130251740181961,0.007782,-0.090552,-0.003667,0.333491,-4.115982,323.171691,19.642687,0.999244,0.990329,0.004221,0.414251,0.000345,0.000207,-0.000003,0.000345,0.000207,-1.230896,0.000557,
2071,2338,-4.02748078001853,-6.78625727679697,-0.0116237909603001,0.003040,-0.088395,-0.016233,0.157355,-4.092901,326.388644,20.309303,0.998386,0.985081,0.005060,0.445354,0.000605,0.000464,0.000055,0.000624,0.000445,18.984093,0.001074,
2056,2293,-4.3486588131861,-7.77006558346801,-0.0127873240740541,0.001566,-0.089097,-0.015927,0.088412,-4.101761,327.116314,20.342405,0.999819,0.993845,0.003693,0.468623,0.000735,0.000627,0.000105,0.000799,0.000563,31.293491,0.001369,
2131,2638,-2.76660475144138,-0.239559919502433,-0.0010534761485701,0.006970,-0.088452,0.002923,0.281561,-4.005922,321.469045,20.305339,0.999676,0.992291,0.003613,0.452575,0.000194,0.000059,0.000009,0.000194,0.000058,3.701727,0.000265,
2446,2833,4.05173706228404,4.02212410342241,-0.0186602845400898,0.009461,-0.089386,0.001568,0.391107,-4.057207,317.889696,20.810064,0.999645,0.991968,0.003673,0.338456,0.000097,0.000048,0.000017,0.000102,0.000043,17.322277,0.000149,
2416,2668,3.42962894142846,0.424912070489675,-0.0201232217525558,0.008142,-0.090204,0.001728,0.330201,-4.090069,320.458532,20.173540,0.999124,0.988631,0.004544,0.380613,0.000176,0.000101,0.000002,0.000176,0.000101,1.380966,0.000280,
2461,2908,4.36358368576755,5.65346438735271,-0.0105543991076615,0.009588,-0.090131,0.006979,0.375989,-4.079617,316.748442,21.018048,0.998764,0.987281,0.004599,0.395767,0.000068,0.000033,0.000051,0.000104,-0.000003,35.452280,0.000118,
2476,2983,4.67626955047452,7.2855623333989,-0.00532201205641059,0.010409,-0.089940,0.005327,0.419567,-4.082190,315.643532,21.358247,0.999244,0.989120,0.004224,0.361986,0.000045,0.000021,0.000054,0.000088,-0.000022,38.876291,0.000092,
2491,3073,4.98606844385046,9.23979551272142,0.0137344873226084,0.010992,-0.090466,0.010420,0.426209,-4.096527,314.375633,21.610115,0.999564,0.991252,0.003920,0.483664,0.000045,0.000016,0.000056,0.000089,-0.000028,37.888823,0.000091,
2311,2143,1.24018461950811,-11.0617633483623,-0.00521059776554011,0.005237,-0.094327,-0.029742,0.304956,-4.432808,329.027623,18.769154,0.998875,0.983055,0.005509,0.306469,0.001075,0.001154,-0.000024,0.001161,0.001068,-74.537443,0.002229,
2041,2218,-4.66535912369787,-9.41029072920478,-0.0221614792986884,0.000239,-0.089382,-0.024045,0.049762,-4.188149,328.291859,20.404864,0.997168,0.975704,0.006294,0.408178,0.000904,0.000840,0.000139,0.001014,0.000730,38.535410,0.001751,
2236,3163,-0.569613334399495,11.1733903327907,0.0343506387263233,0.011332,-0.088519,0.011045,0.453159,-4.009813,313.048462,20.934845,0.999277,0.990337,0.003972,0.468218,0.000015,0.000035,-0.000001,0.000035,0.000015,-86.898876,0.000052,
2101,2503,-3.39939578691968,-3.18099213597541,-0.0259147464755642,0.005635,-0.087913,-0.008102,0.253462,-4.021553,323.551725,20.289923,0.998978,0.988590,0.004377,0.456490,0.000338,0.000167,0.000020,0.000340,0.000164,6.549311,0.000514,
2371,2443,2.4923544831452,-4.49061962961709,-0.00642510230005655,0.006691,-0.091303,-0.001440,0.275405,-4.132442,324.132847,19.440780,0.998764,0.986545,0.004985,0.461764,0.000440,0.000290,0.000001,0.000440,0.000290,0.259455,0.000735,
2341,2308,1.86399142951501,-7.44455289737399,-0.0030307801022218,0.006122,-0.092252,-0.010854,0.282190,-4.237570,326.347551,19.172395,0.997737,0.980153,0.005637,0.360082,0.000650,0.000577,-0.000018,0.000654,0.000572,-13.416819,0.001228,
2011,2113,-5.30523564434106,-11.71187640711,-0.0100762691686782,-0.002658,-0.091553,-0.028358,-0.073039,-4.308012,330.140117,20.540043,0.997912,0.979207,0.006082,0.362552,0.001199,0.001142,0.000172,0.001345,0.000996,40.305844,0.002350,
2401,2593,3.11716202596826,-1.21278359270021,-0.0194617522195131,0.007702,-0.090508,0.000855,0.313311,-4.110035,321.649909,19.852006,0.999244,0.988424,0.004417,0.458646,0.000240,0.000137,0.000007,0.000240,0.000137,3.720946,0.000381,
2431,2758,3.73951641742076,2.38643721039809,-0.0207499705937835,0.009111,-0.089928,0.001701,0.374579,-4.088527,319.054068,20.408786,0.999390,0.989111,0.004120,0.441365,0.000130,0.000074,0.000024,0.000139,0.000065,19.877792,0.000209,
2251,3253,-0.259315043665108,13.1255116014281,0.0417795826146516,0.012053,-0.088788,0.015228,0.471946,-4.015285,311.623265,21.157849,0.999628,0.993647,0.003330,0.438277,0.000017,0.000025,0.000009,0.000031,0.000012,56.388479,0.000044,
2026,2158,-4.98437830987753,-10.7244312861496,-0.00722987242363615,-0.001395,-0.091264,-0.015906,-0.048535,-4.204213,329.371174,20.567638,0.998606,0.985512,0.005163,0.330138,0.001055,0.000990,0.000155,0.001181,0.000864,39.057393,0.002054,
2281,2038,0.601199341086854,-13.3656509864171,-0.0148668971548886,0.003117,-0.096758,-0.028961,0.202978,-4.517708,330.563221,18.583180,0.998702,0.983776,0.005406,0.361085,0.001322,0.001401,-0.000014,0.001404,0.001320,-80.360914,0.002724,
2056,2308,-4.35045202921948,-7.44156219715246,-0.0128919788901385,0.002082,-0.088574,-0.015391,0.110746,-4.090662,326.895912,20.385580,0.999548,0.990338,0.004296,0.433157,0.000689,0.000565,0.000086,0.000733,0.000521,27.174716,0.001260,
2191,2953,-1.51289136657808,6.61434419887782,0.00757601440199096,0.009793,-0.088791,0.008779,0.391367,-4.007368,316.313027,20.551873,0.999319,0.991450,0.003776,0.464527,0.000035,0.000025,-0.000006,0.000038,0.000023,-23.619983,0.000061,
2461,2923,4.3603980746665,5.98024559977661,-0.0127688390795697,0.009715,-0.090099,0.008254,0.377070,-4.069534,316.485527,21.088683,0.999203,0.989097,0.004276,0.389419,0.000065,0.000031,0.000048,0.000099,-0.000003,35.401396,0.000113,
2491,3088,4.98379199245174,9.56612058112496,0.0207199727736906,0.011234,-0.090115,0.010822,0.435964,-4.075298,314.197700,21.731952,0.999406,0.990698,0.003865,0.440969,0.000051,0.000016,0.000061,0.000097,-0.000029,36.918942,0.000099,
2326,2233,1.54921378295149,-9.08792056536494,-0.00985570750026454,0.004651,-0.093099,-0.017951,0.238765,-4.307867,327.462887,18.911806,0.997681,0.973458,0.006630,0.427496,0.000822,0.000841,-0.000033,0.000866,0.000797,-52.922209,0.001664,
2146,2728,-2.45587794545354,1.72239999837951,-0.022297554476495,0.007904,-0.088272,0.003185,0.323362,-4.006431,319.812670,20.330615,0.999405,0.989518,0.004184,0.465930,0.000132,0.000046,-0.000017,0.000135,0.000043,-10.563302,0.000186,
2071,2353,-4.03068730068149,-6.45772848921394,-0.0117267703014932,0.002624,-0.088987,-0.008610,0.116357,-4.066480,326.104863,20.355359,0.998153,0.982432,0.005406,0.424242,0.000568,0.000414,0.000056,0.000586,0.000396,18.166213,0.000988,
2041,2233,-4.66707124052013,-9.08144526869233,-0.0191918960048838,0.000754,-0.089519,-0.021220,0.065549,-4.161721,328.090654,20.470172,0.998612,0.981533,0.005558,0.364053,0.000865,0.000792,0.000124,0.000958,0.000699,36.841163,0.001663,
2161,2803,-2.14116414293803,3.35501800501488,-0.0197980286606594,0.008934,-0.087939,0.001331,0.376153,-3.999445,318.610985,20.415798,0.999566,0.990883,0.003892,0.440640,0.000080,0.000063,-0.000014,0.000088,0.000055,-29.465279,0.000145,
2131,2653,-2.7693130630561,0.0882297129412422,-0.0153230251588639,0.007349,-0.088148,-0.001558,0.312495,-4.015836,321.137586,20.298567,0.999568,0.990805,0.003864,0.455989,0.000180,0.000058,0.000005,0.000181,0.000058,2.558477,0.000249,
2386,2518,2.8057535405924,-2.85081459026243,-0.0177543644073808,0.007814,-0.090023,-0.008326,0.351838,-4.135107,322.907533,19.634355,0.999203,0.988416,0.004562,0.448034,0.000325,0.000203,-0.000003,0.000325,0.000203,-1.444373,0.000532,
2311,2158,1.2377722872303,-10.7350037039423,0.00166584320163565,0.005717,-0.095568,-0.020786,0.296024,-4.436769,328.835150,18.694373,0.998684,0.984411,0.005593,0.412171,0.001025,0.001081,-0.000022,0.001088,0.001017,-71.299517,0.002106,
2176,2878,-1.82673765646452,4.98566126086342,-0.00423727602128565,0.009562,-0.088167,0.007260,0.386252,-3.994156,317.478578,20.528350,0.999460,0.992715,0.003494,0.406722,0.000056,0.000057,-0.000002,0.000059,0.000054,-55.963011,0.000113,
2416,2683,3.42741285502407,0.751103605345989,-0.0173139872763386,0.008689,-0.090174,0.002298,0.353222,-4.101944,320.261415,20.180092,0.998974,0.986969,0.004866,0.410121,0.000169,0.000109,0.000001,0.000169,0.000109,1.176307,0.000280,
2476,2998,4.67379888744466,7.61036933413008,0.00514778577252173,0.010659,-0.090195,0.011934,0.405780,-4.085610,315.472548,21.368250,0.999324,0.989193,0.004049,0.404332,0.000038,0.000016,0.000059,0.000087,-0.000034,39.691929,0.000088,
2221,3103,-0.884916566102401,9.87079975318714,0.0316884654433807,0.011104,-0.088831,0.010880,0.443701,-4.031814,314.034442,20.809201,0.999459,0.991886,0.003673,0.434459,0.000015,0.000023,-0.000008,0.000028,0.000010,-57.831385,0.000040,
2296,2098,0.919232446628662,-12.0498240954475,-0.00905449088111254,0.004153,-0.096494,-0.026195,0.241886,-4.528278,329.669853,18.666856,0.998136,0.980105,0.005970,0.299533,0.001177,0.001282,-0.000024,0.001287,0.001172,-77.804375,0.002460,
2371,2458,2.48953948130898,-4.16169689263219,-0.02013212213717,0.007165,-0.090687,-0.009727,0.326790,-4.185822,323.826678,19.515401,0.998675,0.985182,0.005086,0.376543,0.000419,0.000268,0.000003,0.000419,0.000268,1.098909,0.000692,
2116,2563,-3.08256497991466,-1.87156426767283,-0.0306552451658035,0.006409,-0.087844,-0.004542,0.278467,-4.020736,322.497602,20.307296,0.999059,0.986636,0.004777,0.426720,0.000258,0.000118,0.000015,0.000260,0.000116,5.878698,0.000385,
2056,2323,-4.35173879274486,-7.11356770822493,-0.00882085993197279,0.002500,-0.087610,-0.020484,0.144566,-4.059235,326.721634,20.408517,0.998977,0.984234,0.005020,0.438065,0.000646,0.000502,0.000074,0.000678,0.000470,22.822754,0.001154,
2236,3178,-0.571571933785275,11.4978876840963,0.0443348314670402,0.011396,-0.088735,0.011956,0.453014,-4.035039,312.886850,20.968080,0.999320,0.990696,0.003828,0.429650,0.000015,0.000038,0.000002,0.000038,0.000015,83.820499,0.000055,
2446,2848,4.04950868983555,4.34632431984351,-0.00982416327593683,0.009576,-0.089517,0.002523,0.392815,-4.056712,317.721644,20.713634,0.999575,0.991159,0.003697,0.487425,0.000089,0.000046,0.000022,0.000098,0.000037,22.598587,0.000139,
2011,2128,-5.30772748626629,-11.381384669335,-0.015884605019437,-0.002503,-0.091180,-0.026040,-0.072065,-4.284140,329.851457,20.625855,0.997282,0.977377,0.006549,0.292072,0.001147,0.001114,0.000176,0.001307,0.000953,42.291999,0.002270,
2086,2428,-3.71468080503528,-4.81934354465737,-0.0175788908576919,0.004211,-0.088668,-0.009202,0.190989,-4.080218,324.844028,20.306183,0.998939,0.986401,0.004656,0.410326,0.000465,0.000229,0.000041,0.000472,0.000222,9.582478,0.000709,
2101,2518,-3.40215994652519,-2.8538661408124,-0.0255207376712292,0.005602,-0.088695,-0.002213,0.234473,-4.036060,323.293790,20.308929,0.999512,0.991876,0.003814,0.425242,0.000313,0.000152,0.000025,0.000317,0.000148,8.494620,0.000475,
2356,2383,2.17582093198177,-5.80094877962314,-0.0151216337997084,0.006212,-0.091578,-0.005645,0.268355,-4.174457,325.019359,19.405141,0.999149,0.982106,0.005186,0.334343,0.000520,0.000427,-0.000019,0.000524,0.000423,-10.956804,0.000949,
2026,2173,-4.98572505502277,-10.3969866528818,-0.00449207335503843,-0.000864,-0.090917,-0.018321,-0.017460,-4.206278,329.184535,20.509464,0.998633,0.987553,0.004856,0.378962,0.001025,0.000952,0.000158,0.001150,0.000827,38.437533,0.001985,
2401,2608,3.1148765784146,-0.885302183691415,-0.0174914180297492,0.008058,-0.090365,-0.000711,0.335433,-4.105112,321.444574,19.930439,0.999143,0.989025,0.004342,0.431290,0.000224,0.000128,0.000009,0.000225,0.000127,5.487317,0.000356,
2251,3268,-0.262926899576119,13.4513185604319,0.0255733403680551,0.012127,-0.088616,0.012843,0.483256,-4.019057,311.252571,21.164001,0.999440,0.992417,0.003566,0.450398,0.000016,0.000048,0.000008,0.000050,0.000014,76.946495,0.000067,
2431,2773,3.73646225582123,2.71312991338561,-0.0205478693679311,0.008996,-0.089960,0.001485,0.370175,-4.075285,318.806801,20.442212,0.999383,0.988702,0.004266,0.471362,0.000117,0.000058,0.000020,0.000123,0.000052,16.914438,0.000179,
2206,3028,-1.19906129866144,8.24387115179587,0.0155035580843901,0.010716,-0.088676,0.013382,0.418657,-4.012001,315.138661,20.717273,0.999592,0.992727,0.003523,0.409748,0.000019,0.000025,-0.000014,0.000037,0.000008,-50.528658,0.000047,
2461,2938,4.35812865253827,6.30586508373782,-0.0096098927738808,0.010154,-0.090358,0.007614,0.399499,-4.097393,316.289679,21.132731,0.999336,0.990347,0.004162,0.371184,0.000062,0.000023,0.000046,0.000092,-0.000007,33.249435,0.000103,
2041,2248,-4.66896610210835,-8.75390702774224,-0.0197252596287854,0.001108,-0.089214,-0.021405,0.082353,-4.154206,327.862139,20.403930,0.998817,0.983778,0.005147,0.432470,0.000825,0.000771,0.000105,0.000906,0.000689,37.900262,0.001601,
2491,3103,4.98117640884609,9.89201479837906,0.0228475397843795,0.011373,-0.089751,0.009222,0.448699,-4.065584,313.982257,21.797983,0.999370,0.989826,0.003864,0.442577,0.000050,0.000007,0.000065,0.000098,-0.000040,35.867955,0.000098,
2476,3013,4.67062769753595,7.93617951854522,0.00885567225117256,0.010327,-0.090447,0.013155,0.385852,-4.088072,315.238200,21.426972,0.999512,0.991474,0.003638,0.399132,0.000035,0.000025,0.000061,0.000091,-0.000031,42.658391,0.000092,
2071,2368,-4.0323456365121,-6.12927727899996,-0.0207853939945721,0.003353,-0.088236,-0.016338,0.172071,-4.082323,325.843143,20.354192,0.997249,0.980670,0.005817,0.408308,0.000550,0.000385,0.000055,0.000567,0.000369,16.777927,0.000942,
2371,2473,2.48707000460925,-3.83482103450212,-0.0122076406805149,0.007224,-0.090745,-0.006085,0.316573,-4.161974,323.639610,19.532177,0.999020,0.987318,0.004715,0.425849,0.000395,0.000250,0.000005,0.000395,0.000250,2.072018,0.000650,
2341,2323,1.86050781152409,-7.11497242300652,-0.0140122103018712,0.006018,-0.091636,-0.014374,0.289913,-4.196925,326.020612,19.185999,0.998658,0.985458,0.005059,0.426220,0.000615,0.000542,-0.000018,0.000619,0.000538,-13.361773,0.001158,
2011,2143,-5.30947808261451,-11.0520882864208,-0.0182849974934811,-0.001794,-0.090157,-0.023340,-0.046585,-4.196502,329.615593,20.581985,0.997647,0.978299,0.006139,0.414268,0.001111,0.001066,0.000186,0.001276,0.000901,41.548843,0.002187,
2056,2338,-4.35463144786477,-6.7846220737495,-0.0192370817627534,0.002545,-0.087573,-0.020156,0.145718,-4.065649,326.394344,20.418082,0.998699,0.984759,0.005011,0.418906,0.000606,0.000451,0.000064,0.000629,0.000428,19.663268,0.001063,
2221,3118,-0.886830217284139,10.196990339234,0.0357452244921888,0.011393,-0.088184,0.008712,0.464279,-4.002598,313.843121,20.894312,0.999598,0.991563,0.003723,0.396326,0.000014,0.000024,-0.000008,0.000028,0.000009,-60.334195,0.000039,
2281,2053,0.598380831572026,-13.0369445204413,-0.0151191167807383,0.003110,-0.096597,-0.027351,0.197372,-4.499835,330.314510,18.550316,0.998230,0.981780,0.005688,0.443169,0.001286,0.001378,-0.000007,0.001379,0.001286,-85.718218,0.002665,
2161,2818,-2.14369939418241,3.68178186095799,-0.0143853705953916,0.008697,-0.088069,0.003482,0.358599,-4.001288,318.394534,20.519665,0.999702,0.992776,0.003496,0.344651,0.000081,0.000067,-0.000012,0.000088,0.000060,-29.747634,0.000148,
2311,2173,1.23369974361281,-10.4045177659806,-0.00190127339902801,0.004713,-0.094615,-0.020106,0.248070,-4.378297,328.514669,18.791033,0.998574,0.980903,0.005695,0.409489,0.000988,0.001036,-0.000019,0.001042,0.000981,-70.755052,0.002024,
2026,2188,-4.98824094944755,-10.0672430240964,-0.0133071897818695,-0.001015,-0.089473,-0.024285,-0.007597,-4.198359,328.879839,20.534251,0.998628,0.986048,0.005098,0.355334,0.000988,0.000939,0.000167,0.001132,0.000795,40.781321,0.001937,
2416,2698,3.42395754857151,1.07846223116251,-0.0263612173106935,0.008819,-0.089887,0.001227,0.363252,-4.094241,319.951529,20.181435,0.999329,0.989844,0.004223,0.464949,0.000157,0.000114,0.000002,0.000157,0.000114,3.226457,0.000272,
2386,2533,2.80206146318735,-2.52147178510245,-0.0249927936138761,0.007688,-0.089247,-0.007064,0.341951,-4.063035,322.592576,19.710588,0.999272,0.988691,0.004561,0.488573,0.000308,0.000183,-0.000003,0.000308,0.000183,-1.585312,0.000496,
2146,2743,-2.45776842450938,2.04843912916914,-0.0183405522566318,0.008231,-0.088269,0.003197,0.338398,-4.005604,319.617344,20.333097,0.999441,0.990076,0.004116,0.472184,0.000126,0.000052,-0.000017,0.000130,0.000048,-12.243733,0.000184,
2251,3283,-0.265967122594368,13.7765804159094,0.0171555328445265,0.012277,-0.088551,0.011313,0.495201,-4.027939,310.947906,21.173427,0.999325,0.992010,0.003678,0.453916,0.000013,0.000059,0.000002,0.000059,0.000013,87.941232,0.000076,
2296,2113,0.915892135021775,-11.720566896841,-0.0130253618024199,0.003906,-0.095865,-0.024969,0.226664,-4.482139,329.379867,18.637191,0.997866,0.978249,0.006214,0.408727,0.001134,0.001248,-0.000019,0.001251,0.001131,-80.811393,0.002382,
2191,2968,-1.51482855478757,6.94022031079143,0.00581920770702027,0.010292,-0.088446,0.004981,0.426359,-4.016231,316.088744,20.569033,0.999217,0.990326,0.003971,0.452438,0.000033,0.000025,-0.000006,0.000036,0.000022,-27.137407,0.000059,
2476,3028,4.66811347790849,8.26191583934401,0.0134346991759458,0.010489,-0.090399,0.013304,0.392836,-4.075344,315.038008,21.472980,0.999667,0.992778,0.003457,0.421701,0.000038,0.000017,0.000059,0.000088,-0.000033,39.945070,0.000089,
2176,2893,-1.82855681764312,5.31002602718334,0.0089382635856623,0.009390,-0.088205,0.007235,0.378316,-4.010160,317.337330,20.501295,0.999780,0.995297,0.003125,0.429635,0.000051,0.000051,-0.000002,0.000053,0.000049,-45.084987,0.000102,
2236,3193,-0.57427178267001,11.8229981850997,0.043948750982338,0.011586,-0.089013,0.014704,0.452806,-4.032105,312.637884,20.971262,0.999319,0.990665,0.003827,0.449319,0.000014,0.000038,0.000004,0.000038,0.000013,80.080356,0.000054,
2461,2953,4.35562313702703,6.63168232447295,-0.00636481671295996,0.010293,-0.090168,0.006310,0.410947,-4.089631,316.083184,21.163803,0.999400,0.990293,0.004070,0.402032,0.000062,0.000013,0.000051,0.000094,-0.000019,31.966081,0.000100,
2326,2248,1.54647171828494,-8.75909823460972,-0.00866934747864434,0.004834,-0.093178,-0.014832,0.236440,-4.305158,327.228096,18.989567,0.998318,0.978883,0.005798,0.389336,0.000787,0.000757,-0.000033,0.000808,0.000736,-32.781494,0.001545,
2116,2578,-3.08465432243826,-1.54542859156357,-0.0227521996233691,0.006478,-0.088310,-0.000516,0.269590,-4.032839,322.312269,20.318397,0.999246,0.989031,0.004407,0.407689,0.000236,0.000104,0.000016,0.000238,0.000102,6.821094,0.000349,
2356,2398,2.17385199024477,-5.47446827024255,-0.0113768009754267,0.006530,-0.091450,-0.008910,0.294472,-4.182603,324.834641,19.354995,0.999373,0.986765,0.004719,0.416578,0.000493,0.000405,-0.000019,0.000497,0.000401,-11.529315,0.000899,
2011,2158,-5.31266653775164,-10.7234438820808,-0.012028512417146,-0.002692,-0.091208,-0.015070,-0.110526,-4.201626,329.363141,20.669474,0.997445,0.979644,0.006207,0.312794,0.001038,0.000978,0.000161,0.001172,0.000844,39.663378,0.002025,
2131,2668,-2.76981062526447,0.411317273694067,0.00549477634746154,0.007845,-0.088308,-0.002755,0.338846,-4.017059,321.095831,20.150537,0.999573,0.991227,0.003859,0.608643,0.000171,0.000059,0.000003,0.000171,0.000059,1.486836,0.000239,
2446,2863,4.04662675467879,4.67203635522776,-0.00275902112304038,0.009366,-0.089766,0.005614,0.371532,-4.062947,317.514931,20.753059,0.999725,0.993113,0.003356,0.493502,0.000082,0.000056,0.000030,0.000102,0.000036,33.142758,0.000143,
2206,3043,-1.20127808615748,8.56929825496657,0.0211552556665424,0.010433,-0.088351,0.009314,0.418679,-4.005053,314.941083,20.747102,0.999803,0.994970,0.003098,0.402624,0.000019,0.000022,-0.000013,0.000034,0.000007,-48.739334,0.000044,
2071,2383,-4.03457606912871,-5.80142090957894,-0.0145458573514361,0.003461,-0.088331,-0.009605,0.157859,-4.050756,325.638762,20.405432,0.998072,0.983376,0.005402,0.387143,0.000534,0.000338,0.000051,0.000547,0.000325,13.735277,0.000881,
2026,2203,-4.99126305828217,-9.73820791537863,-0.0196625422304351,-0.001038,-0.089865,-0.017339,-0.027845,-4.160883,328.565711,20.497403,0.998544,0.984175,0.005379,0.422990,0.000948,0.000890,0.000160,0.001082,0.000756,39.831654,0.001847,
2041,2263,-4.67103442825691,-8.42599465734327,-0.01365693665241,0.001107,-0.089134,-0.018072,0.073107,-4.122034,327.662009,20.419885,0.998875,0.985116,0.005054,0.443188,0.000793,0.000721,0.000104,0.000867,0.000647,35.443781,0.001520,
2251,3298,-0.267858862430973,14.1014844335868,0.0239113017547083,0.012651,-0.088509,0.012018,0.510138,-4.027124,310.773331,21.226701,0.999185,0.990897,0.003821,0.423322,0.000016,0.000051,-0.000004,0.000052,0.000016,-84.079656,0.000071,
2101,2533,-3.40517943739189,-2.52653584532003,-0.0303533561061045,0.005469,-0.088757,0.000916,0.219198,-4.034754,322.995844,20.288881,0.999355,0.990636,0.004105,0.449007,0.000291,0.000138,0.000028,0.000296,0.000134,9.994297,0.000440,
2491,3118,4.97793276670488,10.2173999771054,0.0234340003407851,0.011126,-0.090068,0.008952,0.438214,-4.092642,313.730989,21.847984,0.999455,0.990790,0.003718,0.423177,0.000046,0.000016,0.000067,0.000099,-0.000037,38.616777,0.000100,
2086,2443,-3.71722600289577,-4.49079314135369,-0.0252662798451411,0.004462,-0.088493,-0.009737,0.204124,-4.071892,324.550613,20.331839,0.999296,0.987799,0.004461,0.393846,0.000429,0.000188,0.000034,0.000434,0.000184,7.796004,0.000634,
2476,3043,4.66510336963299,8.58805876300774,0.0108954428998231,0.010635,-0.090449,0.012080,0.404233,-4.077180,314.782412,21.527621,0.999692,0.992711,0.003508,0.421104,0.000032,0.000017,0.000065,0.000090,-0.000041,41.690886,0.000090,
2431,2788,3.73371975197863,3.03961827274331,-0.0159581152927899,0.009149,-0.090604,0.005067,0.363648,-4.106929,318.594315,20.540236,0.999412,0.989338,0.004167,0.391484,0.000115,0.000057,0.000018,0.000120,0.000052,16.201905,0.000176,
2416,2713,3.4220632003206,1.4049406103741,-0.02233334497123,0.009084,-0.089532,-0.004552,0.396742,-4.089847,319.774671,20.217130,0.999532,0.990671,0.003984,0.481778,0.000141,0.000108,0.000009,0.000143,0.000106,13.469068,0.000250,
2221,3133,-0.889800121919208,10.5212274429327,0.0374087273198711,0.011251,-0.088301,0.013116,0.443545,-4.001592,313.591626,20.816380,0.999590,0.992508,0.003604,0.493237,0.000008,0.000025,-0.000008,0.000029,0.000005,-69.001014,0.000036,
2401,2623,3.11185092350495,-0.558326160123777,-0.0150151212682772,0.008051,-0.090603,0.002995,0.321617,-4.095314,321.207645,19.966514,0.999042,0.987407,0.004487,0.451368,0.000208,0.000117,0.000001,0.000208,0.000117,0.926858,0.000329,
2281,2068,0.597189154583472,-12.7081600892377,-0.00618020319348034,0.003968,-0.096733,-0.027121,0.235848,-4.512507,330.186001,18.662385,0.998266,0.981857,0.005597,0.348897,0.001248,0.001331,0.000001,0.001331,0.001248,89.541270,0.002579,
2011,2173,-5.31394443900781,-10.3956784577099,-0.0118548866714718,-0.002088,-0.090367,-0.019541,-0.070491,-4.198080,329.164025,20.607748,0.997940,0.985973,0.005518,0.368586,0.001006,0.000945,0.000165,0.001144,0.000808,39.766060,0.001961,
2176,2908,-1.83222914873101,5.63619893713944,0.00219392733481527,0.009030,-0.088833,0.011775,0.347524,-4.012274,317.006064,20.485570,0.999517,0.991899,0.003691,0.455057,0.000052,0.000036,-0.000001,0.000052,0.000036,-4.261566,0.000088,
2461,2968,4.35310201879387,6.95727800356029,0.00194469159191613,0.010347,-0.090095,0.009223,0.402525,-4.071161,315.899148,21.202672,0.999341,0.989947,0.004155,0.435386,0.000056,0.000018,0.000061,0.000100,-0.000027,36.398744,0.000104,
2266,1993,0.281216415818065,-14.3570479653912,-0.00214507291315158,0.002002,-0.098829,-0.026541,0.142592,-4.604321,331.353408,18.471622,0.996984,0.964008,0.008288,0.398155,0.001405,0.001450,-0.000022,0.001459,0.001396,-68.142040,0.002856,
2041,2278,-4.67289071868584,-8.09796083868123,-0.00687085911590657,0.001469,-0.089576,-0.011652,0.071756,-4.118408,327.475656,20.486896,0.999739,0.991802,0.004191,0.374415,0.000766,0.000651,0.000098,0.000822,0.000594,29.776086,0.001423,
2056,2353,-4.35744149724803,-6.45660104271155,-0.0212543386346624,0.002665,-0.088045,-0.011559,0.126884,-4.029936,326.117006,20.389937,0.998505,0.983066,0.005295,0.479514,0.000568,0.000404,0.000066,0.000592,0.000381,19.345048,0.000980,
2371,2488,2.48405659890947,-3.50677303504762,-0.0119495774185339,0.007038,-0.090164,-0.006313,0.309116,-4.109897,323.390637,19.561678,0.999096,0.987325,0.004616,0.490867,0.000370,0.000218,0.000006,0.000370,0.000218,2.296174,0.000595,
2146,2758,-2.46042474704075,2.37525975256838,-0.0196733499080892,0.008139,-0.088375,0.003072,0.334478,-4.016326,319.358651,20.381010,0.999369,0.990096,0.003978,0.421685,0.000116,0.000057,-0.000018,0.000121,0.000052,-15.345418,0.000178,
2341,2338,1.85872362713991,-6.78750320928071,-0.00752594361836145,0.006467,-0.091298,-0.015357,0.314043,-4.206165,325.856546,19.235065,0.999085,0.987006,0.004870,0.406270,0.000591,0.000518,-0.000015,0.000594,0.000515,-11.191157,0.001110,
2026,2218,-4.9928515513456,-9.41059385529599,-0.0176483589003169,-0.000561,-0.089863,-0.017515,-0.005470,-4.187732,328.364166,20.487951,0.998091,0.980434,0.005796,0.398202,0.000915,0.000842,0.000158,0.001041,0.000716,38.505864,0.001767,
2296,2128,0.913687641671089,-11.3910598300869,-0.00392360443385087,0.003872,-0.094740,-0.023224,0.219664,-4.415828,329.206202,18.757621,0.998310,0.979963,0.005825,0.387253,0.001094,0.001212,-0.000017,0.001214,0.001091,-82.099287,0.002306,
2191,2983,-1.51749661270558,7.26579023875995,0.0129358568785278,0.010091,-0.088497,0.010476,0.399834,-4.005157,315.877176,20.603595,0.999341,0.990887,0.003841,0.442599,0.000029,0.000028,-0.000007,0.000035,0.000022,-41.405301,0.000057,
2236,3208,-0.576071075518261,12.148277318403,0.0506680945716766,0.011735,-0.088591,0.011255,0.471109,-4.012725,312.466577,21.018643,0.999452,0.992041,0.003660,0.441203,0.000014,0.000036,0.000006,0.000037,0.000012,74.815167,0.000052,
2116,2593,-3.08659571199209,-1.21999936775548,-0.0156759230936245,0.006601,-0.088556,0.001265,0.269935,-4.014283,322.129383,20.230637,0.999408,0.990758,0.004135,0.517998,0.000222,0.000096,0.000020,0.000226,0.000093,8.966766,0.000328,
2326,2263,1.54471989704719,-8.43050538053949,-0.00988440887732622,0.005677,-0.092529,-0.018441,0.287706,-4.298205,327.026945,19.022444,0.998690,0.981539,0.005322,0.400057,0.000744,0.000702,-0.000038,0.000766,0.000680,-30.384369,0.001447,
2446,2878,4.04254525873576,4.99946184465942,-0.0125382838311907,0.009198,-0.090129,0.006972,0.358630,-4.074097,317.174820,20.834575,0.999461,0.991568,0.003705,0.452935,0.000077,0.000062,0.000037,0.000107,0.000032,39.207194,0.000146,
2356,2413,2.17147284548552,-5.14539973853173,-0.0174127655458278,0.007300,-0.090810,-0.010924,0.337140,-4.179528,324.583590,19.441950,0.999605,0.989670,0.004337,0.373569,0.000461,0.000376,-0.000013,0.000463,0.000374,-8.396970,0.000839,
2491,3133,4.97482174865396,10.5433234162744,0.023418959242349,0.011172,-0.089989,0.009995,0.436491,-4.069495,313.482845,21.897583,0.999417,0.990885,0.003672,0.454793,0.000054,0.000009,0.000059,0.000095,-0.000032,34.668798,0.000096,
2071,2398,-4.03656256236222,-5.47406611862692,-0.0171487085582953,0.003956,-0.088382,-0.009398,0.179996,-4.045316,325.397480,20.356251,0.998456,0.984385,0.005278,0.440368,0.000504,0.000296,0.000046,0.000514,0.000286,11.915751,0.000811,
2161,2833,-2.14566141642901,4.00616647833435,-0.00752105662002123,0.008929,-0.088313,0.005654,0.362532,-4.011388,318.212760,20.427744,0.999631,0.993159,0.003463,0.436562,0.000072,0.000064,-0.000008,0.000078,0.000059,-32.189810,0.000137,
2386,2548,2.79989621247256,-2.19542239302532,-0.0164480964000973,0.007863,-0.089987,-0.005534,0.344184,-4.106054,322.423466,19.745817,0.999173,0.988203,0.004646,0.454448,0.000288,0.000155,0.000004,0.000288,0.000154,1.723466,0.000449,
2011,2188,-5.31732330613278,-10.0635392814377,-0.0397407012769122,-0.001919,-0.089916,-0.024347,-0.049613,-4.216767,328.711335,20.676717,0.999246,0.991791,0.004451,0.272838,0.000970,0.000935,0.000176,0.001129,0.000776,42.141606,0.001915,
2266,2008,0.279625581552988,-14.0274184614602,-0.000501926936863129,0.002414,-0.097960,-0.033842,0.185833,-4.597712,331.169060,18.537681,0.998617,0.982863,0.005627,0.367687,0.001366,0.001439,-0.000003,0.001439,0.001366,-87.638799,0.002806,
2206,3058,-1.20378027363294,8.89450435362534,0.0231073453797421,0.010524,-0.088449,0.011039,0.417395,-3.994049,314.711302,20.731735,0.999760,0.994422,0.003127,0.444942,0.000020,0.000022,-0.000014,0.000035,0.000007,-46.378765,0.000045,
2041,2293,-4.67477272518378,-7.77159194148839,-0.00228026268877102,0.001595,-0.089805,-0.010730,0.074907,-4.122109,327.276426,20.391352,0.999781,0.992695,0.004024,0.460432,0.000746,0.000629,0.000104,0.000807,0.000568,30.312090,0.001381,
2086,2458,-3.71976008873534,-4.16376835460419,-0.0234103509757801,0.004387,-0.088473,-0.005996,0.189905,-4.042364,324.309810,20.291603,0.999242,0.988777,0.004421,0.463902,0.000404,0.000173,0.000031,0.000408,0.000169,7.457252,0.000594,
2311,2188,1.23231048832293,-10.0758394295456,0.000168981969068227,0.005311,-0.093540,-0.028139,0.303226,-4.385573,328.345182,18.853175,0.998652,0.980605,0.005535,0.374756,0.000942,0.000999,-0.000020,0.001005,0.000935,-72.197417,0.001941,
2476,3058,4.66309460825225,8.9134471864125,0.0215502155457443,0.010543,-0.090171,0.009183,0.411089,-4.083786,314.633110,21.607786,0.999570,0.990264,0.004031,0.390207,0.000038,0.000015,0.000061,0.000089,-0.000036,39.475193,0.000089,
2281,2083,0.594134820716963,-12.3792310594096,-0.00765242912990516,0.003684,-0.096451,-0.027341,0.223731,-4.515416,329.920468,18.667478,0.998378,0.981271,0.005679,0.372064,0.001208,0.001304,-0.000002,0.001304,0.001208,-88.661539,0.002513,
2101,2548,-3.40742226524587,-2.19961017240487,-0.0396254509504956,0.006028,-0.088444,-0.001681,0.252603,-4.045918,322.709618,20.210084,0.999522,0.993353,0.003781,0.519212,0.000280,0.000125,0.000031,0.000286,0.000119,10.974858,0.000416,
2131,2683,-2.77365940208513,0.740717653842125,-0.0102112543070234,0.007617,-0.088395,-0.000690,0.322162,-4.030924,320.703990,20.294474,0.999392,0.990768,0.003892,0.457241,0.000159,0.000055,0.000000,0.000159,0.000055,0.217127,0.000223,
2461,2983,4.35036678263647,7.28382889962117,0.00415980386213732,0.010407,-0.090047,0.008655,0.407468,-4.070919,315.677024,21.308905,0.999389,0.989823,0.004083,0.383069,0.000052,0.000018,0.000056,0.000093,-0.000024,36.434728,0.000097,
2431,2803,3.73150043520268,3.36659620640449,-0.0105843238719672,0.009435,-0.090347,0.004646,0.378532,-4.089495,318.409253,20.643996,0.999405,0.989026,0.004236,0.354995,0.000108,0.000055,0.000018,0.000113,0.000049,17.129877,0.000167,
2056,2368,-4.35960468391507,-6.12758496329775,-0.028456204014617,0.002924,-0.087432,-0.016455,0.152748,-4.035481,325.840683,20.448625,0.998285,0.984379,0.005231,0.411958,0.000552,0.000375,0.000065,0.000573,0.000353,18.238975,0.000935,
2491,3148,4.97240216095807,10.8688550445193,0.0295677221316168,0.011488,-0.090133,0.012182,0.442544,-4.080185,313.294466,21.986277,0.999449,0.989700,0.003866,0.413077,0.000055,0.000009,0.000067,0.000103,-0.000039,35.652306,0.000104,
2026,2233,-4.9946972448163,-9.08102478302229,-0.0194119291916195,-0.000061,-0.089764,-0.017026,0.016157,-4.155994,328.129210,20.564433,0.999124,0.984231,0.005098,0.345906,0.000876,0.000795,0.000144,0.000985,0.000686,37.111830,0.001680,
2221,3148,-0.892060712728924,10.8466237174447,0.0400608153124722,0.011387,-0.088472,0.012273,0.452485,-4.010658,313.377400,20.864858,0.999530,0.992381,0.003580,0.453263,0.000007,0.000031,-0.000006,0.000033,0.000006,-76.304239,0.000042,
2266,2023,0.27641851190717,-13.6973898104588,-0.00272562379564079,0.001946,-0.097429,-0.034872,0.167998,-4.580570,330.891348,18.591473,0.998170,0.978345,0.006388,0.360439,0.001326,0.001426,0.000014,0.001428,0.001324,82.050264,0.002752,
2416,2728,3.41850068049367,1.73222874166201,-0.0260873235781673,0.009031,-0.089661,-0.001321,0.382426,-4.091382,319.484496,20.274681,0.999498,0.990479,0.003998,0.470925,0.000129,0.000097,0.000020,0.000138,0.000087,25.490440,0.000227,
2011,2203,-5.31828503093081,-9.7368269024301,-0.0262835853091019,-0.001329,-0.089117,-0.021120,-0.031058,-4.129773,328.600800,20.587453,0.999359,0.991598,0.004369,0.438837,0.000929,0.000887,0.000165,0.001074,0.000741,41.390367,0.001826,
2296,2143,0.911252329392752,-11.0594641209487,-0.0109323544294853,0.004535,-0.094385,-0.025309,0.257198,-4.388122,328.942369,18.937846,0.998930,0.981381,0.005626,0.267972,0.001054,0.001138,-0.000014,0.001140,0.001052,-80.521134,0.002193,
2146,2773,-2.46282440883047,2.70228496184298,-0.0242681643662763,0.008432,-0.088190,0.001631,0.352465,-4.006699,319.094303,20.406467,0.999599,0.993454,0.003374,0.414003,0.000106,0.000060,-0.000015,0.000111,0.000056,-16.302496,0.000169,
2371,2503,2.48134914524759,-3.17870780292707,-0.0143664790394382,0.007463,-0.090430,-0.005366,0.325147,-4.128031,323.143115,19.643311,0.999121,0.988132,0.004579,0.433401,0.000343,0.000217,0.000006,0.000343,0.000216,2.785246,0.000565,
2326,2278,1.54183829526913,-8.10066406197193,-0.0170596294535699,0.006151,-0.092183,-0.018036,0.308218,-4.287461,326.744758,19.110748,0.998776,0.981899,0.005302,0.359368,0.000709,0.000677,-0.000029,0.000726,0.000660,-30.455632,0.001386,
2401,2638,3.10822555819149,-0.230620156745999,-0.0195546961787727,0.007642,-0.090376,0.002159,0.305985,-4.086198,320.909912,20.015207,0.999079,0.986349,0.004538,0.458051,0.000190,0.000120,-0.000002,0.000191,0.000120,-1.624141,0.000313,
2476,3073,4.66052512767597,9.23862244714255,0.0249347557143551,0.010888,-0.090157,0.011038,0.419914,-4.083444,314.424887,21.617074,0.999575,0.990492,0.003911,0.436862,0.000040,0.000019,0.000060,0.000091,-0.000032,40.095861,0.000092,
2356,2428,2.16806275947615,-4.8196109945133,-0.0167254560362835,0.006897,-0.090912,-0.007839,0.307773,-4.151748,324.317973,19.273506,0.999197,0.988834,0.004586,0.610003,0.000442,0.000335,-0.000009,0.000442,0.000334,-4.628597,0.000779,
2191,2998,-1.52035498603587,7.59206457856905,0.00753738297441942,0.010074,-0.088236,0.008898,0.404145,-3.996978,315.591435,20.623975,0.999503,0.990884,0.003838,0.444324,0.000024,0.000024,-0.000009,0.000033,0.000015,-44.276587,0.000050,
2071,2413,-4.03848573996972,-5.14740486841681,-0.0145257913127352,0.004289,-0.088658,-0.007584,0.190036,-4.061163,325.187895,20.319875,0.998300,0.984291,0.005148,0.459278,0.000486,0.000251,0.000041,0.000493,0.000244,9.645890,0.000750,
2446,2893,4.03874071986281,5.32678721257012,-0.0243484629575619,0.009426,-0.090334,0.007786,0.366074,-4.071629,316.837983,20.884115,0.999420,0.990909,0.003889,0.458097,0.000072,0.000052,0.000040,0.000103,0.000021,37.973824,0.000133,
2311,2203,1.22820351057099,-9.74672315216064,0.000347137263531749,0.004680,-0.094030,-0.018254,0.240498,-4.348095,328.041663,18.896311,0.998382,0.977829,0.005947,0.404264,0.000900,0.000951,-0.000022,0.000959,0.000892,-69.236153,0.001851,
2236,3223,-0.579382409624888,12.4739545321007,0.0447225455938565,0.011556,-0.088617,0.011816,0.460966,-4.021471,312.160801,21.061100,0.999410,0.991434,0.003852,0.409689,0.000013,0.000038,0.000006,0.000039,0.000012,76.163015,0.000053,
2176,2923,-1.83483214107252,5.96323615925469,-0.00414163866912531,0.009387,-0.088540,0.011481,0.365007,-3.995147,316.725683,20.538079,0.999011,0.986658,0.004508,0.431631,0.000047,0.000028,-0.000002,0.000048,0.000028,-6.183552,0.000076,
2086,2473,-3.72209204631104,-3.83634064277031,-0.0231456591912433,0.004648,-0.088991,-0.001841,0.189745,-4.047720,324.069649,20.312871,0.999138,0.989152,0.004474,0.437645,0.000387,0.000177,0.000036,0.000393,0.000171,9.512125,0.000578,
2041,2308,-4.67705015276195,-7.4418455598352,-0.0122207370856131,0.002032,-0.088998,-0.012950,0.101379,-4.098436,326.977967,20.436239,0.999682,0.990746,0.004341,0.434189,0.000697,0.000562,0.000087,0.000739,0.000519,25.982060,0.001265,
2116,2608,-3.0893204719569,-0.892122004589687,-0.0232706587840994,0.006502,-0.088058,-0.003083,0.278365,-4.027461,321.831342,20.276339,0.999084,0.987755,0.004601,0.463632,0.000212,0.000085,0.000017,0.000214,0.000083,7.719484,0.000306,
2461,2998,4.3477595175034,7.60879721436809,0.00652789787761776,0.010753,-0.089869,0.010269,0.417359,-4.065645,315.461852,21.269169,0.999381,0.989515,0.004045,0.482089,0.000046,0.000014,0.000060,0.000092,-0.000033,37.568612,0.000094,
2056,2383,-4.36237242278034,-5.79997461852822,-0.0283223749241301,0.002797,-0.087839,-0.010450,0.129884,-4.018738,325.577283,20.433588,0.998878,0.988386,0.004721,0.440097,0.000536,0.000326,0.000060,0.000552,0.000310,14.822682,0.000874,
2161,2848,-2.14816100637766,4.33131451059727,-0.00797438474262435,0.009140,-0.088718,0.008142,0.364453,-4.024080,317.967523,20.357142,0.999676,0.993667,0.003291,0.504168,0.000064,0.000062,-0.000008,0.000071,0.000056,-41.126159,0.000127,
2101,2563,-3.40925197641193,-1.87209957516953,-0.0349499734532515,0.006093,-0.088283,-0.004706,0.264446,-4.051291,322.517436,20.308029,0.999063,0.988469,0.004482,0.417808,0.000260,0.000109,0.000023,0.000263,0.000106,8.323612,0.000380,
2011,2218,-5.31935908825288,-9.40922669934301,-0.0166247271483826,-0.000572,-0.089274,-0.017197,-0.006958,-4.129064,328.464167,20.628887,0.998859,0.986895,0.004982,0.388274,0.000893,0.000831,0.000159,0.001024,0.000700,39.449495,0.001734,
2341,2353,1.85572216259632,-6.45855021206999,-0.0105458997695678,0.006386,-0.090303,-0.016882,0.316030,-4.176431,325.590251,19.292180,0.998927,0.985048,0.005021,0.417504,0.000563,0.000484,-0.000007,0.000564,0.000483,-4.908153,0.001048,
2281,2098,0.590788997046737,-12.0494029955461,-0.00719874890211258,0.003349,-0.096323,-0.022483,0.192271,-4.502112,329.650935,18.765215,0.997718,0.977031,0.006249,0.318798,0.001170,0.001269,-0.000005,0.001269,0.001170,-87.095452,0.002439,
2386,2563,2.79667717029943,-1.86708498153829,-0.0213278093085592,0.008001,-0.090102,-0.004596,0.347103,-4.119602,322.141735,19.846675,0.999342,0.989026,0.004311,0.384308,0.000265,0.000156,0.000013,0.000266,0.000155,6.887650,0.000426,
2491,3163,4.96963776249293,11.1939623832674,0.0309744577185711,0.011618,-0.090231,0.011545,0.450896,-4.098367,313.068821,22.017807,0.999568,0.991046,0.003617,0.421152,0.000047,0.000012,0.000066,0.000098,-0.000038,37.629112,0.000098,
2131,2698,-2.77693054381256,1.06856059056136,-0.0210622691002413,0.007752,-0.088551,0.003009,0.317259,-4.018062,320.364839,20.315449,0.999391,0.989703,0.004031,0.455278,0.000146,0.000047,-0.000006,0.000146,0.000047,-3.408205,0.000201,
2206,3073,-1.20600783145574,9.21915630270323,0.0279839599243701,0.010524,-0.088858,0.010401,0.419254,-4.019492,314.509491,20.724233,0.999668,0.992853,0.003397,0.442791,0.000021,0.000018,-0.000012,0.000031,0.000008,-41.129088,0.000041,
2221,3163,-0.894156336824327,11.1717827456542,0.043792458598034,0.011538,-0.088572,0.010350,0.465702,-3.995587,313.176369,20.877408,0.999452,0.992121,0.003639,0.473775,0.000012,0.000036,-0.000005,0.000037,0.000011,-78.722448,0.000050,
2026,2248,-4.9965224921194,-8.75376519421032,-0.0193766919161362,0.000225,-0.089164,-0.018396,0.033187,-4.146729,327.905812,20.476554,0.999174,0.985716,0.004844,0.435748,0.000838,0.000772,0.000122,0.000932,0.000678,37.485362,0.001617,
2266,2038,0.273247756958138,-13.3678863600932,0.0026773244807714,0.001864,-0.097601,-0.023446,0.126548,-4.536283,330.653308,18.661981,0.998145,0.980353,0.005959,0.363475,0.001297,0.001396,0.000013,0.001398,0.001296,82.730750,0.002694,
2476,3088,4.65767062666661,9.56496606015459,0.0248401719128992,0.011214,-0.090070,0.012555,0.429249,-4.068138,314.187270,21.700519,0.999348,0.991367,0.003829,0.424575,0.000045,0.000017,0.000061,0.000093,-0.000031,38.688709,0.000095,
2296,2158,0.908558385121971,-10.7312020632162,-0.0138095550006483,0.004663,-0.093467,-0.026572,0.267690,-4.377453,328.687545,18.881497,0.998897,0.982182,0.005639,0.368091,0.001003,0.001069,-0.000009,0.001070,0.001002,-82.326961,0.002073,
2461,3013,4.3454737596912,7.93510587385589,0.0157320783070531,0.010661,-0.089852,0.009399,0.416486,-4.062880,315.292369,21.405200,0.999402,0.989398,0.003973,0.402297,0.000043,0.000021,0.000061,0.000094,-0.000029,39.975722,0.000096,
2146,2788,-2.46541690486292,3.0282085729062,-0.0230571672941551,0.008473,-0.088254,0.005117,0.343755,-4.003879,318.852239,20.387835,0.999578,0.991956,0.003645,0.443228,0.000093,0.000061,-0.000013,0.000098,0.000057,-19.267104,0.000156,
2056,2398,-4.36308387140081,-5.47393494025922,-0.0211285119532363,0.003777,-0.087183,-0.012646,0.181326,-4.004430,325.447094,20.349630,0.998454,0.986005,0.005003,0.534191,0.000507,0.000285,0.000053,0.000519,0.000273,12.857616,0.000805,
2431,2818,3.72787522803091,3.69330948086756,-0.0162808904112239,0.009208,-0.089622,0.004258,0.369861,-4.055719,318.108060,20.626392,0.999455,0.989917,0.004160,0.456559,0.000094,0.000048,0.000019,0.000101,0.000041,19.545529,0.000146,
2011,2233,-5.32180206806489,-9.08115028994865,-0.013102930984644,-0.000775,-0.089592,-0.012575,-0.028899,-4.124811,328.230639,20.650942,0.999109,0.983596,0.005164,0.360870,0.000851,0.000784,0.000145,0.000966,0.000669,38.473818,0.001644,
2401,2653,3.1060101988225,0.0969228151919239,-0.0207504549836699,0.008317,-0.089841,0.000586,0.342927,-4.065495,320.692642,20.070544,0.999059,0.987358,0.004573,0.469458,0.000176,0.000111,0.000001,0.000176,0.000111,0.687913,0.000289,
2371,2518,2.47848054459567,-2.85150338083304,-0.0183793344298806,0.007689,-0.090439,-0.006393,0.339198,-4.141696,322.880660,19.632377,0.999129,0.986560,0.004847,0.472878,0.000323,0.000213,0.000007,0.000324,0.000212,3.672173,0.000540,
2416,2743,3.41554702685524,2.05924659952097,-0.0221789709455038,0.009007,-0.090013,0.002330,0.367923,-4.080801,319.258111,20.361500,0.999325,0.989590,0.004123,0.442540,0.000120,0.000086,0.000023,0.000132,0.000074,26.928902,0.000208,
2041,2323,-4.67861896929633,-7.11254590715371,-0.0199152512112732,0.002877,-0.088209,-0.017901,0.154155,-4.087996,326.724452,20.482195,0.998760,0.982817,0.005156,0.393084,0.000654,0.000492,0.000075,0.000683,0.000463,21.498003,0.001153,
2446,2908,4.0362676915776,5.6524420819817,-0.0173565542791039,0.009297,-0.090302,0.006800,0.363849,-4.077291,316.649540,20.929564,0.999333,0.990394,0.004009,0.458423,0.000063,0.000031,0.000043,0.000093,0.000001,35.024856,0.000108,
2086,2488,-3.72427978855429,-3.50975287922259,-0.0204493591863866,0.004648,-0.088827,-0.001590,0.189073,-4.040438,323.849465,20.271789,0.998990,0.989390,0.004427,0.486233,0.000364,0.000171,0.000031,0.000369,0.000166,8.944555,0.000548,
2356,2443,2.16508501855789,-4.49154423222421,-0.00893797436890509,0.006276,-0.091042,-0.006363,0.274077,-4.169253,324.106027,19.430291,0.998090,0.980619,0.005716,0.475829,0.000423,0.000292,0.000000,0.000423,0.000292,0.099074,0.000719,
2326,2293,1.53829571263958,-7.77203588324829,-0.0154532837351553,0.005455,-0.091960,-0.015529,0.267804,-4.238159,326.475005,19.144491,0.998765,0.981713,0.005364,0.411723,0.000670,0.000634,-0.000021,0.000680,0.000624,-24.817581,0.001305,
2191,3013,-1.52187448206961,7.91655265861701,0.0214931008055146,0.010364,-0.088299,0.011632,0.408865,-4.002086,315.468604,20.628075,0.999413,0.990612,0.003924,0.448836,0.000024,0.000021,-0.000010,0.000033,0.000012,-41.977525,0.000046,
2101,2578,-3.41100722322967,-1.54681014912394,-0.0210828697959187,0.006090,-0.088430,-0.000631,0.252358,-4.041263,322.378850,20.271674,0.999072,0.987550,0.004510,0.465702,0.000238,0.000097,0.000024,0.000242,0.000093,9.320041,0.000345,
2026,2263,-4.99803310761899,-8.42399155546465,-0.0185744950588287,0.000886,-0.088478,-0.018304,0.063477,-4.109499,327.700390,20.603146,0.998589,0.981183,0.005347,0.338679,0.000809,0.000721,0.000121,0.000894,0.000636,35.079296,0.001538,
2476,3103,4.65517797719503,9.89058633639348,0.0283166573776725,0.011287,-0.089863,0.010286,0.441362,-4.066172,313.982718,21.757086,0.999291,0.990347,0.003996,0.425642,0.000043,0.000009,0.000062,0.000091,-0.000038,37.269423,0.000091,
2071,2428,-4.04078763049337,-4.81854329290701,-0.014920677253258,0.004189,-0.087672,-0.009804,0.192035,-4.032982,324.943822,20.416986,0.998677,0.985738,0.004727,0.388625,0.000462,0.000218,0.000048,0.000472,0.000208,10.747209,0.000697,
2461,3028,4.34276269401267,8.26083444673645,0.0211550441699728,0.010664,-0.090096,0.011087,0.410204,-4.066383,315.086070,21.471739,0.999637,0.991360,0.003791,0.385763,0.000046,0.000015,0.000059,0.000091,-0.000030,37.736581,0.000093,
2491,3178,4.96766244319615,11.519106623392,0.0412396626587679,0.011639,-0.090050,0.009074,0.461517,-4.089204,312.919486,22.081743,0.999589,0.990502,0.003797,0.423922,0.000052,0.000017,0.000063,0.000100,-0.000031,37.386617,0.000102,
2281,2113,0.588036303423184,-11.7204830569491,-0.00911885271636947,0.003242,-0.095561,-0.024855,0.195530,-4.470591,329.396717,18.741308,0.997878,0.978247,0.006079,0.405052,0.001127,0.001235,-0.000001,0.001235,0.001127,-89.366756,0.002362,
2176,2938,-1.83648239711474,6.28877268819249,-0.0011562669000682,0.009790,-0.088415,0.007156,0.397031,-4.007161,316.538394,20.552580,0.999259,0.989612,0.004041,0.416815,0.000045,0.000027,-0.000004,0.000046,0.000026,-13.454075,0.000073,
2056,2413,-4.36508910948935,-5.14727434545598,-0.0145810084363802,0.003994,-0.088207,-0.007105,0.175368,-4.030809,325.254242,20.360975,0.997535,0.982396,0.005640,0.492454,0.000490,0.000240,0.000048,0.000499,0.000231,10.410358,0.000746,
2116,2623,-3.09219217655652,-0.563956635316572,-0.0347362327236169,0.006797,-0.088073,-0.003004,0.291681,-4.031194,321.505666,20.311768,0.999004,0.984855,0.004960,0.428841,0.000203,0.000069,0.000013,0.000204,0.000068,5.423196,0.000283,
2011,2248,-5.32303653411012,-8.75374264048449,-0.0129219980963171,-0.000028,-0.089094,-0.015568,0.013625,-4.123932,328.033785,20.585537,0.999035,0.982767,0.005175,0.417486,0.000820,0.000756,0.000117,0.000910,0.000666,37.465758,0.001582,
2236,3238,-0.582035195844973,12.7984762098536,0.0420860613307354,0.011749,-0.088732,0.011678,0.470293,-4.032457,311.902628,21.022539,0.999607,0.993361,0.003395,0.457348,0.000014,0.000029,0.000007,0.000032,0.000011,68.931895,0.000045,
2311,2218,1.22476929313654,-9.41678369755364,-0.0111306175754748,0.004648,-0.093040,-0.020946,0.248607,-4.304425,327.711609,18.892071,0.998342,0.975288,0.006166,0.487570,0.000856,0.000898,-0.000021,0.000907,0.000848,-67.539975,0.001755,
2221,3178,-0.896347079175584,11.4969825890931,0.0459357735256276,0.011547,-0.088261,0.006172,0.479542,-4.015323,312.962775,20.922318,0.999286,0.990934,0.003811,0.426779,0.000012,0.000038,-0.000001,0.000038,0.000011,-87.217992,0.000052,
2386,2578,2.79366832909492,-1.54072898554482,-0.0156337464583771,0.007884,-0.090977,0.001088,0.321087,-4.115028,321.920055,19.845736,0.999236,0.987653,0.004559,0.433931,0.000253,0.000155,0.000015,0.000255,0.000153,8.700268,0.000412,
2266,2053,0.270454658908463,-13.0379211370434,-0.0036660425510604,0.002179,-0.097058,-0.023492,0.141281,-4.504105,330.373770,18.659986,0.997811,0.979289,0.006045,0.426837,0.001264,0.001372,0.000017,0.001375,0.001261,81.086904,0.002637,
2161,2863,-2.151288249114,4.65913420411442,-0.0139511898199771,0.009002,-0.088652,0.009120,0.355155,-4.012735,317.663482,20.471523,0.999365,0.991465,0.003673,0.411067,0.000063,0.000059,-0.000007,0.000069,0.000054,-37.074571,0.000123,
2131,2713,-2.77955032104861,1.3961561385487,-0.0261286872782875,0.007832,-0.088139,0.001706,0.325020,-3.993677,320.086418,20.355216,0.999336,0.989333,0.004180,0.446138,0.000136,0.000047,-0.000010,0.000137,0.000046,-6.178727,0.000191,
2206,3088,-1.20821673359225,9.54537462689587,0.0322444868170351,0.010799,-0.088645,0.012796,0.424446,-4.000916,314.304757,20.816450,0.999439,0.992060,0.003649,0.384797,0.000021,0.000014,-0.000013,0.000031,0.000003,-37.812317,0.000038,
2041,2338,-4.68107136574502,-6.78501794411616,-0.0165325164206251,0.002759,-0.088274,-0.013012,0.135143,-4.063263,326.492159,20.467614,0.998929,0.986654,0.004670,0.426883,0.000615,0.000436,0.000063,0.000635,0.000416,17.615966,0.001059,
2341,2368,1.85175120586787,-6.12981045684595,-0.0210877585809044,0.006436,-0.090998,-0.011578,0.299659,-4.191685,325.243265,19.307184,0.998773,0.983953,0.005097,0.426235,0.000534,0.000453,-0.000008,0.000535,0.000452,-5.800172,0.000988,
2446,2923,4.03446388919376,5.97928076677758,-0.0107900362608575,0.009978,-0.089893,0.007060,0.394375,-4.055129,316.489525,21.056318,0.999554,0.992754,0.003775,0.405714,0.000061,0.000030,0.000040,0.000089,0.000002,34.246605,0.000104,
2296,2173,0.905314714269771,-10.4032211209827,-0.0193575604024545,0.004476,-0.093725,-0.027437,0.261928,-4.379005,328.394432,18.789110,0.998899,0.980890,0.005740,0.491689,0.000969,0.001025,-0.000006,0.001026,0.000968,-83.452298,0.001994,
2431,2833,3.72511135002987,4.02095997375459,-0.017210921139565,0.009578,-0.089723,0.005235,0.383243,-4.056735,317.868390,20.770916,0.999231,0.988488,0.004227,0.360914,0.000088,0.000048,0.000020,0.000096,0.000039,22.747656,0.000140,
2191,3028,-1.52453934014227,8.24190329432409,0.0206352053893397,0.010527,-0.088903,0.014341,0.407672,-4.016523,315.215712,20.624552,0.999501,0.992149,0.003858,0.451559,0.000021,0.000019,-0.000011,0.000031,0.000009,-42.041538,0.000042,
2146,2803,-2.46697996029505,3.35370354608767,-0.0192642029983858,0.008952,-0.087991,0.002254,0.374588,-3.998957,318.671204,20.351718,0.999640,0.992144,0.003582,0.492037,0.000089,0.000058,-0.000013,0.000093,0.000053,-20.502386,0.000149,
2416,2758,3.41262053204334,2.38533166580942,-0.0170424936774793,0.008939,-0.090185,0.006391,0.349879,-4.079134,319.038892,20.385182,0.999335,0.988684,0.004252,0.468182,0.000117,0.000076,0.000028,0.000131,0.000062,26.748297,0.000198,
2026,2278,-5.00009037762706,-8.09723708982263,-0.0154693055797566,0.000828,-0.088567,-0.018575,0.061517,-4.106005,327.483655,20.516331,0.997968,0.982426,0.005567,0.421351,0.000783,0.000649,0.000112,0.000847,0.000586,29.514209,0.001440,
2371,2533,2.47510813035295,-2.5230786695023,-0.0184761891226799,0.007357,-0.090264,-0.004322,0.316697,-4.121527,322.613365,19.740126,0.999110,0.987145,0.004762,0.427625,0.000306,0.000192,0.000005,0.000306,0.000192,2.477553,0.000503,
2401,2668,3.10298899687135,0.423684885239282,-0.0224544386321099,0.008158,-0.090317,-0.001878,0.344371,-4.105091,320.436209,20.115134,0.999027,0.989113,0.004451,0.431253,0.000164,0.000101,0.000002,0.000164,0.000101,1.492877,0.000268,
2491,3193,4.96519100909378,11.8441853737214,0.0480036832979636,0.011767,-0.089963,0.010291,0.462844,-4.073563,312.731407,22.115026,0.999462,0.990981,0.003788,0.464059,0.000058,0.000011,0.000060,0.000099,-0.000030,34.229003,0.000102,
2326,2308,1.53556050926046,-7.4433561996374,-0.0157493525439349,0.005688,-0.092009,-0.013353,0.270996,-4.235323,326.233130,19.215071,0.998525,0.982559,0.005374,0.380664,0.000633,0.000582,-0.000016,0.000638,0.000578,-15.697469,0.001216,
2356,2458,2.16160881825136,-4.1611709632548,-0.0198955662482945,0.006377,-0.090370,-0.007879,0.284317,-4.136703,323.780465,19.577688,0.998849,0.985368,0.004938,0.401760,0.000400,0.000271,0.000003,0.000401,0.000271,1.236428,0.000676,
2041,2353,-4.68354208074048,-6.4568363689847,-0.0179787828824374,0.002891,-0.088296,-0.008629,0.129008,-4.033689,326.232178,20.465259,0.998589,0.984787,0.005115,0.453094,0.000578,0.000395,0.000065,0.000599,0.000374,17.737847,0.000982,
2011,2263,-5.32446427004929,-8.425673526568,-0.0137624814162791,0.000670,-0.088902,-0.017277,0.050362,-4.122377,327.822274,20.574570,0.998657,0.979403,0.005333,0.420084,0.000792,0.000710,0.000120,0.000878,0.000624,35.522868,0.001509,
2476,3118,4.65188527337663,10.2156591410684,0.0298987349170829,0.010978,-0.090150,0.011154,0.423727,-4.082060,313.732770,21.772798,0.999430,0.990579,0.003790,0.449659,0.000041,0.000016,0.000064,0.000094,-0.000036,39.515314,0.000095,
2236,3253,-0.584720824976888,13.1240712508068,0.0353208286201152,0.012212,-0.088345,0.011645,0.491905,-4.017369,311.621387,21.037941,0.999578,0.993274,0.003346,0.476763,0.000011,0.000024,0.000010,0.000029,0.000006,61.862897,0.000038,
2056,2428,-4.36765290472302,-4.81835864575701,-0.0198799499553957,0.004132,-0.087889,-0.005706,0.177869,-4.004364,324.969996,20.418213,0.998323,0.984643,0.005090,0.457949,0.000462,0.000207,0.000054,0.000473,0.000196,11.539211,0.000687,
2086,2503,-3.72598904466102,-3.18239048748777,-0.0198876486724657,0.005198,-0.088654,-0.002447,0.216867,-4.043184,323.639431,20.296545,0.998773,0.989520,0.004292,0.458692,0.000346,0.000152,0.000026,0.000349,0.000148,7.590217,0.000511,
2071,2443,-4.042627470005,-4.49150593889321,-0.0153030472754949,0.004538,-0.087512,-0.012146,0.214785,-4.048565,324.721563,20.395923,0.998970,0.987441,0.004618,0.392389,0.000425,0.000174,0.000041,0.000432,0.000168,9.135828,0.000619,
2461,3043,4.33990746377181,8.58588639007989,0.0202502261290078,0.010743,-0.090155,0.009168,0.421015,-4.084544,314.844262,21.452192,0.999527,0.990010,0.003933,0.440893,0.000039,0.000020,0.000062,0.000092,-0.000034,40.683942,0.000093,
2101,2593,-3.41308471625426,-1.21940829231044,-0.019377996335777,0.006332,-0.088128,0.000022,0.261713,-4.012077,322.159231,20.307029,0.999015,0.987875,0.004524,0.461707,0.000226,0.000093,0.000029,0.000232,0.000087,11.868906,0.000330,
2026,2293,-5.00247985532861,-7.76843425317475,-0.0134567617725452,0.000871,-0.088291,-0.012912,0.048035,-4.041314,327.244969,20.549308,0.998084,0.982634,0.005502,0.445444,0.000761,0.000628,0.000118,0.000830,0.000559,30.302699,0.001398,
2161,2878,-2.15305559161252,4.98485886666319,-0.00848065385184782,0.009282,-0.088264,0.007579,0.372924,-3.999081,317.482832,20.480252,0.999427,0.992628,0.003548,0.425838,0.000062,0.000058,-0.000007,0.000067,0.000053,-36.291709,0.000121,
2446,2938,4.0313571914537,6.30482888937562,-0.0122187320376952,0.010050,-0.090200,0.007878,0.394476,-4.080935,316.232975,21.059094,0.999530,0.991654,0.003896,0.428802,0.000060,0.000022,0.000039,0.000084,-0.000002,31.925335,0.000096,
2176,2953,-1.83882099377324,6.6139046682632,0.00207918184855771,0.009973,-0.088532,0.009984,0.396644,-4.001931,316.320919,20.518333,0.999318,0.991591,0.003661,0.468299,0.000043,0.000024,-0.000007,0.000045,0.000022,-18.497039,0.000068,
2221,3193,-0.898921578181724,11.8220263742494,0.0478573931029587,0.011775,-0.088298,0.010366,0.476615,-4.004613,312.730423,20.924782,0.999431,0.992082,0.003639,0.452751,0.000010,0.000037,0.000000,0.000037,0.000010,89.890132,0.000049,
2281,2128,0.586271950960921,-11.3920268130135,0.00114024670909885,0.003627,-0.095342,-0.021896,0.203404,-4.422361,329.248189,18.795892,0.997631,0.977788,0.005985,0.429181,0.001085,0.001201,0.000001,0.001201,0.001085,89.551812,0.002287,
2491,3208,4.96191245875688,12.1703511452863,0.0429636064159808,0.012039,-0.089953,0.010989,0.472667,-4.079643,312.452335,22.204687,0.999384,0.991302,0.003804,0.425945,0.000065,0.000011,0.000050,0.000095,-0.000019,30.993500,0.000100,
2266,2068,0.268133716422643,-12.7080569018127,-0.00267582890251106,0.002457,-0.096815,-0.023321,0.153578,-4.500235,330.152636,18.764827,0.998286,0.980815,0.005748,0.354652,0.001229,0.001319,0.000022,0.001324,0.001224,77.283159,0.002549,
2386,2593,2.79097552025507,-1.21297354725316,-0.0180493619119488,0.008214,-0.090371,0.000324,0.339216,-4.094037,321.674052,19.890183,0.999333,0.987508,0.004577,0.454794,0.000240,0.000134,0.000017,0.000243,0.000131,8.914875,0.000379,
2311,2233,1.22239166640947,-9.08672480601166,-0.00999682420729187,0.005036,-0.092406,-0.019678,0.262333,-4.255657,327.491683,19.030932,0.998197,0.977073,0.006043,0.432113,0.000807,0.000839,-0.000018,0.000847,0.000799,-65.898689,0.001646,
2116,2638,-3.09461546893438,-0.237108121488966,-0.0321566299671758,0.006895,-0.088189,0.001178,0.283817,-4.006877,321.276182,20.323713,0.999222,0.988410,0.004292,0.445074,0.000189,0.000056,0.000012,0.000190,0.000055,4.934003,0.000258,
2206,3103,-1.21047824256793,9.86953840603895,0.0347290381503171,0.010911,-0.088715,0.011875,0.432468,-4.018008,314.089139,20.747229,0.999317,0.990584,0.004043,0.452673,0.000017,0.000019,-0.000010,0.000028,0.000008,-48.444743,0.000038,
2041,2368,-4.68528760369005,-6.12939429210013,-0.0142670594028687,0.003165,-0.088191,-0.008669,0.141754,-4.032716,326.034163,20.479043,0.998508,0.985394,0.005089,0.434221,0.000565,0.000367,0.000063,0.000583,0.000348,16.267810,0.000941,
2056,2443,-4.36955843666208,-4.49107895405259,-0.0230282994979802,0.004497,-0.088047,-0.009112,0.204169,-4.039930,324.728311,20.413338,0.998687,0.986532,0.004865,0.423451,0.000426,0.000162,0.000047,0.000434,0.000154,9.780760,0.000609,
2416,2773,3.40979370149583,2.71164859924396,-0.0145078203033222,0.008765,-0.089910,0.005279,0.346074,-4.065012,318.811944,20.401034,0.999363,0.987995,0.004363,0.514320,0.000106,0.000061,0.000023,0.000116,0.000051,22.996931,0.000171,
2131,2728,-2.78183975180426,1.72116290595556,-0.0241332931584566,0.007709,-0.088148,-0.000580,0.326171,-4.012717,319.861669,20.262803,0.999239,0.987870,0.004437,0.525349,0.000129,0.000041,-0.000010,0.000131,0.000039,-6.597890,0.000178,
2461,3058,4.33668727030705,8.91210542781843,0.0213720553805388,0.010483,-0.089924,0.009544,0.407747,-4.080138,314.594495,21.535131,0.999510,0.988703,0.004205,0.415688,0.000043,0.000021,0.000059,0.000092,-0.000028,39.702284,0.000094,
2431,2848,3.72263507816765,4.3461989395935,-0.0146086099832701,0.009805,-0.089838,0.004582,0.396080,-4.064533,317.658902,20.731349,0.999241,0.986833,0.004286,0.442419,0.000079,0.000046,0.000024,0.000092,0.000033,27.796004,0.000130,
2146,2818,-2.46981964608668,3.68119656112425,-0.021699319750212,0.008828,-0.087773,0.003197,0.366155,-3.968205,318.397919,20.429871,0.999559,0.991950,0.003662,0.452405,0.000087,0.000061,-0.000010,0.000090,0.000057,-18.944776,0.000149,
2371,2548,2.47228024656572,-2.19638949383054,-0.01581727412389,0.007281,-0.090650,-0.003109,0.308783,-4.131746,322.384600,19.748354,0.999007,0.985905,0.004957,0.451169,0.000287,0.000163,0.000011,0.000288,0.000162,5.005745,0.000455,
2011,2278,-5.32632487426193,-8.097346206949,-0.0192135936842419,0.001191,-0.088755,-0.019321,0.079879,-4.121851,327.565176,20.546859,0.998285,0.979848,0.005746,0.438841,0.000770,0.000638,0.000110,0.000833,0.000576,29.528350,0.001416,
2296,2188,0.903836353922237,-10.0742766784285,-0.00721824083581168,0.004887,-0.093224,-0.026539,0.277974,-4.358347,328.269174,18.955062,0.998412,0.978979,0.005873,0.378557,0.000926,0.000986,-0.000009,0.000987,0.000925,-81.843993,0.001913,
2236,3268,-0.58777015431879,13.449509734086,0.028832532806689,0.012351,-0.088503,0.012417,0.495778,-4.021231,311.324850,21.064071,0.999419,0.992734,0.003530,0.466613,0.000011,0.000047,0.000010,0.000049,0.000008,75.858977,0.000062,
2401,2683,3.10003456923587,0.751466897393762,-0.0254354753869279,0.008409,-0.089852,-0.001295,0.353942,-4.101183,320.176422,20.204208,0.999083,0.988262,0.004496,0.392181,0.000158,0.000110,0.000002,0.000158,0.000110,1.869026,0.000269,
2191,3043,-1.52623711144264,8.56824147942627,0.0291824891347119,0.010608,-0.088574,0.011095,0.421695,-4.012838,315.055880,20.759826,0.999693,0.994446,0.003299,0.333400,0.000020,0.000015,-0.000011,0.000029,0.000006,-37.402364,0.000037,
2476,3133,4.64917716408303,10.5418792654859,0.0294957253473171,0.011267,-0.090290,0.010153,0.440858,-4.083350,313.500290,21.871122,0.999453,0.990195,0.003766,0.405524,0.000047,0.000012,0.000057,0.000089,-0.000030,36.428369,0.000090,
2026,2308,-5.0046002653407,-7.4395486989432,-0.0246900436823125,0.001481,-0.088308,-0.015577,0.083345,-4.080923,326.945357,20.566158,0.998531,0.982694,0.005318,0.381515,0.000711,0.000553,0.000101,0.000761,0.000504,26.036441,0.001273,
2341,2383,1.8484561910589,-5.80085942266315,-0.0209463222210502,0.006174,-0.091095,-0.008597,0.277248,-4.170355,324.978715,19.414630,0.999223,0.985352,0.004866,0.378423,0.000507,0.000432,-0.000013,0.000509,0.000430,-9.621213,0.000940,
2356,2473,2.15904854943001,-3.83384172415646,-0.0164002437286399,0.006522,-0.090656,-0.006106,0.284673,-4.133581,323.566988,19.615573,0.999331,0.987957,0.004438,0.407052,0.000376,0.000252,0.000004,0.000376,0.000251,1.794711,0.000632,
2161,2893,-2.15561508301782,5.31120209027471,-0.0118406842252625,0.009380,-0.088072,0.006275,0.381527,-4.002138,317.219092,20.501804,0.999526,0.992148,0.003664,0.410973,0.000058,0.000049,-0.000005,0.000060,0.000047,-25.352470,0.000107,
2491,3223,4.95882474726316,12.4962382909793,0.0407712140267336,0.012258,-0.090032,0.011639,0.480210,-4.087795,312.194925,22.291572,0.999405,0.991078,0.003837,0.388390,0.000070,-0.000009,0.000044,0.000090,-0.000028,23.934160,0.000092,
2071,2458,-4.04485159157595,-4.16453436921036,-0.0169837114917755,0.004739,-0.087460,-0.012010,0.223681,-4.039707,324.474574,20.337454,0.999220,0.989696,0.004420,0.457828,0.000399,0.000161,0.000037,0.000404,0.000155,8.699259,0.000578,
2086,2518,-3.72751987909924,-2.85556127772035,-0.0162224310641932,0.005559,-0.088441,-0.006026,0.243853,-4.045761,323.454566,20.305060,0.999229,0.991139,0.004019,0.447769,0.000320,0.000136,0.000030,0.000325,0.000131,8.892914,0.000469,
2326,2323,1.53278742058576,-7.11515255311429,-0.0158058939057355,0.005809,-0.091854,-0.011869,0.271494,-4.208107,325.990608,19.225341,0.998308,0.981326,0.005678,0.434170,0.000601,0.000550,-0.000015,0.000605,0.000546,-15.125831,0.001152,
2446,2953,4.02859452102779,6.63127181408277,-0.0147836896460944,0.010191,-0.089713,0.004178,0.415010,-4.070279,315.986652,21.104221,0.999644,0.992525,0.003730,0.446124,0.000060,0.000011,0.000043,0.000085,-0.000015,30.310853,0.000091,
2281,2143,0.583830052653852,-11.0602593063377,-0.00529937012692017,0.004202,-0.094397,-0.024034,0.237220,-4.388133,328.985291,18.990827,0.998668,0.981285,0.005653,0.299483,0.001045,0.001125,0.000002,0.001125,0.001045,88.802978,0.002170,
2221,3208,-0.901427733116126,12.147321741966,0.0535759570227015,0.011662,-0.088272,0.012477,0.464690,-3.992908,312.520651,20.975054,0.999355,0.991087,0.003831,0.431806,0.000010,0.000036,0.000002,0.000036,0.000010,86.467123,0.000049,
2056,2458,-4.37205766341838,-4.16437279857787,-0.0190627981415901,0.004177,-0.088092,-0.006868,0.183122,-4.027536,324.498568,20.379862,0.998841,0.986470,0.004932,0.465347,0.000400,0.000150,0.000043,0.000407,0.000143,9.516015,0.000570,
2266,2083,0.265395825968032,-12.3774650057226,-0.0146337240095704,0.003078,-0.096320,-0.025597,0.189735,-4.499974,329.847548,18.802035,0.998823,0.982426,0.005490,0.346867,0.001192,0.001295,0.000015,0.001297,0.001190,81.688321,0.002488,
2311,2248,1.21966225058013,-8.75867377440692,-0.00924029840774665,0.004931,-0.092233,-0.020534,0.260487,-4.277657,327.254366,19.058290,0.998278,0.980146,0.005681,0.417246,0.000775,0.000759,-0.000016,0.000785,0.000749,-31.936113,0.001534,
2101,2608,-3.41490771247215,-0.892506869685334,-0.0167750214025659,0.006642,-0.087725,-0.001339,0.280099,-3.992195,321.956286,20.317965,0.998653,0.986274,0.004855,0.472520,0.000216,0.000084,0.000026,0.000221,0.000079,10.703078,0.000311,
2116,2653,-3.09665096815511,0.0902918936167367,-0.0338106121013766,0.007348,-0.088041,0.000578,0.306519,-4.004516,321.041645,20.376747,0.999391,0.989392,0.004045,0.398436,0.000176,0.000056,0.000009,0.000176,0.000056,4.384891,0.000242,
2011,2293,-5.32931248792599,-7.76686267114355,-0.0289408487038258,0.001203,-0.088477,-0.015418,0.069941,-4.089506,327.232061,20.647385,0.998672,0.985397,0.005094,0.361069,0.000748,0.000620,0.000120,0.000820,0.000548,30.999954,0.001377,
2236,3283,-0.59100480807906,13.7755553426954,0.0228335301525249,0.012209,-0.088209,0.012315,0.489680,-4.016422,311.022017,21.144882,0.999176,0.992319,0.003701,0.410153,0.000009,0.000058,0.000003,0.000058,0.000008,86.662366,0.000072,
2476,3148,4.64618146779476,10.8675765589784,0.0324668093957712,0.011201,-0.090147,0.011754,0.431799,-4.077861,313.269987,21.939062,0.999498,0.989388,0.003829,0.398350,0.000045,0.000013,0.000063,0.000095,-0.000036,38.008539,0.000095,
2041,2383,-4.68786888096842,-5.80188506283572,-0.0181161163126831,0.002863,-0.087989,-0.012011,0.137203,-4.059374,325.756259,20.458200,0.999048,0.988060,0.004471,0.422790,0.000550,0.000314,0.000058,0.000563,0.000301,13.011507,0.000877,
2386,2608,2.78818966605135,-0.886272452632397,-0.0168030379918491,0.008255,-0.090534,0.000744,0.339542,-4.106314,321.441391,19.907770,0.999038,0.987290,0.004581,0.468743,0.000224,0.000124,0.000019,0.000228,0.000121,10.413659,0.000354,
2416,2788,3.40673248797738,3.04028212810387,-0.0215675966580307,0.009090,-0.089970,0.003562,0.367289,-4.081796,318.528763,20.590219,0.999387,0.987996,0.004372,0.356208,0.000105,0.000060,0.000022,0.000114,0.000050,22.347831,0.000168,
2491,3238,4.95468277006348,12.8219069665599,0.0332981580480691,0.012027,-0.090326,0.014227,0.459600,-4.092401,311.864992,22.329039,0.999630,0.991763,0.003654,0.403816,0.000074,-0.000008,0.000047,0.000096,-0.000029,24.507673,0.000098,
2176,2968,-1.84018200419534,6.93947033732155,0.00772456014283307,0.010519,-0.088318,0.006106,0.433859,-4.014928,316.160839,20.562413,0.999344,0.991458,0.003725,0.422870,0.000040,0.000024,-0.000009,0.000044,0.000021,-23.398972,0.000066,
2431,2863,3.71993228280499,4.67264157191241,-0.0137648881947712,0.009827,-0.089679,0.002353,0.405382,-4.067446,317.430443,20.788580,0.999421,0.989978,0.003874,0.432137,0.000072,0.000055,0.000029,0.000094,0.000033,37.219416,0.000132,
2206,3118,-1.21275143116363,10.1950402773657,0.038449484563273,0.010982,-0.088543,0.011691,0.436375,-4.014028,313.878889,20.791529,0.999476,0.992103,0.003715,0.428087,0.000015,0.000019,-0.000010,0.000028,0.000007,-50.216475,0.000037,
2191,3058,-1.52888245406665,8.89297112110623,0.0247728670784682,0.010633,-0.088144,0.007996,0.432758,-4.001277,314.785531,20.657786,0.999796,0.995521,0.003010,0.461065,0.000023,0.000014,-0.000011,0.000030,0.000007,-34.180455,0.000040,
2401,2698,3.09643625599979,1.07869793611069,-0.0303518511183256,0.008486,-0.090044,0.003291,0.340872,-4.080550,319.877931,20.215238,0.999147,0.989752,0.004260,0.447788,0.000148,0.000115,0.000004,0.000149,0.000114,7.401464,0.000263,
2026,2323,-5.00585806011135,-7.1125194013531,-0.0245315657653578,0.002120,-0.088050,-0.020624,0.126638,-4.093432,326.748829,20.506082,0.998734,0.983682,0.005145,0.421199,0.000657,0.000477,0.000086,0.000692,0.000442,21.857854,0.001143,
2461,3073,4.33337976056422,9.2380034019681,0.0171759307312982,0.010798,-0.089970,0.012660,0.410521,-4.073735,314.316335,21.556070,0.999589,0.991432,0.003796,0.454816,0.000040,0.000024,0.000057,0.000090,-0.000025,41.039590,0.000092,
2221,3223,-0.90438144985804,12.4726156020744,0.0517536041199378,0.011716,-0.088498,0.015801,0.456348,-4.011487,312.251462,21.015128,0.999559,0.992807,0.003526,0.390488,0.000010,0.000038,0.000001,0.000038,0.000010,87.581114,0.000051,
2131,2743,-2.78388724308161,2.0483631859771,-0.024583512789377,0.008117,-0.087904,-0.001045,0.346453,-4.002744,319.634249,20.327396,0.999342,0.989614,0.004155,0.476343,0.000125,0.000045,-0.000010,0.000126,0.000043,-7.092875,0.000176,
2146,2833,-2.47110766640198,4.00583772705197,-0.0081022148348211,0.009033,-0.087656,0.001817,0.379781,-3.979747,318.281825,20.413994,0.999537,0.992594,0.003557,0.464172,0.000076,0.000058,-0.000008,0.000079,0.000055,-19.545650,0.000135,
2161,2908,-2.15741227473125,5.63578816528134,-0.00393611847857755,0.009522,-0.088225,0.005523,0.390348,-3.996681,317.050286,20.439256,0.999488,0.991199,0.003840,0.488542,0.000057,0.000034,-0.000005,0.000058,0.000033,-10.671363,0.000092,
2296,2203,0.901018349156654,-9.74437799743036,-0.0108009666168414,0.005394,-0.092817,-0.021959,0.285963,-4.329357,328.004764,19.038735,0.997613,0.975300,0.006356,0.356798,0.000886,0.000942,-0.000013,0.000945,0.000883,-77.732648,0.001828,
2371,2563,2.46930767853938,-1.86830491106003,-0.015912896994223,0.007405,-0.090558,-0.000297,0.304539,-4.122785,322.135647,19.845503,0.999155,0.987853,0.004607,0.405049,0.000263,0.000163,0.000019,0.000266,0.000160,10.282241,0.000431,
2341,2398,1.84630063441913,-5.47295583623157,-0.021273385446932,0.006496,-0.090469,-0.013229,0.308368,-4.163904,324.764329,19.441370,0.999546,0.987734,0.004567,0.396651,0.000479,0.000410,-0.000013,0.000482,0.000408,-10.603261,0.000890,
2326,2338,1.53160972627556,-6.78853601319767,-0.000498043727418462,0.006354,-0.091822,-0.010473,0.291701,-4.207960,325.896391,19.273932,0.998725,0.983464,0.005197,0.421319,0.000576,0.000524,-0.000013,0.000579,0.000521,-13.066261,0.001100,
2071,2473,-4.04644462342459,-3.83725243240786,-0.0150386890485947,0.005308,-0.087502,-0.012576,0.251433,-4.038902,324.276225,20.353864,0.999123,0.989215,0.004575,0.440284,0.000381,0.000165,0.000042,0.000388,0.000158,10.587253,0.000562,
2056,2473,-4.37348894925231,-3.83604534165406,-0.0186890750358657,0.004997,-0.088059,-0.007217,0.221833,-4.028877,324.297571,20.479340,0.998876,0.987559,0.004997,0.360131,0.000383,0.000153,0.000047,0.000392,0.000144,11.238418,0.000555,
2356,2488,2.15681506000126,-3.5073500110406,-0.00966617277498472,0.006807,-0.090615,-0.003438,0.288398,-4.108949,323.384113,19.589292,0.999141,0.987706,0.004546,0.498020,0.000350,0.000220,0.000004,0.000350,0.000219,1.924591,0.000575,
2476,3163,4.64348801367496,11.1933505169821,0.0307563761850815,0.011607,-0.090172,0.010702,0.454449,-4.089590,313.032200,22.006494,0.999560,0.990387,0.003750,0.374780,0.000037,0.000015,0.000062,0.000089,-0.000037,40.090254,0.000090,
2446,2968,4.02615406226477,6.95748325505877,-0.00545784782610781,0.010119,-0.089656,0.005784,0.405767,-4.059125,315.810041,21.214604,0.999575,0.992049,0.003768,0.398237,0.000054,0.000015,0.000052,0.000090,-0.000021,34.776234,0.000094,
2086,2533,-3.72988855949383,-2.52781723214419,-0.0171596450065863,0.005718,-0.088109,-0.004190,0.245980,-4.024795,323.206056,20.337102,0.999506,0.991900,0.003920,0.436886,0.000298,0.000125,0.000032,0.000304,0.000119,10.232074,0.000436,
2011,2308,-5.33142362844604,-7.43919096672369,-0.0250451419496471,0.001013,-0.087962,-0.015930,0.062701,-4.042381,327.015799,20.618986,0.998724,0.986238,0.004995,0.426626,0.000705,0.000537,0.000110,0.000760,0.000482,26.292428,0.001252,
2311,2263,1.21716382711066,-8.43034122753024,-0.00570515121148674,0.005305,-0.092802,-0.015388,0.259923,-4.280027,327.041083,19.125213,0.998747,0.983066,0.005248,0.382333,0.000733,0.000705,-0.000019,0.000743,0.000695,-26.711752,0.001438,
2101,2623,-3.41801722754791,-0.564303290843554,-0.0377867165349812,0.006991,-0.087632,-0.005660,0.308786,-4.012158,321.566630,20.290845,0.998882,0.986344,0.004724,0.482111,0.000209,0.000067,0.000022,0.000212,0.000064,8.462645,0.000289,
2026,2338,-5.00810921139917,-6.78577413218793,-0.0146457322402398,0.001934,-0.088352,-0.013218,0.097640,-4.077058,326.561005,20.492371,0.998953,0.985852,0.004755,0.443318,0.000617,0.000419,0.000074,0.000642,0.000394,18.278907,0.001046,
2491,3253,4.95099554800317,13.1479383512651,0.0217674000982129,0.012323,-0.090010,0.013617,0.475687,-4.083954,311.537453,22.368944,0.999737,0.992870,0.003428,0.429938,0.000082,0.000011,0.000051,0.000109,-0.000016,27.471465,0.000118,
2281,2158,0.580751440831367,-10.7317252877609,-0.00620680991301015,0.003993,-0.094016,-0.022348,0.222191,-4.350320,328.721106,18.952756,0.999074,0.982048,0.005597,0.406076,0.000997,0.001058,0.000011,0.001060,0.000995,80.313050,0.002056,
2236,3298,-0.59430901301214,14.1009792850293,0.0138410088230785,0.012219,-0.088100,0.012330,0.490180,-4.002886,310.700853,21.148052,0.999201,0.992056,0.003687,0.440068,0.000011,0.000054,-0.000004,0.000055,0.000010,-84.279171,0.000070,
2116,2668,-3.09921566157364,0.416853068131488,-0.0388930421596569,0.007421,-0.087818,-0.001115,0.314925,-4.003868,320.764689,20.330975,0.999410,0.990813,0.003891,0.449078,0.000166,0.000055,0.000007,0.000166,0.000055,3.542308,0.000230,
2041,2398,-4.6893501236369,-5.47415311170483,-0.024543641806531,0.003887,-0.087273,-0.014211,0.190608,-4.028647,325.514102,20.381212,0.998945,0.988854,0.004371,0.524616,0.000521,0.000275,0.000050,0.000531,0.000265,11.019611,0.000811,
2386,2623,2.78457527095594,-0.559327233583673,-0.019650674194736,0.007949,-0.090963,0.003163,0.316640,-4.123927,321.151158,19.922746,0.998863,0.986551,0.004657,0.480517,0.000208,0.000112,0.000010,0.000210,0.000111,6.151690,0.000326,
2461,3088,4.33031417446371,9.56460104170034,0.0137993501086839,0.010912,-0.089861,0.011167,0.421453,-4.071009,314.052782,21.655000,0.999614,0.993643,0.003540,0.412222,0.000043,0.000021,0.000056,0.000089,-0.000025,39.450050,0.000091,
2266,2098,0.262395637964392,-12.0478830168561,-0.0117958143388819,0.002888,-0.096591,-0.020716,0.164832,-4.498839,329.604560,18.915867,0.998461,0.979740,0.005857,0.263018,0.001157,0.001259,0.000009,0.001260,0.001156,84.883477,0.002417,
2416,2803,3.40387124436038,3.36576896814351,-0.0203445017598938,0.009064,-0.090037,0.003460,0.366474,-4.082264,318.294183,20.543088,0.999280,0.987126,0.004590,0.450757,0.000100,0.000057,0.000022,0.000110,0.000048,23.254217,0.000161,
2206,3133,-1.21465616893511,10.5203234994933,0.0448680922515905,0.011346,-0.088355,0.013114,0.448764,-3.996220,313.699605,20.821897,0.999577,0.993575,0.003475,0.431139,0.000011,0.000021,-0.000009,0.000027,0.000005,-58.959810,0.000035,
2191,3073,-1.53074987331551,9.21788007717947,0.028984509657846,0.010884,-0.088053,0.005401,0.452526,-4.003838,314.595791,20.646397,0.999624,0.993919,0.003309,0.483383,0.000025,0.000012,-0.000009,0.000029,0.000008,-27.859444,0.000039,
2011,2323,-5.33256527987982,-7.11298323850212,-0.010551446384909,0.001194,-0.087715,-0.015903,0.071019,-4.031449,326.903662,20.602454,0.998501,0.983594,0.005365,0.443517,0.000654,0.000453,0.000097,0.000693,0.000414,21.989763,0.001119,
2221,3238,-0.907316550614407,12.797844066938,0.0411431207059536,0.011791,-0.088564,0.010363,0.477260,-4.030867,311.937860,21.004141,0.999663,0.993319,0.003389,0.399917,0.000010,0.000031,0.000003,0.000031,0.000010,81.787121,0.000043,
2431,2878,3.71678368112997,4.99916262067573,-0.0127650485248978,0.009741,-0.089829,0.004446,0.393661,-4.068174,317.182101,20.856289,0.999428,0.991062,0.003709,0.413201,0.000065,0.000059,0.000034,0.000096,0.000028,42.503001,0.000130,
2026,2353,-5.009944525343,-6.45724877469461,-0.0160360256630838,0.002582,-0.088483,-0.010279,0.119312,-4.067030,326.329085,20.540835,0.998823,0.986524,0.004898,0.396757,0.000584,0.000387,0.000074,0.000608,0.000363,18.492597,0.000981,
2476,3178,4.640570599711,11.5186901883646,0.0340450299460144,0.011610,-0.090004,0.012530,0.447774,-4.069900,312.806899,22.036402,0.999587,0.991610,0.003664,0.420159,0.000040,0.000021,0.000058,0.000090,-0.000029,40.220821,0.000092,
2491,3268,4.94739684832244,13.4740759557518,0.0174535738586883,0.012278,-0.090213,0.015086,0.467937,-4.089160,311.246487,22.477635,0.999840,0.994761,0.002978,0.373361,0.000090,0.000001,0.000042,0.000106,-0.000015,21.831435,0.000115,
2251,1993,-0.048404807000221,-14.3533801543155,-0.0315623578985083,0.001888,-0.099185,-0.030062,0.148252,-4.672697,331.137772,18.604452,0.999018,0.989386,0.005034,0.304894,0.001420,0.001457,0.000006,0.001458,0.001418,80.399757,0.002876,
2056,2488,-4.37576068170889,-3.50888921399879,-0.0198856182616964,0.005071,-0.087864,-0.007515,0.226111,-4.028132,324.049804,20.460198,0.999086,0.988693,0.004634,0.376046,0.000356,0.000150,0.000044,0.000365,0.000141,11.532984,0.000522,
2341,2413,1.84542178495502,-5.14603809166703,-0.00836589079682426,0.007167,-0.089988,-0.016769,0.351646,-4.184957,324.672780,19.536169,0.999495,0.989499,0.004415,0.318284,0.000449,0.000382,-0.000008,0.000450,0.000381,-7.056170,0.000833,
2116,2683,-3.1014849778242,0.742059000533054,-0.0330187181029942,0.007351,-0.088312,0.001378,0.304166,-4.017888,320.560521,20.271290,0.999383,0.992131,0.003666,0.498387,0.000155,0.000049,0.000004,0.000155,0.000049,2.090304,0.000213,
2131,2758,-2.78642522915863,2.37530317162839,-0.0234978744821319,0.008254,-0.088220,0.003338,0.339536,-4.003866,319.392641,20.395958,0.999373,0.990864,0.003929,0.412581,0.000115,0.000051,-0.000012,0.000117,0.000049,-10.333569,0.000171,
2161,2923,-2.16008069931764,5.96215509537327,-0.00220139463971236,0.009399,-0.088365,0.007562,0.378414,-3.997542,316.808394,20.505882,0.999231,0.988058,0.004293,0.430719,0.000055,0.000026,-0.000005,0.000056,0.000025,-9.425195,0.000083,
2176,2983,-1.84359818897354,7.26560667810369,0.00598510269429653,0.010109,-0.088491,0.011034,0.399675,-4.003674,315.867457,20.587802,0.999237,0.991266,0.003806,0.420326,0.000037,0.000025,-0.000011,0.000043,0.000018,-30.727792,0.000063,
2071,2488,-4.04917323042643,-3.50966886128625,-0.0169687493920492,0.005285,-0.087643,-0.008328,0.238229,-4.016989,324.004616,20.346154,0.999257,0.990454,0.004408,0.468019,0.000354,0.000160,0.000038,0.000361,0.000153,10.613657,0.000529,
2446,2983,4.02292746369376,7.28332400102295,-0.00583632847587978,0.010144,-0.089942,0.008531,0.396595,-4.064168,315.552485,21.243330,0.999590,0.990711,0.003909,0.415994,0.000052,0.000017,0.000047,0.000085,-0.000016,34.966125,0.000090,
2356,2503,2.15404324502562,-3.17958585720964,-0.0112715059873381,0.007205,-0.091018,-0.000783,0.297175,-4.133310,323.136324,19.656601,0.999014,0.988315,0.004634,0.446496,0.000325,0.000219,0.000005,0.000325,0.000218,2.596012,0.000547,
2371,2578,2.46668430395308,-1.54175129772032,-0.014180453770166,0.007648,-0.091017,0.001450,0.309328,-4.125083,321.911740,19.834215,0.999197,0.987519,0.004643,0.455981,0.000251,0.000158,0.000020,0.000255,0.000154,11.565830,0.000413,
2041,2413,-4.69309760810696,-5.14597655535139,-0.0250423099122941,0.002997,-0.088145,-0.004907,0.123561,-4.008212,325.201088,20.417760,0.998403,0.984084,0.005103,0.502811,0.000505,0.000227,0.000045,0.000512,0.000220,9.005991,0.000751,
2461,3103,4.32811478509425,9.88936675867911,0.0252638638641542,0.010818,-0.089882,0.011566,0.415649,-4.072034,313.897672,21.686746,0.999511,0.991815,0.003763,0.432840,0.000042,0.000013,0.000056,0.000085,-0.000030,37.691634,0.000087,
2326,2353,1.52762247635505,-6.45867649944912,-0.0100984714157448,0.005800,-0.091358,-0.011513,0.270071,-4.188526,325.551398,19.359256,0.998688,0.981463,0.005204,0.392205,0.000551,0.000488,-0.000006,0.000551,0.000487,-5.669998,0.001039,
2146,2848,-2.47378248740749,4.33216071070466,-0.015804107825204,0.009437,-0.088131,0.002969,0.394704,-4.002562,317.988603,20.406879,0.999581,0.992440,0.003542,0.456292,0.000068,0.000054,-0.000008,0.000071,0.000050,-25.042842,0.000122,
2281,2173,0.577399658061903,-10.4039183167831,-0.0106372330473619,0.003829,-0.094151,-0.019812,0.206162,-4.354535,328.427181,18.858318,0.998920,0.981254,0.005647,0.527080,0.000964,0.001013,0.000012,0.001016,0.000961,76.797736,0.001977,
2491,3283,4.94446975765969,13.7987555282303,0.0129848107911812,0.012582,-0.090047,0.012633,0.491467,-4.086668,310.986195,22.447333,0.999858,0.995491,0.002868,0.463728,0.000091,-0.000007,0.000036,0.000103,-0.000018,18.081907,0.000110,
2401,2713,3.09295321939571,1.40556817544805,-0.0336939493843147,0.008041,-0.089849,0.001442,0.327259,-4.071667,319.592189,20.222912,0.999412,0.990258,0.004059,0.495139,0.000133,0.000108,0.000010,0.000136,0.000104,18.577474,0.000241,
2311,2278,1.21522212886377,-8.10134097420835,-0.00589454254202337,0.006022,-0.092495,-0.016836,0.297855,-4.272272,326.834852,19.209848,0.998754,0.983417,0.005105,0.339909,0.000699,0.000678,-0.000014,0.000706,0.000672,-26.431258,0.001378,
2221,3253,-0.910260648681898,13.122811960007,0.03451098897375,0.012013,-0.088416,0.011130,0.485082,-4.028171,311.644387,20.974651,0.999625,0.993647,0.003303,0.449825,0.000008,0.000024,0.000006,0.000026,0.000006,71.073467,0.000034,
2011,2338,-5.33504521687768,-6.78517127620763,-0.0136698035154268,0.001283,-0.087651,-0.012561,0.066081,-4.019811,326.631492,20.561496,0.998753,0.985241,0.005032,0.486243,0.000613,0.000399,0.000086,0.000644,0.000369,19.481082,0.001025,
2086,2548,-3.73261579823616,-2.20081437006994,-0.0242306158776273,0.005749,-0.087952,-0.004800,0.249219,-4.024574,322.908074,20.272450,0.999184,0.990558,0.004210,0.501981,0.000286,0.000114,0.000034,0.000292,0.000107,10.885395,0.000414,
2266,2113,0.261166988911604,-11.7194791715623,-0.000626730803276132,0.003194,-0.094925,-0.024881,0.193179,-4.433620,329.484081,18.953846,0.998295,0.979919,0.005870,0.318225,0.001118,0.001223,0.000010,0.001224,0.001117,84.418865,0.002342,
2296,2218,0.897809476148943,-9.41568096196247,-0.0119455865547593,0.004908,-0.092693,-0.023056,0.267410,-4.314526,327.734683,19.058092,0.998253,0.977410,0.005983,0.385083,0.000839,0.000890,-0.000012,0.000892,0.000836,-77.070923,0.001729,
2476,3193,4.63760743941603,11.844008916219,0.0345720152286617,0.011660,-0.089860,0.012709,0.449472,-4.064314,312.566843,22.065607,0.999441,0.991523,0.003662,0.452087,0.000046,0.000018,0.000055,0.000088,-0.000025,37.868453,0.000091,
2101,2638,-3.42072830942497,-0.237526210939713,-0.0333615313736004,0.006727,-0.087939,-0.000364,0.281115,-3.996824,321.332903,20.320780,0.998816,0.987101,0.004550,0.469268,0.000195,0.000055,0.000020,0.000198,0.000052,7.971889,0.000264,
2491,3298,4.94126612340945,14.124448124862,0.0132251986714209,0.012374,-0.089776,0.012047,0.484351,-4.070549,310.734020,22.526767,0.999765,0.993114,0.003361,0.457739,0.000080,-0.000014,0.000033,0.000090,-0.000025,17.719897,0.000093,
2191,3088,-1.53339192879818,9.54367092619864,0.0314316409074991,0.011052,-0.088262,0.011075,0.442386,-4.001272,314.360948,20.703361,0.999370,0.992096,0.003712,0.442488,0.000024,0.000009,-0.000012,0.000031,0.000002,-29.931505,0.000037,
2206,3148,-1.2173644070561,10.8457232101561,0.0402130420210938,0.011522,-0.088477,0.012305,0.459367,-4.008284,313.425993,20.828416,0.999491,0.993087,0.003548,0.428286,0.000012,0.000028,-0.000007,0.000031,0.000009,-69.463781,0.000042,
2251,2008,-0.0508401487627914,-14.0248536550691,-0.0245976072239955,0.001465,-0.098763,-0.031502,0.133692,-4.635824,330.940267,18.602493,0.998794,0.986006,0.005483,0.370627,0.001373,0.001448,0.000019,0.001452,0.001368,76.498630,0.002821,
2056,2503,-4.37910563409161,-3.18247046270139,-0.0229358461185711,0.004613,-0.088350,-0.000868,0.186179,-4.013699,323.742908,20.348309,0.999090,0.989286,0.004418,0.498453,0.000333,0.000129,0.000034,0.000339,0.000123,9.247710,0.000479,
2416,2818,3.40136280038784,3.69207747138881,-0.0156427947248972,0.009187,-0.089743,0.004249,0.369400,-4.062640,318.091811,20.582202,0.999164,0.987728,0.004501,0.478928,0.000088,0.000052,0.000022,0.000098,0.000042,25.870562,0.000144,
2461,3118,4.32536003589446,10.2147343204788,0.0249652822367921,0.011106,-0.089910,0.011555,0.428950,-4.073889,313.662777,21.703853,0.999473,0.990336,0.003910,0.467306,0.000042,0.000019,0.000057,0.000088,-0.000027,39.450759,0.000090,
2386,2638,2.78165052639931,-0.232012790710023,-0.0166426361503795,0.007766,-0.090963,0.004204,0.304546,-4.110440,320.920148,19.995162,0.998960,0.986469,0.004632,0.465224,0.000192,0.000115,0.000007,0.000193,0.000115,4.992746,0.000310,
2026,2368,-5.01170236608255,-6.13013212055748,-0.0159421458936322,0.002907,-0.088068,-0.012401,0.140189,-4.047784,326.109283,20.471095,0.998760,0.987020,0.004911,0.477660,0.000579,0.000359,0.000065,0.000597,0.000341,15.383795,0.000949,
2371,2593,2.46354751926411,-1.21420100563373,-0.0196405869643286,0.007516,-0.090590,-0.002217,0.316503,-4.120925,321.629625,19.849984,0.999105,0.987012,0.004646,0.486318,0.000239,0.000133,0.000021,0.000243,0.000130,10.681322,0.000378,
2071,2503,-4.05209940241163,-3.18242339584916,-0.0176485453347937,0.004967,-0.087851,-0.004399,0.212357,-4.012123,323.730953,20.341011,0.999061,0.990130,0.004292,0.476083,0.000336,0.000140,0.000032,0.000341,0.000135,8.925933,0.000491,
2341,2428,1.84228627771585,-4.81979280410788,-0.000481363130802492,0.006516,-0.089960,-0.013002,0.308766,-4.136190,324.453249,19.455766,0.999606,0.993131,0.003974,0.485652,0.000430,0.000340,-0.000007,0.000430,0.000339,-4.385484,0.000771,
2431,2893,3.71374069462189,5.32557961474746,-0.0120688105802174,0.009754,-0.089723,0.006185,0.387962,-4.050962,316.937132,20.898440,0.999464,0.990674,0.003836,0.437933,0.000059,0.000050,0.000037,0.000091,0.000017,41.323181,0.000117,
2506,1993,5.54007203462328,-14.3672444731635,0.00401618314691632,0.011726,-0.101063,-0.032878,0.618358,-4.754633,332.097555,16.700478,0.997672,0.970588,0.007190,0.298816,0.002064,0.001306,-0.000274,0.002153,0.001218,-17.912157,0.003414,
2176,2998,-1.84573751204054,7.59107461999086,0.0100096844534505,0.010052,-0.088186,0.008101,0.406283,-3.999693,315.663140,20.602308,0.999366,0.991003,0.003878,0.421278,0.000032,0.000022,-0.000011,0.000039,0.000015,-31.856355,0.000056,
2011,2353,-5.33720833165548,-6.45587693126856,-0.0219212530007553,0.001856,-0.087702,-0.011742,0.090131,-4.051456,326.344893,20.654222,0.998872,0.988492,0.004764,0.351946,0.000576,0.000388,0.000085,0.000609,0.000355,20.993318,0.000975,
2161,2938,-2.16239015662866,6.28750539817208,0.002965757201423,0.009373,-0.088382,0.009143,0.372296,-4.008790,316.601422,20.517610,0.999306,0.988104,0.004302,0.417368,0.000053,0.000027,-0.000006,0.000054,0.000025,-12.671834,0.000081,
2326,2368,1.52460506739922,-6.13093589006482,-0.017056395628515,0.006111,-0.091598,-0.011161,0.283056,-4.217363,325.264212,19.330873,0.999074,0.985338,0.004829,0.427985,0.000524,0.000455,-0.000008,0.000525,0.000454,-6.787353,0.000980,
2401,2728,3.09094141444619,1.7321800843553,-0.0277445708002801,0.008566,-0.090145,0.002522,0.347336,-4.085705,319.417903,20.309421,0.999482,0.989577,0.004210,0.440103,0.000120,0.000096,0.000020,0.000131,0.000085,29.301454,0.000217,
2041,2428,-4.694489976366,-4.81760986492972,-0.0275958341777027,0.003773,-0.087478,-0.008950,0.170652,-4.015236,324.984431,20.484245,0.998393,0.983907,0.005128,0.423125,0.000474,0.000193,0.000056,0.000485,0.000182,10.826713,0.000689,
2446,2998,4.02142482086389,7.60849030815199,0.00536844205720399,0.010773,-0.089848,0.009173,0.423153,-4.060208,315.427903,21.283631,0.999337,0.987498,0.004244,0.431330,0.000049,0.000015,0.000050,0.000085,-0.000020,35.614594,0.000089,
2356,2518,2.15126814456995,-2.85189512125712,-0.0137169339503771,0.007133,-0.090525,-0.004962,0.308791,-4.136596,322.884228,19.693623,0.999003,0.986542,0.004748,0.446225,0.000306,0.000214,0.000008,0.000307,0.000213,4.931640,0.000523,
2146,2863,-2.47687263081198,4.65879388638425,-0.0184142741014739,0.009343,-0.088214,0.007961,0.375278,-3.987845,317.703166,20.434148,0.999504,0.991324,0.003704,0.451494,0.000064,0.000051,-0.000010,0.000069,0.000046,-27.219345,0.000116,
2026,2383,-5.01415825684117,-5.80218947891356,-0.0134313114821225,0.002551,-0.087837,-0.011967,0.122673,-4.055612,325.870963,20.532197,0.999222,0.989215,0.004193,0.400711,0.000568,0.000304,0.000061,0.000581,0.000291,12.438671,0.000888,
2266,2128,0.258141899767207,-11.3906052162301,-0.006674939053255,0.003422,-0.095306,-0.022670,0.196211,-4.437926,329.195548,18.921695,0.998087,0.980003,0.005867,0.375065,0.001079,0.001192,0.000011,0.001193,0.001078,84.514560,0.002272,
2251,2023,-0.0529788125768214,-13.6962416481615,-0.00793082276817358,0.000983,-0.098141,-0.028253,0.101277,-4.602636,330.805184,18.726330,0.998195,0.981247,0.005995,0.306275,0.001329,0.001432,0.000030,0.001440,0.001321,74.725676,0.002762,
2416,2833,3.39853747987226,4.01908322486788,-0.0178322460658364,0.009524,-0.089977,0.004700,0.383191,-4.069061,317.842420,20.663068,0.998581,0.985237,0.004790,0.439290,0.000083,0.000052,0.000024,0.000096,0.000038,28.554355,0.000139,
2131,2773,-2.78884286875967,2.70134066263404,-0.0211709378569935,0.008190,-0.088028,0.004108,0.334381,-3.983363,319.163391,20.374183,0.999538,0.992191,0.003606,0.460664,0.000106,0.000056,-0.000010,0.000108,0.000054,-10.774053,0.000165,
2086,2563,-3.73431779168977,-1.87370338495385,-0.0168138103071556,0.005698,-0.087793,-0.008588,0.257816,-4.045132,322.735774,20.371666,0.998600,0.986336,0.004861,0.381821,0.000263,0.000095,0.000025,0.000267,0.000092,8.236430,0.000372,
2476,3208,4.63517703364905,12.1691434834348,0.0397498671958374,0.011824,-0.089768,0.012505,0.457759,-4.078821,312.372513,22.128625,0.999290,0.990737,0.003849,0.429984,0.000050,0.000016,0.000045,0.000081,-0.000015,34.667192,0.000086,
2461,3133,4.32276959762247,10.540451675008,0.0288051744214499,0.011374,-0.090217,0.013413,0.434179,-4.084113,313.454254,21.791082,0.999423,0.989405,0.003974,0.422978,0.000047,0.000016,0.000050,0.000083,-0.000021,36.371735,0.000087,
2506,2008,5.53600880292508,-14.0367791523625,0.0012519851251227,0.010907,-0.099617,-0.034223,0.586795,-4.693817,331.800392,16.740828,0.997843,0.972495,0.007135,0.384690,0.001931,0.001336,-0.000287,0.002047,0.001220,-21.984458,0.003302,
2191,3103,-1.53551802989174,9.86841379753755,0.0379233511043822,0.011125,-0.088527,0.011888,0.443131,-4.010302,314.171259,20.704449,0.999411,0.992227,0.003678,0.445967,0.000018,0.000014,-0.000010,0.000027,0.000006,-39.816233,0.000035,
2221,3268,-0.912577238662596,13.4474265452704,0.0292793273624739,0.012610,-0.088562,0.009674,0.517271,-4.038581,311.387092,20.937954,0.999482,0.992927,0.003505,0.493828,0.000008,0.000046,0.000008,0.000048,0.000007,79.224366,0.000059,
2281,2188,0.575460862899636,-10.0739855981925,-0.00734462518829559,0.004313,-0.093538,-0.020257,0.230068,-4.341407,328.235902,19.027823,0.998484,0.979120,0.005861,0.401060,0.000924,0.000972,0.000008,0.000974,0.000923,81.402245,0.001897,
2311,2293,1.2117445168031,-7.77276476979061,-0.00820551016425952,0.005675,-0.091860,-0.013975,0.272491,-4.224962,326.547694,19.200358,0.998986,0.984532,0.005034,0.431369,0.000662,0.000636,-0.000008,0.000664,0.000634,-15.361002,0.001298,
2101,2653,-3.42253094839965,0.0893702929112834,-0.0313702112820238,0.007222,-0.088004,0.000114,0.302438,-4.007450,321.127679,20.370947,0.999212,0.989061,0.004161,0.410079,0.000180,0.000055,0.000019,0.000183,0.000052,8.320962,0.000246,
2206,3163,-1.22014274487915,11.1707694637354,0.0413973184362249,0.011398,-0.088681,0.014017,0.448155,-4.015920,313.179510,20.837686,0.999715,0.994832,0.003194,0.426715,0.000015,0.000034,-0.000006,0.000035,0.000013,-74.584824,0.000050,
2116,2698,-3.10320087111022,1.06903060035223,-0.0231907241129647,0.007584,-0.088225,0.003828,0.307768,-3.980207,320.402318,20.358045,0.999256,0.990020,0.004041,0.452996,0.000143,0.000041,-0.000003,0.000143,0.000041,-1.829546,0.000193,
2296,2233,0.895593126794058,-9.08651013410878,-0.00807335639854045,0.005435,-0.092274,-0.018876,0.277678,-4.247723,327.534473,19.126019,0.998487,0.979403,0.005696,0.416278,0.000788,0.000835,-0.000011,0.000838,0.000786,-77.292458,0.001624,
2011,2368,-5.33869230422474,-6.12912777080707,-0.0202114213226992,0.002378,-0.087615,-0.013108,0.117843,-4.036507,326.145523,20.570934,0.998950,0.987982,0.004792,0.439805,0.000574,0.000355,0.000072,0.000595,0.000333,16.615957,0.000941,
2341,2443,1.83815277724125,-4.49065324578788,-0.0072260644330413,0.006341,-0.091001,-0.004860,0.272026,-4.150554,324.116804,19.570160,0.999005,0.987277,0.004742,0.395272,0.000413,0.000297,0.000001,0.000413,0.000297,0.257969,0.000714,
2251,2038,-0.0554033729143661,-13.3673040939472,-0.00171704046653076,0.001328,-0.098312,-0.019951,0.089947,-4.561354,330.604293,18.757399,0.997896,0.980002,0.005996,0.343414,0.001298,0.001397,0.000026,0.001404,0.001291,76.123301,0.002696,
2056,2518,-4.38009950198619,-2.85483411231172,-0.0228157194599135,0.005490,-0.087465,-0.007645,0.245858,-4.014898,323.560739,20.396824,0.998887,0.989483,0.004408,0.444238,0.000300,0.000110,0.000039,0.000308,0.000102,11.266909,0.000427,
2026,2398,-5.01556416145803,-5.47468403367662,-0.0140393416929783,0.003544,-0.087694,-0.009632,0.161998,-4.039839,325.663305,20.504456,0.999242,0.989375,0.004177,0.436094,0.000538,0.000272,0.000055,0.000549,0.000261,11.134153,0.000827,
2506,2023,5.53243346686118,-13.7050731521291,-0.00154450169094389,0.010996,-0.098771,-0.030841,0.578265,-4.633455,331.525308,16.900321,0.998426,0.969863,0.007052,0.350768,0.001832,0.001381,-0.000301,0.001982,0.001231,-26.554002,0.003242,
2401,2743,3.08817574396815,2.05848523282703,-0.0297399473743667,0.008970,-0.090534,0.003670,0.361569,-4.106498,319.171550,20.314811,0.999383,0.989555,0.004180,0.459565,0.000108,0.000087,0.000023,0.000123,0.000073,32.145761,0.000197,
2386,2653,2.77894086860904,0.0953782639390184,-0.0182006506833545,0.008026,-0.090538,0.003616,0.318788,-4.095769,320.677279,20.039228,0.998901,0.985681,0.004807,0.479840,0.000176,0.000108,0.000009,0.000177,0.000107,7.028508,0.000287,
2161,2953,-2.16457431524483,6.6125362097312,0.00915551183715024,0.009406,-0.088549,0.010741,0.368909,-3.998649,316.405670,20.489258,0.999450,0.990851,0.003787,0.465232,0.000050,0.000023,-0.000009,0.000053,0.000021,-16.323257,0.000076,
2071,2518,-4.05441549211039,-2.85507189289314,-0.0218595974695859,0.005251,-0.088146,-0.004191,0.224732,-4.020816,323.465920,20.332028,0.999124,0.991260,0.004049,0.474582,0.000306,0.000124,0.000035,0.000313,0.000117,10.602105,0.000445,
2431,2908,3.71060391268713,5.65105998003947,-0.0131927710800142,0.009822,-0.090106,0.007960,0.384346,-4.069963,316.679615,20.881615,0.999594,0.990633,0.003772,0.485588,0.000049,0.000032,0.000040,0.000081,0.000000,38.761548,0.000094,
2146,2878,-2.47853994837823,4.98370548069841,-0.00553600577109137,0.009256,-0.087999,0.007090,0.373960,-3.988107,317.565780,20.436519,0.999470,0.991075,0.003787,0.456265,0.000063,0.000052,-0.000009,0.000068,0.000047,-30.508512,0.000115,
2446,3013,4.01844567441136,7.93446844577156,0.00774063976217576,0.010646,-0.089722,0.009781,0.415146,-4.053224,315.194253,21.339040,0.999078,0.985244,0.004418,0.434355,0.000049,0.000021,0.000050,0.000087,-0.000016,37.087319,0.000093,
2101,2668,-3.42472534093708,0.415174680879062,-0.0278229240807377,0.007240,-0.088061,0.000879,0.301039,-4.005723,320.913201,20.326055,0.999293,0.990503,0.003994,0.458554,0.000167,0.000050,0.000018,0.000169,0.000048,8.415989,0.000228,
2461,3148,4.32018491929146,10.865819078862,0.032749953550649,0.011434,-0.090169,0.012810,0.439245,-4.086490,313.246510,21.842212,0.999336,0.989024,0.003966,0.422939,0.000045,0.000018,0.000054,0.000087,-0.000025,37.883261,0.000090,
2041,2443,-4.69515565511143,-4.49158942501349,-0.0178292437867071,0.004601,-0.087101,-0.011667,0.216364,-4.016927,324.869744,20.451489,0.998421,0.982556,0.005398,0.447746,0.000438,0.000146,0.000050,0.000447,0.000138,9.425436,0.000611,
2221,3283,-0.916241143451,13.7745933478649,0.0183251611528021,0.012416,-0.088577,0.010349,0.506256,-4.026105,311.037324,21.087210,0.999381,0.991409,0.003634,0.374220,0.000005,0.000059,0.000001,0.000059,0.000005,88.616341,0.000071,
2176,3013,-1.84785228225717,7.91634482561177,0.0148495419127244,0.010316,-0.088361,0.010317,0.411523,-3.996253,315.464290,20.608185,0.999227,0.989108,0.004160,0.430381,0.000031,0.000019,-0.000012,0.000039,0.000011,-32.177100,0.000052,
2011,2383,-5.34004963201014,-5.80055585559609,-0.0197474294472499,0.003098,-0.086818,-0.014659,0.155388,-4.018681,325.944535,20.644023,0.999122,0.987697,0.004501,0.374217,0.000562,0.000300,0.000061,0.000576,0.000286,12.503767,0.000878,
2416,2848,3.39618133431164,4.34515645164815,-0.014864132506375,0.009827,-0.089796,0.004098,0.399379,-4.070546,317.638911,20.696533,0.999108,0.987634,0.004347,0.451775,0.000075,0.000050,0.000028,0.000093,0.000032,33.381584,0.000130,
2506,2038,5.52880345941499,-13.3770786061408,0.00932174245252781,0.010132,-0.099178,-0.024159,0.512935,-4.619079,331.308787,16.927185,0.997997,0.967888,0.007316,0.402791,0.001740,0.001372,-0.000292,0.001901,0.001211,-28.876445,0.003137,
2266,2143,0.255965808453016,-11.059156592916,-0.00765801457851012,0.004072,-0.094960,-0.021586,0.222547,-4.423156,328.970733,19.165995,0.999037,0.983924,0.005404,0.173959,0.001038,0.001114,0.000011,0.001115,0.001036,81.870501,0.002152,
2371,2608,2.46109072792929,-0.886090944783646,-0.0236684876513209,0.007938,-0.089712,-0.006104,0.350023,-4.104729,321.385359,19.922811,0.998813,0.986076,0.004748,0.471699,0.000223,0.000120,0.000021,0.000227,0.000116,11.156233,0.000349,
2026,2413,-5.01848327310129,-5.14643451687512,-0.0163414054439954,0.003283,-0.087823,-0.004807,0.136735,-3.997311,325.376796,20.507321,0.998869,0.986869,0.004686,0.467590,0.000520,0.000220,0.000053,0.000530,0.000211,9.789148,0.000763,
2131,2788,-2.79076648641884,3.0275375175377,-0.0180677357311083,0.008530,-0.087827,0.004231,0.349705,-3.980619,318.960929,20.394795,0.999548,0.992535,0.003506,0.448390,0.000092,0.000057,-0.000008,0.000094,0.000055,-12.179956,0.000151,
2311,2308,1.20728585742935,-7.44230853819708,-0.0258877361249574,0.005272,-0.091631,-0.014301,0.255234,-4.230609,326.140051,19.267440,0.999288,0.987045,0.004817,0.393582,0.000625,0.000584,-0.000005,0.000625,0.000584,-6.777314,0.001209,
2326,2383,1.52139161618741,-5.80134572632517,-0.0182477802584344,0.005899,-0.091006,-0.009525,0.267929,-4.190805,324.995550,19.478202,0.999423,0.987615,0.004612,0.343530,0.000496,0.000435,-0.000012,0.000498,0.000433,-11.003903,0.000932,
2356,2533,2.14832706408081,-2.52427541167481,-0.0175536135193965,0.007280,-0.090184,-0.005538,0.317721,-4.123192,322.617724,19.700193,0.999031,0.987422,0.004684,0.492847,0.000287,0.000190,0.000006,0.000287,0.000190,3.446643,0.000480,
2191,3118,-1.53802673089257,10.1935716235949,0.0423287050820136,0.010901,-0.088336,0.011841,0.432960,-4.017302,313.952961,20.731806,0.999412,0.992691,0.003618,0.424901,0.000017,0.000016,-0.000010,0.000027,0.000006,-42.915920,0.000035,
2086,2578,-3.73697293319281,-1.54606925704003,-0.0238624544168715,0.006118,-0.087847,-0.004271,0.264725,-4.008371,322.440929,20.339087,0.998824,0.987151,0.004663,0.451425,0.000240,0.000086,0.000025,0.000244,0.000082,8.990061,0.000340,
2056,2533,-4.38208531847229,-2.52820866080878,-0.018510035839995,0.005614,-0.087238,-0.006346,0.247992,-3.986964,323.356409,20.366258,0.998392,0.987842,0.004738,0.498314,0.000271,0.000103,0.000042,0.000281,0.000093,13.410060,0.000389,
2281,2203,0.572894696661095,-9.74463878120172,-0.00923670318491077,0.004657,-0.093181,-0.019144,0.242301,-4.321065,327.990141,19.087228,0.998272,0.978797,0.005891,0.392472,0.000884,0.000930,0.000002,0.000931,0.000884,87.428077,0.001815,
2476,3223,4.63240166559529,12.4951254683575,0.034715166415026,0.012154,-0.089801,0.008200,0.489349,-4.095666,312.115398,22.216637,0.999174,0.991049,0.003885,0.380419,0.000053,-0.000002,0.000041,0.000075,-0.000024,27.832243,0.000076,
2296,2248,0.892715832745161,-8.75857325044918,-0.0121991173652418,0.005478,-0.092362,-0.020222,0.284176,-4.282900,327.265116,19.105578,0.998714,0.981836,0.005448,0.434002,0.000757,0.000758,-0.000010,0.000767,0.000748,-47.038365,0.001515,
2041,2458,-4.69799487970762,-4.16447517081702,-0.0184825717962553,0.004250,-0.087417,-0.008561,0.191521,-4.010851,324.597762,20.418052,0.998581,0.982092,0.005448,0.480987,0.000411,0.000135,0.000047,0.000419,0.000127,9.328053,0.000572,
2116,2713,-3.10506147016055,1.39556431250891,-0.0228631613992434,0.008041,-0.087984,0.002497,0.332765,-3.989824,320.186719,20.377821,0.999250,0.988773,0.004247,0.427313,0.000134,0.000041,-0.000009,0.000135,0.000040,-5.217302,0.000183,
2341,2458,1.83432973939853,-4.16186117300536,-0.0177945909458685,0.006111,-0.090564,-0.005175,0.262789,-4.124421,323.775925,19.582525,0.999298,0.987715,0.004511,0.447440,0.000390,0.000277,0.000004,0.000390,0.000277,1.836627,0.000670,
2251,2053,-0.0569009063991466,-13.0369822674414,-0.00487172232135435,0.002199,-0.096757,-0.026647,0.152195,-4.513728,330.398390,18.807977,0.998047,0.979065,0.005973,0.367124,0.001261,0.001369,0.000029,0.001376,0.001254,76.022348,0.002631,
2446,3028,4.01592065367803,8.2603943949511,0.013861998163577,0.010531,-0.089697,0.008699,0.413903,-4.059282,314.998785,21.431349,0.999333,0.987551,0.004221,0.387359,0.000052,0.000017,0.000048,0.000086,-0.000017,34.937424,0.000091,
2221,3298,-0.919819458380523,14.0995790872956,0.0120495810807029,0.012133,-0.088344,0.013259,0.483911,-4.015849,310.716390,21.067961,0.999424,0.992165,0.003427,0.420952,0.000005,0.000060,-0.000008,0.000061,0.000004,-81.916538,0.000073,
2401,2758,3.08563921540442,2.38498685895505,-0.0225216483871691,0.009017,-0.090206,0.006663,0.353005,-4.096670,318.978979,20.385410,0.999263,0.988042,0.004404,0.444566,0.000104,0.000077,0.000027,0.000121,0.000060,31.482464,0.000185,
2071,2533,-4.0563823418185,-2.52764077225773,-0.0178921144545257,0.005440,-0.087915,-0.002960,0.229979,-4.002001,323.261469,20.381499,0.999032,0.990411,0.004246,0.441668,0.000279,0.000115,0.000040,0.000288,0.000106,12.881732,0.000408,
2011,2398,-5.34196313864353,-5.47419505193803,-0.0130072285251117,0.003358,-0.087309,-0.008265,0.149849,-4.011474,325.753899,20.590793,0.999057,0.987115,0.004586,0.424037,0.000532,0.000271,0.000053,0.000542,0.000261,11.030065,0.000819,
2416,2863,3.3933144716161,4.67150628700271,-0.0122997849777562,0.009659,-0.089899,0.003547,0.393697,-4.065333,317.409871,20.749774,0.999288,0.988904,0.004144,0.451344,0.000067,0.000058,0.000032,0.000095,0.000031,40.990451,0.000131,
2431,2923,3.70826099030669,5.97804274352814,-0.0102759716226615,0.010138,-0.089932,0.006949,0.402687,-4.068086,316.476917,21.015421,0.999596,0.991494,0.003792,0.403239,0.000048,0.000029,0.000036,0.000075,0.000002,37.811874,0.000088,
2461,3163,4.31809811033395,11.1912217507874,0.0375652208361998,0.011878,-0.090164,0.011691,0.463882,-4.096950,313.065623,21.913183,0.999502,0.990306,0.003866,0.394768,0.000040,0.000020,0.000053,0.000084,-0.000024,39.592041,0.000086,
2161,2968,-2.16673992627871,6.93855972481682,0.00976114521415639,0.009779,-0.088784,0.011485,0.383743,-4.007385,316.181001,20.535580,0.999603,0.992649,0.003461,0.419627,0.000048,0.000022,-0.000011,0.000052,0.000018,-20.281597,0.000073,
2101,2683,-3.42704036275346,0.741432463964763,-0.0265754700139951,0.007200,-0.087844,0.000275,0.301045,-3.996022,320.680629,20.299897,0.999272,0.990789,0.003913,0.495798,0.000155,0.000043,0.000015,0.000157,0.000041,7.446740,0.000209,
2206,3178,-1.2226016286518,11.4967724394578,0.0362746803958203,0.011592,-0.088135,0.009377,0.472110,-3.997348,312.914649,20.875084,0.999646,0.994426,0.003258,0.423759,0.000014,0.000037,-0.000002,0.000037,0.000014,-85.279636,0.000053,
2506,2053,5.52506879850793,-13.0466897547658,0.00822336716271366,0.010236,-0.100119,-0.017069,0.490003,-4.609513,331.034111,17.047319,0.998423,0.980321,0.006064,0.357158,0.001661,0.001379,-0.000295,0.001847,0.001193,-32.217004,0.003063,
2176,3028,-1.85020082988507,8.24143169034893,0.0156332174053091,0.010488,-0.088635,0.010564,0.418669,-3.994884,315.233492,20.575703,0.999402,0.991341,0.003925,0.475745,0.000029,0.000015,-0.000014,0.000037,0.000007,-31.960477,0.000047,
2476,3238,4.62862233017804,12.8212312430195,0.0223752297903275,0.012481,-0.089864,0.008636,0.502885,-4.077894,311.778564,22.244678,0.999617,0.993298,0.003396,0.425712,0.000056,-0.000002,0.000042,0.000078,-0.000025,27.826094,0.000080,
2386,2668,2.77601995441329,0.422677186151226,-0.0227509475358261,0.008088,-0.090351,0.000193,0.334016,-4.112280,320.410543,20.085919,0.999090,0.987587,0.004541,0.460430,0.000162,0.000102,0.000008,0.000163,0.000101,7.545141,0.000267,
2056,2548,-4.38511406988929,-2.20037694894341,-0.0241878684466315,0.005567,-0.087510,-0.001002,0.230680,-3.979128,323.049196,20.381800,0.998900,0.989087,0.004414,0.486336,0.000257,0.000096,0.000044,0.000268,0.000085,14.245773,0.000369,
2086,2593,-3.73934308701842,-1.21906866160228,-0.0233698237437352,0.006133,-0.087796,-0.003358,0.262824,-3.997784,322.200364,20.345643,0.998928,0.986920,0.004597,0.455163,0.000230,0.000087,0.000031,0.000236,0.000081,11.925609,0.000330,
2026,2428,-5.02031732828436,-4.81829635724609,-0.0246075476669603,0.003900,-0.087376,-0.009399,0.177778,-4.013906,325.106948,20.507676,0.998674,0.984990,0.004976,0.442534,0.000489,0.000179,0.000065,0.000503,0.000166,11.424409,0.000696,
2131,2803,-2.79318815105156,3.3535339708946,-0.0176925407542399,0.008533,-0.087694,0.004079,0.350318,-3.984198,318.721141,20.386363,0.999522,0.991830,0.003663,0.458992,0.000089,0.000053,-0.000008,0.000091,0.000051,-12.197505,0.000143,
2146,2893,-2.48087595197357,5.3094385827336,-0.00462630596757663,0.009321,-0.088085,0.006579,0.378476,-3.993240,317.333938,20.434631,0.999407,0.989466,0.004141,0.460594,0.000058,0.000042,-0.000008,0.000061,0.000039,-23.220041,0.000101,
2041,2473,-4.70029141183573,-3.83623827343188,-0.0255920781957002,0.004613,-0.087610,-0.009231,0.209977,-4.032636,324.314689,20.460323,0.998048,0.982376,0.005567,0.410881,0.000394,0.000134,0.000051,0.000403,0.000124,10.681400,0.000552,
2266,2158,0.25336100747877,-10.7316526930655,-0.00550207479966502,0.003795,-0.094387,-0.023800,0.217368,-4.390108,328.742404,19.071330,0.998766,0.982230,0.005535,0.330127,0.000997,0.001049,0.000021,0.001057,0.000990,70.569521,0.002047,
2356,2548,2.14541983006775,-2.19684644355518,-0.0158031904264249,0.007217,-0.089987,-0.003713,0.308526,-4.095023,322.379579,19.729590,0.998916,0.986450,0.004815,0.531644,0.000268,0.000161,0.000012,0.000269,0.000160,6.448679,0.000434,
2371,2623,2.45779551200686,-0.558953000917633,-0.0247439068841686,0.007932,-0.090029,-0.001769,0.334265,-4.092137,321.116845,19.940711,0.998898,0.986578,0.004657,0.508148,0.000205,0.000107,0.000011,0.000207,0.000106,6.430864,0.000318,
2191,3133,-1.54021394892061,10.5198139304175,0.0393427403130318,0.011345,-0.088009,0.009403,0.461322,-3.986179,313.710468,20.778755,0.999385,0.992648,0.003678,0.422595,0.000013,0.000019,-0.000009,0.000026,0.000006,-53.347495,0.000034,
2236,1993,-0.374259047401036,-14.3574060019573,0.00400264937474049,0.001234,-0.098814,-0.027632,0.109933,-4.615365,331.424264,18.655148,0.999111,0.987643,0.005149,0.416783,0.001398,0.001448,0.000020,0.001455,0.001391,70.526897,0.002846,
2296,2263,0.888477631829652,-8.42778098070232,-0.0208666353169065,0.004858,-0.092291,-0.016938,0.244720,-4.260877,326.910251,19.248593,0.999265,0.987162,0.004886,0.345884,0.000715,0.000705,-0.000012,0.000723,0.000697,-34.399000,0.001420,
2326,2398,1.52006638956863,-5.47548222582996,-0.00748475379674574,0.006331,-0.090667,-0.012143,0.296915,-4.193160,324.872434,19.432849,0.999305,0.987637,0.004714,0.422257,0.000471,0.000412,-0.000013,0.000474,0.000409,-12.106960,0.000884,
2311,2323,1.20538581632013,-7.1143689859252,-0.0216998273176614,0.005789,-0.091495,-0.014575,0.279912,-4.211527,325.957179,19.304224,0.998835,0.983903,0.005223,0.410032,0.000592,0.000547,-0.000007,0.000593,0.000546,-8.518946,0.001139,
2476,3253,4.62513134553618,13.1464076813875,0.0231180400353423,0.012474,-0.090142,0.014690,0.479382,-4.083482,311.514848,22.289082,0.999656,0.992885,0.003362,0.430890,0.000061,0.000016,0.000046,0.000090,-0.000012,31.942607,0.000097,
2341,2473,1.8323032428748,-3.83434395465207,-0.0158908699272615,0.006649,-0.090405,-0.006496,0.292111,-4.123011,323.578109,19.624183,0.999206,0.987499,0.004511,0.445066,0.000366,0.000259,0.000004,0.000366,0.000258,2.170585,0.000628,
2011,2413,-5.34472929839034,-5.14716028642244,-0.0134489830649045,0.002837,-0.087452,-0.007893,0.124857,-4.011563,325.483979,20.542319,0.998881,0.987503,0.004598,0.462219,0.000513,0.000214,0.000055,0.000523,0.000205,10.016872,0.000751,
2116,2728,-3.1081596637482,1.7221234664465,-0.0274603522358348,0.007606,-0.087880,0.001572,0.315500,-3.999798,319.887945,20.365331,0.999267,0.988669,0.004271,0.433689,0.000127,0.000035,-0.000009,0.000128,0.000034,-5.407326,0.000170,
2281,2218,0.569630274506302,-9.41526271568031,-0.0120104373646086,0.004137,-0.092729,-0.021212,0.225530,-4.302765,327.707994,19.147845,0.998568,0.979651,0.005713,0.380738,0.000837,0.000879,0.000004,0.000880,0.000837,84.516282,0.001717,
2056,2563,-4.38657651303076,-1.87381865446016,-0.0206971742879318,0.005971,-0.087330,-0.004544,0.259328,-3.987341,322.864499,20.382838,0.998955,0.988007,0.004531,0.472573,0.000242,0.000071,0.000032,0.000248,0.000065,10.368235,0.000331,
2446,3043,4.01316279531835,8.58556007359095,0.0173565676658427,0.010594,-0.090010,0.010063,0.411609,-4.071329,314.780619,21.445523,0.999267,0.987268,0.004226,0.412268,0.000045,0.000024,0.000051,0.000087,-0.000018,39.199230,0.000092,
2416,2878,3.39023028526265,4.99835258460111,-0.0136768807286671,0.009718,-0.089584,0.004610,0.392685,-4.048707,317.152163,20.812285,0.999367,0.990345,0.003904,0.452897,0.000060,0.000058,0.000034,0.000094,0.000025,44.051884,0.000125,
2251,2068,-0.0587480603430777,-12.707891763813,-0.00170984638845084,0.002671,-0.096012,-0.027681,0.177466,-4.493445,330.208589,18.849825,0.998245,0.979688,0.005861,0.371748,0.001224,0.001315,0.000032,0.001325,0.001214,72.538680,0.002540,
2026,2443,-5.02176784452911,-4.48959606702897,-0.0285231554118468,0.004688,-0.086752,-0.013257,0.224803,-4.003136,324.878610,20.578967,0.999285,0.989520,0.004232,0.373686,0.000457,0.000132,0.000061,0.000468,0.000121,10.259708,0.000622,
2401,2773,3.08314751718909,2.7114963846921,-0.0183560025536167,0.008784,-0.089634,0.002511,0.357653,-4.073079,318.773996,20.422475,0.999332,0.988004,0.004349,0.476696,0.000094,0.000062,0.000022,0.000106,0.000050,27.056631,0.000159,
2101,2698,-3.42919755983462,1.06870537343343,-0.0229697410433687,0.007284,-0.087704,0.001380,0.301787,-3.960180,320.467680,20.364471,0.998999,0.989474,0.004219,0.468726,0.000143,0.000034,0.000006,0.000143,0.000034,2.987485,0.000188,
2086,2608,-3.74156033581431,-0.891804708485211,-0.0243314222784079,0.006410,-0.087797,-0.002240,0.272301,-3.999085,321.958864,20.380258,0.998917,0.987249,0.004575,0.418857,0.000220,0.000082,0.000029,0.000225,0.000076,11.277430,0.000313,
2506,2068,5.52361743726076,-12.7173367066986,0.020398895202959,0.010341,-0.098430,-0.023364,0.519813,-4.561272,330.922889,17.187219,0.998745,0.983704,0.005549,0.329400,0.001585,0.001396,-0.000291,0.001797,0.001184,-35.998585,0.003002,
2461,3178,4.31518356315856,11.5170910710288,0.0383247628497543,0.011960,-0.090041,0.012150,0.466019,-4.083216,312.827749,21.982204,0.999601,0.991251,0.003752,0.392750,0.000042,0.000025,0.000048,0.000083,-0.000015,39.897880,0.000088,
2071,2548,-4.05894939653082,-2.2000518875558,-0.0229282003949152,0.005624,-0.087515,-0.001173,0.233487,-3.971216,322.980259,20.357860,0.999107,0.990642,0.004277,0.493926,0.000266,0.000106,0.000042,0.000276,0.000096,13.784673,0.000386,
2041,2488,-4.70162634624829,-3.50942173932583,-0.0215352059012162,0.005123,-0.087058,-0.012027,0.241372,-4.010829,324.137604,20.437256,0.999123,0.987473,0.004715,0.449174,0.000370,0.000131,0.000048,0.000379,0.000122,10.933611,0.000523,
2161,2983,-2.16949360882775,7.26497990072316,0.0063495940466396,0.009927,-0.088437,0.013639,0.384136,-3.982737,315.907947,20.561715,0.999500,0.992710,0.003551,0.427739,0.000044,0.000021,-0.000014,0.000051,0.000015,-25.194562,0.000069,
2176,3043,-1.85190653488332,8.5678239164856,0.024477514944806,0.010734,-0.088084,0.010413,0.430535,-4.004716,315.074058,20.731443,0.999670,0.995142,0.003231,0.321545,0.000029,0.000010,-0.000015,0.000037,0.000002,-29.452753,0.000044,
2236,2008,-0.376940030156472,-14.0274370852075,-0.000981741118437185,0.001432,-0.098432,-0.028542,0.122074,-4.595197,331.153846,18.662453,0.998853,0.985413,0.005535,0.454675,0.001345,0.001439,0.000027,0.001446,0.001338,74.878541,0.002785,
2206,3193,-1.22450880037136,11.821348776093,0.0404814312846611,0.011836,-0.087905,0.006818,0.491526,-3.998253,312.724008,20.859809,0.999763,0.995643,0.003087,0.453699,0.000013,0.000037,-0.000001,0.000037,0.000013,-87.309694,0.000051,
2146,2908,-2.48263756886599,5.63525927463462,-0.00131008056132487,0.009698,-0.087943,0.004480,0.402253,-3.990129,317.141181,20.453984,0.999336,0.988736,0.004208,0.451750,0.000056,0.000028,-0.000008,0.000058,0.000026,-15.027600,0.000086,
2476,3268,4.62175334309527,13.4722755759873,0.0210196842291452,0.012557,-0.090344,0.017602,0.472023,-4.093787,311.243070,22.389939,0.999845,0.995068,0.002890,0.374510,0.000062,0.000010,0.000037,0.000082,-0.000009,27.566779,0.000090,
2266,2173,0.249101507946531,-10.4037670526677,-0.00886021568823026,0.002853,-0.094891,-0.017952,0.154745,-4.383037,328.410811,18.984134,0.999225,0.982957,0.005391,0.453115,0.000966,0.001004,0.000023,0.001015,0.000955,64.496038,0.001971,
2431,2938,3.70550473274658,6.30337458022278,-0.00422476287724294,0.010131,-0.090224,0.010272,0.389988,-4.070609,316.270152,21.027740,0.999585,0.990989,0.003916,0.437568,0.000046,0.000022,0.000035,0.000071,-0.000002,35.498968,0.000081,
2056,2578,-4.38857741279817,-1.5465249227922,-0.0258660534528303,0.006612,-0.087290,-0.004228,0.287932,-3.989313,322.607306,20.373629,0.998762,0.987815,0.004552,0.475383,0.000223,0.000066,0.000032,0.000229,0.000059,10.991240,0.000305,
2386,2683,2.7728729041172,0.751795890652907,-0.0305525106212485,0.008646,-0.090039,0.002580,0.351224,-4.083695,320.117394,20.233093,0.999186,0.987214,0.004408,0.386014,0.000155,0.000111,0.000008,0.000156,0.000110,9.600414,0.000267,
2311,2338,1.20273647435599,-6.78701063958518,-0.0168623354821875,0.005928,-0.091933,-0.009201,0.267841,-4.216604,325.743320,19.323034,0.998817,0.984063,0.005036,0.420249,0.000564,0.000519,-0.000006,0.000565,0.000518,-7.826076,0.001083,
2506,2083,5.52036283620518,-12.3873870303564,0.00916964964159206,0.010700,-0.096463,-0.028658,0.557517,-4.490046,330.624698,17.103827,0.998886,0.984885,0.005188,0.549014,0.001514,0.001395,-0.000283,0.001744,0.001165,-39.094978,0.002928,
2341,2488,1.83024883951319,-3.5074849720007,-0.0127793077345473,0.007121,-0.090127,-0.007031,0.315776,-4.110699,323.384907,19.610357,0.999121,0.987228,0.004497,0.508932,0.000340,0.000228,0.000005,0.000340,0.000227,2.736763,0.000571,
2356,2563,2.1420674400612,-1.86858246211482,-0.0174673908073828,0.007007,-0.090435,-0.001565,0.291155,-4.110218,322.104483,19.853340,0.999076,0.988962,0.004516,0.432593,0.000246,0.000163,0.000020,0.000251,0.000158,12.874137,0.000413,
2011,2428,-5.34610974264478,-4.81904437882196,-0.0194334696863052,0.003715,-0.086935,-0.012947,0.179036,-4.006689,325.246066,20.540173,0.998777,0.986449,0.004742,0.458842,0.000479,0.000159,0.000063,0.000491,0.000147,10.789414,0.000668,
2416,2893,3.38785766842869,5.32471574458317,-0.0118631438478474,0.010089,-0.089539,0.003875,0.412423,-4.065375,316.942244,20.891257,0.999414,0.990091,0.003973,0.404753,0.000055,0.000049,0.000038,0.000090,0.000014,42.789159,0.000113,
2131,2818,-2.79513139492632,3.67927547749574,-0.013834171894473,0.008658,-0.087605,0.001940,0.362531,-3.986120,318.521966,20.383720,0.999357,0.990286,0.004013,0.465188,0.000088,0.000054,-0.000006,0.000089,0.000053,-9.409073,0.000143,
2326,2413,1.51641913885035,-5.14746226747399,-0.0187243073850709,0.006222,-0.090390,-0.013303,0.295993,-4.211504,324.535251,19.395206,0.999225,0.987463,0.004781,0.477911,0.000441,0.000381,-0.000008,0.000443,0.000380,-7.587290,0.000823,
2371,2638,2.45507157937569,-0.231116802181205,-0.0236258116576664,0.008169,-0.090051,0.000485,0.337197,-4.064842,320.884799,20.031347,0.998997,0.987295,0.004527,0.486590,0.000190,0.000108,0.000007,0.000190,0.000107,4.513023,0.000301,
2026,2458,-5.02499085912895,-4.16300267899247,-0.0355313468741087,0.004385,-0.087303,-0.008749,0.198327,-4.014443,324.552663,20.456633,0.999283,0.989447,0.004234,0.476705,0.000428,0.000120,0.000058,0.000438,0.000109,10.354292,0.000580,
2236,2023,-0.378280561541533,-13.6975764733847,0.00234734652570978,0.001966,-0.096828,-0.035299,0.168904,-4.580713,330.986858,18.765640,0.997918,0.980636,0.006112,0.390183,0.001305,0.001429,0.000036,0.001439,0.001295,74.968407,0.002735,
2086,2623,-3.74423357493027,-0.564947417060651,-0.0330996074571317,0.006602,-0.087428,-0.002975,0.283427,-3.979804,321.654102,20.295376,0.999056,0.987145,0.004529,0.522936,0.000211,0.000063,0.000024,0.000215,0.000060,8.877037,0.000289,
2461,3193,4.31232695464628,11.8421296773987,0.0404423345403302,0.011963,-0.089909,0.012354,0.465530,-4.068522,312.598968,21.985348,0.999514,0.990628,0.003819,0.457589,0.000046,0.000024,0.000045,0.000081,-0.000011,38.078302,0.000087,
2116,2743,-3.11107618930668,2.04951442698986,-0.0309749176647642,0.007570,-0.088091,0.004992,0.303700,-3.990374,319.603007,20.423602,0.999316,0.989644,0.004139,0.388476,0.000120,0.000040,-0.000009,0.000121,0.000039,-6.019195,0.000167,
2041,2503,-4.70462592151694,-3.18209199629316,-0.0198672681106018,0.004820,-0.087118,-0.003271,0.203107,-3.971806,323.871003,20.426858,0.999197,0.989490,0.004314,0.492138,0.000347,0.000112,0.000037,0.000352,0.000106,8.724933,0.000480,
2446,3058,4.01035366540841,8.91155360120928,0.0180383705022109,0.010850,-0.090151,0.011572,0.417684,-4.083917,314.546786,21.521768,0.999499,0.989764,0.003992,0.374783,0.000046,0.000026,0.000049,0.000086,-0.000013,39.286290,0.000093,
2296,2278,0.88665805028749,-8.10124077236582,-0.0103522177064406,0.005232,-0.092722,-0.013451,0.249949,-4.247203,326.761553,19.211954,0.999154,0.985950,0.004902,0.428019,0.000682,0.000678,-0.000008,0.000688,0.000672,-37.332183,0.001360,
2071,2563,-4.06142607424069,-1.87243998142426,-0.0275175876837466,0.005774,-0.087662,-0.001022,0.239909,-3.985309,322.705764,20.390420,0.998839,0.988196,0.004588,0.445234,0.000244,0.000084,0.000030,0.000250,0.000078,10.368336,0.000343,
2476,3283,4.62007394178395,13.7968124320842,0.0297293494535324,0.012813,-0.090126,0.013032,0.501312,-4.096717,311.099273,22.423312,0.999844,0.995694,0.002864,0.393519,0.000061,0.000002,0.000034,0.000077,-0.000014,24.412052,0.000082,
2191,3148,-1.5429441870603,10.8449088908605,0.0414663075172257,0.011399,-0.088504,0.014304,0.448262,-3.993372,313.470087,20.793769,0.999143,0.991561,0.003944,0.413691,0.000013,0.000027,-0.000007,0.000030,0.000010,-67.842022,0.000042,
2251,2083,-0.0625784523674433,-12.3773602435689,-0.0103565440533657,0.002493,-0.096636,-0.022130,0.151014,-4.507142,329.868588,18.931959,0.998720,0.980788,0.005703,0.303212,0.001187,0.001291,0.000024,0.001296,0.001181,77.466805,0.002478,
2281,2233,0.567532992892136,-9.08660366701505,-0.00864094904267176,0.004605,-0.092835,-0.019594,0.241563,-4.281554,327.509881,19.209099,0.998625,0.979334,0.005667,0.370629,0.000789,0.000826,0.000004,0.000826,0.000789,84.032899,0.001615,
2401,2788,3.07981147562389,3.03916316769847,-0.0214758620835482,0.008835,-0.089911,0.005178,0.350286,-4.067453,318.495540,20.531200,0.999493,0.987527,0.004368,0.419122,0.000093,0.000060,0.000021,0.000104,0.000049,26.108461,0.000156,
2101,2713,-3.43102423359564,1.39508441994712,-0.0250602881090458,0.007965,-0.087587,0.001012,0.334197,-3.979884,320.239491,20.360150,0.999191,0.989057,0.004202,0.455028,0.000133,0.000034,-0.000001,0.000133,0.000034,-0.843178,0.000177,
2476,3298,4.6156803884132,14.1227126545508,0.0168625370412769,0.012511,-0.090080,0.012773,0.488494,-4.089126,310.731371,22.458578,0.999633,0.993058,0.003501,0.421076,0.000052,-0.000006,0.000039,0.000071,-0.000026,26.667900,0.000072,
2236,2038,-0.381567598669182,-13.3680515900868,0.000259033094039296,0.001859,-0.097151,-0.029111,0.143905,-4.547130,330.703344,18.763720,0.997906,0.978497,0.006124,0.450843,0.001280,0.001395,0.000031,0.001403,0.001272,75.902047,0.002676,
2056,2593,-4.39122084852358,-1.2175859154063,-0.0346396603692938,0.006900,-0.087194,-0.002963,0.297700,-3.957989,322.300310,20.456247,0.998527,0.986290,0.004680,0.419565,0.000217,0.000077,0.000040,0.000228,0.000066,15.001490,0.000309,
2161,2998,-2.17131814273979,7.59050961901099,0.00960726365758546,0.010035,-0.087843,0.007985,0.406659,-3.974616,315.713059,20.572209,0.999499,0.992754,0.003707,0.434630,0.000041,0.000019,-0.000014,0.000048,0.000012,-25.858194,0.000064,
2176,3058,-1.85393370490845,8.89139516730738,0.0313336204452526,0.010856,-0.088422,0.011248,0.433451,-4.011118,314.890394,20.614042,0.999685,0.995197,0.003185,0.444076,0.000032,0.000011,-0.000015,0.000039,0.000003,-27.686785,0.000048,
2491,1993,5.21116596783274,-14.3666008310844,0.00295976852567037,0.011365,-0.100591,-0.031559,0.596386,-4.727557,332.020216,16.785507,0.997730,0.963487,0.007820,0.348952,0.001982,0.001397,-0.000269,0.002087,0.001293,-21.307978,0.003411,
2266,2188,0.247906988865036,-10.073490675285,-0.0067695180772489,0.004027,-0.093880,-0.019984,0.215639,-4.364813,328.246329,19.166736,0.998858,0.982986,0.005380,0.316663,0.000926,0.000964,0.000018,0.000971,0.000919,68.278088,0.001890,
2461,3208,4.30947480525381,12.1679930768428,0.0385399820262933,0.012114,-0.089576,0.010249,0.480564,-4.065319,312.351597,22.056237,0.999383,0.988584,0.004173,0.443051,0.000048,0.000019,0.000036,0.000072,-0.000005,34.118638,0.000080,
2041,2518,-4.70649145381874,-2.85497475525099,-0.0221736027023667,0.005317,-0.087205,-0.004046,0.228074,-3.975357,323.634488,20.407946,0.998940,0.989546,0.004426,0.501077,0.000313,0.000090,0.000045,0.000321,0.000081,11.047710,0.000426,
2011,2443,-5.34769281212909,-4.49098159699248,-0.0163482895752054,0.004309,-0.087168,-0.010401,0.199414,-3.994523,325.049695,20.616676,0.999222,0.989665,0.004201,0.383707,0.000456,0.000114,0.000067,0.000469,0.000101,10.629290,0.000608,
2146,2923,-2.48480988800044,5.96090138251932,4.91949965635285E-05,0.009747,-0.087816,0.001671,0.413076,-3.997922,316.919265,20.457653,0.999119,0.986273,0.004521,0.447700,0.000054,0.000021,-0.000008,0.000056,0.000019,-12.994569,0.000078,
2206,3208,-1.22730290980802,12.1459723951635,0.0455203691295765,0.011785,-0.088511,0.013614,0.467465,-4.000716,312.496882,20.858626,0.999599,0.993731,0.003414,0.467761,0.000015,0.000038,0.000000,0.000038,0.000015,-89.755850,0.000054,
2506,2098,5.5156537483548,-12.0534157561753,-0.00126408058503102,0.010256,-0.096080,-0.026121,0.527671,-4.475532,330.263311,17.460409,0.999196,0.986296,0.005051,0.271938,0.001446,0.001383,-0.000272,0.001688,0.001141,-41.713311,0.002847,
2131,2833,-2.79754740441444,4.00568795573481,-0.0156113875578399,0.008906,-0.088017,0.003191,0.370073,-4.005060,318.270842,20.420938,0.999529,0.991906,0.003705,0.414492,0.000078,0.000050,-0.000005,0.000079,0.000049,-9.082635,0.000129,
2191,3163,-1.5462938919617,11.1711188714914,0.0287507825416355,0.011351,-0.088463,0.011900,0.453542,-4.022464,313.123421,20.847623,0.999631,0.994783,0.003218,0.344165,0.000013,0.000034,-0.000006,0.000036,0.000011,-76.235802,0.000049,
2431,2953,3.70196518201947,6.63036452954098,-0.0134230743356056,0.010030,-0.089789,0.006833,0.398295,-4.069044,315.955888,21.085207,0.999629,0.992477,0.003734,0.431270,0.000045,0.000010,0.000039,0.000071,-0.000015,32.959993,0.000074,
2341,2503,1.82666406747049,-3.17941661601102,-0.018437239857974,0.006961,-0.090387,-0.004687,0.300173,-4.131022,323.078850,19.664779,0.998986,0.986652,0.004619,0.472353,0.000313,0.000223,0.000006,0.000313,0.000222,4.041218,0.000538,
2101,2728,-3.43436494497081,1.72199987176398,-0.0314792423893664,0.007398,-0.087585,0.000413,0.309821,-3.993193,319.918356,20.368888,0.999263,0.988389,0.004261,0.434463,0.000126,0.000027,-0.000001,0.000126,0.000027,-0.553023,0.000163,
2386,2698,2.77023032314292,1.07770085332378,-0.0246466937967398,0.008344,-0.089893,0.001508,0.341298,-4.081955,319.913194,20.229988,0.999287,0.989327,0.004110,0.434475,0.000145,0.000116,0.000010,0.000148,0.000112,17.800747,0.000261,
2086,2638,-3.74581422992361,-0.237959238849733,-0.0272190055305828,0.007217,-0.087600,0.000180,0.302509,-3.987223,321.479049,20.378805,0.999049,0.987760,0.004395,0.431671,0.000199,0.000052,0.000021,0.000202,0.000049,8.113904,0.000266,
2311,2353,1.20004432726829,-6.45791700536283,-0.0190760450832386,0.005929,-0.091215,-0.012235,0.278518,-4.201073,325.492483,19.415301,0.999070,0.985466,0.004771,0.377494,0.000538,0.000479,-0.000003,0.000539,0.000479,-3.239113,0.001018,
2356,2578,2.14014502238379,-1.54184902827176,-0.0154349927546491,0.007699,-0.090501,-0.002421,0.325952,-4.114313,321.913038,19.862767,0.999024,0.987179,0.004632,0.458595,0.000235,0.000157,0.000021,0.000240,0.000152,13.908359,0.000396,
2056,2608,-4.39351290979696,-0.892735806075173,-0.0265227717163725,0.006484,-0.087586,-0.001755,0.274959,-3.994399,322.103720,20.383011,0.998826,0.988056,0.004446,0.451567,0.000212,0.000072,0.000039,0.000222,0.000062,14.567937,0.000298,
2281,2248,0.564623896443457,-8.75896915510683,-0.00727726792064232,0.004433,-0.092665,-0.017492,0.226728,-4.271310,327.264799,19.171997,0.998824,0.980636,0.005529,0.448243,0.000756,0.000753,0.000003,0.000758,0.000751,33.591070,0.001509,
2371,2653,2.45208042048122,0.0970984464329945,-0.0288412088654582,0.008445,-0.089269,0.000390,0.350518,-4.051634,320.610106,20.122148,0.999087,0.987042,0.004623,0.450965,0.000174,0.000101,0.000007,0.000174,0.000100,5.594336,0.000278,
2326,2428,1.51245544738554,-4.81686336730357,-0.0274313265250044,0.006263,-0.090820,-0.006051,0.272845,-4.141338,324.195031,19.535875,0.999336,0.989552,0.004434,0.443925,0.000420,0.000336,-0.000008,0.000421,0.000336,-5.381622,0.000758,
2026,2473,-5.02735137566774,-3.83567329585495,-0.0310303366471203,0.004252,-0.087628,-0.004426,0.180241,-3.993053,324.329929,20.480958,0.998699,0.984306,0.005004,0.465355,0.000406,0.000114,0.000061,0.000418,0.000102,11.311904,0.000551,
2416,2908,3.38461825769465,5.65027186679872,-0.0125485932621814,0.009958,-0.089936,0.005226,0.401302,-4.087107,316.680890,20.887139,0.999545,0.990657,0.003845,0.434430,0.000047,0.000033,0.000039,0.000080,0.000000,39.783192,0.000092,
2446,3073,4.0070239169536,9.23702891190528,0.0141211286546081,0.010914,-0.090205,0.012536,0.417027,-4.080352,314.267788,21.508464,0.999655,0.992890,0.003527,0.443154,0.000042,0.000030,0.000047,0.000083,-0.000012,41.407654,0.000090,
2401,2803,3.07718291937943,3.36474519402726,-0.0191001082053504,0.009029,-0.090354,0.006340,0.354815,-4.084835,318.276012,20.518389,0.999487,0.989509,0.004214,0.459879,0.000090,0.000058,0.000022,0.000101,0.000047,27.035125,0.000151,
2251,2098,-0.064927118081183,-12.0486240394106,-0.00480979710272322,0.002431,-0.096084,-0.021251,0.145499,-4.461923,329.667723,18.953757,0.999008,0.979585,0.005820,0.352866,0.001151,0.001254,0.000018,0.001257,0.001148,80.364452,0.002407,
2491,2008,5.20663156669693,-14.0363769513768,0.00302768509624229,0.009916,-0.099887,-0.031675,0.530946,-4.688919,331.712865,16.858400,0.998316,0.969545,0.007045,0.377872,0.001878,0.001412,-0.000283,0.002011,0.001278,-25.267758,0.003316,
2461,3223,4.30632780614188,12.4939945987863,0.030541839423222,0.012307,-0.089434,0.006123,0.505100,-4.070355,312.062516,22.117205,0.999458,0.990962,0.003821,0.430448,0.000049,0.000003,0.000032,0.000066,-0.000013,27.183364,0.000069,
2071,2578,-4.06347890926065,-1.54570135352319,-0.0319548838297123,0.006270,-0.088030,-0.001947,0.265278,-4.000344,322.451736,20.350596,0.998696,0.987799,0.004684,0.467726,0.000222,0.000077,0.000032,0.000228,0.000070,11.747440,0.000312,
2011,2458,-5.34930170197064,-4.16467819401585,-0.0127919415027691,0.004715,-0.086750,-0.009959,0.216972,-3.991539,324.855307,20.550342,0.999238,0.989741,0.004178,0.442356,0.000430,0.000099,0.000068,0.000443,0.000086,11.128755,0.000568,
2296,2293,0.884314444267225,-7.77135310499756,-0.0125347924945345,0.005557,-0.091469,-0.016391,0.275250,-4.215056,326.525501,19.338666,0.999136,0.985954,0.004848,0.365637,0.000647,0.000638,-0.000002,0.000647,0.000638,-10.860808,0.001285,
2041,2533,-4.70834428341672,-2.52688474797797,-0.0281488496942757,0.005787,-0.086772,-0.009213,0.264192,-3.983777,323.378010,20.455189,0.998656,0.989042,0.004399,0.438901,0.000284,0.000083,0.000048,0.000295,0.000072,12.741505,0.000389,
2116,2758,-3.11164346955551,2.37415147374487,-0.0165636039687342,0.008314,-0.087825,0.002186,0.346347,-3.980527,319.522867,20.375164,0.999440,0.990343,0.003933,0.449982,0.000109,0.000048,-0.000012,0.000111,0.000046,-10.328760,0.000162,
2206,3223,-1.23105699422961,12.4726992511911,0.0360771311309236,0.011441,-0.088547,0.015476,0.445592,-4.013662,312.149742,20.981808,0.999808,0.995390,0.003030,0.346715,0.000017,0.000041,-0.000001,0.000041,0.000017,-86.830826,0.000059,
2236,2053,-0.384222603815903,-13.0362713869143,-0.00613742866971734,0.002125,-0.096005,-0.031042,0.162735,-4.513141,330.426563,18.924411,0.998236,0.977281,0.005990,0.348769,0.001246,0.001369,0.000032,0.001376,0.001238,76.290404,0.002615,
2506,2113,5.51211196155349,-11.7257432447139,0.000335830464564424,0.009817,-0.096109,-0.024622,0.501873,-4.469885,330.009281,17.388919,0.999266,0.985309,0.005212,0.413413,0.001381,0.001332,-0.000272,0.001630,0.001083,-42.391444,0.002731,
2491,2023,5.20380699934705,-13.7063586647709,0.0114774799146744,0.009481,-0.098948,-0.031694,0.511604,-4.649357,331.521343,17.011887,0.998627,0.970516,0.006711,0.326423,0.001791,0.001428,-0.000289,0.001950,0.001269,-28.926022,0.003243,
2266,2203,0.245183732208726,-9.7445978882723,-0.0145009670224567,0.004367,-0.093424,-0.022097,0.238350,-4.343734,327.962861,19.122471,0.998424,0.981116,0.005635,0.410518,0.000889,0.000919,0.000009,0.000922,0.000887,75.032523,0.001808,
2446,3088,4.00548670678577,9.56326333436672,0.0223654008424887,0.011418,-0.089734,0.009055,0.453446,-4.060944,314.127241,21.631184,0.999648,0.992963,0.003574,0.391123,0.000044,0.000024,0.000047,0.000082,-0.000014,39.057352,0.000087,
2176,3073,-1.85648620717552,9.21595553635534,0.0313811633014325,0.010768,-0.088207,0.009911,0.433635,-4.011505,314.646539,20.540916,0.999661,0.995209,0.003114,0.528316,0.000032,0.000007,-0.000012,0.000037,0.000002,-22.515431,0.000044,
2461,3238,4.30339595585376,12.8194430697241,0.0343099208221815,0.012344,-0.089742,0.009260,0.494880,-4.074470,311.837467,22.197891,0.999716,0.993416,0.003351,0.398500,0.000050,0.000001,0.000032,0.000066,-0.000014,26.184215,0.000069,
2026,2488,-5.02830963700392,-3.51005706857445,-0.0240461401449465,0.004988,-0.087402,-0.006362,0.219474,-3.999999,324.185719,20.403522,0.999138,0.985965,0.004628,0.526847,0.000382,0.000112,0.000060,0.000394,0.000100,11.933944,0.000522,
2341,2518,1.82416718265494,-2.85084552926494,-0.0177019725192054,0.007153,-0.089880,-0.005619,0.312479,-4.101561,322.853348,19.778801,0.998839,0.983873,0.004825,0.425436,0.000296,0.000213,0.000012,0.000297,0.000212,7.973980,0.000512,
2146,2938,-2.48717735005682,6.28769097193986,0.000763893960424866,0.009888,-0.087485,0.002478,0.417247,-3.980646,316.684554,20.541335,0.999395,0.989275,0.004089,0.388805,0.000051,0.000024,-0.000008,0.000053,0.000022,-15.379705,0.000077,
2431,2968,3.69892525925298,6.95578609806427,-0.0112291159227311,0.009802,-0.089869,0.007072,0.386859,-4.085112,315.717977,21.100363,0.999726,0.995012,0.003277,0.449463,0.000040,0.000014,0.000047,0.000076,-0.000021,37.093484,0.000078,
2161,3013,-2.17361421391843,7.91603267977712,0.00788763958860272,0.010273,-0.087779,0.006294,0.422822,-3.976714,315.470258,20.562530,0.999284,0.990309,0.004104,0.451814,0.000041,0.000016,-0.000016,0.000049,0.000008,-26.421319,0.000062,
2056,2623,-4.39522542097693,-0.565902168207913,-0.0262593869182979,0.006877,-0.087220,-0.004787,0.301738,-3.979530,321.889734,20.376805,0.999105,0.989719,0.004172,0.467919,0.000202,0.000049,0.000035,0.000209,0.000041,12.170597,0.000269,
2401,2818,3.07489646033673,3.69143197357598,-0.0144953944909503,0.009264,-0.090044,0.005898,0.367377,-4.069036,318.082329,20.595067,0.999339,0.988633,0.004464,0.444650,0.000079,0.000055,0.000021,0.000091,0.000043,30.673054,0.000137,
2131,2848,-2.8005837703353,4.3324841107757,-0.0252646226517186,0.008876,-0.088157,0.001779,0.372967,-3.997878,317.949009,20.413069,0.999606,0.992177,0.003615,0.435047,0.000069,0.000046,-0.000007,0.000071,0.000044,-15.387666,0.000116,
2071,2593,-4.06541314553023,-1.21886497169844,-0.0294371953405062,0.006650,-0.088041,0.000272,0.276387,-3.998511,322.241105,20.368577,0.998795,0.987417,0.004570,0.449137,0.000216,0.000083,0.000039,0.000227,0.000072,15.032291,0.000312,
2416,2923,3.38220785974994,5.97684976603873,-0.00628557448607125,0.010165,-0.089928,0.007332,0.403127,-4.078152,316.489845,21.000331,0.999652,0.991598,0.003705,0.377535,0.000047,0.000029,0.000034,0.000074,0.000003,37.805532,0.000087,
2311,2368,1.19730604400405,-6.13048594241796,-0.0196278543942867,0.006080,-0.091182,-0.010878,0.280862,-4.178744,325.247895,19.370247,0.999411,0.988319,0.004402,0.479083,0.000513,0.000448,-0.000008,0.000514,0.000447,-7.018761,0.000962,
2086,2653,-3.74733132676129,0.0878043731663993,-0.0189586551136927,0.007786,-0.088039,0.004033,0.317456,-3.985739,321.320184,20.364928,0.999347,0.989251,0.004056,0.446290,0.000182,0.000054,0.000019,0.000185,0.000051,8.427852,0.000248,
2101,2743,-3.43612129367515,2.04809933941704,-0.0226088595131273,0.007764,-0.087898,0.004874,0.313565,-3.968251,319.752627,20.391830,0.999326,0.989046,0.004161,0.437692,0.000120,0.000034,-0.000001,0.000120,0.000034,-0.443957,0.000161,
2491,2038,5.20097203802345,-13.3777645485405,0.0164570200358867,0.009733,-0.098880,-0.026749,0.504334,-4.627096,331.313887,17.018033,0.998393,0.971011,0.006901,0.404914,0.001699,0.001407,-0.000275,0.001864,0.001242,-30.996562,0.003126,
2041,2548,-4.71146108987299,-2.2003544707414,-0.0290651010871557,0.005477,-0.087710,-0.001350,0.227765,-3.997575,323.092169,20.415814,0.999145,0.989856,0.004110,0.458334,0.000270,0.000080,0.000050,0.000282,0.000068,13.773890,0.000371,
2281,2263,0.560439567105981,-8.42673451258096,-0.0197233887818697,0.004127,-0.092075,-0.013981,0.201251,-4.236809,326.891770,19.395177,0.999244,0.985890,0.004968,0.290343,0.000713,0.000703,0.000000,0.000713,0.000703,0.049562,0.001416,
2011,2473,-5.35240864904492,-3.83696499175539,-0.0156335155705847,0.004238,-0.087115,-0.005724,0.183455,-3.982889,324.556242,20.552890,0.998882,0.986562,0.004656,0.437898,0.000407,0.000089,0.000073,0.000423,0.000073,12.328738,0.000536,
2356,2593,2.13735545443116,-1.21403303864214,-0.0214528970436163,0.008104,-0.090779,-0.003896,0.349672,-4.122694,321.642785,19.910429,0.999075,0.986945,0.004615,0.442345,0.000226,0.000131,0.000021,0.000230,0.000127,11.954079,0.000362,
2386,2713,2.76821137302983,1.40369963623742,-0.0192070614549493,0.008665,-0.089892,-0.000072,0.361719,-4.088249,319.735391,20.243345,0.999485,0.991033,0.003782,0.458056,0.000129,0.000109,0.000014,0.000136,0.000102,27.203777,0.000239,
2506,2128,5.50794898396309,-11.3970061089831,-0.000526336017003359,0.009245,-0.096922,-0.020008,0.457658,-4.465599,329.715670,17.394567,0.999252,0.983272,0.005464,0.476697,0.001327,0.001283,-0.000259,0.001565,0.001045,-42.539882,0.002627,
2371,2668,2.44911235808693,0.423299047456474,-0.0267748749814132,0.008150,-0.089758,-0.000038,0.338281,-4.086543,320.371781,20.142163,0.999247,0.988339,0.004498,0.437287,0.000159,0.000098,0.000006,0.000160,0.000098,5.781949,0.000260,
2251,2113,-0.0674339708232274,-11.7195220398157,-0.00496128370031101,0.002434,-0.095534,-0.022997,0.151526,-4.440397,329.430972,18.975087,0.998333,0.979443,0.005938,0.379626,0.001114,0.001215,0.000018,0.001218,0.001111,80.248366,0.002330,
2191,3178,-1.54817186389646,11.4955262104859,0.0390342956340533,0.011646,-0.088302,0.016040,0.454261,-3.995917,312.964974,20.822308,0.999819,0.996295,0.002939,0.409214,0.000010,0.000040,-0.000002,0.000040,0.000010,-85.903436,0.000054,
2446,3103,4.00270962552907,9.88753834202908,0.0280129155650002,0.011233,-0.089933,0.009821,0.441993,-4.083285,313.918134,21.601609,0.999666,0.992933,0.003607,0.449589,0.000044,0.000019,0.000047,0.000080,-0.000017,37.457000,0.000084,
2206,3238,-1.232848885764,12.7966601155156,0.0406194651898204,0.011768,-0.088290,0.012764,0.469424,-4.008193,311.966330,20.915822,0.999746,0.994560,0.003130,0.433677,0.000019,0.000034,0.000000,0.000034,0.000019,88.575714,0.000053,
2461,3253,4.29956866146431,13.1447739517657,0.0306845546977002,0.012215,-0.089942,0.013886,0.471492,-4.069440,311.537140,22.220505,0.999739,0.993615,0.003199,0.434050,0.000054,0.000016,0.000034,0.000075,-0.000004,30.551215,0.000084,
2116,2773,-3.11419173824298,2.70040514538672,-0.0176789872434711,0.008348,-0.087887,0.003404,0.344309,-3.973538,319.268051,20.358931,0.999631,0.991910,0.003613,0.476877,0.000100,0.000054,-0.000011,0.000102,0.000052,-12.688470,0.000157,
2326,2443,1.51049715681061,-4.48981816206965,-0.0212139723815312,0.006495,-0.090370,-0.007605,0.289010,-4.131890,324.020361,19.557658,0.999027,0.987642,0.004765,0.467233,0.000406,0.000294,-0.000001,0.000406,0.000294,-0.290458,0.000703,
2026,2503,-5.03152682050949,-3.18009408199811,-0.0313879689192618,0.004731,-0.087139,-0.001881,0.195464,-3.945066,323.857091,20.536174,0.999536,0.992192,0.003842,0.440576,0.000356,0.000093,0.000049,0.000364,0.000084,10.171166,0.000477,
2491,2053,5.19581778140317,-13.0443061782235,-0.00895902584886699,0.009665,-0.098760,-0.028830,0.509312,-4.648761,330.863831,17.176784,0.998493,0.976749,0.006266,0.287828,0.001622,0.001408,-0.000271,0.001806,0.001224,-34.228119,0.003048,
2296,2308,0.880755030556031,-7.4446331989778,-0.0151726350047738,0.005183,-0.092264,-0.012646,0.245195,-4.239089,326.232207,19.233014,0.999154,0.984845,0.005065,0.479637,0.000611,0.000588,0.000002,0.000612,0.000587,5.939637,0.001199,
2266,2218,0.242114462643475,-9.41628053797653,-0.00775589639516738,0.003663,-0.093272,-0.019413,0.197317,-4.321869,327.736080,19.182165,0.998468,0.978919,0.005773,0.400665,0.000845,0.000870,0.000007,0.000872,0.000843,74.938917,0.001715,
2431,2983,3.6974394754124,7.2805468910409,0.00324733439907732,0.010246,-0.089983,0.008706,0.401222,-4.080361,315.608848,21.121858,0.999616,0.991112,0.003766,0.481972,0.000038,0.000018,0.000044,0.000073,-0.000017,38.495033,0.000077,
2236,2068,-0.386465152747366,-12.7079581966269,0.00226056558460641,0.002103,-0.096072,-0.027869,0.151492,-4.507737,330.244218,18.968390,0.998357,0.979176,0.005873,0.334640,0.001212,0.001314,0.000036,0.001325,0.001201,72.608551,0.002527,
2341,2533,1.82138015055171,-2.52407041822741,-0.0160704943845076,0.007318,-0.090481,-0.002142,0.307717,-4.121764,322.619340,19.790619,0.998906,0.985327,0.004777,0.431130,0.000276,0.000188,0.000007,0.000277,0.000187,4.577023,0.000467,
2506,2143,5.50451800477626,-11.0652792062822,-0.00278224660070236,0.008909,-0.095052,-0.022735,0.453636,-4.414249,329.448894,17.616582,0.998586,0.975774,0.006241,0.370417,0.001256,0.001226,-0.000227,0.001469,0.001013,-43.151985,0.002496,
2011,2488,-5.35463380469246,-3.50955032223757,-0.0203859182557267,0.004720,-0.087204,-0.002082,0.195740,-3.965082,324.286839,20.506637,0.999050,0.986722,0.004623,0.491365,0.000385,0.000090,0.000074,0.000403,0.000073,13.317503,0.000512,
2056,2638,-4.39789175656561,-0.238652350765911,-0.0284706854997125,0.006793,-0.087219,-0.002633,0.291780,-3.972946,321.618382,20.400815,0.999021,0.988993,0.004328,0.445952,0.000189,0.000039,0.000031,0.000196,0.000033,11.174510,0.000247,
2041,2563,-4.71258307349676,-1.87360309655998,-0.0272426233088936,0.006238,-0.087304,-0.005938,0.275701,-3.989033,322.912630,20.403104,0.999262,0.989940,0.004033,0.472459,0.000253,0.000055,0.000037,0.000260,0.000049,10.393939,0.000331,
2461,3268,4.29482659498345,13.4711077758987,0.0115916305746282,0.012200,-0.090069,0.015503,0.464659,-4.083029,311.123139,22.273099,0.999797,0.994037,0.003015,0.420498,0.000055,0.000013,0.000027,0.000068,0.000000,26.091618,0.000079,
2086,2668,-3.74966831135286,0.414360474717846,-0.0225671745446334,0.007854,-0.087702,0.001051,0.329316,-3.981461,321.059018,20.325652,0.999282,0.989625,0.004066,0.489615,0.000166,0.000046,0.000019,0.000169,0.000043,8.886026,0.000224,
2401,2833,3.07164129034867,4.01873887733673,-0.0191526306684864,0.009321,-0.089800,0.006133,0.369292,-4.054039,317.800201,20.663367,0.999180,0.987713,0.004450,0.436666,0.000074,0.000054,0.000024,0.000090,0.000039,33.737591,0.000132,
2281,2278,0.558575737984405,-8.10021298036192,-0.01760420131518,0.004646,-0.091798,-0.015890,0.231512,-4.238679,326.698460,19.286905,0.999462,0.987268,0.004768,0.426728,0.000684,0.000674,0.000005,0.000686,0.000671,23.199472,0.001358,
2101,2758,-3.43704190114009,2.3734218837334,-0.0181360613603943,0.008731,-0.087661,0.001329,0.368496,-3.988350,319.601776,20.356664,0.999440,0.988953,0.004050,0.454222,0.000108,0.000042,-0.000005,0.000109,0.000042,-4.183528,0.000155,
2416,2938,3.37918422023967,6.30218343674102,0.000249132142982944,0.009909,-0.090084,0.011663,0.375527,-4.056534,316.272112,20.991723,0.999578,0.991120,0.003892,0.454817,0.000046,0.000024,0.000034,0.000070,-0.000001,35.879135,0.000080,
2176,3088,-1.85946116683889,9.54300419237538,0.0294006122902033,0.010844,-0.088572,0.015037,0.421143,-4.003162,314.371742,20.679280,0.999488,0.993018,0.003486,0.409544,0.000029,0.000004,-0.000017,0.000038,-0.000004,-26.412129,0.000041,
2131,2863,-2.80232834133119,4.6574273875733,-0.00808755128343819,0.008848,-0.088106,0.007523,0.354486,-3.970671,317.830300,20.419694,0.999580,0.991475,0.003686,0.460855,0.000065,0.000044,-0.000009,0.000068,0.000041,-20.378314,0.000110,
2356,2608,2.13474321027785,-0.887260478372248,-0.0151633609237933,0.008114,-0.090507,-0.000402,0.337937,-4.098428,321.439961,19.941391,0.998967,0.986209,0.004721,0.475163,0.000212,0.000118,0.000021,0.000216,0.000114,12.012989,0.000335,
2161,3028,-2.17580604838516,8.24091535289575,0.0157878334337056,0.010321,-0.088160,0.009824,0.414094,-3.986350,315.283254,20.569765,0.999209,0.988966,0.004450,0.443990,0.000039,0.000014,-0.000018,0.000049,0.000005,-27.586901,0.000059,
2071,2608,-4.06795547122946,-0.890893551325092,-0.0336588162689395,0.006667,-0.087788,-0.000392,0.279136,-3.999298,321.965479,20.439606,0.999030,0.988658,0.004318,0.375062,0.000208,0.000078,0.000037,0.000218,0.000068,14.902892,0.000299,
2206,3253,-1.23551852575308,13.1213110115676,0.0404053562810986,0.011874,-0.088373,0.014717,0.468077,-4.008107,311.717628,20.895385,0.999776,0.995066,0.002971,0.469504,0.000019,0.000027,0.000004,0.000028,0.000018,68.413053,0.000047,
2371,2683,2.44568625836029,0.751314393646993,-0.0344250068047813,0.008572,-0.090060,0.004833,0.340303,-4.066520,320.065356,20.197978,0.999315,0.988525,0.004250,0.443307,0.000152,0.000107,0.000006,0.000153,0.000107,7.662778,0.000260,
2491,2068,5.1919041892915,-12.7130343576356,-0.014514091122976,0.009425,-0.097556,-0.027581,0.494117,-4.556013,330.559004,17.251528,0.998851,0.978589,0.006063,0.368794,0.001552,0.001416,-0.000260,0.001753,0.001215,-37.697133,0.002984,
2446,3118,4.00007646711443,10.2134375685008,0.0268786229360671,0.011540,-0.089827,0.007984,0.463040,-4.081505,313.683739,21.658520,0.999596,0.991571,0.003728,0.445684,0.000045,0.000024,0.000048,0.000083,-0.000015,38.876205,0.000089,
2461,3283,4.29167418012166,13.7969158334549,0.00491990014012345,0.012417,-0.089654,0.013082,0.483944,-4.077286,310.839569,22.331883,0.999612,0.991426,0.003606,0.420801,0.000059,0.000004,0.000025,0.000068,-0.000005,20.927990,0.000076,
2116,2788,-3.11676226329256,3.02662174505726,-0.0191217658758092,0.008399,-0.087946,0.004882,0.342266,-3.977192,319.010487,20.351954,0.999552,0.991880,0.003657,0.483745,0.000086,0.000056,-0.000010,0.000089,0.000053,-16.563599,0.000144,
2311,2383,1.19504837411941,-5.80291377817998,-0.00781036771275012,0.005816,-0.090753,-0.009202,0.263185,-4.151609,325.085970,19.457822,0.999128,0.986478,0.004846,0.452245,0.000485,0.000431,-0.000011,0.000487,0.000429,-11.078433,0.000916,
2191,3193,-1.55008163470805,11.8197691621669,0.0437876947793825,0.011601,-0.088075,0.010116,0.470813,-4.007168,312.776296,20.789365,0.999718,0.995266,0.003149,0.444617,0.000008,0.000040,-0.000002,0.000041,0.000008,-85.888071,0.000052,
2026,2518,-5.03325386988964,-2.8549451851767,-0.0304213662041093,0.005033,-0.087257,-0.004308,0.215956,-3.972150,323.644466,20.390580,0.999526,0.993608,0.003614,0.550385,0.000323,0.000068,0.000058,0.000335,0.000055,12.153155,0.000423,
2146,2953,-2.48980694055648,6.61303049882383,9.63359746037895E-05,0.010011,-0.087608,0.005626,0.413352,-3.971025,316.430953,20.493803,0.999573,0.991058,0.003726,0.453218,0.000047,0.000022,-0.000010,0.000051,0.000019,-19.712924,0.000072,
2011,2503,-5.35731779245677,-3.18053836865425,-0.0304106951297172,0.004618,-0.087043,-0.005996,0.201711,-3.967214,323.966564,20.584017,0.999496,0.992062,0.003942,0.401351,0.000359,0.000070,0.000063,0.000373,0.000056,11.800562,0.000466,
2251,2128,-0.0698090206082504,-11.3908676028249,-0.00270900317428868,0.002808,-0.095518,-0.018999,0.155653,-4.426148,329.212432,18.994296,0.997387,0.978380,0.006209,0.400887,0.001076,0.001187,0.000018,0.001190,0.001073,80.956200,0.002264,
2506,2158,5.50215263186338,-10.7366228772156,0.00135455321355948,0.009430,-0.094997,-0.021381,0.472326,-4.418106,329.259843,17.687329,0.998857,0.976880,0.005896,0.359462,0.001214,0.001184,-0.000237,0.001436,0.000961,-43.161152,0.002413,
2326,2458,1.5076746597617,-4.16107933056981,-0.0291520037392843,0.006754,-0.089791,-0.011619,0.314946,-4.119929,323.736665,19.604408,0.999153,0.987515,0.004633,0.468476,0.000383,0.000271,0.000002,0.000383,0.000271,1.086305,0.000657,
2431,2998,3.69515723229615,7.60731351347601,0.00751380306695637,0.010604,-0.089812,0.008811,0.417342,-4.075438,315.414935,21.260739,0.999299,0.984521,0.004605,0.397154,0.000037,0.000017,0.000045,0.000074,-0.000019,38.644617,0.000076,
2236,2083,-0.390268551646379,-12.3770845082825,-0.00532366825740382,0.001535,-0.095751,-0.026543,0.121283,-4.477960,329.908972,19.049562,0.998804,0.981452,0.005640,0.308141,0.001176,0.001291,0.000030,0.001299,0.001168,76.162168,0.002468,
2041,2578,-4.71479735908737,-1.54701011766004,-0.0300544889582284,0.006685,-0.087806,-0.002431,0.286296,-4.015632,322.657634,20.375026,0.998870,0.989162,0.004311,0.467333,0.000235,0.000052,0.000037,0.000242,0.000045,11.140121,0.000308,
2056,2653,-4.40014267243957,0.0878526590694335,-0.0356006430855018,0.007308,-0.087509,-0.002388,0.314704,-3.998562,321.339273,20.352216,0.999161,0.989540,0.004267,0.464198,0.000167,0.000043,0.000025,0.000172,0.000038,10.974564,0.000223,
2266,2233,0.239573664076556,-9.08661248287585,-0.0135699567028382,0.004043,-0.092364,-0.021669,0.222488,-4.293135,327.470336,19.232550,0.998623,0.977647,0.005731,0.407204,0.000801,0.000822,0.000003,0.000822,0.000800,82.014849,0.001623,
2341,2548,1.81848591157106,-2.19681351472072,-0.0121178993051672,0.007153,-0.090320,0.000744,0.290215,-4.088308,322.391340,19.818267,0.998549,0.983512,0.005104,0.474368,0.000259,0.000161,0.000012,0.000261,0.000160,7.021548,0.000424,
2416,2953,3.37618054736631,6.62943945828628,-0.00873731274049305,0.010215,-0.089876,0.007146,0.406251,-4.062856,315.982021,21.082473,0.999559,0.991383,0.004013,0.405346,0.000045,0.000011,0.000037,0.000068,-0.000013,32.464287,0.000072,
2296,2323,0.878565104269825,-7.11508720313799,-0.0177067614918087,0.005511,-0.090898,-0.017971,0.278701,-4.205770,326.001418,19.334746,0.998928,0.983179,0.005359,0.443166,0.000583,0.000549,0.000002,0.000583,0.000549,3.476244,0.001132,
2461,3298,4.28930518703892,14.1216194372853,0.00906764103791602,0.012740,-0.089860,0.013266,0.498085,-4.077545,310.642138,22.357547,0.999518,0.992847,0.003557,0.447674,0.000058,-0.000010,0.000029,0.000069,-0.000020,20.530312,0.000070,
2161,3043,-2.17722564155966,8.56558225818427,0.0311311319608194,0.010570,-0.088463,0.012231,0.418090,-3.990001,315.171085,20.603015,0.999477,0.992919,0.003630,0.416162,0.000039,0.000011,-0.000021,0.000050,0.000000,-28.467864,0.000058,
2401,2848,3.06952318486765,4.34409350519448,-0.0142096358397339,0.009598,-0.089838,0.004494,0.387914,-4.078995,317.616149,20.668876,0.999323,0.989561,0.004167,0.451623,0.000067,0.000053,0.000029,0.000090,0.000030,38.125459,0.000125,
2386,2728,2.76541927242153,1.73031734380719,-0.018472778771752,0.008918,-0.090326,0.002556,0.363748,-4.101667,319.499543,20.286650,0.999454,0.990521,0.003977,0.445144,0.000116,0.000098,0.000023,0.000131,0.000082,34.354497,0.000215,
2086,2683,-3.75278992111574,0.741319453196759,-0.0273945781216867,0.007279,-0.087401,-0.000967,0.308772,-3.978907,320.755175,20.320189,0.999413,0.991046,0.003773,0.497247,0.000154,0.000039,0.000017,0.000157,0.000037,8.294922,0.000206,
2491,2083,5.1894089011687,-12.3848995271041,-0.00894280183661067,0.009404,-0.097178,-0.029306,0.499954,-4.565631,330.369719,17.271408,0.998862,0.977422,0.006010,0.401025,0.001488,0.001408,-0.000249,0.001700,0.001196,-40.403011,0.002910,
2281,2293,0.556676281603782,-7.77121024212234,-0.0210570416795122,0.005461,-0.091263,-0.019077,0.279708,-4.239358,326.475371,19.352911,0.999287,0.984758,0.005031,0.389762,0.000649,0.000638,0.000010,0.000655,0.000632,29.980305,0.001287,
2176,3103,-1.86162781424575,9.86796456916415,0.0314678994917017,0.010869,-0.088258,0.011623,0.433012,-4.004733,314.156044,20.664934,0.999543,0.993539,0.003337,0.433745,0.000022,0.000006,-0.000015,0.000032,-0.000003,-31.412289,0.000035,
2101,2773,-3.4400654375005,2.70084370026598,-0.0250818609823114,0.008722,-0.087727,0.003849,0.360713,-3.976709,319.292107,20.397165,0.999512,0.990575,0.003911,0.426774,0.000099,0.000049,-0.000006,0.000100,0.000048,-6.596499,0.000151,
2026,2533,-5.03460362238315,-2.52700561333845,-0.0327779803017165,0.005711,-0.086849,-0.010330,0.263757,-3.999721,323.429847,20.475660,0.999069,0.989547,0.004256,0.429081,0.000297,0.000060,0.000059,0.000311,0.000046,13.280306,0.000389,
2311,2398,1.19437018734226,-5.47813043722643,0.00939297684232088,0.006461,-0.091231,-0.010967,0.298609,-4.187358,325.023599,19.407663,0.999028,0.987737,0.004894,0.499688,0.000459,0.000410,-0.000011,0.000462,0.000408,-11.805986,0.000870,
2506,2173,5.49936427315543,-10.4083498877742,0.00413061845779339,0.009629,-0.095099,-0.020163,0.476739,-4.418455,329.045266,17.709895,0.998451,0.975623,0.006104,0.400127,0.001154,0.001174,-0.000230,0.001394,0.000933,-46.244076,0.002343,
2041,2593,-4.71655368032308,-1.21900861140892,-0.02838679361804,0.006960,-0.087011,-0.004878,0.306079,-3.957369,322.447754,20.435338,0.998639,0.988653,0.004418,0.458608,0.000225,0.000071,0.000047,0.000238,0.000057,15.609667,0.000314,
2011,2518,-5.359047828534,-2.85540043675326,-0.0239210512589239,0.004769,-0.087122,-0.004998,0.205899,-3.974884,323.783536,20.467513,0.999505,0.992695,0.003806,0.499276,0.000329,0.000045,0.000069,0.000345,0.000029,12.983685,0.000416,
2206,3268,-1.23850229728501,13.4473349902038,0.0247523644735566,0.012442,-0.088291,0.012395,0.501691,-4.013615,311.373854,20.925516,0.999496,0.992721,0.003458,0.449394,0.000022,0.000046,0.000006,0.000047,0.000020,76.983900,0.000069,
2476,1993,4.88234721990627,-14.367017482991,0.0124377722814302,0.010154,-0.100624,-0.030398,0.535969,-4.711739,331.996762,16.906126,0.997052,0.968827,0.007159,0.351871,0.001941,0.001423,-0.000218,0.002020,0.001344,-20.053854,0.003387,
2431,3013,3.69213137239433,7.93347528489488,0.00842690171947424,0.010374,-0.089677,0.007542,0.411633,-4.061058,315.171276,21.315545,0.999272,0.985560,0.004458,0.406008,0.000038,0.000021,0.000044,0.000075,-0.000016,39.438808,0.000079,
2371,2698,2.44319540835835,1.07738818661306,-0.0305475603717014,0.008379,-0.089622,0.001458,0.343652,-4.055548,319.857410,20.184588,0.999330,0.989308,0.003991,0.509192,0.000141,0.000112,0.000009,0.000144,0.000109,16.026345,0.000254,
2131,2878,-2.80377313569039,4.98154144339401,-0.000417434462235633,0.009154,-0.088042,0.004312,0.378132,-4.000941,317.674938,20.339329,0.999543,0.990881,0.003756,0.516339,0.000064,0.000050,-0.000010,0.000069,0.000045,-27.673311,0.000115,
2071,2623,-4.06972387519518,-0.56556908778294,-0.032117709623833,0.006904,-0.087699,-0.004048,0.300514,-3.996068,321.757538,20.318468,0.999042,0.988266,0.004365,0.496648,0.000199,0.000057,0.000033,0.000206,0.000050,12.412834,0.000271,
2356,2623,2.1312545364639,-0.55912000925467,-0.0190777727313503,0.007715,-0.089989,-0.001119,0.322367,-4.077083,321.147452,20.017518,0.998918,0.986390,0.004697,0.460136,0.000193,0.000110,0.000010,0.000194,0.000108,6.975592,0.000307,
2236,2098,-0.392187059003557,-12.0481057202782,-0.0032597923677713,0.002059,-0.094831,-0.026545,0.145628,-4.416622,329.708892,19.038521,0.998564,0.979767,0.005892,0.404617,0.001141,0.001258,0.000028,0.001264,0.001135,77.303726,0.002400,
2056,2668,-4.40178138960694,0.413650251585906,-0.020772582548318,0.007230,-0.087436,0.000208,0.303832,-3.976409,321.209199,20.379554,0.999186,0.989047,0.004288,0.453817,0.000145,0.000029,0.000025,0.000150,0.000024,11.434340,0.000189,
2251,2143,-0.0720910081220545,-11.0607031987102,-0.0042678776816274,0.003191,-0.094478,-0.020087,0.177102,-4.377372,328.978538,19.080811,0.998025,0.980357,0.005800,0.389713,0.001037,0.001113,0.000020,0.001118,0.001032,76.232304,0.002151,
2116,2803,-3.11861992502633,3.35264315232784,-0.0121080282927437,0.008364,-0.087685,0.002423,0.347976,-3.982535,318.831115,20.398375,0.999542,0.992356,0.003549,0.435091,0.000085,0.000051,-0.000009,0.000087,0.000049,-14.631785,0.000138,
2491,2098,5.18763332607575,-12.0574021637964,0.0156684519683381,0.009027,-0.097080,-0.024853,0.465765,-4.547732,330.298600,17.419366,0.999060,0.983927,0.005396,0.332143,0.001427,0.001388,-0.000238,0.001646,0.001169,-42.669982,0.002828,
2326,2473,1.50568605845843,-3.83533439814519,-0.0163432990418073,0.006793,-0.090389,-0.008734,0.306593,-4.148822,323.593056,19.615389,0.999073,0.987096,0.004599,0.463782,0.000361,0.000250,0.000002,0.000361,0.000250,0.832127,0.000614,
2146,2968,-2.49194692272974,6.93797695706619,0.00441641618232325,0.010182,-0.088298,0.007048,0.416658,-4.007409,316.226509,20.494733,0.999645,0.992951,0.003391,0.423074,0.000044,0.000021,-0.000013,0.000050,0.000015,-23.510997,0.000068,
2266,2248,0.236627938420597,-8.75803929081464,-0.0118873816048222,0.004282,-0.092857,-0.012791,0.204014,-4.275562,327.223777,19.277296,0.998644,0.980953,0.005563,0.407999,0.000769,0.000757,0.000001,0.000770,0.000757,5.258278,0.001526,
2416,2968,3.37386791859354,6.9545156422872,0.0023900513141939,0.010108,-0.090082,0.009040,0.394333,-4.064473,315.818511,21.112785,0.999723,0.993820,0.003493,0.420344,0.000041,0.000014,0.000042,0.000072,-0.000017,36.364767,0.000075,
2191,3208,-1.55243704696694,12.1444523205687,0.0444915917119033,0.011923,-0.088682,0.011977,0.479699,-4.022124,312.545837,20.780337,0.999471,0.992803,0.003706,0.451823,0.000010,0.000043,-0.000002,0.000043,0.000010,-86.452157,0.000057,
2476,2008,4.87708177027681,-14.0356343517694,0.00114481983388259,0.009084,-0.100123,-0.028230,0.479186,-4.676894,331.603281,16.958299,0.998219,0.973808,0.006449,0.396081,0.001849,0.001423,-0.000230,0.001950,0.001323,-23.569779,0.003293,
2341,2563,1.81560855190707,-1.86904941822872,-0.017961635453787,0.007298,-0.090668,-0.002412,0.307712,-4.132760,322.116743,19.887955,0.998667,0.985239,0.004907,0.397982,0.000241,0.000166,0.000021,0.000247,0.000160,14.620004,0.000410,
2011,2533,-5.3605983611988,-2.52840613255402,-0.0211409742334467,0.005277,-0.087257,-0.004908,0.228978,-3.990965,323.587478,20.499865,0.999065,0.987713,0.004553,0.439510,0.000300,0.000041,0.000067,0.000316,0.000024,13.696034,0.000380,
2206,3283,-1.24129003573395,13.7730717215767,0.0218769291365675,0.012475,-0.088139,0.012275,0.503730,-3.996833,311.105441,20.982631,0.999334,0.991380,0.003637,0.424217,0.000020,0.000055,0.000001,0.000055,0.000020,87.982975,0.000078,
2086,2698,-3.75499351922985,1.06834831885524,-0.0277232415094204,0.007580,-0.087356,0.000783,0.317602,-3.961874,320.517786,20.348655,0.999234,0.990242,0.003996,0.485124,0.000141,0.000030,0.000007,0.000142,0.000029,3.505661,0.000183,
2041,2608,-4.71911451841466,-0.892799369541834,-0.0276353815231118,0.006686,-0.087166,-0.003994,0.290937,-3.970998,322.196734,20.399810,0.998641,0.987556,0.004614,0.473640,0.000219,0.000065,0.000046,0.000231,0.000052,15.472419,0.000302,
2311,2413,1.19010098747743,-5.14748550945806,-0.0103369498130519,0.006186,-0.090221,-0.014190,0.297383,-4.179453,324.614063,19.501959,0.999202,0.987955,0.004690,0.447937,0.000430,0.000377,-0.000005,0.000430,0.000377,-5.718374,0.000808,
2506,2188,5.49500380450482,-10.0779757062101,0.000914259173441678,0.008939,-0.094982,-0.017051,0.433273,-4.365207,328.731388,17.812744,0.998015,0.974445,0.006501,0.415189,0.001107,0.001148,-0.000213,0.001342,0.000914,-47.797637,0.002269,
2101,2788,-3.44212624572745,3.02636968778022,-0.0193018140772097,0.008684,-0.087491,0.003661,0.359656,-3.956131,319.095941,20.358933,0.999488,0.990719,0.003959,0.486772,0.000085,0.000051,-0.000007,0.000087,0.000049,-11.577035,0.000138,
2026,2548,-5.03667046750235,-2.20102965308592,-0.0216660883385202,0.005640,-0.087431,-0.003357,0.241179,-3.999768,323.257934,20.478495,0.999292,0.990438,0.003902,0.417083,0.000283,0.000061,0.000061,0.000299,0.000045,14.317777,0.000374,
2446,3133,3.99683241069967,10.5396148629299,0.0272070343652899,0.011501,-0.089937,0.010846,0.450589,-4.075406,313.427789,21.750006,0.999431,0.988064,0.004256,0.411374,0.000049,0.000022,0.000042,0.000080,-0.000008,35.940734,0.000088,
2386,2743,2.76253349897819,2.05631228780754,-0.0130992618598498,0.008606,-0.090517,0.003872,0.344630,-4.113067,319.281494,20.312232,0.999464,0.991013,0.003983,0.451441,0.000105,0.000091,0.000026,0.000125,0.000071,37.562208,0.000198,
2176,3118,-1.86359331876006,10.1931761170017,0.0338263199566313,0.011044,-0.087918,0.007703,0.453366,-4.004291,313.951019,20.677154,0.999477,0.993040,0.003515,0.433249,0.000021,0.000010,-0.000015,0.000031,-0.000001,-34.972920,0.000035,
2056,2683,-4.40368336858403,0.739627156988391,-0.014375460605379,0.007241,-0.087244,0.000068,0.304824,-3.946837,321.020603,20.348879,0.999357,0.990489,0.004022,0.508771,0.000134,0.000022,0.000028,0.000141,0.000015,13.126914,0.000172,
2491,2113,5.18453861390543,-11.7294343209272,0.0213110018498242,0.008720,-0.097124,-0.022771,0.443819,-4.517920,330.081825,17.393406,0.999089,0.983164,0.005477,0.450084,0.001366,0.001345,-0.000235,0.001591,0.001120,-43.697265,0.002725,
2011,2548,-5.3629558334778,-2.20194231234574,-0.0171692179505953,0.005265,-0.087427,0.001241,0.211720,-3.973533,323.361268,20.465432,0.999201,0.988577,0.004209,0.480482,0.000287,0.000050,0.000069,0.000306,0.000031,15.178705,0.000372,
2281,2308,0.555052653892695,-7.44378478315394,-0.0152708107475519,0.005998,-0.091350,-0.020551,0.309208,-4.238807,326.311101,19.371544,0.999263,0.983201,0.005238,0.401082,0.000611,0.000589,0.000012,0.000616,0.000584,23.831903,0.001200,
2296,2338,0.87580583203783,-6.78651939158473,-0.0196355121185547,0.005852,-0.091068,-0.014837,0.283735,-4.202130,325.747776,19.388220,0.998999,0.984970,0.004974,0.425443,0.000555,0.000522,0.000002,0.000555,0.000521,4.070141,0.001077,
2161,3058,-2.17853735847925,8.88946328116023,0.04394953454198,0.010885,-0.088251,0.011522,0.434734,-4.008749,315.050839,20.564397,0.999610,0.994914,0.003384,0.445343,0.000040,0.000013,-0.000021,0.000051,0.000002,-28.692267,0.000060,
2431,3028,3.68925176053278,8.25909340791274,0.0135303254663199,0.010140,-0.089804,0.008610,0.396905,-4.064115,314.953952,21.369554,0.999349,0.986331,0.004448,0.398060,0.000042,0.000017,0.000043,0.000075,-0.000015,37.006268,0.000079,
2401,2863,3.06678614539418,4.67101889352723,-0.0129278884895712,0.009866,-0.089768,0.006790,0.391991,-4.058027,317.385817,20.749549,0.999345,0.989731,0.004030,0.437241,0.000061,0.000060,0.000032,0.000093,0.000028,44.826492,0.000126,
2206,3298,-1.24447035596737,14.0978977062579,0.0154176367785794,0.012455,-0.088151,0.013490,0.498927,-4.005096,310.800699,20.965526,0.999423,0.992384,0.003384,0.448334,0.000022,0.000060,-0.000007,0.000061,0.000021,-79.883330,0.000085,
2071,2638,-4.07182623427147,-0.238532020995137,-0.0241754243292007,0.006795,-0.087514,-0.001661,0.288759,-3.974255,321.568814,20.394420,0.998975,0.987542,0.004443,0.439902,0.000187,0.000046,0.000029,0.000193,0.000040,11.359285,0.000249,
2116,2818,-3.12097580194318,3.67893414951492,-0.0161121385320371,0.008720,-0.087666,0.002677,0.363622,-3.983660,318.569596,20.384757,0.999490,0.991877,0.003705,0.451293,0.000084,0.000052,-0.000007,0.000086,0.000050,-11.949550,0.000138,
2041,2623,-4.72141338332716,-0.566298091628546,-0.0281042469637214,0.006673,-0.087118,-0.004380,0.291432,-3.982561,321.950868,20.383074,0.998572,0.987625,0.004664,0.472020,0.000205,0.000040,0.000041,0.000215,0.000030,13.304355,0.000268,
2371,2713,2.44031719898019,1.40477677372841,-0.0315813314511502,0.008302,-0.089514,-0.000478,0.347065,-4.064927,319.607876,20.276432,0.999413,0.990445,0.003876,0.449183,0.000125,0.000106,0.000013,0.000132,0.000100,26.336688,0.000232,
2506,2203,5.49212191321321,-9.74909700994181,0.00211529097362018,0.008935,-0.094159,-0.018675,0.439746,-4.353190,328.505234,17.872052,0.998325,0.971874,0.006629,0.431448,0.001065,0.001022,-0.000191,0.001236,0.000851,-41.791091,0.002099,
2476,2023,4.87426247878964,-13.7045633595255,0.0035123099941643,0.009318,-0.099288,-0.026167,0.482456,-4.617153,331.383334,17.118676,0.998792,0.980914,0.005686,0.355753,0.001769,0.001429,-0.000235,0.001890,0.001309,-27.065097,0.003216,
2356,2638,2.12906257710753,-0.232220419576208,-0.0134413679998602,0.007965,-0.089896,-0.000660,0.332270,-4.081102,320.960738,20.091101,0.999050,0.986669,0.004645,0.421797,0.000177,0.000110,0.000004,0.000177,0.000110,3.455410,0.000290,
2416,2983,3.37133298961386,7.27974669959523,0.00448597921348437,0.010493,-0.089938,0.010848,0.405453,-4.064217,315.602348,21.096053,0.999851,0.994203,0.003272,0.484345,0.000039,0.000018,0.000041,0.000071,-0.000013,37.906732,0.000075,
2236,2113,-0.394728491723487,-11.7210393875941,-0.00276976688729746,0.002137,-0.095523,-0.025592,0.145891,-4.454241,329.473104,18.939899,0.998644,0.979889,0.005850,0.489710,0.001104,0.001218,0.000028,0.001224,0.001097,76.781844,0.002323,
2251,2158,-0.0741056640627988,-10.7322092036455,-0.00430118313232697,0.003351,-0.093853,-0.026397,0.205275,-4.390033,328.765075,19.098086,0.997728,0.979992,0.005748,0.385630,0.000997,0.001053,0.000027,0.001064,0.000986,67.904818,0.002050,
2266,2263,0.235292605632555,-8.42995911023718,0.00716376745316438,0.004665,-0.092545,-0.006817,0.201955,-4.222347,327.137822,19.423497,0.999425,0.988495,0.004692,0.342195,0.000729,0.000707,-0.000002,0.000730,0.000707,-3.994512,0.001437,
2086,2713,-3.75659400315059,1.3940093874904,-0.0254616310616598,0.008231,-0.087738,0.001151,0.346378,-3.989998,320.322641,20.322188,0.999251,0.989592,0.004079,0.482801,0.000131,0.000031,-0.000001,0.000131,0.000031,-0.419728,0.000171,
2341,2578,1.81320692972801,-1.54153343061492,-0.0209710186897496,0.007739,-0.089957,-0.004991,0.337241,-4.106856,321.877489,19.894970,0.998748,0.985291,0.004755,0.454377,0.000234,0.000157,0.000021,0.000239,0.000151,14.557942,0.000394,
2446,3148,3.99453618962896,10.8651161482818,0.0306286995751179,0.011695,-0.089492,0.008084,0.470028,-4.064161,313.229945,21.796592,0.999475,0.990190,0.003899,0.427280,0.000048,0.000023,0.000046,0.000083,-0.000012,37.340690,0.000090,
2146,2983,-2.49428922137065,7.26342618418187,0.0062960673213297,0.010380,-0.088240,0.009492,0.418441,-3.994119,315.999579,20.479224,0.999661,0.994171,0.003229,0.459174,0.000041,0.000021,-0.000014,0.000048,0.000013,-27.371700,0.000064,
2491,2128,5.18223788899873,-11.400533789063,0.0265263910526414,0.009089,-0.096725,-0.022610,0.460241,-4.478810,329.899366,17.443123,0.999214,0.986391,0.005079,0.501164,0.001317,0.001296,-0.000222,0.001529,0.001084,-43.653777,0.002625,
2191,3223,-1.5555237327542,12.4702621133877,0.0470223845529176,0.011557,-0.088551,0.016250,0.449460,-4.007511,312.290853,20.859965,0.999685,0.994416,0.003223,0.399651,0.000012,0.000047,-0.000004,0.000047,0.000011,-83.323540,0.000062,
2056,2698,-4.40623604126614,1.0664325873704,-0.0179349686620185,0.007423,-0.087416,0.003246,0.304201,-3.947038,320.747229,20.346060,0.999213,0.990578,0.003979,0.506723,0.000122,0.000014,0.000018,0.000125,0.000011,9.002551,0.000151,
2131,2893,-2.80614226641811,5.30877039008813,-0.00384055375116077,0.009394,-0.087626,0.002967,0.393317,-4.003954,317.416867,20.440552,0.999400,0.989914,0.004092,0.417527,0.000059,0.000041,-0.000010,0.000063,0.000037,-23.610908,0.000101,
2326,2488,1.50326536014816,-3.50727885573487,-0.0148117780460666,0.007076,-0.089974,-0.008281,0.318203,-4.103625,323.373894,19.663759,0.999069,0.987094,0.004541,0.496574,0.000338,0.000220,0.000002,0.000338,0.000220,0.939850,0.000562,
2026,2563,-5.03829837605202,-1.87424803027019,-0.0220424734396829,0.006163,-0.087331,-0.005345,0.270731,-3.989454,323.041869,20.446651,0.999331,0.989953,0.004002,0.450347,0.000266,0.000038,0.000045,0.000274,0.000030,10.801001,0.000335,
2101,2803,-3.4449868556463,3.35268577076582,-0.0215196131916287,0.008445,-0.087600,0.004748,0.345397,-3.964195,318.819686,20.363887,0.999444,0.991377,0.003780,0.474818,0.000083,0.000046,-0.000007,0.000085,0.000045,-10.514897,0.000132,
2011,2563,-5.36484254144648,-1.87471164707687,-0.0185476311465891,0.005584,-0.087360,-0.000424,0.230925,-3.975372,323.126469,20.477343,0.999060,0.987727,0.004411,0.455460,0.000264,0.000029,0.000047,0.000273,0.000020,10.871311,0.000328,
2311,2428,1.18614655942106,-4.818098408838,-0.0156061238857319,0.005937,-0.090501,-0.006864,0.260914,-4.124415,324.289914,19.578493,0.999487,0.989970,0.004216,0.460485,0.000410,0.000331,-0.000007,0.000410,0.000330,-4.985551,0.000742,
2281,2323,0.551759702492287,-7.11497152068848,-0.0137479220727528,0.005449,-0.090732,-0.018351,0.276944,-4.191258,326.048693,19.432413,0.998883,0.982441,0.005402,0.417933,0.000583,0.000553,0.000010,0.000586,0.000550,16.510381,0.001136,
2176,3133,-1.86573363412476,10.5184009977669,0.0411462083494598,0.011055,-0.088105,0.008854,0.450320,-3.992960,313.763990,20.713953,0.999408,0.992766,0.003675,0.418909,0.000017,0.000012,-0.000014,0.000029,0.000001,-39.921500,0.000034,
2221,1993,-0.702100659368586,-14.3571249335948,0.0134250136619585,0.000449,-0.098937,-0.025404,0.066270,-4.599163,331.491143,18.840057,0.999239,0.987780,0.004974,0.354397,0.001393,0.001445,0.000033,0.001461,0.001377,63.974895,0.002839,
2476,2038,4.87153768780618,-13.3756983697751,0.00784056535627542,0.009576,-0.098848,-0.022770,0.481618,-4.586655,331.176773,17.134396,0.998679,0.978835,0.006073,0.430646,0.001681,0.001410,-0.000229,0.001812,0.001280,-29.663483,0.003107,
2296,2353,0.873996057918713,-6.45937557405635,-0.00808499151236219,0.005997,-0.090702,-0.013612,0.286391,-4.192085,325.604433,19.442321,0.999365,0.988020,0.004442,0.412823,0.000527,0.000481,0.000006,0.000527,0.000480,6.791745,0.001008,
2386,2758,2.75923224452072,2.38410476859833,-0.0213219196356249,0.009015,-0.090306,0.005979,0.355912,-4.113544,318.979283,20.388190,0.999180,0.988412,0.004281,0.418737,0.000101,0.000081,0.000030,0.000122,0.000060,35.751708,0.000185,
2431,3043,3.68643920845623,8.58478672586666,0.0130905335732905,0.010565,-0.090042,0.011453,0.405855,-4.069279,314.713833,21.399410,0.999449,0.988406,0.004159,0.412454,0.000036,0.000025,0.000045,0.000077,-0.000015,41.524928,0.000081,
2506,2218,5.48867582320645,-9.41950015925103,-0.00392495139072935,0.009022,-0.093838,-0.019899,0.448648,-4.352485,328.220867,17.937980,0.998534,0.973908,0.006327,0.430369,0.001033,0.000963,-0.000172,0.001174,0.000822,-39.233504,0.002007,
2116,2833,-3.12394862456821,4.00553339623938,-0.0177871940042564,0.008553,-0.088211,0.006641,0.344008,-4.006146,318.292251,20.443374,0.999615,0.992568,0.003636,0.373275,0.000075,0.000047,-0.000007,0.000076,0.000046,-12.994585,0.000123,
2041,2638,-4.7235152092303,-0.239869180307956,-0.0248465529472242,0.006796,-0.087094,-0.002107,0.290736,-3.974041,321.734644,20.375941,0.998842,0.989171,0.004430,0.480503,0.000192,0.000033,0.000039,0.000201,0.000024,12.992687,0.000248,
2056,2713,-4.40824898458554,1.39370964200896,-0.025740245237273,0.008089,-0.087384,0.001210,0.340619,-3.953473,320.475057,20.363191,0.999014,0.989634,0.004059,0.478267,0.000117,0.000018,0.000008,0.000118,0.000018,4.643968,0.000147,
2491,2143,5.17709049156722,-11.0670570141098,0.0103330690864709,0.008801,-0.096339,-0.018155,0.430301,-4.435340,329.489954,17.680827,0.998308,0.980409,0.005947,0.369955,0.001238,0.001238,-0.000196,0.001434,0.001042,-45.014877,0.002486,
2341,2593,1.81026695475309,-1.21362170817335,-0.0208255634590842,0.007946,-0.090199,-0.000538,0.331185,-4.095060,321.628716,19.985050,0.999097,0.987267,0.004507,0.413602,0.000224,0.000129,0.000021,0.000229,0.000124,11.911634,0.000358,
2086,2728,-3.7587658368152,1.72090437723069,-0.0271979072626891,0.008403,-0.087464,-0.001091,0.360838,-4.000014,320.079170,20.362975,0.999173,0.988921,0.004227,0.431214,0.000123,0.000023,0.000000,0.000123,0.000023,0.203442,0.000157,
2401,2878,3.06317876283222,4.99795605397563,-0.016169682328723,0.009568,-0.089800,0.008394,0.372523,-4.043869,317.094049,20.809119,0.999338,0.991323,0.003788,0.436984,0.000053,0.000057,0.000035,0.000090,0.000020,46.570841,0.000117,
2446,3163,3.99183676929448,11.1906624114481,0.037091434091451,0.011657,-0.089592,0.010439,0.459500,-4.059506,313.027501,21.875735,0.999508,0.990562,0.003997,0.403611,0.000045,0.000025,0.000044,0.000080,-0.000010,38.579447,0.000087,
2161,3073,-2.18148654185385,9.21551268832722,0.0359324821337168,0.010763,-0.087940,0.007805,0.440658,-3.997415,314.744590,20.563561,0.999590,0.994326,0.003316,0.466861,0.000038,0.000008,-0.000017,0.000045,0.000000,-24.330461,0.000052,
2011,2578,-5.36704977027315,-1.54658770579771,-0.0290059975548047,0.005804,-0.086321,-0.007454,0.260406,-3.955479,322.825799,20.475026,0.998543,0.986187,0.005003,0.466832,0.000253,0.000033,0.000047,0.000263,0.000024,11.445621,0.000318,
2251,2173,-0.0777456626735038,-10.4030152761733,-0.00913555317822556,0.002875,-0.093928,-0.023795,0.174924,-4.382729,328.452819,19.113937,0.998568,0.983692,0.005333,0.403622,0.000964,0.001010,0.000030,0.001025,0.000949,63.770630,0.001975,
2476,2053,4.86731607001449,-13.0462332488855,0.00534699047841514,0.008756,-0.099497,-0.021334,0.438524,-4.643887,330.871187,17.221404,0.998860,0.982363,0.005618,0.346779,0.001607,0.001403,-0.000229,0.001756,0.001255,-32.973438,0.003024,
2356,2653,2.12561832343393,0.095428433754833,-0.0224605406511387,0.007885,-0.089535,-0.002880,0.336590,-4.082829,320.645743,20.112003,0.999205,0.986854,0.004659,0.438869,0.000161,0.000103,0.000004,0.000162,0.000103,3.635997,0.000267,
2071,2653,-4.07391541134447,0.0884274068251827,-0.0320452504364539,0.007531,-0.087672,-0.001738,0.322831,-3.987829,321.294310,20.369257,0.999140,0.988509,0.004302,0.449108,0.000169,0.000049,0.000026,0.000175,0.000044,11.691442,0.000231,
2371,2728,2.4380997302212,1.73120695200801,-0.0247465569128167,0.008673,-0.089806,0.002742,0.352531,-4.077516,319.426504,20.351461,0.999384,0.990460,0.003931,0.402877,0.000112,0.000094,0.000021,0.000126,0.000080,33.897184,0.000208,
2191,3238,-1.5569722029257,12.7941745348242,0.0560742402559526,0.011937,-0.088337,0.014039,0.473979,-4.005575,312.145922,20.817511,0.999736,0.994464,0.003129,0.457401,0.000013,0.000040,-0.000004,0.000041,0.000013,-81.569135,0.000056,
2416,2998,3.36877091883932,7.60592550073275,0.00690242687221598,0.010708,-0.090056,0.011111,0.414310,-4.081050,315.386122,21.189721,0.999528,0.988632,0.004060,0.420870,0.000038,0.000017,0.000041,0.000071,-0.000015,37.998905,0.000074,
2236,2128,-0.397238822751447,-11.3888298613745,-0.0051208063492254,0.002465,-0.093970,-0.024756,0.158776,-4.388133,329.223056,19.181362,0.997946,0.979280,0.005941,0.338715,0.001067,0.001185,0.000028,0.001192,0.001061,77.182259,0.002254,
2221,2008,-0.706089943093421,-14.0259324091006,0.0038451807340607,0.000012,-0.099199,-0.020992,0.032091,-4.589906,331.135920,18.916742,0.998935,0.985351,0.005532,0.310298,0.001345,0.001436,0.000041,0.001452,0.001330,69.181872,0.002782,
2311,2443,1.18442180787717,-4.49252096526632,-0.00522164559083649,0.006425,-0.091222,-0.003626,0.271995,-4.159102,324.145854,19.547956,0.999301,0.988475,0.004511,0.489624,0.000398,0.000289,0.000001,0.000398,0.000289,0.593029,0.000690,
2281,2338,0.549062156825439,-6.78656503621078,-0.0161111046104452,0.005597,-0.090543,-0.018658,0.284833,-4.212979,325.794543,19.491659,0.998887,0.984618,0.005060,0.366614,0.000554,0.000526,0.000007,0.000556,0.000525,13.435121,0.001081,
2026,2578,-5.0409812783339,-1.54694072558254,-0.0227273440611953,0.006156,-0.087666,0.001036,0.252800,-3.984647,322.775719,20.470690,0.998842,0.989021,0.004404,0.422224,0.000251,0.000039,0.000046,0.000260,0.000029,11.700906,0.000318,
2326,2503,1.49937884323051,-3.17881766169816,-0.0201696489996834,0.006705,-0.090613,-0.004055,0.286392,-4.124073,323.053978,19.757039,0.998969,0.987193,0.004521,0.418505,0.000313,0.000216,0.000003,0.000313,0.000216,1.768985,0.000532,
2266,2278,0.23203079222991,-8.10087314326611,-0.0121370022950487,0.004790,-0.091910,-0.016081,0.238515,-4.259156,326.771798,19.365283,0.999344,0.985742,0.004930,0.392094,0.000701,0.000675,0.000005,0.000702,0.000674,10.688448,0.001376,
2296,2368,0.871300662464453,-6.13225240708802,-0.00494649061624841,0.005764,-0.090759,-0.013947,0.276834,-4.194885,325.378965,19.429098,0.999033,0.985161,0.004936,0.454856,0.000498,0.000448,0.000002,0.000499,0.000448,2.681650,0.000947,
2101,2818,-3.44687337857219,3.67904688354227,-0.0207032836755729,0.008843,-0.087340,0.003587,0.367249,-3.954965,318.604443,20.383461,0.999445,0.992298,0.003620,0.465708,0.000082,0.000048,-0.000006,0.000083,0.000047,-9.746605,0.000131,
2056,2728,-4.41086190015156,1.72067615752861,-0.0289603096302358,0.008037,-0.087152,0.001851,0.336499,-3.952358,320.200746,20.386961,0.999109,0.989988,0.004042,0.450377,0.000113,0.000011,0.000008,0.000113,0.000010,4.683800,0.000137,
2146,2998,-2.49583929418835,7.58871767094004,0.0150099226838734,0.010444,-0.087554,0.004746,0.436001,-3.975249,315.845371,20.493823,0.999518,0.992826,0.003585,0.470595,0.000037,0.000019,-0.000015,0.000046,0.000011,-29.068168,0.000060,
2131,2908,-2.80780203969731,5.63341397024405,0.00491885716081697,0.009933,-0.088074,0.007596,0.404172,-4.002423,317.257260,20.392199,0.999328,0.988005,0.004330,0.472441,0.000058,0.000027,-0.000010,0.000061,0.000024,-16.382952,0.000087,
2191,3253,-1.5603118419185,13.1200055139111,0.0439741911471856,0.012028,-0.088098,0.014017,0.478365,-3.994520,311.802901,20.827061,0.999657,0.993917,0.003235,0.471971,0.000014,0.000037,-0.000002,0.000037,0.000014,-84.366403,0.000053,
2506,2233,5.48591742573507,-9.08916446490473,-0.000499982118753906,0.009040,-0.093150,-0.020689,0.452838,-4.321392,328.009884,18.145213,0.998595,0.979263,0.005777,0.317599,0.001002,0.000911,-0.000150,0.001113,0.000800,-36.543486,0.001922,
2491,2158,5.17389679968275,-10.7369596758902,0.000793776742966656,0.009019,-0.095192,-0.023906,0.462781,-4.438227,329.200333,17.734828,0.998560,0.978590,0.005990,0.375111,0.001195,0.001173,-0.000206,0.001390,0.000978,-43.473223,0.002379,
2386,2773,2.75604708104938,2.71091652133349,-0.0191699834449537,0.008614,-0.089979,0.006726,0.335034,-4.078244,318.731755,20.425385,0.999210,0.988453,0.004262,0.460329,0.000091,0.000068,0.000026,0.000108,0.000051,32.778642,0.000162,
2446,3178,3.98870166750769,11.5165608091891,0.035885404236808,0.011693,-0.089661,0.011346,0.457703,-4.066508,312.769339,21.956361,0.999590,0.991118,0.003764,0.366873,0.000047,0.000030,0.000039,0.000079,-0.000002,38.648751,0.000090,
2116,2848,-3.12604645399353,4.3311081780063,-0.0154227127574131,0.008702,-0.087865,0.006054,0.352780,-3.970928,318.076947,20.385149,0.999664,0.992576,0.003532,0.470077,0.000066,0.000043,-0.000009,0.000069,0.000039,-19.086108,0.000110,
2431,3058,3.683686326386,8.91116744659286,0.0134280962013236,0.010689,-0.089944,0.010573,0.414885,-4.059985,314.479791,21.487360,0.999565,0.990196,0.004010,0.382745,0.000037,0.000028,0.000044,0.000077,-0.000011,42.026016,0.000083,
2011,2593,-5.36912142226386,-1.2192090620453,-0.0294537469463876,0.006048,-0.086056,-0.006406,0.268858,-3.942901,322.587705,20.504741,0.998670,0.985804,0.005120,0.438548,0.000239,0.000054,0.000059,0.000257,0.000037,16.344364,0.000320,
2401,2893,3.0610174524353,5.32356022537097,-0.00989768278543579,0.009612,-0.089543,0.005669,0.384536,-4.042969,316.913998,20.833176,0.999425,0.990889,0.003869,0.459058,0.000048,0.000048,0.000038,0.000086,0.000010,45.127465,0.000106,
2476,2068,4.86470291896742,-12.715577136426,0.00458777880032812,0.008865,-0.097846,-0.026249,0.462835,-4.574940,330.646302,17.315740,0.998795,0.978720,0.006042,0.381455,0.001538,0.001400,-0.000222,0.001702,0.001236,-36.378896,0.002950,
2041,2653,-4.72597539186074,0.087267164731422,-0.0347294077435549,0.007324,-0.087608,-0.000481,0.310369,-4.007067,321.429136,20.368901,0.999144,0.989579,0.004245,0.447531,0.000167,0.000039,0.000031,0.000174,0.000032,12.703682,0.000222,
2176,3148,-1.86878331011645,10.8434155232493,0.0384045448247434,0.011101,-0.088633,0.013873,0.436635,-4.009531,313.482449,20.700885,0.999465,0.993210,0.003540,0.426374,0.000017,0.000020,-0.000012,0.000031,0.000006,-48.133449,0.000040,
2251,2188,-0.0802099419390778,-10.071807596365,-0.0121765563519034,0.003574,-0.093687,-0.019610,0.193448,-4.352702,328.202953,19.315628,0.999298,0.988749,0.004634,0.258043,0.000923,0.000968,0.000026,0.000980,0.000911,65.415674,0.001892,
2221,2023,-0.707994632365317,-13.6961391176048,-0.00398588821803969,0.000702,-0.098139,-0.028283,0.087342,-4.603810,330.885132,18.915371,0.998129,0.980346,0.006011,0.320304,0.001310,0.001430,0.000046,0.001446,0.001294,71.166962,0.002741,
2341,2608,1.80596756163733,-0.885579359780309,-0.0275148694807399,0.007404,-0.090232,0.005105,0.286665,-4.062469,321.284258,20.012408,0.999061,0.985425,0.004822,0.456592,0.000212,0.000115,0.000021,0.000216,0.000110,11.549369,0.000332,
2071,2668,-4.07653059680362,0.415205917250937,-0.0298064295108134,0.007326,-0.087429,0.001616,0.303930,-3.959979,321.050979,20.376245,0.999076,0.987702,0.004441,0.467304,0.000151,0.000039,0.000025,0.000156,0.000034,12.178961,0.000203,
2026,2593,-5.04373715974904,-1.21887015004987,-0.0308213208306825,0.006113,-0.087260,0.000575,0.252262,-3.939691,322.464610,20.465242,0.998726,0.987981,0.004662,0.463870,0.000239,0.000061,0.000058,0.000256,0.000044,16.653466,0.000324,
2416,3013,3.36590978728304,7.93242794275171,0.00605083338689383,0.010676,-0.089771,0.008750,0.421643,-4.066982,315.140615,21.264184,0.999364,0.986145,0.004363,0.407584,0.000038,0.000020,0.000041,0.000070,-0.000013,38.728210,0.000075,
2161,3088,-2.18462262945025,9.54217009881206,0.0302999503899173,0.010789,-0.088118,0.011428,0.430744,-3.992453,314.442115,20.645406,0.999377,0.991230,0.003779,0.399108,0.000033,0.000003,-0.000022,0.000044,-0.000009,-27.885916,0.000047,
2371,2743,2.43490497428959,2.05739264475982,-0.0237552191194368,0.008436,-0.090102,0.004896,0.333931,-4.072208,319.172241,20.343189,0.999293,0.989610,0.004036,0.457686,0.000100,0.000089,0.000024,0.000119,0.000069,38.480354,0.000191,
2191,3268,-1.56375755718592,13.4450570450082,0.0336006941315077,0.012035,-0.088478,0.016029,0.472195,-4.017846,311.464272,20.814012,0.999391,0.991509,0.003718,0.474918,0.000016,0.000054,-0.000001,0.000054,0.000016,-87.979271,0.000074,
2101,2833,-3.44908367842318,4.00479085319301,-0.0200134824294196,0.009030,-0.087748,0.004019,0.374394,-3.987988,318.373959,20.391812,0.999646,0.993376,0.003392,0.425419,0.000073,0.000044,-0.000007,0.000075,0.000042,-13.383687,0.000119,
2356,2668,2.12307749416506,0.42201627806665,-0.0223596931114685,0.008309,-0.089724,-0.001159,0.349939,-4.093273,320.416339,20.126019,0.999378,0.988928,0.004329,0.453817,0.000146,0.000102,0.000003,0.000146,0.000102,3.473582,0.000249,
2326,2518,1.49680793073831,-2.85030302969155,-0.025901053775101,0.007074,-0.089560,-0.007718,0.316367,-4.096074,322.792358,19.808858,0.999049,0.986003,0.004591,0.430511,0.000298,0.000207,0.000010,0.000299,0.000206,6.123452,0.000509,
2056,2743,-4.41356501449729,2.04654414250317,-0.0278218852805594,0.007752,-0.087277,0.004532,0.315769,-3.954796,319.946671,20.353263,0.999319,0.991105,0.003883,0.476597,0.000108,0.000025,0.000012,0.000109,0.000024,7.828158,0.000142,
2086,2743,-3.76114056805524,2.04654260999199,-0.0214812717645714,0.008147,-0.087854,0.000537,0.344212,-4.000947,319.867316,20.343691,0.999287,0.989197,0.004194,0.448740,0.000115,0.000032,0.000001,0.000115,0.000032,0.703372,0.000154,
2506,2248,5.48232643571604,-8.76227923728504,0.00475341468739998,0.008888,-0.093994,-0.011565,0.410366,-4.328850,327.769237,18.099229,0.998534,0.979386,0.005886,0.419623,0.000956,0.000859,-0.000146,0.001061,0.000754,-35.860016,0.001824,
2236,2143,-0.399552172884732,-11.0603462752226,-0.00475480683741125,0.002813,-0.093789,-0.023441,0.170543,-4.363090,328.996501,19.158923,0.997948,0.979130,0.005840,0.410114,0.001031,0.001113,0.000032,0.001124,0.001020,70.844649,0.002145,
2281,2353,0.545966850494853,-6.45968551184291,-0.00930955633270969,0.005297,-0.091004,-0.010405,0.243410,-4.187450,325.567809,19.459384,0.998957,0.984350,0.005077,0.454047,0.000525,0.000484,0.000011,0.000528,0.000481,13.826733,0.001010,
2491,2173,5.17195600526086,-10.4093762404996,0.00645504288979737,0.009654,-0.095211,-0.024315,0.493415,-4.455358,329.036519,17.741640,0.997792,0.968592,0.006810,0.412412,0.001137,0.001152,-0.000202,0.001346,0.000942,-46.047456,0.002300,
2446,3193,3.98638775271206,11.8414329122334,0.0404168063965926,0.011919,-0.089658,0.010317,0.472064,-4.056976,312.575807,21.963444,0.999629,0.991154,0.003688,0.420417,0.000050,0.000029,0.000036,0.000077,0.000003,36.911133,0.000091,
2296,2383,0.867993256482965,-5.80273245549217,-0.0122317821948741,0.005888,-0.091134,-0.011832,0.275264,-4.197934,325.073464,19.539418,0.998651,0.982240,0.005476,0.373540,0.000469,0.000431,-0.000001,0.000469,0.000431,-1.694914,0.000900,
2041,2668,-4.72747174153832,0.413374574415748,-0.0264775973153633,0.007577,-0.087266,-0.001076,0.323767,-3.995391,321.268423,20.379892,0.999151,0.988457,0.004421,0.441004,0.000144,0.000021,0.000030,0.000151,0.000014,12.799031,0.000183,
2146,3013,-2.49806518469496,7.91470359518416,0.0144404069189363,0.010682,-0.087703,0.003496,0.450708,-3.995791,315.610634,20.552138,0.999203,0.990406,0.004097,0.398889,0.000038,0.000016,-0.000017,0.000047,0.000007,-28.724668,0.000059,
2266,2293,0.229470261780516,-7.77192287199473,-0.0166932168473863,0.005052,-0.091417,-0.018461,0.258596,-4.249700,326.511498,19.404781,0.999288,0.982611,0.005271,0.389932,0.000665,0.000640,0.000012,0.000669,0.000635,22.062741,0.001304,
2401,2908,3.05799863168681,5.65026242115911,-0.0115983568092588,0.009604,-0.089747,0.005051,0.386323,-4.072985,316.656571,20.935128,0.999520,0.990307,0.003929,0.372232,0.000041,0.000033,0.000039,0.000076,-0.000002,42.280017,0.000087,
2131,2923,-2.81020547332461,5.96000845648405,-0.00117548570688086,0.010099,-0.087933,0.002937,0.425834,-4.013062,316.983546,20.432280,0.999235,0.988445,0.004293,0.427192,0.000058,0.000019,-0.000009,0.000060,0.000017,-12.517603,0.000081,
2431,3073,3.68085912212878,9.23597756091997,0.011676940653615,0.010837,-0.089929,0.008916,0.427883,-4.061499,314.233010,21.431869,0.999629,0.991600,0.003745,0.486074,0.000033,0.000032,0.000042,0.000074,-0.000009,44.570568,0.000081,
2311,2458,1.18129028230393,-4.16335567121139,-0.0175039762908114,0.006754,-0.090829,-0.006525,0.297190,-4.135683,323.825055,19.580566,0.999215,0.987608,0.004658,0.514293,0.000375,0.000266,0.000003,0.000375,0.000266,1.766889,0.000644,
2116,2863,-3.12775545807098,4.65676287214676,-0.00782909548883026,0.009047,-0.087786,0.007667,0.363910,-3.970283,317.907642,20.411445,0.999668,0.991518,0.003668,0.447657,0.000061,0.000041,-0.000009,0.000065,0.000037,-21.593246,0.000104,
2071,2683,-4.07871096835355,0.741125408399959,-0.0262204530139911,0.007188,-0.087507,0.000388,0.301014,-3.968493,320.835295,20.356027,0.999279,0.990024,0.004037,0.476137,0.000140,0.000033,0.000025,0.000146,0.000027,12.529317,0.000186,
2176,3163,-1.87039762556789,11.1685609133963,0.0462681486256997,0.011531,-0.088445,0.013963,0.456203,-4.012736,313.322473,20.754488,0.999847,0.996442,0.002797,0.380838,0.000018,0.000029,-0.000011,0.000035,0.000011,-58.695680,0.000049,
2191,3283,-1.56558076311208,13.7703144936606,0.0332978084252318,0.012553,-0.088240,0.011856,0.509337,-4.011929,311.252722,20.850748,0.999587,0.994030,0.003237,0.457266,0.000013,0.000063,-0.000005,0.000063,0.000013,-84.604296,0.000081,
2251,2203,-0.0827556878534708,-9.74517082608369,-0.0114991249837999,0.003693,-0.093524,-0.018230,0.194410,-4.325724,327.968760,19.147878,0.998780,0.983738,0.005264,0.478804,0.000890,0.000918,0.000017,0.000926,0.000882,65.033499,0.001808,
2476,2083,4.86059749764843,-12.3850992374744,-0.00449128001434929,0.008574,-0.097566,-0.026416,0.450357,-4.581144,330.315769,17.382861,0.998980,0.978255,0.005911,0.368667,0.001474,0.001386,-0.000216,0.001651,0.001210,-39.223147,0.002872,
2011,2608,-5.37239731606319,-0.890993398709909,-0.0406313274284003,0.005998,-0.086621,-0.000832,0.251302,-3.942023,322.234159,20.535429,0.999360,0.991045,0.004107,0.397795,0.000227,0.000042,0.000057,0.000243,0.000026,15.776045,0.000297,
2221,2038,-0.710627693934018,-13.3661245622977,-0.00829121289496015,0.000933,-0.097409,-0.028261,0.098112,-4.566734,330.618714,18.929732,0.997572,0.976070,0.006397,0.365676,0.001287,0.001393,0.000041,0.001407,0.001272,71.071740,0.002681,
2161,3103,-2.18662572998791,9.86668209606912,0.035675621586222,0.010932,-0.088071,0.010930,0.438835,-4.001413,314.250583,20.617622,0.999575,0.993559,0.003319,0.426800,0.000026,0.000003,-0.000021,0.000038,-0.000009,-31.136192,0.000040,
2371,2758,2.43214713786485,2.38517184536305,-0.0292192832726528,0.008711,-0.089510,0.001498,0.358844,-4.078527,318.906765,20.446100,0.998782,0.986139,0.004476,0.389687,0.000096,0.000080,0.000028,0.000117,0.000059,37.107049,0.000179,
2506,2263,5.47851643733376,-8.43195119338181,-0.000698132462332524,0.008907,-0.093889,-0.008792,0.400657,-4.299378,327.470303,18.226216,0.998009,0.976077,0.006168,0.385951,0.000925,0.000766,-0.000150,0.001015,0.000676,-31.073170,0.001702,
2341,2623,1.80386421224388,-0.559124132484953,-0.0233323585035805,0.007566,-0.089965,0.002142,0.304513,-4.072707,321.093732,20.035105,0.999088,0.986544,0.004632,0.460850,0.000193,0.000108,0.000010,0.000194,0.000107,6.876253,0.000305,
2416,3028,3.36261900660005,8.25836044416488,0.00414309126949775,0.010517,-0.089803,0.009144,0.412941,-4.064816,314.870481,21.295300,0.999473,0.987818,0.004216,0.425791,0.000040,0.000017,0.000040,0.000070,-0.000013,37.052597,0.000074,
2056,2758,-4.41514553680867,2.37210952413672,-0.0196371090279968,0.007960,-0.087340,0.003988,0.326862,-3.956760,319.782953,20.351189,0.999205,0.990628,0.004039,0.471198,0.000102,0.000032,0.000006,0.000102,0.000031,4.788002,0.000140,
2101,2848,-3.45136231384683,4.33075042178516,-0.021547465970059,0.009175,-0.087084,0.002679,0.385269,-3.957006,318.128118,20.343816,0.999768,0.994039,0.003210,0.505647,0.000066,0.000038,-0.000011,0.000070,0.000034,-18.994939,0.000106,
2386,2788,2.7533243767609,3.03861202061789,-0.0243506221045777,0.009038,-0.089812,0.004670,0.361956,-4.078578,318.470459,20.526430,0.999589,0.991215,0.003868,0.402060,0.000090,0.000065,0.000025,0.000106,0.000049,31.770771,0.000159,
2086,2758,-3.7638880381992,2.37326333016858,-0.0285345343677932,0.008366,-0.088036,0.002795,0.347742,-4.004664,319.568584,20.329217,0.999376,0.990067,0.004045,0.458884,0.000103,0.000040,-0.000004,0.000103,0.000039,-3.635935,0.000147,
2491,2188,5.16716843198946,-10.0774545386024,-0.000778975639150303,0.009054,-0.094742,-0.018758,0.444989,-4.371066,328.683360,17.912172,0.997365,0.969916,0.006864,0.388581,0.001100,0.001125,-0.000187,0.001300,0.000925,-46.932486,0.002236,
2446,3208,3.98343600731861,12.1665658850945,0.0416137205296536,0.011979,-0.089674,0.011715,0.469554,-4.064943,312.337306,21.995974,0.999524,0.989947,0.003953,0.430851,0.000050,0.000024,0.000027,0.000067,0.000007,31.855482,0.000082,
2356,2683,2.11988696601334,0.749571183212851,-0.0225227115809048,0.008366,-0.090217,0.003858,0.334745,-4.081437,320.155488,20.209105,0.999495,0.989239,0.004104,0.421950,0.000138,0.000110,0.000004,0.000138,0.000110,7.251338,0.000248,
2026,2608,-5.04577471264641,-0.891153959743626,-0.0390629393281188,0.006679,-0.087039,-0.001888,0.285128,-3.946308,322.185803,20.483132,0.998602,0.985950,0.004933,0.430615,0.000231,0.000055,0.000058,0.000248,0.000038,16.554146,0.000311,
2041,2683,-4.73002102780011,0.74092027436739,-0.0329569971035539,0.007711,-0.086949,-0.001146,0.330246,-3.966245,320.977421,20.387306,0.999333,0.990945,0.003998,0.455821,0.000135,0.000014,0.000036,0.000145,0.000004,15.359807,0.000169,
2281,2368,0.543865409078226,-6.13229134857075,-0.00567026774012902,0.005608,-0.091067,-0.010618,0.258357,-4.190510,325.370875,19.475842,0.998704,0.982063,0.005425,0.463934,0.000496,0.000454,0.000009,0.000498,0.000452,10.945056,0.000950,
2401,2923,3.05566907148033,5.97515781716376,-0.00275843755366623,0.009757,-0.089836,0.008409,0.381127,-4.070929,316.480975,20.918518,0.999498,0.990431,0.003933,0.435747,0.000040,0.000030,0.000033,0.000069,0.000002,40.728847,0.000081,
2476,2098,4.8577634889367,-12.0546940518226,-0.00233865025302293,0.008700,-0.096959,-0.025653,0.453495,-4.536695,330.093894,17.522639,0.998695,0.978715,0.005983,0.333176,0.001414,0.001361,-0.000210,0.001599,0.001176,-41.386777,0.002786,
2116,2878,-3.13027682333702,4.98221944763766,-0.00894810657570133,0.008989,-0.087876,0.006889,0.363463,-3.998165,317.654358,20.387264,0.999529,0.991447,0.003827,0.447017,0.000060,0.000050,-0.000009,0.000065,0.000045,-31.158301,0.000111,
2326,2533,1.49412684729255,-2.52362101988504,-0.0232893884950727,0.007254,-0.089997,-0.004063,0.311900,-4.099910,322.566811,19.804957,0.999206,0.986502,0.004497,0.466038,0.000279,0.000183,0.000005,0.000279,0.000183,2.889479,0.000466,
2296,2398,0.864985352667762,-5.47401728699984,-0.0163372472800916,0.005630,-0.090016,-0.015570,0.276497,-4.155218,324.797313,19.566929,0.998924,0.985363,0.005104,0.420591,0.000444,0.000407,-0.000002,0.000444,0.000407,-2.491940,0.000851,
2266,2308,0.227666926737729,-7.44441102170359,-0.00976106437883573,0.005489,-0.091511,-0.017378,0.275023,-4.224943,326.343569,19.418127,0.998859,0.980872,0.005543,0.428568,0.000623,0.000593,0.000014,0.000628,0.000587,21.680298,0.001215,
2191,3298,-1.56970423852936,14.0971925872936,0.0112599490157663,0.012426,-0.088040,0.010075,0.509192,-4.007539,310.821209,20.925332,0.999775,0.996075,0.002785,0.399932,0.000013,0.000073,-0.000010,0.000075,0.000011,-80.442093,0.000093,
2236,2158,-0.403092489883537,-10.7295490834252,-0.0150572094926247,0.002606,-0.093209,-0.023488,0.161441,-4.340690,328.659342,19.241628,0.998030,0.981481,0.005657,0.374520,0.000996,0.001051,0.000037,0.001069,0.000977,63.502218,0.002047,
2431,3088,3.67983376200663,9.56095359774826,0.0315649796145863,0.011235,-0.089724,0.009677,0.443460,-4.057698,314.169839,21.528382,0.999655,0.992388,0.003623,0.441970,0.000035,0.000025,0.000041,0.000071,-0.000011,41.339185,0.000077,
2446,3223,3.9801172386629,12.4923178275716,0.0383206287589815,0.011897,-0.089638,0.011365,0.467182,-4.060853,312.060835,22.051477,0.999560,0.990798,0.003877,0.430291,0.000049,0.000010,0.000024,0.000061,-0.000002,25.198885,0.000069,
2506,2278,5.47488647918665,-8.10271507100221,-0.0026989479864028,0.008471,-0.093086,-0.009913,0.385396,-4.266158,327.194986,18.290590,0.998237,0.975835,0.005973,0.418518,0.000885,0.000680,-0.000134,0.000951,0.000613,-26.284123,0.001577,
2311,2473,1.17828303703354,-3.83591230644301,-0.0109624548869647,0.006218,-0.091025,-0.003820,0.263280,-4.140750,323.602775,19.664544,0.998939,0.985824,0.004836,0.458714,0.000353,0.000248,0.000002,0.000353,0.000248,1.021906,0.000604,
2071,2698,-4.08070365475032,1.06754780510795,-0.026831297483227,0.007537,-0.087381,-0.000257,0.318973,-3.970348,320.605083,20.344949,0.999271,0.990859,0.003913,0.482649,0.000129,0.000023,0.000015,0.000131,0.000021,7.702871,0.000165,
2131,2938,-2.81235774575331,6.28655315139521,0.00627342580509094,0.009972,-0.087367,0.003485,0.418583,-3.974279,316.793675,20.519403,0.999582,0.991667,0.003806,0.383790,0.000054,0.000022,-0.000009,0.000057,0.000020,-14.146390,0.000079,
2176,3178,-1.8722274920568,11.4924012440631,0.0574225302822811,0.011697,-0.088435,0.016646,0.455574,-4.000356,313.170351,20.694704,0.999772,0.995054,0.003058,0.464052,0.000015,0.000035,-0.000007,0.000038,0.000013,-72.562220,0.000052,
2161,3118,-2.18874886020858,10.1924003788301,0.0379803422670193,0.011151,-0.087862,0.010231,0.451218,-3.986358,314.036864,20.661036,0.999544,0.993164,0.003429,0.407723,0.000025,0.000009,-0.000020,0.000039,-0.000005,-34.123006,0.000042,
2251,2218,-0.0844605172155539,-9.41581691051488,-0.00761848133123522,0.004066,-0.092593,-0.022133,0.224589,-4.296077,327.788759,19.263897,0.998256,0.977261,0.006012,0.418018,0.000849,0.000867,0.000017,0.000877,0.000839,59.575309,0.001716,
2371,2773,2.42963129463572,2.71116656216552,-0.0232246487258863,0.008642,-0.089432,0.002088,0.353641,-4.058700,318.707538,20.454103,0.999309,0.989719,0.003998,0.442707,0.000088,0.000069,0.000025,0.000105,0.000052,34.491071,0.000160,
2221,2053,-0.713687406095019,-13.0355599713395,-0.0112086620878245,0.000801,-0.096657,-0.026037,0.085203,-4.517588,330.339717,19.003896,0.997758,0.976888,0.006222,0.363291,0.001253,0.001366,0.000042,0.001380,0.001239,71.854087,0.002620,
2056,2773,-4.41721442371018,2.69772708971021,-0.0162259425197817,0.007835,-0.087328,0.001163,0.329012,-3.979749,319.570618,20.340796,0.998976,0.988940,0.004282,0.453226,0.000096,0.000046,0.000005,0.000097,0.000045,5.141527,0.000145,
2146,3028,-2.50064081173858,8.23946800105578,0.0199357764724368,0.010654,-0.088196,0.009588,0.430783,-4.001432,315.392468,20.527808,0.999316,0.990884,0.003938,0.424654,0.000038,0.000016,-0.000018,0.000048,0.000006,-28.883552,0.000059,
2011,2623,-5.37354166936736,-0.566208910530591,-0.0300374705609556,0.006408,-0.086701,-0.001537,0.272074,-3.937109,322.101233,20.439513,0.999413,0.991107,0.003970,0.487169,0.000216,0.000014,0.000055,0.000230,-0.000001,14.323515,0.000265,
2491,2203,5.16345505861431,-9.7482226519027,-0.00395815756331785,0.008595,-0.094333,-0.020012,0.429036,-4.365211,328.398167,17.964078,0.997721,0.970707,0.006649,0.404358,0.001061,0.001012,-0.000169,0.001206,0.000866,-40.861822,0.002082,
2086,2773,-3.76546556994728,2.69968044089569,-0.0210309969016862,0.008831,-0.087959,0.004933,0.363043,-3.988729,319.402729,20.386709,0.999489,0.990719,0.004021,0.416263,0.000096,0.000048,-0.000006,0.000096,0.000047,-6.507384,0.000146,
2416,3043,3.36065980720629,8.58369903292018,0.0130717257878814,0.010672,-0.089550,0.007686,0.425537,-4.055494,314.712566,21.340094,0.999616,0.989829,0.003952,0.437110,0.000035,0.000025,0.000042,0.000072,-0.000012,41.561713,0.000077,
2341,2638,1.80192942911696,-0.232103874650271,-0.0213618712237462,0.007883,-0.089153,-0.003218,0.338065,-4.065091,320.900007,20.077119,0.999081,0.986138,0.004697,0.463750,0.000176,0.000107,0.000005,0.000176,0.000107,3.980930,0.000286,
2101,2863,-3.45285038283177,4.65639868728873,-0.0113733060944128,0.009509,-0.087352,0.003523,0.398078,-3.966861,317.982070,20.399217,0.999604,0.992136,0.003645,0.441287,0.000062,0.000038,-0.000010,0.000066,0.000034,-20.029759,0.000102,
2026,2623,-5.04721086765013,-0.565993210427237,-0.0289772198044034,0.006892,-0.087040,-0.001834,0.294753,-3.954533,322.037430,20.430692,0.998536,0.987070,0.004883,0.465383,0.000218,0.000029,0.000054,0.000232,0.000014,14.857621,0.000277,
2041,2698,-4.73247998807533,1.06684422358664,-0.0263126981723758,0.007510,-0.087651,0.004909,0.303963,-3.959732,320.763851,20.381498,0.999211,0.991328,0.003921,0.460755,0.000121,0.000007,0.000024,0.000125,0.000002,11.270259,0.000146,
2476,2113,4.85359598116469,-11.7243393480896,-0.0103065677204768,0.008328,-0.096598,-0.024911,0.433894,-4.499961,329.765121,17.560423,0.998570,0.974514,0.006478,0.392587,0.001357,0.001328,-0.000205,0.001548,0.001136,-42.959073,0.002695,
2116,2893,-3.13273172056121,5.30894112830511,-0.0163972183043484,0.009390,-0.087773,0.005755,0.385343,-3.988233,317.369596,20.399979,0.999320,0.991302,0.004141,0.447447,0.000056,0.000041,-0.000010,0.000060,0.000036,-26.207409,0.000097,
2281,2383,0.540672286277207,-5.80328114613705,-0.0131157911114315,0.005736,-0.091146,-0.009608,0.260852,-4.186155,325.068387,19.530397,0.998583,0.982136,0.005464,0.443476,0.000464,0.000435,0.000005,0.000465,0.000435,9.391603,0.000900,
2326,2548,1.49112863539799,-2.19618946589387,-0.0231682068206283,0.007271,-0.090064,-0.000894,0.301789,-4.077644,322.314279,19.826035,0.998747,0.984690,0.004928,0.502481,0.000263,0.000159,0.000011,0.000264,0.000158,5.747363,0.000427,
2356,2698,2.11723826243777,1.07560823109699,-0.0212633685532069,0.008296,-0.089838,0.001781,0.339004,-4.071760,319.926678,20.171159,0.999474,0.990438,0.003935,0.508855,0.000128,0.000116,0.000008,0.000132,0.000112,26.472895,0.000245,
2266,2323,0.224178000292152,-7.1152299572222,-0.00521507885611072,0.004841,-0.091435,-0.010509,0.222674,-4.176879,326.086079,19.541573,0.998455,0.978767,0.005953,0.381024,0.000595,0.000563,0.000014,0.000600,0.000558,20.510537,0.001158,
2401,2938,3.05303572199886,6.30064530842498,0.00385929863585943,0.009717,-0.089804,0.010915,0.370303,-4.046272,316.280674,20.921129,0.999518,0.990510,0.003932,0.502824,0.000038,0.000025,0.000031,0.000064,0.000000,38.997403,0.000074,
2386,2803,2.75004019119953,3.36442497687486,-0.0261403318849034,0.009031,-0.090387,0.007762,0.350354,-4.089354,318.199870,20.496268,0.999834,0.994750,0.003434,0.464990,0.000086,0.000062,0.000026,0.000103,0.000046,32.568764,0.000152,
2011,2638,-5.37588102834275,-0.239133149255593,-0.0348834391730861,0.006618,-0.086890,-0.001051,0.280348,-3.962312,321.826483,20.456117,0.998820,0.986337,0.004673,0.434163,0.000204,0.000019,0.000058,0.000220,0.000002,15.993956,0.000256,
2446,3238,3.97668814084098,12.8181881925459,0.0320146832615364,0.012077,-0.089666,0.012557,0.470985,-4.070428,311.765210,22.118735,0.999661,0.992611,0.003472,0.404426,0.000048,0.000006,0.000023,0.000058,-0.000004,23.520130,0.000065,
2371,2788,2.42753277394057,3.03847970500362,-0.0149565187159055,0.009003,-0.089462,0.005014,0.359853,-4.050250,318.538022,20.615882,0.999821,0.994129,0.003409,0.330348,0.000089,0.000067,0.000025,0.000106,0.000050,33.251641,0.000159,
2311,2488,1.17632940230424,-3.50839977371373,-0.00776102088826747,0.006679,-0.090620,-0.005169,0.289197,-4.134303,323.412319,19.716501,0.999113,0.986857,0.004548,0.446687,0.000331,0.000222,0.000001,0.000331,0.000222,0.377337,0.000556,
2476,2128,4.85129766724082,-11.3959390960822,-0.00431622738261694,0.008670,-0.096702,-0.024018,0.446140,-4.493079,329.585323,17.607242,0.998265,0.971692,0.006767,0.412081,0.001309,0.001284,-0.000193,0.001491,0.001103,-43.171988,0.002603,
2206,1993,-1.03090218509373,-14.3551474374566,-0.00537824554044164,0.000027,-0.098296,-0.031814,0.066967,-4.631563,331.372319,18.904880,0.999101,0.982870,0.005276,0.364422,0.001413,0.001444,0.000016,0.001450,0.001407,66.959391,0.002857,
2041,2713,-4.73474549535913,1.39404180884408,-0.0329982056150016,0.007802,-0.087406,0.002517,0.324142,-3.962861,320.484905,20.397442,0.998945,0.989705,0.004250,0.434586,0.000118,0.000011,0.000013,0.000120,0.000010,7.035428,0.000144,
2431,3103,3.67627295065496,9.88715653764863,0.0250674118276493,0.011217,-0.089896,0.010200,0.440588,-4.074597,313.866627,21.593801,0.999731,0.993720,0.003407,0.408934,0.000037,0.000022,0.000041,0.000071,-0.000012,40.057233,0.000076,
2176,3193,-1.87394209338352,11.8160686376528,0.0660508674003495,0.011621,-0.088036,0.011512,0.468087,-4.008959,313.010348,20.627265,0.999820,0.996321,0.002864,0.534326,0.000013,0.000035,-0.000007,0.000037,0.000011,-73.957229,0.000050,
2146,3043,-2.50353853643136,8.56503335169466,0.019201819769421,0.010392,-0.088378,0.010730,0.415252,-3.992794,315.126115,20.525264,0.999419,0.992654,0.003453,0.442730,0.000037,0.000013,-0.000021,0.000050,0.000001,-30.115247,0.000058,
2251,2233,-0.087550154980498,-9.08618589801772,-0.0165540622495541,0.004282,-0.092211,-0.021698,0.233254,-4.291540,327.480804,19.302609,0.998275,0.978845,0.005816,0.409957,0.000808,0.000819,0.000014,0.000828,0.000798,56.589959,0.001627,
2506,2293,5.47164221113758,-7.77379175165267,-0.00329958021035281,0.008292,-0.093049,-0.011196,0.382243,-4.263612,326.943682,18.376550,0.998482,0.976482,0.005983,0.398432,0.000841,0.000608,-0.000133,0.000901,0.000548,-24.334909,0.001464,
2056,2788,-4.41944511276585,3.02493621780933,-0.0209361919894491,0.008391,-0.087339,0.003802,0.347195,-3.966682,319.305539,20.381428,0.999147,0.989030,0.004178,0.420648,0.000085,0.000048,0.000001,0.000085,0.000048,1.585189,0.000135,
2236,2173,-0.405063821339031,-10.4011735928862,-0.0117749164958809,0.002906,-0.092935,-0.024818,0.179598,-4.350772,328.463367,19.286627,0.998021,0.983069,0.005560,0.342931,0.000961,0.001006,0.000036,0.001026,0.000941,60.957502,0.001968,
2491,2218,5.15954565754303,-9.41669381321061,-0.0112173316821895,0.008328,-0.093282,-0.020903,0.420706,-4.323909,328.085207,18.153726,0.998569,0.979767,0.005852,0.317954,0.001026,0.000951,-0.000154,0.001147,0.000830,-38.190391,0.001986,
2161,3133,-2.19140151287142,10.5170125659064,0.0394651819090654,0.011107,-0.088311,0.012679,0.441513,-3.999057,313.794906,20.628885,0.999479,0.992798,0.003600,0.436021,0.000023,0.000012,-0.000019,0.000037,-0.000002,-36.876883,0.000041,
2341,2653,1.79816215559883,0.0953075613039331,-0.0269177688174977,0.007763,-0.089877,0.002084,0.313849,-4.071281,320.585542,20.110234,0.999248,0.988269,0.004434,0.461733,0.000158,0.000099,0.000004,0.000159,0.000099,3.864285,0.000260,
2086,2788,-3.76766279156848,3.0252419163406,-0.0188133430781363,0.008760,-0.087585,0.003143,0.365067,-3.969414,319.179983,20.324732,0.999367,0.990069,0.004051,0.496555,0.000086,0.000049,-0.000007,0.000087,0.000048,-11.141345,0.000137,
2071,2713,-4.08284854598719,1.39481585496564,-0.0345189992970063,0.008260,-0.087447,0.000373,0.350440,-3.978667,320.328929,20.365061,0.999107,0.989648,0.004107,0.451437,0.000121,0.000026,0.000006,0.000122,0.000025,3.498295,0.000157,
2221,2068,-0.715931196570526,-12.7058102052183,-0.00867055421684881,0.001061,-0.096090,-0.024390,0.092063,-4.486034,330.126045,19.087727,0.998143,0.978286,0.006000,0.333286,0.001219,0.001312,0.000045,0.001331,0.001201,67.845123,0.002532,
2101,2878,-3.45556452765879,4.98186441477408,-0.0125089976160098,0.009353,-0.087507,0.004602,0.387641,-3.986030,317.718688,20.367047,0.999586,0.992087,0.003745,0.455283,0.000061,0.000049,-0.000009,0.000065,0.000045,-28.876701,0.000111,
2011,2653,-5.37787386608382,0.0872237892346988,-0.0399310175446317,0.007076,-0.086901,-0.002413,0.305124,-3.971395,321.566636,20.394384,0.998661,0.985494,0.004837,0.475421,0.000169,0.000033,0.000039,0.000179,0.000023,14.926399,0.000221,
2116,2908,-3.13427946510309,5.63396139560816,-0.00105256144240684,0.009523,-0.088018,0.009263,0.381062,-3.974388,317.249591,20.422040,0.999199,0.989733,0.004244,0.442056,0.000055,0.000025,-0.000010,0.000058,0.000022,-17.318015,0.000083,
2446,3253,3.97403796981674,13.1433619136966,0.0355871454757448,0.012074,-0.089556,0.011865,0.473537,-4.064235,311.551353,22.165841,0.999787,0.994122,0.003066,0.414146,0.000049,0.000017,0.000025,0.000062,0.000003,28.581379,0.000074,
2131,2953,-2.81487559403468,6.61159429667791,0.00723038418880151,0.010019,-0.087456,0.005820,0.413703,-3.974058,316.552889,20.464478,0.999601,0.991912,0.003611,0.444132,0.000051,0.000020,-0.000011,0.000055,0.000016,-18.123567,0.000074,
2476,2143,4.84825031425023,-11.0650253218692,-0.00457596008118344,0.008941,-0.095893,-0.021369,0.448875,-4.421887,329.342349,17.756621,0.997087,0.974927,0.006436,0.393708,0.001238,0.001230,-0.000179,0.001413,0.001055,-44.416836,0.002477,
2296,2413,0.862571054890747,-5.14586023449488,-0.0161774042003913,0.006119,-0.090073,-0.013038,0.290384,-4.161914,324.569706,19.638764,0.999068,0.986651,0.004869,0.373666,0.000416,0.000373,0.000003,0.000416,0.000373,3.314237,0.000789,
2326,2563,1.48838326061511,-1.86881396557368,-0.0209046042186287,0.007055,-0.090201,-0.002064,0.295844,-4.095417,322.083894,19.905579,0.998295,0.983191,0.005254,0.440430,0.000244,0.000167,0.000020,0.000249,0.000162,13.663583,0.000414,
2026,2638,-5.04902767185611,-0.240815794566373,-0.0193212037355579,0.006772,-0.087054,-0.001452,0.288116,-3.979438,321.869328,20.396019,0.998926,0.990191,0.004261,0.465689,0.000203,0.000026,0.000053,0.000217,0.000011,15.473315,0.000258,
2416,3058,3.35775116878741,8.90925803445581,0.0173516708687202,0.010773,-0.089881,0.012731,0.411565,-4.060951,314.489027,21.392605,0.999637,0.990668,0.003855,0.426021,0.000036,0.000028,0.000041,0.000073,-0.000009,42.421522,0.000079,
2206,2008,-1.03295259143805,-14.0269000854017,0.000952300180358634,0.000145,-0.098227,-0.030619,0.068596,-4.623436,331.186141,18.896340,0.998430,0.978064,0.006038,0.401252,0.001368,0.001438,0.000030,0.001449,0.001357,69.720129,0.002806,
2401,2953,3.04992595817196,6.62753813265321,-0.00342360277136322,0.009949,-0.089845,0.008866,0.388341,-4.069479,315.992449,21.006824,0.999515,0.991206,0.003916,0.439270,0.000039,0.000012,0.000034,0.000062,-0.000011,34.042772,0.000066,
2281,2398,0.537386924225721,-5.47437083649873,-0.0137218321503951,0.005519,-0.091245,-0.005245,0.236304,-4.153377,324.795572,19.619139,0.998950,0.984823,0.005177,0.417234,0.000440,0.000409,0.000005,0.000441,0.000408,9.734619,0.000849,
2506,2308,5.46887891090779,-7.44549903099212,-0.00306715542541269,0.008257,-0.092351,-0.015509,0.397614,-4.266935,326.718173,18.424175,0.998379,0.978556,0.005906,0.410535,0.000810,0.000568,-0.000124,0.000863,0.000516,-22.911524,0.001393,
2491,2233,5.15592359910363,-9.08860024545911,-0.0138075818773018,0.008271,-0.093674,-0.017820,0.406181,-4.327514,327.806800,18.128867,0.998666,0.979502,0.005977,0.400741,0.000991,0.000890,-0.000136,0.001086,0.000795,-34.811676,0.001889,
2056,2803,-4.42166798968792,3.35108874662667,-0.0213591160955389,0.008712,-0.087684,0.006792,0.353483,-3.963330,319.064816,20.372871,0.999243,0.990044,0.004060,0.426933,0.000090,0.000040,0.000001,0.000090,0.000040,0.826677,0.000133,
2041,2728,-4.73620248389708,1.71995406804425,-0.0283159009790097,0.008279,-0.087128,0.001256,0.349707,-3.951567,320.306370,20.377987,0.999212,0.990704,0.003850,0.457919,0.000113,0.000005,0.000014,0.000115,0.000003,7.072766,0.000135,
2266,2338,0.220811995756236,-6.78684132824605,-0.0135211383343972,0.004697,-0.091448,-0.011140,0.218140,-4.197777,325.770209,19.539035,0.998693,0.982357,0.005450,0.390369,0.000567,0.000536,0.000013,0.000571,0.000531,20.070200,0.001103,
2371,2803,2.424849934742,3.36267368509631,-0.00893855970423374,0.009073,-0.090328,0.009629,0.346339,-4.074375,318.331680,20.509492,0.999820,0.994516,0.003417,0.453519,0.000086,0.000065,0.000026,0.000104,0.000047,33.959794,0.000155,
2431,3118,3.67269061589748,10.21357495809,0.0186968176549271,0.011347,-0.090048,0.012949,0.436356,-4.079952,313.562848,21.673250,0.999814,0.994949,0.003139,0.373062,0.000039,0.000027,0.000042,0.000076,-0.000010,40.931058,0.000082,
2386,2818,2.74731150125018,3.69143969466376,-0.025133049739793,0.008997,-0.089889,0.006197,0.354650,-4.066696,317.967678,20.569151,0.999620,0.991410,0.003924,0.457981,0.000075,0.000060,0.000024,0.000092,0.000043,36.665136,0.000138,
2071,2728,-4.0846906355641,1.72074899166451,-0.0289875367507193,0.008412,-0.087310,0.000234,0.357833,-3.986306,320.139422,20.374029,0.998890,0.988507,0.004375,0.431653,0.000117,0.000017,0.000007,0.000117,0.000017,4.095110,0.000146,
2236,2188,-0.406868450383019,-10.0712744621975,-0.00982354440549216,0.003729,-0.092458,-0.022601,0.210321,-4.323563,328.267835,19.424248,0.998630,0.985134,0.005187,0.256236,0.000920,0.000966,0.000029,0.000979,0.000906,64.345199,0.001886,
2146,3058,-2.50564068543429,8.89018143756327,0.024913520113671,0.010414,-0.088119,0.010587,0.416752,-3.988654,314.930695,20.534816,0.999510,0.993939,0.003396,0.444349,0.000037,0.000016,-0.000021,0.000050,0.000004,-31.448502,0.000060,
2011,2668,-5.37949686561163,0.413113390065433,-0.0326179607272366,0.007313,-0.086955,-0.001443,0.313358,-3.969083,321.393194,20.386630,0.998798,0.987008,0.004535,0.473776,0.000145,0.000014,0.000034,0.000154,0.000006,13.815238,0.000181,
2221,2083,-0.718947978958202,-12.3761477932943,-0.0121590958159459,0.000602,-0.095259,-0.027963,0.082743,-4.468116,329.846322,19.115937,0.998255,0.978947,0.005986,0.345375,0.001182,0.001291,0.000041,0.001304,0.001168,71.461788,0.002474,
2446,3268,3.9695599158313,13.4691198699141,0.0173585177275299,0.012276,-0.089947,0.014253,0.473742,-4.083200,311.152039,22.174857,0.999732,0.993387,0.003236,0.437172,0.000046,0.000017,0.000018,0.000054,0.000009,25.315847,0.000068,
2086,2803,-3.76993228097648,3.35166899535739,-0.017003648536047,0.008713,-0.087646,0.002377,0.365151,-3.969424,318.951491,20.362416,0.999302,0.990138,0.003993,0.457847,0.000087,0.000044,-0.000006,0.000088,0.000043,-8.187205,0.000133,
2176,3208,-1.87755122751358,12.1435152053897,0.0479237062961602,0.011840,-0.088265,0.011810,0.477236,-4.013642,312.621329,20.751489,0.999633,0.994534,0.003209,0.416208,0.000014,0.000037,-0.000006,0.000038,0.000013,-75.683519,0.000053,
2101,2893,-3.45717406020471,5.30709775296998,-0.00634478287770435,0.009775,-0.087527,0.004715,0.406812,-3.976477,317.545500,20.342344,0.999355,0.991996,0.003938,0.490379,0.000057,0.000041,-0.000009,0.000062,0.000037,-24.046280,0.000099,
2116,2923,-3.1361298718257,5.95940521101961,-0.000713412488039467,0.009719,-0.087715,0.003411,0.407484,-3.994191,317.034923,20.411489,0.998909,0.987836,0.004514,0.435860,0.000056,0.000015,-0.000009,0.000058,0.000014,-11.524703,0.000076,
2311,2503,1.17368110349375,-3.18040352205539,-0.0137208124021981,0.007107,-0.090102,-0.006823,0.314718,-4.124093,323.144852,19.730157,0.999215,0.988152,0.004362,0.476541,0.000307,0.000216,0.000001,0.000307,0.000216,0.705604,0.000527,
2161,3148,-2.19431863015822,10.8422920047648,0.0348839947736224,0.011080,-0.088580,0.013238,0.438389,-4.029088,313.508500,20.642215,0.999462,0.992069,0.003745,0.401705,0.000024,0.000019,-0.000018,0.000040,0.000004,-40.589818,0.000048,
2251,2248,-0.0906372780557625,-8.75605667714311,-0.0143102402937529,0.004117,-0.092198,-0.015592,0.205790,-4.250535,327.229042,19.471895,0.997704,0.977034,0.006303,0.307586,0.000776,0.000759,0.000013,0.000783,0.000752,29.029705,0.001535,
2356,2713,2.11430960931215,1.40372051203313,-0.0229394467156681,0.008367,-0.089540,0.002073,0.341385,-4.061151,319.670326,20.303438,0.999451,0.990979,0.003801,0.426247,0.000117,0.000110,0.000013,0.000126,0.000100,37.917081,0.000227,
2476,2158,4.8449886247089,-10.7362546069393,-0.00305316201786354,0.008654,-0.095467,-0.020887,0.434144,-4.426551,329.098072,17.810680,0.997556,0.971963,0.006691,0.394545,0.001190,0.001153,-0.000186,0.001358,0.000984,-42.155623,0.002352,
2506,2323,5.46551888830777,-7.11709989334472,-0.00362231735931573,0.008367,-0.092194,-0.011888,0.388771,-4.225391,326.461472,18.434044,0.998337,0.982297,0.005488,0.505670,0.000764,0.000520,-0.000115,0.000810,0.000475,-21.622577,0.001299,
2131,2968,-2.81741236235435,6.93711476366538,0.00828294144304209,0.009894,-0.087898,0.005843,0.407707,-4.002689,316.311627,20.487058,0.999743,0.993924,0.003150,0.398016,0.000048,0.000017,-0.000015,0.000054,0.000011,-21.776219,0.000070,
2056,2818,-4.42366774269918,3.67705931295912,-0.0200018339085091,0.008870,-0.087409,0.005295,0.365097,-3.955435,318.844192,20.361091,0.999199,0.989195,0.004173,0.441196,0.000089,0.000044,0.000004,0.000089,0.000044,5.234135,0.000136,
2296,2428,0.860200820678013,-4.81806965864694,-0.0123071090303597,0.006471,-0.089980,-0.009224,0.293730,-4.120492,324.362312,19.669051,0.999341,0.988590,0.004482,0.416220,0.000398,0.000323,-0.000001,0.000398,0.000323,-0.770955,0.000723,
2026,2653,-5.05172590032602,0.086437109966063,-0.0271880147260504,0.006958,-0.087391,0.001025,0.289761,-3.985514,321.562563,20.389069,0.999111,0.990756,0.004023,0.457674,0.000169,0.000037,0.000040,0.000180,0.000026,15.456041,0.000224,
2341,2668,1.79570691607264,0.422026248319831,-0.0163519700878396,0.007866,-0.090398,0.009245,0.293436,-4.079761,320.409609,20.221681,0.999566,0.991279,0.004056,0.378827,0.000142,0.000098,0.000002,0.000143,0.000098,2.675462,0.000242,
2416,3073,3.35542454694188,9.23467916769624,0.0188717352655772,0.011071,-0.089738,0.010232,0.434528,-4.059155,314.279320,21.410697,0.999639,0.990926,0.003820,0.456635,0.000032,0.000032,0.000038,0.000070,-0.000007,45.074508,0.000077,
2041,2743,-4.73906700424385,2.04565401651156,-0.0249589657906881,0.007808,-0.087630,0.006188,0.314152,-3.959555,320.056176,20.351747,0.999363,0.991274,0.003846,0.468609,0.000105,0.000023,0.000016,0.000108,0.000020,10.575091,0.000137,
2491,2248,5.15254787193382,-8.76019545505731,-0.0133290265687265,0.008144,-0.093455,-0.015423,0.391341,-4.333044,327.553359,18.171534,0.998513,0.980035,0.005845,0.414036,0.000945,0.000826,-0.000131,0.001029,0.000742,-32.800475,0.001778,
2011,2683,-5.38138353316746,0.738339764307042,-0.0174117818645527,0.006985,-0.087242,0.002326,0.287936,-3.973282,321.252232,20.393325,0.999757,0.995770,0.002996,0.451019,0.000142,0.000012,0.000049,0.000158,-0.000005,18.375882,0.000180,
2071,2743,-4.08679732756132,2.04603957680983,-0.0233228368153959,0.008348,-0.087660,0.000996,0.352626,-3.994581,319.938742,20.329518,0.999196,0.990052,0.004092,0.464875,0.000112,0.000029,0.000010,0.000113,0.000027,6.467264,0.000149,
2206,2023,-1.03435568245111,-13.698061341786,0.00853662726802895,0.000877,-0.097929,-0.028719,0.096234,-4.597650,331.035806,18.942740,0.998093,0.979328,0.006001,0.400484,0.001330,0.001425,0.000037,0.001438,0.001318,70.959513,0.002756,
2386,2833,2.74421695686972,4.01832603735554,-0.0249991612814142,0.008748,-0.089833,0.005657,0.345208,-4.062321,317.714518,20.646207,0.999478,0.987419,0.004381,0.428521,0.000070,0.000058,0.000026,0.000091,0.000038,38.538525,0.000132,
2506,2338,5.46259069897298,-6.7876272822379,-0.00165907009539978,0.008381,-0.092108,-0.012131,0.390410,-4.219973,326.235757,18.608321,0.999045,0.986159,0.005140,0.399922,0.000730,0.000487,-0.000116,0.000776,0.000440,-21.833555,0.001232,
2281,2413,0.535185584537114,-5.14686968109915,-0.0126987793735225,0.005847,-0.090972,-0.006473,0.255585,-4.167768,324.580952,19.646398,0.999062,0.986698,0.004824,0.404766,0.000414,0.000375,0.000008,0.000416,0.000374,11.426635,0.000790,
2326,2578,1.48596401690541,-1.5411225448491,-0.0228563444338192,0.007287,-0.089528,-0.005794,0.319598,-4.089469,321.847714,19.957890,0.998992,0.987619,0.004456,0.429389,0.000236,0.000159,0.000021,0.000241,0.000154,14.392861,0.000398,
2401,2968,3.04852109737042,6.95290011351599,0.00953907700767331,0.010366,-0.089968,0.007956,0.410830,-4.064730,315.878580,21.069122,0.999756,0.994683,0.003411,0.426439,0.000036,0.000016,0.000039,0.000066,-0.000014,37.601245,0.000070,
2431,3133,3.67019648929884,10.538614408189,0.0236794446563522,0.011344,-0.089707,0.012017,0.439894,-4.054026,313.362409,21.668997,0.999676,0.992813,0.003441,0.452063,0.000044,0.000027,0.000038,0.000074,-0.000004,38.735101,0.000084,
2476,2173,4.84174268590624,-10.4063330571868,-0.00463448263576538,0.008497,-0.095003,-0.022256,0.432388,-4.414100,328.840226,17.924861,0.997503,0.963254,0.007230,0.352231,0.001133,0.001126,-0.000183,0.001313,0.000947,-44.471721,0.002270,
2266,2353,0.218242144199003,-6.45884597585243,-0.0139128891854625,0.005019,-0.091301,-0.008391,0.223925,-4.182409,325.530342,19.547973,0.998871,0.982700,0.005380,0.424230,0.000536,0.000490,0.000018,0.000542,0.000483,19.158800,0.001026,
2371,2818,2.42183268514083,3.68917094582526,-0.015143327014016,0.009311,-0.090069,0.008397,0.361742,-4.077031,318.050809,20.503604,0.999828,0.994838,0.003418,0.497974,0.000075,0.000065,0.000025,0.000096,0.000044,39.406465,0.000143,
2446,3283,3.96583868594025,13.7950043884061,0.00801337065519192,0.012315,-0.089955,0.014253,0.475510,-4.093074,310.828579,22.241206,0.999726,0.992584,0.003387,0.411552,0.000048,0.000008,0.000013,0.000052,0.000004,16.481779,0.000063,
2116,2938,-3.13872920476943,6.28581320276916,-0.00209805391517648,0.009742,-0.087464,0.004670,0.404934,-3.972307,316.776243,20.440126,0.999304,0.990153,0.004043,0.432107,0.000052,0.000019,-0.000008,0.000054,0.000017,-12.732993,0.000074,
2146,3073,-2.50850208489567,9.21608497477765,0.0187785004277998,0.010596,-0.088221,0.012444,0.419451,-4.002465,314.637185,20.558773,0.999710,0.995952,0.002984,0.413708,0.000034,0.000012,-0.000016,0.000042,0.000003,-27.955412,0.000051,
2221,2098,-0.720145501110043,-12.0477374793594,-0.0039844771434332,0.001727,-0.095221,-0.023235,0.119170,-4.415383,329.709301,19.128813,0.997800,0.978144,0.006258,0.406801,0.001146,0.001258,0.000038,0.001270,0.001134,72.946858,0.002405,
2176,3223,-1.87987961289303,12.4688330920345,0.0537979837401963,0.011742,-0.088196,0.012558,0.470508,-3.997013,312.418007,20.802329,0.999726,0.995008,0.003027,0.393032,0.000015,0.000039,-0.000007,0.000041,0.000013,-75.420127,0.000057,
2356,2728,2.11227628522307,1.72970342617799,-0.0136812539759603,0.008703,-0.089797,0.005202,0.345743,-4.052178,319.508228,20.334550,0.999373,0.990030,0.003974,0.443333,0.000106,0.000098,0.000021,0.000123,0.000080,39.809158,0.000205,
2311,2518,1.17031958162602,-2.85148386653151,-0.0207914515751781,0.006881,-0.089480,-0.008893,0.311668,-4.091581,322.838891,19.801958,0.999183,0.986444,0.004519,0.470969,0.000294,0.000208,0.000008,0.000295,0.000207,5.290364,0.000505,
2086,2818,-3.77207134188496,3.67808027986773,-0.0187087971381743,0.008926,-0.087339,0.000132,0.381538,-3.965889,318.709845,20.372429,0.999482,0.991899,0.003689,0.450365,0.000084,0.000045,-0.000004,0.000085,0.000045,-6.148968,0.000132,
2041,2758,-4.74061164240768,2.37063905911344,-0.0206481739523952,0.008255,-0.087701,0.005466,0.336733,-3.956412,319.871935,20.260178,0.999236,0.991067,0.004076,0.555868,0.000098,0.000026,0.000007,0.000099,0.000026,5.775216,0.000131,
2236,2203,-0.409214278104383,-9.74599684915299,-0.00406194234221857,0.003747,-0.092913,-0.019893,0.202249,-4.315682,328.067661,19.204402,0.999141,0.987828,0.004776,0.507560,0.000887,0.000915,0.000023,0.000927,0.000874,61.110987,0.001802,
2101,2908,-3.45933449503896,5.6327435884472,0.00477361868956905,0.009583,-0.087753,0.008711,0.386298,-3.943200,317.373711,20.371118,0.999239,0.991788,0.003991,0.495398,0.000055,0.000024,-0.000011,0.000059,0.000021,-17.073245,0.000082,
2161,3163,-2.19601518853,11.1678125608955,0.037863942731974,0.011534,-0.088081,0.010287,0.468619,-4.003778,313.317993,20.672511,0.999625,0.992788,0.003457,0.405808,0.000026,0.000029,-0.000016,0.000044,0.000011,-47.965815,0.000058,
2206,2038,-1.03796678150903,-13.3672406162097,-0.00069030466016784,0.000504,-0.097644,-0.027862,0.076536,-4.581795,330.697975,18.995411,0.997789,0.979200,0.006029,0.384487,0.001303,0.001382,0.000037,0.001396,0.001288,68.648600,0.002685,
2251,2263,-0.0925783033289207,-8.4289445590875,-0.00810730205625987,0.004407,-0.091974,-0.014898,0.216900,-4.225455,327.050240,19.426594,0.998793,0.983241,0.005348,0.403444,0.000736,0.000708,0.000010,0.000740,0.000705,17.948054,0.001444,
2056,2833,-4.42581800366519,4.00320601023042,-0.0166906809620286,0.008790,-0.087059,0.004274,0.364344,-3.958469,318.627431,20.395334,0.998889,0.986243,0.004598,0.398292,0.000082,0.000043,-0.000002,0.000082,0.000043,-2.333032,0.000128,
2296,2443,0.856207153977511,-4.49166987327366,-0.0206657304719897,0.006214,-0.091079,-0.003837,0.263378,-4.151655,324.020518,19.534416,0.999476,0.988679,0.004405,0.551449,0.000387,0.000286,0.000008,0.000388,0.000285,4.386111,0.000676,
2506,2353,5.45982730447977,-6.45969856151837,0.000253280928461663,0.008506,-0.091856,-0.012868,0.399145,-4.206056,326.017442,18.637051,0.999065,0.985169,0.005267,0.448047,0.000699,0.000468,-0.000117,0.000748,0.000419,-22.671501,0.001182,
2491,2263,5.15053821818803,-8.4312405038123,-0.00876135523321864,0.008838,-0.093255,-0.015524,0.423625,-4.300912,327.380653,18.273570,0.998236,0.979195,0.005624,0.404970,0.000908,0.000743,-0.000133,0.000982,0.000669,-29.097098,0.001661,
2476,2188,4.83887144996919,-10.0768346038499,-0.00258407854420284,0.008302,-0.094159,-0.024888,0.433840,-4.385199,328.615851,18.027836,0.997817,0.969206,0.006950,0.337659,0.001091,0.001099,-0.000172,0.001267,0.000923,-45.716703,0.002199,
2446,3298,3.96270249648468,14.1197862612143,0.00645068028342166,0.012419,-0.089791,0.015713,0.474946,-4.081977,310.568426,22.231678,0.999685,0.993153,0.003375,0.482944,0.000051,-0.000008,0.000014,0.000054,-0.000012,12.511378,0.000057,
2416,3088,3.3529170442435,9.56056698605458,0.0229835648046333,0.011203,-0.089716,0.010479,0.439708,-4.066500,314.073239,21.501304,0.999658,0.992087,0.003642,0.405311,0.000034,0.000024,0.000037,0.000066,-0.000008,41.237030,0.000071,
2341,2683,1.79292552111786,0.748863186287032,-0.0230953571885379,0.008212,-0.090452,0.006607,0.318526,-4.092376,320.134693,20.208157,0.999590,0.991064,0.003968,0.416783,0.000134,0.000105,0.000002,0.000134,0.000105,4.417536,0.000239,
2281,2428,0.533106618434978,-4.81929214732516,-0.00800511920834879,0.006400,-0.090898,-0.002675,0.268335,-4.136479,324.389999,19.674556,0.999332,0.989060,0.004436,0.437085,0.000394,0.000327,0.000003,0.000394,0.000327,2.682999,0.000723,
2146,3088,-2.5106387165825,9.54198519277594,0.0224852666706283,0.010784,-0.088150,0.013233,0.425833,-3.977431,314.429233,20.611213,0.999649,0.994779,0.003180,0.393158,0.000028,0.000008,-0.000020,0.000040,-0.000004,-31.593603,0.000044,
2011,2698,-5.38361650583868,1.06496192406649,-0.0188707692994399,0.007048,-0.086860,0.001812,0.292333,-3.964164,321.001486,20.380769,0.999790,0.995655,0.002972,0.460880,0.000131,0.000002,0.000033,0.000138,-0.000006,13.482794,0.000156,
2401,2983,3.04543752189312,7.27896508072428,0.00848306698833312,0.010422,-0.089835,0.009649,0.407335,-4.064893,315.621028,21.107361,0.999685,0.991942,0.003715,0.432847,0.000035,0.000020,0.000037,0.000065,-0.000010,39.185990,0.000070,
2071,2758,-4.08955946020448,2.37260367332584,-0.0256635917461949,0.008157,-0.087809,0.002129,0.340537,-3.992798,319.663801,20.332283,0.999290,0.991398,0.003915,0.460878,0.000104,0.000036,0.000004,0.000104,0.000036,3.577904,0.000145,
2026,2668,-5.05370979778623,0.412679969418313,-0.0292812158301103,0.007213,-0.087223,-0.001430,0.308268,-3.999996,321.321012,20.351594,0.999081,0.990531,0.004025,0.471293,0.000149,0.000016,0.000035,0.000158,0.000008,13.811128,0.000187,
2386,2848,2.74231224690307,4.34405509149791,-0.0191126385223015,0.009147,-0.089673,0.004044,0.369435,-4.060771,317.543652,20.666959,0.999443,0.988959,0.004142,0.452443,0.000065,0.000057,0.000032,0.000093,0.000029,41.378883,0.000128,
2116,2953,-3.14076564905574,6.61163294546314,0.00168685561675375,0.010149,-0.087518,0.008317,0.412915,-3.956605,316.571406,20.461370,0.999506,0.991000,0.003761,0.429342,0.000050,0.000017,-0.000010,0.000053,0.000014,-15.994362,0.000071,
2131,2983,-2.81966545375704,7.26245278005946,0.00950850337113707,0.010238,-0.087892,0.008876,0.414520,-3.982817,316.084300,20.449692,0.999709,0.993915,0.003227,0.460318,0.000045,0.000019,-0.000015,0.000052,0.000012,-24.502201,0.000067,
2236,2218,-0.412389559393127,-9.41542237955591,-0.00900659928868208,0.003793,-0.092911,-0.016298,0.192767,-4.298259,327.774303,19.351616,0.998609,0.982661,0.005348,0.401773,0.000848,0.000863,0.000025,0.000881,0.000830,53.719153,0.001712,
2431,3148,3.66704851436279,10.8649550785917,0.0176453878174812,0.011384,-0.089374,0.008626,0.454403,-4.056875,313.080066,21.749639,0.999623,0.993108,0.003376,0.417565,0.000042,0.000028,0.000043,0.000079,-0.000009,40.340410,0.000087,
2266,2368,0.215982084116867,-6.12964511691229,-0.0202979503293363,0.005887,-0.090816,-0.008470,0.264202,-4.166098,325.274372,19.612985,0.998721,0.982998,0.005342,0.403072,0.000504,0.000460,0.000016,0.000509,0.000455,17.985754,0.000965,
2176,3238,-1.88240467164945,12.7937470816977,0.0498116897355771,0.012096,-0.088035,0.013024,0.485486,-3.985208,312.153988,20.767791,0.999717,0.994573,0.003105,0.450415,0.000016,0.000034,-0.000006,0.000035,0.000014,-73.561090,0.000051,
2311,2533,1.16769163523516,-2.52466129452696,-0.0194230086090101,0.007070,-0.089921,-0.006715,0.312764,-4.110431,322.608592,19.814200,0.999253,0.987967,0.004344,0.473156,0.000276,0.000185,0.000003,0.000276,0.000185,1.760956,0.000463,
2326,2593,1.48328352494217,-1.21340885458205,-0.0267372745063312,0.007715,-0.089145,-0.005407,0.338081,-4.073908,321.590043,19.990958,0.999505,0.991406,0.003838,0.447316,0.000225,0.000130,0.000020,0.000229,0.000126,11.562787,0.000360,
2506,2368,5.4567433583748,-6.13151066466288,-0.00342312147711255,0.008866,-0.091325,-0.012612,0.414896,-4.188755,325.759383,18.636542,0.998100,0.979568,0.006113,0.528783,0.000664,0.000439,-0.000119,0.000715,0.000388,-23.303918,0.001119,
2491,2278,5.14747820250572,-8.10242153679417,-0.00433856044639924,0.008592,-0.093231,-0.014459,0.408337,-4.278831,327.159073,18.376522,0.998756,0.980462,0.005402,0.385108,0.000865,0.000677,-0.000118,0.000922,0.000620,-25.803341,0.001552,
2011,2713,-5.38636780942221,1.39245063763995,-0.0274232822911813,0.007094,-0.086818,0.002563,0.292478,-3.940698,320.686920,20.380641,0.999676,0.994259,0.003386,0.473183,0.000125,-0.000004,0.000022,0.000129,-0.000008,9.552027,0.000144,
2101,2923,-3.46163575684345,5.95845290548268,0.00250419347651132,0.009696,-0.087852,0.006288,0.398474,-3.977140,317.123093,20.379756,0.999146,0.990192,0.004126,0.453746,0.000056,0.000012,-0.000009,0.000058,0.000010,-11.590098,0.000073,
2056,2848,-4.42779535046268,4.32880085650208,-0.0185786671741539,0.009120,-0.087089,0.001886,0.386268,-3.965707,318.390126,20.348018,0.999217,0.990112,0.004012,0.433174,0.000071,0.000034,-0.000010,0.000073,0.000031,-13.770191,0.000107,
2251,2278,-0.0950106195085105,-8.10072309742971,-0.00960679909036344,0.004686,-0.091758,-0.015312,0.231095,-4.230143,326.810036,19.438605,0.999202,0.984595,0.004988,0.412297,0.000708,0.000673,0.000016,0.000714,0.000667,20.906429,0.001382,
2461,1993,4.55135433456249,-14.3643644977495,-0.00252531032765546,0.008469,-0.100245,-0.032823,0.467692,-4.737015,331.765588,17.067779,0.997846,0.966386,0.007127,0.273666,0.001899,0.001443,-0.000173,0.001958,0.001385,-18.589408,0.003359,
2221,2113,-0.723067379650335,-11.7192048251512,-0.00360045969216571,0.001399,-0.095108,-0.022407,0.101586,-4.436113,329.454011,19.145794,0.998161,0.980147,0.005828,0.391125,0.001107,0.001218,0.000037,0.001229,0.001096,73.090153,0.002326,
2476,2203,4.83600624927826,-9.74747927045118,-0.00633004611182741,0.009012,-0.093860,-0.022502,0.457447,-4.357643,328.365494,18.063219,0.997580,0.969321,0.006843,0.389232,0.001044,0.000998,-0.000158,0.001181,0.000861,-40.911312,0.002050,
2371,2833,2.4184103632671,4.0174117003067,-0.0210320774674528,0.008972,-0.089449,0.005162,0.357971,-4.050592,317.752246,20.636722,0.999629,0.990558,0.003946,0.432324,0.000071,0.000063,0.000027,0.000094,0.000039,41.219042,0.000137,
2356,2743,2.10922276750572,2.05615059131765,-0.0141291453222721,0.008304,-0.089567,0.002337,0.337588,-4.061567,319.252392,20.352478,0.999544,0.990828,0.003756,0.455021,0.000096,0.000094,0.000025,0.000119,0.000070,43.799634,0.000191,
2206,2053,-1.04143547090493,-13.0359905308037,-0.00590782033867754,0.000318,-0.097461,-0.022437,0.050950,-4.539105,330.387010,19.112054,0.997082,0.975914,0.006501,0.331164,0.001266,0.001358,0.000043,0.001375,0.001249,68.572926,0.002626,
2416,3103,3.35028617105946,9.88649222890715,0.0239931462015761,0.011247,-0.089559,0.008065,0.450669,-4.068235,313.846843,21.573622,0.999788,0.994608,0.003259,0.378023,0.000037,0.000025,0.000037,0.000068,-0.000007,40.334407,0.000075,
2041,2773,-4.74333653465956,2.69847126855199,-0.0270092583177188,0.008097,-0.087316,0.003373,0.335395,-3.956360,319.573588,20.353253,0.999073,0.990172,0.004104,0.455528,0.000091,0.000045,0.000005,0.000091,0.000044,6.584387,0.000138,
2281,2443,0.529687878331895,-4.49145290843118,-0.0145937119688142,0.006050,-0.090778,-0.004208,0.257403,-4.143199,324.081512,19.663297,0.999443,0.989101,0.004396,0.471069,0.000379,0.000292,0.000008,0.000380,0.000291,5.380673,0.000673,
2431,3163,3.66480762493544,11.1901827932053,0.0268175313720462,0.011552,-0.089390,0.010834,0.453997,-4.048870,312.910627,21.813064,0.999610,0.992071,0.003585,0.411030,0.000040,0.000030,0.000042,0.000077,-0.000007,41.454776,0.000085,
2086,2833,-3.77468618985693,4.00393197142644,-0.012908770664751,0.008545,-0.087507,0.003482,0.354215,-3.965554,318.487448,20.395692,0.999759,0.994598,0.003100,0.426229,0.000077,0.000041,-0.000007,0.000078,0.000040,-10.635193,0.000120,
2341,2698,1.7909505809357,1.07479938866451,-0.0166831783951125,0.008348,-0.089924,0.003854,0.334600,-4.066167,319.960686,20.186428,0.999618,0.992226,0.003846,0.501663,0.000124,0.000111,0.000008,0.000128,0.000107,25.861700,0.000235,
2026,2683,-5.05740060605783,0.741688380924451,-0.04432059821346,0.006884,-0.087373,0.001683,0.284614,-3.977388,320.928212,20.428955,0.999732,0.995688,0.003068,0.407751,0.000142,0.000011,0.000045,0.000156,-0.000003,17.193728,0.000178,
2176,3253,-1.88566904402855,13.1191425628713,0.0403731533355085,0.012035,-0.088094,0.012791,0.483377,-3.995267,311.827132,20.773288,0.999725,0.994628,0.003122,0.445913,0.000017,0.000034,-0.000004,0.000035,0.000016,-78.735425,0.000052,
2161,3178,-2.19831786483629,11.4924959940253,0.0446766393306461,0.011581,-0.088286,0.014132,0.458962,-3.997241,313.120223,20.670744,0.999603,0.991158,0.003633,0.422976,0.000023,0.000034,-0.000014,0.000043,0.000014,-56.141286,0.000060,
2491,2293,5.14422152907302,-7.77428108010969,-0.00657522433033364,0.008590,-0.092971,-0.014672,0.409219,-4.273110,326.898646,18.371169,0.998742,0.980664,0.005437,0.457434,0.000825,0.000614,-0.000120,0.000879,0.000560,-24.240663,0.001451,
2071,2773,-4.09129471665298,2.69872953381012,-0.0197318007517424,0.008369,-0.087569,0.001544,0.352060,-3.992243,319.481356,20.365541,0.999236,0.989939,0.004112,0.425123,0.000099,0.000047,0.000002,0.000099,0.000047,2.076985,0.000149,
2461,2008,4.54859481697696,-14.0346497588309,0.00109083049329683,0.008752,-0.100032,-0.029178,0.467065,-4.678115,331.552951,17.114272,0.997882,0.971764,0.006751,0.344353,0.001832,0.001439,-0.000183,0.001904,0.001367,-21.473297,0.003285,
2101,2938,-3.46390116677347,6.28467621385892,0.000621479782523693,0.009882,-0.087548,0.004812,0.411507,-3.968106,316.875971,20.400100,0.999218,0.990110,0.004091,0.443237,0.000051,0.000016,-0.000008,0.000053,0.000015,-12.335288,0.000071,
2401,2998,3.04252104316882,7.60609258809378,0.00248690168137955,0.010619,-0.089463,0.006005,0.429738,-4.071305,315.347468,21.220384,0.999597,0.989658,0.004002,0.358433,0.000034,0.000019,0.000037,0.000064,-0.000010,39.293630,0.000069,
2011,2728,-5.38824142366802,1.71850487149858,-0.0269751484141807,0.007404,-0.086668,0.001995,0.308344,-3.936219,320.463551,20.345905,0.999450,0.992240,0.003789,0.500615,0.000120,-0.000012,0.000024,0.000125,-0.000016,10.047769,0.000135,
2386,2863,2.74032890746651,4.67017824979239,-0.0094084952492608,0.009601,-0.089613,0.007902,0.376475,-4.043666,317.387134,20.740330,0.999430,0.989137,0.004020,0.438962,0.000060,0.000062,0.000034,0.000094,0.000027,45.942725,0.000128,
2056,2863,-4.42953368255376,4.65395435922419,-0.0101802219039087,0.009199,-0.087134,0.001807,0.390133,-3.967605,318.220660,20.335733,0.999220,0.990887,0.003937,0.437612,0.000066,0.000034,-0.000006,0.000067,0.000032,-10.572235,0.000101,
2476,2218,4.83267928273079,-9.41734129159349,-0.00627817896497618,0.008903,-0.093330,-0.020693,0.445902,-4.315097,328.110894,18.200707,0.998600,0.979048,0.006016,0.353647,0.001002,0.000944,-0.000150,0.001125,0.000820,-39.539026,0.001953,
2146,3103,-2.51279157187715,9.8660289091971,0.0271402506128879,0.010840,-0.087995,0.013285,0.428330,-3.970359,314.226265,20.520082,0.999835,0.996304,0.002731,0.498212,0.000022,0.000007,-0.000019,0.000035,-0.000007,-34.365336,0.000037,
2236,2233,-0.415529518935674,-9.08565206654266,-0.0169176060317113,0.003921,-0.092410,-0.014873,0.194228,-4.270777,327.467538,19.390648,0.998517,0.983436,0.005217,0.414047,0.000807,0.000816,0.000024,0.000836,0.000788,50.557916,0.001624,
2506,2383,5.45295505076074,-5.80207269507331,-0.00548828985671435,0.008496,-0.091380,-0.011235,0.392660,-4.209873,325.476051,18.810244,0.997836,0.979593,0.005900,0.397157,0.000623,0.000408,-0.000133,0.000686,0.000344,-25.512056,0.001049,
2116,2968,-3.14282685011853,6.93640611838378,0.00706198321404372,0.010031,-0.087830,0.005809,0.414724,-3.995361,316.374433,20.455309,0.999645,0.992357,0.003447,0.399500,0.000049,0.000013,-0.000014,0.000054,0.000008,-19.437422,0.000067,
2326,2608,1.4804046699069,-0.886530029961847,-0.0238514219941521,0.007844,-0.089934,0.000368,0.323828,-4.081259,321.356497,20.033940,0.999344,0.988973,0.004204,0.432053,0.000210,0.000117,0.000019,0.000214,0.000113,10.979846,0.000332,
2131,2998,-2.82168131620117,7.58760406792121,0.0110693383062994,0.010387,-0.087421,0.005636,0.431278,-3.971996,315.869735,20.410364,0.999708,0.993971,0.003305,0.515378,0.000041,0.000017,-0.000015,0.000049,0.000010,-25.637722,0.000063,
2296,2458,0.854331752567099,-4.16132544511748,-0.0276513693099787,0.007101,-0.089869,-0.010506,0.327045,-4.119226,323.781581,19.715996,0.999150,0.987035,0.004720,0.433784,0.000365,0.000263,0.000011,0.000366,0.000262,5.933240,0.000631,
2461,2023,4.54517346056329,-13.7037317927716,-0.000777604841630364,0.008651,-0.099492,-0.027734,0.457322,-4.640840,331.285030,17.235146,0.998426,0.977748,0.006079,0.319129,0.001761,0.001440,-0.000188,0.001848,0.001353,-24.734342,0.003214,
2356,2758,2.10562101307449,2.38444406551866,-0.0288963829644899,0.008632,-0.089177,0.001612,0.355382,-4.044988,318.901803,20.405357,0.999294,0.989326,0.004033,0.458001,0.000093,0.000083,0.000030,0.000118,0.000058,40.051729,0.000180,
2311,2548,1.16461223455093,-2.19711800896064,-0.0201947652337253,0.007203,-0.090169,-0.001427,0.300770,-4.092861,322.346753,19.841797,0.998939,0.985557,0.004858,0.496288,0.000260,0.000162,0.000008,0.000261,0.000162,4.899911,0.000426,
2026,2698,-5.05953652359669,1.06737413619454,-0.042566962748765,0.006884,-0.087188,0.001313,0.285661,-3.975805,320.701303,20.366596,0.999783,0.995503,0.003042,0.462132,0.000128,0.000003,0.000029,0.000134,-0.000003,12.384831,0.000153,
2266,2383,0.213191272770135,-5.80159805863162,-0.0238838236015795,0.006008,-0.090662,-0.008687,0.270529,-4.159702,325.008325,19.615430,0.998027,0.979419,0.005778,0.434418,0.000472,0.000441,0.000013,0.000477,0.000436,19.623588,0.000913,
2371,2848,2.4156714177781,4.34385969286934,-0.0222429993441438,0.008950,-0.089049,0.001997,0.368392,-4.053180,317.507942,20.674162,0.999542,0.989719,0.003998,0.433291,0.000065,0.000063,0.000033,0.000096,0.000031,43.978465,0.000133,
2041,2788,-4.74505760862022,3.02494363928621,-0.0234141942423776,0.008490,-0.087148,0.003796,0.352358,-3.948048,319.376857,20.395886,0.999180,0.988437,0.004138,0.413608,0.000081,0.000051,0.000003,0.000081,0.000050,6.047729,0.000133,
2011,2743,-5.39080239373161,2.04653490870084,-0.0368059583546483,0.007770,-0.086876,0.003521,0.320982,-3.942477,320.150439,20.425589,0.999480,0.992415,0.003607,0.403003,0.000108,0.000009,0.000024,0.000114,0.000004,13.112193,0.000133,
2176,3268,-1.88926785053008,13.4445576208564,0.0280245832417449,0.012035,-0.088395,0.015458,0.474961,-4.010910,311.469560,20.775156,0.999611,0.993756,0.003282,0.438930,0.000019,0.000051,-0.000003,0.000051,0.000019,-84.619798,0.000072,
2206,2068,-1.04223590782521,-12.7078356975507,0.00173462715139294,0.001403,-0.096744,-0.024038,0.105968,-4.513807,330.264577,19.112577,0.998077,0.978996,0.006012,0.375197,0.001232,0.001309,0.000051,0.001335,0.001206,63.435314,0.002542,
2431,3178,3.66256580508656,11.5145324626023,0.0346157556141407,0.011664,-0.089726,0.011014,0.458341,-4.072550,312.734980,21.821528,0.999622,0.991504,0.003619,0.427537,0.000045,0.000034,0.000039,0.000079,0.000000,41.261671,0.000091,
2491,2308,5.14092521072452,-7.44433566376809,-0.00710710224399236,0.008253,-0.092169,-0.016863,0.402536,-4.248201,326.643680,18.534359,0.998019,0.978847,0.005881,0.380531,0.000802,0.000568,-0.000112,0.000847,0.000523,-21.859995,0.001382,
2416,3118,3.34744715454927,10.2119142892563,0.0282790066871144,0.011293,-0.089863,0.011550,0.439874,-4.078493,313.626325,21.632368,0.999818,0.995016,0.003083,0.355701,0.000039,0.000029,0.000039,0.000073,-0.000005,41.235769,0.000081,
2476,2233,4.82944922071056,-9.08984089261727,-0.00847503490638246,0.008519,-0.093536,-0.025420,0.446176,-4.371195,327.851205,18.177635,0.998636,0.980619,0.005924,0.379872,0.000961,0.000885,-0.000136,0.001064,0.000781,-37.197607,0.001853,
2401,3013,3.0396209476208,7.93131444555625,0.0057526807381123,0.010560,-0.089841,0.008253,0.418786,-4.071990,315.118873,21.219479,0.999527,0.988930,0.004066,0.403425,0.000034,0.000020,0.000035,0.000063,-0.000009,39.377593,0.000068,
2161,3193,-2.20088114683909,11.817102760149,0.0419026828533333,0.011512,-0.088211,0.010541,0.466807,-4.013257,312.859837,20.630896,0.999634,0.993621,0.003256,0.455663,0.000020,0.000033,-0.000015,0.000043,0.000010,-56.962913,0.000057,
2341,2713,1.78757376950209,1.40308253825584,-0.0275723657352955,0.008346,-0.089480,0.000229,0.347320,-4.069790,319.637832,20.273254,0.999297,0.989427,0.004161,0.448617,0.000113,0.000106,0.000014,0.000124,0.000095,37.858178,0.000219,
2251,2293,-0.0980368434360663,-7.77191190066052,-0.0116805859962028,0.004522,-0.091202,-0.014212,0.220201,-4.206953,326.539489,19.476393,0.999000,0.982684,0.005201,0.423321,0.000673,0.000638,0.000022,0.000684,0.000627,26.061189,0.001312,
2086,2848,-3.77662509387362,4.328782135975,-0.00564712925580579,0.008656,-0.087332,0.005435,0.353721,-3.960415,318.304319,20.336582,0.999630,0.993225,0.003421,0.489360,0.000069,0.000034,-0.000012,0.000073,0.000030,-17.513646,0.000106,
2386,2878,2.73757138861621,4.99690666724521,-0.00979419354797528,0.009673,-0.089675,0.006626,0.384376,-4.050206,317.146890,20.821816,0.999408,0.991214,0.003827,0.394126,0.000052,0.000056,0.000035,0.000089,0.000019,46.513238,0.000115,
2071,2788,-4.09311135494529,3.02426924293139,-0.0168706895904052,0.008715,-0.087413,0.001339,0.368652,-3.980010,319.278541,20.313146,0.999190,0.988699,0.004230,0.486426,0.000088,0.000048,-0.000002,0.000088,0.000048,-2.142033,0.000138,
2281,2458,0.527518285412597,-4.16235362479041,-0.0195491683214755,0.006589,-0.089867,-0.009097,0.298866,-4.100447,323.837942,19.738878,0.999554,0.990117,0.004278,0.467638,0.000355,0.000269,0.000009,0.000356,0.000268,6.211971,0.000626,
2506,2398,5.4484767198264,-5.47315039468081,-0.0148299591761543,0.008177,-0.092036,-0.008364,0.366717,-4.224581,325.128532,18.865902,0.997982,0.982770,0.005445,0.389796,0.000595,0.000370,-0.000129,0.000654,0.000311,-24.494307,0.000985,
2041,2803,-4.74712611996755,3.3505257483132,-0.0229390332136745,0.008706,-0.087230,0.003927,0.361899,-3.963746,319.147266,20.360679,0.999391,0.990214,0.003809,0.425477,0.000085,0.000038,0.000003,0.000086,0.000038,3.528434,0.000126,
2056,2878,-4.4319939052913,4.97969938459174,-0.00826444320068731,0.009163,-0.087245,0.005045,0.379345,-3.952874,317.982155,20.316793,0.999127,0.989702,0.004208,0.465438,0.000065,0.000051,-0.000005,0.000066,0.000049,-18.997510,0.000116,
2101,2953,-3.46651128278199,6.61072004499068,-0.00170464754938848,0.010016,-0.087576,0.007425,0.410008,-3.961467,316.610701,20.407753,0.999399,0.990905,0.003835,0.443000,0.000049,0.000013,-0.000011,0.000052,0.000010,-15.215951,0.000067,
2221,2128,-0.724771635733685,-11.3890756838732,-0.0030138267275106,0.002079,-0.093642,-0.024460,0.139791,-4.368197,329.254727,19.227230,0.997804,0.979719,0.005866,0.399478,0.001070,0.001183,0.000037,0.001194,0.001060,73.487048,0.002255,
2026,2713,-5.06107411357934,1.394038878876,-0.0400002616686947,0.007392,-0.087007,0.000127,0.312411,-3.946081,320.505972,20.376769,0.999647,0.994276,0.003417,0.472150,0.000123,0.000005,0.000017,0.000125,0.000002,8.209612,0.000146,
2011,2758,-5.39255913808087,2.37168333221926,-0.031882052676508,0.008021,-0.086993,0.004413,0.330088,-3.945111,319.957897,20.359808,0.999365,0.991660,0.003802,0.454217,0.000106,0.000008,0.000013,0.000108,0.000006,7.387593,0.000128,
2146,3118,-2.51466019837082,10.1916970425389,0.0322837750162535,0.010890,-0.087605,0.009345,0.442734,-3.963839,314.038368,20.585341,0.999644,0.994490,0.003209,0.446356,0.000022,0.000013,-0.000019,0.000037,-0.000002,-38.411069,0.000041,
2131,3013,-2.82377493609396,7.91393171834178,0.0136260176509495,0.010576,-0.087486,0.005085,0.441721,-3.960995,315.656524,20.489653,0.999331,0.991073,0.003847,0.452000,0.000041,0.000015,-0.000018,0.000050,0.000006,-26.977954,0.000062,
2461,2038,4.54247204951524,-13.3737160250416,-0.000923635483559337,0.009052,-0.098576,-0.027074,0.473607,-4.588392,331.057816,17.283658,0.998527,0.978499,0.006105,0.381048,0.001680,0.001418,-0.000185,0.001775,0.001323,-27.353551,0.003109,
2296,2473,0.850829273680208,-3.8346301124722,-0.0207953026653627,0.006371,-0.090575,-0.003035,0.268068,-4.120472,323.537289,19.731170,0.998356,0.981734,0.005538,0.448683,0.000344,0.000248,0.000011,0.000345,0.000247,6.384126,0.000594,
2116,2983,-3.14425914436847,7.26077754641752,0.0185985610368107,0.010429,-0.087703,0.007728,0.427478,-3.972107,316.239538,20.396117,0.999724,0.993592,0.003224,0.484689,0.000045,0.000014,-0.000015,0.000051,0.000008,-22.174100,0.000064,
2236,2248,-0.417521544024407,-8.7577059872721,-0.00801701596066096,0.004149,-0.092146,-0.011370,0.193452,-4.234296,327.298883,19.433072,0.998434,0.981447,0.005569,0.431467,0.000771,0.000760,0.000025,0.000791,0.000740,38.568382,0.001531,
2371,2863,2.41337568579608,4.66972808755213,-0.0146696177620811,0.009215,-0.089289,0.005578,0.367758,-4.046671,317.326149,20.718935,0.999465,0.990405,0.003929,0.435808,0.000061,0.000065,0.000033,0.000096,0.000030,47.009205,0.000131,
2311,2563,1.16175442245121,-1.87039800819702,-0.0147611954171794,0.006875,-0.090615,0.000930,0.277485,-4.103317,322.125794,19.881514,0.998847,0.986532,0.004774,0.479089,0.000240,0.000171,0.000016,0.000244,0.000168,12.356472,0.000414,
2176,3283,-1.89176332031037,13.7700080528965,0.0242997860073615,0.012258,-0.088091,0.013735,0.490786,-3.994712,311.207993,20.800950,0.999685,0.994742,0.003059,0.440416,0.000018,0.000060,-0.000004,0.000060,0.000018,-85.076916,0.000082,
2491,2323,5.13722393943931,-7.11499175481888,-0.012301645355933,0.008519,-0.092259,-0.011675,0.394894,-4.215535,326.349136,18.593674,0.998123,0.980188,0.005725,0.415111,0.000761,0.000519,-0.000100,0.000797,0.000483,-19.846902,0.001293,
2356,2773,2.10322197173427,2.71107627929689,-0.0240532867199477,0.008582,-0.089125,0.000023,0.358776,-4.038518,318.701329,20.476008,0.999422,0.990155,0.003844,0.432736,0.000087,0.000071,0.000029,0.000109,0.000049,37.171847,0.000162,
2506,2413,5.44657431885681,-5.14497557702658,-0.0141300905094113,0.008747,-0.090691,-0.015159,0.419676,-4.188230,324.943896,18.903580,0.998753,0.982866,0.005351,0.451094,0.000561,0.000332,-0.000107,0.000603,0.000290,-21.546620,0.000912,
2431,3193,3.66034334335597,11.8395114162136,0.0402318626832994,0.011880,-0.089892,0.010035,0.471884,-4.082083,312.549791,21.863806,0.999563,0.990779,0.003757,0.424383,0.000049,0.000035,0.000036,0.000079,0.000005,39.538579,0.000094,
2266,2398,0.210420523665071,-5.47304045669804,-0.0260318531675807,0.005721,-0.090172,-0.013445,0.273252,-4.155244,324.750275,19.685825,0.998760,0.984855,0.005062,0.395869,0.000448,0.000409,0.000016,0.000454,0.000404,19.756689,0.000858,
2086,2863,-3.77861140670754,4.65557992191012,-0.0103945061424042,0.009186,-0.087413,0.002616,0.386299,-3.964264,318.053024,20.379466,0.999392,0.990898,0.003959,0.441410,0.000065,0.000035,-0.000011,0.000069,0.000031,-18.107203,0.000102,
2341,2728,1.78493778740081,1.73084044994809,-0.028939741631234,0.008682,-0.089440,0.000818,0.360713,-4.067849,319.395243,20.389010,0.999113,0.987855,0.004409,0.371512,0.000103,0.000095,0.000021,0.000120,0.000077,39.440969,0.000199,
2416,3133,3.34434984370148,10.5360011493442,0.0289320480691231,0.011131,-0.089995,0.012105,0.430462,-4.059968,313.377213,21.520201,0.999837,0.995130,0.002993,0.533336,0.000043,0.000030,0.000035,0.000072,0.000000,39.816301,0.000084,
2206,2083,-1.04539237482158,-12.3771964005198,-0.0102457204756092,0.001362,-0.095661,-0.027665,0.115914,-4.492517,329.933260,19.131741,0.998274,0.977906,0.006045,0.397796,0.001194,0.001290,0.000050,0.001312,0.001172,66.891856,0.002485,
2476,2248,4.82669740103669,-8.76229359376956,-0.00330708179728845,0.008669,-0.093233,-0.022060,0.440470,-4.361261,327.646368,18.174078,0.998540,0.980312,0.005794,0.452235,0.000917,0.000813,-0.000132,0.001006,0.000723,-34.215887,0.001737,
2041,2818,-4.74933883030293,3.67595290087505,-0.0172036214158879,0.008613,-0.087418,0.006558,0.350250,-3.955856,318.940275,20.332238,0.999242,0.989930,0.003992,0.453945,0.000081,0.000041,0.000007,0.000082,0.000040,9.299327,0.000125,
2326,2623,1.4782754942278,-0.560744266832145,-0.0185745149090053,0.007791,-0.089762,-0.003682,0.335439,-4.095110,321.169257,20.007719,0.999294,0.988223,0.004310,0.479236,0.000191,0.000112,0.000009,0.000192,0.000111,6.127399,0.000306,
2401,3028,3.03708756856282,8.25707664840365,0.00804584747697845,0.010706,-0.089519,0.007483,0.428420,-4.062339,314.902339,21.255125,0.999563,0.988966,0.004100,0.422254,0.000037,0.000018,0.000034,0.000063,-0.000008,37.407501,0.000069,
2071,2803,-4.09584021680754,3.35091716832627,-0.0198257915294562,0.008731,-0.087828,0.004531,0.360158,-3.979568,319.001761,20.333566,0.999289,0.989861,0.004081,0.463288,0.000092,0.000042,-0.000001,0.000092,0.000042,-1.036827,0.000137,
2101,2968,-3.46849671837053,6.93537919281134,0.00906826177794073,0.009823,-0.088077,0.008248,0.398498,-3.997722,316.445565,20.426047,0.999606,0.990911,0.003651,0.388883,0.000048,0.000010,-0.000015,0.000053,0.000005,-19.092158,0.000064,
2221,2143,-0.72687837700693,-11.0604094944047,-0.00373239013168813,0.002765,-0.094001,-0.022008,0.163269,-4.382611,329.030984,19.248707,0.998260,0.981753,0.005583,0.385280,0.001036,0.001112,0.000043,0.001131,0.001017,65.719917,0.002149,
2011,2773,-5.39448042966663,2.69824726044104,-0.0305246018672278,0.008074,-0.086642,0.001068,0.341708,-3.943541,319.737367,20.395503,0.999474,0.991202,0.003881,0.408305,0.000103,0.000030,0.000007,0.000103,0.000029,5.586092,0.000139,
2056,2893,-4.43434562131898,5.30613670204021,-0.00477486446106923,0.009097,-0.087069,0.007543,0.369326,-3.935331,317.757085,20.374094,0.999405,0.992179,0.003835,0.419964,0.000056,0.000043,-0.000012,0.000063,0.000036,-30.660447,0.000100,
2251,2308,-0.100021745837434,-7.44351555677136,-0.0123986631403454,0.004899,-0.090754,-0.018764,0.252554,-4.195803,326.323550,19.507084,0.998430,0.978908,0.005711,0.429185,0.000632,0.000591,0.000023,0.000642,0.000581,23.623658,0.001224,
2386,2893,2.73488912130192,5.32279008944285,-0.0117371469164596,0.009692,-0.089175,0.002245,0.401221,-4.039161,316.902840,20.800993,0.999425,0.991833,0.003787,0.469141,0.000047,0.000047,0.000038,0.000085,0.000009,44.922092,0.000104,
2026,2728,-5.06224481416754,1.7192194425974,-0.0275325820713306,0.007800,-0.086844,0.001113,0.328513,-3.943148,320.383232,20.361299,0.999479,0.992064,0.003740,0.480788,0.000117,-0.000001,0.000018,0.000119,-0.000003,8.490413,0.000136,
2161,3208,-2.20271631313696,12.1423034873929,0.0474960584263613,0.011871,-0.087956,0.010782,0.482685,-4.007067,312.676907,20.676381,0.999516,0.994003,0.003241,0.425160,0.000020,0.000035,-0.000015,0.000044,0.000011,-58.367244,0.000058,
2461,2053,4.53885725509035,-13.045896779248,0.00601863782168266,0.008029,-0.099448,-0.025528,0.420727,-4.655613,330.821727,17.336541,0.998360,0.979493,0.006027,0.318650,0.001608,0.001403,-0.000186,0.001718,0.001293,-30.531726,0.003021,
2281,2473,0.524201976387527,-3.83515465317676,-0.0184155951529306,0.006215,-0.090115,-0.004637,0.266727,-4.092223,323.572590,19.737009,0.999248,0.988529,0.004519,0.506626,0.000334,0.000254,0.000009,0.000335,0.000253,6.107404,0.000590,
2176,3298,-1.89481055958932,14.0954247631878,0.0148667246832019,0.012332,-0.087930,0.012219,0.498983,-3.988932,310.891033,20.807521,0.999800,0.996299,0.002619,0.450414,0.000018,0.000072,-0.000007,0.000073,0.000017,-82.933805,0.000096,
2506,2428,5.44387496111031,-4.81801328576832,-0.00174926513562923,0.008702,-0.091311,-0.008189,0.390497,-4.176865,324.774887,18.970718,0.998436,0.980599,0.005764,0.457845,0.000532,0.000303,-0.000082,0.000558,0.000276,-17.798322,0.000850,
2266,2413,0.208520386384272,-5.1470792953403,-0.0124405584590477,0.005744,-0.090450,-0.010075,0.263075,-4.153853,324.611503,19.676651,0.998897,0.986258,0.004813,0.432975,0.000424,0.000379,0.000018,0.000430,0.000372,19.405788,0.000803,
2116,2998,-3.14734777412232,7.5872317728199,0.0110438616779902,0.010229,-0.087649,0.006818,0.421013,-3.968066,315.925220,20.420654,0.999506,0.992186,0.003549,0.467240,0.000042,0.000013,-0.000015,0.000048,0.000007,-22.726279,0.000060,
2296,2488,0.848717242608924,-3.50713165136929,-0.0212965434628813,0.006771,-0.090009,-0.006422,0.298081,-4.119312,323.320161,19.753669,0.999132,0.987828,0.004544,0.458441,0.000323,0.000223,0.000007,0.000323,0.000223,4.230271,0.000549,
2041,2833,-4.75137605843067,4.00200826868767,-0.0164065881676834,0.008731,-0.087262,0.004788,0.360664,-3.961053,318.713771,20.340686,0.998941,0.987878,0.004331,0.432650,0.000073,0.000044,-0.000001,0.000073,0.000044,-1.163348,0.000118,
2491,2338,5.13378104555029,-6.78619087059675,-0.00821327174503494,0.007964,-0.091981,-0.010023,0.363334,-4.207338,326.108199,18.725284,0.998690,0.985083,0.005426,0.352349,0.000726,0.000492,-0.000098,0.000762,0.000457,-19.977061,0.001231,
2311,2578,1.15836897499715,-1.54074151091699,-0.0286857632983128,0.007092,-0.089960,-0.001812,0.297120,-4.082207,321.784696,19.993561,0.999422,0.990587,0.003978,0.421727,0.000231,0.000164,0.000018,0.000235,0.000159,14.238583,0.000397,
2431,3208,3.65699146892253,12.1649682170587,0.0398565632426653,0.011873,-0.089927,0.014264,0.455878,-4.080790,312.284412,21.907725,0.999526,0.989251,0.004075,0.430273,0.000049,0.000028,0.000029,0.000069,0.000008,34.928303,0.000085,
2146,3133,-2.51680643331713,10.5159605815947,0.036386271798392,0.011164,-0.088043,0.011957,0.447278,-3.984770,313.832720,20.545449,0.999504,0.993191,0.003553,0.472145,0.000021,0.000015,-0.000018,0.000036,0.000000,-39.747664,0.000041,
2026,2743,-5.06442461744447,2.04493607418165,-0.0219151989377906,0.007848,-0.087373,0.005983,0.317193,-3.954578,320.175984,20.357538,0.999211,0.990256,0.004132,0.463259,0.000107,0.000021,0.000020,0.000111,0.000017,12.514170,0.000139,
2131,3028,-2.82628377363647,8.23914051274851,0.0188497939683998,0.010630,-0.087624,0.011507,0.424896,-3.953305,315.438917,20.490864,0.999432,0.991509,0.003752,0.463436,0.000040,0.000015,-0.000018,0.000050,0.000005,-27.739567,0.000061,
2011,2788,-5.39624809519201,3.02406869696235,-0.0244625981505919,0.008176,-0.086287,0.000663,0.347630,-3.923762,319.550516,20.385736,0.999408,0.991098,0.003911,0.425592,0.000102,0.000038,0.000004,0.000102,0.000038,3.666282,0.000145,
2371,2878,2.41090987365484,4.99608036674056,-0.0109601349848276,0.009321,-0.089600,0.005395,0.373129,-4.070734,317.117912,20.813594,0.999437,0.992563,0.003712,0.357660,0.000053,0.000058,0.000033,0.000088,0.000022,47.092223,0.000117,
2236,2263,-0.419836246938214,-8.42882217401583,-0.00815026553010512,0.004187,-0.091761,-0.015127,0.207454,-4.227589,327.069557,19.502624,0.998843,0.982840,0.005410,0.391924,0.000733,0.000707,0.000023,0.000746,0.000693,30.528641,0.001440,
2341,2743,1.78264260176512,2.05610844772892,-0.022249595622327,0.008671,-0.089526,0.000609,0.360967,-4.065869,319.207962,20.345058,0.999394,0.989826,0.004047,0.454144,0.000094,0.000091,0.000024,0.000116,0.000068,43.452390,0.000187,
2416,3148,3.34239857751914,10.8614820498802,0.0399169479799752,0.011385,-0.090006,0.013795,0.435906,-4.068655,313.228879,21.630415,0.999735,0.994012,0.003182,0.460852,0.000042,0.000032,0.000041,0.000078,-0.000004,41.456476,0.000088,
2251,2323,-0.103252478052656,-7.11445147129815,-0.0159990007012993,0.004922,-0.090747,-0.013820,0.237478,-4.150157,326.035727,19.541229,0.998385,0.981632,0.005548,0.466204,0.000605,0.000560,0.000021,0.000614,0.000551,21.795359,0.001166,
2476,2263,4.82341425256857,-8.43225509241499,-2.30091346793415E-05,0.008548,-0.092699,-0.017695,0.418655,-4.292518,327.408038,18.324874,0.998432,0.979336,0.005640,0.429179,0.000881,0.000736,-0.000136,0.000962,0.000654,-30.965837,0.001627,
2101,2983,-3.47090930340885,7.26066879493978,0.0123344496184359,0.009832,-0.088157,0.011370,0.389768,-3.982147,316.219905,20.401862,0.999607,0.992455,0.003460,0.429160,0.000045,0.000010,-0.000016,0.000051,0.000004,-21.580939,0.000061,
2191,1993,-1.35845121675821,-14.3548249664799,-0.00377612629642954,-0.000257,-0.098098,-0.033182,0.057594,-4.631635,331.417436,19.020380,0.999170,0.984642,0.005205,0.355208,0.001423,0.001428,0.000021,0.001446,0.001405,48.419073,0.002851,
2056,2908,-4.43617696316666,5.63166490979498,-0.00632892072707136,0.009568,-0.086878,0.005294,0.397460,-3.937825,317.528400,20.335172,0.999469,0.991966,0.003699,0.450800,0.000054,0.000021,-0.000017,0.000061,0.000014,-23.093663,0.000080,
2086,2878,-3.78074278224139,4.98060718156459,-0.00697263035630158,0.009287,-0.087501,0.003529,0.388211,-3.985861,317.840186,20.342465,0.999317,0.991261,0.003991,0.455631,0.000064,0.000048,-0.000011,0.000069,0.000043,-26.912409,0.000113,
2281,2488,0.520864008088459,-3.5083420573535,-0.0233642649786248,0.006099,-0.090124,-0.002370,0.253819,-4.112242,323.276085,19.676860,0.999463,0.990607,0.004227,0.575973,0.000313,0.000230,0.000004,0.000313,0.000230,2.773756,0.000545,
2221,2158,-0.729795610749317,-10.7303355432209,-0.00822535594727469,0.002602,-0.093099,-0.023917,0.162211,-4.346831,328.750407,19.313786,0.998421,0.983733,0.005482,0.377907,0.001003,0.001052,0.000046,0.001080,0.000976,59.016863,0.002056,
2386,2908,2.73123743322249,5.6496831617788,-0.0158919746256743,0.009756,-0.089545,0.008460,0.381706,-4.039160,316.603358,20.872856,0.999376,0.990303,0.003995,0.440217,0.000040,0.000033,0.000038,0.000075,-0.000002,42.495651,0.000086,
2461,2068,4.53725935054535,-12.7161927685772,0.0102305627797818,0.009009,-0.097974,-0.026814,0.471020,-4.586563,330.664705,17.398850,0.998404,0.979442,0.006034,0.382797,0.001539,0.001392,-0.000183,0.001663,0.001268,-34.053628,0.002940,
2071,2818,-4.09777293083875,3.67714060017651,-0.0179310727475581,0.008814,-0.087105,0.000917,0.374521,-3.961576,318.788135,20.339247,0.999420,0.990563,0.004042,0.472553,0.000091,0.000045,0.000001,0.000091,0.000045,1.368151,0.000139,
2401,3043,3.03501356128748,8.58237622205279,0.0160634424005366,0.010793,-0.089423,0.005914,0.438210,-4.062168,314.734081,21.299024,0.999648,0.990465,0.003856,0.423048,0.000034,0.000025,0.000036,0.000066,-0.000007,41.551783,0.000073,
2206,2098,-1.04775051951906,-12.0476808997774,-0.00618839255594139,0.001598,-0.095320,-0.022819,0.111510,-4.436879,329.720828,19.197142,0.998340,0.980934,0.005782,0.407957,0.001156,0.001258,0.000048,0.001277,0.001137,68.303369,0.002415,
2326,2638,1.47506557883289,-0.233004664940815,-0.0221373411058039,0.007859,-0.089894,-0.000808,0.328614,-4.088518,320.888705,20.069527,0.999148,0.987676,0.004417,0.459294,0.000174,0.000109,0.000006,0.000175,0.000109,4.867583,0.000286,
2506,2443,5.44002688050648,-4.48962260562136,-0.00638526437199971,0.008295,-0.091362,-0.009012,0.374998,-4.198348,324.477101,19.045202,0.998650,0.981244,0.005539,0.424520,0.000506,0.000268,-0.000067,0.000524,0.000250,-14.718436,0.000790,
2011,2803,-5.39861761429237,3.34918220490933,-0.0250931744186573,0.008399,-0.087093,0.005727,0.343901,-3.948063,319.298886,20.307015,0.999436,0.991745,0.003747,0.468102,0.000111,0.000014,0.000009,0.000111,0.000013,5.335317,0.000137,
2491,2353,5.13133388227254,-6.45840527626849,-0.0102187710118073,0.008142,-0.090738,-0.017404,0.400273,-4.173917,325.885560,18.683267,0.998511,0.984820,0.005630,0.488836,0.000693,0.000473,-0.000097,0.000730,0.000436,-20.701140,0.001178,
2356,2788,2.10094793654345,3.03678314492335,-0.0187614442114636,0.008871,-0.089402,0.001692,0.366043,-4.055994,318.509000,20.492772,0.999646,0.992973,0.003548,0.437209,0.000087,0.000069,0.000032,0.000111,0.000045,37.381582,0.000160,
2266,2428,0.20607481321683,-4.8184349830425,-0.0151100614546635,0.006318,-0.090205,-0.007974,0.282606,-4.120908,324.365554,19.731044,0.999035,0.987308,0.004638,0.438618,0.000404,0.000332,0.000012,0.000406,0.000330,9.378565,0.000737,
2041,2848,-4.75323039517134,4.32856753635101,-0.0267675829933864,0.009516,-0.086654,-0.000211,0.410902,-3.964376,318.433573,20.314173,0.999154,0.989950,0.004099,0.448302,0.000061,0.000034,-0.000010,0.000065,0.000031,-17.830899,0.000098,
2296,2503,0.844884933990127,-3.17747451357276,-0.0281577474750634,0.006434,-0.089612,-0.003049,0.271418,-4.072730,322.992035,19.875963,0.999594,0.992113,0.003862,0.414242,0.000302,0.000217,0.000005,0.000302,0.000217,3.255688,0.000521,
2431,3223,3.6538379724954,12.4905814878249,0.0405212790006431,0.011571,-0.089975,0.013407,0.445194,-4.074847,312.032893,21.971245,0.999524,0.990616,0.003857,0.421231,0.000047,0.000017,0.000025,0.000062,0.000002,29.246907,0.000073,
2191,2008,-1.360778112619,-14.0258970764837,-0.00738514687407132,0.000262,-0.098249,-0.031689,0.076603,-4.610905,331.165958,18.947781,0.998613,0.981646,0.005780,0.466842,0.001374,0.001422,0.000038,0.001443,0.001353,60.858203,0.002796,
2116,3013,-3.14932579661791,7.91215148082611,0.0176972552760617,0.010338,-0.087688,0.007743,0.423321,-3.964855,315.738869,20.405420,0.998979,0.988404,0.004232,0.488394,0.000042,0.000012,-0.000019,0.000051,0.000003,-25.611723,0.000060,
2476,2278,4.81893918208961,-8.10190719508815,-0.00714476582652424,0.008047,-0.093033,-0.014041,0.381824,-4.300988,327.068181,18.480493,0.999070,0.979984,0.005484,0.324612,0.000837,0.000679,-0.000122,0.000903,0.000612,-28.583136,0.001525,
2026,2758,-5.06631218904376,2.37068476048418,-0.0188876990920335,0.008109,-0.087439,0.006908,0.326651,-3.946358,319.967638,20.320317,0.998968,0.989810,0.004296,0.498926,0.000102,0.000023,0.000010,0.000103,0.000022,7.462000,0.000134,
2146,3148,-2.51970684131867,10.841637391628,0.0318113051371256,0.011142,-0.087904,0.012754,0.443832,-3.990148,313.545744,20.570760,0.999533,0.992530,0.003566,0.448028,0.000023,0.000019,-0.000018,0.000039,0.000003,-42.018299,0.000047,
2161,3223,-2.20510596632299,12.467004027633,0.0540192201155492,0.011792,-0.088127,0.013678,0.470194,-3.992587,312.473607,20.675934,0.999636,0.994276,0.003130,0.448707,0.000020,0.000037,-0.000015,0.000046,0.000011,-59.895589,0.000061,
2311,2593,1.15663118896115,-1.21443791996165,-0.0217539047607147,0.007491,-0.089356,-0.003126,0.320158,-4.058995,321.622402,19.983642,0.999491,0.991125,0.003850,0.487518,0.000218,0.000132,0.000016,0.000221,0.000129,10.121547,0.000354,
2131,3043,-2.8283145353587,8.56434169968766,0.0238670768225688,0.010674,-0.087879,0.010211,0.430719,-3.966293,315.242181,20.513869,0.999423,0.992335,0.003619,0.432226,0.000040,0.000013,-0.000022,0.000052,0.000001,-29.095516,0.000061,
2056,2923,-4.43814993039496,5.95667084102056,-0.000957290675728473,0.009685,-0.087208,0.006461,0.399403,-3.957812,317.331662,20.319605,0.999537,0.992272,0.003585,0.440424,0.000051,0.000008,-0.000015,0.000056,0.000003,-17.428998,0.000066,
2371,2893,2.40859545670973,5.3212534306422,-0.00785755604937322,0.009523,-0.089317,0.004010,0.387500,-4.056409,316.913936,20.760760,0.999402,0.991322,0.003847,0.465881,0.000046,0.000048,0.000035,0.000082,0.000013,45.567191,0.000102,
2416,3163,3.33961858345216,11.1871507475737,0.0391674302733236,0.011478,-0.089829,0.012100,0.446490,-4.069497,312.987180,21.681861,0.999684,0.993111,0.003347,0.455066,0.000040,0.000033,0.000040,0.000077,-0.000003,42.155969,0.000086,
2251,2338,-0.106316116358965,-6.78669942814103,-0.0146204155224154,0.004604,-0.091289,-0.010970,0.213361,-4.196776,325.781258,19.602174,0.998560,0.983345,0.005408,0.384065,0.000575,0.000529,0.000018,0.000581,0.000523,19.426131,0.001105,
2086,2893,-3.78247452390791,5.30636035190489,-0.00592789390395865,0.009854,-0.087686,0.003051,0.415730,-3.987438,317.632460,20.338630,0.999275,0.992806,0.003875,0.456494,0.000058,0.000040,-0.000013,0.000065,0.000033,-27.549335,0.000100,
2101,2998,-3.47317296969642,7.58734897602353,0.00520430805022443,0.010146,-0.087394,0.006509,0.418806,-3.957253,315.944274,20.429299,0.999613,0.992775,0.003437,0.427572,0.000042,0.000009,-0.000015,0.000047,0.000003,-20.872432,0.000057,
2281,2503,0.518598936256456,-3.17804150778178,-0.0233868357561846,0.006495,-0.089647,-0.003185,0.274936,-4.073243,323.052343,19.927543,0.999592,0.991670,0.003976,0.393291,0.000293,0.000223,0.000002,0.000294,0.000223,1.662920,0.000519,
2236,2278,-0.422953284976419,-8.1001682318885,-0.0148656398054641,0.004217,-0.091843,-0.014223,0.205888,-4.235866,326.770156,19.504732,0.998945,0.983615,0.005142,0.405166,0.000703,0.000666,0.000025,0.000715,0.000653,26.606238,0.001369,
2341,2758,1.77995862067028,2.38283622515529,-0.0182305152427489,0.008626,-0.089242,0.002288,0.353172,-4.044678,318.989416,20.398492,0.999427,0.990184,0.004059,0.458704,0.000093,0.000082,0.000028,0.000116,0.000059,39.465314,0.000178,
2011,2818,-5.40094602011962,3.6744760706583,-0.0235933451917276,0.008449,-0.087444,0.009272,0.336475,-3.951362,319.061025,20.244643,0.999113,0.990708,0.003905,0.515157,0.000108,0.000011,0.000016,0.000110,0.000009,9.085477,0.000132,
2431,3238,3.65028956591016,12.8164927593364,0.0312248252598692,0.011782,-0.089677,0.013848,0.453434,-4.066152,311.716559,22.006734,0.999581,0.992109,0.003592,0.443551,0.000045,0.000011,0.000023,0.000057,-0.000001,26.437539,0.000065,
2506,2458,5.43636096980722,-4.16077484155272,-0.0149824105420748,0.008443,-0.091320,-0.009393,0.383363,-4.184609,324.169731,19.094996,0.998887,0.984875,0.004949,0.451281,0.000486,0.000254,-0.000065,0.000503,0.000237,-14.644291,0.000755,
2041,2863,-4.75542081718531,4.65372289620096,-0.0135841345850736,0.009147,-0.087070,0.004844,0.379720,-3.958657,318.269103,20.330289,0.999203,0.990038,0.004216,0.429855,0.000057,0.000033,-0.000006,0.000058,0.000031,-13.312848,0.000091,
2296,2518,0.841837205348764,-2.85010687132486,-0.0340424844529252,0.006492,-0.089526,-0.003810,0.276706,-4.081939,322.705322,19.858681,0.999541,0.990977,0.003935,0.453604,0.000290,0.000207,0.000009,0.000291,0.000206,6.278148,0.000499,
2401,3058,3.03190663775743,8.90834659831175,0.018858737993753,0.010722,-0.089571,0.010099,0.419737,-4.048213,314.493332,21.360017,0.999728,0.991720,0.003639,0.420733,0.000035,0.000029,0.000036,0.000068,-0.000004,42.564740,0.000077,
2461,2083,4.53312889571061,-12.3859959518244,0.00560266447746471,0.008552,-0.098320,-0.023849,0.438929,-4.593262,330.351695,17.489517,0.998322,0.978242,0.006207,0.343634,0.001475,0.001377,-0.000181,0.001613,0.001239,-37.429861,0.002860,
2386,2923,2.72923201066946,5.97481473148426,-0.00539182103511848,0.009931,-0.089812,0.009865,0.384559,-4.062800,316.449734,20.915592,0.999304,0.989311,0.004167,0.416365,0.000038,0.000032,0.000032,0.000066,0.000003,42.296114,0.000078,
2056,2938,-4.44045009649463,6.28187402946356,0.00267566182776591,0.009605,-0.087457,0.007970,0.391336,-3.973720,317.110279,20.309307,0.999351,0.991446,0.003742,0.428951,0.000046,0.000013,-0.000011,0.000050,0.000010,-16.716966,0.000064,
2071,2833,-4.100020840563,4.00293818500818,-0.00793254838788471,0.008616,-0.087667,0.005872,0.351040,-3.979411,318.604696,20.406932,0.999418,0.991192,0.003789,0.383250,0.000086,0.000041,-0.000003,0.000086,0.000041,-4.338088,0.000130,
2491,2368,5.12751234548813,-6.12962066233587,-0.0124239326564179,0.008112,-0.091337,-0.011327,0.375434,-4.190636,325.598910,18.786533,0.997524,0.982463,0.005877,0.429480,0.000655,0.000444,-0.000095,0.000691,0.000408,-20.980852,0.001111,
2206,2113,-1.0503622227721,-11.7183246019268,-0.00759459527353101,0.001457,-0.094353,-0.025141,0.112740,-4.409877,329.468871,19.221944,0.998394,0.982837,0.005336,0.430161,0.001117,0.001217,0.000048,0.001236,0.001098,68.094961,0.002335,
2476,2293,4.81580858870702,-7.77484365709024,-0.00636864551717053,0.007954,-0.092800,-0.013393,0.375232,-4.279401,326.825875,18.391199,0.999090,0.981429,0.005401,0.494463,0.000800,0.000618,-0.000123,0.000862,0.000556,-26.825741,0.001429,
2326,2653,1.47095952566605,0.0952812666422389,-0.0304023470035304,0.007370,-0.089855,0.001838,0.297104,-4.064303,320.543809,20.129673,0.999141,0.988806,0.004325,0.458545,0.000158,0.000101,0.000005,0.000158,0.000101,4.988012,0.000261,
2266,2443,0.203028335044444,-4.48967518551712,-0.0174876568185596,0.005756,-0.089742,-0.013015,0.273632,-4.135309,324.093642,19.851447,0.999412,0.988550,0.004466,0.331189,0.000383,0.000300,0.000015,0.000386,0.000297,9.993963,0.000685,
2356,2803,2.09852854633216,3.36219721406988,-0.00970219899744507,0.008789,-0.089770,0.004202,0.353302,-4.067082,318.328164,20.508997,0.999797,0.994348,0.003406,0.448588,0.000083,0.000067,0.000031,0.000107,0.000043,37.983765,0.000155,
2026,2773,-5.06877646858369,2.69870646000356,-0.0288029099563687,0.008312,-0.087104,0.003411,0.345736,-3.949323,319.659985,20.405416,0.999337,0.991160,0.004048,0.401614,0.000099,0.000043,0.000008,0.000100,0.000042,8.227386,0.000146,
2221,2173,-0.731915369562323,-10.4017109754253,-0.0100629538376324,0.002870,-0.092265,-0.028286,0.188772,-4.336630,328.520186,19.306179,0.998284,0.983313,0.005496,0.417368,0.000967,0.001009,0.000046,0.001039,0.000938,57.285571,0.001978,
2191,2023,-1.36281851546918,-13.6946154026273,-0.00608913505283226,0.000670,-0.096697,-0.031260,0.094470,-4.539778,330.952343,19.100758,0.998103,0.982462,0.005693,0.403077,0.001336,0.001407,0.000045,0.001429,0.001314,64.190301,0.002744,
2146,3163,-2.52126121445266,11.1664932534992,0.0436047501136727,0.011339,-0.087831,0.012865,0.452632,-3.977188,313.407963,20.605116,0.999591,0.991483,0.003654,0.433521,0.000023,0.000029,-0.000017,0.000044,0.000008,-50.286653,0.000056,
2506,2473,5.43254478769402,-3.83212511220901,-0.0146876657260009,0.008157,-0.091477,-0.004259,0.350386,-4.166092,323.895005,19.210327,0.999099,0.984296,0.004862,0.417215,0.000453,0.000240,-0.000062,0.000470,0.000223,-14.999043,0.000708,
2311,2608,1.15392872021323,-0.887741581535039,-0.0193161163768423,0.007653,-0.089876,0.000705,0.314330,-4.083466,321.393764,20.022516,0.999516,0.990837,0.003845,0.457067,0.000204,0.000117,0.000016,0.000207,0.000114,9.797458,0.000326,
2086,2908,-3.78514761741989,5.63240647462487,-0.000725924760615726,0.009593,-0.087729,0.008466,0.388022,-3.968487,317.404102,20.375510,0.999304,0.991894,0.003867,0.437056,0.000055,0.000021,-0.000016,0.000061,0.000015,-21.568028,0.000081,
2011,2833,-5.40198282972159,4.00131745927123,-0.0147144761884306,0.008746,-0.086762,0.002450,0.368844,-3.954819,318.923278,20.384171,0.999682,0.994253,0.003422,0.359814,0.000096,0.000025,0.000011,0.000098,0.000024,8.799447,0.000129,
2431,3253,3.64695803592871,13.1426153852842,0.021657031602615,0.012236,-0.089873,0.014304,0.472633,-4.070532,311.408784,22.078324,0.999539,0.992071,0.003552,0.416140,0.000044,0.000018,0.000024,0.000058,0.000003,30.822907,0.000069,
2281,2518,0.516579273992015,-2.85259993033024,-0.0195319907668363,0.006861,-0.089851,-0.003519,0.292751,-4.111794,322.860415,19.850310,0.999703,0.991983,0.003859,0.460610,0.000282,0.000210,0.000006,0.000283,0.000210,4.574669,0.000494,
2461,2098,4.52987120430535,-12.0546496530468,-0.000114294613069887,0.008807,-0.097559,-0.023956,0.451326,-4.559776,330.073342,17.638911,0.998851,0.981255,0.005819,0.285696,0.001416,0.001351,-0.000177,0.001564,0.001203,-39.782514,0.002774,
2131,3058,-2.83072394361267,8.88950427625279,0.024733446866037,0.010526,-0.087806,0.007625,0.431701,-3.971536,315.005867,20.501960,0.999300,0.992233,0.003764,0.443758,0.000040,0.000016,-0.000021,0.000052,0.000004,-30.350070,0.000062,
2161,3238,-2.20795398976363,12.7924520506405,0.0471169031949898,0.011955,-0.088204,0.013569,0.478043,-3.994548,312.177954,20.687519,0.999680,0.994195,0.003142,0.444068,0.000019,0.000033,-0.000014,0.000041,0.000010,-57.778009,0.000055,
2401,3073,3.02921927081853,9.23393464041886,0.0200099075108255,0.010953,-0.089595,0.011184,0.426408,-4.051881,314.264199,21.396348,0.999639,0.991036,0.003769,0.425448,0.000032,0.000032,0.000034,0.000066,-0.000001,44.960823,0.000075,
2116,3028,-3.15171938236648,8.23799176418666,0.0200704268641516,0.010482,-0.087627,0.011297,0.419468,-3.953273,315.510086,20.441257,0.999288,0.990908,0.003832,0.466608,0.000042,0.000012,-0.000020,0.000052,0.000002,-26.847551,0.000061,
2026,2788,-5.07073132647031,3.02467646502079,-0.027592997124998,0.008466,-0.086674,0.001803,0.357386,-3.935639,319.438371,20.377911,0.999418,0.991896,0.003757,0.432963,0.000095,0.000052,0.000007,0.000096,0.000051,8.718985,0.000149,
2416,3178,3.33674845375104,11.5127844884565,0.0356646465723998,0.011567,-0.089630,0.008730,0.463039,-4.076043,312.728346,21.723377,0.999587,0.992110,0.003523,0.453771,0.000046,0.000037,0.000038,0.000080,0.000003,41.979882,0.000094,
2341,2773,1.77784084696744,2.70900457943028,-0.0113339276730926,0.008954,-0.089665,0.004292,0.361126,-4.058160,318.811022,20.461549,0.999509,0.992027,0.003710,0.418703,0.000087,0.000070,0.000028,0.000108,0.000049,36.755313,0.000161,
2251,2353,-0.107771169581085,-6.4594107124358,-0.00763442775036083,0.005295,-0.090964,-0.010791,0.244648,-4.173470,325.628522,19.610496,0.998755,0.984401,0.005231,0.423850,0.000543,0.000480,0.000023,0.000550,0.000472,17.762285,0.001024,
2056,2953,-4.44253018226563,6.60731612922196,0.00687348353693551,0.009590,-0.087339,0.007488,0.392085,-3.956753,316.901991,20.295835,0.999242,0.992029,0.003699,0.453533,0.000048,0.000001,-0.000017,0.000054,-0.000004,-17.886897,0.000060,
2041,2878,-4.75798637747806,4.98011398058106,-0.0163219111793751,0.009194,-0.087294,0.006921,0.376078,-3.952326,317.998694,20.344756,0.998869,0.986490,0.004673,0.413898,0.000060,0.000054,-0.000004,0.000061,0.000052,-25.446208,0.000113,
2296,2533,0.839035394758447,-2.5241437624565,-0.0406704045240076,0.006848,-0.090040,-0.004562,0.295350,-4.127697,322.426576,19.748078,0.999684,0.993366,0.003502,0.549547,0.000270,0.000183,0.000002,0.000271,0.000183,1.413884,0.000456,
2011,2848,-5.40438190948313,4.32558221408503,-0.0138064379102616,0.008760,-0.087330,0.005965,0.359817,-3.963692,318.679274,20.236232,0.999720,0.995029,0.003297,0.486794,0.000087,0.000024,0.000002,0.000087,0.000024,1.473122,0.000117,
2371,2908,2.40560489325067,5.64800072421595,-0.00862789227795702,0.009753,-0.089213,0.007700,0.385062,-4.029130,316.659817,20.815825,0.999254,0.989759,0.004095,0.478831,0.000039,0.000036,0.000035,0.000072,0.000003,43.540046,0.000085,
2386,2938,2.72644952666856,6.30079635470206,-0.00425406207511969,0.009896,-0.089819,0.009101,0.385728,-4.067460,316.215535,20.954198,0.999331,0.989268,0.004130,0.415948,0.000035,0.000026,0.000030,0.000061,0.000001,40.786140,0.000071,
2236,2293,-0.425575752270969,-7.77146292622468,-0.0214288831530212,0.004473,-0.091146,-0.016919,0.226603,-4.232483,326.494065,19.507440,0.999078,0.984624,0.004835,0.429364,0.000664,0.000626,0.000030,0.000680,0.000610,28.683732,0.001290,
2491,2383,5.12436930842858,-5.80155655125724,-0.0131610789100591,0.008336,-0.091745,-0.008770,0.375768,-4.179529,325.349899,18.815423,0.997795,0.979964,0.005915,0.472492,0.000617,0.000414,-0.000105,0.000662,0.000370,-22.954001,0.001046,
2101,3013,-3.47507865909773,7.91183199022947,0.00950984159055679,0.010518,-0.087491,0.008393,0.430355,-3.965769,315.747830,20.369891,0.999362,0.991320,0.003679,0.478865,0.000042,0.000008,-0.000019,0.000051,0.000000,-24.209110,0.000059,
2506,2488,5.42954788877276,-3.50468840240093,-0.0142224383567964,0.008160,-0.091425,-0.005087,0.353793,-4.164147,323.658836,19.237289,0.999213,0.984693,0.004862,0.454487,0.000423,0.000213,-0.000053,0.000436,0.000200,-13.479728,0.000651,
2206,2128,-1.05224232907886,-11.3887771540646,-0.00694666750536044,0.002096,-0.093653,-0.024797,0.141174,-4.374766,329.260836,19.283798,0.998149,0.981743,0.005592,0.422916,0.001079,0.001180,0.000048,0.001200,0.001060,68.170180,0.002261,
2326,2668,1.46855599081457,0.423373554053995,-0.0273396576680511,0.007505,-0.089340,0.001523,0.304612,-4.046861,320.332407,20.278790,0.999522,0.990962,0.003983,0.362027,0.000143,0.000103,0.000002,0.000143,0.000103,2.800460,0.000247,
2071,2848,-4.10302305121243,4.32994147147751,-0.0151267731014855,0.008591,-0.087571,0.008486,0.342514,-3.958873,318.292023,20.421405,0.999603,0.993366,0.003415,0.386184,0.000077,0.000032,-0.000010,0.000079,0.000030,-11.923172,0.000112,
2146,3178,-2.52332492208325,11.4910727965773,0.0487941271603631,0.011570,-0.087981,0.014579,0.458099,-3.970729,313.211770,20.583454,0.999504,0.990954,0.003652,0.468345,0.000021,0.000032,-0.000016,0.000044,0.000010,-54.736775,0.000057,
2191,2038,-1.36609330925106,-13.3636169548508,-0.0141481163252024,0.000509,-0.096836,-0.030580,0.084959,-4.549132,330.634392,19.208644,0.998410,0.985488,0.005218,0.304356,0.001307,0.001366,0.000047,0.001391,0.001281,61.053487,0.002673,
2476,2308,4.81363190135163,-7.44400991972642,-0.0060644574796811,0.008424,-0.091887,-0.018277,0.415689,-4.239981,326.624634,18.629177,0.998746,0.977486,0.006025,0.354540,0.000777,0.000570,-0.000115,0.000828,0.000519,-24.094138,0.001359,
2221,2188,-0.734250644331876,-10.0721958557851,-0.0123228351352509,0.003450,-0.092241,-0.025733,0.207211,-4.324738,328.277780,19.379306,0.998059,0.980890,0.005780,0.377885,0.000926,0.000972,0.000040,0.000995,0.000903,59.831370,0.001899,
2461,2113,4.52540746205957,-11.7237727647148,-0.0122809594434443,0.008164,-0.096264,-0.026610,0.432480,-4.488687,329.710080,17.643949,0.998865,0.976995,0.006195,0.410327,0.001360,0.001318,-0.000175,0.001515,0.001163,-41.536265,0.002686,
2431,3268,3.64315595102247,13.4689126294083,0.0143164524139934,0.012003,-0.089634,0.014310,0.461996,-4.062423,311.089548,22.171071,0.999619,0.992805,0.003476,0.379782,0.000038,0.000021,0.000018,0.000050,0.000010,33.018427,0.000064,
2356,2818,2.09590417457676,3.68886085442218,-0.0104430422845212,0.009045,-0.089424,0.003934,0.366162,-4.056791,318.090267,20.547030,0.999661,0.991947,0.003717,0.459704,0.000074,0.000066,0.000030,0.000101,0.000040,41.321752,0.000145,
2086,2923,-3.78763416312905,5.95839647043029,-0.00152710195686723,0.009624,-0.087743,0.009548,0.386352,-3.967423,317.151649,20.385663,0.999217,0.991033,0.003907,0.426820,0.000053,0.000008,-0.000015,0.000057,0.000004,-16.804632,0.000069,
2041,2893,-4.75952536201913,5.30511343484078,-0.005807703049868,0.009325,-0.087084,0.006770,0.382571,-3.947608,317.849376,20.334013,0.999264,0.991240,0.003836,0.421493,0.000053,0.000044,-0.000010,0.000059,0.000037,-32.292408,0.000097,
2266,2458,0.199787185042105,-4.16034632489686,-0.0307585899510059,0.006351,-0.089716,-0.010292,0.292028,-4.109471,323.757861,19.887702,0.999555,0.990343,0.004231,0.347977,0.000359,0.000278,0.000016,0.000363,0.000275,10.834936,0.000639,
2311,2623,1.1515142549403,-0.561409751133745,-0.0137714400465825,0.007575,-0.090021,0.000600,0.311073,-4.089450,321.193608,20.040347,0.999285,0.988738,0.004174,0.466045,0.000187,0.000110,0.000008,0.000188,0.000109,5.597412,0.000301,
2161,3253,-2.21135732171761,13.1178965305239,0.0347154663552942,0.011961,-0.088143,0.013904,0.477281,-4.002937,311.827664,20.679173,0.999662,0.994144,0.003175,0.452962,0.000018,0.000034,-0.000011,0.000040,0.000012,-62.208599,0.000054,
2341,2788,1.77499717737082,3.03507024449726,-0.0083166732649147,0.008955,-0.089937,0.007665,0.349309,-4.062372,318.580410,20.479342,0.999545,0.993261,0.003533,0.433245,0.000086,0.000069,0.000031,0.000110,0.000045,37.416799,0.000160,
2011,2863,-5.40651418688258,4.65212153396844,-0.0150732753726288,0.008968,-0.087308,0.005926,0.369517,-3.966422,318.434517,20.278970,0.999348,0.991527,0.003980,0.429143,0.000082,0.000020,0.000004,0.000082,0.000020,3.375435,0.000108,
2026,2803,-5.07305128633091,3.34988130069704,-0.0242372070440524,0.008462,-0.087142,0.005746,0.346163,-3.954519,319.212361,20.333420,0.999520,0.992009,0.003617,0.448697,0.000100,0.000033,0.000009,0.000101,0.000032,7.141764,0.000139,
2206,2143,-1.05457904727366,-11.0591050839738,-0.00876571281230554,0.002444,-0.093901,-0.024655,0.156617,-4.393769,329.019475,19.389829,0.998869,0.984431,0.005146,0.317712,0.001040,0.001107,0.000057,0.001139,0.001008,60.419344,0.002148,
2491,2398,5.12088203097655,-5.47362073738817,-0.0104587150462407,0.008024,-0.092483,-0.005075,0.347085,-4.214270,325.100634,18.916629,0.999086,0.987328,0.004779,0.396908,0.000590,0.000389,-0.000103,0.000633,0.000345,-22.910115,0.000992,
2251,2368,-0.110794483185327,-6.12914863828253,-0.0221400473194535,0.006023,-0.090754,-0.009925,0.275300,-4.166389,325.294995,19.702261,0.999284,0.987812,0.004785,0.364666,0.000510,0.000451,0.000020,0.000516,0.000445,17.264370,0.000962,
2131,3073,-2.83315933027346,9.21460881765451,0.0288340983879607,0.010522,-0.087820,0.010830,0.421835,-3.973992,314.785685,20.506667,0.999531,0.994362,0.003437,0.441193,0.000035,0.000012,-0.000016,0.000044,0.000004,-27.257763,0.000053,
2116,3043,-3.1537603566917,8.56383016320066,0.0288465477338491,0.010366,-0.088135,0.011706,0.412730,-3.977809,315.332007,20.558728,0.999540,0.992943,0.003509,0.327075,0.000044,0.000011,-0.000024,0.000056,-0.000002,-27.952359,0.000064,
2056,2968,-4.44433794334557,6.93274012096523,0.00657075546337182,0.010072,-0.087145,0.006148,0.418117,-3.971010,316.681423,20.284127,0.999208,0.990725,0.003830,0.445173,0.000049,-0.000004,-0.000023,0.000057,-0.000013,-20.695233,0.000060,
2401,3088,3.02682073964578,9.55941871155021,0.0261027759702301,0.011083,-0.089741,0.012290,0.428341,-4.058958,314.071688,21.461831,0.999551,0.990426,0.003865,0.397257,0.000033,0.000023,0.000031,0.000060,-0.000003,40.302636,0.000067,
2281,2533,0.514647283236354,-2.52655137480692,-0.0161204641423183,0.007174,-0.089883,-0.006290,0.316348,-4.131115,322.670083,19.809755,0.999598,0.992562,0.003709,0.510677,0.000264,0.000183,0.000000,0.000264,0.000183,-0.089691,0.000449,
2416,3193,3.33442170497586,11.8382187188539,0.0414847367190987,0.011830,-0.089623,0.010056,0.470354,-4.063022,312.538301,21.786096,0.999475,0.991207,0.003647,0.450458,0.000048,0.000039,0.000037,0.000081,0.000007,41.221989,0.000097,
2476,2323,4.80974830015767,-7.11559626821875,-0.0142436818658211,0.008280,-0.091733,-0.018260,0.409140,-4.236723,326.307021,18.602904,0.998628,0.979482,0.005734,0.443236,0.000740,0.000529,-0.000104,0.000783,0.000486,-22.258254,0.001281,
2506,2503,5.42643075417477,-3.17580703898543,-0.0208446993997313,0.008414,-0.090999,-0.008710,0.379635,-4.172020,323.385257,19.346797,0.999174,0.984914,0.005034,0.399448,0.000388,0.000228,-0.000044,0.000399,0.000217,-14.502532,0.000625,
2326,2683,1.46600781321036,0.749189837883947,-0.0266387843619782,0.007893,-0.089665,0.004241,0.312966,-4.055096,320.103382,20.229303,0.999682,0.991512,0.003866,0.438017,0.000135,0.000110,0.000002,0.000135,0.000110,3.738215,0.000245,
2236,2308,-0.428019134625728,-7.44262147223947,-0.0248914063296297,0.004833,-0.091069,-0.017684,0.245633,-4.216985,326.241810,19.547558,0.998566,0.983680,0.005121,0.428027,0.000621,0.000581,0.000029,0.000636,0.000566,27.419278,0.001203,
2101,3028,-3.47720919786337,8.2373671703109,0.0117285939467706,0.010677,-0.087281,0.008310,0.437962,-3.964172,315.529395,20.386801,0.999200,0.990776,0.003834,0.464107,0.000042,0.000010,-0.000021,0.000053,0.000000,-26.671084,0.000061,
2296,2548,0.837594110941907,-2.19626533231489,-0.0260501750045705,0.007219,-0.089741,-0.002447,0.305398,-4.091444,322.314690,19.925659,0.999165,0.988882,0.004386,0.438684,0.000256,0.000160,0.000006,0.000257,0.000159,3.717809,0.000420,
2011,2878,-5.40821739280191,4.97900803810565,-0.0160623350034825,0.009501,-0.086376,0.004385,0.398546,-3.930469,318.210804,20.321565,0.999183,0.990508,0.004011,0.410310,0.000092,0.000046,0.000006,0.000093,0.000045,7.732931,0.000141,
2191,2053,-1.36932950719092,-13.0341514930448,-0.0172818490963209,0.000035,-0.095941,-0.029863,0.061267,-4.510432,330.343592,19.190661,0.998161,0.982416,0.005613,0.379231,0.001269,0.001345,0.000053,0.001373,0.001242,62.717485,0.002615,
2371,2923,2.40307456026909,5.97400976013937,-0.00424324154261058,0.009836,-0.089509,0.008747,0.385117,-4.034045,316.451747,20.876265,0.999277,0.989744,0.004062,0.453942,0.000035,0.000035,0.000028,0.000063,0.000006,45.089823,0.000077,
2041,2908,-4.76116511994164,5.63081202844635,-0.00559574707767752,0.009735,-0.086702,0.002518,0.413446,-3.945295,317.638049,20.318391,0.999449,0.991464,0.003681,0.431377,0.000052,0.000021,-0.000015,0.000058,0.000016,-21.769065,0.000077,
2071,2863,-4.10439104758393,4.65476659351445,-0.0109805117524502,0.009143,-0.087477,0.005530,0.376459,-3.952457,318.117141,20.339169,0.999308,0.991101,0.003924,0.471449,0.000073,0.000033,-0.000008,0.000074,0.000032,-10.558089,0.000109,
2146,3193,-2.52573135109238,11.8164024302459,0.0434989826568994,0.011675,-0.087986,0.009043,0.479741,-3.992818,312.943773,20.600807,0.999596,0.993004,0.003288,0.435723,0.000019,0.000031,-0.000019,0.000045,0.000005,-53.547786,0.000055,
2416,3208,3.33150340655408,12.1634775260965,0.0457964732876803,0.011774,-0.089622,0.013287,0.455922,-4.061843,312.313919,21.838789,0.999465,0.990589,0.003839,0.445545,0.000048,0.000032,0.000030,0.000071,0.000009,37.768558,0.000087,
2386,2953,2.72349670300781,6.6264445530554,-0.00289698491229728,0.009715,-0.089990,0.008865,0.378133,-4.093938,315.974603,20.989518,0.999229,0.988250,0.004308,0.396828,0.000036,0.000013,0.000032,0.000059,-0.000010,35.071217,0.000063,
2221,2203,-0.737001497795269,-9.7437419528018,-0.0119500404971404,0.003511,-0.092256,-0.021922,0.197847,-4.285633,328.029827,19.361744,0.998493,0.982712,0.005441,0.456179,0.000895,0.000922,0.000034,0.000945,0.000872,55.796914,0.001818,
2266,2473,0.197569840893173,-3.83558514143677,-0.0155205956021405,0.006094,-0.090146,-0.004723,0.261667,-4.109038,323.612975,19.801104,0.999621,0.991657,0.004032,0.461416,0.000341,0.000261,0.000017,0.000344,0.000258,11.425398,0.000604,
2056,2983,-4.44677200056344,7.25867949242985,0.00789516347947483,0.010042,-0.087098,0.008216,0.410928,-3.962611,316.440923,20.312686,0.999098,0.988794,0.004061,0.418964,0.000043,-0.000008,-0.000025,0.000053,-0.000018,-22.556099,0.000054,
2086,2938,-3.78903740397405,6.28371313184648,0.00347172911125426,0.009897,-0.087100,0.003105,0.417832,-3.948523,316.980684,20.361363,0.999269,0.990906,0.003904,0.468635,0.000047,0.000013,-0.000013,0.000052,0.000008,-18.763893,0.000065,
2431,3283,3.64033001923383,13.7936723785184,0.0109853392435184,0.012357,-0.089798,0.013556,0.480997,-4.080772,310.834450,22.174800,0.999715,0.993498,0.003296,0.406229,0.000036,0.000013,0.000014,0.000043,0.000006,25.473472,0.000053,
2461,2128,4.52312622860322,-11.3953476083888,-0.00500064265241917,0.008574,-0.096695,-0.023544,0.439556,-4.469889,329.535782,17.695139,0.999011,0.974136,0.006411,0.434875,0.001310,0.001276,-0.000166,0.001460,0.001126,-42.078490,0.002594,
2476,2338,4.80671154262048,-6.78709869966224,-0.00813692018653001,0.008369,-0.092308,-0.011464,0.387253,-4.231936,326.092804,18.730017,0.998388,0.981293,0.005656,0.379337,0.000708,0.000503,-0.000101,0.000750,0.000462,-22.213445,0.001223,
2026,2818,-5.07529565276017,3.67505220816741,-0.0179341839594827,0.008357,-0.087587,0.009656,0.330458,-3.953609,319.006262,20.292492,0.999355,0.991654,0.003690,0.480575,0.000092,0.000034,0.000013,0.000095,0.000031,11.822725,0.000131,
2491,2413,5.11781690471907,-5.14589875265442,-0.0214155407368253,0.008239,-0.091717,-0.013627,0.389958,-4.237386,324.809303,18.860953,0.999271,0.987330,0.004696,0.490174,0.000556,0.000352,-0.000083,0.000586,0.000322,-19.518349,0.000921,
2281,2548,0.511257526914175,-2.19646833017862,-0.024925034248497,0.007356,-0.089691,-0.003424,0.315261,-4.094232,322.350924,19.978792,0.999305,0.989811,0.004177,0.407457,0.000251,0.000157,0.000003,0.000251,0.000157,2.129518,0.000411,
2161,3268,-2.21402045494883,13.4430235384973,0.0321338386212346,0.012060,-0.088056,0.014366,0.480498,-3.995851,311.563438,20.685831,0.999644,0.994144,0.003230,0.461773,0.000018,0.000046,-0.000011,0.000050,0.000014,-70.526098,0.000068,
2401,3103,3.02459311705354,9.88452230214971,0.0304370477683165,0.011233,-0.089497,0.009763,0.444564,-4.049875,313.878790,21.468105,0.999534,0.992022,0.003603,0.444728,0.000037,0.000026,0.000033,0.000065,-0.000002,40.135104,0.000074,
2206,2158,-1.05762157798244,-10.7306195845111,-0.0105546061791415,0.002134,-0.093234,-0.023566,0.139179,-4.359702,328.745880,19.340780,0.998588,0.984517,0.005301,0.420250,0.001007,0.001047,0.000059,0.001090,0.000965,54.246503,0.002056,
2311,2638,1.14893315251391,-0.233880409214606,-0.0163842678482524,0.007824,-0.089651,-0.001103,0.328490,-4.075864,320.945326,20.083276,0.999076,0.987538,0.004338,0.469525,0.000173,0.000105,0.000006,0.000174,0.000105,5.175027,0.000281,
2506,2518,5.42254604157698,-2.84803668137143,-0.0225504283749274,0.007971,-0.090905,-0.006509,0.350901,-4.152155,323.098303,19.377082,0.999142,0.985828,0.004985,0.451497,0.000345,0.000235,-0.000052,0.000365,0.000215,-21.800471,0.000587,
2356,2833,2.09301025483547,4.01547067738991,-0.0115048672752209,0.009294,-0.089844,0.006702,0.367755,-4.054909,317.838406,20.590630,0.999668,0.990254,0.003987,0.456659,0.000070,0.000064,0.000033,0.000100,0.000034,42.426895,0.000139,
2131,3088,-2.83460336133573,9.53948037274565,0.0346567976268943,0.011029,-0.087625,0.008414,0.452535,-3.977665,314.620321,20.505389,0.999674,0.995627,0.003227,0.443557,0.000029,0.000008,-0.000019,0.000041,-0.000003,-30.925351,0.000045,
2341,2803,1.77200375015878,3.3624860212658,-0.014766097135066,0.009132,-0.089641,0.005796,0.364141,-4.046228,318.296525,20.531946,0.999516,0.992182,0.003692,0.433595,0.000081,0.000065,0.000029,0.000104,0.000043,37.657474,0.000150,
2011,2893,-5.41061860794804,5.30390698423793,-0.00917568386262246,0.009138,-0.086871,0.007363,0.373567,-3.938791,318.000169,20.287580,0.999294,0.992156,0.003618,0.423467,0.000093,0.000033,0.000006,0.000093,0.000032,5.238221,0.000130,
2251,2383,-0.113809764216594,-5.80378914984916,-0.0169546270851129,0.005458,-0.091147,-0.007199,0.240330,-4.156149,325.062075,19.539682,0.998915,0.985891,0.004950,0.562582,0.000478,0.000428,0.000016,0.000483,0.000424,16.117897,0.000907,
2116,3058,-3.15635105246863,8.88727811200721,0.0266727860882838,0.010344,-0.088155,0.011234,0.413089,-3.984529,315.070575,20.370098,0.999460,0.993175,0.003604,0.511811,0.000044,0.000014,-0.000023,0.000057,0.000001,-28.519127,0.000066,
2326,2698,1.46394772259164,1.07511852885163,-0.0254042503001415,0.008238,-0.089246,0.000460,0.342020,-4.044130,319.899265,20.179722,0.999499,0.990636,0.004008,0.533435,0.000126,0.000113,0.000007,0.000129,0.000110,23.698634,0.000239,
2101,3043,-3.47943525980299,8.56261412656991,0.02134893749502,0.010432,-0.087841,0.010745,0.419345,-3.984730,315.346824,20.451748,0.999457,0.992401,0.003574,0.378876,0.000044,0.000010,-0.000025,0.000057,-0.000003,-28.171781,0.000064,
2431,3298,3.63680941972735,14.1186067808812,0.0047949063790611,0.012388,-0.089780,0.014544,0.478800,-4.080006,310.533851,22.164395,0.999686,0.993565,0.003266,0.466224,0.000036,-0.000004,0.000015,0.000041,-0.000009,18.003454,0.000043,
2236,2323,-0.43067565549266,-7.11394639857021,-0.0273697352286035,0.005086,-0.090477,-0.015899,0.251712,-4.189783,325.984742,19.576230,0.998095,0.985508,0.005119,0.449861,0.000595,0.000550,0.000026,0.000607,0.000538,24.479798,0.001146,
2041,2923,-4.76327032110161,5.9554121598421,-0.000811146065245794,0.009823,-0.087085,0.005177,0.409945,-3.960598,317.431210,20.256318,0.999459,0.991751,0.003642,0.470061,0.000049,0.000009,-0.000014,0.000054,0.000004,-17.455614,0.000065,
2461,2143,4.5197018976212,-11.0649017452166,-0.0117935051404743,0.008743,-0.095962,-0.023633,0.447988,-4.439996,329.244712,17.772634,0.998250,0.975625,0.006332,0.445132,0.001240,0.001221,-0.000161,0.001392,0.001069,-43.377934,0.002468,
2416,3223,3.32812705291093,12.4889608406182,0.041667756527545,0.011501,-0.089725,0.011078,0.451512,-4.064304,312.028656,21.870599,0.999431,0.990305,0.003884,0.457716,0.000046,0.000023,0.000028,0.000064,0.000004,33.504888,0.000077,
2491,2428,5.1149370067724,-4.81677704081199,-0.0190232895211579,0.008474,-0.091382,-0.010975,0.390820,-4.179077,324.585852,18.984923,0.999201,0.985837,0.004857,0.485158,0.000534,0.000321,-0.000061,0.000550,0.000305,-14.887216,0.000866,
2296,2563,0.835723890875222,-1.86967823024683,-0.0156596055970795,0.007426,-0.090132,-0.000916,0.309637,-4.089081,322.162556,19.984178,0.998733,0.986794,0.005006,0.413274,0.000237,0.000167,0.000012,0.000239,0.000165,9.270513,0.000406,
2371,2938,2.40040203682687,6.29954792868197,-0.000185832699628463,0.009775,-0.089850,0.009453,0.379635,-4.060304,316.235679,20.916006,0.999276,0.989002,0.004112,0.428426,0.000032,0.000030,0.000027,0.000058,0.000005,43.969313,0.000070,
2161,3283,-2.21642172604364,13.7679770598152,0.0361853855404206,0.012114,-0.087967,0.016849,0.475429,-3.981880,311.346406,20.709891,0.999673,0.994727,0.003060,0.460402,0.000017,0.000055,-0.000011,0.000058,0.000014,-74.905635,0.000076,
2191,2068,-1.37241636448712,-12.7061418931912,-0.0161383370871135,-0.000088,-0.096792,-0.021952,0.030653,-4.525623,330.082225,19.147161,0.998808,0.983877,0.005501,0.425620,0.001234,0.001297,0.000062,0.001335,0.001196,58.636627,0.002532,
2056,2998,-4.44884607353834,7.58398826479052,0.0139707422227389,0.010058,-0.087258,0.009894,0.406897,-3.952025,316.243398,20.317256,0.999122,0.989191,0.004093,0.418893,0.000039,-0.000005,-0.000023,0.000049,-0.000015,-23.279924,0.000050,
2146,3208,-2.5278251501225,12.1413272140219,0.0486721598355757,0.011921,-0.087709,0.011360,0.484149,-3.972741,312.745981,20.604210,0.999608,0.993758,0.003195,0.458884,0.000019,0.000032,-0.000020,0.000046,0.000004,-53.730687,0.000056,
2476,2353,4.80386489078186,-6.45852776501404,-0.0110671868317809,0.008655,-0.091800,-0.013513,0.408375,-4.201973,325.846238,18.754232,0.998557,0.983298,0.005594,0.443735,0.000675,0.000478,-0.000099,0.000716,0.000437,-22.522159,0.001165,
2026,2833,-5.07724439285874,4.0020338516152,-0.0233305647930706,0.008587,-0.086961,0.002449,0.361078,-3.955872,318.747824,20.335913,0.999644,0.994079,0.003445,0.425000,0.000079,0.000042,0.000005,0.000080,0.000041,7.567859,0.000122,
2386,2968,2.72051919319194,6.95331511434431,-0.0049472755843567,0.009869,-0.089939,0.009746,0.382188,-4.068437,315.715853,21.065828,0.999520,0.990292,0.004027,0.388697,0.000033,0.000016,0.000036,0.000062,-0.000012,38.529357,0.000065,
2071,2878,-4.1068818871363,4.98092329467296,-0.0139914530030296,0.009155,-0.087332,0.004674,0.379457,-3.960808,317.851175,20.345198,0.999015,0.989252,0.004387,0.453624,0.000071,0.000048,-0.000008,0.000073,0.000046,-16.987151,0.000121,
2011,2908,-5.4121806339681,5.62929770853938,-0.00144924032122162,0.009360,-0.086787,0.006850,0.385275,-3.921910,317.832519,20.282885,0.999205,0.991950,0.003668,0.432716,0.000090,0.000014,0.000001,0.000090,0.000014,0.841596,0.000114,
2401,3118,3.02211050295899,10.2101265638354,0.0396677965482581,0.011034,-0.089424,0.010903,0.431259,-4.055311,313.697088,21.568981,0.999832,0.995374,0.002940,0.382664,0.000039,0.000030,0.000036,0.000070,-0.000002,41.414024,0.000080,
2266,2488,0.194453421118347,-3.50815933081655,-0.0230153480243303,0.006337,-0.090443,-0.002741,0.266131,-4.123928,323.312337,19.768185,0.999547,0.990956,0.004075,0.506449,0.000318,0.000234,0.000013,0.000320,0.000232,8.278055,0.000554,
2221,2218,-0.73983881142675,-9.41413118391831,-0.00982659229964611,0.003199,-0.091932,-0.020602,0.179436,-4.255164,327.786697,19.481879,0.998520,0.982119,0.005386,0.387932,0.000857,0.000868,0.000035,0.000898,0.000826,49.438997,0.001725,
2506,2533,5.41964099428065,-2.51924575598897,-0.0223701506822636,0.008194,-0.090357,-0.006180,0.360165,-4.111155,322.864471,19.501693,0.999372,0.987937,0.004532,0.430209,0.000327,0.000228,-0.000041,0.000342,0.000213,-19.670221,0.000559,
2041,2938,-4.76657621395809,6.28100625763739,0.000932541011536614,0.009203,-0.087445,0.012822,0.359964,-3.946320,317.152090,20.238323,0.999247,0.990601,0.003902,0.494379,0.000043,0.000015,-0.000009,0.000046,0.000012,-17.031818,0.000062,
2356,2848,2.08939205195186,4.34271187896501,-0.0194337214441589,0.009114,-0.089467,0.006452,0.360501,-4.051333,317.519908,20.643744,0.999574,0.990394,0.003923,0.446149,0.000065,0.000065,0.000037,0.000102,0.000027,45.006366,0.000136,
2326,2713,1.46074569030588,1.40382091857354,-0.0289030960736341,0.008000,-0.089146,-0.000874,0.335711,-4.061348,319.618929,20.379081,0.999008,0.986648,0.004589,0.351327,0.000116,0.000106,0.000012,0.000124,0.000098,33.169091,0.000222,
2086,2953,-3.79155485408046,6.60983804161597,0.00163639055642761,0.009989,-0.087018,0.004532,0.418028,-3.928897,316.721123,20.366434,0.999265,0.991600,0.003837,0.481627,0.000046,0.000008,-0.000017,0.000053,0.000001,-20.960729,0.000061,
2446,1993,4.22192198110433,-14.3627763125381,-0.00893093768507924,0.007816,-0.100123,-0.032303,0.435300,-4.719461,331.646200,17.187534,0.998452,0.975579,0.006312,0.279718,0.001820,0.001454,-0.000148,0.001872,0.001401,-19.511901,0.003285,
2161,3298,-2.2191360461809,14.0927791682343,0.0344142337370954,0.012116,-0.087951,0.017391,0.473860,-3.983262,311.084225,20.707039,0.999792,0.996188,0.002656,0.470496,0.000018,0.000065,-0.000014,0.000069,0.000015,-74.967484,0.000089,
2146,3223,-2.53030226841259,12.4661036053024,0.0534746987222547,0.011780,-0.087590,0.013236,0.472059,-3.955502,312.528669,20.597754,0.999624,0.993898,0.003110,0.489105,0.000018,0.000034,-0.000021,0.000048,0.000004,-55.023433,0.000058,
2341,2818,1.76911047720302,3.6891561962527,-0.017112042101644,0.009193,-0.089206,0.005235,0.369079,-4.028495,318.037292,20.551100,0.999351,0.988347,0.004057,0.469130,0.000072,0.000066,0.000028,0.000097,0.000041,41.999880,0.000142,
2011,2923,-5.41412794728441,5.95457037702477,0.00224762511675181,0.009418,-0.086757,0.006022,0.390217,-3.928141,317.624689,20.264782,0.999242,0.992334,0.003513,0.432004,0.000082,0.000005,0.000003,0.000082,0.000005,2.172707,0.000098,
2461,2158,4.51668654546922,-10.7354970475503,-0.00969499474814484,0.008632,-0.095605,-0.023174,0.441382,-4.451763,329.013092,17.898200,0.998405,0.975357,0.006185,0.364919,0.001190,0.001139,-0.000168,0.001334,0.000995,-40.665471,0.002338,
2131,3103,-2.83712398596601,9.8647129623978,0.036933713219355,0.010949,-0.087686,0.009880,0.444438,-3.976181,314.386429,20.513162,0.999722,0.995750,0.003043,0.442037,0.000023,0.000006,-0.000018,0.000035,-0.000006,-32.493339,0.000037,
2476,2368,4.79944252309033,-6.12920802788086,-0.00975291222880514,0.007854,-0.092000,-0.005573,0.341555,-4.158028,325.546297,18.880168,0.999308,0.986802,0.005076,0.420692,0.000639,0.000445,-0.000093,0.000676,0.000407,-21.962813,0.001095,
2491,2443,5.11203264501932,-4.48836557119294,-0.0137320241764769,0.008391,-0.091280,-0.008895,0.379127,-4.175690,324.374521,19.130616,0.998776,0.982963,0.005095,0.403002,0.000513,0.000271,-0.000049,0.000523,0.000262,-11.086757,0.000799,
2236,2338,-0.432992354124366,-6.78669076155143,-0.0162487245797251,0.004892,-0.091138,-0.011697,0.228974,-4.208492,325.812747,19.660481,0.998600,0.985470,0.005081,0.369742,0.000563,0.000518,0.000018,0.000570,0.000512,19.479760,0.001082,
2116,3073,-3.15911236670813,9.21423049327977,0.0173291265303419,0.010460,-0.087578,0.008214,0.427536,-3.978799,314.761429,20.449659,0.999441,0.993633,0.003774,0.440458,0.000039,0.000011,-0.000018,0.000048,0.000002,-25.905809,0.000056,
2026,2848,-5.08006641318431,4.32668059341374,-0.0403881593272217,0.008745,-0.086680,-0.002977,0.383265,-3.985829,318.385110,20.110472,0.999666,0.995356,0.003201,0.610984,0.000066,0.000034,-0.000005,0.000067,0.000033,-8.732768,0.000102,
2416,3238,3.32488884836789,12.8151319481828,0.0339881398484749,0.011980,-0.089578,0.012967,0.466762,-4.048142,311.732765,21.931478,0.999402,0.990889,0.003779,0.459604,0.000044,0.000016,0.000025,0.000059,0.000001,30.453623,0.000068,
2206,2173,-1.06004109094729,-10.401912370785,-0.0122684290142843,0.002167,-0.093102,-0.026588,0.150257,-4.368397,328.501320,19.360849,0.998633,0.985557,0.005163,0.411056,0.000971,0.001006,0.000058,0.001049,0.000928,53.313671,0.001978,
2281,2563,0.508657968776646,-1.86973813391484,-0.0247064465499989,0.007483,-0.089493,-0.002843,0.319271,-4.067911,322.113695,19.936588,0.999092,0.988119,0.004557,0.504730,0.000229,0.000161,0.000006,0.000230,0.000160,5.207029,0.000392,
2056,3013,-4.4515361422565,7.90973992098125,0.0122956178948357,0.009814,-0.086835,0.009605,0.396625,-3.933943,315.974687,20.306333,0.998765,0.986157,0.004781,0.441595,0.000037,-0.000005,-0.000027,0.000050,-0.000018,-26.428077,0.000051,
2251,2398,-0.116018818525308,-5.47482569491984,-0.0165048001527452,0.005722,-0.090746,-0.009191,0.259119,-4.165000,324.841550,19.684550,0.999165,0.988920,0.004479,0.433883,0.000454,0.000391,0.000018,0.000459,0.000386,15.111547,0.000846,
2401,3133,3.018960286304,10.5358620829991,0.0315561094712393,0.011602,-0.089804,0.012792,0.450539,-4.049343,313.402561,21.566346,0.999773,0.994497,0.003116,0.436149,0.000041,0.000031,0.000033,0.000069,0.000003,40.559227,0.000081,
2176,1993,-1.6855163182949,-14.3559881327321,0.00968310753324886,-0.000543,-0.098789,-0.029313,0.031565,-4.647887,331.549249,19.152584,0.998726,0.982278,0.005533,0.312590,0.001456,0.001432,0.000042,0.001487,0.001400,37.089194,0.002888,
2191,2083,-1.37427446858111,-12.3744825212642,-0.0154120402781928,0.000112,-0.094876,-0.027915,0.059110,-4.465474,329.873922,19.361572,0.998777,0.982868,0.005582,0.288885,0.001194,0.001280,0.000061,0.001312,0.001162,62.619735,0.002476,
2071,2893,-4.1094536364557,5.30701022751131,-0.00878644809205298,0.008946,-0.087490,0.009752,0.355304,-3.955048,317.626542,20.395312,0.999295,0.991547,0.003948,0.405629,0.000064,0.000041,-0.000013,0.000070,0.000035,-23.705566,0.000107,
2311,2653,1.14612378237098,0.0931416487705405,-0.0156888593633084,0.007899,-0.089765,0.001214,0.323962,-4.080237,320.702954,20.130466,0.999228,0.988988,0.004186,0.450863,0.000157,0.000098,0.000005,0.000158,0.000097,4.297179,0.000258,
2296,2578,0.832932869697004,-1.54206464073723,-0.0200298684720792,0.007362,-0.089646,-0.005358,0.321886,-4.079586,321.894838,20.003913,0.999146,0.988773,0.004399,0.434004,0.000227,0.000160,0.000013,0.000230,0.000158,10.695632,0.000390,
2101,3058,-3.48117128864639,8.88665306532563,0.0261362057949555,0.010734,-0.087760,0.009297,0.437580,-3.981899,315.160972,20.353403,0.999557,0.993889,0.003370,0.480478,0.000044,0.000012,-0.000023,0.000057,0.000000,-27.818093,0.000065,
2371,2953,2.39748859269544,6.62584659562435,-0.000529153850720832,0.009768,-0.089859,0.009520,0.379073,-4.062417,315.987145,20.974468,0.999340,0.988833,0.004176,0.408431,0.000032,0.000017,0.000028,0.000054,-0.000004,37.517134,0.000060,
2461,2173,4.51290257292368,-10.4049277022069,-0.0148360788065816,0.008201,-0.094291,-0.024496,0.427231,-4.396392,328.712738,17.991212,0.998648,0.977347,0.005862,0.385170,0.001135,0.001109,-0.000165,0.001288,0.000956,-42.768716,0.002252,
2221,2233,-0.742272680266534,-9.0868254995669,-0.00692773254030499,0.003320,-0.092213,-0.017908,0.176271,-4.280136,327.566602,19.459765,0.998578,0.982675,0.005398,0.406368,0.000818,0.000817,0.000034,0.000852,0.000783,44.523837,0.001636,
2506,2548,5.41804437282845,-2.19283079946971,-0.00583097269122845,0.008403,-0.090528,-0.005001,0.365135,-4.120636,322.764228,19.609032,0.999545,0.989938,0.004275,0.375197,0.000300,0.000177,-0.000038,0.000310,0.000166,-15.848511,0.000484,
2386,2983,2.71858864643002,7.27855198388897,0.00195121563166367,0.010301,-0.089811,0.009860,0.401619,-4.081886,315.548299,21.096387,0.999537,0.989225,0.004177,0.387473,0.000032,0.000021,0.000034,0.000060,-0.000008,40.353151,0.000066,
2011,2938,-5.41637224099312,6.28033146778615,-0.00106028493939903,0.009658,-0.086780,0.006210,0.400750,-3.934752,317.363733,20.246137,0.999449,0.993153,0.003470,0.431734,0.000073,0.000021,0.000013,0.000076,0.000018,13.110608,0.000100,
2491,2458,5.10840235045961,-4.16037450558724,-0.0146078277676338,0.008163,-0.091389,-0.006011,0.357649,-4.157224,324.102055,19.169552,0.998879,0.984257,0.004954,0.442892,0.000490,0.000254,-0.000047,0.000499,0.000245,-10.910991,0.000759,
2146,3238,-2.53331094841997,12.7921540927243,0.0446084042934558,0.011973,-0.087831,0.014463,0.477119,-3.977610,312.213683,20.673550,0.999627,0.993911,0.003131,0.397672,0.000017,0.000030,-0.000021,0.000046,0.000002,-53.539671,0.000054,
2476,2383,4.79567392890003,-5.8011089327178,-0.0166932471217933,0.007681,-0.092133,-0.006064,0.335463,-4.162309,325.239278,18.867474,0.999314,0.985310,0.005201,0.487688,0.000601,0.000411,-0.000098,0.000643,0.000369,-23.008494,0.001025,
2416,3253,3.32181759750627,13.1410564847364,0.0287185978942261,0.012509,-0.089629,0.015805,0.480761,-4.037925,311.455886,21.993880,0.999170,0.989249,0.004072,0.453754,0.000042,0.000022,0.000026,0.000059,0.000004,34.151818,0.000071,
2041,2953,-4.76810042029314,6.606977119956,0.00402733697808344,0.009453,-0.086950,0.006787,0.388497,-3.935561,316.962029,20.271593,0.999496,0.992381,0.003464,0.463719,0.000046,0.000000,-0.000015,0.000051,-0.000005,-16.888101,0.000056,
2446,2008,4.22010497401278,-14.0352620638058,0.000412977682117344,0.008156,-0.099756,-0.033191,0.454282,-4.693432,331.502094,17.131729,0.998085,0.976171,0.006528,0.417006,0.001767,0.001449,-0.000159,0.001833,0.001383,-22.457142,0.003227,
2206,2188,-1.06237117365176,-10.0726524926331,-0.00752772260216261,0.002517,-0.093144,-0.019951,0.145330,-4.337244,328.293750,19.465277,0.998220,0.980713,0.005722,0.357301,0.000934,0.000969,0.000053,0.001007,0.000896,54.250558,0.001904,
2131,3118,-2.84007694759906,10.1905420549779,0.0322265955160219,0.010792,-0.087502,0.009757,0.437628,-3.969710,314.095078,20.531044,0.999693,0.995300,0.003125,0.435276,0.000023,0.000012,-0.000019,0.000037,-0.000002,-36.535662,0.000042,
2026,2863,-5.08155205565102,4.6538288867782,-0.0207363940789378,0.008878,-0.087115,0.005351,0.366465,-3.947063,318.287649,20.325152,0.999331,0.992183,0.003873,0.424606,0.000061,0.000030,-0.000002,0.000061,0.000029,-3.098045,0.000093,
2326,2728,1.45834438432272,1.72965249372531,-0.0254331430217007,0.008372,-0.089419,0.002413,0.341406,-4.052703,319.410002,20.350067,0.999249,0.988645,0.004267,0.423750,0.000106,0.000093,0.000019,0.000119,0.000079,35.801092,0.000200,
2071,2908,-4.1113635665902,5.63250694451394,-0.0077592958653554,0.009319,-0.087365,0.009363,0.373617,-3.953581,317.409564,20.368792,0.999486,0.991950,0.003696,0.430125,0.000061,0.000020,-0.000016,0.000066,0.000015,-19.506686,0.000086,
2341,2833,1.76683119945737,4.01565235037676,-0.0143348172301216,0.009558,-0.089533,0.005677,0.384210,-4.044870,317.831210,20.631713,0.999616,0.990724,0.003834,0.408325,0.000065,0.000065,0.000030,0.000096,0.000035,45.103065,0.000135,
2056,3028,-4.45346916266699,8.23502710461428,0.00991613817404868,0.010284,-0.086766,0.007874,0.423210,-3.937956,315.737011,20.274220,0.999366,0.991268,0.003814,0.463895,0.000038,0.000002,-0.000031,0.000056,-0.000016,-30.151195,0.000057,
2401,3148,3.01691280942447,10.8600002387357,0.0431302033733232,0.011619,-0.090011,0.013557,0.448400,-4.069690,313.252340,21.567624,0.999794,0.994698,0.003010,0.458718,0.000040,0.000033,0.000038,0.000074,-0.000001,42.325430,0.000085,
2266,2503,0.192141608140428,-3.1790961993697,-0.0225234973344186,0.006478,-0.089628,-0.005406,0.281759,-4.079702,323.088060,19.904733,0.999609,0.991978,0.003957,0.441041,0.000298,0.000222,0.000013,0.000300,0.000220,9.128964,0.000522,
2236,2353,-0.434607558207841,-6.45893327571638,-0.0133982991909534,0.005753,-0.091061,-0.010726,0.265405,-4.204484,325.630655,19.690318,0.998306,0.983747,0.005350,0.366540,0.000532,0.000469,0.000018,0.000537,0.000464,15.041527,0.001002,
2416,3268,3.31782141992121,13.4667623421121,0.017660253741326,0.012277,-0.089520,0.014910,0.473474,-4.028357,311.109170,22.009335,0.999506,0.991186,0.003749,0.494266,0.000038,0.000026,0.000021,0.000054,0.000010,37.327058,0.000068,
2281,2578,0.507157961933835,-1.54375141556702,-0.0139614646620316,0.007727,-0.089572,-0.005193,0.338317,-4.077960,321.979625,19.959191,0.998909,0.986040,0.004876,0.500442,0.000218,0.000153,0.000008,0.000219,0.000152,7.149546,0.000373,
2086,2968,-3.7938435552702,6.93456452545906,0.00945307917544369,0.009823,-0.087586,0.007887,0.400430,-3.955444,316.525215,20.360245,0.999339,0.991213,0.003780,0.459400,0.000045,0.000006,-0.000021,0.000054,-0.000004,-23.479949,0.000061,
2221,2248,-0.74457602658261,-8.75805683949741,-0.0155707566452747,0.004161,-0.091818,-0.018395,0.216545,-4.245034,327.292946,19.397445,0.998674,0.982478,0.005346,0.525457,0.000782,0.000765,0.000036,0.000810,0.000737,38.602129,0.001547,
2356,2863,2.0868400695013,4.66853318313559,-0.0181234414326354,0.009414,-0.089760,0.007864,0.369251,-4.062114,317.295315,20.654552,0.999452,0.990199,0.003987,0.463116,0.000062,0.000065,0.000036,0.000100,0.000027,46.003373,0.000134,
2146,3253,-2.53607845294375,13.117305810532,0.0353333081432652,0.012204,-0.087696,0.012211,0.494655,-3.980415,311.907917,20.649960,0.999598,0.993609,0.003205,0.425052,0.000016,0.000031,-0.000020,0.000045,0.000003,-55.760433,0.000053,
2446,2023,4.21750724498838,-13.7035718642497,-0.00139135006708102,0.008799,-0.098724,-0.032302,0.480869,-4.639209,331.270668,17.306543,0.998506,0.979815,0.005774,0.352286,0.001704,0.001446,-0.000166,0.001786,0.001364,-26.073749,0.003159,
2506,2563,5.4156410531995,-1.86677711275747,-0.00367715838797267,0.009237,-0.090504,-0.001210,0.388695,-4.118209,322.562684,19.546806,0.999649,0.990789,0.004103,0.501793,0.000288,0.000157,-0.000029,0.000294,0.000151,-12.089561,0.000452,
2491,2473,5.10532930414098,-3.83262823372831,-0.0112371572066081,0.008043,-0.091293,-0.004208,0.345315,-4.157796,323.874290,19.249321,0.998846,0.984292,0.005034,0.422734,0.000455,0.000244,-0.000047,0.000465,0.000234,-11.899638,0.000712,
2251,2413,-0.118344266551137,-5.14698986489232,-0.011993762356667,0.005779,-0.090472,-0.008318,0.258982,-4.139462,324.636249,19.735565,0.999027,0.987880,0.004505,0.433257,0.000429,0.000362,0.000018,0.000433,0.000357,13.992108,0.000792,
2311,2668,1.1429645045663,0.421561833026757,-0.0203960658785149,0.007709,-0.089293,-0.000800,0.322361,-4.046941,320.417466,20.227931,0.999697,0.992252,0.003687,0.419588,0.000146,0.000103,0.000000,0.000146,0.000103,-0.206879,0.000250,
2461,2188,4.50883122242222,-10.0742573880907,-0.0262885983706269,0.008226,-0.093859,-0.023173,0.423657,-4.368354,328.370486,18.060188,0.999445,0.987035,0.004912,0.401918,0.001086,0.001079,-0.000154,0.001237,0.000929,-44.346940,0.002173,
2191,2098,-1.37718538136042,-12.0459056171689,-0.0267020286725028,0.000658,-0.094658,-0.025179,0.075626,-4.431011,329.555859,19.194423,0.998890,0.984849,0.005488,0.508701,0.001155,0.001247,0.000058,0.001275,0.001127,64.152338,0.002403,
2041,2968,-4.76991317006587,6.9321716897817,0.00377970131205529,0.009764,-0.086445,0.003170,0.413025,-3.938067,316.740498,20.227349,0.999493,0.992278,0.003454,0.497427,0.000045,-0.000010,-0.000023,0.000053,-0.000018,-19.742614,0.000054,
2101,3073,-3.48349986696477,9.21281100830534,0.0301286729637127,0.010703,-0.087502,0.010997,0.431260,-3.965596,314.942860,20.434901,0.999297,0.992082,0.003762,0.415564,0.000040,0.000011,-0.000017,0.000048,0.000003,-24.928077,0.000057,
2476,2398,4.79322567779764,-5.47322685417476,-0.00856890429224677,0.007732,-0.092147,-0.004687,0.332612,-4.178447,325.061057,18.997141,0.999329,0.985777,0.004996,0.399943,0.000569,0.000395,-0.000098,0.000613,0.000351,-24.149249,0.000976,
2371,2968,2.39468890431699,6.95314649494829,-0.00183605986552493,0.009854,-0.089323,0.008323,0.387538,-4.036538,315.738842,21.094705,0.999557,0.989011,0.004211,0.354712,0.000029,0.000019,0.000032,0.000056,-0.000008,40.345432,0.000061,
2011,2953,-5.41787912528841,6.60552592310967,0.00646161079936292,0.010033,-0.086848,0.007015,0.415820,-3.932756,317.197663,20.247218,0.999656,0.994227,0.003106,0.419907,0.000077,0.000003,0.000009,0.000078,0.000001,6.739518,0.000091,
2296,2593,0.831246627963676,-1.21615336824362,-0.00853901027016946,0.007505,-0.089214,-0.005985,0.330744,-4.075149,321.756681,20.015521,0.999520,0.991670,0.003738,0.457327,0.000216,0.000127,0.000010,0.000217,0.000126,6.573144,0.000347,
2386,2998,2.71653998119774,7.6038751224819,0.00894674931549844,0.010538,-0.089769,0.009078,0.415355,-4.084463,315.375686,21.127880,0.999563,0.990160,0.003960,0.395998,0.000031,0.000021,0.000033,0.000060,-0.000007,40.714378,0.000065,
2176,2008,-1.68920296001248,-14.0244911697258,-0.00887836072064374,-0.000584,-0.098044,-0.030581,0.033788,-4.596809,331.155866,19.112507,0.998532,0.982531,0.005572,0.420668,0.001408,0.001421,0.000056,0.001470,0.001358,48.283362,0.002829,
2116,3088,-3.16031229676691,9.53984182662842,0.0196160264555942,0.011328,-0.087187,0.004311,0.479285,-3.969773,314.587067,20.481751,0.999385,0.993615,0.003603,0.420309,0.000032,0.000008,-0.000021,0.000044,-0.000005,-30.388747,0.000049,
2071,2923,-4.1128146261644,5.95715687943934,0.000840076592339756,0.009665,-0.087677,0.008730,0.391219,-3.981464,317.255497,20.351783,0.999404,0.991534,0.003742,0.415553,0.000057,0.000007,-0.000015,0.000061,0.000003,-15.499784,0.000072,
2056,3043,-4.45570223124414,8.56000824341784,0.0150053494917302,0.010383,-0.087437,0.012403,0.414844,-3.942375,315.526950,20.267948,0.999672,0.994313,0.003229,0.459383,0.000039,0.000002,-0.000040,0.000064,-0.000024,-32.595301,0.000065,
2416,3283,3.31448614680325,13.7928462910904,0.00930526232576767,0.012468,-0.089496,0.013731,0.486543,-4.050222,310.805380,22.111051,0.999628,0.991286,0.003746,0.416920,0.000037,0.000018,0.000016,0.000046,0.000009,29.781176,0.000059,
2026,2878,-5.08334292154388,4.97949917052163,-0.0144216706457883,0.009089,-0.086829,0.006833,0.372178,-3.938436,318.102320,20.337720,0.999068,0.987854,0.004394,0.410641,0.000068,0.000052,0.000002,0.000068,0.000051,5.565477,0.000120,
2326,2743,1.4560069034995,2.05587063176048,-0.0235968824726456,0.008538,-0.089343,0.000461,0.355810,-4.051743,319.195908,20.355184,0.999494,0.990436,0.003967,0.454287,0.000095,0.000088,0.000022,0.000114,0.000069,40.637019,0.000185,
2011,2968,-5.42000292728762,6.93064055994746,0.00914866993565511,0.010088,-0.086978,0.007982,0.415672,-3.945151,316.976230,20.224978,0.999637,0.994413,0.003050,0.417207,0.000077,-0.000017,-0.000003,0.000077,-0.000018,-1.599099,0.000081,
2491,2488,5.10261721617952,-3.50516417537493,-0.00834959920433676,0.007937,-0.091071,-0.007005,0.351256,-4.163293,323.660919,19.308062,0.999145,0.984793,0.004821,0.418490,0.000427,0.000215,-0.000043,0.000436,0.000207,-11.039943,0.000656,
2446,2038,4.21480151761514,-13.3739146077952,0.00237473790275544,0.008971,-0.098115,-0.030124,0.480921,-4.583668,331.059875,17.363253,0.998022,0.977794,0.006236,0.406985,0.001625,0.001422,-0.000166,0.001718,0.001330,-29.251813,0.003056,
2401,3163,3.01349214371446,11.1862467842503,0.0380575162629953,0.011430,-0.089978,0.012317,0.444250,-4.071459,312.959422,21.646923,0.999638,0.992772,0.003412,0.422040,0.000040,0.000032,0.000037,0.000073,0.000000,42.025361,0.000084,
2146,3268,-2.53872755820767,13.4425252300429,0.033557243605685,0.012178,-0.087504,0.011766,0.494903,-3.976434,311.647481,20.672342,0.999598,0.994201,0.003157,0.412963,0.000015,0.000044,-0.000020,0.000054,0.000004,-63.082427,0.000065,
2341,2848,1.7629742484865,4.34167008335761,-0.0174890070398988,0.009077,-0.089779,0.009842,0.347478,-4.057150,317.523877,20.624008,0.999632,0.991406,0.003720,0.440354,0.000059,0.000066,0.000034,0.000097,0.000028,48.174469,0.000131,
2476,2413,4.79085035654688,-5.1458735671356,-0.00593996452630563,0.007859,-0.091422,-0.008644,0.353760,-4.174748,324.861240,19.010005,0.999350,0.986718,0.004810,0.448864,0.000536,0.000363,-0.000080,0.000568,0.000332,-21.350058,0.000910,
2461,2203,4.50527187789998,-9.74524299489015,-0.0291997360431537,0.008060,-0.093815,-0.021754,0.410780,-4.372233,328.090834,18.106301,0.998910,0.981752,0.005492,0.409123,0.001038,0.000988,-0.000142,0.001157,0.000868,-40.003996,0.002032,
2206,2203,-1.06473631591281,-9.74242272369689,-0.0108644805222866,0.003095,-0.092540,-0.017624,0.164701,-4.264190,328.042646,19.536388,0.998251,0.980012,0.005823,0.378662,0.000904,0.000921,0.000048,0.000961,0.000864,49.974822,0.001826,
2041,2983,-4.77186661877497,7.25753847195113,0.0117339965133851,0.010039,-0.087100,0.009379,0.408212,-3.946865,316.558045,20.265659,0.999337,0.991279,0.003723,0.441964,0.000041,-0.000016,-0.000024,0.000050,-0.000025,-20.026344,0.000050,
2176,2023,-1.69054433873108,-13.6936368418678,-0.00596762513475824,0.000169,-0.095886,-0.033230,0.077206,-4.520236,330.981336,19.239127,0.997293,0.983385,0.005772,0.386172,0.001366,0.001394,0.000054,0.001436,0.001324,52.207777,0.002761,
2506,2578,5.41101989048152,-1.53644027426234,-0.0179190046592339,0.008965,-0.090310,-0.001007,0.375637,-4.094341,322.185134,19.717404,0.999455,0.987346,0.004667,0.417290,0.000274,0.000142,-0.000022,0.000277,0.000139,-9.124732,0.000423,
2266,2518,0.190242044046329,-2.85330231309926,-0.0152717150787112,0.006611,-0.089515,-0.006912,0.292893,-4.093089,322.917460,19.865046,0.999536,0.991334,0.003947,0.493589,0.000285,0.000208,0.000017,0.000289,0.000204,11.602411,0.000495,
2356,2878,2.08484507878335,4.99432505564937,-0.0111216910647727,0.009588,-0.089733,0.006081,0.383527,-4.071904,317.123734,20.707600,0.999478,0.991251,0.003840,0.438690,0.000054,0.000056,0.000036,0.000090,0.000019,45.628272,0.000117,
2416,3298,3.31044831858773,14.1179440321645,-0.00543310830352084,0.012594,-0.089680,0.014173,0.490730,-4.056131,310.439457,22.076306,0.999655,0.991815,0.003619,0.492129,0.000036,0.000000,0.000017,0.000043,-0.000006,21.652409,0.000046,
2281,2593,0.503743673183052,-1.21517083665024,-0.0197059873135572,0.007488,-0.089056,-0.004584,0.325542,-4.041813,321.674787,20.033875,0.999106,0.987563,0.004514,0.490575,0.000206,0.000121,0.000006,0.000207,0.000120,4.183171,0.000331,
2086,2983,-3.79629479426942,7.25966816779625,0.0104416059493246,0.009867,-0.088007,0.010296,0.395289,-3.989092,316.284529,20.352006,0.999486,0.992544,0.003528,0.432575,0.000041,0.000005,-0.000023,0.000052,-0.000006,-25.791416,0.000057,
2371,2983,2.3929160730486,7.27790747366461,0.00205266635742873,0.010392,-0.089154,0.005047,0.423986,-4.049605,315.563402,21.059956,0.999505,0.989361,0.004112,0.416814,0.000028,0.000024,0.000030,0.000056,-0.000004,43.052047,0.000062,
2101,3088,-3.48546450537059,9.5373400457654,0.0324787803159552,0.010937,-0.087736,0.009524,0.446287,-3.981816,314.733181,20.391823,0.998740,0.989433,0.004320,0.442698,0.000032,0.000009,-0.000021,0.000044,-0.000003,-30.251154,0.000049,
2296,2608,0.827623032543919,-0.887896359480592,-0.0159344422910976,0.007552,-0.089701,-0.000804,0.315240,-4.080601,321.435599,20.092837,0.999326,0.989276,0.004126,0.405409,0.000200,0.000112,0.000010,0.000201,0.000111,6.567646,0.000316,
2311,2683,1.14103881395853,0.747128162218388,-0.0171045070434275,0.008405,-0.089523,0.000684,0.349208,-4.055893,320.228700,20.176821,0.999645,0.991481,0.003821,0.494211,0.000139,0.000112,0.000000,0.000139,0.000112,-0.516097,0.000251,
2056,3058,-4.45759774719282,8.88547925898121,0.0163184559373803,0.010715,-0.087398,0.011431,0.432906,-3.949089,315.311360,20.287700,0.999537,0.992896,0.003467,0.426772,0.000038,0.000008,-0.000036,0.000062,-0.000016,-33.445004,0.000064,
2236,2368,-0.437830396620633,-6.12962323309171,-0.0170855347424776,0.005480,-0.090561,-0.009721,0.249826,-4.139246,325.341158,19.742437,0.999057,0.986917,0.004840,0.403048,0.000501,0.000443,0.000015,0.000504,0.000439,13.274937,0.000944,
2251,2428,-0.120974319747535,-4.82063279370497,-0.0105653211676895,0.005950,-0.090543,-0.004549,0.254498,-4.133758,324.401777,19.646303,0.998501,0.985363,0.004839,0.553081,0.000407,0.000320,0.000013,0.000409,0.000318,8.490380,0.000729,
2026,2893,-5.08541343903579,5.30462349618133,-0.00830627818606899,0.008907,-0.087076,0.006185,0.365464,-3.959633,317.903338,20.331816,0.999357,0.992167,0.003618,0.384880,0.000063,0.000039,-0.000002,0.000063,0.000039,-5.112915,0.000103,
2131,3133,-2.84220832868639,10.5152053663612,0.0364302994225909,0.010925,-0.087874,0.010406,0.441627,-3.996469,313.889600,20.534085,0.999656,0.994709,0.003159,0.410024,0.000023,0.000014,-0.000018,0.000037,0.000000,-37.627321,0.000043,
2221,2263,-0.74728087472182,-8.42799892598087,-0.0191273230113325,0.004240,-0.091653,-0.019162,0.222707,-4.231446,327.026760,19.532775,0.998664,0.982312,0.005401,0.424887,0.000745,0.000711,0.000034,0.000766,0.000690,31.532057,0.001457,
2011,2983,-5.42280636728718,7.25636927346982,0.00548391539280146,0.009980,-0.087236,0.011258,0.401737,-3.948572,316.687724,20.210528,0.999335,0.991824,0.003508,0.415767,0.000072,-0.000025,-0.000002,0.000072,-0.000025,-1.321007,0.000073,
2386,3013,2.71455669133961,7.92932727216795,0.0179711096846518,0.010795,-0.089686,0.009735,0.424937,-4.062538,315.215623,21.163565,0.999582,0.990952,0.003801,0.424755,0.000031,0.000020,0.000032,0.000058,-0.000007,39.984200,0.000063,
2071,2938,-4.1147556714811,6.2830175716448,0.0021355089003805,0.009782,-0.087256,0.004927,0.407628,-3.970020,317.038463,20.358297,0.999378,0.990882,0.003781,0.416885,0.000050,0.000012,-0.000013,0.000054,0.000008,-17.114085,0.000067,
2191,2113,-1.3775852966506,-11.7177337900311,-0.00621193027842537,0.001420,-0.094568,-0.024408,0.108171,-4.421302,329.517257,19.367936,0.998359,0.981533,0.005692,0.361258,0.001116,0.001209,0.000059,0.001238,0.001088,64.152895,0.002327,
2116,3103,-3.16194715277547,9.86431105565827,0.0305833042884274,0.011608,-0.087594,0.006698,0.484990,-3.979380,314.439947,20.485706,0.999686,0.995768,0.003091,0.409165,0.000026,0.000005,-0.000019,0.000038,-0.000006,-30.620608,0.000040,
2446,2053,4.211014153745,-13.0460216567406,0.00648710375190831,0.008235,-0.099085,-0.025434,0.429532,-4.622510,330.801684,17.362467,0.997650,0.977670,0.006352,0.424647,0.001557,0.001407,-0.000165,0.001663,0.001300,-32.813685,0.002971,
2506,2593,5.40669902228539,-1.20791747121937,-0.026974046170551,0.008492,-0.090884,-0.001468,0.355492,-4.131171,321.844898,19.834042,0.999792,0.993879,0.003659,0.326108,0.000251,0.000150,-0.000014,0.000253,0.000148,-7.831894,0.000405,
2146,3283,-2.54197862531617,13.7677019161658,0.0274428847586705,0.012100,-0.087763,0.015250,0.480667,-3.975787,311.336276,20.674444,0.999509,0.993998,0.003263,0.418066,0.000011,0.000055,-0.000019,0.000062,0.000004,-69.524029,0.000074,
2056,3073,-4.45965757654859,9.20959323663672,0.0225461881182127,0.010606,-0.087469,0.010879,0.429396,-3.956052,315.115905,20.218376,0.999439,0.991211,0.003895,0.482733,0.000035,0.000008,-0.000028,0.000053,-0.000010,-32.422456,0.000056,
2491,2503,5.09910321368016,-3.17700170556678,-0.0105349324765598,0.007955,-0.091227,-0.003895,0.340157,-4.165318,323.387695,19.385766,0.999271,0.985523,0.004774,0.398940,0.000395,0.000222,-0.000037,0.000402,0.000214,-11.699151,0.000626,
2461,2218,4.50278508551442,-9.41794550297018,-0.0174793298680243,0.007949,-0.094325,-0.017986,0.391370,-4.353055,327.927020,18.130588,0.999175,0.985481,0.005263,0.460779,0.000997,0.000939,-0.000135,0.001106,0.000830,-38.945233,0.001943,
2176,2038,-1.69345559592189,-13.3639804999623,-0.00579652604363901,-0.000159,-0.096333,-0.031552,0.056848,-4.547186,330.721554,19.334541,0.998063,0.984257,0.005428,0.279894,0.001334,0.001347,0.000055,0.001396,0.001285,48.487232,0.002682,
2401,3178,3.01053731976969,11.511715606034,0.0350780371468318,0.011513,-0.089626,0.010770,0.453835,-4.062688,312.698034,21.660958,0.999565,0.992617,0.003479,0.461236,0.000045,0.000037,0.000036,0.000077,0.000004,42.016702,0.000092,
2476,2428,4.78731325452013,-4.81764810414703,-0.00532561961745159,0.007678,-0.091497,-0.004480,0.329690,-4.153992,324.598684,19.071490,0.999253,0.986055,0.004815,0.466514,0.000517,0.000334,-0.000062,0.000536,0.000315,-17.072540,0.000861,
2086,2998,-3.7980303200142,7.58563629378593,0.0141280901181062,0.010211,-0.087733,0.008750,0.415735,-3.973625,316.091020,20.396549,0.999559,0.992696,0.003422,0.401806,0.000039,0.000004,-0.000021,0.000049,-0.000005,-25.274597,0.000054,
2341,2863,1.76086738591132,4.66711015999549,-0.0100729686942032,0.009086,-0.089812,0.008040,0.354142,-4.065444,317.348420,20.642229,0.999570,0.991151,0.003825,0.450103,0.000056,0.000065,0.000033,0.000094,0.000027,48.796006,0.000127,
2041,2998,-4.77388739182487,7.5827041476807,0.0176759201172558,0.010119,-0.087535,0.011463,0.405991,-3.958748,316.361434,20.277907,0.999143,0.989672,0.004019,0.409416,0.000035,-0.000011,-0.000023,0.000045,-0.000021,-22.737569,0.000045,
2011,2998,-5.42464064635886,7.58156977153606,0.0144947574161165,0.009894,-0.086875,0.011197,0.398039,-3.934219,316.515112,20.220410,0.999475,0.992533,0.003378,0.407638,0.000066,-0.000016,-0.000002,0.000066,-0.000016,-1.181611,0.000069,
2431,1993,3.89386630750649,-14.3638961795503,0.00564914645696035,0.007149,-0.101039,-0.027222,0.385070,-4.741073,331.689047,17.340197,0.998481,0.975460,0.006331,0.212572,0.001783,0.001465,-0.000129,0.001828,0.001419,-19.479530,0.003256,
2266,2533,0.187848195678658,-2.52574103335665,-0.0255855985442395,0.007363,-0.089343,-0.010722,0.340079,-4.110814,322.635669,19.838044,0.999700,0.995089,0.003300,0.529783,0.000267,0.000180,0.000011,0.000268,0.000178,7.315224,0.000449,
2356,2893,2.08249656644914,5.32071215662059,-0.00401630631461103,0.009419,-0.089269,0.004528,0.381470,-4.048832,316.936138,20.786729,0.999492,0.991131,0.003794,0.421230,0.000046,0.000044,0.000036,0.000081,0.000009,44.321379,0.000099,
2206,2218,-1.0679659638851,-9.41333305476888,-0.0147081092038661,0.002442,-0.091700,-0.020993,0.145691,-4.249634,327.749828,19.562431,0.998299,0.981151,0.005731,0.386443,0.000868,0.000865,0.000051,0.000917,0.000815,44.247001,0.001734,
2311,2698,1.13829769614386,1.07343081416924,-0.0186986367880877,0.008485,-0.089842,-0.000126,0.355539,-4.073255,319.978269,20.165888,0.999687,0.992159,0.003732,0.520396,0.000130,0.000113,0.000003,0.000131,0.000112,10.725659,0.000243,
2281,2608,0.500635252650788,-0.88746603556001,-0.0247141694831043,0.007898,-0.090088,0.001407,0.324008,-4.073520,321.387997,20.107794,0.999012,0.986241,0.004716,0.413732,0.000189,0.000105,0.000006,0.000189,0.000105,3.990529,0.000298,
2326,2758,1.45243043171011,2.3823949320858,-0.0238620262998666,0.008102,-0.089568,0.004829,0.320655,-4.052849,318.914512,20.378298,0.999507,0.991743,0.003836,0.464457,0.000092,0.000080,0.000025,0.000111,0.000060,38.292242,0.000174,
2071,2953,-4.11731584500263,6.60874977027533,-0.00127770732819954,0.009871,-0.087475,0.005859,0.409067,-3.963032,316.767282,20.328581,0.999221,0.991077,0.003855,0.450039,0.000050,0.000004,-0.000018,0.000056,-0.000002,-18.987953,0.000063,
2446,2068,4.20702608344275,-12.7150495526178,0.00249839455204892,0.007623,-0.098235,-0.025011,0.400356,-4.578226,330.496412,17.474293,0.997578,0.975258,0.006665,0.412911,0.001490,0.001393,-0.000162,0.001611,0.001272,-36.629415,0.002889,
2026,2908,-5.08664038926191,5.62980018857643,0.00267505058076267,0.009313,-0.086777,0.006115,0.384514,-3.930159,317.770113,20.318639,0.999284,0.991732,0.003723,0.417507,0.000061,0.000019,-0.000008,0.000063,0.000017,-10.414778,0.000084,
2101,3103,-3.48743975848157,9.86327414237412,0.0337025025840489,0.011239,-0.087533,0.008085,0.464556,-3.966578,314.516378,20.443262,0.999466,0.993341,0.003411,0.406776,0.000028,0.000006,-0.000017,0.000038,-0.000003,-28.639588,0.000042,
2146,3298,-2.54474150815519,14.091925672112,0.0293338189807741,0.011847,-0.087827,0.016720,0.464459,-3.987314,311.090518,20.648434,0.999579,0.994865,0.002981,0.438860,0.000014,0.000063,-0.000020,0.000070,0.000007,-70.417365,0.000085,
2431,2008,3.89117286499081,-14.035206975377,0.00711722399091741,0.007176,-0.100534,-0.028816,0.392408,-4.712530,331.467343,17.298206,0.998116,0.973780,0.006752,0.336670,0.001733,0.001461,-0.000133,0.001787,0.001407,-22.184782,0.003201,
2251,2443,-0.123665298556826,-4.49027090346731,-0.0157729188161397,0.006141,-0.090360,-0.006674,0.270295,-4.132922,324.130190,19.870960,0.999246,0.989071,0.004400,0.354054,0.000384,0.000294,0.000015,0.000387,0.000291,9.440784,0.000680,
2116,3118,-3.16503937968668,10.1891116580448,0.0332522891816325,0.011038,-0.087744,0.010163,0.448377,-3.978929,314.181104,20.461029,0.999738,0.995648,0.002970,0.436539,0.000026,0.000012,-0.000020,0.000039,-0.000002,-35.429667,0.000045,
2221,2278,-0.749255820217389,-8.1002021997177,-0.00939819611181747,0.004537,-0.091880,-0.013814,0.219155,-4.221385,326.862282,19.605374,0.998655,0.982401,0.005336,0.383250,0.000713,0.000667,0.000034,0.000731,0.000649,28.120842,0.001381,
2296,2623,0.824090061885641,-0.56124699932613,-0.0190869298861003,0.007074,-0.089874,0.000415,0.289102,-4.089293,321.139998,20.067918,0.999255,0.988355,0.004204,0.452369,0.000184,0.000105,0.000004,0.000185,0.000104,2.841550,0.000293,
2506,2608,5.40397046332972,-0.881154392349984,-0.0280456462586471,0.008571,-0.089986,-0.005969,0.376922,-4.106899,321.613542,19.802597,0.999795,0.993583,0.003739,0.443792,0.000237,0.000140,-0.000012,0.000239,0.000139,-6.922053,0.000382,
2371,2998,2.39067654691249,7.60336211825922,0.0125142035849422,0.010280,-0.089147,0.005922,0.415715,-4.053234,315.397725,21.128018,0.999537,0.990803,0.003858,0.385375,0.000028,0.000024,0.000029,0.000055,-0.000003,43.100691,0.000061,
2056,3088,-4.462008234768,9.53475657735854,0.0261465758228496,0.010447,-0.087785,0.011527,0.420074,-3.977316,314.892245,20.246224,0.999448,0.991666,0.003680,0.427258,0.000026,0.000004,-0.000032,0.000048,-0.000019,-35.356490,0.000049,
2131,3148,-2.84431380801096,10.8401937174459,0.0392045939645982,0.011112,-0.087585,0.010055,0.451473,-3.980601,313.677516,20.519186,0.999575,0.993376,0.003312,0.445255,0.000026,0.000019,-0.000018,0.000041,0.000004,-39.114408,0.000050,
2236,2383,-0.440369486131093,-5.80351408624463,-0.00668863169352107,0.005136,-0.090887,-0.005114,0.219016,-4.137053,325.155382,19.706121,0.999184,0.987416,0.004759,0.464012,0.000469,0.000421,0.000009,0.000471,0.000419,10.659038,0.000891,
2011,3013,-5.42670478572046,7.9064673705434,0.0143356391260454,0.009947,-0.086893,0.008147,0.408769,-3.937077,316.280560,20.160821,0.999517,0.993130,0.003449,0.451463,0.000063,-0.000019,-0.000002,0.000063,-0.000019,-1.385751,0.000065,
2491,2518,5.09579087723843,-2.84925057427056,-0.0201124444358243,0.008323,-0.091072,-0.006345,0.366477,-4.173634,323.090503,19.370307,0.999208,0.985661,0.004707,0.466467,0.000359,0.000222,-0.000042,0.000371,0.000210,-15.908823,0.000588,
2176,2053,-1.69578932008691,-13.0346321409187,-0.00630532867916145,0.000276,-0.096307,-0.027715,0.064922,-4.513214,330.484302,19.338925,0.998343,0.984386,0.005233,0.325075,0.001295,0.001324,0.000062,0.001373,0.001246,51.485685,0.002620,
2041,3013,-4.77625661914506,7.90999974150856,0.00674706840743511,0.010407,-0.086591,0.005757,0.435470,-3.933883,316.054322,20.339334,0.999406,0.991148,0.003859,0.364756,0.000031,-0.000010,-0.000027,0.000045,-0.000023,-26.316299,0.000045,
2476,2443,4.78375413609094,-4.48848468851217,-0.0151456606662919,0.007751,-0.091349,-0.007499,0.344530,-4.181442,324.287828,19.174017,0.998893,0.985724,0.004957,0.394821,0.000499,0.000276,-0.000052,0.000510,0.000265,-12.570115,0.000788,
2461,2233,4.49973050770844,-9.08872940592667,-0.0107750698518885,0.007467,-0.094041,-0.016969,0.365628,-4.345719,327.714107,18.293830,0.998534,0.980403,0.005807,0.361646,0.000953,0.000882,-0.000123,0.001045,0.000790,-36.967453,0.001841,
2401,3193,3.00798499760338,11.8372364609864,0.0393394679972516,0.011626,-0.089661,0.011740,0.455588,-4.050893,312.489347,21.723612,0.999472,0.991929,0.003580,0.454714,0.000047,0.000039,0.000036,0.000079,0.000007,41.673431,0.000096,
2086,3013,-3.80046863689507,7.91039465252263,0.0148092177765875,0.010222,-0.087664,0.010082,0.412380,-3.971499,315.849347,20.326627,0.999657,0.993323,0.003213,0.472283,0.000040,0.000004,-0.000026,0.000054,-0.000010,-27.912236,0.000057,
2431,2023,3.88752963905062,-13.7039372363884,0.00171710538580783,0.007064,-0.100152,-0.027538,0.382771,-4.676374,331.170151,17.411582,0.997980,0.975681,0.006455,0.313537,0.001671,0.001450,-0.000134,0.001734,0.001387,-25.297399,0.003128,
2356,2908,2.07934667605241,5.64747210950756,-0.0108203023392548,0.009707,-0.089184,0.005372,0.391791,-4.037885,316.644470,20.815261,0.999303,0.990519,0.003945,0.442263,0.000039,0.000034,0.000036,0.000072,0.000001,42.781192,0.000084,
2161,1993,-2.01455913850152,-14.3511405226963,-0.00554410950644524,-0.001371,-0.097009,-0.032578,0.003565,-4.578905,331.442524,19.418950,0.998282,0.982329,0.005647,0.222438,0.001479,0.001420,0.000061,0.001517,0.001382,32.076847,0.002900,
2341,2878,1.75766145488148,4.99318607893127,-0.0174986522971494,0.009227,-0.089772,0.007543,0.362413,-4.061956,317.050117,20.601379,0.999530,0.991110,0.003868,0.530991,0.000048,0.000055,0.000033,0.000085,0.000018,48.218124,0.000110,
2056,3103,-4.46342601021274,9.85973795895417,0.0337474118347245,0.010839,-0.087286,0.009982,0.442674,-3.968217,314.733545,20.255646,0.999420,0.991447,0.003686,0.420494,0.000025,0.000002,-0.000026,0.000042,-0.000015,-32.979828,0.000043,
2191,2128,-1.37932380133239,-11.3885516541018,-0.00932626232508937,0.002257,-0.093938,-0.026527,0.153383,-4.403662,329.295090,19.372782,0.997528,0.979983,0.006022,0.391532,0.001078,0.001175,0.000059,0.001203,0.001050,64.616515,0.002255,
2026,2923,-5.0889266433666,5.95519430036547,0.00193186280114332,0.009408,-0.086905,0.006748,0.387136,-3.931909,317.522872,20.275647,0.999360,0.992190,0.003649,0.448392,0.000057,0.000006,-0.000008,0.000058,0.000005,-8.677079,0.000070,
2101,3118,-3.49023253177387,10.1881564146767,0.0322413854530623,0.011131,-0.087642,0.010348,0.452875,-3.973992,314.247907,20.407615,0.999722,0.994555,0.003018,0.435234,0.000027,0.000013,-0.000017,0.000039,0.000002,-33.780722,0.000046,
2071,2968,-4.11973761930178,6.93442154372971,-0.00387068131726664,0.009991,-0.087536,0.005859,0.414557,-3.972149,316.506996,20.319663,0.998999,0.989799,0.004105,0.446029,0.000049,0.000002,-0.000022,0.000058,-0.000007,-21.684413,0.000063,
2116,3133,-3.16785733174104,10.5149289573227,0.0294189136511704,0.011047,-0.087932,0.011784,0.443907,-3.992414,313.899452,20.507271,0.999852,0.996968,0.002645,0.379069,0.000026,0.000015,-0.000020,0.000041,0.000000,-37.387400,0.000047,
2446,2083,4.20340968144244,-12.3850293356642,0.000829251448351442,0.007632,-0.099172,-0.019304,0.379189,-4.579021,330.219030,17.575973,0.997053,0.974015,0.007063,0.366291,0.001430,0.001376,-0.000160,0.001565,0.001240,-40.217831,0.002811,
2221,2293,-0.751381512493882,-7.77206104818167,-0.00970215022812226,0.004732,-0.090708,-0.017700,0.240935,-4.189550,326.639441,19.590495,0.998821,0.984342,0.005007,0.451104,0.000674,0.000625,0.000038,0.000695,0.000604,28.571381,0.001300,
2386,3028,2.71120381523758,8.25573808345649,0.0117712813910771,0.010707,-0.089588,0.008186,0.426557,-4.066354,314.919783,21.214927,0.999556,0.990167,0.003947,0.412396,0.000033,0.000018,0.000032,0.000058,-0.000007,38.069875,0.000064,
2281,2623,0.497858535080564,-0.561055998501139,-0.0241111652611607,0.007780,-0.090091,0.001383,0.318650,-4.075185,321.144571,20.086277,0.999183,0.986717,0.004497,0.462073,0.000173,0.000096,-0.000001,0.000173,0.000096,-0.480603,0.000273,
2506,2623,5.40140500347988,-0.55629494390319,-0.0198586255875739,0.008469,-0.090258,-0.005211,0.369224,-4.128265,321.431413,19.726011,0.999816,0.994177,0.003473,0.560545,0.000219,0.000107,-0.000018,0.000222,0.000104,-8.806514,0.000333,
2491,2533,5.09281181263685,-2.52112543094781,-0.018821805614607,0.008476,-0.090831,-0.004508,0.366583,-4.152458,322.857233,19.463328,0.999524,0.989096,0.004111,0.454642,0.000337,0.000211,-0.000035,0.000346,0.000202,-14.665651,0.000555,
2011,3028,-5.42805546041496,8.23124919836631,0.0261132696958839,0.010394,-0.087303,0.011594,0.420002,-3.925346,316.145915,20.159438,0.999445,0.992923,0.003630,0.451779,0.000067,-0.000002,-0.000001,0.000067,-0.000002,-0.496277,0.000077,
2431,2038,3.88568507722897,-13.3739505125962,0.002700898392618,0.008007,-0.098872,-0.028868,0.431332,-4.619951,330.984728,17.465584,0.997406,0.975193,0.006711,0.369138,0.001596,0.001425,-0.000137,0.001672,0.001349,-29.018151,0.003026,
2326,2773,1.4507871140727,2.70979420189487,-0.0206915062925077,0.008734,-0.089270,0.001094,0.362715,-4.056911,318.738452,20.515911,0.999643,0.994507,0.003405,0.357390,0.000084,0.000068,0.000024,0.000102,0.000051,35.849547,0.000155,
2251,2458,-0.126453047621357,-4.16330191364288,-0.0134140038404098,0.006003,-0.090459,-0.004208,0.255851,-4.119719,323.892975,19.848850,0.999631,0.991050,0.004147,0.414008,0.000363,0.000276,0.000018,0.000366,0.000272,11.211631,0.000641,
2311,2713,1.13508879912781,1.40101705985428,-0.0184479921847469,0.008167,-0.089512,0.001787,0.334496,-4.072779,319.715025,20.274868,0.999445,0.990376,0.003999,0.444406,0.000120,0.000104,0.000008,0.000123,0.000101,22.047715,0.000224,
2041,3028,-4.778185615664,8.23375652813173,0.0138733719597894,0.010501,-0.086828,0.007727,0.434222,-3.941760,315.869050,20.233622,0.999512,0.991660,0.003819,0.454339,0.000034,-0.000001,-0.000031,0.000052,-0.000019,-30.062322,0.000053,
2266,2548,0.18537386661756,-2.19675018518467,-0.0225530863839367,0.007673,-0.089245,-0.006354,0.339957,-4.070819,322.416613,20.009435,0.999513,0.992026,0.003804,0.424834,0.000254,0.000152,0.000012,0.000256,0.000151,6.500054,0.000411,
2461,2248,4.49723592375463,-8.76082647716007,-0.00511626194872861,0.007452,-0.093670,-0.017964,0.368878,-4.347885,327.522229,18.339943,0.998244,0.977600,0.005916,0.370048,0.000908,0.000806,-0.000120,0.000987,0.000727,-33.524857,0.001721,
2296,2638,0.822268917899301,-0.234265238241669,-0.0184071642101458,0.007727,-0.089345,-0.002403,0.328814,-4.078524,320.941759,20.091360,0.999116,0.987067,0.004387,0.470301,0.000173,0.000100,0.000003,0.000173,0.000100,2.096058,0.000276,
2131,3163,-2.84658256218729,11.1648468381343,0.0426829897681955,0.011241,-0.088033,0.011958,0.451521,-4.001781,313.461857,20.518069,0.999477,0.991569,0.003609,0.429699,0.000026,0.000031,-0.000018,0.000047,0.000010,-48.698922,0.000061,
2176,2068,-1.69774674690381,-12.706673649352,0.00241459510823461,0.000603,-0.096450,-0.021730,0.061363,-4.484491,330.312536,19.329893,0.998761,0.984486,0.005327,0.378099,0.001259,0.001279,0.000071,0.001341,0.001197,48.922180,0.002540,
2206,2233,-1.07012077205291,-9.08699647623062,-0.00753979113500236,0.002694,-0.092699,-0.015739,0.140288,-4.299468,327.563581,19.520865,0.998603,0.982667,0.005644,0.397235,0.000829,0.000811,0.000047,0.000868,0.000772,39.755650,0.001641,
2026,2938,-5.09164637819679,6.28054122041553,0.00741497977628569,0.009108,-0.087477,0.014183,0.352663,-3.935329,317.290596,20.278372,0.999126,0.990387,0.004032,0.431748,0.000049,0.000015,-0.000001,0.000049,0.000015,-2.150867,0.000067,
2056,3118,-4.46538687529732,10.184644967618,0.0393798644187768,0.011136,-0.087588,0.013672,0.445836,-3.971855,314.539124,20.261587,0.999503,0.993003,0.003317,0.404596,0.000024,0.000015,-0.000024,0.000044,-0.000005,-39.843372,0.000049,
2371,3013,2.38778715322946,7.92879425276022,0.0156455396131605,0.010243,-0.089384,0.008783,0.403853,-4.033615,315.166957,21.124216,0.999516,0.990511,0.003909,0.449339,0.000027,0.000021,0.000028,0.000052,-0.000004,41.865832,0.000058,
2401,3208,3.00545618411167,12.1618201888016,0.0473327787444191,0.011700,-0.089944,0.015686,0.444490,-4.073647,312.299657,21.759245,0.999427,0.991591,0.003749,0.440335,0.000046,0.000033,0.000031,0.000071,0.000008,38.842393,0.000087,
2476,2458,4.7811192840994,-4.16067351384562,-0.0105645401854986,0.008017,-0.091098,-0.004782,0.346605,-4.142624,324.084499,19.226776,0.998876,0.986067,0.004938,0.438805,0.000474,0.000257,-0.000051,0.000485,0.000246,-12.589220,0.000744,
2356,2923,2.07679604382831,5.97345230373115,-0.0102586934991677,0.009833,-0.089298,0.003714,0.403419,-4.044535,316.416072,20.847403,0.999275,0.990902,0.003874,0.441905,0.000035,0.000033,0.000029,0.000063,0.000006,43.799493,0.000076,
2236,2398,-0.443367600966109,-5.47467891222118,-0.0171113527659941,0.005395,-0.091064,-0.006535,0.235433,-4.170944,324.842368,19.759183,0.999359,0.989615,0.004270,0.400133,0.000446,0.000381,0.000011,0.000448,0.000379,9.469257,0.000827,
2491,2548,5.08939402522001,-2.19333037647677,-0.0204861998775527,0.008250,-0.090891,-0.004904,0.357750,-4.156452,322.590559,19.529648,0.999473,0.988683,0.004315,0.444235,0.000312,0.000169,-0.000031,0.000319,0.000162,-11.815371,0.000489,
2221,2308,-0.754507775292158,-7.44421860278162,-0.0111618624308107,0.004391,-0.091132,-0.016228,0.220456,-4.207648,326.365138,19.591929,0.998662,0.985681,0.004819,0.452534,0.000633,0.000581,0.000036,0.000651,0.000563,27.290529,0.001215,
2506,2638,5.39772909697171,-0.227964661414006,-0.020462772746157,0.008097,-0.090454,-0.003598,0.345901,-4.125993,321.158182,19.873648,0.999623,0.991903,0.003914,0.476867,0.000207,0.000110,-0.000020,0.000211,0.000106,-11.118935,0.000323,
2011,3043,-5.43030429168044,8.55617772138518,0.0249072791347089,0.010302,-0.087050,0.008105,0.425231,-3.944764,315.897085,20.119626,0.999430,0.993245,0.003638,0.459463,0.000066,0.000005,-0.000014,0.000069,0.000002,-12.257627,0.000080,
2446,2098,4.20010466754116,-12.0543195233491,-0.00572012960975599,0.007453,-0.097799,-0.024428,0.390670,-4.558619,329.933284,17.671422,0.998460,0.978487,0.006281,0.347032,0.001374,0.001347,-0.000159,0.001520,0.001201,-42.610031,0.002727,
2086,3028,-3.80259577811149,8.23607762988974,0.0148522902407535,0.010378,-0.087361,0.008079,0.425451,-3.969201,315.618152,20.341255,0.999475,0.992259,0.003514,0.458132,0.000042,0.000008,-0.000030,0.000059,-0.000009,-30.022800,0.000063,
2071,2983,-4.12115109593145,7.25896516376788,0.00451977718051921,0.010417,-0.087549,0.005580,0.434877,-4.000087,316.353633,20.305500,0.999266,0.990820,0.003801,0.428558,0.000042,0.000000,-0.000024,0.000053,-0.000011,-24.575996,0.000056,
2161,2008,-2.01681709595132,-14.0221094490926,-0.00777123373359245,-0.001017,-0.096458,-0.032129,0.018547,-4.533214,331.198393,19.346260,0.998179,0.983728,0.005526,0.354619,0.001429,0.001411,0.000072,0.001493,0.001347,41.579135,0.002841,
2341,2893,1.75623364044646,5.3200024631671,-0.00984488752618518,0.009759,-0.089316,0.003861,0.399932,-4.051239,316.906536,20.736417,0.999352,0.990614,0.003935,0.443089,0.000039,0.000043,0.000034,0.000075,0.000007,46.570998,0.000091,
2116,3148,-3.16996045683123,10.8392056938781,0.0325112768551321,0.011233,-0.087690,0.012031,0.451891,-3.968536,313.688489,20.420993,0.999699,0.995013,0.003028,0.491631,0.000030,0.000020,-0.000019,0.000045,0.000005,-38.250640,0.000055,
2041,3043,-4.78018122188789,8.55843719933457,0.0222671912725332,0.010490,-0.087142,0.010254,0.426599,-3.944186,315.687460,20.218821,0.999724,0.994605,0.003084,0.458171,0.000036,0.000000,-0.000042,0.000063,-0.000028,-33.317539,0.000063,
2101,3133,-3.49217832515829,10.5133869287588,0.03995853471082,0.011213,-0.087591,0.011456,0.453424,-3.973028,314.067956,20.456243,0.999783,0.995381,0.002871,0.387768,0.000028,0.000017,-0.000017,0.000041,0.000004,-35.730507,0.000050,
2431,2053,3.88176210302592,-13.0438303681511,0.000120787345167628,0.007487,-0.098916,-0.026286,0.398079,-4.607874,330.687805,17.541995,0.997196,0.973806,0.006861,0.358674,0.001529,0.001409,-0.000139,0.001621,0.001318,-33.319393,0.002944,
2281,2638,0.495526747764533,-0.233781412486792,-0.0235560244732937,0.007868,-0.089373,-0.001978,0.334208,-4.068647,320.921060,20.139977,0.999132,0.985020,0.004611,0.443301,0.000161,0.000090,-0.000002,0.000161,0.000090,-1.717130,0.000255,
2326,2788,1.44772176219827,3.03464905988988,-0.0213276544357655,0.008811,-0.089636,0.005197,0.351936,-4.070753,318.479082,20.404126,0.999527,0.993636,0.003568,0.489754,0.000084,0.000068,0.000029,0.000106,0.000046,36.936396,0.000156,
2026,2953,-5.09256710619104,6.60598839659492,0.00880760590445107,0.009910,-0.086953,0.005915,0.412545,-3.946286,317.117911,20.272332,0.999454,0.991560,0.003643,0.416684,0.000049,-0.000003,-0.000006,0.000050,-0.000003,-7.042632,0.000055,
2461,2263,4.49447993549525,-8.43040471702567,-0.00941519703025051,0.008165,-0.092979,-0.017097,0.398604,-4.269706,327.272280,18.438722,0.998528,0.978840,0.005804,0.406565,0.000867,0.000737,-0.000127,0.000945,0.000659,-31.335512,0.001612,
2191,2143,-1.38234503630627,-11.0591986429016,-0.00635217028883517,0.001862,-0.093725,-0.021904,0.120917,-4.351535,329.045586,19.430420,0.998086,0.982156,0.005656,0.403480,0.001038,0.001104,0.000065,0.001144,0.000998,58.298715,0.002144,
2386,3043,2.70811100592165,8.58164361722062,0.00840764135386962,0.010690,-0.089448,0.007069,0.429862,-4.061033,314.649476,21.234226,0.999683,0.991346,0.003731,0.440861,0.000030,0.000024,0.000033,0.000060,-0.000006,42.284481,0.000066,
2296,2653,0.818762993780449,0.093652063454094,-0.0257560398852092,0.007620,-0.089341,-0.000823,0.318609,-4.070930,320.626178,20.141171,0.998999,0.987354,0.004395,0.459017,0.000159,0.000093,0.000000,0.000159,0.000093,0.285495,0.000255,
2476,2473,4.77708073566695,-3.83115249801887,-0.0305012307205175,0.008347,-0.090724,-0.009040,0.378056,-4.143661,323.705457,19.253810,0.999280,0.989950,0.004307,0.469356,0.000444,0.000245,-0.000050,0.000456,0.000234,-13.265556,0.000701,
2131,3178,-2.84879051888453,11.4899032055527,0.0464595021383616,0.011382,-0.088033,0.013384,0.453815,-3.983507,313.250420,20.519919,0.999227,0.988169,0.004034,0.450691,0.000025,0.000034,-0.000018,0.000048,0.000011,-52.356755,0.000063,
2056,3133,-4.46762152038132,10.5095103211972,0.038100711356833,0.011323,-0.087639,0.013109,0.456064,-3.977909,314.293989,20.226681,0.999206,0.992233,0.003423,0.427152,0.000023,0.000023,-0.000023,0.000046,0.000000,-44.709621,0.000053,
2011,3058,-5.43173052028578,8.88073972015496,0.033970601126498,0.010540,-0.087007,0.006512,0.440462,-3.962129,315.743906,20.114998,0.999223,0.992399,0.003616,0.434151,0.000058,0.000025,-0.000011,0.000061,0.000022,-16.196562,0.000086,
2446,2113,4.19825742031468,-11.7246879272463,-0.000703245867043734,0.008021,-0.096264,-0.026602,0.425407,-4.492811,329.767172,17.755447,0.999027,0.978074,0.006072,0.383875,0.001322,0.001313,-0.000158,0.001476,0.001159,-44.269334,0.002641,
2506,2653,5.3938598645506,0.100556599628156,-0.0243189105165129,0.008204,-0.091024,0.002671,0.326379,-4.113474,320.861376,20.006029,0.999366,0.987789,0.004618,0.419001,0.000195,0.000098,-0.000020,0.000199,0.000094,-11.180322,0.000299,
2236,2413,-0.447856566821649,-5.14244840314659,-0.0412901538031178,0.005051,-0.090031,-0.009345,0.229152,-4.130901,324.390112,19.924995,0.999545,0.990979,0.003891,0.298039,0.000420,0.000348,0.000010,0.000421,0.000346,7.782016,0.000769,
2266,2563,0.182426735071942,-1.87156902308828,-0.0180620645110139,0.007243,-0.089749,-0.003955,0.312097,-4.086035,322.184187,19.904066,0.999419,0.989829,0.004169,0.541475,0.000234,0.000154,0.000011,0.000236,0.000152,7.960445,0.000391,
2401,3223,3.00207620805026,12.4873860560281,0.0429626147226259,0.011576,-0.090015,0.015466,0.439591,-4.075322,312.011874,21.796202,0.999453,0.991697,0.003645,0.445992,0.000045,0.000025,0.000029,0.000066,0.000004,35.616088,0.000078,
2071,2998,-4.12248710587494,7.58395229872548,0.0236655083572259,0.010402,-0.087240,0.007687,0.428387,-3.953719,316.262600,20.334101,0.999481,0.992142,0.003509,0.442126,0.000039,0.000001,-0.000023,0.000050,-0.000010,-24.904126,0.000053,
2356,2938,2.07400943791879,6.29927787365419,-0.0050572927721646,0.009942,-0.089693,0.009537,0.387759,-4.058955,316.199207,20.910121,0.999229,0.989348,0.004059,0.402801,0.000033,0.000029,0.000027,0.000058,0.000004,42.989224,0.000070,
2161,2023,-2.01930638687233,-13.692872776127,-0.00844781009425333,-0.000944,-0.096324,-0.030985,0.018436,-4.519553,330.951977,19.347649,0.997716,0.982710,0.005705,0.380669,0.001383,0.001390,0.000061,0.001448,0.001325,46.586359,0.002774,
2041,3058,-4.78180313929297,8.88290394705434,0.0344138871808468,0.010701,-0.087361,0.014009,0.425770,-3.950359,315.543982,20.215301,0.999693,0.994167,0.003192,0.446934,0.000035,0.000009,-0.000036,0.000061,-0.000016,-35.352481,0.000063,
2491,2563,5.08589478668838,-1.86529905361882,-0.02445909524954,0.008256,-0.090824,-0.003870,0.354123,-4.157912,322.309619,19.599768,0.999400,0.988813,0.004478,0.432491,0.000301,0.000156,-0.000023,0.000305,0.000153,-8.732341,0.000466,
2251,2473,-0.128646246431895,-3.83717220819601,-0.00490629110146301,0.005931,-0.090320,-0.002909,0.248368,-4.108861,323.714222,19.813501,0.999536,0.990730,0.004103,0.484577,0.000344,0.000262,0.000018,0.000348,0.000258,12.098374,0.000608,
2176,2083,-1.70044384013189,-12.3751975929746,-0.00797154750944173,0.000734,-0.095064,-0.027039,0.084219,-4.455170,330.006926,19.434283,0.999134,0.984841,0.005295,0.318808,0.001218,0.001266,0.000071,0.001317,0.001167,54.240612,0.002485,
2086,3043,-3.80423505526434,8.56041688607089,0.0276898631624931,0.010403,-0.087580,0.009060,0.423704,-3.978728,315.479622,20.332260,0.999531,0.991994,0.003582,0.455799,0.000044,0.000008,-0.000033,0.000064,-0.000012,-30.515099,0.000068,
2371,3028,2.3850682647247,8.25495147992996,0.0129807072620451,0.010578,-0.089379,0.008410,0.420572,-4.046875,314.916016,21.185061,0.999394,0.989403,0.004156,0.415395,0.000031,0.000019,0.000027,0.000053,-0.000003,38.994359,0.000059,
2206,2248,-1.07248996170491,-8.7564936824171,-0.0182174992929163,0.003612,-0.092129,-0.015856,0.182982,-4.259997,327.274554,19.591450,0.998477,0.982295,0.005514,0.385498,0.000789,0.000762,0.000047,0.000825,0.000727,37.068042,0.001553,
2221,2323,-0.757504495577269,-7.11501542935814,-0.0206662580801549,0.004906,-0.091129,-0.012506,0.232181,-4.203514,326.055247,19.620934,0.998745,0.986298,0.004803,0.449192,0.000608,0.000548,0.000032,0.000622,0.000534,23.397378,0.001156,
2431,2068,3.87829150633883,-12.7131561717919,-0.00240586268927245,0.007323,-0.098065,-0.024811,0.385544,-4.556023,330.411514,17.635578,0.997204,0.969906,0.007213,0.370778,0.001464,0.001392,-0.000139,0.001571,0.001285,-37.699086,0.002860,
2116,3163,-3.17214845783742,11.1639462681909,0.041693218547266,0.011033,-0.087944,0.013656,0.437703,-3.994139,313.506318,20.466823,0.999517,0.993249,0.003435,0.422324,0.000030,0.000034,-0.000020,0.000052,0.000012,-47.874567,0.000069,
2026,2968,-5.09441796790913,6.93127822822523,0.00914542464209944,0.010253,-0.086675,0.004406,0.432563,-3.951830,316.896781,20.243245,0.999440,0.991606,0.003592,0.430100,0.000049,-0.000018,-0.000016,0.000052,-0.000021,-12.709957,0.000052,
2341,2908,1.75369390158054,5.64621880260865,-0.00961010910936011,0.010022,-0.089460,0.003826,0.412070,-4.066756,316.675958,20.792277,0.999193,0.990285,0.004017,0.407939,0.000034,0.000034,0.000033,0.000067,0.000001,45.029317,0.000078,
2056,3148,-4.46929143093028,10.8344946074663,0.0452360941593497,0.011420,-0.087155,0.010277,0.468704,-3.962493,314.121230,20.236599,0.999519,0.993314,0.003282,0.426183,0.000026,0.000023,-0.000025,0.000050,-0.000001,-43.594519,0.000057,
2311,2728,1.13233823677031,1.72754665278062,-0.016775826130413,0.008227,-0.089611,0.004078,0.329439,-4.056237,319.479999,20.286683,0.999382,0.989642,0.004105,0.481585,0.000107,0.000091,0.000014,0.000115,0.000083,30.221016,0.000199,
2506,2668,5.39206658595499,0.426704923594045,-0.0199698746625359,0.009045,-0.090680,0.001551,0.369457,-4.103585,320.697070,19.996351,0.999216,0.985956,0.004850,0.499984,0.000191,0.000074,-0.000016,0.000193,0.000072,-7.827060,0.000274,
2101,3148,-3.49421293975267,10.8372929840492,0.0448292265201644,0.011372,-0.087547,0.012334,0.458261,-3.961156,313.868999,20.357560,0.999852,0.996461,0.002722,0.498471,0.000032,0.000022,-0.000017,0.000044,0.000009,-36.823239,0.000057,
2476,2488,4.77463742455707,-3.5042300449679,-0.0218292985501876,0.008039,-0.090207,-0.011365,0.372990,-4.157410,323.529615,19.325449,0.999270,0.987443,0.004493,0.441600,0.000421,0.000216,-0.000047,0.000431,0.000206,-12.247230,0.000650,
2326,2803,1.44484790838937,3.36157227084172,-0.0184568063580173,0.008505,-0.089551,0.005044,0.338452,-4.064268,318.245030,20.493645,0.999370,0.992774,0.003772,0.441116,0.000078,0.000062,0.000026,0.000097,0.000043,36.232241,0.000143,
2386,3058,2.70575636804765,8.90685725777081,0.0200379044788974,0.010619,-0.089762,0.010866,0.412887,-4.060350,314.484658,21.296575,0.999682,0.991766,0.003631,0.421443,0.000032,0.000029,0.000034,0.000065,-0.000004,43.974669,0.000073,
2491,2578,5.08397599737771,-1.53812232947262,-0.0157786325839311,0.008893,-0.090821,-0.001450,0.374148,-4.132211,322.158216,19.680259,0.998758,0.980823,0.005404,0.437398,0.000288,0.000146,-0.000018,0.000291,0.000144,-7.135385,0.000443,
2131,3193,-2.85124377733424,11.8151194783868,0.0440807344780865,0.011509,-0.087964,0.012185,0.463309,-3.991075,312.994704,20.529372,0.999525,0.991936,0.003513,0.438139,0.000022,0.000032,-0.000021,0.000049,0.000006,-51.831195,0.000060,
2011,3073,-5.43395778504149,9.20646372816144,0.029875233844848,0.010903,-0.086776,0.007336,0.455120,-3.933700,315.479514,20.089766,0.999225,0.992850,0.003644,0.474931,0.000049,0.000026,-0.000001,0.000049,0.000026,-2.851454,0.000076,
2446,2128,4.19538204294807,-11.3955251642593,-0.000344888417089351,0.008269,-0.096169,-0.024832,0.430247,-4.478388,329.532809,17.802420,0.998932,0.977328,0.006270,0.406625,0.001274,0.001273,-0.000150,0.001423,0.001123,-44.940502,0.002553,
2461,2278,4.49189594574922,-8.10192344241322,-0.00453131254431582,0.008157,-0.092462,-0.017754,0.400934,-4.270887,327.072561,18.538431,0.999079,0.979733,0.005654,0.362085,0.000823,0.000686,-0.000112,0.000885,0.000624,-29.287570,0.001517,
2161,2038,-2.02166537091653,-13.362783678109,-0.01684230085732,-0.000409,-0.096418,-0.032735,0.048267,-4.545808,330.671136,19.385268,0.998206,0.983768,0.005490,0.330437,0.001343,0.001344,0.000063,0.001406,0.001281,45.033563,0.002688,
2401,3238,2.99928652694065,12.8135002639698,0.0346823034291219,0.012174,-0.089704,0.012986,0.476247,-4.073311,311.732520,21.862199,0.999425,0.991893,0.003568,0.426221,0.000043,0.000016,0.000027,0.000060,-0.000001,31.758901,0.000069,
2041,3073,-4.78401852175721,9.20821123090358,0.0318177217466769,0.010783,-0.087019,0.010624,0.439099,-3.948385,315.291061,20.188409,0.999456,0.991611,0.003784,0.467533,0.000033,0.000010,-0.000026,0.000050,-0.000008,-33.171600,0.000054,
2296,2668,0.816385745085913,0.420566908404929,-0.0174314576544816,0.007543,-0.089606,0.001562,0.306935,-4.070938,320.440246,20.242733,0.999445,0.990256,0.004009,0.387500,0.000147,0.000102,-0.000005,0.000147,0.000101,-5.757189,0.000250,
2191,2158,-1.38412089128243,-10.7313128045334,0.00544868154361211,0.001757,-0.092707,-0.022269,0.117549,-4.310824,328.898996,19.464708,0.998429,0.984348,0.005411,0.426939,0.001006,0.001040,0.000066,0.001091,0.000955,52.323025,0.002047,
2071,3013,-4.1248089001211,7.90911553252548,0.026499713983867,0.010293,-0.087117,0.007763,0.423166,-3.956934,316.036906,20.320179,0.999354,0.991141,0.003733,0.449078,0.000038,0.000000,-0.000028,0.000054,-0.000015,-27.891466,0.000055,
2281,2653,0.493218149330477,0.0933024793470025,-0.0235777322284889,0.008198,-0.089080,-0.002964,0.352751,-4.065576,320.695755,20.179369,0.999268,0.988393,0.004284,0.435126,0.000151,0.000085,-0.000003,0.000151,0.000085,-2.720906,0.000239,
2431,2083,3.87498146248185,-12.3822862581087,-0.00735207589133324,0.007814,-0.098286,-0.019765,0.389390,-4.546047,330.131530,17.767959,0.997648,0.974922,0.006842,0.301791,0.001403,0.001374,-0.000140,0.001529,0.001248,-41.992807,0.002781,
2506,2683,5.38757209278891,0.755503333358817,-0.0313035709542078,0.008706,-0.090735,0.002491,0.350261,-4.111772,320.337904,20.122940,0.999399,0.989938,0.004141,0.427057,0.000183,0.000072,-0.000007,0.000183,0.000072,-3.386107,0.000263,
2356,2953,2.07116613472203,6.62504885838748,-0.00674588190781833,0.009909,-0.089775,0.007364,0.393894,-4.064772,315.946443,20.914413,0.999298,0.989070,0.004075,0.431230,0.000033,0.000017,0.000029,0.000055,-0.000005,36.991623,0.000061,
2176,2098,-1.70313685846363,-12.0457737881052,-0.0226640053889469,0.001413,-0.094399,-0.028411,0.119809,-4.425845,329.679330,19.311325,0.998899,0.982936,0.005550,0.487259,0.001178,0.001234,0.000069,0.001281,0.001131,56.110874,0.002414,
2086,3058,-3.80604551774254,8.88533720681772,0.0279056001870686,0.010882,-0.087695,0.007278,0.450945,-3.982482,315.264213,20.291021,0.999470,0.992287,0.003522,0.491731,0.000045,0.000011,-0.000029,0.000062,-0.000006,-30.055392,0.000068,
2266,2578,0.179185997529586,-1.543083851064,-0.0226547958767469,0.007216,-0.089746,-0.001241,0.301923,-4.073774,321.891839,19.998783,0.999179,0.987682,0.004498,0.485549,0.000219,0.000143,0.000010,0.000220,0.000142,7.648305,0.000365,
2476,2503,4.77178042590247,-3.17741416825164,-0.0132128225584438,0.008063,-0.090854,-0.004859,0.349151,-4.158357,323.334419,19.377734,0.999257,0.987894,0.004517,0.446001,0.000392,0.000217,-0.000043,0.000402,0.000207,-13.218060,0.000619,
2221,2338,-0.761561935131422,-6.78406518046786,-0.0376778638066639,0.004424,-0.090411,-0.015492,0.219894,-4.203707,325.658030,19.746567,0.999439,0.989279,0.004447,0.344756,0.000574,0.000512,0.000023,0.000582,0.000505,18.307771,0.001087,
2056,3163,-4.47175754195031,11.1595208941655,0.0442605685272497,0.011387,-0.087313,0.010111,0.467603,-3.970596,313.867132,20.227940,0.999560,0.992025,0.003507,0.420254,0.000024,0.000039,-0.000029,0.000061,0.000002,-52.366894,0.000071,
2011,3088,-5.43603031289887,9.53148838097879,0.0377731756934168,0.010765,-0.086768,0.009060,0.444075,-3.933084,315.290029,20.108829,0.999555,0.994553,0.003167,0.443471,0.000034,0.000006,-0.000011,0.000038,0.000002,-18.695445,0.000045,
2251,2488,-0.131343729591695,-3.5090496649606,-0.0119148817017845,0.006346,-0.089988,-0.003408,0.269212,-4.099847,323.433563,19.823945,0.999495,0.989584,0.004083,0.508011,0.000319,0.000232,0.000014,0.000322,0.000230,8.893624,0.000554,
2026,2983,-5.0969802155045,7.2568832868156,0.00835780969833877,0.010194,-0.086706,0.006850,0.423117,-3.938178,316.636640,20.220501,0.999309,0.991662,0.003709,0.456101,0.000044,-0.000025,-0.000017,0.000048,-0.000029,-13.147662,0.000049,
2236,2428,-0.448653269342547,-4.81843872010009,-0.0233455783193222,0.005894,-0.090791,-0.004965,0.253403,-4.130443,324.322890,19.783724,0.999265,0.989499,0.004240,0.461581,0.000396,0.000306,0.000007,0.000397,0.000306,4.285329,0.000704,
2116,3178,-3.17371620695814,11.4885001848896,0.0487164618417069,0.011452,-0.087865,0.013071,0.458805,-3.986285,313.341062,20.451766,0.999526,0.992323,0.003486,0.447666,0.000029,0.000038,-0.000019,0.000053,0.000014,-51.709486,0.000071,
2341,2923,1.75063488454704,5.97225396334046,-0.00847885451759112,0.009872,-0.089883,0.006075,0.397294,-4.051723,316.425812,20.811697,0.999008,0.989083,0.004184,0.439685,0.000031,0.000033,0.000026,0.000058,0.000006,46.444115,0.000070,
2371,3043,2.38239298085532,8.58022302288269,0.0156129474062254,0.010640,-0.089563,0.009294,0.420275,-4.047125,314.692668,21.190683,0.999588,0.991200,0.003761,0.449743,0.000028,0.000024,0.000028,0.000054,-0.000003,42.845707,0.000061,
2446,2143,4.19146216731873,-11.0647985336936,-0.012254335184025,0.008314,-0.095845,-0.025120,0.433558,-4.467496,329.194089,17.869024,0.998499,0.978082,0.006296,0.406455,0.001206,0.001217,-0.000149,0.001360,0.001062,-46.061258,0.002428,
2161,2053,-2.02344973680246,-13.0343977966562,-0.00781369164320722,-0.000268,-0.095762,-0.031357,0.050731,-4.506472,330.507767,19.403625,0.998273,0.983802,0.005425,0.364714,0.001299,0.001322,0.000068,0.001380,0.001241,49.701990,0.002622,
2326,2818,1.44258475177503,3.68751531669818,-0.0116951769136335,0.008633,-0.089614,0.006486,0.339348,-4.062123,318.058287,20.531043,0.999510,0.990897,0.003855,0.440191,0.000069,0.000061,0.000023,0.000088,0.000042,40.192344,0.000133,
2101,3163,-3.49697089926893,11.1629301256701,0.0410249140348355,0.011371,-0.087562,0.013266,0.455378,-3.980277,313.589162,20.400169,0.999727,0.995124,0.002999,0.436773,0.000030,0.000036,-0.000018,0.000052,0.000015,-50.096606,0.000069,
2386,3073,2.70289851398136,9.23273766292169,0.015574242196351,0.010982,-0.089623,0.010495,0.430996,-4.057406,314.219818,21.316786,0.999638,0.991071,0.003752,0.446662,0.000030,0.000031,0.000033,0.000063,-0.000003,45.382385,0.000071,
2491,2593,5.080804294783,-1.21078191345715,-0.0140973591714442,0.008647,-0.090923,-0.001652,0.363563,-4.150823,321.917762,19.762984,0.999789,0.994094,0.003611,0.395657,0.000264,0.000146,-0.000011,0.000265,0.000145,-5.438681,0.000416,
2401,3253,2.9954706960891,13.1396704754455,0.0221746879569764,0.012358,-0.089654,0.014002,0.481109,-4.070917,311.385768,21.914391,0.999459,0.991176,0.003686,0.420710,0.000042,0.000021,0.000029,0.000062,0.000001,34.670050,0.000072,
2506,2698,5.38560253946683,1.08129689676193,-0.02288832651044,0.009068,-0.090988,0.001839,0.369318,-4.126594,320.183615,20.147863,0.999474,0.990580,0.003951,0.448614,0.000171,0.000077,-0.000007,0.000172,0.000077,-4.119166,0.000255,
2431,2098,3.87164538516695,-12.0534715025575,-0.00045605339443,0.007177,-0.098340,-0.016332,0.347610,-4.536181,329.905164,17.849193,0.998909,0.980606,0.006171,0.283498,0.001345,0.001345,-0.000141,0.001487,0.001204,-44.957284,0.002695,
2206,2263,-1.07449895408762,-8.42890390472028,-0.0129496057317624,0.003631,-0.091738,-0.018037,0.190860,-4.248191,327.084674,19.593051,0.998484,0.981528,0.005510,0.414409,0.000752,0.000707,0.000045,0.000780,0.000679,31.509757,0.001460,
2296,2683,0.813944788460937,0.746476197268549,-0.0172523507941946,0.008008,-0.089939,0.004088,0.319687,-4.068388,320.211242,20.185558,0.999515,0.989999,0.004000,0.477821,0.000139,0.000109,-0.000006,0.000140,0.000108,-10.551347,0.000248,
2131,3208,-2.85299513574923,12.1400122103659,0.0514229346370598,0.011756,-0.087864,0.011766,0.476058,-3.975703,312.823415,20.546717,0.999696,0.994125,0.003140,0.440761,0.000020,0.000032,-0.000022,0.000048,0.000004,-52.265939,0.000058,
2461,2293,4.48827712384698,-7.77464165601349,-0.00605230970808179,0.007808,-0.092728,-0.016301,0.379434,-4.282692,326.796280,18.479109,0.998857,0.979491,0.005706,0.466239,0.000788,0.000631,-0.000111,0.000846,0.000574,-27.305138,0.001428,
2311,2743,1.13035067776623,2.05419772021718,-0.0141851583883295,0.008670,-0.089276,0.002193,0.356353,-4.049599,319.284488,20.331031,0.999428,0.990526,0.003997,0.476274,0.000097,0.000087,0.000017,0.000110,0.000074,36.826752,0.000185,
2476,2518,4.76869035993819,-2.84986785851397,-0.0136325275350373,0.008015,-0.091282,-0.005484,0.349198,-4.178073,323.087454,19.437729,0.999006,0.983668,0.004920,0.424065,0.000362,0.000220,-0.000046,0.000376,0.000206,-16.448886,0.000590,
2281,2668,0.49036879576342,0.421029048085785,-0.0221710009988101,0.008141,-0.089419,-0.000513,0.341882,-4.062049,320.452563,20.293924,0.999570,0.991417,0.003955,0.352511,0.000139,0.000095,-0.000007,0.000140,0.000094,-9.396874,0.000236,
2011,3103,-5.43796484825276,9.85644424558517,0.0401422357092542,0.010971,-0.086930,0.008678,0.454656,-3.922600,315.075809,20.079750,0.999522,0.994326,0.003198,0.470115,0.000028,-0.000003,-0.000012,0.000032,-0.000007,-19.427576,0.000033,
2056,3178,-4.47371910644089,11.4840277497833,0.0535814236388319,0.011415,-0.087258,0.013014,0.460805,-3.945192,313.693309,20.203298,0.999638,0.993855,0.003212,0.463748,0.000022,0.000046,-0.000026,0.000063,0.000005,-57.044821,0.000076,
2086,3073,-3.80862224317353,9.21155747056985,0.0273201319121199,0.010859,-0.087577,0.008812,0.445508,-3.970785,315.008798,20.352923,0.999450,0.991373,0.003584,0.439409,0.000038,0.000010,-0.000022,0.000051,-0.000002,-29.065439,0.000057,
2071,3028,-4.12758953720882,8.23501032486158,0.0214586988650467,0.010268,-0.087103,0.008615,0.419603,-3.956205,315.746702,20.320969,0.999513,0.992944,0.003428,0.444985,0.000039,0.000005,-0.000033,0.000059,-0.000015,-31.266008,0.000061,
2041,3088,-4.78686380837878,9.53477654608144,0.0223084620791383,0.010662,-0.087025,0.007259,0.442909,-3.959336,314.970374,20.250513,0.999579,0.993680,0.003298,0.385871,0.000025,0.000002,-0.000030,0.000046,-0.000019,-34.685738,0.000046,
2176,2113,-1.70553067863243,-11.7170886251993,-0.0139028794237674,0.001066,-0.094449,-0.026078,0.096668,-4.414888,329.487805,19.402392,0.998622,0.978464,0.005922,0.422269,0.001138,0.001200,0.000070,0.001246,0.001092,56.793572,0.002339,
2266,2593,0.176054677590546,-1.21569044382314,-0.0257757121954683,0.007003,-0.089583,-0.001055,0.291633,-4.056462,321.612084,20.006533,0.998984,0.986302,0.004725,0.521703,0.000208,0.000110,0.000008,0.000208,0.000110,4.795570,0.000323,
2251,2503,-0.134903023788581,-3.17948515493269,-0.018135290738428,0.005874,-0.089464,-0.003626,0.248425,-4.075114,323.116969,19.963976,0.999395,0.988849,0.004277,0.417643,0.000300,0.000220,0.000014,0.000302,0.000218,9.892589,0.000522,
2191,2173,-1.38694810502318,-10.400980310916,-0.0134777606371586,0.002492,-0.092492,-0.025957,0.162851,-4.312362,328.545049,19.441758,0.998658,0.969077,0.006382,0.466246,0.000970,0.001000,0.000064,0.001051,0.000918,51.529280,0.001971,
2026,2998,-5.09876493455979,7.58222737124245,0.0160640619006358,0.010381,-0.086807,0.008904,0.426054,-3.942170,316.459757,20.253125,0.999406,0.992187,0.003554,0.408844,0.000039,-0.000016,-0.000017,0.000044,-0.000021,-16.038704,0.000044,
2356,2968,2.06866660761588,6.95175218304512,-0.00482771685938133,0.009962,-0.089410,0.005412,0.403464,-4.034999,315.726524,20.998409,0.999533,0.991017,0.003779,0.415264,0.000031,0.000017,0.000031,0.000055,-0.000007,38.489269,0.000060,
2371,3058,2.37956958485773,8.90597413081145,0.0184454432678081,0.010833,-0.090223,0.013901,0.412468,-4.069669,314.463280,21.267760,0.999677,0.992928,0.003401,0.390439,0.000029,0.000028,0.000030,0.000058,-0.000001,44.495992,0.000067,
2131,3223,-2.85557723950323,12.4647160684534,0.0522824287733101,0.011703,-0.087844,0.012972,0.469969,-3.983028,312.579328,20.534914,0.999657,0.994070,0.003116,0.449381,0.000020,0.000033,-0.000022,0.000050,0.000003,-53.198784,0.000060,
2161,2068,-2.02591524565713,-12.7060390373737,2.53877425393512E-06,-0.000298,-0.096097,-0.023664,0.025743,-4.473087,330.306969,19.416325,0.998758,0.984841,0.005280,0.398574,0.001259,0.001278,0.000077,0.001346,0.001191,48.459106,0.002539,
2401,3268,2.99083870958289,13.4661510886048,0.00277332227807392,0.011971,-0.089531,0.011194,0.473638,-4.061610,310.968557,21.955817,0.999608,0.991405,0.003703,0.432624,0.000039,0.000026,0.000026,0.000059,0.000006,37.647102,0.000072,
2116,3193,-3.17622553631795,11.8138371128455,0.0489652484718022,0.011481,-0.087791,0.014206,0.456836,-3.976035,313.095764,20.469568,0.999581,0.992446,0.003590,0.442378,0.000026,0.000036,-0.000022,0.000054,0.000008,-51.439630,0.000067,
2236,2443,-0.450829019999041,-4.48997560276096,-0.0132296813948187,0.005823,-0.090455,-0.002154,0.241195,-4.114489,324.151726,19.963806,0.999439,0.991322,0.004148,0.319725,0.000371,0.000281,0.000009,0.000372,0.000280,5.374170,0.000654,
2491,2608,5.07839450394476,-0.884874049986792,-0.00614716996091147,0.008887,-0.091404,0.001231,0.363409,-4.140527,321.740630,19.743710,0.999789,0.993929,0.003676,0.484569,0.000248,0.000130,-0.000008,0.000249,0.000129,-3.779889,0.000384,
2221,2353,-0.763240199255495,-6.45766431330301,-0.0310179954338423,0.004929,-0.090482,-0.014421,0.239614,-4.188831,325.491587,19.680132,0.999164,0.987673,0.004682,0.446415,0.000545,0.000460,0.000022,0.000550,0.000454,13.590260,0.001006,
2446,2158,4.18801468078442,-10.7354756331014,-0.00611529101769293,0.007591,-0.095139,-0.022437,0.390847,-4.423319,328.959704,17.974450,0.998774,0.978898,0.005879,0.400590,0.001158,0.001132,-0.000154,0.001299,0.000991,-42.623717,0.002297,
2476,2533,4.76544025400426,-2.5210483342889,-0.0194293255827347,0.008196,-0.090741,-0.006836,0.362868,-4.151184,322.808324,19.524594,0.999428,0.987798,0.004279,0.422254,0.000342,0.000209,-0.000038,0.000352,0.000199,-14.818706,0.000557,
2206,2278,-1.07719694915258,-8.10118434278506,-0.00561559625077734,0.003432,-0.092352,-0.011443,0.160714,-4.245165,326.873909,19.640775,0.998630,0.982301,0.005377,0.388587,0.000718,0.000662,0.000043,0.000741,0.000639,28.545279,0.001381,
2506,2713,5.38294839350151,1.40964536085106,-0.0227515564841383,0.009306,-0.090103,-0.000575,0.390002,-4.094602,319.960147,20.296945,0.999516,0.990125,0.003985,0.393104,0.000151,0.000064,0.000007,0.000151,0.000064,4.334092,0.000221,
2011,3118,-5.44046384568484,10.1818136553209,0.0382724436738613,0.011126,-0.087035,0.012693,0.450819,-3.931599,314.811735,20.085374,0.999634,0.995057,0.003003,0.442466,0.000032,0.000029,-0.000010,0.000041,0.000020,-40.907556,0.000063,
2326,2833,1.43939259419258,4.0160669908844,-0.0238886199634862,0.009077,-0.089449,0.005338,0.363830,-4.057618,317.735413,20.666014,0.999812,0.992891,0.003573,0.344199,0.000060,0.000060,0.000024,0.000084,0.000035,45.113155,0.000123,
2431,2113,3.86965339404648,-11.7245542515578,-0.000489939144983964,0.007613,-0.096673,-0.023004,0.392809,-4.486041,329.708078,17.828059,0.998878,0.978440,0.006241,0.407853,0.001291,0.001311,-0.000143,0.001444,0.001157,-47.033623,0.002607,
2461,2308,4.48485298317605,-7.44396154545543,-0.0136792032232051,0.008034,-0.092650,-0.016655,0.391195,-4.261686,326.500475,18.642064,0.998451,0.976539,0.006061,0.381258,0.000763,0.000582,-0.000106,0.000812,0.000533,-24.703039,0.001355,
2341,2938,1.74854292671348,6.29728281555428,-0.000695300751942796,0.010190,-0.089947,0.008493,0.403389,-4.071648,316.252753,20.824419,0.999068,0.988419,0.004177,0.443071,0.000030,0.000030,0.000025,0.000055,0.000005,45.080885,0.000066,
2041,3103,-4.788855736024,9.85939916436703,0.0277416688992389,0.010642,-0.086690,0.006484,0.444198,-3.956695,314.772625,20.219705,0.999592,0.994246,0.003194,0.410740,0.000024,-0.000001,-0.000026,0.000040,-0.000017,-32.203602,0.000040,
2101,3178,-3.49953962113642,11.4870682667696,0.0388121067188081,0.011496,-0.088055,0.014797,0.456492,-3.996730,313.327213,20.315919,0.999776,0.995428,0.002886,0.504886,0.000028,0.000041,-0.000017,0.000052,0.000016,-55.603535,0.000072,
2386,3088,2.70013523478569,9.55768922366318,0.0238764680775034,0.010618,-0.089780,0.012434,0.407156,-4.070308,314.020337,21.353279,0.999391,0.989667,0.004005,0.439675,0.000031,0.000020,0.000030,0.000056,-0.000005,39.942744,0.000062,
2056,3193,-4.47605557255374,11.809377707476,0.0520514567708119,0.011701,-0.087405,0.015289,0.467545,-3.944675,313.442003,20.219811,0.999543,0.993536,0.003262,0.441260,0.000019,0.000043,-0.000030,0.000063,-0.000001,-55.693708,0.000073,
2176,2128,-1.70813136309485,-11.3879327110441,-0.0110147761120061,0.001104,-0.094844,-0.020936,0.082406,-4.418162,329.256214,19.491172,0.998219,0.979760,0.005864,0.345519,0.001097,0.001166,0.000069,0.001209,0.001054,58.200006,0.002264,
2401,3283,2.98792832604769,13.7914318523056,-0.00321442253402893,0.012565,-0.089561,0.012504,0.496235,-4.069783,310.694507,21.983429,0.999652,0.990866,0.003803,0.441042,0.000040,0.000019,0.000021,0.000053,0.000006,32.162653,0.000065,
2026,3013,-5.10100315428719,7.90848541121496,0.011622987685314,0.010497,-0.086647,0.005116,0.441880,-3.944985,316.193876,20.290053,0.999549,0.992829,0.003550,0.358646,0.000036,-0.000014,-0.000019,0.000043,-0.000020,-18.287124,0.000043,
2191,2188,-1.38958857888353,-10.0718896735057,-0.00859417906065119,0.002478,-0.092895,-0.019531,0.142033,-4.300456,328.323032,19.551347,0.997937,0.976392,0.006122,0.385567,0.000932,0.000970,0.000059,0.001013,0.000889,53.799685,0.001903,
2311,2758,1.1269219578312,2.3806684862604,-0.0146568233629978,0.008244,-0.089614,0.004886,0.327487,-4.050085,319.007735,20.346064,0.999463,0.991845,0.003914,0.493356,0.000093,0.000082,0.000021,0.000109,0.000066,37.107165,0.000177,
2071,3043,-4.13016573644943,8.560933980757,0.0207384678185463,0.010302,-0.087303,0.011389,0.413245,-3.937785,315.489556,20.339986,0.999515,0.992786,0.003448,0.440544,0.000041,0.000005,-0.000038,0.000065,-0.000019,-32.203840,0.000067,
2296,2698,0.811137984527154,1.07418333171319,-0.0255255458567376,0.008301,-0.089568,0.000689,0.344806,-4.061300,319.923076,20.224208,0.999665,0.992094,0.003721,0.476966,0.000130,0.000107,-0.000002,0.000131,0.000107,-5.754383,0.000238,
2281,2683,0.488055265395463,0.746779736440132,-0.0206427067406594,0.008638,-0.089542,0.002459,0.354750,-4.052712,320.235000,20.226679,0.999563,0.991719,0.003815,0.457165,0.000131,0.000099,-0.000010,0.000134,0.000097,-16.029735,0.000232,
2116,3208,-3.17771664935261,12.1384299586143,0.0552713049349904,0.011986,-0.087774,0.013001,0.483713,-3.983964,312.930184,20.475774,0.999645,0.993579,0.003299,0.430449,0.000023,0.000033,-0.000023,0.000051,0.000005,-51.521269,0.000062,
2086,3088,-3.81095861674248,9.53677151355632,0.0275295685245851,0.010908,-0.087440,0.008480,0.448780,-3.966704,314.769129,20.338944,0.999315,0.991184,0.003740,0.455773,0.000029,0.000008,-0.000025,0.000046,-0.000009,-33.756435,0.000049,
2131,3238,-2.85838093467503,12.7901729143741,0.0444372216777538,0.011978,-0.088103,0.013815,0.479997,-4.000195,312.278124,20.556602,0.999605,0.993939,0.003066,0.414905,0.000018,0.000029,-0.000022,0.000047,0.000001,-51.666758,0.000054,
2356,2983,2.06649562299142,7.27696660326414,-0.000547082569482882,0.010282,-0.089443,0.005073,0.419320,-4.049919,315.533562,21.010030,0.999390,0.988403,0.004200,0.426815,0.000028,0.000023,0.000028,0.000054,-0.000003,42.724984,0.000061,
2266,2608,0.1737454961788,-0.888128531911903,-0.0259628991777845,0.007492,-0.089680,0.000338,0.309427,-4.075020,321.384797,20.095809,0.999112,0.986159,0.004683,0.439985,0.000190,0.000098,0.000007,0.000191,0.000098,4.576250,0.000294,
2206,2293,-1.07856577554977,-7.77201083896896,-0.00971440529195888,0.004505,-0.091172,-0.017116,0.228270,-4.210629,326.664707,19.678641,0.998888,0.984661,0.005037,0.403965,0.000681,0.000622,0.000045,0.000705,0.000598,28.430007,0.001304,
2161,2083,-2.02791732272196,-12.3748562775469,-0.0027112685157249,-0.000008,-0.094599,-0.028823,0.055267,-4.451297,330.071766,19.585946,0.998701,0.983522,0.005476,0.264145,0.001218,0.001262,0.000077,0.001320,0.001160,53.106431,0.002482,
2491,2623,5.07437721480963,-0.557295295443787,-0.0146983553969449,0.008433,-0.091017,-0.001551,0.353450,-4.131977,321.414982,19.742277,0.999798,0.993951,0.003547,0.554630,0.000228,0.000103,-0.000015,0.000230,0.000101,-6.759002,0.000339,
2221,2368,-0.765153794641346,-6.12946972635608,-0.0189203872615167,0.004986,-0.090453,-0.011156,0.231829,-4.146209,325.341725,19.807078,0.999454,0.988695,0.004466,0.382678,0.000515,0.000432,0.000018,0.000519,0.000428,11.983867,0.000949,
2371,3073,2.37739818834193,9.23138667460342,0.0206483386537002,0.011086,-0.089807,0.010341,0.436957,-4.072018,314.260916,21.292945,0.999582,0.991537,0.003664,0.402976,0.000026,0.000028,0.000028,0.000055,-0.000001,45.675255,0.000063,
2041,3118,-4.79112822408256,10.1841340713454,0.0324247033535698,0.010746,-0.086895,0.011560,0.434812,-3.944556,314.557817,20.188310,0.999628,0.994257,0.003135,0.445821,0.000024,0.000018,-0.000024,0.000045,-0.000003,-41.143282,0.000050,
2446,2173,4.18531251618893,-10.4060088749909,0.00190937359997179,0.007435,-0.094822,-0.020133,0.375323,-4.409355,328.768211,18.147644,0.999240,0.983743,0.005121,0.296191,0.001106,0.001098,-0.000152,0.001254,0.000949,-44.283565,0.002211,
2506,2728,5.37989661000632,1.73588340073235,-0.019453931384362,0.009037,-0.090159,-0.001036,0.379424,-4.095156,319.732920,20.314706,0.999383,0.989274,0.004106,0.436177,0.000131,0.000074,0.000008,0.000132,0.000073,7.893373,0.000208,
2251,2518,-0.137763515743696,-2.8519522112786,-0.0205144321326429,0.005745,-0.089206,-0.004829,0.246567,-4.055208,322.852222,19.963045,0.999131,0.986285,0.004673,0.463032,0.000285,0.000208,0.000017,0.000289,0.000204,11.892942,0.000495,
2011,3133,-5.44274754219632,10.5074649080937,0.0325722322428987,0.011278,-0.086683,0.009138,0.467583,-3.928541,314.535867,20.085498,0.999632,0.994129,0.003149,0.432613,0.000032,0.000040,-0.000009,0.000046,0.000027,-56.824180,0.000073,
2236,2458,-0.453682197483328,-4.16339408132343,-0.0105774911990011,0.005344,-0.090478,-0.002864,0.221490,-4.107858,323.911980,19.915122,0.999293,0.989401,0.004411,0.397725,0.000350,0.000264,0.000013,0.000352,0.000263,8.268790,0.000617,
2431,2128,3.86765579833075,-11.3953200731121,0.00655523302060601,0.007763,-0.095425,-0.026178,0.411919,-4.451436,329.543456,17.933598,0.999192,0.979022,0.006300,0.389667,0.001244,0.001271,-0.000137,0.001394,0.001120,-47.830600,0.002519,
2476,2548,4.76269653649396,-2.19389738344071,-0.0200910599149324,0.008507,-0.090598,-0.007463,0.379616,-4.143328,322.575987,19.528689,0.999347,0.987762,0.004408,0.483706,0.000320,0.000170,-0.000029,0.000325,0.000164,-10.657003,0.000498,
2341,2953,1.74592185375096,6.62354851787623,0.00233681395150143,0.010080,-0.089652,0.007430,0.402137,-4.077134,316.031853,20.906450,0.999297,0.990590,0.003891,0.391335,0.000031,0.000017,0.000026,0.000051,-0.000003,37.712148,0.000058,
2116,3223,-3.18032316601781,12.4630875342467,0.0530584709475193,0.011959,-0.087856,0.012276,0.484605,-3.992432,312.667432,20.442615,0.999704,0.994317,0.003147,0.457487,0.000022,0.000035,-0.000023,0.000052,0.000005,-52.745793,0.000063,
2461,2323,4.48154099009159,-7.11626054622723,-0.0145629469808455,0.007909,-0.092383,-0.015570,0.381549,-4.255655,326.240888,18.620672,0.998597,0.978351,0.005781,0.465125,0.000727,0.000541,-0.000099,0.000770,0.000498,-23.394617,0.001278,
2056,3208,-4.47819500977711,12.134299695604,0.0518831932876651,0.011668,-0.086965,0.010531,0.479552,-3.949377,313.207454,20.214022,0.999552,0.993304,0.003266,0.435575,0.000019,0.000035,-0.000032,0.000059,-0.000006,-52.181825,0.000065,
2326,2848,1.43689260357566,4.34030467904742,-0.0142591322710359,0.008788,-0.089499,0.007356,0.343515,-4.071066,317.552215,20.591926,0.999724,0.992163,0.003668,0.438911,0.000053,0.000062,0.000028,0.000087,0.000029,49.490076,0.000120,
2026,3028,-5.10294760828949,8.23173393708346,0.02643930193193,0.010428,-0.087538,0.012649,0.417721,-3.956984,316.050261,20.192164,0.999438,0.991213,0.003917,0.433850,0.000041,-0.000002,-0.000020,0.000049,-0.000010,-21.529558,0.000052,
2176,2143,-1.71037936536828,-11.0591186177896,-0.00335689578304255,0.001098,-0.094090,-0.016771,0.069494,-4.344320,329.065254,19.528134,0.997520,0.979861,0.006046,0.397254,0.001056,0.001095,0.000074,0.001153,0.000999,52.452086,0.002153,
2401,3298,2.9845268241678,14.1163229622923,-0.00863760771659372,0.012672,-0.089685,0.014429,0.494102,-4.080549,310.400555,21.985307,0.999639,0.992082,0.003677,0.472373,0.000038,0.000002,0.000022,0.000049,-0.000008,25.306047,0.000052,
2071,3058,-4.13190377909004,8.88544270069647,0.0202174947904155,0.010849,-0.087502,0.009182,0.444691,-3.963213,315.272526,20.277826,0.999342,0.991892,0.003553,0.473291,0.000041,0.000009,-0.000033,0.000062,-0.000012,-32.431636,0.000065,
2296,2713,0.807240365818206,1.40145717540197,-0.0332564890790081,0.008060,-0.089824,0.005352,0.317833,-4.074151,319.587608,20.253316,0.999703,0.993056,0.003571,0.465342,0.000119,0.000097,0.000002,0.000119,0.000097,3.964407,0.000217,
2101,3193,-3.50149629952684,11.8123252764798,0.0495986902113827,0.011419,-0.087884,0.016534,0.448001,-3.972469,313.163451,20.374677,0.999595,0.993716,0.003257,0.470082,0.000024,0.000038,-0.000020,0.000052,0.000010,-54.360297,0.000067,
2491,2638,5.07009115706325,-0.226977866349209,-0.0290817869052375,0.008522,-0.090491,-0.000698,0.354525,-4.101413,321.050044,19.926803,0.999446,0.988369,0.004262,0.460590,0.000214,0.000105,-0.000019,0.000217,0.000102,-9.716447,0.000326,
2086,3103,-3.81307046597421,9.86192055335192,0.0305436992737214,0.011098,-0.087436,0.009595,0.454323,-3.966822,314.555104,20.344747,0.999715,0.993607,0.003215,0.447800,0.000027,0.000006,-0.000021,0.000040,-0.000007,-31.951835,0.000043,
2506,2743,5.37518241655038,2.06436172026676,-0.0262154883039329,0.008715,-0.090687,0.007291,0.332286,-4.093315,319.383684,20.459966,0.999658,0.989632,0.003959,0.354043,0.000113,0.000059,0.000005,0.000113,0.000059,5.333463,0.000175,
2011,3148,-5.44499715818112,10.8312424038828,0.0399479496401227,0.011067,-0.087053,0.011961,0.450049,-3.944820,314.335959,20.016760,0.999626,0.993595,0.003342,0.471876,0.000029,0.000029,-0.000014,0.000043,0.000015,-45.457043,0.000060,
2041,3133,-4.79256058163046,10.5090212897726,0.0392088191372295,0.011180,-0.087013,0.010300,0.458355,-3.947393,314.393215,20.201924,0.999355,0.992235,0.003565,0.420558,0.000024,0.000027,-0.000022,0.000047,0.000003,-47.172993,0.000056,
2266,2623,0.171600688402318,-0.561553761550414,-0.024305809279042,0.007956,-0.089891,0.001011,0.328491,-4.062215,321.174419,20.083720,0.999331,0.987255,0.004458,0.491231,0.000174,0.000088,0.000001,0.000174,0.000088,0.954574,0.000267,
2311,2773,1.12529823112577,2.70708586297268,-0.00942003916594558,0.008791,-0.089373,0.002159,0.362079,-4.046001,318.841948,20.400670,0.999486,0.992260,0.003788,0.474730,0.000088,0.000070,0.000021,0.000101,0.000057,33.239745,0.000160,
2131,3253,-2.86086449700518,13.1154179538518,0.0396944181023855,0.012136,-0.087820,0.011079,0.495630,-3.995793,312.008314,20.559472,0.999640,0.994644,0.002978,0.420755,0.000016,0.000029,-0.000022,0.000045,0.000000,-52.954377,0.000052,
2281,2698,0.485343058089168,1.0732215530365,-0.0170360604186612,0.008292,-0.089654,0.001355,0.342495,-4.072994,320.009381,20.273881,0.999758,0.993164,0.003583,0.417774,0.000122,0.000096,-0.000007,0.000124,0.000094,-14.580140,0.000219,
2161,2098,-2.02958808576728,-12.0462038116844,-0.00529786217953188,0.000869,-0.094105,-0.029831,0.098683,-4.416680,329.852666,19.519385,0.998948,0.983592,0.005495,0.378371,0.001177,0.001228,0.000075,0.001282,0.001123,54.418312,0.002406,
2446,2188,4.18263347055266,-10.0768867150876,0.000963788682213362,0.007822,-0.094318,-0.020338,0.394015,-4.372397,328.536463,18.175750,0.999407,0.985869,0.004892,0.360065,0.001057,0.001066,-0.000142,0.001203,0.000920,-45.934702,0.002129,
2356,2998,2.0638310555887,7.6026534521478,0.00810805424418959,0.010160,-0.089600,0.009748,0.397189,-4.050741,315.338807,21.084442,0.999588,0.991835,0.003662,0.389637,0.000026,0.000024,0.000025,0.000050,0.000000,44.132090,0.000058,
2476,2563,4.75939749943336,-1.86494341107807,-0.0229086955897628,0.008980,-0.090485,-0.001763,0.379808,-4.095685,322.307840,19.644392,0.997999,0.982570,0.005404,0.473252,0.000309,0.000162,-0.000017,0.000311,0.000160,-6.599451,0.000479,
2386,3103,2.69797850078336,9.8831442011184,0.0259848764430899,0.010972,-0.089582,0.009598,0.433804,-4.059481,313.819070,21.376114,0.998967,0.987680,0.004348,0.470019,0.000036,0.000024,0.000033,0.000063,-0.000003,40.067653,0.000071,
2191,2203,-1.39190762078466,-9.74301352956873,-0.0108674206467185,0.002929,-0.092491,-0.018069,0.158273,-4.266008,328.078563,19.548397,0.997837,0.977637,0.006125,0.440081,0.000902,0.000926,0.000053,0.000969,0.000859,51.183449,0.001829,
2026,3043,-5.10515035464535,8.55655336007808,0.0270097195638073,0.010368,-0.087221,0.010333,0.421473,-3.939692,315.814585,20.117805,0.999403,0.991509,0.003905,0.515113,0.000041,0.000000,-0.000032,0.000059,-0.000018,-29.058151,0.000060,
2236,2473,-0.455997013990029,-3.8372259723104,-0.00894847654609521,0.005428,-0.090122,-0.004189,0.229744,-4.109362,323.691799,19.831655,0.999396,0.990628,0.004150,0.502104,0.000333,0.000257,0.000017,0.000337,0.000253,11.638313,0.000592,
2251,2533,-0.140317719820946,-2.52354419192555,-0.0299943335087391,0.006617,-0.089564,-0.003550,0.282300,-4.076252,322.565544,20.024604,0.999512,0.991445,0.003855,0.405090,0.000268,0.000181,0.000011,0.000269,0.000180,7.442849,0.000452,
2056,3223,-4.48059341786721,12.4588135295856,0.0546838377806012,0.011660,-0.087159,0.013315,0.471319,-3.942054,312.977616,20.179553,0.999562,0.992975,0.003264,0.470872,0.000019,0.000034,-0.000031,0.000058,-0.000005,-52.050381,0.000064,
2116,3238,-3.18331913435109,12.7882733256884,0.0484719878938336,0.011951,-0.088142,0.015436,0.474738,-4.000537,312.373781,20.448423,0.999675,0.994608,0.003007,0.445659,0.000020,0.000033,-0.000022,0.000049,0.000004,-52.810121,0.000059,
2431,2143,3.86267005856545,-11.0646201574588,-0.00621816094690075,0.007227,-0.096016,-0.020929,0.367883,-4.476329,329.150373,18.023815,0.998894,0.978951,0.005997,0.328086,0.001180,0.001210,-0.000137,0.001333,0.001057,-48.198917,0.002395,
2371,3088,2.37449442294836,9.5565959117779,0.0262433431225304,0.010734,-0.089719,0.011780,0.415621,-4.072861,314.041119,21.323345,0.999407,0.989491,0.004055,0.411843,0.000027,0.000017,0.000024,0.000047,-0.000003,38.802881,0.000052,
2416,1993,3.56641415573811,-14.3647301333232,0.012357901814994,0.006840,-0.100147,-0.032517,0.390099,-4.729992,331.726027,17.395931,0.998404,0.973473,0.006620,0.274930,0.001702,0.001460,-0.000148,0.001772,0.001390,-25.306730,0.003170,
2461,2338,4.47865155086656,-6.78771758532448,-0.0104417911805967,0.008023,-0.092772,-0.011885,0.372807,-4.253735,326.023347,18.735038,0.998439,0.977210,0.005838,0.408880,0.000696,0.000514,-0.000092,0.000735,0.000475,-22.695133,0.001220,
2206,2308,-1.08118910428833,-7.44427013711516,-0.0101564568741992,0.004257,-0.090721,-0.020035,0.226274,-4.204072,326.417281,19.656031,0.998692,0.984484,0.005018,0.451983,0.000642,0.000578,0.000040,0.000661,0.000559,25.729679,0.001221,
2326,2863,1.43478094692433,4.66628387192624,-0.0133525134599495,0.009176,-0.089680,0.004346,0.371722,-4.082518,317.343688,20.614069,0.999667,0.991889,0.003723,0.439291,0.000051,0.000062,0.000026,0.000083,0.000030,50.992854,0.000117,
2221,2383,-0.768069242931734,-5.80299473977797,-0.0166662375801252,0.004705,-0.090802,-0.008096,0.209000,-4.160465,325.096178,19.741964,0.999282,0.988272,0.004496,0.454119,0.000484,0.000410,0.000014,0.000487,0.000408,10.100931,0.000895,
2101,3208,-3.50301352829779,12.1378218842005,0.0540431492498215,0.011935,-0.087780,0.014283,0.478374,-3.983681,312.985399,20.456213,0.999600,0.993428,0.003318,0.377313,0.000022,0.000033,-0.000021,0.000049,0.000006,-52.573052,0.000060,
2041,3148,-4.79437042937796,10.8333108585061,0.0482336023462153,0.011325,-0.087047,0.012717,0.458235,-3.953482,314.224026,20.180406,0.999581,0.993305,0.003399,0.427366,0.000024,0.000024,-0.000024,0.000048,0.000000,-45.388968,0.000055,
2491,2653,5.06690917565671,0.1003516542238,-0.0260790392860599,0.008208,-0.090376,-0.000232,0.338411,-4.098869,320.814644,20.017780,0.999364,0.987931,0.004401,0.431531,0.000201,0.000095,-0.000021,0.000205,0.000091,-10.590962,0.000304,
2476,2578,4.75537616052197,-1.53695473469383,-0.0242835697325177,0.008114,-0.090343,-0.001973,0.340992,-4.086579,322.013224,19.728017,0.997866,0.983483,0.005385,0.456605,0.000295,0.000153,-0.000011,0.000296,0.000152,-4.315255,0.000456,
2056,3238,-4.48234341541378,12.7835127014298,0.0593802472434959,0.012007,-0.087312,0.013176,0.487637,-3.955188,312.787981,20.196542,0.999605,0.993768,0.003185,0.433858,0.000017,0.000030,-0.000032,0.000056,-0.000008,-50.728666,0.000060,
2176,2158,-1.71554269351968,-10.7232062507493,-0.051688154698752,0.001533,-0.092866,-0.019503,0.098340,-4.322358,328.448267,19.670466,0.998747,0.961027,0.007173,0.294114,0.001018,0.001028,0.000075,0.001098,0.000949,46.904284,0.002049,
2506,2758,5.37208332811775,2.39001915981594,-0.0274410882923348,0.008971,-0.091116,0.009101,0.336846,-4.107202,319.134038,20.410643,0.999697,0.990221,0.003830,0.450798,0.000109,0.000039,0.000012,0.000111,0.000037,9.463083,0.000155,
2071,3073,-4.13392409941815,9.21043329506544,0.0268757022566888,0.011007,-0.087637,0.012379,0.442803,-3.959428,315.081767,20.281270,0.999397,0.991200,0.003718,0.469469,0.000035,0.000009,-0.000027,0.000052,-0.000008,-31.765205,0.000056,
2341,2968,1.74298355368296,6.95066002260406,-0.00349143748417191,0.010104,-0.089294,0.003376,0.417638,-4.052825,315.752958,20.978936,0.999887,0.997583,0.002630,0.379575,0.000029,0.000015,0.000026,0.000049,-0.000005,36.948894,0.000054,
2416,2008,3.5639287347953,-14.0374756605227,0.0196587914508655,0.007224,-0.100835,-0.026026,0.383771,-4.710857,331.539878,17.298404,0.998264,0.970388,0.006891,0.442900,0.001661,0.001459,-0.000142,0.001735,0.001386,-27.281552,0.003127,
2131,3268,-2.86397865925101,13.4409195361548,0.0322310881395538,0.012113,-0.087752,0.012443,0.490484,-3.989887,311.694834,20.573919,0.999640,0.995052,0.002931,0.416455,0.000015,0.000043,-0.000022,0.000054,0.000003,-61.380447,0.000065,
2011,3163,-5.44657045191634,11.1564814572353,0.0483849764483466,0.011205,-0.086671,0.010222,0.461199,-3.937412,314.172493,20.068081,0.999456,0.993474,0.003479,0.414727,0.000019,0.000047,-0.000021,0.000058,0.000007,-61.543017,0.000072,
2311,2788,1.12272138053851,3.03279879313267,-0.00415066684183785,0.008868,-0.089381,0.005963,0.352598,-4.045151,318.632698,20.397913,0.999552,0.994002,0.003561,0.510628,0.000090,0.000068,0.000026,0.000107,0.000051,33.579411,0.000161,
2116,3253,-3.1860443489182,13.1140338297164,0.0472008513720539,0.011860,-0.088048,0.016417,0.467719,-3.990848,312.110209,20.512396,0.999718,0.995976,0.002709,0.393256,0.000019,0.000033,-0.000020,0.000047,0.000005,-54.891081,0.000058,
2191,2218,-1.39435819460764,-9.41450052424115,-0.0100470425576873,0.002894,-0.092128,-0.018700,0.158780,-4.264526,327.844302,19.583011,0.997824,0.979807,0.006071,0.424112,0.000867,0.000869,0.000055,0.000923,0.000813,45.620700,0.001737,
2266,2638,0.169035109713217,-0.23417643428467,-0.0248026099130243,0.008016,-0.089321,-0.000254,0.335635,-4.052848,320.933709,20.134930,0.999072,0.986962,0.004497,0.475403,0.000163,0.000081,-0.000001,0.000163,0.000081,-0.715992,0.000249,
2281,2713,0.482759611748161,1.39903273432974,-0.0123898036996479,0.008272,-0.089859,0.004024,0.332558,-4.089619,319.794976,20.272016,0.999677,0.992711,0.003633,0.430938,0.000111,0.000088,-0.000005,0.000112,0.000087,-11.137369,0.000200,
2446,2203,4.17881992450138,-9.74714555781713,-0.00681618085837954,0.007535,-0.093437,-0.021728,0.386461,-4.331451,328.221173,18.190318,0.999439,0.985174,0.004951,0.441785,0.001009,0.000982,-0.000129,0.001125,0.000866,-42.007657,0.001996,
2356,3013,2.06082367472673,7.92777152555421,0.0127263739462364,0.009930,-0.089881,0.013444,0.373472,-4.051594,315.108919,21.082298,0.999552,0.990884,0.003819,0.429018,0.000024,0.000023,0.000024,0.000047,0.000000,44.283469,0.000054,
2476,2593,4.75265026453479,-1.2100228902405,-0.0215104625384583,0.008224,-0.090336,-0.001809,0.345411,-4.091635,321.797105,19.769577,0.998253,0.982304,0.005171,0.467239,0.000271,0.000147,-0.000006,0.000271,0.000147,-2.882251,0.000424,
2431,2158,3.86069146261216,-10.7372751223771,0.00309716577180552,0.007071,-0.095085,-0.025705,0.378720,-4.456151,328.997231,18.005756,0.998951,0.978409,0.005914,0.418909,0.001129,0.001126,-0.000140,0.001268,0.000988,-44.680919,0.002262,
2296,2728,0.805276142026894,1.7276124030941,-0.0234125742011315,0.008250,-0.089970,0.007298,0.319994,-4.058829,319.428175,20.298518,0.999515,0.991226,0.003841,0.465527,0.000108,0.000085,0.000007,0.000110,0.000083,15.630292,0.000194,
2491,2668,5.06469625561291,0.426601301803458,-0.0246318712548828,0.008785,-0.090269,-0.002156,0.372323,-4.111924,320.616986,20.016212,0.999261,0.986835,0.004516,0.479466,0.000195,0.000073,-0.000018,0.000198,0.000071,-8.053499,0.000279,
2161,2113,-2.03244104202631,-11.7163235742839,-0.00570461076051743,0.000776,-0.093555,-0.025638,0.081804,-4.368451,329.590718,19.580925,0.998958,0.981736,0.005526,0.378414,0.001138,0.001192,0.000076,0.001245,0.001084,54.893569,0.002332,
2041,3163,-4.79707563765728,11.1583323116501,0.0448063338841393,0.011212,-0.087195,0.013108,0.451873,-3.958209,313.944249,20.152649,0.999583,0.993035,0.003484,0.441686,0.000019,0.000040,-0.000028,0.000060,0.000000,-55.047138,0.000069,
2461,2353,4.47486000345782,-6.45791937197752,-0.0202662790100021,0.008025,-0.092224,-0.012553,0.375661,-4.218914,325.700438,18.799327,0.998881,0.982364,0.005467,0.436335,0.000662,0.000486,-0.000089,0.000699,0.000449,-22.531574,0.001157,
2056,3253,-4.48500047974819,13.1093293682322,0.0562553282803151,0.011819,-0.086839,0.011233,0.484629,-3.940722,312.513008,20.248396,0.999747,0.994958,0.003028,0.389869,0.000018,0.000037,-0.000030,0.000059,-0.000004,-53.925072,0.000066,
2026,3058,-5.10731530525024,8.88228279707217,0.029683096238216,0.010345,-0.087190,0.010027,0.421179,-3.962480,315.592134,20.184645,0.999149,0.990193,0.004010,0.414855,0.000035,0.000014,-0.000030,0.000056,-0.000007,-35.291329,0.000061,
2326,2878,1.43253476466586,4.99230451254641,-0.00815535622962216,0.009448,-0.089562,0.005873,0.379049,-4.060685,317.149858,20.642597,0.999477,0.990790,0.003902,0.466831,0.000045,0.000054,0.000028,0.000077,0.000022,49.701410,0.000104,
2086,3118,-3.81541082372711,10.1872377140428,0.0325809617695541,0.011086,-0.087344,0.010104,0.452315,-3.960065,314.325208,20.356644,0.999725,0.993945,0.003089,0.440630,0.000024,0.000015,-0.000021,0.000041,-0.000002,-38.462762,0.000046,
2506,2773,5.36983091191439,2.7170165035489,-0.0284910606688413,0.009360,-0.090319,0.002644,0.380002,-4.115759,318.923760,20.485086,0.999695,0.990698,0.003806,0.429145,0.000095,0.000027,0.000001,0.000095,0.000027,0.504208,0.000127,
2386,3118,2.69518231090133,10.2093945688491,0.0271093517310419,0.011029,-0.089440,0.010093,0.434728,-4.054444,313.583369,21.475694,0.999507,0.991794,0.003638,0.417603,0.000037,0.000029,0.000035,0.000069,-0.000003,41.548989,0.000078,
2206,2323,-1.08351511935026,-7.11632007222665,-0.00709371422345839,0.004722,-0.090952,-0.013525,0.226985,-4.196011,326.201444,19.690977,0.998786,0.984723,0.004827,0.443664,0.000616,0.000541,0.000034,0.000629,0.000528,21.071383,0.001159,
2236,2488,-0.458600916221375,-3.50799586572924,-0.0196400544182893,0.006300,-0.090256,-0.002915,0.265641,-4.114984,323.395051,19.924377,0.999386,0.988658,0.004276,0.426202,0.000310,0.000232,0.000015,0.000312,0.000229,10.174278,0.000544,
2011,3178,-5.44855299655871,11.4809653686154,0.0500000498821578,0.011340,-0.086741,0.008520,0.472068,-3.945966,313.952187,20.027912,0.999688,0.995472,0.002807,0.433442,0.000015,0.000048,-0.000025,0.000061,0.000002,-61.467625,0.000071,
2251,2548,-0.142205201100222,-2.19747229932764,-0.0247806811759688,0.007098,-0.089747,-0.002187,0.299907,-4.077101,322.384097,19.988634,0.999627,0.993374,0.003572,0.464170,0.000256,0.000153,0.000011,0.000258,0.000152,6.249958,0.000414,
2101,3223,-3.50539161188079,12.4620200894074,0.0593550918418373,0.011752,-0.087866,0.015458,0.466526,-3.981319,312.773041,20.412886,0.999632,0.993568,0.003279,0.423205,0.000021,0.000034,-0.000020,0.000049,0.000006,-54.053045,0.000061,
2071,3088,-4.13660540728518,9.53542802960913,0.0273292352550811,0.010757,-0.087754,0.013408,0.428288,-3.967251,314.826651,20.260262,0.999354,0.990325,0.003841,0.478380,0.000026,0.000006,-0.000030,0.000047,-0.000016,-35.766671,0.000048,
2416,2023,3.55867724246226,-13.7022619237407,0.00261378202276319,0.006096,-0.099123,-0.028843,0.343174,-4.639924,331.112889,17.603922,0.997891,0.973934,0.006583,0.261137,0.001605,0.001447,-0.000135,0.001683,0.001369,-29.783641,0.003057,
2116,3268,-3.1882211497467,13.4394023782183,0.0390382343626356,0.012293,-0.087479,0.010111,0.506596,-3.982367,311.834804,20.507171,0.999714,0.995651,0.002840,0.409045,0.000018,0.000045,-0.000018,0.000055,0.000009,-63.192067,0.000069,
2371,3103,2.37208505500792,9.88301797783939,0.0264018975739191,0.011060,-0.089322,0.010108,0.436831,-4.049187,313.817556,21.409874,0.999394,0.989931,0.003978,0.389313,0.000032,0.000021,0.000026,0.000053,-0.000001,38.974602,0.000061,
2131,3283,-2.86689711838819,13.7658934685363,0.0287801708841471,0.012119,-0.087742,0.015277,0.482329,-3.980320,311.412048,20.562717,0.999642,0.995092,0.003007,0.441516,0.000011,0.000053,-0.000020,0.000061,0.000003,-68.453858,0.000072,
2221,2398,-0.769714001665857,-5.47394953908708,-0.0145038678378455,0.005419,-0.090448,-0.009294,0.245731,-4.146336,324.907714,19.887201,0.999540,0.991144,0.003950,0.343268,0.000461,0.000369,0.000015,0.000464,0.000367,8.818858,0.000832,
2341,2983,1.74085570566204,7.27531216894956,0.00345688592619808,0.010324,-0.089516,0.004116,0.425060,-4.064193,315.574164,20.953264,0.999760,0.995091,0.003056,0.429885,0.000027,0.000021,0.000023,0.000047,0.000001,40.866982,0.000055,
2191,2233,-1.39701800509193,-9.08577773394317,-0.0071640485028297,0.002731,-0.092069,-0.016173,0.143391,-4.247422,327.611029,19.647715,0.998149,0.981819,0.005696,0.393317,0.000829,0.000817,0.000049,0.000872,0.000774,41.433176,0.001647,
2461,2368,4.47237041514894,-6.12979083525614,-0.00893040197848904,0.007728,-0.091660,-0.011393,0.357982,-4.185949,325.533923,18.924925,0.999457,0.987663,0.004909,0.399848,0.000629,0.000451,-0.000083,0.000661,0.000419,-21.431856,0.001089,
2281,2728,0.479583988696287,1.72610641528392,-0.0150896154499947,0.008395,-0.090276,0.009285,0.320476,-4.080099,319.516311,20.304768,0.999603,0.992023,0.003684,0.435810,0.000101,0.000077,-0.000001,0.000101,0.000077,-3.305327,0.000178,
2056,3268,-4.48742613311842,13.433772727213,0.0548190158079933,0.012047,-0.086953,0.013951,0.487366,-3.952563,312.258573,20.213386,0.999729,0.995030,0.002941,0.406413,0.000017,0.000034,-0.000028,0.000055,-0.000003,-53.561141,0.000061,
2266,2653,0.166270766123613,0.094135663358351,-0.0290519508706097,0.008158,-0.088990,-0.001484,0.346368,-4.054844,320.664798,20.256462,0.999371,0.989781,0.004177,0.378210,0.000153,0.000077,-0.000002,0.000153,0.000077,-1.796775,0.000234,
2506,2788,5.36683909026676,3.04382798397317,-0.0249232895269529,0.009229,-0.090298,0.003353,0.371331,-4.096555,318.699984,20.555390,0.999538,0.990110,0.004013,0.439134,0.000085,0.000045,-0.000006,0.000086,0.000044,-8.826220,0.000132,
2476,2608,4.74922458552339,-0.882651606479541,-0.0260141412319399,0.008135,-0.090541,-0.002931,0.345544,-4.107379,321.515700,19.803859,0.998679,0.984211,0.004815,0.474505,0.000250,0.000131,-0.000004,0.000250,0.000131,-2.072970,0.000387,
2491,2683,5.06082986076527,0.754569870763746,-0.0288880593977865,0.008604,-0.090352,0.000750,0.352945,-4.086859,320.317082,20.091966,0.999405,0.989808,0.004123,0.488269,0.000188,0.000077,-0.000012,0.000189,0.000075,-5.862162,0.000273,
2176,2173,-1.72067645901176,-10.3897990387284,-0.0885917000343284,0.001169,-0.092896,-0.023013,0.092445,-4.324260,327.892555,19.741691,0.999634,0.930010,0.008833,0.237595,0.000982,0.000988,0.000074,0.001059,0.000911,45.973413,0.001972,
2011,3193,-5.45059847790624,11.8060068944209,0.0502876730909634,0.011713,-0.086677,0.010511,0.483912,-3.937467,313.721317,20.017902,0.999695,0.995494,0.002738,0.438780,0.000014,0.000048,-0.000029,0.000065,-0.000002,-60.352114,0.000074,
2296,2743,0.80369121370147,2.05412504160186,-0.0194688189009184,0.008806,-0.089358,0.003182,0.359704,-4.049897,319.256815,20.338856,0.999374,0.990181,0.004003,0.464261,0.000099,0.000082,0.000009,0.000103,0.000079,23.084017,0.000182,
2026,3073,-5.10920043704037,9.20726650653113,0.0304932116467285,0.010726,-0.087108,0.009912,0.439164,-3.946032,315.372354,20.135460,0.999127,0.991409,0.003887,0.469777,0.000030,0.000014,-0.000020,0.000043,0.000000,-33.814390,0.000050,
2041,3178,-4.7995943918717,11.4829774983563,0.0482679002871009,0.010959,-0.087031,0.015007,0.435020,-3.937614,313.711497,20.110346,0.999647,0.993758,0.003318,0.495813,0.000017,0.000046,-0.000027,0.000063,0.000001,-58.931738,0.000073,
2356,3028,2.05882705697603,8.2536885588211,0.0168343027276592,0.010332,-0.089678,0.011692,0.398224,-4.058928,314.922790,21.160088,0.999552,0.991255,0.003803,0.381886,0.000026,0.000020,0.000023,0.000046,0.000000,41.538102,0.000053,
2431,2173,3.85699443464798,-10.4074047910148,0.00279290312619196,0.006755,-0.095522,-0.021171,0.347437,-4.451873,328.720627,18.136241,0.998996,0.982470,0.005286,0.345780,0.001080,0.001088,-0.000140,0.001223,0.000944,-45.789723,0.002173,
2446,2218,4.17479197458085,-9.41777604033455,-0.0106555855091415,0.007044,-0.093520,-0.019125,0.354324,-4.341387,327.914326,18.269326,0.998977,0.983218,0.005380,0.407796,0.000969,0.000937,-0.000122,0.001076,0.000830,-41.256352,0.001912,
2116,3283,-3.19102916070273,13.7638167694207,0.0372136673832415,0.012254,-0.087617,0.012585,0.497421,-3.981891,311.564970,20.461507,0.999741,0.995503,0.002912,0.457400,0.000015,0.000054,-0.000015,0.000059,0.000010,-71.520211,0.000074,
2131,3298,-2.86916290789249,14.0904244574269,0.0306932346879307,0.012234,-0.087715,0.015124,0.488145,-3.974689,311.188188,20.547583,0.999614,0.993553,0.003288,0.466536,0.000014,0.000064,-0.000021,0.000071,0.000006,-70.311754,0.000086,
2206,2338,-1.08671577514346,-6.78629146348681,-0.0165176594308605,0.004536,-0.090319,-0.016415,0.227817,-4.186478,325.880853,19.796125,0.999307,0.987981,0.004558,0.367055,0.000580,0.000507,0.000024,0.000587,0.000500,16.858709,0.001088,
2236,2503,-0.461531172986309,-3.18003953146491,-0.022335355520454,0.006235,-0.089646,-0.002136,0.260347,-4.093475,323.124149,19.952610,0.999346,0.987549,0.004396,0.442069,0.000293,0.000223,0.000017,0.000297,0.000219,12.670716,0.000518,
2416,2038,3.55530653406371,-13.3729770991302,-0.00366071560210912,0.006371,-0.098796,-0.026318,0.346703,-4.603768,330.822645,17.532540,0.997223,0.973336,0.006870,0.420247,0.001539,0.001419,-0.000136,0.001628,0.001331,-33.101712,0.002963,
2311,2803,1.11895278369454,3.36108876264286,-0.0156469721368353,0.008755,-0.089309,0.006259,0.346478,-4.033147,318.285407,20.495485,0.999372,0.991096,0.003935,0.457580,0.000083,0.000062,0.000023,0.000098,0.000047,33.248720,0.000148,
2101,3238,-3.50790248674972,12.7870607528066,0.0543606055083501,0.011986,-0.087815,0.014866,0.479060,-3.979819,312.498332,20.392609,0.999673,0.994199,0.003104,0.445029,0.000019,0.000032,-0.000019,0.000046,0.000005,-54.651041,0.000056,
2071,3103,-4.1381098114257,9.86022836173306,0.0371144931623348,0.010963,-0.087672,0.012167,0.441373,-3.968389,314.676851,20.277248,0.999562,0.992364,0.003442,0.456261,0.000024,0.000004,-0.000025,0.000041,-0.000013,-33.797866,0.000042,
2056,3283,-4.49002795867151,13.7584276108354,0.0465714194644988,0.012338,-0.086990,0.013712,0.501499,-3.953034,311.958285,20.153265,0.999751,0.995442,0.002841,0.459277,0.000014,0.000033,-0.000021,0.000046,0.000000,-57.388540,0.000053,
2161,2128,-2.03544055749743,-11.3869365256297,-0.0140491919886472,0.000886,-0.093583,-0.024157,0.082331,-4.370995,329.280755,19.567658,0.999208,0.980733,0.005465,0.402634,0.001096,0.001161,0.000074,0.001210,0.001047,56.843923,0.002259,
2506,2803,5.36332252929133,3.37086793255841,-0.024717727446955,0.009204,-0.090516,0.008133,0.351639,-4.092108,318.436912,20.639569,0.998917,0.986656,0.004919,0.420489,0.000091,0.000046,-0.000003,0.000091,0.000045,-3.691409,0.000139,
2326,2893,1.42980907483908,5.31882266745232,-0.00941752501586279,0.009521,-0.089558,0.004618,0.386756,-4.064756,316.902247,20.699308,0.999195,0.989929,0.004062,0.440251,0.000038,0.000041,0.000030,0.000070,0.000009,46.594997,0.000087,
2371,3118,2.36908814597498,10.2083370466918,0.0266485684545614,0.011137,-0.089553,0.012901,0.430426,-4.043083,313.567673,21.416874,0.999601,0.991335,0.003744,0.428175,0.000033,0.000025,0.000029,0.000058,0.000000,41.279415,0.000067,
2386,3133,2.69324850706115,10.5344055641,0.0355644787219376,0.011438,-0.089636,0.011453,0.448626,-4.056825,313.422628,21.517288,0.999629,0.992786,0.003522,0.415752,0.000039,0.000031,0.000033,0.000068,0.000001,41.527417,0.000080,
2026,3088,-5.11113607826237,9.53319864875872,0.0340591778175963,0.010869,-0.087102,0.009351,0.447337,-3.943860,315.165357,20.209155,0.999516,0.994103,0.003322,0.387479,0.000021,0.000002,-0.000026,0.000039,-0.000016,-34.420571,0.000039,
2251,2563,-0.144980292018072,-1.87090634709489,-0.0230736105945653,0.006829,-0.089743,-0.002462,0.288418,-4.088657,322.144134,19.981865,0.999528,0.990893,0.003895,0.483627,0.000238,0.000154,0.000013,0.000240,0.000152,8.308516,0.000395,
2491,2698,5.05770204819486,1.08245798141257,-0.032714041295776,0.008615,-0.090265,-0.002423,0.365687,-4.094244,320.053086,20.201388,0.999566,0.989617,0.004086,0.430743,0.000173,0.000084,-0.000009,0.000174,0.000083,-5.998083,0.000263,
2341,2998,1.73795749496404,7.60093060160025,0.00914752386472628,0.010183,-0.089737,0.008931,0.401745,-4.060104,315.353476,20.995857,0.999872,0.997249,0.002773,0.427252,0.000025,0.000022,0.000020,0.000043,0.000004,43.413649,0.000052,
2221,2413,-0.771746576984061,-5.14589881215691,-0.0155755549474179,0.005901,-0.089622,-0.011346,0.274773,-4.102648,324.685004,19.885991,0.999536,0.991120,0.003967,0.408789,0.000437,0.000335,0.000013,0.000439,0.000333,6.956076,0.000774,
2461,2383,4.46868697489468,-5.80172986600837,-0.0124930524638103,0.007600,-0.092196,-0.008633,0.341554,-4.198580,325.244781,18.949542,0.999454,0.986649,0.004946,0.418750,0.000590,0.000417,-0.000087,0.000626,0.000381,-22.669872,0.001017,
2011,3208,-5.4524955243713,12.1307599824414,0.0529130332567433,0.012077,-0.086833,0.012139,0.496298,-3.932446,313.510575,20.002122,0.999599,0.993396,0.003229,0.446412,0.000016,0.000041,-0.000028,0.000059,-0.000002,-56.896151,0.000068,
2086,3133,-3.81756549245449,10.5121505754797,0.0389906607833836,0.011078,-0.087335,0.012097,0.446208,-3.953797,314.127863,20.362368,0.999705,0.993543,0.003100,0.439042,0.000025,0.000019,-0.000021,0.000043,0.000001,-40.550923,0.000050,
2041,3193,-4.80108989903802,11.8082849899155,0.0529450593212459,0.011460,-0.087158,0.013620,0.461986,-3.947695,313.532238,20.169902,0.999580,0.993627,0.003317,0.417368,0.000014,0.000043,-0.000032,0.000063,-0.000006,-57.428050,0.000070,
2266,2668,0.16333296834528,0.420225465108253,-0.0295970227986686,0.007969,-0.089185,-0.001084,0.336276,-4.061217,320.407044,20.214610,0.999425,0.991088,0.003959,0.439764,0.000142,0.000087,-0.000009,0.000143,0.000086,-8.769318,0.000232,
2281,2743,0.477398636428465,2.05326690524051,-0.015415271463894,0.008897,-0.089667,0.008618,0.346074,-4.052582,319.294850,20.351239,0.999336,0.989605,0.004049,0.445132,0.000093,0.000076,0.000002,0.000093,0.000076,6.358241,0.000169,
2191,2248,-1.39880007402852,-8.75791230426255,-0.008006570580676,0.003408,-0.091992,-0.017828,0.179676,-4.265772,327.398907,19.635853,0.998149,0.982507,0.005557,0.403673,0.000791,0.000768,0.000046,0.000827,0.000732,38.132393,0.001560,
2476,2623,4.74648770711263,-0.555173848763474,-0.0226262270941788,0.008376,-0.090728,-0.000495,0.347296,-4.118527,321.301616,19.916052,0.999451,0.989999,0.004028,0.408525,0.000231,0.000110,-0.000012,0.000232,0.000109,-5.694275,0.000348,
2056,3298,-4.49280637601341,14.0836889230324,0.0387216213934494,0.012423,-0.086855,0.013340,0.506491,-3.952870,311.651840,20.155385,0.999536,0.994126,0.003111,0.450577,0.000007,0.000048,-0.000022,0.000058,-0.000003,-66.257238,0.000065,
2296,2758,0.800599650366436,2.38076540036616,-0.023232248171098,0.008774,-0.089558,0.003731,0.356288,-4.065525,318.978053,20.358610,0.999362,0.989839,0.004085,0.459095,0.000096,0.000082,0.000013,0.000104,0.000074,30.747770,0.000178,
2431,2188,3.85511528622883,-10.0782624514857,0.00908470975389264,0.007261,-0.095156,-0.022255,0.374772,-4.439252,328.557817,18.266649,0.999504,0.987523,0.004586,0.280344,0.001031,0.001056,-0.000130,0.001174,0.000913,-47.686711,0.002093,
2116,3298,-3.19368900585009,14.0888342427313,0.0343149092761337,0.012343,-0.087618,0.013638,0.498458,-3.975266,311.295903,20.463424,0.999676,0.993681,0.003298,0.463970,0.000017,0.000066,-0.000016,0.000070,0.000012,-73.711901,0.000089,
2176,2188,-1.71753816144354,-10.0700490747944,-0.0207385634125217,0.002142,-0.092191,-0.023174,0.137784,-4.291842,328.263427,19.647108,0.998601,0.949860,0.007723,0.376581,0.000942,0.000959,0.000070,0.001021,0.000880,48.337096,0.001903,
2146,1993,-2.3426497290952,-14.3534236183253,0.00335587050989261,-0.002145,-0.098386,-0.023979,-0.059069,-4.591319,331.509413,19.393618,0.998353,0.981157,0.005635,0.341452,0.001497,0.001416,0.000073,0.001540,0.001373,30.453751,0.002914,
2101,3253,-3.5104362946669,13.1127870928563,0.0521648388956351,0.012097,-0.087643,0.015473,0.482483,-3.971007,312.237486,20.448355,0.999712,0.995206,0.002925,0.397831,0.000017,0.000034,-0.000018,0.000045,0.000006,-58.185180,0.000056,
2491,2713,5.0543238798209,1.40897242800451,-0.0345271075823916,0.008614,-0.090207,-0.000626,0.358791,-4.091279,319.786798,20.195767,0.999559,0.989619,0.004251,0.498689,0.000151,0.000077,0.000005,0.000151,0.000077,3.552915,0.000232,
2071,3118,-4.13961779052862,10.1847986285491,0.0499784584989129,0.011153,-0.087782,0.013765,0.445507,-3.973580,314.543912,20.298845,0.999757,0.994076,0.003025,0.425208,0.000021,0.000014,-0.000024,0.000042,-0.000007,-40.787116,0.000046,
2011,3223,-5.45504901903501,12.4563476598795,0.0505800598938322,0.012112,-0.086889,0.014274,0.492105,-3.925647,313.241476,20.036455,0.999403,0.992284,0.003572,0.405316,0.000018,0.000043,-0.000021,0.000055,0.000006,-60.271911,0.000068,
2446,2233,4.17295600156987,-9.08968340054948,-0.00167498586330339,0.007540,-0.093432,-0.018383,0.374338,-4.334299,327.766836,18.352849,0.998081,0.977910,0.006126,0.385578,0.000924,0.000880,-0.000112,0.001016,0.000788,-39.412068,0.001809,
2416,2053,3.5535464294081,-13.0433717943283,0.00170874501736762,0.007015,-0.098299,-0.027793,0.381779,-4.605402,330.660499,17.664563,0.996524,0.972455,0.007169,0.337245,0.001481,0.001405,-0.000134,0.001582,0.001304,-37.068746,0.002890,
2506,2818,5.36117622559904,3.69747357328333,-0.0203365855546167,0.009892,-0.090641,0.009350,0.378505,-4.084361,318.255593,20.716576,0.999121,0.988721,0.004435,0.412124,0.000084,0.000041,0.000011,0.000086,0.000039,13.411619,0.000128,
2026,3103,-5.11350567925478,9.85792950431074,0.0339005612151482,0.010766,-0.086931,0.008207,0.445819,-3.933391,314.918101,20.144155,0.999506,0.993745,0.003391,0.452270,0.000020,-0.000002,-0.000023,0.000034,-0.000016,-32.052548,0.000034,
2206,2353,-1.08966467452206,-6.45935820278498,-0.0147446516530181,0.004249,-0.090630,-0.013028,0.203807,-4.177871,325.630008,19.735260,0.999458,0.988968,0.004467,0.455139,0.000550,0.000457,0.000024,0.000556,0.000451,13.456497,0.001008,
2326,2908,1.42734377694598,5.64510578143269,-0.00828214788487003,0.009694,-0.089529,0.003641,0.398091,-4.075068,316.678363,20.762359,0.999070,0.989645,0.004155,0.400899,0.000035,0.000035,0.000030,0.000065,0.000005,45.166941,0.000079,
2041,3208,-4.80306665256675,12.1326317827577,0.0523948340612606,0.011714,-0.087310,0.010847,0.481352,-3.970727,313.302229,20.126732,0.999543,0.993001,0.003322,0.428766,0.000013,0.000035,-0.000032,0.000059,-0.000010,-54.525134,0.000063,
2461,2398,4.46546045147474,-5.47391015356769,-0.0115875034575765,0.007310,-0.091988,-0.008841,0.329183,-4.198576,324.996895,18.987761,0.999424,0.985683,0.004979,0.436849,0.000555,0.000400,-0.000087,0.000595,0.000361,-24.155965,0.000965,
2071,1993,-3.98148427368461,-14.3492522074752,-0.00376891390158107,-0.004602,-0.096939,-0.027329,-0.163979,-4.539122,331.680542,19.982088,0.997153,0.977073,0.006479,0.335909,0.001535,0.001424,0.000117,0.001609,0.001350,32.349396,0.002963,
2251,2578,-0.147236404508472,-1.54353967904667,-0.0201405476972241,0.007027,-0.089430,-0.002283,0.297090,-4.073392,321.933871,20.036884,0.999406,0.988559,0.004221,0.468034,0.000221,0.000143,0.000011,0.000223,0.000141,7.980127,0.000368,
2221,2428,-0.773556853040443,-4.82212877016524,-0.00599309479878229,0.005824,-0.089473,-0.013631,0.278534,-4.138743,324.528171,19.678381,0.999578,0.990333,0.004085,0.600396,0.000414,0.000295,0.000011,0.000414,0.000294,5.102749,0.000712,
2356,3043,2.05600717591524,8.57931672487745,0.0113427029843365,0.010626,-0.089481,0.009637,0.419162,-4.036053,314.652442,21.121495,0.999599,0.991124,0.003757,0.481682,0.000023,0.000024,0.000022,0.000046,0.000001,45.908382,0.000054,
2161,2143,-2.03794312942669,-11.0578906083728,-0.0161920797972357,0.000994,-0.093101,-0.023917,0.086690,-4.357713,329.025989,19.580682,0.998811,0.973121,0.006335,0.415894,0.001053,0.001095,0.000077,0.001154,0.000995,52.615666,0.002150,
2281,2758,0.473952841996262,2.38034969247033,-0.0224864428012665,0.008603,-0.089773,0.007499,0.336270,-4.063250,318.981912,20.380037,0.999328,0.988646,0.004150,0.433541,0.000089,0.000078,0.000008,0.000093,0.000074,27.532352,0.000167,
2476,2638,4.74338245541058,-0.227902835998023,-0.0252004222106734,0.008461,-0.090226,-0.001388,0.354855,-4.083840,321.043397,19.917131,0.999613,0.990055,0.003869,0.499785,0.000215,0.000115,-0.000016,0.000218,0.000112,-8.594033,0.000336,
2386,3148,2.69110536457629,10.8591036272464,0.0429267995386908,0.011673,-0.089766,0.012172,0.456741,-4.071778,313.247104,21.538672,0.999627,0.992170,0.003529,0.421823,0.000037,0.000033,0.000037,0.000072,-0.000002,43.601175,0.000082,
2131,1993,-2.67071936983637,-14.3524433671778,-0.00213264155411252,-0.002851,-0.098100,-0.028640,-0.077910,-4.593257,331.503469,19.490236,0.997718,0.977860,0.006229,0.349378,0.001470,0.001436,0.000074,0.001529,0.001378,38.532345,0.002908,
2371,3133,2.36694226649469,10.5337620096647,0.0304524011849594,0.011527,-0.089642,0.012305,0.450453,-4.049900,313.373950,21.472247,0.999577,0.991437,0.003720,0.406166,0.000033,0.000028,0.000027,0.000058,0.000003,42.275538,0.000069,
2341,3013,1.73558389780676,7.92662301320129,0.0139276167360549,0.010278,-0.089350,0.009053,0.405861,-4.041817,315.152413,21.028198,0.999607,0.992729,0.003518,0.449220,0.000022,0.000022,0.000019,0.000041,0.000003,45.429825,0.000049,
2191,2263,-1.40202903961385,-8.42811740002742,-0.0149257250578216,0.003262,-0.091502,-0.016610,0.169316,-4.229988,327.088502,19.689770,0.998435,0.981287,0.005592,0.402708,0.000755,0.000710,0.000040,0.000778,0.000687,30.420170,0.001466,
2311,2818,1.11628449505916,3.68784659526985,-0.0155600305482153,0.008802,-0.089279,0.005613,0.350830,-4.048769,318.046099,20.574176,0.999509,0.989575,0.004020,0.395217,0.000073,0.000061,0.000020,0.000089,0.000046,36.743927,0.000137,
2011,3238,-5.45672208711659,12.7798599529139,0.0588779379024231,0.012137,-0.086972,0.012011,0.499341,-3.945615,313.073553,19.970554,0.999494,0.992938,0.003507,0.438049,0.000016,0.000034,-0.000026,0.000053,-0.000003,-54.546074,0.000060,
2026,3118,-5.11589714358005,10.1834950907827,0.0360612135164615,0.010814,-0.086924,0.012193,0.437065,-3.923502,314.682524,20.174941,0.999626,0.994305,0.003216,0.420552,0.000025,0.000025,-0.000019,0.000044,0.000006,-44.899897,0.000054,
2236,2518,-0.464329181334264,-2.85124227970767,-0.0309876200195731,0.006246,-0.088881,-0.008186,0.280734,-4.079040,322.828808,20.016339,0.999289,0.987731,0.004392,0.415028,0.000279,0.000215,0.000021,0.000285,0.000208,16.689666,0.000495,
2086,3148,-3.81944386553362,10.8371086241255,0.0443061860528928,0.011153,-0.087037,0.009898,0.456219,-3.930973,313.937220,20.352062,0.999762,0.995264,0.002893,0.470112,0.000028,0.000023,-0.000021,0.000047,0.000004,-41.278157,0.000057,
2176,2203,-1.71932196442275,-9.74303587256652,-0.0114255782874579,0.002541,-0.092751,-0.018271,0.140762,-4.317350,328.103082,19.655919,0.997334,0.974335,0.006485,0.356700,0.000910,0.000916,0.000066,0.000979,0.000848,46.428927,0.001828,
2296,2773,0.798158493954499,2.7074550350824,-0.0203986712861024,0.008799,-0.089354,0.002854,0.360527,-4.059635,318.761758,20.418092,0.999285,0.988685,0.004274,0.435667,0.000091,0.000072,0.000014,0.000099,0.000064,27.571289,0.000164,
2101,3268,-3.51264822828666,13.4378719803707,0.0458907308695302,0.012471,-0.087308,0.011079,0.512793,-3.966217,311.969537,20.430435,0.999757,0.996072,0.002807,0.420556,0.000016,0.000042,-0.000017,0.000050,0.000008,-64.018743,0.000063,
2071,2008,-3.98348055547211,-14.0181746655795,-0.0107374984087301,-0.003996,-0.095997,-0.028919,-0.131462,-4.490686,331.413845,20.037146,0.998110,0.980883,0.005820,0.329940,0.001496,0.001434,0.000141,0.001609,0.001321,38.775463,0.002934,
2416,2068,3.55027427238118,-12.7144092491456,0.000403466948000641,0.007082,-0.098860,-0.024235,0.371697,-4.605877,330.398000,17.667589,0.997430,0.973867,0.006968,0.384972,0.001422,0.001385,-0.000131,0.001535,0.001272,-40.982866,0.002811,
2506,2833,5.35819679587674,4.02314076695131,-0.0154561355780061,0.009250,-0.090487,0.005288,0.364833,-4.102360,318.038331,20.740691,0.999435,0.989852,0.004108,0.430898,0.000090,0.000052,0.000018,0.000097,0.000045,21.670601,0.000146,
2491,2728,5.0516160762332,1.73670678705083,-0.0343815982460569,0.008948,-0.090103,-0.000972,0.375503,-4.091607,319.559834,20.326058,0.999520,0.991419,0.003735,0.427207,0.000132,0.000082,0.000010,0.000134,0.000080,10.584345,0.000216,
2071,3133,-4.14234285392562,10.5102273770678,0.0444709435935806,0.011112,-0.087593,0.012767,0.446490,-3.971424,314.253939,20.281229,0.999599,0.993886,0.003086,0.441004,0.000021,0.000019,-0.000024,0.000045,-0.000004,-43.868085,0.000050,
2431,2203,3.85164789133914,-9.74934055816016,0.00309879508574795,0.007366,-0.094239,-0.020771,0.374506,-4.401826,328.265253,18.227923,0.999195,0.984559,0.005108,0.409517,0.000984,0.000977,-0.000120,0.001101,0.000860,-44.230220,0.001966,
2326,2923,1.42455881400492,5.97012887216007,-0.00161060947573333,0.009458,-0.089544,0.007076,0.375414,-4.054704,316.467146,20.722597,0.998498,0.986725,0.004670,0.494914,0.000031,0.000035,0.000022,0.000056,0.000011,47.505217,0.000071,
2041,3223,-4.80558598690879,12.4575608403143,0.0539431421414065,0.011688,-0.087419,0.014450,0.470135,-3.959193,313.058773,20.118743,0.999537,0.993022,0.003261,0.439484,0.000014,0.000035,-0.000030,0.000056,-0.000007,-54.557255,0.000061,
2146,2008,-2.34332123059426,-14.0242593643255,0.00320400013390554,-0.000888,-0.096577,-0.031225,0.020986,-4.543335,331.347260,19.353145,0.997740,0.981210,0.005881,0.441001,0.001445,0.001409,0.000087,0.001516,0.001338,39.117101,0.002856,
2266,2683,0.160861343345999,0.747064283852694,-0.0286513087153821,0.008265,-0.089264,0.001007,0.342938,-4.060330,320.177934,20.251160,0.999411,0.992295,0.003722,0.430275,0.000132,0.000090,-0.000014,0.000137,0.000086,-17.024767,0.000224,
2131,2008,-2.67044130187631,-14.0246973018507,0.00279438927043429,-0.000518,-0.098200,-0.028556,0.028713,-4.587889,331.410745,19.420872,0.998321,0.983031,0.005809,0.432466,0.001422,0.001427,0.000091,0.001515,0.001334,45.760812,0.002851,
2446,2248,4.16947531370784,-8.76048179139161,-0.00339455559031876,0.007349,-0.093584,-0.016711,0.359314,-4.319775,327.494569,18.424468,0.998331,0.978312,0.005970,0.383342,0.000882,0.000802,-0.000110,0.000960,0.000725,-35.054928,0.001690,
2461,2413,4.46361126990682,-5.14614746442156,-0.0087502460221458,0.008139,-0.091264,-0.010225,0.372652,-4.180103,324.820928,19.025318,0.999413,0.985918,0.004906,0.473549,0.000524,0.000368,-0.000071,0.000551,0.000340,-21.179716,0.000900,
2206,2368,-1.09215553417335,-6.13015833890373,-0.0175166228870012,0.004634,-0.090101,-0.011250,0.216048,-4.134356,325.376121,19.807335,0.999296,0.987707,0.004615,0.445163,0.000521,0.000432,0.000021,0.000526,0.000427,12.808315,0.000955,
2011,3253,-5.45929362475814,13.1054854464596,0.0558527269179763,0.011949,-0.086416,0.009933,0.496523,-3.924220,312.799760,19.997378,0.999817,0.995619,0.002817,0.419455,0.000019,0.000040,-0.000031,0.000062,-0.000003,-54.589045,0.000070,
2251,2593,-0.149829221942436,-1.21609931252031,-0.0246953675855934,0.007415,-0.089352,-0.002268,0.314877,-4.078663,321.670335,20.058510,0.999187,0.986420,0.004621,0.465406,0.000212,0.000111,0.000008,0.000212,0.000110,4.374886,0.000328,
2476,2653,4.74041100134902,0.099145037398948,-0.0254020574918172,0.008415,-0.090206,-0.003124,0.359352,-4.099356,320.802183,19.972873,0.999588,0.990163,0.003867,0.485712,0.000201,0.000104,-0.000014,0.000203,0.000102,-8.090162,0.000311,
2071,2023,-3.98596356310922,-13.6883259266115,-0.0161573926638994,-0.004010,-0.094966,-0.030965,-0.125984,-4.459280,331.133675,20.021498,0.998074,0.981553,0.005825,0.377668,0.001437,0.001344,0.000117,0.001517,0.001264,34.132441,0.002785,
2356,3058,2.05358384631417,8.90456016074682,0.0197096437347,0.010691,-0.089982,0.013293,0.409067,-4.059612,314.467366,21.188924,0.999629,0.992566,0.003475,0.428511,0.000023,0.000030,0.000023,0.000050,0.000003,49.052576,0.000059,
2101,3283,-3.51589413411963,13.7626882160125,0.0354837704025499,0.012356,-0.087410,0.011038,0.507514,-3.979864,311.631756,20.388254,0.999701,0.996177,0.002804,0.448891,0.000013,0.000049,-0.000013,0.000053,0.000009,-72.156323,0.000067,
2011,3268,-5.461568016623,13.4294397440011,0.0599295908796762,0.011947,-0.086554,0.013050,0.487902,-3.925464,312.580350,19.936172,0.999818,0.995663,0.002805,0.465923,0.000021,0.000018,-0.000027,0.000047,-0.000008,-43.464726,0.000051,
2026,3133,-5.11782137020439,10.508317150957,0.0390387463069715,0.010976,-0.086813,0.011085,0.447643,-3.916267,314.473262,20.148543,0.999575,0.993570,0.003334,0.443391,0.000025,0.000035,-0.000016,0.000047,0.000013,-53.375836,0.000063,
2296,2788,0.795400769701683,3.03409537548529,-0.0182648849729503,0.008746,-0.089126,0.004496,0.352725,-4.016607,318.527351,20.434661,0.999192,0.989213,0.004222,0.492078,0.000093,0.000068,0.000018,0.000102,0.000058,27.672378,0.000163,
2191,2278,-1.40418481425252,-8.09952595155494,-0.0141617794787408,0.003618,-0.091311,-0.016002,0.183842,-4.228921,326.867350,19.752259,0.998492,0.980616,0.005627,0.358099,0.000718,0.000661,0.000034,0.000735,0.000645,25.100651,0.001380,
2281,2773,0.471910245224038,2.70686122869459,-0.0177321957684171,0.008701,-0.089321,0.004416,0.351283,-4.050541,318.792490,20.431082,0.999175,0.987469,0.004372,0.422948,0.000084,0.000071,0.000010,0.000090,0.000065,29.089084,0.000156,
2341,3028,1.73349842900739,8.25227849981022,0.0231565895066979,0.010552,-0.089636,0.012147,0.407562,-4.050818,314.986235,21.117385,0.999662,0.993611,0.003481,0.386645,0.000023,0.000020,0.000019,0.000041,0.000002,42.851964,0.000049,
2221,2443,-0.77622633904846,-4.49217735714778,-0.0115264735554774,0.006472,-0.090346,-0.009027,0.293333,-4.134021,324.253167,19.857690,0.998998,0.987434,0.004708,0.446479,0.000387,0.000273,0.000011,0.000388,0.000272,5.344748,0.000663,
2071,3148,-4.14461614268313,10.8356073949381,0.0453658625527851,0.011140,-0.087145,0.012016,0.450119,-3.950060,314.019871,20.283619,0.999729,0.995694,0.002797,0.455473,0.000024,0.000022,-0.000025,0.000049,-0.000002,-44.024668,0.000055,
2041,3238,-4.80761364975049,12.7822947413351,0.0525108358998523,0.011998,-0.087467,0.012470,0.489947,-3.968782,312.821401,20.100381,0.999580,0.994332,0.003057,0.439454,0.000012,0.000030,-0.000031,0.000054,-0.000011,-53.092634,0.000057,
2236,2533,-0.465592740933911,-2.52517258968384,-0.0172535356937829,0.006789,-0.089162,-0.005929,0.298273,-4.083899,322.718326,20.055828,0.999590,0.991032,0.003874,0.392669,0.000265,0.000190,0.000017,0.000269,0.000187,12.224046,0.000458,
2506,2848,5.35535580125137,4.35025299062574,-0.010854235145132,0.009433,-0.090716,0.008924,0.359104,-4.089059,317.825723,20.868064,0.999581,0.991936,0.003678,0.377869,0.000080,0.000045,0.000024,0.000092,0.000033,27.156846,0.000129,
2386,3163,2.68784119875937,11.1850440988729,0.0378701476590777,0.011621,-0.089511,0.011070,0.458515,-4.053023,312.960334,21.569142,0.999507,0.990663,0.003811,0.452242,0.000035,0.000032,0.000036,0.000069,-0.000002,43.701111,0.000079,
2491,2743,5.04815127903969,2.063289718893,-0.0328150417315669,0.008830,-0.090495,0.003804,0.351648,-4.093282,319.304597,20.367872,0.999665,0.991486,0.003698,0.442796,0.000119,0.000070,0.000005,0.000119,0.000069,5.213258,0.000191,
2371,3148,2.36470665528902,10.8588316315561,0.0354327746013041,0.011744,-0.089675,0.011845,0.462089,-4.060286,313.181809,21.508992,0.999578,0.990534,0.003774,0.398901,0.000031,0.000031,0.000030,0.000061,0.000001,44.977843,0.000071,
2311,2833,1.11474547366884,4.01390762619212,-0.00775184605657842,0.009263,-0.089148,0.003135,0.380591,-4.041481,317.896804,20.628590,0.999697,0.991835,0.003729,0.380108,0.000062,0.000060,0.000023,0.000083,0.000038,43.687231,0.000125,
2131,2023,-2.67407019692314,-13.6903846260956,-0.0144249973212709,-0.000748,-0.096186,-0.030519,0.024711,-4.527470,331.020786,19.649596,0.998337,0.982550,0.005794,0.274251,0.001372,0.001385,0.000075,0.001454,0.001303,47.426453,0.002758,
2011,3283,-5.46414789150296,13.7539946027996,0.0558844559021168,0.011992,-0.087001,0.013937,0.487465,-3.936762,312.300927,19.899090,0.999785,0.995938,0.002786,0.478433,0.000018,0.000023,-0.000021,0.000042,-0.000001,-48.212314,0.000048,
2071,2038,-3.98746993413001,-13.3594163631137,-0.0132538122279016,-0.003566,-0.094206,-0.033033,-0.099512,-4.443773,330.943674,20.035805,0.998198,0.981812,0.005667,0.378968,0.001386,0.001277,0.000124,0.001467,0.001196,33.179810,0.002668,
2416,2083,3.54783562621816,-12.3836684335045,0.00762092726125729,0.007572,-0.098079,-0.017394,0.369489,-4.528643,330.212742,17.854911,0.997425,0.975160,0.006919,0.326065,0.001367,0.001367,-0.000131,0.001498,0.001236,-44.955832,0.002738,
2086,3163,-3.82242280659121,11.1627930720322,0.0360281757597249,0.011207,-0.087348,0.011160,0.454897,-3.956918,313.621628,20.378623,0.999762,0.995357,0.002952,0.415595,0.000027,0.000038,-0.000023,0.000056,0.000009,-51.809061,0.000070,
2101,3298,-3.51890230736496,14.087388684088,0.0315923927511221,0.012243,-0.087620,0.013794,0.494231,-3.971657,311.340311,20.353858,0.999603,0.994656,0.003085,0.491071,0.000016,0.000061,-0.000014,0.000065,0.000012,-73.598559,0.000083,
2461,2428,4.45900291574819,-4.81770862086709,-0.0133835057179112,0.007294,-0.091408,-0.005995,0.318065,-4.159518,324.484002,19.057137,0.999292,0.983959,0.005002,0.518679,0.000509,0.000335,-0.000056,0.000526,0.000319,-16.338871,0.000853,
2326,2938,1.42244634919703,6.29597360863833,0.00622810736217616,0.009847,-0.089747,0.010983,0.379753,-4.058854,316.292323,20.794342,0.998874,0.987550,0.004470,0.452855,0.000030,0.000033,0.000022,0.000053,0.000010,47.272197,0.000068,
2446,2263,4.16720184922542,-8.43143358399789,-0.00195194146982658,0.007985,-0.093502,-0.016499,0.387748,-4.276613,327.292008,18.491009,0.998358,0.978689,0.006007,0.414323,0.000841,0.000737,-0.000115,0.000915,0.000662,-32.812402,0.001584,
2161,2158,-2.04224987524546,-10.7209535079491,-0.058808151004655,0.002015,-0.092170,-0.024192,0.134724,-4.344729,328.475051,19.887014,0.999406,0.949888,0.008402,0.137208,0.001016,0.001027,0.000074,0.001096,0.000947,47.019626,0.002045,
2476,2668,4.73728412118436,0.425339676420627,-0.0242474354791966,0.008689,-0.090669,0.002265,0.351315,-4.098092,320.560018,19.949475,0.999370,0.987490,0.004289,0.567555,0.000193,0.000082,-0.000011,0.000194,0.000081,-5.577588,0.000282,
2431,2218,3.84933083425836,-9.42061672318266,0.00644165236883509,0.007718,-0.093837,-0.021229,0.392508,-4.383508,328.068617,18.293414,0.999211,0.984309,0.005179,0.414759,0.000942,0.000934,-0.000116,0.001054,0.000823,-44.065369,0.001881,
2176,2218,-1.7220082589076,-9.41375746324691,-0.0120106937403079,0.002517,-0.092304,-0.016316,0.133765,-4.277717,327.849158,19.707544,0.997765,0.979018,0.005984,0.359805,0.000874,0.000861,0.000067,0.000934,0.000800,42.182294,0.001736,
2026,3148,-5.1196828814013,10.8323417572799,0.0474846144018102,0.011070,-0.086922,0.013247,0.445894,-3.934121,314.297840,20.110487,0.999627,0.994494,0.003164,0.452747,0.000023,0.000028,-0.000019,0.000045,0.000006,-48.403689,0.000056,
2266,2698,0.158880623060462,1.07347604862162,-0.0222431696793137,0.008512,-0.089052,0.001121,0.354025,-4.042794,319.998833,20.281047,0.999538,0.992249,0.003689,0.443560,0.000121,0.000088,-0.000012,0.000125,0.000084,-18.462509,0.000211,
2146,2023,-2.34677056337754,-13.6933904564013,0.000505177409422686,-0.001171,-0.097034,-0.022727,-0.017811,-4.505115,331.044649,19.454930,0.997187,0.979960,0.006031,0.389266,0.001393,0.001376,0.000071,0.001456,0.001314,41.620533,0.002771,
2041,3253,-4.80999963453069,13.1073173060207,0.0531320341089554,0.011967,-0.086885,0.012797,0.487833,-3.936479,312.578906,20.082396,0.999680,0.994199,0.002970,0.480947,0.000012,0.000037,-0.000030,0.000057,-0.000008,-56.070966,0.000062,
2011,3298,-5.46652442092437,14.0791555830741,0.05192883448467,0.012160,-0.086681,0.013518,0.496283,-3.953687,312.031105,19.928131,0.999398,0.992737,0.003549,0.418882,0.000016,0.000017,-0.000012,0.000028,0.000005,-45.886282,0.000036,
2116,1993,-2.99892289256912,-14.3475565137367,-0.0215601257535809,-0.002536,-0.097538,-0.029044,-0.062681,-4.567303,331.418313,19.755150,0.999115,0.989146,0.004838,0.217243,0.001487,0.001449,0.000069,0.001539,0.001396,37.400579,0.002937,
2251,2608,-0.152377933003624,-0.889731844524363,-0.0211303863379726,0.007375,-0.089776,-0.000716,0.307768,-4.109916,321.450162,20.082972,0.999119,0.984837,0.004831,0.433570,0.000197,0.000101,0.000006,0.000197,0.000101,3.705003,0.000304,
2206,2383,-1.09517890790859,-5.80244892846125,-0.0197323683127024,0.004486,-0.090453,-0.008865,0.201627,-4.141688,325.101191,19.804728,0.998948,0.985832,0.004807,0.459073,0.000491,0.000410,0.000016,0.000494,0.000406,10.721653,0.000902,
2491,2758,5.04561636798049,2.38873697947015,-0.0246381859221287,0.008919,-0.090810,0.006654,0.344680,-4.104314,319.122104,20.371130,0.999465,0.988335,0.004153,0.487221,0.000119,0.000056,0.000009,0.000120,0.000055,7.551753,0.000179,
2311,2848,1.11228524825037,4.33836549927724,-0.00281370387887137,0.009315,-0.089278,0.004739,0.377444,-4.047833,317.691482,20.531126,0.999787,0.992468,0.003658,0.503279,0.000056,0.000063,0.000027,0.000086,0.000033,48.869825,0.000123,
2071,3163,-4.14660511227239,11.1613901621149,0.046252102719734,0.011435,-0.087027,0.010916,0.466895,-3.953857,313.798679,20.351804,0.999713,0.994794,0.003004,0.379350,0.000022,0.000038,-0.000027,0.000058,0.000002,-52.905763,0.000068,
2071,2053,-3.98863604081712,-13.030939726347,-0.00499487860793124,-0.002601,-0.094323,-0.026929,-0.072641,-4.442127,330.798554,20.089326,0.997499,0.975814,0.006309,0.326722,0.001340,0.001266,0.000125,0.001433,0.001173,36.785032,0.002610,
2341,3043,1.73042619072075,8.5774215450702,0.0150784676481521,0.010682,-0.089577,0.009047,0.424434,-4.053072,314.690607,21.041539,0.999621,0.992582,0.003551,0.496322,0.000020,0.000025,0.000017,0.000040,0.000005,48.751495,0.000050,
2506,2863,5.35145792999358,4.67720908996768,-0.0212331423040268,0.009503,-0.090331,0.008811,0.362970,-4.071611,317.497394,20.869432,0.999647,0.992315,0.003604,0.455059,0.000072,0.000054,0.000035,0.000099,0.000027,38.006707,0.000133,
2296,2803,0.79222888221231,3.36141114374058,-0.0247497283875191,0.008762,-0.089208,0.003994,0.355160,-4.023369,318.231063,20.500754,0.999056,0.988032,0.004387,0.449367,0.000087,0.000062,0.000016,0.000095,0.000054,26.507178,0.000151,
2356,3073,2.05159386672144,9.23010551336699,0.0237238784427518,0.011160,-0.089769,0.012215,0.434489,-4.063124,314.281058,21.238868,0.999605,0.992658,0.003448,0.413037,0.000022,0.000031,0.000021,0.000049,0.000005,50.835203,0.000059,
2476,2683,4.7337391157251,0.75366632727399,-0.0255486347373903,0.008489,-0.090708,0.004372,0.334153,-4.089655,320.286950,20.098976,0.999414,0.988667,0.004238,0.483578,0.000185,0.000088,-0.000009,0.000186,0.000087,-5.357720,0.000279,
2281,2788,0.469523728929374,3.03354881342825,-0.0146638796991283,0.008821,-0.088977,0.004618,0.356287,-4.018829,318.578742,20.470079,0.998875,0.986134,0.004665,0.443507,0.000082,0.000069,0.000015,0.000092,0.000059,32.912087,0.000152,
2236,2548,-0.469224835143567,-2.19674291944497,-0.031026568527011,0.006753,-0.089075,-0.006012,0.296940,-4.075827,322.358729,20.057350,0.999616,0.991886,0.003709,0.421690,0.000255,0.000163,0.000017,0.000258,0.000160,10.016003,0.000422,
2221,2458,-0.779619422544769,-4.16398221704701,-0.0135419458593447,0.005692,-0.089620,-0.010707,0.263140,-4.122118,323.963326,19.907719,0.998705,0.984605,0.005199,0.428812,0.000366,0.000258,0.000014,0.000368,0.000256,7.389326,0.000628,
2131,2038,-2.67716382776566,-13.3618655550362,-0.018191659715967,-0.001194,-0.095805,-0.030102,0.003091,-4.497871,330.727703,19.540663,0.998843,0.983056,0.005631,0.422577,0.001331,0.001335,0.000078,0.001410,0.001255,45.753310,0.002667,
2461,2443,4.45729673487189,-4.48944178923921,-0.0123506380956542,0.008123,-0.091000,-0.011011,0.375050,-4.181918,324.306299,19.174456,0.998877,0.984236,0.005079,0.434456,0.000491,0.000273,-0.000047,0.000501,0.000263,-11.623814,0.000776,
2191,2293,-1.40642740524113,-7.77082310011633,-0.0152207907202637,0.003903,-0.090620,-0.016972,0.200202,-4.166852,326.632475,19.750822,0.998548,0.982558,0.005395,0.437992,0.000682,0.000617,0.000035,0.000697,0.000602,23.737787,0.001300,
2041,3268,-4.81253236626733,13.4329714424767,0.0488607318812342,0.012163,-0.087014,0.014312,0.492615,-3.936950,312.302207,20.131807,0.999644,0.993914,0.003055,0.421884,0.000013,0.000026,-0.000026,0.000046,-0.000007,-52.055798,0.000049,
2386,3178,2.68505037798315,11.510767787054,0.0376098274480228,0.011786,-0.089433,0.011492,0.464713,-4.039252,312.718213,21.617691,0.999499,0.991832,0.003584,0.459645,0.000039,0.000036,0.000036,0.000073,0.000002,44.001424,0.000086,
2446,2278,4.16386814049607,-8.1016778673542,-0.00265141234717703,0.007798,-0.092609,-0.015512,0.375915,-4.250182,327.030896,18.622447,0.998677,0.978831,0.005908,0.363998,0.000797,0.000691,-0.000099,0.000857,0.000631,-30.817932,0.001494,
2416,2098,3.54387407195545,-12.0542745737748,0.000898437332921276,0.007033,-0.097836,-0.018176,0.347803,-4.508297,329.893157,17.827812,0.998196,0.976103,0.006593,0.424945,0.001314,0.001338,-0.000131,0.001457,0.001195,-47.635403,0.002656,
2491,2773,5.04275436369772,2.71680146436799,-0.0261109016925616,0.008961,-0.090076,0.003076,0.360678,-4.082650,318.880380,20.509950,0.999165,0.986208,0.004463,0.429125,0.000104,0.000039,-0.000001,0.000104,0.000039,-0.966776,0.000148,
2146,2038,-2.34931805474039,-13.3628520954132,-0.00904450266011736,-0.001036,-0.096159,-0.028265,0.005337,-4.505243,330.747304,19.493571,0.998005,0.982249,0.005712,0.362151,0.001350,0.001329,0.000070,0.001411,0.001269,40.886605,0.002681,
2371,3163,2.36195696787049,11.1839383504892,0.0375891095276302,0.011658,-0.089499,0.011259,0.460305,-4.048665,312.952377,21.513433,0.999503,0.991156,0.003775,0.446202,0.000030,0.000031,0.000028,0.000059,0.000002,45.107307,0.000069,
2026,1993,-4.96346599192121,-14.3476941538573,0.00262218467139519,-0.005816,-0.095458,-0.028124,-0.218797,-4.474835,331.931726,20.339581,0.998053,0.980653,0.005935,0.359602,0.001587,0.001397,0.000175,0.001691,0.001292,30.768902,0.002992,
2071,2068,-3.98985140440562,-12.7013569456031,0.00705009261537271,-0.002311,-0.092909,-0.027140,-0.058324,-4.377162,330.671318,20.226844,0.997334,0.968328,0.006873,0.253721,0.001299,0.001241,0.000128,0.001401,0.001139,38.679435,0.002545,
2026,3163,-5.12196159873428,11.1574163895881,0.0498280048606148,0.010974,-0.086945,0.013023,0.442032,-3.941901,314.068747,20.125038,0.999533,0.993628,0.003405,0.419391,0.000016,0.000043,-0.000026,0.000059,0.000001,-58.988120,0.000068,
2506,2878,5.34992587868976,5.00181171065187,-0.00635434711961125,0.009628,-0.090408,0.006755,0.376550,-4.106648,317.391531,20.898057,0.999586,0.992787,0.003571,0.451906,0.000067,0.000073,0.000038,0.000108,0.000032,47.376403,0.000147,
2086,3178,-3.82374138201601,11.4858632332398,0.0488442148204626,0.011539,-0.087583,0.011635,0.468767,-3.965856,313.498407,20.277853,0.999690,0.995111,0.002958,0.505317,0.000025,0.000043,-0.000021,0.000056,0.000012,-56.344487,0.000073,
2326,2953,1.4198723330222,6.62310383917479,0.00451982713599364,0.010120,-0.089267,0.009882,0.396298,-4.050716,316.049117,20.908398,0.998934,0.987289,0.004682,0.380975,0.000031,0.000022,0.000023,0.000050,0.000003,40.093656,0.000060,
2116,2008,-3.00153809876901,-14.0224871069631,-0.00822962640228297,-0.003137,-0.098701,-0.020585,-0.115568,-4.589240,331.237818,19.566730,0.999145,0.989890,0.005010,0.390618,0.001438,0.001442,0.000089,0.001529,0.001352,45.675649,0.002883,
2431,2233,3.84559310038354,-9.08933669223742,-0.00496320732025879,0.007676,-0.093137,-0.023932,0.400861,-4.350792,327.738211,18.430407,0.998743,0.981412,0.005607,0.363498,0.000895,0.000876,-0.000109,0.000995,0.000776,-42.495421,0.001776,
2161,2173,-2.04508754372936,-10.394907036461,-0.0668294264314682,0.002418,-0.092212,-0.020110,0.140693,-4.312566,328.174436,19.559406,0.999483,0.937005,0.008698,0.510212,0.000982,0.000987,0.000075,0.001059,0.000910,46.103621,0.001971,
2041,3283,-4.81512459604338,13.7572694076352,0.0455296567180312,0.012188,-0.087187,0.014940,0.491952,-3.951641,312.028583,20.079857,0.999577,0.994041,0.003079,0.450322,0.000007,0.000024,-0.000018,0.000035,-0.000004,-58.069016,0.000038,
2131,2053,-2.67939489292266,-13.0328234385418,-0.00875101061552641,-0.001323,-0.095952,-0.025052,-0.017938,-4.478547,330.544146,19.642989,0.997778,0.979482,0.005991,0.348210,0.001287,0.001312,0.000081,0.001382,0.001218,49.463825,0.002601,
2206,2398,-1.09666596178814,-5.47405854452243,-0.0160043145326085,0.005234,-0.089878,-0.009846,0.239251,-4.107194,324.926902,19.884706,0.999242,0.988576,0.004443,0.431853,0.000469,0.000367,0.000015,0.000471,0.000365,8.247712,0.000838,
2341,3058,1.7274549573399,8.90281656353579,0.0143922604843283,0.010731,-0.089780,0.010905,0.420149,-4.055011,314.435439,21.041938,0.999636,0.993554,0.003295,0.529620,0.000020,0.000030,0.000019,0.000045,0.000006,52.620032,0.000055,
2026,2008,-4.96686943461481,-14.016800486104,-0.00995696095145604,-0.006039,-0.095665,-0.024008,-0.240424,-4.452002,331.565231,20.338538,0.997482,0.980739,0.006158,0.378189,0.001552,0.001428,0.000215,0.001714,0.001266,36.942774,0.002991,
2251,2623,-0.154417819133322,-0.562695411019163,-0.0173730427737837,0.007771,-0.089481,-0.000002,0.323817,-4.059289,321.253879,20.092838,0.998971,0.985700,0.004726,0.498392,0.000182,0.000091,0.000000,0.000182,0.000091,0.263755,0.000278,
2071,3178,-4.14874234175707,11.4856869458795,0.0478581250508796,0.011660,-0.087311,0.011791,0.474740,-3.954994,313.575224,20.288563,0.999800,0.996099,0.002758,0.437122,0.000021,0.000044,-0.000024,0.000059,0.000005,-57.575286,0.000072,
2266,2713,0.156227390995113,1.39969831674785,-0.0148117871417526,0.007971,-0.088934,0.000656,0.330726,-4.055884,319.794108,20.336183,0.999644,0.992599,0.003694,0.401113,0.000110,0.000082,-0.000010,0.000113,0.000078,-17.700498,0.000192,
2311,2863,1.10956912391045,4.66546024870631,-0.00496704538215909,0.009513,-0.089288,0.004471,0.387514,-4.050360,317.438698,20.623277,0.999641,0.991708,0.003755,0.440608,0.000054,0.000063,0.000022,0.000081,0.000036,50.116994,0.000120,
2461,2458,4.4544864845018,-4.16072059144521,-0.0125636530370343,0.008043,-0.089978,-0.014865,0.386363,-4.148476,324.071859,19.271000,0.999079,0.985186,0.004975,0.427364,0.000466,0.000248,-0.000048,0.000476,0.000238,-11.871228,0.000727,
2176,2233,-1.72437627437216,-9.08497888637945,-0.0134572605052767,0.002734,-0.091719,-0.016316,0.143924,-4.209585,327.605238,19.681500,0.998020,0.982295,0.005512,0.468509,0.000836,0.000811,0.000061,0.000886,0.000761,39.288430,0.001649,
2221,2473,-0.78288284075272,-3.83611237415216,-0.0156468601583697,0.005365,-0.089340,-0.007881,0.239139,-4.113549,323.679013,19.935643,0.999111,0.986459,0.004780,0.429511,0.000350,0.000251,0.000017,0.000353,0.000249,9.476969,0.000604,
2476,2698,4.73100124019978,1.08080089742435,-0.024088739708759,0.008498,-0.090598,0.002145,0.343080,-4.099083,320.063729,20.184122,0.999569,0.988443,0.004302,0.446033,0.000167,0.000096,-0.000008,0.000168,0.000095,-6.539267,0.000267,
2026,2023,-4.96762806652598,-13.6873747833136,-0.00876890324684609,-0.004921,-0.094081,-0.027657,-0.178716,-4.403266,331.395880,20.340500,0.997750,0.979306,0.006242,0.418256,0.001477,0.001285,0.000179,0.001584,0.001178,30.930467,0.002772,
2281,2803,0.4663442252767,3.36071120565198,-0.0209381648621729,0.008890,-0.089158,0.005578,0.356234,-4.020743,318.281831,20.518385,0.999062,0.987471,0.004490,0.421269,0.000074,0.000066,0.000012,0.000083,0.000058,34.798382,0.000141,
2191,2308,-1.40931882974068,-7.44344500777262,-0.0141347068041,0.003434,-0.090622,-0.017299,0.179686,-4.174306,326.379563,19.724535,0.998431,0.982873,0.005389,0.473544,0.000644,0.000571,0.000029,0.000654,0.000561,19.494487,0.001216,
2356,3088,2.04865099993141,9.55574731261933,0.0275203354083828,0.010802,-0.089695,0.012542,0.416918,-4.058146,314.049760,21.291434,0.999557,0.991799,0.003619,0.403442,0.000024,0.000020,0.000018,0.000040,0.000004,42.187682,0.000048,
2506,2893,5.34778567468863,5.32904388256362,0.000704549046872671,0.010081,-0.090106,0.007808,0.393563,-4.063900,317.221858,21.036252,0.999453,0.990256,0.004086,0.417165,0.000062,0.000071,0.000033,0.000100,0.000032,48.736903,0.000138,
2446,2293,4.16030097740426,-7.77508152534984,-0.00549406919918738,0.007482,-0.093246,-0.015202,0.360053,-4.306768,326.749889,18.531586,0.998809,0.980263,0.005706,0.452730,0.000768,0.000639,-0.000096,0.000820,0.000588,-28.100467,0.001414,
2146,2053,-2.35134735000303,-13.0343059681906,-0.00265923510181665,-0.000959,-0.095717,-0.026451,0.003560,-4.472534,330.557821,19.502835,0.997785,0.982213,0.005697,0.396726,0.001304,0.001307,0.000073,0.001378,0.001233,45.692042,0.002613,
2296,2818,0.790294524300439,3.68701910616942,-0.0196402267575309,0.009099,-0.089122,0.002762,0.374775,-4.041671,318.049557,20.515102,0.999380,0.989668,0.004049,0.446405,0.000081,0.000060,0.000014,0.000088,0.000053,25.839465,0.000142,
2041,3298,-4.81779687654194,14.0824984709447,0.0442422698696987,0.012018,-0.087061,0.015657,0.482097,-3.953286,311.762292,20.115870,0.999494,0.994880,0.003125,0.403390,-0.000006,0.000040,-0.000016,0.000045,-0.000011,-72.547747,0.000047,
2431,2248,3.84152768890399,-8.75979737291362,-0.0102232706053087,0.007267,-0.093016,-0.020841,0.370868,-4.302090,327.421224,18.462499,0.998641,0.979049,0.005832,0.432858,0.000856,0.000798,-0.000109,0.000941,0.000714,-37.576842,0.001660,
2491,2788,5.03985013453104,3.04377634889749,-0.0265476137485621,0.009131,-0.090197,0.002586,0.370334,-4.091534,318.641593,20.591877,0.999197,0.987295,0.004358,0.397214,0.000096,0.000049,-0.000008,0.000098,0.000048,-9.373733,0.000149,
2116,2023,-3.00280984876212,-13.6906614848215,-0.0103034110477438,-0.002219,-0.096164,-0.025217,-0.059037,-4.485826,331.034618,19.697509,0.998999,0.984152,0.005704,0.370070,0.001384,0.001390,0.000074,0.001462,0.001313,46.236913,0.002776,
2371,3178,2.35869637837574,11.5095200352892,0.0336932495727069,0.011539,-0.089442,0.010756,0.456669,-4.052684,312.670167,21.544887,0.999505,0.991750,0.003601,0.450655,0.000034,0.000035,0.000029,0.000063,0.000006,45.431833,0.000077,
2071,2083,-3.99527906267139,-12.3702173023995,-0.0208943076704031,-0.003374,-0.094038,-0.021642,-0.123141,-4.371552,330.133935,20.128874,0.997804,0.967803,0.007069,0.359182,0.001254,0.001236,0.000135,0.001381,0.001109,43.147075,0.002495,
2236,2563,-0.470759735258302,-1.87204639534703,-0.0178129185143803,0.006941,-0.089038,-0.005345,0.303433,-4.073400,322.233432,19.966817,0.999662,0.991810,0.003617,0.536295,0.000240,0.000162,0.000019,0.000245,0.000157,12.841163,0.000405,
2026,3178,-5.12391061470112,11.4820202941108,0.054580411238021,0.011071,-0.086826,0.012916,0.446891,-3.932026,313.868466,20.096504,0.999574,0.993688,0.003297,0.446885,0.000014,0.000047,-0.000027,0.000062,-0.000001,-60.938559,0.000071,
2326,2968,1.41697269283988,6.94978686597755,0.00182427721415479,0.010096,-0.089333,0.008147,0.401167,-4.055622,315.786199,20.991974,0.999650,0.994816,0.003138,0.326305,0.000028,0.000019,0.000022,0.000046,0.000001,39.410421,0.000053,
2086,3193,-3.82622828975926,11.8114845435654,0.0519392718665017,0.011451,-0.087414,0.014153,0.457452,-3.954990,313.267513,20.337294,0.999423,0.993562,0.003235,0.454429,0.000024,0.000039,-0.000024,0.000056,0.000006,-53.901296,0.000069,
2341,3073,1.72487330761328,9.2298012415577,0.0151818738643783,0.010802,-0.089407,0.009356,0.428968,-4.054243,314.204813,21.199683,0.999630,0.993745,0.003229,0.408560,0.000020,0.000031,0.000018,0.000044,0.000007,53.248866,0.000055,
2386,3193,2.68278756375041,11.8355845887372,0.0454363205500385,0.011989,-0.089642,0.013773,0.465718,-4.056848,312.539190,21.665324,0.999419,0.992300,0.003445,0.436339,0.000041,0.000038,0.000036,0.000076,0.000004,43.881817,0.000090,
2161,2188,-2.04468662897708,-10.0732248910546,-0.0204900205173999,0.002003,-0.091872,-0.022132,0.127890,-4.272587,328.307946,19.405252,0.999498,0.918703,0.009452,0.715076,0.000941,0.000956,0.000072,0.001022,0.000876,47.941973,0.001900,
2416,2113,3.54243444917143,-11.7244104786944,0.00292655473646164,0.007634,-0.095710,-0.027412,0.409847,-4.441364,329.729515,17.898476,0.998383,0.976058,0.006422,0.471572,0.001263,0.001304,-0.000131,0.001416,0.001151,-49.400437,0.002571,
2026,2038,-4.96912010393029,-13.3598592569693,-0.00177166949816865,-0.004575,-0.094143,-0.026152,-0.166996,-4.412698,331.226030,20.297310,0.997812,0.978925,0.006045,0.445449,0.001416,0.001210,0.000173,0.001515,0.001111,29.620756,0.002636,
2131,2068,-2.68079569075935,-12.7039357919963,-0.000257692975367263,-0.000868,-0.095141,-0.024633,0.001897,-4.420517,330.393294,19.686147,0.996882,0.974436,0.006598,0.371683,0.001249,0.001270,0.000087,0.001346,0.001172,48.470555,0.002521,
2281,2818,0.464633876139281,3.68588210584075,-0.0125579586098752,0.009077,-0.089033,0.002815,0.374075,-4.042122,318.126118,20.520087,0.999277,0.988661,0.004122,0.425539,0.000070,0.000064,0.000010,0.000077,0.000056,36.674594,0.000134,
2056,1993,-4.30890226295618,-14.3493707898942,-0.00319697297805988,-0.005039,-0.096494,-0.028689,-0.180630,-4.543592,331.749147,20.051083,0.997107,0.977808,0.006450,0.368227,0.001569,0.001422,0.000155,0.001667,0.001323,32.319293,0.002997,
2476,2713,4.72815199848009,1.40702766653386,-0.0261979592033867,0.008670,-0.090321,-0.000252,0.360209,-4.104112,319.819293,20.156800,0.999574,0.989406,0.004228,0.525342,0.000147,0.000093,0.000004,0.000147,0.000093,4.563211,0.000242,
2266,2728,0.152976689190773,1.72675432951904,-0.0222930179691616,0.008175,-0.089319,0.003753,0.329735,-4.055956,319.486746,20.338325,0.999368,0.990503,0.003939,0.424702,0.000102,0.000073,-0.000009,0.000104,0.000070,-15.202377,0.000176,
2506,2908,5.34330023891724,5.65554720427892,-0.00738912621744703,0.009525,-0.090476,0.009509,0.361260,-4.095802,316.876593,21.076222,0.999515,0.988821,0.004145,0.406113,0.000059,0.000031,0.000032,0.000080,0.000010,33.291484,0.000098,
2491,2803,5.03710537511524,3.36995337660903,-0.0223960911450831,0.009515,-0.090482,0.007386,0.369447,-4.093249,318.430894,20.633133,0.999086,0.986829,0.004625,0.413187,0.000098,0.000050,-0.000004,0.000098,0.000049,-4.996827,0.000150,
2311,2878,1.10615377401209,4.99251978538697,-0.0106769174651049,0.009431,-0.089347,0.006252,0.377678,-4.042556,317.136195,20.680472,0.999518,0.990230,0.003954,0.423162,0.000050,0.000052,0.000023,0.000074,0.000028,46.304722,0.000105,
2071,3193,-4.15123873547938,11.8110980322628,0.049940736257895,0.011627,-0.087212,0.014711,0.464972,-3.932550,313.337476,20.310901,0.999581,0.994225,0.003118,0.432809,0.000019,0.000040,-0.000028,0.000059,0.000000,-55.282251,0.000068,
2461,2473,4.45092925630219,-3.83188690512728,-0.0207867135186461,0.008216,-0.089823,-0.014656,0.393605,-4.133748,323.766524,19.327568,0.999226,0.987226,0.004657,0.441738,0.000436,0.000234,-0.000048,0.000447,0.000223,-12.764647,0.000683,
2356,3103,2.04596547538323,9.88182513047249,0.0253531784972552,0.011090,-0.089573,0.011930,0.432377,-4.058035,313.801308,21.354839,0.999602,0.991216,0.003766,0.377963,0.000028,0.000024,0.000019,0.000045,0.000007,41.660767,0.000057,
2176,2248,-1.72645705482748,-8.75663746934866,-0.0131837590662371,0.003004,-0.091323,-0.018085,0.161893,-4.206861,327.383795,19.703807,0.998246,0.981071,0.005581,0.463722,0.000797,0.000765,0.000059,0.000842,0.000720,37.461203,0.001564,
2026,3193,-5.12570189277716,11.8069191184166,0.0555734891910333,0.011505,-0.086869,0.011987,0.469499,-3.935820,313.654300,20.089749,0.999527,0.993239,0.003333,0.438851,0.000011,0.000047,-0.000030,0.000064,-0.000006,-60.406882,0.000071,
2071,2098,-3.99549951463674,-12.0425614375807,0.00216007157609965,-0.002815,-0.092950,-0.022461,-0.094871,-4.325063,330.112596,20.240116,0.997598,0.975853,0.006232,0.293242,0.001206,0.001200,0.000132,0.001336,0.001071,44.324290,0.002411,
2251,2638,-0.157100861805713,-0.234616095581835,-0.021321088689831,0.008213,-0.089585,0.002532,0.335826,-4.058330,320.988997,20.186866,0.998453,0.985793,0.004744,0.429263,0.000171,0.000082,-0.000003,0.000171,0.000082,-2.101047,0.000258,
2296,2833,0.78802257721426,4.0131298852274,-0.0130200431436265,0.009115,-0.089138,0.003223,0.373949,-4.046591,317.859841,20.577465,0.999679,0.992405,0.003666,0.408763,0.000071,0.000055,0.000017,0.000082,0.000044,33.001679,0.000128,
2221,2488,-0.78504364929935,-3.50857280615266,-0.0138242769519366,0.006097,-0.089972,-0.001817,0.253160,-4.103683,323.465367,19.973030,0.999307,0.986871,0.004475,0.422225,0.000327,0.000231,0.000015,0.000329,0.000229,8.436859,0.000561,
2446,2308,4.15670946658281,-7.44373792138317,-0.010378607339419,0.007426,-0.092782,-0.013833,0.352649,-4.265220,326.457303,18.762028,0.998682,0.979852,0.005664,0.318629,0.000745,0.000588,-0.000093,0.000788,0.000545,-24.890232,0.001340,
2206,2413,-1.0969071478582,-5.14610484946412,0.00349033856997494,0.006401,-0.088805,-0.006960,0.284106,-4.057541,324.890912,20.063905,0.999480,0.992025,0.003944,0.319936,0.000446,0.000331,0.000012,0.000447,0.000330,5.971082,0.000780,
2431,2263,3.83771004799516,-8.42996062200906,-0.0156753117284438,0.007529,-0.093610,-0.012814,0.353066,-4.300829,327.114806,18.573170,0.998524,0.979150,0.005900,0.376132,0.000817,0.000735,-0.000116,0.000898,0.000653,-35.259590,0.001558,
2146,2068,-2.35355553671626,-12.7043117107179,-0.00365775596236517,-0.000693,-0.095217,-0.026641,0.016451,-4.432827,330.320945,19.559659,0.997847,0.980576,0.005852,0.390715,0.001263,0.001266,0.000078,0.001343,0.001186,45.422159,0.002530,
2056,2008,-4.31019969928619,-14.020885401023,0.00424413784139688,-0.004345,-0.096852,-0.025144,-0.158907,-4.531646,331.592402,20.070023,0.997855,0.979343,0.006155,0.358993,0.001531,0.001438,0.000181,0.001671,0.001298,37.847477,0.002977,
2116,2038,-3.00506249627728,-13.3620538008875,-0.0173023061093431,-0.002008,-0.095976,-0.030427,-0.034017,-4.489975,330.761398,19.593210,0.998638,0.982470,0.005728,0.477324,0.001338,0.001339,0.000083,0.001421,0.001256,45.228651,0.002679,
2026,2053,-4.97129539417622,-13.0285423038443,-0.000973769836662086,-0.004578,-0.093980,-0.025742,-0.168237,-4.403000,330.989842,20.516483,0.999298,0.991874,0.004127,0.229673,0.001374,0.001218,0.000172,0.001485,0.001108,32.791476,0.002602,
2191,2323,-1.41153516456257,-7.11576107724657,-0.00840578416341486,0.003739,-0.090718,-0.011599,0.175823,-4.155875,326.181427,19.751313,0.998773,0.984602,0.005044,0.481588,0.000622,0.000532,0.000024,0.000628,0.000526,13.936793,0.001155,
2341,3088,1.72186032898156,9.55511660193973,0.0137768388194104,0.010919,-0.089707,0.011912,0.425286,-4.064826,313.944149,21.204933,0.999613,0.993830,0.003207,0.428368,0.000021,0.000019,0.000013,0.000034,0.000007,42.662332,0.000044,
2281,2833,0.461525274650391,4.01215333508092,-0.0140942128114148,0.008991,-0.089174,0.005453,0.361241,-4.050008,317.856299,20.537834,0.999440,0.990553,0.003956,0.427587,0.000060,0.000057,0.000015,0.000074,0.000044,41.988129,0.000119,
2476,2728,4.72572865829793,1.73532684830662,-0.0240714603548895,0.009063,-0.089991,-0.001055,0.381407,-4.108482,319.613143,20.358232,0.999595,0.990755,0.003745,0.376247,0.000132,0.000091,0.000014,0.000136,0.000087,16.962756,0.000225,
2026,3208,-5.12727039662022,12.1312472715661,0.0569489935327852,0.012139,-0.087165,0.011015,0.501324,-3.954314,313.452761,20.050935,0.999527,0.992789,0.003371,0.448496,0.000011,0.000040,-0.000031,0.000059,-0.000009,-57.521144,0.000064,
2506,2923,5.33943797655253,5.98344233352733,-0.0224437467138046,0.009997,-0.090453,0.008967,0.385126,-4.083974,316.528354,21.156140,0.999422,0.985997,0.004330,0.399071,0.000051,0.000035,0.000030,0.000073,0.000012,37.409751,0.000092,
2371,3193,2.35649342775373,11.8346608380132,0.0406042957051795,0.011709,-0.089389,0.011168,0.463019,-4.058263,312.488614,21.605086,0.999477,0.992005,0.003587,0.424744,0.000038,0.000038,0.000030,0.000068,0.000008,45.038203,0.000083,
2026,3253,-5.13471001989987,13.1065883081189,0.0545784536258793,0.011991,-0.086540,0.012774,0.489886,-3.923164,312.685489,20.050671,0.999836,0.996018,0.002676,0.446535,0.000008,0.000037,-0.000030,0.000056,-0.000011,-57.816430,0.000059,
2236,2578,-0.473808647211801,-1.54359808873289,-0.0250954990948458,0.007158,-0.089297,-0.003679,0.307942,-4.086706,321.933584,20.059579,0.999353,0.988777,0.004187,0.452372,0.000223,0.000148,0.000017,0.000227,0.000144,12.228512,0.000374,
2086,3208,-3.82783810515542,12.1362317664027,0.0553241166034013,0.011867,-0.087299,0.011051,0.485651,-3.967785,313.078833,20.344738,0.999533,0.993255,0.003329,0.432079,0.000023,0.000033,-0.000024,0.000053,0.000003,-50.323575,0.000063,
2161,2203,-2.04710157013982,-9.74155275660786,-0.0160765620227039,0.002113,-0.092453,-0.017155,0.117577,-4.272945,328.091145,19.762547,0.998165,0.961997,0.006994,0.370121,0.000907,0.000912,0.000069,0.000978,0.000841,46.119663,0.001821,
2131,2083,-2.68384606486142,-12.373463039437,-0.0150325284288897,-0.000509,-0.094914,-0.023842,0.016106,-4.440032,330.043656,19.698858,0.997683,0.978390,0.006135,0.348820,0.001208,0.001255,0.000088,0.001323,0.001140,52.389720,0.002465,
2326,2983,1.41468410294012,7.27460114183188,0.00503396742442419,0.010309,-0.089303,0.007470,0.413398,-4.044122,315.580777,20.932168,0.999889,0.997127,0.002624,0.431548,0.000027,0.000025,0.000021,0.000047,0.000005,43.459502,0.000057,
2056,2023,-4.31211737249524,-13.688677344709,-0.00720789292682866,-0.003535,-0.095090,-0.028681,-0.111369,-4.447424,331.302785,20.146788,0.997997,0.982370,0.005757,0.364938,0.001463,0.001331,0.000150,0.001561,0.001233,33.104221,0.002800,
2071,3208,-4.15300961106859,12.1355005912438,0.0483775472459342,0.011883,-0.086950,0.006978,0.498908,-3.958765,313.113431,20.271038,0.999559,0.993703,0.003215,0.442205,0.000020,0.000032,-0.000028,0.000055,-0.000003,-51.248197,0.000062,
2071,2113,-3.99699889593224,-11.7140121017577,-0.00165015943332492,-0.001788,-0.093424,-0.022222,-0.048592,-4.344225,329.886653,20.207997,0.998171,0.980862,0.005739,0.306002,0.001164,0.001168,0.000130,0.001296,0.001036,45.421827,0.002337,
2386,3208,2.67948397639908,12.1606777945682,0.0438176366822063,0.011819,-0.089893,0.015098,0.452987,-4.074886,312.267076,21.686838,0.999467,0.992259,0.003545,0.438686,0.000042,0.000035,0.000033,0.000071,0.000005,41.992105,0.000085,
2416,2128,3.53769817780161,-11.3917782539461,-0.0145834058473042,0.007176,-0.094896,-0.028556,0.393505,-4.440394,329.323849,18.081625,0.998789,0.978564,0.006024,0.341221,0.001221,0.001264,-0.000125,0.001369,0.001116,-49.944444,0.002489,
2026,3223,-5.12996229124587,12.456780170645,0.0572379203218816,0.011912,-0.087079,0.013282,0.484698,-3.935823,313.193124,20.083739,0.999545,0.993166,0.003260,0.422921,0.000011,0.000039,-0.000027,0.000056,-0.000006,-58.605339,0.000061,
2296,2848,0.785517696906076,4.33808783853139,-0.00836443192525849,0.009380,-0.089471,0.008305,0.368845,-4.051625,317.649968,20.522702,0.999650,0.992356,0.003717,0.488325,0.000066,0.000059,0.000022,0.000085,0.000040,40.436275,0.000128,
2266,2743,0.150883530456561,2.05300691518904,-0.0186221118715366,0.008662,-0.089340,0.005968,0.344835,-4.044665,319.288705,20.349806,0.999038,0.987571,0.004357,0.450284,0.000092,0.000074,-0.000005,0.000093,0.000073,-13.921443,0.000167,
2491,2818,5.03453301599478,3.6962269916221,-0.0204625918200918,0.009700,-0.090161,0.005569,0.385039,-4.091921,318.218033,20.667074,0.999160,0.987930,0.004571,0.439274,0.000093,0.000045,0.000006,0.000094,0.000044,7.265446,0.000141,
2176,2263,-1.72893805674202,-8.4277746007371,-0.00817249238139084,0.002835,-0.091187,-0.015794,0.147121,-4.200493,327.168633,19.823700,0.998616,0.980498,0.005677,0.364637,0.000760,0.000712,0.000051,0.000792,0.000680,32.183959,0.001473,
2356,3118,2.04390813164239,10.2067057609676,0.0295993298679491,0.011368,-0.089175,0.009509,0.453958,-4.038618,313.613076,21.332805,0.999573,0.991494,0.003736,0.457623,0.000029,0.000028,0.000021,0.000050,0.000007,43.895997,0.000062,
2461,2488,4.44843417713625,-3.50504323044657,-0.0149280007664743,0.008597,-0.090164,-0.010628,0.395779,-4.148843,323.574576,19.366683,0.999310,0.986122,0.004722,0.442932,0.000415,0.000205,-0.000048,0.000426,0.000194,-12.249543,0.000634,
2311,2893,1.10300577747346,5.31920854917237,-0.0129801465186006,0.009312,-0.089595,0.007355,0.368303,-4.063908,316.862858,20.762573,0.999410,0.990794,0.003906,0.351548,0.000044,0.000040,0.000027,0.000069,0.000014,43.035713,0.000089,
2026,3268,-5.13776530141577,13.4314870513292,0.0437512466729686,0.012058,-0.086786,0.014779,0.487384,-3.932891,312.347232,20.003050,0.999824,0.996577,0.002594,0.473282,0.000008,0.000020,-0.000027,0.000041,-0.000013,-51.200487,0.000042,
2146,2083,-2.35601556433465,-12.3736000292566,-0.0137166733377967,-0.000031,-0.095073,-0.026187,0.045491,-4.442252,330.024879,19.636508,0.997964,0.980813,0.005833,0.315942,0.001220,0.001251,0.000078,0.001315,0.001156,50.465682,0.002473,
2506,2938,5.33783197798435,6.30865105220829,-0.00697430429096357,0.010153,-0.090253,0.008735,0.393249,-4.092018,316.421242,21.230761,0.999609,0.989842,0.003870,0.376799,0.000045,0.000024,0.000024,0.000061,0.000008,33.030816,0.000076,
2116,2053,-3.00684251346549,-13.0319380282473,-0.0126056408227555,-0.001483,-0.095116,-0.026556,-0.021077,-4.434299,330.571724,19.703640,0.997602,0.978222,0.006040,0.429169,0.001293,0.001317,0.000089,0.001395,0.001215,48.840271,0.002612,
2206,2428,-1.10005490499955,-4.82178118255796,0.000546483837183587,0.006213,-0.090471,-0.003943,0.265398,-4.072115,324.607230,19.765858,0.998953,0.988001,0.004618,0.621762,0.000423,0.000292,0.000011,0.000424,0.000291,4.816947,0.000719,
2221,2503,-0.787751296439968,-3.1808611587132,-0.016075393829567,0.006332,-0.089892,0.000930,0.255222,-4.102053,323.205773,20.002028,0.999286,0.987087,0.004485,0.415077,0.000309,0.000223,0.000018,0.000312,0.000220,11.417289,0.000535,
2341,3103,1.72049605631722,9.87976814339802,0.0287106898123284,0.011255,-0.089746,0.012073,0.440199,-4.066069,313.839018,21.246668,0.999582,0.992724,0.003488,0.420773,0.000026,0.000026,0.000014,0.000040,0.000012,44.069823,0.000055,
2056,2038,-4.31473849966259,-13.3583368816085,-0.013645339782272,-0.003652,-0.093736,-0.030703,-0.110643,-4.411902,331.009152,20.165749,0.997686,0.978994,0.006057,0.380030,0.001406,0.001258,0.000153,0.001502,0.001163,32.105995,0.002671,
2251,2653,-0.159907419918678,0.0919482093252242,-0.0186728643302558,0.007839,-0.089554,0.002075,0.320130,-4.068593,320.752167,20.213799,0.999074,0.988917,0.004331,0.416050,0.000163,0.000079,-0.000003,0.000163,0.000079,-2.174866,0.000247,
2491,2833,5.03116229008446,4.02227715446062,-0.0197793076190464,0.009298,-0.090487,0.004997,0.368636,-4.118228,317.962807,20.702877,0.999198,0.988413,0.004372,0.435857,0.000097,0.000055,0.000011,0.000099,0.000052,13.675538,0.000154,
2476,2743,4.72229279011731,2.06206903551208,-0.0260472988094875,0.009115,-0.090121,0.002236,0.371324,-4.094243,319.342003,20.369580,0.999698,0.992061,0.003613,0.436169,0.000123,0.000078,0.000011,0.000125,0.000075,12.567906,0.000203,
2236,2593,-0.47615604377712,-1.21695417899144,-0.0204209617053834,0.007111,-0.089177,-0.003570,0.305487,-4.078695,321.727076,20.075150,0.999239,0.985981,0.004706,0.466493,0.000214,0.000119,0.000013,0.000216,0.000117,7.688428,0.000338,
2371,3208,2.35349640299144,12.159645354238,0.0392509371605456,0.011855,-0.089511,0.013230,0.462344,-4.068007,312.230827,21.609930,0.999492,0.992146,0.003606,0.449869,0.000040,0.000036,0.000028,0.000066,0.000010,43.092317,0.000082,
2431,2278,3.83435141170049,-8.10189572800114,-0.0175097765257419,0.007065,-0.092684,-0.015531,0.342236,-4.276964,326.846206,18.541837,0.998461,0.976639,0.006263,0.483627,0.000775,0.000693,-0.000100,0.000842,0.000626,-33.883455,0.001473,
2026,3283,-5.13971110550867,13.7558636780733,0.0540602677408515,0.012018,-0.087089,0.017588,0.477656,-3.944483,312.178540,20.029640,0.999754,0.996162,0.002732,0.423790,0.000002,0.000022,-0.000020,0.000034,-0.000010,-58.323275,0.000035,
2131,2098,-2.68544573472015,-12.042266817699,-0.0211091037692768,0.000480,-0.093506,-0.026974,0.071246,-4.376803,329.805914,19.797638,0.998297,0.983144,0.005440,0.322160,0.001167,0.001218,0.000085,0.001281,0.001104,53.265315,0.002387,
2086,3223,-3.83030871245739,12.4609575822768,0.059631649872415,0.011697,-0.087364,0.013171,0.471635,-3.963461,312.855692,20.341881,0.999549,0.992328,0.003547,0.437036,0.000024,0.000033,-0.000024,0.000053,0.000004,-50.708635,0.000064,
2281,2848,0.458542832389671,4.33977334029663,-0.0166585128071119,0.009156,-0.089106,0.008681,0.358062,-4.043448,317.586689,20.662008,0.999540,0.992307,0.003859,0.337676,0.000056,0.000060,0.000020,0.000079,0.000038,47.660941,0.000118,
2161,2218,-2.04901951403592,-9.41324478869749,-0.012946233703417,0.002397,-0.092107,-0.017844,0.132827,-4.302432,327.891060,19.833130,0.997880,0.979634,0.005868,0.282392,0.000871,0.000854,0.000069,0.000932,0.000793,41.556868,0.001726,
2446,2323,4.15363863084194,-7.11630446041855,-0.0104943327963838,0.007406,-0.092123,-0.013234,0.349763,-4.234385,326.210958,18.698596,0.998872,0.980174,0.005490,0.467100,0.000708,0.000549,-0.000086,0.000746,0.000512,-23.619651,0.001264,
2191,2338,-1.41259602880564,-6.78695423977971,-0.00267937594782097,0.004581,-0.090302,-0.015062,0.225439,-4.180135,326.036114,19.927336,0.999543,0.988953,0.004490,0.297134,0.000584,0.000497,0.000014,0.000586,0.000495,8.727950,0.001082,
2071,2128,-3.9996157867884,-11.3841835262234,-0.00786724082774981,-0.001591,-0.092905,-0.019819,-0.046247,-4.305642,329.596050,20.215010,0.998574,0.983258,0.005421,0.337696,0.001118,0.001138,0.000131,0.001259,0.000997,47.201526,0.002261,
2026,3238,-5.13172433661735,12.7807475113246,0.065870899312813,0.011880,-0.086944,0.011626,0.487788,-3.938802,313.023547,20.044645,0.999631,0.994437,0.003059,0.447985,0.000008,0.000032,-0.000030,0.000052,-0.000012,-55.760199,0.000054,
2296,2863,0.78256202411643,4.66550375393424,-0.0121869881325551,0.009295,-0.089551,0.006107,0.372414,-4.047829,317.376586,20.625881,0.999594,0.992244,0.003685,0.418693,0.000063,0.000059,0.000018,0.000079,0.000043,41.850499,0.000125,
2326,2998,1.41231135459775,7.59967140034162,0.0109087338962581,0.010399,-0.089545,0.008899,0.412522,-4.054759,315.384450,20.939833,0.999740,0.994974,0.003082,0.446785,0.000024,0.000027,0.000016,0.000042,0.000009,47.323742,0.000054,
2506,2953,5.33573272727895,6.63361577029359,0.0053310963947979,0.010245,-0.090566,0.010388,0.390932,-4.102178,316.277247,21.264939,0.999565,0.990454,0.003918,0.392658,0.000049,0.000027,0.000028,0.000068,0.000008,34.082292,0.000084,
2071,3223,-4.15553343531289,12.4598971547105,0.0564398872587617,0.011715,-0.087460,0.014091,0.470739,-3.948065,312.907727,20.253219,0.999550,0.992953,0.003354,0.466025,0.000021,0.000033,-0.000026,0.000054,0.000000,-51.267510,0.000063,
2266,2758,0.147292497749351,2.38048875498902,-0.0270710088004762,0.008444,-0.089336,0.006930,0.331607,-4.047568,318.960658,20.396618,0.999197,0.987648,0.004307,0.426240,0.000085,0.000078,0.000001,0.000085,0.000078,8.759517,0.000163,
2461,2503,4.44498413016121,-3.17824059089668,-0.00711210717940958,0.008138,-0.091054,-0.003279,0.346833,-4.141868,323.347555,19.402023,0.999184,0.986286,0.004649,0.469883,0.000386,0.000209,-0.000046,0.000397,0.000198,-13.787304,0.000605,
2026,3298,-5.1422537230724,14.0807413605444,0.0477780767621994,0.012080,-0.086896,0.015428,0.486497,-3.948637,311.889315,20.007867,0.999398,0.994034,0.003263,0.430296,-0.000008,0.000033,-0.000015,0.000038,-0.000014,-71.876273,0.000039,
2386,3223,2.6761270951587,12.4866480968561,0.0397883722590677,0.011682,-0.089883,0.015088,0.446787,-4.070646,311.980648,21.757219,0.999530,0.992999,0.003380,0.414638,0.000040,0.000028,0.000031,0.000066,0.000002,39.404982,0.000078,
2311,2908,1.10101120293487,5.6445189961542,-0.00279078922727649,0.009238,-0.089265,0.006190,0.368948,-4.065837,316.704412,20.793111,0.999396,0.991639,0.003873,0.350853,0.000040,0.000036,0.000027,0.000065,0.000010,42.618675,0.000082,
2491,2848,5.02838945196315,4.34973316724711,-0.0164475030447306,0.009264,-0.090383,0.004259,0.370018,-4.103358,317.746549,20.850940,0.999450,0.991628,0.003816,0.361191,0.000087,0.000051,0.000016,0.000093,0.000045,21.415571,0.000141,
2056,2053,-4.3158323961391,-13.0290814753655,-0.0138602551049303,-0.002438,-0.093520,-0.029771,-0.057498,-4.420674,330.819756,20.205630,0.996501,0.973943,0.006736,0.329003,0.001358,0.001253,0.000150,0.001464,0.001146,35.318856,0.002617,
2476,2758,4.72002518835905,2.38637729837947,-0.0100893319561806,0.009178,-0.090854,0.009645,0.345783,-4.093826,319.206490,20.317684,0.999499,0.989835,0.004010,0.545137,0.000118,0.000065,0.000014,0.000122,0.000062,14.242591,0.000187,
2041,1993,-4.63590521699955,-14.3479488744458,-0.00834652280656201,-0.004810,-0.095882,-0.031186,-0.163698,-4.489395,331.807117,20.136360,0.997143,0.980069,0.006296,0.442884,0.001588,0.001417,0.000167,0.001690,0.001315,31.466609,0.003013,
2416,2143,3.53346135159601,-11.0631946020543,-0.0126361527683798,0.006054,-0.094815,-0.024480,0.327367,-4.426161,329.031893,18.099398,0.998934,0.980293,0.005478,0.388804,0.001165,0.001201,-0.000125,0.001309,0.001057,-49.164239,0.002371,
2176,2278,-1.7310045761669,-8.10108327682475,-0.00435931400289746,0.003221,-0.091729,-0.012475,0.154385,-4.231290,326.966739,19.774584,0.998287,0.980198,0.005765,0.397312,0.000725,0.000662,0.000045,0.000748,0.000639,27.351319,0.001389,
2356,3133,2.04119087779191,10.5323213936099,0.0333327174386682,0.011384,-0.089354,0.011668,0.447003,-4.047621,313.391722,21.407179,0.999498,0.991094,0.003841,0.411673,0.000029,0.000030,0.000022,0.000051,0.000008,46.249089,0.000064,
2146,2098,-2.358486685391,-12.0446158832623,-0.0110381935230066,-0.000195,-0.094136,-0.025124,0.035028,-4.388389,329.795463,19.639410,0.998566,0.982926,0.005498,0.378032,0.001179,0.001214,0.000074,0.001272,0.001121,51.831348,0.002395,
2206,2443,-1.10508159585824,-4.49047644975407,-0.0251776896301408,0.005344,-0.089902,-0.006832,0.234813,-4.102313,324.118648,19.914225,0.998269,0.983475,0.005403,0.462068,0.000396,0.000268,0.000010,0.000397,0.000268,4.586664,0.000668,
2431,2293,3.83160942372238,-7.77410173294611,-0.0102898342199182,0.006854,-0.093406,-0.013872,0.326194,-4.299712,326.647959,18.628932,0.998568,0.979926,0.005775,0.425700,0.000744,0.000645,-0.000098,0.000804,0.000585,-31.558480,0.001395,
2371,3223,2.35032128991631,12.4852019638512,0.0391545984234654,0.011667,-0.089776,0.014492,0.449146,-4.066966,311.970611,21.668030,0.999539,0.992717,0.003436,0.432479,0.000040,0.000031,0.000027,0.000062,0.000008,40.596494,0.000077,
2221,2518,-0.789928407038222,-2.85378706269962,-0.0166474772969991,0.006463,-0.089397,-0.003678,0.276168,-4.085829,322.979156,19.978305,0.999089,0.986059,0.004626,0.475030,0.000289,0.000213,0.000024,0.000296,0.000207,16.093295,0.000505,
2116,2068,-3.00902798841223,-12.7030405269744,-0.00998700315039969,-0.001390,-0.095024,-0.025153,-0.020918,-4.444715,330.352984,19.750834,0.997465,0.968886,0.007169,0.378337,0.001254,0.001275,0.000096,0.001361,0.001167,48.023405,0.002531,
2341,3118,1.71862831422439,10.2054258896215,0.0338840067803972,0.011539,-0.089113,0.008377,0.466497,-4.038001,313.662849,21.292931,0.999591,0.992331,0.003593,0.438493,0.000030,0.000030,0.000017,0.000047,0.000013,45.609802,0.000063,
2071,3238,-4.15757490292566,12.7847410461835,0.0547575377136695,0.012018,-0.087465,0.011240,0.492845,-3.960914,312.670459,20.247350,0.999529,0.992806,0.003392,0.454832,0.000021,0.000030,-0.000026,0.000052,-0.000001,-50.038992,0.000059,
2251,2668,-0.162720216441532,0.418299979747715,-0.0181066655124482,0.007686,-0.089810,0.002697,0.311001,-4.066906,320.504513,20.196207,0.999350,0.990857,0.003984,0.459104,0.000153,0.000090,-0.000009,0.000154,0.000088,-7.869967,0.000245,
2086,3238,-3.83317370852106,12.7862680984623,0.0524036034325377,0.011821,-0.087519,0.014643,0.473096,-3.963719,312.551219,20.335243,0.999613,0.993478,0.003281,0.441147,0.000022,0.000031,-0.000023,0.000050,0.000003,-49.938229,0.000059,
2086,2158,-3.67673258934755,-10.7258635453601,-0.0207899541163101,-0.000468,-0.091783,-0.024882,0.020494,-4.305643,328.996688,20.132064,0.998600,0.982534,0.005464,0.338922,0.001023,0.000998,0.000118,0.001129,0.000892,41.879064,0.002026,
2056,2068,-4.31784880228113,-12.6998135079826,-0.0101438867494039,-0.002058,-0.093580,-0.023531,-0.057624,-4.383265,330.609596,20.249988,0.997817,0.978166,0.005913,0.320036,0.001316,0.001238,0.000150,0.001432,0.001122,37.689053,0.002560,
2041,2008,-4.63976134724277,-14.0173743911638,-0.0079017833945727,-0.005975,-0.096104,-0.022850,-0.240330,-4.476296,331.493666,20.265246,0.996641,0.978749,0.006478,0.323701,0.001557,0.001442,0.000199,0.001707,0.001292,36.987956,0.003009,
2131,2113,-2.68786975241756,-11.7150780999039,-0.012899518197969,0.000178,-0.094191,-0.022798,0.044692,-4.373649,329.607398,19.753204,0.998619,0.983122,0.005389,0.378336,0.001130,0.001182,0.000085,0.001245,0.001067,53.646675,0.002314,
2296,2878,0.780045161612509,4.9914353298198,-0.0121616873336734,0.009478,-0.089046,0.005563,0.382851,-4.032962,317.142809,20.614647,0.999590,0.991621,0.003753,0.474673,0.000057,0.000050,0.000018,0.000072,0.000036,38.833995,0.000109,
2506,2968,5.33267706810738,6.96027932126761,0.00583420680413838,0.010210,-0.090062,0.010000,0.391106,-4.078083,316.035815,21.342035,0.999460,0.989430,0.004224,0.400247,0.000044,0.000037,0.000039,0.000080,0.000001,42.167753,0.000093,
2461,2518,4.44186875727128,-2.85091775619222,-0.00709278571201821,0.007751,-0.091125,-0.006911,0.342718,-4.168801,323.100277,19.452141,0.998924,0.983072,0.004888,0.448516,0.000361,0.000212,-0.000049,0.000376,0.000198,-16.578915,0.000583,
2071,2143,-4.00062364543713,-11.0549297854967,-0.007021713674078,-0.000420,-0.091806,-0.020526,0.009772,-4.221274,329.417297,20.205912,0.998604,0.983275,0.005442,0.430564,0.001074,0.001082,0.000130,0.001208,0.000949,45.924151,0.002162,
2236,2608,-0.478543118808911,-0.889806126418918,-0.0232565154141184,0.007416,-0.088959,-0.005479,0.325731,-4.090357,321.480441,20.095935,0.999022,0.984558,0.004872,0.456299,0.000201,0.000110,0.000012,0.000203,0.000109,7.127327,0.000317,
2191,2353,-1.41512306906874,-6.45987471198836,-0.00872428713637419,0.004986,-0.089977,-0.015036,0.244081,-4.175217,325.762880,19.805669,0.999121,0.986462,0.004842,0.440346,0.000553,0.000445,0.000013,0.000555,0.000443,6.830871,0.001000,
2161,2233,-2.05158322153587,-9.08599179579064,-0.00407552976116676,0.001873,-0.092019,-0.015169,0.100609,-4.259008,327.691420,19.799052,0.998098,0.980110,0.005647,0.372432,0.000833,0.000804,0.000064,0.000884,0.000753,38.725604,0.001639,
2386,3238,2.67262674858823,12.8127087844213,0.025532791477417,0.012022,-0.089657,0.012768,0.470958,-4.064822,311.638752,21.780698,0.999563,0.992694,0.003386,0.439153,0.000039,0.000018,0.000029,0.000059,-0.000003,34.923484,0.000067,
2476,2773,4.71569623394761,2.715941740014,-0.0245216965750501,0.008634,-0.090304,0.003890,0.342993,-4.084016,318.836940,20.503550,0.999116,0.985774,0.004524,0.425908,0.000101,0.000048,0.000007,0.000102,0.000047,7.281805,0.000153,
2446,2338,4.15164174040099,-6.78850129910936,-0.00276890989471212,0.007907,-0.092809,-0.011776,0.367039,-4.249561,326.049998,18.797345,0.998764,0.980422,0.005479,0.407020,0.000681,0.000523,-0.000077,0.000712,0.000492,-22.085558,0.001210,
2266,2773,0.145142580223055,2.70701909765954,-0.0234851031698895,0.008492,-0.089038,0.003743,0.344544,-4.038712,318.759451,20.444180,0.999212,0.986412,0.004401,0.413194,0.000078,0.000073,0.000005,0.000081,0.000070,30.942580,0.000151,
2281,2863,0.455739611126901,4.66600726256646,-0.0189439459704772,0.009127,-0.089240,0.007137,0.361880,-4.047814,317.327067,20.676427,0.999648,0.992702,0.003667,0.346466,0.000053,0.000060,0.000015,0.000072,0.000041,51.737435,0.000115,
2326,3013,1.40969964342264,7.92568316184722,0.0119629251280458,0.010497,-0.089493,0.008733,0.417634,-4.054275,315.153187,20.993976,0.999340,0.989171,0.003998,0.427009,0.000021,0.000025,0.000017,0.000041,0.000006,48.420252,0.000051,
2371,3238,2.34759346224517,12.8110160502474,0.0370473226572017,0.011904,-0.089328,0.013484,0.463912,-4.044890,311.721190,21.721201,0.999663,0.993725,0.003198,0.441298,0.000039,0.000022,0.000024,0.000056,0.000005,35.256699,0.000068,
2491,2863,5.02557268316186,4.67586864915912,-0.0160546156951682,0.009466,-0.089998,0.004043,0.380342,-4.079858,317.515240,20.850899,0.999489,0.991224,0.003809,0.443881,0.000082,0.000063,0.000028,0.000102,0.000043,35.509900,0.000148,
2416,2158,3.53073360766757,-10.7345278088909,-0.0103702088239856,0.006184,-0.094802,-0.023343,0.329201,-4.441659,328.810657,18.162674,0.998787,0.979397,0.005626,0.360407,0.001115,0.001120,-0.000126,0.001244,0.000992,-45.585108,0.002240,
2116,2083,-3.01089795406067,-12.3729478334,-0.00926153649044181,-0.000837,-0.094484,-0.023512,-0.000223,-4.415599,330.138127,19.851648,0.997590,0.975166,0.006669,0.313142,0.001214,0.001260,0.000102,0.001342,0.001132,51.456597,0.002477,
2311,2923,1.09823712333635,5.9703430049369,-0.00750934623761168,0.009463,-0.088832,0.004567,0.385104,-4.043394,316.436449,20.742935,0.999092,0.989579,0.004121,0.455547,0.000035,0.000034,0.000020,0.000055,0.000014,43.751727,0.000073,
2431,2308,3.82944833546629,-7.44423616384345,-0.00515372424604266,0.007153,-0.092147,-0.015188,0.345303,-4.231359,326.466003,18.797649,0.998597,0.982432,0.005398,0.377480,0.000720,0.000592,-0.000090,0.000766,0.000545,-27.319638,0.001318,
2506,2983,5.32932568709314,7.2864822238555,-4.10548290687984E-05,0.010154,-0.090027,0.006474,0.402236,-4.083895,315.752269,21.366911,0.999313,0.987795,0.004330,0.430182,0.000041,0.000033,0.000038,0.000076,-0.000002,42.273661,0.000087,
2386,3253,2.66935100443211,13.1388005915658,0.0189186971009576,0.012382,-0.089402,0.015470,0.477936,-4.050972,311.343533,21.847621,0.999634,0.992158,0.003400,0.427969,0.000038,0.000022,0.000030,0.000061,-0.000001,37.275674,0.000070,
2041,2023,-4.6395147945922,-13.6885152079512,-0.00931910018789495,-0.003825,-0.095183,-0.029101,-0.124155,-4.464524,331.357364,20.222976,0.997024,0.978527,0.006377,0.373119,0.001486,0.001315,0.000164,0.001586,0.001216,31.280500,0.002809,
2221,2533,-0.792262181920954,-2.52505473410963,-0.0186154130054774,0.006834,-0.089147,-0.004191,0.294950,-4.069042,322.737810,20.098343,0.999409,0.989090,0.004170,0.391695,0.000272,0.000191,0.000022,0.000277,0.000185,14.314663,0.000466,
2356,3148,2.03875262090664,10.8573392722446,0.0368327279023788,0.011545,-0.089604,0.011862,0.453605,-4.063445,313.182232,21.435179,0.999500,0.991621,0.003771,0.405724,0.000025,0.000032,0.000024,0.000053,0.000004,49.007242,0.000064,
2056,2083,-4.32147602811195,-12.3700010691536,-0.018765441048231,-0.002814,-0.093816,-0.021997,-0.096771,-4.377514,330.258343,20.244661,0.998423,0.979914,0.005599,0.329833,0.001272,0.001236,0.000156,0.001411,0.001097,41.698417,0.002515,
2131,2128,-2.68975875936433,-11.3868764489111,-0.0104952785320052,0.000749,-0.094283,-0.019308,0.060439,-4.377123,329.402348,19.748946,0.998376,0.980244,0.005679,0.387648,0.001091,0.001151,0.000085,0.001212,0.001030,54.822012,0.002245,
2071,2158,-4.00337689396825,-10.7272422510342,-0.00689755809474946,-0.000769,-0.092164,-0.018316,-0.012615,-4.266353,329.155880,20.180861,0.998647,0.983364,0.005433,0.410374,0.001031,0.000992,0.000116,0.001130,0.000894,40.269763,0.002028,
2176,2293,-1.7327483427688,-7.77146197910623,-0.00580807618274548,0.004003,-0.090924,-0.013538,0.193819,-4.188249,326.751281,19.871040,0.998379,0.982081,0.005527,0.358086,0.000690,0.000620,0.000045,0.000712,0.000598,25.893981,0.001312,
2086,3253,-3.83511476640026,13.1108381867485,0.0565983006636088,0.012103,-0.087413,0.015373,0.484034,-3.958859,312.351864,20.323900,0.999700,0.994578,0.003079,0.455065,0.000022,0.000035,-0.000022,0.000051,0.000005,-53.708729,0.000063,
2461,2533,4.43863329212397,-2.52210720985735,-0.00942646179413487,0.007926,-0.090760,-0.004685,0.342566,-4.143320,322.836234,19.570058,0.999230,0.987713,0.004382,0.411814,0.000343,0.000199,-0.000042,0.000354,0.000187,-15.276536,0.000550,
2206,2458,-1.10634261228836,-4.1638638429659,-0.016292750925345,0.005907,-0.089707,-0.008552,0.266162,-4.112521,323.981772,19.943247,0.998676,0.984238,0.005266,0.440486,0.000374,0.000254,0.000015,0.000376,0.000252,6.933225,0.000632,
2146,2113,-2.35964177592195,-11.717448767309,0.00592246309020084,0.000103,-0.093654,-0.022625,0.041320,-4.351494,329.701959,19.654028,0.999056,0.984155,0.005221,0.410451,0.001138,0.001179,0.000073,0.001235,0.001083,52.776643,0.002319,
2476,2788,4.71315747551093,3.04294693442767,-0.0242715911128926,0.008979,-0.089958,0.002135,0.365668,-4.076562,318.616886,20.576960,0.999087,0.985169,0.004582,0.416627,0.000094,0.000053,0.000005,0.000095,0.000052,6.488457,0.000149,
2341,3133,1.71507863720739,10.5309215870061,0.0312422950120776,0.011201,-0.089325,0.010742,0.442577,-4.047887,313.371268,21.317426,0.999448,0.991904,0.003697,0.439438,0.000027,0.000034,0.000019,0.000050,0.000012,49.950832,0.000065,
2071,3253,-4.1604068037215,13.1102421823343,0.053151856232887,0.011950,-0.087406,0.015161,0.478493,-3.956113,312.397065,20.288967,0.999687,0.994538,0.003085,0.413072,0.000021,0.000037,-0.000024,0.000054,0.000004,-54.133926,0.000064,
2326,3028,1.40712931821205,8.25130475874643,0.0156819693934835,0.010451,-0.089444,0.008794,0.415296,-4.070259,314.936969,21.050323,0.999531,0.991332,0.003749,0.388262,0.000023,0.000024,0.000017,0.000041,0.000006,45.584231,0.000051,
2296,2893,0.777575363077933,5.31746375715486,-0.0101346251542509,0.009520,-0.089217,0.004404,0.388611,-4.051212,316.921117,20.664242,0.999530,0.991379,0.003737,0.436496,0.000052,0.000039,0.000022,0.000069,0.000023,36.834935,0.000095,
2236,2623,-0.480812247281726,-0.562401043452361,-0.017592479483767,0.007780,-0.089061,0.000219,0.324056,-4.050551,321.282241,20.166648,0.998982,0.984914,0.004871,0.446996,0.000184,0.000099,0.000006,0.000184,0.000099,3.942017,0.000287,
2086,2173,-3.67821391489823,-10.398445349269,-0.0136423210469729,0.000051,-0.092133,-0.022590,0.037589,-4.294698,328.832454,20.107517,0.998648,0.982274,0.005362,0.375637,0.000985,0.000959,0.000118,0.001091,0.000853,41.904351,0.001949,
2191,2368,-1.41808549979361,-6.13041868632707,-0.014203034475031,0.005020,-0.089450,-0.013762,0.241845,-4.134714,325.472010,19.877259,0.999325,0.987332,0.004718,0.425856,0.000528,0.000418,0.000013,0.000529,0.000417,6.827295,0.000948,
2041,2038,-4.64223903217568,-13.359714061598,-0.00797365137009365,-0.004507,-0.094285,-0.030310,-0.151813,-4.441016,331.100781,20.201095,0.998049,0.977852,0.006066,0.414518,0.001428,0.001239,0.000163,0.001522,0.001145,30.038757,0.002676,
2161,2248,-2.05373080648299,-8.75683547739718,-0.0115632007232307,0.002713,-0.091870,-0.014841,0.138187,-4.222502,327.424626,19.781408,0.998197,0.978984,0.005580,0.439086,0.000797,0.000759,0.000061,0.000841,0.000715,36.466286,0.001558,
2251,2683,-0.164685072588291,0.744656153662419,-0.0162231385431824,0.008207,-0.089740,0.002218,0.336558,-4.077285,320.302430,20.206311,0.999334,0.990706,0.003926,0.462328,0.000142,0.000091,-0.000014,0.000146,0.000087,-14.387520,0.000235,
2371,3253,2.34456843298002,13.1363478776117,0.0304094729088433,0.012275,-0.089393,0.013478,0.480970,-4.055517,311.436424,21.741235,0.999651,0.992884,0.003324,0.450213,0.000039,0.000023,0.000025,0.000058,0.000005,36.200434,0.000070,
2506,2998,5.32683503320397,7.61273772467528,-6.18605732825017E-05,0.010516,-0.089964,0.003577,0.430132,-4.096548,315.534485,21.448147,0.999485,0.989608,0.003931,0.396870,0.000035,0.000024,0.000047,0.000077,-0.000018,41.803669,0.000080,
2281,2878,0.453896579484791,4.99037193656238,-0.0120979964567596,0.009354,-0.088849,0.005218,0.378897,-4.036470,317.157657,20.574968,0.999720,0.992633,0.003635,0.486874,0.000047,0.000050,0.000014,0.000063,0.000034,48.953092,0.000098,
2056,2098,-4.32325964399006,-12.0418502844355,-0.0119190736271548,-0.002713,-0.093146,-0.020856,-0.095174,-4.335418,330.076183,20.227579,0.998285,0.979621,0.005748,0.386455,0.001225,0.001200,0.000153,0.001366,0.001058,42.656102,0.002431,
2266,2788,0.142862218726894,3.03282244118077,-0.0182309597597623,0.008637,-0.089153,0.005364,0.345794,-4.038431,318.560832,20.450461,0.999144,0.986988,0.004504,0.432954,0.000073,0.000071,0.000009,0.000081,0.000062,42.278315,0.000144,
2416,2173,3.52705080988585,-10.4053311318761,-0.0142336820497917,0.006126,-0.095329,-0.018823,0.309892,-4.438506,328.516878,18.195700,0.998287,0.980207,0.005524,0.381432,0.001065,0.001079,-0.000125,0.001197,0.000946,-46.590709,0.002148,
2491,2878,5.02310299517935,5.00050749013269,-0.00648698054379793,0.009422,-0.090265,0.005985,0.370754,-4.096457,317.341622,20.824969,0.999381,0.992574,0.003658,0.511378,0.000081,0.000080,0.000034,0.000115,0.000046,44.439143,0.000166,
2446,2353,4.14879822689545,-6.46087810089862,-0.00268091117828817,0.007997,-0.092669,-0.012493,0.373901,-4.257802,325.815029,18.801939,0.999071,0.981283,0.005526,0.448067,0.000647,0.000494,-0.000072,0.000676,0.000465,-21.691127,0.001147,
2431,2323,3.82636970699224,-7.11600488388693,-0.0123598750884639,0.007301,-0.091432,-0.019215,0.367210,-4.236743,326.185288,18.772391,0.998708,0.982244,0.005271,0.449396,0.000681,0.000552,-0.000084,0.000723,0.000511,-26.285590,0.001240,
2386,3268,2.66591913704105,13.4644112267444,0.0151956881709339,0.012045,-0.089225,0.014173,0.467230,-4.036488,311.054996,21.890209,0.999669,0.992041,0.003487,0.441766,0.000036,0.000030,0.000027,0.000060,0.000006,41.988231,0.000073,
2461,2548,4.4359921294209,-2.19385945137567,-0.0103239259642578,0.008285,-0.090691,-0.006000,0.364027,-4.137520,322.606131,19.673872,0.999613,0.991843,0.003806,0.369101,0.000324,0.000162,-0.000034,0.000331,0.000156,-11.277426,0.000497,
2176,2308,-1.73548499743023,-7.44370477943785,-0.00578074680402096,0.003705,-0.090703,-0.014290,0.182556,-4.173975,326.498565,19.846195,0.998382,0.982220,0.005464,0.411656,0.000651,0.000572,0.000033,0.000662,0.000560,19.842762,0.001224,
2071,3268,-4.16318674163346,13.4355797194704,0.0420213208569749,0.012233,-0.087076,0.014344,0.494024,-3.948610,312.073755,20.264092,0.999771,0.995808,0.002841,0.441353,0.000020,0.000038,-0.000022,0.000053,0.000005,-56.522166,0.000064,
2476,2803,4.71021158568015,3.36963653445621,-0.0217602405130606,0.009191,-0.090174,0.005927,0.360914,-4.079879,318.388373,20.654048,0.999074,0.984718,0.004787,0.393048,0.000091,0.000053,0.000008,0.000092,0.000051,11.734288,0.000146,
2116,2098,-3.01252459876276,-12.0422928231167,-0.0100980377819724,-0.000350,-0.092852,-0.028228,0.036503,-4.358666,329.925792,19.964172,0.998292,0.974937,0.006502,0.264222,0.001173,0.001220,0.000100,0.001299,0.001094,51.705450,0.002396,
2071,2173,-4.00555211613757,-10.3986826273744,-0.0047580982358113,-0.000671,-0.092171,-0.016317,-0.013832,-4.242645,328.931349,20.193357,0.998564,0.984313,0.005304,0.421111,0.000990,0.000954,0.000115,0.001089,0.000855,40.571606,0.001949,
2041,2053,-4.64579080906852,-13.024529109502,-0.0482295006505638,-0.003553,-0.093420,-0.033141,-0.099979,-4.432658,330.575819,20.316373,0.999303,0.990911,0.004276,0.305228,0.001378,0.001237,0.000159,0.001482,0.001134,33.046511,0.002623,
2236,2638,-0.483090306865158,-0.23509023121364,-0.0216268794258099,0.008238,-0.088655,-0.002302,0.353391,-4.049880,321.034370,20.189453,0.998815,0.986640,0.004717,0.446509,0.000172,0.000090,0.000003,0.000172,0.000090,2.180335,0.000266,
2311,2938,1.09587682328528,6.29628370278883,-0.004090190896477,0.009837,-0.088941,0.007454,0.392461,-4.020065,316.227538,20.765046,0.998998,0.987765,0.004352,0.488451,0.000033,0.000031,0.000021,0.000053,0.000012,43.585041,0.000069,
2221,2548,-0.794342094335068,-2.19823089069128,-0.0185102065656793,0.007036,-0.088737,-0.008506,0.318258,-4.050277,322.519122,20.065044,0.999587,0.991328,0.003773,0.463766,0.000260,0.000166,0.000022,0.000265,0.000161,12.473731,0.000430,
2356,3163,2.03610236223257,11.1822768619163,0.0422675097282195,0.011391,-0.089458,0.012680,0.443763,-4.049949,312.972302,21.441595,0.999424,0.991679,0.003913,0.450529,0.000026,0.000032,0.000023,0.000052,0.000005,48.535944,0.000063,
2371,3268,2.34087239437071,13.462058259936,0.0232350888355199,0.012098,-0.089450,0.014505,0.469229,-4.047871,311.117961,21.779770,0.999731,0.993379,0.003251,0.458974,0.000037,0.000035,0.000023,0.000059,0.000013,43.441637,0.000077,
2131,2143,-2.69264678626017,-11.0567196285082,-0.0191961770366333,0.000359,-0.092690,-0.026405,0.064211,-4.334700,329.092067,19.762946,0.998653,0.982185,0.005499,0.425150,0.001049,0.001089,0.000087,0.001159,0.000979,51.565857,0.002140,
2251,2698,-0.16712985381503,1.07189912717285,-0.0184065393263495,0.008567,-0.089208,0.002077,0.353769,-4.054899,320.057418,20.236181,0.999339,0.990937,0.003759,0.478693,0.000131,0.000087,-0.000013,0.000135,0.000084,-15.417250,0.000220,
2071,3283,-4.16618142602266,13.7605582271824,0.0323538830147072,0.012197,-0.087114,0.013260,0.495417,-3.956458,311.748766,20.234687,0.999739,0.996027,0.002806,0.458251,0.000017,0.000040,-0.000017,0.000049,0.000009,-62.206334,0.000062,
2341,3148,1.71278708733574,10.8560155137323,0.0391832243041108,0.011326,-0.089598,0.013260,0.439452,-4.056827,313.189181,21.372554,0.999502,0.993178,0.003556,0.410966,0.000024,0.000036,0.000021,0.000052,0.000008,52.963161,0.000064,
2296,2908,0.775546591442403,5.64328748979221,-0.001602655661884,0.009707,-0.089100,0.005772,0.392670,-4.044948,316.751957,20.721426,0.999511,0.991931,0.003660,0.415028,0.000048,0.000036,0.000023,0.000066,0.000018,37.422698,0.000089,
2086,3268,-3.83769938183615,13.436831436926,0.0435089716930293,0.012500,-0.086869,0.010806,0.515816,-3.945499,312.027965,20.342857,0.999704,0.995376,0.002925,0.447361,0.000021,0.000040,-0.000022,0.000055,0.000006,-57.008650,0.000067,
2281,2893,0.451028548456943,5.31748653542478,-0.0188256033405878,0.009510,-0.089031,0.002572,0.394935,-4.043477,316.872536,20.649250,0.999597,0.991701,0.003675,0.433148,0.000043,0.000040,0.000019,0.000060,0.000022,42.592296,0.000085,
2206,2473,-1.10968076768558,-3.83570150968438,-0.0229651186498359,0.005548,-0.089147,-0.009213,0.251970,-4.093801,323.669113,19.945588,0.999038,0.983732,0.005297,0.475304,0.000356,0.000248,0.000017,0.000358,0.000245,8.662329,0.000607,
2491,2893,5.01974347979695,5.32910814798721,-0.014935214984348,0.010071,-0.090276,0.008544,0.390799,-4.087194,317.044718,21.009581,0.998575,0.987063,0.004514,0.394901,0.000075,0.000073,0.000034,0.000109,0.000040,44.334711,0.000154,
2506,3013,5.32414444397596,7.93871429460268,0.00378253395655292,0.010659,-0.089822,0.004343,0.433843,-4.085410,315.324758,21.510094,0.999529,0.990859,0.003660,0.406514,0.000034,0.000035,0.000047,0.000081,-0.000012,45.375359,0.000087,
2446,2368,4.14513880313067,-6.13103283489306,-0.00654230183414484,0.007690,-0.091759,-0.012151,0.359001,-4.227085,325.523932,18.937767,0.999216,0.984990,0.005078,0.397427,0.000612,0.000458,-0.000067,0.000637,0.000432,-20.546140,0.001076,
2056,2113,-4.32491398264936,-11.7140353564709,-0.0136491043011233,-0.002173,-0.093448,-0.023330,-0.063551,-4.365384,329.853337,20.162670,0.998361,0.981608,0.005721,0.418935,0.001182,0.001168,0.000150,0.001325,0.001025,43.714562,0.002356,
2326,3043,1.40475803953089,8.57680974880967,0.0207112794004161,0.010527,-0.089279,0.009133,0.417753,-4.048884,314.736284,21.070795,0.999587,0.992042,0.003672,0.422583,0.000022,0.000029,0.000015,0.000041,0.000010,52.108291,0.000054,
2386,3283,2.66333152117048,13.7891034551233,0.0153468990206989,0.012329,-0.089365,0.013929,0.481119,-4.051653,310.824091,21.902898,0.999703,0.991223,0.003596,0.455759,0.000037,0.000026,0.000021,0.000053,0.000009,37.683932,0.000067,
2146,2128,-2.36138771822585,-11.3880816385686,0.00318809555773214,0.000863,-0.093512,-0.024150,0.080805,-4.365182,329.477398,19.709466,0.998937,0.981783,0.005448,0.352171,0.001096,0.001149,0.000073,0.001200,0.001045,55.031414,0.002247,
2191,2383,-1.42128452224093,-5.80323376086886,-0.0123424405252308,0.004623,-0.090049,-0.007903,0.205081,-4.136145,325.208964,19.859709,0.999036,0.986588,0.004827,0.458356,0.000498,0.000393,0.000009,0.000499,0.000392,5.088433,0.000893,
2416,2188,3.52622378288195,-10.07594471489,-0.000166726381394255,0.006796,-0.093897,-0.022908,0.356039,-4.377432,328.437173,18.383026,0.998785,0.982930,0.005315,0.304920,0.001017,0.001049,-0.000117,0.001151,0.000915,-48.831800,0.002070,
2476,2818,4.70753793049775,3.69560151084906,-0.0172564298425755,0.009281,-0.090127,0.007026,0.360898,-4.069479,318.181501,20.670020,0.999192,0.986331,0.004692,0.443980,0.000083,0.000048,0.000015,0.000088,0.000043,19.963999,0.000134,
2461,2563,4.43174028530769,-1.86555618007623,-0.0249322445652069,0.008684,-0.090863,-0.000943,0.363315,-4.119194,322.239266,19.654374,0.999096,0.988411,0.004526,0.462920,0.000309,0.000159,-0.000021,0.000312,0.000156,-7.976308,0.000476,
2266,2803,0.14050352475407,3.35991893622143,-0.0211853225704886,0.009176,-0.088951,0.005248,0.371080,-4.030936,318.316947,20.508787,0.999038,0.987056,0.004787,0.407500,0.000065,0.000070,0.000007,0.000074,0.000060,54.608838,0.000135,
2041,2068,-4.64787355539881,-12.6974590403421,-0.0353622946378778,-0.003728,-0.093400,-0.025041,-0.130486,-4.386256,330.412283,20.255345,0.999008,0.990478,0.004444,0.408000,0.001335,0.001237,0.000158,0.001451,0.001121,36.285842,0.002579,
2086,2188,-3.68071327066206,-10.0697828425464,-0.0055500416468135,-0.000104,-0.091797,-0.013964,0.005745,-4.232284,328.626379,20.159618,0.998194,0.982159,0.005606,0.387703,0.000948,0.000937,0.000120,0.001063,0.000822,43.731036,0.001890,
2116,2113,-3.01560029999085,-11.7154478991788,-0.00673001245678506,-0.000882,-0.093389,-0.021849,-0.006896,-4.339513,329.670599,19.818807,0.998745,0.984947,0.005216,0.435268,0.001136,0.001185,0.000101,0.001264,0.001056,51.876675,0.002324,
2071,2188,-4.00740759570054,-10.0692267180546,-0.0122214881428135,0.000179,-0.091105,-0.016957,0.027327,-4.232056,328.668948,20.204315,0.998185,0.983984,0.005591,0.420561,0.000950,0.000936,0.000119,0.001062,0.000824,43.310387,0.001892,
2176,2323,-1.73867959966476,-7.11484945270733,-0.0167824650474699,0.003606,-0.090220,-0.016438,0.184821,-4.149655,326.167078,19.807341,0.998333,0.981860,0.005469,0.489714,0.000626,0.000529,0.000022,0.000631,0.000524,12.227548,0.001156,
2071,3298,-4.1687170660637,14.0852472419681,0.0322298995577626,0.012161,-0.087355,0.014325,0.490649,-3.963525,311.497463,20.234230,0.999503,0.994598,0.003096,0.446914,0.000016,0.000054,-0.000020,0.000063,0.000007,-66.660626,0.000077,
2371,3283,2.33791733088523,13.7872301165401,0.019121726817616,0.012384,-0.089536,0.015023,0.480507,-4.057386,310.848455,21.807071,0.999713,0.992821,0.003331,0.461948,0.000038,0.000033,0.000015,0.000051,0.000020,40.663107,0.000074,
2431,2338,3.82296584400483,-6.78748352823987,-0.013802023878668,0.007273,-0.092342,-0.015823,0.353107,-4.248646,325.916238,18.843300,0.998673,0.983023,0.005062,0.418676,0.000655,0.000525,-0.000074,0.000688,0.000492,-24.415939,0.001185,
2086,3283,-3.84047140073666,13.7613513685165,0.0441878012347274,0.012240,-0.087312,0.012519,0.498661,-3.966908,311.771281,20.341398,0.999588,0.995047,0.002972,0.424625,0.000018,0.000044,-0.000019,0.000054,0.000008,-62.328315,0.000067,
2296,2923,0.772855283193238,5.96748417706618,0.00448196285969971,0.009503,-0.089434,0.008415,0.374176,-4.057791,316.540684,20.633666,0.999476,0.992187,0.003589,0.519349,0.000043,0.000034,0.000017,0.000056,0.000021,37.873053,0.000079,
2161,2263,-2.0566230890377,-8.42622406989138,-0.0209375826966038,0.003053,-0.091225,-0.012852,0.147947,-4.201689,327.113647,19.899422,0.998218,0.979564,0.005784,0.354563,0.000761,0.000706,0.000054,0.000794,0.000673,31.463564,0.001469,
2311,2953,1.09387242787258,6.62245537215811,-2.10104098528063E-05,0.010198,-0.088672,0.006060,0.413967,-4.019260,316.038120,20.839122,0.999247,0.989987,0.003984,0.446592,0.000032,0.000022,0.000023,0.000051,0.000003,39.087322,0.000060,
2221,2563,-0.797378579489934,-1.87094940503125,-0.0235377152263823,0.007267,-0.089266,-0.003995,0.314228,-4.057872,322.230250,20.059612,0.999460,0.990651,0.003886,0.481613,0.000246,0.000164,0.000023,0.000252,0.000158,14.588173,0.000413,
2386,3298,2.65914743290297,14.1153266373453,-0.00214561292341386,0.012488,-0.089340,0.014738,0.485510,-4.060639,310.434830,21.959494,0.999691,0.992235,0.003593,0.432007,0.000036,0.000010,0.000020,0.000047,-0.000001,28.218059,0.000054,
2506,3028,5.32144878275163,8.26402773410171,0.0103745672216178,0.010699,-0.089823,0.006737,0.426447,-4.080626,315.127207,21.539146,0.999577,0.992485,0.003543,0.442468,0.000037,0.000022,0.000047,0.000077,-0.000018,40.581499,0.000081,
2056,2128,-4.32732807166535,-11.3831977153189,-0.0162990889623416,-0.001893,-0.092831,-0.018851,-0.063124,-4.295905,329.589707,20.269941,0.998303,0.981186,0.005817,0.378858,0.001134,0.001138,0.000150,0.001286,0.000986,45.440977,0.002278,
2251,2713,-0.170706861800266,1.39900347120802,-0.0232003047706257,0.007995,-0.089396,0.002065,0.327431,-4.064783,319.747320,20.269379,0.999317,0.990714,0.003869,0.459446,0.000120,0.000081,-0.000010,0.000123,0.000078,-14.067294,0.000203,
2041,2083,-4.64782184236558,-12.3707925107467,-0.00782236295032135,-0.003261,-0.092783,-0.026947,-0.103636,-4.344848,330.427265,20.327528,0.998826,0.986130,0.004884,0.371228,0.001290,0.001238,0.000164,0.001430,0.001098,40.441727,0.002535,
2476,2833,4.70512614192073,4.02158207278936,-0.0122445883764613,0.009265,-0.089845,0.004225,0.370929,-4.073991,317.988940,20.709892,0.999369,0.987824,0.004216,0.456024,0.000084,0.000055,0.000017,0.000092,0.000047,25.025740,0.000142,
2236,2653,-0.485369919850516,0.0920086446396482,-0.0120714636229309,0.008088,-0.088792,0.000134,0.338540,-4.053643,320.855656,20.316676,0.999122,0.989236,0.004419,0.337012,0.000164,0.000088,0.000004,0.000164,0.000088,2.857222,0.000257,
2206,2488,-1.11208090866394,-3.50709239956693,-0.0289191189177131,0.006138,-0.089323,-0.009135,0.278760,-4.102108,323.403088,20.028031,0.999139,0.985344,0.004903,0.402756,0.000333,0.000229,0.000015,0.000335,0.000227,7.996341,0.000566,
2071,2203,-4.00895323035228,-9.74053280748214,-0.0139611929070043,0.000723,-0.090518,-0.021819,0.066299,-4.213878,328.452035,20.204464,0.997784,0.980913,0.005778,0.437680,0.000919,0.000889,0.000117,0.001022,0.000787,41.322244,0.001813,
2461,2578,4.42702037120604,-1.53758643389021,-0.0332629355330596,0.007974,-0.090913,0.002620,0.317397,-4.093142,321.879486,19.658483,0.999378,0.991095,0.004330,0.540448,0.000295,0.000155,-0.000017,0.000297,0.000153,-6.871003,0.000458,
2086,1993,-3.65195325426008,-14.3507236974415,0.000762784616711087,-0.002654,-0.097428,-0.029716,-0.067381,-4.574459,331.739019,19.866170,0.998473,0.979875,0.005776,0.309715,0.001488,0.001437,0.000082,0.001548,0.001376,36.378307,0.002926,
2086,2203,-3.68275295503315,-9.74060290892605,-0.012016361515407,0.000375,-0.091310,-0.017197,0.037178,-4.232676,328.362607,20.172998,0.997875,0.980262,0.005746,0.375574,0.000917,0.000889,0.000118,0.001021,0.000785,41.647897,0.001811,
2086,3298,-3.84386232270205,14.0866285049744,0.0329641379333339,0.012033,-0.087197,0.012974,0.487866,-3.963969,311.420811,20.324981,0.999592,0.994606,0.003011,0.441631,0.000017,0.000056,-0.000024,0.000068,0.000006,-64.291398,0.000082,
2116,2128,-3.01742890528146,-11.3867470559174,-0.00727288794030301,-0.000350,-0.093131,-0.022415,0.019213,-4.326761,329.451176,19.811247,0.998288,0.981784,0.005691,0.461824,0.001096,0.001154,0.000102,0.001231,0.001019,52.853692,0.002253,
2341,3163,1.71026921524335,11.1816921662881,0.0426773444379478,0.011357,-0.089072,0.013065,0.441862,-4.018707,312.974776,21.410445,0.999523,0.993087,0.003653,0.446820,0.000025,0.000035,0.000020,0.000051,0.000009,51.725524,0.000065,
2281,2908,0.44837451947868,5.64351453673198,-0.015940743946885,0.009515,-0.088970,0.004598,0.388409,-4.032240,316.645528,20.679988,0.999642,0.992520,0.003439,0.441039,0.000040,0.000034,0.000020,0.000058,0.000017,40.945126,0.000078,
2146,2143,-2.36496672836695,-11.0581983213211,-0.0126095405619822,0.000703,-0.093031,-0.024885,0.075831,-4.347243,329.099838,19.646021,0.999109,0.982001,0.005427,0.445152,0.001051,0.001088,0.000076,0.001147,0.000992,51.727419,0.002141,
2491,2908,5.01655969304395,5.65569709541082,-0.00751134048681479,0.009394,-0.090009,0.009207,0.357278,-4.077074,316.827867,21.128288,0.999007,0.986090,0.004602,0.344530,0.000071,0.000037,0.000037,0.000094,0.000013,32.625694,0.000117,
2131,2158,-2.69340855137704,-10.7300747234448,0.00468888029689651,0.000492,-0.092793,-0.025411,0.067299,-4.342996,329.052996,19.861739,0.999624,0.990988,0.004301,0.325381,0.001010,0.001013,0.000084,0.001096,0.000928,45.537921,0.002026,
2176,2338,-1.74140650598804,-6.78520650725385,-0.0244388058015943,0.003984,-0.090109,-0.015245,0.198550,-4.145948,325.874342,19.900566,0.998727,0.984843,0.005073,0.414496,0.000586,0.000490,0.000011,0.000587,0.000489,6.327633,0.001078,
2356,3178,2.03356437553566,11.5081057188332,0.0394081491394331,0.011667,-0.089067,0.009289,0.468617,-4.039683,312.727105,21.487102,0.999493,0.992298,0.003721,0.453090,0.000030,0.000035,0.000024,0.000057,0.000008,48.305686,0.000071,
2371,3298,2.33457621866636,14.1131144438177,0.00834420952907067,0.012741,-0.089464,0.014749,0.497980,-4.065427,310.528809,21.867053,0.999683,0.992955,0.003396,0.433517,0.000035,0.000022,0.000014,0.000044,0.000013,31.589341,0.000060,
2446,2383,4.14221598613632,-5.80204385419665,-0.0100953048369092,0.007934,-0.091528,-0.013771,0.376360,-4.209197,325.268145,19.016486,0.999620,0.987941,0.004697,0.390652,0.000575,0.000425,-0.000071,0.000603,0.000397,-21.644919,0.001007,
2506,3043,5.31808689189156,8.59070099821493,0.0127686176128918,0.010584,-0.090224,0.010867,0.405062,-4.078581,314.879695,21.671891,0.999669,0.992662,0.003730,0.372011,0.000030,0.000017,0.000058,0.000082,-0.000035,41.664879,0.000083,
2431,2353,3.81938661134959,-6.45900516016722,-0.015312301820245,0.006802,-0.092199,-0.015712,0.331212,-4.260884,325.638752,18.915271,0.998642,0.982037,0.005312,0.386617,0.000624,0.000495,-0.000068,0.000653,0.000466,-23.277237,0.001124,
2416,2203,3.5227658770388,-9.74754733973202,-0.00571372102388068,0.006779,-0.093480,-0.022201,0.352851,-4.346226,328.145679,18.307736,0.998627,0.981230,0.005716,0.461985,0.000971,0.000976,-0.000108,0.001082,0.000865,-45.706056,0.001951,
2326,3058,1.40162136534682,8.9023415840436,0.0188610712852437,0.010483,-0.089477,0.011135,0.408872,-4.030053,314.466645,21.054906,0.999638,0.993344,0.003344,0.491014,0.000023,0.000034,0.000016,0.000046,0.000011,54.862610,0.000061,
2086,2008,-3.65507520895846,-14.0216168565061,0.00438781037451008,-0.003550,-0.096954,-0.027064,-0.115982,-4.531480,331.480222,19.868041,0.998675,0.984972,0.005413,0.353861,0.001443,0.001438,0.000109,0.001550,0.001331,44.409824,0.002884,
2296,2938,0.770404909262247,6.29528161902046,0.0054822236663199,0.009840,-0.089156,0.009852,0.385023,-4.022021,316.314079,20.796002,0.999278,0.989744,0.004001,0.422242,0.000041,0.000035,0.000017,0.000056,0.000020,39.518482,0.000079,
2191,2398,-1.42286871191745,-5.47597449333908,-0.00408028339631983,0.004955,-0.089716,-0.008573,0.222541,-4.113767,325.052922,19.891007,0.998999,0.985302,0.005069,0.465335,0.000474,0.000355,0.000007,0.000475,0.000354,3.543258,0.000832,
2266,2818,0.138332690629749,3.68552364092302,-0.0156066164423123,0.009204,-0.088837,0.004060,0.376334,-4.034826,318.124999,20.511370,0.999283,0.988694,0.004311,0.426575,0.000061,0.000069,0.000005,0.000072,0.000058,63.673785,0.000130,
2041,2098,-4.64930730122477,-12.041925897416,-0.00235454337354213,-0.002817,-0.091995,-0.026106,-0.085384,-4.304415,330.249932,20.361046,0.998758,0.981110,0.005442,0.373596,0.001241,0.001200,0.000163,0.001385,0.001056,41.414777,0.002448,
2086,2218,-3.68435071077061,-9.41156758371098,-0.0141894529448336,0.000996,-0.090467,-0.020907,0.076596,-4.203299,328.142182,20.194310,0.997701,0.981284,0.005669,0.385012,0.000886,0.000835,0.000118,0.000981,0.000739,38.936319,0.001726,
2401,1993,3.23745368783615,-14.3642025568936,0.00524496992954937,0.006401,-0.100296,-0.034109,0.374989,-4.721692,331.631882,17.420425,0.997871,0.966094,0.007228,0.366686,0.001690,0.001445,-0.000145,0.001757,0.001378,-24.897181,0.003143,
2056,2143,-4.32860398573819,-11.0550323720377,-0.0140390681523854,-0.001266,-0.091689,-0.022057,-0.025020,-4.257500,329.405648,20.222982,0.998600,0.982747,0.005594,0.461423,0.001091,0.001085,0.000152,0.001240,0.000937,44.442695,0.002183,
2236,2668,-0.488234777711821,0.418193054202554,-0.0111272031882663,0.007611,-0.088731,-0.002298,0.324590,-4.039233,320.606409,20.273508,0.999279,0.990303,0.004122,0.416290,0.000155,0.000097,-0.000002,0.000155,0.000097,-2.112263,0.000255,
2101,1993,-3.32402694382129,-14.3505986122463,0.00392412891301319,-0.002455,-0.096367,-0.034968,-0.041988,-4.552702,331.718575,19.823416,0.999196,0.989607,0.004825,0.268063,0.001509,0.001447,0.000084,0.001568,0.001389,34.878771,0.002958,
2476,2848,4.70157990913439,4.34884486472414,-0.0216303926429191,0.009587,-0.090024,0.004643,0.384086,-4.085834,317.678402,20.770887,0.999185,0.987285,0.004330,0.439723,0.000074,0.000053,0.000022,0.000088,0.000039,32.264741,0.000130,
2506,3058,5.31554565061407,8.91534501085449,0.013917493829581,0.010640,-0.090128,0.006219,0.425631,-4.100968,314.664928,21.637433,0.999653,0.992622,0.003833,0.444406,0.000034,0.000012,0.000053,0.000077,-0.000031,39.021364,0.000078,
2461,2593,4.42555127427517,-1.21092021949848,-0.0250077577086927,0.008336,-0.090463,-0.003602,0.357519,-4.136420,321.745233,19.761786,0.998943,0.987381,0.004638,0.448695,0.000275,0.000146,-0.000013,0.000276,0.000145,-5.516298,0.000427,
2491,2923,5.01292919418013,5.98307260495757,-0.022742978252154,0.009956,-0.089884,0.007274,0.390633,-4.068997,316.487996,21.162682,0.999400,0.986300,0.004340,0.376978,0.000063,0.000038,0.000036,0.000089,0.000013,35.260355,0.000110,
2311,2968,1.0920266809767,6.94809261400005,0.0120969337424413,0.010244,-0.089039,0.006329,0.415050,-4.027787,315.895813,20.932772,0.999889,0.997263,0.002617,0.375825,0.000029,0.000020,0.000022,0.000047,0.000002,39.157551,0.000055,
2071,2218,-4.01072050270093,-9.41096063859226,-0.0130329799708875,0.001184,-0.089786,-0.021897,0.087913,-4.187960,328.239351,20.310338,0.997078,0.979118,0.005977,0.357093,0.000887,0.000838,0.000118,0.000983,0.000742,39.239394,0.001731,
2221,2578,-0.799904791190659,-1.5440867654259,-0.0200128904562007,0.007344,-0.089369,-0.000376,0.306148,-4.070802,322.008668,20.101330,0.999105,0.988756,0.004205,0.446474,0.000227,0.000148,0.000022,0.000232,0.000143,14.463647,0.000379,
2386,1993,2.90831825032823,-14.3632756149588,0.00599233459246307,0.005413,-0.100066,-0.031957,0.321476,-4.691346,331.568556,17.549606,0.997491,0.933314,0.009629,0.375497,0.001676,0.001436,-0.000120,0.001726,0.001386,-22.462072,0.003118,
2251,2728,-0.173526134951029,1.7258844011266,-0.0239421185021911,0.007880,-0.089263,0.001937,0.322669,-4.056870,319.492469,20.302050,0.999189,0.989818,0.004020,0.458314,0.000111,0.000072,-0.000010,0.000113,0.000070,-13.258459,0.000184,
2161,2278,-2.05848765364573,-8.09967664770635,-0.0111341808033103,0.003134,-0.091757,-0.010726,0.144972,-4.215459,326.951266,19.881523,0.997661,0.977596,0.006229,0.370655,0.000728,0.000652,0.000050,0.000752,0.000628,26.434834,0.001382,
2176,2353,-1.7434873196218,-6.45778945807629,-0.0220775786140166,0.004524,-0.090314,-0.011053,0.210297,-4.137155,325.663854,19.889402,0.998156,0.980593,0.005693,0.448617,0.000553,0.000438,0.000010,0.000553,0.000437,4.739887,0.000993,
2356,3193,2.0302019765841,11.8341111929162,0.0362048550315421,0.011499,-0.089101,0.010466,0.456749,-4.037034,312.442166,21.558874,0.999491,0.991824,0.003695,0.421581,0.000033,0.000038,0.000026,0.000061,0.000010,47.954327,0.000077,
2116,2143,-3.01989960790832,-11.0560729226547,-0.0175099836209824,-0.000154,-0.092043,-0.028069,0.045209,-4.300206,329.150151,19.871111,0.997503,0.975505,0.006590,0.435293,0.001054,0.001091,0.000104,0.001178,0.000967,50.062590,0.002148,
2146,2158,-2.36785315847382,-10.7273630144303,-0.0139592551624901,0.000469,-0.092738,-0.023007,0.059520,-4.326522,328.830016,19.828501,0.999383,0.968074,0.006559,0.294231,0.001012,0.001018,0.000074,0.001089,0.000941,46.055592,0.002031,
2446,2398,4.13820652011944,-5.47394778744576,-0.0165825539011735,0.007734,-0.091774,-0.010381,0.354517,-4.205117,324.949086,19.004811,0.999548,0.986922,0.004838,0.460636,0.000542,0.000406,-0.000069,0.000571,0.000377,-22.829470,0.000954,
2206,2503,-1.11462009135445,-3.18117312150528,-0.0172420925911183,0.005837,-0.089639,-0.002102,0.242558,-4.094968,323.222108,20.014930,0.999402,0.987869,0.004445,0.440444,0.000315,0.000218,0.000018,0.000318,0.000215,9.979044,0.000536,
2431,2368,3.81704272290577,-6.13084245179322,-0.0107288836872499,0.007068,-0.091690,-0.015631,0.343345,-4.245153,325.446025,18.994784,0.998715,0.983073,0.005181,0.374314,0.000592,0.000459,-0.000064,0.000618,0.000433,-21.906927,0.001057,
2086,2023,-3.65863431692877,-13.6894166121464,-0.0120882257908761,-0.003873,-0.095681,-0.028711,-0.125704,-4.488504,331.092159,19.929308,0.997992,0.981147,0.006058,0.339020,0.001388,0.001363,0.000093,0.001469,0.001282,41.138351,0.002753,
2041,2113,-4.65074028620834,-11.7136947884299,-0.00510750396733783,-0.001969,-0.092264,-0.027759,-0.042027,-4.326835,330.030090,20.314381,0.998401,0.980087,0.005835,0.393095,0.001195,0.001168,0.000160,0.001342,0.001020,42.584921,0.002370,
2281,2923,0.446056315655813,5.96891370765168,-0.00740660391528536,0.009578,-0.089236,0.008478,0.378194,-4.041624,316.462375,20.717632,0.999553,0.992121,0.003638,0.420877,0.000036,0.000032,0.000014,0.000048,0.000020,40.832484,0.000070,
2401,2008,3.23410537016813,-14.0341954782561,0.00164283137075927,0.006599,-0.100996,-0.029920,0.368698,-4.738979,331.354062,17.486425,0.997376,0.962840,0.007538,0.332749,0.001649,0.001446,-0.000133,0.001715,0.001380,-26.314673,0.003102,
2341,3178,1.70754184233965,11.5074032505455,0.0353677580324074,0.011700,-0.088845,0.008903,0.472310,-4.024741,312.698085,21.434649,0.999551,0.993938,0.003674,0.452044,0.000029,0.000038,0.000022,0.000056,0.000011,51.032795,0.000072,
2506,3073,5.31195884032314,9.24124574609104,0.0114576517734122,0.010922,-0.090541,0.012903,0.412573,-4.100204,314.385343,21.676471,0.999578,0.992164,0.003910,0.466333,0.000036,0.000020,0.000054,0.000083,-0.000027,40.636824,0.000085,
2131,2173,-2.69567334929565,-10.3997936212071,-0.0191298011528716,0.002050,-0.091959,-0.027388,0.144950,-4.306838,328.690832,19.743499,0.999107,0.976548,0.005799,0.488947,0.000977,0.000978,0.000084,0.001062,0.000893,45.019764,0.001957,
2101,2008,-3.32625838677547,-14.0252961170183,0.0159515007794653,-0.002443,-0.097874,-0.023841,-0.074313,-4.561866,331.547666,19.626509,0.999176,0.989446,0.005070,0.460453,0.001459,0.001443,0.000108,0.001559,0.001342,42.903179,0.002904,
2416,2218,3.51935600674522,-9.41764939932155,-0.00988833574177761,0.006815,-0.093894,-0.020318,0.347534,-4.345001,327.862687,18.419886,0.998911,0.983139,0.005461,0.401797,0.000933,0.000934,-0.000103,0.001037,0.000830,-45.220181,0.001871,
2491,2938,5.01062564691721,6.30889352604571,-0.013849760902815,0.010134,-0.090120,0.009135,0.391596,-4.077900,316.318362,21.247970,0.999455,0.989208,0.003924,0.340967,0.000056,0.000028,0.000033,0.000078,0.000006,33.171752,0.000094,
2071,2233,-4.013876607204,-9.08257130720481,-0.0111786530709423,0.000572,-0.090244,-0.015992,0.042823,-4.154381,327.968493,20.315654,0.998087,0.983556,0.005332,0.384890,0.000849,0.000792,0.000109,0.000933,0.000708,37.674034,0.001646,
2266,2833,0.135137396136205,4.01187652897527,-0.0173852960790555,0.009105,-0.089324,0.007834,0.359166,-4.026677,317.848742,20.518787,0.999263,0.988838,0.004179,0.452885,0.000052,0.000063,0.000011,0.000070,0.000045,57.900509,0.000116,
2476,2863,4.69873055110735,4.67511134432785,-0.0144683907237209,0.009334,-0.089753,0.006389,0.365942,-4.079759,317.475219,20.850886,0.999144,0.985850,0.004420,0.422200,0.000071,0.000064,0.000034,0.000102,0.000033,42.245814,0.000141,
2191,2413,-1.42625779949656,-5.14615479778583,-0.0175219238594764,0.004875,-0.089159,-0.010768,0.225949,-4.095018,324.701153,19.957787,0.998872,0.987064,0.004777,0.433908,0.000453,0.000320,0.000005,0.000453,0.000320,2.180248,0.000777,
2086,2233,-3.68701185963075,-9.08224904864134,-0.0172923022686859,0.001171,-0.090345,-0.015844,0.070060,-4.162494,327.868029,20.226232,0.998329,0.984430,0.005115,0.395769,0.000851,0.000790,0.000108,0.000933,0.000708,37.064612,0.001646,
2296,2953,0.768232974927006,6.62188625538118,0.0039106095669581,0.010346,-0.088745,0.007314,0.417130,-4.004569,316.087844,20.852901,0.999167,0.987632,0.004284,0.412510,0.000039,0.000026,0.000020,0.000053,0.000012,36.159663,0.000070,
2386,2008,2.90572307391004,-14.0327102599516,0.000954351333916748,0.006342,-0.100685,-0.029082,0.353501,-4.703639,331.316912,17.644783,0.996965,0.965806,0.007427,0.315118,0.001635,0.001439,-0.000105,0.001681,0.001393,-23.507407,0.003079,
2461,2608,4.42276553028748,-0.884119580139171,-0.0173517749205985,0.008211,-0.090902,-0.000410,0.339683,-4.112769,321.547440,19.809159,0.998557,0.984150,0.005050,0.480089,0.000256,0.000130,-0.000011,0.000257,0.000129,-5.005882,0.000393,
2161,2293,-2.05976307077102,-7.77087991642341,-0.0176248404674197,0.004128,-0.090178,-0.020070,0.219680,-4.199505,326.729714,19.879031,0.998098,0.981158,0.005689,0.401368,0.000697,0.000611,0.000051,0.000721,0.000587,24.918957,0.001310,
2041,2128,-4.65343935709414,-11.3841962366282,-0.00901720937935124,-0.002024,-0.092065,-0.024670,-0.053059,-4.307080,329.745643,20.334679,0.997678,0.977133,0.006533,0.388201,0.001145,0.001137,0.000161,0.001302,0.000980,44.330870,0.002290,
2236,2683,-0.4909875837964,0.744782323375645,-0.0154186480614271,0.008033,-0.089122,0.001087,0.332876,-4.058037,320.335599,20.261779,0.999238,0.988736,0.004238,0.430918,0.000143,0.000094,-0.000007,0.000144,0.000093,-7.712458,0.000239,
2401,2023,3.22998448747279,-13.7025077671638,-0.00114912531932987,0.005969,-0.099158,-0.025521,0.324807,-4.640640,331.043821,17.605511,0.997355,0.969191,0.007142,0.362045,0.001592,0.001433,-0.000121,0.001658,0.001367,-28.341532,0.003030,
2221,2593,-0.802632891081263,-1.21607355399054,-0.027772791002235,0.007467,-0.088746,-0.004561,0.325432,-4.052829,321.719614,20.123990,0.998984,0.986047,0.004642,0.461911,0.000215,0.000121,0.000018,0.000218,0.000118,10.335524,0.000341,
2056,2158,-4.33072808105593,-10.7253787049012,-0.0146996661028993,-0.000937,-0.091794,-0.019554,-0.017006,-4.248846,329.166727,20.315293,0.998729,0.984968,0.005238,0.375331,0.001043,0.000992,0.000135,0.001155,0.000880,39.700039,0.002041,
2311,2983,1.08962543481824,7.27292038087531,0.0143718389231253,0.010386,-0.089009,0.005564,0.424186,-4.043677,315.679662,20.894201,0.999642,0.994744,0.003113,0.430153,0.000028,0.000026,0.000021,0.000048,0.000007,43.399283,0.000059,
2326,3073,1.39904534894006,9.22905930314278,0.0209678943281233,0.010532,-0.089099,0.010840,0.412212,-4.036260,314.241775,21.202976,0.999667,0.994938,0.002968,0.370154,0.000023,0.000033,0.000017,0.000045,0.000010,52.792636,0.000059,
2341,3193,1.70478266699715,11.8324948233957,0.0393825533479344,0.011751,-0.089283,0.012623,0.461441,-4.046832,312.475226,21.489296,0.999575,0.993283,0.003530,0.410572,0.000031,0.000042,0.000024,0.000061,0.000012,51.318291,0.000078,
2116,2158,-3.02208191265762,-10.7268151039199,-0.0201102337943553,0.000505,-0.092267,-0.023375,0.061552,-4.294873,328.903496,19.911368,0.998539,0.982706,0.005511,0.406751,0.001016,0.001009,0.000100,0.001113,0.000912,44.066561,0.002028,
2281,2938,0.443694604547158,6.29443729428605,-0.00298634728602565,0.009750,-0.089084,0.010349,0.379943,-4.031889,316.256569,20.721561,0.999472,0.991390,0.003780,0.454309,0.000035,0.000033,0.000013,0.000047,0.000021,42.616440,0.000070,
2431,2383,3.81396416629897,-5.80155786039351,-0.0159994794994418,0.007440,-0.091319,-0.015106,0.358626,-4.206519,325.173640,19.063407,0.999341,0.986109,0.004860,0.396379,0.000561,0.000430,-0.000066,0.000589,0.000402,-22.536539,0.000997,
2071,2248,-4.0158883306514,-8.75515112963859,-0.0117893547310359,0.000855,-0.090349,-0.016452,0.057085,-4.158365,327.736847,20.249367,0.998262,0.984182,0.005132,0.446201,0.000809,0.000772,0.000098,0.000890,0.000691,39.647647,0.001585,
2506,3088,5.30997219061227,9.56734945910507,0.0192437484585639,0.011125,-0.090141,0.010020,0.433334,-4.080376,314.225257,21.784657,0.999673,0.992742,0.003497,0.438182,0.000042,0.000026,0.000063,0.000098,-0.000030,41.294035,0.000101,
2101,2023,-3.33008633967345,-13.6923256590771,0.00276871697701608,-0.003012,-0.096886,-0.022633,-0.103667,-4.507154,331.166769,19.782915,0.998819,0.984798,0.005593,0.364497,0.001402,0.001379,0.000093,0.001484,0.001297,41.569998,0.002783,
2086,2038,-3.65970908389828,-13.3615338227426,-0.0101013828421515,-0.002944,-0.095757,-0.031224,-0.075912,-4.499680,330.918415,19.866337,0.998315,0.981645,0.005806,0.392963,0.001341,0.001302,0.000104,0.001427,0.001216,39.598764,0.002646,
2206,2518,-1.11691035167539,-2.85347734384095,-0.0240095690533053,0.006321,-0.089160,-0.005855,0.276880,-4.072001,322.956977,19.985332,0.999248,0.987417,0.004543,0.510995,0.000293,0.000205,0.000025,0.000300,0.000199,14.492967,0.000502,
2356,3208,2.0278933331958,12.1587674798825,0.0410382245925689,0.011746,-0.089116,0.011430,0.464713,-4.041894,312.245011,21.564554,0.999515,0.992227,0.003581,0.448464,0.000036,0.000036,0.000025,0.000061,0.000011,45.247604,0.000077,
2446,2413,4.13597828246266,-5.14560909583079,-0.0113975352381885,0.008051,-0.091186,-0.010827,0.370945,-4.171583,324.765221,19.102734,0.999586,0.987313,0.004833,0.449853,0.000510,0.000373,-0.000055,0.000530,0.000353,-19.432821,0.000889,
2386,2023,2.90215104766992,-13.7014852841902,-0.00253872862236904,0.006126,-0.099231,-0.026657,0.335565,-4.636644,331.027278,17.744860,0.997084,0.968229,0.007431,0.329347,0.001579,0.001427,-0.000092,0.001622,0.001384,-25.150375,0.003010,
2146,2173,-2.36721464415431,-10.4039946834754,0.01743009004241,0.001460,-0.092921,-0.022577,0.103578,-4.325586,328.895562,19.702248,0.999393,0.949419,0.008106,0.430495,0.000981,0.000983,0.000075,0.001057,0.000907,45.325857,0.001966,
2416,2233,3.51672850511125,-9.08843464750663,-0.00730452764770462,0.006989,-0.092981,-0.019556,0.353115,-4.305807,327.646885,18.507404,0.999041,0.984379,0.005291,0.403514,0.000889,0.000875,-0.000098,0.000980,0.000784,-42.960977,0.001767,
2461,2623,4.4191309020927,-0.555297718015808,-0.0234386923512488,0.008284,-0.090612,0.001671,0.335342,-4.108045,321.247436,19.947239,0.999208,0.987717,0.004399,0.402016,0.000241,0.000116,-0.000018,0.000244,0.000114,-8.112091,0.000365,
2476,2878,4.69519240628839,5.00209026550677,-0.0193845866351694,0.009572,-0.090320,0.010154,0.362406,-4.073769,317.185206,20.911039,0.998469,0.985975,0.004798,0.424593,0.000071,0.000075,0.000041,0.000114,0.000032,46.647045,0.000154,
2251,2743,-0.175453175437898,2.05244551977543,-0.017657909421871,0.008425,-0.089302,0.005557,0.335857,-4.042037,319.314162,20.359045,0.999033,0.987992,0.004364,0.439373,0.000101,0.000073,-0.000007,0.000103,0.000071,-12.813046,0.000175,
2176,2368,-1.74552689706387,-6.12943733749528,-0.0216084158215608,0.004990,-0.089883,-0.010515,0.230189,-4.105370,325.445087,19.927113,0.998780,0.986149,0.004897,0.456606,0.000529,0.000414,0.000010,0.000530,0.000414,4.753131,0.000946,
2131,2188,-2.69779457814217,-10.0711458468175,-0.00243252402464122,0.001602,-0.091759,-0.021866,0.107953,-4.273641,328.550906,19.915325,0.998894,0.982214,0.005375,0.358126,0.000941,0.000944,0.000085,0.001028,0.000857,45.449619,0.001888,
2401,2038,3.22709216655904,-13.3723487605199,-0.00250098514459296,0.005953,-0.097962,-0.027385,0.331264,-4.564466,330.796753,17.629315,0.997068,0.971760,0.007018,0.463684,0.001526,0.001402,-0.000123,0.001602,0.001327,-31.659084,0.002933,
2491,2953,5.00836623216357,6.63363932385738,-0.00870200128036913,0.010372,-0.090566,0.007488,0.408672,-4.101035,316.134091,21.225133,0.999308,0.989011,0.004085,0.398951,0.000059,0.000024,0.000038,0.000083,0.000000,32.696009,0.000096,
2101,2233,-3.35925179658229,-9.08381956590384,-0.0114986800630845,0.001854,-0.090865,-0.015933,0.101712,-4.196941,327.876071,20.113296,0.997982,0.982583,0.005540,0.403213,0.000852,0.000786,0.000102,0.000926,0.000712,36.030242,0.001643,
2086,2248,-3.689583980828,-8.75461765840414,-0.0192032675437304,0.000966,-0.090241,-0.016898,0.063726,-4.147925,327.604870,20.148218,0.998359,0.984112,0.005190,0.489711,0.000811,0.000767,0.000098,0.000889,0.000689,38.645087,0.001582,
2296,2968,0.765573031516432,6.94740997691426,0.00220055219574533,0.010435,-0.088930,0.005599,0.426924,-4.025343,315.838824,20.852008,0.999310,0.990613,0.003816,0.422075,0.000037,0.000025,0.000019,0.000050,0.000011,36.192941,0.000066,
2161,2308,-2.06257212204981,-7.44182712701161,-0.0137124480104376,0.003732,-0.090090,-0.017066,0.192365,-4.169817,326.492520,19.996612,0.998386,0.982066,0.005471,0.325679,0.000659,0.000568,0.000036,0.000672,0.000555,19.178342,0.001229,
2101,2038,-3.33240456439546,-13.3624871546413,-0.0141766985830714,-0.002289,-0.096003,-0.028237,-0.053986,-4.460443,330.835037,19.627012,0.999110,0.984448,0.005540,0.572400,0.001352,0.001324,0.000104,0.001442,0.001233,41.140112,0.002678,
2056,2173,-4.33254038334868,-10.3967641632244,-0.0226472036271161,-0.000239,-0.091681,-0.023289,0.025532,-4.278799,328.902451,20.279349,0.998776,0.987628,0.004829,0.378742,0.001001,0.000952,0.000132,0.001111,0.000843,39.676147,0.001959,
2221,2608,-0.804972319132084,-0.889178174851033,-0.0309115966480249,0.007925,-0.088862,-0.004875,0.347441,-4.070063,321.472401,20.124826,0.998746,0.982499,0.005081,0.463282,0.000202,0.000113,0.000016,0.000205,0.000110,9.757808,0.000320,
2071,2263,-4.01759924785369,-8.42656927218714,-0.0134714885641074,0.001566,-0.090053,-0.016062,0.088696,-4.156118,327.512838,20.277158,0.998903,0.986136,0.004886,0.419934,0.000777,0.000724,0.000096,0.000850,0.000650,37.305343,0.001504,
2236,2698,-0.494203030637664,1.07192647412523,-0.017911207072757,0.007918,-0.089215,0.005177,0.314345,-4.038383,320.052447,20.282614,0.999307,0.990651,0.003858,0.451128,0.000134,0.000087,-0.000005,0.000134,0.000086,-6.008073,0.000222,
2266,2848,0.133204190010535,4.33794675389716,-0.0127223446839366,0.009408,-0.088905,0.006208,0.378644,-4.018558,317.662896,20.552957,0.999473,0.991529,0.003853,0.451995,0.000048,0.000064,0.000016,0.000074,0.000038,58.031192,0.000114,
2191,2428,-1.42805845230841,-4.81965421002983,-0.0143749687662194,0.005463,-0.089482,-0.009664,0.249380,-4.088640,324.508872,19.896522,0.998484,0.986171,0.005040,0.517289,0.000430,0.000284,0.000004,0.000430,0.000284,1.714652,0.000718,
2446,2428,4.13113992172939,-4.81671911821853,-0.0182890243547149,0.007314,-0.091879,-0.004376,0.312932,-4.181589,324.406012,19.185198,0.999091,0.984800,0.005037,0.411639,0.000500,0.000338,-0.000042,0.000510,0.000328,-13.638829,0.000844,
2206,2533,-1.11889826330668,-2.52600893789014,-0.0136192498080732,0.006387,-0.089050,-0.002933,0.270689,-4.055558,322.794220,20.100867,0.999372,0.987943,0.004408,0.429412,0.000274,0.000183,0.000022,0.000280,0.000178,12.944608,0.000461,
2086,2053,-3.66035965731904,-13.0327714448781,0.00354752674257952,-0.001770,-0.095836,-0.025109,-0.039738,-4.460088,330.826785,19.968228,0.997961,0.979172,0.005958,0.332348,0.001299,0.001286,0.000109,0.001401,0.001184,43.220698,0.002588,
2401,2053,3.22394005869409,-13.0405606151826,-0.00935794584444238,0.006331,-0.097994,-0.026819,0.346559,-4.575406,330.512261,17.832913,0.997535,0.975259,0.006791,0.298204,0.001469,0.001389,-0.000117,0.001552,0.001306,-35.541509,0.002862,
2461,2638,4.41620564567429,-0.227605212833531,-0.0255547953026962,0.008332,-0.089942,-0.001092,0.348241,-4.083803,320.998257,20.001245,0.999423,0.988658,0.004243,0.427646,0.000227,0.000122,-0.000021,0.000231,0.000118,-11.030250,0.000354,
2506,3103,5.30736677924998,9.89272925438942,0.0182742173012116,0.011409,-0.089895,0.006686,0.459411,-4.088227,313.997566,21.801490,0.999651,0.992448,0.003497,0.473651,0.000037,0.000016,0.000071,0.000098,-0.000045,40.682975,0.000098,
2476,2893,4.69289493178434,5.32866733947089,-0.0194318396011681,0.010079,-0.090143,0.007178,0.397183,-4.065570,316.974440,20.972309,0.998521,0.985837,0.004784,0.427775,0.000065,0.000066,0.000043,0.000109,0.000023,45.401393,0.000140,
2326,3088,1.39696861889587,9.55265360135043,0.0269097666418929,0.010835,-0.089592,0.011223,0.424636,-4.056161,314.059640,21.105039,0.999625,0.994371,0.003150,0.481766,0.000024,0.000019,0.000013,0.000034,0.000009,39.963358,0.000045,
2431,2398,3.81079316133598,-5.47415863530154,-0.01405499179873,0.007505,-0.091646,-0.009901,0.342319,-4.207685,324.930774,19.074214,0.999562,0.986752,0.004844,0.435974,0.000532,0.000409,-0.000064,0.000559,0.000382,-23.083798,0.000947,
2281,2953,0.441786025239324,6.62074667928595,-0.00309272820021533,0.010257,-0.088770,0.006013,0.417958,-4.023998,316.048695,20.771417,0.999266,0.988917,0.004131,0.439376,0.000034,0.000025,0.000014,0.000044,0.000015,36.442368,0.000061,
2386,2038,2.89893042399649,-13.3714703014136,-0.00509615685047038,0.006074,-0.098836,-0.025677,0.329856,-4.581819,330.758245,17.763310,0.997540,0.973660,0.006853,0.412870,0.001515,0.001395,-0.000096,0.001569,0.001342,-28.983176,0.002914,
2311,2998,1.08719099574147,7.59844563916511,0.0189910325417486,0.010581,-0.089051,0.008235,0.424070,-4.027007,315.473257,20.907097,0.999857,0.996348,0.002934,0.465631,0.000027,0.000028,0.000016,0.000043,0.000011,46.163369,0.000057,
2116,2173,-3.02356522201335,-10.3990508104112,-0.00824543889712004,0.000856,-0.092458,-0.019760,0.066920,-4.271963,328.766354,19.957077,0.998517,0.983570,0.005414,0.389556,0.000981,0.000971,0.000101,0.001077,0.000875,43.667916,0.001955,
2086,2263,-3.69132623350851,-8.42794758807837,-0.0131657032124508,0.001303,-0.090730,-0.014611,0.072410,-4.182326,327.423159,20.117606,0.998656,0.983516,0.005126,0.487221,0.000781,0.000719,0.000096,0.000850,0.000649,35.989424,0.001504,
2161,2323,-2.06475184050209,-7.11454940118006,-0.0183290238211384,0.004055,-0.089581,-0.021028,0.219491,-4.178123,326.239822,19.909660,0.998624,0.983911,0.005215,0.416431,0.000635,0.000525,0.000026,0.000641,0.000520,12.668414,0.001162,
2491,2968,5.00618329368688,6.95952506495097,-0.00201101729896891,0.010471,-0.089909,0.004826,0.423809,-4.073071,315.959874,21.270385,0.999121,0.987291,0.004481,0.440075,0.000054,0.000031,0.000049,0.000092,-0.000008,38.375263,0.000103,
2341,3208,1.70245531043099,12.1565236687537,0.0455188453899495,0.011856,-0.089358,0.013560,0.463013,-4.045469,312.282899,21.438036,0.999605,0.992941,0.003463,0.498816,0.000033,0.000040,0.000022,0.000060,0.000014,49.468979,0.000078,
2416,2248,3.51371663889782,-8.75954092372253,-0.00594084661622674,0.006665,-0.092224,-0.021422,0.345431,-4.256109,327.407700,18.547487,0.998805,0.982134,0.005517,0.463789,0.000850,0.000795,-0.000099,0.000925,0.000720,-37.286936,0.001649,
2176,2383,-1.74818732293587,-5.80250082225334,-0.0206963996707827,0.004953,-0.090030,-0.007725,0.219795,-4.118395,325.200676,19.889419,0.998873,0.987888,0.004712,0.495335,0.000499,0.000389,0.000006,0.000499,0.000389,3.069560,0.000890,
2056,2188,-4.33464740263828,-10.0682737385899,-0.0149344017810904,-0.000342,-0.090629,-0.019556,0.010631,-4.230551,328.710322,20.325818,0.998402,0.984430,0.005324,0.377743,0.000958,0.000936,0.000136,0.001083,0.000811,42.711575,0.001901,
2356,3223,2.0246250774878,12.4844599202267,0.0384012205628892,0.011566,-0.089187,0.011797,0.455143,-4.045265,311.967133,21.624676,0.999471,0.991999,0.003558,0.422497,0.000036,0.000033,0.000024,0.000059,0.000010,42.994738,0.000075,
2101,2248,-3.36172461694186,-8.7552318289527,-0.0158231481538564,0.001884,-0.090389,-0.017789,0.108667,-4.188955,327.605612,20.104176,0.998189,0.984322,0.005388,0.424120,0.000813,0.000760,0.000091,0.000881,0.000691,36.890053,0.001577,
2131,2203,-2.70147765562439,-9.74232350933329,-0.0111826330158351,0.001301,-0.092565,-0.015647,0.075306,-4.292574,328.204529,19.891577,0.997943,0.977796,0.005915,0.371797,0.000906,0.000896,0.000078,0.000979,0.000823,43.056709,0.001804,
2146,2188,-2.3703272358833,-10.0747672294595,0.0124132249379159,0.001249,-0.092447,-0.020412,0.087515,-4.281008,328.596212,19.684377,0.998933,0.956413,0.007276,0.503904,0.000944,0.000950,0.000075,0.001022,0.000872,46.197067,0.001896,
2446,2443,4.12929899886069,-4.49042505758196,-0.0035908789902237,0.007457,-0.091664,-0.002044,0.310877,-4.185323,324.283974,19.231656,0.998244,0.982077,0.005383,0.414682,0.000484,0.000276,-0.000033,0.000489,0.000271,-8.693891,0.000770,
2506,3118,5.30421907810031,10.218950568066,0.0192512356138081,0.011295,-0.090237,0.006924,0.453134,-4.103612,313.753259,21.919835,0.999476,0.991400,0.003772,0.399973,0.000029,0.000026,0.000071,0.000099,-0.000043,44.383513,0.000099,
2296,2983,0.763471392958248,7.2735009254362,0.00617266619150314,0.010585,-0.088494,0.002830,0.443436,-4.006030,315.643420,20.906663,0.998933,0.988237,0.004279,0.416017,0.000035,0.000030,0.000018,0.000051,0.000015,41.161102,0.000069,
2251,2758,-0.179213917931559,2.38023842351489,-0.0273680921388291,0.008255,-0.089349,0.008756,0.317573,-4.037358,318.970404,20.416595,0.999211,0.987963,0.004322,0.410448,0.000092,0.000076,-0.000001,0.000092,0.000076,-4.985218,0.000168,
2221,2623,-0.807966358992196,-0.562287544236796,-0.0225095445043166,0.007613,-0.089293,0.004660,0.302479,-4.039652,321.254158,20.181551,0.998838,0.984804,0.004936,0.456568,0.000185,0.000099,0.000009,0.000186,0.000098,5.723264,0.000288,
2071,2278,-4.01957923661636,-8.09711091861895,-0.0156420336578549,0.001957,-0.089582,-0.017085,0.109722,-4.133290,327.273601,20.364981,0.999793,0.994105,0.003865,0.353865,0.000747,0.000654,0.000092,0.000804,0.000597,31.574618,0.001406,
2101,2053,-3.33310418477869,-13.031509805016,-0.00574265949472874,-0.001261,-0.094698,-0.029350,-0.003186,-4.420545,330.713593,19.872623,0.998115,0.972390,0.006726,0.370579,0.001306,0.001304,0.000110,0.001415,0.001195,44.817077,0.002613,
2086,2068,-3.66467357278232,-12.7016400129274,-0.0133675884590616,-0.002958,-0.094507,-0.028901,-0.082888,-4.435309,330.402136,19.965685,0.997736,0.960585,0.007943,0.363155,0.001263,0.001254,0.000116,0.001374,0.001142,43.894023,0.002520,
2266,2863,0.131604278513819,4.6624608713819,0.00112693539102793,0.009465,-0.089293,0.005778,0.382491,-4.054160,317.539071,20.559556,0.999737,0.993623,0.003488,0.434975,0.000046,0.000064,0.000011,0.000069,0.000041,65.585611,0.000111,
2476,2908,4.69035387734742,5.65475703688559,-0.0161302205995639,0.010047,-0.089794,0.004022,0.407848,-4.065119,316.767731,21.024992,0.998712,0.984206,0.004910,0.432013,0.000060,0.000035,0.000048,0.000097,-0.000002,37.657071,0.000111,
2401,2068,3.22070833922742,-12.7110055211322,-0.0230949595069205,0.006783,-0.097549,-0.030849,0.381987,-4.575207,330.191877,17.751672,0.998568,0.977948,0.006572,0.428968,0.001412,0.001370,-0.000110,0.001503,0.001279,-39.538744,0.002785,
2116,2188,-3.02645012777458,-10.0696106713389,-0.0144284500445906,0.000718,-0.091835,-0.020113,0.061820,-4.262114,328.468374,19.982167,0.998153,0.980976,0.005676,0.380858,0.000945,0.000940,0.000104,0.001047,0.000838,44.426561,0.001889,
2191,2443,-1.43123238499705,-4.49157445554639,-0.0144534903660656,0.005153,-0.089993,-0.004997,0.220396,-4.092232,324.236659,19.964187,0.998609,0.985165,0.005127,0.462043,0.000400,0.000260,0.000002,0.000401,0.000260,0.907988,0.000666,
2431,2413,3.80784549999582,-5.14618288907938,-0.0145462171432769,0.007617,-0.091495,-0.009341,0.345497,-4.172755,324.686591,19.083215,0.999453,0.986663,0.004846,0.513761,0.000500,0.000375,-0.000052,0.000519,0.000357,-19.809501,0.000881,
2386,2053,2.89666992915907,-13.0417865531054,0.0049025357977257,0.005630,-0.097353,-0.029318,0.323186,-4.544229,330.592563,17.914997,0.997977,0.978871,0.006407,0.345376,0.001461,0.001381,-0.000090,0.001520,0.001323,-33.022078,0.002845,
2236,2713,-0.497054268431935,1.39877506486815,-0.0247256135169209,0.008034,-0.089448,0.003061,0.326488,-4.054365,319.764119,20.281602,0.999096,0.989503,0.004004,0.457790,0.000123,0.000079,-0.000003,0.000124,0.000078,-4.458801,0.000204,
2086,2278,-3.69308368693829,-8.09739029304195,-0.0188829761493139,0.002041,-0.089478,-0.017698,0.115611,-4.143086,327.175885,20.253690,0.999027,0.987699,0.004693,0.391792,0.000754,0.000654,0.000092,0.000808,0.000600,30.757802,0.001413,
2461,2653,4.41357924120251,0.099389528769656,-0.0244283964240708,0.008535,-0.089988,-0.002361,0.362346,-4.087733,320.777769,20.051531,0.999457,0.989006,0.004145,0.428115,0.000211,0.000112,-0.000019,0.000215,0.000108,-10.578226,0.000329,
2206,2548,-1.12163340364485,-2.19794408141448,-0.0225497683768481,0.006672,-0.088933,-0.005393,0.291641,-4.054740,322.497487,20.118342,0.999438,0.989798,0.004116,0.430567,0.000263,0.000159,0.000021,0.000267,0.000154,11.159864,0.000427,
2326,3103,1.3947746128051,9.87828561844418,0.0309727005709419,0.011093,-0.089488,0.010611,0.438676,-4.056740,313.862193,21.166872,0.999523,0.993519,0.003386,0.452619,0.000026,0.000024,0.000012,0.000037,0.000013,41.917942,0.000052,
2056,2203,-4.33669333974729,-9.73868235610453,-0.0211320401568855,0.000078,-0.090137,-0.022410,0.038051,-4.189290,328.444463,20.338117,0.997999,0.980290,0.005795,0.404078,0.000924,0.000888,0.000130,0.001037,0.000774,41.101462,0.001818,
2416,2263,3.51093901273494,-8.43171096227312,0.000687670128002082,0.006972,-0.093325,-0.013148,0.328855,-4.286349,327.204222,18.629005,0.998638,0.982224,0.005500,0.401637,0.000810,0.000733,-0.000104,0.000882,0.000661,-34.733224,0.001548,
2491,2983,5.00273418902224,7.28654075055242,-0.00298645322050106,0.010273,-0.089816,0.005942,0.410488,-4.068162,315.692389,21.393553,0.999059,0.987358,0.004366,0.380226,0.000050,0.000029,0.000044,0.000085,-0.000006,38.278491,0.000095,
2281,2968,0.439348971353276,6.94672228024303,-0.000825347003910792,0.010169,-0.088771,0.003127,0.423638,-4.020776,315.828474,20.815984,0.999251,0.989318,0.004085,0.425536,0.000032,0.000024,0.000013,0.000041,0.000014,36.431244,0.000058,
2176,2398,-1.75043734250518,-5.47467479006847,-0.0159569872601537,0.004885,-0.089800,-0.007735,0.216789,-4.092510,324.994681,19.935748,0.998749,0.986125,0.004912,0.488693,0.000474,0.000353,0.000004,0.000474,0.000353,1.953937,0.000830,
2101,2263,-3.36443443000965,-8.42782667524376,-0.0119114851001427,0.001600,-0.090886,-0.012647,0.080444,-4.193690,327.368990,20.089662,0.998368,0.983096,0.005380,0.437396,0.000782,0.000709,0.000088,0.000841,0.000651,33.717051,0.001496,
2161,2338,-2.06799508538682,-6.78553801125167,-0.0231302057126186,0.003802,-0.089689,-0.018147,0.199023,-4.140529,325.936940,19.939483,0.998877,0.987967,0.004639,0.436406,0.000597,0.000489,0.000016,0.000599,0.000486,8.440151,0.001087,
2311,3013,1.08340254369032,7.92549232549035,0.00884224077458384,0.010480,-0.089335,0.010217,0.412553,-4.034968,315.131272,20.988976,0.999414,0.990794,0.003800,0.407273,0.000025,0.000025,0.000017,0.000043,0.000008,44.941552,0.000054,
2101,2068,-3.33505796588287,-12.7028491067129,-0.00807381490108128,-0.000902,-0.094054,-0.031801,0.020620,-4.424723,330.477598,19.836278,0.997787,0.947720,0.009368,0.407461,0.001267,0.001266,0.000118,0.001384,0.001149,44.913064,0.002537,
2146,2203,-2.37415793796987,-9.74200647820559,-0.01749414292334,0.001953,-0.092832,-0.018840,0.114964,-4.310586,328.132251,19.808009,0.997949,0.975317,0.006172,0.362330,0.000909,0.000904,0.000068,0.000975,0.000838,44.150494,0.001815,
2506,3133,5.30125140069854,10.5448998442748,0.0176267914416144,0.011612,-0.089953,0.007577,0.465373,-4.078606,313.505564,21.960438,0.999510,0.991377,0.003712,0.444702,0.000037,0.000016,0.000062,0.000089,-0.000036,40.406634,0.000090,
2131,2218,-2.70410793000351,-9.41275067704515,-0.0125539182910757,0.001058,-0.091384,-0.017245,0.069297,-4.240257,327.945007,19.948411,0.997798,0.977652,0.005923,0.375529,0.000873,0.000838,0.000076,0.000933,0.000777,38.424547,0.001713,
2191,2458,-1.43370523356519,-4.16337609589258,-0.0219634174128487,0.005473,-0.089242,-0.008718,0.247004,-4.088789,323.957922,19.971347,0.998692,0.985139,0.005167,0.474283,0.000376,0.000249,0.000007,0.000377,0.000248,3.091981,0.000629,
2356,3238,2.02148909003447,12.8096880289494,0.0360745593926595,0.011486,-0.089179,0.012065,0.450513,-4.049678,311.696945,21.648894,0.999539,0.992337,0.003444,0.431401,0.000037,0.000023,0.000023,0.000054,0.000006,36.339068,0.000066,
2341,3223,1.69952580812337,12.4827713081537,0.0410556444581403,0.012045,-0.089505,0.012808,0.474317,-4.057488,312.010407,21.546917,0.999503,0.992187,0.003490,0.413116,0.000033,0.000038,0.000021,0.000057,0.000015,48.163474,0.000075,
2086,2083,-3.66895398422523,-12.3680816927863,-0.0457033505834374,-0.002488,-0.094403,-0.022679,-0.079254,-4.396653,329.894938,20.008104,0.997862,0.947119,0.009571,0.363089,0.001222,0.001246,0.000125,0.001360,0.001108,47.693622,0.002472,
2116,2308,-3.04315706524837,-7.44179942944825,-0.0194632482791235,0.003383,-0.089224,-0.019550,0.183263,-4.143841,326.614654,20.102509,0.998693,0.984113,0.005279,0.425119,0.000683,0.000564,0.000053,0.000704,0.000544,20.852967,0.001251,
2461,2668,4.41043173010069,0.425584335085944,-0.0219278138200707,0.008586,-0.090230,0.002294,0.347114,-4.089938,320.539682,20.042658,0.999344,0.986827,0.004399,0.489769,0.000205,0.000091,-0.000015,0.000207,0.000089,-7.434841,0.000303,
2296,2998,0.760846771710156,7.59849073563787,0.0107757921985581,0.010613,-0.088554,0.006146,0.433440,-4.016766,315.427450,20.897902,0.999201,0.990256,0.003944,0.443418,0.000034,0.000030,0.000013,0.000045,0.000019,40.856974,0.000065,
2266,2878,0.128966867897493,4.9886561538374,-0.00157139708323939,0.009779,-0.089006,0.006648,0.394147,-4.050198,317.283775,20.562017,0.999642,0.991786,0.003688,0.461882,0.000038,0.000054,0.000010,0.000058,0.000033,64.530065,0.000093,
2446,2458,4.12611268667608,-4.16147928775297,-0.0104519498063382,0.007277,-0.090687,-0.008879,0.328534,-4.155149,324.000445,19.289383,0.998949,0.985148,0.004967,0.440812,0.000458,0.000249,-0.000033,0.000463,0.000243,-8.845942,0.000717,
2386,2068,2.89349664554593,-12.7119845243423,-0.00492060243988135,0.006288,-0.097152,-0.027135,0.345582,-4.530817,330.291496,17.885454,0.998395,0.977641,0.006266,0.435351,0.001406,0.001360,-0.000083,0.001470,0.001297,-37.259255,0.002768,
2116,2203,-3.02842193187596,-9.74161884377492,-0.0134622595939504,0.001166,-0.092089,-0.018379,0.077162,-4.290203,328.250815,19.993844,0.997133,0.976002,0.006188,0.346989,0.000910,0.000892,0.000098,0.000999,0.000802,42.362260,0.001805,
2431,2428,3.80420267019905,-4.81662690328194,-0.0174630601470653,0.007058,-0.091238,-0.011054,0.326336,-4.185467,324.399120,19.266834,0.999242,0.985849,0.004928,0.369015,0.000487,0.000337,-0.000041,0.000497,0.000327,-14.268565,0.000830,
2131,2383,-2.72812714121969,-5.80211789235322,-0.0194486558698372,0.004145,-0.088976,-0.015074,0.205285,-4.102653,325.363009,20.103412,0.998447,0.985377,0.004980,0.443217,0.000517,0.000372,0.000013,0.000518,0.000371,4.988533,0.000893,
2146,2458,-2.41398364284472,-4.1619334107834,-0.0241176317596228,0.005020,-0.088469,-0.004530,0.214001,-4.020403,324.060395,20.194007,0.998999,0.987049,0.004865,0.433169,0.000388,0.000226,0.000004,0.000388,0.000226,1.465168,0.000621,
2176,2413,-1.75270398069055,-5.14696612232832,-0.0145218397966573,0.004942,-0.089565,-0.008948,0.223252,-4.108274,324.770853,19.985756,0.998524,0.984756,0.005052,0.436714,0.000454,0.000318,0.000002,0.000454,0.000318,0.801497,0.000776,
2236,2728,-0.499328318620758,1.72546966330582,-0.0212146444159202,0.008142,-0.089198,0.003005,0.331723,-4.044646,319.554821,20.329397,0.999032,0.988949,0.004189,0.441001,0.000112,0.000069,-0.000005,0.000112,0.000069,-6.595059,0.000183,
2086,2293,-3.69612511092301,-7.76975319367823,-0.01799156194636,0.001535,-0.089899,-0.013437,0.079955,-4.143866,326.906560,20.235775,0.999455,0.991020,0.004292,0.410002,0.000729,0.000624,0.000093,0.000784,0.000570,30.285459,0.001359,
2326,3118,1.39206425307231,10.2047904587383,0.0272428184532032,0.011184,-0.088839,0.006824,0.456241,-4.041609,313.602453,21.248338,0.999387,0.991999,0.003677,0.419957,0.000030,0.000028,0.000015,0.000044,0.000014,43.029940,0.000061,
2206,2563,-1.1236771462813,-1.87139472296867,-0.0180784407340298,0.007080,-0.088915,-0.002583,0.301544,-4.025357,322.301797,20.092604,0.999487,0.990710,0.003949,0.503325,0.000251,0.000155,0.000021,0.000255,0.000151,11.653431,0.000411,
2221,2638,-0.810771947645058,-0.23492802704655,-0.0352096744617825,0.007865,-0.088815,-0.001526,0.334053,-4.030936,320.936317,20.127562,0.998703,0.986617,0.004835,0.539132,0.000170,0.000085,0.000006,0.000171,0.000085,4.156933,0.000260,
2416,2278,3.50719916099755,-8.10252148331617,-0.00788250445992844,0.006690,-0.093060,-0.015383,0.324232,-4.302273,326.885471,18.670652,0.998796,0.983281,0.005264,0.394327,0.000771,0.000692,-0.000089,0.000829,0.000634,-33.121597,0.001467,
2356,3253,2.01899117785962,13.1345132155302,0.0375051720598663,0.011940,-0.089441,0.014734,0.461919,-4.055851,311.474404,21.662734,0.999578,0.992274,0.003446,0.449046,0.000039,0.000021,0.000024,0.000056,0.000004,34.721471,0.000067,
2251,2773,-0.180665130319699,2.70556513001773,-0.0184340083221173,0.008538,-0.088871,0.004806,0.343704,-4.038404,318.827670,20.405116,0.999279,0.987522,0.004286,0.443977,0.000085,0.000071,0.000003,0.000086,0.000071,10.336681,0.000157,
2101,2278,-3.3660465228655,-8.09888789826825,-0.0160440306653982,0.002253,-0.089843,-0.018101,0.126675,-4.161989,327.138726,20.101740,0.998205,0.982154,0.005491,0.460577,0.000753,0.000650,0.000083,0.000799,0.000604,29.106660,0.001407,
2281,2983,0.436774765570135,7.27162693966184,0.0013014126822668,0.010446,-0.089004,0.007005,0.423300,-4.021228,315.601548,20.768556,0.999180,0.989731,0.004091,0.499566,0.000031,0.000031,0.000013,0.000044,0.000019,44.800961,0.000064,
2506,3148,5.29891778653566,10.8701071617547,0.0301033176942838,0.011783,-0.090200,0.013125,0.451610,-4.080557,313.350457,22.049614,0.999531,0.990073,0.003837,0.413144,0.000037,0.000014,0.000070,0.000096,-0.000045,40.283098,0.000096,
2341,3238,1.69633662615228,12.8088715553258,0.0342783590978684,0.012096,-0.088998,0.011357,0.481924,-4.043229,311.714668,21.607308,0.999443,0.991352,0.003573,0.402214,0.000034,0.000028,0.000019,0.000050,0.000012,40.745596,0.000066,
2161,2353,-2.0703515703758,-6.45786773974737,-0.0213849610201464,0.004205,-0.089988,-0.012081,0.198882,-4.132440,325.709399,19.945829,0.998728,0.985685,0.004904,0.450187,0.000560,0.000438,0.000015,0.000562,0.000436,7.043790,0.001001,
2116,2323,-3.04589116728006,-7.11317398683386,-0.0194961738569646,0.003191,-0.089230,-0.017185,0.167491,-4.130313,326.356579,20.162113,0.999024,0.985324,0.004954,0.384423,0.000650,0.000519,0.000039,0.000660,0.000508,15.289218,0.001171,
2191,2473,-1.43671158454431,-3.83520214891588,-0.0237138485609876,0.005362,-0.089207,-0.005275,0.231160,-4.053464,323.684495,20.003754,0.998905,0.984052,0.005260,0.493286,0.000359,0.000246,0.000011,0.000360,0.000245,5.565016,0.000609,
2101,2083,-3.339610665362,-12.3716113926308,-0.0236487195914492,-0.001751,-0.093608,-0.025920,-0.035283,-4.387033,330.051016,19.853143,0.997944,0.956624,0.008573,0.433850,0.001225,0.001254,0.000124,0.001365,0.001114,48.249532,0.002483,
2401,2083,3.2191356970874,-12.3822600530519,-0.00521117891395306,0.006896,-0.096991,-0.028515,0.379001,-4.537223,330.095619,17.915433,0.998112,0.974900,0.006680,0.351303,0.001359,0.001351,-0.000110,0.001465,0.001245,-43.997112,0.002714,
2296,3013,0.757645039722334,7.92419005293644,0.00859003513892276,0.010536,-0.089126,0.008984,0.420160,-4.018248,315.150961,20.903103,0.998925,0.987151,0.004423,0.465983,0.000031,0.000023,0.000014,0.000042,0.000013,37.170394,0.000057,
2461,2683,4.40715225493195,0.753608775057629,-0.0268018403162955,0.008697,-0.090196,0.001761,0.354246,-4.082883,320.261345,20.135861,0.999353,0.987775,0.004365,0.458731,0.000199,0.000099,-0.000013,0.000201,0.000097,-7.393906,0.000304,
2311,3028,1.08146724223065,8.25046542971091,0.0172762684445047,0.010605,-0.089133,0.009098,0.422226,-4.032978,314.966741,20.998963,0.999534,0.990506,0.003845,0.430674,0.000026,0.000025,0.000019,0.000044,0.000007,44.011485,0.000055,
2086,2098,-3.67011368693582,-12.0384481285796,-0.0329996545788731,-0.002314,-0.092851,-0.025352,-0.063124,-4.331071,329.774707,20.169296,0.998037,0.965548,0.007518,0.269130,0.001179,0.001207,0.000124,0.001318,0.001068,48.295890,0.002390,
2131,2233,-2.70577919996511,-9.08433348124873,-0.00663119195814943,0.001463,-0.091186,-0.016337,0.085240,-4.202452,327.768391,19.994958,0.998123,0.979655,0.005725,0.374820,0.000839,0.000792,0.000069,0.000889,0.000743,35.672825,0.001634,
2161,2533,-2.09910915488021,-2.52550642416887,-0.0300774178872985,0.006286,-0.088813,-0.004631,0.272115,-4.061474,322.800445,20.180516,0.998719,0.986438,0.004753,0.424295,0.000281,0.000168,0.000020,0.000285,0.000164,9.460138,0.000454,
2386,2083,2.89049722740778,-12.3816617956373,-0.00634069748480215,0.006245,-0.096508,-0.027780,0.346209,-4.507490,330.037929,17.993204,0.998391,0.973905,0.006369,0.397462,0.001354,0.001343,-0.000083,0.001432,0.001265,-43.127747,0.002698,
2356,3268,2.0144464996892,13.4614672200014,0.0173455348031553,0.011872,-0.089386,0.015572,0.455990,-4.040517,311.052307,21.735914,0.999609,0.992391,0.003403,0.428491,0.000038,0.000034,0.000024,0.000060,0.000012,42.343282,0.000077,
2131,2398,-2.72950506654626,-5.47642755548852,-0.00402602547490005,0.004458,-0.089761,-0.010713,0.206393,-4.123403,325.251259,20.102229,0.997820,0.984610,0.005258,0.430500,0.000490,0.000334,0.000011,0.000491,0.000333,4.185689,0.000829,
2206,2578,-1.12668556963189,-1.54452987781904,-0.0166503525156259,0.006735,-0.089053,0.000191,0.276856,-4.035294,322.046230,20.112638,0.999181,0.989201,0.004188,0.490844,0.000230,0.000140,0.000020,0.000234,0.000136,11.841958,0.000374,
2236,2743,-0.502262596887139,2.05176909099832,-0.0187493257121218,0.007941,-0.089712,0.006838,0.309865,-4.066048,319.310054,20.367741,0.998697,0.986616,0.004758,0.402557,0.000102,0.000068,-0.000004,0.000102,0.000068,-6.797126,0.000171,
2086,2308,-3.69795093310709,-7.44141740617173,-0.0229596302156096,0.002260,-0.089562,-0.014822,0.117341,-4.134440,326.660824,20.217698,0.999180,0.988277,0.004735,0.438789,0.000689,0.000571,0.000074,0.000725,0.000535,25.726405,0.001265,
2506,3163,5.29585847005297,11.1952587245197,0.0302675585604675,0.011757,-0.090218,0.012633,0.452289,-4.097448,313.106639,22.076594,0.999616,0.991468,0.003596,0.429088,0.000032,0.000016,0.000068,0.000093,-0.000045,41.686673,0.000093,
2431,2443,3.80102723232178,-4.48896154116896,-0.0163574786895992,0.007184,-0.091308,-0.005902,0.313088,-4.157239,324.151800,19.279406,0.998978,0.985085,0.005002,0.436248,0.000472,0.000277,-0.000032,0.000477,0.000272,-8.991631,0.000758,
2446,2473,4.12343597976824,-3.83337790290169,-0.00597354318637144,0.007451,-0.090671,-0.006301,0.326976,-4.134773,323.792544,19.390229,0.999235,0.987648,0.004624,0.413883,0.000430,0.000232,-0.000034,0.000436,0.000226,-9.440965,0.000673,
2146,2218,-2.37594134612324,-9.41292327648154,-0.0114557173811249,0.002092,-0.091235,-0.020428,0.126659,-4.253843,327.951971,19.893466,0.997980,0.978033,0.005897,0.343736,0.000872,0.000846,0.000067,0.000928,0.000791,39.477694,0.001720,
2116,2218,-3.03072185361853,-9.41191320900971,-0.0158579427270524,0.001182,-0.090826,-0.021669,0.088009,-4.226980,327.999515,20.041083,0.997586,0.978808,0.005942,0.369306,0.000878,0.000834,0.000097,0.000955,0.000757,38.676994,0.001716,
2266,2893,0.126107155325908,5.31576890578069,-0.00683095162315794,0.009851,-0.088978,0.004594,0.404378,-4.034872,317.005053,20.623559,0.999497,0.990271,0.003889,0.440820,0.000035,0.000043,0.000015,0.000054,0.000024,53.012079,0.000080,
2176,2428,-1.75506618049904,-4.81845569980479,-0.0192606655105578,0.005394,-0.089441,-0.009186,0.244796,-4.089337,324.510093,20.020991,0.998723,0.985892,0.004936,0.434383,0.000432,0.000281,0.000001,0.000432,0.000281,0.565891,0.000718,
2221,2653,-0.812984859940581,0.0907912848031458,-0.0289326580739839,0.007981,-0.089496,0.000855,0.331471,-4.074645,320.743462,20.141214,0.999059,0.988672,0.004483,0.501072,0.000162,0.000081,0.000006,0.000162,0.000081,3.938796,0.000248,
2116,2338,-3.04898039843841,-6.78639871811224,-0.0190269481095129,0.002970,-0.090302,-0.009211,0.133407,-4.159317,326.085520,20.105178,0.999108,0.985728,0.004864,0.418008,0.000608,0.000480,0.000027,0.000614,0.000475,11.611529,0.001092,
2101,2293,-3.36908293657579,-7.7703373106727,-0.0152420951977774,0.001812,-0.090110,-0.013560,0.093080,-4.147300,326.870103,20.151006,0.998703,0.984996,0.005168,0.429482,0.000727,0.000617,0.000082,0.000771,0.000573,28.067732,0.001349,
2341,3253,1.69259982215813,13.1340136078761,0.0258434137716108,0.012119,-0.089476,0.015073,0.469857,-4.057038,311.385904,21.602818,0.999510,0.991764,0.003506,0.428270,0.000035,0.000024,0.000019,0.000049,0.000010,36.602745,0.000063,
2191,2488,-1.43893603230998,-3.50732058663039,-0.0309250798587186,0.005773,-0.088941,-0.011069,0.268257,-4.082178,323.418811,20.028175,0.998808,0.982906,0.005394,0.455869,0.000338,0.000230,0.000010,0.000339,0.000229,5.465047,0.000571,
2461,2698,4.40473625018722,1.08050562414952,-0.0225828619505251,0.008833,-0.090243,0.000221,0.366297,-4.099085,320.064487,20.228467,0.999586,0.987803,0.004432,0.404471,0.000183,0.000107,-0.000012,0.000185,0.000105,-8.961046,0.000294,
2161,2548,-2.10107667035474,-2.19892408020122,-0.0278732444519392,0.006708,-0.088751,-0.003845,0.289166,-4.047144,322.593251,20.147932,0.998731,0.985888,0.004735,0.482256,0.000273,0.000149,0.000020,0.000276,0.000146,9.133810,0.000428,
2416,2293,3.5036840645339,-7.77432924730883,-0.00856932303224767,0.006329,-0.093654,-0.013536,0.300747,-4.315413,326.613808,18.704145,0.998403,0.980369,0.005732,0.397862,0.000739,0.000647,-0.000084,0.000789,0.000597,-30.676475,0.001390,
2326,3133,1.38874182062863,10.5298897608914,0.0267669830476507,0.010878,-0.089203,0.009140,0.433936,-4.066071,313.330930,21.264417,0.999203,0.991013,0.003797,0.412542,0.000027,0.000031,0.000017,0.000046,0.000012,48.607351,0.000061,
2281,2998,0.434550789069661,7.59774550085352,0.00778171382245318,0.010646,-0.089003,0.009322,0.424711,-4.027056,315.412090,20.871595,0.999088,0.989290,0.004141,0.417508,0.000031,0.000029,0.000008,0.000038,0.000022,41.045200,0.000061,
2356,3283,2.01090939362699,13.7869821258999,0.00572369489839275,0.011935,-0.089402,0.013584,0.465893,-4.051341,310.718345,21.755457,0.999602,0.991919,0.003468,0.435578,0.000040,0.000031,0.000016,0.000052,0.000019,37.775406,0.000073,
2251,2788,-0.183061799786152,3.03195336441161,-0.0172135549732957,0.008654,-0.088958,0.003894,0.352000,-4.040184,318.602183,20.435228,0.999452,0.988348,0.004163,0.435446,0.000077,0.000070,0.000007,0.000082,0.000065,31.604901,0.000147,
2086,2113,-3.67033988256943,-11.7135593902032,-0.0113067342070963,-0.001414,-0.093527,-0.022054,-0.031509,-4.371485,329.747207,20.105138,0.998151,0.982730,0.005584,0.293905,0.001142,0.001174,0.000124,0.001283,0.001033,48.659109,0.002320,
2296,3028,0.755774075132912,8.24997345713599,0.0110661456395746,0.010992,-0.088790,0.005713,0.452319,-4.028232,314.958756,20.959761,0.999193,0.988758,0.004125,0.428590,0.000030,0.000023,0.000015,0.000042,0.000011,38.563814,0.000056,
2161,2368,-2.07210582172017,-6.12989164933236,-0.0143529730407863,0.004731,-0.089763,-0.007919,0.210416,-4.103430,325.537039,20.015363,0.998767,0.988783,0.004465,0.421191,0.000535,0.000413,0.000014,0.000536,0.000411,6.403496,0.000950,
2146,2473,-2.41557825241148,-3.83604029416507,-0.0188372735850066,0.005283,-0.088452,-0.008156,0.237054,-4.037727,323.885725,20.134194,0.998956,0.985762,0.005199,0.484810,0.000370,0.000226,0.000007,0.000371,0.000226,2.872154,0.000602,
2401,2098,3.21505191914003,-12.0532544218427,-0.00341993368255089,0.006190,-0.097673,-0.020983,0.319272,-4.514454,329.808853,17.944802,0.998066,0.972587,0.006860,0.393809,0.001307,0.001325,-0.000109,0.001425,0.001207,-47.305677,0.002635,
2506,3178,5.29345812655781,11.5208676312146,0.037787844007255,0.011696,-0.090087,0.011283,0.454890,-4.082369,312.925953,22.161402,0.999622,0.991900,0.003604,0.419599,0.000036,0.000020,0.000066,0.000095,-0.000039,41.521070,0.000096,
2086,2323,-3.69961212611119,-7.11323667061467,-0.0248139221430392,0.002942,-0.088887,-0.016387,0.153379,-4.106719,326.439464,20.203916,0.998886,0.987628,0.004810,0.481349,0.000653,0.000518,0.000062,0.000677,0.000494,21.271820,0.001176,
2131,2248,-2.7083087811827,-8.75589884991609,-0.014262036006869,0.001840,-0.091153,-0.016266,0.102324,-4.208852,327.480661,19.952466,0.998509,0.981187,0.005531,0.418961,0.000803,0.000757,0.000063,0.000847,0.000713,34.974821,0.001562,
2446,2488,4.12112487810588,-3.50741154739187,-0.00323305395863827,0.008011,-0.091143,-0.005061,0.347791,-4.191883,323.593994,19.361052,0.999164,0.986139,0.004719,0.439097,0.000410,0.000202,-0.000034,0.000416,0.000196,-9.105114,0.000625,
2116,2233,-3.03273063007699,-9.08392668094709,-0.0102458130406262,0.001506,-0.091266,-0.016728,0.088136,-4.231573,327.805028,20.087384,0.997891,0.980252,0.005819,0.324012,0.000845,0.000789,0.000089,0.000910,0.000724,36.163943,0.001637,
2386,2098,2.8866168462604,-12.0518854273702,-0.00989376044753953,0.005895,-0.096680,-0.023238,0.313944,-4.511595,329.734059,18.060932,0.998302,0.972756,0.006526,0.372622,0.001302,0.001318,-0.000083,0.001393,0.001227,-47.791827,0.002622,
2341,3268,1.68890114349825,13.4600849056805,0.0147063697912131,0.012196,-0.089291,0.016278,0.469367,-4.038076,311.045320,21.641332,0.999527,0.991994,0.003448,0.444150,0.000034,0.000036,0.000019,0.000054,0.000016,45.954669,0.000073,
2236,2758,-0.504354628832033,2.37925163074545,-0.0246651277943215,0.008618,-0.088864,0.002790,0.354465,-4.034860,319.060761,20.399934,0.999122,0.987898,0.004347,0.422897,0.000091,0.000070,0.000000,0.000091,0.000070,-0.079570,0.000162,
2146,2233,-2.37903557283991,-9.084699468376,-0.0108039232031842,0.001577,-0.091350,-0.017533,0.094245,-4.234000,327.683634,19.886219,0.998293,0.979528,0.005626,0.381112,0.000836,0.000799,0.000062,0.000882,0.000753,36.785902,0.001636,
2311,3043,1.07916882844853,8.57599040087483,0.0233736834395586,0.010795,-0.089209,0.011325,0.423338,-4.034390,314.773785,21.050713,0.999530,0.991204,0.003739,0.408920,0.000023,0.000031,0.000017,0.000044,0.000010,51.087926,0.000058,
2431,2458,3.79816418081527,-4.16133017536919,-0.0174991557243516,0.007348,-0.091035,-0.006352,0.322434,-4.153653,323.908440,19.297268,0.999236,0.985680,0.004888,0.473393,0.000445,0.000250,-0.000034,0.000451,0.000244,-9.590583,0.000705,
2461,2713,4.40170588023753,1.4074481486826,-0.0234258392180777,0.009064,-0.090204,0.002242,0.369341,-4.084386,319.816074,20.257297,0.999607,0.990243,0.004016,0.444943,0.000165,0.000104,-0.000001,0.000165,0.000104,-1.254209,0.000271,
2356,3298,2.00830799240097,14.1130623624694,0.00207645150919689,0.012465,-0.089155,0.013468,0.490867,-4.041556,310.465810,21.854826,0.999719,0.992500,0.003467,0.383411,0.000037,0.000019,0.000014,0.000045,0.000011,28.955900,0.000059,
2206,2593,-1.12895200979286,-1.21699218345292,-0.014275535348645,0.006970,-0.088973,0.001504,0.283577,-4.012503,321.829273,20.174326,0.998845,0.986951,0.004575,0.469517,0.000216,0.000115,0.000017,0.000219,0.000112,9.538898,0.000336,
2101,2308,-3.36997676001399,-7.44193037648985,-0.0190598004546132,0.003065,-0.089154,-0.020589,0.171407,-4.151002,326.674639,20.163921,0.998667,0.981935,0.005705,0.415996,0.000689,0.000566,0.000063,0.000716,0.000540,22.889964,0.001260,
2191,2503,-1.44072024690538,-3.18078864502115,-0.0214555361184807,0.006172,-0.089158,-0.006757,0.273006,-4.081290,323.260047,20.057069,0.999053,0.985796,0.004910,0.443145,0.000320,0.000215,0.000013,0.000322,0.000214,7.131476,0.000539,
2161,2563,-2.10333892811639,-1.87211949565057,-0.0190821327992126,0.006372,-0.088519,-0.003458,0.272587,-4.044735,322.407192,20.210178,0.998738,0.985573,0.004764,0.433200,0.000259,0.000138,0.000017,0.000262,0.000135,7.852420,0.000404,
2266,2908,0.123703179006512,5.64195722919087,-0.00342590099336348,0.009883,-0.088690,0.004400,0.406596,-4.029641,316.791114,20.677657,0.999606,0.991974,0.003645,0.417162,0.000032,0.000037,0.000016,0.000050,0.000018,48.991173,0.000071,
2131,2413,-2.73275699201291,-5.14617412309779,-0.0175653186097975,0.004862,-0.089399,-0.005519,0.209537,-4.078717,324.898306,20.180779,0.998485,0.986573,0.004972,0.404285,0.000470,0.000297,0.000011,0.000471,0.000296,3.724304,0.000774,
2176,2443,-1.75803591792539,-4.49154980046296,-0.0179347101215512,0.005057,-0.089912,-0.005969,0.219198,-4.103740,324.253641,20.005247,0.998989,0.985876,0.004900,0.449607,0.000401,0.000252,-0.000001,0.000401,0.000252,-0.463710,0.000658,
2506,3193,5.29057418532199,11.8458623101726,0.0389319040217515,0.011825,-0.090233,0.011526,0.459797,-4.094277,312.694490,22.181822,0.999602,0.992246,0.003578,0.446835,0.000041,0.000011,0.000064,0.000092,-0.000040,38.377146,0.000092,
2101,2098,-3.3403451959522,-12.0404763350837,-0.00911445385452225,-0.001262,-0.092392,-0.029015,-0.003485,-4.350682,329.960839,20.198961,0.998538,0.956490,0.008684,0.128023,0.001182,0.001213,0.000121,0.001320,0.001076,48.637730,0.002400,
2221,2668,-0.815125417083799,0.417684648439561,-0.0222823415128346,0.008186,-0.089547,0.003795,0.331526,-4.055026,320.555354,20.206241,0.999407,0.992384,0.003846,0.474773,0.000153,0.000091,-0.000001,0.000153,0.000091,-0.906717,0.000247,
2116,2353,-3.05131285480269,-6.45674266956248,-0.0217212073607129,0.003399,-0.089783,-0.006211,0.144457,-4.103120,325.831148,20.200464,0.999196,0.983844,0.005012,0.384021,0.000573,0.000430,0.000027,0.000578,0.000425,10.199246,0.001007,
2326,3148,1.38674866509227,10.8551965533532,0.0335587968713753,0.011347,-0.089200,0.011383,0.447893,-4.049383,313.156071,21.306635,0.999461,0.992323,0.003659,0.420397,0.000021,0.000033,0.000019,0.000047,0.000007,54.055901,0.000059,
2416,2308,3.50215214660104,-7.44557485243414,-0.00621244073931848,0.007151,-0.092205,-0.018527,0.357252,-4.262954,326.446879,18.758858,0.998841,0.984942,0.004984,0.445348,0.000712,0.000591,-0.000076,0.000749,0.000554,-25.824784,0.001308,
2146,2488,-2.41763817929581,-3.50865774754648,-0.0242302672165806,0.006168,-0.088965,-0.006176,0.271561,-4.060189,323.632932,20.122185,0.998823,0.985159,0.005129,0.483382,0.000352,0.000214,0.000003,0.000352,0.000214,1.352697,0.000571,
2281,3013,0.431457030821871,7.92340000185636,0.00673966368276524,0.010484,-0.089252,0.011075,0.411368,-4.022769,315.145128,20.874572,0.999090,0.988722,0.004155,0.445879,0.000031,0.000021,0.000008,0.000035,0.000016,28.290301,0.000053,
2341,3283,1.68579724027947,13.7853306843864,0.00657884879382209,0.012445,-0.089376,0.014945,0.485389,-4.062032,310.747012,21.668137,0.999635,0.992891,0.003260,0.428364,0.000036,0.000033,0.000011,0.000046,0.000023,41.309920,0.000070,
2446,2503,4.11778094812252,-3.17918430430192,-0.00434615137010042,0.007999,-0.091330,-0.002205,0.336578,-4.155063,323.329519,19.414814,0.999245,0.988055,0.004470,0.475794,0.000382,0.000205,-0.000034,0.000388,0.000199,-10.492809,0.000597,
2401,2113,3.21327072680699,-11.7227270110331,-0.0039450062130868,0.006902,-0.095873,-0.026895,0.373922,-4.450865,329.616291,18.051707,0.998291,0.973827,0.006502,0.399151,0.001257,0.001291,-0.000108,0.001383,0.001165,-49.420877,0.002551,
2086,2128,-3.67304556613784,-11.3834905820924,-0.016249961232802,-0.001296,-0.093011,-0.018828,-0.035270,-4.307088,329.460762,20.123109,0.998463,0.984040,0.005401,0.342539,0.001101,0.001143,0.000126,0.001250,0.000995,49.746355,0.002249,
2251,2803,-0.185965923340174,3.35886483125689,-0.0224615608414069,0.008893,-0.088922,0.005300,0.358432,-4.026224,318.320440,20.452203,0.999395,0.988627,0.004313,0.455814,0.000071,0.000069,0.000005,0.000075,0.000065,39.234479,0.000140,
2296,3043,0.753736243239572,8.57503756778605,0.0212298187498163,0.011204,-0.089207,0.009057,0.450583,-4.039755,314.797266,21.006118,0.999335,0.989425,0.003999,0.399802,0.000026,0.000030,0.000014,0.000042,0.000014,48.279697,0.000059,
2311,3058,1.07618959563121,8.90105640144172,0.024410843126077,0.010511,-0.089285,0.011274,0.410434,-4.036280,314.524664,21.030986,0.999663,0.992843,0.003442,0.458006,0.000023,0.000035,0.000016,0.000046,0.000012,55.769586,0.000061,
2131,2263,-2.70990732369354,-8.4280965794722,-0.0123165026492984,0.002195,-0.090558,-0.021175,0.133452,-4.211437,327.286526,19.952241,0.998470,0.981778,0.005548,0.424404,0.000772,0.000707,0.000058,0.000806,0.000673,30.526000,0.001481,
2431,2473,3.79556195672627,-3.83345705888745,-0.0142036688199596,0.007296,-0.090670,-0.008314,0.327451,-4.155838,323.697524,19.389125,0.999054,0.985429,0.004883,0.430542,0.000419,0.000231,-0.000034,0.000425,0.000225,-9.871950,0.000660,
2116,2248,-3.03512172315457,-8.75585509017997,-0.0111694876824799,0.001641,-0.090961,-0.015254,0.090095,-4.194700,327.557880,20.037492,0.998252,0.982038,0.005563,0.416578,0.000807,0.000758,0.000079,0.000865,0.000700,36.281109,0.001568,
2086,2338,-3.70099679581179,-6.78591655099959,-0.0153559572112272,0.003128,-0.088402,-0.018907,0.169344,-4.099497,326.292403,20.248724,0.998710,0.985352,0.004991,0.444098,0.000612,0.000474,0.000052,0.000629,0.000457,18.600391,0.001090,
2236,2773,-0.507148782746373,2.70514521094817,-0.0208107608942214,0.008323,-0.088826,0.004730,0.334603,-4.038485,318.829517,20.403021,0.999241,0.987363,0.004260,0.437693,0.000084,0.000066,0.000004,0.000085,0.000066,10.824725,0.000151,
2461,2728,4.39933916890563,1.73494012047775,-0.0217674041987266,0.009414,-0.089741,0.000134,0.393559,-4.078291,319.609446,20.369958,0.999603,0.991968,0.003632,0.393348,0.000150,0.000098,0.000011,0.000152,0.000096,11.180815,0.000251,
2161,2383,-2.0753875695037,-5.80157614374064,-0.0219220809144645,0.004343,-0.089593,-0.009231,0.196632,-4.109004,325.218120,20.013810,0.998642,0.987372,0.004709,0.429324,0.000505,0.000383,0.000010,0.000506,0.000382,4.539630,0.000890,
2386,2113,2.88451867908501,-11.7215961921549,-0.0135403433733359,0.006583,-0.095527,-0.028243,0.363798,-4.481841,329.511083,18.146203,0.998067,0.967780,0.006826,0.363672,0.001252,0.001285,-0.000082,0.001352,0.001184,-50.593757,0.002538,
2371,1993,2.57917525763928,-14.3621356284212,0.00432563142470599,0.004652,-0.100138,-0.028649,0.274293,-4.690925,331.495967,17.700535,0.997716,0.945260,0.009253,0.332718,0.001634,0.001431,-0.000114,0.001685,0.001380,-24.118372,0.003070,
2101,2323,-3.37128350200985,-7.11348150222397,-0.0162513486362172,0.003703,-0.088012,-0.024191,0.211569,-4.111212,326.495825,20.208842,0.998918,0.985670,0.005028,0.414062,0.000653,0.000519,0.000048,0.000668,0.000503,17.949445,0.001175,
2101,2113,-3.34172357714229,-11.7156751574864,0.00199290410500907,-0.000785,-0.092813,-0.025000,0.006533,-4.351847,329.824099,19.971260,0.998491,0.977652,0.006191,0.358225,0.001145,0.001179,0.000122,0.001285,0.001039,48.897508,0.002328,
2146,2248,-2.380631686541,-8.75582475798024,-0.0150884591546401,0.002578,-0.090839,-0.019347,0.145798,-4.206617,327.457546,19.884987,0.998349,0.980220,0.005597,0.419959,0.000800,0.000759,0.000056,0.000839,0.000719,35.006716,0.001560,
2131,2428,-2.73612275264626,-4.81743334070391,-0.0258163194957319,0.004595,-0.089274,-0.003478,0.191231,-4.067322,324.568733,20.211023,0.998979,0.987790,0.004668,0.392971,0.000447,0.000262,0.000014,0.000448,0.000261,4.236340,0.000717,
2446,2518,4.11393617978259,-2.85086519304384,-0.0116933014242591,0.007608,-0.091143,-0.004047,0.325637,-4.158484,323.013401,19.465970,0.998987,0.985919,0.004712,0.474906,0.000359,0.000206,-0.000036,0.000367,0.000198,-12.643615,0.000574,
2506,3208,5.28702089726436,12.1723255034703,0.0352675786097052,0.011788,-0.090353,0.012849,0.453002,-4.089537,312.410035,22.296965,0.999379,0.991205,0.003777,0.396441,0.000044,0.000012,0.000054,0.000085,-0.000028,36.758726,0.000086,
2146,2503,-2.41986176266607,-3.18052700659103,-0.033282794185709,0.006780,-0.088676,-0.009544,0.309951,-4.068796,323.353029,20.137210,0.998536,0.984312,0.005218,0.469062,0.000336,0.000197,0.000005,0.000336,0.000197,2.073460,0.000539,
2206,2608,-1.13153755726987,-0.889638755997062,-0.022599157376078,0.007373,-0.088869,-0.000829,0.309505,-4.037233,321.542660,20.178818,0.998578,0.984971,0.004932,0.457684,0.000202,0.000106,0.000017,0.000205,0.000103,9.989134,0.000314,
2116,2368,-3.05236071799477,-6.13025335053194,-0.0137081847488503,0.003955,-0.089313,-0.010224,0.181975,-4.102521,325.693809,20.171011,0.998879,0.984474,0.005030,0.419141,0.000548,0.000402,0.000025,0.000553,0.000398,9.360994,0.000955,
2341,3298,1.68304351630582,14.1108226039057,0.00307820690682092,0.012645,-0.089138,0.012998,0.501595,-4.048631,310.487241,21.710118,0.999705,0.992761,0.003299,0.435117,0.000032,0.000020,0.000010,0.000038,0.000014,29.771339,0.000054,
2176,2458,-1.75995577372695,-4.16418071639514,-0.0177519598117897,0.005425,-0.089396,-0.008988,0.245606,-4.101987,324.039117,20.009673,0.998938,0.985747,0.004973,0.460341,0.000375,0.000238,0.000002,0.000375,0.000238,0.811238,0.000618,
2161,2578,-2.10608972518675,-1.54503519172327,-0.0220494764911905,0.006564,-0.088734,0.000336,0.269787,-4.028753,322.136769,20.185255,0.998834,0.986147,0.004625,0.485212,0.000235,0.000119,0.000018,0.000238,0.000116,8.484886,0.000361,
2191,2518,-1.4424603976444,-2.85473374744549,-0.01462798762185,0.006575,-0.089062,-0.005619,0.288016,-4.065210,323.089650,20.006767,0.999131,0.987797,0.004694,0.525038,0.000298,0.000204,0.000022,0.000303,0.000200,12.349319,0.000506,
2416,2323,3.49880907793895,-7.11583819479326,-0.00633400297425624,0.006852,-0.091280,-0.017520,0.340257,-4.210751,326.185125,18.884213,0.998689,0.983345,0.005135,0.421938,0.000673,0.000552,-0.000071,0.000706,0.000519,-24.954014,0.001230,
2266,2923,0.120933639677215,5.96707271109954,-0.000225737070650212,0.009758,-0.089064,0.006900,0.392360,-4.060941,316.559697,20.671893,0.999623,0.992386,0.003742,0.416839,0.000028,0.000034,0.000009,0.000040,0.000021,53.912568,0.000062,
2281,3028,0.429713613857327,8.24901080438445,0.011960446157218,0.010898,-0.088891,0.008505,0.439138,-4.026568,314.971559,20.927315,0.998979,0.987952,0.004235,0.416359,0.000030,0.000019,0.000008,0.000034,0.000015,28.676263,0.000051,
2221,2683,-0.817673919402001,0.744634432007764,-0.0228811986875144,0.008279,-0.089233,0.003715,0.336170,-4.039483,320.311347,20.224348,0.999442,0.991915,0.003790,0.491703,0.000140,0.000088,-0.000006,0.000140,0.000088,-6.114400,0.000230,
2461,2743,4.39507488071524,2.0613376930088,-0.0262556647243173,0.008943,-0.090379,0.004973,0.353495,-4.090789,319.287626,20.356114,0.999586,0.991110,0.003785,0.449314,0.000142,0.000082,0.000011,0.000144,0.000080,10.314056,0.000227,
2086,2143,-3.67420279978833,-11.0566796403661,-0.0154030328883437,-0.000500,-0.092610,-0.023350,0.014381,-4.304996,329.277311,19.974243,0.998596,0.983732,0.005320,0.495262,0.001061,0.001085,0.000125,0.001199,0.000947,47.766967,0.002150,
2251,2818,-0.187805574476801,3.68397890332454,-0.0112420583300263,0.008894,-0.088986,0.005054,0.359311,-4.028018,318.171456,20.450482,0.999554,0.990222,0.004157,0.478786,0.000066,0.000070,0.000005,0.000073,0.000063,56.131064,0.000137,
2116,2263,-3.03752336719906,-8.42656253052236,-0.0204843353413935,0.001979,-0.090149,-0.018969,0.116827,-4.187161,327.265219,20.047984,0.998421,0.982391,0.005515,0.419523,0.000777,0.000705,0.000075,0.000824,0.000658,32.211286,0.001485,
2326,3163,1.3842906072406,11.1805746000918,0.0381069738266433,0.011437,-0.089156,0.012500,0.448249,-4.038305,312.948760,21.350511,0.999616,0.993554,0.003470,0.420925,0.000022,0.000035,0.000018,0.000048,0.000009,54.385885,0.000061,
2101,2338,-3.37408873242017,-6.78655956112737,-0.0168856496873673,0.003652,-0.089172,-0.018591,0.192532,-4.141644,326.230576,20.155282,0.999096,0.987792,0.004643,0.440292,0.000610,0.000479,0.000037,0.000619,0.000469,14.734800,0.001092,
2431,2488,3.79214440637272,-3.50631122423886,-0.014813569321575,0.007302,-0.091465,-0.003384,0.309229,-4.182370,323.431209,19.407383,0.998866,0.982731,0.005060,0.436813,0.000401,0.000200,-0.000033,0.000407,0.000195,-9.073283,0.000614,
2311,3073,1.07389071035518,9.2270657653858,0.0293058055661959,0.010578,-0.089268,0.010603,0.415710,-4.060608,314.325543,21.149192,0.999662,0.994217,0.003216,0.346483,0.000021,0.000032,0.000016,0.000044,0.000010,54.778867,0.000057,
2401,2128,3.21144346305468,-11.3934068812444,0.00374570086864878,0.007446,-0.095271,-0.026146,0.396390,-4.456532,329.460580,18.212256,0.998649,0.978884,0.005898,0.280963,0.001214,0.001253,-0.000101,0.001337,0.001130,-50.322461,0.002470,
2371,2008,2.57656573381544,-14.0304415893619,-0.00713845330579943,0.005857,-0.100265,-0.028062,0.327279,-4.676944,331.211342,17.799048,0.996768,0.969701,0.007357,0.293121,0.001597,0.001435,-0.000098,0.001643,0.001389,-25.132212,0.003036,
2131,2278,-2.7118680910182,-8.09983690981061,-0.0140935429762408,0.003038,-0.091043,-0.016923,0.159308,-4.202258,327.055889,19.949290,0.998552,0.982354,0.005494,0.444507,0.000740,0.000652,0.000055,0.000767,0.000626,25.783405,0.001395,
2101,2128,-3.34471578988535,-11.3873417871153,0.000730681851280224,-0.001075,-0.093482,-0.020495,-0.020140,-4.344207,329.546457,19.926859,0.998529,0.986441,0.005278,0.414848,0.001105,0.001147,0.000122,0.001250,0.001002,49.962442,0.002257,
2161,2398,-2.07642496145072,-5.47549776705686,-0.0156622463888425,0.005053,-0.089464,-0.013706,0.242983,-4.127844,325.075099,19.959072,0.998602,0.986553,0.004816,0.476500,0.000478,0.000346,0.000009,0.000478,0.000345,3.743934,0.000827,
2086,2353,-3.70377037829195,-6.45745696754406,-0.0136921403740189,0.003016,-0.088494,-0.012054,0.144420,-4.068889,326.039227,20.302068,0.998471,0.980910,0.005453,0.422264,0.000574,0.000424,0.000051,0.000590,0.000409,17.152369,0.001004,
2296,3058,0.750501266147708,8.90013314549221,0.0194503759997247,0.010790,-0.089097,0.008224,0.434447,-4.033175,314.521333,20.962272,0.999531,0.992209,0.003601,0.479273,0.000025,0.000035,0.000014,0.000044,0.000015,55.475822,0.000062,
2236,2788,-0.509025153137973,3.03153749709877,-0.0192332898514564,0.008820,-0.088672,0.002569,0.364568,-4.031094,318.628610,20.426968,0.999411,0.988721,0.004157,0.442121,0.000074,0.000066,0.000007,0.000077,0.000062,30.014756,0.000140,
2446,2533,4.11096633734649,-2.52112291911585,-0.0131966691895968,0.007605,-0.090430,-0.006123,0.333573,-4.127494,322.763904,19.671419,0.998956,0.988140,0.004555,0.353761,0.000341,0.000191,-0.000032,0.000347,0.000185,-11.518038,0.000540,
2386,2128,2.88165029281319,-11.3921825857618,-0.0144325441354454,0.006748,-0.095120,-0.027314,0.368224,-4.464264,329.265932,18.199688,0.998526,0.974541,0.006200,0.373848,0.001208,0.001247,-0.000078,0.001308,0.001147,-52.087279,0.002457,
2146,2263,-2.38298769091867,-8.42660698067446,-0.0200249748197052,0.003078,-0.090831,-0.017982,0.164654,-4.189584,327.193239,19.924697,0.998398,0.981179,0.005651,0.407686,0.000767,0.000706,0.000050,0.000795,0.000677,29.440262,0.001474,
2116,2383,-3.05470068661416,-5.80318983025506,-0.019162232360884,0.004194,-0.089494,-0.012694,0.200164,-4.142000,325.425266,20.108141,0.998795,0.984421,0.005057,0.447621,0.000521,0.000363,0.000020,0.000524,0.000360,7.087883,0.000889,
2101,2353,-3.3774081978323,-6.45725548338726,-0.0223038409757805,0.003550,-0.089248,-0.010662,0.164695,-4.095349,325.915179,20.201351,0.998860,0.983991,0.005098,0.443889,0.000573,0.000429,0.000035,0.000581,0.000421,13.070505,0.001006,
2251,2833,-0.190191539777718,4.01084742206555,-0.0127989981248788,0.009284,-0.088983,0.004972,0.377514,-4.025579,317.932169,20.511967,0.999412,0.990299,0.004009,0.443213,0.000056,0.000063,0.000011,0.000070,0.000048,53.366941,0.000119,
2131,2443,-2.73734128375141,-4.49137290436339,-0.0226697793343646,0.005319,-0.088508,-0.007508,0.236799,-4.047402,324.398696,20.100132,0.999048,0.987813,0.004714,0.530514,0.000416,0.000229,0.000009,0.000417,0.000228,2.662471,0.000654,
2176,2473,-1.76270513266743,-3.83531344257305,-0.0202399840704857,0.005556,-0.089008,-0.006062,0.242757,-4.053076,323.772138,20.084574,0.999083,0.984431,0.005182,0.448021,0.000358,0.000237,0.000006,0.000358,0.000237,2.886535,0.000599,
2146,2518,-2.42277252158561,-2.85208838471895,-0.0402556518135384,0.006807,-0.088312,-0.009316,0.310646,-4.059046,323.052507,20.187146,0.998748,0.985690,0.004910,0.438028,0.000314,0.000184,0.000013,0.000315,0.000183,5.719096,0.000504,
2281,3043,0.426708244341516,8.57469399434077,0.0169238566741114,0.010440,-0.089008,0.010974,0.409774,-4.021350,314.738622,20.979574,0.999350,0.990384,0.003860,0.396157,0.000026,0.000025,0.000007,0.000033,0.000019,42.529920,0.000052,
2206,2623,-1.13403350015556,-0.562939016821652,-0.0182234630966605,0.007307,-0.088821,0.001466,0.299148,-4.053488,321.325785,20.229250,0.998920,0.985187,0.004956,0.408358,0.000187,0.000091,0.000012,0.000188,0.000089,6.790344,0.000283,
2461,2758,4.39176537567301,2.38804961267955,-0.0244097747729484,0.008771,-0.090548,0.008176,0.333487,-4.089409,319.038506,20.412457,0.999519,0.989773,0.004005,0.448787,0.000138,0.000072,0.000016,0.000142,0.000068,12.607842,0.000214,
2416,2338,3.49555775381686,-6.78643639014647,-0.0132589992554131,0.006872,-0.090891,-0.020481,0.352177,-4.192576,325.895965,18.950889,0.998544,0.981865,0.005246,0.423509,0.000646,0.000524,-0.000062,0.000672,0.000498,-22.909361,0.001175,
2161,2593,-2.10851123160215,-1.21785693225412,-0.0250596172671749,0.006717,-0.089030,-0.001485,0.282299,-4.047415,321.881273,20.208181,0.998905,0.987847,0.004552,0.454539,0.000221,0.000100,0.000017,0.000224,0.000097,8.019175,0.000329,
2506,3223,5.28412299749912,12.4976887174548,0.034802463284052,0.011980,-0.090164,0.012400,0.463590,-4.099494,312.170406,22.347870,0.999463,0.991186,0.003847,0.395180,0.000046,-0.000013,0.000048,0.000073,-0.000040,29.043116,0.000073,
2356,1993,2.24944416312922,-14.3608656125019,-0.00486919427476096,0.003220,-0.099804,-0.033238,0.224463,-4.716756,331.362777,17.803443,0.997464,0.947232,0.009326,0.311838,0.001589,0.001443,-0.000082,0.001625,0.001406,-24.115001,0.003034,
2191,2533,-1.44584437671951,-2.52570005622988,-0.0233472812013247,0.006448,-0.088834,-0.003986,0.277174,-4.047613,322.762529,20.092629,0.999092,0.988000,0.004535,0.472450,0.000277,0.000185,0.000020,0.000282,0.000181,11.958265,0.000466,
2221,2698,-0.82081585613285,1.07159616586559,-0.0218190388592348,0.007688,-0.088783,0.003999,0.308267,-4.019090,320.048594,20.257100,0.999557,0.993427,0.003432,0.498643,0.000130,0.000082,-0.000005,0.000131,0.000081,-6.013556,0.000214,
2326,3178,1.38160783394516,11.5062095522356,0.0320450034938631,0.011822,-0.088977,0.009878,0.475112,-4.035905,312.678950,21.366804,0.999617,0.993684,0.003501,0.440506,0.000025,0.000037,0.000019,0.000051,0.000011,54.055383,0.000066,
2266,2938,0.117897578567455,6.29259099014192,0.000980560333346148,0.009738,-0.089221,0.012519,0.372830,-4.037663,316.305767,20.638434,0.999478,0.991202,0.003801,0.498531,0.000027,0.000034,0.000008,0.000039,0.000022,57.689149,0.000062,
2116,2278,-3.03832590305485,-8.09781877901382,-0.0163388909111291,0.003132,-0.089322,-0.021399,0.177194,-4.141832,327.117659,20.113321,0.998415,0.982943,0.005421,0.404867,0.000747,0.000648,0.000071,0.000784,0.000611,27.579026,0.001399,
2131,2293,-2.71516633559598,-7.77117968275721,-0.0145501906590653,0.002493,-0.090816,-0.012128,0.120037,-4.168325,326.770927,19.976930,0.998400,0.983609,0.005370,0.458838,0.000712,0.000615,0.000057,0.000739,0.000589,24.810060,0.001330,
2446,2548,4.10778153090159,-2.19345944605042,-0.0134325731887088,0.007936,-0.090391,-0.000051,0.326209,-4.090984,322.510629,19.697065,0.999379,0.989364,0.004272,0.418024,0.000323,0.000157,-0.000025,0.000327,0.000154,-8.278362,0.000491,
2431,2503,3.78996745754104,-3.17944871291918,-0.011296606044823,0.007657,-0.091401,-0.005296,0.332601,-4.174600,323.240853,19.407701,0.999089,0.986235,0.004666,0.495394,0.000376,0.000203,-0.000033,0.000382,0.000197,-10.417405,0.000589,
2401,2143,3.20749656977858,-11.0651730503245,-0.00294876053362714,0.006939,-0.095331,-0.026161,0.373259,-4.432714,329.140151,18.093873,0.998766,0.977524,0.005817,0.472223,0.001160,0.001189,-0.000101,0.001277,0.001073,-49.128057,0.002352,
2296,3073,0.748479273069737,9.22575232966282,0.0293373231558007,0.010683,-0.089165,0.006718,0.434542,-4.049744,314.358963,21.069050,0.999621,0.993891,0.003415,0.384761,0.000022,0.000032,0.000013,0.000041,0.000013,55.473227,0.000056,
2176,2488,-1.76522030243764,-3.50775167961114,-0.0243590674995176,0.005594,-0.088815,-0.009550,0.255343,-4.058792,323.507833,20.084687,0.998874,0.984155,0.005208,0.455719,0.000339,0.000222,0.000004,0.000339,0.000222,1.894934,0.000565,
2101,2143,-3.347246185692,-11.0565582518541,-0.0115280544030725,-0.000608,-0.092653,-0.022487,0.007328,-4.317875,329.230171,19.974328,0.998285,0.981611,0.005732,0.398375,0.001063,0.001086,0.000122,0.001197,0.000951,47.723373,0.002153,
2236,2803,-0.511807481510388,3.35804941874721,-0.0233571677351847,0.009009,-0.088682,0.003118,0.371466,-4.026878,318.357004,20.425496,0.999534,0.988880,0.004147,0.469029,0.000067,0.000065,0.000004,0.000070,0.000062,39.134684,0.000132,
2116,2398,-3.05686161062102,-5.475034801095,-0.0197377928121227,0.004396,-0.089131,-0.013724,0.212639,-4.110390,325.190521,20.126682,0.998571,0.985123,0.005000,0.465966,0.000492,0.000324,0.000017,0.000494,0.000322,5.647954,0.000822,
2506,3238,5.28088180183931,12.8229032759197,0.0327390126681166,0.012106,-0.090042,0.013641,0.464689,-4.088539,311.907731,22.358975,0.999569,0.990880,0.003797,0.455187,0.000046,-0.000014,0.000052,0.000076,-0.000044,30.156711,0.000077,
2461,2773,4.38843996260472,2.71558898532585,-0.0328101395158455,0.008438,-0.089923,-0.000630,0.351688,-4.080187,318.741501,20.460790,0.999290,0.987586,0.004352,0.464582,0.000123,0.000055,0.000011,0.000125,0.000053,8.544536,0.000183,
2206,2638,-1.13621369411514,-0.23580034513612,-0.0224050898365817,0.007799,-0.088498,-0.001308,0.330738,-4.031091,321.078990,20.212886,0.998951,0.986630,0.004777,0.464665,0.000172,0.000077,0.000010,0.000173,0.000076,5.731092,0.000255,
2386,2143,2.87741349119537,-11.0630336583435,-0.0117389036698796,0.005600,-0.095254,-0.022124,0.297106,-4.432260,328.974932,18.259029,0.998505,0.972239,0.006307,0.393394,0.001156,0.001184,-0.000077,0.001248,0.001092,-50.231548,0.002342,
2161,2413,-2.07965325599002,-5.14672415386728,-0.017381812240842,0.004751,-0.089781,-0.008821,0.214063,-4.117026,324.789168,20.049851,0.998503,0.986139,0.004981,0.408239,0.000459,0.000312,0.000008,0.000460,0.000311,2.990210,0.000776,
2371,2023,2.57372071246261,-13.7011003028111,0.000843399251039045,0.005235,-0.098755,-0.028141,0.299750,-4.630674,331.008404,17.878406,0.997143,0.971233,0.007245,0.304775,0.001546,0.001423,-0.000085,0.001589,0.001380,-27.064217,0.002972,
2176,2608,-1.78443503243924,-0.889348052650007,-0.0307936145157441,0.007234,-0.088262,-0.005251,0.317717,-4.013295,321.573043,20.225253,0.998684,0.987726,0.004623,0.466886,0.000200,0.000095,0.000013,0.000202,0.000093,6.839626,0.000302,
2191,2683,-1.46985246929216,0.74309257439991,-0.0133399976198803,0.007602,-0.088871,0.001470,0.313156,-4.038126,320.451015,20.272254,0.999540,0.993159,0.003554,0.454211,0.000139,0.000072,-0.000007,0.000139,0.000072,-5.624802,0.000214,
2416,2353,3.49190853995104,-6.45777542201015,-0.0141086932370627,0.006440,-0.090532,-0.017966,0.323402,-4.184685,325.616948,19.025775,0.998110,0.980768,0.005481,0.406315,0.000618,0.000493,-0.000056,0.000639,0.000472,-21.018816,0.001115,
2311,3088,1.0715123106106,9.55182294509029,0.0324724594750592,0.010836,-0.089327,0.011889,0.423177,-4.063008,314.114586,21.122472,0.999698,0.995196,0.003039,0.402302,0.000020,0.000019,0.000010,0.000029,0.000009,42.872210,0.000040,
2356,2008,2.24852208909114,-14.0302447171686,-0.00600498675123617,0.005548,-0.099575,-0.029009,0.316218,-4.659009,331.202971,17.878297,0.996853,0.972479,0.007360,0.336891,0.001558,0.001439,-0.000066,0.001587,0.001410,-23.973917,0.002998,
2281,3058,0.423788970394774,8.89993972455729,0.0175132959569169,0.010201,-0.088899,0.010910,0.399084,-4.008395,314.487862,20.958663,0.999507,0.992676,0.003550,0.457000,0.000025,0.000031,0.000006,0.000035,0.000021,58.523743,0.000057,
2146,2278,-2.38543392677792,-8.09940198849372,-0.0206574914321891,0.003149,-0.090857,-0.017276,0.165772,-4.197723,326.948042,19.855220,0.998144,0.981004,0.005726,0.479062,0.000735,0.000651,0.000047,0.000756,0.000630,24.155032,0.001388,
2101,2368,-3.37851841571537,-6.13076917936173,-0.0139015024573723,0.004105,-0.088934,-0.013050,0.197230,-4.089905,325.776114,20.170335,0.998678,0.983419,0.005284,0.483002,0.000552,0.000400,0.000033,0.000559,0.000393,11.878030,0.000956,
2506,3253,5.2776975445543,13.1490772645878,0.0277567093352218,0.012349,-0.089894,0.012638,0.479920,-4.080445,311.634174,22.449221,0.999732,0.992640,0.003484,0.432642,0.000050,0.000001,0.000056,0.000087,-0.000036,33.390877,0.000088,
2161,2608,-2.11013775402627,-0.890704519685713,-0.0201721692670844,0.007163,-0.088365,-0.002875,0.307309,-4.011814,321.703598,20.247649,0.999168,0.990580,0.004231,0.461246,0.000207,0.000088,0.000014,0.000209,0.000086,6.619909,0.000303,
2131,2458,-2.73990161419007,-4.16105727989878,-0.0277117776869886,0.005514,-0.087962,-0.007711,0.246578,-3.998842,324.122543,20.278532,0.999076,0.988073,0.004736,0.407926,0.000388,0.000215,0.000007,0.000389,0.000214,2.203367,0.000611,
2251,2848,-0.193032281130563,4.33751232525583,-0.0169244825108308,0.009274,-0.088619,0.003123,0.383293,-4.008540,317.658985,20.525592,0.999351,0.991350,0.003888,0.469807,0.000051,0.000063,0.000016,0.000074,0.000040,55.769554,0.000116,
2446,2563,4.10470947810886,-1.8662458183111,-0.0156582185659886,0.008099,-0.090847,0.000562,0.331216,-4.103403,322.253538,19.717573,0.999397,0.988136,0.004565,0.438175,0.000305,0.000157,-0.000011,0.000306,0.000156,-4.359462,0.000470,
2116,2413,-3.05856973682098,-5.1458636595442,-0.0199089783241106,0.005094,-0.088510,-0.013794,0.245123,-4.076063,324.978417,20.244269,0.999150,0.987412,0.004658,0.387754,0.000471,0.000285,0.000014,0.000472,0.000284,4.310068,0.000764,
2326,3193,1.37968486802032,11.8300122873329,0.0444484442219277,0.011956,-0.089385,0.012369,0.472552,-4.048885,312.535261,21.342761,0.999652,0.994428,0.003288,0.484767,0.000026,0.000041,0.000020,0.000055,0.000011,55.058938,0.000071,
2431,2518,3.78756706331946,-2.85206876772293,-0.00971074496948177,0.007811,-0.090976,-0.008872,0.353045,-4.180463,323.031181,19.456016,0.998825,0.984409,0.004936,0.492245,0.000354,0.000203,-0.000035,0.000362,0.000195,-12.257188,0.000565,
2296,3088,0.745746256251685,9.55045094678594,0.0297700147662567,0.010979,-0.089437,0.010885,0.433955,-4.056596,314.117175,21.023767,0.999569,0.993125,0.003532,0.452536,0.000019,0.000019,0.000006,0.000025,0.000013,43.786602,0.000039,
2506,3268,5.27377868627968,13.4752202229695,0.0238420854829542,0.012138,-0.090263,0.015985,0.457138,-4.081098,311.331419,22.555844,0.999851,0.995456,0.002859,0.384905,0.000054,-0.000012,0.000047,0.000079,-0.000036,27.588176,0.000079,
2176,2503,-1.76796545338336,-3.18058936486987,-0.0262116726869976,0.005471,-0.088931,-0.009746,0.250273,-4.080489,323.244961,20.090253,0.998871,0.984611,0.005109,0.442151,0.000322,0.000209,0.000007,0.000322,0.000208,3.490208,0.000534,
2266,2953,0.116108865497321,6.61977536776548,0.000400628906277234,0.010201,-0.088422,0.005721,0.417069,-4.005844,316.099609,20.741057,0.999175,0.987329,0.004376,0.452789,0.000024,0.000027,0.000008,0.000034,0.000017,51.108293,0.000052,
2371,2038,2.57074730374438,-13.3715027735533,-0.00669797713595699,0.005619,-0.098452,-0.029238,0.321351,-4.612620,330.725804,17.838969,0.998029,0.975780,0.006554,0.407246,0.001489,0.001392,-0.000090,0.001543,0.001338,-30.793915,0.002883,
2221,2713,-0.822992875183431,1.39814999359099,-0.0208697922817009,0.008005,-0.089044,0.003310,0.324983,-4.028449,319.829685,20.285419,0.999120,0.989866,0.004017,0.480293,0.000120,0.000074,-0.000006,0.000121,0.000073,-7.048860,0.000196,
2146,2533,-2.42502150603415,-2.52670527303136,-0.025168145238581,0.006358,-0.089001,-0.004135,0.274109,-4.065593,322.899884,20.176812,0.998915,0.986861,0.004614,0.450282,0.000292,0.000164,0.000015,0.000294,0.000163,6.501535,0.000463,
2101,2158,-3.34848588230886,-10.7277507089749,-0.00425045379859057,0.000093,-0.091972,-0.021409,0.036594,-4.301432,329.078418,20.067127,0.998512,0.980763,0.005739,0.325472,0.001025,0.001001,0.000116,0.001130,0.000896,42.090769,0.002030,
2461,2788,4.38668078359536,3.04142781849245,-0.0242726800628361,0.008778,-0.089681,-0.003270,0.377309,-4.091557,318.594387,20.510572,0.999159,0.986434,0.004463,0.457629,0.000119,0.000057,0.000009,0.000120,0.000056,7.725273,0.000180,
2191,2548,-1.44806305593969,-2.19957630959662,-0.0146938013654676,0.006522,-0.089431,0.001042,0.264597,-4.054298,322.579727,20.096413,0.999307,0.989210,0.004335,0.477324,0.000266,0.000165,0.000022,0.000271,0.000160,11.538403,0.000436,
2116,2293,-3.04164603475394,-7.76908436086512,-0.0191067190577314,0.002654,-0.089447,-0.017080,0.142444,-4.095290,326.817990,20.112091,0.998484,0.984873,0.005185,0.458515,0.000721,0.000612,0.000071,0.000756,0.000577,26.249712,0.001337,
2416,2368,3.48972902260171,-6.13156395449143,-0.00823070069890264,0.006944,-0.091596,-0.015324,0.336431,-4.234712,325.437263,19.004730,0.998619,0.982798,0.005214,0.426600,0.000586,0.000458,-0.000053,0.000605,0.000439,-19.929758,0.001049,
2401,2158,3.20487968284581,-10.7355148461814,0.00223669492362433,0.007346,-0.094989,-0.019720,0.368798,-4.407200,328.936196,18.237083,0.998978,0.978680,0.005587,0.402702,0.001111,0.001114,-0.000100,0.001212,0.001013,-45.354279,0.002228,
2236,2818,-0.513837680721494,3.683381463786,-0.0116728697263966,0.009008,-0.088831,0.006211,0.361368,-4.022700,318.200824,20.441243,0.999527,0.990194,0.003997,0.478425,0.000063,0.000067,0.000004,0.000069,0.000060,58.992982,0.000129,
2506,3283,5.2706946361606,13.8001304416066,0.0180091945453569,0.012482,-0.090250,0.014190,0.479903,-4.097408,311.058870,22.557899,0.999846,0.995805,0.002724,0.426235,0.000052,-0.000019,0.000039,0.000069,-0.000036,23.750296,0.000069,
2356,2023,2.24533674790512,-13.7014378648915,-0.00420058689138614,0.005032,-0.098769,-0.029132,0.293418,-4.636381,330.953986,17.862392,0.996693,0.971220,0.007636,0.418039,0.001512,0.001428,-0.000057,0.001541,0.001400,-26.814495,0.002942,
2311,3103,1.06866758583831,9.87796491700827,0.0311176729406952,0.010756,-0.089096,0.010309,0.425135,-4.033658,313.859349,21.166746,0.999440,0.992680,0.003586,0.418700,0.000021,0.000023,0.000009,0.000031,0.000014,48.331010,0.000046,
2386,2158,2.87498992272087,-10.7338969410161,-0.00678051379884437,0.005922,-0.095443,-0.019086,0.300939,-4.437921,328.777843,18.383772,0.998913,0.978152,0.005802,0.308883,0.001107,0.001112,-0.000076,0.001186,0.001034,-46.003782,0.002221,
2146,2293,-2.38786206433901,-7.77158679738584,-0.0126055139650703,0.002836,-0.091061,-0.014119,0.141781,-4.198505,326.749418,19.926784,0.997964,0.982887,0.005529,0.416632,0.000706,0.000611,0.000049,0.000727,0.000590,23.033938,0.001320,
2506,3298,5.26799112821925,14.1252311161512,0.0206930735981246,0.012520,-0.090158,0.012798,0.487128,-4.098520,310.841958,22.612762,0.999767,0.993582,0.003194,0.429814,0.000036,-0.000029,0.000029,0.000047,-0.000040,20.815448,0.000051,
2161,2428,-2.08174155180946,-4.81858369444282,-0.0183191463630692,0.005189,-0.089455,-0.009051,0.234998,-4.102628,324.559636,20.091554,0.998896,0.986766,0.004751,0.392561,0.000437,0.000277,0.000009,0.000438,0.000276,3.148761,0.000720,
2131,2473,-2.74225457822935,-3.83524276446313,-0.0218923880088937,0.005306,-0.088713,-0.006140,0.232060,-4.033998,323.915087,20.234394,0.999075,0.986992,0.004836,0.423788,0.000370,0.000216,0.000011,0.000371,0.000215,3.906049,0.000593,
2281,3073,0.421473227418595,9.22633605637508,0.0122613297305065,0.010854,-0.088845,0.008885,0.435982,-4.015503,314.235225,21.029932,0.999526,0.992501,0.003639,0.405631,0.000023,0.000030,0.000006,0.000033,0.000019,59.693866,0.000053,
2176,2623,-1.7870107088815,-0.563249734557338,-0.0270243762560654,0.007149,-0.088756,-0.001921,0.303278,-4.037573,321.347468,20.223428,0.998989,0.987784,0.004567,0.457194,0.000189,0.000077,0.000007,0.000189,0.000076,3.399690,0.000274,
2131,2308,-2.71715238706379,-7.44249776036418,-0.0128842946051009,0.002831,-0.090250,-0.011799,0.134769,-4.152582,326.557329,20.051132,0.998599,0.984321,0.005273,0.407998,0.000674,0.000570,0.000043,0.000689,0.000555,19.710790,0.001246,
2446,2578,4.10077933730482,-1.53787640974222,-0.0216875409747104,0.008430,-0.091463,0.009882,0.311519,-4.085465,321.939126,19.785698,0.999484,0.990876,0.004215,0.441526,0.000289,0.000156,-0.000007,0.000290,0.000156,-3.136362,0.000452,
2461,2803,4.38269853558392,3.36936854146649,-0.0283144767474823,0.008723,-0.090189,0.003537,0.349023,-4.082000,318.286832,20.639334,0.999228,0.986812,0.004472,0.393056,0.000112,0.000057,0.000011,0.000114,0.000055,11.025890,0.000172,
2101,2383,-3.38092039528629,-5.80197337143556,-0.0210621211645616,0.004589,-0.089134,-0.012102,0.216613,-4.132852,325.493745,20.252521,0.998425,0.982988,0.005290,0.361009,0.000529,0.000357,0.000029,0.000534,0.000352,9.435289,0.000893,
2206,2653,-1.13954364784743,0.0905647992670637,-0.0258930690170587,0.007532,-0.089480,0.002202,0.307016,-4.059770,320.783368,20.187766,0.999006,0.986453,0.004834,0.478384,0.000162,0.000074,0.000008,0.000163,0.000074,4.961886,0.000242,
2176,2518,-1.76969695489124,-2.85348728507851,-0.0229382726915333,0.006300,-0.088910,-0.005751,0.276007,-4.062010,323.055165,20.101441,0.998808,0.986352,0.004866,0.462664,0.000300,0.000198,0.000016,0.000303,0.000196,8.597428,0.000502,
2431,2533,3.78443145669651,-2.52284028541304,-0.0111374386090688,0.007757,-0.090560,-0.009093,0.351616,-4.152072,322.773266,19.617346,0.999072,0.987508,0.004581,0.410395,0.000338,0.000187,-0.000032,0.000344,0.000180,-11.550280,0.000533,
2326,3208,1.37728526056506,12.1557043050444,0.0496142176683634,0.012125,-0.088822,0.014353,0.473676,-4.026821,312.333440,21.418021,0.999600,0.993136,0.003387,0.464698,0.000027,0.000040,0.000020,0.000055,0.000012,54.321894,0.000071,
2191,2698,-1.47208729120863,1.06919473927054,-0.0166596998651016,0.008075,-0.088412,0.000485,0.338201,-4.016805,320.205092,20.187964,0.999604,0.994645,0.003248,0.574673,0.000126,0.000067,-0.000007,0.000127,0.000066,-7.105893,0.000196,
2116,2428,-3.0614991254939,-4.81964586822107,-0.0133088973587974,0.004531,-0.089168,-0.007574,0.200648,-4.077417,324.747544,20.196490,0.999136,0.987799,0.004597,0.439021,0.000448,0.000250,0.000017,0.000449,0.000249,5.009974,0.000707,
2371,2053,2.56816768831834,-13.0408185846841,-0.00222795034096634,0.005699,-0.097772,-0.027467,0.319067,-4.585041,330.518195,18.030014,0.998300,0.978439,0.006110,0.287944,0.001439,0.001378,-0.000083,0.001497,0.001320,-34.898078,0.002819,
2251,2863,-0.195559104126843,4.66313873381947,-0.015588857351247,0.009402,-0.089002,0.004285,0.385241,-4.035060,317.428222,20.532641,0.999512,0.991601,0.003708,0.459313,0.000047,0.000062,0.000011,0.000068,0.000042,62.122152,0.000111,
2266,2968,0.113372083197554,6.94560960965003,-0.00229402722283112,0.010191,-0.088649,0.003373,0.424316,-4.016795,315.839676,20.751891,0.999345,0.990496,0.003954,0.456072,0.000021,0.000026,0.000008,0.000031,0.000016,53.033465,0.000048,
2221,2728,-0.825250066950371,1.72456188850939,-0.0197939923752415,0.008148,-0.088937,0.001430,0.337636,-4.036060,319.607759,20.304403,0.999146,0.989857,0.003974,0.472780,0.000108,0.000066,-0.000009,0.000110,0.000064,-11.962814,0.000176,
2296,3103,0.743332710330751,9.87635560637852,0.0320494348915759,0.011089,-0.089232,0.010001,0.442116,-4.050225,313.898813,21.091913,0.999306,0.990874,0.003987,0.419546,0.000019,0.000022,0.000005,0.000025,0.000015,55.448086,0.000041,
2236,2833,-0.516375259715151,4.01062529547207,-0.0143644064274895,0.009191,-0.088740,0.004579,0.375217,-3.998292,317.947455,20.506526,0.999481,0.990785,0.003812,0.458459,0.000053,0.000058,0.000010,0.000066,0.000045,50.858692,0.000112,
2416,2383,3.4878653081517,-5.80335067563042,0.00165694007756656,0.007431,-0.091702,-0.012963,0.350112,-4.216136,325.290155,19.141289,0.999468,0.986670,0.004716,0.357641,0.000556,0.000431,-0.000055,0.000576,0.000410,-20.714054,0.000991,
2146,2548,-2.4270748859036,-2.19999424654937,-0.0223573823827223,0.006499,-0.088615,-0.005310,0.284277,-4.038428,322.690787,20.148001,0.998726,0.985090,0.004838,0.515052,0.000283,0.000145,0.000018,0.000285,0.000143,7.347554,0.000436,
2161,2623,-2.11364493118084,-0.562858203543712,-0.0266329303260591,0.006819,-0.088609,0.000582,0.280824,-4.021737,321.379962,20.303516,0.999353,0.990558,0.004136,0.406403,0.000196,0.000070,0.000008,0.000197,0.000070,3.482712,0.000276,
2311,3118,1.066255556065,10.2041070558612,0.0264664618443931,0.011043,-0.088464,0.004560,0.458278,-4.024224,313.607713,21.214451,0.999232,0.991132,0.003933,0.411747,0.000027,0.000028,0.000011,0.000039,0.000016,46.957006,0.000057,
2101,2173,-3.35067393801063,-10.3979734816382,-0.0134836163731507,0.000690,-0.091527,-0.023714,0.070810,-4.268005,328.794191,20.060633,0.998436,0.982181,0.005560,0.369661,0.000986,0.000962,0.000116,0.001091,0.000857,42.137405,0.001953,
2206,2758,-1.15615519139302,2.37762577060899,-0.0212599717037278,0.008629,-0.088619,0.001606,0.359711,-4.029091,319.169229,20.381543,0.999370,0.989954,0.004043,0.434214,0.000085,0.000065,-0.000011,0.000090,0.000060,-23.612960,0.000151,
2401,2173,3.20115311404033,-10.405481535633,-0.00543502008923724,0.007007,-0.094461,-0.021539,0.360120,-4.391083,328.620993,18.292019,0.998783,0.980758,0.005522,0.412701,0.001060,0.001072,-0.000098,0.001163,0.000968,-46.734665,0.002134,
2191,2563,-1.45007072412754,-1.8732373702857,-0.00949877480815076,0.006625,-0.089263,-0.000016,0.272733,-4.039809,322.388517,20.071802,0.999221,0.988960,0.004272,0.531863,0.000256,0.000159,0.000021,0.000261,0.000154,11.490109,0.000420,
2461,2818,4.38049755435155,3.69459467864125,-0.019653850149723,0.009012,-0.090463,0.005773,0.353728,-4.092548,318.119957,20.640296,0.999204,0.986373,0.004609,0.435540,0.000101,0.000049,0.000016,0.000106,0.000045,15.982046,0.000154,
2176,2638,-1.78900899537929,-0.236721711859765,-0.025872221556881,0.007688,-0.088828,-0.000532,0.323753,-4.036424,321.134479,20.217505,0.999340,0.989549,0.004239,0.477073,0.000177,0.000062,0.000004,0.000177,0.000062,2.148396,0.000248,
2146,2308,-2.38978293104566,-7.44376838624181,-0.00907249534469656,0.003066,-0.090542,-0.014881,0.154812,-4.194744,326.550090,19.952843,0.998462,0.983256,0.005389,0.403982,0.000667,0.000567,0.000035,0.000678,0.000556,17.510209,0.001236,
2281,3088,0.419553580232716,9.55053498043824,0.0221815460533321,0.010761,-0.088909,0.006470,0.439739,-4.028592,314.077426,21.006196,0.999650,0.992541,0.003687,0.443125,0.000021,0.000020,-0.000001,0.000021,0.000020,-21.234906,0.000041,
2161,2443,-2.08438444158885,-4.49221563910233,-0.0116031593677235,0.004931,-0.089855,-0.003670,0.206554,-4.095680,324.345360,20.055457,0.998962,0.986750,0.004794,0.447120,0.000406,0.000247,0.000007,0.000406,0.000247,2.380835,0.000659,
2446,2593,4.09787291670019,-1.21104808022805,-0.0274182568555261,0.008293,-0.090870,0.001401,0.337060,-4.116761,321.673477,19.769618,0.999584,0.991972,0.004002,0.479326,0.000272,0.000145,-0.000004,0.000272,0.000145,-1.914072,0.000423,
2356,2038,2.24378475101648,-13.3710510253527,-0.0056311836186751,0.006260,-0.098098,-0.031280,0.357419,-4.609937,330.764048,17.955228,0.997938,0.976595,0.006451,0.393652,0.001461,0.001402,-0.000067,0.001505,0.001358,-32.998800,0.002864,
2131,2323,-2.71884286993512,-7.11416803538076,-0.0111339175804233,0.003321,-0.089520,-0.013578,0.162797,-4.126061,326.357723,20.088099,0.998910,0.984837,0.005088,0.404898,0.000644,0.000525,0.000030,0.000651,0.000518,13.619190,0.001171,
2386,2173,2.87237689299145,-10.4048978424897,-0.0147300071648715,0.006507,-0.094499,-0.023017,0.342178,-4.417257,328.510869,18.337026,0.999142,0.981384,0.005541,0.422464,0.001055,0.001070,-0.000076,0.001139,0.000986,-47.855337,0.002127,
2101,2398,-3.38307461214925,-5.47536035359629,-0.0134688066162312,0.004480,-0.089123,-0.009407,0.203770,-4.122189,325.302548,20.229069,0.998520,0.984050,0.005028,0.397848,0.000500,0.000317,0.000026,0.000503,0.000313,7.930739,0.000824,
2371,2068,2.5652138043738,-12.7109051795921,-0.00675184404070706,0.005841,-0.096397,-0.028870,0.331063,-4.512300,330.250406,18.010603,0.998643,0.979841,0.005716,0.425059,0.001387,0.001353,-0.000076,0.001449,0.001292,-38.719679,0.002742,
2176,2533,-1.77212910904193,-2.52624879087739,-0.0223848689078068,0.006360,-0.088878,-0.005519,0.278070,-4.057410,322.819067,20.119072,0.998560,0.987051,0.004704,0.463066,0.000278,0.000178,0.000015,0.000280,0.000175,8.507616,0.000460,
2221,2833,-0.842389708474943,4.00904958215099,-0.0104778942077246,0.008916,-0.088751,0.005306,0.360709,-4.017390,318.001325,20.463936,0.999391,0.990613,0.003873,0.464499,0.000052,0.000058,0.000004,0.000060,0.000050,63.538565,0.000111,
2251,2878,-0.19789044454588,4.98938589852906,-0.0120011569268286,0.009589,-0.089061,0.005742,0.388997,-4.052370,317.217619,20.608232,0.999612,0.990616,0.003740,0.389414,0.000039,0.000052,0.000010,0.000058,0.000033,62.419891,0.000092,
2131,2488,-2.74433209799535,-3.5094832863073,-0.0227246693153234,0.005793,-0.089350,-0.004790,0.250176,-4.079272,323.684859,20.138312,0.999064,0.985890,0.004954,0.481344,0.000353,0.000204,0.000007,0.000353,0.000204,2.866609,0.000564,
2311,3133,1.06310152087159,10.5290548037027,0.0312684374561059,0.010770,-0.088937,0.010686,0.424555,-4.030346,313.368963,21.230616,0.999413,0.991999,0.003710,0.420501,0.000024,0.000031,0.000014,0.000042,0.000013,52.771381,0.000057,
2326,3223,1.37404588545873,12.4806995650392,0.0465848894264127,0.011930,-0.089374,0.014426,0.464160,-4.067302,312.052972,21.447562,0.999492,0.992458,0.003367,0.427430,0.000026,0.000039,0.000019,0.000053,0.000012,54.891143,0.000069,
2266,2983,0.110736396907601,7.27088477515886,0.00227994197712178,0.010243,-0.089181,0.007763,0.411984,-4.028029,315.621126,20.765998,0.999449,0.992078,0.003859,0.455588,0.000022,0.000034,0.000006,0.000036,0.000019,66.543602,0.000056,
2461,2833,4.37711600176131,4.02328677110145,-0.0311638819294444,0.009276,-0.089781,0.001719,0.381429,-4.083656,317.805513,20.791276,0.999477,0.989722,0.003993,0.348204,0.000098,0.000053,0.000019,0.000105,0.000046,19.923917,0.000155,
2146,2563,-2.42948163129827,-1.87232458726408,-0.019732088311514,0.006304,-0.087902,-0.006487,0.279086,-4.021821,322.464316,20.220319,0.998583,0.984726,0.004918,0.468168,0.000269,0.000132,0.000014,0.000270,0.000131,5.878203,0.000409,
2221,2743,-0.828638416907651,2.05149501029237,-0.0224038507427622,0.007982,-0.089514,0.007513,0.310281,-4.047789,319.314870,20.350468,0.999138,0.989099,0.004204,0.434180,0.000097,0.000067,-0.000010,0.000100,0.000064,-16.505770,0.000165,
2116,2443,-3.06395794327744,-4.49344291124703,-0.0137601484645415,0.004660,-0.089205,-0.004917,0.198753,-4.059136,324.500352,20.065603,0.999160,0.988569,0.004573,0.592951,0.000416,0.000215,0.000012,0.000417,0.000214,3.354323,0.000642,
2161,2638,-2.11599386528961,-0.235929675351002,-0.0261385616508392,0.007142,-0.088737,0.003681,0.286149,-4.006403,321.146158,20.314373,0.999707,0.992699,0.003700,0.421426,0.000184,0.000056,0.000005,0.000185,0.000056,2.316405,0.000252,
2236,2848,-0.519387188645123,4.33694871116761,-0.0233931726774017,0.009370,-0.088898,0.003302,0.387518,-4.029397,317.640325,20.499914,0.999378,0.990959,0.003794,0.455086,0.000048,0.000057,0.000015,0.000068,0.000036,53.048332,0.000106,
2206,2668,-1.14199121924348,0.418332566749243,-0.0270948993231741,0.007309,-0.088576,-0.004133,0.317141,-4.041034,320.539488,20.268031,0.999410,0.991515,0.003926,0.434143,0.000153,0.000083,0.000001,0.000153,0.000083,0.777850,0.000240,
2431,2548,3.78179401764642,-2.19529595950759,-0.00186496082375243,0.007812,-0.090423,-0.003330,0.332924,-4.118669,322.588041,19.719399,0.999551,0.989336,0.004161,0.392469,0.000319,0.000155,-0.000023,0.000322,0.000152,-7.770552,0.000484,
2446,2608,4.09546112696023,-0.884209051067543,-0.0168275141518279,0.008039,-0.091110,0.001642,0.324425,-4.123117,321.505535,19.875772,0.999198,0.987963,0.004450,0.419378,0.000255,0.000131,-0.000005,0.000255,0.000131,-2.511259,0.000392,
2416,2398,3.48405069315816,-5.47610648079077,-0.00345328955330615,0.007442,-0.092468,-0.007075,0.328809,-4.239042,324.983802,19.090632,0.999404,0.986261,0.004825,0.435056,0.000525,0.000409,-0.000053,0.000546,0.000388,-21.287401,0.000939,
2296,3118,0.740565329629153,10.2018603205583,0.032315286086714,0.011147,-0.089324,0.011184,0.440739,-4.056797,313.654270,21.127268,0.999494,0.992666,0.003613,0.406693,0.000024,0.000024,0.000007,0.000031,0.000017,46.733989,0.000049,
2356,2053,2.24106631524203,-13.0424032016134,0.00887566616398772,0.005420,-0.097537,-0.029093,0.311542,-4.564895,330.597128,18.055237,0.998551,0.979263,0.005763,0.380891,0.001415,0.001391,-0.000062,0.001466,0.001339,-39.558065,0.002806,
2206,2773,-1.15855622268485,2.70427210254556,-0.0191438987898778,0.008629,-0.088669,0.001028,0.361541,-4.034470,318.944831,20.441041,0.999355,0.989390,0.004204,0.386051,0.000078,0.000061,-0.000009,0.000082,0.000057,-22.820770,0.000140,
2176,2653,-1.79260915976315,0.0917058699914151,-0.039240468055084,0.007322,-0.088433,-0.003482,0.316172,-4.049362,320.771637,20.282569,0.999485,0.989448,0.004206,0.412309,0.000165,0.000062,0.000001,0.000165,0.000062,0.519770,0.000234,
2401,2188,3.19838556985754,-10.0759397355766,-0.00275539982573036,0.006855,-0.093754,-0.022738,0.357791,-4.357886,328.398219,18.400632,0.998724,0.982759,0.005435,0.385454,0.001012,0.001042,-0.000092,0.001120,0.000934,-49.753379,0.002057,
2161,2458,-2.08698639835489,-4.16426266105467,-0.0170113563639802,0.005027,-0.089412,-0.005813,0.217700,-4.066931,324.068782,20.033791,0.998987,0.987541,0.004645,0.509068,0.000379,0.000231,0.000009,0.000380,0.000231,3.623528,0.000616,
2101,2413,-3.3854269252299,-5.14680368409931,-0.0147483430786792,0.004578,-0.088560,-0.009393,0.208444,-4.066882,325.053831,20.258411,0.998864,0.985883,0.004781,0.426773,0.000479,0.000276,0.000023,0.000481,0.000273,6.416541,0.000764,
2281,3103,0.416890461525881,9.87647384395029,0.0222754685882478,0.011111,-0.088753,0.010404,0.442779,-4.014530,313.835632,21.056384,0.999604,0.992845,0.003566,0.433669,0.000020,0.000024,-0.000001,0.000024,0.000020,-73.701490,0.000045,
2191,2578,-1.45292106692297,-1.54594251538059,-0.0146309333484851,0.006631,-0.089093,-0.000578,0.274858,-4.035201,322.104860,20.058426,0.999286,0.990386,0.004024,0.565327,0.000234,0.000140,0.000021,0.000238,0.000135,12.178168,0.000379,
2146,2323,-2.39215746333257,-7.11459977457305,-0.0116654005521468,0.003345,-0.089792,-0.014281,0.166061,-4.157456,326.297209,20.012727,0.998900,0.983751,0.005282,0.391508,0.000638,0.000524,0.000024,0.000643,0.000519,11.529891,0.001165,
2101,2188,-3.35366483836286,-10.0698334204821,-0.00923249857311248,0.000314,-0.091798,-0.015133,0.028462,-4.236356,328.546213,20.055610,0.998069,0.982117,0.005727,0.410588,0.000948,0.000936,0.000119,0.001061,0.000823,43.535108,0.001889,
2191,2713,-1.47578142731694,1.3982079691546,-0.0312320287544594,0.007971,-0.088667,0.000858,0.332172,-4.031317,319.833023,20.320365,0.999206,0.989860,0.004030,0.442916,0.000115,0.000063,-0.000009,0.000116,0.000061,-9.479049,0.000181,
2221,2848,-0.845377663857992,4.3358155227581,-0.0170406471507363,0.008942,-0.088834,0.004373,0.364875,-4.023663,317.706351,20.491173,0.999330,0.990884,0.003760,0.449698,0.000047,0.000056,0.000009,0.000061,0.000041,58.404061,0.000103,
2176,2548,-1.77475761608106,-2.19936494845945,-0.022746196995115,0.006547,-0.089567,-0.001460,0.273884,-4.073936,322.569334,20.121894,0.998850,0.986920,0.004638,0.456921,0.000268,0.000160,0.000018,0.000271,0.000157,9.224918,0.000432,
2371,2083,2.56206668017143,-12.380604185213,-0.00805804767639984,0.005853,-0.096077,-0.026418,0.323097,-4.474012,329.989178,18.102686,0.998652,0.978124,0.005894,0.415856,0.001337,0.001333,-0.000076,0.001411,0.001259,-44.296709,0.002671,
2131,2338,-2.72169332954268,-6.78642458134497,-0.0093014665269493,0.003036,-0.089756,-0.009414,0.137201,-4.117836,326.105702,20.095615,0.999116,0.985954,0.004846,0.413384,0.000603,0.000488,0.000020,0.000607,0.000484,9.637451,0.001093,
2206,2683,-1.14418997365548,0.745071031343336,-0.0253268648476137,0.007795,-0.088454,-0.000818,0.329081,-4.020901,320.322592,20.281768,0.999567,0.993111,0.003643,0.457548,0.000138,0.000081,-0.000004,0.000138,0.000081,-4.425570,0.000222,
2251,2893,-0.200399012450912,5.31487405733036,-0.00494884429252807,0.009322,-0.088973,0.006823,0.373256,-4.025503,317.016553,20.599049,0.999613,0.991380,0.003691,0.448357,0.000034,0.000043,0.000013,0.000052,0.000025,53.856021,0.000079,
2131,2503,-2.74701105053193,-3.18144103636729,-0.0312244564237858,0.006093,-0.088817,-0.004875,0.264434,-4.049997,323.385431,20.112202,0.998828,0.985091,0.004972,0.543925,0.000337,0.000186,0.000009,0.000337,0.000186,3.371010,0.000530,
2311,3148,1.060515805215,10.8545386257934,0.0313128657874131,0.010990,-0.088932,0.011042,0.433527,-4.024452,313.132647,21.258343,0.999524,0.991547,0.003811,0.429582,0.000018,0.000033,0.000015,0.000043,0.000009,58.204040,0.000055,
2236,2908,-0.528386866431603,5.64051386776367,-0.00105757897517833,0.009414,-0.088515,0.003967,0.387561,-4.013173,316.849846,20.651482,0.999614,0.992245,0.003673,0.402565,0.000030,0.000031,0.000009,0.000039,0.000022,46.786657,0.000062,
2266,2998,0.108432085696776,7.596304493495,0.00970365650113081,0.010191,-0.088992,0.008996,0.405521,-4.035270,315.432079,20.812235,0.999332,0.990876,0.003905,0.426838,0.000024,0.000031,0.000001,0.000031,0.000023,79.025553,0.000055,
2416,2413,3.48115054204498,-5.14595324429682,-0.0102127463720194,0.007942,-0.091817,-0.008328,0.356608,-4.199051,324.710958,19.233357,0.999421,0.986738,0.004780,0.382188,0.000490,0.000375,-0.000043,0.000504,0.000361,-18.229256,0.000869,
2236,2863,-0.521382734442216,4.66293590443087,-0.013300117633662,0.009551,-0.088755,0.006804,0.384566,-4.007219,317.477348,20.556719,0.999348,0.990816,0.003716,0.441213,0.000045,0.000056,0.000010,0.000062,0.000039,58.747579,0.000102,
2446,2623,4.09302305930524,-0.556810307936175,-0.0127456871549043,0.008301,-0.090546,0.002063,0.335146,-4.093325,321.306151,19.944726,0.999401,0.988060,0.004274,0.433000,0.000240,0.000121,-0.000014,0.000241,0.000119,-6.457865,0.000367,
2386,2188,2.86943589878112,-10.0756931584151,-0.00271932466921498,0.006255,-0.095032,-0.013720,0.297168,-4.362862,328.323002,18.492809,0.998607,0.981166,0.005612,0.367039,0.001006,0.001040,-0.000074,0.001099,0.000946,-51.451457,0.002047,
2221,2758,-0.830574571157708,2.3786157484053,-0.0246482199368643,0.008533,-0.088842,0.003508,0.348792,-4.009654,319.090290,20.371555,0.999340,0.989650,0.004048,0.470287,0.000085,0.000067,-0.000006,0.000086,0.000066,-16.774515,0.000152,
2431,2563,3.77918206926293,-1.86818293728312,-0.00470670153629271,0.008796,-0.091171,0.001498,0.359980,-4.123376,322.347967,19.716469,0.999265,0.988551,0.004401,0.441951,0.000299,0.000157,-0.000009,0.000300,0.000157,-3.661078,0.000464,
2116,2458,-3.06574818447274,-4.16362183249329,-0.0187647722997895,0.005379,-0.088527,-0.008359,0.242187,-4.052233,324.258524,20.239516,0.999189,0.988337,0.004523,0.430932,0.000390,0.000202,0.000009,0.000391,0.000201,2.750238,0.000602,
2326,3238,1.37054995676054,12.8078236687815,0.0351789230275585,0.011969,-0.088716,0.012590,0.472597,-4.042970,311.718769,21.565510,0.999480,0.991745,0.003494,0.367062,0.000025,0.000031,0.000017,0.000045,0.000011,49.856518,0.000059,
2161,2473,-2.08871729945121,-3.83612390236558,-0.0168035331112151,0.005636,-0.088836,-0.007750,0.251791,-4.051061,323.861599,20.099339,0.998940,0.985601,0.005043,0.470751,0.000362,0.000231,0.000013,0.000363,0.000229,5.742455,0.000598,
2281,3118,0.41363457198015,10.2017378515467,0.0229043578659116,0.010898,-0.089449,0.015252,0.416414,-4.049338,313.569474,21.100527,0.999745,0.994356,0.003233,0.381372,0.000024,0.000027,0.000001,0.000027,0.000024,67.170961,0.000051,
2401,2203,3.19548584141517,-9.74835960635962,-8.88227401674158E-05,0.006907,-0.094231,-0.019596,0.348663,-4.368142,328.169690,18.378276,0.998502,0.981389,0.005693,0.445588,0.000967,0.000975,-0.000084,0.001055,0.000886,-46.306885,0.001944,
2356,2068,2.23804961414845,-12.712476411783,0.011172837631193,0.005346,-0.096917,-0.025362,0.295312,-4.508985,330.357807,18.128766,0.998495,0.978984,0.005832,0.405746,0.001365,0.001364,-0.000058,0.001423,0.001306,-44.693008,0.002730,
2206,2788,-1.16094792384219,3.03034652071096,-0.0214713082124831,0.008985,-0.088490,0.001054,0.377888,-4.032447,318.698031,20.410247,0.999081,0.987566,0.004488,0.435694,0.000066,0.000061,-0.000007,0.000071,0.000056,-34.549970,0.000127,
2146,2578,-2.43233794592328,-1.54436797497933,-0.0275465637338925,0.006627,-0.088133,-0.003546,0.285040,-4.001119,322.161867,20.227994,0.998926,0.987355,0.004631,0.490089,0.000247,0.000114,0.000016,0.000249,0.000112,6.737271,0.000369,
2146,2338,-2.39466896862463,-6.78632717723999,-0.0141413417670151,0.003577,-0.089794,-0.012216,0.170453,-4.135448,326.038915,20.012626,0.999001,0.985767,0.004896,0.423474,0.000599,0.000488,0.000015,0.000601,0.000486,7.384333,0.001089,
2101,2203,-3.3554386757774,-9.74168161602066,-0.00836263970046502,0.000934,-0.092054,-0.013461,0.051941,-4.253645,328.335867,20.069416,0.997649,0.979927,0.005875,0.383109,0.000915,0.000888,0.000113,0.001015,0.000787,41.534276,0.001808,
2101,2428,-3.38821544917002,-4.81951950695971,-0.01262954294765,0.004409,-0.089230,-0.003351,0.182819,-4.062342,324.803982,20.259286,0.999255,0.987425,0.004488,0.433163,0.000456,0.000241,0.000028,0.000460,0.000238,7.343940,0.000709,
2161,2653,-2.11879705785019,0.0917012066000069,-0.0382146230214744,0.007177,-0.087803,-0.003280,0.309381,-4.012950,320.825212,20.310488,0.999621,0.991445,0.003822,0.429726,0.000172,0.000058,0.000001,0.000172,0.000058,0.497926,0.000239,
2296,3133,0.737584573225629,10.5273190172949,0.0325489108545298,0.011064,-0.089264,0.013315,0.429793,-4.040581,313.399711,21.139382,0.999695,0.994303,0.003298,0.439708,0.000019,0.000028,0.000009,0.000033,0.000013,57.807060,0.000048,
2386,2203,2.8662949386354,-9.74609356382898,-0.0101305376601886,0.006560,-0.094896,-0.014121,0.312635,-4.350860,328.034234,18.526789,0.997892,0.978930,0.005963,0.391303,0.000963,0.000976,-0.000068,0.001038,0.000901,-47.644084,0.001940,
2191,2728,-1.47726919083182,1.72424609629556,-0.0284633566819252,0.008582,-0.088407,-0.003017,0.372505,-4.040079,319.653053,20.319909,0.999277,0.989133,0.004070,0.449260,0.000106,0.000057,-0.000012,0.000109,0.000054,-13.625799,0.000166,
2131,2353,-2.72371828587476,-6.45762217182931,-0.0154835633974812,0.003652,-0.089251,-0.012162,0.173887,-4.115798,325.848580,20.132269,0.999068,0.985351,0.004861,0.386457,0.000568,0.000436,0.000019,0.000571,0.000433,8.250629,0.001007,
2176,2668,-1.79403769540273,0.416647723903147,-0.0210333471026729,0.007353,-0.088700,-0.000943,0.309647,-4.042155,320.674355,20.277104,0.999533,0.991913,0.003745,0.437270,0.000156,0.000069,-0.000004,0.000156,0.000069,-2.355585,0.000230,
2371,2098,2.55828725547832,-12.0519917629722,-0.00549179513643594,0.005345,-0.097245,-0.018627,0.271854,-4.504253,329.717892,18.157483,0.998683,0.976753,0.006048,0.375288,0.001286,0.001307,-0.000074,0.001372,0.001222,-49.051665,0.002595,
2131,2518,-2.74906285884792,-2.85462494177983,-0.0189208271774532,0.005819,-0.088828,-0.002569,0.244929,-4.046788,323.225943,20.193503,0.998874,0.985637,0.004848,0.472329,0.000313,0.000172,0.000016,0.000315,0.000170,6.368584,0.000492,
2191,2593,-1.45587462987536,-1.21781792923949,-0.019212538255772,0.006578,-0.089279,-0.000075,0.270752,-4.061090,321.819185,20.161748,0.998677,0.987469,0.004573,0.451442,0.000218,0.000115,0.000018,0.000221,0.000112,9.773753,0.000339,
2266,3013,0.106326762762301,7.92110270854945,0.0152726065010711,0.010513,-0.089287,0.010784,0.414360,-4.034372,315.243005,20.783706,0.999370,0.990497,0.003820,0.481189,0.000024,0.000022,0.000000,0.000024,0.000022,5.932807,0.000046,
2326,3253,1.36689691148736,13.1327990178111,0.026386925714462,0.012023,-0.089131,0.015689,0.464331,-4.040411,311.390850,21.527008,0.999493,0.991437,0.003556,0.441293,0.000023,0.000024,0.000017,0.000040,0.000007,45.841330,0.000051,
2416,2428,3.4769482077823,-4.81736441651189,-0.0162186731301972,0.007049,-0.091597,-0.009849,0.321362,-4.199384,324.382169,19.286433,0.999231,0.986182,0.004863,0.378319,0.000473,0.000335,-0.000033,0.000481,0.000328,-12.867889,0.000813,
2176,2563,-1.77771942833039,-1.87128286512429,-0.0239889732384881,0.006142,-0.088935,-0.002134,0.257562,-4.061111,322.299319,20.202339,0.998804,0.985533,0.004778,0.402556,0.000255,0.000150,0.000016,0.000257,0.000147,8.324053,0.000410,
2236,2878,-0.522922036590579,4.98753119017618,-0.00177039427535419,0.009745,-0.088891,0.005518,0.397527,-4.034637,317.343140,20.548426,0.999528,0.991506,0.003618,0.442789,0.000035,0.000047,0.000007,0.000051,0.000031,64.939262,0.000083,
2221,2863,-0.847932499759075,4.66243442631539,-0.0162180574416197,0.009016,-0.088487,0.005334,0.365300,-4.012789,317.469157,20.547848,0.999369,0.991370,0.003642,0.422638,0.000046,0.000053,0.000005,0.000055,0.000043,65.220107,0.000099,
2311,3163,1.05865028177108,11.1789354711031,0.0403597984133626,0.011379,-0.089295,0.013029,0.444466,-4.046799,312.974267,21.272072,0.999609,0.992622,0.003597,0.424792,0.000019,0.000035,0.000014,0.000043,0.000010,59.339242,0.000057,
2221,2773,-0.83289364983165,2.70421082829493,-0.0175185470140491,0.008366,-0.088818,0.004121,0.339106,-4.026199,318.896763,20.385477,0.999338,0.989174,0.004143,0.458471,0.000077,0.000064,-0.000003,0.000077,0.000063,-10.832888,0.000140,
2206,2698,-1.14768613602432,1.07202985808827,-0.0343439171813316,0.007701,-0.088420,0.002036,0.315701,-4.015668,319.990469,20.246762,0.999352,0.991964,0.003745,0.515061,0.000128,0.000075,-0.000004,0.000128,0.000075,-4.166440,0.000205,
2236,2923,-0.531821203505576,5.96554287599876,-0.00553693218313356,0.009349,-0.088929,0.009732,0.365731,-4.019291,316.546715,20.557213,0.999621,0.992671,0.003592,0.511662,0.000027,0.000025,0.000003,0.000029,0.000023,39.405517,0.000052,
2146,2593,-2.43432832592867,-1.21693830887428,-0.0346566074784391,0.007138,-0.087459,-0.010097,0.328588,-4.001213,321.902992,20.219910,0.998842,0.987368,0.004774,0.506851,0.000234,0.000099,0.000016,0.000236,0.000098,6.550734,0.000343,
2431,2578,3.77603729311452,-1.53987964131585,-0.0031705005474123,0.008963,-0.091282,0.007130,0.346894,-4.090639,322.103302,19.828947,0.999577,0.992299,0.003962,0.412937,0.000286,0.000158,-0.000004,0.000286,0.000158,-1.760812,0.000450,
2401,2218,3.19209015764057,-9.41711154774343,-0.0046796865975125,0.006623,-0.093367,-0.021965,0.344583,-4.325288,327.883629,18.567297,0.998766,0.982636,0.005658,0.348036,0.000928,0.000933,-0.000080,0.001010,0.000851,-45.849767,0.001863,
2116,2473,-3.06857024257915,-3.83589912048412,-0.0224574397186643,0.005184,-0.088606,-0.008563,0.233772,-4.063559,323.977067,20.257552,0.999204,0.988243,0.004455,0.406500,0.000371,0.000205,0.000013,0.000372,0.000204,4.500570,0.000584,
2146,2353,-2.39644388278098,-6.45876100518395,-0.0142994820457716,0.004153,-0.089640,-0.013716,0.201518,-4.132598,325.826794,19.995029,0.999111,0.985395,0.004818,0.453515,0.000563,0.000436,0.000014,0.000564,0.000435,6.232839,0.001002,
2281,3133,0.411589884586871,10.5263862101512,0.0278162141030975,0.011098,-0.089012,0.013514,0.431630,-4.032442,313.380608,21.066425,0.999654,0.993999,0.003379,0.459209,0.000020,0.000030,0.000003,0.000031,0.000019,74.251311,0.000051,
2161,2668,-2.11910171245268,0.415640158870467,-0.0140020625000261,0.007734,-0.088111,-0.003412,0.335287,-4.016738,320.810830,20.273507,0.999656,0.993323,0.003445,0.472868,0.000163,0.000063,-0.000003,0.000163,0.000063,-1.679178,0.000233,
2356,2083,2.23390476520281,-12.3804245477547,-0.00550277539895205,0.005398,-0.096652,-0.024506,0.294853,-4.494623,329.975830,18.233354,0.998890,0.981999,0.005444,0.358235,0.001316,0.001342,-0.000061,0.001391,0.001267,-51.006452,0.002659,
2326,3268,1.36351683193639,13.4591229457633,0.0167036356027666,0.011994,-0.088902,0.013134,0.472006,-4.028336,311.070568,21.603444,0.999572,0.992405,0.003353,0.409764,0.000021,0.000037,0.000017,0.000048,0.000010,57.831926,0.000062,
2251,2908,-0.201412341314334,5.64091988725913,0.00662868178557119,0.009814,-0.088309,0.002121,0.411572,-4.010962,316.906935,20.689135,0.999663,0.992719,0.003509,0.395787,0.000033,0.000035,0.000014,0.000048,0.000020,47.201953,0.000070,
2101,2218,-3.35720548020264,-9.41148228522255,-0.0185265157619483,0.001762,-0.090895,-0.019760,0.108654,-4.209176,328.065730,20.098765,0.997521,0.981327,0.005838,0.402087,0.000885,0.000831,0.000112,0.000974,0.000742,38.211983,0.001721,
2371,2113,2.55587355724081,-11.7216381889518,-0.00900788188761226,0.005694,-0.095824,-0.023413,0.305341,-4.453787,329.479540,18.228944,0.998696,0.976013,0.006036,0.398606,0.001237,0.001274,-0.000073,0.001331,0.001180,-51.998963,0.002512,
2251,2983,-0.2146662177013,7.27009078054095,0.00651566119256586,0.010165,-0.088762,0.005252,0.417392,-4.024927,315.688943,20.770734,0.999433,0.992266,0.003732,0.414113,0.000018,0.000032,0.000002,0.000033,0.000018,81.393700,0.000051,
2131,2533,-2.75167353653418,-2.52791461855264,-0.0170382084664311,0.005664,-0.089391,-0.000348,0.230978,-4.054582,322.985408,20.185935,0.998836,0.985200,0.004863,0.478764,0.000290,0.000154,0.000018,0.000292,0.000152,7.251457,0.000451,
2161,2488,-2.09137204806963,-3.50799777581628,-0.0265196840495605,0.006090,-0.088599,-0.008124,0.273912,-4.034912,323.559922,20.077524,0.998734,0.984671,0.005145,0.520287,0.000342,0.000217,0.000010,0.000343,0.000217,4.359815,0.000564,
2191,2608,-1.45808042794328,-0.890461366765919,-0.0213075859739433,0.006969,-0.088924,-0.001440,0.293164,-4.039554,321.580718,20.174048,0.997803,0.985249,0.005116,0.475768,0.000202,0.000105,0.000017,0.000205,0.000102,9.491135,0.000313,
2206,2803,-1.1638747370916,3.35665779959097,-0.0202033202214693,0.008923,-0.088735,0.006315,0.358316,-4.024458,318.445151,20.427799,0.998779,0.984969,0.004810,0.442825,0.000062,0.000060,-0.000009,0.000070,0.000052,-42.292175,0.000122,
2446,2638,4.08983224891145,-0.228306052955723,-0.0222941623060819,0.008487,-0.089762,-0.002916,0.362561,-4.083143,321.009180,20.023403,0.999429,0.989287,0.004193,0.417594,0.000224,0.000127,-0.000017,0.000227,0.000124,-9.676537,0.000356,
2416,2443,3.4736909415143,-4.48974412518656,-0.0154862450635846,0.006883,-0.091349,-0.007277,0.304482,-4.174607,324.128190,19.294591,0.999188,0.986735,0.004809,0.444188,0.000457,0.000278,-0.000024,0.000460,0.000275,-7.442268,0.000743,
2176,2683,-1.79658651211538,0.743184883449118,-0.0239508158497301,0.007617,-0.088692,0.000395,0.317721,-4.018379,320.414745,20.229126,0.999332,0.990770,0.003947,0.522004,0.000142,0.000069,-0.000007,0.000143,0.000068,-5.699870,0.000215,
2266,3028,0.103986801069514,8.24753545614947,0.0149581397324141,0.010619,-0.088772,0.006884,0.432313,-4.034778,315.012966,20.871124,0.999298,0.989814,0.003921,0.418016,0.000023,0.000018,0.000001,0.000023,0.000018,9.482446,0.000041,
2296,3148,0.735117296516851,10.8529260319684,0.0351990944216709,0.011030,-0.089079,0.011563,0.434260,-4.041192,313.180708,21.200492,0.999602,0.992749,0.003605,0.406750,0.000015,0.000032,0.000011,0.000037,0.000009,63.978670,0.000049,
2206,2713,-1.14957227145505,1.3977087375907,-0.0280426452789584,0.007940,-0.088938,0.001772,0.327343,-4.053363,319.811709,20.267096,0.998682,0.986675,0.004659,0.473752,0.000117,0.000068,-0.000005,0.000118,0.000067,-6.052014,0.000187,
2191,2743,-1.47929756132607,2.05033739989159,-0.0194966743488294,0.008685,-0.088476,-0.000264,0.368613,-4.032640,319.480452,20.361879,0.999382,0.989953,0.004041,0.429308,0.000099,0.000062,-0.000015,0.000104,0.000057,-19.536608,0.000163,
2236,2893,-0.525486300045966,5.31369276299004,0.00255541078644228,0.009490,-0.088641,0.005101,0.387308,-4.014801,317.124562,20.587334,0.999679,0.991914,0.003625,0.444369,0.000029,0.000039,0.000009,0.000044,0.000024,59.934099,0.000069,
2221,2878,-0.849900172454671,4.98692009262191,-0.00566620519362004,0.009127,-0.088907,0.008228,0.360991,-4.022159,317.309537,20.504308,0.999471,0.992680,0.003390,0.475251,0.000038,0.000045,0.000002,0.000046,0.000037,73.987028,0.000083,
2326,3283,1.36038848584959,13.7842559649431,0.00689761122407617,0.012352,-0.089042,0.012280,0.491364,-4.053486,310.761631,21.611505,0.999670,0.993924,0.003052,0.409689,0.000018,0.000040,0.000010,0.000043,0.000015,68.655742,0.000060,
2221,2788,-0.834664698797923,3.02997661486306,-0.0111750201787117,0.008665,-0.088714,0.002744,0.357302,-4.028717,318.724261,20.398320,0.999415,0.990291,0.004058,0.462192,0.000066,0.000064,0.000000,0.000066,0.000064,-1.583998,0.000129,
2311,3178,1.0560552456506,11.5043657902431,0.0392439876125081,0.011549,-0.089229,0.011655,0.457024,-4.049535,312.731736,21.303680,0.999648,0.992814,0.003575,0.421370,0.000021,0.000036,0.000014,0.000044,0.000013,59.585764,0.000060,
2176,2578,-1.77986500672639,-1.54488194161871,-0.0255816534751716,0.006539,-0.088895,-0.003307,0.279436,-4.062133,322.065312,20.144284,0.998925,0.987339,0.004502,0.472560,0.000232,0.000131,0.000016,0.000234,0.000128,8.815783,0.000367,
2386,2218,2.86416510799636,-9.41763204153568,-0.00492619608991163,0.006582,-0.094211,-0.018282,0.328852,-4.335907,327.851523,18.591547,0.998235,0.980036,0.005983,0.386933,0.000924,0.000935,-0.000062,0.000992,0.000867,-47.377030,0.001861,
2131,2368,-2.72595060267053,-6.12956652977633,-0.0205560718700326,0.003904,-0.088670,-0.016160,0.197597,-4.097612,325.587961,20.101331,0.998847,0.986213,0.004766,0.442986,0.000544,0.000408,0.000018,0.000546,0.000406,7.511288,0.000955,
2431,2593,3.77247344145757,-1.21400797693678,-0.00421940513973595,0.007917,-0.090522,0.000620,0.323244,-4.110559,321.827944,19.753066,0.999460,0.990636,0.004120,0.519959,0.000270,0.000144,-0.000001,0.000270,0.000144,-0.514761,0.000420,
2281,3148,0.409867971532893,10.8512967721273,0.0378951341336347,0.011494,-0.089167,0.015155,0.444285,-4.042724,313.232363,21.118261,0.999541,0.992574,0.003776,0.423716,0.000018,0.000035,0.000005,0.000037,0.000016,74.656576,0.000054,
2356,2098,2.22977437822277,-12.0507239837193,-0.00791739891423049,0.004707,-0.096900,-0.019091,0.244150,-4.483995,329.663060,18.291619,0.998842,0.980448,0.005645,0.353139,0.001267,0.001312,-0.000062,0.001356,0.001223,-54.972912,0.002580,
2236,2938,-0.533990748576823,6.29203751211524,-0.00205386072252622,0.009594,-0.088731,0.009881,0.376605,-4.013722,316.341808,20.647077,0.999547,0.992863,0.003530,0.448052,0.000026,0.000027,0.000001,0.000027,0.000026,65.545592,0.000053,
2146,2608,-2.43695814876182,-0.88890283655482,-0.0343305262557578,0.007122,-0.087399,-0.007643,0.320426,-3.992126,321.654014,20.328040,0.999207,0.989563,0.004376,0.416369,0.000223,0.000087,0.000012,0.000224,0.000086,5.066084,0.000320,
2161,2503,-2.09411275131314,-3.18022314550977,-0.0324167617135913,0.006506,-0.089127,-0.004033,0.280312,-4.055651,323.274573,20.101279,0.998702,0.984886,0.005108,0.487106,0.000326,0.000202,0.000012,0.000327,0.000201,5.385641,0.000533,
2401,2233,3.18878542245184,-9.08863076709932,-0.00367487420777479,0.006499,-0.093492,-0.017655,0.323329,-4.317605,327.628416,18.602477,0.998871,0.983228,0.005538,0.368572,0.000884,0.000873,-0.000074,0.000953,0.000804,-43.028521,0.001759,
2371,2128,2.552817615264,-11.3931863152521,-0.00836651298016022,0.005468,-0.095883,-0.023133,0.293988,-4.464407,329.232018,18.239001,0.998882,0.979262,0.005768,0.422052,0.001194,0.001237,-0.000069,0.001288,0.001143,-53.800404,0.002432,
2326,3298,1.35757001542176,14.1089358039846,0.0084837968516922,0.012352,-0.088995,0.013952,0.485679,-4.033697,310.523015,21.599358,0.999684,0.994354,0.003054,0.474626,0.000013,0.000029,0.000010,0.000034,0.000008,63.382351,0.000044,
2161,2683,-2.12224367293454,0.743082764413494,-0.0205970161993605,0.007769,-0.088259,0.000065,0.326253,-4.006963,320.503207,20.291482,0.999348,0.990378,0.003923,0.475563,0.000151,0.000063,-0.000005,0.000152,0.000062,-3.358339,0.000220,
2446,2653,4.08689999813052,0.0991551901283572,-0.0274940914090394,0.008689,-0.089381,-0.006460,0.385241,-4.088185,320.744273,20.064087,0.999473,0.990376,0.004070,0.424749,0.000210,0.000115,-0.000014,0.000212,0.000113,-8.413597,0.000330,
2251,2923,-0.204561615984709,5.96625312092898,0.00214281972995423,0.010023,-0.089040,0.007234,0.404164,-4.040181,316.618074,20.645499,0.999637,0.992870,0.003538,0.433124,0.000029,0.000030,0.000007,0.000037,0.000022,46.092128,0.000060,
2191,2623,-1.46050935985634,-0.563611694265781,-0.0179403871544537,0.006885,-0.088718,-0.001027,0.288056,-4.043741,321.360580,20.217208,0.998722,0.986621,0.004781,0.443750,0.000189,0.000087,0.000010,0.000190,0.000086,5.626099,0.000282,
2116,2488,-3.07052172821175,-3.5100436644631,-0.0192108046923636,0.005570,-0.089220,-0.006220,0.244397,-4.084849,323.773142,20.183465,0.998974,0.986774,0.004703,0.463774,0.000352,0.000197,0.000010,0.000352,0.000196,3.720489,0.000556,
2266,3058,0.0986125481339926,8.89885345779408,0.0198883044374725,0.010482,-0.088557,0.009430,0.417744,-4.008917,314.549347,20.925575,0.999478,0.991858,0.003670,0.438902,0.000022,0.000027,-0.000001,0.000027,0.000022,-78.505560,0.000049,
2131,2548,-2.75368853000904,-2.19992081855521,-0.0192670124057486,0.006001,-0.088242,-0.003826,0.257240,-4.015781,322.749759,20.217355,0.998673,0.982886,0.005084,0.492790,0.000279,0.000137,0.000020,0.000282,0.000134,7.994608,0.000425,
2146,2368,-2.3986963920802,-6.13074581900989,-0.0128824774293435,0.004504,-0.089798,-0.009928,0.206120,-4.120657,325.601016,20.029879,0.998762,0.986664,0.004723,0.440242,0.000539,0.000410,0.000012,0.000540,0.000409,5.372930,0.000951,
2176,2698,-1.79926772992009,1.07097843062788,-0.0278137434976884,0.007704,-0.088233,0.000040,0.323014,-3.998881,320.143770,20.297935,0.999345,0.990452,0.003906,0.485267,0.000129,0.000064,-0.000010,0.000130,0.000062,-8.542489,0.000197,
2416,2458,3.47062986334372,-4.16150554081142,-0.019690187183528,0.007251,-0.091417,-0.005499,0.314869,-4.172426,323.860089,19.340772,0.999128,0.986066,0.004902,0.449524,0.000433,0.000252,-0.000025,0.000437,0.000249,-7.748583,0.000694,
2206,2818,-1.1662213496271,3.68179354388653,-0.0162712903357942,0.008843,-0.089179,0.005618,0.356640,-4.059001,318.233072,20.404241,0.999013,0.987466,0.004411,0.448392,0.000062,0.000065,-0.000007,0.000070,0.000057,-51.380334,0.000127,
2206,2728,-1.15151950230329,1.72485689084107,-0.0281128281497445,0.008445,-0.088653,-0.000211,0.356978,-4.039720,319.596708,20.323427,0.999119,0.988985,0.004185,0.448230,0.000105,0.000061,-0.000010,0.000108,0.000059,-12.085536,0.000169,
2296,3208,0.724899997135402,12.154078750743,0.0394494491496857,0.011683,-0.088876,0.013475,0.458020,-4.024963,312.257151,21.306855,0.999715,0.993703,0.003229,0.431979,0.000019,0.000039,0.000013,0.000046,0.000013,63.718205,0.000062,
2191,2758,-1.48172347818714,2.3766127246603,-0.0165097980255382,0.008759,-0.088583,0.001866,0.365338,-4.025751,319.258468,20.377261,0.999413,0.990502,0.003881,0.435450,0.000087,0.000063,-0.000015,0.000094,0.000056,-25.424850,0.000152,
2431,2608,3.76819094633384,-0.884702790037537,-0.0195960379133453,0.007890,-0.090544,0.000944,0.320797,-4.110013,321.452308,19.853284,0.999250,0.987669,0.004475,0.471137,0.000255,0.000132,-0.000001,0.000255,0.000132,-0.494055,0.000393,
2281,3163,0.40731315123848,11.1774698516231,0.0362489569773743,0.011657,-0.088881,0.013238,0.458422,-4.021998,312.986616,21.187477,0.999504,0.991472,0.003771,0.401934,0.000022,0.000038,0.000006,0.000040,0.000020,71.764462,0.000061,
2311,3193,1.05382658994416,11.8296144727431,0.0417211751140485,0.011848,-0.089007,0.010709,0.474185,-4.040898,312.523829,21.332290,0.999634,0.993135,0.003453,0.432543,0.000021,0.000041,0.000015,0.000049,0.000013,61.540162,0.000066,
2221,2803,-0.837736483834359,3.3575328349707,-0.0217531758109999,0.009083,-0.088648,0.004618,0.370560,-4.022290,318.404675,20.440054,0.999317,0.988757,0.004221,0.445836,0.000061,0.000063,-0.000003,0.000065,0.000059,-51.926136,0.000124,
2266,3043,0.101422687025302,8.57304310932944,0.0194176949578946,0.010564,-0.088747,0.008652,0.424030,-4.016432,314.796918,20.890277,0.999578,0.991482,0.003655,0.442065,0.000021,0.000022,0.000000,0.000023,0.000021,-70.544100,0.000044,
2341,1993,1.92266967050604,-14.3606879622784,-0.00378134839024824,0.004489,-0.100509,-0.030249,0.271127,-4.721174,331.416207,17.902858,0.997357,0.977281,0.006728,0.314750,0.001537,0.001460,-0.000061,0.001571,0.001426,-28.904115,0.002999,
2146,2623,-2.4393755285541,-0.562496440114906,-0.0324840982302135,0.007401,-0.087956,-0.002342,0.317027,-4.009215,321.423319,20.330546,0.999546,0.991170,0.004045,0.405272,0.000212,0.000071,0.000005,0.000212,0.000071,2.154436,0.000295,
2251,2998,-0.217413410523047,7.59473064491805,0.0148749168660061,0.009927,-0.089061,0.011298,0.386490,-4.023707,315.483697,20.742644,0.999421,0.991639,0.003801,0.466036,0.000020,0.000029,-0.000003,0.000030,0.000018,-72.113678,0.000049,
2221,2893,-0.851910187939456,5.31259991582949,1.64810194291931E-06,0.009217,-0.088875,0.006471,0.370833,-4.011074,317.122492,20.517359,0.999606,0.992713,0.003555,0.491983,0.000032,0.000038,0.000002,0.000039,0.000031,69.353933,0.000070,
2386,2233,2.86109611136424,-9.08989649045327,0.00918440298801215,0.005908,-0.094738,-0.010501,0.269933,-4.323563,327.667940,18.689546,0.998774,0.983013,0.005759,0.347018,0.000879,0.000874,-0.000057,0.000934,0.000819,-43.902267,0.001754,
2311,3283,1.0357894918718,13.7823504084156,0.0185147856985282,0.012464,-0.088779,0.013323,0.493856,-4.030747,310.872136,21.525191,0.999600,0.993669,0.003059,0.434955,0.000010,0.000043,0.000004,0.000043,0.000010,83.850103,0.000056,
2296,3163,0.73321958916841,11.1781071750284,0.0445296952113949,0.011203,-0.088941,0.011571,0.442317,-4.023951,313.021233,21.248227,0.999650,0.992573,0.003533,0.405212,0.000017,0.000034,0.000011,0.000039,0.000012,64.746693,0.000053,
2356,2113,2.22742711065453,-11.7208633661634,-0.00778031585929284,0.004991,-0.096085,-0.021585,0.266215,-4.444531,329.443945,18.368957,0.999151,0.980256,0.005504,0.357140,0.001217,0.001278,-0.000061,0.001316,0.001179,-58.284081,0.002497,
2161,2698,-2.12477929788945,1.0701107667276,-0.0240099729655299,0.008034,-0.088129,0.001106,0.335328,-3.992211,320.240211,20.297945,0.999182,0.987407,0.004287,0.494320,0.000138,0.000058,-0.000010,0.000139,0.000057,-6.688299,0.000202,
2446,2668,4.08428867042542,0.425515768054517,-0.0210784467064968,0.008812,-0.089680,-0.003280,0.378937,-4.083707,320.547732,20.096407,0.999289,0.988789,0.004305,0.449492,0.000202,0.000096,-0.000010,0.000203,0.000095,-5.426948,0.000305,
2236,2953,-0.535497700758345,6.61770634142639,0.00329350601651868,0.010165,-0.088661,0.007156,0.411760,-4.021076,316.177106,20.690554,0.999369,0.991949,0.003771,0.417563,0.000020,0.000025,-0.000001,0.000025,0.000020,-80.756860,0.000045,
2161,2518,-2.09717719316521,-2.8516799045785,-0.0402877742218379,0.006215,-0.088305,-0.007631,0.278203,-4.055509,322.963732,20.162511,0.998668,0.985951,0.004959,0.437361,0.000305,0.000190,0.000020,0.000308,0.000187,9.632222,0.000500,
2401,2248,3.18516495752507,-8.75945656268216,-0.0106782470390954,0.006346,-0.092348,-0.017662,0.316841,-4.242653,327.320671,18.556561,0.998901,0.982883,0.005443,0.538021,0.000844,0.000794,-0.000077,0.000899,0.000738,-35.978778,0.001640,
2116,2503,-3.07245154771002,-3.18175552744539,-0.0275882766242148,0.006224,-0.088172,-0.011784,0.291270,-4.045348,323.507076,20.170117,0.998836,0.984527,0.004867,0.521429,0.000334,0.000179,0.000010,0.000335,0.000178,3.772670,0.000521,
2371,2143,2.55024258134294,-11.0629131102975,-0.00731571112930851,0.005708,-0.095192,-0.022773,0.303978,-4.416056,329.007927,18.366011,0.998570,0.977740,0.005966,0.387369,0.001143,0.001172,-0.000068,0.001227,0.001088,-51.073503,0.002316,
2341,2008,1.9198406746918,-14.0299302818324,-0.00139078414639471,0.004444,-0.099206,-0.028078,0.262046,-4.630599,331.184601,17.997713,0.997306,0.974595,0.007035,0.351051,0.001513,0.001457,-0.000047,0.001539,0.001430,-29.693774,0.002971,
2191,2638,-1.46216161257355,-0.236552339315111,-0.0224999391189158,0.007945,-0.088224,-0.003180,0.343699,-4.035209,321.134766,20.203818,0.999177,0.988264,0.004484,0.480669,0.000175,0.000072,0.000008,0.000176,0.000071,4.154699,0.000255,
2131,2563,-2.75639530755672,-1.87064606694842,-0.0299636745748444,0.006377,-0.087679,-0.004739,0.277469,-3.992148,322.437007,20.311782,0.998941,0.986357,0.004747,0.428941,0.000264,0.000125,0.000016,0.000265,0.000123,6.365946,0.000397,
2266,3073,0.0969386206972302,9.22341734564311,0.0307671835569749,0.010746,-0.088809,0.009707,0.428871,-4.025884,314.406860,20.941385,0.999326,0.990895,0.003905,0.430843,0.000022,0.000024,-0.000001,0.000024,0.000022,-70.894089,0.000046,
2296,3223,0.721993299320413,12.4781295322821,0.0394744787242303,0.011597,-0.089233,0.014322,0.451080,-4.041737,312.005235,21.243385,0.999814,0.994606,0.003025,0.507406,0.000018,0.000042,0.000013,0.000047,0.000012,66.120922,0.000063,
2176,2593,-1.78173976757565,-1.21768504541614,-0.0245379864525148,0.007067,-0.088963,-0.004000,0.305857,-4.072396,321.857315,20.196158,0.998775,0.987291,0.004579,0.423683,0.000215,0.000107,0.000015,0.000217,0.000106,7.585432,0.000329,
2311,3208,1.05155281047522,12.1551499142213,0.048269870199249,0.011949,-0.088665,0.011756,0.475423,-4.020963,312.333816,21.403232,0.999652,0.992717,0.003430,0.412425,0.000021,0.000040,0.000016,0.000049,0.000012,60.790692,0.000065,
2341,2038,1.91305876388565,-13.3700441417899,-0.00838126711227005,0.004224,-0.098812,-0.022489,0.232803,-4.609294,330.614018,18.082014,0.998479,0.980118,0.005849,0.369115,0.001428,0.001415,-0.000053,0.001475,0.001368,-41.445429,0.002844,
2251,2938,-0.207288522072599,6.29148218352639,0.00180281146208472,0.010122,-0.089127,0.009051,0.402649,-4.054546,316.369599,20.611581,0.999641,0.993704,0.003307,0.475481,0.000028,0.000031,0.000005,0.000035,0.000024,51.731194,0.000059,
2146,2383,-2.40061379464438,-5.80303348299505,-0.0121369664711892,0.004783,-0.089312,-0.012917,0.228124,-4.123600,325.387141,20.050165,0.998324,0.986265,0.004841,0.426662,0.000511,0.000376,0.000007,0.000512,0.000375,2.945653,0.000891,
2176,2713,-1.80138228774768,1.39723606955793,-0.0228378638952336,0.007857,-0.088610,0.001141,0.326469,-4.035233,319.945568,20.358310,0.999262,0.988986,0.004143,0.400865,0.000118,0.000063,-0.000011,0.000121,0.000060,-11.181979,0.000184,
2416,2473,3.46823796491143,-3.83477961790158,-0.0125636536062643,0.006960,-0.090840,-0.008840,0.313973,-4.166446,323.675771,19.354726,0.998879,0.985657,0.004961,0.490393,0.000408,0.000233,-0.000023,0.000411,0.000230,-7.345669,0.000649,
2311,3298,1.03246670423896,14.1071379001476,0.0123985081265232,0.012330,-0.088750,0.012574,0.490298,-4.033613,310.571213,21.503066,0.999645,0.994467,0.002937,0.484974,0.000011,0.000032,0.000004,0.000033,0.000010,79.326657,0.000045,
2431,2623,3.76505855211612,-0.557262413895849,-0.0212460970614643,0.007955,-0.090803,0.002028,0.319722,-4.120511,321.193485,19.917459,0.999289,0.988372,0.004337,0.447412,0.000239,0.000122,-0.000009,0.000239,0.000121,-4.580766,0.000367,
2191,2773,-1.48579377962669,2.70424663160867,-0.0301556266917942,0.008423,-0.088814,0.005300,0.339090,-4.013755,318.874136,20.386142,0.999217,0.988718,0.004315,0.453316,0.000078,0.000061,-0.000012,0.000085,0.000054,-27.299957,0.000140,
2206,2743,-1.15423383182494,2.05138305170522,-0.0236965490116177,0.008343,-0.088958,0.004593,0.336918,-4.049216,319.369895,20.386225,0.999370,0.990274,0.004037,0.392693,0.000096,0.000064,-0.000013,0.000100,0.000059,-19.553428,0.000161,
2206,2833,-1.16757819642541,4.00782398499429,-0.00245365770700801,0.009283,-0.089044,0.007976,0.369545,-4.025936,318.117101,20.473913,0.999214,0.989898,0.004051,0.428294,0.000054,0.000058,-0.000001,0.000059,0.000054,-72.317605,0.000113,
2281,3178,0.404821030881671,11.5019754782408,0.0439628178642693,0.011442,-0.089091,0.014675,0.443544,-4.041136,312.791191,21.202597,0.999564,0.992001,0.003553,0.394135,0.000022,0.000039,0.000007,0.000042,0.000020,70.723002,0.000063,
2371,2188,2.5421594500653,-10.0754658189425,-0.00443262113356013,0.006315,-0.094304,-0.018567,0.317308,-4.350387,328.318406,18.547014,0.998670,0.981592,0.005508,0.403567,0.000998,0.001029,-0.000063,0.001079,0.000948,-52.034670,0.002028,
2386,2248,2.85727825739599,-8.75847701179424,-0.0133740098970065,0.006407,-0.093293,-0.014974,0.309405,-4.270704,327.275884,18.709831,0.998842,0.982794,0.005553,0.426127,0.000838,0.000793,-0.000059,0.000879,0.000752,-34.601528,0.001633,
2251,3013,-0.219849382318905,7.9204556242187,0.0171960796053554,0.010133,-0.089115,0.013110,0.390073,-4.015372,315.261762,20.769592,0.999340,0.990144,0.003916,0.469975,0.000020,0.000022,-0.000005,0.000026,0.000015,-49.293588,0.000042,
2386,2263,2.8535254526347,-8.4280298423911,-0.0300703317248008,0.006524,-0.092356,-0.019264,0.330531,-4.259315,326.914745,18.750995,0.998759,0.982717,0.005368,0.442651,0.000797,0.000735,-0.000064,0.000837,0.000695,-31.997285,0.001534,
2221,2908,-0.853878457192135,5.63875742721116,0.00320806810179874,0.009538,-0.088690,0.004935,0.390637,-4.011356,316.924582,20.571369,0.999494,0.991677,0.003967,0.455986,0.000034,0.000029,0.000002,0.000035,0.000028,18.201305,0.000063,
2371,2158,2.54847996786883,-10.7339874331204,-0.00318549912020671,0.006534,-0.095002,-0.022159,0.339756,-4.419752,328.836071,18.460043,0.999029,0.980303,0.005773,0.333207,0.001095,0.001102,-0.000066,0.001165,0.001032,-46.447038,0.002199,
2401,2338,3.16751472091095,-6.78733532502992,-0.0118758952273197,0.006289,-0.091192,-0.018076,0.316311,-4.219678,325.853500,18.971884,0.998702,0.980323,0.005305,0.431826,0.000638,0.000527,-0.000049,0.000657,0.000509,-20.620179,0.001169,
2296,3178,0.730417897097322,11.5034128614703,0.0407382057173891,0.011444,-0.088959,0.011603,0.453262,-4.036564,312.754848,21.261774,0.999612,0.992492,0.003546,0.407872,0.000018,0.000035,0.000011,0.000040,0.000013,64.743405,0.000055,
2146,2638,-2.44209087097194,-0.236487792799615,-0.0324016466277044,0.007244,-0.088192,-0.000872,0.305299,-4.006635,321.169668,20.266492,0.999641,0.991618,0.003824,0.480265,0.000201,0.000057,0.000003,0.000201,0.000057,1.026009,0.000270,
2341,2023,1.9170550665564,-13.7012226490489,-0.000855856623047657,0.004400,-0.098726,-0.028176,0.260631,-4.643675,330.946740,17.993473,0.997551,0.975531,0.006787,0.382286,0.001473,0.001443,-0.000039,0.001500,0.001416,-34.759470,0.002916,
2356,2128,2.22510513515991,-11.3932839999266,-0.00342513928262633,0.005397,-0.096547,-0.018484,0.273791,-4.485582,329.246827,18.369660,0.998776,0.981149,0.005569,0.357200,0.001173,0.001243,-0.000057,0.001275,0.001141,-60.629784,0.002417,
2446,2683,4.08084172264798,0.753283980147629,-0.024628362497026,0.008735,-0.089642,-0.002347,0.371993,-4.069268,320.266488,20.169475,0.999069,0.987804,0.004391,0.443695,0.000197,0.000105,-0.000009,0.000198,0.000104,-5.412310,0.000307,
2416,2488,3.46490599764162,-3.50654475172858,-0.0204089199160649,0.007312,-0.091246,-0.007557,0.325253,-4.198723,323.378210,19.411819,0.999063,0.986599,0.004695,0.450110,0.000389,0.000202,-0.000020,0.000391,0.000200,-6.042165,0.000601,
2401,2263,3.1816625825672,-8.42933640536766,-0.0165192174948743,0.006553,-0.093295,-0.013790,0.311990,-4.269418,327.024062,18.716831,0.998995,0.985429,0.004968,0.398757,0.000804,0.000735,-0.000081,0.000858,0.000681,-33.459649,0.001542,
2296,3238,0.719340566906791,12.8046827703906,0.0320562940345894,0.011964,-0.088483,0.010346,0.481804,-4.011681,311.727019,21.325488,0.999688,0.992473,0.003386,0.484283,0.000017,0.000031,0.000011,0.000037,0.000012,61.644173,0.000051,
2236,2968,-0.538225758938427,6.94335707596084,0.00585909480065538,0.009962,-0.088497,0.007953,0.399900,-4.005267,315.942069,20.693598,0.999359,0.991720,0.003790,0.450998,0.000016,0.000025,-0.000001,0.000025,0.000016,-83.083879,0.000041,
2326,1993,1.59404070320242,-14.3603563249358,0.000824021542825903,0.003672,-0.100732,-0.026162,0.219052,-4.721305,331.404304,18.052843,0.996559,0.971734,0.007125,0.271662,0.001485,0.001461,-0.000052,0.001526,0.001420,-38.643145,0.002947,
2161,2713,-2.12752737386738,1.39726268810857,-0.0236253470320662,0.007836,-0.088293,0.002133,0.322970,-4.014227,319.987518,20.388343,0.999346,0.989130,0.004154,0.392197,0.000128,0.000060,-0.000012,0.000130,0.000058,-9.932804,0.000192,
2251,2953,-0.20957546076167,6.61908342275459,0.00254715754289236,0.010297,-0.088608,0.006761,0.418548,-4.015669,316.145995,20.754565,0.999423,0.991561,0.003737,0.394329,0.000022,0.000027,0.000005,0.000030,0.000019,57.777813,0.000050,
2191,2653,-1.46557807167849,0.0901791890934405,-0.0239092728660921,0.007298,-0.089065,-0.001448,0.308229,-4.065124,320.844607,20.230753,0.999332,0.989569,0.004226,0.438804,0.000164,0.000068,0.000004,0.000164,0.000068,2.623961,0.000239,
2311,3223,1.04850852155277,12.4794263997394,0.0482731315829028,0.011724,-0.089169,0.012224,0.463204,-4.058912,312.076423,21.381213,0.999612,0.992879,0.003326,0.427355,0.000018,0.000040,0.000015,0.000047,0.000011,62.926258,0.000062,
2221,2818,-0.839807490905709,3.68299221299121,-0.00868576369225593,0.008928,-0.089106,0.007705,0.353363,-4.032410,318.252987,20.491960,0.999539,0.990886,0.003870,0.402592,0.000060,0.000066,-0.000002,0.000067,0.000060,-75.362103,0.000126,
2131,2578,-2.75905315227203,-1.54317991633725,-0.0321707789082666,0.006687,-0.088284,0.001107,0.274097,-3.975845,322.172214,20.328381,0.999446,0.991180,0.004209,0.435090,0.000241,0.000110,0.000017,0.000243,0.000108,7.433578,0.000360,
2146,2398,-2.40332332370794,-5.47492764485018,-0.0153100133910016,0.004801,-0.089280,-0.011874,0.225816,-4.105504,325.116118,20.052966,0.998184,0.985977,0.005055,0.451470,0.000486,0.000338,0.000006,0.000486,0.000337,2.414479,0.000828,
2341,2053,1.91119770791652,-13.041652478357,0.00712356149023208,0.003893,-0.098157,-0.023598,0.221755,-4.576736,330.490434,18.182146,0.998479,0.980196,0.005760,0.340979,0.001385,0.001400,-0.000049,0.001443,0.001343,-49.475989,0.002786,
2431,2638,3.76168014563859,-0.230003628811183,-0.0238415381862183,0.007586,-0.090611,-0.000126,0.310818,-4.125145,320.918911,19.956047,0.999420,0.990055,0.004186,0.454830,0.000223,0.000128,-0.000012,0.000224,0.000126,-6.837280,0.000355,
2266,3088,0.094188419314694,9.54877342914219,0.032388269755188,0.010700,-0.089245,0.011271,0.421404,-4.047339,314.167960,20.978233,0.999542,0.992011,0.003670,0.396858,0.000021,0.000015,-0.000006,0.000025,0.000011,-31.765048,0.000037,
2176,2728,-1.80389889583789,1.72316110116446,-0.0258140101538515,0.008232,-0.088818,0.003536,0.336210,-4.042039,319.687325,20.298572,0.999370,0.989291,0.004142,0.466466,0.000110,0.000057,-0.000014,0.000114,0.000053,-14.080597,0.000171,
2191,2788,-1.48783440050264,3.03038072793203,-0.0270911735967161,0.008645,-0.088325,0.004029,0.353398,-4.009633,318.670237,20.401109,0.998775,0.985612,0.004880,0.457032,0.000065,0.000060,-0.000009,0.000072,0.000053,-37.989203,0.000125,
2281,3193,0.402491408561442,11.8271758134076,0.0449914917815022,0.011713,-0.088896,0.013836,0.458943,-4.032788,312.569479,21.217723,0.999612,0.992529,0.003434,0.414025,0.000022,0.000043,0.000007,0.000046,0.000020,72.384380,0.000067,
2296,3193,0.728023016093264,11.8287856745287,0.0419583025014845,0.011830,-0.089010,0.013087,0.466070,-4.028092,312.532033,21.294286,0.999585,0.992580,0.003521,0.412664,0.000018,0.000039,0.000012,0.000045,0.000013,65.798457,0.000061,
2371,2203,2.53925002269363,-9.74647034349884,-0.0065655905686981,0.006442,-0.093964,-0.018450,0.322859,-4.335073,328.063914,18.577822,0.998229,0.979773,0.005829,0.432014,0.000957,0.000969,-0.000056,0.001019,0.000906,-48.012015,0.001926,
2401,2278,3.17692246080444,-8.09886755031176,-0.0280346583484175,0.005849,-0.093381,-0.011405,0.271096,-4.287037,326.643867,18.848529,0.999684,0.993892,0.003561,0.297807,0.000766,0.000695,-0.000068,0.000808,0.000654,-31.333601,0.001464,
2296,3253,0.71624617258411,13.1300799791691,0.0301039996655277,0.012139,-0.089112,0.015210,0.473137,-4.040854,311.456043,21.395565,0.999654,0.990117,0.003741,0.413405,0.000017,0.000026,0.000011,0.000034,0.000009,56.496898,0.000045,
2416,2503,3.46139282967878,-3.17765406494492,-0.0259760967642251,0.007469,-0.091240,-0.004186,0.320192,-4.185538,323.082608,19.510386,0.999421,0.989745,0.004198,0.413817,0.000362,0.000205,-0.000021,0.000365,0.000202,-7.302033,0.000575,
2386,2278,2.8515191061865,-8.10065388621528,-0.0105603929754921,0.006154,-0.092445,-0.015723,0.300881,-4.267838,326.805399,18.906041,0.999477,0.991034,0.004046,0.323916,0.000760,0.000694,-0.000053,0.000790,0.000664,-29.184058,0.001456,
2146,2653,-2.44449725321885,0.0895373606411312,-0.0284187872097732,0.007053,-0.088318,-0.000716,0.295974,-4.029545,320.950907,20.266673,0.999633,0.990310,0.003938,0.465669,0.000188,0.000058,-0.000002,0.000188,0.000058,-0.689385,0.000257,
2311,3238,1.04523783863165,12.8062219699649,0.0361900561919697,0.012024,-0.088683,0.010606,0.482777,-4.042579,311.747931,21.472605,0.999491,0.991735,0.003480,0.383305,0.000016,0.000029,0.000013,0.000037,0.000008,58.699415,0.000048,
2401,2353,3.16396071426025,-6.45864564737477,-0.0126123164700971,0.006246,-0.091866,-0.011450,0.290177,-4.214012,325.578117,19.052443,0.998328,0.980625,0.005467,0.404315,0.000611,0.000494,-0.000042,0.000624,0.000481,-17.847714,0.001108,
2371,2173,2.54535313858354,-10.4061406931552,-0.00701826335932765,0.006389,-0.094300,-0.024254,0.340816,-4.406015,328.563778,18.358466,0.998944,0.980921,0.005622,0.492677,0.001046,0.001060,-0.000065,0.001119,0.000988,-48.123147,0.002108,
2446,2698,4.07674228813351,1.08076190611656,-0.0341533448428777,0.008593,-0.090065,-0.000183,0.357221,-4.105422,319.927815,20.222643,0.999495,0.989847,0.004095,0.407113,0.000182,0.000111,-0.000009,0.000183,0.000110,-6.882598,0.000296,
2206,2848,-1.17087440330864,4.33500853118302,-0.0129855127680685,0.009121,-0.088608,0.005245,0.370938,-4.004318,317.785947,20.481276,0.999269,0.990351,0.003885,0.459051,0.000048,0.000056,0.000004,0.000058,0.000047,69.586870,0.000105,
2356,2143,2.22290207371791,-11.0631318599663,-0.00519915373251933,0.005977,-0.095526,-0.020932,0.309333,-4.415748,329.024868,18.433127,0.997865,0.979155,0.006018,0.405350,0.001126,0.001177,-0.000056,0.001213,0.001090,-57.277090,0.002303,
2251,2968,-0.212364694226775,6.94493726726307,0.00340870742309107,0.010055,-0.088523,0.005833,0.410533,-4.006698,315.900459,20.771615,0.999507,0.993261,0.003495,0.408893,0.000018,0.000026,0.000004,0.000028,0.000017,67.516977,0.000045,
2326,2008,1.59165744348705,-14.0306297037193,0.00759233199568143,0.003646,-0.099791,-0.024836,0.213654,-4.659384,331.213387,18.131655,0.996779,0.972446,0.007166,0.292907,0.001470,0.001457,-0.000039,0.001504,0.001424,-40.131886,0.002928,
2251,3028,-0.22228057031332,8.24663550872363,0.0138590980790809,0.010384,-0.088807,0.009796,0.412582,-4.019262,315.011188,20.816715,0.999264,0.989326,0.003973,0.441703,0.000020,0.000018,-0.000005,0.000024,0.000014,-40.553727,0.000038,
2341,2068,1.9083903213183,-12.712777498035,0.00103300818415164,0.004213,-0.097719,-0.025291,0.242466,-4.574036,330.219339,18.119540,0.997895,0.974835,0.006403,0.446279,0.001338,0.001371,-0.000044,0.001402,0.001308,-55.294047,0.002710,
2236,2983,-0.540049381689048,7.26906813509235,0.00993734021267301,0.010246,-0.088343,0.004354,0.424751,-4.008413,315.756289,20.735139,0.999356,0.992086,0.003772,0.426955,0.000015,0.000030,-0.000002,0.000031,0.000015,-83.258332,0.000046,
2221,2923,-0.856219590755966,5.96508978737667,0.000232100761934362,0.010026,-0.088594,0.004883,0.413271,-4.012042,316.677720,20.601546,0.999509,0.991791,0.003761,0.443729,0.000031,0.000023,-0.000002,0.000031,0.000023,-12.303860,0.000055,
2191,2668,-1.4683849855274,0.417704777446403,-0.0251842157897499,0.007039,-0.088899,-0.002816,0.300693,-4.067324,320.582782,20.308723,0.999659,0.994113,0.003381,0.373726,0.000154,0.000075,-0.000001,0.000154,0.000075,-0.851853,0.000233,
2161,2728,-2.13001352379457,1.72285962812858,-0.0239112015025853,0.007973,-0.088585,0.003673,0.324455,-4.028754,319.743704,20.327642,0.999474,0.989142,0.004178,0.448578,0.000119,0.000053,-0.000015,0.000122,0.000050,-12.633701,0.000177,
2266,3103,0.0916344429417997,9.87494793387502,0.0284687022380012,0.010953,-0.088613,0.008715,0.441874,-4.011572,313.909807,21.002180,0.999717,0.993608,0.003357,0.433399,0.000021,0.000019,-0.000006,0.000026,0.000014,-40.653339,0.000040,
2431,2653,3.7599490110913,0.0970203681114654,-0.0188391858907266,0.008344,-0.090222,-0.001092,0.349393,-4.101099,320.755197,20.013071,0.999347,0.989718,0.004278,0.472271,0.000208,0.000116,-0.000008,0.000208,0.000115,-4.926184,0.000328,
2401,2293,3.17427269270327,-7.77211830967145,-0.0222813141121492,0.006116,-0.093934,-0.005575,0.262064,-4.292967,326.440992,18.808911,0.999375,0.990484,0.004123,0.379221,0.000734,0.000652,-0.000064,0.000769,0.000617,-28.486624,0.001389,
2146,2413,-2.4069626161833,-5.14624665009265,-0.0224833932248885,0.004408,-0.089616,-0.007071,0.193153,-4.092071,324.781256,20.080569,0.997991,0.986480,0.005304,0.447089,0.000468,0.000302,0.000006,0.000468,0.000302,1.999201,0.000776,
2326,2023,1.58818074489716,-13.6999828693778,-0.00189365671218411,0.003592,-0.098942,-0.025677,0.214423,-4.642638,330.893541,18.160190,0.997724,0.976191,0.006629,0.319638,0.001436,0.001446,-0.000031,0.001473,0.001409,-49.638652,0.002882,
2296,3268,0.713314102106199,13.4553431216694,0.0268612629550944,0.012170,-0.088943,0.014643,0.476599,-4.028534,311.186116,21.408720,0.999634,0.991849,0.003472,0.440992,0.000016,0.000045,0.000011,0.000048,0.000013,71.178011,0.000064,
2176,2743,-1.80540447497669,2.04976881836791,-0.0173592930776181,0.008496,-0.088292,0.000734,0.357255,-4.019198,319.535000,20.367947,0.999468,0.989904,0.004178,0.432250,0.000106,0.000061,-0.000016,0.000111,0.000057,-17.528510,0.000170,
2311,3253,1.04178571088114,13.1315955032197,0.0314857377751991,0.012103,-0.089092,0.015849,0.468390,-4.041184,311.447993,21.494581,0.999559,0.991388,0.003534,0.393402,0.000013,0.000022,0.000013,0.000031,0.000004,54.082708,0.000038,
2191,2803,-1.48986196662357,3.35692602789963,-0.0240197848734738,0.008900,-0.088111,0.003009,0.368473,-3.996692,318.466826,20.449098,0.998867,0.985904,0.004743,0.436535,0.000060,0.000060,-0.000010,0.000070,0.000050,-44.564610,0.000120,
2416,2518,3.45923916778122,-2.85081485156481,-0.0240792271669079,0.007681,-0.090867,-0.009491,0.349439,-4.189798,322.884637,19.511176,0.999091,0.987596,0.004607,0.457569,0.000340,0.000203,-0.000023,0.000343,0.000199,-9.262259,0.000549,
2446,2713,4.07308471902256,1.40799368632068,-0.0373115949618636,0.008137,-0.089856,-0.000867,0.339000,-4.086162,319.638611,20.255447,0.999663,0.991796,0.003774,0.446180,0.000162,0.000107,-0.000001,0.000162,0.000107,-1.036813,0.000271,
2281,3208,0.400583510488719,12.1522223179828,0.055114807695702,0.011790,-0.088931,0.013651,0.463171,-4.027881,312.412752,21.278596,0.999809,0.994911,0.002939,0.384175,0.000023,0.000044,0.000008,0.000047,0.000020,70.218252,0.000069,
2251,3043,-0.224343200019081,8.57262944971914,0.0174879401602652,0.010688,-0.088672,0.009033,0.429185,-4.015902,314.812904,20.889866,0.999490,0.991110,0.003714,0.394408,0.000019,0.000021,-0.000006,0.000025,0.000014,-51.212609,0.000040,
2401,2368,3.16123435768754,-6.1312148158317,-0.0120862529564079,0.006668,-0.092387,-0.008019,0.296930,-4.224610,325.346819,19.051340,0.998182,0.980679,0.005476,0.442006,0.000579,0.000460,-0.000042,0.000592,0.000446,-17.523200,0.001041,
2206,2863,-1.17281477484126,4.66085875698713,-0.00773301231134838,0.009218,-0.087891,0.002532,0.384287,-3.985905,317.598988,20.492037,0.999326,0.991099,0.003702,0.483368,0.000048,0.000055,0.000001,0.000055,0.000048,82.932536,0.000103,
2371,2218,2.53643716105534,-9.41730448512882,-0.00568799376776497,0.006224,-0.093378,-0.021023,0.322276,-4.316661,327.828094,18.658062,0.997508,0.975566,0.006552,0.413828,0.000916,0.000926,-0.000049,0.000970,0.000872,-48.023165,0.001843,
2386,2293,2.84897062069102,-7.77300475984737,-0.0116351403246426,0.006541,-0.092340,-0.016146,0.320203,-4.273805,326.573704,18.878497,0.999738,0.994053,0.003530,0.390785,0.000727,0.000651,-0.000048,0.000750,0.000627,-25.733797,0.001380,
2341,2083,1.90558118789712,-12.3807394718993,-0.00256126423431624,0.004551,-0.097176,-0.024618,0.255849,-4.535204,329.959656,18.343228,0.998641,0.980918,0.005715,0.301608,0.001293,0.001347,-0.000048,0.001375,0.001265,-59.744364,0.002641,
2221,2938,-0.859250878783346,6.29111432435015,-0.00213878667409517,0.009964,-0.088642,0.007445,0.402212,-4.005649,316.402327,20.605402,0.999558,0.993127,0.003449,0.464807,0.000030,0.000025,-0.000004,0.000032,0.000023,-30.016189,0.000055,
2326,2038,1.58468434245586,-13.3680463870733,-0.00963616377822518,0.003311,-0.097860,-0.027690,0.208875,-4.579742,330.580827,18.286709,0.998619,0.982564,0.005551,0.294465,0.001398,0.001418,-0.000044,0.001453,0.001363,-51.305825,0.002817,
2356,2158,2.22092350618293,-10.7335434086058,-0.00565227168391402,0.006434,-0.094618,-0.026555,0.350384,-4.424307,328.819935,18.543170,0.998676,0.980991,0.005705,0.328252,0.001077,0.001104,-0.000056,0.001148,0.001033,-51.903703,0.002182,
2431,2668,3.75567034222873,0.426627539869401,-0.0337055375783848,0.008143,-0.090063,-0.002476,0.345341,-4.106625,320.381661,20.175507,0.999268,0.990150,0.004361,0.355029,0.000198,0.000100,-0.000005,0.000198,0.000100,-2.653325,0.000304,
2296,3283,0.710679439859032,13.780752107053,0.0220721349224391,0.012590,-0.088779,0.013756,0.499039,-4.025012,310.922079,21.439783,0.999521,0.991915,0.003438,0.442300,0.000017,0.000055,0.000004,0.000055,0.000017,83.833866,0.000075,
2401,2308,3.17197167406092,-7.44382784350559,-0.0252083280305442,0.006707,-0.092808,-0.008740,0.301043,-4.241477,326.212833,18.770214,0.999673,0.993621,0.003670,0.517009,0.000707,0.000597,-0.000058,0.000732,0.000572,-23.177788,0.001307,
2236,2998,-0.543057387007917,7.5939940013039,0.0119720945647828,0.010006,-0.088704,0.008043,0.401596,-4.021257,315.505906,20.703959,0.999389,0.990909,0.003865,0.465489,0.000016,0.000029,-0.000006,0.000031,0.000013,-67.998979,0.000046,
2266,3118,0.0895141296534909,10.1997508787564,0.0358716634875123,0.011090,-0.088655,0.009885,0.444248,-4.019898,313.729127,21.018809,0.999670,0.993550,0.003373,0.433106,0.000023,0.000021,-0.000004,0.000026,0.000018,-39.419610,0.000045,
2146,2428,-2.40856298671942,-4.81749809968895,-0.0236960338487506,0.005032,-0.088391,-0.011708,0.236247,-4.054266,324.571115,20.151965,0.998711,0.986963,0.004901,0.422863,0.000447,0.000268,0.000008,0.000447,0.000268,2.434351,0.000722,
2311,3268,1.03869117743638,13.4571702617783,0.0227004129379225,0.012138,-0.088870,0.011626,0.484659,-4.024245,311.144214,21.501371,0.999599,0.992264,0.003358,0.434585,0.000011,0.000036,0.000012,0.000041,0.000006,68.013867,0.000052,
2176,2758,-1.80854886300059,2.37658625965199,-0.0235680526313899,0.008492,-0.088571,0.003468,0.348549,-4.013376,319.230739,20.361083,0.999317,0.988941,0.004212,0.457734,0.000095,0.000064,-0.000016,0.000102,0.000057,-23.470203,0.000161,
2281,3223,0.397636184703298,12.4766991876271,0.0551343116528642,0.011563,-0.088880,0.013432,0.453510,-4.019503,312.157765,21.227964,0.999799,0.994446,0.003118,0.470065,0.000023,0.000046,0.000008,0.000049,0.000020,72.057667,0.000071,
2446,2728,4.07085518841937,1.73343110351355,-0.0297488321533024,0.008488,-0.090281,0.001629,0.345599,-4.114310,319.464904,20.261932,0.999611,0.991620,0.003742,0.463889,0.000145,0.000099,0.000010,0.000147,0.000097,11.932870,0.000246,
2191,2818,-1.49242843818325,3.68217895388811,-0.0220334796303518,0.008663,-0.088481,0.001609,0.361791,-4.032991,318.233511,20.423244,0.998519,0.984112,0.004913,0.440174,0.000061,0.000066,-0.000008,0.000072,0.000055,-53.243535,0.000127,
2371,2233,2.53353883725338,-9.08787480415006,-0.00974062767573969,0.006515,-0.093284,-0.020951,0.335384,-4.332055,327.564933,18.750269,0.998159,0.978895,0.006117,0.349841,0.000869,0.000865,-0.000044,0.000911,0.000822,-43.994702,0.001735,
2416,2533,3.45584195221778,-2.52234289142304,-0.0174405513412808,0.007385,-0.091051,-0.001033,0.304964,-4.135825,322.651153,19.650837,0.998954,0.988149,0.004672,0.420637,0.000322,0.000186,-0.000022,0.000325,0.000183,-9.073803,0.000514,
2386,2308,2.84544679202774,-7.44364546177535,-0.0220895583130982,0.006677,-0.091690,-0.016822,0.329136,-4.223865,326.252362,18.863066,0.999667,0.993556,0.003682,0.502106,0.000697,0.000596,-0.000042,0.000712,0.000581,-19.897930,0.001296,
2296,3298,0.70652916928745,14.1067420656171,0.00734885508347816,0.012478,-0.088892,0.016229,0.485541,-4.021533,310.538521,21.475513,0.999710,0.994033,0.003117,0.438201,0.000023,0.000040,0.000004,0.000041,0.000022,76.300776,0.000064,
2206,2878,-1.17548545379215,4.98716291066577,-0.00974458814141599,0.009490,-0.088485,0.005509,0.387168,-4.004074,317.340868,20.531252,0.999589,0.993263,0.003371,0.442394,0.000044,0.000050,0.000000,0.000050,0.000044,-89.430962,0.000094,
2251,3058,-0.225179221709418,8.89640229456689,0.0371128693559513,0.011086,-0.088348,0.008514,0.449341,-4.001736,314.752847,20.855321,0.999502,0.992378,0.003570,0.465572,0.000019,0.000025,-0.000006,0.000029,0.000015,-56.532832,0.000045,
2401,2383,3.15872716777838,-5.80203840849833,-0.0131614495096528,0.007073,-0.091684,-0.009245,0.320228,-4.204838,325.117605,19.169134,0.998873,0.983994,0.005115,0.391410,0.000548,0.000434,-0.000043,0.000563,0.000420,-18.699682,0.000986,
2326,2053,1.58292870397992,-13.0399351489436,-0.00618340459777755,0.004137,-0.097490,-0.026582,0.243043,-4.558301,330.402758,18.237440,0.998991,0.986569,0.005025,0.402640,0.001358,0.001397,-0.000040,0.001422,0.001334,-58.218706,0.002756,
2341,2098,1.90250523114296,-12.0507068272842,-0.00744460632796518,0.004761,-0.096420,-0.023146,0.260636,-4.485992,329.681616,18.365544,0.998646,0.982786,0.005584,0.368788,0.001248,0.001314,-0.000049,0.001340,0.001222,-61.920042,0.002563,
2431,2683,3.75351223968571,0.752846776802656,-0.0285415064956851,0.008723,-0.090112,-0.000165,0.363461,-4.099244,320.199144,20.185958,0.999244,0.989227,0.004350,0.402367,0.000191,0.000108,-0.000004,0.000191,0.000108,-3.023268,0.000303,
2221,2953,-0.861516728850706,6.61680197722695,0.00327841436137533,0.010055,-0.088809,0.009026,0.401303,-4.002899,316.202189,20.640890,0.999368,0.991613,0.003780,0.450453,0.000025,0.000025,-0.000006,0.000031,0.000019,-45.078311,0.000051,
2401,2323,3.17018663570411,-7.11552012316462,-0.00765906256600601,0.006420,-0.091976,-0.009126,0.289667,-4.197140,326.104512,18.949321,0.999155,0.987182,0.004566,0.429381,0.000665,0.000557,-0.000056,0.000689,0.000533,-22.957127,0.001226,
2236,3013,-0.545209105725188,7.92006097680774,0.0139042842995991,0.010477,-0.088452,0.009515,0.418601,-4.002710,315.293913,20.749489,0.999307,0.989113,0.004070,0.458994,0.000017,0.000022,-0.000008,0.000028,0.000011,-54.787561,0.000040,
2356,2173,2.2169223684887,-10.4056142512244,-0.00514976272262402,0.005402,-0.094207,-0.024122,0.294785,-4.400904,328.526920,18.485763,0.998935,0.980403,0.005666,0.451043,0.001031,0.001057,-0.000055,0.001101,0.000988,-51.620161,0.002090,
2146,2443,-2.41093998504004,-4.49050952530202,-0.0216587307774603,0.005204,-0.088423,-0.008133,0.233363,-4.032565,324.343077,20.114148,0.998978,0.986819,0.004879,0.491712,0.000417,0.000238,0.000004,0.000417,0.000238,1.329611,0.000663,
2311,1993,1.26630197588177,-14.3601112881199,0.00266521048757795,0.003540,-0.100645,-0.026997,0.215389,-4.725426,331.422327,18.167164,0.998732,0.978629,0.006421,0.260070,0.001448,0.001463,-0.000053,0.001508,0.001402,-48.980378,0.002911,
2266,3133,0.0873936397278925,10.5238713665587,0.0414397276990712,0.011263,-0.088654,0.009742,0.452613,-4.039982,313.539412,20.975855,0.999634,0.994762,0.003209,0.480412,0.000019,0.000024,-0.000003,0.000025,0.000018,-68.552112,0.000044,
2281,3238,0.394085458678497,12.803133462036,0.0411448671433163,0.011648,-0.088759,0.011665,0.463458,-4.019767,311.804066,21.290836,0.999792,0.993434,0.003297,0.433150,0.000023,0.000035,0.000006,0.000037,0.000020,66.906376,0.000058,
2176,2773,-1.81156926051392,2.70322027502855,-0.028644499615325,0.008419,-0.088741,0.004474,0.342040,-4.013784,318.938130,20.357795,0.999322,0.989367,0.004294,0.473025,0.000085,0.000064,-0.000014,0.000092,0.000057,-27.250321,0.000151,
2191,2833,-1.49433143553296,4.00818858643196,-0.0179722574022207,0.009169,-0.088503,0.003388,0.379440,-4.041394,318.041144,20.458768,0.999137,0.989283,0.004124,0.410707,0.000053,0.000060,-0.000003,0.000062,0.000052,-69.562576,0.000113,
2371,2248,2.52980737584376,-8.75775165346302,-0.0224083958156029,0.006672,-0.092822,-0.020477,0.341149,-4.294665,327.222130,18.770464,0.998932,0.982563,0.005642,0.411206,0.000829,0.000785,-0.000046,0.000858,0.000756,-32.387386,0.001615,
2446,2743,4.0689280465199,2.05943302672568,-0.0163781425523553,0.008791,-0.090651,0.005587,0.344632,-4.110085,319.331609,20.337771,0.999524,0.990639,0.003889,0.444381,0.000136,0.000083,0.000013,0.000139,0.000080,12.645544,0.000221,
2416,2548,3.45275643913238,-2.19482118869389,-0.0186046480490631,0.007640,-0.091111,0.002714,0.302964,-4.127623,322.395799,19.683468,0.999028,0.987776,0.004626,0.445131,0.000301,0.000156,-0.000015,0.000302,0.000154,-5.706573,0.000464,
2386,2323,2.84195623688118,-7.11444832887015,-0.0274382104951201,0.006648,-0.091640,-0.014982,0.321272,-4.208458,325.956801,18.924677,0.999555,0.991438,0.004152,0.501693,0.000656,0.000555,-0.000041,0.000670,0.000541,-19.496355,0.001213,
2206,2893,-1.17915801337899,5.31363480126758,-0.0190633297524982,0.009161,-0.088818,0.006961,0.367310,-4.014055,316.998873,20.529228,0.999781,0.994580,0.003239,0.450848,0.000040,0.000043,0.000001,0.000044,0.000039,76.805784,0.000083,
2311,2008,1.26415582958771,-14.0293937504095,-0.000441748421053489,0.004124,-0.098987,-0.030201,0.253626,-4.656041,331.192675,18.215921,0.998599,0.978804,0.006466,0.316717,0.001430,0.001454,-0.000040,0.001484,0.001400,-53.159836,0.002885,
2401,2398,3.15573306287758,-5.47404453487832,-0.0121550331998037,0.006888,-0.091309,-0.009616,0.313244,-4.195464,324.875990,19.214314,0.999164,0.984884,0.004958,0.402720,0.000516,0.000411,-0.000043,0.000531,0.000396,-19.616198,0.000931,
2326,2068,1.58021793640065,-12.7109908271702,-0.00786344160997032,0.004505,-0.097391,-0.024131,0.251541,-4.566291,330.156061,18.241618,0.998637,0.981685,0.005650,0.428292,0.001314,0.001365,-0.000035,0.001383,0.001296,-63.052042,0.002680,
2251,3073,-0.229082083757671,9.2223304593574,0.0292198049283456,0.010839,-0.088978,0.014184,0.419165,-4.012278,314.411524,20.868224,0.999482,0.991513,0.003688,0.464655,0.000019,0.000022,-0.000004,0.000025,0.000016,-54.119817,0.000042,
2236,3028,-0.547347825205581,8.24569231105906,0.0176516818558525,0.010614,-0.088340,0.007904,0.430168,-4.008653,315.091935,20.795255,0.999457,0.990793,0.003750,0.427449,0.000016,0.000019,-0.000008,0.000025,0.000010,-49.628167,0.000036,
2341,2113,1.90095987736752,-11.7220798103683,-0.0012634122491022,0.005444,-0.095945,-0.024443,0.296616,-4.462123,329.527331,18.411479,0.998943,0.982535,0.005451,0.386069,0.001201,0.001279,-0.000047,0.001301,0.001179,-64.787123,0.002481,
2281,3253,0.390638841421055,13.1293055639218,0.025581091850313,0.012145,-0.088759,0.012518,0.483462,-4.028644,311.447285,21.335028,0.999732,0.992533,0.003450,0.406686,0.000023,0.000030,0.000007,0.000034,0.000019,57.891013,0.000054,
2416,2563,3.45016887276997,-1.86719421726175,-0.0209299358476756,0.007973,-0.090757,0.000059,0.328135,-4.104806,322.157759,19.705761,0.998535,0.984433,0.004916,0.494441,0.000280,0.000158,-0.000003,0.000280,0.000158,-1.385280,0.000443,
2356,2188,2.21377099270603,-10.0757077414649,0.00337301338834095,0.005186,-0.094629,-0.014465,0.250843,-4.352804,328.310905,18.674075,0.998828,0.982476,0.005416,0.352338,0.000982,0.001024,-0.000054,0.001060,0.000945,-55.637490,0.002007,
2191,2848,-1.49663878747915,4.33340277038216,-0.00932183572933809,0.009043,-0.088991,0.006432,0.363972,-4.039622,317.854311,20.449317,0.999206,0.989524,0.004027,0.436003,0.000046,0.000059,0.000001,0.000059,0.000046,85.883782,0.000106,
2221,2968,-0.863878262245411,6.94269577465111,0.00774272731075598,0.010106,-0.088485,0.010459,0.399201,-3.988994,315.992664,20.681047,0.999204,0.989584,0.004122,0.442422,0.000022,0.000027,-0.000008,0.000032,0.000016,-54.419786,0.000050,
2446,2758,4.06485549721301,2.38722246357975,-0.0258661699186291,0.008554,-0.090376,0.006303,0.331185,-4.100270,318.993821,20.394196,0.999449,0.989472,0.004107,0.450384,0.000133,0.000073,0.000018,0.000138,0.000068,15.507378,0.000210,
2176,2788,-1.8135539506347,3.02984589161045,-0.0267352948909547,0.008622,-0.088212,0.001237,0.361535,-4.016854,318.729590,20.415689,0.999255,0.988398,0.004415,0.424112,0.000071,0.000065,-0.000012,0.000080,0.000056,-38.723713,0.000137,
2386,2338,2.84015924417979,-6.78763454164941,-0.0133849917350517,0.006605,-0.091898,-0.015367,0.320609,-4.247391,325.831253,19.019642,0.998856,0.984226,0.005032,0.412347,0.000628,0.000523,-0.000035,0.000639,0.000512,-16.804539,0.001154,
2371,2263,2.52709307029915,-8.429068347987,-0.0157231314431669,0.006475,-0.092454,-0.018260,0.324396,-4.257359,327.018296,18.863750,0.999154,0.985415,0.004990,0.398381,0.000788,0.000725,-0.000051,0.000816,0.000696,-29.162851,0.001514,
2266,3148,0.0844620326068544,10.8500990785089,0.0355629460700015,0.011489,-0.088791,0.009991,0.462179,-4.042107,313.253929,21.042640,0.999285,0.991123,0.003882,0.435957,0.000018,0.000031,-0.000001,0.000031,0.000018,-87.387026,0.000050,
2311,2023,1.26060477880405,-13.7003134717658,-0.000395676306311543,0.003382,-0.098649,-0.029150,0.216264,-4.633343,330.914578,18.204106,0.998498,0.980345,0.005970,0.387351,0.001397,0.001445,-0.000029,0.001459,0.001383,-65.252240,0.002842,
2281,3268,0.387523302448809,13.4541513876138,0.0227537744597726,0.012251,-0.088833,0.016261,0.475789,-4.025837,311.170007,21.321578,0.999764,0.993102,0.003350,0.449495,0.000025,0.000053,0.000007,0.000054,0.000023,77.500943,0.000080,
2206,2908,-1.17989966468648,5.63799294307582,-0.00487858717588097,0.009877,-0.088805,0.004777,0.407214,-4.023976,316.913604,20.507525,0.999607,0.992598,0.003633,0.478820,0.000042,0.000033,0.000000,0.000042,0.000033,1.704484,0.000075,
2326,2083,1.57663390864655,-12.3787864486817,-0.0137017766277268,0.004000,-0.097106,-0.026233,0.235739,-4.537239,329.848581,18.466052,0.999133,0.984051,0.005429,0.271020,0.001269,0.001339,-0.000040,0.001357,0.001251,-65.359674,0.002609,
2401,2413,3.15326523975419,-5.14550841781448,-0.0151423296240978,0.007289,-0.090546,-0.013240,0.345081,-4.166783,324.639529,19.256575,0.999206,0.985443,0.004907,0.436319,0.000481,0.000377,-0.000034,0.000491,0.000367,-16.673887,0.000861,
2251,3088,-0.232004146807217,9.54819104934467,0.0252799228516096,0.010853,-0.089071,0.013761,0.421167,-4.026006,314.135317,20.908255,0.999475,0.991000,0.003731,0.433236,0.000018,0.000015,-0.000008,0.000024,0.000009,-39.701092,0.000034,
2341,2128,1.89747695723159,-11.3925874629316,-0.00492619949005757,0.005193,-0.095834,-0.022491,0.278438,-4.462192,329.236770,18.458469,0.999208,0.985924,0.004987,0.378787,0.001158,0.001242,-0.000043,0.001261,0.001140,-67.132600,0.002402,
2236,3043,-0.549388386949492,8.57141452527036,0.0203270238138202,0.010963,-0.088365,0.006801,0.449861,-4.005860,314.888933,20.837148,0.999615,0.991255,0.003659,0.408689,0.000017,0.000019,-0.000007,0.000025,0.000011,-50.680483,0.000037,
2416,2578,3.44758838008202,-1.53909646153836,-0.0203466600092383,0.008509,-0.091331,0.002644,0.343101,-4.114493,321.933570,19.834309,0.999153,0.988474,0.004407,0.404863,0.000267,0.000158,0.000001,0.000267,0.000158,0.675636,0.000429,
2191,2863,-1.49918130402837,4.66033999375057,-0.0143973639515593,0.009245,-0.088426,0.003923,0.381345,-4.024132,317.584705,20.485752,0.999291,0.990890,0.003758,0.429446,0.000048,0.000058,0.000000,0.000058,0.000048,-89.929054,0.000106,
2176,2803,-1.81597922157558,3.35554701636653,-0.0193044690249167,0.008098,-0.087661,-0.000663,0.343550,-3.987471,318.529946,20.403115,0.999395,0.988922,0.004369,0.478392,0.000066,0.000065,-0.000013,0.000078,0.000053,-43.738362,0.000132,
2356,2203,2.20995885680321,-9.746051670722,-0.00921637071979831,0.005244,-0.094538,-0.013613,0.250568,-4.335135,327.963437,18.652565,0.998846,0.983005,0.005295,0.433577,0.000942,0.000967,-0.000051,0.001006,0.000902,-51.890443,0.001909,
2221,2983,-0.866118189508082,7.26815499285252,0.00842980891786738,0.010301,-0.088594,0.008399,0.414711,-4.007678,315.769478,20.691299,0.999360,0.990884,0.003865,0.431838,0.000019,0.000033,-0.000008,0.000037,0.000016,-65.439202,0.000054,
2311,2038,1.25830299133932,-13.3687072159574,-0.00338137483214496,0.003720,-0.097128,-0.033614,0.247484,-4.573898,330.678287,18.356966,0.999281,0.987377,0.004703,0.329777,0.001360,0.001411,-0.000038,0.001432,0.001340,-61.783676,0.002772,
2386,2353,2.83734461807511,-6.4599857601092,-0.00986472342623301,0.006787,-0.091808,-0.010462,0.311411,-4.214404,325.608711,19.019181,0.998317,0.980729,0.005608,0.491018,0.000600,0.000488,-0.000029,0.000607,0.000481,-13.833688,0.001090,
2371,2278,2.52492631809838,-8.10196284648824,0.00224072610961912,0.005957,-0.092626,-0.015869,0.292154,-4.272944,326.893718,18.984261,0.999728,0.993472,0.003727,0.304952,0.000752,0.000686,-0.000042,0.000772,0.000665,-25.796193,0.001439,
2281,3283,0.384662986535961,13.779302391631,0.0167062554911013,0.012449,-0.088843,0.014527,0.490698,-4.041499,310.888171,21.341176,0.999474,0.992224,0.003443,0.440390,0.000027,0.000063,0.000001,0.000063,0.000027,87.790920,0.000093,
2266,3163,0.0819888370353752,11.1758860824578,0.041539488139108,0.011450,-0.088738,0.012102,0.453471,-4.025899,313.049399,21.126610,0.999259,0.988741,0.004220,0.392622,0.000023,0.000035,0.000001,0.000035,0.000023,84.846076,0.000059,
2401,2428,3.15003929481651,-4.81814913196754,-0.0153950538322647,0.007080,-0.091099,-0.012278,0.331811,-4.187805,324.381442,19.272123,0.999072,0.985408,0.004937,0.446887,0.000463,0.000336,-0.000026,0.000468,0.000331,-11.128764,0.000803,
2326,2098,1.57390110976604,-12.052301055613,-0.00916171709980063,0.003742,-0.096640,-0.025296,0.220902,-4.526850,329.631198,18.307578,0.998699,0.982345,0.005695,0.477345,0.001226,0.001305,-0.000042,0.001323,0.001207,-66.561029,0.002531,
2206,2923,-1.18235453421051,5.96482184732958,-0.00187460240954351,0.010038,-0.088573,0.007995,0.404436,-4.019821,316.691064,20.621583,0.999363,0.989689,0.004034,0.385298,0.000038,0.000027,-0.000001,0.000038,0.000027,-7.574727,0.000065,
2251,3103,-0.233797676446716,9.8734201137608,0.0314228560491188,0.011081,-0.088803,0.010650,0.442004,-4.017720,313.962322,20.936112,0.999574,0.992193,0.003566,0.436089,0.000017,0.000019,-0.000006,0.000024,0.000012,-50.479228,0.000036,
2236,3058,-0.55120477286188,8.89609081343717,0.027231520688531,0.011232,-0.088244,0.005671,0.465966,-4.008373,314.718169,20.819233,0.999628,0.992440,0.003444,0.444437,0.000018,0.000022,-0.000008,0.000028,0.000012,-52.943977,0.000040,
2341,2143,1.89334738164304,-11.06044943132,-0.0246854251755053,0.005281,-0.094676,-0.023831,0.287570,-4.397480,328.838128,18.514861,0.998755,0.983295,0.005426,0.427822,0.001115,0.001176,-0.000043,0.001198,0.001093,-62.731987,0.002292,
2416,2593,3.44338004110971,-1.21207436877502,-0.0234945994169493,0.007334,-0.090897,0.000628,0.296697,-4.127454,321.617309,19.839972,0.999427,0.990603,0.004042,0.435062,0.000251,0.000139,0.000005,0.000251,0.000139,2.329861,0.000396,
2191,2878,-1.50126520465387,4.98727690649967,-0.00906728689125202,0.009537,-0.088446,0.006372,0.387121,-4.015098,317.390295,20.610106,0.999776,0.994694,0.003153,0.328107,0.000047,0.000053,-0.000001,0.000053,0.000047,-80.355970,0.000100,
2311,2053,1.2555243128754,-13.0400711692739,0.00162443981867,0.003766,-0.097058,-0.027411,0.228548,-4.546958,330.459753,18.366999,0.998736,0.984357,0.005294,0.382300,0.001323,0.001390,-0.000032,0.001402,0.001310,-68.280213,0.002713,
2356,2218,2.20776346532234,-9.41736065280616,-0.00798888321651248,0.005324,-0.093738,-0.019591,0.275559,-4.327768,327.756447,18.703993,0.998107,0.978538,0.006010,0.430947,0.000901,0.000925,-0.000045,0.000959,0.000866,-52.502358,0.001826,
2281,3298,0.38140076177045,14.1052490525294,0.0101937056987822,0.012390,-0.088953,0.014272,0.488881,-4.040426,310.585153,21.419591,0.999656,0.994011,0.003117,0.389130,0.000038,0.000046,0.000000,0.000046,0.000038,86.959419,0.000084,
2221,2998,-0.86880673310554,7.59342305278683,0.00958211245563234,0.010188,-0.088754,0.008818,0.408079,-4.028933,315.528119,20.693791,0.999474,0.990797,0.003818,0.426131,0.000017,0.000032,-0.000012,0.000039,0.000011,-60.719142,0.000052,
2386,2368,2.83361319829818,-6.13072301551251,-0.0143812761349409,0.006660,-0.092128,-0.006023,0.289612,-4.213140,325.305895,19.124626,0.998397,0.981865,0.005424,0.432299,0.000570,0.000455,-0.000031,0.000578,0.000448,-13.992298,0.001028,
2371,2293,2.52262737613672,-7.7744499886679,0.00581528003630183,0.006452,-0.092813,-0.013125,0.305044,-4.272343,326.694333,18.983449,0.999647,0.993814,0.003707,0.349667,0.000718,0.000642,-0.000035,0.000732,0.000628,-21.307868,0.001361,
2266,3178,0.0792412196932339,11.5004257518765,0.0418559573965354,0.011425,-0.088907,0.012571,0.450704,-4.035590,312.804127,21.090810,0.999428,0.990553,0.003799,0.443286,0.000024,0.000037,0.000003,0.000037,0.000023,78.320535,0.000061,
2401,2443,3.14752814634062,-4.49077410612084,-0.00678812624687453,0.007222,-0.091308,-0.007032,0.319293,-4.167988,324.197600,19.336334,0.999068,0.986699,0.004879,0.449332,0.000447,0.000282,-0.000016,0.000448,0.000281,-5.623217,0.000735,
2326,2113,1.57187627805731,-11.7231019912671,-0.00115493552664248,0.004119,-0.096893,-0.022307,0.227794,-4.504745,329.462701,18.427384,0.998766,0.981175,0.005730,0.417144,0.001177,0.001268,-0.000040,0.001284,0.001162,-69.304009,0.002447,
2236,3073,-0.555005692494216,9.22220852992069,0.0192230759622021,0.010899,-0.088452,0.009069,0.439526,-4.012844,314.379520,20.843217,0.999624,0.991780,0.003544,0.436268,0.000018,0.000020,-0.000005,0.000024,0.000014,-50.164525,0.000038,
2416,2608,3.44058105435682,-0.884194327629714,-0.026835515352559,0.007615,-0.090538,-0.001079,0.315987,-4.124216,321.364601,19.911426,0.999226,0.988750,0.004318,0.415220,0.000235,0.000129,0.000006,0.000235,0.000128,3.405134,0.000369,
2356,2233,2.20510730859823,-9.08835496971909,-0.0133005974388425,0.005814,-0.093713,-0.020876,0.302543,-4.338558,327.496954,18.739745,0.997421,0.974440,0.006515,0.425736,0.000852,0.000860,-0.000042,0.000898,0.000813,-47.778134,0.001712,
2311,2068,1.25281436342619,-12.7104673665347,-0.00257908936833928,0.004362,-0.097052,-0.024068,0.244499,-4.535106,330.199199,18.382709,0.998528,0.981283,0.005744,0.414217,0.001282,0.001354,-0.000025,0.001362,0.001274,-72.588884,0.002636,
2296,1993,0.937822980529013,-14.3592283191064,-0.0013432744548254,0.003024,-0.100129,-0.028308,0.195825,-4.670996,331.379772,18.214361,0.996698,0.965860,0.008189,0.374742,0.001419,0.001468,-0.000069,0.001516,0.001370,-54.748668,0.002888,
2341,2158,1.89129911601954,-10.7335620270031,-0.0236214348888097,0.005693,-0.094474,-0.027043,0.317693,-4.411858,328.636352,18.401586,0.998873,0.984103,0.005362,0.565863,0.001065,0.001104,-0.000042,0.001131,0.001038,-57.541355,0.002170,
2206,2938,-1.18492285199499,6.29007817345232,0.00195101717127955,0.009847,-0.088501,0.008653,0.393620,-4.005695,316.468025,20.590743,0.999415,0.991675,0.003739,0.446288,0.000035,0.000028,-0.000003,0.000036,0.000027,-18.583925,0.000063,
2221,3013,-0.870905512180141,7.91907452844166,0.0162654914116729,0.010357,-0.088423,0.010344,0.411090,-4.010779,315.342094,20.733332,0.999461,0.990925,0.003756,0.422863,0.000017,0.000027,-0.000014,0.000036,0.000008,-54.364251,0.000047,
2386,2383,2.83148926053011,-5.80239303976033,-0.0128960508686191,0.007273,-0.091889,-0.006533,0.319652,-4.218351,325.105332,19.214565,0.998678,0.983743,0.005311,0.381899,0.000543,0.000433,-0.000033,0.000552,0.000424,-15.452617,0.000979,
2251,3118,-0.236255052566705,10.1992670055198,0.0305423993864338,0.011157,-0.088383,0.007632,0.455607,-3.997045,313.722922,20.967928,0.999585,0.991475,0.003696,0.447276,0.000019,0.000021,-0.000005,0.000025,0.000015,-49.910470,0.000041,
2296,2008,0.93487721646801,-14.0285587950559,-0.00295329726253613,0.002725,-0.098776,-0.030778,0.191005,-4.644383,331.119745,18.318753,0.997958,0.975190,0.006619,0.330821,0.001402,0.001456,-0.000053,0.001489,0.001369,-58.585992,0.002859,
2371,2308,2.51882295037066,-7.44539550555838,-0.0033519850361472,0.006405,-0.092451,-0.010776,0.294766,-4.225026,326.364723,18.954308,0.999700,0.995112,0.003374,0.469659,0.000686,0.000589,-0.000029,0.000694,0.000581,-15.522063,0.001276,
2311,2083,1.24940074406484,-12.3789094027386,-0.00642205316484024,0.003973,-0.096732,-0.024384,0.227879,-4.506787,329.907863,18.570370,0.998655,0.982618,0.005648,0.290510,0.001239,0.001329,-0.000029,0.001338,0.001231,-73.625855,0.002569,
2266,3193,0.0766549327182382,11.826491064337,0.0401470697514128,0.011697,-0.088597,0.012842,0.462486,-4.025223,312.555479,21.167491,0.999491,0.990623,0.003722,0.401020,0.000023,0.000039,0.000005,0.000041,0.000022,75.306102,0.000064,
2236,3088,-0.557118006708414,9.54789326642936,0.0239269584729982,0.011118,-0.088455,0.009122,0.449457,-4.013256,314.183529,20.909212,0.999505,0.992044,0.003550,0.390069,0.000017,0.000013,-0.000007,0.000022,0.000007,-38.571704,0.000031,
2401,2458,3.14416769202717,-4.16233678829628,-0.0141192796140217,0.007492,-0.091086,-0.005416,0.325951,-4.159902,323.899643,19.364959,0.999208,0.986193,0.004949,0.475987,0.000426,0.000256,-0.000017,0.000427,0.000255,-5.522542,0.000689,
2326,2128,1.56944291867379,-11.3934926334507,0.00467804369492342,0.003923,-0.095879,-0.023585,0.223639,-4.471011,329.264784,18.553827,0.998965,0.983382,0.005383,0.361470,0.001135,0.001231,-0.000037,0.001244,0.001122,-71.112795,0.002367,
2206,2953,-1.18798686889376,6.61612520766752,-0.00454977107682453,0.009850,-0.088444,0.008901,0.393081,-3.990835,316.168540,20.563286,0.999339,0.991791,0.003780,0.505044,0.000031,0.000027,-0.000005,0.000035,0.000023,-33.134338,0.000058,
2221,3028,-0.873557343182451,8.24479231328102,0.0137008170716513,0.010480,-0.088427,0.009832,0.418413,-4.011215,315.083100,20.739201,0.999641,0.993480,0.003299,0.434928,0.000016,0.000024,-0.000014,0.000034,0.000006,-52.496711,0.000043,
2341,2173,1.88799733100945,-10.403897086886,-0.0142059649696762,0.005159,-0.094663,-0.018239,0.262612,-4.369920,328.416870,18.579884,0.998683,0.981779,0.005534,0.468988,0.001021,0.001055,-0.000041,0.001082,0.000994,-56.174144,0.002077,
2386,2398,2.8288811685097,-5.47516075314469,-0.00720071522329135,0.006937,-0.091331,-0.008640,0.312035,-4.207713,324.902548,19.233487,0.999051,0.985230,0.005002,0.418399,0.000513,0.000409,-0.000032,0.000522,0.000400,-15.984101,0.000925,
2356,2248,2.20203019882385,-8.75914547794486,-0.00941350862200352,0.005906,-0.093407,-0.012671,0.278087,-4.286771,327.261949,18.832341,0.998544,0.980076,0.005735,0.426358,0.000815,0.000775,-0.000044,0.000843,0.000746,-32.753212,0.001590,
2251,3133,-0.23890706169307,10.5240598869329,0.0378590889595785,0.011175,-0.088800,0.014732,0.433027,-3.998906,313.516530,20.979745,0.999394,0.991791,0.003717,0.455972,0.000016,0.000025,-0.000003,0.000026,0.000016,-73.764860,0.000042,
2401,2473,3.14172529894054,-3.83402624212733,-0.0113042861324857,0.007481,-0.090252,-0.008770,0.337956,-4.128337,323.691405,19.458141,0.999037,0.987231,0.004797,0.461133,0.000400,0.000235,-0.000015,0.000401,0.000234,-5.222106,0.000642,
2371,2323,2.51554124485678,-7.11721824010875,-0.00197126789311142,0.006178,-0.092463,-0.006932,0.270728,-4.208918,326.109553,18.987297,0.999401,0.991077,0.004160,0.496129,0.000647,0.000548,-0.000028,0.000655,0.000541,-14.791495,0.001197,
2266,3208,0.0738980369534339,12.1520394158854,0.03878582662486,0.011764,-0.088814,0.012953,0.465146,-4.029518,312.300886,21.217259,0.999700,0.993837,0.003250,0.371417,0.000024,0.000040,0.000006,0.000042,0.000022,71.042359,0.000065,
2236,3103,-0.559899649239856,9.87202389945918,0.023705329845086,0.011066,-0.088976,0.009924,0.444273,-4.044385,313.932141,20.835061,0.999519,0.992689,0.003480,0.453163,0.000014,0.000018,-0.000005,0.000021,0.000011,-56.531910,0.000032,
2326,2143,1.56687476594293,-11.0620018681802,-0.0087822509709099,0.005140,-0.094883,-0.023754,0.280342,-4.410353,328.966416,18.621877,0.999072,0.983997,0.005338,0.391992,0.001096,0.001166,-0.000037,0.001182,0.001080,-66.641226,0.002262,
2341,2188,1.88596512635249,-10.0739097912283,-0.0130090624882087,0.005606,-0.093986,-0.021412,0.294379,-4.383495,328.216005,18.760005,0.998861,0.984906,0.005194,0.314370,0.000971,0.001019,-0.000040,0.001042,0.000948,-60.604842,0.001990,
2386,2413,2.8269501857709,-5.1463218188081,-0.0130741993218635,0.007702,-0.090001,-0.016988,0.377580,-4.167353,324.675626,19.263691,0.999168,0.984743,0.004953,0.473651,0.000479,0.000375,-0.000024,0.000484,0.000370,-12.310647,0.000856,
2356,2263,2.19928116996924,-8.43059927011009,-0.00990021919284345,0.005762,-0.092753,-0.016084,0.283776,-4.282550,327.021239,18.871743,0.999199,0.982908,0.005222,0.432342,0.000773,0.000712,-0.000050,0.000801,0.000684,-29.265613,0.001486,
2251,3148,-0.241131522610043,10.8488784622891,0.0372185601407296,0.011373,-0.089004,0.010386,0.456190,-4.045286,313.289399,20.992636,0.998704,0.988414,0.004325,0.418775,0.000016,0.000032,-0.000001,0.000032,0.000016,-86.431846,0.000048,
2401,2488,3.13865680423651,-3.50625820608465,-0.0109841970189564,0.007558,-0.090831,-0.005670,0.330057,-4.145029,323.442891,19.531546,0.999085,0.988264,0.004560,0.417944,0.000377,0.000203,-0.000013,0.000378,0.000202,-4.226764,0.000589,
2266,3223,0.0710564909131328,12.4767260843167,0.0379184399229757,0.011749,-0.088863,0.013630,0.462216,-4.030700,312.045163,21.191310,0.999778,0.994835,0.003211,0.420520,0.000023,0.000041,0.000006,0.000043,0.000022,72.906631,0.000066,
2371,2338,2.51260460985636,-6.78825282980811,-0.00817878161194585,0.006360,-0.092357,-0.009918,0.289725,-4.249398,325.834085,19.078840,0.998848,0.984413,0.005064,0.407050,0.000621,0.000517,-0.000022,0.000626,0.000512,-11.638687,0.001140,
2326,2158,1.56406678806509,-10.7341771802967,-0.00763732631276071,0.005230,-0.095118,-0.020870,0.274489,-4.413034,328.728840,18.582199,0.998673,0.982554,0.005552,0.466226,0.001046,0.001094,-0.000035,0.001113,0.001028,-61.854203,0.002141,
2341,2203,1.88320897496936,-9.74529110276012,-0.0131923511327159,0.005634,-0.093444,-0.021796,0.297224,-4.337308,327.975141,18.746266,0.998820,0.982294,0.005475,0.413584,0.000931,0.000961,-0.000040,0.000989,0.000903,-55.147291,0.001893,
2386,2428,2.82404130853587,-4.81818453046402,-0.0117506421489111,0.007749,-0.090318,-0.014916,0.372231,-4.163136,324.438106,19.339810,0.999132,0.987633,0.004757,0.446632,0.000461,0.000334,-0.000016,0.000463,0.000332,-7.162939,0.000798,
2251,3163,-0.243160796382359,11.174663908253,0.0444209191119853,0.011623,-0.088775,0.011861,0.463032,-4.026633,313.110661,21.080968,0.999160,0.989585,0.004055,0.371360,0.000020,0.000037,0.000001,0.000037,0.000020,87.476185,0.000058,
2356,2278,2.19551746438524,-8.10057323921518,-0.0242990426385177,0.005895,-0.092557,-0.016777,0.292405,-4.279122,326.666969,18.911465,0.999311,0.987481,0.004641,0.437723,0.000734,0.000675,-0.000042,0.000756,0.000654,-27.464364,0.001411,
2266,3238,0.0684153167235344,12.8010536721611,0.0398239098679483,0.011763,-0.089107,0.014703,0.459198,-4.048223,311.812753,21.168134,0.999766,0.994291,0.003229,0.450175,0.000023,0.000030,0.000004,0.000032,0.000021,63.784517,0.000054,
2401,2503,3.1348426306131,-3.17717165865844,-0.0194533214317403,0.007503,-0.090746,-0.003663,0.320327,-4.129703,323.118383,19.618733,0.999229,0.989105,0.004400,0.393077,0.000349,0.000204,-0.000015,0.000350,0.000203,-5.713404,0.000559,
2371,2353,2.51013347425513,-6.45977155139249,-0.00807584265828609,0.006401,-0.091052,-0.014264,0.307558,-4.196822,325.609677,19.100885,0.998685,0.983805,0.005221,0.480684,0.000593,0.000481,-0.000016,0.000595,0.000478,-8.079216,0.001076,
2251,3178,-0.245573438403092,11.4989248832654,0.0506089206540992,0.011613,-0.088910,0.014067,0.455261,-4.033873,312.909677,21.051498,0.999400,0.990848,0.003703,0.415732,0.000020,0.000039,0.000004,0.000040,0.000020,79.642079,0.000060,
2386,2443,2.8194869596734,-4.49039488590176,-0.0123945574918594,0.007115,-0.091441,-0.002541,0.298381,-4.157842,324.115748,19.369627,0.998802,0.988462,0.004819,0.467152,0.000444,0.000284,-0.000007,0.000444,0.000284,-2.560544,0.000734,
2341,2218,1.8804109055065,-9.41656388734692,-0.01647179356479,0.005390,-0.092801,-0.028335,0.308998,-4.330356,327.717517,18.754641,0.998653,0.981142,0.005678,0.451569,0.000892,0.000913,-0.000037,0.000940,0.000864,-52.906847,0.001805,
2356,2293,2.19323685465212,-7.77081304660202,-0.0222989888933398,0.006416,-0.092444,-0.015360,0.311375,-4.262833,326.459321,19.086291,0.999424,0.992618,0.004198,0.319950,0.000698,0.000631,-0.000035,0.000713,0.000616,-23.161089,0.001330,
2266,3253,0.0660320157551091,13.1269480545249,0.037291951746397,0.012419,-0.089075,0.016582,0.483337,-4.023100,311.569203,21.225497,0.999718,0.993480,0.003413,0.442306,0.000022,0.000024,0.000005,0.000028,0.000018,51.347931,0.000046,
2401,2518,3.13204794192891,-2.85047795441942,-0.0213278397536669,0.007492,-0.089908,-0.007106,0.332651,-4.110919,322.872050,19.548582,0.999165,0.988084,0.004620,0.528892,0.000327,0.000202,-0.000017,0.000329,0.000199,-7.419337,0.000534,
2371,2368,2.50610529761456,-6.1304407530682,-0.0124942876799992,0.005997,-0.091214,-0.009017,0.270391,-4.184046,325.292269,19.201774,0.998412,0.982309,0.005303,0.435906,0.000564,0.000449,-0.000018,0.000567,0.000446,-8.862328,0.001015,
2341,2233,1.87758142544047,-9.08791299812071,-0.0116444705078038,0.005286,-0.092494,-0.024538,0.291195,-4.316570,327.497570,18.838905,0.998095,0.977358,0.006096,0.420123,0.000845,0.000847,-0.000034,0.000880,0.000811,-45.705707,0.001692,
2386,2458,2.81700328544741,-4.1607367991374,-0.0227030030378614,0.007876,-0.090504,-0.008451,0.354858,-4.134635,323.842178,19.467320,0.998916,0.987162,0.004893,0.437644,0.000422,0.000261,-0.000006,0.000423,0.000260,-1.951681,0.000690,
2356,2308,2.19113414560455,-7.44439477738843,-0.0128721762827126,0.006444,-0.091930,-0.014883,0.311169,-4.230792,326.295858,19.018982,0.999091,0.990307,0.004315,0.460125,0.000663,0.000577,-0.000028,0.000671,0.000568,-16.575003,0.001241,
2371,2383,2.50308603396715,-5.80239944942551,-0.0109461161218292,0.005796,-0.091545,-0.008101,0.257833,-4.186482,325.049783,19.262992,0.998858,0.983927,0.005147,0.414938,0.000538,0.000430,-0.000022,0.000542,0.000426,-11.041164,0.000970,
2401,2533,3.12937458978246,-2.52169311496984,-0.0191535895800712,0.007570,-0.089711,-0.007179,0.336607,-4.093336,322.649891,19.712754,0.999116,0.988528,0.004653,0.428876,0.000310,0.000184,-0.000017,0.000312,0.000182,-7.356476,0.000499,
