Image X[Pixel],Image Y[Pixel],X[mm],Y[mm],Z[mm],Horizontal Displacement U[mm],Vertical Displacement V[mm],Out-Of-Plane: W[mm],Horizontal: u[Pixel],Vertical: v[Pixel],Horizontal: q[Pixel],Vertical: r[Pixel],Correlation Value 2D,Correlation Value Persp,Sigma,Epipolar Distance,Strain-global frame: Exx,Strain-global frame: Eyy,Strain-global frame: Exy,Maximum Principal Strain: EI,Minimum Principal Strain: EII,Shear Angle Gamma,Von Mises Equivalent Strain,
2011,1993,-5.28248834688359,-14.2476885728736,0.0319549260695453,0.002174,0.004546,0.001540,0.096921,0.227740,332.507454,25.155769,0.998626,0.980555,0.005555,0.345230,0.000033,-0.000138,-0.000023,0.000036,-0.000141,-7.590242,0.000147,
2026,2068,-4.96572069335802,-12.6045163371532,0.0340578527236062,0.002905,0.003853,0.005071,0.120559,0.238186,331.255364,24.947537,0.999692,0.991786,0.003762,0.427809,0.000028,-0.000090,-0.000012,0.000029,-0.000091,-5.634763,0.000093,
2041,2143,-4.65101615535891,-10.9611979197936,0.0267225065771868,0.002399,0.003117,0.007525,0.090233,0.205393,329.873095,24.832420,0.998080,0.980043,0.006034,0.394689,0.000011,-0.000004,0.000011,0.000017,-0.000009,27.376484,0.000017,
2056,2218,-4.33584973650096,-9.31644329437619,0.0158100833897379,0.002606,0.004683,0.005255,0.106388,0.295830,328.507473,24.829967,0.998561,0.980372,0.005456,0.391785,0.000013,0.000052,0.000032,0.000070,-0.000006,60.558894,0.000078,
2071,2293,-4.02148388391104,-7.67630285772992,0.00310979608536854,0.002526,0.004315,0.004651,0.104182,0.260540,327.113145,24.655513,0.999780,0.993132,0.003829,0.455147,0.000024,0.000033,0.000024,0.000053,0.000004,50.227260,0.000064,
2266,3268,0.0531597317556312,13.5457683506775,0.0195638991173723,0.002877,0.004684,0.007316,0.110362,0.265734,310.731660,25.524496,0.999624,0.992617,0.003475,0.461159,0.000008,0.000055,0.000010,0.000057,0.000006,78.674423,0.000069,
2011,2008,-5.28536431898252,-13.9167633317097,0.0203197405061246,0.002299,0.004034,0.004223,0.095248,0.232216,332.168727,25.186101,0.998845,0.982986,0.005224,0.311673,0.000031,-0.000204,-0.000040,0.000037,-0.000211,-9.384331,0.000225,
2206,2968,-1.19647173299649,7.03463687289957,0.00509934167507708,0.003049,0.004489,0.005298,0.125470,0.266003,315.668145,24.930639,0.999342,0.990578,0.003886,0.414129,0.000001,0.000028,0.000004,0.000029,0.000001,81.193243,0.000034,
2176,2818,-1.82516891097631,3.77565645564312,-0.0249197150619693,0.002374,0.004441,0.007326,0.088340,0.281244,317.914967,24.741743,0.999395,0.989993,0.003996,0.423995,0.000008,0.000054,0.000001,0.000054,0.000008,89.001408,0.000067,
2191,2893,-1.5103260874957,5.4050924728215,-0.00713128151272713,0.002878,0.004362,0.005912,0.115754,0.269922,316.822596,24.805773,0.999766,0.994678,0.003236,0.435249,0.000006,0.000042,-0.000001,0.000042,0.000006,-88.833817,0.000052,
2101,2443,-3.39256855822146,-4.39951597749234,0.000971702585900402,0.002413,0.003706,0.010106,0.082726,0.258221,324.506383,24.553591,0.999350,0.987498,0.004479,0.462638,-0.000008,0.000004,-0.000017,0.000016,-0.000020,-54.914141,0.000021,
2101,2458,-3.3947645289324,-4.07167803939524,-0.005085328729308,0.002880,0.003781,0.008614,0.108592,0.262865,324.239415,24.538825,0.999341,0.987675,0.004419,0.484886,-0.000006,0.000004,-0.000023,0.000023,-0.000025,-50.932316,0.000028,
2296,2023,0.932545537368966,-13.5982915598656,0.0299937877488219,0.003147,0.003810,0.002969,0.135469,0.233722,331.020996,23.052121,0.999053,0.980876,0.005550,0.518878,0.000020,0.000077,0.000004,0.000077,0.000020,86.469945,0.000102,
2086,2368,-3.70649086790875,-6.03729503762663,-0.00345148796571948,0.002878,0.004107,0.002183,0.127346,0.241422,325.796892,24.560705,0.998402,0.980418,0.005525,0.474733,0.000006,0.000020,-0.000008,0.000024,0.000003,-65.493507,0.000029,
2116,2518,-3.07880462574978,-2.76111349963862,-0.0166223606422591,0.002628,0.004097,0.004559,0.108833,0.243990,323.104833,24.558864,0.999266,0.986519,0.004512,0.427900,0.000005,0.000030,-0.000021,0.000042,-0.000007,-60.576555,0.000045,
2026,2083,-4.96844932338396,-12.2752000301497,0.0304041015663756,0.002710,0.003567,0.007224,0.105673,0.221445,330.969829,24.972003,0.999196,0.986327,0.004718,0.380454,0.000030,-0.000043,-0.000003,0.000030,-0.000043,-2.552494,0.000044,
2146,2668,-2.4504305257274,0.508686770812616,-0.0198599418242225,0.003123,0.004996,0.000786,0.143154,0.283533,320.557596,24.528632,0.999597,0.991159,0.003761,0.527512,0.000004,0.000030,-0.000011,0.000035,-0.000001,-69.596759,0.000040,
2011,2023,-5.28737148488777,-13.5884975510806,0.0188210406855092,0.002340,0.004698,0.001276,0.105295,0.232598,331.926713,25.099875,0.998633,0.982779,0.005337,0.389882,0.000019,-0.000256,-0.000056,0.000030,-0.000267,-11.082752,0.000292,
2041,2158,-4.65440026881847,-10.629139590358,0.00976590530336807,0.002524,0.003195,0.011477,0.085023,0.221843,329.484938,24.961049,0.999226,0.986398,0.004866,0.278596,0.000008,-0.000019,0.000002,0.000008,-0.000019,4.016106,0.000019,
2161,2743,-2.13778976989058,2.14219021695226,-0.0215477894896594,0.002874,0.004018,0.008585,0.107515,0.251347,319.234372,24.616241,0.999361,0.989143,0.004199,0.453338,0.000005,0.000031,-0.000014,0.000038,-0.000001,-66.307421,0.000043,
2116,2533,-3.0812619339073,-2.4340045954747,-0.0180491586027642,0.002646,0.004455,0.004248,0.110728,0.267356,322.852231,24.528032,0.999217,0.984546,0.004812,0.486664,0.000001,0.000039,-0.000012,0.000043,-0.000003,-73.809103,0.000048,
2506,3073,5.3035951372906,9.33582341622052,0.00944074536118933,0.002558,0.004037,0.010886,0.077320,0.252908,313.960806,26.034733,0.999663,0.991751,0.003910,0.477428,0.000031,0.000056,0.000006,0.000057,0.000029,76.301622,0.000088,
2266,3283,0.049455995970721,13.8706824400096,0.0131498568783286,0.002531,0.004220,0.009705,0.086333,0.256163,310.407969,25.515428,0.999490,0.992354,0.003467,0.484453,0.000009,0.000059,0.000012,0.000062,0.000006,76.874083,0.000075,
2131,2593,-2.76512919386046,-1.12513552557823,-0.0218268651914855,0.002595,0.004496,0.004623,0.107219,0.285923,321.781175,24.528807,0.999397,0.989739,0.004254,0.504573,-0.000003,0.000037,-0.000010,0.000039,-0.000005,-76.834834,0.000043,
2041,2173,-4.65586214830547,-10.3021647304251,0.014371165307125,0.002705,0.003764,0.006721,0.106733,0.238728,329.304566,24.861616,0.999300,0.988039,0.004503,0.389767,0.000008,0.000004,0.000012,0.000019,-0.000007,39.537212,0.000019,
2431,2698,3.74468917649115,1.17453536923335,-0.0180202275209354,0.002696,0.004200,0.008116,0.095635,0.263310,319.703674,24.664314,0.999774,0.991665,0.003710,0.351416,0.000003,0.000052,-0.000018,0.000058,-0.000002,-72.097043,0.000065,
2251,3208,-0.259833019698434,12.242596113955,0.0436851915704324,0.002710,0.004127,0.006758,0.104495,0.245209,311.940062,25.381016,0.999704,0.995111,0.003119,0.413960,0.000001,0.000039,-0.000001,0.000039,0.000001,-87.810190,0.000045,
2236,3133,-0.574087158726897,10.6172557169634,0.0191263425846273,0.002359,0.004671,0.007511,0.086325,0.278355,312.975070,25.236268,0.999622,0.992071,0.003760,0.419134,-0.000012,0.000024,-0.000009,0.000026,-0.000014,-77.238188,0.000026,
2356,2323,2.18422459931378,-7.02079529362594,0.00740539419336983,0.002720,0.003613,0.009983,0.091081,0.247941,325.930766,23.512259,0.999682,0.994018,0.003725,0.498756,-0.000002,0.000003,0.000008,0.000009,-0.000008,52.502535,0.000010,
2131,2608,-2.76706766514902,-0.798785815524731,-0.0179713022348551,0.002758,0.004381,0.003310,0.118574,0.260554,321.582066,24.547101,0.999388,0.988764,0.004413,0.467256,-0.000002,0.000029,-0.000012,0.000033,-0.000006,-70.974606,0.000035,
2086,2383,-3.70887677229882,-5.70777216139449,-0.0113810056170109,0.003124,0.004719,-0.001143,0.148434,0.261294,325.509200,24.639912,0.998313,0.980473,0.005514,0.416484,0.000012,0.000032,-0.000005,0.000033,0.000011,-76.281978,0.000046,
2206,2983,-1.199444587553,7.36101002681384,-0.000146710949991302,0.002931,0.004665,0.003662,0.125240,0.263142,315.379175,24.969776,0.999375,0.991123,0.003767,0.388310,0.000000,0.000027,0.000004,0.000028,-0.000001,82.410330,0.000032,
2476,2923,4.68005872124236,6.07523239103342,-0.012951485836652,0.002815,0.004014,0.007365,0.103176,0.243341,316.173020,25.467581,0.999297,0.985638,0.004537,0.369580,0.000016,-0.000015,-0.000003,0.000016,-0.000016,-5.416945,0.000019,
2461,2848,4.36717452383724,4.44319134669294,-0.0282704394416555,0.002550,0.004281,0.006995,0.092737,0.263454,317.225159,25.115056,0.999730,0.992573,0.003459,0.441110,-0.000002,0.000023,-0.000012,0.000027,-0.000007,-68.579186,0.000028,
2341,2248,1.87137311754697,-8.66192285700938,0.00818481246830061,0.003008,0.003396,0.009946,0.104600,0.238458,327.161179,23.443079,0.999028,0.980982,0.005288,0.422006,-0.000011,-0.000013,-0.000011,-0.000001,-0.000023,-41.978664,0.000027,
2011,2038,-5.28882835984786,-13.2590397617803,0.0124500010791735,0.003340,0.004580,0.000122,0.154276,0.237501,331.682363,25.068564,0.998257,0.979870,0.005634,0.417902,0.000023,-0.000200,-0.000040,0.000030,-0.000207,-9.824197,0.000224,
2446,2773,4.05610711705537,2.80841325377289,-0.0285534157586085,0.002775,0.004423,0.003287,0.117151,0.254031,318.441586,24.757018,0.999502,0.987894,0.004378,0.509252,-0.000001,0.000069,-0.000008,0.000070,-0.000001,-83.496236,0.000079,
2371,2398,2.49679169907448,-5.3791837405622,0.00139621160343495,0.002515,0.004146,0.006206,0.095031,0.271224,324.675736,23.691735,0.999383,0.987063,0.004710,0.499609,0.000018,0.000027,0.000027,0.000050,-0.000005,50.013895,0.000055,
2071,2308,-4.02448737145464,-7.34676510134638,-0.0120438946717059,0.002573,0.004584,0.001511,0.115394,0.252583,326.756417,24.662950,0.999805,0.992879,0.003929,0.439262,0.000022,0.000023,0.000008,0.000030,0.000014,46.533889,0.000046,
2251,3193,-0.257062457652935,11.917914087811,0.0434027049984138,0.002927,0.004442,0.008415,0.109227,0.268172,312.187732,25.382358,0.999492,0.992089,0.003536,0.413598,0.000000,0.000032,-0.000006,0.000033,-0.000001,-80.505108,0.000037,
2011,2053,-5.29206834522698,-12.9309378791662,0.0220640755879344,0.002323,0.002848,0.010879,0.078017,0.225849,331.446348,25.115164,0.999413,0.991267,0.003923,0.351064,0.000030,-0.000144,-0.000045,0.000041,-0.000155,-13.764392,0.000160,
2296,2038,0.929909532527432,-13.2676899802736,0.0392111163079676,0.002733,0.003833,0.005322,0.108609,0.229516,330.828644,23.313555,0.999295,0.983407,0.005070,0.286279,0.000017,0.000066,-0.000006,0.000067,0.000016,-82.943790,0.000088,
2221,3043,-0.884055259390056,8.66345552963222,0.0129723465317966,0.002600,0.004226,0.008879,0.093024,0.258973,314.437622,25.061095,0.999689,0.993334,0.003320,0.405284,-0.000009,0.000006,-0.000011,0.000011,-0.000015,-61.388782,0.000015,
2326,2173,1.5581516009633,-10.3042079710215,0.0172641539646747,0.002425,0.004096,0.008254,0.084257,0.282105,328.428719,23.435587,0.998683,0.977612,0.005657,0.356830,0.000007,0.000002,-0.000004,0.000009,0.000000,-28.842896,0.000011,
2386,2473,2.80933733600236,-3.73884235283769,-0.00378351358511964,0.002922,0.003967,0.008186,0.106347,0.256245,323.437553,23.931694,0.999452,0.988633,0.004429,0.421816,0.000013,0.000003,0.000023,0.000032,-0.000016,39.288433,0.000032,
2176,2833,-1.82800379760866,4.10176581471429,-0.0319395203977706,0.002516,0.004429,0.006785,0.096529,0.262859,317.620767,24.714023,0.999681,0.993369,0.003475,0.445478,0.000009,0.000055,0.000004,0.000055,0.000009,84.426400,0.000069,
2056,2233,-4.33853881486683,-8.98801817457775,0.00906952671283534,0.002736,0.004120,0.007564,0.105691,0.263875,328.209912,24.814209,0.999183,0.986561,0.004798,0.373020,0.000015,0.000053,0.000034,0.000074,-0.000005,59.615863,0.000082,
2056,2248,-4.34100730687694,-8.6610830850651,0.0104752614598169,0.002404,0.003540,0.006994,0.091870,0.219296,327.967517,24.764644,0.999008,0.984669,0.004977,0.375084,0.000014,0.000072,0.000035,0.000088,-0.000003,64.879866,0.000100,
2026,2128,-4.97595898529697,-11.2875145813091,0.0176268895392013,0.002555,0.003701,0.007633,0.097530,0.239231,330.133733,24.969463,0.998505,0.976920,0.006164,0.381546,0.000016,-0.000005,0.000002,0.000016,-0.000005,4.360818,0.000016,
2161,2758,-2.14041677528501,2.46834085871087,-0.0169120857374878,0.002568,0.004054,0.010439,0.087766,0.267978,319.009770,24.624318,0.999153,0.986842,0.004340,0.471838,0.000007,0.000031,-0.000014,0.000037,0.000000,-65.719553,0.000043,
2221,3058,-0.885621946098627,8.98801800867885,0.0222005385002717,0.002932,0.004430,0.007669,0.112352,0.275505,314.289436,25.030030,0.999723,0.994079,0.003113,0.470822,-0.000004,0.000009,-0.000013,0.000017,-0.000012,-58.146609,0.000017,
2236,3118,-0.570850351259342,10.2914223564019,0.0247544920227938,0.002693,0.004492,0.009760,0.094339,0.275508,313.275724,25.211626,0.999550,0.991807,0.003716,0.420937,-0.000012,0.000021,-0.000012,0.000025,-0.000016,-72.349007,0.000025,
2266,3298,0.0472275569299647,14.1964822764873,0.017754843354794,0.002539,0.004465,0.007581,0.093788,0.252954,310.207448,25.645315,0.999554,0.992985,0.003445,0.375248,0.000011,0.000065,0.000011,0.000067,0.000009,78.989821,0.000083,
2401,2548,3.12165356362216,-2.10102926256487,-0.00573644775215598,0.002907,0.003991,0.008020,0.106039,0.254786,322.217674,24.082675,0.999337,0.988960,0.004622,0.466937,0.000017,-0.000009,0.000002,0.000018,-0.000010,3.674201,0.000018,
2416,2623,3.43281649606709,-0.463123337038105,-0.0175834995524724,0.002772,0.003787,0.007886,0.100020,0.251487,320.911330,24.282339,0.999377,0.988184,0.004172,0.482606,0.000011,0.000019,-0.000008,0.000024,0.000006,-58.896342,0.000032,
2296,2053,0.927414065083187,-12.9380754974054,0.0333944060243425,0.003280,0.004158,0.003999,0.138248,0.239499,330.568562,23.307272,0.999272,0.982084,0.005143,0.336196,0.000014,0.000069,-0.000005,0.000069,0.000013,-84.462856,0.000089,
2191,2923,-1.51536726910723,6.05674474609012,-0.00195785547788319,0.002761,0.004433,0.007877,0.104258,0.282450,316.365716,24.837180,0.999306,0.990384,0.003978,0.444299,0.000005,0.000033,0.000000,0.000033,0.000005,-89.394584,0.000041,
2011,2113,-5.29988994680556,-11.6162440677727,0.0219836930247652,0.002687,0.004080,0.003702,0.114564,0.239616,330.520862,25.070754,0.998313,0.978662,0.005935,0.374410,0.000033,-0.000007,-0.000009,0.000035,-0.000009,-11.525163,0.000036,
2161,2773,-2.14334173563356,2.79529987318885,-0.0251741370237255,0.002530,0.003957,0.007801,0.094097,0.250165,318.703361,24.643887,0.999455,0.990064,0.003951,0.444639,0.000010,0.000034,-0.000012,0.000039,0.000005,-67.864238,0.000048,
2101,2473,-3.39733107298176,-3.74388803121808,-0.00812765626642431,0.002872,0.003696,0.008454,0.108676,0.254254,323.971809,24.566458,0.999331,0.988332,0.004342,0.451193,-0.000003,0.000018,-0.000014,0.000025,-0.000010,-62.855745,0.000025,
2011,2068,-5.29317251915117,-12.6032726377288,0.0270910489887228,0.002838,0.003572,0.007110,0.112076,0.230420,331.282134,25.058740,0.999388,0.990525,0.004046,0.403120,0.000037,-0.000101,-0.000027,0.000042,-0.000106,-10.588754,0.000106,
2101,2503,-3.402180963084,-3.08904466513513,-0.0137578251340642,0.002850,0.004034,0.004055,0.120611,0.243345,323.452153,24.567976,0.999274,0.988577,0.004212,0.443699,0.000004,0.000024,-0.000016,0.000033,-0.000005,-60.956493,0.000036,
2506,3088,5.30157093246325,9.66183918652406,0.0163134261068194,0.002724,0.004349,0.007090,0.099781,0.254169,313.794887,26.148710,0.999695,0.992625,0.003500,0.424824,0.000037,0.000073,0.000017,0.000080,0.000030,67.841091,0.000113,
2446,2788,4.0533450940138,3.13514035315804,-0.0220269309419905,0.002737,0.004587,0.006446,0.103688,0.266745,318.237927,24.849629,0.999447,0.988126,0.004244,0.481508,-0.000001,0.000065,-0.000012,0.000067,-0.000003,-80.330379,0.000076,
2026,2098,-4.97061257824447,-11.9461411688399,0.0315604289789917,0.002599,0.003798,0.006155,0.103575,0.246814,330.736630,24.989517,0.998933,0.980700,0.005427,0.381683,0.000027,0.000000,0.000004,0.000028,-0.000001,8.265564,0.000032,
2491,2998,4.99271985550547,7.70540314499611,0.00782757111750243,0.002641,0.004272,0.008625,0.090204,0.246392,315.146137,25.758095,0.999309,0.987619,0.004228,0.403946,0.000029,0.000016,0.000006,0.000032,0.000013,21.217529,0.000046,
2191,2908,-1.51288495874526,5.72933003360989,-0.000749554532092134,0.002611,0.004193,0.008294,0.095927,0.267471,316.612678,24.709492,0.999744,0.994337,0.003360,0.543099,0.000006,0.000032,-0.000002,0.000033,0.000006,-85.762827,0.000042,
2071,2323,-4.02565397307417,-7.02071494673248,0.00338557811903684,0.003044,0.004011,0.006394,0.122961,0.254684,326.651302,24.651627,0.999169,0.987339,0.004642,0.450886,0.000020,0.000012,0.000002,0.000020,0.000012,10.303726,0.000032,
2311,2098,1.24552649158244,-11.9498099989981,0.0215929997923467,0.002947,0.003997,0.005127,0.119010,0.261085,329.715556,23.278622,0.999381,0.980666,0.005482,0.396307,0.000013,0.000052,0.000001,0.000052,0.000013,88.887090,0.000069,
2146,2698,-2.4567162120028,1.16311162568813,-0.0289531315081604,0.002785,0.004415,0.006682,0.109601,0.278137,319.961328,24.589329,0.999408,0.989577,0.004013,0.478015,0.000007,0.000036,-0.000014,0.000042,0.000001,-67.788033,0.000049,
2116,2548,-3.08377276441887,-2.10644847459066,-0.0248762066298696,0.002969,0.004535,0.003999,0.126319,0.263576,322.568178,24.522310,0.999255,0.986910,0.004526,0.493163,0.000002,0.000037,-0.000005,0.000037,0.000001,-81.390800,0.000044,
2041,2203,-4.66026521796321,-9.64428487969496,0.00679421485557441,0.003049,0.004433,0.003957,0.130414,0.263325,328.782915,24.868864,0.998695,0.981393,0.005413,0.397532,0.000006,0.000045,0.000026,0.000058,-0.000006,63.708678,0.000064,
2146,2683,-2.45373206348836,0.835865966956455,-0.0235356999392593,0.002989,0.003955,0.007505,0.116307,0.248346,320.256910,24.592900,0.999358,0.989770,0.003963,0.436299,0.000005,0.000036,-0.000012,0.000040,0.000000,-70.899374,0.000047,
2026,2143,-4.97822653606759,-10.9609882951781,0.0233624915924224,0.002333,0.002865,0.011075,0.077634,0.227383,329.921951,24.859226,0.997930,0.977030,0.006153,0.473055,0.000018,0.000001,0.000002,0.000018,0.000001,7.174447,0.000021,
2281,2008,0.607633697275546,-13.9255776937271,0.0338501542197491,0.003013,0.004212,0.003866,0.126564,0.257004,331.299267,23.293326,0.999319,0.982162,0.005329,0.371162,0.000027,0.000083,-0.000001,0.000083,0.000027,-89.046549,0.000115,
2461,2863,4.36457844744919,4.76930066271647,-0.0230257722304827,0.002414,0.004452,0.005424,0.092497,0.269814,317.023971,25.167480,0.999523,0.990293,0.003785,0.449013,0.000001,0.000023,-0.000011,0.000027,-0.000004,-67.440888,0.000029,
2236,3148,-0.575729949358081,10.941495921604,0.0285129671325421,0.002667,0.004510,0.006851,0.102600,0.267940,312.825005,25.223014,0.999247,0.990655,0.003944,0.441968,-0.000009,0.000022,-0.000010,0.000025,-0.000012,-73.631999,0.000025,
2446,2803,4.05032471537875,3.46247053177349,-0.0238296489864069,0.002900,0.004336,0.006839,0.109609,0.254215,317.983813,24.962416,0.999569,0.989554,0.003975,0.408189,-0.000001,0.000052,-0.000009,0.000053,-0.000003,-80.967388,0.000060,
2251,3253,-0.268891046043375,13.2187304283811,0.0357754416298235,0.002477,0.004431,0.009224,0.085870,0.272048,311.117241,25.447681,0.999658,0.993632,0.003307,0.439856,0.000003,0.000051,0.000007,0.000052,0.000002,81.256809,0.000061,
2116,2578,-3.08824207460966,-1.45276083812794,-0.0176941600483929,0.002891,0.004358,0.004542,0.121096,0.260741,322.137490,24.574548,0.999415,0.989204,0.004257,0.446381,0.000002,0.000028,-0.000009,0.000031,-0.000001,-72.859855,0.000035,
2296,2083,0.921000325369672,-12.2788585141227,0.0295098356551762,0.002799,0.003995,0.006876,0.106510,0.264473,330.021368,23.393183,0.999354,0.982514,0.005138,0.342203,0.000013,0.000064,0.000003,0.000064,0.000013,87.099933,0.000082,
2131,2653,-2.77408223695702,0.180634050049385,-0.00783534567949573,0.002580,0.004256,0.005930,0.102514,0.261436,320.921868,24.572155,0.999622,0.990934,0.003794,0.461319,0.000002,0.000031,-0.000012,0.000035,-0.000002,-70.033512,0.000039,
2296,2068,0.924462174649289,-12.6096086407703,0.0362172388362865,0.002955,0.003865,0.005693,0.117546,0.244095,330.330326,23.303966,0.999318,0.982107,0.005139,0.377473,0.000012,0.000070,0.000002,0.000070,0.000012,87.950450,0.000089,
2341,2263,1.86840986819137,-8.33352906271361,0.0119669838650225,0.002506,0.003992,0.009256,0.084260,0.251003,326.929987,23.503956,0.999129,0.982477,0.005116,0.412390,-0.000014,-0.000020,-0.000011,-0.000005,-0.000029,-37.397838,0.000037,
2476,2938,4.67719968602666,6.40102966300192,-0.00807010313104684,0.002627,0.004230,0.007751,0.093189,0.264705,315.958700,25.492387,0.999430,0.988585,0.004089,0.422096,0.000017,-0.000018,-0.000009,0.000019,-0.000021,-14.057452,0.000023,
2056,2278,-4.34539750269196,-8.00273226564275,0.00260323989920153,0.003000,0.003919,0.006403,0.121090,0.241977,327.447614,24.869830,0.999619,0.990926,0.004181,0.286617,0.000012,0.000061,0.000041,0.000085,-0.000011,60.506633,0.000092,
2401,2563,3.11795499242691,-1.77282535506774,-0.0118803897067323,0.002666,0.004254,0.008618,0.092953,0.277933,321.909221,24.124481,0.999291,0.987194,0.004525,0.495060,0.000015,-0.000003,-0.000002,0.000015,-0.000003,-5.750827,0.000016,
2041,2218,-4.66284004545185,-9.31612293861471,0.00649552057461733,0.002758,0.004785,0.004612,0.115345,0.290358,328.524429,24.831867,0.998128,0.974211,0.006063,0.456621,0.000011,0.000057,0.000034,0.000075,-0.000008,61.818526,0.000083,
2281,1993,0.610346067437046,-14.2542166514306,0.0306454166860135,0.003065,0.004370,0.000872,0.138985,0.240318,331.525812,23.309923,0.999352,0.969244,0.006693,0.306431,0.000023,0.000083,-0.000016,0.000087,0.000019,-76.230097,0.000113,
2041,2188,-4.65837090273903,-9.97329139680525,0.0140505238576338,0.002467,0.004286,0.007146,0.094760,0.286674,329.048702,24.857325,0.999180,0.985396,0.004851,0.437411,0.000009,0.000037,0.000027,0.000054,-0.000008,58.673855,0.000058,
2071,2338,-4.02774830439222,-6.6937482898492,0.00755755122031587,0.002772,0.004113,0.002948,0.120335,0.248529,326.442194,24.624595,0.998606,0.985057,0.004990,0.470299,0.000015,0.000001,-0.000008,0.000018,-0.000003,-24.024776,0.000020,
2011,2128,-5.30240228802507,-11.2857479417725,0.013482046765148,0.002823,0.004457,0.003326,0.121916,0.270420,330.216245,25.120471,0.998404,0.977779,0.006066,0.346729,0.000025,-0.000011,-0.000004,0.000025,-0.000012,-6.894654,0.000025,
2371,2413,2.49419660836818,-5.05070243222784,0.00190226698657625,0.002694,0.004148,0.005470,0.105819,0.255076,324.447585,23.807210,0.999541,0.988095,0.004489,0.410386,0.000012,0.000023,0.000027,0.000045,-0.000010,50.502519,0.000047,
2251,3223,-0.262009475654448,12.5672560004779,0.0534512329984409,0.002607,0.004369,0.007886,0.096185,0.265004,311.767878,25.392929,0.999655,0.994418,0.003261,0.443910,0.000001,0.000049,-0.000001,0.000049,0.000001,-89.210986,0.000058,
2011,2083,-5.29608509911951,-12.2731182229095,0.0178927079923028,0.002489,0.003803,0.004755,0.102469,0.249316,330.955465,25.063232,0.998539,0.980066,0.005620,0.409257,0.000039,-0.000058,-0.000016,0.000041,-0.000061,-9.168365,0.000062,
2206,2998,-1.20227299669246,7.68626362488221,0.00241266214311509,0.002853,0.004264,0.008342,0.106698,0.266519,315.137566,24.957426,0.999430,0.990692,0.003849,0.419875,-0.000002,0.000024,0.000003,0.000024,-0.000003,84.531857,0.000026,
2311,2113,1.24324346803978,-11.6227186734261,0.0286983348401009,0.002965,0.003499,0.006419,0.115225,0.245695,329.530246,23.232993,0.999284,0.980908,0.005385,0.461405,0.000010,0.000042,0.000000,0.000042,0.000010,89.867050,0.000056,
2086,2398,-3.71125684222504,-5.3810442277799,-0.00581026847038402,0.002931,0.004464,0.002123,0.130106,0.271136,325.295726,24.608801,0.998791,0.983573,0.005015,0.457769,0.000003,0.000025,-0.000008,0.000028,0.000001,-71.430155,0.000033,
2191,2938,-1.51735789281949,6.38181641555104,0.00308278732359213,0.002845,0.004220,0.005649,0.115050,0.262146,316.174650,24.833013,0.999447,0.991679,0.003736,0.442195,0.000005,0.000032,0.000002,0.000032,0.000005,86.231865,0.000040,
2071,2353,-4.03073689468523,-6.36485975955373,-0.000727422245688558,0.002574,0.003881,0.002389,0.112778,0.245253,326.123765,24.653254,0.998426,0.981531,0.005392,0.437530,0.000009,0.000001,-0.000008,0.000013,-0.000004,-31.769876,0.000014,
2131,2623,-2.76960986429393,-0.471932841656695,-0.0152963738718768,0.002645,0.004434,0.005791,0.105967,0.265718,321.348783,24.575272,0.999413,0.989164,0.004258,0.450486,0.000000,0.000017,-0.000015,0.000025,-0.000008,-60.557499,0.000026,
2116,2563,-3.08615290966165,-1.77954753317012,-0.0195503457300106,0.002821,0.004173,0.006563,0.111841,0.256866,322.355480,24.572101,0.999251,0.987104,0.004591,0.440791,0.000005,0.000031,-0.000010,0.000034,0.000002,-71.676341,0.000041,
2326,2188,1.5567161363319,-9.97764397984361,0.0232916269294492,0.002852,0.004316,0.002384,0.124094,0.251595,328.277966,23.370032,0.999047,0.981008,0.005353,0.428356,0.000002,0.000002,-0.000007,0.000009,-0.000005,-45.508902,0.000009,
2161,2788,-2.14496688072949,3.12143894256833,-0.023313079448485,0.002987,0.004313,0.003286,0.129102,0.253980,318.510095,24.650503,0.999569,0.990492,0.003951,0.452142,0.000006,0.000041,-0.000009,0.000043,0.000004,-76.238768,0.000053,
2221,3073,-0.888426092857031,9.31374893876837,0.0231194641084471,0.002654,0.004389,0.007028,0.101572,0.265962,314.041264,25.082053,0.999594,0.992974,0.003364,0.427210,-0.000007,0.000017,-0.000014,0.000023,-0.000013,-65.659167,0.000023,
2161,2803,-2.14718897669784,3.4475238736336,-0.0174084212137018,0.002909,0.004567,0.003720,0.124287,0.265633,318.310763,24.679660,0.999592,0.991358,0.003792,0.444366,0.000006,0.000041,-0.000007,0.000043,0.000005,-79.235313,0.000052,
2386,2488,2.80622944304505,-3.41140619118119,-0.00288283900306396,0.002796,0.003811,0.010218,0.093218,0.264963,323.188725,23.955341,0.999461,0.988316,0.004342,0.451206,0.000016,0.000009,0.000021,0.000034,-0.000008,40.019695,0.000035,
2431,2713,3.7427982711188,1.49930254987694,-0.00963872812405953,0.003064,0.004134,0.007809,0.113675,0.264863,319.548563,24.581764,0.999716,0.991223,0.003781,0.485395,-0.000001,0.000052,-0.000014,0.000056,-0.000005,-76.450591,0.000062,
2026,2158,-4.98055330232365,-10.6300465473611,0.0191344301943559,0.002430,0.003121,0.010458,0.083869,0.215952,329.651257,25.049232,0.999159,0.985328,0.004895,0.264795,0.000017,-0.000021,-0.000009,0.000019,-0.000023,-12.721915,0.000025,
2506,3103,5.29883223329012,9.98720748539214,0.0156651609383403,0.002875,0.004583,0.004077,0.118475,0.251161,313.562438,26.163063,0.999713,0.992157,0.003485,0.467717,0.000035,0.000066,0.000026,0.000081,0.000020,60.398340,0.000107,
2056,2293,-4.34745721527677,-7.67731335874845,0.0108506281049472,0.002768,0.003655,0.007711,0.106667,0.251923,327.261593,24.711773,0.999871,0.994038,0.003554,0.451085,0.000013,0.000036,0.000031,0.000057,-0.000008,55.235254,0.000062,
2236,3178,-0.580477501304607,11.590870716212,0.0417596073112918,0.002491,0.004248,0.009381,0.086127,0.252692,312.429046,25.248397,0.999340,0.990869,0.003783,0.440990,-0.000002,0.000030,-0.000005,0.000030,-0.000003,-81.879417,0.000034,
2176,2848,-1.82957136509074,4.42708975842968,-0.022232880723152,0.002770,0.004283,0.005882,0.110962,0.251641,317.472556,24.737154,0.999362,0.990872,0.003784,0.423016,0.000005,0.000047,0.000004,0.000048,0.000005,84.739674,0.000058,
2101,2518,-3.40519223146393,-2.76132954717674,-0.0162140319697528,0.002569,0.003841,0.007094,0.098795,0.246951,323.167315,24.597747,0.999609,0.991716,0.003755,0.420081,0.000003,0.000026,-0.000014,0.000032,-0.000004,-64.600290,0.000035,
2356,2338,2.18104410370366,-6.69035154638923,0.000383357303917364,0.002481,0.004325,0.004176,0.100819,0.252141,325.638305,23.687239,0.999436,0.988488,0.004452,0.369046,0.000001,0.000011,0.000011,0.000018,-0.000005,57.211073,0.000018,
2221,3103,-0.893179582236645,9.96424659848657,0.0289860405091531,0.002841,0.004616,0.008178,0.106540,0.266953,313.605180,25.114066,0.999442,0.991859,0.003693,0.431859,-0.000010,0.000017,-0.000010,0.000021,-0.000014,-72.324999,0.000021,
2281,2023,0.604676816872761,-13.5957139189649,0.02713115556503,0.003071,0.004603,0.001731,0.136515,0.263420,331.012164,23.291565,0.999110,0.981132,0.005519,0.410951,0.000024,0.000086,0.000008,0.000087,0.000023,82.468522,0.000117,
2206,3028,-1.20682957489923,8.33685658888302,0.0124674224690011,0.002948,0.004310,0.010346,0.104698,0.255009,314.730390,25.002609,0.999614,0.992457,0.003551,0.394817,-0.000004,0.000012,-0.000003,0.000012,-0.000005,-79.472407,0.000013,
2236,3163,-0.578512222990543,11.2662582293246,0.0323147562614849,0.002433,0.004349,0.009009,0.084729,0.263163,312.593795,25.221430,0.999341,0.990352,0.003924,0.458848,-0.000004,0.000028,-0.000006,0.000029,-0.000005,-79.105169,0.000031,
2296,2098,0.917674906871714,-11.9496808631239,0.025146648166583,0.002595,0.003649,0.008006,0.093259,0.255620,329.730495,23.400234,0.999112,0.980103,0.005486,0.359652,0.000012,0.000049,0.000001,0.000049,0.000012,88.927338,0.000064,
2191,2953,-1.52029712414404,6.70741664780362,0.00804210519493154,0.002387,0.004282,0.009245,0.082718,0.277914,315.939378,24.844557,0.999374,0.991264,0.003772,0.460141,0.000005,0.000027,0.000004,0.000028,0.000004,79.918369,0.000035,
2011,2143,-5.30492886449046,-10.9581066699033,0.012702152578413,0.002755,0.003824,0.007647,0.106955,0.269263,329.954877,25.031320,0.998178,0.977722,0.005984,0.426122,0.000030,0.000000,0.000000,0.000030,0.000000,-0.512068,0.000035,
2416,2638,3.43021541100297,-0.135395527337153,-0.0137973608800053,0.002857,0.004020,0.008371,0.102241,0.251176,320.700898,24.414516,0.999449,0.988333,0.004200,0.398215,0.000002,0.000021,-0.000012,0.000027,-0.000004,-63.450541,0.000029,
2041,2233,-4.66498882879732,-8.98725624059368,0.00424463906387018,0.002837,0.004670,0.002216,0.125609,0.267536,328.274710,24.893835,0.999081,0.981621,0.005280,0.366791,0.000013,0.000056,0.000035,0.000075,-0.000007,60.627412,0.000083,
2056,2263,-4.34325857002306,-8.33246156432958,0.00571673902408065,0.002761,0.003261,0.007785,0.105984,0.231475,327.700597,24.754623,0.998959,0.983736,0.005291,0.394377,0.000014,0.000073,0.000038,0.000091,-0.000005,63.862141,0.000103,
2491,3013,4.98928708593533,8.03193436094801,0.00334604192204324,0.002579,0.004158,0.007678,0.090909,0.236557,314.863501,25.836774,0.999574,0.992139,0.003587,0.373677,0.000033,0.000026,0.000002,0.000033,0.000025,16.971928,0.000059,
2146,2713,-2.45928859353232,1.48954964754736,-0.0269220568442847,0.002631,0.004114,0.007807,0.098996,0.261461,319.724444,24.623559,0.999536,0.991329,0.003885,0.435115,0.000008,0.000033,-0.000017,0.000042,-0.000001,-63.649884,0.000048,
2401,2578,3.11477317749665,-1.4451088818927,-0.0117188581160121,0.002420,0.003987,0.008914,0.080491,0.258893,321.654325,24.224373,0.999258,0.986695,0.004574,0.422369,0.000015,0.000016,-0.000003,0.000019,0.000012,-48.708581,0.000031,
2251,3238,-0.265260815516474,12.8919513379747,0.0473544307848783,0.002470,0.004444,0.007691,0.090540,0.261993,311.465620,25.343710,0.999768,0.995597,0.002957,0.512088,0.000003,0.000048,0.000003,0.000049,0.000003,86.791252,0.000058,
2026,2173,-4.98209120078304,-10.3024851470375,0.0203344148809492,0.002769,0.003584,0.006506,0.110444,0.231546,329.447280,24.967524,0.999203,0.987543,0.004550,0.355090,0.000019,0.000005,0.000003,0.000019,0.000004,11.393967,0.000025,
2431,2728,3.73945794911352,1.8254373403724,-0.0115832777083824,0.002972,0.003794,0.009302,0.103763,0.238232,319.278579,24.573573,0.999709,0.991425,0.003730,0.517341,-0.000005,0.000050,-0.000008,0.000051,-0.000006,-81.846607,0.000056,
2251,3268,-0.272315270766253,13.5445083119648,0.0202971385749606,0.002738,0.004574,0.007566,0.103409,0.270064,310.758826,25.455162,0.999514,0.992118,0.003565,0.452295,0.000005,0.000056,0.000012,0.000059,0.000002,77.234968,0.000069,
2176,2878,-1.83330495708335,5.07810552672306,-0.00372890311842866,0.002995,0.004278,0.007768,0.115547,0.271294,317.143730,24.777545,0.999481,0.992364,0.003539,0.426061,0.000009,0.000046,0.000001,0.000046,0.000009,88.874330,0.000059,
2386,2503,2.80345213702225,-3.08357022490408,-2.90885994900236E-05,0.002620,0.003935,0.009329,0.088399,0.268558,322.964210,24.043177,0.999564,0.989379,0.004131,0.411623,0.000013,0.000013,0.000017,0.000030,-0.000004,45.328473,0.000032,
2116,2593,-3.0904486952899,-1.1272043050351,-0.0128275895630168,0.002748,0.004239,0.004113,0.115805,0.261954,321.930617,24.497481,0.999551,0.990568,0.004041,0.528676,-0.000004,0.000036,-0.000008,0.000038,-0.000005,-78.635033,0.000041,
2116,2608,-3.0928196102872,-0.799768792827017,-0.0179012349562413,0.003003,0.004295,0.002286,0.132936,0.245682,321.662428,24.528651,0.999153,0.987085,0.004629,0.485558,-0.000003,0.000028,-0.000012,0.000032,-0.000007,-71.339363,0.000034,
2101,2533,-3.40834162404161,-2.43368576275903,-0.0240853196261241,0.002307,0.004093,0.007184,0.086553,0.262053,322.846891,24.566338,0.999500,0.990258,0.004054,0.469168,-0.000002,0.000038,-0.000004,0.000038,-0.000002,-83.620022,0.000043,
2446,2818,4.04770984543631,3.78785766090685,-0.0206266458953337,0.002880,0.004665,0.005195,0.114937,0.257259,317.771799,24.923688,0.999516,0.989199,0.004096,0.502105,-0.000003,0.000035,-0.000009,0.000037,-0.000005,-77.502937,0.000040,
2161,2818,-2.14976611787192,3.77438552347065,-0.0111115792464034,0.002630,0.004535,0.006756,0.102150,0.275953,318.096982,24.788093,0.999728,0.992986,0.003431,0.356159,0.000009,0.000050,0.000000,0.000050,0.000009,89.785342,0.000063,
2056,2308,-4.34941408598051,-7.34899687016086,0.00821893979639299,0.003120,0.003992,0.005720,0.128557,0.254929,327.019942,24.720590,0.999633,0.990335,0.004191,0.441977,0.000012,0.000023,0.000012,0.000031,0.000004,57.151920,0.000038,
2011,2158,-5.30771667056225,-10.6285841499123,0.0134645231877357,0.002258,0.003651,0.010424,0.076582,0.269028,329.689841,25.134577,0.998135,0.977656,0.006137,0.313363,0.000025,-0.000026,-0.000015,0.000029,-0.000029,-14.936780,0.000034,
2221,3118,-0.895412002521308,10.2897973766827,0.0343415502330231,0.002812,0.004623,0.007309,0.108006,0.268052,313.406104,25.177632,0.999535,0.991367,0.003810,0.387492,-0.000011,0.000024,-0.000010,0.000027,-0.000014,-74.448499,0.000027,
2071,2383,-4.03561054318468,-5.70888884067114,-0.00217783362791124,0.002427,0.004202,0.002763,0.105070,0.258593,325.620229,24.689671,0.998605,0.982960,0.005211,0.411701,0.000017,0.000036,-0.000004,0.000037,0.000016,-80.009915,0.000054,
2086,2428,-3.71584558464645,-4.72626296903978,-0.00303067605932483,0.003046,0.004412,0.005346,0.126113,0.269291,324.831041,24.622923,0.999163,0.986153,0.004575,0.443122,0.000002,0.000006,-0.000004,0.000008,-0.000001,-56.227635,0.000009,
2281,2098,0.590086196878502,-11.9492848974323,0.0193289412713966,0.002646,0.003795,0.004045,0.109135,0.224507,329.713656,23.469132,0.998655,0.977627,0.005803,0.350519,0.000017,0.000050,0.000006,0.000051,0.000016,79.919948,0.000070,
2491,3028,4.98602167196871,8.35786216804718,0.00416563457037,0.002549,0.004150,0.010482,0.078862,0.255884,314.612550,25.870615,0.999729,0.993653,0.003333,0.417203,0.000038,0.000047,0.000001,0.000047,0.000037,86.388547,0.000085,
2026,2113,-4.97333090550869,-11.6164155271008,0.0215387699194025,0.002777,0.003885,0.007930,0.106906,0.251669,330.416033,24.972077,0.998386,0.977634,0.005984,0.397891,0.000024,0.000004,-0.000003,0.000024,0.000004,-7.556615,0.000030,
2506,3118,5.29568314818352,10.3134214222562,0.0201664652553859,0.002759,0.004233,0.007839,0.098511,0.259304,313.333804,26.280441,0.999587,0.991279,0.003699,0.418176,0.000029,0.000070,0.000020,0.000078,0.000021,67.421017,0.000104,
2401,2593,3.1119082703738,-1.11815219421073,-0.012434524543778,0.002448,0.004123,0.007882,0.085531,0.246290,321.409918,24.245182,0.999397,0.988342,0.004327,0.435183,0.000018,0.000013,0.000000,0.000018,0.000013,4.580895,0.000030,
2041,2293,-4.67372089052829,-7.6786541248766,0.0195829840681654,0.002647,0.003133,0.011133,0.091736,0.245566,327.405395,24.745629,0.999837,0.993006,0.003873,0.471485,0.000018,0.000034,0.000034,0.000061,-0.000009,51.730718,0.000066,
2146,2758,-2.46607185536599,2.46773678408427,-0.0136806728850161,0.002492,0.004102,0.009065,0.088811,0.267599,319.094682,24.648476,0.999436,0.990218,0.003924,0.440114,0.000005,0.000030,-0.000018,0.000039,-0.000004,-62.362854,0.000043,
2281,2038,0.600763262587172,-13.2647188741394,0.0177806209233609,0.002681,0.004174,0.003687,0.111959,0.266740,330.668084,23.373089,0.999206,0.983869,0.005105,0.364662,0.000022,0.000073,0.000001,0.000073,0.000022,89.093652,0.000099,
2011,2098,-5.29873329613181,-11.9432482249897,0.0145777887713621,0.002188,0.004224,0.004631,0.089158,0.261994,330.673813,25.119016,0.998226,0.976252,0.006120,0.357624,0.000037,-0.000011,-0.000006,0.000038,-0.000012,-7.424889,0.000039,
2236,3193,-0.583156131612679,11.9163466469819,0.0382296109152094,0.002702,0.004335,0.008985,0.097193,0.257787,312.164807,25.265944,0.999344,0.990694,0.003799,0.448551,-0.000001,0.000029,-0.000004,0.000030,-0.000002,-82.097230,0.000033,
2221,3088,-0.891241080772243,9.63966913757391,0.0172517462237352,0.002684,0.004579,0.004148,0.112218,0.250614,313.757591,25.118037,0.999407,0.992896,0.003407,0.393982,-0.000010,0.000014,-0.000011,0.000018,-0.000015,-68.844268,0.000019,
2266,2023,0.277406670062422,-13.5952271222931,0.0316639195976904,0.002935,0.004734,-0.000483,0.137617,0.275086,331.070207,23.442039,0.998863,0.977622,0.006092,0.373433,0.000022,0.000080,0.000016,0.000084,0.000018,75.505682,0.000109,
2341,2278,1.86496991018115,-8.00503811320598,0.00581035626146331,0.002078,0.003913,0.005785,0.076666,0.241727,326.628925,23.499588,0.999061,0.982727,0.005124,0.446646,-0.000016,-0.000007,-0.000009,-0.000002,-0.000021,-58.080364,0.000025,
2461,2878,4.36138621058334,5.09591722743374,-0.0252358788591209,0.002564,0.004290,0.007070,0.093180,0.278065,316.761006,25.213642,0.999414,0.991081,0.003784,0.465437,-0.000001,0.000021,-0.000006,0.000023,-0.000003,-76.969767,0.000025,
2416,2653,3.4274486690774,0.191008016648993,-0.00808072225805745,0.003159,0.003334,0.015608,0.089411,0.265011,320.492052,24.431337,0.999522,0.988373,0.004269,0.443554,-0.000003,0.000021,-0.000009,0.000025,-0.000006,-70.989680,0.000026,
2026,2188,-4.98462461445439,-9.97328641922185,0.013808756397907,0.002602,0.004484,0.002831,0.113095,0.259150,329.154576,24.947127,0.999102,0.985896,0.004867,0.396189,0.000022,0.000044,0.000021,0.000057,0.000009,58.796473,0.000071,
2191,2983,-1.52499591506207,7.35865723169178,0.00975609336245498,0.002592,0.004370,0.007297,0.098254,0.264136,315.480276,24.870565,0.999347,0.990971,0.003826,0.448211,0.000004,0.000025,0.000004,0.000026,0.000003,80.481281,0.000032,
2056,2323,-4.35094247911831,-7.02130458260292,0.014744015134454,0.003296,0.004653,0.003081,0.144310,0.276833,326.848236,24.749652,0.999137,0.983595,0.005005,0.431171,0.000009,0.000011,0.000004,0.000014,0.000006,50.289150,0.000020,
2326,2203,1.55342053566526,-9.64797781158582,0.0165915369525464,0.002659,0.004490,-0.000052,0.123728,0.248309,327.979507,23.432060,0.999079,0.981004,0.005535,0.400377,-0.000004,0.000016,-0.000010,0.000020,-0.000008,-67.228468,0.000021,
2086,2413,-3.7134572060031,-5.05478505267065,0.00236422261497182,0.002909,0.003813,0.007818,0.112468,0.260980,325.104809,24.583598,0.998921,0.984753,0.004756,0.473188,0.000004,0.000014,-0.000011,0.000021,-0.000003,-57.843673,0.000023,
2206,3043,-1.20920727957082,8.66217589935291,0.0186587548138277,0.002504,0.004526,0.006818,0.095609,0.270786,314.528215,25.018535,0.999812,0.994780,0.003127,0.410487,-0.000006,0.000005,-0.000007,0.000008,-0.000010,-64.515177,0.000011,
2146,2728,-2.46129572457857,1.81508013864011,-0.0193352916219283,0.002486,0.004408,0.006148,0.097450,0.263147,319.543145,24.604990,0.999427,0.989819,0.004120,0.463421,0.000007,0.000033,-0.000018,0.000042,-0.000002,-63.085407,0.000047,
2056,2368,-4.36000134424718,-6.03616935322137,-0.00754614940382226,0.002527,0.003984,0.004455,0.104946,0.256548,325.898646,24.730433,0.998720,0.983413,0.005133,0.420282,-0.000002,0.000020,-0.000008,0.000023,-0.000005,-72.420260,0.000024,
2041,2248,-4.66729014440485,-8.6609817505713,0.00709840454186406,0.002783,0.003711,0.005419,0.113986,0.237736,328.046824,24.784120,0.999158,0.984334,0.004881,0.441371,0.000010,0.000074,0.000035,0.000089,-0.000005,66.175094,0.000100,
2206,3013,-1.2044091653883,8.01136318643385,0.00900715245285255,0.002874,0.004275,0.008501,0.107152,0.252821,314.948698,24.978613,0.999421,0.990145,0.003878,0.400812,-0.000004,0.000021,0.000001,0.000021,-0.000004,87.312593,0.000022,
2191,2968,-1.52226784757853,7.03285994974486,0.00723049157011246,0.002853,0.004194,0.006392,0.113070,0.259483,315.718603,24.839173,0.999294,0.990238,0.003939,0.461086,0.000008,0.000027,0.000005,0.000029,0.000006,76.150669,0.000037,
2296,2113,0.914682657861473,-11.6211222243428,0.019530900687414,0.002696,0.003580,0.007587,0.099262,0.251870,329.448684,23.338042,0.999057,0.979605,0.005519,0.451476,0.000010,0.000036,0.000001,0.000036,0.000010,88.852224,0.000049,
2101,2548,-3.41121147360735,-2.10736325510661,-0.0287668072069778,0.002239,0.003803,0.009178,0.077556,0.260015,322.556873,24.465129,0.999610,0.993074,0.003746,0.570620,0.000000,0.000037,0.000002,0.000037,0.000000,87.598286,0.000043,
2491,3043,4.98308231105725,8.68486081714152,0.000981452744440503,0.002793,0.004512,0.008605,0.097397,0.259959,314.358168,25.996021,0.999754,0.992847,0.003539,0.354125,0.000036,0.000052,0.000004,0.000053,0.000035,75.676018,0.000089,
2236,3208,-0.58507590866629,12.2415423843567,0.0444341369974381,0.002731,0.004674,0.005021,0.111533,0.263988,311.985330,25.317166,0.999419,0.992267,0.003644,0.423313,0.000000,0.000036,-0.000001,0.000036,0.000000,-88.959783,0.000042,
2041,2308,-4.67632378796012,-7.34917874686946,0.00896045823145641,0.002759,0.003669,0.008232,0.105096,0.260473,327.088434,24.767905,0.999721,0.990828,0.004277,0.459000,0.000017,0.000019,0.000014,0.000031,0.000004,47.177775,0.000039,
2431,2743,3.73610447315606,2.15334445744534,-0.0128024945847756,0.002793,0.003689,0.010483,0.091198,0.250895,319.010789,24.699580,0.999599,0.989821,0.003933,0.454174,-0.000004,0.000065,-0.000008,0.000066,-0.000005,-83.561588,0.000074,
2386,2518,2.80061882465731,-2.75618527563167,-0.00403503068451982,0.002679,0.004607,0.005394,0.105496,0.269992,322.704646,24.034424,0.999458,0.987786,0.004468,0.466251,0.000010,0.000003,0.000013,0.000020,-0.000007,38.272995,0.000020,
2011,2173,-5.309698134224,-10.3010093474543,0.0115933076000374,0.002158,0.004303,0.003907,0.089823,0.257416,329.447353,25.048825,0.998474,0.983979,0.005501,0.378459,0.000024,-0.000001,-0.000001,0.000024,-0.000001,-1.774906,0.000027,
2476,2953,4.67459483433984,6.72674593090456,-0.00537378902038199,0.002671,0.004327,0.005697,0.103080,0.255938,315.746140,25.528045,0.999389,0.988474,0.004142,0.433798,0.000021,-0.000007,-0.000006,0.000023,-0.000008,-12.234728,0.000023,
2131,2668,-2.7742383640301,0.504184099854086,0.0124459665006498,0.003417,0.004559,0.004196,0.146325,0.264504,320.892757,24.458092,0.999642,0.991416,0.003757,0.584136,0.000000,0.000034,-0.000010,0.000037,-0.000003,-74.543441,0.000041,
2026,2218,-4.98974091845198,-9.31652286128254,0.00347451269442445,0.002550,0.004208,0.003608,0.108540,0.236168,328.582742,24.881944,0.998572,0.979826,0.005644,0.424662,0.000024,0.000062,0.000026,0.000075,0.000011,63.437732,0.000094,
2131,2638,-2.77083648129681,-0.147046670434015,0.00162638612448518,0.002738,0.004062,0.005603,0.110686,0.241615,321.252377,24.576752,0.999661,0.992328,0.003616,0.430624,0.000003,0.000021,-0.000014,0.000028,-0.000005,-61.191899,0.000030,
2371,2428,2.49075967861639,-4.72394482179552,-0.00289508135034566,0.002530,0.004135,0.006053,0.096262,0.268553,324.155634,23.690271,0.999716,0.991967,0.004073,0.583719,0.000013,0.000019,0.000024,0.000040,-0.000008,48.549175,0.000042,
2071,2398,-4.03775668796635,-5.38151300590155,-0.00342165916316617,0.002762,0.004171,0.004329,0.116030,0.268864,325.379059,24.651225,0.998908,0.984348,0.005063,0.458927,0.000007,0.000029,-0.000006,0.000030,0.000006,-75.750486,0.000039,
2056,2338,-4.3542105718751,-6.6927154445377,0.00652275550766035,0.002966,0.004334,0.005604,0.121967,0.292901,326.515871,24.725935,0.998884,0.984282,0.004979,0.467893,0.000003,-0.000002,-0.000008,0.000009,-0.000009,-36.592310,0.000010,
2356,2353,2.17932998552809,-6.3653161936188,0.00315162447310513,0.003351,0.003996,0.003947,0.141385,0.234995,325.460976,23.490281,0.999536,0.988519,0.004520,0.589019,0.000006,0.000020,0.000018,0.000032,-0.000006,55.813304,0.000034,
2311,2128,1.24034920084408,-11.2916421267501,0.0234271912071904,0.002716,0.004291,-0.000350,0.127196,0.234317,329.255794,23.417552,0.999197,0.982562,0.005235,0.301002,0.000011,0.000040,-0.000006,0.000041,0.000010,-78.514209,0.000054,
2011,2203,-5.31425143588196,-9.64378857363855,0.000654383816595328,0.002704,0.003922,0.005818,0.109658,0.264127,328.894682,24.977788,0.999492,0.991502,0.004278,0.437894,0.000019,0.000055,0.000023,0.000066,0.000007,63.688935,0.000081,
2401,2608,3.10963431017094,-0.790607223147177,-0.0120517900946879,0.002816,0.004330,0.004729,0.113963,0.259110,321.197572,24.308733,0.999382,0.988829,0.004219,0.430659,0.000013,0.000015,-0.000001,0.000015,0.000013,-59.166924,0.000028,
2176,2893,-1.83511788118,5.40281520585092,0.00640005596443416,0.002829,0.004584,0.004696,0.117453,0.254737,316.986686,24.761515,0.999750,0.995155,0.003193,0.437260,0.000008,0.000041,-0.000001,0.000041,0.000008,-88.862691,0.000053,
2071,2368,-4.03313690376283,-6.03713455381202,-0.000940218583309615,0.002561,0.003906,0.003507,0.109032,0.255746,325.876520,24.646276,0.997920,0.978889,0.005750,0.453598,0.000010,0.000020,-0.000007,0.000024,0.000007,-61.645400,0.000032,
2236,3268,-0.59720694674132,13.5426454948162,0.0223404089200017,0.002914,0.004633,0.005925,0.117094,0.262834,310.822268,25.348439,0.999455,0.992754,0.003501,0.469931,0.000007,0.000051,0.000012,0.000054,0.000004,76.111460,0.000064,
2101,2488,-3.40001833194028,-3.41688493060791,-0.0108809914572134,0.002535,0.004224,0.005402,0.102269,0.270348,323.700343,24.505440,0.999244,0.988625,0.004254,0.530981,-0.000002,0.000021,-0.000015,0.000028,-0.000009,-64.111282,0.000029,
2506,3133,5.29251285504682,10.6394719725431,0.0168211071363658,0.002873,0.004619,0.006771,0.108121,0.284167,313.068970,26.321091,0.999608,0.991055,0.003690,0.462640,0.000037,0.000054,0.000013,0.000061,0.000031,61.906794,0.000093,
2281,2113,0.587854560909694,-11.6205153333411,0.0175225798422503,0.003060,0.004407,0.001787,0.135837,0.251897,329.483898,23.436620,0.998813,0.978743,0.005618,0.441159,0.000016,0.000038,0.000006,0.000039,0.000014,75.377775,0.000055,
2086,2443,-3.7193544995948,-4.39778496770946,-0.0115851637961555,0.002333,0.004515,0.003944,0.097432,0.261469,324.488926,24.650656,0.999374,0.987296,0.004474,0.408182,-0.000004,0.000004,-0.000010,0.000012,-0.000011,-55.519994,0.000013,
2146,2773,-2.46873020202661,2.79493377461792,-0.0201012947036929,0.002527,0.004459,0.005797,0.100457,0.270773,318.808733,24.682826,0.999622,0.993232,0.003395,0.416836,0.000007,0.000033,-0.000016,0.000041,0.000000,-64.182858,0.000047,
2116,2623,-3.0961832006196,-0.471681976743746,-0.0252644021765036,0.002806,0.004201,0.006468,0.111510,0.269257,321.336176,24.565881,0.998997,0.984206,0.005048,0.476366,-0.000001,0.000014,-0.000014,0.000023,-0.000010,-58.974730,0.000023,
2041,2263,-4.66914198156976,-8.33264410520363,0.00835465919266198,0.003000,0.004216,0.003939,0.128205,0.267676,327.829946,24.791573,0.999087,0.985628,0.004865,0.458659,0.000014,0.000073,0.000039,0.000092,-0.000005,63.685255,0.000103,
2116,2668,-3.10387555461856,0.508979934050892,-0.0324982708228276,0.002761,0.004309,0.005280,0.113008,0.257880,320.548169,24.586653,0.999541,0.990770,0.003797,0.456072,-0.000002,0.000029,-0.000009,0.000032,-0.000005,-75.310669,0.000034,
2296,2173,0.903778480781352,-10.3050638978201,0.00641396580749642,0.002939,0.004432,-0.001665,0.141940,0.241956,328.415585,23.410966,0.999387,0.981750,0.005319,0.500520,0.000003,0.000002,-0.000011,0.000014,-0.000009,-43.295303,0.000014,
2251,3283,-0.275477873838959,13.869491076918,0.0141043662479206,0.002766,0.004360,0.008262,0.102279,0.253154,310.459898,25.460565,0.999398,0.991896,0.003647,0.451993,0.000006,0.000061,0.000013,0.000064,0.000003,77.491188,0.000076,
2176,2863,-1.83134760528278,4.75225911675655,-0.0126307471867335,0.002818,0.004396,0.004921,0.116196,0.251751,317.314253,24.737003,0.998908,0.987367,0.004238,0.435108,0.000006,0.000044,0.000000,0.000044,0.000006,89.566767,0.000055,
2476,2968,4.67208078288778,7.05302353813854,0.000643980760571594,0.002574,0.004474,0.004121,0.104601,0.244847,315.552638,25.644527,0.999443,0.989575,0.004070,0.362063,0.000016,0.000001,-0.000003,0.000016,0.000001,-12.208074,0.000019,
2056,2383,-4.36278860803471,-5.70764408447733,-0.0149924045435341,0.002381,0.004492,0.002880,0.102805,0.265449,325.592532,24.733799,0.999279,0.988130,0.004517,0.422610,0.000005,0.000041,-0.000006,0.000042,0.000004,-81.014455,0.000051,
2281,2053,0.59815941619944,-12.936375065639,0.017504606982186,0.002889,0.003973,0.005273,0.116149,0.257201,330.429282,23.333660,0.999101,0.981834,0.005247,0.425521,0.000019,0.000073,0.000002,0.000073,0.000019,87.792804,0.000097,
2011,2188,-5.31381665894842,-9.96965948760857,-0.00881736708618064,0.001588,0.003964,0.006576,0.056330,0.250632,329.002883,25.113281,0.999435,0.991132,0.004417,0.298900,0.000024,0.000046,0.000024,0.000062,0.000008,57.013619,0.000076,
2341,2293,1.86286406710741,-7.67547604452399,0.00339894059698054,0.002812,0.004555,0.003741,0.117664,0.271698,326.406724,23.597400,0.999093,0.985154,0.004810,0.417758,-0.000016,0.000005,-0.000002,0.000005,-0.000016,-84.682030,0.000016,
2191,3043,-1.53414237909995,8.66107609799108,0.0239638535048243,0.002702,0.004261,0.005876,0.107834,0.257704,314.629613,25.014457,0.999698,0.994181,0.003347,0.352467,-0.000007,0.000004,-0.000006,0.000007,-0.000010,-65.637110,0.000010,
2011,2218,-5.31594646982738,-9.31603817895524,0.00811713309235529,0.002840,0.003914,0.007545,0.111259,0.256344,328.717469,25.018118,0.999027,0.986565,0.004923,0.380010,0.000025,0.000056,0.000029,0.000074,0.000007,59.122452,0.000090,
2026,2233,-4.99174727791588,-8.98632078749836,-0.00322540194179055,0.002889,0.004940,-0.000840,0.136548,0.271556,328.312898,24.961719,0.999340,0.984083,0.004956,0.373005,0.000025,0.000055,0.000025,0.000069,0.000011,60.455684,0.000087,
2236,3223,-0.588503236595255,12.5671352793338,0.0423736907272314,0.002435,0.004564,0.009467,0.083430,0.269436,311.694075,25.361587,0.999403,0.991837,0.003792,0.404079,0.000000,0.000045,-0.000001,0.000045,0.000000,-88.809494,0.000052,
2251,3298,-0.277267334130968,14.1946326554906,0.0162630425656971,0.003242,0.004639,0.004370,0.137115,0.255286,310.266530,25.510851,0.999291,0.990734,0.003786,0.425632,0.000008,0.000067,0.000010,0.000068,0.000006,81.049786,0.000083,
2206,3058,-1.21169816646015,8.98763385926214,0.0194544418318401,0.002606,0.004681,0.007386,0.098599,0.288720,314.292844,25.013213,0.999727,0.994228,0.003204,0.449721,-0.000002,0.000009,-0.000011,0.000015,-0.000009,-58.955833,0.000015,
2386,2533,2.79694050072903,-2.42766229016217,-0.0112985711661509,0.002567,0.004563,0.006630,0.095962,0.291269,322.390496,24.086582,0.999437,0.988666,0.004444,0.479903,0.000012,-0.000005,0.000011,0.000017,-0.000010,25.984444,0.000017,
2206,3118,-1.22104879755456,10.2878062497866,0.0384899623375645,0.002685,0.004223,0.011732,0.088219,0.261131,313.462148,25.075359,0.999487,0.991869,0.003754,0.422481,-0.000011,0.000025,-0.000010,0.000028,-0.000013,-75.869671,0.000028,
2161,2893,-2.16217846342248,5.40346393090913,-0.00999995982823521,0.002817,0.004190,0.008115,0.106496,0.256283,316.891240,24.752156,0.999522,0.991950,0.003706,0.421194,0.000005,0.000043,-0.000002,0.000043,0.000005,-87.590272,0.000053,
2146,2743,-2.46331811181036,2.14105194974842,-0.0125556638437843,0.002681,0.004344,0.008982,0.097857,0.272591,319.356728,24.616190,0.999453,0.990034,0.004118,0.469500,0.000005,0.000031,-0.000017,0.000040,-0.000004,-63.826890,0.000044,
2041,2323,-4.67850548650488,-7.01986891015574,0.000664425433910765,0.002990,0.004468,0.002678,0.131408,0.266571,326.803639,24.813406,0.998968,0.982800,0.005051,0.414130,0.000013,0.000006,0.000003,0.000014,0.000005,22.473726,0.000020,
2401,2623,3.1066787254056,-0.463721273653562,-0.00969206960400015,0.002879,0.004001,0.008318,0.103740,0.265582,320.963312,24.339779,0.999298,0.987532,0.004317,0.452292,0.000011,0.000022,-0.000004,0.000023,0.000010,-71.076884,0.000034,
2221,3133,-0.898230730151898,10.6139870327109,0.0326462745240406,0.002821,0.004459,0.008353,0.105018,0.262314,313.144261,25.082563,0.999576,0.992170,0.003683,0.494642,-0.000011,0.000024,-0.000009,0.000027,-0.000013,-76.565629,0.000027,
2296,2188,0.901894137743422,-9.9771581544148,0.023905328118019,0.002945,0.003895,0.004584,0.120971,0.252464,328.298352,23.548244,0.998996,0.978917,0.005572,0.405903,-0.000002,0.000004,-0.000014,0.000015,-0.000013,-52.175248,0.000016,
2071,2443,-4.04436697227321,-4.39945885150966,-0.000492411698473916,0.002798,0.004535,0.002664,0.122570,0.249816,324.684343,24.671880,0.999238,0.987163,0.004505,0.414068,-0.000002,0.000006,-0.000010,0.000013,-0.000009,-56.492926,0.000013,
2101,2593,-3.41681441929765,-1.12707235446607,-0.0135434025355039,0.002602,0.004208,0.005856,0.104107,0.251787,321.982186,24.569955,0.999160,0.987510,0.004474,0.463258,-0.000007,0.000037,-0.000004,0.000037,-0.000007,-84.353437,0.000040,
2176,2908,-1.83874534993749,5.72931146105986,-0.00232154767701331,0.002514,0.004280,0.007259,0.094974,0.262307,316.646964,24.753149,0.999426,0.991641,0.003784,0.464978,0.000008,0.000030,-0.000001,0.000030,0.000008,-86.866693,0.000041,
2221,3193,-0.907935457119613,11.9149588272743,0.0438009239193207,0.002761,0.004635,0.006310,0.108974,0.268579,312.259679,25.207374,0.999393,0.992244,0.003634,0.446695,-0.000002,0.000025,-0.000006,0.000027,-0.000003,-77.723151,0.000029,
2446,2833,4.04526368463251,4.11592230294867,-0.0162137809904834,0.002987,0.004412,0.004015,0.124216,0.253953,317.572418,25.150661,0.999700,0.991199,0.003738,0.323623,-0.000004,0.000028,-0.000010,0.000031,-0.000007,-73.759054,0.000032,
2026,2203,-4.98743026244847,-9.64393026451027,-8.43003492718708E-05,0.002795,0.004413,0.002239,0.123591,0.247945,328.808660,24.908951,0.998888,0.984459,0.005174,0.416495,0.000018,0.000053,0.000019,0.000061,0.000009,66.558429,0.000077,
2431,2758,3.73324462136612,2.48056886936264,-0.0152633917858793,0.002839,0.004204,0.007188,0.105686,0.257606,318.760022,24.763579,0.999583,0.988248,0.004091,0.447079,-0.000002,0.000070,-0.000008,0.000071,-0.000002,-83.611890,0.000080,
2041,2278,-4.67135458671867,-8.00460497087735,0.0111521069493961,0.003005,0.003780,0.006371,0.121589,0.251615,327.605395,24.838226,0.999788,0.991765,0.004138,0.390451,0.000015,0.000060,0.000044,0.000087,-0.000012,58.480939,0.000094,
2101,2563,-3.41277046220989,-1.78006589310453,-0.0211316730685667,0.002574,0.003751,0.009113,0.093153,0.254724,322.393123,24.569939,0.999284,0.988676,0.004326,0.462382,0.000003,0.000031,-0.000004,0.000032,0.000003,-80.994676,0.000038,
2011,2323,-5.33068374824068,-7.02080347260831,0.00552684672851456,0.003075,0.004464,0.000175,0.142283,0.243351,327.039567,24.922384,0.998912,0.983463,0.005168,0.394647,-0.000001,0.000004,-0.000013,0.000014,-0.000011,-50.105251,0.000015,
2491,3058,4.98090081295199,9.00917382079369,0.0129837219828346,0.002659,0.004295,0.008493,0.091605,0.256064,314.207967,25.984919,0.999713,0.991466,0.003825,0.419058,0.000036,0.000051,0.000008,0.000055,0.000032,66.748129,0.000088,
2326,2218,1.55063563457331,-9.31986408183584,0.015336546363983,0.002875,0.004143,0.001708,0.127472,0.238515,327.731123,23.421556,0.998869,0.978316,0.005736,0.438028,-0.000007,0.000011,-0.000013,0.000018,-0.000013,-61.841757,0.000018,
2116,2683,-3.10610784016842,0.834304113003128,-0.0297943690287639,0.002728,0.003934,0.004602,0.113402,0.246351,320.328626,24.509922,0.999494,0.991962,0.003611,0.525181,-0.000002,0.000035,-0.000010,0.000037,-0.000004,-75.273060,0.000041,
2461,2893,4.35886308598719,5.42250723933694,-0.0196547059812247,0.002663,0.004074,0.007750,0.095107,0.271235,316.564468,25.333616,0.999169,0.988404,0.004238,0.392336,0.000000,0.000008,-0.000008,0.000012,-0.000005,-58.599050,0.000012,
2266,2038,0.274150319584511,-13.2660526597486,0.0310436956148123,0.002767,0.004233,0.004921,0.111984,0.273873,330.798444,23.459573,0.998982,0.979730,0.005607,0.383887,0.000021,0.000068,0.000007,0.000069,0.000020,81.471203,0.000094,
2416,2668,3.4241928836217,0.518751239437243,-0.0104871636887083,0.002706,0.003635,0.011364,0.084263,0.246897,320.222490,24.539406,0.999435,0.987926,0.004432,0.365498,-0.000004,0.000027,-0.000012,0.000031,-0.000008,-70.752368,0.000032,
2086,2458,-3.72145817203955,-4.07157994334944,-0.00858222165601319,0.002689,0.003716,0.008832,0.099440,0.251751,324.274394,24.585494,0.999397,0.988177,0.004394,0.464015,-0.000001,0.000004,-0.000018,0.000020,-0.000017,-49.449592,0.000022,
2116,2638,-3.09880617881811,-0.1446191755443,-0.0266906840265051,0.002704,0.004300,0.006644,0.106346,0.269997,321.076045,24.587744,0.999295,0.988115,0.004289,0.459250,0.000002,0.000017,-0.000013,0.000025,-0.000005,-60.540310,0.000026,
2131,2743,-2.78923353666896,2.14052170288082,-0.016037035929628,0.002771,0.004255,0.007502,0.106663,0.255734,319.397787,24.610436,0.999432,0.989725,0.004075,0.453195,0.000003,0.000031,-0.000013,0.000036,-0.000002,-68.412360,0.000040,
2236,3283,-0.600618371995981,13.8686771127219,0.0172617073549191,0.002596,0.004913,0.006743,0.099867,0.275013,310.515970,25.427277,0.999209,0.992479,0.003651,0.422581,0.000008,0.000058,0.000012,0.000061,0.000006,76.945881,0.000074,
2206,3073,-1.21389812834526,9.31237325104364,0.0247165988100164,0.002633,0.004359,0.007134,0.100514,0.263702,314.094240,25.017107,0.999611,0.992789,0.003461,0.436304,-0.000005,0.000017,-0.000011,0.000022,-0.000010,-67.421917,0.000022,
2506,3148,5.28999168024979,10.964712570152,0.0274440858556773,0.002857,0.004406,0.010466,0.092881,0.271545,312.896858,26.413702,0.999510,0.990131,0.003847,0.417131,0.000035,0.000038,0.000010,0.000047,0.000026,49.316133,0.000074,
2266,1993,0.281997104011136,-14.2537413810859,0.0262941005653943,0.002783,0.004478,0.001898,0.122740,0.247218,331.492889,23.363755,0.999147,0.965964,0.007115,0.365839,0.000033,0.000065,-0.000003,0.000065,0.000032,-84.142680,0.000099,
2371,2443,2.4881720114807,-4.39560950669544,0.00506611542766677,0.002508,0.003707,0.010051,0.080931,0.265513,323.963249,23.859268,0.999286,0.986611,0.004683,0.453767,0.000019,0.000010,0.000025,0.000039,-0.000011,39.689889,0.000041,
2026,2248,-4.99417445441732,-8.66018188055961,0.00155858210320048,0.002573,0.004419,0.002539,0.112613,0.250970,328.088830,24.850475,0.999391,0.985600,0.004701,0.456078,0.000015,0.000072,0.000025,0.000082,0.000006,69.467406,0.000098,
2011,2233,-5.31816160751086,-8.9871958912931,0.00400176467206848,0.002865,0.004362,0.004530,0.120714,0.261104,328.451502,25.030410,0.999162,0.983567,0.005122,0.363274,0.000024,0.000048,0.000028,0.000066,0.000006,56.433698,0.000080,
2011,2338,-5.33364679458817,-6.69338124023579,0.00403969817864436,0.002682,0.004139,0.005149,0.110643,0.249275,326.754606,24.868030,0.999038,0.985376,0.004859,0.445000,-0.000006,-0.000012,-0.000029,0.000020,-0.000038,-41.812930,0.000038,
2296,2128,0.912580976920847,-11.2924490596635,0.0238999994700748,0.002765,0.003871,0.004600,0.112606,0.240525,329.256879,23.407867,0.998995,0.980529,0.005437,0.403136,0.000011,0.000036,-0.000006,0.000037,0.000009,-77.522124,0.000049,
2026,2278,-4.99792759927143,-8.00410810138438,0.00382832274044631,0.002991,0.004562,0.000722,0.136856,0.243989,327.649491,24.879740,0.998516,0.982637,0.005321,0.404618,0.000019,0.000056,0.000038,0.000080,-0.000005,57.983611,0.000090,
2161,2833,-2.1519013391538,4.09891961947663,-0.00741011221151666,0.002689,0.004440,0.005765,0.107847,0.257556,317.890544,24.695204,0.999659,0.993053,0.003456,0.440401,0.000009,0.000051,0.000004,0.000052,0.000009,84.737875,0.000065,
2236,3238,-0.591111888159876,12.8917233614111,0.0382630990657162,0.002673,0.004515,0.007855,0.099610,0.261483,311.430325,25.319071,0.999611,0.993632,0.003339,0.458411,0.000002,0.000043,0.000002,0.000043,0.000002,87.540246,0.000051,
2086,2518,-3.73008625445874,-2.76261251095431,-0.00928773422310769,0.002992,0.004508,0.000909,0.136545,0.245758,323.336396,24.601415,0.999416,0.990732,0.003961,0.442890,0.000006,0.000024,-0.000012,0.000030,0.000000,-64.455167,0.000034,
2131,2683,-2.77826196050119,0.833059125607988,-0.00299347919758475,0.003015,0.003947,0.006528,0.120636,0.235568,320.494497,24.572230,0.999475,0.990763,0.003831,0.447398,0.000001,0.000040,-0.000010,0.000042,-0.000001,-75.682684,0.000048,
2476,2983,4.66843093648241,7.37986554262579,-0.00530369071583436,0.002570,0.004364,0.005346,0.099805,0.255365,315.252151,25.712935,0.999317,0.988732,0.004235,0.360177,0.000013,0.000008,0.000004,0.000015,0.000006,28.889888,0.000022,
2281,2068,0.596071041817179,-12.607360495053,0.0245327618628153,0.002850,0.004066,0.003592,0.120019,0.241616,330.250263,23.447818,0.999151,0.982801,0.005069,0.326654,0.000017,0.000071,0.000009,0.000072,0.000016,80.979011,0.000094,
2056,2353,-4.35740811876502,-6.36433809779636,-0.00522668398315318,0.002698,0.004217,0.004468,0.112816,0.275974,326.167519,24.687476,0.998719,0.982085,0.005292,0.486407,-0.000004,-0.000001,-0.000007,0.000005,-0.000009,-51.102295,0.000009,
2041,2353,-4.68358612231146,-6.36492027880069,-0.000968534898049711,0.002847,0.003620,0.008382,0.108739,0.243849,326.284981,24.768811,0.998953,0.983798,0.005059,0.424804,-0.000003,-0.000004,-0.000010,0.000006,-0.000013,-42.243549,0.000013,
2056,2398,-4.3640824929616,-5.38245539486884,-0.00412215946317929,0.002779,0.004296,0.004360,0.116888,0.254631,325.456240,24.632658,0.999010,0.985558,0.004793,0.508698,-0.000004,0.000036,-0.000008,0.000038,-0.000005,-78.854460,0.000041,
2161,2908,-2.1640120036383,5.72841676114018,-0.00426598304187564,0.002922,0.004403,0.005193,0.120414,0.266239,316.709177,24.704136,0.999464,0.990887,0.003898,0.488865,0.000006,0.000032,-0.000002,0.000032,0.000006,-84.959014,0.000041,
2281,2128,0.585603838878157,-11.2927260131753,0.0298127312536849,0.002959,0.003959,0.006776,0.114430,0.278617,329.323411,23.473464,0.998439,0.977686,0.005689,0.461578,0.000014,0.000038,-0.000001,0.000038,0.000014,-88.354649,0.000055,
2356,2368,2.17585485473544,-6.03502317497441,0.00228306992863736,0.003087,0.004007,0.007733,0.116026,0.270643,325.184329,23.691346,0.999176,0.984672,0.004871,0.464668,0.000006,0.000022,0.000018,0.000034,-0.000006,57.513960,0.000036,
2071,2458,-4.0467282977973,-4.07302334925535,-0.000612428292697587,0.002862,0.004051,0.004361,0.120561,0.240981,324.439816,24.596892,0.999488,0.989206,0.004300,0.478403,0.000001,0.000006,-0.000019,0.000023,-0.000016,-48.995549,0.000023,
2446,2848,4.04269119863008,4.44036709001691,-0.00671161453254854,0.002759,0.004526,0.005636,0.107708,0.262233,317.391497,25.074895,0.999631,0.990793,0.003707,0.459537,-0.000009,0.000023,-0.000019,0.000032,-0.000018,-65.025321,0.000032,
2071,2413,-4.03980431765302,-5.05519565940659,0.00230076642782251,0.002971,0.003552,0.009243,0.111441,0.253807,325.180807,24.612450,0.998830,0.984037,0.004951,0.480826,0.000005,0.000016,-0.000009,0.000021,0.000000,-61.100435,0.000024,
2011,2248,-5.3200688416332,-8.66029081698065,0.00657894520685431,0.002939,0.004358,0.003933,0.125738,0.253353,328.237526,24.952735,0.999116,0.982892,0.005101,0.423293,0.000012,0.000066,0.000025,0.000076,0.000002,68.713448,0.000088,
2506,3163,5.28697241067362,11.2899915166285,0.0252713269630362,0.002871,0.004515,0.007637,0.104523,0.261495,312.644311,26.432854,0.999592,0.991410,0.003616,0.447823,0.000029,0.000044,0.000009,0.000048,0.000025,65.607290,0.000075,
2236,3298,-0.603689963877866,14.1941496665756,0.00507382633765019,0.002838,0.005071,0.003563,0.121485,0.285792,310.189074,25.422096,0.999309,0.992161,0.003611,0.458198,0.000010,0.000063,0.000008,0.000064,0.000009,81.331633,0.000080,
2191,2998,-1.52771419436152,7.68459697104205,0.00717002789303933,0.002715,0.004297,0.008531,0.100061,0.263952,315.215708,24.889031,0.999473,0.991029,0.003848,0.443283,0.000002,0.000023,0.000003,0.000023,0.000001,80.937496,0.000027,
2176,2968,-1.84762562815261,7.03231374055218,0.00661829689710203,0.003075,0.004525,0.004999,0.127978,0.270651,315.777009,24.823931,0.999366,0.991418,0.003716,0.449431,0.000009,0.000027,0.000007,0.000029,0.000007,71.532344,0.000038,
2491,3073,4.97776285100578,9.33449052925939,0.0109450998602938,0.002686,0.004229,0.007630,0.096200,0.258366,313.949923,25.972343,0.999668,0.990852,0.003897,0.492024,0.000036,0.000053,0.000009,0.000057,0.000032,66.097086,0.000090,
2116,2698,-3.10832406618876,1.16124001002181,-0.0194809162925935,0.002461,0.003985,0.007538,0.092481,0.259766,320.150172,24.622492,0.999314,0.990260,0.003977,0.429444,0.000001,0.000032,-0.000012,0.000036,-0.000003,-71.468881,0.000040,
2191,3058,-1.53675480361409,8.98598754698206,0.0219254537204847,0.002760,0.004872,0.005148,0.113031,0.284011,314.373024,24.931445,0.999761,0.995264,0.003116,0.475559,-0.000002,0.000007,-0.000011,0.000014,-0.000009,-56.848077,0.000014,
2146,2788,-2.47087447363217,3.12054112827214,-0.0234914828218962,0.003016,0.004079,0.004683,0.126214,0.243874,318.562953,24.629961,0.999582,0.992146,0.003608,0.450834,0.000003,0.000040,-0.000014,0.000044,-0.000002,-71.295373,0.000050,
2206,3133,-1.22317826842353,10.6129529046651,0.0413867108721888,0.002824,0.004275,0.009632,0.101328,0.253371,313.254330,25.098008,0.999611,0.993199,0.003526,0.407483,-0.000009,0.000025,-0.000009,0.000027,-0.000011,-76.212833,0.000027,
2026,2293,-5.00073847573608,-7.67607990676569,0.00670123207476081,0.002612,0.004063,0.007246,0.101451,0.279899,327.396677,24.879465,0.998413,0.981998,0.005429,0.433205,0.000022,0.000028,0.000027,0.000052,-0.000003,48.250628,0.000059,
2011,2353,-5.33611179972733,-6.3638043368511,-0.00663694186289376,0.002952,0.004371,0.003543,0.127507,0.239439,326.440516,24.941595,0.999160,0.988688,0.004549,0.351811,-0.000006,0.000003,-0.000021,0.000019,-0.000023,-51.186671,0.000025,
2311,2143,1.23807064751007,-10.9635827903804,0.0293544992094894,0.003123,0.003853,0.004823,0.128096,0.245278,329.064594,23.430886,0.999270,0.983453,0.005216,0.333478,0.000007,0.000021,-0.000007,0.000024,0.000004,-67.217920,0.000031,
2206,3088,-1.2162969099852,9.63843332256254,0.0282752919395648,0.002719,0.004414,0.008827,0.099103,0.269059,313.877184,25.104781,0.999409,0.992003,0.003684,0.369629,-0.000009,0.000017,-0.000008,0.000019,-0.000012,-73.506521,0.000019,
2416,2683,3.42179176452076,0.845629895203025,-0.0124355579591793,0.003068,0.004352,0.007176,0.116494,0.262509,319.994376,24.542965,0.999358,0.985774,0.004774,0.425849,-0.000001,0.000047,-0.000013,0.000050,-0.000004,-75.642299,0.000056,
2266,2008,0.279776452647109,-13.9254475882107,0.0377431713345118,0.002565,0.004011,0.004403,0.104357,0.253613,331.328934,23.419698,0.999211,0.981633,0.005404,0.345022,0.000026,0.000066,0.000008,0.000068,0.000024,79.362063,0.000096,
2221,3148,-0.900778837947517,10.9396216228456,0.0336175373799392,0.002669,0.004526,0.005830,0.106195,0.261623,312.908044,25.135867,0.999536,0.992043,0.003637,0.458416,-0.000008,0.000021,-0.000011,0.000025,-0.000011,-71.801210,0.000025,
2026,2263,-4.99587404695261,-8.33103571421803,0.00236250605098576,0.003045,0.004478,0.002633,0.134060,0.241376,327.875172,24.966496,0.999028,0.982018,0.005045,0.322845,0.000018,0.000071,0.000033,0.000087,0.000003,64.360471,0.000101,
2461,2908,4.35663911771583,5.74795680283306,-0.0114232799467118,0.002644,0.004362,0.006110,0.100483,0.268987,316.394056,25.366558,0.999022,0.986631,0.004542,0.411085,0.000001,-0.000001,0.000000,0.000001,-0.000001,-9.660404,0.000001,
2506,3178,5.28464748726042,11.615224047805,0.0347031039261196,0.002886,0.004270,0.008198,0.102968,0.258840,312.475749,26.513315,0.999616,0.992048,0.003577,0.424606,0.000029,0.000039,0.000008,0.000043,0.000025,61.881116,0.000068,
2236,3253,-0.594184833782332,13.2171188715853,0.0300793057661508,0.002748,0.004703,0.006403,0.107912,0.269401,311.124036,25.316827,0.999604,0.993515,0.003281,0.488421,0.000004,0.000046,0.000007,0.000047,0.000003,81.191930,0.000056,
2176,2923,-1.84165941601623,6.05622220515666,-0.00711767041690337,0.002560,0.004446,0.008505,0.093298,0.275921,316.360386,24.810198,0.998746,0.986186,0.004684,0.433477,0.000008,0.000031,0.000003,0.000031,0.000008,83.486892,0.000041,
2476,2998,4.66594532014166,7.70488364248471,0.00183941552438682,0.002805,0.004319,0.008626,0.098082,0.257609,315.065249,25.715143,0.999309,0.989020,0.004087,0.416187,0.000019,0.000011,0.000005,0.000021,0.000009,27.057604,0.000031,
2401,2638,3.1033315429821,-0.13634954846863,-0.0120423453958551,0.002747,0.003894,0.009672,0.092781,0.260349,320.688747,24.391666,0.999266,0.986350,0.004412,0.441543,0.000003,0.000022,-0.000008,0.000026,0.000000,-69.738729,0.000029,
2266,2053,0.270932920339121,-12.936862390771,0.0262447028814563,0.002657,0.004001,0.006419,0.101953,0.258400,330.507601,23.451710,0.998776,0.978581,0.005672,0.405462,0.000017,0.000069,0.000008,0.000070,0.000016,81.542404,0.000092,
2101,2578,-3.41438143789618,-1.45445634330268,-0.0124825370919552,0.002716,0.003924,0.007970,0.103042,0.245649,322.232945,24.536464,0.999286,0.987499,0.004385,0.488630,0.000000,0.000026,-0.000004,0.000027,-0.000001,-81.324043,0.000031,
2221,3208,-0.910212945463723,12.2407619402939,0.0435529980626939,0.002877,0.005168,0.002454,0.126878,0.278679,312.029479,25.272700,0.999227,0.991426,0.003864,0.409121,-0.000001,0.000033,-0.000003,0.000034,-0.000001,-85.596996,0.000038,
2251,1993,-0.0478714719243207,-14.2505430166158,0.00262173118079545,0.002421,0.003653,0.004122,0.098712,0.213392,331.295301,23.485703,0.999674,0.990194,0.004355,0.317228,0.000052,0.000069,0.000016,0.000079,0.000043,58.938578,0.000123,
2341,2308,1.86085095885486,-7.34858757214062,0.0156603047791464,0.002982,0.003714,0.007837,0.110925,0.239078,326.260359,23.665287,0.998506,0.981557,0.005203,0.355294,-0.000013,0.000003,0.000007,0.000005,-0.000016,69.366510,0.000016,
2371,2458,2.48491539982983,-4.06730942126089,-0.00247905992415554,0.002541,0.003701,0.007926,0.089966,0.235730,323.666222,23.911556,0.999078,0.985349,0.004842,0.414273,0.000017,0.000015,0.000025,0.000041,-0.000008,43.847647,0.000043,
2056,2428,-4.36869201907546,-4.72651571042442,-0.00438662209359109,0.003093,0.003954,0.009787,0.115993,0.271208,324.968854,24.704166,0.998908,0.984300,0.004876,0.446268,-0.000009,0.000013,-0.000005,0.000014,-0.000010,-77.185064,0.000014,
2086,2473,-3.7238635332005,-3.7439742215071,-0.0117255662367484,0.002876,0.003376,0.009580,0.105811,0.241831,324.012351,24.596552,0.999386,0.988533,0.004385,0.443450,0.000002,0.000017,-0.000010,0.000022,-0.000004,-63.116696,0.000024,
2386,2548,2.79455238053463,-2.10182188442837,-0.00166218749450309,0.002519,0.003613,0.009252,0.083944,0.231363,322.216402,24.129487,0.999395,0.988045,0.004522,0.420991,0.000016,-0.000005,0.000007,0.000018,-0.000007,16.904791,0.000018,
2296,2203,0.898910953878932,-9.64728509575799,0.0161172629723296,0.003287,0.004276,0.004959,0.135537,0.270648,328.005684,23.595844,0.998374,0.975007,0.006082,0.409307,-0.000009,0.000016,-0.000013,0.000022,-0.000014,-66.647226,0.000022,
2101,2608,-3.41891658149457,-0.800357114429232,-0.0133579419882608,0.002633,0.004425,0.002078,0.116659,0.252646,321.753503,24.562934,0.998674,0.984803,0.005014,0.472939,-0.000006,0.000030,-0.000009,0.000032,-0.000008,-76.251584,0.000034,
2431,2773,3.73012495977368,2.80729772657626,-0.0148631743777514,0.002659,0.004208,0.007170,0.097516,0.264770,318.510632,24.808864,0.999528,0.988299,0.004212,0.459109,-0.000001,0.000065,-0.000008,0.000066,-0.000002,-83.277992,0.000075,
2131,2698,-2.78183347381669,1.16101337206935,-0.0143020381824499,0.002849,0.003902,0.009769,0.103310,0.248501,320.139093,24.600658,0.999405,0.989904,0.003993,0.438380,0.000004,0.000038,-0.000011,0.000042,0.000000,-73.405796,0.000048,
2041,2368,-4.68592015607616,-6.03727635596872,0.00327326029912456,0.002533,0.003927,0.008871,0.093062,0.271230,326.062868,24.780148,0.998964,0.984547,0.004974,0.435057,0.000001,0.000019,-0.000011,0.000024,-0.000004,-65.279141,0.000025,
2146,2818,-2.47595264927201,3.7729545087737,-0.014977962296598,0.002695,0.003985,0.009919,0.095611,0.266091,318.115798,24.689740,0.999550,0.992012,0.003652,0.428697,0.000007,0.000047,-0.000003,0.000047,0.000006,-85.426481,0.000058,
2071,2473,-4.04867661210057,-3.74548775433598,0.000231427888934377,0.003076,0.004263,0.002694,0.135209,0.243860,324.219140,24.624550,0.999390,0.988644,0.004467,0.451796,0.000003,0.000018,-0.000012,0.000025,-0.000004,-60.137211,0.000027,
2041,2338,-4.68097053102189,-6.69273948011304,0.00334412439508469,0.002860,0.004004,0.006864,0.113667,0.256501,326.567145,24.790108,0.999073,0.986390,0.004630,0.421771,0.000004,-0.000009,-0.000012,0.000011,-0.000016,-29.812949,0.000017,
2026,2398,-5.01623034647553,-5.38274805515002,0.00151027014658212,0.002878,0.004242,0.005917,0.117477,0.253300,325.679783,24.780956,0.999476,0.989254,0.004032,0.450007,0.000012,0.000056,-0.000007,0.000057,0.000011,-81.024809,0.000073,
2161,2848,-2.15454499840994,4.42387771688878,-0.0102794299896232,0.002756,0.003845,0.005837,0.110435,0.216757,317.626047,24.618355,0.999648,0.993267,0.003393,0.486195,0.000003,0.000046,0.000003,0.000046,0.000003,86.407180,0.000056,
2026,2308,-5.00356716153597,-7.34762681115799,0.00117374723856756,0.002514,0.003614,0.010287,0.088473,0.238838,327.096588,24.915576,0.998642,0.982098,0.005332,0.348668,0.000016,0.000009,0.000001,0.000016,0.000008,9.314732,0.000025,
2326,2233,1.54729101981346,-8.99104882664213,0.0127691418440463,0.002728,0.003773,0.004674,0.110400,0.237775,327.450524,23.458052,0.998455,0.974298,0.006217,0.437961,-0.000011,0.000001,-0.000010,0.000007,-0.000016,-61.101355,0.000016,
2446,2863,4.04003073997229,4.76628099244551,-0.00329036044388431,0.002770,0.004478,0.005083,0.110285,0.260488,317.178075,25.102239,0.999772,0.992706,0.003380,0.482328,-0.000006,0.000023,-0.000018,0.000031,-0.000015,-64.246972,0.000031,
2491,3088,4.97538777560496,9.66073118011055,0.0180475444772696,0.002829,0.004495,0.008150,0.100901,0.272908,313.767957,26.095057,0.999488,0.990463,0.003842,0.441719,0.000041,0.000070,0.000016,0.000077,0.000034,66.373365,0.000113,
2176,2983,-1.85108469215588,7.35813393302831,0.0030310437464891,0.002622,0.004036,0.008080,0.097377,0.248802,315.472086,24.841876,0.999247,0.991494,0.003751,0.421383,0.000004,0.000025,0.000005,0.000026,0.000003,77.476814,0.000033,
2131,2758,-2.79199756887967,2.46757503316714,-0.0184035370533593,0.002682,0.004052,0.008433,0.099733,0.253817,319.127344,24.663629,0.999515,0.990763,0.003842,0.404132,0.000003,0.000027,-0.000014,0.000034,-0.000003,-64.902919,0.000037,
2401,2653,3.10069135975855,0.190657693662985,-0.0113190987012217,0.002998,0.003893,0.010017,0.103063,0.273330,320.461101,24.422547,0.999362,0.986926,0.004436,0.469563,-0.000001,0.000023,-0.000005,0.000024,-0.000002,-79.369398,0.000027,
2266,2068,0.268176217964303,-12.6073800556104,0.0295955605354266,0.002500,0.003861,0.008950,0.086362,0.277473,330.278325,23.532432,0.999096,0.981203,0.005298,0.372871,0.000016,0.000067,0.000013,0.000070,0.000013,76.272005,0.000089,
2281,2083,0.593328906265473,-12.2784592463675,0.0219602366427694,0.002878,0.004321,0.002272,0.125858,0.232539,329.993595,23.443925,0.999118,0.981434,0.005289,0.352581,0.000018,0.000064,0.000008,0.000065,0.000017,80.447946,0.000086,
2116,2653,-3.10154726408003,0.182401179532079,-0.0264639749848925,0.002452,0.004068,0.007924,0.090889,0.256699,320.819423,24.638410,0.999494,0.989350,0.003977,0.399008,0.000001,0.000027,-0.000010,0.000030,-0.000002,-70.739293,0.000034,
2146,2803,-2.47271701742538,3.44582544481561,-0.016562564702383,0.003215,0.004131,0.004956,0.134598,0.244661,318.385799,24.603957,0.999621,0.992525,0.003527,0.485207,0.000004,0.000040,-0.000010,0.000042,0.000001,-75.120725,0.000050,
2221,3223,-0.913649029830193,12.5658155431422,0.0472091922314917,0.002448,0.004702,0.011256,0.078753,0.289103,311.766364,25.294955,0.999519,0.993116,0.003499,0.414613,0.000000,0.000040,-0.000004,0.000040,0.000000,-84.431255,0.000046,
2086,2533,-3.73276076707009,-2.43551993722691,-0.00865500789166163,0.002846,0.004188,0.004315,0.119883,0.245462,323.082659,24.609973,0.999562,0.991699,0.003901,0.434123,-0.000001,0.000037,-0.000001,0.000037,-0.000001,-87.757265,0.000042,
2161,2923,-2.16695299959128,6.05479552181133,-0.00155373501263512,0.002527,0.004275,0.008210,0.092950,0.273210,316.459896,24.772240,0.999137,0.987953,0.004351,0.437130,0.000007,0.000033,0.000004,0.000034,0.000007,82.175868,0.000044,
2281,2143,0.582718294869448,-10.9621042020875,0.0252870948793884,0.003090,0.003758,0.006553,0.121133,0.252446,329.050192,23.644578,0.999153,0.981790,0.005323,0.295080,0.000007,0.000020,-0.000002,0.000020,0.000007,-81.318083,0.000028,
2011,2368,-5.33793672169341,-6.03730333779489,-0.00356909685785922,0.003133,0.004210,0.003535,0.135822,0.240609,326.233315,24.862899,0.999205,0.987986,0.004627,0.421424,-0.000004,0.000020,-0.000023,0.000034,-0.000018,-58.803322,0.000034,
2476,3013,4.66304287737956,8.03085473721795,0.00541041879625936,0.002742,0.004228,0.009709,0.091057,0.258302,314.842563,25.785923,0.999532,0.991256,0.003663,0.402034,0.000020,0.000022,0.000002,0.000023,0.000019,54.049907,0.000042,
2296,2143,0.909687965237861,-10.9616152499085,0.0185025683161939,0.002970,0.003464,0.004126,0.123481,0.208460,328.980460,23.595477,0.999286,0.982264,0.005307,0.216303,0.000005,0.000016,-0.000007,0.000020,0.000001,-64.726742,0.000024,
2116,2713,-3.11040544013596,1.48762394591313,-0.0198519622899767,0.002697,0.004076,0.005508,0.109330,0.238090,319.920764,24.635932,0.999247,0.989212,0.004182,0.398049,0.000000,0.000028,-0.000014,0.000034,-0.000006,-66.952152,0.000037,
2056,2413,-4.36600916648809,-5.0554980160694,0.0018311682656531,0.003074,0.003569,0.009307,0.116344,0.253955,325.263559,24.639962,0.998544,0.981329,0.005374,0.496850,-0.000007,0.000021,-0.000010,0.000025,-0.000011,-72.143950,0.000025,
2506,3193,5.28162506861202,11.9404718548853,0.036650148012825,0.002876,0.004377,0.009244,0.098521,0.269101,312.241368,26.540978,0.999611,0.992352,0.003553,0.467089,0.000027,0.000046,0.000004,0.000047,0.000026,77.234071,0.000074,
2341,2323,1.85723962341817,-7.01970608953646,0.00877337009967505,0.002750,0.003631,0.008411,0.098280,0.251473,325.947589,23.684240,0.999141,0.985968,0.004743,0.387787,-0.000011,0.000000,0.000009,0.000005,-0.000016,61.408648,0.000016,
2191,3013,-1.52946926149619,8.00921284068307,0.01848160256759,0.002770,0.004361,0.008621,0.102263,0.253528,315.068231,24.893399,0.999443,0.990506,0.003922,0.442199,-0.000001,0.000021,0.000003,0.000021,-0.000001,82.747547,0.000024,
2431,2788,3.72721932522831,3.13446230257398,-0.0122020117943862,0.002648,0.004240,0.008823,0.090936,0.273263,318.281408,24.914807,0.999493,0.989260,0.004122,0.411244,-0.000003,0.000065,-0.000010,0.000066,-0.000004,-81.487269,0.000074,
2311,2158,1.2348170503842,-10.6357952877441,0.0315405359143597,0.002762,0.003641,0.009088,0.096966,0.281722,328.810304,23.358710,0.999285,0.985046,0.005140,0.477213,0.000004,0.000008,-0.000011,0.000017,-0.000005,-50.369060,0.000017,
2251,2008,-0.0501336899362421,-13.9226669208855,0.0111847377051504,0.002171,0.003424,0.004280,0.086642,0.235390,331.113933,23.456695,0.999597,0.987608,0.004677,0.394904,0.000039,0.000062,0.000022,0.000075,0.000026,58.965660,0.000105,
2416,2698,3.41801854073519,1.17247440708324,-0.0197250659853694,0.002880,0.004125,0.007863,0.105253,0.247189,319.678228,24.535689,0.999547,0.989345,0.004128,0.466133,0.000000,0.000047,-0.000012,0.000050,-0.000003,-76.821006,0.000056,
2221,3163,-0.903047446730998,11.264794102618,0.0390445664521053,0.002647,0.004439,0.005602,0.105906,0.264550,312.707756,25.173448,0.999458,0.992074,0.003643,0.441190,-0.000003,0.000026,-0.000008,0.000028,-0.000005,-76.038612,0.000030,
2101,2623,-3.4222501950657,-0.472075225617537,-0.0280390909245511,0.002758,0.004596,0.004088,0.116619,0.281980,321.387603,24.549345,0.998962,0.985925,0.004731,0.518256,-0.000005,0.000013,-0.000012,0.000019,-0.000011,-63.309488,0.000019,
2461,2923,4.35320255816017,6.07440903691657,-0.011913015933942,0.002520,0.004065,0.009110,0.083288,0.245994,316.127571,25.453642,0.999335,0.988810,0.004233,0.354772,0.000008,-0.000013,-0.000002,0.000009,-0.000013,-5.896420,0.000013,
2071,2428,-4.041537371943,-4.72664743826729,0.00142666102999556,0.003439,0.004224,0.006544,0.140883,0.271844,324.960258,24.686628,0.998948,0.985716,0.004609,0.422794,0.000003,0.000008,-0.000003,0.000009,0.000002,-66.757797,0.000012,
2041,2473,-4.70251502731452,-3.74460919042725,-0.0107256573966765,0.002389,0.004019,0.005636,0.095578,0.251833,324.256184,24.713217,0.998523,0.981820,0.005432,0.440483,0.000002,0.000026,-0.000012,0.000030,-0.000003,-67.561017,0.000034,
2086,2488,-3.72628574082137,-3.41682750434657,-0.0128031085280327,0.002642,0.004098,0.006056,0.105469,0.277572,323.760713,24.544333,0.999327,0.989131,0.004254,0.531648,0.000002,0.000019,-0.000011,0.000024,-0.000003,-64.381126,0.000026,
2386,2563,2.79154793462495,-1.77260218362274,-0.0126153151565518,0.002872,0.004380,0.004117,0.118849,0.251738,321.915426,24.224277,0.999495,0.989008,0.004204,0.390944,0.000013,0.000001,0.000003,0.000014,0.000000,11.449247,0.000016,
2176,2938,-1.8433510750188,6.38185165644524,-0.00312752006612982,0.002922,0.004664,0.005184,0.120365,0.278977,316.176389,24.826665,0.999194,0.989507,0.004090,0.431681,0.000007,0.000029,0.000004,0.000030,0.000006,79.414862,0.000038,
2356,2383,2.17220352331234,-5.7058227550833,-0.000619002419284698,0.002594,0.003548,0.008858,0.089299,0.238409,324.890211,23.845844,0.999232,0.982494,0.005086,0.318497,0.000010,0.000021,0.000017,0.000034,-0.000003,53.722590,0.000037,
2191,3073,-1.53872177528204,9.31049596924662,0.0286956746485885,0.002912,0.004563,0.005112,0.120039,0.270836,314.192173,24.911467,0.999578,0.993627,0.003414,0.495768,-0.000003,0.000015,-0.000010,0.000020,-0.000008,-65.685020,0.000020,
2506,3208,5.27781051514515,12.2671375788843,0.029847577522446,0.002577,0.004459,0.007429,0.091930,0.274010,311.930659,26.657843,0.999297,0.991404,0.003801,0.414717,0.000027,0.000047,-0.000002,0.000047,0.000027,-84.755942,0.000075,
2206,3148,-1.22591390671988,10.9391967502376,0.0319639834918917,0.002972,0.004996,0.004056,0.126176,0.281218,312.954386,25.114995,0.999474,0.992791,0.003610,0.434244,-0.000005,0.000023,-0.000010,0.000026,-0.000008,-72.613763,0.000026,
2371,2473,2.48241971753104,-3.74040911164253,0.00262491513558416,0.002574,0.003667,0.008748,0.088542,0.235812,323.464557,23.928305,0.999389,0.987252,0.004482,0.439812,0.000015,0.000008,0.000024,0.000036,-0.000013,41.130896,0.000036,
2011,2383,-5.33979643484647,-5.70927036144986,-0.00272428687600268,0.003351,0.004468,0.002364,0.149125,0.268333,326.011626,24.880900,0.999284,0.987678,0.004391,0.420836,0.000004,0.000061,-0.000021,0.000068,-0.000003,-71.759871,0.000077,
2071,2488,-4.05157497712745,-3.41749914343051,-0.00375556892009854,0.002883,0.004527,0.004885,0.120224,0.286863,323.928359,24.614465,0.999519,0.990201,0.004243,0.502870,0.000002,0.000019,-0.000010,0.000024,-0.000002,-66.409473,0.000026,
2251,2128,-0.0700095096104256,-11.2918453276728,0.0221612683947683,0.002608,0.003504,0.005872,0.101607,0.232703,329.291346,23.647228,0.998698,0.978381,0.005694,0.414327,0.000018,0.000030,0.000003,0.000031,0.000017,77.654085,0.000049,
2206,3103,-1.21851706636733,9.96244986808609,0.0352720835353466,0.002872,0.004197,0.012418,0.094713,0.270304,313.686847,25.033425,0.999314,0.990541,0.004058,0.457943,-0.000009,0.000020,-0.000008,0.000022,-0.000011,-75.219629,0.000022,
2491,3103,4.97249957196241,9.98652741609647,0.0201097388169842,0.002696,0.004762,0.006484,0.101257,0.271459,313.539637,26.164145,0.999446,0.989545,0.003845,0.428785,0.000041,0.000065,0.000020,0.000076,0.000029,60.125771,0.000109,
2011,2263,-5.32218120977841,-8.33271831582016,0.00779498819287028,0.002953,0.004053,0.004281,0.125345,0.230345,328.006521,24.942115,0.998903,0.979592,0.005194,0.401227,0.000010,0.000070,0.000033,0.000084,-0.000004,66.250835,0.000095,
2041,2383,-4.68846845726899,-5.71004098065455,0.00195314878942554,0.002264,0.003855,0.008058,0.082955,0.258166,325.800489,24.745353,0.999335,0.987537,0.004367,0.451118,0.000010,0.000048,-0.000006,0.000049,0.000009,-80.701546,0.000062,
2056,2548,-4.38795971641967,-2.10894331555799,-0.0152958013694047,0.002721,0.003924,0.007890,0.104333,0.256581,322.929443,24.614146,0.999352,0.989039,0.004160,0.488504,-0.000011,0.000036,-0.000001,0.000036,-0.000011,-89.269974,0.000037,
2026,2413,-5.01896153793032,-5.05429316881398,-0.0044986950299517,0.002805,0.004319,0.007035,0.111108,0.283241,325.381250,24.780287,0.999194,0.986644,0.004541,0.472650,0.000011,0.000046,0.000000,0.000046,0.000010,89.503652,0.000060,
2101,2653,-3.4272650358308,0.18154699311458,-0.0247065870947267,0.002488,0.004173,0.006778,0.096192,0.256750,320.909129,24.629927,0.999410,0.988810,0.004067,0.415836,-0.000002,0.000026,-0.000006,0.000027,-0.000004,-77.588153,0.000030,
2326,2248,1.54452142922828,-8.66176423702773,0.010168916044222,0.002884,0.004156,0.004006,0.120012,0.255487,327.195900,23.524151,0.998882,0.979306,0.005487,0.426377,-0.000012,-0.000018,-0.000011,-0.000003,-0.000027,-37.538706,0.000033,
2446,2878,4.03614843180091,5.09378293350805,-0.0132365695155841,0.002801,0.004192,0.006273,0.107153,0.249581,316.846289,25.190772,0.999544,0.991297,0.003687,0.434997,-0.000009,0.000021,-0.000013,0.000026,-0.000013,-69.857196,0.000026,
2476,3028,4.66029912415422,8.35644015469393,0.0111784892196169,0.002675,0.004125,0.011048,0.082893,0.269544,314.637205,25.828781,0.999704,0.992402,0.003491,0.426043,0.000023,0.000040,-0.000001,0.000040,0.000023,-87.397246,0.000064,
2266,2083,0.265072684962188,-12.2769642801539,0.016822604788274,0.002755,0.004181,0.005859,0.108402,0.263080,329.952563,23.559003,0.999313,0.982795,0.005146,0.361058,0.000018,0.000060,0.000011,0.000063,0.000015,75.980992,0.000083,
2011,2398,-5.34212117689144,-5.38275999540346,0.00101885161245718,0.003200,0.004126,0.005761,0.132854,0.252377,325.785498,24.835907,0.999238,0.987234,0.004459,0.439475,-0.000003,0.000065,-0.000018,0.000070,-0.000007,-76.343244,0.000077,
2296,2218,0.895739655345377,-9.31892769540957,0.0158456202391335,0.002838,0.004060,0.004735,0.115649,0.246797,327.741872,23.631579,0.998818,0.977735,0.005687,0.382389,-0.000010,0.000007,-0.000018,0.000019,-0.000022,-58.117043,0.000023,
2026,2323,-5.00503187127754,-7.02064810146753,-0.000316416049088275,0.002947,0.003822,0.003592,0.126791,0.222495,326.881499,24.838051,0.998956,0.983151,0.005093,0.402112,0.000011,-0.000001,-0.000009,0.000016,-0.000006,-29.117685,0.000016,
2146,2833,-2.47740851594346,4.09778656701793,-0.00375723437957731,0.002732,0.004293,0.006162,0.108799,0.259545,317.979319,24.668998,0.999578,0.992590,0.003528,0.450252,0.000007,0.000047,0.000000,0.000047,0.000007,89.676514,0.000059,
2281,2158,0.579678681830881,-10.6338611538823,0.0217986929931158,0.002921,0.003849,0.005657,0.116394,0.253441,328.775201,23.588632,0.999452,0.983032,0.005209,0.382818,0.000005,0.000011,-0.000001,0.000011,0.000005,-79.745277,0.000017,
2116,2728,-3.1132681151456,1.81438376880602,-0.0237476657544562,0.002498,0.004380,0.005285,0.100974,0.265112,319.636385,24.611744,0.999322,0.988940,0.004191,0.453039,-0.000002,0.000028,-0.000015,0.000034,-0.000008,-67.635672,0.000035,
2086,2548,-3.73561663674043,-2.10888828797655,-0.0142193899910126,0.002748,0.003974,0.005211,0.112773,0.247786,322.787067,24.523510,0.999403,0.990618,0.004066,0.523122,0.000000,0.000037,0.000003,0.000037,0.000000,86.119252,0.000042,
2131,2713,-2.78485769288976,1.48854972066704,-0.0207167143833544,0.002524,0.004255,0.007118,0.096468,0.262889,319.834969,24.635015,0.999372,0.989724,0.004093,0.424404,0.000004,0.000034,-0.000013,0.000039,-0.000001,-69.157984,0.000045,
2101,2638,-3.42492415707202,-0.145247881516752,-0.0273612404741357,0.002531,0.004339,0.005637,0.101596,0.268021,321.135396,24.581941,0.999028,0.986576,0.004514,0.473516,-0.000001,0.000016,-0.000009,0.000020,-0.000005,-66.600329,0.000021,
2041,2488,-4.70332404013213,-3.41811738663765,-0.00749286214909262,0.003425,0.004246,0.002015,0.153368,0.249579,324.098772,24.677017,0.999302,0.987318,0.004614,0.467873,0.000002,0.000028,-0.000004,0.000029,0.000002,-82.153799,0.000035,
2506,3223,5.27488169132605,12.5925958290152,0.027854089198172,0.002738,0.004743,0.005451,0.107111,0.278761,311.682659,26.695562,0.999447,0.991121,0.003861,0.441512,0.000028,0.000017,-0.000008,0.000032,0.000013,-27.728039,0.000046,
2011,2278,-5.32485320721079,-8.00472180301006,0.00493072663584826,0.002663,0.003870,0.004823,0.110516,0.233250,327.726949,24.908236,0.998706,0.979369,0.005606,0.428535,0.000012,0.000057,0.000038,0.000079,-0.000010,60.113790,0.000086,
2056,2443,-4.37152910956152,-4.39912753611966,-0.00718588993913727,0.002526,0.003904,0.006731,0.098534,0.243972,324.686448,24.704717,0.999141,0.986436,0.004638,0.414719,-0.000011,0.000010,-0.000013,0.000017,-0.000017,-64.221801,0.000019,
2176,2998,-1.85318532343248,7.68332907643057,0.0107960575085144,0.002605,0.004068,0.008887,0.094089,0.256691,315.289227,24.854017,0.999402,0.991050,0.003847,0.428622,0.000003,0.000023,0.000007,0.000025,0.000001,72.217497,0.000030,
2221,3238,-0.916771104331367,12.8904117584761,0.0416845893765299,0.002337,0.004004,0.010905,0.074398,0.242880,311.470553,25.282815,0.999672,0.993580,0.003327,0.397899,0.000002,0.000037,-0.000001,0.000037,0.000002,-87.734762,0.000044,
2071,2623,-4.073546589218,-0.473611820804479,-0.023703348657989,0.003081,0.004258,0.004367,0.130862,0.261035,321.590250,24.577318,0.999126,0.988447,0.004289,0.494278,-0.000018,0.000012,-0.000014,0.000018,-0.000024,-68.806022,0.000025,
2431,2803,3.72493956632176,3.46140483282176,-0.0114145009495701,0.002875,0.004461,0.003816,0.119931,0.264097,318.072288,25.007527,0.999519,0.988955,0.004159,0.359514,-0.000004,0.000051,-0.000008,0.000052,-0.000005,-82.073245,0.000058,
2281,2278,0.556342741898561,-8.0045530502986,0.00418406572191543,0.002413,0.003862,0.005898,0.092455,0.251496,326.669435,23.769216,0.999589,0.987477,0.004621,0.443176,-0.000013,-0.000007,-0.000016,0.000006,-0.000026,-50.408567,0.000027,
2161,2938,-2.16889760946004,6.38012790668068,0.00158330166391352,0.002866,0.004240,0.007761,0.109903,0.265257,316.258938,24.765701,0.999272,0.988814,0.004232,0.445226,0.000007,0.000031,0.000006,0.000033,0.000006,77.706838,0.000041,
2251,2143,-0.072454308435038,-10.961941889977,0.0178654104884686,0.002827,0.004283,0.002046,0.124437,0.258374,329.036380,23.703542,0.998770,0.980375,0.005474,0.409989,0.000008,0.000014,0.000001,0.000014,0.000008,80.159868,0.000023,
2221,3178,-0.905305970945605,11.5898170648311,0.0432358919038052,0.002588,0.004574,0.003473,0.110004,0.247887,312.501618,25.212542,0.999267,0.991025,0.003807,0.403060,-0.000003,0.000027,-0.000006,0.000028,-0.000004,-78.886439,0.000030,
2446,2893,4.03187736998202,5.42116378552143,-0.0257831766672894,0.002563,0.004043,0.006351,0.095939,0.260906,316.484498,25.232824,0.999471,0.990654,0.003890,0.456300,-0.000008,0.000010,-0.000013,0.000017,-0.000014,-61.960636,0.000018,
2311,2173,1.23159531891308,-10.3062560887701,0.0231191982460359,0.002608,0.003647,0.004914,0.104150,0.248394,328.505563,23.408532,0.999159,0.981223,0.005329,0.429289,0.000006,0.000005,-0.000011,0.000017,-0.000005,-43.724295,0.000017,
2416,2713,3.41596768290266,1.49911553455029,-0.016515765205952,0.002989,0.004643,0.001265,0.134639,0.269103,319.490240,24.562981,0.999671,0.990327,0.003909,0.508612,-0.000004,0.000048,-0.000009,0.000049,-0.000006,-80.750141,0.000054,
2011,2413,-5.34495563039832,-5.05554112956534,0.000429599372125722,0.002611,0.004167,0.005986,0.105214,0.264789,325.511559,24.790850,0.999129,0.987330,0.004484,0.486674,-0.000004,0.000061,-0.000006,0.000062,-0.000005,-84.537116,0.000069,
2296,2158,0.906642058133873,-10.6336488762012,0.0160385287949225,0.002747,0.004087,0.003277,0.116331,0.236911,328.711521,23.498491,0.999352,0.983023,0.005244,0.374838,0.000001,0.000005,-0.000010,0.000014,-0.000007,-50.134431,0.000014,
2071,2503,-4.05443637283284,-3.09062653654036,-0.00572322238167544,0.002630,0.003946,0.007527,0.100876,0.253312,323.650857,24.602220,0.999341,0.989475,0.004206,0.479737,0.000007,0.000025,-0.000012,0.000031,0.000001,-64.109861,0.000036,
2356,2398,2.17005274638768,-5.37886906814855,0.0025003620136772,0.002731,0.004149,0.004967,0.109469,0.264199,324.693924,23.799533,0.999482,0.986605,0.004652,0.430920,0.000013,0.000027,0.000023,0.000044,-0.000004,53.648114,0.000048,
2266,2098,0.262165620973597,-11.947535216561,0.0148579769796129,0.002658,0.003757,0.005938,0.103530,0.250775,329.689913,23.619100,0.999086,0.980070,0.005506,0.317606,0.000018,0.000046,0.000008,0.000048,0.000016,74.913236,0.000067,
2326,2263,1.54183957684505,-8.33381169536102,0.0138983300607833,0.002796,0.004165,0.005342,0.111407,0.250226,326.976363,23.561558,0.999114,0.982029,0.005051,0.420454,-0.000014,-0.000025,-0.000011,-0.000007,-0.000032,-32.274336,0.000041,
2341,2338,1.85491665881341,-6.69227125162199,0.014803712732089,0.002660,0.003934,0.006972,0.099286,0.261279,325.756538,23.706513,0.999421,0.986762,0.004681,0.413479,-0.000009,0.000010,0.000008,0.000013,-0.000012,68.968954,0.000015,
2386,2578,2.78851545263106,-1.44550940534305,-0.0100138019174096,0.002731,0.004243,0.006708,0.103105,0.265997,321.677796,24.254872,0.999366,0.987440,0.004498,0.418751,0.000014,0.000021,0.000002,0.000021,0.000013,74.224182,0.000035,
2461,2938,4.35075799979774,6.40056400676135,-0.0098302155288934,0.002783,0.004341,0.007394,0.102023,0.262851,315.918487,25.495835,0.999402,0.990474,0.004090,0.383309,0.000010,-0.000014,-0.000008,0.000012,-0.000017,-16.874356,0.000017,
2116,2848,-3.13215769178962,4.42297478586997,-0.0130326346791207,0.002590,0.004002,0.008444,0.095877,0.259013,317.772399,24.628159,0.999661,0.992790,0.003498,0.457536,-0.000004,0.000037,0.000000,0.000037,-0.000004,-89.921474,0.000040,
2041,2503,-4.70646690291509,-3.09064349599018,-0.0132631355396597,0.002979,0.004330,0.003333,0.129228,0.248675,323.784562,24.652455,0.999413,0.988966,0.004239,0.485421,0.000006,0.000036,-0.000010,0.000038,0.000003,-73.413230,0.000046,
2041,2398,-4.69059996231681,-5.38308937175429,-0.00252891719441095,0.002638,0.003790,0.007804,0.100839,0.258897,325.539704,24.645760,0.999310,0.988426,0.004219,0.545371,0.000003,0.000048,-0.000005,0.000048,0.000003,-83.719766,0.000057,
2131,2773,-2.79460809503662,2.79357228259531,-0.0173529408874629,0.002425,0.004204,0.007926,0.089481,0.257523,318.882473,24.645794,0.999585,0.992057,0.003589,0.431387,0.000007,0.000030,-0.000013,0.000035,0.000001,-66.335929,0.000042,
2146,2878,-2.48516009378674,5.07614164330531,-0.00430755158873808,0.002636,0.004437,0.008318,0.097920,0.270922,317.231839,24.696510,0.999465,0.991196,0.003774,0.457092,0.000004,0.000045,-0.000001,0.000045,0.000004,-88.135180,0.000055,
2266,2203,0.243814760260012,-9.64720597293356,0.0107992782474753,0.002998,0.003968,0.003203,0.128312,0.237472,327.990658,23.708504,0.998819,0.980600,0.005503,0.413694,-0.000003,0.000015,-0.000011,0.000021,-0.000009,-64.706646,0.000021,
2056,2563,-4.38978880051944,-1.78252927395486,-0.00958351255246725,0.002759,0.003960,0.006569,0.109838,0.255208,322.740217,24.615404,0.999361,0.988346,0.004242,0.481202,-0.000006,0.000029,-0.000008,0.000030,-0.000007,-77.837432,0.000032,
2161,2863,-2.15771151639365,4.75160978320528,-0.0141819193247557,0.002578,0.003823,0.008890,0.092941,0.233192,317.331130,24.736485,0.999364,0.991184,0.003724,0.394381,0.000003,0.000045,0.000000,0.000045,0.000003,-89.484408,0.000054,
2026,2428,-5.02172391111858,-4.72676889322239,-0.00928955513239771,0.002493,0.004152,0.005919,0.099778,0.269042,325.088479,24.755770,0.999040,0.984757,0.004826,0.474780,0.000007,0.000035,0.000003,0.000035,0.000006,84.369662,0.000044,
2296,2233,0.8932865520874,-8.9896803519342,0.0131940089370346,0.003129,0.004556,0.002391,0.137071,0.271862,327.498793,23.680324,0.998999,0.979206,0.005455,0.390966,-0.000017,0.000002,-0.000018,0.000013,-0.000028,-59.534658,0.000028,
2206,3163,-1.22892908460111,11.2640234264622,0.035360840260239,0.002611,0.004573,0.007980,0.096896,0.262076,312.708532,25.130480,0.999689,0.994873,0.003205,0.414942,-0.000002,0.000027,-0.000007,0.000029,-0.000004,-77.832863,0.000031,
2206,3178,-1.23143773567459,11.5895604920274,0.0335427281263492,0.002756,0.004653,0.006645,0.107867,0.265350,312.458645,25.161436,0.999622,0.994494,0.003265,0.402791,-0.000002,0.000028,-0.000005,0.000029,-0.000003,-81.288324,0.000031,
2251,2023,-0.0514470418246056,-13.5942679004951,0.0269848443787737,0.002515,0.003833,0.006663,0.094771,0.265927,331.012266,23.552680,0.999147,0.981158,0.005474,0.355635,0.000033,0.000078,0.000025,0.000090,0.000022,65.807970,0.000118,
2371,2488,2.47963144806001,-3.41259167733099,0.002695467916908,0.002613,0.004017,0.008333,0.091957,0.260843,323.225139,23.962298,0.999426,0.986973,0.004445,0.473402,0.000018,0.000017,0.000022,0.000040,-0.000004,44.388559,0.000043,
2176,2953,-1.84616502254076,6.7071609087699,-0.000553354117300842,0.002629,0.004724,0.007351,0.100173,0.283854,315.933545,24.805790,0.999314,0.991350,0.003707,0.469130,0.000006,0.000025,0.000006,0.000027,0.000004,72.816227,0.000034,
2446,2908,4.02947246660971,5.74694335506286,-0.0157264132294017,0.002502,0.004199,0.008430,0.085436,0.268243,316.313247,25.300023,0.999436,0.990049,0.003992,0.448149,-0.000005,0.000003,-0.000007,0.000007,-0.000009,-60.346010,0.000010,
2176,3013,-1.85518236019112,8.00887981728388,0.0133158477420352,0.002986,0.004174,0.008783,0.112047,0.264421,315.083493,24.866861,0.999307,0.989073,0.004123,0.435004,0.000003,0.000022,0.000006,0.000024,0.000001,74.221256,0.000028,
2086,2503,-3.72845542974783,-3.08957774991246,-0.0128328569090854,0.002731,0.004159,0.004608,0.113765,0.256447,323.526494,24.572633,0.999159,0.989167,0.004135,0.482371,0.000007,0.000023,-0.000013,0.000030,0.000000,-60.656340,0.000035,
2191,3028,-1.53225310262566,8.33491359708777,0.0157987655435363,0.002813,0.004107,0.009504,0.101450,0.252827,314.800198,24.897697,0.999570,0.991778,0.003838,0.450754,-0.000003,0.000012,-0.000002,0.000012,-0.000004,-82.791152,0.000013,
2506,3238,5.27166906161078,12.9175997483234,0.0266570957991235,0.002893,0.004654,0.007559,0.105998,0.274244,311.425196,26.709209,0.999535,0.990615,0.003855,0.483154,0.000025,0.000018,-0.000008,0.000031,0.000013,-33.610681,0.000045,
2356,2413,2.16699285904863,-5.05028943473986,-0.00284435340074651,0.002820,0.004301,0.003645,0.118284,0.241890,324.415131,23.874386,0.999719,0.989441,0.004248,0.374335,0.000007,0.000024,0.000021,0.000038,-0.000007,56.359304,0.000041,
2056,2458,-4.37405989063133,-4.07243834601456,-0.00605296137473488,0.002175,0.003843,0.006142,0.084022,0.244128,324.439750,24.655793,0.999116,0.986035,0.004827,0.459738,-0.000005,0.000011,-0.000021,0.000025,-0.000020,-55.671110,0.000027,
2251,2158,-0.0744015471059249,-10.6338283737186,0.0221556706229649,0.003055,0.004528,0.000060,0.141469,0.254140,328.847811,23.723912,0.998304,0.979345,0.005604,0.411266,0.000007,0.000012,0.000002,0.000012,0.000006,68.784361,0.000019,
2011,2428,-5.34736464043107,-4.72798799025752,-0.00031092033054847,0.002460,0.004122,0.006175,0.097759,0.281326,325.256132,24.775758,0.998987,0.986360,0.004647,0.507748,-0.000010,0.000049,-0.000005,0.000049,-0.000011,-85.116353,0.000052,
2401,2668,3.0976150324333,0.517989837646411,-0.0139600814142113,0.002784,0.003988,0.006617,0.105603,0.262861,320.197494,24.483300,0.999404,0.987743,0.004410,0.444427,-0.000003,0.000029,-0.000008,0.000031,-0.000005,-76.621126,0.000034,
2011,2293,-5.32825691344968,-7.67410730946808,-0.00688916679024487,0.002259,0.004279,0.006634,0.087196,0.285643,327.363049,24.979814,0.999016,0.984740,0.005000,0.400056,0.000014,0.000026,0.000027,0.000048,-0.000007,51.011181,0.000052,
2236,2053,-0.383358757109132,-12.9364569363565,0.0294622096051853,0.002988,0.003809,0.004558,0.123547,0.217468,330.608438,23.697869,0.998837,0.977157,0.005711,0.312454,0.000028,0.000056,0.000019,0.000065,0.000018,63.299474,0.000088,
2476,3043,4.65727095504151,8.68290951485715,0.00878736390717449,0.002803,0.004401,0.009972,0.092987,0.277822,314.381297,25.905772,0.999719,0.992105,0.003595,0.413092,0.000021,0.000048,0.000003,0.000048,0.000021,84.480248,0.000071,
2131,2728,-2.78689538581748,1.81373888620079,-0.0205425461667232,0.002653,0.004428,0.003011,0.114771,0.261815,319.611929,24.527621,0.999298,0.988449,0.004311,0.536660,0.000004,0.000033,-0.000014,0.000039,-0.000001,-68.469660,0.000044,
2056,2578,-4.39186888253609,-1.45456981330784,-0.0171707699771559,0.003321,0.004665,0.004467,0.141837,0.274156,322.465845,24.625893,0.999064,0.988002,0.004365,0.485384,-0.000011,0.000026,-0.000008,0.000027,-0.000013,-77.869477,0.000027,
2461,2953,4.34798267366358,6.7261438763272,-0.00569341023248171,0.002653,0.004294,0.006982,0.097577,0.258436,315.703690,25.524665,0.999474,0.990438,0.003986,0.404122,0.000013,-0.000005,-0.000006,0.000015,-0.000007,-17.106649,0.000015,
2086,2563,-3.73739398977166,-1.78191407858878,-0.00523549461024686,0.002622,0.003996,0.002991,0.113354,0.225900,322.619877,24.625809,0.998989,0.987026,0.004579,0.398538,0.000000,0.000030,-0.000006,0.000031,-0.000001,-79.917385,0.000035,
2071,2638,-4.07582160052298,-0.146698254972172,-0.0160139630068556,0.002799,0.004320,0.006500,0.111861,0.277965,321.392289,24.645268,0.999041,0.986317,0.004561,0.440363,-0.000015,0.000016,-0.000011,0.000020,-0.000019,-72.084235,0.000022,
2266,2218,0.24103901773687,-9.31948396068517,0.0182286404195224,0.002588,0.003525,0.006571,0.098268,0.232847,327.780960,23.746988,0.998846,0.978813,0.005605,0.398515,-0.000006,0.000008,-0.000018,0.000020,-0.000019,-55.805425,0.000023,
2026,2338,-5.00736756155986,-6.69350871571243,0.00423038733572412,0.002675,0.003914,0.005658,0.108696,0.233500,326.660072,24.812747,0.999131,0.986096,0.004629,0.430244,0.000005,-0.000020,-0.000025,0.000020,-0.000035,-31.467322,0.000036,
2206,3298,-1.25420023812289,14.1903205697209,0.012056085452457,0.002725,0.004272,0.010129,0.095371,0.262387,310.300159,25.220612,0.999395,0.992664,0.003360,0.462725,0.000017,0.000049,0.000004,0.000050,0.000016,82.232343,0.000069,
2071,2518,-4.05690318443177,-2.76270060323066,-0.0135931040338164,0.002763,0.004226,0.004076,0.116934,0.246997,323.358775,24.611136,0.999334,0.990346,0.004054,0.462697,0.000002,0.000026,-0.000012,0.000031,-0.000003,-67.707042,0.000034,
2221,3253,-0.919759041627596,13.2154331513627,0.0334524049722518,0.002515,0.004205,0.010072,0.085410,0.256047,311.166758,25.240042,0.999628,0.993767,0.003281,0.471442,0.000004,0.000039,0.000003,0.000040,0.000004,84.912246,0.000048,
2326,2278,1.53819547262057,-8.00432204974958,0.00427991439858033,0.002508,0.004159,0.003303,0.105229,0.244198,326.647463,23.609894,0.999152,0.982835,0.004996,0.402924,-0.000015,-0.000011,-0.000010,-0.000003,-0.000023,-51.543413,0.000028,
2491,3118,4.9696530047856,10.3120286470337,0.0219081033351358,0.002846,0.004561,0.007427,0.104474,0.269846,313.312048,26.208213,0.999496,0.990547,0.003723,0.441082,0.000038,0.000068,0.000016,0.000074,0.000031,67.050413,0.000108,
2296,2353,0.87064272648934,-6.3647333234821,0.0128890892220284,0.002643,0.003941,0.007362,0.097950,0.251320,325.520017,23.870226,0.999518,0.987801,0.004354,0.437481,-0.000012,0.000016,-0.000004,0.000017,-0.000013,-81.847033,0.000018,
2101,2668,-3.42907524446843,0.507650280715126,-0.0251195268814399,0.002890,0.004415,0.003583,0.124165,0.260306,320.690751,24.578407,0.999534,0.990353,0.003844,0.472471,-0.000004,0.000029,-0.000005,0.000029,-0.000005,-81.688088,0.000031,
2116,2863,-3.13412603502433,4.74851033807598,-0.00597767663066406,0.002676,0.003962,0.009518,0.096622,0.252189,317.588346,24.647897,0.999658,0.992198,0.003559,0.434146,-0.000007,0.000036,-0.000001,0.000036,-0.000007,-88.837117,0.000038,
2251,2038,-0.0541969352009986,-13.2655632455644,0.0297595388826153,0.002535,0.003429,0.011526,0.079694,0.272283,330.779430,23.557986,0.999082,0.978847,0.005561,0.383583,0.000028,0.000065,0.000013,0.000070,0.000024,72.037873,0.000097,
2281,2293,0.553990561695123,-7.67628998092444,0.00314913432788444,0.002775,0.003657,0.005129,0.111553,0.244367,326.437789,23.798513,0.999328,0.984527,0.005015,0.436640,-0.000014,0.000002,-0.000008,0.000005,-0.000017,-68.077434,0.000018,
2266,2113,0.260798605688315,-11.6203235059708,0.0279455281223022,0.002825,0.004231,0.003691,0.118795,0.264384,329.573132,23.620323,0.999100,0.980056,0.005462,0.357918,0.000018,0.000033,0.000007,0.000036,0.000015,69.492784,0.000052,
2011,2308,-5.32974259681706,-7.34733496269232,-0.00476035893461813,0.002694,0.003894,0.004355,0.113231,0.225641,327.166168,24.958054,0.999035,0.985963,0.004858,0.351805,0.000004,0.000003,-0.000002,0.000006,0.000002,-39.606860,0.000008,
2206,3193,-1.23347627256387,11.9139174536547,0.0389216363711284,0.002868,0.004664,0.005258,0.117438,0.260764,312.268095,25.137696,0.999735,0.995828,0.003066,0.437220,-0.000002,0.000026,-0.000006,0.000027,-0.000003,-78.819089,0.000030,
2161,2953,-2.17143265789894,6.70526827900119,0.00553205224156272,0.002547,0.004183,0.007117,0.097196,0.255587,316.035229,24.752724,0.999437,0.990934,0.003790,0.458213,0.000007,0.000027,0.000008,0.000030,0.000005,71.237996,0.000037,
2416,2728,3.41237851440551,1.82616227483945,-0.0197582157528018,0.002908,0.004272,0.005008,0.117084,0.248064,319.201295,24.622933,0.999608,0.990201,0.003954,0.475750,-0.000006,0.000047,-0.000003,0.000047,-0.000006,-86.894330,0.000051,
2056,2473,-4.37605732529477,-3.74393390314148,-0.00759672776950993,0.002429,0.004053,0.003875,0.102168,0.244914,324.202271,24.752244,0.999166,0.986636,0.004939,0.359914,0.000000,0.000021,-0.000013,0.000028,-0.000007,-64.628838,0.000029,
2431,2818,3.72154097813833,3.78725507531041,-0.0157677361260085,0.002874,0.004323,0.004771,0.116308,0.257619,317.788002,24.962416,0.999583,0.990054,0.004025,0.448057,-0.000007,0.000037,-0.000010,0.000040,-0.000009,-77.374596,0.000041,
2146,2893,-2.48741245067957,5.4017222666258,-0.0052451428359177,0.002785,0.004199,0.005960,0.111799,0.243012,316.994092,24.690974,0.999405,0.989505,0.004137,0.441892,0.000002,0.000039,-0.000002,0.000039,0.000002,-87.012367,0.000046,
2386,2593,2.78547083459946,-1.11835404227679,-0.00994160031746105,0.002709,0.004248,0.008432,0.095896,0.260867,321.427601,24.293018,0.999400,0.987233,0.004559,0.419827,0.000016,0.000016,0.000004,0.000021,0.000012,45.540665,0.000033,
2161,2878,-2.15977819389537,5.07731786104291,-0.00600927522549455,0.002559,0.004195,0.010051,0.088676,0.264292,317.150955,24.747292,0.999467,0.992251,0.003597,0.424375,0.000006,0.000049,0.000000,0.000049,0.000006,-89.760317,0.000060,
2131,2788,-2.79680365662995,3.11974270038468,-0.0176097668218063,0.002492,0.004378,0.004689,0.102404,0.268804,318.649575,24.630389,0.999515,0.992336,0.003561,0.463687,0.000002,0.000038,-0.000011,0.000041,-0.000001,-74.750474,0.000047,
2101,2773,-3.44600014176801,2.79289669339883,-0.0218707605459372,0.002787,0.004326,0.007060,0.109323,0.273462,318.999871,24.638311,0.999589,0.990712,0.003826,0.435750,0.000000,0.000020,-0.000016,0.000029,-0.000009,-61.172511,0.000030,
2281,2173,0.576380652591009,-10.3058596434687,0.0141670118457,0.002810,0.003907,0.004992,0.113571,0.246666,328.467823,23.480279,0.999308,0.981961,0.005308,0.515239,0.000008,0.000005,-0.000003,0.000010,0.000003,-34.355295,0.000014,
2041,2518,-4.70892064279049,-2.76319606484915,-0.0154290406084101,0.002887,0.004574,0.002699,0.126863,0.255191,323.521804,24.656035,0.999349,0.989428,0.004193,0.481721,-0.000003,0.000031,-0.000008,0.000033,-0.000005,-76.775628,0.000036,
2371,2503,2.47669960079141,-3.08433042554412,-0.00185366471015413,0.002813,0.003947,0.007147,0.105336,0.251266,322.957053,24.034441,0.999441,0.987297,0.004475,0.434061,0.000014,0.000022,0.000019,0.000038,-0.000002,50.551694,0.000043,
2506,3253,5.26835912350875,13.2436433685456,0.0229448715416538,0.003011,0.004672,0.007826,0.110414,0.275899,311.151517,26.802590,0.999725,0.992455,0.003525,0.451036,0.000023,0.000030,-0.000016,0.000043,0.000011,-51.144510,0.000057,
2191,3103,-1.54368522853954,9.96128269118224,0.0371002295281073,0.002958,0.004342,0.011065,0.103386,0.269613,313.755742,24.986375,0.999406,0.991929,0.003735,0.446451,-0.000008,0.000019,-0.000009,0.000022,-0.000011,-73.453871,0.000022,
2191,3088,-1.54140124182404,9.63638478678346,0.0291356645403766,0.003043,0.004452,0.008779,0.114448,0.260138,313.945096,24.979025,0.999305,0.991785,0.003810,0.431056,-0.000006,0.000017,-0.000008,0.000019,-0.000009,-72.729983,0.000019,
2041,2413,-4.69346144939229,-5.05433159997798,-0.0107011531472949,0.002633,0.003500,0.009434,0.096045,0.266231,325.224676,24.675384,0.999063,0.983943,0.004814,0.517493,0.000001,0.000034,-0.000003,0.000035,0.000001,-85.545689,0.000040,
2221,1993,-0.699892887579008,-14.2545865337708,0.0444660312496126,0.002657,0.003602,0.005637,0.104905,0.240336,331.710920,23.703105,0.999654,0.988125,0.004566,0.336251,0.000062,0.000053,0.000025,0.000083,0.000032,39.678933,0.000119,
2401,2683,3.09464172329305,0.846020798207071,-0.0193775117859332,0.003016,0.004702,0.004762,0.123238,0.276443,319.925253,24.566267,0.999365,0.987405,0.004431,0.420994,-0.000002,0.000047,-0.000011,0.000050,-0.000004,-78.058046,0.000055,
2341,2353,1.85247061167275,-6.36410404316654,0.0105133335596292,0.003134,0.004144,0.004177,0.130838,0.254287,325.509829,23.715858,0.999305,0.985393,0.004749,0.435846,-0.000005,0.000018,0.000013,0.000024,-0.000011,65.692025,0.000024,
2176,3028,-1.85765914667785,8.33404549348342,0.0147510593348557,0.003030,0.003979,0.009682,0.111219,0.255628,314.850182,24.857345,0.999463,0.991092,0.003924,0.447154,-0.000001,0.000013,0.000001,0.000013,-0.000001,86.898904,0.000015,
2221,3268,-0.922177722095736,13.5405036767488,0.0237764566146552,0.003010,0.004516,0.004171,0.127282,0.249137,310.881650,25.218648,0.999491,0.992904,0.003508,0.503693,0.000008,0.000046,0.000009,0.000047,0.000006,77.711397,0.000059,
2461,2968,4.3454999817679,7.05144658403582,-0.000523528549990715,0.002745,0.004074,0.006755,0.102568,0.243227,315.507120,25.549454,0.999428,0.989865,0.004103,0.417680,0.000007,0.000001,-0.000004,0.000010,-0.000001,-26.861757,0.000010,
2086,2578,-3.74021845644331,-1.45355869360892,-0.0176948267263697,0.002873,0.004663,0.001896,0.128324,0.267747,322.287668,24.607706,0.999115,0.987502,0.004465,0.458597,-0.000006,0.000026,-0.000006,0.000027,-0.000007,-79.356531,0.000028,
2116,2743,-3.1163044195013,2.14144448373571,-0.0267746457700468,0.002342,0.003839,0.009193,0.082079,0.250271,319.348717,24.668865,0.999460,0.989655,0.004031,0.384750,-0.000004,0.000027,-0.000015,0.000033,-0.000010,-67.464360,0.000034,
2356,2428,2.16409730289766,-4.7244727078254,-0.00327687475044058,0.002931,0.004226,0.005609,0.116448,0.259720,324.167752,23.708188,0.999559,0.989049,0.004321,0.598960,0.000008,0.000020,0.000016,0.000032,-0.000003,55.260397,0.000035,
2506,3268,5.2645278804482,13.5698628145477,0.0185716401303466,0.002887,0.004379,0.010715,0.093479,0.284455,310.850659,26.906029,0.999844,0.995335,0.002898,0.415725,0.000019,0.000033,-0.000015,0.000042,0.000010,-57.137334,0.000055,
2101,2683,-3.43164903130372,0.833599400399876,-0.0221738663030351,0.002592,0.004323,0.004677,0.107203,0.260341,320.455610,24.548689,0.999409,0.990945,0.003805,0.503865,-0.000004,0.000033,-0.000007,0.000034,-0.000005,-79.305113,0.000036,
2176,3148,-1.87705367750346,10.9365004089679,0.0331270477158228,0.002830,0.004452,0.008596,0.105670,0.273514,313.038359,24.975957,0.999426,0.992893,0.003631,0.436256,-0.000008,0.000021,-0.000012,0.000025,-0.000012,-70.666670,0.000025,
2266,2233,0.238533256134751,-8.9904885316591,0.0119597156561895,0.003002,0.003760,0.003861,0.126301,0.231685,327.514797,23.760934,0.998924,0.977754,0.005575,0.411525,-0.000012,0.000006,-0.000021,0.000020,-0.000026,-56.257072,0.000027,
2056,2593,-4.39534126068975,-1.12603526891458,-0.0227168787845358,0.002780,0.004357,0.008960,0.104221,0.284002,322.138855,24.721820,0.998670,0.986560,0.004589,0.394594,-0.000021,0.000044,-0.000008,0.000045,-0.000022,-82.647307,0.000045,
2146,2848,-2.48052957032455,4.42446554238507,-0.0133820189359994,0.002690,0.004174,0.005391,0.109127,0.248761,317.655264,24.669369,0.999561,0.992579,0.003536,0.446917,0.000001,0.000041,-0.000001,0.000041,0.000001,-88.295826,0.000048,
2131,2803,-2.79893923913732,3.44565242788644,-0.0165575464276344,0.002781,0.004424,0.005214,0.114135,0.262434,318.426535,24.623132,0.999470,0.991764,0.003707,0.469962,0.000003,0.000038,-0.000006,0.000039,0.000002,-79.852600,0.000047,
2026,2443,-5.02376044080713,-4.3981339355464,-0.0138557138296278,0.002695,0.004710,0.001411,0.121608,0.246128,324.829890,24.849034,0.999373,0.989206,0.004214,0.350301,-0.000001,0.000026,-0.000012,0.000030,-0.000006,-69.488118,0.000032,
2011,2683,-5.38521549942334,0.829583966002701,-0.0134840842198969,0.003153,0.004003,0.006253,0.129665,0.250880,321.059613,24.584813,0.999801,0.995706,0.002957,0.480288,-0.000026,0.000040,0.000004,0.000040,-0.000027,86.441961,0.000041,
2236,2068,-0.386070488589976,-12.6082015799443,0.0354811421892123,0.002498,0.003684,0.005351,0.098446,0.235819,330.392536,23.696388,0.999113,0.978907,0.005504,0.356498,0.000027,0.000053,0.000022,0.000065,0.000015,60.356795,0.000085,
2071,2533,-4.05892871350683,-2.4355929060397,-0.00768613300482457,0.002893,0.004133,0.007246,0.113877,0.262949,323.162340,24.651888,0.999358,0.990042,0.004113,0.435603,-0.000006,0.000038,0.000000,0.000038,-0.000006,-89.768985,0.000041,
2026,2353,-5.00961410547718,-6.36496302080684,-0.000809047348866443,0.002912,0.003802,0.004948,0.121511,0.238517,326.389107,24.832654,0.999172,0.986037,0.004768,0.407778,0.000004,-0.000010,-0.000017,0.000015,-0.000021,-33.470684,0.000022,
2251,2053,-0.0563657853750321,-12.9365090221367,0.0282387264772979,0.002734,0.003717,0.006463,0.105451,0.247129,330.551635,23.583632,0.998959,0.978805,0.005562,0.359477,0.000022,0.000063,0.000012,0.000066,0.000019,74.594632,0.000089,
2386,2608,2.78271109746996,-0.791677100084115,-0.0105742014025623,0.002776,0.004061,0.006973,0.104170,0.258389,321.187177,24.283204,0.999260,0.987320,0.004451,0.470888,0.000012,0.000017,0.000003,0.000018,0.000011,63.220244,0.000029,
2011,2443,-5.34938703187613,-4.39953846765248,0.000549106208495687,0.002615,0.004275,0.006497,0.104066,0.269241,325.027230,24.891017,0.999271,0.989180,0.004236,0.370053,-0.000016,0.000037,-0.000019,0.000044,-0.000022,-71.984302,0.000044,
2506,3283,5.26107780086283,13.8944916649144,0.0122555736704726,0.002865,0.004111,0.008436,0.101074,0.245199,310.559075,26.904021,0.999847,0.995687,0.002751,0.437963,0.000012,0.000023,-0.000014,0.000032,0.000002,-55.779694,0.000039,
2071,2653,-4.07855373573105,0.180138074111525,-0.0254870967187344,0.002893,0.004038,0.004820,0.120867,0.247909,321.079648,24.612797,0.999285,0.988253,0.004246,0.440522,-0.000018,0.000026,-0.000010,0.000028,-0.000020,-77.939005,0.000029,
2191,3223,-1.56440838523281,12.5633807928745,0.039413178976929,0.002673,0.004568,0.008641,0.098003,0.267196,311.806611,25.140418,0.999669,0.994399,0.003244,0.395993,-0.000009,0.000043,-0.000012,0.000046,-0.000012,-77.233456,0.000048,
2296,2248,0.889984785032294,-8.66219319084434,0.0114717856323523,0.002747,0.004018,0.003449,0.115843,0.242216,327.221908,23.638179,0.999129,0.981673,0.005238,0.436061,-0.000018,-0.000015,-0.000018,0.000002,-0.000034,-47.265924,0.000039,
2416,2743,3.40959440209108,2.15318613894714,-0.0178325240530626,0.003055,0.003927,0.006676,0.117594,0.246641,318.973424,24.707232,0.999509,0.989416,0.004018,0.437819,-0.000004,0.000061,-0.000003,0.000061,-0.000004,-87.648460,0.000068,
2461,2983,4.34276851532016,7.37816732962823,0.00313743688616341,0.002809,0.004292,0.007633,0.102321,0.264272,315.291679,25.661782,0.999446,0.989764,0.004046,0.380225,0.000004,0.000006,0.000003,0.000008,0.000002,52.624799,0.000010,
2086,2698,-3.75999898822036,1.15993480596334,-0.0209715428026129,0.002574,0.004230,0.007534,0.098333,0.281938,320.287427,24.576892,0.999307,0.990713,0.003891,0.500491,-0.000011,0.000026,-0.000014,0.000030,-0.000015,-71.526335,0.000030,
2116,2878,-3.13677162244988,5.07407807360546,-0.00616913636656591,0.002495,0.003983,0.009668,0.087761,0.236200,317.334278,24.629999,0.999535,0.991784,0.003764,0.439075,-0.000002,0.000044,0.000003,0.000044,-0.000002,86.286854,0.000050,
2281,2308,0.551773000505808,-7.34871362317313,0.00945913052851211,0.002718,0.003721,0.004179,0.112128,0.245410,326.248894,23.835476,0.999216,0.981684,0.005432,0.430368,-0.000015,0.000002,-0.000001,0.000002,-0.000015,-86.555201,0.000017,
2326,2293,1.5356356797404,-7.67559505419229,0.00272464406117479,0.002795,0.004481,0.002649,0.120775,0.282491,326.407375,23.631672,0.999195,0.983381,0.004951,0.456230,-0.000015,0.000000,-0.000002,0.000001,-0.000015,-82.587864,0.000017,
2161,2968,-2.17379465043042,7.0313886843564,0.00640132494976342,0.002724,0.004045,0.008125,0.102241,0.259879,315.802861,24.798251,0.999609,0.992589,0.003465,0.426131,0.000010,0.000029,0.000008,0.000032,0.000007,69.453729,0.000042,
2101,2698,-3.43451706023509,1.16041828560726,-0.0169223346063063,0.001965,0.004009,0.007428,0.070245,0.270079,320.219183,24.612095,0.999108,0.989962,0.004120,0.451604,0.000000,0.000029,-0.000009,0.000031,-0.000003,-74.245589,0.000034,
2281,2188,0.573939661748145,-9.9765840006268,0.0199736487425071,0.002792,0.003864,0.007061,0.105841,0.249328,328.266202,23.626631,0.998942,0.978427,0.005687,0.401970,0.000003,0.000006,-0.000008,0.000012,-0.000004,-49.543317,0.000013,
2176,3163,-1.87943038640415,11.2614160270987,0.0407893395090468,0.002498,0.004410,0.008484,0.090677,0.267727,312.842357,25.011181,0.999810,0.996305,0.002889,0.406092,-0.000008,0.000027,-0.000010,0.000029,-0.000011,-75.541182,0.000029,
2206,3208,-1.23629011106298,12.2391203912507,0.0382253603526692,0.002798,0.004637,0.006319,0.110897,0.271865,312.010079,25.144248,0.999552,0.993938,0.003410,0.457351,0.000000,0.000035,-0.000003,0.000035,0.000000,-84.490539,0.000041,
2056,2488,-4.37799324191233,-3.4168859302626,-0.00803482767162222,0.002838,0.004139,0.004336,0.119755,0.253008,323.974044,24.723383,0.999335,0.988086,0.004547,0.392700,-0.000003,0.000023,-0.000008,0.000025,-0.000005,-74.114287,0.000027,
2296,2368,0.868134862763167,-6.03757712195247,0.015501157201868,0.002598,0.003916,0.006501,0.098782,0.245714,325.300544,23.857612,0.999263,0.985122,0.004803,0.476185,-0.000016,0.000019,-0.000005,0.000020,-0.000017,-81.351168,0.000021,
2041,2533,-4.71111582199957,-2.43590741027377,-0.0140547792051393,0.003015,0.004205,0.004881,0.126591,0.255893,323.290543,24.687553,0.999274,0.988986,0.004091,0.444454,-0.000007,0.000036,0.000002,0.000036,-0.000007,87.633818,0.000038,
2176,3043,-1.8598304324489,8.66083287001431,0.0215054767372749,0.002811,0.004925,0.007441,0.108345,0.276371,314.658214,25.006368,0.999650,0.994900,0.003306,0.330171,-0.000006,0.000004,-0.000004,0.000006,-0.000008,-69.807544,0.000008,
2221,3283,-0.925773126703561,13.8677504967048,0.012888546832869,0.002884,0.004580,0.004913,0.119249,0.270022,310.535287,25.368917,0.999333,0.991885,0.003591,0.391612,0.000010,0.000054,0.000010,0.000056,0.000007,77.654885,0.000069,
2071,2548,-4.06175074448338,-2.10880916553246,-0.0139773836765471,0.002822,0.003728,0.007778,0.108989,0.253379,322.862949,24.584374,0.999449,0.990675,0.004039,0.491378,-0.000006,0.000038,0.000004,0.000038,-0.000007,85.315467,0.000041,
2131,2923,-2.81752406455464,6.05219887573814,0.00103711104594595,0.002781,0.004258,0.005150,0.114354,0.257835,316.622602,24.668146,0.999188,0.988540,0.004300,0.462967,0.000005,0.000026,0.000004,0.000027,0.000004,78.833337,0.000033,
2251,2173,-0.078253560555769,-10.3055543060667,0.0208406944403805,0.002367,0.003533,0.006181,0.089593,0.242729,328.543837,23.711729,0.999012,0.983930,0.005080,0.438380,0.000007,0.000011,-0.000001,0.000011,0.000007,-75.291638,0.000018,
2041,2428,-4.695646040893,-4.72647394230451,-0.00950227427603068,0.002617,0.003658,0.009143,0.096160,0.263213,324.992690,24.727268,0.998998,0.983717,0.004881,0.456284,-0.000001,0.000025,0.000002,0.000025,-0.000002,85.118836,0.000028,
2236,2083,-0.389230094341553,-12.2775735019777,0.027746313403668,0.002573,0.003760,0.006527,0.098145,0.255087,330.086083,23.763393,0.999396,0.981217,0.005289,0.333751,0.000027,0.000049,0.000019,0.000061,0.000016,60.023289,0.000081,
2446,2923,4.02708574990413,6.07338041261139,-0.00805476382197412,0.002600,0.004207,0.009795,0.084829,0.264943,316.131604,25.424208,0.999620,0.992497,0.003761,0.372005,0.000004,-0.000009,-0.000008,0.000008,-0.000013,-26.314216,0.000013,
2491,3133,4.96637768641501,10.6375527022134,0.0219501761782794,0.002728,0.004240,0.008526,0.094713,0.260849,313.056670,26.254724,0.999483,0.990425,0.003698,0.443232,0.000045,0.000054,0.000009,0.000060,0.000039,56.925576,0.000100,
2251,2068,-0.0591472699025495,-12.607544850452,0.0296122469146098,0.002271,0.004334,0.003641,0.093706,0.264768,330.310154,23.596273,0.999143,0.980635,0.005305,0.391007,0.000020,0.000059,0.000016,0.000065,0.000015,70.765745,0.000085,
2191,3118,-1.54624933090164,10.2862186842549,0.0406594218143255,0.002679,0.004311,0.010172,0.093240,0.251347,313.530547,25.000369,0.999488,0.992367,0.003622,0.427441,-0.000011,0.000024,-0.000010,0.000027,-0.000013,-75.413544,0.000027,
2221,2008,-0.70361960981425,-13.9232581596688,0.0316486036750803,0.002482,0.003475,0.006812,0.093159,0.231600,331.351297,23.773076,0.999633,0.986963,0.004765,0.280965,0.000043,0.000038,0.000028,0.000068,0.000013,42.400720,0.000088,
2146,2908,-2.48943731768347,5.72759100252048,-0.00202171273889462,0.002898,0.004388,0.003768,0.123787,0.257360,316.788711,24.704099,0.999306,0.988572,0.004246,0.450734,0.000002,0.000028,-0.000003,0.000029,0.000001,-82.923185,0.000034,
2431,2833,3.71874804989615,4.11453274660192,-0.0131714585818372,0.003215,0.003849,0.009274,0.115123,0.243262,317.563457,25.113862,0.999398,0.988364,0.004145,0.331720,-0.000011,0.000032,-0.000013,0.000036,-0.000014,-74.385416,0.000036,
2386,2623,2.77923613222482,-0.464340549405215,-0.0157616005022874,0.002609,0.004023,0.007052,0.096204,0.249797,320.892111,24.306076,0.999166,0.986764,0.004464,0.483754,0.000010,0.000023,0.000000,0.000023,0.000010,-89.610501,0.000033,
2011,2698,-5.38792139328051,1.15629366486117,-0.0148949220079544,0.002743,0.004472,0.005788,0.112215,0.272315,320.787435,24.569518,0.999789,0.995384,0.003041,0.505540,-0.000017,0.000033,0.000008,0.000034,-0.000018,80.908687,0.000034,
2086,2593,-3.74307229598699,-1.12639114287852,-0.0192181022429168,0.002404,0.004882,0.000794,0.110071,0.285991,322.013932,24.605455,0.999130,0.987172,0.004456,0.479139,-0.000013,0.000039,-0.000007,0.000040,-0.000014,-82.105093,0.000041,
2311,2188,1.22987435312701,-9.97845433399803,0.032529353955681,0.002875,0.003846,0.004221,0.118796,0.256737,328.356906,23.452291,0.999282,0.980486,0.005200,0.428257,0.000002,0.000007,-0.000014,0.000018,-0.000010,-50.882146,0.000018,
2191,3238,-1.56613385933524,12.8869323661557,0.0479308657696151,0.002775,0.004421,0.005896,0.111350,0.260671,311.646272,25.071567,0.999727,0.994342,0.003161,0.471550,-0.000008,0.000040,-0.000012,0.000043,-0.000010,-77.140903,0.000045,
2026,2458,-5.02659224110351,-4.07141673698697,-0.0221840286838528,0.002784,0.004283,0.004599,0.116840,0.260925,324.514365,24.700208,0.999348,0.989469,0.004183,0.505839,0.000003,0.000018,-0.000023,0.000034,-0.000013,-54.481139,0.000035,
2266,2128,0.257283200614207,-11.2912913337872,0.0218746915635961,0.002563,0.004008,0.005880,0.099494,0.281995,329.261943,23.580369,0.998918,0.980076,0.005483,0.444531,0.000016,0.000033,-0.000001,0.000034,0.000016,-87.811113,0.000050,
2266,2248,0.235000766530131,-8.66180152644248,0.00993750139548411,0.002655,0.003381,0.009034,0.093197,0.218531,327.222954,23.808554,0.998973,0.980829,0.005394,0.378856,-0.000009,-0.000009,-0.000022,0.000013,-0.000031,-44.816016,0.000031,
2476,3058,4.65520951917541,9.00814343837405,0.0194647689642125,0.002657,0.004525,0.007098,0.097223,0.257432,314.229688,25.986731,0.999655,0.989864,0.004022,0.367507,0.000022,0.000046,0.000006,0.000048,0.000020,76.355345,0.000070,
2281,2323,0.549198865579111,-7.0207878788244,0.0110688089839641,0.002888,0.003452,0.006466,0.112197,0.217494,326.020316,23.890963,0.998916,0.981376,0.005493,0.376644,-0.000010,-0.000001,-0.000003,0.000000,-0.000011,-74.961684,0.000013,
2356,2443,2.16172669131905,-4.39667634960156,0.00331483690450796,0.002918,0.003825,0.005890,0.114701,0.239659,323.977954,23.831783,0.999047,0.981549,0.005187,0.495203,0.000015,0.000013,0.000018,0.000032,-0.000004,43.557401,0.000035,
2131,2818,-2.80109277967202,3.77126695921623,-0.00938667214290945,0.002696,0.004387,0.006388,0.106707,0.264827,318.235427,24.630859,0.999274,0.989948,0.004123,0.470258,0.000008,0.000045,0.000000,0.000045,0.000008,89.472736,0.000057,
2041,2548,-4.71412816000054,-2.10855265865371,-0.021216793126996,0.002810,0.004092,0.006498,0.112620,0.258766,322.974628,24.652046,0.999512,0.989685,0.003903,0.476539,-0.000010,0.000034,0.000000,0.000034,-0.000010,-89.522123,0.000035,
2116,2758,-3.11730498541656,2.46620284625003,-0.0126595762002921,0.002653,0.004226,0.006090,0.105703,0.261619,319.247085,24.628470,0.999539,0.990459,0.003841,0.439586,-0.000004,0.000023,-0.000017,0.000031,-0.000013,-64.132139,0.000031,
2371,2518,2.47361641824036,-2.75709469540024,-0.00587104826456653,0.002825,0.003969,0.006115,0.109571,0.247044,322.684668,24.017547,0.999363,0.985492,0.004818,0.488938,0.000012,0.000012,0.000015,0.000027,-0.000003,45.438095,0.000029,
2506,3298,5.25826405058497,14.2197057738781,0.0158925393317872,0.002793,0.004317,0.007997,0.099553,0.251798,310.341265,26.968214,0.999772,0.993401,0.003219,0.439794,-0.000005,0.000010,-0.000036,0.000039,-0.000034,-51.106681,0.000043,
2161,3073,-2.18934752673755,9.30782561873102,0.0340798684011929,0.002902,0.004373,0.005953,0.117264,0.262503,314.337417,24.805067,0.999592,0.993857,0.003406,0.486616,-0.000002,0.000015,-0.000008,0.000019,-0.000005,-68.286002,0.000019,
2116,2893,-3.13972041781548,5.40057282108902,-0.0111793143649948,0.002401,0.003859,0.010973,0.079574,0.240230,317.040044,24.646686,0.999338,0.991813,0.004047,0.429507,-0.000003,0.000038,0.000003,0.000038,-0.000003,86.376976,0.000042,
2491,3148,4.96376124436392,10.963170832862,0.0278455518475198,0.002847,0.004183,0.010460,0.092766,0.266130,312.857995,26.335036,0.999447,0.989438,0.003908,0.425661,0.000044,0.000040,0.000010,0.000052,0.000031,39.181553,0.000084,
2011,2713,-5.39093663045906,1.48391227010431,-0.024237766163651,0.002525,0.004643,0.005748,0.102335,0.274339,320.456359,24.597438,0.999684,0.993740,0.003481,0.467850,-0.000019,0.000043,0.000005,0.000043,-0.000019,85.068226,0.000043,
2026,2473,-5.02931280887999,-3.74424929057645,-0.017854410507141,0.002290,0.003796,0.008749,0.082629,0.267615,324.274325,24.723188,0.998924,0.984714,0.004837,0.480905,0.000009,0.000022,-0.000014,0.000031,0.000000,-57.044612,0.000035,
2041,2443,-4.6968371627693,-4.40005661047829,-0.00222766088756998,0.002919,0.004432,0.003935,0.124776,0.261909,324.840110,24.707135,0.998819,0.982083,0.005268,0.468953,-0.000007,0.000021,-0.000008,0.000023,-0.000009,-74.786690,0.000023,
2101,2788,-3.44782159432021,3.11838419676005,-0.017089165120467,0.002989,0.004524,0.005874,0.122164,0.275259,318.809318,24.608378,0.999588,0.990875,0.003850,0.468745,-0.000005,0.000031,-0.000015,0.000037,-0.000010,-69.962930,0.000038,
2206,3223,-1.23999637332399,12.5658976624019,0.0285750161791611,0.002501,0.004651,0.007974,0.091954,0.272601,311.663988,25.259031,0.999775,0.995620,0.003011,0.358353,0.000002,0.000041,-0.000006,0.000042,0.000001,-80.835010,0.000049,
2101,2713,-3.43641234872845,1.48683338809145,-0.0201117974180534,0.002577,0.004162,0.005961,0.102721,0.246583,319.981897,24.606858,0.999225,0.989364,0.004147,0.434978,-0.000001,0.000025,-0.000012,0.000030,-0.000006,-67.829030,0.000032,
2296,2263,0.88609033691019,-8.33161583821756,0.00228029504114602,0.002471,0.003875,0.006209,0.093826,0.255751,326.880272,23.764687,0.999492,0.987178,0.004706,0.355928,-0.000019,-0.000018,-0.000015,-0.000003,-0.000034,-45.488432,0.000041,
2446,2938,4.02415476798627,6.39940386255924,-0.0133976968648994,0.002847,0.004375,0.006699,0.107862,0.267484,315.864866,25.415802,0.999587,0.991720,0.003828,0.434767,0.000007,-0.000010,-0.000013,0.000014,-0.000016,-28.407847,0.000018,
2086,2608,-3.74530418079997,-0.79959182044216,-0.0192181401296239,0.002666,0.004416,0.002874,0.115962,0.267537,321.777163,24.623902,0.999016,0.987373,0.004497,0.441847,-0.000013,0.000033,-0.000013,0.000036,-0.000016,-75.158583,0.000036,
2146,2863,-2.48371640546375,4.75095543587978,-0.0175046818638975,0.002500,0.003948,0.008870,0.089786,0.253848,317.357400,24.682987,0.999434,0.991852,0.003669,0.445910,0.000000,0.000040,-0.000003,0.000040,-0.000001,-85.150081,0.000046,
2461,2998,4.34001850378123,7.70307064774852,0.00462610399392815,0.003012,0.004405,0.008368,0.108945,0.270370,315.065876,25.610509,0.999392,0.989323,0.004063,0.491436,0.000008,0.000007,0.000005,0.000013,0.000003,42.817455,0.000017,
2431,2848,3.71576056920154,4.44032991644297,-0.00973771342682994,0.002931,0.004293,0.009452,0.101624,0.264363,317.334085,25.103997,0.999322,0.986695,0.004253,0.412642,-0.000015,0.000026,-0.000022,0.000036,-0.000024,-66.109911,0.000037,
2056,2503,-4.38117751291069,-3.09052831920894,-0.0147683248389399,0.002541,0.003592,0.007299,0.097563,0.236980,323.654368,24.603383,0.999352,0.988188,0.004393,0.492598,0.000002,0.000030,-0.000012,0.000034,-0.000002,-70.032205,0.000038,
2011,2458,-5.35115135026204,-4.07330936009635,0.00100013278358801,0.002865,0.004619,0.003833,0.122905,0.273721,324.808375,24.787747,0.999363,0.989371,0.004147,0.467119,-0.000013,0.000018,-0.000030,0.000036,-0.000031,-58.544748,0.000039,
2221,2023,-0.705828476000132,-13.5944379185903,0.0302886983594703,0.002868,0.003562,0.005992,0.113492,0.225524,331.119744,23.748411,0.999187,0.981114,0.005379,0.321870,0.000039,0.000057,0.000029,0.000078,0.000018,53.645146,0.000102,
2071,2668,-4.08111341441058,0.506764263669318,-0.0267297975395877,0.002744,0.004129,0.004693,0.114394,0.248716,320.819916,24.604606,0.999205,0.988267,0.004296,0.446565,-0.000021,0.000029,-0.000006,0.000029,-0.000022,-82.998989,0.000030,
2026,2368,-5.01182428005233,-6.03822930162181,0.00434596604065973,0.002785,0.003834,0.007887,0.107633,0.265271,326.176881,24.769959,0.999245,0.986388,0.004719,0.489000,0.000010,0.000012,-0.000017,0.000028,-0.000006,-47.298682,0.000029,
2191,3133,-1.54873626740088,10.6124179431871,0.0369753918858464,0.002823,0.004595,0.007036,0.109928,0.273264,313.270628,25.049572,0.999399,0.992252,0.003736,0.413526,-0.000008,0.000023,-0.000009,0.000026,-0.000010,-75.203781,0.000026,
2416,2758,3.40647108029076,2.47975927392753,-0.0181012443616169,0.002790,0.004243,0.005332,0.110473,0.250358,318.719715,24.731923,0.999512,0.988285,0.004175,0.464743,-0.000002,0.000066,-0.000003,0.000066,-0.000002,-87.658231,0.000075,
2341,2368,1.84830493914952,-6.03433670997541,-0.0042434769461579,0.002990,0.004475,0.005266,0.120591,0.281276,325.133178,23.742026,0.999106,0.984754,0.004829,0.475818,-0.000008,0.000021,0.000013,0.000025,-0.000012,69.183941,0.000025,
2056,2608,-4.39742096084493,-0.801095784804076,-0.0166584008282484,0.002576,0.004054,0.008109,0.097137,0.263741,321.940584,24.623302,0.998960,0.988192,0.004357,0.467955,-0.000019,0.000038,-0.000014,0.000042,-0.000022,-77.138613,0.000042,
2221,3298,-0.929630696641684,14.1924437080099,0.00736976540332535,0.002322,0.004521,0.008579,0.081457,0.267153,310.205473,25.341419,0.999414,0.992304,0.003417,0.433177,0.000011,0.000058,0.000005,0.000059,0.000010,83.484972,0.000074,
2386,2638,2.77684462861399,-0.137372128604028,-0.0133611260440603,0.002960,0.003678,0.007485,0.110597,0.235301,320.682836,24.370465,0.999220,0.986317,0.004498,0.448471,0.000002,0.000024,-0.000004,0.000025,0.000001,-79.332371,0.000029,
2401,2698,3.09093700916089,1.17260769991007,-0.0234314796840636,0.002987,0.003866,0.010212,0.101842,0.255472,319.626148,24.567765,0.999386,0.989614,0.004121,0.444468,-0.000001,0.000048,-0.000010,0.000050,-0.000002,-79.093496,0.000056,
2191,3253,-1.56962298660053,13.2128170258246,0.0379721869026071,0.002717,0.004714,0.008015,0.102122,0.280347,311.307483,25.091324,0.999614,0.993783,0.003296,0.484598,-0.000004,0.000039,-0.000009,0.000041,-0.000006,-78.404000,0.000044,
2326,2308,1.53251144940314,-7.34743863809481,0.00700358019003033,0.002639,0.003908,0.009400,0.090192,0.272453,326.170089,23.713282,0.999028,0.983215,0.005074,0.400972,-0.000012,0.000000,0.000007,0.000003,-0.000015,64.210754,0.000016,
2086,2713,-3.76200449601704,1.4859849720527,-0.021025219373314,0.002821,0.004237,0.005588,0.115273,0.257495,320.061000,24.564511,0.999259,0.989840,0.004046,0.487711,-0.000012,0.000023,-0.000018,0.000030,-0.000019,-67.386739,0.000031,
2236,2098,-0.391400332404142,-11.9493622422228,0.0270790974427655,0.002846,0.003913,0.003794,0.119525,0.247106,329.861132,23.720984,0.999203,0.979859,0.005534,0.392075,0.000026,0.000041,0.000019,0.000053,0.000013,55.597120,0.000071,
2281,2203,0.571250872989868,-9.64741455026498,0.0145288006550572,0.003014,0.004044,0.004621,0.124229,0.248024,327.997303,23.653983,0.998770,0.978501,0.005690,0.403754,-0.000003,0.000015,-0.000009,0.000018,-0.000006,-67.930837,0.000018,
2251,2188,-0.0810302097263396,-9.97411702043086,0.0125583697972047,0.002754,0.004004,0.005125,0.110992,0.255346,328.253325,23.896140,0.999507,0.988833,0.004462,0.292890,0.000003,0.000009,-0.000008,0.000015,-0.000003,-53.540388,0.000016,
2251,2083,-0.0625761057647622,-12.2770799196345,0.0195526428291259,0.002495,0.003644,0.007779,0.090238,0.245646,329.981462,23.661790,0.999282,0.981112,0.005339,0.333520,0.000020,0.000053,0.000013,0.000058,0.000016,70.734679,0.000078,
2101,2728,-3.43921225130267,1.81412256450304,-0.0294629135338482,0.002551,0.004537,0.002430,0.111982,0.253864,319.669510,24.606785,0.999284,0.988443,0.004240,0.444130,-0.000004,0.000025,-0.000012,0.000029,-0.000008,-70.571250,0.000031,
2071,2563,-4.06459308807495,-1.78155589978334,-0.0158440579052694,0.002607,0.003222,0.010651,0.090732,0.237249,322.586714,24.610923,0.999214,0.988589,0.004325,0.446476,-0.000006,0.000031,-0.000004,0.000032,-0.000006,-83.179158,0.000033,
2011,2923,-5.42087944640145,6.04581361033073,0.00176946248728882,0.002667,0.004486,0.005544,0.109587,0.276871,317.273585,24.459117,0.999366,0.992363,0.003439,0.438702,0.000018,-0.000010,-0.000008,0.000020,-0.000012,-15.516553,0.000020,
2176,3178,-1.88112306031083,11.5851566363953,0.0497128213212932,0.002802,0.004321,0.008936,0.103186,0.254578,312.684852,24.955641,0.999744,0.994910,0.003121,0.459634,-0.000012,0.000027,-0.000009,0.000029,-0.000014,-77.356141,0.000029,
2161,2983,-2.17707417234705,7.35729619885161,0.0043105646889785,0.002347,0.003879,0.011600,0.074135,0.256741,315.512817,24.815520,0.999542,0.992685,0.003517,0.415098,0.000005,0.000028,0.000005,0.000029,0.000004,76.866431,0.000036,
2311,2203,1.22652146000954,-9.64871866824749,0.0225160268661284,0.002998,0.003974,0.003914,0.125541,0.248017,328.038105,23.490553,0.998922,0.978313,0.005635,0.416458,-0.000005,0.000019,-0.000015,0.000026,-0.000012,-64.054721,0.000026,
2221,2038,-0.709123383661318,-13.2649355631392,0.0265802823100785,0.002437,0.003780,0.006611,0.091873,0.247086,330.826311,23.737860,0.998994,0.977207,0.005688,0.376939,0.000037,0.000045,0.000020,0.000061,0.000020,50.699799,0.000085,
2056,2518,-4.38278445633524,-2.76310972023523,-0.012129717467019,0.002805,0.004259,0.003041,0.121919,0.246944,323.458033,24.644418,0.999280,0.988852,0.004274,0.457197,-0.000005,0.000028,-0.000012,0.000032,-0.000009,-71.958711,0.000033,
2131,2833,-2.80381734699511,4.09836614784109,-0.015367826598208,0.002636,0.004661,0.003435,0.112903,0.273476,317.947409,24.672950,0.999511,0.991908,0.003718,0.442170,0.000008,0.000044,0.000003,0.000044,0.000008,85.574206,0.000056,
2056,2623,-4.3992950240749,-0.474513962549629,-0.016532889982841,0.002807,0.004169,0.004939,0.116778,0.255504,321.718585,24.616497,0.999202,0.989954,0.004077,0.461883,-0.000021,0.000010,-0.000018,0.000018,-0.000029,-64.875660,0.000029,
2116,2773,-3.11978400276432,2.79257369672121,-0.0121975199825783,0.002756,0.004281,0.008886,0.102188,0.264689,319.003879,24.640224,0.999688,0.991896,0.003559,0.434447,-0.000001,0.000025,-0.000016,0.000033,-0.000009,-64.106359,0.000035,
2026,2488,-5.03028055629299,-3.41853846749881,-0.0133991500459274,0.003017,0.004116,0.004285,0.128413,0.249908,324.115624,24.642308,0.999279,0.986752,0.004440,0.535364,0.000012,0.000025,-0.000003,0.000026,0.000011,-76.957409,0.000038,
2266,2263,0.23331029284375,-8.33329439841878,0.0206291716638134,0.002682,0.004120,0.006648,0.102597,0.250315,327.078903,23.929616,0.999625,0.988744,0.004462,0.316993,-0.000010,-0.000015,-0.000020,0.000007,-0.000033,-41.421501,0.000034,
2041,2563,-4.71598012003865,-1.78201714315307,-0.016565403198797,0.002841,0.004282,0.004739,0.119057,0.270906,322.777413,24.641741,0.999522,0.989520,0.003920,0.491933,-0.000008,0.000024,-0.000009,0.000026,-0.000010,-75.686318,0.000026,
2281,2338,0.54673194844619,-6.69151856293686,0.00526866991873476,0.003266,0.004503,0.002722,0.142468,0.257150,325.759228,23.933760,0.999090,0.983469,0.005073,0.403213,-0.000008,0.000009,-0.000005,0.000010,-0.000009,-73.487120,0.000011,
2011,2728,-5.39261759380114,1.80990544568206,-0.0239456297277343,0.003028,0.004733,0.005025,0.127541,0.290886,320.240919,24.544839,0.999565,0.991769,0.003778,0.525483,-0.000023,0.000048,0.000005,0.000048,-0.000024,86.252566,0.000048,
2191,3268,-1.57303641775478,13.5381267346717,0.0247206308600312,0.002756,0.004592,0.007149,0.106574,0.264313,310.955155,25.080625,0.999313,0.991353,0.003791,0.492146,-0.000001,0.000042,-0.000005,0.000043,-0.000001,-83.653654,0.000049,
2461,3013,4.33782886794461,8.02963107144253,0.011576690637753,0.003016,0.004673,0.005244,0.121047,0.271671,314.890383,25.757196,0.999427,0.989215,0.003987,0.399533,0.000011,0.000017,0.000001,0.000017,0.000011,82.024787,0.000028,
2296,2278,0.884291858640808,-8.00498719566736,0.010374098208672,0.002866,0.003532,0.007275,0.108216,0.244255,326.720682,23.736424,0.999434,0.985658,0.004744,0.404301,-0.000017,-0.000006,-0.000016,0.000005,-0.000029,-54.523035,0.000031,
2296,2383,0.865266422325,-5.70761127351394,0.00281212955815136,0.003161,0.003987,0.003212,0.135724,0.226655,324.988429,23.972719,0.998943,0.982317,0.005333,0.374013,-0.000015,0.000018,-0.000004,0.000018,-0.000016,-83.494493,0.000020,
2476,3073,4.65252897648488,9.33319730939285,0.0223216160712809,0.002892,0.004418,0.008424,0.102894,0.254386,314.013938,25.986080,0.999605,0.990204,0.003935,0.420614,0.000023,0.000050,0.000008,0.000052,0.000021,74.121883,0.000075,
2101,2743,-3.44120774146016,2.1400219394873,-0.0195800702925908,0.002677,0.004024,0.007903,0.101660,0.257966,319.498401,24.641173,0.999404,0.989154,0.004090,0.414904,-0.000004,0.000025,-0.000012,0.000029,-0.000009,-70.309397,0.000030,
2041,2458,-4.69963134322283,-4.07297350197579,-0.00393763910483358,0.002614,0.004084,0.005983,0.104950,0.258596,324.564399,24.670684,0.998669,0.981865,0.005430,0.495745,-0.000003,0.000019,-0.000019,0.000030,-0.000014,-59.659357,0.000030,
2146,2923,-2.49204091881968,6.05315137196932,0.00348036756440706,0.002516,0.004434,0.005103,0.102165,0.260359,316.568996,24.720297,0.999065,0.985925,0.004589,0.444569,0.000003,0.000030,0.000002,0.000030,0.000003,85.186047,0.000037,
2236,1993,-0.372890817425588,-14.255169771851,0.0371324287336279,0.002602,0.003422,0.005498,0.102605,0.223949,331.615666,23.515224,0.999680,0.988386,0.004559,0.402492,0.000059,0.000066,0.000024,0.000087,0.000038,49.022426,0.000127,
2266,2143,0.254972005263834,-10.9597742953592,0.0168764269204189,0.003078,0.004422,0.002949,0.132910,0.282842,329.010923,23.801352,0.999436,0.984181,0.005086,0.252846,0.000007,0.000015,-0.000002,0.000016,0.000007,-75.786738,0.000023,
2086,2623,-3.74801459765817,-0.473486140435064,-0.0227387569958069,0.002821,0.004034,0.007386,0.109978,0.263658,321.499498,24.539044,0.999148,0.988115,0.004350,0.522789,-0.000013,0.000012,-0.000017,0.000021,-0.000022,-63.352265,0.000024,
2071,2683,-4.0832285152881,0.832888212108514,-0.020641033642903,0.002670,0.004255,0.005967,0.107469,0.275809,320.620759,24.589277,0.999361,0.990413,0.003931,0.486178,-0.000021,0.000030,-0.000006,0.000031,-0.000022,-83.194016,0.000032,
2401,2713,3.08737107963443,1.49972818109399,-0.0308682763330808,0.002459,0.004311,0.004268,0.099349,0.262891,319.317215,24.567578,0.999552,0.990198,0.003960,0.498081,-0.000006,0.000049,-0.000007,0.000050,-0.000007,-82.380898,0.000054,
2131,2938,-2.81918639615422,6.37829043586996,0.00818908092486481,0.003143,0.004370,0.005400,0.130327,0.252937,316.453824,24.755843,0.999573,0.991880,0.003781,0.375241,0.000004,0.000025,0.000005,0.000026,0.000002,76.399261,0.000032,
2491,3163,4.96079108128146,11.2884304473066,0.02746680639234,0.002771,0.004238,0.008037,0.098558,0.250903,312.614695,26.368182,0.999537,0.990744,0.003679,0.435063,0.000036,0.000047,0.000008,0.000051,0.000032,62.334129,0.000083,
2326,2323,1.52953530389134,-7.01957648403658,0.00366952637449458,0.002557,0.003722,0.007607,0.092515,0.255214,325.902531,23.704147,0.998956,0.981536,0.005363,0.429192,-0.000010,0.000000,0.000009,0.000005,-0.000015,59.182953,0.000015,
2386,2653,2.77367110237606,0.189554550337796,-0.0131606422486357,0.002756,0.003639,0.008656,0.097056,0.244382,320.427084,24.393465,0.999257,0.985236,0.004654,0.478485,-0.000001,0.000025,-0.000001,0.000025,-0.000001,-87.853573,0.000028,
2131,2848,-2.80706377560392,4.42474857938968,-0.0204201024869803,0.002396,0.004107,0.006624,0.092185,0.273338,317.640642,24.670194,0.999585,0.992605,0.003556,0.450346,0.000003,0.000036,0.000002,0.000036,0.000003,86.792284,0.000043,
2101,2803,-3.45088619024175,3.44423705679003,-0.0172935879198803,0.002545,0.003951,0.008974,0.092448,0.245743,318.534778,24.608800,0.999435,0.991337,0.003787,0.440073,-0.000002,0.000035,-0.000010,0.000037,-0.000004,-76.189965,0.000041,
2206,3238,-1.24196078499902,12.8893974562469,0.0361001281457334,0.002656,0.004447,0.008244,0.098203,0.267560,311.488259,25.179398,0.999730,0.994653,0.003126,0.448463,0.000004,0.000038,-0.000005,0.000039,0.000003,-81.405547,0.000047,
2311,2218,1.22284006281478,-9.31941853813302,0.0132569328555974,0.002719,0.004325,0.003441,0.114534,0.258276,327.707861,23.484683,0.998953,0.976757,0.005722,0.467903,-0.000007,0.000011,-0.000019,0.000024,-0.000019,-57.328053,0.000025,
2296,2293,0.881681115163701,-7.6760102099271,0.00874294848034651,0.002923,0.003874,0.004886,0.119064,0.243645,326.475402,23.818303,0.999415,0.984772,0.004793,0.354168,-0.000018,0.000003,-0.000009,0.000006,-0.000021,-69.785605,0.000022,
2221,2053,-0.7120787782405,-12.9347842930538,0.018578343645629,0.002409,0.004119,0.003750,0.099855,0.236255,330.526540,23.776789,0.998984,0.976665,0.005707,0.349680,0.000032,0.000042,0.000019,0.000057,0.000017,52.252114,0.000077,
2146,2998,-2.50347618392022,7.68113856791499,0.0138169197360867,0.002807,0.004866,0.003553,0.120512,0.285335,315.451748,24.742998,0.999627,0.992739,0.003510,0.483123,-0.000005,0.000026,0.000008,0.000028,-0.000007,75.756024,0.000029,
2356,2458,2.15823688125819,-4.0668926032103,-0.00791491687431289,0.003005,0.003909,0.004102,0.125013,0.229052,323.650702,23.966548,0.999325,0.985592,0.004644,0.390361,0.000014,0.000019,0.000019,0.000036,-0.000003,48.303487,0.000040,
2371,2533,2.47049278937735,-2.42862174908495,-0.0090405796731261,0.002741,0.004193,0.005114,0.109403,0.259601,322.414116,24.110299,0.999347,0.986419,0.004699,0.450999,0.000013,0.000004,0.000011,0.000021,-0.000004,34.015357,0.000022,
2011,2938,-5.42335172375447,6.37145210786928,-0.00125392621146148,0.002679,0.004340,0.006016,0.108840,0.274765,317.003802,24.428035,0.999504,0.993345,0.003397,0.455264,0.000014,-0.000012,0.000001,0.000014,-0.000012,1.586337,0.000015,
2176,3193,-1.88266360639861,11.90866217333,0.059609577131539,0.002900,0.004558,0.005071,0.119774,0.249559,312.539546,24.878575,0.999808,0.996272,0.002893,0.542918,-0.000014,0.000025,-0.000012,0.000028,-0.000018,-74.246116,0.000028,
2176,3058,-1.8619271464225,8.98459926274827,0.0279632453233489,0.002862,0.004782,0.007878,0.109418,0.288817,314.469160,24.886777,0.999668,0.994853,0.003282,0.473656,-0.000002,0.000007,-0.000009,0.000012,-0.000007,-58.099667,0.000012,
2026,2383,-5.0140865042554,-5.71009243217563,0.00364243170417922,0.002622,0.004260,0.005107,0.107937,0.270356,325.929452,24.804932,0.999493,0.988834,0.004062,0.451123,0.000019,0.000050,-0.000011,0.000054,0.000015,-72.086687,0.000072,
2251,2098,-0.0645357839378811,-11.9486365984362,0.0216114354418551,0.002822,0.003904,0.005170,0.113827,0.258516,329.781041,23.650345,0.999275,0.979802,0.005615,0.384284,0.000020,0.000041,0.000011,0.000045,0.000015,67.074640,0.000063,
2026,2503,-5.03349270173952,-3.08835632025996,-0.0265594353381857,0.002765,0.004598,0.002948,0.120662,0.271357,323.754885,24.776330,0.999688,0.992356,0.003665,0.414589,0.000015,0.000035,-0.000008,0.000037,0.000012,-71.769874,0.000052,
2011,2743,-5.39591244767414,2.13773852563652,-0.034895101370978,0.002660,0.004328,0.005432,0.109320,0.261673,319.888038,24.621760,0.999623,0.992273,0.003516,0.407612,-0.000027,0.000050,-0.000010,0.000052,-0.000028,-82.941175,0.000052,
2071,2578,-4.06695377749564,-1.453757668931,-0.0197544681272461,0.002795,0.003914,0.010253,0.100813,0.281740,322.321007,24.614105,0.999057,0.988310,0.004441,0.485521,-0.000011,0.000028,-0.000005,0.000029,-0.000012,-82.769747,0.000029,
2086,2728,-3.76423841142776,1.81299059379958,-0.0238383692063167,0.002931,0.004622,0.002268,0.130052,0.257260,319.808757,24.598063,0.999262,0.988908,0.004180,0.453105,-0.000016,0.000024,-0.000017,0.000030,-0.000022,-69.695559,0.000031,
2056,2638,-4.40195972236997,-0.14707751617599,-0.0193979299069724,0.002725,0.004356,0.006440,0.108812,0.268680,321.443635,24.646187,0.999157,0.988667,0.004293,0.440777,-0.000019,0.000015,-0.000014,0.000020,-0.000024,-70.055188,0.000025,
2236,2113,-0.394122272706458,-11.6220439936673,0.0292026137965422,0.002743,0.003472,0.006380,0.106351,0.234077,329.625236,23.638135,0.999301,0.980666,0.005393,0.486190,0.000027,0.000031,0.000018,0.000047,0.000011,48.569107,0.000061,
2236,2008,-0.375778736647906,-13.9254897366039,0.0330111480758433,0.002594,0.003515,0.005451,0.102395,0.239699,331.340256,23.510033,0.999628,0.987569,0.004650,0.448355,0.000039,0.000048,0.000027,0.000071,0.000017,49.587250,0.000093,
2266,2278,0.230001892984752,-8.00513191107102,0.00957708589231743,0.002761,0.003831,0.005634,0.109468,0.238048,326.752100,23.847037,0.999362,0.986256,0.004829,0.415520,-0.000010,-0.000004,-0.000020,0.000013,-0.000028,-48.786988,0.000028,
2041,2578,-4.71836759268626,-1.45500379965771,-0.0238766771528844,0.003114,0.004201,0.003747,0.134347,0.249066,322.489445,24.608832,0.999167,0.988792,0.004190,0.496532,-0.000013,0.000019,-0.000011,0.000023,-0.000016,-73.199339,0.000024,
2251,2203,-0.0834366878247259,-9.6474094241347,0.0091063851148192,0.003012,0.004237,0.002375,0.131854,0.256954,328.004817,23.716755,0.999126,0.983611,0.005078,0.499938,-0.000001,0.000014,-0.000012,0.000021,-0.000008,-61.674052,0.000021,
2116,2908,-3.14119563118798,5.7265142213306,-0.003693858347674,0.002607,0.004535,0.006621,0.102225,0.269645,316.880752,24.681865,0.999189,0.990020,0.004203,0.426694,-0.000005,0.000026,0.000000,0.000026,-0.000005,-89.562081,0.000027,
2461,3028,4.33479242278823,8.35534486003526,0.0169710468822473,0.002694,0.004414,0.006903,0.099901,0.269643,314.668924,25.822129,0.999677,0.990977,0.003822,0.386043,0.000014,0.000032,-0.000001,0.000032,0.000014,-85.997900,0.000048,
2431,2863,3.71286604307245,4.76681217633034,-0.0103314494951974,0.002760,0.004491,0.005786,0.107471,0.271566,317.090059,25.145035,0.999512,0.989769,0.003844,0.428496,-0.000013,0.000025,-0.000022,0.000035,-0.000023,-64.897608,0.000036,
2476,3088,4.64951592210562,9.65963382611581,0.0214969045424027,0.003059,0.004598,0.009212,0.107733,0.271930,313.765611,26.072585,0.999416,0.991170,0.003811,0.407445,0.000028,0.000066,0.000011,0.000069,0.000025,74.711572,0.000097,
2161,2998,-2.1788046913326,7.68272009278119,0.00988733319269386,0.002549,0.004367,0.008265,0.093865,0.272981,315.334491,24.825125,0.999583,0.992603,0.003665,0.431196,0.000004,0.000027,0.000008,0.000029,0.000001,72.153650,0.000035,
2161,3088,-2.19257410640781,9.6345495611722,0.0266539761077524,0.002838,0.004262,0.007782,0.108689,0.263737,314.021254,24.886740,0.999362,0.990524,0.003899,0.415313,-0.000007,0.000016,-0.000006,0.000018,-0.000009,-77.088595,0.000018,
2011,2953,-5.42513138218445,6.6967952997839,0.00317150778641917,0.002780,0.004421,0.003725,0.119772,0.267408,316.807776,24.431542,0.999660,0.994203,0.003105,0.431632,0.000016,-0.000025,0.000003,0.000016,-0.000025,3.554680,0.000026,
2416,2773,3.40365937390591,2.80562861003216,-0.0129269701530461,0.002630,0.004070,0.006860,0.097462,0.237930,318.505938,24.755140,0.999533,0.987794,0.004257,0.476637,-0.000001,0.000063,-0.000004,0.000063,-0.000002,-86.050700,0.000072,
2191,3283,-1.57533963301341,13.8632449267015,0.0242895356731765,0.002794,0.004690,0.002847,0.121909,0.261878,310.720877,25.113889,0.999562,0.994063,0.003248,0.469460,0.000001,0.000047,-0.000001,0.000047,0.000001,-88.666300,0.000055,
2191,3148,-1.55146739953007,10.9379178383329,0.0338103146675053,0.002875,0.004505,0.006648,0.113595,0.274620,313.002435,25.062472,0.999060,0.991050,0.004074,0.415465,-0.000006,0.000023,-0.000010,0.000026,-0.000009,-72.004820,0.000026,
2311,2233,1.22021830136908,-8.98986584125598,0.0121647610076252,0.002863,0.004453,0.002484,0.124452,0.274225,327.466064,23.586947,0.998834,0.977544,0.005697,0.416336,-0.000013,0.000001,-0.000018,0.000014,-0.000025,-55.612865,0.000025,
2131,2953,-2.82196356638988,6.70340715628324,0.00846126867401154,0.002931,0.004357,0.007051,0.115618,0.264021,316.197418,24.693320,0.999600,0.991916,0.003615,0.454114,0.000005,0.000019,0.000007,0.000022,0.000002,68.948707,0.000026,
2221,2068,-0.714635928957751,-12.6057916609665,0.0230034242018178,0.002356,0.003929,0.007284,0.086064,0.263709,330.308322,23.816257,0.999076,0.976618,0.005711,0.360002,0.000030,0.000041,0.000020,0.000056,0.000015,52.940339,0.000075,
2281,2353,0.543416751457059,-6.3650008048687,0.0099943373884912,0.002747,0.003681,0.008899,0.097747,0.242990,325.512317,23.887590,0.999167,0.984004,0.004989,0.464976,-0.000009,0.000013,-0.000006,0.000015,-0.000010,-75.862733,0.000015,
2026,2518,-5.035885751569,-2.76328837119329,-0.0220380645867522,0.002401,0.004399,0.004075,0.100751,0.252806,323.531601,24.647935,0.999741,0.993586,0.003405,0.515636,0.000003,0.000031,-0.000005,0.000031,0.000002,-80.366893,0.000038,
2446,2953,4.02121187164662,6.725260122684,-0.0128287862036132,0.002808,0.004276,0.006133,0.108136,0.258161,315.624851,25.450162,0.999676,0.992938,0.003609,0.442880,0.000010,-0.000003,-0.000012,0.000017,-0.000010,-30.247094,0.000017,
2071,2698,-4.08557484879758,1.1591410597368,-0.0206241252915333,0.002666,0.004212,0.005951,0.107318,0.271178,320.377840,24.571502,0.999360,0.991548,0.003751,0.496502,-0.000014,0.000024,-0.000006,0.000025,-0.000015,-81.001763,0.000025,
2281,2218,0.56812406106306,-9.31886892605388,0.015142951181474,0.002631,0.003665,0.005941,0.102171,0.231796,327.738592,23.708401,0.998947,0.979971,0.005488,0.363345,-0.000006,0.000005,-0.000014,0.000015,-0.000016,-56.240811,0.000018,
2041,2593,-4.72067501757038,-1.12771672001943,-0.0159052486921496,0.002838,0.004281,0.007604,0.110995,0.281718,322.289546,24.684718,0.998884,0.988570,0.004327,0.446174,-0.000024,0.000041,-0.000009,0.000042,-0.000025,-81.951955,0.000043,
2341,2383,1.84494464860902,-5.70610098360658,-0.00380804839062421,0.002662,0.003664,0.008542,0.093870,0.253229,324.867361,23.836444,0.999352,0.985402,0.004785,0.391500,-0.000005,0.000020,0.000011,0.000024,-0.000009,69.421120,0.000024,
2086,2638,-3.74997191573635,-0.14604618179721,-0.0208624924782725,0.003059,0.004313,0.006536,0.123458,0.266846,321.285268,24.620013,0.999200,0.987492,0.004340,0.444433,-0.000009,0.000016,-0.000014,0.000022,-0.000015,-65.478323,0.000023,
2236,2023,-0.377167349342084,-13.5962268424401,0.0403124535203574,0.003079,0.004521,0.002666,0.133977,0.274742,331.191183,23.582438,0.999046,0.980555,0.005567,0.435336,0.000034,0.000068,0.000029,0.000085,0.000017,60.099875,0.000109,
2176,3208,-1.88675753117151,12.2363149575621,0.0431709063671519,0.002634,0.004534,0.007058,0.101412,0.265031,312.136974,25.013465,0.999645,0.994437,0.003226,0.434272,-0.000015,0.000034,-0.000012,0.000037,-0.000018,-77.478507,0.000037,
2266,2158,0.252684064176655,-10.6326068245914,0.0197890169204129,0.003118,0.004659,0.001491,0.139658,0.281944,328.801111,23.717748,0.999160,0.982798,0.005229,0.363887,0.000007,0.000011,0.000000,0.000011,0.000007,89.941803,0.000018,
2191,3298,-1.57945597978334,14.1900507434781,0.00514166068421673,0.002674,0.004818,0.003956,0.112962,0.270885,310.304746,25.194849,0.999778,0.995909,0.002821,0.410128,0.000002,0.000053,-0.000003,0.000053,0.000002,-87.106971,0.000062,
2371,2548,2.46745182118399,-2.10217099033076,-0.0027607793823563,0.002453,0.003569,0.009947,0.078728,0.234693,322.192932,24.144189,0.999310,0.985546,0.004817,0.433849,0.000016,0.000003,0.000007,0.000019,-0.000001,23.877288,0.000022,
2116,2788,-3.12238890938195,3.11879227053289,-0.0146910133605047,0.002773,0.004225,0.009313,0.101718,0.271357,318.739054,24.615900,0.999565,0.991839,0.003646,0.469120,-0.000005,0.000035,-0.000015,0.000040,-0.000010,-71.899708,0.000041,
2491,3178,4.95875680531871,11.6135088834039,0.0397709655019298,0.002734,0.004353,0.007605,0.098594,0.263270,312.471837,26.436118,0.999554,0.990510,0.003813,0.437191,0.000035,0.000042,0.000008,0.000047,0.000030,57.328294,0.000078,
2026,2758,-5.07171209150314,2.46190775764939,-0.0165473598543144,0.002709,0.003784,0.009249,0.100759,0.255612,319.694584,24.524722,0.999129,0.988955,0.004320,0.493815,-0.000020,0.000026,-0.000026,0.000038,-0.000032,-65.884847,0.000041,
2296,2398,0.862471366534745,-5.37986317144451,0.00328308675392464,0.003116,0.004138,0.004051,0.130928,0.248408,324.744909,23.976900,0.999227,0.984751,0.004999,0.423364,-0.000011,0.000021,-0.000001,0.000021,-0.000011,-87.717140,0.000021,
2401,2728,3.08503698555212,1.82612598223436,-0.0229353475638163,0.002661,0.003801,0.007331,0.097323,0.239159,319.137504,24.661095,0.999540,0.989635,0.004157,0.426311,-0.000010,0.000048,-0.000002,0.000048,-0.000010,-87.578289,0.000050,
2176,3073,-1.86488920181331,9.30852790781046,0.0310762802394606,0.002365,0.004365,0.009606,0.081014,0.274716,314.222787,24.790293,0.999634,0.994670,0.003268,0.567273,-0.000002,0.000014,-0.000008,0.000018,-0.000005,-67.558292,0.000018,
2131,2863,-2.80863017824986,4.74968416648247,-0.00759676575444246,0.002546,0.004150,0.008014,0.094894,0.266861,317.506903,24.677946,0.999557,0.991958,0.003619,0.441289,0.000001,0.000034,0.000000,0.000034,0.000001,-89.685980,0.000040,
2086,2743,-3.76658303159652,2.13899674885783,-0.0175457693595718,0.002704,0.004600,0.004473,0.113269,0.269441,319.601267,24.604966,0.999376,0.988994,0.004159,0.457389,-0.000016,0.000024,-0.000019,0.000032,-0.000023,-68.873338,0.000033,
2206,3253,-1.24482169028124,13.2143460754202,0.0356345303409853,0.002571,0.004662,0.009946,0.088987,0.289399,311.229307,25.164732,0.999746,0.995067,0.003006,0.500227,0.000008,0.000038,-0.000002,0.000038,0.000008,-86.745366,0.000048,
2296,2308,0.878137407213135,-7.34868797181159,0.00510998821744124,0.002565,0.003681,0.007636,0.093315,0.246616,326.177698,23.730893,0.999251,0.983732,0.005120,0.476719,-0.000018,0.000003,-0.000002,0.000004,-0.000018,-83.974429,0.000019,
2011,2473,-5.35415480191056,-3.74607874119042,-0.000835767804858278,0.002492,0.003771,0.009074,0.091297,0.259449,324.519900,24.778678,0.999167,0.986460,0.004505,0.451169,-0.000004,0.000014,-0.000020,0.000027,-0.000017,-57.183131,0.000027,
2266,2293,0.227212827149263,-7.6765372485981,0.00663376672150662,0.002795,0.003969,0.004866,0.113620,0.255637,326.489443,23.862271,0.999090,0.984176,0.005214,0.445706,-0.000012,0.000003,-0.000013,0.000010,-0.000019,-61.158497,0.000019,
2041,2833,-4.75736662962046,4.09345942260193,-0.014484781454712,0.002741,0.004189,0.006710,0.109159,0.260468,318.411371,24.548876,0.998952,0.988091,0.004298,0.443503,-0.000020,0.000036,-0.000014,0.000040,-0.000023,-76.412286,0.000040,
2116,2923,-3.14337553563821,6.05172963047568,0.00167164288376398,0.002473,0.004610,0.005796,0.098571,0.271355,316.678032,24.666118,0.998823,0.988387,0.004471,0.446926,-0.000002,0.000026,0.000006,0.000028,-0.000003,78.010612,0.000030,
2251,2113,-0.0671098456514088,-11.6202461295041,0.0238992764402042,0.002758,0.003742,0.005864,0.108591,0.243059,329.553809,23.670069,0.999094,0.979726,0.005541,0.375242,0.000020,0.000029,0.000009,0.000034,0.000014,57.504807,0.000050,
2056,2533,-4.38489850652722,-2.43686805505121,-0.00556735278456699,0.002801,0.004103,0.006597,0.111698,0.265278,323.260394,24.608975,0.999086,0.987449,0.004456,0.506490,-0.000010,0.000038,-0.000001,0.000038,-0.000010,-89.219245,0.000039,
2056,2653,-4.40465838004595,0.179628319448028,-0.032130722881675,0.002792,0.004267,0.001082,0.126959,0.223427,321.113165,24.589487,0.999310,0.989467,0.004195,0.447574,-0.000022,0.000024,-0.000013,0.000027,-0.000025,-75.783676,0.000030,
2491,3193,4.95627262717031,11.9386802925638,0.0479050047889586,0.002849,0.004532,0.010192,0.094112,0.290751,312.289289,26.475236,0.999496,0.990803,0.003787,0.483150,0.000034,0.000047,0.000005,0.000048,0.000032,70.930279,0.000081,
2146,3013,-2.50565208991138,8.00723619425779,0.012471149524913,0.003095,0.004830,0.001526,0.139953,0.275984,315.215101,24.796481,0.999429,0.990238,0.003972,0.427370,-0.000004,0.000025,0.000007,0.000026,-0.000006,77.742541,0.000027,
2071,2593,-4.06933127478066,-1.12679931802944,-0.0225014548269087,0.002731,0.004025,0.007208,0.106578,0.264515,322.061318,24.617169,0.998992,0.987861,0.004414,0.463061,-0.000018,0.000044,-0.000005,0.000044,-0.000018,-85.627018,0.000044,
2356,2473,2.1554088495123,-3.73932162977358,-0.0032484930079022,0.002882,0.003864,0.007046,0.109068,0.250417,323.430446,24.019720,0.999602,0.988054,0.004210,0.398841,0.000013,0.000011,0.000019,0.000031,-0.000008,43.349123,0.000032,
2386,2668,2.77056800916633,0.517016588423374,-0.0156285110470549,0.002636,0.003988,0.007315,0.096537,0.257961,320.161713,24.443513,0.999351,0.986831,0.004481,0.485788,-0.000001,0.000030,-0.000005,0.000031,-0.000002,-81.733341,0.000035,
2476,3103,4.64670820828674,9.98486682479585,0.0261728408045201,0.002818,0.004418,0.008143,0.100607,0.259186,313.552075,26.117054,0.999354,0.990263,0.003960,0.405791,0.000027,0.000061,0.000013,0.000065,0.000022,71.319796,0.000091,
2161,3013,-2.18107002283771,8.00843671224138,0.00914989941884414,0.002817,0.004625,0.007557,0.108495,0.281809,315.098182,24.830115,0.999411,0.990133,0.004047,0.444434,0.000005,0.000025,0.000007,0.000027,0.000003,73.514055,0.000033,
2251,2218,-0.0855809817202946,-9.31894033288272,0.0159298370350598,0.002945,0.004284,0.001415,0.131970,0.260609,327.819803,23.808658,0.998692,0.976928,0.005853,0.437230,-0.000003,0.000008,-0.000018,0.000021,-0.000016,-53.602472,0.000022,
2461,3043,4.33200172388555,8.68045184153034,0.0190198717217527,0.002837,0.004410,0.007937,0.102627,0.280999,314.443540,25.799043,0.999539,0.989542,0.003999,0.474217,0.000012,0.000042,0.000001,0.000042,0.000012,87.579234,0.000057,
2011,2968,-5.42709883227811,7.02228882024554,0.00639787207813924,0.002992,0.004670,0.005231,0.125504,0.273577,316.596362,24.430684,0.999648,0.994170,0.003084,0.426032,0.000014,-0.000021,0.000011,0.000018,-0.000024,15.882289,0.000025,
2146,2938,-2.49423520931769,6.37962761971057,0.00314081897772667,0.002830,0.004452,0.004855,0.117389,0.257735,316.336744,24.788470,0.999366,0.989401,0.004089,0.381265,0.000002,0.000028,0.000004,0.000029,0.000002,80.538874,0.000034,
2026,2773,-5.07407472621659,2.79048936591717,-0.0300055143492273,0.003014,0.004679,0.002208,0.134414,0.254417,319.371610,24.632983,0.999419,0.990380,0.004105,0.374924,-0.000012,0.000019,-0.000031,0.000038,-0.000031,-58.690304,0.000040,
2101,2818,-3.45287453926388,3.77065162026707,-0.0172661021225053,0.002842,0.004265,0.007024,0.111976,0.265548,318.310546,24.617676,0.999348,0.991999,0.003732,0.452066,0.000003,0.000043,-0.000003,0.000043,0.000003,-86.232260,0.000051,
2041,2608,-4.72290321724061,-0.801536872665302,-0.0174900801815738,0.002897,0.004096,0.006151,0.117679,0.264115,322.040829,24.630764,0.998857,0.986854,0.004593,0.475831,-0.000021,0.000037,-0.000014,0.000040,-0.000024,-77.405949,0.000040,
2176,3223,-1.88879662991893,12.5617919147365,0.0463599577996092,0.002825,0.004762,0.005120,0.116382,0.275393,311.932752,25.071093,0.999702,0.994755,0.003109,0.397876,-0.000016,0.000039,-0.000015,0.000042,-0.000020,-75.552163,0.000042,
2266,2173,0.24884677604209,-10.3049943769303,0.0147953487424957,0.002598,0.003882,0.005703,0.101692,0.262670,328.480839,23.614403,0.999450,0.984635,0.005016,0.476567,0.000008,0.000008,-0.000002,0.000010,0.000006,-44.042444,0.000016,
2071,2713,-4.088434942854,1.48639073844731,-0.0273340081079709,0.002674,0.004128,0.007558,0.103079,0.270826,320.074258,24.591025,0.999181,0.989751,0.004051,0.473863,-0.000016,0.000022,-0.000010,0.000024,-0.000018,-75.669056,0.000025,
2281,2233,0.565704009949844,-8.98997163145481,0.0145279235042608,0.002777,0.003797,0.003575,0.116782,0.245736,327.505893,23.757151,0.998992,0.979330,0.005479,0.358772,-0.000014,0.000002,-0.000014,0.000011,-0.000022,-59.532700,0.000022,
2206,3268,-1.24793962359117,13.5401608005061,0.0203157384185033,0.003004,0.004534,0.007958,0.115286,0.280750,310.881121,25.182264,0.999470,0.992859,0.003457,0.489484,0.000012,0.000042,0.000003,0.000042,0.000012,83.322532,0.000056,
2311,2248,1.21759354302014,-8.66185067118893,0.0129036602975248,0.002862,0.004590,0.001610,0.127448,0.273453,327.233361,23.589622,0.998929,0.979916,0.005392,0.447335,-0.000015,-0.000018,-0.000018,0.000002,-0.000035,-42.704782,0.000039,
2011,2758,-5.3981289564595,2.46253023678704,-0.0293638319889169,0.002451,0.003854,0.006931,0.095502,0.246601,319.678000,24.541513,0.999505,0.991568,0.003713,0.460938,-0.000025,0.000032,-0.000028,0.000043,-0.000036,-68.053565,0.000046,
2236,2128,-0.396936836559753,-11.2907678872407,0.0244006755857527,0.002767,0.004092,0.004766,0.112863,0.262334,329.349189,23.805246,0.998839,0.979433,0.005540,0.371614,0.000025,0.000030,0.000014,0.000042,0.000014,50.437800,0.000058,
2341,2398,1.84243910002773,-5.37840380128707,-0.00115586344384155,0.002634,0.004083,0.006889,0.098503,0.272088,324.651320,23.860748,0.999592,0.987420,0.004566,0.424372,-0.000002,0.000028,0.000016,0.000035,-0.000009,66.174463,0.000036,
2191,3163,-1.55521461455594,11.2639137808869,0.0262174387052596,0.002430,0.004332,0.009367,0.084436,0.261627,312.664244,25.113267,0.999589,0.994619,0.003288,0.364693,-0.000006,0.000028,-0.000008,0.000030,-0.000008,-77.132343,0.000031,
2431,2878,3.70989663258333,5.09329641483398,-0.00953738229060264,0.002854,0.004305,0.007674,0.104703,0.267028,316.848982,25.212604,0.999519,0.990749,0.003696,0.406218,-0.000016,0.000022,-0.000018,0.000030,-0.000023,-68.021439,0.000031,
2206,1993,-1.02817943244958,-14.2526672134399,0.0283261122885392,0.002750,0.004185,0.001891,0.121400,0.247123,331.629743,23.754232,0.999422,0.982776,0.005065,0.398377,0.000067,0.000035,0.000030,0.000085,0.000017,30.756025,0.000110,
2236,2038,-0.380398203249783,-13.2671917710121,0.0361614781626827,0.003028,0.003708,0.006791,0.118078,0.250849,330.900192,23.569193,0.998990,0.978441,0.005632,0.449624,0.000031,0.000057,0.000020,0.000068,0.000021,61.731454,0.000093,
2161,3103,-2.19498350131673,9.9593054932211,0.0315541010917855,0.002574,0.004552,0.006809,0.099623,0.269365,313.808428,24.865214,0.999545,0.993203,0.003404,0.451406,-0.000010,0.000016,-0.000007,0.000017,-0.000011,-75.840203,0.000018,
2446,2968,4.01869503186172,7.05141278390746,-0.00448874644126818,0.002660,0.004273,0.006753,0.098999,0.257787,315.440166,25.560717,0.999648,0.992271,0.003646,0.383133,0.000007,0.000002,-0.000010,0.000015,-0.000006,-38.597757,0.000015,
2086,2653,-3.75193111795189,0.179659771528108,-0.0143853936609162,0.003186,0.003817,0.008606,0.123177,0.248133,321.096532,24.606788,0.999583,0.988961,0.003933,0.438262,-0.000011,0.000025,-0.000012,0.000029,-0.000014,-73.490949,0.000029,
2086,2758,-3.76948356015081,2.46553096845211,-0.0236034939567844,0.002771,0.004232,0.007726,0.106844,0.269577,319.300972,24.578552,0.999483,0.989989,0.003983,0.483249,-0.000016,0.000016,-0.000023,0.000028,-0.000028,-62.727910,0.000032,
2101,2758,-3.44290317817784,2.46546986717789,-0.0131787723167349,0.002870,0.004387,0.006286,0.115409,0.277532,319.322334,24.594302,0.999494,0.989522,0.003930,0.482458,-0.000005,0.000019,-0.000015,0.000026,-0.000012,-64.037991,0.000026,
2221,2083,-0.717082307426743,-12.2772051829522,0.0228690097794129,0.002468,0.003683,0.007065,0.091818,0.249530,330.072149,23.814805,0.999069,0.978267,0.005649,0.369309,0.000027,0.000040,0.000017,0.000052,0.000015,55.287740,0.000071,
2356,2488,2.1528978082525,-3.41275369286671,0.00150055472602162,0.002889,0.003981,0.007729,0.107047,0.258779,323.225318,23.998897,0.999468,0.987359,0.004371,0.467782,0.000016,0.000019,0.000018,0.000035,0.000000,46.877782,0.000041,
2281,2368,0.540723683960938,-6.03781105414759,0.0157329596375462,0.002466,0.003413,0.010785,0.078476,0.240152,325.298757,23.905658,0.998969,0.982180,0.005266,0.473462,-0.000012,0.000017,-0.000008,0.000019,-0.000014,-76.042416,0.000019,
2266,2308,0.224700627870067,-7.34858597319525,0.0100515699566017,0.002523,0.004314,0.002434,0.109300,0.272034,326.271409,23.888899,0.998790,0.981015,0.005569,0.463080,-0.000014,0.000006,-0.000006,0.000008,-0.000016,-73.629498,0.000016,
2056,2668,-4.40624118244903,0.505257318352456,-0.0166886584797794,0.002770,0.004171,0.004292,0.116891,0.237567,320.989105,24.615193,0.999292,0.989019,0.004233,0.430811,-0.000026,0.000026,-0.000007,0.000027,-0.000027,-82.548463,0.000031,
2371,2563,2.46476690762965,-1.77350704830571,-0.0101162419477987,0.002864,0.004240,0.005499,0.113693,0.251071,321.922352,24.223527,0.999384,0.987359,0.004523,0.413298,0.000011,0.000008,0.000003,0.000013,0.000006,28.252308,0.000019,
2071,2608,-4.07199705080766,-0.799186150470561,-0.0249312174901775,0.002625,0.003919,0.008335,0.098459,0.266633,321.789929,24.668810,0.999112,0.989403,0.004169,0.411037,-0.000016,0.000037,-0.000010,0.000039,-0.000018,-80.101687,0.000039,
2026,2533,-5.03738008905579,-2.43599948021012,-0.0167942412857087,0.002934,0.004157,0.005654,0.120900,0.255100,323.352794,24.712451,0.999422,0.989456,0.004054,0.444459,0.000006,0.000029,0.000008,0.000032,0.000004,73.359097,0.000039,
2326,2338,1.52801233611244,-6.69233264932627,0.0146081498405124,0.002756,0.004382,0.004633,0.112175,0.282388,325.770982,23.739969,0.999185,0.983168,0.004994,0.456655,-0.000009,0.000009,0.000007,0.000011,-0.000011,72.169643,0.000013,
2131,2968,-2.82436923664163,7.02941707916072,0.00691429148167799,0.002937,0.004404,0.004475,0.123669,0.260111,315.948051,24.719350,0.999753,0.993962,0.003138,0.429315,0.000006,0.000021,0.000007,0.000024,0.000003,67.754592,0.000030,
2176,3088,-1.86767929912521,9.63560817141122,0.0252609604966665,0.002626,0.004032,0.010898,0.088885,0.260597,313.936328,24.930751,0.999455,0.992500,0.003607,0.423836,-0.000006,0.000017,-0.000007,0.000019,-0.000008,-75.165820,0.000019,
2101,2833,-3.45525454539746,4.09672506515505,-0.0160117041627359,0.002859,0.004186,0.008021,0.109824,0.265477,318.075153,24.628714,0.999627,0.993174,0.003441,0.441993,0.000001,0.000041,-0.000002,0.000041,0.000001,-87.538145,0.000048,
2296,2413,0.859237935780648,-5.05187932397381,0.00126989851304415,0.002786,0.003908,0.004410,0.114495,0.226527,324.469097,24.027608,0.999348,0.985270,0.004866,0.382368,-0.000011,0.000021,-0.000004,0.000021,-0.000011,-83.167578,0.000021,
2131,2878,-2.81005101919782,5.07379504886613,0.00128302195537344,0.002876,0.004212,0.006012,0.116034,0.241839,317.359083,24.601947,0.999553,0.991177,0.003693,0.497445,0.000006,0.000041,0.000002,0.000041,0.000006,86.102727,0.000052,
2401,2743,3.08215718047019,2.15288623025404,-0.025582712893538,0.002951,0.003867,0.007827,0.108869,0.244400,318.882632,24.678123,0.999521,0.989459,0.004089,0.460305,-0.000009,0.000060,-0.000003,0.000060,-0.000009,-87.267094,0.000065,
2011,2488,-5.3567291390562,-3.41791840622186,-0.0138863300148842,0.002624,0.004428,0.004417,0.110229,0.264839,324.187900,24.737633,0.999309,0.986672,0.004472,0.487419,-0.000001,0.000015,-0.000009,0.000019,-0.000005,-65.339246,0.000019,
2116,2803,-3.1241523569229,3.44472980097476,-0.00855701054462088,0.002831,0.004402,0.005974,0.114350,0.259095,318.559303,24.655531,0.999471,0.992249,0.003615,0.420334,-0.000002,0.000037,-0.000009,0.000040,-0.000004,-77.217098,0.000043,
2386,2683,2.76722518383076,0.84638624644171,-0.0285361954718724,0.002998,0.004551,0.004596,0.123142,0.272221,319.835280,24.586934,0.999311,0.986487,0.004417,0.400697,-0.000001,0.000048,-0.000009,0.000049,-0.000003,-80.079209,0.000055,
2206,3283,-1.25074802991283,13.8657527982519,0.0158875944285342,0.003017,0.004542,0.006286,0.121168,0.275125,310.603714,25.241334,0.999330,0.992111,0.003524,0.439868,0.000014,0.000046,0.000007,0.000048,0.000013,78.715403,0.000064,
2296,2323,0.875863723567601,-7.02073125747523,0.00775316269249515,0.002809,0.003458,0.007489,0.104928,0.235932,325.969098,23.782723,0.998917,0.982086,0.005474,0.446129,-0.000014,0.000002,-0.000003,0.000003,-0.000015,-80.741259,0.000016,
2206,2008,-1.03031390718015,-13.9244158989356,0.0337820486848273,0.002784,0.004257,0.002211,0.121998,0.230335,331.435400,23.760246,0.999332,0.979732,0.005385,0.395792,0.000050,0.000025,0.000027,0.000067,0.000007,32.720870,0.000082,
2431,2893,3.70673909961124,5.41972054372271,-0.0129487387063705,0.002753,0.004418,0.005305,0.108912,0.272287,316.579622,25.238494,0.999530,0.990565,0.003803,0.435111,-0.000016,0.000012,-0.000018,0.000021,-0.000024,-64.065022,0.000026,
2146,3028,-2.5081465305391,8.3322619252976,0.015207766314802,0.003148,0.004598,0.004860,0.132250,0.278178,314.985880,24.771252,0.999430,0.990484,0.003926,0.462020,-0.000008,0.000019,0.000004,0.000020,-0.000008,81.800216,0.000020,
2251,2248,-0.0921059151923096,-8.65987142178717,0.00785946555390638,0.002649,0.003988,0.006578,0.101468,0.272944,327.237480,23.972525,0.998247,0.976428,0.006142,0.337774,-0.000003,-0.000010,-0.000020,0.000014,-0.000027,-40.234285,0.000027,
2116,2938,-3.14582602240205,6.37781323107778,-0.0024988254911591,0.002645,0.004536,0.004269,0.110963,0.256258,316.411333,24.683150,0.999260,0.990312,0.004042,0.417810,-0.000002,0.000025,0.000007,0.000027,-0.000004,75.624768,0.000029,
2416,2788,3.4002341691749,3.13443758311265,-0.0176951434715988,0.002592,0.004185,0.007435,0.093700,0.262945,318.216570,24.937866,0.999502,0.987925,0.004300,0.366991,-0.000002,0.000064,-0.000006,0.000064,-0.000003,-85.225903,0.000073,
2071,2728,-4.0901836142197,1.81255189007125,-0.0242903943947681,0.002919,0.004493,0.004931,0.121973,0.269896,319.875317,24.594886,0.999129,0.988354,0.004274,0.466045,-0.000019,0.000022,-0.000009,0.000024,-0.000021,-78.072032,0.000026,
2041,2848,-4.75922119713225,4.42000583651319,-0.0267412270531509,0.003525,0.004784,-0.000184,0.164694,0.258456,318.120626,24.507002,0.999257,0.989712,0.004083,0.475861,-0.000022,0.000033,-0.000016,0.000038,-0.000026,-75.051869,0.000039,
2221,2098,-0.719506627623471,-11.9493260075576,0.0283117154963861,0.002366,0.003191,0.009061,0.080592,0.244729,329.865489,23.806015,0.998842,0.977751,0.005841,0.395260,0.000024,0.000034,0.000018,0.000048,0.000010,53.366523,0.000062,
2101,2893,-3.46408414930305,5.3987328751425,-0.00151553485750355,0.002865,0.004108,0.009544,0.105678,0.261854,317.217358,24.576406,0.999416,0.992221,0.003857,0.494237,0.000001,0.000038,0.000002,0.000039,0.000001,86.455086,0.000045,
2281,2383,0.537682530377925,-5.70800853088434,0.00189852714260041,0.002746,0.004126,0.005406,0.109550,0.246024,324.971279,23.969696,0.998854,0.982237,0.005311,0.445166,-0.000012,0.000015,-0.000006,0.000016,-0.000013,-79.086842,0.000017,
2056,2683,-4.40818668787337,0.831197626386668,-0.0119146621376558,0.002737,0.004326,0.002528,0.120438,0.252417,320.789623,24.583326,0.999379,0.990333,0.004031,0.472375,-0.000024,0.000028,-0.000003,0.000029,-0.000024,-86.221422,0.000031,
2071,2743,-4.09218187494249,2.13845103951377,-0.0212575627552951,0.002964,0.004751,0.003062,0.129454,0.269981,319.664979,24.577727,0.999338,0.989688,0.004062,0.480337,-0.000020,0.000024,-0.000012,0.000027,-0.000023,-75.612727,0.000029,
2476,3118,4.64357147965911,10.3100155872697,0.029190266626415,0.002664,0.004207,0.010446,0.084768,0.267317,313.315767,26.125927,0.999469,0.990489,0.003779,0.460546,0.000023,0.000065,0.000011,0.000068,0.000021,76.133271,0.000093,
2326,2353,1.5244120603714,-6.36278284199656,0.00377264250528242,0.002589,0.004536,0.002359,0.112412,0.280292,325.437835,23.806942,0.999159,0.981537,0.004964,0.424302,-0.000006,0.000016,0.000009,0.000019,-0.000009,70.382717,0.000019,
2446,2983,4.01535765349776,7.37713217402831,-0.00245104189826861,0.002574,0.003867,0.011917,0.075662,0.259370,315.188649,25.589354,0.999647,0.991135,0.003784,0.407686,0.000005,0.000005,-0.000003,0.000008,0.000002,-45.417547,0.000010,
2011,2983,-5.43013857430262,7.34779357364192,0.00575864683730742,0.002648,0.004188,0.011533,0.092412,0.274864,316.314098,24.413115,0.999250,0.991321,0.003630,0.432120,0.000005,-0.000020,0.000013,0.000010,-0.000025,22.079470,0.000026,
2011,2773,-5.39984131586141,2.7892977604394,-0.0265965983584806,0.002713,0.004409,0.004996,0.113009,0.263596,319.474843,24.592554,0.999512,0.990755,0.003914,0.414823,-0.000017,0.000022,-0.000034,0.000042,-0.000037,-59.661206,0.000046,
2191,3178,-1.55727026028128,11.588048097865,0.0348403064915033,0.002548,0.004220,0.011846,0.082048,0.265359,312.489057,25.076766,0.999798,0.996248,0.002983,0.418373,-0.000007,0.000029,-0.000007,0.000030,-0.000009,-79.765601,0.000031,
2341,2413,1.84118191142774,-5.05179655072612,0.011291599423771,0.002927,0.004253,0.002888,0.125904,0.233694,324.540304,23.939901,0.999633,0.989221,0.004321,0.344364,-0.000006,0.000027,0.000015,0.000033,-0.000012,68.971223,0.000033,
2461,3058,4.32884311200938,9.00646501241067,0.0195307531759568,0.002639,0.004436,0.007702,0.094405,0.278913,314.193828,25.866746,0.999514,0.988467,0.004254,0.457886,0.000011,0.000042,0.000005,0.000043,0.000010,81.182174,0.000056,
2176,3238,-1.89182429510005,12.8863829093572,0.0448687375263148,0.002677,0.004601,0.008081,0.100267,0.272135,311.658829,25.037633,0.999685,0.994400,0.003171,0.439013,-0.000015,0.000036,-0.000014,0.000039,-0.000018,-75.842761,0.000039,
2056,2908,-4.44311684121391,5.72299033286862,-0.00307248135879945,0.002629,0.004447,0.008551,0.098719,0.278559,317.190057,24.551889,0.999429,0.991797,0.003754,0.448450,-0.000005,0.000024,-0.000015,0.000030,-0.000011,-67.547173,0.000030,
2236,2173,-0.405510142961322,-10.304709672392,0.0205981785336462,0.002460,0.003529,0.007555,0.089646,0.240805,328.570334,23.852624,0.998786,0.982906,0.005240,0.374863,0.000013,0.000013,0.000008,0.000021,0.000005,46.014333,0.000028,
2131,2893,-2.81259940574217,5.40069468139261,-0.00192916488333594,0.002937,0.004298,0.004878,0.122311,0.250378,317.093980,24.664118,0.999397,0.990116,0.004059,0.449158,0.000004,0.000034,0.000001,0.000034,0.000004,87.794460,0.000042,
2236,2143,-0.399450968260464,-10.9618372182673,0.0201362138391801,0.002914,0.004720,0.001450,0.130543,0.288888,329.089911,23.771925,0.998643,0.979593,0.005511,0.455884,0.000014,0.000015,0.000013,0.000027,0.000002,45.498592,0.000033,
2266,2188,0.246775279745183,-9.97577169626101,0.0201469667572383,0.002895,0.003839,0.006933,0.111258,0.251197,328.292847,23.764900,0.999179,0.983124,0.005167,0.342566,0.000002,0.000007,-0.000009,0.000014,-0.000005,-52.830865,0.000014,
2086,2668,-3.75415015373026,0.506514614547228,-0.0179409967813058,0.003372,0.004452,0.005677,0.140453,0.278469,320.840889,24.570411,0.999455,0.989771,0.003930,0.504587,-0.000014,0.000028,-0.000010,0.000031,-0.000016,-77.537145,0.000031,
2161,3118,-2.19718557353668,10.2852822371247,0.0310578478079151,0.002715,0.005020,0.003309,0.117031,0.283928,313.576160,24.916886,0.999505,0.992923,0.003496,0.423391,-0.000013,0.000021,-0.000008,0.000023,-0.000015,-76.839850,0.000023,
2311,2263,1.21460368376481,-8.33365776246725,0.0175598331638298,0.002745,0.003881,0.007877,0.100493,0.264982,327.003113,23.661318,0.999194,0.983082,0.005001,0.401509,-0.000016,-0.000024,-0.000015,-0.000004,-0.000036,-37.987213,0.000044,
2386,2698,2.76467584827006,1.17169392108325,-0.0188219823849636,0.002790,0.004100,0.007332,0.103591,0.263144,319.653576,24.571974,0.999408,0.989203,0.004036,0.450050,0.000001,0.000048,-0.000008,0.000049,0.000000,-80.824358,0.000057,
2101,2908,-3.46590682130675,5.72501304490744,0.00132408741490053,0.003011,0.004517,0.005262,0.125066,0.269467,317.016061,24.630064,0.999306,0.991912,0.003936,0.449013,-0.000001,0.000025,-0.000002,0.000025,-0.000001,-85.861481,0.000028,
2161,3028,-2.18319500951639,8.33361035691239,0.0132023534589507,0.002932,0.004535,0.007239,0.114772,0.277088,314.893806,24.834593,0.999327,0.988616,0.004428,0.444286,0.000001,0.000017,0.000003,0.000018,0.000000,81.566331,0.000021,
2491,3208,4.95256685653471,12.2648854711452,0.0392089775929207,0.002694,0.004581,0.007234,0.098253,0.264852,311.973917,26.568438,0.999363,0.991803,0.003741,0.421568,0.000035,0.000047,-0.000002,0.000047,0.000035,-82.019356,0.000082,
2086,2773,-3.77137879263211,2.79149655418897,-0.017407086238336,0.002918,0.003857,0.008557,0.111140,0.256946,319.113642,24.613646,0.999587,0.990554,0.003967,0.434602,-0.000010,0.000017,-0.000023,0.000030,-0.000023,-60.455196,0.000032,
2026,2788,-5.07622820058419,3.11580726991641,-0.0247994988432083,0.002969,0.004457,0.004596,0.125750,0.256823,319.163432,24.589165,0.999578,0.991375,0.003726,0.411100,-0.000019,0.000040,-0.000031,0.000053,-0.000033,-66.885749,0.000053,
2041,2623,-4.7251443889069,-0.474826385997332,-0.020414249413534,0.002942,0.004354,0.003310,0.127736,0.250557,321.783948,24.614866,0.998853,0.986464,0.004669,0.471192,-0.000025,0.000005,-0.000019,0.000013,-0.000034,-64.382389,0.000035,
2146,2953,-2.49720732427645,6.70495515432031,0.00233561424028039,0.002610,0.004316,0.007865,0.098102,0.260490,316.066685,24.746789,0.999554,0.990984,0.003755,0.432980,0.000002,0.000023,0.000006,0.000025,0.000000,74.314191,0.000028,
2071,2758,-4.09477719592153,2.46445300149332,-0.0229989450576227,0.002939,0.004041,0.004793,0.123146,0.242645,319.401190,24.563778,0.999474,0.990885,0.003876,0.463996,-0.000018,0.000014,-0.000018,0.000021,-0.000026,-66.172336,0.000028,
2431,2908,3.70344183593522,5.74523882478668,-0.0118890499983877,0.002660,0.004073,0.009263,0.089845,0.261755,316.324806,25.233767,0.999631,0.990415,0.003776,0.478708,-0.000014,0.000006,-0.000013,0.000012,-0.000021,-63.644152,0.000021,
2446,2998,4.01338666897178,7.70240520283192,0.00765305677401784,0.002735,0.004067,0.011458,0.084835,0.265060,315.037354,25.631095,0.999383,0.987666,0.004186,0.423042,0.000010,0.000006,-0.000001,0.000010,0.000006,-13.174565,0.000016,
2296,2428,0.856542823905468,-4.72409602220008,0.00221473407583517,0.002813,0.003994,0.005298,0.112795,0.254923,324.232388,24.042827,0.999519,0.987458,0.004502,0.426862,-0.000004,0.000013,-0.000006,0.000015,-0.000006,-71.182858,0.000015,
2371,2578,2.46177927414239,-1.44677955755986,-0.00890838191008925,0.002743,0.003955,0.006722,0.103679,0.248259,321.679156,24.225116,0.999310,0.986824,0.004655,0.450723,0.000012,0.000027,0.000003,0.000027,0.000011,80.551130,0.000039,
2251,2233,-0.0885902218082286,-8.9900289442885,0.00827728716620868,0.003242,0.003946,0.003133,0.139876,0.245495,327.522215,23.814599,0.998740,0.978275,0.005664,0.442307,-0.000007,0.000006,-0.000020,0.000020,-0.000021,-53.765346,0.000024,
2206,2023,-1.03220511751909,-13.5967155667615,0.043528427777801,0.003028,0.003417,0.006272,0.120081,0.213619,331.274277,23.769161,0.999075,0.979732,0.005497,0.389939,0.000047,0.000045,0.000026,0.000072,0.000020,43.964712,0.000096,
2191,3193,-1.55903535960248,11.9124531306988,0.0402900589278943,0.002647,0.004609,0.006619,0.103132,0.261553,312.310573,25.056678,0.999703,0.995306,0.003160,0.447990,-0.000009,0.000027,-0.000009,0.000030,-0.000011,-76.374085,0.000030,
2356,2503,2.14969316521412,-3.08483538171193,-0.00190851560660121,0.002855,0.003733,0.008580,0.102376,0.249365,322.948893,24.049755,0.999411,0.987345,0.004506,0.447719,0.000013,0.000020,0.000016,0.000033,0.000001,51.434136,0.000038,
2281,2398,0.534311682577577,-5.37919684632645,-0.000706433648133498,0.002443,0.003929,0.007771,0.087713,0.264194,324.684663,24.045301,0.999189,0.985156,0.004981,0.417260,-0.000008,0.000016,-0.000003,0.000016,-0.000008,-83.994935,0.000016,
2221,2338,-0.763751526330132,-6.68923380459982,-0.0164059533678369,0.002235,0.004421,0.005780,0.085707,0.262728,325.630230,24.171780,0.999623,0.989867,0.004190,0.391955,0.000003,0.000007,0.000000,0.000007,0.000003,89.012807,0.000010,
2491,3223,4.94943136900863,12.5911905196683,0.0333775543347201,0.002865,0.004920,0.004245,0.117802,0.279903,311.697655,26.651285,0.999410,0.991441,0.003772,0.411467,0.000036,0.000024,-0.000007,0.000040,0.000021,-25.438651,0.000061,
2071,2983,-4.12851079719234,7.35059614434403,0.00495147688150155,0.003057,0.004082,0.006012,0.125268,0.232013,315.980490,24.519969,0.999142,0.991089,0.003839,0.444204,0.000001,0.000012,0.000003,0.000013,0.000000,74.712086,0.000015,
2131,2983,-2.82677026080506,7.35495501074637,0.00503900108276412,0.003133,0.004610,0.004407,0.132970,0.265446,315.697282,24.694889,0.999735,0.993929,0.003198,0.464053,0.000001,0.000024,0.000006,0.000025,-0.000001,76.815158,0.000028,
2281,2248,0.562925717671948,-8.66253766185397,0.0123765111306966,0.002735,0.003766,0.002162,0.119593,0.221058,327.249513,23.700378,0.999096,0.980390,0.005397,0.420940,-0.000014,-0.000014,-0.000016,0.000002,-0.000029,-44.825677,0.000033,
2266,2323,0.221906979357687,-7.01976728044802,0.0103604239210426,0.002570,0.004027,0.005066,0.102683,0.245622,326.024911,24.011404,0.998442,0.978264,0.005995,0.341530,-0.000010,0.000002,-0.000009,0.000007,-0.000015,-60.840246,0.000015,
2026,2548,-5.03930654767448,-2.10902463533716,-0.0142593922332708,0.003004,0.004574,0.004050,0.128672,0.273077,323.139195,24.712738,0.999529,0.989979,0.003808,0.453181,0.000007,0.000025,0.000005,0.000026,0.000005,75.280563,0.000034,
2401,2758,3.07954576102548,2.47978653284393,-0.0237630445869854,0.002923,0.004594,0.005422,0.116631,0.271043,318.661009,24.726774,0.999422,0.987684,0.004336,0.483934,-0.000008,0.000065,-0.000004,0.000065,-0.000008,-87.218799,0.000071,
2251,2263,-0.0942877698577185,-8.33264298634755,0.010767818334898,0.002698,0.004328,0.003978,0.112341,0.266888,327.031168,23.935237,0.999046,0.982762,0.005255,0.394469,-0.000005,-0.000015,-0.000016,0.000008,-0.000027,-36.658323,0.000028,
2176,3103,-1.8697648646124,9.96055209118478,0.0273761951546589,0.002732,0.004329,0.007532,0.104371,0.265659,313.724579,24.909938,0.999517,0.993022,0.003450,0.461183,-0.000008,0.000017,-0.000008,0.000019,-0.000011,-73.863288,0.000019,
2221,2113,-0.722068197980704,-11.6204492189542,0.0264069911823412,0.002399,0.003648,0.007600,0.086951,0.242701,329.614866,23.810124,0.998907,0.979906,0.005509,0.411291,0.000024,0.000024,0.000017,0.000041,0.000008,45.359838,0.000052,
2296,2338,0.872736607978727,-6.69154945949342,0.00197979171684892,0.002783,0.003902,0.006778,0.106283,0.256959,325.679430,23.836939,0.999183,0.984048,0.004967,0.444909,-0.000012,0.000011,-0.000005,0.000012,-0.000013,-79.265007,0.000015,
2131,2908,-2.8147075370613,5.72569514072649,0.00401478950089995,0.003028,0.004207,0.006692,0.121033,0.246867,316.898640,24.634286,0.999291,0.987970,0.004359,0.480786,0.000003,0.000024,-0.000001,0.000024,0.000003,-86.351834,0.000030,
2161,3043,-2.18498784308196,8.65850878451135,0.0260144228549848,0.002808,0.004463,0.007114,0.109429,0.277717,314.751035,24.869346,0.999513,0.992549,0.003674,0.419395,-0.000004,0.000007,-0.000003,0.000008,-0.000005,-77.001549,0.000008,
2461,3073,4.32549446198642,9.33215740979075,0.0143859030370663,0.002913,0.004185,0.009869,0.098683,0.258046,313.909448,25.891268,0.999599,0.991242,0.003823,0.465845,0.000013,0.000048,0.000006,0.000049,0.000012,81.136432,0.000065,
2086,2788,-3.77342886707141,3.11729081741376,-0.0157220814306243,0.002994,0.004464,0.006234,0.121519,0.269110,318.894673,24.576946,0.999452,0.989944,0.004003,0.482391,-0.000014,0.000030,-0.000022,0.000038,-0.000023,-67.703963,0.000039,
2011,2788,-5.40150091297469,3.11491132575743,-0.0206425794806933,0.002923,0.004556,0.004483,0.124155,0.272826,319.292424,24.574195,0.999534,0.990726,0.003881,0.430263,-0.000025,0.000041,-0.000036,0.000057,-0.000041,-66.285683,0.000059,
2476,3133,4.6407147020603,10.6363027182031,0.0279483883850844,0.002805,0.004134,0.008606,0.098213,0.257594,313.072547,26.234924,0.999458,0.989730,0.003840,0.397461,0.000029,0.000053,0.000006,0.000054,0.000028,77.307078,0.000084,
2071,2773,-4.09656332652131,2.79043114547424,-0.0169409213106633,0.003101,0.004132,0.004335,0.131943,0.241065,319.217150,24.587547,0.999386,0.989289,0.004113,0.435305,-0.000012,0.000015,-0.000019,0.000025,-0.000022,-62.119684,0.000027,
2206,2038,-1.03604017419613,-13.265459008039,0.0322416444276428,0.002431,0.004137,0.005070,0.096785,0.249156,330.915508,23.818321,0.999049,0.979528,0.005441,0.397123,0.000045,0.000032,0.000017,0.000056,0.000021,35.024756,0.000080,
2491,3238,4.94554650955365,12.9167417787413,0.0255924812112198,0.002891,0.004509,0.006521,0.110058,0.255875,311.378134,26.697287,0.999572,0.991725,0.003704,0.398516,0.000034,0.000028,-0.000008,0.000040,0.000022,-34.318526,0.000063,
2416,2803,3.39725983718243,3.46054891294387,-0.0202465332843076,0.002452,0.004743,0.003558,0.101703,0.263999,317.958931,24.918599,0.999433,0.986951,0.004513,0.434956,-0.000003,0.000051,-0.000003,0.000051,-0.000003,-86.510714,0.000058,
2056,2698,-4.41073848160665,1.15843034975308,-0.0198349618019051,0.002920,0.004581,0.001346,0.132325,0.269762,320.492082,24.567772,0.999248,0.990469,0.003967,0.500376,-0.000014,0.000021,-0.000001,0.000021,-0.000014,-88.185734,0.000021,
2311,2278,1.2121789547054,-8.00489076680542,0.0153440395415032,0.002979,0.003955,0.004402,0.123089,0.249706,326.764950,23.727112,0.999239,0.983204,0.004856,0.354835,-0.000017,-0.000011,-0.000015,0.000002,-0.000030,-50.719012,0.000033,
2146,3043,-2.51116376763465,8.65779992769957,0.0160759909460353,0.002767,0.004389,0.007605,0.106257,0.271939,314.722553,24.793043,0.999446,0.992104,0.003525,0.440771,-0.000011,0.000010,-0.000001,0.000010,-0.000012,-87.459311,0.000013,
2326,2368,1.521245271475,-6.03487434793195,-0.00127212878146565,0.002751,0.004464,0.004623,0.112032,0.279980,325.152972,23.784706,0.999341,0.985355,0.004678,0.482518,-0.000009,0.000019,0.000009,0.000021,-0.000011,74.055979,0.000021,
2071,2998,-4.1298692396612,7.67583324439226,0.0182018402935,0.003020,0.004641,0.002224,0.134630,0.259338,315.856018,24.551336,0.999434,0.992396,0.003501,0.436332,-0.000001,0.000019,0.000009,0.000022,-0.000004,69.779184,0.000024,
2026,2563,-5.0416512523588,-1.78266005007536,-0.0111314762839925,0.002810,0.004257,0.005566,0.115502,0.275126,322.910019,24.682703,0.999574,0.989288,0.003919,0.476468,0.000008,0.000015,-0.000003,0.000016,0.000007,-71.770157,0.000024,
2236,2188,-0.407734364483638,-9.97495762850056,0.0194621787388769,0.002863,0.003859,0.006684,0.111053,0.249025,328.340069,23.962588,0.999182,0.985154,0.004896,0.297027,0.000009,0.000012,0.000002,0.000013,0.000008,65.754001,0.000021,
2026,2803,-5.07848682526971,3.44142759413093,-0.0256087520168649,0.003026,0.004404,0.004374,0.128976,0.251615,318.916807,24.538164,0.999560,0.991973,0.003592,0.447229,-0.000005,0.000044,-0.000024,0.000054,-0.000014,-67.995909,0.000056,
2341,2428,1.83886133048385,-4.72491495855027,0.0141166994338846,0.003092,0.004918,0.001596,0.138223,0.267909,324.333593,23.884306,0.999752,0.993239,0.003777,0.472240,-0.000001,0.000021,0.000011,0.000026,-0.000006,67.841850,0.000027,
2011,2998,-5.43174065959121,7.67280776958832,0.011488290906243,0.002794,0.004363,0.008190,0.108240,0.259115,316.133773,24.414528,0.999359,0.992192,0.003509,0.402413,0.000002,0.000005,0.000024,0.000027,-0.000021,46.678997,0.000029,
2101,2923,-3.46851167396344,6.05091505257703,2.21369442101604E-05,0.002820,0.004610,0.003806,0.120556,0.264697,316.756621,24.635774,0.999156,0.990292,0.004099,0.439174,0.000001,0.000023,0.000004,0.000024,0.000000,80.278960,0.000028,
2041,2863,-4.76171104452811,4.74545856964847,-0.0146795101883299,0.002857,0.004665,0.003749,0.122893,0.258176,317.936120,24.549080,0.999251,0.989679,0.004248,0.425339,-0.000024,0.000035,-0.000016,0.000039,-0.000028,-75.757952,0.000040,
2491,3253,4.9414117426151,13.2424701891805,0.0171981829677748,0.002739,0.004521,0.009048,0.093372,0.264932,311.044167,26.728071,0.999710,0.992719,0.003487,0.434366,0.000032,0.000034,-0.000017,0.000050,0.000016,-46.588210,0.000069,
2101,2848,-3.45740805877429,4.42254195569022,-0.0215183596588986,0.003129,0.004707,0.002708,0.138039,0.276973,317.813618,24.558287,0.999793,0.993866,0.003213,0.525069,-0.000004,0.000034,-0.000001,0.000034,-0.000004,-88.433262,0.000037,
2086,2683,-3.75712164502358,0.833033684752962,-0.0203528840597187,0.002947,0.004313,0.006074,0.119722,0.275151,320.557195,24.551400,0.999500,0.991502,0.003646,0.519734,-0.000014,0.000031,-0.000012,0.000034,-0.000017,-76.104228,0.000034,
2011,2503,-5.35929699687785,-3.08903216189707,-0.0199678176915654,0.002639,0.004463,0.004447,0.110836,0.266173,323.895059,24.836906,0.999649,0.992007,0.003812,0.378737,0.000004,0.000021,-0.000015,0.000030,-0.000004,-60.629788,0.000032,
2116,2818,-3.126717329217,3.77073397466027,-0.0116045945521819,0.002978,0.004134,0.007184,0.117465,0.255308,318.293418,24.626609,0.999425,0.991672,0.003784,0.448862,0.000003,0.000046,-0.000002,0.000046,0.000003,-87.033761,0.000054,
2251,2488,-0.135060211577009,-3.41500023471359,-0.00172789931247053,0.002630,0.004061,0.006779,0.100167,0.248989,323.279635,24.192895,0.999644,0.989244,0.004003,0.495104,0.000004,0.000032,-0.000006,0.000033,0.000003,-77.811172,0.000040,
2131,3043,-2.83624824799497,8.65658921048182,0.0226110059525126,0.002740,0.004369,0.008955,0.101278,0.284919,314.834307,24.759489,0.999503,0.991921,0.003629,0.438062,-0.000011,0.000012,0.000001,0.000012,-0.000011,88.752121,0.000013,
2116,2953,-3.14801153980754,6.70352055287375,0.000346463989558288,0.002903,0.004370,0.006977,0.114809,0.260737,316.194637,24.699827,0.999519,0.990838,0.003785,0.408576,0.000001,0.000019,0.000010,0.000023,-0.000003,66.646760,0.000025,
2236,2158,-0.402880216703156,-10.6320334554167,0.0128186896013744,0.002818,0.004307,0.004388,0.116563,0.271060,328.773345,23.836068,0.998653,0.981516,0.005389,0.398230,0.000014,0.000013,0.000012,0.000025,0.000002,44.521427,0.000030,
2236,2203,-0.410002072312071,-9.64859699372867,0.0188651002104621,0.002959,0.004487,0.003034,0.127498,0.268540,328.110994,23.762825,0.999488,0.988085,0.004495,0.540186,0.000004,0.000016,-0.000002,0.000017,0.000004,-81.888300,0.000022,
2146,2968,-2.4993136662644,7.03044618654953,0.00537727359920837,0.002815,0.004171,0.008009,0.107098,0.262293,315.856738,24.751831,0.999661,0.992897,0.003386,0.436959,0.000003,0.000024,0.000007,0.000026,0.000001,72.429796,0.000031,
2356,2518,2.14678230752181,-2.75739865188336,-0.0013398788238419,0.002648,0.003971,0.007415,0.097065,0.248461,322.705081,24.089113,0.999247,0.985428,0.004731,0.447401,0.000011,0.000011,0.000012,0.000023,-0.000001,44.804849,0.000026,
2221,2353,-0.765781011057911,-6.36357743313948,-0.00749502361748,0.002388,0.003605,0.009102,0.081851,0.244536,325.459505,24.092169,0.999434,0.987846,0.004470,0.473620,0.000001,0.000011,-0.000004,0.000013,-0.000001,-69.920623,0.000014,
2041,2638,-4.72771867595578,-0.148150585998764,-0.0172000690815821,0.002592,0.004625,0.005539,0.105533,0.281862,321.545725,24.608081,0.999075,0.988928,0.004341,0.502160,-0.000025,0.000012,-0.000012,0.000016,-0.000029,-73.889909,0.000029,
2401,2773,3.07699638978483,2.80513178201753,-0.0125768120009866,0.002633,0.004002,0.008290,0.092650,0.248840,318.486814,24.758856,0.999456,0.987901,0.004273,0.474813,-0.000007,0.000061,-0.000007,0.000062,-0.000008,-84.252315,0.000068,
2131,2998,-2.82904467907,7.67998447556585,0.00857557051790536,0.003024,0.004960,0.003142,0.131895,0.286670,315.481425,24.648859,0.999769,0.994060,0.003214,0.536287,-0.000003,0.000025,0.000009,0.000028,-0.000006,73.304389,0.000030,
2011,3013,-5.43388709060925,7.99741236898956,0.0149258057221004,0.002765,0.004052,0.008738,0.105301,0.249043,315.915785,24.360642,0.999524,0.993001,0.003463,0.433384,0.000002,0.000020,0.000026,0.000039,-0.000017,54.213982,0.000039,
2176,3118,-1.87174292144704,10.2857173685903,0.0304707967439981,0.002895,0.004624,0.004347,0.121830,0.263256,313.522833,24.926662,0.999487,0.992677,0.003572,0.453213,-0.000013,0.000022,-0.000009,0.000025,-0.000015,-75.835368,0.000025,
2176,3253,-1.89504502995976,13.2116119429572,0.0389263571686342,0.002659,0.004375,0.011344,0.089272,0.269487,311.352372,25.041502,0.999671,0.994370,0.003225,0.443369,-0.000012,0.000036,-0.000012,0.000039,-0.000014,-76.914251,0.000039,
2491,3268,4.93769938119505,13.5685754706665,0.0153633058816354,0.002580,0.004287,0.012995,0.070849,0.269925,310.759123,26.838770,0.999845,0.994667,0.002995,0.385690,0.000027,0.000033,-0.000016,0.000047,0.000013,-49.741853,0.000063,
2296,2443,0.852770949849774,-4.39722778558696,-0.00686315053275166,0.002778,0.003363,0.009965,0.095230,0.247978,323.897018,23.920714,0.999628,0.988023,0.004361,0.573885,0.000001,0.000010,-0.000001,0.000011,0.000001,-82.127788,0.000013,
2206,2053,-1.0393632999251,-12.9343409433926,0.018283805800877,0.002390,0.004189,0.001754,0.105432,0.234061,330.566645,23.882577,0.999030,0.975677,0.005719,0.338629,0.000039,0.000030,0.000015,0.000050,0.000019,36.716151,0.000071,
2386,2713,2.76238003936831,1.49763175770101,-0.0132295515365968,0.002834,0.004041,0.005905,0.110697,0.246750,319.463787,24.591898,0.999609,0.991216,0.003653,0.457160,-0.000004,0.000050,-0.000006,0.000050,-0.000004,-83.627982,0.000056,
2266,2338,0.218820509919389,-6.69066642824433,0.000223816999096016,0.002705,0.004727,0.002605,0.117293,0.271916,325.712347,24.009400,0.998866,0.981822,0.005404,0.397711,-0.000007,0.000011,-0.000011,0.000016,-0.000013,-64.040190,0.000017,
2296,2473,0.847218306429223,-3.73986679803645,-0.00913516253399393,0.002760,0.004188,0.008625,0.099198,0.243434,323.395219,24.163730,0.998860,0.981667,0.005311,0.389016,0.000005,0.000007,0.000005,0.000011,0.000001,49.694823,0.000014,
2281,2263,0.55866334437582,-8.33095994253277,0.00195249223679639,0.002351,0.003700,0.007695,0.083549,0.247722,326.883109,23.892411,0.999451,0.985947,0.004797,0.286443,-0.000015,-0.000018,-0.000015,-0.000002,-0.000031,-42.544477,0.000037,
2056,2923,-4.44472620407948,6.04877737391499,-0.00548711819408254,0.003109,0.004899,0.001931,0.139676,0.275913,316.966710,24.536168,0.999409,0.992099,0.003713,0.455537,-0.000002,0.000018,-0.000004,0.000018,-0.000002,-79.840248,0.000020,
2191,3208,-1.56166340728772,12.2374531183589,0.0411014451418623,0.002697,0.004319,0.008587,0.099190,0.256093,312.067988,25.069356,0.999471,0.992877,0.003697,0.442829,-0.000009,0.000037,-0.000009,0.000039,-0.000010,-79.843147,0.000040,
2161,3133,-2.20008639881097,10.6097805169155,0.0355509799874199,0.002422,0.004456,0.008765,0.086551,0.263075,313.338717,24.902448,0.999444,0.992609,0.003657,0.425770,-0.000009,0.000019,-0.000008,0.000021,-0.000011,-75.039222,0.000021,
2476,3148,4.63747358403363,10.962207222732,0.0292489860232195,0.002493,0.004484,0.008536,0.084309,0.271520,312.823210,26.304615,0.999454,0.988967,0.003921,0.396986,0.000026,0.000040,0.000006,0.000043,0.000023,69.111504,0.000067,
2251,2278,-0.0968562260839256,-8.00536338470031,0.0121056636587014,0.002840,0.003602,0.006401,0.110691,0.236215,326.799316,23.916101,0.999143,0.984628,0.005020,0.408412,-0.000004,-0.000004,-0.000018,0.000014,-0.000022,-44.904230,0.000023,
2041,2878,-4.76480534699253,5.0717030165471,-0.0150304373813697,0.002375,0.004295,0.008213,0.088193,0.266306,317.654760,24.567200,0.998878,0.985945,0.004716,0.407422,-0.000009,0.000049,-0.000012,0.000051,-0.000011,-78.678989,0.000053,
2431,2923,3.70059354129118,6.07212029502579,-0.00824478816571173,0.002470,0.004145,0.008981,0.082176,0.252024,316.102234,25.376199,0.999637,0.991312,0.003784,0.375975,-0.000007,-0.000006,-0.000015,0.000008,-0.000022,-46.004743,0.000022,
2026,2818,-5.08090418213054,3.76720028070646,-0.0219826908967207,0.002748,0.004561,0.005608,0.112879,0.274853,318.687587,24.511094,0.999354,0.991622,0.003697,0.487406,-0.000009,0.000038,-0.000022,0.000047,-0.000018,-68.379744,0.000047,
2446,3013,4.01055271568935,8.0285442913305,0.00616405254658048,0.002753,0.004354,0.008205,0.097902,0.253253,314.792486,25.695144,0.999107,0.985305,0.004399,0.398571,0.000014,0.000015,-0.000004,0.000019,0.000011,-47.205284,0.000030,
2266,2563,0.17787961962911,-1.77775984270647,-0.00971111652705758,0.002696,0.004060,0.004396,0.110894,0.242135,321.982974,24.259145,0.999413,0.989335,0.004249,0.522241,0.000007,0.000019,0.000000,0.000019,0.000007,-89.362264,0.000027,
2071,2788,-4.0988573571364,3.11620822717619,-0.0130890666708297,0.002969,0.004526,0.005121,0.123787,0.260492,318.997792,24.558514,0.999298,0.988122,0.004245,0.480511,-0.000017,0.000028,-0.000020,0.000036,-0.000025,-69.174542,0.000037,
2281,2413,0.531839682600765,-5.05222722894458,0.00145457157435658,0.002501,0.003670,0.007680,0.090593,0.248749,324.463399,24.036343,0.999311,0.986051,0.004749,0.439843,-0.000007,0.000017,-0.000005,0.000018,-0.000008,-79.342752,0.000018,
2146,3058,-2.51336138765063,8.98267516695292,0.0214617041864926,0.002693,0.004375,0.007136,0.104228,0.257453,314.521111,24.795185,0.999560,0.993546,0.003432,0.431154,-0.000010,0.000013,-0.000007,0.000015,-0.000012,-74.710627,0.000016,
2461,3088,4.32218803854157,9.65885448318707,0.0119324709173156,0.002786,0.004392,0.009300,0.095054,0.262744,313.638948,26.004731,0.999638,0.993495,0.003543,0.410529,0.000017,0.000061,0.000007,0.000062,0.000016,80.956750,0.000082,
2236,2218,-0.413267781194268,-9.31869856938094,0.0126955976562044,0.002915,0.003813,0.005404,0.117591,0.247655,327.807580,23.873889,0.999086,0.982303,0.005133,0.432022,0.000003,0.000011,-0.000007,0.000016,-0.000001,-59.719116,0.000017,
2221,2128,-0.724213604952087,-11.29124627173,0.0267805970656809,0.002637,0.004188,0.005334,0.105311,0.256355,329.394755,23.858533,0.998712,0.979090,0.005563,0.398192,0.000022,0.000023,0.000014,0.000036,0.000008,45.970067,0.000048,
2371,2593,2.45863594780294,-1.11979593864623,-0.00828137866307088,0.002605,0.003815,0.009142,0.088688,0.242239,321.425936,24.252952,0.999249,0.986728,0.004594,0.458729,0.000014,0.000021,0.000004,0.000023,0.000012,65.804759,0.000036,
2086,2803,-3.77587663662296,3.4438095370634,-0.0131849804545823,0.002769,0.004494,0.006195,0.111305,0.268471,318.661931,24.630271,0.999334,0.990223,0.003949,0.427422,-0.000011,0.000034,-0.000016,0.000039,-0.000016,-72.464983,0.000039,
2011,2803,-5.40422830866653,3.44055995948654,-0.0260651183925802,0.002788,0.004285,0.004755,0.117098,0.251055,318.997302,24.506286,0.999518,0.991350,0.003755,0.464306,-0.000006,0.000046,-0.000025,0.000056,-0.000017,-67.926295,0.000057,
2176,3133,-1.87367987661972,10.6112487667934,0.0357348626619682,0.003109,0.004743,0.003443,0.134619,0.276171,313.334220,24.978652,0.999436,0.992394,0.003720,0.425284,-0.000010,0.000021,-0.000009,0.000023,-0.000012,-74.399399,0.000023,
2311,2293,1.20898191541893,-7.67663132423163,0.00948262419859702,0.002913,0.004273,0.003713,0.122551,0.264879,326.473419,23.685075,0.999326,0.984436,0.004845,0.446553,-0.000017,-0.000002,-0.000009,0.000002,-0.000022,-65.258103,0.000024,
2221,2368,-0.767434434862015,-6.03525667936786,2.13975636143005E-05,0.002706,0.003760,0.007786,0.100696,0.252975,325.298237,24.219796,0.999577,0.988717,0.004353,0.374791,0.000000,0.000019,-0.000005,0.000021,-0.000001,-77.042013,0.000023,
2251,2503,-0.138037091714082,-3.0860677308531,-0.00552021133802327,0.002740,0.003954,0.008989,0.097954,0.254998,323.002192,24.316470,0.999506,0.988413,0.004251,0.402145,0.000005,0.000031,-0.000002,0.000031,0.000005,-86.450367,0.000039,
2041,2653,-4.7304156682021,0.179361903627061,-0.029845167826636,0.002884,0.004486,0.004403,0.122072,0.253379,321.213942,24.608850,0.999304,0.989561,0.004155,0.466181,-0.000029,0.000022,-0.000011,0.000025,-0.000032,-78.422651,0.000033,
2056,2713,-4.41320607792302,1.48546393335212,-0.0236554217304388,0.003131,0.004371,0.003295,0.136509,0.266329,320.221093,24.593492,0.998977,0.989263,0.004131,0.466144,-0.000014,0.000020,-0.000006,0.000021,-0.000015,-80.972994,0.000022,
2056,2938,-4.44709650885454,6.37395117699537,-0.000736110594914408,0.002958,0.004620,0.004558,0.125250,0.268677,316.748264,24.523856,0.999334,0.991407,0.003758,0.454636,-0.000002,0.000016,0.000000,0.000016,-0.000002,89.285074,0.000017,
2431,2938,3.69824332187779,6.39786680475007,-0.00535800062664293,0.002869,0.004268,0.009139,0.100012,0.263235,315.899273,25.391507,0.999650,0.990970,0.003851,0.421380,-0.000005,-0.000006,-0.000019,0.000013,-0.000025,-43.946171,0.000025,
2101,2938,-3.47091346677974,6.37692066835102,-0.00208823548814507,0.002870,0.004696,0.002102,0.127891,0.261673,316.502078,24.647933,0.999126,0.990145,0.004132,0.424764,0.000000,0.000022,0.000005,0.000023,-0.000001,78.568644,0.000026,
2116,2833,-3.12987136801857,4.09814641657547,-0.0173869444846559,0.002630,0.004402,0.007041,0.101955,0.260165,317.985355,24.702662,0.999607,0.992490,0.003664,0.380986,0.000002,0.000044,0.000000,0.000044,0.000002,-89.798806,0.000052,
2491,3283,4.93446006689259,13.893268853226,0.0103642495445797,0.002572,0.004467,0.010012,0.081945,0.257901,310.481957,26.822725,0.999858,0.995301,0.002914,0.447199,0.000023,0.000021,-0.000015,0.000037,0.000007,-43.180206,0.000047,
2386,2728,2.75937136651477,1.82462671137673,-0.0131906420220957,0.002870,0.003983,0.007839,0.105433,0.255312,319.214514,24.643223,0.999572,0.990525,0.003883,0.457936,-0.000007,0.000048,-0.000001,0.000048,-0.000007,-88.536725,0.000052,
2341,2443,1.83471537212583,-4.39543780857161,0.00291181167597188,0.002904,0.004215,0.005278,0.116553,0.258507,323.974892,23.983454,0.999450,0.987338,0.004469,0.402195,0.000006,0.000015,0.000014,0.000025,-0.000005,53.371915,0.000027,
2116,2968,-3.15012873293538,7.02861282658544,0.00759179383464925,0.002729,0.004377,0.006339,0.108669,0.255313,316.004987,24.703997,0.999617,0.992252,0.003488,0.401467,0.000003,0.000019,0.000010,0.000025,-0.000002,63.794394,0.000027,
2131,3013,-2.83124787694252,8.00623397280841,0.0111936053448858,0.003103,0.004816,0.002652,0.137013,0.279351,315.263539,24.740918,0.999455,0.990938,0.003779,0.441654,-0.000003,0.000026,0.000008,0.000028,-0.000005,76.159490,0.000030,
2326,2383,1.51827146430071,-5.70650212445758,-0.000608389499063833,0.002778,0.003838,0.008114,0.101040,0.260569,324.904717,23.884708,0.999479,0.986940,0.004659,0.399189,-0.000007,0.000019,0.000008,0.000021,-0.000010,73.295454,0.000021,
2356,2533,2.1438917218496,-2.43005514882465,-0.00429113446216434,0.002845,0.004036,0.007724,0.105096,0.262943,322.445185,24.077804,0.999278,0.985971,0.004715,0.513148,0.000012,0.000003,0.000007,0.000016,0.000000,28.960698,0.000018,
2416,2818,3.39481662143547,3.78622492956109,-0.013622165676793,0.002641,0.004404,0.006270,0.100330,0.266538,317.768713,24.932429,0.999387,0.987711,0.004362,0.471243,-0.000004,0.000039,-0.000006,0.000040,-0.000005,-81.993705,0.000044,
2446,3028,4.00807330250257,8.35445535783261,0.0111348210137407,0.002684,0.004364,0.005972,0.103047,0.248091,314.593766,25.778702,0.999361,0.987470,0.004214,0.361069,0.000017,0.000028,-0.000004,0.000029,0.000016,-70.805988,0.000045,
2026,2578,-5.04459592896128,-1.45524379719724,-0.0176816842575249,0.002542,0.004031,0.006082,0.101660,0.253817,322.599266,24.692175,0.999216,0.988278,0.004298,0.436817,0.000003,0.000013,-0.000004,0.000015,0.000001,-69.888150,0.000018,
2026,2833,-5.08324161746034,4.09311790776089,-0.0206510072141555,0.002590,0.004123,0.005128,0.106747,0.243781,318.449306,24.537921,0.999649,0.993797,0.003490,0.419476,-0.000014,0.000042,-0.000024,0.000051,-0.000023,-69.812449,0.000051,
2461,3103,4.31978552107894,9.9834358447155,0.0255338377979797,0.002489,0.004187,0.011836,0.071760,0.259007,313.484302,26.036707,0.999547,0.991714,0.003750,0.428069,0.000016,0.000057,0.000008,0.000059,0.000014,79.265519,0.000077,
2476,3163,4.63447488097662,11.2880355299887,0.0271123549562162,0.002594,0.004513,0.007058,0.094558,0.264941,312.569337,26.370793,0.999553,0.990094,0.003791,0.379740,0.000019,0.000048,0.000004,0.000049,0.000019,81.624417,0.000070,
2491,3298,4.93136578117697,14.2191259546732,0.00835976560449581,0.002474,0.004902,0.007182,0.088526,0.275798,310.224553,26.904740,0.999728,0.992894,0.003444,0.440451,0.000012,0.000015,-0.000033,0.000046,-0.000019,-46.412113,0.000047,
2371,2608,2.45598077635612,-0.792077022775068,-0.0106621865739953,0.002828,0.004302,0.006902,0.107117,0.264759,321.180469,24.298422,0.999092,0.986455,0.004561,0.477666,0.000010,0.000019,0.000003,0.000020,0.000009,73.733495,0.000030,
2131,3058,-2.83860139297167,8.98183357207916,0.0228942044830092,0.002649,0.004523,0.005786,0.106529,0.260037,314.597420,24.772078,0.999421,0.991844,0.003743,0.405374,-0.000010,0.000014,-0.000006,0.000015,-0.000012,-77.584549,0.000016,
2041,2893,-4.7662862053384,5.39630854280477,-0.00329451071871745,0.002564,0.004111,0.009283,0.093894,0.268511,317.515022,24.532532,0.999195,0.990996,0.003898,0.436213,-0.000008,0.000045,-0.000016,0.000049,-0.000013,-74.667708,0.000051,
2011,3028,-5.43536754485275,8.32257077659309,0.0215531829813358,0.003082,0.004018,0.007033,0.124673,0.262842,315.746069,24.358549,0.999506,0.992926,0.003572,0.436402,0.000000,0.000029,0.000028,0.000046,-0.000017,58.606698,0.000047,
2161,3148,-2.20311526038787,10.9350922891093,0.0331705865376648,0.002283,0.004220,0.011524,0.071628,0.260724,313.058745,24.906029,0.999401,0.991822,0.003838,0.428505,-0.000007,0.000019,-0.000010,0.000023,-0.000010,-71.076285,0.000023,
2221,2143,-0.726626818179991,-10.9619246384015,0.0214391663237734,0.003016,0.004484,0.003164,0.129719,0.286769,329.133087,23.845032,0.998893,0.981701,0.005299,0.464128,0.000012,0.000008,0.000013,0.000022,-0.000003,40.429422,0.000024,
2266,2353,0.215785390191623,-6.36366279352227,0.00171117920422148,0.002563,0.003883,0.007234,0.095168,0.253753,325.460896,23.980093,0.999090,0.982564,0.005262,0.436384,-0.000010,0.000016,-0.000012,0.000020,-0.000015,-69.245928,0.000021,
2206,2263,-1.07521129196244,-8.33301487292255,0.00606520039661973,0.002918,0.004151,0.000978,0.132273,0.251559,327.112860,24.057737,0.998926,0.980847,0.005361,0.454708,0.000005,0.000009,0.000001,0.000009,0.000004,73.384657,0.000014,
2311,2308,1.20468405535223,-7.34675222073304,-0.00409451931398053,0.002671,0.003926,0.007492,0.098466,0.256836,326.093382,23.743399,0.999455,0.986387,0.004780,0.415344,-0.000016,-0.000003,-0.000002,-0.000003,-0.000017,-81.683369,0.000021,
2011,2518,-5.36143445281095,-2.76427724381604,-0.00980584969829579,0.002382,0.004001,0.009117,0.086271,0.279450,323.714029,24.698119,0.999692,0.992628,0.003645,0.519586,-0.000010,0.000019,-0.000009,0.000022,-0.000013,-73.965727,0.000022,
2506,1993,5.53151023608262,-14.262268043513,0.0394671926241585,0.003165,0.003914,0.002573,0.136293,0.232718,331.830251,21.692027,0.999121,0.972152,0.006360,0.317878,0.000111,-0.000155,0.000109,0.000150,-0.000194,19.640560,0.000203,
2161,3058,-2.18637666166043,8.98261186504174,0.0379857530662093,0.003046,0.004897,0.005558,0.125279,0.282133,314.622662,24.823836,0.999627,0.994576,0.003438,0.478436,-0.000002,0.000009,-0.000008,0.000013,-0.000006,-61.612265,0.000013,
2086,3058,-3.81377208744641,8.97743723693058,0.0262294628801101,0.003155,0.004405,0.005602,0.130993,0.252521,314.862733,24.537296,0.999537,0.991983,0.003511,0.478495,-0.000009,0.000016,-0.000004,0.000017,-0.000010,-80.309072,0.000017,
2236,2413,-0.450372604008926,-5.04853888118234,-0.0258004847079292,0.002535,0.003878,0.006144,0.097986,0.241393,324.318149,24.304919,0.999645,0.990875,0.003818,0.296650,-0.000004,0.000012,-0.000019,0.000024,-0.000016,-56.491976,0.000024,
2101,2863,-3.45912662973578,4.7483884118967,-0.0104018907715613,0.003233,0.004638,0.004495,0.137561,0.281283,317.662003,24.625803,0.999607,0.992142,0.003637,0.462626,-0.000007,0.000034,-0.000001,0.000034,-0.000007,-88.825431,0.000036,
2206,2068,-1.04105521055786,-12.6070994216707,0.03129106431021,0.002584,0.003992,0.005519,0.102362,0.254924,330.431208,23.863806,0.999142,0.978400,0.005559,0.397882,0.000035,0.000032,0.000015,0.000049,0.000018,42.169174,0.000069,
2071,3013,-4.13222911247235,8.00083596701276,0.0227306888783119,0.002873,0.004603,0.003994,0.122788,0.258790,315.637910,24.532835,0.999404,0.991361,0.003672,0.450078,0.000002,0.000025,0.000007,0.000027,0.000000,73.485619,0.000031,
2281,2428,0.529322305268913,-4.72415889537544,0.00109257860998468,0.002616,0.004235,0.006423,0.100284,0.280155,324.227076,24.062066,0.999501,0.987602,0.004505,0.475014,0.000000,0.000011,-0.000005,0.000013,-0.000002,-69.124998,0.000014,
2431,2953,3.69466566429019,6.72446833305441,-0.0114672911938101,0.002731,0.004315,0.008789,0.095002,0.268461,315.597673,25.432638,0.999727,0.992651,0.003587,0.434933,-0.000003,-0.000001,-0.000018,0.000016,-0.000021,-46.502321,0.000022,
2251,2518,-0.140704624116918,-2.75899425615414,-0.0069136767068585,0.002804,0.003752,0.008772,0.101553,0.247148,322.751456,24.310529,0.999237,0.985933,0.004643,0.424657,0.000008,0.000027,0.000000,0.000027,0.000008,-89.810039,0.000036,
2116,2983,-3.1515738827706,7.35322740780743,0.0156841644036945,0.003114,0.004747,0.004814,0.131115,0.276615,315.850873,24.646437,0.999691,0.993637,0.003251,0.483260,-0.000001,0.000022,0.000009,0.000025,-0.000004,71.253529,0.000026,
2071,2803,-4.10161622969154,3.44315904394776,-0.0207222513713532,0.002955,0.004414,0.003635,0.127337,0.249550,318.693919,24.583179,0.999318,0.989687,0.004086,0.441677,-0.000012,0.000034,-0.000015,0.000038,-0.000016,-73.369327,0.000038,
2281,2638,0.490728404440144,-0.140265207745685,-0.016280758179164,0.003070,0.004143,0.005297,0.125017,0.246629,320.702988,24.475996,0.999223,0.985001,0.004551,0.430665,0.000011,0.000025,-0.000001,0.000025,0.000011,-87.272730,0.000036,
2011,2818,-5.40672511047889,3.76593022881758,-0.0225943398008326,0.002670,0.004010,0.010271,0.096634,0.267667,318.762725,24.447391,0.999156,0.990210,0.003960,0.527655,-0.000007,0.000034,-0.000024,0.000045,-0.000018,-64.868857,0.000045,
2506,2008,5.52762848636418,-13.932959732266,0.034723517850523,0.002527,0.004203,-0.000751,0.120111,0.217890,331.533054,21.679339,0.999241,0.974854,0.006155,0.380723,0.000104,-0.000166,0.000093,0.000133,-0.000195,17.302260,0.000199,
2101,2953,-3.47340162519737,6.70275632183086,-0.00342273068815757,0.003125,0.004460,0.005707,0.129047,0.263026,316.247826,24.650034,0.999363,0.990841,0.003866,0.424834,0.000002,0.000016,0.000007,0.000019,-0.000001,67.574734,0.000021,
2086,2818,-3.77808103169923,3.7698869890895,-0.0144661282218976,0.002916,0.004468,0.004374,0.123392,0.270943,318.419692,24.614934,0.999453,0.991777,0.003726,0.444110,-0.000008,0.000040,-0.000009,0.000042,-0.000009,-80.162377,0.000044,
2416,2833,3.39187427569479,4.11306742537924,-0.0140740510296951,0.002861,0.004007,0.008459,0.102256,0.245551,317.522100,25.027141,0.998986,0.985506,0.004562,0.403008,-0.000008,0.000037,-0.000009,0.000039,-0.000009,-79.399856,0.000041,
2041,2668,-4.73217152252527,0.50480904737298,-0.0193751068205756,0.002877,0.004168,0.006026,0.117150,0.240013,321.053909,24.603510,0.999276,0.988010,0.004409,0.450873,-0.000035,0.000026,-0.000007,0.000026,-0.000035,-83.749551,0.000037,
2266,2578,0.174555815533058,-1.44950080423702,-0.0134187453262484,0.002586,0.003837,0.007995,0.093897,0.252908,321.691295,24.343232,0.999226,0.987773,0.004457,0.475565,0.000009,0.000030,0.000001,0.000030,0.000009,88.198336,0.000041,
2251,2293,-0.0997779470321412,-7.676630484783,0.00861310423658779,0.002781,0.004080,0.006082,0.109202,0.261623,326.526408,23.930270,0.998911,0.983372,0.005182,0.445319,-0.000005,0.000000,-0.000010,0.000008,-0.000013,-53.194824,0.000013,
2191,2188,-1.38958644771806,-9.97513731845431,0.0176833313466886,0.002481,0.003858,0.006747,0.094040,0.253248,328.421322,24.116148,0.998793,0.976853,0.005715,0.378927,0.000020,0.000010,0.000010,0.000026,0.000004,32.040231,0.000033,
2236,2233,-0.416648527843702,-8.98966073775722,0.00704727224632506,0.002802,0.003581,0.009091,0.100446,0.272798,327.501426,23.871991,0.999098,0.981992,0.005084,0.483107,0.000000,0.000011,-0.000009,0.000016,-0.000005,-59.838569,0.000016,
2386,2743,2.75672897089008,2.15084992360566,-0.00908231859119724,0.002802,0.004021,0.007889,0.102146,0.260838,319.001525,24.663566,0.999612,0.991100,0.003844,0.486417,-0.000005,0.000058,-0.000002,0.000058,-0.000005,-88.319075,0.000064,
2401,2788,3.07368890502669,3.13314251322146,-0.0181792824907347,0.002713,0.004069,0.008474,0.095711,0.260037,318.197835,24.875296,0.999549,0.987696,0.004307,0.415286,-0.000007,0.000063,-0.000008,0.000064,-0.000008,-83.611942,0.000070,
2296,2488,0.844727804167626,-3.41274174584431,-0.00692791036459539,0.002781,0.004381,0.007946,0.102581,0.258784,323.174145,24.163330,0.999420,0.987701,0.004371,0.435879,0.000009,0.000019,-0.000001,0.000019,0.000009,-86.247632,0.000029,
2116,3208,-3.18680098501099,12.2305545146051,0.0506667050525493,0.002902,0.004350,0.008397,0.110796,0.269361,312.450934,24.701091,0.999639,0.993285,0.003359,0.457276,-0.000027,0.000053,-0.000016,0.000056,-0.000030,-79.110889,0.000056,
2446,3043,4.00516155237514,8.67969634040677,0.0169928577878409,0.002593,0.004126,0.009699,0.084954,0.266775,314.379338,25.785957,0.999246,0.986619,0.004327,0.423793,0.000015,0.000038,-0.000001,0.000039,0.000015,-86.718474,0.000055,
2461,3118,4.31750324800413,10.3091698236149,0.0228335506588451,0.003249,0.004526,0.009423,0.115977,0.267822,313.259997,26.063053,0.999503,0.990163,0.003923,0.463958,0.000013,0.000063,0.000007,0.000064,0.000012,82.493667,0.000082,
2026,2593,-5.04751861357387,-1.12744266549552,-0.0227607731609396,0.002332,0.004167,0.008635,0.085067,0.282027,322.297454,24.705965,0.999009,0.988417,0.004455,0.442418,-0.000008,0.000039,0.000001,0.000039,-0.000008,88.283022,0.000041,
2176,3268,-1.89872177807787,13.5371956780415,0.022540076686937,0.002581,0.004243,0.009974,0.089865,0.255408,310.969872,25.036513,0.999551,0.993499,0.003383,0.445141,-0.000008,0.000042,-0.000007,0.000043,-0.000009,-81.869369,0.000045,
2506,2023,5.52439260207661,-13.6022168626116,0.0340931615379532,0.002955,0.004085,0.004797,0.118278,0.251600,331.283318,21.801576,0.999149,0.971301,0.006497,0.357038,0.000106,-0.000113,0.000051,0.000117,-0.000124,12.619937,0.000139,
2131,3073,-2.84091097074907,9.30699186772853,0.0254351980783554,0.002770,0.004563,0.007431,0.107201,0.264480,314.374618,24.766000,0.999678,0.993775,0.003417,0.420601,-0.000011,0.000023,-0.000008,0.000025,-0.000012,-78.027803,0.000025,
2356,2548,2.1408794215961,-2.10310494675271,-0.00272980950938972,0.002677,0.003755,0.009360,0.091517,0.248439,322.201520,24.104672,0.999263,0.985279,0.004756,0.511418,0.000015,0.000003,0.000004,0.000016,0.000002,16.721101,0.000020,
2326,2398,1.51666459040776,-5.38061112582001,0.0113186732957615,0.002929,0.004204,0.006660,0.113121,0.269277,324.774309,23.842018,0.999492,0.986852,0.004684,0.486115,-0.000002,0.000027,0.000014,0.000033,-0.000008,67.953098,0.000034,
2086,3073,-3.81685406326582,9.30353428040892,0.0243078508107715,0.002627,0.004400,0.005800,0.106119,0.263474,314.576865,24.581349,0.999415,0.990886,0.003667,0.443507,-0.000009,0.000028,-0.000006,0.000029,-0.000010,-81.269199,0.000029,
2146,3073,-2.51653781651724,9.30849335363448,0.0152454176330252,0.002561,0.004188,0.008911,0.092660,0.249171,314.212692,24.806799,0.999743,0.995659,0.003021,0.418074,-0.000010,0.000021,-0.000008,0.000023,-0.000012,-76.851584,0.000023,
2071,3028,-4.13508311284631,8.32669461136567,0.0186109241058148,0.002775,0.004582,0.005767,0.113216,0.264637,315.349376,24.532829,0.999573,0.992851,0.003394,0.451810,-0.000006,0.000024,0.000006,0.000025,-0.000007,79.740074,0.000026,
2011,2533,-5.36306600192181,-2.43702871122989,-0.010951983667951,0.002809,0.004121,0.005281,0.116372,0.266725,323.492193,24.715647,0.999271,0.987539,0.004455,0.478319,-0.000010,0.000010,0.000004,0.000011,-0.000011,80.252047,0.000012,
2086,2833,-3.78045198562699,4.09572205818915,-0.00957830833158368,0.002779,0.004283,0.006812,0.109983,0.278666,318.203488,24.623206,0.999759,0.994340,0.003154,0.442375,-0.000008,0.000038,-0.000008,0.000039,-0.000010,-80.189393,0.000041,
2026,2848,-5.08623835600098,4.41803088602603,-0.0395413938196612,0.002573,0.004670,-0.002130,0.126024,0.224481,318.068220,24.314002,0.999658,0.994956,0.003308,0.614612,-0.000016,0.000038,-0.000025,0.000048,-0.000025,-68.509737,0.000048,
2341,2458,1.83107568582952,-4.06741545655517,-0.00739738728447037,0.002857,0.003882,0.005222,0.114499,0.233517,323.643986,23.979678,0.999573,0.987416,0.004338,0.419274,0.000005,0.000018,0.000017,0.000030,-0.000006,55.713154,0.000031,
2146,2983,-2.50172142444832,7.35593885327466,0.00430012847289163,0.002948,0.004273,0.007496,0.114799,0.257439,315.611080,24.739233,0.999728,0.994054,0.003187,0.452080,-0.000002,0.000025,0.000005,0.000026,-0.000003,79.142841,0.000028,
2506,2038,5.52146271808117,-13.2744201599475,0.0419006054983129,0.002792,0.003481,0.008420,0.096602,0.241947,331.085409,21.798896,0.999153,0.969473,0.006592,0.414231,0.000094,-0.000079,0.000036,0.000101,-0.000086,11.398699,0.000109,
2311,2323,1.20242370799514,-7.01929673621889,0.00162031721401945,0.002827,0.003578,0.008746,0.101230,0.234663,325.901741,23.792199,0.999133,0.983211,0.005146,0.378241,-0.000014,-0.000005,-0.000002,-0.000004,-0.000015,-79.061753,0.000020,
2221,2383,-0.770236187585876,-5.70838187126579,-0.000615373234211347,0.002538,0.003811,0.007955,0.092480,0.242809,325.043013,24.159376,0.999490,0.988037,0.004383,0.445891,0.000001,0.000017,-0.000004,0.000018,0.000000,-77.086651,0.000021,
2041,2683,-4.73511814643321,0.83190947178749,-0.0233264346327928,0.002613,0.004040,0.008484,0.098141,0.247961,320.758914,24.613012,0.999383,0.990482,0.004022,0.442135,-0.000031,0.000028,-0.000002,0.000028,-0.000031,-88.552055,0.000035,
2251,2533,-0.144288574881667,-2.43017097020382,-0.0185524968829895,0.002646,0.003809,0.007892,0.097209,0.243878,322.406497,24.373900,0.999578,0.991347,0.003807,0.382766,0.000006,0.000027,-0.000001,0.000027,0.000006,-88.177830,0.000035,
2041,2908,-4.76824990539642,5.7218424016001,-0.000605650022805548,0.002650,0.004328,0.007508,0.102883,0.268916,317.302649,24.522538,0.999393,0.991207,0.003758,0.438504,-0.000005,0.000019,-0.000019,0.000029,-0.000015,-61.267195,0.000029,
2026,2608,-5.04966677132591,-0.799965645143985,-0.0312024798111565,0.002787,0.004149,0.005972,0.113347,0.273002,322.012544,24.703561,0.998866,0.986193,0.004764,0.426852,-0.000007,0.000039,-0.000002,0.000039,-0.000007,-86.864768,0.000041,
2011,3043,-5.43779219787836,8.64766902266858,0.0220703682687713,0.002814,0.004441,0.005268,0.117182,0.258442,315.498774,24.332197,0.999414,0.993273,0.003632,0.445730,-0.000005,0.000025,0.000024,0.000038,-0.000018,61.255458,0.000038,
2131,3028,-2.8343180759734,8.33116963246308,0.015241534216841,0.002596,0.004405,0.007898,0.097820,0.287810,315.013949,24.709733,0.999516,0.990978,0.003780,0.486172,-0.000007,0.000021,0.000005,0.000022,-0.000008,79.837484,0.000022,
2011,2833,-5.40809151467097,4.09259475940434,-0.0117120883839448,0.002637,0.004515,0.005452,0.108329,0.260820,318.621201,24.590188,0.999648,0.994068,0.003492,0.365705,-0.000013,0.000039,-0.000026,0.000050,-0.000023,-67.473662,0.000050,
2101,2968,-3.47555834912735,7.02796596980036,0.00657976898884272,0.002762,0.004510,0.005760,0.112141,0.260971,316.070411,24.680653,0.999506,0.990571,0.003780,0.392414,0.000005,0.000016,0.000009,0.000021,0.000000,61.406377,0.000025,
2221,2158,-0.729453536680332,-10.6326721943796,0.0170481918979135,0.002944,0.004565,0.001357,0.132223,0.267713,328.857588,23.890889,0.998880,0.984218,0.005202,0.421117,0.000013,0.000007,0.000012,0.000022,-0.000002,37.798407,0.000025,
2401,2803,3.0707211858988,3.45963447402777,-0.0194831879295521,0.002568,0.004535,0.005957,0.098374,0.277238,317.945032,24.884352,0.999596,0.989452,0.004136,0.469168,-0.000006,0.000050,-0.000006,0.000051,-0.000007,-84.079872,0.000055,
2206,2278,-1.07735906139875,-8.00520824972542,0.0116670560993271,0.003270,0.003624,0.005839,0.132895,0.246520,326.918388,24.103860,0.999015,0.981668,0.005246,0.422346,0.000003,0.000010,-0.000001,0.000010,0.000003,-83.087712,0.000014,
2161,3193,-2.20972059143182,11.9096632770468,0.039186535567751,0.002673,0.004349,0.007825,0.101014,0.254551,312.402833,24.892157,0.999621,0.993364,0.003311,0.462980,-0.000012,0.000025,-0.000014,0.000030,-0.000017,-71.738282,0.000030,
2161,3163,-2.20507315715374,11.2600296875476,0.0383046474049706,0.002476,0.004136,0.010728,0.083006,0.268924,312.867821,24.913780,0.999580,0.992570,0.003541,0.437963,-0.000007,0.000026,-0.000009,0.000029,-0.000009,-75.702491,0.000029,
2476,3178,4.63164863717372,11.6132441393769,0.0320752879903807,0.002688,0.004550,0.010560,0.085650,0.288289,312.355857,26.396188,0.999616,0.991677,0.003626,0.433132,0.000019,0.000047,0.000003,0.000047,0.000019,83.505613,0.000068,
2461,3133,4.31449118241114,10.6350581653038,0.0240955816234987,0.003096,0.004389,0.008703,0.111572,0.254884,313.020119,26.154194,0.999466,0.989233,0.003980,0.413276,0.000017,0.000054,0.000002,0.000054,0.000017,86.939923,0.000074,
2296,2458,0.849919686600746,-4.06771051302004,-0.00737828195696011,0.002689,0.003746,0.009767,0.091953,0.260030,323.645562,24.107794,0.999436,0.986635,0.004579,0.430136,-0.000001,0.000007,0.000001,0.000008,-0.000001,80.025469,0.000008,
2386,2758,2.75307388812758,2.47875537082341,-0.0199206808791814,0.002857,0.004345,0.007380,0.106613,0.263865,318.670556,24.726987,0.999356,0.988307,0.004183,0.469749,-0.000004,0.000063,-0.000002,0.000063,-0.000004,-88.008709,0.000071,
2056,2728,-4.41589279675831,1.81215825931901,-0.0261090358828824,0.003006,0.004331,0.004702,0.126750,0.256676,319.947723,24.610368,0.999178,0.989656,0.004054,0.434593,-0.000018,0.000021,-0.000006,0.000022,-0.000018,-82.087657,0.000024,
2086,3088,-3.81906377352631,9.62868461013684,0.0258981130924667,0.002803,0.004473,0.006848,0.111195,0.263614,314.350546,24.575509,0.999438,0.990131,0.003825,0.447617,-0.000017,0.000031,0.000000,0.000031,-0.000017,-89.689583,0.000031,
2266,2368,0.212950319863698,-6.0352458136631,-0.00186134330272125,0.002855,0.003584,0.009966,0.099484,0.242614,325.192929,24.028714,0.998946,0.982906,0.005226,0.404167,-0.000014,0.000021,-0.000012,0.000025,-0.000018,-73.025740,0.000026,
2371,2623,2.45277994376663,-0.464482832086269,-0.0175208540578637,0.002916,0.004441,0.005455,0.116359,0.256123,320.888595,24.330504,0.999146,0.986669,0.004511,0.478765,0.000007,0.000025,0.000000,0.000025,0.000007,-89.449795,0.000033,
2131,3088,-2.84260788588422,9.6317182536729,0.0315632664379564,0.003025,0.004612,0.005321,0.125303,0.259651,314.199313,24.755733,0.999829,0.995169,0.003157,0.430757,-0.000017,0.000025,-0.000004,0.000025,-0.000018,-85.016352,0.000026,
2266,2593,0.17183856376279,-1.12243183640518,-0.0139758435261683,0.002787,0.003676,0.010745,0.094024,0.261936,321.443489,24.352408,0.999059,0.986418,0.004651,0.501712,0.000012,0.000024,0.000002,0.000025,0.000011,81.868017,0.000037,
2011,3058,-5.4395239033114,8.9723253655344,0.0322182544502994,0.002747,0.004579,0.004760,0.115448,0.254951,315.337637,24.330661,0.999235,0.992435,0.003600,0.430758,-0.000017,0.000026,0.000012,0.000029,-0.000020,75.266555,0.000030,
2071,3043,-4.13769856320583,8.65253644148904,0.016104000603093,0.002769,0.004300,0.006754,0.110081,0.263981,315.080650,24.552941,0.999577,0.992627,0.003424,0.427222,-0.000011,0.000015,0.000001,0.000015,-0.000011,88.181678,0.000016,
2011,2848,-5.41057886936171,4.41738339820884,-0.0146414010205262,0.002563,0.004471,0.005130,0.105738,0.238089,318.351436,24.476455,0.999698,0.994794,0.003367,0.444756,-0.000008,0.000034,-0.000026,0.000047,-0.000021,-64.363697,0.000047,
2446,3058,4.00217181470582,9.00590276745957,0.0152814069945748,0.002669,0.004198,0.008815,0.091753,0.261916,314.126013,25.859754,0.999484,0.989469,0.004052,0.396434,0.000011,0.000039,0.000002,0.000039,0.000011,85.019856,0.000053,
2116,3223,-3.1892843730555,12.5549548886996,0.0502603996642961,0.002998,0.004012,0.009478,0.111917,0.253131,312.203652,24.663712,0.999666,0.994082,0.003233,0.480609,-0.000027,0.000053,-0.000021,0.000058,-0.000032,-76.235880,0.000058,
2056,2953,-4.44944994205423,6.69924350942627,0.00340856341341578,0.002670,0.004589,0.004023,0.113454,0.265663,316.527218,24.517510,0.999252,0.992056,0.003684,0.452002,0.000002,0.000005,-0.000001,0.000005,0.000002,-77.925679,0.000007,
2281,2443,0.526398581106882,-4.3968748731718,-0.00213426831680863,0.002760,0.003800,0.008251,0.100634,0.254279,323.958186,24.051404,0.999617,0.988604,0.004311,0.488933,0.000001,0.000012,-0.000001,0.000012,0.000001,-86.398107,0.000015,
2116,2998,-3.15493790270162,7.67929497932749,0.011692377851432,0.002639,0.004415,0.007466,0.101300,0.281719,315.543200,24.660047,0.999525,0.992318,0.003513,0.477355,-0.000004,0.000024,0.000013,0.000028,-0.000009,69.031811,0.000029,
2296,2503,0.841309028995482,-3.08367786427887,-0.016707590973283,0.002858,0.004185,0.008401,0.104514,0.265739,322.850787,24.244771,0.999698,0.992139,0.003751,0.392877,0.000008,0.000021,0.000000,0.000021,0.000008,-87.792410,0.000029,
2191,2203,-1.39229362578961,-9.64655482662465,0.0135031451306418,0.002543,0.003968,0.006301,0.098351,0.255391,328.149450,24.098517,0.998765,0.978093,0.005694,0.415784,0.000018,0.000021,0.000010,0.000029,0.000009,49.177366,0.000040,
2506,2053,5.51748907782242,-12.9436627312168,0.0371636879389143,0.002656,0.002908,0.011871,0.076912,0.222055,330.783715,21.940991,0.999264,0.980580,0.005563,0.317072,0.000088,-0.000073,0.000029,0.000093,-0.000078,9.970929,0.000100,
2431,2968,3.69167178539013,7.05005990404876,-0.0118219617465343,0.002549,0.004405,0.006479,0.095188,0.259347,315.349930,25.439875,0.999841,0.995145,0.003089,0.467886,-0.000007,0.000003,-0.000017,0.000015,-0.000020,-53.205552,0.000021,
2401,2818,3.06852173646513,3.78601131803875,-0.0143217254776005,0.002890,0.004536,0.006071,0.112763,0.276205,317.758052,24.954780,0.999545,0.988331,0.004350,0.442907,-0.000007,0.000040,-0.000009,0.000041,-0.000009,-79.605201,0.000043,
2101,2878,-3.46205207180975,5.07348035061415,-0.00971293852484223,0.002865,0.004109,0.007398,0.111936,0.252681,317.398931,24.583261,0.999592,0.991948,0.003758,0.477438,0.000000,0.000044,0.000003,0.000044,0.000000,85.905771,0.000051,
2071,2818,-4.10341510393338,3.76886981095505,-0.0167263549024028,0.003171,0.004624,0.002122,0.141749,0.263312,318.498099,24.563239,0.999372,0.990543,0.004070,0.472117,-0.000010,0.000038,-0.000008,0.000039,-0.000011,-80.603773,0.000040,
2356,2563,2.13764873479827,-1.77382477512529,-0.0104777869255486,0.002588,0.004323,0.005425,0.101532,0.270796,321.902400,24.230995,0.999421,0.988060,0.004417,0.447710,0.000011,0.000007,0.000001,0.000011,0.000007,11.128701,0.000019,
2341,2473,1.82839800449942,-3.73980492923469,-0.00298460505041476,0.002743,0.004134,0.006410,0.105267,0.261815,323.428317,24.026953,0.999527,0.987429,0.004293,0.438316,0.000006,0.000012,0.000017,0.000026,-0.000008,49.539850,0.000026,
2056,2743,-4.41895736258489,2.1381772419679,-0.0254853196278759,0.002360,0.004356,0.006868,0.090903,0.266637,319.674171,24.575170,0.999372,0.990519,0.003937,0.474513,-0.000019,0.000025,-0.000010,0.000028,-0.000021,-77.343128,0.000029,
2326,2413,1.51303756735286,-5.05315333261378,-0.000203385170436832,0.002840,0.003919,0.005218,0.113871,0.219904,324.436890,23.781569,0.999471,0.986785,0.004695,0.533456,-0.000005,0.000028,0.000013,0.000032,-0.000010,70.225257,0.000033,
2296,2713,0.801769957314988,1.49557063211982,-0.0319098167921084,0.002589,0.004289,0.006699,0.098145,0.264617,319.309033,24.577065,0.999750,0.992522,0.003617,0.489064,0.000013,0.000047,-0.000011,0.000050,0.000009,-73.282449,0.000064,
2176,3283,-1.90168886998474,13.862606900381,0.0174171203497053,0.002333,0.004508,0.006852,0.088243,0.265124,310.679243,25.059110,0.999650,0.994388,0.003166,0.442684,-0.000005,0.000047,-0.000002,0.000047,-0.000005,-87.798142,0.000052,
2011,2863,-5.41277319809486,4.74344585936942,-0.0105167240058677,0.002709,0.004017,0.010483,0.097869,0.249933,318.134254,24.502106,0.999372,0.990866,0.004081,0.418516,-0.000005,0.000033,-0.000021,0.000042,-0.000014,-66.330657,0.000043,
2266,2608,0.168963341367057,-0.794559349003322,-0.0177378729324005,0.002710,0.003889,0.008563,0.097774,0.259610,321.172151,24.423867,0.999185,0.986685,0.004569,0.454171,0.000011,0.000017,0.000004,0.000019,0.000009,61.151775,0.000029,
2086,2848,-3.78239454833729,4.42063248036075,-0.00526075844402385,0.002886,0.004518,0.005821,0.117898,0.287799,318.004125,24.544495,0.999654,0.993011,0.003435,0.529064,-0.000010,0.000032,-0.000007,0.000033,-0.000011,-80.946478,0.000033,
2296,2518,0.8380791972053,-2.7563728823347,-0.0233220609559908,0.002734,0.004208,0.006910,0.103889,0.259259,322.552099,24.213183,0.999660,0.990784,0.003871,0.449234,0.000010,0.000014,-0.000002,0.000014,0.000009,-68.999133,0.000024,
2146,3118,-2.5229627483954,10.2840995076649,0.0290542803962808,0.002587,0.004797,0.006116,0.102692,0.282131,313.603173,24.844221,0.999615,0.994435,0.003240,0.433900,-0.000022,0.000028,-0.000007,0.000029,-0.000023,-82.095193,0.000031,
2221,2398,-0.772386666392109,-5.37947521144297,-0.000510761867133169,0.002746,0.004026,0.004699,0.112537,0.250880,324.820910,24.278675,0.999673,0.990393,0.003966,0.355076,0.000001,0.000014,-0.000007,0.000017,-0.000002,-66.190721,0.000019,
2461,3148,4.31142149244657,10.960681524048,0.0262507166818295,0.002671,0.004694,0.006311,0.101181,0.261842,312.781678,26.210193,0.999411,0.989048,0.003918,0.417259,0.000015,0.000042,0.000003,0.000042,0.000014,84.821244,0.000059,
2236,2248,-0.419061604084611,-8.66140300657236,0.0111115140320521,0.002609,0.004157,0.007759,0.096106,0.274340,327.289064,23.927868,0.998889,0.980193,0.005481,0.451925,0.000004,-0.000002,-0.000009,0.000010,-0.000009,-36.133804,0.000011,
2206,2083,-1.04394166871093,-12.2776126845052,0.0225753400707163,0.002813,0.003923,0.005156,0.113989,0.246804,330.129366,23.843069,0.998963,0.977481,0.005755,0.430716,0.000032,0.000036,0.000014,0.000047,0.000020,48.845322,0.000069,
2251,2548,-0.146361904202262,-2.10377960751592,-0.0146983979793731,0.002942,0.003946,0.007895,0.110851,0.255300,322.209538,24.343395,0.999686,0.993241,0.003534,0.448830,0.000008,0.000024,0.000003,0.000025,0.000007,81.403232,0.000034,
2011,3073,-5.44203656934776,9.29759459637357,0.0295177937002222,0.002824,0.004355,0.006978,0.113057,0.277496,315.068168,24.279774,0.999227,0.992838,0.003649,0.491393,-0.000014,0.000045,0.000013,0.000048,-0.000017,77.768847,0.000048,
2086,3103,-3.82140867047799,9.95381412550363,0.0281635503975508,0.002760,0.004457,0.007215,0.108176,0.265419,314.121726,24.574093,0.999682,0.993134,0.003335,0.448768,-0.000018,0.000033,-0.000001,0.000033,-0.000018,-89.220997,0.000033,
2026,2863,-5.08757745214882,4.74504088277057,-0.0193378894148282,0.002852,0.004097,0.006750,0.114425,0.254992,317.980620,24.529022,0.999305,0.991627,0.003980,0.419401,-0.000015,0.000037,-0.000022,0.000045,-0.000024,-69.835339,0.000045,
2116,3238,-3.19236706425022,12.880562014318,0.0420541099370553,0.002903,0.004147,0.009018,0.108908,0.252912,311.886289,24.681384,0.999660,0.994484,0.003048,0.464734,-0.000026,0.000044,-0.000022,0.000051,-0.000032,-73.782388,0.000052,
2506,2068,5.51635185392719,-12.6156364840341,0.0549760330424647,0.003076,0.003270,0.011214,0.098757,0.246335,330.712125,22.045750,0.999393,0.982665,0.005262,0.300157,0.000077,-0.000047,0.000012,0.000078,-0.000048,5.546304,0.000079,
2131,3283,-2.87641085921205,13.8583411498437,0.0221224890203757,0.002606,0.004706,0.008619,0.096303,0.275999,310.902126,24.811216,0.999651,0.994750,0.003077,0.448292,-0.000022,0.000050,-0.000015,0.000053,-0.000025,-79.011471,0.000053,
2056,2968,-4.45157931888854,7.02451538007984,0.00715113517691179,0.002831,0.004630,0.006728,0.113176,0.250641,316.314272,24.522002,0.999122,0.991050,0.003827,0.426511,0.000006,0.000006,0.000004,0.000010,0.000002,46.576871,0.000013,
2416,2848,3.3893134251943,4.43918983524014,-0.0104412376150549,0.002959,0.004238,0.008521,0.106628,0.253849,317.312221,25.061295,0.999306,0.987705,0.004228,0.424638,-0.000009,0.000031,-0.000016,0.000037,-0.000015,-70.476482,0.000037,
2401,2833,3.06543085549026,4.11286377664814,-0.0183195646755507,0.003111,0.004325,0.006966,0.119598,0.262544,317.486716,25.016212,0.999397,0.987523,0.004341,0.413378,-0.000013,0.000039,-0.000011,0.000041,-0.000015,-78.686297,0.000042,
2071,2833,-4.10609139814923,4.09458129844907,-0.00471783547186533,0.002545,0.003976,0.009087,0.092797,0.253310,318.306049,24.631383,0.999442,0.991233,0.003770,0.390244,-0.000009,0.000036,-0.000009,0.000038,-0.000011,-79.462425,0.000039,
2236,2428,-0.451727115588721,-4.72365919634628,-0.0107913806014608,0.002820,0.003989,0.007589,0.106442,0.261741,324.210197,24.195827,0.999448,0.989613,0.004110,0.448375,0.000003,0.000007,-0.000017,0.000022,-0.000013,-48.860599,0.000022,
2011,2548,-5.36505488321486,-2.11023141936251,-0.0115937693096271,0.003166,0.004284,0.006816,0.128699,0.275086,323.256924,24.680363,0.999409,0.988077,0.004137,0.511041,-0.000005,0.000009,0.000005,0.000011,-0.000006,73.355870,0.000011,
2476,3193,4.62855848932306,11.9386492662299,0.0335471345833867,0.002611,0.004780,0.011684,0.077920,0.300171,312.114171,26.433882,0.999556,0.991423,0.003599,0.462584,0.000015,0.000051,0.000000,0.000051,0.000015,-89.586078,0.000069,
2251,2308,-0.102264783767357,-7.3483682952538,0.00830561150110043,0.002656,0.004393,0.001940,0.117145,0.259611,326.289641,23.966121,0.998410,0.979934,0.005636,0.432961,-0.000004,0.000003,-0.000005,0.000006,-0.000007,-62.392367,0.000007,
2041,2698,-4.73724207902223,1.15861487270518,-0.0248185889449815,0.002748,0.004119,0.006403,0.110177,0.255965,320.515338,24.611318,0.999277,0.990731,0.003956,0.444583,-0.000023,0.000020,0.000002,0.000020,-0.000023,87.870665,0.000025,
2176,3298,-1.90443305131637,14.1881717433256,0.0080453136692995,0.002709,0.004817,0.005398,0.110224,0.270497,310.376430,25.081747,0.999813,0.996176,0.002630,0.436396,0.000000,0.000053,-0.000005,0.000054,-0.000001,-85.018705,0.000061,
2161,3178,-2.20703849658906,11.5850352991189,0.0405566473794465,0.002860,0.004253,0.010012,0.102945,0.263890,312.661300,24.927033,0.999560,0.990815,0.003720,0.428621,-0.000010,0.000027,-0.000010,0.000029,-0.000012,-75.617082,0.000029,
2281,2653,0.487955672056223,0.186534426803291,-0.0128637955730255,0.002935,0.004152,0.007750,0.110650,0.258730,320.473559,24.510033,0.999406,0.988079,0.004231,0.437007,0.000011,0.000026,0.000002,0.000026,0.000010,82.919358,0.000038,
2026,2623,-5.05114115761355,-0.474733661666271,-0.0226813414191724,0.002961,0.004220,0.004462,0.125537,0.254871,321.853713,24.654739,0.998980,0.986646,0.004713,0.448132,-0.000014,0.000000,-0.000010,0.000006,-0.000020,-62.500868,0.000020,
2161,3208,-2.21200248876038,12.2348231151315,0.0438704720555734,0.002585,0.004564,0.007156,0.099136,0.269115,312.194555,24.921479,0.999600,0.993845,0.003207,0.456981,-0.000012,0.000035,-0.000014,0.000038,-0.000016,-74.550456,0.000039,
2206,2293,-1.07948107542788,-7.67658944764944,0.00853412075787219,0.003589,0.004249,0.001132,0.162655,0.236881,326.679994,24.145345,0.999246,0.983750,0.004938,0.389914,-0.000001,0.000010,0.000005,0.000012,-0.000004,67.606347,0.000012,
2146,3088,-2.51861606864199,9.63427785594718,0.0190649080676053,0.002806,0.004142,0.009812,0.101302,0.259128,314.008051,24.865616,0.999683,0.994424,0.003212,0.375890,-0.000016,0.000022,-0.000005,0.000023,-0.000017,-83.301717,0.000024,
2281,2458,0.523901878255767,-4.06824178972971,-0.00384185694406369,0.002973,0.004245,0.006611,0.116057,0.281716,323.715933,24.130471,0.999752,0.990205,0.004064,0.466570,-0.000001,0.000010,0.000002,0.000010,-0.000002,80.777610,0.000011,
2056,2758,-4.42033442383635,2.46333738881013,-0.0154594618067563,0.002771,0.003887,0.008166,0.106066,0.253577,319.530067,24.562383,0.999327,0.989872,0.004078,0.468799,-0.000016,0.000013,-0.000018,0.000022,-0.000024,-64.877650,0.000027,
2371,2638,2.45019183828736,-0.136673980531683,-0.020944231080307,0.003289,0.004392,0.003167,0.141631,0.262900,320.641120,24.401493,0.999192,0.986919,0.004461,0.456376,0.000000,0.000026,-0.000005,0.000027,-0.000001,-79.675262,0.000030,
2071,3058,-4.13972458531681,8.97704366233909,0.016826916298271,0.003028,0.004099,0.005791,0.124704,0.243874,314.857209,24.494918,0.999372,0.991668,0.003569,0.460921,-0.000013,0.000017,-0.000006,0.000018,-0.000015,-78.641534,0.000019,
2041,2923,-4.77009067049235,6.04709399468081,-0.000657651281812832,0.003003,0.004596,0.005330,0.125256,0.264793,317.080821,24.475437,0.999334,0.991852,0.003713,0.473634,0.000001,0.000012,-0.000007,0.000015,-0.000003,-65.303080,0.000016,
2446,3073,3.99884276442653,9.33119367563615,0.0116107897345046,0.002733,0.003959,0.010025,0.090016,0.238625,313.848208,25.859305,0.999638,0.992801,0.003561,0.424967,0.000014,0.000047,0.000003,0.000048,0.000014,84.814952,0.000064,
2341,2488,1.82592319604339,-3.41295340046408,-0.000546104644342904,0.002796,0.004405,0.005202,0.111970,0.266732,323.212579,24.014186,0.999434,0.987066,0.004324,0.493707,0.000009,0.000021,0.000016,0.000032,-0.000002,55.435260,0.000036,
2191,2218,-1.39434433235338,-9.31815613885846,0.0138004049087499,0.002908,0.004216,0.005147,0.118807,0.257453,327.930801,24.116442,0.998864,0.980297,0.005579,0.416944,0.000014,0.000019,0.000005,0.000022,0.000012,58.474811,0.000034,
2086,3118,-3.8237270585573,10.2790748941281,0.0303418845526835,0.002769,0.004494,0.007865,0.106744,0.267649,313.893611,24.587411,0.999712,0.993599,0.003165,0.435483,-0.000022,0.000043,-0.000001,0.000043,-0.000022,-88.955601,0.000043,
2131,3298,-2.87833275936306,14.1827789681892,0.0215946654872141,0.003064,0.004639,0.006025,0.125323,0.278288,310.680985,24.779125,0.999632,0.993400,0.003300,0.486832,-0.000017,0.000058,-0.000020,0.000063,-0.000021,-76.108673,0.000064,
2011,2563,-5.36761056619027,-1.78340360428695,-0.0102587540001764,0.002816,0.003948,0.007865,0.109665,0.268734,323.006877,24.684829,0.999265,0.986946,0.004391,0.489095,-0.000006,0.000001,-0.000004,0.000003,-0.000007,-65.504359,0.000008,
2116,3253,-3.19513774698022,13.206726895524,0.036939932174846,0.002767,0.004645,0.006157,0.111383,0.281544,311.599697,24.743845,0.999704,0.995834,0.002756,0.432895,-0.000023,0.000040,-0.000023,0.000047,-0.000030,-71.976280,0.000048,
2311,2338,1.19962334134452,-6.69131735582587,0.00264079714526133,0.002815,0.003760,0.010302,0.095477,0.263872,325.661982,23.795772,0.999205,0.982835,0.004968,0.438119,-0.000012,0.000003,-0.000004,0.000004,-0.000013,-74.469502,0.000014,
2146,3133,-2.52548796099079,10.6081154686334,0.0338426640659577,0.002483,0.004112,0.009413,0.087553,0.243863,313.383847,24.804315,0.999436,0.993295,0.003572,0.442350,-0.000019,0.000025,-0.000007,0.000026,-0.000020,-81.176562,0.000027,
2026,2878,-5.08954323187223,5.07096378371994,-0.0150927679998176,0.002888,0.004636,0.006162,0.117910,0.281516,317.775591,24.532806,0.998951,0.987431,0.004496,0.432032,0.000001,0.000046,-0.000018,0.000052,-0.000005,-70.773609,0.000057,
2101,3133,-3.50035348505582,10.6057141918843,0.0339740615106621,0.003038,0.004737,0.005472,0.125940,0.268328,313.622624,24.696730,0.999773,0.995197,0.002919,0.387255,-0.000023,0.000036,-0.000003,0.000036,-0.000023,-87.177652,0.000037,
2101,2983,-3.4778819589306,7.35314194642381,0.00883825537403027,0.002859,0.004316,0.007874,0.110448,0.272646,315.843400,24.644276,0.999524,0.992410,0.003531,0.441074,0.000000,0.000018,0.000008,0.000021,-0.000003,70.169572,0.000023,
2296,2728,0.79970041095261,1.82152654465784,-0.0225391678487199,0.002674,0.003944,0.008171,0.096934,0.248866,319.142522,24.632193,0.999582,0.990623,0.003880,0.448240,0.000011,0.000047,-0.000010,0.000050,0.000008,-75.836940,0.000063,
2041,2713,-4.73943196126513,1.48538161033346,-0.0281242719449324,0.003115,0.003934,0.007391,0.124334,0.255478,320.258705,24.613782,0.999079,0.989279,0.004251,0.434446,-0.000024,0.000022,-0.000004,0.000022,-0.000024,-85.235892,0.000027,
2461,3163,4.30920167333804,11.2858817957793,0.0320113032350378,0.002982,0.004496,0.006137,0.116104,0.259588,312.599014,26.261479,0.999530,0.990343,0.003837,0.417013,0.000012,0.000051,0.000001,0.000051,0.000012,88.556688,0.000067,
2116,3013,-3.15663027040873,8.00433899099432,0.0140277889777281,0.003034,0.004499,0.004073,0.129564,0.266188,315.346673,24.646900,0.999105,0.988475,0.004151,0.477651,-0.000002,0.000026,0.000011,0.000030,-0.000005,71.200982,0.000032,
2221,2413,-0.774574980306532,-5.05191112948842,0.000295275239579951,0.003073,0.004365,0.004525,0.128242,0.262945,324.600893,24.282823,0.999650,0.990567,0.003960,0.383232,0.000003,0.000014,-0.000015,0.000025,-0.000008,-54.863194,0.000025,
2221,2173,-0.731934764111369,-10.3052843293436,0.0212495385191005,0.002851,0.004161,0.003026,0.122511,0.243645,328.642062,23.868607,0.999002,0.983389,0.005136,0.440995,0.000012,0.000010,0.000009,0.000020,0.000001,41.897854,0.000024,
2026,2638,-5.05324998430624,-0.149348281623261,-0.0125500422829532,0.002550,0.004413,0.005319,0.104280,0.260964,321.674752,24.612989,0.999221,0.990324,0.004073,0.486483,-0.000016,0.000010,-0.000002,0.000010,-0.000016,-84.775395,0.000016,
2326,2428,1.50923605638364,-4.72194287371956,-0.0143220245250291,0.003044,0.004100,0.007058,0.116999,0.267916,324.077686,23.949592,0.999563,0.989028,0.004331,0.449976,0.000001,0.000022,0.000010,0.000026,-0.000003,68.631181,0.000028,
2251,2563,-0.14884844932249,-1.7771310788972,-0.0124245751416083,0.002961,0.004033,0.008187,0.110809,0.256690,321.985599,24.336843,0.999533,0.990892,0.003888,0.481030,0.000007,0.000022,0.000000,0.000022,0.000007,-88.572880,0.000030,
2266,2623,0.166371718775473,-0.468057534914628,-0.0163219142329467,0.002727,0.003606,0.008995,0.097033,0.247060,320.940136,24.429134,0.999392,0.987611,0.004363,0.462630,0.000010,0.000021,0.000005,0.000022,0.000009,69.196129,0.000032,
2386,2773,2.75012727534755,2.80466128310523,-0.0154162286537485,0.002695,0.003766,0.010480,0.087800,0.241255,318.445477,24.758293,0.999322,0.988429,0.004191,0.458883,-0.000003,0.000063,-0.000006,0.000063,-0.000004,-84.642997,0.000071,
2176,2113,-1.70370316225264,-11.6179201491697,0.0126901044048395,0.002893,0.004719,0.000515,0.132658,0.265239,329.670567,24.065724,0.999156,0.978533,0.005647,0.442472,0.000037,0.000019,0.000021,0.000051,0.000005,33.226747,0.000062,
2071,2848,-4.10909605213241,4.42210147482434,-0.0174438332733189,0.002518,0.004589,0.006169,0.100133,0.281871,317.962741,24.645139,0.999679,0.993281,0.003358,0.402003,-0.000011,0.000031,-0.000008,0.000032,-0.000012,-79.939906,0.000032,
2506,2083,5.51295882564432,-12.2868171108693,0.0427020461743268,0.003296,0.004107,0.004874,0.133615,0.264489,330.403260,21.900316,0.999406,0.983844,0.004989,0.528681,0.000061,-0.000056,-0.000002,0.000061,-0.000056,-0.970823,0.000068,
2476,3208,4.62595076382292,12.263752825691,0.0362316759039913,0.002597,0.004841,0.008987,0.087525,0.281012,311.900270,26.485331,0.999434,0.991181,0.003694,0.447291,0.000014,0.000049,-0.000007,0.000050,0.000012,-78.984938,0.000066,
2206,2098,-1.04683496073386,-11.9489765846037,0.0238788801576106,0.002513,0.003384,0.007248,0.093480,0.228960,329.878852,23.870834,0.999005,0.980690,0.005471,0.405124,0.000028,0.000032,0.000016,0.000046,0.000014,48.599854,0.000062,
2056,2983,-4.45388486511905,7.35020097111298,0.00993099235915906,0.002930,0.004423,0.010252,0.107731,0.252310,316.087783,24.544963,0.998941,0.989350,0.004073,0.398922,-0.000001,0.000006,0.000003,0.000007,-0.000002,70.886870,0.000007,
2011,2878,-5.41487234476106,5.06996140156978,-0.011681544838325,0.002846,0.004577,0.008766,0.109100,0.292352,317.891522,24.503879,0.999035,0.989865,0.004184,0.446784,0.000016,0.000040,-0.000016,0.000048,0.000008,-63.319516,0.000060,
2356,2578,2.13528561979479,-1.4471325376895,-0.00734194570810587,0.002840,0.004215,0.005672,0.112203,0.270508,321.696007,24.243407,0.999240,0.986507,0.004588,0.474354,0.000012,0.000025,0.000002,0.000026,0.000012,82.949315,0.000038,
2146,3103,-2.52097463193246,9.95856591940301,0.0239884995788202,0.002657,0.004542,0.010134,0.093631,0.286530,313.796938,24.779704,0.999796,0.996342,0.002771,0.496394,-0.000019,0.000022,-0.000006,0.000023,-0.000020,-82.145428,0.000025,
2161,3223,-2.21408268884436,12.5597723597401,0.0476095401161842,0.002816,0.004641,0.007268,0.109542,0.285264,311.990630,24.927505,0.999627,0.994082,0.003180,0.475722,-0.000012,0.000037,-0.000018,0.000043,-0.000018,-71.932089,0.000043,
2416,2863,3.38642654977337,4.76561279622598,-0.00906477950439921,0.002771,0.004208,0.006782,0.104387,0.258360,317.076644,25.114048,0.999437,0.988928,0.004049,0.423949,-0.000007,0.000030,-0.000017,0.000037,-0.000014,-68.752870,0.000037,
2086,3133,-3.82590345500197,10.6040461406433,0.0347293018369896,0.002740,0.004561,0.007836,0.105469,0.262788,313.684199,24.598298,0.999702,0.993255,0.003149,0.417758,-0.000020,0.000040,-0.000003,0.000040,-0.000020,-87.206841,0.000040,
2131,3103,-2.84530405378156,9.95689640787789,0.034428707953623,0.002769,0.004497,0.007375,0.107363,0.267457,313.960500,24.757206,0.999791,0.995509,0.003024,0.441659,-0.000021,0.000026,-0.000005,0.000026,-0.000021,-84.112338,0.000028,
2086,2863,-3.78466667727308,4.7480601034844,-0.0105169681975212,0.003130,0.005067,0.002493,0.138956,0.299326,317.736704,24.627473,0.999385,0.990558,0.004016,0.456463,-0.000011,0.000033,-0.000006,0.000034,-0.000012,-82.520628,0.000035,
2236,2443,-0.453777417328975,-4.39578067385108,-0.00301688973218006,0.002875,0.003740,0.008059,0.107356,0.242244,324.033122,24.336172,0.999610,0.991174,0.004026,0.310827,0.000003,0.000017,-0.000013,0.000025,-0.000005,-59.391934,0.000026,
2371,2653,2.44652675057574,0.19038829517968,-0.022859793336238,0.002891,0.004020,0.006371,0.111844,0.251375,320.351526,24.440218,0.999302,0.986575,0.004554,0.447870,-0.000004,0.000027,-0.000003,0.000027,-0.000004,-85.220902,0.000029,
2431,2983,3.69004968924135,7.37478435552498,0.00454035397689267,0.002856,0.004255,0.009999,0.096303,0.271940,315.243274,25.464077,0.999680,0.991361,0.003661,0.505491,-0.000009,0.000004,-0.000010,0.000010,-0.000014,-61.845820,0.000014,
2101,2998,-3.48048473332453,7.67907987093277,0.0052490517134629,0.002835,0.004337,0.006554,0.113262,0.280187,315.571648,24.646319,0.999538,0.993101,0.003435,0.447175,-0.000003,0.000022,0.000012,0.000027,-0.000008,67.851041,0.000027,
2446,3088,3.9971562175258,9.65737842562563,0.0222553955927083,0.003087,0.004381,0.008945,0.110563,0.261980,313.711848,25.989959,0.999661,0.992934,0.003565,0.368876,0.000017,0.000056,0.000006,0.000057,0.000016,81.625380,0.000077,
2236,2263,-0.421757781017938,-8.33291854822614,0.0122808543530368,0.002265,0.004142,0.005304,0.088271,0.255890,327.049076,23.999582,0.999170,0.981249,0.005397,0.385094,0.000003,-0.000005,-0.000005,0.000006,-0.000007,-27.109641,0.000008,
2011,2578,-5.3706440525439,-1.45626872682092,-0.0188412571259278,0.002210,0.003998,0.002711,0.095708,0.235034,322.679391,24.662750,0.998981,0.985677,0.004835,0.466453,-0.000011,0.000002,-0.000007,0.000005,-0.000014,-65.825115,0.000014,
2041,2938,-4.77320958770843,6.3726769571651,-0.00318667365286274,0.002569,0.004225,0.008703,0.095798,0.264654,316.786553,24.441744,0.999223,0.991006,0.003847,0.498952,-0.000002,0.000010,-0.000002,0.000010,-0.000002,-82.948199,0.000011,
2146,3148,-2.52848750180619,10.9339511725791,0.0314335269011394,0.002361,0.004410,0.012376,0.073137,0.275804,313.103725,24.821615,0.999492,0.992421,0.003616,0.463697,-0.000018,0.000026,-0.000010,0.000028,-0.000020,-77.560911,0.000029,
2191,2233,-1.39702120050592,-8.98924172710783,0.0118510035182453,0.002728,0.004467,0.002842,0.117817,0.257643,327.671779,24.165431,0.998839,0.981698,0.005403,0.385066,0.000010,0.000020,0.000001,0.000020,0.000010,85.688632,0.000030,
2281,2473,0.520735416822522,-3.74063628694058,-0.00774675195123109,0.002748,0.004404,0.006032,0.107750,0.270355,323.432332,24.139174,0.999523,0.988456,0.004322,0.475590,0.000003,0.000010,0.000007,0.000014,-0.000001,59.266728,0.000016,
2266,2383,0.210229550704515,-5.70672720703294,-0.0103828986339067,0.003046,0.004209,0.004814,0.125508,0.264996,324.905197,24.011005,0.998314,0.979295,0.005664,0.471719,-0.000015,0.000018,-0.000009,0.000020,-0.000017,-75.647730,0.000022,
2056,2773,-4.42222997946346,2.7890235471291,-0.00996422327722257,0.002819,0.003968,0.007425,0.110391,0.250219,319.337087,24.555887,0.999184,0.987593,0.004366,0.466602,-0.000010,0.000013,-0.000019,0.000024,-0.000021,-60.670020,0.000026,
2296,2533,0.835067184112571,-2.42968293994097,-0.0323445310188504,0.002879,0.004421,0.003764,0.121246,0.243663,322.251593,24.118476,0.999716,0.992868,0.003563,0.559634,0.000010,0.000009,-0.000007,0.000016,0.000003,-42.233670,0.000020,
2251,2323,-0.105439585815805,-7.01978284837165,0.00373267623632501,0.002735,0.003922,0.005911,0.107622,0.227665,325.999888,24.024387,0.998583,0.981837,0.005434,0.368090,-0.000001,-0.000003,-0.000009,0.000007,-0.000011,-42.425328,0.000011,
2311,2353,1.19660219403905,-6.36270378002246,8.38428546217074E-05,0.002487,0.003999,0.006925,0.092049,0.258942,325.394541,23.861425,0.999376,0.985091,0.004637,0.401409,-0.000009,0.000009,-0.000003,0.000009,-0.000009,-80.738461,0.000011,
2146,1993,-2.33825813287953,-14.2512699215197,0.0320312384488943,0.002246,0.003767,0.004696,0.089986,0.235605,331.819729,24.206480,0.999207,0.981667,0.005152,0.356728,0.000067,0.000012,0.000023,0.000075,0.000003,20.224371,0.000089,
2026,2893,-5.09181769762029,5.39597913052269,-0.0060938187029933,0.002503,0.004279,0.008397,0.093835,0.261843,317.583400,24.537458,0.999290,0.991887,0.003699,0.397336,0.000000,0.000037,-0.000020,0.000046,-0.000009,-66.343846,0.000049,
2116,3268,-3.19770294731578,13.5314131828169,0.0354370335403473,0.002811,0.004531,0.006510,0.112292,0.266817,311.342615,24.737532,0.999695,0.995424,0.002911,0.426579,-0.000021,0.000050,-0.000018,0.000054,-0.000025,-76.845483,0.000054,
2071,3073,-4.14219673881579,9.30231945644809,0.0213176310513177,0.002734,0.004250,0.006821,0.108339,0.268440,314.633678,24.491281,0.999388,0.990983,0.003744,0.485152,-0.000013,0.000029,-0.000008,0.000030,-0.000014,-79.544126,0.000030,
2326,2443,1.50683947936438,-4.39519591895453,-0.00789926521150619,0.002837,0.004253,0.005710,0.112241,0.272598,323.883978,23.951216,0.999428,0.987148,0.004575,0.488849,0.000007,0.000016,0.000013,0.000026,-0.000003,55.057738,0.000028,
2011,3088,-5.44405940949375,9.62239466630574,0.0364331220565077,0.002736,0.004138,0.007720,0.106927,0.267413,314.875518,24.283552,0.999546,0.994345,0.003221,0.464330,-0.000019,0.000042,0.000011,0.000044,-0.000020,80.348484,0.000044,
2071,2863,-4.11080370394902,4.74688530491984,-0.0123493050933803,0.002730,0.004642,0.004161,0.115646,0.269321,317.777527,24.586356,0.999387,0.990831,0.003910,0.444674,-0.000012,0.000033,-0.000007,0.000034,-0.000013,-81.523778,0.000034,
2401,2848,3.06302934337736,4.43804341970502,-0.00996382129153517,0.003105,0.004112,0.008739,0.112782,0.253161,317.305711,25.016748,0.999479,0.989692,0.004047,0.448572,-0.000014,0.000032,-0.000017,0.000038,-0.000019,-71.969922,0.000038,
2191,1993,-1.35558503059017,-14.2528643724908,0.0346044680944715,0.002610,0.003863,0.005198,0.104613,0.241205,331.706416,23.881557,0.999461,0.983383,0.005147,0.370644,0.000066,0.000020,0.000046,0.000094,-0.000008,31.899590,0.000104,
2386,2788,2.74693090612393,3.1325884209224,-0.0206010018274583,0.002644,0.004165,0.008420,0.093077,0.259430,318.162253,24.863317,0.999646,0.991305,0.003799,0.415537,-0.000003,0.000065,-0.000007,0.000066,-0.000003,-84.567131,0.000074,
2116,3028,-3.15957404599949,8.33019710078455,0.0159104692311871,0.002628,0.004578,0.007137,0.101855,0.287443,315.089959,24.672927,0.999392,0.990788,0.003785,0.475379,-0.000007,0.000021,0.000008,0.000023,-0.000009,75.304992,0.000023,
2026,2653,-5.05571106504265,0.178329483918091,-0.0252403455723993,0.002972,0.004501,0.002972,0.130234,0.254366,321.351816,24.606029,0.999365,0.990923,0.003843,0.478008,-0.000020,0.000020,-0.000005,0.000021,-0.000021,-83.170430,0.000024,
2506,2098,5.50829595339107,-11.9531230888924,0.0293395942479719,0.002898,0.004213,0.004483,0.116996,0.242160,330.031150,22.235868,0.999533,0.985204,0.004929,0.235624,0.000042,-0.000053,-0.000019,0.000046,-0.000056,-10.889269,0.000060,
2041,2953,-4.7747478014908,6.69844705145586,0.00108289399923933,0.002805,0.004520,0.003843,0.120343,0.265969,316.602445,24.475568,0.999477,0.992735,0.003410,0.458245,0.000001,-0.000002,-0.000002,0.000002,-0.000003,-28.431490,0.000003,
2371,2668,2.4436769376537,0.516997877165473,-0.0219632917655872,0.002714,0.003941,0.004773,0.109327,0.221999,320.112909,24.483356,0.999433,0.987857,0.004444,0.416714,-0.000004,0.000032,-0.000007,0.000033,-0.000005,-79.870195,0.000035,
2086,2878,-3.78730600555395,5.07233918097914,-0.00430723382612541,0.002723,0.004231,0.006195,0.109199,0.262460,317.516026,24.558621,0.999379,0.991161,0.003959,0.486920,-0.000002,0.000045,-0.000002,0.000045,-0.000002,-87.805003,0.000050,
2041,2728,-4.74129282556545,1.81146304537339,-0.0230289775088863,0.003188,0.004381,0.006543,0.130172,0.259126,320.063931,24.621659,0.999235,0.990486,0.003873,0.422783,-0.000026,0.000025,-0.000004,0.000025,-0.000026,-85.216151,0.000030,
2251,2578,-0.151607233696808,-1.45012796848082,-0.0098377103392977,0.002657,0.003982,0.008020,0.097386,0.253845,321.750663,24.374222,0.999403,0.989015,0.004153,0.464906,0.000008,0.000031,0.000000,0.000031,0.000008,88.868855,0.000041,
2416,2878,3.38315775322105,5.09218855704172,-0.0101771668987567,0.002646,0.004252,0.008110,0.093832,0.275357,316.811711,25.154314,0.999479,0.990398,0.003819,0.448069,-0.000010,0.000027,-0.000014,0.000031,-0.000015,-71.502528,0.000031,
2176,2128,-1.70673794082334,-11.2889084804164,0.0137231382977916,0.002497,0.004180,0.003802,0.104203,0.236444,329.409648,24.146556,0.999087,0.979770,0.005477,0.348206,0.000033,0.000015,0.000020,0.000046,0.000002,32.608973,0.000054,
2146,2008,-2.33934782975749,-13.9231412811062,0.0351661371202567,0.003086,0.004541,0.000737,0.140664,0.250100,331.656195,24.142291,0.998947,0.981548,0.005317,0.446572,0.000040,-0.000006,0.000012,0.000043,-0.000009,14.263854,0.000046,
2236,2458,-0.456383644793199,-4.06919751831561,0.000467417790105173,0.002642,0.003719,0.008181,0.096315,0.257280,323.808885,24.287583,0.999433,0.989092,0.004353,0.396676,0.000004,0.000018,-0.000010,0.000023,-0.000002,-61.900541,0.000026,
2161,2038,-2.01873009828187,-13.2620746466289,0.0186480065599994,0.002527,0.004291,0.002755,0.108827,0.239420,330.950701,24.184682,0.998931,0.983517,0.005148,0.318648,0.000035,0.000008,0.000015,0.000042,0.000001,24.481239,0.000049,
2461,3178,4.30640979873138,11.6115271833227,0.0343969005245981,0.003186,0.004395,0.008223,0.117636,0.268408,312.374278,26.325880,0.999601,0.991356,0.003731,0.414707,0.000012,0.000052,0.000000,0.000052,0.000012,-89.604823,0.000068,
2011,3103,-5.44588680030577,9.94755617072615,0.0390992726136687,0.003049,0.004182,0.007635,0.121635,0.270523,314.667796,24.283721,0.999506,0.994152,0.003243,0.454452,-0.000019,0.000055,0.000012,0.000056,-0.000021,81.091575,0.000057,
2056,2788,-4.42515239882846,3.11643456735564,-0.0174895231144205,0.002683,0.004159,0.007248,0.104697,0.256616,319.024744,24.600873,0.999244,0.988396,0.004216,0.422640,-0.000018,0.000029,-0.000020,0.000037,-0.000025,-69.719622,0.000037,
2476,3223,4.62306686392497,12.5897468636524,0.0319275392503755,0.002819,0.004821,0.005412,0.111421,0.286111,311.641417,26.558179,0.999333,0.991491,0.003718,0.435055,0.000012,0.000033,-0.000011,0.000037,0.000007,-67.134527,0.000048,
2086,3148,-3.82798984791304,10.9288143570979,0.0425815377321328,0.002607,0.004669,0.008174,0.098476,0.282207,313.497911,24.590619,0.999750,0.995167,0.002924,0.442578,-0.000019,0.000044,-0.000005,0.000045,-0.000020,-85.114749,0.000045,
2056,2998,-4.45623436018932,7.67571913334876,0.0117017550924174,0.002669,0.004473,0.007625,0.103283,0.273413,315.853759,24.530093,0.999110,0.989553,0.004054,0.428903,-0.000003,0.000016,0.000010,0.000020,-0.000008,66.630226,0.000020,
2116,3283,-3.20071415986809,13.8560752933036,0.0329650032425093,0.002569,0.004641,0.008336,0.095689,0.268554,311.059819,24.711273,0.999716,0.995129,0.003032,0.456209,-0.000020,0.000053,-0.000011,0.000055,-0.000022,-81.689060,0.000055,
2206,2308,-1.08245095638296,-7.34904506132217,0.00961886137810097,0.002995,0.004504,-0.000259,0.139875,0.239440,326.424629,24.124322,0.999069,0.984225,0.004848,0.432464,0.000001,0.000013,0.000004,0.000014,-0.000001,72.121979,0.000016,
2281,2668,0.485520603218202,0.514376525027956,-0.0141033820740972,0.003293,0.003929,0.007555,0.127707,0.259212,320.236142,24.616687,0.999664,0.990897,0.003951,0.358994,0.000009,0.000033,-0.000003,0.000033,0.000008,-83.223546,0.000044,
2251,2338,-0.10859064693447,-6.69129060853459,0.00210587059694944,0.002329,0.004119,0.005757,0.089592,0.224155,325.725938,24.080501,0.998843,0.982990,0.005287,0.333981,-0.000001,0.000005,-0.000012,0.000014,-0.000011,-51.801348,0.000015,
2011,2893,-5.41714183868059,5.39525417458833,-0.0106659480541111,0.002614,0.004476,0.005873,0.106170,0.256337,317.653831,24.491717,0.999197,0.991980,0.003706,0.410466,0.000015,0.000028,-0.000018,0.000040,0.000003,-54.886080,0.000048,
2101,3013,-3.48253849477455,8.00384407136827,0.00830902461848382,0.003058,0.004522,0.007192,0.121714,0.276256,315.361541,24.600935,0.999409,0.991504,0.003621,0.489046,0.000000,0.000026,0.000010,0.000030,-0.000004,71.559366,0.000032,
2191,2008,-1.35842796431161,-13.9240427116716,0.0312885825965168,0.002612,0.003605,0.006984,0.099086,0.240772,331.433060,23.822990,0.999346,0.983138,0.005174,0.447033,0.000044,0.000013,0.000039,0.000070,-0.000013,34.292700,0.000075,
2341,2503,1.82235099529662,-3.08461567176636,-0.009287056686901,0.002648,0.004414,0.004463,0.107786,0.262639,322.892040,24.049739,0.999286,0.986082,0.004508,0.492197,0.000006,0.000022,0.000015,0.000031,-0.000003,59.202022,0.000035,
2161,3238,-2.2173833951212,12.8852404777078,0.0405895140457915,0.002526,0.004584,0.007042,0.096818,0.275334,311.673501,24.949932,0.999639,0.994131,0.003189,0.452139,-0.000011,0.000032,-0.000018,0.000039,-0.000017,-70.474386,0.000039,
2101,3148,-3.50266761061375,10.9293202056317,0.041792776819193,0.002918,0.004480,0.009297,0.109149,0.273514,313.426925,24.596432,0.999834,0.996379,0.002769,0.492818,-0.000021,0.000040,-0.000005,0.000041,-0.000022,-85.574488,0.000041,
2011,2593,-5.37253666324668,-1.12880377460428,-0.0148852984038967,0.002632,0.004349,0.008163,0.100530,0.276456,322.474071,24.710335,0.999005,0.986615,0.004860,0.449111,-0.000020,0.000032,0.000003,0.000033,-0.000020,86.961343,0.000033,
2221,2188,-0.734523751368595,-9.97548722158606,0.0150498181190528,0.003177,0.004468,0.001640,0.142011,0.247416,328.367940,23.933547,0.998948,0.980792,0.005388,0.401549,0.000009,0.000012,0.000005,0.000015,0.000005,51.805950,0.000022,
2326,2458,1.50388179402821,-4.06734109315993,-0.0111040378440634,0.002961,0.003947,0.006429,0.115323,0.258466,323.617409,23.987722,0.999501,0.987098,0.004449,0.474021,0.000004,0.000016,0.000015,0.000027,-0.000006,55.498820,0.000028,
2071,2878,-4.1134413046018,5.0723596301665,-0.0124473256134365,0.002595,0.004104,0.006218,0.103397,0.254465,317.521020,24.558926,0.999109,0.988929,0.004372,0.453548,-0.000002,0.000046,-0.000003,0.000046,-0.000003,-85.884121,0.000052,
2431,2998,3.68739294925559,7.70135975155863,0.00896769059841063,0.002839,0.004234,0.010265,0.094541,0.274448,315.032885,25.589927,0.999388,0.984901,0.004498,0.431165,-0.000005,0.000005,-0.000008,0.000010,-0.000009,-60.441881,0.000011,
2356,2593,2.13226288972112,-1.11950874992089,-0.0099404004898247,0.003012,0.003746,0.007616,0.113089,0.254283,321.431540,24.311882,0.999195,0.986402,0.004602,0.429623,0.000015,0.000020,0.000005,0.000023,0.000012,60.639568,0.000035,
2041,2968,-4.77686815228118,7.02320538998615,0.0055345932753994,0.002809,0.004589,0.004924,0.117427,0.249723,316.393075,24.438798,0.999464,0.992515,0.003427,0.470693,0.000003,-0.000001,0.000004,0.000005,-0.000003,31.669259,0.000005,
2116,3298,-3.20329223567064,14.1812422525258,0.0260015790314583,0.002739,0.004790,0.005325,0.112624,0.276203,310.772473,24.705497,0.999635,0.993144,0.003444,0.471774,-0.000011,0.000063,-0.000014,0.000065,-0.000014,-79.671492,0.000068,
2146,3163,-2.52993290640456,11.258877980303,0.0412681660164367,0.002667,0.004554,0.010528,0.092929,0.284909,312.960487,24.855454,0.999551,0.991338,0.003716,0.445629,-0.000019,0.000033,-0.000010,0.000034,-0.000021,-79.558516,0.000035,
2416,2893,3.38076573665106,5.41858327361057,-0.00961654638274467,0.002997,0.004328,0.006121,0.117289,0.263636,316.594977,25.223089,0.999501,0.990442,0.003850,0.414928,-0.000011,0.000018,-0.000013,0.000023,-0.000016,-68.567955,0.000024,
2056,3013,-4.45914200796504,8.00121814047021,0.0111976668734428,0.002208,0.004643,0.008507,0.079640,0.293798,315.581604,24.502862,0.998932,0.986693,0.004638,0.470242,-0.000002,0.000023,0.000009,0.000026,-0.000005,71.758686,0.000028,
2191,2248,-1.39913820943413,-8.66170384055762,0.0103922626502708,0.003070,0.004217,0.000571,0.140563,0.222756,327.441289,24.134127,0.998708,0.982724,0.005289,0.398440,0.000014,0.000016,0.000001,0.000017,0.000014,74.120633,0.000031,
2011,2908,-5.41893621969531,5.72033163803806,-0.00310246471400433,0.002604,0.004247,0.005197,0.107524,0.258756,317.474748,24.472640,0.999195,0.991982,0.003667,0.419465,0.000016,-0.000002,-0.000023,0.000031,-0.000018,-34.364635,0.000031,
2086,2893,-3.78958115067997,5.39790035696706,0.000859590127049614,0.002748,0.003854,0.009839,0.099709,0.265953,317.305885,24.563106,0.999427,0.993210,0.003689,0.484455,0.000000,0.000041,-0.000003,0.000041,0.000000,-85.154057,0.000047,
2506,2113,5.50493918424761,-11.6254252041751,0.027924964502688,0.002644,0.004209,0.002967,0.111246,0.235546,329.772229,22.145559,0.999602,0.985801,0.004864,0.383437,0.000032,-0.000066,-0.000022,0.000037,-0.000071,-12.145304,0.000071,
2311,2368,1.19391131050633,-6.03512575829166,-0.00173625185908577,0.002686,0.004178,0.007014,0.100938,0.275161,325.145895,23.823736,0.999620,0.988190,0.004261,0.489457,-0.000011,0.000013,-0.000004,0.000013,-0.000011,-81.551249,0.000014,
2266,2398,0.207299963571128,-5.3783547914294,-0.00844679632950829,0.002600,0.004514,0.004140,0.107394,0.280260,324.660331,24.093337,0.998992,0.984864,0.004931,0.431759,-0.000012,0.000016,-0.000007,0.000018,-0.000013,-76.904962,0.000019,
2476,3238,4.619072783437,12.9156820611544,0.0172091767105371,0.002932,0.004587,0.003470,0.123860,0.260263,311.283821,26.602189,0.999631,0.993462,0.003342,0.420478,0.000008,0.000037,-0.000011,0.000041,0.000004,-71.034623,0.000049,
2266,2638,0.164053418144618,-0.14083126122005,-0.0187299652089905,0.003034,0.004024,0.005819,0.121814,0.249669,320.701208,24.457808,0.999268,0.986962,0.004389,0.462645,0.000011,0.000021,0.000002,0.000022,0.000010,81.651746,0.000033,
2011,2608,-5.37571160186836,-0.800304868486336,-0.0308141349595985,0.002684,0.004067,0.008985,0.100575,0.258877,322.098476,24.745037,0.999517,0.991082,0.003978,0.385739,-0.000020,0.000036,0.000001,0.000036,-0.000020,89.144177,0.000036,
2221,2428,-0.776236441781382,-4.72830072557622,0.0126545328064367,0.003144,0.004355,0.005016,0.129943,0.267070,324.464973,24.046760,0.999653,0.990284,0.004020,0.643456,0.000009,0.000007,-0.000015,0.000023,-0.000007,-42.977836,0.000023,
2461,3193,4.30317198695002,11.9363462893262,0.0387081615829175,0.002808,0.004308,0.010620,0.091183,0.271024,312.138018,26.335115,0.999578,0.990708,0.003761,0.460950,0.000008,0.000055,-0.000003,0.000055,0.000007,-85.871406,0.000069,
2041,2743,-4.74417308661038,2.13730603402623,-0.0227671501360192,0.002702,0.004022,0.008380,0.102598,0.258794,319.795784,24.577106,0.999360,0.990909,0.003906,0.459484,-0.000029,0.000031,-0.000012,0.000033,-0.000032,-79.246539,0.000037,
2101,3028,-3.48509233825772,8.32920810571484,0.0117203130008079,0.002794,0.004560,0.008302,0.106286,0.279389,315.130186,24.609728,0.999319,0.990938,0.003741,0.483795,-0.000008,0.000023,0.000007,0.000024,-0.000009,78.030253,0.000025,
2281,2488,0.517108346968445,-3.41426887876175,-0.00908394635774812,0.002343,0.003949,0.011910,0.069377,0.272112,323.140568,24.050388,0.999718,0.990466,0.004014,0.595311,0.000005,0.000023,-0.000001,0.000023,0.000005,-88.230970,0.000030,
2191,2023,-1.36070954393258,-13.5943563304946,0.0311038391149623,0.002779,0.003562,0.005933,0.109980,0.237063,331.201429,23.887655,0.999052,0.983040,0.005178,0.396866,0.000042,0.000032,0.000035,0.000072,0.000002,41.158284,0.000085,
2281,2683,0.482410194282139,0.840560336838372,-0.0174838753643485,0.002993,0.004239,0.005618,0.120494,0.258322,319.957413,24.559770,0.999640,0.991206,0.003828,0.443174,0.000006,0.000044,-0.000009,0.000046,0.000004,-77.777002,0.000055,
2176,2143,-1.7086630046676,-10.9614836959481,0.0231167020588146,0.002814,0.003545,0.009702,0.100286,0.256751,329.243005,24.128514,0.998973,0.979943,0.005419,0.401444,0.000025,0.000004,0.000015,0.000033,-0.000004,27.426896,0.000036,
2401,2863,3.05982123025074,4.76515407711349,-0.0115748245510758,0.002901,0.004367,0.008143,0.105766,0.274729,317.039979,25.093430,0.999474,0.989763,0.003942,0.438631,-0.000013,0.000031,-0.000017,0.000037,-0.000019,-71.020537,0.000037,
2446,3103,3.99405727604423,9.98180030683028,0.0287154893512707,0.002581,0.004329,0.010524,0.081394,0.265081,313.491568,25.954706,0.999693,0.992933,0.003575,0.458217,0.000015,0.000056,0.000008,0.000057,0.000014,79.125985,0.000076,
2131,3118,-2.84817601169908,10.2823818193379,0.0302819496404254,0.002693,0.004338,0.007812,0.102490,0.261445,313.675972,24.760730,0.999722,0.995180,0.003119,0.436587,-0.000023,0.000033,-0.000006,0.000033,-0.000024,-83.899738,0.000034,
2371,2683,2.43993582128796,0.845346599597178,-0.0315669752429812,0.002821,0.003972,0.007691,0.103930,0.246449,319.782547,24.550441,0.999402,0.988186,0.004233,0.415698,-0.000005,0.000049,-0.000011,0.000051,-0.000007,-78.627584,0.000055,
2386,2803,2.74348979103828,3.45915648871951,-0.0277255900496129,0.002480,0.004345,0.006176,0.093704,0.263445,317.858850,24.847843,0.999857,0.994832,0.003376,0.478639,-0.000003,0.000052,-0.000005,0.000052,-0.000003,-85.039188,0.000058,
2116,3043,-3.16155664977015,8.65624462317055,0.0257677754499923,0.002570,0.004280,0.008627,0.094689,0.276404,314.920274,24.804543,0.999629,0.992760,0.003469,0.335184,-0.000011,0.000012,0.000003,0.000013,-0.000011,83.697905,0.000014,
2236,2278,-0.424608031190839,-8.00499060891621,0.00776382428972511,0.002562,0.003335,0.008406,0.091586,0.228073,326.773267,23.977286,0.999071,0.983046,0.005134,0.403237,0.000003,0.000002,-0.000009,0.000012,-0.000006,-43.059197,0.000012,
2341,2518,1.81988210759976,-2.75646865726931,-0.00612992453812922,0.002868,0.004497,0.005953,0.112759,0.267921,322.679697,24.171612,0.998937,0.982902,0.004886,0.413233,0.000005,0.000012,0.000011,0.000020,-0.000003,53.747821,0.000022,
2026,2668,-5.05773149261212,0.503922774060122,-0.0218152971250447,0.003191,0.004020,0.006036,0.131744,0.242216,321.139550,24.553737,0.999356,0.989663,0.003991,0.508613,-0.000023,0.000028,-0.000004,0.000028,-0.000023,-86.018366,0.000030,
2056,2803,-4.42750198418372,3.4428474171456,-0.0218230668243677,0.002878,0.004075,0.006328,0.116249,0.254092,318.756572,24.593044,0.999267,0.989858,0.004080,0.422642,-0.000009,0.000035,-0.000015,0.000039,-0.000013,-72.563617,0.000040,
2041,2983,-4.77911071505536,7.34887183254127,0.0121853585413305,0.002795,0.004233,0.009830,0.103040,0.254914,316.189992,24.482724,0.999261,0.991595,0.003712,0.423369,-0.000003,-0.000003,0.000005,0.000002,-0.000008,44.919260,0.000008,
2011,3118,-5.44847664037146,10.2734506249318,0.0326276043236362,0.003113,0.004602,0.007049,0.126308,0.277855,314.373408,24.294039,0.999588,0.994780,0.003103,0.438378,-0.000016,0.000083,0.000013,0.000085,-0.000018,82.548501,0.000090,
2026,2908,-5.09338516269999,5.72077740193681,0.00407684385191942,0.002568,0.004201,0.007517,0.099271,0.261574,317.430225,24.514158,0.999328,0.991669,0.003700,0.409985,0.000002,0.000010,-0.000025,0.000031,-0.000019,-49.138711,0.000031,
2161,2053,-2.02056893549327,-12.9347004183478,0.0280607325279902,0.002613,0.003936,0.004517,0.107292,0.246880,330.787207,24.145995,0.999084,0.983108,0.005088,0.377744,0.000032,0.000013,0.000018,0.000043,0.000002,31.197246,0.000051,
2071,2893,-4.11616291180452,5.39850769735681,-0.00854044224831796,0.002237,0.004008,0.009998,0.076088,0.262978,317.282363,24.603496,0.999362,0.991505,0.003901,0.413989,-0.000001,0.000043,-0.000007,0.000044,-0.000002,-81.600641,0.000049,
2146,2023,-2.34293962563901,-13.5929858959744,0.0334861213692079,0.002660,0.003371,0.010254,0.092076,0.254013,331.352795,24.224398,0.998506,0.981163,0.005415,0.380232,0.000031,0.000004,0.000012,0.000036,-0.000001,21.234125,0.000041,
2131,1993,-2.66557858157538,-14.2505976396172,0.0315793268957236,0.002289,0.003745,0.005072,0.091013,0.225504,331.875358,24.340627,0.999127,0.979241,0.005477,0.317951,0.000053,0.000015,0.000014,0.000057,0.000010,17.760829,0.000073,
2296,2548,0.832987709557738,-2.10196730322482,-0.0158171551432815,0.002612,0.004557,0.007786,0.095499,0.282921,322.119883,24.295680,0.999374,0.988104,0.004363,0.452242,0.000014,0.000012,-0.000003,0.000016,0.000010,-36.297685,0.000026,
2236,2473,-0.458728441779432,-3.74308902167601,0.00272548457110133,0.002696,0.004015,0.007485,0.101161,0.269312,323.590490,24.191564,0.999506,0.989977,0.004169,0.527276,0.000009,0.000022,-0.000002,0.000022,0.000008,-82.780697,0.000031,
2206,2323,-1.08491575801508,-7.02086008963322,0.0082270511732645,0.003322,0.004508,0.001795,0.148395,0.248220,326.179466,24.135940,0.999164,0.985009,0.004604,0.448080,0.000004,0.000003,0.000002,0.000005,0.000002,40.565629,0.000007,
2296,2743,0.797920097978391,2.14788616094742,-0.0164937598502206,0.003035,0.004403,0.006157,0.120476,0.249126,318.972642,24.685064,0.999443,0.989217,0.004101,0.425588,0.000013,0.000047,-0.000011,0.000050,0.000010,-74.107382,0.000064,
2356,2608,2.12979333466133,-0.792585650870613,-0.0071222369178372,0.003164,0.004168,0.007639,0.120171,0.276801,321.218516,24.328950,0.999200,0.986279,0.004579,0.474296,0.000012,0.000016,0.000004,0.000019,0.000010,58.048021,0.000029,
2056,3028,-4.46116442744428,8.32659412242293,0.0085760848308496,0.002589,0.004801,0.006534,0.102762,0.280447,315.338449,24.487877,0.999430,0.991391,0.003760,0.465906,-0.000010,0.000024,0.000007,0.000025,-0.000011,78.114610,0.000025,
2086,2908,-3.79204103305304,5.72428879493778,-0.00104636773795619,0.002699,0.004153,0.008146,0.102453,0.267234,317.048479,24.598493,0.999404,0.991914,0.003795,0.448953,-0.000001,0.000025,-0.000008,0.000027,-0.000004,-73.721733,0.000029,
2476,3253,4.61539417610381,13.240939441269,0.0149287368154205,0.002737,0.004390,0.006501,0.103266,0.255147,310.997586,26.638168,0.999674,0.992844,0.003350,0.434296,0.000004,0.000042,-0.000019,0.000049,-0.000003,-67.669502,0.000055,
2311,2383,1.19216352548662,-5.70784439412825,0.00524759337059777,0.002931,0.004316,0.003856,0.123001,0.262295,324.983818,23.877904,0.999367,0.985927,0.004767,0.455898,-0.000010,0.000015,-0.000002,0.000015,-0.000010,-84.899121,0.000015,
2086,3163,-3.83121268425278,11.2546657327823,0.0319081698615378,0.002417,0.004524,0.007040,0.092942,0.269100,313.157936,24.606794,0.999767,0.995296,0.002962,0.411345,-0.000027,0.000054,-0.000009,0.000055,-0.000028,-84.017326,0.000055,
2101,3163,-3.50543042094214,11.255099773626,0.0339267157903578,0.002912,0.004608,0.006168,0.118017,0.256670,313.124740,24.626887,0.999741,0.994901,0.003034,0.445481,-0.000027,0.000050,-0.000006,0.000050,-0.000028,-85.435065,0.000051,
2101,3043,-3.4872733005653,8.65489038848176,0.0178363431326716,0.002594,0.004435,0.007233,0.100157,0.267098,314.930512,24.684431,0.999577,0.992269,0.003504,0.396956,-0.000013,0.000014,0.000002,0.000015,-0.000014,86.302492,0.000016,
2206,2113,-1.04904143987313,-11.6198995145355,0.0223289817993191,0.002778,0.004072,0.004783,0.113639,0.263117,329.644713,23.860974,0.998773,0.982117,0.005238,0.468741,0.000028,0.000022,0.000015,0.000041,0.000010,39.412926,0.000054,
2041,2758,-4.74599232314842,2.46218362366483,-0.0167269648867432,0.002874,0.003843,0.009387,0.107723,0.271903,319.608564,24.480456,0.999279,0.990489,0.004132,0.561730,-0.000026,0.000016,-0.000022,0.000026,-0.000036,-67.001562,0.000037,
2071,3088,-4.14465596709575,9.62737616288597,0.0234139580265946,0.002707,0.004194,0.009493,0.099381,0.264474,314.397720,24.484034,0.999301,0.990039,0.003901,0.484109,-0.000020,0.000031,-0.000002,0.000031,-0.000020,-87.290951,0.000031,
2041,2998,-4.78141651632904,7.67446699656124,0.0133272507964648,0.002590,0.004228,0.007114,0.101246,0.259587,315.953455,24.486514,0.999133,0.989775,0.004003,0.415996,-0.000005,0.000011,0.000014,0.000019,-0.000013,59.663135,0.000020,
2281,2698,0.47987465424772,1.1673332252858,-0.0160319950313124,0.002824,0.004458,0.002359,0.123689,0.247754,319.729021,24.611035,0.999788,0.992952,0.003580,0.409627,0.000008,0.000042,-0.000009,0.000044,0.000005,-75.809012,0.000055,
2326,2473,1.50151494283411,-3.7409441144958,0.00113029562214706,0.002622,0.004002,0.008740,0.091848,0.258417,323.453414,24.024287,0.999499,0.987182,0.004301,0.472687,0.000007,0.000010,0.000017,0.000025,-0.000008,47.916448,0.000026,
2431,3013,3.68454528316603,8.02751599378772,0.0076118485465031,0.002788,0.004363,0.006727,0.105290,0.257399,314.786863,25.661430,0.999330,0.985850,0.004380,0.391881,-0.000001,0.000013,-0.000012,0.000019,-0.000008,-59.816216,0.000020,
2506,2128,5.50142325155813,-11.2969002681167,0.0308506087270644,0.002720,0.003183,0.011369,0.081890,0.251738,329.525068,22.160573,0.999603,0.984114,0.005072,0.448909,0.000031,-0.000060,-0.000015,0.000033,-0.000062,-9.008201,0.000062,
2191,2038,-1.36411981465631,-13.2626769111021,0.0202448850878341,0.002483,0.004105,0.003813,0.103264,0.239399,330.862694,24.013809,0.999096,0.985496,0.004862,0.291612,0.000042,0.000024,0.000027,0.000061,0.000005,36.118981,0.000074,
2131,2008,-2.66673263613875,-13.9227661369913,0.0357587913388784,0.003191,0.003731,0.004408,0.134267,0.243610,331.713245,24.257442,0.999190,0.983253,0.005294,0.428135,0.000026,-0.000006,-0.000001,0.000026,-0.000006,-1.173325,0.000027,
2281,2503,0.514860276215302,-3.0845047849545,-0.0104021498779616,0.002756,0.003890,0.009799,0.095385,0.273892,322.911376,24.277694,0.999725,0.991401,0.003891,0.398730,0.000005,0.000023,0.000000,0.000023,0.000005,89.007402,0.000030,
2251,2593,-0.154336561109442,-1.12268123618647,-0.0157892397082833,0.002908,0.004066,0.006638,0.113490,0.254743,321.473770,24.378922,0.999212,0.986797,0.004551,0.485497,0.000011,0.000024,0.000001,0.000024,0.000011,86.346335,0.000036,
2191,2263,-1.40247659938615,-8.33187711595404,0.00199343714081124,0.002814,0.004739,0.000309,0.129834,0.261878,327.118205,24.172962,0.998877,0.981000,0.005408,0.415970,0.000015,0.000013,0.000004,0.000019,0.000010,40.637518,0.000029,
2221,2443,-0.779582012147085,-4.39747958256991,0.000476516565186103,0.003117,0.004352,0.002976,0.135236,0.254244,324.124869,24.261347,0.999199,0.987112,0.004636,0.436817,0.000007,0.000016,-0.000013,0.000025,-0.000002,-54.547458,0.000028,
2146,3178,-2.53211875737074,11.5837197637178,0.0436167534235778,0.002776,0.004666,0.009402,0.101416,0.284383,312.743447,24.849215,0.999454,0.990457,0.003762,0.457858,-0.000021,0.000032,-0.000012,0.000035,-0.000023,-78.253934,0.000035,
2161,3253,-2.22083131183226,13.2104732064199,0.0293739035835188,0.002487,0.004434,0.008562,0.090320,0.269820,311.327465,24.927590,0.999603,0.993957,0.003264,0.477592,-0.000007,0.000031,-0.000015,0.000037,-0.000013,-70.545910,0.000037,
2416,2908,3.37775496238023,5.74430092897336,-0.0100481154493082,0.003095,0.004093,0.007727,0.115790,0.249207,316.345240,25.229415,0.999593,0.990764,0.003792,0.441506,-0.000011,0.000011,-0.000012,0.000016,-0.000016,-66.973040,0.000018,
2026,2683,-5.06186725928933,0.833166743055315,-0.0379225736066928,0.002418,0.004106,0.008081,0.090577,0.256618,320.720371,24.653191,0.999797,0.995476,0.003042,0.414608,-0.000016,0.000033,0.000003,0.000033,-0.000016,86.551328,0.000033,
2236,2488,-0.462203916440888,-3.4139691543032,-0.00807233260354678,0.002697,0.003771,0.008653,0.097337,0.258581,323.253292,24.279282,0.999487,0.988150,0.004271,0.451520,0.000010,0.000030,-0.000006,0.000032,0.000008,-74.042661,0.000043,
2146,2038,-2.34573158254866,-13.2630888951729,0.0260790827692858,0.002550,0.003604,0.006858,0.097380,0.234250,331.055847,24.247923,0.998843,0.982204,0.005343,0.348687,0.000031,0.000000,0.000015,0.000037,-0.000006,21.494263,0.000040,
2266,2653,0.161102703556089,0.18717111713449,-0.0185566321977717,0.002990,0.004046,0.009011,0.109258,0.260992,320.445977,24.575742,0.999521,0.989226,0.004135,0.382110,0.000012,0.000024,0.000005,0.000026,0.000011,70.593671,0.000037,
2251,2353,-0.110700312010611,-6.3652406687669,0.0159513642054208,0.002366,0.003206,0.012795,0.068000,0.237920,325.578095,24.052402,0.999055,0.984238,0.005078,0.400602,-0.000005,0.000010,-0.000013,0.000018,-0.000013,-60.418719,0.000018,
2041,2773,-4.74842283744835,2.79035116726777,-0.026500808592175,0.003011,0.004564,0.003881,0.129520,0.261649,319.304673,24.588924,0.999111,0.989152,0.004214,0.435637,-0.000019,0.000014,-0.000024,0.000027,-0.000032,-62.179323,0.000034,
2011,2623,-5.37722733583921,-0.475347969978422,-0.0215402806890665,0.002722,0.004160,0.006960,0.107904,0.267099,321.941104,24.650842,0.999534,0.991328,0.003835,0.476748,-0.000027,-0.000007,-0.000007,-0.000005,-0.000030,-71.704558,0.000037,
2221,2203,-0.737567595609011,-9.6467844244615,0.0103622789914652,0.002945,0.004702,0.000391,0.135483,0.252537,328.080867,23.919345,0.999132,0.982929,0.005096,0.442462,0.000006,0.000017,0.000003,0.000018,0.000005,76.904277,0.000024,
2011,3133,-5.45089691933646,10.598698505226,0.0288588794915654,0.003128,0.004551,0.005425,0.131426,0.274424,314.102288,24.276981,0.999561,0.993853,0.003268,0.438984,-0.000019,0.000085,0.000006,0.000086,-0.000020,86.514669,0.000090,
2086,3178,-3.83243406182617,11.5780175350405,0.0434378882745818,0.002846,0.004571,0.006229,0.115135,0.270697,313.032030,24.514933,0.999696,0.995074,0.002964,0.502853,-0.000032,0.000057,-0.000010,0.000058,-0.000033,-83.492751,0.000058,
2401,2878,3.05638696646338,5.09211871717603,-0.0165403956314094,0.002776,0.004362,0.008023,0.100507,0.287374,316.747994,25.145568,0.999459,0.991475,0.003682,0.444449,-0.000017,0.000027,-0.000015,0.000032,-0.000021,-73.220956,0.000032,
2476,3268,4.61193091968807,13.5668785276213,0.012987479738058,0.002735,0.004259,0.009570,0.091432,0.256750,310.722507,26.736280,0.999844,0.995013,0.002901,0.392769,-0.000003,0.000040,-0.000017,0.000046,-0.000009,-70.610914,0.000049,
2341,2533,1.81727021352269,-2.4291992457601,-0.00914571453466806,0.003208,0.004390,0.004783,0.132406,0.259877,322.431057,24.175538,0.999162,0.983915,0.004800,0.438859,0.000007,0.000004,0.000003,0.000009,0.000002,31.852857,0.000012,
2116,3058,-3.16408008429455,8.979867454787,0.023769736131328,0.002615,0.004434,0.008331,0.097604,0.259933,314.662796,24.644234,0.999614,0.992673,0.003563,0.481817,-0.000011,0.000013,-0.000004,0.000013,-0.000012,-80.701368,0.000015,
2011,3163,-5.45510690683416,11.2476842476057,0.0454517581383698,0.002668,0.004532,0.007289,0.105121,0.275555,313.725540,24.253869,0.999487,0.993306,0.003487,0.436666,-0.000039,0.000090,-0.000014,0.000092,-0.000041,-83.703357,0.000092,
2281,2713,0.477251092304574,1.49326013385814,-0.0127143267072825,0.002764,0.004369,0.003700,0.116466,0.260028,319.506021,24.581337,0.999717,0.992561,0.003614,0.479664,0.000009,0.000041,-0.000010,0.000044,0.000006,-73.666195,0.000055,
2371,2698,2.43753087833163,1.17103487447721,-0.0241604481585682,0.002715,0.004025,0.007845,0.098530,0.255155,319.595488,24.533797,0.999326,0.989494,0.003955,0.482480,-0.000003,0.000049,-0.000011,0.000051,-0.000005,-78.117719,0.000056,
2101,3178,-3.50804581732686,11.5795749143075,0.0291123783585476,0.002989,0.004452,0.005097,0.124712,0.248625,312.846366,24.551494,0.999783,0.995389,0.002889,0.513189,-0.000031,0.000052,-0.000007,0.000053,-0.000032,-85.104128,0.000053,
2176,2158,-1.71489580089273,-10.6262286201111,-0.0274902547667466,0.002180,0.004112,0.004695,0.086901,0.247736,328.565585,24.218508,0.999482,0.958578,0.006898,0.319756,0.000026,-0.000005,0.000012,0.000030,-0.000009,18.395346,0.000031,
2086,2923,-3.7946109554589,6.05047482139236,-0.00387862369746017,0.002647,0.004335,0.007197,0.102883,0.271083,316.781044,24.610658,0.999367,0.990725,0.003858,0.439313,0.000000,0.000021,-0.000001,0.000021,0.000000,-86.083241,0.000025,
2266,2413,0.205297557112697,-5.05256228650489,0.0037966576367694,0.002521,0.004067,0.006162,0.096918,0.264992,324.510209,24.072496,0.999205,0.986176,0.004647,0.464025,-0.000010,0.000017,-0.000010,0.000020,-0.000013,-72.349981,0.000021,
2026,2923,-5.09566205497047,6.04644350376314,0.00276928484208838,0.002672,0.004345,0.007585,0.103981,0.272316,317.180130,24.480788,0.999372,0.992159,0.003648,0.444021,0.000008,0.000001,-0.000011,0.000016,-0.000007,-36.755176,0.000016,
2071,3103,-4.14621320023299,9.95205227339265,0.0333423115723122,0.002860,0.004152,0.008394,0.109586,0.257351,314.246321,24.497642,0.999544,0.992068,0.003502,0.459164,-0.000019,0.000033,-0.000001,0.000033,-0.000019,-88.931256,0.000034,
2131,2023,-2.6705969090267,-13.5901700174568,0.0214698246197145,0.002725,0.004028,0.005376,0.110203,0.248303,331.328727,24.418387,0.999032,0.983039,0.005388,0.282097,0.000017,0.000001,0.000000,0.000017,0.000001,0.129779,0.000021,
2161,2068,-2.02317567098694,-12.6065623884065,0.0323266180529913,0.002442,0.003380,0.008660,0.086618,0.250310,330.561573,24.128137,0.999400,0.983889,0.004988,0.412636,0.000032,0.000018,0.000023,0.000049,0.000002,36.490488,0.000057,
2446,3118,3.99155110128894,10.3077345574192,0.0255982775670418,0.003015,0.004470,0.006704,0.115649,0.256984,313.253803,26.013478,0.999624,0.991468,0.003732,0.442681,0.000015,0.000063,0.000007,0.000064,0.000014,81.667469,0.000083,
2026,2698,-5.06411666964661,1.15891375583956,-0.0370379196863837,0.002304,0.004352,0.006842,0.088834,0.262838,320.483387,24.585544,0.999802,0.995083,0.003120,0.479008,-0.000007,0.000025,0.000007,0.000026,-0.000008,78.454328,0.000027,
2296,2758,0.794871827582895,2.47443594164915,-0.0209365314811407,0.003046,0.004113,0.006027,0.121334,0.239071,318.692480,24.686715,0.999404,0.989352,0.004128,0.443956,0.000013,0.000056,-0.000007,0.000057,0.000011,-80.488334,0.000074,
2056,3043,-4.46357435423569,8.65163914743046,0.0115653304936814,0.002511,0.004194,0.008963,0.092205,0.275518,315.108639,24.475358,0.999687,0.994267,0.003224,0.467246,-0.000017,0.000015,0.000001,0.000015,-0.000017,88.181233,0.000019,
2431,3028,3.68176997341007,8.35316320961586,0.010338578618132,0.002659,0.004266,0.005419,0.104130,0.245570,314.563240,25.712212,0.999416,0.986978,0.004307,0.378296,0.000003,0.000023,-0.000012,0.000028,-0.000003,-65.268301,0.000031,
2161,3268,-2.22349806435705,13.5354529530258,0.02670959849263,0.002583,0.004373,0.008942,0.093558,0.268982,311.062655,24.929586,0.999571,0.993885,0.003350,0.483322,-0.000004,0.000037,-0.000011,0.000040,-0.000007,-75.599301,0.000043,
2476,3283,4.61012543629824,13.8913408358947,0.0262340731846962,0.002865,0.004402,0.009537,0.097572,0.258316,310.593565,26.784463,0.999842,0.995559,0.002901,0.401368,-0.000008,0.000030,-0.000014,0.000035,-0.000013,-71.439576,0.000035,
2506,2143,5.49833966033791,-10.966823547984,0.0280746946064596,0.002730,0.003403,0.008122,0.095006,0.214725,329.272450,22.314072,0.999121,0.975725,0.005956,0.322193,0.000033,-0.000040,-0.000004,0.000033,-0.000040,-3.012118,0.000043,
2311,2398,1.19129580491035,-5.3826769267016,0.0245391518619158,0.003387,0.004223,0.004179,0.142779,0.262038,324.922796,23.847676,0.999426,0.986261,0.004817,0.519192,-0.000006,0.000022,0.000003,0.000023,-0.000006,83.871104,0.000024,
2401,2893,3.05417625138123,5.41767319422119,-0.0103124901724527,0.002771,0.004570,0.005254,0.110335,0.274224,316.565463,25.179906,0.999523,0.991172,0.003750,0.441961,-0.000017,0.000020,-0.000014,0.000024,-0.000022,-71.770951,0.000027,
2086,3193,-3.83490919881232,11.9038329273572,0.0444249832012815,0.002770,0.004935,0.006639,0.110490,0.277465,312.790066,24.585366,0.999432,0.993613,0.003220,0.436554,-0.000033,0.000057,-0.000016,0.000060,-0.000036,-80.187782,0.000060,
2221,2458,-0.782522300533397,-4.07019934586721,-8.62826040020082E-05,0.002790,0.004163,0.002749,0.120885,0.249906,323.863455,24.257861,0.998887,0.984616,0.005103,0.456506,0.000009,0.000017,-0.000013,0.000027,0.000000,-53.573934,0.000031,
2131,2038,-2.67330013648578,-13.2626453501709,0.019242736727449,0.002669,0.003415,0.007333,0.101612,0.232996,331.062096,24.280148,0.999151,0.983275,0.005409,0.414333,0.000018,-0.000001,0.000006,0.000020,-0.000003,14.698697,0.000021,
2236,2293,-0.427488790493786,-7.67660658390608,0.00206459535905879,0.002560,0.003710,0.006574,0.097551,0.231403,326.489806,23.959487,0.999001,0.984749,0.004858,0.447728,0.000000,0.000001,-0.000003,0.000004,-0.000003,-47.885845,0.000004,
2086,2938,-3.79593724195855,6.37566974010954,0.0045277320432433,0.002998,0.004856,0.004161,0.128000,0.287922,316.632210,24.602487,0.999312,0.990788,0.003886,0.462885,-0.000001,0.000020,0.000000,0.000020,-0.000001,89.220804,0.000023,
2041,2788,-4.75089776506027,3.11629087779323,-0.0205455518765234,0.002649,0.004199,0.006665,0.105043,0.260893,319.086689,24.611251,0.999228,0.988012,0.004174,0.404867,-0.000028,0.000032,-0.000025,0.000041,-0.000036,-70.215157,0.000045,
2011,2638,-5.37995777922714,-0.147981964969489,-0.0279923610514174,0.002542,0.004261,0.005840,0.102634,0.251554,321.639338,24.671719,0.999059,0.986487,0.004528,0.428935,-0.000029,0.000007,0.000003,0.000007,-0.000029,84.444642,0.000031,
2026,2713,-5.06599808659912,1.48547511996087,-0.0359374304927087,0.002468,0.004429,0.004190,0.103707,0.263348,320.264242,24.604331,0.999702,0.993527,0.003509,0.451288,-0.000009,0.000031,0.000001,0.000031,-0.000009,88.260686,0.000032,
2101,3058,-3.48918561608548,8.97899307583587,0.023047229141298,0.002720,0.004580,0.006208,0.109038,0.271018,314.738826,24.594924,0.999687,0.993659,0.003295,0.490965,-0.000014,0.000015,-0.000004,0.000015,-0.000015,-81.550587,0.000017,
2476,3298,4.60603331804533,14.217755500827,0.0105194054599451,0.002864,0.004963,0.006430,0.109679,0.287464,310.226335,26.831925,0.999620,0.992898,0.003543,0.438172,-0.000019,0.000028,-0.000027,0.000040,-0.000032,-65.512375,0.000042,
2056,2818,-4.42934395214447,3.76889958519038,-0.0208693240696789,0.003194,0.004431,0.004427,0.136328,0.269924,318.540896,24.578990,0.999194,0.989308,0.004164,0.446852,-0.000012,0.000036,-0.000009,0.000038,-0.000013,-79.557383,0.000039,
2071,3118,-4.14767063342444,10.276795911954,0.0436831361447503,0.003101,0.004216,0.007470,0.123356,0.257374,314.101767,24.515437,0.999750,0.993791,0.003087,0.437123,-0.000022,0.000046,0.000000,0.000046,-0.000022,-89.621404,0.000046,
2131,3133,-2.85049819683888,10.6071516177941,0.0352286142495473,0.002635,0.004072,0.009204,0.095480,0.237365,313.465647,24.776648,0.999645,0.994660,0.003174,0.400920,-0.000020,0.000029,-0.000006,0.000030,-0.000021,-83.325629,0.000031,
2461,3208,4.30029298191909,12.2623416145434,0.0374337753422083,0.002932,0.004773,0.009143,0.102620,0.278043,311.892195,26.419277,0.999526,0.988868,0.004036,0.436980,0.000005,0.000051,-0.000010,0.000053,0.000003,-78.744363,0.000064,
2071,2908,-4.11843617473459,5.72421399630682,-0.00681935676368539,0.002246,0.004342,0.010303,0.075756,0.277343,317.052425,24.589583,0.999516,0.991810,0.003696,0.438564,-0.000001,0.000024,-0.000011,0.000028,-0.000006,-69.141971,0.000030,
2296,2563,0.831003311430329,-1.77557947640992,-0.00528626603653493,0.002705,0.003967,0.009457,0.093921,0.261383,321.963310,24.361484,0.999010,0.986379,0.004905,0.395465,0.000012,0.000012,-0.000006,0.000018,0.000006,-45.180271,0.000025,
2371,2713,2.43468831888548,1.49842566764958,-0.025693851601261,0.002674,0.004135,0.005409,0.105367,0.254002,319.345152,24.614449,0.999506,0.990430,0.003804,0.441982,-0.000007,0.000049,-0.000010,0.000051,-0.000009,-80.434470,0.000054,
2281,2518,0.512422423869705,-2.75901141031581,-0.00768189441106415,0.002704,0.003737,0.008331,0.097832,0.249513,322.694550,24.181308,0.999777,0.991630,0.003834,0.499440,0.000008,0.000018,0.000000,0.000018,0.000008,89.621141,0.000026,
2386,2818,2.74090686486226,3.78552225968383,-0.0241507559676393,0.002592,0.004194,0.007179,0.095118,0.238214,317.645778,24.929792,0.999712,0.991102,0.003880,0.414424,-0.000005,0.000042,-0.000009,0.000043,-0.000006,-79.631909,0.000047,
2506,2158,5.49536279944846,-10.6373987436215,0.0262427131074787,0.002640,0.004227,0.003507,0.109032,0.226487,329.028631,22.375074,0.999193,0.977326,0.005663,0.337026,0.000023,-0.000029,-0.000025,0.000033,-0.000039,-22.234876,0.000042,
2416,2923,3.3750437944974,6.07115347713177,-0.00793209867350697,0.003001,0.004375,0.005685,0.119056,0.251649,316.120824,25.345791,0.999648,0.991367,0.003748,0.374877,-0.000006,-0.000001,-0.000015,0.000012,-0.000019,-50.135402,0.000019,
2041,3013,-4.78431604194647,8.00114110284346,0.00790287491213348,0.002347,0.004550,0.006912,0.090812,0.292136,315.652799,24.521783,0.999403,0.991271,0.003837,0.404956,-0.000005,0.000022,0.000015,0.000028,-0.000011,66.001272,0.000028,
2236,2503,-0.465139506015426,-3.08635817206506,-0.0116366731900257,0.002626,0.004035,0.008562,0.094485,0.260327,322.977860,24.288348,0.999435,0.987105,0.004395,0.466540,0.000012,0.000033,-0.000002,0.000033,0.000012,-85.796928,0.000047,
2326,2488,1.49890152858768,-3.41318765434718,0.000788480526182411,0.002712,0.004117,0.007319,0.100919,0.263063,323.216461,24.068780,0.999424,0.986949,0.004337,0.468547,0.000010,0.000022,0.000015,0.000032,0.000000,55.958309,0.000037,
2491,1993,5.20270751816009,-14.2622684609922,0.0405689912097955,0.002907,0.003742,0.006050,0.111278,0.243264,331.768302,21.759548,0.998976,0.965702,0.007039,0.368121,0.000086,-0.000121,0.000110,0.000133,-0.000168,23.269238,0.000178,
2041,2803,-4.75312940114051,3.44197713161336,-0.020712250645488,0.002703,0.004221,0.006154,0.108939,0.260065,318.845989,24.566914,0.999366,0.990189,0.003831,0.440634,-0.000016,0.000036,-0.000019,0.000043,-0.000022,-71.819187,0.000043,
2251,2368,-0.114685070504226,-6.03574461322457,0.00403761801237579,0.002132,0.002650,0.016253,0.045781,0.228261,325.213822,24.116256,0.999412,0.987587,0.004710,0.352650,-0.000009,0.000018,-0.000013,0.000023,-0.000014,-67.836976,0.000024,
2011,3178,-5.45711339829774,11.5722322385166,0.0473375332529713,0.002780,0.004526,0.005858,0.114144,0.264327,313.505620,24.225107,0.999743,0.995270,0.002799,0.441048,-0.000041,0.000090,-0.000024,0.000094,-0.000045,-79.958461,0.000094,
2176,2173,-1.71944098332589,-10.2920890368654,-0.0605332657154349,0.002404,0.004814,0.005045,0.096361,0.296239,328.056593,24.347812,0.999779,0.924310,0.009004,0.255512,0.000021,-0.000001,0.000012,0.000026,-0.000007,24.375971,0.000027,
2401,2908,3.0511545466933,5.74418431795324,-0.00809804013778148,0.002760,0.004175,0.008551,0.097719,0.255163,316.326374,25.282822,0.999591,0.990832,0.003794,0.365083,-0.000017,0.000013,-0.000013,0.000017,-0.000022,-69.875280,0.000023,
2146,3193,-2.5347563580632,11.9088824472445,0.042404918156592,0.002650,0.004494,0.007949,0.099967,0.270893,312.486586,24.868140,0.999515,0.992524,0.003425,0.431879,-0.000023,0.000033,-0.000016,0.000037,-0.000027,-74.640194,0.000039,
2191,2053,-1.36712343641316,-12.9343042473054,0.0174464643308738,0.002241,0.003906,0.004866,0.088822,0.235647,330.584676,23.941678,0.999211,0.982290,0.005112,0.377981,0.000039,0.000022,0.000025,0.000057,0.000004,35.730629,0.000068,
2011,2653,-5.38157652520403,0.178474818400687,-0.0365306263076377,0.003374,0.004350,0.000987,0.154135,0.227458,321.377034,24.605685,0.998984,0.986202,0.004599,0.459578,-0.000031,0.000018,0.000001,0.000018,-0.000031,88.948186,0.000032,
2026,2728,-5.06733444047225,1.81044406409735,-0.0203559122662114,0.002710,0.004381,0.008290,0.103587,0.271604,320.151346,24.589908,0.999539,0.991462,0.003793,0.464002,-0.000014,0.000038,0.000000,0.000038,-0.000014,89.644460,0.000038,
2026,2938,-5.09834331783522,6.37217899661722,0.00339457066883142,0.002411,0.004160,0.010162,0.084806,0.278304,316.922309,24.476601,0.999203,0.991075,0.003881,0.443964,0.000005,-0.000001,-0.000006,0.000008,-0.000005,-30.588466,0.000008,
2491,2008,5.19969025415212,-13.932554389374,0.0374362306706075,0.002975,0.003936,0.002734,0.127117,0.235977,331.516394,21.794303,0.999184,0.971614,0.006379,0.388599,0.000089,-0.000118,0.000084,0.000119,-0.000148,19.570139,0.000157,
2506,2173,5.49271901516711,-10.3084455238317,0.0264074407441512,0.002984,0.004805,0.002114,0.130373,0.269825,328.808770,22.388154,0.999039,0.975536,0.005820,0.431325,0.000010,0.000010,-0.000024,0.000034,-0.000014,-44.545880,0.000034,
2146,2053,-2.34809005488812,-12.9350071211184,0.031299270884972,0.002299,0.003581,0.007507,0.083887,0.253125,330.845364,24.214861,0.998786,0.980861,0.005398,0.411735,0.000030,0.000006,0.000015,0.000037,-0.000001,25.662876,0.000042,
2236,2308,-0.430040340750786,-7.34749964072487,-0.00286701441632431,0.002812,0.004053,0.004340,0.116465,0.242841,326.225115,24.013199,0.998781,0.984288,0.004961,0.428980,0.000000,0.000002,-0.000001,0.000003,-0.000001,-64.733870,0.000003,
2056,3058,-4.46558458147595,8.97719884897576,0.0106962551062111,0.002728,0.004321,0.005809,0.111140,0.260495,314.875686,24.498730,0.999551,0.992857,0.003459,0.422442,-0.000019,0.000017,-0.000008,0.000019,-0.000021,-78.002911,0.000023,
2191,2278,-1.40494752290521,-8.00427154480981,0.00677111398567831,0.002856,0.003943,0.004930,0.117029,0.244523,326.903704,24.204768,0.998919,0.980516,0.005425,0.383304,0.000012,0.000010,0.000002,0.000014,0.000009,33.085955,0.000023,
2101,3073,-3.49167644363827,9.30497351003089,0.0252837044714056,0.002526,0.004661,0.006152,0.100352,0.280873,314.503797,24.656525,0.999543,0.990859,0.003776,0.439352,-0.000013,0.000026,-0.000005,0.000026,-0.000014,-82.222102,0.000026,
2356,2623,2.12627511967022,-0.46483981308937,-0.010950655734689,0.002735,0.004292,0.007008,0.102734,0.260609,320.925228,24.407960,0.999133,0.986538,0.004558,0.418843,0.000010,0.000024,0.000002,0.000024,0.000009,82.833602,0.000034,
2206,2338,-1.0886448973516,-6.69150291808244,0.00380670436351238,0.002607,0.004469,0.003909,0.108931,0.262170,325.860563,24.225270,0.999525,0.988281,0.004351,0.391836,0.000000,0.000004,0.000000,0.000004,0.000000,88.297373,0.000005,
2281,2728,0.473797021720106,1.82037120192939,-0.0172034122971922,0.002608,0.003989,0.007171,0.097580,0.266211,319.205611,24.607899,0.999657,0.991901,0.003655,0.487254,0.000010,0.000040,-0.000011,0.000043,0.000007,-71.583737,0.000054,
2446,3133,3.98822795269332,10.6338979494967,0.0251552381570264,0.002897,0.004346,0.008794,0.102383,0.254505,312.990600,26.108742,0.999494,0.987990,0.004237,0.395764,0.000017,0.000056,0.000004,0.000056,0.000017,84.477322,0.000077,
2296,2773,0.792306792922712,2.80114169589726,-0.020765724787509,0.002948,0.004333,0.002487,0.128902,0.245031,318.457262,24.727844,0.999258,0.988152,0.004359,0.439106,0.000012,0.000056,-0.000009,0.000058,0.000010,-78.816437,0.000073,
2131,2053,-2.67525571704304,-12.9331012399734,0.0203721390891474,0.002816,0.003770,0.004071,0.118191,0.228415,330.847064,24.358151,0.998674,0.979489,0.005626,0.340726,0.000018,0.000007,0.000008,0.000022,0.000003,26.376437,0.000027,
2011,2668,-5.38348482068155,0.504075464625046,-0.0255008338446032,0.003325,0.004007,0.005674,0.139114,0.243410,321.211444,24.589691,0.999061,0.986756,0.004437,0.479836,-0.000035,0.000030,-0.000001,0.000030,-0.000035,-88.688598,0.000038,
2116,3073,-3.16698738002492,9.30639061307568,0.0178255412969293,0.002585,0.004582,0.008710,0.095179,0.273903,314.365372,24.699472,0.999719,0.992428,0.003746,0.443112,-0.000011,0.000023,-0.000006,0.000024,-0.000012,-80.451582,0.000024,
2041,3028,-4.7863025845865,8.3249976615875,0.0140497109543389,0.002384,0.004413,0.007903,0.089594,0.266491,315.459422,24.437348,0.999527,0.991752,0.003784,0.455240,-0.000011,0.000025,0.000014,0.000030,-0.000015,71.168388,0.000030,
2266,2428,0.202631175571693,-4.72378498500832,-0.0013071989650939,0.002874,0.004445,0.005829,0.114382,0.270154,324.242007,24.144225,0.999294,0.987121,0.004510,0.424711,-0.000003,0.000011,-0.000010,0.000016,-0.000008,-62.724967,0.000016,
2431,3043,3.67846343667498,8.67897420005172,0.0116347374723773,0.002590,0.004146,0.009998,0.084052,0.268615,314.308347,25.737625,0.999441,0.988333,0.004179,0.425280,0.000003,0.000033,-0.000008,0.000036,0.000001,-75.481791,0.000042,
2251,2608,-0.156976979739053,-0.795860901797155,-0.013822358233142,0.002776,0.004095,0.006592,0.107600,0.255632,321.241097,24.399777,0.999172,0.985355,0.004734,0.489310,0.000012,0.000015,0.000003,0.000017,0.000010,56.166412,0.000027,
2086,3208,-3.83688981618127,12.2281401781148,0.0515708444683582,0.002816,0.004610,0.007297,0.110636,0.270151,312.605050,24.570185,0.999482,0.993351,0.003344,0.442242,-0.000034,0.000059,-0.000018,0.000063,-0.000037,-79.243747,0.000063,
2161,3283,-2.22615600690036,13.86062101966,0.0291246837089716,0.002380,0.004676,0.009789,0.081725,0.285210,310.825049,24.963650,0.999667,0.994363,0.003145,0.474102,-0.000001,0.000043,-0.000005,0.000044,-0.000002,-83.035680,0.000050,
2131,3148,-2.85281183876442,10.9321195561377,0.0398995069470516,0.002614,0.004340,0.010749,0.090099,0.270201,313.254135,24.755635,0.999581,0.993228,0.003336,0.459291,-0.000019,0.000030,-0.000008,0.000032,-0.000021,-80.753780,0.000032,
2311,2413,1.18686281456655,-5.05312407869733,0.00936497445047735,0.002948,0.004140,0.005512,0.118097,0.247544,324.528389,23.908494,0.999461,0.986814,0.004663,0.478113,-0.000007,0.000023,0.000002,0.000023,-0.000007,85.761717,0.000024,
2206,2128,-1.0516132713131,-11.2907102956617,0.0218934600825378,0.002725,0.004413,0.004043,0.113693,0.260320,329.399754,23.915923,0.998923,0.981403,0.005281,0.430962,0.000025,0.000020,0.000014,0.000036,0.000009,38.965758,0.000048,
2011,3148,-5.45335384036757,10.9228070039723,0.0337154729717781,0.002711,0.004512,0.005728,0.111363,0.280377,313.878529,24.202511,0.999573,0.993369,0.003438,0.506138,-0.000026,0.000086,0.000001,0.000086,-0.000026,89.242434,0.000089,
2416,2938,3.37228731142597,6.39651463196542,-0.00215001686632377,0.003012,0.004247,0.009264,0.106462,0.264723,315.911828,25.344087,0.999629,0.991178,0.003827,0.436973,-0.000004,-0.000001,-0.000019,0.000016,-0.000021,-46.854264,0.000022,
2266,2668,0.15831008297673,0.513303613116946,-0.0195646818776254,0.002946,0.003893,0.008948,0.107390,0.258091,320.192523,24.531057,0.999558,0.990627,0.003927,0.449854,0.000011,0.000028,0.000000,0.000028,0.000011,-89.884058,0.000040,
2281,2533,0.510194700643666,-2.43291871476691,-0.0034646981217179,0.002721,0.003750,0.006365,0.105170,0.230872,322.494648,24.151855,0.999643,0.992204,0.003725,0.538909,0.000007,0.000016,-0.000004,0.000017,0.000005,-68.578812,0.000023,
2101,3193,-3.51051908389596,11.904864947184,0.0418887129206951,0.002396,0.004656,0.008824,0.086547,0.274008,312.669651,24.625456,0.999605,0.993626,0.003263,0.464196,-0.000033,0.000052,-0.000013,0.000054,-0.000035,-81.765805,0.000055,
2011,3193,-5.45944432641714,11.8972876472605,0.045848684604664,0.002867,0.004604,0.006072,0.117624,0.264751,313.251628,24.215277,0.999710,0.995340,0.002762,0.438094,-0.000040,0.000091,-0.000032,0.000099,-0.000047,-77.059156,0.000099,
2236,2518,-0.468001754761424,-2.75836120649166,-0.0149711786293665,0.002573,0.004000,0.007831,0.094429,0.259994,322.706842,24.342240,0.999402,0.987466,0.004340,0.434640,0.000016,0.000031,0.000001,0.000031,0.000016,87.443419,0.000048,
2071,2923,-4.11964918233047,6.04952752419816,-0.00407375034995994,0.002830,0.004694,0.003816,0.121336,0.276032,316.876891,24.566314,0.999436,0.991276,0.003764,0.456937,0.000000,0.000019,-0.000002,0.000019,0.000000,-82.860058,0.000022,
2146,2068,-2.35080604546294,-12.6051828509983,0.0325683846754714,0.002057,0.003912,0.009585,0.066648,0.284884,330.597374,24.288686,0.998750,0.979978,0.005518,0.381141,0.000032,0.000010,0.000020,0.000043,-0.000002,30.689152,0.000049,
2251,2383,-0.116774536393802,-5.70981482098758,0.00221841378271392,0.002493,0.002828,0.011974,0.076397,0.239928,324.987849,23.936251,0.999091,0.985744,0.004861,0.569325,-0.000010,0.000014,-0.000011,0.000019,-0.000014,-68.342996,0.000019,
2026,2953,-5.09944000701701,6.69752913319245,0.00586036656119404,0.003037,0.004587,0.002968,0.133634,0.273829,316.747567,24.464132,0.999457,0.991866,0.003584,0.441677,0.000006,-0.000015,-0.000005,0.000008,-0.000016,-13.077777,0.000016,
2371,2728,2.43244806751278,1.8254702166646,-0.0212861428543079,0.003022,0.004457,0.006202,0.118703,0.280843,319.150863,24.687778,0.999525,0.990148,0.003876,0.436708,-0.000011,0.000047,-0.000006,0.000048,-0.000011,-83.668253,0.000050,
2221,2218,-0.740531219017676,-9.31819369511852,0.0151265084778061,0.002507,0.004005,0.004351,0.102495,0.243429,327.845816,24.013273,0.999067,0.982206,0.005100,0.361011,0.000003,0.000015,-0.000002,0.000015,0.000003,-80.872533,0.000019,
2131,2068,-2.67722349290139,-12.6047856026639,0.0300874940853646,0.002704,0.004010,0.005712,0.108242,0.257874,330.677088,24.390798,0.998078,0.974604,0.006168,0.346165,0.000021,0.000011,0.000014,0.000031,0.000001,34.824132,0.000036,
2026,3238,-5.14096326804682,12.8723719384696,0.0605365220305885,0.002641,0.004680,0.006292,0.106458,0.277196,312.530989,24.258837,0.999515,0.994272,0.003186,0.444628,-0.000048,0.000056,-0.000047,0.000074,-0.000066,-69.104207,0.000081,
2056,2833,-4.43205972818964,4.09413051719041,-0.0124702247093182,0.002548,0.003866,0.008495,0.094865,0.236756,318.326629,24.598830,0.998957,0.986768,0.004500,0.388102,-0.000012,0.000036,-0.000010,0.000038,-0.000014,-79.015153,0.000039,
2041,2818,-4.75517293735878,3.76788980751574,-0.0176080135632333,0.002779,0.004519,0.006154,0.112584,0.282024,318.631954,24.549937,0.999179,0.990064,0.004005,0.471779,-0.000019,0.000034,-0.000014,0.000038,-0.000023,-75.817734,0.000038,
2491,2023,5.19728948435219,-13.6031490645194,0.0455713620468714,0.002964,0.004262,0.002400,0.128028,0.261864,331.342964,21.901083,0.999168,0.971015,0.006365,0.369857,0.000093,-0.000082,0.000047,0.000104,-0.000094,14.111282,0.000115,
2026,2743,-5.06982910580546,2.13623255216452,-0.0180779238977493,0.002444,0.003923,0.009820,0.087005,0.262395,319.911020,24.564643,0.999365,0.989603,0.004124,0.470356,-0.000021,0.000043,-0.000011,0.000044,-0.000023,-80.832624,0.000044,
2026,2998,-5.10616349172243,7.67376390977642,0.0121571692276348,0.002983,0.004729,0.004997,0.125549,0.269889,316.059923,24.450075,0.999285,0.991871,0.003678,0.420393,-0.000009,0.000002,0.000016,0.000013,-0.000020,54.250514,0.000020,
2086,2953,-3.79857159005519,6.70128968847544,0.00463975524820626,0.002973,0.004434,0.007535,0.116966,0.279787,316.378097,24.603539,0.999301,0.991811,0.003768,0.452072,0.000002,0.000013,0.000002,0.000014,0.000001,78.559775,0.000016,
2221,2473,-0.785783546162694,-3.74275896538678,-0.000678369527520317,0.002464,0.004014,0.007088,0.092013,0.258274,323.587079,24.261120,0.999264,0.985811,0.004768,0.481705,0.000013,0.000021,-0.000005,0.000024,0.000011,-63.723877,0.000035,
2401,2923,3.04865989198859,6.06957375513677,-0.00633194277395432,0.002748,0.004579,0.004836,0.110782,0.257003,316.109629,25.262274,0.999518,0.990687,0.003883,0.432551,-0.000013,0.000002,-0.000017,0.000012,-0.000024,-56.891871,0.000024,
2086,3223,-3.838835254504,12.5530225153401,0.0516936746889201,0.003170,0.004701,0.005233,0.132958,0.259328,312.383083,24.574054,0.999430,0.992659,0.003566,0.425324,-0.000034,0.000058,-0.000024,0.000063,-0.000040,-76.261961,0.000064,
2206,2353,-1.09123902382688,-6.36473139170063,0.00486077913996041,0.002675,0.003997,0.006577,0.103433,0.259593,325.622343,24.153692,0.999659,0.988986,0.004281,0.479499,-0.000004,0.000010,-0.000007,0.000013,-0.000006,-67.942956,0.000013,
2101,3208,-3.51224845918918,12.2301122409191,0.0482553997927084,0.002700,0.004511,0.008495,0.101484,0.268079,312.492360,24.691453,0.999608,0.993645,0.003264,0.392141,-0.000034,0.000057,-0.000014,0.000059,-0.000036,-81.512826,0.000060,
2191,2068,-1.3700147019677,-12.605993456654,0.0131125496447453,0.002313,0.003356,0.007299,0.084379,0.221161,330.303895,23.863397,0.999499,0.983822,0.005050,0.459890,0.000039,0.000023,0.000026,0.000058,0.000004,36.574324,0.000069,
2056,3073,-4.46763029485541,9.30149620525119,0.015639963690262,0.002633,0.004434,0.003973,0.112007,0.264882,314.673688,24.428117,0.999465,0.991339,0.003839,0.491180,-0.000018,0.000030,-0.000009,0.000032,-0.000020,-79.391551,0.000032,
2491,2038,5.19361651284812,-13.274436810285,0.0466503240412521,0.002378,0.004448,0.003444,0.097384,0.257577,331.079746,21.900119,0.999201,0.971573,0.006405,0.429039,0.000083,-0.000060,0.000030,0.000089,-0.000065,11.258474,0.000092,
2161,3298,-2.22845932184856,14.1854671741882,0.0251126965462731,0.002793,0.004737,0.008089,0.105913,0.264451,310.569841,24.973641,0.999806,0.996006,0.002685,0.451816,0.000005,0.000049,-0.000009,0.000051,0.000004,-78.620807,0.000061,
2356,2638,2.12411246791031,-0.137996284257198,-0.00762310793157894,0.003015,0.004328,0.005158,0.122115,0.266237,320.728710,24.447887,0.999228,0.986560,0.004555,0.423851,0.000002,0.000025,-0.000003,0.000025,0.000002,-81.772174,0.000030,
2101,3088,-3.49356721648732,9.62944789123213,0.0300447302542466,0.002834,0.004372,0.007090,0.111608,0.247788,314.310592,24.641925,0.999353,0.986463,0.004398,0.421159,-0.000021,0.000029,0.000000,0.000029,-0.000021,-89.453432,0.000030,
2041,3043,-4.78801483888217,8.64990673510612,0.0196574060066723,0.002656,0.004328,0.007644,0.102900,0.267839,315.275242,24.422423,0.999695,0.994674,0.003095,0.463195,-0.000016,0.000017,0.000007,0.000018,-0.000017,78.578082,0.000021,
2161,2083,-2.02535164062015,-12.2759211715749,0.0284644114867092,0.002557,0.004336,0.002353,0.111524,0.235031,330.312721,24.272229,0.999313,0.983113,0.005153,0.266493,0.000032,0.000028,0.000021,0.000050,0.000009,42.249623,0.000064,
2281,2743,0.47124743280629,2.14690062159586,-0.0147860887698243,0.002746,0.003967,0.009247,0.096944,0.247736,318.981359,24.665674,0.999431,0.989242,0.004042,0.438832,0.000013,0.000039,-0.000011,0.000043,0.000009,-70.831197,0.000056,
2056,1993,-4.30149613935487,-14.2492573417374,0.0293833756859954,0.002367,0.003620,0.003891,0.098695,0.223494,332.222256,24.781452,0.998842,0.978705,0.005667,0.400743,0.000052,-0.000054,-0.000006,0.000053,-0.000055,-3.376687,0.000062,
2266,2443,0.199925212055835,-4.39623224959921,0.0043517304605416,0.002653,0.003701,0.008824,0.094043,0.234042,324.026312,24.251461,0.999585,0.988585,0.004315,0.308022,-0.000002,0.000016,-0.000007,0.000018,-0.000004,-71.414375,0.000019,
2506,2188,5.48890238581924,-9.97875816699437,0.022650567084554,0.002838,0.004235,0.004685,0.113540,0.272088,328.517710,22.473555,0.998888,0.974038,0.006112,0.412154,0.000023,0.000026,-0.000016,0.000041,0.000008,-48.180532,0.000053,
2446,3148,3.98540112124877,10.9593346285348,0.0290717621791714,0.002560,0.004726,0.006527,0.095556,0.271662,312.770567,26.147762,0.999525,0.990281,0.003850,0.425080,0.000015,0.000044,0.000004,0.000045,0.000015,82.127048,0.000062,
2341,2548,1.81410579996568,-2.10256710710419,-0.00406420503162508,0.002773,0.003927,0.008798,0.098323,0.266499,322.196320,24.183589,0.999041,0.981538,0.005076,0.475023,0.000011,0.000004,0.000000,0.000011,0.000004,-1.695172,0.000015,
2311,2428,1.18297031233087,-4.72342878446041,-0.00205592547513334,0.002760,0.004169,0.006686,0.105527,0.272220,324.176926,23.985684,0.999600,0.988939,0.004276,0.459874,-0.000001,0.000017,-0.000001,0.000017,-0.000001,-86.490684,0.000019,
2326,2503,1.4952747544129,-3.08433013716154,-0.00850314337560576,0.002601,0.003875,0.007612,0.094731,0.254398,322.889137,24.151245,0.999360,0.987014,0.004314,0.413192,0.000007,0.000024,0.000013,0.000031,0.000000,61.687435,0.000036,
2236,2533,-0.469859380336349,-2.43176708171982,-0.00394050262593737,0.002522,0.004244,0.007384,0.093606,0.256967,322.555248,24.403851,0.999682,0.991090,0.003769,0.391662,0.000015,0.000032,0.000001,0.000032,0.000014,85.796895,0.000048,
2296,2788,0.789538556335732,3.12753932453565,-0.0147781281077641,0.002884,0.004318,0.007983,0.107443,0.273108,318.241550,24.768188,0.999268,0.989085,0.004198,0.456634,0.000013,0.000061,-0.000007,0.000062,0.000012,-81.515046,0.000079,
2461,3223,4.29694378991138,12.5883287825641,0.029539634338164,0.002923,0.004900,0.005121,0.117475,0.282797,311.594213,26.471106,0.999540,0.991261,0.003715,0.443144,0.000003,0.000040,-0.000012,0.000043,-0.000001,-73.496812,0.000050,
2176,2188,-1.71683542375451,-9.97332541022361,0.0063420562888723,0.002844,0.004532,0.003906,0.119969,0.267270,328.398449,24.212400,0.999168,0.946765,0.007608,0.373712,0.000018,0.000008,0.000011,0.000025,0.000000,33.547438,0.000029,
2026,2968,-5.10165965729235,7.02257866595491,0.010562469697561,0.003012,0.004625,0.005823,0.124573,0.270585,316.533996,24.442245,0.999429,0.991499,0.003608,0.449818,0.000005,-0.000015,0.000002,0.000006,-0.000015,6.318608,0.000015,
2146,3208,-2.53703115434702,12.2338272004315,0.0452950735027002,0.002715,0.004791,0.007983,0.103022,0.296848,312.268293,24.855376,0.999592,0.993381,0.003277,0.477475,-0.000023,0.000042,-0.000018,0.000047,-0.000028,-75.963625,0.000047,
2206,2143,-1.05387888596569,-10.9609570188877,0.0211470881293394,0.003145,0.004247,0.005258,0.129043,0.268153,329.167036,24.013751,0.999338,0.983904,0.004920,0.360487,0.000015,0.000006,0.000011,0.000022,-0.000001,34.421783,0.000025,
2041,3073,-4.79191145651838,9.29959601621601,0.0303762739480362,0.002890,0.004365,0.009182,0.109417,0.266752,314.882616,24.391042,0.999432,0.991812,0.003760,0.476503,-0.000018,0.000034,-0.000004,0.000034,-0.000018,-86.087578,0.000034,
2386,2833,2.73814961111966,4.1125596367124,-0.0249548399852983,0.002681,0.004400,0.005702,0.104608,0.252458,317.403576,25.004930,0.999580,0.986562,0.004406,0.396633,-0.000010,0.000043,-0.000011,0.000045,-0.000012,-78.428527,0.000047,
2251,2623,-0.159314202281973,-0.469147030718467,-0.00984946993264657,0.002874,0.004068,0.007522,0.109110,0.265971,321.032445,24.422894,0.999172,0.985960,0.004593,0.500458,0.000012,0.000017,0.000002,0.000018,0.000011,69.204641,0.000029,
2431,3058,3.67567832041869,9.00535792607035,0.0111713018367254,0.002681,0.004247,0.008317,0.094507,0.267883,314.069052,25.831931,0.999540,0.989991,0.004064,0.379187,0.000000,0.000034,-0.000005,0.000035,-0.000001,-81.934884,0.000040,
2491,2053,5.1884819291848,-12.9413431841934,0.0220246701789506,0.002329,0.004203,0.002153,0.100028,0.221379,330.634200,22.049178,0.999123,0.976735,0.005908,0.307004,0.000076,-0.000050,0.000021,0.000080,-0.000054,9.371951,0.000081,
2131,3163,-2.85516350931809,11.2570889217844,0.0390640696336959,0.002660,0.004209,0.008339,0.099387,0.254644,313.011420,24.753126,0.999476,0.991064,0.003688,0.450800,-0.000022,0.000038,-0.000008,0.000040,-0.000023,-82.494342,0.000040,
2221,2488,-0.788695307667577,-3.41490139531427,-0.00305234888975292,0.002445,0.003699,0.008955,0.085079,0.257311,323.317503,24.300475,0.999362,0.986276,0.004517,0.461559,0.000014,0.000028,-0.000010,0.000033,0.000009,-62.553041,0.000044,
2056,3088,-4.46979778355907,9.62669535101238,0.0223909992587892,0.002657,0.004154,0.007771,0.102279,0.257347,314.475792,24.467107,0.999454,0.991573,0.003677,0.438196,-0.000024,0.000031,-0.000005,0.000032,-0.000025,-85.388904,0.000033,
2266,2683,0.155375640703426,0.840462790064734,-0.0229439181852058,0.002779,0.004135,0.006714,0.107197,0.255793,319.920355,24.565189,0.999499,0.991606,0.003770,0.439491,0.000009,0.000038,-0.000007,0.000039,0.000007,-77.441733,0.000050,
2056,2848,-4.43395262285894,4.4204049180764,-0.0165634460110482,0.002962,0.004515,0.003902,0.127162,0.262520,318.080731,24.565515,0.999317,0.990079,0.003959,0.441967,-0.000017,0.000032,-0.000011,0.000034,-0.000019,-78.176169,0.000034,
2101,3223,-3.51403809915518,12.5541954298498,0.0527580535197103,0.003106,0.004310,0.008861,0.119065,0.252804,312.302659,24.651745,0.999592,0.993628,0.003298,0.416636,-0.000034,0.000056,-0.000019,0.000060,-0.000037,-78.745885,0.000060,
2371,2743,2.42943280382593,2.1517266839265,-0.0221505464262464,0.002964,0.004233,0.006501,0.114905,0.261860,318.895982,24.696478,0.999427,0.989508,0.003968,0.450234,-0.000009,0.000055,-0.000007,0.000056,-0.000010,-83.973915,0.000060,
2191,2293,-1.40792305484224,-7.67650665179051,0.00924461087095096,0.002408,0.003696,0.007493,0.088393,0.243175,326.654062,24.216579,0.998992,0.981831,0.005248,0.386759,0.000004,0.000008,0.000007,0.000013,-0.000001,52.271397,0.000015,
2116,3088,-3.16880969835529,9.6315046829762,0.0220161047784018,0.002831,0.004476,0.006712,0.112400,0.262352,314.172876,24.719514,0.999679,0.992351,0.003588,0.413939,-0.000019,0.000025,-0.000001,0.000026,-0.000019,-88.452183,0.000026,
2026,3013,-5.10877534898182,7.99978579132446,0.0115910628650795,0.002725,0.004653,0.005084,0.113436,0.274339,315.798633,24.485584,0.999484,0.992972,0.003569,0.378564,-0.000009,0.000017,0.000019,0.000027,-0.000019,62.773395,0.000028,
2296,2578,0.828471944913272,-1.44826835215689,-0.00878964257879034,0.002901,0.004151,0.005882,0.115054,0.265049,321.711862,24.367559,0.999287,0.988650,0.004329,0.423811,0.000016,0.000027,-0.000003,0.000028,0.000015,-74.255275,0.000043,
2251,2398,-0.118893492620348,-5.38095022580206,0.0027698184846372,0.002848,0.003129,0.010084,0.098963,0.237532,324.771956,24.066679,0.999261,0.988829,0.004431,0.461350,-0.000009,0.000012,-0.000011,0.000017,-0.000014,-66.107181,0.000018,
2176,1993,-1.68195021488609,-14.2533800026157,0.0434370910705297,0.003023,0.003819,0.004441,0.126077,0.227634,331.846880,24.016608,0.999270,0.981585,0.005290,0.326915,0.000083,0.000030,0.000039,0.000103,0.000009,27.840519,0.000125,
2071,2938,-4.1215347820212,6.3749403189865,0.000341151911641191,0.003003,0.004666,0.003133,0.131235,0.272191,316.679667,24.570378,0.999452,0.990469,0.003788,0.445291,0.000000,0.000017,0.000001,0.000017,0.000000,87.755030,0.000020,
2236,2323,-0.4327095459556,-7.01958088704566,-0.00464091110728759,0.003052,0.003889,0.006830,0.119415,0.234525,325.971338,24.015154,0.998635,0.986161,0.004816,0.441779,0.000001,-0.000004,-0.000005,0.000004,-0.000008,-32.032665,0.000008,
2101,3103,-3.49585914903117,9.95520032993575,0.0333714607853608,0.002820,0.004393,0.007754,0.109036,0.257509,314.090705,24.696657,0.999641,0.992289,0.003468,0.376197,-0.000024,0.000031,-0.000001,0.000031,-0.000024,-88.630937,0.000033,
2026,3253,-5.14417557289618,13.1976731486255,0.0511008180861836,0.002525,0.004545,0.009296,0.092753,0.266349,312.193121,24.253541,0.999798,0.995825,0.002778,0.427680,-0.000041,0.000044,-0.000051,0.000068,-0.000065,-64.763344,0.000077,
2206,2368,-1.09389493883574,-6.03620626900805,0.00113534965731787,0.002894,0.003851,0.007402,0.110870,0.247368,325.356354,24.210582,0.999534,0.987651,0.004439,0.428950,-0.000004,0.000020,-0.000007,0.000022,-0.000006,-75.695673,0.000023,
2311,2443,1.18068596383268,-4.39730541946745,0.00686296318650648,0.002689,0.003994,0.008459,0.096169,0.285672,323.999724,23.943730,0.999540,0.987689,0.004448,0.548576,0.000005,0.000012,0.000003,0.000013,0.000004,72.451876,0.000018,
2221,2233,-0.742902218418028,-8.99022776253756,0.0148286977722591,0.002690,0.004385,0.003849,0.112670,0.245411,327.612039,23.991274,0.999077,0.981921,0.005223,0.406231,0.000000,0.000016,-0.000003,0.000016,0.000000,-79.373015,0.000018,
2491,2068,5.18507411519409,-12.6114917221658,0.0155097168412226,0.002595,0.003987,0.002443,0.110982,0.228582,330.348775,22.068785,0.999285,0.977976,0.005833,0.357136,0.000066,-0.000021,0.000011,0.000068,-0.000023,7.255982,0.000069,
2131,2083,-2.68057010377013,-12.274941346524,0.0160696140651453,0.002767,0.003608,0.007260,0.106417,0.234209,330.318119,24.358659,0.998627,0.978301,0.005746,0.364134,0.000022,0.000024,0.000016,0.000039,0.000008,46.419160,0.000050,
2506,2203,5.4860374427519,-9.65090825100198,0.0281624866283892,0.002850,0.004030,0.007373,0.103691,0.274444,328.311621,22.493740,0.999002,0.972864,0.006200,0.457703,0.000032,0.000021,-0.000031,0.000058,-0.000005,-39.862125,0.000064,
2086,2968,-3.80119592089605,7.02656165479747,0.00810993982270247,0.002471,0.004411,0.006544,0.096665,0.267155,316.142882,24.604440,0.999250,0.991248,0.003832,0.436691,0.000006,0.000014,0.000006,0.000017,0.000003,62.358949,0.000021,
2011,3208,-5.46145146234552,12.2225417607197,0.0448253153798532,0.003121,0.004949,0.004051,0.135043,0.288189,313.015045,24.207506,0.999518,0.993398,0.003294,0.456030,-0.000036,0.000087,-0.000034,0.000096,-0.000045,-75.645154,0.000096,
2146,2083,-2.35358171188809,-12.2744189191476,0.0168391525585321,0.002403,0.004108,0.004369,0.098362,0.250024,330.257141,24.332631,0.998737,0.980559,0.005518,0.313853,0.000032,0.000020,0.000019,0.000046,0.000006,36.393558,0.000056,
2296,2803,0.786278601931986,3.45517211992765,-0.0225948004080578,0.002812,0.004553,0.006149,0.110456,0.281333,317.934463,24.839387,0.999210,0.988272,0.004270,0.423564,0.000012,0.000050,-0.000004,0.000050,0.000012,-84.406416,0.000066,
2041,3088,-4.79478819986978,9.62632282923248,0.019850444209851,0.002738,0.004522,0.004801,0.114699,0.268389,314.554730,24.450424,0.999607,0.993608,0.003284,0.409952,-0.000024,0.000033,-0.000001,0.000033,-0.000024,-89.398281,0.000034,
2446,3163,3.9829893361888,11.2849604107397,0.0335316079583663,0.002810,0.004706,0.006879,0.105785,0.280500,312.572046,26.219078,0.999556,0.990873,0.003907,0.413581,0.000015,0.000053,0.000002,0.000053,0.000014,86.690513,0.000071,
2461,3238,4.29395728480492,12.9137803497499,0.0299688921177221,0.002905,0.004596,0.004919,0.117327,0.272665,311.351261,26.540294,0.999729,0.993702,0.003273,0.416779,-0.000001,0.000043,-0.000013,0.000046,-0.000004,-74.580152,0.000051,
2341,2563,1.81089288992563,-1.77441768613234,-0.00765907170944047,0.002583,0.003964,0.007890,0.092764,0.266340,321.916977,24.265187,0.999100,0.984235,0.004806,0.430984,0.000010,0.000006,-0.000003,0.000011,0.000005,-26.995725,0.000017,
2236,2548,-0.473454532816007,-2.10370360915752,-0.0163590912470113,0.002523,0.003964,0.008655,0.089446,0.251754,322.204350,24.397796,0.999664,0.991908,0.003654,0.415029,0.000015,0.000031,0.000004,0.000032,0.000014,75.869474,0.000047,
2056,2008,-4.30323057562592,-13.9210178313703,0.0383295265521042,0.002624,0.003015,0.008942,0.096147,0.222545,332.053994,24.807323,0.998974,0.980576,0.005509,0.372021,0.000031,-0.000110,-0.000022,0.000034,-0.000113,-8.664778,0.000116,
2161,2098,-2.02767576896946,-11.947881898567,0.0302359361829758,0.002781,0.004217,0.005703,0.111517,0.252683,330.086843,24.214071,0.999575,0.983627,0.005054,0.355508,0.000030,0.000030,0.000022,0.000052,0.000008,44.730862,0.000065,
2041,3058,-4.78954434918527,8.97449619997787,0.028743984104608,0.002960,0.004231,0.008340,0.114927,0.260662,315.118939,24.412377,0.999679,0.994153,0.003206,0.457448,-0.000020,0.000019,-0.000004,0.000019,-0.000021,-84.290900,0.000023,
2086,3238,-3.84222205484861,12.8782901781775,0.0463369720741298,0.002772,0.004503,0.008576,0.104940,0.268815,312.064849,24.566163,0.999565,0.993595,0.003293,0.440254,-0.000035,0.000046,-0.000028,0.000055,-0.000044,-72.706307,0.000058,
2101,3238,-3.51673089335997,12.8791644175488,0.0493933917360323,0.003157,0.004289,0.009899,0.118409,0.256645,312.028435,24.633384,0.999664,0.994127,0.003127,0.438801,-0.000033,0.000046,-0.000021,0.000051,-0.000038,-76.217252,0.000053,
2071,3133,-4.15045706347883,10.602073154591,0.0375696128884329,0.002997,0.004253,0.005865,0.123145,0.242853,313.805686,24.498412,0.999560,0.993761,0.003133,0.435445,-0.000020,0.000044,-0.000002,0.000044,-0.000020,-87.832113,0.000044,
2401,2938,3.04587587801055,6.39524902443222,-0.00042829181847992,0.002557,0.004800,0.006627,0.095659,0.280415,315.898937,25.279733,0.999479,0.990824,0.003911,0.483382,-0.000010,0.000001,-0.000020,0.000016,-0.000025,-52.924760,0.000025,
2281,2548,0.50661407832094,-2.10236592146575,-0.016463406205844,0.002712,0.004411,0.005038,0.109496,0.272384,322.145696,24.322814,0.999370,0.989195,0.004225,0.438584,0.000011,0.000017,0.000000,0.000017,0.000011,-87.954455,0.000028,
2266,2698,0.153164217259995,1.16697418358042,-0.019437243469838,0.002795,0.004446,0.003927,0.117286,0.256254,319.716086,24.598345,0.999609,0.992038,0.003667,0.432693,0.000010,0.000038,-0.000009,0.000041,0.000008,-74.326860,0.000052,
2026,2983,-5.10421093919392,7.34826546637109,0.00851707758477005,0.002963,0.004676,0.007009,0.119062,0.269106,316.267303,24.434535,0.999222,0.991124,0.003841,0.445419,-0.000003,-0.000018,0.000004,-0.000002,-0.000019,15.090808,0.000023,
2491,2083,5.18320405414848,-12.2836455325071,0.0223248401391061,0.003199,0.004076,0.001961,0.140487,0.223416,330.193696,22.070952,0.999349,0.977409,0.005698,0.411506,0.000053,-0.000024,0.000003,0.000053,-0.000024,2.121209,0.000053,
2326,2518,1.49211654279694,-2.75678585026009,-0.0104016948965864,0.002382,0.003957,0.007781,0.084157,0.249620,322.619556,24.182215,0.999284,0.985416,0.004514,0.413127,0.000007,0.000014,0.000010,0.000021,0.000000,54.866301,0.000024,
2011,3223,-5.4639881411873,12.5476583970754,0.0429051345861353,0.003173,0.004422,0.006599,0.130379,0.278844,312.749213,24.218554,0.999303,0.992057,0.003670,0.422388,-0.000032,0.000078,-0.000039,0.000091,-0.000045,-72.406807,0.000091,
2251,2413,-0.121421632534656,-5.05286342494799,0.00443085767528828,0.002702,0.003655,0.008107,0.098917,0.243705,324.543006,24.132940,0.999249,0.988000,0.004368,0.426143,-0.000008,0.000016,-0.000017,0.000024,-0.000017,-62.332312,0.000025,
2461,3253,4.2900537939545,13.2394274368507,0.0233402854285032,0.002700,0.004712,0.006542,0.101858,0.282845,311.033459,26.571656,0.999728,0.993575,0.003216,0.448632,-0.000005,0.000047,-0.000019,0.000054,-0.000011,-71.789365,0.000057,
2056,2023,-4.30587595251449,-13.5894815569815,0.0273201826407785,0.002706,0.004106,0.005847,0.108929,0.270487,331.734003,24.863822,0.998712,0.982618,0.005397,0.362171,0.000023,-0.000129,-0.000027,0.000027,-0.000134,-9.648764,0.000141,
2386,2848,2.73619528426829,4.438013896062,-0.0168699487439881,0.003030,0.004286,0.006287,0.118586,0.262407,317.240901,25.009606,0.999535,0.988577,0.004129,0.444807,-0.000010,0.000036,-0.000017,0.000041,-0.000015,-71.967588,0.000042,
2191,2083,-1.3719038307727,-12.275605697003,0.0156244120192355,0.002483,0.004000,0.003122,0.105433,0.224156,330.103927,24.038211,0.999361,0.982773,0.005226,0.305581,0.000038,0.000029,0.000023,0.000057,0.000010,39.531316,0.000072,
2221,2503,-0.791381534981081,-3.08689990918477,-0.00757666612651064,0.002702,0.004069,0.009428,0.095496,0.255511,323.047189,24.339477,0.999392,0.986801,0.004447,0.441007,0.000015,0.000030,-0.000006,0.000033,0.000013,-70.551214,0.000046,
2176,2008,-1.68606518257667,-13.9227737283889,0.0281209734809522,0.002554,0.003673,0.006418,0.098397,0.256185,331.451140,23.954692,0.999165,0.983630,0.005101,0.434487,0.000055,0.000014,0.000029,0.000070,-0.000001,27.503371,0.000080,
2296,2593,0.826716652368937,-1.1222745987905,0.000831428566698378,0.002975,0.004665,0.003386,0.127100,0.273551,321.561237,24.366815,0.999580,0.991328,0.003738,0.463641,0.000019,0.000022,-0.000002,0.000023,0.000018,-67.318516,0.000041,
2431,3073,3.6726473815784,9.33009240314012,0.00982823946020517,0.002625,0.004186,0.007068,0.096541,0.257154,313.814768,25.782684,0.999611,0.991545,0.003769,0.466615,0.000004,0.000044,-0.000005,0.000045,0.000003,-83.520637,0.000054,
2071,2953,-4.12434569329911,6.70065580844258,-0.00131023830869026,0.002841,0.004431,0.005827,0.115999,0.263545,316.406661,24.568397,0.999209,0.991154,0.003841,0.434852,0.000003,0.000009,0.000001,0.000009,0.000002,79.446824,0.000012,
2101,3118,-3.49841320229381,10.2801027628502,0.0304060884220689,0.002950,0.004304,0.008513,0.112867,0.264670,313.824988,24.640128,0.999714,0.994214,0.003089,0.440241,-0.000026,0.000040,-0.000002,0.000040,-0.000027,-88.369854,0.000040,
2416,2953,3.36872100727988,6.72324519728872,-0.00498242258970549,0.002756,0.003930,0.010901,0.088585,0.264559,315.624767,25.424994,0.999740,0.991549,0.003797,0.402973,-0.000001,0.000002,-0.000018,0.000019,-0.000018,-47.271845,0.000021,
2026,3028,-5.11055907752668,8.32347854687137,0.0196763034552419,0.002817,0.004207,0.005886,0.115343,0.256279,315.624590,24.390754,0.999469,0.991538,0.003837,0.444881,-0.000012,0.000024,0.000019,0.000032,-0.000021,66.860155,0.000032,
2026,3268,-5.14729207972044,13.5227134038907,0.0383849856610823,0.002531,0.004441,0.009413,0.092721,0.268082,311.841372,24.198638,0.999810,0.996457,0.002645,0.473159,-0.000035,0.000047,-0.000040,0.000063,-0.000051,-67.616149,0.000067,
2356,2653,2.12079678417853,0.189360673833455,-0.015158263952685,0.003064,0.004397,0.004422,0.127005,0.262694,320.426804,24.457352,0.999327,0.986290,0.004656,0.450383,-0.000001,0.000027,-0.000002,0.000027,-0.000001,-86.448299,0.000031,
2056,2863,-4.4358868027789,4.74574674357491,-0.00788888789492148,0.002846,0.004658,0.004098,0.121266,0.261003,317.903743,24.573115,0.999375,0.990556,0.003896,0.426730,-0.000019,0.000034,-0.000011,0.000037,-0.000021,-78.835637,0.000037,
2011,3238,-5.46580076309054,12.8716666224518,0.0499425981774948,0.003059,0.004834,0.003076,0.134762,0.276665,312.567562,24.174935,0.999436,0.992814,0.003565,0.450418,-0.000029,0.000056,-0.000052,0.000080,-0.000053,-64.707864,0.000082,
2311,2458,1.17700431281023,-4.06867478775363,-0.00310879337365577,0.002468,0.003852,0.007870,0.088024,0.284651,323.665219,23.974189,0.999506,0.986645,0.004580,0.551066,0.000003,0.000012,0.000006,0.000015,0.000000,64.437247,0.000017,
2056,3148,-4.47785336742209,10.926417384335,0.0383462920651141,0.002859,0.004767,0.003387,0.124198,0.272721,313.651953,24.441611,0.999475,0.993320,0.003307,0.453253,-0.000025,0.000056,-0.000004,0.000056,-0.000025,-87.150136,0.000056,
2131,2098,-2.68245256255474,-11.9448591788325,0.0118324245460713,0.003473,0.003902,0.005968,0.142756,0.266267,330.077623,24.406787,0.999028,0.982705,0.005125,0.356959,0.000022,0.000028,0.000018,0.000044,0.000007,49.813600,0.000055,
2461,3268,4.28541184523516,13.565805606221,0.00542791525259645,0.002786,0.004629,0.009339,0.095178,0.278894,310.629401,26.627199,0.999745,0.993926,0.003093,0.441883,-0.000011,0.000045,-0.000016,0.000049,-0.000015,-75.138227,0.000050,
2491,2098,5.18180390122884,-11.9560377538514,0.0429181643826837,0.003197,0.004285,0.002397,0.138840,0.219826,330.121864,22.205283,0.999615,0.983215,0.005066,0.334298,0.000039,-0.000026,-0.000011,0.000041,-0.000028,-9.097788,0.000042,
2056,2038,-4.30840554223672,-13.2603533443177,0.0191138452598807,0.002681,0.004247,0.002056,0.118475,0.257110,331.435396,24.800720,0.998497,0.980328,0.005592,0.410458,0.000022,-0.000111,-0.000015,0.000024,-0.000113,-6.503954,0.000119,
2146,2098,-2.35560511790295,-11.9466558681586,0.0218724364636955,0.002686,0.003824,0.007787,0.100954,0.253324,330.061100,24.299804,0.999159,0.982584,0.005213,0.360932,0.000030,0.000022,0.000020,0.000047,0.000006,39.436405,0.000058,
2191,2308,-1.41046619813972,-7.34952395418046,0.0128090151064839,0.002287,0.003299,0.009644,0.075990,0.232871,326.430030,24.181428,0.998789,0.981832,0.005318,0.428164,0.000005,0.000009,0.000003,0.000011,0.000003,62.362793,0.000015,
2056,3103,-4.47164104662824,9.9513184829429,0.0318990523576304,0.002624,0.004295,0.008133,0.099835,0.270718,314.308232,24.452572,0.999444,0.991306,0.003685,0.459593,-0.000022,0.000035,-0.000002,0.000035,-0.000022,-88.423826,0.000035,
2446,3178,3.979810831775,11.6109028644154,0.0306542631289517,0.002802,0.004681,0.006115,0.108231,0.271405,312.304087,26.297334,0.999604,0.991275,0.003723,0.376940,0.000016,0.000056,0.000000,0.000056,0.000016,89.365688,0.000075,
2266,2458,0.196287566733769,-4.06685081220284,-0.0107542014887372,0.002852,0.003780,0.009712,0.100326,0.266895,323.663118,24.268715,0.999707,0.990219,0.004098,0.351146,-0.000003,0.000015,-0.000004,0.000016,-0.000004,-78.574531,0.000016,
2071,2068,-3.98485239819925,-12.6040186074002,0.0354448425355258,0.002688,0.004429,0.001255,0.121091,0.257185,331.012610,24.787926,0.997875,0.966644,0.007093,0.324699,0.000029,-0.000044,0.000005,0.000029,-0.000045,3.805192,0.000045,
2161,2113,-2.03049391855496,-11.6186976800708,0.0231931771681388,0.002723,0.004071,0.003259,0.116270,0.237525,329.792159,24.202345,0.999344,0.981426,0.005323,0.365665,0.000031,0.000019,0.000018,0.000045,0.000006,35.849758,0.000055,
2506,2218,5.48253836873238,-9.32235919248215,0.0258092026110148,0.002885,0.003303,0.009835,0.095468,0.237117,328.041478,22.540221,0.999077,0.974175,0.006027,0.437592,0.000026,0.000015,-0.000023,0.000044,-0.000003,-38.223720,0.000049,
2026,3043,-5.11277323535638,8.64820169909737,0.019273199191673,0.002745,0.004428,0.002596,0.121182,0.257275,315.382979,24.318965,0.999406,0.991880,0.003834,0.506967,-0.000018,0.000018,0.000013,0.000022,-0.000022,72.029292,0.000026,
2116,3103,-3.1706174408184,9.95627574897654,0.029791273941612,0.002938,0.004370,0.005906,0.119721,0.261037,314.000491,24.723684,0.999816,0.995344,0.003050,0.410843,-0.000022,0.000027,-0.000002,0.000027,-0.000022,-87.090962,0.000029,
2146,3223,-2.53892820334734,12.5584619986565,0.0493197888019381,0.003154,0.004769,0.009082,0.120021,0.308905,312.073523,24.837710,0.999569,0.993599,0.003215,0.513886,-0.000023,0.000044,-0.000023,0.000051,-0.000030,-73.048694,0.000051,
2191,2098,-1.37506550739317,-11.9474350863311,0.0022675059277617,0.002778,0.003813,0.003790,0.116795,0.227757,329.763973,23.841966,0.999441,0.985412,0.005048,0.523713,0.000036,0.000026,0.000024,0.000056,0.000006,39.325444,0.000068,
2206,2383,-1.09702433019135,-5.70825709737765,-0.00143528843511831,0.002641,0.003739,0.009432,0.092802,0.253012,325.074648,24.213753,0.999334,0.985773,0.004577,0.449833,-0.000004,0.000019,-0.000005,0.000020,-0.000005,-77.409982,0.000021,
2101,3253,-3.5196562647196,13.2050811045905,0.0443859535324123,0.002877,0.004651,0.007694,0.112178,0.286963,311.734226,24.671057,0.999703,0.995138,0.002950,0.431101,-0.000030,0.000041,-0.000022,0.000047,-0.000036,-74.339826,0.000049,
2116,2053,-3.00259230713543,-12.9326627092555,0.0168120179345692,0.002767,0.004159,0.002861,0.119797,0.228818,330.882169,24.425047,0.998682,0.979216,0.005529,0.370828,0.000014,0.000000,-0.000005,0.000016,-0.000002,-18.266771,0.000018,
2011,3253,-5.4681938753216,13.1969633682506,0.0496297012988975,0.003049,0.005062,0.003710,0.132699,0.288381,312.317351,24.197952,0.999811,0.995588,0.002829,0.425569,-0.000020,0.000042,-0.000057,0.000075,-0.000054,-59.310448,0.000078,
2026,3283,-5.14896758840663,13.8475733140444,0.0463218068974811,0.002761,0.004621,0.009850,0.102177,0.272086,311.671575,24.242495,0.999772,0.996070,0.002730,0.422027,-0.000038,0.000048,-0.000027,0.000056,-0.000046,-73.667752,0.000059,
2086,2983,-3.80371448652443,7.35153558337248,0.0092801233088835,0.002448,0.003860,0.009134,0.087955,0.251667,315.900097,24.568681,0.999362,0.992330,0.003657,0.455224,0.000001,0.000016,0.000005,0.000017,-0.000001,72.187724,0.000020,
2221,2248,-0.745726479784079,-8.66191021759557,0.00481627635440418,0.003010,0.004328,0.001992,0.133274,0.257196,327.307744,23.897275,0.999041,0.981104,0.005299,0.533657,0.000003,0.000008,-0.000002,0.000008,0.000002,-70.359072,0.000011,
2296,2818,0.783961531355942,3.78054471785669,-0.0160959416947435,0.002766,0.004404,0.006306,0.107691,0.260614,317.742311,24.846168,0.999429,0.989829,0.003997,0.425848,0.000012,0.000050,-0.000007,0.000052,0.000010,-79.603367,0.000066,
2056,2053,-4.31014650630918,-12.9304543449418,0.014523613633969,0.003248,0.005107,-0.001387,0.154431,0.281534,331.192256,24.816889,0.997698,0.975987,0.006183,0.416838,0.000024,-0.000081,-0.000015,0.000026,-0.000083,-7.908212,0.000086,
2461,3283,4.28209843519357,13.8910413327971,0.00409858822882825,0.002841,0.004472,0.012260,0.086621,0.271969,310.363088,26.676549,0.999531,0.991013,0.003727,0.438356,-0.000012,0.000036,-0.000012,0.000038,-0.000015,-76.735539,0.000039,
2176,2203,-1.71868346562724,-9.64587758455428,0.0100457231948781,0.003179,0.004407,0.003201,0.137489,0.252400,328.205816,24.191068,0.998376,0.974590,0.006078,0.395012,0.000014,0.000018,0.000011,0.000028,0.000005,50.696706,0.000035,
2281,2758,0.467913415531132,2.47360120603273,-0.0166172191197802,0.002564,0.003479,0.013368,0.074609,0.240799,318.699771,24.698392,0.999359,0.988807,0.004111,0.427017,0.000014,0.000049,-0.000007,0.000050,0.000012,-79.113543,0.000066,
2176,2023,-1.68797325609401,-13.5939568284356,0.0325420540534651,0.002740,0.003794,0.005279,0.110489,0.265547,331.259275,23.979059,0.998691,0.983795,0.005180,0.435071,0.000048,0.000026,0.000027,0.000066,0.000008,33.726056,0.000082,
2056,2878,-4.43856007205065,5.07110108702287,-0.00485071088115774,0.002597,0.004157,0.008459,0.097379,0.262439,317.661810,24.540794,0.999190,0.989375,0.004208,0.454807,-0.000007,0.000048,-0.000007,0.000049,-0.000008,-83.067822,0.000053,
2251,2638,-0.162167509990034,-0.141044749808259,-0.0170177315413866,0.003146,0.003986,0.006836,0.123840,0.259102,320.743463,24.500527,0.998935,0.986012,0.004508,0.440053,0.000014,0.000019,-0.000001,0.000019,0.000014,-76.414021,0.000032,
2236,2338,-0.435242188457014,-6.69107389976697,0.000174983972669907,0.002642,0.004479,0.004727,0.107602,0.241724,325.757089,24.125591,0.998994,0.985707,0.004837,0.361343,-0.000002,0.000001,-0.000010,0.000010,-0.000010,-49.676288,0.000011,
2071,2968,-4.12709689600725,7.02632517503253,-0.00303581374674877,0.002631,0.004368,0.006694,0.103884,0.270776,316.135984,24.550246,0.998832,0.990280,0.004125,0.456573,0.000007,0.000010,0.000005,0.000014,0.000004,54.499733,0.000019,
2341,2578,1.80834686806257,-1.44692846574915,-0.0127175362216576,0.002879,0.004648,0.003262,0.122756,0.271822,321.661211,24.272975,0.999036,0.984744,0.004678,0.466051,0.000013,0.000020,-0.000001,0.000020,0.000013,-82.149745,0.000033,
2041,3103,-4.79692155633558,9.95099578980356,0.0241613208208946,0.002576,0.004906,0.002903,0.112673,0.281265,314.344211,24.408200,0.999629,0.994062,0.003193,0.456500,-0.000024,0.000037,0.000003,0.000037,-0.000024,87.526561,0.000038,
2266,2713,0.150884969142535,1.49319414302085,-0.0109174910330694,0.002629,0.004562,0.004551,0.107638,0.269824,319.533912,24.636385,0.999676,0.992867,0.003602,0.433731,0.000012,0.000037,-0.000010,0.000040,0.000009,-70.330905,0.000052,
2026,3058,-5.11463489083023,8.97364118268742,0.0260210101872644,0.003026,0.004168,0.006365,0.123603,0.236750,315.197308,24.384906,0.999177,0.990422,0.003954,0.409808,-0.000027,0.000020,0.000000,0.000020,-0.000027,89.639350,0.000028,
2131,3178,-2.85750378083985,11.5823595966548,0.0384533653421499,0.002668,0.004423,0.005378,0.108750,0.259502,312.770307,24.763334,0.999191,0.987151,0.004185,0.450066,-0.000024,0.000039,-0.000010,0.000040,-0.000025,-81.436990,0.000040,
2146,2113,-2.35722714056198,-11.620178933464,0.0373605251317031,0.002518,0.003616,0.008813,0.090055,0.268213,329.938737,24.256500,0.999296,0.983443,0.005157,0.429428,0.000031,0.000013,0.000017,0.000041,0.000003,31.294459,0.000049,
2386,2863,2.73356567871351,4.76424631954083,-0.00996441346336496,0.002837,0.004455,0.007346,0.106003,0.273396,317.041313,25.079397,0.999521,0.988959,0.003990,0.428948,-0.000008,0.000035,-0.000018,0.000041,-0.000015,-70.420529,0.000042,
2251,2428,-0.123898147393405,-4.72571549770178,-0.00134162527814397,0.003026,0.004375,0.004674,0.125310,0.258996,324.279018,24.038819,0.998884,0.986121,0.004575,0.560720,-0.000001,0.000012,-0.000016,0.000023,-0.000012,-55.971369,0.000023,
2056,3118,-4.47357685844957,10.2767189244067,0.0327613453921458,0.002946,0.004486,0.007053,0.117787,0.275583,314.088387,24.466945,0.999476,0.992893,0.003352,0.443793,-0.000024,0.000051,-0.000001,0.000051,-0.000024,-89.320690,0.000051,
2491,2113,5.17859679085634,-11.6283815785532,0.0477068227863242,0.002779,0.003929,0.003625,0.114871,0.217526,329.896274,22.173351,0.999647,0.983855,0.004955,0.426005,0.000030,-0.000040,-0.000013,0.000033,-0.000042,-10.234639,0.000045,
2281,2563,0.503779086330479,-1.77603340273561,-0.0142816840561864,0.002604,0.004212,0.007581,0.095943,0.263547,321.907634,24.297336,0.999206,0.987808,0.004538,0.483969,0.000009,0.000016,-0.000004,0.000018,0.000007,-65.828442,0.000026,
2311,2473,1.17450620613173,-3.74049763228727,-0.00110263483674089,0.002441,0.004390,0.006039,0.093188,0.268256,323.443897,24.095037,0.999317,0.985507,0.004650,0.447252,0.000007,0.000010,0.000009,0.000018,0.000000,49.048210,0.000020,
2416,2968,3.36648494168362,7.04870767414876,0.000501546665248043,0.002725,0.004110,0.007152,0.100977,0.256112,315.438202,25.459336,0.999817,0.993932,0.003354,0.407231,-0.000005,0.000005,-0.000017,0.000018,-0.000018,-52.905652,0.000021,
2371,2758,2.42631066030697,2.47920641964125,-0.0254414453041818,0.002875,0.004524,0.005276,0.115269,0.265775,318.624171,24.780182,0.999066,0.986016,0.004359,0.411767,-0.000007,0.000061,-0.000007,0.000062,-0.000008,-84.322135,0.000067,
2236,2563,-0.474864437904191,-1.77897584508261,-0.00334008803224606,0.002836,0.004032,0.009128,0.102348,0.264713,322.083749,24.297946,0.999629,0.991979,0.003614,0.549499,0.000015,0.000028,0.000001,0.000028,0.000015,85.844017,0.000044,
2026,3298,-5.15155702932069,14.1724622180665,0.0403805863898015,0.002776,0.004825,0.008031,0.107986,0.280103,311.382070,24.213170,0.999502,0.993588,0.003276,0.448131,-0.000044,0.000064,-0.000036,0.000075,-0.000055,-73.192294,0.000078,
2056,3163,-4.48011307117154,11.2514427833296,0.0402497644290065,0.003032,0.004609,0.006101,0.124487,0.269976,313.423214,24.446372,0.999549,0.991902,0.003532,0.439187,-0.000033,0.000065,-0.000009,0.000066,-0.000033,-84.943202,0.000066,
2326,2533,1.48940738527298,-2.42944717845236,-0.013203451800166,0.002535,0.004177,0.006023,0.097298,0.254891,322.366128,24.181230,0.999390,0.985248,0.004522,0.454961,0.000009,0.000006,0.000002,0.000010,0.000005,25.802800,0.000016,
2356,2668,2.11742324268062,0.516027513250243,-0.0157572328014339,0.002655,0.004287,0.005443,0.104606,0.257336,320.155727,24.468679,0.999485,0.988596,0.004296,0.473122,0.000000,0.000032,-0.000005,0.000032,-0.000001,-82.087484,0.000037,
2086,3253,-3.84453861728463,13.2029187562243,0.05075580536095,0.002679,0.004667,0.009530,0.097945,0.280982,311.849427,24.555621,0.999694,0.994569,0.003088,0.460596,-0.000033,0.000041,-0.000031,0.000052,-0.000044,-70.043763,0.000056,
2131,2113,-2.68523872391336,-11.6171546884946,0.0190410598855806,0.002809,0.003732,0.009143,0.102789,0.281686,329.857134,24.385475,0.999094,0.982595,0.005191,0.402263,0.000024,0.000019,0.000015,0.000037,0.000006,40.688957,0.000046,
2431,3088,3.67149001825988,9.65528845819754,0.0275830004502495,0.002892,0.004611,0.005695,0.114055,0.271264,313.735486,25.876512,0.999677,0.992506,0.003580,0.436050,0.000007,0.000050,-0.000003,0.000050,0.000007,-85.938398,0.000062,
2461,3298,4.27935856121485,14.2164296643415,0.00273691287031852,0.002793,0.004951,0.006935,0.104796,0.297425,310.122953,26.711243,0.999545,0.992557,0.003586,0.482176,-0.000019,0.000033,-0.000024,0.000042,-0.000028,-68.845606,0.000043,
2221,2518,-0.793623559678416,-2.76008395935303,-0.00641704600752746,0.002768,0.004306,0.006552,0.107827,0.262614,322.826546,24.317622,0.999254,0.985735,0.004552,0.489821,0.000017,0.000028,-0.000004,0.000029,0.000016,-73.922094,0.000046,
2446,3193,3.97716597941407,11.935334188435,0.0392261043306235,0.002697,0.004243,0.009126,0.092022,0.263569,312.114092,26.306243,0.999630,0.991186,0.003680,0.411024,0.000012,0.000058,-0.000003,0.000059,0.000012,-86.233322,0.000076,
2266,2473,0.194095163491127,-3.74129316129174,-0.00498457975510291,0.002620,0.004146,0.005813,0.102686,0.259036,323.471748,24.175700,0.999764,0.991487,0.003898,0.462924,0.000003,0.000015,0.000003,0.000016,0.000002,77.672967,0.000019,
2056,2893,-4.44097113285042,5.397419825222,-0.00264789962915302,0.002471,0.004214,0.009670,0.088237,0.274682,317.426959,24.584032,0.999396,0.992071,0.003848,0.418006,-0.000006,0.000046,-0.000010,0.000047,-0.000008,-79.391972,0.000051,
2011,3268,-5.47059293483008,13.5209825520574,0.0509021583552567,0.002923,0.004989,0.004022,0.125951,0.279382,312.076368,24.136387,0.999817,0.995747,0.002782,0.464924,-0.000016,0.000052,-0.000047,0.000076,-0.000039,-63.038861,0.000076,
2026,3073,-5.11702253268575,9.29846665449624,0.028640134579291,0.002904,0.004092,0.008059,0.113445,0.264273,314.964638,24.323185,0.999124,0.991862,0.003812,0.488365,-0.000025,0.000037,0.000002,0.000037,-0.000025,88.541506,0.000037,
2041,1993,-4.62869833979759,-14.248183875263,0.0256706030764917,0.002397,0.003883,0.002831,0.103224,0.237150,332.280013,24.891861,0.998740,0.980429,0.005621,0.409217,0.000067,-0.000082,-0.000002,0.000067,-0.000082,-0.728290,0.000087,
2296,2833,0.781890865420717,4.10665849263556,-0.0113394388330903,0.002983,0.004391,0.004904,0.122435,0.255024,317.552574,24.896241,0.999663,0.992538,0.003655,0.399900,0.000006,0.000055,-0.000008,0.000056,0.000005,-81.211295,0.000068,
2491,2128,5.17603318895362,-11.2997303618982,0.0551705361111203,0.002884,0.004079,0.006034,0.110549,0.267997,329.711772,22.213051,0.999632,0.987124,0.004628,0.498448,0.000032,-0.000039,-0.000008,0.000033,-0.000040,-6.266234,0.000043,
2071,3148,-4.15299058147376,10.927225486808,0.041124757588932,0.002765,0.004473,0.007775,0.107135,0.269331,313.574348,24.492495,0.999697,0.995738,0.002816,0.463414,-0.000021,0.000049,-0.000005,0.000049,-0.000022,-86.101820,0.000050,
2056,2068,-4.31286847992537,-12.6017804039825,0.0159988351985589,0.002923,0.004453,0.002612,0.128110,0.264183,330.938062,24.836622,0.998469,0.978472,0.005650,0.377697,0.000027,-0.000063,-0.000002,0.000027,-0.000063,-1.579651,0.000063,
2176,2218,-1.72175113135413,-9.31733919092655,0.00941598323049675,0.002774,0.004115,0.005111,0.112905,0.242958,327.934600,24.223769,0.998653,0.978481,0.005678,0.367716,0.000010,0.000016,0.000005,0.000019,0.000007,60.516996,0.000027,
2281,2773,0.465782748843342,2.79987467092982,-0.0145070012736142,0.002574,0.003692,0.007641,0.094322,0.234431,318.493187,24.726684,0.999197,0.987513,0.004357,0.419986,0.000013,0.000051,-0.000008,0.000053,0.000012,-78.986343,0.000069,
2071,2083,-3.98948380711647,-12.2719498539506,0.00585233706442523,0.002421,0.004229,0.005105,0.097874,0.274808,330.502450,24.744572,0.998575,0.967919,0.006764,0.387164,0.000028,-0.000011,0.000010,0.000031,-0.000014,13.429514,0.000031,
2191,2323,-1.41230914499146,-7.02106941051294,0.00926648825247867,0.002965,0.003974,0.006073,0.118527,0.246090,326.200815,24.191342,0.999096,0.984494,0.004875,0.447820,0.000007,0.000001,0.000000,0.000007,0.000001,-4.124955,0.000009,
2341,2593,1.8052874421372,-1.11961992392197,-0.0108758617034255,0.002967,0.003803,0.009412,0.105060,0.258529,321.415357,24.348286,0.999318,0.987000,0.004404,0.414994,0.000015,0.000013,0.000001,0.000015,0.000013,20.389438,0.000028,
2401,2953,3.04226520409074,6.72156690492398,-0.0029197125236351,0.002288,0.004184,0.009370,0.073084,0.259987,315.610388,25.344968,0.999583,0.991296,0.003818,0.442747,-0.000005,0.000004,-0.000019,0.000018,-0.000020,-51.826346,0.000022,
2176,2038,-1.69052933494926,-13.2632381641559,0.0276064666101661,0.002767,0.004409,0.001851,0.122571,0.249787,330.988959,24.101697,0.998984,0.984243,0.005002,0.312428,0.000046,0.000018,0.000023,0.000059,0.000005,29.808438,0.000071,
2116,3118,-3.17311582700734,10.2813348154055,0.0282845111161123,0.002961,0.004479,0.005195,0.122987,0.267244,313.746286,24.692148,0.999773,0.995419,0.002982,0.450853,-0.000024,0.000035,-0.000004,0.000035,-0.000025,-85.964776,0.000036,
2296,2608,0.822757007516067,-0.79396218115437,-0.00763859775457831,0.002686,0.004233,0.007492,0.099833,0.281961,321.219340,24.427049,0.999389,0.989351,0.004081,0.442771,0.000018,0.000018,0.000000,0.000019,0.000018,-24.862757,0.000036,
2506,2233,5.47934487077489,-8.99221779020112,0.0252446644192332,0.002467,0.003796,0.005056,0.095020,0.245235,327.792868,22.710884,0.999113,0.979342,0.005483,0.338514,0.000032,0.000012,-0.000002,0.000032,0.000012,-5.616019,0.000045,
2191,2113,-1.37588164450494,-11.6188302016884,0.0204808393991129,0.003123,0.004336,0.002285,0.137526,0.261628,329.694383,24.005346,0.999060,0.981641,0.005335,0.410860,0.000037,0.000018,0.000023,0.000052,0.000003,33.239707,0.000062,
2146,3238,-2.54254284908229,12.8844952955469,0.0393869435606575,0.002741,0.004510,0.009241,0.100305,0.276428,311.724980,24.917836,0.999586,0.993766,0.003192,0.407290,-0.000022,0.000037,-0.000025,0.000046,-0.000031,-70.240734,0.000047,
2476,1993,4.87568609525782,-14.2617377780475,0.0456340407747007,0.003492,0.004656,0.002798,0.150894,0.286935,331.808008,21.887519,0.998313,0.968966,0.006653,0.390488,0.000087,-0.000078,0.000116,0.000147,-0.000138,27.408596,0.000165,
2011,3283,-5.47324422332126,13.8458766515458,0.046115966907621,0.002896,0.004881,0.004169,0.124293,0.273679,311.789313,24.122705,0.999791,0.996036,0.002745,0.459191,-0.000019,0.000062,-0.000036,0.000075,-0.000033,-69.123962,0.000076,
2206,2398,-1.098996071357,-5.38078649471026,0.00386622685016391,0.002903,0.003394,0.010024,0.102880,0.256417,324.886583,24.255827,0.999476,0.987982,0.004375,0.429396,-0.000005,0.000016,-0.000009,0.000020,-0.000009,-69.580458,0.000020,
2416,2983,3.36373872219154,7.37394158255494,0.00347007758523432,0.002899,0.004257,0.009832,0.099197,0.265552,315.216350,25.440994,0.999842,0.994262,0.003272,0.481958,-0.000005,0.000005,-0.000010,0.000011,-0.000012,-57.617887,0.000013,
2251,2653,-0.164975299666995,0.185404009585938,-0.0135340422834815,0.002771,0.003902,0.007214,0.105314,0.247731,320.510815,24.525940,0.999341,0.988685,0.004208,0.427050,0.000016,0.000024,0.000002,0.000024,0.000016,74.767050,0.000041,
2386,2878,2.73095631060451,5.09142832141415,-0.0117837233000841,0.003058,0.004847,0.004636,0.126033,0.283785,316.800880,25.176447,0.999497,0.991269,0.003752,0.385429,-0.000012,0.000030,-0.000016,0.000035,-0.000017,-71.612969,0.000035,
2071,3223,-4.16417954179607,12.5520490227905,0.0495153140236653,0.003069,0.004691,0.007166,0.123046,0.280670,312.434655,24.493247,0.999446,0.993054,0.003406,0.451696,-0.000033,0.000061,-0.000025,0.000068,-0.000039,-75.885047,0.000068,
2236,2353,-0.437705844036138,-6.36379408543732,0.0026318166941337,0.002655,0.004078,0.005304,0.106209,0.235081,325.534275,24.118962,0.998874,0.983812,0.005054,0.384314,-0.000005,0.000007,-0.000012,0.000014,-0.000012,-58.546146,0.000015,
2206,2158,-1.05698743969901,-10.6334856646922,0.0167151043215767,0.002768,0.003900,0.003704,0.116589,0.235867,328.877345,23.909734,0.999237,0.984774,0.004906,0.451920,0.000016,0.000007,0.000009,0.000021,0.000002,31.338282,0.000025,
2026,3088,-5.11926537384043,9.62448900887895,0.0331934002614389,0.002740,0.004188,0.008485,0.104748,0.270045,314.749024,24.409077,0.999544,0.994008,0.003318,0.397118,-0.000030,0.000035,0.000003,0.000036,-0.000030,87.636610,0.000038,
2086,3268,-3.84746729666716,13.5283446841229,0.0406743035837849,0.002732,0.004645,0.007971,0.105006,0.288489,311.526347,24.546454,0.999699,0.995286,0.002951,0.474824,-0.000034,0.000051,-0.000027,0.000059,-0.000041,-73.958534,0.000060,
2116,2068,-3.00487966238404,-12.6034573338128,0.017500475981592,0.002758,0.004559,0.002334,0.121075,0.251046,330.648274,24.445953,0.998645,0.970098,0.006548,0.378914,0.000018,0.000005,0.000003,0.000018,0.000004,12.223746,0.000024,
2071,2098,-3.99016184355543,-11.9458091075996,0.032303944011403,0.002522,0.003802,0.007683,0.095061,0.260616,330.479350,24.814771,0.998671,0.976613,0.005737,0.301798,0.000024,0.000010,0.000015,0.000033,0.000001,32.450968,0.000039,
2041,2008,-4.63157779180404,-13.9176499862728,0.0263972362134268,0.002208,0.003620,0.011449,0.070641,0.260754,332.012673,25.008921,0.998183,0.978416,0.005967,0.312046,0.000047,-0.000136,-0.000018,0.000049,-0.000138,-5.513222,0.000140,
2281,2788,0.46373225410554,3.12625508207238,-0.0116323444905788,0.003029,0.003730,0.007649,0.115262,0.237634,318.294022,24.765319,0.998966,0.986380,0.004584,0.412541,0.000015,0.000056,-0.000005,0.000057,0.000014,-83.676502,0.000075,
2131,3193,-2.86038058902545,11.9075018981244,0.0397674805920474,0.002373,0.004418,0.007872,0.087614,0.260731,312.514909,24.780605,0.999497,0.991272,0.003638,0.438321,-0.000025,0.000039,-0.000015,0.000042,-0.000029,-77.533313,0.000043,
2221,2533,-0.796371731115833,-2.43141251955892,-0.00957703467099691,0.002724,0.004495,0.004847,0.111367,0.273122,322.560124,24.428465,0.999532,0.989180,0.004051,0.409616,0.000014,0.000032,0.000000,0.000032,0.000014,-89.232690,0.000048,
2191,2338,-1.41424066976902,-6.69249554302542,0.0173749723587662,0.002936,0.004156,0.004992,0.120679,0.260057,326.027893,24.331687,0.999655,0.989261,0.004329,0.337677,0.000002,0.000003,-0.000003,0.000006,-0.000001,-46.723812,0.000006,
2476,2008,4.87128443602885,-13.9306861329583,0.0276808904735049,0.003287,0.004825,-0.001694,0.158609,0.252056,331.424427,21.902955,0.998973,0.974678,0.005997,0.401126,0.000084,-0.000071,0.000091,0.000126,-0.000113,24.800963,0.000138,
2146,3253,-2.5453850030208,13.2095266948706,0.0295711557141658,0.002897,0.004525,0.006449,0.116014,0.271920,311.412906,24.883446,0.999531,0.993443,0.003292,0.443929,-0.000019,0.000034,-0.000024,0.000044,-0.000029,-69.044945,0.000044,
2281,2578,0.50241389602358,-1.44990358579195,-0.00316771151358353,0.002983,0.004276,0.005601,0.119994,0.256041,321.781534,24.334131,0.999030,0.986324,0.004774,0.467795,0.000012,0.000029,-0.000002,0.000029,0.000012,-84.459760,0.000042,
2161,2128,-2.03359871161224,-11.2891441279491,0.0137735978924525,0.002728,0.004209,0.003666,0.115324,0.250871,329.471678,24.176606,0.999351,0.980100,0.005436,0.418382,0.000027,0.000017,0.000017,0.000039,0.000004,36.982481,0.000048,
2011,3298,-5.47592365654925,14.1707442684824,0.0433541016372487,0.002761,0.004908,0.004943,0.115926,0.270245,311.512411,24.119528,0.999474,0.992629,0.003506,0.445605,-0.000021,0.000084,-0.000049,0.000104,-0.000041,-68.491657,0.000105,
2056,3133,-4.47608326572302,10.6016232514615,0.0304687131981041,0.002862,0.004474,0.005477,0.118281,0.254721,313.825151,24.445763,0.999092,0.992260,0.003481,0.437411,-0.000023,0.000050,-0.000002,0.000050,-0.000023,-88.409576,0.000050,
2446,3208,3.97429744329765,12.2608515360031,0.0373549670774764,0.002840,0.004612,0.007456,0.104982,0.272609,311.865056,26.340610,0.999559,0.990057,0.003912,0.436816,0.000011,0.000053,-0.000008,0.000054,0.000009,-79.080148,0.000069,
2146,2128,-2.35922731092215,-11.2902834379053,0.0316266322809042,0.003023,0.004286,0.004289,0.127146,0.251342,329.686693,24.330395,0.999224,0.981000,0.005359,0.349578,0.000025,0.000012,0.000016,0.000036,0.000001,33.585751,0.000042,
2086,2998,-3.80557257092282,7.67754977387537,0.0114338514308656,0.002669,0.004180,0.006055,0.107167,0.256187,315.692590,24.619162,0.999503,0.992832,0.003437,0.407489,0.000000,0.000021,0.000010,0.000025,-0.000004,67.695277,0.000027,
2326,2548,1.48653534611154,-2.10235036378229,-0.0112881854720399,0.002678,0.003775,0.010986,0.086649,0.260996,322.128242,24.204327,0.999183,0.983340,0.004853,0.473270,0.000013,0.000007,0.000001,0.000013,0.000007,5.289443,0.000020,
2356,2683,2.11426846352849,0.843752006935283,-0.0179683123231484,0.002747,0.003964,0.008412,0.098287,0.257877,319.886618,24.562576,0.999537,0.988905,0.004117,0.419160,-0.000003,0.000049,-0.000009,0.000051,-0.000004,-80.553608,0.000056,
2251,2443,-0.127007078284525,-4.39642102506096,0.00151685779576383,0.002799,0.003490,0.010616,0.095164,0.240885,324.029280,24.261137,0.999452,0.989120,0.004258,0.344758,-0.000001,0.000022,-0.000012,0.000027,-0.000006,-66.762310,0.000028,
2236,2578,-0.478255026854903,-1.45030918002978,-0.0149823761677794,0.002712,0.003992,0.006434,0.105325,0.235922,321.746032,24.388643,0.999348,0.989025,0.004152,0.452266,0.000016,0.000035,0.000001,0.000036,0.000015,86.254713,0.000052,
2341,2608,1.80158553969403,-0.791566359426554,-0.0223183841845866,0.003022,0.003781,0.010301,0.104525,0.279751,321.075295,24.347840,0.999379,0.985723,0.004594,0.474306,0.000014,0.000011,0.000000,0.000014,0.000011,-9.508737,0.000025,
2056,2083,-4.31610642479561,-12.2722578549073,0.0091457803878825,0.002555,0.003927,0.005915,0.101860,0.236239,330.614564,24.857850,0.998682,0.979721,0.005493,0.326969,0.000028,-0.000025,0.000005,0.000029,-0.000025,5.435210,0.000031,
2086,2143,-3.67117504984796,-10.9598887420433,0.0144599786003141,0.002528,0.004181,0.006513,0.098580,0.286980,329.536592,24.542592,0.999030,0.984251,0.005040,0.517690,0.000012,0.000006,0.000015,0.000024,-0.000007,38.931964,0.000025,
2266,2728,0.147319072835931,1.82035086558101,-0.0177555477320652,0.002517,0.004277,0.008291,0.090062,0.277340,319.215243,24.646599,0.999466,0.990400,0.003885,0.456955,0.000014,0.000036,-0.000012,0.000042,0.000009,-65.533188,0.000054,
2026,1993,-4.95545155128832,-14.2478464829957,0.0327614092099111,0.002198,0.004390,0.002016,0.096591,0.245594,332.420633,25.063883,0.998652,0.980491,0.005664,0.350128,0.000035,-0.000105,-0.000003,0.000035,-0.000105,-1.202268,0.000107,
2176,2053,-1.69347732298064,-12.9347454926874,0.0281709515238617,0.002588,0.003580,0.006762,0.098933,0.238444,330.729642,24.084802,0.999219,0.984164,0.004818,0.333980,0.000042,0.000018,0.000022,0.000055,0.000004,31.002051,0.000066,
2101,3268,-3.52214994512152,13.5297981959151,0.0413919977903561,0.002970,0.004618,0.006580,0.119733,0.281996,311.471259,24.648782,0.999749,0.996022,0.002829,0.448060,-0.000028,0.000051,-0.000016,0.000054,-0.000031,-78.917049,0.000054,
2476,2023,4.86813987038017,-13.6005639932353,0.0297137272375494,0.003195,0.004711,0.000034,0.147858,0.258699,331.188386,22.026044,0.999363,0.980688,0.005353,0.344901,0.000086,-0.000051,0.000061,0.000109,-0.000074,20.863569,0.000111,
2311,2488,1.17221732217898,-3.41368781291526,0.00480592193275697,0.002567,0.004092,0.007398,0.094216,0.250821,323.251569,24.131963,0.999404,0.986533,0.004409,0.425944,0.000011,0.000022,0.000005,0.000024,0.000009,69.333407,0.000035,
2191,2128,-1.37876307644988,-11.2903425775244,0.0213491539325332,0.002818,0.004271,0.004149,0.117694,0.259273,329.440822,24.009928,0.998870,0.980502,0.005405,0.421547,0.000035,0.000013,0.000022,0.000048,0.000000,31.926889,0.000056,
2056,3178,-4.48223114900684,11.5758654226899,0.0480127501720062,0.002903,0.004580,0.007445,0.114834,0.284893,313.233622,24.416367,0.999625,0.993692,0.003253,0.477556,-0.000038,0.000070,-0.000012,0.000071,-0.000039,-83.726426,0.000071,
2431,3103,3.66782275096721,9.98149493770596,0.0213585801744784,0.002767,0.004443,0.006491,0.105311,0.268216,313.428575,25.931718,0.999741,0.993703,0.003403,0.426672,0.000007,0.000053,0.000000,0.000053,0.000007,-89.607159,0.000065,
2041,2023,-4.63293953929936,-13.5888661926953,0.0244380293004838,0.002750,0.004466,0.004656,0.114556,0.277433,331.800085,24.948481,0.998205,0.979000,0.005905,0.384997,0.000035,-0.000165,-0.000026,0.000038,-0.000168,-7.270436,0.000176,
2296,2623,0.819716027065819,-0.467334949831375,-0.0122397854266865,0.002700,0.004038,0.007262,0.101150,0.255151,320.939180,24.406568,0.999317,0.988115,0.004196,0.467206,0.000017,0.000025,-0.000001,0.000025,0.000017,-80.607169,0.000042,
2086,3283,-3.85000186456734,13.8530454954715,0.0401459824309427,0.002709,0.004382,0.008477,0.102392,0.276272,311.273870,24.547129,0.999583,0.994789,0.003034,0.459373,-0.000035,0.000051,-0.000023,0.000057,-0.000041,-76.071296,0.000059,
2371,2773,2.42394255464923,2.805000295563,-0.0200291378524184,0.002953,0.004401,0.005283,0.118807,0.264500,318.429018,24.787107,0.999437,0.989729,0.003912,0.444735,-0.000006,0.000061,-0.000010,0.000063,-0.000008,-81.705058,0.000068,
2401,2968,3.04077958101469,7.04700981606874,0.00900098568564545,0.002624,0.004142,0.007418,0.095639,0.258904,315.487838,25.414248,0.999845,0.994771,0.003259,0.416961,-0.000008,0.000007,-0.000018,0.000019,-0.000020,-56.546760,0.000022,
2116,3133,-3.17611123552388,10.6074614591415,0.0245299847779279,0.002793,0.004600,0.006895,0.110132,0.254439,313.456763,24.768232,0.999840,0.996939,0.002670,0.364301,-0.000020,0.000032,-0.000005,0.000032,-0.000021,-84.497785,0.000033,
2086,3298,-3.85347010055017,14.1785146461227,0.0251144785199813,0.002426,0.004689,0.005124,0.099020,0.264917,310.898908,24.543732,0.999583,0.994442,0.003057,0.448776,-0.000028,0.000059,-0.000032,0.000070,-0.000039,-71.678035,0.000070,
2131,2128,-2.68779608155773,-11.2885956497067,0.0127628660441701,0.002712,0.003998,0.003950,0.113931,0.239624,329.575588,24.357915,0.998866,0.979886,0.005460,0.396651,0.000020,0.000017,0.000017,0.000036,0.000001,42.305075,0.000042,
2356,2698,2.11136204165247,1.16934653138439,-0.0132581709826809,0.002420,0.003901,0.009786,0.078413,0.271154,319.662654,24.509642,0.999521,0.990327,0.003910,0.524462,0.000002,0.000048,-0.000008,0.000049,0.000000,-80.051424,0.000057,
2266,2488,0.190667370143533,-3.41383312822731,-0.0121643458506355,0.002551,0.003883,0.008110,0.091834,0.253284,323.158365,24.140561,0.999708,0.990641,0.003970,0.519218,0.000004,0.000026,-0.000004,0.000027,0.000003,-81.116451,0.000033,
2026,2008,-4.95850967878437,-13.9171717866485,0.0210877619151688,0.002320,0.003964,0.007037,0.088304,0.284037,332.074948,25.037477,0.998723,0.981509,0.005552,0.409618,0.000026,-0.000165,-0.000021,0.000029,-0.000167,-6.268993,0.000179,
2071,3163,-4.15506422628992,11.2529589251558,0.0413270470417046,0.002976,0.004542,0.005991,0.121951,0.262537,313.345509,24.556390,0.999704,0.994733,0.003023,0.388129,-0.000028,0.000059,-0.000009,0.000060,-0.000028,-84.417009,0.000060,
2251,2668,-0.167897372841527,0.511770546101005,-0.0115743138149469,0.002509,0.003660,0.009229,0.086592,0.248608,320.265176,24.523063,0.999548,0.990779,0.003851,0.454453,0.000016,0.000026,-0.000002,0.000027,0.000015,-78.944198,0.000043,
2221,2263,-0.749020116309616,-8.3322648892347,0.00389518172994485,0.002501,0.004081,0.003861,0.103871,0.255735,327.028232,24.037081,0.999027,0.981190,0.005329,0.413859,0.000003,0.000006,0.000002,0.000007,0.000002,60.423296,0.000010,
2026,3103,-5.12139576520017,9.94941640870776,0.0322112341712,0.002876,0.004555,0.006518,0.116590,0.283792,314.508034,24.354855,0.999544,0.993517,0.003406,0.454301,-0.000031,0.000044,0.000007,0.000045,-0.000031,84.940343,0.000046,
2446,3223,3.9708903208418,12.5867505633262,0.034352616884064,0.002670,0.004795,0.007397,0.097526,0.290484,311.585752,26.399058,0.999571,0.990983,0.003835,0.447214,0.000009,0.000045,-0.000010,0.000047,0.000006,-75.466882,0.000059,
2281,2803,0.460629277037913,3.45407596670839,-0.0206335300560454,0.003175,0.004207,0.005882,0.128100,0.259744,317.986746,24.830355,0.999137,0.987616,0.004429,0.397251,0.000012,0.000047,-0.000002,0.000047,0.000012,-86.478777,0.000062,
2296,2848,0.778933582652691,4.43173939019371,-0.00872372043448877,0.002796,0.004181,0.007946,0.103488,0.255765,317.311726,24.832867,0.999660,0.992415,0.003690,0.493782,0.000009,0.000045,-0.000009,0.000047,0.000007,-75.885859,0.000059,
2506,2248,5.4764608616061,-8.66507983199048,0.025936017114077,0.003022,0.003206,0.009617,0.102567,0.238722,327.564309,22.639689,0.999132,0.980244,0.005478,0.466712,0.000029,0.000029,-0.000003,0.000032,0.000026,-46.467312,0.000058,
2056,2098,-4.31767472466946,-11.9449778817416,0.0151116814045622,0.002872,0.003727,0.006175,0.115593,0.225426,330.437880,24.804006,0.998851,0.979860,0.005463,0.367655,0.000024,0.000003,0.000013,0.000030,-0.000003,24.997874,0.000033,
2086,3013,-3.80809191163468,8.0024443835724,0.0113674655044065,0.002598,0.004386,0.006640,0.102271,0.258410,315.443053,24.557996,0.999677,0.993503,0.003156,0.469400,0.000004,0.000026,0.000009,0.000029,0.000001,71.035616,0.000034,
2221,2548,-0.798385675976466,-2.10511630546392,-0.00627124567819237,0.002993,0.004377,0.003733,0.127248,0.262608,322.361061,24.405137,0.999660,0.991320,0.003700,0.442064,0.000014,0.000031,0.000004,0.000032,0.000013,78.820383,0.000046,
2476,2038,4.86459962141972,-13.2723947461567,0.0362366968903984,0.002637,0.004456,0.005626,0.101130,0.269127,330.954491,22.023042,0.999402,0.978954,0.005612,0.418519,0.000078,-0.000031,0.000044,0.000094,-0.000047,19.545831,0.000094,
2071,2113,-3.99251859551379,-11.6166806408301,0.028253837162822,0.002692,0.003908,0.007682,0.102909,0.269952,330.212767,24.804192,0.998894,0.981167,0.005380,0.321721,0.000026,0.000005,0.000010,0.000030,0.000001,21.922612,0.000035,
2206,2173,-1.05954365732096,-10.3049974222694,0.0180533767532438,0.002664,0.003813,0.003734,0.111706,0.229440,328.642278,23.939679,0.999393,0.985639,0.004713,0.434869,0.000013,0.000011,0.000006,0.000018,0.000005,40.891536,0.000025,
2041,3118,-4.79897647468026,10.2758905212415,0.0249552892234988,0.002898,0.004862,0.004091,0.124173,0.278571,314.117690,24.383347,0.999619,0.994214,0.003154,0.470102,-0.000026,0.000057,0.000002,0.000057,-0.000026,88.277175,0.000057,
2386,2893,2.72817134862234,5.41704460792898,-0.0103159717320409,0.002974,0.005079,0.003666,0.125781,0.292445,316.568355,25.159662,0.999543,0.991940,0.003674,0.453802,-0.000011,0.000023,-0.000015,0.000028,-0.000017,-69.395745,0.000029,
2236,2593,-0.480243985839937,-1.12368571036357,-0.0117624530606122,0.003023,0.004092,0.005089,0.124042,0.236523,321.548574,24.397612,0.999214,0.986400,0.004664,0.465726,0.000018,0.000029,0.000001,0.000029,0.000018,86.468094,0.000048,
2191,2353,-1.41742789569474,-6.36616277654569,0.0152092551757619,0.002682,0.003735,0.008898,0.096638,0.254029,325.744757,24.190892,0.999369,0.986502,0.004661,0.488868,-0.000004,0.000007,-0.000011,0.000013,-0.000011,-58.291214,0.000014,
2161,2143,-2.0363445941246,-10.9610501666906,0.0156632135103791,0.002592,0.003739,0.007939,0.095915,0.245834,329.227225,24.164161,0.999387,0.971334,0.006153,0.438561,0.000018,0.000009,0.000013,0.000026,0.000000,35.236242,0.000030,
2176,2068,-1.69568563028809,-12.6071326582246,0.0332359275064391,0.002664,0.003091,0.009092,0.095063,0.230342,330.527654,24.039620,0.999415,0.984063,0.004977,0.386483,0.000041,0.000020,0.000025,0.000057,0.000003,33.590536,0.000068,
2071,3238,-4.16671448657203,12.876728668612,0.0515935014636284,0.002878,0.004522,0.008076,0.111594,0.274711,312.195441,24.488274,0.999470,0.993024,0.003392,0.446082,-0.000032,0.000049,-0.000029,0.000058,-0.000042,-72.075870,0.000060,
2116,2083,-3.00711070578236,-12.2738561343939,0.014733280655264,0.002950,0.004608,0.000483,0.135362,0.255647,330.398505,24.487775,0.998663,0.975336,0.006173,0.348371,0.000020,0.000023,0.000007,0.000029,0.000014,51.972939,0.000044,
2446,3238,3.96736855101187,12.912477228392,0.0276520527466459,0.002758,0.004623,0.008194,0.098507,0.284018,311.284016,26.449226,0.999646,0.992621,0.003480,0.441451,0.000005,0.000047,-0.000011,0.000050,0.000002,-75.778979,0.000059,
2026,2023,-4.95988122984091,-13.588604206486,0.0207821372763988,0.002825,0.004690,0.001894,0.125800,0.273677,331.869902,25.002996,0.998643,0.981424,0.005637,0.427357,0.000013,-0.000205,-0.000035,0.000019,-0.000211,-8.983290,0.000233,
2296,2638,0.817539673863585,-0.140507069051125,-0.012341673175797,0.002997,0.004413,0.003663,0.127101,0.245836,320.720841,24.430232,0.999250,0.987039,0.004308,0.464802,0.000014,0.000024,-0.000003,0.000024,0.000013,-76.099997,0.000038,
2266,2503,0.18848264355502,-3.08510666389785,-0.0134622783213558,0.002819,0.004361,0.003655,0.119074,0.266636,322.931097,24.261425,0.999707,0.991369,0.003965,0.438551,0.000005,0.000025,0.000000,0.000025,0.000005,-89.091903,0.000032,
2491,2143,5.17114016162622,-10.9667230552281,0.0340541202384088,0.002851,0.003995,0.005566,0.110792,0.263111,329.292206,22.403230,0.999029,0.980582,0.005560,0.366135,0.000033,-0.000022,-0.000005,0.000034,-0.000022,-5.456271,0.000034,
2371,2788,2.42150411989832,3.13250130872025,-0.0133606928922632,0.002974,0.004560,0.006610,0.115147,0.273393,318.236148,24.954243,0.999857,0.994264,0.003323,0.327281,-0.000005,0.000064,-0.000010,0.000065,-0.000007,-82.067372,0.000072,
2176,2233,-1.72453971744225,-8.9893183203493,0.0099206780005261,0.002571,0.003942,0.007062,0.097504,0.263828,327.681993,24.195987,0.998682,0.981386,0.005336,0.431212,0.000007,0.000016,0.000000,0.000016,0.000007,-88.680581,0.000024,
2101,3283,-3.52561416792937,13.8544637456071,0.0320188372431289,0.002636,0.004365,0.007573,0.101230,0.255280,311.129082,24.612931,0.999676,0.996065,0.002860,0.456958,-0.000028,0.000052,-0.000010,0.000053,-0.000029,-83.045525,0.000053,
2041,3133,-4.80089131183486,10.6005888367425,0.0339939917370202,0.002849,0.004555,0.005085,0.119035,0.257932,313.943567,24.412685,0.999294,0.992339,0.003584,0.411502,-0.000025,0.000059,0.000001,0.000060,-0.000025,89.158621,0.000060,
2071,2128,-3.99521971418933,-11.2872116157675,0.0183691977838976,0.002805,0.004067,0.006417,0.111755,0.262604,329.898684,24.784261,0.999014,0.983632,0.005160,0.334560,0.000022,-0.000003,0.000016,0.000029,-0.000010,26.294410,0.000030,
2476,2053,4.86110365552578,-12.9426375266057,0.0326730642328243,0.002543,0.004099,0.005993,0.095319,0.239411,330.677133,22.096899,0.999378,0.981714,0.005356,0.375204,0.000075,-0.000021,0.000038,0.000089,-0.000034,19.271812,0.000090,
2281,2593,0.499258020336715,-1.12180188643443,-0.00784120224051321,0.003002,0.004312,0.007281,0.115322,0.274980,321.494032,24.392028,0.999196,0.987857,0.004423,0.457614,0.000015,0.000024,0.000000,0.000024,0.000015,-87.056035,0.000039,
2236,2368,-0.440716661144236,-6.03536633296548,0.000582846469797005,0.002594,0.003695,0.007948,0.094732,0.239831,325.263222,24.167013,0.999310,0.986846,0.004689,0.363993,-0.000007,0.000015,-0.000011,0.000020,-0.000012,-67.256259,0.000020,
2146,3268,-2.5479715538181,13.5346569150731,0.0278188188734134,0.002934,0.004628,0.006027,0.119039,0.272124,311.155470,24.902975,0.999560,0.993949,0.003245,0.430937,-0.000019,0.000042,-0.000022,0.000049,-0.000026,-72.241543,0.000049,
2221,2278,-0.750903146328515,-8.0049851888637,0.0123770727953456,0.002890,0.003337,0.007961,0.108344,0.236143,326.861811,24.079086,0.998971,0.981560,0.005259,0.372981,0.000003,0.000011,-0.000002,0.000011,0.000003,-78.099799,0.000014,
2116,3148,-3.17844521896626,10.9312698409662,0.0310163394644292,0.002748,0.004374,0.010536,0.097299,0.275551,313.253647,24.663600,0.999709,0.994771,0.003072,0.492337,-0.000018,0.000035,-0.000007,0.000036,-0.000019,-82.350937,0.000036,
2506,2263,5.47279957730862,-8.33455836000878,0.0172870485989165,0.003190,0.003504,0.009194,0.112046,0.256769,327.257968,22.763318,0.998830,0.975376,0.005880,0.424983,0.000025,0.000040,-0.000007,0.000043,0.000023,-68.584401,0.000067,
2056,3193,-4.48510545821981,11.9014656714526,0.0446368941675246,0.002651,0.004683,0.007875,0.101996,0.283118,312.947299,24.448953,0.999484,0.993257,0.003367,0.436251,-0.000041,0.000070,-0.000019,0.000073,-0.000044,-80.518371,0.000073,
2101,1993,-3.31932519197362,-14.2505530977239,0.0419479392210746,0.002247,0.003679,0.003056,0.095209,0.231066,332.095487,24.593874,0.999621,0.989845,0.004418,0.280246,0.000069,0.000005,-0.000001,0.000069,0.000005,-0.452636,0.000082,
2206,2413,-1.10005440782335,-5.05314066794605,0.0179074673000628,0.003254,0.004159,0.007457,0.127366,0.274275,324.785266,24.386572,0.999628,0.990715,0.004035,0.334238,-0.000003,0.000014,-0.000016,0.000023,-0.000013,-59.205184,0.000023,
2086,2158,-3.67346497538248,-10.6305002464645,0.0112928829169618,0.002799,0.003581,0.007201,0.108883,0.244533,329.279469,24.635155,0.999031,0.983186,0.005161,0.384701,0.000014,-0.000003,0.000010,0.000019,-0.000008,25.142432,0.000019,
2326,2563,1.48427703407978,-1.7744221861032,-0.0126459340290808,0.002949,0.004191,0.006195,0.115762,0.261257,321.902345,24.285056,0.998903,0.982597,0.005051,0.428030,0.000011,0.000007,-0.000003,0.000012,0.000005,-27.920628,0.000018,
2356,2713,2.10865959202266,1.49744923483468,-0.0185579641803884,0.002717,0.004189,0.006455,0.103894,0.259598,319.399267,24.634525,0.999562,0.990861,0.003734,0.427201,0.000000,0.000049,-0.000008,0.000050,-0.000002,-80.877605,0.000057,
2311,2503,1.16947278375017,-3.0859942931796,-0.00376270060218076,0.002899,0.004307,0.003135,0.124095,0.241357,322.966981,24.114488,0.999478,0.988047,0.004202,0.467564,0.000008,0.000026,0.000005,0.000027,0.000007,74.778327,0.000036,
2026,2038,-4.96177416393868,-13.2615569297244,0.0264300695520205,0.002771,0.004160,0.002049,0.122728,0.238920,331.674558,24.926835,0.998653,0.978887,0.005686,0.462321,0.000015,-0.000171,-0.000024,0.000018,-0.000174,-7.133848,0.000192,
2086,3028,-3.81019744144527,8.32792617097563,0.0136814934840004,0.002776,0.004488,0.006908,0.109779,0.274109,315.225269,24.557219,0.999561,0.992253,0.003450,0.484118,-0.000003,0.000024,0.000006,0.000025,-0.000004,77.647045,0.000027,
2386,2908,2.72414359127061,5.74345752648227,-0.0132614200742296,0.002662,0.004230,0.011091,0.084437,0.279496,316.257433,25.210260,0.999454,0.990542,0.003901,0.433168,-0.000011,0.000016,-0.000015,0.000022,-0.000018,-66.251398,0.000023,
2476,2068,4.85866147106251,-12.6141583794592,0.0371433369501233,0.002824,0.003573,0.006307,0.106719,0.229130,330.484239,22.129705,0.999330,0.978717,0.005700,0.391563,0.000071,-0.000002,0.000033,0.000084,-0.000015,21.046689,0.000089,
2266,2743,0.145037148542176,2.14670824756735,-0.0165887031142233,0.002816,0.004361,0.008001,0.104767,0.270165,318.995945,24.667104,0.999265,0.987042,0.004303,0.455233,0.000015,0.000036,-0.000010,0.000040,0.000011,-67.353360,0.000054,
2161,2158,-2.04143701971177,-10.6244536910599,-0.0302898613482512,0.002828,0.004330,0.004326,0.117983,0.264319,328.622956,24.398781,0.999840,0.944723,0.008376,0.237301,0.000019,-0.000001,0.000009,0.000022,-0.000005,20.806902,0.000023,
2446,3253,3.96458300996082,13.2377036821839,0.0307087188304536,0.002619,0.004786,0.006986,0.096734,0.287006,311.061464,26.502861,0.999763,0.993830,0.003149,0.441252,0.000001,0.000050,-0.000017,0.000055,-0.000004,-73.079531,0.000061,
2041,2038,-4.63548378110431,-13.2612404281012,0.027894800512513,0.002249,0.004189,0.005558,0.088983,0.272416,331.563784,24.870985,0.998610,0.978901,0.005710,0.453511,0.000030,-0.000144,-0.000016,0.000032,-0.000145,-5.082354,0.000152,
2026,3118,-5.12363900171112,10.2753355297158,0.0298427560841787,0.003072,0.004917,0.005975,0.127202,0.284986,314.253764,24.399849,0.999640,0.993969,0.003272,0.399892,-0.000030,0.000070,0.000009,0.000070,-0.000031,85.145320,0.000071,
2341,2623,1.7990267173586,-0.464942767952557,-0.0179239728537937,0.002728,0.004216,0.007550,0.100746,0.259217,320.864854,24.399050,0.999315,0.986685,0.004476,0.439668,0.000011,0.000021,-0.000002,0.000021,0.000011,-80.762512,0.000033,
2131,3208,-2.86193368623807,12.2325078345157,0.0458353077498828,0.002818,0.004632,0.006178,0.113391,0.280822,312.345833,24.797499,0.999686,0.993555,0.003262,0.445769,-0.000026,0.000047,-0.000016,0.000051,-0.000030,-78.257233,0.000051,
2041,3148,-4.80322031953576,10.9249362793058,0.0410963715228831,0.002475,0.004578,0.005580,0.100385,0.257047,313.739828,24.380984,0.999561,0.993380,0.003398,0.433438,-0.000030,0.000065,0.000000,0.000065,-0.000030,-89.797527,0.000065,
2401,2983,3.03773530793151,7.37312518343597,0.00787642443742698,0.002720,0.004325,0.009042,0.094268,0.277446,315.231691,25.439227,0.999710,0.991987,0.003674,0.455687,-0.000008,0.000006,-0.000011,0.000012,-0.000014,-60.718239,0.000015,
2176,2083,-1.69858199751877,-12.2763502442596,0.0234327303235204,0.002595,0.003783,0.004366,0.106779,0.224270,330.216306,24.122303,0.999541,0.984376,0.005053,0.313703,0.000039,0.000029,0.000022,0.000056,0.000012,38.434061,0.000073,
2491,2158,5.16736498885097,-10.6375343094594,0.0303416820948428,0.002487,0.004233,0.005642,0.093986,0.275799,329.002008,22.421263,0.999014,0.979124,0.005698,0.422803,0.000023,-0.000020,-0.000025,0.000034,-0.000031,-24.730452,0.000038,
2056,2113,-4.31988955788421,-11.617030404664,0.0147540802375943,0.002852,0.003557,0.005073,0.117726,0.214113,330.196913,24.747397,0.999071,0.981895,0.005321,0.410617,0.000024,0.000000,0.000009,0.000027,-0.000003,17.660108,0.000029,
2101,3298,-3.52859964371947,14.1798211004366,0.0240294819171822,0.002545,0.004813,0.006231,0.101130,0.268184,310.816115,24.613747,0.999538,0.994243,0.003228,0.468936,-0.000018,0.000061,-0.000014,0.000063,-0.000020,-80.070819,0.000065,
2251,2458,-0.129595768057801,-4.06942431658725,0.0026044286040019,0.002860,0.003418,0.011810,0.094038,0.258741,323.794742,24.225232,0.999728,0.990599,0.004115,0.423245,-0.000001,0.000023,-0.000009,0.000026,-0.000003,-72.114105,0.000028,
2071,3253,-4.16956352644651,13.2023524385321,0.0466786852858831,0.002793,0.004704,0.008688,0.106005,0.285599,311.902985,24.517967,0.999656,0.994562,0.003110,0.422709,-0.000029,0.000043,-0.000032,0.000055,-0.000042,-69.173245,0.000058,
2416,2998,3.36102991390521,7.69999959423422,0.00611252516029026,0.002967,0.004018,0.010321,0.100462,0.255972,314.994414,25.519062,0.999559,0.988740,0.004026,0.441410,-0.000002,0.000005,-0.000009,0.000011,-0.000009,-54.532839,0.000012,
2251,2683,-0.170262652020892,0.838340454395272,-0.0106047932920887,0.002630,0.003944,0.007837,0.096832,0.253376,320.039985,24.531020,0.999484,0.990382,0.003875,0.475048,0.000013,0.000034,-0.000008,0.000037,0.000010,-71.600957,0.000049,
2296,2653,0.813617504260936,0.187187785488142,-0.0184588491520685,0.002475,0.004195,0.006474,0.093513,0.245118,320.392304,24.479384,0.999217,0.987191,0.004288,0.445598,0.000014,0.000025,-0.000001,0.000025,0.000013,-86.653490,0.000039,
2296,2863,0.775870033614947,4.7590615165612,-0.0103185953690286,0.002603,0.004007,0.007975,0.094494,0.256598,317.044436,24.948247,0.999590,0.992165,0.003688,0.408728,0.000011,0.000040,-0.000012,0.000044,0.000007,-70.995934,0.000056,
2101,2218,-3.35604989725354,-9.31632499584812,0.00500131867374876,0.002918,0.004262,0.003767,0.124350,0.255012,328.205852,24.577579,0.998298,0.981285,0.005546,0.387629,0.000013,0.000037,0.000022,0.000050,0.000000,58.675717,0.000058,
2071,3178,-4.15760540132842,11.5777883708673,0.0426481069142142,0.002797,0.004790,0.006581,0.112183,0.290257,313.101702,24.513219,0.999802,0.995998,0.002783,0.454750,-0.000032,0.000063,-0.000011,0.000064,-0.000033,-83.484514,0.000064,
2236,2383,-0.443199782971195,-5.70906757267653,0.00643979311377052,0.002305,0.003559,0.008015,0.081249,0.244014,325.056892,24.102296,0.999377,0.987267,0.004637,0.455677,-0.000008,0.000011,-0.000010,0.000015,-0.000012,-66.657423,0.000016,
2086,2173,-3.67535013797708,-10.3026265562318,0.0151913250250573,0.002915,0.003686,0.006243,0.116983,0.251194,329.079160,24.621238,0.999074,0.982981,0.005051,0.406745,0.000011,0.000008,0.000018,0.000028,-0.000009,42.317009,0.000029,
2326,2578,1.48160456903319,-1.44719538726203,-0.0127853555458159,0.002927,0.004399,0.004277,0.121469,0.258952,321.663494,24.319708,0.999282,0.987260,0.004342,0.426382,0.000014,0.000018,-0.000001,0.000019,0.000014,-76.268772,0.000033,
2116,3163,-3.18042154604166,11.2563160671055,0.0363928256136319,0.002760,0.004426,0.008356,0.104319,0.263621,313.060543,24.702099,0.999581,0.992541,0.003515,0.444112,-0.000021,0.000044,-0.000008,0.000045,-0.000022,-83.394843,0.000045,
2191,2368,-1.42025542590315,-6.03642768618302,0.00377264006459654,0.002850,0.004541,0.004214,0.119318,0.261237,325.429262,24.263253,0.999567,0.987130,0.004543,0.440194,-0.000004,0.000016,-0.000009,0.000020,-0.000008,-68.736454,0.000020,
2431,3118,3.66426866994535,10.3081220145488,0.012751988348441,0.002925,0.004499,0.007004,0.110713,0.266342,313.115558,26.014555,0.999805,0.994786,0.003194,0.390772,0.000009,0.000061,0.000000,0.000061,0.000009,89.644293,0.000076,
2221,2563,-0.801970298823068,-1.77783601862509,-0.0108607107833905,0.002675,0.003847,0.008682,0.096657,0.274071,322.049237,24.385145,0.999496,0.990782,0.003831,0.493534,0.000014,0.000027,0.000000,0.000027,0.000014,-89.585412,0.000042,
2026,2053,-4.96391626286303,-12.9308306130823,0.0314980241699345,0.002801,0.003732,0.006730,0.111195,0.253653,331.463726,25.134488,0.999722,0.992277,0.003675,0.262919,0.000021,-0.000128,-0.000028,0.000026,-0.000133,-10.232011,0.000141,
2056,3208,-4.48740375424622,12.2259513465198,0.0486018483263138,0.002460,0.004686,0.007249,0.094933,0.282733,312.728463,24.424228,0.999456,0.993188,0.003359,0.453715,-0.000042,0.000067,-0.000022,0.000072,-0.000046,-79.020140,0.000073,
2371,2803,2.41864146075046,3.45707961309222,-0.00955661973353017,0.002865,0.004078,0.009011,0.101420,0.269962,318.010780,24.846554,0.999850,0.994598,0.003346,0.472567,-0.000006,0.000051,-0.000009,0.000052,-0.000007,-81.343422,0.000056,
2506,2278,5.46943235783189,-8.00599333498252,0.0158037508118127,0.003016,0.003636,0.008589,0.106496,0.256381,326.997203,22.805431,0.998943,0.975814,0.005656,0.445842,0.000027,0.000036,0.000007,0.000039,0.000023,62.319554,0.000063,
2146,3283,-2.55153198861956,13.8601061728114,0.0209648357778747,0.002547,0.004641,0.008772,0.092808,0.275001,310.825956,24.925564,0.999523,0.993757,0.003310,0.417316,-0.000020,0.000048,-0.000017,0.000052,-0.000024,-76.694839,0.000052,
2146,2143,-2.36305954366287,-10.9611012873413,0.0175957516528911,0.002610,0.004066,0.005321,0.105010,0.261145,329.307098,24.230127,0.999383,0.980572,0.005382,0.471140,0.000017,0.000006,0.000013,0.000025,-0.000002,33.504030,0.000028,
2101,2008,-3.3211658285514,-13.9239971533597,0.0461054403905905,0.002650,0.003425,0.006313,0.104155,0.233086,331.899879,24.409261,0.999645,0.990741,0.004415,0.471515,0.000038,-0.000035,-0.000018,0.000042,-0.000040,-12.952112,0.000047,
2281,2818,0.458272879826016,3.77916974613403,-0.00928188590745549,0.002716,0.004255,0.006091,0.106278,0.250826,317.816176,24.836344,0.999341,0.988788,0.004059,0.409826,0.000013,0.000049,-0.000004,0.000050,0.000012,-84.199718,0.000066,
2041,2053,-4.63991704301046,-12.926840922077,-0.011659546432611,0.002321,0.004268,0.003429,0.098235,0.268652,331.002812,24.934895,0.999666,0.991500,0.003861,0.383641,0.000030,-0.000109,-0.000018,0.000032,-0.000111,-7.145926,0.000115,
2116,2098,-3.00876737721208,-11.9453112590391,0.0189840803242305,0.003407,0.004130,0.000855,0.155071,0.235386,330.212793,24.540626,0.999035,0.975082,0.006088,0.281576,0.000019,0.000030,0.000012,0.000038,0.000012,58.041296,0.000052,
2131,2143,-2.6906519030768,-10.9602670578677,0.0128560781005831,0.002354,0.003763,0.005647,0.092370,0.250057,329.314026,24.331713,0.999026,0.981886,0.005331,0.442108,0.000013,0.000011,0.000014,0.000027,-0.000002,42.789262,0.000030,
2446,3268,3.96002077795486,13.5636268757409,0.0105216981989997,0.002737,0.004560,0.007416,0.100360,0.261589,310.649065,26.524584,0.999714,0.993278,0.003273,0.444827,-0.000006,0.000048,-0.000013,0.000051,-0.000009,-76.670965,0.000054,
2236,2608,-0.482885169796855,-0.79635599457869,-0.0130899505602997,0.003074,0.004492,0.004688,0.127829,0.255676,321.297815,24.418116,0.999106,0.984756,0.004800,0.486281,0.000021,0.000019,0.000003,0.000023,0.000017,37.085451,0.000041,
2356,2728,2.10655634947419,1.82385700432837,-0.0106131791306439,0.002983,0.004357,0.008270,0.109813,0.278768,319.227481,24.684736,0.999461,0.990050,0.003914,0.435135,-0.000005,0.000047,-0.000005,0.000047,-0.000005,-84.501793,0.000052,
2266,2518,0.186420133266552,-2.75990670463869,-0.00235238028636786,0.002789,0.003880,0.006007,0.109771,0.248511,322.772518,24.207455,0.999607,0.991014,0.003930,0.500444,0.000007,0.000020,0.000001,0.000020,0.000007,86.955765,0.000028,
2086,2188,-3.67782859085335,-9.97420955158857,0.0141650790200174,0.002781,0.003776,0.005751,0.112305,0.252481,328.825003,24.615233,0.998909,0.982443,0.005241,0.415962,0.000015,0.000034,0.000028,0.000054,-0.000004,54.384863,0.000060,
2071,2143,-3.99760209475218,-10.9590932770753,0.0191031063828291,0.002601,0.004031,0.005599,0.104704,0.274855,329.657185,24.742344,0.999002,0.983617,0.005193,0.388566,0.000016,0.000001,0.000013,0.000024,-0.000006,29.875966,0.000025,
2296,2668,0.811531128187728,0.514119856909048,-0.010518527332863,0.002688,0.003947,0.008475,0.096539,0.258155,320.217764,24.566902,0.999565,0.989868,0.003976,0.401249,0.000013,0.000035,-0.000006,0.000036,0.000011,-75.495902,0.000050,
2041,3163,-4.80534452359993,11.2500236072384,0.0388436700029615,0.002943,0.004496,0.007146,0.117597,0.260174,313.493179,24.360092,0.999604,0.993074,0.003451,0.448782,-0.000039,0.000073,-0.000008,0.000074,-0.000040,-85.958011,0.000074,
2281,2608,0.495535521895629,-0.793285667854725,-0.0183654985115709,0.002799,0.004092,0.007756,0.104332,0.271881,321.151273,24.465130,0.999116,0.987356,0.004527,0.410096,0.000015,0.000018,0.000002,0.000019,0.000014,64.821413,0.000033,
2071,3268,-4.17273017777573,13.5272384211804,0.0357325637310737,0.002690,0.004582,0.008055,0.103025,0.278566,311.563073,24.468732,0.999768,0.995765,0.002852,0.460256,-0.000029,0.000054,-0.000026,0.000062,-0.000037,-73.844978,0.000062,
2476,2083,4.855199046205,-12.283870945941,0.0286838651991843,0.003176,0.003663,0.006759,0.121156,0.237012,330.185898,22.171702,0.999414,0.979231,0.005515,0.417654,0.000064,-0.000007,0.000025,0.000072,-0.000015,17.774361,0.000076,
2191,2143,-1.3811535755749,-10.9614761293814,0.02193903192682,0.003054,0.003997,0.006387,0.121452,0.266458,329.208138,24.041689,0.999129,0.982421,0.005133,0.414512,0.000026,0.000003,0.000017,0.000035,-0.000006,28.317769,0.000037,
2176,2248,-1.72685018676661,-8.6615721821582,0.0102440297831663,0.002611,0.003742,0.005343,0.104590,0.231583,327.450587,24.199255,0.998744,0.980408,0.005428,0.410390,0.000013,0.000015,0.000000,0.000015,0.000013,75.612919,0.000028,
2116,1993,-2.99456572184161,-14.2463619301403,0.013927696812118,0.001821,0.003657,0.006444,0.065650,0.244868,331.764791,24.573645,0.999634,0.989679,0.004329,0.210550,0.000047,0.000015,-0.000002,0.000047,0.000015,-3.851302,0.000065,
2026,3133,-5.12588465215911,10.5997720744854,0.0346117407993916,0.002913,0.004642,0.006658,0.117871,0.274786,314.039930,24.367837,0.999507,0.993372,0.003428,0.410875,-0.000030,0.000074,0.000006,0.000074,-0.000030,86.544207,0.000075,
2101,2233,-3.35785665016197,-8.98876223792755,0.00755253938945089,0.003249,0.004192,0.003118,0.141445,0.251655,328.003143,24.552017,0.998595,0.982254,0.005315,0.413259,0.000014,0.000040,0.000022,0.000052,0.000002,60.572838,0.000061,
2206,2428,-1.10327997413787,-4.72753541010453,0.013496773311374,0.002988,0.003775,0.009007,0.110138,0.249074,324.490229,24.203031,0.999171,0.987302,0.004599,0.510980,0.000003,0.000003,-0.000012,0.000014,-0.000009,-45.377469,0.000015,
2266,2758,0.141725009618145,2.47397630304552,-0.0238830736933551,0.002876,0.004152,0.010118,0.100502,0.278678,318.686505,24.693276,0.999271,0.987609,0.004272,0.463218,0.000015,0.000045,-0.000006,0.000046,0.000014,-79.094126,0.000063,
2161,2173,-2.04460005219092,-10.2981560433636,-0.0423157341583078,0.002905,0.004539,0.004404,0.121363,0.282059,328.286526,24.065841,0.999788,0.931128,0.008782,0.601345,0.000015,0.000005,0.000011,0.000022,-0.000002,33.167793,0.000024,
2446,3283,3.95602094309858,13.8895422471389,0.00242203482304149,0.002497,0.004583,0.008662,0.084650,0.260241,310.318447,26.593836,0.999726,0.992547,0.003389,0.424909,-0.000008,0.000039,-0.000011,0.000041,-0.000010,-77.134054,0.000043,
2386,2923,2.72214275390654,6.06884968298664,-0.00520727167452151,0.002841,0.004223,0.010049,0.096385,0.260160,316.092282,25.256057,0.999353,0.989724,0.004078,0.410533,-0.000009,0.000006,-0.000018,0.000018,-0.000021,-56.308372,0.000023,
2086,3043,-3.81180450170284,8.65227492062246,0.0250769335886503,0.002834,0.004278,0.006447,0.113654,0.249651,315.080357,24.555457,0.999675,0.991720,0.003512,0.459437,-0.000008,0.000015,0.000002,0.000015,-0.000008,85.570113,0.000015,
2056,3223,-4.48958140192247,12.5506597587333,0.0483243839349257,0.002672,0.004687,0.006955,0.105585,0.279377,312.491634,24.401901,0.999427,0.993048,0.003343,0.466164,-0.000043,0.000064,-0.000027,0.000070,-0.000049,-76.446089,0.000072,
2176,2098,-1.70172105025596,-11.9472316319899,0.0102461799849038,0.002829,0.004143,0.004499,0.117194,0.248165,329.876293,23.993308,0.999428,0.982987,0.005200,0.482474,0.000037,0.000029,0.000023,0.000056,0.000010,40.260402,0.000071,
2206,2188,-1.06227301589999,-9.97558966665549,0.0177539447157073,0.002615,0.003919,0.005331,0.104454,0.245496,328.390592,24.019001,0.999040,0.980979,0.005305,0.391363,0.000012,0.000014,0.000004,0.000017,0.000009,54.972929,0.000026,
2116,3178,-3.18218746009575,11.5808430480438,0.0415350547606863,0.002981,0.004478,0.005890,0.121806,0.256579,312.876045,24.689581,0.999538,0.991735,0.003567,0.451854,-0.000023,0.000045,-0.000009,0.000047,-0.000025,-82.567004,0.000047,
2071,3283,-4.17560178834676,13.8523774527704,0.025990453600798,0.002776,0.004705,0.006896,0.110421,0.287782,311.243216,24.438373,0.999743,0.995927,0.002826,0.495153,-0.000030,0.000055,-0.000021,0.000060,-0.000035,-76.939152,0.000060,
2236,2398,-0.445966954276766,-5.38037345900531,-0.000524580234014138,0.002795,0.003241,0.010051,0.097057,0.241656,324.771933,24.144786,0.999489,0.989341,0.004213,0.433645,-0.000006,0.000010,-0.000011,0.000016,-0.000012,-62.261852,0.000017,
2131,3223,-2.86435925790253,12.5571321584497,0.0471921441495056,0.002921,0.004572,0.007881,0.113095,0.287560,312.111598,24.768624,0.999631,0.993782,0.003196,0.485710,-0.000026,0.000048,-0.000021,0.000053,-0.000032,-75.032766,0.000054,
2296,2878,0.773319796879569,5.08495643841574,-0.0115311024057405,0.002753,0.004475,0.006194,0.107551,0.263319,316.802976,24.933791,0.999589,0.991477,0.003767,0.459819,0.000006,0.000034,-0.000011,0.000038,0.000002,-70.814740,0.000045,
2071,3193,-4.16032723968795,11.9033477195519,0.0413403868105888,0.002538,0.005038,0.006111,0.101649,0.291570,312.834900,24.551803,0.999544,0.994089,0.003174,0.412952,-0.000033,0.000063,-0.000017,0.000066,-0.000036,-80.005320,0.000066,
2401,2998,3.03471668946378,7.70021950106322,-5.7577703557854E-05,0.002815,0.004664,0.003460,0.118982,0.266813,314.944242,25.541645,0.999595,0.989581,0.004019,0.387239,-0.000004,0.000006,-0.000011,0.000013,-0.000010,-57.007941,0.000014,
2101,2023,-3.32447783467172,-13.5916224675508,0.0341915109192996,0.002596,0.003817,0.008790,0.094650,0.249373,331.549726,24.563860,0.999323,0.985881,0.005106,0.338874,0.000028,-0.000039,-0.000017,0.000032,-0.000044,-13.695255,0.000045,
2416,3013,3.35791115474982,8.02646183522807,0.00599254938236982,0.002677,0.004263,0.008692,0.093195,0.261735,314.740452,25.604330,0.999411,0.986217,0.004316,0.408817,0.000001,0.000010,-0.000013,0.000019,-0.000008,-55.288442,0.000019,
2341,2638,1.79682826889542,-0.138251019748317,-0.0141531579766365,0.002782,0.004700,0.003991,0.115803,0.266676,320.667801,24.427272,0.999261,0.986494,0.004543,0.456108,0.000005,0.000023,-0.000006,0.000025,0.000003,-72.915911,0.000030,
2116,2293,-3.04137360612701,-7.6750499497775,0.000348960567976064,0.002926,0.004587,0.002376,0.128908,0.281082,326.896250,24.534611,0.998880,0.985912,0.004859,0.413384,0.000008,0.000014,0.000008,0.000020,0.000002,54.403189,0.000024,
2146,3298,-2.5540045032954,14.184256721863,0.0216505521190697,0.002584,0.004504,0.009037,0.093649,0.260385,310.587119,24.890815,0.999651,0.994773,0.002946,0.443817,-0.000015,0.000054,-0.000022,0.000060,-0.000022,-73.452181,0.000061,
2446,3298,3.95277304026967,14.2142332239278,-0.00111224845130664,0.002489,0.004656,0.008150,0.086281,0.268064,310.043984,26.570091,0.999717,0.993236,0.003325,0.507121,-0.000011,0.000037,-0.000025,0.000048,-0.000022,-66.899328,0.000048,
2026,3148,-5.12801531716783,10.9240018856151,0.0391274941473512,0.002737,0.004738,0.004889,0.114670,0.269577,313.830063,24.313487,0.999604,0.994411,0.003199,0.448788,-0.000035,0.000077,0.000004,0.000077,-0.000035,88.212314,0.000077,
2146,2158,-2.3655646096626,-10.6300979992748,0.0103319340452117,0.002757,0.004527,0.001284,0.124130,0.254126,329.023617,24.391923,0.999685,0.965115,0.006516,0.313365,0.000018,-0.000001,0.000008,0.000021,-0.000005,20.393289,0.000022,
2116,2113,-3.01188395247549,-11.6178434503779,0.019710560482963,0.002834,0.004215,0.004591,0.117847,0.249566,329.941571,24.427783,0.999186,0.984345,0.005022,0.415257,0.000021,0.000022,0.000011,0.000033,0.000011,46.215212,0.000046,
2191,2383,-1.42311728711882,-5.70934086374696,0.00561344257641849,0.002790,0.003844,0.010053,0.098070,0.248325,325.181620,24.248076,0.999331,0.986499,0.004639,0.458834,-0.000005,0.000015,-0.000009,0.000018,-0.000008,-70.280877,0.000019,
2221,2293,-0.753146396241714,-7.67709983445203,0.0114045222455843,0.002967,0.004253,0.003407,0.126783,0.248219,326.630310,24.053834,0.999074,0.984091,0.004897,0.431478,0.000000,0.000011,0.000004,0.000012,-0.000002,69.891252,0.000013,
2431,3133,3.66172447624101,10.6328893183961,0.0176422556691591,0.002872,0.004568,0.005980,0.112140,0.275770,312.912432,26.002576,0.999692,0.992796,0.003438,0.461189,0.000011,0.000057,-0.000001,0.000057,0.000011,-88.996090,0.000073,
2506,2293,5.4656799961718,-7.67692920669179,0.0145560558256648,0.002330,0.003813,0.006659,0.082617,0.232219,326.719765,22.924819,0.999145,0.976939,0.005609,0.365654,0.000028,0.000035,0.000021,0.000052,0.000010,49.675927,0.000067,
2116,2008,-2.99645830894608,-13.9206435531942,0.0202297476836293,0.001942,0.003142,0.007874,0.066830,0.221961,331.579663,24.364260,0.999648,0.991110,0.004338,0.403924,0.000021,-0.000015,-0.000018,0.000028,-0.000022,-22.085300,0.000030,
2296,2683,0.808701376945702,0.840499415263672,-0.0133379293880012,0.002765,0.004084,0.008002,0.101708,0.262147,319.955919,24.527617,0.999610,0.989369,0.004013,0.475041,0.000010,0.000050,-0.000012,0.000053,0.000007,-74.815195,0.000066,
2086,2203,-3.68067617675391,-9.6456583803169,0.0137283916160982,0.002452,0.003634,0.008548,0.089128,0.257889,328.557138,24.629009,0.998607,0.980681,0.005400,0.409344,0.000015,0.000036,0.000026,0.000054,-0.000002,56.248287,0.000061,
2041,3178,-4.80765431564712,11.5745034445338,0.0414262719387466,0.002899,0.004495,0.008165,0.112790,0.270217,313.265175,24.309251,0.999666,0.993612,0.003330,0.500947,-0.000045,0.000078,-0.000013,0.000080,-0.000047,-83.851205,0.000080,
2161,1993,-2.01059416424971,-14.2499774903312,0.0309130383523097,0.002594,0.004154,0.003879,0.108393,0.249586,331.773729,24.229389,0.999164,0.982016,0.005243,0.242431,0.000073,0.000018,0.000023,0.000082,0.000009,20.168377,0.000100,
2311,2518,1.16609336557196,-2.75784303122455,-0.00726728943726584,0.002655,0.004161,0.004631,0.107742,0.239729,322.677971,24.182945,0.999449,0.986501,0.004335,0.430914,0.000010,0.000017,0.000004,0.000019,0.000008,68.987844,0.000028,
2071,3298,-4.1781323190546,14.1771048506127,0.0264742088919547,0.002745,0.004503,0.008569,0.104101,0.273507,310.995446,24.453366,0.999542,0.994676,0.003051,0.461181,-0.000022,0.000063,-0.000030,0.000072,-0.000031,-72.419068,0.000072,
2491,2173,5.1650280717559,-10.3102724021117,0.038698723007542,0.002726,0.003893,0.007929,0.096034,0.271517,328.832053,22.413997,0.998630,0.970728,0.006301,0.487102,0.000011,0.000008,-0.000023,0.000032,-0.000013,-43.488659,0.000032,
2071,2158,-3.99974293998878,-10.6311410387558,0.0147871313124028,0.002865,0.003937,0.003368,0.123157,0.240299,329.399459,24.683224,0.999158,0.983791,0.005098,0.412910,0.000017,-0.000009,0.000005,0.000018,-0.000010,11.165275,0.000018,
2266,2533,0.183065243834356,-2.43293779514558,-0.00951574916223308,0.002580,0.003461,0.005347,0.102168,0.207226,322.462661,24.178709,0.999707,0.995124,0.003280,0.514756,0.000004,0.000020,-0.000001,0.000020,0.000004,-86.305624,0.000026,
2161,2188,-2.04376346035083,-9.97684529439897,0.00549973070940268,0.002926,0.004507,0.003858,0.123970,0.265084,328.448033,23.948907,0.999722,0.911308,0.009636,0.712020,0.000012,0.000015,0.000012,0.000026,0.000001,48.543532,0.000031,
2101,2038,-3.32747115912605,-13.2626155830484,0.0216295705643006,0.002645,0.003869,0.007569,0.100418,0.270953,331.211103,24.406501,0.999330,0.985320,0.005251,0.522997,0.000026,-0.000032,-0.000008,0.000027,-0.000033,-7.384974,0.000035,
2281,2833,0.455357710411523,4.10536483236175,-0.012730719207525,0.002824,0.004038,0.006817,0.108735,0.243420,317.545679,24.833193,0.999472,0.990714,0.003909,0.433333,0.000008,0.000053,-0.000003,0.000053,0.000008,-86.089831,0.000067,
2326,2593,1.47860052247112,-1.12015328245875,-0.0137751199275158,0.003032,0.004111,0.007555,0.114882,0.264629,321.405240,24.326895,0.999663,0.991129,0.003742,0.460040,0.000015,0.000012,0.000001,0.000015,0.000012,9.457156,0.000027,
2176,2263,-1.72921609641416,-8.3320942482729,0.0118200513023794,0.002557,0.004493,0.004198,0.105940,0.277089,327.222498,24.301054,0.998956,0.979912,0.005557,0.368695,0.000015,0.000013,0.000003,0.000017,0.000011,36.530967,0.000028,
2101,2248,-3.36084853544962,-8.66085967407655,0.00679225742482004,0.002760,0.003983,0.004826,0.113987,0.255279,327.728348,24.521629,0.998708,0.984341,0.005154,0.451036,0.000013,0.000048,0.000023,0.000059,0.000002,63.975624,0.000070,
2131,3238,-2.86758034286018,12.8827730235055,0.0375930211071704,0.002779,0.004497,0.006971,0.109114,0.262415,311.781707,24.806934,0.999605,0.993892,0.003075,0.426435,-0.000025,0.000039,-0.000024,0.000047,-0.000033,-71.934820,0.000048,
2401,3013,3.03175292567122,8.02597420077406,0.00249896470580779,0.002692,0.004819,0.004999,0.107854,0.282477,314.709154,25.570043,0.999549,0.988770,0.004068,0.419398,0.000001,0.000010,-0.000013,0.000019,-0.000009,-54.744006,0.000019,
2476,2098,4.85187109477782,-11.953236025669,0.024046426307109,0.002807,0.004499,0.000732,0.127476,0.247235,329.910853,22.291624,0.999474,0.977952,0.005578,0.368011,0.000054,-0.000015,0.000010,0.000055,-0.000017,8.083237,0.000057,
2281,2623,0.492839556990511,-0.467368966942729,-0.0162881896496287,0.002761,0.003596,0.009206,0.097553,0.246156,320.919068,24.435811,0.999262,0.987021,0.004409,0.442029,0.000013,0.000025,0.000002,0.000025,0.000013,82.158508,0.000039,
2056,2128,-4.32265814557633,-11.2868073578211,0.00856081644155893,0.002777,0.003559,0.006009,0.111700,0.220201,329.898156,24.823286,0.998851,0.981483,0.005518,0.338839,0.000018,-0.000009,0.000016,0.000025,-0.000017,24.616208,0.000026,
2251,2473,-0.132003678156334,-3.74308782290388,0.00725154773886061,0.002573,0.003765,0.009249,0.089395,0.260598,323.586638,24.182352,0.999661,0.990327,0.004046,0.492575,0.000003,0.000024,-0.000001,0.000024,0.000003,-87.147439,0.000029,
2251,2698,-0.172834880299412,1.16541240957647,-0.0159718210918527,0.002862,0.004306,0.004511,0.118533,0.255521,319.773090,24.540338,0.999473,0.990727,0.003716,0.491829,0.000015,0.000036,-0.000010,0.000040,0.000011,-68.814385,0.000053,
2371,2818,2.4153208671157,3.78318622543881,-0.0124027306484322,0.002799,0.003947,0.011138,0.090749,0.253710,317.732121,24.845416,0.999866,0.994682,0.003389,0.498433,-0.000009,0.000043,-0.000013,0.000046,-0.000012,-77.156433,0.000048,
2041,2068,-4.64179679418318,-12.600159530099,-0.00336955329305511,0.002349,0.003899,0.006951,0.089675,0.260384,330.823691,24.841006,0.999619,0.991538,0.003830,0.464744,0.000033,-0.000083,-0.000004,0.000033,-0.000083,-2.023024,0.000084,
2056,3238,-4.49146728046125,12.8754430119531,0.0528978242269886,0.002883,0.004618,0.006693,0.116054,0.276947,312.295024,24.416705,0.999512,0.993804,0.003252,0.442163,-0.000043,0.000050,-0.000032,0.000060,-0.000053,-72.513127,0.000066,
2356,2743,2.10358844920467,2.14980888688579,-0.009305561108647,0.002670,0.004091,0.007160,0.099204,0.251922,318.984165,24.689660,0.999503,0.990770,0.003795,0.442372,-0.000004,0.000055,-0.000006,0.000055,-0.000005,-84.166803,0.000061,
2221,2308,-0.756053933517673,-7.34903017321363,0.00881001142869309,0.002845,0.004056,0.003744,0.120057,0.237454,326.360151,24.057400,0.999077,0.986307,0.004534,0.438009,0.000002,0.000013,0.000005,0.000015,0.000000,69.089589,0.000017,
2236,2623,-0.485790311119551,-0.46879549558696,-0.0111686716115855,0.002802,0.004544,0.006643,0.109047,0.264126,321.051433,24.503076,0.999187,0.984861,0.004766,0.431348,0.000022,0.000020,0.000001,0.000022,0.000019,33.121633,0.000042,
2461,1993,4.54584509862292,-14.2598179301712,0.032305435738067,0.002959,0.004302,0.002008,0.129493,0.239831,331.637968,22.022955,0.998604,0.966754,0.006771,0.315406,0.000081,-0.000024,0.000066,0.000113,-0.000056,25.752027,0.000113,
2221,2578,-0.80450987857142,-1.45056082870552,-0.0132125356498705,0.002739,0.004157,0.006424,0.106937,0.264231,321.796814,24.410673,0.999146,0.988708,0.004176,0.478128,0.000014,0.000035,0.000002,0.000035,0.000014,85.654973,0.000050,
2071,3208,-4.16235090140175,12.2271586214058,0.0483692922600767,0.002542,0.004709,0.006969,0.099306,0.287230,312.646670,24.487159,0.999459,0.993486,0.003324,0.468899,-0.000033,0.000064,-0.000020,0.000068,-0.000037,-78.655674,0.000068,
2176,2353,-1.74524665954045,-6.36295298632274,-0.00556625939469768,0.002765,0.004522,0.005458,0.111681,0.283864,325.632254,24.313197,0.998596,0.980632,0.005490,0.449661,-0.000005,0.000005,-0.000013,0.000014,-0.000014,-55.539015,0.000016,
2161,2008,-2.01318629654644,-13.9217590542207,0.0309061253319669,0.002614,0.003893,0.006548,0.101074,0.255098,331.526362,24.147313,0.999056,0.984058,0.005065,0.343796,0.000044,-0.000002,0.000013,0.000047,-0.000005,14.872737,0.000052,
2131,2158,-2.69102795999515,-10.6328091999683,0.0299322758981475,0.002873,0.004473,-0.000168,0.133764,0.237417,329.256285,24.435091,0.999707,0.990994,0.004198,0.333550,0.000015,0.000003,0.000010,0.000021,-0.000003,29.728866,0.000023,
2191,2398,-1.42507454928685,-5.38206620700576,0.00907531441680476,0.002749,0.004192,0.004583,0.113424,0.245780,324.983704,24.259803,0.999269,0.985045,0.004921,0.460507,-0.000009,0.000013,-0.000015,0.000021,-0.000017,-62.837542,0.000022,
2506,2308,5.463280652259,-7.34901427501181,0.0166241322714882,0.002659,0.004133,0.004182,0.107378,0.236813,326.519115,22.948504,0.999123,0.978945,0.005503,0.409493,0.000032,0.000042,0.000019,0.000056,0.000017,51.872967,0.000077,
2266,2773,0.139442086827263,2.80023001296771,-0.0209928340096326,0.002792,0.004173,0.006235,0.109486,0.261095,318.475805,24.737360,0.999204,0.986714,0.004372,0.427111,0.000013,0.000049,-0.000006,0.000050,0.000012,-80.935391,0.000066,
2236,2653,-0.490749789709319,0.184978047183613,-0.00518543023741813,0.002708,0.004177,0.007020,0.103372,0.252540,320.608919,24.608813,0.999359,0.988725,0.004340,0.357143,0.000027,0.000030,0.000003,0.000032,0.000025,61.962445,0.000057,
2116,2308,-3.04374823709252,-7.34825069690382,0.00318777922410618,0.002791,0.004325,0.003101,0.120506,0.261110,326.670535,24.484361,0.998962,0.984919,0.005034,0.449029,0.000007,0.000011,-0.000004,0.000013,0.000004,-59.543483,0.000018,
2431,3148,3.65791882630854,10.9589087744827,0.0145690267095233,0.002254,0.004579,0.005549,0.085289,0.269268,312.613626,26.077024,0.999641,0.993214,0.003336,0.428738,0.000008,0.000046,0.000000,0.000046,0.000008,89.839350,0.000058,
2041,3193,-4.80981026148964,11.8998368003483,0.0468906191653673,0.002740,0.004394,0.007565,0.107115,0.267422,313.059961,24.370091,0.999576,0.993423,0.003364,0.428205,-0.000049,0.000077,-0.000022,0.000081,-0.000052,-80.266438,0.000082,
2341,2653,1.79327725940469,0.189462329336422,-0.0225114989323743,0.002878,0.004277,0.006491,0.111374,0.258754,320.349585,24.467220,0.999399,0.988269,0.004330,0.445414,0.000002,0.000024,-0.000004,0.000025,0.000001,-79.397787,0.000030,
2026,3163,-5.13013185223053,11.2489526883503,0.0440088112768535,0.002803,0.004591,0.007204,0.111328,0.272666,313.622636,24.322652,0.999587,0.993727,0.003334,0.431846,-0.000045,0.000083,-0.000009,0.000083,-0.000046,-86.081698,0.000083,
2206,2443,-1.1079144743878,-4.39683005373302,-0.0102298894904038,0.002511,0.003744,0.008116,0.091067,0.245638,324.029926,24.289529,0.998645,0.982375,0.005394,0.440013,0.000001,0.000012,-0.000010,0.000018,-0.000005,-59.257293,0.000018,
2191,2158,-1.38291959274293,-10.6343941352612,0.0303564543236803,0.002958,0.004212,0.002639,0.128851,0.236138,329.044981,24.036754,0.999336,0.985336,0.004791,0.406019,0.000027,0.000000,0.000013,0.000032,-0.000006,21.969399,0.000034,
2386,2938,2.71918744343995,6.39487522882364,-0.00304912274248181,0.002634,0.004260,0.010306,0.085935,0.258342,315.854930,25.304281,0.999331,0.989289,0.004123,0.403377,-0.000007,0.000006,-0.000020,0.000021,-0.000022,-53.386424,0.000025,
2056,2143,-4.3249011646352,-10.9597316695125,0.0127376529767389,0.002437,0.003612,0.004720,0.099734,0.216645,329.680927,24.739385,0.998805,0.982794,0.005473,0.416519,0.000012,-0.000004,0.000015,0.000021,-0.000012,30.664415,0.000021,
2116,2128,-3.01434270629426,-11.2896384336775,0.0181118949410575,0.002736,0.003977,0.002970,0.118044,0.221939,329.688049,24.403772,0.998783,0.981756,0.005445,0.418479,0.000017,0.000018,0.000015,0.000033,0.000003,45.739301,0.000040,
2416,3028,3.3547819587558,8.35242810323657,0.00344756598855156,0.002680,0.004265,0.008449,0.094269,0.268014,314.474709,25.631410,0.999494,0.987964,0.004178,0.435043,0.000003,0.000018,-0.000013,0.000026,-0.000005,-60.095937,0.000027,
2131,2368,-2.72719392904542,-6.0365850768791,-0.000903278564919674,0.002661,0.004312,0.003493,0.113298,0.255828,325.598034,24.453313,0.999151,0.985967,0.004636,0.446201,-0.000008,0.000015,-0.000021,0.000027,-0.000020,-59.784229,0.000028,
2461,2008,4.5426753361699,-13.9305763407626,0.0337079407406122,0.002832,0.004041,0.003439,0.118245,0.221274,331.396919,22.077915,0.998900,0.972051,0.006259,0.299839,0.000080,-0.000025,0.000052,0.000101,-0.000046,22.415453,0.000101,
2116,3193,-3.18523300987469,11.9061105808062,0.0432103244249333,0.002473,0.004483,0.008451,0.090874,0.272487,312.613807,24.705367,0.999595,0.991859,0.003678,0.454106,-0.000025,0.000046,-0.000015,0.000049,-0.000028,-78.680682,0.000049,
2086,1993,-3.64697152601612,-14.2498323038807,0.0354545314833672,0.002328,0.003464,0.004975,0.093448,0.228115,332.111305,24.656707,0.999150,0.983138,0.005120,0.319815,0.000060,-0.000010,0.000002,0.000060,-0.000010,1.429660,0.000064,
2206,2203,-1.06521346814032,-9.64582411560538,0.0125322347289512,0.002618,0.004059,0.005772,0.103255,0.262713,328.103840,24.083695,0.999025,0.980630,0.005402,0.363378,0.000009,0.000020,0.000002,0.000021,0.000009,79.392185,0.000030,
2311,2533,1.16357922426815,-2.43043225364812,-0.00880090050839044,0.002958,0.004308,0.003907,0.124192,0.244366,322.438419,24.200081,0.999488,0.987148,0.004295,0.451789,0.000013,0.000011,-0.000002,0.000015,0.000010,-29.735166,0.000025,
2146,2173,-2.36570415171987,-10.3073903965547,0.0462028510613095,0.002970,0.003683,0.006196,0.118774,0.247836,329.077428,24.259485,0.999810,0.944170,0.008110,0.448501,0.000014,0.000007,0.000011,0.000023,-0.000001,36.798497,0.000026,
2401,3028,3.0291323922605,8.3511556669124,0.00617054494045988,0.002751,0.004560,0.005608,0.108226,0.270258,314.495270,25.584561,0.999584,0.988918,0.004072,0.437454,0.000002,0.000016,-0.000014,0.000025,-0.000006,-58.154848,0.000026,
2116,2023,-2.99786318577327,-13.5904836334268,0.0205802848782355,0.002728,0.004014,0.005667,0.109634,0.250247,331.384061,24.445460,0.999282,0.984466,0.005433,0.357731,0.000013,-0.000014,-0.000017,0.000021,-0.000022,-25.547086,0.000025,
2236,2638,-0.488262587981115,-0.142191731762324,-0.0126911659959319,0.003066,0.004243,0.006634,0.121098,0.259044,320.807615,24.489002,0.999109,0.986339,0.004605,0.462322,0.000024,0.000024,-0.000001,0.000025,0.000023,-49.164360,0.000048,
2161,2023,-2.01588487247475,-13.5929949071511,0.0303859004754372,0.002478,0.003554,0.007849,0.090762,0.251584,331.271417,24.123648,0.998796,0.983134,0.005202,0.377800,0.000036,0.000012,0.000013,0.000042,0.000006,23.876067,0.000052,
2146,2203,-2.37368840208579,-9.64560819451292,0.00822596236537265,0.002423,0.003566,0.006880,0.091595,0.239223,328.250649,24.338138,0.998676,0.976487,0.005775,0.384097,0.000012,0.000028,0.000015,0.000037,0.000003,59.200988,0.000044,
2281,2878,0.447081144223695,5.08360050415492,-0.0104612644968824,0.002539,0.004380,0.006855,0.095656,0.257243,316.818548,24.877098,0.999705,0.992631,0.003646,0.485888,0.000006,0.000036,-0.000007,0.000038,0.000004,-77.135444,0.000046,
2296,2893,0.771055939365894,5.41121314016427,-0.0102322814708486,0.003000,0.004533,0.004307,0.125330,0.254147,316.587022,24.991137,0.999558,0.991412,0.003699,0.422819,0.000002,0.000025,-0.000008,0.000028,-0.000001,-72.056476,0.000031,
2461,2023,4.53955404746548,-13.6004668185774,0.0306705107972789,0.003032,0.003773,0.003714,0.126214,0.222612,331.137651,22.147246,0.999243,0.977674,0.005648,0.289969,0.000077,-0.000017,0.000035,0.000088,-0.000029,18.385729,0.000090,
2071,2173,-4.00210287401402,-10.3025907928092,0.0170265679264503,0.002778,0.003921,0.005467,0.113215,0.265636,329.167069,24.694353,0.999092,0.984527,0.005002,0.426740,0.000014,0.000006,0.000014,0.000025,-0.000004,37.363472,0.000026,
2086,2218,-3.68261144301317,-9.31703405359216,0.0120916928391921,0.002735,0.004067,0.005374,0.111404,0.278962,328.324359,24.626522,0.998488,0.981861,0.005307,0.434366,0.000017,0.000040,0.000028,0.000059,-0.000001,56.329447,0.000067,
2251,2713,-0.176009427045045,1.49266280264173,-0.0196683808406988,0.002692,0.004264,0.005597,0.107134,0.247203,319.486943,24.595432,0.999445,0.990621,0.003801,0.451858,0.000016,0.000034,-0.000011,0.000039,0.000011,-64.491105,0.000053,
2101,2263,-3.3635501649238,-8.33423382730944,0.0134203647821209,0.002484,0.002707,0.012685,0.077997,0.215319,327.507077,24.498573,0.998809,0.983743,0.005097,0.437676,0.000014,0.000049,0.000025,0.000062,0.000001,62.680555,0.000072,
2131,3253,-2.87023395325291,13.2078555022215,0.0347816679509947,0.002767,0.004618,0.006166,0.111137,0.280438,311.514461,24.793687,0.999613,0.994470,0.003037,0.462143,-0.000023,0.000035,-0.000024,0.000044,-0.000031,-70.209502,0.000045,
2041,2083,-4.64183356821881,-12.2739764665366,0.0223051516691157,0.002728,0.004033,0.003181,0.117575,0.224574,330.824860,24.924352,0.999174,0.985528,0.004740,0.339805,0.000033,-0.000038,0.000004,0.000033,-0.000039,3.481617,0.000042,
2101,2053,-3.32924994142368,-12.932936473027,0.0301894597054115,0.002593,0.003875,0.006582,0.100966,0.256636,331.041618,24.588546,0.998985,0.973653,0.006178,0.330979,0.000025,-0.000017,-0.000005,0.000026,-0.000018,-7.338798,0.000026,
2266,2548,0.180768104287832,-2.10337955696906,-0.0131874497832314,0.003067,0.004126,0.003011,0.132560,0.253590,322.217927,24.336401,0.999544,0.991724,0.003822,0.430143,0.000008,0.000020,0.000003,0.000021,0.000007,77.625401,0.000029,
2221,2593,-0.807371284644304,-1.12321167177613,-0.0178509609604589,0.002729,0.004116,0.005361,0.109848,0.257108,321.517863,24.425581,0.999064,0.986098,0.004586,0.475947,0.000013,0.000030,0.000000,0.000030,0.000013,89.510999,0.000045,
2431,3163,3.65605594686208,11.2841336295298,0.0239877819864773,0.002800,0.004561,0.008004,0.101328,0.274664,312.462717,26.145359,0.999635,0.992257,0.003526,0.414714,0.000006,0.000053,-0.000001,0.000053,0.000006,-89.093848,0.000066,
2026,3178,-5.13224829996439,11.5732170650861,0.0487851754649,0.002733,0.004370,0.007120,0.108287,0.266359,313.414936,24.280511,0.999642,0.993556,0.003262,0.456624,-0.000050,0.000085,-0.000017,0.000087,-0.000052,-82.902135,0.000087,
2251,2728,-0.178593882773612,1.81928861553367,-0.0193132754235421,0.002813,0.004142,0.006565,0.109487,0.249423,319.248479,24.620197,0.999268,0.989790,0.003982,0.453111,0.000018,0.000033,-0.000012,0.000040,0.000011,-60.864416,0.000054,
2056,2158,-4.32732142085947,-10.6300694529641,0.0121565688125429,0.002470,0.003515,0.007302,0.093966,0.232770,329.428927,24.825657,0.999089,0.985230,0.005006,0.344045,0.000008,-0.000015,0.000007,0.000010,-0.000016,15.061840,0.000017,
2131,2173,-2.69492885092196,-10.3040712601016,0.0143118972231946,0.002795,0.003764,0.006054,0.111408,0.245940,328.863398,24.291212,0.999399,0.975548,0.005650,0.495344,0.000012,0.000012,0.000015,0.000027,-0.000003,44.399389,0.000030,
2056,3253,-4.4940379016627,13.2009483714285,0.0523407138105654,0.002782,0.004780,0.007319,0.109604,0.270973,312.038327,24.476106,0.999692,0.994889,0.003106,0.370082,-0.000040,0.000043,-0.000035,0.000056,-0.000053,-69.795932,0.000063,
2491,2188,5.1609924475374,-9.97922683644961,0.0255493469090311,0.002878,0.003486,0.007570,0.104199,0.249682,328.487425,22.547543,0.998577,0.970467,0.006331,0.393557,0.000022,0.000025,-0.000017,0.000040,0.000007,-48.112160,0.000051,
2041,3208,-4.81204780113684,12.2244968888029,0.0463116454264991,0.002733,0.004555,0.004764,0.114613,0.255680,312.817669,24.345893,0.999455,0.992960,0.003400,0.431731,-0.000049,0.000073,-0.000026,0.000078,-0.000055,-78.530292,0.000080,
2086,2008,-3.64881249881715,-13.9206704786556,0.0345635481046429,0.002713,0.003992,0.003112,0.116612,0.262214,331.886606,24.620124,0.999397,0.986047,0.004822,0.393265,0.000028,-0.000059,-0.000016,0.000030,-0.000062,-10.177562,0.000062,
2281,2848,0.452002969746609,4.4331476049118,-0.0167303491869575,0.002616,0.004269,0.008609,0.093340,0.268427,317.251684,24.944454,0.999590,0.992513,0.003771,0.374690,0.000011,0.000043,-0.000003,0.000043,0.000010,-83.882794,0.000057,
2131,2383,-2.72957845430402,-5.70859228728279,-0.00179479386321191,0.002693,0.004549,0.002580,0.117609,0.275711,325.352721,24.461129,0.998975,0.985064,0.004773,0.465649,-0.000006,0.000020,-0.000018,0.000029,-0.000015,-63.330477,0.000029,
2371,2833,2.41227240165601,4.11121765141336,-0.01870935255738,0.002834,0.004357,0.007485,0.105526,0.263943,317.448792,24.973437,0.999668,0.990073,0.003975,0.421736,-0.000012,0.000045,-0.000014,0.000049,-0.000016,-76.657388,0.000050,
2176,2278,-1.73157580770298,-8.00552392244116,0.0145387707212308,0.002650,0.003830,0.006423,0.103108,0.242834,327.001536,24.233358,0.998865,0.979555,0.005563,0.416493,0.000014,0.000010,0.000002,0.000015,0.000009,18.952178,0.000024,
2296,2698,0.805434416522264,1.16786147377839,-0.0193126602165989,0.002598,0.004110,0.006902,0.097762,0.257015,319.658101,24.566869,0.999723,0.991616,0.003743,0.461255,0.000012,0.000048,-0.000012,0.000051,0.000009,-72.848825,0.000065,
2191,2173,-1.38675877341876,-10.3042504664229,0.0163705323673753,0.002681,0.004238,0.003891,0.112270,0.253866,328.670312,24.030205,0.999325,0.968035,0.006056,0.448351,0.000022,0.000003,0.000012,0.000028,-0.000002,26.200502,0.000031,
2356,2758,2.09928092181039,2.47806841786876,-0.0238048663043173,0.002291,0.004447,0.006704,0.083592,0.267687,318.602405,24.743724,0.999405,0.989222,0.003985,0.443329,-0.000003,0.000060,-0.000005,0.000060,-0.000003,-85.241066,0.000068,
2506,2323,5.46013539414559,-7.02072293119691,0.0139773750151448,0.002984,0.004183,0.005712,0.116364,0.271108,326.262975,22.935092,0.998939,0.982646,0.005173,0.520476,0.000031,0.000068,0.000028,0.000083,0.000016,61.608775,0.000106,
2266,2788,0.137137071440105,3.1262000333079,-0.0182359725689594,0.002912,0.004224,0.005359,0.117940,0.263759,318.263426,24.738190,0.999134,0.987086,0.004504,0.454324,0.000013,0.000053,-0.000003,0.000053,0.000013,-85.878876,0.000070,
2161,2203,-2.04662261773249,-9.64557082227817,0.009477156085552,0.002592,0.003529,0.008399,0.094493,0.239199,328.208847,24.290540,0.998865,0.960009,0.006802,0.357057,0.000010,0.000025,0.000013,0.000032,0.000002,59.917443,0.000039,
2221,2323,-0.759435824398249,-7.01992130625423,-0.00189394056934589,0.002974,0.003965,0.006267,0.117919,0.248745,326.026488,24.059125,0.999125,0.986836,0.004536,0.468945,0.000005,0.000004,0.000002,0.000007,0.000003,40.985009,0.000010,
2236,2893,-0.532178766471215,5.40690331705946,0.00380779850763702,0.002798,0.004570,0.006354,0.110023,0.270560,316.788494,24.893910,0.999687,0.991145,0.003741,0.428566,-0.000002,0.000037,0.000001,0.000037,-0.000002,88.437762,0.000042,
2311,2548,1.16018194253914,-2.1029750982636,-0.00749828083013426,0.002773,0.003974,0.011269,0.090482,0.259259,322.172199,24.241576,0.999398,0.983976,0.004761,0.458197,0.000017,0.000013,-0.000001,0.000018,0.000013,-10.083613,0.000030,
2116,2323,-3.04653358693676,-7.01972059817714,0.000353560583903345,0.002549,0.004223,0.002665,0.110632,0.245080,326.395280,24.536850,0.999159,0.986907,0.004671,0.386212,0.000007,0.000002,-0.000009,0.000014,-0.000005,-37.614238,0.000015,
2191,2413,-1.42880259091725,-5.05311503150272,2.48703615852719E-05,0.002330,0.003881,0.006779,0.087238,0.249005,324.639432,24.305155,0.999101,0.986519,0.004716,0.434911,-0.000007,0.000009,-0.000022,0.000024,-0.000022,-55.289051,0.000027,
2251,2968,-0.219682487190607,7.03836348418058,0.00140304432920857,0.002737,0.004903,0.003827,0.115539,0.286285,315.519149,25.073630,0.999457,0.993004,0.003573,0.405762,-0.000007,0.000025,-0.000003,0.000025,-0.000007,-84.274691,0.000026,
2386,2953,2.71605151606414,6.72048639791435,-0.00196117442175137,0.002270,0.004052,0.009801,0.070911,0.243349,315.604250,25.323968,0.999267,0.988037,0.004306,0.411223,-0.000004,0.000007,-0.000020,0.000022,-0.000020,-52.439401,0.000024,
2086,2233,-3.68491216166732,-8.98794233651171,0.00267489422151357,0.003270,0.003962,0.004123,0.139562,0.263473,328.032790,24.628351,0.998761,0.984404,0.004918,0.418916,0.000019,0.000045,0.000028,0.000062,0.000001,57.594535,0.000073,
2491,2203,5.15771046657522,-9.64956497998919,0.0185963838994212,0.002851,0.004324,0.002542,0.122550,0.255454,328.205034,22.599009,0.998375,0.971882,0.006302,0.409659,0.000031,0.000022,-0.000029,0.000056,-0.000003,-40.759673,0.000063,
2131,3268,-2.8734692410352,13.533159305241,0.0282738467527679,0.002622,0.004488,0.008485,0.097380,0.267234,311.200576,24.815759,0.999613,0.994710,0.003028,0.430836,-0.000022,0.000045,-0.000020,0.000051,-0.000027,-74.390527,0.000051,
2146,2443,-2.41315000439519,-4.3982410227832,-0.0063426565140503,0.002994,0.003845,0.007183,0.117238,0.237046,324.286159,24.444398,0.999144,0.986532,0.004813,0.433633,-0.000011,0.000006,-0.000022,0.000021,-0.000027,-55.679720,0.000028,
2056,3268,-4.49674101887678,13.5254655787409,0.0471090982126157,0.002732,0.004740,0.006241,0.110385,0.271755,311.750090,24.415793,0.999698,0.994931,0.002993,0.424165,-0.000040,0.000053,-0.000026,0.000060,-0.000047,-75.117753,0.000063,
2146,2188,-2.36885427125092,-9.97817120468008,0.0376460153843823,0.002722,0.004149,0.004821,0.111707,0.258800,328.757869,24.236772,0.999365,0.953774,0.007147,0.493228,0.000014,0.000022,0.000016,0.000034,0.000002,52.333096,0.000040,
2476,2113,4.84785735755716,-11.6238966057746,0.0206894753859501,0.002590,0.003845,0.006085,0.097017,0.239493,329.610244,22.331430,0.999402,0.975758,0.005870,0.380594,0.000046,-0.000028,0.000006,0.000046,-0.000029,4.543925,0.000047,
2221,2608,-0.809900346542143,-0.795983475140403,-0.0205425309598581,0.002997,0.004332,0.005494,0.121866,0.274952,321.264050,24.426531,0.998852,0.982409,0.005036,0.512581,0.000015,0.000020,0.000001,0.000020,0.000015,79.660894,0.000035,
2251,2743,-0.180939271989576,2.14576341678101,-0.0172911561128899,0.002939,0.004016,0.005924,0.117365,0.247471,319.029443,24.652962,0.999191,0.987571,0.004335,0.441821,0.000019,0.000032,-0.000009,0.000036,0.000014,-63.597796,0.000052,
2026,3193,-5.13475206730952,11.8981890627295,0.0523500828870169,0.002455,0.004401,0.008764,0.090977,0.276841,313.182427,24.282899,0.999536,0.993156,0.003346,0.453662,-0.000052,0.000086,-0.000025,0.000090,-0.000057,-80.013378,0.000091,
2086,2023,-3.65229122656919,-13.589229300247,0.0189181507593048,0.002470,0.004507,0.002296,0.108020,0.267884,331.507116,24.658815,0.999035,0.982996,0.005326,0.363789,0.000018,-0.000067,-0.000018,0.000021,-0.000070,-11.379586,0.000072,
2041,3223,-4.81436216329199,12.5495144630113,0.0463304622231249,0.002912,0.004535,0.006838,0.117134,0.263189,312.575047,24.342740,0.999408,0.992862,0.003376,0.433515,-0.000049,0.000068,-0.000031,0.000076,-0.000057,-76.075542,0.000079,
2101,2068,-3.33122503503062,-12.6047685097899,0.0274820411569863,0.002931,0.004027,0.003754,0.124729,0.259568,330.802720,24.495295,0.999158,0.951237,0.008324,0.431859,0.000027,-0.000010,0.000003,0.000028,-0.000011,4.879531,0.000028,
2326,2608,1.47563936414356,-0.79259695152161,-0.0156876197117413,0.003078,0.003999,0.008531,0.113659,0.277233,321.144267,24.371245,0.999518,0.988860,0.004102,0.463522,0.000014,0.000010,-0.000001,0.000014,0.000010,-8.693014,0.000024,
2116,2143,-3.016864010836,-10.9604162234455,0.0155390181667485,0.002881,0.003614,0.004980,0.118689,0.213708,329.426180,24.448278,0.998147,0.976092,0.006282,0.372132,0.000012,0.000014,0.000012,0.000025,0.000000,47.443644,0.000029,
2191,2428,-1.43036427887709,-4.72652380498736,0.00314707131542491,0.003157,0.003648,0.007858,0.121737,0.229965,324.458044,24.277370,0.998756,0.985832,0.004946,0.459174,-0.000003,-0.000001,-0.000016,0.000014,-0.000018,-46.387226,0.000019,
2296,2908,0.768705016274215,5.73660489294085,-0.000760668486407212,0.002866,0.004217,0.006614,0.111278,0.259163,316.407825,25.017704,0.999554,0.991963,0.003618,0.430765,0.000000,0.000022,-0.000012,0.000027,-0.000005,-65.600779,0.000029,
2116,2038,-3.00026909227465,-13.2621898201054,0.0167670568574181,0.002785,0.003888,0.003642,0.118201,0.238311,331.121020,24.355823,0.999111,0.983069,0.005406,0.442682,0.000014,-0.000012,-0.000008,0.000017,-0.000014,-15.726919,0.000018,
2176,2293,-1.73441055985576,-7.67666220663931,0.0132748584167075,0.002340,0.003876,0.005545,0.091651,0.257952,326.737410,24.290552,0.999016,0.981225,0.005309,0.388847,0.000007,0.000006,0.000004,0.000010,0.000003,39.177767,0.000013,
2461,2038,4.53638318345912,-13.2707675709139,0.0296290096190432,0.002963,0.004372,0.003479,0.124225,0.261331,330.884927,22.170199,0.999406,0.979415,0.005506,0.363912,0.000066,-0.000007,0.000023,0.000072,-0.000014,16.353282,0.000077,
2056,3283,-4.4995148987037,13.8502817223651,0.0380684013690029,0.002851,0.004864,0.005209,0.118894,0.281838,311.437405,24.357466,0.999741,0.995346,0.002875,0.486023,-0.000041,0.000051,-0.000016,0.000054,-0.000043,-80.563842,0.000057,
2236,2668,-0.493190999318092,0.51136441759116,-0.00415945588650857,0.002655,0.004440,0.004670,0.108701,0.273145,320.379438,24.579411,0.999464,0.990099,0.004018,0.428891,0.000027,0.000029,0.000000,0.000029,0.000027,-84.759054,0.000056,
2056,2173,-4.32970586823497,-10.3012893278967,0.00664490426458997,0.002595,0.003794,0.006003,0.103468,0.258540,329.151638,24.775094,0.999167,0.987936,0.004586,0.417905,0.000005,0.000005,0.000014,0.000020,-0.000009,44.951576,0.000020,
2491,2218,5.15367292359746,-9.31958389543639,0.0165204762399753,0.002455,0.003828,0.006835,0.087856,0.253474,327.909764,22.744622,0.998997,0.979229,0.005689,0.323737,0.000023,0.000014,-0.000024,0.000044,-0.000006,-39.918435,0.000047,
2161,2278,-2.05860771521643,-8.0036831971552,0.00473269125660636,0.003014,0.004237,0.005140,0.124096,0.265505,326.990958,24.342436,0.998571,0.976566,0.005961,0.393761,0.000011,0.000011,0.000000,0.000012,0.000011,37.425040,0.000023,
2176,2368,-1.74760443350505,-6.03507670691654,-0.00603294239022034,0.002912,0.004477,0.005061,0.119690,0.268742,325.394331,24.345445,0.999114,0.986190,0.004696,0.416380,-0.000005,0.000018,-0.000011,0.000023,-0.000009,-68.789054,0.000023,
2416,3043,3.35258705410144,8.67763269966539,0.01402055553325,0.002599,0.004384,0.008634,0.089888,0.265906,314.313669,25.687155,0.999564,0.989743,0.004016,0.423874,0.000003,0.000028,-0.000010,0.000032,0.000000,-70.790587,0.000037,
2431,3178,3.65351731310394,11.6086568141308,0.0337440115911818,0.002615,0.004399,0.010142,0.084840,0.266961,312.282418,26.166695,0.999632,0.991684,0.003573,0.434245,0.000009,0.000057,-0.000002,0.000057,0.000009,-88.137718,0.000072,
2506,2338,5.45679593611314,-6.69104447296883,0.0135093217946292,0.002586,0.004474,0.003038,0.108610,0.245070,326.007621,23.136015,0.999140,0.984902,0.005239,0.356459,0.000032,0.000076,0.000040,0.000100,0.000009,59.467448,0.000120,
2131,2398,-2.73103811186805,-5.38254989584819,0.00854455651642638,0.002925,0.004116,0.001857,0.130277,0.234837,325.210180,24.463486,0.998650,0.983606,0.005036,0.429393,-0.000011,0.000015,-0.000022,0.000028,-0.000024,-60.344531,0.000030,
2341,2668,1.79057812734623,0.516868651050942,-0.0190402342113316,0.002737,0.004444,0.006557,0.104767,0.270996,320.127810,24.562930,0.999645,0.991334,0.003968,0.398997,0.000002,0.000030,-0.000007,0.000032,0.000001,-76.439459,0.000037,
2041,2098,-4.64331372350584,-11.9458293472577,0.0262756912419491,0.003177,0.004102,0.002524,0.140032,0.238687,330.639826,24.901579,0.998982,0.981209,0.005302,0.372051,0.000028,-0.000002,0.000012,0.000032,-0.000006,19.019194,0.000034,
2281,2893,0.444274206475015,5.411051618448,-0.0147574008623224,0.002756,0.004534,0.006640,0.106480,0.272263,316.548217,24.979262,0.999627,0.991608,0.003660,0.425996,0.000000,0.000029,-0.000004,0.000030,0.000000,-81.630140,0.000034,
2206,2458,-1.10947545748578,-4.06984697299223,-0.00488495253244992,0.002774,0.004310,0.002855,0.119987,0.246187,323.860945,24.309093,0.998989,0.983843,0.005151,0.438680,0.000003,0.000015,-0.000010,0.000021,-0.000003,-61.529427,0.000022,
2281,2863,0.449310144931811,4.75932996568589,-0.015680634933517,0.002698,0.004083,0.010400,0.091024,0.265225,317.013781,24.978947,0.999653,0.992722,0.003653,0.364491,0.000012,0.000040,-0.000007,0.000041,0.000010,-76.573928,0.000055,
2101,2278,-3.36533917766866,-8.00507573798132,0.00758233304964051,0.002961,0.003969,0.005526,0.121173,0.254890,327.259489,24.505427,0.998712,0.983036,0.005159,0.473880,0.000015,0.000043,0.000025,0.000058,0.000000,59.766755,0.000067,
2266,2803,0.134310891876158,3.45337777975408,-0.0224018118155982,0.002984,0.004508,0.004032,0.125767,0.272933,317.991925,24.794396,0.999031,0.987024,0.004801,0.432932,0.000009,0.000046,-0.000001,0.000046,0.000009,-87.744240,0.000059,
2206,2218,-1.06791839450459,-9.31784834245944,0.0134413448096211,0.002490,0.003784,0.007156,0.092921,0.248660,327.859813,24.085902,0.999015,0.981379,0.005372,0.366290,0.000006,0.000017,-0.000003,0.000018,0.000006,-76.737768,0.000025,
2251,2983,-0.222320919810578,7.36318819478159,0.00953464374828172,0.002510,0.004335,0.008271,0.090301,0.270967,315.317703,25.075305,0.999498,0.992023,0.003722,0.411182,-0.000008,0.000024,-0.000004,0.000025,-0.000009,-82.946139,0.000025,
2086,2038,-3.65413375685531,-13.2616025391651,0.0235905616204377,0.002631,0.004174,0.002468,0.114844,0.260696,331.312946,24.598346,0.999027,0.982740,0.005316,0.419339,0.000017,-0.000055,-0.000008,0.000017,-0.000056,-6.357373,0.000057,
2131,2188,-2.69660915796504,-9.97539224568168,0.0231805074918725,0.002787,0.003995,0.003747,0.118032,0.242680,328.702196,24.418574,0.999253,0.983131,0.005068,0.372602,0.000012,0.000029,0.000021,0.000043,-0.000002,55.848879,0.000049,
2326,2623,1.47345031704775,-0.466537787553058,-0.010442969082419,0.002966,0.004444,0.004449,0.122730,0.272900,320.954016,24.361005,0.999487,0.987985,0.004207,0.504347,0.000012,0.000021,-0.000002,0.000021,0.000011,-79.004634,0.000033,
2161,2218,-2.04887216185368,-9.31753096931897,0.0117986693689431,0.002545,0.003607,0.006901,0.096918,0.222431,327.989362,24.315335,0.998688,0.977651,0.005719,0.328136,0.000009,0.000021,0.000008,0.000025,0.000005,63.813255,0.000031,
2146,2458,-2.41633752929554,-4.06931162893973,-0.0113748763104127,0.002666,0.004153,0.008213,0.099200,0.276439,323.983097,24.505950,0.999220,0.987152,0.004707,0.420796,-0.000008,0.000009,-0.000026,0.000028,-0.000027,-54.132120,0.000032,
2236,2908,-0.535186053605354,5.73337548593059,0.00148660875754558,0.002615,0.004346,0.006512,0.101057,0.265318,316.515554,24.943336,0.999656,0.991747,0.003716,0.394670,-0.000003,0.000032,-0.000003,0.000032,-0.000003,-84.788034,0.000036,
2146,2218,-2.37556188713261,-9.31740177052873,0.0126290256357038,0.002471,0.004286,0.003657,0.103817,0.258703,328.057968,24.363378,0.998657,0.977553,0.005670,0.388534,0.000012,0.000023,0.000009,0.000029,0.000007,60.603040,0.000038,
2476,2128,4.84523834171145,-11.2959946425101,0.0296517938664351,0.002611,0.003243,0.009950,0.083121,0.231871,329.429261,22.378864,0.999216,0.973987,0.006064,0.384557,0.000048,-0.000029,0.000008,0.000049,-0.000030,5.777971,0.000049,
2311,2563,1.15770487768803,-1.77575919185948,-0.00979367186494073,0.002825,0.004024,0.005897,0.111208,0.232382,321.930652,24.275391,0.999210,0.985881,0.004654,0.430678,0.000016,0.000013,-0.000004,0.000019,0.000010,-34.315597,0.000029,
2071,2188,-4.0048417485917,-9.97416578719417,0.0123768940565583,0.002745,0.003956,0.007641,0.105524,0.258501,328.880001,24.658951,0.998969,0.983401,0.005274,0.454669,0.000018,0.000035,0.000025,0.000053,0.000001,54.589074,0.000061,
2506,2353,5.45419399812431,-6.36342032199082,0.0163227282626508,0.002873,0.004423,0.003202,0.121103,0.250796,325.800770,23.154235,0.999096,0.984686,0.005297,0.406957,0.000049,0.000096,0.000045,0.000124,0.000021,58.921675,0.000156,
2221,2623,-0.81294748659462,-0.469297140579208,-0.0168825239405237,0.002632,0.003698,0.010287,0.089534,0.258362,321.019241,24.471422,0.999076,0.984283,0.004864,0.470193,0.000015,0.000018,-0.000002,0.000020,0.000014,-61.430069,0.000034,
2026,3208,-5.13666569166092,12.2230110415866,0.052994047973641,0.002744,0.004598,0.007060,0.109042,0.277396,312.960730,24.267660,0.999411,0.993010,0.003418,0.458505,-0.000052,0.000080,-0.000029,0.000086,-0.000058,-78.124207,0.000088,
2386,2968,2.71295999716471,7.04734484745596,-0.00619710467663026,0.002310,0.004091,0.008496,0.077515,0.252096,315.329839,25.401968,0.999553,0.990278,0.003986,0.384775,-0.000007,0.000010,-0.000018,0.000022,-0.000018,-57.185219,0.000024,
2296,2953,0.760815043711212,6.71546711590531,0.00130590121352725,0.002928,0.004836,0.004709,0.120898,0.286489,315.699954,25.165781,0.999164,0.987972,0.004244,0.398448,-0.000001,0.000018,-0.000013,0.000025,-0.000008,-63.699009,0.000025,
2206,2503,-1.11773358662291,-3.08735843773585,-0.00789281122388275,0.002723,0.004176,0.007247,0.103742,0.251269,323.091627,24.357832,0.999516,0.988088,0.004325,0.449016,0.000008,0.000027,-0.000004,0.000028,0.000007,-77.819332,0.000037,
2236,2683,-0.495915661107428,0.838182745338713,-0.00842567448103182,0.003105,0.004278,0.008080,0.118291,0.268757,320.109933,24.575432,0.999414,0.988415,0.004163,0.450076,0.000023,0.000035,-0.000005,0.000037,0.000021,-70.783105,0.000058,
2266,3043,0.0936567112828506,8.66631371304466,0.013671437091773,0.002798,0.004524,0.002905,0.121099,0.250005,314.376416,25.186264,0.999509,0.991620,0.003679,0.418621,-0.000012,0.000005,-0.000013,0.000012,-0.000019,-61.519877,0.000019,
2461,2053,4.53382620559293,-12.941851806262,0.0334755293297917,0.002998,0.004597,0.001928,0.131719,0.249482,330.682829,22.232397,0.999334,0.979881,0.005469,0.347290,0.000061,0.000002,0.000021,0.000068,-0.000005,17.475826,0.000076,
2356,2773,2.09738007531969,2.80494474959693,-0.0206922980235618,0.002740,0.004743,0.003384,0.116043,0.274647,318.416397,24.823507,0.999503,0.990209,0.003777,0.409338,-0.000003,0.000059,-0.000009,0.000060,-0.000004,-82.085675,0.000067,
2101,2083,-3.33514165694745,-12.2738316897668,0.00769233499249822,0.002718,0.004171,0.005421,0.110225,0.260260,330.382816,24.474592,0.999039,0.958303,0.007816,0.458755,0.000028,0.000012,0.000008,0.000031,0.000008,22.323554,0.000041,
2041,2113,-4.64583110761806,-11.6177950823987,0.027004598490862,0.002940,0.003636,0.004354,0.123943,0.240250,330.389690,24.850832,0.998810,0.980727,0.005557,0.419920,0.000025,-0.000001,0.000006,0.000026,-0.000002,12.603716,0.000029,
2281,2908,0.441393176295382,5.73711071366666,-0.013065936698581,0.002533,0.004626,0.007473,0.093481,0.273987,316.304793,25.014674,0.999657,0.992481,0.003429,0.419730,-0.000002,0.000026,-0.000008,0.000028,-0.000004,-74.322827,0.000030,
2056,3298,-4.50225168049849,14.1753962559647,0.0326551685242293,0.002978,0.004852,0.007273,0.118828,0.274138,311.146381,24.368740,0.999571,0.993752,0.003162,0.460083,-0.000036,0.000060,-0.000024,0.000065,-0.000042,-76.764068,0.000066,
2401,3043,3.0270493766097,8.67615386075314,0.0170381827184656,0.002829,0.004354,0.006889,0.107099,0.259611,314.340128,25.631360,0.999619,0.990267,0.003916,0.424281,0.000003,0.000025,-0.000011,0.000030,-0.000002,-67.625188,0.000034,
2506,2368,5.45112225612212,-6.03612018673811,0.0148001015789987,0.003245,0.004065,0.005611,0.128692,0.242855,325.553043,23.119043,0.998599,0.979229,0.005901,0.497006,0.000060,0.000075,0.000049,0.000116,0.000018,49.359506,0.000146,
2176,2383,-1.74963697118693,-5.70820398470008,-0.00737037450141997,0.003503,0.004267,0.005601,0.145080,0.251671,325.166950,24.284507,0.999153,0.988048,0.004517,0.474202,-0.000006,0.000023,-0.000009,0.000025,-0.000009,-73.645633,0.000026,
2161,2293,-2.06081431069826,-7.67610986494863,0.00246339949177354,0.003077,0.004592,0.000019,0.142761,0.242619,326.749400,24.310046,0.998817,0.980572,0.005429,0.415448,0.000006,0.000004,0.000000,0.000006,0.000004,-13.714086,0.000010,
2116,2338,-3.04916505856231,-6.69246761638878,-0.00376949695646545,0.002785,0.003629,0.006046,0.111315,0.234163,326.120399,24.460341,0.999249,0.986077,0.004728,0.457164,0.000001,-0.000003,-0.000017,0.000016,-0.000018,-42.223797,0.000020,
2131,2203,-2.70011231681409,-9.64595580367472,0.00984668174720582,0.002666,0.003803,0.005383,0.107545,0.246224,328.339489,24.380424,0.998685,0.978523,0.005553,0.423204,0.000009,0.000033,0.000019,0.000044,-0.000002,60.715849,0.000050,
2056,2188,-4.33202342727109,-9.97389788801491,0.0151926691649464,0.002282,0.003747,0.010571,0.076246,0.266340,328.954931,24.769818,0.998990,0.984094,0.005077,0.428224,0.000007,0.000037,0.000026,0.000052,-0.000008,59.746405,0.000056,
2191,2443,-1.43349821160401,-4.39743916462263,-0.00404367302019182,0.002887,0.004142,0.005413,0.117222,0.263548,324.150415,24.333563,0.998942,0.984983,0.004981,0.452742,-0.000006,0.000006,-0.000015,0.000016,-0.000016,-55.910734,0.000018,
2251,2758,-0.184543324886601,2.47356880473169,-0.0265989858130524,0.002925,0.003982,0.009525,0.104996,0.264413,318.694851,24.704028,0.999257,0.987872,0.004302,0.431150,0.000019,0.000040,-0.000003,0.000040,0.000019,-80.602154,0.000060,
2086,2248,-3.68844641372107,-8.66086933465991,0.00825962666874602,0.002104,0.003507,0.010565,0.067320,0.280403,327.766444,24.574202,0.998791,0.984226,0.004975,0.491505,0.000020,0.000057,0.000030,0.000074,0.000003,60.831019,0.000087,
2176,2308,-1.7365762167584,-7.34878081714023,0.0142807576244763,0.002614,0.004221,0.005772,0.103627,0.255652,326.515981,24.303389,0.998889,0.981533,0.005290,0.387844,0.000006,0.000006,-0.000002,0.000008,0.000004,-39.919869,0.000012,
2206,2473,-1.11254314499259,-3.74203953578281,-0.0106851507732699,0.002686,0.004515,0.003067,0.115339,0.253389,323.565284,24.299166,0.999303,0.982375,0.005284,0.474038,0.000006,0.000019,-0.000002,0.000020,0.000006,-79.566853,0.000027,
2161,2518,-2.10065960285488,-2.75960582349801,-0.0250347887020439,0.002732,0.003769,0.007622,0.103672,0.260839,322.847911,24.430027,0.998841,0.985134,0.004987,0.489565,0.000005,0.000031,-0.000012,0.000036,0.000001,-68.372640,0.000042,
2491,2233,5.14984408229357,-8.99144341246053,0.0113061501286325,0.002191,0.003483,0.007294,0.073888,0.229285,327.610165,22.717212,0.999189,0.979698,0.005660,0.388529,0.000023,0.000010,-0.000007,0.000026,0.000007,-24.286231,0.000035,
2176,2593,-1.7860912574507,-1.12508646810279,-0.0140679667395034,0.002716,0.003636,0.006470,0.106182,0.216232,321.676407,24.499243,0.999168,0.987424,0.004357,0.412868,-0.000004,0.000031,-0.000001,0.000031,-0.000004,-87.656755,0.000034,
2026,3223,-5.13900025562782,12.5483220901932,0.0501095814594237,0.002874,0.004463,0.006154,0.117534,0.269529,312.699790,24.289393,0.999412,0.992931,0.003396,0.417785,-0.000051,0.000074,-0.000036,0.000083,-0.000061,-75.059354,0.000086,
2071,1993,-3.9746741414883,-14.2486025105385,0.0279438794532325,0.002208,0.003711,0.004384,0.089925,0.222679,332.121030,24.756841,0.998657,0.978014,0.005804,0.319813,0.000064,-0.000028,0.000009,0.000065,-0.000029,5.810929,0.000065,
2101,2293,-3.36814860135431,-7.6759129166411,0.00464479786222682,0.002747,0.004314,0.006327,0.109135,0.287796,326.980911,24.554666,0.999015,0.985917,0.004884,0.461011,0.000013,0.000024,0.000017,0.000036,0.000000,53.624472,0.000042,
2431,3193,3.65120897740176,11.9335096905008,0.0411349028853465,0.002746,0.004106,0.010938,0.087802,0.258535,312.101544,26.207714,0.999592,0.990784,0.003731,0.433370,0.000008,0.000059,-0.000005,0.000060,0.000008,-84.840043,0.000074,
2326,2638,1.46992057299548,-0.138823766290116,-0.0148273129975678,0.002714,0.004287,0.006503,0.104018,0.269774,320.654778,24.424123,0.999339,0.987822,0.004275,0.473212,0.000005,0.000023,-0.000004,0.000024,0.000004,-77.101673,0.000030,
2191,2668,-1.47270311479969,0.510925049595343,-0.0169057361641762,0.002721,0.004322,0.005462,0.109710,0.263530,320.391635,24.611537,0.999738,0.994019,0.003306,0.406085,0.000013,0.000030,-0.000003,0.000030,0.000012,-80.404652,0.000044,
2281,3118,0.405333781013837,10.2952535640966,0.0162691339888852,0.002598,0.004067,0.008616,0.092510,0.241843,313.120083,25.396691,0.999759,0.994490,0.003185,0.382727,0.000001,0.000033,-0.000014,0.000038,-0.000004,-69.923164,0.000042,
2296,2923,0.766495687593288,6.06128601641582,0.00532613606560517,0.003143,0.004368,0.009259,0.115117,0.263542,316.218522,24.958287,0.999499,0.992114,0.003585,0.524029,-0.000003,0.000020,-0.000015,0.000027,-0.000010,-63.530838,0.000027,
2476,2143,4.84221036660694,-10.9653609650683,0.0260902720547165,0.002901,0.003771,0.009297,0.099087,0.269048,329.172431,22.500423,0.998355,0.974555,0.006014,0.360125,0.000052,-0.000015,0.000003,0.000052,-0.000015,2.919775,0.000054,
2041,3238,-4.81684918734206,12.8742197050878,0.0474504664007895,0.002763,0.004458,0.007410,0.108600,0.256464,312.330784,24.334979,0.999461,0.994253,0.003168,0.425500,-0.000049,0.000054,-0.000038,0.000067,-0.000061,-71.779391,0.000074,
2146,2473,-2.4183532201556,-3.74303206025249,-0.00778710759692558,0.002509,0.004556,0.002895,0.108161,0.264804,323.780084,24.460700,0.999222,0.986609,0.004909,0.463370,-0.000005,0.000022,-0.000017,0.000030,-0.000013,-63.986893,0.000030,
2236,2698,-0.498870029883808,1.16546266048788,-0.0177481167457358,0.003251,0.004321,0.005340,0.133914,0.264458,319.803976,24.577602,0.999474,0.990402,0.003781,0.465339,0.000023,0.000036,-0.000007,0.000039,0.000020,-66.065400,0.000060,
2236,2923,-0.538506123617989,6.05885915085264,-0.00636264432330336,0.002664,0.004387,0.008906,0.095546,0.262299,316.200299,24.864868,0.999664,0.992208,0.003634,0.490937,-0.000007,0.000035,-0.000006,0.000036,-0.000008,-81.830486,0.000037,
2206,2233,-1.07004061524859,-8.99083220220073,0.0186055920375452,0.002774,0.003465,0.010407,0.095596,0.246155,327.664428,24.037900,0.999102,0.982384,0.005409,0.430817,0.000003,0.000018,-0.000004,0.000019,0.000001,-75.007457,0.000023,
2416,3058,3.34969232585627,9.00329417630156,0.0177649180223511,0.002714,0.004155,0.013144,0.078547,0.264578,314.088185,25.742513,0.999588,0.990487,0.003935,0.413976,0.000000,0.000029,-0.000006,0.000031,-0.000002,-78.870095,0.000035,
2386,2983,2.71111408278858,7.37231126922661,0.00386902538434697,0.002826,0.003948,0.011778,0.089434,0.260198,315.181269,25.408927,0.999557,0.989335,0.004147,0.428295,-0.000006,0.000009,-0.000012,0.000016,-0.000013,-60.345695,0.000017,
2371,2848,2.4095135187981,4.43728860542917,-0.0152555607044746,0.002793,0.004380,0.008985,0.098365,0.285520,317.225926,24.988084,0.999559,0.989097,0.004075,0.469388,-0.000010,0.000038,-0.000019,0.000045,-0.000017,-70.631532,0.000045,
2221,2818,-0.846018897309708,3.77618460066229,-0.00882983797237102,0.002716,0.004087,0.007561,0.102391,0.251716,317.931733,24.781809,0.999540,0.990235,0.003970,0.401864,0.000009,0.000051,0.000001,0.000051,0.000009,88.701159,0.000064,
2356,2788,2.09495250210397,3.13072645407558,-0.0151467311305851,0.002875,0.004541,0.005307,0.115414,0.271883,318.218157,24.835387,0.999697,0.992992,0.003488,0.433456,-0.000003,0.000062,-0.000009,0.000064,-0.000004,-81.958135,0.000071,
2161,2233,-2.05094962016753,-8.99055170793134,0.0200875446822693,0.002507,0.003421,0.008994,0.088724,0.227479,327.809151,24.288048,0.998694,0.978859,0.005519,0.372706,0.000007,0.000019,0.000002,0.000019,0.000007,81.319549,0.000026,
2461,2068,4.53132560898568,-12.6140135078925,0.0412631377632806,0.003075,0.004205,0.004219,0.126541,0.245754,330.501209,22.236856,0.999312,0.979886,0.005478,0.396634,0.000057,0.000015,0.000020,0.000065,0.000007,21.764001,0.000079,
2086,2263,-3.69029963941459,-8.33404696035158,0.0132258074808078,0.002329,0.003170,0.011780,0.074072,0.249092,327.573836,24.542984,0.998962,0.984111,0.004892,0.492492,0.000021,0.000060,0.000033,0.000079,0.000002,60.251511,0.000092,
2071,2008,-3.97715064801541,-13.9181781144997,0.0221139563140014,0.002334,0.003999,0.003933,0.097017,0.261244,331.838857,24.774999,0.998999,0.981310,0.005350,0.341004,0.000036,-0.000082,-0.000009,0.000037,-0.000083,-4.178581,0.000083,
2041,3253,-4.81917243569216,13.1990078907154,0.0469759434877233,0.002794,0.004806,0.006641,0.112361,0.275027,312.085142,24.304341,0.999546,0.993951,0.003135,0.465900,-0.000046,0.000046,-0.000042,0.000062,-0.000063,-68.892047,0.000072,
2161,2308,-2.06336276747594,-7.34781266901674,0.0106195772674482,0.002941,0.003924,0.007266,0.114202,0.260838,326.546622,24.412330,0.998976,0.981203,0.005282,0.343507,0.000004,0.000004,-0.000009,0.000013,-0.000005,-45.116620,0.000013,
2056,2203,-4.3341609766593,-9.64488672279997,0.0106804645853344,0.002610,0.003659,0.009402,0.094593,0.260513,328.694530,24.793300,0.998645,0.979642,0.005597,0.396245,0.000008,0.000042,0.000025,0.000055,-0.000005,61.927804,0.000061,
2086,2053,-3.65591703084831,-12.9330207095844,0.0361227583592267,0.002672,0.003915,0.007466,0.102259,0.288060,331.163708,24.682806,0.998771,0.978840,0.005609,0.364091,0.000017,-0.000035,-0.000007,0.000018,-0.000036,-7.049683,0.000036,
2491,2248,5.14692355261868,-8.66336495177543,0.00989968917815531,0.002519,0.003376,0.007806,0.086910,0.226394,327.369151,22.707726,0.999104,0.980106,0.005535,0.456189,0.000020,0.000024,-0.000007,0.000029,0.000014,-53.538769,0.000044,
2206,2518,-1.1204891699823,-2.75996300644235,-0.013832899267868,0.002742,0.004355,0.004322,0.113956,0.258804,322.809553,24.324519,0.999416,0.987559,0.004396,0.507779,0.000009,0.000024,-0.000003,0.000025,0.000009,-78.611417,0.000034,
2251,2773,-0.186446690911747,2.7986588284396,-0.0166471871960994,0.002757,0.004223,0.006592,0.106883,0.245008,318.536601,24.698199,0.999235,0.987647,0.004298,0.441022,0.000018,0.000045,-0.000003,0.000046,0.000018,-83.650128,0.000066,
2476,2158,4.83911491539759,-10.6369002503228,0.0256007278475181,0.002780,0.003887,0.007767,0.099410,0.245105,328.926782,22.523357,0.998328,0.972249,0.006375,0.372542,0.000042,-0.000021,-0.000016,0.000045,-0.000025,-13.536994,0.000046,
2266,3058,0.0907989407176011,8.99205248518824,0.0172441159549521,0.002668,0.004642,0.006786,0.102355,0.274394,314.142258,25.219847,0.999450,0.992006,0.003665,0.433957,-0.000009,0.000007,-0.000013,0.000014,-0.000017,-61.281746,0.000018,
2236,2713,-0.502188695539626,1.492384162027,-0.021610046407659,0.002900,0.004161,0.006176,0.115005,0.253404,319.509185,24.603803,0.999364,0.989101,0.003905,0.449652,0.000023,0.000033,-0.000009,0.000038,0.000017,-59.027514,0.000057,
2116,2158,-3.01939054301203,-10.6304766173045,0.00573617754002953,0.003197,0.004072,0.002472,0.140710,0.235832,329.125108,24.456539,0.998885,0.983176,0.005289,0.392693,0.000014,0.000005,0.000009,0.000019,0.000000,32.061812,0.000022,
2101,2098,-3.33585127222663,-11.9440805439637,0.0232950474159566,0.003232,0.004004,0.003395,0.139637,0.241700,330.300075,24.759850,0.999263,0.957941,0.008031,0.158454,0.000024,0.000023,0.000012,0.000036,0.000012,43.288462,0.000050,
2176,2398,-1.7521698703001,-5.38068045484573,-0.00423182747664441,0.003152,0.004195,0.003990,0.133943,0.258576,324.939791,24.307249,0.999053,0.985870,0.004769,0.472294,-0.000009,0.000020,-0.000016,0.000027,-0.000016,-66.630871,0.000027,
2191,2683,-1.47459660239383,0.836289473138635,-0.00939778420513449,0.002857,0.004325,0.005413,0.116149,0.268763,320.217863,24.561633,0.999616,0.993016,0.003510,0.476074,0.000010,0.000037,-0.000006,0.000038,0.000009,-78.886703,0.000050,
2206,2488,-1.11582529104352,-3.41340105411492,-0.0157718576153911,0.002394,0.004369,0.004013,0.098901,0.264210,323.263243,24.373980,0.999282,0.984730,0.004880,0.428209,0.000006,0.000025,-0.000006,0.000027,0.000004,-73.361447,0.000034,
2041,2128,-4.64814843140758,-11.2881810613263,0.0183432302465576,0.003267,0.003950,0.002690,0.143707,0.226270,330.096647,24.863292,0.998515,0.977610,0.006118,0.389373,0.000016,-0.000011,0.000012,0.000021,-0.000015,20.661314,0.000022,
2266,2818,0.132230449796239,3.77911362326937,-0.0180928526189064,0.003102,0.004753,0.001574,0.139405,0.262581,317.797695,24.807013,0.999303,0.988748,0.004296,0.435392,0.000010,0.000052,-0.000001,0.000052,0.000010,-88.589530,0.000067,
2251,2998,-0.224790813514534,7.68793692766268,0.0138312119098032,0.002549,0.004145,0.010255,0.085541,0.269642,315.104543,25.032989,0.999568,0.991288,0.003751,0.474923,-0.000010,0.000018,-0.000007,0.000019,-0.000012,-76.847958,0.000020,
2281,2923,0.439348539900841,6.06227652199728,-0.00548400045875042,0.002870,0.004127,0.010401,0.099039,0.274824,316.129483,25.014660,0.999588,0.992031,0.003629,0.447624,-0.000005,0.000024,-0.000011,0.000028,-0.000009,-72.229608,0.000028,
2341,2683,1.78725788228792,0.843196865061273,-0.0187256302316996,0.002545,0.003882,0.010977,0.080320,0.262799,319.862451,24.558263,0.999635,0.990925,0.003946,0.432507,0.000001,0.000047,-0.000010,0.000050,-0.000002,-78.010788,0.000057,
2221,2638,-0.815886304942449,-0.142549295387354,-0.0245759838417712,0.002751,0.003564,0.009108,0.098720,0.255061,320.721122,24.416849,0.998955,0.985759,0.004807,0.541328,0.000017,0.000020,-0.000005,0.000024,0.000014,-54.484942,0.000038,
2311,2578,1.1538982181219,-1.44659146197891,-0.0200764495268118,0.002622,0.004190,0.006798,0.098919,0.267266,321.588163,24.362077,0.999527,0.990571,0.003898,0.412360,0.000020,0.000026,-0.000001,0.000026,0.000019,-80.856812,0.000045,
2131,2413,-2.73455540077054,-5.05234043430872,-0.00903137256318587,0.003063,0.004434,0.003015,0.133297,0.271659,324.823637,24.508417,0.998849,0.985603,0.004936,0.429069,-0.000009,0.000012,-0.000027,0.000030,-0.000027,-55.904610,0.000033,
2041,3268,-4.82190100241281,13.524640217276,0.042050849525026,0.002794,0.004655,0.007502,0.109972,0.281604,311.795787,24.342704,0.999589,0.993723,0.003139,0.425083,-0.000046,0.000053,-0.000033,0.000063,-0.000056,-73.299303,0.000069,
2206,2743,-1.15998292921586,2.14464646501274,-0.0211288735656012,0.002594,0.004305,0.007161,0.098304,0.258517,319.083610,24.674440,0.999448,0.990109,0.004004,0.416851,0.000009,0.000031,-0.000014,0.000038,0.000002,-63.539182,0.000045,
2461,2083,4.52741937368761,-12.283933016867,0.0352746693174595,0.002843,0.003743,0.005823,0.109705,0.244088,330.192245,22.296466,0.999239,0.978640,0.005680,0.393319,0.000051,0.000011,0.000015,0.000056,0.000006,18.429738,0.000068,
2101,2308,-3.37012743207575,-7.34911385089703,0.00995316864640472,0.002914,0.003662,0.008424,0.110521,0.259459,326.785500,24.536692,0.998883,0.983274,0.005425,0.453876,0.000012,0.000018,0.000004,0.000020,0.000010,62.557907,0.000031,
2071,2023,-3.97942900454397,-13.5890294380778,0.0172908426468439,0.002525,0.004330,0.002483,0.110023,0.262023,331.571628,24.732379,0.998929,0.982682,0.005288,0.384999,0.000028,-0.000095,-0.000012,0.000029,-0.000097,-5.588040,0.000099,
2146,2233,-2.37802548519022,-8.98914638727879,0.0117524755250429,0.002587,0.004203,0.005023,0.104996,0.261851,327.810485,24.359594,0.998773,0.978790,0.005492,0.405809,0.000010,0.000020,0.000003,0.000021,0.000009,73.473885,0.000031,
2086,2278,-3.69229906912443,-8.004155338112,0.00673583231207431,0.002826,0.003757,0.007920,0.108195,0.265003,327.311589,24.633539,0.999280,0.988189,0.004471,0.419134,0.000023,0.000052,0.000034,0.000075,0.000001,56.448932,0.000087,
2401,3058,3.02402567577407,9.00201108773455,0.0198812239061681,0.002841,0.004093,0.011121,0.092190,0.262807,314.103439,25.694005,0.999658,0.991332,0.003788,0.409599,-0.000001,0.000028,-0.000007,0.000029,-0.000002,-77.037524,0.000033,
2386,2998,2.70879532497875,7.69772755297309,0.00843592400713078,0.002793,0.004083,0.008567,0.099514,0.256993,314.984614,25.434111,0.999577,0.990011,0.003971,0.442686,-0.000002,0.000009,-0.000012,0.000016,-0.000010,-57.504773,0.000016,
2371,2863,2.40679422104186,4.76338506732263,-0.0114779980776234,0.002633,0.004368,0.008770,0.091771,0.268492,317.006437,25.049875,0.999508,0.990210,0.003926,0.431428,-0.000007,0.000036,-0.000021,0.000044,-0.000016,-67.846783,0.000045,
2191,2458,-1.43644641347587,-4.06982382192043,-0.00956294255934154,0.002732,0.004311,0.003682,0.115571,0.250274,323.860421,24.323444,0.999121,0.986006,0.004823,0.465630,-0.000003,0.000012,-0.000015,0.000021,-0.000012,-58.282118,0.000021,
2161,2533,-2.10290337895453,-2.43269068646656,-0.0176853770583421,0.002491,0.004002,0.007761,0.092280,0.278931,322.655036,24.466545,0.999080,0.986535,0.004558,0.481946,0.000000,0.000037,-0.000009,0.000039,-0.000002,-77.190087,0.000044,
2086,2068,-3.659216022323,-12.603103395668,0.0190483298067079,0.002500,0.004030,0.003515,0.105784,0.258506,330.785092,24.621643,0.998719,0.961354,0.007440,0.399228,0.000021,-0.000027,0.000003,0.000021,-0.000028,3.729111,0.000029,
2221,2833,-0.848808831905206,4.10177931664531,-0.00746705504934653,0.002497,0.003978,0.008316,0.089900,0.258053,317.686859,24.745063,0.999424,0.990142,0.003921,0.463615,0.000011,0.000053,0.000006,0.000054,0.000010,82.698075,0.000069,
2206,2248,-1.07281078477811,-8.66040510531739,0.00203047385531363,0.003291,0.003960,0.004392,0.138515,0.245265,327.326928,24.081349,0.998944,0.981765,0.005340,0.405909,0.000005,0.000012,-0.000003,0.000013,0.000004,-67.238029,0.000018,
2476,2173,4.83586953464485,-10.3078461918204,0.0289644497609629,0.002624,0.003484,0.011342,0.078556,0.260967,328.691345,22.607048,0.997932,0.965512,0.006916,0.364263,0.000030,-0.000002,-0.000013,0.000035,-0.000006,-19.661020,0.000037,
2176,2608,-1.78904486124651,-0.797037696252723,-0.0182953373396799,0.002624,0.004049,0.007248,0.099787,0.271176,321.390977,24.524258,0.999137,0.987376,0.004438,0.455941,-0.000002,0.000022,-0.000003,0.000023,-0.000002,-82.077482,0.000025,
2326,2653,1.46618630607379,0.189296702023199,-0.0259411935962817,0.002596,0.004160,0.006299,0.099310,0.267084,320.313120,24.472971,0.999365,0.988959,0.004152,0.456931,0.000003,0.000026,-0.000002,0.000026,0.000003,-83.855668,0.000032,
2356,2803,2.09242024500738,3.45620487147566,-0.00464666586248086,0.002680,0.004237,0.009257,0.092456,0.275543,318.039008,24.854733,0.999821,0.994616,0.003297,0.456283,-0.000004,0.000051,-0.000008,0.000053,-0.000005,-82.189006,0.000058,
2071,2038,-3.98112526311893,-13.2605981801441,0.0193726500947946,0.002779,0.004612,-0.000407,0.130018,0.253012,331.368755,24.717691,0.998970,0.983805,0.005078,0.390949,0.000027,-0.000080,-0.000003,0.000027,-0.000081,-1.812559,0.000082,
2071,2203,-4.00710539840328,-9.64628702653935,0.0165198409659411,0.002571,0.003728,0.008662,0.094583,0.260319,328.662656,24.662567,0.998627,0.981200,0.005409,0.452293,0.000019,0.000038,0.000023,0.000054,0.000003,55.834628,0.000064,
2296,2968,0.758292786433497,7.04121153786841,-0.000547767923137599,0.003154,0.004872,0.002851,0.137609,0.280832,315.456425,25.170511,0.999348,0.990597,0.003801,0.417495,-0.000003,0.000020,-0.000013,0.000026,-0.000009,-65.233579,0.000026,
2416,3073,3.34713148744402,9.32862310962168,0.0198690977672413,0.002778,0.004206,0.011230,0.088561,0.268480,313.870417,25.754894,0.999589,0.990883,0.003870,0.452261,0.000003,0.000040,-0.000006,0.000041,0.000002,-81.347316,0.000048,
2236,2938,-0.540783731434107,6.38522441526445,-0.00549882837879068,0.002801,0.004455,0.006436,0.109896,0.256945,315.977089,24.936451,0.999577,0.992602,0.003550,0.434420,-0.000007,0.000035,-0.000004,0.000036,-0.000007,-84.629863,0.000038,
2236,2728,-0.504573839815894,1.81900711366768,-0.0177102322631981,0.002897,0.004339,0.006509,0.113875,0.271609,319.296750,24.640709,0.999230,0.988504,0.004141,0.452010,0.000023,0.000030,-0.000011,0.000038,0.000015,-54.760354,0.000055,
2146,2488,-2.4211567185439,-3.41559285333049,-0.0126328277940502,0.002650,0.004100,0.005421,0.106877,0.254874,323.496084,24.447250,0.999127,0.985888,0.004857,0.476076,-0.000005,0.000030,-0.000021,0.000040,-0.000015,-64.950355,0.000040,
2116,2353,-3.0518278208335,-6.36291054670114,-0.00856763591798426,0.002884,0.004049,0.006942,0.113387,0.263719,325.839796,24.553086,0.999226,0.983919,0.004979,0.399382,-0.000006,0.000000,-0.000023,0.000020,-0.000026,-48.705433,0.000027,
2131,2218,-2.7024094704176,-9.31695689023609,0.00663437693066271,0.002756,0.004410,0.001943,0.122161,0.249541,328.085768,24.414639,0.998491,0.977285,0.005694,0.400600,0.000010,0.000029,0.000015,0.000038,0.000002,61.442178,0.000045,
2431,3208,3.64794652101373,12.2592418439712,0.0355234167773233,0.002828,0.004347,0.009931,0.095378,0.257479,311.815738,26.250061,0.999510,0.989192,0.004097,0.438627,0.000008,0.000053,-0.000008,0.000054,0.000007,-80.091916,0.000067,
2176,2413,-1.75494413110881,-5.05311366670082,-0.00162028218335308,0.002702,0.004288,0.003954,0.113436,0.262409,324.698823,24.336587,0.998753,0.984483,0.004961,0.460515,-0.000006,0.000018,-0.000021,0.000030,-0.000018,-60.216512,0.000030,
2041,3283,-4.82467484165229,13.84902095612,0.0379526713905989,0.002638,0.004565,0.007363,0.103138,0.276916,311.509486,24.285843,0.999609,0.993638,0.003127,0.468130,-0.000050,0.000051,-0.000023,0.000056,-0.000055,-77.989321,0.000064,
2086,2083,-3.66378754667674,-12.2699635432286,-0.0143257821322322,0.002678,0.003715,0.008699,0.098977,0.274459,330.259271,24.637299,0.999070,0.948696,0.008735,0.403211,0.000021,0.000000,0.000009,0.000025,-0.000003,19.876403,0.000027,
2296,3193,0.719144770836476,11.922197242988,0.0367558253946072,0.002952,0.004402,0.007885,0.111198,0.258206,312.063531,25.601781,0.999649,0.992040,0.003566,0.398034,0.000007,0.000031,-0.000011,0.000035,0.000003,-69.289023,0.000043,
2491,2263,5.14454617087918,-8.33422254820169,0.0125468913118993,0.002846,0.003763,0.005785,0.109763,0.231201,327.171028,22.834525,0.998883,0.978572,0.005407,0.395326,0.000014,0.000031,-0.000011,0.000036,0.000009,-63.580889,0.000048,
2401,3073,3.02107466033205,9.32788849872735,0.0201211554295355,0.002808,0.004359,0.011295,0.090160,0.273916,313.857720,25.737490,0.999610,0.990920,0.003818,0.421630,0.000002,0.000038,-0.000006,0.000039,0.000001,-80.417854,0.000046,
2176,2323,-1.73949751512101,-7.02015903399629,0.00257552297296115,0.002788,0.004471,0.002920,0.120539,0.246627,326.193529,24.269730,0.998775,0.981872,0.005251,0.427182,0.000008,-0.000002,-0.000006,0.000011,-0.000005,-24.886742,0.000011,
2221,2653,-0.817701375764067,0.184387739050806,-0.0233686328418798,0.003264,0.004100,0.006419,0.131118,0.251848,320.520090,24.459683,0.999280,0.988110,0.004413,0.514482,0.000019,0.000026,-0.000002,0.000026,0.000019,-75.721216,0.000045,
2386,3013,2.70637026811906,8.02328884449995,0.0183204676010291,0.002608,0.004275,0.010084,0.085645,0.268343,314.808260,25.497290,0.999606,0.990362,0.003864,0.433224,0.000000,0.000009,-0.000015,0.000020,-0.000011,-53.579631,0.000020,
2251,2788,-0.188933003698718,3.12509920703094,-0.0139090976933289,0.002783,0.004188,0.007198,0.106115,0.254759,318.314619,24.734500,0.999334,0.988225,0.004261,0.437704,0.000018,0.000051,0.000000,0.000051,0.000018,-89.143934,0.000072,
2341,2698,1.78504594718645,1.16838058259903,-0.0087780123428729,0.002444,0.003657,0.011760,0.072892,0.266780,319.694919,24.519470,0.999659,0.992050,0.003833,0.511977,0.000005,0.000047,-0.000009,0.000049,0.000003,-78.764295,0.000059,
2101,2113,-3.3378944720687,-11.6188220070119,0.0330241822748576,0.003044,0.004040,0.006031,0.123370,0.240620,330.125521,24.558005,0.999051,0.977879,0.005842,0.363378,0.000026,0.000016,0.000011,0.000033,0.000009,32.228719,0.000044,
2251,3013,-0.227326093921018,8.01396986476491,0.0141398692363168,0.002656,0.004399,0.010054,0.091210,0.274838,314.867711,25.079128,0.999389,0.989813,0.003926,0.456273,-0.000012,0.000011,-0.000011,0.000015,-0.000017,-68.817433,0.000018,
2131,2428,-2.7381316199973,-4.72397388487225,-0.0144415443170942,0.002586,0.004185,0.007897,0.096721,0.275572,324.499678,24.539686,0.999140,0.986890,0.004697,0.409177,-0.000008,0.000002,-0.000019,0.000017,-0.000023,-52.152090,0.000024,
2206,2758,-1.16207108942966,2.47071906688978,-0.0178145232039242,0.002713,0.004474,0.005052,0.110580,0.273066,318.879868,24.667703,0.999416,0.989964,0.004003,0.454938,0.000009,0.000032,-0.000011,0.000036,0.000005,-68.418909,0.000045,
2431,3223,3.64474987467679,12.58481532324,0.0363986006541381,0.002482,0.004259,0.009285,0.081909,0.265900,311.563174,26.310033,0.999517,0.990568,0.003870,0.435652,0.000007,0.000048,-0.000008,0.000049,0.000006,-79.172054,0.000061,
2041,3298,-4.82698059767177,14.1740976849449,0.0364881613143666,0.002834,0.004538,0.007903,0.110695,0.274423,311.259067,24.309247,0.999604,0.994399,0.003143,0.432984,-0.000055,0.000063,-0.000033,0.000072,-0.000063,-75.333394,0.000079,
2101,2323,-3.37171666696658,-7.02115775587795,0.0109634740963998,0.003270,0.004312,0.003024,0.142803,0.249688,326.584421,24.567591,0.999101,0.986530,0.004813,0.416356,0.000011,0.000010,-0.000001,0.000012,0.000009,-30.796166,0.000021,
2311,3283,1.02609700835735,13.8758134749466,0.0122354391191948,0.002771,0.004684,0.007044,0.105696,0.272701,310.360926,25.823766,0.999590,0.993783,0.003043,0.446516,0.000002,0.000046,0.000008,0.000048,0.000001,79.594936,0.000056,
2146,2248,-2.38033231123958,-8.66088532508589,0.00871089411640469,0.002877,0.004101,0.004452,0.119995,0.261213,327.558738,24.343202,0.998842,0.979422,0.005446,0.431746,0.000010,0.000020,0.000003,0.000020,0.000010,74.444754,0.000031,
2161,2248,-2.05391241202048,-8.66190627593722,0.0117965011513661,0.002531,0.003059,0.008519,0.091194,0.215143,327.501204,24.264370,0.998632,0.977610,0.005528,0.396753,0.000013,0.000016,0.000001,0.000017,0.000012,71.645923,0.000029,
2236,2953,-0.542514581999892,6.71122629605506,-0.00116717388175402,0.003148,0.004859,0.002695,0.138177,0.266161,315.796764,24.988310,0.999410,0.991634,0.003787,0.412346,-0.000010,0.000030,-0.000002,0.000030,-0.000010,-86.561111,0.000030,
2266,2833,0.129036390068809,4.1056820761488,-0.021516201276313,0.003004,0.004481,0.003703,0.127741,0.253030,317.513162,24.840947,0.999292,0.989015,0.004152,0.417385,0.000007,0.000055,0.000001,0.000055,0.000007,89.138431,0.000068,
2116,2173,-3.02188781111719,-10.3029420184937,0.0188866702960127,0.002534,0.003651,0.007372,0.095714,0.257701,328.948591,24.495683,0.998826,0.983897,0.005224,0.381213,0.000011,0.000013,0.000015,0.000027,-0.000003,46.181592,0.000030,
2461,2098,4.52383790145081,-11.953128248756,0.028926465285565,0.002773,0.003962,0.005084,0.109397,0.256690,329.896306,22.410213,0.999597,0.980391,0.005378,0.350097,0.000042,0.000000,0.000002,0.000042,0.000000,2.860441,0.000048,
2311,2593,1.15178932607002,-1.12072751376074,-0.0121470833684043,0.002649,0.004354,0.006481,0.101345,0.275141,321.413869,24.336470,0.999578,0.990908,0.003811,0.478419,0.000020,0.000020,0.000001,0.000021,0.000020,41.392571,0.000041,
2371,2878,2.40445389374893,5.08991305155543,-0.00940189380287393,0.002865,0.004233,0.006953,0.108790,0.250594,316.796060,25.143467,0.999467,0.992703,0.003664,0.360339,-0.000011,0.000031,-0.000019,0.000038,-0.000018,-68.492370,0.000038,
2281,3133,0.403142846852177,10.6198834837161,0.0224380034496789,0.002651,0.004485,0.008136,0.096759,0.260128,312.930757,25.368739,0.999653,0.994190,0.003340,0.455648,-0.000002,0.000034,-0.000012,0.000038,-0.000006,-73.110442,0.000041,
2161,2323,-2.06561402813168,-7.0208529370976,0.00580867543538943,0.003193,0.004116,0.003110,0.138542,0.234516,326.289791,24.312241,0.999069,0.983286,0.005053,0.429164,0.000006,-0.000004,-0.000013,0.000016,-0.000013,-35.131001,0.000017,
2311,2803,1.11324056896515,3.45471180023767,-0.0163391121777181,0.003043,0.004314,0.005567,0.122717,0.265840,317.985991,24.805095,0.999432,0.990981,0.003920,0.455880,0.000010,0.000053,-0.000004,0.000053,0.000010,-84.078720,0.000068,
2266,3073,0.0887701058489867,9.31682912805691,0.0279019316794233,0.002577,0.004603,0.006842,0.097978,0.272429,313.982233,25.240030,0.999329,0.991062,0.003877,0.436503,-0.000012,0.000018,-0.000014,0.000023,-0.000017,-68.040485,0.000024,
2311,3043,1.07105786576464,8.66932242900212,0.0199785421622778,0.002684,0.004123,0.007930,0.098261,0.254555,314.350351,25.345547,0.999588,0.991219,0.003683,0.411002,-0.000008,0.000012,-0.000016,0.000021,-0.000017,-61.633756,0.000022,
2416,3088,3.34436582706767,9.65463405719791,0.0211232421409591,0.002652,0.004351,0.008618,0.092416,0.268238,313.638957,25.832623,0.999647,0.992108,0.003647,0.421194,0.000005,0.000044,-0.000005,0.000045,0.000005,-82.305775,0.000054,
2476,2188,4.83334519885576,-9.97884136239033,0.0275615392285999,0.002776,0.003835,0.005258,0.108709,0.250106,328.467491,22.667379,0.998429,0.968520,0.006744,0.352101,0.000038,0.000015,-0.000009,0.000041,0.000012,-19.420933,0.000056,
2491,2278,5.14189583372,-8.00511533266106,0.0159546962192394,0.003010,0.004076,0.005834,0.117203,0.249861,326.963654,22.956856,0.999139,0.980193,0.005236,0.352673,0.000012,0.000029,0.000003,0.000029,0.000012,80.730588,0.000043,
2071,2218,-4.00919450380787,-9.3167601169866,0.0135434421550826,0.002710,0.004415,0.004679,0.112533,0.290389,328.414002,24.719062,0.998286,0.981075,0.005365,0.425469,0.000022,0.000045,0.000028,0.000064,0.000003,55.701404,0.000076,
2221,2848,-0.85166464581242,4.42862691607378,-0.0125410366933352,0.002655,0.003978,0.008873,0.095420,0.267069,317.405514,24.776822,0.999323,0.989950,0.003903,0.459733,0.000010,0.000044,0.000004,0.000045,0.000009,83.551850,0.000058,
2341,2713,1.78222895970702,1.49682897042521,-0.0234249185515978,0.003002,0.004267,0.004377,0.124455,0.252256,319.379503,24.602754,0.999407,0.989351,0.004096,0.451441,0.000003,0.000049,-0.000008,0.000050,0.000001,-80.468928,0.000059,
2401,3088,3.01855257798707,9.65355299508432,0.0224287249085933,0.002815,0.004393,0.008616,0.100241,0.271301,313.641533,25.792113,0.999531,0.990458,0.003877,0.409055,0.000004,0.000040,-0.000007,0.000042,0.000003,-78.594900,0.000050,
2206,2533,-1.12242104585789,-2.43223528089771,-0.00851097289961444,0.002864,0.004723,0.002176,0.126483,0.267889,322.623186,24.426278,0.999531,0.988576,0.004182,0.432625,0.000006,0.000029,0.000000,0.000029,0.000006,-89.972086,0.000037,
2146,2503,-2.4238913973796,-3.08758871153398,-0.0216604041121968,0.002750,0.004262,0.002078,0.121652,0.234962,323.192975,24.463023,0.998993,0.984512,0.004963,0.449504,0.000002,0.000030,-0.000020,0.000040,-0.000009,-62.646837,0.000043,
2326,2668,1.46374452455244,0.516991803760227,-0.0227169520437656,0.002694,0.004278,0.006146,0.104353,0.270713,320.100857,24.601725,0.999620,0.990930,0.003910,0.366378,0.000003,0.000032,-0.000007,0.000034,0.000002,-77.596235,0.000040,
2071,2053,-3.98355919225518,-12.9320959425894,0.0236085229721539,0.002476,0.004521,0.001675,0.110184,0.260812,331.143872,24.722056,0.998329,0.976319,0.005991,0.394655,0.000027,-0.000056,-0.000004,0.000027,-0.000057,-2.863666,0.000057,
2086,2293,-3.69557544478732,-7.67614422973072,0.00444366450130929,0.002085,0.003710,0.008998,0.071069,0.265130,327.014209,24.616614,0.999586,0.991445,0.004091,0.437720,0.000022,0.000029,0.000026,0.000052,-0.000001,48.802668,0.000059,
2296,3208,0.715800795672429,12.2477313629958,0.0341020493044084,0.002583,0.004776,0.008128,0.093553,0.275017,311.777625,25.623627,0.999734,0.993406,0.003268,0.421707,0.000010,0.000035,-0.000006,0.000037,0.000009,-77.508722,0.000048,
2176,2623,-1.79160744351917,-0.470309986131397,-0.0198888190640787,0.002552,0.004184,0.005214,0.102766,0.247754,321.137786,24.533951,0.999454,0.987689,0.004296,0.435820,0.000000,0.000017,-0.000006,0.000019,-0.000002,-71.943102,0.000022,
2296,2938,0.763322012335284,6.38884895062109,0.00321702774226651,0.002757,0.004411,0.007586,0.103086,0.275176,315.943307,25.102436,0.999328,0.989907,0.003956,0.421002,-0.000001,0.000019,-0.000013,0.000025,-0.000007,-64.603662,0.000026,
2221,2668,-0.820587870500052,0.511167969179709,-0.0159641181894017,0.002724,0.003936,0.010113,0.094402,0.259093,320.301685,24.533865,0.999534,0.992475,0.003720,0.466894,0.000020,0.000027,-0.000004,0.000029,0.000018,-63.447481,0.000047,
2251,2803,-0.192402841545299,3.45203220277842,-0.0186358757196672,0.002456,0.004246,0.009125,0.084832,0.275499,318.009495,24.751925,0.999336,0.988553,0.004369,0.464203,0.000015,0.000044,0.000000,0.000044,0.000015,-89.190847,0.000061,
2161,2548,-2.10530427216698,-2.10609333486975,-0.0165530406042649,0.002480,0.004080,0.007475,0.092680,0.274784,322.422406,24.444770,0.999242,0.986850,0.004358,0.510569,0.000002,0.000036,-0.000005,0.000037,0.000002,-81.607024,0.000044,
2356,2818,2.0893690002805,3.7824149980743,-0.00466015782143359,0.002510,0.004130,0.009717,0.082938,0.265827,317.785122,24.877589,0.999656,0.991810,0.003717,0.462405,-0.000008,0.000046,-0.000012,0.000049,-0.000010,-78.140919,0.000051,
2191,2473,-1.43940057121016,-3.7419579903338,-0.0143560016624633,0.002673,0.004037,0.004083,0.111535,0.252587,323.573780,24.333074,0.999156,0.983719,0.005144,0.474445,0.000002,0.000020,-0.000006,0.000022,0.000000,-73.531591,0.000025,
2296,2983,0.755704491406384,7.36710088650889,0.00939759370641013,0.002818,0.005106,0.006055,0.111442,0.311344,315.268330,25.237724,0.999052,0.987909,0.004268,0.409807,-0.000005,0.000017,-0.000011,0.000022,-0.000009,-67.823513,0.000022,
2431,3238,3.64104563440132,12.9106648030181,0.0289168970853666,0.002538,0.004495,0.011540,0.076193,0.275135,311.248077,26.351139,0.999522,0.991970,0.003662,0.452318,0.000004,0.000049,-0.000009,0.000051,0.000003,-79.468330,0.000060,
2476,2203,4.8300668992021,-9.64944444626335,0.0194158861071401,0.003072,0.004174,0.003244,0.130057,0.259193,328.178363,22.678557,0.998140,0.968955,0.006655,0.409571,0.000042,0.000016,-0.000020,0.000053,0.000005,-28.382156,0.000064,
2101,2338,-3.37483749094443,-6.69347108737537,0.00531251317090664,0.002903,0.003916,0.003608,0.124172,0.232624,326.277506,24.520852,0.999236,0.988116,0.004511,0.449316,0.000004,0.000003,-0.000009,0.000013,-0.000006,-43.160405,0.000013,
2101,2128,-3.34118440981642,-11.2907845168975,0.0301880272292578,0.002456,0.003075,0.008963,0.087582,0.207285,329.826121,24.509991,0.998935,0.986701,0.005014,0.382445,0.000021,0.000010,0.000015,0.000032,-0.000001,35.939152,0.000036,
2236,2743,-0.507392319908586,2.14540970836944,-0.0163006823154888,0.002812,0.003928,0.009287,0.100847,0.267560,319.051830,24.663780,0.998974,0.985580,0.004752,0.446248,0.000021,0.000026,-0.000008,0.000032,0.000016,-53.797555,0.000049,
2131,2443,-2.73992215015567,-4.39876342685626,-0.00846515104069567,0.002738,0.004101,0.006697,0.107264,0.254831,324.318887,24.418675,0.999221,0.987418,0.004659,0.516162,-0.000012,0.000003,-0.000023,0.000019,-0.000028,-54.076254,0.000029,
2311,3298,1.02275350018636,14.2005904471981,0.00770820579577958,0.002617,0.004703,0.007884,0.095750,0.278818,310.066861,25.801861,0.999648,0.994205,0.002981,0.505160,-0.000007,0.000055,0.000005,0.000056,-0.000007,85.728443,0.000061,
2116,2368,-3.05335648140317,-6.03684371635928,0.00152059301183272,0.002959,0.004096,0.005005,0.122572,0.249515,325.691748,24.520347,0.999140,0.984174,0.004924,0.422958,-0.000006,0.000015,-0.000023,0.000030,-0.000021,-57.444122,0.000031,
2491,2293,5.13803345839222,-7.67747671542728,0.0149730571931741,0.002402,0.003833,0.006876,0.085321,0.232443,326.681184,22.941643,0.999234,0.981236,0.005110,0.411511,0.000013,0.000031,0.000013,0.000038,0.000007,62.375517,0.000048,
2251,3028,-0.230195154303182,8.33989462218253,0.0132013311334163,0.002469,0.004452,0.009139,0.085611,0.271848,314.609223,25.119303,0.999252,0.989081,0.004007,0.435792,-0.000013,0.000004,-0.000013,0.000012,-0.000020,-61.286060,0.000020,
2191,2698,-1.47735065702432,1.16164555312034,-0.00764937495455342,0.002812,0.004039,0.009496,0.101142,0.262621,319.974727,24.478867,0.999664,0.994415,0.003233,0.567355,0.000011,0.000037,-0.000009,0.000040,0.000008,-72.862448,0.000051,
2086,2098,-3.66494931299642,-11.9414061342375,-0.00359005279904068,0.002850,0.004191,0.004057,0.120384,0.265963,330.128896,24.751890,0.998956,0.966445,0.006951,0.281942,0.000018,0.000017,0.000014,0.000032,0.000003,43.333247,0.000039,
2416,3103,3.34185162252018,9.98042502313333,0.0241800844181057,0.002813,0.004373,0.008252,0.101176,0.268530,313.427535,25.904649,0.999790,0.994587,0.003261,0.396056,0.000006,0.000047,-0.000002,0.000047,0.000006,-86.717507,0.000058,
2401,3103,3.01629642892479,9.97854814465416,0.0279193136843219,0.002936,0.004529,0.007245,0.110881,0.275819,313.452784,25.801541,0.999579,0.992021,0.003579,0.448677,0.000005,0.000044,-0.000005,0.000044,0.000005,-83.311683,0.000054,
2311,3058,1.06832236514739,8.99450731286304,0.0215992339168452,0.002644,0.004166,0.008462,0.094578,0.251406,314.115244,25.343148,0.999728,0.993016,0.003348,0.441483,-0.000010,0.000013,-0.000015,0.000021,-0.000017,-63.872679,0.000022,
2161,2263,-2.05708462476287,-8.33075989524392,-0.00058643909710554,0.002591,0.004239,0.007499,0.097495,0.279567,327.161352,24.357252,0.998771,0.978838,0.005605,0.381179,0.000013,0.000016,0.000002,0.000017,0.000012,63.881362,0.000029,
2281,2938,0.436709271774646,6.38776060376036,-0.00328893140317632,0.002765,0.004239,0.010046,0.095387,0.260967,315.899817,25.023808,0.999522,0.991370,0.003762,0.451778,-0.000003,0.000023,-0.000007,0.000025,-0.000005,-75.150826,0.000027,
2236,2968,-0.545535786290817,7.03646449309915,0.00546936319869928,0.002652,0.004610,0.007563,0.099467,0.276314,315.569150,24.988695,0.999384,0.991400,0.003817,0.442565,-0.000009,0.000028,-0.000003,0.000029,-0.000010,-85.584408,0.000029,
2371,2893,2.40189345620686,5.41529917349298,-0.00877996142418169,0.002821,0.004728,0.003087,0.120754,0.267856,316.568796,25.090364,0.999449,0.991335,0.003805,0.471630,-0.000010,0.000023,-0.000019,0.000031,-0.000019,-65.658551,0.000032,
2311,2818,1.11026058731866,3.78168700416371,-0.01583665288058,0.002778,0.004562,0.005336,0.111405,0.264465,317.734291,24.894073,0.999501,0.989717,0.004002,0.397543,0.000007,0.000052,-0.000009,0.000054,0.000005,-78.628381,0.000065,
2326,2878,1.42607814051697,5.08611476516889,-0.00664581144877729,0.002991,0.004248,0.007382,0.113890,0.254750,316.827079,24.975681,0.999495,0.990190,0.003977,0.458626,-0.000008,0.000033,-0.000016,0.000038,-0.000014,-70.812836,0.000039,
2176,2428,-1.75735921551744,-4.724863195839,-0.00553952218405129,0.003101,0.004151,0.004536,0.129914,0.249179,324.440100,24.388461,0.998986,0.985432,0.004846,0.409124,-0.000003,0.000007,-0.000015,0.000018,-0.000014,-55.108221,0.000019,
2461,2113,4.5201493175276,-11.6230562945955,0.0160050886643148,0.002906,0.004453,0.001676,0.128489,0.247997,329.565600,22.413087,0.999514,0.977729,0.005680,0.396491,0.000035,-0.000015,-0.000002,0.000035,-0.000015,-1.877770,0.000035,
2131,2233,-2.70466493231416,-8.98920694035566,0.0161631997628433,0.002577,0.003940,0.006458,0.100340,0.255823,327.901919,24.469115,0.998728,0.978772,0.005554,0.360158,0.000009,0.000027,0.000011,0.000032,0.000004,65.570822,0.000040,
2206,2773,-1.16436071053725,2.79737329147365,-0.0163693474339652,0.002824,0.004432,0.003802,0.119665,0.264914,318.657100,24.726408,0.999357,0.989956,0.004110,0.404795,0.000010,0.000037,-0.000008,0.000039,0.000008,-73.773552,0.000050,
2266,2848,0.126974600747122,4.43122081426912,-0.012121857623697,0.003178,0.004369,0.006809,0.125486,0.267274,317.345325,24.856995,0.999523,0.991586,0.003812,0.440720,0.000009,0.000045,0.000000,0.000045,0.000009,89.314955,0.000058,
2071,2233,-4.01141746670479,-8.98814437772212,0.0096637870548193,0.003031,0.004183,0.004851,0.126719,0.268000,328.154740,24.741056,0.998741,0.984021,0.005005,0.380292,0.000024,0.000049,0.000029,0.000068,0.000005,56.560127,0.000081,
2386,3028,2.70311682933752,8.34952459143032,0.0134419411034514,0.002620,0.004198,0.009856,0.087027,0.267543,314.523286,25.539548,0.999581,0.990047,0.003940,0.432661,0.000001,0.000013,-0.000016,0.000024,-0.000010,-54.920463,0.000024,
2281,3148,0.401104307295149,10.9447226628749,0.0355166074193676,0.002731,0.004259,0.012777,0.084827,0.269943,312.782958,25.413512,0.999573,0.992759,0.003708,0.447215,0.000000,0.000029,-0.000013,0.000033,-0.000005,-69.562247,0.000036,
2146,2518,-2.42665570239202,-2.75999206610424,-0.0245715751321995,0.002924,0.003784,0.006368,0.116528,0.235164,322.920896,24.482636,0.999074,0.985551,0.004759,0.439122,0.000003,0.000026,-0.000016,0.000035,-0.000005,-62.918387,0.000037,
2176,2338,-1.74263454525478,-6.69114925238519,-0.00184121675727056,0.002756,0.003948,0.007352,0.105225,0.260654,325.899026,24.327039,0.999080,0.984743,0.004890,0.398340,0.000003,0.000000,-0.000009,0.000010,-0.000007,-40.026834,0.000011,
2161,2338,-2.06914425354313,-6.69218071068308,0.00313246034232861,0.002653,0.003668,0.008115,0.098302,0.262561,325.985069,24.341427,0.999293,0.987209,0.004492,0.440373,0.000003,-0.000002,-0.000016,0.000017,-0.000016,-40.695335,0.000019,
2116,2188,-3.02479244080178,-9.97435020450474,0.0155467716320459,0.002376,0.003425,0.009863,0.081071,0.251910,328.665191,24.488725,0.998846,0.981731,0.005302,0.388825,0.000013,0.000032,0.000023,0.000047,-0.000002,56.373971,0.000053,
2086,2308,-3.69786784584775,-7.34829645269559,0.000839268897379952,0.002343,0.003559,0.008977,0.082959,0.242107,326.754816,24.599994,0.999350,0.988855,0.004523,0.432436,0.000021,0.000021,0.000012,0.000033,0.000009,45.159208,0.000044,
2221,2863,-0.854444283878689,4.75521947179455,-0.0160283445235336,0.002504,0.004298,0.005524,0.099293,0.260118,317.135883,24.817861,0.999390,0.990796,0.003716,0.430411,0.000008,0.000041,-0.000001,0.000041,0.000008,-88.717188,0.000052,
2491,2308,5.13527429826648,-7.34785024365317,0.0143869787623885,0.002602,0.004317,0.004631,0.103269,0.260510,326.450625,23.071869,0.998747,0.978715,0.005593,0.370251,0.000018,0.000034,0.000013,0.000041,0.000010,60.549701,0.000055,
2341,2728,1.77919910939136,1.82439962171333,-0.0214587178447232,0.002943,0.004119,0.008299,0.108056,0.257707,319.135004,24.725716,0.999252,0.988422,0.004251,0.370778,-0.000001,0.000049,-0.000005,0.000050,-0.000001,-83.855789,0.000057,
2296,3223,0.712912470120362,12.5720029601396,0.0337849848352789,0.002516,0.004641,0.008632,0.088783,0.284278,311.524727,25.554041,0.999820,0.994609,0.003013,0.529318,0.000011,0.000043,-0.000005,0.000044,0.000010,-81.301871,0.000057,
2101,2143,-3.34441692781626,-10.9611854516893,0.023978044577575,0.002221,0.002720,0.013019,0.064860,0.222833,329.510649,24.525113,0.998743,0.982191,0.005447,0.387597,0.000014,0.000009,0.000013,0.000024,-0.000002,39.549465,0.000027,
2221,2683,-0.823108882126544,0.83794080913944,-0.0166085288911972,0.002844,0.004074,0.009987,0.100385,0.264736,320.058758,24.546110,0.999558,0.991808,0.003705,0.479532,0.000016,0.000033,-0.000008,0.000036,0.000013,-68.547853,0.000051,
2326,3118,1.38372043292692,10.2981242251131,0.0269627692593986,0.002840,0.004495,0.006544,0.110144,0.265805,313.183737,25.551193,0.999387,0.991939,0.003688,0.432533,0.000009,0.000039,-0.000011,0.000042,0.000005,-71.452227,0.000052,
2266,3088,0.0858874739671975,9.64234774579296,0.0284866892340574,0.002399,0.004329,0.007370,0.087959,0.267936,313.731918,25.269672,0.999604,0.991806,0.003652,0.426665,-0.000013,0.000015,-0.000017,0.000023,-0.000021,-64.091003,0.000026,
2236,2758,-0.509979177769576,2.47253904825688,-0.0196525134952026,0.002994,0.004423,0.007803,0.114239,0.287570,318.792992,24.696248,0.999201,0.987595,0.004343,0.455126,0.000020,0.000032,-0.000003,0.000032,0.000019,-75.884060,0.000052,
2176,2638,-1.7937662288072,-0.143929782309968,-0.0190029912398586,0.002931,0.003964,0.006337,0.116639,0.241903,320.916093,24.520027,0.999560,0.989557,0.004077,0.456569,0.000005,0.000019,-0.000007,0.000022,0.000001,-66.908046,0.000026,
2401,3118,3.01401509810826,10.3042650637091,0.0373541261428727,0.002938,0.004715,0.008590,0.106168,0.284313,313.281237,25.901257,0.999846,0.995277,0.002939,0.401714,0.000010,0.000053,-0.000001,0.000053,0.000010,-88.613448,0.000068,
2371,2908,2.39857842984481,5.74172617870227,-0.0094188356508198,0.002726,0.004512,0.006909,0.102783,0.279891,316.300456,25.133488,0.999328,0.989672,0.004057,0.481402,-0.000010,0.000016,-0.000018,0.000026,-0.000019,-62.639084,0.000027,
2206,2548,-1.12533758401105,-2.10466597818197,-0.0140841574540218,0.002968,0.004345,0.003073,0.128285,0.250529,322.335614,24.447484,0.999555,0.990131,0.003971,0.411760,0.000005,0.000029,0.000004,0.000030,0.000004,80.514923,0.000037,
2131,2458,-2.74266840511608,-4.06931588892402,-0.00965136028304414,0.002747,0.003779,0.010349,0.096692,0.281498,324.055048,24.575796,0.999327,0.988077,0.004564,0.392916,-0.000009,0.000006,-0.000029,0.000028,-0.000031,-52.055347,0.000034,
2281,2953,0.434342971143565,6.71394541162278,-0.00356032966476505,0.002814,0.004428,0.005546,0.112828,0.261245,315.670096,25.069939,0.999284,0.989020,0.004111,0.433314,-0.000002,0.000020,-0.000008,0.000022,-0.000004,-72.588797,0.000023,
2086,2113,-3.66609882201056,-11.6163429862262,0.0153414493503874,0.002827,0.003690,0.004595,0.117659,0.234739,330.044229,24.663735,0.998818,0.982529,0.005303,0.340007,0.000022,0.000010,0.000013,0.000030,0.000002,32.496514,0.000035,
2251,3043,-0.232198192681572,8.66594017067027,0.0147229949040479,0.002833,0.004639,0.006268,0.111855,0.266257,314.402950,25.193419,0.999462,0.991159,0.003721,0.378466,-0.000013,0.000004,-0.000015,0.000013,-0.000022,-59.699181,0.000022,
2146,2263,-2.38298053485219,-8.33125715626017,0.000213063954106474,0.003085,0.004519,0.002256,0.136353,0.278638,327.262194,24.383733,0.998927,0.981263,0.005374,0.419270,0.000008,0.000020,0.000003,0.000020,0.000008,74.818313,0.000029,
2311,2608,1.14894258581435,-0.793846304956176,-0.0111167483760823,0.002667,0.004019,0.008904,0.093808,0.279810,321.171545,24.351768,0.999541,0.990605,0.003864,0.500602,0.000021,0.000017,0.000001,0.000021,0.000017,12.362933,0.000037,
2251,2818,-0.193936645332691,3.77778526906773,-0.0155116668471464,0.002763,0.004820,0.000784,0.126498,0.264580,317.833379,24.757063,0.999550,0.990165,0.004171,0.471468,0.000016,0.000052,0.000002,0.000052,0.000016,87.537169,0.000072,
2116,2383,-3.05607211322172,-5.70966920971043,-0.0020607817078826,0.002822,0.004027,0.004407,0.118039,0.233851,325.415948,24.462482,0.999269,0.984596,0.004781,0.470486,-0.000004,0.000023,-0.000021,0.000034,-0.000015,-61.298988,0.000034,
2086,2323,-3.69978304211731,-7.02026721111532,-0.000154224931065983,0.002771,0.004083,0.008272,0.104824,0.267237,326.526585,24.583367,0.999127,0.987824,0.004645,0.475384,0.000019,0.000012,0.000006,0.000022,0.000009,29.017202,0.000032,
2356,2833,2.08669902085159,4.10949836276092,-0.0116554443686141,0.002983,0.004184,0.006552,0.115826,0.250651,317.514823,24.937793,0.999668,0.989951,0.004031,0.426047,-0.000011,0.000049,-0.000014,0.000052,-0.000014,-77.470612,0.000054,
2431,3253,3.63733978674167,13.2368517617096,0.0172946154927445,0.002618,0.004364,0.009941,0.085737,0.263642,310.913380,26.425796,0.999547,0.992048,0.003556,0.414740,-0.000001,0.000053,-0.000013,0.000056,-0.000004,-77.003573,0.000062,
2326,2683,1.4607876128379,0.843077378673826,-0.0232850313942095,0.002673,0.004222,0.007595,0.098412,0.273084,319.846748,24.556951,0.999701,0.991412,0.003866,0.448521,0.000002,0.000049,-0.000011,0.000051,-0.000001,-77.887003,0.000058,
2326,1993,1.59320897093669,-14.2557476510752,0.0329593224653877,0.002840,0.003877,0.005973,0.110907,0.237606,331.485035,22.999223,0.998121,0.971512,0.006573,0.296061,0.000032,0.000062,-0.000003,0.000062,0.000031,-85.234001,0.000095,
2296,2998,0.752956111226013,7.69170813034788,0.0117918541351401,0.002723,0.004663,0.007162,0.103069,0.277348,315.035816,25.202862,0.999336,0.990130,0.003900,0.439892,-0.000006,0.000015,-0.000011,0.000020,-0.000010,-66.724803,0.000020,
2101,2353,-3.37819352100432,-6.36383991175727,-0.00793910393861097,0.002765,0.004167,0.003703,0.117626,0.251043,325.918270,24.548085,0.998959,0.983586,0.005081,0.444110,-0.000003,0.000003,-0.000015,0.000016,-0.000015,-50.825233,0.000018,
2341,2038,1.91140759484641,-13.2674081393809,0.019890343767031,0.002572,0.003824,0.005783,0.099158,0.204250,330.638926,22.949403,0.999040,0.979504,0.005596,0.327636,0.000038,0.000028,0.000009,0.000043,0.000023,29.700966,0.000067,
2236,2983,-0.547909462344524,7.36173223748453,0.0159927975175833,0.002386,0.004321,0.010409,0.077949,0.278440,315.391114,25.029527,0.999412,0.991804,0.003775,0.424097,-0.000011,0.000027,-0.000003,0.000027,-0.000011,-85.078439,0.000028,
2491,2323,5.1319142279905,-7.01902131854122,0.00993925451683708,0.003209,0.003712,0.010565,0.108145,0.283467,326.175172,23.101226,0.998703,0.980418,0.005465,0.424862,0.000018,0.000054,0.000023,0.000065,0.000007,64.211009,0.000079,
2161,2563,-2.10684015391794,-1.77941977401453,-0.00940681170789048,0.002870,0.004181,0.006218,0.114505,0.270424,322.261019,24.487541,0.999116,0.986209,0.004497,0.473997,0.000007,0.000032,-0.000008,0.000035,0.000005,-74.282221,0.000043,
2071,2248,-4.0143228510877,-8.66100341578447,0.011171082021292,0.002421,0.003799,0.006509,0.093865,0.252327,327.893967,24.682883,0.998734,0.984046,0.004937,0.422110,0.000024,0.000065,0.000031,0.000082,0.000007,61.832976,0.000099,
2476,2218,4.82649437665701,-9.31972757015784,0.0175515446317718,0.002718,0.004284,0.003137,0.114325,0.271530,327.903995,22.787628,0.999026,0.977982,0.005896,0.372215,0.000032,0.000009,-0.000017,0.000041,0.000000,-28.179039,0.000048,
2176,2443,-1.76029346919143,-4.39738581982532,-0.00672110435994,0.002799,0.004252,0.005245,0.113922,0.257138,324.171970,24.379677,0.999245,0.985718,0.004764,0.439620,-0.000008,0.000010,-0.000015,0.000019,-0.000017,-61.118893,0.000020,
2416,3118,3.33898808599159,10.3062539746357,0.025310121269456,0.002834,0.004476,0.008581,0.101007,0.275462,313.190902,25.965158,0.999817,0.994961,0.003095,0.389102,0.000010,0.000057,0.000000,0.000057,0.000010,-89.867919,0.000072,
2296,3238,0.710108547871979,12.8976440900756,0.0280023202130906,0.002732,0.004478,0.006292,0.106578,0.268235,311.247973,25.608906,0.999675,0.992581,0.003378,0.486761,0.000012,0.000041,-0.000004,0.000042,0.000011,-82.344570,0.000056,
2131,2248,-2.70766386318476,-8.6610304270589,0.0093569141213834,0.002485,0.003715,0.007353,0.093360,0.241335,327.597233,24.419760,0.999037,0.980024,0.005389,0.403406,0.000009,0.000028,0.000010,0.000032,0.000005,66.749662,0.000040,
2461,2128,4.51771765070446,-11.2943191451742,0.0218822198337989,0.003166,0.004334,0.003339,0.134068,0.259334,329.378011,22.484590,0.999544,0.976000,0.005841,0.393378,0.000036,-0.000017,-0.000001,0.000036,-0.000017,-0.820048,0.000036,
2356,2848,2.08323038539902,4.4363845691856,-0.0177323017148296,0.002952,0.004205,0.008153,0.108857,0.271333,317.212154,24.956434,0.999589,0.990006,0.003969,0.466747,-0.000009,0.000042,-0.000018,0.000048,-0.000014,-72.160653,0.000049,
2116,2398,-3.0585615032949,-5.3819763302755,-0.00297050088624928,0.002696,0.003927,0.003043,0.116266,0.234204,325.164626,24.467027,0.999028,0.984736,0.004841,0.471357,-0.000010,0.000019,-0.000025,0.000034,-0.000025,-60.157997,0.000035,
2341,2953,1.73859016028456,6.71766500959527,0.00142284293252715,0.002749,0.004465,0.006516,0.105664,0.270219,315.656987,25.224479,0.999218,0.990261,0.003988,0.430615,-0.000006,0.000015,-0.000020,0.000027,-0.000018,-59.396494,0.000028,
2266,3103,0.0835300537020345,9.96818655146235,0.0257963040508002,0.002849,0.004625,0.006042,0.113207,0.279408,313.489089,25.296113,0.999747,0.993131,0.003413,0.436428,-0.000010,0.000020,-0.000018,0.000028,-0.000019,-65.056973,0.000029,
2386,3043,2.7002432456366,8.67520956699861,0.00991039059942977,0.002822,0.004118,0.008572,0.100891,0.258358,314.262307,25.552989,0.999671,0.991075,0.003787,0.452658,0.000001,0.000020,-0.000013,0.000027,-0.000006,-63.182482,0.000028,
2146,2533,-2.42875393740509,-2.43402002432826,-0.0118243076076396,0.002626,0.003684,0.009209,0.094226,0.251475,322.762567,24.482464,0.999307,0.987544,0.004309,0.464419,0.000001,0.000033,-0.000010,0.000036,-0.000002,-74.074725,0.000041,
2161,2353,-2.07168665898136,-6.36392323397005,-0.00360070241879384,0.002870,0.003956,0.005703,0.115750,0.252024,325.704454,24.336792,0.999063,0.985589,0.004736,0.446700,-0.000006,0.000004,-0.000020,0.000019,-0.000021,-51.651309,0.000023,
2326,2008,1.59085986260465,-13.9262630502292,0.0375673601295716,0.002848,0.004576,0.005139,0.114407,0.272600,331.285360,23.057688,0.998560,0.972083,0.006507,0.310523,0.000041,0.000071,0.000012,0.000075,0.000036,70.351223,0.000113,
2101,2158,-3.34618006450112,-10.6322398464829,0.0273470808445495,0.002399,0.003538,0.010189,0.081548,0.253012,329.313889,24.574174,0.998861,0.981720,0.005454,0.372538,0.000015,0.000001,0.000008,0.000018,-0.000003,24.866470,0.000020,
2206,2563,-1.12787593316077,-1.77838997140077,-0.00650803492970908,0.002881,0.004090,0.008988,0.105540,0.279579,322.133327,24.425117,0.999547,0.991120,0.003834,0.480875,0.000007,0.000024,0.000001,0.000024,0.000007,87.471370,0.000032,
2281,3163,0.398379391499766,11.2707334249448,0.0327426622445728,0.002723,0.004383,0.009731,0.094782,0.270778,312.523762,25.482171,0.999542,0.991731,0.003694,0.405881,0.000004,0.000032,-0.000011,0.000036,0.000001,-71.013098,0.000042,
2116,2203,-3.02694987643297,-9.64567413996551,0.0120799709921471,0.002638,0.003855,0.007164,0.101214,0.249917,328.415210,24.489929,0.998319,0.977188,0.005674,0.391594,0.000010,0.000034,0.000021,0.000046,-0.000002,60.398149,0.000052,
2071,2263,-4.01623971516237,-8.33278669262604,0.00920985294987986,0.002925,0.003730,0.006619,0.116724,0.253073,327.659142,24.675978,0.999128,0.986515,0.004716,0.428968,0.000024,0.000068,0.000033,0.000085,0.000007,61.904285,0.000103,
2431,3268,3.63390069723157,13.5630283781668,0.00771047721724472,0.002748,0.004481,0.007704,0.100076,0.268154,310.600388,26.500099,0.999624,0.992808,0.003462,0.393478,-0.000009,0.000051,-0.000009,0.000052,-0.000010,-81.844796,0.000055,
2311,3073,1.06612805991416,9.32071638985993,0.0244803344529032,0.002815,0.004383,0.005778,0.111765,0.261130,313.910868,25.434060,0.999705,0.994226,0.003171,0.391575,-0.000009,0.000025,-0.000014,0.000030,-0.000014,-69.985038,0.000030,
2341,2743,1.77690657934683,2.14987548109178,-0.0167531805743124,0.002935,0.004241,0.006106,0.115418,0.260501,318.938140,24.684855,0.999464,0.989751,0.004014,0.451338,-0.000001,0.000054,-0.000007,0.000055,-0.000002,-83.014263,0.000063,
2176,2653,-1.7969978586109,0.184534642404685,-0.0315811573727842,0.002933,0.004396,0.004178,0.123630,0.259603,320.574164,24.565595,0.999568,0.989391,0.004142,0.441984,0.000006,0.000025,-0.000006,0.000027,0.000005,-73.585818,0.000034,
2236,2773,-0.512554536027398,2.79862625934,-0.0196753897178041,0.002918,0.004655,0.005866,0.117044,0.269224,318.551989,24.702261,0.999145,0.987776,0.004259,0.451738,0.000018,0.000039,-0.000001,0.000039,0.000018,-86.380358,0.000059,
2146,2278,-2.38534448837832,-8.00396507304718,-0.00275155070920619,0.003239,0.004580,0.000630,0.148343,0.254680,327.008505,24.314480,0.998762,0.980814,0.005464,0.474573,0.000008,0.000016,0.000002,0.000017,0.000007,75.732568,0.000025,
2281,2968,0.432258531998109,7.04035819373959,-0.00299315800992872,0.003079,0.004865,0.000959,0.140564,0.273393,315.457402,25.135193,0.999263,0.989448,0.004057,0.407345,-0.000003,0.000020,-0.000009,0.000024,-0.000006,-70.758513,0.000024,
2326,2893,1.42310136267067,5.41263517665432,-0.00689951313796655,0.002813,0.004255,0.007136,0.106571,0.257655,316.572815,25.034161,0.999269,0.989372,0.004086,0.437036,-0.000012,0.000023,-0.000014,0.000028,-0.000017,-70.256859,0.000028,
2131,2473,-2.74480047553493,-3.74259033419909,-0.010189203411926,0.002760,0.003939,0.005563,0.111631,0.246412,323.823627,24.556337,0.999311,0.987498,0.004606,0.384090,-0.000005,0.000020,-0.000020,0.000031,-0.000016,-61.076904,0.000031,
2296,3013,0.749715938582384,8.01776611687936,0.00725535088253082,0.002607,0.004450,0.007650,0.096033,0.270457,314.745736,25.231863,0.999131,0.987363,0.004295,0.433267,-0.000008,0.000012,-0.000013,0.000019,-0.000015,-63.539092,0.000020,
2401,3133,3.01027990450798,10.6302470179393,0.0275150419025749,0.002922,0.004581,0.008750,0.104827,0.285816,312.951471,25.916740,0.999793,0.994492,0.003092,0.432239,0.000011,0.000052,-0.000002,0.000052,0.000010,-87.298098,0.000067,
2341,3193,1.69599147169437,11.9263045542546,0.0343259448409299,0.002960,0.004526,0.007567,0.111935,0.274640,312.012557,25.799531,0.999592,0.993086,0.003557,0.430378,0.000008,0.000041,-0.000003,0.000041,0.000007,-84.339601,0.000052,
2086,2128,-3.66930921357952,-11.2869636763984,0.00964666224950861,0.002440,0.003516,0.007068,0.092746,0.238371,329.731153,24.671245,0.998949,0.984278,0.005129,0.338439,0.000018,0.000004,0.000018,0.000030,-0.000009,34.400853,0.000031,
2161,2578,-2.10992478298607,-1.45231803380416,-0.0140257623282878,0.002729,0.003983,0.008359,0.101393,0.262111,321.966676,24.474797,0.998999,0.985900,0.004560,0.489598,0.000005,0.000033,-0.000006,0.000034,0.000004,-78.790368,0.000042,
2431,3283,3.63066373765082,13.8879885722087,0.00561087662032378,0.002690,0.004518,0.008181,0.095655,0.262562,310.331963,26.517964,0.999749,0.993563,0.003245,0.418312,-0.000015,0.000043,-0.000007,0.000043,-0.000015,-83.408339,0.000044,
2296,3253,0.706826417230992,13.2237028732532,0.022011379334117,0.002720,0.004511,0.007117,0.103223,0.267019,310.947961,25.690987,0.999649,0.990269,0.003719,0.431834,0.000012,0.000042,0.000000,0.000042,0.000012,-89.679636,0.000057,
2266,2863,0.125489808606634,4.75602804477731,0.000860913474582503,0.003350,0.004274,0.005512,0.137677,0.260904,317.222276,24.855852,0.999727,0.993581,0.003506,0.460650,0.000008,0.000043,-0.000003,0.000043,0.000008,-84.390119,0.000055,
2311,2833,1.10840595872228,4.10750622254483,-0.00549593947607718,0.002923,0.004450,0.005391,0.117877,0.260070,317.583033,24.958205,0.999693,0.991889,0.003720,0.360930,0.000001,0.000057,-0.000010,0.000059,-0.000001,-80.078299,0.000068,
2476,2233,4.82349450410193,-8.99219728560001,0.0182116520105069,0.002564,0.004108,0.001266,0.114300,0.235148,327.667664,22.777038,0.999321,0.980931,0.005482,0.405283,0.000029,0.000003,-0.000005,0.000030,0.000002,-9.938248,0.000036,
2221,2698,-0.825666902851726,1.16435407390401,-0.0180891636456977,0.002837,0.003975,0.007729,0.107271,0.248683,319.809968,24.544829,0.999645,0.993367,0.003342,0.484109,0.000016,0.000034,-0.000011,0.000039,0.000011,-65.476926,0.000053,
2461,2143,4.51411895416998,-10.9648618300915,0.0156558296423555,0.003160,0.004078,0.003817,0.131952,0.246911,329.081799,22.520177,0.999079,0.975728,0.005898,0.403007,0.000040,-0.000011,-0.000006,0.000041,-0.000011,-6.594446,0.000042,
2266,3118,0.0811660808702648,10.2929375010275,0.0335467031140979,0.002742,0.004531,0.007560,0.103164,0.266069,313.298949,25.316310,0.999662,0.993468,0.003388,0.427204,-0.000005,0.000027,-0.000015,0.000033,-0.000011,-67.734222,0.000034,
2326,2023,1.58734823419146,-13.5967987536191,0.0303574351586349,0.002759,0.004242,0.006574,0.105296,0.258462,330.975282,23.034933,0.998873,0.977439,0.006019,0.357521,0.000038,0.000068,0.000018,0.000077,0.000029,64.976435,0.000109,
2371,2923,2.39598766058898,6.06823757348785,-0.00696266474801632,0.002750,0.004719,0.006028,0.107106,0.290827,316.080170,25.211778,0.999307,0.989501,0.004079,0.454433,-0.000008,0.000009,-0.000021,0.000023,-0.000022,-56.605316,0.000026,
2191,2713,-1.48095658476069,1.49104120690542,-0.0245315454600359,0.002796,0.004167,0.007558,0.106577,0.273021,319.594507,24.603745,0.999234,0.989923,0.004002,0.468038,0.000009,0.000031,-0.000012,0.000037,0.000004,-65.871546,0.000045,
2176,2458,-1.76289115213365,-4.070749153767,-0.0013023643359702,0.002489,0.004036,0.007462,0.092750,0.249180,323.953953,24.376126,0.999201,0.985857,0.004801,0.448907,-0.000005,0.000017,-0.000016,0.000025,-0.000013,-62.737501,0.000025,
2071,2278,-4.01844637113708,-8.00324195281571,0.00641044431165483,0.003090,0.004287,0.004967,0.129185,0.259305,327.406202,24.781853,0.999858,0.994166,0.003742,0.328324,0.000025,0.000058,0.000034,0.000079,0.000004,57.911742,0.000094,
2086,2338,-3.70129711328723,-6.69342654877575,0.00596841036957585,0.002828,0.004088,0.002417,0.124323,0.243594,326.355770,24.581876,0.998857,0.985273,0.004921,0.453776,0.000012,0.000003,-0.000004,0.000013,0.000002,-21.316470,0.000016,
2206,2788,-1.16718221363264,3.12304599565935,-0.0178227108578426,0.002750,0.004210,0.004703,0.113317,0.251433,318.395220,24.682141,0.999098,0.987713,0.004455,0.452380,0.000012,0.000043,-0.000007,0.000045,0.000010,-78.175532,0.000059,
2311,3088,1.06358358831244,9.64560365692084,0.0271239484282546,0.002907,0.004454,0.006540,0.113380,0.255202,313.689616,25.420963,0.999747,0.995159,0.002992,0.429794,-0.000008,0.000022,-0.000019,0.000031,-0.000017,-64.678033,0.000031,
2251,2833,-0.196661776895613,4.10427819029188,-0.0128514230731867,0.002813,0.004448,0.004919,0.115109,0.254815,317.599974,24.829671,0.999462,0.990259,0.003985,0.412182,0.000014,0.000054,0.000005,0.000055,0.000013,83.726181,0.000072,
2356,2863,2.0804215007118,4.76253260670437,-0.0191579452925339,0.002996,0.004239,0.006829,0.115531,0.260727,316.962433,24.977983,0.999485,0.990079,0.003977,0.473241,-0.000006,0.000040,-0.000021,0.000048,-0.000014,-69.091673,0.000049,
2341,2758,1.7740158129728,2.47661621818962,-0.0144528433423829,0.002683,0.004538,0.006065,0.104126,0.282978,318.701720,24.725474,0.999547,0.989895,0.004011,0.469835,0.000002,0.000058,-0.000005,0.000059,0.000001,-84.853637,0.000069,
2416,3133,3.33592456631031,10.6303712788609,0.0275641369543109,0.002705,0.004375,0.010737,0.087205,0.285581,312.950810,25.875358,0.999828,0.995195,0.002986,0.535928,0.000010,0.000055,-0.000001,0.000055,0.000010,-88.654835,0.000070,
2221,2878,-0.85626915994613,5.08028941729644,-0.00851016774254276,0.002758,0.004463,0.005384,0.111477,0.260418,316.967029,24.797103,0.999503,0.992315,0.003429,0.469937,0.000002,0.000041,0.000000,0.000041,0.000002,89.816773,0.000049,
2251,3058,-0.233031233694557,8.98976292032679,0.0334416168691973,0.003234,0.005013,0.004843,0.135149,0.280451,314.338404,25.158498,0.999519,0.992582,0.003519,0.449977,-0.000010,0.000007,-0.000015,0.000016,-0.000019,-59.634486,0.000020,
2191,2488,-1.44229762208331,-3.41402001257762,-0.0168534873354815,0.002412,0.004360,0.003003,0.103034,0.265993,323.301583,24.364791,0.998947,0.982180,0.005394,0.471795,0.000002,0.000028,-0.000009,0.000030,-0.000001,-72.422372,0.000035,
2491,2338,5.12825366632507,-6.69007619211119,0.00782001308135705,0.002437,0.004134,0.006011,0.090383,0.246317,325.896519,23.230083,0.998946,0.984801,0.005318,0.319612,0.000019,0.000062,0.000034,0.000081,0.000000,61.508985,0.000093,
2131,2488,-2.74725951893911,-3.41621168615359,-0.0126599684305688,0.002866,0.003922,0.005275,0.117352,0.238936,323.566924,24.464924,0.999345,0.986809,0.004640,0.474896,-0.000004,0.000028,-0.000024,0.000040,-0.000017,-61.754640,0.000040,
2236,2998,-0.550695088158246,7.68694299071206,0.0157856860178072,0.002369,0.004245,0.011857,0.072421,0.276311,315.139372,24.999353,0.999453,0.990499,0.003885,0.472603,-0.000012,0.000022,-0.000006,0.000023,-0.000013,-80.989826,0.000023,
2326,3133,1.38043511898558,10.6235607001462,0.0250970425882997,0.002571,0.004468,0.007471,0.094462,0.251811,312.906950,25.580504,0.999248,0.990978,0.003767,0.422525,0.000005,0.000042,-0.000009,0.000044,0.000003,-77.409449,0.000053,
2116,2218,-3.0290353608231,-9.31686439067796,0.00925649311318466,0.002869,0.004222,0.003446,0.122903,0.256734,328.171889,24.506962,0.998430,0.978687,0.005639,0.387573,0.000011,0.000033,0.000018,0.000043,0.000001,61.115508,0.000050,
2146,2548,-2.43077693001808,-2.1074078420281,-0.009841193220268,0.002797,0.003971,0.007206,0.108245,0.254328,322.550581,24.461850,0.999135,0.985752,0.004553,0.496620,0.000003,0.000032,-0.000005,0.000033,0.000003,-79.882530,0.000040,
2176,2668,-1.79862455504417,0.509663543888848,-0.01356305720617,0.002766,0.004316,0.006527,0.108638,0.265827,320.466761,24.577131,0.999607,0.991718,0.003713,0.448778,0.000008,0.000029,-0.000004,0.000029,0.000008,-79.289909,0.000039,
2386,3058,2.69784702598409,9.00086601728136,0.0179908246008154,0.002710,0.004247,0.008819,0.094932,0.268880,314.078505,25.624068,0.999677,0.991515,0.003682,0.434208,-0.000003,0.000024,-0.000008,0.000026,-0.000005,-73.962804,0.000028,
2431,3298,3.62686207390692,14.2129529861296,-0.00153733874952877,0.002440,0.004566,0.008211,0.084037,0.260555,310.013860,26.509563,0.999708,0.993682,0.003220,0.473259,-0.000021,0.000043,-0.000020,0.000049,-0.000027,-73.758811,0.000049,
2356,2113,2.22489127661132,-11.6205470376796,0.0188094265569134,0.002455,0.004231,0.005004,0.096468,0.269039,329.420468,23.105175,0.999395,0.980420,0.005309,0.347712,0.000011,0.000021,0.000006,0.000024,0.000009,66.269070,0.000033,
2086,2353,-3.70405399139507,-6.3645486594713,0.00109484558851136,0.002733,0.004414,0.002733,0.119164,0.264317,326.067858,24.619354,0.998460,0.980094,0.005537,0.438219,0.000004,0.000003,-0.000008,0.000011,-0.000004,-42.302892,0.000011,
2101,2173,-3.34880236057493,-10.3027612877666,0.0173462389359997,0.002562,0.003685,0.007116,0.098016,0.254336,329.005955,24.563941,0.998937,0.982826,0.005242,0.388581,0.000011,0.000009,0.000015,0.000025,-0.000004,42.837542,0.000027,
2311,2623,1.14688489657837,-0.46761024968152,-0.00686631598381382,0.002946,0.003778,0.007505,0.111268,0.241016,320.981498,24.383117,0.999397,0.988638,0.004116,0.463270,0.000019,0.000024,-0.000001,0.000025,0.000019,-83.522795,0.000043,
2161,2368,-2.07390064357646,-6.0355601769733,-0.00330912184580257,0.002937,0.004568,0.003125,0.126921,0.266223,325.475630,24.391226,0.999138,0.988948,0.004236,0.418443,-0.000006,0.000017,-0.000018,0.000027,-0.000016,-61.374378,0.000027,
2401,3148,3.00806028221475,10.9544529386936,0.0384494223753222,0.002767,0.004442,0.008877,0.097100,0.265548,312.790241,25.921501,0.999811,0.994852,0.002950,0.451488,0.000010,0.000042,0.000000,0.000042,0.000010,-89.775822,0.000055,
2236,2788,-0.515011998909326,3.12474764006443,-0.0145281983573113,0.002834,0.004539,0.007274,0.108612,0.275710,318.342663,24.731168,0.999301,0.988837,0.004215,0.450549,0.000017,0.000047,0.000000,0.000047,0.000017,89.220722,0.000067,
2476,2248,4.82079062428555,-8.66524782206996,0.020736403358228,0.002762,0.003813,0.001984,0.120516,0.230993,327.453183,22.705317,0.999247,0.981411,0.005294,0.531617,0.000027,0.000012,-0.000006,0.000029,0.000010,-19.820517,0.000040,
2191,2728,-1.48310407133587,1.81672957768446,-0.0188781449852513,0.002747,0.004076,0.006568,0.107394,0.256086,319.399381,24.603383,0.999201,0.989286,0.004094,0.465986,0.000011,0.000033,-0.000013,0.000039,0.000005,-64.922957,0.000048,
2326,2698,1.45822062143548,1.16813681633133,-0.0158561534277055,0.002511,0.003772,0.010008,0.082459,0.259941,319.649860,24.503426,0.999565,0.990288,0.004007,0.523393,0.000004,0.000048,-0.000010,0.000050,0.000002,-77.552998,0.000059,
2296,3028,0.747867271531472,8.34329190137975,0.0124902057646068,0.003086,0.004529,0.007137,0.119850,0.274196,314.568297,25.270628,0.999293,0.988836,0.004056,0.427561,-0.000005,0.000007,-0.000015,0.000017,-0.000015,-55.981202,0.000019,
2206,2803,-1.16996543271341,3.44955953386562,-0.0195345416952932,0.002832,0.004167,0.006983,0.109868,0.257800,318.133454,24.697932,0.998797,0.984365,0.004874,0.459391,0.000010,0.000040,-0.000008,0.000042,0.000008,-76.524796,0.000054,
2341,2968,1.73557920754896,7.04480995471068,-0.00315004336260927,0.002700,0.004856,0.003718,0.113378,0.284401,315.380814,25.320240,0.999888,0.997359,0.002713,0.385250,-0.000008,0.000016,-0.000020,0.000027,-0.000019,-60.579085,0.000028,
2341,2053,1.90984991049842,-12.9397689969871,0.0366955239861113,0.002545,0.003726,0.005974,0.097166,0.232460,330.535595,22.999131,0.999127,0.980028,0.005425,0.345525,0.000033,0.000035,0.000008,0.000042,0.000026,47.720185,0.000068,
2491,2353,5.1258708501676,-6.36322150682091,0.0121968198664604,0.002679,0.004446,0.005012,0.105439,0.265213,325.705632,23.180237,0.998877,0.985116,0.005390,0.448978,0.000030,0.000080,0.000038,0.000100,0.000010,61.564042,0.000122,
2341,3208,1.6932693171658,12.2505232119601,0.0386662751535027,0.002670,0.004642,0.006708,0.101556,0.260325,311.793205,25.772401,0.999563,0.992854,0.003515,0.478561,0.000009,0.000041,0.000000,0.000041,0.000009,-89.378237,0.000053,
2326,2038,1.58364536811405,-13.2658491433838,0.0235918946446532,0.002272,0.004337,0.005538,0.086601,0.254077,330.658356,23.149375,0.999286,0.982584,0.005173,0.277076,0.000033,0.000053,0.000005,0.000054,0.000031,75.599424,0.000086,
2296,3268,0.7039160123866,13.5489566558437,0.0177607427178259,0.002772,0.004670,0.005542,0.111045,0.271023,310.673965,25.707713,0.999614,0.991869,0.003486,0.448033,0.000014,0.000046,0.000006,0.000047,0.000013,80.214189,0.000062,
2311,2848,1.10576053539767,4.43206928235694,-0.00108011795487073,0.002790,0.004425,0.006472,0.108060,0.264275,317.366554,24.856983,0.999797,0.992444,0.003646,0.498504,0.000003,0.000046,-0.000013,0.000049,-0.000001,-74.016257,0.000057,
2461,2158,4.51115659818457,-10.6357924815495,0.0172957259882764,0.003102,0.004100,0.003817,0.129310,0.236549,328.850520,22.608469,0.999125,0.975094,0.005836,0.361722,0.000031,-0.000020,-0.000021,0.000039,-0.000028,-19.831587,0.000040,
2281,2983,0.428854846262233,7.36497049931164,0.00313794742555729,0.002526,0.004340,0.008842,0.088504,0.267650,315.212441,25.094986,0.999290,0.989626,0.004043,0.468802,-0.000003,0.000020,-0.000009,0.000023,-0.000006,-71.159323,0.000023,
2281,3178,0.395995653673257,11.5953876720247,0.0381035602650286,0.002616,0.004321,0.008816,0.092868,0.259316,312.321451,25.490540,0.999599,0.992317,0.003468,0.412574,0.000009,0.000034,-0.000009,0.000037,0.000006,-71.590646,0.000047,
2101,2368,-3.37968851551004,-6.03783372607629,0.00437619296121738,0.002934,0.004002,0.005227,0.120931,0.244866,325.782871,24.523052,0.998913,0.982214,0.005298,0.465515,-0.000002,0.000019,-0.000015,0.000027,-0.000010,-62.634688,0.000027,
2116,2413,-3.06089093555725,-5.05354005892215,0.00108685910754502,0.002773,0.003814,0.007201,0.107492,0.260201,324.946968,24.566212,0.999175,0.986023,0.004820,0.403170,-0.000009,0.000014,-0.000030,0.000035,-0.000029,-55.445826,0.000038,
2326,3148,1.37809035560377,10.9490341354804,0.0293461128514423,0.002689,0.004638,0.007171,0.101091,0.272881,312.703351,25.619413,0.999491,0.992251,0.003638,0.438057,0.000003,0.000035,-0.000007,0.000037,0.000001,-77.449225,0.000043,
2356,2878,2.07803103268904,5.08830273455881,-0.00938619991256928,0.002774,0.004245,0.007816,0.101853,0.258061,316.785993,25.043489,0.999475,0.991025,0.003873,0.443305,-0.000010,0.000034,-0.000019,0.000041,-0.000017,-69.736293,0.000042,
2176,2473,-1.76596735371212,-3.74260386175813,-0.00475801565983147,0.002294,0.003702,0.009420,0.077629,0.259852,323.667253,24.414505,0.999252,0.984313,0.005075,0.434842,-0.000003,0.000027,-0.000006,0.000028,-0.000004,-78.875192,0.000031,
2146,2563,-2.43304799461697,-1.78043180296739,-0.0065744783860282,0.002737,0.003990,0.006671,0.107146,0.255983,322.333943,24.491570,0.999052,0.985698,0.004591,0.477032,0.000008,0.000030,-0.000008,0.000032,0.000005,-71.816922,0.000041,
2446,1993,4.21692648135341,-14.2585326998985,0.0248015880260937,0.002821,0.004121,0.001429,0.125295,0.223265,331.538113,22.136631,0.999303,0.974863,0.005909,0.292417,0.000061,-0.000001,0.000042,0.000083,-0.000022,26.754973,0.000086,
2266,2878,0.122054298653797,5.08203719672796,-0.0012070413266656,0.002866,0.004375,0.007012,0.110451,0.258526,316.933526,24.853586,0.999658,0.991445,0.003726,0.485767,0.000002,0.000040,-0.000003,0.000040,0.000002,-85.465952,0.000047,
2146,2293,-2.387840581381,-7.67640710021949,0.00307566676451643,0.002858,0.004119,0.001562,0.127888,0.237067,326.795153,24.357074,0.998705,0.983295,0.005164,0.424189,0.000004,0.000009,0.000001,0.000009,0.000004,83.363142,0.000014,
2191,2503,-1.44411636859005,-3.0873822752155,-0.00934977823533245,0.002776,0.004249,0.005348,0.112365,0.241477,323.131096,24.411068,0.999184,0.985357,0.004868,0.416521,0.000006,0.000029,-0.000008,0.000032,0.000003,-73.377598,0.000039,
2191,2743,-1.48532911329874,2.1428150049875,-0.0100399743915887,0.002654,0.004002,0.009193,0.094836,0.254715,319.217104,24.653024,0.999375,0.990067,0.004027,0.429452,0.000010,0.000033,-0.000011,0.000037,0.000005,-68.346917,0.000046,
2176,2683,-1.80162447891767,0.835723631316149,-0.0154354355977375,0.002579,0.003847,0.008910,0.092495,0.245382,320.192169,24.538998,0.999424,0.990654,0.003903,0.479123,0.000006,0.000037,-0.000006,0.000038,0.000005,-79.810084,0.000047,
2236,3013,-0.552843121060253,8.01306250900193,0.0130442800775086,0.002843,0.004549,0.008655,0.104712,0.270982,314.903666,25.043046,0.999381,0.988433,0.004112,0.444031,-0.000014,0.000015,-0.000008,0.000017,-0.000016,-75.270086,0.000019,
2131,2263,-2.70968036104395,-8.33386034059465,0.0167024445999004,0.002422,0.003678,0.007844,0.088995,0.234093,327.412877,24.421358,0.998916,0.981726,0.005325,0.402103,0.000009,0.000026,0.000011,0.000032,0.000003,63.960817,0.000039,
2371,2938,2.39336706810239,6.39369152421067,0.000599273542491119,0.002740,0.004293,0.010238,0.091514,0.275394,315.883252,25.259017,0.999223,0.988572,0.004197,0.432030,-0.000006,0.000009,-0.000022,0.000025,-0.000022,-54.147921,0.000027,
2221,2893,-0.858531446875315,5.40584765421676,0.00031187534568744,0.002595,0.004372,0.006781,0.099532,0.270926,316.784618,24.823816,0.999622,0.992263,0.003618,0.472113,-0.000001,0.000036,0.000000,0.000036,-0.000001,89.497230,0.000041,
2206,2578,-1.13055252954399,-1.45133358755177,-0.00965996870263552,0.002868,0.004143,0.007181,0.110693,0.272150,321.869282,24.420667,0.999297,0.989268,0.004098,0.495376,0.000008,0.000031,0.000004,0.000031,0.000008,81.045198,0.000041,
2236,2803,-0.518054417299059,3.45102865338892,-0.0190164007834142,0.002762,0.004297,0.007459,0.104616,0.262486,318.057336,24.724131,0.999429,0.988799,0.004242,0.465510,0.000013,0.000043,-0.000001,0.000043,0.000013,-88.993150,0.000058,
2221,2713,-0.828335794826344,1.4912363192109,-0.0152792717778425,0.002662,0.004042,0.008900,0.095569,0.276768,319.577840,24.582126,0.999267,0.989617,0.003956,0.494200,0.000015,0.000030,-0.000013,0.000037,0.000007,-59.401997,0.000048,
2416,3148,3.33372851599634,10.9557940528255,0.0359926471496124,0.002715,0.004306,0.009871,0.090735,0.270190,312.779188,25.972411,0.999748,0.994129,0.003140,0.469901,0.000008,0.000044,0.000001,0.000044,0.000008,89.051890,0.000057,
2356,3268,2.00507917888069,13.5555270161387,0.0103395311281247,0.002505,0.004674,0.008566,0.087348,0.286478,310.553737,26.060760,0.999617,0.992544,0.003368,0.439500,0.000000,0.000053,0.000013,0.000056,-0.000003,77.126566,0.000062,
2311,2638,1.14377733227434,-0.140014919130664,-0.010137376997136,0.002669,0.004215,0.005144,0.106762,0.252926,320.705779,24.429206,0.999244,0.987848,0.004197,0.461809,0.000014,0.000024,-0.000002,0.000024,0.000014,-78.475932,0.000039,
2461,2173,4.5075770262392,-10.3063725532012,0.0120373289586269,0.002876,0.004265,0.002377,0.124431,0.251855,328.559284,22.635094,0.999047,0.977818,0.005602,0.407637,0.000022,-0.000005,-0.000018,0.000031,-0.000013,-26.173334,0.000031,
2161,2593,-2.11210432008842,-1.12494170790387,-0.0178071017184607,0.003124,0.003885,0.005768,0.127465,0.247628,321.718136,24.505825,0.999145,0.987845,0.004412,0.454963,0.000001,0.000033,-0.000005,0.000034,0.000000,-80.815154,0.000039,
2476,2263,4.81782278925933,-8.33550585396804,0.0218555298940259,0.002956,0.004051,0.004184,0.121184,0.254068,327.219746,22.852295,0.999073,0.980008,0.005268,0.466992,0.000024,0.000019,-0.000012,0.000033,0.000009,-39.368437,0.000045,
2251,2848,-0.199364077763345,4.43057804590025,-0.015040564324579,0.002942,0.004447,0.005007,0.120783,0.265556,317.343040,24.831810,0.999482,0.991235,0.003819,0.443842,0.000015,0.000046,0.000003,0.000046,0.000014,83.690318,0.000063,
2491,2368,5.12247470404732,-6.03451966901551,0.00799741314756375,0.003074,0.003764,0.009094,0.107653,0.254106,325.429524,23.250797,0.998606,0.983254,0.005369,0.428262,0.000037,0.000066,0.000042,0.000096,0.000007,54.552606,0.000115,
2266,3133,0.0788236630829111,10.6172915001214,0.0369530010972312,0.002693,0.004766,0.005255,0.108627,0.265048,313.088008,25.263771,0.999609,0.995092,0.003158,0.503294,-0.000007,0.000028,-0.000014,0.000033,-0.000011,-71.072552,0.000033,
2251,3073,-0.237039764757267,9.31588361831141,0.0239653441038854,0.002881,0.004575,0.008929,0.105381,0.280000,313.984069,25.170472,0.999532,0.991629,0.003626,0.460143,-0.000013,0.000018,-0.000016,0.000024,-0.000020,-67.013120,0.000026,
2326,2908,1.42038873592893,5.73899711816591,-0.00600080527709679,0.002739,0.004362,0.005923,0.107414,0.262783,316.336325,25.088416,0.999182,0.989425,0.004128,0.421970,-0.000011,0.000019,-0.000017,0.000027,-0.000018,-65.613007,0.000027,
2311,2863,1.1030524964309,4.7592989700194,-0.00380901307448767,0.002997,0.004550,0.005629,0.120477,0.257220,317.111242,24.962962,0.999652,0.991426,0.003783,0.417011,0.000005,0.000040,-0.000016,0.000046,-0.000001,-68.532039,0.000053,
2101,2188,-3.3515347323223,-9.97442229702531,0.0144285381437612,0.002445,0.003613,0.008528,0.088519,0.254264,328.731337,24.532457,0.998988,0.982708,0.005240,0.423947,0.000014,0.000033,0.000023,0.000048,-0.000002,56.108081,0.000055,
2341,2773,1.77196622143871,2.80288099878874,-0.00832946627264164,0.003080,0.004212,0.007296,0.117902,0.258517,318.522680,24.803162,0.999588,0.991745,0.003702,0.404179,0.000001,0.000058,-0.000008,0.000059,0.000000,-82.356650,0.000068,
2446,2008,4.2147840877979,-13.9317154301972,0.0374991397959548,0.002835,0.003790,0.003895,0.116670,0.222041,331.394657,22.081972,0.999306,0.975766,0.005918,0.401117,0.000059,-0.000003,0.000031,0.000072,-0.000016,22.685982,0.000075,
2341,2983,1.73338575038224,7.36921985644316,0.0061185132024093,0.002854,0.004392,0.006777,0.109516,0.252361,315.210351,25.309832,0.999765,0.994715,0.003152,0.399265,-0.000009,0.000012,-0.000015,0.000020,-0.000017,-62.110777,0.000021,
2131,2503,-2.75020577205751,-3.08817228692401,-0.0239080172958666,0.002899,0.004451,0.002441,0.127541,0.252382,323.240667,24.430282,0.999144,0.985284,0.004771,0.530125,0.000004,0.000029,-0.000024,0.000043,-0.000010,-58.902353,0.000045,
2356,2128,2.22211425781017,-11.292244257935,0.0180976181355277,0.002406,0.004493,0.003039,0.101239,0.253459,329.177998,23.091423,0.999270,0.981347,0.005266,0.387561,0.000013,0.000019,0.000001,0.000019,0.000012,84.481888,0.000031,
2356,3028,2.05099679869231,8.34805870944643,0.0111846872864021,0.002502,0.004692,0.006042,0.095924,0.280865,314.502175,25.483711,0.999589,0.991369,0.003749,0.408307,-0.000003,0.000010,-0.000020,0.000024,-0.000017,-53.699092,0.000025,
2311,3103,1.06048520800582,9.97164465562916,0.0263715542664045,0.002574,0.004584,0.005563,0.101471,0.265910,313.425687,25.479908,0.999444,0.992647,0.003583,0.412722,-0.000007,0.000029,-0.000017,0.000036,-0.000013,-68.265188,0.000036,
2101,2383,-3.38260706323565,-5.70873946793832,-0.00164445427617466,0.002902,0.004100,0.007316,0.113399,0.264574,325.482723,24.581476,0.998879,0.983000,0.005080,0.430084,0.000002,0.000028,-0.000012,0.000033,-0.000003,-68.460881,0.000037,
2146,2578,-2.43627188186563,-1.45234856329263,-0.0157404129941483,0.002693,0.003887,0.008260,0.100304,0.259409,322.007516,24.516902,0.999175,0.987806,0.004428,0.464011,0.000006,0.000031,-0.000007,0.000033,0.000004,-75.345067,0.000041,
2491,2383,5.1190652123805,-5.70624278517104,0.00558559436399264,0.003032,0.003569,0.009977,0.102243,0.245146,325.160782,23.303185,0.998679,0.981124,0.005443,0.427625,0.000040,0.000046,0.000023,0.000066,0.000020,48.391850,0.000090,
2386,3073,2.69472997731956,9.32722536037538,0.00982482299770027,0.002814,0.004864,0.004746,0.114588,0.280558,313.783903,25.657326,0.999663,0.991009,0.003736,0.455400,0.000000,0.000034,-0.000007,0.000035,-0.000001,-79.004673,0.000040,
2476,2278,4.81373517583789,-8.00477738211615,0.0113636893595412,0.002843,0.004096,0.004467,0.114985,0.241706,326.882377,23.012544,0.999381,0.980188,0.005263,0.353720,0.000021,0.000022,-0.000001,0.000022,0.000021,-62.474886,0.000043,
2161,2383,-2.07717933527622,-5.70767340929966,-0.00977915221784542,0.002551,0.004310,0.002912,0.109801,0.269665,325.162683,24.352901,0.999040,0.987247,0.004516,0.472065,-0.000006,0.000023,-0.000015,0.000030,-0.000013,-66.393552,0.000030,
2281,3193,0.393690123915281,11.9205381248695,0.0387686359019881,0.002911,0.004466,0.007613,0.110559,0.263254,312.099004,25.504817,0.999637,0.992545,0.003420,0.428891,0.000011,0.000034,-0.000008,0.000037,0.000009,-72.320609,0.000048,
2296,3043,0.74561161554746,8.66836177545395,0.0206329157645087,0.003079,0.004118,0.008460,0.114909,0.253833,314.386730,25.313948,0.999365,0.989343,0.003988,0.392665,-0.000005,0.000010,-0.000014,0.000019,-0.000014,-59.328441,0.000020,
2281,2998,0.426504817272633,7.69121671312002,0.00761510276845456,0.002600,0.004468,0.009156,0.090954,0.283846,315.007075,25.175166,0.999289,0.989151,0.004058,0.431651,-0.000004,0.000015,-0.000010,0.000019,-0.000008,-67.887798,0.000019,
2146,2308,-2.3901010213169,-7.3489546313761,0.0117190327837307,0.002748,0.004272,0.005910,0.109796,0.264996,326.607290,24.376997,0.998960,0.982735,0.005204,0.442100,0.000001,0.000010,-0.000008,0.000015,-0.000004,-58.587253,0.000015,
2101,2203,-3.35368340741265,-9.64578604976067,0.0119836318548323,0.002690,0.003842,0.006885,0.104638,0.251462,328.485885,24.541308,0.998553,0.980465,0.005465,0.416406,0.000012,0.000035,0.000022,0.000048,-0.000001,59.296348,0.000055,
2296,3283,0.701087204251738,13.8743195956995,0.0136993619959753,0.002998,0.004789,0.005383,0.122061,0.278474,310.404578,25.736393,0.999523,0.991940,0.003427,0.455280,0.000015,0.000055,0.000008,0.000056,0.000014,79.641892,0.000074,
2221,2908,-0.860736437812758,5.73176217627958,0.00528359486810359,0.002680,0.004315,0.007010,0.102710,0.271099,316.584955,24.868900,0.999531,0.991051,0.004039,0.445742,-0.000001,0.000031,-0.000003,0.000031,-0.000001,-84.716201,0.000035,
2251,2863,-0.202378987792191,4.75596967589568,-0.0115995722260323,0.002582,0.003829,0.008274,0.093314,0.244189,317.100561,24.828883,0.999546,0.991103,0.003761,0.448356,0.000013,0.000043,-0.000001,0.000043,0.000013,-88.626970,0.000059,
2116,2233,-3.03133142655767,-8.98894839153835,0.0121032962085224,0.002905,0.003712,0.005621,0.118003,0.235917,327.949587,24.534165,0.998612,0.978988,0.005641,0.345483,0.000010,0.000033,0.000014,0.000039,0.000003,64.821087,0.000047,
2326,2053,1.58149889088785,-12.9385358997055,0.025999197804822,0.002707,0.003909,0.005601,0.106152,0.243616,330.457580,23.046950,0.999581,0.986594,0.004595,0.406681,0.000028,0.000055,0.000005,0.000056,0.000027,78.919147,0.000085,
2371,2953,2.39021921617597,6.71985545673924,-0.00170626547054553,0.002499,0.004150,0.008343,0.087054,0.253682,315.614558,25.312129,0.999305,0.988617,0.004225,0.397876,-0.000004,0.000008,-0.000022,0.000025,-0.000021,-52.790477,0.000027,
2341,3223,1.69020915993133,12.5766594471013,0.0382079069483439,0.002729,0.004383,0.009960,0.092907,0.274668,311.534190,25.869308,0.999494,0.992004,0.003524,0.431146,0.000008,0.000045,0.000002,0.000046,0.000008,86.776123,0.000057,
2176,2488,-1.76847077131412,-3.4150833101351,-0.00713976135540406,0.002343,0.003854,0.007669,0.085382,0.266862,323.412527,24.414433,0.999014,0.983859,0.005153,0.455546,-0.000003,0.000034,-0.000010,0.000036,-0.000006,-76.111714,0.000039,
2326,2713,1.45568635121179,1.49747527289625,-0.0240196464994256,0.002941,0.004508,0.004010,0.123200,0.273555,319.377144,24.693179,0.999155,0.986070,0.004567,0.382254,0.000003,0.000050,-0.000010,0.000052,0.000001,-78.492877,0.000060,
2341,2068,1.90668631289911,-12.6112614554544,0.0315427708407015,0.002509,0.003797,0.005219,0.098170,0.229187,330.252804,22.919254,0.998971,0.975560,0.005873,0.462118,0.000028,0.000044,0.000013,0.000052,0.000021,60.717995,0.000075,
2206,2818,-1.17251212743971,3.7751234053564,-0.0133833259477569,0.002552,0.004151,0.008506,0.092134,0.258064,317.923448,24.697053,0.999091,0.987137,0.004419,0.476993,0.000012,0.000052,-0.000001,0.000052,0.000012,-87.818573,0.000068,
2266,2893,0.118985245420426,5.40896372340676,-0.00514590911512869,0.002729,0.004217,0.006280,0.106564,0.261289,316.651873,24.921473,0.999589,0.989908,0.003867,0.445765,-0.000003,0.000034,-0.000001,0.000034,-0.000003,-89.153531,0.000037,
2116,2428,-3.06356677150695,-4.72671860998938,0.00420426516274119,0.002463,0.003759,0.009939,0.085167,0.265343,324.708879,24.534113,0.999250,0.986983,0.004635,0.445294,-0.000007,0.000005,-0.000022,0.000022,-0.000024,-52.477910,0.000027,
2311,2653,1.14086045654824,0.186702628170785,-0.00880835009394332,0.002636,0.003796,0.008095,0.095026,0.244433,320.461647,24.458777,0.999399,0.989003,0.004073,0.456680,0.000013,0.000025,-0.000001,0.000025,0.000013,-86.879640,0.000039,
2401,3163,3.00473583803977,11.2803657576459,0.0346943789480179,0.002674,0.004141,0.008954,0.092470,0.260153,312.508040,25.983099,0.999652,0.992744,0.003396,0.428802,0.000009,0.000047,-0.000001,0.000047,0.000009,-89.235758,0.000060,
2491,2398,5.1156263468636,-5.37723358271763,0.000920393703779609,0.002769,0.003904,0.006304,0.104407,0.243416,324.880351,23.399208,0.999487,0.987268,0.004521,0.390379,0.000040,0.000041,0.000026,0.000066,0.000015,45.906250,0.000086,
2206,2593,-1.13309532624154,-1.12423824633223,-0.00563281448262387,0.002827,0.003781,0.010147,0.099296,0.265219,321.648369,24.486612,0.999046,0.986874,0.004468,0.440007,0.000007,0.000028,0.000002,0.000029,0.000007,84.241069,0.000038,
2221,2728,-0.83066246111601,1.81745639193035,-0.0132113072946822,0.002736,0.003957,0.008013,0.101776,0.262494,319.357867,24.599004,0.999315,0.989545,0.003923,0.481905,0.000015,0.000030,-0.000015,0.000039,0.000006,-58.913888,0.000049,
2236,3028,-0.555234830491113,8.33850381997871,0.0172193664404858,0.002727,0.004471,0.007472,0.103226,0.271256,314.692274,25.069144,0.999463,0.990498,0.003789,0.438463,-0.000014,0.000006,-0.000011,0.000011,-0.000018,-66.306858,0.000019,
2356,3283,2.00149257060003,13.8807452590001,-0.00071047384119538,0.002518,0.004361,0.007150,0.092806,0.263688,310.220302,26.069776,0.999580,0.992165,0.003444,0.445082,-0.000002,0.000054,0.000014,0.000057,-0.000005,77.035511,0.000063,
2131,2278,-2.71202101647538,-8.00515826318378,0.00909891195044565,0.002885,0.003636,0.006269,0.114969,0.227643,327.133887,24.415030,0.998847,0.982134,0.005357,0.410246,0.000009,0.000022,0.000011,0.000029,0.000003,60.297977,0.000035,
2236,2818,-0.519983216879567,3.77690330830637,-0.0153859725210168,0.002862,0.004691,0.002498,0.125446,0.253454,317.864601,24.742255,0.999511,0.989955,0.004046,0.459349,0.000015,0.000053,0.000003,0.000053,0.000014,84.908225,0.000071,
2251,3088,-0.24003773663738,9.64171046977651,0.0184090690738685,0.002820,0.004449,0.006890,0.109231,0.274723,313.696132,25.190296,0.999646,0.990744,0.003633,0.457257,-0.000016,0.000013,-0.000017,0.000021,-0.000024,-64.993998,0.000026,
2326,3163,1.37559635054787,11.2740745836631,0.033637579475851,0.002743,0.004344,0.008031,0.100509,0.262912,312.493212,25.652948,0.999677,0.993196,0.003470,0.427813,0.000003,0.000039,-0.000007,0.000040,0.000002,-78.858560,0.000048,
2176,2698,-1.80438284580234,1.16330277844958,-0.0212753699952941,0.002589,0.004091,0.006579,0.100326,0.264058,319.907357,24.573587,0.999437,0.990477,0.003843,0.475980,0.000008,0.000037,-0.000009,0.000040,0.000005,-74.455294,0.000049,
2296,3298,0.696935640890807,14.1999991282276,0.00292309384610689,0.002885,0.004366,0.011803,0.094916,0.266672,310.040666,25.781865,0.999665,0.993745,0.003215,0.426122,0.000011,0.000063,0.000003,0.000063,0.000011,86.514109,0.000080,
2311,2878,1.09940548586779,5.08644659781771,-0.0127168150949615,0.002683,0.004580,0.004212,0.110923,0.256464,316.782285,25.014642,0.999503,0.989700,0.004034,0.396782,0.000001,0.000031,-0.000015,0.000038,-0.000005,-67.464770,0.000041,
2356,2893,2.07552645882668,5.41436718219754,-0.00100713114301243,0.002449,0.004386,0.007537,0.087974,0.263763,316.597452,25.120530,0.999459,0.991023,0.003825,0.410317,-0.000012,0.000025,-0.000019,0.000033,-0.000020,-67.490942,0.000033,
2146,2593,-2.43846017418524,-1.12479584878888,-0.0236866000734608,0.003006,0.004683,0.000873,0.137329,0.262807,321.735096,24.510054,0.999079,0.987977,0.004553,0.483242,0.000001,0.000035,-0.000007,0.000037,0.000000,-78.698654,0.000042,
2326,2923,1.41800316670578,6.06392701783795,-0.00149939429718415,0.002902,0.004254,0.007187,0.110436,0.240207,316.132912,25.068319,0.998768,0.986666,0.004582,0.453326,-0.000011,0.000016,-0.000019,0.000026,-0.000021,-62.505166,0.000028,
2101,2398,-3.38487289890263,-5.38188320030409,0.00187470880820229,0.002682,0.004354,0.005936,0.107409,0.260929,325.264466,24.555507,0.999020,0.984719,0.004726,0.455312,-0.000006,0.000023,-0.000016,0.000030,-0.000013,-65.930989,0.000030,
2191,2758,-1.48745102797098,2.46953487131521,-0.012160709761929,0.003032,0.004339,0.006215,0.121740,0.272396,318.982340,24.658634,0.999433,0.990637,0.003838,0.455982,0.000010,0.000033,-0.000009,0.000037,0.000007,-70.857634,0.000047,
2161,2608,-2.11426500147695,-0.79796371099966,-0.0118207303289637,0.003036,0.004376,0.005476,0.124498,0.279337,321.521821,24.543448,0.999333,0.990080,0.004179,0.459648,0.000002,0.000023,-0.000007,0.000025,0.000000,-72.649896,0.000029,
2446,2023,4.21187738411201,-13.6009774890434,0.0347582861600131,0.003169,0.003870,0.003848,0.132165,0.237904,331.145041,22.196983,0.999302,0.978540,0.005472,0.357774,0.000053,0.000000,0.000019,0.000059,-0.000006,17.827667,0.000064,
2296,3058,0.742712041899988,8.99405605202271,0.0147906470548946,0.003001,0.004825,0.003564,0.128129,0.264949,314.105795,25.295498,0.999545,0.992263,0.003576,0.451600,-0.000006,0.000012,-0.000013,0.000018,-0.000013,-62.633221,0.000019,
2461,2188,4.50384393004447,-9.97603574173718,-0.000911303513362327,0.003239,0.004363,0.002204,0.141771,0.261196,328.225833,22.676413,0.999625,0.987173,0.004711,0.433344,0.000027,0.000010,-0.000014,0.000035,0.000002,-28.576309,0.000042,
2476,2293,4.81027998448145,-7.67849091755274,0.0141985071302315,0.002426,0.003552,0.007174,0.085384,0.225198,326.634716,22.911251,0.999473,0.980963,0.005192,0.497185,0.000018,0.000025,0.000003,0.000026,0.000016,70.099687,0.000043,
2341,2788,1.76906572649095,3.12893239479737,-0.00634857593786364,0.003024,0.003925,0.009633,0.107082,0.254044,318.284402,24.812873,0.999606,0.992878,0.003557,0.426405,0.000001,0.000063,-0.000008,0.000064,0.000000,-82.762262,0.000074,
2386,3088,2.69202068682698,9.65169767546466,0.0194017170697975,0.002503,0.004229,0.007959,0.088412,0.242946,313.593106,25.683808,0.999426,0.989674,0.003984,0.433231,0.000003,0.000033,-0.000009,0.000035,0.000000,-75.371543,0.000041,
2341,2083,1.90379691682962,-12.279887806097,0.0294053945155497,0.002767,0.003675,0.007349,0.102559,0.248656,329.996658,23.117416,0.999355,0.980170,0.005388,0.323526,0.000026,0.000043,0.000012,0.000049,0.000020,62.715068,0.000071,
2266,3148,0.0755744124982236,10.9431477739578,0.035578092933406,0.002601,0.004258,0.010007,0.088474,0.257114,312.810705,25.331069,0.999240,0.991437,0.003843,0.452323,-0.000004,0.000026,-0.000014,0.000031,-0.000009,-68.242910,0.000032,
2311,2668,1.13786402614416,0.514962473000992,-0.0122799000097871,0.002609,0.004108,0.007316,0.096613,0.272233,320.189741,24.558198,0.999768,0.992014,0.003654,0.417535,0.000014,0.000034,-0.000006,0.000036,0.000013,-75.573901,0.000050,
2251,2878,-0.204883114316022,5.0824502325035,-0.00998074029820373,0.002597,0.004003,0.007762,0.095698,0.244142,316.871923,24.895167,0.999611,0.989662,0.003884,0.405068,0.000006,0.000041,-0.000001,0.000041,0.000006,-88.903319,0.000051,
2356,3298,1.99869997762615,14.2069531647843,-0.00485240892646743,0.002857,0.004736,0.006539,0.110773,0.282697,309.956464,26.170680,0.999664,0.992665,0.003493,0.400445,-0.000009,0.000057,0.000006,0.000057,-0.000010,85.122548,0.000061,
2221,2923,-0.863374708670822,6.05845777782065,0.000571311159831112,0.002871,0.004774,0.005222,0.117369,0.284219,316.315364,24.907510,0.999522,0.991417,0.003805,0.438729,-0.000005,0.000033,-0.000005,0.000034,-0.000005,-83.036386,0.000036,
2116,2443,-3.06634972361205,-4.40074432600426,0.000388573239774814,0.002269,0.003494,0.009231,0.078238,0.246946,324.429022,24.387636,0.999273,0.988172,0.004560,0.578277,-0.000012,0.000006,-0.000026,0.000025,-0.000030,-54.044243,0.000032,
2116,2248,-3.03442335369521,-8.66118382528936,0.0114541787342546,0.002340,0.003711,0.007369,0.086909,0.241204,327.672110,24.490654,0.998803,0.981709,0.005341,0.400022,0.000008,0.000036,0.000013,0.000041,0.000003,68.972860,0.000049,
2491,2413,5.11253790364038,-5.0502258280947,-0.00350630309196731,0.002960,0.003956,0.004282,0.120915,0.235044,324.617290,23.326369,0.999466,0.987554,0.004527,0.515378,0.000033,0.000033,0.000037,0.000070,-0.000004,45.024605,0.000078,
2281,3013,0.423514273977869,8.01698275266806,0.00692912442144689,0.002541,0.004330,0.011264,0.081178,0.288972,314.746567,25.191151,0.999211,0.988771,0.004086,0.447774,-0.000006,0.000011,-0.000013,0.000017,-0.000013,-61.355003,0.000018,
2281,3208,0.391743274712823,12.2457499023662,0.0489053611015038,0.002950,0.004597,0.007442,0.112957,0.266424,311.940466,25.584067,0.999789,0.994673,0.003018,0.378988,0.000014,0.000039,-0.000003,0.000039,0.000014,-82.956960,0.000055,
2446,2038,4.20884377368031,-13.2715051232993,0.0355454007608387,0.003013,0.004294,0.003046,0.128213,0.244845,330.905835,22.251124,0.999257,0.978056,0.005605,0.366327,0.000042,0.000006,0.000009,0.000044,0.000004,12.740474,0.000053,
2371,2968,2.38726392415424,7.04701878534699,-0.00282647942464109,0.002429,0.004549,0.007332,0.087667,0.284001,315.359982,25.417993,0.999545,0.988969,0.004235,0.362814,-0.000006,0.000011,-0.000020,0.000024,-0.000019,-56.855114,0.000026,
2191,2518,-1.44641817199289,-2.76171566657876,-0.0015398322702822,0.002617,0.003956,0.007470,0.098378,0.253446,322.940168,24.338646,0.999363,0.987838,0.004525,0.516182,0.000007,0.000026,-0.000007,0.000028,0.000005,-71.905063,0.000035,
2356,3043,2.04791633764954,8.6731535470342,0.0101306544941622,0.002535,0.004355,0.008425,0.088939,0.277928,314.241407,25.452629,0.999639,0.991248,0.003699,0.474365,-0.000002,0.000015,-0.000018,0.000026,-0.000013,-57.793192,0.000026,
2236,3043,-0.557578248857805,8.66448907325702,0.0194894550287472,0.002773,0.004709,0.005963,0.110297,0.267512,314.473175,25.140286,0.999568,0.991355,0.003678,0.383687,-0.000014,0.000002,-0.000013,0.000009,-0.000021,-60.821697,0.000021,
2371,2188,2.5389003969469,-9.97651117752883,0.0166385472435877,0.003056,0.004651,0.002504,0.132899,0.289685,328.235465,23.173161,0.999007,0.981733,0.005299,0.431091,0.000003,-0.000001,-0.000013,0.000014,-0.000012,-40.190835,0.000015,
2461,2203,4.50001293513104,-9.64743357746958,-0.00399663760191515,0.002801,0.003994,0.003449,0.116918,0.242565,327.933021,22.697709,0.999204,0.981457,0.005338,0.450481,0.000029,0.000013,-0.000023,0.000045,-0.000004,-35.620401,0.000050,
2101,2413,-3.38742822459528,-5.05408939601194,0.00290113416832583,0.002577,0.004154,0.008257,0.095774,0.268350,325.019273,24.585098,0.999132,0.985586,0.004691,0.435696,-0.000005,0.000014,-0.000020,0.000027,-0.000017,-57.662136,0.000027,
2266,2908,0.116561116462297,5.73553170502149,-0.00437980204088717,0.002741,0.004885,0.003446,0.116727,0.274123,316.423574,24.984942,0.999666,0.991782,0.003622,0.420277,-0.000004,0.000029,-0.000005,0.000030,-0.000005,-82.016536,0.000032,
2221,2743,-0.834109912029785,2.14472573037514,-0.019946631510777,0.002511,0.003717,0.009971,0.085031,0.248863,319.040992,24.645853,0.999291,0.988597,0.004185,0.440530,0.000011,0.000028,-0.000012,0.000034,0.000006,-63.071790,0.000043,
2326,3178,1.37274532971388,11.59979211943,0.0296087448149933,0.002959,0.004605,0.007442,0.112622,0.276892,312.225549,25.678936,0.999674,0.993354,0.003510,0.448942,0.000006,0.000042,-0.000007,0.000043,0.000004,-79.749759,0.000053,
2476,2308,4.80787168788376,-7.34779170497945,0.0130536889820405,0.002664,0.004331,0.000841,0.120644,0.252396,326.416330,23.134772,0.999074,0.975952,0.005991,0.359520,0.000019,0.000025,0.000004,0.000028,0.000017,62.027802,0.000045,
2206,2833,-1.17414139303903,4.10105739021991,-0.00148067662911444,0.002720,0.004190,0.008949,0.098501,0.267249,317.785140,24.768034,0.999309,0.989759,0.004011,0.431670,0.000015,0.000054,0.000003,0.000054,0.000015,85.516277,0.000073,
2311,1993,1.26527100033106,-14.2553586650062,0.0349092729665585,0.002509,0.004108,0.005247,0.098501,0.237154,331.495134,23.124167,0.999267,0.977859,0.006123,0.276855,0.000017,0.000070,-0.000009,0.000072,0.000016,-80.380555,0.000093,
2131,2518,-2.75216126957061,-2.76195855965656,-0.00715938094919011,0.002721,0.003838,0.009192,0.098998,0.253622,323.109430,24.499023,0.999154,0.985013,0.004776,0.469045,0.000004,0.000027,-0.000020,0.000038,-0.000007,-59.680373,0.000041,
2341,2098,1.90043649971328,-11.9507618454572,0.024420104125511,0.002692,0.003525,0.008719,0.094329,0.247120,329.705477,23.106205,0.999566,0.981813,0.005096,0.373319,0.000020,0.000031,0.000008,0.000036,0.000016,61.883261,0.000053,
2401,3178,3.00176996555131,11.6058635129932,0.0343461654348403,0.002745,0.004522,0.010038,0.091983,0.277707,312.258527,26.008064,0.999600,0.992298,0.003509,0.465638,0.000011,0.000052,0.000000,0.000052,0.000011,89.784613,0.000067,
2176,2503,-1.77082606708766,-3.0878030715024,-0.008446011687397,0.002611,0.003855,0.008020,0.096580,0.248816,323.170327,24.432257,0.998909,0.983321,0.005228,0.433217,0.000002,0.000034,-0.000009,0.000036,0.000000,-75.740233,0.000042,
2191,2773,-1.49146920180571,2.79717779268351,-0.027674481654401,0.002748,0.004117,0.007781,0.103696,0.263333,318.590699,24.675948,0.999303,0.989067,0.004201,0.444671,0.000010,0.000037,-0.000008,0.000039,0.000008,-74.324659,0.000050,
2416,3163,3.3311169891554,11.2812219296302,0.0364738661750152,0.002976,0.004242,0.009406,0.104442,0.262498,312.551058,26.017266,0.999710,0.993256,0.003289,0.463821,0.000006,0.000051,0.000000,0.000051,0.000006,89.664944,0.000063,
2326,2068,1.57838845280211,-12.6099707199567,0.0222919727963244,0.002675,0.003629,0.006025,0.103155,0.220348,330.182865,23.008900,0.999396,0.981479,0.005238,0.459221,0.000025,0.000060,0.000010,0.000063,0.000022,74.572008,0.000089,
2311,3118,1.05792405776508,10.2971692185184,0.0258472086733832,0.002712,0.004599,0.003941,0.113433,0.270197,313.187728,25.503074,0.999213,0.991029,0.003964,0.425134,0.000000,0.000039,-0.000013,0.000043,-0.000004,-73.525640,0.000047,
2161,2623,-2.11765878986547,-0.469960226765124,-0.0210594331147149,0.002805,0.004288,0.006156,0.111801,0.271242,321.188699,24.589085,0.999538,0.990558,0.003995,0.416910,0.000003,0.000015,-0.000010,0.000021,-0.000003,-60.269386,0.000022,
2146,2323,-2.39281568016744,-7.02041987200894,0.00688491142761904,0.002687,0.004388,0.004270,0.112000,0.257977,326.327338,24.401073,0.999233,0.982861,0.005186,0.421009,0.000002,0.000003,-0.000013,0.000015,-0.000010,-45.557724,0.000015,
2356,2143,2.21986498904121,-10.9637253157592,0.0231338373177437,0.002940,0.003881,0.007401,0.110157,0.264617,328.987058,23.137850,0.998889,0.978594,0.005626,0.393787,0.000009,0.000005,-0.000002,0.000010,0.000004,-20.741217,0.000015,
2356,2908,2.07227081148585,5.74113925505493,-0.00760001864887272,0.002631,0.004483,0.008593,0.092697,0.282132,316.301884,25.145456,0.999325,0.990138,0.003987,0.442437,-0.000013,0.000019,-0.000019,0.000028,-0.000022,-64.753342,0.000029,
2341,3238,1.68722889324529,12.9027851990482,0.0279428422151113,0.002988,0.004916,0.005021,0.122337,0.287480,311.231013,25.915162,0.999457,0.991076,0.003605,0.433758,0.000007,0.000047,0.000004,0.000047,0.000006,83.900059,0.000059,
2386,3103,2.68939052104846,9.97670916873641,0.0262231529763426,0.002384,0.003983,0.009837,0.076183,0.256196,313.392581,25.694473,0.999149,0.987764,0.004239,0.477946,0.000004,0.000037,-0.000006,0.000038,0.000003,-80.312882,0.000046,
2161,2398,-2.07818933072833,-5.38113098117075,-0.00106330572452862,0.003289,0.004903,0.000893,0.150088,0.292879,325.033566,24.322623,0.999036,0.985904,0.004676,0.536967,-0.000011,0.000019,-0.000021,0.000029,-0.000021,-62.616869,0.000030,
2176,2713,-1.80637194882631,1.49026602917542,-0.0206047282330815,0.002868,0.004420,0.003374,0.123205,0.266947,319.692073,24.625415,0.999330,0.989536,0.004028,0.439784,0.000006,0.000033,-0.000011,0.000037,0.000002,-70.005359,0.000044,
2341,2803,1.7656409488469,3.45594186252839,-0.012297570612759,0.002769,0.003814,0.008264,0.100148,0.246636,317.983239,24.856829,0.999518,0.991970,0.003709,0.411877,0.000001,0.000052,-0.000006,0.000052,0.000001,-82.930562,0.000061,
2131,2293,-2.71495882016941,-7.67626768698258,0.00222964477654841,0.002700,0.004096,0.004652,0.111492,0.253773,326.831301,24.407157,0.998840,0.983731,0.005141,0.452244,0.000007,0.000012,0.000007,0.000017,0.000002,54.948911,0.000021,
2251,2893,-0.207184772572884,5.408331956055,-0.00607885827048449,0.002536,0.004485,0.005693,0.099920,0.271802,316.664258,24.899387,0.999657,0.990824,0.003735,0.451427,0.000001,0.000035,0.000000,0.000035,0.000001,-89.786175,0.000041,
2266,3163,0.0733166225938788,11.2692784247286,0.0364205839394458,0.002778,0.004654,0.006984,0.106775,0.264165,312.590042,25.425966,0.999289,0.989744,0.004047,0.388709,0.000001,0.000031,-0.000010,0.000034,-0.000002,-72.716077,0.000038,
2146,2608,-2.44109188664148,-0.79704891076706,-0.0225575048806377,0.002988,0.004455,0.004130,0.126585,0.276536,321.490342,24.594562,0.999352,0.989545,0.004274,0.420919,0.000001,0.000028,-0.000010,0.000031,-0.000002,-72.035249,0.000035,
2461,2218,4.49768615690133,-9.31985703201765,0.0058525803158318,0.002850,0.003764,0.005346,0.111959,0.250460,327.768028,22.738831,0.999441,0.985115,0.005116,0.473925,0.000022,0.000008,-0.000022,0.000038,-0.000008,-36.706026,0.000040,
2191,2533,-1.44982062364955,-2.43274068389667,-0.0104202697230562,0.002472,0.004126,0.008941,0.087185,0.276587,322.611351,24.412799,0.999327,0.988133,0.004363,0.481032,0.000003,0.000033,-0.000004,0.000034,0.000002,-82.966364,0.000040,
2491,2428,5.10961759242402,-4.7209536656199,-0.00557045021497515,0.003155,0.004441,0.002477,0.137012,0.272839,324.371991,23.442720,0.999366,0.986353,0.004690,0.497477,0.000026,0.000016,0.000044,0.000065,-0.000023,41.834961,0.000066,
2371,1993,2.57728193360363,-14.258566132104,0.04162952356603,0.002758,0.003431,0.008655,0.096852,0.246133,331.550825,22.633528,0.999224,0.966019,0.006890,0.350951,0.000040,0.000024,0.000012,0.000046,0.000018,27.896735,0.000066,
2311,2893,1.09634462904748,5.41324861619233,-0.0146550003487391,0.002651,0.004446,0.005680,0.104374,0.250755,316.514656,25.095611,0.999458,0.990582,0.003894,0.341851,-0.000004,0.000021,-0.000013,0.000026,-0.000009,-67.050590,0.000026,
2446,2053,4.20578653705165,-12.9428276793134,0.0362616056578986,0.003008,0.004109,0.004341,0.123105,0.233740,330.665301,22.255403,0.999240,0.978510,0.005536,0.406407,0.000038,0.000015,0.000009,0.000042,0.000012,18.905034,0.000056,
2206,2608,-1.13607620584272,-0.796564484190462,-0.0148285621617674,0.002835,0.004205,0.006941,0.109972,0.274152,321.338939,24.480379,0.998951,0.984425,0.004818,0.472637,0.000009,0.000020,0.000003,0.000021,0.000009,76.762691,0.000031,
2356,3058,2.04552283549857,8.99843556785668,0.0172219866429941,0.002630,0.003893,0.010805,0.084756,0.261113,314.051492,25.509660,0.999648,0.992453,0.003479,0.438380,-0.000005,0.000018,-0.000014,0.000024,-0.000011,-64.550200,0.000024,
2311,2008,1.26297611502373,-13.9264339478244,0.0359743015903291,0.002944,0.003973,0.006215,0.115072,0.249207,331.279612,23.113905,0.999284,0.978981,0.006003,0.334950,0.000028,0.000074,0.000003,0.000075,0.000028,86.731516,0.000106,
2206,2848,-1.17726536525161,4.42800906722919,-0.01041622542499,0.002730,0.004392,0.007814,0.102653,0.279451,317.470197,24.776675,0.999303,0.990044,0.003911,0.451866,0.000013,0.000044,0.000002,0.000044,0.000012,86.079447,0.000060,
2326,2938,1.41546836034693,6.38961198098146,0.00550747471959312,0.002869,0.003892,0.010263,0.098179,0.233849,315.934620,25.122807,0.998924,0.987408,0.004473,0.426296,-0.000008,0.000017,-0.000019,0.000028,-0.000018,-61.679981,0.000028,
2341,3253,1.68347359505309,13.2279611089049,0.0177581397276185,0.002993,0.004472,0.006988,0.115430,0.255344,310.892798,25.924009,0.999482,0.991883,0.003500,0.427673,0.000004,0.000046,0.000007,0.000047,0.000003,81.091525,0.000056,
2236,2833,-0.522845397615544,4.10393231072695,-0.0141571997575056,0.002721,0.004567,0.004786,0.111523,0.266231,317.616372,24.830600,0.999524,0.990622,0.003800,0.404686,0.000014,0.000055,0.000008,0.000056,0.000012,79.714958,0.000073,
2341,2113,1.89836717044662,-11.6224462915552,0.0312254244487917,0.002851,0.003689,0.008046,0.104037,0.253006,329.530345,23.147883,0.999512,0.982301,0.005092,0.376793,0.000016,0.000024,0.000006,0.000027,0.000012,60.719496,0.000040,
2311,3133,1.05479682907167,10.6223343485907,0.0284205998125913,0.002465,0.004342,0.007838,0.088623,0.264361,312.939101,25.526349,0.999420,0.991989,0.003705,0.427023,-0.000003,0.000041,-0.000010,0.000044,-0.000006,-77.494133,0.000047,
2476,2323,4.80435793871654,-7.02003527773638,0.00908079253804317,0.002890,0.003828,0.005064,0.114786,0.246096,326.134814,23.099935,0.998989,0.978403,0.005657,0.446801,0.000016,0.000045,0.000012,0.000050,0.000012,70.427257,0.000065,
2221,2938,-0.866304983260779,6.38424292520131,-0.00078063778721571,0.002910,0.004487,0.008803,0.107574,0.276714,316.049910,24.911607,0.999607,0.993075,0.003416,0.445611,-0.000004,0.000033,-0.000003,0.000033,-0.000005,-86.053372,0.000036,
2116,2263,-3.03689895811819,-8.33282448035522,0.00496091289863898,0.002604,0.003589,0.006477,0.101638,0.222557,327.391505,24.470917,0.998855,0.983483,0.005181,0.407215,0.000009,0.000034,0.000014,0.000040,0.000003,66.304725,0.000048,
2281,3028,0.421648395083441,8.34248430322986,0.00997285157592387,0.002833,0.004582,0.006518,0.110555,0.274887,314.556492,25.230715,0.999073,0.988122,0.004155,0.421292,-0.000003,0.000005,-0.000015,0.000016,-0.000015,-53.030532,0.000018,
2281,3223,0.388646164199507,12.5700711805947,0.0515491290685759,0.002573,0.004492,0.009846,0.087571,0.282314,311.691751,25.528152,0.999784,0.994455,0.003131,0.477283,0.000015,0.000047,-0.000002,0.000047,0.000014,-86.357408,0.000064,
2341,2998,1.7304972473864,7.69484440462745,0.01025764743531,0.002723,0.004177,0.010041,0.092076,0.258135,314.982531,25.341670,0.999866,0.996814,0.002932,0.409064,-0.000007,0.000009,-0.000015,0.000018,-0.000016,-58.974025,0.000020,
2311,2683,1.13546095553744,0.840948179163838,-0.0108291966568572,0.002828,0.004297,0.006960,0.107984,0.282575,319.969832,24.511904,0.999706,0.991104,0.003824,0.506992,0.000012,0.000051,-0.000010,0.000054,0.000010,-76.980861,0.000068,
2131,2533,-2.75500049698745,-2.43453973916803,-0.00784502382879282,0.002337,0.003984,0.008846,0.082471,0.268066,322.844493,24.511765,0.999155,0.985004,0.004712,0.477354,0.000000,0.000035,-0.000013,0.000039,-0.000004,-71.540128,0.000043,
2116,2458,-3.06819387575594,-4.07154627034763,-0.00202213306278054,0.002934,0.003549,0.008384,0.111353,0.251645,324.198793,24.531343,0.999323,0.988105,0.004463,0.444149,-0.000009,0.000008,-0.000032,0.000033,-0.000033,-52.256427,0.000038,
2401,3193,2.99887566715725,11.9310803038599,0.036913871743991,0.002516,0.004183,0.009314,0.083958,0.262404,312.026139,26.060918,0.999543,0.991591,0.003584,0.441632,0.000011,0.000052,0.000000,0.000052,0.000011,-89.527151,0.000067,
2266,2923,0.113896040684946,6.0606053934178,0.000406659108080021,0.002721,0.004469,0.007533,0.102064,0.256428,316.204904,24.974264,0.999675,0.992158,0.003742,0.438324,-0.000009,0.000028,-0.000007,0.000029,-0.000010,-79.096292,0.000030,
2371,2008,2.57356996680182,-13.9266739370802,0.0292428069249127,0.002861,0.003503,0.008320,0.102759,0.250010,331.211408,22.749363,0.998970,0.971924,0.006283,0.284330,0.000041,0.000027,0.000018,0.000053,0.000015,34.557511,0.000072,
2161,2638,-2.12052637853649,-0.143290931253986,-0.0218252617802364,0.002609,0.003902,0.007994,0.097014,0.255030,320.924639,24.597975,0.999757,0.993107,0.003553,0.402238,0.000006,0.000016,-0.000012,0.000024,-0.000002,-57.108025,0.000026,
2326,3193,1.37074540889557,11.9238458151925,0.0371982025779971,0.003017,0.004449,0.005118,0.123297,0.271290,312.054588,25.643459,0.999676,0.994232,0.003309,0.512103,0.000007,0.000040,-0.000006,0.000041,0.000005,-79.525750,0.000051,
2176,2728,-1.80953669964984,1.81591435889928,-0.0236947761901547,0.002594,0.003936,0.005655,0.103373,0.243339,319.403612,24.557411,0.999342,0.989629,0.004115,0.496668,0.000008,0.000035,-0.000012,0.000040,0.000003,-68.946290,0.000048,
2296,3073,0.740709382562017,9.31981973774926,0.0228796955903476,0.002913,0.004903,0.000260,0.135291,0.259011,313.935294,25.394703,0.999643,0.993933,0.003382,0.375251,-0.000006,0.000023,-0.000012,0.000027,-0.000011,-69.648390,0.000028,
2191,2788,-1.49370644180012,3.12312745980783,-0.0249862442764197,0.002772,0.004421,0.006134,0.110108,0.269879,318.375853,24.669701,0.998944,0.985986,0.004739,0.471827,0.000010,0.000043,-0.000007,0.000044,0.000009,-79.159612,0.000056,
2326,2083,1.57546062677318,-12.2777708526455,0.0186141193962612,0.002826,0.003909,0.006083,0.109981,0.250548,329.915929,23.255185,0.999536,0.982732,0.005276,0.281093,0.000024,0.000056,0.000011,0.000059,0.000021,73.240732,0.000083,
2371,2983,2.38538575977114,7.37144788937744,0.00538325172198029,0.002861,0.004386,0.008378,0.103767,0.272774,315.200465,25.381644,0.999514,0.989223,0.004126,0.428282,-0.000006,0.000010,-0.000014,0.000018,-0.000014,-59.154436,0.000019,
2326,2728,1.45289162554046,1.82329458620643,-0.0215256541934536,0.002919,0.004223,0.006321,0.114125,0.259682,319.145411,24.678621,0.999359,0.988315,0.004242,0.417364,0.000000,0.000050,-0.000007,0.000051,-0.000001,-82.274583,0.000058,
2221,2758,-0.836211245597379,2.47161873973125,-0.0225111258019979,0.002897,0.004161,0.005645,0.116854,0.264509,318.807281,24.667107,0.999426,0.989153,0.004060,0.454071,0.000009,0.000031,-0.000007,0.000033,0.000007,-74.267438,0.000043,
2341,3268,1.67953035254921,13.5540747968439,0.00732031320416127,0.002825,0.004699,0.008892,0.101257,0.284349,310.544279,25.962171,0.999501,0.992519,0.003376,0.453646,0.000002,0.000043,0.000015,0.000048,-0.000002,71.907471,0.000054,
2446,2068,4.20230723446532,-12.6131440922599,0.0338130681923303,0.002904,0.003671,0.006303,0.110907,0.231256,330.390729,22.313168,0.998921,0.976674,0.005948,0.401787,0.000035,0.000026,0.000012,0.000043,0.000017,34.587800,0.000062,
2371,2203,2.53653059078936,-9.6485731114515,0.0167688794340393,0.003722,0.003933,0.004884,0.154722,0.258002,328.016822,23.178101,0.998782,0.979300,0.005627,0.437982,0.000003,0.000010,-0.000016,0.000023,-0.000010,-51.734081,0.000023,
2311,3148,1.05190070720082,10.9480635198736,0.0279959596649633,0.002375,0.004593,0.007726,0.084929,0.268818,312.686062,25.576637,0.999546,0.991527,0.003783,0.412161,-0.000004,0.000034,-0.000010,0.000036,-0.000007,-75.820644,0.000039,
2281,3238,0.38512866921085,12.8960920960203,0.0382074475924696,0.002692,0.004200,0.008728,0.096669,0.260341,311.342922,25.579823,0.999782,0.993407,0.003315,0.429962,0.000016,0.000043,0.000000,0.000043,0.000016,-89.500201,0.000061,
2491,2443,5.10657488897995,-4.39316460675249,0.000774657654744715,0.002934,0.003921,0.005612,0.114661,0.250605,324.159193,23.567289,0.999052,0.982945,0.004962,0.410655,0.000037,-0.000021,0.000036,0.000054,-0.000038,25.446345,0.000055,
2356,2158,2.21744310927773,-10.6349112118245,0.0278737597720351,0.002954,0.004014,0.006971,0.112385,0.248974,328.786849,23.239502,0.999125,0.981385,0.005420,0.318121,0.000002,-0.000007,-0.000008,0.000007,-0.000012,-31.699481,0.000012,
2236,3058,-0.559296038365868,8.98919615920085,0.0259454473428491,0.003141,0.004861,0.004384,0.132449,0.274249,314.304606,25.114119,0.999611,0.992536,0.003446,0.436851,-0.000009,0.000005,-0.000014,0.000013,-0.000017,-58.693197,0.000018,
2266,3178,0.0705954637280719,11.5936173617217,0.04011654588993,0.002779,0.004284,0.010832,0.093954,0.257669,312.363065,25.389979,0.999452,0.991153,0.003686,0.442501,0.000004,0.000033,-0.000009,0.000036,0.000001,-73.687862,0.000042,
2251,3103,-0.242067422695616,9.9666045412909,0.0281708589074583,0.002812,0.004381,0.007398,0.107101,0.259007,313.530749,25.235507,0.999609,0.991916,0.003585,0.418456,-0.000015,0.000017,-0.000017,0.000024,-0.000023,-66.662908,0.000027,
2251,2908,-0.208427412037405,5.73427066044164,0.00741714643231717,0.002799,0.005042,0.002909,0.121361,0.287920,316.553839,24.992958,0.999743,0.992583,0.003448,0.396752,0.000000,0.000029,-0.000004,0.000030,-0.000001,-81.888936,0.000034,
2416,3178,3.32802269250119,11.6069765551732,0.0357196790592411,0.002841,0.004563,0.008785,0.100662,0.276118,312.294706,26.067522,0.999635,0.992078,0.003487,0.473607,0.000008,0.000056,0.000001,0.000056,0.000008,89.198190,0.000070,
2341,3013,1.72815121680134,8.02038446275663,0.00981563990944778,0.002845,0.004412,0.004941,0.115571,0.245930,314.757386,25.356381,0.999616,0.992472,0.003565,0.418097,-0.000007,0.000012,-0.000019,0.000023,-0.000018,-58.157343,0.000025,
2176,2518,-1.77319149732487,-2.76066503793052,-0.0102003654917553,0.002805,0.003913,0.006987,0.108766,0.252729,322.925265,24.416146,0.999011,0.985726,0.004830,0.466385,0.000003,0.000029,-0.000008,0.000031,0.000001,-74.917393,0.000037,
2476,2338,4.80060170801589,-6.69127698450823,0.0118695705122605,0.002259,0.003513,0.008543,0.072610,0.234341,325.872572,23.234615,0.998738,0.980594,0.005566,0.358914,0.000014,0.000055,0.000020,0.000064,0.000006,67.771411,0.000077,
2371,2023,2.57099639520806,-13.5985955018676,0.0340103309622464,0.002510,0.003750,0.005026,0.098491,0.236249,331.006037,22.736226,0.998883,0.972511,0.006390,0.328026,0.000037,0.000031,0.000017,0.000051,0.000017,39.816310,0.000071,
2161,2653,-2.12319645832012,0.183821817089665,-0.0286599230373099,0.002778,0.004318,0.006275,0.110203,0.272059,320.637447,24.568239,0.999678,0.991487,0.003755,0.459848,0.000006,0.000023,-0.000010,0.000028,0.000002,-65.440162,0.000033,
2356,2923,2.0694723578895,6.06737361261878,-0.0066367692949143,0.002509,0.004623,0.007336,0.091556,0.276311,316.063918,25.204045,0.999324,0.990038,0.003982,0.416312,-0.000012,0.000013,-0.000021,0.000025,-0.000023,-60.833528,0.000028,
2311,2698,1.13246016727228,1.16709623684839,-0.0107787291490808,0.002648,0.003823,0.007794,0.096701,0.263506,319.715585,24.502880,0.999744,0.991620,0.003763,0.529382,0.000014,0.000050,-0.000009,0.000052,0.000012,-76.100219,0.000068,
2146,2338,-2.39583500308055,-6.69278240791008,0.00699757438258075,0.002411,0.003751,0.008923,0.085059,0.268094,326.059697,24.380573,0.999281,0.985250,0.004789,0.461445,-0.000003,0.000002,-0.000017,0.000017,-0.000018,-49.092049,0.000020,
2311,2023,1.26021653099609,-13.5979151104949,0.0332165255063614,0.002994,0.003750,0.004463,0.123255,0.230267,331.024295,23.059869,0.999215,0.981024,0.005514,0.405884,0.000024,0.000073,0.000007,0.000074,0.000023,81.557285,0.000102,
2386,3118,2.68692322582644,10.3029474413598,0.0265947691995621,0.002770,0.004113,0.009578,0.094949,0.264036,313.168399,25.786498,0.999577,0.991757,0.003600,0.435984,0.000009,0.000048,-0.000002,0.000048,0.000009,-87.306132,0.000061,
2161,2413,-2.08178058373619,-5.05267400024716,-0.0034934546462182,0.002624,0.004269,0.005068,0.106570,0.277982,324.727460,24.403848,0.998853,0.985494,0.004885,0.452551,-0.000007,0.000020,-0.000025,0.000034,-0.000022,-59.165354,0.000035,
2356,3073,2.04341043516049,9.32426310438938,0.0191415590075508,0.002976,0.004389,0.007633,0.112028,0.264613,313.849300,25.566407,0.999574,0.992488,0.003501,0.423258,-0.000002,0.000029,-0.000012,0.000033,-0.000006,-71.519780,0.000035,
2116,2473,-3.07103349136835,-3.74332653427839,-0.00898840320780891,0.002721,0.003967,0.004906,0.111987,0.254271,323.898820,24.551086,0.999352,0.988498,0.004311,0.431852,-0.000005,0.000023,-0.000022,0.000035,-0.000018,-60.969261,0.000035,
2146,2623,-2.44382608253097,-0.470026915319714,-0.0238653833270632,0.002950,0.004514,0.006277,0.118359,0.264675,321.228235,24.621921,0.999607,0.991359,0.003953,0.390129,0.000002,0.000017,-0.000014,0.000025,-0.000006,-59.922423,0.000026,
2401,3208,2.9963315119481,12.256285303872,0.0396703585239493,0.002575,0.004521,0.008024,0.091447,0.260799,311.810714,26.103500,0.999470,0.991178,0.003782,0.441518,0.000011,0.000046,-0.000001,0.000046,0.000011,-88.423723,0.000060,
2341,2818,1.76254490436536,3.78263820262943,-0.0149560111542542,0.002627,0.004276,0.007391,0.096852,0.264492,317.713127,24.877051,0.999267,0.987990,0.004153,0.446188,-0.000004,0.000048,-0.000011,0.000051,-0.000006,-78.464755,0.000055,
2131,2548,-2.75721550523588,-2.10760250768202,-0.00707861189897585,0.002474,0.004076,0.008362,0.090224,0.265761,322.616047,24.514740,0.998940,0.982915,0.004953,0.478573,0.000002,0.000033,-0.000008,0.000035,0.000000,-76.987552,0.000041,
2311,2908,1.09418763751179,5.73822476905699,-0.00291003960546732,0.002414,0.004441,0.006071,0.092187,0.261854,316.356463,25.094755,0.999503,0.991843,0.003758,0.385315,-0.000004,0.000017,-0.000016,0.000026,-0.000013,-61.452789,0.000026,
2326,2743,1.45022588105695,2.14952227358876,-0.016130615953557,0.002756,0.004309,0.007927,0.101186,0.280137,318.933560,24.694554,0.999552,0.989915,0.004001,0.456540,0.000000,0.000053,-0.000009,0.000054,-0.000002,-80.962862,0.000061,
2281,3043,0.419152606739619,8.66817353293119,0.0109093622469913,0.002884,0.004471,0.004960,0.118118,0.265656,314.326815,25.272619,0.999347,0.990461,0.003852,0.396911,-0.000003,0.000008,-0.000015,0.000018,-0.000014,-55.659896,0.000019,
2176,2743,-1.81120044109013,2.14210365794428,-0.00967863567927907,0.002700,0.004043,0.008415,0.099744,0.257536,319.273270,24.642268,0.999416,0.990234,0.004173,0.438090,0.000008,0.000035,-0.000011,0.000039,0.000004,-70.236802,0.000047,
2206,2623,-1.13863446274086,-0.469944673615863,-0.0111767116677015,0.002706,0.004173,0.008513,0.099046,0.264386,321.115461,24.511553,0.999311,0.984104,0.004847,0.448948,0.000012,0.000019,0.000000,0.000019,0.000012,87.383452,0.000031,
2101,2428,-3.39020607869238,-4.72654058189177,0.00316634286122053,0.002419,0.003749,0.012445,0.076145,0.267202,324.759884,24.598507,0.999410,0.986849,0.004462,0.424050,-0.000004,0.000005,-0.000013,0.000013,-0.000013,-54.524941,0.000015,
2281,3253,0.381109301622711,13.2223265424439,0.0221502583286224,0.002615,0.004262,0.009087,0.091974,0.261373,310.957225,25.618795,0.999731,0.992418,0.003476,0.418360,0.000016,0.000044,0.000004,0.000045,0.000016,81.169575,0.000063,
2371,2998,2.3832261369325,7.69682426620414,0.0129899617086267,0.002829,0.004315,0.006398,0.109274,0.253399,315.024796,25.439588,0.999549,0.990765,0.003853,0.391211,-0.000001,0.000009,-0.000014,0.000019,-0.000011,-54.883409,0.000020,
2476,2353,4.79791121529215,-6.36335685964926,0.0139550060817442,0.002702,0.003371,0.011509,0.081566,0.242718,325.656011,23.270048,0.998817,0.982644,0.005535,0.390191,0.000019,0.000067,0.000026,0.000078,0.000008,66.160538,0.000095,
2116,2278,-3.03841459131266,-8.00421366977835,0.00876574940934916,0.003043,0.004283,0.003706,0.130245,0.261864,327.209598,24.526435,0.998824,0.983641,0.005139,0.396518,0.000010,0.000029,0.000014,0.000036,0.000003,62.103106,0.000044,
2191,2803,-1.49597877906706,3.44981421845698,-0.0234378975255254,0.002783,0.004777,0.003591,0.118728,0.278575,318.153236,24.724292,0.998978,0.985992,0.004673,0.440248,0.000008,0.000041,-0.000006,0.000042,0.000006,-79.595151,0.000053,
2191,2548,-1.45209647587735,-2.10613846365981,-0.00710027780957034,0.002488,0.004007,0.008635,0.088842,0.263802,322.398141,24.419481,0.999481,0.989508,0.004167,0.476963,0.000002,0.000036,0.000001,0.000036,0.000002,87.484279,0.000043,
2326,2953,1.41253099727718,6.71707587793568,0.00329557655794588,0.002779,0.004705,0.008658,0.099955,0.278477,315.672055,25.228984,0.998927,0.987251,0.004684,0.398603,-0.000007,0.000016,-0.000020,0.000027,-0.000018,-59.813898,0.000028,
2386,3133,2.68454721113609,10.6283194100755,0.0350447736723822,0.002737,0.004278,0.010933,0.088657,0.278950,312.987113,25.845135,0.999687,0.992644,0.003493,0.434609,0.000009,0.000048,-0.000003,0.000048,0.000009,-86.203598,0.000061,
2236,2848,-0.525789504512783,4.43006053830017,-0.0206544127424308,0.002968,0.004213,0.006041,0.118734,0.257235,317.325247,24.804324,0.999423,0.990436,0.003839,0.442736,0.000012,0.000046,0.000006,0.000047,0.000011,80.273790,0.000062,
2446,2083,4.19863642114489,-12.2827408258511,0.0299118599577355,0.002858,0.003117,0.009778,0.095669,0.242314,330.100512,22.412894,0.998633,0.975052,0.006349,0.368779,0.000030,0.000023,0.000010,0.000037,0.000016,33.774052,0.000054,
2131,2308,-2.71733161064349,-7.34771542037368,0.00337156863491828,0.002652,0.004532,0.004457,0.110013,0.275613,326.597244,24.458572,0.998927,0.983582,0.005182,0.430550,0.000004,0.000011,-0.000004,0.000013,0.000002,-65.934861,0.000016,
2146,2353,-2.39784200096026,-6.36512220444585,0.00583661559875281,0.002755,0.003999,0.006420,0.108543,0.266355,325.831670,24.366371,0.999224,0.985565,0.004726,0.483739,-0.000011,0.000005,-0.000023,0.000021,-0.000027,-54.679748,0.000028,
2371,2218,2.53355975858056,-9.31995417889968,0.0203000463952208,0.003347,0.003972,0.004965,0.137287,0.242308,327.786627,23.270016,0.998437,0.974749,0.006253,0.373858,0.000001,0.000008,-0.000014,0.000020,-0.000010,-52.047836,0.000020,
2236,3073,-0.56333324467094,9.3150611080951,0.0189934300395862,0.002571,0.004401,0.008839,0.091658,0.276311,313.960532,25.116531,0.999635,0.992131,0.003474,0.456847,-0.000011,0.000015,-0.000014,0.000021,-0.000017,-66.336278,0.000023,
2326,2098,1.57310235952206,-11.9516944116037,0.021278639346292,0.002943,0.003967,0.005144,0.118576,0.240040,329.706731,23.058983,0.999496,0.981502,0.005289,0.504096,0.000020,0.000044,0.000007,0.000046,0.000018,74.494239,0.000066,
2491,2458,5.10329376219321,-4.06521813988714,0.000921599648791016,0.003055,0.003767,0.009519,0.105227,0.272137,323.907331,23.608957,0.999202,0.984283,0.004776,0.451051,0.000040,-0.000004,0.000030,0.000056,-0.000019,26.970378,0.000057,
2356,2173,2.21439907089018,-10.3070974760757,0.0228619836708503,0.002879,0.004310,0.003889,0.119899,0.236121,328.511416,23.148317,0.999102,0.981231,0.005462,0.438125,0.000001,-0.000001,-0.000006,0.000006,-0.000006,-38.876698,0.000007,
2311,2038,1.25725459351453,-13.2673972260321,0.0335607004972758,0.002672,0.004182,0.003329,0.112545,0.244759,330.774484,23.195409,0.999649,0.986798,0.004482,0.320562,0.000021,0.000060,-0.000004,0.000061,0.000021,-84.064763,0.000085,
2341,3283,1.67638573627438,13.8791844372876,-0.000353392634053762,0.003033,0.004477,0.008013,0.113808,0.267143,310.246300,25.973897,0.999597,0.993302,0.003221,0.460037,0.000003,0.000040,0.000018,0.000048,-0.000004,67.815545,0.000053,
2281,3268,0.377991584684498,13.5476257140384,0.0141702038132507,0.002719,0.004641,0.007677,0.101627,0.271554,310.653796,25.612758,0.999747,0.992701,0.003445,0.461127,0.000018,0.000050,0.000010,0.000052,0.000015,74.232051,0.000071,
2251,2923,-0.211658403593521,6.05978235915736,0.000129958854870438,0.002927,0.004489,0.005221,0.119446,0.262646,316.246932,24.943092,0.999677,0.992610,0.003547,0.444228,-0.000005,0.000030,-0.000007,0.000032,-0.000006,-79.759741,0.000033,
2266,3193,0.0678811770485979,11.9197166584809,0.0356024171057356,0.002924,0.004628,0.008297,0.109175,0.269038,312.094325,25.453611,0.999511,0.991149,0.003627,0.414488,0.000005,0.000032,-0.000008,0.000035,0.000003,-75.032796,0.000042,
2311,2923,1.09157745885524,6.06368396936145,-0.00427131319588625,0.002804,0.004509,0.007805,0.104215,0.266686,316.112681,25.053816,0.999225,0.989699,0.004040,0.463085,-0.000006,0.000014,-0.000019,0.000025,-0.000018,-59.220421,0.000026,
2311,3163,1.04992010089592,11.2723311810021,0.0373790823410332,0.002649,0.004101,0.010048,0.089438,0.256168,312.524058,25.571975,0.999663,0.992322,0.003592,0.435047,-0.000003,0.000036,-0.000010,0.000039,-0.000005,-75.771180,0.000042,
2176,2533,-1.77601361552576,-2.43322966953024,-0.00909794372495298,0.002476,0.004141,0.007768,0.091286,0.269947,322.674081,24.444670,0.998931,0.986610,0.004578,0.468534,-0.000002,0.000036,-0.000006,0.000037,-0.000003,-81.681423,0.000041,
2251,3118,-0.244683375098536,10.2922316220621,0.030609957838692,0.002728,0.004582,0.007700,0.102383,0.271571,313.300953,25.277190,0.999531,0.991158,0.003798,0.411544,-0.000011,0.000024,-0.000016,0.000030,-0.000017,-68.782725,0.000030,
2416,3193,3.32560409593485,11.9323587011328,0.0393369103150008,0.003012,0.004517,0.007908,0.111742,0.271726,312.090067,26.130902,0.999596,0.991075,0.003576,0.452441,0.000008,0.000057,-0.000001,0.000057,0.000008,-88.822519,0.000071,
2296,3088,0.737902144447471,9.6445092500621,0.0230558615157861,0.003135,0.004621,0.004171,0.132132,0.249042,313.688782,25.351661,0.999598,0.993099,0.003504,0.437507,-0.000006,0.000019,-0.000017,0.000028,-0.000015,-63.336824,0.000028,
2221,2953,-0.868609735323403,6.71023081879387,0.00110187111170035,0.002962,0.004620,0.006849,0.116302,0.278253,315.829704,24.952221,0.999429,0.991414,0.003761,0.424786,-0.000006,0.000029,-0.000001,0.000029,-0.000006,-88.312113,0.000030,
2161,2668,-2.12352929977559,0.508333036371447,-0.00396350491536168,0.003306,0.004582,0.006627,0.133500,0.274222,320.624154,24.581977,0.999698,0.992809,0.003501,0.458279,0.000006,0.000027,-0.000007,0.000030,0.000003,-72.728272,0.000036,
2356,2938,2.06667832616778,6.39280444264634,-0.00194006884652254,0.002611,0.003833,0.012654,0.077211,0.255277,315.844367,25.234325,0.999151,0.988761,0.004184,0.403184,-0.000009,0.000014,-0.000020,0.000026,-0.000021,-59.534781,0.000027,
2401,3223,2.99310006090686,12.581909613486,0.0332979027020315,0.002600,0.004508,0.005801,0.100700,0.265000,311.520220,26.130218,0.999468,0.991309,0.003694,0.463375,0.000010,0.000046,0.000001,0.000046,0.000010,88.477115,0.000060,
2326,3208,1.36793096780084,12.2492497594808,0.0438484101464951,0.002771,0.004723,0.008587,0.099978,0.269032,311.841019,25.726592,0.999578,0.992894,0.003443,0.459535,0.000008,0.000041,-0.000003,0.000041,0.000008,-84.904272,0.000053,
2371,2038,2.56773613107713,-13.2690221463186,0.0274983318883528,0.002608,0.004029,0.004958,0.103305,0.259831,330.715182,22.700288,0.998896,0.975824,0.006081,0.432613,0.000029,0.000022,0.000003,0.000030,0.000021,18.212853,0.000052,
2146,2638,-2.44649291285994,-0.144099330995545,-0.0240499891968398,0.002842,0.004196,0.007480,0.109635,0.255935,320.975437,24.560159,0.999679,0.991859,0.003736,0.451804,0.000005,0.000019,-0.000015,0.000029,-0.000005,-57.745339,0.000031,
2356,3088,2.04048901044589,9.64958545780236,0.0237188110370425,0.002640,0.004143,0.008740,0.092484,0.243255,313.622840,25.622183,0.999521,0.991751,0.003653,0.383839,0.000001,0.000028,-0.000015,0.000034,-0.000005,-66.063431,0.000037,
2461,2233,4.49460727228831,-8.99096300881135,0.0126572679882315,0.002343,0.003725,0.006463,0.084576,0.236430,327.554569,22.894831,0.999228,0.980495,0.005440,0.360608,0.000019,0.000003,-0.000012,0.000025,-0.000003,-27.793055,0.000027,
2326,2758,1.44682709196344,2.47610962288127,-0.0186031216986748,0.002499,0.004147,0.010088,0.081841,0.279741,318.649493,24.706051,0.999588,0.991260,0.003853,0.479266,0.000001,0.000057,-0.000007,0.000058,0.000000,-83.215746,0.000067,
2341,3028,1.72592337598513,8.34646874091817,0.0183762529359797,0.002977,0.004554,0.007367,0.113264,0.265785,314.581215,25.453120,0.999715,0.993494,0.003441,0.376987,-0.000004,0.000011,-0.000019,0.000024,-0.000017,-55.036276,0.000025,
2491,2473,5.1001467385758,-3.73697327210123,-0.00188427045031858,0.002861,0.004362,0.005145,0.113331,0.265386,323.648329,23.683874,0.999343,0.983975,0.004785,0.429413,0.000025,-0.000008,0.000030,0.000043,-0.000027,30.660775,0.000043,
2221,2773,-0.838391626697863,2.79740573794252,-0.0165095219405771,0.002868,0.004377,0.005130,0.117267,0.263352,318.614225,24.675430,0.999305,0.989358,0.004131,0.463460,0.000008,0.000037,-0.000005,0.000037,0.000007,-80.785957,0.000048,
2266,2938,0.110641457559947,6.3857631035183,0.00139894491780979,0.002482,0.003951,0.012937,0.073020,0.256927,315.939970,24.930017,0.999503,0.991077,0.003812,0.507932,-0.000008,0.000027,-0.000004,0.000028,-0.000009,-83.474563,0.000029,
2191,2563,-1.45400734591869,-1.77986146861205,-0.00186998548565498,0.002688,0.004113,0.007612,0.101284,0.264027,322.211601,24.404431,0.999413,0.989346,0.004098,0.507314,0.000005,0.000032,-0.000001,0.000032,0.000005,-87.639684,0.000040,
2341,2128,1.89498486840231,-11.2924603885441,0.0213872694831707,0.002701,0.004293,0.003822,0.112088,0.234769,329.214603,23.190682,0.999587,0.986172,0.004658,0.355845,0.000016,0.000022,0.000002,0.000023,0.000016,72.010423,0.000038,
2416,3208,3.32273499553374,12.2578584029212,0.0393667267709361,0.003006,0.004759,0.006857,0.115319,0.266110,311.847719,26.188944,0.999510,0.990393,0.003835,0.435169,0.000008,0.000050,-0.000003,0.000051,0.000008,-86.262236,0.000064,
2311,2713,1.12967887601232,1.49492175245308,-0.0133817622972856,0.002757,0.004393,0.006853,0.105181,0.283873,319.457804,24.591511,0.999532,0.989766,0.004024,0.493635,0.000013,0.000051,-0.000009,0.000053,0.000011,-77.506605,0.000068,
2131,2323,-2.71910773175841,-7.02006634656543,0.00360627961248383,0.003056,0.004581,0.001162,0.138426,0.258824,326.385996,24.461826,0.999174,0.984679,0.004948,0.417904,0.000005,0.000002,-0.000009,0.000013,-0.000006,-40.905483,0.000013,
2176,2548,-1.77892072883661,-2.10585626507732,-0.01526368759653,0.002384,0.003941,0.006023,0.092427,0.247269,322.381143,24.447480,0.999206,0.987339,0.004396,0.456290,-0.000002,0.000037,-0.000001,0.000037,-0.000002,-88.330590,0.000041,
2176,2758,-1.81452684561783,2.46928041806338,-0.0158536595123451,0.002514,0.004123,0.011183,0.082686,0.281025,318.960676,24.651929,0.999370,0.989351,0.004117,0.464287,0.000009,0.000035,-0.000011,0.000039,0.000005,-70.471638,0.000048,
2251,2938,-0.214546135722674,6.38470374270199,0.000619800231618228,0.002864,0.004094,0.007868,0.107747,0.252303,315.995333,24.884092,0.999627,0.993491,0.003364,0.515974,-0.000005,0.000031,-0.000004,0.000031,-0.000005,-84.284599,0.000034,
2341,3298,1.67334315241986,14.2045749412588,-0.00245805134971988,0.002945,0.004614,0.007461,0.111782,0.281742,309.980017,26.014479,0.999651,0.992915,0.003325,0.469192,-0.000005,0.000047,0.000013,0.000050,-0.000008,77.165056,0.000054,
2311,2053,1.25486360534423,-12.9385792988424,0.0308290072426303,0.003106,0.004434,0.001793,0.137722,0.246412,330.535925,23.159839,0.999499,0.984127,0.004857,0.393465,0.000018,0.000063,-0.000004,0.000063,0.000018,-84.592463,0.000085,
2281,3283,0.374858304569813,13.8724883132514,0.0118428171205665,0.002644,0.004343,0.009664,0.091417,0.262773,310.378107,25.620952,0.999483,0.991965,0.003480,0.470292,0.000019,0.000055,0.000012,0.000058,0.000015,73.803607,0.000078,
2371,3103,2.36374288874579,9.9765793748133,0.0236376067592232,0.002718,0.004240,0.007344,0.100892,0.266034,313.387739,25.709368,0.999419,0.989953,0.003967,0.415259,0.000008,0.000033,-0.000008,0.000035,0.000006,-73.800887,0.000045,
2386,2023,2.89865599133361,-13.5989327168357,0.0297455216638696,0.002631,0.003321,0.005628,0.101522,0.213961,330.984793,22.613649,0.998796,0.969698,0.006620,0.326484,0.000043,0.000021,0.000011,0.000048,0.000016,21.699942,0.000067,
2191,2818,-1.49852724689589,3.7750205462671,-0.0163275060073147,0.002565,0.004361,0.007315,0.096852,0.273983,317.947338,24.702731,0.998719,0.984188,0.004819,0.471605,0.000010,0.000051,0.000000,0.000051,0.000010,-89.745901,0.000066,
2326,3223,1.36473900230515,12.5744997608484,0.0407851974655387,0.002623,0.004426,0.008626,0.092947,0.259245,311.562423,25.750346,0.999396,0.992190,0.003472,0.459211,0.000007,0.000047,-0.000001,0.000047,0.000007,-88.760481,0.000059,
2131,2563,-2.76004784508244,-1.77878433138618,-0.016858067055523,0.002724,0.004183,0.008366,0.101790,0.275173,322.302591,24.590317,0.999204,0.986841,0.004536,0.419237,0.000006,0.000030,-0.000011,0.000035,0.000001,-68.604538,0.000041,
2161,2428,-2.08390396404014,-4.72517765985739,-0.00364672414696088,0.003027,0.003951,0.005622,0.123276,0.254642,324.500732,24.432112,0.999192,0.985697,0.004712,0.412359,-0.000004,0.000011,-0.000018,0.000023,-0.000016,-56.413888,0.000024,
2206,2638,-1.1411985777905,-0.143038027695397,-0.0136152608667999,0.002814,0.004264,0.007482,0.107359,0.271503,320.860147,24.504861,0.999250,0.985846,0.004690,0.480115,0.000015,0.000020,-0.000002,0.000021,0.000014,-73.830070,0.000035,
2371,2233,2.53015290066336,-8.99096753476084,0.0173670805201027,0.003129,0.003623,0.006157,0.122944,0.224815,327.505556,23.335345,0.998715,0.978601,0.005892,0.334605,0.000000,0.000002,-0.000007,0.000008,-0.000006,-47.391155,0.000008,
2371,2053,2.56537406298532,-12.9389998136267,0.0299315076313178,0.002906,0.004047,0.004693,0.117898,0.256597,330.508062,22.838212,0.999075,0.977728,0.005761,0.335574,0.000025,0.000027,0.000003,0.000030,0.000023,50.923285,0.000052,
2401,3238,2.98994044644803,12.9079126880547,0.0281328103851024,0.002827,0.004708,0.006436,0.108948,0.271507,311.238538,26.201089,0.999414,0.991571,0.003616,0.443078,0.000008,0.000047,0.000002,0.000047,0.000008,87.497186,0.000059,
2326,2968,1.40967351853734,7.04374288219101,0.0015296381011467,0.002796,0.004623,0.007852,0.103580,0.286980,315.415575,25.305470,0.999657,0.994633,0.003182,0.364521,-0.000010,0.000016,-0.000020,0.000027,-0.000021,-61.480329,0.000028,
2161,2683,-2.12726823642501,0.835356172299782,-0.0113929949953331,0.002745,0.004014,0.009269,0.099394,0.254449,320.284952,24.584880,0.999453,0.990134,0.003894,0.446299,0.000005,0.000035,-0.000009,0.000037,0.000003,-74.281897,0.000045,
2311,3178,1.04721752985228,11.5980594443988,0.0357254717558817,0.002711,0.004464,0.008137,0.099022,0.272984,312.273770,25.609704,0.999724,0.992459,0.003560,0.445139,0.000000,0.000037,-0.000010,0.000040,-0.000002,-75.672617,0.000045,
2116,2488,-3.07336946360542,-3.41688750287937,-0.00746098925918659,0.002723,0.003937,0.005530,0.110217,0.243215,323.667908,24.504930,0.999256,0.987183,0.004477,0.471505,-0.000003,0.000029,-0.000024,0.000042,-0.000016,-61.828518,0.000042,
2206,2863,-1.17933917473616,4.75352041743608,-0.00756081691525878,0.002694,0.004771,0.002704,0.117301,0.264007,317.264864,24.773258,0.999369,0.990983,0.003698,0.456317,0.000010,0.000042,-0.000003,0.000042,0.000010,-85.415238,0.000055,
2251,3133,-0.247270732166328,10.6174263837768,0.0349484095149251,0.002812,0.004567,0.011821,0.092725,0.285863,313.082237,25.292577,0.999313,0.991618,0.003793,0.432660,-0.000011,0.000027,-0.000012,0.000030,-0.000015,-73.599646,0.000030,
2281,3058,0.41629597318158,8.9935623433558,0.0126466136796353,0.002708,0.004723,0.006043,0.106490,0.282925,314.084591,25.269593,0.999443,0.992760,0.003587,0.444039,-0.000003,0.000011,-0.000013,0.000019,-0.000011,-59.215497,0.000019,
2341,2833,1.75994497330298,4.10927428568552,-0.0125627152269203,0.002672,0.004089,0.007449,0.098597,0.245234,317.490379,24.971608,0.999597,0.990424,0.003888,0.368792,-0.000008,0.000054,-0.000013,0.000056,-0.000011,-78.809082,0.000060,
2446,2098,4.19537962660749,-11.9528763121465,0.0233370458123545,0.002728,0.003644,0.004629,0.109051,0.245765,329.816997,22.447672,0.999286,0.978655,0.005797,0.393311,0.000023,0.000009,-0.000002,0.000023,0.000009,-8.292165,0.000033,
2371,3013,2.38003379625552,8.02261576342705,0.0133452674737669,0.002489,0.004437,0.006483,0.093427,0.267152,314.766644,25.457245,0.999539,0.990466,0.003893,0.427594,0.000001,0.000009,-0.000017,0.000022,-0.000012,-51.467539,0.000023,
2386,3148,2.68213968808077,10.9532622275933,0.0385867837661635,0.002707,0.004392,0.007832,0.098386,0.256453,312.781104,25.874454,0.999646,0.992181,0.003503,0.424921,0.000008,0.000038,-0.000001,0.000038,0.000008,-87.885493,0.000049,
2461,2248,4.49244420127109,-8.66316322749415,0.0176949628308307,0.002660,0.003993,0.004847,0.105266,0.246126,327.375005,22.913012,0.999026,0.977838,0.005547,0.408487,0.000017,0.000007,-0.000013,0.000026,-0.000002,-33.919485,0.000029,
2356,2953,2.06405012852609,6.7190177172498,-0.00523649113546298,0.002793,0.004193,0.008873,0.099010,0.250853,315.593571,25.267683,0.999186,0.988890,0.004161,0.403749,-0.000007,0.000013,-0.000020,0.000026,-0.000020,-58.043560,0.000027,
2281,3298,0.371898259071639,14.1985641830494,0.00492792560345379,0.002888,0.004362,0.009006,0.104902,0.267917,310.086881,25.706544,0.999592,0.993515,0.003268,0.415936,0.000021,0.000059,0.000008,0.000060,0.000019,78.451520,0.000083,
2221,2788,-0.840416972956778,3.12328163858038,-0.0115350613921805,0.002913,0.004591,0.002384,0.128181,0.256839,318.422986,24.692858,0.999294,0.990546,0.004097,0.458542,0.000009,0.000043,-0.000003,0.000044,0.000008,-84.628384,0.000056,
2326,2773,1.44494815927494,2.80334110674583,-0.0143170017910279,0.002895,0.004277,0.007469,0.109133,0.265618,318.468102,24.847913,0.999695,0.993997,0.003461,0.357665,-0.000001,0.000057,-0.000010,0.000059,-0.000002,-80.503051,0.000067,
2221,2968,-0.871231103108325,7.03563251372693,0.00500328255446902,0.002754,0.004452,0.007720,0.103861,0.269335,315.605512,24.967263,0.999258,0.989159,0.004133,0.418842,-0.000005,0.000030,-0.000002,0.000030,-0.000005,-87.119555,0.000032,
2236,3088,-0.565402949478941,9.64081853240854,0.020158714127831,0.002833,0.004471,0.005353,0.115028,0.263856,313.748374,25.179788,0.999550,0.992101,0.003503,0.400992,-0.000014,0.000010,-0.000014,0.000016,-0.000020,-65.973024,0.000022,
2236,2863,-0.528143454156837,4.75617463464079,-0.0138067114224896,0.002790,0.004484,0.006298,0.109860,0.276289,317.129210,24.852767,0.999365,0.989936,0.003836,0.434158,0.000010,0.000043,0.000001,0.000044,0.000010,87.954621,0.000057,
2356,1993,2.24857012834992,-14.2584428490374,0.0395083990705984,0.002346,0.002618,0.011140,0.069294,0.200879,331.499266,22.732245,0.998990,0.965915,0.007116,0.313561,0.000042,0.000032,0.000018,0.000056,0.000018,37.523822,0.000077,
2296,3103,0.735164350205341,9.97007978673299,0.0275290257064853,0.002920,0.004492,0.005480,0.117762,0.239152,313.466495,25.420657,0.999308,0.991015,0.003958,0.387278,-0.000005,0.000025,-0.000017,0.000033,-0.000012,-66.013826,0.000033,
2146,2368,-2.40025820431002,-6.0367652480658,0.000674436463555139,0.002942,0.004183,0.003629,0.125632,0.250685,325.563662,24.396202,0.999086,0.986642,0.004559,0.447840,-0.000010,0.000017,-0.000022,0.000029,-0.000022,-61.129831,0.000031,
2311,2938,1.0885416986701,6.39003545229055,-0.00518996953536544,0.002502,0.004810,0.006355,0.095391,0.274326,315.851205,25.099783,0.999129,0.988171,0.004234,0.456503,-0.000005,0.000014,-0.000019,0.000025,-0.000016,-58.147587,0.000026,
2266,3208,0.064715151288933,12.2454184955056,0.032672398523232,0.002581,0.004565,0.006840,0.098232,0.268000,311.812896,25.506687,0.999687,0.994016,0.003235,0.384499,0.000007,0.000038,-0.000003,0.000039,0.000006,-84.059709,0.000049,
2251,2953,-0.217096959582079,6.71236009592126,0.00212751411487488,0.002776,0.004669,0.006341,0.108945,0.279160,315.763442,25.050779,0.999420,0.991355,0.003776,0.398673,-0.000006,0.000026,-0.000002,0.000027,-0.000006,-86.804742,0.000028,
2476,2368,4.79461088265289,-6.03302807041104,0.00301340948988127,0.003022,0.004180,0.007194,0.112976,0.277351,325.352006,23.378059,0.999553,0.985717,0.005021,0.375807,0.000024,0.000053,0.000030,0.000072,0.000005,57.989606,0.000086,
2491,2488,5.09771014090186,-3.4098314684274,0.0039499931999103,0.003030,0.004262,0.005294,0.120469,0.263170,323.460867,23.737448,0.999452,0.984225,0.004690,0.433598,0.000025,-0.000018,0.000025,0.000037,-0.000030,24.624974,0.000039,
2416,3223,3.31930337454913,12.5831369591472,0.0361383357867453,0.002678,0.004451,0.005549,0.104965,0.258763,311.564149,26.213535,0.999464,0.990127,0.003885,0.449499,0.000007,0.000049,-0.000002,0.000049,0.000007,-87.730135,0.000061,
2311,3193,1.04503570007233,11.9230698710744,0.0387348681668414,0.003057,0.004449,0.007723,0.116429,0.274624,312.070695,25.627734,0.999682,0.992758,0.003478,0.459816,0.000002,0.000036,-0.000009,0.000038,-0.000001,-76.074588,0.000044,
2266,2953,0.108810912184776,6.71255293157262,0.00445064435155018,0.002903,0.004356,0.009771,0.103114,0.273747,315.750284,25.037865,0.999186,0.987289,0.004380,0.441997,-0.000009,0.000023,-0.000003,0.000023,-0.000009,-84.419290,0.000023,
2446,2113,4.19322751650251,-11.6244070149884,0.0293958500140548,0.002991,0.004017,0.003497,0.125492,0.238169,329.642151,22.509929,0.999513,0.978767,0.005630,0.378275,0.000018,-0.000006,-0.000006,0.000019,-0.000007,-14.015516,0.000019,
2206,2653,-1.14402812428331,0.183806158860001,-0.0157531254612877,0.003048,0.003762,0.012342,0.102532,0.263825,320.594245,24.514740,0.999272,0.985479,0.004787,0.479926,0.000016,0.000027,-0.000001,0.000027,0.000016,-86.250191,0.000044,
2341,3043,1.72230933316488,8.67115857048937,0.0143040559773908,0.002565,0.004160,0.008272,0.091045,0.258197,314.280241,25.368919,0.999669,0.992543,0.003513,0.489324,-0.000003,0.000015,-0.000018,0.000027,-0.000014,-58.669275,0.000027,
2371,2068,2.56184820517749,-12.6102781345932,0.0265632560906965,0.002475,0.004230,0.004445,0.099176,0.256125,330.220093,22.795761,0.999340,0.979481,0.005349,0.422245,0.000022,0.000036,0.000010,0.000041,0.000017,63.786604,0.000060,
2326,3238,1.36154055963208,12.9015350713271,0.0290447982204114,0.002959,0.004995,0.006456,0.116222,0.285721,311.240245,25.857752,0.999406,0.991773,0.003539,0.411373,0.000006,0.000048,0.000001,0.000048,0.000006,89.101989,0.000059,
2356,2188,2.21151686937904,-9.97678181242551,0.0233563889717061,0.002932,0.004297,0.005518,0.116590,0.270567,328.269227,23.302386,0.999049,0.982523,0.005277,0.360297,0.000002,-0.000001,-0.000010,0.000010,-0.000010,-40.746969,0.000011,
2386,2038,2.8955450163005,-13.2683995703925,0.0234927589307858,0.002689,0.004234,0.002912,0.114240,0.260932,330.703323,22.645187,0.998916,0.973402,0.006261,0.389070,0.000034,0.000017,-0.000001,0.000034,0.000017,-2.956834,0.000052,
2191,2578,-1.45657166111384,-1.45277090994552,-0.00906714155399868,0.002981,0.004078,0.004986,0.122953,0.251767,321.930418,24.371993,0.999451,0.990370,0.003912,0.543093,0.000006,0.000037,0.000003,0.000037,0.000005,84.788284,0.000046,
2341,2143,1.89046796503495,-10.9623197696633,0.00968530610930429,0.002402,0.003454,0.010540,0.074728,0.249657,328.837641,23.201473,0.999239,0.983295,0.005152,0.400117,0.000011,0.000008,0.000000,0.000011,0.000008,4.902301,0.000019,
2326,2983,1.40732028045284,7.36815665621046,0.00672008140293201,0.002945,0.004253,0.009156,0.105734,0.262456,315.217014,25.259471,0.999899,0.996863,0.002693,0.419557,-0.000009,0.000012,-0.000014,0.000019,-0.000017,-63.252819,0.000021,
2311,2728,1.12709263748426,1.8212208155834,-0.012415514475606,0.002982,0.004063,0.008439,0.109918,0.258968,319.226982,24.618728,0.999478,0.988852,0.004149,0.474146,0.000010,0.000052,-0.000006,0.000052,0.000009,-82.254362,0.000066,
2356,3103,2.03757617665363,9.97587564079342,0.0202390983155851,0.002700,0.004478,0.006816,0.102273,0.269918,313.357452,25.671892,0.999540,0.991242,0.003818,0.398625,0.000006,0.000032,-0.000012,0.000037,0.000002,-69.427364,0.000043,
2221,2983,-0.873539715889819,7.36123014817035,0.00725936578140818,0.002879,0.004482,0.007228,0.111263,0.271695,315.387134,24.981376,0.999374,0.990639,0.003895,0.425542,-0.000006,0.000030,-0.000002,0.000030,-0.000006,-87.281674,0.000031,
2401,3253,2.98606136970865,13.2341919299023,0.0157018693661826,0.002949,0.004867,0.007529,0.110569,0.268198,310.889126,26.271279,0.999497,0.991230,0.003645,0.413721,0.000004,0.000051,0.000001,0.000051,0.000004,89.106733,0.000061,
2191,2833,-1.50054289741755,4.10128041171316,-0.0160480360437987,0.002957,0.004589,0.005312,0.121281,0.269410,317.730025,24.729671,0.999230,0.989200,0.004084,0.454375,0.000012,0.000053,0.000004,0.000054,0.000012,84.487804,0.000070,
2176,2563,-1.78131242429852,-1.77820812716498,-0.0164385845376955,0.002549,0.004140,0.005416,0.101981,0.255313,322.137715,24.494294,0.999172,0.986388,0.004480,0.430756,0.000001,0.000032,-0.000004,0.000032,0.000000,-82.779436,0.000037,
2296,1993,0.937493327546832,-14.2553198320197,0.0325909188944706,0.002694,0.003779,0.005626,0.105761,0.235694,331.494084,23.169481,0.999207,0.965289,0.007126,0.336328,0.000017,0.000074,-0.000015,0.000078,0.000014,-76.412419,0.000099,
2176,2773,-1.81738384466709,2.79606049922254,-0.0254484196352678,0.002605,0.004099,0.007670,0.097723,0.263471,318.651881,24.644588,0.999478,0.989689,0.004118,0.466913,0.000010,0.000038,-0.000009,0.000040,0.000007,-73.461211,0.000051,
2146,2653,-2.44900661456806,0.181964096222941,-0.0212521427233128,0.002544,0.004108,0.006451,0.099055,0.262912,320.745379,24.524797,0.999690,0.990640,0.003823,0.502373,0.000005,0.000028,-0.000013,0.000034,-0.000001,-65.219969,0.000038,
2236,2878,-0.529664546759793,5.08091106080812,-0.00099107647179153,0.003002,0.004489,0.006297,0.119556,0.261944,317.002315,24.854869,0.999541,0.990765,0.003723,0.438496,0.000002,0.000043,0.000001,0.000043,0.000002,88.392795,0.000051,
2371,3028,2.37699624908973,8.34900541265612,0.011668535399906,0.002506,0.004675,0.007098,0.092131,0.287053,314.505627,25.514392,0.999463,0.989832,0.004035,0.430621,0.000003,0.000011,-0.000018,0.000025,-0.000012,-50.715904,0.000025,
2161,2698,-2.13005798813366,1.16245732324724,-0.0160997252603465,0.002756,0.004218,0.009017,0.100788,0.276221,320.003441,24.581241,0.999332,0.987303,0.004210,0.482177,0.000008,0.000035,-0.000012,0.000040,0.000003,-70.131902,0.000048,
2386,3163,2.67872651248727,11.2788918879877,0.0356440086006842,0.002506,0.004337,0.008844,0.085546,0.266225,312.497593,25.899480,0.999487,0.990569,0.003837,0.451514,0.000005,0.000042,-0.000001,0.000042,0.000005,-88.453987,0.000052,
2461,2263,4.48922182933648,-8.33308529380702,0.0114134991761148,0.002907,0.004341,0.003732,0.120913,0.256376,327.094947,23.028174,0.999167,0.978729,0.005490,0.360624,0.000014,0.000014,-0.000021,0.000036,-0.000007,-44.652233,0.000038,
2311,3208,1.04227089859951,12.2485761174097,0.0437126099998864,0.002667,0.004761,0.007199,0.100324,0.274598,311.850301,25.708041,0.999678,0.992301,0.003476,0.410264,0.000003,0.000038,-0.000005,0.000039,0.000002,-81.780225,0.000047,
2386,2263,2.84935574586698,-8.33205903664123,-0.0037239357091039,0.002354,0.003615,0.007082,0.083962,0.237143,326.815632,23.303001,0.998990,0.982310,0.005290,0.400777,-0.000004,-0.000003,-0.000008,0.000005,-0.000012,-47.179384,0.000012,
2446,2128,4.19038373950982,-11.2947841784712,0.0261740187586383,0.003271,0.004572,0.001686,0.145247,0.250440,329.392769,22.561840,0.999481,0.978011,0.005805,0.394009,0.000020,-0.000008,-0.000006,0.000021,-0.000009,-10.991849,0.000021,
2326,2113,1.57067847108566,-11.6230851302625,0.030626661780218,0.002921,0.003123,0.009475,0.102383,0.222555,329.526768,23.178565,0.999500,0.980798,0.005303,0.404410,0.000015,0.000035,0.000006,0.000037,0.000014,74.926414,0.000052,
2116,2503,-3.07595816326642,-3.08897945521593,-0.0158063826730768,0.002718,0.004604,-0.000003,0.126548,0.238551,323.372100,24.501930,0.999083,0.984801,0.004703,0.474742,0.000004,0.000031,-0.000024,0.000045,-0.000010,-59.302134,0.000047,
2371,2248,2.52608929872249,-8.66087955290025,0.00101972057507282,0.002954,0.004050,0.002951,0.126500,0.243141,327.130084,23.333581,0.999236,0.982858,0.005424,0.398921,0.000000,-0.000007,-0.000007,0.000004,-0.000012,-31.509452,0.000012,
2371,3118,2.3607185840297,10.3017464316246,0.0256470770696637,0.002768,0.003857,0.011899,0.086859,0.267509,313.145061,25.719262,0.999624,0.991341,0.003728,0.446879,0.000012,0.000044,-0.000004,0.000044,0.000012,-83.017622,0.000059,
2266,2968,0.106433351669722,7.03878829510962,-0.00152537237187289,0.003252,0.004530,0.004142,0.137850,0.257087,315.490188,25.069501,0.999366,0.990434,0.003950,0.418766,-0.000010,0.000022,-0.000005,0.000023,-0.000011,-81.766557,0.000023,
2281,3073,0.413402321386013,9.31984243066416,0.00724845421638065,0.002783,0.004661,0.003872,0.117195,0.267373,313.804648,25.339329,0.999527,0.992511,0.003633,0.385712,-0.000005,0.000023,-0.000013,0.000028,-0.000010,-68.277906,0.000029,
2296,2008,0.934650699014718,-13.9264097207176,0.0370338097817466,0.002499,0.003373,0.009209,0.084591,0.253365,331.268858,23.190759,0.999039,0.976540,0.005967,0.366301,0.000024,0.000074,-0.000003,0.000074,0.000023,-86.833835,0.000102,
2311,2068,1.25173557905046,-12.6090806950782,0.0231800889023361,0.003284,0.004335,0.001691,0.146215,0.229916,330.239543,23.155884,0.999494,0.981031,0.005206,0.416675,0.000016,0.000069,0.000002,0.000069,0.000016,87.712951,0.000091,
2311,2743,1.12476229490667,2.14788320033639,-0.00963034163549992,0.003081,0.004410,0.006748,0.120410,0.265713,319.016659,24.666552,0.999507,0.989804,0.004048,0.465190,0.000010,0.000053,-0.000008,0.000054,0.000009,-80.279507,0.000068,
2206,2668,-1.14715713248343,0.511178475940923,-0.0147906358751584,0.002143,0.004269,0.008171,0.074335,0.276538,320.330395,24.583476,0.999545,0.991237,0.003852,0.440981,0.000018,0.000029,-0.000002,0.000029,0.000017,-78.761601,0.000047,
2476,2383,4.79078553064592,-5.70469382187255,-0.00611169059664007,0.002792,0.004282,0.004518,0.112643,0.274855,325.032421,23.364777,0.999573,0.984605,0.005086,0.445161,0.000025,0.000035,0.000014,0.000045,0.000016,54.884444,0.000063,
2491,2503,5.09396014199908,-3.08185680749536,-0.000491836248954769,0.002812,0.003918,0.006148,0.107073,0.230190,323.166757,23.809006,0.999405,0.985521,0.004686,0.389174,0.000024,-0.000016,0.000014,0.000028,-0.000020,17.661097,0.000029,
2131,2578,-2.76326291294192,-1.45076785605566,-0.0243314612441736,0.002477,0.004128,0.008947,0.088723,0.289542,321.984063,24.613855,0.999571,0.991647,0.004010,0.416759,0.000002,0.000030,-0.000010,0.000034,-0.000001,-71.604603,0.000038,
2371,2083,2.5589304862699,-12.2804708596875,0.02582040512101,0.002717,0.004056,0.007460,0.099506,0.275612,329.972198,22.867147,0.999195,0.977766,0.005623,0.414790,0.000018,0.000034,0.000009,0.000038,0.000014,65.507346,0.000054,
2446,2143,4.18600281695523,-10.9648744226806,0.0157429414553576,0.002855,0.004079,0.002877,0.121605,0.225909,329.039929,22.605326,0.999291,0.977262,0.005902,0.381427,0.000019,-0.000007,-0.000010,0.000023,-0.000010,-19.097388,0.000023,
2296,3118,0.732305432161919,10.2954834956405,0.0277463019447168,0.002887,0.004299,0.006615,0.112402,0.252160,313.217480,25.428324,0.999488,0.992739,0.003604,0.421633,0.000002,0.000034,-0.000014,0.000039,-0.000003,-69.726194,0.000043,
2311,3223,1.03916035496534,12.5728545617064,0.0436241244938174,0.002376,0.004259,0.007575,0.085537,0.270137,311.589358,25.653671,0.999586,0.992784,0.003357,0.491068,0.000003,0.000044,-0.000005,0.000045,0.000002,-83.729019,0.000053,
2311,2953,1.08618503691394,6.71590587159817,-0.00160736679015372,0.002511,0.004779,0.004474,0.102286,0.275723,315.643249,25.143399,0.999283,0.990113,0.003949,0.445651,-0.000004,0.000013,-0.000019,0.000025,-0.000016,-57.178193,0.000025,
2236,3103,-0.568210179276651,9.96534743505608,0.0211844272305939,0.002756,0.004348,0.007403,0.104709,0.244081,313.502004,25.140235,0.999511,0.992633,0.003498,0.440971,-0.000014,0.000014,-0.000012,0.000019,-0.000019,-69.747737,0.000022,
2221,2803,-0.844120847142744,3.45010816345802,-0.0201533653328738,0.002698,0.003927,0.006218,0.105789,0.232970,318.084685,24.714437,0.999265,0.988486,0.004296,0.431843,0.000006,0.000039,-0.000005,0.000040,0.000005,-82.006509,0.000049,
2266,3223,0.0616557998245746,12.570062774657,0.0332581356894366,0.002348,0.004474,0.008969,0.080452,0.275136,311.554458,25.478408,0.999745,0.995129,0.003177,0.444173,0.000007,0.000048,-0.000002,0.000048,0.000007,-86.633578,0.000060,
2401,3268,2.98125960784585,13.5601408323884,0.00239879571023494,0.002391,0.004459,0.010819,0.072851,0.265675,310.493072,26.311026,0.999615,0.991636,0.003655,0.415212,0.000000,0.000048,0.000008,0.000049,-0.000001,81.155664,0.000056,
2356,2008,2.24577886868149,-13.926874709311,0.0290061094993916,0.002804,0.003795,0.006002,0.108723,0.239531,331.209082,22.805029,0.998909,0.974103,0.006328,0.322232,0.000046,0.000041,0.000028,0.000072,0.000015,42.818325,0.000093,
2401,2338,3.1637115015195,-6.69093001257278,0.00496639365081819,0.002485,0.005214,-0.001234,0.120486,0.280008,325.725837,23.464723,0.998884,0.981006,0.005153,0.452824,0.000003,0.000036,0.000010,0.000038,0.000000,75.042472,0.000044,
2251,3148,-0.249837633268356,10.9421860723269,0.0333000365237694,0.002667,0.004303,0.006468,0.103402,0.238038,312.834225,25.296737,0.998488,0.988153,0.004458,0.402768,-0.000008,0.000025,-0.000013,0.000029,-0.000013,-71.357270,0.000029,
2416,3238,3.31556549630372,12.9095174991224,0.0291785968328213,0.002657,0.004808,0.008158,0.094618,0.283557,311.248480,26.290910,0.999420,0.990813,0.003778,0.443299,0.000005,0.000050,-0.000001,0.000050,0.000005,-88.257714,0.000061,
2341,2158,1.88814847964806,-10.6352103643556,0.012836006328655,0.002543,0.003878,0.009415,0.085266,0.255067,328.633404,23.110247,0.999170,0.984474,0.005140,0.536214,0.000002,-0.000001,-0.000005,0.000006,-0.000004,-34.850833,0.000006,
2326,2788,1.44175300050595,3.12823122899898,-0.017198565225101,0.002842,0.003946,0.009326,0.100146,0.247934,318.191763,24.726635,0.999579,0.993202,0.003606,0.495539,0.000000,0.000063,-0.000009,0.000065,-0.000002,-81.781273,0.000074,
2176,2788,-1.81965318065101,3.12239378531815,-0.0225945699733643,0.002522,0.004336,0.005378,0.101152,0.271479,318.435274,24.672966,0.999360,0.988899,0.004267,0.458638,0.000008,0.000045,-0.000007,0.000046,0.000007,-79.987213,0.000057,
2356,2968,2.06126622243869,7.04568137438721,-0.00451142231031554,0.002562,0.004519,0.005728,0.099644,0.268151,315.354803,25.353330,0.999506,0.990761,0.003844,0.373746,-0.000008,0.000016,-0.000020,0.000027,-0.000020,-60.597325,0.000028,
2476,2398,4.78803217201191,-5.37689906375671,0.00101511372946561,0.002539,0.004181,0.004897,0.099556,0.267594,324.835624,23.468636,0.999609,0.985615,0.004796,0.392143,0.000024,0.000034,0.000015,0.000045,0.000013,54.402673,0.000061,
2341,2848,1.7564084612807,4.43542084942785,-0.0150455234908122,0.002512,0.003972,0.012285,0.074368,0.263758,317.200908,24.951153,0.999643,0.990897,0.003792,0.444090,-0.000007,0.000045,-0.000017,0.000050,-0.000012,-73.514235,0.000052,
2326,3253,1.35786983275707,13.2266248342531,0.0170254570676889,0.002996,0.004695,0.006327,0.118210,0.265758,310.895571,25.835941,0.999321,0.991788,0.003615,0.446143,0.000002,0.000047,0.000002,0.000047,0.000002,86.866114,0.000056,
2161,2443,-2.08624228908374,-4.39837404754748,-0.00239483112221706,0.003073,0.003986,0.005539,0.125696,0.252497,324.271617,24.394009,0.999192,0.986334,0.004708,0.459774,-0.000008,0.000013,-0.000018,0.000023,-0.000018,-59.755079,0.000024,
2371,2098,2.55543280928301,-11.9513696013283,0.0242047968595784,0.002491,0.003377,0.011070,0.076141,0.249780,329.693837,22.915500,0.999013,0.976392,0.005890,0.384876,0.000011,0.000022,0.000004,0.000023,0.000010,72.809306,0.000034,
2356,3118,2.03537129447354,10.3002118827328,0.0275950710042707,0.002831,0.004331,0.007504,0.105827,0.264219,313.177611,25.645517,0.999548,0.991470,0.003763,0.457125,0.000010,0.000041,-0.000007,0.000043,0.000008,-77.314876,0.000055,
2446,2158,4.18327916882569,-10.6366146432626,0.0221516953689616,0.002856,0.003722,0.005830,0.110544,0.226492,328.840259,22.659515,0.999322,0.978498,0.005585,0.382669,0.000012,-0.000016,-0.000023,0.000025,-0.000029,-29.802810,0.000031,
2401,3283,2.97830146367209,13.8852294095083,-0.0055886500969109,0.002939,0.004237,0.010130,0.100466,0.254447,310.207363,26.314275,0.999596,0.991401,0.003766,0.445077,-0.000002,0.000044,0.000009,0.000046,-0.000004,78.730749,0.000051,
2371,3133,2.35827287480268,10.6276051280272,0.0288731859039899,0.002857,0.004201,0.010726,0.095267,0.271281,312.934578,25.801665,0.999590,0.991394,0.003715,0.408128,0.000011,0.000045,-0.000005,0.000045,0.000010,-82.491501,0.000059,
2371,3043,2.37427163553395,8.67397594269959,0.0170164253185021,0.002519,0.004190,0.010697,0.079746,0.277136,314.293091,25.520989,0.999622,0.991199,0.003735,0.454304,0.000004,0.000017,-0.000015,0.000027,-0.000006,-56.486516,0.000028,
2386,2053,2.89397356030374,-12.9402523046941,0.0369704633195056,0.002934,0.004181,0.002750,0.126037,0.247304,330.586022,22.746161,0.999146,0.977157,0.005979,0.320428,0.000029,0.000023,0.000000,0.000029,0.000023,1.503569,0.000053,
2326,2128,1.56842071537404,-11.2935323462166,0.0297058543330309,0.002901,0.004081,0.001443,0.129451,0.219902,329.304231,23.262380,0.999399,0.983368,0.005095,0.355217,0.000015,0.000034,0.000000,0.000034,0.000015,88.703489,0.000050,
2401,2353,3.1600719497182,-6.36242586475567,0.00204269937762547,0.002357,0.004354,0.003205,0.098250,0.261016,325.436362,23.531887,0.998824,0.980894,0.005223,0.414248,0.000008,0.000042,0.000015,0.000048,0.000002,68.696586,0.000056,
2386,3178,2.6759825241354,11.6047068969211,0.0368223896059021,0.002718,0.004506,0.010704,0.088680,0.276129,312.264407,25.970120,0.999522,0.991597,0.003609,0.432753,0.000006,0.000046,0.000000,0.000046,0.000006,-89.474188,0.000057,
2356,2203,2.20765312764691,-9.64811306331703,0.0145632647818843,0.002938,0.003401,0.010166,0.100248,0.254156,327.937894,23.264986,0.998942,0.982195,0.005326,0.423011,0.000000,0.000011,-0.000015,0.000022,-0.000010,-55.270719,0.000022,
2191,2593,-1.45973966494806,-1.12470890068298,-0.0120554497271428,0.002713,0.003830,0.007082,0.104010,0.244311,321.643136,24.466089,0.999065,0.987245,0.004414,0.456770,0.000003,0.000034,0.000001,0.000034,0.000003,87.360453,0.000041,
2161,2713,-2.13261093140203,1.49001179448362,-0.0211323148674296,0.002753,0.004456,0.004626,0.114210,0.278299,319.730971,24.641360,0.999405,0.989407,0.004072,0.434626,0.000007,0.000032,-0.000014,0.000038,0.000001,-65.685230,0.000045,
2326,2998,1.40465703772944,7.69316753613914,0.0136879186495094,0.002745,0.003951,0.011679,0.087685,0.252473,315.012668,25.269416,0.999745,0.994612,0.003167,0.433435,-0.000008,0.000011,-0.000014,0.000019,-0.000015,-62.091281,0.000020,
2131,2338,-2.72231716208446,-6.69257590573186,0.00726927907732033,0.002412,0.004093,0.007157,0.090817,0.266168,326.127368,24.465576,0.999375,0.985366,0.004752,0.429213,-0.000001,-0.000001,-0.000016,0.000015,-0.000017,-45.080306,0.000018,
2356,2023,2.24297835221084,-13.5983968118035,0.028501262866655,0.002674,0.004272,0.003570,0.111466,0.246787,330.966758,22.747591,0.998870,0.972597,0.006575,0.429397,0.000043,0.000044,0.000030,0.000073,0.000014,45.367797,0.000094,
2386,2278,2.84777589194279,-8.00452613148318,0.0118795993116123,0.002411,0.003683,0.006717,0.087887,0.237514,326.707284,23.423122,0.999588,0.990939,0.003954,0.325853,-0.000004,0.000008,-0.000004,0.000009,-0.000005,-73.312438,0.000009,
2416,2413,3.47628127551706,-5.05023734257728,0.00528137643243554,0.003072,0.003899,0.007166,0.116325,0.270862,324.527968,23.681734,0.999633,0.986960,0.004562,0.418533,0.000007,0.000023,0.000022,0.000038,-0.000008,55.065411,0.000040,
2416,2173,3.52344601903676,-10.3063610168443,0.00927725763352782,0.002522,0.003641,0.004688,0.099819,0.201312,328.428377,22.849717,0.998971,0.979150,0.005323,0.382960,-0.000003,-0.000004,-0.000015,0.000011,-0.000019,-43.735079,0.000019,
2221,2998,-0.87627849243384,7.68667251993208,0.00862980956213732,0.002717,0.004496,0.007866,0.101746,0.274880,315.144473,24.978257,0.999449,0.990470,0.003904,0.449824,-0.000008,0.000026,-0.000003,0.000026,-0.000008,-84.132311,0.000027,
2176,2578,-1.78386169688192,-1.45192045961553,-0.0154235135128147,0.002542,0.004066,0.006851,0.097179,0.251245,321.898873,24.452584,0.999198,0.987521,0.004327,0.481474,-0.000001,0.000033,-0.000001,0.000034,-0.000001,-88.131088,0.000038,
2461,2278,4.48651258556083,-8.00496447699511,0.0165282534237008,0.002773,0.004497,0.003305,0.116472,0.264477,326.890508,23.087978,0.999399,0.979546,0.005452,0.365349,0.000013,0.000023,-0.000011,0.000030,0.000006,-56.634492,0.000038,
2491,2518,5.0903510194348,-2.75440249993355,-0.00671666738037402,0.002883,0.003776,0.007050,0.106802,0.219665,322.871016,23.799743,0.999470,0.985638,0.004531,0.448016,0.000015,-0.000025,0.000014,0.000020,-0.000030,17.715252,0.000030,
2281,3088,0.41155334014811,9.64391490511767,0.0181442905346785,0.002760,0.004471,0.002433,0.120908,0.255763,313.654996,25.309948,0.999695,0.992288,0.003684,0.430120,-0.000006,0.000021,-0.000017,0.000029,-0.000015,-64.046678,0.000029,
2431,2008,3.88655186490272,-13.9306595098132,0.0393250675755326,0.002555,0.004014,0.003392,0.105958,0.236775,331.370075,22.250008,0.999204,0.974675,0.006102,0.352382,0.000046,0.000009,0.000031,0.000063,-0.000008,29.356210,0.000069,
2371,2263,2.52342521555194,-8.33268135305324,0.00594813608626055,0.002807,0.003933,0.003412,0.118072,0.239050,326.920420,23.405705,0.999334,0.985752,0.004826,0.365964,-0.000002,-0.000010,-0.000008,0.000004,-0.000015,-32.038077,0.000016,
2206,2878,-1.18199190411218,5.07992277584878,-0.0112801032484526,0.002984,0.004275,0.003973,0.126461,0.246905,316.998677,24.809152,0.999610,0.993130,0.003379,0.419726,0.000007,0.000042,-0.000001,0.000042,0.000007,-88.565776,0.000053,
2311,2758,1.12178961588002,2.47459982083203,-0.0120955492800476,0.003111,0.004317,0.007447,0.119404,0.271299,318.750936,24.683260,0.999557,0.991234,0.003941,0.486492,0.000009,0.000060,-0.000006,0.000060,0.000009,-83.540928,0.000075,
2266,3238,0.0593891519651919,12.8944426355865,0.0329585610763274,0.002737,0.004282,0.007838,0.102010,0.253117,311.328094,25.453373,0.999760,0.994357,0.003218,0.471599,0.000007,0.000046,0.000000,0.000046,0.000007,89.481480,0.000058,
2431,2488,3.78740813608374,-3.41153941122673,-0.000773531207926226,0.002566,0.003307,0.010656,0.079773,0.222115,323.247653,23.823190,0.999168,0.981151,0.005067,0.440635,0.000009,-0.000005,0.000004,0.000010,-0.000006,13.624735,0.000010,
2401,2098,3.21138007744666,-11.9515279123149,0.0227477290253546,0.002519,0.004054,0.005185,0.098127,0.265287,329.729270,22.739446,0.998531,0.972065,0.006663,0.394707,0.000005,0.000015,-0.000007,0.000019,0.000001,-62.724925,0.000023,
2206,2683,-1.14923876161059,0.838023042085915,-0.0197229667409715,0.002747,0.004498,0.004786,0.112917,0.274671,320.084297,24.574033,0.999637,0.992977,0.003597,0.465797,0.000014,0.000037,-0.000006,0.000039,0.000012,-77.249820,0.000053,
2416,3253,3.31226786776435,13.2355240113594,0.0218593250490358,0.002960,0.004839,0.008945,0.105737,0.295723,310.951449,26.349050,0.999279,0.989583,0.003949,0.443644,0.000000,0.000054,-0.000004,0.000054,0.000000,-85.416071,0.000062,
2191,2848,-1.50287571714557,4.42685496016614,-0.0101361634811497,0.002806,0.004461,0.005617,0.113281,0.254438,317.527681,24.750480,0.999211,0.989483,0.004030,0.432574,0.000009,0.000046,0.000004,0.000046,0.000009,84.294166,0.000059,
2356,3133,2.03233339927703,10.6260552236084,0.031741221438665,0.002527,0.004380,0.010077,0.082754,0.270672,312.943369,25.729232,0.999451,0.990933,0.003903,0.417256,0.000007,0.000042,-0.000007,0.000044,0.000006,-78.997214,0.000054,
2416,2428,3.47276500191455,-4.72187725476282,-0.0035366267424024,0.002866,0.003891,0.002833,0.122666,0.228827,324.217716,23.729354,0.999481,0.986142,0.004684,0.378299,0.000007,0.000018,0.000020,0.000033,-0.000008,52.996740,0.000034,
2446,2173,4.18065473570379,-10.3073102114257,0.0281958710189656,0.002778,0.003876,0.006153,0.105843,0.236099,328.643262,22.800653,0.999506,0.983493,0.004943,0.305991,0.000006,-0.000004,-0.000021,0.000022,-0.000020,-38.521464,0.000025,
2341,2173,1.88484326334215,-10.3059509912366,0.0172223761397845,0.002005,0.003283,0.013189,0.047326,0.246111,328.389763,23.247819,0.999025,0.982062,0.005320,0.428957,0.000003,0.000003,-0.000004,0.000006,-0.000001,-44.992235,0.000007,
2356,2038,2.24043020302252,-13.2686985546808,0.0300240955186268,0.002906,0.004254,0.004375,0.119271,0.249756,330.745574,22.833984,0.998931,0.976594,0.005972,0.388278,0.000037,0.000028,0.000015,0.000048,0.000017,37.408802,0.000067,
2251,3163,-0.251984637968498,11.267789955891,0.0404984489128424,0.002800,0.004351,0.007939,0.104785,0.253426,312.650090,25.372825,0.999131,0.989913,0.004007,0.364229,-0.000004,0.000031,-0.000008,0.000033,-0.000006,-77.042069,0.000035,
2341,2863,1.75443344379003,4.76110901529175,-0.00880595321399369,0.002652,0.004187,0.009307,0.091267,0.256962,317.025701,24.982872,0.999584,0.990666,0.003889,0.441849,-0.000005,0.000041,-0.000020,0.000048,-0.000012,-69.760424,0.000050,
2311,3238,1.03584134384892,12.8993631549928,0.0321700635250295,0.002628,0.004459,0.006586,0.100584,0.273199,311.261794,25.737046,0.999449,0.992038,0.003466,0.441487,0.000003,0.000043,-0.000004,0.000044,0.000002,-84.740529,0.000052,
2326,2803,1.43897172387884,3.45526466896423,-0.0171633125689823,0.002629,0.004142,0.006337,0.100767,0.260371,317.948032,24.799443,0.999377,0.992396,0.003828,0.469602,0.000000,0.000051,-0.000007,0.000052,-0.000001,-82.280774,0.000060,
2341,3058,1.71937420683171,8.99651627477185,0.0116053771866973,0.002650,0.003920,0.008118,0.095402,0.246377,314.016923,25.363884,0.999663,0.993432,0.003298,0.518203,-0.000006,0.000017,-0.000015,0.000024,-0.000014,-63.402170,0.000024,
2296,3133,0.729339338952343,10.6210131899209,0.0277602369112628,0.002818,0.004430,0.008526,0.102874,0.267764,312.962440,25.447680,0.999673,0.994421,0.003308,0.446802,-0.000002,0.000035,-0.000012,0.000039,-0.000006,-73.135254,0.000042,
2431,2023,3.88341379951274,-13.5998352787992,0.0326425437133366,0.002948,0.003950,0.003387,0.123935,0.237223,331.090314,22.343507,0.999057,0.975579,0.005945,0.313009,0.000040,0.000009,0.000022,0.000051,-0.000002,27.075784,0.000058,
2476,2413,4.78586735094518,-5.05034235954106,0.00809346655324816,0.002876,0.004109,0.005390,0.113132,0.262920,324.665727,23.459910,0.999558,0.986588,0.004663,0.454223,0.000016,0.000024,0.000024,0.000045,-0.000004,49.768010,0.000050,
2401,3298,2.97476706373129,14.210459987911,-0.0152083934407301,0.002913,0.004452,0.007858,0.107598,0.253279,309.887229,26.316710,0.999622,0.992455,0.003630,0.485528,-0.000005,0.000043,0.000001,0.000043,-0.000005,89.161818,0.000047,
2176,2803,-1.82164617348874,3.4481412328374,-0.0168523924448891,0.002431,0.004933,0.001789,0.108257,0.276401,318.246642,24.676788,0.999451,0.989428,0.004259,0.471868,0.000006,0.000045,-0.000005,0.000045,0.000005,-82.457895,0.000056,
2431,2248,3.83682236156686,-8.66301563349531,0.0170796680275771,0.002562,0.003766,0.006462,0.095069,0.249180,327.299927,23.043842,0.999193,0.979197,0.005514,0.418901,-0.000002,0.000006,-0.000010,0.000012,-0.000008,-56.778841,0.000013,
2146,2383,-2.40264392707846,-5.70941027661844,0.00349558796926885,0.002753,0.004311,0.002716,0.119760,0.259631,325.339372,24.392527,0.998831,0.986087,0.004637,0.469923,-0.000008,0.000020,-0.000019,0.000030,-0.000018,-63.438775,0.000030,
2386,3193,2.67369497959637,11.9296685119803,0.0423616985719377,0.002896,0.004442,0.010699,0.096914,0.277686,312.073257,25.999568,0.999506,0.991814,0.003470,0.447264,0.000007,0.000046,0.000000,0.000046,0.000007,-89.993421,0.000057,
2206,2893,-1.18577408617083,5.40667216416982,-0.0202840914117246,0.002545,0.004219,0.005740,0.100687,0.260820,316.653114,24.812628,0.999767,0.994541,0.003262,0.446583,0.000005,0.000039,0.000000,0.000039,0.000005,-89.710269,0.000048,
2371,2113,2.5528983885362,-11.6217973263283,0.0193007977769639,0.002719,0.004017,0.004895,0.108704,0.244703,329.443712,22.955734,0.998986,0.976501,0.005819,0.384071,0.000008,0.000011,0.000001,0.000011,0.000008,80.047042,0.000019,
2371,3058,2.37125189191307,9.00012311138227,0.016720367765231,0.002515,0.003926,0.012176,0.074243,0.276391,314.039486,25.593498,0.999716,0.992643,0.003416,0.421120,0.000001,0.000020,-0.000011,0.000025,-0.000004,-65.751078,0.000027,
2221,3013,-0.87826337913307,8.01206523207449,0.0126394021769443,0.002999,0.004568,0.006718,0.118449,0.265365,314.950027,25.004725,0.999476,0.990543,0.003814,0.432029,-0.000010,0.000021,-0.000005,0.000022,-0.000010,-80.667855,0.000022,
2461,2293,4.48298760389075,-7.67783228364893,0.0160257577904872,0.002519,0.004081,0.005777,0.095362,0.251316,326.623177,23.026652,0.999316,0.978865,0.005496,0.470177,0.000012,0.000029,-0.000008,0.000032,0.000009,-69.035062,0.000042,
2356,2983,2.05902708461924,7.3707838111825,0.00379150624985414,0.002813,0.004374,0.009412,0.098157,0.265259,315.178107,25.371279,0.999405,0.987824,0.004269,0.390860,-0.000009,0.000013,-0.000015,0.000020,-0.000017,-63.488247,0.000022,
2326,3268,1.35444815044252,13.5527141683692,0.00984327109762262,0.002925,0.004689,0.006274,0.115242,0.280132,310.585676,25.904158,0.999505,0.992806,0.003329,0.425314,0.000000,0.000045,0.000010,0.000047,-0.000002,78.145288,0.000053,
2401,2113,3.20862504547724,-11.6230414395287,0.0304235782302271,0.002256,0.003813,0.007474,0.077787,0.262515,329.531090,22.815791,0.998726,0.974035,0.006259,0.364043,0.000002,0.000003,-0.000009,0.000011,-0.000006,-45.994209,0.000011,
2326,3013,1.40222868501204,8.01954816426884,0.00980698781285128,0.003026,0.004372,0.006577,0.118412,0.256018,314.765515,25.322292,0.999343,0.988677,0.004065,0.417555,-0.000009,0.000013,-0.000016,0.000022,-0.000018,-62.447103,0.000023,
2326,2143,1.56497749171639,-10.9631862479286,0.0211603859260663,0.003243,0.003933,0.006189,0.128745,0.258240,328.989972,23.301455,0.999310,0.983938,0.005184,0.392167,0.000010,0.000018,-0.000001,0.000018,0.000010,-80.542833,0.000028,
2371,3148,2.3558071490156,10.953036693203,0.0322236128411646,0.002845,0.004530,0.008636,0.102226,0.268980,312.723858,25.854975,0.999599,0.990658,0.003734,0.392177,0.000009,0.000035,-0.000004,0.000036,0.000008,-80.810317,0.000047,
2191,2608,-1.46215465208465,-0.797464138750463,-0.0152213254998514,0.002895,0.004073,0.004646,0.120121,0.255714,321.389565,24.469959,0.998594,0.984311,0.004920,0.479661,0.000005,0.000026,0.000000,0.000026,0.000005,-89.899278,0.000033,
2476,2428,4.78235035501856,-4.72205626373415,0.00408240918687852,0.002715,0.004095,0.004928,0.107524,0.264877,324.383188,23.502530,0.999369,0.986334,0.004704,0.471806,0.000010,0.000014,0.000030,0.000042,-0.000018,47.014992,0.000042,
2341,2188,1.88273146676424,-9.97616825875031,0.0164307075247621,0.002372,0.003756,0.008028,0.082246,0.242980,328.175615,23.377253,0.999144,0.984931,0.005022,0.335678,-0.000001,0.000004,-0.000008,0.000009,-0.000007,-54.238553,0.000010,
2341,3073,1.7166378723451,9.32358985275578,0.0110866509315883,0.002567,0.004382,0.005261,0.101754,0.262209,313.772731,25.507734,0.999637,0.993632,0.003243,0.426054,-0.000004,0.000028,-0.000013,0.000032,-0.000008,-70.457998,0.000034,
2491,2533,5.08705751217434,-2.42590953553989,-0.00892318103916523,0.002721,0.004385,0.005390,0.106024,0.246149,322.607461,23.890382,0.999734,0.988716,0.003970,0.443974,0.000017,-0.000034,0.000018,0.000023,-0.000040,17.626301,0.000040,
2326,2818,1.43662933414496,3.78128918564913,-0.011073251740811,0.002678,0.004160,0.007108,0.100324,0.250599,317.754341,24.852153,0.999489,0.990740,0.003890,0.441206,-0.000004,0.000048,-0.000012,0.000051,-0.000006,-77.792694,0.000055,
2311,2968,1.08458576212464,7.04165554101965,0.00918886347170655,0.002803,0.004524,0.003421,0.119303,0.277026,315.505686,25.229462,0.999912,0.997058,0.002636,0.392546,-0.000007,0.000014,-0.000019,0.000026,-0.000019,-59.459950,0.000026,
2191,2863,-1.50568032512046,4.75326170431165,-0.0138849376086796,0.002746,0.004496,0.004436,0.114251,0.255113,317.253111,24.764197,0.999322,0.990629,0.003773,0.433826,0.000008,0.000044,-0.000001,0.000044,0.000008,-88.957007,0.000056,
2206,2698,-1.15296412557221,1.16409269155821,-0.0245900011655635,0.002423,0.003643,0.011789,0.075512,0.248790,319.763386,24.523506,0.999422,0.991804,0.003706,0.507413,0.000014,0.000038,-0.000009,0.000041,0.000010,-71.572568,0.000055,
2431,2503,3.78504086170514,-3.08455351826224,0.00455662916209576,0.002730,0.003494,0.010557,0.087753,0.229239,323.056917,23.852339,0.999324,0.985451,0.004619,0.469536,0.000009,-0.000001,-0.000001,0.000009,-0.000001,-7.593238,0.000010,
2416,2188,3.52209293089187,-9.97800005811394,0.0268498997601228,0.002665,0.004048,0.004109,0.108675,0.237654,328.341101,23.004819,0.999313,0.982752,0.005038,0.314039,-0.000001,0.000003,-0.000013,0.000015,-0.000012,-49.511252,0.000016,
2161,2458,-2.08926209510014,-4.070713760049,-0.00481081658938365,0.002751,0.004137,0.006388,0.108406,0.281644,323.991706,24.373897,0.999187,0.987389,0.004543,0.520748,-0.000004,0.000017,-0.000020,0.000029,-0.000016,-58.770733,0.000029,
2431,2263,3.83304418149574,-8.33250377974148,0.00733001543744649,0.002863,0.003847,0.010191,0.095155,0.253467,326.975329,23.169119,0.999198,0.978895,0.005557,0.350653,-0.000008,0.000009,-0.000017,0.000020,-0.000019,-57.760522,0.000022,
2371,2278,2.5215032537915,-8.00531634573385,0.0208618239538509,0.002534,0.004020,0.002752,0.107956,0.232711,326.792438,23.509394,0.999796,0.993668,0.003589,0.298666,-0.000001,0.000000,-0.000004,0.000004,-0.000005,-48.819170,0.000005,
2386,3208,2.67023129653141,12.2550434268933,0.0364897815422296,0.002566,0.004473,0.007770,0.092156,0.252915,311.773351,26.030514,0.999470,0.991809,0.003618,0.433349,0.000008,0.000042,0.000001,0.000042,0.000008,88.133380,0.000054,
2446,2563,4.0996968921615,-1.77130464791922,-0.00734566777310874,0.003086,0.004095,0.008875,0.110282,0.271198,322.030700,24.130503,0.999590,0.987882,0.004441,0.415350,0.000021,-0.000011,-0.000006,0.000022,-0.000012,-9.509927,0.000022,
2266,3253,0.0565112126519907,13.2203031887653,0.0286689698235705,0.002898,0.004280,0.007959,0.109105,0.263832,311.052879,25.513847,0.999746,0.993297,0.003424,0.445760,0.000007,0.000049,0.000005,0.000049,0.000006,83.384012,0.000061,
2311,2083,1.24862826114579,-12.2780684211435,0.0245944739102129,0.003201,0.004109,0.006633,0.125523,0.280116,329.987927,23.329824,0.999441,0.981736,0.005276,0.328507,0.000015,0.000065,0.000003,0.000065,0.000015,86.761101,0.000085,
2446,2188,4.17753396355066,-9.97840834749017,0.0280528630387948,0.002722,0.004161,0.006751,0.101226,0.270305,328.394961,22.819727,0.999602,0.985614,0.004750,0.376039,0.000010,0.000009,-0.000018,0.000027,-0.000008,-44.542372,0.000027,
2266,2983,0.103331035124167,7.364155621723,0.00248003123658691,0.002837,0.004090,0.007963,0.105942,0.246693,315.247271,25.088470,0.999556,0.991994,0.003789,0.414021,-0.000010,0.000022,-0.000005,0.000023,-0.000011,-81.692559,0.000023,
2356,2218,2.20516405281443,-9.32003664515833,0.0203440620961715,0.002725,0.003586,0.008742,0.095571,0.254877,327.739404,23.314236,0.998581,0.978169,0.005842,0.415572,-0.000001,0.000008,-0.000016,0.000020,-0.000013,-53.048208,0.000021,
2146,2398,-2.40524096341427,-5.38171303675383,0.000826494114733123,0.002883,0.003934,0.004263,0.120953,0.234919,325.076425,24.405831,0.998737,0.985373,0.004885,0.441633,-0.000013,0.000015,-0.000024,0.000028,-0.000027,-60.215156,0.000032,
2431,2038,3.88049218969496,-13.2712496567512,0.0385100470419957,0.002814,0.003829,0.006941,0.104704,0.246376,330.878463,22.371677,0.999082,0.975760,0.005905,0.347426,0.000032,0.000012,0.000012,0.000038,0.000006,24.788975,0.000048,
2401,2368,3.15722253100817,-6.03471580112404,0.00252874814100323,0.002657,0.004112,0.006596,0.099614,0.263761,325.199117,23.543098,0.998881,0.980508,0.005193,0.452927,0.000008,0.000038,0.000017,0.000045,0.000000,66.018563,0.000053,
2311,2773,1.11971352620251,2.80084085513073,-0.00841946261022031,0.003206,0.004382,0.003160,0.138448,0.257872,318.556746,24.727995,0.999537,0.991730,0.003835,0.460349,0.000009,0.000059,-0.000009,0.000060,0.000007,-80.283473,0.000074,
2281,3103,0.408628895957051,9.96960348530621,0.0187855160143044,0.002850,0.004377,0.006914,0.109925,0.250466,313.403982,25.361287,0.999627,0.992731,0.003560,0.400139,-0.000005,0.000026,-0.000017,0.000034,-0.000012,-66.074924,0.000034,
2251,3178,-0.254293920627326,11.5920610033387,0.0465777564708105,0.002893,0.004226,0.010036,0.102194,0.258113,312.453269,25.332972,0.999408,0.991403,0.003600,0.431024,-0.000001,0.000033,-0.000007,0.000034,-0.000003,-79.235900,0.000038,
2296,3148,0.726491619301338,10.9465098417433,0.032732904928821,0.002405,0.004505,0.009097,0.081922,0.271717,312.737483,25.509636,0.999624,0.992703,0.003588,0.417352,-0.000001,0.000028,-0.000013,0.000033,-0.000006,-69.577620,0.000035,
2416,3268,3.30839466320593,13.5607317912117,0.0128902037584453,0.002850,0.004450,0.010140,0.096185,0.283923,310.620318,26.353151,0.999543,0.991412,0.003682,0.473853,-0.000006,0.000051,0.000001,0.000051,-0.000006,88.564777,0.000056,
2476,2443,4.77862249040149,-4.39335493076983,0.000715023239706625,0.002619,0.003780,0.008362,0.089952,0.247472,324.093794,23.614163,0.999165,0.985645,0.004818,0.400870,0.000020,-0.000023,0.000024,0.000030,-0.000034,24.290566,0.000037,
2326,3283,1.35082364449884,13.8777529063461,0.00176864807519905,0.002788,0.004455,0.007151,0.105789,0.271791,310.262370,25.897981,0.999660,0.994352,0.002974,0.455961,-0.000002,0.000047,0.000012,0.000050,-0.000005,76.500824,0.000056,
2191,2623,-1.46481890830796,-0.470714192221813,-0.0131168884998942,0.002576,0.004180,0.003796,0.108111,0.238428,321.152133,24.507150,0.999205,0.986036,0.004595,0.440112,0.000007,0.000022,-0.000003,0.000023,0.000007,-79.768216,0.000031,
2341,2878,1.75095561136417,5.08679715351901,-0.0155034401420266,0.002521,0.003839,0.009539,0.084267,0.227804,316.718555,24.945634,0.999491,0.990294,0.004026,0.486350,-0.000010,0.000035,-0.000017,0.000040,-0.000015,-71.289474,0.000041,
2326,2833,1.43293733915768,4.10968630311536,-0.0220395832659506,0.002622,0.004170,0.007187,0.097541,0.260506,317.414486,24.978336,0.999812,0.992856,0.003577,0.359504,-0.000008,0.000054,-0.000013,0.000057,-0.000011,-78.846334,0.000060,
2461,2308,4.47969191430522,-7.34709820460336,0.00567367637455618,0.002873,0.004213,0.002698,0.123222,0.244178,326.320934,23.195559,0.999054,0.975726,0.005838,0.350889,0.000014,0.000027,-0.000005,0.000029,0.000012,-71.279164,0.000042,
2311,3253,1.03239245104293,13.225262354853,0.0221623906329569,0.002710,0.004575,0.006526,0.104634,0.277173,310.935547,25.776774,0.999488,0.991665,0.003538,0.436414,0.000002,0.000043,-0.000001,0.000043,0.000002,-88.728713,0.000050,
2446,2323,4.14918475087774,-7.02028098099112,0.0100953299850062,0.002952,0.003901,0.007356,0.109479,0.247951,326.070068,23.210942,0.999287,0.979153,0.005352,0.453442,0.000002,0.000039,0.000000,0.000039,0.000002,89.758202,0.000046,
2206,2908,-1.1868327367337,5.73074247317612,-0.00484026882622857,0.002944,0.003945,0.004815,0.121910,0.242695,316.559893,24.782759,0.999582,0.992316,0.003698,0.474416,0.000005,0.000032,-0.000002,0.000032,0.000004,-85.260772,0.000040,
2131,2353,-2.72436929454386,-6.36408418125187,0.0014167949275361,0.003001,0.004287,0.004739,0.125190,0.263660,325.870858,24.482018,0.999244,0.985204,0.004773,0.417792,-0.000008,0.000002,-0.000021,0.000019,-0.000025,-51.397090,0.000026,
2326,2158,1.56174370576838,-10.6347189139541,0.0195964823169561,0.002907,0.004340,0.006364,0.112941,0.278236,328.719533,23.268457,0.999112,0.982768,0.005280,0.482557,0.000005,0.000005,-0.000005,0.000010,0.000000,-45.709149,0.000011,
2431,2278,3.82969823436376,-8.00540631550889,0.00741513714319808,0.002411,0.003806,0.009394,0.077419,0.247649,326.716423,23.098402,0.999230,0.976805,0.005815,0.467593,-0.000009,0.000021,-0.000009,0.000024,-0.000012,-74.232000,0.000024,
2446,2578,4.09566112850942,-1.44293364367046,-0.0166126923411412,0.003312,0.003479,0.014957,0.097772,0.271280,321.696550,24.189257,0.999637,0.990903,0.004065,0.410191,0.000021,0.000007,-0.000007,0.000024,0.000004,-22.770040,0.000030,
2356,2053,2.23877236552713,-12.9407878741528,0.0395715892865383,0.003126,0.004078,0.001603,0.139009,0.234190,330.603822,22.870635,0.998917,0.978452,0.005635,0.377559,0.000032,0.000033,0.000015,0.000047,0.000017,45.945091,0.000066,
2386,3223,2.66667533815861,12.5808587732889,0.0334508459375229,0.002230,0.004328,0.008751,0.073222,0.267661,311.482467,26.083503,0.999524,0.992358,0.003492,0.436975,0.000007,0.000044,0.000004,0.000045,0.000007,84.585134,0.000056,
2431,2053,3.87732543189776,-12.9413604140564,0.031524532261642,0.003051,0.003554,0.005118,0.122111,0.223312,330.596025,22.412081,0.998878,0.975287,0.006032,0.337399,0.000029,0.000022,0.000012,0.000037,0.000013,36.495710,0.000052,
2416,2203,3.51900116340348,-9.64992326893913,0.0199222074062391,0.003014,0.004144,0.003435,0.127138,0.234919,328.060147,22.919440,0.999315,0.981779,0.005265,0.447099,-0.000002,0.000011,-0.000017,0.000022,-0.000013,-55.817032,0.000022,
2416,1993,3.56240333157833,-14.2609755560514,0.0494306644312132,0.002829,0.003607,0.004556,0.114188,0.212407,331.680155,22.338223,0.999115,0.974136,0.006190,0.292207,0.000027,0.000020,0.000015,0.000039,0.000008,37.980418,0.000051,
2221,3028,-0.881022077644776,8.33760613702459,0.00901620628701494,0.003015,0.004386,0.005147,0.124157,0.250198,314.680719,25.003457,0.999652,0.993123,0.003361,0.436274,-0.000009,0.000012,-0.000009,0.000015,-0.000012,-69.970833,0.000016,
2416,2443,3.46964941574447,-4.3942241358377,-0.00167936516083955,0.002841,0.004171,0.006530,0.108191,0.273513,323.975392,23.731680,0.999502,0.986783,0.004573,0.469874,0.000014,0.000000,0.000019,0.000027,-0.000013,34.795247,0.000027,
2356,3148,2.02968831004823,10.9511790938371,0.0361833584019564,0.002480,0.004236,0.011213,0.076552,0.264493,312.728833,25.764293,0.999487,0.991676,0.003767,0.413840,0.000005,0.000035,-0.000006,0.000036,0.000004,-78.267466,0.000044,
2386,2293,2.84531705304515,-7.67660217187655,0.0101668736928673,0.002888,0.004063,0.005656,0.113702,0.253998,326.476535,23.391822,0.999827,0.994116,0.003395,0.419078,-0.000002,0.000017,0.000001,0.000018,-0.000002,86.249192,0.000019,
2461,2638,4.41069342937613,-0.133347543340776,-0.02033631924985,0.002820,0.004315,0.004126,0.115771,0.264560,320.738375,24.355718,0.999633,0.988937,0.004028,0.437218,0.000004,0.000018,-0.000019,0.000031,-0.000009,-55.606432,0.000032,
2161,2728,-2.13527514703575,1.81570735477229,-0.0216450178843388,0.002712,0.004263,0.005939,0.108210,0.257551,319.477770,24.595225,0.999421,0.989462,0.004167,0.470143,0.000007,0.000032,-0.000015,0.000039,0.000000,-64.976182,0.000045,
2401,2128,3.2066477295599,-11.2942802189925,0.0374143413422416,0.002650,0.003856,0.007523,0.095644,0.262182,329.365233,22.911526,0.999051,0.978614,0.005697,0.315849,0.000006,0.000000,-0.000009,0.000012,-0.000006,-35.941155,0.000012,
2386,2068,2.88986373858866,-12.6108542534832,0.0274813582693128,0.002655,0.003978,0.005267,0.104202,0.253808,330.243722,22.690262,0.999212,0.977563,0.005818,0.430158,0.000025,0.000032,0.000007,0.000036,0.000021,58.634136,0.000057,
2416,3283,3.30504515363547,13.8867258817447,0.00489255646260744,0.003027,0.004383,0.009318,0.107288,0.271029,310.317523,26.441129,0.999654,0.991620,0.003660,0.419173,-0.000010,0.000044,0.000003,0.000045,-0.000010,86.356904,0.000047,
2461,2398,4.46041537199507,-5.37781933493712,0.00276654564140699,0.002265,0.004103,0.005513,0.084853,0.266430,324.799996,23.464279,0.999570,0.985000,0.004920,0.442069,0.000022,0.000035,0.000013,0.000043,0.000015,58.654955,0.000060,
2476,2458,4.77602644056466,-4.06548980969831,0.00228156337669816,0.002924,0.004085,0.008064,0.105231,0.267717,323.878629,23.662615,0.999221,0.986207,0.004718,0.430708,0.000023,-0.000007,0.000019,0.000032,-0.000016,26.434732,0.000032,
2446,2338,4.14629028239923,-6.69212727377293,0.0191641388874473,0.002555,0.003565,0.010157,0.080780,0.250811,325.873947,23.337053,0.999198,0.980112,0.005277,0.384108,0.000004,0.000048,0.000005,0.000048,0.000003,83.386787,0.000058,
2326,3298,1.34781081385518,14.2024825532699,0.00294461266850021,0.002593,0.004552,0.008413,0.092550,0.289329,310.012728,25.891880,0.999708,0.994663,0.002966,0.512438,-0.000015,0.000058,0.000008,0.000059,-0.000016,83.916967,0.000061,
2356,2998,2.0562001728717,7.69652268859961,0.00800162000780347,0.002529,0.004270,0.009641,0.084297,0.269740,314.954374,25.415784,0.999590,0.991577,0.003719,0.389094,-0.000006,0.000011,-0.000015,0.000020,-0.000015,-59.373659,0.000021,
2416,2008,3.55925195046956,-13.933119527945,0.0533072256366722,0.002548,0.003521,0.007622,0.090138,0.224369,331.447576,22.262895,0.999076,0.972470,0.006311,0.430902,0.000029,0.000012,0.000010,0.000034,0.000007,25.343544,0.000044,
2311,2983,1.08198281902801,7.3664113124245,0.0156398350730456,0.002744,0.004482,0.006832,0.104849,0.270699,315.300831,25.204697,0.999684,0.994481,0.003144,0.442428,-0.000008,0.000011,-0.000016,0.000019,-0.000017,-60.876250,0.000021,
2446,2203,4.17346249976508,-9.64944351195539,0.0218226228899994,0.002178,0.004265,0.006911,0.075761,0.279560,328.075171,22.811198,0.999610,0.984583,0.004869,0.448839,0.000010,0.000014,-0.000023,0.000035,-0.000011,-47.082223,0.000036,
2371,3073,2.36923906144046,9.32582438266259,0.0161368503842141,0.002927,0.004631,0.005830,0.116044,0.278562,313.830925,25.624071,0.999578,0.991401,0.003684,0.433144,0.000003,0.000029,-0.000009,0.000032,0.000000,-72.337964,0.000037,
2191,2878,-1.50781209583579,5.07999659804601,-0.0082091494759311,0.002990,0.004274,0.007231,0.116706,0.266727,317.058339,24.871036,0.999801,0.994681,0.003127,0.352840,0.000008,0.000045,0.000000,0.000045,0.000008,89.789567,0.000057,
2371,2293,2.51913418346053,-7.67751550769735,0.023299103313775,0.002959,0.004121,0.004359,0.121775,0.253197,326.584278,23.503773,0.999769,0.994044,0.003512,0.367828,0.000001,0.000013,0.000002,0.000013,0.000000,78.694595,0.000015,
2506,2383,5.44736866123363,-5.7069042113406,0.0147163656274643,0.002910,0.003788,0.008969,0.100291,0.246060,325.280036,23.267441,0.998583,0.980005,0.005549,0.414779,0.000065,0.000048,0.000023,0.000082,0.000032,35.088840,0.000117,
2491,2788,5.03359092491719,3.13831010626695,-0.0236745931982227,0.002872,0.004337,0.005459,0.112878,0.256276,318.336579,24.963786,0.999366,0.986601,0.004344,0.390169,0.000001,0.000064,-0.000015,0.000068,-0.000002,-77.226177,0.000077,
2506,2623,5.39558154685084,-0.461835947448563,-0.00953983355009314,0.002646,0.004201,0.005108,0.103469,0.246886,321.180292,24.114800,0.999838,0.993975,0.003483,0.564912,0.000004,-0.000005,0.000001,0.000004,-0.000005,8.402454,0.000005,
2506,2863,5.34489630036255,4.77190100838195,-0.0217102410055645,0.002941,0.004361,0.008334,0.104809,0.265496,317.163431,25.247081,0.999678,0.992427,0.003550,0.431639,-0.000001,0.000024,-0.000010,0.000028,-0.000004,-70.439352,0.000030,
2326,2848,1.43062686371648,4.43408736456634,-0.012832434157076,0.002522,0.004284,0.008782,0.087496,0.264335,317.237835,24.899751,0.999742,0.991898,0.003694,0.475905,-0.000006,0.000044,-0.000016,0.000049,-0.000011,-73.702085,0.000052,
2311,3268,1.02942582025821,13.550712661137,0.0163415510749587,0.002873,0.004672,0.005267,0.116447,0.272829,310.652299,25.811543,0.999536,0.992565,0.003350,0.428120,0.000003,0.000041,0.000006,0.000042,0.000002,81.807473,0.000049,
2356,2233,2.20176523319681,-8.9910373630025,0.0146451275695654,0.002472,0.003605,0.007070,0.089880,0.238964,327.444047,23.350364,0.997959,0.974526,0.006321,0.405034,-0.000003,-0.000001,-0.000010,0.000008,-0.000012,-47.653253,0.000012,
2431,2518,3.78241684135137,-2.75717061765337,0.00750114047860961,0.002661,0.003922,0.008340,0.092952,0.254125,322.843147,23.882756,0.999109,0.983764,0.004867,0.514983,0.000008,-0.000008,0.000000,0.000008,-0.000008,-0.598393,0.000009,
2416,3298,3.30065272196341,14.212000031275,-0.00930624012926273,0.002799,0.004376,0.010299,0.093177,0.270000,309.937656,26.422424,0.999642,0.992085,0.003582,0.483112,-0.000016,0.000045,-0.000008,0.000046,-0.000017,-83.043167,0.000047,
2326,3028,1.39945554269608,8.34521252496516,0.0147985212285562,0.002778,0.004464,0.007910,0.102427,0.262865,314.546131,25.369519,0.999580,0.991172,0.003726,0.410640,-0.000005,0.000010,-0.000016,0.000021,-0.000015,-57.900048,0.000021,
2401,2383,3.154455451181,-5.70591020414475,-0.000160259964616216,0.002802,0.004444,0.003756,0.116666,0.249255,324.950565,23.646160,0.999232,0.983860,0.004929,0.382736,0.000012,0.000031,0.000012,0.000037,0.000007,64.091315,0.000047,
2461,2413,4.45840721380669,-5.05049289162898,0.00627053724525695,0.002934,0.004391,0.004796,0.118339,0.274469,324.619847,23.479075,0.999522,0.985619,0.004846,0.491219,0.000016,0.000024,0.000021,0.000041,-0.000001,50.300120,0.000047,
2266,2998,0.101131866078791,7.68948236345125,0.00799315840475856,0.002891,0.004186,0.007286,0.110697,0.250037,315.053425,25.103638,0.999442,0.990720,0.003858,0.426989,-0.000012,0.000016,-0.000006,0.000017,-0.000013,-78.027755,0.000018,
2206,2713,-1.15478438937005,1.49026936552551,-0.0193263048409449,0.002728,0.003623,0.010488,0.093714,0.253267,319.582041,24.539527,0.998743,0.986456,0.004653,0.512943,0.000012,0.000032,-0.000013,0.000039,0.000006,-62.831755,0.000048,
2146,2413,-2.40875321889316,-5.05258461093374,-0.00856885715234057,0.002618,0.004046,0.006844,0.101012,0.263925,324.735472,24.438161,0.998431,0.985895,0.005190,0.447880,-0.000010,0.000014,-0.000027,0.000031,-0.000028,-57.066261,0.000035,
2476,2473,4.77191304388573,-3.73636248516788,-0.015357458494293,0.003179,0.004066,0.006103,0.124341,0.258549,323.506607,23.683859,0.999538,0.989264,0.004214,0.458886,0.000010,-0.000009,0.000020,0.000022,-0.000021,32.548715,0.000025,
2416,2458,3.4663763939906,-4.06566212368869,-0.00944001810421469,0.002998,0.004426,0.004751,0.121970,0.274249,323.680889,23.776469,0.999419,0.985740,0.004741,0.475050,0.000013,0.000005,0.000014,0.000023,-0.000006,37.036787,0.000024,
2371,3163,2.3530883856117,11.2779016955184,0.0339466897182774,0.002789,0.004465,0.007617,0.103325,0.274644,312.493811,25.841764,0.999497,0.991187,0.003772,0.451161,0.000007,0.000041,-0.000004,0.000041,0.000006,-83.104214,0.000052,
2296,3163,0.724488545108148,11.2713916184949,0.0433798132032166,0.002472,0.004344,0.010421,0.080499,0.269462,312.579791,25.558243,0.999706,0.992105,0.003554,0.395396,0.000001,0.000031,-0.000012,0.000036,-0.000003,-70.453659,0.000040,
2341,2203,1.879994868754,-9.64772479378342,0.0118461948071626,0.002420,0.004122,0.003243,0.101194,0.256434,327.914554,23.333627,0.999038,0.982334,0.005338,0.432178,-0.000005,0.000017,-0.000013,0.000023,-0.000011,-65.659413,0.000023,
2461,2653,4.40779735794478,0.193427084435712,-0.0133621009015883,0.002753,0.004050,0.008706,0.095380,0.263526,320.532216,24.432983,0.999614,0.988975,0.004021,0.413826,-0.000001,0.000024,-0.000018,0.000033,-0.000010,-62.384077,0.000034,
2491,2548,5.08350104325723,-2.09860857580981,-0.00693645994255121,0.002357,0.003831,0.008645,0.076640,0.246290,322.350864,23.940432,0.999741,0.987949,0.004175,0.453889,0.000016,-0.000049,0.000007,0.000017,-0.000049,6.009245,0.000050,
2371,2128,2.55020263577711,-11.2931508804215,0.0183328320839564,0.002853,0.004153,0.003566,0.119594,0.249622,329.204922,22.950203,0.999208,0.980201,0.005471,0.438227,0.000011,0.000009,-0.000003,0.000013,0.000007,-37.768613,0.000021,
2386,3238,2.66291010436229,12.9067335343087,0.0216075343781768,0.002306,0.004368,0.008842,0.076342,0.258843,311.139864,26.119953,0.999590,0.992454,0.003395,0.433739,0.000005,0.000045,0.000005,0.000046,0.000005,83.527635,0.000056,
2431,2293,3.82702007455214,-7.67762132919653,0.0164190531959321,0.002264,0.003075,0.012837,0.057712,0.242168,326.529271,23.184988,0.999135,0.979139,0.005546,0.427433,-0.000008,0.000027,-0.000006,0.000028,-0.000009,-80.945760,0.000029,
2461,2323,4.47662892558286,-7.01991081021863,0.00663679271048068,0.002997,0.003967,0.005630,0.117811,0.242321,326.081266,23.153517,0.999078,0.977734,0.005598,0.447344,0.000010,0.000043,0.000002,0.000043,0.000010,86.166651,0.000056,
2401,2143,3.20329369621627,-10.9653923783148,0.0263195572122186,0.002736,0.004450,0.003108,0.115789,0.273080,329.051319,22.817758,0.999100,0.977092,0.005671,0.469213,0.000005,-0.000006,-0.000011,0.000012,-0.000013,-32.305803,0.000014,
2446,2353,4.14334443350868,-6.36431528566688,0.0161607203211247,0.002543,0.003893,0.006349,0.094509,0.235592,325.620060,23.335630,0.999306,0.981499,0.005342,0.424361,0.000008,0.000054,0.000012,0.000057,0.000005,76.671270,0.000069,
2356,2068,2.23572879908396,-12.611227869011,0.0382288013291259,0.003025,0.004331,0.001694,0.134162,0.249515,330.346077,22.910378,0.999143,0.978517,0.005541,0.395428,0.000027,0.000044,0.000019,0.000056,0.000015,57.184270,0.000074,
2206,2923,-1.18949124160043,6.05783791447705,-0.0023559515859688,0.002901,0.004443,0.007513,0.111535,0.266804,316.325175,24.898905,0.999288,0.989334,0.004131,0.398336,0.000001,0.000033,-0.000001,0.000033,0.000001,-87.564929,0.000039,
2341,3088,1.71335261426421,9.64903409730036,0.0106247410242304,0.002411,0.004211,0.008760,0.082293,0.262154,313.504034,25.521855,0.999608,0.993811,0.003212,0.447545,-0.000001,0.000025,-0.000017,0.000034,-0.000009,-64.111481,0.000035,
2431,2068,3.87343838104548,-12.6115273417006,0.0296461050199355,0.002470,0.003564,0.007241,0.087769,0.246986,330.303854,22.463959,0.998498,0.973247,0.006429,0.362871,0.000025,0.000031,0.000015,0.000043,0.000013,50.893763,0.000059,
2506,2398,5.44292090753756,-5.37706017446046,-0.000341105843176592,0.002621,0.004054,0.006125,0.098185,0.256495,324.908204,23.327869,0.998840,0.982578,0.005107,0.428020,0.000065,0.000037,0.000025,0.000079,0.000022,30.410823,0.000107,
2476,2713,4.72214192961843,1.50168916707902,-0.0203050517435486,0.002660,0.004340,0.005641,0.102598,0.258949,319.539395,24.544119,0.999663,0.989059,0.004189,0.517458,-0.000002,0.000064,-0.000007,0.000065,-0.000003,-83.758135,0.000073,
2311,2788,1.11718063808929,3.12640496606969,-0.00277709798399428,0.003327,0.004225,0.007337,0.129663,0.256668,318.351371,24.717595,0.999638,0.993538,0.003580,0.501953,0.000010,0.000064,-0.000007,0.000065,0.000009,-82.245590,0.000081,
2416,2023,3.55475330393496,-13.5994550311588,0.0403914529122176,0.002172,0.003684,0.008935,0.068246,0.258388,331.074586,22.510423,0.998640,0.973342,0.006300,0.269610,0.000024,0.000010,0.000005,0.000026,0.000009,17.501841,0.000036,
2341,1993,1.92092329008417,-14.2580089610613,0.0390707790379565,0.002742,0.002170,0.012603,0.082557,0.197476,331.506519,22.836621,0.998667,0.976204,0.006247,0.312082,0.000044,0.000030,0.000008,0.000048,0.000026,23.812330,0.000075,
2356,3163,2.02732949200227,11.2760524163962,0.0403796621129686,0.002618,0.004318,0.010792,0.084470,0.274985,312.526320,25.761345,0.999405,0.991811,0.003897,0.464952,0.000005,0.000041,-0.000005,0.000042,0.000004,-81.590172,0.000050,
2506,2878,5.34320854267402,5.09700931311254,-0.00879351156413577,0.002910,0.004790,0.004316,0.119088,0.260671,317.041418,25.278643,0.999697,0.993014,0.003424,0.455852,-0.000002,0.000025,-0.000003,0.000025,-0.000003,-83.256116,0.000028,
2461,2428,4.45465356762006,-4.72197557876682,-0.0010649624628627,0.002945,0.004325,0.006324,0.113063,0.271529,324.309891,23.516429,0.999285,0.983972,0.005010,0.507158,0.000010,0.000016,0.000024,0.000037,-0.000011,48.147799,0.000038,
2446,2593,4.09236947781383,-1.11557892089314,-0.0233942076361018,0.002790,0.004600,0.005425,0.109787,0.274972,321.408121,24.178611,0.999679,0.992292,0.003858,0.477593,0.000021,0.000007,0.000000,0.000021,0.000007,-1.325698,0.000029,
2356,3013,2.0532715191513,8.02195589190115,0.00536547086750261,0.002378,0.004303,0.006083,0.089851,0.255576,314.692965,25.408355,0.999540,0.990903,0.003821,0.420429,-0.000005,0.000010,-0.000019,0.000023,-0.000018,-55.787944,0.000024,
2416,2218,3.51522005366493,-9.31925195871406,0.0121984941179676,0.002679,0.004504,0.001769,0.118064,0.265751,327.743359,23.035680,0.999352,0.982983,0.005199,0.412346,-0.000003,0.000010,-0.000013,0.000019,-0.000011,-57.840954,0.000019,
2476,2488,4.76931542077513,-3.40955050339412,-0.00890486046426986,0.002717,0.004473,0.001559,0.120580,0.249138,323.313600,23.720900,0.999561,0.986417,0.004417,0.469995,0.000011,-0.000012,0.000013,0.000017,-0.000018,23.765792,0.000020,
2266,3013,0.0985946067347463,8.01457998199603,0.0132382972204823,0.002781,0.004191,0.008749,0.100818,0.260066,314.842733,25.092632,0.999354,0.990448,0.003835,0.472795,-0.000014,0.000010,-0.000010,0.000013,-0.000017,-70.503239,0.000018,
2491,2803,5.03045892135914,3.4647535571216,-0.021750736994079,0.002869,0.004318,0.008031,0.102848,0.257326,318.097914,25.010705,0.999215,0.986157,0.004648,0.403007,0.000007,0.000052,-0.000013,0.000056,0.000003,-74.952520,0.000066,
2371,2308,2.5151408871231,-7.34902502334058,0.0136537659586793,0.002723,0.003920,0.006230,0.104297,0.253572,326.244000,23.465694,0.999841,0.995442,0.003100,0.450004,0.000004,0.000011,0.000010,0.000019,-0.000003,54.242511,0.000020,
2191,2638,-1.46707534462741,-0.144066759038864,-0.0149985286119545,0.003031,0.004261,0.004321,0.127447,0.240456,320.912642,24.486286,0.999460,0.988042,0.004317,0.478044,0.000010,0.000023,-0.000004,0.000024,0.000009,-73.016952,0.000034,
2386,2308,2.8413732424736,-7.34788831678498,0.00140655855261684,0.002603,0.004067,0.006674,0.097052,0.267768,326.144188,23.370711,0.999782,0.993871,0.003473,0.499913,0.000002,0.000015,0.000009,0.000019,-0.000003,63.186663,0.000021,
2356,2248,2.19884385491234,-8.66215654705714,0.0141209052794125,0.002719,0.003582,0.010864,0.087895,0.253485,327.195215,23.404340,0.998884,0.980634,0.005508,0.407053,-0.000004,-0.000014,-0.000011,0.000003,-0.000021,-33.517686,0.000023,
2161,2473,-2.09152911056444,-3.7429747171832,-0.00487710385755236,0.002824,0.004313,0.004176,0.118579,0.280789,323.758687,24.417647,0.999152,0.985983,0.004861,0.487417,-0.000001,0.000028,-0.000011,0.000032,-0.000005,-71.410764,0.000034,
2341,2893,1.74923669132502,5.41377338205145,-0.00626511500354354,0.002762,0.004455,0.007440,0.102958,0.259207,316.569184,25.087231,0.999351,0.990127,0.004006,0.412350,-0.000013,0.000026,-0.000016,0.000031,-0.000018,-70.412505,0.000031,
2416,2038,3.55130353410669,-13.2703847712102,0.0303395179661834,0.002368,0.003796,0.007683,0.081832,0.245632,330.763426,22.425175,0.998810,0.973416,0.006207,0.393719,0.000018,0.000012,-0.000003,0.000019,0.000011,-22.266333,0.000031,
2371,3178,2.34982673192494,11.6034534478816,0.0313792004210995,0.002669,0.004491,0.008442,0.094851,0.268138,312.217887,25.882271,0.999496,0.991708,0.003622,0.443976,0.000008,0.000044,-0.000004,0.000045,0.000008,-84.180211,0.000057,
2431,2308,3.8248265096526,-7.3480542075262,0.0174535822099529,0.002531,0.004035,0.007419,0.090296,0.262545,326.327071,23.332903,0.999154,0.982215,0.005132,0.351932,-0.000006,0.000024,-0.000001,0.000024,-0.000006,-87.520341,0.000026,
2506,2638,5.39233594184696,-0.133408551258682,-0.0101437613569146,0.002704,0.004102,0.006721,0.099874,0.243701,320.926815,24.277379,0.999715,0.991603,0.003874,0.460774,-0.000005,0.000010,-0.000013,0.000017,-0.000013,-60.533273,0.000018,
2371,3088,2.36637365228361,9.65057171445386,0.022723707132684,0.002613,0.004257,0.008261,0.092691,0.248288,313.617778,25.648943,0.999361,0.989465,0.004083,0.417553,0.000006,0.000028,-0.000011,0.000032,0.000001,-67.042571,0.000038,
2431,1993,3.88950498720567,-14.259039358348,0.037204163953561,0.002787,0.003818,0.004333,0.113024,0.227695,331.600536,22.293708,0.999214,0.975135,0.005957,0.245891,0.000047,0.000014,0.000039,0.000073,-0.000012,33.664259,0.000078,
2401,2398,3.15143619124355,-5.37878977087699,0.00385709599510164,0.002591,0.003946,0.006396,0.097290,0.251366,324.722092,23.647997,0.999310,0.984701,0.004877,0.429984,0.000013,0.000031,0.000018,0.000043,0.000002,58.087927,0.000051,
2386,2083,2.88722485252149,-12.281145890767,0.0277367296617399,0.002972,0.004008,0.006297,0.115055,0.279345,330.014622,22.757633,0.999082,0.974618,0.005947,0.434848,0.000021,0.000030,0.000006,0.000033,0.000018,63.437925,0.000052,
2416,2473,3.46394911936068,-3.73972280237798,0.00164863920673497,0.002671,0.004217,0.005373,0.104637,0.248623,323.513666,23.787056,0.999293,0.984928,0.004802,0.487506,0.000008,-0.000004,0.000012,0.000015,-0.000012,31.156250,0.000016,
2326,2863,1.42867806436748,4.76010632098707,-0.0114566075870925,0.003073,0.004142,0.006242,0.121489,0.229429,317.039089,24.953534,0.999716,0.991395,0.003761,0.421431,-0.000005,0.000039,-0.000019,0.000046,-0.000011,-69.720588,0.000048,
2491,2563,5.08015795672852,-1.77059540628096,-0.0108139049481224,0.002519,0.003880,0.009775,0.079790,0.255329,322.077470,23.999720,0.999575,0.988452,0.004384,0.463467,0.000013,-0.000030,0.000009,0.000014,-0.000032,11.164109,0.000032,
2431,2083,3.86993119878165,-12.2807015766719,0.0221212187385049,0.002764,0.003298,0.009708,0.092028,0.252144,330.002936,22.568291,0.998717,0.976204,0.006264,0.317180,0.000021,0.000029,0.000013,0.000039,0.000011,54.403676,0.000052,
2341,2218,1.87764695214427,-9.31951352502652,0.0151107234128744,0.002626,0.004250,0.003247,0.110661,0.267224,327.709231,23.358940,0.998987,0.981206,0.005469,0.456591,-0.000007,0.000012,-0.000014,0.000020,-0.000014,-61.735360,0.000021,
2146,2428,-2.41054849421808,-4.72527185768359,-0.00626910105023626,0.003046,0.003835,0.005719,0.124041,0.234437,324.535575,24.478891,0.998977,0.986253,0.004853,0.387038,-0.000008,0.000005,-0.000021,0.000020,-0.000023,-53.786436,0.000025,
2341,2008,1.91805174878254,-13.927107004325,0.0343819439082154,0.002655,0.003617,0.007695,0.096145,0.245523,331.239037,22.905308,0.998768,0.974439,0.006400,0.331930,0.000049,0.000042,0.000021,0.000067,0.000025,40.185490,0.000095,
2506,2893,5.34070296496973,5.42383827764836,-0.00246988960202543,0.002999,0.004689,0.004633,0.121956,0.276320,316.851726,25.402807,0.999589,0.990154,0.003989,0.408038,0.000005,0.000012,-0.000009,0.000018,-0.000001,-56.156373,0.000020,
2386,3253,2.6597926126068,13.2328856710785,0.0107780405000426,0.002824,0.004683,0.007329,0.105795,0.269872,310.831750,26.173181,0.999680,0.992131,0.003358,0.433625,0.000002,0.000049,0.000005,0.000049,0.000001,84.562848,0.000058,
2461,2668,4.4047058312179,0.519704387765131,-0.0159148742584421,0.002861,0.003890,0.008307,0.101736,0.243819,320.273604,24.407606,0.999495,0.986828,0.004301,0.474402,0.000001,0.000029,-0.000018,0.000038,-0.000008,-63.647998,0.000040,
2206,2938,-1.19201206519287,6.38300397022319,0.00220124495410801,0.002757,0.004425,0.008903,0.100506,0.267281,316.108127,24.879677,0.999446,0.991470,0.003747,0.434140,0.000001,0.000031,0.000001,0.000032,0.000001,87.335882,0.000037,
2476,2728,4.71991981891663,1.82955406847239,-0.0161311665660264,0.003254,0.004237,0.006885,0.125084,0.255618,319.351846,24.721890,0.999632,0.990673,0.003727,0.393077,-0.000004,0.000058,-0.000002,0.000058,-0.000005,-88.380590,0.000064,
2446,2368,4.14000672565625,-6.0353884329211,0.0119680031303915,0.002558,0.003886,0.006360,0.095179,0.239737,325.342413,23.410909,0.999441,0.984444,0.004987,0.407443,0.000010,0.000046,0.000016,0.000052,0.000004,69.012418,0.000063,
2476,2503,4.7666423398713,-3.08266756774891,-0.00250571357383933,0.002925,0.003893,0.005848,0.113593,0.240384,323.116801,23.767267,0.999538,0.987230,0.004406,0.472430,0.000013,-0.000010,0.000003,0.000014,-0.000011,6.732626,0.000014,
2371,2143,2.54757688238564,-10.9636312368827,0.0193436611529023,0.003042,0.004090,0.003886,0.127104,0.253990,328.978616,23.051697,0.999090,0.978121,0.005657,0.385229,0.000009,-0.000002,-0.000006,0.000012,-0.000005,-25.449857,0.000012,
2431,2533,3.77950534816474,-2.4279837644176,0.00303072419200134,0.002831,0.004297,0.005075,0.112984,0.262830,322.581465,24.032880,0.999334,0.986922,0.004500,0.424694,0.000013,-0.000015,-0.000003,0.000014,-0.000015,-5.268115,0.000017,
2506,2653,5.38830897950211,0.195303765765033,-0.0178736273247182,0.002653,0.003723,0.009116,0.088191,0.268195,320.605351,24.383542,0.999570,0.987706,0.004462,0.441045,-0.000007,0.000020,-0.000013,0.000025,-0.000013,-68.128000,0.000025,
2506,2413,5.44063494780191,-5.04995369840903,0.00502494950751498,0.002808,0.004331,0.003996,0.115080,0.264059,324.726965,23.341342,0.998986,0.982781,0.005232,0.484744,0.000059,0.000033,0.000035,0.000084,0.000008,34.844469,0.000102,
2371,2323,2.51176819176462,-7.02127378987394,0.0142747365918581,0.002405,0.003481,0.009314,0.078601,0.237965,325.981217,23.484160,0.999579,0.991518,0.003907,0.458912,0.000005,0.000011,0.000013,0.000021,-0.000005,52.056604,0.000022,
2161,2488,-2.09483384941402,-3.4150693724877,-0.01327169309684,0.002628,0.004329,0.005124,0.106716,0.290282,323.434269,24.395212,0.998947,0.985621,0.004916,0.530921,-0.000002,0.000036,-0.000015,0.000041,-0.000008,-70.795706,0.000044,
2401,2158,3.20052213438138,-10.6367860569589,0.0274995145334742,0.002988,0.003740,0.005543,0.118270,0.227215,328.821932,22.892944,0.999169,0.977506,0.005579,0.396498,-0.000002,-0.000014,-0.000018,0.000012,-0.000027,-36.048499,0.000027,
2191,2653,-1.4700368586071,0.183244327405255,-0.0159631984780049,0.002839,0.004000,0.006498,0.111721,0.241393,320.645402,24.540077,0.999510,0.989233,0.004138,0.440343,0.000011,0.000028,-0.000003,0.000028,0.000010,-78.779181,0.000040,
2446,2218,4.17059694481233,-9.32007593290183,0.0142235522189935,0.002849,0.004180,0.005754,0.110765,0.271904,327.804348,22.848041,0.999420,0.983159,0.005125,0.459460,0.000008,0.000011,-0.000021,0.000030,-0.000011,-46.612715,0.000031,
2371,3193,2.34743063459436,11.9285201350252,0.0365423886167378,0.002646,0.004470,0.007107,0.098536,0.263394,312.019036,25.925701,0.999474,0.991784,0.003630,0.435497,0.000009,0.000044,-0.000003,0.000045,0.000009,-85.012447,0.000058,
2206,2728,-1.15717317204276,1.81775659675172,-0.0213190499777625,0.002791,0.004246,0.006583,0.109232,0.267265,319.336748,24.611929,0.999177,0.988849,0.004169,0.471367,0.000012,0.000033,-0.000016,0.000041,0.000003,-61.219032,0.000050,
2446,2608,4.09025876780543,-0.789437064833947,-0.00727460642087863,0.002837,0.003662,0.011194,0.090072,0.262753,321.279591,24.275015,0.999405,0.988195,0.004292,0.421406,0.000015,0.000012,-0.000003,0.000017,0.000010,-33.830568,0.000028,
2491,2818,5.02758634724058,3.79090504579801,-0.0206804485428052,0.002753,0.004517,0.005351,0.107945,0.265892,317.867315,25.020836,0.999362,0.987450,0.004509,0.460242,0.000007,0.000035,-0.000006,0.000036,0.000005,-78.951454,0.000045,
2416,2053,3.54926279151949,-12.9417297055707,0.0349625729305671,0.002731,0.003343,0.005461,0.106366,0.211293,330.585189,22.494168,0.998693,0.973630,0.006258,0.340940,0.000015,0.000022,-0.000001,0.000022,0.000015,-81.724238,0.000037,
2356,2083,2.2312461630723,-12.2798901630439,0.0250001348456976,0.002740,0.003882,0.005996,0.105858,0.262091,329.965247,22.989875,0.999346,0.980573,0.005308,0.371582,0.000023,0.000042,0.000016,0.000051,0.000014,60.532970,0.000068,
2476,2518,4.76345973844127,-2.75471075276278,-0.00224127790977491,0.002785,0.003875,0.005907,0.106948,0.232758,322.868545,23.859679,0.999368,0.983383,0.004739,0.430100,0.000008,-0.000021,0.000004,0.000009,-0.000021,7.415083,0.000021,
2461,2443,4.45243601155904,-4.39420081222347,0.00543489459039392,0.003262,0.004241,0.006775,0.125874,0.269282,324.133621,23.620401,0.999063,0.984230,0.004977,0.456490,0.000019,-0.000017,0.000020,0.000028,-0.000026,24.101141,0.000031,
2431,2098,3.86712755309405,-11.9518485954424,0.0276954432694652,0.002659,0.003283,0.011819,0.079452,0.270903,329.794793,22.629007,0.999402,0.980408,0.005831,0.328441,0.000013,0.000017,0.000001,0.000017,0.000012,75.640481,0.000029,
2326,3043,1.39674975371842,8.67042861462663,0.0202346257448198,0.002519,0.004340,0.008656,0.087952,0.270059,314.332124,25.381388,0.999659,0.991999,0.003614,0.439699,-0.000003,0.000014,-0.000015,0.000023,-0.000012,-60.062232,0.000023,
2311,2998,1.07936575305815,7.69171330496628,0.0196907468559289,0.002756,0.004217,0.008934,0.098124,0.263067,315.083292,25.218465,0.999873,0.996096,0.002980,0.452385,-0.000010,0.000010,-0.000015,0.000018,-0.000018,-61.821822,0.000021,
2506,2668,5.38605069916769,0.52128488963087,-0.013794884049446,0.003029,0.003900,0.007726,0.110846,0.245589,320.418527,24.389629,0.999460,0.986155,0.004645,0.473703,-0.000002,0.000014,-0.000014,0.000022,-0.000010,-59.945393,0.000022,
2461,2338,4.47317372844812,-6.69119598802612,0.00789049902073202,0.002545,0.003750,0.006447,0.093974,0.232440,325.824689,23.267187,0.998983,0.977654,0.005543,0.380268,0.000010,0.000053,0.000010,0.000055,0.000007,77.607138,0.000068,
2491,2578,5.07821283589253,-1.4432515510479,-0.00630670019569379,0.003130,0.004050,0.008022,0.114631,0.264416,321.906080,24.075916,0.998802,0.980294,0.005418,0.455956,0.000011,-0.000011,0.000007,0.000013,-0.000013,16.096223,0.000015,
2401,2413,3.14866882139246,-5.05058384823778,0.00417348858348987,0.002693,0.004379,0.006076,0.103299,0.276052,324.487465,23.695872,0.999427,0.985180,0.004776,0.454038,0.000007,0.000021,0.000019,0.000034,-0.000006,55.356120,0.000037,
2356,3178,2.02484895771405,11.6016425305251,0.0398578636214779,0.002952,0.004470,0.009739,0.103541,0.267090,312.295110,25.818133,0.999508,0.992194,0.003730,0.437929,0.000007,0.000044,-0.000004,0.000044,0.000007,-83.190292,0.000055,
2386,2323,2.83775754455247,-7.01898793512763,-0.00318211249077649,0.002449,0.003820,0.009274,0.080598,0.274763,325.846552,23.421116,0.999686,0.991958,0.003923,0.502054,0.000002,0.000017,0.000012,0.000024,-0.000005,60.697856,0.000026,
2506,2908,5.33663584980355,5.75047572977427,-0.0101282396857982,0.002861,0.004453,0.006770,0.107245,0.263243,316.527556,25.440997,0.999566,0.988576,0.004136,0.417439,0.000011,-0.000004,0.000003,0.000011,-0.000005,10.087119,0.000011,
2386,2098,2.88315200510496,-11.9518744996744,0.0247633546422321,0.002430,0.003331,0.011419,0.071693,0.258210,329.704817,22.802074,0.998739,0.973017,0.006276,0.416014,0.000013,0.000020,0.000000,0.000020,0.000013,86.683528,0.000033,
2266,3028,0.0959728903957462,8.340640096777,0.0147707423370775,0.002605,0.004332,0.006697,0.099542,0.251621,314.609140,25.167383,0.999297,0.989818,0.003919,0.414352,-0.000013,0.000003,-0.000012,0.000010,-0.000019,-61.994497,0.000019,
2446,2383,4.13662736330626,-5.7063535520121,0.00820547649550463,0.002346,0.004163,0.004529,0.092394,0.249109,325.064709,23.500663,0.999738,0.987609,0.004602,0.381211,0.000014,0.000033,0.000006,0.000035,0.000013,74.113442,0.000049,
2296,3178,0.721538576325322,11.5967036361739,0.0379844014553896,0.002565,0.004332,0.008849,0.090104,0.267029,312.298556,25.553976,0.999669,0.992230,0.003537,0.425737,0.000005,0.000032,-0.000012,0.000037,0.000000,-69.771535,0.000043,
2416,2233,3.51236925804779,-8.99126717004883,0.0167654471448486,0.002630,0.004187,0.004514,0.105671,0.253998,327.526923,23.082218,0.999345,0.983767,0.005157,0.404147,-0.000002,0.000008,-0.000003,0.000009,-0.000003,-75.412693,0.000009,
2416,2488,3.46056245385406,-3.41199247292583,-0.00344302768922944,0.002968,0.003306,0.009409,0.103154,0.227663,323.226476,23.812416,0.999349,0.985964,0.004595,0.490380,0.000014,-0.000001,0.000007,0.000017,-0.000004,21.953009,0.000018,
2461,2458,4.44969664277329,-4.06575603444699,0.00571606181699735,0.003254,0.004986,0.003415,0.138443,0.291988,323.904749,23.707122,0.999371,0.985643,0.004730,0.448256,0.000020,-0.000005,0.000016,0.000028,-0.000013,26.164915,0.000028,
2431,2323,3.8217484245654,-7.02020221772366,0.0101211967900667,0.002679,0.004370,0.003266,0.112519,0.254583,326.045839,23.274344,0.999153,0.981451,0.005115,0.454588,-0.000004,0.000033,0.000005,0.000034,-0.000005,82.632567,0.000036,
2356,2263,2.19597765766801,-8.33368502958831,0.012189357218972,0.002459,0.004162,0.006006,0.093247,0.260497,326.942191,23.419326,0.999314,0.984171,0.005000,0.440185,-0.000007,-0.000019,-0.000013,0.000001,-0.000027,-32.151058,0.000031,
2341,2908,1.74684814222188,5.74044985188846,-0.00748476644611173,0.003176,0.004771,0.005951,0.127362,0.279919,316.338271,25.139734,0.999188,0.989819,0.004086,0.416722,-0.000013,0.000021,-0.000017,0.000028,-0.000020,-67.036777,0.000029,
2341,2023,1.91538975996579,-13.5980687262178,0.0306587615170315,0.002735,0.004428,0.003339,0.115252,0.244607,330.986187,22.870150,0.998888,0.975995,0.006147,0.406525,0.000044,0.000043,0.000023,0.000067,0.000020,44.157963,0.000092,
2506,2683,5.38170650905102,0.850055801449471,-0.0261242448784174,0.002840,0.003817,0.007671,0.102371,0.241964,320.061774,24.502016,0.999610,0.989833,0.003988,0.419557,0.000003,0.000041,-0.000008,0.000043,0.000001,-78.146221,0.000050,
2476,2743,4.71606648321819,2.15644132158638,-0.0224828370814407,0.002889,0.004251,0.005800,0.112513,0.264278,319.041585,24.718113,0.999712,0.991761,0.003654,0.462713,-0.000004,0.000084,-0.000003,0.000085,-0.000005,-88.351130,0.000095,
2416,2068,3.5458910403949,-12.612256651291,0.0316939770427211,0.002699,0.003293,0.007056,0.099070,0.224997,330.308865,22.507240,0.998701,0.975495,0.006283,0.393009,0.000012,0.000031,0.000005,0.000032,0.000011,75.895566,0.000045,
2371,2158,2.54496320883861,-10.6348778065239,0.0233719298208257,0.003018,0.004108,0.004399,0.124205,0.239281,328.767356,23.139758,0.999340,0.981240,0.005453,0.326263,0.000002,-0.000011,-0.000014,0.000011,-0.000019,-32.068671,0.000020,
2161,2503,-2.09742263964992,-3.08687259536231,-0.0233950951004545,0.003196,0.004223,0.004988,0.133178,0.270588,323.133542,24.418759,0.998922,0.984647,0.005023,0.499247,0.000004,0.000036,-0.000014,0.000041,-0.000001,-69.163909,0.000047,
2491,2833,5.02471664931259,4.11710726719367,-0.020252088794166,0.002852,0.004343,0.004524,0.115592,0.254255,317.633899,25.055220,0.999359,0.988259,0.004289,0.472747,0.000012,0.000021,-0.000003,0.000022,0.000011,-74.671234,0.000033,
2461,2683,4.40119860723426,0.847807265626329,-0.0204154188608641,0.002743,0.004002,0.008147,0.097031,0.259371,319.986424,24.503652,0.999535,0.987839,0.004227,0.448865,0.000006,0.000054,-0.000016,0.000059,0.000002,-73.206598,0.000069,
2341,3103,1.71209851662581,9.97394372088495,0.022590384098919,0.002857,0.004430,0.005953,0.112769,0.271162,313.389414,25.559520,0.999559,0.992700,0.003513,0.454453,0.000004,0.000031,-0.000014,0.000037,-0.000002,-66.951806,0.000042,
2506,2428,5.43808218979975,-4.72205729328032,0.00709408123987032,0.002910,0.004645,0.000654,0.132802,0.262755,324.518625,23.409204,0.998744,0.980402,0.005634,0.477947,0.000052,0.000017,0.000041,0.000078,-0.000010,33.409112,0.000085,
2206,2953,-1.19502140940326,6.70927494104543,-0.00580686189522339,0.002816,0.004705,0.007644,0.107320,0.282896,315.803248,24.862828,0.999443,0.991790,0.003706,0.482994,0.000000,0.000027,0.000004,0.000028,-0.000001,82.418078,0.000032,
2446,2623,4.08739759685189,-0.462127695850292,-0.00665949486574391,0.002676,0.004137,0.008149,0.094229,0.266183,321.044862,24.333211,0.999562,0.988404,0.004112,0.419483,0.000013,0.000019,-0.000010,0.000026,0.000005,-54.044606,0.000034,
2386,3268,2.65646150207435,13.5581572283844,0.00966546121247802,0.002587,0.004521,0.008643,0.090134,0.268605,310.560367,26.216298,0.999663,0.992174,0.003468,0.430654,-0.000002,0.000047,0.000011,0.000050,-0.000004,78.047451,0.000055,
2371,2338,2.50853480981008,-6.69202801199471,0.00706721593019211,0.002290,0.003868,0.005328,0.087654,0.237570,325.687149,23.552009,0.999107,0.984653,0.004882,0.434111,0.000006,0.000020,0.000014,0.000029,-0.000002,57.699866,0.000032,
2431,2113,3.86488347705596,-11.624589131929,0.0330489025153611,0.002843,0.003292,0.010535,0.092612,0.254173,329.611529,22.581859,0.999371,0.978915,0.005845,0.411424,0.000008,0.000002,-0.000003,0.000010,0.000001,-25.602827,0.000012,
2371,3208,2.34439599538515,12.2538224344223,0.0317477625088713,0.002755,0.004666,0.005726,0.108436,0.248472,311.742836,25.946498,0.999381,0.991885,0.003728,0.439595,0.000011,0.000043,-0.000001,0.000043,0.000011,-88.247737,0.000057,
2401,2173,3.19682677870865,-10.3071688395801,0.0239866799153674,0.002681,0.003851,0.007883,0.095819,0.241058,328.527721,22.956315,0.999190,0.980395,0.005331,0.395631,-0.000002,-0.000006,-0.000015,0.000011,-0.000019,-40.790311,0.000019,
2506,2923,5.33222311932981,6.0781128103776,-0.0224524599056508,0.002782,0.004217,0.008958,0.095082,0.262942,316.166198,25.530596,0.999465,0.985777,0.004336,0.388531,0.000018,-0.000012,-0.000004,0.000019,-0.000013,-7.889339,0.000019,
2461,2353,4.46956785830895,-6.36153192616845,-0.00223467272661537,0.002733,0.004163,0.005478,0.106371,0.250978,325.508986,23.332920,0.999175,0.982086,0.005340,0.389712,0.000013,0.000061,0.000017,0.000066,0.000007,72.205308,0.000081,
2431,2548,3.77681589184521,-2.10108943510965,0.00979910990650978,0.002833,0.003784,0.008334,0.100851,0.248460,322.382490,24.101031,0.999674,0.989329,0.004050,0.392992,0.000021,-0.000018,-0.000008,0.000022,-0.000020,-10.854990,0.000024,
2326,3058,1.39377916462881,8.99599524227932,0.0164119163011378,0.002641,0.004176,0.008686,0.093479,0.274247,314.060422,25.371701,0.999688,0.993311,0.003305,0.487106,-0.000004,0.000015,-0.000014,0.000023,-0.000011,-61.824138,0.000023,
2491,2593,5.07520468921205,-1.11539062067866,-0.00833735292576421,0.003047,0.004468,0.004108,0.125986,0.266549,321.656262,24.154125,0.999800,0.994359,0.003518,0.439512,0.000014,-0.000011,0.000013,0.000020,-0.000017,23.979585,0.000021,
2356,2098,2.22753468880344,-11.9501661276595,0.0196767088046954,0.002467,0.003658,0.008503,0.084532,0.255121,329.657803,23.035499,0.999330,0.979800,0.005401,0.361444,0.000015,0.000031,0.000010,0.000035,0.000011,63.950463,0.000048,
2446,2398,4.13287045725899,-5.37820016661103,0.00187082506573688,0.002398,0.003974,0.008072,0.081564,0.269179,324.757851,23.479993,0.999671,0.986516,0.004760,0.475920,0.000015,0.000033,0.000012,0.000039,0.000009,63.327095,0.000051,
2446,2233,4.16816172191482,-8.99206369594665,0.0226384957138634,0.002746,0.004188,0.005930,0.105410,0.260638,327.626855,22.936464,0.999125,0.978095,0.005614,0.413920,0.000008,0.000006,-0.000011,0.000018,-0.000004,-43.041334,0.000018,
2386,2338,2.83595046692215,-6.69148381022029,0.00738101159129201,0.002397,0.004252,0.005399,0.092247,0.270943,325.703763,23.509279,0.999130,0.984739,0.004814,0.454773,0.000004,0.000026,0.000014,0.000033,-0.000003,64.366818,0.000036,
2476,2533,4.76009155909925,-2.42598441098551,-0.00717489394605764,0.002847,0.004323,0.005418,0.111852,0.248046,322.587919,23.958072,0.999652,0.987543,0.004132,0.404951,0.000010,-0.000028,0.000003,0.000010,-0.000029,4.851189,0.000029,
2356,3193,2.02130189681643,11.9276938624237,0.0350600141471205,0.002599,0.004482,0.009321,0.088846,0.278317,311.993894,25.877378,0.999513,0.991730,0.003700,0.427389,0.000008,0.000042,-0.000004,0.000043,0.000008,-83.620706,0.000055,
2401,2428,3.14569167992709,-4.7227896196727,-0.00012427913867441,0.002732,0.004261,0.002992,0.116226,0.254263,324.221694,23.713902,0.999417,0.985151,0.004740,0.461202,0.000008,0.000017,0.000016,0.000029,-0.000005,52.696774,0.000032,
2491,2848,5.02183239679059,4.44440179093048,-0.0143410615808648,0.002707,0.004286,0.006366,0.101831,0.255706,317.424156,25.222397,0.999550,0.991543,0.003751,0.365685,0.000009,0.000024,-0.000013,0.000032,0.000001,-60.337762,0.000037,
2416,2503,3.45670944686598,-3.08269074181896,-0.0139700714914284,0.002786,0.003723,0.007820,0.100767,0.228218,322.892058,23.916599,0.999533,0.989498,0.004150,0.435902,0.000013,0.000003,0.000003,0.000013,0.000003,16.153670,0.000017,
2506,2698,5.37920284586864,1.17663473005864,-0.0196395678362933,0.002669,0.004350,0.005088,0.104726,0.258413,319.874020,24.552929,0.999561,0.990350,0.003915,0.446455,0.000002,0.000064,-0.000010,0.000065,0.000000,-81.074206,0.000075,
2311,3013,1.07579390521477,8.01901517675062,0.00568437086997164,0.002871,0.004188,0.007060,0.109854,0.258913,314.732107,25.295459,0.999487,0.990663,0.003781,0.402675,-0.000013,0.000011,-0.000017,0.000020,-0.000021,-62.906899,0.000024,
2506,2443,5.43444202866197,-4.39413265240528,0.00587211336960536,0.002710,0.004128,0.003245,0.113415,0.231567,324.245673,23.483566,0.998946,0.981425,0.005383,0.434981,0.000061,-0.000018,0.000030,0.000071,-0.000028,18.413647,0.000071,
2416,2248,3.50993730948407,-8.66316598108897,0.020459856425191,0.002886,0.004151,0.004979,0.115702,0.273612,327.325410,23.103585,0.999224,0.981786,0.005310,0.452377,-0.000005,0.000005,-0.000005,0.000007,-0.000008,-66.375541,0.000009,
2461,2473,4.44558215830295,-3.73742344229777,-0.00195056475251931,0.002869,0.004640,0.004180,0.117813,0.280190,323.576504,23.749831,0.999507,0.986822,0.004513,0.449864,0.000007,-0.000008,0.000016,0.000017,-0.000018,32.081508,0.000020,
2386,2113,2.88031291950911,-11.6223639520503,0.0228936976289447,0.002377,0.003705,0.008191,0.080960,0.258433,329.456529,22.864614,0.998328,0.968991,0.006605,0.400103,0.000009,0.000008,-0.000002,0.000011,0.000006,-35.056838,0.000017,
2386,3283,2.6538741891218,13.8829401194485,0.0106117640729622,0.002872,0.004472,0.009194,0.101252,0.269743,310.333191,26.226854,0.999621,0.991584,0.003607,0.463163,-0.000004,0.000046,0.000012,0.000049,-0.000007,77.212104,0.000053,
2371,3223,2.3412097471608,12.5792526838176,0.0339992026076175,0.002555,0.004275,0.009337,0.086321,0.255262,311.493374,26.002267,0.999551,0.992474,0.003459,0.429977,0.000010,0.000047,0.000001,0.000047,0.000010,88.782874,0.000061,
2341,2233,1.87486453059886,-8.99142117062812,0.017131217328199,0.002569,0.003997,0.004238,0.104538,0.248173,327.478100,23.395194,0.998607,0.977753,0.005824,0.440086,-0.000010,0.000002,-0.000009,0.000006,-0.000014,-62.219397,0.000014,
2416,2083,3.54357958690253,-12.281915802852,0.0348489128478491,0.003316,0.003674,0.009834,0.117308,0.258189,330.110774,22.656598,0.998334,0.976107,0.006446,0.327675,0.000010,0.000030,0.000005,0.000031,0.000008,76.960909,0.000041,
2341,3118,1.71015081298635,10.2989256080791,0.0310916395754361,0.003062,0.004387,0.005585,0.123428,0.264559,313.225967,25.600263,0.999578,0.992363,0.003603,0.442589,0.000009,0.000040,-0.000010,0.000044,0.000006,-73.282239,0.000054,
2476,2758,4.71395957437248,2.48096902968895,-0.00996329601440493,0.003112,0.003738,0.009771,0.107473,0.255393,318.897805,24.669195,0.999562,0.989659,0.003984,0.558984,0.000002,0.000088,-0.000005,0.000088,0.000002,-86.351145,0.000103,
2461,2368,4.46753812671356,-6.03355048786652,0.00571560170266139,0.002896,0.004580,0.003253,0.122394,0.271697,325.348188,23.424290,0.999596,0.986548,0.004941,0.374902,0.000017,0.000051,0.000022,0.000062,0.000006,63.482085,0.000075,
2326,3073,1.39120559304542,9.32269402871086,0.0177967923381175,0.002692,0.004535,0.007669,0.099466,0.278121,313.832086,25.504609,0.999703,0.994796,0.002962,0.391362,-0.000001,0.000026,-0.000012,0.000031,-0.000006,-68.873298,0.000033,
2431,2563,3.77360451678787,-1.77348760216611,0.0057816196970748,0.003218,0.003525,0.011986,0.104933,0.258581,322.109263,24.118493,0.999520,0.988414,0.004242,0.436834,0.000021,-0.000008,-0.000008,0.000023,-0.000010,-14.426131,0.000023,
2371,2173,2.54179328878969,-10.3075173867935,0.0191713535193685,0.002829,0.004323,0.001936,0.124383,0.242803,328.491439,22.999932,0.999192,0.981564,0.005387,0.513568,0.000002,-0.000002,-0.000011,0.000011,-0.000012,-39.822848,0.000013,
2461,2698,4.39875439354514,1.17505006437332,-0.0138645810684466,0.002851,0.004302,0.008939,0.099195,0.288006,319.798714,24.603106,0.999661,0.988148,0.004312,0.432791,0.000009,0.000061,-0.000016,0.000065,0.000004,-74.457476,0.000078,
2491,2863,5.01902344167519,4.77007896361724,-0.0129669711978977,0.002916,0.004212,0.007131,0.108523,0.258928,317.197733,25.208820,0.999537,0.991085,0.003794,0.441117,0.000009,0.000026,-0.000014,0.000035,0.000001,-60.199643,0.000041,
2446,2638,4.08390728522649,-0.134182288685849,-0.0129200286436912,0.002562,0.004362,0.006458,0.095395,0.263821,320.749368,24.402114,0.999632,0.989546,0.003985,0.401237,0.000002,0.000021,-0.000018,0.000031,-0.000009,-59.164151,0.000032,
2491,2608,5.07250884033258,-0.789049298740231,-0.00355041554763602,0.003001,0.004421,0.003828,0.124972,0.267227,321.451666,24.157900,0.999828,0.993991,0.003582,0.495890,0.000008,0.000001,0.000012,0.000017,-0.000008,35.919482,0.000017,
2356,2278,2.19176226193463,-8.00363683977305,-0.00307573065327915,0.002140,0.004379,0.004446,0.084213,0.266588,326.563037,23.450031,0.999446,0.988379,0.004419,0.457388,-0.000007,-0.000007,-0.000010,0.000003,-0.000017,-44.969253,0.000019,
2371,2353,2.50663121496078,-6.3650175715963,0.0118339136809027,0.002899,0.003702,0.005646,0.114372,0.240489,325.511420,23.535005,0.999079,0.984358,0.004937,0.496530,0.000011,0.000028,0.000021,0.000042,-0.000003,56.423146,0.000047,
2431,2338,3.81831046708457,-6.69111473923621,0.00940680257428994,0.002617,0.004027,0.007385,0.094384,0.258673,325.778433,23.388215,0.999216,0.982144,0.004870,0.396755,-0.000003,0.000042,0.000008,0.000043,-0.000004,79.608543,0.000048,
2506,2713,5.37656249232533,1.50400815309708,-0.0168089433747127,0.002920,0.004260,0.005368,0.115187,0.259677,319.663449,24.666078,0.999572,0.989800,0.003984,0.395983,-0.000010,0.000057,-0.000004,0.000057,-0.000010,-86.410340,0.000061,
2341,2923,1.74362425999066,6.06687921924667,-0.00824496831347687,0.002861,0.004742,0.006308,0.111697,0.294647,316.071207,25.183325,0.999037,0.988517,0.004261,0.424179,-0.000012,0.000017,-0.000019,0.000027,-0.000021,-63.659737,0.000028,
2506,2458,5.43092080788144,-4.06499308939654,-0.00133637834500178,0.003003,0.004462,0.004253,0.123155,0.273850,323.950963,23.545219,0.999227,0.984831,0.004769,0.478417,0.000066,-0.000001,0.000024,0.000074,-0.000009,17.917580,0.000081,
2506,2938,5.33055953392888,6.40301998516263,-0.00609791552449224,0.002881,0.004116,0.009612,0.097057,0.262208,316.060430,25.577303,0.999605,0.989734,0.003897,0.401271,0.000014,-0.000021,-0.000013,0.000019,-0.000025,-18.619257,0.000026,
2401,2443,3.14316683263153,-4.39529034533726,0.00700255229804725,0.002861,0.004176,0.006759,0.108480,0.276232,324.030219,23.773678,0.999429,0.986343,0.004679,0.470255,0.000016,0.000002,0.000016,0.000026,-0.000009,33.752145,0.000027,
2476,2548,4.75697767243056,-2.09920216180565,-0.00496063678866676,0.002788,0.004097,0.007667,0.100561,0.262849,322.351613,23.947563,0.999644,0.987059,0.004269,0.487766,0.000011,-0.000036,-0.000005,0.000012,-0.000037,-5.702653,0.000038,
2386,3298,2.6494048639414,14.2094538478167,-0.00811798743058034,0.002745,0.004787,0.008765,0.097074,0.277294,309.924706,26.288907,0.999650,0.992497,0.003583,0.450240,-0.000008,0.000047,0.000003,0.000047,-0.000008,87.191343,0.000050,
2401,2188,3.19424595354224,-9.97801438116036,0.0252886725454005,0.002715,0.004172,0.005306,0.106835,0.257748,328.307150,23.030960,0.999300,0.982873,0.005087,0.385690,0.000001,0.000000,-0.000015,0.000015,-0.000014,-44.241363,0.000017,
2461,2488,4.44277768507494,-3.41023947395568,-0.000735764419687257,0.002940,0.004640,0.003564,0.123395,0.270614,323.349052,23.772111,0.999573,0.985167,0.004650,0.473517,0.000009,-0.000009,0.000008,0.000012,-0.000012,20.962613,0.000014,
2446,2248,4.16509784864012,-8.66281522712872,0.0203974746883659,0.002971,0.004083,0.007081,0.111405,0.261907,327.371351,23.020081,0.999128,0.978164,0.005592,0.386315,0.000006,0.000006,-0.000013,0.000019,-0.000006,-44.634918,0.000019,
2431,2128,3.86262686165643,-11.2956704591325,0.038125170792398,0.002734,0.004225,0.005392,0.106971,0.258373,329.426106,22.666875,0.999575,0.980014,0.005846,0.383194,0.000011,0.000000,-0.000004,0.000012,-0.000002,-17.412304,0.000013,
2446,2413,4.13062978286955,-5.05017673363277,0.00848307950707294,0.002702,0.004246,0.009053,0.091957,0.286697,324.580060,23.578683,0.999677,0.986915,0.004789,0.448475,0.000010,0.000021,0.000018,0.000034,-0.000003,53.359770,0.000037,
2356,3208,2.01878860659824,12.2524348603612,0.0376807866092008,0.002641,0.004552,0.008072,0.095158,0.261974,311.776549,25.890615,0.999504,0.992091,0.003612,0.435449,0.000010,0.000041,-0.000001,0.000041,0.000010,-87.760195,0.000055,
2386,2353,2.83330054587596,-6.36453063054786,0.00956584665937044,0.002743,0.003647,0.008969,0.095090,0.267159,325.482697,23.468764,0.998844,0.981339,0.005299,0.536590,0.000009,0.000033,0.000020,0.000044,-0.000002,60.818190,0.000050,
2416,2518,3.4542205268518,-2.75580400537471,-0.0101912780740463,0.002662,0.004144,0.004397,0.107774,0.235867,322.687409,23.927412,0.999346,0.987189,0.004505,0.481620,0.000011,-0.000004,0.000002,0.000011,-0.000004,7.550123,0.000011,
2371,3238,2.33820094442646,12.9051406205003,0.0307540210097841,0.002512,0.004796,0.007190,0.092217,0.278839,311.225468,26.055856,0.999740,0.993757,0.003113,0.439986,0.000008,0.000048,0.000002,0.000048,0.000008,87.549609,0.000061,
2461,2383,4.46379634504589,-5.70517691829713,2.31246273756369E-05,0.002709,0.004357,0.003884,0.111408,0.271178,325.046535,23.445418,0.999619,0.985940,0.004887,0.409717,0.000021,0.000036,0.000009,0.000040,0.000017,65.510324,0.000059,
2416,2098,3.53978466976688,-11.9522134853965,0.0219553339497338,0.002943,0.004225,0.002880,0.125834,0.264685,329.770126,22.603747,0.998815,0.976263,0.006253,0.438492,0.000003,0.000018,-0.000004,0.000019,0.000002,-76.208983,0.000024,
2491,2878,5.01649296449214,5.09559288824799,-0.0103331058827507,0.002812,0.004821,0.002139,0.123057,0.246092,316.989800,25.209592,0.999498,0.992138,0.003647,0.485964,0.000011,0.000026,-0.000007,0.000029,0.000008,-68.737631,0.000039,
2416,2263,3.50691440333643,-8.33408587095049,0.0197270603505331,0.002947,0.004301,0.005891,0.115245,0.257247,327.076147,23.210042,0.999202,0.982052,0.005205,0.379696,-0.000008,0.000007,-0.000011,0.000012,-0.000013,-62.461549,0.000015,
2506,2953,5.32856533244889,6.72815038013022,0.00553679503315152,0.003077,0.003969,0.010593,0.102213,0.255877,315.918191,25.619105,0.999617,0.990379,0.003880,0.413438,0.000017,-0.000009,-0.000007,0.000019,-0.000010,-14.694583,0.000019,
2311,3028,1.07375449132869,8.34373056501558,0.0148512047444456,0.002892,0.004133,0.006673,0.112131,0.252923,314.566464,25.295776,0.999602,0.990518,0.003785,0.427876,-0.000009,0.000008,-0.000017,0.000018,-0.000019,-58.320140,0.000022,
2476,2773,4.70943852519057,2.8101165262433,-0.0190187348831046,0.002377,0.003871,0.009393,0.075159,0.239167,318.543917,24.886500,0.999177,0.985859,0.004481,0.382419,0.000000,0.000077,-0.000005,0.000077,0.000000,-86.362310,0.000089,
2506,2473,5.42718438666533,-3.73653178673066,-0.00404470550182623,0.002797,0.004116,0.006384,0.105328,0.273435,323.666574,23.634938,0.999413,0.983956,0.004698,0.450700,0.000050,-0.000008,0.000028,0.000061,-0.000019,22.017727,0.000062,
2506,2728,5.37387823492625,1.83043884689413,-0.0142019441971115,0.003018,0.004396,0.004216,0.124211,0.267689,319.449952,24.688184,0.999497,0.988763,0.004089,0.443031,-0.000011,0.000052,-0.000002,0.000052,-0.000012,-87.768245,0.000054,
2491,2623,5.06892588580486,-0.462414556846767,-0.00435358840633171,0.002982,0.003864,0.008793,0.104806,0.254297,321.181037,24.158680,0.999823,0.994029,0.003484,0.541816,0.000009,0.000002,0.000001,0.000009,0.000002,6.235241,0.000011,
2326,3088,1.38889318218977,9.6464917534109,0.0249161998615364,0.002759,0.004246,0.009230,0.097006,0.262256,313.644779,25.430152,0.999642,0.994288,0.003146,0.483539,0.000001,0.000023,-0.000017,0.000032,-0.000009,-61.933962,0.000033,
2461,2713,4.39548844583157,1.501614386772,-0.0138334476470163,0.002847,0.003963,0.011834,0.087961,0.289336,319.543543,24.618404,0.999666,0.990091,0.003984,0.473492,0.000003,0.000061,-0.000009,0.000062,0.000002,-81.127751,0.000073,
2341,3133,1.70659576290972,10.6246306679013,0.0291622985589015,0.002718,0.004384,0.008662,0.096792,0.256721,312.937490,25.647766,0.999443,0.991895,0.003702,0.422500,0.000006,0.000043,-0.000008,0.000045,0.000005,-77.858290,0.000054,
2446,2653,4.08099981596602,0.19266190938442,-0.011851797940551,0.002789,0.004125,0.009182,0.095576,0.255971,320.514564,24.442335,0.999699,0.990418,0.003856,0.405712,-0.000004,0.000024,-0.000016,0.000031,-0.000011,-65.710643,0.000032,
2461,2503,4.43947079321932,-3.08301448555955,0.00258440850552688,0.002625,0.004172,0.006417,0.098041,0.257295,323.108060,23.825818,0.999445,0.985643,0.004556,0.461914,0.000010,-0.000007,0.000002,0.000011,-0.000007,6.606019,0.000011,
2356,3223,2.01560018575513,12.5780227111902,0.0373241954079049,0.002541,0.004375,0.010720,0.081233,0.273450,311.513364,25.940687,0.999558,0.991896,0.003505,0.434219,0.000009,0.000046,0.000001,0.000046,0.000009,88.119096,0.000058,
2431,2578,3.77071725114894,-1.44514444661469,0.0033348574743286,0.003643,0.003453,0.013635,0.118312,0.253244,321.858038,24.238423,0.999743,0.992333,0.003776,0.362150,0.000021,0.000009,-0.000010,0.000027,0.000004,-28.877126,0.000033,
2431,2353,3.81518321330346,-6.36284752386836,0.00620447928821477,0.002599,0.003959,0.005805,0.099337,0.256486,325.513827,23.414075,0.999083,0.981622,0.005131,0.420785,0.000002,0.000048,0.000014,0.000052,-0.000002,73.806522,0.000059,
2401,1993,3.2338020593567,-14.2602503145594,0.042999926767493,0.002749,0.003656,0.003646,0.113960,0.231379,331.606474,22.377915,0.998701,0.968162,0.006716,0.378503,0.000027,0.000018,-0.000002,0.000027,0.000017,-13.223303,0.000045,
2491,2893,5.01240810301512,5.42378841575496,-0.0175707246838783,0.002736,0.004404,0.005909,0.104977,0.250171,316.665003,25.372724,0.998887,0.986004,0.004491,0.385623,0.000016,0.000011,-0.000011,0.000025,0.000002,-39.005751,0.000030,
2356,2293,2.18980927939734,-7.67436492029996,0.000564219706348013,0.002989,0.004004,0.007503,0.112243,0.269718,326.378398,23.609791,0.999611,0.992949,0.003962,0.341573,-0.000007,0.000006,-0.000004,0.000007,-0.000008,-75.663679,0.000009,
2371,2368,2.50278774103254,-6.03561628951874,0.00711852772110433,0.002680,0.003611,0.010596,0.086754,0.273112,325.200967,23.619769,0.998829,0.982923,0.005047,0.487722,0.000012,0.000029,0.000023,0.000045,-0.000004,55.325625,0.000049,
2476,2563,4.75347962516934,-1.77039945944345,-0.0117827457268049,0.003062,0.004059,0.009363,0.106714,0.275904,322.056271,24.049089,0.998782,0.981860,0.005165,0.457094,0.000011,-0.000017,-0.000002,0.000011,-0.000018,-4.277258,0.000018,
2386,2128,2.87754632206124,-11.292797775992,0.0185037326548354,0.002644,0.004265,0.005622,0.102594,0.264808,329.199548,22.904463,0.998877,0.975064,0.005962,0.412773,0.000011,0.000005,-0.000004,0.000013,0.000003,-28.356042,0.000017,
2371,3253,2.33518606816918,13.2303890786688,0.0244149414026538,0.002892,0.004648,0.007483,0.108678,0.275856,310.942576,26.063886,0.999701,0.992845,0.003281,0.468515,0.000003,0.000052,0.000002,0.000052,0.000003,87.573603,0.000062,
2401,2458,3.13970757389406,-4.06719942238563,-0.002107545341687,0.003032,0.004052,0.006595,0.116882,0.255823,323.719499,23.783136,0.999494,0.985860,0.004774,0.487414,0.000014,0.000005,0.000014,0.000024,-0.000005,36.420454,0.000025,
2506,2968,5.3250312117784,7.05494534370122,0.00263073623153787,0.002564,0.004604,0.006796,0.093620,0.269004,315.639384,25.696942,0.999549,0.989550,0.004121,0.409451,0.000014,0.000007,0.000000,0.000014,0.000007,-1.981682,0.000021,
2341,2938,1.74129961012391,6.39095139247893,0.00025985146749008,0.002946,0.003721,0.009448,0.104229,0.244031,315.891244,25.144812,0.998869,0.987544,0.004394,0.447936,-0.000008,0.000018,-0.000019,0.000028,-0.000018,-62.025325,0.000028,
2431,2143,3.85807770181669,-10.9649792052292,0.0230198896329625,0.002634,0.003625,0.008309,0.091441,0.245625,329.042182,22.718717,0.999373,0.978805,0.005684,0.372329,0.000009,-0.000003,-0.000008,0.000013,-0.000007,-26.884103,0.000013,
2416,2533,3.451578671272,-2.42721130319578,-0.0100973330706324,0.003122,0.004081,0.006310,0.121856,0.241594,322.458162,24.067924,0.999276,0.987887,0.004526,0.395443,0.000013,-0.000011,0.000000,0.000013,-0.000011,0.640262,0.000014,
2446,2428,4.12628829067453,-4.72145583215965,-0.00258104386091418,0.002462,0.003385,0.011332,0.072141,0.246253,324.224597,23.636804,0.999191,0.984555,0.005003,0.403741,0.000007,0.000014,0.000019,0.000030,-0.000009,50.136084,0.000031,
2446,2263,4.16222292762353,-8.33398590963341,0.0217577611216484,0.003007,0.003945,0.007211,0.112500,0.263220,327.141017,23.107577,0.999169,0.977524,0.005694,0.354407,0.000002,0.000011,-0.000022,0.000028,-0.000016,-50.943096,0.000028,
2506,2488,5.42430823694723,-3.40908578120187,-0.00203961253254192,0.002921,0.004178,0.007096,0.108295,0.273992,323.442792,23.678903,0.999458,0.984491,0.004716,0.469709,0.000049,-0.000022,0.000023,0.000055,-0.000029,16.280662,0.000055,
2506,2743,5.36902496189176,2.15917853049152,-0.0237247677809478,0.002558,0.004130,0.009782,0.081445,0.266908,319.081880,24.839180,0.999686,0.989434,0.003960,0.352862,-0.000019,0.000082,-0.000001,0.000082,-0.000019,-89.316738,0.000086,
2401,2203,3.19183995988297,-9.64978495986528,0.0245481917733059,0.003261,0.004343,0.005041,0.132869,0.255859,328.085137,23.023342,0.999151,0.981180,0.005363,0.439559,-0.000001,0.000010,-0.000018,0.000023,-0.000014,-53.512574,0.000023,
2416,2113,3.53773729284632,-11.6236292852413,0.0280564565500185,0.002937,0.005071,-0.002282,0.144705,0.279248,329.597970,22.654596,0.998993,0.976471,0.006072,0.452661,0.000000,0.000005,-0.000007,0.000010,-0.000004,-54.864947,0.000010,
2476,2788,4.70695405917935,3.13715385737163,-0.0182958097594224,0.002776,0.004249,0.008111,0.098551,0.259721,318.328434,24.954325,0.999171,0.984689,0.004594,0.391786,0.000002,0.000066,-0.000011,0.000068,0.000000,-80.204948,0.000079,
2491,2638,5.06443569066054,-0.132655723924387,-0.0191916959178116,0.002866,0.003832,0.009192,0.097996,0.260890,320.804794,24.312991,0.999533,0.988880,0.004115,0.453992,0.000001,0.000008,-0.000014,0.000019,-0.000010,-52.235548,0.000019,
2386,2368,2.82965650266462,-6.03478992918532,0.00148448192118167,0.002703,0.003805,0.009843,0.090243,0.278664,325.166884,23.573293,0.998895,0.982079,0.005174,0.488901,0.000009,0.000032,0.000022,0.000046,-0.000004,58.949621,0.000051,
2416,2278,3.50319719901033,-8.00573157531084,0.0150430334718976,0.002688,0.003730,0.007543,0.097124,0.241803,326.776635,23.214606,0.999248,0.982707,0.005074,0.409754,-0.000007,0.000019,-0.000003,0.000020,-0.000008,-83.528940,0.000020,
2356,3238,2.01258228636665,12.9035935517599,0.0315967560380841,0.002579,0.004727,0.007587,0.094158,0.277016,311.231996,25.970516,0.999601,0.992219,0.003407,0.445410,0.000007,0.000048,0.000003,0.000048,0.000007,85.436189,0.000060,
2506,2983,5.32187368797193,7.38071702901823,0.000920855910180762,0.002702,0.004207,0.007436,0.097324,0.260551,315.383481,25.714790,0.999346,0.987506,0.004333,0.443579,0.000013,0.000019,0.000008,0.000025,0.000008,55.608252,0.000034,
2476,2578,4.74979588109137,-1.44285824478251,-0.0114172106451633,0.002534,0.003754,0.010893,0.076553,0.267904,321.785160,24.124527,0.998367,0.982598,0.005275,0.431302,0.000010,0.000000,-0.000003,0.000010,-0.000001,-13.729307,0.000011,
2341,3148,1.70417433377149,10.9499913087753,0.0355682053312307,0.002713,0.004377,0.009645,0.093192,0.266080,312.741821,25.701015,0.999494,0.993303,0.003533,0.414268,0.000004,0.000035,-0.000007,0.000037,0.000003,-78.092065,0.000044,
2461,2518,4.43657403410613,-2.75604607161198,0.00883031131434109,0.002456,0.003747,0.009012,0.080394,0.249317,322.899216,23.881351,0.999185,0.982782,0.004776,0.453700,0.000008,-0.000017,0.000004,0.000008,-0.000018,9.341275,0.000018,
2506,2503,5.42097483205264,-3.08087997254143,-0.00538962124807085,0.002958,0.003928,0.006745,0.111265,0.246030,323.174003,23.777047,0.999308,0.985042,0.004928,0.405714,0.000042,-0.000017,0.000012,0.000044,-0.000020,10.678550,0.000044,
2371,3268,2.33141442480163,13.5562974256356,0.0146738981538306,0.002640,0.004790,0.005943,0.102608,0.278468,310.608166,26.113215,0.999735,0.993343,0.003250,0.461370,-0.000001,0.000052,0.000008,0.000053,-0.000002,81.694094,0.000060,
2431,2158,3.85639783327478,-10.6383528533183,0.0309908166601076,0.002777,0.003838,0.002188,0.120588,0.219664,328.896803,22.666098,0.999367,0.978145,0.005658,0.450995,0.000000,-0.000011,-0.000020,0.000015,-0.000026,-36.650993,0.000026,
2491,2908,5.0097947419888,5.74999117359455,-0.0108258606418872,0.002629,0.004285,0.005892,0.100129,0.256211,316.471419,25.456228,0.999252,0.985573,0.004528,0.366301,0.000018,-0.000002,-0.000001,0.000018,-0.000002,-1.505234,0.000020,
2461,2728,4.39335313508445,1.82857708296034,-0.0094000816618518,0.003428,0.003896,0.012501,0.112052,0.257131,319.360417,24.743584,0.999628,0.991686,0.003660,0.370650,0.000000,0.000056,-0.000003,0.000056,0.000000,-86.846989,0.000065,
2446,2668,4.0785096233422,0.519209597745999,-0.0102666400392764,0.003033,0.004014,0.007532,0.112921,0.262323,320.301276,24.449833,0.999492,0.988651,0.004179,0.457466,-0.000004,0.000029,-0.000017,0.000037,-0.000011,-66.902930,0.000038,
2446,2443,4.12497753626688,-4.39495317956684,0.00733945802107883,0.003135,0.003808,0.008887,0.112254,0.243967,324.104881,23.656097,0.998431,0.981660,0.005351,0.435452,0.000017,-0.000013,0.000017,0.000025,-0.000021,24.755326,0.000027,
2401,2008,3.23034558290187,-13.9296991192684,0.0388406841624374,0.002839,0.003501,0.007277,0.104932,0.237329,331.320921,22.463208,0.998519,0.966580,0.006818,0.348701,0.000031,0.000011,-0.000001,0.000031,0.000011,-2.274675,0.000044,
2326,3103,1.38653115383597,9.97217549264423,0.0276099470423787,0.002849,0.004402,0.007249,0.108070,0.264151,313.432836,25.486900,0.999510,0.993385,0.003418,0.462063,0.000004,0.000029,-0.000015,0.000036,-0.000004,-65.013104,0.000040,
2371,2383,2.49960267351986,-5.70697851201118,0.00550859716520335,0.002313,0.003876,0.008353,0.078010,0.258630,324.935756,23.717250,0.999117,0.984007,0.005000,0.418498,0.000017,0.000025,0.000021,0.000042,0.000000,50.479466,0.000048,
2356,2308,2.18764549344717,-7.34873791026238,0.0113860847407636,0.002955,0.003727,0.009375,0.104024,0.249931,326.219165,23.535547,0.999410,0.990991,0.003997,0.436549,-0.000004,0.000006,0.000006,0.000008,-0.000006,65.440922,0.000009,
2401,2218,3.18836569348629,-9.31933049904377,0.0209239767542613,0.002898,0.004414,0.003639,0.121364,0.247549,327.800333,23.201012,0.999245,0.981544,0.005473,0.301813,-0.000002,0.000009,-0.000015,0.000020,-0.000013,-54.849968,0.000020,
2506,2998,5.3191344366057,7.70677857346828,0.00545446811094052,0.002815,0.004077,0.009094,0.096046,0.251677,315.174637,25.806442,0.999451,0.989248,0.004009,0.403403,0.000021,0.000023,0.000006,0.000028,0.000016,48.151629,0.000044,
2431,2593,3.76736550427023,-1.11916351541125,0.000641741696654208,0.002810,0.004323,0.005481,0.110534,0.256249,321.584679,24.136295,0.999603,0.990650,0.003994,0.518341,0.000023,0.000008,-0.000004,0.000024,0.000007,-14.755508,0.000033,
2386,2143,2.87423852111246,-10.9634688999926,0.0141993236891267,0.002425,0.004310,0.003815,0.099088,0.260272,328.918191,22.940576,0.998922,0.972451,0.006077,0.418696,0.000009,-0.000002,-0.000007,0.000012,-0.000006,-26.208059,0.000012,
2416,2548,3.44789874144526,-2.10023502481975,-0.0111916566099808,0.002782,0.003476,0.010127,0.092102,0.227197,322.175975,24.074741,0.999340,0.987572,0.004475,0.422935,0.000018,-0.000013,-0.000004,0.000018,-0.000013,-8.024800,0.000019,
2401,2473,3.13723534452771,-3.73979678211948,0.00261536760717718,0.002991,0.003978,0.005149,0.120212,0.233811,323.519187,23.864783,0.999410,0.986925,0.004592,0.430262,0.000010,-0.000005,0.000013,0.000017,-0.000012,29.954019,0.000018,
2446,2278,4.15899339157098,-8.00447681668812,0.0164704625221361,0.002923,0.004592,0.003609,0.122366,0.278268,326.863675,23.181226,0.999284,0.978275,0.005616,0.350528,0.000000,0.000022,-0.000012,0.000027,-0.000006,-66.098526,0.000029,
2506,2758,5.36563163753533,2.48474067910474,-0.0257033984234454,0.002519,0.003606,0.010839,0.075351,0.245209,318.815320,24.784155,0.999701,0.990237,0.003825,0.447436,-0.000017,0.000079,-0.000005,0.000079,-0.000018,-86.739052,0.000083,
2416,2293,3.50020595101128,-7.67756055409909,0.01653011107976,0.002851,0.003115,0.011563,0.089681,0.237829,326.539084,23.258718,0.998819,0.978309,0.005734,0.411418,-0.000005,0.000026,0.000000,0.000026,-0.000005,89.258214,0.000027,
2491,2653,5.06169067294607,0.194821324874859,-0.0184790056713382,0.002989,0.004094,0.007368,0.110751,0.266208,320.579117,24.396025,0.999505,0.987690,0.004329,0.435754,-0.000001,0.000016,-0.000016,0.000026,-0.000011,-58.698516,0.000026,
2356,3253,2.00973539158383,13.2286590898469,0.0312502795060254,0.002684,0.004705,0.008479,0.095859,0.280586,310.984654,25.988298,0.999650,0.992147,0.003404,0.468762,0.000003,0.000051,0.000005,0.000052,0.000003,84.293860,0.000061,
2386,2383,2.82697117097575,-5.70656257743872,0.000785447084808766,0.002755,0.003941,0.007149,0.102312,0.245083,324.930336,23.661553,0.999025,0.983547,0.005157,0.411898,0.000015,0.000027,0.000019,0.000041,0.000001,54.360200,0.000048,
2476,2593,4.74725290475369,-1.11560683529518,-0.0124822623031946,0.002826,0.004080,0.007219,0.104039,0.261044,321.559968,24.164301,0.998343,0.982840,0.005070,0.441945,0.000012,0.000000,0.000004,0.000013,-0.000002,17.802937,0.000015,
2431,2368,3.81216012704883,-6.03546821775025,0.0126984905117524,0.002186,0.003684,0.007797,0.072970,0.237021,325.299011,23.475623,0.999124,0.982121,0.005062,0.391331,0.000004,0.000042,0.000018,0.000049,-0.000004,68.114189,0.000055,
2476,2803,4.70402271035507,3.46416476992587,-0.0203848302593315,0.003003,0.004354,0.007303,0.112068,0.257855,318.079587,25.024921,0.999080,0.983999,0.004871,0.376042,0.000005,0.000054,-0.000007,0.000055,0.000004,-82.014617,0.000066,
2461,2533,4.43345835741673,-2.42704978340705,0.00121082073877687,0.002751,0.004297,0.005952,0.105647,0.255498,322.616547,23.988589,0.999466,0.987048,0.004313,0.408372,0.000010,-0.000025,0.000001,0.000010,-0.000025,2.407296,0.000025,
2371,3283,2.32841145901679,13.8811408060353,0.0111645442214012,0.002878,0.004375,0.007066,0.109359,0.253501,310.339412,26.130667,0.999660,0.992785,0.003387,0.458443,-0.000004,0.000055,0.000007,0.000056,-0.000004,83.513526,0.000062,
2506,2518,5.41707546333187,-2.75322829345846,-0.00949649725725976,0.002500,0.003903,0.006545,0.091041,0.237310,322.875746,23.803724,0.999367,0.985309,0.004884,0.432737,0.000030,-0.000021,0.000016,0.000034,-0.000025,16.005882,0.000036,
2416,2128,3.5332767360215,-11.2924098494911,0.015915118233238,0.002755,0.004473,0.001942,0.120781,0.272925,329.230093,22.774423,0.999220,0.978724,0.005736,0.377872,0.000005,0.000002,-0.000007,0.000010,-0.000003,-38.301395,0.000010,
2506,3013,5.31621597902656,8.03296248520717,0.0062752050462791,0.002730,0.004426,0.006836,0.101017,0.251344,314.940781,25.879429,0.999405,0.990046,0.003868,0.390332,0.000021,0.000031,0.000002,0.000031,0.000021,77.994265,0.000052,
2401,2023,3.22652299703506,-13.5999688292503,0.031628671487681,0.002507,0.003381,0.007257,0.089821,0.220338,331.004401,22.468291,0.998695,0.970138,0.006526,0.376037,0.000027,0.000012,-0.000003,0.000028,0.000011,-9.451824,0.000040,
2341,3163,1.70162173846049,11.2754126064082,0.0371537934820481,0.002709,0.004648,0.007542,0.100534,0.284157,312.516579,25.725208,0.999548,0.992960,0.003651,0.443503,0.000005,0.000039,-0.000005,0.000040,0.000004,-81.302990,0.000049,
2491,2923,5.00556930339026,6.07722505988751,-0.0198373383219632,0.002596,0.004268,0.010180,0.082206,0.278966,316.132158,25.509163,0.999483,0.986088,0.004319,0.394696,0.000025,-0.000013,-0.000004,0.000025,-0.000014,-5.491431,0.000025,
2431,2173,3.8527250579151,-10.3081871840081,0.0273257520739207,0.002486,0.003695,0.003362,0.102895,0.208018,328.605810,22.803460,0.999378,0.981999,0.005100,0.355220,-0.000002,-0.000003,-0.000017,0.000015,-0.000020,-44.536102,0.000021,
2446,2458,4.121627950626,-4.06620088254997,0.00218841144345561,0.002792,0.004592,0.003762,0.115961,0.268163,323.821741,23.718820,0.999184,0.984976,0.004838,0.450693,0.000018,-0.000005,0.000013,0.000024,-0.000011,25.196182,0.000024,
2461,2743,4.38879059004239,2.1554851613062,-0.0207632232907713,0.002659,0.003768,0.010465,0.084393,0.254884,318.993265,24.712168,0.999634,0.990691,0.003810,0.454667,0.000000,0.000078,-0.000004,0.000078,0.000000,-86.940068,0.000090,
2446,2293,4.15542665743152,-7.6779066253405,0.0168347861728648,0.002608,0.003928,0.007127,0.094577,0.263928,326.597215,23.078283,0.999338,0.979226,0.005503,0.493395,0.000000,0.000028,-0.000008,0.000031,-0.000002,-74.622971,0.000034,
2416,2563,3.44494731976549,-1.77265305020568,-0.0110625553045338,0.002751,0.003784,0.009926,0.091583,0.260021,321.932635,24.105510,0.999074,0.984112,0.004701,0.473707,0.000016,-0.000005,-0.000007,0.000018,-0.000007,-16.385599,0.000019,
2446,2683,4.07512607603308,0.847096890204192,-0.0179896318038004,0.003019,0.004171,0.004292,0.124427,0.249069,320.003738,24.527696,0.999317,0.987544,0.004284,0.418842,0.000001,0.000052,-0.000016,0.000057,-0.000004,-73.782674,0.000064,
2476,2608,4.74364790327951,-0.788381921554489,-0.0157969753936982,0.002558,0.003729,0.007286,0.091351,0.243631,321.275704,24.197898,0.998938,0.984260,0.004689,0.448350,0.000007,0.000009,0.000002,0.000010,0.000006,61.131300,0.000016,
2476,2818,4.70098021434947,3.7900650448592,-0.0176651439044804,0.002723,0.004337,0.006618,0.101836,0.253929,317.847639,25.036806,0.999260,0.985953,0.004695,0.416623,0.000004,0.000033,-0.000002,0.000033,0.000004,-86.324473,0.000041,
2506,2773,5.36304772115689,2.81136162718443,-0.024410353799226,0.002577,0.004027,0.006724,0.094103,0.248408,318.600270,24.831842,0.999654,0.990821,0.003827,0.464228,-0.000016,0.000070,-0.000001,0.000070,-0.000016,-89.172506,0.000073,
2431,2383,3.80910294937971,-5.70643662002789,0.00450994596474175,0.002578,0.003803,0.005403,0.099850,0.241407,325.014249,23.527098,0.999568,0.985738,0.004720,0.395845,0.000009,0.000032,0.000011,0.000036,0.000005,68.728260,0.000045,
2416,2308,3.49770169590924,-7.34936472008218,0.0186645114268913,0.002701,0.004005,0.006350,0.102217,0.260626,326.326707,23.289657,0.999175,0.984196,0.004861,0.453226,-0.000002,0.000022,0.000005,0.000023,-0.000003,78.725586,0.000025,
2506,2533,5.41424370065152,-2.42446999755938,-0.0106419017228063,0.002797,0.004418,0.005549,0.108743,0.268671,322.639371,23.923578,0.999620,0.987101,0.004436,0.406556,0.000032,-0.000033,0.000025,0.000040,-0.000042,18.972740,0.000048,
2386,2158,2.87166149993996,-10.6348643529486,0.0184044672779464,0.002594,0.003590,0.006099,0.098368,0.227594,328.710693,23.035412,0.999188,0.978312,0.005611,0.337156,0.000001,-0.000010,-0.000015,0.000011,-0.000020,-34.264076,0.000020,
2401,2488,3.13405599331372,-3.41185073235214,0.00406153399416098,0.002958,0.003577,0.009375,0.103233,0.244467,323.270733,23.937943,0.999400,0.988280,0.004362,0.414530,0.000015,-0.000001,0.000010,0.000020,-0.000006,25.865529,0.000021,
2491,2938,5.00324579470987,6.40327721247903,-0.0139447309598495,0.002754,0.004264,0.009040,0.093893,0.282957,315.947955,25.582498,0.999539,0.989196,0.003869,0.383841,0.000022,-0.000020,-0.000011,0.000024,-0.000023,-13.990708,0.000027,
2401,2233,3.18481832924983,-8.9915322026447,0.0206937388631445,0.002532,0.003607,0.006714,0.093169,0.228259,327.528394,23.187806,0.999243,0.982429,0.005391,0.343646,-0.000003,0.000007,-0.000005,0.000009,-0.000005,-66.980730,0.000009,
2401,2038,3.22377135902329,-13.2702247582744,0.0286859792703922,0.002632,0.004162,0.003802,0.108300,0.245298,330.756627,22.487011,0.998825,0.970931,0.006364,0.431452,0.000021,0.000012,-0.000011,0.000028,0.000004,-34.121024,0.000035,
2461,2548,4.43045168188982,-2.09876848555643,0.000244097597203563,0.002744,0.004400,0.004568,0.110585,0.251121,322.369327,24.105774,0.999749,0.991157,0.003788,0.342249,0.000014,-0.000031,-0.000006,0.000014,-0.000032,-7.344567,0.000032,
2431,2608,3.76342629009425,-0.790293580072493,-0.0122788693630014,0.003125,0.003865,0.008261,0.114585,0.255113,321.236259,24.220653,0.999440,0.987367,0.004387,0.483697,0.000016,0.000012,-0.000007,0.000022,0.000007,-38.233859,0.000030,
2491,2668,5.05912021882349,0.521219309768867,-0.0172681499169016,0.003209,0.004349,0.005208,0.129170,0.239201,320.363922,24.420905,0.999488,0.986519,0.004409,0.442948,0.000003,0.000017,-0.000018,0.000030,-0.000010,-55.537128,0.000030,
2371,3298,2.32471420281861,14.2072629603089,0.00133417453218954,0.002879,0.004684,0.007739,0.107193,0.271386,310.007762,26.193705,0.999636,0.992914,0.003451,0.452923,-0.000010,0.000058,-0.000004,0.000059,-0.000010,-86.900145,0.000063,
2461,2758,4.38573082682452,2.48306991261288,-0.025609839322783,0.002737,0.004472,0.006975,0.101404,0.278202,318.724742,24.774754,0.999601,0.989124,0.004032,0.470043,0.000006,0.000082,-0.000006,0.000082,0.000006,-85.632570,0.000098,
2506,3028,5.31354953742269,8.3583315658599,0.0107989265763422,0.002800,0.004481,0.007161,0.102963,0.249285,314.735261,25.907577,0.999535,0.991976,0.003655,0.420521,0.000026,0.000054,0.000000,0.000054,0.000026,-89.850788,0.000082,
2431,2188,3.8506144776591,-9.97896611925694,0.0329759762263961,0.002760,0.004140,0.001636,0.122018,0.222693,328.429388,22.932046,0.999666,0.987206,0.004475,0.293505,0.000001,0.000007,-0.000016,0.000020,-0.000012,-50.828288,0.000020,
2341,3178,1.69880354973163,11.600769076649,0.0359938340254189,0.002962,0.004521,0.009529,0.105168,0.278183,312.265723,25.754815,0.999618,0.993528,0.003702,0.443427,0.000007,0.000042,-0.000004,0.000043,0.000007,-83.473990,0.000054,
2446,2308,4.15212998800636,-7.34703145943401,0.0100830183523044,0.002847,0.003924,0.006628,0.107392,0.251544,326.309848,23.301126,0.999208,0.979080,0.005456,0.312838,0.000003,0.000027,-0.000006,0.000028,0.000002,-76.989485,0.000033,
2416,2143,3.52983912138073,-10.9641768373277,0.0133791948002795,0.002432,0.004203,0.001536,0.107401,0.245011,328.954120,22.753386,0.999260,0.979799,0.005332,0.421808,0.000005,-0.000003,-0.000010,0.000012,-0.000010,-34.176580,0.000013,
2476,2623,4.741078844354,-0.460499283083053,-0.0157805764787895,0.002967,0.003946,0.006351,0.113747,0.236864,321.053928,24.314651,0.999591,0.990444,0.003846,0.382130,0.000007,0.000013,-0.000008,0.000018,0.000002,-55.000566,0.000022,
2476,2833,4.69891494165575,4.11596739034248,-0.00964621655145947,0.003053,0.004540,0.006823,0.116333,0.266659,317.684634,25.076096,0.999431,0.987500,0.004203,0.446411,0.000005,0.000021,-0.000002,0.000022,0.000005,-82.243314,0.000028,
2416,2578,3.44233029149787,-1.44425861453236,-0.0127651057930507,0.003251,0.003506,0.010226,0.113308,0.240803,321.696031,24.251498,0.999406,0.988437,0.004252,0.357296,0.000016,0.000012,-0.000008,0.000022,0.000005,-38.944769,0.000030,
2386,2398,2.82441213271338,-5.37990369579722,0.0085175446081962,0.002468,0.003926,0.007078,0.089426,0.255464,324.739523,23.648117,0.999266,0.984805,0.004918,0.480558,0.000015,0.000028,0.000026,0.000049,-0.000005,52.038900,0.000054,
2491,2953,5.0009064290543,6.72822778306592,-0.00755274715027099,0.002912,0.004023,0.008638,0.102529,0.257002,315.765525,25.591175,0.999445,0.989069,0.003978,0.407241,0.000024,-0.000008,-0.000006,0.000025,-0.000009,-10.255531,0.000026,
2446,2473,4.11846816247202,-3.73869198324615,0.00919351980002148,0.002484,0.004014,0.008866,0.082574,0.255020,323.603462,23.822724,0.999547,0.987211,0.004457,0.387029,0.000009,-0.000009,0.000013,0.000015,-0.000016,27.013411,0.000018,
2416,2323,3.49477138684656,-7.01988050307609,0.0112893072626434,0.002814,0.004678,0.000103,0.130476,0.264319,326.050287,23.368096,0.998955,0.982292,0.005104,0.428389,0.000000,0.000029,0.000010,0.000032,-0.000003,73.424540,0.000035,
2506,2788,5.36038854421334,3.13851912489905,-0.0227588626981969,0.002778,0.004393,0.005517,0.108181,0.256111,318.383145,24.931459,0.999564,0.990070,0.004002,0.433160,-0.000013,0.000057,-0.000012,0.000059,-0.000015,-80.923570,0.000061,
2461,2563,4.42597484521896,-1.77053196905499,-0.0148462293427656,0.002919,0.004161,0.009143,0.101323,0.270413,321.989890,24.075932,0.999414,0.988001,0.004395,0.447201,0.000014,-0.000014,-0.000004,0.000015,-0.000015,-8.493180,0.000017,
2431,2398,3.80620810743303,-5.37854122695223,0.00339539934481081,0.002920,0.003971,0.007549,0.107679,0.269750,324.769689,23.524487,0.999698,0.986540,0.004728,0.478652,0.000009,0.000033,0.000016,0.000042,0.000001,62.902648,0.000049,
2506,2548,5.41251468837957,-2.0979868436059,0.0041442800801974,0.002874,0.004316,0.004974,0.114444,0.262144,322.525175,24.018897,0.999797,0.989862,0.004012,0.366092,0.000028,-0.000055,0.000009,0.000029,-0.000056,6.249029,0.000056,
2461,2773,4.38227541440308,2.80980204147885,-0.0272918773879951,0.002274,0.004290,0.004889,0.087949,0.261033,318.452682,24.829454,0.999376,0.987168,0.004348,0.452654,0.000005,0.000074,-0.000005,0.000074,0.000005,-86.130499,0.000089,
2446,2698,4.07067086218815,1.17475421265106,-0.0241695421661916,0.002522,0.003927,0.009800,0.080978,0.261528,319.663918,24.577249,0.999616,0.989708,0.004021,0.434630,0.000003,0.000055,-0.000017,0.000060,-0.000002,-73.719441,0.000068,
2401,2503,3.13026875730114,-3.0828244960381,-0.00861268833841677,0.002929,0.003601,0.007178,0.109910,0.238899,322.927738,24.002777,0.999491,0.988691,0.004280,0.391534,0.000013,0.000004,0.000007,0.000017,0.000000,27.941961,0.000019,
2491,2683,5.05499154031688,0.848587232153633,-0.0212314311657451,0.002766,0.003665,0.008407,0.096361,0.240756,320.053410,24.468346,0.999669,0.989556,0.003950,0.456370,0.000009,0.000046,-0.000014,0.000051,0.000004,-71.471743,0.000062,
2386,2173,2.86820289184506,-10.3065517901224,0.0134555257833426,0.002333,0.003847,0.005168,0.089872,0.237323,328.419285,22.968947,0.999320,0.982053,0.005334,0.459517,0.000000,-0.000003,-0.000013,0.000012,-0.000015,-41.297308,0.000015,
2401,2053,3.22051055692543,-12.9391725684509,0.0236448648615237,0.002901,0.003394,0.006184,0.111733,0.226475,330.475768,22.651374,0.998986,0.975178,0.006150,0.297436,0.000017,0.000019,-0.000009,0.000027,0.000009,-48.639511,0.000038,
2401,2248,3.18145853819923,-8.66327888146243,0.0161433519014622,0.002640,0.003829,0.009160,0.089369,0.276599,327.244341,23.109447,0.999155,0.982130,0.005363,0.518824,-0.000006,0.000003,-0.000008,0.000007,-0.000011,-60.492120,0.000011,
2506,3043,5.31034112802145,8.68546008275995,0.0115368861672778,0.002839,0.004535,0.009635,0.095241,0.272780,314.487211,26.051037,0.999722,0.992341,0.003733,0.360790,0.000030,0.000055,0.000004,0.000055,0.000029,80.451327,0.000086,
2431,2623,3.7600090242346,-0.462788930969765,-0.0150746749626478,0.002906,0.003670,0.008200,0.104680,0.242645,320.958991,24.283848,0.999503,0.988594,0.004154,0.458787,0.000013,0.000020,-0.000013,0.000029,0.000003,-52.511045,0.000036,
2386,1993,2.9053475545181,-14.2592846068287,0.0424860954601627,0.002442,0.003925,0.004537,0.096975,0.255418,331.569305,22.502281,0.998917,0.960235,0.007228,0.384992,0.000047,0.000021,0.000008,0.000049,0.000019,15.901846,0.000070,
2431,2203,3.84727284306252,-9.65110003496022,0.0267923924629372,0.002991,0.004001,0.002922,0.127778,0.212265,328.142000,22.842649,0.999523,0.984602,0.004878,0.425178,0.000002,0.000013,-0.000019,0.000028,-0.000012,-52.917837,0.000028,
2476,2638,4.73781836117118,-0.133499721469562,-0.0181593752216713,0.002897,0.004177,0.005653,0.113299,0.255042,320.789517,24.309912,0.999650,0.990045,0.003833,0.462517,-0.000002,0.000016,-0.000019,0.000028,-0.000013,-57.948262,0.000028,
2491,2968,4.99845088375483,7.05373516590679,-0.00144044105746843,0.002739,0.004301,0.005397,0.107144,0.256336,315.576233,25.627224,0.999292,0.986936,0.004414,0.428815,0.000020,0.000003,-0.000001,0.000020,0.000003,-4.997081,0.000025,
2476,2848,4.69473214821091,4.44321061308204,-0.0184672358442981,0.002739,0.004341,0.007806,0.098067,0.252267,317.347319,25.143448,0.999287,0.987384,0.004250,0.421222,0.000001,0.000022,-0.000012,0.000027,-0.000005,-65.365603,0.000029,
2416,2158,3.52704462410781,-10.6361753696142,0.0180676696572277,0.002495,0.003550,0.005095,0.097066,0.211017,328.741256,22.800047,0.999192,0.978650,0.005473,0.391397,-0.000002,-0.000011,-0.000018,0.000013,-0.000025,-37.824729,0.000025,
2506,2803,5.35666054664372,3.46572669478365,-0.0237715035140127,0.002542,0.004342,0.009080,0.083535,0.259709,318.104813,25.023698,0.999156,0.985862,0.004897,0.405719,-0.000010,0.000046,-0.000014,0.000049,-0.000013,-76.784481,0.000051,
2446,2488,4.11587086260451,-3.41236925484409,0.00923264046281247,0.002757,0.003899,0.007405,0.100498,0.233865,323.379138,23.765881,0.999443,0.985230,0.004641,0.476052,0.000011,-0.000007,0.000005,0.000013,-0.000009,14.260900,0.000013,
2416,2593,3.43855903037262,-1.11696570929148,-0.0186496299593841,0.002513,0.004212,0.005473,0.097076,0.240685,321.386938,24.246274,0.999548,0.990609,0.003955,0.411013,0.000018,0.000010,-0.000003,0.000019,0.000008,-19.850212,0.000028,
2416,2338,3.49119043839145,-6.69070874654221,0.00846549135167152,0.002504,0.004836,0.001244,0.112214,0.283914,325.765139,23.453191,0.998935,0.981541,0.005094,0.412593,0.000001,0.000038,0.000012,0.000041,-0.000002,73.943171,0.000046,
2506,2563,5.40982133386926,-1.77252555187466,0.00846041181728197,0.003417,0.003748,0.010927,0.116102,0.259316,322.320027,23.927313,0.999802,0.990674,0.003935,0.517094,0.000020,-0.000035,0.000009,0.000021,-0.000037,9.048806,0.000037,
2461,2578,4.42178236011859,-1.44290257425878,-0.0241529186632192,0.002736,0.003771,0.011730,0.083068,0.262668,321.650018,24.074804,0.999535,0.991106,0.004185,0.496052,0.000014,0.000003,-0.000006,0.000016,0.000000,-24.738223,0.000019,
2386,2413,2.8218581490231,-5.0520676742155,0.01026004038971,0.002610,0.004253,0.006346,0.098699,0.262235,324.520355,23.693025,0.999347,0.983908,0.004926,0.487172,0.000009,0.000021,0.000027,0.000043,-0.000012,51.296241,0.000044,
2431,2413,3.80314595240993,-5.05063627727366,0.00203839931612038,0.002917,0.004052,0.007244,0.108744,0.280307,324.516324,23.543401,0.999595,0.986522,0.004735,0.521911,0.000004,0.000021,0.000019,0.000034,-0.000009,56.531066,0.000035,
2491,2698,5.0516213493301,1.17715990295937,-0.0253321189665598,0.002535,0.004437,0.004959,0.099309,0.264901,319.776771,24.607813,0.999709,0.989210,0.004010,0.400707,0.000008,0.000064,-0.000016,0.000068,0.000003,-75.463880,0.000081,
2461,2788,4.38048520664425,3.13578818267062,-0.01612025468296,0.002582,0.004679,0.004882,0.102290,0.269651,318.316087,24.893985,0.999224,0.985796,0.004499,0.450919,0.000006,0.000067,-0.000009,0.000068,0.000004,-81.734145,0.000082,
2446,2713,4.0673681495513,1.50216379306257,-0.0285608085740705,0.002421,0.004314,0.007883,0.083702,0.286601,319.385267,24.611191,0.999712,0.991473,0.003778,0.478410,-0.000002,0.000056,-0.000012,0.000058,-0.000004,-78.719656,0.000065,
2506,3058,5.30767094542348,9.00966291855559,0.0187452949866156,0.002765,0.004190,0.011047,0.086278,0.267184,314.293714,25.999774,0.999717,0.992239,0.003846,0.466477,0.000029,0.000056,0.000008,0.000058,0.000027,75.235856,0.000088,
2401,2068,3.216498100885,-12.6094664621151,0.0097038811065886,0.002572,0.003990,0.001950,0.112218,0.233579,330.118621,22.574620,0.999280,0.978996,0.005998,0.430837,0.000014,0.000028,-0.000002,0.000028,0.000013,-82.773005,0.000042,
2476,2653,4.73494314766625,0.193614486388057,-0.0155963754784807,0.002947,0.004263,0.006681,0.111740,0.260529,320.565163,24.374794,0.999629,0.989717,0.003897,0.460218,-0.000006,0.000022,-0.000018,0.000031,-0.000015,-64.138599,0.000031,
2386,2008,2.90215969187029,-13.9287059803338,0.0368073644525566,0.002779,0.003320,0.006771,0.104187,0.229050,331.287586,22.604915,0.998828,0.971037,0.006296,0.303114,0.000048,0.000018,0.000012,0.000052,0.000014,18.985838,0.000069,
2401,2263,3.17789801685469,-8.3327675115797,0.00911270127824082,0.002789,0.003274,0.011842,0.086292,0.255767,326.939395,23.287217,0.999272,0.985038,0.004850,0.368112,-0.000008,0.000006,-0.000012,0.000013,-0.000015,-59.718531,0.000016,
2431,2638,3.75657895261688,-0.135301387100867,-0.0165201667913948,0.002485,0.004091,0.007195,0.089224,0.244624,320.687281,24.347541,0.999632,0.990422,0.003945,0.447622,0.000003,0.000022,-0.000019,0.000033,-0.000008,-58.212763,0.000034,
2491,2983,4.9950408069764,7.38066482231922,-0.00243557377137904,0.002580,0.004308,0.006493,0.095632,0.258651,315.310433,25.746100,0.999159,0.987025,0.004370,0.370268,0.000020,0.000013,0.000006,0.000023,0.000009,29.059189,0.000034,
2401,2518,3.12741529859442,-2.75615627419266,-0.00986452710100139,0.002860,0.004413,0.004357,0.117279,0.269089,322.681581,23.925197,0.999467,0.987607,0.004477,0.545891,0.000011,-0.000004,0.000005,0.000013,-0.000006,17.746458,0.000013,
2476,2863,4.69178228242849,4.76935505095454,-0.0142665972936697,0.002386,0.004491,0.006591,0.086547,0.259196,317.126047,25.190306,0.999177,0.984810,0.004519,0.437644,0.000004,0.000022,-0.000013,0.000029,-0.000003,-63.085104,0.000032,
2386,2188,2.86577653847254,-9.97674716242039,0.0183238148230203,0.002596,0.003914,0.007324,0.094207,0.275215,328.221231,23.119957,0.999092,0.981296,0.005337,0.392164,0.000002,0.000000,-0.000015,0.000016,-0.000014,-43.155929,0.000017,
2446,2503,4.1125174346695,-3.08400552027522,0.00674242627275135,0.002735,0.003849,0.008884,0.093987,0.248701,323.107916,23.842178,0.999484,0.987391,0.004392,0.467950,0.000012,-0.000004,0.000000,0.000012,-0.000004,0.099398,0.000012,
2431,2218,3.844824441641,-9.32259790302015,0.0296458605806151,0.003211,0.004182,0.001976,0.141459,0.229483,327.937091,22.883764,0.999503,0.984842,0.004901,0.453760,0.000002,0.000012,-0.000017,0.000024,-0.000011,-53.194318,0.000024,
2506,2818,5.3545691395066,3.79228811981834,-0.0181994571787527,0.003285,0.004173,0.011487,0.108293,0.275964,317.931299,25.098327,0.999314,0.988177,0.004391,0.408183,-0.000007,0.000032,-0.000003,0.000032,-0.000007,-86.246935,0.000034,
2491,2713,5.0483090371363,1.50370874485635,-0.0280797856781874,0.002599,0.004530,0.005822,0.099022,0.271556,319.509249,24.594906,0.999653,0.988805,0.004280,0.479374,-0.000005,0.000060,-0.000009,0.000061,-0.000006,-82.525796,0.000068,
2506,2578,5.40473576149133,-1.4419315765787,-0.00696389798173414,0.002681,0.004199,0.009948,0.086391,0.282932,321.915760,24.112332,0.999559,0.986713,0.004654,0.418007,0.000016,-0.000014,0.000007,0.000017,-0.000016,12.484593,0.000019,
2461,2593,4.42011259113738,-1.11648257558879,-0.0113342361664195,0.002897,0.003974,0.010071,0.096761,0.254579,321.527303,24.160516,0.999124,0.987739,0.004481,0.457118,0.000015,0.000003,0.000001,0.000016,0.000003,3.860271,0.000020,
2461,2803,4.37660774257781,3.46369358708267,-0.02465225323607,0.002633,0.004136,0.007200,0.095667,0.258096,317.992817,25.006823,0.999271,0.986334,0.004498,0.381092,0.000006,0.000054,-0.000004,0.000054,0.000006,-85.825735,0.000066,
2386,2428,2.81929996195884,-4.72354022131051,0.00579498554429847,0.003008,0.004326,0.002630,0.130298,0.253180,324.271480,23.763222,0.999446,0.987151,0.004592,0.452734,0.000010,0.000018,0.000024,0.000039,-0.000010,49.499878,0.000040,
2416,2608,3.43586415520835,-0.78950070239901,-0.0197037739485495,0.002898,0.004156,0.006052,0.112637,0.253418,321.149724,24.290900,0.999437,0.988747,0.004183,0.427721,0.000013,0.000013,-0.000005,0.000018,0.000008,-44.203772,0.000026,
2476,2668,4.7315051275829,0.519959074320155,-0.0174617291420986,0.002910,0.003951,0.009050,0.100907,0.242227,320.294977,24.360269,0.999536,0.987355,0.004186,0.513429,-0.000002,0.000026,-0.000018,0.000035,-0.000011,-64.201910,0.000036,
2446,2728,4.06521172959976,1.82761775628383,-0.0237519241479163,0.002845,0.003906,0.007626,0.103898,0.241461,319.202241,24.614546,0.999661,0.991194,0.003765,0.481954,-0.000007,0.000053,-0.000007,0.000053,-0.000008,-83.743146,0.000058,
2401,2278,3.17322478690422,-8.00198469916108,-0.00741938137161924,0.002151,0.003502,0.009211,0.066697,0.249066,326.538605,23.385864,0.999740,0.993662,0.003542,0.311197,-0.000007,0.000018,-0.000006,0.000020,-0.000009,-76.791972,0.000020,
2431,2653,3.75448784188368,0.190848785743441,-0.00705659941746717,0.002883,0.003606,0.010690,0.094442,0.247718,320.527930,24.383499,0.999577,0.989757,0.004086,0.465022,-0.000002,0.000024,-0.000016,0.000032,-0.000010,-63.803022,0.000033,
2416,2353,3.4879710283481,-6.36266396255898,0.00638026895694566,0.002503,0.004580,0.002523,0.107384,0.279058,325.500204,23.472232,0.998687,0.980723,0.005249,0.438530,0.000007,0.000044,0.000018,0.000051,0.000000,68.396897,0.000059,
2401,2083,3.21555619222322,-12.2807649238046,0.0239935673791933,0.003317,0.004504,0.000690,0.151033,0.251031,330.034493,22.714119,0.998807,0.975446,0.006264,0.356511,0.000011,0.000026,-0.000001,0.000026,0.000011,-86.065555,0.000038,
2431,2428,3.79967881534394,-4.72152114896048,-0.000435388647417767,0.002535,0.003867,0.005974,0.095799,0.247757,324.239089,23.710960,0.999372,0.985673,0.004861,0.373311,0.000004,0.000015,0.000019,0.000029,-0.000010,53.373170,0.000030,
2506,2833,5.35171752811885,4.11831566624566,-0.0150900170740442,0.002771,0.004688,0.005654,0.107484,0.270293,317.711856,25.130892,0.999515,0.989826,0.004047,0.430971,0.000001,0.000015,0.000004,0.000016,0.000000,75.043273,0.000018,
2491,2728,5.04556423479994,1.83119022227062,-0.0283960956627993,0.002896,0.004380,0.005014,0.115701,0.268190,319.278525,24.702141,0.999607,0.991184,0.003701,0.427898,-0.000008,0.000055,-0.000006,0.000056,-0.000009,-84.729528,0.000060,
2401,2533,3.12473500267909,-2.42735622737485,-0.00701730397992151,0.002931,0.004626,0.004957,0.118459,0.278853,322.462268,24.105142,0.999379,0.988280,0.004517,0.422285,0.000014,-0.000010,0.000005,0.000015,-0.000011,11.108116,0.000016,
2446,2518,4.10867881030564,-2.7559048599847,-0.000543159559583728,0.002351,0.003818,0.007103,0.083000,0.246387,322.792365,23.873534,0.999264,0.985162,0.004647,0.488034,0.000010,-0.000012,0.000003,0.000011,-0.000012,6.503028,0.000013,
2476,2878,4.68813558480273,5.09711248484228,-0.023053206461725,0.002515,0.004702,0.006485,0.092975,0.267950,316.813201,25.292283,0.998645,0.985164,0.004821,0.400989,0.000003,0.000022,-0.000007,0.000024,0.000001,-71.429531,0.000028,
2506,2593,5.40080325045282,-1.11286646590784,-0.0169997653486007,0.002596,0.004167,0.008506,0.088056,0.273326,321.588789,24.243742,0.999823,0.993813,0.003622,0.338980,0.000019,-0.000014,0.000016,0.000026,-0.000020,22.552283,0.000027,
2386,2203,2.86310080823248,-9.64699589278357,0.00909649897266718,0.003365,0.004202,0.005106,0.137531,0.255687,327.945316,23.180469,0.998743,0.978524,0.005629,0.358243,0.000001,0.000010,-0.000018,0.000024,-0.000013,-52.199301,0.000024,
2431,2233,3.84057873065688,-8.99250291350848,0.0243179495510049,0.002661,0.003697,0.005349,0.103673,0.221224,327.611804,23.016533,0.999292,0.981475,0.005296,0.365576,0.000001,0.000008,-0.000007,0.000013,-0.000003,-58.434608,0.000013,
2461,2818,4.37431129314549,3.78896972504266,-0.0167018007292654,0.002825,0.003913,0.008725,0.098659,0.243704,317.818262,25.011664,0.999212,0.985989,0.004646,0.415874,0.000004,0.000035,-0.000001,0.000035,0.000004,-87.529470,0.000043,
2476,2683,4.72796868466338,0.848183420992299,-0.0227983815291282,0.002719,0.003809,0.007123,0.099420,0.243534,320.003996,24.475068,0.999666,0.988837,0.004011,0.457054,0.000006,0.000053,-0.000015,0.000057,0.000002,-73.785311,0.000067,
2461,2608,4.41709514385315,-0.789736751251624,-0.00654809577878268,0.002541,0.003481,0.010393,0.079010,0.242723,321.305835,24.213945,0.998940,0.984718,0.004810,0.446681,0.000012,0.000010,-0.000002,0.000013,0.000009,-31.482185,0.000022,
2431,2668,3.75008868500732,0.520560257985508,-0.0226266049996298,0.002561,0.003870,0.008603,0.087510,0.260020,320.145486,24.532675,0.999455,0.989814,0.004276,0.379041,-0.000001,0.000029,-0.000019,0.000038,-0.000010,-64.753285,0.000040,
2446,2743,4.0629717667559,2.15381830133324,-0.0127886916902753,0.002835,0.003734,0.009176,0.097609,0.241212,319.043404,24.694577,0.999596,0.990194,0.003894,0.453819,-0.000007,0.000070,-0.000007,0.000070,-0.000008,-84.580064,0.000077,
2401,2293,3.17037593440032,-7.67487008306117,-0.0044518855095248,0.002219,0.003315,0.012255,0.058755,0.251543,326.313416,23.343236,0.999540,0.990013,0.004036,0.404055,-0.000004,0.000026,-0.000002,0.000026,-0.000005,-86.349242,0.000028,
2386,2443,2.81540352546865,-4.3949907888282,-0.00160933038358735,0.003031,0.003964,0.008244,0.111134,0.270789,323.947101,23.787109,0.999302,0.987578,0.004630,0.491559,0.000018,0.000007,0.000025,0.000038,-0.000013,39.084260,0.000039,
2506,2848,5.34853020814113,4.44526297805699,-0.011554054957287,0.002607,0.004294,0.008224,0.089854,0.261617,317.478568,25.258296,0.999630,0.991967,0.003625,0.355613,0.000001,0.000021,-0.000008,0.000024,-0.000002,-71.051890,0.000027,
2476,2893,4.68571336197956,5.42322024478516,-0.0207483782845088,0.002898,0.004410,0.005862,0.112851,0.260186,316.607474,25.344943,0.998770,0.985248,0.004734,0.396680,0.000006,0.000007,-0.000011,0.000017,-0.000004,-45.844005,0.000018,
2416,2368,3.48545411874809,-6.03567052413565,0.0106086692268832,0.002669,0.004297,0.003515,0.111290,0.262380,325.297083,23.473398,0.999101,0.982509,0.004998,0.469903,0.000007,0.000040,0.000021,0.000050,-0.000003,64.043215,0.000056,
2431,2443,3.79672423476663,-4.39356728705819,-0.0036190837513459,0.002881,0.004086,0.006836,0.108593,0.270675,323.981993,23.715271,0.999173,0.984876,0.004900,0.443495,0.000013,-0.000007,0.000018,0.000023,-0.000017,30.735646,0.000024,
2491,2743,5.0421115614928,2.15790729796726,-0.0283964503001357,0.002790,0.004123,0.008222,0.098450,0.268633,319.016718,24.742524,0.999684,0.990987,0.003763,0.447026,-0.000012,0.000085,-0.000007,0.000086,-0.000012,-85.720232,0.000093,
2506,2608,5.39802547054036,-0.786605680575896,-0.018229242643315,0.002626,0.004562,0.003848,0.107595,0.272328,321.354591,24.190788,0.999831,0.993483,0.003700,0.452859,0.000010,-0.000001,0.000015,0.000020,-0.000011,34.878940,0.000020,
2446,2533,4.10635223385667,-2.426155852004,-0.00352362359592462,0.002991,0.004537,0.003550,0.125897,0.259670,322.565650,24.084610,0.999277,0.986708,0.004555,0.343470,0.000014,-0.000019,0.000000,0.000014,-0.000019,0.092082,0.000020,
2476,2698,4.72511647351772,1.17587571990327,-0.0211950374906564,0.002613,0.004477,0.005039,0.102789,0.265704,319.775936,24.582176,0.999686,0.988470,0.004189,0.429161,0.000007,0.000064,-0.000015,0.000068,0.000003,-76.236094,0.000081,
2386,2218,2.86068435091364,-9.31937044405856,0.0176351400475028,0.003102,0.004051,0.004280,0.128355,0.235388,327.765490,23.238948,0.998913,0.979272,0.005731,0.324908,0.000000,0.000009,-0.000015,0.000020,-0.000011,-53.208208,0.000020,
2461,2623,4.41383917665236,-0.460341976334789,-0.0195479627481632,0.002992,0.004343,0.005562,0.118298,0.269849,320.991443,24.323893,0.999432,0.988126,0.004199,0.419305,0.000013,0.000016,-0.000010,0.000024,0.000005,-49.681115,0.000031,
2461,2833,4.37088012414624,4.11716779126027,-0.0233905887172341,0.003040,0.004100,0.009492,0.105706,0.251029,317.523675,25.156487,0.999518,0.989315,0.004012,0.332863,0.000003,0.000025,-0.000003,0.000025,0.000003,-83.183877,0.000031,
2476,2908,4.68358444909067,5.74858298923404,-0.0142230545984035,0.003277,0.004032,0.005929,0.129899,0.248898,316.434552,25.366840,0.998983,0.983652,0.004835,0.419500,0.000008,-0.000004,-0.000001,0.000008,-0.000004,-2.850424,0.000008,
2491,2758,5.03950077724821,2.48331830121497,-0.0228573189365306,0.002804,0.003771,0.008435,0.098053,0.236473,318.818871,24.743551,0.999557,0.987877,0.004138,0.472526,-0.000005,0.000086,-0.000010,0.000087,-0.000006,-83.937629,0.000097,
2431,2683,3.74753757600776,0.847115285066835,-0.0208026629719029,0.002749,0.004156,0.007574,0.100055,0.271745,319.929291,24.542574,0.999476,0.988700,0.004261,0.431337,0.000002,0.000051,-0.000018,0.000057,-0.000004,-71.623572,0.000064,
2446,2758,4.05908364701179,2.48196342185803,-0.0265858490906794,0.002782,0.004365,0.005584,0.108851,0.262164,318.694089,24.739719,0.999571,0.988865,0.004099,0.482295,-0.000002,0.000074,-0.000008,0.000075,-0.000003,-84.011768,0.000085,
2431,2458,3.79356657178674,-4.06589826422732,-0.00627852660250028,0.002751,0.004397,0.004868,0.110046,0.281627,323.718019,23.715730,0.999387,0.985389,0.004814,0.505605,0.000012,-0.000001,0.000013,0.000020,-0.000009,31.873441,0.000020,
2401,2308,3.16798583433218,-7.34718631075616,-0.00779448506318658,0.002721,0.003833,0.008674,0.094893,0.256364,326.079485,23.291878,0.999774,0.993967,0.003472,0.507666,0.000000,0.000022,0.000004,0.000023,-0.000001,79.893213,0.000026,
2386,2458,2.81224522712167,-4.06633493790981,-0.00539114145283293,0.003118,0.003898,0.008861,0.112861,0.264245,323.673744,23.884399,0.999331,0.986855,0.004669,0.432485,0.000016,0.000012,0.000024,0.000038,-0.000010,42.775228,0.000040,
2416,2383,3.48327044639766,-5.70754939487484,0.0185257482019665,0.002836,0.004099,0.003905,0.117440,0.243308,325.126244,23.620143,0.999712,0.986683,0.004490,0.353291,0.000012,0.000032,0.000014,0.000039,0.000004,62.250720,0.000048,
2446,2548,4.10268628029702,-2.09885686220485,-0.00621844201180011,0.002841,0.004211,0.007163,0.105456,0.267817,322.279081,24.084134,0.999573,0.988769,0.004209,0.405250,0.000021,-0.000024,-0.000007,0.000021,-0.000025,-8.153963,0.000027,
2491,2773,5.03635617067266,2.81093488973787,-0.0212212985551332,0.002563,0.004057,0.007966,0.088956,0.251912,318.578213,24.873017,0.999172,0.985990,0.004476,0.417331,-0.000004,0.000076,-0.000006,0.000076,-0.000004,-85.378653,0.000086,
2386,2233,2.8576537518896,-8.99173258053463,0.0293693501121197,0.002465,0.003426,0.009683,0.079648,0.249033,327.572421,23.301839,0.999229,0.982273,0.005571,0.321161,0.000000,0.000003,-0.000005,0.000007,-0.000004,-54.266086,0.000007,
2431,2473,3.790751657494,-3.7387884129666,0.00129491822821137,0.002486,0.003999,0.007185,0.089192,0.247168,323.517373,23.809986,0.999349,0.984670,0.004785,0.427778,0.000006,-0.000008,0.000011,0.000012,-0.000014,29.270018,0.000015,
2401,2323,3.16606543160954,-7.01936514321142,0.00736036956323005,0.002299,0.004179,0.005893,0.085763,0.261360,325.953924,23.441964,0.999325,0.987306,0.004413,0.409349,0.000001,0.000027,0.000008,0.000030,-0.000002,73.931676,0.000033,
2416,2398,3.47948230651157,-5.38001201059846,0.0110820201604724,0.002874,0.003627,0.007461,0.105996,0.253628,324.810028,23.541175,0.999588,0.986221,0.004664,0.492258,0.000013,0.000034,0.000021,0.000047,0.000000,58.483382,0.000054,
2386,2248,2.85341326443556,-8.66202179165406,0.0138168300758821,0.002542,0.003163,0.012217,0.073991,0.261619,327.194519,23.278850,0.999153,0.982393,0.005412,0.403233,-0.000003,-0.000004,-0.000006,0.000003,-0.000009,-41.846683,0.000010,
