Image X[Pixel],Image Y[Pixel],X[mm],Y[mm],Z[mm],Horizontal Displacement U[mm],Vertical Displacement V[mm],Out-Of-Plane: W[mm],Horizontal: u[Pixel],Vertical: v[Pixel],Horizontal: q[Pixel],Vertical: r[Pixel],Correlation Value 2D,Correlation Value Persp,Sigma,Epipolar Distance,Strain-global frame: Exx,Strain-global frame: Eyy,Strain-global frame: Exy,Maximum Principal Strain: EI,Minimum Principal Strain: EII,Shear Angle Gamma,Von Mises Equivalent Strain,
2011,1993,-5.28013402004945,-14.2508675699084,0.0221478291382482,0.004529,0.001367,-0.008268,0.230454,0.034800,332.561667,24.946263,0.998780,0.982736,0.005290,0.361422,-0.000074,-0.000247,-0.000037,-0.000066,-0.000254,-11.500930,0.000338,
2011,2008,-5.28328410145012,-13.9203761234792,0.0131275469865386,0.004379,0.000421,-0.002969,0.209037,0.027869,332.225186,24.978837,0.998908,0.984833,0.005011,0.314322,-0.000077,-0.000209,-0.000050,-0.000060,-0.000226,-18.602262,0.000302,
2011,2023,-5.28537579071072,-13.5924465518681,0.0132002262977835,0.004335,0.000749,-0.004345,0.210848,0.036421,331.988111,24.872066,0.998710,0.984471,0.005133,0.421300,-0.000069,-0.000221,-0.000051,-0.000054,-0.000236,-16.835813,0.000309,
2011,2038,-5.28722558721976,-13.262421169621,0.00584737993307272,0.004943,0.001199,-0.006480,0.244656,0.044164,331.720246,24.878968,0.998397,0.980548,0.005534,0.413884,-0.000059,-0.000199,-0.000040,-0.000048,-0.000210,-14.924321,0.000274,
2011,2053,-5.29024517839542,-12.9341973806892,0.0146880294354332,0.004146,-0.000412,0.003503,0.180653,0.025337,331.489976,24.935551,0.999353,0.991751,0.003904,0.330008,-0.000048,-0.000177,-0.000030,-0.000042,-0.000183,-12.518663,0.000240,
2011,2068,-5.29155950443222,-12.607234225494,0.0214925675634845,0.004451,-0.000389,0.001511,0.200064,0.003768,331.326380,24.861425,0.999347,0.991618,0.003918,0.373413,-0.000046,-0.000096,-0.000002,-0.000046,-0.000096,-1.944023,0.000145,
2011,2083,-5.29397730822778,-12.276730023356,0.0111764047331917,0.004596,0.000192,-0.001962,0.216298,0.034477,331.015903,24.873914,0.998544,0.982852,0.005377,0.383720,-0.000050,-0.000063,-0.000003,-0.000049,-0.000063,-13.878667,0.000113,
2011,2098,-5.29622238839429,-11.9462642097317,0.00526481379159804,0.004699,0.001208,-0.004682,0.228670,0.088270,330.737802,24.914952,0.998315,0.979346,0.005849,0.387677,-0.000046,-0.000071,-0.000003,-0.000046,-0.000071,-6.412331,0.000118,
2011,2113,-5.2978692622235,-11.6196742442078,0.013836898213583,0.004708,0.000649,-0.004445,0.228311,0.045836,330.569192,24.862304,0.998289,0.981149,0.005745,0.388714,-0.000045,-0.000079,0.000004,-0.000044,-0.000079,6.882552,0.000125,
2011,2128,-5.30056644184681,-11.2897351351685,0.00610442611662165,0.004658,0.000470,-0.004051,0.224943,0.051931,330.260679,24.894717,0.998109,0.979791,0.006033,0.354005,-0.000051,-0.000072,0.000011,-0.000046,-0.000077,23.409071,0.000124,
2011,2143,-5.30339815791041,-10.9618244124661,0.00726001214326288,0.004286,0.000107,0.002205,0.190820,0.083590,329.995987,24.818721,0.997826,0.980137,0.005919,0.452540,-0.000028,-0.000021,0.000008,-0.000016,-0.000034,56.750678,0.000050,
2011,2158,-5.30567712063844,-10.6320772202326,0.00634757115324192,0.004297,0.000158,0.003307,0.188421,0.078511,329.744786,24.929638,0.998142,0.979036,0.006049,0.327642,-0.000029,-0.000026,-0.000012,-0.000016,-0.000039,-48.198919,0.000056,
2011,2173,-5.30781525072421,-10.3049372992286,0.00886757236912672,0.004041,0.000375,0.001182,0.182468,0.078620,329.519731,24.839556,0.998692,0.985900,0.005224,0.408629,-0.000028,0.000007,-0.000015,0.000012,-0.000033,-69.935137,0.000033,
2011,2188,-5.31096367214507,-9.97379930717385,-0.0134706053097489,0.004441,-0.000176,0.001923,0.198689,0.068093,329.108829,24.868056,0.999510,0.992397,0.004127,0.361238,-0.000034,0.000064,0.000002,0.000064,-0.000034,88.983112,0.000064,
2011,2203,-5.31152305245186,-9.64700408367786,-0.00910894024917752,0.005433,0.000706,-0.003946,0.260414,0.067454,328.966245,24.777780,0.999498,0.992319,0.004138,0.441009,-0.000035,0.000059,0.000002,0.000059,-0.000035,88.478032,0.000059,
2011,2218,-5.3140576875531,-9.31998708460803,0.00169561785367023,0.004729,-0.000034,0.001124,0.214192,0.041896,328.769639,24.804424,0.998998,0.987168,0.004887,0.379211,-0.000033,0.000042,-0.000005,0.000043,-0.000033,-86.370890,0.000045,
2011,2233,-5.3171571644391,-8.99168614613488,0.000669544037407377,0.003870,-0.000128,0.001197,0.174502,0.055309,328.480660,24.791145,0.999283,0.984587,0.004962,0.396739,-0.000021,0.000054,-0.000004,0.000054,-0.000021,-87.074607,0.000054,
2011,2248,-5.31886256802277,-8.66444900365452,0.0030655668684858,0.004145,0.000200,0.000420,0.189397,0.052701,328.274789,24.736910,0.999220,0.984061,0.004946,0.438412,-0.000031,0.000079,0.000001,0.000079,-0.000031,89.532852,0.000080,
2011,2263,-5.32039660033687,-8.33619258311478,-0.000218602027985071,0.004737,0.000579,-0.003733,0.227965,0.037126,328.044830,24.735559,0.998817,0.980878,0.005150,0.414635,-0.000041,0.000076,0.000013,0.000077,-0.000042,83.743425,0.000077,
2011,2278,-5.32354215724033,-8.00833945310234,-0.00168989713120027,0.003974,0.000252,-0.001798,0.187569,0.043121,327.751447,24.700190,0.998612,0.981799,0.005435,0.446511,-0.000038,0.000051,0.000007,0.000052,-0.000038,85.498307,0.000054,
2011,2293,-5.32629465140539,-7.67821678884189,-0.010388986634382,0.004221,0.000169,0.003134,0.185594,0.087490,327.434893,24.766463,0.998984,0.986840,0.004779,0.415162,-0.000033,0.000035,-0.000007,0.000036,-0.000034,-84.572814,0.000040,
2011,2308,-5.32831360056945,-7.35113560064792,-0.00999604769430107,0.004123,0.000094,-0.000881,0.191920,0.045917,327.203798,24.737528,0.998939,0.987052,0.004800,0.392537,-0.000042,0.000017,-0.000015,0.000020,-0.000045,-76.744807,0.000045,
2011,2323,-5.32915009736243,-7.02498639594534,0.00388360622275741,0.004609,0.000281,-0.001468,0.215946,0.051414,327.102223,24.714975,0.998938,0.984323,0.005093,0.410017,-0.000043,0.000009,-0.000027,0.000021,-0.000055,-67.000329,0.000056,
2011,2338,-5.33205653256755,-6.69754192861485,0.000523329801183081,0.004272,-0.000022,0.001633,0.191987,0.043430,326.809422,24.658116,0.999037,0.986227,0.004789,0.449210,-0.000039,-0.000023,-0.000030,0.000000,-0.000062,-52.663428,0.000072,
2011,2353,-5.33479692773504,-6.36777459802235,-0.0112713057815199,0.004267,0.000400,-0.001092,0.199282,0.039923,326.476426,24.732083,0.999058,0.989407,0.004536,0.362072,-0.000023,0.000005,-0.000005,0.000006,-0.000024,-80.347185,0.000025,
2011,2368,-5.33659248657994,-6.04117164033051,-0.00892544090100955,0.004478,0.000341,-0.001822,0.210944,0.054275,326.266447,24.642839,0.999077,0.989006,0.004587,0.455488,-0.000007,0.000012,-0.000010,0.000016,-0.000012,-66.046965,0.000017,
2011,2383,-5.33819242665872,-5.71286462259186,-0.00910172706261392,0.004955,0.000873,-0.004013,0.239040,0.079463,326.050853,24.678840,0.999161,0.989009,0.004313,0.434125,-0.000012,0.000004,-0.000025,0.000023,-0.000030,-53.519086,0.000031,
2011,2398,-5.3403681237675,-5.38673799541067,-0.00528543457431851,0.004953,0.000148,-0.000543,0.229313,0.046543,325.832107,24.616731,0.999080,0.988536,0.004406,0.453011,-0.000013,-0.000036,-0.000038,0.000015,-0.000064,-36.462717,0.000067,
2011,2413,-5.34341755590875,-5.05967121365822,-0.00373017690048982,0.004149,0.000037,0.001826,0.185924,0.043169,325.560452,24.594244,0.999179,0.988449,0.004339,0.461768,-0.000011,-0.000056,-0.000022,-0.000001,-0.000065,-22.369073,0.000076,
2011,2428,-5.34565146939314,-4.73195583605492,-0.00470463752429851,0.004173,0.000154,0.001781,0.187206,0.061306,325.311670,24.590381,0.999063,0.987453,0.004499,0.473327,-0.000021,-0.000063,-0.000014,-0.000017,-0.000067,-17.163903,0.000089,
2011,2443,-5.34763625258379,-4.40347181581392,-0.00441802160929683,0.004366,0.000342,0.001529,0.196830,0.067694,325.081199,24.685289,0.999381,0.990326,0.004018,0.374049,-0.000018,-0.000050,-0.000020,-0.000009,-0.000060,-25.387764,0.000074,
2011,2458,-5.34953824687516,-4.07716732676608,-0.00512556639017703,0.004478,0.000761,-0.002292,0.212498,0.066418,324.849565,24.584204,0.999456,0.990581,0.003920,0.463493,-0.000025,-0.000033,-0.000024,-0.000006,-0.000053,-40.230820,0.000065,
2011,2473,-5.3524409196817,-3.74975023471103,-0.00872942474615002,0.004206,0.000099,0.001180,0.190381,0.056041,324.555729,24.572380,0.999201,0.988464,0.004257,0.454265,-0.000012,-0.000043,-0.000007,-0.000010,-0.000044,-11.733271,0.000058,
2011,2488,-5.35478449117663,-3.42172611215744,-0.0220675442128595,0.004569,0.000620,-0.003764,0.220670,0.047963,324.232749,24.530093,0.999263,0.988450,0.004290,0.478170,-0.000018,-0.000050,0.000001,-0.000018,-0.000050,0.987711,0.000071,
2011,2503,-5.35776952030917,-3.09330517210547,-0.024874699628981,0.004166,0.000190,-0.000460,0.193091,0.053614,323.939294,24.612782,0.999613,0.992581,0.003756,0.390353,-0.000021,-0.000020,0.000000,-0.000020,-0.000021,76.100021,0.000042,
2011,2518,-5.3596577907022,-2.7680800617719,-0.0172025784026459,0.004159,0.000198,0.001720,0.186883,0.075330,323.755548,24.486453,0.999658,0.993120,0.003602,0.527171,-0.000030,-0.000004,0.000009,-0.000002,-0.000032,72.976172,0.000038,
2011,2533,-5.36174822083693,-2.44110857011589,-0.0148183809087072,0.004127,0.000041,0.001414,0.186213,0.059106,323.532603,24.514178,0.999360,0.988620,0.004274,0.472513,-0.000022,-0.000003,0.000030,0.000019,-0.000043,53.622804,0.000043,
2011,2548,-5.36341935325742,-2.11433749341374,-0.017810200938527,0.004802,0.000178,0.000600,0.219532,0.058989,323.298728,24.464261,0.999531,0.989799,0.003833,0.511093,-0.000008,-0.000012,0.000039,0.000029,-0.000050,43.481886,0.000050,
2011,2563,-5.36588749720381,-1.78730353726039,-0.0174455523338679,0.004539,0.000048,0.000678,0.207236,0.063668,323.047151,24.468447,0.999429,0.988675,0.004077,0.500629,-0.000011,0.000000,0.000033,0.000028,-0.000039,49.497707,0.000040,
2011,2578,-5.36891193437031,-1.45962972180224,-0.0249285054983943,0.003942,0.000637,-0.003376,0.190940,0.084732,322.725917,24.451235,0.999059,0.987120,0.004644,0.527927,-0.000019,-0.000008,0.000017,0.000005,-0.000032,53.425153,0.000034,
2011,2593,-5.37104112841932,-1.13235611858018,-0.0258980816446979,0.004128,0.000797,-0.002850,0.198122,0.075287,322.482368,24.489720,0.999000,0.987987,0.004706,0.468674,-0.000016,0.000004,0.000033,0.000029,-0.000041,53.361102,0.000042,
2011,2608,-5.37436243099923,-0.804484206671745,-0.0378989956738565,0.004033,-0.000112,0.001901,0.180617,0.054537,322.122294,24.504597,0.999487,0.992142,0.003840,0.422100,-0.000015,0.000026,0.000037,0.000048,-0.000037,59.698015,0.000050,
2011,2623,-5.37570713790462,-0.479445361359453,-0.0268155911690542,0.004242,0.000063,0.001685,0.190920,0.061549,321.982876,24.434934,0.999474,0.992388,0.003725,0.487313,-0.000024,0.000022,0.000034,0.000040,-0.000042,62.209347,0.000047,
2011,2638,-5.37800561273619,-0.151465798227612,-0.038329776569185,0.004494,0.000777,-0.004497,0.219452,0.048654,321.672285,24.466864,0.999037,0.987663,0.004425,0.431337,-0.000025,0.000024,0.000036,0.000043,-0.000045,62.078646,0.000050,
2011,2653,-5.38012037897272,0.174811620894708,-0.0426281734081044,0.004830,0.000687,-0.005110,0.236638,0.063371,321.411016,24.382027,0.998911,0.987708,0.004474,0.519535,-0.000039,0.000029,0.000027,0.000039,-0.000048,70.492112,0.000051,
2011,2668,-5.38245901023091,0.50015506393212,-0.0291414154543759,0.004351,0.000087,0.002033,0.195017,0.059088,321.239654,24.383463,0.998984,0.988197,0.004314,0.501894,-0.000039,0.000041,0.000029,0.000050,-0.000048,72.207738,0.000057,
2011,2683,-5.38416892410887,0.825660216234624,-0.018314088953673,0.004200,0.000079,0.001423,0.189724,0.051862,321.082141,24.383314,0.999768,0.996311,0.002837,0.483077,-0.000038,0.000028,0.000019,0.000033,-0.000043,75.130541,0.000045,
2011,2698,-5.3863953807221,1.15241163405702,-0.0207983613914848,0.004269,0.000590,-0.000116,0.197277,0.067813,320.825880,24.368737,0.999794,0.996109,0.002854,0.501970,-0.000032,0.000013,0.000017,0.000019,-0.000038,71.368253,0.000038,
2011,2713,-5.38961788825832,1.47975397067358,-0.0310372690508984,0.003844,0.000485,-0.001051,0.180211,0.059057,320.480400,24.375184,0.999687,0.994617,0.003313,0.475307,-0.000031,0.000016,0.000011,0.000018,-0.000033,77.321858,0.000033,
2011,2728,-5.39137384070564,1.80558260926455,-0.0294939870777284,0.004272,0.000410,-0.000524,0.198467,0.052649,320.268658,24.340815,0.999600,0.992752,0.003597,0.491597,-0.000037,0.000034,0.000007,0.000034,-0.000037,84.710617,0.000042,
2011,2743,-5.39410515813892,2.13387872796787,-0.0395374743423531,0.004467,0.000468,0.000790,0.203941,0.060461,319.946422,24.430793,0.999583,0.993336,0.003375,0.397759,-0.000045,0.000061,0.000010,0.000062,-0.000046,84.592787,0.000064,
2011,2758,-5.39608635437068,2.45907493729414,-0.0357936933461929,0.004494,0.000399,0.000501,0.205951,0.058716,319.736959,24.360524,0.999493,0.992676,0.003555,0.454124,-0.000044,0.000025,-0.000008,0.000026,-0.000044,-83.790331,0.000045,
2011,2773,-5.39804921725657,2.78528547338266,-0.0311606704412952,0.004505,0.000396,0.000432,0.206692,0.060329,319.533028,24.390811,0.999521,0.992217,0.003689,0.413631,-0.000031,0.000017,-0.000012,0.000020,-0.000034,-77.221510,0.000034,
2011,2788,-5.4000135141854,3.11103880115265,-0.0269589739559137,0.004410,0.000683,-0.001834,0.208616,0.075706,319.326758,24.365898,0.999562,0.992349,0.003610,0.441826,-0.000031,0.000041,-0.000006,0.000042,-0.000031,-85.065296,0.000044,
2011,2803,-5.40263928585766,3.43656485841576,-0.0313006104940428,0.004377,0.000290,-0.000481,0.203269,0.049558,319.042410,24.299764,0.999520,0.993015,0.003490,0.469880,-0.000025,0.000046,0.000002,0.000047,-0.000025,88.144253,0.000047,
2011,2818,-5.4051543277279,3.76239075915682,-0.0339744582192907,0.004240,0.000470,-0.001109,0.198735,0.050802,318.772359,24.251537,0.999181,0.991725,0.003723,0.507325,-0.000029,0.000043,-0.000002,0.000043,-0.000029,-88.175126,0.000044,
2011,2833,-5.40619535982527,4.08858022827074,-0.0181307867390501,0.004533,0.000500,-0.000966,0.211886,0.059494,318.673733,24.373387,0.999668,0.994758,0.003333,0.381524,-0.000032,0.000033,-0.000012,0.000035,-0.000034,-80.333228,0.000040,
2011,2848,-5.40894066744984,4.41330300301033,-0.0197415729746808,0.004202,0.000391,0.000030,0.193871,0.055179,318.399549,24.245563,0.999709,0.995260,0.003263,0.493028,-0.000028,0.000044,-0.000016,0.000047,-0.000031,-78.124580,0.000048,
2011,2863,-5.41092944368619,4.73982031820996,-0.022445621757015,0.004553,0.000391,-0.001446,0.214131,0.056476,318.153275,24.273213,0.999310,0.991516,0.004041,0.454398,-0.000029,0.000041,-0.000016,0.000044,-0.000033,-77.841415,0.000046,
2011,2878,-5.41292134727392,5.066228953404,-0.0209797642215221,0.004797,0.000845,-0.000532,0.223103,0.092424,317.930285,24.291662,0.999061,0.990463,0.004113,0.459605,-0.000029,0.000034,-0.000014,0.000037,-0.000032,-77.848841,0.000041,
2011,2893,-5.41535650546863,5.39129705617866,-0.0167831263003677,0.004400,0.000519,-0.000244,0.203841,0.058261,317.702958,24.280747,0.999241,0.992769,0.003569,0.423972,-0.000035,0.000029,-0.000008,0.000030,-0.000036,-83.351687,0.000039,
2011,2908,-5.41717149385521,5.71669868801281,-0.0107832518345958,0.004369,0.000614,-0.002484,0.208628,0.078594,317.513997,24.262762,0.999227,0.992724,0.003549,0.449945,-0.000033,0.000029,-0.000004,0.000030,-0.000034,-86.298106,0.000037,
2011,2923,-5.41935689687454,6.04189725486889,-0.00276988077467877,0.004189,0.000570,0.001005,0.190860,0.081471,317.319524,24.261269,0.999332,0.993202,0.003337,0.441478,-0.000037,0.000009,-0.000003,0.000009,-0.000037,-86.597296,0.000039,
2011,2938,-5.42161968254208,6.36768659286442,-0.00687241651110071,0.004411,0.000575,0.000398,0.202748,0.080556,317.053218,24.235485,0.999519,0.993681,0.003338,0.454131,-0.000030,0.000004,0.000003,0.000004,-0.000030,85.563007,0.000032,
2011,2953,-5.4231963101915,6.69310313872094,-0.00295361694190888,0.004715,0.000729,-0.002400,0.224486,0.084006,316.863604,24.231763,0.999704,0.994790,0.002955,0.448528,-0.000028,-0.000005,0.000000,-0.000005,-0.000028,-89.900937,0.000035,
2026,2068,-4.96435141517725,-12.6085107158525,0.0289662519925855,0.004274,-0.000141,-0.000021,0.196107,0.034107,331.291381,24.730429,0.999693,0.992893,0.003574,0.440691,-0.000026,-0.000083,0.000015,-0.000022,-0.000087,13.394815,0.000115,
2011,2968,-5.42546953364727,7.01849255726879,-0.001950832547152,0.004621,0.000874,-0.003118,0.222128,0.079850,316.625725,24.216675,0.999647,0.994954,0.002937,0.447048,-0.000025,-0.000004,-0.000009,-0.000001,-0.000028,-69.957873,0.000033,
2026,2083,-4.96665958215076,-12.2782520111552,0.0193245446943706,0.004500,0.000515,-0.003856,0.217221,0.012052,330.991633,24.780288,0.999206,0.987262,0.004621,0.362928,-0.000030,-0.000051,0.000009,-0.000027,-0.000054,19.823604,0.000083,
2011,2983,-5.42860121698022,7.34425485841963,-0.00457603448228383,0.004186,0.000650,0.001198,0.190307,0.094083,316.327963,24.196858,0.999344,0.992544,0.003400,0.468266,-0.000026,-0.000005,-0.000011,-0.000001,-0.000031,-66.141822,0.000036,
2026,2098,-4.96877139910014,-11.9490602624623,0.0206699422870429,0.004440,0.000879,-0.004736,0.217013,0.044954,330.761762,24.805179,0.998981,0.982124,0.005292,0.364005,-0.000030,-0.000052,0.000009,-0.000027,-0.000056,20.034914,0.000084,
2011,2998,-5.43032459319702,7.66907958575303,0.00502004916273791,0.004210,0.000634,0.001722,0.189992,0.083272,316.163889,24.202824,0.999421,0.993444,0.003265,0.438888,-0.000036,0.000019,-0.000011,0.000021,-0.000038,-79.145809,0.000038,
2026,2113,-4.97164114592517,-11.6199195154296,0.0125003523652936,0.004466,0.000381,-0.001108,0.208141,0.048868,330.444655,24.756254,0.998311,0.979462,0.005885,0.410850,-0.000031,-0.000051,0.000011,-0.000026,-0.000056,24.291944,0.000084,
2011,3013,-5.43235236167529,7.99385714241055,0.00713158696095206,0.004299,0.000496,0.000943,0.196137,0.065602,315.943824,24.163904,0.999600,0.993877,0.003244,0.447297,-0.000041,0.000037,-0.000007,0.000038,-0.000041,-85.034660,0.000046,
2026,2128,-4.97406201418953,-11.291373335764,0.010703026591159,0.004452,-0.000158,0.000709,0.202395,0.023866,330.183686,24.757185,0.998416,0.979071,0.006043,0.378282,-0.000039,-0.000050,0.000016,-0.000028,-0.000061,35.878530,0.000091,
2011,3028,-5.43368194730651,8.31852403956439,0.017426235324308,0.004768,-0.000028,0.002907,0.212335,0.063592,315.801858,24.157158,0.999534,0.993736,0.003409,0.439189,-0.000027,0.000050,0.000000,0.000050,-0.000027,89.931710,0.000050,
2026,2143,-4.97608858098665,-10.9636462846169,0.0135074736011802,0.004471,0.000207,0.001220,0.201970,0.042260,329.966229,24.695169,0.997854,0.979543,0.005987,0.451837,-0.000024,-0.000014,0.000009,-0.000008,-0.000029,59.092618,0.000039,
2011,3043,-5.43616076496258,8.64373625549353,0.015657865767821,0.004446,0.000509,-0.001145,0.208650,0.069606,315.539166,24.116175,0.999438,0.993888,0.003513,0.473304,-0.000030,0.000042,-0.000009,0.000043,-0.000031,-82.740960,0.000045,
2026,2158,-4.97851234068767,-10.633101300444,0.0111530595194154,0.004471,0.000066,0.002477,0.198488,0.057269,329.701464,24.843329,0.999138,0.986866,0.004744,0.311772,-0.000021,-0.000021,-0.000009,-0.000012,-0.000030,-44.529533,0.000043,
2011,3058,-5.43785153024587,8.96842959128372,0.0252287469127168,0.004419,0.000683,-0.002230,0.210337,0.055717,315.376655,24.125047,0.999161,0.993234,0.003519,0.437615,-0.000040,0.000031,-0.000010,0.000032,-0.000041,-82.121405,0.000043,
2026,2173,-4.9805180710595,-10.3058313361197,0.0142296689530781,0.004343,0.000238,0.000401,0.198370,0.051637,329.486728,24.776661,0.999167,0.988983,0.004396,0.365749,-0.000021,0.000007,-0.000014,0.000013,-0.000027,-67.952543,0.000027,
2011,3073,-5.44054284630028,9.2935871917386,0.0240790095647299,0.004317,0.000347,0.001540,0.195395,0.064689,315.107779,24.087820,0.999159,0.993760,0.003536,0.470940,-0.000041,0.000036,-0.000010,0.000037,-0.000042,-82.502219,0.000046,
2026,2188,-4.98293233518941,-9.97733154084692,0.00810086069247973,0.004294,0.000439,-0.002877,0.205197,0.056860,329.201920,24.719342,0.999049,0.986863,0.004795,0.421515,-0.000029,0.000055,-0.000003,0.000055,-0.000029,-88.206142,0.000055,
2011,3088,-5.44230936091559,9.61873369808378,0.0282427599726702,0.004486,0.000478,-0.000470,0.208710,0.068050,314.911246,24.092917,0.999571,0.995248,0.003014,0.456304,-0.000040,0.000026,-0.000015,0.000030,-0.000043,-77.794169,0.000044,
2026,2203,-4.98552115787077,-9.64756269270465,-0.00685918051885892,0.004704,0.000780,-0.004536,0.228717,0.045349,328.859890,24.708220,0.998820,0.984936,0.005179,0.414433,-0.000028,0.000051,0.000001,0.000051,-0.000028,89.596218,0.000051,
2011,3103,-5.44466167210554,9.94372559222767,0.031775064981332,0.004274,0.000351,0.000311,0.196805,0.069676,314.684396,24.085003,0.999537,0.995254,0.002996,0.452793,-0.000043,0.000035,-0.000007,0.000036,-0.000044,-84.989987,0.000047,
2026,2218,-4.98835247443848,-9.32032223530634,-0.00104847457498636,0.003938,0.000408,-0.000915,0.183537,0.032931,328.622756,24.690529,0.998500,0.981102,0.005578,0.412650,-0.000025,0.000043,-0.000002,0.000043,-0.000025,-88.646129,0.000043,
2011,3118,-5.44710808024346,10.269506459426,0.024849402227801,0.004482,0.000657,-0.000730,0.209297,0.070042,314.394075,24.089425,0.999692,0.995450,0.002871,0.435634,-0.000041,0.000048,-0.000008,0.000049,-0.000041,-85.178112,0.000052,
2011,3133,-5.44944061762353,10.5949951833578,0.0204218462457106,0.004585,0.000847,-0.003012,0.220393,0.086313,314.123155,24.071363,0.999659,0.994707,0.003025,0.457069,-0.000045,0.000052,-0.000006,0.000052,-0.000045,-86.455291,0.000056,
2026,2233,-4.99052316780312,-8.99127391532292,-0.00213285271763652,0.004113,-0.000014,0.000253,0.188264,0.036911,328.377018,24.754543,0.999322,0.986085,0.004764,0.345203,-0.000016,0.000055,-0.000002,0.000055,-0.000016,-88.039257,0.000056,
2011,3148,-5.45160106545833,10.9191038632456,0.0268037142095636,0.004464,0.000809,-0.001184,0.209805,0.083364,313.921586,24.015540,0.999688,0.994375,0.003145,0.496652,-0.000051,0.000047,-0.000008,0.000048,-0.000052,-85.576399,0.000058,
2026,2248,-4.99251490270136,-8.6646115663582,-0.0010931882376326,0.004233,-0.000010,-0.000112,0.194755,0.026924,328.151859,24.641899,0.999422,0.987613,0.004453,0.440464,-0.000025,0.000073,0.000001,0.000073,-0.000025,89.367509,0.000074,
2011,3163,-5.45359824638274,11.2440605818801,0.0359725286729713,0.004177,0.000908,-0.002190,0.199271,0.070575,313.742912,24.067217,0.999549,0.994333,0.003254,0.418899,-0.000046,0.000061,-0.000019,0.000065,-0.000049,-80.235936,0.000068,
2026,2263,-4.99422714852615,-8.33526438767493,-0.00203373011896701,0.004691,0.000249,-0.001763,0.220467,0.025741,327.927847,24.750252,0.998862,0.983820,0.004971,0.323398,-0.000032,0.000065,0.000008,0.000066,-0.000033,85.037934,0.000066,
2011,3178,-5.45568374552356,11.568397639131,0.0405469496014916,0.004210,0.000691,-0.000933,0.197296,0.061085,313.534592,24.033890,0.999773,0.995798,0.002652,0.429624,-0.000043,0.000056,-0.000019,0.000060,-0.000047,-79.585173,0.000063,
2026,2278,-4.99679578196623,-8.00821498438031,-0.000863518737105551,0.004122,0.000456,-0.003970,0.200448,0.034977,327.676944,24.665368,0.998553,0.985204,0.005045,0.410037,-0.000032,0.000041,0.000001,0.000041,-0.000032,88.935724,0.000043,
2011,3193,-5.45794557346733,11.8932402479493,0.0390013387017802,0.004366,0.000557,-0.000775,0.204088,0.057574,313.283535,24.008473,0.999761,0.995789,0.002612,0.438145,-0.000042,0.000057,-0.000021,0.000061,-0.000046,-78.548707,0.000063,
2011,3208,-5.45997685388424,12.2185535783225,0.0373428829410614,0.004596,0.000961,-0.003431,0.222110,0.076559,313.042242,24.007344,0.999606,0.993990,0.003126,0.445375,-0.000040,0.000039,-0.000026,0.000047,-0.000048,-73.654780,0.000055,
2026,2293,-4.99915336734351,-7.67971199444568,0.00266259103386801,0.004197,0.000431,0.003207,0.184234,0.096012,327.448246,24.690155,0.998611,0.984669,0.005075,0.438703,-0.000025,0.000031,-0.000010,0.000032,-0.000026,-80.457088,0.000034,
2011,3223,-5.46264868501123,12.5438453823801,0.0355745504073184,0.004512,0.000609,-0.000732,0.210806,0.067799,312.770991,24.035303,0.999441,0.993053,0.003435,0.394997,-0.000044,0.000021,-0.000034,0.000036,-0.000058,-67.018114,0.000059,
2026,2308,-5.00182325161524,-7.35089253250388,-0.00854252668727895,0.004258,0.000348,0.000571,0.194238,0.055953,327.123750,24.702294,0.998758,0.983691,0.005126,0.379183,-0.000031,0.000020,-0.000018,0.000026,-0.000037,-72.333237,0.000038,
2011,3238,-5.46411195487382,12.8677373394267,0.0432267339006671,0.004747,0.000905,-0.003640,0.229745,0.083937,312.608870,23.966661,0.999611,0.993645,0.003296,0.466693,-0.000044,0.000002,-0.000040,0.000025,-0.000067,-60.062694,0.000068,
2011,3253,-5.46668380629665,13.1930225882575,0.0428983681781006,0.004559,0.001121,-0.003022,0.219439,0.090122,312.350376,23.994485,0.999860,0.996190,0.002614,0.431488,-0.000040,-0.000009,-0.000051,0.000028,-0.000078,-53.660096,0.000078,
2026,2323,-5.00335496092358,-7.02411411575252,-0.00595751803996336,0.004624,0.000356,-0.002050,0.218254,0.047586,326.928278,24.639525,0.999015,0.984711,0.004909,0.425706,-0.000033,0.000007,-0.000030,0.000022,-0.000049,-61.895496,0.000049,
2011,3268,-5.46910281145335,13.5167069655528,0.046358180181528,0.004413,0.000714,-0.000522,0.205718,0.071567,312.120949,23.924072,0.999844,0.996218,0.002634,0.470111,-0.000032,-0.000013,-0.000055,0.000034,-0.000079,-49.977752,0.000079,
2011,3283,-5.47159039520093,13.8414622735145,0.0428538730395758,0.004550,0.000466,0.000907,0.208111,0.065132,311.848693,23.905552,0.999805,0.996529,0.002607,0.468530,-0.000037,0.000019,-0.000049,0.000047,-0.000065,-59.838787,0.000067,
2026,2338,-5.00568560269377,-6.69733419292223,-0.000341745096250179,0.004357,0.000088,0.001086,0.197349,0.033491,326.713219,24.617231,0.999216,0.987059,0.004484,0.425765,-0.000029,-0.000025,-0.000033,0.000007,-0.000060,-46.609774,0.000066,
2011,3298,-5.47452764451632,14.1666812937861,0.0368438140907301,0.004157,0.000845,-0.001567,0.196814,0.074415,311.541492,23.904866,0.999360,0.993232,0.003504,0.465066,-0.000051,0.000057,-0.000049,0.000076,-0.000070,-69.024058,0.000084,
2026,2353,-5.00789407981076,-6.36801485371529,-0.0112965285566133,0.004632,0.000751,-0.005540,0.228385,0.059772,326.410816,24.629129,0.999097,0.987201,0.004690,0.432707,-0.000014,-0.000003,-0.000010,0.000002,-0.000019,-59.144270,0.000021,
2026,1993,-4.95332656130366,-14.2513567912121,0.0260330026442261,0.004323,0.000880,-0.004713,0.211417,0.043268,332.481924,24.868785,0.998829,0.983116,0.005329,0.342598,-0.000026,-0.000218,-0.000001,-0.000026,-0.000218,-0.241190,0.000268,
2026,2008,-4.95656076757544,-13.9211395858617,0.0159784314832336,0.004269,-0.000004,0.001927,0.190511,0.060263,332.137396,24.840923,0.998661,0.984172,0.005320,0.381974,-0.000034,-0.000175,-0.000013,-0.000033,-0.000176,-5.266154,0.000224,
2026,2368,-5.01006688481545,-6.04123164126766,-0.00715153574014948,0.004542,0.000832,-0.003610,0.219010,0.074667,326.194712,24.573647,0.999123,0.987492,0.004672,0.494825,0.000000,0.000002,-0.000014,0.000015,-0.000013,-47.635709,0.000017,
2026,2023,-4.95823832656123,-13.5927121188232,0.0174109756595158,0.004468,0.000582,-0.001477,0.209155,0.066872,331.927977,24.796755,0.998640,0.983871,0.005407,0.426515,-0.000034,-0.000178,-0.000016,-0.000032,-0.000180,-6.443334,0.000229,
2026,2383,-5.01231479872964,-5.71383849426291,-0.00351691152394551,0.004394,0.000514,-0.002052,0.207857,0.069345,325.972295,24.593531,0.999383,0.989832,0.004010,0.461484,-0.000003,-0.000003,-0.000023,0.000020,-0.000026,-45.061442,0.000027,
2026,2038,-4.96036001338236,-13.2651821506614,0.0218544902978692,0.004185,0.000534,-0.002526,0.199036,0.046139,331.715355,24.737272,0.998579,0.980107,0.005627,0.459058,-0.000030,-0.000166,-0.000013,-0.000029,-0.000167,-5.445400,0.000212,
2026,2053,-4.96251421568513,-12.9347146675401,0.0267734501906034,0.004203,-0.000152,0.002005,0.187280,0.049661,331.503253,24.931132,0.999676,0.993238,0.003556,0.262107,-0.000024,-0.000153,-0.000007,-0.000024,-0.000154,-3.167781,0.000193,
2026,2398,-5.01464882057115,-5.38691166084075,-0.00261316527360123,0.004460,0.000079,0.001794,0.200205,0.047024,325.730952,24.566123,0.999311,0.990158,0.004027,0.458628,-0.000003,-0.000029,-0.000031,0.000018,-0.000049,-33.464068,0.000050,
2026,2413,-5.01743839593945,-5.05808197084086,-0.0101171611291875,0.004328,0.000530,0.001417,0.195373,0.085035,325.421308,24.577724,0.999156,0.987623,0.004459,0.476925,0.000003,-0.000047,-0.000019,0.000009,-0.000054,-18.667308,0.000057,
2041,2143,-4.64937851711714,-10.9637459427509,0.0166709866580277,0.004037,0.000569,-0.002527,0.192484,0.046191,329.893648,24.650566,0.998170,0.982509,0.005781,0.417255,-0.000024,-0.000016,0.000003,-0.000015,-0.000025,71.979542,0.000041,
2026,2428,-5.02009404188875,-4.73072716791024,-0.0137605916418124,0.004123,0.000193,0.001448,0.185750,0.060169,325.139885,24.559447,0.998997,0.985834,0.004743,0.462303,-0.000009,-0.000054,-0.000010,-0.000007,-0.000055,-11.633037,0.000068,
2041,2158,-4.65243116027317,-10.6322318612224,0.000875325383390191,0.004493,0.000102,0.002586,0.199111,0.055382,329.527168,24.749773,0.999282,0.987400,0.004717,0.323270,-0.000018,-0.000017,-0.000009,-0.000008,-0.000027,-46.443242,0.000036,
2026,2443,-5.02184607229972,-4.4023858631036,-0.0178692033070433,0.004610,0.000458,-0.002603,0.219338,0.037228,324.896926,24.630364,0.999376,0.990262,0.004077,0.360093,-0.000013,-0.000046,-0.000017,-0.000006,-0.000053,-22.662807,0.000065,
2041,2173,-4.65398642990072,-10.3052316511994,0.00708859007295359,0.004581,0.000697,-0.000561,0.212100,0.065840,329.351440,24.676672,0.999244,0.989239,0.004385,0.401840,-0.000023,0.000005,-0.000014,0.000011,-0.000029,-67.080205,0.000029,
2026,2458,-5.02474293795155,-4.07499805713578,-0.031161209828781,0.004633,0.000702,-0.004379,0.225404,0.055131,324.550607,24.493932,0.999470,0.990496,0.003965,0.506477,-0.000019,-0.000027,-0.000021,-0.000002,-0.000044,-39.329944,0.000052,
2041,2188,-4.65666460976484,-9.97680891403917,0.00586380846061729,0.004173,0.000769,-0.001041,0.194728,0.078216,329.083113,24.657688,0.999018,0.986527,0.004834,0.428365,-0.000031,0.000042,-0.000007,0.000043,-0.000031,-84.939855,0.000044,
2026,2473,-5.02743692607935,-3.74784575579147,-0.0254805564093203,0.004166,0.000200,0.001123,0.188696,0.055073,324.319331,24.535257,0.999073,0.986307,0.004603,0.456502,-0.000006,-0.000030,-0.000005,-0.000005,-0.000031,-11.854194,0.000039,
2041,2203,-4.65881025641494,-9.64755787610807,-0.00149510502370731,0.004504,0.001160,-0.004332,0.219205,0.074809,328.805138,24.671149,0.998431,0.982748,0.005422,0.406697,-0.000032,0.000037,-0.000002,0.000037,-0.000032,-88.605833,0.000040,
2026,2488,-5.02899812701026,-3.42256316444686,-0.0170155780348864,0.004300,0.000092,0.000668,0.196051,0.037224,324.155939,24.452580,0.999324,0.987970,0.004277,0.512690,-0.000011,-0.000037,0.000000,-0.000011,-0.000037,0.970461,0.000051,
2041,2218,-4.66154313005191,-9.3199436800457,0.00115602239145574,0.004055,0.000965,-0.000728,0.188532,0.083112,328.555929,24.634032,0.997997,0.976501,0.005962,0.447106,-0.000030,0.000032,-0.000003,0.000032,-0.000030,-87.659454,0.000036,
2026,2503,-5.0324179985267,-3.09278527219219,-0.028000683115863,0.003840,0.000169,0.001507,0.172657,0.053938,323.797942,24.574279,0.999701,0.992733,0.003595,0.399369,-0.000015,-0.000013,0.000001,-0.000012,-0.000016,67.109397,0.000028,
2041,2233,-4.6632949443927,-8.99149355003075,-0.000529603061295347,0.004531,0.000433,-0.002558,0.215337,0.040182,328.327641,24.684083,0.999017,0.984307,0.005065,0.349009,-0.000025,0.000044,-0.000005,0.000044,-0.000026,-85.856406,0.000044,
2026,2518,-5.03411544892947,-2.76741218579688,-0.0256977820143902,0.004172,0.000276,0.000416,0.190973,0.062437,323.593939,24.426829,0.999730,0.993873,0.003374,0.546435,-0.000023,0.000000,0.000010,0.000004,-0.000027,69.156106,0.000029,
2041,2248,-4.66542331193314,-8.66450091578174,-1.21062669791172E-05,0.004650,0.000192,-0.001692,0.218371,0.033940,328.094486,24.592723,0.999119,0.986728,0.004653,0.428963,-0.000034,0.000059,-0.000005,0.000060,-0.000034,-87.105518,0.000060,
2026,2773,-5.07277959790666,2.78602733546993,-0.0326915175795079,0.004309,0.000217,-0.000478,0.200079,0.053431,319.417816,24.402464,0.999397,0.991994,0.003883,0.404509,-0.000025,0.000024,-0.000018,0.000029,-0.000031,-71.821745,0.000035,
2041,2263,-4.66757108016488,-8.33704132003401,0.00542365357068775,0.004571,-0.000181,0.001008,0.207129,0.048794,327.887443,24.578112,0.999023,0.987762,0.004658,0.453070,-0.000039,0.000050,-0.000001,0.000050,-0.000039,-89.347783,0.000052,
2026,2788,-5.07473723453078,3.11197895058828,-0.0312693090575067,0.004460,0.000629,-0.001873,0.211066,0.078519,319.197232,24.364997,0.999552,0.992857,0.003509,0.457427,-0.000026,0.000043,-0.000011,0.000044,-0.000028,-80.804372,0.000045,
2041,2278,-4.66969528995205,-8.00809651925481,0.00349918759309276,0.004665,0.000289,-0.001282,0.217966,0.046037,327.640583,24.646560,0.999829,0.992844,0.003863,0.376507,-0.000038,0.000026,-0.000005,0.000027,-0.000038,-85.540619,0.000039,
2026,2803,-5.07725086799622,3.43744627792511,-0.02875685305861,0.004262,0.000423,0.001226,0.193354,0.073340,318.957522,24.325876,0.999553,0.993121,0.003416,0.481579,-0.000022,0.000044,-0.000003,0.000044,-0.000022,-87.664543,0.000044,
2026,2818,-5.07966303099561,3.76271610317743,-0.0238941989872501,0.003989,0.000077,0.003696,0.173893,0.063946,318.735680,24.294713,0.999379,0.992477,0.003559,0.493208,-0.000026,0.000044,-0.000005,0.000044,-0.000027,-85.613695,0.000044,
2041,2293,-4.67233698035625,-7.681197121601,0.00547533344445128,0.004031,0.000590,-0.002975,0.193674,0.047643,327.392088,24.568651,0.999857,0.993845,0.003660,0.450822,-0.000029,0.000022,-0.000011,0.000024,-0.000031,-78.482628,0.000032,
2026,2833,-5.08139320949498,4.0892632788409,-0.0259128228132113,0.004438,0.000268,-0.000134,0.205225,0.067065,318.506231,24.320019,0.999674,0.994424,0.003355,0.460985,-0.000028,0.000031,-0.000015,0.000034,-0.000032,-76.768294,0.000038,
2041,2308,-4.67476631350972,-7.35242486824026,-0.00148210732106691,0.004316,0.000423,-0.002211,0.204631,0.074451,327.103410,24.552327,0.999759,0.991655,0.004117,0.488608,-0.000032,0.000014,-0.000017,0.000020,-0.000038,-71.968085,0.000038,
2026,2848,-5.08464367059642,4.41431650950368,-0.0460532196796635,0.004167,0.000955,-0.008642,0.216254,0.037518,318.106517,24.110171,0.999679,0.995344,0.003209,0.632023,-0.000026,0.000034,-0.000017,0.000039,-0.000030,-74.953960,0.000041,
2041,2323,-4.67655324243276,-7.0233098968075,-0.00782888192884457,0.004942,0.001027,-0.005815,0.243623,0.073768,326.847497,24.606681,0.999139,0.984190,0.004832,0.428122,-0.000033,0.000001,-0.000025,0.000015,-0.000047,-62.129056,0.000048,
2026,2863,-5.08588901229536,4.74162478269644,-0.0293830804840809,0.004541,0.000681,-0.003296,0.218833,0.081987,318.003348,24.312953,0.999274,0.992291,0.003907,0.463183,-0.000030,0.000033,-0.000017,0.000037,-0.000034,-75.851712,0.000041,
2041,2338,-4.67926411856693,-6.69647824482596,-0.00261007031599547,0.004566,0.000266,0.000910,0.207446,0.056269,326.613906,24.589135,0.999320,0.987447,0.004374,0.422436,-0.000032,-0.000020,-0.000028,0.000003,-0.000054,-50.795861,0.000061,
2026,2878,-5.08785678343468,5.0669188044789,-0.0194647406522108,0.004575,0.000591,0.001790,0.206420,0.095401,317.830154,24.314286,0.998906,0.988722,0.004389,0.464798,-0.000031,0.000030,-0.000015,0.000034,-0.000034,-76.721009,0.000039,
2026,2893,-5.09005917544576,5.39200295245287,-0.0135353092417176,0.004261,0.000303,0.000956,0.194047,0.046281,317.624149,24.332527,0.999275,0.993096,0.003523,0.387192,-0.000037,0.000024,-0.000011,0.000026,-0.000039,-80.372304,0.000040,
2041,2353,-4.68178695533145,-6.36816052277545,-0.00896008321319641,0.004646,0.000380,0.000390,0.212607,0.065517,326.324510,24.572013,0.998989,0.985103,0.004910,0.443433,-0.000021,0.000000,-0.000007,0.000002,-0.000023,-72.518150,0.000025,
2026,2908,-5.09177600730566,5.71676680768965,-0.00156116704755505,0.004177,0.000190,0.001879,0.187689,0.065646,317.474182,24.299996,0.999319,0.992992,0.003505,0.428617,-0.000032,0.000020,-0.000007,0.000021,-0.000032,-82.967444,0.000033,
2041,2368,-4.68387925862336,-6.04092566745405,-0.00527967823580866,0.004573,0.000278,0.000318,0.209474,0.065197,326.110549,24.568579,0.998917,0.985510,0.004905,0.440499,-0.000012,0.000007,-0.000011,0.000012,-0.000017,-64.929464,0.000017,
2026,2923,-5.09418433526475,6.0425560152407,-0.00125099360997183,0.004150,0.000457,0.003565,0.181908,0.080287,317.227055,24.285935,0.999388,0.993184,0.003477,0.447271,-0.000033,0.000003,-0.000005,0.000004,-0.000033,-82.160230,0.000036,
2041,2383,-4.68627565707245,-5.7137537633046,-0.00707191035729693,0.004457,0.000142,-0.000967,0.207644,0.038336,325.852572,24.537683,0.999253,0.988303,0.004333,0.438750,-0.000013,0.000003,-0.000019,0.000016,-0.000026,-56.604731,0.000026,
2026,2938,-5.09680448968582,6.36810297148214,0.000597831353445599,0.003949,0.000084,0.007365,0.162128,0.081365,316.978946,24.278164,0.999257,0.991534,0.003806,0.445628,-0.000027,0.000000,0.000000,0.000000,-0.000027,89.964986,0.000031,
2041,2398,-4.68860735107153,-5.38629677277869,-0.0136739628989062,0.004630,0.000583,-0.003341,0.222380,0.051789,325.570737,24.451953,0.999173,0.989305,0.004197,0.532224,-0.000012,-0.000015,-0.000026,0.000012,-0.000039,-43.155704,0.000040,
2026,2953,-5.09797589763066,6.69377003364659,0.00165576475876605,0.004501,0.000828,-0.001237,0.211516,0.093479,316.792777,24.268637,0.999482,0.992704,0.003445,0.457007,-0.000028,-0.000006,-0.000001,-0.000006,-0.000028,-86.169487,0.000036,
2026,2968,-5.10020573088927,7.01867900233401,0.00204680416288738,0.004466,0.000725,-0.002693,0.213770,0.063285,316.554733,24.231108,0.999470,0.992773,0.003387,0.454124,-0.000028,-0.000004,-0.000009,-0.000001,-0.000031,-72.126810,0.000036,
2041,2413,-4.6917925422512,-5.05699673492293,-0.0217661239845484,0.004302,0.000835,-0.001631,0.202658,0.080884,325.241133,24.511017,0.998757,0.984895,0.004883,0.496432,-0.000007,-0.000032,-0.000022,0.000005,-0.000044,-30.198803,0.000049,
2026,2983,-5.10277847299934,7.34452862014784,0.00013599665021502,0.004395,0.000939,-0.001372,0.206981,0.075289,316.287727,24.226414,0.999389,0.992575,0.003520,0.460195,-0.000029,-0.000006,-0.000013,0.000000,-0.000035,-66.108355,0.000041,
2041,2428,-4.69406891038109,-4.72962907863694,-0.0191837739836842,0.004194,0.000503,-0.000538,0.194571,0.072088,325.012745,24.537633,0.998839,0.984675,0.004878,0.455121,-0.000018,-0.000041,-0.000013,-0.000012,-0.000046,-23.650775,0.000062,
2026,2998,-5.10478487136842,7.66965317059446,0.0078991298848905,0.004361,0.000618,0.000739,0.199549,0.077080,316.101062,24.235053,0.999412,0.993448,0.003346,0.442710,-0.000039,0.000016,-0.000012,0.000018,-0.000042,-78.564325,0.000042,
2026,3013,-5.10704801044085,7.99573603969118,0.00720468119470752,0.004452,0.000603,0.000698,0.203834,0.069180,315.855035,24.287797,0.999588,0.993961,0.003307,0.371705,-0.000044,0.000035,-0.000008,0.000035,-0.000045,-84.144422,0.000048,
2026,2533,-5.0360832003267,-2.44037257834124,-0.0201787898545263,0.004231,-0.000216,0.002269,0.188485,0.039417,323.395168,24.496470,0.999466,0.990167,0.003937,0.444843,-0.000016,0.000003,0.000029,0.000024,-0.000036,54.148655,0.000037,
2056,2218,-4.33411786586331,-9.32029648239422,0.00995921067982408,0.004338,0.000830,-0.000596,0.201137,0.092119,328.556199,24.620262,0.998325,0.982182,0.005396,0.397526,-0.000021,0.000030,0.000007,0.000031,-0.000022,81.873418,0.000032,
2026,3028,-5.10875344687091,8.31979149204313,0.012787620694553,0.004622,0.000520,-0.001002,0.216391,0.067540,315.670435,24.193635,0.999475,0.992604,0.003672,0.453771,-0.000033,0.000049,-0.000003,0.000049,-0.000033,-87.833048,0.000050,
2026,3043,-5.11094738589091,8.64433115494072,0.013807349258343,0.004571,0.000557,-0.002870,0.219164,0.057891,315.437789,24.125335,0.999473,0.992926,0.003616,0.501690,-0.000036,0.000045,-0.000010,0.000046,-0.000037,-82.858757,0.000049,
2026,2548,-5.037992229515,-2.11322865227506,-0.0195476379084312,0.004318,0.000370,-0.001239,0.202333,0.052760,323.171731,24.500146,0.999533,0.990979,0.003672,0.445682,-0.000006,-0.000007,0.000036,0.000029,-0.000042,44.273743,0.000043,
2056,2233,-4.33686277143884,-8.99176673582574,0.000814673657941967,0.004412,0.000371,-0.000690,0.204671,0.054408,328.242897,24.595323,0.999121,0.988551,0.004595,0.382150,-0.000022,0.000043,0.000005,0.000043,-0.000022,85.801565,0.000043,
2026,3058,-5.11336078624285,8.96949528277959,0.0197586266965573,0.004300,0.000022,0.000102,0.198336,0.044270,315.222460,24.154331,0.999238,0.991434,0.003790,0.448132,-0.000046,0.000036,-0.000010,0.000037,-0.000047,-82.848246,0.000049,
2026,2563,-5.04007883964921,-1.78655662438462,-0.0174639847413118,0.004382,0.000360,-0.000766,0.204023,0.073094,322.948396,24.471140,0.999590,0.990386,0.003764,0.485904,-0.000007,0.000001,0.000033,0.000030,-0.000036,48.229440,0.000039,
2026,3073,-5.11563943620089,9.29445343078476,0.0216158309110028,0.004287,0.000079,0.001035,0.195245,0.053881,314.990492,24.118120,0.999162,0.992905,0.003629,0.483536,-0.000044,0.000040,-0.000010,0.000041,-0.000045,-83.530408,0.000050,
2056,2248,-4.33904024506714,-8.6641890236596,0.000440118965912006,0.004371,0.000434,-0.003041,0.209429,0.034320,328.003773,24.562216,0.999038,0.986857,0.004727,0.392365,-0.000032,0.000056,0.000006,0.000057,-0.000032,86.203213,0.000057,
2026,3088,-5.1175114957991,9.62078818310687,0.0232021769193125,0.004494,0.000488,-0.001506,0.211975,0.075029,314.775147,24.199004,0.999580,0.994988,0.003093,0.412876,-0.000043,0.000030,-0.000013,0.000032,-0.000045,-80.445395,0.000046,
2026,2578,-5.04284538174284,-1.45882693062006,-0.0234599748727078,0.004292,0.000448,0.000304,0.197003,0.088489,322.648677,24.477960,0.999199,0.990273,0.004043,0.485957,-0.000017,-0.000005,0.000019,0.000009,-0.000031,53.182213,0.000032,
2056,2263,-4.34152115150895,-8.33568062484211,-0.000418935141794918,0.004498,0.000041,0.001649,0.202012,0.047518,327.747791,24.581240,0.999018,0.985988,0.005018,0.383644,-0.000035,0.000047,0.000010,0.000048,-0.000036,83.268051,0.000050,
2026,3103,-5.12012927834911,9.94564121636149,0.0236832626378032,0.004143,0.000780,-0.002010,0.197296,0.093138,314.520014,24.143512,0.999558,0.994594,0.003189,0.475690,-0.000046,0.000035,-0.000005,0.000036,-0.000047,-86.755578,0.000049,
2026,2593,-5.04556391189868,-1.1310879610208,-0.030933983718171,0.004286,0.000522,0.000462,0.196347,0.091370,322.342954,24.490856,0.999002,0.989995,0.004258,0.466946,-0.000015,0.000011,0.000034,0.000034,-0.000038,55.719295,0.000042,
2026,3118,-5.12239028961799,10.2715304729579,0.021186289341415,0.004321,0.001112,-0.002682,0.207475,0.100218,314.264211,24.179656,0.999717,0.994755,0.003046,0.435794,-0.000046,0.000043,-0.000006,0.000043,-0.000046,-86.330434,0.000051,
2056,2278,-4.34378573674261,-8.00634369448167,-0.00276817502401627,0.004612,0.000308,0.001032,0.209080,0.039204,327.493434,24.687495,0.999651,0.992080,0.003954,0.266019,-0.000036,0.000022,0.000005,0.000023,-0.000036,85.222009,0.000037,
2026,2608,-5.0480594950077,-0.804055914376939,-0.0377282370694161,0.004394,0.000059,-0.000553,0.203969,0.063938,322.051515,24.480728,0.998973,0.987715,0.004548,0.440826,-0.000012,0.000025,0.000037,0.000048,-0.000034,58.590523,0.000049,
2026,3133,-5.12421532885884,10.5961300448137,0.0257462595138236,0.004582,0.001000,-0.002207,0.218189,0.096504,314.068429,24.155420,0.999634,0.994273,0.003162,0.445543,-0.000049,0.000044,-0.000004,0.000044,-0.000049,-87.805983,0.000054,
2026,3148,-5.12641343121782,10.9201593806772,0.0339297903174156,0.004339,0.000895,-0.000308,0.201699,0.088753,313.876077,24.108008,0.999691,0.995138,0.002975,0.474169,-0.000050,0.000042,-0.000003,0.000042,-0.000050,-88.438585,0.000054,
2056,2293,-4.34586938188713,-7.68064172004587,0.00254609563313579,0.004356,0.000327,-0.000594,0.201895,0.053173,327.290132,24.522146,0.999885,0.994729,0.003364,0.441690,-0.000028,0.000019,0.000000,0.000019,-0.000028,-89.726281,0.000029,
2026,2623,-5.04938793284512,-0.478825427802271,-0.0288546890690782,0.004715,0.000128,-0.001712,0.221888,0.034634,321.901361,24.446271,0.999051,0.988079,0.004521,0.436447,-0.000021,0.000024,0.000032,0.000040,-0.000038,62.655295,0.000045,
2026,3163,-5.12849840408011,11.2450903542527,0.035137551010564,0.004437,0.000729,-0.001667,0.209874,0.071944,313.649554,24.113421,0.999586,0.994591,0.003179,0.440915,-0.000045,0.000054,-0.000012,0.000055,-0.000047,-83.249359,0.000059,
2056,2308,-4.34809698016626,-7.35217315609709,0.000501747961720866,0.004437,0.000815,-0.001997,0.209752,0.069760,327.039243,24.537755,0.999679,0.991233,0.004018,0.439681,-0.000030,0.000013,-0.000005,0.000013,-0.000031,-83.421060,0.000031,
2026,2638,-5.0512159839381,-0.153148204082214,-0.020945239352443,0.004584,0.000613,-0.003076,0.219751,0.043556,321.722766,24.410013,0.999281,0.990881,0.003973,0.472360,-0.000023,0.000024,0.000031,0.000040,-0.000038,63.527559,0.000045,
2026,3178,-5.13065570088731,11.569384172432,0.0430069111035891,0.004326,0.000537,0.001342,0.196403,0.067574,313.457281,24.090996,0.999633,0.994245,0.003151,0.447864,-0.000046,0.000049,-0.000012,0.000051,-0.000047,-82.832044,0.000057,
2026,3193,-5.13299640645402,11.8941184419897,0.046594984932824,0.004211,0.000330,0.003008,0.186533,0.076398,313.232477,24.073626,0.999615,0.993796,0.003181,0.462967,-0.000048,0.000044,-0.000017,0.000047,-0.000050,-80.024120,0.000056,
2026,2653,-5.05411949973474,0.174395111286465,-0.0318269112447638,0.004564,0.000567,-0.003614,0.220372,0.054893,321.389656,24.388624,0.999375,0.991595,0.003750,0.496008,-0.000036,0.000027,0.000022,0.000034,-0.000043,72.608706,0.000046,
2056,2323,-4.34958745792741,-7.0244993511206,0.00358825529991691,0.004651,0.001458,-0.008075,0.236911,0.074370,326.850459,24.548783,0.999271,0.985166,0.004752,0.429710,-0.000029,-0.000002,-0.000011,0.000001,-0.000033,-70.272921,0.000037,
2026,3208,-5.13514339174663,12.2189309531774,0.0478204917930611,0.004266,0.000518,0.001887,0.192252,0.082940,313.003331,24.055314,0.999552,0.993639,0.003219,0.476957,-0.000048,0.000026,-0.000023,0.000032,-0.000055,-74.039140,0.000055,
2026,3223,-5.13772295196461,12.5441948726667,0.0471512273120993,0.004151,0.000336,0.003196,0.183312,0.076799,312.743575,24.084007,0.999552,0.993894,0.003144,0.430762,-0.000051,0.000011,-0.000029,0.000023,-0.000062,-68.536861,0.000063,
2026,2668,-5.05655864614382,0.499868216534416,-0.0264453673331673,0.004364,-0.000035,0.001406,0.197158,0.030732,321.169205,24.354002,0.999362,0.990914,0.003820,0.497235,-0.000036,0.000034,0.000024,0.000042,-0.000043,72.887089,0.000049,
2056,2338,-4.35298302931205,-6.69640385476656,-0.00179959096755056,0.004194,0.000645,-0.002718,0.200584,0.054801,326.528087,24.544066,0.999108,0.985567,0.004735,0.411753,-0.000028,-0.000017,-0.000012,-0.000010,-0.000035,-58.300119,0.000047,
2026,3238,-5.13939351117154,12.8684571736076,0.0534440343205915,0.004211,0.000765,-0.000801,0.197164,0.078555,312.564953,24.055673,0.999649,0.995211,0.002888,0.449798,-0.000051,-0.000006,-0.000031,0.000010,-0.000066,-63.130486,0.000072,
2026,3253,-5.14255218043765,13.1940891978768,0.0392835466884662,0.004149,0.000961,-0.002521,0.199073,0.072902,312.202936,24.049752,0.999856,0.996601,0.002501,0.439070,-0.000049,-0.000017,-0.000036,0.000006,-0.000072,-57.064306,0.000080,
2026,2683,-5.05994390862875,0.828647002134609,-0.0406683018672993,0.004341,-0.000414,0.005335,0.185298,0.054070,320.795005,24.417573,0.999802,0.995922,0.002923,0.447783,-0.000035,0.000022,0.000013,0.000025,-0.000038,77.590039,0.000038,
2056,2353,-4.35568589531759,-6.36851807798246,-0.00975285146694205,0.004420,0.000038,-0.000058,0.203355,0.054029,326.223243,24.482102,0.998843,0.983570,0.005115,0.469714,-0.000021,-0.000001,0.000004,0.000000,-0.000022,78.759231,0.000025,
2026,3268,-5.1455578076357,13.519097177813,0.0286670620502605,0.004266,0.000825,-0.000305,0.198357,0.075045,311.868043,24.003800,0.999827,0.997043,0.002460,0.475894,-0.000041,-0.000019,-0.000038,0.000009,-0.000070,-53.155693,0.000076,
2026,3283,-5.14740226594921,13.8434887484215,0.0360168745856413,0.004327,0.000536,-0.000455,0.201473,0.056137,311.687398,24.024781,0.999788,0.996607,0.002576,0.424658,-0.000044,-0.000002,-0.000029,0.000013,-0.000059,-63.002828,0.000062,
2026,2698,-5.06216970779546,1.15512283709882,-0.0443394758860336,0.004251,0.000561,-0.000459,0.197373,0.067770,320.533450,24.372212,0.999804,0.995712,0.002971,0.497579,-0.000030,0.000008,0.000010,0.000010,-0.000033,75.455226,0.000034,
2056,2368,-4.35831011496672,-6.03995962953979,-0.0141511270138608,0.004218,0.000194,-0.002150,0.200031,0.036880,325.941432,24.538496,0.998675,0.984944,0.005012,0.392798,-0.000014,0.000006,0.000000,0.000006,-0.000014,-89.010216,0.000014,
2026,3298,-5.15016937313057,14.1687279110399,0.0317401120527165,0.004164,0.001090,-0.000610,0.194617,0.085009,311.398913,24.016614,0.999443,0.994181,0.003225,0.450246,-0.000056,0.000034,-0.000028,0.000042,-0.000064,-73.771736,0.000065,
2026,2713,-5.06411631028343,1.48149992867472,-0.0419706528961683,0.004349,0.000454,-0.001844,0.205694,0.059948,320.318475,24.393136,0.999673,0.994440,0.003373,0.459246,-0.000025,0.000014,0.000005,0.000014,-0.000026,82.897766,0.000026,
2041,1993,-4.6270261621542,-14.2511906126227,0.0200462164744408,0.004069,0.000876,-0.002793,0.194571,0.074193,332.326670,24.716056,0.998912,0.982473,0.005348,0.421726,-0.000005,-0.000201,0.000013,-0.000005,-0.000202,3.764887,0.000236,
2056,2383,-4.36076845646604,-5.71174992419984,-0.0199994470896172,0.004401,0.000386,-0.002127,0.208431,0.049740,325.659194,24.524799,0.999243,0.989229,0.004409,0.415781,-0.000015,0.000003,-0.000009,0.000006,-0.000018,-68.222843,0.000019,
2056,2398,-4.36220010602436,-5.38608317629466,-0.0100436991215247,0.004661,0.000669,-0.001561,0.218917,0.065050,325.511363,24.432916,0.998807,0.986926,0.004746,0.518958,-0.000015,-0.000010,-0.000016,0.000003,-0.000029,-49.127739,0.000031,
2056,2413,-4.36457583214409,-5.0588122093557,-0.00601349470065315,0.004507,0.000255,0.001462,0.203233,0.059174,325.287526,24.456262,0.998005,0.983299,0.005408,0.485647,-0.000013,-0.000025,-0.000017,-0.000001,-0.000037,-34.997582,0.000043,
2056,2428,-4.3677832446758,-4.73026035288761,-0.00983481345883774,0.004001,0.000209,0.004339,0.171914,0.092444,324.982055,24.488320,0.998717,0.985686,0.004815,0.483314,-0.000022,-0.000037,-0.000009,-0.000018,-0.000041,-24.878422,0.000061,
2056,2443,-4.36999891280642,-4.40279926108965,-0.0141828902865768,0.004057,0.000232,-0.000266,0.187408,0.053747,324.719572,24.492677,0.999193,0.987754,0.004455,0.436442,-0.000023,-0.000030,-0.000015,-0.000011,-0.000042,-39.030294,0.000056,
2056,2458,-4.37245319974739,-4.07644575874686,-0.0102960047470333,0.003781,-0.000165,0.001899,0.168550,0.037170,324.491660,24.455688,0.999211,0.987164,0.004662,0.452718,-0.000021,-0.000016,-0.000018,0.000000,-0.000037,-49.244753,0.000043,
2056,2473,-4.3742029159283,-3.74780746947361,-0.0135483301193062,0.004283,0.000179,-0.002076,0.202943,0.035278,324.256093,24.551503,0.999150,0.987637,0.004851,0.351073,-0.000012,-0.000011,-0.000009,-0.000002,-0.000021,-47.049502,0.000025,
2056,2488,-4.37635307820833,-3.42052437483571,-0.015574930534342,0.004479,0.000500,-0.003205,0.215238,0.056078,324.009225,24.517375,0.999349,0.989196,0.004406,0.401972,-0.000015,-0.000013,-0.000009,-0.000005,-0.000023,-48.538562,0.000030,
2056,2503,-4.37960964113797,-3.09388839357275,-0.0220187312767735,0.004109,0.000232,0.000049,0.189017,0.063950,323.687680,24.402154,0.999393,0.989557,0.004192,0.521005,-0.000014,0.000004,-0.000008,0.000007,-0.000017,-69.631535,0.000017,
2056,2518,-4.38131914651973,-2.76655813370355,-0.0179478587589301,0.004270,0.000810,-0.002777,0.204605,0.077474,323.494544,24.444931,0.999345,0.990118,0.004066,0.487196,-0.000019,0.000012,0.000002,0.000012,-0.000019,86.195000,0.000019,
2056,2533,-4.38341477978409,-2.44065988104544,-0.00971511580127071,0.004284,0.000311,0.002449,0.190413,0.079067,323.307085,24.410002,0.999148,0.988654,0.004288,0.519257,-0.000017,0.000018,0.000019,0.000026,-0.000026,66.218690,0.000030,
2056,2548,-4.38626611301961,-2.11248283680799,-0.0236754736834541,0.004414,0.000384,-0.000489,0.204696,0.060504,322.962417,24.410772,0.999357,0.989767,0.004076,0.495842,-0.000014,0.000005,0.000022,0.000020,-0.000029,56.859101,0.000029,
2056,2563,-4.3880321659256,-1.78630218550685,-0.0169506226831118,0.004516,0.000187,-0.000798,0.210178,0.050051,322.781738,24.409131,0.999331,0.989191,0.004175,0.482435,-0.000015,0.000004,0.000018,0.000015,-0.000026,58.555190,0.000026,
2056,2578,-4.39050650993191,-1.45848134187825,-0.0237669565775604,0.004683,0.000753,-0.002129,0.221831,0.067919,322.493608,24.415249,0.999072,0.989252,0.004225,0.489949,-0.000025,-0.000002,0.000008,0.000000,-0.000028,73.296760,0.000032,
2056,2593,-4.39364124957674,-1.12955435102236,-0.0350220346936112,0.004480,0.000838,-0.003346,0.215948,0.067435,322.150565,24.508333,0.998859,0.988438,0.004295,0.391915,-0.000027,0.000012,0.000015,0.000017,-0.000033,71.153866,0.000033,
2056,2608,-4.39598818544833,-0.804985157484232,-0.0261351791006632,0.004008,0.000164,-0.001368,0.188470,0.033728,321.955773,24.414421,0.999070,0.989525,0.004146,0.447091,-0.000027,0.000013,0.000017,0.000019,-0.000033,70.121821,0.000034,
2056,2623,-4.39757774202415,-0.478012873310774,-0.0251640495378069,0.004525,0.000670,-0.003692,0.218974,0.054649,321.751252,24.422118,0.999240,0.990882,0.003934,0.455562,-0.000033,0.000013,0.000012,0.000016,-0.000036,76.185482,0.000036,
2056,2638,-4.40027459091501,-0.150922695515256,-0.0279353434939935,0.004410,0.000511,-0.002098,0.209178,0.061328,321.475462,24.427895,0.999269,0.989814,0.004088,0.451795,-0.000031,0.000015,0.000011,0.000017,-0.000033,77.257916,0.000033,
2056,2653,-4.40285941062482,0.175425644478146,-0.0341976766397352,0.004591,0.000064,-0.000985,0.214275,0.041085,321.185871,24.368247,0.999428,0.990522,0.003971,0.486658,-0.000040,0.000019,0.000005,0.000019,-0.000040,84.847384,0.000040,
2056,2668,-4.4043999751636,0.501497809186176,-0.0225887644039631,0.004611,0.000411,-0.001608,0.217064,0.047481,321.042528,24.410532,0.999407,0.990092,0.004018,0.445433,-0.000043,0.000022,0.000010,0.000023,-0.000044,81.576438,0.000044,
2056,2683,-4.40642143441886,0.827555590906897,-0.0193204254672992,0.004502,0.000684,-0.004877,0.221423,0.072225,320.831215,24.367557,0.999474,0.991323,0.003825,0.508140,-0.000044,0.000012,0.000000,0.000012,-0.000044,89.987491,0.000046,
2056,2698,-4.40921790456172,1.15442913609154,-0.0240516613249611,0.004441,0.000580,-0.002870,0.212923,0.073719,320.540187,24.361400,0.999295,0.991402,0.003813,0.510978,-0.000037,0.000003,0.000002,0.000003,-0.000037,87.327442,0.000042,
2056,2713,-4.41177856965155,1.48131954026636,-0.0275341548778556,0.004559,0.000226,-0.000584,0.211820,0.061812,320.266865,24.385417,0.999093,0.990487,0.003921,0.469947,-0.000033,0.000006,-0.000004,0.000006,-0.000033,-84.525346,0.000035,
2056,2728,-4.41419258283256,1.808212657993,-0.0309030371608401,0.004707,0.000385,-0.000092,0.217294,0.066887,320.000845,24.398681,0.999234,0.990973,0.003849,0.456555,-0.000037,0.000016,-0.000006,0.000017,-0.000038,-84.131544,0.000038,
2056,2743,-4.41694196948124,2.13428187872157,-0.0319249192294251,0.004375,0.000461,0.000429,0.200603,0.065883,319.732672,24.366140,0.999402,0.991644,0.003757,0.483037,-0.000041,0.000035,-0.000007,0.000036,-0.000041,-84.702979,0.000045,
2056,2758,-4.4188126234874,2.46025255750466,-0.0274270352630879,0.004293,0.000803,-0.003801,0.208866,0.066809,319.535208,24.370658,0.999315,0.991144,0.003906,0.474151,-0.000043,0.000023,-0.000017,0.000027,-0.000047,-76.466379,0.000047,
2056,2773,-4.42110311226567,2.78580563276049,-0.0209046491260096,0.003946,0.000751,-0.003515,0.192102,0.073463,319.329813,24.350877,0.999128,0.989259,0.004187,0.495042,-0.000039,0.000021,-0.000018,0.000026,-0.000044,-74.295129,0.000044,
2056,2788,-4.42367419295237,3.11274775070085,-0.0239080164070629,0.004162,0.000473,0.000830,0.189678,0.066218,319.058666,24.402120,0.999241,0.989927,0.004020,0.431126,-0.000043,0.000035,-0.000014,0.000038,-0.000045,-80.349377,0.000048,
2056,2803,-4.42598065219317,3.4393142050438,-0.0298874500817305,0.004399,0.000542,-0.001736,0.207914,0.065375,318.783341,24.394462,0.999283,0.991279,0.003867,0.432585,-0.000039,0.000035,-0.000009,0.000036,-0.000040,-83.490428,0.000044,
2056,2818,-4.42809378264832,3.76502324216202,-0.0267323429941939,0.004444,0.000555,-0.001436,0.209199,0.077085,318.567499,24.370328,0.999267,0.990357,0.003986,0.462902,-0.000041,0.000040,-0.000011,0.000041,-0.000042,-82.545017,0.000048,
2056,2833,-4.43030257807772,4.09069461463183,-0.0203026811129803,0.004305,0.000430,0.000662,0.196834,0.068147,318.365407,24.391919,0.999031,0.987875,0.004349,0.426670,-0.000038,0.000025,-0.000018,0.000030,-0.000043,-74.961318,0.000044,
2056,2848,-4.43237498253182,4.41654294412255,-0.0229610414481272,0.004540,0.000653,-0.002496,0.216620,0.061768,318.119400,24.362726,0.999290,0.991059,0.003846,0.444105,-0.000035,0.000023,-0.000021,0.000030,-0.000042,-71.914378,0.000043,
2056,2863,-4.43403506118981,4.74195348880079,-0.0168802981139606,0.004698,0.000865,-0.004893,0.230738,0.066565,317.940631,24.351516,0.999272,0.991670,0.003810,0.454509,-0.000037,0.000026,-0.000025,0.000034,-0.000046,-70.968591,0.000048,
2056,2878,-4.43683685072789,5.06761113120425,-0.0137470964388058,0.004320,0.000667,-0.000437,0.200776,0.085193,317.693197,24.331236,0.999230,0.990749,0.004005,0.487565,-0.000033,0.000031,-0.000022,0.000038,-0.000040,-72.594265,0.000045,
2056,2893,-4.43924378765872,5.39356631968558,-0.0113256572349769,0.004199,0.000361,0.000992,0.191043,0.067915,317.459914,24.372634,0.999508,0.993194,0.003578,0.422984,-0.000037,0.000025,-0.000017,0.000029,-0.000041,-75.561544,0.000042,
2056,2908,-4.44148319793001,5.71901819253186,-0.0106897293163684,0.004262,0.000475,0.000934,0.194185,0.070934,317.224608,24.338644,0.999500,0.992946,0.003519,0.454269,-0.000030,0.000018,-0.000014,0.000022,-0.000034,-75.134078,0.000035,
2056,2923,-4.44321024250684,6.04467293315203,-0.00948653523215626,0.004625,0.000794,-0.002069,0.219469,0.071894,317.015871,24.333442,0.999478,0.993129,0.003498,0.454606,-0.000030,0.000006,-0.000013,0.000010,-0.000035,-72.058923,0.000036,
2056,2938,-4.4455500880384,6.3697959940344,-0.00453364210306972,0.004505,0.000465,0.000760,0.205847,0.058913,316.799963,24.323838,0.999367,0.992431,0.003588,0.445296,-0.000026,0.000008,-0.000009,0.000010,-0.000028,-76.549987,0.000028,
2056,2953,-4.44758678853784,6.69526331930682,-0.0018960508557484,0.004533,0.000608,-0.001282,0.213011,0.069987,316.585038,24.309198,0.999266,0.992947,0.003540,0.464980,-0.000023,0.000005,-0.000012,0.000009,-0.000027,-69.405555,0.000028,
2056,2968,-4.45000096700681,7.02017026579635,0.00246626320006271,0.004409,0.000285,0.002043,0.197749,0.042970,316.362601,24.296740,0.999264,0.991756,0.003656,0.444282,-0.000022,0.000009,-0.000019,0.000017,-0.000031,-64.792098,0.000031,
2056,2983,-4.45223779631029,7.34646401463825,0.000962501333617638,0.004577,0.000686,0.001284,0.207782,0.063783,316.115372,24.327505,0.999188,0.989638,0.003926,0.428419,-0.000026,0.000009,-0.000024,0.000021,-0.000038,-63.288802,0.000038,
2056,2998,-4.45439660055692,7.67202537525334,0.00295780972652437,0.004507,0.000779,-0.001119,0.211427,0.067551,315.891337,24.335940,0.999194,0.990221,0.003936,0.417644,-0.000033,0.000022,-0.000019,0.000028,-0.000039,-72.800174,0.000040,
2056,3013,-4.45715517291393,7.99711419851814,0.00258228296485186,0.004195,0.000539,-0.000108,0.194137,0.063472,315.626904,24.296751,0.998873,0.987631,0.004578,0.446442,-0.000035,0.000035,-0.000016,0.000038,-0.000038,-78.071568,0.000044,
2056,3028,-4.45931950766584,8.32234262894884,0.00292386665034883,0.004434,0.000549,0.000882,0.202390,0.070092,315.393634,24.268540,0.999402,0.992211,0.003655,0.475274,-0.000029,0.000045,-0.000013,0.000047,-0.000032,-80.367495,0.000048,
2056,3043,-4.46172879617423,8.64781801534262,0.00752598431972729,0.004356,0.000373,0.004924,0.187461,0.089859,315.172578,24.281953,0.999686,0.994972,0.003082,0.475359,-0.000029,0.000040,-0.000018,0.000045,-0.000033,-76.121214,0.000047,
2056,3058,-4.46380550331255,8.97331277000464,0.00596690740803751,0.004507,0.000435,0.001079,0.205333,0.084941,314.932780,24.285059,0.999568,0.993817,0.003285,0.461167,-0.000032,0.000032,-0.000018,0.000037,-0.000036,-75.670328,0.000042,
2056,3073,-4.46592300974547,9.29800703933459,0.00846318137553226,0.004341,0.000945,-0.003204,0.209866,0.086668,314.713823,24.238187,0.999477,0.992791,0.003604,0.503451,-0.000031,0.000037,-0.000018,0.000041,-0.000035,-76.234030,0.000044,
2056,3088,-4.46811631259954,9.62279211980456,0.0161096810414278,0.004339,0.000251,0.001490,0.196266,0.058963,314.519864,24.265318,0.999496,0.993099,0.003408,0.441948,-0.000032,0.000028,-0.000017,0.000033,-0.000037,-75.038806,0.000040,
2056,3103,-4.4698401514888,9.94761516885074,0.0240096476085228,0.004425,0.000591,0.000244,0.203957,0.080220,314.348813,24.251613,0.999466,0.992993,0.003408,0.470540,-0.000033,0.000030,-0.000010,0.000032,-0.000034,-81.262685,0.000038,
2056,3118,-4.47212084416875,10.2727007071281,0.0261876626322533,0.004402,0.000468,0.000480,0.202139,0.066106,314.120551,24.264627,0.999519,0.993975,0.003136,0.437200,-0.000036,0.000030,-0.000012,0.000032,-0.000038,-79.798287,0.000041,
2056,3133,-4.47440666563503,10.5977133930759,0.0247830317816806,0.004538,0.000564,-0.000209,0.210332,0.049990,313.872298,24.254532,0.999147,0.993177,0.003318,0.424595,-0.000040,0.000029,-0.000011,0.000031,-0.000041,-81.328792,0.000043,
2056,3148,-4.47612431618352,10.9225204297631,0.0302046664354521,0.004588,0.000870,-0.004754,0.225585,0.057470,313.687930,24.247479,0.999517,0.994092,0.003139,0.432501,-0.000040,0.000032,-0.000010,0.000033,-0.000042,-82.561586,0.000044,
2056,3163,-4.47859837741278,11.2473379166847,0.032922732141401,0.004547,0.000504,-0.001226,0.213595,0.044020,313.453943,24.249200,0.999501,0.992812,0.003431,0.410899,-0.000039,0.000042,-0.000016,0.000045,-0.000042,-79.248116,0.000050,
2056,3178,-4.48087337188257,11.5718940978845,0.042205855271618,0.004261,0.000609,0.001638,0.192498,0.077127,313.265490,24.222896,0.999595,0.994542,0.003119,0.463403,-0.000038,0.000038,-0.000015,0.000041,-0.000041,-79.223427,0.000047,
2056,3193,-4.48328421812333,11.8971578275576,0.0402343747538225,0.004473,0.000375,0.003472,0.197021,0.071496,313.008336,24.236863,0.999450,0.994464,0.003173,0.437358,-0.000040,0.000030,-0.000019,0.000035,-0.000045,-75.605653,0.000048,
2056,3208,-4.48563845354728,12.2219683766775,0.0403733556142924,0.004225,0.000703,-0.000979,0.198246,0.068111,312.765645,24.223155,0.999543,0.994169,0.003124,0.440921,-0.000041,0.000017,-0.000026,0.000026,-0.000051,-69.232182,0.000051,
2056,3223,-4.48801026361685,12.546736676126,0.0403263721008216,0.004244,0.000764,-0.001043,0.199365,0.078076,312.521147,24.194961,0.999590,0.993874,0.003088,0.472391,-0.000043,0.000010,-0.000028,0.000022,-0.000055,-66.633093,0.000056,
2056,3238,-4.48983319911666,12.8713633761586,0.0460343693297887,0.004517,0.000538,-0.000170,0.209494,0.072632,312.333765,24.205268,0.999630,0.994571,0.003014,0.449882,-0.000043,-0.000003,-0.000028,0.000011,-0.000057,-62.911631,0.000060,
2056,3253,-4.49257992527681,13.1966563627898,0.0471669158329746,0.004240,0.000487,0.002145,0.190133,0.070953,312.078416,24.250719,0.999770,0.995639,0.002856,0.395734,-0.000040,-0.000008,-0.000031,0.000011,-0.000059,-58.480045,0.000063,
2056,3268,-4.49502482217021,13.5213646681781,0.0410120313757716,0.004449,0.000639,0.000144,0.205456,0.068579,311.796847,24.206344,0.999716,0.995506,0.002858,0.431264,-0.000033,-0.000003,-0.000032,0.000017,-0.000053,-57.615712,0.000054,
2056,3283,-4.49783891072225,13.8462598796746,0.030224001515478,0.004527,0.000842,-0.002635,0.216995,0.064659,311.472612,24.160112,0.999711,0.995751,0.002824,0.466787,-0.000033,0.000003,-0.000023,0.000014,-0.000044,-63.998415,0.000045,
2056,3298,-4.5007640287456,14.1715843194895,0.0246004870043635,0.004465,0.001040,-0.000781,0.208978,0.078467,311.171684,24.168721,0.999532,0.994457,0.003070,0.464857,-0.000036,0.000031,-0.000023,0.000038,-0.000043,-73.003076,0.000047,
2071,1993,-3.972563921357,-14.2511580132036,0.0181778972546454,0.004318,0.001155,-0.005382,0.213624,0.050936,332.165477,24.583435,0.998674,0.980731,0.005558,0.321096,0.000000,-0.000184,0.000014,0.000001,-0.000185,4.257509,0.000213,
2071,2008,-3.97503649394043,-13.9214353120109,0.0133378600358469,0.004448,0.000742,-0.004843,0.217921,0.032673,331.889308,24.606211,0.998978,0.983778,0.005116,0.280736,-0.000010,-0.000141,0.000007,-0.000010,-0.000142,3.114436,0.000170,
2071,2023,-3.97754546475452,-13.5922994290405,0.00968561065940321,0.004408,0.001060,-0.005122,0.217015,0.049166,331.617848,24.560582,0.998943,0.984771,0.005075,0.343601,-0.000006,-0.000129,0.000006,-0.000006,-0.000130,2.773031,0.000153,
2071,2038,-3.97950167894658,-13.2641251131376,0.0129120855528413,0.004403,0.001085,-0.006867,0.221743,0.047276,331.409353,24.528775,0.999044,0.985597,0.004864,0.373623,-0.000005,-0.000121,0.000006,-0.000004,-0.000121,3.034249,0.000142,
2071,2053,-3.98136717511326,-12.9358145566013,0.0172179879166947,0.004668,0.000803,-0.004716,0.227733,0.043763,331.210885,24.528013,0.998439,0.978361,0.005784,0.371212,-0.000005,-0.000104,0.000006,-0.000005,-0.000104,3.409057,0.000123,
2071,2068,-3.98345148598234,-12.6080880418575,0.0322521965422879,0.004089,0.000359,-0.001938,0.193172,0.026395,331.061080,24.611603,0.997904,0.967531,0.007064,0.269896,-0.000008,-0.000066,0.000015,-0.000005,-0.000070,13.569423,0.000084,
2071,2083,-3.98833972488041,-12.275633012325,0.00239366577130795,0.003565,0.000546,0.001646,0.159052,0.065254,330.537570,24.579528,0.998586,0.968915,0.006723,0.342533,-0.000013,-0.000045,0.000009,-0.000011,-0.000047,14.215831,0.000062,
2071,2098,-3.98879754506047,-11.949712064885,0.0264547057675486,0.003887,-0.000101,0.001834,0.173065,0.028679,330.511649,24.626006,0.998595,0.977826,0.005695,0.258321,-0.000015,-0.000039,0.000010,-0.000012,-0.000042,19.449508,0.000057,
2071,2113,-3.99062436177277,-11.6204978831132,0.0208717555783551,0.004587,0.000090,0.000300,0.209619,0.035038,330.260900,24.609767,0.998825,0.982671,0.005278,0.280846,-0.000014,-0.000031,0.000008,-0.000011,-0.000034,22.093472,0.000047,
2071,2128,-3.99375680350704,-11.2912754247256,0.0143669034010827,0.004268,0.000003,0.002415,0.188974,0.058720,329.945437,24.573494,0.999008,0.985575,0.004961,0.341145,-0.000019,-0.000034,0.000013,-0.000011,-0.000041,30.303501,0.000056,
2071,2143,-3.99582700330395,-10.9624562611164,0.0111368176870315,0.004376,0.000668,-0.002367,0.207750,0.080646,329.696403,24.543418,0.998964,0.985378,0.005038,0.393105,-0.000014,-0.000019,0.000008,-0.000008,-0.000025,37.070611,0.000034,
2071,2158,-3.99827183692306,-10.6347079323846,0.00977693472788133,0.004336,0.000370,-0.001642,0.203783,0.061845,329.440875,24.482094,0.999135,0.985453,0.004949,0.435483,-0.000007,-0.000012,0.000001,-0.000007,-0.000012,13.340000,0.000019,
2071,2173,-4.00056017157822,-10.3068163397187,0.0134627528252622,0.004321,-0.000304,0.001903,0.192824,0.042861,329.219986,24.492919,0.998933,0.986122,0.004929,0.405141,-0.000015,0.000004,-0.000002,0.000004,-0.000015,-84.807287,0.000015,
2071,2188,-4.00306337275433,-9.97835439655978,0.007593545600173,0.004523,-0.000233,0.002858,0.199435,0.036252,328.937023,24.447652,0.998649,0.985377,0.005247,0.443661,-0.000020,0.000034,0.000000,0.000034,-0.000020,-89.790407,0.000034,
2071,2203,-4.00532749616476,-9.64958002446031,0.00578060770669708,0.004349,0.000435,-0.002077,0.205701,0.049508,328.686943,24.459545,0.998275,0.982503,0.005456,0.444357,-0.000017,0.000029,0.000004,0.000030,-0.000017,85.396070,0.000030,
2071,2218,-4.00740457634578,-9.32009727433562,0.00293860994355555,0.004500,0.001078,-0.005926,0.223820,0.068545,328.439629,24.525083,0.997933,0.981753,0.005455,0.397290,-0.000018,0.000025,0.000002,0.000025,-0.000019,87.325072,0.000026,
2071,2233,-4.00970087708711,-8.99191154036892,0.0025302683246764,0.004747,0.000416,-0.002283,0.224632,0.052765,328.196007,24.537776,0.998669,0.985495,0.004881,0.368262,-0.000018,0.000038,0.000001,0.000038,-0.000018,89.353873,0.000038,
2071,2248,-4.01238514261652,-8.66458804344963,0.00214806918091881,0.004358,0.000214,-0.002514,0.207372,0.040911,327.934971,24.473481,0.998893,0.986159,0.004641,0.419984,-0.000026,0.000048,0.000003,0.000048,-0.000026,87.900953,0.000048,
2071,2263,-4.01440334917471,-8.33594424346762,0.000404907538040788,0.004762,0.000572,-0.002186,0.225102,0.056028,327.696550,24.494049,0.999174,0.988174,0.004497,0.413654,-0.000026,0.000039,0.000007,0.000040,-0.000026,83.757545,0.000041,
2071,2278,-4.01689841684079,-8.00707301558979,-2.03949222168376E-05,0.004638,0.000456,-0.001464,0.217354,0.055183,327.443561,24.570111,0.999872,0.994761,0.003572,0.335852,-0.000025,0.000016,0.000002,0.000016,-0.000025,86.540080,0.000025,
2071,2293,-4.01967574232575,-7.6798892363089,-0.00470909942458775,0.004334,0.000729,-0.003168,0.208340,0.078393,327.154670,24.430618,0.999800,0.993766,0.003675,0.497765,-0.000020,0.000015,-0.000002,0.000015,-0.000020,-87.443682,0.000021,
2071,2308,-4.02280791372975,-7.35065918248722,-0.0156975654652456,0.004252,0.000690,-0.002143,0.201699,0.066739,326.814880,24.455679,0.999803,0.993381,0.003837,0.460457,-0.000021,0.000010,-0.000006,0.000011,-0.000022,-79.358015,0.000022,
2071,2323,-4.02415828711807,-7.02417242886498,-0.00404034150017196,0.004539,0.000554,-0.001032,0.211700,0.063353,326.680703,24.452575,0.999336,0.988282,0.004444,0.458567,-0.000019,-0.000005,-0.000011,0.000001,-0.000025,-61.503205,0.000028,
2071,2338,-4.02607500390381,-6.69733440689945,0.00194137647406478,0.004445,0.000527,-0.002668,0.212045,0.047955,326.489660,24.441230,0.998997,0.986086,0.004697,0.453245,-0.000019,-0.000013,-0.000010,-0.000005,-0.000027,-53.839216,0.000034,
2071,2353,-4.02910638756658,-6.36842440208105,-0.00614385928344063,0.004205,0.000317,-0.003027,0.201971,0.056526,326.170313,24.462340,0.998592,0.983276,0.005158,0.439637,-0.000015,0.000002,0.000001,0.000002,-0.000016,85.745287,0.000017,
2071,2368,-4.03126983625307,-6.04011319970456,-0.0119231197137992,0.004428,0.000928,-0.007476,0.225131,0.054455,325.903403,24.467719,0.997700,0.981468,0.005617,0.431024,-0.000008,0.000007,-0.000003,0.000008,-0.000009,-79.527139,0.000010,
2071,2383,-4.03356037035482,-5.71205715149115,-0.012429173482758,0.004477,0.001033,-0.007488,0.227456,0.063690,325.659494,24.495145,0.998497,0.984832,0.005087,0.411269,-0.000008,0.000004,-0.000008,0.000008,-0.000012,-63.275969,0.000012,
2071,2398,-4.03638152652366,-5.38515650241703,-0.00917789008605041,0.004137,0.000528,-0.001427,0.194452,0.080779,325.412095,24.450226,0.998808,0.985872,0.004969,0.471707,-0.000008,-0.000007,-0.000012,0.000005,-0.000020,-46.880275,0.000021,
2071,2413,-4.03845666303803,-5.05884505603016,-0.00391454107818845,0.004318,-0.000098,0.003028,0.189901,0.055788,325.210117,24.416803,0.998630,0.985467,0.004899,0.478377,-0.000007,-0.000019,-0.000012,0.000001,-0.000027,-31.576226,0.000030,
2071,2428,-4.04075187082356,-4.73045346414756,-0.00236491868633948,0.004224,0.000418,0.002752,0.186564,0.089731,324.977079,24.484130,0.998832,0.987017,0.004521,0.443456,-0.000016,-0.000033,-0.000003,-0.000015,-0.000033,-9.796654,0.000049,
2071,2443,-4.04281364528238,-4.40349095964597,-0.00558595607316192,0.004351,0.000503,-0.002429,0.207193,0.052637,324.729278,24.451602,0.999222,0.988439,0.004357,0.436954,-0.000019,-0.000025,-0.000008,-0.000013,-0.000031,-35.880212,0.000045,
2071,2458,-4.0454674666722,-4.07727063779664,-0.00283520153686823,0.004123,-0.000197,0.002138,0.183482,0.035541,324.487144,24.392148,0.999472,0.990205,0.004174,0.477736,-0.000017,-0.000015,-0.000014,-0.000003,-0.000030,-46.600837,0.000036,
2071,2473,-4.04714997704713,-3.74929629231764,-0.0056408704539308,0.004603,0.000454,-0.003178,0.220897,0.044614,324.258553,24.420202,0.999370,0.989730,0.004344,0.456886,-0.000010,-0.000008,-0.000006,-0.000003,-0.000015,-47.950822,0.000019,
2071,2488,-4.05003137447847,-3.42144520786444,-0.0109116431349321,0.004427,0.000581,-0.002271,0.210295,0.063868,323.961650,24.409792,0.999481,0.991197,0.004134,0.484708,-0.000012,-0.000009,-0.000007,-0.000003,-0.000018,-49.162879,0.000023,
2071,2503,-4.05270851898719,-3.09401512573505,-0.0149624097792298,0.004358,0.000558,-0.001712,0.205574,0.069706,323.680911,24.390843,0.999386,0.990708,0.004008,0.507682,-0.000010,0.000004,-0.000005,0.000006,-0.000011,-71.769039,0.000011,
2071,2518,-4.05514298484036,-2.76651250633089,-0.0198563295070358,0.004524,0.000414,-0.002187,0.214508,0.052443,323.406723,24.399292,0.999488,0.991560,0.003763,0.479972,-0.000012,0.000009,0.000005,0.000011,-0.000013,77.605042,0.000014,
2071,2533,-4.05741394841114,-2.43917623354787,-0.013551482004857,0.004408,0.000550,0.001381,0.199116,0.085882,323.201116,24.447537,0.999423,0.990901,0.003948,0.462899,-0.000012,0.000016,0.000020,0.000026,-0.000023,62.483294,0.000029,
2071,2548,-4.06018703860444,-2.11220656850437,-0.0210242430281369,0.004386,0.000330,0.000731,0.199898,0.070111,322.897475,24.393089,0.999462,0.990874,0.004000,0.499540,-0.000011,0.000004,0.000022,0.000020,-0.000027,54.156870,0.000028,
2071,2563,-4.06266910598707,-1.78459169139266,-0.0273100761211253,0.004531,0.000186,-0.000815,0.210943,0.056356,322.613455,24.411895,0.999170,0.989340,0.004271,0.464919,-0.000012,0.000002,0.000017,0.000013,-0.000023,55.473858,0.000023,
2071,2578,-4.06530489019798,-1.45751037197033,-0.0298425870856818,0.004444,0.000161,0.000165,0.204201,0.067381,322.342990,24.395567,0.998952,0.988865,0.004450,0.489980,-0.000020,-0.000003,0.000009,0.000001,-0.000024,66.482210,0.000027,
2071,2593,-4.06755557566699,-1.13067531372613,-0.0281047641263399,0.004507,0.000149,0.001605,0.203011,0.075657,322.113590,24.401390,0.999031,0.989133,0.004253,0.490106,-0.000023,0.000010,0.000016,0.000016,-0.000029,68.055422,0.000029,
2071,2608,-4.07031976032124,-0.80298727850117,-0.032676959950436,0.004302,0.000118,0.000590,0.196465,0.054303,321.826026,24.465218,0.999223,0.990182,0.004010,0.402407,-0.000023,0.000009,0.000018,0.000016,-0.000031,66.134323,0.000031,
2071,2623,-4.07195978342679,-0.47710780519332,-0.0323216421963934,0.004668,0.000762,-0.004251,0.227327,0.073178,321.617274,24.370385,0.999231,0.989551,0.004100,0.513461,-0.000029,0.000011,0.000012,0.000014,-0.000032,74.375724,0.000032,
2071,2638,-4.07415539289658,-0.150144982184635,-0.0257245921339972,0.004465,0.000873,-0.003211,0.215113,0.086617,321.416965,24.437644,0.999225,0.988180,0.004250,0.457005,-0.000026,0.000015,0.000011,0.000017,-0.000029,76.300170,0.000029,
2071,2653,-4.07671377323878,0.176377027484406,-0.0311101762465,0.004733,0.000277,-0.000803,0.220379,0.062505,321.134720,24.405280,0.999384,0.989612,0.004017,0.462691,-0.000033,0.000020,0.000005,0.000020,-0.000034,84.341124,0.000034,
2071,2668,-4.07919467605752,0.502962276903226,-0.0302564889711334,0.004662,0.000327,0.001166,0.211570,0.078175,320.890043,24.396280,0.999280,0.989480,0.004106,0.484648,-0.000038,0.000022,0.000007,0.000023,-0.000038,83.863022,0.000039,
2071,2683,-4.08152436119964,0.828980199364203,-0.0277775203815054,0.004374,0.000347,-0.001169,0.204991,0.070921,320.661426,24.375926,0.999404,0.991393,0.003769,0.494857,-0.000040,0.000013,-0.000005,0.000013,-0.000041,-84.772181,0.000041,
2071,2698,-4.0841088330725,1.15518319137816,-0.0251392171649059,0.004132,0.000255,0.001436,0.186397,0.076832,320.421938,24.364981,0.999360,0.992345,0.003636,0.508947,-0.000034,0.000005,-0.000005,0.000006,-0.000035,-82.521512,0.000037,
2071,2713,-4.08682470553732,1.48254978753275,-0.0329626703504005,0.004284,0.000287,0.001929,0.191998,0.069561,320.118848,24.393327,0.999224,0.991084,0.003850,0.470575,-0.000029,0.000005,-0.000011,0.000009,-0.000032,-73.267862,0.000033,
2071,2728,-4.08814089666751,1.80880460468978,-0.0308778604854751,0.004962,0.000746,-0.001657,0.233602,0.077308,319.934418,24.389713,0.999107,0.990087,0.004068,0.478836,-0.000033,0.000013,-0.000011,0.000016,-0.000036,-76.799614,0.000036,
2071,2743,-4.09018608680461,2.13418476647492,-0.0259808149012883,0.004960,0.000485,-0.001662,0.233421,0.054531,319.732354,24.362968,0.999349,0.991042,0.003866,0.479818,-0.000036,0.000028,-0.000014,0.000031,-0.000039,-78.599027,0.000041,
2071,2758,-4.09276236359146,2.46121415538148,-0.0341030092723145,0.004954,0.000802,-0.006311,0.246536,0.049259,319.434123,24.371232,0.999480,0.992009,0.003700,0.463298,-0.000039,0.000021,-0.000022,0.000028,-0.000046,-71.712965,0.000046,
2071,2773,-4.09492013730982,2.78688992997157,-0.0237843384466032,0.004744,0.000591,-0.002508,0.225986,0.056822,319.256465,24.392271,0.999385,0.990590,0.003937,0.446557,-0.000035,0.000019,-0.000023,0.000027,-0.000043,-69.792295,0.000043,
2071,2788,-4.0971647332945,3.11206959788248,-0.0173739257604097,0.004662,0.000388,0.000836,0.212623,0.061032,319.053609,24.343820,0.999316,0.989557,0.004056,0.495878,-0.000036,0.000031,-0.000020,0.000037,-0.000041,-74.899272,0.000045,
2071,2803,-4.10007277696915,3.439104874176,-0.0247431147462294,0.004498,0.000359,-0.000386,0.208607,0.062093,318.744298,24.366576,0.999341,0.990865,0.003913,0.471085,-0.000035,0.000029,-0.000014,0.000032,-0.000038,-77.990759,0.000041,
2071,2818,-4.10231963011099,3.7649540419394,-0.0198901173605464,0.004267,0.000708,-0.001042,0.200006,0.091655,318.532572,24.350436,0.999463,0.991490,0.003876,0.513392,-0.000035,0.000035,-0.000016,0.000039,-0.000039,-77.783100,0.000045,
2071,2833,-4.10452015960993,4.09073413232619,-0.0120285463401615,0.004116,0.000129,0.001776,0.184778,0.053659,318.339633,24.421583,0.999493,0.992101,0.003602,0.400677,-0.000031,0.000021,-0.000022,0.000029,-0.000039,-70.133561,0.000041,
2071,2848,-4.10732867696105,4.41797251300281,-0.0236208068171777,0.004285,0.000460,-0.000008,0.197807,0.066608,318.011650,24.433896,0.999681,0.993994,0.003226,0.398248,-0.000029,0.000020,-0.000023,0.000029,-0.000038,-68.297300,0.000039,
2071,2863,-4.10917479541235,4.74287144402446,-0.0177367186354331,0.004359,0.000628,-0.001226,0.204765,0.072449,317.824345,24.373621,0.999452,0.991808,0.003731,0.460946,-0.000029,0.000023,-0.000025,0.000033,-0.000039,-67.943172,0.000042,
2071,2878,-4.11182753441282,5.06885805268912,-0.0202866350252293,0.004209,0.000602,-0.001622,0.198979,0.068558,317.553512,24.364676,0.999319,0.990010,0.004121,0.462501,-0.000023,0.000029,-0.000022,0.000037,-0.000031,-69.632207,0.000040,
2071,2893,-4.1143477292905,5.39477225160692,-0.01695065690609,0.004052,0.000272,0.001588,0.182540,0.072946,317.321041,24.388199,0.999476,0.992445,0.003681,0.439779,-0.000026,0.000023,-0.000017,0.000028,-0.000032,-72.632476,0.000035,
2071,2908,-4.11641439260415,5.72036709731346,-0.0151522399096393,0.004268,0.000495,0.001970,0.191460,0.077492,317.101053,24.374889,0.999564,0.992795,0.003503,0.453976,-0.000021,0.000017,-0.000015,0.000022,-0.000026,-71.033732,0.000028,
2071,2923,-4.11806016840948,6.04503390658205,-0.00642664705225116,0.004419,0.000200,0.001463,0.199778,0.058415,316.938721,24.353079,0.999458,0.992378,0.003583,0.452823,-0.000021,0.000007,-0.000015,0.000013,-0.000028,-66.677265,0.000028,
2071,2938,-4.11998993837517,6.37053056728775,-0.00256515110959299,0.004547,0.000257,0.000227,0.209285,0.064803,316.736394,24.350882,0.999433,0.991784,0.003616,0.457792,-0.000018,0.000011,-0.000010,0.000014,-0.000021,-72.646207,0.000022,
2071,2953,-4.1227307462169,6.69674114182891,-0.00722069976262674,0.004456,0.000516,-0.000084,0.206070,0.078639,316.449922,24.351180,0.999321,0.992089,0.003646,0.467726,-0.000017,0.000009,-0.000012,0.000014,-0.000021,-68.395315,0.000022,
2071,2968,-4.12545317174661,7.02197635631439,-0.00667421403403523,0.004275,0.000019,0.003055,0.188632,0.068119,316.193207,24.326857,0.999123,0.990969,0.003890,0.477600,-0.000016,0.000013,-0.000017,0.000021,-0.000024,-65.256327,0.000026,
2071,2983,-4.12678266425966,7.34642055601161,0.000300457720300074,0.004785,-0.000094,0.001361,0.216888,0.040316,316.035954,24.294861,0.999317,0.991757,0.003651,0.477933,-0.000020,0.000015,-0.000021,0.000025,-0.000030,-65.412886,0.000032,
2071,2998,-4.12841828260208,7.67200270336021,0.0147736989654277,0.004471,0.000810,-0.001204,0.210100,0.088035,315.905333,24.346260,0.999485,0.992934,0.003393,0.470049,-0.000027,0.000025,-0.000016,0.000030,-0.000032,-74.488062,0.000035,
2071,3013,-4.13074590482821,7.9966788920118,0.0192480298152873,0.004356,0.000446,0.000512,0.199787,0.070525,315.688545,24.314446,0.999389,0.992169,0.003567,0.480647,-0.000029,0.000036,-0.000013,0.000038,-0.000031,-78.728011,0.000041,
2071,3028,-4.13355045428605,8.32262680845682,0.0139733413883505,0.004308,0.000514,0.001130,0.195830,0.076790,315.395910,24.314756,0.999531,0.993776,0.003275,0.482742,-0.000026,0.000044,-0.000011,0.000045,-0.000028,-81.152679,0.000046,
2071,3043,-4.13630973498477,8.64851079041174,0.0116056974323442,0.004158,0.000274,0.002256,0.185670,0.075482,315.121337,24.340602,0.999555,0.993634,0.003278,0.451463,-0.000027,0.000040,-0.000015,0.000043,-0.000030,-78.219768,0.000044,
2071,3058,-4.13839780304305,8.97317703857633,0.0101699008059768,0.004355,0.000232,-0.000866,0.203697,0.065095,314.883132,24.273791,0.999383,0.992924,0.003372,0.503846,-0.000030,0.000032,-0.000015,0.000036,-0.000033,-77.494473,0.000040,
2071,3073,-4.14059292004106,9.29868868894417,0.0121147358736948,0.004338,0.000619,-0.002382,0.207326,0.063281,314.658270,24.302149,0.999421,0.992437,0.003509,0.469512,-0.000031,0.000036,-0.000014,0.000039,-0.000034,-78.436990,0.000042,
2071,3088,-4.14344145978663,9.62370735999134,0.0162474872880125,0.003921,0.000525,0.002327,0.174633,0.074371,314.415629,24.290007,0.999391,0.991891,0.003581,0.488606,-0.000033,0.000028,-0.000013,0.000031,-0.000036,-78.267804,0.000039,
2071,3103,-4.14469388660369,9.94862472043394,0.0261119565734589,0.004379,0.000725,0.001164,0.199219,0.088559,314.277755,24.304626,0.999586,0.993387,0.003258,0.483889,-0.000034,0.000028,-0.000007,0.000029,-0.000035,-83.678820,0.000037,
2071,3118,-4.14635278399817,10.2728732572597,0.0390424672614813,0.004418,0.000293,0.002829,0.196072,0.062003,314.138385,24.319906,0.999762,0.994647,0.002912,0.437701,-0.000040,0.000025,-0.000009,0.000027,-0.000041,-82.141739,0.000041,
2071,3133,-4.14892405022186,10.5982745564447,0.0312321673148404,0.004530,0.000454,-0.000472,0.210705,0.052538,313.842807,24.299088,0.999608,0.994501,0.002958,0.444923,-0.000043,0.000024,-0.000008,0.000025,-0.000044,-83.464526,0.000044,
2071,3148,-4.15126120313801,10.9234233015553,0.0325254295261175,0.004495,0.000671,-0.000824,0.210221,0.072426,313.608059,24.286041,0.999776,0.996184,0.002628,0.473655,-0.000043,0.000029,-0.000007,0.000030,-0.000044,-84.402538,0.000045,
2071,3163,-4.15356020448397,11.2492518019212,0.0344767608644361,0.004480,0.000834,-0.000859,0.209654,0.070533,313.378445,24.364900,0.999722,0.995365,0.002865,0.388229,-0.000042,0.000039,-0.000013,0.000041,-0.000044,-81.277591,0.000049,
2071,3178,-4.15587538128215,11.5737540505382,0.0365127686778806,0.004527,0.000756,0.000446,0.208155,0.083510,313.149073,24.310925,0.999785,0.996617,0.002641,0.450829,-0.000040,0.000035,-0.000012,0.000037,-0.000042,-81.191368,0.000046,
2071,3193,-4.15854368324915,11.8991096014393,0.0357318522653145,0.004322,0.000799,0.000503,0.198569,0.085631,312.887702,24.333403,0.999556,0.995018,0.002988,0.426012,-0.000040,0.000027,-0.000015,0.000030,-0.000044,-77.661367,0.000045,
2071,3208,-4.16046725097601,12.223293124817,0.0392953316681997,0.004425,0.000843,-0.002105,0.210828,0.079562,312.684873,24.285066,0.999552,0.994439,0.003085,0.463902,-0.000040,0.000016,-0.000021,0.000023,-0.000047,-71.475365,0.000047,
2071,3223,-4.16278999289286,12.5479456059094,0.0426559552298045,0.004458,0.000588,0.000307,0.205426,0.080508,312.462439,24.275097,0.999541,0.993784,0.003221,0.470253,-0.000039,0.000013,-0.000022,0.000021,-0.000047,-70.022784,0.000048,
2071,3238,-4.16495921359186,12.8726260691777,0.0432738170500215,0.004633,0.000420,-0.000244,0.215049,0.073253,312.231985,24.263625,0.999519,0.993531,0.003283,0.470009,-0.000037,0.000002,-0.000021,0.000011,-0.000046,-66.525282,0.000048,
2071,3253,-4.16787179687657,13.1984013234009,0.0384957694535046,0.004485,0.000753,0.000505,0.206117,0.078645,311.937300,24.314052,0.999699,0.995061,0.002972,0.420408,-0.000032,-0.000003,-0.000024,0.000010,-0.000045,-61.069409,0.000047,
2071,3268,-4.17069879469216,13.5235309963828,0.0259464280090924,0.004721,0.000875,-0.001731,0.223478,0.076248,311.604064,24.274299,0.999775,0.996092,0.002772,0.453048,-0.000024,0.000002,-0.000025,0.000017,-0.000039,-58.593239,0.000039,
2071,3283,-4.17402897881333,13.8484634046186,0.0178037767010437,0.004349,0.000791,-0.001290,0.205036,0.075608,311.272027,24.244107,0.999732,0.996287,0.002754,0.477965,-0.000019,0.000007,-0.000018,0.000017,-0.000028,-63.007109,0.000028,
2071,3298,-4.17669649598263,14.1733053950126,0.0164450213719647,0.004181,0.000703,-0.001460,0.197730,0.066705,311.007778,24.254967,0.999526,0.994911,0.003030,0.453273,-0.000013,0.000036,-0.000021,0.000044,-0.000021,-69.765240,0.000044,
2086,1993,-3.64509220958725,-14.2522491537306,0.0253294190803786,0.004207,0.001047,-0.005150,0.207927,0.077538,332.143474,24.470778,0.999198,0.984943,0.004894,0.354949,-0.000011,-0.000171,-0.000002,-0.000011,-0.000171,-0.581573,0.000204,
2086,2008,-3.64685177336584,-13.924261084556,0.0292981006068089,0.004673,0.000401,-0.002153,0.220537,0.051965,331.949310,24.442646,0.999371,0.987759,0.004624,0.359987,-0.000028,-0.000130,-0.000002,-0.000028,-0.000130,-1.305976,0.000169,
2086,2023,-3.6505607091171,-13.5933096672736,0.017242374421528,0.004200,0.000426,0.000620,0.190921,0.052082,331.578859,24.483140,0.999026,0.985286,0.005093,0.323084,-0.000025,-0.000118,0.000000,-0.000025,-0.000118,-0.018453,0.000152,
2086,2038,-3.65241586886807,-13.265124507324,0.0182789152048031,0.004349,0.000652,-0.002844,0.207788,0.064066,331.364237,24.413678,0.999116,0.984679,0.005078,0.406876,-0.000023,-0.000109,0.000002,-0.000023,-0.000109,1.090914,0.000141,
2086,2053,-3.6536093083224,-12.9368961968909,0.0285118574245189,0.004980,0.000039,-0.000145,0.228752,0.069441,331.229649,24.462427,0.998936,0.981659,0.005281,0.365431,-0.000022,-0.000092,0.000003,-0.000022,-0.000092,2.770018,0.000120,
2086,2068,-3.65739379844847,-12.6064816518474,0.0108825078802397,0.004322,0.000651,-0.004651,0.211785,0.052981,330.825717,24.427895,0.998763,0.962481,0.007377,0.387020,-0.000021,-0.000058,0.000013,-0.000017,-0.000062,17.305661,0.000082,
2086,2083,-3.66245924915468,-12.2732048648514,-0.0235505795649829,0.004006,0.000474,-0.000526,0.185420,0.073569,330.271561,24.440325,0.999032,0.949173,0.008808,0.399085,-0.000021,-0.000040,0.000009,-0.000018,-0.000043,21.886439,0.000063,
2086,2098,-3.66403526976171,-11.9453023385721,-0.0066590394487207,0.003764,0.000294,0.000988,0.169906,0.064981,330.155731,24.563377,0.998944,0.967443,0.006905,0.269217,-0.000020,-0.000034,0.000012,-0.000013,-0.000041,30.748047,0.000056,
2086,2113,-3.66429713711262,-11.6201099607225,0.00760148294330065,0.004629,-0.000077,-0.003145,0.221410,-0.007244,330.086479,24.477043,0.998808,0.984661,0.005082,0.284389,-0.000016,-0.000026,0.000013,-0.000007,-0.000034,34.124548,0.000045,
2086,2128,-3.66751655361744,-11.2907046402772,0.00176003060482799,0.004233,-0.000225,-0.000818,0.196509,0.011951,329.772110,24.470306,0.998949,0.985877,0.004962,0.312971,-0.000018,-0.000028,0.000017,-0.000006,-0.000041,36.313622,0.000051,
2086,2143,-3.66947833077871,-10.9635443925217,0.00528406379896751,0.004225,0.000525,-0.002663,0.201684,0.057511,329.566181,24.339133,0.998950,0.985709,0.004935,0.491419,-0.000013,-0.000017,0.000013,-0.000002,-0.000029,41.177768,0.000034,
2086,2158,-3.67163963426565,-10.6338537091255,0.00192207612735729,0.004625,0.000227,-0.002170,0.218553,0.033843,329.313725,24.439007,0.998951,0.984936,0.005036,0.369747,-0.000006,-0.000009,0.000008,0.000000,-0.000016,39.173660,0.000018,
2086,2173,-3.67345463654871,-10.3064160166695,0.00901066850809684,0.004810,-0.000104,0.000063,0.220565,0.020152,329.134087,24.439996,0.998935,0.984787,0.004960,0.356667,-0.000011,0.000002,0.000006,0.000005,-0.000014,67.921430,0.000014,
2086,2188,-3.67624934487916,-9.97791059393563,0.00975965000276346,0.004360,0.000075,0.001346,0.196289,0.045484,328.874972,24.437220,0.998659,0.983709,0.005260,0.386530,-0.000013,0.000029,0.000007,0.000030,-0.000014,80.276697,0.000030,
2086,2203,-3.67901431826707,-9.64886326081918,0.00545660436313256,0.004114,0.000429,0.000276,0.188196,0.065629,328.589760,24.441366,0.998270,0.980958,0.005549,0.404638,-0.000008,0.000025,0.000010,0.000028,-0.000011,75.035454,0.000028,
2086,2218,-3.68100165653271,-9.32047220903058,0.00497954319217797,0.004345,0.000629,-0.001738,0.204676,0.082087,328.360954,24.434774,0.998306,0.982454,0.005350,0.429044,-0.000009,0.000020,0.000006,0.000021,-0.000010,79.017068,0.000021,
2086,2383,-3.70709815240816,-5.71158209449369,-0.0191169917498542,0.004902,0.000909,-0.008879,0.251209,0.033034,325.550334,24.444221,0.998239,0.982757,0.005354,0.383743,-0.000002,0.000006,-0.000012,0.000015,-0.000011,-54.048816,0.000016,
2086,2368,-3.70474110414581,-6.04077003302018,-0.0102495112658403,0.004628,0.000632,-0.004615,0.226198,0.039846,325.841613,24.377673,0.998415,0.982434,0.005341,0.456086,-0.000003,0.000009,-0.000009,0.000014,-0.000008,-62.567860,0.000014,
2086,2398,-3.70988497599038,-5.38500234276845,-0.0104053495529683,0.004303,0.000506,-0.002472,0.205098,0.062475,325.335262,24.410628,0.998753,0.985094,0.004893,0.447340,-0.000004,-0.000002,-0.000015,0.000012,-0.000018,-47.504628,0.000019,
2086,2233,-3.68319536558699,-8.9912647587231,-0.00430770988612039,0.004987,0.000639,-0.002859,0.237419,0.078514,328.074899,24.437039,0.998728,0.985518,0.004834,0.425132,-0.000008,0.000032,0.000004,0.000032,-0.000008,84.299680,0.000033,
2041,2008,-4.62979525064413,-13.9207087047602,0.0164487041757866,0.003991,0.000562,0.001501,0.179020,0.073606,332.040660,24.803711,0.998104,0.980787,0.005798,0.330012,-0.000010,-0.000151,0.000006,-0.000010,-0.000151,2.335472,0.000181,
2086,2428,-3.71440532656981,-4.72995559220728,-0.00991940916458134,0.004486,0.000720,-0.001543,0.210971,0.078565,324.861124,24.410067,0.999124,0.987424,0.004450,0.465073,-0.000011,-0.000026,-0.000005,-0.000009,-0.000027,-18.394052,0.000038,
2086,2413,-3.71195167685453,-5.05845777299874,-0.00492956760109564,0.004414,0.000140,0.000524,0.201479,0.053469,325.135738,24.385004,0.998874,0.985677,0.004697,0.464395,-0.000003,-0.000012,-0.000015,0.000008,-0.000023,-37.218277,0.000023,
2041,2023,-4.63120460893232,-13.592397263537,0.0143813041476051,0.004485,0.000935,-0.005401,0.220914,0.070415,331.825494,24.719495,0.998337,0.980785,0.005708,0.406791,-0.000011,-0.000149,0.000000,-0.000011,-0.000149,0.067442,0.000178,
2086,2248,-3.68637845554911,-8.66394323780032,-0.0047784465608629,0.004172,0.000434,-0.002473,0.198829,0.059772,327.791878,24.379394,0.998796,0.985949,0.004800,0.465513,-0.000014,0.000038,0.000005,0.000039,-0.000015,84.271038,0.000039,
2041,2038,-4.63386113685745,-13.2649797895496,0.0200353074619102,0.003871,0.000449,-0.002301,0.184063,0.053700,331.596291,24.659990,0.998626,0.980520,0.005572,0.445562,-0.000011,-0.000140,-0.000001,-0.000011,-0.000140,-0.357474,0.000168,
2086,2443,-3.71746092759551,-4.40157580740817,-0.0191712663453814,0.004227,0.000724,-0.003642,0.205125,0.070354,324.535983,24.423016,0.999391,0.988781,0.004279,0.444828,-0.000015,-0.000018,-0.000009,-0.000008,-0.000025,-40.279537,0.000034,
2086,2458,-3.72013250732252,-4.07537909009587,-0.0137754358187863,0.004015,-0.000083,0.003639,0.174120,0.064145,324.308456,24.376386,0.999417,0.989502,0.004213,0.485578,-0.000013,-0.000012,-0.000015,0.000002,-0.000028,-46.181220,0.000031,
2086,2263,-3.68838199690439,-8.33689198303342,-0.000325667607285141,0.004247,0.000325,-0.001771,0.200237,0.052984,327.589458,24.340299,0.998911,0.985789,0.004757,0.498862,-0.000012,0.000030,0.000010,0.000032,-0.000014,77.763062,0.000032,
2041,2053,-4.63765781707979,-12.9305182820933,-0.0177442857958567,0.004580,0.000591,-0.002655,0.217652,0.054404,331.074114,24.745186,0.999669,0.992738,0.003644,0.358603,-0.000010,-0.000126,-0.000001,-0.000010,-0.000126,-0.327159,0.000152,
2086,2473,-3.72227967144135,-3.7472725882448,-0.0198486795404165,0.004460,0.000077,0.001456,0.200982,0.063071,324.042159,24.397712,0.999376,0.989880,0.004217,0.463676,-0.000008,-0.000004,-0.000008,0.000002,-0.000014,-50.617379,0.000015,
2041,2068,-4.6393310361281,-12.6038194056394,-0.0111806420071616,0.004815,0.000239,-0.000860,0.223363,0.040529,330.894917,24.639674,0.999665,0.992628,0.003604,0.445841,-0.000015,-0.000070,0.000014,-0.000011,-0.000073,12.966187,0.000092,
2086,2518,-3.7287644758668,-2.76676906201436,-0.0141265644563191,0.004314,0.000351,-0.003930,0.209917,0.034321,323.372380,24.387740,0.999473,0.991828,0.003755,0.445082,-0.000010,0.000008,0.000002,0.000008,-0.000010,82.468303,0.000011,
2086,2278,-3.69058027597627,-8.00760806047825,-0.00288563073058867,0.004544,0.000304,-0.001701,0.213723,0.053865,327.339624,24.431020,0.999230,0.989040,0.004378,0.410578,-0.000009,0.000009,0.000005,0.000011,-0.000011,76.877747,0.000012,
2086,2488,-3.72458833643138,-3.42043104624906,-0.0199215370903403,0.004339,0.000494,-0.001062,0.202845,0.069378,323.801350,24.356565,0.999342,0.990382,0.004084,0.511358,-0.000010,-0.000005,-0.000011,0.000004,-0.000019,-50.852549,0.000020,
2026,2728,-5.06541299346536,1.80666787403976,-0.0297772018569162,0.004631,0.000604,-0.001132,0.216774,0.064055,320.188442,24.374267,0.999572,0.992581,0.003599,0.472253,-0.000028,0.000030,0.000002,0.000030,-0.000028,88.117672,0.000034,
2041,2083,-4.64009756140679,-12.2773412956014,0.0159618641371821,0.004464,0.000668,-0.003163,0.213781,0.041157,330.870647,24.730416,0.999307,0.987283,0.004482,0.350047,-0.000021,-0.000043,0.000005,-0.000019,-0.000044,11.898232,0.000065,
2101,2443,-3.39050789149649,-4.40304478391779,-0.00819834145346476,0.004474,0.000178,0.000936,0.203037,0.063575,324.552752,24.338595,0.999394,0.988727,0.004300,0.482939,-0.000018,-0.000013,-0.000008,-0.000007,-0.000024,-53.426459,0.000033,
2086,2533,-3.73124896226779,-2.4394619005764,-0.0116924358806045,0.004357,0.000246,0.001278,0.196888,0.060143,323.136983,24.406269,0.999593,0.992514,0.003740,0.452344,-0.000011,0.000013,0.000015,0.000020,-0.000018,64.262170,0.000022,
2086,2503,-3.72693877798497,-3.0932470525588,-0.018932217839108,0.004248,0.000490,-0.001491,0.199893,0.063515,323.564360,24.373367,0.999182,0.990516,0.003943,0.488680,-0.000008,0.000004,-0.000009,0.000009,-0.000012,-62.791421,0.000013,
2086,2293,-3.69352021403887,-7.67938246476641,-0.00430560436143423,0.004140,0.000472,0.000249,0.189616,0.076706,327.062203,24.420361,0.999639,0.992192,0.003927,0.445520,-0.000007,0.000009,0.000002,0.000009,-0.000007,84.132664,0.000010,
2026,2743,-5.06785029275077,2.13309610504757,-0.0288987260569797,0.004423,0.000787,-0.001000,0.206903,0.083765,319.942660,24.368353,0.999375,0.990699,0.003979,0.488224,-0.000035,0.000057,0.000003,0.000057,-0.000035,87.901130,0.000057,
2041,2098,-4.6421017983816,-11.949757419707,0.0242502155897455,0.004389,0.000174,0.000499,0.200045,0.055303,330.685634,24.704032,0.999117,0.982102,0.005167,0.385957,-0.000023,-0.000042,0.000005,-0.000022,-0.000043,12.566003,0.000066,
2101,2458,-3.39336662732797,-4.07525892786926,-0.0111120562569909,0.004278,0.000200,0.002587,0.189245,0.070513,324.272424,24.346657,0.999428,0.989141,0.004181,0.484601,-0.000019,-0.000010,-0.000015,0.000001,-0.000030,-52.802803,0.000034,
2086,2578,-3.73874870270275,-1.45816940232508,-0.018449158199644,0.004342,0.000052,0.001142,0.196583,0.049126,322.352769,24.396307,0.999072,0.988878,0.004334,0.451560,-0.000017,-0.000007,0.000004,-0.000005,-0.000018,72.325821,0.000025,
2086,2548,-3.73430049312311,-2.11274446297445,-0.0164044056640478,0.004064,0.000118,0.003026,0.178343,0.063276,322.837047,24.334596,0.999401,0.991376,0.003958,0.527422,-0.000009,0.000002,0.000016,0.000014,-0.000021,54.624526,0.000021,
2041,2113,-4.64447051266255,-11.6215672951372,0.0220007871939742,0.004300,-0.000137,-0.000650,0.199096,0.042493,330.425892,24.649470,0.998863,0.981286,0.005511,0.423520,-0.000025,-0.000037,0.000004,-0.000024,-0.000039,16.366708,0.000063,
2026,2758,-5.06993265824486,2.45839869414882,-0.0269820571602963,0.004488,0.000275,-0.001186,0.210320,0.068541,319.719386,24.306445,0.999093,0.990195,0.004189,0.525403,-0.000035,0.000031,-0.000014,0.000033,-0.000037,-78.775372,0.000041,
2086,2308,-3.69615438162515,-7.35171230796094,-0.00618614780967164,0.004057,0.000143,0.001951,0.180793,0.053664,326.796577,24.405351,0.999415,0.989549,0.004395,0.438692,-0.000007,0.000005,-0.000002,0.000005,-0.000008,-78.613753,0.000008,
2041,2443,-4.69490010442373,-4.40361704913573,-0.00980030548851119,0.004856,0.000871,-0.003638,0.233762,0.065005,324.888410,24.506476,0.998790,0.983519,0.005157,0.472700,-0.000022,-0.000035,-0.000019,-0.000008,-0.000049,-35.965466,0.000062,
2116,2518,-3.0771523778665,-2.7651124098323,-0.0216964979311456,0.004281,0.000098,-0.000516,0.198440,0.036638,323.154952,24.353357,0.999261,0.988087,0.004334,0.425975,-0.000011,0.000004,0.000001,0.000004,-0.000011,86.937351,0.000012,
2101,2473,-3.39582772155921,-3.7472969211115,-0.0149462083310254,0.004376,0.000288,0.001636,0.196553,0.067639,324.005307,24.377363,0.999385,0.989524,0.004162,0.453705,-0.000014,-0.000002,-0.000008,0.000002,-0.000018,-63.383986,0.000019,
2086,2593,-3.74156388073142,-1.13096246150147,-0.0174205037238835,0.003913,0.000310,0.002592,0.172772,0.083788,322.094618,24.403384,0.999089,0.989047,0.004259,0.478869,-0.000022,0.000004,0.000009,0.000007,-0.000025,72.780291,0.000026,
2086,2563,-3.73565567441723,-1.78600329436694,-0.00860171511521912,0.004360,-0.000093,-0.000375,0.201695,0.035131,322.682846,24.411431,0.998937,0.988428,0.004459,0.421975,-0.000010,-0.000001,0.000010,0.000005,-0.000017,56.444789,0.000017,
2041,2128,-4.64693060805979,-11.2920311573167,0.0141488349523229,0.004485,0.000100,-0.001504,0.210029,0.048613,330.130715,24.643867,0.998469,0.978637,0.006097,0.431180,-0.000033,-0.000042,0.000010,-0.000027,-0.000048,32.917545,0.000076,
2041,2608,-4.72151905180282,-0.805501925594072,-0.0232832003973726,0.004281,0.000131,0.000358,0.196232,0.061860,322.073816,24.418957,0.998957,0.988597,0.004347,0.485524,-0.000023,0.000017,0.000024,0.000028,-0.000034,65.133276,0.000037,
2086,2323,-3.69809605138636,-7.02424717857063,-0.00761699790115244,0.004458,0.000103,0.000809,0.202523,0.041159,326.565045,24.370792,0.999272,0.988495,0.004489,0.461795,-0.000006,-0.000009,-0.000008,0.000001,-0.000016,-40.619865,0.000018,
2041,2458,-4.69765943347013,-4.07621573487117,-0.0127972750541971,0.004586,0.000842,-0.002876,0.219222,0.069367,324.607062,24.480007,0.999027,0.983060,0.005166,0.497184,-0.000024,-0.000019,-0.000023,0.000002,-0.000045,-47.710431,0.000051,
2176,2818,-1.82331188297469,3.7716196251052,-0.0313710888686387,0.004231,0.000404,0.000875,0.192364,0.069635,317.968003,24.532419,0.999328,0.990979,0.003904,0.421722,-0.000030,0.000023,-0.000004,0.000023,-0.000030,-86.212696,0.000032,
2161,2743,-2.1357685396289,2.13854061206872,-0.0283996714448449,0.004896,0.000368,0.001733,0.220256,0.066733,319.292428,24.410360,0.999410,0.989976,0.004057,0.474582,-0.000023,0.000016,-0.000010,0.000018,-0.000026,-76.152670,0.000027,
2146,2668,-2.44895618502357,0.504496623880783,-0.0238623223345371,0.004597,0.000806,-0.003216,0.221647,0.078395,320.605648,24.315275,0.999656,0.992133,0.003559,0.535611,-0.000024,0.000017,-0.000007,0.000019,-0.000025,-80.792945,0.000026,
2116,2533,-3.07979563907662,-2.43810535091836,-0.0213823108416591,0.004113,0.000354,0.000915,0.186601,0.055684,322.903217,24.333388,0.999102,0.986416,0.004688,0.469490,-0.000011,0.000006,0.000009,0.000010,-0.000015,66.354311,0.000015,
2086,2608,-3.74374384847038,-0.803805964516116,-0.0198361148666208,0.004226,0.000202,0.002256,0.188134,0.067017,321.846998,24.431937,0.999075,0.988804,0.004303,0.433316,-0.000023,0.000001,0.000011,0.000005,-0.000027,69.231260,0.000029,
2131,2593,-2.76350231431195,-1.12915649569707,-0.0271873033706811,0.004222,0.000475,-0.000738,0.196685,0.072856,321.828808,24.325967,0.999494,0.990504,0.004096,0.494247,-0.000011,0.000000,0.000000,0.000000,-0.000011,88.379924,0.000013,
2101,2488,-3.39823531322215,-3.42057880409799,-0.0184648732144979,0.004318,0.000530,-0.002182,0.205136,0.056507,323.742673,24.310757,0.999331,0.989936,0.004040,0.511645,-0.000014,-0.000003,-0.000011,0.000004,-0.000020,-58.407883,0.000021,
2086,2698,-3.75859956463499,1.15599670198502,-0.0279002696629504,0.003974,0.000292,0.000606,0.181424,0.066725,320.315545,24.373249,0.999369,0.991981,0.003672,0.489065,-0.000033,0.000004,-0.000014,0.000009,-0.000038,-71.524977,0.000040,
2041,2848,-4.75812450642517,4.41589490438722,-0.0288368606858285,0.004622,0.000673,-0.002280,0.219704,0.054824,318.161005,24.316432,0.999176,0.990695,0.004002,0.463009,-0.000034,0.000029,-0.000020,0.000035,-0.000039,-74.101529,0.000043,
2041,2623,-4.72352848008303,-0.478813505628359,-0.0247602820961674,0.004558,0.000367,-0.001036,0.212923,0.048809,321.835562,24.413160,0.998959,0.988216,0.004425,0.471417,-0.000030,0.000017,0.000020,0.000024,-0.000037,69.609837,0.000038,
2041,2473,-4.7006277382294,-3.74812128733899,-0.0190870364515945,0.004277,0.000507,-0.002726,0.204496,0.051588,324.297842,24.513989,0.998704,0.983456,0.005213,0.439623,-0.000012,-0.000020,-0.000012,-0.000003,-0.000028,-36.383047,0.000035,
2086,2338,-3.69969122571257,-6.69699237086719,0.00105074906508662,0.004434,0.000522,-0.002500,0.211103,0.046980,326.404114,24.403299,0.999118,0.986265,0.004693,0.435485,-0.000010,-0.000011,-0.000009,-0.000001,-0.000019,-44.169817,0.000023,
2116,2548,-3.08269345049506,-2.11049954091337,-0.0266221501160544,0.004048,0.000484,0.002253,0.179748,0.072996,322.609883,24.325511,0.999153,0.988194,0.004438,0.499309,-0.000010,-0.000002,0.000011,0.000005,-0.000017,55.975112,0.000018,
2176,2833,-1.82570517757297,4.09819852642806,-0.0413843865102876,0.004815,0.000862,-0.002660,0.230285,0.046341,317.678252,24.530459,0.999644,0.994010,0.003404,0.412552,-0.000027,0.000020,-0.000002,0.000020,-0.000028,-87.073327,0.000028,
2161,2758,-2.13874231992967,2.46438780125338,-0.0227469093304649,0.004242,0.000101,0.004604,0.181317,0.068600,319.057405,24.413815,0.999109,0.987644,0.004284,0.482989,-0.000026,0.000019,-0.000013,0.000023,-0.000029,-75.323903,0.000031,
2041,2863,-4.76038292301988,4.74117972350648,-0.0183558181109902,0.004185,0.000386,0.000073,0.192974,0.057517,317.978380,24.328503,0.999170,0.990863,0.004140,0.445417,-0.000037,0.000030,-0.000023,0.000037,-0.000044,-72.763909,0.000048,
2086,2623,-3.74659683913746,-0.477050251501105,-0.031732039253825,0.004239,0.000470,-0.001608,0.199973,0.057105,321.517111,24.341316,0.999236,0.988958,0.004205,0.513937,-0.000027,0.000006,0.000005,0.000007,-0.000028,81.473015,0.000029,
2146,2683,-2.45215626976436,0.831852575048998,-0.0282657062672342,0.004565,-0.000058,0.002775,0.201751,0.053957,320.305680,24.379248,0.999454,0.991083,0.003718,0.455367,-0.000022,0.000016,-0.000011,0.000019,-0.000025,-74.401135,0.000026,
2041,2488,-4.7019510280123,-3.42192197948157,-0.0130368171549549,0.004798,0.000441,-0.003529,0.230711,0.045506,324.132594,24.481220,0.999373,0.988393,0.004447,0.459585,-0.000015,-0.000024,-0.000009,-0.000009,-0.000030,-30.681161,0.000041,
2041,2638,-4.72583153326532,-0.151989142341456,-0.0241067329927773,0.004479,0.000786,-0.001367,0.210372,0.072949,321.595543,24.405697,0.999182,0.989671,0.004198,0.495694,-0.000029,0.000018,0.000020,0.000026,-0.000036,69.841707,0.000037,
2101,2503,-3.4008871788784,-3.09279459488499,-0.0186652567675196,0.004144,0.000284,-0.000852,0.193178,0.052569,323.486473,24.370035,0.999312,0.989751,0.004038,0.450852,-0.000011,0.000004,-0.000008,0.000007,-0.000014,-67.081199,0.000014,
2086,2713,-3.76050729305799,1.48195526881072,-0.0249282757325773,0.004318,0.000207,0.001685,0.194126,0.057755,320.110046,24.361980,0.999337,0.991416,0.003775,0.490745,-0.000028,0.000004,-0.000019,0.000012,-0.000037,-65.041369,0.000037,
2131,2608,-2.76553847666597,-0.802557625014877,-0.0249905449339849,0.004287,0.000609,-0.003709,0.208604,0.055812,321.616288,24.344888,0.999490,0.989641,0.004235,0.464657,-0.000014,-0.000007,0.000004,-0.000005,-0.000016,68.171117,0.000022,
2086,2353,-3.70243839762382,-6.36796317317508,-0.00559606659032852,0.004348,0.001000,-0.003958,0.211548,0.053420,326.107051,24.451790,0.998829,0.981977,0.005204,0.394715,-0.000010,0.000005,-0.000003,0.000006,-0.000011,-78.535107,0.000011,
2116,2563,-3.08447235777465,-1.7832685159274,-0.026081743612167,0.004502,0.000452,0.000032,0.207201,0.075174,322.398927,24.354545,0.999129,0.988285,0.004528,0.476588,-0.000008,-0.000005,0.000005,-0.000001,-0.000012,53.449993,0.000015,
2041,2878,-4.76254070281858,5.06805938159192,-0.023050803749868,0.004640,0.000652,0.000193,0.213733,0.074722,317.715589,24.364139,0.998821,0.988122,0.004511,0.419410,-0.000035,0.000033,-0.000022,0.000039,-0.000041,-73.656394,0.000047,
2176,2848,-1.82793613879138,4.42275306177437,-0.0264996891099258,0.004405,-0.000054,0.001615,0.197902,0.032394,317.526967,24.525055,0.999452,0.991751,0.003606,0.415751,-0.000030,0.000016,0.000001,0.000016,-0.000030,88.182895,0.000030,
2041,2653,-4.72852484659801,0.175306997884988,-0.0361782834952464,0.004775,0.000432,-0.001930,0.225455,0.049980,321.267155,24.386371,0.999452,0.990162,0.003978,0.485587,-0.000039,0.000022,0.000014,0.000025,-0.000042,78.047005,0.000042,
2041,2503,-4.70523265773437,-3.09438971220269,-0.0181006585619912,0.004213,0.000584,-0.001504,0.198276,0.070379,323.815843,24.443095,0.999496,0.990191,0.004018,0.516424,-0.000016,-0.000004,-0.000009,0.000001,-0.000021,-61.877172,0.000023,
2146,2698,-2.45509110014281,1.15889476261317,-0.0330137045382344,0.004410,0.000198,0.002621,0.195236,0.081517,320.015973,24.364967,0.999469,0.990662,0.003831,0.505746,-0.000019,0.000014,-0.000009,0.000016,-0.000021,-75.880636,0.000022,
2161,2773,-2.1416058028596,2.7914973511604,-0.0314988930250024,0.004266,0.000155,0.001476,0.192047,0.058201,318.751174,24.436318,0.999426,0.990923,0.003854,0.460431,-0.000024,0.000018,-0.000010,0.000020,-0.000027,-77.080490,0.000028,
2086,2638,-3.74864361926744,-0.149990089443527,-0.0262962538504325,0.004387,0.000369,0.001102,0.198963,0.066590,321.318225,24.411872,0.999303,0.988867,0.004120,0.452248,-0.000025,0.000011,0.000005,0.000012,-0.000026,83.025536,0.000026,
2101,2518,-3.4033661433846,-2.76552766174215,-0.0227721097722338,0.004395,-0.000357,0.000535,0.200510,0.025504,323.217305,24.374655,0.999629,0.992721,0.003573,0.421609,-0.000014,0.000006,0.000002,0.000006,-0.000015,83.508209,0.000015,
2086,2728,-3.76248288841149,1.80894138506449,-0.0260627892420189,0.004686,0.000573,0.000044,0.216003,0.081505,319.878720,24.383511,0.999286,0.990500,0.003950,0.492063,-0.000032,0.000010,-0.000018,0.000017,-0.000039,-69.691367,0.000039,
2131,2623,-2.76810252499952,-0.476009117756135,-0.0207510553366319,0.004152,0.000358,0.000337,0.190229,0.060708,321.390430,24.359192,0.999482,0.990126,0.004078,0.461425,-0.000016,0.000001,0.000001,0.000001,-0.000016,88.140383,0.000018,
2086,2818,-3.77653119507696,3.76605887305919,-0.0190238900152053,0.004466,0.000640,-0.000183,0.206678,0.083592,318.467507,24.415117,0.999492,0.992630,0.003564,0.456669,-0.000035,0.000033,-0.000019,0.000038,-0.000040,-75.462193,0.000045,
2206,2968,-1.19471510137339,7.03087522349021,-0.00262587625388733,0.004806,0.000727,-0.002427,0.229535,0.078956,315.710309,24.717363,0.999335,0.991812,0.003721,0.440678,-0.000010,0.000037,0.000002,0.000037,-0.000010,88.030480,0.000038,
2191,2893,-1.50888714131038,5.4014058589822,-0.0141822115868422,0.004317,0.000675,-0.001139,0.202795,0.080969,316.853399,24.603774,0.999786,0.995128,0.003115,0.448389,-0.000018,0.000020,0.000000,0.000020,-0.000018,89.550781,0.000022,
2116,2578,-3.08669601816673,-1.45662474744496,-0.0249178482994807,0.004437,0.000494,-0.002682,0.212250,0.056182,322.171173,24.361064,0.999383,0.990296,0.004139,0.455378,-0.000012,-0.000009,0.000000,-0.000009,-0.000012,86.415895,0.000022,
2041,2893,-4.76445858386006,5.39243954642779,-0.0123982870417194,0.004392,0.000242,0.000179,0.202137,0.037383,317.549956,24.340855,0.999244,0.992315,0.003680,0.397285,-0.000037,0.000027,-0.000017,0.000031,-0.000042,-75.857603,0.000043,
2041,2668,-4.7304519377483,0.501033279380671,-0.0254197139936423,0.004597,0.000393,-0.000019,0.211915,0.039833,321.100792,24.406231,0.999446,0.989043,0.004169,0.448084,-0.000043,0.000025,0.000018,0.000030,-0.000047,75.973437,0.000048,
2041,2518,-4.70720759675446,-2.76674433884357,-0.0225090234746972,0.004601,0.001026,-0.004381,0.224250,0.082869,323.562499,24.438850,0.999352,0.990700,0.004020,0.526744,-0.000023,0.000006,0.000001,0.000006,-0.000023,88.131953,0.000024,
2176,2863,-1.82976324899003,4.74797931564113,-0.0177717009398179,0.004402,0.000116,-0.000220,0.203591,0.050520,317.361701,24.505963,0.999085,0.988144,0.004076,0.465069,-0.000029,0.000019,-0.000003,0.000019,-0.000029,-86.292838,0.000029,
2161,2788,-2.14361517485525,3.11766190460558,-0.0287694488671946,0.004339,0.000536,-0.002170,0.206692,0.057091,318.544867,24.457373,0.999517,0.991310,0.003882,0.448193,-0.000026,0.000020,-0.000009,0.000022,-0.000027,-79.023105,0.000029,
2086,2743,-3.76489553363159,2.13476539978567,-0.0218203978164411,0.004392,0.000369,0.000198,0.201898,0.058825,319.657099,24.392216,0.999407,0.990426,0.003940,0.459814,-0.000035,0.000022,-0.000021,0.000029,-0.000042,-71.999664,0.000043,
2146,2713,-2.45782632075958,1.48574446939121,-0.0320814500433357,0.004093,0.000309,0.002647,0.180609,0.078095,319.765650,24.415112,0.999525,0.991931,0.003820,0.460070,-0.000016,0.000012,-0.000010,0.000015,-0.000019,-73.104844,0.000020,
2086,2653,-3.75048673851899,0.175966505168134,-0.0202388975410486,0.004631,0.000124,0.002753,0.205325,0.058680,321.132421,24.407656,0.999601,0.990265,0.003740,0.448024,-0.000032,0.000016,0.000000,0.000016,-0.000032,89.922190,0.000032,
2041,2908,-4.76637253632845,5.71790152790346,-0.00780626966707132,0.004528,0.000387,0.000307,0.208172,0.059408,317.350415,24.317008,0.999449,0.992667,0.003500,0.434928,-0.000030,0.000021,-0.000013,0.000024,-0.000033,-76.563520,0.000034,
2101,2533,-3.40651592747848,-2.43773376847133,-0.0290755374731475,0.004132,0.000045,0.002194,0.183731,0.053524,322.905248,24.358519,0.999484,0.991335,0.003909,0.468208,-0.000015,0.000010,0.000012,0.000015,-0.000020,68.064061,0.000021,
2116,2593,-3.08892781128337,-1.13087931975799,-0.0205409455096515,0.004269,0.000564,-0.003600,0.207296,0.053209,321.960481,24.301689,0.999547,0.991559,0.003901,0.515980,-0.000017,-0.000001,0.000005,0.000000,-0.000018,73.613795,0.000021,
2041,2683,-4.7333451164229,0.827994040925773,-0.0296815986121715,0.004387,0.000125,0.002129,0.196227,0.054270,320.806547,24.394269,0.999487,0.991294,0.003832,0.467289,-0.000043,0.000014,0.000007,0.000015,-0.000044,82.915968,0.000044,
2131,2638,-2.76930600675076,-0.150992803797457,-0.00480764404915135,0.004269,0.000116,-0.000831,0.198980,0.035325,321.289830,24.365938,0.999735,0.993091,0.003416,0.434987,-0.000015,0.000008,0.000000,0.000008,-0.000015,89.805850,0.000015,
2206,2983,-1.1977222783389,7.35713435973995,-0.00528510349977296,0.004653,0.000790,-0.001476,0.219509,0.084826,315.433176,24.755513,0.999388,0.992231,0.003596,0.424237,-0.000011,0.000040,0.000002,0.000040,-0.000011,87.607804,0.000042,
2191,2908,-1.51133079145971,5.72557417737256,-0.00944842036727778,0.004165,0.000437,-0.000405,0.193391,0.062441,316.640237,24.505725,0.999790,0.994887,0.003186,0.542087,-0.000014,0.000018,0.000003,0.000018,-0.000014,85.026030,0.000019,
2041,2533,-4.70986249006735,-2.44010334652052,-0.016270399740506,0.004269,0.000009,0.002665,0.189077,0.055043,323.337410,24.483465,0.999267,0.989850,0.004001,0.447739,-0.000019,0.000011,0.000018,0.000020,-0.000028,65.007805,0.000029,
2086,2833,-3.7789016568104,4.09168832296892,-0.0157338526726676,0.004329,0.000249,0.000657,0.197760,0.051976,318.242769,24.431905,0.999798,0.995047,0.002959,0.407152,-0.000033,0.000021,-0.000024,0.000030,-0.000042,-69.016529,0.000043,
2176,2878,-1.83194703078087,5.07403585109184,-0.0102537626107164,0.004353,0.000208,0.001243,0.196862,0.068269,317.173475,24.557802,0.999517,0.992961,0.003431,0.442761,-0.000023,0.000025,-0.000004,0.000025,-0.000024,-85.637348,0.000028,
2161,2803,-2.14572678126175,3.44355620840882,-0.0240904019579489,0.004371,0.000599,-0.002962,0.210679,0.063439,318.344210,24.465211,0.999574,0.992239,0.003674,0.456667,-0.000027,0.000015,-0.000008,0.000017,-0.000029,-79.476203,0.000029,
2041,2923,-4.76832258758288,6.04329042251069,-0.00823770812678504,0.004771,0.000793,-0.002250,0.226639,0.066912,317.121404,24.268714,0.999425,0.992935,0.003484,0.482741,-0.000030,0.000007,-0.000012,0.000011,-0.000033,-73.245245,0.000034,
2221,3043,-0.882525924174157,8.65949316420378,0.00757630717470192,0.004129,0.000263,0.003483,0.179371,0.073968,314.481653,24.845114,0.999722,0.994150,0.003137,0.436460,-0.000012,0.000025,-0.000006,0.000026,-0.000013,-81.570300,0.000026,
2041,2698,-4.73524305820226,1.15483052225971,-0.0332365985400997,0.004747,0.000335,-0.002015,0.224413,0.042492,320.561894,24.407786,0.999255,0.991453,0.003871,0.434859,-0.000036,0.000003,0.000007,0.000004,-0.000037,79.572766,0.000041,
2146,2728,-2.45935463288851,1.81146809621674,-0.0276134641258636,0.004427,0.000796,-0.002130,0.210617,0.077539,319.589714,24.391682,0.999464,0.990786,0.003969,0.491182,-0.000019,0.000012,-0.000009,0.000015,-0.000021,-74.774630,0.000022,
2086,2668,-3.75286664405434,0.50238066969191,-0.0226580628884676,0.004656,0.000318,0.000960,0.211759,0.066579,320.875780,24.363048,0.999479,0.990887,0.003764,0.499973,-0.000037,0.000018,-0.000002,0.000018,-0.000037,-88.015237,0.000037,
2116,2608,-3.09154196940429,-0.803516343893669,-0.0239277678028884,0.004281,0.000547,-0.003741,0.208249,0.048301,321.690189,24.329902,0.999206,0.988452,0.004441,0.486899,-0.000019,-0.000008,0.000008,-0.000004,-0.000023,61.673241,0.000029,
2086,2758,-3.76751686280596,2.46176317279327,-0.0339897180800222,0.004737,0.000464,-0.002660,0.226107,0.045526,319.336225,24.373677,0.999500,0.991035,0.003822,0.464380,-0.000039,0.000019,-0.000027,0.000030,-0.000050,-68.223566,0.000050,
2236,3118,-0.569168291638906,10.2877491401986,0.0151092012489471,0.004375,0.000819,0.000115,0.201774,0.084318,313.305153,25.003671,0.999542,0.992323,0.003647,0.437979,-0.000016,0.000010,-0.000013,0.000016,-0.000021,-67.033282,0.000022,
2176,2893,-1.83392272820268,5.39891028297248,0.000547027429377067,0.004024,0.000679,-0.001157,0.189260,0.063630,317.012409,24.550358,0.999751,0.995380,0.003148,0.457258,-0.000021,0.000025,-0.000001,0.000025,-0.000021,-88.425732,0.000027,
2041,2548,-4.71260553868752,-2.1124851759966,-0.0255788699901132,0.004332,0.000159,0.002136,0.193541,0.053951,323.021872,24.457034,0.999487,0.990347,0.003842,0.466534,-0.000014,0.000000,0.000024,0.000018,-0.000032,53.152663,0.000032,
2131,2653,-2.77237690734006,0.176639020670081,-0.0145662675133735,0.004285,0.000261,-0.000801,0.199719,0.046112,320.965786,24.363725,0.999684,0.991759,0.003614,0.454435,-0.000020,0.000015,-0.000002,0.000015,-0.000020,-87.045473,0.000021,
2206,2998,-1.20047638547998,7.68271203659757,-0.00601704857035656,0.004649,0.000712,-0.000088,0.214902,0.080365,315.177849,24.758795,0.999430,0.992079,0.003645,0.432760,-0.000012,0.000039,0.000001,0.000039,-0.000012,88.540761,0.000040,
2086,2848,-3.78105290312896,4.41665768379362,-0.0106256312905657,0.004228,0.000543,0.000456,0.193801,0.067015,318.038114,24.359047,0.999709,0.993799,0.003247,0.493855,-0.000030,0.000020,-0.000024,0.000030,-0.000040,-67.945827,0.000041,
2101,2548,-3.40941266803073,-2.11112580721341,-0.0331156587632222,0.004038,0.000040,0.004829,0.171725,0.066158,322.617342,24.274811,0.999613,0.993688,0.003634,0.566839,-0.000013,0.000002,0.000013,0.000009,-0.000021,59.757171,0.000021,
2041,2713,-4.73811888988228,1.48151868181746,-0.0371398603713828,0.004428,0.000071,-0.001624,0.208607,0.031373,320.270590,24.409432,0.999021,0.990288,0.004159,0.414944,-0.000030,0.000008,0.000002,0.000008,-0.000030,86.693054,0.000031,
2191,2923,-1.51378550797967,6.05275899419529,-0.00912697331443724,0.004343,0.000447,0.000707,0.198100,0.067432,316.402594,24.633689,0.999338,0.991558,0.003788,0.433033,-0.000014,0.000022,0.000000,0.000022,-0.000014,-89.321836,0.000022,
2251,3193,-0.255538546304084,11.9140443739111,0.0349110489017335,0.004451,0.000573,-0.000077,0.205821,0.064464,312.216146,25.178747,0.999523,0.993151,0.003349,0.413920,-0.000006,0.000013,-0.000012,0.000019,-0.000012,-65.063503,0.000019,
2161,2818,-2.14807788720032,3.7703052167316,-0.0184941452515091,0.004318,0.000454,-0.000627,0.201089,0.075207,318.137133,24.556906,0.999726,0.993837,0.003278,0.386627,-0.000026,0.000023,-0.000006,0.000023,-0.000026,-83.401726,0.000029,
2041,2938,-4.77141771578816,6.36928980403923,-0.0103476607264952,0.004361,0.000838,0.001542,0.197256,0.087934,316.830373,24.255654,0.999291,0.991862,0.003699,0.508761,-0.000024,0.000007,-0.000008,0.000009,-0.000026,-77.147470,0.000027,
2086,2683,-3.75599973503315,0.828829378869713,-0.0256518655017999,0.004069,0.000109,0.000775,0.185252,0.058490,320.581551,24.337839,0.999503,0.992423,0.003508,0.516861,-0.000038,0.000010,-0.000013,0.000013,-0.000042,-75.493969,0.000043,
2221,3058,-0.884178977060845,8.98410260143434,0.0146460627557303,0.004375,0.000515,0.000115,0.201608,0.073756,314.318399,24.821394,0.999767,0.994858,0.002912,0.477988,-0.000007,0.000021,-0.000007,0.000022,-0.000009,-76.696451,0.000022,
2116,2623,-3.09467672735999,-0.47541791213817,-0.0330251103609953,0.004312,0.000465,-0.001293,0.202472,0.058508,321.365144,24.367062,0.999036,0.985583,0.004892,0.464278,-0.000022,-0.000001,0.000004,-0.000001,-0.000023,79.456555,0.000026,
2146,2743,-2.46137381495643,2.13717612415208,-0.0211111661606083,0.004626,0.000468,0.000427,0.211898,0.064416,319.402103,24.399486,0.999491,0.990883,0.003980,0.478111,-0.000020,0.000017,-0.000011,0.000020,-0.000023,-74.038948,0.000025,
2086,2773,-3.76973658887744,2.78789811978184,-0.0253958754574342,0.004560,0.000258,0.000568,0.208601,0.051226,319.146980,24.425543,0.999616,0.991537,0.003804,0.417181,-0.000036,0.000018,-0.000027,0.000029,-0.000047,-67.427075,0.000047,
2101,2563,-3.41092464753888,-1.78389020847067,-0.0297176185124499,0.004420,-0.000074,0.000527,0.201858,0.050821,322.432914,24.346947,0.999247,0.989893,0.004197,0.481512,-0.000012,-0.000002,0.000007,0.000002,-0.000016,61.652126,0.000017,
2041,2728,-4.73971184644115,1.80732528960681,-0.0286722396567711,0.004769,0.000243,0.000900,0.217353,0.048109,320.106832,24.406691,0.999336,0.991676,0.003649,0.426990,-0.000033,0.000021,-0.000001,0.000021,-0.000033,-89.188873,0.000033,
2041,2563,-4.71427441896586,-1.7857453670151,-0.0220844874407931,0.004547,0.000554,-0.000780,0.211695,0.074279,322.826545,24.447328,0.999564,0.990416,0.003773,0.489954,-0.000014,0.000002,0.000020,0.000016,-0.000028,55.772504,0.000028,
2176,2908,-1.83732503032724,5.72510584968343,-0.00824028503137697,0.003934,0.000074,0.001340,0.177209,0.045758,316.682812,24.539548,0.999450,0.992398,0.003659,0.462271,-0.000016,0.000022,0.000002,0.000022,-0.000016,87.418116,0.000022,
2236,3133,-0.571987212900392,10.6132434448205,0.0150076770160013,0.004459,0.000659,0.003392,0.195003,0.094533,313.052077,25.024261,0.999604,0.992385,0.003728,0.447733,-0.000016,0.000010,-0.000012,0.000014,-0.000020,-68.705408,0.000021,
2206,3013,-1.20266368186713,8.00753581261387,0.00209043400610653,0.004620,0.000447,0.001585,0.208133,0.065212,314.994557,24.766761,0.999410,0.991999,0.003616,0.425412,-0.000011,0.000035,-0.000001,0.000035,-0.000011,-89.006320,0.000036,
2296,2023,0.934002586456145,-13.6017727188818,0.0265353401880475,0.004605,0.000329,-0.000490,0.212496,0.050785,331.071955,22.878155,0.999046,0.982104,0.005456,0.509029,-0.000058,-0.000023,0.000019,-0.000014,-0.000066,66.723423,0.000086,
2041,2953,-4.77321973849108,6.69484147804189,-0.00370834838162182,0.004333,0.000915,-0.000948,0.203007,0.095819,316.647402,24.279912,0.999494,0.993608,0.003259,0.484060,-0.000021,0.000001,-0.000011,0.000006,-0.000026,-68.094268,0.000027,
2266,3268,0.0546666165076637,13.5416876022283,0.0130512534993272,0.004384,0.000603,0.000803,0.199835,0.058017,310.769639,25.319069,0.999639,0.993466,0.003324,0.459035,0.000001,0.000022,-0.000005,0.000023,0.000000,-78.014616,0.000026,
2131,2668,-2.77328324873517,0.500397576074263,0.00472963000066784,0.004372,0.000773,-0.003520,0.212087,0.078103,320.896912,24.232334,0.999680,0.992034,0.003629,0.623605,-0.000022,0.000019,-0.000005,0.000020,-0.000023,-83.827511,0.000025,
2086,2863,-3.78346472433782,4.74372660767362,-0.0145804138816175,0.004332,0.000734,-0.001570,0.204604,0.083610,317.771484,24.414008,0.999538,0.991557,0.003766,0.454324,-0.000029,0.000024,-0.000026,0.000035,-0.000040,-67.610021,0.000044,
2086,3058,-3.81260830203136,8.97350705100472,0.0206888352104784,0.004319,0.000475,0.000061,0.199391,0.065675,314.887526,24.325626,0.999521,0.993053,0.003365,0.503721,-0.000026,0.000032,-0.000014,0.000036,-0.000029,-76.780920,0.000038,
2161,2833,-2.14997253413595,4.09515209243456,-0.0156186152839268,0.004618,0.000672,-0.002444,0.220506,0.067075,317.937263,24.476712,0.999674,0.993875,0.003300,0.468547,-0.000022,0.000017,-0.000006,0.000018,-0.000023,-81.788211,0.000024,
2251,3208,-0.258395310461612,12.2390474954441,0.0332024106197082,0.004147,0.000579,-0.003725,0.203859,0.066236,311.954270,25.171367,0.999707,0.995515,0.003018,0.445043,-0.000006,0.000015,-0.000012,0.000020,-0.000011,-65.670491,0.000020,
2221,3073,-0.886801853242527,9.309832046566,0.0158551773506588,0.004278,0.000472,-0.000236,0.198251,0.064810,314.080048,24.875006,0.999606,0.993639,0.003238,0.433263,-0.000008,0.000026,-0.000008,0.000028,-0.000010,-77.081307,0.000028,
2146,2758,-2.46440951885727,2.46391330443344,-0.0191679008592587,0.004154,0.000279,0.003578,0.180622,0.078027,319.143345,24.442850,0.999436,0.991018,0.003811,0.456271,-0.000023,0.000019,-0.000015,0.000023,-0.000028,-72.050425,0.000030,
2101,2578,-3.41277616657596,-1.45818021265762,-0.0211169404030898,0.004321,0.000200,-0.000665,0.200856,0.042569,322.261433,24.322022,0.999310,0.989170,0.004167,0.499987,-0.000017,-0.000008,0.000002,-0.000007,-0.000018,79.469058,0.000026,
2086,2788,-3.77179886829914,3.11328804449695,-0.0225800407738461,0.004624,0.000461,-0.000623,0.215037,0.054111,318.933751,24.370251,0.999448,0.990907,0.003881,0.474260,-0.000036,0.000029,-0.000023,0.000036,-0.000043,-72.173822,0.000046,
2041,2578,-4.71677647704833,-1.45844671537467,-0.0284386890138535,0.004705,0.000758,-0.000815,0.219171,0.080753,322.538468,24.421051,0.999147,0.990514,0.003980,0.516013,-0.000025,-0.000006,0.000009,-0.000002,-0.000029,67.785487,0.000035,
2116,2638,-3.09688857115395,-0.148224213613531,-0.0360443817674536,0.004622,0.000695,-0.002710,0.221014,0.071801,321.115220,24.375374,0.999375,0.989228,0.004100,0.473367,-0.000022,0.000006,0.000003,0.000006,-0.000022,83.753272,0.000023,
2191,2938,-1.51588111055156,6.3776494771178,-0.000943044258463033,0.004322,0.000053,0.001623,0.194170,0.057299,316.223119,24.625375,0.999403,0.992957,0.003566,0.445072,-0.000018,0.000028,0.000001,0.000028,-0.000018,88.519750,0.000028,
2041,2743,-4.74241871754517,2.1335405518859,-0.0301392553450341,0.004457,0.000257,0.001008,0.202724,0.066333,319.836877,24.364363,0.999459,0.991940,0.003690,0.480029,-0.000038,0.000044,-0.000002,0.000044,-0.000038,-88.729894,0.000048,
2266,3283,0.0511403932259178,13.866983910814,0.00400782856024762,0.004215,0.000521,0.000563,0.192918,0.068654,310.440696,25.311176,0.999562,0.993254,0.003276,0.501611,0.000002,0.000020,-0.000005,0.000021,0.000000,-75.836490,0.000025,
2296,2038,0.931143107493394,-13.2707478028624,0.0306318225364635,0.003966,0.000775,-0.003258,0.192795,0.039221,330.844127,23.128233,0.999286,0.984629,0.004962,0.280973,-0.000056,-0.000032,0.000016,-0.000024,-0.000064,63.467795,0.000091,
2176,2923,-1.84032127818805,6.05215909489653,-0.0118861879468,0.003898,0.000383,0.003737,0.168314,0.089546,316.398398,24.588192,0.998787,0.987616,0.004520,0.469327,-0.000015,0.000024,-0.000002,0.000024,-0.000015,-87.145660,0.000024,
2236,3148,-0.573814248934955,10.9377537647357,0.0233440205121838,0.004583,0.000768,0.001682,0.206272,0.087687,312.888077,25.026235,0.999311,0.991253,0.003831,0.458737,-0.000014,0.000013,-0.000010,0.000017,-0.000017,-71.081506,0.000020,
2041,2968,-4.77545585469024,7.0192465826199,-0.000924677863565648,0.004221,0.000630,-0.001535,0.199293,0.059520,316.423614,24.219417,0.999480,0.993472,0.003266,0.500088,-0.000023,0.000004,-0.000018,0.000013,-0.000032,-63.741035,0.000032,
2086,3073,-3.81513682644905,9.2997870701312,0.0160303108910966,0.004344,0.000653,-0.002478,0.207951,0.061645,314.612068,24.384115,0.999433,0.992142,0.003481,0.439451,-0.000028,0.000036,-0.000014,0.000039,-0.000031,-78.189991,0.000041,
2131,2683,-2.77710209186275,0.829451430578814,-0.0098781617706436,0.004175,0.000339,-0.000357,0.193414,0.065186,320.512374,24.354202,0.999556,0.991769,0.003628,0.495355,-0.000020,0.000017,-0.000010,0.000019,-0.000022,-75.789284,0.000024,
2101,2593,-3.41535930719213,-1.13080682106896,-0.0197602008745434,0.004057,0.000474,-0.000360,0.187954,0.057060,322.016831,24.367726,0.999175,0.989201,0.004266,0.470802,-0.000021,0.000001,0.000007,0.000003,-0.000024,73.169352,0.000026,
2206,3028,-1.205643703087,8.33305477792284,0.00637237004281133,0.004134,0.000508,0.004251,0.177347,0.079815,314.754774,24.786714,0.999625,0.993618,0.003346,0.435791,-0.000013,0.000034,-0.000002,0.000034,-0.000013,-87.025638,0.000035,
2161,2848,-2.15277349084376,4.42005746060468,-0.0157025302513034,0.004527,0.000025,0.000414,0.207340,0.043753,317.680222,24.398970,0.999714,0.994197,0.003160,0.532979,-0.000024,0.000014,-0.000003,0.000014,-0.000024,-85.632295,0.000024,
2086,2878,-3.78587643109434,5.06847612538238,-0.0101861128147789,0.004153,0.000368,0.000316,0.190761,0.067229,317.551160,24.354856,0.999516,0.992064,0.003729,0.495502,-0.000022,0.000030,-0.000023,0.000038,-0.000031,-69.535847,0.000041,
2251,3223,-0.260620121691769,12.5634286674543,0.0467893700183595,0.003996,0.000541,0.001225,0.180640,0.075621,311.799377,25.190549,0.999661,0.994858,0.003155,0.457165,-0.000003,0.000022,-0.000011,0.000027,-0.000008,-69.678941,0.000027,
2086,2803,-3.77413336495401,3.43986579369712,-0.0198382324234103,0.004512,0.000550,-0.000458,0.209509,0.068283,318.707263,24.416229,0.999303,0.991135,0.003851,0.441473,-0.000036,0.000027,-0.000018,0.000031,-0.000040,-75.260342,0.000042,
2041,2758,-4.74406036372208,2.45865203929333,-0.0272944994618456,0.004806,0.000312,-0.001181,0.224979,0.069984,319.640017,24.273812,0.999251,0.991665,0.003981,0.566949,-0.000040,0.000025,-0.000015,0.000028,-0.000043,-77.542887,0.000044,
2041,2593,-4.71872483371109,-1.13104592940158,-0.0272018994712084,0.004789,0.000952,-0.003693,0.231120,0.096450,322.317718,24.466159,0.999011,0.990266,0.004038,0.479778,-0.000025,0.000010,0.000020,0.000019,-0.000035,65.408144,0.000035,
2191,2953,-1.5186568875451,6.70323422409713,0.00247185491980417,0.004027,0.000099,0.003674,0.174189,0.062573,315.987329,24.635374,0.999310,0.992490,0.003632,0.454233,-0.000015,0.000030,-0.000002,0.000030,-0.000016,-87.221763,0.000030,
2266,3298,0.0488247812024021,14.1925922462538,0.00899206980403733,0.004136,0.000575,-0.001182,0.195000,0.053162,310.238147,25.438302,0.999625,0.993572,0.003296,0.382652,0.000006,0.000016,-0.000011,0.000023,-0.000001,-57.799983,0.000026,
2296,2053,0.928688859590924,-12.9416329683918,0.0276682740436058,0.004555,0.000600,-0.001727,0.214542,0.040998,330.600099,23.116976,0.999255,0.983617,0.005006,0.327507,-0.000053,-0.000028,0.000017,-0.000019,-0.000061,62.957244,0.000084,
2221,3088,-0.889634694895339,9.63555770504123,0.012148731239165,0.004291,0.000468,-0.000955,0.201114,0.054948,313.806735,24.901803,0.999393,0.993221,0.003375,0.414431,-0.000010,0.000023,-0.000013,0.000027,-0.000015,-70.823213,0.000027,
2146,2773,-2.466933611873,2.79117836596611,-0.0261514022604388,0.004323,0.000704,-0.000253,0.200187,0.082498,318.860545,24.478057,0.999668,0.993947,0.003228,0.433476,-0.000022,0.000016,-0.000014,0.000021,-0.000026,-72.312090,0.000028,
2176,2938,-1.84191413624821,6.37756065198128,-0.00789330500856522,0.004359,0.000373,0.000419,0.199778,0.064853,316.219067,24.611649,0.999173,0.990839,0.003927,0.432873,-0.000017,0.000028,0.000000,0.000028,-0.000017,-89.481840,0.000028,
2041,2983,-4.77756966942312,7.34527791329399,0.00326060118823079,0.004336,0.000639,0.000905,0.197804,0.066534,316.212603,24.278592,0.999352,0.992506,0.003527,0.439595,-0.000027,0.000003,-0.000023,0.000015,-0.000040,-61.221231,0.000040,
2116,2653,-3.09940821097342,0.178795155533315,-0.035802711775716,0.004591,0.000462,-0.001414,0.215696,0.052888,320.868837,24.432233,0.999579,0.990172,0.003809,0.401643,-0.000028,0.000011,0.000000,0.000011,-0.000028,-89.832697,0.000028,
2311,2098,1.24699711299841,-11.9535794134642,0.0159597092306285,0.004418,0.000227,-0.000506,0.204086,0.039739,329.756848,23.093778,0.999289,0.981990,0.005434,0.358997,-0.000045,-0.000001,0.000019,0.000006,-0.000052,69.237308,0.000057,
2086,3088,-3.81765634346543,9.62505622984843,0.0186308480745083,0.004210,0.000845,-0.000419,0.195952,0.088661,314.376974,24.369449,0.999475,0.991437,0.003615,0.479058,-0.000032,0.000029,-0.000014,0.000032,-0.000035,-78.194019,0.000039,
2101,2608,-3.41738611602801,-0.804109337623949,-0.0179774040608436,0.004164,0.000673,-0.002541,0.199282,0.050907,321.800252,24.380148,0.998753,0.987027,0.004738,0.454213,-0.000022,-0.000004,0.000010,0.000000,-0.000027,66.090444,0.000031,
2086,3298,-3.8515936640569,14.174627199545,0.0169958176766727,0.004302,0.000802,-0.002994,0.207860,0.074090,310.942306,24.331519,0.999541,0.994934,0.002998,0.470967,-0.000016,0.000036,-0.000022,0.000044,-0.000024,-69.694113,0.000044,
2236,3163,-0.576560538341205,11.2625662360228,0.023367673214409,0.004385,0.000657,0.000062,0.202293,0.065319,312.639193,25.024440,0.999473,0.990896,0.003769,0.458192,-0.000012,0.000015,-0.000010,0.000019,-0.000016,-71.776267,0.000020,
2281,1993,0.611590143883888,-14.2575895145571,0.0279050755095227,0.004309,0.000997,-0.001868,0.203802,0.067534,331.570409,23.143588,0.999328,0.970236,0.006675,0.299248,-0.000048,-0.000029,0.000006,-0.000028,-0.000050,74.797497,0.000078,
2161,2863,-2.1558877950218,4.74783624095678,-0.0218875504338598,0.004402,0.000050,0.001184,0.199243,0.046027,317.375675,24.518920,0.999429,0.991957,0.003574,0.425093,-0.000023,0.000017,-0.000006,0.000018,-0.000024,-81.212585,0.000025,
2086,2893,-3.78763466375031,5.39444064917604,-0.0116119737027702,0.004694,0.000394,-0.002633,0.224244,0.056638,317.328692,24.362827,0.999513,0.993783,0.003523,0.475862,-0.000025,0.000024,-0.000017,0.000029,-0.000031,-72.777597,0.000035,
2131,2698,-2.78023527323544,1.15716231464891,-0.023472742384854,0.004447,0.000051,0.000598,0.202990,0.044744,320.165010,24.375226,0.999546,0.991171,0.003715,0.459987,-0.000016,0.000013,-0.000007,0.000015,-0.000018,-76.770529,0.000019,
2191,2968,-1.52056376033888,7.02907448726704,-0.000683079473617454,0.004557,0.000408,-0.001522,0.215001,0.059652,315.757130,24.635163,0.999178,0.991742,0.003802,0.465566,-0.000014,0.000034,-0.000002,0.000035,-0.000015,-88.004384,0.000035,
2296,2068,0.925923123669545,-12.6136843492074,0.0332192266767493,0.004415,-0.000211,0.002695,0.192997,0.034101,330.383955,23.108464,0.999255,0.983676,0.005027,0.362195,-0.000050,-0.000014,0.000022,-0.000004,-0.000060,65.121043,0.000072,
2251,3238,-0.263344946289866,12.8880996781253,0.0407848257062824,0.004386,0.000593,0.001122,0.198877,0.057605,311.521817,25.154914,0.999797,0.995999,0.002824,0.496910,-0.000002,0.000013,-0.000010,0.000018,-0.000007,-64.175016,0.000018,
2041,2773,-4.7470639243726,2.78576536122179,-0.029738517038254,0.004370,-0.000022,0.000644,0.199683,0.051125,319.350888,24.352215,0.999080,0.990886,0.004016,0.462062,-0.000036,0.000022,-0.000018,0.000027,-0.000041,-73.679136,0.000042,
2041,3088,-4.79301363996724,9.6223148749072,0.0148502302016595,0.004513,0.000514,-0.000199,0.209175,0.068278,314.610019,24.248848,0.999649,0.994720,0.003038,0.412133,-0.000027,0.000028,-0.000020,0.000035,-0.000034,-72.506280,0.000039,
2041,2998,-4.779324434022,7.67074059755746,0.00636332910676174,0.004682,0.000501,0.000150,0.215925,0.071270,316.012269,24.283921,0.999229,0.990681,0.003845,0.430815,-0.000036,0.000019,-0.000020,0.000025,-0.000042,-72.155816,0.000042,
2206,3043,-1.20769081418319,8.65808973864737,0.014567501220597,0.004021,0.000440,0.002726,0.176938,0.068491,314.578285,24.816975,0.999822,0.995417,0.002972,0.409942,-0.000011,0.000029,-0.000002,0.000029,-0.000012,-87.551231,0.000030,
2146,2788,-2.46955028514492,3.11717248391781,-0.0290387649332615,0.004340,0.000710,-0.000865,0.202848,0.085876,318.595591,24.434879,0.999614,0.992950,0.003454,0.488126,-0.000023,0.000020,-0.000012,0.000023,-0.000026,-75.217034,0.000029,
2101,1993,-3.31754202468681,-14.2537933903932,0.0349515533146132,0.004030,0.000438,-0.003940,0.196293,0.026832,332.140874,24.422242,0.999694,0.990674,0.004215,0.247108,-0.000015,-0.000150,-0.000017,-0.000013,-0.000152,-7.169589,0.000183,
2116,2668,-3.1022831759712,0.505383889919706,-0.040026327627686,0.004353,0.000713,-0.002249,0.207333,0.068430,320.582218,24.382820,0.999584,0.991593,0.003647,0.470565,-0.000031,0.000014,-0.000004,0.000015,-0.000031,-85.589115,0.000031,
2176,2953,-1.84453770190238,6.70268573178036,-0.00452434508355282,0.004256,0.000249,0.003380,0.185846,0.068148,315.989193,24.581217,0.999228,0.992552,0.003580,0.478248,-0.000015,0.000030,-0.000004,0.000030,-0.000016,-85.422879,0.000030,
2221,3103,-0.891432414846651,9.96008999594152,0.0203442733441079,0.004588,0.000459,-0.000464,0.213195,0.045104,313.642622,24.897830,0.999453,0.992251,0.003639,0.426584,-0.000012,0.000019,-0.000013,0.000024,-0.000017,-70.001336,0.000025,
2086,3103,-3.819647644428,9.95015060730499,0.0196262451407847,0.004521,0.000794,-0.001322,0.212886,0.080604,314.157471,24.367058,0.999723,0.994019,0.003133,0.471548,-0.000034,0.000027,-0.000008,0.000028,-0.000035,-82.638590,0.000037,
2311,2113,1.24458125202934,-11.6260007566432,0.0203796590201364,0.004302,0.000217,-0.001899,0.203545,0.028082,329.552225,23.059999,0.999213,0.982465,0.005290,0.416266,-0.000047,-0.000004,0.000019,0.000003,-0.000054,69.584901,0.000060,
2281,2008,0.608961115697923,-13.9290295553185,0.0289743403279203,0.004340,0.000760,-0.001010,0.202271,0.074974,331.337134,23.104862,0.999265,0.983649,0.005227,0.376904,-0.000050,-0.000011,0.000019,-0.000003,-0.000058,67.859345,0.000069,
2161,2878,-2.15818861739455,5.07326869246545,-0.0150259456494268,0.004149,0.000146,0.001034,0.188087,0.050769,317.177974,24.521583,0.999425,0.993141,0.003491,0.436717,-0.000018,0.000024,-0.000006,0.000025,-0.000019,-81.676823,0.000026,
2041,2788,-4.74884932443557,3.11231030222118,-0.0281734639169713,0.004698,0.000219,-0.000963,0.219377,0.056605,319.139926,24.389910,0.999238,0.989612,0.003969,0.422219,-0.000040,0.000040,-0.000012,0.000042,-0.000042,-81.310995,0.000048,
2041,3103,-4.79532461478722,9.94695537970368,0.019549098061816,0.004173,0.000866,-0.001709,0.197879,0.083678,314.393522,24.203893,0.999671,0.995141,0.002940,0.463817,-0.000030,0.000032,-0.000012,0.000034,-0.000032,-79.500189,0.000038,
2101,2623,-3.42105718176943,-0.476083868257341,-0.0342495707280932,0.003951,0.000588,-0.002123,0.188288,0.064840,321.410418,24.345160,0.999044,0.987408,0.004529,0.505246,-0.000026,0.000003,0.000006,0.000004,-0.000027,78.423899,0.000029,
2251,3253,-0.267022321103845,13.2148242728415,0.028652136764947,0.004346,0.000525,0.002101,0.193865,0.068503,311.168475,25.250342,0.999668,0.994247,0.003185,0.434078,-0.000001,0.000011,-0.000006,0.000014,-0.000004,-66.541681,0.000014,
2086,2908,-3.79002948793529,5.72045736592672,-0.0109948204314492,0.004711,0.000322,-0.001803,0.222599,0.055566,317.088139,24.385367,0.999440,0.992771,0.003636,0.450720,-0.000022,0.000019,-0.000015,0.000024,-0.000027,-71.531436,0.000029,
2236,3178,-0.578723215740904,11.5871005013525,0.033574010917448,0.004245,0.000478,0.001195,0.192149,0.063231,312.469286,25.040982,0.999424,0.991853,0.003589,0.459256,-0.000010,0.000015,-0.000012,0.000020,-0.000015,-67.893469,0.000020,
2041,3013,-4.78211730697286,7.99721391726808,0.000822911913246571,0.004546,0.000623,-0.000168,0.210614,0.080899,315.715961,24.323187,0.999470,0.992199,0.003657,0.392839,-0.000039,0.000035,-0.000017,0.000038,-0.000043,-77.709593,0.000047,
2296,2083,0.922437332816489,-12.2825894033827,0.0219246046498824,0.004236,0.000264,-0.000709,0.196445,0.039868,330.051315,23.193271,0.999307,0.983962,0.005028,0.316930,-0.000047,-0.000007,0.000022,0.000003,-0.000057,66.195471,0.000064,
2191,2983,-1.52306802725864,7.35488971817549,0.00221177335032507,0.004519,0.000603,-0.000248,0.209377,0.073236,315.530985,24.662308,0.999318,0.992198,0.003666,0.465486,-0.000016,0.000038,-0.000001,0.000038,-0.000016,-88.571510,0.000038,
2101,2008,-3.31929132199123,-13.9267564113145,0.0375162176247841,0.004524,0.000666,-0.002276,0.214210,0.052334,331.940663,24.240332,0.999722,0.991729,0.004157,0.459315,-0.000029,-0.000112,-0.000013,-0.000027,-0.000113,-8.569906,0.000149,
2131,2713,-2.78305855293204,1.48470549477737,-0.0297212064426731,0.004323,0.000410,-0.001887,0.204899,0.055893,319.870986,24.415331,0.999433,0.990903,0.003898,0.437199,-0.000013,0.000010,-0.000009,0.000013,-0.000016,-71.473640,0.000017,
2146,2803,-2.47141273167627,3.44219846476536,-0.0221175069962101,0.004520,0.000504,-0.000599,0.210218,0.063549,318.417610,24.408476,0.999637,0.993269,0.003397,0.499703,-0.000025,0.000016,-0.000010,0.000018,-0.000027,-77.616810,0.000028,
2206,3058,-1.2102156881821,8.98363998971617,0.0114740482876527,0.004088,0.000687,-0.000595,0.190724,0.075612,314.321193,24.805907,0.999760,0.994972,0.003013,0.444090,-0.000007,0.000026,-0.000004,0.000026,-0.000007,-83.361488,0.000027,
2116,2683,-3.10462025848772,0.830540053055429,-0.0343908300064868,0.004215,0.000169,0.000006,0.194163,0.051921,320.373678,24.320296,0.999546,0.992787,0.003450,0.520247,-0.000029,0.000011,-0.000011,0.000013,-0.000031,-75.341190,0.000032,
2221,3118,-0.89370642489013,10.2861004513315,0.0261045558755768,0.004517,0.000926,-0.000928,0.211657,0.075544,313.443535,24.977572,0.999550,0.991570,0.003782,0.395019,-0.000014,0.000013,-0.000015,0.000019,-0.000021,-65.990789,0.000023,
2281,2023,0.605879444336377,-13.5999074284523,0.0251136140217909,0.004274,0.000410,-0.000287,0.196746,0.047172,331.058789,23.102279,0.999121,0.982734,0.005375,0.383203,-0.000053,-0.000016,0.000022,-0.000006,-0.000064,64.691825,0.000077,
2086,3118,-3.82206758072767,10.2754127735114,0.0215639743979068,0.004429,0.000832,-0.000913,0.207437,0.075322,313.923386,24.387060,0.999751,0.994412,0.002974,0.444111,-0.000038,0.000023,-0.000009,0.000025,-0.000039,-81.505120,0.000039,
2311,2128,1.24141219407437,-11.295626868984,0.0177584797360737,0.003779,0.000307,-0.006019,0.193645,0.011036,329.278291,23.215348,0.999117,0.984692,0.005067,0.279177,-0.000045,-0.000005,0.000017,0.000001,-0.000051,70.115810,0.000058,
2176,2968,-1.84603992627951,7.02813912921417,0.00126308836371436,0.004661,0.000351,-0.000356,0.216141,0.064826,315.823378,24.607819,0.999320,0.992615,0.003562,0.459886,-0.000015,0.000035,-0.000005,0.000036,-0.000016,-84.965983,0.000036,
2161,2893,-2.16052718983603,5.3995183739669,-0.0180457859966623,0.004468,0.000244,0.000069,0.205779,0.040985,316.926180,24.545356,0.999529,0.992690,0.003595,0.413015,-0.000018,0.000026,-0.000003,0.000026,-0.000018,-86.187849,0.000026,
2251,3268,-0.270597535031307,13.5405473578737,0.0132801409774288,0.004456,0.000613,0.000549,0.204051,0.058857,310.803673,25.261459,0.999493,0.992742,0.003496,0.435174,-0.000002,0.000016,-0.000006,0.000018,-0.000004,-72.471539,0.000020,
2236,3193,-0.581531008015656,11.9123532231089,0.0316615581189126,0.004327,0.000342,0.002417,0.191889,0.054011,312.207464,25.062264,0.999372,0.992002,0.003595,0.448635,-0.000011,0.000011,-0.000012,0.000017,-0.000017,-65.641296,0.000019,
2041,3028,-4.78430028509571,8.32125687101267,0.00727953832631556,0.004386,0.000672,0.001133,0.199578,0.073497,315.515208,24.240270,0.999516,0.992465,0.003687,0.459954,-0.000029,0.000047,-0.000014,0.000049,-0.000032,-79.921680,0.000050,
2086,2923,-3.79271683203746,6.04627628461565,-0.0102462369801515,0.004541,0.000136,0.000829,0.207132,0.049735,316.834971,24.399605,0.999357,0.991806,0.003715,0.429363,-0.000021,0.000011,-0.000016,0.000018,-0.000027,-67.340206,0.000028,
2101,2023,-3.32277392382162,-13.5947523250822,0.026381650719884,0.004300,0.000687,0.000980,0.194497,0.062267,331.587007,24.376900,0.999398,0.987148,0.004899,0.338238,-0.000025,-0.000101,-0.000007,-0.000024,-0.000102,-5.536847,0.000133,
2041,3118,-4.79754150043963,10.2719043314441,0.0197857598486166,0.004333,0.000876,-0.001079,0.203452,0.076505,314.156454,24.185323,0.999701,0.995083,0.002908,0.466690,-0.000032,0.000035,-0.000015,0.000038,-0.000035,-78.292642,0.000043,
2296,2098,0.919204147909007,-11.9532994650269,0.0184644366735256,0.004125,0.000030,0.001324,0.184425,0.043552,329.769037,23.208384,0.999049,0.981426,0.005418,0.338849,-0.000046,-0.000012,0.000017,-0.000005,-0.000053,67.556662,0.000064,
2101,2638,-3.4233054578652,-0.149166334819796,-0.0328539538702444,0.004150,0.000421,0.000144,0.190825,0.073303,321.181496,24.370058,0.999150,0.988065,0.004283,0.490688,-0.000025,0.000008,0.000006,0.000009,-0.000026,80.372416,0.000026,
2041,2803,-4.75133564449883,3.43820366844028,-0.0282527225257354,0.004496,0.000448,-0.001387,0.211333,0.054714,318.887981,24.366828,0.999393,0.991177,0.003682,0.435690,-0.000036,0.000039,-0.000006,0.000040,-0.000036,-85.701089,0.000044,
2191,2998,-1.52590719011922,7.6810200130492,-0.00159180379699819,0.004522,0.000720,-0.000231,0.209553,0.087599,315.254441,24.676054,0.999489,0.992318,0.003641,0.480095,-0.000019,0.000038,-0.000001,0.000038,-0.000019,-88.648213,0.000038,
2131,2728,-2.78495608687005,1.81024352046136,-0.0308252979893382,0.004592,0.000932,-0.007272,0.233621,0.071506,319.647406,24.313604,0.999316,0.989683,0.004146,0.560557,-0.000016,0.000012,-0.000008,0.000014,-0.000018,-74.979081,0.000019,
2146,2818,-2.47447431647658,3.76932056171817,-0.0234664338532866,0.004173,0.000351,0.001430,0.188139,0.076237,318.140042,24.480308,0.999587,0.992996,0.003472,0.448339,-0.000025,0.000023,-0.000008,0.000024,-0.000026,-80.920973,0.000029,
2281,2038,0.602118877519978,-13.2681161715762,0.0107959810324587,0.004036,0.000777,-0.003298,0.196044,0.052864,330.696941,23.198237,0.999238,0.985034,0.004974,0.324876,-0.000051,-0.000024,0.000020,-0.000014,-0.000061,62.131885,0.000080,
2251,3283,-0.27389679073578,13.8656032842152,0.00531815251912349,0.004347,0.000472,-0.000524,0.202571,0.059580,310.489433,25.246858,0.999480,0.992485,0.003511,0.472465,-0.000003,0.000012,-0.000009,0.000016,-0.000007,-64.542466,0.000016,
2116,2698,-3.10659788318539,1.15754978341835,-0.028279345709791,0.004187,0.000294,-0.001260,0.196680,0.053786,320.183597,24.417047,0.999428,0.991631,0.003710,0.429073,-0.000025,0.000006,-0.000009,0.000009,-0.000027,-74.252127,0.000028,
2086,3133,-3.82432562460484,10.6003980836615,0.0257676327199192,0.004318,0.000913,-0.001126,0.202932,0.070019,313.709215,24.399142,0.999748,0.993995,0.002973,0.424573,-0.000040,0.000022,-0.000007,0.000023,-0.000041,-83.907496,0.000041,
2206,3073,-1.21227868999729,9.30851042255197,0.0155782614586997,0.004253,0.000496,-0.002004,0.202707,0.059790,314.122830,24.805754,0.999652,0.993581,0.003289,0.444218,-0.000008,0.000030,-0.000005,0.000030,-0.000008,-82.659546,0.000031,
2221,3133,-0.896742298961513,10.6103330844051,0.0260805847926804,0.004309,0.000805,0.001788,0.193345,0.081467,313.180289,24.885671,0.999602,0.992653,0.003587,0.510835,-0.000016,0.000011,-0.000014,0.000017,-0.000022,-67.159705,0.000023,
2041,3133,-4.79903567005769,10.5969326445762,0.0276443165099636,0.004705,0.000899,-0.001265,0.221155,0.072689,313.994924,24.221310,0.999430,0.993468,0.003316,0.418201,-0.000036,0.000036,-0.000013,0.000039,-0.000038,-80.081032,0.000044,
2311,2143,1.23921986198441,-10.96744429592,0.0259871797169922,0.004272,-0.000008,0.001456,0.190713,0.046618,329.102175,23.240405,0.999271,0.984879,0.005073,0.324635,-0.000046,-0.000011,0.000017,-0.000004,-0.000053,67.575549,0.000064,
2101,2038,-3.32582254037941,-13.2660356083234,0.0131305826823223,0.004293,0.000449,-0.000930,0.199645,0.072070,331.242263,24.197612,0.999458,0.986174,0.005076,0.532798,-0.000022,-0.000094,-0.000004,-0.000022,-0.000094,-3.436676,0.000123,
2041,3043,-4.78646746701591,8.64618621373829,0.0141789877437191,0.004204,0.000607,0.002166,0.188308,0.079427,315.317333,24.231623,0.999724,0.995266,0.002943,0.465976,-0.000028,0.000042,-0.000020,0.000047,-0.000033,-75.131881,0.000049,
2161,2908,-2.16247484571996,5.72435147090763,-0.0108724433839029,0.004459,0.000338,-0.001413,0.209987,0.049371,316.746513,24.498787,0.999473,0.991710,0.003783,0.477511,-0.000013,0.000022,0.000000,0.000022,-0.000013,89.475957,0.000022,
2176,2983,-1.84920633131689,7.35436647036771,-0.00254750372789658,0.004501,0.000269,0.002502,0.199896,0.067511,315.530555,24.637512,0.999217,0.992503,0.003626,0.444389,-0.000018,0.000040,-0.000005,0.000040,-0.000018,-85.036811,0.000040,
2086,2938,-3.79437523739656,6.37133525924363,-0.00163543892222151,0.004560,0.000522,-0.002002,0.216324,0.065140,316.672069,24.382260,0.999369,0.991857,0.003703,0.460397,-0.000019,0.000015,-0.000012,0.000019,-0.000022,-72.645421,0.000024,
2236,3208,-0.583539836502919,12.2378921204731,0.0379083780350129,0.004267,0.001023,-0.001505,0.202224,0.094676,312.023974,25.111437,0.999443,0.993111,0.003497,0.460013,-0.000011,0.000012,-0.000014,0.000018,-0.000018,-65.193533,0.000021,
2041,2818,-4.75373146119545,3.7637689722786,-0.0236563298996089,0.004220,0.000398,0.000105,0.194506,0.073008,318.666207,24.333506,0.999290,0.990784,0.003852,0.479795,-0.000038,0.000043,-0.000008,0.000044,-0.000039,-84.750348,0.000048,
2296,2113,0.916447872622701,-11.6241562486476,0.00782178987873294,0.004461,0.000546,-0.004122,0.218400,0.024680,329.473228,23.160229,0.998999,0.980481,0.005501,0.401578,-0.000048,-0.000014,0.000015,-0.000008,-0.000054,68.519274,0.000067,
2251,3298,-0.276038575019353,14.1905965204024,0.0102331812839793,0.004471,0.000603,-0.001660,0.212022,0.054833,310.293923,25.305757,0.999385,0.991483,0.003630,0.430608,0.000000,0.000009,-0.000018,0.000023,-0.000014,-52.250641,0.000023,
2131,2743,-2.78733977036783,2.13672658114269,-0.0251469893534022,0.004665,0.000459,-0.001608,0.219802,0.053073,319.437553,24.391240,0.999418,0.990745,0.003949,0.470135,-0.000017,0.000017,-0.000010,0.000020,-0.000020,-74.512076,0.000023,
2281,2053,0.59963938951179,-12.9399964329919,0.0115947195730541,0.004369,0.000352,-0.000637,0.202261,0.048067,330.469162,23.146047,0.999131,0.983295,0.005102,0.403372,-0.000048,-0.000021,0.000021,-0.000010,-0.000060,61.829861,0.000075,
2086,3148,-3.82629146194011,10.9253427531881,0.031675987814765,0.004305,0.001197,-0.002732,0.207150,0.084916,313.517781,24.400984,0.999810,0.995732,0.002721,0.435592,-0.000041,0.000028,-0.000006,0.000029,-0.000042,-85.283235,0.000043,
2041,3148,-4.80139353527686,10.9211327549502,0.0351528443936786,0.004302,0.000775,-0.000364,0.200034,0.073392,313.792177,24.177346,0.999646,0.994196,0.003179,0.453919,-0.000037,0.000037,-0.000011,0.000039,-0.000039,-81.615735,0.000045,
2101,2653,-3.42529650271634,0.177668521101616,-0.0306069053382316,0.004456,0.000295,0.000877,0.202715,0.055012,320.969058,24.425559,0.999465,0.989970,0.003884,0.418455,-0.000031,0.000013,0.000002,0.000013,-0.000031,87.182875,0.000031,
2191,3013,-1.52774496034205,8.00539041362252,0.0101306834839647,0.004494,0.000539,0.000270,0.206567,0.066113,315.105402,24.672208,0.999465,0.992006,0.003689,0.475971,-0.000019,0.000037,-0.000002,0.000037,-0.000019,-88.033518,0.000037,
2116,2713,-3.10902905840691,1.48358243497157,-0.024988957644382,0.004073,0.000034,0.000371,0.186503,0.036153,319.957918,24.424520,0.999344,0.990825,0.003908,0.407568,-0.000022,0.000004,-0.000012,0.000009,-0.000027,-68.470812,0.000027,
2101,2053,-3.32714343414105,-12.9361771331326,0.0210134929548076,0.004700,0.000634,-0.002594,0.223228,0.061547,331.089988,24.385108,0.999082,0.974729,0.006050,0.338842,-0.000021,-0.000077,0.000000,-0.000021,-0.000077,-0.261568,0.000103,
2041,3058,-4.78822523511111,8.97061291438668,0.023339381312212,0.004279,0.000348,0.002935,0.189593,0.074586,315.151031,24.205140,0.999725,0.994583,0.003082,0.479150,-0.000032,0.000034,-0.000019,0.000039,-0.000037,-75.279717,0.000044,
2206,3088,-1.21503561698209,9.63418730369445,0.0218431230712213,0.003980,0.000168,0.002395,0.176102,0.062542,313.903466,24.878591,0.999473,0.992616,0.003553,0.389640,-0.000010,0.000026,-0.000009,0.000028,-0.000012,-76.105652,0.000028,
2146,2833,-2.47557238662613,4.09419731133517,-0.014487642498807,0.004568,0.000704,-0.004569,0.224616,0.064776,318.008071,24.452153,0.999611,0.993456,0.003359,0.472703,-0.000024,0.000018,-0.000009,0.000020,-0.000026,-77.804251,0.000027,
2221,3148,-0.899085194218888,10.9356686055866,0.0294295468126506,0.004363,0.000573,0.001642,0.196248,0.074797,312.965854,24.932216,0.999605,0.992788,0.003464,0.475328,-0.000015,0.000014,-0.000011,0.000018,-0.000019,-70.838841,0.000021,
2266,1993,0.283277881746884,-14.257187651491,0.0202875884842797,0.004063,0.001031,-0.004108,0.199888,0.057270,331.522850,23.170498,0.998971,0.967240,0.007172,0.368527,-0.000024,-0.000039,0.000022,-0.000008,-0.000054,35.549465,0.000068,
2041,2833,-4.7557719775423,4.08960549344796,-0.0198573869936354,0.004335,0.000335,0.001337,0.196377,0.073703,318.456257,24.340242,0.998980,0.989068,0.004180,0.465630,-0.000037,0.000029,-0.000016,0.000032,-0.000040,-76.733731,0.000043,
2311,2158,1.23607845906216,-10.6400944613604,0.0296557369081256,0.004024,-0.000658,0.007204,0.159534,0.042186,328.860545,23.185075,0.999268,0.986201,0.005047,0.410329,-0.000051,-0.000021,0.000009,-0.000018,-0.000054,73.917433,0.000075,
2161,2923,-2.16549136896453,6.05111647175866,-0.00895494178786294,0.003989,0.000596,0.000809,0.181696,0.090640,316.489393,24.562985,0.999157,0.989188,0.004198,0.464088,-0.000011,0.000022,-0.000003,0.000022,-0.000011,-84.904826,0.000022,
2176,2998,-1.851425957451,7.67965597158232,0.00289620023153248,0.004364,0.000395,0.000987,0.198371,0.073868,315.330029,24.644501,0.999424,0.992373,0.003632,0.455563,-0.000021,0.000041,-0.000004,0.000041,-0.000021,-86.573636,0.000041,
2236,3223,-0.587143118236984,12.5632542256907,0.0338262885932181,0.003795,0.000683,0.000920,0.172394,0.067264,311.714374,25.156212,0.999351,0.992358,0.003754,0.407352,-0.000011,0.000019,-0.000013,0.000024,-0.000015,-69.301989,0.000025,
2086,2953,-3.79710229122657,6.69722412228933,-0.00421785567914412,0.004442,0.000368,-0.001323,0.208921,0.065586,316.398911,24.381061,0.999462,0.992657,0.003540,0.460603,-0.000016,0.000014,-0.000013,0.000019,-0.000021,-69.821833,0.000023,
2281,2068,0.597926220813218,-12.6107727847983,0.0183276784377426,0.004705,0.000654,-0.002613,0.224363,0.055353,330.305694,23.253444,0.999065,0.984089,0.004999,0.333956,-0.000046,-0.000011,0.000025,0.000003,-0.000060,62.628755,0.000067,
2131,2758,-2.79046322236168,2.46369880251324,-0.0257045521346981,0.004216,0.000176,0.001132,0.190907,0.059235,319.160294,24.443860,0.999476,0.991597,0.003754,0.429261,-0.000021,0.000019,-0.000015,0.000024,-0.000026,-71.391992,0.000029,
2116,2728,-3.11157720160915,1.81068581367688,-0.0306864518071279,0.004189,0.000682,-0.001654,0.198103,0.081473,319.678128,24.399401,0.999336,0.990349,0.003997,0.481815,-0.000025,0.000007,-0.000011,0.000011,-0.000029,-72.743271,0.000029,
2041,3163,-4.80385944939104,11.2461324417658,0.0312208135580931,0.004428,0.000605,-0.000477,0.206105,0.062930,313.520551,24.152247,0.999568,0.993871,0.003343,0.459790,-0.000036,0.000048,-0.000018,0.000051,-0.000039,-78.347525,0.000054,
2101,2668,-3.42745428911037,0.503881401305549,-0.0300567007054156,0.004511,0.000646,-0.001355,0.211920,0.067075,320.739912,24.384032,0.999531,0.991379,0.003702,0.473771,-0.000035,0.000015,-0.000001,0.000015,-0.000035,-89.281396,0.000035,
2101,2068,-3.32950325772054,-12.6082885345863,0.0198548062779764,0.004653,0.000507,-0.003873,0.224774,0.045975,330.842005,24.302665,0.999180,0.951561,0.008356,0.410501,-0.000019,-0.000045,0.000009,-0.000016,-0.000048,17.147347,0.000066,
2041,3073,-4.79030356725546,9.29577938986268,0.0213936933624268,0.004498,0.000549,0.000200,0.207372,0.067073,314.908049,24.180790,0.999515,0.992868,0.003534,0.487637,-0.000028,0.000038,-0.000018,0.000043,-0.000033,-75.802736,0.000045,
2296,2128,0.914291157985133,-11.2953362915935,0.010398628111318,0.004475,0.000983,-0.008901,0.235318,0.010102,329.270056,23.228060,0.998995,0.981942,0.005321,0.351716,-0.000046,-0.000016,0.000012,-0.000012,-0.000050,70.351012,0.000065,
2086,3163,-3.82942122446503,11.2509720394735,0.0248824617692662,0.004208,0.000831,0.000014,0.194614,0.071902,313.203343,24.420607,0.999825,0.995848,0.002761,0.400682,-0.000041,0.000037,-0.000011,0.000039,-0.000042,-82.398802,0.000047,
2056,2008,-4.30169993506842,-13.9243929733548,0.0314964971142331,0.004155,-0.000360,0.002109,0.184517,-0.001950,332.088172,24.645939,0.998861,0.982435,0.005406,0.308623,-0.000007,-0.000153,-0.000007,-0.000007,-0.000154,-2.798202,0.000181,
2206,3103,-1.21698516106376,9.95894773680655,0.0218393195317503,0.004404,0.000695,-0.001015,0.206620,0.065941,313.689039,24.829958,0.999378,0.991007,0.003973,0.457585,-0.000011,0.000022,-0.000009,0.000025,-0.000014,-75.785011,0.000025,
2266,2008,0.281229974643928,-13.9288703037499,0.0319346900068922,0.004019,0.000588,-0.001406,0.188802,0.046646,331.367877,23.248155,0.999109,0.983399,0.005308,0.309030,-0.000034,-0.000023,0.000031,0.000003,-0.000060,50.188475,0.000067,
2236,3238,-0.589875113400456,12.8876504133419,0.0312349693505212,0.003909,0.000442,0.000826,0.177881,0.052916,311.452793,25.111537,0.999624,0.994168,0.003226,0.457418,-0.000010,0.000012,-0.000012,0.000017,-0.000016,-66.796668,0.000019,
2191,3028,-1.53113240212535,8.33121428523846,0.0102344022403713,0.003934,0.000408,0.003940,0.169212,0.070387,314.824120,24.701997,0.999575,0.992842,0.003670,0.464282,-0.000023,0.000037,-0.000003,0.000037,-0.000023,-86.970394,0.000037,
2146,2848,-2.47860579287386,4.42077417138138,-0.0210599456182194,0.004613,0.000482,-0.002287,0.219704,0.059260,317.704257,24.461388,0.999611,0.993264,0.003387,0.465667,-0.000026,0.000015,-0.000008,0.000016,-0.000027,-79.651729,0.000027,
2176,3013,-1.85363676319892,8.00493563362744,0.00699383753305938,0.004531,0.000230,0.002461,0.201482,0.071428,315.122859,24.653662,0.999387,0.990865,0.003829,0.455374,-0.000022,0.000039,-0.000005,0.000040,-0.000023,-85.649109,0.000040,
2221,3163,-0.901458078656017,11.260911276636,0.0327592192726911,0.004236,0.000556,-0.000683,0.197926,0.077170,312.749952,24.964491,0.999558,0.992820,0.003445,0.462998,-0.000015,0.000014,-0.000011,0.000018,-0.000018,-71.814752,0.000021,
2041,3178,-4.8060161069841,11.5708406922536,0.0332269561955059,0.004537,0.000832,-0.000034,0.210013,0.074674,313.296272,24.117794,0.999642,0.994274,0.003231,0.497307,-0.000038,0.000044,-0.000018,0.000047,-0.000042,-78.185916,0.000052,
2311,2173,1.23311148521179,-10.3096651922902,0.0158442069412672,0.004125,0.000238,-0.002361,0.197061,0.037514,328.540797,23.230345,0.999148,0.982722,0.005208,0.395927,-0.000045,-0.000027,0.000009,-0.000023,-0.000049,67.709522,0.000074,
2101,2083,-3.33352022582748,-12.2774016347183,0.000365541959126858,0.004340,0.000602,-0.001906,0.204780,0.052879,330.419110,24.275003,0.999081,0.958762,0.007820,0.450711,-0.000018,-0.000030,0.000006,-0.000015,-0.000032,22.555493,0.000048,
2086,2968,-3.79959787373804,7.0222852648029,0.00239269040235968,0.004069,0.000135,0.000827,0.185404,0.052102,316.186792,24.385692,0.999421,0.992181,0.003591,0.440660,-0.000016,0.000017,-0.000017,0.000025,-0.000023,-66.995398,0.000027,
2056,2023,-4.30443425589744,-13.5932249206234,0.0217109935610438,0.004148,0.000362,0.000238,0.189648,0.056440,331.770834,24.672757,0.998722,0.984425,0.005226,0.338841,-0.000001,-0.000144,-0.000006,-0.000001,-0.000144,-2.308802,0.000167,
2131,2773,-2.7929931986113,2.78951588157011,-0.0240389073667302,0.004040,0.000148,0.001240,0.182473,0.059274,318.922462,24.418397,0.999616,0.992888,0.003430,0.460651,-0.000020,0.000017,-0.000014,0.000021,-0.000025,-71.613331,0.000027,
2281,2083,0.59474926181294,-12.2824130974621,0.0167587334549353,0.004299,0.000367,-0.002930,0.206752,0.028242,330.034283,23.229691,0.999057,0.982885,0.005197,0.361681,-0.000042,-0.000005,0.000025,0.000007,-0.000055,63.151550,0.000060,
2161,2938,-2.16759018829844,6.37647908616162,-0.00658606296769904,0.004173,0.000591,-0.000408,0.193908,0.079656,316.277298,24.557324,0.999275,0.990231,0.004042,0.468185,-0.000013,0.000026,-0.000001,0.000026,-0.000013,-88.951891,0.000026,
2236,3253,-0.592624278237157,13.2130685132481,0.0236287759601623,0.004309,0.000653,-0.000047,0.199229,0.059894,311.164343,25.115931,0.999630,0.994049,0.003170,0.479856,-0.000010,0.000010,-0.000008,0.000013,-0.000013,-70.373253,0.000015,
2101,2683,-3.43003038711056,0.829746371328234,-0.0276619138649608,0.004210,0.000470,-0.000812,0.196442,0.062869,320.501724,24.346577,0.999464,0.992082,0.003607,0.508707,-0.000034,0.000009,-0.000010,0.000011,-0.000036,-76.894157,0.000037,
2116,2743,-3.11445853614238,2.13757892523027,-0.0320602563226657,0.004188,-0.000026,0.003907,0.181398,0.062934,319.406504,24.458395,0.999391,0.990817,0.003916,0.407984,-0.000026,0.000015,-0.000014,0.000019,-0.000031,-73.070201,0.000031,
2101,2218,-3.35458239026955,-9.32004687454144,-0.00101658300337704,0.004385,0.000540,-0.002250,0.208032,0.063192,328.242115,24.366295,0.998292,0.981586,0.005562,0.406819,-0.000002,0.000014,0.000005,0.000015,-0.000004,72.692031,0.000016,
2086,3178,-3.83089371077333,11.5742875064192,0.0375311406128276,0.004387,0.000841,0.000322,0.202003,0.080711,313.072029,24.325350,0.999719,0.995747,0.002786,0.502694,-0.000039,0.000033,-0.000010,0.000034,-0.000040,-82.188857,0.000043,
2266,2023,0.278645659598226,-13.5993005392095,0.0287470443969937,0.004174,0.000661,-0.003399,0.202486,0.050947,331.113967,23.261405,0.998935,0.980148,0.005843,0.329242,-0.000041,-0.000021,0.000033,0.000003,-0.000065,53.816526,0.000074,
2296,2143,0.911200358761722,-10.9646612818393,0.0107371235337155,0.004483,0.000418,-0.003639,0.217753,0.031103,329.012638,23.410790,0.999324,0.983156,0.005207,0.223247,-0.000048,-0.000021,0.000014,-0.000015,-0.000054,66.346602,0.000073,
2206,3118,-1.21953290380229,10.2838763872455,0.0277630431079388,0.004200,0.000293,0.001005,0.190730,0.061639,313.477764,24.845365,0.999513,0.992410,0.003656,0.453118,-0.000015,0.000016,-0.000012,0.000019,-0.000019,-71.379643,0.000022,
2176,3028,-1.85606916169017,8.33027688399392,0.00914682555816171,0.004620,0.000211,0.004078,0.200575,0.080334,314.895273,24.647816,0.999519,0.992189,0.003724,0.481534,-0.000026,0.000038,-0.000006,0.000039,-0.000027,-84.535167,0.000040,
2041,3193,-4.80793721072486,11.8960736646189,0.0375945521770973,0.004613,0.000631,-0.001731,0.218272,0.076130,313.095765,24.159241,0.999598,0.994150,0.003221,0.448462,-0.000041,0.000035,-0.000023,0.000042,-0.000048,-74.312863,0.000052,
2221,3178,-0.903812969879812,11.5859421766811,0.0362392566324274,0.004081,0.000699,-0.003524,0.199906,0.065076,312.535716,24.995953,0.999384,0.991986,0.003599,0.437211,-0.000015,0.000013,-0.000012,0.000017,-0.000019,-69.960065,0.000021,
2056,2038,-4.30655597835225,-13.2639538451169,0.0136559500995759,0.004531,0.000647,-0.003402,0.217534,0.047795,331.491612,24.619873,0.998566,0.982300,0.005398,0.381582,0.000001,-0.000135,-0.000003,0.000001,-0.000135,-1.078366,0.000155,
2191,3043,-1.53262146360349,8.65716528198622,0.0178030638622886,0.004223,0.000350,-0.000285,0.195804,0.057323,314.668899,24.813550,0.999721,0.994939,0.003167,0.352938,-0.000022,0.000032,-0.000003,0.000032,-0.000022,-86.858871,0.000033,
2086,2983,-3.80193424955101,7.34746960688204,0.0019892476797736,0.004228,-0.000206,0.001843,0.189714,0.040262,315.943706,24.355199,0.999471,0.993489,0.003395,0.457976,-0.000018,0.000020,-0.000018,0.000027,-0.000026,-67.821320,0.000030,
2101,2098,-3.33448717688648,-11.9480399629641,0.0199491595220138,0.004596,0.000045,0.000049,0.210673,0.034519,330.346109,24.568655,0.999340,0.958110,0.008037,0.142058,-0.000015,-0.000025,0.000010,-0.000009,-0.000031,31.983153,0.000042,
2146,2863,-2.48154688978742,4.74727896945382,-0.0251101792207464,0.004669,0.000271,0.001265,0.211463,0.061924,317.418050,24.479774,0.999491,0.992347,0.003570,0.457560,-0.000026,0.000019,-0.000012,0.000022,-0.000029,-76.174607,0.000030,
2236,3268,-0.596097236478879,13.5385078404669,0.0159654973597867,0.004024,0.000495,-0.000450,0.187384,0.055271,310.842253,25.138437,0.999480,0.993369,0.003388,0.472232,-0.000011,0.000015,-0.000008,0.000017,-0.000013,-75.145247,0.000018,
2281,2098,0.591706992060871,-11.9530016539454,0.0148693273214917,0.004267,0.000078,-0.000415,0.196837,0.032552,329.767108,23.272582,0.998600,0.979271,0.005710,0.354426,-0.000040,-0.000009,0.000021,0.000001,-0.000051,63.209253,0.000058,
2311,2188,1.23126479671727,-9.98211570095527,0.0258850780107878,0.004265,0.000184,-0.002423,0.203713,0.026118,328.389603,23.277909,0.999170,0.982146,0.005125,0.371356,-0.000044,-0.000014,0.000007,-0.000012,-0.000046,77.723347,0.000061,
2131,2788,-2.79540930764365,3.11562116467801,-0.0211304420802776,0.003887,0.000256,0.001169,0.175724,0.070277,318.696376,24.422280,0.999633,0.993274,0.003311,0.473295,-0.000021,0.000022,-0.000011,0.000025,-0.000024,-76.080251,0.000028,
2101,2233,-3.35632166058016,-8.99208723071005,-0.000157030719378781,0.004784,0.000867,-0.004591,0.233293,0.067991,328.033263,24.351711,0.998568,0.983830,0.005187,0.429908,-0.000001,0.000025,0.000005,0.000026,-0.000002,80.014995,0.000028,
2116,2758,-3.11565279349022,2.46235664900707,-0.0195579670578923,0.004305,0.000380,-0.000808,0.200873,0.064982,319.287346,24.416674,0.999513,0.991329,0.003736,0.454944,-0.000031,0.000017,-0.000019,0.000024,-0.000038,-70.351498,0.000038,
2041,3208,-4.81037057063944,12.2207417058118,0.0383755781699051,0.004410,0.000800,-0.003172,0.212963,0.071186,312.852048,24.137520,0.999581,0.993898,0.003149,0.456277,-0.000042,0.000020,-0.000029,0.000032,-0.000054,-68.349976,0.000054,
2266,2038,0.275464143157343,-13.269042805962,0.0221628421771811,0.004081,0.001242,-0.003960,0.200314,0.079445,330.815517,23.281139,0.999069,0.981512,0.005411,0.367368,-0.000042,-0.000023,0.000029,-0.000002,-0.000063,54.072334,0.000073,
2161,2953,-2.16968826618274,6.70158188663974,-0.0023254010374103,0.004292,0.000497,-0.000740,0.200390,0.075168,316.075295,24.538368,0.999457,0.992082,0.003596,0.492108,-0.000011,0.000027,-0.000004,0.000027,-0.000012,-83.958372,0.000027,
2101,2698,-3.43238100978986,1.15683026298308,-0.0256552421266178,0.004101,0.000421,-0.001305,0.192872,0.070813,320.271389,24.409812,0.999276,0.991739,0.003767,0.454834,-0.000029,0.000004,-0.000011,0.000007,-0.000033,-73.784762,0.000034,
2086,3193,-3.83347493264597,11.8997454115295,0.0378598749064167,0.004204,0.000847,0.000074,0.194302,0.079049,312.821741,24.367780,0.999435,0.994553,0.003054,0.456422,-0.000039,0.000025,-0.000013,0.000027,-0.000042,-78.937871,0.000042,
2056,2053,-4.30825168458482,-12.9345030146792,0.00957931705494275,0.005143,0.001058,-0.006331,0.254035,0.021330,331.253708,24.651951,0.997873,0.978657,0.005928,0.320983,0.000003,-0.000118,0.000000,0.000003,-0.000118,-0.142296,0.000135,
2086,2998,-3.80390549850737,7.67411329430287,0.00333520126656595,0.004336,0.000744,-0.002043,0.206277,0.074133,315.726343,24.429348,0.999562,0.993654,0.003262,0.415959,-0.000025,0.000027,-0.000014,0.000031,-0.000029,-75.730450,0.000035,
2206,3133,-1.22172191419872,10.6094282342142,0.0321492694943686,0.004281,0.000750,0.000395,0.196532,0.078473,313.274764,24.890694,0.999646,0.993869,0.003372,0.440417,-0.000017,0.000012,-0.000010,0.000016,-0.000020,-72.571842,0.000021,
2296,2158,0.908344219497945,-10.6372638427766,0.0102692366231167,0.004449,0.000472,-0.002493,0.212371,0.040287,328.762408,23.302876,0.999376,0.984032,0.005138,0.373266,-0.000054,-0.000025,0.000007,-0.000023,-0.000056,76.680425,0.000081,
2236,3283,-0.599274685547581,13.8641894620639,0.0146464410244675,0.003940,0.000425,0.004128,0.168614,0.061240,310.566098,25.212010,0.999257,0.992764,0.003599,0.424032,-0.000014,0.000012,-0.000009,0.000015,-0.000017,-72.019088,0.000019,
2221,3193,-0.906422034959125,11.9109970584381,0.0375256500101955,0.004275,0.000673,0.000034,0.197433,0.075985,312.298466,24.997206,0.999472,0.993222,0.003419,0.464489,-0.000018,0.000007,-0.000012,0.000012,-0.000024,-67.937979,0.000024,
2176,3043,-1.85814129176423,8.65660601712154,0.0140382385864086,0.004500,0.000698,-0.000026,0.207804,0.055780,314.698288,24.787916,0.999686,0.995467,0.003146,0.327971,-0.000027,0.000033,-0.000007,0.000034,-0.000027,-83.300751,0.000036,
2191,3058,-1.53530866081347,8.9820651220309,0.0137465909325556,0.004206,0.000950,-0.003031,0.203885,0.076328,314.398366,24.724030,0.999799,0.996031,0.002879,0.475302,-0.000017,0.000028,-0.000004,0.000028,-0.000018,-84.983240,0.000028,
2101,2113,-3.33609085881162,-11.622630502582,0.0255930677899983,0.004847,0.000232,-0.001400,0.226521,0.017638,330.169695,24.351973,0.999116,0.979063,0.005696,0.346153,-0.000010,-0.000018,0.000011,-0.000002,-0.000026,34.888366,0.000031,
2146,2878,-2.48356721743469,5.07240230044297,-0.0122085421439806,0.004229,0.000698,0.000417,0.193924,0.077416,317.264490,24.487516,0.999502,0.992001,0.003638,0.472575,-0.000020,0.000026,-0.000012,0.000029,-0.000023,-76.488638,0.000031,
2041,3223,-4.81302535683049,12.5456094434928,0.0386521623979093,0.004249,0.000630,-0.000841,0.198957,0.064611,312.595302,24.136617,0.999582,0.993933,0.003076,0.441712,-0.000045,0.000010,-0.000033,0.000025,-0.000060,-64.681312,0.000061,
2281,2113,0.589264781552263,-11.62438414698,0.0118833404932275,0.004470,0.000538,-0.003852,0.217789,0.027516,329.522043,23.246011,0.998808,0.980232,0.005509,0.406829,-0.000041,-0.000010,0.000019,-0.000001,-0.000050,64.731827,0.000058,
2056,2068,-4.31132178986535,-12.606423017855,0.0163834428491327,0.004469,-0.000189,0.002996,0.196580,0.023084,331.012852,24.657953,0.998564,0.979987,0.005480,0.314841,-0.000001,-0.000073,0.000012,0.000001,-0.000075,9.542201,0.000086,
2116,2773,-3.11823320242275,2.78855498277712,-0.0201631746168687,0.004307,0.000262,0.000920,0.195812,0.062588,319.033821,24.410135,0.999688,0.992736,0.003426,0.462661,-0.000031,0.000016,-0.000019,0.000023,-0.000038,-69.987462,0.000038,
2101,2248,-3.35917367434342,-8.66334798470551,-0.00696205139826134,0.004435,0.001495,-0.008928,0.230158,0.068925,327.732140,24.338847,0.998653,0.986330,0.004970,0.447550,-0.000008,0.000030,0.000006,0.000030,-0.000009,81.620762,0.000031,
2086,3208,-3.83513624968869,12.2244100341154,0.0402929003581676,0.004569,0.000880,-0.003981,0.222914,0.069896,312.625503,24.360429,0.999538,0.994155,0.003164,0.452352,-0.000040,0.000017,-0.000018,0.000022,-0.000045,-73.547059,0.000045,
2266,2053,0.272130901218805,-12.9402822691199,0.0187179639557939,0.003855,0.000581,-0.001108,0.180366,0.051519,330.526263,23.262234,0.998967,0.980442,0.005427,0.387721,-0.000041,-0.000018,0.000030,0.000002,-0.000061,55.657214,0.000070,
2311,2203,1.22799873686228,-9.65280228468588,0.0184815877665869,0.004475,-0.000110,-0.000120,0.205397,0.024717,328.087593,23.298014,0.998930,0.980368,0.005464,0.384987,-0.000045,-0.000014,0.000000,-0.000014,-0.000045,89.635859,0.000061,
2131,2803,-2.79748464234299,3.44174150595791,-0.0218054533193026,0.004236,0.000514,-0.000034,0.195460,0.061915,318.466815,24.423255,0.999545,0.992796,0.003494,0.469691,-0.000023,0.000018,-0.000007,0.000019,-0.000024,-79.996836,0.000026,
2161,2968,-2.17207761401064,7.02758734023708,-0.000814586868557399,0.004441,0.000244,0.000909,0.202146,0.069448,315.845109,24.588246,0.999657,0.993663,0.003239,0.445996,-0.000012,0.000032,-0.000007,0.000033,-0.000013,-81.199108,0.000034,
2101,2713,-3.43467482584158,1.48294352351218,-0.0252245557813353,0.004315,0.000272,0.000848,0.196340,0.050948,320.035494,24.403221,0.999312,0.991013,0.003867,0.443225,-0.000025,0.000003,-0.000014,0.000009,-0.000031,-66.828212,0.000032,
2236,3298,-0.602546291274336,14.1896395259038,0.00273180163588904,0.003981,0.000561,0.001221,0.180064,0.062716,310.231409,25.215648,0.999375,0.992846,0.003474,0.441714,-0.000012,0.000013,-0.000018,0.000023,-0.000022,-61.808190,0.000026,
2086,3013,-3.80638626184061,7.99866431993708,0.00519691923989285,0.004304,0.000606,0.000469,0.197464,0.064542,315.489225,24.361790,0.999667,0.994337,0.003020,0.472021,-0.000025,0.000036,-0.000013,0.000039,-0.000028,-78.451557,0.000040,
2206,3148,-1.2246811574144,10.9349314984092,0.0281303328863487,0.004205,0.000731,0.000222,0.193612,0.079400,312.992823,24.899747,0.999556,0.993527,0.003419,0.447777,-0.000016,0.000016,-0.000007,0.000018,-0.000018,-78.130191,0.000020,
2146,2893,-2.48563396636173,5.39803248996814,-0.0148286617131248,0.004563,0.000509,-0.003624,0.221484,0.048405,317.026309,24.475882,0.999468,0.990528,0.003960,0.462881,-0.000021,0.000026,-0.000008,0.000027,-0.000022,-80.429814,0.000029,
2041,3238,-4.81510890839213,12.8702073322107,0.0386417046796055,0.004503,0.000446,-0.001399,0.212181,0.051730,312.363305,24.119149,0.999641,0.995240,0.002830,0.437493,-0.000046,-0.000004,-0.000034,0.000015,-0.000065,-60.703188,0.000068,
2056,2083,-4.31402979560022,-12.2761180318105,0.00496184084647666,0.004632,0.000067,0.001731,0.207705,0.019486,330.688220,24.675683,0.998815,0.981132,0.005324,0.291930,-0.000006,-0.000048,0.000006,-0.000005,-0.000049,8.542742,0.000059,
2101,2128,-3.33927646731198,-11.2938473786223,0.0187489379991348,0.004364,0.000012,-0.002476,0.207444,-0.002010,329.853286,24.315400,0.999029,0.987563,0.004872,0.367511,-0.000011,-0.000021,0.000015,-0.000001,-0.000032,35.358903,0.000037,
2086,3223,-3.83741782488727,12.549066028293,0.0438052701032916,0.004587,0.000745,-0.002655,0.219910,0.069468,312.406700,24.353285,0.999502,0.993291,0.003427,0.456674,-0.000041,0.000016,-0.000019,0.000021,-0.000046,-73.154498,0.000046,
2176,3058,-1.86050482414979,8.98023694609513,0.0224924539862172,0.004285,0.000419,0.002407,0.190333,0.066321,314.507503,24.671240,0.999712,0.995597,0.003067,0.466838,-0.000023,0.000030,-0.000007,0.000031,-0.000024,-82.564172,0.000032,
2191,3073,-1.53716680174368,9.30672859937306,0.0194244935187839,0.004467,0.000795,-0.004159,0.219410,0.070179,314.216758,24.704822,0.999657,0.994455,0.003184,0.501991,-0.000017,0.000031,-0.000004,0.000032,-0.000017,-85.224924,0.000032,
2296,2173,0.905347698034515,-10.3087376108271,0.00290733752285632,0.004509,0.000759,-0.005172,0.224266,0.040969,328.471586,23.238712,0.999433,0.982878,0.005184,0.471096,-0.000047,-0.000030,0.000007,-0.000027,-0.000050,69.408894,0.000078,
2116,2788,-3.1208328809989,3.11502817448829,-0.023037460485682,0.004329,0.000461,0.000966,0.196813,0.082549,318.767082,24.393489,0.999605,0.992657,0.003490,0.502824,-0.000031,0.000023,-0.000017,0.000028,-0.000036,-74.341090,0.000038,
2221,3208,-0.908999326184432,12.236582635065,0.0380792208486582,0.004091,0.000989,-0.003020,0.198888,0.082073,312.058688,25.051564,0.999340,0.992570,0.003620,0.433758,-0.000020,0.000008,-0.000014,0.000014,-0.000026,-67.610368,0.000026,
2101,2263,-3.3620596386352,-8.3370851416061,0.00161872796854823,0.003975,-0.000145,0.000883,0.179899,0.019218,327.513077,24.313202,0.998706,0.985057,0.005026,0.426744,-0.000006,0.000022,0.000010,0.000025,-0.000009,72.574754,0.000025,
2101,2728,-3.43760713278577,1.81021680708682,-0.0332708535513575,0.004156,0.000632,-0.001378,0.195729,0.074937,319.724062,24.395846,0.999292,0.990072,0.004016,0.476148,-0.000028,0.000008,-0.000013,0.000012,-0.000032,-71.810971,0.000032,
2251,1993,-0.0458907504784918,-14.2538997575084,-0.00258602586825418,0.004402,0.000296,-0.001086,0.205174,0.019784,331.361085,23.313226,0.999633,0.990998,0.004284,0.295304,-0.000018,-0.000033,0.000027,0.000002,-0.000053,36.844842,0.000060,
2161,2983,-2.17521124755111,7.35396309082557,-0.00438044829661521,0.004210,0.000546,0.002909,0.185466,0.084807,315.553793,24.620489,0.999545,0.993741,0.003331,0.438613,-0.000014,0.000038,-0.000008,0.000039,-0.000016,-81.199811,0.000039,
2041,3253,-4.81764125544885,13.1947439619407,0.0418398260287631,0.004326,0.000542,0.001504,0.195903,0.057699,312.128617,24.098968,0.999681,0.995084,0.002825,0.454592,-0.000046,-0.000011,-0.000038,0.000013,-0.000070,-57.299428,0.000074,
2281,2128,0.587187605253501,-11.295846733001,0.0186345315990479,0.004543,0.000838,-0.004402,0.223073,0.052444,329.341888,23.293278,0.998540,0.979439,0.005509,0.414903,-0.000040,-0.000013,0.000015,-0.000006,-0.000047,66.217598,0.000058,
2266,2068,0.26970242378901,-12.6105714445143,0.0214198210640006,0.004026,0.000670,0.000774,0.182036,0.077208,330.308688,23.350383,0.999116,0.982820,0.005149,0.354090,-0.000040,-0.000010,0.000033,0.000011,-0.000061,57.386763,0.000066,
2311,2218,1.22470246425511,-9.32331902520218,0.00594838515200991,0.004581,0.000425,-0.003867,0.223256,0.034091,327.758914,23.275819,0.998867,0.978762,0.005612,0.451809,-0.000040,-0.000016,-0.000003,-0.000015,-0.000041,-83.315697,0.000058,
2131,2818,-2.7998983272226,3.76740998461847,-0.0155862486318483,0.003891,0.000530,0.000188,0.178927,0.064833,318.258677,24.428531,0.999373,0.991423,0.003856,0.472600,-0.000022,0.000024,-0.000007,0.000025,-0.000023,-81.907066,0.000027,
2056,2098,-4.315972609819,-11.9489365030761,0.0116950569514529,0.004574,-0.000232,0.002758,0.202056,0.024363,330.498591,24.605950,0.998854,0.980920,0.005390,0.364160,-0.000008,-0.000044,0.000009,-0.000006,-0.000045,13.049239,0.000057,
2086,3028,-3.80876153001147,8.3238998297094,0.00950594023748863,0.004212,0.000461,0.002732,0.186656,0.068595,315.270049,24.363617,0.999538,0.993288,0.003309,0.472340,-0.000023,0.000042,-0.000012,0.000044,-0.000025,-80.090607,0.000044,
2206,3163,-1.22766559830981,11.2599724994107,0.0275242368105069,0.003875,0.000523,0.000144,0.178498,0.051211,312.727563,24.920179,0.999771,0.995610,0.002948,0.414460,-0.000016,0.000016,-0.000007,0.000017,-0.000018,-77.703428,0.000020,
2086,3238,-3.84067435528249,12.8741643423749,0.0387008367272301,0.004320,0.000377,0.000940,0.197085,0.065560,312.095893,24.345040,0.999614,0.994163,0.003160,0.458664,-0.000040,0.000005,-0.000018,0.000011,-0.000047,-70.286901,0.000049,
2101,2143,-3.34230711126536,-10.9636077488461,0.0115836336995017,0.004331,0.000297,0.000625,0.196979,0.048398,329.541597,24.344622,0.998778,0.983942,0.005276,0.393353,-0.000007,-0.000015,0.000014,0.000003,-0.000025,37.407100,0.000028,
2146,2908,-2.48786417152696,5.72354969503261,-0.00865310924513096,0.004471,0.000347,-0.002863,0.214939,0.053874,316.827310,24.487443,0.999370,0.989698,0.004068,0.464033,-0.000016,0.000021,-0.000005,0.000022,-0.000017,-82.402211,0.000023,
2176,3073,-1.86293717682576,9.30478229215996,0.0222474096397605,0.004317,0.000620,0.000777,0.197023,0.078129,314.267598,24.584384,0.999709,0.995555,0.002995,0.576907,-0.000023,0.000032,-0.000006,0.000033,-0.000024,-83.372570,0.000034,
2191,3088,-1.54004146914182,9.63230907903145,0.0213479819812505,0.004402,0.000376,0.000991,0.200083,0.054600,313.968556,24.758917,0.999467,0.992653,0.003574,0.445712,-0.000018,0.000028,-0.000008,0.000030,-0.000019,-79.863349,0.000030,
2251,2008,-0.0481093621105551,-13.925917538365,0.00763423685555153,0.004196,0.000173,0.000730,0.189792,0.022641,331.190154,23.332123,0.999562,0.988927,0.004532,0.305854,-0.000029,-0.000019,0.000035,0.000011,-0.000059,48.830552,0.000063,
2041,3268,-4.82034204125189,13.5206266693383,0.0347430015031591,0.004353,0.000641,0.000194,0.200984,0.077383,311.828337,24.135692,0.999610,0.994541,0.002980,0.428292,-0.000043,-0.000009,-0.000039,0.000017,-0.000068,-56.800174,0.000071,
2086,3253,-3.84300886285753,13.1987013415849,0.0437247630657112,0.004209,0.000450,0.002499,0.187452,0.070142,311.882990,24.337486,0.999731,0.994981,0.002977,0.468400,-0.000037,0.000001,-0.000021,0.000010,-0.000046,-65.702404,0.000048,
2056,2113,-4.31804354011718,-11.6205055639327,0.00706807913843477,0.004698,0.000082,-0.002613,0.222940,0.010618,330.240701,24.549539,0.998888,0.982622,0.005373,0.404775,-0.000010,-0.000036,0.000009,-0.000007,-0.000039,16.388014,0.000049,
2116,2803,-3.12258141341676,3.44112878656707,-0.0173246803842062,0.004402,0.000801,-0.002794,0.211440,0.076358,318.585687,24.439347,0.999539,0.993219,0.003410,0.454155,-0.000031,0.000021,-0.000012,0.000024,-0.000034,-77.559465,0.000035,
2296,2188,0.903451606168904,-9.98025007036888,0.014150083701054,0.004503,0.000803,-0.005171,0.224018,0.052622,328.322887,23.362297,0.998972,0.980937,0.005421,0.391168,-0.000046,-0.000017,0.000005,-0.000016,-0.000046,81.148013,0.000065,
2101,2158,-3.34430820804548,-10.6355178924981,0.0202933473921689,0.004271,0.000260,0.003135,0.186920,0.066945,329.362931,24.385087,0.998784,0.983796,0.005301,0.375294,0.000000,-0.000008,0.000008,0.000005,-0.000013,32.863814,0.000013,
2266,2083,0.266557048968416,-12.2806365306003,0.0103860131200122,0.004240,0.000509,-0.000577,0.196260,0.050995,329.989832,23.364589,0.999257,0.984219,0.005050,0.342729,-0.000036,-0.000006,0.000031,0.000013,-0.000056,57.975684,0.000058,
2101,2278,-3.36387369565746,-8.00866370758804,0.00063667179051663,0.004426,0.000381,-0.001420,0.207536,0.037554,327.290748,24.323841,0.998500,0.983417,0.005254,0.437951,-0.000004,0.000004,0.000004,0.000006,-0.000006,67.100723,0.000007,
2281,2143,0.584000607464471,-10.9654033031016,0.0175233638940995,0.004373,0.000459,-0.001211,0.204516,0.054616,329.071719,23.457307,0.999186,0.982925,0.005211,0.284029,-0.000042,-0.000020,0.000019,-0.000009,-0.000053,60.713910,0.000067,
2221,3223,-0.912385177878278,12.5621186511526,0.0349208915440045,0.003712,0.001005,-0.001032,0.175081,0.086261,311.762605,25.085834,0.999556,0.993778,0.003356,0.421082,-0.000020,0.000014,-0.000013,0.000018,-0.000024,-71.769146,0.000025,
2101,2743,-3.43960741496531,2.1362011450893,-0.0261302088003958,0.004277,0.000204,0.001353,0.193213,0.065231,319.537915,24.430173,0.999397,0.990371,0.003930,0.433448,-0.000029,0.000017,-0.000015,0.000022,-0.000034,-73.101045,0.000034,
2311,2233,1.22193372515654,-8.99359519860646,0.00506055300598973,0.004578,0.000724,-0.004620,0.225817,0.054190,327.511345,23.392158,0.998727,0.979401,0.005610,0.390383,-0.000044,-0.000014,0.000001,-0.000014,-0.000044,88.336516,0.000060,
2086,3043,-3.81059094175265,8.64835361270692,0.0212624622824933,0.004047,0.000356,0.002632,0.179355,0.068321,315.116840,24.350092,0.999619,0.992864,0.003382,0.483781,-0.000024,0.000039,-0.000014,0.000042,-0.000027,-77.783056,0.000043,
2131,2833,-2.80224922579217,4.09425771624988,-0.0214552075179313,0.004204,0.000553,-0.002652,0.201926,0.065806,317.988487,24.456339,0.999564,0.992751,0.003553,0.451312,-0.000021,0.000017,-0.000009,0.000019,-0.000023,-76.613728,0.000025,
2206,3178,-1.22994074538392,11.5855582849465,0.0246121530670393,0.004253,0.000651,-0.002286,0.203779,0.063146,312.482715,24.940965,0.999696,0.995189,0.003039,0.421222,-0.000018,0.000015,-0.000008,0.000017,-0.000020,-76.430016,0.000021,
2086,3268,-3.84546170568304,13.5243849014868,0.0326226319722878,0.004738,0.000685,-0.000080,0.219427,0.070017,311.576079,24.354411,0.999717,0.995727,0.002835,0.448960,-0.000029,0.000003,-0.000022,0.000014,-0.000040,-63.299446,0.000040,
2041,3283,-4.82301633209228,13.845169871648,0.02791178843637,0.004297,0.000714,-0.002678,0.206341,0.059091,311.531314,24.092921,0.999566,0.994158,0.003087,0.443892,-0.000051,-0.000001,-0.000028,0.000012,-0.000064,-65.804926,0.000068,
2161,2998,-2.17751623067441,7.67904936641949,0.00285477371346587,0.003837,0.000696,0.001232,0.173504,0.085902,315.357982,24.626022,0.999603,0.993805,0.003434,0.443411,-0.000018,0.000040,-0.000006,0.000041,-0.000019,-84.056566,0.000041,
2056,2128,-4.3212169130149,-11.2909432558118,0.00505133946057867,0.004218,-0.000577,0.002499,0.186402,0.017866,329.946496,24.609731,0.998782,0.982902,0.005435,0.349823,-0.000017,-0.000040,0.000016,-0.000009,-0.000048,26.958156,0.000062,
2251,2023,-0.0499056563708251,-13.5977849529188,0.0207149759391996,0.004056,0.000316,0.000393,0.184550,0.042983,331.052805,23.383588,0.999138,0.983044,0.005302,0.301103,-0.000035,-0.000011,0.000036,0.000015,-0.000061,53.965520,0.000063,
2176,3088,-1.865892210731,9.63175254696855,0.0166524271208459,0.004413,0.000176,0.002289,0.196562,0.056629,313.974762,24.724063,0.999540,0.993480,0.003377,0.426887,-0.000023,0.000028,-0.000010,0.000030,-0.000025,-79.356338,0.000032,
2146,2923,-2.49049886078835,6.04933738609036,-0.00458780421394067,0.004058,0.000620,-0.002966,0.196341,0.067000,316.598448,24.504633,0.999094,0.987197,0.004447,0.467389,-0.000014,0.000021,-0.000008,0.000023,-0.000015,-78.142010,0.000023,
2086,3283,-3.84819087445441,13.8490149123649,0.0322218000218299,0.004520,0.000351,0.000553,0.207464,0.058835,311.315387,24.348769,0.999565,0.995468,0.002909,0.440948,-0.000024,0.000009,-0.000016,0.000015,-0.000031,-67.683957,0.000031,
2116,2818,-3.12539560471285,3.76728744199249,-0.019258046131597,0.004300,0.000687,-0.000469,0.199833,0.081226,318.314298,24.425072,0.999491,0.992640,0.003593,0.476460,-0.000029,0.000028,-0.000012,0.000030,-0.000032,-78.114388,0.000036,
2101,2173,-3.34726556588968,-10.3065958261051,0.0117940795071263,0.004098,-0.000150,0.001564,0.183476,0.031402,329.048061,24.377244,0.998863,0.984292,0.005155,0.351982,-0.000002,0.000001,0.000007,0.000006,-0.000008,50.689209,0.000008,
2191,3103,-1.54218265802722,9.95740665527761,0.0267265247267119,0.004461,0.000466,0.000691,0.203733,0.053177,313.772214,24.779746,0.999476,0.992718,0.003569,0.436945,-0.000019,0.000024,-0.000008,0.000025,-0.000020,-80.083413,0.000027,
2041,3298,-4.82580368135244,14.1705277527525,0.028654382361367,0.004011,0.000968,0.000069,0.185665,0.085835,311.270957,24.125715,0.999565,0.994859,0.003097,0.428494,-0.000067,0.000031,-0.000028,0.000038,-0.000074,-75.031133,0.000074,
2056,2143,-4.32297832236819,-10.9630614648923,0.0040002611870591,0.004360,0.000282,-0.004018,0.211481,0.024767,329.722367,24.532854,0.998763,0.984774,0.005308,0.430935,-0.000011,-0.000021,0.000012,-0.000003,-0.000029,33.135283,0.000035,
2101,2758,-3.44107368857862,2.46169543357691,-0.0215901495340063,0.004699,0.000612,-0.002125,0.222947,0.070614,319.362303,24.387368,0.999498,0.990168,0.003846,0.482715,-0.000034,0.000017,-0.000022,0.000025,-0.000042,-69.758138,0.000042,
2101,2293,-3.3665635099651,-7.67969221993835,-0.00317641478346786,0.004332,0.000535,-0.001494,0.203485,0.052396,327.013037,24.365210,0.998991,0.986433,0.004848,0.414960,-0.000004,0.000005,0.000003,0.000006,-0.000004,75.467700,0.000006,
2221,3238,-0.915073048850179,12.8869396018954,0.0299027751267431,0.004035,0.000532,-0.000877,0.189263,0.061131,311.489277,25.077003,0.999717,0.994266,0.003156,0.422299,-0.000021,0.000007,-0.000011,0.000011,-0.000025,-71.502260,0.000025,
2251,2038,-0.0524643516604222,-13.2682144615732,0.0178630393906474,0.004267,0.000777,-0.000371,0.196868,0.076647,330.800125,23.377693,0.999137,0.980424,0.005398,0.367545,-0.000038,-0.000013,0.000030,0.000007,-0.000058,56.260078,0.000063,
2101,2908,-3.46425780780322,5.72104839145129,-0.00447944446182191,0.004660,0.000552,-0.000542,0.216696,0.074430,317.061900,24.418003,0.999325,0.992701,0.003804,0.466245,-0.000023,0.000020,-0.000013,0.000024,-0.000027,-74.591470,0.000029,
2206,3193,-1.23191728005641,11.9101542974021,0.0317472666866365,0.004427,0.000901,-0.001916,0.210757,0.080271,312.304022,24.928491,0.999791,0.996331,0.002861,0.466490,-0.000021,0.000009,-0.000010,0.000012,-0.000024,-72.655394,0.000024,
2131,2848,-2.80529712289146,4.42103462712421,-0.0278991617418001,0.004163,0.000393,-0.000855,0.194634,0.070517,317.683256,24.474921,0.999628,0.993055,0.003459,0.442887,-0.000023,0.000015,-0.000008,0.000017,-0.000025,-78.008257,0.000025,
2266,2098,0.263596450951709,-11.951562432685,0.0123473900267186,0.004089,-0.000271,0.003428,0.175862,0.053386,329.744342,23.421052,0.999054,0.981640,0.005393,0.317491,-0.000034,-0.000009,0.000027,0.000008,-0.000051,57.662955,0.000055,
2281,2158,0.581179621918952,-10.6372249008036,0.0140811286484563,0.004422,0.000485,-0.002060,0.209619,0.061597,328.806940,23.390417,0.999478,0.983895,0.005116,0.388558,-0.000046,-0.000021,0.000014,-0.000015,-0.000053,65.509322,0.000071,
2296,2203,0.90075936488968,-9.65039478212417,0.0068363182776352,0.005135,0.001166,-0.004322,0.250328,0.058884,328.045938,23.425703,0.998451,0.978127,0.005806,0.367031,-0.000046,-0.000013,-0.000001,-0.000013,-0.000046,-87.955472,0.000062,
2056,1993,-4.29964569833048,-14.2525328758788,0.0238677737328885,0.004217,0.000344,-0.001625,0.198031,0.031245,332.278042,24.611570,0.998784,0.981592,0.005434,0.378069,-0.000005,-0.000199,-0.000003,-0.000005,-0.000199,-1.033013,0.000232,
2161,3013,-2.17968665549578,8.00446171181623,0.000821479856369933,0.004200,0.000650,-0.000772,0.196397,0.081134,315.119306,24.608310,0.999465,0.991400,0.003833,0.465688,-0.000019,0.000042,-0.000007,0.000042,-0.000019,-83.711964,0.000042,
2311,2248,1.21893054950113,-8.66541632191539,0.00476477281910093,0.004199,0.001024,-0.006529,0.215061,0.054174,327.256208,23.398921,0.998758,0.981555,0.005344,0.418076,-0.000041,-0.000025,0.000006,-0.000022,-0.000043,70.968620,0.000066,
2176,3103,-1.86839549759302,9.95653170388556,0.0217192925909444,0.004102,0.000309,0.001875,0.183545,0.055939,313.759380,24.712984,0.999582,0.994017,0.003229,0.448258,-0.000025,0.000022,-0.000008,0.000024,-0.000026,-80.213108,0.000029,
2101,2188,-3.34998802952668,-9.97778395942266,0.00637813724790703,0.003991,0.000251,0.000478,0.181866,0.054547,328.760242,24.339774,0.998782,0.983715,0.005283,0.416692,-0.000004,0.000024,0.000007,0.000026,-0.000006,76.084337,0.000027,
2101,3148,-3.50130906374609,10.9256732412777,0.0324988574921576,0.004276,0.000833,0.000004,0.197734,0.073786,313.440383,24.402905,0.999892,0.996899,0.002520,0.487044,-0.000037,0.000027,-0.000007,0.000027,-0.000037,-83.943263,0.000039,
2116,2833,-3.12822006494471,4.09410212858331,-0.0253010906545796,0.004282,0.000358,-0.000873,0.200085,0.060098,318.020181,24.470579,0.999645,0.993070,0.003536,0.413349,-0.000028,0.000020,-0.000016,0.000025,-0.000033,-73.165202,0.000034,
2056,2158,-4.32569287240873,-10.6339298243066,0.00894050623679732,0.004098,-0.000345,0.004086,0.176538,0.048014,329.487292,24.623157,0.999048,0.986625,0.004884,0.361550,-0.000005,-0.000015,0.000004,-0.000003,-0.000017,19.464519,0.000022,
2206,3208,-1.2349031900977,12.2353276759426,0.0320211801460459,0.004185,0.000844,0.000115,0.193179,0.089323,312.043136,24.940467,0.999627,0.994590,0.003222,0.478826,-0.000023,0.000009,-0.000013,0.000014,-0.000027,-70.532994,0.000027,
2116,2068,-3.00286799828491,-12.6073337461202,0.0139409726373856,0.004770,0.000683,-0.001225,0.222555,0.043504,330.722827,24.259837,0.998773,0.970698,0.006482,0.356725,-0.000022,-0.000038,0.000008,-0.000019,-0.000041,23.700274,0.000061,
2191,3118,-1.54467287221093,10.28201210795,0.0337771666767708,0.004255,0.000104,0.003290,0.186031,0.052585,313.568724,24.768057,0.999476,0.993196,0.003498,0.461361,-0.000022,0.000015,-0.000010,0.000017,-0.000025,-75.757818,0.000025,
2251,2053,-0.0549134328740912,-12.9399736847317,0.021012912649951,0.004186,0.000252,-0.000762,0.194277,0.038393,330.583204,23.395237,0.999035,0.980473,0.005390,0.338504,-0.000040,-0.000011,0.000029,0.000007,-0.000058,58.228450,0.000063,
2221,3253,-0.918067222498934,13.21177733055,0.0246140366302825,0.004207,0.000549,0.001234,0.190450,0.069111,311.200426,25.039682,0.999673,0.994423,0.003116,0.485226,-0.000021,0.000004,-0.000005,0.000005,-0.000022,-79.542751,0.000023,
2101,2923,-3.46695705233458,6.04667254145682,-0.00461614743522887,0.004374,0.000367,-0.000832,0.204330,0.058713,316.804552,24.417748,0.999186,0.991404,0.003936,0.451524,-0.000020,0.000015,-0.000015,0.000020,-0.000025,-69.969731,0.000026,
2131,2863,-2.8071175503305,4.74595965428642,-0.0132114343635976,0.004059,0.000426,0.002399,0.180065,0.071929,317.547816,24.488173,0.999614,0.992512,0.003500,0.436390,-0.000024,0.000018,-0.000012,0.000022,-0.000027,-74.696957,0.000029,
2101,2773,-3.44434719240723,2.78894508718903,-0.0268502260985883,0.004440,0.000374,0.002080,0.198659,0.074836,319.050345,24.434259,0.999590,0.991460,0.003722,0.441578,-0.000033,0.000016,-0.000022,0.000024,-0.000042,-69.030826,0.000042,
2101,2308,-3.36838895446922,-7.35224189206107,-0.00152956764810597,0.004653,0.000534,-0.003059,0.222810,0.036852,326.804710,24.357904,0.998947,0.984127,0.005325,0.409971,-0.000004,0.000000,-0.000002,0.000001,-0.000004,-67.160494,0.000005,
2266,2113,0.262130112793511,-11.6244366975723,0.0244391827396839,0.004157,0.000117,0.000185,0.189844,0.042201,329.618179,23.428476,0.999094,0.981737,0.005315,0.326857,-0.000035,-0.000009,0.000023,0.000005,-0.000048,59.363854,0.000053,
2161,3028,-2.18159853220299,8.32959335371431,0.00586793220611526,0.004529,0.000518,-0.000096,0.209414,0.072734,314.929981,24.619689,0.999429,0.989582,0.004251,0.455285,-0.000022,0.000042,-0.000008,0.000043,-0.000023,-82.942159,0.000043,
2146,2938,-2.49289726596547,6.37561773154781,-0.00415493284145896,0.004168,0.000442,-0.002441,0.199754,0.057062,316.361006,24.568080,0.999426,0.990533,0.003889,0.401185,-0.000014,0.000026,-0.000005,0.000027,-0.000015,-83.349603,0.000027,
2281,2173,0.577668291442343,-10.3097132051089,0.00970182371457895,0.004098,0.000054,0.000527,0.186016,0.038745,328.506111,23.288421,0.999295,0.983256,0.005199,0.498617,-0.000038,-0.000030,0.000014,-0.000020,-0.000049,52.286920,0.000070,
2311,2263,1.21597835274328,-8.33750178091189,0.0119017636274066,0.004119,0.000037,0.002219,0.181285,0.056053,327.039845,23.460649,0.999158,0.984497,0.004887,0.392695,-0.000042,-0.000029,0.000002,-0.000029,-0.000043,79.889779,0.000072,
2296,2218,0.897603362487267,-9.32217064862716,0.00699423813728117,0.004702,0.000817,-0.004116,0.229645,0.051122,327.784889,23.438266,0.998764,0.979806,0.005555,0.379405,-0.000041,-0.000016,-0.000005,-0.000015,-0.000042,-80.098908,0.000059,
2056,2173,-4.32778808488879,-10.3053310509988,0.00390708681760543,0.004513,-0.000248,0.003266,0.197937,0.049761,329.225991,24.585150,0.999014,0.988872,0.004562,0.398738,-0.000013,0.000005,0.000000,0.000005,-0.000013,89.383238,0.000013,
2116,2848,-3.1305652296162,4.41944905016202,-0.0215472831646935,0.004183,0.000476,-0.000070,0.193224,0.071331,317.801110,24.427393,0.999701,0.993345,0.003368,0.470850,-0.000030,0.000019,-0.000015,0.000023,-0.000035,-74.157031,0.000035,
2101,2203,-3.35207420226512,-9.64954462063551,0.0061005662382172,0.004299,0.000083,0.001002,0.194417,0.040501,328.529445,24.346778,0.998385,0.981393,0.005491,0.399447,-0.000002,0.000020,0.000009,0.000023,-0.000005,70.042297,0.000025,
2221,3268,-0.920708002735729,13.5367090695284,0.0155352527130503,0.004480,0.000721,-0.004070,0.220111,0.055969,310.908229,25.015596,0.999539,0.993921,0.003289,0.513819,-0.000023,0.000008,-0.000002,0.000008,-0.000023,-86.374743,0.000024,
2251,2068,-0.0571863063116638,-12.611317280117,0.0255172646223514,0.004232,0.000562,-0.000454,0.195521,0.054416,330.380793,23.416505,0.999175,0.982532,0.005120,0.359807,-0.000039,-0.000004,0.000032,0.000015,-0.000057,59.348149,0.000060,
2206,3223,-1.23858126549835,12.5621546812949,0.0220539300181599,0.003916,0.000908,0.001453,0.176513,0.082038,311.696679,25.066399,0.999817,0.995918,0.002893,0.360658,-0.000023,0.000015,-0.000012,0.000019,-0.000027,-73.741078,0.000028,
2101,2938,-3.46957365812323,6.3725032004296,-0.00517126987477923,0.004210,0.000279,-0.000981,0.197144,0.048728,316.548650,24.432030,0.999226,0.991182,0.003940,0.427975,-0.000018,0.000019,-0.000011,0.000022,-0.000021,-74.320152,0.000025,
2176,3118,-1.87030321338456,10.2814936877231,0.0257796608250374,0.004335,0.000400,-0.000344,0.201232,0.057648,313.566005,24.713233,0.999491,0.993511,0.003434,0.461149,-0.000029,0.000012,-0.000010,0.000015,-0.000031,-76.778068,0.000031,
2101,3163,-3.50388632105755,11.251234975182,0.0281069213554588,0.004456,0.000743,0.000348,0.204985,0.068709,313.165638,24.423014,0.999795,0.995649,0.002801,0.462151,-0.000037,0.000034,-0.000011,0.000036,-0.000039,-81.597159,0.000043,
2116,2083,-3.00547786056563,-12.2779004486132,0.0117018903016515,0.004583,0.000563,-0.002549,0.217870,0.037332,330.458673,24.303171,0.998772,0.976204,0.006078,0.314191,-0.000021,-0.000024,0.000005,-0.000017,-0.000028,35.956892,0.000046,
2101,2788,-3.44627318017214,3.11438275563336,-0.023024997905793,0.004537,0.000522,-0.000062,0.209496,0.079477,318.849838,24.389823,0.999559,0.991401,0.003811,0.491823,-0.000034,0.000026,-0.000019,0.000031,-0.000040,-73.753267,0.000042,
2191,3133,-1.54725864352982,10.6085693930486,0.0309521364281409,0.004300,0.000746,0.001012,0.195587,0.089801,313.308605,24.840713,0.999420,0.993032,0.003604,0.439263,-0.000023,0.000012,-0.000008,0.000014,-0.000025,-78.157707,0.000025,
2266,2128,0.259052401648287,-11.2948748890833,0.0140889078763848,0.004332,0.000424,-0.001906,0.204909,0.057126,329.305546,23.393311,0.998965,0.981757,0.005320,0.406039,-0.000034,-0.000013,0.000018,-0.000003,-0.000045,59.977799,0.000054,
2101,2323,-3.37029865024769,-7.02428020856575,0.00117356045961969,0.004688,0.001190,-0.006766,0.235451,0.054599,326.597982,24.379479,0.999195,0.987193,0.004692,0.409166,-0.000004,-0.000013,-0.000008,0.000000,-0.000018,-29.502648,0.000020,
2161,3043,-2.18319951575733,8.65474245612626,0.0187152517434583,0.004596,0.000697,-0.000185,0.212852,0.075150,314.796117,24.676411,0.999550,0.993382,0.003504,0.409992,-0.000023,0.000037,-0.000009,0.000039,-0.000024,-81.490054,0.000039,
2131,2878,-2.80911762443978,5.07005191086633,-0.00273307620841479,0.003809,0.000469,0.001996,0.169807,0.072096,317.381933,24.397537,0.999623,0.991989,0.003531,0.532227,-0.000017,0.000026,-0.000012,0.000029,-0.000020,-75.581894,0.000030,
2056,2188,-4.32976622825342,-9.97731558872451,0.00705166926985612,0.004539,0.000329,0.002430,0.201670,0.069417,329.014952,24.568163,0.998733,0.985675,0.005053,0.432680,-0.000021,0.000039,0.000004,0.000039,-0.000021,86.329133,0.000039,
2281,2188,0.575346814257124,-9.98036943556839,0.0144307909984036,0.004199,0.000079,0.001518,0.187382,0.041073,328.304597,23.430197,0.998836,0.980598,0.005569,0.389256,-0.000037,-0.000020,0.000010,-0.000016,-0.000042,64.902770,0.000059,
2146,2953,-2.49546313826118,6.70112297289987,-0.00521171264756504,0.004354,0.000484,0.000318,0.200031,0.071273,316.108177,24.529964,0.999669,0.991883,0.003523,0.460913,-0.000013,0.000025,-0.000007,0.000027,-0.000014,-79.312964,0.000027,
2221,3283,-0.924344027179071,13.8635761787687,0.00626073001313898,0.004313,0.000406,-0.001715,0.204884,0.062846,310.568456,25.154121,0.999485,0.992868,0.003342,0.399299,-0.000027,0.000005,-0.000002,0.000005,-0.000027,-86.455129,0.000029,
2116,2308,-3.04206511775025,-7.35209544153305,-0.00101265250145843,0.004475,0.000480,-0.001099,0.208909,0.044623,326.726728,24.306668,0.999009,0.985709,0.004944,0.410049,-0.000010,-0.000001,-0.000008,0.000003,-0.000015,-60.078635,0.000015,
2296,2233,0.894842705273259,-8.99340697046226,0.00789222108278409,0.004685,0.000830,-0.002910,0.224843,0.057760,327.545410,23.498524,0.998893,0.981131,0.005353,0.358068,-0.000045,-0.000012,0.000000,-0.000012,-0.000045,-89.999400,0.000060,
2206,3238,-1.2405707520126,12.8856403339216,0.0272961538838103,0.004046,0.000690,-0.000560,0.188848,0.069526,311.507963,24.980426,0.999770,0.995106,0.002991,0.449568,-0.000025,0.000008,-0.000012,0.000012,-0.000029,-72.230554,0.000029,
2101,3178,-3.5064520613442,11.5755562106287,0.0267096922653423,0.004583,0.000433,0.002694,0.203934,0.066286,312.908142,24.348474,0.999831,0.995972,0.002688,0.534356,-0.000036,0.000031,-0.000011,0.000033,-0.000038,-80.517076,0.000041,
2116,2863,-3.13245402218999,4.74464524994117,-0.0115973878039313,0.004348,0.000097,0.003898,0.188968,0.062755,317.636383,24.439680,0.999714,0.992658,0.003441,0.452927,-0.000032,0.000022,-0.000018,0.000027,-0.000037,-73.023614,0.000039,
2251,2083,-0.0609240273661236,-12.2808348809523,0.0138598567673966,0.004147,-0.000111,0.002086,0.183129,0.026860,330.029975,23.474691,0.999255,0.982661,0.005223,0.301110,-0.000034,0.000000,0.000029,0.000017,-0.000051,59.801527,0.000052,
2311,2278,1.21346631997418,-8.00828892946982,0.00874152249980398,0.004266,0.000557,-0.002200,0.203272,0.054907,326.792921,23.543871,0.999244,0.984581,0.004720,0.342767,-0.000039,-0.000015,-0.000003,-0.000014,-0.000039,-83.225491,0.000055,
2101,2953,-3.47201523427664,6.69872697042386,-0.0094757758824926,0.004512,0.000431,-0.000346,0.209312,0.067605,316.280292,24.431767,0.999487,0.991872,0.003633,0.447957,-0.000016,0.000018,-0.000013,0.000022,-0.000021,-71.605660,0.000025,
2176,3133,-1.87253413116071,10.6073510231336,0.0303389524737554,0.004255,0.000845,-0.001953,0.202779,0.083628,313.360060,24.778220,0.999356,0.993225,0.003653,0.433350,-0.000029,0.000009,-0.000008,0.000011,-0.000031,-79.248010,0.000031,
2116,2098,-3.00727947244708,-11.9489800158366,0.014774642164241,0.004895,0.000461,-0.003355,0.234531,0.027137,330.259931,24.367497,0.999135,0.976063,0.005964,0.246119,-0.000019,-0.000021,0.000008,-0.000012,-0.000028,41.643626,0.000041,
2101,2803,-3.44924877332989,3.44042706829388,-0.0242275369481035,0.004183,0.000141,0.002040,0.186868,0.055149,318.573907,24.395331,0.999452,0.992151,0.003660,0.463134,-0.000034,0.000024,-0.000014,0.000027,-0.000037,-76.845416,0.000038,
2266,2143,0.256479858975329,-10.9637657645078,0.014325455629546,0.004586,0.000431,0.000398,0.208942,0.075496,329.068732,23.616379,0.999403,0.985209,0.005011,0.229901,-0.000039,-0.000023,0.000022,-0.000007,-0.000054,54.719357,0.000067,
2191,3148,-1.55017621142462,10.9343184400144,0.0272670362159033,0.004167,0.000906,0.000105,0.192310,0.085901,313.029045,24.879046,0.999202,0.991839,0.003892,0.410336,-0.000022,0.000017,-0.000004,0.000018,-0.000023,-83.922726,0.000024,
2221,3298,-0.927743141992767,14.188388420782,-0.000624301500295132,0.004209,0.000466,0.000585,0.192637,0.055845,310.252639,25.134734,0.999500,0.993471,0.003173,0.429030,-0.000027,0.000009,-0.000010,0.000011,-0.000030,-75.290660,0.000030,
2161,3058,-2.18501133948181,8.97851590476824,0.03187004864958,0.004411,0.000801,-0.000557,0.205462,0.068488,314.654694,24.619828,0.999652,0.995333,0.003249,0.468807,-0.000021,0.000032,-0.000010,0.000034,-0.000023,-80.094284,0.000035,
2101,2338,-3.37318629269948,-6.69670019057739,-0.0021566530277255,0.004555,0.000687,-0.003862,0.220738,0.045828,326.314223,24.338144,0.999373,0.988500,0.004384,0.445334,-0.000009,-0.000011,-0.000010,-0.000001,-0.000020,-42.539266,0.000023,
2056,2203,-4.33190842374252,-9.64763483271102,-0.00148194404016522,0.004863,0.000911,-0.002760,0.231316,0.090741,328.732005,24.584129,0.998251,0.981924,0.005572,0.435460,-0.000021,0.000034,0.000008,0.000035,-0.000023,81.937659,0.000036,
2281,2203,0.57279113265751,-9.6510224019131,0.0072085665179884,0.004554,0.000436,-0.002699,0.217873,0.027845,328.032987,23.467345,0.998664,0.980579,0.005577,0.369452,-0.000038,-0.000018,0.000004,-0.000017,-0.000039,78.826830,0.000057,
2131,2893,-2.81128855947104,5.39713330263965,-0.0104405675093062,0.004248,0.000737,-0.003633,0.206928,0.053444,317.110107,24.471015,0.999492,0.991132,0.003856,0.445532,-0.000019,0.000024,-0.000008,0.000025,-0.000020,-79.097362,0.000027,
2251,2098,-0.0626795534553004,-11.9517639295477,0.0123106376981355,0.004679,0.000777,-0.004130,0.228074,0.047867,329.820594,23.473129,0.999265,0.981334,0.005495,0.350091,-0.000031,-0.000002,0.000026,0.000013,-0.000046,59.527325,0.000048,
2206,3253,-1.24328825115235,13.210485086374,0.0272549814394552,0.004104,0.000801,0.001567,0.184797,0.076419,311.257843,24.974006,0.999804,0.995458,0.002848,0.478138,-0.000025,0.000007,-0.000007,0.000009,-0.000027,-78.084396,0.000027,
2101,3193,-3.50884937727808,11.9010012521933,0.0335796567989632,0.004066,0.000792,0.000515,0.186563,0.071150,312.702812,24.422644,0.999641,0.994408,0.003083,0.464652,-0.000040,0.000023,-0.000015,0.000026,-0.000043,-77.212451,0.000043,
2146,2968,-2.49779730368986,7.02631036823458,-0.000259551257954627,0.004331,0.000035,0.002372,0.192572,0.049667,315.898058,24.544136,0.999706,0.993821,0.003180,0.432330,-0.000013,0.000030,-0.000010,0.000032,-0.000015,-77.570454,0.000032,
2116,2878,-3.13506966536621,5.07057500405192,-0.0134468843330637,0.004197,0.000479,0.002390,0.186549,0.064428,317.374624,24.425626,0.999616,0.992552,0.003581,0.471769,-0.000026,0.000029,-0.000016,0.000033,-0.000030,-74.672134,0.000037,
2116,2323,-3.04498901072494,-7.02344892099048,-0.00462451276939646,0.004093,0.000495,-0.002313,0.195013,0.037704,326.440912,24.353267,0.999187,0.987650,0.004571,0.362175,-0.000009,-0.000015,-0.000013,0.000002,-0.000025,-38.957151,0.000028,
2236,1993,-0.371428029659494,-14.2590120052733,0.0351106496208331,0.004065,-0.000420,0.003476,0.174725,0.035076,331.673773,23.330383,0.999642,0.989510,0.004440,0.397651,-0.000021,-0.000042,0.000025,-0.000004,-0.000058,33.768293,0.000070,
2176,3148,-1.87553908047991,10.9326200594912,0.0251333097936595,0.004345,0.000572,0.000602,0.198846,0.062432,313.067506,24.780096,0.999440,0.993698,0.003489,0.421259,-0.000028,0.000015,-0.000005,0.000016,-0.000029,-83.911523,0.000029,
2296,2248,0.891451074238066,-8.66559934422553,0.0046588393431648,0.004214,0.000612,-0.003364,0.204714,0.043724,327.256827,23.454889,0.999074,0.983254,0.005124,0.420307,-0.000042,-0.000021,0.000006,-0.000020,-0.000043,75.464265,0.000065,
2311,2293,1.21033030826999,-7.68064402363849,0.00687182755109461,0.004261,0.000260,0.001102,0.191714,0.063641,326.523889,23.492619,0.999269,0.985662,0.004763,0.437070,-0.000042,-0.000005,-0.000002,-0.000005,-0.000042,-86.384082,0.000052,
2116,2113,-3.01046224190411,-11.6220509101233,0.0171099922554276,0.004256,0.000008,0.001991,0.189345,0.038048,329.994396,24.226559,0.999288,0.985919,0.004794,0.404807,-0.000014,-0.000016,0.000008,-0.000007,-0.000023,41.895380,0.000032,
2101,2968,-3.47391792684268,7.02374702838154,-3.99286322476655E-05,0.004402,0.000291,-0.000860,0.205687,0.049085,316.111548,24.457781,0.999628,0.991609,0.003540,0.403941,-0.000016,0.000021,-0.000017,0.000028,-0.000023,-68.658789,0.000030,
2266,2158,0.253939859642021,-10.6365104589172,0.0161382237512839,0.004374,0.000755,-0.002159,0.207799,0.078857,328.841852,23.524962,0.999077,0.984126,0.005142,0.353117,-0.000043,-0.000024,0.000019,-0.000012,-0.000055,58.340082,0.000071,
2101,2818,-3.45136507062941,3.76675316349207,-0.0234587262263517,0.004352,0.000367,0.000831,0.198305,0.071808,318.347856,24.405316,0.999406,0.992848,0.003569,0.470873,-0.000032,0.000031,-0.000016,0.000034,-0.000036,-76.876519,0.000041,
2191,3163,-1.553633269104,11.2602538386535,0.0162192975038806,0.004012,0.000672,-0.000632,0.187336,0.056924,312.686189,24.919818,0.999657,0.995289,0.003076,0.353954,-0.000023,0.000017,-0.000005,0.000018,-0.000024,-83.768258,0.000025,
2101,2353,-3.37650790234474,-6.36721034063054,-0.0149828121672044,0.004450,0.000797,-0.003341,0.214499,0.069000,325.958865,24.352336,0.999083,0.984800,0.004906,0.457691,-0.000009,0.000006,-0.000007,0.000008,-0.000012,-69.354850,0.000012,
2116,2983,-3.15036041737855,7.349232539875,0.0100025859952098,0.004328,0.000752,-0.000868,0.202504,0.080670,315.877599,24.435189,0.999739,0.994507,0.003036,0.498814,-0.000018,0.000029,-0.000013,0.000033,-0.000022,-75.205585,0.000033,
2161,3073,-2.18789793976033,9.30423805512863,0.026986489751323,0.004351,0.000786,-0.001141,0.204554,0.077266,314.367948,24.613630,0.999625,0.994730,0.003204,0.493088,-0.000022,0.000033,-0.000009,0.000034,-0.000024,-80.577949,0.000035,
2281,2218,0.570000384224468,-9.32189593699719,0.00269952753495772,0.004507,0.000638,-0.006502,0.228516,0.025578,327.764036,23.507966,0.998845,0.981202,0.005450,0.357042,-0.000036,-0.000021,0.000000,-0.000021,-0.000036,89.949517,0.000058,
2206,3268,-1.24634294838888,13.5363591581105,0.0104368181748669,0.004601,0.000733,-0.001921,0.218828,0.070628,310.904758,24.986417,0.999568,0.993755,0.003233,0.475339,-0.000027,0.000009,-0.000005,0.000009,-0.000028,-82.209203,0.000028,
2236,2008,-0.374415402852435,-13.928902713555,0.0281428678569,0.003957,0.000102,0.000583,0.179327,0.037011,331.379422,23.345809,0.999582,0.989216,0.004467,0.409397,-0.000034,-0.000028,0.000033,0.000002,-0.000064,47.383624,0.000073,
2251,2113,-0.0656229440596157,-11.6235038448262,0.0166986947172632,0.004245,0.000484,-0.001337,0.199014,0.051042,329.586968,23.485899,0.999131,0.981480,0.005371,0.366958,-0.000030,-0.000003,0.000022,0.000009,-0.000043,60.392047,0.000045,
2101,3208,-3.51057532909556,12.2263456524399,0.0394870660431934,0.004373,0.000744,-0.000273,0.203065,0.073109,312.523143,24.487617,0.999664,0.994336,0.003092,0.401390,-0.000043,0.000016,-0.000020,0.000022,-0.000049,-73.242947,0.000049,
2131,2908,-2.81325079740368,5.72172837739603,-0.00473481142489618,0.004484,0.000241,-0.002057,0.213001,0.044924,316.920324,24.407733,0.999444,0.989356,0.004084,0.505359,-0.000015,0.000020,-0.000006,0.000021,-0.000016,-80.618251,0.000022,
2116,2338,-3.04783200008537,-6.69609779659518,-0.00855451222167858,0.004118,-0.000001,0.001261,0.185453,0.041286,326.157311,24.273501,0.999288,0.987086,0.004597,0.451082,-0.000014,-0.000009,-0.000015,0.000004,-0.000026,-49.404449,0.000029,
2116,2893,-3.13758126794257,5.39743710058696,-0.0214476863828281,0.004540,0.000723,0.000705,0.207481,0.072278,317.084227,24.450931,0.999431,0.992654,0.003847,0.457426,-0.000028,0.000025,-0.000012,0.000028,-0.000030,-78.011308,0.000034,
2116,2128,-3.0128718451614,-11.2935731776108,0.0139352124459151,0.004207,0.000043,-0.001207,0.196537,0.015288,329.734622,24.205625,0.998899,0.983625,0.005219,0.409644,-0.000015,-0.000019,0.000010,-0.000007,-0.000028,39.669913,0.000036,
2311,2308,1.20660030179822,-7.35064347919015,-0.0108306005471945,0.004587,0.000034,0.000756,0.207767,0.052191,326.149631,23.524239,0.999347,0.987158,0.004775,0.429030,-0.000045,-0.000014,-0.000003,-0.000013,-0.000046,-83.981435,0.000062,
2101,2983,-3.47641504039422,7.34895327019966,0.00198295871194887,0.004326,0.000128,0.001019,0.196676,0.055842,315.875297,24.427910,0.999616,0.993365,0.003302,0.440899,-0.000019,0.000024,-0.000017,0.000030,-0.000025,-70.731176,0.000032,
2296,2263,0.887747753615756,-8.33544436609957,-0.0022023991936635,0.004128,0.000046,0.001726,0.183456,0.055713,326.935526,23.568476,0.999458,0.988423,0.004584,0.351555,-0.000041,-0.000026,0.000002,-0.000025,-0.000042,81.645992,0.000068,
2146,2983,-2.50013218450526,7.35187740843077,-0.0017954242452447,0.004537,0.000211,0.001401,0.205058,0.047919,315.653278,24.532473,0.999703,0.994992,0.003023,0.449274,-0.000016,0.000036,-0.000010,0.000038,-0.000018,-79.584408,0.000038,
2206,3283,-1.2492225287677,13.8617399767679,0.00845067254880405,0.004542,0.000529,-0.001151,0.213610,0.063803,310.636827,25.041157,0.999502,0.993140,0.003251,0.428898,-0.000031,0.000005,-0.000004,0.000005,-0.000031,-83.421044,0.000034,
2101,2833,-3.45346926148062,4.09269382772902,-0.0245976482621586,0.004644,0.000155,-0.000565,0.215767,0.042353,318.112256,24.415713,0.999667,0.993890,0.003275,0.432150,-0.000031,0.000020,-0.000020,0.000027,-0.000038,-70.994625,0.000039,
2176,3163,-1.87723541855003,11.2575082985729,0.0332545695135309,0.004693,0.000502,0.000949,0.213801,0.058776,312.905185,24.813856,0.999818,0.996878,0.002713,0.395111,-0.000027,0.000016,-0.000006,0.000017,-0.000028,-82.734391,0.000028,
2116,2998,-3.15341007375715,7.67580668455714,0.00203462581646363,0.004167,0.000926,-0.002192,0.199141,0.097822,315.562753,24.456752,0.999545,0.993243,0.003344,0.497183,-0.000023,0.000033,-0.000010,0.000035,-0.000025,-80.230459,0.000036,
2101,3223,-3.51263170393823,12.5505189077956,0.0452035729616682,0.004512,0.000633,0.001307,0.204840,0.069148,312.327740,24.452498,0.999644,0.994361,0.003123,0.432592,-0.000046,0.000016,-0.000020,0.000022,-0.000051,-73.531060,0.000052,
2236,2023,-0.376021437478165,-13.6001469062987,0.0354664867708152,0.004225,0.000601,-0.002180,0.200695,0.052266,331.220695,23.392347,0.998920,0.982676,0.005436,0.402240,-0.000039,-0.000019,0.000034,0.000006,-0.000064,53.342723,0.000070,
2101,2368,-3.37812774712357,-6.04129059681224,-0.00371324914266324,0.004495,0.000545,-0.002862,0.215100,0.064213,325.812134,24.308348,0.998894,0.983535,0.005188,0.499655,-0.000005,0.000011,-0.000012,0.000017,-0.000011,-61.863946,0.000017,
2191,3178,-1.55550499564212,11.5842482366757,0.0250776887816642,0.004313,0.000420,0.002084,0.192691,0.064248,312.520732,24.868881,0.999837,0.996828,0.002749,0.425582,-0.000025,0.000017,-0.000005,0.000017,-0.000026,-83.083576,0.000027,
2116,2353,-3.05024931200703,-6.36699041546676,-0.0133408550195213,0.004463,-0.000031,0.002169,0.198623,0.053430,325.888167,24.342842,0.999238,0.985188,0.004849,0.399376,-0.000013,0.000008,-0.000011,0.000013,-0.000018,-67.193146,0.000018,
2161,3088,-2.19134446544393,9.63074909143198,0.0193740442263106,0.004067,0.000461,0.000502,0.186331,0.065874,314.040783,24.687579,0.999401,0.991695,0.003712,0.416801,-0.000023,0.000027,-0.000013,0.000030,-0.000027,-75.856333,0.000033,
2266,2173,0.250323110499131,-10.3085930551343,0.00975790776720942,0.004075,0.000283,0.000666,0.184632,0.066825,328.524654,23.427654,0.999435,0.985652,0.004925,0.466880,-0.000037,-0.000033,0.000018,-0.000017,-0.000053,47.537601,0.000073,
2281,2233,0.567206021857874,-8.99334139367365,0.00717792688544705,0.004279,0.000427,-0.003775,0.208872,0.041147,327.539568,23.577301,0.998955,0.980904,0.005371,0.333393,-0.000041,-0.000017,0.000003,-0.000017,-0.000041,82.466199,0.000060,
2251,2128,-0.0684278182176037,-11.2948714783393,0.0136057117899213,0.004190,0.000478,-0.002684,0.200885,0.044839,329.321962,23.465805,0.998824,0.980643,0.005446,0.407278,-0.000029,-0.000009,0.000018,0.000001,-0.000040,59.975146,0.000045,
2131,2923,-2.8158261402653,6.04842155147377,-0.00803106316658386,0.004479,0.000480,-0.003919,0.218448,0.060315,316.653575,24.452853,0.999260,0.989825,0.004090,0.481046,-0.000012,0.000019,-0.000008,0.000021,-0.000014,-76.573843,0.000021,
2116,2143,-3.01519182557657,-10.9635023936458,0.00920584373739075,0.004553,0.000527,-0.001353,0.213059,0.037380,329.470116,24.274304,0.998349,0.978698,0.005995,0.369640,-0.000013,-0.000015,0.000011,-0.000003,-0.000025,42.206852,0.000031,
2206,3298,-1.25241722320689,14.1866207540924,0.00125898828105164,0.004508,0.000572,-0.000668,0.210508,0.060695,310.327552,25.022093,0.999457,0.993726,0.003147,0.460058,-0.000033,0.000011,-0.000011,0.000014,-0.000036,-76.622323,0.000036,
2116,2908,-3.1392503312809,5.72256185190308,-0.0104357288320216,0.004552,0.000582,-0.000121,0.210487,0.076331,316.935326,24.462409,0.999259,0.991159,0.004005,0.453042,-0.000023,0.000021,-0.000009,0.000023,-0.000024,-78.862833,0.000027,
2311,2323,1.20392915627021,-7.02271455047261,-0.00514503844777892,0.004332,0.000160,0.001980,0.191988,0.061282,325.938816,23.585327,0.999075,0.984207,0.005091,0.411180,-0.000046,-0.000026,0.000000,-0.000026,-0.000046,-89.077710,0.000073,
2101,2998,-3.47882362418816,7.67575899970763,-0.0063065414464063,0.004496,0.001016,-0.005002,0.222469,0.081505,315.586658,24.460269,0.999625,0.993856,0.003238,0.434930,-0.000025,0.000030,-0.000012,0.000032,-0.000028,-77.683549,0.000035,
2296,2278,0.88565246017372,-8.00840543436718,0.00382856093187911,0.004226,0.000113,0.000730,0.191350,0.064055,326.752002,23.537337,0.999437,0.986892,0.004606,0.422867,-0.000037,-0.000014,-0.000003,-0.000013,-0.000037,-82.555498,0.000052,
2101,3238,-3.51531036441632,12.87543624861,0.0413208329003965,0.004578,0.000560,0.001827,0.206330,0.067474,312.051372,24.432424,0.999703,0.994848,0.002954,0.450853,-0.000047,0.000005,-0.000020,0.000012,-0.000054,-71.064326,0.000057,
2101,2848,-3.45615269966367,4.41879627647852,-0.0281692679955654,0.004385,0.000962,-0.003943,0.214021,0.075461,317.836762,24.365073,0.999818,0.994596,0.003036,0.516945,-0.000031,0.000019,-0.000020,0.000026,-0.000038,-71.141883,0.000039,
2116,3013,-3.15553549352108,8.000250299536,0.0107468728126037,0.004129,0.000411,0.000792,0.188294,0.061039,315.380919,24.452997,0.999046,0.989925,0.004011,0.466588,-0.000020,0.000039,-0.000009,0.000040,-0.000022,-81.633278,0.000040,
2236,2038,-0.378788580097538,-13.2704082394421,0.0285702062867585,0.004638,0.000492,-0.000800,0.215131,0.058234,330.936733,23.382759,0.998931,0.980036,0.005532,0.442600,-0.000040,-0.000022,0.000027,-0.000003,-0.000060,54.255979,0.000071,
2176,3178,-1.87939333906144,11.5811368844431,0.0435051696794062,0.004531,0.000301,0.002729,0.200778,0.058332,312.733307,24.743767,0.999761,0.995709,0.002914,0.475750,-0.000030,0.000016,-0.000006,0.000017,-0.000031,-82.279202,0.000031,
2146,2998,-2.50204882748129,7.67700572882854,0.00828209064997054,0.004234,0.000734,-0.001981,0.201555,0.066729,315.489531,24.542934,0.999629,0.993708,0.003342,0.464720,-0.000021,0.000039,-0.000008,0.000040,-0.000022,-82.794167,0.000040,
2101,2383,-3.38088077239619,-5.7127132241458,-0.00992562602181124,0.004628,0.000126,-0.000965,0.215552,0.032504,325.518842,24.369371,0.998851,0.984561,0.004949,0.410154,-0.000005,0.000009,-0.000013,0.000016,-0.000013,-59.408227,0.000017,
2101,3253,-3.51825976205174,13.2011186362457,0.0386491189751723,0.004273,0.000689,0.001958,0.192035,0.087029,311.768834,24.472788,0.999746,0.995666,0.002792,0.429858,-0.000047,0.000000,-0.000023,0.000010,-0.000057,-67.967513,0.000061,
2191,3193,-1.55767233732193,11.9083525161749,0.0357048940614959,0.004010,0.000508,0.002033,0.178956,0.077121,312.350882,24.835522,0.999758,0.995863,0.002957,0.484852,-0.000029,0.000010,-0.000007,0.000012,-0.000030,-79.790131,0.000030,
2161,3103,-2.19350003432659,9.95542674711655,0.0243835908706842,0.004058,0.000673,-0.000362,0.188604,0.067885,313.840221,24.663569,0.999591,0.994026,0.003224,0.451907,-0.000025,0.000021,-0.000011,0.000023,-0.000028,-76.837888,0.000030,
2131,2938,-2.81785995223268,6.37437933141801,0.00213752147067225,0.004470,0.000459,-0.000651,0.208246,0.063931,316.483911,24.541701,0.999666,0.992821,0.003545,0.400759,-0.000012,0.000024,-0.000006,0.000025,-0.000013,-81.511541,0.000025,
2221,1993,-0.698361857678766,-14.2577906608437,0.0358260675828319,0.004188,0.000398,-0.003003,0.201425,0.050820,331.738240,23.501332,0.999679,0.989165,0.004398,0.348028,-0.000026,-0.000059,0.000017,-0.000018,-0.000066,23.077049,0.000089,
2266,2188,0.248353865522308,-9.97955686739492,0.0155125612154166,0.004474,0.000054,0.002298,0.197486,0.060645,328.343362,23.560370,0.999052,0.984654,0.005090,0.356040,-0.000039,-0.000024,0.000011,-0.000018,-0.000044,62.101196,0.000064,
2251,2143,-0.0711343651852623,-10.9660005129996,0.0147339570893337,0.004147,0.000224,-0.001086,0.193663,0.044990,329.082623,23.512268,0.998726,0.982160,0.005339,0.387244,-0.000035,-0.000019,0.000020,-0.000005,-0.000049,55.468979,0.000060,
2116,2368,-3.05149999809187,-6.04063268000538,-0.00554559879947192,0.004816,0.000308,-0.002061,0.227454,0.052705,325.740433,24.301248,0.999102,0.985425,0.004826,0.444928,-0.000010,0.000014,-0.000014,0.000021,-0.000017,-65.009604,0.000022,
2116,2158,-3.01742810528052,-10.633697403675,-0.00148734925693361,0.005159,0.000851,-0.004752,0.250994,0.041987,329.177653,24.278569,0.998964,0.984691,0.005110,0.376507,-0.000007,-0.000009,0.000006,-0.000001,-0.000014,41.843235,0.000017,
2116,2923,-3.1414198668823,6.04804915358052,-0.00813285474964687,0.004429,0.000929,-0.004009,0.216464,0.077146,316.716516,24.451149,0.998836,0.989927,0.004285,0.467935,-0.000018,0.000018,-0.000010,0.000021,-0.000021,-75.335387,0.000024,
2281,2248,0.564303321414894,-8.66604414304214,0.00839812037202137,0.004113,0.000260,-0.001817,0.194693,0.046350,327.294142,23.513301,0.999187,0.981907,0.005213,0.432979,-0.000037,-0.000026,0.000007,-0.000022,-0.000041,63.826674,0.000064,
2116,3028,-3.1579392120223,8.3261104452288,0.0101991762076636,0.004263,0.000491,0.001426,0.192639,0.065334,315.135921,24.480082,0.999357,0.991961,0.003641,0.446504,-0.000020,0.000042,-0.000008,0.000043,-0.000021,-82.919498,0.000043,
2176,3193,-1.88126675415321,11.9046495986902,0.0525596691762757,0.004297,0.000545,-0.001979,0.204622,0.048663,312.568280,24.667503,0.999843,0.996752,0.002702,0.553318,-0.000034,0.000009,-0.000008,0.000011,-0.000035,-79.447939,0.000036,
2311,2338,1.20134553558126,-6.69495942545694,-0.00352588873312243,0.004537,0.000118,0.004136,0.194054,0.072342,325.712043,23.592780,0.999078,0.984301,0.004900,0.448788,-0.000040,-0.000019,-0.000004,-0.000019,-0.000041,-80.517930,0.000061,
2101,3268,-3.52063204465847,13.5257391356858,0.0353398392494455,0.004488,0.000559,0.000528,0.206026,0.066552,311.509770,24.455655,0.999798,0.996368,0.002684,0.426445,-0.000045,0.000002,-0.000024,0.000012,-0.000055,-67.525440,0.000057,
2101,3013,-3.48104141584235,7.99988834253939,0.00094644271581501,0.004555,0.000566,-0.000171,0.210845,0.055136,315.391992,24.407742,0.999418,0.992573,0.003457,0.461423,-0.000023,0.000038,-0.000012,0.000040,-0.000025,-79.560318,0.000040,
2236,2053,-0.381925476017376,-12.9403757371713,0.0235066597278433,0.004422,-0.000110,-0.001398,0.207001,0.002152,330.645422,23.488839,0.998861,0.978494,0.005614,0.305380,-0.000040,-0.000018,0.000026,-0.000001,-0.000058,56.382955,0.000067,
2146,3013,-2.50453207742465,8.00313390031292,0.009125004540806,0.004215,0.000728,-0.001820,0.200203,0.064066,315.250389,24.607620,0.999443,0.991347,0.003818,0.404446,-0.000021,0.000041,-0.000007,0.000042,-0.000021,-83.191969,0.000042,
2191,3208,-1.56035116418855,12.2336297078625,0.0351221152401422,0.004009,0.000496,0.002607,0.177097,0.069960,312.098585,24.867648,0.999560,0.993542,0.003514,0.458817,-0.000030,0.000011,-0.000010,0.000013,-0.000032,-77.152977,0.000032,
2101,2863,-3.45769155275176,4.74431877011968,-0.0153333468882124,0.004668,0.000568,-0.000437,0.216696,0.073844,317.702808,24.421862,0.999691,0.992929,0.003438,0.459240,-0.000032,0.000023,-0.000022,0.000031,-0.000040,-70.598179,0.000042,
2296,2293,0.882925078782275,-7.68009873614159,0.0065497438444595,0.004167,-0.000215,0.002693,0.181937,0.047891,326.523054,23.617664,0.999385,0.986119,0.004683,0.358258,-0.000041,-0.000003,-0.000002,-0.000003,-0.000041,-87.358908,0.000049,
2221,2008,-0.702065103962578,-13.9267152894882,0.0253172617999553,0.004037,0.000018,0.000480,0.183321,0.037974,331.391523,23.579125,0.999622,0.988494,0.004571,0.280706,-0.000036,-0.000042,0.000028,-0.000011,-0.000067,42.065811,0.000085,
2101,2398,-3.3833812929572,-5.38622414284099,-0.00191527808948422,0.004174,0.000013,0.002146,0.185568,0.042704,325.314100,24.339541,0.999090,0.986071,0.004552,0.452662,-0.000009,0.000004,-0.000015,0.000013,-0.000019,-56.921786,0.000019,
2161,3118,-2.1953600607713,10.2809003351024,0.0264212653250411,0.004540,0.000638,-0.001328,0.213842,0.068908,313.637246,24.698554,0.999551,0.993608,0.003355,0.427061,-0.000028,0.000012,-0.000013,0.000016,-0.000032,-73.838388,0.000032,
2116,3043,-3.16009880630024,8.65185237607878,0.0196352665521431,0.004028,-0.000112,0.002495,0.178542,0.057726,314.955949,24.577787,0.999613,0.993805,0.003299,0.343544,-0.000020,0.000039,-0.000009,0.000040,-0.000021,-81.229462,0.000040,
2266,2203,0.245688256666629,-9.65103585146234,0.00623513415922616,0.004871,0.000138,-0.001361,0.227828,0.022968,328.055147,23.524722,0.998526,0.982389,0.005483,0.382192,-0.000040,-0.000022,0.000005,-0.000021,-0.000041,76.688329,0.000063,
2116,2383,-3.05411002911889,-5.71364583812174,-0.00957476661943701,0.004784,0.000050,-0.003107,0.229034,0.015877,325.467191,24.243410,0.999182,0.985882,0.004703,0.471229,-0.000011,0.000013,-0.000014,0.000020,-0.000018,-65.257256,0.000022,
2116,2938,-3.14413761663961,6.37400627060499,-0.00976978282733398,0.004333,0.000729,-0.003002,0.209013,0.066674,316.451223,24.470496,0.999340,0.991492,0.003821,0.441128,-0.000017,0.000023,-0.000008,0.000024,-0.000018,-79.621826,0.000025,
2251,2158,-0.0734287717944504,-10.6379167455436,0.0181176286335472,0.004028,0.000440,-0.003978,0.197737,0.028309,328.873671,23.532888,0.997993,0.981749,0.005515,0.375943,-0.000038,-0.000021,0.000016,-0.000011,-0.000048,58.873443,0.000062,
2191,3223,-1.56306757765902,12.5594174068077,0.033810261451606,0.004014,0.000604,0.003038,0.175943,0.065777,311.840540,24.943568,0.999706,0.994913,0.003111,0.391734,-0.000030,0.000019,-0.000009,0.000020,-0.000032,-79.826018,0.000032,
2131,2953,-2.82047343033937,6.69963601589158,0.000897123781442133,0.004421,0.000586,-0.000513,0.205658,0.075038,316.226882,24.481808,0.999691,0.992872,0.003379,0.476951,-0.000011,0.000023,-0.000009,0.000025,-0.000013,-76.571557,0.000025,
2176,3208,-1.88500200979446,12.2321358213446,0.036698916036471,0.004389,0.000355,0.000586,0.200887,0.046194,312.185293,24.808655,0.999686,0.995113,0.003048,0.420626,-0.000034,0.000008,-0.000011,0.000011,-0.000037,-76.156879,0.000038,
2101,3283,-3.52388925301458,13.8505097005962,0.0264456655522167,0.004361,0.000411,0.002000,0.195788,0.057402,311.179658,24.414943,0.999708,0.996511,0.002715,0.457672,-0.000045,0.000007,-0.000020,0.000014,-0.000052,-71.664988,0.000053,
2101,2878,-3.46066011487578,5.06959152830446,-0.0154843198269532,0.004257,0.000220,0.001627,0.191621,0.054951,317.433136,24.380401,0.999694,0.992906,0.003507,0.482968,-0.000026,0.000029,-0.000019,0.000036,-0.000032,-72.388168,0.000039,
2236,2068,-0.384187673041328,-12.6118179940795,0.0310024255831536,0.004380,0.000068,0.000872,0.197850,0.038437,330.457427,23.513664,0.999070,0.980665,0.005388,0.341205,-0.000038,-0.000012,0.000028,0.000006,-0.000056,57.306095,0.000061,
2116,2173,-3.02012890752179,-10.3062591571998,0.0100016805375844,0.004293,0.000334,-0.001513,0.201529,0.049665,328.983036,24.305959,0.998953,0.984872,0.005077,0.362683,-0.000007,-0.000002,0.000005,0.000001,-0.000010,56.724783,0.000011,
2146,3028,-2.50675823765343,8.32803238863436,0.011346999578052,0.004537,0.000369,0.000999,0.206406,0.064222,315.030793,24.569447,0.999435,0.991503,0.003784,0.449829,-0.000022,0.000042,-0.000008,0.000043,-0.000022,-83.313236,0.000043,
2101,3028,-3.48355056972069,8.32518628827929,0.00524756194585052,0.004335,0.000538,0.001829,0.194866,0.060851,315.167527,24.414252,0.999333,0.992176,0.003558,0.461049,-0.000023,0.000042,-0.000011,0.000044,-0.000024,-80.818887,0.000044,
2116,2398,-3.0568204697248,-5.3854209642966,-0.0106913763172543,0.004437,0.000483,-0.004678,0.217899,0.036957,325.204448,24.274468,0.999050,0.986179,0.004677,0.466627,-0.000015,0.000008,-0.000015,0.000016,-0.000022,-63.731582,0.000023,
2311,2353,1.19818856967801,-6.36645391396209,-0.0061050195114376,0.004074,0.000248,0.000736,0.184437,0.058329,325.438325,23.657793,0.999367,0.986475,0.004486,0.403932,-0.000037,-0.000007,-0.000003,-0.000006,-0.000037,-84.944899,0.000047,
2281,2263,0.560333692355162,-8.33435577621912,-0.00436807289958097,0.004022,0.000304,0.001374,0.179931,0.061243,326.929532,23.703470,0.999497,0.987094,0.004631,0.288344,-0.000037,-0.000030,0.000003,-0.000029,-0.000038,67.467431,0.000067,
2116,3058,-3.16269278697661,8.97606133559121,0.0131971213725706,0.004003,0.000628,-0.002242,0.191560,0.053731,314.671095,24.430533,0.999568,0.993534,0.003462,0.489590,-0.000018,0.000033,-0.000010,0.000035,-0.000020,-79.066981,0.000035,
2116,2953,-3.14646499236944,6.69984237196109,-0.00743609100618414,0.004450,0.000691,-0.000806,0.207915,0.082394,316.225205,24.484728,0.999634,0.992038,0.003513,0.445450,-0.000015,0.000022,-0.000010,0.000024,-0.000017,-76.019791,0.000025,
2161,3133,-2.19820668143729,10.6058722504659,0.0274278278518523,0.004302,0.000548,0.000641,0.196795,0.071802,313.383679,24.682922,0.999455,0.993457,0.003514,0.454342,-0.000029,0.000010,-0.000010,0.000012,-0.000031,-76.642654,0.000031,
2326,2173,1.55990128285935,-10.307871164192,0.00983327984499738,0.004174,0.000433,0.000823,0.188530,0.065746,328.474195,23.237968,0.998723,0.979663,0.005478,0.337321,-0.000041,-0.000029,0.000009,-0.000024,-0.000046,61.764976,0.000072,
2371,2398,2.49824005434686,-5.38267789752152,-0.00670228336440459,0.003964,0.000652,-0.001893,0.188748,0.065177,324.704910,23.499812,0.999470,0.988182,0.004510,0.484812,-0.000005,0.000009,0.000009,0.000013,-0.000010,63.010490,0.000014,
2191,3238,-1.56465704102349,12.8830557249581,0.0411891299651757,0.004252,0.000544,-0.000846,0.199155,0.057230,311.680476,24.878628,0.999743,0.994781,0.003065,0.461433,-0.000031,0.000011,-0.000009,0.000013,-0.000033,-77.718988,0.000033,
2221,2023,-0.704477521323685,-13.5981547083977,0.0247584241233767,0.004219,-0.000155,0.000461,0.191710,0.009768,331.154913,23.562352,0.999061,0.982608,0.005300,0.291745,-0.000037,-0.000030,0.000029,-0.000004,-0.000063,48.633162,0.000075,
2101,3298,-3.52673088211003,14.176040754398,0.0147811602116121,0.004414,0.001032,-0.003018,0.213241,0.081676,310.853263,24.401032,0.999537,0.994946,0.003093,0.495510,-0.000040,0.000033,-0.000025,0.000041,-0.000048,-72.639604,0.000051,
2341,2248,1.87259353972246,-8.66508341703626,-0.00201219711510703,0.004228,0.000235,-0.000251,0.194701,0.037014,327.169152,23.250471,0.999052,0.982514,0.005140,0.412686,-0.000033,-0.000031,0.000005,-0.000026,-0.000037,49.546327,0.000064,
2266,2218,0.242801765285837,-9.32261164045402,0.0076086764472052,0.004351,0.000397,-0.004049,0.212941,0.035103,327.809879,23.547899,0.998699,0.980422,0.005546,0.399288,-0.000039,-0.000027,0.000001,-0.000027,-0.000040,86.593227,0.000067,
2101,2413,-3.38588175764812,-5.05814651698578,-0.00193971276962657,0.004124,0.000097,0.003416,0.179620,0.059145,325.065649,24.376314,0.999152,0.986877,0.004536,0.435372,-0.000008,-0.000005,-0.000015,0.000009,-0.000022,-47.537824,0.000022,
2251,2173,-0.0765198653341308,-10.3091306609759,0.0132028723136273,0.004101,-0.000044,-0.001457,0.192669,0.029460,328.586233,23.516775,0.998864,0.985183,0.005019,0.419567,-0.000032,-0.000030,0.000015,-0.000016,-0.000046,46.593892,0.000064,
2401,2548,3.12309836729191,-2.1045743370304,-0.0141904066973666,0.004352,0.000445,-0.000434,0.201480,0.065813,322.245512,23.870980,0.999426,0.989635,0.004476,0.489253,-0.000013,-0.000017,0.000001,-0.000012,-0.000017,17.736378,0.000030,
2296,2308,0.879747073110341,-7.35255394008698,-0.000342681373808773,0.004175,-0.000185,0.002184,0.184031,0.047501,326.225983,23.521416,0.999224,0.984994,0.005016,0.486426,-0.000044,-0.000011,-0.000002,-0.000011,-0.000044,-85.933322,0.000058,
2101,2893,-3.46246758416305,5.39530965568301,-0.0107084102995145,0.004482,0.000685,0.000351,0.205865,0.069371,317.243177,24.386575,0.999491,0.993011,0.003670,0.491840,-0.000028,0.000025,-0.000015,0.000029,-0.000032,-75.414458,0.000035,
2386,2473,2.81050845679668,-3.74240274700421,-0.0116955275364035,0.004093,0.000407,0.000274,0.186973,0.068898,323.455104,23.719345,0.999369,0.989296,0.004416,0.446126,-0.000013,-0.000022,0.000007,-0.000009,-0.000026,27.865954,0.000036,
2236,2083,-0.387421060112278,-12.2807888810044,0.0190207936287266,0.004382,0.000545,-0.002199,0.208028,0.046880,330.126073,23.581481,0.999322,0.982559,0.005228,0.306764,-0.000032,-0.000005,0.000026,0.000011,-0.000048,58.500143,0.000051,
2116,2413,-3.05927190340084,-5.05691557346622,-0.00991063015339932,0.004392,0.000438,-0.003796,0.213217,0.047095,324.963693,24.365187,0.999245,0.987540,0.004593,0.390988,-0.000014,0.000000,-0.000017,0.000011,-0.000025,-55.873635,0.000025,
2176,3223,-1.88728184412319,12.5575705699344,0.0410686061655383,0.004340,0.000541,-0.000172,0.201128,0.066608,311.976223,24.859578,0.999703,0.995410,0.002972,0.400837,-0.000034,0.000015,-0.000010,0.000017,-0.000036,-78.543253,0.000036,
2116,1993,-2.99264973914589,-14.2501656861686,0.00844326146875574,0.003737,-0.000147,0.000959,0.168381,0.043219,331.824625,24.365383,0.999697,0.990093,0.004212,0.216675,-0.000016,-0.000129,-0.000019,-0.000013,-0.000132,-9.095491,0.000160,
2101,3043,-3.48575087891264,8.65073449463643,0.0122173864329511,0.004116,0.000279,0.001614,0.185374,0.060621,314.971628,24.470628,0.999553,0.993282,0.003366,0.404836,-0.000022,0.000039,-0.000013,0.000042,-0.000025,-78.633616,0.000042,
2191,3253,-1.56817808726274,13.2087388958567,0.0307469683976365,0.004162,0.000636,0.000790,0.189930,0.070916,311.337769,24.883503,0.999672,0.994423,0.003133,0.483159,-0.000030,0.000010,-0.000005,0.000011,-0.000031,-82.400240,0.000031,
2146,3043,-2.50952493206854,8.65380563899329,0.00989075048101995,0.004406,0.000395,0.001419,0.199169,0.077287,314.766511,24.578575,0.999433,0.993145,0.003372,0.460793,-0.000021,0.000038,-0.000009,0.000039,-0.000023,-81.999566,0.000039,
2116,2188,-3.02315865220139,-9.97764147174551,0.00668582618550317,0.004010,0.000134,0.001002,0.181083,0.059196,328.693967,24.286929,0.998778,0.982968,0.005244,0.397782,-0.000009,0.000019,0.000004,0.000019,-0.000010,81.185823,0.000019,
2356,2323,2.18500471208583,-7.02442718821716,0.00187780679624439,0.003500,-0.000019,0.004455,0.144801,0.065530,325.941300,23.307230,0.999735,0.994695,0.003510,0.520911,-0.000034,-0.000028,0.000000,-0.000028,-0.000034,-86.955179,0.000061,
2371,2413,2.49567928216901,-5.05407430413405,-0.0091703340229401,0.004176,0.000776,-0.005603,0.211714,0.043462,324.464144,23.604278,0.999604,0.989316,0.004288,0.401134,-0.000009,0.000004,0.000009,0.000009,-0.000014,61.992802,0.000014,
2416,2623,3.43425839435969,-0.466770209188304,-0.0252375274977226,0.004213,0.000141,0.000232,0.192684,0.065131,320.943076,24.068190,0.999368,0.988569,0.004149,0.509911,-0.000014,0.000011,-0.000014,0.000018,-0.000021,-65.876831,0.000022,
2221,2038,-0.707514617667176,-13.2682305296302,0.0186873056638319,0.004046,0.000485,-0.001282,0.189586,0.045312,330.861072,23.550020,0.998807,0.978551,0.005679,0.362252,-0.000037,-0.000033,0.000025,-0.000010,-0.000059,47.377764,0.000075,
2116,2968,-3.14859974348101,7.02496815917545,-0.000195051973548743,0.004258,0.000732,-0.001448,0.200992,0.077999,316.034713,24.491433,0.999699,0.993225,0.003256,0.437257,-0.000015,0.000025,-0.000014,0.000030,-0.000020,-72.461007,0.000030,
2311,2368,1.1957245024386,-6.03872207292223,-0.010684677018105,0.004499,0.000582,-0.001935,0.213186,0.052497,325.186593,23.629718,0.999633,0.989192,0.004120,0.460260,-0.000038,0.000000,-0.000002,0.000000,-0.000039,-87.423493,0.000044,
2281,2278,0.558161223460775,-8.0081137836322,-0.00127327432068114,0.004232,0.000301,0.000441,0.192697,0.062915,326.726974,23.576401,0.999659,0.988444,0.004435,0.446742,-0.000032,-0.000017,-0.000001,-0.000017,-0.000032,-84.625379,0.000050,
2266,2233,0.239862822018281,-8.99371334362619,0.00463666935837637,0.004332,0.000535,-0.003462,0.210215,0.040711,327.540375,23.581048,0.998895,0.979376,0.005470,0.399991,-0.000043,-0.000018,0.000003,-0.000018,-0.000043,83.993264,0.000063,
2131,2968,-2.82295315254645,7.02539522140685,0.00260822279710737,0.004353,0.000382,0.000169,0.200405,0.058509,315.991640,24.520374,0.999794,0.994747,0.002934,0.426893,-0.000013,0.000028,-0.000012,0.000031,-0.000016,-74.234004,0.000031,
2326,2188,1.55830297957287,-9.98143196367251,0.0177773600602791,0.004439,0.000528,-0.003130,0.214278,0.040986,328.325303,23.175977,0.999092,0.982588,0.005188,0.411158,-0.000040,-0.000018,0.000007,-0.000016,-0.000042,73.058201,0.000061,
2161,3148,-2.20129092507739,10.9313090431088,0.0229727820286598,0.004108,0.000437,0.001327,0.185669,0.056303,313.090155,24.699046,0.999384,0.992850,0.003696,0.431586,-0.000028,0.000015,-0.000007,0.000016,-0.000029,-80.741327,0.000029,
2116,3073,-3.16517598245568,9.30289667571503,0.00647363233287024,0.004396,0.001088,-0.002642,0.211039,0.064261,314.388824,24.513550,0.999686,0.993183,0.003671,0.419620,-0.000020,0.000036,-0.000010,0.000037,-0.000022,-80.453900,0.000038,
2386,2488,2.80748137668587,-3.41488482869194,-0.00957995336187878,0.004047,0.000332,0.003521,0.173229,0.079277,323.215721,23.760437,0.999430,0.989303,0.004235,0.460102,-0.000012,-0.000024,0.000004,-0.000011,-0.000025,16.662508,0.000037,
2341,2263,1.8696898980684,-8.33741827345824,0.00367241427017007,0.003786,0.000103,0.000962,0.170204,0.037531,326.950043,23.276810,0.999163,0.983803,0.004975,0.425598,-0.000035,-0.000035,-0.000002,-0.000032,-0.000037,-44.154972,0.000069,
2116,3223,-3.18778766893876,12.5510237476779,0.0426908663216636,0.004495,0.000080,0.001908,0.202024,0.051335,312.233165,24.458963,0.999706,0.994971,0.003019,0.483987,-0.000035,0.000016,-0.000020,0.000023,-0.000042,-70.623130,0.000042,
2236,2098,-0.389451429419978,-11.9524227890575,0.0180887541400807,0.004795,0.000852,-0.005197,0.236738,0.043809,329.906127,23.545910,0.999225,0.981546,0.005384,0.363229,-0.000029,-0.000001,0.000026,0.000014,-0.000044,59.310133,0.000045,
2401,2563,3.11956739693794,-1.77637140072453,-0.0222236294706022,0.004278,0.000708,-0.001726,0.202911,0.069839,321.935923,23.915652,0.999342,0.988047,0.004398,0.495405,-0.000020,-0.000006,-0.000002,-0.000005,-0.000021,-80.931109,0.000027,
2116,2008,-2.99436120082779,-13.9236566406901,0.0121928549276049,0.004039,0.000129,-0.000163,0.185659,0.035486,331.633924,24.184134,0.999716,0.992077,0.004095,0.397081,-0.000028,-0.000095,-0.000011,-0.000026,-0.000097,-9.117689,0.000130,
2116,2428,-3.06175491883088,-4.7300920579405,-0.00863112718934644,0.004275,0.000385,-0.002896,0.205184,0.041218,324.724613,24.327617,0.999315,0.988197,0.004445,0.427523,-0.000018,-0.000014,-0.000008,-0.000008,-0.000024,-51.121356,0.000033,
2251,2188,-0.0793137993504516,-9.97779573044394,0.00642141519369943,0.004471,0.000325,-0.001012,0.208345,0.059545,328.302427,23.690700,0.999411,0.989979,0.004382,0.302115,-0.000033,-0.000021,0.000008,-0.000017,-0.000037,62.890157,0.000055,
2176,3238,-1.8902793348006,12.882159976895,0.0382725678836664,0.004221,0.000378,0.001485,0.190487,0.064768,311.696830,24.817499,0.999715,0.994948,0.003037,0.452102,-0.000033,0.000006,-0.000010,0.000008,-0.000035,-76.049119,0.000037,
2116,2203,-3.02548178201981,-9.64911928454294,0.0035836672698224,0.004106,0.000410,-0.001333,0.192506,0.046162,328.438446,24.289502,0.998195,0.979315,0.005570,0.388262,-0.000009,0.000015,0.000004,0.000015,-0.000009,80.209805,0.000015,
2416,2638,3.43161456782675,-0.138848989604412,-0.0241754914974877,0.004256,0.000567,-0.002007,0.202956,0.046601,320.717956,24.213768,0.999415,0.989022,0.004152,0.393946,-0.000020,0.000019,-0.000018,0.000026,-0.000027,-68.173595,0.000031,
2146,3058,-2.51195185026652,8.97876665232341,0.0132499224999378,0.004103,0.000466,-0.001076,0.192730,0.056433,314.543741,24.582217,0.999536,0.994420,0.003284,0.443278,-0.000020,0.000033,-0.000009,0.000035,-0.000022,-80.380605,0.000035,
2191,3268,-1.57141413131197,13.5343007005763,0.0158198148624251,0.004378,0.000766,-0.001752,0.207920,0.060948,310.984745,24.881190,0.999428,0.992500,0.003545,0.488627,-0.000029,0.000011,-0.000003,0.000011,-0.000030,-85.436975,0.000030,
2101,2428,-3.38842967326813,-4.73028539090306,-0.0048104197787211,0.004195,0.000004,0.004468,0.179817,0.057839,324.799792,24.389131,0.999397,0.988221,0.004302,0.423865,-0.000014,-0.000020,-0.000006,-0.000010,-0.000024,-32.325517,0.000035,
2296,2323,0.877310607110811,-7.02387880065633,1.26882363815639E-05,0.004256,0.000310,-0.000251,0.196169,0.055915,325.998424,23.597538,0.998927,0.983256,0.005366,0.450671,-0.000043,-0.000023,0.000000,-0.000023,-0.000043,89.204789,0.000066,
2356,2338,2.1822707541712,-6.69451688063666,-0.000529240533296615,0.003708,0.000160,0.003263,0.158599,0.053462,325.691627,23.495362,0.999452,0.989794,0.004253,0.361596,-0.000029,-0.000025,-0.000001,-0.000025,-0.000029,-81.962197,0.000053,
2101,3058,-3.48788488365099,8.97491491233715,0.0194879756263617,0.004021,0.000502,0.002649,0.178009,0.068966,314.780899,24.397619,0.999649,0.994282,0.003224,0.486373,-0.000022,0.000033,-0.000013,0.000036,-0.000025,-76.937302,0.000037,
2311,2383,1.19347206623177,-5.71124518827619,-0.00107775946833044,0.004239,0.000915,-0.002469,0.203258,0.077613,325.014075,23.689825,0.999371,0.987318,0.004592,0.458849,-0.000036,0.000005,-0.000001,0.000005,-0.000036,-88.667214,0.000038,
2131,2143,-2.68879746539094,-10.9639128130625,0.00780155272485672,0.004208,0.000117,0.000592,0.191319,0.030045,329.373616,24.163941,0.999120,0.983756,0.005109,0.389380,-0.000016,-0.000018,0.000014,-0.000003,-0.000031,42.731661,0.000038,
2281,2293,0.555482812928975,-7.67993538452268,-0.0015015793608768,0.004268,0.000012,0.000478,0.194118,0.038054,326.484493,23.624152,0.999407,0.985679,0.004843,0.404133,-0.000035,-0.000003,0.000001,-0.000003,-0.000035,87.966346,0.000042,
2161,3163,-2.20318597161478,11.2563806859124,0.0295375595369478,0.004363,0.000487,0.001960,0.195612,0.075695,312.909624,24.717271,0.999571,0.993685,0.003357,0.441641,-0.000026,0.000017,-0.000009,0.000019,-0.000028,-78.976126,0.000028,
2116,2023,-2.99609545240391,-13.5939586656886,0.0126333996793164,0.004496,0.000539,-0.002280,0.212965,0.036286,331.423993,24.252262,0.999385,0.985403,0.005270,0.336657,-0.000024,-0.000086,-0.000007,-0.000024,-0.000087,-6.467257,0.000116,
2326,2203,1.5549746431744,-9.65229510773473,0.0147686122846835,0.004213,0.000173,-0.001875,0.199530,0.021080,328.043463,23.245245,0.999232,0.982438,0.005311,0.358931,-0.000041,-0.000020,0.000001,-0.000020,-0.000041,88.111064,0.000062,
2371,2428,2.49225408013249,-4.72769268660375,-0.0119609091470352,0.004024,0.000387,-0.003013,0.195427,0.038389,324.182434,23.491078,0.999718,0.992694,0.003943,0.552208,-0.000009,0.000009,0.000008,0.000012,-0.000012,69.095827,0.000014,
2176,3253,-1.89352407791388,13.2073184897366,0.0325474774459735,0.004180,0.000082,0.004965,0.177679,0.057495,311.390438,24.821102,0.999713,0.994953,0.003074,0.451952,-0.000029,0.000005,-0.000007,0.000007,-0.000031,-78.738816,0.000032,
2266,2248,0.2367326234484,-8.66550063551841,0.00418384490023982,0.004387,-0.000318,0.003280,0.190207,0.046076,327.274798,23.583346,0.999054,0.982503,0.005203,0.431275,-0.000037,-0.000026,0.000007,-0.000022,-0.000040,62.906889,0.000063,
2221,2053,-0.710542648060187,-12.9385010122219,0.0109042281126221,0.003945,0.000402,-0.003924,0.193394,0.021056,330.559224,23.566850,0.998821,0.978230,0.005677,0.343994,-0.000037,-0.000028,0.000025,-0.000007,-0.000058,50.070651,0.000071,
2116,3238,-3.19089981634607,12.876745062769,0.0336567714542184,0.004370,0.000330,0.000621,0.200156,0.054280,311.909935,24.479811,0.999690,0.995256,0.002863,0.468228,-0.000036,0.000005,-0.000021,0.000014,-0.000045,-66.961917,0.000046,
2101,3073,-3.48974005586852,9.30109006219423,0.0188872313798925,0.004463,0.000777,-0.000245,0.206947,0.066002,314.559604,24.471790,0.999530,0.991826,0.003660,0.409381,-0.000024,0.000037,-0.000013,0.000039,-0.000027,-78.766069,0.000040,
2191,3283,-1.57359070585818,13.8594751351402,0.0159115584559686,0.004543,0.000920,-0.005531,0.227569,0.077279,310.758999,24.904351,0.999655,0.994871,0.003012,0.494865,-0.000031,0.000009,-0.000002,0.000009,-0.000032,-87.318917,0.000033,
2116,3088,-3.16709603246017,9.62796449492868,0.0110721859626892,0.004544,0.000935,-0.004232,0.222619,0.069319,314.194037,24.516158,0.999679,0.993077,0.003469,0.424742,-0.000024,0.000031,-0.000011,0.000033,-0.000026,-78.691972,0.000035,
2341,2278,1.86684797423735,-8.00852712192875,-0.00352212764113347,0.003956,0.000424,-0.003548,0.193789,0.025019,326.671323,23.302138,0.999073,0.983898,0.005014,0.426794,-0.000032,-0.000020,-0.000006,-0.000017,-0.000035,-69.438248,0.000053,
2116,2443,-3.06440569869369,-4.40370445164422,-0.01188523487167,0.004213,0.000533,-0.003042,0.202825,0.049396,324.453612,24.198533,0.999360,0.988766,0.004436,0.569954,-0.000021,-0.000008,-0.000009,-0.000003,-0.000025,-62.314442,0.000031,
2416,2653,3.42880808790207,0.187655166470435,-0.0213881361991639,0.004518,-0.000019,0.002300,0.199092,0.068175,320.493545,24.208196,0.999518,0.989253,0.004167,0.469487,-0.000028,0.000025,-0.000017,0.000030,-0.000033,-73.295502,0.000037,
2146,3073,-2.51463166727657,9.30464686400559,0.00893011738492078,0.004467,0.000341,0.002596,0.198350,0.060273,314.268175,24.600097,0.999738,0.996337,0.002860,0.436249,-0.000022,0.000034,-0.000009,0.000036,-0.000024,-80.882879,0.000037,
2251,2203,-0.0820436261240403,-9.65172853536989,0.00776866539627008,0.004405,-0.000082,0.001037,0.198505,0.033372,328.063543,23.531239,0.998958,0.985078,0.005022,0.461156,-0.000033,-0.000022,0.000001,-0.000022,-0.000034,82.749979,0.000056,
2401,2578,3.11663246929114,-1.44907319592174,-0.0215784952724221,0.004280,0.000023,-0.000945,0.199865,0.033992,321.694773,23.998815,0.999348,0.987257,0.004468,0.422421,-0.000019,0.000011,-0.000004,0.000011,-0.000020,-81.635644,0.000020,
2296,2338,0.874373543386412,-6.69512129093513,-0.00454902678006874,0.004419,0.000331,0.000249,0.202007,0.070929,325.723547,23.631334,0.999176,0.985422,0.004826,0.464162,-0.000038,-0.000012,-0.000002,-0.000012,-0.000038,-86.160009,0.000053,
2386,2503,2.80492004759702,-3.08698714218187,-0.00766510085804839,0.004087,0.000518,0.001693,0.181711,0.080607,322.996668,23.848038,0.999616,0.990742,0.003889,0.418184,-0.000015,-0.000018,0.000001,-0.000015,-0.000018,18.805935,0.000033,
2356,2353,2.18041297301209,-6.3688666450691,-0.003052360592676,0.004434,0.000446,-0.002257,0.211404,0.046169,325.482162,23.293086,0.999536,0.990062,0.004302,0.596847,-0.000025,-0.000012,0.000005,-0.000010,-0.000027,71.276034,0.000038,
2131,2158,-2.68962743830378,-10.6366404427995,0.0226594434779486,0.004273,0.000642,-0.007441,0.218441,0.002104,329.283457,24.242388,0.999770,0.991397,0.004067,0.290890,-0.000010,-0.000012,0.000009,-0.000002,-0.000020,42.497498,0.000025,
2311,2398,1.19230291058707,-5.38655549306879,0.0160243617505103,0.004394,0.000344,-0.004335,0.216479,0.036918,324.928731,23.635739,0.999353,0.988508,0.004588,0.505525,-0.000032,0.000009,-0.000001,0.000009,-0.000032,-89.053275,0.000033,
2176,3268,-1.8970678416087,13.5331398804583,0.0141229347860872,0.004235,0.000187,0.001556,0.190787,0.041711,311.003241,24.828854,0.999622,0.994364,0.003170,0.439324,-0.000024,0.000006,-0.000005,0.000007,-0.000025,-80.356215,0.000026,
2116,2038,-2.99868000678542,-13.2658434391777,0.0112203490558045,0.004374,0.000234,-0.001904,0.206227,0.024440,331.165651,24.173725,0.999233,0.983815,0.005261,0.410532,-0.000024,-0.000082,-0.000004,-0.000024,-0.000082,-3.902288,0.000111,
2131,2983,-2.82530128337934,7.35112056307077,-0.000244719274803629,0.004602,0.000776,-0.000877,0.215125,0.064988,315.738005,24.505559,0.999751,0.994733,0.003021,0.453207,-0.000016,0.000033,-0.000011,0.000035,-0.000019,-77.499332,0.000035,
2236,2113,-0.392599598813323,-11.6254668913731,0.0214335566597015,0.004266,0.000050,-0.001389,0.199961,0.028558,329.656994,23.446183,0.999342,0.982205,0.005230,0.472076,-0.000028,0.000001,0.000022,0.000013,-0.000039,61.780190,0.000040,
2131,2383,-2.7283255111501,-5.71303492620643,-0.00485541073783224,0.003946,0.000107,-0.000481,0.182798,0.048965,325.395623,24.251214,0.998944,0.986314,0.004669,0.448589,-0.000007,0.000016,-0.000013,0.000022,-0.000012,-65.355138,0.000022,
2116,3103,-3.16891572284951,9.95264850142969,0.0212975261470092,0.004639,0.000743,-0.002588,0.222080,0.066535,314.034335,24.529906,0.999854,0.995763,0.002895,0.410406,-0.000027,0.000026,-0.000008,0.000027,-0.000029,-81.569496,0.000032,
2116,2218,-3.02783123392365,-9.32067985890012,0.0034731391214109,0.004073,0.000407,-0.002337,0.193963,0.048922,328.197667,24.305560,0.998356,0.980786,0.005500,0.380943,-0.000011,0.000008,-0.000001,0.000008,-0.000011,-88.079264,0.000011,
2161,3178,-2.20550716371445,11.5811672427568,0.033400767906528,0.004392,0.000385,0.002856,0.194181,0.075934,312.695351,24.715275,0.999546,0.992379,0.003492,0.452815,-0.000027,0.000018,-0.000010,0.000020,-0.000030,-77.578804,0.000030,
2371,2443,2.48965305822431,-4.39945966824882,-0.00299896347695494,0.003989,-0.000143,0.001986,0.175912,0.050244,323.994175,23.645791,0.999298,0.987917,0.004533,0.451541,-0.000006,-0.000017,0.000006,-0.000003,-0.000020,24.516751,0.000025,
2101,3088,-3.49198862933549,9.62577210449752,0.0200462308896476,0.004413,0.000696,-0.002909,0.212475,0.063145,314.330344,24.423772,0.999354,0.987696,0.004264,0.454926,-0.000028,0.000031,-0.000013,0.000034,-0.000031,-78.008959,0.000038,
2116,3253,-3.19382068176761,13.2024848301528,0.0311834004872935,0.004084,0.000403,0.000400,0.187673,0.061198,311.630860,24.540023,0.999750,0.996466,0.002555,0.416769,-0.000036,0.000000,-0.000023,0.000012,-0.000047,-63.635882,0.000049,
2176,3283,-1.89973806714464,13.8589704168488,0.0093409745618942,0.004284,0.000871,-0.001224,0.202004,0.078715,310.727888,24.865285,0.999725,0.995418,0.002878,0.450882,-0.000021,0.000006,-0.000003,0.000006,-0.000021,-84.301578,0.000022,
2386,2518,2.80221657975568,-2.76010446716347,-0.0114849998572595,0.004277,0.000688,-0.002056,0.203923,0.074368,322.744067,23.803033,0.999521,0.989224,0.004234,0.501593,-0.000015,-0.000018,0.000001,-0.000015,-0.000018,12.545908,0.000033,
2281,2308,0.553437659178517,-7.35230626132996,0.00369023185373862,0.004383,0.000129,-0.001590,0.206352,0.036868,326.297934,23.657235,0.999236,0.983444,0.005240,0.399437,-0.000037,-0.000012,0.000001,-0.000012,-0.000037,87.691091,0.000051,
2191,3298,-1.57765477339658,14.1860454716339,-0.00234625837174463,0.004475,0.000813,-0.003532,0.218118,0.070606,310.350010,24.984523,0.999791,0.996422,0.002675,0.420773,-0.000036,0.000021,-0.000009,0.000022,-0.000038,-81.162586,0.000038,
2296,2353,0.872214554320106,-6.36865551191337,0.00735779045294294,0.004215,0.000019,0.001831,0.187195,0.047777,325.566213,23.660230,0.999593,0.989001,0.004140,0.443549,-0.000038,0.000001,-0.000002,0.000001,-0.000039,-87.109946,0.000044,
2311,2413,1.18801977452025,-5.05661712288385,0.00131195350473945,0.004105,0.000647,-0.002541,0.197247,0.034200,324.543340,23.724970,0.999456,0.988543,0.004451,0.447804,-0.000031,0.000007,-0.000001,0.000007,-0.000031,-89.153529,0.000033,
2221,2068,-0.71286340217392,-12.6091497752728,0.0132749252338726,0.004128,0.000571,-0.002445,0.197141,0.039116,330.341328,23.626015,0.998923,0.979077,0.005591,0.325020,-0.000034,-0.000021,0.000026,-0.000001,-0.000055,51.910099,0.000064,
2356,2368,2.17726186023511,-6.03854216980641,-0.00520478770778254,0.004494,0.000488,0.000245,0.205414,0.056159,325.214302,23.510499,0.999127,0.985901,0.004766,0.430344,-0.000025,0.000000,0.000010,0.000004,-0.000028,71.022371,0.000031,
2131,2173,-2.69317294933569,-10.3073172537066,0.00399811048322363,0.004551,0.000518,-0.004260,0.221659,0.035677,328.890414,24.095041,0.999438,0.976388,0.005558,0.480988,-0.000008,-0.000006,0.000008,0.000001,-0.000015,48.984413,0.000017,
2401,2593,3.11379548910671,-1.12233753661147,-0.0193161448725618,0.004335,-0.000062,0.001001,0.195335,0.029526,321.465689,24.017664,0.999476,0.989109,0.004184,0.445323,-0.000016,0.000010,-0.000004,0.000010,-0.000017,-80.879849,0.000017,
2251,2218,-0.0840213304001658,-9.32286580987467,0.0112182913261449,0.004505,0.000358,-0.003297,0.217417,0.031154,327.869116,23.629854,0.998530,0.978720,0.005781,0.386175,-0.000032,-0.000027,0.000000,-0.000027,-0.000032,89.479555,0.000060,
2326,2218,1.55200329240908,-9.32384388592395,0.0127502772941739,0.004243,0.000163,-0.000878,0.197487,0.040885,327.782642,23.228166,0.998836,0.980122,0.005605,0.433023,-0.000037,-0.000023,-0.000003,-0.000022,-0.000038,-79.399453,0.000061,
2131,2398,-2.73025652504786,-5.38682322566009,0.00539094447236721,0.003707,-0.000157,-0.001296,0.174156,0.027364,325.230910,24.249201,0.998684,0.985224,0.004858,0.436090,-0.000009,0.000009,-0.000013,0.000016,-0.000016,-62.246148,0.000018,
2116,2458,-3.06662758824843,-4.07499273661386,-0.0103445220128151,0.004500,0.000102,0.000061,0.206746,0.043117,324.227432,24.346245,0.999378,0.989001,0.004325,0.420694,-0.000021,-0.000006,-0.000015,0.000004,-0.000030,-58.682196,0.000033,
2116,3118,-3.17163306780615,10.2778126099572,0.0210225571260025,0.004444,0.000957,-0.002067,0.211664,0.085900,313.776665,24.503171,0.999806,0.995990,0.002801,0.458966,-0.000028,0.000021,-0.000010,0.000023,-0.000030,-79.044062,0.000031,
2116,2053,-3.00087260158407,-12.9366163591091,0.0150486751532526,0.004487,0.000206,0.001098,0.202558,0.032973,330.952939,24.240145,0.998757,0.979521,0.005488,0.359264,-0.000024,-0.000065,0.000001,-0.000024,-0.000065,1.003061,0.000092,
2341,2293,1.8644178562014,-7.67972499845589,-0.000953420850066777,0.004365,0.000306,-0.000612,0.202332,0.038988,326.458527,23.397199,0.999078,0.986320,0.004691,0.384437,-0.000033,-0.000011,-0.000006,-0.000009,-0.000034,-76.321326,0.000046,
2416,2668,3.42576062448013,0.515251149786202,-0.0205590337048989,0.004274,0.000135,0.001292,0.191614,0.051869,320.248707,24.328713,0.999414,0.988946,0.004324,0.380863,-0.000027,0.000033,-0.000017,0.000038,-0.000031,-75.217854,0.000040,
2116,2233,-3.02952024046032,-8.99212081848114,0.0037604850600701,0.004716,0.000540,-0.002722,0.224697,0.044907,327.989209,24.348511,0.998598,0.981888,0.005381,0.339746,-0.000010,0.000017,-0.000001,0.000017,-0.000010,-87.389234,0.000017,
2371,2458,2.48693077860202,-4.07086370354298,-0.0116088957566944,0.004557,0.000146,-0.001204,0.213364,0.033421,323.716486,23.702738,0.999047,0.986781,0.004724,0.420400,-0.000007,-0.000024,0.000007,-0.000004,-0.000026,19.175516,0.000033,
2146,3088,-2.51676601339313,9.63043024155613,0.0101291546434368,0.004656,0.000295,0.000877,0.212345,0.059631,314.047031,24.653128,0.999698,0.995120,0.003054,0.389466,-0.000024,0.000029,-0.000013,0.000032,-0.000027,-77.116588,0.000034,
2161,3193,-2.20840363797323,11.9058229822319,0.032857195371605,0.003990,0.000509,0.001496,0.179852,0.072189,312.431391,24.682716,0.999635,0.994319,0.003122,0.490467,-0.000030,0.000012,-0.000013,0.000016,-0.000034,-74.578495,0.000034,
2101,3103,-3.49429223750361,9.95126945067284,0.0249208693251148,0.004386,0.000462,-0.000697,0.204715,0.058793,314.118417,24.479426,0.999675,0.993116,0.003292,0.395065,-0.000031,0.000027,-0.000009,0.000029,-0.000033,-81.242381,0.000036,
2116,3268,-3.19635914629896,13.5275682873583,0.0277609414526978,0.004155,0.000686,-0.001166,0.195691,0.066837,311.364485,24.539808,0.999753,0.996043,0.002710,0.424707,-0.000034,0.000003,-0.000023,0.000014,-0.000045,-64.190484,0.000046,
2131,2998,-2.82759751015125,7.67616567175372,0.00266916778201676,0.004471,0.001141,-0.002764,0.214943,0.090483,315.517805,24.452823,0.999768,0.994686,0.003091,0.536436,-0.000021,0.000036,-0.000008,0.000037,-0.000022,-82.078072,0.000037,
2266,2263,0.235233344228693,-8.33725130418909,0.0170391005611918,0.004605,0.000163,0.003058,0.201149,0.065201,327.150437,23.715857,0.999683,0.989602,0.004292,0.345160,-0.000034,-0.000032,0.000004,-0.000029,-0.000037,52.883207,0.000066,
2236,2128,-0.395527174156843,-11.2942991609347,0.0169082582916644,0.004176,0.000560,-0.002727,0.200377,0.043215,329.377265,23.620471,0.998894,0.981067,0.005380,0.336897,-0.000026,-0.000007,0.000017,0.000003,-0.000036,59.806901,0.000040,
2176,3298,-1.90303892901193,14.1842778453014,0.00122346189357359,0.004103,0.000923,-0.001424,0.194324,0.076512,310.406174,24.879063,0.999815,0.996777,0.002468,0.445591,-0.000018,0.000019,-0.000010,0.000022,-0.000020,-75.683463,0.000024,
2131,2413,-2.7333918390554,-5.05661353793954,-0.0125473100202953,0.004227,0.000161,-0.000501,0.195808,0.054593,324.859953,24.300340,0.998964,0.986871,0.004733,0.419723,-0.000009,-0.000001,-0.000015,0.000010,-0.000021,-52.419968,0.000021,
2116,3133,-3.17436572712402,10.6034003115337,0.019195854643101,0.004539,0.000539,0.001561,0.205091,0.065024,313.509800,24.549944,0.999873,0.997390,0.002466,0.393639,-0.000029,0.000018,-0.000007,0.000019,-0.000030,-81.404502,0.000030,
2206,1993,-1.02654351189196,-14.2557796090817,0.0203674815500676,0.004386,0.001072,-0.006068,0.220352,0.053874,331.665068,23.572292,0.999400,0.984593,0.004894,0.386622,-0.000028,-0.000073,-0.000016,-0.000023,-0.000078,-17.471634,0.000106,
2281,2323,0.550696445909765,-7.02376145315125,0.00273965455312464,0.004385,0.000479,-0.001863,0.207546,0.052512,326.048676,23.700841,0.998969,0.983191,0.005299,0.401218,-0.000034,-0.000023,0.000003,-0.000022,-0.000035,75.098520,0.000058,
2401,2608,3.1113773043566,-0.793945715840117,-0.0218492609342888,0.004559,0.000991,-0.005069,0.228074,0.075480,321.232724,24.101197,0.999502,0.989506,0.004056,0.454182,-0.000015,0.000008,-0.000005,0.000009,-0.000016,-78.619239,0.000016,
2116,2248,-3.03258818610544,-8.66452532485508,0.00345981442717402,0.004175,0.000369,-0.000625,0.193628,0.038320,327.714779,24.305493,0.998743,0.983974,0.005158,0.382197,-0.000018,0.000020,-0.000001,0.000020,-0.000018,-88.017447,0.000022,
2131,2188,-2.69494275203646,-9.97886654588678,0.0156577009798298,0.004453,0.000521,-0.003776,0.215778,0.037600,328.739974,24.226492,0.999181,0.983971,0.005047,0.359415,-0.000010,0.000015,0.000006,0.000016,-0.000011,77.358792,0.000016,
2356,2383,2.17407717545408,-5.70884491205884,-0.0124717141670203,0.004468,0.000526,-0.002995,0.215620,0.039503,324.920470,23.653198,0.999234,0.983126,0.005043,0.311763,-0.000019,0.000006,0.000008,0.000009,-0.000021,73.867780,0.000021,
2341,2308,1.86207612336711,-7.35227439037509,0.00907977036933971,0.004207,0.000027,0.001257,0.188500,0.041412,326.286090,23.459551,0.998502,0.982918,0.005079,0.362743,-0.000035,-0.000017,-0.000006,-0.000016,-0.000036,-73.740316,0.000053,
2116,2473,-3.06936058352835,-3.74692705444685,-0.0147945173134758,0.004394,0.000367,-0.000900,0.204800,0.045231,323.945866,24.376090,0.999407,0.989138,0.004210,0.397701,-0.000015,0.000002,-0.000007,0.000005,-0.000018,-69.689795,0.000019,
2221,2083,-0.715408904675154,-12.2802939826999,0.0114142082704234,0.004141,0.000594,-0.004390,0.203956,0.036611,330.091708,23.619078,0.999061,0.980224,0.005498,0.351854,-0.000029,-0.000013,0.000023,0.000003,-0.000046,54.604264,0.000051,
2251,2233,-0.0874877309945425,-8.99391635299924,0.00368785169939656,0.004344,0.000058,-0.001456,0.203981,0.023453,327.551179,23.633483,0.998719,0.980391,0.005499,0.400875,-0.000035,-0.000016,0.000004,-0.000015,-0.000036,79.946060,0.000052,
2131,3058,-2.83705376485108,8.97810250033996,0.0138783012956196,0.004196,0.000792,-0.003230,0.203615,0.067361,314.621734,24.561892,0.999323,0.992865,0.003654,0.423369,-0.000019,0.000034,-0.000009,0.000035,-0.000020,-80.471686,0.000035,
2311,2428,1.18451007398686,-4.72689940243198,-0.0100126355951033,0.004300,0.000698,-0.001271,0.201937,0.068708,324.209857,23.795734,0.999621,0.990141,0.004096,0.445733,-0.000026,0.000008,-0.000001,0.000008,-0.000026,-88.797859,0.000026,
2416,2683,3.42315421951709,0.841637810313728,-0.0184731347674187,0.004431,0.000360,0.001138,0.199451,0.051049,320.030168,24.337485,0.999331,0.987035,0.004662,0.419209,-0.000021,0.000039,-0.000014,0.000042,-0.000024,-77.900696,0.000042,
2161,3208,-2.21035501785341,12.2309057526977,0.0371308917750639,0.004232,0.000647,0.000416,0.194356,0.064529,312.236166,24.725061,0.999640,0.994746,0.003003,0.449080,-0.000031,0.000009,-0.000017,0.000015,-0.000037,-70.392073,0.000037,
2191,1993,-1.35387511517314,-14.256042473791,0.0272831466677417,0.004319,0.000685,-0.002123,0.204691,0.045455,331.748166,23.703408,0.999460,0.985213,0.004949,0.352395,-0.000012,-0.000099,0.000005,-0.000012,-0.000099,3.011227,0.000122,
2386,2533,2.79873657896148,-2.43167844553612,-0.0208254695375558,0.004363,0.000547,-0.002897,0.210874,0.063644,322.429299,23.860093,0.999565,0.989776,0.004195,0.478134,-0.000017,-0.000018,0.000003,-0.000014,-0.000021,40.417906,0.000035,
2101,3118,-3.49697515817541,10.2764727235111,0.0208656270428946,0.004388,0.000674,-0.001028,0.205885,0.073251,313.840754,24.437113,0.999770,0.994988,0.002877,0.452041,-0.000033,0.000023,-0.000010,0.000024,-0.000035,-79.881139,0.000036,
2296,2368,0.869770206832509,-6.04062974796408,0.00554564401608104,0.004234,0.000864,-0.003455,0.206183,0.045319,325.327621,23.681381,0.999336,0.986153,0.004641,0.451696,-0.000041,0.000007,-0.000002,0.000007,-0.000041,-88.052266,0.000044,
2116,3283,-3.19943558481915,13.8517609385418,0.0283842622755515,0.003847,0.000327,0.003755,0.166724,0.052644,311.095584,24.503483,0.999752,0.995847,0.002827,0.448632,-0.000035,0.000005,-0.000021,0.000014,-0.000043,-66.955934,0.000044,
2326,2233,1.54879255760842,-8.9946960288827,0.00726443938503962,0.004230,0.000126,-0.000831,0.196716,0.044743,327.493903,23.260381,0.998392,0.976154,0.006131,0.441788,-0.000042,-0.000023,0.000000,-0.000023,-0.000042,-89.322417,0.000066,
2116,3148,-3.17682186985851,10.927553636768,0.0253988357742401,0.004371,0.000658,0.004919,0.187518,0.088267,313.299418,24.473581,0.999767,0.995590,0.002827,0.495427,-0.000029,0.000024,-0.000006,0.000024,-0.000030,-83.252984,0.000032,
2131,2428,-2.73640366302584,-4.72774193195881,-0.0209765193297358,0.004314,0.000417,0.001362,0.194376,0.081569,324.545542,24.326447,0.999256,0.988259,0.004450,0.428229,-0.000012,-0.000015,-0.000007,-0.000006,-0.000020,-40.315344,0.000028,
2146,3103,-2.51938741937659,9.95455641352835,0.0160153364034272,0.004244,0.000532,0.002160,0.189556,0.077078,313.829032,24.568901,0.999833,0.996785,0.002599,0.497904,-0.000026,0.000024,-0.000010,0.000026,-0.000028,-78.671730,0.000031,
2266,2278,0.231799631736919,-8.00844019090076,0.000854796010344216,0.004559,0.000522,-0.003089,0.219457,0.044707,326.792128,23.648997,0.999529,0.986960,0.004636,0.419912,-0.000030,-0.000020,-0.000001,-0.000020,-0.000030,-86.854632,0.000051,
2371,2473,2.48399340222282,-3.74383133856881,-0.00542804183709222,0.004148,0.000245,0.000695,0.187936,0.057009,323.499586,23.718717,0.999341,0.988197,0.004418,0.470172,-0.000009,-0.000022,0.000007,-0.000006,-0.000025,23.885547,0.000033,
2206,2008,-1.02882183532241,-13.9278965198574,0.0267193925423044,0.004276,0.000777,-0.004852,0.211411,0.024758,331.468871,23.567783,0.999210,0.981809,0.005276,0.381982,-0.000034,-0.000052,0.000001,-0.000034,-0.000052,2.889386,0.000087,
2116,2488,-3.07160148664916,-3.42033248535052,-0.0166974798711976,0.004491,0.000492,-0.003706,0.217609,0.041150,323.700848,24.306182,0.999318,0.988190,0.004328,0.468171,-0.000013,0.000001,-0.000011,0.000007,-0.000019,-61.215217,0.000020,
2116,2263,-3.03531437397891,-8.33660742044929,-0.000197783580517807,0.004188,-0.000194,0.001318,0.188349,0.017451,327.437997,24.277092,0.998760,0.984691,0.005124,0.395723,-0.000015,0.000014,0.000001,0.000014,-0.000015,88.041466,0.000017,
2221,2098,-0.717414756373969,-11.952086186198,0.0175117277001959,0.004458,0.000431,-0.001739,0.209929,0.064677,329.907304,23.615295,0.998969,0.980086,0.005584,0.405379,-0.000028,-0.000006,0.000024,0.000009,-0.000043,57.589777,0.000046,
2131,3013,-2.83016952942928,8.00206401750209,0.00744046367435658,0.004182,0.000647,-0.001101,0.196493,0.074765,315.294641,24.535809,0.999423,0.991974,0.003654,0.442433,-0.000019,0.000040,-0.000007,0.000041,-0.000020,-83.011739,0.000041,
2251,2248,-0.0904768799857862,-8.66424373644787,0.00575449482664681,0.004278,-0.000385,0.004473,0.181433,0.058965,327.303116,23.764723,0.998452,0.979125,0.005839,0.331073,-0.000029,-0.000024,0.000010,-0.000016,-0.000037,52.323436,0.000054,
2191,2008,-1.3570160542467,-13.927968775293,0.0272730626335829,0.004024,-0.000321,0.002969,0.174948,0.027751,331.478487,23.632033,0.999350,0.984905,0.004985,0.424565,-0.000020,-0.000074,0.000017,-0.000015,-0.000079,16.257478,0.000101,
2281,2338,0.548287997678624,-6.6951600887184,-0.00232627273533126,0.004822,0.000862,-0.004873,0.237801,0.048652,325.794215,23.733729,0.999106,0.985130,0.004899,0.394204,-0.000030,-0.000009,0.000000,-0.000009,-0.000030,89.011609,0.000041,
2131,3073,-2.83924649897578,9.3032693581958,0.0190881765836366,0.004434,0.000841,0.001084,0.201653,0.074264,314.418572,24.571869,0.999642,0.994513,0.003307,0.424906,-0.000021,0.000036,-0.000009,0.000038,-0.000022,-80.956476,0.000038,
2236,2143,-0.39773509446167,-10.9658363214733,0.0155483876552012,0.004630,0.000721,-0.003138,0.222572,0.041832,329.146934,23.603949,0.998684,0.981038,0.005383,0.376106,-0.000033,-0.000017,0.000019,-0.000004,-0.000046,55.786641,0.000055,
2101,3133,-3.49894829669113,10.601737784515,0.0252222048237059,0.004443,0.000760,-0.003280,0.215050,0.069553,313.641290,24.474633,0.999821,0.995818,0.002709,0.411151,-0.000035,0.000021,-0.000008,0.000022,-0.000037,-82.206087,0.000037,
2416,2698,3.41945090790481,1.16894449946881,-0.0290808076483131,0.004313,0.000596,-0.001493,0.203774,0.052443,319.701573,24.329158,0.999549,0.990405,0.003988,0.477359,-0.000019,0.000048,-0.000012,0.000050,-0.000021,-79.760010,0.000050,
2311,2443,1.18242241247766,-4.40104214438424,-0.00257676416822505,0.004425,0.000257,-0.000981,0.206547,0.051067,324.034554,23.747036,0.999511,0.988852,0.004330,0.510262,-0.000020,-0.000006,0.000002,-0.000006,-0.000021,80.835958,0.000028,
2116,3163,-3.17899117996228,11.2525178800648,0.0310629552254227,0.004191,0.000628,0.003026,0.184824,0.085526,313.099028,24.497488,0.999632,0.993876,0.003235,0.471003,-0.000029,0.000030,-0.000010,0.000031,-0.000030,-80.905223,0.000035,
2131,2203,-2.69830934363215,-9.64935318732437,0.00239520892841938,0.004469,0.000406,-0.002069,0.211385,0.036640,328.383893,24.201019,0.998595,0.980715,0.005417,0.392785,-0.000008,0.000013,0.000005,0.000014,-0.000008,77.826416,0.000014,
2386,2548,2.79652099083289,-2.10515216464085,-0.01296293813391,0.004488,0.000283,-0.002049,0.213436,0.041198,322.254467,23.913312,0.999464,0.989114,0.004340,0.446580,-0.000014,-0.000017,0.000001,-0.000014,-0.000017,18.782273,0.000031,
2401,2623,3.10817669475712,-0.467306779908888,-0.0172863366976799,0.004377,0.000416,0.000724,0.198514,0.069390,320.997666,24.141601,0.999327,0.988405,0.004204,0.453722,-0.000019,0.000014,-0.000009,0.000017,-0.000022,-75.084660,0.000023,
2341,2323,1.85859765454422,-7.02297327311118,-0.00135827006101863,0.004108,0.000364,-0.001720,0.194452,0.042260,325.962217,23.493551,0.999170,0.986988,0.004589,0.368676,-0.000037,-0.000030,0.000000,-0.000030,-0.000037,87.357402,0.000068,
2116,3298,-3.2017225857957,14.177161365459,0.0195469785642217,0.004309,0.000710,-0.001130,0.202713,0.062300,310.811402,24.507397,0.999647,0.994077,0.003263,0.456497,-0.000028,0.000029,-0.000025,0.000038,-0.000038,-69.096612,0.000044,
2161,3223,-2.21260909182255,12.5558446391357,0.039162075637023,0.004289,0.000713,-0.001179,0.201962,0.071916,312.015222,24.729545,0.999653,0.994885,0.003005,0.460638,-0.000030,0.000014,-0.000016,0.000020,-0.000036,-71.716928,0.000036,
2131,2443,-2.73844666969407,-4.40249151477956,-0.0136988345643658,0.004214,0.000373,0.001463,0.189448,0.068863,324.360090,24.213706,0.999276,0.988458,0.004500,0.535216,-0.000015,-0.000009,-0.000007,-0.000004,-0.000020,-55.497238,0.000026,
2356,2398,2.17144652309776,-5.38259710308304,-0.0029541981285206,0.004125,0.000421,-0.000487,0.191049,0.061653,324.733046,23.608034,0.999509,0.987539,0.004521,0.419391,-0.000015,0.000008,0.000009,0.000011,-0.000018,71.784586,0.000018,
2116,2278,-3.03659043084224,-8.00821192120162,0.00557243864568591,0.004868,0.000285,0.000513,0.222093,0.059146,327.277599,24.330708,0.998740,0.984282,0.005147,0.388948,-0.000013,0.000000,-0.000004,0.000001,-0.000014,-73.157237,0.000016,
2116,2503,-3.07413926550556,-3.09310761938669,-0.0214724176848335,0.004536,0.000476,-0.005669,0.225526,0.029268,323.426710,24.280819,0.999106,0.985832,0.004594,0.486468,-0.000010,0.000004,-0.000009,0.000009,-0.000015,-63.371110,0.000015,
2266,2293,0.228807625734742,-7.68023410270452,-0.000301608530492103,0.004390,0.000272,-0.002070,0.208270,0.048492,326.529253,23.661049,0.999348,0.984708,0.005012,0.439242,-0.000033,-0.000007,0.000002,-0.000007,-0.000033,85.429256,0.000043,
2221,2113,-0.720656864074254,-11.6238755291711,0.0184419150365898,0.003810,0.000221,-0.000365,0.175831,0.039559,329.640254,23.613381,0.999002,0.981523,0.005328,0.404306,-0.000027,-0.000003,0.000019,0.000008,-0.000038,60.639244,0.000040,
2326,2248,1.54577222891528,-8.66529443265692,0.00227060451737771,0.004135,0.000626,-0.003892,0.203123,0.039283,327.216228,23.336104,0.998843,0.980913,0.005379,0.397482,-0.000039,-0.000036,0.000002,-0.000034,-0.000040,61.730078,0.000075,
2296,2383,0.866498548754592,-5.71116969605013,-0.00366740160808376,0.004393,0.000429,-0.003268,0.212737,0.035139,325.014261,23.775567,0.999028,0.983123,0.005183,0.379312,-0.000039,0.000011,0.000000,0.000011,-0.000039,-89.637146,0.000040,
2146,3118,-2.52118766556386,10.2799151421218,0.0235023821563232,0.004363,0.000613,0.000564,0.199948,0.085819,313.656828,24.619763,0.999660,0.995089,0.003068,0.462475,-0.000027,0.000018,-0.000012,0.000021,-0.000030,-76.466809,0.000031,
2251,2263,-0.092573238495067,-8.33665964761421,0.00541884642228752,0.004412,0.000311,-0.001371,0.206953,0.060487,327.084270,23.719364,0.999155,0.984307,0.005049,0.403331,-0.000028,-0.000031,0.000006,-0.000023,-0.000036,38.523071,0.000059,
2191,2023,-1.3589080501107,-13.5978501193236,0.0256163694230622,0.004580,0.000069,0.000445,0.208437,0.038095,331.256907,23.705559,0.999053,0.984213,0.005069,0.379277,-0.000019,-0.000064,0.000016,-0.000014,-0.000069,18.212866,0.000089,
2131,3298,-2.8771505024081,14.178887412871,0.0126717399955965,0.004247,0.000748,-0.002897,0.205193,0.063702,310.689018,24.585945,0.999624,0.994166,0.003173,0.465928,-0.000025,0.000024,-0.000024,0.000034,-0.000035,-67.362092,0.000040,
2131,3028,-2.83254928901406,8.32716683110053,0.00979728510026234,0.004365,0.000402,0.002454,0.194202,0.073893,315.067646,24.518189,0.999436,0.991937,0.003696,0.463975,-0.000020,0.000042,-0.000007,0.000043,-0.000021,-83.884777,0.000043,
2206,2023,-1.03067373253208,-13.5999040396047,0.0369785002082494,0.004559,0.000229,-0.000278,0.209779,0.028558,331.312027,23.589064,0.998895,0.980712,0.005514,0.384331,-0.000032,-0.000039,0.000005,-0.000030,-0.000042,26.724394,0.000072,
2371,2488,2.48096242942082,-3.41618294744623,-0.00503429075797612,0.003944,0.000426,0.000603,0.179007,0.072405,323.250636,23.750357,0.999384,0.987996,0.004356,0.496352,-0.000010,-0.000023,0.000004,-0.000009,-0.000023,14.566264,0.000034,
2131,3088,-2.84118462233382,9.62758747780921,0.0257148336492037,0.004448,0.000482,-0.000528,0.207020,0.056581,314.235019,24.540436,0.999823,0.995665,0.003045,0.443241,-0.000024,0.000031,-0.000012,0.000033,-0.000026,-78.251612,0.000035,
2416,2713,3.41745591987677,1.49530240209221,-0.0221514039700423,0.004477,0.000830,-0.004370,0.221995,0.070172,319.533625,24.365394,0.999656,0.991446,0.003761,0.506846,-0.000019,0.000047,-0.000012,0.000049,-0.000021,-80.024150,0.000050,
2131,1993,-2.66436253025641,-14.2543270687988,0.0282441513961658,0.003505,0.000016,0.001737,0.155435,0.046323,331.914704,24.141452,0.999239,0.981449,0.005210,0.337470,-0.000028,-0.000126,0.000000,-0.000028,-0.000126,0.138691,0.000164,
2131,2218,-2.70126618988919,-9.32126083285451,0.00715079209516034,0.003899,0.000106,0.002460,0.171645,0.059373,328.142464,24.216555,0.998338,0.980356,0.005486,0.408059,-0.000008,0.000007,-0.000001,0.000007,-0.000008,-86.482578,0.000009,
2281,2353,0.544758714131909,-6.36868997730785,0.00222021492572821,0.004089,-0.000008,0.001125,0.183843,0.028997,325.536633,23.687447,0.999238,0.985390,0.004809,0.450526,-0.000032,0.000004,-0.000001,0.000004,-0.000032,-89.131357,0.000035,
2131,2458,-2.74076419692492,-4.07283940098967,-0.0178852427514471,0.004651,0.000256,0.002115,0.207611,0.081770,324.099896,24.375633,0.999315,0.988958,0.004473,0.393179,-0.000016,-0.000008,-0.000013,0.000002,-0.000026,-53.629385,0.000029,
2386,2563,2.79314781772971,-1.77630001849889,-0.0200610960026779,0.004471,0.000683,-0.003329,0.217460,0.056313,321.954923,24.014406,0.999514,0.989979,0.004063,0.405055,-0.000021,-0.000008,-0.000002,-0.000007,-0.000022,-80.688055,0.000030,
2401,2638,3.10469090401,-0.140025369710841,-0.0191029694035478,0.004107,0.000218,0.002611,0.179214,0.054302,320.719291,24.200061,0.999182,0.987547,0.004337,0.426506,-0.000025,0.000021,-0.000014,0.000025,-0.000029,-74.450584,0.000031,
2161,3238,-2.21579662412667,12.8811942089393,0.0328130769718769,0.004112,0.000538,-0.000735,0.192352,0.056856,311.706886,24.750476,0.999700,0.994649,0.003037,0.433392,-0.000029,0.000004,-0.000016,0.000010,-0.000036,-67.617004,0.000037,
2116,2293,-3.04003297843429,-7.67917717299001,-0.00152665932608897,0.004267,0.000460,0.000500,0.194626,0.067283,326.949278,24.351628,0.998877,0.985995,0.004885,0.382227,-0.000012,0.000003,-0.000004,0.000004,-0.000013,-76.720823,0.000013,
2236,2158,-0.401513546710877,-10.6362004004126,0.00740396651872288,0.004185,0.000140,-0.001026,0.195193,0.017917,328.810254,23.650338,0.998546,0.982580,0.005354,0.330277,-0.000034,-0.000017,0.000015,-0.000008,-0.000042,60.044897,0.000054,
2356,2413,2.1684517963222,-5.05406940091608,-0.00728241223185933,0.004279,0.000521,-0.000793,0.199277,0.051657,324.462090,23.675803,0.999722,0.990310,0.004120,0.382310,-0.000019,0.000006,0.000007,0.000008,-0.000021,75.011615,0.000022,
2146,1993,-2.33649730118524,-14.2544406359002,0.0256531071356108,0.004007,0.000597,-0.001682,0.188837,0.058758,331.867913,24.020936,0.999199,0.982398,0.005101,0.364887,-0.000024,-0.000118,0.000008,-0.000023,-0.000119,5.043570,0.000152,
2146,2218,-2.3741711495995,-9.32149665688081,0.0108047574137231,0.003862,0.000191,0.001833,0.171754,0.054411,328.113612,24.174075,0.998644,0.980713,0.005398,0.373184,-0.000010,0.000003,-0.000001,0.000003,-0.000010,-85.059907,0.000010,
2266,2308,0.226812978125846,-7.35241629400497,0.00220433838609324,0.004635,0.000484,-0.005413,0.230652,0.046280,326.330456,23.685268,0.998940,0.982593,0.005352,0.440306,-0.000035,-0.000012,0.000002,-0.000012,-0.000035,84.479646,0.000049,
2311,2458,1.17888766113636,-4.07286256589497,-0.00725232431892664,0.004352,-0.000336,0.003727,0.186930,0.052900,323.732869,23.783125,0.999413,0.987615,0.004552,0.509821,-0.000024,-0.000014,0.000002,-0.000014,-0.000024,78.474446,0.000039,
2341,2338,1.85642280398722,-6.6954589014623,0.00560485924086151,0.004166,0.000746,-0.002226,0.199045,0.063374,325.782406,23.521628,0.999495,0.988226,0.004447,0.400180,-0.000032,-0.000025,-0.000001,-0.000025,-0.000033,-79.038174,0.000058,
2116,3178,-3.18083678087599,11.5767755098881,0.0385925418751185,0.004331,0.000410,0.002948,0.191493,0.077175,312.923846,24.475974,0.999580,0.992780,0.003361,0.486444,-0.000027,0.000027,-0.000011,0.000029,-0.000029,-78.599819,0.000034,
2191,2038,-1.36190842525603,-13.2659079078471,0.0116470926862462,0.004694,0.000874,-0.004785,0.230303,0.040766,330.920775,23.820631,0.999156,0.985903,0.004805,0.285364,-0.000020,-0.000064,0.000013,-0.000017,-0.000068,15.327691,0.000089,
2251,2278,-0.0952668840303659,-8.00858373717622,0.00397803929234897,0.004429,0.000382,-0.001727,0.208931,0.048054,326.832462,23.726994,0.999424,0.985087,0.004806,0.408943,-0.000026,-0.000021,0.000000,-0.000021,-0.000026,-87.274908,0.000047,
2221,2128,-0.722896772569801,-11.2948318612024,0.0187172692960758,0.003954,0.000602,-0.002729,0.190120,0.049096,329.415363,23.650823,0.998726,0.980383,0.005460,0.398315,-0.000026,-0.000011,0.000014,-0.000002,-0.000035,59.136920,0.000042,
2326,2263,1.54335193845199,-8.3377534240984,0.00789685389457873,0.004309,0.000223,-0.000660,0.199828,0.039329,327.017945,23.350389,0.999171,0.983428,0.004901,0.420024,-0.000041,-0.000040,-0.000004,-0.000037,-0.000044,-48.488528,0.000081,
2416,2728,3.41390426441098,1.82248572678845,-0.0269423769367449,0.004434,0.000596,-0.002176,0.211903,0.054484,319.239119,24.420425,0.999617,0.991323,0.003776,0.484256,-0.000021,0.000032,-0.000008,0.000033,-0.000023,-82.001083,0.000033,
2296,2398,0.86357970951865,-5.38310964378779,-0.00791489894504593,0.004225,0.000892,-0.007147,0.218284,0.034948,324.741769,23.785456,0.999179,0.986258,0.004859,0.400836,-0.000035,0.000012,-0.000002,0.000012,-0.000035,-87.969931,0.000035,
2131,3043,-2.83481174804237,8.65264972512869,0.0148944981204977,0.004176,0.000429,0.001238,0.189259,0.084772,314.860556,24.545528,0.999451,0.992938,0.003505,0.452259,-0.000020,0.000039,-0.000008,0.000040,-0.000021,-82.596857,0.000040,
2281,2368,0.54252438030716,-6.04094770814839,0.0042585015942791,0.004267,0.000276,-0.000689,0.198169,0.024420,325.325582,23.722269,0.999089,0.983297,0.005119,0.440692,-0.000035,0.000010,-0.000002,0.000010,-0.000035,-87.780800,0.000036,
2206,2038,-1.03423931293129,-13.2687233269528,0.0254179995478125,0.004232,0.000873,-0.001754,0.199674,0.060601,330.964195,23.632062,0.998887,0.980491,0.005455,0.394334,-0.000031,-0.000042,0.000003,-0.000030,-0.000043,16.957939,0.000074,
2146,3133,-2.52390552974524,10.604188398077,0.028973684907271,0.004065,0.000185,0.004544,0.173995,0.069931,313.432179,24.585823,0.999528,0.994144,0.003353,0.487271,-0.000027,0.000015,-0.000008,0.000017,-0.000029,-79.134709,0.000029,
2131,2008,-2.66569988065049,-13.9256389500569,0.0260436982319447,0.004223,0.000858,-0.005307,0.209618,0.050214,331.710309,24.078152,0.999298,0.984436,0.005096,0.413736,-0.000040,-0.000093,0.000006,-0.000039,-0.000094,6.537439,0.000137,
2131,3103,-2.84393803266543,9.95295276732056,0.0299216189799267,0.004135,0.000554,0.002867,0.182498,0.078537,314.000679,24.553842,0.999809,0.996008,0.002876,0.456339,-0.000026,0.000025,-0.000009,0.000027,-0.000028,-80.539308,0.000031,
2161,3253,-2.21903930156528,13.2067106031888,0.0215645655801495,0.004279,0.000671,0.000753,0.195568,0.070417,311.369993,24.735557,0.999670,0.994584,0.003093,0.470678,-0.000025,0.000002,-0.000014,0.000008,-0.000031,-66.904015,0.000032,
2386,2578,2.79016570800779,-1.44952926923625,-0.0171262429729495,0.004382,0.000223,-0.000404,0.202713,0.059222,321.721287,24.030169,0.999397,0.988473,0.004358,0.436266,-0.000021,0.000010,-0.000004,0.000011,-0.000021,-83.242619,0.000021,
2341,2353,1.85404691344165,-6.36742693338057,0.00127117783659969,0.004711,0.000821,-0.005065,0.233925,0.059436,325.538712,23.515699,0.999306,0.986861,0.004579,0.440479,-0.000030,-0.000012,0.000004,-0.000011,-0.000030,78.787212,0.000043,
2146,2458,-2.41463798906509,-4.07338827434863,-0.0180118288071753,0.004366,0.000076,0.001576,0.195967,0.064823,324.027483,24.281877,0.999273,0.988156,0.004561,0.433141,-0.000019,-0.000006,-0.000015,0.000004,-0.000029,-56.411566,0.000031,
2131,2473,-2.74315162062642,-3.74595173869557,-0.0173097628597247,0.004409,0.000578,-0.001557,0.207550,0.059426,323.862634,24.369136,0.999367,0.988202,0.004500,0.384228,-0.000011,-0.000001,-0.000007,0.000002,-0.000015,-61.843792,0.000016,
2131,2233,-2.70295749730601,-8.99274321439474,0.00836232408272508,0.004285,0.000404,-0.001343,0.200798,0.063463,327.940043,24.257213,0.998684,0.981898,0.005290,0.379428,-0.000007,0.000015,-0.000001,0.000015,-0.000007,-87.029224,0.000015,
2191,2053,-1.36505225468366,-12.9376289914308,0.0109850642132869,0.004312,0.000581,-0.001596,0.202734,0.055316,330.647318,23.746107,0.999069,0.983204,0.005125,0.392881,-0.000022,-0.000051,0.000017,-0.000014,-0.000059,24.864715,0.000077,
2401,2653,3.10221383942956,0.187254161247871,-0.0217901841031676,0.004520,0.000490,-0.000454,0.209475,0.076948,320.482993,24.218076,0.999300,0.988197,0.004332,0.477383,-0.000032,0.000027,-0.000013,0.000030,-0.000034,-78.511197,0.000037,
2356,2428,2.16535234157501,-4.7281887494694,-0.010384432522244,0.004186,0.000510,-0.001498,0.197488,0.050976,324.192588,23.509042,0.999579,0.989975,0.004186,0.588593,-0.000019,0.000012,0.000005,0.000013,-0.000020,80.637107,0.000021,
2251,2293,-0.0982515949969347,-7.68024942180757,-0.000124466479633156,0.004307,0.000461,-0.002655,0.206405,0.047316,326.553774,23.725213,0.999155,0.984240,0.004970,0.435633,-0.000028,-0.000009,0.000003,-0.000008,-0.000028,81.758349,0.000039,
2116,3193,-3.18350801502262,11.9021649125131,0.0359997152850156,0.004198,0.000537,0.001240,0.190427,0.069108,312.655750,24.501952,0.999634,0.992773,0.003498,0.454433,-0.000030,0.000019,-0.000015,0.000024,-0.000035,-74.308402,0.000035,
2146,2008,-2.33792865204153,-13.9264675424827,0.0290662275901923,0.004505,0.001215,-0.005363,0.222986,0.060268,331.690346,23.959151,0.999007,0.982888,0.005167,0.439454,-0.000034,-0.000088,0.000014,-0.000030,-0.000091,13.917227,0.000126,
2236,2173,-0.403605188343693,-10.3079306821737,0.0110687014852147,0.004365,0.000308,-0.001974,0.206575,0.015819,328.610709,23.681691,0.998618,0.983353,0.005254,0.320313,-0.000029,-0.000026,0.000013,-0.000014,-0.000041,48.226947,0.000057,
2146,2233,-2.37655843268461,-8.99272510383403,0.00556226683448813,0.004054,0.000625,-0.001167,0.189795,0.071604,327.846395,24.158378,0.998839,0.982363,0.005136,0.416421,-0.000009,0.000011,-0.000001,0.000011,-0.000009,-85.868455,0.000012,
2371,2503,2.47818807491735,-3.08815892157469,-0.00779966913825092,0.004301,0.000118,0.001201,0.193188,0.053925,322.998368,23.826313,0.999452,0.988619,0.004303,0.444017,-0.000013,-0.000018,0.000001,-0.000013,-0.000018,8.910563,0.000031,
2221,2143,-0.724894980534096,-10.9657470557452,0.0164502597765477,0.004748,0.000662,-0.001825,0.223674,0.068040,329.188467,23.660604,0.998881,0.982372,0.005283,0.429156,-0.000033,-0.000020,0.000017,-0.000008,-0.000044,55.231352,0.000057,
2281,2383,0.538817515467702,-5.71181426727605,-0.00478587125934382,0.003881,0.000321,-0.001278,0.182477,0.022324,324.991590,23.780079,0.998904,0.983264,0.005199,0.410716,-0.000034,0.000014,0.000000,0.000014,-0.000034,-89.976084,0.000034,
2311,2473,1.1760941553946,-3.7447857128705,-0.00606145223446219,0.004029,0.000102,0.001081,0.181315,0.056376,323.493948,23.867714,0.999183,0.986482,0.004641,0.462107,-0.000018,-0.000012,0.000004,-0.000010,-0.000021,62.320516,0.000032,
2266,2323,0.223662368429391,-7.02332680682026,0.00417218250390761,0.004325,0.000468,-0.001122,0.202305,0.067988,326.075672,23.801522,0.998606,0.980935,0.005689,0.373346,-0.000032,-0.000020,0.000005,-0.000019,-0.000034,70.909138,0.000053,
2131,2023,-2.66888510351646,-13.5941156103951,0.0148286200326311,0.004437,0.000083,-0.001266,0.207156,0.033758,331.373384,24.197679,0.999185,0.984175,0.005192,0.287770,-0.000036,-0.000081,0.000007,-0.000035,-0.000082,8.106617,0.000120,
2161,3268,-2.22186552484808,13.5316899464529,0.018608213549669,0.004215,0.000610,0.000841,0.192356,0.069833,311.096305,24.736179,0.999620,0.994586,0.003183,0.478121,-0.000019,0.000004,-0.000013,0.000010,-0.000025,-65.682506,0.000026,
2326,2278,1.53977359358668,-8.00796303050257,-0.0017447879847623,0.004086,0.000518,-0.002722,0.196869,0.042321,326.691862,23.417308,0.999147,0.984175,0.004878,0.392963,-0.000037,-0.000024,-0.000008,-0.000021,-0.000041,-65.236257,0.000062,
2161,2053,-2.01876883936824,-12.9385587389886,0.0246853398567737,0.004413,0.000077,0.001142,0.198789,0.050068,330.853362,23.952747,0.999141,0.984438,0.004941,0.373735,-0.000020,-0.000048,0.000021,-0.000009,-0.000059,28.127506,0.000074,
2131,3118,-2.84664506682484,10.2788378901021,0.0235980141825394,0.004224,0.000794,0.001128,0.191941,0.092209,313.711908,24.561275,0.999728,0.995821,0.002965,0.467367,-0.000027,0.000020,-0.000010,0.000022,-0.000029,-77.942482,0.000031,
2206,2053,-1.03787390814087,-12.9382033871552,0.014053870855264,0.003880,0.000327,-0.002476,0.185672,0.026199,330.614614,23.690485,0.998692,0.976798,0.005823,0.322362,-0.000032,-0.000035,0.000009,-0.000024,-0.000042,39.476339,0.000067,
2146,3148,-2.52683432769877,10.9301256893657,0.0234523867750909,0.004015,0.000584,0.004395,0.172195,0.073002,313.138727,24.622620,0.999530,0.993457,0.003416,0.460198,-0.000028,0.000019,-0.000007,0.000020,-0.000029,-81.948887,0.000030,
2416,2743,3.41087609811649,2.15003374344219,-0.0282483186289255,0.004336,0.000774,-0.003739,0.213270,0.071854,318.984745,24.508850,0.999444,0.990400,0.003933,0.461175,-0.000019,0.000025,-0.000007,0.000026,-0.000020,-80.958283,0.000027,
2296,2413,0.860350442604389,-5.05566673351006,-0.00302820905375256,0.003899,0.000120,0.000112,0.178571,0.015531,324.500346,23.850479,0.999317,0.987315,0.004650,0.347859,-0.000034,0.000008,-0.000002,0.000009,-0.000034,-87.180749,0.000035,
2131,2038,-2.67174671186725,-13.2663345641846,0.0128826033076734,0.004223,-0.000274,0.000973,0.190568,0.025499,331.100938,24.079336,0.999334,0.984160,0.005210,0.407160,-0.000034,-0.000078,0.000007,-0.000033,-0.000079,8.797505,0.000115,
2131,2488,-2.74561458262188,-3.41988888044527,-0.0209739518132892,0.004511,0.000244,-0.003039,0.216568,0.041667,323.599505,24.248593,0.999430,0.987852,0.004469,0.494123,-0.000009,-0.000002,-0.000012,0.000007,-0.000019,-53.103541,0.000019,
2341,2368,1.85024950836705,-6.03774073712844,-0.0150011329487256,0.004935,0.001071,-0.005492,0.245810,0.069779,325.171690,23.536851,0.999028,0.985751,0.004785,0.468695,-0.000032,0.000000,0.000007,0.000001,-0.000033,78.551030,0.000038,
2161,3283,-2.22433629386737,13.8568752673899,0.0203363529030867,0.004200,0.000931,0.001000,0.191306,0.089558,310.863658,24.765116,0.999699,0.995320,0.002919,0.477317,-0.000015,0.000006,-0.000011,0.000011,-0.000019,-66.767604,0.000019,
2386,2593,2.78716718595404,-1.12255941291034,-0.0158894368514098,0.004406,0.000043,0.002484,0.193369,0.045974,321.478795,24.069932,0.999445,0.988533,0.004375,0.427187,-0.000017,0.000010,-0.000004,0.000011,-0.000018,-81.723069,0.000018,
2191,2068,-1.36794487598097,-12.6092091944217,0.00472662121484291,0.004383,0.000141,-0.001087,0.204307,0.016318,330.356636,23.681251,0.999312,0.984886,0.005090,0.436777,-0.000021,-0.000035,0.000021,-0.000006,-0.000050,35.342913,0.000061,
2251,2308,-0.1003695939342,-7.35224114144354,0.00109858003202135,0.004551,0.000521,-0.005267,0.226186,0.042809,326.341671,23.756107,0.998570,0.981286,0.005465,0.425490,-0.000027,-0.000011,0.000003,-0.000011,-0.000028,79.906921,0.000039,
2371,2518,2.47516209048553,-2.76105635948068,-0.0120111288520661,0.004371,0.000008,-0.000025,0.200696,0.046959,322.727718,23.798544,0.999398,0.987333,0.004586,0.507192,-0.000012,-0.000016,0.000001,-0.000011,-0.000016,16.258584,0.000028,
2116,3208,-3.18526250989345,12.2265084540692,0.0439687869520071,0.004440,0.000304,0.001699,0.200215,0.066965,312.487113,24.490911,0.999674,0.994163,0.003167,0.465533,-0.000033,0.000015,-0.000020,0.000022,-0.000040,-70.343459,0.000040,
2356,2443,2.16278458099609,-4.40022384500734,-0.00598398268380151,0.003976,0.000278,-0.003409,0.194471,0.034638,323.983170,23.624315,0.999120,0.983086,0.005017,0.497121,-0.000016,-0.000011,0.000004,-0.000009,-0.000018,62.638729,0.000027,
2146,2473,-2.4166446601576,-3.74645719407373,-0.0157751288893451,0.004217,0.001131,-0.005093,0.209663,0.081448,323.817481,24.256041,0.999315,0.986862,0.004849,0.484517,-0.000014,0.000000,-0.000011,0.000006,-0.000020,-61.975035,0.000020,
2401,2668,3.09928851840275,0.514601927354029,-0.025251704982054,0.004457,0.000600,-0.004675,0.221919,0.057435,320.222477,24.283123,0.999293,0.989016,0.004329,0.438687,-0.000031,0.000037,-0.000013,0.000039,-0.000033,-79.208507,0.000042,
2326,2293,1.53702524685216,-7.67980030164333,0.00109287112587708,0.004185,0.000276,0.001017,0.188450,0.066067,326.464680,23.446606,0.999100,0.984792,0.004875,0.424118,-0.000037,-0.000013,-0.000007,-0.000011,-0.000039,-75.933712,0.000053,
2146,2248,-2.3788841065801,-8.66379932805843,-0.00121446802523906,0.004325,0.001187,-0.005473,0.215442,0.066671,327.573945,24.169015,0.998879,0.982189,0.005190,0.411454,-0.000015,0.000010,-0.000001,0.000010,-0.000015,-87.916766,0.000015,
2146,2023,-2.34108815941571,-13.5963573095009,0.0253239221248691,0.004511,-0.000001,0.002092,0.200422,0.050313,331.395888,24.027963,0.998724,0.982701,0.005191,0.372463,-0.000030,-0.000076,0.000014,-0.000027,-0.000080,15.572448,0.000111,
2281,2398,0.536073543521706,-5.38373788447301,-0.00413470585738196,0.004205,-0.000612,0.004342,0.178282,0.041863,324.750043,23.818480,0.999018,0.986085,0.005014,0.420956,-0.000030,0.000016,0.000000,0.000016,-0.000030,-89.515408,0.000030,
2161,3298,-2.22701639830074,14.1816260588598,0.0173150257282941,0.004236,0.000896,0.000292,0.195045,0.068310,310.596408,24.772744,0.999811,0.996638,0.002515,0.456874,-0.000008,0.000024,-0.000018,0.000032,-0.000016,-65.755791,0.000032,
2266,2338,0.22054342271608,-6.69447552366461,-0.00778697657733574,0.004428,0.000918,-0.005406,0.221354,0.062923,325.752665,23.790412,0.998972,0.983739,0.005176,0.407122,-0.000028,-0.000006,0.000002,-0.000006,-0.000029,84.915637,0.000037,
2221,2158,-0.727946849862661,-10.63692234162,0.0132056647937588,0.004450,0.000314,-0.002486,0.212048,0.036493,328.908655,23.692460,0.998890,0.984181,0.005265,0.387765,-0.000032,-0.000016,0.000012,-0.000010,-0.000038,60.958161,0.000051,
2161,2068,-2.02136883356255,-12.6102820249714,0.0253804316451465,0.004249,-0.000340,0.001714,0.189380,0.034812,330.609399,23.926744,0.999416,0.984960,0.004873,0.398009,-0.000018,-0.000025,0.000025,0.000004,-0.000047,40.472729,0.000052,
2131,2248,-2.70586896650059,-8.66396933352199,-0.00306330653609166,0.004280,0.000777,-0.005068,0.211830,0.046089,327.614687,24.218356,0.998962,0.982988,0.005158,0.409370,-0.000013,0.000016,0.000000,0.000016,-0.000013,-89.215033,0.000017,
2146,3163,-2.52809275462521,11.2550955352734,0.0322181096777285,0.004507,0.000772,0.001478,0.203877,0.082221,312.998373,24.654392,0.999536,0.992635,0.003528,0.444196,-0.000027,0.000022,-0.000009,0.000023,-0.000029,-80.041851,0.000031,
2131,2053,-2.67363032566323,-12.9366563308275,0.0162399525064529,0.004441,0.000215,-0.000061,0.203842,0.050331,330.900847,24.165450,0.998848,0.980536,0.005464,0.354749,-0.000033,-0.000063,0.000011,-0.000029,-0.000067,17.756236,0.000099,
2236,2188,-0.40580750487117,-9.97839686976581,0.00924373341905493,0.004789,0.000420,-0.003534,0.231128,0.036548,328.377920,23.752602,0.999063,0.986236,0.004840,0.293998,-0.000030,-0.000016,0.000004,-0.000015,-0.000031,77.254011,0.000047,
2206,2068,-1.03924165120747,-12.6105514806674,0.0240388108584852,0.004398,0.000540,-0.001734,0.207155,0.039860,330.478443,23.682958,0.998990,0.979983,0.005524,0.362835,-0.000029,-0.000025,0.000013,-0.000014,-0.000040,49.080474,0.000056,
2416,2758,3.40778626692023,2.4762724176869,-0.0249376746457983,0.004105,0.000756,-0.001504,0.194483,0.081606,318.749387,24.525739,0.999485,0.989670,0.004019,0.501845,-0.000014,0.000022,-0.000004,0.000022,-0.000015,-83.260776,0.000023,
2311,2488,1.17372383343013,-3.41724659062432,-0.0034177167073608,0.004073,0.000533,-0.000826,0.190045,0.077802,323.281573,23.903078,0.999286,0.987537,0.004381,0.481398,-0.000019,-0.000015,0.000003,-0.000014,-0.000020,63.946552,0.000034,
2131,3133,-2.84901158257619,10.6032779899321,0.029741394263624,0.004121,0.000198,0.003717,0.179197,0.058295,313.506084,24.564419,0.999700,0.995388,0.002968,0.434761,-0.000027,0.000017,-0.000007,0.000018,-0.000029,-80.682530,0.000029,
2386,2608,2.78442839038842,-0.795023803648206,-0.019624498279768,0.004494,0.000714,-0.002078,0.214101,0.078673,321.224342,24.077443,0.999356,0.988467,0.004261,0.496614,-0.000016,0.000007,-0.000004,0.000008,-0.000017,-80.032079,0.000017,
2191,2083,-1.36957315246279,-12.2788594626225,0.00612955877596733,0.004814,0.000747,-0.006373,0.240770,0.014954,330.162882,23.845207,0.999314,0.984035,0.005148,0.288914,-0.000017,-0.000023,0.000018,-0.000002,-0.000038,40.837672,0.000045,
2356,2458,2.15967947491707,-4.07049150040414,-0.0150553768694976,0.004447,0.000310,-0.003039,0.214840,0.033526,323.683914,23.765470,0.999320,0.986656,0.004556,0.395346,-0.000017,-0.000017,0.000004,-0.000013,-0.000021,47.275079,0.000034,
2146,2488,-2.41930221089915,-3.41900660059964,-0.022231015409659,0.004504,0.000687,-0.004177,0.219976,0.070030,323.531643,24.230862,0.999256,0.986740,0.004703,0.507598,-0.000015,0.000001,-0.000016,0.000011,-0.000025,-58.055348,0.000025,
2131,2503,-2.74842792149645,-3.0923696983465,-0.0282341448317425,0.004677,0.000254,-0.001885,0.220764,0.036565,323.300771,24.221496,0.999213,0.986666,0.004584,0.523039,-0.000006,-0.000001,-0.000012,0.000008,-0.000015,-51.580965,0.000015,
2176,1993,-1.68036646612536,-14.2564567206256,0.0354466932079731,0.004607,0.000743,-0.003549,0.222241,0.031600,331.879122,23.840361,0.999181,0.982681,0.005250,0.306597,-0.000007,-0.000105,0.000000,-0.000007,-0.000105,-0.276040,0.000126,
2296,2428,0.858031059060377,-4.72785396457562,-0.00232548815358768,0.004301,0.000236,0.000757,0.194950,0.050422,324.279635,23.859803,0.999496,0.989136,0.004309,0.404986,-0.000026,0.000007,-0.000002,0.000007,-0.000026,-86.022778,0.000027,
2371,2533,2.47214932098779,-2.43244892280284,-0.015987426454501,0.004398,0.000366,-0.001833,0.208538,0.060118,322.458376,23.896154,0.999414,0.987875,0.004484,0.465102,-0.000013,-0.000016,0.000004,-0.000010,-0.000018,35.751851,0.000029,
2251,2323,-0.104142200735442,-7.02373926388416,0.000364526629653028,0.004032,-0.000035,0.002543,0.176690,0.054467,326.043740,23.801846,0.998734,0.983461,0.005223,0.417156,-0.000024,-0.000019,0.000004,-0.000016,-0.000027,60.504845,0.000044,
2146,2038,-2.34412292026316,-13.2666284435013,0.0197242412010041,0.004159,0.000065,0.000503,0.189103,0.031099,331.097410,24.056460,0.999023,0.983607,0.005127,0.336601,-0.000028,-0.000075,0.000012,-0.000025,-0.000078,14.013206,0.000108,
2341,2383,1.8470444125536,-5.70930494964539,-0.0147404186829476,0.004762,0.000460,-0.002391,0.226897,0.045753,324.912093,23.644549,0.999336,0.986466,0.004679,0.375564,-0.000028,0.000006,0.000004,0.000007,-0.000028,83.369878,0.000029,
2161,2293,-2.05904739886789,-7.67975905307329,-0.00603276151633736,0.004843,0.000943,-0.008478,0.248569,0.038608,326.787204,24.094359,0.998657,0.982124,0.005383,0.426912,-0.000012,-0.000006,-0.000011,0.000002,-0.000020,-53.452930,0.000022,
2401,2683,3.09638993758302,0.842219926056501,-0.02702302838577,0.004764,0.000901,-0.002883,0.229627,0.069614,319.970939,24.360379,0.999376,0.988571,0.004290,0.419837,-0.000027,0.000042,-0.000012,0.000044,-0.000029,-80.663595,0.000045,
2326,2308,1.53412579474972,-7.35124059140115,-0.00155117869087462,0.004253,0.000106,0.000845,0.192147,0.053189,326.203925,23.498780,0.998975,0.984245,0.005013,0.395461,-0.000039,-0.000018,-0.000007,-0.000016,-0.000041,-72.830389,0.000059,
2221,2173,-0.730272427211016,-10.3089791895119,0.0138417768800423,0.004513,0.000467,-0.004381,0.221052,0.030865,328.681862,23.664811,0.998935,0.984110,0.005108,0.431375,-0.000028,-0.000025,0.000010,-0.000016,-0.000037,49.617936,0.000054,
2266,2353,0.217495227031691,-6.36711333863158,-0.00815197838852555,0.004272,0.000432,-0.002630,0.204881,0.044208,325.491269,23.776836,0.999164,0.984131,0.005079,0.429483,-0.000032,0.000008,0.000002,0.000008,-0.000032,86.465435,0.000033,
2161,2083,-2.02358854858049,-12.2796559085857,0.021479207311927,0.004321,0.000601,-0.004632,0.212393,0.027863,330.358303,24.061151,0.999355,0.984317,0.005022,0.270063,-0.000013,-0.000013,0.000020,0.000008,-0.000033,45.092250,0.000035,
2281,2413,0.53332076779683,-5.05622759653077,-0.0019255244739611,0.003983,-0.000330,0.004300,0.168313,0.034908,324.516020,23.851218,0.999237,0.987768,0.004599,0.410756,-0.000028,0.000014,-0.000001,0.000014,-0.000028,-88.915746,0.000028,
2146,2263,-2.38154573701444,-8.3353281556571,-0.00398722681342178,0.004520,0.000448,-0.001944,0.213511,0.066332,327.307339,24.180563,0.998914,0.982722,0.005271,0.409710,-0.000013,0.000002,-0.000001,0.000002,-0.000013,-86.243328,0.000014,
2131,2068,-2.67535090828951,-12.6081265905359,0.0240455663852686,0.004577,0.000669,-0.000330,0.211000,0.077472,330.731997,24.198933,0.998385,0.975504,0.006007,0.357010,-0.000030,-0.000038,0.000017,-0.000017,-0.000051,38.156609,0.000071,
2176,2008,-1.684777299485,-13.9262072265414,0.0213115279757403,0.003842,0.000240,-0.000391,0.177255,0.046559,331.476139,23.773477,0.999183,0.984859,0.004967,0.405497,-0.000016,-0.000077,0.000012,-0.000014,-0.000079,11.074696,0.000101,
2236,2203,-0.408465387239854,-9.65197578778706,0.0125943593570241,0.004496,0.001108,-0.003237,0.216973,0.074286,328.150930,23.582229,0.999365,0.989225,0.004441,0.525792,-0.000031,-0.000017,-0.000001,-0.000017,-0.000031,-84.079861,0.000048,
2386,2623,2.78068139030843,-0.468341163072239,-0.0197166770773265,0.004055,0.000023,0.003097,0.175121,0.060027,320.941114,24.094442,0.999255,0.987999,0.004276,0.505053,-0.000019,0.000012,-0.000008,0.000014,-0.000021,-76.467797,0.000022,
2206,2083,-1.04251958709628,-12.2813932335927,0.0178885123465307,0.004235,0.000142,0.000469,0.192643,0.024347,330.171978,23.668437,0.999031,0.979172,0.005591,0.382514,-0.000024,-0.000015,0.000012,-0.000007,-0.000033,55.633054,0.000042,
2296,2443,0.854516310920037,-4.40110820319074,-0.0145741787159182,0.004524,-0.000518,0.002254,0.199849,0.034057,323.940432,23.706390,0.999568,0.989427,0.004230,0.573880,-0.000020,-0.000004,0.000002,-0.000004,-0.000020,82.647676,0.000026,
2131,2263,-2.70784252842554,-8.33753977643779,0.00642595241987465,0.004259,-0.000001,-0.002432,0.202796,0.013926,327.443950,24.199826,0.998865,0.983356,0.005219,0.403383,-0.000010,0.000010,0.000002,0.000010,-0.000010,85.181037,0.000011,
2146,3178,-2.53073346412338,11.5796812643409,0.0364028577721456,0.004161,0.000627,0.002188,0.185758,0.080634,312.770304,24.637174,0.999455,0.991728,0.003583,0.466576,-0.000027,0.000020,-0.000011,0.000022,-0.000029,-77.133097,0.000031,
2191,2098,-1.3730636082187,-11.9510815498923,-0.00491024057356526,0.004779,0.000166,-0.003387,0.229702,0.016237,329.819961,23.641500,0.999437,0.986283,0.004965,0.512065,-0.000016,-0.000014,0.000020,0.000005,-0.000035,46.552654,0.000038,
2311,2503,1.1707918967109,-3.08980621214721,-0.00832685238691511,0.004218,0.000495,-0.001429,0.198733,0.051432,323.006475,23.913077,0.999409,0.989126,0.004124,0.478556,-0.000023,-0.000015,-0.000001,-0.000015,-0.000023,-84.028747,0.000038,
2161,2308,-2.06195199821688,-7.35182188217903,0.00523924081147698,0.004352,-0.000085,0.001885,0.194019,0.047999,326.584606,24.204256,0.998708,0.982644,0.005297,0.338500,-0.000011,-0.000010,-0.000015,0.000004,-0.000025,-45.813935,0.000027,
2131,3148,-2.85137538084415,10.9284590932325,0.0307809989236603,0.004051,0.000680,0.001631,0.182383,0.074143,313.272753,24.558254,0.999671,0.994197,0.003086,0.461168,-0.000029,0.000021,-0.000006,0.000022,-0.000029,-83.012895,0.000030,
2146,2053,-2.34626508625214,-12.9387096562232,0.0265933204954081,0.004124,-0.000121,0.002802,0.180493,0.059458,330.905479,24.017829,0.998917,0.982958,0.005151,0.414609,-0.000028,-0.000063,0.000015,-0.000022,-0.000068,20.754922,0.000094,
2356,2473,2.15686272295662,-3.74300183789872,-0.0111153021642281,0.004336,0.000184,-0.000821,0.201943,0.053370,323.460704,23.806455,0.999566,0.988717,0.004176,0.414338,-0.000018,-0.000016,0.000005,-0.000012,-0.000022,50.773778,0.000035,
2131,2518,-2.75054322993644,-2.76571696935285,-0.0140540272759608,0.004339,0.000080,0.002297,0.192716,0.055752,323.148364,24.289700,0.999206,0.987379,0.004480,0.480441,-0.000007,-0.000001,-0.000002,-0.000001,-0.000008,-76.318453,0.000009,
2146,2503,-2.42239212408335,-3.09140096041577,-0.0266491150520665,0.004250,0.000450,-0.002910,0.204361,0.054351,323.236750,24.248449,0.999110,0.985600,0.004795,0.483442,-0.000012,0.000002,-0.000015,0.000011,-0.000021,-57.202647,0.000021,
2221,2188,-0.732534019827426,-9.97896182124806,0.00706656835137665,0.005166,0.000993,-0.006343,0.257493,0.035729,328.419736,23.743083,0.998856,0.982386,0.005285,0.379791,-0.000028,-0.000013,0.000002,-0.000013,-0.000029,83.486219,0.000043,
2266,2368,0.21481073633079,-6.03832662907998,-0.0123141307899459,0.004716,0.000503,-0.000486,0.218206,0.056389,325.227083,23.830887,0.999058,0.984120,0.005055,0.415195,-0.000037,0.000014,0.000001,0.000014,-0.000037,88.951309,0.000038,
2131,2083,-2.67907412826558,-12.2780639155888,0.00892167041479297,0.004263,0.000486,0.000112,0.195295,0.050443,330.349938,24.178291,0.998825,0.979317,0.005585,0.360351,-0.000027,-0.000026,0.000012,-0.000015,-0.000038,46.650549,0.000055,
2371,2548,2.46908419764346,-2.10554002357589,-0.0118288644400195,0.004085,0.000200,0.000879,0.184461,0.039649,322.225850,23.949225,0.999349,0.987068,0.004626,0.433344,-0.000011,-0.000013,0.000002,-0.000010,-0.000014,27.190558,0.000024,
2251,2338,-0.107272133294327,-6.69524076356019,-0.00187111449662325,0.003648,0.000169,0.001780,0.161624,0.041662,325.767727,23.861978,0.999010,0.984761,0.005036,0.369514,-0.000024,-0.000006,0.000001,-0.000006,-0.000024,87.466365,0.000031,
2176,2023,-1.68610461812775,-13.5968086916957,0.0222434932227884,0.004609,0.000942,-0.005019,0.226911,0.076089,331.292442,23.791595,0.998811,0.985330,0.004970,0.432566,-0.000014,-0.000070,0.000014,-0.000011,-0.000073,13.226356,0.000091,
2416,2773,3.40484368597207,2.80215112979664,-0.0193935249017159,0.003815,0.000592,0.000394,0.174155,0.083954,318.531290,24.538412,0.999527,0.989343,0.004070,0.539274,-0.000018,0.000012,-0.000010,0.000015,-0.000021,-73.073458,0.000021,
2236,2218,-0.411525805477094,-9.3218768136605,0.00273712427997452,0.004657,0.000635,-0.004554,0.228467,0.038412,327.838231,23.688541,0.998951,0.983995,0.005044,0.407677,-0.000029,-0.000022,-0.000002,-0.000021,-0.000030,-75.222773,0.000051,
2401,2698,3.09241707145643,1.16887882570256,-0.0329885154924909,0.004467,0.000137,0.000655,0.202897,0.051611,319.650479,24.350408,0.999465,0.990478,0.003956,0.457408,-0.000027,0.000050,-0.000012,0.000052,-0.000029,-81.036746,0.000052,
2161,2098,-2.02598038728107,-11.9514166295164,0.0216194201564122,0.004476,0.000682,-0.002914,0.214344,0.037625,330.120789,24.011665,0.999522,0.984972,0.004965,0.342428,-0.000010,-0.000008,0.000022,0.000013,-0.000032,46.403672,0.000032,
2281,2428,0.530841695930203,-4.72815208166906,-0.00389957608172153,0.004135,0.000242,0.001431,0.185149,0.058944,324.273453,23.869915,0.999477,0.989661,0.004261,0.445349,-0.000021,0.000012,-0.000001,0.000012,-0.000021,-87.666685,0.000021,
2341,2398,1.84401321786548,-5.38213679011277,-0.00872175273781295,0.004208,0.000350,-0.000677,0.195525,0.061478,324.688341,23.656598,0.999610,0.988537,0.004411,0.417260,-0.000025,0.000011,0.000004,0.000012,-0.000025,83.078231,0.000025,
2206,2098,-1.04511732966943,-11.9523480061324,0.0168069110652596,0.004231,0.000013,0.000176,0.193346,0.023974,329.922564,23.690160,0.999102,0.982239,0.005294,0.380229,-0.000024,-0.000007,0.000015,0.000002,-0.000033,59.137963,0.000037,
2326,2323,1.53098191265056,-7.02312237509598,-0.0043170435123443,0.004003,0.000177,-0.000380,0.184931,0.047505,325.931357,23.507728,0.998950,0.982112,0.005322,0.417601,-0.000042,-0.000028,-0.000002,-0.000027,-0.000042,-80.629849,0.000070,
2296,2458,0.851969603466163,-4.07160748692785,-0.0154103413469784,0.004739,-0.000151,0.001735,0.211628,0.037652,323.701386,23.897835,0.999325,0.987657,0.004541,0.417271,-0.000023,-0.000014,0.000002,-0.000014,-0.000023,79.502341,0.000037,
2131,2533,-2.75330307167268,-2.43842874814621,-0.014878855182701,0.004035,0.000095,0.001812,0.180214,0.061214,322.886382,24.298598,0.999093,0.986716,0.004564,0.483635,-0.000006,-0.000001,0.000005,0.000003,-0.000009,58.130718,0.000009,
2191,2113,-1.3743650451923,-11.6228170874547,0.0154807670419927,0.004640,0.000349,-0.002715,0.221284,0.031236,329.739610,23.816912,0.999047,0.983001,0.005230,0.368525,-0.000015,-0.000009,0.000017,0.000005,-0.000029,50.294574,0.000031,
2266,2383,0.211485564984223,-5.7106467893266,-0.0175919651218805,0.004302,0.000289,-0.002395,0.205468,0.032424,324.928254,23.814734,0.998483,0.980552,0.005482,0.434956,-0.000037,0.000019,0.000003,0.000019,-0.000037,86.460687,0.000037,
2176,2038,-1.68868947040483,-13.2667991676837,0.0213785785927598,0.004607,0.000848,-0.004377,0.224887,0.045774,331.042186,23.910512,0.999050,0.985267,0.004879,0.299271,-0.000014,-0.000068,0.000012,-0.000011,-0.000070,12.333773,0.000088,
2146,2518,-2.42533473397192,-2.76353669977647,-0.0306264554883455,0.004245,0.000240,0.000313,0.194361,0.060623,322.950777,24.277234,0.999136,0.987137,0.004554,0.470050,-0.000012,0.000002,-0.000004,0.000003,-0.000014,-74.389448,0.000014,
2386,2638,2.77810391681066,-0.141032347548851,-0.0186975003306316,0.004219,0.000017,0.002149,0.186045,0.041703,320.716683,24.182466,0.999243,0.987716,0.004331,0.442351,-0.000023,0.000021,-0.000012,0.000024,-0.000026,-75.956014,0.000029,
2236,2233,-0.414710861831121,-8.99304062974394,-0.00155214758228794,0.004740,0.000201,0.000492,0.215848,0.043462,327.548053,23.702909,0.998997,0.984344,0.004908,0.422074,-0.000031,-0.000009,0.000002,-0.000009,-0.000031,85.946025,0.000041,
2146,3193,-2.53339047397708,11.9049958382429,0.0349424559174736,0.004016,0.000608,0.000486,0.184235,0.074939,312.511166,24.661332,0.999513,0.993398,0.003290,0.443286,-0.000030,0.000014,-0.000014,0.000018,-0.000034,-73.366028,0.000034,
2146,2278,-2.38389583979972,-8.0086357041343,-0.00399045168643397,0.004687,-0.000091,-0.000609,0.216995,0.037371,327.070076,24.091719,0.998686,0.982246,0.005394,0.479851,-0.000013,-0.000008,-0.000008,-0.000002,-0.000019,-53.705563,0.000023,
2161,2113,-2.02866894914964,-11.6222778048575,0.0159025601171265,0.004548,0.000491,-0.004031,0.220991,0.022593,329.838984,24.010602,0.999303,0.983462,0.005157,0.341906,-0.000008,-0.000008,0.000020,0.000012,-0.000028,44.575971,0.000028,
2401,2713,3.08921255500541,1.49603812456257,-0.0363038339149853,0.004300,0.000621,-0.001168,0.202079,0.070257,319.377543,24.376558,0.999612,0.991136,0.003782,0.496039,-0.000027,0.000049,-0.000012,0.000051,-0.000028,-81.064575,0.000051,
2281,2443,0.527969859354901,-4.40062423338596,-0.00921991406062261,0.004331,0.000051,0.001166,0.194993,0.062500,323.996363,23.832881,0.999589,0.989976,0.004157,0.515325,-0.000018,0.000003,0.000001,0.000003,-0.000018,86.235642,0.000020,
2206,2113,-1.0476649512186,-11.62386755897,0.0164055603195266,0.004155,0.000104,-0.001140,0.194044,0.031165,329.678960,23.665795,0.998970,0.983416,0.005036,0.431705,-0.000022,-0.000004,0.000013,0.000003,-0.000029,61.769929,0.000032,
2146,2068,-2.34887738483659,-12.6089944474892,0.0254851632792565,0.003985,0.000100,0.002502,0.175157,0.066613,330.649831,24.080141,0.998931,0.981241,0.005334,0.370783,-0.000026,-0.000039,0.000020,-0.000011,-0.000054,35.720284,0.000069,
2131,2548,-2.75538386067682,-2.1110848968279,-0.0163632019074385,0.004305,0.000594,-0.000923,0.201011,0.067005,322.651956,24.311199,0.998768,0.984387,0.004903,0.483394,-0.000005,-0.000006,0.000006,0.000000,-0.000011,42.419467,0.000013,
2131,2098,-2.6810111610958,-11.9483792816911,0.00415681974806148,0.004915,0.000382,-0.001708,0.230590,0.051123,330.104374,24.216141,0.999138,0.984019,0.004948,0.332228,-0.000024,-0.000022,0.000014,-0.000009,-0.000037,47.539344,0.000049,
2311,2518,1.16763715526368,-2.76123391214119,-0.0143446408580417,0.004199,0.000770,-0.002446,0.201435,0.060647,322.715303,23.986856,0.999393,0.987856,0.004223,0.447408,-0.000022,-0.000015,0.000003,-0.000014,-0.000023,66.685300,0.000038,
2131,3163,-2.85346698090997,11.2535313991502,0.0300906272836414,0.004357,0.000652,-0.000634,0.203316,0.071939,313.042710,24.553357,0.999516,0.992302,0.003468,0.468295,-0.000029,0.000026,-0.000009,0.000027,-0.000030,-81.338383,0.000033,
2356,2488,2.15420326269738,-3.41663463663101,-0.00438284131968203,0.004195,0.000100,0.001846,0.186070,0.059351,323.258348,23.788303,0.999459,0.988214,0.004284,0.478633,-0.000016,-0.000019,0.000003,-0.000015,-0.000021,31.725804,0.000036,
2131,2278,-2.71029857008287,-8.00976908224698,0.00687694065749156,0.004607,-0.000975,0.004047,0.199126,-0.002964,327.202757,24.201001,0.998824,0.983023,0.005325,0.393175,-0.000008,-0.000002,-0.000004,0.000000,-0.000010,-64.049312,0.000011,
2296,2473,0.848450008522569,-3.74380830167031,-0.0140440310347572,0.003991,0.000247,0.003716,0.170810,0.063053,323.428834,23.937237,0.998599,0.982962,0.005335,0.434700,-0.000017,-0.000010,0.000004,-0.000008,-0.000019,65.486714,0.000028,
2251,2353,-0.109251515908735,-6.36837807686369,0.00555909157117185,0.003815,0.000068,0.002403,0.167258,0.049663,325.593358,23.851437,0.999177,0.985712,0.004869,0.412941,-0.000030,0.000009,0.000001,0.000009,-0.000030,88.174420,0.000031,
2341,2413,1.84256394570203,-5.05525000951499,0.00258471534993987,0.004309,0.000800,-0.005819,0.218197,0.030177,324.562919,23.743935,0.999655,0.990216,0.004166,0.336459,-0.000027,0.000012,0.000003,0.000012,-0.000028,85.816715,0.000028,
2221,2203,-0.735655890779494,-9.65011729739359,0.00259998000876749,0.004857,0.001369,-0.007371,0.246740,0.053157,328.130141,23.732363,0.999036,0.984455,0.004999,0.429626,-0.000026,-0.000014,-0.000002,-0.000014,-0.000027,-80.026405,0.000041,
2416,2788,3.40187087086788,3.13084826119375,-0.0274516429807932,0.004228,0.000596,-0.002322,0.203106,0.069263,318.247437,24.725303,0.999507,0.989337,0.004122,0.385535,-0.000020,0.000007,-0.000013,0.000012,-0.000025,-67.711509,0.000025,
2161,2323,-2.06454702466601,-7.02473897730842,0.00195232194676009,0.004260,0.000230,-0.000746,0.197975,0.052365,326.319898,24.100306,0.998973,0.984695,0.004974,0.458962,-0.000005,-0.000025,-0.000018,0.000005,-0.000036,-30.751158,0.000038,
2176,2053,-1.69163376080425,-12.9383000767991,0.0227547525599903,0.004431,0.000025,0.001345,0.198913,0.046907,330.787197,23.891187,0.999114,0.985227,0.004781,0.335622,-0.000016,-0.000053,0.000015,-0.000010,-0.000058,19.829223,0.000074,
2266,2398,0.209180953445717,-5.38227996688161,-0.0159412513002621,0.004481,0.000588,-0.003355,0.216983,0.050499,324.710583,23.891344,0.998987,0.986125,0.004808,0.403432,-0.000032,0.000023,0.000005,0.000024,-0.000033,84.706543,0.000034,
2146,3208,-2.5356541934801,12.2297356560742,0.0394301175884948,0.004092,0.000699,0.002118,0.182797,0.080212,312.301968,24.660024,0.999604,0.994363,0.003090,0.456296,-0.000031,0.000011,-0.000018,0.000018,-0.000038,-69.585903,0.000038,
2191,2128,-1.37698277712561,-11.2938582232409,0.0120594513655874,0.004598,0.000755,-0.005141,0.227097,0.038047,329.475781,23.809177,0.998716,0.981333,0.005431,0.400509,-0.000015,-0.000014,0.000014,0.000000,-0.000028,45.696008,0.000033,
2371,2563,2.46614679709728,-1.77760789197644,-0.0145876732017314,0.004244,0.000139,0.001028,0.191242,0.044215,321.965813,24.014361,0.999366,0.988705,0.004375,0.414955,-0.000018,-0.000005,-0.000001,-0.000005,-0.000018,-84.205814,0.000024,
2281,2458,0.525534760030386,-4.07223842424708,-0.0105707909610828,0.004605,0.000248,-0.000118,0.211947,0.060367,323.758867,23.922554,0.999722,0.990624,0.004045,0.452793,-0.000020,-0.000008,0.000000,-0.000008,-0.000020,-88.876157,0.000029,
2386,2653,2.77521814287,0.185820764956773,-0.0197140792449204,0.004303,-0.000095,0.002103,0.190074,0.051460,320.468391,24.188093,0.999205,0.986972,0.004495,0.490411,-0.000029,0.000027,-0.000010,0.000029,-0.000030,-80.219426,0.000034,
2146,2293,-2.38645778909746,-7.68034723261452,-4.68349708171445E-06,0.004240,0.000179,-0.001518,0.199329,0.029550,326.843796,24.172806,0.998609,0.983932,0.005169,0.400836,-0.000013,0.000000,-0.000007,0.000003,-0.000016,-66.487166,0.000017,
2326,2338,1.52942923833736,-6.69660639160192,0.010917038114826,0.004173,0.000108,0.000942,0.188174,0.060523,325.819550,23.533935,0.999171,0.984511,0.004863,0.440098,-0.000037,-0.000020,-0.000005,-0.000019,-0.000038,-73.994188,0.000058,
2146,2083,-2.35228270511991,-12.2781780057561,0.0113887845400882,0.003702,0.000349,-0.001081,0.173099,0.047979,330.289362,24.131221,0.999007,0.981541,0.005306,0.312871,-0.000023,-0.000027,0.000016,-0.000009,-0.000041,41.554780,0.000053,
2146,2533,-2.42717161398283,-2.43751455081466,-0.0200557984836109,0.004208,0.000190,0.000977,0.190651,0.051743,322.792963,24.287635,0.999297,0.988684,0.004185,0.459365,-0.000009,0.000003,0.000001,0.000004,-0.000009,83.467767,0.000009,
2236,2248,-0.417082077365464,-8.66515815372355,0.00526040517428328,0.004588,0.000401,0.001908,0.204421,0.057795,327.351563,23.740493,0.998855,0.982653,0.005280,0.422432,-0.000025,-0.000016,0.000009,-0.000011,-0.000030,58.666612,0.000043,
2416,2803,3.39898660104575,3.45668363545088,-0.0267114560119239,0.004179,0.000877,-0.002907,0.203116,0.076419,318.009403,24.700506,0.999430,0.988567,0.004333,0.465176,-0.000017,0.000003,-0.000014,0.000011,-0.000024,-62.334497,0.000024,
2161,2128,-2.03192209719276,-11.2930760095873,0.00819030871309678,0.004405,0.000278,-0.001917,0.207908,0.042651,329.520701,23.965023,0.999256,0.982245,0.005308,0.421095,-0.000008,-0.000014,0.000019,0.000008,-0.000030,40.242235,0.000031,
2176,2068,-1.69395706834889,-12.6101670509997,0.0248619319736463,0.004392,0.000057,0.000718,0.199100,0.034403,330.564502,23.865343,0.999329,0.985217,0.004923,0.364320,-0.000014,-0.000033,0.000019,-0.000002,-0.000045,31.913754,0.000053,
2131,2113,-2.6835200550574,-11.6206819206379,0.00866030482529823,0.004528,0.000205,-0.001238,0.211416,0.044434,329.882290,24.187215,0.999180,0.984480,0.004956,0.362914,-0.000019,-0.000019,0.000012,-0.000007,-0.000031,44.891508,0.000041,
2221,2218,-0.738888921259697,-9.32131891474265,0.00558946366447799,0.004149,0.000880,-0.005186,0.207143,0.052596,327.873621,23.818813,0.998911,0.983690,0.005047,0.364154,-0.000027,-0.000017,-0.000003,-0.000016,-0.000027,-74.523536,0.000044,
2206,2128,-1.05001360967214,-11.2946159877532,0.0147345216507233,0.004325,0.000508,-0.003116,0.208243,0.040279,329.437782,23.701492,0.998909,0.982255,0.005238,0.424657,-0.000022,-0.000010,0.000010,-0.000004,-0.000028,59.289353,0.000035,
2281,2473,0.521958608053591,-3.74475816512061,-0.0102860422339859,0.003971,0.000282,0.003492,0.170837,0.087058,323.477244,23.920936,0.999439,0.989189,0.004292,0.510138,-0.000015,-0.000004,0.000001,-0.000004,-0.000015,87.015849,0.000020,
2131,2563,-2.75802411489288,-1.78213994566838,-0.0268897532411074,0.004748,0.000828,-0.001665,0.223728,0.095424,322.343220,24.373432,0.999130,0.987832,0.004474,0.456627,-0.000003,-0.000009,0.000001,-0.000003,-0.000009,6.858349,0.000013,
2131,3178,-2.85564213529402,11.578347250626,0.0314912558559968,0.004530,0.000411,-0.001584,0.214131,0.065755,312.820130,24.545167,0.999226,0.988500,0.004022,0.475009,-0.000028,0.000023,-0.000011,0.000025,-0.000030,-78.668469,0.000032,
2146,3223,-2.53786405509215,12.5543857452649,0.0423177958895735,0.004218,0.000692,0.002080,0.188823,0.090113,312.086765,24.639819,0.999568,0.994736,0.003008,0.492961,-0.000032,0.000015,-0.000019,0.000022,-0.000039,-70.185357,0.000039,
2161,2338,-2.06743785698877,-6.69535914799216,-0.00716089152558652,0.004359,0.000489,-0.002178,0.207010,0.070436,326.010518,24.140842,0.999215,0.988250,0.004421,0.448708,-0.000010,-0.000015,-0.000020,0.000008,-0.000033,-41.677804,0.000035,
2341,2428,1.84004050825492,-4.72901249615474,0.0062248810274923,0.004271,0.000821,-0.006296,0.218138,0.046613,324.351028,23.655398,0.999754,0.993808,0.003664,0.479494,-0.000024,0.000016,0.000001,0.000016,-0.000024,88.904231,0.000025,
2386,2668,2.7722348066434,0.513574675775288,-0.0256988018226139,0.004303,0.000546,-0.002755,0.207764,0.051293,320.191806,24.249784,0.999344,0.988227,0.004322,0.472479,-0.000028,0.000038,-0.000011,0.000040,-0.000029,-80.748004,0.000042,
2296,2488,0.846221356067652,-3.41618247268023,-0.0173684985124396,0.004275,0.000940,-0.002494,0.205060,0.068949,323.192337,23.941745,0.999292,0.988652,0.004345,0.467467,-0.000017,-0.000010,0.000001,-0.000010,-0.000017,84.944505,0.000027,
2266,2413,0.206919098600952,-5.05629964783696,-0.00206666836379554,0.004142,0.000329,0.000299,0.189292,0.056962,324.556631,23.882028,0.999136,0.988011,0.004469,0.446082,-0.000030,0.000022,0.000004,0.000022,-0.000030,85.325204,0.000031,
2311,2533,1.16501462061339,-2.43405855984427,-0.0168492410267618,0.004393,0.000682,-0.004142,0.216143,0.054868,322.466091,23.984584,0.999453,0.988701,0.004137,0.477232,-0.000021,-0.000015,0.000000,-0.000015,-0.000021,89.460437,0.000036,
2326,2353,1.52579324305898,-6.36655024258504,-0.00266543781066275,0.003970,0.000769,-0.004080,0.196429,0.071565,325.471246,23.607432,0.999163,0.983406,0.004783,0.414282,-0.000032,-0.000006,-0.000002,-0.000006,-0.000032,-86.467841,0.000041,
2401,2728,3.08666456464843,1.82268153171049,-0.0298426653218371,0.004289,0.000357,0.000424,0.195680,0.056400,319.180986,24.471314,0.999635,0.990608,0.003943,0.432986,-0.000029,0.000034,-0.000008,0.000035,-0.000030,-82.802570,0.000038,
2236,2263,-0.419676848054852,-8.33688427817057,0.0079720498412712,0.004346,0.000177,0.000996,0.196186,0.055807,327.124011,23.792596,0.999062,0.983414,0.005260,0.391425,-0.000022,-0.000024,0.000007,-0.000016,-0.000030,41.396080,0.000047,
2251,2368,-0.112715320484266,-6.03849957139305,-0.00971996740065606,0.004102,-0.000105,0.002495,0.180092,0.045381,325.235866,23.912804,0.999498,0.988499,0.004539,0.372775,-0.000038,0.000015,-0.000001,0.000015,-0.000038,-88.533239,0.000038,
2146,2308,-2.38886735016581,-7.35326718998846,0.00733557542014296,0.003982,-0.000041,0.001527,0.178199,0.026785,326.642431,24.176484,0.998888,0.983998,0.005128,0.404067,-0.000012,-0.000002,-0.000011,0.000004,-0.000019,-57.406901,0.000020,
2131,2293,-2.71335446593581,-7.6806683440882,-0.000364497608359216,0.004305,-0.000304,0.002057,0.191415,0.028005,326.892732,24.203859,0.998833,0.984503,0.005093,0.429466,-0.000008,0.000004,-0.000003,0.000005,-0.000008,-78.269573,0.000008,
2371,2578,2.46318537309554,-1.45077405921235,-0.0129084763501055,0.004149,-0.000040,0.002722,0.180815,0.053364,321.726016,24.018128,0.999281,0.988124,0.004526,0.462264,-0.000017,0.000012,-0.000002,0.000012,-0.000018,-85.698834,0.000018,
2146,2098,-2.35396364050738,-11.949893389121,0.0147688842526463,0.004328,0.000587,0.000684,0.196578,0.050945,330.100160,24.128413,0.999258,0.984049,0.005021,0.329641,-0.000021,-0.000023,0.000017,-0.000005,-0.000038,43.407824,0.000047,
2356,2503,2.15112068554913,-3.088866222786,-0.00675924038444009,0.004282,-0.000298,0.003729,0.183307,0.039602,322.992555,23.845454,0.999410,0.988404,0.004380,0.441688,-0.000017,-0.000016,0.000000,-0.000016,-0.000017,-75.303007,0.000033,
2146,2548,-2.42916213503119,-2.11073207193393,-0.0196736261584078,0.004412,0.000647,-0.002626,0.211072,0.057048,322.573935,24.266495,0.999069,0.986755,0.004490,0.494635,-0.000008,-0.000004,0.000003,-0.000003,-0.000009,64.375369,0.000012,
2416,2818,3.39654131400573,3.78205602714915,-0.0224003208266481,0.004366,0.000235,-0.002508,0.209934,0.037688,317.808415,24.710411,0.999339,0.989195,0.004215,0.464005,-0.000018,0.000005,-0.000015,0.000012,-0.000025,-63.938614,0.000026,
2191,2143,-1.37941823948206,-10.9646004455199,0.0122050289048161,0.004789,0.000873,-0.003347,0.230313,0.076935,329.238521,23.840837,0.998925,0.982985,0.005217,0.425225,-0.000019,-0.000017,0.000015,-0.000003,-0.000034,46.961035,0.000041,
2176,2083,-1.69652607367024,-12.2795184518909,0.0140954743922634,0.004651,0.000615,-0.004972,0.228749,0.027856,330.263115,23.926148,0.999476,0.985797,0.004946,0.312857,-0.000011,-0.000019,0.000015,0.000001,-0.000031,37.830848,0.000035,
2161,2143,-2.03463372983788,-10.9644944805178,0.00861709354535378,0.004303,0.000295,0.000892,0.194712,0.048203,329.270009,23.971088,0.999294,0.973013,0.006066,0.433613,-0.000010,-0.000015,0.000019,0.000006,-0.000031,41.503771,0.000033,
2281,2488,0.518853516596941,-3.41832952789911,-0.0185392802325737,0.004089,-0.000112,0.002455,0.179532,0.051878,323.175077,23.811325,0.999670,0.991089,0.003978,0.613798,-0.000013,-0.000003,-0.000004,-0.000002,-0.000015,-71.419792,0.000018,
2131,2128,-2.68621052923013,-11.2927049058122,0.00822832918669292,0.004298,-0.000112,-0.000584,0.198824,0.013867,329.625764,24.159001,0.998928,0.982320,0.005216,0.369490,-0.000018,-0.000022,0.000013,-0.000007,-0.000033,41.120680,0.000043,
2221,2233,-0.741144539072582,-8.99377268733164,0.00680188593571529,0.004448,0.000840,-0.004178,0.217645,0.047223,327.652944,23.782013,0.998954,0.984044,0.005080,0.416880,-0.000029,-0.000004,0.000001,-0.000004,-0.000029,88.789105,0.000035,
2206,2143,-1.05235216035213,-10.9647700276469,0.0143117224853881,0.004671,0.000434,-0.001577,0.219272,0.049628,329.203371,23.810184,0.999225,0.983887,0.005023,0.345047,-0.000027,-0.000017,0.000014,-0.000008,-0.000037,55.031327,0.000048,
2131,2578,-2.76094506592209,-1.45413053128512,-0.036932715288799,0.004795,0.000765,-0.003655,0.231856,0.085033,322.024538,24.399157,0.999547,0.992168,0.003961,0.427073,-0.000006,-0.000010,-0.000003,-0.000004,-0.000012,-30.129020,0.000016,
2146,3238,-2.54120819374051,12.8806123656161,0.0317695572140337,0.004076,0.000627,0.001624,0.183568,0.071969,311.747292,24.720404,0.999629,0.994568,0.003012,0.400636,-0.000032,0.000004,-0.000020,0.000013,-0.000041,-66.112018,0.000042,
2131,3193,-2.8583351383543,11.9036570598335,0.0306697093838579,0.004418,0.000574,-0.001226,0.207869,0.055317,312.561673,24.577388,0.999517,0.992311,0.003468,0.436434,-0.000031,0.000016,-0.000014,0.000020,-0.000035,-74.421374,0.000035,
2236,2278,-0.422684528085782,-8.00829722217188,4.89199777575777E-05,0.004485,0.000028,0.000691,0.203529,0.036415,326.823555,23.787901,0.999166,0.984504,0.004941,0.400401,-0.000021,-0.000018,0.000000,-0.000018,-0.000021,-88.292492,0.000039,
2251,2383,-0.115141272601054,-5.71292863314884,-0.0102860384487826,0.004127,-0.000286,-0.000530,0.191029,0.011112,325.001048,23.758845,0.999185,0.986686,0.004706,0.517728,-0.000037,0.000019,0.000001,0.000019,-0.000037,88.581539,0.000037,
2326,2368,1.52257352679094,-6.03860811035839,-0.00943295607169148,0.004079,0.000730,-0.003538,0.199559,0.044613,325.175661,23.598534,0.999324,0.986700,0.004541,0.432633,-0.000035,0.000004,0.000001,0.000004,-0.000035,88.898688,0.000038,
2296,2503,0.842856601248354,-3.08712848132188,-0.0263267792198576,0.004405,0.000734,-0.001218,0.206672,0.051455,322.875601,24.054801,0.999611,0.993018,0.003688,0.368174,-0.000020,-0.000012,-0.000003,-0.000011,-0.000021,-70.103425,0.000032,
2401,2743,3.08372165097479,2.14974351468015,-0.0358408508106436,0.004516,0.000724,-0.002431,0.216603,0.064078,318.907343,24.487363,0.999541,0.990510,0.003926,0.470450,-0.000027,0.000027,-0.000008,0.000028,-0.000028,-82.104547,0.000033,
2341,2443,1.83615374347491,-4.39905267647332,-0.00867780469400259,0.004342,0.000600,-0.006311,0.221405,0.033076,323.986240,23.768676,0.999466,0.988290,0.004357,0.391041,-0.000020,-0.000006,0.000000,-0.000006,-0.000020,-88.538583,0.000027,
2356,2518,2.14807752427904,-2.76151715689996,-0.00892871792302685,0.003943,-0.000147,-0.000173,0.181529,0.031638,322.729544,23.859438,0.999286,0.986918,0.004551,0.459629,-0.000015,-0.000014,0.000001,-0.000013,-0.000016,48.436554,0.000029,
2146,2113,-2.35550813504664,-11.623531339049,0.030225932377391,0.004237,0.000263,0.001679,0.189305,0.045721,329.981296,24.094783,0.999367,0.985661,0.004867,0.368353,-0.000017,-0.000021,0.000014,-0.000005,-0.000034,41.109395,0.000042,
2281,2503,0.516306806567922,-3.08831573328396,-0.0171674307440526,0.004203,0.000079,0.003034,0.182928,0.058744,322.945523,24.081526,0.999657,0.992301,0.003815,0.379255,-0.000015,-0.000006,-0.000007,-0.000002,-0.000019,-61.111230,0.000023,
2416,2833,3.39335401107717,4.10924070757775,-0.0219729691804673,0.004341,0.000180,0.000560,0.197589,0.051391,317.554501,24.809187,0.998895,0.986847,0.004482,0.426437,-0.000021,0.000010,-0.000011,0.000014,-0.000025,-72.073290,0.000025,
2191,2158,-1.3815158816641,-10.6381486225101,0.0257062531782708,0.004362,0.000457,-0.002011,0.206416,0.047712,329.086614,23.832280,0.999128,0.985466,0.004936,0.421546,-0.000019,-0.000012,0.000010,-0.000005,-0.000026,54.630953,0.000034,
2386,2683,2.76889630060331,0.842544983521208,-0.0338116955388728,0.004669,0.000710,-0.000680,0.217228,0.070913,319.888401,24.391391,0.999414,0.987755,0.004212,0.394286,-0.000026,0.000044,-0.000011,0.000046,-0.000028,-81.197892,0.000046,
2311,2548,1.16171444656713,-2.10615532984396,-0.020891403726921,0.004305,0.000794,-0.002124,0.205297,0.069763,322.177963,24.020017,0.999342,0.986071,0.004585,0.490063,-0.000014,-0.000010,0.000001,-0.000010,-0.000014,82.922294,0.000025,
2371,2593,2.46013298429134,-1.12405421013183,-0.013826088322844,0.004102,-0.000443,0.003598,0.175395,0.035903,321.469685,24.020004,0.999268,0.988130,0.004425,0.484806,-0.000014,0.000012,-0.000004,0.000013,-0.000015,-82.039057,0.000016,
2161,2353,-2.07005956622662,-6.36745659368762,-0.0114054321999788,0.004497,0.000423,-0.002102,0.213099,0.057268,325.739429,24.131378,0.999033,0.986711,0.004641,0.457079,-0.000016,0.000001,-0.000019,0.000013,-0.000028,-57.141257,0.000028,
2176,2098,-1.69970134368919,-11.9509172884143,0.00169033895184612,0.004848,0.000458,-0.004057,0.234922,0.036411,329.925676,23.774425,0.999375,0.984505,0.005091,0.489186,-0.000009,-0.000010,0.000018,0.000008,-0.000028,44.181889,0.000029,
2146,2323,-2.39139978464896,-7.02476956802047,0.0040546999478579,0.004103,0.000039,0.001440,0.184074,0.038709,326.378953,24.193877,0.999211,0.984355,0.005053,0.408391,-0.000008,-0.000015,-0.000014,0.000003,-0.000026,-38.041932,0.000029,
2266,2428,0.204045775277581,-4.72739932159609,-0.00751553205884647,0.004289,0.000831,-0.000380,0.198457,0.073593,324.277150,23.950706,0.999275,0.988896,0.004305,0.421096,-0.000024,0.000019,0.000002,0.000019,-0.000024,87.656111,0.000026,
2131,2308,-2.7153267938895,-7.35196142082496,-0.00223702324547048,0.004657,0.000286,-0.001151,0.217381,0.038460,326.660971,24.250708,0.999023,0.985062,0.004994,0.400816,-0.000007,0.000001,-0.000007,0.000005,-0.000010,-60.922624,0.000010,
2161,2533,-2.10110106535503,-2.43634302387899,-0.025307008772586,0.004294,0.000350,0.000140,0.197137,0.057431,322.699108,24.284362,0.999081,0.987822,0.004422,0.442424,-0.000009,0.000004,0.000001,0.000004,-0.000009,86.436179,0.000009,
2251,2398,-0.117302645287399,-5.38412315805427,-0.00965620437813186,0.004439,-0.000043,-0.002342,0.211378,0.010161,324.783609,23.884006,0.999312,0.989854,0.004269,0.416469,-0.000032,0.000023,0.000003,0.000023,-0.000032,86.743818,0.000033,
2221,2248,-0.743889320455285,-8.66564617408748,-0.0010097816493726,0.004848,0.000592,-0.003834,0.234812,0.031677,327.363691,23.720882,0.998908,0.983727,0.005115,0.484064,-0.000028,-0.000010,0.000005,-0.000009,-0.000029,76.369115,0.000039,
2176,2128,-1.70502662287218,-11.2934899951376,0.0105340142490604,0.004209,-0.000401,0.000613,0.190940,0.000507,329.473164,23.929245,0.998917,0.981450,0.005427,0.328871,-0.000009,-0.000014,0.000014,0.000003,-0.000025,39.488882,0.000028,
2146,3253,-2.54382199420397,13.2057458167621,0.0221130891943062,0.004460,0.000744,-0.001009,0.209357,0.070304,311.446517,24.693930,0.999647,0.994149,0.003077,0.432016,-0.000030,0.000000,-0.000019,0.000009,-0.000039,-64.095817,0.000040,
2146,2563,-2.43152575939108,-1.78387903425992,-0.0149496138180325,0.004259,0.000543,-0.001704,0.201299,0.075064,322.360752,24.282123,0.999078,0.986487,0.004505,0.505424,-0.000005,-0.000009,-0.000002,-0.000005,-0.000010,-21.712931,0.000014,
2161,2158,-2.039787294461,-10.6284211578517,-0.0361136529617738,0.004478,0.000363,-0.001498,0.210091,0.033354,328.669612,24.204670,0.999858,0.945946,0.008323,0.200012,-0.000007,-0.000012,0.000012,0.000003,-0.000021,38.626582,0.000023,
2131,3208,-2.86019863681888,12.2285411335615,0.0389587770301318,0.004553,0.000665,-0.000698,0.212625,0.075589,312.390286,24.596386,0.999694,0.994572,0.003060,0.442290,-0.000033,0.000013,-0.000019,0.000019,-0.000039,-70.392962,0.000039,
2401,2758,3.08093895155432,2.47592047634612,-0.0305873821416185,0.004317,0.000728,-0.001403,0.203757,0.067296,318.694253,24.520776,0.999425,0.989013,0.004169,0.485754,-0.000024,0.000023,-0.000006,0.000024,-0.000024,-83.184540,0.000028,
2326,2383,1.51976512084467,-5.71050448524942,-0.00701383607935213,0.004272,-0.000164,0.001708,0.190027,0.043773,324.943515,23.672821,0.999473,0.988450,0.004477,0.393791,-0.000030,0.000009,0.000000,0.000009,-0.000030,-89.998703,0.000031,
2236,2293,-0.425724757379516,-7.68021272114981,-0.00410832275957773,0.004324,0.000104,0.000401,0.197100,0.033358,326.540706,23.765113,0.999276,0.985878,0.004595,0.443554,-0.000024,-0.000009,0.000004,-0.000008,-0.000025,76.942114,0.000034,
2206,2158,-1.05555695126119,-10.637083408562,0.0108076225534433,0.004199,0.000302,-0.002204,0.199556,0.036036,328.913925,23.717490,0.999155,0.985013,0.004963,0.443792,-0.000026,-0.000012,0.000010,-0.000007,-0.000031,62.257820,0.000041,
2416,2848,3.39050639523606,4.43529716407707,-0.0168616229081522,0.004152,0.000345,0.002100,0.183361,0.064072,317.338361,24.844517,0.999301,0.989069,0.004069,0.451501,-0.000023,0.000017,-0.000019,0.000024,-0.000031,-68.411904,0.000032,
2146,2338,-2.39386738768056,-6.69636126337218,-0.000842553104178023,0.004378,0.000172,0.001083,0.197869,0.053072,326.109889,24.190315,0.999267,0.986621,0.004651,0.436630,-0.000012,-0.000008,-0.000016,0.000006,-0.000026,-48.387683,0.000027,
2146,3268,-2.54650448731854,13.530934746601,0.0193054341066841,0.004402,0.000906,-0.002486,0.211240,0.079920,311.179024,24.704169,0.999645,0.994752,0.003022,0.437826,-0.000026,0.000003,-0.000018,0.000012,-0.000035,-63.998192,0.000036,
2356,2533,2.14521537428712,-2.43387073492006,-0.0133538064705476,0.004169,0.000220,-0.001338,0.196153,0.040785,322.463821,23.868498,0.999343,0.987325,0.004528,0.499762,-0.000015,-0.000014,0.000003,-0.000011,-0.000017,50.245306,0.000029,
2176,2113,-1.7021044660303,-11.6221645903318,0.00748113703355102,0.004492,0.000475,-0.004694,0.220586,0.025268,329.718378,23.861064,0.999066,0.980970,0.005490,0.406500,-0.000008,-0.000007,0.000016,0.000008,-0.000023,45.944642,0.000024,
2281,2518,0.514180440317432,-2.76245202716704,-0.0160786148104535,0.004462,0.000297,-0.000066,0.205290,0.057953,322.734695,23.981189,0.999706,0.992652,0.003743,0.507654,-0.000015,-0.000008,-0.000002,-0.000008,-0.000015,-70.994435,0.000023,
2341,2458,1.8323930091904,-4.07106800588801,-0.0138125926081329,0.004175,0.000229,-0.001193,0.195807,0.038111,323.674727,23.780334,0.999547,0.988041,0.004306,0.422695,-0.000022,-0.000013,0.000000,-0.000013,-0.000022,-89.901379,0.000036,
2146,2128,-2.35756893914561,-11.2941351228209,0.0243057620451737,0.004682,0.000434,-0.003032,0.223996,0.029612,329.725577,24.120837,0.999246,0.983209,0.005137,0.336978,-0.000017,-0.000023,0.000014,-0.000006,-0.000035,39.145069,0.000044,
2386,2698,2.76616404558027,1.16781448274961,-0.0261915680908373,0.004278,0.000220,-0.000037,0.196789,0.056857,319.688374,24.361118,0.999506,0.990209,0.003842,0.454187,-0.000027,0.000050,-0.000013,0.000052,-0.000029,-80.820219,0.000052,
2296,2518,0.840144649502502,-2.75979253084703,-0.0333949123318575,0.004800,0.000789,-0.003163,0.231389,0.053899,322.598383,24.013573,0.999600,0.991854,0.003764,0.443252,-0.000019,-0.000012,0.000000,-0.000012,-0.000019,87.352323,0.000031,
2131,2323,-2.71796014103517,-7.02409183396523,-0.00011286801532151,0.004203,0.000556,-0.002557,0.200868,0.046721,326.420422,24.268353,0.999194,0.986018,0.004800,0.399142,-0.000003,-0.000012,-0.000011,0.000004,-0.000020,-34.650840,0.000020,
2191,2173,-1.3853285033779,-10.3078001872168,0.0107407592450954,0.004111,0.000688,-0.001739,0.194188,0.077833,328.707996,23.821912,0.999215,0.969087,0.006051,0.480129,-0.000018,-0.000014,0.000007,-0.000008,-0.000024,53.337765,0.000033,
2146,2578,-2.43458546261861,-1.45559627085066,-0.0258076676001906,0.004380,0.000639,-0.001807,0.207199,0.077144,322.032834,24.312801,0.999292,0.988662,0.004271,0.485818,-0.000008,-0.000008,-0.000005,-0.000003,-0.000013,-44.680814,0.000017,
2311,2563,1.15907352334371,-1.77935004323992,-0.0149805919820096,0.004194,0.000433,0.000710,0.190396,0.074534,321.969218,24.057784,0.999177,0.987687,0.004466,0.490018,-0.000017,-0.000005,-0.000003,-0.000004,-0.000018,-76.405661,0.000024,
2161,2548,-2.10329883319532,-2.10964452743161,-0.0245328097117294,0.004486,0.000529,-0.000504,0.208032,0.068714,322.473823,24.253738,0.999133,0.987463,0.004366,0.495309,-0.000010,-0.000002,0.000000,-0.000002,-0.000010,-89.599306,0.000012,
2371,2608,2.45744258694376,-0.795801548193609,-0.0199341514023104,0.004290,0.000577,-0.002370,0.205631,0.051134,321.204702,24.090001,0.999224,0.987830,0.004338,0.472069,-0.000015,0.000008,-0.000005,0.000009,-0.000015,-79.146818,0.000016,
2266,2443,0.201618158186474,-4.39924782974296,-0.00823495172301136,0.004346,0.000686,-0.003762,0.212201,0.046544,324.042075,24.044340,0.999588,0.990192,0.004093,0.327309,-0.000023,0.000012,0.000004,0.000012,-0.000024,83.594705,0.000024,
2251,2413,-0.119701412790842,-5.05594431931878,-0.00580748446094503,0.004422,0.000574,-0.002132,0.210176,0.046487,324.571493,23.950184,0.999253,0.989243,0.004216,0.411461,-0.000029,0.000021,0.000000,0.000021,-0.000029,-89.914941,0.000030,
2221,2263,-0.747101293423665,-8.33620222951519,-0.00161134418982556,0.004420,0.000144,-0.001646,0.208065,0.032812,327.089575,23.843290,0.998971,0.983190,0.005179,0.384030,-0.000024,-0.000018,0.000003,-0.000016,-0.000025,67.125124,0.000042,
2161,2368,-2.0722276409685,-6.03975124776423,-0.00945325163553434,0.004610,0.000377,-0.003019,0.221079,0.042618,325.521684,24.171031,0.999091,0.989617,0.004194,0.414520,-0.000017,0.000012,-0.000021,0.000023,-0.000028,-62.237825,0.000030,
2176,2143,-1.707306096313,-10.965480308934,0.0169509918351309,0.004171,-0.000452,0.003537,0.180162,0.039985,329.274624,23.913685,0.998629,0.981253,0.005478,0.399111,-0.000013,-0.000017,0.000014,0.000000,-0.000029,41.047591,0.000034,
2326,2398,1.51765900509752,-5.38451611252175,0.00376585842326449,0.003924,0.000299,-0.000893,0.183192,0.041151,324.784652,23.639860,0.999492,0.988426,0.004486,0.459598,-0.000026,0.000014,0.000001,0.000014,-0.000026,88.856245,0.000026,
2161,2173,-2.04297228275998,-10.3020978493492,-0.0494453171016858,0.004533,0.000597,-0.002726,0.216461,0.060588,328.325273,23.851088,0.999820,0.932500,0.008726,0.594129,-0.000006,-0.000011,0.000010,0.000002,-0.000019,37.686103,0.000021,
2146,3283,-2.54992295627416,13.8561892513888,0.0119096269222609,0.004156,0.000724,-0.000283,0.193130,0.070747,310.853220,24.718390,0.999603,0.994780,0.003054,0.420676,-0.000026,0.000005,-0.000016,0.000012,-0.000033,-66.713315,0.000033,
2131,3223,-2.86283409579272,12.5530220442512,0.0402417515484217,0.004447,0.000462,0.000931,0.202777,0.067970,312.146071,24.568640,0.999642,0.994754,0.003003,0.466500,-0.000034,0.000015,-0.000020,0.000022,-0.000041,-70.460450,0.000041,
2401,2773,3.07844336531243,2.80172246723178,-0.0232494035334412,0.004080,0.000592,-0.002382,0.196388,0.053587,318.504261,24.556638,0.999469,0.989300,0.004091,0.481681,-0.000027,0.000014,-0.000012,0.000017,-0.000030,-74.714775,0.000030,
2146,2353,-2.39609333040239,-6.36865153092742,-0.00326357700828339,0.004504,0.000469,-0.002680,0.215126,0.040460,325.865216,24.179693,0.999288,0.986871,0.004547,0.444125,-0.000014,0.000006,-0.000013,0.000013,-0.000021,-63.128559,0.000021,
2416,2863,3.3876011979019,4.76191041715141,-0.0173119624583364,0.003946,0.000505,-0.001465,0.187016,0.061062,317.093350,24.909152,0.999473,0.990324,0.003838,0.431058,-0.000026,0.000025,-0.000019,0.000031,-0.000032,-71.696875,0.000037,
2146,2143,-2.36107151160707,-10.9643646005412,0.00833298764598567,0.004598,0.000803,-0.003942,0.223055,0.051870,329.350629,24.041311,0.999431,0.982609,0.005156,0.450463,-0.000017,-0.000020,0.000015,-0.000003,-0.000033,41.685567,0.000041,
2356,2548,2.14227003620374,-2.10653450717839,-0.0120588717841201,0.004067,0.000325,0.000031,0.186750,0.047935,322.221800,23.907338,0.999244,0.986983,0.004587,0.507918,-0.000012,-0.000011,0.000001,-0.000010,-0.000013,61.966090,0.000023,
2236,2308,-0.428179900477229,-7.35110845838516,-0.00942159527443209,0.004672,0.000444,-0.002214,0.221679,0.051835,326.278462,23.808098,0.998933,0.985472,0.004771,0.442496,-0.000024,-0.000011,0.000004,-0.000010,-0.000025,73.812159,0.000036,
2281,2533,0.511780246883877,-2.43655271623371,-0.0102237555562397,0.004307,0.000116,-0.000394,0.199166,0.032230,322.535109,23.956298,0.999611,0.993114,0.003611,0.535525,-0.000015,-0.000009,-0.000005,-0.000006,-0.000017,-61.071258,0.000024,
2341,2473,1.83005632687614,-3.74361585252566,-0.0100185386837666,0.004402,0.000323,-0.000624,0.204316,0.057149,323.471769,23.816971,0.999507,0.988078,0.004251,0.443035,-0.000021,-0.000012,0.000001,-0.000012,-0.000021,83.584035,0.000033,
2161,2563,-2.10552405151467,-1.78349093716157,-0.012124660912832,0.004187,0.000110,0.003500,0.181913,0.077507,322.308632,24.282701,0.999139,0.987180,0.004391,0.485835,-0.000006,-0.000008,-0.000004,-0.000003,-0.000011,-38.711698,0.000015,
2326,2413,1.51405680140029,-5.05666650377795,-0.0067661131874388,0.003859,0.000406,-0.001345,0.181836,0.019853,324.453017,23.597109,0.999533,0.988208,0.004470,0.517535,-0.000027,0.000012,-0.000001,0.000012,-0.000027,-89.200540,0.000027,
2146,2593,-2.43730403236041,-1.12857577657717,-0.0292935283064821,0.004162,0.000903,-0.004734,0.206179,0.080749,321.759885,24.296343,0.999391,0.988649,0.004286,0.514686,-0.000013,0.000000,-0.000002,0.000001,-0.000013,-79.913210,0.000015,
2386,2713,2.76378854120414,1.49387597748976,-0.0203795251355814,0.004242,0.000285,-0.001245,0.199491,0.042159,319.495932,24.392969,0.999692,0.992014,0.003465,0.451053,-0.000025,0.000049,-0.000012,0.000051,-0.000027,-81.076146,0.000051,
2191,2188,-1.38772632498643,-9.97859608132784,0.0106863960541546,0.004341,0.000399,-0.000250,0.199988,0.063752,328.471635,23.915427,0.998537,0.978851,0.005676,0.389663,-0.000016,0.000004,0.000000,0.000004,-0.000016,89.773900,0.000017,
2176,2368,-1.74603554363614,-6.03927277303709,-0.0103480011505326,0.004481,0.000281,0.000745,0.203602,0.055756,325.445333,24.131967,0.999078,0.987424,0.004587,0.416443,-0.000022,0.000009,-0.000022,0.000020,-0.000033,-62.805998,0.000033,
2146,3298,-2.55244101582825,14.1800815216872,0.0134017665085935,0.004148,0.000329,0.000788,0.189309,0.042562,310.616686,24.678273,0.999675,0.995492,0.002779,0.438898,-0.000020,0.000023,-0.000020,0.000031,-0.000029,-68.407765,0.000035,
2146,2368,-2.3986962958916,-6.04085575460224,-0.00252413384561123,0.004504,0.000092,0.000431,0.205631,0.044948,325.619908,24.195998,0.999073,0.987660,0.004464,0.442050,-0.000012,0.000013,-0.000017,0.000021,-0.000020,-63.754784,0.000024,
2206,2173,-1.05820645603332,-10.3084302584937,0.0126073828710105,0.004001,0.000380,-0.001712,0.188994,0.054803,328.676816,23.742619,0.999377,0.986519,0.004629,0.457131,-0.000023,-0.000018,0.000009,-0.000011,-0.000030,52.512227,0.000042,
2131,3238,-2.86606477562446,12.8786939766283,0.03065338752657,0.004294,0.000418,0.000031,0.198362,0.048684,311.815781,24.604473,0.999600,0.994739,0.002924,0.415641,-0.000034,0.000003,-0.000021,0.000012,-0.000044,-65.718463,0.000045,
2296,2533,0.837278604028956,-2.43351713530858,-0.0408979052098175,0.005091,0.000587,-0.004790,0.250197,0.040537,322.312174,23.892848,0.999689,0.993890,0.003404,0.581680,-0.000019,-0.000013,-0.000003,-0.000011,-0.000020,-66.055750,0.000032,
2251,2428,-0.122632523900975,-4.72908699144173,-0.0066847664877514,0.004292,0.001003,-0.000669,0.199616,0.078299,324.311383,23.859889,0.998899,0.987721,0.004399,0.558350,-0.000024,0.000017,-0.000001,0.000017,-0.000024,-88.224433,0.000025,
2311,2578,1.15535810253897,-1.45055197623686,-0.0268772294656969,0.004081,0.000229,-0.000003,0.187618,0.057650,321.623222,24.148425,0.999501,0.992063,0.003686,0.415815,-0.000012,0.000006,-0.000001,0.000006,-0.000012,-87.769014,0.000012,
2371,2623,2.4541574809218,-0.46826503811188,-0.0239805418939341,0.004294,0.000659,-0.001005,0.201023,0.060925,320.922354,24.122981,0.999274,0.988143,0.004271,0.490598,-0.000018,0.000012,-0.000009,0.000015,-0.000020,-74.613667,0.000021,
2161,2383,-2.07541333370421,-5.71154792419492,-0.0132293464470195,0.004317,0.000435,-0.000538,0.200106,0.063525,325.227014,24.170532,0.999032,0.988237,0.004416,0.448034,-0.000016,0.000017,-0.000019,0.000025,-0.000024,-65.431571,0.000029,
2131,2338,-2.72044117077428,-6.69654594945613,0.0015603801127213,0.004288,0.000123,0.001448,0.192672,0.039794,326.184569,24.271875,0.999354,0.987007,0.004583,0.396100,-0.000008,-0.000006,-0.000013,0.000006,-0.000019,-47.339335,0.000020,
2236,2323,-0.431080426438434,-7.02328055936385,-0.0105049497684035,0.004681,0.000189,0.000966,0.211764,0.054247,326.017575,23.798334,0.998749,0.986863,0.004700,0.477907,-0.000022,-0.000022,0.000004,-0.000018,-0.000026,44.797766,0.000044,
2416,2878,3.38477031286758,5.08871389347487,-0.0203390912452619,0.004258,0.000777,-0.002052,0.203700,0.084125,316.839527,24.950703,0.999518,0.991285,0.003663,0.460284,-0.000028,0.000027,-0.000016,0.000031,-0.000032,-74.978992,0.000036,
2356,2563,2.13899186721071,-1.77765796736185,-0.0172927963070038,0.003931,0.000490,-0.001390,0.185594,0.059859,321.932707,24.029814,0.999320,0.989651,0.004286,0.437342,-0.000019,-0.000004,-0.000002,-0.000004,-0.000019,-83.920084,0.000025,
2146,2158,-2.36402880463552,-10.6340417252424,0.00424005555498752,0.004293,0.000584,-0.004808,0.211642,0.024045,329.063445,24.196298,0.999726,0.966317,0.006396,0.278438,-0.000012,-0.000015,0.000009,-0.000004,-0.000023,41.568516,0.000029,
2281,2548,0.508154204427086,-2.10640610827377,-0.0214323468537714,0.004252,0.000371,0.000069,0.195266,0.053010,322.193150,24.127018,0.999390,0.990432,0.004045,0.414432,-0.000008,-0.000009,-0.000003,-0.000005,-0.000012,-44.097515,0.000018,
2161,2578,-2.10848135453311,-1.45588055384026,-0.0212622414699126,0.004173,0.000420,0.001123,0.188669,0.075225,321.996201,24.271207,0.999153,0.987342,0.004330,0.506252,-0.000010,-0.000008,-0.000006,-0.000003,-0.000015,-49.064185,0.000019,
2161,2188,-2.04247420952786,-9.98022142820644,-0.00259532829869613,0.004215,0.001131,-0.004237,0.206674,0.068811,328.466022,23.751019,0.999758,0.913225,0.009577,0.713293,-0.000007,0.000007,0.000005,0.000008,-0.000009,73.723354,0.000010,
2401,2788,3.07514704736448,3.12944516379,-0.0259316670080239,0.004171,0.000371,0.000722,0.189283,0.066925,318.229627,24.667826,0.999522,0.988819,0.004194,0.429446,-0.000028,0.000008,-0.000015,0.000013,-0.000033,-69.978256,0.000033,
2266,2458,0.198302377475937,-4.07029442099558,-0.0231741504920819,0.004867,0.000336,-0.002708,0.232538,0.039298,323.694695,24.064715,0.999699,0.991070,0.003989,0.327175,-0.000023,0.000000,0.000003,0.000001,-0.000023,81.900895,0.000026,
2221,2278,-0.749153946340783,-8.00844235690936,0.0053009635018384,0.004639,-0.000120,0.000885,0.209950,0.042002,326.907157,23.884931,0.998904,0.983638,0.005101,0.372634,-0.000023,-0.000016,-0.000005,-0.000014,-0.000026,-63.951138,0.000040,
2161,1993,-2.00873127415324,-14.2531345658012,0.025188420402003,0.004457,0.000997,-0.001845,0.210156,0.061726,331.830280,24.063510,0.999043,0.982750,0.005253,0.219841,-0.000019,-0.000106,0.000005,-0.000019,-0.000107,3.479244,0.000135,
2341,2488,1.82760526308361,-3.41671821986088,-0.0074209167341337,0.004478,0.000640,-0.001673,0.211584,0.067586,323.257865,23.804805,0.999478,0.987741,0.004225,0.503549,-0.000021,-0.000014,0.000000,-0.000014,-0.000021,88.941463,0.000035,
2146,2608,-2.43974799956341,-0.800315058320173,-0.0329101208679958,0.004332,0.001189,-0.006222,0.218590,0.087058,321.498476,24.394874,0.999523,0.990473,0.004034,0.431065,-0.000017,-0.000007,0.000001,-0.000006,-0.000017,85.483159,0.000024,
2131,3253,-2.86867299162126,13.2038295746635,0.027175637822495,0.004328,0.000592,-0.001440,0.204411,0.051987,311.547027,24.607496,0.999677,0.995211,0.002833,0.420010,-0.000033,-0.000002,-0.000022,0.000010,-0.000045,-62.538109,0.000047,
2326,2428,1.51053021838456,-4.72582486710188,-0.0213918560000934,0.004338,0.000218,-0.000012,0.199186,0.049896,324.104080,23.744858,0.999587,0.990095,0.004168,0.436335,-0.000022,0.000015,-0.000002,0.000015,-0.000022,-87.100656,0.000023,
2191,2203,-1.39037811030157,-9.64958219203184,0.00266093121172162,0.004459,0.000940,-0.004541,0.219013,0.062587,328.182327,23.900637,0.998657,0.980105,0.005578,0.420624,-0.000011,0.000009,-0.000001,0.000009,-0.000011,-86.611071,0.000011,
2176,2383,-1.74853872527022,-5.71257920151776,-0.00921998465139495,0.004601,-0.000108,0.003752,0.199699,0.041183,325.209310,24.076231,0.999129,0.989312,0.004383,0.471619,-0.000020,0.000017,-0.000018,0.000024,-0.000027,-68.391636,0.000030,
2146,2383,-2.40124243232457,-5.71320965281897,-0.00120869229806431,0.004154,0.000512,-0.001989,0.197040,0.052701,325.380259,24.205818,0.998816,0.987057,0.004552,0.449553,-0.000012,0.000014,-0.000017,0.000022,-0.000020,-63.919498,0.000025,
2146,2173,-2.36432490416587,-10.310565236559,0.0374319277837003,0.004349,0.000508,-0.002575,0.207442,0.051553,329.095657,24.072325,0.999846,0.945315,0.008040,0.439172,-0.000010,-0.000011,0.000008,-0.000002,-0.000018,44.189242,0.000023,
2416,2893,3.38228690892619,5.41473344428099,-0.0185058407852239,0.004519,0.000478,-0.002768,0.218124,0.052069,316.624677,25.015204,0.999578,0.991079,0.003711,0.411023,-0.000029,0.000020,-0.000016,0.000025,-0.000034,-73.026074,0.000035,
2161,2593,-2.11102575872615,-1.12868748058006,-0.0210038059112776,0.004203,0.000139,0.002571,0.185537,0.065973,321.752234,24.315729,0.999332,0.988989,0.004162,0.463060,-0.000016,-0.000002,-0.000003,-0.000002,-0.000016,-79.097683,0.000020,
2161,2008,-2.01131857953284,-13.9244096284399,0.0210768229918017,0.004482,0.001242,-0.003281,0.215754,0.070898,331.561533,23.977606,0.999024,0.984944,0.005000,0.328839,-0.000026,-0.000076,0.000016,-0.000021,-0.000080,16.564219,0.000107,
2161,2203,-2.04509649984294,-9.64908630354956,0.00076391286506805,0.004118,0.000013,-0.000314,0.189907,0.042068,328.234447,24.074793,0.998907,0.962632,0.006598,0.375401,-0.000003,0.000009,0.000005,0.000011,-0.000005,72.368558,0.000011,
2371,2638,2.45138199014326,-0.140588333802128,-0.0258225772698779,0.004479,0.000478,-0.001712,0.211997,0.052639,320.673899,24.210693,0.999331,0.988346,0.004219,0.436352,-0.000020,0.000020,-0.000013,0.000024,-0.000024,-73.829838,0.000028,
2281,2563,0.505437667699116,-1.77985901768565,-0.0214204242180926,0.004262,0.000386,0.000443,0.194523,0.066333,321.949591,24.080260,0.999265,0.989256,0.004325,0.503535,-0.000010,-0.000009,-0.000009,-0.000001,-0.000018,-47.127574,0.000021,
2296,2548,0.834587026647018,-2.1058296447808,-0.0240396491528827,0.004212,0.000695,-0.000436,0.195184,0.057310,322.154100,24.093520,0.999380,0.989635,0.004172,0.428489,-0.000012,-0.000009,-0.000003,-0.000008,-0.000014,-59.186032,0.000022,
2176,2158,-1.71295041399573,-10.6302168233245,-0.0330020542011766,0.004125,0.000123,-0.000817,0.191773,0.023886,328.627549,24.018682,0.999358,0.959544,0.006925,0.295182,-0.000011,-0.000014,0.000009,-0.000004,-0.000021,41.144262,0.000027,
2341,2503,1.82379450028911,-3.08891087165575,-0.013527805317608,0.004091,0.000119,0.000223,0.187089,0.048884,322.939290,23.830733,0.999306,0.987212,0.004380,0.496787,-0.000024,-0.000013,-0.000003,-0.000013,-0.000024,-76.406667,0.000037,
2161,2398,-2.07708669871738,-5.38575038209493,-0.00454216963538556,0.004392,0.000284,-0.002586,0.209753,0.047329,325.067699,24.111454,0.999091,0.986962,0.004535,0.502355,-0.000014,0.000013,-0.000017,0.000022,-0.000022,-64.076563,0.000026,
2251,2443,-0.125354080237944,-4.39946406241128,-0.00834022509764054,0.004452,0.000447,0.000759,0.202147,0.071546,324.056496,24.058946,0.999448,0.990275,0.004118,0.377314,-0.000024,0.000012,0.000001,0.000012,-0.000024,87.904538,0.000024,
2206,2188,-1.06047462125748,-9.97908025281341,0.0113418619725962,0.004413,0.000428,-0.001081,0.205935,0.050805,328.441362,23.826725,0.998946,0.982569,0.005203,0.388168,-0.000021,-0.000005,0.000003,-0.000004,-0.000021,78.449854,0.000027,
2146,2623,-2.44256440534027,-0.473949610178437,-0.0307648862699921,0.004212,0.000591,-0.000623,0.195930,0.067925,321.251090,24.399407,0.999668,0.992190,0.003769,0.415986,-0.000018,0.000000,-0.000003,0.000001,-0.000019,-81.739379,0.000021,
2386,2728,2.76091228654355,1.82061213965185,-0.0199945356238231,0.004411,-0.000032,0.001035,0.198979,0.044253,319.254463,24.430187,0.999641,0.991449,0.003692,0.459379,-0.000027,0.000034,-0.000008,0.000035,-0.000028,-82.787148,0.000037,
2221,2293,-0.751571877308987,-7.68098813101887,0.00557743470926653,0.004541,0.000365,-0.002420,0.216237,0.045019,326.674164,23.842345,0.999142,0.985740,0.004691,0.439323,-0.000027,-0.000006,0.000000,-0.000006,-0.000027,-88.927335,0.000034,
2131,2353,-2.72282732425648,-6.36807310912797,-0.00258590847852247,0.004543,0.000298,0.000736,0.206612,0.050359,325.921812,24.290626,0.999244,0.986540,0.004636,0.395677,-0.000009,0.000010,-0.000009,0.000013,-0.000012,-67.814945,0.000015,
2401,2803,3.0723805697405,3.45563244709767,-0.0247413649539112,0.004227,0.000533,0.000699,0.192054,0.085818,317.997913,24.666822,0.999582,0.990712,0.003977,0.494757,-0.000023,0.000004,-0.000016,0.000011,-0.000031,-64.262533,0.000031,
2266,2473,0.195747354129217,-3.74511304829278,-0.0118584732532554,0.004272,0.000326,-0.001061,0.199813,0.053185,323.514519,23.967576,0.999765,0.992081,0.003808,0.464903,-0.000016,0.000004,0.000004,0.000005,-0.000017,78.585461,0.000017,
2356,2578,2.13664887060755,-1.45103896371598,-0.0153349890469485,0.004203,0.000309,-0.002321,0.201316,0.057707,321.721590,24.027494,0.999161,0.988025,0.004463,0.477065,-0.000017,0.000011,-0.000002,0.000011,-0.000017,-85.815035,0.000017,
2131,3268,-2.87178938301138,13.5293784592755,0.0181507152226459,0.004302,0.000707,-0.001638,0.203858,0.056221,311.225006,24.621383,0.999711,0.995492,0.002775,0.414809,-0.000031,0.000001,-0.000022,0.000012,-0.000042,-62.993360,0.000043,
2311,2593,1.15355792854091,-1.12437888432142,-0.0207458655199844,0.004418,0.000703,-0.002118,0.210451,0.058278,321.454209,24.143190,0.999581,0.992146,0.003616,0.454516,-0.000006,0.000000,-0.000001,0.000000,-0.000006,-79.090057,0.000007,
2146,2188,-2.36716524401506,-9.98182119924749,0.0313048285492528,0.004411,0.000499,-0.001520,0.207099,0.056258,328.803197,24.038582,0.999363,0.955432,0.007057,0.488533,-0.000011,0.000009,0.000006,0.000011,-0.000012,75.600772,0.000014,
2416,2908,3.37910601741924,5.74037858064064,-0.0168542607191853,0.004446,0.000171,0.000921,0.201181,0.048238,316.376872,25.019875,0.999630,0.991506,0.003653,0.449813,-0.000030,0.000016,-0.000016,0.000021,-0.000036,-72.293271,0.000036,
2176,2398,-1.75077059704391,-5.38475938795521,-0.00758168144784577,0.004551,0.000116,0.000640,0.207140,0.064653,324.987974,24.095216,0.999111,0.986984,0.004629,0.489937,-0.000018,0.000019,-0.000016,0.000025,-0.000024,-69.102717,0.000029,
2326,2443,1.50850958420155,-4.39900416755422,-0.0148146432385374,0.004508,0.000444,-0.001205,0.211171,0.051707,323.928363,23.757917,0.999442,0.988223,0.004441,0.460491,-0.000018,-0.000003,-0.000001,-0.000003,-0.000018,-86.390361,0.000023,
2236,2338,-0.433928560010759,-6.69515870863507,-0.00269223948617991,0.003955,0.000394,0.001860,0.175657,0.051511,325.804217,23.913390,0.999118,0.986948,0.004646,0.382950,-0.000023,-0.000010,0.000001,-0.000010,-0.000023,87.714294,0.000034,
2161,2608,-2.11290083432243,-0.801547472904296,-0.0202494316179127,0.004400,0.000792,-0.002952,0.211783,0.086439,321.541460,24.334584,0.999542,0.991411,0.003846,0.475735,-0.000020,-0.000012,0.000001,-0.000012,-0.000020,83.250488,0.000033,
2161,2023,-2.01376048908284,-13.5959957113519,0.0202279259369789,0.004602,0.000553,-0.002309,0.218107,0.042762,331.316771,23.943466,0.998919,0.984396,0.005030,0.348584,-0.000023,-0.000064,0.000017,-0.000016,-0.000070,20.035151,0.000091,
2191,2218,-1.39292611169401,-9.32189031656715,0.00758269983094806,0.004327,0.000482,-0.001070,0.201976,0.040688,327.965117,23.926814,0.998608,0.981882,0.005566,0.389449,-0.000015,0.000001,-0.000003,0.000002,-0.000015,-78.443065,0.000017,
2161,2218,-2.04695565363272,-9.3209946771215,0.00332149860787467,0.004461,0.000143,-0.001577,0.209553,0.016049,328.034085,24.116461,0.998732,0.980916,0.005405,0.320019,-0.000006,0.000002,0.000000,0.000002,-0.000006,-88.694688,0.000006,
2386,2743,2.75823851310994,2.14709271707576,-0.0188664772112475,0.004311,0.000264,-0.001895,0.205064,0.054018,319.025812,24.446612,0.999660,0.992019,0.003660,0.496204,-0.000025,0.000028,-0.000006,0.000029,-0.000026,-83.752117,0.000032,
2371,2653,2.44790556436132,0.186735224394283,-0.0293032958786057,0.004270,0.000367,-0.000072,0.196577,0.062751,320.385376,24.238912,0.999359,0.988143,0.004333,0.459831,-0.000025,0.000027,-0.000010,0.000029,-0.000027,-79.051553,0.000032,
2341,2518,1.82118634327813,-2.76037693995226,-0.0166550264719945,0.004173,0.000589,-0.004572,0.207712,0.060336,322.690021,23.925503,0.998991,0.984609,0.004709,0.451282,-0.000022,-0.000013,0.000000,-0.000013,-0.000022,87.780056,0.000035,
2146,2398,-2.40383667740586,-5.38532981836445,-0.00544943396107556,0.004288,0.000317,-0.002013,0.203193,0.048827,325.109007,24.200289,0.998816,0.986426,0.004744,0.460946,-0.000014,0.000008,-0.000017,0.000017,-0.000023,-60.943936,0.000024,
2296,2563,0.832682138578885,-1.77950343948547,-0.0117880978857556,0.004384,0.000043,0.002956,0.191443,0.048041,322.009666,24.157097,0.999097,0.988146,0.004653,0.385955,-0.000014,-0.000008,-0.000008,-0.000003,-0.000019,-57.257993,0.000024,
2176,2173,-1.71762411500346,-10.2968644377704,-0.0650652548300741,0.004221,0.000038,0.000513,0.192051,0.047285,328.118047,24.111891,0.999818,0.925512,0.008964,0.241945,-0.000010,-0.000013,0.000007,-0.000005,-0.000018,38.833707,0.000024,
2281,2578,0.503721139238284,-1.45375926426298,-0.0106112902379891,0.004290,0.000421,-0.001842,0.203453,0.058539,321.805864,24.112439,0.999131,0.987946,0.004533,0.491698,-0.000004,0.000002,-0.000006,0.000005,-0.000008,-58.418438,0.000008,
2221,2308,-0.754607558415305,-7.35265719330769,0.00260000880348343,0.004291,0.000429,-0.002466,0.204960,0.059309,326.396029,23.841342,0.999136,0.987861,0.004324,0.475541,-0.000025,-0.000006,0.000000,-0.000006,-0.000025,-88.906576,0.000033,
2131,2368,-2.72528366884731,-6.04010201637006,-0.00783700030001455,0.004571,0.000795,-0.003441,0.220564,0.064121,325.650047,24.255259,0.999094,0.987094,0.004564,0.452386,-0.000006,0.000016,-0.000012,0.000022,-0.000011,-66.086755,0.000022,
2161,2413,-2.08032681896914,-5.05712422502964,-0.00962792717967886,0.004077,-0.000181,-0.001067,0.190546,0.030446,324.763679,24.185024,0.998981,0.986569,0.004714,0.423678,-0.000012,0.000005,-0.000021,0.000019,-0.000026,-56.121417,0.000027,
2131,3283,-2.8749572019496,13.8541762350001,0.0154775158118809,0.004059,0.000541,0.001974,0.181830,0.065341,310.934961,24.600700,0.999707,0.995584,0.002843,0.448624,-0.000031,0.000003,-0.000020,0.000012,-0.000040,-65.426453,0.000042,
2206,2203,-1.06327676882904,-9.64884637928451,0.00412753075704586,0.004554,0.001036,-0.002632,0.217548,0.079865,328.150554,23.901856,0.999012,0.982519,0.005223,0.361904,-0.000017,-0.000003,0.000001,-0.000003,-0.000017,84.838491,0.000021,
2146,2203,-2.37206514348732,-9.64928275412096,0.00318773341166434,0.004046,-0.000108,0.001842,0.180044,0.034502,328.299869,24.153877,0.998666,0.979217,0.005564,0.363388,-0.000007,0.000009,0.000005,0.000011,-0.000009,74.785325,0.000011,
2416,2923,3.3766817408765,6.06699140888403,-0.0129464458910888,0.004639,0.000213,0.000671,0.210987,0.048123,316.174124,25.129900,0.999685,0.992460,0.003540,0.386804,-0.000028,0.000010,-0.000019,0.000018,-0.000036,-67.193894,0.000036,
2356,2593,2.13388261896903,-1.1234524270215,-0.0194271196202749,0.004632,-0.000198,-0.001870,0.219224,0.036456,321.461733,24.085073,0.999120,0.988034,0.004463,0.438057,-0.000012,0.000009,-0.000002,0.000009,-0.000013,-83.477471,0.000013,
2161,2038,-2.01682890166231,-13.2660155842688,0.0151028562799524,0.004428,0.000350,-0.000790,0.205451,0.031617,331.020653,23.992763,0.999117,0.984607,0.004957,0.301990,-0.000020,-0.000063,0.000017,-0.000014,-0.000069,19.551606,0.000089,
2146,2638,-2.44481734926208,-0.148047215588662,-0.0321107378155716,0.004517,0.000248,-0.000581,0.209738,0.044979,321.011150,24.340031,0.999726,0.992683,0.003558,0.460910,-0.000018,0.000007,-0.000003,0.000007,-0.000018,-82.184154,0.000019,
2401,2818,3.07005251423566,3.78177973950957,-0.0206559390045982,0.004420,0.000304,-0.000263,0.204347,0.070575,317.800030,24.722474,0.999514,0.990177,0.004123,0.469251,-0.000024,0.000005,-0.000017,0.000013,-0.000031,-65.203896,0.000032,
2326,2458,1.50546816722978,-4.07098021688262,-0.018888635384144,0.004547,0.000308,-0.001356,0.213485,0.049519,323.653640,23.790347,0.999459,0.987923,0.004399,0.461811,-0.000022,-0.000012,-0.000001,-0.000012,-0.000022,-83.068358,0.000035,
2311,2608,1.15065694450272,-0.79726871165834,-0.0201920949499481,0.004381,0.000597,-0.000171,0.202143,0.070936,321.206976,24.167977,0.999588,0.991656,0.003669,0.475129,-0.000005,-0.000005,0.000002,-0.000003,-0.000007,45.336657,0.000010,
2161,2233,-2.04930616719952,-8.99376773118146,0.00956985851036052,0.004150,0.000205,-0.001524,0.195150,0.037355,327.830558,24.075101,0.998820,0.981811,0.005198,0.395207,-0.000007,0.000010,0.000000,0.000010,-0.000007,-89.447235,0.000011,
2251,2458,-0.127894668815159,-4.07292738972384,-0.00674657697248904,0.004561,-0.000085,0.002459,0.201396,0.054384,323.826938,24.021189,0.999719,0.991382,0.004011,0.422715,-0.000023,0.000003,0.000001,0.000003,-0.000023,87.117641,0.000025,
2176,2413,-1.75346582743522,-5.05695960675034,-0.00639221111703137,0.004180,0.000442,-0.000818,0.194730,0.052385,324.743213,24.148577,0.998967,0.985486,0.004772,0.438154,-0.000016,0.000011,-0.000019,0.000021,-0.000026,-62.381915,0.000028,
2266,2488,0.192393935866502,-3.41762267915043,-0.0219350171304313,0.004277,0.000094,-0.001661,0.201965,0.036009,323.190046,23.920499,0.999680,0.991452,0.003880,0.521737,-0.000013,0.000003,-0.000001,0.000003,-0.000013,-87.753501,0.000014,
2236,2353,-0.436059903689429,-6.36762430923183,-0.00162912089115252,0.004301,0.000248,0.001043,0.194112,0.042590,325.589506,23.918764,0.999035,0.985455,0.004823,0.391611,-0.000028,0.000002,0.000000,0.000002,-0.000028,-89.825034,0.000031,
2191,2233,-1.39541029822026,-8.99305808120916,0.00767631844814787,0.004338,0.000650,-0.001333,0.203418,0.056028,327.725435,23.974625,0.998827,0.983286,0.005267,0.373824,-0.000019,0.000011,-0.000003,0.000011,-0.000019,-85.082233,0.000019,
2191,2443,-1.43194923524454,-4.40098503725185,-0.0132948916496503,0.004436,0.000596,-0.003838,0.216041,0.055114,324.174896,24.130043,0.998983,0.986686,0.004788,0.447785,-0.000015,0.000000,-0.000005,0.000002,-0.000017,-73.207294,0.000019,
2221,2323,-0.757647456357514,-7.02366219668274,-0.0105957654480449,0.004763,0.000224,-0.002435,0.226440,0.027096,326.065483,23.851643,0.999166,0.987925,0.004390,0.454485,-0.000021,-0.000018,-0.000001,-0.000018,-0.000021,-74.856621,0.000039,
2371,2668,2.44496602075582,0.513647284708419,-0.0301336981844429,0.004003,0.000590,-0.003397,0.196216,0.047171,320.134278,24.282090,0.999462,0.989167,0.004253,0.442633,-0.000024,0.000039,-0.000011,0.000041,-0.000026,-80.282668,0.000042,
2176,2188,-1.71539808987471,-9.97750255023715,0.00232270933491918,0.004282,0.000355,-0.000113,0.196867,0.047386,328.444979,24.007872,0.999146,0.948690,0.007516,0.358013,-0.000011,0.000006,0.000000,0.000006,-0.000011,-88.641243,0.000011,
2146,2413,-2.40693775413571,-5.05623635178376,-0.0180575693946139,0.004433,0.000394,-0.002645,0.211834,0.043684,324.770013,24.233252,0.998672,0.986461,0.005029,0.432668,-0.000013,0.000000,-0.000019,0.000014,-0.000027,-53.742099,0.000027,
2416,2938,3.37338362100615,6.39292419399128,-0.0107337261209182,0.004109,0.000656,0.000680,0.186822,0.078791,315.923296,25.138435,0.999676,0.992021,0.003655,0.456429,-0.000022,0.000011,-0.000019,0.000019,-0.000031,-65.390382,0.000031,
2161,2623,-2.116201605906,-0.473486224812866,-0.0300972567856661,0.004263,0.000762,-0.002882,0.205235,0.068540,321.209404,24.390610,0.999600,0.991580,0.003804,0.412618,-0.000020,-0.000005,-0.000002,-0.000005,-0.000021,-83.659412,0.000027,
2341,2533,1.81868221432991,-2.43297116222134,-0.0184882961930839,0.004620,0.000618,-0.004560,0.228240,0.054257,322.452019,23.951202,0.999171,0.985702,0.004621,0.457096,-0.000021,-0.000012,0.000000,-0.000012,-0.000021,-86.884433,0.000034,
2191,2683,-1.47319897984578,0.832321404749322,-0.0159558801749426,0.004255,0.000357,-0.001145,0.199525,0.053581,320.249486,24.357822,0.999612,0.993592,0.003418,0.464535,-0.000015,0.000018,-0.000007,0.000019,-0.000016,-79.272178,0.000021,
2356,2608,2.13119044837812,-0.796287388065636,-0.0176960974501981,0.004561,0.000466,-0.002935,0.220016,0.067507,321.233177,24.107118,0.999243,0.987921,0.004368,0.486566,-0.000012,0.000003,-0.000002,0.000004,-0.000012,-83.208550,0.000012,
2296,2578,0.829844088728901,-1.45233787423066,-0.0149920930076064,0.004273,0.000081,-0.000321,0.197438,0.049223,321.745669,24.155366,0.999338,0.990198,0.004091,0.419840,-0.000008,0.000003,-0.000006,0.000005,-0.000010,-67.676291,0.000010,
2401,2833,3.06680904412198,4.10907169321339,-0.0257138444375755,0.004489,0.000533,-0.000428,0.208192,0.070029,317.516541,24.803631,0.999375,0.989117,0.004156,0.433045,-0.000027,0.000009,-0.000014,0.000014,-0.000032,-71.463185,0.000032,
2386,2758,2.75442021539623,2.47464100556591,-0.0267133256206193,0.004203,0.000230,0.000587,0.191177,0.056594,318.701630,24.501953,0.999420,0.989661,0.003971,0.487092,-0.000023,0.000024,-0.000004,0.000024,-0.000023,-85.503644,0.000027,
2206,2278,-1.07594251539036,-8.0089115383792,0.00629662528064046,0.004687,-0.000079,0.000469,0.213537,0.046770,326.957115,23.910144,0.999040,0.983241,0.005091,0.415811,-0.000019,-0.000013,-0.000007,-0.000008,-0.000024,-57.493576,0.000033,
2326,2473,1.50321986813911,-3.74429500343957,-0.0108598066633476,0.004327,0.000651,-0.003251,0.210047,0.045413,323.474532,23.819047,0.999436,0.987813,0.004296,0.464442,-0.000019,-0.000014,0.000000,-0.000014,-0.000019,89.248003,0.000033,
2281,2593,0.500470245876262,-1.1255177942846,-0.0170753320217045,0.004214,0.000597,-0.001953,0.200442,0.067874,321.505071,24.177695,0.999308,0.989239,0.004186,0.464590,-0.000001,-0.000004,-0.000007,0.000005,-0.000010,-39.999316,0.000010,
2176,2428,-1.75571430632307,-4.72845171094611,-0.0115400713593772,0.004746,0.000563,-0.001465,0.222775,0.064721,324.485552,24.187174,0.999093,0.986772,0.004654,0.425923,-0.000014,-0.000002,-0.000013,0.000007,-0.000023,-58.099528,0.000023,
2311,2623,1.1482527492524,-0.471182036016806,-0.0147572997628913,0.004314,0.000206,-0.000386,0.199635,0.050084,321.006832,24.178464,0.999465,0.990043,0.003888,0.476525,-0.000006,0.000008,0.000001,0.000008,-0.000006,85.058268,0.000008,
2176,2608,-1.78736844276747,-0.800417307329987,-0.0274750192670581,0.004301,0.000669,-0.001932,0.204097,0.081935,321.421225,24.323944,0.999221,0.988578,0.004248,0.467099,-0.000025,-0.000017,0.000000,-0.000017,-0.000025,-88.698753,0.000042,
2161,2248,-2.05224124843276,-8.66491211432663,0.000439117976213765,0.004202,0.000053,-0.002839,0.201541,0.012765,327.519484,24.074878,0.998802,0.980683,0.005197,0.383643,-0.000011,0.000004,-0.000001,0.000004,-0.000011,-86.765257,0.000011,
2206,2218,-1.06651739961871,-9.32142035729289,0.0079120056173565,0.003891,0.000212,0.001627,0.173372,0.064450,327.896913,23.885769,0.998883,0.983127,0.005272,0.381840,-0.000018,-0.000008,0.000000,-0.000008,-0.000018,88.999753,0.000027,
2161,2428,-2.08217242619588,-4.72868949221407,-0.0110711782440376,0.004758,0.000439,-0.001803,0.224298,0.053856,324.542503,24.240686,0.999195,0.987369,0.004521,0.402835,-0.000012,-0.000008,-0.000014,0.000004,-0.000024,-49.315387,0.000025,
2146,2653,-2.44698093640601,0.178051396755592,-0.028416515061167,0.004570,0.000196,-0.000714,0.212524,0.036452,320.801918,24.331307,0.999740,0.991740,0.003603,0.469202,-0.000021,0.000013,-0.000004,0.000013,-0.000022,-82.514867,0.000022,
2266,2503,0.190151367474439,-3.08900262048646,-0.0189526666923143,0.004488,0.000465,-0.001835,0.212366,0.054731,322.981605,24.065773,0.999643,0.992445,0.003853,0.421717,-0.000013,-0.000004,-0.000003,-0.000003,-0.000014,-73.285789,0.000018,
2416,2953,3.36996735615615,6.71966605732259,-0.0166990948859507,0.004002,0.000351,-0.000816,0.187282,0.057804,315.628478,25.219803,0.999775,0.992327,0.003627,0.401071,-0.000023,0.000018,-0.000012,0.000021,-0.000027,-75.250964,0.000028,
2191,2248,-1.39757782289692,-8.66534557610763,0.00679297777628562,0.004631,0.000575,-0.003029,0.222116,0.042465,327.495489,23.944144,0.998793,0.983566,0.005196,0.407707,-0.000022,0.000004,-0.000003,0.000005,-0.000023,-83.087207,0.000024,
2341,2548,1.81561175886618,-2.10632011621922,-0.0123169084957908,0.004279,0.000174,0.000545,0.194689,0.065556,322.226855,23.966578,0.998963,0.983887,0.004907,0.490544,-0.000017,-0.000007,-0.000001,-0.000007,-0.000018,-82.044489,0.000025,
2221,2338,-0.761693407104172,-6.69331872417217,-0.0219832525794459,0.004293,0.000336,0.000203,0.196504,0.028590,325.697673,23.976546,0.999677,0.990713,0.004023,0.352356,-0.000023,-0.000008,-0.000003,-0.000007,-0.000023,-78.121098,0.000032,
2236,2368,-0.438698465145752,-6.03828246009358,-0.0101293690011062,0.004612,0.000779,-0.002765,0.220909,0.061381,325.302493,23.973957,0.999390,0.987821,0.004538,0.378315,-0.000034,0.000007,-0.000004,0.000008,-0.000034,-84.803100,0.000036,
2191,2458,-1.43472050059367,-4.07321204847958,-0.0176893267657192,0.004458,0.000923,-0.004444,0.219067,0.056955,323.898750,24.130283,0.999087,0.987557,0.004682,0.465376,-0.000014,-0.000001,-0.000004,0.000000,-0.000015,-75.843388,0.000017,
2251,2473,-0.130302300848733,-3.74652417374121,-0.00168580103144222,0.004275,0.000328,0.000312,0.195447,0.063533,323.620895,23.981561,0.999657,0.991160,0.003934,0.495820,-0.000018,0.000006,0.000001,0.000006,-0.000018,87.182719,0.000018,
2356,2623,2.12767833262939,-0.468356959309126,-0.0208503612158211,0.004138,0.000774,-0.002892,0.200593,0.074026,320.943307,24.186821,0.999286,0.988397,0.004251,0.453077,-0.000015,0.000009,-0.000004,0.000010,-0.000015,-81.033408,0.000015,
2176,2203,-1.7178731919414,-9.6503140934872,0.00686704908179081,0.003990,-0.000029,0.000022,0.182941,0.016258,328.228180,23.988214,0.998472,0.977169,0.005845,0.361385,-0.000006,0.000011,0.000000,0.000011,-0.000006,-88.374862,0.000011,
2146,2428,-2.40885853415239,-4.72826443948729,-0.0140805158401349,0.004736,0.000843,-0.002092,0.224283,0.075813,324.572865,24.289308,0.999074,0.987484,0.004660,0.417906,-0.000015,-0.000012,-0.000012,-0.000002,-0.000025,-48.368691,0.000030,
2386,2773,2.75147228506416,2.8009770756486,-0.0236244159850116,0.004040,0.000082,0.002272,0.177558,0.046292,318.469637,24.549842,0.999403,0.990023,0.003931,0.472216,-0.000025,0.000015,-0.000010,0.000017,-0.000027,-77.202496,0.000027,
2371,2683,2.44151913391425,0.841711417831227,-0.03861366824583,0.004404,0.000337,0.000644,0.200217,0.055190,319.822912,24.349186,0.999494,0.989505,0.004002,0.425449,-0.000024,0.000046,-0.000012,0.000047,-0.000026,-80.780375,0.000048,
2161,2638,-2.11887537285136,-0.146802460552323,-0.031381390544766,0.004260,0.000390,-0.001562,0.200987,0.063006,320.951460,24.386349,0.999763,0.993712,0.003442,0.422213,-0.000019,0.000003,-0.000003,0.000003,-0.000020,-81.398897,0.000021,
2401,2848,3.06455212622968,4.4345334168441,-0.0190495094215066,0.004627,0.000602,-0.000346,0.214300,0.076136,317.334110,24.802434,0.999506,0.990942,0.003848,0.485459,-0.000028,0.000014,-0.000020,0.000022,-0.000036,-68.382991,0.000036,
2191,2698,-1.47601045742158,1.15822334669932,-0.0185209243605868,0.004152,0.000616,-0.001376,0.195605,0.062951,319.981108,24.274828,0.999645,0.994667,0.003212,0.571627,-0.000017,0.000018,-0.000007,0.000019,-0.000018,-79.482789,0.000022,
2296,2593,0.828010612424528,-1.12628476423892,-0.00552185478153433,0.004269,0.000655,-0.002967,0.206429,0.059757,321.590691,24.157130,0.999624,0.992638,0.003490,0.459074,-0.000002,-0.000003,-0.000006,0.000003,-0.000009,-43.317145,0.000009,
2176,2443,-1.75874472785778,-4.40139141132729,-0.0126817638226839,0.004348,0.000246,-0.000716,0.202098,0.049353,324.213406,24.164234,0.999279,0.987448,0.004546,0.447176,-0.000018,-0.000001,-0.000011,0.000004,-0.000023,-64.438910,0.000025,
2206,2233,-1.06843988316581,-8.99434878367646,0.0113876309169996,0.004375,-0.000051,0.003189,0.190570,0.048619,327.702031,23.838969,0.999001,0.984416,0.005251,0.431731,-0.000022,0.000004,0.000002,0.000004,-0.000022,84.566075,0.000023,
2206,2293,-1.07829492272024,-7.68021736363676,0.00186816035841275,0.004776,0.000621,-0.005534,0.236854,0.042588,326.701472,23.940407,0.999252,0.985582,0.004743,0.400306,-0.000022,-0.000003,-0.000003,-0.000003,-0.000022,-82.222637,0.000027,
2311,2638,1.14535150864313,-0.144045319696609,-0.0149261845921274,0.004243,0.000184,0.000355,0.193857,0.054341,320.755966,24.216812,0.999356,0.989491,0.003933,0.475480,-0.000007,0.000017,-0.000001,0.000017,-0.000007,-86.573687,0.000017,
2326,2488,1.50052062822294,-3.41662230281335,-0.00872902488720229,0.004331,0.000682,-0.002198,0.206658,0.069960,323.245646,23.859438,0.999387,0.987796,0.004277,0.484322,-0.000019,-0.000016,-0.000001,-0.000016,-0.000019,-66.855166,0.000035,
2161,2443,-2.08492834296203,-4.40246586225163,-0.00755057438584572,0.004387,-0.000105,0.000383,0.200403,0.039539,324.306371,24.183415,0.999234,0.987905,0.004498,0.457360,-0.000015,-0.000005,-0.000011,0.000002,-0.000023,-56.242869,0.000025,
2281,2608,0.49698855244187,-0.797521345927677,-0.0216262327091954,0.004252,-0.000143,0.004495,0.180369,0.064538,321.203264,24.255252,0.999298,0.988711,0.004267,0.412186,-0.000004,-0.000012,-0.000002,-0.000004,-0.000012,-13.850116,0.000016,
2176,2623,-1.78979918174416,-0.474248347781369,-0.0265403088505423,0.004360,0.000246,-0.001437,0.205121,0.042820,321.187486,24.320167,0.999426,0.989007,0.004157,0.444609,-0.000024,-0.000010,-0.000002,-0.000010,-0.000025,-83.026337,0.000035,
2161,2263,-2.05556278171108,-8.33479215942749,-0.0082595367241538,0.004113,0.000207,-0.000174,0.189392,0.056595,327.192425,24.132853,0.998810,0.981142,0.005392,0.382187,-0.000009,-0.000003,-0.000003,-0.000002,-0.000010,-67.933554,0.000013,
2206,2518,-1.11875534046178,-2.76382311229836,-0.0203807497171056,0.004476,0.000495,-0.002226,0.212960,0.062359,322.856781,24.107531,0.999464,0.988415,0.004272,0.528114,-0.000006,0.000001,0.000005,0.000004,-0.000009,61.616250,0.000009,
2191,2263,-1.40102652594188,-8.33553143650642,-0.0041604110034541,0.004264,0.001084,-0.005845,0.214311,0.065597,327.154201,23.971952,0.998982,0.982291,0.005252,0.420200,-0.000019,-0.000003,-0.000005,-0.000001,-0.000020,-75.209100,0.000024,
2221,2353,-0.763950513800065,-6.36747560485237,-0.0132884334129244,0.004219,-0.000293,0.003309,0.182971,0.031216,325.515300,23.891511,0.999488,0.989004,0.004300,0.460547,-0.000027,0.000003,-0.000004,0.000004,-0.000028,-83.192941,0.000030,
2386,2788,2.74854433307157,3.12863141501009,-0.0288075400857792,0.004258,0.000208,0.000213,0.195020,0.039752,318.198877,24.654958,0.999662,0.992228,0.003648,0.403816,-0.000026,0.000009,-0.000013,0.000013,-0.000030,-71.865325,0.000030,
2401,2863,3.06164444462762,4.76159349692676,-0.0215634115943431,0.004725,0.000806,-0.001846,0.224333,0.086493,317.077968,24.879506,0.999498,0.990829,0.003783,0.464265,-0.000032,0.000022,-0.000020,0.000028,-0.000038,-71.910484,0.000040,
2371,2698,2.43884552867923,1.16717539947476,-0.0317805830392786,0.004029,0.000165,0.000225,0.184435,0.053927,319.620843,24.317700,0.999453,0.990591,0.003734,0.496790,-0.000025,0.000049,-0.000013,0.000051,-0.000027,-80.428403,0.000051,
2416,2968,3.36803887145443,7.04485682102215,-0.0077235923107537,0.004279,0.000259,-0.001073,0.200972,0.061451,315.472493,25.241941,0.999833,0.994350,0.003253,0.429703,-0.000029,0.000019,-0.000006,0.000020,-0.000030,-82.583663,0.000030,
2356,2638,2.12537541426422,-0.14222076335696,-0.0126003500196248,0.004277,0.000104,0.000181,0.195918,0.050865,320.764275,24.232893,0.999362,0.988373,0.004257,0.423120,-0.000017,0.000016,-0.000008,0.000018,-0.000019,-76.557455,0.000022,
2341,2563,1.81249616218409,-1.77815259076159,-0.0156061629238593,0.004186,0.000229,-0.000057,0.192554,0.069683,321.953442,24.048748,0.998993,0.986075,0.004677,0.450271,-0.000023,-0.000002,-0.000003,-0.000001,-0.000024,-81.203885,0.000029,
2251,2488,-0.133208637586211,-3.41831597411413,-0.0118998693938579,0.004482,0.000746,-0.003393,0.217217,0.059797,323.314487,23.984532,0.999640,0.990191,0.003883,0.513975,-0.000017,0.000003,-0.000004,0.000004,-0.000018,-79.428214,0.000018,
2146,2443,-2.41193734800614,-4.40180650253324,-0.0119452577683887,0.004207,0.000280,0.001580,0.188685,0.064701,324.313471,24.237323,0.999171,0.987848,0.004639,0.468092,-0.000017,-0.000007,-0.000011,0.000000,-0.000024,-57.280187,0.000028,
2176,2218,-1.72025742586204,-9.32135948352773,0.00344045563872442,0.004268,0.000094,-0.000865,0.198496,0.016147,327.973517,24.020542,0.998680,0.980812,0.005468,0.343890,-0.000010,0.000003,-0.000003,0.000004,-0.000010,-75.835145,0.000011,
2161,2653,-2.12151497206516,0.179777974273549,-0.0340642111071929,0.004459,0.000274,0.000871,0.202666,0.061987,320.687719,24.361194,0.999719,0.992374,0.003574,0.456936,-0.000022,0.000008,-0.000004,0.000009,-0.000023,-82.297925,0.000023,
2266,2518,0.18793513417512,-2.76370892791739,-0.00859028402265949,0.004304,0.000078,-0.000230,0.198515,0.040078,322.812196,24.010552,0.999560,0.992075,0.003826,0.488779,-0.000013,-0.000005,0.000003,-0.000004,-0.000014,73.505931,0.000019,
2296,2608,0.82444976478326,-0.797579222108126,-0.0160338046198376,0.004379,0.000616,-0.000904,0.204529,0.077205,321.256866,24.227153,0.999470,0.990599,0.003857,0.437568,-0.000004,-0.000009,-0.000001,-0.000003,-0.000010,-13.267056,0.000014,
2206,2308,-1.08130969012257,-7.35310816619059,0.0081632910144549,0.004136,0.000441,-0.001715,0.195398,0.054086,326.470917,23.923129,0.999082,0.985772,0.004685,0.447745,-0.000018,-0.000005,-0.000003,-0.000004,-0.000019,-77.471035,0.000024,
2236,2383,-0.4412451511078,-5.71218489403857,-0.00453971665081099,0.004260,0.000442,-0.002965,0.205298,0.042702,325.092023,23.911780,0.999445,0.987838,0.004533,0.444395,-0.000033,0.000012,-0.000001,0.000012,-0.000033,-89.109940,0.000033,
2191,2713,-1.47939067720017,1.48691759950228,-0.0332345135296919,0.004362,0.000043,-0.001145,0.204364,0.040358,319.622780,24.386465,0.999262,0.990879,0.003873,0.452506,-0.000016,0.000015,-0.000006,0.000016,-0.000017,-80.019143,0.000019,
2206,2248,-1.07131826513937,-8.6642261188148,-0.00298304554104334,0.004784,0.000139,-0.000622,0.221463,0.040080,327.371012,23.885312,0.998928,0.983423,0.005200,0.396297,-0.000023,-0.000002,0.000003,-0.000002,-0.000024,81.664311,0.000028,
2176,2458,-1.76117177085884,-4.0747299247491,-0.00812815717875992,0.004209,0.000055,0.000636,0.191446,0.030991,323.998717,24.165620,0.999220,0.987382,0.004623,0.440959,-0.000020,-0.000001,-0.000011,0.000004,-0.000025,-64.204606,0.000027,
2191,2473,-1.43782788195218,-3.74470573537338,-0.0238333864791684,0.004246,0.001289,-0.005394,0.212460,0.086506,323.597839,24.159473,0.999162,0.985284,0.004994,0.481788,-0.000009,0.000007,0.000001,0.000007,-0.000009,87.973088,0.000009,
2161,2458,-2.08763832393594,-4.0747245473551,-0.0110042303240334,0.004375,0.000126,0.000195,0.200552,0.063787,324.035189,24.166203,0.999292,0.988956,0.004285,0.510377,-0.000016,-0.000005,-0.000014,0.000004,-0.000025,-55.604253,0.000027,
2206,2533,-1.12074286882804,-2.43618199742858,-0.0143086395017917,0.004542,0.000777,-0.003622,0.220528,0.068726,322.671763,24.211188,0.999568,0.989146,0.004097,0.448320,-0.000005,0.000002,0.000006,0.000006,-0.000009,59.759983,0.000009,
2161,2278,-2.05689295966032,-8.00807768821522,0.000604348514798403,0.004728,-0.000158,0.001012,0.213900,0.047977,327.049512,24.115830,0.998397,0.979309,0.005812,0.402455,-0.000011,-0.000013,-0.000012,0.000000,-0.000024,-43.287608,0.000028,
2176,2638,-1.79217529550847,-0.147940716299644,-0.022165857006371,0.004521,-0.000047,0.003174,0.198198,0.056612,320.974043,24.309944,0.999587,0.990609,0.003914,0.481320,-0.000022,-0.000001,-0.000003,-0.000001,-0.000023,-81.237192,0.000027,
2386,2803,2.74546826752648,3.45524502433766,-0.0351428031098635,0.004459,0.000433,-0.001241,0.209634,0.055203,317.915974,24.638771,0.999863,0.995286,0.003259,0.478961,-0.000021,0.000004,-0.000014,0.000010,-0.000027,-65.621706,0.000028,
2296,2623,0.821256625449731,-0.470933807141819,-0.022398935868523,0.004240,0.000439,-0.002897,0.204843,0.052195,320.960978,24.192057,0.999373,0.989393,0.004002,0.478413,-0.000004,0.000003,-0.000001,0.000004,-0.000004,-83.152263,0.000004,
2281,2623,0.494249574976482,-0.470965852552972,-0.0247379736442213,0.004171,-0.000001,0.000756,0.189195,0.046099,320.943038,24.233189,0.999333,0.988428,0.004210,0.444210,-0.000005,0.000001,-0.000001,0.000001,-0.000005,-81.025178,0.000005,
2341,2578,1.80981977149532,-1.45112109293299,-0.0179365710694128,0.004352,0.000456,-0.001957,0.206901,0.067914,321.705031,24.046154,0.998922,0.986291,0.004576,0.488614,-0.000020,0.000009,-0.000003,0.000009,-0.000020,-84.400782,0.000020,
2206,2263,-1.07361212579997,-8.3369406598192,0.00352752353308006,0.004517,0.000225,-0.001560,0.212260,0.038999,327.174618,23.884984,0.999009,0.981981,0.005240,0.414266,-0.000019,-0.000010,0.000001,-0.000010,-0.000019,82.389764,0.000030,
2401,2878,3.05821306715034,5.08838848487181,-0.0249338534413255,0.004602,0.000632,-0.000371,0.213327,0.086655,316.793706,24.940865,0.999516,0.992065,0.003560,0.448217,-0.000035,0.000023,-0.000016,0.000027,-0.000039,-75.558159,0.000040,
2191,2278,-1.40319331837381,-8.00770534182632,-0.00183269272861253,0.004610,0.000510,-0.003673,0.223201,0.044975,326.940894,24.002682,0.998997,0.981763,0.005282,0.385578,-0.000020,-0.000009,-0.000014,0.000000,-0.000030,-56.015699,0.000034,
2251,2503,-0.136450974382928,-3.08931627485732,-0.0144765701581946,0.004326,0.000705,0.000033,0.198881,0.078379,323.030956,24.113467,0.999487,0.989861,0.004083,0.428356,-0.000017,-0.000004,-0.000006,-0.000002,-0.000019,-69.511879,0.000023,
2371,2713,2.43612724614009,1.49441862489306,-0.0313953317740356,0.004113,0.000128,-0.000292,0.190105,0.050604,319.385432,24.402985,0.999577,0.991447,0.003610,0.449662,-0.000024,0.000047,-0.000011,0.000049,-0.000025,-81.118474,0.000049,
2206,2323,-1.08355704335422,-7.02509989048179,0.00433769888013558,0.004680,0.000269,-0.002094,0.221525,0.021528,326.223388,23.935690,0.999102,0.986263,0.004511,0.421535,-0.000013,-0.000020,-0.000005,-0.000011,-0.000023,-27.877416,0.000035,
2311,2653,1.14234103337253,0.183096005933045,-0.0155628784784767,0.004116,0.000189,0.001340,0.184694,0.055971,320.497744,24.258973,0.999468,0.990433,0.003843,0.467466,-0.000008,0.000019,0.000002,0.000019,-0.000008,85.150642,0.000019,
2176,2233,-1.72270467623959,-8.99282897482286,0.000460452141680889,0.004406,0.000431,-0.002398,0.209701,0.054270,327.718179,23.986385,0.998906,0.983281,0.005056,0.431069,-0.000012,0.000011,-0.000002,0.000011,-0.000012,-84.141567,0.000014,
2206,2548,-1.12390916749542,-2.10820918700286,-0.0205689189255054,0.004396,0.000802,-0.003412,0.213195,0.074964,322.369032,24.240126,0.999594,0.990739,0.003855,0.443611,-0.000005,-0.000003,0.000003,-0.000001,-0.000007,56.128983,0.000009,
2326,2503,1.49682570773544,-3.08840127390464,-0.0151924761701139,0.004152,-0.000196,0.000922,0.187344,0.028027,322.929228,23.943104,0.999346,0.988092,0.004205,0.394507,-0.000022,-0.000016,-0.000004,-0.000014,-0.000024,-62.464861,0.000039,
2221,2368,-0.765607388960056,-6.03898060805805,-0.00883926892106501,0.004533,0.000036,-0.001075,0.211531,0.037004,325.338161,24.008299,0.999583,0.989493,0.004259,0.369974,-0.000031,0.000009,-0.000008,0.000010,-0.000033,-79.638995,0.000034,
2356,2653,2.12202349019465,0.18526019587118,-0.0210242516891981,0.004291,0.000297,-0.001444,0.202339,0.056226,320.456375,24.237678,0.999436,0.988089,0.004367,0.463101,-0.000020,0.000023,-0.000005,0.000024,-0.000021,-82.882759,0.000026,
2416,2983,3.36493621816919,7.37053019729073,-0.00629731775785558,0.004096,0.000845,0.000064,0.188590,0.073196,315.226876,25.251797,0.999849,0.994563,0.003196,0.478708,-0.000028,0.000024,-0.000006,0.000025,-0.000028,-83.115283,0.000031,
2191,2728,-1.48162373606045,1.81281124123459,-0.0262847045214016,0.004227,0.000158,-0.000838,0.197292,0.049263,319.430349,24.390171,0.999290,0.990201,0.003933,0.472523,-0.000015,0.000009,-0.000005,0.000010,-0.000017,-78.175297,0.000017,
2206,2758,-1.16058752172025,2.46677150658945,-0.0226415496940717,0.004196,0.000527,0.000225,0.192705,0.079076,318.924540,24.460306,0.999465,0.990759,0.003870,0.468254,-0.000020,0.000014,-0.000007,0.000016,-0.000021,-78.465772,0.000022,
2176,2473,-1.76423388914485,-3.74576309619432,-0.0154023064123976,0.004027,0.000542,-0.001225,0.189073,0.055908,323.692479,24.230210,0.999224,0.985565,0.004979,0.415008,-0.000015,0.000006,-0.000006,0.000008,-0.000017,-74.559795,0.000017,
2176,2653,-1.79552492913956,0.180463848291971,-0.0356478645502989,0.004406,0.000325,0.000111,0.202527,0.058632,320.622039,24.358247,0.999625,0.990369,0.003963,0.448099,-0.000023,0.000003,-0.000003,0.000004,-0.000023,-83.813232,0.000025,
2236,2398,-0.444487590567885,-5.38291939291217,-0.0136417222940963,0.004275,0.000695,-0.003066,0.206411,0.046484,324.774289,23.980766,0.999516,0.990077,0.004097,0.402353,-0.000028,0.000019,0.000002,0.000019,-0.000028,87.553168,0.000029,
2191,2488,-1.44054892476325,-3.4174433839304,-0.0232613313470438,0.004160,0.000936,-0.003405,0.202209,0.082110,323.349847,24.175747,0.999074,0.983644,0.005204,0.476867,-0.000010,0.000009,-0.000003,0.000009,-0.000010,-80.241952,0.000011,
2161,2473,-2.08990849446988,-3.74635518525199,-0.0122824469132752,0.004445,0.000933,-0.003229,0.214502,0.079162,323.795451,24.240670,0.999250,0.987008,0.004703,0.462784,-0.000012,0.000002,-0.000009,0.000006,-0.000016,-64.215183,0.000016,
2281,2638,0.492018612134775,-0.143803533523922,-0.0244052912804023,0.004360,0.000605,-0.002828,0.210107,0.055367,320.723042,24.273282,0.999229,0.986944,0.004346,0.441767,-0.000004,0.000013,-0.000002,0.000013,-0.000005,-84.080786,0.000013,
2161,2668,-2.12232853900045,0.504305084109831,-0.00993695430611297,0.004507,0.000554,0.000653,0.205638,0.079357,320.649350,24.356930,0.999750,0.993676,0.003288,0.488403,-0.000025,0.000016,-0.000006,0.000017,-0.000026,-82.234756,0.000026,
2386,2818,2.74266136396374,3.78148138638319,-0.0319539565429636,0.004347,0.000153,-0.000624,0.202138,0.035971,317.690791,24.700396,0.999707,0.992323,0.003699,0.441264,-0.000023,0.000005,-0.000014,0.000011,-0.000028,-67.855948,0.000029,
2266,2533,0.184846156107763,-2.43645472193958,-0.0151580171344108,0.004361,-0.000056,-0.000295,0.201280,0.020194,322.517389,23.992248,0.999661,0.995484,0.003253,0.514020,-0.000015,-0.000005,0.000000,-0.000005,-0.000015,-88.806776,0.000020,
2221,2593,-0.805821269298278,-1.12697553189498,-0.0222618343124736,0.004279,0.000352,0.000950,0.193849,0.076785,321.567775,24.221878,0.999204,0.987125,0.004415,0.498835,0.000000,0.000002,-0.000006,0.000007,-0.000005,-50.469386,0.000007,
2296,2638,0.818806210613481,-0.144478045864652,-0.0180467684467658,0.004264,0.000442,-0.002042,0.203037,0.047230,320.752193,24.215617,0.999311,0.988651,0.004087,0.480495,-0.000005,0.000014,-0.000002,0.000014,-0.000005,-83.810069,0.000014,
2206,2563,-1.12652130234684,-1.78173639719142,-0.0157520605586683,0.004236,0.000743,-0.000256,0.195818,0.073124,322.149181,24.242726,0.999634,0.991413,0.003723,0.456532,-0.000001,-0.000010,-0.000004,0.000000,-0.000011,-19.919850,0.000013,
2341,2593,1.80711394474342,-1.12322190554584,-0.0213298191507079,0.004793,0.000201,-0.001042,0.223893,0.057219,321.449905,24.127912,0.999249,0.988494,0.004270,0.433805,-0.000014,0.000004,-0.000003,0.000004,-0.000015,-79.914871,0.000016,
2176,2248,-1.72524807468594,-8.6651749975167,0.00179531087667328,0.004213,0.000139,-0.003106,0.202949,0.038703,327.481335,23.975631,0.998907,0.982346,0.005184,0.440892,-0.000016,0.000004,-0.000003,0.000004,-0.000016,-82.487585,0.000017,
2311,2668,1.13963390476832,0.511297973226014,-0.019974956537169,0.004378,0.000443,-0.000379,0.202726,0.060502,320.234568,24.368851,0.999781,0.992853,0.003496,0.394975,-0.000003,0.000033,-0.000001,0.000033,-0.000003,-88.649462,0.000036,
2221,2833,-0.846951187992683,4.09813099904134,-0.0144926549452293,0.004355,0.000330,0.001291,0.196586,0.075696,317.737477,24.538337,0.999406,0.990969,0.003831,0.488023,-0.000013,0.000019,0.000012,0.000023,-0.000017,71.335704,0.000024,
2326,2518,1.49379389453826,-2.76045987238582,-0.0213033569207823,0.004060,0.000283,-0.003120,0.197249,0.029777,322.644793,23.966351,0.999279,0.986886,0.004369,0.408658,-0.000022,-0.000016,-0.000001,-0.000016,-0.000022,-84.137344,0.000038,
2401,2893,3.05599001219906,5.41367271517332,-0.0172305337106309,0.004584,0.000570,-0.001664,0.217153,0.071519,316.617646,24.963594,0.999547,0.991741,0.003656,0.455362,-0.000037,0.000018,-0.000017,0.000022,-0.000041,-74.164541,0.000041,
2416,2998,3.36241836364323,7.69639623902186,-0.00258714216090539,0.004356,0.000415,0.001621,0.194671,0.063650,315.018789,25.320002,0.999543,0.989664,0.003931,0.447912,-0.000026,0.000022,-0.000002,0.000022,-0.000026,-87.813521,0.000028,
2356,2668,2.11913128148874,0.512092019699722,-0.0209310577869815,0.004363,0.000352,0.000269,0.199685,0.061868,320.210675,24.259195,0.999559,0.990029,0.004046,0.486747,-0.000018,0.000037,-0.000005,0.000037,-0.000019,-85.135458,0.000037,
2206,2773,-1.16299342003365,2.79347221648587,-0.0206850684098754,0.004192,0.000531,-0.000514,0.194855,0.079254,318.699049,24.519281,0.999388,0.990986,0.003959,0.426177,-0.000022,0.000014,-0.000005,0.000014,-0.000023,-82.475998,0.000023,
2176,2488,-1.76687201993675,-3.41841214109388,-0.0158375833789819,0.003942,0.000525,-0.001029,0.184568,0.068711,323.441766,24.227360,0.999140,0.985099,0.004976,0.444358,-0.000016,0.000008,-0.000011,0.000012,-0.000020,-69.325516,0.000020,
2236,2413,-0.448908998024688,-5.05181362159166,-0.0351296962267043,0.003999,0.000604,-0.003185,0.194131,0.045572,324.339176,24.111694,0.999664,0.991386,0.003727,0.293974,-0.000026,0.000014,-0.000002,0.000014,-0.000026,-86.593325,0.000027,
2206,2338,-1.08693758902313,-6.69536828375762,-0.0013030370965339,0.004315,0.000604,-0.001200,0.202056,0.045598,325.914046,24.037279,0.999514,0.989408,0.004213,0.362798,-0.000017,-0.000011,-0.000008,-0.000005,-0.000023,-55.491055,0.000030,
2281,2653,0.489461579032156,0.18297587866526,-0.022440328850621,0.004441,0.000594,-0.001827,0.210499,0.059730,320.496295,24.301487,0.999440,0.989488,0.004041,0.446150,-0.000003,0.000016,0.000002,0.000016,-0.000003,83.593650,0.000017,
2371,2728,2.43380595690527,1.82099071778858,-0.0243786023799544,0.004379,-0.000022,0.003110,0.190251,0.061059,319.200048,24.470617,0.999577,0.991154,0.003699,0.433624,-0.000026,0.000032,-0.000008,0.000033,-0.000027,-81.858137,0.000035,
2386,2833,2.73963587225797,4.10844938451287,-0.0292447962892197,0.004167,0.000290,0.001412,0.186650,0.053834,317.452960,24.792615,0.999586,0.988500,0.004172,0.409920,-0.000026,0.000010,-0.000012,0.000013,-0.000030,-73.413594,0.000030,
2221,2383,-0.768404304770403,-5.7122432553676,-0.00881714394421351,0.004370,-0.000051,-0.000247,0.201391,0.025877,325.086560,23.943170,0.999495,0.988936,0.004274,0.444608,-0.000029,0.000015,-0.000004,0.000016,-0.000030,-84.678588,0.000030,
2161,2488,-2.0930018135829,-3.41839022655608,-0.0207635097689831,0.004460,0.001008,-0.002367,0.212653,0.094997,323.480221,24.216999,0.999170,0.986648,0.004699,0.513826,-0.000013,0.000004,-0.000013,0.000012,-0.000021,-61.503506,0.000021,
2251,2518,-0.139444977105992,-2.76207552957196,-0.0154877676151841,0.004063,0.000671,0.000198,0.186310,0.081987,322.767109,24.115500,0.999230,0.987717,0.004453,0.454452,-0.000017,-0.000003,-0.000001,-0.000003,-0.000017,-85.554108,0.000022,
2191,2293,-1.40613486833447,-7.67962694001342,-0.00257757616697063,0.004196,0.000576,-0.004329,0.206302,0.052844,326.676030,24.002137,0.999000,0.983334,0.005110,0.410834,-0.000021,-0.000002,-0.000010,0.000003,-0.000026,-66.557342,0.000028,
2176,2668,-1.79715789441133,0.505828526929207,-0.0219337865748912,0.004232,0.000481,-0.001844,0.200660,0.058729,320.491787,24.361983,0.999626,0.992580,0.003555,0.456802,-0.000025,0.000013,-0.000005,0.000013,-0.000026,-83.322069,0.000026,
2161,2683,-2.12569046649002,0.831682128718739,-0.0195343012520652,0.004322,0.000340,0.001128,0.195639,0.064644,320.315902,24.369672,0.999484,0.991217,0.003716,0.471753,-0.000026,0.000016,-0.000009,0.000018,-0.000027,-78.229103,0.000028,
2176,2263,-1.7274927242215,-8.33552261333174,0.00217323185290752,0.004280,0.001065,-0.005449,0.213635,0.078369,327.252538,24.087487,0.999128,0.981854,0.005289,0.383105,-0.000013,-0.000002,-0.000005,0.000000,-0.000015,-67.972624,0.000017,
2176,2503,-1.76930839492033,-3.09138358919305,-0.018687258789214,0.004128,0.000275,-0.002221,0.196738,0.035714,323.187897,24.223599,0.999091,0.984538,0.005022,0.428551,-0.000013,0.000003,-0.000011,0.000008,-0.000018,-63.764050,0.000018,
2326,2533,1.49111130483234,-2.43324658480546,-0.0222475356250129,0.004239,0.000377,-0.003021,0.205174,0.039074,322.401658,23.967171,0.999388,0.986987,0.004338,0.452533,-0.000021,-0.000016,-0.000003,-0.000014,-0.000023,-66.275043,0.000038,
2191,2503,-1.44255386297161,-3.09131732221125,-0.015485690507262,0.004338,0.000314,-0.000788,0.201955,0.033788,323.172442,24.201809,0.999274,0.986341,0.004726,0.417729,-0.000007,0.000004,-0.000004,0.000006,-0.000008,-71.593040,0.000008,
2161,2503,-2.09592649030236,-3.09034816928719,-0.0313470246837824,0.004692,0.000748,-0.002964,0.225035,0.061807,323.161774,24.236179,0.999076,0.985917,0.004818,0.473073,-0.000010,0.000003,-0.000012,0.000010,-0.000017,-58.963896,0.000017,
2236,2428,-0.450214370946693,-4.7271382783366,-0.0204876035334678,0.004333,0.000510,-0.002107,0.205967,0.063686,324.231659,23.983269,0.999464,0.990423,0.003998,0.462662,-0.000022,0.000007,-0.000003,0.000008,-0.000022,-84.161098,0.000023,
2281,2668,0.486954977193822,0.510935389135383,-0.0240499720914613,0.004727,0.000488,-0.002392,0.225514,0.045770,320.253756,24.430880,0.999677,0.991800,0.003803,0.331050,-0.000002,0.000028,-0.000001,0.000028,-0.000002,-87.447142,0.000031,
2206,2578,-1.12906316734736,-1.45521382338291,-0.0146899258505186,0.004357,0.000263,0.002151,0.193666,0.074166,321.913150,24.218272,0.999402,0.989841,0.003969,0.499507,0.000000,-0.000004,-0.000003,0.000002,-0.000005,-27.319519,0.000005,
2221,2608,-0.808422763307728,-0.799985614062493,-0.0251593559907519,0.004475,0.000330,0.000877,0.203071,0.059756,321.309747,24.234252,0.998991,0.984319,0.004791,0.489239,-0.000004,-0.000010,-0.000002,-0.000004,-0.000010,-13.920114,0.000014,
2206,2353,-1.08988722784903,-6.36861351017834,-2.99972841730778E-05,0.004026,0.000115,0.001687,0.179554,0.057398,325.660624,23.952336,0.999659,0.990353,0.004093,0.478363,-0.000022,0.000001,-0.000009,0.000005,-0.000025,-71.293413,0.000027,
2251,2533,-0.142935163265985,-2.43394701877929,-0.0232280443158857,0.003999,0.000033,0.003217,0.173276,0.062644,322.446353,24.166633,0.999579,0.992243,0.003680,0.408455,-0.000018,-0.000003,-0.000004,-0.000001,-0.000019,-75.215231,0.000023,
2221,2398,-0.770795064282506,-5.38294308427877,-0.00779235870987804,0.004337,0.000559,-0.002582,0.207624,0.053251,324.858007,24.088578,0.999641,0.991230,0.003861,0.347219,-0.000025,0.000020,-0.000002,0.000020,-0.000025,-88.053020,0.000027,
2401,2908,3.05271949400801,5.74000734384902,-0.0128445227529141,0.004325,-0.000002,0.003805,0.185169,0.054112,316.377404,25.064734,0.999563,0.991251,0.003760,0.381544,-0.000037,0.000014,-0.000017,0.000019,-0.000042,-73.474562,0.000042,
2416,3013,3.35925898749001,8.022786580134,-0.00425121118604466,0.004025,0.000588,-0.001552,0.191184,0.064817,314.755740,25.393445,0.999382,0.987875,0.004152,0.422533,-0.000024,0.000022,-0.000005,0.000022,-0.000024,-84.036381,0.000027,
2266,2548,0.181975958104285,-2.10758924205371,-0.0157698728846754,0.004275,-0.000084,0.000429,0.194953,0.027595,322.262011,24.152919,0.999546,0.992553,0.003700,0.387343,-0.000009,-0.000006,-0.000001,-0.000006,-0.000010,-69.849305,0.000016,
2386,2848,2.73764378352668,4.4340040001989,-0.0220693749708403,0.004479,0.000276,0.001087,0.202204,0.065441,317.284200,24.798321,0.999550,0.989941,0.003944,0.458721,-0.000025,0.000012,-0.000017,0.000018,-0.000032,-69.239883,0.000032,
2341,2608,1.80333450611758,-0.795339036703965,-0.0312686766769161,0.004771,0.000008,0.001351,0.214492,0.068429,321.113635,24.135412,0.999342,0.987425,0.004421,0.475042,-0.000014,-0.000003,-0.000003,-0.000002,-0.000014,-77.286116,0.000018,
2296,2653,0.81525145024948,0.183396641864675,-0.0263131455856751,0.004108,0.000403,-0.001380,0.193671,0.049780,320.429823,24.260253,0.999287,0.988777,0.004064,0.468969,-0.000003,0.000016,0.000002,0.000017,-0.000003,84.083587,0.000018,
2356,2683,2.11599889705262,0.840234658363542,-0.0256751751426236,0.004478,0.000447,0.000705,0.203468,0.067421,319.930289,24.365881,0.999648,0.990509,0.003808,0.425008,-0.000019,0.000044,-0.000004,0.000045,-0.000020,-86.232560,0.000045,
2221,2848,-0.849744953148804,4.42518492750722,-0.0239245423991861,0.004575,0.000536,-0.002510,0.218983,0.069600,317.436570,24.571970,0.999373,0.991214,0.003699,0.467108,-0.000014,0.000013,0.000015,0.000020,-0.000020,66.390748,0.000023,
2311,2683,1.13707515585368,0.837223266779894,-0.0185369859597699,0.004442,0.000572,-0.000748,0.206993,0.077274,320.007446,24.311003,0.999724,0.992161,0.003638,0.502278,-0.000003,0.000038,-0.000001,0.000038,-0.000003,-89.222672,0.000042,
2191,2743,-1.48363784045556,2.13916893485413,-0.0193532363389295,0.004345,0.000356,-0.000120,0.200536,0.061046,319.247725,24.436943,0.999439,0.990685,0.003908,0.451846,-0.000016,0.000011,-0.000009,0.000013,-0.000018,-73.573627,0.000019,
2206,2788,-1.16554157978133,3.1187270003327,-0.0204434320670543,0.004391,-0.000109,0.002082,0.195526,0.039181,318.458648,24.476492,0.999145,0.989308,0.004241,0.445652,-0.000021,0.000015,-0.000003,0.000015,-0.000022,-85.433927,0.000022,
2176,2518,-1.77165728928727,-2.76452331503324,-0.0172613504000196,0.004340,0.000054,-0.000074,0.199760,0.044945,322.960254,24.206056,0.999089,0.987011,0.004658,0.468738,-0.000015,0.000001,-0.000002,0.000002,-0.000015,-81.982715,0.000017,
2161,2698,-2.12863247379481,1.1586861860645,-0.0238809302552454,0.004181,0.000447,0.001235,0.188908,0.087220,320.029332,24.359806,0.999352,0.988461,0.004069,0.514483,-0.000025,0.000016,-0.000008,0.000017,-0.000026,-79.356602,0.000027,
2326,2548,1.48826810491555,-2.10570442506634,-0.0238787542152181,0.004411,0.000421,-0.001605,0.208266,0.062327,322.147641,23.983067,0.999116,0.985354,0.004692,0.495434,-0.000017,-0.000010,-0.000003,-0.000009,-0.000018,-69.876129,0.000028,
2371,2743,2.43097121138955,2.14767103866814,-0.0286465859310283,0.004503,0.000177,0.000005,0.207016,0.048700,318.937069,24.484636,0.999504,0.990618,0.003769,0.448762,-0.000025,0.000025,-0.000007,0.000026,-0.000026,-82.751210,0.000030,
2191,2308,-1.40910397477755,-7.35319917993497,0.00655691631550326,0.003649,-0.000377,0.003392,0.156752,0.037592,326.461497,23.977663,0.998839,0.983382,0.005163,0.436213,-0.000017,-0.000007,-0.000013,0.000001,-0.000026,-55.004038,0.000029,
2236,2443,-0.452479121516628,-4.39954531985447,-0.0110073834020454,0.004173,-0.000025,0.000068,0.191437,0.052545,324.053457,24.105776,0.999584,0.991807,0.003968,0.351115,-0.000023,0.000004,0.000000,0.000004,-0.000023,-89.808476,0.000024,
2191,2518,-1.44470089741951,-2.76580510917278,-0.00748473484964052,0.004335,-0.000133,0.001525,0.194427,0.036395,322.989663,24.126651,0.999370,0.988362,0.004474,0.511030,-0.000008,0.000005,0.000004,0.000006,-0.000009,74.902919,0.000009,
2161,2518,-2.09922217577597,-2.76311828144397,-0.0324446575775141,0.004170,0.000257,0.000212,0.191155,0.047039,322.876327,24.254467,0.998931,0.986884,0.004755,0.451072,-0.000010,0.000003,-0.000003,0.000004,-0.000011,-79.596321,0.000011,
2416,3028,3.35623908245951,8.34864429968435,-0.00448869275913921,0.004137,0.000481,0.000513,0.188793,0.073623,314.505876,25.423979,0.999504,0.989333,0.004005,0.448007,-0.000023,0.000026,-0.000007,0.000027,-0.000024,-82.473010,0.000030,
2281,2683,0.483708512835015,0.836494989479213,-0.0218215026089865,0.004291,0.000173,0.001280,0.193122,0.059732,319.996878,24.348778,0.999670,0.992103,0.003669,0.455446,-0.000001,0.000028,-0.000002,0.000028,-0.000001,-86.161024,0.000032,
2386,2863,2.73517366964723,4.76028998848059,-0.0181396988732558,0.004445,0.000499,-0.000829,0.207714,0.083498,317.077780,24.844210,0.999497,0.989986,0.003884,0.474129,-0.000028,0.000020,-0.000017,0.000025,-0.000033,-72.359080,0.000035,
2176,2278,-1.72973290192854,-8.00932205313766,0.0094477710650267,0.004493,0.000032,0.001332,0.202092,0.060321,327.060803,24.016552,0.998859,0.981384,0.005409,0.450401,-0.000014,-0.000010,-0.000014,0.000003,-0.000027,-49.522327,0.000030,
2356,2698,2.1129881031125,1.16539564542893,-0.0202600509209674,0.004046,-0.000050,0.002784,0.176131,0.054799,319.705091,24.305273,0.999602,0.991551,0.003669,0.511882,-0.000020,0.000049,-0.000005,0.000049,-0.000020,-85.686545,0.000049,
2176,2683,-1.80013391055272,0.832229118386905,-0.0250806776406876,0.004070,0.000353,-0.000735,0.189699,0.052053,320.211493,24.331378,0.999380,0.991648,0.003791,0.493497,-0.000027,0.000015,-0.000008,0.000017,-0.000028,-79.823992,0.000028,
2311,2698,1.13412951609671,1.16364621832965,-0.0192795042148646,0.004317,0.000373,-0.000707,0.201084,0.076208,319.751718,24.303239,0.999742,0.992753,0.003573,0.541641,-0.000006,0.000038,-0.000001,0.000038,-0.000006,-88.769375,0.000041,
2251,2548,-0.144990668245448,-2.10790126759195,-0.0199282921316239,0.004313,-0.000176,0.002666,0.189396,0.036914,322.247607,24.136867,0.999694,0.993794,0.003434,0.436584,-0.000013,-0.000006,-0.000006,-0.000002,-0.000017,-60.406591,0.000021,
2191,2758,-1.48622058201202,2.46572642607009,-0.019574868260861,0.004262,0.000530,-0.001199,0.200220,0.073138,319.001755,24.448887,0.999432,0.991057,0.003792,0.466688,-0.000021,0.000016,-0.000011,0.000019,-0.000023,-74.637206,0.000025,
2176,2533,-1.77414460745634,-2.43706594062552,-0.0175921342339507,0.004345,0.000305,-0.000726,0.202121,0.060038,322.716919,24.226279,0.998964,0.988258,0.004380,0.476837,-0.000013,0.000003,-0.000001,0.000003,-0.000013,-87.633316,0.000014,
2401,2923,3.05028807694335,6.06530140418859,-0.00990266089968372,0.004376,0.000307,0.001265,0.196853,0.058732,316.169143,25.041287,0.999518,0.991366,0.003786,0.454984,-0.000034,0.000010,-0.000020,0.000017,-0.000042,-68.685806,0.000042,
2296,2668,0.813055028173629,0.510578375088045,-0.0211088978244902,0.004212,0.000405,-0.002115,0.200932,0.042385,320.236671,24.368839,0.999600,0.991009,0.003792,0.383421,0.000000,0.000030,-0.000002,0.000030,0.000000,-86.628917,0.000035,
2341,2623,1.80059815740224,-0.468973573063082,-0.0222358340305959,0.004300,0.000185,0.003238,0.186360,0.074204,320.917514,24.176842,0.999392,0.988529,0.004203,0.476373,-0.000016,0.000005,-0.000003,0.000006,-0.000016,-81.079742,0.000016,
2206,2368,-1.09221965828027,-6.03984736789868,-0.0048880832582654,0.004569,0.000210,0.001379,0.205518,0.057291,325.403517,24.008406,0.999527,0.988922,0.004291,0.440706,-0.000025,0.000009,-0.000011,0.000012,-0.000029,-73.143940,0.000029,
2206,2803,-1.16869195600407,3.44530781416523,-0.0224454375389769,0.004106,-0.000085,0.004072,0.176151,0.054241,318.178499,24.487751,0.998765,0.986187,0.004721,0.466252,-0.000020,0.000011,-0.000002,0.000011,-0.000020,-86.713857,0.000020,
2326,2563,1.48575740378915,-1.77826670648237,-0.0186945768068085,0.004429,0.000346,0.000146,0.203096,0.080143,321.942135,24.059794,0.998769,0.984470,0.004940,0.471854,-0.000021,-0.000005,-0.000005,-0.000004,-0.000023,-74.360912,0.000029,
2206,2593,-1.13156735922421,-1.12797327978829,-0.0118966631594049,0.004355,0.000046,0.003883,0.188031,0.081458,321.687563,24.272950,0.999152,0.987914,0.004311,0.469650,-0.000004,0.000002,-0.000002,0.000003,-0.000004,-73.388453,0.000004,
2221,2623,-0.811453842254256,-0.47331084481489,-0.0216006567213753,0.004126,-0.000316,0.005569,0.171815,0.049070,321.065143,24.271598,0.999131,0.985761,0.004693,0.460641,-0.000005,-0.000002,-0.000001,-0.000002,-0.000005,-69.587263,0.000007,
2236,2668,-0.491626306145992,0.507341228734823,-0.00886362166306753,0.004220,0.000417,-0.000034,0.194350,0.061734,320.428842,24.381762,0.999487,0.990981,0.003894,0.415058,0.000002,0.000019,-0.000004,0.000020,0.000001,-78.322532,0.000024,
2236,2458,-0.454996492318209,-4.07295015909246,-0.00622529803263205,0.004030,-0.000034,0.001488,0.180273,0.057713,323.839923,24.080672,0.999448,0.990002,0.004240,0.403849,-0.000020,-0.000003,0.000000,-0.000003,-0.000020,88.500802,0.000025,
2416,3043,3.35407171840754,8.67368316416692,0.00849783333939058,0.004084,0.000434,0.003112,0.176804,0.078633,314.357466,25.473718,0.999594,0.990832,0.003845,0.449765,-0.000025,0.000026,-0.000003,0.000026,-0.000025,-86.818165,0.000029,
2221,2413,-0.773325913792753,-5.05575492677757,-0.00412843598434165,0.004322,0.000521,0.000101,0.198337,0.063856,324.637008,24.087447,0.999654,0.991196,0.003862,0.379416,-0.000022,0.000014,-0.000005,0.000015,-0.000023,-81.655469,0.000023,
2281,2698,0.481220646570289,1.16283238482717,-0.0142564534531857,0.004170,-0.000043,0.004135,0.177933,0.059599,319.801263,24.399889,0.999791,0.993666,0.003446,0.432186,-0.000004,0.000029,-0.000002,0.000029,-0.000004,-86.222032,0.000031,
2386,2878,2.73218641284564,5.08709684023633,-0.0176140372342388,0.004288,0.000516,-0.001194,0.201760,0.070261,316.831251,24.948145,0.999506,0.991969,0.003651,0.399859,-0.000032,0.000022,-0.000014,0.000025,-0.000035,-76.377589,0.000036,
2161,2713,-2.13119963650799,1.48578543760694,-0.0246929644816873,0.004164,0.000230,0.001066,0.188531,0.059157,319.778644,24.442885,0.999414,0.990502,0.003924,0.413931,-0.000023,0.000015,-0.000008,0.000016,-0.000025,-78.783460,0.000025,
2191,2533,-1.44792955609264,-2.43685151036463,-0.0171874578424536,0.004363,0.000015,0.002174,0.193787,0.050854,322.664576,24.200464,0.999336,0.989022,0.004260,0.467455,-0.000006,0.000007,0.000006,0.000009,-0.000008,68.607812,0.000010,
2191,2323,-1.41085760874082,-7.02485379387259,0.00226053638533585,0.004416,0.000189,-0.000933,0.205713,0.041719,326.232522,23.979552,0.999079,0.985870,0.004756,0.454895,-0.000009,-0.000026,-0.000016,0.000000,-0.000035,-30.987789,0.000041,
2266,2563,0.179616452723678,-1.78166288343037,-0.0157447929381647,0.004433,0.000157,-0.001637,0.209155,0.042309,322.033847,24.047302,0.999441,0.990500,0.004068,0.533977,-0.000011,-0.000009,-0.000008,-0.000002,-0.000018,-47.214402,0.000022,
2221,2863,-0.852785790965775,4.75133149158876,-0.0216726038786987,0.004163,0.000410,-0.000121,0.192302,0.067707,317.184543,24.610277,0.999393,0.992080,0.003529,0.445438,-0.000015,0.000018,0.000008,0.000020,-0.000017,77.324428,0.000021,
2356,2713,2.11009278598062,1.49361340303703,-0.0228405056028009,0.004150,0.000353,0.002172,0.183252,0.063467,319.445866,24.443053,0.999586,0.992031,0.003542,0.422183,-0.000019,0.000050,-0.000004,0.000050,-0.000019,-86.527010,0.000050,
2236,2683,-0.494723832942942,0.834489150709338,-0.0174710610547208,0.004297,0.000584,-0.000965,0.200998,0.063749,320.120019,24.366175,0.999460,0.989901,0.003953,0.454053,0.000000,0.000021,-0.000006,0.000022,-0.000002,-75.448045,0.000025,
2371,2758,2.42808465916005,2.47545375169522,-0.0334309701778466,0.004649,0.000772,-0.002713,0.223643,0.062099,318.668848,24.575265,0.999192,0.987587,0.004124,0.412733,-0.000022,0.000021,-0.000004,0.000022,-0.000022,-84.503947,0.000025,
2176,2698,-1.80271331041673,1.15958209673472,-0.0277670791595597,0.004259,0.000371,0.000087,0.195916,0.069557,319.951450,24.372751,0.999409,0.991436,0.003737,0.482475,-0.000027,0.000016,-0.000008,0.000017,-0.000028,-79.741765,0.000029,
2176,2293,-1.73221670949435,-7.67985008718634,0.00298103212594469,0.004534,0.000688,-0.004749,0.223041,0.067650,326.785514,24.085199,0.998912,0.982609,0.005253,0.403653,-0.000016,-0.000002,-0.000012,0.000005,-0.000023,-60.383137,0.000024,
2251,2563,-0.147136266756586,-1.78080381126721,-0.0219970833414891,0.004673,0.000360,-0.001386,0.219401,0.047285,322.017225,24.124516,0.999551,0.991681,0.003760,0.483702,-0.000014,-0.000009,-0.000013,0.000001,-0.000024,-49.709542,0.000027,
2311,2713,1.13095679398145,1.49106834221475,-0.0202298264658793,0.004035,0.000539,0.000005,0.185773,0.078870,319.484236,24.386515,0.999523,0.990889,0.003876,0.493351,-0.000007,0.000038,0.000003,0.000039,-0.000007,86.714865,0.000041,
2191,2773,-1.48991604707893,2.79343271919669,-0.0348920737079652,0.004301,0.000372,0.000564,0.196495,0.085601,318.625873,24.452498,0.999305,0.990275,0.004059,0.490368,-0.000022,0.000015,-0.000009,0.000017,-0.000024,-77.468071,0.000025,
2206,2818,-1.17083069546313,3.77092646798373,-0.0193179132477894,0.004234,-0.000046,0.002572,0.186780,0.040989,317.971601,24.482435,0.999029,0.988215,0.004347,0.474703,-0.000019,0.000019,0.000004,0.000020,-0.000019,83.536594,0.000022,
2296,2683,0.810091129703913,0.83659077512327,-0.0203243192666491,0.004155,0.000175,0.001016,0.187671,0.060279,319.986574,24.312416,0.999655,0.990607,0.003806,0.488182,0.000001,0.000033,-0.000002,0.000033,0.000001,-86.392065,0.000039,
2236,2473,-0.457347477274237,-3.74701315861478,-0.00391496066345098,0.004077,0.000091,0.000845,0.184602,0.056282,323.621595,23.983272,0.999504,0.990986,0.004034,0.522138,-0.000013,0.000002,0.000001,0.000002,-0.000013,84.825276,0.000014,
2341,2638,1.79831381566817,-0.14236691620367,-0.0209294348537696,0.004268,0.000584,-0.002786,0.205994,0.053702,320.704667,24.204585,0.999396,0.988663,0.004193,0.465277,-0.000017,0.000013,-0.000008,0.000015,-0.000019,-76.349552,0.000020,
2176,2548,-1.77711518554846,-2.10998416685803,-0.0214045771576252,0.004190,-0.000187,-0.000118,0.192974,0.036739,322.433446,24.224409,0.999182,0.988367,0.004299,0.468713,-0.000014,0.000001,-0.000001,0.000001,-0.000014,-84.323727,0.000016,
2206,2383,-1.09538587121996,-5.71196091956497,-0.00724534567706314,0.004279,0.000035,0.003622,0.185065,0.053608,325.121275,24.017565,0.999312,0.987181,0.004443,0.446343,-0.000023,0.000015,-0.000007,0.000016,-0.000024,-80.370421,0.000024,
2401,2938,3.04722042731743,6.39119030215889,-0.00596481134402893,0.003902,0.000741,0.001091,0.175917,0.086267,315.936059,25.060661,0.999528,0.991427,0.003797,0.508055,-0.000028,0.000011,-0.000019,0.000019,-0.000036,-67.575561,0.000036,
2221,2638,-0.814263686734716,-0.145987403721819,-0.0335553133973008,0.004373,0.000126,0.000129,0.200788,0.054379,320.750925,24.225445,0.998944,0.986826,0.004714,0.531945,-0.000003,0.000009,0.000000,0.000009,-0.000003,-89.541591,0.000010,
2416,3058,3.35108747843006,8.9995109600736,0.00926749030674046,0.004109,0.000372,0.004647,0.172316,0.075154,314.113861,25.527571,0.999654,0.991539,0.003720,0.439159,-0.000024,0.000018,0.000000,0.000018,-0.000024,-89.966317,0.000025,
2281,2713,0.47853442137195,1.48926407080588,-0.0162566311365708,0.004047,0.000373,0.000158,0.185771,0.063105,319.548749,24.381994,0.999712,0.993315,0.003490,0.481561,-0.000006,0.000026,0.000000,0.000026,-0.000006,-89.510396,0.000027,
2326,2578,1.48298552619325,-1.45118528590055,-0.0188162554256905,0.004308,0.000409,-0.001754,0.204108,0.060097,321.698895,24.099364,0.999201,0.988763,0.004205,0.447275,-0.000017,0.000005,-0.000002,0.000006,-0.000018,-85.858229,0.000018,
2191,2338,-1.41295829988333,-6.69610428595598,0.0118666502163478,0.004219,0.000548,-0.000516,0.195484,0.067342,326.059538,24.139538,0.999618,0.990302,0.004226,0.336813,-0.000014,-0.000016,-0.000018,0.000003,-0.000033,-43.284996,0.000037,
2386,2893,2.72952940901382,5.41299919504851,-0.017987633747282,0.004332,0.001034,-0.004005,0.214125,0.085807,316.595771,24.937745,0.999530,0.992568,0.003593,0.468973,-0.000033,0.000017,-0.000014,0.000021,-0.000037,-75.107109,0.000037,
2206,2608,-1.13444767422117,-0.800312852835837,-0.0211349452189893,0.004463,0.000457,0.000635,0.203446,0.078059,321.382564,24.277782,0.999025,0.985840,0.004651,0.478972,-0.000009,-0.000012,0.000002,-0.000007,-0.000013,27.052106,0.000021,
2176,2308,-1.73538848401867,-7.35278521413846,0.0105364123745062,0.003801,0.000217,0.002027,0.168319,0.061052,326.552396,24.093941,0.998804,0.983042,0.005209,0.402346,-0.000013,-0.000009,-0.000015,0.000004,-0.000026,-49.438075,0.000028,
2161,2728,-2.1334850708638,1.81203889581411,-0.0291173255057515,0.004502,0.000595,-0.001533,0.212193,0.067502,319.521975,24.387654,0.999522,0.990647,0.003931,0.487888,-0.000024,0.000012,-0.000007,0.000014,-0.000025,-78.774178,0.000025,
2176,2713,-1.80500175722862,1.48642524544777,-0.0285006114087309,0.004238,0.000580,-0.004522,0.209298,0.047323,319.715186,24.427672,0.999258,0.990967,0.003876,0.417790,-0.000026,0.000014,-0.000007,0.000015,-0.000027,-80.477772,0.000027,
2191,2548,-1.45060070188899,-2.11030863015821,-0.0121814031181202,0.003984,-0.000163,0.003554,0.171998,0.050689,322.441980,24.204571,0.999442,0.990320,0.004088,0.478429,-0.000006,0.000005,0.000004,0.000006,-0.000007,72.058208,0.000008,
2251,2578,-0.149747164270458,-1.45378764443451,-0.0174446458873376,0.004517,0.000322,0.000413,0.206373,0.062367,321.798947,24.162968,0.999412,0.989631,0.004079,0.484353,-0.000009,-0.000002,-0.000012,0.000007,-0.000018,-53.753577,0.000018,
2221,2428,-0.77507232593879,-4.73231728607898,0.00546060759688771,0.004308,0.000338,-0.002178,0.204942,0.055993,324.483102,23.821686,0.999707,0.990778,0.003899,0.657293,-0.000018,0.000006,-0.000004,0.000007,-0.000019,-80.084459,0.000019,
2416,3073,3.34850000482477,9.32506650628829,0.00966921365721873,0.004146,0.000649,0.001030,0.187360,0.066083,313.886818,25.563408,0.999653,0.991758,0.003686,0.441197,-0.000021,0.000016,0.000003,0.000016,-0.000021,85.665042,0.000022,
2356,2728,2.10781522429057,1.81958639954971,-0.0141373911877167,0.004242,0.000086,0.004746,0.178308,0.058865,319.269885,24.483445,0.999532,0.991070,0.003725,0.415971,-0.000021,0.000036,-0.000001,0.000036,-0.000021,-88.955880,0.000036,
2176,2563,-1.7796378518958,-1.78229957576619,-0.0227600265217802,0.004224,0.000048,-0.000906,0.197087,0.046087,322.183061,24.272064,0.999191,0.987427,0.004364,0.443695,-0.000011,-0.000007,-0.000006,-0.000003,-0.000015,-54.261397,0.000019,
2341,2653,1.79460643006507,0.185778913066521,-0.0324371535976979,0.004207,0.000594,-0.003435,0.205535,0.056582,320.363870,24.247455,0.999492,0.989928,0.004049,0.462830,-0.000019,0.000017,-0.000004,0.000018,-0.000019,-84.218208,0.000021,
2206,2833,-1.17225059671659,4.09699957348753,-0.00781178655120129,0.004611,0.000132,0.002618,0.204129,0.065523,317.840783,24.548242,0.999324,0.990148,0.003971,0.449862,-0.000017,0.000017,0.000007,0.000018,-0.000018,78.415643,0.000021,
2221,2878,-0.854767664887241,5.07610524805646,-0.0127536780582886,0.004260,0.000278,0.001141,0.192710,0.072281,317.015759,24.568683,0.999413,0.993436,0.003309,0.510114,-0.000015,0.000023,0.000007,0.000025,-0.000016,79.240770,0.000025,
2236,2488,-0.460465343281452,-3.41753000789451,-0.0171654353101758,0.004435,0.000210,-0.000440,0.205280,0.056486,323.288195,24.071237,0.999499,0.989433,0.004103,0.457220,-0.000010,0.000001,-0.000003,0.000002,-0.000011,-78.175427,0.000012,
2206,2398,-1.09731840542729,-5.38371462892357,-0.00664586174315218,0.004581,0.000466,-0.000488,0.212097,0.072756,324.910564,24.070259,0.999454,0.988995,0.004273,0.431001,-0.000019,0.000020,-0.000004,0.000020,-0.000020,-83.577700,0.000023,
2191,2788,-1.49208960754587,3.11899427370389,-0.0310068169110309,0.004389,0.000288,0.000113,0.201853,0.045898,318.420387,24.466441,0.998989,0.988267,0.004463,0.451126,-0.000023,0.000016,-0.000007,0.000017,-0.000024,-79.623308,0.000025,
2281,2728,0.475228070863356,1.81671496250478,-0.0240529178760198,0.004039,0.000333,0.000322,0.184850,0.066276,319.238534,24.416343,0.999646,0.992705,0.003538,0.478437,-0.000006,0.000015,0.000004,0.000016,-0.000006,80.435366,0.000016,
2371,2773,2.42543940200924,2.80114463338852,-0.0258883400608738,0.004450,0.000546,-0.000576,0.206841,0.064124,318.471166,24.586676,0.999501,0.990824,0.003731,0.444366,-0.000023,0.000013,-0.000009,0.000015,-0.000025,-76.843806,0.000025,
2266,2578,0.176371529371483,-1.45298640918189,-0.0233779489321364,0.004402,0.000352,-0.001965,0.208922,0.056364,321.725976,24.132443,0.999291,0.988935,0.004284,0.489436,-0.000006,-0.000001,-0.000006,0.000003,-0.000010,-57.418604,0.000011,
2191,2353,-1.41596998719492,-6.36974373627083,0.00814308932001495,0.004140,0.000154,0.001832,0.184386,0.052823,325.776390,23.994813,0.999342,0.987855,0.004522,0.483495,-0.000019,-0.000003,-0.000018,0.000009,-0.000030,-57.770103,0.000031,
2311,2728,1.12824595083305,1.81753406949053,-0.0204744408416673,0.004135,0.000376,0.000380,0.189011,0.066371,319.241661,24.407370,0.999471,0.990092,0.003999,0.492570,-0.000009,0.000028,0.000008,0.000029,-0.000011,78.572018,0.000030,
2326,2593,1.48042909679473,-1.12336230920619,-0.0265795948182586,0.004860,0.000902,-0.005250,0.241695,0.057049,321.427978,24.128448,0.999613,0.992226,0.003620,0.450584,-0.000012,0.000000,-0.000001,0.000000,-0.000012,-83.751111,0.000014,
2386,2908,2.72566178023966,5.73958764825038,-0.0213977960457328,0.004180,0.000360,0.002955,0.181901,0.082720,316.289941,24.991757,0.999437,0.991210,0.003827,0.454438,-0.000034,0.000014,-0.000015,0.000019,-0.000039,-73.840169,0.000039,
2236,2698,-0.497539811613745,1.16149334165165,-0.0218400264033107,0.004581,0.000352,0.001248,0.206847,0.063500,319.845702,24.380049,0.999503,0.991490,0.003616,0.461661,-0.000003,0.000021,-0.000006,0.000023,-0.000004,-77.118914,0.000024,
2401,2953,3.04374916896578,6.7181124268677,-0.0134526297625257,0.003772,0.000730,-0.001163,0.178091,0.067474,315.630164,25.145271,0.999574,0.992107,0.003702,0.449628,-0.000028,0.000018,-0.000013,0.000022,-0.000031,-75.480848,0.000032,
2176,2323,-1.73798778162991,-7.02378035806246,-0.0024443541896062,0.004298,0.000849,-0.002100,0.204096,0.062719,326.237905,24.072112,0.998757,0.983533,0.005124,0.440791,-0.000007,-0.000026,-0.000019,0.000005,-0.000037,-31.144790,0.000041,
2296,2698,0.807082642932325,1.16384049739072,-0.0252143562701121,0.004246,0.000089,0.001000,0.191923,0.061287,319.706010,24.344482,0.999729,0.992605,0.003579,0.487410,-0.000003,0.000033,-0.000003,0.000033,-0.000003,-85.532087,0.000037,
2176,2728,-1.807809590486,1.81221179688196,-0.0297837375910603,0.004321,0.000233,-0.000434,0.200364,0.043590,319.452461,24.367495,0.999397,0.990636,0.003944,0.486685,-0.000024,0.000009,-0.000006,0.000010,-0.000026,-79.630759,0.000026,
2206,2623,-1.13692586902639,-0.473784808723835,-0.0193416782718145,0.004414,0.000333,0.000348,0.202040,0.048190,321.153248,24.305120,0.999286,0.985790,0.004698,0.439075,-0.000009,-0.000004,0.000002,-0.000004,-0.000010,72.757615,0.000014,
2356,2743,2.10481779955639,2.146077019114,-0.0162313573582651,0.003899,0.000359,0.000234,0.178555,0.053562,319.008646,24.489432,0.999588,0.991710,0.003594,0.443765,-0.000021,0.000028,0.000001,0.000028,-0.000021,88.306149,0.000029,
2221,2653,-0.816331650049968,0.180671889784151,-0.0300290782469119,0.004634,0.000384,-0.000241,0.214075,0.063782,320.550219,24.250288,0.999276,0.989149,0.004303,0.535734,0.000001,0.000013,0.000005,0.000015,-0.000001,69.375848,0.000017,
2176,2578,-1.78199563975121,-1.45547766651951,-0.024790418424061,0.004408,0.000509,-0.002516,0.210698,0.047490,321.936924,24.247614,0.999271,0.988545,0.004172,0.482722,-0.000013,-0.000006,-0.000007,-0.000002,-0.000017,-59.467452,0.000021,
2206,2413,-1.09875336121578,-5.05676837858664,0.0117579481386656,0.004555,0.000531,0.001308,0.205249,0.079295,324.814663,24.190490,0.999604,0.991392,0.003960,0.334973,-0.000016,0.000013,-0.000007,0.000015,-0.000018,-77.600975,0.000019,
2236,2908,-0.533748198815697,5.72921845680722,-0.00496419948842686,0.004053,0.000189,0.000061,0.186616,0.058560,316.550268,24.720593,0.999661,0.992757,0.003544,0.410578,-0.000013,0.000020,0.000001,0.000020,-0.000013,87.935705,0.000020,
2251,2593,-0.152719424927835,-1.12612243957746,-0.0253462911138627,0.004525,0.000625,-0.002919,0.217772,0.059021,321.501016,24.175552,0.999307,0.987682,0.004408,0.492935,-0.000009,-0.000004,-0.000014,0.000007,-0.000020,-49.346511,0.000021,
2191,2563,-1.45243960870266,-1.78354326309392,-0.00801842188946011,0.004256,0.000431,0.001464,0.191255,0.061367,322.253046,24.214740,0.999441,0.990005,0.003996,0.494130,-0.000001,-0.000003,-0.000002,0.000000,-0.000004,-27.765788,0.000005,
2191,2803,-1.4944892123971,3.44570007995272,-0.0273048889922052,0.004273,0.000663,-0.000276,0.197907,0.072622,318.203092,24.521752,0.998924,0.987631,0.004529,0.436859,-0.000024,0.000010,-0.000006,0.000011,-0.000025,-80.045506,0.000025,
2236,2503,-0.46338757365454,-3.08970647604644,-0.020271837857706,0.004378,0.000687,-0.000073,0.201662,0.080608,323.015580,24.082186,0.999435,0.989091,0.004144,0.492856,-0.000010,-0.000003,-0.000003,-0.000002,-0.000011,-69.480718,0.000014,
2221,2893,-0.857005380455487,5.40199149294106,-0.00588926996562122,0.004122,0.000516,0.000580,0.188248,0.077330,316.824331,24.617017,0.999611,0.993195,0.003466,0.485455,-0.000014,0.000021,0.000007,0.000023,-0.000015,79.245818,0.000023,
2341,2668,1.79205449271332,0.512490573676871,-0.0234786070995483,0.004214,0.000066,0.002119,0.186319,0.060702,320.175647,24.333780,0.999689,0.992350,0.003757,0.417539,-0.000016,0.000030,-0.000003,0.000030,-0.000016,-86.038441,0.000030,
2281,2743,0.472807614547676,2.14313049031412,-0.0220234748795747,0.004306,0.000197,0.002010,0.191442,0.052832,319.018293,24.455956,0.999418,0.990712,0.003858,0.453564,-0.000006,0.000009,0.000007,0.000012,-0.000008,69.854035,0.000012,
2191,2368,-1.41880819380105,-6.04057715968348,-0.00112632805297608,0.004297,0.000392,-0.000685,0.199607,0.043080,325.471824,24.053553,0.999554,0.988660,0.004368,0.431373,-0.000022,0.000006,-0.000018,0.000015,-0.000031,-63.556108,0.000031,
2416,3088,3.34630396785475,9.65084614932575,0.0118532405921883,0.004590,0.000563,-0.000652,0.213930,0.060945,313.686026,25.631198,0.999707,0.992906,0.003458,0.415222,-0.000021,0.000014,0.000002,0.000014,-0.000021,87.085591,0.000021,
2221,2443,-0.778042770420864,-4.4016954864417,-0.00593446199866321,0.004656,0.000136,-0.003435,0.224885,0.029341,324.164280,24.039506,0.999228,0.988343,0.004490,0.433365,-0.000019,0.000004,-0.000001,0.000004,-0.000020,-88.429006,0.000021,
2371,2788,2.42284402019528,3.12830522753875,-0.0195542699827911,0.004314,0.000364,0.000416,0.197048,0.063545,318.269587,24.729777,0.999861,0.994782,0.003208,0.341460,-0.000023,0.000007,-0.000011,0.000010,-0.000026,-71.867592,0.000026,
2206,2848,-1.17548220411518,4.42376444017038,-0.0178899429945432,0.004513,0.000148,0.000340,0.206857,0.055498,317.515090,24.553730,0.999378,0.991065,0.003728,0.450939,-0.000020,0.000010,0.000010,0.000014,-0.000023,72.653263,0.000023,
2266,2593,0.173428910470903,-1.12593189295474,-0.0231786090366199,0.004378,0.000176,0.001542,0.196194,0.065691,321.471630,24.147234,0.999181,0.987661,0.004456,0.510355,-0.000005,-0.000005,-0.000008,0.000003,-0.000014,-45.733481,0.000014,
2386,2923,2.72378404500156,6.06503608943166,-0.0160262681145582,0.004483,0.000410,-0.000770,0.209161,0.054302,316.117695,25.033178,0.999297,0.990326,0.004047,0.427544,-0.000033,0.000011,-0.000019,0.000018,-0.000040,-69.606462,0.000040,
2311,2743,1.12609271274484,2.14396378278886,-0.0160948663886415,0.004412,0.000490,0.000284,0.202118,0.069137,319.047386,24.450985,0.999526,0.991185,0.003833,0.483818,-0.000009,0.000021,0.000010,0.000024,-0.000012,72.629447,0.000024,
2326,2608,1.47722246391943,-0.796131085084433,-0.0262693403469711,0.004661,0.000465,-0.002050,0.221418,0.062439,321.166676,24.170178,0.999522,0.990235,0.003915,0.449430,-0.000011,-0.000005,0.000001,-0.000004,-0.000011,82.611343,0.000016,
2176,2743,-1.80960312058527,2.13832275943733,-0.0156340644966235,0.004298,0.000262,0.002459,0.190339,0.060474,319.316883,24.443959,0.999517,0.990730,0.004034,0.439354,-0.000023,0.000012,-0.000009,0.000015,-0.000026,-76.280329,0.000026,
2176,2338,-1.74133747081953,-6.69460363039968,-0.00945972755368985,0.004053,0.000494,-0.000266,0.187114,0.065099,325.920126,24.131045,0.999032,0.986048,0.004793,0.398641,-0.000012,-0.000017,-0.000022,0.000007,-0.000037,-41.578149,0.000039,
2296,2713,0.803393862448029,1.49155260426815,-0.0371068062935933,0.004213,0.000271,0.001502,0.188811,0.068583,319.359320,24.361318,0.999726,0.993393,0.003490,0.508381,-0.000005,0.000032,0.000000,0.000032,-0.000005,89.668103,0.000034,
2236,2713,-0.500809237143308,1.48825893011756,-0.0266110379775455,0.004279,0.000036,0.001175,0.193100,0.044585,319.548601,24.392629,0.999368,0.990650,0.003699,0.451725,-0.000002,0.000018,-0.000004,0.000019,-0.000003,-78.334228,0.000020,
2206,2428,-1.10180368613654,-4.73122821803693,0.00671401595627685,0.004465,0.000082,0.002224,0.198066,0.062575,324.524371,23.986899,0.999220,0.988477,0.004446,0.540251,-0.000013,0.000002,-0.000003,0.000003,-0.000013,-77.650206,0.000014,
2401,2968,3.04228857772739,7.04347251545826,0.000771204911131917,0.004133,0.000605,-0.000812,0.193439,0.076692,315.519651,25.213281,0.999845,0.995086,0.003197,0.435543,-0.000032,0.000020,-0.000007,0.000021,-0.000033,-82.101339,0.000033,
2176,2593,-1.78452439868999,-1.12847249804528,-0.0216020157523644,0.004283,0.000249,-0.001064,0.200372,0.044864,321.710188,24.294209,0.999244,0.988554,0.004183,0.446457,-0.000020,-0.000002,-0.000004,-0.000001,-0.000021,-76.984640,0.000025,
2206,2638,-1.13970830203868,-0.146783461315934,-0.0215849705842288,0.004305,0.000518,-0.000488,0.199746,0.063916,320.888881,24.300730,0.999254,0.987264,0.004535,0.476505,-0.000009,0.000006,0.000001,0.000006,-0.000009,86.517764,0.000009,
2221,2668,-0.819144212191468,0.507308940043281,-0.0240414647555554,0.004168,0.000077,0.002036,0.185232,0.052588,320.328025,24.318348,0.999496,0.993074,0.003654,0.475847,0.000001,0.000021,0.000002,0.000021,0.000000,85.557047,0.000024,
2191,2578,-1.45485675367598,-1.45665491049913,-0.0141884617975734,0.004696,0.000194,-0.000136,0.216411,0.045284,321.984003,24.176893,0.999499,0.990859,0.003811,0.531452,-0.000002,0.000000,-0.000002,0.000001,-0.000003,-61.594509,0.000003,
2356,2758,2.10102314187705,2.4743487070912,-0.0304415362282384,0.004034,0.000727,0.000067,0.185532,0.080650,318.651818,24.535922,0.999470,0.990250,0.003815,0.463949,-0.000018,0.000023,0.000004,0.000024,-0.000018,84.298817,0.000025,
2281,2758,0.469428303152721,2.47001024842082,-0.0243235839280942,0.004079,-0.000112,0.005661,0.168666,0.051939,318.732223,24.495858,0.999368,0.990163,0.003937,0.440662,-0.000007,0.000018,0.000009,0.000021,-0.000010,71.759824,0.000021,
2341,2683,1.78895818817675,0.839452635135409,-0.0272241118281045,0.004245,0.000138,0.002478,0.186542,0.060631,319.900714,24.345907,0.999695,0.992090,0.003708,0.442412,-0.000017,0.000038,-0.000002,0.000038,-0.000017,-87.747632,0.000038,
2251,2608,-0.155399663623072,-0.799470495293754,-0.0241834706201303,0.004353,0.000486,-0.003769,0.212585,0.028432,321.262581,24.206078,0.999287,0.986344,0.004573,0.455770,-0.000012,-0.000016,-0.000009,-0.000005,-0.000023,-37.859489,0.000029,
2191,2383,-1.42168993782484,-5.71307161186794,-0.0012520413769721,0.004218,0.000113,0.003187,0.183753,0.047386,325.212922,24.040837,0.999313,0.987832,0.004505,0.464942,-0.000020,0.000012,-0.000013,0.000017,-0.000025,-70.104886,0.000025,
2371,2803,2.42005745701838,3.45319922804472,-0.016425784824321,0.004281,0.000198,0.002142,0.189338,0.067778,318.044390,24.638626,0.999852,0.995109,0.003232,0.477839,-0.000018,0.000002,-0.000013,0.000008,-0.000025,-64.345830,0.000025,
2236,2518,-0.466365735405049,-2.76158879221631,-0.0240359237857888,0.004209,0.000773,-0.001234,0.197729,0.086513,322.737016,24.137613,0.999438,0.989030,0.004123,0.465499,-0.000011,0.000001,0.000003,0.000002,-0.000012,78.423248,0.000012,
2416,3103,3.34347656791727,9.9765134221101,0.0150419553170877,0.004438,0.000462,-0.000886,0.207787,0.062608,313.460835,25.691942,0.999818,0.995086,0.003114,0.402676,-0.000017,0.000016,0.000004,0.000017,-0.000018,82.686354,0.000020,
2236,2923,-0.536911046141665,6.05482184656223,-0.0133773214179769,0.004259,0.000350,0.001891,0.190203,0.054582,316.239321,24.650437,0.999643,0.993244,0.003477,0.497563,-0.000014,0.000024,-0.000005,0.000025,-0.000014,-82.852781,0.000025,
2266,2608,0.170558629470317,-0.79845466751236,-0.0255814898618496,0.004305,-0.000006,0.000719,0.195509,0.036471,321.207512,24.221546,0.999299,0.987845,0.004380,0.433141,-0.000009,-0.000014,-0.000003,-0.000008,-0.000016,-23.147389,0.000024,
2191,2818,-1.49700485518465,3.77100740906963,-0.0231459867283661,0.004087,0.000348,0.000496,0.186829,0.061249,317.983327,24.493966,0.998526,0.985532,0.004796,0.467403,-0.000023,0.000018,-0.000001,0.000018,-0.000023,-89.058087,0.000024,
2221,2458,-0.78097549828659,-4.07437609355526,-0.00264558477823584,0.004336,-0.000014,0.000190,0.198577,0.037406,323.922876,24.063395,0.998987,0.985832,0.004949,0.437717,-0.000015,-0.000003,0.000000,-0.000003,-0.000015,89.589512,0.000019,
2221,2908,-0.859198111942533,5.72785551496165,-0.000719869138606555,0.004219,0.000408,0.001007,0.191322,0.070397,316.626274,24.666353,0.999533,0.992102,0.003873,0.447609,-0.000009,0.000018,0.000007,0.000019,-0.000010,76.717601,0.000019,
2326,2623,1.47477890252011,-0.470589389278828,-0.0156700310808446,0.004295,0.000392,-0.000778,0.200163,0.061372,320.990991,24.155609,0.999545,0.989630,0.003949,0.497659,-0.000012,0.000008,0.000001,0.000008,-0.000012,88.401472,0.000012,
2176,2353,-1.74371015389952,-6.36712070256242,-0.010795493934495,0.004301,0.000354,0.000229,0.196933,0.062045,325.677032,24.101953,0.998536,0.982106,0.005401,0.438645,-0.000019,-0.000003,-0.000021,0.000011,-0.000033,-55.955017,0.000034,
2206,2443,-1.10616868772603,-4.40045351530061,-0.0198451925822951,0.004257,0.000121,-0.001499,0.200365,0.045928,324.061847,24.066755,0.998635,0.984954,0.005145,0.462716,-0.000014,0.000001,0.000000,0.000001,-0.000014,89.654475,0.000015,
2206,2863,-1.17779245984331,4.7491697906738,-0.0105328232231727,0.004241,0.000420,-0.000268,0.196356,0.061961,317.322171,24.552583,0.999450,0.992247,0.003456,0.474770,-0.000020,0.000016,0.000003,0.000016,-0.000021,84.636014,0.000022,
2311,2758,1.12305718380481,2.47080068332335,-0.0201905820851493,0.004379,0.000518,-0.000648,0.203826,0.068363,318.770732,24.472616,0.999615,0.992456,0.003691,0.494166,-0.000009,0.000022,0.000012,0.000026,-0.000013,70.830824,0.000026,
2386,2938,2.72066373923647,6.39105685301167,-0.0111618456086831,0.004110,0.000442,0.002193,0.181444,0.069994,315.885596,25.083328,0.999309,0.990279,0.004016,0.435642,-0.000028,0.000013,-0.000018,0.000020,-0.000035,-69.149609,0.000035,
2251,2743,-0.179546688380103,2.1421191886336,-0.0234104591385176,0.004331,0.000372,-0.000195,0.200083,0.062657,319.063789,24.453685,0.999255,0.989189,0.004110,0.455971,-0.000002,0.000007,-0.000004,0.000008,-0.000003,-69.131017,0.000008,
2401,2983,3.0389385525848,7.37020392682411,-0.00535929121275558,0.003924,0.001403,-0.004194,0.196400,0.100233,315.225608,25.256286,0.999687,0.992708,0.003588,0.461268,-0.000029,0.000025,-0.000007,0.000026,-0.000030,-82.616642,0.000033,
2176,2758,-1.81280922840231,2.46542633436322,-0.024486284582224,0.004232,0.000269,0.002550,0.187104,0.074940,318.995832,24.435099,0.999367,0.990055,0.004033,0.475227,-0.000028,0.000017,-0.000012,0.000020,-0.000031,-75.672280,0.000031,
2191,2593,-1.45822948904774,-1.12844122718194,-0.0173577526855979,0.004223,0.000097,0.001780,0.188699,0.052616,321.686317,24.268916,0.999141,0.988167,0.004278,0.462126,-0.000009,0.000004,-0.000001,0.000004,-0.000009,-87.713775,0.000009,
2206,2653,-1.14216335734236,0.180227678900721,-0.0275314846253423,0.004913,0.000183,0.000563,0.224276,0.053531,320.620456,24.297123,0.999253,0.987091,0.004632,0.487055,-0.000006,0.000010,0.000004,0.000011,-0.000007,75.703180,0.000011,
2236,2728,-0.503250623284668,1.81544353482252,-0.025695891744931,0.004220,0.000776,-0.001476,0.199286,0.087056,319.318171,24.433215,0.999285,0.989964,0.003931,0.474875,-0.000001,0.000009,-0.000002,0.000010,-0.000001,-78.373262,0.000011,
2221,2683,-0.821700261908322,0.834238714643952,-0.0252991614705138,0.004253,0.000372,0.001297,0.191634,0.063692,320.080289,24.335005,0.999573,0.992567,0.003587,0.489594,-0.000002,0.000023,-0.000001,0.000023,-0.000002,-87.878151,0.000025,
2341,2698,1.78664051305359,1.16481829645055,-0.0158566170058521,0.004038,0.000095,0.004681,0.169381,0.075193,319.735143,24.325443,0.999723,0.993073,0.003591,0.514189,-0.000018,0.000043,-0.000001,0.000043,-0.000018,-88.622707,0.000044,
2416,3118,3.34048007716256,10.3019786868621,0.0183143658308609,0.004326,0.000201,0.001586,0.193517,0.061663,313.228248,25.740726,0.999833,0.995460,0.002964,0.399384,-0.000012,0.000022,0.000007,0.000023,-0.000013,78.318126,0.000023,
2191,2398,-1.4232871558509,-5.38554882611692,-0.000290289263887189,0.004537,0.000709,-0.004783,0.223556,0.050935,325.018451,24.045626,0.999258,0.986176,0.004825,0.479543,-0.000018,0.000017,-0.000012,0.000021,-0.000022,-72.431301,0.000024,
2281,2773,0.46716201277474,2.79648350143981,-0.0194019598728801,0.003953,0.000301,0.002746,0.172841,0.070141,318.533342,24.540515,0.999286,0.989065,0.004123,0.441784,-0.000007,0.000013,0.000007,0.000015,-0.000009,72.696577,0.000015,
2236,2938,-0.539600263253778,6.38115643408967,-0.00876032153252027,0.003985,0.000387,0.003174,0.173453,0.065292,316.016346,24.730177,0.999556,0.993387,0.003444,0.449106,-0.000019,0.000031,-0.000004,0.000031,-0.000019,-85.326105,0.000031,
2356,2773,2.09918616904879,2.80128288633169,-0.0273380702632267,0.004546,0.001082,-0.003262,0.220981,0.090447,318.468683,24.618525,0.999547,0.990901,0.003659,0.429712,-0.000019,0.000014,0.000000,0.000014,-0.000019,-89.972877,0.000019,
2251,2983,-0.220781737176015,7.35923913032281,0.00378712112967605,0.004049,0.000386,0.002523,0.178544,0.079813,315.360773,24.862936,0.999558,0.992886,0.003540,0.432440,-0.000018,0.000038,-0.000007,0.000039,-0.000019,-82.958481,0.000039,
2296,2728,0.801208288478602,1.81782259754882,-0.0295825427423324,0.004182,0.000240,0.001128,0.188642,0.064456,319.178224,24.419184,0.999560,0.991826,0.003722,0.476507,-0.000007,0.000022,0.000005,0.000022,-0.000008,80.849366,0.000023,
2236,2533,-0.468424081736696,-2.43546474002716,-0.0111675126690898,0.003958,0.000546,0.000157,0.181573,0.068779,322.585724,24.187890,0.999730,0.991977,0.003580,0.419357,-0.000012,0.000002,-0.000001,0.000002,-0.000012,-86.996244,0.000013,
2191,2833,-1.49915644883727,4.0971880758573,-0.0212361318285161,0.004344,0.000497,0.000124,0.199875,0.061535,317.768274,24.521535,0.999214,0.990085,0.003989,0.454679,-0.000021,0.000014,0.000002,0.000014,-0.000021,87.107960,0.000022,
2371,2818,2.41702764192447,3.77952625368032,-0.0233410612364651,0.004506,0.000287,0.000199,0.206572,0.041552,317.759587,24.637070,0.999863,0.995327,0.003240,0.494443,-0.000021,0.000004,-0.000012,0.000009,-0.000026,-68.289352,0.000026,
2206,2878,-1.18064674695282,5.07576280577625,-0.0139428170481892,0.004329,0.000115,0.001311,0.195356,0.061212,317.048247,24.592149,0.999616,0.993982,0.003223,0.450881,-0.000018,0.000023,0.000003,0.000023,-0.000019,85.371529,0.000025,
2251,2623,-0.157884386395747,-0.473094313980567,-0.0155761229358973,0.004304,0.000121,0.001795,0.192046,0.047117,321.070650,24.230113,0.999249,0.986979,0.004447,0.474184,-0.000010,-0.000008,-0.000008,-0.000001,-0.000017,-49.670135,0.000020,
2221,2473,-0.783962871604867,-3.74614617270617,-0.0109426417886311,0.004285,0.000626,-0.003177,0.207210,0.040924,323.619450,24.072804,0.999292,0.987163,0.004610,0.452523,-0.000008,0.000000,0.000001,0.000001,-0.000008,83.146673,0.000009,
2401,2998,3.03628325138248,7.69667291862218,-0.00809869877588199,0.004381,0.001117,-0.004581,0.218728,0.077693,314.979603,25.349051,0.999569,0.990583,0.003920,0.390685,-0.000027,0.000024,-0.000004,0.000024,-0.000027,-85.544304,0.000030,
2386,2953,2.71794930563066,6.7167513204793,-0.0109422276164537,0.004167,0.000316,0.000820,0.188921,0.046026,315.650168,25.114025,0.999149,0.989588,0.004187,0.423811,-0.000028,0.000020,-0.000013,0.000024,-0.000032,-75.579800,0.000033,
2221,2923,-0.861651674255697,6.05430001429424,-0.0063226440275912,0.004594,0.000617,-0.001672,0.217235,0.064296,316.360698,24.695026,0.999526,0.992455,0.003647,0.431337,-0.000009,0.000022,0.000001,0.000022,-0.000009,87.935829,0.000023,
2206,2458,-1.10802468488185,-4.07383127061482,-0.00756579652369282,0.004225,0.000326,0.000175,0.193680,0.061402,323.915115,24.103494,0.998993,0.985678,0.004971,0.459091,-0.000011,-0.000004,0.000001,-0.000004,-0.000011,77.952806,0.000015,
2326,2638,1.4714767969033,-0.142802260746016,-0.0225995365689755,0.004270,0.000308,-0.001270,0.200713,0.051824,320.689776,24.210577,0.999436,0.989598,0.003988,0.468607,-0.000014,0.000017,-0.000002,0.000017,-0.000014,-85.660039,0.000018,
2266,2623,0.168025804595143,-0.47181381610244,-0.0252819001223656,0.004381,-0.000151,0.000035,0.201212,0.022227,320.972559,24.232220,0.999432,0.988666,0.004223,0.434287,-0.000008,-0.000005,-0.000001,-0.000004,-0.000009,-69.944205,0.000013,
2251,2758,-0.183196843474093,2.46953181679505,-0.0314318527715045,0.004272,-0.000055,0.004692,0.181231,0.062539,318.733736,24.496235,0.999311,0.989587,0.004058,0.437000,-0.000005,0.000016,-0.000002,0.000016,-0.000005,-85.441062,0.000017,
2341,2713,1.78373215005411,1.49326912393207,-0.0276171348611456,0.004505,0.000707,0.000185,0.206749,0.088939,319.429466,24.404589,0.999460,0.990452,0.003910,0.485977,-0.000019,0.000046,0.000001,0.000046,-0.000019,88.780081,0.000046,
2311,2773,1.12083421513129,2.7968148943953,-0.0120956969275881,0.004327,0.000356,-0.000517,0.200951,0.061487,318.591594,24.525116,0.999601,0.992900,0.003586,0.466765,-0.000008,0.000012,0.000007,0.000015,-0.000011,71.818899,0.000015,
2191,2608,-1.46078387149042,-0.801409822205301,-0.0197613245508137,0.004266,0.000128,0.000106,0.195930,0.049253,321.430414,24.274836,0.998671,0.985339,0.004805,0.468197,-0.000015,-0.000011,0.000003,-0.000010,-0.000017,62.183996,0.000027,
2176,2773,-1.81579419004315,2.79212857449384,-0.0317288800807773,0.004194,0.000167,0.001389,0.188985,0.075463,318.693464,24.421562,0.999411,0.990789,0.004024,0.501621,-0.000028,0.000017,-0.000010,0.000019,-0.000030,-78.372080,0.000031,
2416,3133,3.33744224561638,10.6264421348077,0.0172234036945156,0.004223,0.000446,0.000396,0.193321,0.081287,312.973526,25.653220,0.999834,0.995597,0.002889,0.553673,-0.000010,0.000026,0.000003,0.000027,-0.000010,85.275544,0.000027,
2221,2698,-0.824283103600553,1.16043568657028,-0.0219567693884528,0.004221,0.000056,0.003861,0.181862,0.056728,319.855130,24.344801,0.999660,0.993869,0.003252,0.492027,-0.000005,0.000023,-0.000001,0.000023,-0.000005,-87.506664,0.000024,
2281,2788,0.465226787563033,3.12267146699728,-0.0192292869406856,0.004524,0.000146,0.000052,0.208086,0.066952,318.326045,24.547160,0.999118,0.987701,0.004369,0.459876,-0.000002,0.000011,0.000006,0.000014,-0.000004,68.225312,0.000014,
2236,2743,-0.505996341685968,2.14208066078155,-0.0260853489255624,0.004208,0.000599,-0.000498,0.195525,0.087856,319.067345,24.459150,0.999121,0.987477,0.004476,0.470956,-0.000002,0.000005,-0.000001,0.000005,-0.000003,-79.141425,0.000005,
2251,2998,-0.22312787113086,7.68424879634251,0.00593615085438159,0.004212,0.000457,0.002359,0.186601,0.078459,315.142328,24.830446,0.999563,0.992133,0.003631,0.486308,-0.000018,0.000033,-0.000008,0.000034,-0.000019,-81.229907,0.000034,
2206,2668,-1.14541463055024,0.507432336977146,-0.024567177414383,0.003885,0.000523,-0.001606,0.184050,0.060609,320.361387,24.373538,0.999543,0.992055,0.003739,0.434798,-0.000007,0.000017,0.000000,0.000017,-0.000007,89.229592,0.000017,
2236,2953,-0.541145515649202,6.70678212563509,-0.00147844251284823,0.004518,0.000415,0.002384,0.200570,0.064524,315.859740,24.778152,0.999446,0.992416,0.003654,0.420893,-0.000019,0.000033,-0.000007,0.000034,-0.000020,-82.501838,0.000034,
2236,2548,-0.471650659936639,-2.10769205530148,-0.023376731217752,0.004327,-0.000024,0.001638,0.193573,0.051974,322.252892,24.168979,0.999703,0.992662,0.003497,0.443885,-0.000010,-0.000001,-0.000004,0.000001,-0.000011,-68.482609,0.000013,
2251,2638,-0.161014364202458,-0.14505135897253,-0.0199383583579333,0.004299,-0.000020,0.003915,0.184895,0.062557,320.783119,24.304164,0.998973,0.986797,0.004423,0.439648,-0.000006,0.000003,-0.000008,0.000008,-0.000011,-59.549413,0.000011,
2296,2743,0.799509476826227,2.14384489662193,-0.0216407173149946,0.004624,0.000362,0.001010,0.209436,0.069561,319.021564,24.451784,0.999395,0.991115,0.003864,0.479090,-0.000007,0.000015,0.000007,0.000017,-0.000009,73.577106,0.000017,
2356,2788,2.09659925329886,3.12726128398046,-0.0233815307444161,0.004522,0.001076,-0.002928,0.218705,0.090504,318.255407,24.633782,0.999716,0.993595,0.003371,0.453502,-0.000020,0.000010,-0.000002,0.000010,-0.000020,-86.801973,0.000020,
2206,2893,-1.18386335696676,5.40283463598004,-0.0268430211746136,0.004456,0.000382,-0.000819,0.208049,0.062991,316.708425,24.609086,0.999794,0.995068,0.003118,0.452340,-0.000016,0.000023,0.000005,0.000023,-0.000017,83.147291,0.000024,
2191,2848,-1.50141593255831,4.4222940299143,-0.0135138093995693,0.004266,-0.000100,0.002240,0.189445,0.041725,317.578867,24.517948,0.999364,0.990651,0.003784,0.452630,-0.000024,0.000010,0.000005,0.000010,-0.000025,81.318844,0.000025,
2371,2833,2.41383720227097,4.10719724574091,-0.0256247968981711,0.004399,0.000336,0.000569,0.200410,0.056847,317.489067,24.758012,0.999698,0.991342,0.003765,0.429805,-0.000024,0.000009,-0.000010,0.000011,-0.000026,-74.360661,0.000027,
2206,2473,-1.11101152815069,-3.74522737039475,-0.019949060692511,0.004217,0.001328,-0.006197,0.213852,0.065925,323.589064,24.108570,0.999261,0.984370,0.005109,0.477118,-0.000006,-0.000001,0.000003,0.000001,-0.000007,63.707951,0.000008,
2191,2413,-1.42686597527679,-5.05636915558317,-0.00854392517805991,0.004267,0.000627,-0.001790,0.201814,0.056880,324.685083,24.117298,0.999190,0.987460,0.004584,0.430224,-0.000016,0.000011,-0.000014,0.000017,-0.000022,-67.287972,0.000023,
2386,2968,2.71475169730578,7.04327857332262,-0.0112908759937227,0.004101,0.000024,0.003402,0.176531,0.046096,315.389472,25.197700,0.999505,0.991279,0.003890,0.382817,-0.000032,0.000022,-0.000007,0.000023,-0.000033,-82.422381,0.000034,
2266,2638,0.165454190567598,-0.144715561008368,-0.0240230106664399,0.004435,0.000140,0.000526,0.202208,0.043852,320.740401,24.261803,0.999300,0.988210,0.004236,0.452588,-0.000005,0.000006,-0.000002,0.000006,-0.000006,-78.408310,0.000007,
2251,2773,-0.185072707164416,2.79495943075972,-0.0217450068425933,0.004131,0.000523,0.001495,0.185368,0.053470,318.575293,24.509318,0.999327,0.989398,0.004032,0.438204,-0.000006,0.000015,-0.000002,0.000015,-0.000007,-83.924629,0.000015,
2221,2938,-0.864994406857129,6.38036803420388,-0.0076288082604492,0.004220,0.000612,0.001955,0.188432,0.074796,316.076420,24.708005,0.999554,0.993705,0.003359,0.447149,-0.000013,0.000029,0.000002,0.000029,-0.000014,87.296523,0.000029,
2326,2653,1.46779801597057,0.185611519499723,-0.0347985720759993,0.004208,0.000475,-0.002559,0.202433,0.064902,320.345254,24.261968,0.999448,0.990610,0.003878,0.465275,-0.000015,0.000020,0.000002,0.000021,-0.000015,86.744572,0.000021,
2341,2728,1.78093526436522,1.82077592490563,-0.0320722769415056,0.004679,0.000496,-0.002314,0.223370,0.055416,319.164620,24.509165,0.999378,0.989384,0.004064,0.384742,-0.000021,0.000033,0.000005,0.000033,-0.000021,84.829586,0.000034,
2176,2788,-1.81795826838,3.1184982733148,-0.0301777763379505,0.004217,0.000440,-0.002205,0.201229,0.052403,318.474920,24.474517,0.999333,0.990226,0.004127,0.437949,-0.000030,0.000019,-0.000008,0.000020,-0.000032,-80.821441,0.000032,
2416,3148,3.33518754536623,10.9518051499274,0.0279927894071079,0.004174,0.000317,0.001871,0.185538,0.066889,312.810207,25.758700,0.999752,0.994665,0.003035,0.479948,-0.000009,0.000023,0.000002,0.000023,-0.000009,86.265975,0.000023,
2221,2488,-0.787115764627323,-3.41864739304952,-0.0102084338896589,0.004025,-0.000047,0.001799,0.179150,0.049095,323.354784,24.099343,0.999415,0.987464,0.004350,0.454206,-0.000006,0.000000,-0.000004,0.000002,-0.000007,-64.565867,0.000008,
2251,3013,-0.225696355480594,8.0100607544862,0.00615899606947323,0.004286,0.000490,0.002073,0.190954,0.075153,314.903614,24.864663,0.999382,0.991017,0.003777,0.471208,-0.000017,0.000025,-0.000011,0.000028,-0.000020,-75.827748,0.000029,
2311,2788,1.11836396208097,3.12240370803987,-0.00978127316926702,0.004510,0.000224,0.000333,0.206438,0.054838,318.372717,24.496790,0.999684,0.994575,0.003324,0.520734,-0.000005,0.000008,0.000006,0.000011,-0.000007,69.074544,0.000011,
2221,2713,-0.826839252615382,1.48717754840342,-0.0216525904588138,0.004159,-0.000017,0.002527,0.183287,0.055346,319.615432,24.378485,0.999302,0.990776,0.003790,0.476157,-0.000004,0.000019,-0.000001,0.000019,-0.000004,-87.288995,0.000020,
2401,3013,3.0333978048442,8.02219025538972,-0.00760140949574861,0.004337,0.001035,-0.005101,0.218567,0.072930,314.738482,25.362672,0.999541,0.990227,0.003887,0.416990,-0.000025,0.000021,-0.000007,0.000022,-0.000026,-81.666989,0.000028,
2191,2623,-1.46340191671208,-0.474820867829536,-0.0173835452159778,0.003993,0.000073,-0.000471,0.185143,0.029761,321.196568,24.302050,0.999229,0.987370,0.004439,0.436581,-0.000014,-0.000004,0.000001,-0.000004,-0.000014,86.024912,0.000019,
2296,2758,0.796385050377676,2.47091190638274,-0.0279253941458251,0.004559,0.000589,-0.000962,0.213217,0.073568,318.728611,24.472680,0.999441,0.990854,0.003894,0.492487,-0.000007,0.000021,0.000009,0.000024,-0.000010,73.418363,0.000024,
2236,2758,-0.508703258392469,2.46852068358787,-0.0249434783641505,0.004270,0.000405,0.002512,0.188566,0.082957,318.826142,24.489303,0.999316,0.989131,0.004098,0.457341,-0.000007,0.000013,0.000000,0.000013,-0.000007,-88.807791,0.000013,
2236,2563,-0.4732257077935,-1.78265837605213,-0.0108377195841172,0.004475,0.000350,0.001630,0.200540,0.066042,322.122204,24.092306,0.999657,0.992799,0.003460,0.556420,-0.000009,-0.000005,-0.000011,0.000004,-0.000018,-50.002538,0.000019,
2281,2803,0.461707431956011,3.45034006058308,-0.0255361196947774,0.004253,0.000471,0.000980,0.192717,0.092291,318.013137,24.616244,0.999242,0.988923,0.004218,0.443995,0.000000,0.000007,0.000006,0.000011,-0.000004,61.308027,0.000011,
2236,2968,-0.544042575424346,7.03227938940448,0.00117999092321952,0.004145,0.000425,0.003274,0.180568,0.072903,315.617445,24.776576,0.999455,0.992334,0.003637,0.451384,-0.000019,0.000035,-0.000007,0.000036,-0.000020,-82.615629,0.000036,
2251,2653,-0.163220110890098,0.181699480088611,-0.0189680820124636,0.004526,0.000198,0.001780,0.202377,0.053849,320.565299,24.333602,0.999383,0.989545,0.004085,0.425138,0.000000,0.000006,-0.000004,0.000008,-0.000002,-63.749693,0.000008,
2191,2863,-1.50420976697048,4.74891159518933,-0.0165828623279367,0.004216,0.000146,0.001738,0.188856,0.052620,317.308250,24.546057,0.999426,0.991555,0.003581,0.449483,-0.000024,0.000014,-0.000001,0.000014,-0.000024,-88.344036,0.000024,
2221,2953,-0.867288524974558,6.7057508352923,-0.00158013675002167,0.004283,0.000140,0.004167,0.184094,0.067933,315.878315,24.730876,0.999443,0.992349,0.003625,0.435695,-0.000012,0.000033,-0.000002,0.000033,-0.000012,-87.526826,0.000033,
2206,2683,-1.14769500419539,0.833974064883655,-0.0243726735440646,0.004290,0.000449,0.000137,0.197167,0.070156,320.132692,24.367859,0.999676,0.993425,0.003489,0.467137,-0.000010,0.000021,-0.000003,0.000021,-0.000010,-84.074210,0.000021,
2191,2428,-1.42864382626832,-4.72941272167689,-0.00796192216705549,0.004877,0.000760,-0.003251,0.234477,0.053577,324.480484,24.083879,0.998932,0.986786,0.004778,0.476297,-0.000013,0.000000,-0.000008,0.000004,-0.000017,-64.476103,0.000018,
2206,2488,-1.11407502302683,-3.41688349776304,-0.0229323866705613,0.004144,0.000886,-0.003148,0.200717,0.080955,323.307932,24.172012,0.999328,0.986074,0.004716,0.446709,-0.000005,-0.000001,-0.000002,0.000000,-0.000006,-71.074263,0.000006,
2326,2668,1.4654540701962,0.51311078688785,-0.0306352095066131,0.004403,0.000397,-0.001773,0.208654,0.059308,320.142140,24.390320,0.999659,0.992061,0.003702,0.366276,-0.000012,0.000033,0.000001,0.000033,-0.000012,88.788193,0.000034,
2341,2743,1.77818955069835,2.14601460803608,-0.0254019846293545,0.004218,0.000381,-0.002543,0.202983,0.056741,318.956530,24.464419,0.999536,0.990743,0.003830,0.467652,-0.000020,0.000024,0.000008,0.000025,-0.000022,79.987837,0.000027,
2386,2983,2.71269555351907,7.36871851379809,-0.00489340637813029,0.004407,0.000355,0.003015,0.192134,0.057833,315.213634,25.219849,0.999486,0.990601,0.004038,0.415030,-0.000029,0.000028,-0.000007,0.000029,-0.000029,-82.698749,0.000034,
2416,3163,3.3324956097564,11.2773519967706,0.0277817284476214,0.004355,0.000372,0.000714,0.198158,0.066782,312.575081,25.803322,0.999724,0.993821,0.003178,0.481819,-0.000009,0.000032,0.000003,0.000032,-0.000009,86.311470,0.000033,
2206,2908,-1.18512561823722,5.72742297002211,-0.0135053741785782,0.004651,0.000625,-0.003850,0.226774,0.062985,316.594774,24.594081,0.999623,0.993207,0.003514,0.483503,-0.000011,0.000020,0.000006,0.000021,-0.000012,78.898365,0.000021,
2266,2653,0.162956771094304,0.183240547736517,-0.0252830779847386,0.004844,0.000115,0.002284,0.215240,0.059886,320.498769,24.359007,0.999566,0.990434,0.003950,0.397406,-0.000001,0.000007,0.000001,0.000008,-0.000001,82.405845,0.000008,
2356,2803,2.09373294774943,3.4529032339827,-0.0169811010150056,0.003993,0.000936,-0.003077,0.194897,0.088207,318.041114,24.643171,0.999822,0.995042,0.003219,0.480318,-0.000016,0.000007,-0.000003,0.000007,-0.000017,-81.687701,0.000017,
2371,2848,2.41114662026337,4.43333028578892,-0.0229175357902136,0.004426,0.000421,0.001323,0.199069,0.077565,317.265753,24.774064,0.999610,0.990337,0.003871,0.475142,-0.000022,0.000010,-0.000014,0.000015,-0.000027,-69.522030,0.000027,
2251,2788,-0.187508718652975,3.12145694187823,-0.0233397946113882,0.004207,0.000546,-0.002233,0.201133,0.052316,318.333691,24.528431,0.999415,0.990069,0.003965,0.441164,-0.000004,0.000016,-0.000001,0.000016,-0.000004,-86.214205,0.000017,
2251,3028,-0.228378234239589,8.33621413349942,0.00347815941086083,0.004286,0.000772,-0.000585,0.199798,0.081841,314.644805,24.905149,0.999249,0.990321,0.003865,0.459998,-0.000020,0.000023,-0.000012,0.000026,-0.000023,-75.750353,0.000028,
2191,2638,-1.4656077769483,-0.148051734303579,-0.0188918244742808,0.004499,0.000276,0.000428,0.205707,0.049027,320.961258,24.278546,0.999533,0.989347,0.004094,0.494509,-0.000013,0.000007,-0.000001,0.000007,-0.000013,-86.553150,0.000013,
2311,2803,1.11442847547664,3.45103819243116,-0.0229747536676541,0.004231,0.000641,-0.001069,0.198561,0.074417,318.009252,24.607275,0.999529,0.991951,0.003700,0.462204,-0.000004,0.000006,0.000007,0.000009,-0.000007,62.436294,0.000009,
2296,2773,0.793700897867527,2.79757197204506,-0.0260591887202963,0.004342,0.000763,-0.002806,0.209572,0.084369,318.496331,24.518517,0.999384,0.989680,0.004085,0.487388,-0.000006,0.000014,0.000006,0.000016,-0.000008,74.071307,0.000016,
2221,2503,-0.789568342602664,-3.09067344001144,-0.0151268252119507,0.004515,0.000295,0.001878,0.201572,0.053783,323.093143,24.126171,0.999442,0.988177,0.004253,0.452424,-0.000005,-0.000003,-0.000004,0.000000,-0.000008,-50.693244,0.000009,
2281,2818,0.459794238307413,3.77531623236315,-0.0164796886298859,0.004237,0.000401,-0.001107,0.198897,0.064456,317.851531,24.613040,0.999318,0.989919,0.003936,0.446547,-0.000003,0.000012,0.000007,0.000015,-0.000006,66.917132,0.000015,
2236,2773,-0.511425062033386,2.79450967004585,-0.0256779786514585,0.004047,0.000538,-0.000137,0.186935,0.066793,318.574812,24.478886,0.999308,0.989221,0.004004,0.472780,-0.000010,0.000012,-0.000001,0.000012,-0.000010,-88.103235,0.000013,
2401,3028,3.03064638138811,8.34734468165515,-0.00223909198268757,0.004265,0.000749,-0.002802,0.206805,0.070763,314.526557,25.376575,0.999592,0.990552,0.003852,0.445544,-0.000023,0.000025,-0.000009,0.000027,-0.000025,-80.106096,0.000030,
2176,2803,-1.82027051320984,3.4443520990808,-0.0220175990949656,0.003807,0.001144,-0.003376,0.186257,0.093134,318.284200,24.471536,0.999415,0.990538,0.004137,0.493781,-0.000032,0.000014,-0.000007,0.000015,-0.000033,-81.169695,0.000033,
2206,2698,-1.15089538287058,1.16050649724946,-0.0322877842383491,0.004492,0.000057,0.004092,0.193747,0.057933,319.819965,24.321435,0.999459,0.992411,0.003606,0.518603,-0.000012,0.000020,-0.000004,0.000020,-0.000013,-83.481381,0.000021,
2236,2983,-0.546248342731371,7.35791383514609,0.00732394870169628,0.004047,0.000503,0.001740,0.181143,0.083405,315.424637,24.813041,0.999487,0.992595,0.003607,0.445509,-0.000019,0.000040,-0.000005,0.000040,-0.000019,-84.882408,0.000040,
2221,2728,-0.8292881439049,1.81351370948891,-0.0195634521702459,0.004110,0.000015,0.001661,0.183868,0.052644,319.389900,24.395063,0.999325,0.990905,0.003737,0.475959,-0.000004,0.000011,-0.000001,0.000011,-0.000004,-87.705561,0.000011,
2236,2578,-0.476849154954159,-1.45425379450406,-0.0181838807890244,0.004118,0.000048,0.003232,0.178853,0.055479,321.795681,24.178823,0.999435,0.989675,0.004024,0.481243,-0.000006,0.000001,-0.000011,0.000009,-0.000014,-54.256706,0.000014,
2191,2878,-1.50647318518425,5.07608554521897,-0.0126776313468895,0.004329,0.000362,0.002762,0.190972,0.080167,317.098059,24.664540,0.999808,0.995177,0.003008,0.372667,-0.000020,0.000021,-0.000002,0.000021,-0.000020,-87.388554,0.000023,
2416,3178,3.32951196858805,11.6030969585198,0.0262145207385629,0.004331,0.000683,-0.000720,0.202410,0.069322,312.320012,25.859473,0.999648,0.992896,0.003347,0.474874,-0.000005,0.000034,0.000000,0.000034,-0.000005,89.487418,0.000037,
2266,2668,0.160102097103952,0.509550414773685,-0.0282342107430509,0.004738,0.000140,0.000278,0.217010,0.052848,320.232675,24.318988,0.999595,0.991479,0.003784,0.456526,0.000000,0.000018,-0.000003,0.000018,0.000000,-79.798183,0.000021,
2386,2998,2.71027117612528,7.69377045494953,0.000350202382037423,0.004269,0.000126,0.000481,0.194765,0.036290,315.015463,25.234970,0.999545,0.991184,0.003841,0.420757,-0.000027,0.000027,-0.000005,0.000027,-0.000027,-85.128343,0.000031,
2206,2923,-1.18787651972155,6.05377088784141,-0.00791024896045656,0.004516,0.000376,0.001959,0.202019,0.065179,316.372171,24.686088,0.999373,0.990771,0.003878,0.409859,-0.000010,0.000024,0.000003,0.000024,-0.000010,85.231427,0.000024,
2341,2758,1.77539838965641,2.47253067962347,-0.0196222021729113,0.004066,0.000452,0.000896,0.184085,0.089670,318.741605,24.501991,0.999555,0.990802,0.003883,0.499769,-0.000019,0.000020,0.000011,0.000023,-0.000022,75.182656,0.000026,
2251,2668,-0.166019388375087,0.508347670537859,-0.0201640259218721,0.004387,0.000237,0.000640,0.199747,0.060027,320.309249,24.325345,0.999580,0.991344,0.003757,0.463562,0.000000,0.000015,-0.000008,0.000019,-0.000003,-66.210584,0.000020,
2221,2968,-0.869786646500312,7.03138743170964,0.000610223195792514,0.004198,0.000207,0.003327,0.182941,0.072597,315.650900,24.742267,0.999339,0.990567,0.003907,0.447325,-0.000012,0.000036,-0.000002,0.000036,-0.000012,-87.054496,0.000037,
2191,2653,-1.4683169213113,0.179480720392725,-0.0235006452350035,0.004559,0.000237,-0.001040,0.213066,0.037926,320.686630,24.334262,0.999540,0.990359,0.003967,0.442802,-0.000011,0.000009,0.000000,0.000009,-0.000011,89.038597,0.000012,
2206,2503,-1.11615000450645,-3.0913021852557,-0.0141777236011649,0.004307,0.000232,0.000962,0.194960,0.043544,323.133382,24.146452,0.999561,0.988819,0.004202,0.452406,-0.000004,-0.000003,-0.000002,-0.000001,-0.000006,-49.402255,0.000008,
2266,2818,0.133803609188277,3.77523374739974,-0.0231002375890057,0.004675,0.000873,-0.003433,0.226874,0.068404,317.846220,24.605752,0.999322,0.990176,0.004102,0.442313,0.000002,0.000016,0.000004,0.000017,0.000000,74.045552,0.000020,
2311,2818,1.11168666214028,3.77742078450112,-0.0201329769686254,0.004204,0.000296,0.001040,0.190009,0.061515,317.780198,24.671486,0.999558,0.990498,0.003854,0.417005,-0.000006,0.000009,0.000007,0.000012,-0.000009,68.762034,0.000012,
2251,2803,-0.190812311042354,3.44832316805627,-0.0268653521033002,0.004046,0.000537,0.000896,0.183545,0.074165,318.042295,24.548429,0.999398,0.989969,0.004146,0.466412,-0.000002,0.000013,-0.000001,0.000013,-0.000002,-85.765941,0.000014,
2356,2818,2.09109906835499,3.77899017488252,-0.0161606591786949,0.004240,0.000706,-0.001784,0.201562,0.068824,317.810478,24.671456,0.999695,0.992727,0.003542,0.471496,-0.000019,0.000008,-0.000003,0.000008,-0.000020,-83.215171,0.000020,
2221,2743,-0.8323783208435,2.1409011476665,-0.0283807937698271,0.004242,-0.000108,0.001536,0.190287,0.040790,319.078699,24.434720,0.999372,0.989844,0.003985,0.443850,-0.000007,0.000009,-0.000001,0.000010,-0.000007,-85.937792,0.000010,
2371,2863,2.40838627677261,4.75949897631032,-0.0193664053379621,0.004226,0.000482,0.000881,0.191448,0.068840,317.043259,24.833024,0.999542,0.991094,0.003783,0.448301,-0.000023,0.000016,-0.000015,0.000021,-0.000028,-71.585282,0.000029,
2251,3043,-0.230542163359718,8.66215466095182,0.00742565302846288,0.004489,0.000853,-0.001029,0.210661,0.081608,314.443472,24.980848,0.999487,0.992017,0.003586,0.406575,-0.000019,0.000021,-0.000010,0.000023,-0.000021,-76.950472,0.000025,
2326,2683,1.46234325959357,0.839104849789955,-0.0309666855468436,0.004229,0.000250,-0.000087,0.194801,0.059782,319.882146,24.341514,0.999719,0.992430,0.003678,0.450270,-0.000012,0.000039,0.000001,0.000039,-0.000012,88.377839,0.000040,
2266,3058,0.0922319711416684,8.98800417201184,0.0093710008275707,0.004101,0.000594,-0.001088,0.192882,0.063748,314.169989,25.005759,0.999458,0.992684,0.003562,0.437428,-0.000016,0.000014,-0.000001,0.000014,-0.000016,-87.919606,0.000018,
2416,3193,3.3269410769145,11.9284839475275,0.0314702669448934,0.004349,0.000642,0.000042,0.200443,0.062674,312.116046,25.935823,0.999617,0.992057,0.003420,0.438083,-0.000002,0.000032,0.000000,0.000032,-0.000002,89.360404,0.000036,
2296,2788,0.791093379177841,3.12347970030599,-0.0234791022268723,0.004439,0.000259,-0.000718,0.206804,0.067616,318.271329,24.532439,0.999393,0.990371,0.003946,0.486639,-0.000002,0.000012,0.000006,0.000014,-0.000005,69.529310,0.000014,
2236,2788,-0.51345688837797,3.12073965947869,-0.024592155057519,0.004389,0.000531,-0.002790,0.211275,0.061018,318.364315,24.498791,0.999420,0.990276,0.003952,0.468186,-0.000009,0.000014,0.000000,0.000014,-0.000009,-89.501079,0.000014,
2281,2833,0.456763580327316,4.10199317465152,-0.0243830835349854,0.004230,0.000666,-0.004835,0.211089,0.049382,317.553356,24.628668,0.999477,0.991867,0.003736,0.443875,-0.000008,0.000012,0.000009,0.000016,-0.000011,69.026010,0.000016,
2236,2998,-0.548925285558457,7.68310554644145,0.00598934306515275,0.004139,0.000407,0.002061,0.184216,0.062979,315.172158,24.792260,0.999452,0.991606,0.003735,0.466567,-0.000019,0.000037,-0.000006,0.000037,-0.000019,-83.898350,0.000037,
2236,2593,-0.479041046280045,-1.1277150889069,-0.0159424178315248,0.004226,0.000062,0.000909,0.191389,0.050581,321.583977,24.177233,0.999347,0.987091,0.004525,0.500006,-0.000005,0.000002,-0.000013,0.000012,-0.000015,-51.991033,0.000016,
2221,2518,-0.791815850691936,-2.76348705829153,-0.0158529424576273,0.004576,0.000903,-0.002883,0.219822,0.067008,322.862487,24.115621,0.999356,0.987333,0.004316,0.496151,-0.000006,0.000000,0.000003,0.000002,-0.000007,68.121741,0.000008,
2281,3133,0.40449667317969,10.6159952297926,0.0156875105670338,0.004005,0.000597,0.001385,0.180295,0.075798,312.960660,25.152584,0.999697,0.994519,0.003240,0.487540,-0.000007,0.000015,-0.000011,0.000020,-0.000012,-67.386443,0.000020,
2401,3043,3.02870325395907,8.6723548409002,0.00935591331625574,0.004483,0.000555,-0.000794,0.209495,0.065990,314.381282,25.423921,0.999648,0.991502,0.003710,0.438106,-0.000025,0.000024,-0.000006,0.000025,-0.000026,-83.396699,0.000029,
2266,2683,0.156800505532956,0.836645648748402,-0.0295404492726448,0.004204,0.000318,0.000118,0.193088,0.063603,319.954055,24.351940,0.999555,0.992338,0.003623,0.460338,0.000001,0.000020,-0.000006,0.000021,-0.000001,-74.119143,0.000024,
2386,3013,2.7080636028993,8.01963326812233,0.00644438541002046,0.004301,0.000620,-0.001792,0.204677,0.057348,314.830982,25.291282,0.999622,0.991896,0.003625,0.428153,-0.000027,0.000022,-0.000008,0.000024,-0.000028,-81.159900,0.000030,
2191,2668,-1.47143831398316,0.50738010613351,-0.0276986890082753,0.003986,0.000777,-0.005331,0.200371,0.043775,320.395061,24.415503,0.999747,0.994628,0.003180,0.382419,-0.000013,0.000016,-0.000003,0.000016,-0.000013,-84.462036,0.000017,
2206,2938,-1.19053345567768,6.37897559863028,-0.00399167932198452,0.004236,0.000397,0.002710,0.186810,0.076295,316.145542,24.655665,0.999441,0.992535,0.003596,0.467411,-0.000014,0.000029,0.000005,0.000030,-0.000014,83.810887,0.000030,
2206,2713,-1.15325877064209,1.48654152090717,-0.0272534321637181,0.004254,-0.000105,0.002561,0.187615,0.042106,319.612610,24.343426,0.998856,0.987681,0.004473,0.497607,-0.000012,0.000016,-0.000004,0.000016,-0.000012,-82.829939,0.000017,
2281,2893,0.445866243389915,5.40687009427874,-0.0211108311767703,0.004348,0.000353,0.000286,0.199390,0.060800,316.591178,24.759213,0.999698,0.992717,0.003419,0.434402,-0.000016,0.000019,0.000007,0.000021,-0.000018,79.712118,0.000022,
2221,2758,-0.834649858711625,2.46754589741941,-0.0275595145364491,0.004458,0.000088,0.000596,0.203345,0.055392,318.854622,24.461518,0.999524,0.990239,0.003853,0.450534,-0.000013,0.000016,0.000000,0.000016,-0.000013,89.511464,0.000017,
2311,2833,1.10957329490686,4.10337299631364,-0.0119588255699341,0.004091,0.000317,-0.001072,0.192038,0.055230,317.606348,24.733671,0.999726,0.992701,0.003543,0.380324,-0.000014,0.000013,0.000008,0.000016,-0.000016,74.553759,0.000018,
2266,3073,0.0903306109928437,9.31297972356981,0.0196075023364415,0.004138,0.000753,-0.001453,0.195841,0.067782,314.013630,25.036065,0.999308,0.991866,0.003784,0.435814,-0.000018,0.000019,-0.000003,0.000019,-0.000018,-85.298827,0.000021,
2341,2773,1.77331990224164,2.7990725454532,-0.0156128643324678,0.004433,0.000403,0.000013,0.204027,0.074499,318.550889,24.579628,0.999614,0.992562,0.003546,0.443543,-0.000019,0.000012,0.000008,0.000014,-0.000021,76.346906,0.000021,
2251,2683,-0.168807002351276,0.834711976099342,-0.019233952609568,0.004085,0.000316,-0.000792,0.190650,0.063084,320.064537,24.316440,0.999530,0.991281,0.003723,0.499351,-0.000001,0.000018,-0.000010,0.000023,-0.000005,-66.215155,0.000024,
2371,2878,2.40572897074878,5.08571792695533,-0.013610383732555,0.004140,0.000038,0.002744,0.180662,0.040660,316.836025,24.936030,0.999481,0.993258,0.003567,0.357799,-0.000027,0.000019,-0.000012,0.000022,-0.000030,-76.477371,0.000031,
2266,2833,0.130696649234949,4.10205378933755,-0.0282430913956659,0.004664,0.000853,-0.003024,0.225013,0.064935,317.556957,24.644043,0.999307,0.991000,0.003875,0.426154,-0.000004,0.000017,0.000006,0.000019,-0.000005,74.560470,0.000019,
2221,2983,-0.871895298302761,7.35718825394103,-0.000799393885188238,0.004524,0.000440,-0.000831,0.211356,0.065081,315.422813,24.760048,0.999412,0.991790,0.003709,0.440255,-0.000012,0.000041,-0.000002,0.000041,-0.000012,-88.184560,0.000042,
2356,2833,2.08813817860419,4.10574348364885,-0.0181822919204819,0.004422,0.000429,0.000025,0.203475,0.063712,317.550850,24.729626,0.999734,0.991205,0.003777,0.446836,-0.000022,0.000011,-0.000002,0.000011,-0.000022,-87.213333,0.000022,
2416,3208,3.32410950122415,12.2538187618751,0.0313556597162119,0.004380,0.000719,-0.001154,0.206285,0.062556,311.874802,25.972822,0.999537,0.991452,0.003665,0.447431,-0.000001,0.000025,-0.000002,0.000025,-0.000001,-85.844278,0.000028,
2251,2818,-0.192222223896554,3.77393213370854,-0.0203330967669331,0.004478,0.000967,-0.004037,0.219731,0.077643,317.889139,24.552437,0.999518,0.991240,0.004039,0.489002,-0.000002,0.000021,0.000002,0.000021,-0.000002,85.322245,0.000023,
2236,2803,-0.516507747511639,3.44717227233195,-0.0258354487015708,0.004308,0.000441,0.000640,0.196452,0.068885,318.095056,24.510239,0.999516,0.990023,0.004019,0.485661,-0.000008,0.000011,0.000000,0.000011,-0.000008,-89.152308,0.000011,
2281,2848,0.453658942459867,4.42955530193736,-0.0238330473422934,0.004272,0.000676,0.001506,0.191919,0.085226,317.293618,24.743590,0.999594,0.993357,0.003629,0.392235,-0.000010,0.000011,0.000011,0.000016,-0.000015,66.522948,0.000018,
2251,3058,-0.231757269064939,8.98568236134123,0.028453713442218,0.004508,0.000932,-0.000145,0.208675,0.088470,314.373187,24.941618,0.999574,0.993285,0.003365,0.475048,-0.000014,0.000016,-0.000009,0.000018,-0.000016,-75.119411,0.000020,
2326,2698,1.45993271771532,1.16478893765272,-0.0253487817755058,0.004223,0.000424,0.000516,0.192544,0.074359,319.683376,24.303321,0.999584,0.991394,0.003821,0.537721,-0.000014,0.000041,0.000002,0.000041,-0.000014,88.229465,0.000041,
2296,2968,0.759955489771624,7.03685749979988,-0.00483953101735324,0.004817,0.000518,-0.001441,0.226951,0.066518,315.513150,24.953653,0.999359,0.991632,0.003653,0.420023,-0.000025,0.000030,0.000000,0.000030,-0.000025,89.586692,0.000033,
2281,3148,0.402364543986863,10.9409249585838,0.0254019872673439,0.003991,0.000461,0.002662,0.175308,0.070374,312.791683,25.200915,0.999530,0.993283,0.003680,0.460456,-0.000007,0.000017,-0.000011,0.000021,-0.000011,-69.016152,0.000021,
2236,2608,-0.481431999256539,-0.800215588531906,-0.0203045184030088,0.004527,0.000632,-0.002527,0.216529,0.047092,321.329272,24.209995,0.999232,0.985966,0.004614,0.485429,-0.000008,-0.000010,-0.000007,-0.000002,-0.000016,-40.157486,0.000020,
2221,2533,-0.794804595060949,-2.43518700389875,-0.0160763116005,0.004291,0.000721,-0.001652,0.202786,0.071950,322.600183,24.224899,0.999596,0.990133,0.003876,0.411784,-0.000005,0.000001,0.000003,0.000002,-0.000006,68.831325,0.000007,
2296,2803,0.787789664739631,3.45163030606744,-0.0316003432995444,0.004323,0.001011,-0.002857,0.209029,0.094080,317.960543,24.631239,0.999386,0.989527,0.004008,0.444298,-0.000001,0.000009,0.000007,0.000013,-0.000004,61.987330,0.000013,
2236,3013,-0.55136896866939,8.00895875855831,0.00702262315252256,0.004317,0.000446,0.002634,0.190625,0.072450,314.942211,24.822686,0.999324,0.989929,0.003975,0.465929,-0.000017,0.000029,-0.000009,0.000031,-0.000018,-79.561814,0.000031,
2401,3058,3.02565356914836,8.9984791020464,0.0103758276749772,0.004469,0.000561,0.001616,0.200121,0.075721,314.134696,25.493296,0.999701,0.992441,0.003561,0.423069,-0.000024,0.000017,-0.000002,0.000017,-0.000024,-87.434381,0.000024,
2206,2728,-1.15578761312598,1.8136932350068,-0.0258563111835883,0.004177,0.000183,0.002046,0.185864,0.063971,319.378472,24.404953,0.999247,0.989885,0.004004,0.474918,-0.000012,0.000008,-0.000005,0.000009,-0.000013,-77.878415,0.000013,
2311,2848,1.10729843115616,4.42832108072422,-0.00892999857950372,0.004328,0.000677,-0.001377,0.204155,0.073199,317.399934,24.644076,0.999813,0.993336,0.003466,0.520072,-0.000016,0.000013,0.000007,0.000015,-0.000018,77.066239,0.000019,
2266,3088,0.0876427680179681,9.63845527054945,0.0215256032410593,0.004154,0.000436,0.000409,0.190332,0.058781,313.779007,25.075218,0.999572,0.992711,0.003535,0.411921,-0.000017,0.000016,-0.000012,0.000020,-0.000021,-71.634391,0.000024,
2386,3028,2.70445987021237,8.34559872470198,0.0062788294052325,0.003963,0.000272,0.002693,0.172897,0.056376,314.552390,25.340953,0.999602,0.991430,0.003726,0.419771,-0.000025,0.000025,-0.000009,0.000027,-0.000027,-80.004932,0.000031,
2281,2908,0.44333680026919,5.7329957608319,-0.0204901790894496,0.004477,0.000512,0.000049,0.206231,0.074570,316.358519,24.781356,0.999703,0.993418,0.003232,0.453510,-0.000018,0.000021,0.000004,0.000021,-0.000018,83.684473,0.000023,
2206,2953,-1.1936718349999,6.70501580758209,-0.00928969048413819,0.004165,0.000446,0.004161,0.179025,0.094134,315.848831,24.634704,0.999433,0.992707,0.003581,0.522474,-0.000011,0.000032,0.000001,0.000032,-0.000011,88.394122,0.000033,
2266,2698,0.15494147325705,1.16282334042481,-0.02420757794971,0.004573,0.000295,-0.000843,0.213209,0.053069,319.775248,24.380719,0.999639,0.992759,0.003528,0.446880,-0.000001,0.000022,-0.000006,0.000024,-0.000003,-76.457146,0.000026,
2251,2698,-0.171084968054355,1.1613284058011,-0.0204464465163028,0.004612,0.000222,0.000037,0.212095,0.049260,319.832319,24.334345,0.999522,0.991539,0.003558,0.491263,-0.000003,0.000021,-0.000011,0.000025,-0.000007,-69.035133,0.000025,
2221,2773,-0.837176001967077,2.79328462915844,-0.0205949117135447,0.004084,0.000256,0.001045,0.184784,0.066457,318.650628,24.461120,0.999415,0.990559,0.003909,0.480820,-0.000016,0.000016,0.000001,0.000016,-0.000016,87.313787,0.000018,
2371,2893,2.40331238051147,5.41087494958835,-0.011691533187502,0.004240,0.000304,0.000176,0.194529,0.049062,316.621665,24.880343,0.999486,0.992157,0.003661,0.462597,-0.000029,0.000017,-0.000012,0.000020,-0.000032,-75.576790,0.000032,
2356,2848,2.0846200665441,4.43248220710154,-0.0240459958382075,0.004342,0.000303,0.001840,0.193409,0.072265,317.246995,24.748817,0.999651,0.991076,0.003762,0.474967,-0.000021,0.000010,-0.000005,0.000011,-0.000021,-80.477377,0.000021,
2341,2788,1.77065916837853,3.12579191367935,-0.0183673752818549,0.004617,0.000785,-0.002386,0.220999,0.083961,318.300442,24.600485,0.999634,0.993655,0.003398,0.468851,-0.000019,0.000009,0.000006,0.000011,-0.000020,77.984594,0.000020,
2221,2998,-0.87454719926529,7.68266377641947,0.00106116490729846,0.004448,0.000487,0.000297,0.204237,0.059983,315.186660,24.772063,0.999432,0.991767,0.003727,0.441349,-0.000012,0.000038,-0.000003,0.000039,-0.000012,-86.302276,0.000039,
2251,2833,-0.194910446472594,4.10054781984212,-0.022839353556833,0.004565,0.000717,-0.005069,0.226999,0.051593,317.631259,24.613856,0.999405,0.991608,0.003835,0.424654,-0.000005,0.000021,0.000003,0.000021,-0.000006,83.194142,0.000022,
2416,3223,3.32081115450999,12.5791376925347,0.02727484880171,0.004185,0.000452,-0.003315,0.205172,0.047239,311.593354,26.004709,0.999470,0.991364,0.003713,0.446864,-0.000001,0.000021,-0.000002,0.000021,-0.000001,-83.392024,0.000024,
2266,2848,0.128320551441107,4.42727145884139,-0.0170272279669348,0.004524,0.000420,0.001904,0.202186,0.081303,317.383935,24.642567,0.999506,0.992904,0.003613,0.469152,-0.000005,0.000015,0.000009,0.000018,-0.000009,69.187843,0.000018,
2236,2818,-0.518368624834658,3.77292573164792,-0.0198540449287066,0.004477,0.000713,-0.001970,0.212758,0.064631,317.917453,24.530789,0.999490,0.990944,0.003928,0.481667,-0.000007,0.000019,0.000004,0.000019,-0.000008,81.621144,0.000020,
2281,2863,0.450923948571219,4.75527521416342,-0.0222665964019484,0.004311,0.000028,0.003814,0.185751,0.058942,317.056533,24.762879,0.999694,0.993615,0.003450,0.373987,-0.000011,0.000015,0.000007,0.000017,-0.000013,76.242664,0.000017,
2296,2983,0.757375231567426,7.36284968866538,0.00143102030227737,0.004489,0.000855,-0.001911,0.213611,0.086367,315.307156,25.016057,0.999203,0.989386,0.004022,0.406630,-0.000022,0.000033,0.000003,0.000033,-0.000023,86.654341,0.000034,
2221,2548,-0.797167365487372,-2.10888537211128,-0.0112711114148851,0.004211,0.000608,-0.001267,0.197856,0.072632,322.392775,24.204667,0.999732,0.992077,0.003513,0.452436,-0.000004,-0.000004,0.000000,-0.000003,-0.000004,52.223631,0.000007,
2236,2623,-0.484057885114154,-0.472812679762654,-0.018167185666357,0.004535,0.000527,-0.000356,0.209851,0.059541,321.096824,24.278758,0.999304,0.986111,0.004567,0.450837,-0.000007,-0.000001,-0.000006,0.000002,-0.000011,-58.393281,0.000011,
2236,3028,-0.553819703917711,8.33476769716801,0.0093201324856409,0.004142,0.000735,-0.000428,0.192656,0.084857,314.718384,24.858449,0.999468,0.991644,0.003626,0.462938,-0.000019,0.000026,-0.000009,0.000028,-0.000021,-79.274951,0.000029,
2326,2713,1.45710073219925,1.49394683115037,-0.030882752637126,0.004355,0.000980,-0.002853,0.210492,0.094623,319.409861,24.491845,0.999152,0.987320,0.004443,0.404398,-0.000014,0.000042,0.000005,0.000042,-0.000015,84.898355,0.000043,
2206,2743,-1.1583303957159,2.14068570331975,-0.0266323251739209,0.004246,0.000344,0.001657,0.190357,0.069046,319.132531,24.455622,0.999517,0.990753,0.003874,0.446382,-0.000014,0.000009,-0.000007,0.000011,-0.000016,-73.699666,0.000016,
2266,3103,0.0851390753668788,9.96433587790616,0.0167341002475041,0.004458,0.000774,-0.003020,0.215842,0.068847,313.518847,25.094164,0.999726,0.994104,0.003256,0.427815,-0.000015,0.000015,-0.000014,0.000020,-0.000020,-68.471138,0.000023,
2266,2713,0.152430595587724,1.48953049567456,-0.0206571419454917,0.004174,0.000898,-0.005189,0.209526,0.065182,319.557351,24.424973,0.999686,0.993494,0.003486,0.440576,-0.000001,0.000021,-0.000003,0.000021,-0.000001,-81.535068,0.000024,
2281,3163,0.3997752733186,11.2668251688998,0.0259263479427432,0.004119,0.000474,0.002915,0.180407,0.071995,312.555281,25.279056,0.999510,0.992736,0.003578,0.410194,-0.000004,0.000020,-0.000010,0.000024,-0.000008,-69.610156,0.000024,
2401,3073,3.02253773257502,9.32427470422159,0.00941627920400379,0.004271,0.000745,0.000590,0.194804,0.072448,313.875752,25.536544,0.999663,0.991812,0.003636,0.420951,-0.000020,0.000016,0.000000,0.000016,-0.000020,89.274811,0.000021,
2251,3073,-0.235696700447509,9.31209380499147,0.0163327094032297,0.004224,0.000786,0.001296,0.190855,0.088904,314.008510,24.962768,0.999513,0.992402,0.003531,0.476683,-0.000015,0.000022,-0.000009,0.000024,-0.000017,-76.901872,0.000025,
2356,2863,2.08196795138209,4.7587361119137,-0.0250926101784898,0.004542,0.000443,0.000894,0.205993,0.064522,317.006277,24.780418,0.999580,0.990795,0.003811,0.474488,-0.000022,0.000016,-0.000006,0.000017,-0.000023,-80.577475,0.000024,
2416,3238,3.31709151801301,12.9054349050341,0.0190133264989072,0.004183,0.000725,-0.002007,0.200433,0.068969,311.272435,26.070658,0.999473,0.991940,0.003586,0.448724,0.000000,0.000021,0.000001,0.000021,0.000000,88.097106,0.000024,
2296,3208,0.717340230341264,12.2437287697684,0.024744353509675,0.004123,0.000774,-0.001230,0.194585,0.063911,311.803371,25.410653,0.999734,0.994245,0.003111,0.423461,0.000002,0.000022,-0.000011,0.000027,-0.000003,-65.933625,0.000030,
2296,2818,0.785394132607397,3.77674083739063,-0.0235018695138365,0.004198,0.000600,-0.001100,0.197184,0.076351,317.772786,24.623738,0.999487,0.990784,0.003825,0.463908,-0.000003,0.000012,0.000007,0.000015,-0.000006,67.333615,0.000015,
2386,3043,2.70157912001998,8.67146408809096,0.00288933413946779,0.004158,0.000372,0.001551,0.186054,0.068015,314.291684,25.351604,0.999707,0.992185,0.003582,0.463456,-0.000027,0.000023,-0.000007,0.000024,-0.000028,-82.586090,0.000030,
2341,2803,1.76713963120531,3.45279466487042,-0.0226888200476196,0.004268,0.000667,-0.002127,0.204025,0.075531,318.002825,24.658171,0.999576,0.992809,0.003541,0.439302,-0.000016,0.000007,0.000005,0.000008,-0.000016,78.419389,0.000016,
2251,2848,-0.197986817966036,4.4264197757708,-0.0196688755611945,0.004319,0.000289,0.000378,0.197775,0.067072,317.384409,24.612728,0.999373,0.992671,0.003673,0.464351,-0.000005,0.000017,0.000005,0.000018,-0.000006,78.887956,0.000019,
2251,2713,-0.174311841387425,1.48882865335525,-0.0273918961661934,0.004390,0.000429,-0.002126,0.209052,0.051017,319.527245,24.376247,0.999476,0.991627,0.003639,0.474785,-0.000003,0.000018,-0.000008,0.000021,-0.000005,-70.972098,0.000022,
2371,2908,2.40001007669624,5.73733213213499,-0.0123213859488374,0.004158,0.000118,0.004007,0.177137,0.064829,316.353942,24.922726,0.999358,0.990693,0.003906,0.476522,-0.000030,0.000015,-0.000013,0.000018,-0.000034,-75.175122,0.000034,
2281,2923,0.440748686921204,6.05813754259665,-0.0122023571125851,0.004270,-0.000012,0.003683,0.184345,0.058393,316.161796,24.801702,0.999598,0.992881,0.003484,0.443967,-0.000018,0.000025,-0.000001,0.000025,-0.000018,-88.811052,0.000026,
2266,2863,0.12656732990515,4.752037157334,-0.00262750685124047,0.004428,0.000283,0.002023,0.197290,0.068023,317.255711,24.655343,0.999750,0.994588,0.003274,0.468100,-0.000006,0.000019,0.000004,0.000020,-0.000007,80.738579,0.000020,
2221,3013,-0.876743786124575,8.00809021227832,0.0058485000012638,0.004519,0.000592,-0.000073,0.208798,0.074098,314.986448,24.783808,0.999464,0.991977,0.003611,0.461755,-0.000011,0.000033,-0.000006,0.000034,-0.000011,-82.005018,0.000034,
2311,2863,1.10443167295019,4.75488902814642,-0.00755318505332525,0.004376,0.000140,0.001885,0.195014,0.054081,317.157761,24.732193,0.999708,0.992460,0.003566,0.444539,-0.000019,0.000017,0.000005,0.000018,-0.000019,82.591490,0.000022,
2236,2833,-0.521052369890953,4.09953271669207,-0.0172388997962685,0.004514,0.000168,0.001705,0.202409,0.064741,317.684634,24.603681,0.999423,0.991520,0.003753,0.430032,-0.000009,0.000018,0.000006,0.000020,-0.000010,77.651751,0.000020,
2221,2788,-0.838930517812873,3.11887985610987,-0.0140657573890053,0.004399,0.000189,-0.000147,0.203077,0.052204,318.479895,24.472737,0.999440,0.991791,0.003821,0.473787,-0.000016,0.000016,0.000003,0.000017,-0.000016,84.615961,0.000019,
2281,2878,0.448732510976612,5.07964012648841,-0.0171989094768605,0.004190,0.000420,0.000118,0.192659,0.054483,316.862236,24.665485,0.999773,0.993566,0.003401,0.494528,-0.000014,0.000018,0.000008,0.000020,-0.000016,77.066698,0.000021,
2266,2728,0.148870296368415,1.81697902670129,-0.0290280364715727,0.004068,0.000906,-0.002982,0.197419,0.089070,319.231117,24.433949,0.999480,0.991472,0.003733,0.481519,0.000003,0.000013,0.000000,0.000013,0.000003,87.682063,0.000018,
2236,3043,-0.555729669433969,8.66047454627595,0.0119110770473299,0.004621,0.000695,-0.001615,0.218576,0.074490,314.520941,24.913115,0.999609,0.992112,0.003539,0.418147,-0.000018,0.000021,-0.000006,0.000022,-0.000019,-81.153574,0.000024,
2236,2638,-0.486772963602942,-0.145869489597054,-0.0191071593616243,0.004555,0.000566,0.000218,0.208983,0.069109,320.844712,24.286604,0.999158,0.987335,0.004479,0.474388,-0.000003,0.000011,-0.000005,0.000013,-0.000005,-72.083214,0.000013,
2221,2563,-0.800317388663171,-1.78121766344716,-0.0191922434287903,0.004328,0.000466,0.000350,0.198019,0.072843,322.083748,24.202285,0.999587,0.991366,0.003682,0.474975,-0.000001,-0.000010,-0.000006,0.000002,-0.000013,-28.483293,0.000014,
2311,3043,1.07266138948502,8.6657012978822,0.014144711237293,0.004288,0.000502,0.002096,0.190601,0.072533,314.396639,25.155097,0.999590,0.992079,0.003556,0.419280,-0.000026,0.000024,-0.000002,0.000024,-0.000026,-87.970627,0.000029,
2401,3088,3.0202149434705,9.64963091503214,0.014977607158869,0.004477,0.000471,0.001165,0.202155,0.072548,313.684212,25.581410,0.999619,0.991410,0.003666,0.420810,-0.000020,0.000013,-0.000002,0.000013,-0.000020,-85.932033,0.000021,
2266,3118,0.08265667910781,10.2891411632663,0.0263549147995263,0.004233,0.000735,0.000368,0.194218,0.073310,313.332658,25.113857,0.999688,0.994075,0.003256,0.436893,-0.000012,0.000009,-0.000012,0.000015,-0.000018,-65.180658,0.000019,
2416,3253,3.31379020415521,13.2312350940515,0.015183909262305,0.004482,0.000550,0.002270,0.198499,0.079569,310.991699,26.131476,0.999318,0.990674,0.003806,0.445036,-0.000001,0.000026,0.000003,0.000026,-0.000001,84.647949,0.000030,
2281,3178,0.397656420976571,11.5913724114882,0.0325302862094645,0.004277,0.000306,0.003243,0.186483,0.056956,312.371421,25.288906,0.999557,0.993566,0.003290,0.411878,0.000000,0.000021,-0.000012,0.000027,-0.000006,-64.811392,0.000028,
2251,3088,-0.238606420592181,9.63776010428661,0.0118198508637306,0.004251,0.000498,0.000301,0.195205,0.060598,313.729995,24.997873,0.999555,0.991564,0.003597,0.435595,-0.000016,0.000019,-0.000016,0.000025,-0.000022,-68.684034,0.000027,
2356,2878,2.07975209073703,5.08412995510925,-0.0139228524009809,0.004495,0.000072,0.003280,0.195281,0.051470,316.844729,24.832288,0.999562,0.991972,0.003666,0.447700,-0.000027,0.000017,-0.000004,0.000018,-0.000027,-84.675803,0.000028,
2326,2728,1.45451030525436,1.8197837566936,-0.0306358282513202,0.004538,0.000712,-0.002789,0.218562,0.071497,319.176548,24.470469,0.999406,0.989468,0.004071,0.437074,-0.000015,0.000030,0.000009,0.000032,-0.000017,79.068566,0.000032,
2296,2998,0.754487183027795,7.68773179940096,0.00532443523962911,0.004254,0.000687,0.000695,0.193887,0.078388,315.075550,24.991232,0.999399,0.991185,0.003728,0.452576,-0.000021,0.000032,0.000001,0.000032,-0.000021,88.597792,0.000033,
2296,3223,0.714472120288061,12.5679448954354,0.0256382457516793,0.004076,0.000583,0.000486,0.186585,0.065837,311.557447,25.350810,0.999811,0.995094,0.002928,0.514226,0.000003,0.000030,-0.000013,0.000035,-0.000002,-68.280305,0.000039,
2386,3058,2.69940311705856,8.99700913719861,0.0112308087848874,0.004266,0.000390,0.002059,0.189217,0.067873,314.119304,25.425182,0.999710,0.992409,0.003507,0.431932,-0.000026,0.000016,-0.000003,0.000017,-0.000026,-86.535611,0.000027,
2296,2833,0.782977518947636,4.10294573168827,-0.0205704826898909,0.004070,0.000678,-0.004327,0.202200,0.059894,317.558097,24.679783,0.999686,0.993192,0.003501,0.421295,-0.000011,0.000015,0.000009,0.000017,-0.000013,73.024323,0.000018,
2251,2863,-0.200793596937803,4.75219474989821,-0.017797763777196,0.004168,0.000055,0.002076,0.185175,0.058239,317.143402,24.621148,0.999519,0.992413,0.003574,0.470204,-0.000007,0.000020,-0.000002,0.000020,-0.000007,-86.258253,0.000021,
2266,2878,0.123560909887839,5.07809688187992,-0.00768398979101903,0.004373,0.000435,0.000535,0.199702,0.051601,316.971644,24.649923,0.999697,0.992613,0.003496,0.482232,-0.000007,0.000024,0.000007,0.000025,-0.000009,78.584728,0.000026,
2341,2818,1.76421462225791,3.7788744360215,-0.0226242431492665,0.004297,0.000512,-0.000277,0.198835,0.065149,317.754010,24.671305,0.999361,0.989335,0.003934,0.452329,-0.000019,0.000009,0.000004,0.000010,-0.000020,81.750127,0.000020,
2416,3268,3.30977360107631,13.5569195916248,0.00263972597105067,0.004229,0.000638,-0.000110,0.195669,0.081521,310.636991,26.146568,0.999591,0.992399,0.003496,0.478187,0.000001,0.000022,0.000004,0.000023,0.000000,80.016733,0.000027,
2371,2923,2.39749309755267,6.06373358681547,-0.0124066601183017,0.004255,0.000215,0.000584,0.193861,0.064864,316.124926,24.983793,0.999327,0.990541,0.003934,0.456041,-0.000031,0.000013,-0.000016,0.000018,-0.000036,-72.130978,0.000036,
2281,2938,0.437730088821063,6.38368639646758,-0.00886873560483536,0.003786,0.000165,0.004467,0.159486,0.059099,315.920348,24.810800,0.999497,0.992067,0.003680,0.463035,-0.000020,0.000030,0.000000,0.000030,-0.000020,89.508313,0.000030,
2311,3283,1.02764740390587,13.8718987648431,0.0030917645668751,0.004322,0.000769,-0.002100,0.206888,0.069048,310.388510,25.615669,0.999634,0.994881,0.002811,0.451191,-0.000003,0.000021,0.000006,0.000022,-0.000005,77.117996,0.000023,
2251,2728,-0.177253501159452,1.81590649732428,-0.0282555743854687,0.004153,0.000759,-0.002377,0.199179,0.081800,319.266032,24.404778,0.999326,0.990824,0.003814,0.500741,0.000000,0.000010,-0.000005,0.000013,-0.000002,-67.977807,0.000013,
2311,2878,1.10104224309087,5.08225607495152,-0.0159050366226552,0.004320,0.000389,0.001024,0.195520,0.070571,316.843294,24.791076,0.999605,0.991023,0.003774,0.434171,-0.000025,0.000018,0.000007,0.000019,-0.000026,80.635604,0.000027,
2281,3193,0.39532619938511,11.9165242500345,0.031872252978701,0.004547,0.000452,0.000716,0.207517,0.065021,312.141209,25.291782,0.999643,0.993737,0.003205,0.443827,0.000003,0.000022,-0.000011,0.000027,-0.000002,-65.368450,0.000029,
2296,3238,0.711618638230782,12.8937895709587,0.0207259627241569,0.004242,0.000624,-0.000984,0.199246,0.063424,311.282668,25.416303,0.999634,0.993057,0.003333,0.474839,0.000002,0.000022,-0.000011,0.000027,-0.000003,-65.131349,0.000030,
2251,3103,-0.240448158127283,9.96273247851041,0.0190243987889289,0.004431,0.000509,-0.001748,0.210215,0.054450,313.560239,25.025074,0.999574,0.992751,0.003483,0.424507,-0.000016,0.000017,-0.000016,0.000023,-0.000023,-67.794421,0.000027,
2221,3028,-0.879946247879221,8.3337463689314,0.00364827491443975,0.004091,0.000527,-0.000221,0.189616,0.083340,314.704005,24.778747,0.999691,0.994214,0.003125,0.494328,-0.000014,0.000030,-0.000008,0.000032,-0.000015,-80.507426,0.000032,
2236,2848,-0.52426767953677,4.42598255898556,-0.0276102050929694,0.004490,0.000135,-0.000915,0.209784,0.046488,317.361225,24.587422,0.999376,0.991707,0.003694,0.448993,-0.000010,0.000014,0.000008,0.000017,-0.000012,72.980087,0.000017,
2266,2743,0.146536174949762,2.14290078721658,-0.0246827732002544,0.004315,0.000554,-0.000093,0.199069,0.079844,319.025516,24.442574,0.999263,0.988866,0.004093,0.489284,0.000003,0.000008,0.000003,0.000009,0.000001,65.858323,0.000011,
2296,3013,0.751107789034183,8.01390335628968,0.000310135564745906,0.003999,0.000587,0.000705,0.182129,0.079730,314.776651,25.019692,0.999168,0.988476,0.004170,0.454635,-0.000021,0.000026,-0.000003,0.000026,-0.000021,-86.081816,0.000028,
2386,3073,2.69601216885634,9.32282039244767,0.0072311759678314,0.004096,0.000459,0.002152,0.181082,0.067220,313.832107,25.447498,0.999681,0.991640,0.003630,0.451530,-0.000023,0.000015,-0.000001,0.000015,-0.000023,-88.341938,0.000023,
2221,2578,-0.802822263918788,-1.45434020269564,-0.0184654703632532,0.004427,0.000377,0.001171,0.199933,0.074334,321.848750,24.207469,0.999325,0.989177,0.004032,0.490997,0.000001,-0.000002,-0.000005,0.000005,-0.000006,-36.312359,0.000006,
2221,2803,-0.842806217487123,3.44601002943927,-0.0232530266604272,0.004013,-0.000171,0.003118,0.174728,0.042814,318.130674,24.503536,0.999306,0.989749,0.004116,0.452605,-0.000014,0.000013,0.000004,0.000014,-0.000014,82.387771,0.000016,
2251,2878,-0.202868436871125,5.07872529108596,-0.0175858602781886,0.004611,0.000278,0.000157,0.211925,0.049304,316.927354,24.690884,0.999618,0.990972,0.003696,0.414443,-0.000008,0.000024,0.000000,0.000024,-0.000008,-89.668726,0.000025,
2416,3283,3.30641519654155,13.8828383088984,-0.0017758369589842,0.004397,0.000496,0.002650,0.193231,0.079825,310.350650,26.236584,0.999707,0.992540,0.003471,0.432546,0.000008,0.000013,0.000006,0.000016,0.000004,55.495452,0.000022,
2311,3058,1.06982010603204,8.99094489970109,0.014187282906164,0.004142,0.000604,0.001051,0.187509,0.075417,314.148855,25.142213,0.999735,0.993615,0.003238,0.466380,-0.000025,0.000017,0.000001,0.000017,-0.000025,89.267976,0.000026,
2296,2848,0.780361286885995,4.42816968617544,-0.0168322747189791,0.004224,0.000611,-0.000162,0.195183,0.064962,317.338437,24.634180,0.999689,0.993208,0.003524,0.501461,-0.000014,0.000015,0.000009,0.000018,-0.000016,74.112885,0.000020,
2266,2893,0.120503727496548,5.40500658595469,-0.0101683858219985,0.004248,0.000260,0.001257,0.191547,0.059080,316.697853,24.722528,0.999647,0.991327,0.003614,0.442336,-0.000009,0.000024,0.000007,0.000025,-0.000010,78.679662,0.000025,
2326,2743,1.45179148906709,2.14577423520599,-0.025091921030139,0.004322,0.000561,-0.001035,0.202576,0.079075,318.963075,24.479256,0.999623,0.991075,0.003777,0.470642,-0.000014,0.000023,0.000012,0.000026,-0.000018,73.653111,0.000027,
2356,2893,2.0774620136189,5.41027140681192,-0.00684400511318017,0.004385,0.000290,0.001701,0.195929,0.070428,316.659740,24.893961,0.999575,0.992110,0.003580,0.443518,-0.000029,0.000014,-0.000006,0.000015,-0.000030,-81.804218,0.000030,
2236,3058,-0.557664245680225,8.98489566134098,0.0189031212972282,0.004772,0.000560,-0.002658,0.228842,0.056697,314.345267,24.889082,0.999641,0.993287,0.003298,0.444605,-0.000013,0.000016,-0.000006,0.000018,-0.000015,-78.161765,0.000019,
2266,3133,0.0802634633406392,10.613278164245,0.0311687878245266,0.004133,0.000753,-0.000529,0.192566,0.060221,313.126559,25.062480,0.999687,0.995102,0.003097,0.499679,-0.000010,0.000012,-0.000011,0.000017,-0.000015,-67.450962,0.000018,
2311,3298,1.02428196504819,14.1966842983149,-0.00087448507076715,0.004146,0.000797,-0.000699,0.193973,0.069015,310.096201,25.604305,0.999667,0.995112,0.002794,0.493116,-0.000009,0.000016,0.000004,0.000016,-0.000010,82.078459,0.000016,
2401,3103,3.01756774470122,9.97470575720625,0.0186042077266393,0.004208,0.000686,-0.002070,0.201615,0.076672,313.468619,25.587398,0.999610,0.992841,0.003418,0.463509,-0.000017,0.000016,0.000000,0.000016,-0.000017,89.549494,0.000019,
2341,2833,1.7615422240412,4.10533430736482,-0.0179816307390865,0.004269,0.000149,0.002031,0.189387,0.057929,317.538878,24.755131,0.999656,0.991570,0.003663,0.397745,-0.000023,0.000014,0.000005,0.000015,-0.000023,82.336293,0.000024,
2236,2653,-0.489301337513623,0.181171132227568,-0.00942339140073045,0.004156,0.000370,0.002782,0.182261,0.060133,320.655257,24.415707,0.999412,0.989605,0.004210,0.357710,0.000002,0.000014,0.000000,0.000014,0.000002,88.900052,0.000017,
2281,3208,0.392947884282265,12.2419052017754,0.0422572364194593,0.004154,0.000752,0.000794,0.189241,0.071053,311.964001,25.385729,0.999822,0.995474,0.002799,0.382091,0.000004,0.000023,-0.000011,0.000028,-0.000001,-65.673420,0.000032,
2371,2938,2.39459660457809,6.38969978624026,-0.00764518422687388,0.003970,0.000301,0.001994,0.175775,0.069334,315.901729,25.038912,0.999261,0.989773,0.004030,0.446018,-0.000027,0.000016,-0.000015,0.000020,-0.000032,-72.723800,0.000032,
2416,3298,3.30201151618742,14.208135144178,-0.016862754367537,0.004158,0.000511,0.002743,0.181809,0.065981,309.966074,26.228414,0.999718,0.992984,0.003365,0.472925,0.000016,-0.000003,-0.000003,0.000016,-0.000004,-7.982628,0.000017,
2341,2038,1.91285561233802,-13.2709654105165,0.0125471370239438,0.004020,0.000267,-0.001561,0.189498,0.011527,330.671128,22.734791,0.999010,0.980938,0.005498,0.348624,-0.000011,-0.000036,0.000034,0.000013,-0.000060,34.935741,0.000063,
2296,3253,0.708192406400261,13.2194439309577,0.0169727549683785,0.004086,0.000252,0.002079,0.181524,0.050355,310.987309,25.485884,0.999605,0.990940,0.003675,0.420408,0.000003,0.000020,-0.000007,0.000023,0.000000,-70.686252,0.000026,
2251,3118,-0.243206108565861,10.2885181442472,0.021156433563192,0.004206,0.000869,-0.001754,0.200049,0.077902,313.322291,25.069221,0.999526,0.992131,0.003653,0.426139,-0.000014,0.000011,-0.000015,0.000018,-0.000021,-65.500724,0.000023,
2281,2953,0.435807006574453,6.7100942063825,-0.00869284330889286,0.004278,0.000577,0.000413,0.195924,0.072726,315.713149,24.867528,0.999233,0.990079,0.004014,0.447217,-0.000019,0.000032,-0.000001,0.000032,-0.000019,-88.322467,0.000032,
2326,2878,1.42766098303428,5.08240347589884,-0.0157458655197615,0.004574,0.000537,-0.001718,0.216660,0.064523,316.856666,24.757128,0.999605,0.991550,0.003691,0.486786,-0.000029,0.000020,0.000005,0.000020,-0.000030,84.313703,0.000031,
2386,3088,2.69365119438786,9.6475177345099,0.0154354265089864,0.004134,0.000049,0.003993,0.176049,0.054913,313.650725,25.460802,0.999476,0.990619,0.003823,0.467933,-0.000022,0.000011,-0.000005,0.000012,-0.000023,-81.553264,0.000023,
2296,3028,0.749407350560201,8.33957781659643,0.00273777693337252,0.004626,0.000814,-0.002615,0.222317,0.078800,314.592038,25.058590,0.999329,0.989908,0.003912,0.444057,-0.000020,0.000023,-0.000004,0.000023,-0.000020,-85.169830,0.000025,
2326,3118,1.3851468690205,10.2941944167741,0.0205245538762711,0.004267,0.000565,0.000106,0.196515,0.069687,313.219230,25.344462,0.999421,0.992938,0.003523,0.443268,-0.000008,0.000015,-0.000012,0.000020,-0.000013,-67.255914,0.000021,
2266,2758,0.143496387896839,2.47031107988735,-0.0322739779586527,0.004647,0.000487,0.001727,0.208342,0.082908,318.727061,24.485363,0.999304,0.989333,0.004047,0.475272,0.000001,0.000017,0.000005,0.000019,-0.000001,75.266555,0.000021,
2266,2908,0.118302461009787,5.73143450413406,-0.0101294560473661,0.004482,0.000787,-0.002303,0.214368,0.074432,316.476172,24.765634,0.999701,0.992834,0.003418,0.439907,-0.000010,0.000024,0.000005,0.000024,-0.000010,81.649141,0.000025,
2311,3073,1.06756060118559,9.3169016047618,0.0190522206418677,0.004248,0.000568,0.000350,0.194799,0.075150,313.951360,25.233090,0.999707,0.994775,0.003065,0.406581,-0.000024,0.000018,0.000000,0.000018,-0.000024,89.517534,0.000025,
2296,2863,0.777498390896184,4.7551478729122,-0.0180713735254585,0.004232,0.000093,0.000223,0.194080,0.048225,317.082258,24.738589,0.999661,0.992948,0.003498,0.410044,-0.000015,0.000018,0.000006,0.000019,-0.000016,80.779684,0.000021,
2356,2908,2.0740296747433,5.73712206226358,-0.01430054989072,0.004390,0.000466,0.001892,0.195581,0.081802,316.351872,24.927261,0.999405,0.991309,0.003774,0.460040,-0.000030,0.000013,-0.000007,0.000014,-0.000032,-80.658210,0.000032,
2221,2818,-0.844247103448431,3.77222028284058,-0.0154605602486413,0.004488,0.000122,0.000930,0.203718,0.049933,317.980566,24.567998,0.999503,0.990993,0.003901,0.413834,-0.000013,0.000020,0.000010,0.000023,-0.000016,74.765728,0.000024,
2266,3148,0.0772162644568475,10.9394348047393,0.0264792450909681,0.004243,0.000545,0.000908,0.192866,0.064395,312.841722,25.125568,0.999284,0.992041,0.003752,0.465075,-0.000009,0.000015,-0.000010,0.000019,-0.000012,-70.087397,0.000019,
2251,2893,-0.205407653211406,5.40415041758396,-0.0120654742985948,0.004313,0.000303,-0.000293,0.199738,0.059093,316.717145,24.683233,0.999683,0.991996,0.003534,0.454834,-0.000009,0.000022,-0.000001,0.000022,-0.000009,-88.776320,0.000022,
2326,2758,1.44840158497482,2.47250770770825,-0.0290688585809562,0.004073,0.000545,-0.000378,0.188882,0.076026,318.672029,24.495511,0.999628,0.992306,0.003648,0.485942,-0.000015,0.000019,0.000015,0.000025,-0.000020,69.670477,0.000026,
2401,3118,3.01515483969273,10.3003973869968,0.027151957975093,0.004078,0.000847,-0.001612,0.194046,0.078201,313.286829,25.686862,0.999848,0.995863,0.002798,0.409839,-0.000012,0.000020,0.000003,0.000021,-0.000012,83.901179,0.000021,
2326,1993,1.5945309075689,-14.2593412007402,0.0274320144187072,0.004162,0.000283,0.000446,0.188990,0.039831,331.520078,22.805830,0.998332,0.974445,0.006284,0.290853,-0.000031,-0.000010,0.000018,0.000000,-0.000041,60.279830,0.000048,
2311,2893,1.0976844418854,5.40896284322572,-0.0200391200106651,0.003991,0.000160,0.000296,0.182758,0.046075,316.551255,24.866284,0.999569,0.991825,0.003633,0.366230,-0.000027,0.000017,0.000006,0.000018,-0.000028,82.975904,0.000028,
2431,1993,3.89088387718615,-14.2624331627701,0.0294569676482297,0.004166,0.000424,-0.003414,0.203160,0.010770,331.629339,22.112223,0.999184,0.976456,0.005875,0.209493,-0.000016,-0.000049,0.000060,0.000030,-0.000094,37.266800,0.000096,
2296,3268,0.705373317232532,13.544868894707,0.0121551238235043,0.004229,0.000582,-0.000064,0.195562,0.063670,310.714631,25.506276,0.999619,0.992853,0.003331,0.441975,0.000002,0.000021,-0.000005,0.000022,0.000001,-76.535468,0.000026,
2341,2053,1.91126468998644,-12.9431530791731,0.0277438165973649,0.003960,0.000342,-0.002978,0.191661,0.019075,330.558609,22.803454,0.999153,0.982050,0.005227,0.326712,-0.000010,-0.000032,0.000034,0.000014,-0.000056,35.853851,0.000059,
2281,3223,0.39010303261411,12.5663573924947,0.0436761439048041,0.004030,0.000778,0.001973,0.179662,0.094227,311.720706,25.327995,0.999806,0.994996,0.002991,0.489664,0.000005,0.000030,-0.000012,0.000035,0.000001,-67.744542,0.000041,
2326,2893,1.42445884085292,5.40862676569428,-0.0157451077154178,0.004171,0.000246,-0.001710,0.197979,0.052197,316.593394,24.805955,0.999448,0.990921,0.003756,0.459722,-0.000031,0.000018,0.000003,0.000018,-0.000031,87.025641,0.000031,
2251,3133,-0.245670003840104,10.6130452861274,0.0283127589095216,0.004412,0.000186,0.005186,0.186648,0.081196,313.123795,25.051985,0.999344,0.992140,0.003710,0.468851,-0.000014,0.000012,-0.000012,0.000017,-0.000019,-68.416955,0.000021,
2281,2968,0.433785944411024,7.03614271526386,-0.00813317802720803,0.004606,0.000649,-0.004181,0.226455,0.064941,315.503469,24.919392,0.999279,0.990718,0.003888,0.414416,-0.000020,0.000031,0.000000,0.000031,-0.000020,-89.620849,0.000031,
2236,3073,-0.561530284158973,9.31103876573123,0.0122660009278661,0.004374,0.000378,0.002112,0.194999,0.066883,314.010567,24.911440,0.999614,0.992895,0.003377,0.452631,-0.000014,0.000022,-0.000008,0.000023,-0.000015,-78.483347,0.000024,
2371,2953,2.39169383959637,6.71570063047556,-0.00620501429938258,0.003973,-0.000005,0.003844,0.169232,0.059916,315.662286,25.091408,0.999331,0.989970,0.004043,0.424513,-0.000027,0.000022,-0.000011,0.000024,-0.000030,-78.236521,0.000031,
2341,2848,1.75788443576761,4.4314663643804,-0.0234404664851127,0.003988,0.000017,0.003890,0.169917,0.054144,317.229424,24.733692,0.999682,0.991967,0.003591,0.451971,-0.000022,0.000015,0.000002,0.000015,-0.000022,87.236350,0.000023,
2296,3043,0.747068745162014,8.66479876950168,0.0115818178711606,0.004536,0.000555,-0.000591,0.211238,0.065402,314.410085,25.114142,0.999368,0.990003,0.003920,0.404280,-0.000022,0.000020,-0.000002,0.000021,-0.000022,-86.688923,0.000025,
2236,2863,-0.526644366685048,4.7521044013291,-0.0180784459217875,0.004290,0.000414,0.002026,0.191181,0.077195,317.177812,24.645284,0.999335,0.991422,0.003652,0.442462,-0.000011,0.000019,0.000002,0.000019,-0.000011,86.891576,0.000019,
2326,2008,1.59264449076208,-13.9295824053445,0.0283223177518153,0.004633,0.001256,-0.004106,0.226561,0.049781,331.323614,22.872239,0.998225,0.975427,0.006389,0.272342,-0.000030,0.000012,0.000029,0.000026,-0.000045,62.790489,0.000045,
2311,3088,1.06497527662392,9.64184826829215,0.0200413768761791,0.004299,0.000698,-0.000542,0.200235,0.070695,313.720044,25.213820,0.999713,0.995635,0.002926,0.452625,-0.000021,0.000016,-0.000010,0.000018,-0.000024,-75.010082,0.000025,
2326,3133,1.38202488642532,10.6195491015711,0.01765608605848,0.004161,0.000456,0.000030,0.191769,0.044658,312.945074,25.371459,0.999319,0.992195,0.003567,0.424471,-0.000006,0.000021,-0.000012,0.000025,-0.000011,-68.966807,0.000025,
2341,2953,1.74038108955967,6.71396393951082,-0.0075834747322574,0.004540,0.000764,-0.002490,0.217971,0.069864,315.696920,25.020552,0.999299,0.991817,0.003707,0.434097,-0.000033,0.000021,-0.000007,0.000022,-0.000034,-82.604904,0.000034,
2386,3103,2.69120201631413,9.97300771601103,0.0162972591704147,0.004196,0.000282,-0.000089,0.193766,0.071722,313.430004,25.474741,0.999154,0.989005,0.004094,0.513282,-0.000019,0.000014,-0.000002,0.000014,-0.000019,-86.081129,0.000020,
2296,2878,0.774742717746168,5.08104956403211,-0.0185076513583908,0.004176,0.000568,-0.000783,0.195079,0.060295,316.835198,24.725642,0.999677,0.992524,0.003525,0.464686,-0.000021,0.000019,0.000008,0.000021,-0.000023,79.559412,0.000025,
2341,3193,1.69721802855979,11.9220512112496,0.0292705991112143,0.004186,0.000273,0.002511,0.184298,0.053300,312.045920,25.598315,0.999603,0.993967,0.003389,0.410109,-0.000001,0.000027,-0.000005,0.000028,-0.000002,-79.585500,0.000032,
2431,2008,3.88804395959466,-13.933862751481,0.0308554165831083,0.004047,0.000811,-0.005078,0.204000,0.033393,331.400634,22.064592,0.999104,0.975666,0.006108,0.333373,-0.000015,-0.000036,0.000069,0.000044,-0.000095,40.561955,0.000095,
2356,2923,2.0711736803228,6.06360350428277,-0.0163876300974266,0.004210,0.000853,-0.002415,0.202690,0.089613,316.096454,24.973655,0.999390,0.991370,0.003753,0.460072,-0.000032,0.000012,-0.000011,0.000014,-0.000034,-76.904115,0.000034,
2266,2773,0.141124686983236,2.7965323771723,-0.0267688276823606,0.004474,0.000476,0.000459,0.204562,0.065196,318.525441,24.547623,0.999273,0.988714,0.004102,0.420836,0.000000,0.000014,0.000003,0.000014,-0.000001,78.746740,0.000016,
2341,2068,1.90791489294984,-12.6148025885691,0.0253725975734369,0.003737,0.000256,-0.000951,0.174437,0.026631,330.280681,22.729903,0.998945,0.978362,0.005638,0.448284,-0.000012,-0.000015,0.000038,0.000025,-0.000051,43.880047,0.000051,
2266,2923,0.115375903080793,6.05649635694663,-0.00602353175025883,0.004200,0.000360,0.001103,0.189929,0.054665,316.242071,24.751479,0.999693,0.993084,0.003565,0.459331,-0.000011,0.000028,0.000000,0.000028,-0.000011,-89.721829,0.000028,
2296,3283,0.702325986075312,13.8704803742109,0.00669504479475336,0.004236,0.000949,-0.001621,0.201357,0.080846,310.428126,25.540951,0.999588,0.993268,0.003172,0.453133,0.000001,0.000025,-0.000004,0.000026,0.000000,-79.937616,0.000030,
2326,2773,1.44656834656458,2.79962578171214,-0.0237994943292392,0.004516,0.000561,-0.002014,0.214865,0.066742,318.497561,24.630503,0.999721,0.994889,0.003242,0.375923,-0.000016,0.000010,0.000010,0.000014,-0.000019,71.574159,0.000019,
2311,2908,1.09587089125217,5.73431682611773,-0.0113365280838593,0.004097,0.000533,-0.002356,0.196875,0.053860,316.393751,24.881865,0.999553,0.992796,0.003572,0.390288,-0.000028,0.000018,0.000004,0.000018,-0.000029,85.694896,0.000029,
2281,3238,0.38666542649381,12.8924997710435,0.0313002011706089,0.004228,0.000608,0.001821,0.189204,0.070470,311.380346,25.398598,0.999805,0.993856,0.003212,0.421590,0.000006,0.000020,-0.000011,0.000026,0.000000,-61.718746,0.000030,
2401,3133,3.01168683321923,10.6264884103406,0.0179535885617383,0.004329,0.000823,-0.000811,0.202705,0.082612,312.972355,25.714057,0.999781,0.995163,0.002968,0.431688,-0.000010,0.000025,0.000000,0.000025,-0.000010,-89.478531,0.000025,
2266,3163,0.0745444999224425,11.2653371820978,0.0309838684232773,0.004006,0.000713,0.001547,0.179883,0.072909,312.620566,25.220623,0.999357,0.990836,0.003869,0.403046,-0.000007,0.000019,-0.000009,0.000022,-0.000010,-72.044889,0.000022,
2326,2023,1.58874950769365,-13.6006846933171,0.0259792646159553,0.004160,0.000356,0.002196,0.182977,0.044313,331.019662,22.844857,0.998609,0.979512,0.005965,0.332551,-0.000034,0.000008,0.000026,0.000020,-0.000047,63.985362,0.000047,
2251,2908,-0.207021374789313,5.72974353264353,0.00282967488192298,0.004205,0.000515,-0.001678,0.199392,0.064417,316.596893,24.766299,0.999763,0.993507,0.003264,0.399702,-0.000010,0.000020,-0.000002,0.000020,-0.000010,-86.342644,0.000020,
2296,3298,0.698441973674463,14.1961340914193,-0.00435801020375948,0.004391,0.000501,0.004522,0.187524,0.074741,310.075162,25.577270,0.999690,0.994816,0.002989,0.438864,-0.000004,0.000020,-0.000009,0.000023,-0.000007,-71.003960,0.000024,
2371,2968,2.38890161272805,7.0424379180286,-0.00605672747184371,0.004066,-0.000032,0.004102,0.172639,0.068117,315.421444,25.189145,0.999540,0.989840,0.004140,0.375393,-0.000030,0.000025,-0.000004,0.000025,-0.000030,-85.374424,0.000032,
2296,3058,0.743798443222769,8.98980698638198,0.00984398132993647,0.004087,0.000576,-0.001383,0.193254,0.059912,314.132731,25.076384,0.999547,0.992823,0.003492,0.465415,-0.000020,0.000014,0.000000,0.000014,-0.000020,-89.251592,0.000021,
2431,2023,3.88472036777148,-13.6031067093585,0.0246586105200777,0.004255,0.000678,-0.004597,0.211693,0.030427,331.114643,22.161344,0.999000,0.977052,0.005872,0.287505,-0.000010,-0.000034,0.000060,0.000039,-0.000084,39.282353,0.000084,
2326,2908,1.42180304145407,5.73508469282785,-0.0144211405217902,0.004153,0.000450,-0.002498,0.199996,0.058367,316.361566,24.871623,0.999261,0.990718,0.003906,0.434029,-0.000031,0.000018,0.000001,0.000018,-0.000032,88.966682,0.000032,
2356,2938,2.06834312702501,6.38950166456821,-0.0140005534107104,0.004276,0.000530,0.000594,0.194923,0.064168,315.863949,25.035690,0.999242,0.990374,0.003926,0.410835,-0.000028,0.000015,-0.000010,0.000017,-0.000031,-77.580911,0.000031,
2251,3148,-0.247937712298476,10.9385298366786,0.0235146163483364,0.004566,0.000647,-0.003318,0.221735,0.060060,312.873280,25.077556,0.998561,0.988942,0.004362,0.444444,-0.000012,0.000014,-0.000011,0.000019,-0.000016,-70.038082,0.000020,
2341,2863,1.75577059516558,4.75711562822806,-0.0161789445449472,0.003989,0.000193,0.001934,0.176906,0.062203,317.052784,24.755144,0.999657,0.991754,0.003659,0.474759,-0.000024,0.000020,0.000000,0.000020,-0.000024,-89.906024,0.000026,
2236,3088,-0.563982552262399,9.63684293620986,0.0139048305959477,0.004253,0.000495,-0.000900,0.199220,0.055641,313.783228,24.981287,0.999513,0.992722,0.003443,0.391424,-0.000016,0.000018,-0.000014,0.000023,-0.000021,-70.073657,0.000025,
2281,3253,0.382689928660934,13.2185385606067,0.0145966631164924,0.004196,0.000474,0.001533,0.188636,0.062021,310.993497,25.425793,0.999727,0.993166,0.003353,0.412188,0.000007,0.000018,-0.000006,0.000021,0.000004,-65.099731,0.000027,
2281,2983,0.430600601321345,7.36116103527456,-0.00519439296192559,0.004272,0.000530,0.000509,0.195322,0.075102,315.252433,24.879102,0.999367,0.990864,0.003833,0.492237,-0.000018,0.000035,0.000003,0.000035,-0.000019,86.883162,0.000035,
2266,2788,0.138895339781339,3.12263383078066,-0.0272839713361464,0.004670,0.000658,-0.003689,0.227385,0.064247,318.300055,24.539090,0.999238,0.988757,0.004249,0.453823,0.000003,0.000012,0.000003,0.000013,0.000002,74.678815,0.000016,
2236,2878,-0.528148803366395,5.07673519243124,-0.0057860398147227,0.004518,0.000313,0.001502,0.203338,0.066130,317.049040,24.630820,0.999517,0.992002,0.003555,0.466584,-0.000013,0.000024,0.000002,0.000024,-0.000013,86.524053,0.000024,
2311,2923,1.09303589044941,6.06002879045358,-0.014041562542161,0.004262,0.000854,-0.001966,0.203272,0.069973,316.132919,24.843918,0.999185,0.990737,0.003929,0.476268,-0.000028,0.000021,-0.000001,0.000021,-0.000028,-88.669075,0.000029,
2386,3118,2.68833390110418,10.2994203900038,0.0170551030668094,0.004181,0.000586,0.000038,0.192743,0.081019,313.189147,25.584513,0.999575,0.992819,0.003432,0.455224,-0.000015,0.000018,0.000001,0.000018,-0.000015,87.960939,0.000019,
2341,2968,1.73748025831343,7.04094849667785,-0.0111978776375281,0.004601,0.000994,-0.004330,0.227339,0.076203,315.430528,25.116574,0.999906,0.997925,0.002446,0.380542,-0.000034,0.000022,-0.000004,0.000022,-0.000035,-85.460436,0.000035,
2266,2938,0.112128650271213,6.3819647809072,-0.00723443280168112,0.003969,0.000153,0.004304,0.168624,0.057795,315.966283,24.718038,0.999470,0.992001,0.003698,0.520778,-0.000015,0.000031,0.000001,0.000031,-0.000015,89.321306,0.000031,
2341,2083,1.90508156667432,-12.282789140279,0.0191296985612439,0.004052,0.000774,-0.002927,0.195887,0.058559,330.007144,22.929058,0.999349,0.981993,0.005226,0.321020,-0.000012,-0.000003,0.000037,0.000029,-0.000045,48.455243,0.000045,
2311,3103,1.06208188988107,9.96795065147866,0.0164197576804099,0.004170,0.000890,-0.004389,0.207629,0.080848,313.451361,25.261352,0.999479,0.993482,0.003435,0.446423,-0.000019,0.000016,-0.000013,0.000020,-0.000023,-71.999080,0.000025,
2326,3148,1.37982623680781,10.9448646883398,0.0223736798793652,0.004425,0.000468,0.000198,0.203431,0.056321,312.750554,25.408510,0.999517,0.993220,0.003478,0.432311,-0.000006,0.000020,-0.000009,0.000023,-0.000009,-71.946501,0.000023,
2296,2893,0.772242599768266,5.4072308016047,-0.0169367801283329,0.004187,0.000550,-0.002398,0.201125,0.070376,316.609728,24.759291,0.999669,0.992559,0.003429,0.470914,-0.000023,0.000020,0.000006,0.000021,-0.000024,81.792167,0.000027,
2326,2788,1.44372230641597,3.12474775775939,-0.0275853807386284,0.004812,0.000462,-0.001061,0.225164,0.063212,318.232751,24.509933,0.999631,0.994081,0.003395,0.527686,-0.000015,0.000007,0.000008,0.000010,-0.000017,72.561116,0.000017,
2311,1993,1.266769656245,-14.2594645496458,0.0314454489324589,0.004007,0.000002,0.001783,0.177278,0.037445,331.548232,22.909611,0.999334,0.980370,0.005827,0.290843,-0.000050,-0.000020,0.000011,-0.000016,-0.000054,71.731261,0.000073,
2431,2038,3.88160211165293,-13.2745600833293,0.0302506616496885,0.003924,0.000518,-0.001318,0.184467,0.041657,330.892501,22.181326,0.999064,0.977597,0.005775,0.332182,-0.000011,-0.000053,0.000057,0.000029,-0.000092,34.854577,0.000094,
2401,3148,3.00952515828672,10.9504196283963,0.0309989444446614,0.004231,0.000409,0.001426,0.189916,0.064924,312.823863,25.704367,0.999773,0.995440,0.002870,0.468020,-0.000009,0.000021,-0.000001,0.000021,-0.000009,-88.716202,0.000021,
2341,3208,1.69491802185114,12.2466267729997,0.0307055058582932,0.004319,0.000745,-0.001253,0.203735,0.063748,311.831723,25.562791,0.999602,0.993802,0.003321,0.491615,0.000002,0.000026,-0.000005,0.000027,0.000001,-78.869272,0.000032,
2281,3268,0.37959714383534,13.5436737289051,0.00749921917389429,0.004325,0.000689,0.001006,0.196424,0.067285,310.695700,25.414875,0.999749,0.993674,0.003276,0.454839,0.000006,0.000020,-0.000005,0.000022,0.000005,-72.366824,0.000028,
2371,2983,2.38664186295877,7.36742610769078,-0.00305190264089106,0.004118,0.000365,-0.000057,0.189940,0.066606,315.219254,25.159157,0.999487,0.990378,0.004006,0.444347,-0.000027,0.000031,-0.000005,0.000031,-0.000027,-85.063962,0.000034,
2326,2038,1.58510479679323,-13.2694335133714,0.0149891081969145,0.003731,0.000752,-0.003065,0.181562,0.040230,330.684825,22.939244,0.999197,0.984029,0.005079,0.272538,-0.000035,-0.000009,0.000023,0.000005,-0.000049,59.655074,0.000054,
2251,2923,-0.21031615740312,6.05542920879439,-0.00379876210689645,0.004269,0.000136,0.001292,0.192447,0.047560,316.290330,24.729002,0.999670,0.993505,0.003398,0.443264,-0.000011,0.000024,-0.000007,0.000025,-0.000013,-78.333332,0.000025,
2311,2938,1.09022361692969,6.38597338561752,-0.0136881904319353,0.004184,0.000748,-0.002144,0.200305,0.082102,315.888101,24.857543,0.998940,0.989105,0.004245,0.506522,-0.000028,0.000023,-0.000001,0.000023,-0.000028,-89.009657,0.000030,
2251,3163,-0.250345775335948,11.2640961318452,0.0318429757387548,0.004438,0.000657,-0.000717,0.207316,0.065764,312.682894,25.167316,0.999214,0.990800,0.003849,0.382357,-0.000011,0.000017,-0.000010,0.000020,-0.000014,-71.375132,0.000021,
2266,3178,0.0721104703326709,11.5899449703839,0.0307074198274222,0.004294,0.000612,0.001423,0.193564,0.067344,312.386663,25.185205,0.999482,0.992372,0.003486,0.457206,-0.000003,0.000019,-0.000011,0.000024,-0.000008,-67.236945,0.000025,
2236,2893,-0.530949846608177,5.40261595137154,0.000534559032359994,0.004026,0.000282,0.003081,0.175636,0.074817,316.829845,24.670932,0.999704,0.992176,0.003563,0.455807,-0.000014,0.000022,0.000002,0.000022,-0.000014,87.292503,0.000022,
2356,2953,2.0656656647621,6.71512884260039,-0.0151460488205544,0.004409,0.000305,-0.001036,0.206704,0.052766,315.621442,25.037905,0.999372,0.990680,0.003814,0.435436,-0.000029,0.000020,-0.000008,0.000021,-0.000030,-80.635005,0.000031,
2266,2803,0.135631800278542,3.44957689403419,-0.0262593059982805,0.004305,0.000707,0.000174,0.197854,0.086643,318.034611,24.601105,0.999145,0.988543,0.004559,0.439737,0.000003,0.000009,0.000002,0.000010,0.000002,70.010161,0.000013,
2296,3073,0.741828724441707,9.31554234738299,0.0170432998037882,0.004032,0.000625,-0.005576,0.204948,0.052742,313.959333,25.168790,0.999648,0.994439,0.003289,0.394931,-0.000021,0.000016,-0.000001,0.000016,-0.000021,-88.410006,0.000022,
2341,2878,1.75259198644788,5.08331150216643,-0.0255396465632884,0.004157,0.000354,-0.000498,0.193231,0.068260,316.746259,24.710309,0.999613,0.991724,0.003705,0.562229,-0.000031,0.000021,0.000002,0.000021,-0.000031,87.537438,0.000031,
2311,2008,1.26466010878685,-13.9299168473404,0.0284671905120604,0.004628,0.000490,-0.001292,0.216341,0.038517,331.321400,22.921228,0.999265,0.981243,0.005787,0.316050,-0.000051,-0.000004,0.000021,0.000004,-0.000059,68.663893,0.000066,
2281,2998,0.428260436776384,7.68727037474851,-0.00155867106519736,0.004355,0.000522,-0.000018,0.200945,0.070438,315.043379,24.962330,0.999350,0.990294,0.003881,0.431300,-0.000017,0.000032,0.000002,0.000032,-0.000017,87.997974,0.000032,
2431,2053,3.87862760172563,-12.9446231644002,0.0237977462720096,0.004353,0.000291,-0.002609,0.208731,0.026662,330.621281,22.224434,0.998847,0.977149,0.005919,0.327528,-0.000010,-0.000044,0.000051,0.000026,-0.000080,35.656953,0.000082,
2386,3133,2.68602481757866,10.6245022905289,0.023761045048559,0.004215,0.000461,-0.000350,0.195600,0.060332,313.002744,25.641856,0.999669,0.993753,0.003315,0.418937,-0.000015,0.000022,-0.000002,0.000022,-0.000015,-86.084833,0.000022,
2236,3103,-0.56659571828769,9.96140500914987,0.0132860233341034,0.004370,0.000405,-0.000496,0.203217,0.037536,313.537360,24.933147,0.999489,0.993206,0.003424,0.441659,-0.000016,0.000016,-0.000014,0.000021,-0.000021,-69.875401,0.000024,
2341,2098,1.90176081562635,-11.9540464659092,0.0164332410166139,0.004016,0.000241,0.000732,0.181386,0.057153,329.728869,22.908485,0.999520,0.983228,0.005005,0.380265,-0.000017,-0.000009,0.000029,0.000017,-0.000042,48.705063,0.000043,
2296,2908,0.770332404821335,5.73292990922509,-0.0111233321336499,0.004493,0.000542,-0.003748,0.219816,0.070108,316.432548,24.793421,0.999606,0.992932,0.003423,0.465920,-0.000025,0.000022,0.000004,0.000022,-0.000025,84.804026,0.000028,
2281,3283,0.376586629287161,13.8687490165098,0.00335122054997328,0.004373,0.000604,0.001172,0.198088,0.067975,310.416452,25.423739,0.999536,0.993087,0.003268,0.472914,0.000005,0.000021,-0.000005,0.000022,0.000004,-73.114457,0.000028,
2326,3163,1.37764409933619,11.2704119891968,0.0231281056106809,0.004791,0.000681,-0.002479,0.229662,0.064380,312.537243,25.449934,0.999655,0.994279,0.003302,0.432323,-0.000003,0.000024,-0.000008,0.000026,-0.000005,-75.485553,0.000028,
2326,2923,1.41940407712448,6.06035321007031,-0.00817678014959711,0.004303,0.000680,0.000510,0.196568,0.068820,316.165922,24.862692,0.998748,0.988091,0.004440,0.487588,-0.000032,0.000022,-0.000003,0.000022,-0.000032,-86.429518,0.000033,
2341,2983,1.73496174291696,7.36537425832788,-0.000822756562172344,0.004430,0.000546,-0.000164,0.204696,0.053869,315.250476,25.106095,0.999777,0.995527,0.002934,0.404463,-0.000031,0.000028,-0.000005,0.000028,-0.000031,-85.020534,0.000034,
2311,3118,1.0594130352594,10.2932784810064,0.019104475975098,0.004201,0.000708,-0.002802,0.203541,0.075844,313.224359,25.296282,0.999309,0.992047,0.003767,0.437466,-0.000013,0.000015,-0.000010,0.000018,-0.000016,-71.667450,0.000020,
2401,3163,3.00635002334028,11.2765103219847,0.0264279075737477,0.004288,0.000286,0.000688,0.195175,0.060529,312.544621,25.776918,0.999638,0.993489,0.003286,0.435205,-0.000007,0.000029,0.000000,0.000029,-0.000007,-89.712611,0.000030,
2266,2953,0.110392760581814,6.70881728695611,-0.00304951377387397,0.004485,0.000620,0.002271,0.199381,0.088382,315.786614,24.826386,0.999107,0.988669,0.004261,0.468130,-0.000015,0.000031,-0.000002,0.000032,-0.000015,-88.109187,0.000032,
2341,3223,1.6916826095353,12.5727524460466,0.0279102760804903,0.004202,0.000476,-0.000337,0.195099,0.057596,311.553256,25.666341,0.999519,0.992986,0.003355,0.417234,0.000003,0.000028,-0.000005,0.000029,0.000002,-78.654556,0.000034,
2326,2803,1.4404742487052,3.45166696454286,-0.0260192594640785,0.004131,0.000544,-0.002519,0.198964,0.060687,317.975115,24.599710,0.999487,0.993204,0.003615,0.469559,-0.000012,0.000004,0.000007,0.000006,-0.000015,69.498740,0.000015,
2251,2938,-0.213194561699485,6.38088576813122,-0.00584174493877754,0.004215,0.000276,0.001407,0.189682,0.053570,316.026132,24.685262,0.999581,0.994184,0.003286,0.515885,-0.000016,0.000029,-0.000007,0.000030,-0.000017,-81.244743,0.000030,
2326,2053,1.58297405670605,-12.9422519673485,0.0196098530190625,0.004182,0.000193,-0.000788,0.194189,0.035963,330.495512,22.843874,0.999564,0.987905,0.004444,0.401347,-0.000033,-0.000010,0.000023,0.000004,-0.000047,57.955958,0.000052,
2431,2068,3.87492563819989,-12.6148540163873,0.02185108444246,0.003957,0.000237,-0.000554,0.183083,0.049589,330.337281,22.270911,0.998448,0.975066,0.006341,0.357594,-0.000010,-0.000028,0.000051,0.000033,-0.000071,40.000803,0.000071,
2356,3268,2.00667408338883,13.5513583190431,0.00356797699259914,0.004100,0.000506,0.001794,0.183022,0.078805,310.595899,25.845699,0.999608,0.993315,0.003257,0.446937,0.000011,0.000022,0.000010,0.000028,0.000005,58.189110,0.000036,
2296,3088,0.738999511643733,9.64023625806787,0.0187599115409398,0.004232,0.000348,-0.000125,0.195578,0.049206,313.719461,25.129890,0.999618,0.993903,0.003356,0.459255,-0.000019,0.000015,-0.000012,0.000018,-0.000023,-72.806157,0.000024,
2311,2023,1.26175843077791,-13.6009282851709,0.0258442184872365,0.004536,0.000736,-0.002910,0.217749,0.043101,331.060065,22.888519,0.999131,0.982655,0.005404,0.389277,-0.000052,-0.000009,0.000021,-0.000001,-0.000061,67.696402,0.000071,
2356,2968,2.06288439768855,7.04158298014916,-0.00965660013218894,0.004180,0.000421,0.000583,0.190575,0.069329,315.405853,25.138621,0.999559,0.991966,0.003616,0.389286,-0.000030,0.000023,-0.000004,0.000023,-0.000031,-86.125588,0.000032,
2281,3298,0.37333717930257,14.19471857543,-0.00340573181347281,0.004327,0.000517,0.000673,0.197570,0.052206,310.112728,25.521823,0.999592,0.994615,0.003074,0.385002,0.000004,0.000013,-0.000010,0.000020,-0.000003,-57.159524,0.000022,
2266,3193,0.0693969528195488,11.9156428371166,0.0282815876392988,0.004439,0.000554,0.000976,0.201752,0.066255,312.128638,25.237118,0.999547,0.992557,0.003388,0.428465,-0.000002,0.000019,-0.000010,0.000023,-0.000006,-68.741357,0.000024,
2311,2953,1.08785537873675,6.71200766067303,-0.00880031420177829,0.004181,0.000880,-0.002719,0.202213,0.078505,315.686006,24.930898,0.999217,0.991129,0.003853,0.461118,-0.000028,0.000026,-0.000001,0.000026,-0.000028,-89.002875,0.000031,
2371,2998,2.3845144995827,7.69308940191154,0.002267740724335,0.004118,0.000580,-0.004324,0.205170,0.048816,315.034020,25.226977,0.999503,0.991655,0.003782,0.398991,-0.000025,0.000029,-0.000003,0.000029,-0.000026,-86.963798,0.000032,
2251,3178,-0.252713670186328,11.5884804695856,0.0373354822105512,0.004473,0.000646,0.000793,0.203971,0.069237,312.480356,25.136211,0.999466,0.992528,0.003395,0.439147,-0.000007,0.000016,-0.000012,0.000021,-0.000012,-66.827260,0.000021,
2356,3028,2.05244967224122,8.34365777980485,0.00621736028529085,0.003955,0.000291,0.001075,0.178484,0.059835,314.546599,25.265768,0.999595,0.992482,0.003569,0.405070,-0.000025,0.000028,-0.000007,0.000029,-0.000026,-82.364234,0.000032,
2341,2893,1.75070357159658,5.40977342461276,-0.0138496834380817,0.004229,0.000455,-0.000144,0.195374,0.081051,316.601179,24.841696,0.999483,0.991455,0.003725,0.479800,-0.000033,0.000018,0.000000,0.000018,-0.000033,-89.459972,0.000033,
2386,3148,2.68358722766525,10.9493380411146,0.0293207288265762,0.004155,0.000468,-0.001434,0.196734,0.054881,312.804986,25.657300,0.999646,0.993153,0.003349,0.440252,-0.000014,0.000018,-0.000003,0.000018,-0.000014,-85.213730,0.000019,
2326,3178,1.3745049274419,11.5956979422316,0.0228949913436622,0.004719,0.000511,0.000728,0.215250,0.073759,312.275083,25.463988,0.999648,0.994451,0.003331,0.460900,-0.000002,0.000027,-0.000009,0.000029,-0.000004,-73.369188,0.000032,
2341,2998,1.73210394265409,7.69117185622636,0.00189796895591599,0.004330,0.000504,0.001681,0.193696,0.064627,315.017113,25.139712,0.999878,0.997432,0.002703,0.417446,-0.000028,0.000028,-0.000005,0.000028,-0.000029,-85.079354,0.000033,
2326,2938,1.41701074108143,6.38640121657993,-0.00511781390753185,0.004411,0.000681,-0.000363,0.204573,0.060682,315.954706,24.924896,0.998902,0.988964,0.004314,0.450937,-0.000030,0.000025,-0.000003,0.000025,-0.000031,-86.572491,0.000033,
2431,2083,3.87149621927837,-12.2843200476413,0.0164854562676169,0.004329,-0.000320,0.004072,0.182855,0.043012,330.049991,22.384636,0.998713,0.977629,0.006172,0.290827,-0.000011,-0.000025,0.000049,0.000032,-0.000068,41.042037,0.000068,
2356,2113,2.2263399403784,-11.6247178299294,0.0155347273105804,0.003904,0.000061,0.001730,0.172630,0.048619,329.472675,22.908798,0.999427,0.981731,0.005177,0.322631,-0.000021,-0.000019,0.000033,0.000013,-0.000053,45.983176,0.000055,
2341,2113,1.89961319195203,-11.6257443644255,0.0237850298978515,0.004098,0.000391,0.000605,0.185613,0.067167,329.552772,22.951286,0.999490,0.983739,0.004972,0.386920,-0.000021,-0.000013,0.000026,0.000009,-0.000043,49.331864,0.000045,
2356,3283,2.00306250397441,13.8767248371707,-0.00427878220523326,0.004088,0.000341,0.003582,0.176110,0.073061,310.276771,25.869255,0.999559,0.993235,0.003299,0.454717,0.000019,0.000012,0.000013,0.000030,0.000002,37.583743,0.000035,
2251,2953,-0.215207121411343,6.7081990488148,-0.00507544339342303,0.004666,0.000508,-0.000862,0.217955,0.060294,315.815348,24.835607,0.999420,0.992257,0.003646,0.395026,-0.000017,0.000031,-0.000009,0.000032,-0.000019,-79.615599,0.000033,
2266,2968,0.107659252342941,7.03490546307611,-0.00755303957254227,0.004478,0.000647,-0.001886,0.212817,0.072039,315.517619,24.854880,0.999392,0.991551,0.003768,0.448089,-0.000016,0.000031,-0.000002,0.000031,-0.000016,-88.001707,0.000031,
2281,3013,0.424951362519412,8.01299649818019,-0.00198182006488423,0.003978,0.000344,0.002353,0.175638,0.079493,314.769548,24.973128,0.999275,0.989957,0.003911,0.456351,-0.000016,0.000024,-0.000002,0.000024,-0.000016,-87.149833,0.000025,
2326,2818,1.4378367366583,3.7771676683569,-0.016619861173524,0.003885,0.000038,0.001562,0.173363,0.047296,317.784191,24.633729,0.999563,0.991703,0.003688,0.456172,-0.000015,0.000007,0.000007,0.000008,-0.000017,74.134007,0.000017,
2296,2923,0.767617674178815,6.05725175648353,-0.00431701530555983,0.004265,0.000334,-0.000384,0.197852,0.064888,316.223707,24.716423,0.999501,0.992956,0.003460,0.567281,-0.000025,0.000025,-0.000001,0.000025,-0.000025,-88.905942,0.000029,
2296,1993,0.938893318938998,-14.2586218767748,0.0263613699878533,0.004094,0.000477,-0.000603,0.189546,0.048933,331.528770,22.983602,0.999342,0.967246,0.006920,0.334749,-0.000052,-0.000039,0.000008,-0.000035,-0.000056,64.593373,0.000091,
2341,3238,1.68839997218976,12.8985368819383,0.0240693709807829,0.004159,0.000668,0.001148,0.188024,0.068415,311.267576,25.719745,0.999508,0.991984,0.003445,0.409589,0.000004,0.000020,-0.000002,0.000021,0.000004,-83.673619,0.000027,
2401,3178,3.00320630336606,11.6019311804038,0.0236391450735027,0.004182,0.000590,-0.000669,0.195314,0.062932,312.275399,25.795993,0.999574,0.993079,0.003404,0.463018,-0.000003,0.000031,-0.000002,0.000031,-0.000003,-87.332082,0.000035,
2311,2038,1.25876487255973,-13.2705426884354,0.0230553880528532,0.004182,0.001037,-0.007177,0.216198,0.033991,330.793609,23.000839,0.999604,0.987761,0.004410,0.303751,-0.000051,-0.000022,0.000018,-0.000014,-0.000059,64.089556,0.000078,
2311,3133,1.05633844379507,10.6185977979636,0.0190323100120509,0.004006,0.000606,-0.001550,0.190214,0.058883,312.965043,25.329028,0.999488,0.992897,0.003526,0.418863,-0.000010,0.000019,-0.000010,0.000022,-0.000013,-72.336771,0.000022,
2296,3103,0.736553827222803,9.96604607963861,0.0209107632926475,0.004310,0.000459,-0.001138,0.202639,0.048344,313.498980,25.197532,0.999413,0.992227,0.003709,0.419644,-0.000017,0.000015,-0.000014,0.000020,-0.000022,-69.041222,0.000024,
2356,2983,2.06040665695926,7.36703959655652,-0.00649131455139695,0.004193,0.000630,-0.000871,0.196391,0.074484,315.193267,25.146306,0.999419,0.989418,0.004065,0.425133,-0.000028,0.000030,-0.000004,0.000030,-0.000028,-85.834002,0.000034,
2326,2068,1.57997118166164,-12.6138381954969,0.0177617540152823,0.004258,-0.000238,0.001495,0.189690,0.006543,330.234811,22.819146,0.999344,0.983369,0.005085,0.434281,-0.000033,0.000005,0.000027,0.000020,-0.000047,62.500302,0.000048,
2266,3208,0.0660747835809765,12.2414822040434,0.0262515463617206,0.003940,0.000629,0.000419,0.180700,0.076268,311.844513,25.297557,0.999716,0.994777,0.003057,0.402134,-0.000001,0.000022,-0.000009,0.000025,-0.000005,-70.702178,0.000027,
2371,3013,2.38161840783222,8.01908696707012,0.00422488457172676,0.004074,0.000908,-0.002637,0.197318,0.072034,314.797103,25.265571,0.999527,0.991655,0.003737,0.423995,-0.000026,0.000025,-0.000006,0.000025,-0.000027,-83.687185,0.000030,
2311,2968,1.08600327500336,7.03775683198522,0.00461273376515692,0.004221,0.000626,-0.001155,0.198627,0.080556,315.549721,25.034785,0.999904,0.997562,0.002475,0.390560,-0.000029,0.000026,0.000001,0.000026,-0.000029,88.536932,0.000032,
2356,3298,2.00024931206864,14.2030155062947,-0.0113165380767555,0.004407,0.000798,0.000075,0.203396,0.090589,309.997935,25.963918,0.999682,0.993354,0.003365,0.414968,0.000020,-0.000002,0.000011,0.000025,-0.000007,23.287337,0.000025,
2296,2008,0.936268121795599,-13.929714070765,0.0285663347462446,0.004116,0.000068,0.000741,0.185880,0.041453,331.302597,23.004664,0.999121,0.979130,0.005700,0.339772,-0.000056,-0.000021,0.000018,-0.000014,-0.000063,67.445091,0.000082,
2386,3163,2.68019927157337,11.2751229055936,0.0276288321997527,0.003979,0.000568,0.000829,0.180604,0.070952,312.528540,25.698465,0.999482,0.991614,0.003693,0.457325,-0.000013,0.000024,-0.000002,0.000024,-0.000013,-86.601608,0.000024,
2431,2098,3.86873304132999,-11.9551919536015,0.0188335886056166,0.004264,-0.000061,0.002957,0.184122,0.052705,329.828819,22.444474,0.999391,0.981661,0.005737,0.293491,-0.000017,-0.000036,0.000034,0.000009,-0.000061,37.256681,0.000066,
2251,2968,-0.218220945166927,7.0343628043695,-0.00282760707062835,0.004199,0.000903,-0.000404,0.195178,0.088973,315.566367,24.872799,0.999546,0.993759,0.003382,0.409198,-0.000018,0.000032,-0.000009,0.000034,-0.000020,-80.144426,0.000034,
2341,3253,1.68473686019519,13.2239783578225,0.0106722337779956,0.004256,0.000489,-0.000098,0.196778,0.055429,310.917855,25.716241,0.999499,0.992698,0.003370,0.435491,0.000005,0.000019,0.000005,0.000020,0.000003,71.236527,0.000026,
2341,2908,1.74807585216898,5.73634805305778,-0.0143037969231727,0.004404,0.000669,-0.000868,0.206006,0.079899,316.363052,24.912686,0.999297,0.991064,0.003857,0.443784,-0.000034,0.000017,-0.000003,0.000017,-0.000034,-87.039536,0.000034,
2326,3193,1.3720251953645,11.919489996822,0.0348304702894779,0.004296,0.000093,0.002751,0.188631,0.053472,312.103449,25.445042,0.999684,0.995155,0.003107,0.492450,0.000000,0.000024,-0.000008,0.000027,-0.000002,-73.478995,0.000030,
2356,2128,2.22392994098107,-11.2960991636396,0.0131251565563844,0.004221,0.000638,-0.001934,0.200279,0.046859,329.238767,22.891783,0.999317,0.982707,0.005116,0.379773,-0.000020,-0.000022,0.000031,0.000010,-0.000053,43.690210,0.000056,
2356,3043,2.04992633999739,8.66926458529021,0.00260120704899691,0.004545,0.000466,0.000896,0.206341,0.065407,314.298928,25.256724,0.999668,0.992413,0.003497,0.457811,-0.000028,0.000025,-0.000006,0.000025,-0.000028,-83.467655,0.000031,
2341,2128,1.89640316313062,-11.296042388759,0.0137719746348921,0.004120,0.000711,-0.003793,0.202057,0.036220,329.244169,22.979391,0.999565,0.987299,0.004547,0.367645,-0.000019,-0.000016,0.000026,0.000009,-0.000044,46.862485,0.000047,
2371,2188,2.53994141414281,-9.98067390261765,0.011325902802696,0.004097,0.000488,-0.002808,0.197732,0.053539,328.259484,22.972609,0.999056,0.982982,0.005170,0.394802,-0.000028,-0.000028,0.000010,-0.000018,-0.000038,45.945293,0.000057,
2401,3193,3.00044086559097,11.9272227601893,0.0293451025448235,0.004081,0.000325,0.001745,0.181835,0.055085,312.063763,25.867406,0.999528,0.992502,0.003459,0.427772,0.000000,0.000030,-0.000001,0.000030,0.000000,-88.642802,0.000034,
2326,2833,1.43451257643081,4.10573992241297,-0.0279187944016144,0.004197,0.000223,0.001308,0.188704,0.060643,317.459561,24.770330,0.999846,0.993776,0.003350,0.367360,-0.000020,0.000012,0.000007,0.000013,-0.000021,77.370507,0.000021,
2266,2983,0.104918865060338,7.36040970015503,-0.00516245008878968,0.004425,0.000344,0.000321,0.202972,0.061791,315.283160,24.875563,0.999637,0.993056,0.003543,0.442113,-0.000016,0.000037,0.000001,0.000037,-0.000016,88.896900,0.000037,
2281,3028,0.423240453790601,8.33881110543966,-0.000266238394829088,0.004425,0.000909,-0.003722,0.216725,0.076246,314.579839,25.022443,0.999188,0.989372,0.003953,0.431091,-0.000017,0.000022,-0.000002,0.000023,-0.000017,-86.428027,0.000024,
2296,2938,0.764695515105547,6.38477344467876,-0.00386118802447299,0.004130,0.000336,0.000508,0.188656,0.068794,315.972806,24.883179,0.999247,0.990748,0.003903,0.433816,-0.000026,0.000029,0.000000,0.000029,-0.000026,-89.519330,0.000032,
2341,3013,1.72957081241806,8.01659085393825,0.00305978850633437,0.004265,0.000618,-0.001815,0.202976,0.058595,314.791191,25.148447,0.999613,0.993564,0.003370,0.438689,-0.000029,0.000025,-0.000009,0.000026,-0.000031,-80.817436,0.000033,
2326,2953,1.41411763295318,6.71328678197482,-0.00632722866737367,0.004366,0.000916,-0.000965,0.204699,0.080721,315.699285,25.010091,0.998976,0.988989,0.004465,0.419576,-0.000030,0.000026,-0.000004,0.000026,-0.000030,-86.096158,0.000033,
2311,2053,1.25624718323783,-12.9422948646899,0.0255939555827922,0.004489,0.000718,-0.003442,0.217444,0.044242,330.575074,22.964250,0.999454,0.985580,0.004734,0.386185,-0.000047,-0.000022,0.000018,-0.000013,-0.000057,62.007099,0.000074,
2311,3148,1.05351342378048,10.9439780002902,0.0225561285294589,0.003987,0.000507,0.002286,0.176223,0.071030,312.734888,25.364075,0.999569,0.992617,0.003606,0.426931,-0.000009,0.000019,-0.000008,0.000021,-0.000011,-74.648110,0.000021,
2386,2023,2.90044964998505,-13.6016121722512,0.0203141462247345,0.004424,0.000642,-0.003804,0.216190,0.035746,331.023557,22.440430,0.998769,0.971877,0.006493,0.320540,-0.000012,-0.000030,0.000041,0.000021,-0.000063,38.672482,0.000064,
2326,2083,1.57711563545548,-12.2812338790928,0.00738780609492551,0.004481,0.000446,-0.005144,0.222989,0.019851,329.938662,23.045576,0.999472,0.984173,0.005182,0.259126,-0.000032,0.000013,0.000027,0.000026,-0.000045,65.050656,0.000045,
2356,2998,2.0576947339346,7.69289047732535,-0.00188444142224853,0.004024,0.000637,-0.000245,0.186418,0.072068,314.976711,25.211362,0.999574,0.992622,0.003562,0.395649,-0.000026,0.000029,-0.000003,0.000029,-0.000026,-86.801808,0.000032,
2371,1993,2.57841790968945,-14.2615609881305,0.0326972545208832,0.003894,0.000436,-0.000277,0.179211,0.061212,331.561600,22.442915,0.998919,0.969057,0.006860,0.355860,-0.000010,-0.000032,0.000046,0.000026,-0.000069,38.351368,0.000069,
2371,3028,2.37808536137885,8.34493489089552,0.00566025209172949,0.003595,0.000604,0.001090,0.161963,0.081924,314.528374,25.304154,0.999488,0.991085,0.003844,0.435456,-0.000025,0.000027,-0.000007,0.000028,-0.000025,-82.937156,0.000031,
2266,3223,0.0633424340620508,12.5662471130274,0.0251282256674585,0.004035,0.000659,0.000840,0.183700,0.082973,311.592450,25.271405,0.999788,0.995559,0.003025,0.459130,0.000000,0.000029,-0.000009,0.000032,-0.000003,-73.450695,0.000035,
2371,3103,2.36523816582315,9.97278943716438,0.0140944659897855,0.004213,0.000450,-0.002200,0.202147,0.066980,313.412129,25.498500,0.999453,0.991122,0.003781,0.426816,-0.000018,0.000014,-0.000004,0.000015,-0.000019,-83.672867,0.000020,
2296,3118,0.733566655959347,10.2915898188394,0.0220751712193419,0.004148,0.000405,0.000944,0.188198,0.064725,313.248726,25.221064,0.999573,0.993492,0.003414,0.441427,-0.000010,0.000011,-0.000012,0.000016,-0.000016,-65.982856,0.000018,
2341,3268,1.68083121221187,13.549935481425,0.00109285601882902,0.004126,0.000559,0.002664,0.181230,0.070386,310.575304,25.759147,0.999525,0.993213,0.003254,0.442666,0.000007,0.000022,0.000010,0.000027,0.000002,63.024531,0.000033,
2326,3208,1.36965326833452,12.2454813938067,0.0345621497276625,0.004493,0.000955,-0.000699,0.209962,0.082419,311.876099,25.511166,0.999604,0.993842,0.003259,0.488473,0.000002,0.000025,-0.000008,0.000027,0.000000,-73.241483,0.000031,
2401,3208,2.99787292359941,12.2521952862754,0.0329507118437959,0.004117,0.000431,0.001304,0.185107,0.055063,311.851337,25.892373,0.999421,0.992181,0.003672,0.446826,0.000001,0.000023,-0.000002,0.000023,0.000000,-83.806738,0.000027,
2311,2983,1.08359232475877,7.36284032105549,0.00618043219691344,0.004353,0.000911,-0.002628,0.209820,0.071864,315.329516,25.009344,0.999721,0.995216,0.002965,0.439003,-0.000026,0.000031,0.000004,0.000031,-0.000026,86.343484,0.000033,
2356,3058,2.047231481361,8.99482608194334,0.00775723265991246,0.004339,0.000283,0.001341,0.195235,0.057303,314.085703,25.318766,0.999700,0.993411,0.003271,0.425519,-0.000028,0.000018,-0.000002,0.000018,-0.000028,-87.127307,0.000028,
2386,3178,2.67755984373293,11.601124330271,0.0253507939738711,0.004296,0.000923,-0.000767,0.201113,0.089677,312.283634,25.757471,0.999530,0.992482,0.003470,0.459325,-0.000009,0.000027,-0.000003,0.000027,-0.000009,-85.282772,0.000028,
2341,3028,1.72703680756965,8.34234656194978,0.0112556921454257,0.004091,0.000432,0.000246,0.187710,0.058593,314.599282,25.232806,0.999729,0.994444,0.003238,0.389790,-0.000026,0.000025,-0.000010,0.000027,-0.000028,-79.542865,0.000032,
2311,2068,1.25331995067124,-12.6134015477691,0.0208431445317956,0.004868,0.000014,-0.000646,0.225060,0.010557,330.302233,22.954676,0.999393,0.983036,0.005076,0.397548,-0.000046,-0.000006,0.000023,0.000005,-0.000056,65.607766,0.000063,
2281,3043,0.420730059325667,8.66429874344052,0.00494830468034024,0.004462,0.000596,-0.001001,0.209166,0.059073,314.370967,25.082482,0.999377,0.991240,0.003742,0.380564,-0.000018,0.000021,-0.000001,0.000021,-0.000018,-88.222894,0.000023,
2341,2923,1.74519362837981,6.06300155205204,-0.0166977970019957,0.004430,0.000865,-0.002144,0.211844,0.099040,316.103687,24.961215,0.999094,0.990050,0.004039,0.450496,-0.000035,0.000018,-0.000006,0.000018,-0.000036,-83.264877,0.000036,
2326,2848,1.43225772117184,4.43037378645615,-0.0213200070061816,0.004153,0.000570,0.000295,0.190329,0.071133,317.272632,24.687348,0.999774,0.992902,0.003484,0.495016,-0.000021,0.000013,0.000005,0.000014,-0.000022,81.871245,0.000022,
2431,2113,3.86618657033213,-11.6277875333354,0.0244795909501931,0.004146,0.000094,0.001965,0.182433,0.052187,329.632952,22.398163,0.999392,0.980248,0.005732,0.392178,-0.000018,-0.000046,0.000022,-0.000007,-0.000058,28.604323,0.000071,
2341,2143,1.89264959674661,-10.9649280875116,-0.00292939829330408,0.004583,0.000845,-0.002075,0.217393,0.074277,328.877777,23.002468,0.999314,0.984606,0.004972,0.422972,-0.000024,-0.000019,0.000025,0.000004,-0.000046,47.582688,0.000051,
2371,2203,2.53756614865652,-9.65150182363894,0.00730482584282299,0.004758,0.001004,-0.004580,0.234502,0.069163,328.020441,22.999829,0.998765,0.980867,0.005511,0.426825,-0.000027,-0.000030,0.000004,-0.000024,-0.000033,36.999946,0.000057,
2356,2143,2.22138950977189,-10.9669400589727,0.014237550181349,0.004464,0.000666,-0.001495,0.209883,0.064367,329.015573,22.948452,0.998934,0.979900,0.005504,0.382264,-0.000023,-0.000027,0.000028,0.000003,-0.000053,42.660055,0.000060,
2296,2953,0.762405109382225,6.71137627342646,-0.00518957751074822,0.004518,0.000745,-0.001786,0.214458,0.080207,315.742304,24.949493,0.999049,0.988863,0.004226,0.408319,-0.000026,0.000032,-0.000002,0.000032,-0.000026,-88.423698,0.000034,
2371,2008,2.57488967250646,-13.9300469734137,0.0215980574940318,0.004180,0.000130,0.000675,0.188839,0.047178,331.236846,22.557342,0.998867,0.973612,0.006231,0.272672,-0.000014,-0.000020,0.000054,0.000037,-0.000071,43.503806,0.000071,
2311,3163,1.05166167149345,11.2688467687824,0.0263948985704019,0.004390,0.000616,-0.000936,0.205860,0.068907,312.551220,25.371344,0.999619,0.993523,0.003436,0.448735,-0.000005,0.000023,-0.000008,0.000025,-0.000008,-75.067313,0.000026,
2341,3283,1.67755433095331,13.875152166056,-0.00603939999047043,0.004202,0.000445,0.002327,0.185830,0.057132,310.273833,25.780162,0.999608,0.994135,0.003070,0.443567,0.000012,0.000016,0.000015,0.000029,-0.000002,49.052253,0.000032,
2371,3118,2.36222717129367,10.2984404399539,0.01398265159537,0.004276,0.000551,0.000235,0.196461,0.080657,313.159721,25.528258,0.999627,0.992656,0.003519,0.450877,-0.000016,0.000017,-0.000001,0.000017,-0.000016,-88.237380,0.000019,
2326,3223,1.36630533070146,12.5706629102766,0.0314018375531759,0.004189,0.000590,-0.000757,0.195968,0.051933,311.589869,25.549334,0.999473,0.993351,0.003237,0.452756,0.000002,0.000029,-0.000008,0.000031,0.000000,-74.396488,0.000036,
2356,3013,2.05513439464904,8.01830064513187,-0.00189958249472966,0.004240,0.000648,-0.001182,0.199644,0.056730,314.744909,25.221157,0.999497,0.991984,0.003699,0.408514,-0.000027,0.000026,-0.000007,0.000027,-0.000028,-82.929508,0.000031,
2266,2998,0.102773573178411,7.68579045380109,-0.00183001050362464,0.004532,0.000494,-0.002537,0.217409,0.049602,315.080808,24.896900,0.999486,0.991792,0.003673,0.433619,-0.000015,0.000033,0.000000,0.000033,-0.000015,89.721610,0.000033,
2326,2968,1.4111675232228,7.03979680349203,-0.0059147717331598,0.004290,0.000677,0.000408,0.196422,0.073198,315.449276,25.103838,0.999673,0.995452,0.002977,0.352041,-0.000032,0.000026,-0.000001,0.000026,-0.000032,-88.727266,0.000034,
2386,2038,2.89713454244067,-13.2721780449647,0.0194020671266912,0.004279,0.000456,-0.001178,0.200079,0.044768,330.758269,22.470344,0.998911,0.975620,0.006099,0.346591,-0.000013,-0.000047,0.000037,0.000011,-0.000071,32.786694,0.000076,
2266,3238,0.0610815714857615,12.8907771682034,0.0244878008107889,0.004429,0.000617,-0.000633,0.206671,0.058546,311.364576,25.261222,0.999785,0.994903,0.003077,0.469344,0.000001,0.000019,-0.000008,0.000022,-0.000003,-68.473457,0.000024,
2371,3043,2.37583158013252,8.67020655729813,0.00826141603891983,0.004079,0.000420,0.001942,0.181132,0.075876,314.324241,25.316883,0.999653,0.992263,0.003545,0.457055,-0.000027,0.000024,-0.000005,0.000024,-0.000027,-84.737453,0.000030,
2401,3223,2.99465745308916,12.5778431723422,0.0265916763088967,0.004157,0.000442,-0.000905,0.194986,0.046145,311.561634,25.934863,0.999493,0.992535,0.003492,0.439629,0.000000,0.000020,-0.000003,0.000021,0.000000,-82.355905,0.000024,
2386,3193,2.67550886714089,11.9260172382351,0.031658906516725,0.004710,0.000791,-0.000004,0.217415,0.083810,312.107066,25.793238,0.999502,0.992689,0.003339,0.459666,-0.000006,0.000026,-0.000001,0.000026,-0.000006,-88.052071,0.000027,
2326,2863,1.42995166587152,4.75636985959456,-0.0183681295889642,0.004347,0.000406,-0.000670,0.202525,0.061367,317.065139,24.726221,0.999753,0.992531,0.003527,0.480355,-0.000023,0.000018,0.000003,0.000018,-0.000023,86.404123,0.000024,
2311,2083,1.25006344275889,-12.2817416474411,0.0156859580139326,0.004636,0.000436,-0.002276,0.220156,0.031764,330.011688,23.144283,0.999365,0.983290,0.005180,0.265049,-0.000044,0.000003,0.000024,0.000013,-0.000054,67.356561,0.000056,
2296,3133,0.730742439599162,10.6171407847857,0.0192769339822121,0.004222,0.000558,0.000043,0.194692,0.064556,312.986230,25.241159,0.999756,0.994729,0.003164,0.450252,-0.000008,0.000015,-0.000012,0.000020,-0.000013,-66.540491,0.000020,
2326,2098,1.57464003714779,-11.9551063352466,0.0118066647175965,0.004481,0.000555,-0.004328,0.220203,0.031788,329.732502,22.851588,0.999433,0.983022,0.005195,0.502622,-0.000036,0.000006,0.000020,0.000014,-0.000044,67.634955,0.000045,
2341,3298,1.67466288032125,14.2004561930955,-0.00961131862567299,0.004265,0.000496,0.000308,0.195865,0.064668,310.007385,25.812254,0.999679,0.993581,0.003191,0.454068,0.000007,0.000004,0.000016,0.000021,-0.000011,42.606340,0.000021,
2371,2023,2.57229833680577,-13.6020745118335,0.028842179626281,0.003812,0.000271,-0.000142,0.174936,0.060391,331.042303,22.536080,0.998852,0.974615,0.006265,0.351589,-0.000015,-0.000021,0.000048,0.000031,-0.000066,43.340004,0.000066,
2341,3043,1.7240344556046,8.66745117257321,0.00584528680940366,0.004290,0.000453,-0.000187,0.198471,0.064425,314.319798,25.164971,0.999694,0.993565,0.003311,0.499416,-0.000027,0.000021,-0.000009,0.000023,-0.000029,-79.735457,0.000031,
2371,2218,2.53488648344136,-9.3231842598894,0.00936811317308184,0.004674,0.000742,-0.005967,0.235487,0.030993,327.796735,23.071938,0.998369,0.976583,0.006168,0.359858,-0.000022,-0.000028,0.000002,-0.000022,-0.000028,17.391037,0.000050,
2311,3178,1.04866765916099,11.5941380540408,0.0281286891143964,0.004161,0.000543,0.000540,0.190215,0.064526,312.304407,25.410817,0.999656,0.993937,0.003363,0.435637,-0.000004,0.000025,-0.000010,0.000028,-0.000007,-72.375223,0.000029,
2431,2128,3.86385789120511,-11.2996802482215,0.0346662696563271,0.003965,0.000215,0.001933,0.174353,0.058893,329.467905,22.462490,0.999564,0.981234,0.005757,0.387278,-0.000013,-0.000045,0.000022,-0.000002,-0.000056,26.705303,0.000066,
2386,2053,2.89519378166766,-12.9436034896141,0.0305878715012682,0.004154,0.000830,-0.003633,0.203328,0.052387,330.613082,22.563761,0.999202,0.979221,0.005776,0.307048,-0.000012,-0.000044,0.000035,0.000010,-0.000066,32.474724,0.000071,
2371,3133,2.35979391577817,10.6238505721008,0.0177577343418989,0.004378,0.000446,-0.000389,0.203329,0.069245,312.952595,25.588622,0.999625,0.992568,0.003506,0.418961,-0.000015,0.000020,-0.000005,0.000021,-0.000016,-82.467122,0.000022,
2401,3238,2.991564856729,12.9038879909368,0.0205493136820678,0.004452,0.000684,-0.001147,0.209603,0.065724,311.278874,25.991978,0.999508,0.992993,0.003338,0.446439,0.000001,0.000019,0.000001,0.000019,0.000001,87.116512,0.000023,
2356,3073,2.04483822268125,9.3203629305344,0.0120796404534076,0.004404,0.000489,0.000571,0.201063,0.067474,313.882277,25.358184,0.999668,0.993373,0.003278,0.433960,-0.000024,0.000021,-0.000002,0.000021,-0.000024,-87.630544,0.000026,
2266,3253,0.0579383187253235,13.2164647811654,0.0223754668122638,0.004325,0.000441,0.001666,0.194259,0.067654,311.088205,25.320098,0.999751,0.994196,0.003248,0.443507,0.000002,0.000016,-0.000005,0.000018,0.000000,-71.886783,0.000021,
2311,2998,1.08095411898964,7.6880758051916,0.00977719051496706,0.004344,0.000579,-0.000979,0.203736,0.079444,315.108766,24.999355,0.999873,0.996583,0.002838,0.488025,-0.000024,0.000032,0.000002,0.000032,-0.000024,88.469016,0.000033,
2281,3058,0.417725548370424,8.98940777915832,0.00572063444144533,0.004137,0.000569,-0.000883,0.193854,0.060221,314.117219,25.063896,0.999435,0.993235,0.003523,0.427101,-0.000015,0.000015,0.000000,0.000015,-0.000015,89.244852,0.000018,
2386,3208,2.67186950429581,12.251163824858,0.0298201885632352,0.004204,0.000593,0.001101,0.190032,0.069077,311.818365,25.817210,0.999463,0.992795,0.003471,0.462843,-0.000006,0.000021,-0.000002,0.000021,-0.000006,-86.024639,0.000022,
2341,2158,1.89013977156717,-10.6380556097904,0.000407358376435241,0.004534,0.001032,-0.003014,0.218491,0.065065,328.665823,22.907071,0.999380,0.985760,0.004865,0.548614,-0.000028,-0.000029,0.000019,-0.000010,-0.000047,44.311387,0.000061,
2341,2938,1.74289355418727,6.38764490235037,-0.0098500873515377,0.004540,0.000415,-0.000662,0.211481,0.059910,315.916618,24.952648,0.998942,0.989673,0.004105,0.455956,-0.000033,0.000020,-0.000007,0.000021,-0.000034,-83.070146,0.000034,
2356,1993,2.24992773051807,-14.2607660831443,0.0270954968044634,0.003703,0.000295,-0.001273,0.173952,0.028722,331.503070,22.550202,0.998917,0.969301,0.006917,0.322797,-0.000005,-0.000023,0.000056,0.000042,-0.000070,40.462817,0.000071,
2401,2098,3.21318194041433,-11.9550246522059,0.0138041835625131,0.004320,0.000557,-0.003759,0.211447,0.039682,329.771349,22.547379,0.998817,0.973538,0.006430,0.359986,-0.000018,-0.000031,0.000029,0.000005,-0.000054,38.725218,0.000060,
2401,3253,2.98741785631425,13.2300209672061,0.00852706715289742,0.004305,0.000696,0.000354,0.197420,0.068693,310.919100,26.045200,0.999536,0.992360,0.003455,0.440162,0.000000,0.000024,0.000004,0.000025,-0.000001,79.952880,0.000028,
2356,2158,2.21923794926689,-10.6380585314646,0.0160022196940304,0.004749,0.000867,-0.004901,0.234947,0.049953,328.813459,23.023761,0.999240,0.982616,0.005243,0.333956,-0.000026,-0.000041,0.000021,-0.000012,-0.000055,35.466546,0.000072,
2401,2338,3.1651585525725,-6.69519968416,0.00257082042941192,0.003932,0.000944,-0.003629,0.193703,0.057782,325.782486,23.272165,0.998865,0.982034,0.005084,0.422360,-0.000019,-0.000011,0.000002,-0.000010,-0.000020,80.070599,0.000030,
2266,3013,0.100364315543867,8.01078989049899,0.00365150684126547,0.004550,0.000401,-0.000837,0.212610,0.056658,314.877223,24.882035,0.999393,0.991686,0.003639,0.480023,-0.000015,0.000026,-0.000003,0.000026,-0.000015,-85.733848,0.000026,
2386,2263,2.85125378308927,-8.33515321993215,-0.0131157681571494,0.004252,0.000521,-0.002310,0.203265,0.052128,326.859444,23.108769,0.999167,0.984029,0.005027,0.409198,-0.000018,-0.000036,-0.000003,-0.000017,-0.000037,-7.945830,0.000055,
2326,3238,1.36288414695495,12.897327174181,0.0226382884067675,0.004303,0.000787,0.000049,0.198571,0.072565,311.272174,25.645818,0.999404,0.992612,0.003417,0.409923,0.000002,0.000021,-0.000005,0.000022,0.000001,-75.605745,0.000027,
2371,2038,2.56946335016188,-13.2724480724129,0.0219967667856622,0.004335,0.000603,-0.000543,0.200443,0.063459,330.769440,22.521935,0.999039,0.978135,0.005827,0.413468,-0.000016,-0.000038,0.000043,0.000017,-0.000071,38.029735,0.000074,
2326,2983,1.4086996497161,7.36435252061182,-0.0016501671630067,0.004324,0.000449,0.000786,0.196591,0.060189,315.240851,25.053566,0.999905,0.997335,0.002524,0.423205,-0.000028,0.000031,0.000000,0.000031,-0.000028,-89.603470,0.000035,
2371,3058,2.37296250927055,8.99621000488871,0.00812059771720897,0.004226,0.000013,0.003577,0.181898,0.056223,314.078373,25.396581,0.999750,0.993370,0.003257,0.397497,-0.000027,0.000016,-0.000001,0.000016,-0.000027,-88.452955,0.000027,
2296,3148,0.727702695288933,10.9426014977666,0.0259944309026423,0.003616,0.000596,0.002359,0.158982,0.072520,312.761123,25.306991,0.999612,0.993472,0.003481,0.420679,-0.000007,0.000015,-0.000011,0.000020,-0.000012,-67.850293,0.000020,
2281,3073,0.414958000644177,9.31594025194276,-0.000741385755929969,0.004339,0.000759,-0.004118,0.214040,0.055099,313.837657,25.140046,0.999522,0.993213,0.003524,0.372682,-0.000017,0.000020,-0.000001,0.000020,-0.000017,-88.480429,0.000021,
2386,2068,2.89136605514033,-12.6139868967913,0.0208648112910623,0.004157,0.000845,-0.001350,0.195319,0.079554,330.282463,22.504875,0.999265,0.979685,0.005609,0.440396,-0.000012,-0.000032,0.000041,0.000020,-0.000064,37.909357,0.000066,
2311,3193,1.04652737773878,11.9192350243619,0.0297447614657358,0.004549,0.000614,-0.001267,0.214336,0.065886,312.096328,25.429419,0.999661,0.993875,0.003296,0.449466,-0.000002,0.000024,-0.000008,0.000026,-0.000005,-73.643442,0.000028,
2356,3088,2.04205270065956,9.64586925703442,0.016326354957414,0.004204,0.000427,0.001348,0.189078,0.066645,313.660403,25.408751,0.999577,0.992673,0.003469,0.420662,-0.000022,0.000019,-0.000009,0.000020,-0.000024,-78.541105,0.000026,
2356,2008,2.24716399336959,-13.9294049911863,0.0190880724383078,0.004190,0.001265,-0.003916,0.205831,0.072783,331.226083,22.627899,0.998753,0.975892,0.006286,0.332003,-0.000005,-0.000010,0.000064,0.000057,-0.000071,43.916747,0.000075,
2326,2113,1.57191432202431,-11.6264677200266,0.0219840409287144,0.004157,-0.000259,0.000832,0.187356,0.022705,329.542710,22.975159,0.999449,0.982697,0.005157,0.407262,-0.000039,0.000002,0.000019,0.000009,-0.000046,68.733818,0.000049,
2416,2173,3.52497058386032,-10.310303346587,0.00302489031815867,0.004046,-0.000302,-0.001564,0.190776,-0.015139,328.470589,22.639230,0.998916,0.980322,0.005270,0.376079,-0.000021,-0.000042,0.000008,-0.000018,-0.000045,19.744744,0.000065,
2371,3148,2.35728901237418,10.9489894065611,0.0226362790871235,0.004327,0.000483,-0.000951,0.202990,0.069473,312.747497,25.622447,0.999660,0.991805,0.003517,0.425345,-0.000014,0.000016,-0.000005,0.000017,-0.000015,-80.060415,0.000019,
2431,2143,3.85995962074574,-10.9682364151656,0.0124240415246391,0.004516,0.000367,-0.002286,0.215196,0.028579,329.080844,22.523860,0.999351,0.980335,0.005580,0.349089,-0.000014,-0.000043,0.000016,-0.000007,-0.000050,24.226538,0.000063,
2401,2113,3.21026974756697,-11.626191882929,0.0217037512202864,0.003901,0.000662,-0.001246,0.183247,0.062716,329.566852,22.632582,0.998963,0.975839,0.006004,0.346337,-0.000020,-0.000038,0.000020,-0.000007,-0.000051,33.044406,0.000064,
2326,3253,1.35890410639783,13.2225104430469,0.0122213167400673,0.004030,0.000581,0.001523,0.180834,0.064736,310.921088,25.629914,0.999322,0.992777,0.003469,0.451044,0.000001,0.000020,0.000001,0.000020,0.000001,85.652513,0.000024,
2401,3268,2.98328796832547,13.5565170209223,-0.00981011152356359,0.004420,0.000835,-0.001390,0.209124,0.072082,310.529979,26.102124,0.999638,0.992510,0.003501,0.430911,0.000001,0.000022,0.000006,0.000023,-0.000001,74.502355,0.000027,
2371,2053,2.56701328331767,-12.9424649870766,0.0228117822147169,0.004545,0.000581,-0.002427,0.216732,0.045352,330.550678,22.653409,0.999193,0.980098,0.005494,0.308076,-0.000016,-0.000036,0.000040,0.000015,-0.000067,37.719712,0.000070,
2431,2248,3.83830569969559,-8.66648437041697,0.00910136811046414,0.004045,0.000297,-0.001516,0.190920,0.027981,327.332452,22.865535,0.999138,0.980757,0.005408,0.375076,-0.000011,-0.000046,-0.000005,-0.000011,-0.000047,-8.354881,0.000061,
2386,3223,2.66843436757919,12.5769244172937,0.0259326098076258,0.003989,0.000394,0.001232,0.179571,0.056003,311.529021,25.888469,0.999575,0.993603,0.003245,0.420202,-0.000006,0.000020,-0.000002,0.000020,-0.000006,-85.319682,0.000021,
2386,2278,2.84964386578283,-8.0076492424244,0.00386003280783598,0.004278,0.000560,-0.001303,0.200895,0.040381,326.756270,23.252880,0.999638,0.991727,0.003811,0.298117,-0.000015,-0.000017,-0.000003,-0.000013,-0.000019,-37.433792,0.000032,
2341,3058,1.72095815066153,8.99304095229165,0.00204842441729625,0.004234,0.000444,-0.001439,0.200289,0.065915,314.044556,25.161461,0.999712,0.994487,0.003051,0.540274,-0.000027,0.000016,-0.000005,0.000016,-0.000028,-84.050298,0.000028,
2266,3028,0.0976889382366615,8.33704394460745,0.004326817911533,0.004321,0.000736,-0.003747,0.211760,0.049352,314.636778,24.968452,0.999336,0.990933,0.003758,0.411220,-0.000018,0.000023,-0.000003,0.000023,-0.000019,-85.401824,0.000025,
2371,2233,2.5314457976311,-8.99446493269673,0.00874027571563829,0.004422,0.000126,-0.002470,0.211329,0.022561,327.525084,23.128331,0.998741,0.980265,0.005749,0.338873,-0.000028,-0.000023,0.000002,-0.000022,-0.000029,67.941691,0.000051,
2311,3013,1.07723282558937,8.01521859130496,-0.000848377556167179,0.004310,0.000392,0.000527,0.196948,0.070897,314.767436,25.089429,0.999496,0.991809,0.003614,0.420726,-0.000025,0.000028,-0.000003,0.000028,-0.000025,-86.610925,0.000031,
2326,2998,1.40605224530889,7.68935663052687,0.0048745982775813,0.004140,0.000140,0.002865,0.180859,0.062143,315.035051,25.048513,0.999751,0.995437,0.002977,0.463697,-0.000027,0.000031,-0.000001,0.000031,-0.000027,-88.932370,0.000034,
2296,3163,0.725873457363438,11.2677405098889,0.0346020788629744,0.003857,0.000693,0.001643,0.172643,0.089994,312.601189,25.347789,0.999594,0.993261,0.003475,0.426434,-0.000004,0.000020,-0.000012,0.000024,-0.000009,-68.020052,0.000025,
2341,2173,1.88713972922055,-10.3085936181929,0.00336067476570179,0.004302,0.000640,-0.000672,0.199590,0.061325,328.429182,23.043485,0.999137,0.983495,0.005123,0.447793,-0.000028,-0.000031,0.000018,-0.000012,-0.000048,43.082045,0.000063,
2356,2023,2.24450283597576,-13.6017249881974,0.0235331334903321,0.004198,0.000944,-0.001398,0.197308,0.069423,331.013988,22.564913,0.998734,0.974833,0.006508,0.433927,-0.000006,-0.000015,0.000058,0.000049,-0.000069,42.816345,0.000071,
2281,3088,0.413323478167591,9.64008334656334,0.010385981361992,0.004531,0.000640,-0.005325,0.226904,0.051645,313.698996,25.110998,0.999698,0.993310,0.003501,0.425013,-0.000016,0.000018,-0.000012,0.000022,-0.000019,-72.637989,0.000024,
2401,2353,3.16157839130028,-6.36634476213868,-0.00271336604561156,0.003864,0.000435,-0.001551,0.182867,0.040198,325.484590,23.347014,0.998790,0.982296,0.005127,0.377356,-0.000014,0.000001,0.000005,0.000002,-0.000015,72.306708,0.000017,
2371,3073,2.37055155318425,9.3217518755176,0.00835020660065311,0.004240,0.000559,-0.001957,0.202452,0.058811,313.855434,25.417897,0.999638,0.992201,0.003517,0.419182,-0.000024,0.000016,-0.000001,0.000016,-0.000024,-89.171195,0.000024,
2311,3208,1.04407861571243,12.2447890653022,0.0371051313086355,0.004475,0.000974,0.000591,0.204660,0.074398,311.902232,25.519969,0.999658,0.993060,0.003373,0.398072,-0.000002,0.000024,-0.000008,0.000026,-0.000004,-74.209733,0.000028,
2386,2083,2.88859294857348,-12.2848464798588,0.0236130700047852,0.004341,0.000307,0.002174,0.190916,0.077357,330.059196,22.576076,0.999138,0.976521,0.005780,0.413315,-0.000013,-0.000024,0.000042,0.000024,-0.000061,41.161297,0.000061,
2356,3103,2.03912208364311,9.97171290342077,0.0141534541975261,0.004246,0.000315,0.000730,0.193198,0.061259,313.400674,25.457990,0.999579,0.992405,0.003609,0.403707,-0.000017,0.000020,-0.000007,0.000022,-0.000019,-79.353126,0.000023,
2401,3283,2.97989610854247,13.8817728553994,-0.0165509652990181,0.004533,0.000780,-0.000832,0.212306,0.069719,310.230122,26.119632,0.999645,0.991998,0.003637,0.454802,0.000007,0.000014,0.000007,0.000019,0.000002,57.488223,0.000023,
2386,2293,2.84658168621702,-7.68048209940226,0.00462147240705235,0.004152,0.000183,0.000110,0.189919,0.047601,326.509707,23.187138,0.999816,0.994398,0.003358,0.416684,-0.000016,-0.000005,-0.000002,-0.000005,-0.000016,-80.861595,0.000022,
2416,2188,3.52351977349074,-9.98176227189231,0.0217719450828326,0.004092,0.000285,-0.000969,0.190959,0.026470,328.384264,22.818320,0.999279,0.983902,0.004958,0.288475,-0.000017,-0.000031,0.000004,-0.000015,-0.000032,15.609427,0.000049,
2326,3268,1.35567363195779,13.548621153048,0.0051162637026323,0.004151,0.000596,0.001547,0.186371,0.071513,310.620368,25.708366,0.999515,0.993634,0.003189,0.412273,0.000001,0.000023,0.000007,0.000025,-0.000001,74.274932,0.000028,
2356,2173,2.2156733629846,-10.3112790290742,0.0180714944306715,0.004153,0.000129,-0.000901,0.193396,0.028944,328.548312,22.922315,0.999202,0.982453,0.005311,0.456349,-0.000029,-0.000040,0.000020,-0.000014,-0.000055,37.050709,0.000073,
2431,2158,3.85793826940615,-10.6414933155508,0.0231119747762136,0.004317,0.000697,-0.005691,0.218777,0.019398,328.932279,22.494928,0.999308,0.979195,0.005644,0.421064,-0.000014,-0.000057,0.000008,-0.000013,-0.000058,10.788010,0.000076,
2416,2413,3.47770767913648,-5.05379969956984,-0.00242897138144826,0.004499,0.000337,-0.000544,0.208381,0.067679,324.558782,23.484907,0.999683,0.988305,0.004347,0.411376,-0.000002,0.000006,0.000015,0.000018,-0.000014,52.101542,0.000019,
2326,2128,1.56929517365001,-11.2970861969796,0.0235160731556334,0.003776,0.000527,-0.004747,0.189385,0.028971,329.315535,23.061596,0.999377,0.985039,0.004936,0.364320,-0.000037,-0.000002,0.000018,0.000005,-0.000045,67.348042,0.000049,
2371,2068,2.56331796065872,-12.6136913047532,0.0202462144321771,0.003945,0.000817,-0.001872,0.187425,0.069484,330.258633,22.600497,0.999438,0.982039,0.005045,0.430055,-0.000016,-0.000024,0.000044,0.000024,-0.000065,42.603135,0.000065,
2371,3163,2.35459222042578,11.2740314035114,0.0248581141142949,0.004293,0.000594,-0.001472,0.203342,0.072896,312.520795,25.631418,0.999555,0.991987,0.003616,0.459670,-0.000012,0.000021,-0.000005,0.000022,-0.000013,-81.039046,0.000022,
2401,2128,3.20797268565121,-11.2977146009112,0.03154733346679,0.003975,0.000422,0.001656,0.176055,0.079600,329.399670,22.716698,0.999227,0.980897,0.005387,0.327204,-0.000017,-0.000039,0.000021,-0.000004,-0.000052,30.508885,0.000062,
2266,3043,0.0952172639597961,8.66241334556859,0.00903161149494736,0.004359,0.000624,-0.001735,0.206794,0.046471,314.426248,24.999415,0.999515,0.992351,0.003574,0.401793,-0.000019,0.000021,-0.000002,0.000021,-0.000019,-87.254263,0.000023,
2356,2038,2.24191505712006,-13.2717476876104,0.0205742664945774,0.004391,0.001205,-0.005075,0.219105,0.070807,330.769496,22.628265,0.998969,0.978726,0.005790,0.414489,-0.000007,-0.000034,0.000053,0.000034,-0.000075,38.047345,0.000075,
2311,3028,1.07540547587909,8.3399453053772,0.00804989673775935,0.004543,0.000347,-0.000128,0.209896,0.060988,314.610222,25.093303,0.999592,0.991781,0.003606,0.438354,-0.000023,0.000026,-0.000003,0.000027,-0.000024,-86.634833,0.000029,
2341,3073,1.7182839347966,9.31970675951068,0.00391252287005273,0.004213,0.000499,-0.001914,0.201008,0.065219,313.814957,25.300177,0.999681,0.994441,0.003056,0.436516,-0.000024,0.000018,-0.000004,0.000018,-0.000024,-84.337334,0.000025,
2431,2263,3.83457371429194,-8.33572400800037,-0.00234698641730802,0.004392,0.000627,0.000514,0.199488,0.041749,327.002039,22.987211,0.999191,0.981002,0.005372,0.319916,-0.000010,-0.000043,-0.000015,-0.000004,-0.000049,-21.586437,0.000059,
2386,3238,2.66464250876497,12.902820305724,0.0124318174700875,0.004038,0.000454,-0.000333,0.187511,0.055817,311.177279,25.909350,0.999620,0.993551,0.003197,0.441265,-0.000006,0.000018,0.000001,0.000018,-0.000006,87.043304,0.000019,
2386,2098,2.88483535436308,-11.9551462495714,0.0149503536151201,0.004114,0.000059,0.001606,0.182496,0.043198,329.736972,22.610448,0.998965,0.974716,0.006049,0.391741,-0.000017,-0.000030,0.000032,0.000009,-0.000056,39.363438,0.000060,
2341,2188,1.88453761385231,-9.97964280667307,0.00626133134971951,0.004178,0.000281,-0.002141,0.198924,0.031735,328.210651,23.163320,0.999243,0.986106,0.004838,0.337572,-0.000028,-0.000018,0.000015,-0.000007,-0.000039,55.081488,0.000050,
2326,3283,1.35228291763741,13.8739149711568,-0.00588573391848968,0.004247,0.000617,-0.000503,0.197911,0.066214,310.293359,25.707000,0.999680,0.995017,0.002832,0.441214,0.000000,0.000021,0.000012,0.000027,-0.000006,66.136439,0.000028,
2311,3223,1.04113785581404,12.5693567899554,0.0347235337761163,0.004354,0.000762,-0.001326,0.205568,0.060758,311.637668,25.488705,0.999564,0.993460,0.003264,0.446535,-0.000002,0.000029,-0.000009,0.000031,-0.000004,-74.863301,0.000034,
2371,2248,2.5274960745028,-8.66405303131174,-0.00638245806129589,0.004361,0.000876,-0.004451,0.215902,0.071990,327.160480,23.138188,0.999255,0.983840,0.005320,0.422672,-0.000025,-0.000032,0.000002,-0.000024,-0.000033,16.845174,0.000058,
2326,3013,1.4035678242851,8.01545168078118,0.002874759927181,0.004365,0.000275,-0.000355,0.202411,0.059653,314.794626,25.094313,0.999349,0.990397,0.003841,0.449153,-0.000028,0.000028,-0.000006,0.000029,-0.000029,-83.833258,0.000033,
2401,3298,2.97621149770265,14.206763948046,-0.0236669033602652,0.004357,0.000756,-0.000601,0.203315,0.060992,309.915004,26.121710,0.999671,0.993056,0.003494,0.488050,0.000012,-0.000002,0.000000,0.000012,-0.000002,-0.341751,0.000013,
2416,2203,3.52023777032147,-9.6532873788816,0.0125012171109233,0.004250,0.000780,-0.003986,0.209423,0.044893,328.083528,22.723937,0.999331,0.983079,0.005151,0.451919,-0.000016,-0.000037,0.000001,-0.000016,-0.000037,1.530898,0.000055,
2416,2428,3.47406390673746,-4.72548920171916,-0.0101932723204072,0.004165,0.000279,-0.003824,0.205014,0.023653,324.247609,23.540418,0.999532,0.987225,0.004518,0.361266,-0.000003,0.000013,0.000013,0.000020,-0.000010,61.184482,0.000020,
2431,2173,3.85455992999517,-10.3119115052857,0.025196610217904,0.004320,-0.000029,0.001233,0.193163,0.011547,328.681405,22.636662,0.999356,0.983121,0.005015,0.324356,-0.000018,-0.000042,0.000008,-0.000015,-0.000045,17.457896,0.000063,
2356,2188,2.21253742677886,-9.98119437293721,0.0175161061131917,0.003952,-0.000116,-0.000322,0.182067,0.037680,328.289617,23.070210,0.999148,0.983774,0.005110,0.358830,-0.000027,-0.000028,0.000014,-0.000013,-0.000042,43.772300,0.000057,
2401,2368,3.15876289621444,-6.0392784443909,-0.000362750634110398,0.004197,-0.000451,0.003705,0.178790,0.026926,325.257825,23.333681,0.998802,0.982071,0.005102,0.424659,-0.000011,0.000008,0.000013,0.000014,-0.000017,63.123434,0.000018,
2281,3103,0.41034397070359,9.96583485216316,0.00930594160121245,0.004565,0.000608,-0.002566,0.219266,0.061943,313.436799,25.142262,0.999663,0.993651,0.003371,0.430809,-0.000013,0.000017,-0.000014,0.000023,-0.000018,-68.926725,0.000024,
2371,3088,2.36799122768162,9.64666981074028,0.0147231581434539,0.004230,0.000355,0.000260,0.194058,0.054308,313.655232,25.431855,0.999451,0.990422,0.003902,0.440814,-0.000023,0.000012,-0.000006,0.000013,-0.000024,-80.315007,0.000024,
2356,3118,2.03676437481264,10.2964971872337,0.020073188192498,0.004224,0.000616,-0.000017,0.194970,0.073282,313.206702,25.446702,0.999581,0.992653,0.003555,0.464909,-0.000016,0.000021,-0.000005,0.000021,-0.000016,-82.026165,0.000022,
2296,3178,0.722990885544881,11.5928607501403,0.0309881321560397,0.004017,0.000489,0.001853,0.179175,0.068858,312.331987,25.355634,0.999613,0.993528,0.003368,0.426256,-0.000001,0.000021,-0.000014,0.000028,-0.000007,-64.319282,0.000029,
2371,2083,2.56045524579199,-12.2838405424525,0.0187255424212935,0.004242,0.000687,0.000365,0.193053,0.083559,330.009580,22.673045,0.999324,0.979774,0.005374,0.416138,-0.000018,-0.000015,0.000045,0.000028,-0.000061,45.713473,0.000061,
2431,2488,3.78892493915475,-3.41499443357738,-0.0123096962557838,0.004083,-0.000149,-0.000880,0.190406,0.005575,323.265177,23.616890,0.999305,0.983894,0.004723,0.429737,-0.000013,-0.000032,-0.000013,-0.000007,-0.000038,-26.713669,0.000048,
2326,2143,1.56604626474708,-10.9668376090912,0.0156679566967455,0.004312,0.000281,0.000696,0.195157,0.058630,329.013619,23.108260,0.999376,0.985466,0.004974,0.385215,-0.000040,-0.000009,0.000017,-0.000002,-0.000047,66.718153,0.000056,
2431,2278,3.83110787952728,-8.00895276488274,-0.00126485284670252,0.003821,0.000259,0.000714,0.172463,0.031724,326.742302,22.901608,0.999283,0.979469,0.005563,0.447603,-0.000009,-0.000020,-0.000014,0.000000,-0.000029,-33.973895,0.000034,
2431,2698,3.74609396069318,1.17068449367388,-0.0264834715451912,0.004101,0.000350,-0.000347,0.189756,0.053735,319.730323,24.450424,0.999746,0.992661,0.003575,0.355044,-0.000025,0.000050,-0.000017,0.000054,-0.000029,-78.217039,0.000054,
2356,2053,2.23996178341902,-12.9444902125992,0.0346838508503424,0.004316,0.000376,-0.003285,0.209111,0.033171,330.636270,22.679018,0.999091,0.980995,0.005326,0.367591,-0.000007,-0.000032,0.000050,0.000033,-0.000071,38.138321,0.000071,
2341,3088,1.71552404290118,9.64525580353689,0.00192307620613974,0.004582,0.000433,0.000058,0.211079,0.059585,313.562973,25.320181,0.999609,0.994494,0.003088,0.446641,-0.000021,0.000016,-0.000013,0.000021,-0.000025,-72.334338,0.000027,
2326,3298,1.34927883995049,14.1987204274015,-0.00536587079113815,0.004061,0.000789,0.000102,0.187360,0.082574,310.040866,25.706041,0.999721,0.995194,0.002851,0.491590,-0.000010,0.000016,0.000012,0.000020,-0.000015,68.477212,0.000021,
2401,2143,3.20489768806577,-10.9688281693267,0.0196446404257244,0.004340,0.001014,-0.003567,0.211902,0.078722,329.094812,22.626163,0.999179,0.979507,0.005418,0.465751,-0.000019,-0.000038,0.000017,-0.000009,-0.000048,30.022171,0.000061,
2386,2113,2.88171957469989,-11.6257983210135,0.0153476541919986,0.003784,0.000271,0.000645,0.170938,0.051202,329.486699,22.675747,0.998644,0.970476,0.006396,0.380850,-0.000019,-0.000037,0.000025,-0.000002,-0.000055,34.903320,0.000064,
2341,2203,1.88173704478152,-9.65135264984595,0.00667788135001501,0.004162,0.000494,-0.001925,0.197535,0.045617,327.970847,23.158309,0.999105,0.983808,0.005159,0.395882,-0.000031,-0.000019,0.000007,-0.000015,-0.000034,64.961897,0.000051,
2386,2308,2.84326865377037,-7.35142408662136,-0.0072269062873147,0.004499,0.000531,-0.001960,0.213368,0.052453,326.191661,23.175752,0.999772,0.994196,0.003421,0.478655,-0.000015,-0.000005,0.000001,-0.000005,-0.000015,85.896047,0.000021,
2386,3253,2.6613062083669,13.2287698327198,0.00465463069974703,0.004338,0.000567,0.001206,0.195861,0.070194,310.873710,25.958212,0.999680,0.993263,0.003173,0.448477,-0.000006,0.000022,0.000005,0.000023,-0.000007,79.557847,0.000024,
2416,2218,3.51681221138358,-9.32321931996693,0.00742859282598829,0.004272,0.000536,-0.003001,0.206721,0.057585,327.795547,22.831163,0.999363,0.984192,0.005091,0.407866,-0.000010,-0.000033,-0.000002,-0.000010,-0.000033,-4.734701,0.000046,
2431,2503,3.78637857210129,-3.0878939151758,-0.00532017927235984,0.004068,0.000154,0.000680,0.184132,0.042632,323.073784,23.642514,0.999395,0.987148,0.004387,0.492349,-0.000014,-0.000022,-0.000014,-0.000004,-0.000033,-36.779289,0.000040,
2326,3028,1.4007880964466,8.34109125001106,0.00673720837585279,0.004110,0.000342,-0.000151,0.189981,0.053508,314.569428,25.145169,0.999584,0.992385,0.003536,0.425648,-0.000025,0.000028,-0.000007,0.000028,-0.000025,-82.485286,0.000031,
2431,2188,3.85206262322187,-9.98301109620202,0.0311857694653668,0.004209,0.000095,-0.000154,0.193204,0.033191,328.488823,22.732730,0.999673,0.987975,0.004370,0.302160,-0.000012,-0.000032,0.000005,-0.000011,-0.000033,13.651092,0.000046,
2371,3178,2.35144728252076,11.5996289536219,0.0214556691714165,0.004290,0.000667,-0.001481,0.203280,0.074120,312.246218,25.664046,0.999564,0.992544,0.003443,0.468235,-0.000008,0.000024,-0.000006,0.000025,-0.000009,-79.136026,0.000025,
2371,2098,2.55727481085723,-11.9547611938393,0.0150515809764329,0.004333,-0.000015,0.001916,0.191507,0.030533,329.736093,22.724372,0.999261,0.978328,0.005591,0.355924,-0.000023,-0.000022,0.000035,0.000013,-0.000058,45.253924,0.000060,
2416,2443,3.47089099427649,-4.39836573473373,-0.00740737951639403,0.004083,0.000029,0.000802,0.184306,0.046795,324.007151,23.524866,0.999530,0.987593,0.004466,0.449159,0.000000,-0.000021,0.000009,0.000004,-0.000024,20.182417,0.000026,
2416,1993,3.56378075786292,-14.2643020101976,0.0428923969745938,0.004206,0.000281,-0.001983,0.199615,0.018703,331.714112,22.153519,0.999051,0.975309,0.006151,0.282289,-0.000020,-0.000044,0.000045,0.000015,-0.000079,37.325613,0.000084,
2371,2263,2.52493364697833,-8.33604549988372,-0.00131596573680781,0.004315,0.000569,-0.003852,0.211574,0.058426,326.956203,23.204200,0.999392,0.986821,0.004680,0.386275,-0.000025,-0.000034,-0.000004,-0.000023,-0.000036,-21.671524,0.000059,
2341,1993,1.92224710751661,-14.2607987188528,0.0287964653477388,0.004066,-0.000619,0.002328,0.177662,0.013965,331.518773,22.647897,0.998761,0.978549,0.006002,0.316641,-0.000005,-0.000038,0.000031,0.000014,-0.000056,30.868829,0.000058,
2431,2938,3.69958922372502,6.39423964791654,-0.016080130317448,0.004215,0.000641,-0.001583,0.200030,0.072694,315.912595,25.171924,0.999714,0.991870,0.003655,0.450216,-0.000023,0.000009,-0.000022,0.000020,-0.000034,-63.004660,0.000034,
2431,2293,3.82861114629271,-7.6808411644783,0.00570231670070598,0.003855,-0.000145,0.002120,0.168706,0.022762,326.554021,23.001570,0.999130,0.981251,0.005369,0.390731,-0.000009,-0.000010,-0.000010,0.000000,-0.000019,-44.095180,0.000022,
2281,3118,0.406711914002575,10.2915629177127,0.00892621913516223,0.003976,0.000376,0.001274,0.179209,0.062264,313.148066,25.189886,0.999814,0.994964,0.003016,0.410105,-0.000009,0.000012,-0.000011,0.000017,-0.000014,-65.924905,0.000018,
2296,3193,0.720709280181936,11.9183742810619,0.0270390542675614,0.004516,0.000579,-0.001832,0.214731,0.066342,312.088581,25.383454,0.999646,0.993350,0.003343,0.424560,0.000001,0.000021,-0.000012,0.000027,-0.000004,-65.093013,0.000029,
2311,3238,1.03741806301129,12.8956151255006,0.0246304578497529,0.004205,0.000711,-0.000953,0.197427,0.060267,311.298470,25.560874,0.999314,0.992337,0.003516,0.404773,-0.000003,0.000020,-0.000006,0.000022,-0.000004,-75.901663,0.000023,
2386,2128,2.87885572749042,-11.2964299633332,0.0123918575268362,0.003953,0.000632,-0.000490,0.182915,0.066428,329.232016,22.704702,0.999046,0.977026,0.005722,0.413530,-0.000016,-0.000039,0.000025,-0.000001,-0.000055,32.870606,0.000063,
2401,2158,3.20203049064638,-10.6403550778235,0.0231908546024329,0.004497,0.000171,0.001234,0.201417,0.036495,328.872143,22.711262,0.999250,0.980243,0.005294,0.386536,-0.000020,-0.000050,0.000011,-0.000017,-0.000054,17.524398,0.000073,
2386,3268,2.65806953565344,13.5541199249525,0.00189201435819086,0.004195,0.000483,0.000870,0.190524,0.068382,310.598780,26.000389,0.999666,0.992995,0.003334,0.446486,-0.000005,0.000022,0.000006,0.000024,-0.000006,77.670715,0.000025,
2356,2203,2.2090326798933,-9.65142565903843,0.00618211694524007,0.004318,0.000088,0.001785,0.191522,0.052647,327.962251,23.075582,0.999092,0.983557,0.005122,0.410420,-0.000029,-0.000029,0.000006,-0.000023,-0.000035,45.699937,0.000058,
2401,2383,3.1558650802262,-5.71021452961149,-0.00478452685422326,0.004211,0.000140,-0.000868,0.196237,0.032083,324.995018,23.424187,0.999240,0.985466,0.004760,0.386638,-0.000005,0.000006,0.000010,0.000011,-0.000011,60.165907,0.000013,
2341,2218,1.87910918316789,-9.32288473914784,0.00746798003956428,0.004088,0.000879,-0.004396,0.202872,0.066900,327.740658,23.171196,0.998854,0.983133,0.005364,0.443370,-0.000027,-0.000021,0.000004,-0.000019,-0.000029,66.340176,0.000048,
2431,2713,3.74416801177873,1.49555440001722,-0.0176738224864152,0.004434,0.000386,-0.000226,0.204652,0.060558,319.575553,24.376070,0.999713,0.992331,0.003607,0.486464,-0.000024,0.000049,-0.000015,0.000052,-0.000027,-78.728944,0.000052,
2356,3133,2.03393056227646,10.6220651386276,0.022907972369012,0.004124,0.000390,0.001244,0.185783,0.058574,312.975616,25.518546,0.999543,0.992059,0.003674,0.416127,-0.000015,0.000024,-0.000008,0.000026,-0.000016,-79.121903,0.000026,
2416,2233,3.51370750562603,-8.99529515174629,0.0121475266329298,0.003968,0.000159,-0.000104,0.182129,0.052896,327.568155,22.866993,0.999381,0.985340,0.004980,0.417303,-0.000015,-0.000031,-0.000001,-0.000015,-0.000031,-5.178092,0.000047,
2356,2068,2.23704567144773,-12.614613210346,0.0329636015248411,0.004342,0.000946,-0.003571,0.211538,0.070943,330.382400,22.721311,0.999233,0.980901,0.005272,0.405461,-0.000009,-0.000016,0.000054,0.000041,-0.000066,43.204179,0.000067,
2431,2203,3.84853028451817,-9.65465204825333,0.0210031539337479,0.004248,0.000449,-0.002867,0.205167,0.026179,328.174137,22.643140,0.999538,0.985639,0.004759,0.437879,-0.000009,-0.000040,0.000002,-0.000009,-0.000040,3.137619,0.000053,
2416,2008,3.56074892906549,-13.9362236591938,0.043567370568212,0.004045,0.000417,-0.002118,0.192777,0.030506,331.472096,22.062558,0.999030,0.973270,0.006306,0.436482,-0.000022,-0.000032,0.000055,0.000028,-0.000082,42.408057,0.000083,
2326,2158,1.56294828409857,-10.6385102749759,0.012343824976881,0.004112,0.000549,-0.000888,0.191571,0.066191,328.740911,23.056386,0.999186,0.984272,0.005091,0.482088,-0.000044,-0.000021,0.000009,-0.000018,-0.000048,70.538647,0.000068,
2431,2308,3.82648453149166,-7.3515486499713,0.00806524610487713,0.004189,0.000540,-0.001969,0.199356,0.039133,326.361091,23.142329,0.999136,0.983588,0.005019,0.318112,-0.000007,-0.000007,-0.000007,0.000000,-0.000014,-43.941217,0.000016,
2341,3103,1.71376849662164,9.96994253766507,0.0155247289384874,0.004527,0.000429,-0.001113,0.212672,0.061634,313.433315,25.355197,0.999561,0.993602,0.003364,0.449050,-0.000016,0.000018,-0.000013,0.000023,-0.000021,-71.118540,0.000025,
2386,2323,2.83953385953592,-7.02213331009999,-0.0146662895044756,0.004225,0.000675,-0.002210,0.201831,0.072497,325.874959,23.221109,0.999653,0.992402,0.003891,0.499078,-0.000019,-0.000013,0.000008,-0.000007,-0.000025,55.969766,0.000034,
2326,3043,1.39829670691933,8.66663797252631,0.0120628718441935,0.004066,0.000549,0.000485,0.185846,0.065986,314.364631,25.181978,0.999666,0.992917,0.003461,0.434922,-0.000025,0.000024,-0.000006,0.000025,-0.000026,-82.925742,0.000029,
2341,2008,1.91926094133925,-13.9303033527789,0.0282394223153801,0.003864,0.000421,0.001553,0.171535,0.060837,331.266030,22.728384,0.998547,0.976449,0.006365,0.323586,-0.000004,-0.000018,0.000041,0.000030,-0.000052,40.166348,0.000052,
2311,3253,1.03366987880878,13.2212603391654,0.018027894643069,0.003988,0.000573,0.002392,0.176012,0.073926,310.975367,25.587048,0.999444,0.992396,0.003465,0.422772,-0.000003,0.000017,0.000000,0.000017,-0.000003,-89.070425,0.000018,
2431,3178,3.65508431972614,11.6046740400988,0.0240559927545974,0.004182,0.000416,0.000454,0.191139,0.060754,312.310818,25.947436,0.999678,0.992626,0.003385,0.447095,-0.000005,0.000035,0.000001,0.000035,-0.000005,88.094342,0.000038,
2371,3193,2.34929017682599,11.9245989966039,0.0294670053926325,0.004506,0.000549,0.000031,0.207789,0.072208,312.072078,25.713068,0.999488,0.992605,0.003496,0.457059,-0.000004,0.000023,-0.000004,0.000024,-0.000005,-81.525287,0.000026,
2416,2458,3.46772972443584,-4.06982144214222,-0.0126966675715607,0.004351,0.000267,0.001494,0.194184,0.059813,323.729274,23.579051,0.999461,0.986868,0.004594,0.457211,-0.000003,-0.000030,0.000004,-0.000003,-0.000030,7.937751,0.000037,
2431,2953,3.69590647117666,6.72067577287663,-0.0206954642805499,0.003972,0.000522,-0.000439,0.184560,0.063646,315.613165,25.223250,0.999770,0.993245,0.003442,0.439101,-0.000023,0.000017,-0.000013,0.000021,-0.000028,-73.287938,0.000029,
2386,3283,2.65533656788078,13.8790352768781,0.00184988980277012,0.004334,0.000567,0.000432,0.198523,0.068675,310.360128,26.019161,0.999638,0.992214,0.003501,0.469846,0.000002,0.000013,0.000008,0.000017,-0.000002,62.973907,0.000019,
2431,2518,3.78376832824886,-2.76067472141947,-0.00116486284923667,0.004012,0.000418,-0.000326,0.185427,0.057982,322.866317,23.679013,0.999119,0.985387,0.004703,0.522144,-0.000011,-0.000026,-0.000015,-0.000002,-0.000035,-31.916546,0.000042,
2371,2113,2.55405386153835,-11.6256987893781,0.0152894099500145,0.003875,0.000116,0.000884,0.174242,0.042048,329.478972,22.758221,0.999168,0.978108,0.005600,0.377988,-0.000025,-0.000029,0.000028,0.000000,-0.000055,42.867317,0.000064,
2446,2098,4.19687226591212,-11.9561107566399,0.0152531179437574,0.004221,0.000410,-0.003455,0.206011,0.026889,329.849721,22.282305,0.999213,0.979660,0.005775,0.338577,-0.000002,-0.000042,0.000038,0.000021,-0.000065,31.012743,0.000066,
2371,2278,2.52318221152589,-8.00864326353338,0.014382870414579,0.004213,0.000693,-0.003727,0.206506,0.040151,326.839830,23.331603,0.999789,0.994042,0.003526,0.283035,-0.000022,-0.000015,-0.000006,-0.000011,-0.000026,-58.708427,0.000038,
2416,2023,3.55635472528374,-13.6028732205758,0.0307923010425952,0.003774,0.000266,-0.000664,0.175061,0.028186,331.104768,22.319954,0.998600,0.975381,0.006173,0.228884,-0.000018,-0.000031,0.000049,0.000025,-0.000074,41.283030,0.000076,
2446,2338,4.14769716599229,-6.69610899744102,0.0128165756785279,0.003962,-0.000417,0.003809,0.167153,0.040297,325.910743,23.120207,0.999287,0.981648,0.005093,0.389825,0.000000,-0.000001,-0.000001,0.000001,-0.000001,-31.446733,0.000001,
2386,2143,2.87592803355919,-10.9670953426794,0.00781896900610946,0.004115,0.000684,-0.002566,0.197781,0.055085,328.966838,22.745537,0.998973,0.974833,0.005872,0.407772,-0.000018,-0.000037,0.000021,-0.000005,-0.000051,32.581669,0.000061,
2431,2218,3.84602086438019,-9.32642725610173,0.0236160157887753,0.004408,0.000353,-0.004054,0.216835,0.021276,327.965454,22.678872,0.999537,0.985660,0.004787,0.449627,-0.000005,-0.000035,-0.000003,-0.000005,-0.000036,-5.213542,0.000044,
2356,2083,2.23282689414862,-12.2823649929643,0.0158108358460254,0.004320,0.001408,-0.003193,0.209441,0.095028,329.994686,22.829329,0.999459,0.982209,0.005079,0.364568,-0.000011,-0.000006,0.000051,0.000043,-0.000060,46.480648,0.000061,
2416,2248,3.51107669865035,-8.66675384286366,0.013341496820658,0.004026,0.000563,-0.002140,0.192360,0.082505,327.345774,22.893221,0.999287,0.983447,0.005109,0.470887,-0.000015,-0.000042,-0.000004,-0.000014,-0.000043,-7.323220,0.000059,
2431,2728,3.7412290445549,1.82167227493466,-0.0194716783943818,0.004743,0.000029,0.001413,0.212647,0.042879,319.324688,24.358996,0.999731,0.992839,0.003467,0.536067,-0.000028,0.000033,-0.000012,0.000035,-0.000030,-79.564405,0.000038,
2431,2323,3.82340375841679,-7.02402348662223,0.00524027725936094,0.004335,0.000549,-0.001614,0.204731,0.050461,326.100557,23.079917,0.999159,0.982967,0.004997,0.444006,-0.000009,-0.000011,0.000003,-0.000006,-0.000013,34.277479,0.000020,
2341,2233,1.87620867616836,-8.99459662879028,0.0086256433992844,0.003913,0.000822,-0.004268,0.194417,0.061757,327.499855,23.203030,0.998581,0.979692,0.005690,0.445226,-0.000035,-0.000021,0.000004,-0.000019,-0.000036,74.510641,0.000056,
2401,2398,3.15314074695167,-5.38232468610045,-0.0056273181457982,0.004296,0.000411,-0.003088,0.208263,0.033895,324.757115,23.450433,0.999407,0.986320,0.004637,0.409395,-0.000006,0.000005,0.000013,0.000014,-0.000014,56.409262,0.000016,
2311,3268,1.03085054421127,13.5467601206701,0.00907103048285762,0.004297,0.000720,-0.002003,0.205460,0.079536,310.683377,25.599373,0.999535,0.993529,0.003201,0.447193,-0.000003,0.000019,0.000004,0.000019,-0.000004,80.936753,0.000020,
2356,3148,2.03152745586482,10.947246658557,0.0263584914774242,0.004319,0.000304,0.001388,0.194270,0.057644,312.767404,25.548194,0.999562,0.992409,0.003609,0.422963,-0.000014,0.000021,-0.000007,0.000022,-0.000015,-78.852527,0.000023,
2386,2338,2.83749331703533,-6.6952572864377,0.00126054302666034,0.003939,0.000479,-0.000722,0.183329,0.054364,325.747001,23.319759,0.999088,0.985848,0.004734,0.426948,-0.000018,-0.000010,0.000005,-0.000007,-0.000020,63.972809,0.000029,
2356,2218,2.20691065822109,-9.32271048663522,0.00621190770851854,0.004472,0.000912,-0.005390,0.224087,0.057399,327.752879,23.119771,0.998585,0.980059,0.005695,0.411948,-0.000027,-0.000028,0.000002,-0.000026,-0.000029,30.456681,0.000055,
2386,3298,2.65100238535038,14.2054001815107,-0.0165115975963772,0.004343,0.000733,0.000372,0.199139,0.061016,309.959672,26.085174,0.999648,0.993170,0.003479,0.437635,0.000004,-0.000001,0.000001,0.000004,-0.000002,14.721021,0.000004,
2341,3118,1.71138025812236,10.2950501374983,0.0254547948978825,0.004291,0.000511,-0.000052,0.198112,0.063285,313.256501,25.408701,0.999575,0.993492,0.003419,0.432806,-0.000013,0.000019,-0.000011,0.000022,-0.000016,-72.723328,0.000023,
2431,2968,3.69283123851557,7.04624714651396,-0.0214722847818507,0.003708,0.000592,-0.003171,0.182570,0.053480,315.359717,25.227366,0.999864,0.995426,0.002994,0.474261,-0.000029,0.000019,-0.000007,0.000020,-0.000030,-81.677731,0.000030,
2431,3193,3.65273742199747,11.9297353923385,0.0310625428132312,0.004274,0.000332,0.000866,0.193785,0.050072,312.126305,26.008339,0.999657,0.991724,0.003541,0.424252,-0.000002,0.000033,0.000000,0.000033,-0.000002,89.230660,0.000037,
2341,2023,1.91641045954006,-13.602527377909,0.0293213996610007,0.003756,-0.000031,0.002001,0.164869,0.027844,331.028044,22.664939,0.998725,0.977933,0.006084,0.394069,-0.000008,-0.000020,0.000038,0.000025,-0.000052,40.727348,0.000052,
2371,3208,2.34596448700887,12.2495430368736,0.0258025068596339,0.004323,0.000387,-0.000219,0.200177,0.053259,311.788023,25.711878,0.999356,0.992707,0.003627,0.478987,-0.000001,0.000019,-0.000004,0.000020,-0.000002,-78.561379,0.000022,
2446,2113,4.19476579515797,-11.6278234420541,0.021483463138793,0.004530,0.000601,-0.004415,0.223814,0.033498,329.677693,22.316121,0.999446,0.979651,0.005629,0.366379,-0.000003,-0.000056,0.000026,0.000008,-0.000067,22.161967,0.000073,
2416,2473,3.46542422880229,-3.74323193018735,-0.00727290206623366,0.004146,0.000708,-0.003549,0.203402,0.045001,323.541051,23.586286,0.999380,0.986354,0.004597,0.484160,-0.000009,-0.000026,0.000004,-0.000009,-0.000027,12.140203,0.000037,
2401,2173,3.19838588856116,-10.3107776475611,0.0151044446492961,0.004240,0.000243,-0.001000,0.197790,0.032786,328.558887,22.740204,0.999184,0.982098,0.005191,0.402612,-0.000024,-0.000042,0.000011,-0.000019,-0.000047,24.684045,0.000068,
2326,3058,1.39529408448531,8.99230485367047,0.00809047261685691,0.004156,0.000486,0.000365,0.190485,0.079496,314.090681,25.171778,0.999711,0.994108,0.003139,0.492342,-0.000023,0.000017,-0.000003,0.000017,-0.000023,-85.904221,0.000024,
2416,2038,3.55238432125529,-13.2741758196465,0.026445129598244,0.003449,0.000005,0.003788,0.143878,0.060884,330.796089,22.220103,0.998749,0.975627,0.006081,0.413175,-0.000020,-0.000049,0.000046,0.000014,-0.000082,36.259239,0.000088,
2371,2128,2.55147228205928,-11.2964844813963,0.0113633746933033,0.004123,0.000819,-0.003403,0.201060,0.060238,329.231202,22.759436,0.999340,0.981897,0.005234,0.439155,-0.000023,-0.000032,0.000026,-0.000001,-0.000054,40.158670,0.000063,
2446,2353,4.14475042829882,-6.36807601975119,0.0078458869539304,0.003949,0.000133,-0.001966,0.188262,0.031405,325.647722,23.113810,0.999454,0.982888,0.005111,0.441233,0.000003,0.000014,0.000000,0.000014,0.000003,88.187127,0.000018,
2431,2533,3.78094709229436,-2.43194244595225,-0.00501173612150296,0.004273,0.000338,-0.002968,0.207101,0.037295,322.611846,23.822934,0.999339,0.988006,0.004377,0.408385,-0.000007,-0.000027,-0.000011,-0.000003,-0.000032,-23.320655,0.000039,
2371,2293,2.52030765396472,-7.68159726250076,0.021480252937863,0.004132,0.000039,0.002540,0.180355,0.048480,326.630867,23.316483,0.999774,0.994459,0.003422,0.349638,-0.000022,-0.000003,-0.000005,-0.000002,-0.000023,-76.294715,0.000028,
2446,2773,4.05736112878755,2.80427946449154,-0.0334661954651665,0.004029,0.000289,-0.001625,0.191297,0.043238,318.478018,24.548858,0.999573,0.989330,0.004120,0.506015,-0.000024,0.000013,-0.000014,0.000018,-0.000029,-70.986085,0.000029,
2446,2578,4.09687570678322,-1.44661725055524,-0.0269774651328589,0.004527,-0.000204,0.004592,0.190548,0.067662,321.705957,23.963874,0.999663,0.991953,0.003874,0.431305,-0.000011,0.000004,-0.000014,0.000012,-0.000019,-58.876218,0.000020,
2401,1993,3.23505221191676,-14.2636544924403,0.0378180392709169,0.003999,0.000252,-0.001536,0.188449,0.036144,331.640754,22.203206,0.998714,0.969740,0.006621,0.357001,-0.000007,-0.000051,0.000028,0.000007,-0.000064,25.813747,0.000071,
2356,2098,2.22922053471162,-11.9537013048478,0.0129359989505815,0.004153,0.000123,0.001762,0.183944,0.042974,329.704138,22.850652,0.999417,0.981374,0.005213,0.333217,-0.000017,-0.000013,0.000040,0.000026,-0.000055,46.503855,0.000055,
2416,2263,3.50841040945289,-8.33779001039176,0.0154112677119542,0.004443,0.000596,0.001575,0.197972,0.068469,327.125931,23.015682,0.999239,0.984162,0.004965,0.384398,-0.000012,-0.000041,-0.000011,-0.000009,-0.000045,-18.252656,0.000058,
2431,2983,3.69076039414032,7.37095879606694,-0.00341461837518864,0.003567,0.000429,0.002044,0.156780,0.069740,315.240286,25.259066,0.999690,0.991737,0.003598,0.508105,-0.000028,0.000025,-0.000007,0.000026,-0.000029,-82.406607,0.000032,
2446,2128,4.19125127187445,-11.2988978837466,0.0220786097170844,0.004138,0.000458,-0.002409,0.198422,0.041166,329.415159,22.350921,0.999442,0.979201,0.005750,0.394639,0.000003,-0.000054,0.000027,0.000014,-0.000065,21.912761,0.000068,
2386,2158,2.87311437406665,-10.6380802377889,0.0101594713223108,0.004047,0.000374,-0.002146,0.193072,0.023386,328.739636,22.857391,0.999261,0.980256,0.005404,0.310104,-0.000019,-0.000048,0.000014,-0.000014,-0.000054,22.184848,0.000072,
2431,2233,3.84178649467324,-8.99595613393554,0.0175314491835934,0.003869,0.000243,-0.001437,0.182517,0.018556,327.637119,22.833012,0.999279,0.982932,0.005168,0.345474,-0.000010,-0.000034,-0.000003,-0.000010,-0.000035,-6.764986,0.000046,
2371,3223,2.34264854272107,12.5752151816076,0.0268846276594559,0.003994,0.000237,0.002222,0.176315,0.059989,311.526889,25.783722,0.999535,0.993365,0.003330,0.453385,0.000000,0.000018,-0.000005,0.000020,-0.000001,-76.009465,0.000022,
2446,2368,4.14156343785733,-6.03927631422093,0.00374947636873912,0.004115,-0.000002,-0.001859,0.195424,0.014727,325.377536,23.199685,0.999502,0.985773,0.004801,0.392783,0.000007,0.000022,0.000011,0.000027,0.000002,61.896787,0.000033,
2386,2353,2.83459765690973,-6.36786966017382,-0.000201798434261491,0.004040,0.000308,-0.000799,0.188144,0.045748,325.497353,23.288558,0.998790,0.982764,0.005206,0.494731,-0.000014,0.000001,0.000008,0.000004,-0.000017,66.894018,0.000018,
2356,3163,2.0286988515211,11.2723965477607,0.029405933214889,0.003988,0.000662,-0.000182,0.184697,0.071372,312.537613,25.561339,0.999515,0.991984,0.003810,0.461279,-0.000011,0.000025,-0.000006,0.000026,-0.000012,-81.389578,0.000026,
2401,2413,3.15047318706792,-5.05418090864763,-0.00606225706491159,0.004497,0.000782,-0.004160,0.221553,0.059896,324.523540,23.484747,0.999532,0.986709,0.004530,0.448340,-0.000011,0.000003,0.000012,0.000010,-0.000017,60.667598,0.000017,
2431,2338,3.8200227025399,-6.69522941577536,0.00365590799827942,0.004330,-0.000088,0.001634,0.192296,0.044054,325.831821,23.169120,0.999112,0.984093,0.004748,0.400460,-0.000008,-0.000005,0.000001,-0.000004,-0.000009,71.042643,0.000013,
2446,3013,4.0120668555776,8.02488954818937,-0.00364823370716749,0.004268,0.000699,-0.001608,0.202652,0.068686,314.818119,25.476669,0.999127,0.986740,0.004241,0.432392,-0.000027,0.000027,-0.000001,0.000027,-0.000027,-88.886886,0.000031,
2431,2743,3.73775760589529,2.14980542508054,-0.0227381457206093,0.004447,0.000149,0.000548,0.202316,0.052599,319.041922,24.492914,0.999581,0.991225,0.003740,0.462198,-0.000024,0.000026,-0.000012,0.000029,-0.000027,-76.963863,0.000032,
2416,2053,3.55062026621559,-12.9449097205405,0.0301415204720001,0.004089,0.000163,0.000640,0.184702,0.046592,330.626058,22.314595,0.998696,0.976282,0.006073,0.355170,-0.000019,-0.000042,0.000041,0.000012,-0.000073,36.914563,0.000078,
2341,3133,1.7082522125111,10.6206300225098,0.0208929841990653,0.004374,0.000384,0.000393,0.200306,0.048730,312.974906,25.435465,0.999491,0.992884,0.003524,0.426874,-0.000012,0.000024,-0.000012,0.000028,-0.000015,-73.358510,0.000028,
2431,3208,3.64940842867073,12.2553790810261,0.0255408292449033,0.004290,0.000484,-0.000052,0.197967,0.051187,311.837877,26.041543,0.999641,0.990206,0.003856,0.440617,-0.000001,0.000025,-0.000002,0.000025,-0.000001,-84.912549,0.000028,
2356,2233,2.20344723979379,-8.99413722362694,0.00430468772788117,0.004154,0.000505,-0.003271,0.201978,0.052732,327.472759,23.145883,0.998026,0.976966,0.006124,0.422700,-0.000034,-0.000026,0.000002,-0.000026,-0.000034,76.966880,0.000060,
2431,2548,3.77817486881653,-2.10467965750966,0.00239373281345934,0.004192,0.000194,0.000928,0.188989,0.048128,322.411875,23.905881,0.999647,0.990681,0.003880,0.387068,-0.000009,-0.000025,-0.000011,-0.000003,-0.000031,-26.776302,0.000037,
2416,2488,3.46189374714277,-3.4150745556835,-0.0153361714610583,0.004300,0.000224,-0.002485,0.206359,0.026853,323.233297,23.621349,0.999399,0.987444,0.004403,0.480158,-0.000006,-0.000027,-0.000001,-0.000006,-0.000027,-3.514784,0.000036,
2446,3253,3.96598306659848,13.2339473039602,0.0209199818046386,0.004019,0.001030,-0.002802,0.196152,0.087606,311.081949,26.300344,0.999783,0.994460,0.003012,0.444336,0.000000,0.000023,0.000001,0.000023,0.000000,88.392427,0.000026,
2446,2593,4.09365987760481,-1.1201037155951,-0.0282084542797065,0.004080,0.000075,0.000611,0.185007,0.047919,321.446788,23.948239,0.999715,0.992759,0.003744,0.480177,-0.000012,0.000006,-0.000011,0.000011,-0.000017,-64.607833,0.000017,
2446,2788,4.05486129994773,3.13116573508147,-0.0310371854533287,0.004253,0.000612,-0.002565,0.205214,0.044952,318.267516,24.635528,0.999534,0.989491,0.004001,0.473164,-0.000027,0.000004,-0.000021,0.000015,-0.000038,-63.712690,0.000038,
2401,2008,3.23192252782569,-13.9322011517017,0.0247642291429884,0.004416,0.000999,-0.006799,0.226828,0.029019,331.328474,22.282824,0.998511,0.968187,0.006743,0.319783,-0.000009,-0.000037,0.000041,0.000021,-0.000066,35.662827,0.000068,
2401,2188,3.1954567966173,-9.98180854764742,0.0186748477048582,0.003926,0.000377,-0.001307,0.184608,0.047007,328.333033,22.824940,0.999195,0.984232,0.005042,0.380247,-0.000020,-0.000030,0.000007,-0.000017,-0.000033,27.490303,0.000051,
2326,3073,1.39273926412168,9.31869575682983,0.0111506503919827,0.004226,0.000537,0.001023,0.191430,0.073856,313.871522,25.297125,0.999733,0.995412,0.002806,0.394640,-0.000019,0.000018,-0.000003,0.000018,-0.000020,-85.633302,0.000022,
2371,2143,2.54879516955909,-10.9670129975926,0.0121689097059061,0.004260,0.000708,-0.003289,0.206929,0.067295,329.001558,22.852079,0.999173,0.979746,0.005476,0.397530,-0.000025,-0.000034,0.000022,-0.000008,-0.000052,39.184039,0.000065,
2431,2998,3.68876444662514,7.69751414547971,0.00220005542871604,0.004211,0.000389,0.003497,0.181004,0.076257,315.065846,25.387522,0.999370,0.985635,0.004457,0.435194,-0.000027,0.000022,-0.000002,0.000022,-0.000027,-87.931805,0.000029,
2446,2383,4.1384978618637,-5.71003969855249,0.00219323781260528,0.004216,0.000477,-0.001483,0.198909,0.056100,325.124220,23.297665,0.999783,0.988657,0.004419,0.390269,0.000016,0.000013,0.000003,0.000018,0.000011,30.506985,0.000029,
2371,2308,2.51683940817803,-7.35257163767093,0.00894885109164534,0.004422,0.000373,0.001525,0.197386,0.060195,326.300782,23.287136,0.999854,0.995725,0.003008,0.434460,-0.000021,-0.000005,-0.000003,-0.000004,-0.000022,-79.188149,0.000028,
2431,3223,3.64657737441533,12.5809636669681,0.0284352730705564,0.004310,0.000408,0.001321,0.193799,0.054798,311.611569,26.119513,0.999571,0.991406,0.003712,0.414810,-0.000001,0.000018,-0.000003,0.000019,-0.000001,-80.496308,0.000021,
2386,2173,2.86999463099341,-10.3098644539433,0.00544800008890434,0.004125,0.000534,-0.002839,0.199209,0.035545,328.464874,22.782629,0.999376,0.983593,0.005158,0.443368,-0.000024,-0.000042,0.000014,-0.000017,-0.000049,28.140423,0.000069,
2416,2278,3.50477876835237,-8.00953754638761,0.00925290712820015,0.004269,-0.000076,0.001753,0.189113,0.038386,326.823551,23.010842,0.999278,0.984759,0.004840,0.409345,-0.000009,-0.000020,-0.000008,-0.000004,-0.000025,-28.400215,0.000031,
2401,2428,3.14735866553105,-4.72666829780872,-0.0057557732673672,0.004399,0.000382,-0.002639,0.211424,0.044671,324.273132,23.514557,0.999534,0.986134,0.004554,0.450319,-0.000012,0.000009,0.000010,0.000013,-0.000015,68.831147,0.000017,
2431,2353,3.81701145795781,-6.36650097826364,-0.003543879111362,0.004427,0.000305,-0.003944,0.217490,0.038018,325.553986,23.202231,0.999097,0.983359,0.004963,0.413195,-0.000003,0.000009,0.000004,0.000010,-0.000004,75.417364,0.000010,
2461,2173,4.50942588367592,-10.3103076523186,0.0111265236060376,0.004724,0.000329,0.001466,0.210785,0.040379,328.641308,22.476966,0.999080,0.979296,0.005468,0.353147,0.000008,-0.000046,0.000006,0.000009,-0.000047,6.115389,0.000050,
2446,2143,4.187525740451,-10.9684567465625,0.00717951007942474,0.004378,0.000497,-0.005686,0.221587,0.020384,329.071798,22.391190,0.999266,0.978858,0.005800,0.389087,0.000002,-0.000049,0.000021,0.000009,-0.000056,19.697019,0.000061,
2341,3148,1.70608964119038,10.9459480037431,0.0265064540587332,0.004628,0.000334,0.000583,0.211339,0.046373,312.787313,25.492158,0.999528,0.993789,0.003437,0.403259,-0.000011,0.000023,-0.000010,0.000025,-0.000013,-74.993394,0.000025,
2371,3238,2.33986956442581,12.9011627218742,0.0239480583967406,0.004180,0.000819,0.000384,0.191689,0.080716,311.271030,25.847818,0.999719,0.994345,0.003031,0.449721,0.000002,0.000016,-0.000002,0.000016,0.000002,-81.651045,0.000019,
2386,2368,2.83097487250607,-6.0385399389703,-0.00556990762106579,0.004022,0.000055,0.002788,0.174402,0.056785,325.195421,23.382914,0.998848,0.983647,0.005052,0.456751,-0.000011,0.000009,0.000014,0.000016,-0.000018,62.884038,0.000020,
2446,3268,3.96135108963232,13.5599534405299,0.000635380710718891,0.004067,0.000887,-0.002470,0.197040,0.076705,310.665851,26.315322,0.999750,0.994134,0.003086,0.469279,0.000007,0.000016,0.000002,0.000017,0.000007,77.119757,0.000024,
2446,3028,4.0096748086162,8.35058313863253,0.00381334984916748,0.004285,0.000492,-0.001350,0.202425,0.060364,314.634993,25.560523,0.999410,0.988844,0.004018,0.391211,-0.000028,0.000033,-0.000005,0.000033,-0.000028,-85.528500,0.000036,
2356,3178,2.02609420428482,11.5978665974475,0.0306552532262572,0.004197,0.000694,0.000537,0.191772,0.064096,312.309287,25.617701,0.999551,0.992860,0.003596,0.435353,-0.000007,0.000027,-0.000006,0.000028,-0.000008,-80.453174,0.000029,
2446,2398,4.134565984855,-5.38172425816673,-0.00647716938851772,0.004094,0.000450,-0.000276,0.188818,0.055538,324.798653,23.290473,0.999710,0.987854,0.004554,0.451231,0.000017,0.000006,0.000007,0.000021,0.000002,25.715417,0.000025,
2431,3238,3.64244551882645,12.9068105407123,0.0191701948995728,0.003938,0.000640,0.001793,0.175060,0.067873,311.268445,26.147030,0.999597,0.992729,0.003487,0.449310,0.000001,0.000019,-0.000001,0.000019,0.000001,-88.224506,0.000022,
2356,2248,2.20001522624586,-8.6655293214147,0.00547990703779533,0.003891,0.000209,0.002223,0.170538,0.066577,327.208722,23.193810,0.998922,0.982173,0.005358,0.430043,-0.000032,-0.000036,0.000003,-0.000031,-0.000037,24.317518,0.000068,
2431,2758,3.7347306196474,2.47687377478142,-0.0230416336542589,0.004325,0.000509,-0.000590,0.201120,0.065929,318.793508,24.553682,0.999545,0.989923,0.003904,0.464866,-0.000018,0.000022,-0.000008,0.000024,-0.000020,-78.656138,0.000026,
2416,2068,3.54709952452972,-12.6149525050974,0.0242539257133672,0.003908,0.000597,-0.000384,0.180328,0.078161,330.330586,22.325210,0.998744,0.977494,0.006122,0.427620,-0.000018,-0.000027,0.000044,0.000022,-0.000067,42.034580,0.000068,
2446,2608,4.09192347918248,-0.793527848967777,-0.0143545613738638,0.004501,-0.000429,0.004114,0.191085,0.044605,321.324924,24.056308,0.999467,0.988701,0.004201,0.421285,-0.000014,0.000007,-0.000015,0.000015,-0.000022,-62.375576,0.000022,
2446,2803,4.05172859612351,3.45872018154473,-0.034430889793498,0.004304,0.000586,-0.003762,0.212052,0.050299,318.000809,24.739430,0.999633,0.990899,0.003729,0.426975,-0.000026,-0.000001,-0.000023,0.000013,-0.000040,-59.247302,0.000041,
2431,2563,3.77497401564311,-1.77686928717289,-0.00333738387797666,0.004587,0.000143,0.002867,0.199969,0.060117,322.131141,23.925965,0.999514,0.989674,0.004077,0.430086,-0.000016,-0.000009,-0.000012,0.000000,-0.000025,-52.627388,0.000028,
2461,2188,4.50532566673879,-9.9795821061272,-0.00862108489553748,0.004721,0.000816,-0.005505,0.236999,0.032500,328.260104,22.499334,0.999624,0.988336,0.004566,0.380672,0.000018,-0.000036,0.000003,0.000018,-0.000036,3.012656,0.000036,
2431,2368,3.81388158587865,-6.03864818936996,0.00108045660675771,0.003907,0.000504,-0.003821,0.193322,0.028816,325.325506,23.279349,0.999121,0.984143,0.004876,0.378682,0.000001,0.000016,0.000013,0.000023,-0.000006,60.585971,0.000024,
2371,2158,2.54634718043215,-10.6386322638202,0.0184705436109311,0.004402,0.000353,-0.000503,0.203425,0.046321,328.808786,22.937077,0.999446,0.982354,0.005294,0.335172,-0.000028,-0.000046,0.000014,-0.000020,-0.000054,28.592514,0.000076,
2401,2023,3.22817051073904,-13.602482827312,0.0204481834712738,0.004155,0.000867,-0.003924,0.204494,0.034844,331.028630,22.297677,0.998629,0.972173,0.006428,0.360398,-0.000007,-0.000034,0.000040,0.000021,-0.000063,35.819714,0.000064,
2401,2203,3.19278969589582,-9.65338617402836,0.0171361816841795,0.004211,0.000742,-0.002371,0.201651,0.060421,328.095211,22.811743,0.999067,0.982587,0.005305,0.455073,-0.000022,-0.000032,0.000002,-0.000021,-0.000033,12.594681,0.000055,
2401,2443,3.14451998728276,-4.39922565475663,0.00051565730063885,0.004214,0.000241,0.000272,0.192372,0.065503,324.063246,23.562668,0.999459,0.987411,0.004542,0.469945,-0.000008,-0.000022,0.000006,-0.000005,-0.000024,21.710239,0.000031,
2416,2503,3.45822886051694,-3.08619626641628,-0.0212149181592167,0.004305,0.000217,0.000575,0.195473,0.042248,322.929243,23.714882,0.999561,0.990350,0.004013,0.450961,-0.000008,-0.000019,-0.000004,-0.000007,-0.000020,-18.562357,0.000028,
2371,3253,2.33684776498824,13.2263769425885,0.0173008954606644,0.004554,0.000636,0.000369,0.208887,0.068906,310.986351,25.860207,0.999687,0.993605,0.003169,0.465435,0.000004,0.000017,0.000002,0.000018,0.000004,79.668167,0.000023,
2446,3283,3.95766331283334,13.8856417349392,-0.00674814285383718,0.004139,0.000683,-0.000508,0.192897,0.061413,310.353010,26.382033,0.999748,0.993394,0.003229,0.437760,0.000025,0.000003,0.000006,0.000027,0.000001,14.901172,0.000032,
2326,3088,1.39043212621296,9.64271029602215,0.0159217595155496,0.004298,0.000464,0.000235,0.197423,0.062891,313.672875,25.223246,0.999634,0.994890,0.003040,0.490979,-0.000015,0.000015,-0.000013,0.000020,-0.000020,-69.384155,0.000023,
2446,2818,4.04913653021178,3.78396430352242,-0.0298695653036702,0.004307,0.000772,-0.004047,0.213344,0.063458,317.796122,24.688486,0.999541,0.990513,0.003904,0.543102,-0.000028,-0.000001,-0.000024,0.000013,-0.000042,-59.893886,0.000043,
2431,3253,3.63896718437303,13.233270896026,0.010455609095402,0.004245,0.000783,0.003102,0.184480,0.084923,310.957704,26.235257,0.999600,0.992934,0.003378,0.426636,0.000002,0.000024,0.000000,0.000024,0.000002,88.808508,0.000029,
2356,3193,2.02290034596872,11.923851633018,0.0263787705698633,0.004197,0.000640,0.000640,0.191427,0.063863,312.026876,25.685873,0.999529,0.992480,0.003576,0.404541,-0.000003,0.000026,-0.000004,0.000026,-0.000004,-82.757789,0.000028,
2416,2293,3.50166331851091,-7.68057676084818,0.00275342564520997,0.004308,0.000098,-0.002213,0.205449,0.022721,326.543020,23.058862,0.998811,0.980967,0.005501,0.395578,-0.000009,-0.000010,-0.000004,-0.000005,-0.000014,-40.876428,0.000020,
2431,3013,3.68578598704661,8.02367545382886,-0.000111247420534255,0.004029,0.000523,-0.000996,0.189328,0.067531,314.809345,25.445210,0.999332,0.987081,0.004255,0.418151,-0.000026,0.000023,-0.000004,0.000024,-0.000026,-85.250585,0.000029,
2431,2773,3.73145775421462,2.80341047894016,-0.0217896652217178,0.003992,0.000321,0.000243,0.182681,0.062303,318.541094,24.599277,0.999549,0.989804,0.003996,0.465549,-0.000021,0.000012,-0.000014,0.000017,-0.000026,-69.652264,0.000026,
2446,2413,4.13202254304482,-5.05370816457949,-0.00112913913164903,0.004095,0.000715,-0.000559,0.190056,0.080787,324.601122,23.369332,0.999709,0.988171,0.004587,0.451095,0.000008,0.000004,0.000007,0.000014,-0.000002,36.739092,0.000015,
2461,2203,4.50171581753968,-9.65092314276367,-0.0117881895533856,0.004504,0.000505,-0.004343,0.222603,0.018803,327.977031,22.520462,0.999206,0.982700,0.005222,0.402773,0.000022,-0.000047,-0.000003,0.000022,-0.000047,-2.859229,0.000047,
2431,2578,3.77215156166037,-1.44862636387825,-0.00598065029396366,0.005077,-0.000028,0.004320,0.217044,0.067534,321.881961,24.022810,0.999742,0.993273,0.003601,0.391783,-0.000015,0.000007,-0.000013,0.000013,-0.000021,-64.632149,0.000021,
2386,2188,2.86730090951383,-9.98022798755637,0.0101181959924475,0.004120,0.000433,-0.000882,0.191948,0.070259,328.253667,22.919925,0.999042,0.982788,0.005238,0.386585,-0.000020,-0.000029,0.000010,-0.000014,-0.000035,32.018141,0.000050,
2446,3043,4.00664382903517,8.67579865650299,0.00946174973262259,0.004075,0.000229,0.002168,0.179558,0.061506,314.414128,25.582074,0.999367,0.988509,0.004031,0.422198,-0.000032,0.000034,-0.000001,0.000034,-0.000032,-89.142213,0.000038,
2446,2623,4.08871297583801,-0.465909265469712,-0.0148394080493404,0.003991,0.000355,-0.000031,0.183460,0.062194,321.068975,24.119854,0.999527,0.989044,0.004063,0.428103,-0.000016,0.000012,-0.000021,0.000024,-0.000027,-61.631353,0.000029,
2416,2083,3.54509752397412,-12.285556037286,0.0268293822039141,0.004833,0.000033,0.001814,0.214480,0.038572,330.144439,22.455156,0.998549,0.977671,0.006238,0.308363,-0.000018,-0.000022,0.000043,0.000023,-0.000063,43.846987,0.000064,
2371,2323,2.5131765773529,-7.0246125000053,0.00720473621004203,0.003813,0.000143,0.002244,0.166871,0.060303,326.013327,23.285783,0.999571,0.992253,0.003791,0.479130,-0.000023,-0.000014,0.000003,-0.000013,-0.000024,72.441539,0.000038,
2401,2038,3.2251384906859,-13.2733785391052,0.0221931324844604,0.003999,0.001008,-0.002691,0.192976,0.065456,330.790014,22.305885,0.998635,0.973247,0.006302,0.431937,-0.000010,-0.000050,0.000037,0.000012,-0.000072,31.120426,0.000077,
2446,2158,4.18449938064343,-10.6400353645376,0.0151217103822887,0.004076,0.000301,-0.001200,0.191057,0.032745,328.865214,22.465361,0.999316,0.980028,0.005474,0.382194,0.000002,-0.000063,0.000012,0.000004,-0.000065,10.141648,0.000073,
2341,3163,1.70340680717178,11.2716051353229,0.0272978853647032,0.004494,0.000841,-0.002314,0.215542,0.070253,312.552125,25.528145,0.999573,0.993621,0.003525,0.426766,-0.000007,0.000027,-0.000007,0.000028,-0.000009,-78.278674,0.000029,
2401,2218,3.18953505532328,-9.32333204504237,0.0162282502629409,0.004068,0.000412,-0.001057,0.190237,0.045708,327.833301,22.987917,0.999202,0.982691,0.005445,0.312334,-0.000017,-0.000029,0.000000,-0.000017,-0.000029,1.218256,0.000047,
2386,2383,2.82838671281755,-5.71055947478058,-0.00587511076236069,0.004171,-0.000056,0.000488,0.189431,0.028788,324.965212,23.447207,0.999091,0.985089,0.004969,0.409144,-0.000005,0.000009,0.000010,0.000015,-0.000011,61.968084,0.000015,
2446,3298,3.954583795572,14.2103750854807,-0.00999898393422427,0.004300,0.000798,-0.000736,0.201198,0.063783,310.087606,26.369745,0.999734,0.994104,0.003153,0.503256,0.000036,-0.000012,0.000000,0.000036,-0.000012,-0.261641,0.000037,
2401,2458,3.14117329452923,-4.07099227853895,-0.00799154438220739,0.004498,0.000259,0.000711,0.203820,0.054350,323.760471,23.581902,0.999469,0.986810,0.004701,0.486714,-0.000010,-0.000030,0.000003,-0.000010,-0.000031,9.277644,0.000042,
2371,3268,2.33299043231014,13.5518835373105,0.00987638404171776,0.004216,0.000376,0.001146,0.190490,0.063954,310.659265,25.893243,0.999707,0.993992,0.003160,0.466959,0.000008,0.000019,0.000003,0.000020,0.000008,74.879973,0.000028,
2431,2383,3.81078582119484,-5.70952618122361,-0.00509492767093889,0.004261,0.000713,-0.004202,0.211064,0.045745,325.048229,23.346751,0.999570,0.987277,0.004540,0.379995,0.000008,0.000010,0.000006,0.000015,0.000003,48.716533,0.000020,
2356,2263,2.19726536556641,-8.33761096897194,0.00792517360508782,0.003747,0.000236,0.001742,0.165655,0.058174,326.982183,23.218791,0.999355,0.985373,0.004847,0.437537,-0.000033,-0.000039,-0.000005,-0.000030,-0.000043,-29.111015,0.000073,
2371,2173,2.5432252929877,-10.311527395868,0.0147199417463071,0.004261,0.000313,-0.002516,0.204118,0.033797,328.537322,22.794982,0.999270,0.982845,0.005233,0.508782,-0.000032,-0.000040,0.000014,-0.000022,-0.000050,36.690081,0.000074,
2416,2308,3.49941421992466,-7.35278275522925,0.00647752343058983,0.004414,0.000587,-0.005837,0.223713,0.024165,326.349898,23.091129,0.999185,0.985566,0.004748,0.414343,-0.000007,-0.000010,-0.000001,-0.000006,-0.000010,-14.907521,0.000017,
2416,2518,3.45585406284782,-2.75968874160029,-0.0130452029152934,0.004295,0.000259,0.001543,0.191535,0.059595,322.750379,23.721282,0.999367,0.988326,0.004358,0.510758,-0.000006,-0.000020,-0.000006,-0.000004,-0.000022,-19.803315,0.000028,
2431,3268,3.63526746223554,13.559267564834,-0.00153983782956857,0.004114,0.000721,-0.001547,0.195705,0.078937,310.621507,26.290603,0.999701,0.993873,0.003205,0.413918,0.000005,0.000020,0.000002,0.000020,0.000005,81.395905,0.000027,
2431,3028,3.68321358650527,8.34941563217267,0.00420792431617656,0.004102,0.000518,-0.000712,0.191656,0.065685,314.602440,25.505625,0.999449,0.988073,0.004171,0.404917,-0.000025,0.000028,-0.000007,0.000029,-0.000026,-83.073953,0.000032,
2446,2833,4.04664092431199,4.11258886677862,-0.02556918157876,0.004365,0.001079,-0.005340,0.221028,0.088860,317.593757,24.938047,0.999673,0.992492,0.003560,0.370867,-0.000026,0.000006,-0.000019,0.000015,-0.000035,-65.335017,0.000035,
2446,3058,4.00370827377553,9.00206487738366,0.00679928743460323,0.004205,0.000360,0.000333,0.192474,0.066071,314.158879,25.646252,0.999566,0.990810,0.003804,0.414014,-0.000031,0.000027,0.000000,0.000027,-0.000031,89.796413,0.000033,
2431,2788,3.72872999284129,3.13058748031221,-0.0207194305106668,0.004159,0.000365,0.000305,0.190148,0.062529,318.312676,24.702674,0.999549,0.990619,0.003889,0.412431,-0.000023,0.000006,-0.000019,0.000015,-0.000033,-63.588879,0.000033,
2461,2218,4.49945084612567,-9.3228367764063,-0.003177852692545,0.004615,0.000784,-0.003684,0.225335,0.062378,327.809011,22.560096,0.999457,0.986033,0.005011,0.463611,0.000021,-0.000043,-0.000008,0.000022,-0.000044,-7.366773,0.000044,
2461,1993,4.54723084543633,-14.2635330987021,0.0263480804982237,0.004345,0.000587,-0.003949,0.213600,0.016866,331.675807,21.838702,0.998782,0.969381,0.006514,0.275502,0.000019,-0.000065,0.000068,0.000057,-0.000103,29.100527,0.000103,
2371,3283,2.32970060720047,13.877074919259,0.00472490071837228,0.004167,0.000309,0.000626,0.190032,0.051865,310.369281,25.921350,0.999592,0.993526,0.003325,0.466236,0.000017,0.000010,0.000005,0.000019,0.000008,29.053902,0.000028,
2431,2593,3.76837259120348,-1.12295305939398,-0.00323965783019275,0.003817,0.000533,0.001600,0.169485,0.072881,321.614224,23.937916,0.999623,0.991198,0.003893,0.532821,-0.000014,0.000006,-0.000012,0.000012,-0.000019,-65.328749,0.000019,
2446,2638,4.08542920895912,-0.137635234087803,-0.0212563762051445,0.004084,0.000909,-0.001879,0.194829,0.072758,320.782152,24.205166,0.999595,0.990317,0.003921,0.406415,-0.000024,0.000018,-0.000025,0.000030,-0.000036,-64.917897,0.000038,
2386,2203,2.86454090421273,-9.65061076782101,0.0038512140547482,0.004806,0.000587,-0.000140,0.220778,0.069110,327.987818,22.981369,0.998542,0.980346,0.005583,0.370073,-0.000020,-0.000031,0.000005,-0.000017,-0.000033,21.724976,0.000051,
2326,3103,1.38818788596374,9.96829069866589,0.02026252379261,0.004506,0.000517,-0.000099,0.208222,0.072691,313.474452,25.273509,0.999482,0.994018,0.003339,0.483897,-0.000012,0.000016,-0.000014,0.000022,-0.000018,-67.127486,0.000023,
2446,2428,4.12785350351324,-4.72488973569196,-0.0117878627914365,0.004028,-0.000049,0.002125,0.176684,0.045269,324.255405,23.435863,0.999239,0.985963,0.004810,0.403033,0.000005,0.000010,0.000006,0.000014,0.000001,56.133129,0.000017,
2401,2233,3.18622698356109,-8.99490291364391,0.0136467144770336,0.003941,0.000236,-0.000333,0.181756,0.035044,327.561179,22.999647,0.999322,0.983808,0.005223,0.337938,-0.000023,-0.000025,0.000001,-0.000023,-0.000025,28.390987,0.000048,
2431,3283,3.63231350874105,13.8840324049835,-0.00192354709145093,0.004340,0.000562,0.000647,0.197931,0.076993,310.374203,26.296691,0.999777,0.994354,0.003067,0.454007,0.000015,0.000008,0.000006,0.000018,0.000005,28.948442,0.000024,
2461,2413,4.46010955277317,-5.05454493348705,0.000862131756264262,0.004637,0.000339,-0.000613,0.214925,0.061374,324.674735,23.269130,0.999573,0.986918,0.004650,0.487098,0.000017,0.000007,0.000010,0.000023,0.000000,32.221860,0.000027,
2416,2533,3.45256148510461,-2.43157904363647,-0.01334712529939,0.004104,-0.000287,0.003060,0.177014,0.033409,322.489592,23.846103,0.999285,0.988522,0.004452,0.408568,-0.000006,-0.000020,-0.000002,-0.000006,-0.000020,-7.637644,0.000027,
2356,3208,2.02026973231552,12.2486009685765,0.0289086180004006,0.004122,0.000718,-0.000700,0.192758,0.064923,311.803681,25.682567,0.999495,0.992949,0.003486,0.446298,0.000000,0.000022,-0.000003,0.000023,0.000000,-81.623451,0.000026,
2371,2338,2.51034927718036,-6.69578955289506,0.00122190599461192,0.004105,0.000107,-0.000518,0.190029,0.031452,325.743900,23.355793,0.999044,0.986191,0.004756,0.423215,-0.000020,-0.000013,0.000001,-0.000012,-0.000021,83.042110,0.000033,
2341,3178,1.70023443965499,11.59676978677,0.0264708129997189,0.004393,0.000522,0.000006,0.202695,0.068023,312.286646,25.539005,0.999596,0.994433,0.003553,0.449162,-0.000004,0.000029,-0.000008,0.000031,-0.000006,-77.707185,0.000033,
2416,2323,3.4965053670459,-7.02384638462246,0.00729162418218721,0.004548,0.000712,-0.003894,0.222864,0.060445,326.112584,23.168943,0.999025,0.983449,0.005044,0.422796,-0.000009,-0.000015,0.000008,-0.000004,-0.000021,34.694825,0.000026,
2371,3298,2.32626087047108,14.2031820697822,-0.00732448116161777,0.004426,0.000603,-0.000920,0.207629,0.062583,310.038833,25.978590,0.999574,0.993728,0.003366,0.459131,0.000019,-0.000002,0.000000,0.000019,-0.000002,-0.953527,0.000021,
2401,2053,3.22152671017635,-12.9420798435675,0.0180804300322848,0.003917,0.000487,0.000619,0.177114,0.061737,330.497335,22.488472,0.998954,0.977427,0.005996,0.294697,-0.000010,-0.000045,0.000034,0.000010,-0.000066,31.333142,0.000071,
2446,2173,4.18228558586499,-10.3109283564925,0.0208078482235123,0.004408,0.000258,-0.001235,0.206401,0.025587,328.685502,22.601777,0.999527,0.984990,0.004776,0.293213,-0.000005,-0.000044,0.000011,-0.000002,-0.000047,15.123073,0.000056,
2386,2398,2.82564853529098,-5.38388286570627,0.00185055683829205,0.003705,-0.000053,0.000411,0.168353,0.021314,324.766215,23.453612,0.999369,0.986417,0.004674,0.440239,-0.000004,0.000006,0.000013,0.000015,-0.000012,56.423548,0.000016,
2431,2608,3.76480725242893,-0.793943945176423,-0.019708668652072,0.004506,0.000215,0.000832,0.203834,0.055687,321.266546,24.020702,0.999425,0.987623,0.004388,0.483764,-0.000016,0.000006,-0.000015,0.000014,-0.000024,-62.437070,0.000024,
2431,3298,3.62849911998581,14.2091815431084,-0.00994836093354934,0.004077,0.000795,-0.000200,0.188998,0.070923,310.051356,26.305178,0.999762,0.994486,0.003013,0.487961,0.000024,-0.000008,-0.000001,0.000024,-0.000008,-2.455647,0.000024,
2401,2473,3.13870364669228,-3.74311131521618,-0.0078167364194428,0.004460,0.000663,-0.005283,0.223924,0.035112,323.538797,23.662993,0.999392,0.987909,0.004498,0.433062,-0.000015,-0.000027,0.000004,-0.000013,-0.000029,16.663016,0.000043,
2431,2803,3.72638771366709,3.45737566907511,-0.0171597926262734,0.004323,0.000432,-0.001929,0.206029,0.074163,318.113553,24.782305,0.999532,0.990319,0.003968,0.394380,-0.000022,0.000001,-0.000021,0.000014,-0.000035,-59.619455,0.000035,
2446,2653,4.08248387990956,0.189202987351649,-0.0215798553473405,0.004273,0.000666,-0.000546,0.198505,0.078330,320.539164,24.220282,0.999627,0.991448,0.003782,0.449744,-0.000034,0.000029,-0.000027,0.000039,-0.000044,-69.831811,0.000048,
2431,2398,3.80765558558163,-5.3820141821442,-0.00546194073018569,0.004367,0.000498,-0.001308,0.205206,0.066736,324.796409,23.324199,0.999717,0.987926,0.004533,0.475411,0.000007,0.000007,0.000010,0.000017,-0.000003,45.247667,0.000018,
2461,2008,4.5440081446853,-13.9341923789513,0.0293280534683049,0.004165,0.000425,-0.000941,0.194034,0.038149,331.439277,21.881182,0.998937,0.973418,0.006160,0.312423,0.000023,-0.000058,0.000080,0.000072,-0.000107,31.545865,0.000109,
2416,2098,3.54124415171336,-11.9560654456561,0.0169615345446346,0.004403,0.000373,-0.002113,0.209239,0.043035,329.815229,22.418684,0.998981,0.977829,0.006052,0.400936,-0.000023,-0.000031,0.000030,0.000003,-0.000057,41.138277,0.000064,
2416,2548,3.4494869017048,-2.10365988974212,-0.0204743865909904,0.004370,0.000051,0.000844,0.197481,0.046686,322.206769,23.858218,0.999359,0.988539,0.004349,0.458531,-0.000007,-0.000018,-0.000004,-0.000006,-0.000020,-17.677583,0.000026,
2461,2653,4.40915132474632,0.189808647644007,-0.0223358234102875,0.004107,0.000431,-0.000268,0.189720,0.066544,320.554702,24.221960,0.999605,0.990119,0.003882,0.427324,-0.000040,0.000026,-0.000027,0.000036,-0.000050,-70.302807,0.000052,
2386,1993,2.9066572846539,-14.2628352389882,0.0390213199348182,0.003752,0.000374,0.001072,0.167829,0.068582,331.614209,22.325478,0.998754,0.962918,0.007148,0.374000,-0.000010,-0.000045,0.000033,0.000010,-0.000065,31.095215,0.000071,
2356,2278,2.1934690105103,-8.00731562325962,-0.00928277534541166,0.003847,0.000700,-0.001761,0.182746,0.058725,326.612900,23.258082,0.999464,0.989246,0.004296,0.440661,-0.000031,-0.000022,-0.000009,-0.000017,-0.000036,-57.907606,0.000054,
2401,2248,3.18269781872085,-8.66662598114053,0.00714655892858218,0.003879,0.000482,0.000163,0.177261,0.073402,327.260248,22.913856,0.999390,0.983528,0.005083,0.510387,-0.000024,-0.000037,-0.000002,-0.000023,-0.000037,-8.087567,0.000061,
2431,3043,3.68008318306788,8.6749803477301,0.00396070446720387,0.004209,0.000152,0.002324,0.185235,0.060593,314.348571,25.526663,0.999520,0.989635,0.003959,0.427961,-0.000028,0.000029,-0.000003,0.000029,-0.000028,-87.200894,0.000033,
2461,2848,4.36889161164126,4.43910031187108,-0.0343808865455912,0.004267,0.000190,0.000885,0.192878,0.058170,317.277573,24.897719,0.999751,0.993449,0.003284,0.452732,-0.000035,0.000019,-0.000027,0.000030,-0.000046,-67.731904,0.000047,
2461,2233,4.49595118738317,-8.99448384743252,0.0069710982216975,0.003687,0.000204,0.000777,0.165925,0.051495,327.591529,22.698743,0.999205,0.981792,0.005349,0.370824,0.000015,-0.000046,-0.000008,0.000016,-0.000047,-7.405969,0.000048,
2461,2428,4.45619138433461,-4.72611295821918,-0.00526214887872811,0.004483,0.000188,0.002127,0.197531,0.056381,324.362772,23.312493,0.999383,0.985228,0.004801,0.494864,0.000012,0.000012,0.000009,0.000021,0.000003,45.477246,0.000026,
2446,2848,4.04424587325707,4.43653074684392,-0.0134743271457864,0.004313,0.000690,-0.001127,0.202790,0.082863,317.433111,24.850267,0.999626,0.991914,0.003552,0.504534,-0.000028,0.000017,-0.000027,0.000029,-0.000040,-64.931291,0.000042,
2446,2443,4.1260120974893,-4.39854692602065,-0.00121391962937878,0.004170,0.000214,0.000333,0.189998,0.052315,324.114318,23.438004,0.998481,0.983584,0.005148,0.461325,0.000010,-0.000029,0.000003,0.000010,-0.000029,3.776710,0.000030,
2446,1993,4.21795163085802,-14.2625538856799,0.0215942859112488,0.003846,0.000100,-0.001778,0.182408,-0.000806,331.571864,21.957142,0.999328,0.976979,0.005725,0.246693,-0.000015,-0.000056,0.000058,0.000026,-0.000097,35.206463,0.000100,
2446,3073,4.00050098892051,9.32744082917657,0.00392918112731877,0.004391,0.000206,0.002344,0.193409,0.053181,313.890349,25.648924,0.999698,0.993563,0.003372,0.449628,-0.000028,0.000021,0.000005,0.000021,-0.000029,84.203779,0.000030,
2446,2188,4.17873538592502,-9.98189720351998,0.0201108622651986,0.003924,0.000672,-0.001191,0.184254,0.061366,328.414950,22.625784,0.999609,0.986786,0.004610,0.360212,0.000003,-0.000034,0.000009,0.000005,-0.000036,12.746854,0.000039,
2371,2353,2.50819338399565,-6.3682215023593,0.00205533303295624,0.004461,0.000498,-0.004133,0.219355,0.037953,325.537748,23.348153,0.999020,0.985921,0.004799,0.480397,-0.000017,-0.000001,0.000005,0.000000,-0.000019,74.366828,0.000022,
2431,2623,3.76119757073537,-0.466583870840772,-0.0228270087160354,0.004094,-0.000125,0.000447,0.186260,0.046542,320.978958,24.065050,0.999479,0.988989,0.004138,0.481106,-0.000019,0.000012,-0.000021,0.000023,-0.000030,-62.994310,0.000031,
2401,2068,3.21768341154816,-12.612833932471,0.00646631939491726,0.003758,0.000622,-0.001287,0.176752,0.069878,330.158882,22.394826,0.999283,0.980957,0.005835,0.445943,-0.000011,-0.000031,0.000040,0.000020,-0.000062,37.945648,0.000063,
2386,2218,2.86215964377476,-9.32314565731442,0.0104007746937214,0.004577,0.000276,-0.002955,0.220271,0.025991,327.800326,23.027597,0.998857,0.980822,0.005645,0.326156,-0.000014,-0.000027,0.000003,-0.000014,-0.000028,13.920092,0.000042,
2446,2668,4.07981237219127,0.515903227740687,-0.0191353029284187,0.004336,0.000707,-0.001337,0.204394,0.092404,320.321448,24.241894,0.999493,0.989646,0.004058,0.495047,-0.000035,0.000034,-0.000025,0.000042,-0.000043,-72.253245,0.000050,
2416,2338,3.49309846524988,-6.69475389745097,0.00504555602594792,0.004412,0.000791,-0.002176,0.210440,0.072978,325.838159,23.259718,0.998926,0.982973,0.004998,0.394380,-0.000008,-0.000010,0.000005,-0.000004,-0.000015,41.011955,0.000019,
2386,2008,2.90364651458488,-13.9317488601748,0.0291343546651888,0.004266,0.000277,-0.000902,0.198369,0.052919,331.320625,22.415956,0.998713,0.972377,0.006276,0.315084,-0.000013,-0.000033,0.000043,0.000021,-0.000067,38.523985,0.000069,
2356,3223,2.01705694446693,12.5742465461932,0.0270590125882677,0.003998,0.000599,0.000455,0.183001,0.074439,311.532130,25.731948,0.999492,0.992806,0.003419,0.443852,0.000002,0.000022,-0.000003,0.000023,0.000001,-80.738505,0.000027,
2401,2488,3.1355159098689,-3.41528281005817,-0.00655687167181895,0.004417,0.000145,-0.001243,0.207195,0.040364,323.289118,23.729751,0.999352,0.989176,0.004279,0.418189,-0.000012,-0.000028,0.000001,-0.000012,-0.000028,4.838670,0.000041,
2386,2413,2.82357504908043,-5.05549509912728,-0.00158609054074077,0.004327,0.000826,-0.005500,0.218439,0.039050,324.544435,23.489169,0.999505,0.986079,0.004581,0.467253,-0.000008,0.000003,0.000012,0.000011,-0.000016,57.859487,0.000017,
2416,2563,3.44659927427842,-1.77614224324078,-0.0224249235458274,0.004403,0.000295,-0.001436,0.207448,0.053856,321.956734,23.890978,0.999079,0.985317,0.004587,0.481616,-0.000014,-0.000006,-0.000007,-0.000001,-0.000018,-59.980766,0.000021,
2461,2668,4.40611747116604,0.51626316557153,-0.0233607043814459,0.004272,0.000449,0.000861,0.193061,0.061728,320.305650,24.211262,0.999505,0.988230,0.004128,0.488129,-0.000042,0.000031,-0.000025,0.000039,-0.000050,-72.849337,0.000052,
2446,2458,4.12292103560275,-4.07000981004017,-0.00357961689275044,0.004085,0.000783,-0.002007,0.195094,0.066948,323.855923,23.516961,0.999241,0.986440,0.004642,0.450592,0.000004,-0.000037,-0.000004,0.000005,-0.000038,-5.205385,0.000041,
2461,2443,4.45393404949021,-4.39810649693212,-0.00157690605118432,0.004760,0.000335,-0.000237,0.219190,0.046947,324.171827,23.418748,0.999153,0.985445,0.004796,0.434978,0.000015,-0.000031,0.000005,0.000016,-0.000031,5.900528,0.000031,
2431,2818,3.72278146930954,3.78332861354457,-0.0215980650395409,0.004114,0.000397,-0.001059,0.193217,0.067060,317.819298,24.746996,0.999516,0.991190,0.003920,0.472451,-0.000026,0.000002,-0.000022,0.000014,-0.000038,-60.959125,0.000039,
2416,2113,3.53899758862361,-11.6278218755517,0.0265401318759473,0.004197,0.000879,-0.003798,0.206196,0.052123,329.650199,22.482132,0.999166,0.978446,0.005804,0.396878,-0.000023,-0.000039,0.000019,-0.000010,-0.000052,33.946407,0.000067,
2461,2863,4.36618881360185,4.76540856661974,-0.0286295882818877,0.004024,0.000560,-0.000180,0.185916,0.074196,317.073729,24.962947,0.999513,0.991533,0.003623,0.457481,-0.000035,0.000030,-0.000024,0.000038,-0.000043,-71.633970,0.000047,
2461,2023,4.54103896061467,-13.6036793524428,0.0229912952538029,0.004517,0.000561,-0.003965,0.221501,0.034735,331.171973,21.954945,0.999220,0.978627,0.005594,0.293444,0.000030,-0.000054,0.000068,0.000067,-0.000092,29.078031,0.000095,
2401,2263,3.17934531329832,-8.33589051879361,-0.00271000555414957,0.004236,0.000151,0.000019,0.194021,0.058025,326.951512,23.078361,0.999394,0.986540,0.004602,0.378376,-0.000023,-0.000037,-0.000010,-0.000018,-0.000042,-26.441566,0.000062,
2446,2008,4.21575659949898,-13.9355716050919,0.0327371057377377,0.003807,-0.000066,-0.000867,0.177180,0.023804,331.418713,21.874181,0.999205,0.976942,0.005912,0.409660,-0.000011,-0.000045,0.000069,0.000043,-0.000099,38.142012,0.000099,
2446,2203,4.17512533650319,-9.65296340543918,0.0149134422213137,0.003841,0.000745,0.000001,0.176060,0.084106,328.120995,22.612165,0.999611,0.985842,0.004726,0.451810,0.000006,-0.000044,0.000004,0.000006,-0.000044,5.013778,0.000048,
2446,2863,4.04133279839568,4.76235827309306,-0.00808286788651458,0.004072,0.000556,0.000290,0.186337,0.069933,317.217193,24.895920,0.999752,0.993549,0.003254,0.497784,-0.000030,0.000026,-0.000025,0.000036,-0.000039,-69.272771,0.000043,
2461,3088,4.32346328620205,9.65495138515613,0.00636681928887128,0.004061,0.000489,0.003734,0.173080,0.082859,313.673459,25.788958,0.999631,0.994339,0.003390,0.446292,-0.000028,0.000020,0.000014,0.000024,-0.000032,74.381701,0.000033,
2431,2413,3.80442744393313,-5.05442709279063,-0.00469778666791854,0.004199,0.000261,0.000508,0.190723,0.074861,324.545305,23.337194,0.999623,0.987818,0.004543,0.521954,-0.000001,0.000005,0.000009,0.000011,-0.000007,54.982281,0.000011,
2401,2083,3.21671781045582,-12.2847132930716,0.0216168966678651,0.004478,0.000556,-0.001687,0.211161,0.048974,330.077964,22.529336,0.998947,0.977172,0.006071,0.338387,-0.000013,-0.000024,0.000040,0.000022,-0.000059,41.047820,0.000060,
2431,3058,3.67711735795461,9.00151717453442,0.0020195173788693,0.004120,0.000406,-0.000835,0.192905,0.059728,314.094028,25.626128,0.999670,0.991127,0.003789,0.376517,-0.000027,0.000021,-0.000001,0.000022,-0.000027,-88.805273,0.000028,
2446,3088,3.99865201296159,9.65349852941479,0.015209965853785,0.004583,0.000501,0.001900,0.204138,0.088781,313.749478,25.760209,0.999695,0.993741,0.003387,0.425283,-0.000027,0.000018,0.000008,0.000019,-0.000028,80.342794,0.000029,
2461,2248,4.49404034249794,-8.66698230952496,0.0108330877799858,0.004256,0.000174,-0.002015,0.202452,0.028877,327.418360,22.710172,0.999056,0.979261,0.005428,0.393145,0.000013,-0.000059,-0.000010,0.000014,-0.000061,-8.047796,0.000063,
2416,2353,3.48988911262794,-6.36601273397948,-0.00106208518701578,0.004421,0.001231,-0.004920,0.221051,0.090409,325.554739,23.281033,0.998701,0.982314,0.005118,0.440185,-0.000003,0.000003,0.000009,0.000009,-0.000009,55.442351,0.000011,
2446,2473,4.12006740583555,-3.74236252089424,-0.000547834770486588,0.004083,0.000344,-0.000876,0.190596,0.046666,323.633438,23.604301,0.999563,0.988407,0.004300,0.396215,-0.000007,-0.000032,-0.000006,-0.000006,-0.000034,-12.381631,0.000043,
2446,2023,4.21307780782092,-13.6045471236971,0.0277166539432301,0.004370,0.000301,-0.003194,0.211699,0.026698,331.169143,22.002716,0.999233,0.979564,0.005431,0.339703,-0.000004,-0.000040,0.000060,0.000040,-0.000084,36.427141,0.000084,
2371,2368,2.5043704554795,-6.03867848762069,-0.0018279843319533,0.004262,0.000548,0.001650,0.189792,0.077836,325.232150,23.447345,0.998710,0.984666,0.004932,0.464126,-0.000015,0.000009,0.000011,0.000013,-0.000019,68.453892,0.000019,
2461,2038,4.53753343488751,-13.2743810831471,0.0244642026908082,0.004114,0.000759,-0.001686,0.194644,0.059765,330.915457,21.983826,0.999297,0.980044,0.005537,0.347687,0.000025,-0.000073,0.000060,0.000054,-0.000102,25.404438,0.000102,
2431,2638,3.75822012753911,-0.139209971960533,-0.021809106847229,0.004126,0.000182,0.001907,0.182439,0.051870,320.739494,24.136218,0.999594,0.990720,0.003953,0.465820,-0.000026,0.000019,-0.000025,0.000030,-0.000037,-66.304408,0.000040,
2386,2428,2.82068409392136,-4.72761388947368,0.00188536988582655,0.004392,0.000252,-0.001280,0.206113,0.047093,324.317921,23.558829,0.999516,0.988503,0.004381,0.450311,-0.000009,0.000010,0.000011,0.000015,-0.000014,65.614931,0.000017,
2416,2128,3.53459719526834,-11.2961400200536,0.0124581427145927,0.004076,0.000743,-0.001515,0.192281,0.071696,329.275870,22.597298,0.999305,0.980658,0.005517,0.352778,-0.000017,-0.000040,0.000019,-0.000006,-0.000051,29.862587,0.000063,
2446,2878,4.03747971785906,5.08967007991906,-0.0175178278918224,0.004132,0.000079,0.001992,0.182592,0.059068,316.889160,24.970937,0.999520,0.992316,0.003545,0.463886,-0.000032,0.000030,-0.000020,0.000036,-0.000038,-73.318028,0.000043,
2356,3238,2.01404392677601,12.8994527046003,0.0251033777130374,0.004041,0.000586,0.001094,0.182736,0.076042,311.269359,25.752093,0.999590,0.992989,0.003302,0.462852,0.000005,0.000018,0.000001,0.000018,0.000005,87.833694,0.000024,
2476,2008,4.87234789257125,-13.9343341364924,0.0233974959791112,0.004350,0.001177,-0.005978,0.221879,0.040224,331.455192,21.733158,0.999085,0.976422,0.005806,0.357962,0.000048,-0.000086,0.000093,0.000095,-0.000134,27.094610,0.000138,
2416,2578,3.44362319046679,-1.44817697554812,-0.020689795300143,0.004544,-0.000412,0.002301,0.199981,0.036228,321.719772,24.026863,0.999444,0.989246,0.004124,0.376681,-0.000013,0.000009,-0.000009,0.000012,-0.000016,-71.070014,0.000016,
2356,2293,2.19125894386178,-7.67849166772476,-0.00340401477018304,0.004438,-0.000123,0.003535,0.190963,0.033983,326.427415,23.427667,0.999638,0.993670,0.003795,0.286885,-0.000031,-0.000011,-0.000009,-0.000008,-0.000034,-69.949144,0.000045,
2446,2683,4.07631894741785,0.843384265969448,-0.0231903583269286,0.004212,0.000459,-0.000909,0.197004,0.064876,320.035872,24.327568,0.999327,0.988423,0.004184,0.434293,-0.000032,0.000042,-0.000019,0.000046,-0.000037,-76.363322,0.000049,
2446,2218,4.17205560540022,-9.32334711512532,0.0047128080414609,0.004308,0.000909,-0.003756,0.211509,0.047374,327.828978,22.674170,0.999416,0.984377,0.005005,0.407832,0.000010,-0.000039,0.000000,0.000010,-0.000039,-0.542119,0.000040,
2431,2428,3.8009624315293,-4.72523372709012,-0.00825503514948878,0.003818,0.000155,-0.001846,0.181896,0.028216,324.263189,23.516189,0.999382,0.986869,0.004705,0.347860,-0.000004,0.000012,0.000007,0.000014,-0.000006,69.243022,0.000014,
2401,2278,3.17506695336565,-8.00471372220731,-0.0185415747778279,0.003993,0.000773,-0.001912,0.190150,0.034077,326.572141,23.238050,0.999779,0.994439,0.003331,0.243106,-0.000019,-0.000018,-0.000009,-0.000009,-0.000027,-47.143735,0.000038,
2461,2458,4.45092822371301,-4.07001783697727,0.00193175328121242,0.004485,0.000724,-0.000369,0.207275,0.064128,323.945519,23.508855,0.999455,0.987053,0.004506,0.417705,0.000008,-0.000038,-0.000002,0.000008,-0.000038,-2.517249,0.000040,
2401,2503,3.13174150351081,-3.08596692880921,-0.0196464072891445,0.004402,0.000459,-0.003856,0.216078,0.035961,322.944698,23.816874,0.999508,0.989829,0.004112,0.373840,-0.000014,-0.000020,-0.000001,-0.000014,-0.000020,-7.329514,0.000034,
2461,2878,4.36287716496723,5.0923301087541,-0.0344638770210395,0.004055,0.000703,-0.002158,0.194874,0.076964,316.788605,25.016399,0.999416,0.992217,0.003614,0.461002,-0.000035,0.000034,-0.000021,0.000040,-0.000041,-74.772783,0.000047,
2386,2233,2.85910065786458,-8.99575207758673,0.0259798306208268,0.003912,-0.000594,0.006294,0.156417,0.039653,327.624171,23.108361,0.999314,0.983671,0.005382,0.304508,-0.000020,-0.000024,0.000004,-0.000017,-0.000026,30.288209,0.000044,
2461,2683,4.40242152027976,0.844405921974683,-0.0284346948229768,0.003966,0.000601,0.000128,0.181850,0.064887,320.007191,24.319127,0.999518,0.988916,0.004117,0.438328,-0.000039,0.000040,-0.000018,0.000045,-0.000043,-77.520188,0.000050,
2431,3073,3.67409463214318,9.32632843773904,0.00281807569228931,0.004072,0.000422,0.000058,0.187429,0.058113,313.850062,25.589219,0.999689,0.992455,0.003554,0.460889,-0.000024,0.000018,0.000003,0.000019,-0.000024,85.823404,0.000025,
2431,2833,3.7195537545841,4.11126593334484,-0.022354370628193,0.004020,0.000582,0.000091,0.184773,0.084405,317.558949,24.902557,0.999353,0.989673,0.004018,0.384039,-0.000028,0.000008,-0.000018,0.000015,-0.000035,-67.154524,0.000036,
2446,3103,3.99566490909847,9.97811977100587,0.0176085834064565,0.004189,0.000649,-0.000583,0.195256,0.064906,313.515533,25.745176,0.999714,0.993693,0.003420,0.467385,-0.000023,0.000017,0.000011,0.000020,-0.000026,75.523680,0.000027,
2416,2368,3.48693370464572,-6.03995207884537,0.00681202438556738,0.004149,0.000016,-0.000282,0.191173,0.034493,325.348797,23.271996,0.999071,0.984228,0.004857,0.442506,0.000001,0.000011,0.000018,0.000024,-0.000012,52.559048,0.000024,
2446,2038,4.20983381288025,-13.275266216171,0.0321768857459688,0.004003,0.000533,-0.000322,0.184405,0.057241,330.937021,22.057567,0.999193,0.979214,0.005558,0.371426,-0.000003,-0.000060,0.000057,0.000032,-0.000095,31.698730,0.000097,
2461,2263,4.49094296172172,-8.33687295992132,0.001396178014204,0.004628,0.000553,-0.006285,0.235684,0.031991,327.129687,22.803522,0.999168,0.980097,0.005383,0.359846,0.000013,-0.000050,-0.000020,0.000019,-0.000056,-16.519307,0.000057,
2446,2893,4.03339985308828,5.41705637776769,-0.0302289599068217,0.004085,-0.000064,0.001906,0.180729,0.053403,316.535438,25.029473,0.999407,0.991824,0.003770,0.451593,-0.000031,0.000022,-0.000019,0.000028,-0.000037,-71.954137,0.000039,
2461,2053,4.53496060733931,-12.9460879689489,0.0304268702637955,0.004132,0.000361,-0.001120,0.193220,0.036194,330.722368,22.024892,0.999254,0.980794,0.005449,0.340473,0.000023,-0.000058,0.000053,0.000049,-0.000084,26.347331,0.000084,
2461,3103,4.32135720615361,9.9798846371966,0.0138792125414398,0.004061,0.000636,0.000181,0.186455,0.063035,313.504445,25.831459,0.999559,0.992805,0.003570,0.437227,-0.000023,0.000017,0.000018,0.000024,-0.000030,69.265063,0.000032,
2476,2023,4.86932805034646,-13.6040193145345,0.0245957208178424,0.004384,0.001256,-0.005084,0.220063,0.056317,331.221035,21.855140,0.999412,0.981481,0.005248,0.312355,0.000053,-0.000080,0.000072,0.000084,-0.000111,23.539407,0.000116,
2446,2233,4.16939330830199,-8.99541530095099,0.0127342688646763,0.003978,0.000837,-0.003974,0.197191,0.036320,327.639270,22.751618,0.999058,0.979973,0.005496,0.373710,0.000004,-0.000039,0.000000,0.000005,-0.000039,0.204236,0.000043,
2446,2488,4.1173629980786,-3.41596757461634,0.000267213063636973,0.004249,0.000301,-0.001561,0.200766,0.035863,323.407715,23.551482,0.999511,0.986962,0.004404,0.491846,-0.000008,-0.000034,-0.000014,-0.000002,-0.000040,-23.603310,0.000047,
2416,2143,3.53185246636813,-10.9675845218686,0.00762251953045734,0.004446,0.000795,-0.004221,0.219127,0.050878,329.020874,22.573915,0.999265,0.982055,0.005120,0.406002,-0.000018,-0.000039,0.000015,-0.000010,-0.000047,27.435324,0.000061,
2446,2698,4.0720066319241,1.17143237526857,-0.0352328344044395,0.003857,0.000605,-0.001263,0.182115,0.064550,319.675561,24.378097,0.999600,0.990620,0.003911,0.436340,-0.000030,0.000053,-0.000016,0.000056,-0.000033,-79.362138,0.000056,
2461,2893,4.36033172129227,5.4186678699354,-0.0253053755430983,0.004132,0.000234,0.002099,0.182174,0.063391,316.607496,25.146528,0.999124,0.990077,0.004061,0.371155,-0.000032,0.000026,-0.000019,0.000031,-0.000038,-73.527203,0.000040,
2371,2383,2.5018256874407,-5.70987132408555,-0.00757863247389423,0.004536,0.000983,-0.004734,0.225168,0.063695,324.976530,23.520507,0.999126,0.985266,0.004864,0.419887,-0.000008,0.000010,0.000008,0.000013,-0.000011,69.972385,0.000014,
2461,2473,4.44710059232852,-3.74157437660772,-0.00679860316017766,0.004387,0.000489,-0.000668,0.203850,0.060045,323.625553,23.544334,0.999543,0.988109,0.004329,0.434305,-0.000008,-0.000032,-0.000004,-0.000007,-0.000033,-8.087211,0.000043,
2386,2443,2.81662571597492,-4.39899624735013,-0.00602932977835735,0.004254,-0.000042,0.003824,0.181380,0.059248,323.983702,23.589866,0.999305,0.989107,0.004447,0.476602,-0.000007,-0.000018,0.000009,-0.000002,-0.000023,29.052912,0.000027,
2431,2848,3.71703719598736,4.43692150665388,-0.0204903246473691,0.004208,0.000884,-0.001300,0.198658,0.095165,317.344003,24.878767,0.999329,0.988163,0.004108,0.468468,-0.000030,0.000016,-0.000026,0.000028,-0.000041,-65.754762,0.000042,
2356,3253,2.01125350844879,13.2243153664211,0.0246821209962604,0.004202,0.000361,0.001911,0.187225,0.070252,311.024328,25.760480,0.999641,0.992819,0.003313,0.486328,0.000007,0.000017,0.000007,0.000021,0.000004,63.191175,0.000026,
2431,2443,3.79785516546491,-4.39752715175763,-0.0110483256639213,0.004012,0.000127,-0.000593,0.186160,0.044917,324.000951,23.508226,0.999215,0.986191,0.004733,0.424042,0.000000,-0.000025,0.000003,0.000001,-0.000026,7.420026,0.000029,
2431,2653,3.7557778883546,0.187258790275045,-0.0164871935951965,0.004173,0.000016,0.001260,0.186990,0.062706,320.544703,24.159316,0.999563,0.990476,0.004010,0.503963,-0.000035,0.000027,-0.000024,0.000036,-0.000043,-71.059270,0.000046,
2446,3118,3.99299206718805,10.3041869224368,0.0166386952620883,0.004456,0.000923,-0.002256,0.213925,0.076563,313.279962,25.810588,0.999681,0.992365,0.003549,0.465041,-0.000021,0.000026,0.000013,0.000030,-0.000024,75.039961,0.000032,
2416,2593,3.43997385675452,-1.12087739901439,-0.0253598153406074,0.003928,0.000300,-0.001237,0.184917,0.042592,321.421935,24.026776,0.999608,0.991138,0.003838,0.431710,-0.000010,0.000007,-0.000008,0.000010,-0.000013,-69.411447,0.000014,
2461,2068,4.53250221172834,-12.617931110956,0.0374810552276585,0.004252,0.000287,0.000437,0.192857,0.044614,330.539259,22.038266,0.999148,0.981187,0.005470,0.392886,0.000022,-0.000037,0.000052,0.000053,-0.000068,30.201663,0.000071,
2476,2038,4.86620095453454,-13.275458896769,0.0255479934597247,0.004239,0.001392,-0.005063,0.213447,0.060825,330.980929,21.831312,0.999359,0.979843,0.005569,0.400723,0.000044,-0.000094,0.000061,0.000067,-0.000117,20.771925,0.000117,
2431,3088,3.67315963763194,9.6513260252102,0.0200302924901052,0.004561,0.000648,-0.001858,0.217145,0.072317,313.778558,25.661632,0.999737,0.993370,0.003368,0.451803,-0.000022,0.000016,0.000004,0.000016,-0.000023,83.673684,0.000023,
2461,2278,4.48786201792122,-8.00873458631813,0.00865474616404072,0.004123,0.000727,-0.004568,0.206196,0.037409,326.917973,22.890059,0.999435,0.980791,0.005328,0.335312,0.000011,-0.000025,-0.000018,0.000018,-0.000033,-22.051214,0.000033,
2401,2293,3.17201245147782,-7.67820147019211,-0.015352260429097,0.003856,-0.000017,0.001354,0.171755,0.040755,326.338619,23.139131,0.999543,0.991016,0.003905,0.396677,-0.000019,-0.000008,-0.000006,-0.000005,-0.000021,-65.845301,0.000028,
2356,2308,2.18900890784925,-7.35247181162586,0.0057301991521399,0.004319,-0.000007,0.003719,0.184880,0.052003,326.255905,23.334969,0.999432,0.991752,0.003848,0.438320,-0.000032,-0.000015,-0.000007,-0.000013,-0.000034,-69.292111,0.000049,
2401,2518,3.12882983996839,-2.75975448857314,-0.0181315873230119,0.004274,0.000815,-0.003910,0.210610,0.072951,322.708943,23.716398,0.999503,0.989046,0.004265,0.558071,-0.000013,-0.000020,-0.000001,-0.000012,-0.000020,-7.407977,0.000033,
2446,2053,4.2067515257746,-12.9468737796618,0.032469033527434,0.003973,0.000063,0.000548,0.179610,0.032949,330.693489,22.044467,0.999180,0.979652,0.005489,0.415666,-0.000001,-0.000049,0.000052,0.000032,-0.000082,32.571406,0.000083,
2416,2383,3.48455337467721,-5.71141092451253,0.0131021719298587,0.004119,0.000238,-0.001518,0.194426,0.027146,325.161239,23.430029,0.999659,0.988383,0.004332,0.326456,0.000007,0.000007,0.000013,0.000020,-0.000006,45.126063,0.000021,
2446,2908,4.03090848162629,5.74273853231646,-0.0211253458459737,0.003938,-0.000006,0.003031,0.169802,0.061372,316.355834,25.080487,0.999461,0.991315,0.003802,0.460307,-0.000031,0.000016,-0.000018,0.000022,-0.000037,-71.516168,0.000037,
2446,2248,4.16673154611991,-8.66604757175264,0.00843086891211442,0.004605,0.000850,-0.004885,0.229317,0.034466,327.392739,22.828627,0.999089,0.979903,0.005471,0.349483,0.000004,-0.000053,-0.000002,0.000004,-0.000053,-2.476710,0.000059,
2416,2158,3.52867653627655,-10.6396126656838,0.00932098758528355,0.004127,0.000113,-0.003651,0.202233,-0.004743,328.776714,22.607949,0.999185,0.980454,0.005332,0.366962,-0.000018,-0.000052,0.000008,-0.000016,-0.000054,13.106498,0.000073,
2431,2863,3.71404062821057,4.76302881025899,-0.0180579407787036,0.003935,0.000708,-0.001940,0.188432,0.079576,317.109477,24.931239,0.999515,0.990928,0.003686,0.449864,-0.000032,0.000025,-0.000026,0.000035,-0.000042,-69.008489,0.000045,
2461,3118,4.31863675205404,10.3053265516791,0.0136186505354772,0.004383,0.000682,0.000209,0.201194,0.062582,313.271229,25.856154,0.999574,0.991390,0.003699,0.465312,-0.000022,0.000028,0.000021,0.000035,-0.000030,70.288549,0.000038,
2476,2248,4.82235880109887,-8.66903904606804,0.0162173519726139,0.004330,0.000022,-0.002535,0.207779,0.006816,327.506110,22.536033,0.999208,0.982244,0.005278,0.475804,0.000009,-0.000065,-0.000020,0.000014,-0.000070,-14.344832,0.000074,
2431,2458,3.79499000286487,-4.07000661918647,-0.0119222543243609,0.004174,0.000288,-0.000775,0.194370,0.045508,323.758738,23.522439,0.999466,0.986717,0.004613,0.461893,-0.000005,-0.000034,-0.000003,-0.000004,-0.000034,-5.532472,0.000043,
2446,3133,3.98958518616523,10.6300657619162,0.0164045788441172,0.004254,0.000514,0.000043,0.195952,0.069447,313.013956,25.886126,0.999606,0.989081,0.004023,0.433139,-0.000019,0.000029,0.000008,0.000030,-0.000020,80.926330,0.000031,
2461,2488,4.44427529716095,-3.41436575170777,-0.00555598217528086,0.004438,0.000514,-0.001256,0.208400,0.061134,323.397234,23.558750,0.999580,0.986586,0.004482,0.476646,-0.000011,-0.000034,-0.000012,-0.000006,-0.000039,-22.658768,0.000048,
2476,2053,4.86289030402324,-12.9459236862078,0.022730649902428,0.004330,0.000813,-0.003950,0.213202,0.023557,330.715487,21.901455,0.999390,0.982294,0.005301,0.353359,0.000038,-0.000070,0.000054,0.000060,-0.000092,22.487548,0.000093,
2446,2713,4.06898922053979,1.49869374700874,-0.036525896711737,0.004042,0.000844,-0.000082,0.186337,0.096760,319.424318,24.417102,0.999717,0.992380,0.003623,0.482001,-0.000030,0.000052,-0.000013,0.000054,-0.000032,-80.976608,0.000054,
2476,2488,4.77086394608982,-3.4134040236472,-0.014495588749412,0.004266,0.000619,-0.004031,0.211095,0.042748,323.360740,23.522377,0.999572,0.987853,0.004239,0.461152,-0.000011,-0.000031,-0.000009,-0.000007,-0.000034,-20.765908,0.000044,
2461,2698,4.39994069523616,1.1714474348335,-0.0260583446683995,0.004038,0.000699,-0.003255,0.197941,0.061913,319.798830,24.398035,0.999608,0.989016,0.004263,0.411062,-0.000038,0.000055,-0.000016,0.000058,-0.000041,-80.280098,0.000060,
2416,2608,3.43737463785087,-0.793193660789555,-0.0275683959276307,0.004408,0.000463,-0.001812,0.209191,0.063495,321.183655,24.073777,0.999476,0.989209,0.004108,0.454284,-0.000011,0.000005,-0.000009,0.000009,-0.000015,-65.557833,0.000016,
2446,2068,4.20379443638403,-12.6161334872989,0.0237106614512754,0.004391,0.000681,-0.003799,0.215169,0.041459,330.413777,22.117671,0.998810,0.978006,0.005918,0.406564,0.000001,-0.000031,0.000054,0.000041,-0.000072,36.632841,0.000072,
2461,2083,4.52908390225107,-12.2873359238211,0.0293580797498407,0.004507,0.000340,-0.000093,0.206564,0.045697,330.242895,22.118636,0.999155,0.979784,0.005642,0.371554,0.000021,-0.000038,0.000050,0.000049,-0.000066,29.670138,0.000069,
2401,2308,3.16953231447615,-7.35061578250836,-0.0170452716292289,0.004268,0.000404,-0.000577,0.197778,0.055449,326.108278,23.086140,0.999766,0.994259,0.003429,0.511628,-0.000016,-0.000008,-0.000003,-0.000007,-0.000017,-72.385073,0.000025,
2446,2503,4.11419615166233,-3.0875419015462,-0.00299130106799339,0.004414,0.000312,-0.000850,0.205710,0.055460,323.141503,23.622250,0.999595,0.988961,0.004109,0.493981,-0.000009,-0.000023,-0.000014,-0.000001,-0.000032,-31.149191,0.000037,
2431,3103,3.66937365422458,9.97746763462889,0.0126695972828657,0.004317,0.000415,-0.002198,0.207087,0.054844,313.460914,25.718616,0.999775,0.994361,0.003239,0.426199,-0.000018,0.000017,0.000007,0.000018,-0.000020,78.613646,0.000022,
2386,2458,2.81366533702178,-4.07000984065276,-0.0121108890730852,0.004538,0.000223,0.002141,0.200556,0.052892,323.708477,23.696077,0.999297,0.987999,0.004572,0.408748,-0.000008,-0.000024,0.000007,-0.000006,-0.000027,21.439236,0.000035,
2386,2248,2.85497029145263,-8.66498336638188,0.00414486524817903,0.004099,0.000201,0.002545,0.178716,0.074931,327.221365,23.095014,0.999282,0.983767,0.005203,0.399646,-0.000018,-0.000035,0.000003,-0.000017,-0.000036,10.666504,0.000055,
2476,2728,4.72113122410422,1.82561523177925,-0.0239641523439786,0.004465,0.000298,-0.000948,0.208732,0.044332,319.373355,24.507799,0.999590,0.991891,0.003580,0.395213,-0.000040,0.000032,-0.000004,0.000032,-0.000040,-86.960607,0.000043,
2461,2293,4.48446371660423,-7.68191361067695,0.0108310713501396,0.003995,0.000000,0.000583,0.180711,0.043613,326.668615,22.808330,0.999326,0.980395,0.005368,0.479864,0.000011,-0.000015,-0.000011,0.000015,-0.000019,-19.943942,0.000020,
2431,2668,3.75147829675936,0.516693716452927,-0.0288900025901171,0.003951,0.000003,0.002339,0.172819,0.068925,320.181604,24.316114,0.999515,0.990482,0.004137,0.404129,-0.000034,0.000035,-0.000023,0.000042,-0.000041,-72.823300,0.000048,
2461,2908,4.35807354810931,5.74402487604421,-0.0170897807245183,0.004078,0.000430,0.000443,0.186023,0.062208,316.435459,25.170130,0.999075,0.988649,0.004303,0.400282,-0.000033,0.000018,-0.000017,0.000023,-0.000038,-73.589228,0.000038,
2476,2263,4.81964448163027,-8.33894469271599,0.0106681823551185,0.004778,0.000612,-0.007003,0.245457,0.017145,327.254175,22.660128,0.999079,0.980718,0.005226,0.421152,0.000007,-0.000053,-0.000029,0.000019,-0.000064,-21.909880,0.000066,
2476,2923,4.68148410919304,6.07171899525117,-0.0211674443967809,0.004241,0.000501,-0.000851,0.198351,0.046761,316.202491,25.281654,0.999273,0.986849,0.004425,0.358425,-0.000032,0.000011,-0.000021,0.000020,-0.000041,-67.918595,0.000041,
2401,2533,3.12568934421695,-2.43147970494638,-0.0134551224186907,0.003885,0.000503,-0.001481,0.183839,0.057959,322.477281,23.889895,0.999445,0.989245,0.004347,0.415825,-0.000014,-0.000019,0.000003,-0.000012,-0.000020,26.113924,0.000033,
2416,2398,3.48099803780636,-5.3835487426551,0.00328917957830299,0.004389,0.000090,-0.000332,0.202440,0.039156,324.844596,23.356689,0.999617,0.987734,0.004462,0.461647,0.000006,0.000007,0.000017,0.000023,-0.000011,45.959847,0.000023,
2461,2503,4.44119329535713,-3.08655383071185,-0.0057111147601745,0.004348,0.000633,-0.001878,0.206677,0.065123,323.150557,23.617611,0.999515,0.987223,0.004326,0.477275,-0.000011,-0.000024,-0.000011,-0.000005,-0.000030,-29.598914,0.000038,
2446,2923,4.02842826551332,6.06904283490018,-0.0130410461986799,0.003942,-0.000131,0.004809,0.163317,0.055863,316.171831,25.197950,0.999668,0.993554,0.003535,0.388809,-0.000027,0.000008,-0.000021,0.000018,-0.000037,-65.194218,0.000037,
2476,2068,4.86003923671283,-12.6172959511641,0.028723970387432,0.004201,0.000435,-0.002112,0.200218,0.032118,330.510620,21.946613,0.999257,0.979757,0.005673,0.376766,0.000034,-0.000048,0.000051,0.000059,-0.000073,25.640913,0.000077,
2446,2728,4.06658293255709,1.82392153909828,-0.031223494751714,0.004216,0.000209,0.000154,0.193138,0.044198,319.232142,24.411616,0.999671,0.992438,0.003555,0.487281,-0.000033,0.000035,-0.000010,0.000036,-0.000035,-82.248290,0.000041,
2431,2878,3.71115804346701,5.08946082526585,-0.0187685642069937,0.004115,0.000469,-0.001557,0.195217,0.072936,316.865417,24.985529,0.999506,0.991674,0.003543,0.438705,-0.000033,0.000028,-0.000022,0.000035,-0.000040,-72.205633,0.000044,
2461,3133,4.315731229655,10.6311501677999,0.0158341786523692,0.004336,0.000481,0.000442,0.198105,0.056406,313.040651,25.941018,0.999547,0.990385,0.003773,0.427564,-0.000020,0.000030,0.000014,0.000033,-0.000024,75.322508,0.000034,
2446,2263,4.16381649259305,-8.3369870753933,0.0066754455475575,0.004600,0.000944,-0.007872,0.240263,0.048251,327.146172,22.893790,0.999103,0.979619,0.005551,0.352574,0.000004,-0.000047,-0.000012,0.000007,-0.000050,-13.085606,0.000054,
2476,2503,4.76807245995752,-3.08614830081326,-0.00830684578278351,0.004355,0.000412,0.000047,0.199661,0.062794,323.157393,23.572586,0.999594,0.988650,0.004178,0.488657,-0.000009,-0.000022,-0.000009,-0.000004,-0.000027,-28.013322,0.000033,
2446,2083,4.20013983005658,-12.2854423202157,0.019910212325783,0.004362,0.000415,-0.000223,0.200434,0.061207,330.124695,22.236740,0.998464,0.976119,0.006372,0.363182,0.000002,-0.000030,0.000053,0.000041,-0.000070,36.619091,0.000070,
2476,3163,4.63575389414322,11.2843124414446,0.0188926725336955,0.003873,0.000790,-0.001162,0.183075,0.073583,312.592077,26.168879,0.999552,0.991157,0.003654,0.389992,-0.000015,0.000031,0.000019,0.000038,-0.000022,70.346817,0.000038,
2431,2473,3.79233460648685,-3.74232655485641,-0.00828419951034221,0.004069,0.000461,-0.002394,0.195597,0.034193,323.547008,23.609811,0.999428,0.986343,0.004558,0.414273,-0.000014,-0.000030,-0.000005,-0.000012,-0.000031,-15.346195,0.000045,
2491,2083,5.18453844209838,-12.2865665212988,0.0141415671834011,0.004534,0.001155,-0.006222,0.231466,0.049703,330.219297,21.887458,0.999448,0.978671,0.005534,0.420152,0.000018,-0.000047,0.000038,0.000036,-0.000065,24.706786,0.000065,
2446,3148,3.9868772525968,10.9552853993241,0.0226961593542114,0.004036,0.000677,0.000151,0.185575,0.071110,312.810456,25.935599,0.999591,0.991214,0.003677,0.436439,-0.000018,0.000023,0.000007,0.000024,-0.000019,81.067963,0.000026,
2461,2713,4.3971459118181,1.49847837673918,-0.0281179368361109,0.004504,0.000827,-0.002450,0.216419,0.083748,319.555616,24.419469,0.999648,0.991003,0.003871,0.466517,-0.000037,0.000054,-0.000012,0.000055,-0.000038,-82.583137,0.000057,
2461,2098,4.52512393891217,-11.9570870963937,0.0247237532502709,0.004059,0.000003,0.000882,0.182311,0.026562,329.937619,22.232589,0.999551,0.981208,0.005364,0.296392,0.000016,-0.000050,0.000033,0.000030,-0.000063,22.573218,0.000063,
2491,2323,5.13314999497229,-7.02274493995362,0.00248699357842952,0.004445,-0.000012,0.003113,0.191603,0.076105,326.199755,22.893518,0.998700,0.981557,0.005373,0.424483,0.000026,0.000003,0.000006,0.000027,0.000002,13.754939,0.000033,
2461,2308,4.48140376153983,-7.35110465886851,0.000157651535403147,0.004585,0.000207,-0.002818,0.220616,0.048013,326.375670,22.969584,0.999100,0.977456,0.005689,0.379825,0.000018,-0.000008,-0.000007,0.000020,-0.000010,-14.768250,0.000020,
2446,2518,4.1104185127715,-2.75944678809086,-0.00684814059047767,0.004090,0.000276,0.000798,0.184753,0.060038,322.844502,23.677754,0.999327,0.986620,0.004454,0.496795,-0.000006,-0.000029,-0.000016,0.000003,-0.000037,-27.250659,0.000041,
2401,2323,3.16760276119227,-7.02331563165548,0.00315364112731231,0.003836,0.000229,0.001686,0.169794,0.066286,326.006044,23.233390,0.999328,0.988036,0.004362,0.422368,-0.000021,-0.000014,0.000005,-0.000011,-0.000023,62.520626,0.000035,
2491,2563,5.08138728671827,-1.77422405125215,-0.0183381939540936,0.003748,0.000251,0.002251,0.163402,0.065980,322.101349,23.789473,0.999518,0.989860,0.004243,0.483772,0.000001,-0.000033,-0.000009,0.000003,-0.000035,-13.416489,0.000039,
2476,2743,4.71737836909153,2.15239920466772,-0.0276048472568391,0.004201,0.000209,0.000678,0.190449,0.062103,319.080021,24.507512,0.999721,0.993071,0.003416,0.470424,-0.000037,0.000032,-0.000012,0.000034,-0.000039,-80.395580,0.000042,
2431,3118,3.66593933473087,10.3039454750955,0.00821048359614451,0.004596,0.000323,0.002463,0.202648,0.068685,313.172769,25.798326,0.999830,0.995295,0.003053,0.409204,-0.000013,0.000024,0.000010,0.000027,-0.000016,75.919226,0.000027,
2461,2923,4.35463711859466,6.0705628652034,-0.0176179659594027,0.003954,0.000219,0.003405,0.169102,0.064938,316.168746,25.239474,0.999370,0.989998,0.004065,0.387567,-0.000030,0.000009,-0.000019,0.000017,-0.000038,-67.407669,0.000038,
2476,2083,4.85636351006535,-12.2868938878407,0.0201524783095692,0.004340,0.000640,-0.001772,0.205377,0.053169,330.201916,21.985232,0.999459,0.980624,0.005360,0.419518,0.000031,-0.000052,0.000046,0.000052,-0.000073,24.155715,0.000075,
2491,2803,5.03191146352611,3.4608625582426,-0.0294565530394379,0.004321,0.000427,0.000325,0.197413,0.059212,318.131320,24.791247,0.999336,0.987472,0.004432,0.423679,-0.000039,-0.000003,-0.000031,0.000014,-0.000057,-59.817425,0.000059,
2476,2278,4.81539402535597,-8.00789381215218,0.00277452889821461,0.004502,0.000980,-0.004122,0.222115,0.055689,326.920821,22.826058,0.999415,0.981521,0.005124,0.353054,0.000004,-0.000027,-0.000026,0.000019,-0.000042,-29.320803,0.000042,
2476,2938,4.67891526184271,6.39720900413669,-0.0152417559841069,0.004342,0.000409,0.000580,0.197580,0.052644,316.006382,25.301497,0.999411,0.989595,0.003976,0.400532,-0.000027,0.000007,-0.000019,0.000015,-0.000035,-65.391870,0.000035,
2431,2683,3.749046135548,0.843243141240066,-0.0276354795454381,0.004257,0.000284,0.000741,0.192907,0.068288,319.968268,24.333514,0.999480,0.989650,0.004139,0.436275,-0.000028,0.000041,-0.000019,0.000046,-0.000032,-75.714775,0.000047,
2461,2518,4.43842450873386,-2.75939593344946,-0.000958715009005573,0.004307,0.000397,-0.000777,0.200580,0.048474,322.940773,23.686221,0.999292,0.984697,0.004533,0.447339,-0.000009,-0.000032,-0.000015,-0.000002,-0.000039,-26.492252,0.000046,
2446,2743,4.06442302604855,2.15002788337712,-0.0206310410752053,0.004286,-0.000056,0.001334,0.191873,0.039293,319.075310,24.485152,0.999604,0.991738,0.003655,0.460969,-0.000030,0.000028,-0.000012,0.000030,-0.000032,-78.934152,0.000036,
2491,2578,5.0794517100943,-1.44705632355976,-0.0135375454619862,0.004369,0.000245,0.000791,0.197474,0.060465,321.931793,23.867145,0.998878,0.982832,0.005143,0.460130,-0.000001,-0.000014,-0.000008,0.000003,-0.000018,-25.492276,0.000019,
2461,3148,4.31267201946988,10.9566332283033,0.0200565057105564,0.003921,0.000645,0.000117,0.180355,0.064566,312.812221,25.995978,0.999472,0.990240,0.003733,0.433982,-0.000020,0.000023,0.000013,0.000027,-0.000023,74.138170,0.000029,
2446,2938,4.02528858582167,6.39540811262685,-0.0199091926242545,0.003981,0.000379,0.000188,0.182572,0.060874,315.888352,25.208104,0.999642,0.992431,0.003670,0.435488,-0.000021,0.000008,-0.000020,0.000018,-0.000031,-62.889270,0.000031,
2461,2728,4.39457145460852,1.82523777827539,-0.0200272107548471,0.004647,0.000556,0.001874,0.206543,0.066953,319.369020,24.541028,0.999632,0.992796,0.003474,0.382494,-0.000039,0.000036,-0.000009,0.000037,-0.000040,-83.459105,0.000044,
2491,2998,4.99417686790318,7.70150606452784,0.00121517630418566,0.004098,0.000375,0.002013,0.180895,0.060102,315.184675,25.540073,0.999466,0.988899,0.003980,0.435398,-0.000019,0.000032,0.000016,0.000037,-0.000023,73.807906,0.000037,
2476,3178,4.6330721535345,11.6094138378151,0.0220190929766204,0.004112,0.000719,0.000504,0.187762,0.087148,312.376927,26.183763,0.999642,0.992733,0.003433,0.444120,-0.000017,0.000034,0.000016,0.000039,-0.000022,73.806212,0.000039,
2431,2893,3.70814430169222,5.41559170027341,-0.0188264272082392,0.004158,0.000289,-0.000573,0.193492,0.067323,316.618358,25.020253,0.999546,0.991453,0.003656,0.448145,-0.000033,0.000020,-0.000022,0.000027,-0.000041,-70.418616,0.000042,
2446,2278,4.16039036176472,-8.00853047507476,0.0100202701260059,0.004320,0.000538,-0.002841,0.208605,0.040443,326.899669,22.982543,0.999278,0.980215,0.005459,0.310329,0.000002,-0.000023,-0.000012,0.000006,-0.000028,-21.510496,0.000029,
2491,2098,5.18307274253721,-11.9597268267455,0.0362924549173158,0.004466,0.000596,-0.004229,0.220556,0.012570,330.151668,22.002852,0.999638,0.984561,0.004905,0.328620,0.000012,-0.000056,0.000023,0.000019,-0.000063,16.864696,0.000065,
2491,3238,4.94700198440444,12.9129700423993,0.0147604111738815,0.004347,0.000737,-0.004311,0.217064,0.066448,311.397489,26.476809,0.999628,0.992592,0.003526,0.429633,-0.000004,0.000004,0.000008,0.000009,-0.000009,57.673695,0.000011,
2506,2158,5.49678425647184,-10.6410415903979,0.0201969952338459,0.004061,0.000584,-0.002538,0.195749,0.026785,329.068202,22.177061,0.999266,0.978916,0.005493,0.334109,0.000012,-0.000106,0.000004,0.000012,-0.000106,1.874378,0.000116,
2491,2818,5.02934720717272,3.78689511962209,-0.0248304225556808,0.004514,0.000507,0.001201,0.202973,0.071638,317.930959,24.814131,0.999369,0.988618,0.004374,0.472060,-0.000039,-0.000001,-0.000022,0.000009,-0.000050,-65.213012,0.000053,
2491,2338,5.12946009891884,-6.69375450221359,0.00295760418333657,0.003643,0.000456,0.001148,0.162631,0.072288,325.931238,23.019191,0.999043,0.985780,0.005177,0.355840,0.000019,0.000019,0.000003,0.000021,0.000016,47.520475,0.000038,
2476,2758,4.714975230474,2.47742762421254,-0.0160301951752331,0.004128,0.000196,0.003704,0.175653,0.084925,318.918147,24.465834,0.999637,0.991126,0.003706,0.591540,-0.000029,0.000026,-0.000012,0.000029,-0.000032,-78.377505,0.000035,
2476,2518,4.76498059831227,-2.75855033639832,-0.00835413200394441,0.004306,0.000035,-0.000206,0.198205,0.033087,322.912028,23.651683,0.999453,0.985404,0.004467,0.437762,-0.000006,-0.000031,-0.000015,0.000001,-0.000038,-25.879075,0.000043,
2461,2323,4.47819976265368,-7.0233903997249,-0.00107771062624806,0.004568,0.000488,-0.002085,0.217231,0.058105,326.119397,22.942336,0.999167,0.979246,0.005436,0.473557,0.000016,-0.000008,0.000000,0.000016,-0.000008,0.532954,0.000016,
2446,3163,3.98434202373465,11.2810129728321,0.0272101780284402,0.004163,0.000759,0.000557,0.189997,0.089809,312.606463,26.007206,0.999606,0.991732,0.003749,0.434594,-0.000015,0.000033,0.000007,0.000034,-0.000017,81.537105,0.000034,
2506,2398,5.44440585157827,-5.38069357220962,-0.00578345579003781,0.004106,0.000420,0.000682,0.185601,0.052473,324.953418,23.146593,0.998663,0.983398,0.005128,0.404358,0.000043,0.000031,0.000012,0.000051,0.000023,31.329352,0.000076,
2446,2533,4.10777651162016,-2.42994375882203,-0.011750371409903,0.004415,0.000749,-0.004677,0.220246,0.052123,322.594569,23.870695,0.999304,0.987434,0.004473,0.349005,-0.000002,-0.000032,-0.000011,0.000001,-0.000035,-18.503472,0.000040,
2476,2098,4.85316572209526,-11.9570047390171,0.0188943435267106,0.004102,0.000730,-0.004420,0.204566,0.036162,329.948297,22.101884,0.999461,0.979710,0.005442,0.345575,0.000025,-0.000063,0.000028,0.000033,-0.000071,16.314169,0.000071,
2461,2938,4.35203466721708,6.3962889242193,-0.0152584403177229,0.004060,0.000066,0.001966,0.179334,0.055176,315.953810,25.271106,0.999462,0.990943,0.003998,0.400110,-0.000022,0.000007,-0.000018,0.000016,-0.000031,-64.504869,0.000031,
2461,2113,4.52145348303005,-11.626746536462,0.0115612457220209,0.004210,0.000763,-0.002768,0.203235,0.056744,329.606425,22.218700,0.999458,0.978835,0.005650,0.398595,0.000014,-0.000067,0.000022,0.000019,-0.000072,14.038723,0.000075,
2476,2293,4.81191959452791,-7.68211383246323,0.00815115919419895,0.004065,-0.000070,0.001127,0.181800,0.043036,326.683814,22.700712,0.999478,0.982352,0.005058,0.524562,0.000006,-0.000018,-0.000018,0.000015,-0.000027,-27.862372,0.000028,
2431,3133,3.6633311980665,10.6288445939805,0.0119525060520118,0.004479,0.000523,0.000290,0.205356,0.063061,312.961315,25.806764,0.999737,0.993443,0.003292,0.444106,-0.000010,0.000028,0.000005,0.000029,-0.000011,82.109305,0.000029,
2461,2533,4.43504611556277,-2.43087279136211,-0.00585124439641049,0.004339,0.000474,-0.001110,0.203361,0.051380,322.658573,23.778424,0.999492,0.988270,0.004159,0.413731,-0.000004,-0.000036,-0.000011,-0.000001,-0.000039,-16.961231,0.000046,
2476,3193,4.6301931014391,11.9346991442995,0.0214259797180034,0.004245,0.000830,-0.000437,0.197523,0.081771,312.135603,26.216154,0.999542,0.992576,0.003434,0.461844,-0.000013,0.000030,0.000014,0.000035,-0.000017,73.208831,0.000035,
2461,3163,4.31041001297175,11.2819222079854,0.0250493376322538,0.004190,0.000536,-0.000825,0.196254,0.060059,312.624061,26.053487,0.999562,0.991370,0.003674,0.425080,-0.000018,0.000032,0.000015,0.000036,-0.000022,74.494489,0.000036,
2476,2953,4.6760144392645,6.7227774545768,-0.00965209649166354,0.004091,0.000359,0.001419,0.182888,0.065735,315.793357,25.322438,0.999303,0.989375,0.004092,0.448627,-0.000029,0.000017,-0.000008,0.000019,-0.000030,-80.370984,0.000031,
2491,3253,4.9428576439992,13.2387433739027,0.00564896719748731,0.004185,0.000795,-0.002501,0.202624,0.058408,311.059812,26.525538,0.999740,0.993518,0.003315,0.430085,-0.000003,0.000020,0.000010,0.000024,-0.000007,69.958300,0.000024,
2491,3013,4.99093926608178,8.02815981917399,-0.00384422464105683,0.004231,0.000384,0.000488,0.192858,0.056496,314.908384,25.620318,0.999674,0.992913,0.003378,0.409878,-0.000017,0.000035,0.000015,0.000039,-0.000021,75.445090,0.000039,
2461,2743,4.39033525884001,2.15175841520916,-0.028080380083054,0.004204,0.000042,0.003148,0.181222,0.047771,319.032137,24.517950,0.999649,0.992099,0.003578,0.441151,-0.000035,0.000030,-0.000014,0.000033,-0.000038,-78.551013,0.000041,
2476,2533,4.76159416054078,-2.42972502537651,-0.0159886472382027,0.004350,0.000583,-0.003395,0.212573,0.045002,322.618321,23.738712,0.999676,0.988817,0.003951,0.420591,0.000001,-0.000039,-0.000009,0.000003,-0.000041,-12.250695,0.000045,
2491,2353,5.12705368162142,-6.36682456148623,0.00614623858689356,0.003862,0.000843,-0.001039,0.181188,0.088531,325.733939,22.967545,0.998940,0.985751,0.005318,0.484503,0.000027,0.000042,0.000009,0.000046,0.000022,64.728523,0.000070,
2506,2173,5.49371823584983,-10.3126291456979,0.0228150742987054,0.003983,0.000622,-0.001478,0.188102,0.049019,328.840034,22.188343,0.999017,0.977330,0.005697,0.409151,-0.000003,-0.000065,-0.000003,-0.000003,-0.000065,-3.029078,0.000077,
2491,2113,5.18004356211796,-11.6313974610688,0.0391590661135979,0.004225,0.000913,-0.004923,0.212348,0.039311,329.925426,21.982758,0.999634,0.985063,0.004844,0.437193,0.000010,-0.000084,0.000012,0.000011,-0.000085,7.120177,0.000093,
2446,2953,4.02278696430824,6.72166659365487,-0.02235349563,0.004383,0.000682,-0.003392,0.214534,0.057229,315.654625,25.253089,0.999726,0.993357,0.003491,0.438593,-0.000022,0.000016,-0.000011,0.000020,-0.000025,-74.677675,0.000027,
2491,2833,5.02614932252856,4.11319249788779,-0.0262570909898159,0.004285,0.000428,-0.001481,0.202721,0.059470,317.674056,24.844079,0.999396,0.988933,0.004198,0.488771,-0.000030,0.000012,-0.000010,0.000014,-0.000033,-76.792641,0.000033,
2446,2293,4.15687530685608,-7.68151397323235,0.00844770110728632,0.004057,0.000321,-0.001260,0.190578,0.050649,326.626522,22.876768,0.999290,0.980979,0.005395,0.480944,0.000001,-0.000013,-0.000007,0.000004,-0.000016,-23.823230,0.000017,
2491,2593,5.07638128289389,-1.11946302285209,-0.0112938407502838,0.004224,0.000396,0.001152,0.189462,0.049487,321.698423,23.971441,0.999828,0.994720,0.003410,0.404444,-0.000007,0.000002,-0.000002,0.000002,-0.000007,-78.790655,0.000008,
2446,2548,4.10396697225398,-2.10288050788235,-0.0116682450108669,0.004122,0.000188,0.001713,0.182789,0.061297,322.314217,23.872778,0.999559,0.989918,0.004068,0.409302,-0.000005,-0.000030,-0.000014,0.000001,-0.000036,-23.524149,0.000041,
2431,2908,3.70484598506418,5.74127034760604,-0.0182962840293044,0.004064,0.000104,0.002856,0.176397,0.059694,316.360984,25.023932,0.999695,0.991235,0.003599,0.486135,-0.000034,0.000015,-0.000020,0.000023,-0.000041,-70.095950,0.000041,
2476,2113,4.84919763912663,-11.627203473567,0.0131573175499398,0.003930,0.000538,-0.001447,0.185385,0.057981,329.638842,22.128639,0.999344,0.977419,0.005792,0.400700,0.000021,-0.000082,0.000016,0.000023,-0.000084,8.485945,0.000087,
2446,2758,4.06059410509082,2.47799229269775,-0.0328878888561803,0.004292,0.000393,-0.000719,0.199998,0.047963,318.735883,24.538605,0.999590,0.990445,0.003861,0.468662,-0.000022,0.000024,-0.000008,0.000025,-0.000023,-80.358231,0.000028,
2476,2773,4.71125808419642,2.8064018803571,-0.0282682719740137,0.004196,0.000156,0.000143,0.192297,0.060807,318.586856,24.650382,0.999334,0.987864,0.004167,0.439825,-0.000034,0.000014,-0.000019,0.000020,-0.000041,-71.012139,0.000041,
2461,2953,4.34951466379606,6.72210331857337,-0.0111982076186905,0.004185,0.000253,0.001477,0.187035,0.066714,315.750339,25.305344,0.999501,0.991062,0.003883,0.431298,-0.000025,0.000017,-0.000008,0.000018,-0.000026,-79.006716,0.000027,
2476,3208,4.62772859508413,12.259745872833,0.0258317024208736,0.004375,0.000834,-0.001413,0.207198,0.074628,311.936163,26.261116,0.999392,0.991797,0.003644,0.464984,-0.000009,0.000020,0.000010,0.000023,-0.000012,72.442018,0.000023,
2476,2308,4.80954164228282,-7.35147774971096,0.00803469475090424,0.004334,0.000645,-0.004178,0.214540,0.078885,326.471446,22.920446,0.999059,0.977982,0.005831,0.399440,0.000017,-0.000009,-0.000013,0.000023,-0.000014,-22.806419,0.000023,
2461,2128,4.51881047849225,-11.2980457905239,0.0164260757765646,0.004258,0.000607,-0.002117,0.202940,0.050187,329.404635,22.294101,0.999491,0.977062,0.005815,0.373706,0.000019,-0.000063,0.000023,0.000025,-0.000069,14.557354,0.000070,
2506,2413,5.44217955220457,-5.05353142379166,-0.00232430111191206,0.004352,0.000753,-0.003354,0.212617,0.051406,324.766447,23.155975,0.998972,0.983704,0.005162,0.456357,0.000037,0.000022,0.000018,0.000049,0.000010,33.390013,0.000063,
2431,3148,3.65969693603548,10.9548539136214,0.00669044055536006,0.004032,0.000524,-0.002329,0.194467,0.045199,312.660214,25.878638,0.999678,0.993802,0.003202,0.402990,-0.000010,0.000023,0.000004,0.000024,-0.000010,83.097254,0.000024,
2491,2368,5.12357591759443,-6.03788307513505,-6.40638272102478E-05,0.004176,0.000401,0.001032,0.187449,0.051266,325.445128,23.067038,0.998508,0.983119,0.005472,0.408280,0.000034,0.000051,0.000023,0.000067,0.000018,55.511222,0.000089,
2461,2338,4.47484693728483,-6.69471387782286,0.00227208549159741,0.004219,0.000232,0.000828,0.190202,0.048154,325.877082,23.073700,0.999217,0.978869,0.005336,0.388844,0.000012,0.000002,-0.000004,0.000013,0.000001,-17.977629,0.000015,
2446,3178,3.98109495522565,11.6068058910261,0.0240587547719997,0.004086,0.000584,-0.000481,0.190289,0.079553,312.334124,26.071604,0.999648,0.992179,0.003550,0.410654,-0.000014,0.000035,0.000002,0.000035,-0.000014,87.182086,0.000036,
2506,2188,5.4902184984417,-9.98229497764986,0.0142579762897981,0.004154,0.000698,-0.003708,0.204553,0.050245,328.542105,22.283345,0.998922,0.975720,0.005998,0.379389,0.000009,-0.000052,-0.000009,0.000010,-0.000053,-8.450236,0.000057,
2476,2548,4.75835688373323,-2.10246577673725,-0.0157054676075177,0.004167,0.000833,-0.003078,0.203146,0.062712,322.367501,23.752488,0.999607,0.988247,0.004159,0.482218,-0.000004,-0.000040,-0.000012,0.000000,-0.000044,-17.102211,0.000051,
2491,3268,4.93927028462889,13.5645601074831,0.00518785870013971,0.004151,0.000271,0.002820,0.180452,0.053435,310.786839,26.627878,0.999835,0.995273,0.002878,0.379816,-0.000001,0.000002,0.000013,0.000013,-0.000012,47.613176,0.000015,
2461,2548,4.43176428971217,-2.10275552246846,-0.00512882784727253,0.004057,0.000413,-0.000805,0.189283,0.052592,322.406434,23.890469,0.999698,0.992130,0.003681,0.358371,-0.000009,-0.000035,-0.000013,-0.000004,-0.000040,-21.950465,0.000049,
2461,2758,4.38720451249558,2.47896600139286,-0.0297909384787545,0.004210,0.000369,0.002794,0.183022,0.066200,318.774788,24.576008,0.999636,0.990790,0.003765,0.456258,-0.000027,0.000026,-0.000012,0.000028,-0.000029,-77.904076,0.000033,
2446,2563,4.10081003028542,-1.77516095657294,-0.0147933230078365,0.004199,0.000238,0.001427,0.187464,0.073641,322.048887,23.908285,0.999587,0.989426,0.004239,0.439608,-0.000011,-0.000012,-0.000013,0.000001,-0.000025,-43.793076,0.000028,
2476,2128,4.84713203603159,-11.2990257590826,0.0199628276444628,0.004505,0.000212,0.000261,0.205092,0.039701,329.473523,22.188918,0.999135,0.975743,0.006005,0.381275,0.000027,-0.000077,0.000018,0.000030,-0.000080,9.417149,0.000081,
2476,2968,4.67378455338896,7.04927323846851,-0.005665887608302,0.004277,0.000724,-0.002189,0.205355,0.074518,315.603627,25.425294,0.999505,0.990631,0.003882,0.410592,-0.000033,0.000023,0.000003,0.000023,-0.000033,87.069354,0.000034,
2491,3028,4.98752235166992,8.35421943811133,-0.00524379168751921,0.004050,0.000508,0.001072,0.182355,0.057161,314.640414,25.670705,0.999766,0.994169,0.003197,0.418144,-0.000013,0.000046,0.000008,0.000047,-0.000014,82.840131,0.000048,
2491,2128,5.17766720614975,-11.3024374610916,0.0431801971304822,0.004518,0.001372,-0.005956,0.229878,0.078396,329.734116,22.025268,0.999631,0.988350,0.004479,0.495759,0.000014,-0.000081,0.000015,0.000017,-0.000084,8.435460,0.000088,
2491,3283,4.9360916416406,13.889120591626,0.00269557847178703,0.004203,0.000318,0.002344,0.184695,0.048703,310.523861,26.606578,0.999845,0.995890,0.002793,0.454020,0.000006,-0.000019,0.000019,0.000017,-0.000029,28.651345,0.000029,
2461,3178,4.30755888391964,11.6075652605577,0.0266024076594249,0.004335,0.000433,0.000428,0.198194,0.064577,312.392773,26.117482,0.999617,0.992351,0.003561,0.418746,-0.000019,0.000035,0.000011,0.000037,-0.000021,78.869765,0.000037,
2476,2788,4.70848827834712,3.13339787410694,-0.026595623120329,0.004310,0.000493,-0.000189,0.198945,0.072497,318.362583,24.731291,0.999323,0.986208,0.004358,0.426999,-0.000039,0.000002,-0.000025,0.000014,-0.000051,-64.709801,0.000053,
2506,2203,5.48722836311253,-9.65457940930278,0.0183523159909669,0.004041,0.000359,-0.002438,0.194392,0.034008,328.324062,22.295535,0.999034,0.974457,0.006089,0.414486,0.000016,-0.000072,-0.000016,0.000019,-0.000075,-10.185265,0.000078,
2461,2968,4.34730352199199,7.0479160882236,-0.00870899991690521,0.004549,0.000543,-0.001431,0.214881,0.080028,315.553822,25.330342,0.999512,0.990574,0.003952,0.473435,-0.000032,0.000021,0.000000,0.000021,-0.000032,89.614331,0.000032,
2476,3223,4.62439258254405,12.5857550620286,0.0233922806087321,0.004145,0.000829,-0.003123,0.203114,0.067157,311.664952,26.359367,0.999388,0.992023,0.003616,0.414542,-0.000008,0.000005,0.000011,0.000011,-0.000014,60.032781,0.000015,
2506,2638,5.39365227666383,-0.137446234660388,-0.0158477986613548,0.004021,0.000065,0.001017,0.180534,0.040853,320.963194,24.060822,0.999706,0.991951,0.003834,0.473813,-0.000037,0.000003,-0.000032,0.000021,-0.000055,-60.760786,0.000056,
2446,2968,4.02021880540699,7.04786018874218,-0.0131416981952839,0.004183,0.000721,-0.001900,0.199859,0.074610,315.471569,25.356349,0.999694,0.992671,0.003545,0.404244,-0.000028,0.000019,-0.000005,0.000020,-0.000029,-84.129186,0.000029,
2461,2563,4.42730066076792,-1.77445717731158,-0.0213269304936148,0.004245,0.000236,0.002662,0.184832,0.073683,322.022530,23.855037,0.999403,0.989294,0.004223,0.470792,-0.000014,-0.000015,-0.000011,-0.000004,-0.000026,-43.162044,0.000032,
2491,2383,5.12035498418522,-5.70999325500365,-0.00153507920276752,0.004321,-0.000181,0.002856,0.186921,0.036874,325.189339,23.098956,0.998711,0.981394,0.005429,0.422484,0.000042,0.000042,0.000011,0.000052,0.000031,44.535381,0.000085,
2491,3298,4.93303694797767,14.2148850311847,0.00165230469872313,0.004145,0.000661,0.000474,0.189331,0.058009,310.272661,26.694274,0.999732,0.993530,0.003328,0.432987,0.000001,-0.000031,0.000008,0.000003,-0.000032,13.119325,0.000036,
2431,3163,3.65771775892477,11.280208894089,0.0149137140260223,0.004462,0.000636,-0.001070,0.209714,0.068243,312.498329,25.934697,0.999672,0.992995,0.003378,0.418769,-0.000009,0.000033,0.000005,0.000034,-0.000009,83.234830,0.000035,
2491,3043,4.98450624525557,8.68103558936734,-0.00757465478829999,0.004217,0.000687,0.000049,0.194035,0.059854,314.386399,25.786904,0.999728,0.993409,0.003473,0.362623,-0.000012,0.000042,0.000011,0.000045,-0.000015,78.690938,0.000045,
2476,2983,4.670099508498,7.37621964912842,-0.0144014597851765,0.004239,0.000718,-0.003752,0.209532,0.064660,315.288837,25.504975,0.999422,0.989848,0.004025,0.377225,-0.000031,0.000033,0.000002,0.000033,-0.000031,87.991368,0.000037,
2476,2803,4.70533385741681,3.46028144726642,-0.026895095514476,0.004314,0.000471,0.000792,0.195379,0.071884,318.111623,24.803264,0.999316,0.985582,0.004578,0.411134,-0.000034,-0.000005,-0.000026,0.000010,-0.000050,-59.834985,0.000052,
2506,1993,5.53248549703516,-14.2654874164904,0.0335408305314218,0.004140,0.000695,-0.003353,0.202265,0.050687,331.849767,21.512479,0.999174,0.974095,0.006189,0.314388,0.000026,-0.000110,0.000097,0.000076,-0.000161,27.382079,0.000161,
2476,2323,4.8059316752631,-7.02327205004833,0.00238335589000371,0.004464,0.000591,-0.001633,0.210837,0.087850,326.177808,22.895109,0.998987,0.979919,0.005540,0.492651,0.000017,-0.000005,-0.000006,0.000018,-0.000007,-13.526638,0.000018,
2461,2983,4.34421894612811,7.37449126066124,-0.00507431369163669,0.004259,0.000615,-0.000579,0.198330,0.064234,315.322079,25.466492,0.999493,0.990454,0.003930,0.374951,-0.000030,0.000030,0.000000,0.000030,-0.000030,-89.728932,0.000035,
2506,2653,5.38954076585471,0.191575550313907,-0.0247128332610487,0.003885,-0.000005,0.002277,0.169472,0.060156,320.632727,24.191423,0.999557,0.988428,0.004393,0.424328,-0.000044,0.000021,-0.000028,0.000031,-0.000054,-69.996846,0.000054,
2461,2773,4.38408635749843,2.80582793000128,-0.0339263872049855,0.004085,0.000316,-0.001746,0.194375,0.056595,318.506978,24.616034,0.999481,0.988775,0.004080,0.461206,-0.000030,0.000014,-0.000018,0.000020,-0.000037,-70.425844,0.000037,
2461,2143,4.51522535886934,-10.9681951782663,0.00826501866833951,0.004267,0.000744,-0.003574,0.208865,0.056285,329.100110,22.326580,0.999130,0.977346,0.005770,0.405121,0.000018,-0.000055,0.000018,0.000022,-0.000059,12.758240,0.000060,
2506,2218,5.48394698691905,-9.32570685687415,0.0166342329814029,0.004293,-0.000045,0.000660,0.193821,0.035803,328.066520,22.339656,0.999016,0.975795,0.005952,0.435848,0.000016,-0.000077,-0.000013,0.000018,-0.000079,-7.953826,0.000083,
2476,2143,4.84372531433678,-10.9689421300876,0.0177193402511193,0.004416,0.000190,0.000926,0.198525,0.057949,329.205421,22.294044,0.998602,0.976394,0.005786,0.354323,0.000025,-0.000064,0.000013,0.000027,-0.000066,8.169148,0.000067,
2491,2398,5.1171455659545,-5.3811251354029,-0.00359599835024937,0.004288,0.000012,0.001787,0.189583,0.044586,324.931126,23.197959,0.999415,0.987860,0.004514,0.391870,0.000046,0.000023,0.000018,0.000056,0.000014,29.009864,0.000073,
2461,2578,4.42288099127615,-1.44684827575021,-0.0315686827470358,0.003835,-0.000175,0.004314,0.159678,0.063565,321.667957,23.846651,0.999608,0.992352,0.003910,0.524577,-0.000016,0.000000,-0.000013,0.000007,-0.000023,-61.184471,0.000023,
2446,3193,3.9786437798467,11.9316321812721,0.0302886638387463,0.004175,0.000541,0.000189,0.191813,0.064797,312.142095,26.110522,0.999693,0.992008,0.003504,0.407876,-0.000011,0.000033,0.000001,0.000033,-0.000012,88.707128,0.000033,
2506,2008,5.5291857536768,-13.9362295424369,0.030289822497366,0.004084,0.000933,-0.005185,0.206889,0.057073,331.585761,21.491201,0.999285,0.976568,0.006002,0.407019,0.000025,-0.000130,0.000113,0.000085,-0.000189,27.805251,0.000189,
2491,2848,5.02342373539583,4.44030273600103,-0.020078884304553,0.004298,0.000187,0.000628,0.195142,0.052095,317.472883,25.005469,0.999579,0.991938,0.003676,0.378392,-0.000028,0.000030,-0.000019,0.000036,-0.000034,-73.754153,0.000040,
2491,3058,4.98241247367628,9.00512007503352,0.00496836017640589,0.004171,0.000241,0.000478,0.190112,0.049103,314.242752,25.765652,0.999648,0.992221,0.003780,0.430852,-0.000010,0.000035,0.000005,0.000036,-0.000011,83.689349,0.000037,
2476,2998,4.66733514806662,7.70119466056656,-0.00597109330090007,0.004195,0.000630,0.000815,0.190088,0.068152,315.094959,25.511346,0.999370,0.989805,0.003961,0.430201,-0.000031,0.000031,0.000009,0.000032,-0.000032,81.814677,0.000037,
2506,2668,5.38748599647894,0.517522303551729,-0.0204089114065482,0.004465,0.000137,0.001112,0.200610,0.050038,320.456246,24.184131,0.999464,0.987085,0.004543,0.482982,-0.000046,0.000021,-0.000019,0.000026,-0.000051,-74.903782,0.000051,
2491,2608,5.07373421897965,-0.793244501291476,-0.0046355435393366,0.004227,0.000226,0.002743,0.183499,0.068030,321.504461,23.962327,0.999846,0.994296,0.003511,0.491437,-0.000009,0.000002,-0.000007,0.000005,-0.000012,-63.922057,0.000012,
2491,2143,5.17292960511153,-10.970094132766,0.0259127984232919,0.004640,0.000624,-0.002576,0.222260,0.065417,329.339020,22.205057,0.999178,0.981777,0.005376,0.365631,0.000010,-0.000069,0.000015,0.000013,-0.000071,10.298034,0.000076,
2506,3073,5.30529545600265,9.33211875631972,-0.000153705886987154,0.004259,0.000332,0.001291,0.191027,0.056175,313.997382,25.827748,0.999596,0.992329,0.003895,0.487501,0.000000,0.000027,0.000003,0.000028,0.000000,84.359184,0.000032,
2461,2788,4.38202980171276,3.1319795155365,-0.0239769708777544,0.004127,0.000870,-0.002974,0.201161,0.067510,318.352495,24.684463,0.999380,0.987115,0.004267,0.457925,-0.000034,0.000004,-0.000024,0.000015,-0.000046,-64.287868,0.000047,
2476,2158,4.84065509048479,-10.6406822591163,0.020143279563797,0.004320,0.000105,0.002309,0.188898,0.042762,328.974068,22.321542,0.998560,0.974338,0.006147,0.371062,0.000020,-0.000079,0.000001,0.000020,-0.000079,0.452626,0.000082,
2461,2998,4.34147348733805,7.6994145457016,-0.00491969804858172,0.004467,0.000749,-0.001178,0.210193,0.064461,315.090371,25.414404,0.999362,0.990068,0.003996,0.481279,-0.000030,0.000027,0.000007,0.000028,-0.000031,83.566766,0.000034,
2446,3208,3.97563950580705,12.2569749760988,0.0287109120591253,0.004182,0.000736,-0.001188,0.197396,0.072524,311.888215,26.132399,0.999616,0.990819,0.003765,0.444777,-0.000009,0.000023,-0.000002,0.000024,-0.000009,-86.158209,0.000024,
2506,2233,5.48071543180941,-8.99578210359411,0.0174473740191274,0.003838,0.000232,-0.002742,0.186235,0.028075,327.822389,22.521204,0.998868,0.980406,0.005537,0.310009,0.000016,-0.000065,-0.000012,0.000018,-0.000067,-8.334405,0.000070,
2506,2878,5.34451391011698,5.0928684622173,-0.0144892450176712,0.004216,0.000649,-0.001380,0.199307,0.064108,317.077365,25.051877,0.999730,0.993388,0.003330,0.485666,-0.000031,0.000052,-0.000006,0.000053,-0.000031,-85.953968,0.000053,
2506,2023,5.52590368691854,-13.6049245533265,0.0243204226860598,0.004466,0.001377,-0.004976,0.223776,0.073440,331.310250,21.621902,0.999220,0.972923,0.006351,0.357537,0.000035,-0.000103,0.000083,0.000074,-0.000142,25.157243,0.000142,
2476,3013,4.66440406178007,8.0268480586092,-0.00211495657953265,0.004103,0.000222,0.002184,0.180562,0.062469,314.872345,25.561645,0.999576,0.991996,0.003524,0.429838,-0.000034,0.000035,0.000008,0.000036,-0.000035,83.704127,0.000041,
2491,3073,4.97950990369106,9.33060764291317,0.00292273180906477,0.004433,0.000347,-0.000392,0.205591,0.049596,313.995476,25.771066,0.999554,0.991649,0.003893,0.484150,-0.000003,0.000025,0.000010,0.000028,-0.000006,72.629037,0.000029,
2476,3238,4.62049286079872,12.9117022777745,0.00931455878958332,0.004352,0.000607,-0.004425,0.217571,0.062482,311.314622,26.387476,0.999664,0.993986,0.003229,0.437085,-0.000004,0.000010,0.000014,0.000019,-0.000012,59.080220,0.000019,
2476,2338,4.80228186349579,-6.69462415511995,0.00415472529931549,0.003940,0.000166,0.000828,0.177344,0.050405,325.915969,23.035735,0.998903,0.981414,0.005431,0.373015,0.000010,0.000008,-0.000009,0.000018,0.000000,-42.373702,0.000021,
2461,2353,4.47098848993974,-6.36582569494895,-0.00577205245224377,0.004153,-0.000131,0.001941,0.182896,0.032880,325.559515,23.122950,0.999320,0.983148,0.005162,0.380709,0.000013,0.000019,-0.000001,0.000019,0.000013,-82.285811,0.000032,
2476,2563,4.75481832589168,-1.77418064231761,-0.0177710564835252,0.004401,0.000278,0.003374,0.189185,0.072849,322.091950,23.852070,0.998720,0.983266,0.005062,0.450388,-0.000007,-0.000019,-0.000009,-0.000002,-0.000023,-26.928460,0.000028,
2506,2893,5.34199443821096,5.41968705318565,-0.00743223590245634,0.004290,0.000537,-0.000329,0.198673,0.074169,316.890326,25.186365,0.999582,0.990957,0.003883,0.421736,-0.000020,0.000039,-0.000005,0.000040,-0.000020,-85.107550,0.000040,
2461,2593,4.42118381067207,-1.12072575078297,-0.0154468468963387,0.003968,-0.000269,0.005959,0.159579,0.058208,321.559119,23.931460,0.999312,0.988691,0.004265,0.489017,-0.000020,0.000004,-0.000009,0.000007,-0.000023,-70.973631,0.000023,
2491,2623,5.07012703454221,-0.466130764615713,-0.012650909867034,0.004183,0.000147,0.000496,0.190068,0.053757,321.200191,23.946886,0.999861,0.994406,0.003349,0.552479,-0.000012,-0.000004,-0.000016,0.000008,-0.000025,-52.433987,0.000025,
2461,3013,4.33914062869509,8.02557789508565,0.00453426059459616,0.004328,0.000620,-0.001798,0.206172,0.068880,314.919863,25.538848,0.999440,0.990215,0.003847,0.414655,-0.000033,0.000031,0.000005,0.000031,-0.000034,85.260896,0.000038,
2506,2038,5.52248385347759,-13.278244255581,0.0372172266818893,0.003813,-0.000343,0.003736,0.159639,0.038375,331.112701,21.600764,0.999249,0.971670,0.006384,0.407812,0.000033,-0.000110,0.000074,0.000065,-0.000141,22.946134,0.000142,
2431,2923,3.70231538966771,6.06804708288468,-0.0148647672280049,0.004192,0.000072,0.002361,0.184136,0.060481,316.152060,25.145042,0.999690,0.992279,0.003582,0.415371,-0.000030,0.000009,-0.000023,0.000019,-0.000040,-64.986355,0.000040,
2461,2803,4.37816960231936,3.46008098907236,-0.0328903433740493,0.004194,0.000523,-0.001038,0.196889,0.073512,318.028194,24.795341,0.999417,0.987766,0.004245,0.407528,-0.000032,-0.000002,-0.000025,0.000012,-0.000047,-60.159509,0.000048,
2476,3028,4.66163938476177,8.3524566095082,0.00383402269704902,0.004015,0.000141,0.003703,0.170735,0.068947,314.666844,25.613086,0.999740,0.993084,0.003338,0.440782,-0.000034,0.000044,0.000002,0.000044,-0.000034,88.858057,0.000046,
2446,3223,3.97240886104388,12.5824993692105,0.0272454956175352,0.004189,0.000543,0.000290,0.192080,0.061942,311.624279,26.194035,0.999575,0.991327,0.003793,0.423298,-0.000008,0.000015,-0.000003,0.000015,-0.000008,-82.781556,0.000015,
2476,2173,4.83767488420294,-10.3113971133054,0.0197792003411905,0.004429,-0.000067,0.002157,0.194400,0.022790,328.734105,22.422850,0.998008,0.966787,0.006851,0.308958,0.000009,-0.000047,-0.000002,0.000009,-0.000047,-1.825465,0.000050,
2461,3193,4.30471217113189,11.9324769040987,0.0284683780404862,0.004348,0.000439,0.000380,0.198965,0.059000,312.163285,26.129533,0.999602,0.991667,0.003601,0.454362,-0.000016,0.000031,0.000010,0.000033,-0.000018,78.870198,0.000033,
2506,2683,5.38320551209946,0.84657206131974,-0.0333738302316533,0.004339,0.000333,0.000421,0.197647,0.057100,320.099504,24.306595,0.999619,0.990605,0.003868,0.429571,-0.000048,0.000035,-0.000008,0.000036,-0.000048,-84.467914,0.000050,
2506,2908,5.33750702632853,5.74623188349457,-0.0138907652601006,0.003732,0.000209,0.003008,0.159958,0.053919,316.552200,25.232205,0.999588,0.989670,0.003978,0.416388,-0.000014,0.000023,-0.000003,0.000023,-0.000014,-84.774330,0.000024,
2476,2353,4.79947788298591,-6.3665795921923,0.00390631138679964,0.004268,0.000148,0.001461,0.190005,0.046866,325.683672,23.072135,0.998960,0.983433,0.005402,0.391539,0.000013,0.000028,-0.000004,0.000029,0.000012,-75.009078,0.000042,
2506,2053,5.51842763767076,-12.9476119099465,0.032520774487125,0.003595,-0.001041,0.007228,0.135982,0.003454,330.807492,21.747204,0.999326,0.982427,0.005336,0.291258,0.000032,-0.000083,0.000072,0.000067,-0.000117,25.770160,0.000118,
2476,2578,4.75122564635027,-1.447171096235,-0.0165145472646486,0.003964,-0.000559,0.005796,0.159594,0.042815,321.829224,23.908880,0.998590,0.984525,0.005006,0.420896,-0.000009,-0.000003,-0.000008,0.000002,-0.000015,-55.029551,0.000016,
2461,3028,4.33613174697091,8.35127744296917,0.0120318378948241,0.004033,0.000347,0.001963,0.178378,0.075530,314.709310,25.608213,0.999697,0.992055,0.003628,0.405548,-0.000034,0.000038,0.000000,0.000038,-0.000034,89.926720,0.000042,
2461,2818,4.37563467529418,3.78558291840549,-0.0265267300500227,0.004149,0.000526,-0.001100,0.195019,0.068015,317.835333,24.800539,0.999341,0.987470,0.004404,0.451025,-0.000035,-0.000002,-0.000025,0.000011,-0.000049,-61.745748,0.000051,
2461,2368,4.4687572064669,-6.03792054343354,0.00253592889487209,0.004115,0.000210,0.000073,0.188311,0.041684,325.391156,23.222951,0.999649,0.987403,0.004798,0.345300,0.000017,0.000028,0.000012,0.000036,0.000009,57.133476,0.000048,
2461,2608,4.41870249968885,-0.793429332179826,-0.0145597506726745,0.004148,-0.000211,0.002382,0.181329,0.061465,321.344339,23.986909,0.999202,0.985376,0.004609,0.492116,-0.000021,0.000005,-0.000012,0.000010,-0.000026,-68.340710,0.000026,
2506,3088,5.30307619577143,9.65824633421702,0.00698645244796126,0.004229,0.000756,-0.002237,0.203540,0.063005,313.823634,25.948844,0.999673,0.993216,0.003421,0.433083,-0.000002,0.000024,0.000016,0.000032,-0.000010,65.040256,0.000033,
2476,3043,4.65852173786202,8.6787281881339,0.00129083022170562,0.004054,0.000220,0.002475,0.177207,0.065211,314.406187,25.683333,0.999703,0.993144,0.003432,0.422584,-0.000034,0.000043,0.000006,0.000044,-0.000035,85.268437,0.000046,
2461,3208,4.30172720956675,12.2582269752772,0.0277374599158975,0.004366,0.000658,-0.000553,0.203461,0.071380,311.915150,26.189544,0.999557,0.989736,0.003905,0.459820,-0.000012,0.000021,0.000006,0.000022,-0.000014,80.016947,0.000023,
2446,2983,4.01674004007238,7.37365009759048,-0.0126109998659558,0.003957,0.000384,0.001757,0.175671,0.071207,315.206567,25.386725,0.999675,0.991326,0.003745,0.421984,-0.000027,0.000027,-0.000006,0.000027,-0.000028,-83.932505,0.000032,
2491,2413,5.11401283512519,-5.05366654061272,-0.0145364425641787,0.004434,0.000515,-0.006748,0.229198,0.047297,324.636672,23.093637,0.999463,0.988575,0.004410,0.559608,0.000037,0.000018,0.000023,0.000053,0.000002,33.773142,0.000062,
2506,2923,5.33355872788932,6.07384192421609,-0.0271979533858939,0.004118,-0.000053,0.004212,0.172924,0.049181,316.207851,25.316849,0.999450,0.987182,0.004195,0.387826,-0.000016,0.000011,-0.000009,0.000014,-0.000018,-73.221199,0.000019,
2506,2068,5.51726788013147,-12.6191304267612,0.0445376280184178,0.003992,-0.000224,0.000775,0.179307,0.028161,330.709074,21.828979,0.999463,0.984330,0.005034,0.297803,0.000031,-0.000069,0.000064,0.000063,-0.000100,25.946211,0.000101,
2446,2308,4.15346819250642,-7.35061211012753,0.0027408990633262,0.004185,0.000343,-0.000714,0.194476,0.061304,326.338785,23.090016,0.999222,0.980691,0.005320,0.332998,0.000004,-0.000007,-0.000007,0.000007,-0.000010,-24.709619,0.000010,
2476,2368,4.79539254883783,-6.03692022230315,-0.00290890233196706,0.003804,0.000288,0.001271,0.169541,0.051868,325.362502,23.189373,0.999591,0.986572,0.004889,0.338027,0.000018,0.000037,0.000010,0.000042,0.000014,66.107871,0.000058,
2476,2593,4.74861053269472,-1.12007323565756,-0.0169538200619286,0.004184,-0.000386,0.002747,0.181334,0.028894,321.603603,23.947351,0.998722,0.984277,0.004796,0.425917,-0.000015,0.000004,-0.000003,0.000005,-0.000016,-80.971952,0.000016,
2461,2158,4.51243450978784,-10.6388110974916,0.0100012975054256,0.004380,0.001081,-0.003477,0.213844,0.067256,328.876999,22.423750,0.999162,0.977069,0.005678,0.376013,0.000017,-0.000071,0.000008,0.000018,-0.000072,5.161239,0.000075,
2461,2833,4.37201848715568,4.11388426874758,-0.036564091129037,0.004178,0.000816,-0.003681,0.206250,0.074170,317.516877,24.931404,0.999569,0.990452,0.003825,0.380879,-0.000034,0.000006,-0.000020,0.000014,-0.000042,-67.755598,0.000042,
2461,3043,4.33329081521225,8.67647146144889,0.0135856507981771,0.004126,0.000430,0.002503,0.180655,0.078505,314.479326,25.598580,0.999575,0.990937,0.003779,0.471875,-0.000038,0.000039,0.000004,0.000039,-0.000038,86.779799,0.000045,
2476,3058,4.65651730902581,9.00388764146397,0.0116277516890477,0.003965,0.000270,-0.000739,0.185376,0.050643,314.255672,25.749870,0.999577,0.991092,0.003924,0.397147,-0.000030,0.000036,0.000005,0.000036,-0.000031,85.836864,0.000039,
2461,3223,4.29815478370036,12.5841737323568,0.0236921562816406,0.004134,0.000745,-0.000727,0.193430,0.068072,311.624560,26.268413,0.999562,0.991813,0.003627,0.430582,-0.000010,0.000010,0.000006,0.000012,-0.000012,74.386493,0.000013,
2461,2623,4.41519462973391,-0.46430920734926,-0.0254340435899962,0.004348,0.000376,-0.000324,0.200912,0.057929,321.028217,24.120973,0.999499,0.988901,0.004068,0.409679,-0.000021,0.000008,-0.000018,0.000017,-0.000029,-64.216856,0.000030,
2461,2383,4.46526586577913,-5.70962022497103,-0.00137584985986905,0.004179,-0.000086,0.002485,0.182092,0.056512,325.109075,23.239313,0.999676,0.987070,0.004701,0.400184,0.000025,0.000019,0.000004,0.000026,0.000017,24.719073,0.000043,
2506,2938,5.33200275050863,6.39930460066317,-0.0152268804054074,0.004324,0.000400,0.000483,0.197061,0.060516,316.087264,25.371960,0.999603,0.990552,0.003791,0.404500,-0.000012,0.000004,-0.000010,0.000009,-0.000016,-64.514572,0.000016,
2491,2428,5.1109202525203,-4.7246938068573,-0.0122027171423156,0.004458,0.000701,-0.004155,0.220438,0.064799,324.403332,23.245121,0.999401,0.986824,0.004629,0.486099,0.000032,0.000017,0.000023,0.000049,0.000001,35.504184,0.000057,
2476,3253,4.61694489503603,13.2371655692181,0.00628566769887584,0.004288,0.000616,-0.002142,0.205916,0.061842,311.030930,26.434301,0.999686,0.993613,0.003212,0.444801,0.000000,0.000022,0.000015,0.000030,-0.000008,63.541826,0.000031,
2506,2083,5.51400805145803,-12.2902014903466,0.0350636449230706,0.004346,0.000722,-0.002764,0.209520,0.072035,330.418620,21.699353,0.999499,0.985432,0.004749,0.536250,0.000028,-0.000076,0.000056,0.000052,-0.000100,23.671933,0.000100,
2446,2998,4.01499342687667,7.69880914514152,-0.00193539662842568,0.004342,0.000471,0.001870,0.192976,0.072704,315.068279,25.426671,0.999383,0.988442,0.004110,0.434873,-0.000026,0.000024,0.000000,0.000024,-0.000026,89.487288,0.000029,
2476,2383,4.79212779625098,-5.7086752614369,-0.00974296080846671,0.004135,0.000300,0.000886,0.186174,0.062661,325.078985,23.176974,0.999640,0.985558,0.004912,0.419812,0.000025,0.000026,0.000001,0.000027,0.000024,56.819513,0.000051,
2476,2818,4.70251460487888,3.78623801707948,-0.0245980408765831,0.004257,0.000510,-0.000315,0.197031,0.068666,317.888018,24.816764,0.999378,0.987206,0.004491,0.450967,-0.000038,-0.000004,-0.000023,0.000007,-0.000049,-63.477107,0.000053,
2506,2698,5.38071758200131,1.17272249757884,-0.026465103357225,0.004183,0.000438,-0.001737,0.198880,0.046004,319.914521,24.349603,0.999590,0.991249,0.003767,0.436545,-0.000047,0.000060,-0.000007,0.000061,-0.000047,-86.006256,0.000064,
2476,2608,4.74518950786583,-0.791704475736921,-0.0240206418649223,0.004100,0.000406,-0.000937,0.191825,0.052150,321.310460,24.013228,0.999079,0.985455,0.004511,0.440794,-0.000018,0.000005,-0.000006,0.000007,-0.000019,-75.277054,0.000020,
2506,3103,5.30026939736971,9.9833785954372,0.0086006873241331,0.004312,0.000755,-0.002988,0.210246,0.056885,313.598255,25.959394,0.999676,0.992902,0.003402,0.476704,-0.000004,0.000021,0.000024,0.000035,-0.000019,58.890420,0.000035,
2506,2098,5.50963818991868,-11.9569626493659,0.0259156525856383,0.004240,0.000373,0.001059,0.189870,0.052371,330.078701,22.037325,0.999566,0.986620,0.004735,0.243149,0.000021,-0.000076,0.000038,0.000034,-0.000089,19.019852,0.000090,
2506,2428,5.43975454543277,-4.72588115561086,0.00175378263065795,0.004582,0.000821,-0.004686,0.228340,0.054645,324.572948,23.216144,0.998810,0.981247,0.005550,0.461954,0.000031,0.000021,0.000014,0.000041,0.000011,35.340141,0.000054,
2491,3088,4.97697963263429,9.65717518100954,0.00682102899941128,0.004421,0.000939,-0.003077,0.215608,0.069887,313.791786,25.898346,0.999414,0.991439,0.003758,0.435219,-0.000002,0.000020,0.000019,0.000031,-0.000013,60.749235,0.000031,
2491,2443,5.10817912126402,-4.39638547029772,-0.00952234697444965,0.004538,0.000700,-0.004685,0.226162,0.059460,324.187787,23.366395,0.999053,0.983221,0.004958,0.419683,0.000035,-0.000031,0.000016,0.000039,-0.000035,13.148393,0.000043,
2476,2188,4.83516813871648,-9.98212138655062,0.0188444979919495,0.004599,0.000555,-0.003459,0.223709,0.031724,328.513053,22.493658,0.998407,0.970073,0.006697,0.306565,0.000023,-0.000035,-0.000005,0.000023,-0.000035,-5.358548,0.000036,
2446,3238,3.96888878192432,12.9085395396366,0.0180085503469627,0.004278,0.000686,-0.001449,0.202780,0.067513,311.310776,26.247213,0.999671,0.993171,0.003372,0.426456,-0.000004,0.000017,0.000000,0.000017,-0.000004,-89.895364,0.000017,
2476,2398,4.78968244005621,-5.38060522076739,-0.00327401628055668,0.004189,0.000475,0.000608,0.189806,0.061003,324.893297,23.294286,0.999632,0.986654,0.004643,0.358823,0.000026,0.000013,0.000005,0.000028,0.000011,19.955845,0.000040,
2476,2833,4.69997762879716,4.11219115869758,-0.0176944804086929,0.004116,0.000764,-0.001225,0.194127,0.076907,317.698233,24.857312,0.999510,0.988398,0.004052,0.474956,-0.000035,0.000006,-0.000016,0.000012,-0.000040,-71.103662,0.000041,
2506,2113,5.50630926865899,-11.6289922083713,0.0242681625658179,0.004014,0.000642,-0.000690,0.186414,0.059072,329.819939,21.956214,0.999580,0.987083,0.004727,0.395375,0.000016,-0.000113,0.000021,0.000019,-0.000116,9.245997,0.000125,
2506,2713,5.37793739212675,1.50016277294317,-0.0238975680550766,0.004295,0.000415,-0.001721,0.203975,0.047843,319.696326,24.466639,0.999596,0.990951,0.003807,0.382793,-0.000047,0.000050,-0.000004,0.000050,-0.000048,-87.647250,0.000057,
2506,3118,5.29709739899404,10.3095378610597,0.0116966362878088,0.004174,0.000350,-0.000631,0.194560,0.038393,313.362291,26.090074,0.999489,0.992556,0.003584,0.387233,-0.000012,0.000044,0.000021,0.000051,-0.000019,71.212064,0.000051,
2476,3073,4.65371747076686,9.32902737963625,0.0153981102508851,0.004080,0.000248,0.001501,0.182082,0.043545,314.038559,25.767585,0.999537,0.991357,0.003833,0.427913,-0.000024,0.000025,0.000010,0.000028,-0.000026,78.510945,0.000031,
2491,2458,5.10478826950279,-4.06863213385036,-0.00876408680926488,0.004549,0.000353,-0.000167,0.209282,0.069783,323.933697,23.407944,0.999266,0.985685,0.004603,0.448858,0.000034,-0.000033,0.000011,0.000036,-0.000035,9.160048,0.000041,
2491,3103,4.97403166737501,9.98273965494482,0.0113719688483798,0.004228,0.000974,-0.002254,0.203622,0.076981,313.572014,25.953935,0.999388,0.990603,0.003749,0.444252,0.000000,0.000018,0.000023,0.000034,-0.000016,55.741977,0.000034,
2476,2203,4.83204840607577,-9.6530232736068,0.012663035033313,0.005054,0.000596,-0.003509,0.244762,0.028847,328.240161,22.510594,0.998132,0.970590,0.006587,0.345890,0.000028,-0.000049,-0.000012,0.000030,-0.000051,-8.930319,0.000051,
2476,2848,4.6961843553926,4.43921307221509,-0.0251138300765774,0.004191,0.000344,0.001160,0.188319,0.052703,317.385283,24.925036,0.999334,0.988278,0.004130,0.439580,-0.000036,0.000023,-0.000024,0.000031,-0.000044,-70.199123,0.000046,
2506,2128,5.50289830680903,-11.2993390870414,0.0172540639563863,0.004195,0.000745,-0.002228,0.200653,0.074328,329.533309,21.967707,0.999627,0.986050,0.004824,0.463372,0.000015,-0.000112,0.000020,0.000018,-0.000115,8.519995,0.000124,
2491,2638,5.06614626370976,-0.136311801043988,-0.0263633797664511,0.004577,0.000176,0.002021,0.202328,0.059444,320.852429,24.117577,0.999510,0.989492,0.004067,0.447365,-0.000023,0.000001,-0.000024,0.000016,-0.000038,-57.902268,0.000038,
2506,2728,5.37510431406445,1.82647394377965,-0.0205577498059029,0.004244,0.000431,-0.002140,0.203321,0.064884,319.479259,24.475098,0.999481,0.989955,0.003954,0.452686,-0.000049,0.000027,-0.000007,0.000027,-0.000049,-84.741531,0.000049,
2506,3133,5.29389920860017,10.6355963364209,0.00647337431553296,0.004260,0.000743,-0.003576,0.210256,0.075092,313.087743,26.108618,0.999536,0.992288,0.003565,0.465657,-0.000016,0.000039,0.000014,0.000043,-0.000019,76.563873,0.000043,
2476,2413,4.78736936870213,-5.05386624441179,-0.000563375766944318,0.004378,0.000585,-0.003267,0.213249,0.068407,324.696752,23.248914,0.999567,0.987608,0.004536,0.469726,0.000015,0.000012,0.000010,0.000024,0.000003,39.803222,0.000030,
2476,3088,4.65063983166607,9.65551558598866,0.0147740566595758,0.004183,0.000479,0.002489,0.183229,0.066959,313.788150,25.854713,0.999331,0.992573,0.003657,0.420003,-0.000021,0.000022,0.000016,0.000027,-0.000027,71.530506,0.000031,
2491,2473,5.10156524635805,-3.74094012725032,-0.00875885426978584,0.004279,0.000395,-0.001730,0.202916,0.048789,323.683967,23.473009,0.999367,0.986002,0.004555,0.422908,0.000017,-0.000032,0.000008,0.000018,-0.000033,9.253012,0.000033,
2491,3118,4.97102695608605,10.3079290153683,0.0147842676196319,0.004220,0.000461,0.000303,0.193187,0.054190,313.344528,26.001042,0.999499,0.991707,0.003557,0.432253,-0.000005,0.000037,0.000023,0.000047,-0.000015,66.280573,0.000048,
2506,2143,5.49994822953018,-10.969973026057,0.0193299470749935,0.004339,0.000254,-0.000623,0.200880,0.031801,329.308474,22.114900,0.999263,0.976740,0.005807,0.337486,0.000010,-0.000097,0.000021,0.000014,-0.000101,10.729889,0.000109,
2506,3148,5.29132979798323,10.9608230653265,0.0181079489104263,0.004195,0.000516,0.001130,0.188904,0.070586,312.917943,26.198689,0.999551,0.991363,0.003652,0.430890,-0.000015,0.000025,0.000010,0.000028,-0.000018,76.584580,0.000028,
2476,2863,4.6934745651545,4.76518354578727,-0.0190241091483472,0.004078,0.000320,0.001833,0.180587,0.061565,317.183687,24.968336,0.999135,0.986917,0.004341,0.461580,-0.000037,0.000033,-0.000024,0.000041,-0.000044,-72.929823,0.000049,
2476,2218,4.82832214387577,-9.32333667149339,0.013427079173141,0.004546,0.000675,-0.000988,0.212032,0.082333,327.970432,22.603568,0.998986,0.979637,0.005791,0.366030,0.000023,-0.000047,-0.000015,0.000026,-0.000050,-11.257094,0.000050,
2506,2743,5.37045822138725,2.15499742148755,-0.0306317085583032,0.003991,-0.000051,0.002875,0.172125,0.058911,319.118315,24.607354,0.999685,0.990529,0.003814,0.375930,-0.000052,0.000037,-0.000016,0.000040,-0.000055,-79.763422,0.000056,
2476,3268,4.61334875445457,13.5630982444366,0.0036015242434928,0.004153,0.000479,0.000184,0.190753,0.052941,310.746331,26.538807,0.999836,0.995550,0.002794,0.386188,0.000006,0.000009,0.000019,0.000027,-0.000011,47.144522,0.000027,
2446,2323,4.15052233963654,-7.02368085768809,0.00272417425827598,0.004289,0.000501,-0.000015,0.196726,0.066163,326.098786,23.008090,0.999364,0.980741,0.005179,0.473850,0.000003,-0.000009,0.000002,0.000003,-0.000009,10.315708,0.000009,
2491,2488,5.09927283755262,-3.41356921359185,-0.00489478285476252,0.004592,0.000524,-0.003550,0.224312,0.053942,323.494217,23.522566,0.999526,0.986173,0.004422,0.438335,0.000012,-0.000037,-0.000002,0.000012,-0.000037,-2.163768,0.000038,
2476,2428,4.78346298668516,-4.72571526445241,-0.00229168081006037,0.003828,0.000436,-0.001446,0.181085,0.057475,324.406729,23.314214,0.999447,0.986991,0.004571,0.451812,0.000011,0.000016,0.000010,0.000024,0.000003,51.737942,0.000029,
2476,3103,4.64813292702691,9.98087468839037,0.0182035926160893,0.004242,0.000426,0.000173,0.194737,0.057316,313.582764,25.900247,0.999316,0.991799,0.003769,0.420424,-0.000017,0.000019,0.000020,0.000028,-0.000026,65.734871,0.000031,
2491,3133,4.96793407377256,10.6336401903443,0.0144800188817271,0.004284,0.000327,0.001056,0.193259,0.058983,313.095933,26.049324,0.999529,0.991632,0.003494,0.446363,-0.000007,0.000036,0.000016,0.000041,-0.000012,71.305736,0.000042,
2506,2443,5.43599067068355,-4.39756455198569,-0.00112592466388151,0.004258,0.000697,-0.003753,0.209879,0.048366,324.286779,23.286319,0.998867,0.982663,0.005319,0.448241,0.000029,-0.000029,0.000010,0.000030,-0.000030,9.546289,0.000035,
2506,2758,5.36702425412195,2.48097155051438,-0.0321890250954766,0.003912,-0.000163,0.004353,0.162736,0.062015,318.851628,24.569176,0.999707,0.991180,0.003684,0.478708,-0.000046,0.000023,-0.000017,0.000027,-0.000050,-77.243914,0.000050,
2476,2878,4.68955898571582,5.09273504656217,-0.027255849634912,0.003938,0.000324,0.002283,0.172486,0.064878,316.861046,25.061189,0.998541,0.987448,0.004626,0.428367,-0.000037,0.000039,-0.000023,0.000045,-0.000043,-74.688217,0.000051,
2476,2233,4.82515709943542,-8.99581129674125,0.0120829142921934,0.004227,0.000494,-0.004862,0.212043,0.045262,327.717470,22.572741,0.999247,0.981902,0.005462,0.418843,0.000014,-0.000051,-0.000014,0.000017,-0.000054,-11.555676,0.000055,
2461,3058,4.33006324265842,9.00269017418449,0.013253674553539,0.003859,0.000661,0.001425,0.172534,0.084043,314.222507,25.672476,0.999531,0.990039,0.004023,0.456903,-0.000035,0.000032,0.000005,0.000032,-0.000036,85.604036,0.000039,
2491,2503,5.09551893797628,-3.08538799477527,-0.00708541410364205,0.004371,0.000386,-0.000446,0.202244,0.058252,323.209889,23.596814,0.999449,0.986892,0.004503,0.428703,0.000011,-0.000027,-0.000003,0.000011,-0.000027,-3.939697,0.000027,
2506,3163,5.28826211155528,11.2858951391307,0.0187856347043294,0.004161,0.000419,0.001151,0.187198,0.061061,312.676007,26.215976,0.999658,0.992456,0.003405,0.463903,-0.000017,0.000024,0.000014,0.000029,-0.000022,72.600318,0.000030,
2476,3283,4.61154621211313,13.8874001152125,0.0158029915772318,0.004285,0.000462,-0.000894,0.200975,0.050369,310.612811,26.571244,0.999820,0.996115,0.002795,0.406624,0.000018,-0.000007,0.000028,0.000036,-0.000025,32.522527,0.000037,
2461,3238,4.29547803345067,12.9099590895342,0.0202579730992625,0.004426,0.000774,-0.004792,0.222288,0.069253,311.378034,26.335566,0.999729,0.994166,0.003194,0.418020,-0.000005,0.000013,0.000009,0.000017,-0.000009,67.780612,0.000017,
2476,2623,4.74245394375596,-0.464232938269795,-0.0219520500442059,0.004342,0.000213,0.000179,0.198640,0.041074,321.090423,24.114615,0.999638,0.991129,0.003715,0.385442,-0.000018,0.000005,-0.000014,0.000011,-0.000025,-64.999344,0.000025,
2491,2653,5.06292545906559,0.19093565332399,-0.0239698103999899,0.004224,0.000208,0.001877,0.186755,0.072289,320.612459,24.186647,0.999530,0.988578,0.004211,0.450298,-0.000031,0.000017,-0.000027,0.000029,-0.000043,-65.756299,0.000043,
2476,2443,4.78029023366468,-4.39687317249881,-0.0102360092573122,0.004287,0.000262,-0.002589,0.206371,0.033073,324.122113,23.403125,0.999291,0.985916,0.004729,0.396844,0.000014,-0.000030,0.000005,0.000015,-0.000031,6.142799,0.000031,
2506,2773,5.36459988773693,2.80758995692782,-0.0320563567765362,0.004129,0.000255,-0.000922,0.193295,0.057742,318.638753,24.615380,0.999679,0.991519,0.003707,0.489394,-0.000050,0.000017,-0.000022,0.000024,-0.000057,-73.295257,0.000057,
2476,2893,4.68712482693671,5.41902275703521,-0.0253821755551371,0.004309,0.000212,0.001228,0.193472,0.045761,316.652785,25.138869,0.998598,0.987616,0.004557,0.387921,-0.000033,0.000031,-0.000020,0.000037,-0.000039,-73.583950,0.000044,
2506,2953,5.32980177610299,6.72463293117331,-0.00591595380228682,0.004314,0.000451,-0.000859,0.201794,0.052193,315.925048,25.418373,0.999560,0.990992,0.003852,0.410108,-0.000012,0.000021,0.000001,0.000021,-0.000012,88.903582,0.000022,
2461,3073,4.32687613555279,9.3285011909933,0.00783202236630132,0.004295,0.000528,0.003316,0.185358,0.071841,313.944259,25.697857,0.999599,0.992325,0.003655,0.472669,-0.000031,0.000023,0.000010,0.000025,-0.000033,79.718802,0.000034,
2476,3298,4.60761163709885,14.2135953474919,0.00305088974761247,0.004442,0.000802,-0.001039,0.208921,0.069591,310.266427,26.624934,0.999572,0.993678,0.003453,0.427305,0.000015,-0.000019,0.000020,0.000024,-0.000028,24.780546,0.000030,
2491,2518,5.09211421326407,-2.75806652366397,-0.0120527326332649,0.004646,0.000112,0.001714,0.206489,0.053253,322.929202,23.581553,0.999528,0.987324,0.004295,0.499082,0.000008,-0.000034,-0.000012,0.000011,-0.000037,-14.728674,0.000038,
2506,3178,5.28609252837581,11.611554886185,0.0248423300464538,0.004331,0.000600,-0.001662,0.206050,0.067224,312.499338,26.307393,0.999696,0.992959,0.003359,0.438496,-0.000021,0.000026,0.000013,0.000029,-0.000025,75.859604,0.000031,
2461,3253,4.29153501776317,13.2353909037434,0.0161127376013042,0.004181,0.000675,-0.000686,0.195548,0.076364,311.069886,26.364633,0.999741,0.994263,0.003079,0.448896,0.000001,0.000022,0.000010,0.000026,-0.000003,68.366948,0.000028,
2476,2638,4.73930395014886,-0.137381502814613,-0.0256527840778062,0.004382,0.000295,-0.001841,0.208231,0.052076,320.825147,24.092610,0.999668,0.990914,0.003700,0.476075,-0.000027,0.000010,-0.000021,0.000019,-0.000036,-65.687232,0.000036,
2506,2788,5.36182246027441,3.13427595532745,-0.0277208102249347,0.004212,0.000150,0.000555,0.191346,0.046998,318.428325,24.711427,0.999582,0.991080,0.003846,0.443391,-0.000057,0.000008,-0.000026,0.000017,-0.000066,-70.877882,0.000069,
2491,2668,5.06040954145734,0.517300788871111,-0.0231982609165584,0.004498,0.000430,-0.000722,0.209374,0.052192,320.397787,24.198262,0.999473,0.987677,0.004293,0.477872,-0.000032,0.000020,-0.000023,0.000028,-0.000040,-69.329120,0.000041,
2506,2968,5.32668587660846,7.05128894504125,-0.00836847230971216,0.004219,0.000948,-0.004203,0.210640,0.070191,315.667566,25.482362,0.999557,0.990319,0.004017,0.425018,-0.000014,0.000033,0.000012,0.000035,-0.000017,76.878417,0.000035,
2476,2908,4.68487258827985,5.74517593855774,-0.0237962914428635,0.004566,0.000625,-0.003644,0.223968,0.052039,316.451510,25.180695,0.998863,0.985665,0.004699,0.408493,-0.000034,0.000021,-0.000018,0.000027,-0.000039,-73.626070,0.000040,
2491,1993,5.20384717358417,-14.2655938592157,0.0335062259484857,0.004047,0.000416,-0.001012,0.188889,0.032966,331.790227,21.585559,0.999043,0.968913,0.006792,0.330729,0.000023,-0.000079,0.000049,0.000043,-0.000098,21.970262,0.000099,
2476,2458,4.77745292268287,-4.06939488016197,-0.00504815654477397,0.004351,0.000180,0.000734,0.196701,0.044027,323.912354,23.459855,0.999319,0.987170,0.004560,0.408958,0.000009,-0.000033,-0.000001,0.000009,-0.000033,-0.706251,0.000034,
2461,3268,4.28674885701954,13.5617942977918,-0.00402459858355542,0.004123,0.000617,-0.000113,0.190657,0.069737,310.648942,26.413374,0.999768,0.994811,0.002900,0.446537,0.000011,0.000012,0.000013,0.000025,-0.000001,45.987860,0.000028,
2506,3193,5.28286797449682,11.936574774422,0.0270664471182158,0.004118,0.000480,-0.000340,0.191097,0.059164,312.256947,26.334647,0.999675,0.993185,0.003359,0.462904,-0.000022,0.000021,0.000010,0.000023,-0.000024,77.867247,0.000027,
2491,2533,5.08860013617969,-2.43009328063596,-0.0144541119482255,0.004264,0.000201,-0.000141,0.196111,0.039952,322.654849,23.662904,0.999709,0.990120,0.003806,0.464538,0.000013,-0.000048,-0.000006,0.000014,-0.000049,-5.152568,0.000050,
2491,2008,5.20085438160797,-13.9354926793869,0.0295915450545863,0.004139,0.000998,-0.005111,0.208992,0.046580,331.535800,21.626234,0.999185,0.973737,0.006229,0.366318,0.000022,-0.000086,0.000066,0.000054,-0.000118,25.434474,0.000118,
2491,3148,4.96503592419231,10.9595968690242,0.0182106161744287,0.004122,0.000609,0.000825,0.186783,0.065183,312.874383,26.147323,0.999493,0.990814,0.003695,0.412222,-0.000006,0.000025,0.000016,0.000032,-0.000013,67.264139,0.000032,
2506,2803,5.35839059922704,3.46162673811619,-0.0314799236413705,0.004272,0.000242,0.001371,0.191001,0.051905,318.151314,24.794629,0.999104,0.987426,0.004751,0.426219,-0.000043,0.000001,-0.000026,0.000013,-0.000055,-65.532334,0.000058,
2506,2983,5.32338470140702,7.37729245134073,-0.00953565021467284,0.004213,0.000783,-0.003021,0.205759,0.075608,315.407395,25.512175,0.999420,0.988538,0.004177,0.460992,-0.000012,0.000043,0.000010,0.000045,-0.000013,80.184933,0.000046,
2461,3283,4.28350621082594,13.8871748779198,-0.00569676612053627,0.004249,0.000605,0.002465,0.186712,0.067662,310.384265,26.469997,0.999535,0.992143,0.003565,0.440570,0.000031,-0.000003,0.000020,0.000040,-0.000012,25.023829,0.000041,
2476,2653,4.73624571528591,0.18966094244464,-0.02392585652143,0.004250,0.000310,-0.001648,0.201421,0.048685,320.588622,24.153261,0.999657,0.990745,0.003734,0.469048,-0.000037,0.000023,-0.000024,0.000031,-0.000045,-70.690453,0.000046,
2491,2683,5.05661406364034,0.844745546703578,-0.0263748836462696,0.004389,-0.000176,0.003263,0.188848,0.048048,320.106143,24.265252,0.999667,0.990791,0.003777,0.466225,-0.000033,0.000031,-0.000015,0.000035,-0.000037,-77.408455,0.000041,
2506,3208,5.27949658079308,12.2631497611555,0.0227567189034517,0.004263,0.000472,0.000338,0.195213,0.071610,311.977886,26.450606,0.999434,0.991840,0.003662,0.419194,-0.000021,0.000009,0.000003,0.000009,-0.000021,85.031073,0.000021,
2476,2473,4.77315388323091,-3.74046614559834,-0.0209228837802016,0.004420,-0.000037,0.000538,0.200543,0.037060,323.539815,23.477451,0.999575,0.990391,0.004028,0.442756,-0.000007,-0.000027,-0.000002,-0.000007,-0.000028,-4.452941,0.000037,
2491,2023,5.19871961272199,-13.6056896441675,0.0358863941409027,0.004394,0.001722,-0.007285,0.229251,0.084512,331.366229,21.736866,0.999191,0.972382,0.006270,0.355682,0.000031,-0.000075,0.000046,0.000048,-0.000092,20.376095,0.000092,
2461,3298,4.28122387599573,14.212379134425,-0.00518071597832659,0.004658,0.000900,-0.000983,0.218752,0.083262,310.173922,26.508203,0.999503,0.993857,0.003397,0.471080,0.000038,-0.000017,0.000013,0.000041,-0.000020,12.801523,0.000041,
2491,2548,5.08508480674717,-2.10241444564345,-0.0145403331868579,0.003940,0.000025,0.001042,0.176715,0.046364,322.390742,23.723258,0.999700,0.989383,0.004027,0.470462,0.000005,-0.000055,-0.000011,0.000007,-0.000057,-10.461058,0.000062,
2506,2818,5.35606641767068,3.78795984747747,-0.0210592079325238,0.004782,-0.000155,0.008627,0.186250,0.084447,317.988787,24.869480,0.999296,0.989274,0.004275,0.444905,-0.000042,0.000001,-0.000012,0.000004,-0.000045,-76.018254,0.000050,
2506,2998,5.32016521609293,7.70300739308781,-0.0037743511689996,0.003846,0.000306,-0.000135,0.177516,0.053931,315.182024,25.593793,0.999567,0.990335,0.003787,0.417653,-0.000009,0.000034,0.000016,0.000040,-0.000014,71.655719,0.000040,
2491,3163,4.96189655735329,11.2849083212426,0.0185874554995848,0.003877,0.000715,-0.000842,0.181962,0.062667,312.626674,26.177753,0.999598,0.991911,0.003467,0.437009,-0.000008,0.000027,0.000018,0.000035,-0.000016,66.896259,0.000035,
2491,2863,5.02025153311885,4.76617462838733,-0.0181992741532326,0.004144,0.000308,0.001898,0.183324,0.071180,317.231943,24.998119,0.999573,0.991519,0.003706,0.463390,-0.000031,0.000042,-0.000019,0.000047,-0.000036,-76.273701,0.000049,
2506,2458,5.4323819300277,-4.06876447121319,-0.00794960790744881,0.004464,0.000690,-0.002360,0.213984,0.075065,323.989868,23.336463,0.999226,0.986448,0.004598,0.487523,0.000033,-0.000031,0.000006,0.000033,-0.000032,5.278110,0.000038,
2476,2668,4.7330985551051,0.516372197020132,-0.0277806766829372,0.004504,0.000364,-0.001269,0.211673,0.050160,320.322664,24.136553,0.999529,0.988635,0.004045,0.544605,-0.000038,0.000026,-0.000020,0.000032,-0.000044,-73.868893,0.000045,
2491,2158,5.16888992666662,-10.6410930549146,0.0234932664760663,0.004012,0.000674,-0.001206,0.188364,0.050025,329.042643,22.248410,0.999097,0.980046,0.005595,0.368724,0.000009,-0.000082,0.000003,0.000009,-0.000082,1.620569,0.000090,
2491,2038,5.19492418631958,-13.2776367530516,0.0385455082711132,0.003685,0.001248,-0.004661,0.186698,0.064545,331.104597,21.709855,0.999217,0.972872,0.006321,0.425154,0.000025,-0.000085,0.000041,0.000039,-0.000099,18.440096,0.000099,
2506,3223,5.27639289334429,12.5882596369503,0.0233818268570758,0.004249,0.000407,0.000979,0.192023,0.061223,311.733682,26.486777,0.999539,0.991740,0.003714,0.432549,-0.000023,-0.000017,0.000004,-0.000015,-0.000024,64.524655,0.000040,
2506,2833,5.35318587285584,4.11420856160645,-0.0221791073499844,0.004240,0.000581,-0.001435,0.200564,0.068090,317.749072,24.901271,0.999564,0.990403,0.003940,0.457844,-0.000031,0.000016,0.000003,0.000017,-0.000031,86.320305,0.000031,
2506,3013,5.31762791098902,8.02927131074045,-0.00380976642713904,0.004142,0.000735,-0.003249,0.203396,0.064255,314.961863,25.658285,0.999529,0.991044,0.003656,0.424110,-0.000009,0.000035,0.000015,0.000039,-0.000013,72.966259,0.000040,
2461,2638,4.41204985160225,-0.1368873529171,-0.0284353963310764,0.004176,0.000775,-0.003973,0.206961,0.073715,320.764940,24.152602,0.999630,0.990055,0.003886,0.449120,-0.000029,0.000014,-0.000024,0.000024,-0.000039,-65.920938,0.000040,
2491,2878,5.01771307777714,5.09126266591893,-0.01411328619497,0.004032,0.000490,-0.001641,0.191786,0.056110,317.030300,24.972905,0.999525,0.992966,0.003492,0.532269,-0.000033,0.000050,-0.000019,0.000054,-0.000037,-77.762910,0.000055,
2491,2698,5.05323347384676,1.17305946372656,-0.0325267768188269,0.004147,0.000337,-0.002236,0.199046,0.040257,319.819924,24.396381,0.999703,0.990129,0.003898,0.386653,-0.000035,0.000053,-0.000014,0.000055,-0.000037,-80.882339,0.000056,
2476,1993,4.87720513755693,-14.2647510126772,0.0340190340820072,0.005011,0.001642,-0.008817,0.262987,0.045886,331.826689,21.720536,0.998492,0.972171,0.006358,0.315148,0.000046,-0.000088,0.000085,0.000087,-0.000129,25.775373,0.000132,
2506,3238,5.27322408203429,12.9135642344009,0.0193967299322253,0.004448,0.000619,0.000298,0.203877,0.064082,311.465633,26.505294,0.999593,0.991357,0.003713,0.476769,-0.000023,-0.000004,0.000005,-0.000003,-0.000024,76.622086,0.000030,
2491,2173,5.16646908742202,-10.313559156842,0.0289382788434409,0.004167,0.000606,-0.001831,0.197813,0.053828,328.855718,22.227415,0.998499,0.970837,0.006397,0.454842,-0.000003,-0.000047,0.000000,-0.000003,-0.000047,-0.031630,0.000056,
2476,3118,4.64512691420638,10.3059787290286,0.0211954713894897,0.004220,0.000170,0.002451,0.184945,0.053713,313.352381,25.917055,0.999497,0.991596,0.003604,0.455390,-0.000017,0.000032,0.000022,0.000041,-0.000026,69.205861,0.000041,
2506,2248,5.47743493409042,-8.66873753653635,0.0191546979164627,0.003996,-0.000452,0.002836,0.171691,0.031750,327.580116,22.442279,0.998812,0.981487,0.005552,0.456227,0.000017,-0.000080,-0.000020,0.000022,-0.000084,-11.390135,0.000088,
2506,2473,5.42844535191411,-3.7403719285938,-0.00979558297069616,0.004057,0.000276,0.000633,0.183624,0.065014,323.700170,23.437918,0.999421,0.985602,0.004521,0.438573,0.000019,-0.000035,0.000002,0.000019,-0.000036,2.607697,0.000036,
2491,2713,5.04994018156176,1.49949690376204,-0.0349833589025366,0.004231,0.000318,-0.001082,0.198507,0.055645,319.554590,24.367305,0.999674,0.989999,0.004103,0.490464,-0.000038,0.000048,-0.000009,0.000048,-0.000039,-84.024334,0.000051,
2491,2893,5.01403653406792,5.41967091471136,-0.0247726996529423,0.004364,0.000287,-0.001293,0.205617,0.039428,316.708857,25.151609,0.998759,0.988003,0.004335,0.395406,-0.000026,0.000041,-0.000016,0.000044,-0.000030,-77.400302,0.000045,
2506,3253,5.26982659941223,13.2396256876335,0.0153899454127782,0.004479,0.000655,0.000271,0.205448,0.070452,311.186588,26.594441,0.999725,0.993075,0.003422,0.453458,-0.000022,0.000014,0.000006,0.000015,-0.000023,80.606919,0.000023,
2506,2263,5.47377955564847,-8.33834094757107,0.0103566458211617,0.004170,-0.000279,0.002263,0.181968,0.038645,327.273443,22.564521,0.998560,0.977835,0.005823,0.404720,0.000016,-0.000061,-0.000027,0.000025,-0.000069,-17.288926,0.000070,
2506,2488,5.42566031217084,-3.41295664972357,-0.00922299452878406,0.004273,0.000307,-0.000087,0.196285,0.054185,323.474232,23.477650,0.999526,0.985890,0.004518,0.450139,0.000016,-0.000041,-0.000007,0.000017,-0.000041,-6.765968,0.000042,
2491,2188,5.16248127828213,-9.98207774378321,0.0153593218559536,0.004367,0.000635,-0.002620,0.210000,0.059851,328.511182,22.369003,0.998560,0.971376,0.006314,0.381461,0.000014,-0.000036,-0.000001,0.000014,-0.000036,-1.297058,0.000036,
2476,3133,4.64226120141155,10.6323744127311,0.0208697201666723,0.004351,0.000205,0.001527,0.194567,0.055798,313.112882,26.030415,0.999534,0.990829,0.003638,0.399756,-0.000016,0.000033,0.000016,0.000038,-0.000021,73.838668,0.000038,
2491,2728,5.04701668380182,1.82731829047133,-0.0367221815409948,0.004349,0.000508,-0.003312,0.212582,0.058051,319.309155,24.489027,0.999584,0.992341,0.003546,0.430240,-0.000043,0.000026,-0.000010,0.000028,-0.000044,-81.936431,0.000044,
2506,3268,5.26573832627484,13.5656083886978,0.0112665712128432,0.004097,0.000125,0.003409,0.175601,0.064663,310.875066,26.692256,0.999846,0.995751,0.002797,0.409348,-0.000019,-0.000010,0.000009,-0.000004,-0.000024,58.827643,0.000031,
2491,2908,5.01089714060426,5.74601131660769,-0.0180262338156467,0.003731,0.000305,-0.001308,0.176641,0.044039,316.491023,25.249780,0.999093,0.987200,0.004447,0.360261,-0.000026,0.000028,-0.000013,0.000031,-0.000029,-77.053066,0.000035,
2506,2278,5.47070670143462,-8.00941541890522,0.00655461682652003,0.004291,0.000214,-0.000660,0.198991,0.026827,327.015878,22.627902,0.998775,0.978030,0.005576,0.392722,0.000011,-0.000032,-0.000022,0.000020,-0.000042,-23.078808,0.000042,
2506,3283,5.26231478281317,13.8905249004667,0.00591767522428199,0.004102,0.000144,0.002098,0.180857,0.051782,310.588959,26.696181,0.999847,0.996092,0.002655,0.451865,-0.000012,-0.000038,0.000013,-0.000007,-0.000043,22.901405,0.000054,
2506,2503,5.4226676709718,-3.08436756431795,-0.0123251435200018,0.004651,0.000440,-0.000191,0.214097,0.053391,323.222061,23.586411,0.999399,0.986347,0.004729,0.402947,0.000013,-0.000032,-0.000008,0.000014,-0.000034,-9.618918,0.000034,
2491,2743,5.04347156717904,2.15397353102167,-0.0366082247243185,0.004150,0.000189,0.000010,0.190632,0.056391,319.043625,24.527285,0.999694,0.992310,0.003543,0.449381,-0.000043,0.000033,-0.000020,0.000038,-0.000048,-76.349966,0.000051,
2491,2203,5.15926635851205,-9.65276547898681,0.00934984022791241,0.004407,0.001124,-0.006704,0.227675,0.055000,328.236178,22.409670,0.998486,0.973042,0.006205,0.397643,0.000024,-0.000051,-0.000007,0.000024,-0.000052,-5.021890,0.000052,
2476,3148,4.63897672965613,10.9583223677202,0.0218260029603812,0.003997,0.000599,0.001113,0.180030,0.076014,312.859963,26.096195,0.999484,0.990285,0.003737,0.409785,-0.000015,0.000025,0.000016,0.000030,-0.000021,70.641585,0.000031,
2506,2293,5.46743910771704,-7.68120505633009,0.010509223056431,0.004089,-0.000463,0.002613,0.176870,0.011703,326.783909,22.713006,0.999061,0.978950,0.005502,0.355555,0.000010,-0.000020,-0.000007,0.000012,-0.000022,-11.915456,0.000022,
2506,3298,5.25964168660126,14.2157553297316,0.00926553281271936,0.004171,0.000366,0.001370,0.186890,0.049799,310.376331,26.769289,0.999774,0.994033,0.003105,0.436364,-0.000012,-0.000056,-0.000003,-0.000011,-0.000056,-3.706142,0.000072,
2491,2923,5.00697919667856,6.07331746244412,-0.0283023806534288,0.004006,0.000361,0.001715,0.177725,0.064440,316.160201,25.303089,0.999358,0.987291,0.004272,0.385842,-0.000026,0.000016,-0.000016,0.000021,-0.000031,-70.841888,0.000032,
2506,2518,5.41873004124148,-2.75710975552702,-0.0141687525751308,0.004155,0.000022,0.001873,0.183231,0.047700,322.932194,23.594789,0.999421,0.987308,0.004613,0.451313,0.000006,-0.000035,-0.000019,0.000013,-0.000043,-21.486578,0.000044,
2491,2758,5.04091164288316,2.4797708276622,-0.0297464020744087,0.004214,0.000224,0.001546,0.187723,0.065812,318.853905,24.533237,0.999584,0.989420,0.003924,0.511754,-0.000038,0.000025,-0.000019,0.000030,-0.000043,-74.534980,0.000044,
2506,2308,5.46454169694746,-7.35307781006227,0.0108521899608718,0.003920,0.000070,-0.001590,0.185587,0.008057,326.552725,22.747424,0.999038,0.980797,0.005395,0.380852,0.000020,0.000009,-0.000001,0.000020,0.000009,-5.841830,0.000030,
2491,2218,5.15534769245966,-9.32319017142876,0.00902505973203915,0.004130,0.000221,-0.000661,0.191562,0.046850,327.954283,22.543163,0.998968,0.980558,0.005602,0.317387,0.000024,-0.000055,-0.000006,0.000025,-0.000055,-4.100856,0.000055,
2506,2533,5.41605241399915,-2.42834691942188,-0.0185055095037683,0.004606,0.000542,-0.002315,0.220325,0.058824,322.688737,23.706956,0.999597,0.988941,0.004223,0.412320,0.000011,-0.000056,-0.000011,0.000013,-0.000058,-9.331450,0.000061,
2491,2938,5.00498884594937,6.39929338032979,-0.0219024462822404,0.004497,0.000280,0.001082,0.202736,0.065491,315.993655,25.376418,0.999468,0.990057,0.003812,0.371787,-0.000022,0.000008,-0.000015,0.000015,-0.000028,-67.188532,0.000028,
2491,2773,5.03777605871494,2.80734454199037,-0.0293913284012319,0.003983,0.000467,-0.000204,0.183927,0.069655,318.607926,24.660751,0.999318,0.987415,0.004243,0.446925,-0.000044,0.000013,-0.000024,0.000022,-0.000052,-70.043566,0.000052,
2506,2323,5.46117944279433,-7.02448345345086,0.00815427207646735,0.004028,0.000422,-0.000111,0.184982,0.071973,326.286236,22.731993,0.998916,0.984053,0.005055,0.523637,0.000018,0.000022,0.000004,0.000025,0.000015,56.042693,0.000040,
2506,2548,5.41396854635044,-2.10209025920756,-0.00181911834664561,0.004328,0.000213,-0.000989,0.202324,0.047017,322.566759,23.804231,0.999802,0.991174,0.003803,0.364937,0.000002,-0.000067,-0.000019,0.000006,-0.000072,-14.491019,0.000079,
2491,2788,5.03478309050964,3.13427887910843,-0.0291541327721916,0.004064,0.000306,-0.000020,0.186869,0.053362,318.368072,24.753078,0.999429,0.987994,0.004152,0.397171,-0.000048,0.000003,-0.000030,0.000016,-0.000062,-65.366365,0.000064,
2491,2233,5.15148206376582,-8.9949711561459,0.00431478237948113,0.003829,-0.000045,0.000302,0.174027,0.039070,327.655175,22.512203,0.998997,0.980450,0.005736,0.402085,0.000021,-0.000056,-0.000003,0.000021,-0.000056,-2.036087,0.000057,
2491,2953,5.00239038992437,6.72445122277158,-0.0158527816791434,0.004396,0.000246,0.000338,0.200899,0.052982,315.797676,25.388910,0.999328,0.989770,0.003981,0.405106,-0.000023,0.000020,-0.000003,0.000021,-0.000023,-86.566088,0.000025,
2506,2338,5.45863411205955,-6.69480097905072,0.00702226689492136,0.004424,0.000718,-0.003449,0.216154,0.052176,326.064364,22.920689,0.999241,0.985768,0.005098,0.377916,0.000012,0.000036,0.000003,0.000037,0.000012,83.610939,0.000051,
2506,2563,5.41095639233741,-1.77624201170223,0.0025101414532287,0.004552,0.000031,0.004977,0.189501,0.066613,322.346880,23.726270,0.999791,0.991815,0.003765,0.524551,-0.000004,-0.000046,-0.000017,0.000002,-0.000052,-19.290289,0.000059,
2491,2968,4.99997703500488,7.0500457216446,-0.0115082454792059,0.004265,0.000611,-0.004671,0.214290,0.053393,315.602325,25.420198,0.999319,0.988202,0.004253,0.432551,-0.000026,0.000028,0.000010,0.000029,-0.000027,80.072834,0.000033,
2506,2353,5.45615918168737,-6.36709794613282,0.00795181431482206,0.004838,0.000745,-0.005169,0.241776,0.055512,325.854958,22.930448,0.999240,0.985529,0.005141,0.434287,0.000023,0.000057,0.000012,0.000061,0.000020,72.623306,0.000084,
2491,2248,5.14821822271711,-8.66730356667778,0.00795935416937255,0.003814,-0.000563,0.005865,0.151871,0.028882,327.421146,22.524843,0.998926,0.981256,0.005551,0.440547,0.000020,-0.000072,-0.000011,0.000021,-0.000073,-6.524395,0.000075,
2506,2578,5.40639586101733,-1.446023665087,-0.0167506095420435,0.004341,0.000106,0.000161,0.198564,0.078337,321.949736,23.855394,0.999573,0.986193,0.004708,0.469503,-0.000007,-0.000023,-0.000017,0.000004,-0.000034,-32.800100,0.000037,
2506,2368,5.45235092097327,-6.03972164107716,0.00749891782504619,0.004473,0.000464,-0.001690,0.211559,0.054744,325.578136,22.906122,0.998757,0.979659,0.005832,0.520930,0.000032,0.000065,0.000022,0.000076,0.000021,63.629106,0.000102,
2491,2983,4.99656645008486,7.37684054720576,-0.0107957501998044,0.004105,0.000484,-0.001867,0.196151,0.055323,315.344242,25.539402,0.999269,0.988356,0.004149,0.373391,-0.000022,0.000037,0.000009,0.000038,-0.000023,81.768698,0.000039,
2491,2263,5.14606726302902,-8.3379178314793,0.0060141344956719,0.004367,0.000068,-0.000748,0.202747,0.021635,327.212841,22.639107,0.998694,0.980186,0.005376,0.379965,0.000018,-0.000056,-0.000019,0.000022,-0.000061,-13.510963,0.000061,
2506,2593,5.40228528891948,-1.11636970895552,-0.0269785651731809,0.004078,0.000664,-0.001473,0.193020,0.063849,321.613628,24.044731,0.999823,0.994384,0.003501,0.327878,-0.000014,0.000003,-0.000012,0.000009,-0.000021,-62.684053,0.000021,
2506,2383,5.44894468610758,-5.71068753012792,0.00612694499926647,0.004486,0.000005,0.000380,0.203958,0.035387,325.315455,23.048380,0.998638,0.981419,0.005420,0.422161,0.000038,0.000057,0.000004,0.000057,0.000037,79.087692,0.000095,
2491,2278,5.14327413661734,-8.00850101243869,0.00820777582850951,0.004388,0.000690,-0.001912,0.208434,0.063469,326.993330,22.754706,0.999056,0.982096,0.005118,0.367546,0.000015,-0.000030,-0.000016,0.000019,-0.000035,-17.541913,0.000035,
2506,2608,5.39938471550765,-0.790326861632764,-0.0257600719948528,0.003985,0.000841,-0.003683,0.197395,0.069190,321.384730,23.987162,0.999848,0.993934,0.003580,0.452729,-0.000021,0.000004,-0.000021,0.000016,-0.000033,-60.626866,0.000033,
2506,2848,5.35032073040579,4.44116586560379,-0.0197451720325716,0.004398,0.000197,0.000033,0.201986,0.051555,317.525702,25.029591,0.999704,0.992349,0.003501,0.373550,-0.000027,0.000034,-0.000004,0.000035,-0.000027,-86.137705,0.000036,
2491,2293,5.13972222846373,-7.68134371146426,0.00833720814608796,0.004091,-0.000034,0.000240,0.186316,0.029310,326.730223,22.723803,0.999186,0.982734,0.005008,0.425061,0.000015,-0.000020,-0.000004,0.000016,-0.000020,-6.560822,0.000021,
2506,2623,5.39683147003817,-0.4656124775574,-0.0174181849092179,0.003896,0.000425,-0.002770,0.189611,0.055779,321.203830,23.891593,0.999873,0.994492,0.003309,0.596314,-0.000029,-0.000007,-0.000030,0.000014,-0.000050,-55.030758,0.000051,
2506,2863,5.34631804114989,4.76769530545274,-0.0260867897899857,0.004363,0.000155,0.003958,0.185228,0.069084,317.210650,25.023601,0.999761,0.992794,0.003412,0.458255,-0.000031,0.000045,-0.000005,0.000046,-0.000032,-86.062671,0.000047,
2491,2308,5.13682603464892,-7.35177963812567,0.00665081476250862,0.004154,0.000388,-0.003105,0.202177,0.037390,326.488530,22.857732,0.998719,0.980338,0.005472,0.360160,0.000029,-0.000004,0.000001,0.000029,-0.000004,1.324379,0.000031,
2506,3028,5.31479281618238,8.35473784029143,0.000136782503204813,0.004043,0.000887,-0.003501,0.199853,0.059118,314.745961,25.695356,0.999605,0.992631,0.003496,0.442222,-0.000008,0.000046,0.000007,0.000047,-0.000009,82.619747,0.000050,
2506,3043,5.3116438654776,8.68144485195235,0.00362149152437041,0.004141,0.000520,0.001720,0.184046,0.071867,314.513078,25.829451,0.999719,0.992912,0.003645,0.380879,-0.000008,0.000039,0.000011,0.000041,-0.000011,76.961669,0.000043,
2506,3058,5.3091111288744,9.00573866308861,0.00985640997510018,0.004205,0.000266,0.002158,0.185191,0.062254,314.321531,25.784749,0.999716,0.992884,0.003745,0.476312,-0.000008,0.000034,0.000001,0.000034,-0.000009,88.272166,0.000036,
2491,2053,5.19025291468249,-12.9444237579793,0.0119317589455363,0.004100,0.001122,-0.007940,0.218186,0.010244,330.671469,21.866083,0.999122,0.977434,0.005868,0.277712,0.000022,-0.000058,0.000042,0.000040,-0.000076,23.197578,0.000076,
2491,2068,5.18648362956617,-12.6145315155243,0.00667028486446952,0.004005,0.000947,-0.006396,0.207849,0.037267,330.374979,21.884225,0.999274,0.978975,0.005771,0.349406,0.000022,-0.000039,0.000042,0.000043,-0.000060,27.141307,0.000062,
2461,2398,4.46218663212303,-5.38162748482834,-0.00248074546072985,0.004036,0.000295,0.000266,0.184080,0.055376,324.858738,23.275846,0.999633,0.986663,0.004676,0.418523,0.000026,0.000008,0.000008,0.000029,0.000006,20.443817,0.000037,
2476,2683,4.72949861127345,0.844568746167923,-0.0291656429354248,0.004248,0.000195,0.000755,0.192240,0.053811,320.046687,24.279763,0.999630,0.989997,0.003892,0.462069,-0.000037,0.000035,-0.000014,0.000038,-0.000039,-79.317109,0.000045,
2476,2698,4.72644364207618,1.17171932365028,-0.0268001962897984,0.003940,0.000321,-0.000566,0.183178,0.049899,319.812935,24.369835,0.999657,0.989134,0.004141,0.425149,-0.000037,0.000054,-0.000013,0.000055,-0.000039,-82.241038,0.000057,
2476,2713,4.72360015645378,1.49770699052124,-0.0252967672032014,0.004118,0.000358,0.000649,0.186787,0.068090,319.585113,24.328142,0.999636,0.989820,0.004124,0.541884,-0.000038,0.000052,-0.000006,0.000052,-0.000039,-85.946523,0.000054,
2491,3178,4.96010891775439,11.6100186416138,0.0298146212336405,0.004086,0.000862,-0.002351,0.197503,0.075827,312.490309,26.241994,0.999613,0.991399,0.003645,0.443657,-0.000010,0.000030,0.000016,0.000036,-0.000016,71.055382,0.000036,
2491,3193,4.95747878797747,11.9349057118519,0.0364035887479872,0.004055,0.000757,-0.001309,0.192102,0.081512,312.294136,26.268277,0.999542,0.991785,0.003616,0.480579,-0.000007,0.000026,0.000013,0.000030,-0.000011,71.056091,0.000031,
2491,3208,4.95411865401892,12.2612351828423,0.0316570051477925,0.004245,0.000931,-0.000318,0.197149,0.095071,312.012513,26.357115,0.999420,0.992238,0.003651,0.462824,-0.000004,0.000015,0.000006,0.000017,-0.000006,72.720822,0.000017,
2491,3223,4.95103319677024,12.5871549212171,0.0252765513722011,0.004466,0.000884,-0.003856,0.220897,0.080995,311.736199,26.430834,0.999498,0.992128,0.003617,0.432694,-0.000004,-0.000005,0.000006,0.000002,-0.000010,43.991722,0.000011,
