Image X[Pixel],Image Y[Pixel],X[mm],Y[mm],Z[mm],Horizontal Displacement U[mm],Vertical Displacement V[mm],Out-Of-Plane: W[mm],Horizontal: u[Pixel],Vertical: v[Pixel],Horizontal: q[Pixel],Vertical: r[Pixel],Correlation Value 2D,Correlation Value Persp,Sigma,Epipolar Distance,Strain-global frame: Exx,Strain-global frame: Eyy,Strain-global frame: Exy,Maximum Principal Strain: EI,Minimum Principal Strain: EII,Shear Angle Gamma,Von Mises Equivalent Strain,
2011,1993,-5.27849541148077,-14.2513738426869,0.0295692257730593,0.006167,0.000861,-0.000846,0.285452,0.039802,332.677854,24.979626,0.998605,0.982267,0.005412,0.332345,0.000002,-0.000212,-0.000059,0.000018,-0.000227,-14.397601,0.000253,
2071,2293,-4.01752022523491,-7.67992474317633,-0.0047819626860246,0.006489,0.000694,-0.003241,0.307552,0.035994,327.252963,24.468459,0.999816,0.993507,0.003720,0.417044,-0.000004,-0.000001,0.000010,0.000008,-0.000012,49.935729,0.000013,
2026,2068,-4.96212544488585,-12.6083324144605,0.030021885273527,0.006500,0.000037,0.001035,0.295475,0.005027,331.398892,24.786846,0.999720,0.992574,0.003599,0.354563,0.000000,-0.000091,0.000001,0.000000,-0.000091,0.918382,0.000105,
2056,2218,-4.33197100118128,-9.31965572799975,0.00841679834098841,0.006485,0.001471,-0.002138,0.304266,0.101221,328.645602,24.653201,0.998556,0.982359,0.005269,0.373271,-0.000016,0.000026,0.000011,0.000029,-0.000019,76.064558,0.000029,
2041,2143,-4.64666243183592,-10.964152052682,0.0180877374764918,0.006753,0.000163,-0.001110,0.313142,0.001247,330.025735,24.672970,0.998238,0.981460,0.005868,0.349233,-0.000029,-0.000018,-0.000002,-0.000017,-0.000030,-80.997421,0.000048,
2011,2038,-5.28522403654099,-13.262481521657,0.00855613382509546,0.006944,0.001139,-0.003771,0.329183,0.047649,331.826633,24.899959,0.998309,0.980627,0.005566,0.395613,-0.000012,-0.000215,-0.000024,-0.000009,-0.000218,-6.633608,0.000257,
2116,2518,-3.07469569361524,-2.7648737844757,-0.0231782625289725,0.006737,0.000336,-0.001997,0.315820,0.013672,323.259484,24.384300,0.999314,0.987903,0.004321,0.371801,0.000004,-0.000010,-0.000003,0.000004,-0.000010,-11.824539,0.000010,
2026,2098,-4.96657868996389,-11.9496804324737,0.0235224624293551,0.006633,0.000259,-0.001883,0.309700,-0.009670,330.878036,24.833834,0.998989,0.981592,0.005335,0.280204,-0.000010,-0.000029,0.000011,-0.000005,-0.000034,24.254966,0.000043,
2401,2548,3.12542951863614,-2.10530703516331,-0.00863597335597888,0.006683,-0.000287,0.005121,0.287971,0.023208,322.378981,23.895246,0.999353,0.990164,0.004443,0.422011,-0.000006,-0.000011,0.000009,0.000001,-0.000018,36.726092,0.000020,
2086,2368,-3.70261870090391,-6.04161571794291,-0.0028225742995005,0.006750,-0.000214,0.002812,0.302040,0.018522,325.979233,24.393260,0.998458,0.981718,0.005391,0.418661,-0.000013,-0.000007,0.000004,-0.000005,-0.000015,64.824961,0.000020,
2131,2593,-2.76095047808671,-1.12943824285353,-0.0231903623256358,0.006774,0.000194,0.003259,0.301958,0.049307,321.967147,24.357782,0.999429,0.990290,0.004169,0.438777,-0.000006,0.000001,-0.000005,0.000004,-0.000009,-61.451479,0.000009,
2056,2233,-4.33466119870774,-8.99162286995369,0.00330486416720532,0.006613,0.000515,0.001800,0.298835,0.060825,328.357059,24.627323,0.999310,0.988516,0.004471,0.356072,-0.000020,0.000025,0.000007,0.000027,-0.000021,81.449841,0.000028,
2146,2668,-2.44658455131659,0.504283857258635,-0.0232454521056411,0.006969,0.000593,-0.002599,0.328761,0.045360,320.717753,24.333406,0.999609,0.991978,0.003631,0.484412,-0.000004,0.000009,-0.000006,0.000012,-0.000007,-68.490979,0.000012,
2206,2968,-1.19265154695,7.03053392391792,-0.000192771261936286,0.006870,0.000386,0.000006,0.316656,0.053495,315.817815,24.727855,0.999343,0.991533,0.003757,0.404881,-0.000005,0.000024,-0.000009,0.000026,-0.000008,-73.803589,0.000027,
2161,2743,-2.13397029830175,2.13810641453359,-0.0279045182616642,0.006694,-0.000066,0.002228,0.301255,0.016832,319.377736,24.423883,0.999453,0.989854,0.004040,0.411053,-0.000011,-0.000001,-0.000014,0.000009,-0.000021,-54.176288,0.000021,
2011,2053,-5.28755991973181,-12.9341397455751,0.0147197236335046,0.006831,-0.000354,0.003535,0.303837,0.014730,331.612651,24.951152,0.999369,0.991602,0.003916,0.303083,-0.000014,-0.000155,-0.000034,-0.000006,-0.000163,-13.025605,0.000193,
2026,2083,-4.96478084374834,-12.2786950946516,0.0244362791068511,0.006379,0.000072,0.001256,0.289349,-0.008584,331.105906,24.816362,0.999311,0.987276,0.004540,0.305441,-0.000004,-0.000037,0.000006,-0.000003,-0.000038,10.214670,0.000045,
2431,2698,3.74831904127849,1.1704770480175,-0.0228768510465329,0.006326,0.000142,0.003260,0.278437,0.036659,319.849454,24.477547,0.999788,0.992536,0.003549,0.310763,-0.000003,0.000007,-0.000021,0.000023,-0.000019,-51.413198,0.000025,
2146,2683,-2.44993382167585,0.831589159455596,-0.0263511677486576,0.006788,-0.000321,0.004689,0.298055,0.020763,320.417851,24.403568,0.999398,0.990903,0.003779,0.397959,-0.000005,0.000008,-0.000007,0.000011,-0.000008,-65.504694,0.000012,
2176,2833,-1.82343827235168,4.09737111597337,-0.0383139163483293,0.007082,0.000034,0.000411,0.324806,0.010226,317.798673,24.513242,0.999610,0.994118,0.003410,0.393771,-0.000013,0.000015,-0.000002,0.000015,-0.000013,-85.053536,0.000017,
2251,3193,-0.253398352684041,11.9137268364705,0.0371585748781627,0.006592,0.000255,0.002171,0.296881,0.041974,312.326121,25.184769,0.999564,0.992557,0.003415,0.385553,-0.000006,0.000007,-0.000007,0.000010,-0.000009,-65.565476,0.000011,
2491,2998,4.99644249596082,7.70117960446071,0.00267088168760665,0.006364,0.000049,0.003469,0.279189,0.031541,315.295743,25.548022,0.999350,0.988813,0.004058,0.399214,0.000013,0.000011,0.000001,0.000014,0.000011,20.276067,0.000025,
2011,2008,-5.28141379319581,-13.9205425869501,0.0189564713412551,0.006250,0.000254,0.002860,0.279067,0.043545,332.342941,25.013846,0.998740,0.984477,0.005127,0.294141,0.000011,-0.000153,-0.000014,0.000012,-0.000154,-4.794915,0.000172,
2311,2098,1.24932054790019,-11.9535629220235,0.0165547968813939,0.006741,0.000244,0.000089,0.308484,0.021262,329.866190,23.119786,0.999283,0.982067,0.005422,0.313969,-0.000034,-0.000019,0.000001,-0.000019,-0.000034,86.295003,0.000054,
2041,2173,-4.65195827314873,-10.305458297167,0.00751510301205371,0.006609,0.000471,-0.000135,0.303985,0.033193,329.446584,24.692633,0.999324,0.988848,0.004392,0.352579,-0.000031,-0.000044,-0.000019,-0.000018,-0.000057,-35.793126,0.000078,
2506,3073,5.30788763060741,9.33172682163322,-0.000450869007124766,0.006851,-0.000060,0.000994,0.311014,0.010279,314.115680,25.835127,0.999649,0.992019,0.003892,0.434370,0.000017,0.000032,0.000001,0.000032,0.000017,86.711630,0.000050,
2266,3268,0.0569445222688501,13.5413972125647,0.0154054379049171,0.006662,0.000313,0.003157,0.296872,0.042299,310.886463,25.320607,0.999672,0.993191,0.003340,0.442177,-0.000017,0.000007,-0.000007,0.000009,-0.000018,-75.244408,0.000018,
2341,2248,1.87461526405454,-8.66569316169572,0.00462246352157081,0.006250,-0.000375,0.006384,0.264059,0.016556,327.294040,23.282911,0.999054,0.982498,0.005143,0.359111,-0.000021,-0.000050,-0.000016,-0.000014,-0.000057,-23.685042,0.000075,
2296,2038,0.933652833679904,-13.2709478929972,0.0329947762473353,0.006476,0.000575,-0.000895,0.299694,0.019684,330.970704,23.155534,0.999326,0.984371,0.004961,0.233194,-0.000054,-0.000048,-0.000017,-0.000034,-0.000068,-50.230511,0.000104,
2266,3283,0.0534249024459044,13.8667347486161,0.00484176384424018,0.006500,0.000272,0.001397,0.295222,0.033297,310.550140,25.327660,0.999596,0.992894,0.003308,0.450346,-0.000019,0.000012,-0.000005,0.000012,-0.000020,-81.163941,0.000020,
2296,2023,0.936173562085752,-13.6025263393078,0.0302470461359121,0.006776,-0.000425,0.003222,0.299153,0.003198,331.189890,22.898498,0.999100,0.981982,0.005424,0.440240,-0.000060,-0.000043,-0.000008,-0.000040,-0.000064,-67.788340,0.000104,
2041,2158,-4.65037855351902,-10.6324741033963,0.00106713177427764,0.006545,-0.000140,0.002778,0.292761,0.019215,329.622148,24.765341,0.999330,0.986754,0.004769,0.270938,-0.000031,-0.000036,-0.000023,-0.000011,-0.000057,-41.708899,0.000073,
2071,2323,-4.0217717593027,-7.0243823691187,-0.00280685340914033,0.006926,0.000344,0.000201,0.317767,0.037511,326.796666,24.470903,0.999326,0.987889,0.004501,0.413887,-0.000004,-0.000032,0.000001,-0.000003,-0.000032,1.776041,0.000039,
2191,2908,-1.5089463612472,5.72531426440146,-0.00800226487950795,0.006550,0.000177,0.001041,0.298523,0.045567,316.757335,24.508679,0.999787,0.995129,0.003135,0.522359,-0.000008,0.000014,-0.000004,0.000015,-0.000009,-80.882143,0.000015,
2446,2773,4.05984043460628,2.80395255959632,-0.0328919238518779,0.006509,-0.000038,-0.001051,0.302769,-0.000429,318.594885,24.566497,0.999547,0.988676,0.004245,0.444437,-0.000001,-0.000004,-0.000013,0.000010,-0.000015,-41.785944,0.000015,
2056,2248,-4.33677158442064,-8.66433588367462,0.00340190601752965,0.006639,0.000287,-0.000079,0.305265,0.027121,328.123721,24.585901,0.999161,0.986266,0.004719,0.360896,-0.000025,0.000026,-0.000007,0.000027,-0.000026,-82.325049,0.000030,
2161,2758,-2.13638761038555,2.46434929003597,-0.023817758744201,0.006597,0.000062,0.003533,0.292865,0.030550,319.159842,24.439356,0.999181,0.987835,0.004217,0.419292,-0.000009,-0.000002,-0.000018,0.000013,-0.000023,-50.522805,0.000023,
2026,2128,-4.971576859517,-11.2912786379596,0.0133936503710288,0.006938,-0.000063,0.003399,0.309169,0.015872,330.312046,24.802325,0.998558,0.978584,0.006020,0.324268,-0.000019,-0.000046,0.000019,-0.000010,-0.000056,27.240902,0.000071,
2101,2443,-3.38798224543309,-4.40287010050718,-0.00762742146059736,0.007000,0.000352,0.001507,0.317494,0.043374,324.671412,24.379575,0.999366,0.988318,0.004372,0.421463,-0.000016,-0.000027,0.000001,-0.000016,-0.000027,6.768997,0.000043,
2176,2818,-1.82109858683677,3.7711136787225,-0.0309360010367641,0.006444,-0.000102,0.001310,0.292597,0.010000,318.072101,24.548335,0.999293,0.990841,0.003942,0.346214,-0.000016,0.000015,-0.000007,0.000017,-0.000017,-77.637467,0.000020,
2011,2023,-5.28300835043029,-13.5923825139193,0.0189266295660104,0.006703,0.000813,0.001382,0.304059,0.049525,332.127943,24.928945,0.998623,0.983727,0.005260,0.376653,-0.000003,-0.000227,-0.000031,0.000001,-0.000231,-7.680287,0.000266,
2011,2068,-5.28926172683748,-12.6069348112285,0.0212384046957936,0.006749,-0.000090,0.001257,0.306326,-0.005004,331.429740,24.894125,0.999421,0.991223,0.003928,0.331576,-0.000012,-0.000118,-0.000019,-0.000009,-0.000121,-9.921027,0.000146,
2476,2923,4.68375841274442,6.07145393795543,-0.0202789446376528,0.006515,0.000236,0.000038,0.299242,0.012703,316.311377,25.297230,0.999206,0.987111,0.004424,0.308781,-0.000008,0.000004,-0.000001,0.000004,-0.000009,-86.181979,0.000009,
2221,3043,-0.880195023707461,8.65905475148299,0.008347351358168,0.006460,-0.000175,0.004254,0.283978,0.027693,314.592916,24.855597,0.999721,0.993865,0.003193,0.379954,0.000003,0.000007,-0.000013,0.000018,-0.000008,-49.647681,0.000018,
2416,2623,3.43663077523734,-0.46711553326913,-0.0215915059901022,0.006586,-0.000205,0.003878,0.288014,0.030308,321.069298,24.101966,0.999385,0.988888,0.004089,0.441030,0.000001,0.000009,-0.000008,0.000014,-0.000004,-58.463202,0.000014,
2041,2188,-4.654468361879,-9.97709548297305,0.0103311058265945,0.006369,0.000482,0.003426,0.283108,0.069753,329.208145,24.686567,0.999212,0.986203,0.004754,0.390380,-0.000036,0.000000,-0.000008,0.000002,-0.000037,-78.286428,0.000042,
2491,3013,4.99328145921136,8.02774388373699,-0.00280921339862061,0.006573,-0.000032,0.001523,0.296234,0.017996,315.021125,25.627012,0.999619,0.992831,0.003439,0.364666,0.000008,0.000016,0.000002,0.000017,0.000008,76.205637,0.000025,
2326,2173,1.56201872029745,-10.3087066715204,0.014378089979175,0.006292,-0.000403,0.005368,0.269596,0.018250,328.593614,23.256929,0.998620,0.979628,0.005529,0.269940,-0.000028,-0.000017,-0.000004,-0.000016,-0.000029,-70.982359,0.000045,
2116,2533,-3.07732324388174,-2.43801488763796,-0.0238961427874642,0.006585,0.000444,-0.001599,0.307711,0.021763,323.003010,24.352561,0.999202,0.986163,0.004655,0.416316,-0.000002,-0.000009,0.000001,-0.000002,-0.000009,10.021562,0.000012,
2236,3118,-0.566935141227038,10.2873960601709,0.0155256882302979,0.006609,0.000466,0.000531,0.303055,0.043301,313.410096,25.014296,0.999588,0.992234,0.003621,0.386641,-0.000012,-0.000002,-0.000019,0.000012,-0.000027,-52.545201,0.000027,
2251,3223,-0.258460788405085,12.5632842014906,0.048034473692951,0.006155,0.000397,0.002470,0.275944,0.058033,311.905087,25.201580,0.999688,0.994681,0.003178,0.428814,-0.000010,0.000012,-0.000005,0.000012,-0.000011,-78.462705,0.000014,
2266,3298,0.0511598824351331,14.1921936770093,0.0112398206544526,0.006471,0.000176,0.001066,0.294930,0.020840,310.357124,25.445504,0.999656,0.993399,0.003294,0.343719,-0.000021,0.000022,-0.000003,0.000022,-0.000021,-85.889359,0.000025,
2461,2848,4.37121162485468,4.43883798653788,-0.0315763924483008,0.006587,-0.000073,0.003689,0.288649,0.022677,317.397320,24.929638,0.999771,0.993567,0.003230,0.385208,-0.000013,0.000014,-0.000014,0.000021,-0.000019,-66.696935,0.000023,
2086,2383,-3.70565970858971,-5.71177216459167,-0.0123492971332553,0.006341,0.000719,-0.002111,0.297746,0.050280,325.652813,24.474568,0.998383,0.981874,0.005371,0.370352,-0.000009,-0.000011,0.000005,-0.000005,-0.000015,40.252754,0.000021,
2206,2983,-1.1957956469083,7.35675195925219,-0.00356178752446112,0.006580,0.000407,0.000247,0.302570,0.055940,315.530746,24.760627,0.999387,0.992119,0.003613,0.390416,-0.000001,0.000020,-0.000010,0.000024,-0.000005,-68.894165,0.000025,
2281,2008,0.611414113967488,-13.9290572905028,0.0303388351689478,0.006793,0.000732,0.000355,0.310038,0.063100,331.456141,23.129201,0.999269,0.983333,0.005247,0.339833,-0.000054,-0.000045,0.000006,-0.000042,-0.000057,64.207066,0.000099,
2431,2713,3.74643497290293,1.4954824672994,-0.0171439806814533,0.006701,0.000314,0.000303,0.306669,0.034216,319.682325,24.399676,0.999743,0.992105,0.003608,0.436239,-0.000008,0.000015,-0.000016,0.000023,-0.000016,-62.860481,0.000024,
2131,2608,-2.76303914757968,-0.802836330267709,-0.0234877066380932,0.006787,0.000331,-0.002206,0.318911,0.014249,321.738986,24.373235,0.999378,0.989637,0.004317,0.394484,-0.000006,-0.000001,-0.000004,0.000001,-0.000008,-60.601096,0.000008,
2371,2398,2.50042042835389,-5.38300078315358,-0.00250019482371044,0.006144,0.000329,0.002310,0.273671,0.047361,324.825095,23.527874,0.999465,0.988054,0.004529,0.438418,0.000003,-0.000001,0.000018,0.000019,-0.000017,42.138513,0.000021,
2146,2728,-2.4575203547563,1.81097391249312,-0.0229697760880185,0.006261,0.000302,0.002513,0.280735,0.046764,319.698645,24.413999,0.999481,0.990337,0.004019,0.437824,-0.000005,0.000005,-0.000005,0.000007,-0.000007,-67.093046,0.000008,
2026,2113,-4.96926562706494,-11.620460608856,0.0165891128625049,0.006842,-0.000160,0.002980,0.305847,0.025922,330.575966,24.773768,0.998397,0.978765,0.005906,0.369644,-0.000016,-0.000045,0.000019,-0.000007,-0.000054,26.245161,0.000066,
2071,2338,-4.02368294687201,-6.69735790926573,0.00315448350505676,0.006837,0.000504,-0.001455,0.318493,0.040074,326.605654,24.458413,0.998859,0.986178,0.004747,0.427592,-0.000011,-0.000032,0.000003,-0.000010,-0.000032,7.721124,0.000045,
2296,2053,0.931287396526461,-12.9415159032468,0.0280611785329938,0.007153,0.000717,-0.001334,0.332253,0.034789,330.720927,23.137706,0.999343,0.983064,0.005009,0.299604,-0.000050,-0.000039,-0.000009,-0.000033,-0.000055,-60.857544,0.000090,
2236,3133,-0.569695507385862,10.6129551941265,0.0137910276212665,0.006751,0.000370,0.002176,0.304368,0.063237,313.151340,25.021087,0.999659,0.992597,0.003632,0.419961,-0.000014,-0.000001,-0.000016,0.000009,-0.000025,-56.054697,0.000025,
2401,2563,3.1219164124347,-1.77666874085368,-0.0177791152771078,0.006627,0.000411,0.002719,0.294450,0.057670,322.064825,23.939268,0.999298,0.988399,0.004368,0.459203,-0.000008,-0.000001,0.000007,0.000003,-0.000012,57.241651,0.000012,
2161,2773,-2.13930069857804,2.79139686462545,-0.0320729050438331,0.006571,0.000054,0.000902,0.299772,0.017898,318.853985,24.462387,0.999443,0.990811,0.003860,0.394055,-0.000010,0.000004,-0.000013,0.000011,-0.000017,-59.604694,0.000018,
2131,2623,-2.76559063497135,-0.475996901181659,-0.0210845812483171,0.006664,0.000370,0.000003,0.306721,0.029844,321.503808,24.387789,0.999462,0.990140,0.004090,0.401901,-0.000004,0.000000,-0.000006,0.000005,-0.000008,-53.316020,0.000008,
2041,2203,-4.65676775283368,-9.64812999786958,0.00226711870544705,0.006546,0.000588,-0.000570,0.302403,0.036559,328.919471,24.695994,0.998602,0.982397,0.005378,0.343194,-0.000029,0.000013,-0.000001,0.000013,-0.000029,-88.121914,0.000029,
2206,2998,-1.19821667720437,7.68213093257381,-0.0017801861287694,0.006909,0.000131,0.004149,0.305244,0.046060,315.303807,24.767885,0.999442,0.991772,0.003678,0.389513,-0.000001,0.000021,-0.000008,0.000023,-0.000003,-71.984648,0.000025,
2221,3058,-0.88193104547155,8.98393139848505,0.0161320143951684,0.006623,0.000344,0.001601,0.300254,0.052745,314.429416,24.835891,0.999760,0.994567,0.002982,0.442718,0.000006,0.000004,-0.000015,0.000020,-0.000010,-42.771469,0.000020,
2506,3088,5.30553961493486,9.65772079302158,0.00889185061970466,0.006693,0.000231,-0.000332,0.309068,0.027663,313.945905,25.947404,0.999659,0.992925,0.003493,0.399487,0.000024,0.000038,0.000017,0.000049,0.000012,55.950734,0.000065,
2356,2323,2.18771004800728,-7.02525854936929,0.00588670657043622,0.006205,-0.000850,0.008464,0.254391,0.009964,326.084937,23.325940,0.999705,0.994353,0.003626,0.445806,-0.000023,-0.000025,0.000000,-0.000023,-0.000025,6.638144,0.000048,
2251,3208,-0.256027862117577,12.2385576019849,0.0344115129619809,0.006515,0.000089,-0.002516,0.308704,0.026369,312.069498,25.172616,0.999731,0.995275,0.003046,0.404239,-0.000008,0.000006,-0.000004,0.000007,-0.000009,-75.685636,0.000009,
2116,2548,-3.08016741202313,-2.11003721703906,-0.0317739371845391,0.006574,0.000946,-0.002898,0.311263,0.050037,322.697855,24.344596,0.999287,0.987841,0.004403,0.457169,0.000001,-0.000001,0.000008,0.000008,-0.000008,41.076821,0.000010,
2026,2143,-4.97325408709272,-10.9631391385832,0.0116819346669672,0.007305,0.000714,-0.000606,0.337282,0.032255,330.085384,24.731183,0.998254,0.979467,0.005832,0.405097,-0.000017,-0.000022,0.000010,-0.000009,-0.000030,38.327993,0.000041,
2446,2788,4.0570602939953,3.13078293893487,-0.0272672983844018,0.006452,0.000229,0.001205,0.291916,0.022713,318.386197,24.651435,0.999515,0.989179,0.004058,0.434909,-0.000004,-0.000005,-0.000014,0.000010,-0.000018,-43.948515,0.000018,
2311,2113,1.24667497649553,-11.6261025289328,0.0223486548391634,0.006396,0.000115,0.000070,0.292724,-0.002907,329.657869,23.102676,0.999249,0.982272,0.005286,0.341848,-0.000034,-0.000016,0.000002,-0.000016,-0.000034,82.849306,0.000051,
2191,2893,-1.50651593586257,5.40099605818558,-0.0130331740461429,0.006688,0.000265,0.000010,0.308127,0.039827,316.968423,24.615085,0.999792,0.995323,0.003060,0.396201,-0.000010,0.000018,-0.000002,0.000018,-0.000010,-85.924881,0.000018,
2056,2278,-4.34152707220528,-8.00590167837695,-0.00372516547452051,0.006871,0.000750,0.000075,0.315672,0.046987,327.591236,24.709982,0.999688,0.991566,0.004017,0.250673,-0.000020,0.000002,0.000006,0.000003,-0.000022,75.123803,0.000024,
2011,2143,-5.30057647828135,-10.9614678675733,0.00559045359591437,0.007107,0.000463,0.000535,0.325035,0.057806,330.115453,24.858392,0.998164,0.980715,0.005724,0.386649,-0.000023,-0.000026,0.000010,-0.000014,-0.000035,41.649958,0.000051,
2071,2308,-4.02040015727851,-7.35048997570674,-0.0158943626453834,0.006660,0.000859,-0.002339,0.312926,0.037544,326.923932,24.497786,0.999848,0.992897,0.003874,0.388837,-0.000005,-0.000018,0.000003,-0.000004,-0.000018,12.108341,0.000024,
2101,2458,-3.39101972836578,-4.07509644081096,-0.0118106317664228,0.006625,0.000363,0.001889,0.299209,0.057948,324.376040,24.367129,0.999378,0.988673,0.004273,0.451246,-0.000016,-0.000031,-0.000004,-0.000015,-0.000032,-14.589911,0.000049,
2026,2158,-4.97631556898006,-10.6335898407435,0.0141158585598191,0.006667,-0.000422,0.005440,0.291110,0.022595,329.818447,24.864473,0.999264,0.986506,0.004708,0.255421,-0.000018,-0.000041,-0.000011,-0.000014,-0.000046,-22.082984,0.000062,
2056,2263,-4.33916638738161,-8.33544523533801,4.53920247878159E-05,0.006853,0.000277,0.002113,0.308950,0.056544,327.857817,24.598007,0.999168,0.984622,0.005095,0.375178,-0.000029,0.000018,-0.000001,0.000018,-0.000029,-89.212226,0.000029,
2011,2083,-5.29194965141059,-12.2767349543803,0.0139556717871301,0.006624,0.000187,0.000818,0.301889,0.021894,331.123977,24.916159,0.998726,0.982352,0.005322,0.327979,-0.000018,-0.000059,-0.000007,-0.000017,-0.000060,-9.115436,0.000080,
2281,2023,0.608542965649217,-13.5997832357102,0.02434808692351,0.006938,0.000534,-0.001052,0.321321,0.021961,331.176916,23.129566,0.999122,0.982379,0.005401,0.329854,-0.000050,-0.000036,0.000003,-0.000036,-0.000051,79.775786,0.000087,
2386,2473,2.81298171958096,-3.74242734023133,-0.0126894261583175,0.006566,0.000382,-0.000720,0.303921,0.032885,323.564047,23.743433,0.999442,0.989187,0.004376,0.385894,0.000006,-0.000014,0.000023,0.000021,-0.000029,33.421097,0.000030,
2161,2803,-2.14318425985356,3.44354913007524,-0.0218245325550583,0.006914,0.000592,-0.000696,0.320711,0.049196,318.472808,24.495753,0.999546,0.991929,0.003741,0.412071,-0.000015,0.000007,-0.000008,0.000010,-0.000017,-71.051150,0.000017,
2146,2698,-2.45273405333193,1.1587391263669,-0.0309962567193338,0.006767,0.000042,0.004639,0.297462,0.051967,320.134828,24.396225,0.999467,0.990469,0.003858,0.444778,-0.000003,0.000001,-0.000005,0.000005,-0.000007,-55.004881,0.000007,
2431,2728,3.74335938825709,1.82150382002197,-0.0184885257224323,0.006874,-0.000140,0.002396,0.306679,0.011835,319.427321,24.382064,0.999742,0.992495,0.003519,0.481710,-0.000009,0.000000,-0.000009,0.000006,-0.000015,-57.815182,0.000016,
2476,2938,4.68113497150945,6.39692016625756,-0.0140946182069115,0.006562,0.000121,0.001727,0.295000,0.025363,316.113932,25.309881,0.999364,0.989762,0.003979,0.364813,-0.000002,0.000001,-0.000002,0.000002,-0.000002,-64.783007,0.000003,
2116,2578,-3.0844790426309,-1.45700820277143,-0.0216864037543019,0.006654,0.000111,0.000549,0.304481,0.017247,322.290254,24.392543,0.999425,0.990082,0.004138,0.384715,-0.000005,-0.000007,-0.000005,-0.000001,-0.000011,-38.892697,0.000013,
2221,3073,-0.884561281087269,9.30947555195845,0.0176951630832036,0.006519,0.000116,0.001604,0.295332,0.030814,314.192630,24.887560,0.999636,0.993488,0.003245,0.387025,0.000002,0.000005,-0.000014,0.000017,-0.000010,-47.363223,0.000017,
2041,2218,-4.65900571509917,-9.31916740459581,-0.00346939168537119,0.006592,0.001741,-0.005353,0.318152,0.084520,328.646074,24.654894,0.997994,0.977034,0.005908,0.427377,-0.000029,0.000027,0.000004,0.000027,-0.000029,85.863495,0.000032,
2296,2083,0.92498270095524,-12.2827758195862,0.0240944808932682,0.006782,0.000077,0.001461,0.305645,0.030583,330.178548,23.208955,0.999333,0.983376,0.005070,0.291204,-0.000042,-0.000028,-0.000002,-0.000028,-0.000042,-80.455093,0.000070,
2416,2638,3.43395109141149,-0.13913087192055,-0.0206623134693018,0.006592,0.000285,0.001507,0.297198,0.033822,320.841846,24.229966,0.999439,0.989203,0.004108,0.364883,-0.000006,0.000010,-0.000014,0.000019,-0.000014,-59.505857,0.000020,
2041,2233,-4.66074778216155,-8.99119056114551,-0.00116170196992016,0.007078,0.000736,-0.003190,0.334189,0.028130,328.440459,24.716705,0.999083,0.984037,0.005046,0.303921,-0.000029,0.000027,-0.000002,0.000027,-0.000029,-87.991503,0.000032,
2371,2413,2.4980810995046,-5.05426813727924,-0.00590462311362216,0.006578,0.000582,-0.002337,0.310165,0.023068,324.590022,23.637492,0.999568,0.989248,0.004317,0.347036,0.000002,-0.000002,0.000023,0.000023,-0.000023,42.743475,0.000027,
2326,2188,1.56082018569743,-9.98132628985189,0.0171593437503361,0.006956,0.000634,-0.003748,0.331767,0.018407,328.437667,23.201162,0.998998,0.982607,0.005237,0.362741,-0.000028,-0.000022,-0.000008,-0.000017,-0.000033,-55.703746,0.000051,
2131,2653,-2.77008906090839,0.176666794530021,-0.0141490677954152,0.006573,0.000289,-0.000384,0.303715,0.036571,321.072852,24.378885,0.999660,0.991674,0.003650,0.429725,-0.000002,0.000007,-0.000003,0.000008,-0.000003,-71.534177,0.000009,
2191,2923,-1.51149390830467,6.05266256160549,-0.00857777039141183,0.006634,0.000351,0.001257,0.301765,0.036837,316.510738,24.658871,0.999447,0.991695,0.003704,0.377325,-0.000009,0.000016,-0.000003,0.000017,-0.000009,-84.380052,0.000017,
2101,2473,-3.39379060050215,-3.74773292163461,-0.0120567343167295,0.006413,-0.000148,0.004525,0.281601,0.034411,324.114338,24.396825,0.999355,0.989249,0.004218,0.400716,-0.000012,-0.000026,0.000004,-0.000011,-0.000027,15.872206,0.000040,
2461,2863,4.36875910016718,4.76489714839487,-0.0259189666130624,0.006594,0.000048,0.002531,0.293462,0.035354,317.204641,24.974349,0.999522,0.991636,0.003597,0.407150,-0.000014,0.000022,-0.000013,0.000027,-0.000018,-71.749454,0.000027,
2506,3103,5.30265334756923,9.98290255342643,0.0117617008452271,0.006696,0.000278,0.000173,0.307290,0.028908,313.722479,25.962933,0.999675,0.992860,0.003411,0.445197,0.000018,0.000036,0.000022,0.000051,0.000003,55.771218,0.000060,
2281,1993,0.613854543811566,-14.2583914310182,0.031886689146404,0.006574,0.000195,0.002114,0.293924,0.037017,331.693961,23.146089,0.999367,0.969644,0.006678,0.265320,-0.000060,-0.000074,-0.000011,-0.000054,-0.000080,-29.752459,0.000135,
2086,2428,-3.71258682376302,-4.7307709341353,-0.00396880783250708,0.006305,-0.000096,0.004408,0.277106,0.028310,324.976985,24.441288,0.999193,0.987073,0.004458,0.383496,-0.000007,-0.000023,0.000015,0.000003,-0.000032,30.648254,0.000036,
2011,2098,-5.29466446212143,-11.9473368456372,0.0124933055991505,0.006257,0.000135,0.002546,0.280373,0.034062,330.849742,24.949966,0.998277,0.978776,0.005900,0.298046,-0.000023,-0.000047,-0.000001,-0.000023,-0.000047,-1.642257,0.000072,
2026,2218,-4.98554015140022,-9.32027331424794,-0.00333579402587247,0.006751,0.000457,-0.003203,0.319010,-0.003982,328.738600,24.707433,0.998755,0.981482,0.005422,0.358182,0.000000,0.000035,0.000016,0.000041,-0.000006,69.221764,0.000045,
2176,2848,-1.82534871096678,4.42313477485264,-0.0276334684214703,0.006993,0.000328,0.000481,0.320656,0.038682,317.639628,24.544967,0.999347,0.991965,0.003640,0.402449,-0.000014,0.000013,0.000001,0.000013,-0.000014,86.930541,0.000016,
2146,2743,-2.45955119716363,2.13702879792115,-0.0186862940778951,0.006448,0.000320,0.002851,0.288325,0.042418,319.498618,24.426893,0.999520,0.990601,0.003993,0.428698,-0.000006,0.000000,-0.000010,0.000007,-0.000014,-53.485768,0.000014,
2161,2788,-2.1412509255455,3.11742327413742,-0.0269429865174402,0.006703,0.000297,-0.000344,0.309765,0.027200,318.663067,24.479026,0.999484,0.990821,0.003983,0.396550,-0.000014,0.000006,-0.000009,0.000009,-0.000018,-68.495082,0.000018,
2251,3238,-0.261417739578022,12.8879129768454,0.042108865222076,0.006313,0.000406,0.002446,0.283258,0.046181,311.617273,25.156296,0.999766,0.995864,0.002901,0.484312,-0.000012,0.000005,-0.000005,0.000006,-0.000014,-74.308770,0.000014,
2131,2638,-2.76716042680705,-0.151218803550321,-0.00270064167534656,0.006414,-0.000110,0.001276,0.291267,0.015303,321.399478,24.382608,0.999752,0.993010,0.003405,0.398299,0.000000,0.000002,-0.000005,0.000006,-0.000004,-49.174914,0.000006,
2491,3028,4.9899605808065,8.35371698150532,-0.00309114239047403,0.006488,0.000005,0.003225,0.285850,0.024610,314.762651,25.670809,0.999742,0.994128,0.003225,0.385494,0.000012,0.000026,-0.000002,0.000026,0.000012,-82.123343,0.000038,
2071,2413,-4.03620666151623,-5.05883638396,-0.00616800425302699,0.006568,-0.000089,0.000774,0.299720,0.008112,325.300874,24.443278,0.998895,0.984936,0.004833,0.403976,0.000000,-0.000028,0.000008,0.000002,-0.000031,15.279692,0.000034,
2296,2068,0.928575197377775,-12.6131810752004,0.0318928348278291,0.007068,0.000292,0.001369,0.319107,0.029051,330.498711,23.144139,0.999343,0.983110,0.005029,0.320782,-0.000046,-0.000030,-0.000004,-0.000029,-0.000047,-78.369027,0.000077,
2341,2263,1.8721854147136,-8.33729712598975,0.00829944673978389,0.006282,0.000224,0.005589,0.268537,0.029669,327.086785,23.342441,0.999151,0.984035,0.004957,0.351467,-0.000023,-0.000047,-0.000019,-0.000012,-0.000057,-28.807384,0.000075,
2401,2578,3.11875103865491,-1.44914174590772,-0.0195155362201831,0.006398,-0.000046,0.001117,0.289548,0.021482,321.801848,24.022671,0.999318,0.988011,0.004379,0.385812,-0.000005,0.000012,0.000007,0.000014,-0.000007,70.600957,0.000014,
2251,3253,-0.264741513100379,13.2146026843776,0.0287049741328929,0.006626,0.000303,0.002154,0.298633,0.038377,311.273763,25.259912,0.999660,0.994074,0.003229,0.394882,-0.000016,0.000003,-0.000005,0.000004,-0.000017,-76.537451,0.000018,
2086,2398,-3.70753060779255,-5.38493063794979,-0.0101427895173742,0.006657,0.000578,-0.002209,0.312550,0.035836,325.444442,24.445791,0.998898,0.984612,0.004863,0.385147,-0.000008,-0.000019,0.000004,-0.000006,-0.000020,18.334882,0.000028,
2476,2953,4.67868463845509,6.72264271372506,-0.0112063719196271,0.006761,0.000224,-0.000136,0.311306,0.025676,315.909354,25.338730,0.999251,0.989511,0.004107,0.392510,0.000005,0.000003,0.000004,0.000009,0.000000,36.762519,0.000010,
2041,2248,-4.66308666209645,-8.66484799016906,0.00248568361621437,0.006987,-0.000155,0.000806,0.318674,-0.001100,328.215231,24.621090,0.999258,0.985735,0.004685,0.365072,-0.000030,0.000026,-0.000017,0.000031,-0.000035,-74.125008,0.000039,
2446,2803,4.05409378112359,3.45837852896886,-0.0315244907472447,0.006669,0.000244,-0.000856,0.309604,0.018668,318.123174,24.761564,0.999659,0.990671,0.003746,0.372977,-0.000004,0.000000,-0.000015,0.000013,-0.000016,-48.960715,0.000017,
2056,2308,-4.3458551703699,-7.35254988520485,0.00414514915667041,0.006679,0.000438,0.001646,0.302388,0.035046,327.161918,24.573833,0.999708,0.990816,0.004064,0.368379,-0.000003,-0.000022,0.000005,-0.000002,-0.000023,13.494897,0.000027,
2236,3178,-0.57662565801073,11.5865375144697,0.0344644429303571,0.006343,-0.000085,0.002085,0.285597,0.017327,312.570513,25.039841,0.999428,0.991614,0.003623,0.414912,-0.000007,0.000008,-0.000009,0.000013,-0.000011,-65.181813,0.000014,
2191,2953,-1.51659776527331,6.70330470481018,0.00172168065267897,0.006086,0.000170,0.002924,0.271270,0.030324,316.077989,24.668438,0.999363,0.992243,0.003634,0.388932,-0.000007,0.000020,-0.000008,0.000022,-0.000009,-75.338767,0.000022,
2011,2113,-5.29577844743623,-11.6200893581275,0.0180242527243877,0.006799,0.000234,-0.000257,0.312869,0.036379,330.688095,24.878988,0.998233,0.980420,0.005829,0.361949,-0.000030,-0.000069,0.000011,-0.000027,-0.000072,14.722420,0.000102,
2071,2353,-4.02652679106704,-6.36870947489608,-0.00154144523634159,0.006784,0.000032,0.001575,0.307310,0.040677,326.313487,24.496543,0.998563,0.982784,0.005218,0.388863,-0.000016,-0.000032,0.000006,-0.000013,-0.000034,19.402458,0.000049,
2206,3013,-1.20049326972707,8.00716939260927,0.00358972320185558,0.006790,0.000081,0.003084,0.303120,0.029879,315.102180,24.777985,0.999420,0.991453,0.003693,0.379025,0.000002,0.000021,-0.000007,0.000023,0.000000,-71.825666,0.000026,
2371,2428,2.49484261860897,-4.72766849092336,-0.0105734776660711,0.006613,0.000412,-0.001625,0.309209,0.031087,324.307840,23.513196,0.999693,0.992858,0.003934,0.522291,0.000005,0.000006,0.000024,0.000029,-0.000019,45.496577,0.000029,
2041,2293,-4.67046793093246,-7.68159319720942,0.00995467244638348,0.005900,0.000193,0.001505,0.266996,0.037931,327.502348,24.586785,0.999852,0.993459,0.003768,0.422241,-0.000006,-0.000001,0.000001,-0.000001,-0.000006,78.743961,0.000008,
2011,2158,-5.30337897353415,-10.632947700343,0.0105283217725969,0.006595,-0.000712,0.007487,0.282413,0.026344,329.873455,24.946349,0.998001,0.979520,0.006048,0.258080,-0.000026,-0.000041,-0.000012,-0.000020,-0.000047,-28.021181,0.000069,
2116,2593,-3.08653326245978,-1.13131559131367,-0.0160377860675567,0.006664,0.000127,0.000903,0.303955,0.033015,322.094482,24.320412,0.999548,0.991225,0.003951,0.476751,-0.000008,0.000000,0.000000,0.000000,-0.000008,89.631170,0.000009,
2236,3148,-0.571634559622034,10.9376104799585,0.0228405029760097,0.006763,0.000625,0.001179,0.308226,0.066194,312.985783,25.031078,0.999344,0.991377,0.003780,0.432798,-0.000011,0.000005,-0.000012,0.000011,-0.000017,-62.745813,0.000017,
2206,3028,-1.20302446835685,8.33263811375379,0.00662611624301235,0.006753,0.000091,0.004504,0.296932,0.034934,314.876600,24.794388,0.999640,0.993284,0.003390,0.383418,0.000003,0.000015,-0.000013,0.000023,-0.000005,-57.819125,0.000024,
2506,3118,5.29944693585788,10.3092240546559,0.0129451407729562,0.006523,0.000036,0.000618,0.297597,0.030441,313.476309,26.076437,0.999532,0.992421,0.003563,0.393355,0.000009,0.000045,0.000015,0.000051,0.000003,70.330515,0.000060,
2461,2878,4.36531938965325,5.09197472263781,-0.0308040488910137,0.006497,0.000348,0.001502,0.293021,0.043933,316.917930,25.043155,0.999405,0.992040,0.003651,0.401415,-0.000015,0.000015,-0.000005,0.000016,-0.000016,-80.374683,0.000018,
2221,3103,-0.889406216362485,9.95962377370681,0.0220591187047035,0.006614,-0.000007,0.001251,0.300812,0.014638,313.744757,24.895740,0.999503,0.992435,0.003569,0.398554,-0.000004,0.000003,-0.000015,0.000015,-0.000015,-52.019090,0.000017,
2281,2038,0.604482464646473,-13.2683340645329,0.0144445095060632,0.006400,0.000559,0.000351,0.292067,0.040129,330.823253,23.231592,0.999259,0.984834,0.004979,0.278074,-0.000045,-0.000042,-0.000006,-0.000037,-0.000050,-53.342613,0.000087,
2101,2488,-3.39629368046116,-3.4211014569181,-0.0141414044531984,0.006260,0.000007,0.002141,0.281579,0.020911,323.855110,24.337573,0.999224,0.989383,0.004186,0.448885,-0.000011,-0.000016,-0.000002,-0.000010,-0.000017,-14.803738,0.000027,
2296,2098,0.921299198413003,-11.953256054427,0.0202563069642565,0.006220,0.000074,0.003115,0.274378,0.034538,329.873783,23.240555,0.999088,0.981295,0.005403,0.296898,-0.000040,-0.000024,-0.000005,-0.000022,-0.000042,-73.278602,0.000066,
2356,2338,2.18518373693035,-6.69509243151354,0.00360975397114771,0.006621,-0.000416,0.007402,0.277367,0.031790,325.845244,23.504576,0.999433,0.989057,0.004388,0.329917,-0.000016,-0.000014,0.000007,-0.000008,-0.000022,48.957879,0.000031,
2161,2818,-2.1461923486155,3.76986088546556,-0.013004752352856,0.006204,0.000010,0.004863,0.270800,0.038723,318.252775,24.593948,0.999700,0.993775,0.003312,0.312919,-0.000012,0.000017,-0.000007,0.000019,-0.000014,-76.942787,0.000019,
2041,2263,-4.66536691605992,-8.33672920844964,0.0060178655220966,0.006775,0.000131,0.001602,0.306839,0.036505,327.991381,24.624453,0.999161,0.986409,0.004753,0.393988,-0.000033,0.000016,-0.000011,0.000018,-0.000035,-77.787037,0.000035,
2086,2443,-3.71489293851934,-4.40176670444944,-0.0181342099984931,0.006795,0.000534,-0.002605,0.320093,0.029065,324.659281,24.455911,0.999328,0.988553,0.004357,0.370176,-0.000012,-0.000026,0.000007,-0.000009,-0.000029,23.615062,0.000040,
2131,2683,-2.77489796938996,0.828991035106696,-0.00751079159778101,0.006379,-0.000121,0.002010,0.287528,0.024640,320.626240,24.371516,0.999516,0.991527,0.003695,0.437344,-0.000005,0.000007,-0.000005,0.000009,-0.000008,-69.279220,0.000010,
2071,2428,-4.03866890437045,-4.73088678307697,-0.00123351551536643,0.006307,-0.000015,0.003884,0.278919,0.029990,325.078844,24.514279,0.998952,0.986547,0.004521,0.353038,-0.000003,-0.000020,0.000022,0.000012,-0.000035,33.996703,0.000035,
2011,2128,-5.29826024414347,-11.2898379189751,0.0104527601441191,0.006965,0.000367,0.000297,0.319066,0.046181,330.390240,24.937565,0.998286,0.979693,0.005955,0.304489,-0.000031,-0.000068,0.000013,-0.000027,-0.000072,17.129250,0.000103,
2311,2128,1.24361717006366,-11.2954137263892,0.0213029673739129,0.005984,0.000520,-0.002474,0.282677,0.013550,329.396548,23.270197,0.999220,0.983844,0.005092,0.226059,-0.000031,-0.000011,0.000002,-0.000011,-0.000032,83.973459,0.000044,
2326,2203,1.557421736581,-9.65178975743546,0.0130816289768063,0.006660,0.000678,-0.003562,0.317642,0.021993,328.147257,23.272339,0.999092,0.982466,0.005400,0.332292,-0.000027,-0.000011,-0.000014,-0.000003,-0.000035,-60.312800,0.000042,
2086,2413,-3.70987609534017,-5.05846081561272,-0.00523908872986567,0.006490,0.000137,0.000214,0.297740,0.013721,325.229136,24.420997,0.999022,0.985511,0.004630,0.388491,-0.000007,-0.000025,0.000003,-0.000006,-0.000026,9.055504,0.000034,
2116,2563,-3.08248783590417,-1.78378293679243,-0.0253587843201899,0.006486,-0.000063,0.000755,0.296085,0.008340,322.494020,24.380023,0.999260,0.988117,0.004469,0.384178,0.000002,0.000004,0.000001,0.000004,0.000001,72.316211,0.000006,
2251,3283,-0.271637026729664,13.8655491573146,0.00509270190150346,0.006607,0.000418,-0.000750,0.307343,0.032889,310.592291,25.266929,0.999524,0.992479,0.003475,0.426077,-0.000021,0.000008,-0.000004,0.000009,-0.000021,-82.995670,0.000021,
2191,2938,-1.51354881805463,6.37744676761407,-0.000744107823265949,0.006654,-0.000150,0.001822,0.300752,0.015560,316.331362,24.649376,0.999452,0.992599,0.003586,0.379491,-0.000011,0.000018,-0.000004,0.000019,-0.000012,-82.508756,0.000019,
2236,3193,-0.579315052282041,11.9121556297573,0.032555770928127,0.006543,0.000144,0.003311,0.290963,0.031805,312.314022,25.071111,0.999424,0.991311,0.003666,0.417946,-0.000008,0.000004,-0.000009,0.000009,-0.000013,-62.163653,0.000013,
2416,2653,3.43102320715679,0.187761331444193,-0.0192775440096966,0.006733,0.000087,0.004411,0.293028,0.054415,320.605229,24.249007,0.999537,0.989446,0.004118,0.414834,-0.000007,0.000004,-0.000015,0.000014,-0.000017,-54.431997,0.000018,
2026,2233,-4.98779556490109,-8.99065525301362,-0.00526155120900285,0.006841,0.000605,-0.002876,0.322333,0.022923,328.484096,24.792093,0.999412,0.985749,0.004734,0.293062,0.000003,0.000038,0.000007,0.000040,0.000001,78.722633,0.000047,
2026,2173,-4.9781510266771,-10.3059961540668,0.0154793927428614,0.006710,0.000073,0.001651,0.303604,0.030630,329.601840,24.795318,0.999281,0.988205,0.004435,0.325637,-0.000015,-0.000049,-0.000007,-0.000014,-0.000051,-11.479351,0.000068,
2491,3043,4.98707522779404,8.68073951605242,-0.00593059161502651,0.006786,0.000391,0.001693,0.305571,0.031380,314.512315,25.798437,0.999749,0.993414,0.003443,0.322910,0.000007,0.000035,0.000001,0.000036,0.000007,87.250927,0.000046,
2176,2878,-1.82973153696263,5.07376456435481,-0.00888169071032507,0.006568,-0.000063,0.002615,0.294454,0.040535,317.282470,24.570223,0.999504,0.993283,0.003372,0.402657,-0.000007,0.000022,-0.000002,0.000023,-0.000007,-85.320939,0.000023,
2056,2323,-4.34730752508154,-7.02508185209747,0.00707249995519987,0.006931,0.000876,-0.004590,0.331685,0.030633,326.974095,24.573214,0.999327,0.984662,0.004784,0.361097,-0.000001,-0.000036,0.000002,-0.000001,-0.000037,2.991165,0.000043,
2041,2308,-4.67269343638627,-7.35331014209314,0.00607889148886898,0.006389,-0.000462,0.005350,0.278613,0.038358,327.240248,24.582440,0.999771,0.991232,0.004163,0.421749,0.000000,-0.000026,-0.000007,0.000001,-0.000027,-13.454830,0.000031,
2461,2893,4.3626002827614,5.41858631472078,-0.0247920809646871,0.006401,0.000153,0.002613,0.284348,0.041842,316.714337,25.163895,0.999208,0.989730,0.004064,0.332372,-0.000011,0.000006,-0.000002,0.000006,-0.000011,-81.843745,0.000011,
2431,2743,3.74005560573896,2.14942583730125,-0.0192028365221404,0.006745,-0.000230,0.004083,0.294555,0.028101,319.164156,24.510288,0.999613,0.990786,0.003783,0.420132,-0.000008,0.000004,-0.000008,0.000008,-0.000012,-63.671864,0.000012,
2401,2593,3.11610287548371,-1.12216123050015,-0.0179042796903559,0.006642,0.000114,0.002413,0.296147,0.026038,321.578304,24.049151,0.999456,0.989409,0.004149,0.410168,0.000002,-0.000003,0.000008,0.000008,-0.000009,36.473587,0.000010,
2506,3133,5.29628164016843,10.6352477575255,0.0113568732562044,0.006642,0.000395,0.001307,0.300605,0.054191,313.219598,26.126986,0.999540,0.992263,0.003555,0.426593,0.000012,0.000044,0.000008,0.000046,0.000010,76.339916,0.000059,
2221,3088,-0.887199971225545,9.63510619298136,0.0119421630118381,0.006725,0.000016,-0.001161,0.313677,0.010483,313.917762,24.902872,0.999464,0.993270,0.003318,0.369423,-0.000002,0.000003,-0.000013,0.000014,-0.000013,-50.717289,0.000015,
2056,2293,-4.34380294221242,-7.68070154780673,0.00479263920937001,0.006422,0.000267,0.001653,0.290499,0.045174,327.396928,24.546815,0.999884,0.994473,0.003434,0.408622,-0.000006,-0.000002,0.000011,0.000007,-0.000015,50.006618,0.000015,
2476,2968,4.67617554743867,7.04910064069203,-0.004763642493117,0.006668,0.000551,-0.001287,0.311600,0.042526,315.717939,25.447203,0.999493,0.990608,0.003896,0.356811,0.000006,0.000005,0.000006,0.000012,0.000000,41.948518,0.000013,
2386,2488,2.81000929613072,-3.41526482504539,-0.00949581512878694,0.006575,-0.000048,0.003605,0.288697,0.041508,323.332356,23.763640,0.999470,0.988794,0.004284,0.418767,0.000006,-0.000018,0.000021,0.000019,-0.000030,30.289645,0.000030,
2356,2353,2.18223992414631,-6.3691859994268,0.00103638402367778,0.006261,0.000126,0.001832,0.280671,0.030271,325.585687,23.319398,0.999490,0.989008,0.004504,0.554287,-0.000011,-0.000016,0.000014,0.000000,-0.000027,39.558740,0.000031,
2206,3058,-1.20783301684996,8.98336898060727,0.012525934566554,0.006471,0.000416,0.000457,0.297015,0.055234,314.436223,24.807744,0.999785,0.994685,0.003050,0.422001,0.000006,0.000007,-0.000018,0.000024,-0.000011,-45.213729,0.000024,
2251,3268,-0.268312789702559,13.5403389877446,0.0141064650727571,0.006741,0.000404,0.001376,0.306539,0.041840,310.913079,25.263434,0.999532,0.992528,0.003499,0.416727,-0.000016,0.000007,-0.000006,0.000008,-0.000018,-77.036497,0.000018,
2026,2188,-4.9808535553052,-9.97710568819965,0.010451770240536,0.006373,0.000665,-0.000526,0.294312,0.046072,329.309872,24.774999,0.999216,0.986403,0.004755,0.354457,-0.000016,0.000004,0.000004,0.000005,-0.000017,78.921525,0.000017,
2371,2443,2.49219753678521,-4.39946832767461,-5.59264489083944E-05,0.006534,-0.000152,0.004929,0.282131,0.033217,324.125031,23.689096,0.999277,0.987552,0.004582,0.390726,0.000008,-0.000009,0.000023,0.000024,-0.000026,34.891289,0.000029,
2011,2173,-5.30559026440028,-10.3055367312762,0.0105288080015384,0.006266,-0.000225,0.002843,0.279999,0.027217,329.630926,24.853240,0.998634,0.986033,0.005228,0.343071,-0.000023,-0.000054,-0.000008,-0.000021,-0.000056,-14.210034,0.000080,
2236,3208,-0.581272162093892,12.2371944348375,0.0383061069891824,0.006534,0.000326,-0.001107,0.305020,0.032084,312.130569,25.111503,0.999514,0.992755,0.003504,0.397741,-0.000010,0.000003,-0.000006,0.000005,-0.000012,-68.753562,0.000012,
2221,3118,-0.891903043330696,10.2855211439249,0.0269711533518944,0.006321,0.000347,-0.000062,0.291673,0.033934,313.531117,24.970811,0.999588,0.991958,0.003680,0.360545,-0.000007,0.000001,-0.000017,0.000015,-0.000020,-51.479688,0.000021,
2116,2608,-3.08874961861078,-0.803714776695458,-0.0221192177723992,0.007073,0.000349,-0.001932,0.331269,0.032210,321.827885,24.342801,0.999235,0.988220,0.004461,0.457677,-0.000008,-0.000002,0.000001,-0.000002,-0.000008,76.363841,0.000010,
2176,2863,-1.82745854763133,4.74809210161018,-0.019021944012934,0.006707,0.000229,-0.001470,0.313546,0.028954,317.460916,24.528193,0.998928,0.988979,0.004038,0.421559,-0.000012,0.000015,-0.000001,0.000015,-0.000012,-87.747936,0.000016,
2026,2248,-4.98987974172916,-8.66443347053527,-0.00112010701172949,0.006868,0.000168,-0.000139,0.315954,0.004394,328.272098,24.679790,0.999431,0.986885,0.004536,0.379615,-0.000002,0.000036,-0.000006,0.000037,-0.000003,-80.888138,0.000041,
2161,2893,-2.15848247493215,5.39943661369276,-0.0179712135573595,0.006513,0.000163,0.000144,0.299624,0.018772,317.020466,24.560197,0.999606,0.992700,0.003520,0.375991,-0.000003,0.000022,-0.000003,0.000023,-0.000004,-83.132803,0.000024,
2206,3043,-1.20520580004436,8.65776347042726,0.0144905072916117,0.006506,0.000114,0.002649,0.291476,0.037595,314.692193,24.816857,0.999845,0.995165,0.002999,0.379431,0.000004,0.000010,-0.000015,0.000022,-0.000009,-50.585411,0.000022,
2446,2818,4.05154816501244,3.78347868878487,-0.0257607653874743,0.006718,0.000286,0.000061,0.308481,0.026404,317.926220,24.711751,0.999586,0.990369,0.003883,0.482739,-0.000004,0.000000,-0.000013,0.000011,-0.000015,-48.952285,0.000015,
2491,3058,4.98479494476807,9.00495159310836,0.00517904816047121,0.006553,0.000073,0.000689,0.298594,0.012256,314.353574,25.787911,0.999696,0.992181,0.003729,0.372109,0.000006,0.000037,-0.000006,0.000038,0.000005,-80.033802,0.000046,
2341,2278,1.869008796821,-8.00910758072872,0.00452266887725727,0.006117,-0.000157,0.004497,0.264644,0.022415,326.809344,23.332748,0.999102,0.984125,0.004965,0.392827,-0.000026,-0.000028,-0.000019,-0.000007,-0.000046,-43.278997,0.000058,
2131,2698,-2.77782699686507,1.15706861725266,-0.0217977353817105,0.006855,-0.000043,0.002273,0.308726,0.026302,320.284390,24.398289,0.999522,0.990662,0.003809,0.418531,-0.000004,0.000001,-0.000003,0.000002,-0.000005,-64.097919,0.000005,
2101,2503,-3.39857259732998,-3.09304957644159,-0.0173721280051495,0.006458,0.000029,0.000441,0.295719,0.024224,323.599542,24.386253,0.999278,0.989565,0.004082,0.406164,0.000002,-0.000008,-0.000001,0.000002,-0.000008,-3.842230,0.000008,
2131,2668,-2.77095044316099,0.500267570680698,0.0049259256002756,0.006705,0.000643,-0.003324,0.318715,0.040255,321.004980,24.259359,0.999648,0.991855,0.003693,0.558767,-0.000004,0.000008,-0.000004,0.000010,-0.000005,-73.006129,0.000010,
2146,2758,-2.46207732598783,2.46378012452346,-0.0187465393101434,0.006486,0.000146,0.003999,0.286551,0.039296,319.252638,24.472161,0.999453,0.991045,0.003794,0.388278,-0.000006,-0.000003,-0.000015,0.000011,-0.000020,-47.762999,0.000020,
2236,3163,-0.574634723783625,11.2621334374912,0.0248648783296517,0.006310,0.000224,0.001559,0.285964,0.038484,312.735568,25.020019,0.999440,0.991298,0.003729,0.436040,-0.000009,0.000009,-0.000010,0.000014,-0.000014,-66.301350,0.000016,
2116,2668,-3.10007584578969,0.505266190744841,-0.0387332173582422,0.006560,0.000595,-0.000955,0.305005,0.047159,320.690382,24.403592,0.999536,0.991485,0.003702,0.428414,-0.000009,0.000000,-0.000001,0.000000,-0.000009,-81.840579,0.000010,
2281,2098,0.593700705139522,-11.9528054999656,0.015819622601839,0.006261,0.000274,0.000536,0.285095,0.013621,329.863118,23.319378,0.998704,0.978902,0.005679,0.287991,-0.000033,-0.000019,0.000000,-0.000019,-0.000033,89.262570,0.000053,
2191,2968,-1.51863275589453,7.02872997316701,0.00168149259144457,0.006488,0.000064,0.000843,0.296312,0.029490,315.858269,24.649592,0.999206,0.991358,0.003847,0.421121,-0.000003,0.000024,-0.000009,0.000027,-0.000006,-73.434988,0.000028,
2041,2278,-4.66785869047399,-8.0079510776821,0.00414571895538529,0.006501,0.000434,-0.000636,0.300597,0.036659,327.728054,24.675355,0.999830,0.992433,0.003957,0.337906,-0.000021,0.000001,-0.000004,0.000002,-0.000022,-79.546693,0.000025,
2296,2113,0.918230196837055,-11.6244849105141,0.0134413334338888,0.006244,0.000217,0.001498,0.281010,0.023679,329.582562,23.192077,0.999031,0.980837,0.005440,0.368031,-0.000039,-0.000023,-0.000005,-0.000021,-0.000041,-74.366232,0.000063,
2071,2368,-4.02906079881616,-6.04130548877198,-0.00267037236534406,0.006637,-0.000265,0.001777,0.299922,0.029842,326.055288,24.472595,0.997931,0.980146,0.005661,0.400864,-0.000008,-0.000010,0.000011,0.000002,-0.000019,41.819357,0.000021,
2146,2713,-2.45557705668385,1.48549362815849,-0.0303212260844816,0.006342,0.000058,0.004408,0.278637,0.047716,319.878238,24.436256,0.999530,0.991678,0.003849,0.408648,-0.000001,0.000006,-0.000005,0.000009,-0.000004,-61.994395,0.000009,
2011,2203,-5.30996970816071,-9.64747645586627,-0.00323400253790851,0.006986,0.000234,0.001929,0.315746,0.054121,329.070156,24.809090,0.999596,0.992044,0.004099,0.395950,-0.000012,0.000029,0.000009,0.000031,-0.000014,77.607852,0.000031,
2416,2668,3.42772001096761,0.514940348609969,-0.0186243562210961,0.006234,-0.000175,0.003227,0.274264,0.008904,320.347989,24.358846,0.999483,0.988876,0.004280,0.307321,-0.000005,0.000003,-0.000017,0.000016,-0.000019,-52.008691,0.000020,
2086,2518,-3.7266795751221,-2.76675080313278,-0.0118866846243009,0.006399,0.000369,-0.001690,0.299325,0.026812,323.479974,24.416689,0.999439,0.991579,0.003810,0.408455,0.000007,-0.000014,0.000009,0.000010,-0.000017,19.181871,0.000017,
2476,2983,4.67227468351917,7.37591396021176,-0.0131609207740553,0.006414,0.000412,-0.002512,0.304529,0.029041,315.394796,25.520538,0.999385,0.990028,0.004017,0.326150,0.000003,0.000016,0.000003,0.000016,0.000003,77.542238,0.000020,
2281,2053,0.602248078018253,-12.9399750660389,0.0131325202920038,0.006977,0.000373,0.000900,0.316610,0.053814,330.596084,23.158899,0.999184,0.982679,0.005128,0.395449,-0.000043,-0.000033,0.000000,-0.000033,-0.000043,89.115543,0.000076,
2266,2023,0.281409490297996,-13.5987302570297,0.026548116138656,0.006937,0.001231,-0.005598,0.336517,0.045177,331.229309,23.293710,0.998859,0.979364,0.005952,0.290307,-0.000043,-0.000032,0.000013,-0.000024,-0.000051,56.617583,0.000077,
2026,2203,-4.98356851569324,-9.64816545479534,-0.00203113774733765,0.006657,0.000178,0.000292,0.305005,0.011822,328.976144,24.736726,0.998980,0.984688,0.005120,0.352008,-0.000004,0.000021,0.000013,0.000026,-0.000010,66.876784,0.000027,
2506,3148,5.29374840106039,10.9606136469984,0.0191861391635939,0.006613,0.000307,0.002208,0.295714,0.042236,313.034371,26.213850,0.999538,0.991303,0.003667,0.387451,0.000012,0.000028,0.000008,0.000031,0.000009,66.554148,0.000042,
2296,2173,0.907426598587957,-10.3090383258691,0.00619634439999572,0.006588,0.000458,-0.001883,0.308344,0.020871,328.583126,23.265814,0.999400,0.982300,0.005279,0.423412,-0.000032,-0.000012,-0.000010,-0.000008,-0.000036,-67.335695,0.000047,
2221,3133,-0.894499396533472,10.6098802624893,0.0259665731865084,0.006552,0.000352,0.001674,0.296867,0.053037,313.282980,24.871264,0.999627,0.992970,0.003500,0.497094,-0.000010,0.000001,-0.000015,0.000011,-0.000020,-55.163028,0.000020,
2176,2893,-1.83133403981618,5.3981747388638,0.00365393053959906,0.006613,-0.000056,0.001950,0.298508,0.024044,317.147792,24.544369,0.999786,0.995573,0.003059,0.423834,-0.000006,0.000019,-0.000002,0.000019,-0.000006,-86.063047,0.000019,
2161,2833,-2.1479448211675,4.09469063880989,-0.0125379185490146,0.006646,0.000211,0.000637,0.304160,0.026509,318.046746,24.497667,0.999637,0.993816,0.003341,0.406937,-0.000010,0.000016,-0.000003,0.000016,-0.000010,-83.579566,0.000017,
2236,3223,-0.5850043000071,12.5626916783045,0.0383726943457532,0.005934,0.000121,0.005466,0.255957,0.042385,311.836217,25.154867,0.999469,0.992141,0.003703,0.384251,-0.000012,0.000009,-0.000008,0.000011,-0.000015,-72.396891,0.000015,
2011,2188,-5.30973914549484,-9.97312875613186,-0.0150988776201189,0.005665,0.000494,0.000294,0.259557,0.055511,329.155532,24.924334,0.999523,0.991761,0.004244,0.292185,-0.000024,0.000009,0.000001,0.000009,-0.000025,87.473948,0.000025,
2221,3193,-0.903957827186016,11.9106444740896,0.0387871639802029,0.006739,0.000320,0.001296,0.306760,0.048201,312.418402,24.999448,0.999498,0.992903,0.003457,0.435026,-0.000007,0.000001,-0.000007,0.000006,-0.000011,-58.630342,0.000011,
2311,2143,1.24169266092605,-10.9672118004689,0.0245049359447762,0.006745,0.000224,-0.000026,0.309125,0.018778,329.208219,23.272993,0.999293,0.984395,0.005116,0.263413,-0.000030,-0.000020,0.000001,-0.000019,-0.000030,82.696095,0.000050,
2056,2338,-4.35032509739953,-6.69611521724045,-0.0031781353260385,0.006852,0.000934,-0.004097,0.326691,0.044858,326.641957,24.566274,0.999091,0.985274,0.004772,0.379165,-0.000007,-0.000039,0.000001,-0.000007,-0.000039,1.059096,0.000049,
2401,2608,3.11317450867596,-0.79464373171453,-0.0178028985790775,0.006356,0.000293,-0.001022,0.295544,0.023553,321.334630,24.123494,0.999480,0.989551,0.004062,0.379626,0.000001,-0.000005,0.000004,0.000003,-0.000007,27.234799,0.000007,
2026,2263,-4.99246054462909,-8.33505807032249,-0.000763421600765923,0.006458,0.000455,-0.000493,0.298219,0.017446,328.015573,24.789924,0.998878,0.983132,0.005028,0.275270,-0.000008,0.000026,0.000000,0.000026,-0.000008,-89.885211,0.000026,
2101,2533,-3.40422054605896,-2.43768135767517,-0.0313018039325925,0.006428,0.000097,-0.000032,0.295776,0.020019,322.998395,24.376392,0.999527,0.991209,0.003892,0.416658,-0.000001,-0.000010,0.000011,0.000006,-0.000017,34.664839,0.000018,
2116,2623,-3.09219980790194,-0.475549925781017,-0.0341327986405986,0.006789,0.000333,-0.002401,0.319609,0.022150,321.472792,24.381320,0.999098,0.985724,0.004824,0.413694,-0.000006,-0.000004,-0.000001,-0.000003,-0.000007,-68.060717,0.000010,
2251,3298,-0.273467137012258,14.1906833043105,0.00915359773142654,0.007042,0.000690,-0.002739,0.334071,0.040022,310.406733,25.322365,0.999407,0.991463,0.003617,0.399851,-0.000025,0.000018,-0.000001,0.000018,-0.000025,-88.394400,0.000026,
2206,3073,-1.2102044286047,9.3082609940348,0.0182474801910075,0.006327,0.000247,0.000665,0.289663,0.043973,314.232060,24.815396,0.999690,0.993466,0.003276,0.418841,0.000002,0.000007,-0.000016,0.000021,-0.000012,-49.229261,0.000021,
2386,2503,2.80733167059148,-3.0873024169664,-0.00765465404953147,0.006499,0.000203,0.001703,0.292131,0.038833,323.107626,23.860516,0.999582,0.989892,0.004055,0.363693,0.000002,-0.000013,0.000019,0.000015,-0.000027,34.205007,0.000027,
2086,2458,-3.71756580302585,-4.07516444358585,-0.0156902881886936,0.006581,0.000131,0.001724,0.297697,0.043347,324.415499,24.398497,0.999412,0.989322,0.004238,0.442222,-0.000012,-0.000033,0.000000,-0.000012,-0.000033,-0.407768,0.000047,
2356,2368,2.17914128500881,-6.03882143642703,-0.00137047205186036,0.006374,0.000209,0.004079,0.278004,0.051477,325.318971,23.526509,0.999195,0.985151,0.004824,0.409394,-0.000013,-0.000012,0.000016,0.000003,-0.000028,46.053776,0.000031,
2146,2773,-2.4644241062331,2.79098606748794,-0.0267412826360101,0.006833,0.000511,-0.000843,0.317336,0.040533,318.972637,24.497193,0.999675,0.994048,0.003199,0.372452,-0.000007,0.000002,-0.000012,0.000011,-0.000016,-55.919751,0.000016,
2476,2998,4.6696111239983,7.70057502579057,-0.00323856066847839,0.006471,0.000010,0.003548,0.283938,0.029061,315.212441,25.511464,0.999334,0.989947,0.003949,0.391196,0.000005,0.000013,0.000004,0.000014,0.000003,67.109531,0.000019,
2056,2368,-4.35577118079055,-6.04024845382095,-0.0127335692975521,0.006757,-0.000095,-0.000732,0.312650,0.023241,326.065395,24.538959,0.998780,0.984260,0.005033,0.378247,-0.000004,-0.000012,0.000011,0.000003,-0.000020,34.535840,0.000021,
2341,2293,1.86633258790689,-7.67987436487888,0.00552629220766221,0.006280,0.000157,0.005868,0.267515,0.034473,326.577660,23.452869,0.999081,0.986200,0.004698,0.323712,-0.000024,-0.000019,-0.000012,-0.000009,-0.000034,-50.144010,0.000045,
2041,2323,-4.67464515483188,-7.02363452182895,-0.00513797189893239,0.006850,0.000703,-0.003124,0.323731,0.040889,326.949762,24.636059,0.999181,0.983944,0.004841,0.365576,0.000003,-0.000039,-0.000009,0.000005,-0.000041,-11.958287,0.000045,
2071,2443,-4.04021292527862,-4.40353145244441,-0.00390294983964168,0.006952,0.000463,-0.000746,0.321933,0.030780,324.857505,24.484930,0.999261,0.988197,0.004378,0.381547,-0.000011,-0.000023,0.000012,-0.000004,-0.000030,30.464836,0.000037,
2191,2983,-1.52102031458409,7.35437227546507,0.00519403662207196,0.006567,0.000085,0.002735,0.294086,0.041631,315.640766,24.666309,0.999340,0.991982,0.003687,0.430069,0.000000,0.000020,-0.000010,0.000024,-0.000004,-67.519438,0.000026,
2011,2218,-5.3117032928151,-9.31988195666525,0.00416757474954466,0.007083,0.000071,0.003596,0.315705,0.037467,328.890927,24.843627,0.999218,0.987398,0.004720,0.334914,-0.000007,0.000038,0.000008,0.000040,-0.000009,80.387821,0.000042,
2041,2353,-4.67963314305829,-6.36823430652338,-0.00597033469455255,0.006800,0.000306,0.003380,0.303268,0.044870,326.439562,24.614619,0.999012,0.984583,0.004955,0.379597,-0.000009,-0.000044,-0.000008,-0.000007,-0.000046,-12.621363,0.000058,
2146,2818,-2.47238789588267,3.76886226206054,-0.0187919584923861,0.006260,-0.000107,0.006105,0.269793,0.043112,318.260748,24.506481,0.999558,0.992835,0.003517,0.389028,-0.000014,0.000014,-0.000007,0.000016,-0.000016,-76.318931,0.000018,
2461,2908,4.36052418147417,5.74381841424552,-0.0180811254390392,0.006529,0.000223,-0.000548,0.302155,0.023188,316.543855,25.182547,0.999066,0.988453,0.004324,0.348924,-0.000009,0.000007,0.000001,0.000007,-0.000010,85.405861,0.000010,
2371,2458,2.48887093922133,-4.07107081898486,-0.00648997476821478,0.006497,-0.000061,0.003915,0.284091,0.030394,323.829993,23.734020,0.999121,0.986139,0.004758,0.385662,0.000010,0.000002,0.000023,0.000030,-0.000018,40.010713,0.000030,
2191,3043,-1.530394914776,8.65685214147808,0.0186632911186848,0.006450,0.000037,0.000576,0.295552,0.039359,314.775781,24.807945,0.999758,0.994683,0.003182,0.340848,0.000000,0.000008,-0.000012,0.000017,-0.000009,-53.957904,0.000017,
2236,3268,-0.593402501791108,13.538172675509,0.0187715276863969,0.006719,0.000160,0.002356,0.302359,0.040249,310.980714,25.137588,0.999500,0.993273,0.003393,0.458791,-0.000017,0.000005,-0.000012,0.000010,-0.000022,-66.887271,0.000023,
2116,2683,-3.10204310039055,0.830484120087291,-0.0337769171952687,0.006793,0.000114,0.000620,0.310889,0.030023,320.495129,24.341608,0.999497,0.992687,0.003501,0.476957,-0.000013,-0.000002,-0.000004,0.000000,-0.000014,-71.382608,0.000016,
2026,2278,-4.99426293091363,-8.00781265129491,-0.00290555063770626,0.006655,0.000858,-0.006012,0.322553,0.019378,327.781242,24.696485,0.998471,0.984021,0.005212,0.363059,0.000000,0.000012,0.000003,0.000012,0.000000,77.304056,0.000014,
2071,2383,-4.03187794724461,-5.71290846592669,-0.0041748250317255,0.006159,0.000182,0.000766,0.280999,0.047007,325.781756,24.513114,0.998667,0.983881,0.005107,0.376117,-0.000002,-0.000013,0.000012,0.000005,-0.000020,32.699793,0.000021,
2491,3073,4.98190189883345,9.3302858813526,0.0044770746493441,0.006825,0.000025,0.001162,0.309311,0.013883,314.112854,25.786684,0.999624,0.991595,0.003831,0.433104,0.000007,0.000032,-0.000004,0.000033,0.000007,-80.350556,0.000042,
2011,2323,-5.32711519179503,-7.02501776240356,0.00495476418205953,0.006644,0.000250,-0.000397,0.306568,0.029352,327.201255,24.744291,0.999022,0.984439,0.005025,0.358339,0.000007,-0.000038,-0.000013,0.000010,-0.000041,-15.042909,0.000043,
2131,2713,-2.78069253007767,1.48457305826116,-0.0268383064680506,0.006690,0.000278,0.000996,0.305043,0.030407,319.994915,24.451536,0.999446,0.990300,0.003975,0.375250,-0.000001,0.000006,-0.000002,0.000006,-0.000001,-74.345174,0.000006,
2176,2908,-1.83498751415075,5.72480830300359,-0.00461018715600403,0.006272,-0.000223,0.004970,0.273439,0.029185,316.809247,24.554466,0.999561,0.992643,0.003544,0.430809,-0.000004,0.000014,-0.000003,0.000015,-0.000004,-80.584166,0.000015,
2086,2473,-3.7202206475334,-3.74763156113256,-0.0184653599657736,0.006519,-0.000282,0.002840,0.291508,0.016931,324.144126,24.423199,0.999407,0.989748,0.004213,0.391696,-0.000008,-0.000029,0.000007,-0.000006,-0.000031,16.770057,0.000039,
2206,3118,-1.21733024263416,10.2836740536736,0.0292128442374633,0.006403,0.000091,0.002454,0.287428,0.029007,313.586594,24.867943,0.999533,0.992656,0.003593,0.398351,-0.000009,0.000003,-0.000019,0.000017,-0.000023,-53.937539,0.000023,
2161,2848,-2.15072457178565,4.42013673558351,-0.0149053069995375,0.006576,0.000104,0.001211,0.299184,0.025329,317.778435,24.430244,0.999659,0.994089,0.003232,0.483102,-0.000012,0.000016,0.000000,0.000016,-0.000012,89.210634,0.000016,
2281,2113,0.591252588384787,-11.6243776014565,0.0137265114589695,0.006458,0.000544,-0.002009,0.302737,0.006233,329.622261,23.287519,0.998801,0.980060,0.005521,0.343307,-0.000031,-0.000017,-0.000001,-0.000017,-0.000031,-87.605217,0.000049,
2431,2758,3.73725810471097,2.47659428018213,-0.0224142992701104,0.006853,0.000229,0.000037,0.314671,0.030141,318.912804,24.568258,0.999558,0.989311,0.003978,0.414262,0.000001,0.000007,-0.000008,0.000012,-0.000005,-55.171042,0.000012,
2326,2218,1.55457036700787,-9.32382421725789,0.0129973761787028,0.006810,0.000183,-0.000631,0.314271,0.019567,327.901523,23.253320,0.998881,0.979931,0.005608,0.385809,-0.000024,-0.000014,-0.000019,0.000001,-0.000038,-52.634826,0.000044,
2281,2068,0.600207415041282,-12.6110529682557,0.0214285907380258,0.006986,0.000374,0.000488,0.318424,0.037400,330.425571,23.279761,0.999213,0.983563,0.004965,0.289101,-0.000039,-0.000026,0.000005,-0.000024,-0.000041,71.685886,0.000066,
2221,3208,-0.906595603164032,12.2358407263704,0.0398389369732968,0.006494,0.000247,-0.001260,0.303648,0.030417,312.178567,25.044521,0.999431,0.992293,0.003602,0.389423,-0.000008,-0.000001,-0.000004,0.000001,-0.000010,-65.115387,0.000011,
2236,3238,-0.587552434977113,12.8872112711279,0.032845899434335,0.006232,0.000003,0.002437,0.279490,0.024159,311.568038,25.108489,0.999625,0.994065,0.003254,0.432374,-0.000015,0.000004,-0.000010,0.000008,-0.000019,-67.099055,0.000019,
2176,2968,-1.84394737335107,7.02797399166006,0.0006726762709377,0.006753,0.000186,-0.000946,0.314182,0.024980,315.916462,24.627935,0.999363,0.992297,0.003591,0.400205,-0.000001,0.000024,-0.000011,0.000028,-0.000005,-69.680196,0.000029,
2401,2623,3.11016846555512,-0.467490576340566,-0.0170683591041438,0.006368,0.000232,0.000942,0.289004,0.032651,321.090343,24.162933,0.999343,0.988380,0.004198,0.395565,-0.000002,0.000012,0.000000,0.000012,-0.000002,-87.907566,0.000012,
2221,3148,-0.896786905645495,10.9354601804436,0.0301303168349136,0.006661,0.000364,0.002343,0.299760,0.051291,313.075200,24.940365,0.999605,0.993191,0.003386,0.443896,-0.000008,0.000006,-0.000009,0.000011,-0.000013,-62.478385,0.000014,
2356,2383,2.17586854510342,-5.70916131705404,-0.00578002393871202,0.006259,0.000210,0.003697,0.274136,0.052398,325.034778,23.675557,0.999333,0.982762,0.005018,0.302011,-0.000003,-0.000003,0.000014,0.000010,-0.000017,45.270347,0.000017,
2446,2833,4.04888132607448,4.11189773113652,-0.0211044991362996,0.006605,0.000387,-0.000876,0.306846,0.031310,317.717716,24.965310,0.999729,0.992643,0.003471,0.285859,-0.000001,0.000006,-0.000011,0.000015,-0.000009,-53.982431,0.000015,
2416,2683,3.42518078277968,0.841406150931938,-0.017624255328883,0.006457,0.000129,0.001987,0.289237,0.026208,320.127402,24.347668,0.999448,0.986831,0.004599,0.384017,-0.000009,0.000007,-0.000018,0.000018,-0.000020,-56.956633,0.000022,
2041,2338,-4.67723841169328,-6.69652102284886,-0.00159142927128642,0.006592,0.000223,0.001929,0.297700,0.040407,326.712171,24.610657,0.999309,0.987167,0.004416,0.384680,-0.000003,-0.000044,-0.000014,0.000001,-0.000048,-17.717236,0.000055,
2026,2398,-5.01203377847054,-5.38654202774944,-0.00575435035278815,0.007075,0.000448,-0.001347,0.329158,0.021640,325.832986,24.594672,0.999392,0.990144,0.003972,0.404283,0.000035,-0.000035,-0.000008,0.000036,-0.000035,-6.357179,0.000041,
2161,2908,-2.16023418726948,5.72419084256904,-0.009799684029133,0.006700,0.000178,-0.000340,0.309738,0.017494,316.855102,24.523155,0.999602,0.991604,0.003685,0.421311,-0.000001,0.000017,-0.000004,0.000018,-0.000002,-76.676485,0.000019,
2116,2638,-3.0947857032113,-0.148994498682825,-0.0312195540587936,0.006724,-0.000076,0.002115,0.303181,0.024939,321.237794,24.391860,0.999411,0.989252,0.004068,0.409939,-0.000002,-0.000002,-0.000001,-0.000001,-0.000003,-40.766327,0.000004,
2101,2518,-3.40118752645652,-2.76530025614337,-0.0228256481030371,0.006574,-0.000129,0.000482,0.300882,0.002968,323.316750,24.417052,0.999649,0.992630,0.003567,0.356336,0.000004,-0.000012,0.000007,0.000007,-0.000015,20.076864,0.000015,
2506,3163,5.29048057572429,11.285849804662,0.0196224243978804,0.006379,0.000373,0.001988,0.285805,0.036536,312.782079,26.240962,0.999659,0.992359,0.003420,0.414619,0.000008,0.000028,0.000012,0.000033,0.000002,64.643721,0.000040,
2011,2233,-5.31454066065509,-8.99145849870042,0.003591628497702,0.006486,0.000099,0.004119,0.286886,0.051057,328.616412,24.845773,0.999313,0.984538,0.004945,0.337137,-0.000004,0.000044,-0.000002,0.000044,-0.000004,-87.117298,0.000048,
2011,2338,-5.33010641618548,-6.69748644526497,0.00334848026113832,0.006222,0.000033,0.004458,0.274001,0.040324,326.914305,24.693683,0.999107,0.985836,0.004790,0.410070,-0.000003,-0.000049,-0.000022,0.000006,-0.000058,-21.952002,0.000064,
2086,2533,-3.72930201676629,-2.43987155806712,-0.00904928121184412,0.006304,-0.000164,0.003921,0.278647,0.031000,323.240646,24.421065,0.999611,0.992456,0.003730,0.408304,0.000002,-0.000011,0.000013,0.000010,-0.000019,31.828339,0.000019,
2266,2038,0.277823040767309,-13.2696270092895,0.0260322766026206,0.006440,0.000658,-0.000091,0.295410,0.042752,330.942998,23.307499,0.999007,0.980768,0.005511,0.303479,-0.000040,-0.000038,0.000002,-0.000037,-0.000041,55.119708,0.000078,
2431,2773,3.73422122932274,2.80350518096912,-0.022519523180847,0.006755,0.000416,-0.000487,0.312248,0.039692,318.664833,24.624368,0.999550,0.989324,0.004063,0.417998,0.000000,-0.000004,-0.000011,0.000010,-0.000013,-40.102189,0.000014,
2236,3283,-0.596662713345225,13.8642732081013,0.011931139226931,0.006552,0.000509,0.001413,0.297784,0.037730,310.672336,25.228024,0.999322,0.992947,0.003525,0.385340,-0.000021,0.000007,-0.000011,0.000011,-0.000025,-71.435259,0.000025,
2056,2383,-4.35890416409937,-5.71208579679254,-0.0173898284194252,0.006265,0.000050,0.000483,0.286670,0.023764,325.758941,24.544747,0.999342,0.988649,0.004419,0.369736,0.000003,-0.000014,0.000009,0.000007,-0.000018,24.467364,0.000018,
2146,2833,-2.47321791874186,4.0936717077732,-0.0105493700224315,0.006923,0.000178,-0.000630,0.320841,0.031388,318.137190,24.466478,0.999579,0.993282,0.003409,0.424856,-0.000014,0.000013,-0.000004,0.000014,-0.000015,-81.612854,0.000017,
2206,3088,-1.21245134328473,9.63410195734101,0.0215054836421018,0.006564,0.000082,0.002057,0.296139,0.039682,314.020515,24.890987,0.999519,0.992718,0.003500,0.354625,-0.000002,0.000006,-0.000014,0.000017,-0.000013,-52.652286,0.000018,
2191,3058,-1.53306404955345,8.98149400205061,0.015791638254143,0.006451,0.000379,-0.000986,0.300614,0.039881,314.512368,24.720732,0.999847,0.995542,0.002943,0.442488,0.000004,0.000005,-0.000015,0.000020,-0.000011,-45.220202,0.000020,
2131,2743,-2.78537015750742,2.13649758602302,-0.0244730751030033,0.006634,0.000230,-0.000934,0.308309,0.022500,319.531575,24.405727,0.999417,0.990449,0.003993,0.424881,-0.000006,-0.000002,-0.000006,0.000002,-0.000010,-56.524605,0.000010,
2476,3013,4.666887414874,8.026501386395,-0.00129564099927393,0.006587,-0.000125,0.003003,0.291303,0.020893,314.990612,25.576323,0.999543,0.991785,0.003580,0.373751,-0.000003,0.000018,0.000005,0.000019,-0.000004,77.190707,0.000020,
2026,2293,-4.99717598423441,-7.68031108000437,0.00597063418723565,0.006175,-0.000168,0.006515,0.265847,0.056757,327.557258,24.707385,0.998251,0.983965,0.005300,0.381622,0.000013,0.000008,0.000006,0.000018,0.000004,34.697269,0.000023,
2221,3163,-0.899243050474677,11.2604910993542,0.0354768558443652,0.006451,0.000136,0.002035,0.290988,0.037220,312.865942,24.981596,0.999536,0.992970,0.003436,0.406307,-0.000006,0.000009,-0.000009,0.000013,-0.000010,-65.680490,0.000014,
2056,2353,-4.35312813808551,-6.36793672026138,-0.00965757516019039,0.006978,0.000619,0.000037,0.320822,0.068229,326.340474,24.521523,0.998867,0.983090,0.005142,0.443928,-0.000012,-0.000040,0.000006,-0.000011,-0.000041,11.224207,0.000055,
2296,2128,0.916377624531069,-11.2958143860905,0.0181012611633378,0.006562,0.000505,-0.001199,0.304788,0.019906,329.403561,23.257571,0.998981,0.981658,0.005349,0.331594,-0.000035,-0.000018,-0.000005,-0.000017,-0.000037,-74.822994,0.000055,
2266,1993,0.285669742349942,-14.2574656349109,0.0241026713075598,0.006455,0.000753,-0.000293,0.296735,0.056139,331.651300,23.189454,0.999037,0.966531,0.007187,0.347625,-0.000035,-0.000073,0.000005,-0.000034,-0.000073,7.463330,0.000110,
2071,2398,-4.03352912473088,-5.38501890199787,-0.0125869774337275,0.006989,0.000665,-0.004836,0.335286,0.030304,325.524062,24.479959,0.999012,0.984854,0.004975,0.391109,0.000000,-0.000023,0.000010,0.000003,-0.000027,20.332932,0.000030,
2041,2368,-4.68174006249647,-6.04063598553669,-0.00521521077405396,0.006713,0.000567,0.000382,0.307706,0.049848,326.208659,24.610553,0.998982,0.985156,0.004909,0.382737,0.000000,-0.000013,-0.000005,0.000002,-0.000014,-18.628958,0.000016,
2071,2458,-4.04272756754329,-4.07676006188302,-0.00509608502562742,0.006863,0.000314,-0.000123,0.316048,0.027820,324.600008,24.425059,0.999536,0.990312,0.004110,0.436801,-0.000011,-0.000034,0.000003,-0.000011,-0.000034,7.222964,0.000047,
2296,2188,0.905976264735283,-9.98045001217086,0.0165830090696204,0.007027,0.000603,-0.002738,0.331448,0.023862,328.450644,23.397902,0.998935,0.979984,0.005531,0.326317,-0.000033,-0.000015,-0.000017,-0.000005,-0.000043,-59.337043,0.000052,
2191,2998,-1.52368560978276,7.68052830354821,0.00175311107244625,0.006744,0.000228,0.003114,0.301071,0.040225,315.374117,24.700358,0.999468,0.992205,0.003672,0.408554,0.000002,0.000021,-0.000007,0.000023,-0.000001,-71.932392,0.000026,
2506,3178,5.2881304094093,11.6115900444201,0.025949201119829,0.006369,0.000636,-0.000555,0.295346,0.047201,312.598272,26.336885,0.999692,0.993041,0.003343,0.389238,0.000007,0.000022,0.000013,0.000030,0.000000,59.385223,0.000035,
2341,2308,1.86455341426864,-7.35199011967025,0.00989278882298095,0.006684,0.000311,0.002070,0.299332,0.035573,326.403550,23.499025,0.998473,0.982742,0.005101,0.317049,-0.000024,-0.000026,-0.000005,-0.000020,-0.000030,-37.542769,0.000050,
2236,3253,-0.590301625085548,13.2127720182693,0.0254943508317069,0.006631,0.000356,0.001819,0.300092,0.041625,311.280847,25.116887,0.999584,0.994014,0.003215,0.461157,-0.000018,0.000001,-0.000010,0.000005,-0.000022,-66.277514,0.000023,
2116,2698,-3.10415229368332,1.15721356813953,-0.0242474240467914,0.006633,-0.000042,0.002772,0.297130,0.024120,320.317485,24.448300,0.999404,0.990995,0.003813,0.367934,-0.000010,-0.000006,-0.000002,-0.000005,-0.000011,-65.911811,0.000017,
2491,3088,4.97926359085478,9.65656493278703,0.0123132554252265,0.006705,0.000329,0.002416,0.299188,0.047009,313.922053,25.899489,0.999463,0.991231,0.003762,0.411281,0.000015,0.000037,0.000007,0.000039,0.000013,73.852608,0.000054,
2386,2518,2.80456762274104,-2.75985329732262,-0.0141477459842463,0.006628,0.000939,-0.004719,0.321360,0.031353,322.839478,23.844576,0.999505,0.988518,0.004348,0.416529,-0.000006,-0.000012,0.000016,0.000007,-0.000025,39.641663,0.000026,
2101,2548,-3.40686658587135,-2.11070836475731,-0.0396959965447081,0.006584,0.000458,-0.001752,0.308151,0.034013,322.698361,24.286262,0.999645,0.993588,0.003618,0.523503,0.000003,0.000000,0.000017,0.000019,-0.000016,42.688228,0.000020,
2011,2353,-5.3327568376857,-6.3680081260654,-0.00851747353635801,0.006307,0.000167,0.001662,0.285545,0.025416,326.585149,24.751696,0.999142,0.989207,0.004501,0.327317,-0.000002,-0.000046,-0.000013,0.000001,-0.000050,-15.583834,0.000057,
2206,3133,-1.21924257038709,10.6090335370898,0.0335731390865135,0.006760,0.000355,0.001819,0.306023,0.042043,313.396252,24.899035,0.999655,0.994135,0.003302,0.396030,-0.000011,0.000001,-0.000016,0.000012,-0.000022,-55.652780,0.000022,
2236,3298,-0.600010490244291,14.1895978470614,0.00109586117338267,0.006517,0.000519,-0.000415,0.302179,0.036148,310.339723,25.229143,0.999301,0.992882,0.003511,0.402297,-0.000023,0.000017,-0.000010,0.000019,-0.000025,-76.585676,0.000027,
2281,2128,0.58943700696587,-11.2963328409791,0.0244760642854658,0.006792,0.000352,0.001439,0.306486,0.052328,329.473902,23.311790,0.998389,0.979025,0.005609,0.395523,-0.000029,-0.000013,-0.000001,-0.000012,-0.000029,-85.376737,0.000043,
2416,2698,3.42157597688024,1.16845155691342,-0.0260518194617703,0.006438,0.000103,0.001536,0.289988,0.015401,319.813627,24.345291,0.999607,0.990159,0.003972,0.423941,-0.000006,0.000006,-0.000016,0.000018,-0.000017,-55.267693,0.000020,
2326,2233,1.55101735385605,-8.99485912262207,0.0127031456497662,0.006454,-0.000037,0.004608,0.279906,0.043307,327.622323,23.302698,0.998673,0.975724,0.006046,0.397465,-0.000024,-0.000035,-0.000018,-0.000010,-0.000048,-36.251733,0.000062,
2446,2848,4.04641011461627,4.43599506642873,-0.00985483199161763,0.006477,0.000154,0.002493,0.288354,0.036049,317.549611,24.874474,0.999646,0.991928,0.003521,0.433231,-0.000003,0.000011,-0.000015,0.000021,-0.000013,-57.889992,0.000021,
2161,2923,-2.16320324734744,6.05073474469793,-0.00744096995600785,0.006277,0.000215,0.002322,0.282170,0.040997,316.602593,24.587791,0.999297,0.989035,0.004133,0.389594,-0.000003,0.000016,-0.000002,0.000016,-0.000003,-84.130450,0.000017,
2176,2983,-1.84714025545103,7.35402750659654,-0.00331835079532539,0.006567,-0.000070,0.001731,0.297257,0.027758,315.621539,24.640355,0.999299,0.992247,0.003616,0.402165,0.000001,0.000018,-0.000012,0.000024,-0.000005,-63.500942,0.000026,
2221,3223,-0.909807433349695,12.5613627911462,0.0394880587940065,0.006290,0.000249,0.003535,0.278890,0.048200,311.904957,25.079868,0.999600,0.993710,0.003329,0.389558,-0.000010,0.000005,-0.000006,0.000007,-0.000012,-70.387694,0.000012,
2086,2548,-3.73174865571985,-2.11275320365512,-0.0188184159937919,0.006616,0.000109,0.000612,0.302650,0.028629,322.940839,24.346453,0.999388,0.991302,0.003966,0.480970,0.000007,0.000000,0.000019,0.000023,-0.000016,39.810865,0.000024,
2176,2923,-1.8379674406024,6.05183109972868,-0.00926885308678038,0.006252,0.000055,0.006354,0.268353,0.047763,316.520334,24.617961,0.999068,0.988267,0.004296,0.397858,-0.000005,0.000015,-0.000001,0.000016,-0.000005,-85.838290,0.000016,
2281,2083,0.596872702686088,-12.2826646862382,0.0220488538309951,0.006422,0.000115,0.002361,0.286318,0.019534,330.157776,23.273338,0.999141,0.982443,0.005186,0.308753,-0.000035,-0.000024,0.000004,-0.000022,-0.000036,72.322261,0.000059,
2461,2923,4.35702001305412,6.07049452612847,-0.0173065588623444,0.006337,0.000150,0.003716,0.277275,0.035194,316.279947,25.264715,0.999340,0.990041,0.004073,0.332549,-0.000008,-0.000001,0.000001,0.000000,-0.000008,82.820234,0.000010,
2146,2788,-2.46710565067069,3.11656850387412,-0.0266699653236628,0.006785,0.000106,0.001504,0.307885,0.026646,318.720572,24.456412,0.999601,0.992786,0.003488,0.407190,-0.000013,0.000006,-0.000009,0.000010,-0.000017,-67.453608,0.000017,
2401,2638,3.10696274915243,-0.140074963796437,-0.019811447980544,0.006379,0.000169,0.001902,0.286020,0.041138,320.820387,24.202253,0.999276,0.987539,0.004284,0.411059,-0.000009,0.000013,-0.000007,0.000015,-0.000011,-72.881378,0.000016,
2506,3193,5.28500069727813,11.936469670109,0.027058879606102,0.006251,0.000375,-0.000347,0.289033,0.032676,312.355307,26.351019,0.999711,0.993126,0.003327,0.420474,0.000006,0.000026,0.000013,0.000033,-0.000001,64.065211,0.000037,
2161,2863,-2.15397260007697,4.74772304089329,-0.0202801419472394,0.006317,-0.000064,0.002792,0.282366,0.017158,317.472114,24.548886,0.999392,0.992299,0.003537,0.366209,-0.000009,0.000017,-0.000002,0.000017,-0.000009,-86.594829,0.000017,
2011,2368,-5.33443228805698,-6.04103669525442,-0.0105387716173482,0.006638,0.000476,-0.003435,0.314659,0.017921,326.356217,24.675310,0.999111,0.988925,0.004563,0.386321,0.000013,-0.000010,-0.000010,0.000017,-0.000014,-20.840667,0.000018,
2221,3178,-0.901463538080993,11.5852944967809,0.0402730029585427,0.006430,0.000051,0.000510,0.294856,0.018137,312.664754,25.006658,0.999350,0.991839,0.003641,0.379787,-0.000005,0.000007,-0.000007,0.000011,-0.000008,-65.420833,0.000011,
2131,2728,-2.78283043132625,1.80996367892774,-0.0271227026425436,0.006718,0.000652,-0.003569,0.320226,0.050400,319.764732,24.338345,0.999338,0.988997,0.004232,0.514616,-0.000004,0.000004,-0.000001,0.000004,-0.000004,-83.924431,0.000005,
2026,2308,-4.9994491949542,-7.3516488431542,-0.00334919833881031,0.006632,-0.000408,0.005764,0.288870,0.015826,327.261418,24.724526,0.998638,0.983431,0.005208,0.316256,0.000014,-0.000023,-0.000004,0.000015,-0.000023,-5.489805,0.000023,
2476,3028,4.66408303229879,8.35203861887615,0.00574081361395429,0.006459,-0.000277,0.005610,0.275510,0.032267,314.788250,25.623468,0.999731,0.992972,0.003366,0.393860,-0.000005,0.000024,0.000002,0.000024,-0.000005,86.078623,0.000025,
2491,3103,4.97626917455825,9.98229330769467,0.0143426422532116,0.006466,0.000528,0.000717,0.294799,0.048514,313.688715,25.959530,0.999408,0.990544,0.003749,0.410441,0.000011,0.000037,0.000012,0.000042,0.000006,69.055841,0.000052,
2371,2473,2.48636798623999,-3.74398406000803,-0.00562978401626424,0.006522,0.000092,0.000493,0.297477,0.020244,323.607752,23.739141,0.999418,0.987796,0.004412,0.412631,0.000008,-0.000010,0.000019,0.000020,-0.000022,31.822771,0.000024,
2056,2398,-4.35932274931569,-5.38626960250856,-0.0142670273477847,0.007538,0.000482,-0.005784,0.362979,-0.008351,325.620023,24.448068,0.999065,0.986451,0.004671,0.430238,0.000007,-0.000027,0.000006,0.000008,-0.000028,9.270911,0.000029,
2101,2563,-3.40843285548496,-1.78421276751642,-0.0294179701809867,0.006912,-0.000396,0.000826,0.315411,-0.011273,322.548892,24.381456,0.999266,0.989560,0.004221,0.384753,0.000002,0.000006,0.000008,0.000012,-0.000004,50.243482,0.000013,
2251,1993,-0.0439635035637984,-14.2540345678857,9.5035435833779E-05,0.006329,0.000161,0.001595,0.284643,0.021773,331.462679,23.329231,0.999640,0.990733,0.004316,0.280541,-0.000006,-0.000054,0.000009,-0.000004,-0.000056,10.651737,0.000067,
2191,3073,-1.53521853528609,9.30632101893522,0.0223383660016339,0.006415,0.000388,-0.001245,0.299817,0.043070,314.321616,24.712751,0.999675,0.994231,0.003216,0.467226,0.000002,0.000005,-0.000013,0.000017,-0.000010,-48.259330,0.000017,
2011,2248,-5.31637923640867,-8.66475297046136,0.00665142271282093,0.006629,-0.000104,0.004005,0.293711,0.033513,328.408369,24.764541,0.999192,0.983924,0.004968,0.391173,-0.000011,0.000043,-0.000016,0.000047,-0.000016,-74.187507,0.000048,
2026,2413,-5.0151825986653,-5.05843157322536,-0.00885563167435066,0.006584,0.000180,0.002678,0.295522,0.051804,325.531641,24.590404,0.999219,0.987870,0.004378,0.430610,0.000031,-0.000037,-0.000001,0.000031,-0.000037,-1.164810,0.000040,
2086,2488,-3.72268800566715,-3.42071260165211,-0.0178648315186933,0.006240,0.000213,0.000994,0.284172,0.036326,323.899653,24.382186,0.999317,0.990116,0.004129,0.452424,-0.000007,-0.000019,0.000001,-0.000006,-0.000019,3.620524,0.000027,
2266,2008,0.284040902375182,-13.9284261224653,0.0323815428325815,0.006830,0.001032,-0.000959,0.316184,0.072256,331.498426,23.267562,0.999065,0.982944,0.005377,0.314299,-0.000041,-0.000045,0.000019,-0.000025,-0.000062,42.154250,0.000089,
2041,2473,-4.69793087904887,-3.74868249635657,-0.0167350324838367,0.006973,-0.000054,-0.000374,0.321803,0.013040,324.434460,24.522212,0.998778,0.982967,0.005209,0.392397,0.000013,-0.000031,0.000001,0.000013,-0.000031,1.197232,0.000031,
2341,2323,1.86097857217236,-7.02365541264298,0.00721657158788958,0.006489,-0.000319,0.006855,0.273529,0.036656,326.112960,23.521373,0.999152,0.986757,0.004647,0.334560,-0.000022,-0.000026,-0.000002,-0.000021,-0.000027,-18.824257,0.000048,
2101,2593,-3.41292904006282,-1.1311802901045,-0.0169540298782636,0.006488,0.000100,0.002446,0.291393,0.026425,322.143455,24.387902,0.999218,0.988661,0.004314,0.419768,-0.000008,0.000001,0.000007,0.000005,-0.000012,61.846895,0.000012,
2266,2053,0.274694385978137,-12.9405663302349,0.0204644045543318,0.006418,0.000297,0.000639,0.291924,0.034425,330.652352,23.272379,0.998922,0.979255,0.005559,0.359545,-0.000038,-0.000029,0.000008,-0.000025,-0.000042,60.409474,0.000068,
2311,2158,1.23825990518921,-10.6397978097503,0.0283747655465163,0.006205,-0.000362,0.005923,0.263932,0.046736,328.954072,23.193496,0.999361,0.985792,0.005029,0.406182,-0.000033,-0.000014,-0.000004,-0.000013,-0.000034,-77.961906,0.000049,
2251,2008,-0.0457550796967432,-13.9262231908109,0.0113549590755611,0.006550,-0.000132,0.004450,0.285361,0.028746,331.316505,23.340005,0.999502,0.988646,0.004623,0.303157,-0.000020,-0.000032,0.000026,0.000001,-0.000053,38.280756,0.000061,
2416,2713,3.4195869355297,1.49554900598255,-0.02438081840927,0.006608,0.001076,-0.006600,0.327987,0.031504,319.621203,24.408214,0.999700,0.990881,0.003794,0.425056,-0.000011,0.000014,-0.000013,0.000019,-0.000017,-66.677168,0.000021,
2206,3103,-1.2148060425938,9.95839348676149,0.0247774601721744,0.006583,0.000140,0.001923,0.297435,0.033393,313.804615,24.829503,0.999436,0.991592,0.003828,0.425638,-0.000005,0.000006,-0.000016,0.000018,-0.000016,-54.454100,0.000020,
2116,2653,-3.09709844631012,0.178590795658572,-0.0337026607193138,0.006901,0.000258,0.000686,0.315665,0.033385,320.986037,24.450134,0.999546,0.990286,0.003815,0.364077,-0.000004,0.000001,0.000000,0.000001,-0.000004,88.447139,0.000005,
2356,2398,2.1735929674525,-5.38303266634947,0.000335413859659184,0.006271,-0.000015,0.002802,0.277732,0.031539,324.847488,23.629326,0.999547,0.987296,0.004521,0.367651,0.000004,0.000000,0.000017,0.000020,-0.000016,41.135664,0.000021,
2041,2383,-4.68424171299015,-5.71400720704322,-0.00356302048516,0.006491,-0.000111,0.002542,0.291307,0.013618,325.965092,24.572533,0.999332,0.988448,0.004259,0.378738,0.000009,-0.000014,-0.000006,0.000011,-0.000016,-13.145012,0.000016,
2326,2248,1.54794325675168,-8.66580132275757,0.00787865721525804,0.006306,0.000119,0.001716,0.283138,0.021305,327.343147,23.364892,0.998951,0.980924,0.005323,0.350123,-0.000023,-0.000052,-0.000018,-0.000014,-0.000061,-26.030438,0.000080,
2461,2938,4.35460709070825,6.39593613153458,-0.0136633320557848,0.006632,-0.000287,0.003561,0.291264,0.016919,316.079710,25.287672,0.999440,0.991261,0.003959,0.345320,0.000000,-0.000001,-0.000001,0.000001,-0.000002,-34.960744,0.000002,
2056,2428,-4.36543692050032,-4.7307950228385,-0.00839630696685845,0.006348,-0.000325,0.005778,0.275531,0.022771,325.097637,24.521931,0.998965,0.985365,0.004746,0.379663,0.000001,-0.000016,0.000018,0.000012,-0.000028,32.524289,0.000028,
2131,2758,-2.78812253316228,2.46341729015557,-0.0253527542023448,0.006557,-0.000106,0.001483,0.297443,0.023509,319.269642,24.456009,0.999435,0.991696,0.003767,0.381534,-0.000006,-0.000004,-0.000012,0.000007,-0.000017,-47.044059,0.000017,
2446,2863,4.04360676926673,4.76178195405491,-0.00578995593485843,0.006346,-0.000021,0.002583,0.281910,0.026371,317.332635,24.903021,0.999759,0.993547,0.003243,0.447124,-0.000005,0.000019,-0.000014,0.000025,-0.000012,-65.109217,0.000025,
2506,3208,5.28145093100771,12.2626781471069,0.0250151392007751,0.006218,0.000000,0.002596,0.275966,0.026670,312.078308,26.464761,0.999422,0.992050,0.003627,0.360284,0.000005,0.000021,0.000007,0.000023,0.000002,68.169078,0.000028,
2071,2473,-4.04514020290151,-3.74959946008485,-0.0020518142310948,0.006612,0.000151,0.000411,0.302964,0.020672,324.370256,24.449010,0.999439,0.989752,0.004284,0.403891,-0.000006,-0.000029,0.000011,-0.000002,-0.000033,21.504660,0.000040,
2431,2788,3.73101752237772,3.13028321903267,-0.019491999597733,0.006446,0.000061,0.001533,0.290478,0.032416,318.423732,24.713912,0.999561,0.990444,0.003903,0.371022,-0.000003,-0.000005,-0.000012,0.000008,-0.000016,-43.103537,0.000016,
2071,2503,-4.05039039184316,-3.09409695844707,-0.0151200931847484,0.006676,0.000476,-0.001870,0.312566,0.028757,323.786264,24.422289,0.999365,0.990344,0.004068,0.434973,0.000000,-0.000008,0.000004,0.000002,-0.000010,20.092159,0.000010,
2056,2413,-4.36210367230066,-5.05914356066433,-0.00711434723922366,0.006979,-0.000076,0.000361,0.319842,-0.007164,325.394835,24.481126,0.998593,0.982833,0.005205,0.394473,0.000005,-0.000031,0.000004,0.000005,-0.000031,6.628310,0.000034,
2131,2803,-2.7951316688578,3.44150838575649,-0.0207430013036856,0.006589,0.000280,0.001028,0.300480,0.034530,318.580508,24.436917,0.999520,0.992595,0.003543,0.428568,-0.000015,0.000005,-0.000003,0.000006,-0.000016,-81.179924,0.000016,
2386,2533,2.80091926618673,-2.43124732823053,-0.0219582998469718,0.006546,0.000978,-0.004030,0.315225,0.061539,322.524072,23.891187,0.999493,0.989662,0.004269,0.444844,-0.000006,-0.000014,0.000013,0.000004,-0.000024,37.056530,0.000026,
2296,2203,0.90269302127415,-9.65139873962966,0.0121946462592746,0.007069,0.000162,0.001036,0.320522,0.018144,328.161259,23.430428,0.998335,0.976681,0.005978,0.321055,-0.000031,-0.000001,-0.000020,0.000009,-0.000041,-63.101225,0.000043,
2296,2143,0.913861803289681,-10.9647740621871,0.0123688708019927,0.007144,0.000305,-0.002007,0.334150,0.016566,329.142593,23.432022,0.999286,0.982925,0.005254,0.186799,-0.000034,-0.000026,-0.000005,-0.000024,-0.000037,-63.157282,0.000061,
2116,2713,-3.10650380093062,1.48338842937977,-0.021554489572452,0.006599,-0.000160,0.003806,0.292439,0.010260,320.092206,24.459923,0.999393,0.989865,0.004011,0.346194,-0.000008,0.000000,-0.000002,0.000000,-0.000009,-80.110461,0.000010,
2476,3043,4.6611981126316,8.67850615355704,0.00383950190240512,0.006730,-0.000002,0.005024,0.290372,0.049621,314.541172,25.694741,0.999763,0.992961,0.003395,0.395685,-0.000011,0.000035,0.000006,0.000036,-0.000011,82.908870,0.000037,
2146,2803,-2.46923187634583,3.44184873184891,-0.0188993931930099,0.006700,0.000154,0.002619,0.300696,0.039735,318.534856,24.424466,0.999629,0.992990,0.003449,0.460036,-0.000015,0.000006,-0.000008,0.000008,-0.000017,-71.763674,0.000017,
2026,2323,-5.00120160716439,-7.02423143510063,-0.00541702896674678,0.006777,0.000238,-0.001509,0.315703,0.021926,327.029787,24.659302,0.999037,0.984840,0.004884,0.379873,0.000016,-0.000035,-0.000007,0.000017,-0.000036,-8.020788,0.000036,
2191,3013,-1.52559582257043,8.00515653800173,0.0122212351498092,0.006643,0.000305,0.002360,0.298801,0.031880,315.215117,24.698501,0.999443,0.991728,0.003742,0.415796,0.000002,0.000023,-0.000005,0.000024,0.000001,-76.572060,0.000028,
2251,2023,-0.0475835145228523,-13.5980254655019,0.0234828005937402,0.006378,0.000075,0.003161,0.281807,0.028397,331.173006,23.407030,0.999087,0.982368,0.005400,0.262203,-0.000025,-0.000021,0.000019,-0.000004,-0.000042,47.833851,0.000051,
2041,2488,-4.69969722698549,-3.42218734179267,-0.00919386017073975,0.007052,0.000176,0.000314,0.323593,0.025632,324.257066,24.511456,0.999347,0.988391,0.004453,0.409104,0.000015,-0.000022,0.000001,0.000015,-0.000022,1.617828,0.000023,
2086,2503,-3.72491279938952,-3.09346432580964,-0.0179195464039594,0.006274,0.000272,-0.000479,0.290041,0.034600,323.662719,24.391109,0.999088,0.990222,0.004036,0.441960,0.000004,-0.000010,0.000000,0.000004,-0.000010,-1.396276,0.000010,
2026,2428,-5.01781110042742,-4.73086748827924,-0.0141189709764831,0.006406,0.000053,0.001090,0.291662,0.028831,325.242392,24.574024,0.999048,0.985855,0.004700,0.416164,0.000025,-0.000007,0.000016,0.000032,-0.000014,22.952820,0.000032,
2461,2953,4.35214355991337,6.72210315929569,-0.0116562771294753,0.006814,0.000253,0.001019,0.309450,0.037688,315.869334,25.330677,0.999499,0.991188,0.003861,0.377016,0.000003,0.000000,0.000003,0.000005,-0.000002,29.490048,0.000005,
2221,3253,-0.915877928941573,13.2113571043622,0.0260180511427279,0.006396,0.000129,0.002638,0.286630,0.035420,311.308513,25.042047,0.999653,0.994360,0.003147,0.449812,-0.000016,-0.000005,-0.000007,-0.000001,-0.000019,-63.880472,0.000023,
2326,2263,1.54558728816948,-8.33773671094598,0.00983820283789782,0.006544,0.000240,0.001282,0.295607,0.012945,327.129928,23.397625,0.999221,0.984114,0.004790,0.345647,-0.000025,-0.000050,-0.000021,-0.000013,-0.000062,-29.713462,0.000080,
2041,2398,-4.68612496889709,-5.3863330937994,-0.0122907333894204,0.007113,0.000547,-0.001958,0.332637,0.023297,325.691970,24.489762,0.999313,0.989468,0.004084,0.465483,0.000018,-0.000031,-0.000007,0.000019,-0.000032,-7.596386,0.000032,
2506,3223,5.27858871212206,12.5881775433059,0.0243673915185241,0.006445,0.000325,0.001965,0.289027,0.037752,311.839412,26.507937,0.999549,0.991613,0.003719,0.388177,0.000000,-0.000003,0.000015,0.000013,-0.000017,42.238688,0.000018,
2371,2488,2.48331906017276,-3.41660048379332,-0.00376822965552037,0.006300,0.000008,0.001869,0.282418,0.030987,323.365055,23.764619,0.999456,0.987549,0.004367,0.440261,0.000007,-0.000012,0.000018,0.000018,-0.000023,31.118976,0.000024,
2491,3118,4.97323231171675,10.3074481618673,0.0173859945433605,0.006425,-0.000020,0.002904,0.284340,0.032972,313.458096,25.993706,0.999464,0.991614,0.003594,0.418588,0.000005,0.000044,0.000008,0.000045,0.000003,79.029532,0.000054,
2161,2878,-2.15591687820883,5.07307735518374,-0.0146008755353932,0.006420,-0.000045,0.001459,0.291257,0.021809,317.284565,24.535617,0.999506,0.993298,0.003394,0.394047,-0.000003,0.000026,-0.000003,0.000027,-0.000004,-83.604367,0.000029,
2206,3178,-1.22773849917155,11.5852243093802,0.0281171760552752,0.006455,0.000317,0.001219,0.293978,0.043956,312.602249,24.949801,0.999673,0.995047,0.003102,0.393577,-0.000009,0.000008,-0.000005,0.000010,-0.000010,-73.739775,0.000012,
2221,3238,-0.912917518423111,12.886436336941,0.0316032574768883,0.006190,0.000028,0.000824,0.282911,0.026989,311.597362,25.073943,0.999681,0.994239,0.003197,0.391644,-0.000013,0.000000,-0.000008,0.000003,-0.000016,-65.339922,0.000017,
2011,2263,-5.31838117285942,-8.33666112463081,0.00346882767820489,0.006753,0.000110,-0.000045,0.310460,0.001689,328.157739,24.765222,0.998745,0.980604,0.005193,0.349222,-0.000021,0.000037,-0.000008,0.000038,-0.000022,-81.838433,0.000038,
2446,2878,4.03970537263048,5.08945728386216,-0.0158403162285481,0.006358,-0.000133,0.003670,0.278383,0.024685,316.999444,24.997643,0.999546,0.991985,0.003577,0.402620,-0.000007,0.000011,-0.000006,0.000013,-0.000009,-73.043250,0.000013,
2311,2173,1.23540843106347,-10.3098140279024,0.0200005041893405,0.006422,0.000089,0.001796,0.288098,0.040966,328.666333,23.256966,0.999116,0.982380,0.005261,0.372092,-0.000027,-0.000011,-0.000003,-0.000010,-0.000027,-80.672162,0.000039,
2056,2548,-4.38405274098271,-2.11270064729684,-0.0195326759667864,0.006628,0.000166,0.003653,0.294766,0.042769,323.086597,24.444824,0.999315,0.989641,0.004115,0.443929,0.000006,0.000006,0.000023,0.000029,-0.000017,45.129086,0.000029,
2281,2143,0.586752800384527,-10.9655875557314,0.0208889534110313,0.007125,0.000275,0.002154,0.319335,0.053858,329.214416,23.476880,0.999143,0.982594,0.005262,0.262892,-0.000029,-0.000024,-0.000002,-0.000023,-0.000030,-69.160600,0.000053,
2191,3088,-1.53792840758878,9.63217854897465,0.0222600330815226,0.006515,0.000245,0.001903,0.294515,0.042966,314.070447,24.763977,0.999485,0.992543,0.003577,0.429139,-0.000001,0.000005,-0.000012,0.000015,-0.000010,-51.922492,0.000015,
2281,2158,0.583641279122155,-10.6375977595663,0.0174029907024078,0.006883,0.000112,0.001262,0.311224,0.029784,328.936318,23.423129,0.999458,0.983438,0.005185,0.323320,-0.000031,-0.000016,-0.000006,-0.000014,-0.000033,-71.198920,0.000048,
2251,2128,-0.0664343266449841,-11.295608002983,0.0187462114508889,0.006183,-0.000259,0.002457,0.275225,0.004797,329.439353,23.493776,0.998854,0.980037,0.005485,0.338554,-0.000018,-0.000012,0.000001,-0.000012,-0.000018,79.898070,0.000031,
2476,3058,4.658910440968,9.00392429346085,0.0124362164109471,0.006358,0.000306,0.000069,0.292237,0.037051,314.369619,25.771682,0.999656,0.990998,0.003855,0.361852,-0.000008,0.000033,0.000002,0.000034,-0.000008,87.580395,0.000035,
2356,2413,2.17085054108282,-5.05423529846943,-0.00509125590855319,0.006678,0.000355,0.001398,0.301492,0.019379,324.582800,23.713225,0.999740,0.990466,0.004073,0.311875,0.000003,-0.000001,0.000021,0.000022,-0.000020,42.178213,0.000024,
2011,2383,-5.33632322863028,-5.71311882404633,-0.00546877788940492,0.006825,0.000619,-0.000380,0.315066,0.061966,326.156724,24.707649,0.999223,0.988746,0.004304,0.387464,0.000022,-0.000006,-0.000011,0.000025,-0.000009,-18.667058,0.000026,
2401,2653,3.10428609724648,0.18675409013499,-0.0177882512381871,0.006593,-0.000010,0.003548,0.289839,0.041676,320.597264,24.240613,0.999363,0.988196,0.004286,0.419174,-0.000010,0.000008,-0.000007,0.000010,-0.000012,-71.375236,0.000013,
2341,2338,1.85902684895634,-6.69630585622533,0.0134206945845108,0.006770,-0.000101,0.005589,0.290933,0.058485,325.939741,23.525536,0.999457,0.987332,0.004601,0.390703,-0.000015,-0.000014,0.000003,-0.000011,-0.000018,49.072987,0.000029,
2026,2338,-5.00381268420234,-6.69757441622734,0.00151264926654449,0.006230,-0.000152,0.002940,0.278275,0.014894,326.809229,24.631688,0.999239,0.986751,0.004504,0.392415,0.000010,-0.000044,-0.000014,0.000014,-0.000047,-13.254327,0.000049,
2206,3148,-1.22204089744759,10.9346602439741,0.0297057362571422,0.006845,0.000460,0.001797,0.310137,0.057646,313.122449,24.905626,0.999524,0.993647,0.003412,0.420598,-0.000009,0.000006,-0.000009,0.000011,-0.000013,-63.920396,0.000014,
2266,2068,0.272175600388447,-12.6106081914703,0.0200167137599578,0.006499,0.000633,-0.000629,0.299954,0.037542,330.414997,23.370556,0.999149,0.982185,0.005184,0.293324,-0.000035,-0.000024,0.000011,-0.000017,-0.000042,57.994479,0.000060,
2146,2848,-2.47648554468485,4.42039916096384,-0.0188675199761406,0.006734,0.000107,-0.000094,0.310474,0.021284,317.813341,24.480827,0.999587,0.993367,0.003383,0.408218,-0.000018,0.000015,-0.000001,0.000015,-0.000018,-88.101852,0.000020,
2101,2608,-3.4146137137767,-0.804376896787922,-0.0169006225386283,0.006936,0.000405,-0.001465,0.323602,0.041476,321.933120,24.373798,0.998915,0.986294,0.004751,0.450864,-0.000007,0.000000,0.000008,0.000006,-0.000013,56.199181,0.000013,
2071,2518,-4.05305463177956,-2.7668093326098,-0.0173486717326909,0.006612,0.000117,0.000320,0.303283,0.020067,323.516167,24.426574,0.999408,0.991009,0.003907,0.420062,0.000001,-0.000014,0.000013,0.000008,-0.000021,29.710106,0.000021,
2056,2443,-4.36768976079293,-4.40295918063062,-0.0126018305236357,0.006366,0.000072,0.001315,0.289044,0.007385,324.834068,24.538579,0.999226,0.987376,0.004526,0.343763,-0.000007,-0.000019,0.000008,-0.000003,-0.000022,26.307326,0.000028,
2161,2938,-2.16520442262341,6.37594636247913,-0.0021432119112319,0.006559,0.000059,0.004034,0.289859,0.034797,316.410484,24.584020,0.999353,0.989268,0.004123,0.396822,-0.000008,0.000017,-0.000003,0.000018,-0.000008,-83.419701,0.000018,
2086,2578,-3.73684314317781,-1.45814671126867,-0.0177334178998194,0.006248,0.000075,0.001858,0.282133,0.019329,322.443975,24.433976,0.999062,0.988520,0.004377,0.383657,-0.000002,-0.000007,0.000003,0.000000,-0.000009,21.913164,0.000010,
2101,2578,-3.41075280873367,-1.45880342553101,-0.0155889694609073,0.006344,-0.000423,0.004863,0.277516,-0.000491,322.384220,24.355721,0.999318,0.988658,0.004227,0.423100,-0.000005,-0.000007,0.000002,-0.000004,-0.000009,32.781786,0.000013,
2116,2848,-3.12831904448025,4.41890313479452,-0.018380532755657,0.006429,-0.000070,0.003096,0.287038,0.030378,317.921389,24.441356,0.999683,0.993376,0.003379,0.415956,-0.000025,0.000017,-0.000005,0.000017,-0.000026,-82.953962,0.000026,
2116,2728,-3.10925146123989,1.81054794866108,-0.0289340478605595,0.006514,0.000544,0.000098,0.299858,0.051902,319.794240,24.429900,0.999362,0.989708,0.004074,0.421718,-0.000013,-0.000001,0.000000,-0.000001,-0.000013,88.946423,0.000015,
2071,2488,-4.04795836158488,-3.42164970338341,-0.00751095691123282,0.006500,0.000376,0.001130,0.295845,0.043194,324.075190,24.442390,0.999551,0.991111,0.004082,0.431089,-0.000007,-0.000020,0.000007,-0.000004,-0.000023,23.598771,0.000029,
2176,2998,-1.84911789999545,7.67955382459023,0.00334395059940107,0.006672,0.000293,0.001435,0.303203,0.051565,315.438419,24.660013,0.999391,0.992169,0.003689,0.417830,0.000001,0.000021,-0.000008,0.000024,-0.000001,-71.512252,0.000026,
2131,2818,-2.79730007176446,3.76720235473486,-0.0149320916015085,0.006489,0.000322,0.000842,0.296460,0.031474,318.381448,24.447263,0.999323,0.991294,0.003900,0.420478,-0.000013,0.000012,-0.000004,0.000012,-0.000014,-81.630309,0.000015,
2326,2278,1.54202934351791,-8.00821961289471,0.000365048721789663,0.006342,0.000261,-0.000612,0.292906,0.013752,326.805661,23.443312,0.999165,0.984388,0.004837,0.337994,-0.000026,-0.000028,-0.000022,-0.000004,-0.000049,-43.799848,0.000059,
2416,2728,3.41628282160104,1.82195033053987,-0.0250199598740437,0.006813,0.000060,-0.000254,0.313795,0.010974,319.357692,24.429738,0.999625,0.991065,0.003807,0.430956,-0.000012,-0.000001,-0.000006,0.000002,-0.000015,-65.392940,0.000016,
2176,2938,-1.83978619772421,6.37716384769504,-0.00298663541826727,0.006486,-0.000024,0.005325,0.282368,0.046700,316.342628,24.627543,0.999304,0.990631,0.003884,0.398862,-0.000008,0.000017,-0.000004,0.000018,-0.000009,-81.737841,0.000018,
2041,2413,-4.68956369213542,-5.05772111377661,-0.016470093672865,0.006531,0.000111,0.003665,0.290188,0.047957,325.372617,24.527423,0.999106,0.985772,0.004593,0.446748,0.000017,-0.000034,-0.000005,0.000017,-0.000034,-5.428161,0.000034,
2461,2968,4.34940548576806,7.04738778326249,-0.0017906940097987,0.006651,0.000015,0.005488,0.285029,0.039570,315.682509,25.369652,0.999599,0.990588,0.003873,0.393501,0.000002,0.000002,0.000004,0.000006,-0.000002,43.187509,0.000006,
2296,2218,0.89945842861227,-9.32255691868808,0.00944744093800409,0.006557,0.000431,-0.001663,0.306263,0.015675,327.882166,23.463530,0.998794,0.979073,0.005598,0.318020,-0.000029,-0.000003,-0.000026,0.000013,-0.000045,-58.207153,0.000046,
2026,2443,-5.01970671090191,-4.40246852459225,-0.0154325540615332,0.006749,0.000375,-0.000166,0.311001,0.018912,325.008374,24.663429,0.999364,0.990121,0.004095,0.308417,0.000013,-0.000006,0.000004,0.000014,-0.000007,12.284388,0.000014,
2236,2053,-0.379687093655487,-12.9405572463814,0.0252883110607058,0.006660,-0.000291,0.000384,0.303755,-0.021539,330.756936,23.515362,0.998752,0.978312,0.005672,0.254349,-0.000021,-0.000021,0.000016,-0.000005,-0.000037,45.485391,0.000046,
2041,2503,-4.70288853764434,-3.09453963980883,-0.0159135051693511,0.006558,0.000434,0.000683,0.299957,0.047433,323.935273,24.471646,0.999450,0.989951,0.004081,0.464505,0.000020,-0.000007,-0.000007,0.000022,-0.000009,-14.358110,0.000022,
2026,2353,-5.00608594010672,-6.36864138558619,-0.00383716177287852,0.006440,0.000124,0.001920,0.290843,0.029846,326.535195,24.674182,0.999113,0.986827,0.004716,0.357141,0.000008,-0.000045,-0.000006,0.000009,-0.000046,-6.289724,0.000049,
2386,2548,2.79862361976808,-2.10544374106397,-0.0102741498690762,0.006591,-0.000009,0.000640,0.300091,0.000021,322.363948,23.951196,0.999410,0.989412,0.004332,0.366975,-0.000005,-0.000010,0.000013,0.000005,-0.000021,39.822994,0.000021,
2221,3268,-0.918233852228383,13.5363030584864,0.0198173826964307,0.006954,0.000315,0.000212,0.320238,0.037242,311.044255,25.020081,0.999560,0.993603,0.003331,0.491219,-0.000017,0.000000,-0.000009,0.000004,-0.000020,-66.333645,0.000022,
2506,3238,5.27529839347379,12.913404705865,0.0206541252229613,0.006522,0.000459,0.001556,0.294257,0.046194,311.567011,26.515210,0.999621,0.991300,0.003694,0.449136,-0.000003,0.000002,0.000022,0.000022,-0.000022,48.314922,0.000025,
2266,2083,0.26891912405749,-12.2805359584874,0.0118214603830324,0.006602,0.000609,0.000858,0.299780,0.048852,330.105051,23.391246,0.999312,0.983931,0.005031,0.313284,-0.000029,-0.000022,0.000009,-0.000016,-0.000036,55.702327,0.000053,
2446,2893,4.03559927222022,5.41672871245814,-0.0269118406683333,0.006285,-0.000392,0.005223,0.269161,0.020938,316.652118,25.055502,0.999496,0.991265,0.003791,0.392891,-0.000006,0.000002,-0.000003,0.000004,-0.000007,-71.180100,0.000007,
2251,2038,-0.0501287484351849,-13.2685556691109,0.0201553310768645,0.006603,0.000436,0.001921,0.296275,0.045519,330.918661,23.402930,0.998989,0.979619,0.005555,0.310545,-0.000027,-0.000032,0.000007,-0.000022,-0.000037,35.368406,0.000060,
2146,2878,-2.48130705691169,5.07203737373936,-0.0114862092818839,0.006489,0.000333,0.001140,0.295625,0.040841,317.372193,24.495367,0.999535,0.992118,0.003584,0.428214,-0.000010,0.000028,-0.000003,0.000028,-0.000010,-85.091486,0.000029,
2296,2158,0.910699429143111,-10.637299984644,0.0125856748360889,0.006804,0.000435,-0.000176,0.312474,0.028963,328.881708,23.335157,0.999376,0.983614,0.005187,0.328826,-0.000038,-0.000017,-0.000011,-0.000013,-0.000042,-66.711391,0.000057,
2011,2398,-5.33840842707096,-5.38674606158212,-0.00281469279246949,0.006912,0.000140,0.001927,0.312720,0.026824,325.935561,24.658866,0.999195,0.988601,0.004319,0.390605,0.000030,-0.000039,-0.000013,0.000033,-0.000041,-10.593625,0.000044,
2206,3193,-1.22963542590233,11.9095994457697,0.0324722386283725,0.006709,0.000346,-0.001191,0.313347,0.037990,312.412901,24.923423,0.999785,0.996168,0.002920,0.429480,-0.000010,0.000001,-0.000005,0.000003,-0.000012,-68.121484,0.000012,
2086,2563,-3.73325601870735,-1.78583556978039,-0.0114976872210377,0.006760,0.000074,-0.003271,0.320437,-0.002862,322.777023,24.438738,0.998839,0.987877,0.004568,0.356764,0.000007,0.000006,0.000009,0.000016,-0.000002,42.268773,0.000017,
2011,2278,-5.32055973768226,-8.0081564121098,-0.00291423562083537,0.006956,0.000435,-0.003022,0.327996,0.025040,327.880816,24.721942,0.998609,0.981401,0.005467,0.406145,-0.000011,0.000021,-0.000007,0.000023,-0.000012,-77.722782,0.000023,
2371,2503,2.48032420790153,-3.08851272230096,-0.00547296466328362,0.006438,-0.000235,0.003528,0.282745,0.014980,323.107719,23.853534,0.999497,0.987798,0.004386,0.377697,0.000001,-0.000008,0.000016,0.000013,-0.000020,37.781893,0.000020,
2401,2668,3.10114551786753,0.51371630969431,-0.0171834614861837,0.006314,-0.000285,0.003393,0.277521,0.020712,320.346107,24.305301,0.999438,0.988938,0.004238,0.379483,-0.000011,0.000010,-0.000010,0.000014,-0.000014,-68.114492,0.000016,
2056,2458,-4.36992384365396,-4.07645025151216,-0.00999832361668496,0.006311,-0.000169,0.002197,0.284009,0.019887,324.609029,24.474791,0.999259,0.987061,0.004643,0.416162,-0.000006,-0.000031,0.000000,-0.000006,-0.000031,-0.648933,0.000039,
2161,2953,-2.16750515631689,6.70096320560101,0.00226026227306875,0.006475,-0.000122,0.003845,0.286559,0.031258,316.199967,24.556928,0.999481,0.991626,0.003656,0.429818,-0.000006,0.000020,-0.000007,0.000021,-0.000007,-75.487172,0.000022,
2491,3133,4.97019260850307,10.6331834722335,0.0156822437367055,0.006543,-0.000129,0.002258,0.292229,0.030738,313.205634,26.042431,0.999463,0.991297,0.003592,0.425269,0.000009,0.000042,0.000003,0.000042,0.000009,84.661660,0.000055,
2431,2803,3.72860600627937,3.45719089766536,-0.0170021748216413,0.006541,0.000247,-0.001772,0.307124,0.025552,318.216469,24.814706,0.999561,0.990039,0.003985,0.313194,-0.000004,0.000000,-0.000013,0.000011,-0.000015,-49.327708,0.000015,
2131,2773,-2.79041192059703,2.78951312005447,-0.024395298798936,0.006621,0.000145,0.000884,0.302312,0.035057,319.038955,24.439061,0.999597,0.992941,0.003435,0.415712,-0.000007,0.000002,-0.000009,0.000007,-0.000012,-59.777611,0.000012,
2146,2863,-2.47974760688279,4.74699287877431,-0.023302530532078,0.006468,-0.000015,0.003072,0.288672,0.032091,317.510333,24.496314,0.999476,0.992830,0.003485,0.411137,-0.000015,0.000018,-0.000002,0.000018,-0.000015,-86.265899,0.000019,
2461,2983,4.34643838567252,7.37428237487444,-0.00336128302552652,0.006479,0.000407,0.001134,0.293701,0.040062,315.432230,25.482763,0.999515,0.990538,0.003893,0.334496,-0.000001,0.000011,0.000002,0.000012,-0.000002,83.203813,0.000012,
2341,2353,1.85600287207626,-6.36759629908622,0.00428975217994321,0.006666,0.000651,-0.002047,0.313037,0.044904,325.643074,23.543872,0.999347,0.986066,0.004664,0.397550,-0.000011,-0.000014,0.000009,-0.000003,-0.000022,39.909441,0.000028,
2476,3073,4.65624885025371,9.32891589968565,0.0170008269590767,0.006612,0.000137,0.003104,0.292231,0.028320,314.162541,25.782400,0.999619,0.991219,0.003779,0.398114,-0.000005,0.000028,0.000002,0.000029,-0.000005,87.285279,0.000030,
2116,2743,-3.11219175151839,2.13784529877597,-0.0360223451798447,0.006455,0.000240,-0.000055,0.297469,0.025148,319.489120,24.488558,0.999374,0.990502,0.003981,0.339945,-0.000016,-0.000005,-0.000005,-0.000003,-0.000018,-69.001919,0.000023,
2071,2533,-4.05497221863455,-2.43959332473607,-0.01183560834221,0.006850,0.000133,0.003097,0.306378,0.051692,323.322446,24.458305,0.999396,0.990695,0.003992,0.417603,-0.000005,-0.000010,0.000019,0.000012,-0.000027,41.763497,0.000027,
2281,2173,0.579807236622223,-10.3099902516909,0.0120757681798409,0.006236,-0.000223,0.002901,0.276031,0.015915,328.615959,23.310686,0.999309,0.982418,0.005284,0.452650,-0.000026,-0.000011,-0.000005,-0.000009,-0.000028,-72.392000,0.000038,
2056,2563,-4.38578843094726,-1.78599640444602,-0.0174972514639649,0.006759,0.000492,-0.001344,0.315022,0.039731,322.881345,24.442207,0.999278,0.988746,0.004274,0.438779,0.000006,0.000012,0.000012,0.000021,-0.000003,52.270740,0.000023,
2221,3283,-0.921989705364428,13.8632762299131,0.00941158646799067,0.006668,0.000106,0.001436,0.303086,0.032847,310.693113,25.173181,0.999439,0.992372,0.003457,0.350726,-0.000022,0.000003,-0.000006,0.000004,-0.000023,-76.761994,0.000025,
2086,2593,-3.73931888804158,-1.13083299755577,-0.0203032986569269,0.006158,0.000440,-0.000291,0.284350,0.037628,322.181829,24.435872,0.999090,0.988468,0.004329,0.400156,-0.000005,0.000004,0.000007,0.000008,-0.000009,61.458915,0.000009,
2251,2053,-0.0523876161723003,-12.9399649547206,0.0217520886111515,0.006712,0.000261,-0.000023,0.307578,0.028204,330.702469,23.413938,0.998953,0.979794,0.005492,0.308778,-0.000029,-0.000024,0.000012,-0.000015,-0.000038,51.270020,0.000055,
2161,3073,-2.18564201921081,9.30403392228709,0.0279640127037624,0.006607,0.000582,-0.000163,0.305388,0.054604,314.476804,24.623369,0.999656,0.994583,0.003208,0.461007,-0.000003,0.000008,-0.000015,0.000019,-0.000013,-55.058278,0.000019,
2191,3103,-1.53992522869957,9.95711649641216,0.0291616764331479,0.006718,0.000175,0.003126,0.299988,0.039177,313.888744,24.781953,0.999499,0.992812,0.003531,0.420984,-0.000005,0.000006,-0.000014,0.000015,-0.000015,-55.779131,0.000017,
2251,2143,-0.0685236656895221,-10.9658158376297,0.0138834954013873,0.006758,0.000409,-0.001936,0.316162,0.029697,329.197822,23.534718,0.998889,0.981590,0.005321,0.348805,-0.000022,-0.000028,-0.000002,-0.000022,-0.000029,-15.717768,0.000050,
2071,2623,-4.06976854041285,-0.477347737402887,-0.0303461196252783,0.006859,0.000522,-0.002276,0.322411,0.042038,321.728556,24.395862,0.999156,0.989595,0.004131,0.456880,-0.000009,-0.000001,0.000012,0.000007,-0.000018,55.075553,0.000018,
2101,2653,-3.42292761888188,0.177677528992454,-0.0295275353902298,0.006825,0.000304,0.001957,0.308525,0.033312,321.083451,24.456642,0.999438,0.989941,0.003912,0.365649,-0.000004,0.000000,0.000007,0.000005,-0.000009,53.019658,0.000009,
2266,2203,0.247750200001665,-9.65114397536774,0.00838079079045428,0.006933,0.000030,0.000785,0.315239,0.000485,328.160389,23.559349,0.998739,0.981871,0.005430,0.324546,-0.000022,-0.000012,-0.000018,0.000001,-0.000035,-52.711506,0.000040,
2191,3028,-1.52851541343823,8.33087438992266,0.0104723180618862,0.006551,0.000068,0.004178,0.288841,0.038834,314.945710,24.703348,0.999627,0.992655,0.003650,0.431558,0.000000,0.000016,-0.000010,0.000021,-0.000004,-63.596145,0.000022,
2506,3253,5.27197102896814,13.2393285863587,0.0161556924401225,0.006623,0.000358,0.001037,0.300874,0.039021,311.289044,26.602340,0.999739,0.992752,0.003466,0.414343,-0.000002,0.000005,0.000025,0.000027,-0.000023,48.977379,0.000029,
2386,2563,2.79516686982364,-1.77667809911623,-0.018230324906142,0.006491,0.000304,-0.001498,0.303335,0.012779,322.056533,24.038973,0.999465,0.990347,0.004041,0.336467,-0.000007,-0.000001,0.000011,0.000007,-0.000015,54.004924,0.000015,
2026,2458,-5.02249145389311,-4.0751378525577,-0.0271921680925971,0.006885,0.000562,-0.000409,0.318013,0.039674,324.675728,24.532957,0.999466,0.990483,0.003960,0.451582,0.000009,-0.000028,-0.000006,0.000010,-0.000029,-9.120015,0.000029,
2041,2428,-4.69204800463627,-4.73044345666432,-0.0134766398672923,0.006215,-0.000311,0.005169,0.271360,0.025364,325.137082,24.563079,0.999089,0.984704,0.004733,0.382554,0.000013,-0.000011,0.000013,0.000019,-0.000017,23.741203,0.000021,
2371,2518,2.47742832105449,-2.76104225628285,-0.010967823040346,0.006637,0.000022,0.001018,0.300932,0.020301,322.836811,23.835454,0.999456,0.986119,0.004701,0.443321,-0.000006,-0.000007,0.000013,0.000007,-0.000020,43.266355,0.000020,
2131,2788,-2.79268600816496,3.11540952031176,-0.0208830821632091,0.006610,0.000045,0.001416,0.300196,0.028275,318.822713,24.446171,0.999615,0.993287,0.003324,0.407365,-0.000014,0.000007,-0.000006,0.000008,-0.000016,-74.933085,0.000016,
2326,2293,1.53895333053235,-7.67999497961282,0.000366080927904022,0.006113,0.000081,0.000290,0.279251,0.015824,326.549741,23.471290,0.999108,0.984455,0.004897,0.348782,-0.000024,-0.000020,-0.000016,-0.000005,-0.000038,-48.630301,0.000047,
2086,2698,-3.75609897745243,1.15597226377742,-0.0247488263217406,0.006474,0.000267,0.003757,0.287392,0.058302,320.447258,24.404729,0.999363,0.991363,0.003761,0.449042,-0.000016,-0.000008,-0.000001,-0.000008,-0.000016,-82.455860,0.000025,
2446,2908,4.03313750555953,5.74249692177803,-0.0192987761663517,0.006167,-0.000247,0.004858,0.265177,0.022705,316.466990,25.109656,0.999476,0.991075,0.003824,0.392345,-0.000005,0.000005,0.000000,0.000005,-0.000005,88.454233,0.000006,
2161,2968,-2.17000739986761,7.0271259169733,0.0022634089078224,0.006511,-0.000217,0.003987,0.287811,0.031382,315.956590,24.604709,0.999605,0.993193,0.003369,0.391661,-0.000002,0.000022,-0.000011,0.000026,-0.000006,-68.968729,0.000027,
2461,2998,4.34366458016979,7.69889790394098,-0.000243894991626803,0.006658,0.000232,0.003498,0.292991,0.039976,315.212886,25.422614,0.999403,0.990197,0.003941,0.448628,-0.000001,0.000010,0.000002,0.000011,-0.000002,79.358829,0.000012,
2011,2413,-5.34128088830375,-5.0597739192471,-0.00419479786057764,0.006286,-0.000066,0.001361,0.285401,0.015074,325.655620,24.608023,0.999172,0.988601,0.004310,0.419559,0.000025,-0.000047,-0.000005,0.000025,-0.000047,-3.743418,0.000047,
2041,2518,-4.70509791274922,-2.76737919257419,-0.0181408797050722,0.006710,0.000391,-0.000013,0.308920,0.035523,323.683501,24.466838,0.999314,0.990618,0.004056,0.451065,0.000017,-0.000015,0.000003,0.000018,-0.000015,5.697982,0.000019,
2071,2548,-4.05754035454556,-2.1123260696944,-0.020447533267884,0.007033,0.000211,0.001308,0.319934,0.040035,323.021873,24.416747,0.999455,0.991286,0.003949,0.445562,0.000000,0.000004,0.000026,0.000028,-0.000024,47.181273,0.000030,
2026,2368,-5.00791470017881,-6.04165490023784,-0.00511632613734037,0.006694,0.000409,-0.001575,0.312225,0.030745,326.304651,24.598033,0.999108,0.987331,0.004695,0.426058,0.000019,-0.000013,-0.000006,0.000020,-0.000014,-9.752418,0.000021,
2401,2683,3.09827596296479,0.841707764973137,-0.0217962907200899,0.006650,0.000389,0.002344,0.297036,0.050105,320.082404,24.375629,0.999452,0.988648,0.004224,0.384606,-0.000016,0.000014,-0.000013,0.000019,-0.000020,-69.258153,0.000023,
2296,2233,0.897046207435974,-8.99328578734759,0.00701339933982581,0.006888,0.000951,-0.003789,0.328851,0.036284,327.642058,23.521521,0.998996,0.980183,0.005390,0.313170,-0.000031,-0.000021,-0.000026,0.000000,-0.000053,-50.281741,0.000061,
2011,2293,-5.32380160269409,-7.6781980291024,-0.00975905264363064,0.006714,0.000188,0.003764,0.298472,0.056356,327.552396,24.805013,0.998915,0.986429,0.004860,0.344967,0.000004,0.000012,-0.000002,0.000013,0.000003,-75.801248,0.000017,
2431,2818,3.72521200443422,3.78331094253994,-0.0214294223652587,0.006545,0.000379,-0.000891,0.304137,0.038802,317.931955,24.774463,0.999606,0.991082,0.003865,0.416649,-0.000007,0.000001,-0.000012,0.000010,-0.000016,-54.208690,0.000016,
2506,3268,5.26834415030188,13.5655343468961,0.0113858689871904,0.006703,0.000051,0.003529,0.294842,0.038668,310.995843,26.711624,0.999853,0.995719,0.002795,0.364263,-0.000001,-0.000014,0.000021,0.000015,-0.000030,36.477460,0.000030,
2176,3013,-1.85139028152922,8.00490840879231,0.00616522634908279,0.006778,0.000203,0.001632,0.307421,0.038028,315.221720,24.678546,0.999255,0.990599,0.003952,0.397283,0.000000,0.000024,-0.000006,0.000025,-0.000001,-77.287525,0.000028,
2281,2278,0.560408598150406,-8.00813031963818,-0.00150628316623624,0.006479,0.000284,0.000208,0.296516,0.023466,326.828918,23.611468,0.999633,0.988075,0.004512,0.371817,-0.000029,-0.000019,-0.000022,-0.000001,-0.000047,-51.143692,0.000055,
2311,2188,1.23383880804102,-9.98162007393982,0.0256827680821061,0.006839,0.000680,-0.002625,0.322529,0.029337,328.506387,23.317312,0.999082,0.981800,0.005207,0.334754,-0.000027,-0.000012,-0.000008,-0.000009,-0.000030,-66.700520,0.000041,
2056,2578,-4.38811376366906,-1.45856392366478,-0.0211493978218869,0.007076,0.000671,0.000488,0.324492,0.044533,322.617604,24.453396,0.999015,0.988828,0.004309,0.427935,-0.000006,-0.000002,0.000005,0.000001,-0.000009,55.223629,0.000010,
2251,2068,-0.0549265741425806,-12.6111916850729,0.0260990329381912,0.006492,0.000688,0.000128,0.297202,0.044774,330.487089,23.443569,0.999150,0.981992,0.005182,0.322349,-0.000028,-0.000020,0.000013,-0.000010,-0.000038,53.291002,0.000051,
2071,2638,-4.07219025319992,-0.150580472425972,-0.0219334434925145,0.006431,0.000438,0.000581,0.294572,0.062585,321.527872,24.453359,0.998961,0.987959,0.004416,0.417144,0.000000,-0.000003,0.000010,0.000009,-0.000012,41.061766,0.000012,
2221,3298,-0.92549284860991,14.1879425305815,0.000804315565630986,0.006459,0.000020,0.002014,0.291609,0.028672,310.363699,25.128048,0.999430,0.993075,0.003287,0.409147,-0.000025,0.000013,-0.000007,0.000014,-0.000026,-79.098419,0.000026,
2356,2428,2.16789261458998,-4.72844772863218,-0.00655998721640572,0.006726,0.000251,0.002326,0.300449,0.041575,324.327577,23.530327,0.999545,0.989979,0.004191,0.557540,0.000005,0.000008,0.000020,0.000027,-0.000014,46.964996,0.000027,
2101,2668,-3.42526154675928,0.50368398605837,-0.029145602179085,0.006704,0.000448,-0.000443,0.310059,0.038079,320.845412,24.402015,0.999453,0.991115,0.003801,0.426747,-0.000011,-0.000003,0.000006,0.000000,-0.000014,60.781332,0.000016,
2206,3163,-1.22518351073866,11.2594968291061,0.0313840633444329,0.006357,0.000047,0.004004,0.280418,0.027786,312.861843,24.922518,0.999747,0.995551,0.002989,0.389239,-0.000009,0.000010,-0.000008,0.000013,-0.000012,-69.189930,0.000015,
2131,2833,-2.79962493330041,4.09417825000283,-0.0226048902437128,0.006829,0.000473,-0.003802,0.326122,0.035046,318.102780,24.470593,0.999541,0.992738,0.003565,0.406541,-0.000013,0.000011,-0.000003,0.000011,-0.000014,-83.582446,0.000015,
2146,2893,-2.48361026759369,5.39763424652664,-0.0104524933423704,0.006587,0.000111,0.000753,0.301253,0.033043,317.142547,24.486065,0.999530,0.990323,0.003941,0.437160,-0.000010,0.000021,-0.000003,0.000021,-0.000010,-83.499759,0.000021,
2116,2863,-3.13029759320894,4.74455802222067,-0.0119856718799269,0.006505,0.000010,0.003510,0.289333,0.031713,317.733270,24.459374,0.999647,0.992753,0.003491,0.402349,-0.000021,0.000019,-0.000005,0.000019,-0.000022,-83.199306,0.000024,
2146,2998,-2.49960613669723,7.67697795970384,0.00930512334599598,0.006677,0.000706,-0.000958,0.310950,0.054215,315.607115,24.559411,0.999592,0.993460,0.003419,0.436122,-0.000013,0.000019,-0.000007,0.000020,-0.000015,-78.920079,0.000021,
2266,2098,0.266033459599317,-11.9512863978818,0.00962035232669223,0.006526,0.000006,0.000701,0.296626,0.014588,329.842346,23.454580,0.999112,0.981469,0.005368,0.244460,-0.000027,-0.000019,0.000005,-0.000016,-0.000030,63.605919,0.000047,
2011,2428,-5.34331829674286,-4.73173116479575,-0.00797653082469196,0.006506,0.000379,-0.001491,0.303426,0.032512,325.400021,24.608343,0.999036,0.987561,0.004489,0.426375,0.000016,-0.000008,0.000013,0.000022,-0.000014,24.085168,0.000022,
2266,2218,0.245168215914596,-9.3230214970207,0.0113854500608568,0.006717,-0.000013,-0.000272,0.308823,0.013650,327.937273,23.570702,0.998676,0.980450,0.005545,0.354479,-0.000022,-0.000012,-0.000024,0.000008,-0.000042,-51.143178,0.000045,
2191,3118,-1.54254715332012,10.2819907698461,0.034476526074684,0.006381,0.000083,0.003989,0.281638,0.020395,313.670073,24.802210,0.999452,0.992940,0.003562,0.395257,-0.000010,0.000002,-0.000015,0.000012,-0.000020,-56.156752,0.000020,
2491,3148,4.96749164824798,10.9591668280387,0.0209088877485328,0.006578,0.000179,0.003523,0.289077,0.039719,312.999932,26.149088,0.999525,0.990427,0.003727,0.385380,0.000009,0.000027,0.000005,0.000028,0.000008,74.365128,0.000038,
2296,2353,0.874513096475035,-6.36837043066954,0.00705600249796134,0.006514,0.000304,0.001529,0.293733,0.028988,325.670077,23.701673,0.999632,0.988683,0.004150,0.382924,-0.000024,-0.000011,-0.000011,-0.000004,-0.000031,-60.447955,0.000038,
2131,2923,-2.81364908736581,6.04801547157232,-0.00642232305955304,0.006656,0.000074,-0.002310,0.313646,0.009582,316.762269,24.477193,0.999336,0.989585,0.004083,0.406078,-0.000008,0.000009,-0.000003,0.000010,-0.000009,-81.053745,0.000011,
2206,3208,-1.23248515129264,12.2347811471403,0.0340265478326387,0.006603,0.000297,0.002120,0.297937,0.041148,312.164920,24.949387,0.999642,0.994604,0.003206,0.421914,-0.000010,-0.000001,-0.000002,0.000000,-0.000010,-79.633107,0.000012,
2326,2308,1.53665399523926,-7.35084328386258,-0.00278941977308023,0.006782,0.000504,-0.000393,0.312458,0.042542,326.313740,23.532888,0.998981,0.984342,0.004990,0.350411,-0.000023,-0.000028,-0.000011,-0.000015,-0.000036,-39.336471,0.000052,
2476,3088,4.65308352566791,9.65524518983074,0.0178692919771493,0.006627,0.000209,0.005584,0.283633,0.054216,313.914938,25.861790,0.999427,0.992172,0.003660,0.400219,0.000003,0.000032,0.000008,0.000034,0.000001,74.888411,0.000040,
2461,3013,4.34176923398926,8.02534569535399,0.00558605099456599,0.006957,0.000387,-0.000747,0.322824,0.037601,315.045854,25.555319,0.999412,0.989935,0.003899,0.366988,-0.000009,0.000014,0.000002,0.000014,-0.000009,84.073158,0.000014,
2116,2758,-3.1135890540865,2.46230759524957,-0.0189299598825414,0.006369,0.000331,-0.000180,0.293918,0.031776,319.385403,24.449870,0.999472,0.991215,0.003784,0.388449,-0.000016,-0.000008,-0.000012,0.000001,-0.000025,-53.966102,0.000029,
2416,2743,3.4131206881215,2.14927120572709,-0.0225487510288644,0.006581,0.000012,0.001960,0.295112,0.034899,319.114875,24.520740,0.999518,0.990172,0.003913,0.412003,-0.000011,0.000004,-0.000005,0.000005,-0.000012,-72.891501,0.000012,
2101,2623,-3.41833388531394,-0.475962513181138,-0.0369485767237165,0.006674,0.000709,-0.004822,0.321465,0.030043,321.520621,24.367482,0.999125,0.987266,0.004497,0.448176,-0.000005,-0.000004,0.000006,0.000001,-0.000011,47.789768,0.000012,
2506,3283,5.26489349975111,13.8903050829944,0.00542916065586496,0.006681,-0.000076,0.001610,0.301155,0.017636,310.705810,26.706915,0.999859,0.996064,0.002643,0.407521,0.000003,-0.000066,0.000020,0.000008,-0.000072,14.902012,0.000078,
2446,2923,4.03062114315548,6.06902540829894,-0.0118177366872487,0.006135,-0.000148,0.006032,0.259399,0.030820,316.278466,25.229717,0.999649,0.993341,0.003583,0.331848,-0.000004,-0.000002,0.000001,-0.000002,-0.000004,73.716586,0.000006,
2041,2443,-4.69285853224034,-4.40421336889802,-0.00587597868457124,0.006898,0.000275,0.000286,0.316518,0.014248,325.003796,24.538800,0.998881,0.983502,0.005102,0.389053,0.000003,-0.000012,0.000002,0.000003,-0.000012,8.541527,0.000013,
2161,2983,-2.17286929771912,7.35337089311381,-0.00169709440621091,0.006552,-0.000046,0.005592,0.284836,0.043164,315.675724,24.625524,0.999538,0.993412,0.003402,0.391969,-0.000001,0.000016,-0.000012,0.000022,-0.000007,-63.187465,0.000022,
2026,2473,-5.02497667651088,-3.74832459976781,-0.0190398375737573,0.006626,-0.000279,0.007564,0.284030,0.038954,324.467859,24.566382,0.999133,0.985994,0.004596,0.408960,0.000021,-0.000036,0.000002,0.000021,-0.000036,1.982756,0.000036,
2086,2713,-3.75814160065996,1.48148168170557,-0.0213766572071563,0.006684,-0.000266,0.005236,0.292574,0.026646,320.237956,24.377904,0.999328,0.990639,0.003899,0.443330,-0.000013,0.000002,0.000000,0.000002,-0.000013,89.762168,0.000014,
2056,2473,-4.37182451319991,-3.74799211029583,-0.00984521235312741,0.006662,-0.000005,0.001627,0.301819,0.017239,324.385344,24.586256,0.999264,0.987838,0.004730,0.297743,0.000002,-0.000029,0.000008,0.000004,-0.000030,13.118879,0.000033,
2086,2608,-3.74102669376292,-0.803572589473347,-0.0231094557885285,0.006943,0.000435,-0.001018,0.322648,0.044452,321.953609,24.447216,0.999120,0.988530,0.004314,0.395405,-0.000003,0.000004,0.000007,0.000008,-0.000008,57.871577,0.000010,
2341,2368,1.85193017200598,-6.03842867846186,-0.00874811080893778,0.006615,0.000383,0.000761,0.300851,0.033137,325.279267,23.570904,0.999161,0.985025,0.004787,0.397560,-0.000015,-0.000014,0.000011,-0.000004,-0.000025,45.998809,0.000031,
2371,2533,2.47413835842158,-2.43256783801995,-0.014184136862923,0.006387,0.000247,-0.000030,0.293329,0.043100,322.558376,23.918021,0.999410,0.987481,0.004534,0.425811,-0.000005,-0.000008,0.000010,0.000003,-0.000017,40.776278,0.000018,
2011,2443,-5.34535460111844,-4.40375038748057,-0.0039071111505109,0.006647,0.000063,0.002040,0.300282,0.026896,325.188563,24.704791,0.999312,0.990218,0.004072,0.313632,0.000007,-0.000004,0.000004,0.000008,-0.000005,17.195990,0.000008,
2281,2188,0.577726938391887,-9.98017670377946,0.0112031168007434,0.006579,0.000271,-0.001710,0.307301,0.006133,328.397642,23.448174,0.998922,0.979154,0.005659,0.335938,-0.000027,-0.000015,-0.000013,-0.000006,-0.000035,-57.903227,0.000045,
2401,2698,3.09457869644621,1.16874301251406,-0.0316810881402603,0.006629,0.000001,0.001962,0.297320,0.034574,319.756067,24.365264,0.999493,0.990389,0.003947,0.425744,-0.000014,0.000011,-0.000014,0.000017,-0.000020,-66.111850,0.000021,
2161,3088,-2.18883011541054,9.63062784234498,0.0210578869682081,0.006582,0.000340,0.002186,0.296912,0.041811,314.165221,24.710726,0.999493,0.991588,0.003653,0.369820,-0.000006,0.000005,-0.000014,0.000015,-0.000016,-55.605660,0.000018,
2056,2593,-4.39109893046273,-1.13040791304801,-0.0278231795257966,0.007022,-0.000016,0.003853,0.312345,0.023939,322.306914,24.535334,0.998662,0.987899,0.004452,0.320907,-0.000010,0.000014,0.000009,0.000016,-0.000013,71.898606,0.000017,
2251,2083,-0.0585796015727347,-12.2807233234594,0.0176357807173986,0.006492,0.000001,0.005862,0.278269,0.042900,330.156108,23.510004,0.999308,0.982611,0.005182,0.281363,-0.000025,-0.000021,0.000009,-0.000014,-0.000032,50.970955,0.000047,
2491,3163,4.96441954935522,11.2845211100066,0.0216141924376529,0.006400,0.000328,0.002185,0.286093,0.036175,312.756805,26.186267,0.999637,0.991544,0.003491,0.402244,0.000004,0.000027,0.000013,0.000033,-0.000002,65.825899,0.000037,
2506,3298,5.26194714857433,14.2154556810655,0.00868128910326504,0.006476,0.000067,0.000786,0.295011,0.020794,310.480179,26.767071,0.999793,0.993928,0.003102,0.410095,0.000004,-0.000091,0.000009,0.000005,-0.000092,5.300220,0.000103,
2191,3133,-1.54466275062521,10.6082034526079,0.031811479247267,0.006896,0.000380,0.001872,0.312257,0.045010,313.432533,24.856551,0.999408,0.992997,0.003607,0.379021,-0.000010,0.000001,-0.000012,0.000008,-0.000018,-57.274502,0.000018,
2116,2878,-3.13302799223409,5.07003124513035,-0.0104314825236997,0.006238,-0.000064,0.005406,0.271422,0.029550,317.484713,24.432207,0.999600,0.992504,0.003604,0.430338,-0.000015,0.000032,-0.000006,0.000032,-0.000016,-82.991415,0.000032,
2446,2938,4.02776561691487,6.39511461551883,-0.0189931209417864,0.006458,0.000086,0.001104,0.292743,0.020435,316.006753,25.227529,0.999620,0.992412,0.003693,0.375703,0.000003,-0.000001,-0.000001,0.000003,-0.000002,-15.929017,0.000003,
2281,2293,0.557536217808547,-7.67989000329087,-0.000332695738791244,0.006321,0.000057,0.001647,0.284399,0.026872,326.584399,23.650820,0.999377,0.985694,0.004857,0.365833,-0.000028,-0.000014,-0.000016,-0.000003,-0.000038,-57.011382,0.000046,
2206,3298,-1.25029814324133,14.1859915548815,0.00357246201610906,0.006627,-0.000057,0.001645,0.300562,0.018842,310.437272,25.017907,0.999446,0.993244,0.003236,0.422727,-0.000025,0.000016,-0.000006,0.000017,-0.000026,-81.902721,0.000026,
2326,2323,1.53355566495116,-7.02279067289103,-0.00448582012791121,0.006577,0.000508,-0.000549,0.303635,0.036730,326.048489,23.546657,0.998971,0.982602,0.005259,0.367277,-0.000021,-0.000027,-0.000008,-0.000015,-0.000033,-35.347602,0.000049,
2011,2308,-5.32588229451297,-7.35139927272983,-0.00586099723625466,0.006554,-0.000170,0.003254,0.292398,0.025827,327.338120,24.774220,0.999018,0.987066,0.004748,0.335321,0.000007,-0.000030,-0.000010,0.000010,-0.000033,-13.525862,0.000034,
2356,2443,2.16521649547923,-4.40054404655296,0.00027227584433831,0.006408,-0.000042,0.002848,0.283901,0.032827,324.124870,23.654943,0.999007,0.982603,0.005117,0.464342,0.000007,-0.000003,0.000020,0.000022,-0.000019,37.923978,0.000024,
2296,2368,0.871798029885134,-6.04142201974516,0.0109820144332389,0.006261,0.000072,0.001982,0.280570,0.029986,325.447620,23.676609,0.999364,0.985970,0.004649,0.440694,-0.000027,-0.000012,-0.000012,-0.000005,-0.000034,-60.524772,0.000043,
2101,2683,-3.42761845758428,0.829552435645596,-0.0269368464154809,0.006622,0.000276,-0.000086,0.305217,0.032196,320.616269,24.364916,0.999412,0.991694,0.003695,0.459468,-0.000017,-0.000005,0.000002,-0.000005,-0.000017,79.831301,0.000023,
2386,2578,2.79220336835919,-1.4499646522213,-0.015290139425133,0.006419,-0.000212,0.001432,0.289413,0.018840,321.823783,24.046242,0.999401,0.988886,0.004291,0.379525,-0.000006,0.000014,0.000010,0.000018,-0.000010,66.559205,0.000018,
2041,2458,-4.69542486205311,-4.07674636210421,-0.00969238448078613,0.006820,0.000312,0.000229,0.313168,0.027426,324.726699,24.501644,0.999010,0.982718,0.005207,0.433548,0.000001,-0.000028,-0.000008,0.000003,-0.000030,-13.713307,0.000033,
2236,1993,-0.368931252561271,-14.2583964262374,0.0326980989369758,0.006562,0.000196,0.001064,0.297081,0.032930,331.775587,23.360476,0.999656,0.989196,0.004474,0.364641,-0.000003,-0.000044,0.000014,0.000001,-0.000049,17.594673,0.000055,
2041,2533,-4.70758196085634,-2.43967253047258,-0.0203056149269401,0.006549,0.000440,-0.001370,0.305329,0.036412,323.419331,24.504999,0.999175,0.989987,0.004018,0.407578,0.000010,-0.000014,0.000008,0.000013,-0.000017,16.831513,0.000017,
2176,3028,-1.85382518527303,8.32979488027038,0.0114162349886442,0.006864,-0.000271,0.006347,0.296646,0.039660,315.010437,24.658716,0.999470,0.992113,0.003761,0.430037,-0.000002,0.000017,-0.000011,0.000022,-0.000007,-65.402891,0.000022,
2071,2653,-4.0747146143311,0.175667755892171,-0.0265353128118022,0.006732,-0.000432,0.003772,0.299053,0.015208,321.251628,24.425361,0.999212,0.989673,0.004110,0.395258,-0.000006,0.000002,0.000010,0.000008,-0.000013,55.490969,0.000013,
2071,2563,-4.06037855460532,-1.78468233862306,-0.0267519891181678,0.006821,0.000096,-0.000257,0.314668,0.029501,322.721445,24.434846,0.999144,0.989246,0.004293,0.414912,-0.000001,0.000009,0.000014,0.000019,-0.000011,54.512034,0.000020,
2086,2623,-3.74407300074579,-0.477230391945561,-0.0307045338533385,0.006763,0.000289,-0.000580,0.313036,0.024052,321.638405,24.366048,0.999241,0.989057,0.004186,0.455858,-0.000002,-0.000003,0.000004,0.000001,-0.000006,42.145655,0.000007,
2251,2158,-0.0709326069714038,-10.6377392843807,0.0187301203026209,0.006524,0.000617,-0.003365,0.310221,0.018918,328.990980,23.564497,0.998453,0.980962,0.005416,0.334201,-0.000024,-0.000023,-0.000005,-0.000018,-0.000028,-48.759885,0.000047,
2476,3103,4.65049361076661,9.98052073710428,0.0211159341044436,0.006603,0.000072,0.003086,0.291967,0.035119,313.704933,25.907711,0.999380,0.991593,0.003756,0.391004,0.000000,0.000031,0.000013,0.000036,-0.000004,69.527895,0.000039,
2191,3223,-1.56054580192282,12.5590165477552,0.033637187079762,0.006535,0.000203,0.002865,0.292597,0.041054,311.955722,24.929911,0.999725,0.995088,0.003043,0.381207,-0.000015,0.000008,-0.000002,0.000008,-0.000015,-84.747602,0.000015,
2161,2998,-2.17481747008355,7.67869305072772,0.00545834720082894,0.006536,0.000340,0.003836,0.289661,0.057872,315.495782,24.638405,0.999542,0.993627,0.003517,0.403198,-0.000002,0.000021,-0.000007,0.000022,-0.000004,-74.454042,0.000024,
2401,2713,3.09138981192747,1.49585495823918,-0.0353442214171764,0.006478,0.000438,-0.000208,0.298447,0.041268,319.482258,24.396086,0.999581,0.991012,0.003821,0.447414,-0.000020,0.000018,-0.000012,0.000021,-0.000023,-74.101265,0.000025,
2221,1993,-0.696039582136795,-14.2579012571145,0.0394568505873849,0.006510,0.000287,0.000627,0.296192,0.043990,331.862922,23.539110,0.999681,0.988879,0.004435,0.302553,-0.000003,-0.000044,0.000017,0.000003,-0.000050,19.866460,0.000056,
2206,3223,-1.23623940669672,12.5615286443652,0.022443604625721,0.006258,0.000282,0.001843,0.282973,0.044811,311.806620,25.047690,0.999820,0.996168,0.002816,0.342706,-0.000011,0.000004,-0.000003,0.000005,-0.000012,-78.801923,0.000012,
2146,2908,-2.48562801508151,5.72325695616175,-0.0056928560697429,0.006707,0.000054,0.000097,0.308764,0.021916,316.945779,24.513328,0.999442,0.989539,0.004034,0.406352,-0.000007,0.000014,-0.000005,0.000015,-0.000008,-76.213352,0.000015,
2431,2833,3.72198276248603,4.11115329236702,-0.0240325859233508,0.006449,0.000470,-0.001587,0.302420,0.047249,317.663002,24.916215,0.999349,0.989712,0.003996,0.333264,-0.000008,0.000007,-0.000012,0.000014,-0.000015,-61.267049,0.000016,
2461,3028,4.33863494693156,8.35099980210049,0.0131469762062011,0.006537,0.000069,0.003078,0.289005,0.040610,314.829838,25.624503,0.999681,0.991795,0.003690,0.354351,-0.000013,0.000018,-0.000001,0.000018,-0.000013,-87.268756,0.000019,
2026,2383,-5.01022490984954,-5.71415505551909,-0.000750003326459137,0.006484,0.000197,0.000715,0.296235,0.030381,326.083419,24.629638,0.999381,0.989852,0.004007,0.386127,0.000028,-0.000011,-0.000006,0.000029,-0.000012,-8.548469,0.000029,
2146,3013,-2.50207653837559,8.00276379719368,0.00983681214057697,0.006671,0.000357,-0.001108,0.311010,0.033013,315.367057,24.608916,0.999380,0.991370,0.003846,0.372459,-0.000010,0.000020,-0.000004,0.000021,-0.000011,-82.572477,0.000021,
2176,2953,-1.8425206510419,6.70259772227244,-0.00436495813130477,0.006273,0.000161,0.003540,0.278139,0.041718,316.082694,24.600265,0.999342,0.992389,0.003531,0.432948,-0.000005,0.000020,-0.000008,0.000022,-0.000007,-73.766556,0.000023,
2026,2488,-5.02637468045715,-3.42260665684942,-0.0160937526014209,0.006923,0.000048,0.001590,0.314180,0.019772,324.281095,24.473932,0.999404,0.988045,0.004208,0.473437,0.000019,-0.000029,0.000003,0.000019,-0.000029,3.047549,0.000029,
2266,2233,0.242317399143698,-8.99444525952245,0.00925893447100634,0.006786,-0.000197,0.001160,0.307235,0.008773,327.676147,23.593351,0.998761,0.979429,0.005521,0.355032,-0.000025,-0.000026,-0.000028,0.000003,-0.000053,-44.487419,0.000060,
2011,2458,-5.34731568253385,-4.07711606783087,-0.0041604443975416,0.006701,0.000812,-0.001327,0.312098,0.031822,324.956668,24.631877,0.999432,0.990696,0.003915,0.380731,0.000003,-0.000035,-0.000008,0.000005,-0.000036,-11.430539,0.000040,
2041,2593,-4.71638918933278,-1.13189345199854,-0.0232359570550784,0.007124,0.000104,0.000273,0.327227,0.022029,322.447023,24.496550,0.998867,0.989369,0.004234,0.374599,-0.000004,0.000014,0.000003,0.000015,-0.000004,80.806740,0.000015,
2011,2923,-5.41692048873438,6.04171488444013,-0.00370892557612024,0.006626,0.000387,0.000065,0.305637,0.051552,317.425985,24.267244,0.999278,0.992925,0.003411,0.405954,-0.000018,-0.000023,-0.000011,-0.000010,-0.000032,-38.617281,0.000043,
2296,2248,0.894122659952508,-8.66584898053722,0.00655672229436277,0.006885,0.000362,-0.001466,0.320692,0.019156,327.388700,23.475568,0.999123,0.982810,0.005138,0.374394,-0.000030,-0.000036,-0.000022,-0.000011,-0.000056,-41.509575,0.000071,
2491,3178,4.9624440681566,11.609714112507,0.0318379876791823,0.006421,0.000558,-0.000328,0.296845,0.041663,312.607224,26.259663,0.999663,0.991504,0.003580,0.391935,0.000004,0.000024,0.000016,0.000032,-0.000005,61.465537,0.000035,
2101,2638,-3.42113044281957,-0.14931316914501,-0.0322756960237598,0.006325,0.000274,0.000722,0.289089,0.028336,321.284403,24.405904,0.999247,0.987990,0.004229,0.409611,0.000000,-0.000003,0.000006,0.000004,-0.000008,36.963655,0.000008,
2341,2383,1.84883832354293,-5.70984302476812,-0.00868687959865611,0.006556,-0.000078,0.003663,0.287895,0.029523,325.023802,23.669546,0.999400,0.985870,0.004712,0.333717,-0.000005,-0.000005,0.000009,0.000003,-0.000014,45.499596,0.000014,
2236,2068,-0.381954472577551,-12.6113875938258,0.0296607883789193,0.006614,0.000498,-0.000469,0.304664,0.028821,330.552720,23.547154,0.999078,0.980256,0.005410,0.297587,-0.000018,-0.000016,0.000018,0.000001,-0.000035,47.153282,0.000040,
2161,3103,-2.19114090920673,9.95526380762362,0.0253425625598993,0.006417,0.000510,0.000597,0.294287,0.048525,313.953718,24.673541,0.999639,0.994028,0.003181,0.422898,-0.000010,0.000003,-0.000016,0.000013,-0.000021,-55.630122,0.000021,
2461,3043,4.33592678177887,8.67624112302415,0.0143934118513585,0.006762,0.000199,0.003311,0.298580,0.047155,314.604551,25.613538,0.999559,0.990551,0.003836,0.425564,-0.000020,0.000033,0.000001,0.000033,-0.000020,89.201761,0.000033,
2311,2203,1.23030166139169,-9.65284353633916,0.0194958234408205,0.006778,-0.000151,0.000894,0.307458,0.005739,328.198116,23.323365,0.998855,0.979723,0.005563,0.340005,-0.000024,0.000001,-0.000013,0.000006,-0.000030,-67.376196,0.000031,
2236,2008,-0.372139653992043,-13.9294078988323,0.0320635824616033,0.006233,-0.000403,0.004504,0.270747,0.018774,331.503462,23.362091,0.999585,0.988443,0.004575,0.373948,-0.000019,-0.000026,0.000031,0.000008,-0.000053,41.611417,0.000057,
2476,3118,4.6470890800396,10.3058867355353,0.0249760133841619,0.006182,0.000078,0.006232,0.260671,0.047003,313.460057,25.938466,0.999434,0.991488,0.003660,0.427711,-0.000004,0.000035,0.000011,0.000038,-0.000007,74.708633,0.000040,
2026,2518,-5.03168096725412,-2.76773551660158,-0.0238499361949494,0.006606,-0.000048,0.002263,0.297780,0.025053,323.715776,24.450659,0.999725,0.994019,0.003345,0.484888,0.000015,-0.000015,0.000004,0.000015,-0.000016,8.352241,0.000018,
2011,2683,-5.38179030812756,0.825822703291493,-0.0225190184023063,0.006578,0.000241,-0.002782,0.310650,0.008001,321.167464,24.406830,0.999799,0.995983,0.002888,0.415896,-0.000018,-0.000014,0.000013,-0.000003,-0.000029,49.972025,0.000035,
2086,2728,-3.76031149726853,1.80869566886639,-0.0264156384399143,0.006858,0.000327,-0.000309,0.316840,0.038702,319.976456,24.400407,0.999335,0.989770,0.004027,0.432285,-0.000020,0.000001,0.000003,0.000001,-0.000021,82.845213,0.000023,
2206,3238,-1.23818884227578,12.8851406774589,0.0282266167510556,0.006428,0.000190,0.000371,0.295437,0.030352,311.622508,24.978330,0.999768,0.995234,0.002957,0.412938,-0.000014,0.000000,-0.000005,0.000002,-0.000016,-73.766978,0.000017,
2131,2848,-2.80285117855994,4.42068815199205,-0.0288783037526059,0.006609,0.000047,-0.001835,0.309974,0.014535,317.790421,24.491159,0.999633,0.993268,0.003407,0.370927,-0.000017,0.000014,-0.000001,0.000014,-0.000017,-88.127408,0.000018,
2191,3148,-1.54738073487198,10.9335138587661,0.0317651959633736,0.006962,0.000101,0.004603,0.306654,0.040979,313.181293,24.876619,0.999089,0.991710,0.003969,0.368264,-0.000008,0.000006,-0.000006,0.000008,-0.000010,-68.607358,0.000011,
2446,2953,4.02502959346269,6.72132512535347,-0.0214725454918607,0.006626,0.000341,-0.002511,0.314092,0.025049,315.762082,25.259570,0.999706,0.993392,0.003505,0.399956,0.000004,-0.000001,0.000002,0.000005,-0.000002,15.758346,0.000005,
2326,2338,1.53202942172749,-6.69674943360094,0.0116646167770114,0.006773,-0.000035,0.001690,0.304757,0.033204,325.942506,23.554997,0.999237,0.984197,0.004869,0.391345,-0.000016,-0.000012,-0.000004,-0.000009,-0.000018,-56.962145,0.000028,
2161,3013,-2.17729615709787,8.00434153522788,0.00345360877548728,0.006591,0.000530,0.001860,0.298280,0.047503,315.243041,24.648054,0.999366,0.991356,0.003905,0.392429,-0.000001,0.000022,-0.000005,0.000023,-0.000002,-78.703919,0.000026,
2026,2503,-5.02962441882655,-3.09279837415795,-0.0270611899206301,0.006633,0.000156,0.002446,0.298605,0.051670,323.930930,24.583367,0.999715,0.992842,0.003556,0.387656,0.000019,-0.000009,-0.000007,0.000021,-0.000011,-13.046760,0.000021,
2191,3238,-1.56233190662104,12.8826319304803,0.0432257258149775,0.006577,0.000120,0.001191,0.299736,0.026577,311.798168,24.881298,0.999786,0.994947,0.002972,0.428452,-0.000019,0.000004,-0.000005,0.000005,-0.000020,-79.100953,0.000021,
2041,2548,-4.71051385784481,-2.11250252262516,-0.0245280971359989,0.006424,0.000142,0.003187,0.286841,0.040456,323.123425,24.477830,0.999417,0.990504,0.003857,0.432142,0.000014,0.000004,0.000014,0.000024,-0.000006,34.718052,0.000025,
2266,2113,0.264639452928414,-11.6240806657293,0.0227462258355331,0.006666,0.000473,-0.001508,0.310546,0.013602,329.724604,23.470559,0.999078,0.981474,0.005356,0.255615,-0.000024,-0.000017,0.000003,-0.000016,-0.000025,71.253674,0.000041,
2221,2008,-0.699824213115644,-13.9268820374692,0.0288768107704414,0.006278,-0.000149,0.004040,0.274570,0.031677,331.512142,23.610214,0.999651,0.987737,0.004645,0.242407,-0.000016,-0.000027,0.000031,0.000010,-0.000053,40.264780,0.000057,
2131,2938,-2.8154754767419,6.37409121738953,0.00426384546062764,0.006854,0.000171,0.001475,0.311526,0.028842,316.604830,24.564805,0.999672,0.992503,0.003592,0.342736,-0.000013,0.000011,-0.000003,0.000012,-0.000013,-83.567546,0.000014,
2101,2698,-3.43000457704275,1.15642452037076,-0.0224113247046489,0.006477,0.000015,0.001939,0.292541,0.022399,320.398038,24.446931,0.999205,0.990767,0.003933,0.369215,-0.000015,-0.000009,0.000003,-0.000008,-0.000016,69.710814,0.000024,
2491,3193,4.95966476256147,11.9344216093278,0.040120720639095,0.006241,0.000273,0.002408,0.277979,0.038957,312.411891,26.287581,0.999611,0.991936,0.003527,0.418970,0.000005,0.000027,0.000017,0.000036,-0.000003,61.831012,0.000040,
2281,2308,0.555503195805361,-7.35246869442353,0.00801105084457276,0.006448,-0.000034,0.002731,0.286607,0.039398,326.414058,23.682617,0.999266,0.983860,0.005164,0.376084,-0.000029,-0.000022,-0.000012,-0.000013,-0.000038,-53.317491,0.000053,
2071,2578,-4.06329342784248,-1.45731690895005,-0.0266689967557454,0.006456,0.000355,0.003338,0.287724,0.060956,322.452377,24.447028,0.999002,0.989075,0.004382,0.431894,-0.000011,-0.000004,0.000009,0.000002,-0.000017,56.092998,0.000018,
2056,2488,-4.37419914535404,-3.4209122612771,-0.00896348494472932,0.006633,0.000112,0.003407,0.295539,0.034720,324.144278,24.563207,0.999394,0.989093,0.004378,0.334360,0.000001,-0.000019,0.000006,0.000003,-0.000021,15.048410,0.000022,
2401,2728,3.08907990075366,1.82194756545302,-0.0270088492143259,0.006704,-0.000377,0.003258,0.295986,0.016478,319.305636,24.466119,0.999541,0.990711,0.004001,0.397983,-0.000021,0.000004,-0.000006,0.000005,-0.000023,-76.817202,0.000024,
2296,2383,0.868851802264757,-5.71113127825519,-0.00328872907579125,0.006746,0.000467,-0.002889,0.319414,0.012256,325.124072,23.805130,0.998992,0.982941,0.005250,0.326493,-0.000023,-0.000003,-0.000011,0.000002,-0.000028,-66.110322,0.000031,
2416,2758,3.41028900940759,2.47602615940465,-0.0241374277518958,0.006608,0.000510,-0.000704,0.306300,0.041539,318.868360,24.549016,0.999508,0.989269,0.004056,0.438187,-0.000004,0.000007,-0.000006,0.000009,-0.000007,-67.260170,0.000009,
2146,2923,-2.48804218744548,6.04911634249125,-0.00383489672117321,0.006515,0.000399,-0.002213,0.307027,0.026623,316.715309,24.529527,0.999165,0.987002,0.004426,0.402282,-0.000010,0.000011,-0.000003,0.000011,-0.000010,-82.785065,0.000013,
2116,2773,-3.11596137873731,2.78839540466386,-0.0181525411531993,0.006578,0.000103,0.002931,0.294343,0.038433,319.148864,24.434910,0.999662,0.992734,0.003450,0.413577,-0.000018,-0.000001,-0.000010,0.000004,-0.000023,-65.526563,0.000025,
2371,2548,2.47143725030618,-2.10574948563011,-0.0118044809304365,0.006438,-0.000010,0.000904,0.292247,0.016187,322.334112,23.953235,0.999329,0.987475,0.004575,0.405748,-0.000003,-0.000005,0.000009,0.000005,-0.000013,42.718094,0.000013,
2056,2608,-4.39341789046855,-0.80544535110424,-0.0221583001347767,0.006579,-0.000296,0.002609,0.295385,0.008451,322.095509,24.431140,0.998971,0.989333,0.004217,0.405064,-0.000008,0.000014,0.000010,0.000018,-0.000012,69.082417,0.000018,
2011,2473,-5.35018500689105,-3.74952619466942,-0.00936639074154755,0.006461,0.000323,0.000543,0.295922,0.029216,324.655316,24.613297,0.999206,0.988142,0.004291,0.386537,0.000016,-0.000048,0.000000,0.000016,-0.000048,-0.072280,0.000048,
2281,2203,0.575013382759227,-9.65123829880691,0.00960178004186218,0.006776,0.000220,-0.000306,0.311674,0.011853,328.146723,23.488219,0.998732,0.979797,0.005607,0.332026,-0.000026,-0.000001,-0.000017,0.000007,-0.000035,-63.126575,0.000037,
2236,2083,-0.385428310957384,-12.2810347001288,0.023772552461935,0.006375,0.000299,0.002553,0.283916,0.057642,330.241259,23.600304,0.999414,0.982951,0.005109,0.298071,-0.000014,-0.000016,0.000013,-0.000002,-0.000028,42.636517,0.000033,
2431,2848,3.71917315456694,4.43640951044588,-0.0203533468317119,0.006343,0.000372,-0.001163,0.295954,0.039808,317.443143,24.887623,0.999324,0.987955,0.004141,0.404275,-0.000011,0.000011,-0.000015,0.000019,-0.000019,-62.893132,0.000022,
2041,2608,-4.7190973271472,-0.80550362061809,-0.0237974133822831,0.006703,0.000130,-0.000156,0.309076,0.028734,322.181886,24.446951,0.998799,0.988069,0.004493,0.424312,-0.000004,0.000015,0.000006,0.000017,-0.000005,74.838408,0.000017,
2161,3118,-2.19338022535796,10.2806703418951,0.028238197439066,0.006520,0.000408,0.000489,0.299374,0.046498,313.737888,24.710710,0.999590,0.993717,0.003297,0.392569,-0.000013,0.000001,-0.000015,0.000010,-0.000022,-57.973276,0.000022,
2071,2668,-4.07732998039711,0.502206310827503,-0.0260922557845902,0.006527,-0.000429,0.005330,0.285183,0.014663,320.998613,24.424511,0.999091,0.989505,0.004210,0.392747,-0.000015,-0.000004,0.000012,0.000004,-0.000023,56.631947,0.000025,
2041,2563,-4.71213027966016,-1.78581854212752,-0.0224851947567686,0.006691,0.000480,-0.001180,0.311405,0.037363,322.922556,24.473484,0.999470,0.990300,0.003858,0.426699,0.000015,0.000013,0.000004,0.000018,0.000010,37.785837,0.000028,
2311,2218,1.22665753190954,-9.3234797118855,0.00976294221356966,0.006536,0.000264,-0.000053,0.299812,0.023627,327.867222,23.310896,0.998912,0.977944,0.005665,0.405623,-0.000020,-0.000003,-0.000017,0.000008,-0.000031,-58.794453,0.000032,
2461,3058,4.3326194851512,9.00235525441904,0.0133244600515354,0.006415,0.000326,0.001496,0.289524,0.043222,314.340725,25.682421,0.999553,0.989688,0.004058,0.406213,-0.000020,0.000031,-0.000002,0.000032,-0.000020,-87.498177,0.000032,
2221,2023,-0.701806805584017,-13.597419383174,0.0229790474879223,0.006890,0.000580,-0.001318,0.319996,0.024134,331.267713,23.594352,0.999157,0.982089,0.005302,0.273264,-0.000020,-0.000019,0.000020,0.000001,-0.000040,45.810970,0.000045,
2386,2593,2.7894714990829,-1.12258760479331,-0.0158518797318834,0.006710,0.000015,0.002522,0.298947,0.028126,321.584867,24.085081,0.999456,0.988744,0.004324,0.394007,0.000001,0.000000,0.000011,0.000012,-0.000011,42.753495,0.000013,
2131,2863,-2.80489187952034,4.74563167808137,-0.0139244675460759,0.006284,0.000098,0.001686,0.284511,0.029155,317.646272,24.495025,0.999596,0.992718,0.003475,0.386915,-0.000013,0.000016,-0.000002,0.000016,-0.000013,-86.447285,0.000017,
2086,2638,-3.74652650748459,-0.150251441875767,-0.0239138147091467,0.006504,0.000108,0.003485,0.289393,0.043921,321.428262,24.430265,0.999238,0.988845,0.004159,0.411167,0.000005,-0.000003,0.000003,0.000006,-0.000004,19.934474,0.000006,
2176,3043,-1.85587807991598,8.65642322503169,0.0160928274460161,0.006763,0.000515,0.002028,0.305602,0.041897,314.813087,24.798078,0.999713,0.995368,0.003136,0.304412,-0.000004,0.000009,-0.000015,0.000019,-0.000014,-56.350565,0.000019,
2251,2098,-0.0606519662138396,-11.9524600009709,0.0180090660017527,0.006706,0.000081,0.001568,0.302145,0.032431,329.942201,23.487072,0.999354,0.981571,0.005407,0.320139,-0.000023,-0.000019,0.000005,-0.000016,-0.000026,54.768227,0.000042,
2116,2893,-3.13586844644556,5.39703562220127,-0.0177665428907403,0.006253,0.000321,0.004386,0.275306,0.051289,317.182755,24.461421,0.999442,0.992578,0.003846,0.426257,-0.000014,0.000023,-0.000008,0.000024,-0.000016,-78.800894,0.000025,
2011,2938,-5.41933666026548,6.36707247632496,-0.00563596985375625,0.006694,-0.000039,0.001634,0.304416,0.038551,317.165061,24.229249,0.999470,0.993614,0.003385,0.418362,-0.000021,-0.000026,0.000001,-0.000021,-0.000026,7.553323,0.000047,
2146,3028,-2.50438866792398,8.32792232323632,0.011375922197999,0.006906,0.000258,0.001028,0.315397,0.037835,315.139797,24.585449,0.999411,0.991521,0.003791,0.407718,-0.000008,0.000016,-0.000006,0.000017,-0.000010,-76.732194,0.000017,
2476,3133,4.64440212874277,10.6319616920341,0.0239265215918749,0.006492,-0.000207,0.004584,0.281128,0.031111,313.225616,26.035456,0.999470,0.990744,0.003693,0.370360,0.000002,0.000034,0.000006,0.000035,0.000001,79.397394,0.000041,
2011,2698,-5.38421628520541,1.15281161217043,-0.0238187036582644,0.006448,0.000990,-0.003136,0.305923,0.054981,320.908567,24.393149,0.999823,0.995630,0.002941,0.464770,-0.000008,-0.000014,0.000010,0.000000,-0.000021,36.436555,0.000024,
2266,2248,0.239038015130181,-8.66549403052519,0.00604924324261447,0.006692,-0.000312,0.005145,0.289764,0.025895,327.389777,23.622785,0.998883,0.981871,0.005343,0.370918,-0.000022,-0.000039,-0.000025,-0.000004,-0.000056,-35.555500,0.000067,
2131,2953,-2.81819798545121,6.69910218676203,0.0051929158389612,0.006696,0.000052,0.003782,0.297346,0.038104,316.354490,24.499178,0.999657,0.992542,0.003467,0.422831,-0.000010,0.000012,-0.000007,0.000015,-0.000013,-73.534604,0.000016,
2416,2773,3.40746806218159,2.80190771640711,-0.0203937070310758,0.006439,0.000349,-0.000607,0.298154,0.038064,318.647449,24.553581,0.999534,0.988867,0.004125,0.478065,-0.000004,-0.000003,-0.000010,0.000006,-0.000013,-46.741543,0.000013,
2206,3253,-1.24084985424505,13.2098255691471,0.0290404145355865,0.006543,0.000142,0.003352,0.291216,0.030774,311.379489,24.968318,0.999786,0.995583,0.002843,0.438713,-0.000017,-0.000003,-0.000004,-0.000002,-0.000018,-75.364243,0.000022,
2011,2488,-5.35260598189032,-3.42206668250819,-0.0176924275675105,0.006748,0.000280,0.000611,0.308925,0.029972,324.357008,24.556446,0.999407,0.988213,0.004221,0.433444,0.000015,-0.000040,0.000002,0.000015,-0.000040,1.736203,0.000041,
2296,2263,0.890213779853394,-8.33508743229844,-0.00503417266463657,0.006594,0.000403,-0.001105,0.306185,0.019598,327.034598,23.607793,0.999517,0.988239,0.004559,0.275289,-0.000031,-0.000032,-0.000023,-0.000009,-0.000054,-44.906549,0.000068,
2236,2023,-0.373403180839315,-13.6006543918263,0.0366200288523828,0.006843,0.000094,-0.001026,0.316757,-0.001150,331.346570,23.411910,0.999001,0.981843,0.005471,0.328355,-0.000023,-0.000017,0.000022,0.000002,-0.000042,48.783886,0.000047,
2491,3208,4.95639398129929,12.2605126107555,0.0366573946257063,0.006521,0.000208,0.004683,0.282143,0.051695,312.140277,26.362386,0.999482,0.992357,0.003583,0.414531,0.000008,0.000023,0.000012,0.000030,0.000001,60.143861,0.000036,
2341,2398,1.84636943263952,-5.38217790027416,-0.00741188971238671,0.006564,0.000309,0.000633,0.298990,0.031684,324.802856,23.694682,0.999648,0.987904,0.004463,0.349042,0.000001,0.000000,0.000012,0.000013,-0.000011,43.309432,0.000014,
2461,3073,4.32913169642356,9.32808506847106,0.00821860723772261,0.006550,0.000112,0.003702,0.287301,0.026936,314.050107,25.706469,0.999636,0.992075,0.003665,0.419442,-0.000017,0.000027,-0.000003,0.000027,-0.000017,-85.795936,0.000028,
2191,3253,-1.56565073175431,13.2084515911609,0.032355872983544,0.006689,0.000348,0.002399,0.301213,0.040612,311.462484,24.895847,0.999677,0.994389,0.003130,0.441037,-0.000021,0.000002,-0.000005,0.000003,-0.000022,-78.416673,0.000024,
2431,2863,3.71626568810706,4.76229045150502,-0.0156438599447029,0.006160,-0.000031,0.000474,0.281327,0.025313,317.223361,24.935026,0.999498,0.990604,0.003744,0.391878,-0.000014,0.000017,-0.000015,0.000023,-0.000020,-67.838452,0.000025,
2071,2593,-4.06534378554839,-1.13070104454951,-0.0261318490407803,0.006719,0.000123,0.003577,0.299080,0.040387,322.225736,24.450852,0.998997,0.988936,0.004288,0.405077,-0.000013,0.000010,0.000014,0.000016,-0.000019,64.822774,0.000021,
2446,2968,4.02250091366938,7.0474179908801,-0.00997107685736864,0.006466,0.000279,0.001270,0.292619,0.038792,315.591452,25.372970,0.999709,0.992644,0.003541,0.351798,0.000004,0.000001,0.000003,0.000006,0.000000,32.677006,0.000006,
2011,2713,-5.38697867385465,1.47974219545496,-0.0285240084356246,0.006483,0.000473,0.001462,0.294925,0.047190,320.615338,24.405838,0.999730,0.994329,0.003321,0.432846,-0.000002,0.000011,0.000016,0.000022,-0.000013,55.448072,0.000022,
2056,2623,-4.39530230174867,-0.477990393520422,-0.0262122355911174,0.006800,0.000692,-0.004740,0.326641,0.036185,321.849680,24.433248,0.999190,0.991062,0.003934,0.425987,-0.000008,0.000000,0.000007,0.000005,-0.000012,59.718050,0.000012,
2011,2953,-5.42098113074433,6.69272432716296,-0.0015641450692101,0.006931,0.000350,-0.001011,0.322619,0.036408,316.973131,24.253698,0.999670,0.994763,0.002993,0.379216,-0.000017,-0.000032,-0.000002,-0.000016,-0.000032,-7.572788,0.000049,
2056,2503,-4.3773284209055,-3.09393473892119,-0.0196851680117334,0.006390,0.000185,0.002382,0.287319,0.032927,323.804982,24.449567,0.999412,0.989034,0.004245,0.442373,0.000009,-0.000006,0.000001,0.000009,-0.000006,3.336462,0.000009,
2191,3163,-1.55100992946096,11.2596603292301,0.0197808828013422,0.006635,0.000079,0.002930,0.296821,0.028186,312.825572,24.914784,0.999615,0.995116,0.003155,0.330456,-0.000009,0.000010,-0.000006,0.000012,-0.000010,-74.835261,0.000013,
2116,2908,-3.13722915790624,5.72225248875341,-0.00763368946326182,0.006573,0.000273,0.002682,0.295119,0.046753,317.043257,24.483287,0.999315,0.990986,0.004001,0.402708,-0.000011,0.000015,-0.000010,0.000018,-0.000014,-70.244410,0.000019,
2101,2773,-3.44227217637987,2.78862366071138,-0.0230052364836979,0.006515,0.000052,0.005925,0.282791,0.048920,319.166398,24.460312,0.999551,0.991419,0.003757,0.389452,-0.000025,0.000000,-0.000006,0.000002,-0.000027,-76.611723,0.000030,
2026,2758,-5.0676816390164,2.45807885103355,-0.0241661021320283,0.006739,-0.000045,0.001630,0.306113,0.035972,319.838347,24.331378,0.999278,0.990031,0.004098,0.467901,-0.000030,-0.000003,0.000008,-0.000001,-0.000032,75.392932,0.000038,
2071,2683,-4.07956342793445,0.828381469075069,-0.022808120494858,0.006335,-0.000251,0.003800,0.280840,0.036206,320.778694,24.396218,0.999360,0.991151,0.003829,0.439755,-0.000024,-0.000007,0.000007,-0.000005,-0.000027,69.542594,0.000034,
2386,2608,2.78649382127692,-0.795751993641382,-0.0163357161761724,0.006559,-0.000014,0.001211,0.296713,0.007146,321.335167,24.109979,0.999337,0.988281,0.004291,0.392249,0.000002,-0.000003,0.000008,0.000008,-0.000009,36.757345,0.000010,
2296,2398,0.866160569593596,-5.38291686109237,-0.0065037898010587,0.006805,0.001084,-0.005736,0.332003,0.040395,324.866987,23.810686,0.999196,0.985742,0.004922,0.380791,-0.000021,0.000000,-0.000008,0.000002,-0.000023,-71.456766,0.000025,
2326,2353,1.52808126091944,-6.36700595234245,-0.00269228099858765,0.006258,0.000313,-0.004106,0.301247,0.017293,325.576293,23.619229,0.999282,0.982900,0.004764,0.347916,-0.000011,-0.000012,-0.000001,-0.000010,-0.000012,-25.747803,0.000023,
2026,2533,-5.03353159636958,-2.44007920398872,-0.022179479813758,0.006783,0.000077,0.000269,0.311460,0.026189,323.500683,24.518169,0.999361,0.990286,0.003990,0.409835,0.000012,-0.000022,0.000009,0.000014,-0.000025,13.897142,0.000025,
2161,3028,-2.17942951591059,8.3291127338061,0.0104950960060819,0.006698,0.000038,0.004532,0.294885,0.037648,315.054213,24.640804,0.999286,0.989829,0.004304,0.399124,-0.000002,0.000016,-0.000009,0.000020,-0.000006,-67.571811,0.000021,
2041,2578,-4.71440467215172,-1.45877186119854,-0.0283210695076832,0.007077,0.000432,-0.000698,0.327828,0.025645,322.647900,24.446756,0.999120,0.989591,0.004128,0.435278,0.000004,-0.000002,-0.000001,0.000004,-0.000002,-13.587364,0.000004,
2356,2458,2.16195020982282,-4.0707935707801,-0.00928457802336879,0.006718,0.000008,0.002732,0.298591,0.025929,323.815921,23.798613,0.999323,0.986265,0.004590,0.354313,0.000008,0.000010,0.000021,0.000030,-0.000012,46.273610,0.000030,
2086,2653,-3.74844328686884,0.175345378512894,-0.0144123254666511,0.006674,-0.000498,0.008579,0.282308,0.032895,321.257931,24.424877,0.999504,0.990374,0.003803,0.404951,-0.000001,0.000001,0.000004,0.000004,-0.000004,51.392317,0.000004,
2176,3148,-1.87303358626236,10.9325233165971,0.0241941320589945,0.006850,0.000475,-0.000337,0.317255,0.057939,313.177735,24.769596,0.999456,0.993512,0.003509,0.427772,-0.000012,0.000004,-0.000007,0.000007,-0.000015,-68.238472,0.000015,
2101,2713,-3.43265506583922,1.48232618243399,-0.0210560099905592,0.006334,-0.000346,0.005016,0.276861,0.011663,320.150848,24.419159,0.999317,0.990185,0.003979,0.387651,-0.000012,0.000000,0.000003,0.000000,-0.000013,75.236764,0.000014,
2191,3268,-1.56926205044543,13.5337509169955,0.0214510231804184,0.006530,0.000216,0.003879,0.289237,0.039905,311.113326,24.882214,0.999438,0.992204,0.003586,0.466891,-0.000021,0.000004,-0.000009,0.000007,-0.000024,-72.431339,0.000025,
2086,2743,-3.76275812062077,2.13464935528511,-0.0195727932479599,0.006529,0.000253,0.002446,0.293713,0.033267,319.767353,24.424566,0.999434,0.989715,0.004029,0.401696,-0.000027,-0.000001,-0.000002,-0.000001,-0.000027,-85.197587,0.000032,
2266,2128,0.261396194558206,-11.2949963670623,0.0164906059006285,0.006676,0.000303,0.000496,0.304358,0.035582,329.424919,23.429241,0.998941,0.981382,0.005363,0.347919,-0.000021,-0.000013,0.000001,-0.000012,-0.000022,81.386075,0.000034,
2011,2728,-5.38913445996846,1.80552758836127,-0.0266380307522809,0.006511,0.000355,0.002332,0.293870,0.057072,320.387201,24.353936,0.999605,0.992281,0.003672,0.482742,-0.000007,0.000016,0.000029,0.000035,-0.000026,56.248598,0.000037,
2491,3223,4.95343194089001,12.5867522828372,0.0299107331117625,0.006865,0.000482,0.000778,0.313127,0.052762,311.867908,26.448027,0.999490,0.991679,0.003700,0.387338,0.000008,0.000006,0.000019,0.000026,-0.000013,43.426137,0.000026,
2056,2638,-4.39816622762306,-0.15120971412717,-0.026253921644809,0.006518,0.000224,-0.000416,0.301337,0.023143,321.581425,24.453459,0.999146,0.989908,0.004141,0.387942,0.000004,-0.000003,0.000007,0.000008,-0.000007,29.919975,0.000009,
2476,3148,4.64122366920603,10.9580085445441,0.0236770358702643,0.006243,0.000285,0.002964,0.276090,0.050061,312.972072,26.104057,0.999532,0.989986,0.003742,0.376246,0.000002,0.000021,0.000007,0.000023,0.000000,71.788069,0.000027,
2026,2773,-5.07058403187534,2.78580518787833,-0.0305801058449333,0.006505,-0.000006,0.001634,0.295301,0.026747,319.530273,24.424804,0.999437,0.991491,0.003936,0.355575,-0.000029,0.000008,0.000001,0.000008,-0.000029,88.042344,0.000030,
2176,3058,-1.85808022624501,8.98011849026427,0.0224777661375697,0.006709,0.000301,0.002393,0.301996,0.044495,314.618847,24.681631,0.999735,0.995328,0.003104,0.434860,0.000001,0.000006,-0.000018,0.000022,-0.000015,-49.695456,0.000022,
2041,2623,-4.72122737251257,-0.478582473298644,-0.0261501193784284,0.006859,0.000598,-0.002426,0.322755,0.033995,321.933147,24.436848,0.998839,0.988298,0.004472,0.432813,-0.000005,0.000001,0.000005,0.000003,-0.000008,60.394820,0.000008,
2206,3268,-1.24403026428483,13.5359257555893,0.0142306260849523,0.006914,0.000299,0.001873,0.313163,0.040628,311.030969,24.996946,0.999561,0.993483,0.003285,0.435292,-0.000018,0.000000,-0.000007,0.000002,-0.000020,-72.116884,0.000022,
2011,2503,-5.3555425901537,-3.09333022740096,-0.0237044609121426,0.006393,0.000165,0.000710,0.292354,0.032464,324.047746,24.641761,0.999706,0.992623,0.003646,0.339940,0.000012,-0.000017,-0.000009,0.000015,-0.000020,-16.139507,0.000021,
2401,2743,3.08598565463829,2.14900980021739,-0.0314965000811185,0.006780,-0.000010,0.001914,0.304484,0.026080,319.032162,24.492133,0.999531,0.990413,0.003947,0.427397,-0.000022,0.000007,-0.000007,0.000008,-0.000024,-77.567499,0.000024,
2161,3133,-2.19577752611207,10.6054804926211,0.0307357222744145,0.006731,0.000156,0.003949,0.298425,0.047982,313.512907,24.690554,0.999521,0.993347,0.003480,0.423383,-0.000012,0.000000,-0.000011,0.000007,-0.000018,-59.717146,0.000018,
2281,2323,0.553051744783879,-7.024417680044,0.00810474648221771,0.006741,-0.000178,0.003502,0.297422,0.021368,326.183506,23.724680,0.999047,0.983224,0.005244,0.345818,-0.000027,-0.000029,-0.000014,-0.000014,-0.000042,-42.792150,0.000058,
2266,2263,0.237372645100855,-8.3372528260093,0.020248209440922,0.006745,0.000162,0.006267,0.288656,0.059924,327.264480,23.753282,0.999646,0.989169,0.004394,0.301898,-0.000020,-0.000038,-0.000023,-0.000004,-0.000054,-33.986452,0.000065,
2371,2563,2.4684800518432,-1.77742207852793,-0.0160441389811581,0.006577,0.000325,-0.000429,0.303533,0.026819,322.066005,24.035520,0.999389,0.989014,0.004310,0.376166,-0.000005,0.000005,0.000007,0.000009,-0.000009,62.430877,0.000010,
2041,2833,-4.75366215238711,4.0893297768171,-0.018438777485585,0.006445,0.000060,0.002756,0.289481,0.038809,318.560948,24.360035,0.998948,0.988913,0.004208,0.411127,-0.000037,0.000021,-0.000011,0.000023,-0.000039,-79.375712,0.000040,
2101,2728,-3.43535776855701,1.81005623495363,-0.0325130754707743,0.006405,0.000471,-0.000621,0.296941,0.040455,319.831359,24.421175,0.999341,0.989468,0.004074,0.416342,-0.000017,-0.000001,0.000005,0.000001,-0.000018,73.327049,0.000020,
2236,2098,-0.387800182026321,-11.9531525014127,0.0238403540641343,0.006446,0.000123,0.000555,0.293585,0.035318,330.010945,23.550512,0.999282,0.981731,0.005321,0.349726,-0.000010,-0.000014,0.000011,-0.000001,-0.000023,39.215011,0.000027,
2341,2413,1.8451630417252,-5.05538247885518,0.00404722829159709,0.006908,0.000668,-0.004356,0.332245,0.005143,324.689314,23.770217,0.999668,0.990076,0.004167,0.284680,0.000000,-0.000001,0.000015,0.000015,-0.000016,44.719132,0.000018,
2251,2113,-0.0634218698386633,-11.6237778273848,0.0192012196895917,0.006446,0.000210,0.001166,0.291630,0.022349,329.700435,23.516339,0.999155,0.981345,0.005368,0.307155,-0.000020,-0.000017,0.000002,-0.000016,-0.000021,65.938127,0.000037,
2026,2548,-5.03574377246066,-2.11341910201133,-0.0155771329624486,0.006567,0.000180,0.002732,0.294826,0.043623,323.296772,24.526606,0.999463,0.990982,0.003724,0.409746,0.000019,-0.000001,0.000017,0.000029,-0.000011,29.548032,0.000029,
2281,2218,0.571815593754987,-9.32188379290208,0.0062095965113258,0.006323,0.000650,-0.002992,0.300027,0.038895,327.864529,23.531944,0.998931,0.981483,0.005361,0.345926,-0.000027,-0.000003,-0.000024,0.000012,-0.000042,-58.572170,0.000043,
2116,2788,-3.11857492350309,3.11440469807445,-0.0202026670559121,0.006587,-0.000163,0.003801,0.292072,0.026720,318.886137,24.413481,0.999584,0.992586,0.003519,0.426924,-0.000026,0.000006,-0.000009,0.000008,-0.000028,-74.701440,0.000029,
2101,2788,-3.44412340596692,3.11372383160795,-0.0196219887750431,0.006687,-0.000137,0.003341,0.298226,0.028022,318.967093,24.406623,0.999547,0.991512,0.003802,0.423478,-0.000033,0.000009,-0.000007,0.000010,-0.000035,-80.521586,0.000036,
2236,2038,-0.376604503045822,-13.271302490519,0.0322082542472799,0.006822,-0.000402,0.002838,0.303170,-0.004972,331.055466,23.404749,0.998909,0.979452,0.005596,0.356684,-0.000021,-0.000031,0.000011,-0.000014,-0.000038,34.014341,0.000054,
2011,2968,-5.42327777668113,7.01794878954171,0.00165003700101352,0.006813,0.000330,0.000483,0.313157,0.038458,316.746671,24.232463,0.999635,0.994976,0.002941,0.389901,-0.000015,-0.000020,-0.000006,-0.000011,-0.000024,-33.152795,0.000035,
2296,2278,0.88814935717226,-8.0087011962706,0.00497117488782806,0.006723,-0.000182,0.001872,0.301861,0.014986,326.872280,23.570374,0.999433,0.986764,0.004622,0.340287,-0.000031,-0.000013,-0.000026,0.000005,-0.000049,-54.336108,0.000054,
2431,2878,3.71338700454345,5.08899462835493,-0.0163940169484249,0.006344,0.000003,0.000817,0.288543,0.027260,316.979221,25.005314,0.999523,0.991088,0.003623,0.373159,-0.000016,0.000008,-0.000008,0.000011,-0.000018,-73.901275,0.000018,
2146,2938,-2.49027882854365,6.37558816400235,-0.00261741451049602,0.006786,0.000412,-0.000903,0.315583,0.027142,316.489387,24.605616,0.999454,0.990107,0.003936,0.333982,-0.000014,0.000012,-0.000003,0.000012,-0.000015,-84.055847,0.000016,
2446,2983,4.01918572536738,7.37330760812304,-0.0109556271162887,0.006402,0.000042,0.003412,0.281645,0.033102,315.326968,25.404175,0.999672,0.991341,0.003741,0.366371,0.000000,0.000010,0.000001,0.000010,0.000000,86.440665,0.000012,
2476,3163,4.63807556485511,11.283920757372,0.0213221153293262,0.006195,0.000398,0.001268,0.280313,0.039525,312.710300,26.180987,0.999557,0.990693,0.003719,0.344123,0.000000,0.000021,0.000015,0.000029,-0.000007,63.043980,0.000030,
2056,2518,-4.37911624489508,-2.76728824689136,-0.0149834469219741,0.006473,0.000080,0.000187,0.297302,0.011750,323.612039,24.469851,0.999311,0.989672,0.004147,0.396280,0.000008,-0.000013,0.000010,0.000012,-0.000017,22.559396,0.000018,
2491,3238,4.94926199648847,12.9125070891497,0.0167434333749839,0.006607,0.000275,-0.002328,0.313035,0.020172,311.510842,26.491159,0.999611,0.992401,0.003576,0.369271,0.000009,0.000010,0.000026,0.000035,-0.000017,45.333476,0.000035,
2416,2788,3.4041565576405,3.13056263198244,-0.0257740662159449,0.006514,0.000310,-0.000644,0.301732,0.028816,318.360561,24.752072,0.999522,0.988926,0.004163,0.318119,-0.000007,-0.000004,-0.000010,0.000005,-0.000015,-48.703950,0.000016,
2116,2923,-3.1393866518219,6.04780333309351,-0.00710240190267086,0.006462,0.000683,-0.002978,0.306933,0.047745,316.815454,24.464870,0.999035,0.989609,0.004230,0.425060,-0.000015,0.000011,-0.000006,0.000012,-0.000016,-77.942029,0.000017,
2131,2878,-2.80665544374599,5.06973192875208,-0.00305326164624375,0.006271,0.000149,0.001676,0.283989,0.033916,317.493326,24.403439,0.999629,0.992020,0.003516,0.488350,-0.000008,0.000028,-0.000003,0.000028,-0.000008,-85.169927,0.000029,
2011,2983,-5.42606844927569,7.34397384415224,-0.00512634372512366,0.006718,0.000369,0.000648,0.308418,0.048998,316.441108,24.211766,0.999300,0.992352,0.003454,0.408591,-0.000023,-0.000026,-0.000006,-0.000018,-0.000031,-37.653752,0.000050,
2221,2038,-0.705208074231162,-13.2686354372788,0.0238171648512662,0.006353,0.000080,0.003847,0.278763,0.037086,330.992770,23.578462,0.998895,0.978035,0.005686,0.324947,-0.000018,-0.000031,0.000012,-0.000010,-0.000038,31.260945,0.000051,
2356,2473,2.15935465742044,-3.74304765953139,-0.0105823494236006,0.006828,0.000138,-0.000288,0.314327,0.016281,323.577748,23.843751,0.999653,0.988311,0.004148,0.339555,0.000006,-0.000004,0.000018,0.000019,-0.000017,36.968486,0.000021,
2071,2608,-4.06797014128092,-0.803121725620734,-0.0293215144071155,0.006652,-0.000017,0.003945,0.294962,0.047227,321.952000,24.488357,0.999232,0.990302,0.003989,0.371980,-0.000011,0.000010,0.000015,0.000018,-0.000019,61.864767,0.000021,
2146,3043,-2.50723405917462,8.65379730378631,0.0105133649742584,0.006697,0.000386,0.002042,0.302790,0.060625,314.875018,24.598156,0.999505,0.993251,0.003296,0.424793,-0.000009,0.000009,-0.000010,0.000013,-0.000014,-66.028314,0.000016,
2251,2173,-0.0742971603576521,-10.3089676794019,0.013459543832937,0.006323,0.000119,-0.001200,0.293777,0.030509,328.689198,23.532886,0.999093,0.984617,0.004973,0.403903,-0.000021,-0.000016,-0.000002,-0.000015,-0.000022,-67.789790,0.000038,
2086,2668,-3.75105239148278,0.501893338679054,-0.0181470202802529,0.006470,-0.000169,0.005471,0.282038,0.041409,320.983609,24.380617,0.999385,0.990800,0.003839,0.457095,-0.000010,-0.000004,0.000004,-0.000002,-0.000012,63.083373,0.000015,
2011,2518,-5.35751410684799,-2.76839805956148,-0.0163159582330081,0.006303,-0.000120,0.002607,0.282986,0.032060,323.858763,24.508025,0.999685,0.993360,0.003523,0.462304,0.000007,-0.000017,0.000004,0.000008,-0.000018,7.948339,0.000018,
2296,2413,0.863360194057954,-5.05552153775619,-0.00634380702592807,0.006909,0.000265,-0.003204,0.327887,-0.013544,324.622006,23.860722,0.999366,0.986799,0.004682,0.308190,-0.000021,-0.000007,-0.000006,-0.000005,-0.000024,-68.375205,0.000030,
2401,2758,3.08316721886522,2.47542153466453,-0.0282677672680052,0.006545,0.000229,0.000917,0.297430,0.030740,318.807835,24.529374,0.999422,0.988728,0.004208,0.440541,-0.000018,0.000010,-0.000007,0.000012,-0.000019,-76.275708,0.000019,
2206,3283,-1.2470757539539,13.8615650300132,0.0113661162586141,0.006689,0.000354,0.001765,0.303166,0.040159,310.750760,25.064160,0.999461,0.992542,0.003381,0.382757,-0.000022,0.000003,-0.000004,0.000003,-0.000023,-82.001117,0.000025,
2131,2968,-2.82049556280646,7.02520240289665,0.0022661269396167,0.006811,0.000189,-0.000173,0.314531,0.028249,316.102691,24.530050,0.999769,0.994311,0.003051,0.387192,-0.000007,0.000015,-0.000012,0.000021,-0.000012,-65.738685,0.000021,
2086,2758,-3.76557386752303,2.46132372566019,-0.0296041199922001,0.006680,0.000025,0.001726,0.302699,0.015235,319.449327,24.397813,0.999477,0.990738,0.003885,0.409814,-0.000028,-0.000008,-0.000010,-0.000004,-0.000032,-68.531346,0.000039,
2176,3073,-1.86096630457988,9.30467507368674,0.0224156163533848,0.006288,0.000512,0.000945,0.287193,0.051860,314.359066,24.601481,0.999680,0.995375,0.003069,0.533857,-0.000001,0.000007,-0.000016,0.000019,-0.000013,-52.121667,0.000020,
2326,2368,1.52494063019885,-6.03926994576377,-0.0068787015644034,0.006447,0.000068,-0.000983,0.299054,0.001017,325.296911,23.605859,0.999384,0.986139,0.004574,0.381096,-0.000014,-0.000013,-0.000001,-0.000013,-0.000015,-62.518481,0.000027,
2431,2893,3.7105280948011,5.41554903445549,-0.0166914095008792,0.006542,0.000246,0.001562,0.294994,0.038655,316.738045,25.060087,0.999558,0.991051,0.003710,0.379429,-0.000016,0.000000,-0.000005,0.000002,-0.000017,-73.863624,0.000019,
2236,2173,-0.40138303897378,-10.307403829134,0.00902393125073786,0.006587,0.000835,-0.004019,0.315239,0.022522,328.701881,23.700955,0.998890,0.983179,0.005148,0.307269,-0.000012,-0.000015,0.000004,-0.000010,-0.000018,34.789405,0.000028,
2491,3253,4.94499057827287,13.2383226045216,0.0074296872406876,0.006318,0.000374,-0.000721,0.293587,0.019773,311.166385,26.534891,0.999750,0.993184,0.003366,0.382427,0.000014,0.000016,0.000030,0.000045,-0.000014,45.725521,0.000046,
2026,2788,-5.07235650014816,3.11154974961352,-0.0283427468074251,0.006841,0.000200,0.001053,0.312505,0.040163,319.322819,24.386095,0.999547,0.992332,0.003603,0.397728,-0.000038,0.000029,0.000000,0.000029,-0.000038,-89.699307,0.000040,
2296,2293,0.885391520276009,-7.68003992319591,0.00756499955809886,0.006634,-0.000156,0.003708,0.291622,0.027806,326.641133,23.652824,0.999355,0.985883,0.004721,0.302546,-0.000030,-0.000010,-0.000020,0.000003,-0.000042,-58.065111,0.000047,
2281,2338,0.550528521503921,-6.69523127327658,-0.00105747049269667,0.007063,0.000791,-0.003604,0.336306,0.030882,325.903262,23.757024,0.999231,0.985146,0.004821,0.352836,-0.000024,-0.000015,-0.000011,-0.000008,-0.000032,-56.363313,0.000042,
2236,2113,-0.390401708237412,-11.6254093530144,0.0238421562449389,0.006464,0.000107,0.001020,0.292948,0.023343,329.769740,23.482407,0.999333,0.982298,0.005224,0.429964,-0.000007,-0.000011,0.000008,-0.000001,-0.000017,37.773749,0.000020,
2386,2623,2.78303083577775,-0.468291580150847,-0.0196944389377336,0.006404,0.000072,0.003120,0.282829,0.024200,321.049235,24.134543,0.999229,0.987541,0.004356,0.428784,-0.000001,0.000013,0.000003,0.000014,-0.000002,78.327660,0.000015,
2371,2578,2.46544319628184,-1.45084834535524,-0.0133258657049851,0.006407,-0.000114,0.002304,0.285840,0.018309,321.827818,24.042265,0.999367,0.988443,0.004420,0.402842,-0.000003,0.000018,0.000007,0.000020,-0.000006,73.476411,0.000021,
2176,3163,-1.87542514474474,11.2572200909392,0.0336884762764385,0.006503,0.000214,0.001383,0.295774,0.038871,312.990763,24.809487,0.999816,0.996574,0.002807,0.379935,-0.000014,0.000008,-0.000007,0.000011,-0.000016,-73.278054,0.000016,
2266,2278,0.233905322638783,-8.00891955829138,0.00575570762106281,0.006665,0.000043,0.001812,0.299672,0.020643,326.913280,23.678420,0.999457,0.986820,0.004707,0.365646,-0.000018,-0.000024,-0.000023,0.000002,-0.000044,-41.331014,0.000050,
2461,3088,4.32571157928481,9.65456742172265,0.00770200123696441,0.006309,0.000105,0.005069,0.271120,0.039721,313.783318,25.804775,0.999648,0.993990,0.003449,0.387326,-0.000010,0.000029,0.000000,0.000029,-0.000010,89.676543,0.000030,
2011,2533,-5.35963030661364,-2.44135958040988,-0.0139893154722017,0.006245,-0.000210,0.002243,0.281328,0.029501,323.634260,24.527706,0.999187,0.988638,0.004381,0.428975,0.000003,-0.000030,0.000010,0.000005,-0.000033,15.506860,0.000035,
2161,3148,-2.19900257914895,10.9308065183383,0.0248499832525795,0.006396,-0.000065,0.003204,0.285164,0.023224,313.205410,24.696795,0.999482,0.992562,0.003664,0.401378,-0.000011,0.000003,-0.000006,0.000006,-0.000013,-70.608203,0.000013,
2416,2803,3.40145199746498,3.45639942712893,-0.0274979587112512,0.006645,0.000593,-0.003694,0.319022,0.027094,318.119282,24.717162,0.999418,0.987959,0.004425,0.399240,-0.000005,0.000001,-0.000008,0.000007,-0.000011,-54.718473,0.000011,
2161,3043,-2.18122603866969,8.65429784867569,0.0215918243610531,0.006570,0.000252,0.002691,0.294748,0.047720,314.902109,24.681419,0.999551,0.993369,0.003502,0.377657,-0.000003,0.000009,-0.000014,0.000018,-0.000012,-56.857907,0.000018,
2191,3178,-1.55295164565594,11.5840789529014,0.0257431637214722,0.006867,0.000251,0.002749,0.308179,0.042664,312.641633,24.878377,0.999810,0.996628,0.002856,0.394879,-0.000010,0.000010,-0.000002,0.000011,-0.000010,-83.984003,0.000012,
2266,2143,0.259264665309399,-10.9639144625687,0.0159886322364287,0.007370,0.000282,0.002061,0.331024,0.055083,329.204597,23.640505,0.999441,0.984991,0.005002,0.184517,-0.000023,-0.000028,-0.000001,-0.000023,-0.000028,-7.702360,0.000052,
2311,2233,1.2243374027877,-8.99345944999718,0.00638208981155231,0.006982,0.000859,-0.003299,0.331535,0.045012,327.627939,23.426914,0.998859,0.978803,0.005604,0.345632,-0.000021,-0.000025,-0.000016,-0.000007,-0.000039,-41.406488,0.000049,
2446,2998,4.01740595640359,7.69834166806412,0.000226325755477319,0.006754,0.000004,0.004031,0.295526,0.039800,315.189526,25.430730,0.999380,0.988267,0.004123,0.397948,0.000000,0.000010,0.000001,0.000010,0.000000,83.403790,0.000011,
2101,2743,-3.4376181834261,2.13611709673938,-0.0250363999154501,0.006267,0.000120,0.002446,0.281509,0.041002,319.635067,24.454976,0.999392,0.989903,0.004005,0.384151,-0.000021,-0.000004,0.000000,-0.000004,-0.000021,-89.922605,0.000027,
2131,2893,-2.8092758414927,5.39680956101371,-0.00854130501954842,0.006260,0.000413,-0.001734,0.293779,0.026849,317.212735,24.481243,0.999518,0.991037,0.003846,0.408870,-0.000007,0.000019,-0.000004,0.000020,-0.000008,-80.750588,0.000020,
2041,2638,-4.7235720995915,-0.152138480965945,-0.0233882733095356,0.006739,0.000637,-0.000649,0.312292,0.042411,321.703063,24.428102,0.999140,0.989756,0.004204,0.442907,0.000006,-0.000004,0.000006,0.000009,-0.000007,26.257644,0.000010,
2071,2743,-4.08814217758911,2.13391301653866,-0.0219068348750397,0.007003,0.000213,0.002412,0.315732,0.018951,319.848460,24.405564,0.999393,0.990542,0.003913,0.401447,-0.000027,0.000002,0.000010,0.000005,-0.000030,73.282463,0.000032,
2341,2428,1.84230349374841,-4.72900069373854,0.0082896219274744,0.006534,0.000833,-0.004231,0.314741,0.032526,324.464863,23.689603,0.999740,0.993988,0.003640,0.430824,0.000002,0.000003,0.000014,0.000017,-0.000011,46.109604,0.000017,
2011,2998,-5.42798724092374,7.66844834791771,0.00774144026132717,0.006548,0.000003,0.004444,0.290107,0.035493,316.286617,24.210439,0.999403,0.992747,0.003402,0.383495,-0.000028,-0.000005,0.000001,-0.000005,-0.000028,88.198398,0.000036,
2071,2698,-4.08198195235304,1.15508220583884,-0.0228590706924479,0.006259,0.000154,0.003716,0.277711,0.049909,320.531926,24.400805,0.999430,0.991836,0.003669,0.446060,-0.000018,-0.000007,0.000007,-0.000004,-0.000022,64.161917,0.000027,
2011,2548,-5.36142664808359,-2.11427554252227,-0.0164939021663031,0.006795,0.000240,0.001916,0.307646,0.032534,323.397299,24.507578,0.999319,0.989341,0.004051,0.441343,0.000014,0.000002,0.000023,0.000032,-0.000015,37.726453,0.000032,
2116,2803,-3.12030879603593,3.44073402026558,-0.0158821756058387,0.006675,0.000406,-0.001351,0.311595,0.032205,318.697843,24.457803,0.999514,0.992811,0.003500,0.391330,-0.000025,0.000006,-0.000006,0.000007,-0.000026,-78.834707,0.000027,
2056,2653,-4.40065961304937,0.175351125194979,-0.0331935316250451,0.006791,-0.000011,0.000019,0.312597,-0.003041,321.292252,24.413392,0.999293,0.990854,0.004009,0.397286,-0.000002,0.000001,0.000005,0.000005,-0.000006,52.953389,0.000006,
2431,2908,3.70714485994059,5.74103136806576,-0.0183684238630235,0.006363,-0.000135,0.002784,0.282099,0.019888,316.466576,25.040788,0.999694,0.991241,0.003597,0.429533,-0.000014,0.000004,-0.000002,0.000004,-0.000014,-83.718067,0.000015,
2326,2383,1.52206679566095,-5.71078451943966,-0.00303355803214345,0.006574,-0.000444,0.005689,0.281760,0.013616,325.068608,23.715248,0.999457,0.987789,0.004579,0.320639,-0.000006,-0.000005,-0.000002,-0.000003,-0.000008,-54.518256,0.000012,
2011,2743,-5.39220761651807,2.13324555658995,-0.035412772270945,0.006364,-0.000165,0.004914,0.279933,0.027664,320.056728,24.437885,0.999554,0.992658,0.003522,0.357851,-0.000023,0.000021,0.000029,0.000035,-0.000037,63.779465,0.000042,
2026,2563,-5.03785902377043,-1.78659183928334,-0.017801861915359,0.006602,0.000325,-0.001104,0.307027,0.024515,323.048215,24.512915,0.999511,0.990537,0.003808,0.395432,0.000021,0.000016,0.000007,0.000026,0.000011,33.906183,0.000038,
2251,2248,-0.0880708260673799,-8.66285403637375,-0.00201279488356931,0.006684,0.001005,-0.003294,0.317635,0.066661,327.373831,23.803811,0.998002,0.977426,0.006165,0.299242,-0.000021,-0.000039,-0.000024,-0.000004,-0.000056,-35.070062,0.000067,
2461,3103,4.32351888578301,9.9793730450488,0.0177364258890407,0.006222,0.000124,0.004038,0.271019,0.035253,313.621916,25.835946,0.999554,0.992570,0.003614,0.405000,-0.000012,0.000027,0.000006,0.000028,-0.000013,81.782900,0.000028,
2281,2353,0.547193893525971,-6.36862985056708,0.0027338346550323,0.006524,0.000052,0.001639,0.293850,0.009339,325.650831,23.717126,0.999323,0.985437,0.004745,0.400842,-0.000024,-0.000014,-0.000010,-0.000008,-0.000030,-57.872256,0.000040,
2116,2938,-3.14173159609184,6.37411705507927,-0.00966751270317445,0.006739,0.000840,-0.002900,0.319542,0.051236,316.562135,24.496412,0.999372,0.991159,0.003862,0.400193,-0.000018,0.000013,-0.000005,0.000013,-0.000019,-81.820399,0.000019,
2281,2233,0.569233617748136,-8.99343373325541,0.00912655552002661,0.006306,0.000335,-0.001826,0.295291,0.034077,327.642139,23.595663,0.998953,0.980639,0.005391,0.307506,-0.000031,-0.000022,-0.000026,0.000000,-0.000053,-50.140334,0.000061,
2371,2593,2.46252283095064,-1.1239531054385,-0.0142728702161889,0.006491,-0.000342,0.003151,0.286650,0.002823,321.577373,24.058011,0.999317,0.988079,0.004394,0.413288,0.000003,0.000004,0.000008,0.000011,-0.000004,47.013222,0.000011,
2146,2953,-2.4932375871157,6.70075767020131,-0.00261685970298231,0.006580,0.000119,0.002913,0.294481,0.039184,316.224266,24.546130,0.999625,0.991653,0.003602,0.412912,-0.000013,0.000014,-0.000007,0.000016,-0.000015,-75.936968,0.000018,
2416,2818,3.39907209515325,3.78204067562983,-0.0211960704219223,0.006896,0.000220,-0.001304,0.321722,0.023167,317.930493,24.732244,0.999321,0.988973,0.004248,0.427478,-0.000006,0.000004,-0.000007,0.000008,-0.000010,-62.784186,0.000010,
2026,2803,-5.07469118526819,3.43701703416255,-0.0270212684725948,0.006822,-0.000006,0.002962,0.306305,0.026667,319.084682,24.345867,0.999599,0.992524,0.003482,0.414834,-0.000032,0.000017,0.000001,0.000017,-0.000032,88.517660,0.000032,
2041,2848,-4.75575384121912,4.41566944467022,-0.0281350495629908,0.006992,0.000447,-0.001578,0.326878,0.027889,318.273645,24.327421,0.999218,0.990154,0.004047,0.425206,-0.000041,0.000038,-0.000012,0.000040,-0.000043,-81.219652,0.000048,
2161,3058,-2.18281300709407,8.97830562754269,0.0327976754597898,0.006610,0.000591,0.000370,0.303808,0.050316,314.760632,24.624281,0.999698,0.995029,0.003271,0.446619,-0.000001,0.000007,-0.000017,0.000020,-0.000014,-51.804471,0.000021,
2146,3058,-2.50955451537456,8.97857930248363,0.015322120485223,0.006500,0.000279,0.000996,0.296814,0.038081,314.664914,24.596365,0.999576,0.994357,0.003262,0.411046,-0.000008,0.000008,-0.000013,0.000016,-0.000015,-60.724553,0.000018,
2221,2098,-0.715148179668034,-11.9529958148753,0.0235032100096078,0.006724,-0.000479,0.004253,0.294376,0.031915,330.041820,23.630205,0.999027,0.980102,0.005544,0.356815,-0.000010,-0.000009,0.000013,0.000004,-0.000023,46.535841,0.000025,
2056,2533,-4.38114344430353,-2.44106244501518,-0.00939829408133619,0.006556,-0.000091,0.002766,0.293848,0.036608,323.412986,24.417862,0.999110,0.988028,0.004381,0.468782,0.000001,-0.000009,0.000016,0.000013,-0.000021,36.090553,0.000021,
2176,3088,-1.8638447009307,9.631600034346,0.0192159493286681,0.006460,0.000024,0.004853,0.282846,0.041028,314.082338,24.741560,0.999570,0.993419,0.003364,0.393952,-0.000004,0.000006,-0.000015,0.000017,-0.000014,-54.641758,0.000018,
2131,2983,-2.8230668817942,7.35084222654072,-0.000132030614054202,0.006836,0.000497,-0.000764,0.317619,0.041396,315.841274,24.503898,0.999733,0.994282,0.003133,0.431591,-0.000009,0.000011,-0.000012,0.000017,-0.000014,-64.744085,0.000018,
2356,2488,2.15672583657161,-3.41673347435866,-0.00601078724037052,0.006717,0.000001,0.000218,0.307440,0.013533,323.366453,23.809626,0.999531,0.987752,0.004289,0.410969,0.000004,-0.000005,0.000019,0.000019,-0.000021,38.112351,0.000023,
2491,3268,4.9416236176912,13.5644389855923,0.00512900884604051,0.006504,0.000150,0.002761,0.288800,0.031245,310.895167,26.638153,0.999856,0.995111,0.002881,0.348046,0.000018,-0.000002,0.000026,0.000036,-0.000021,34.653718,0.000036,
2101,2803,-3.44677837315158,3.44022152601022,-0.0234788864835878,0.006653,-0.000064,0.002789,0.298268,0.009792,318.691354,24.426992,0.999436,0.992007,0.003695,0.386141,-0.000033,0.000008,-0.000005,0.000009,-0.000033,-83.663934,0.000034,
2011,3013,-5.43028518044446,7.99316556050462,0.00908395291259012,0.006366,-0.000195,0.002896,0.285886,0.018233,316.049872,24.160254,0.999530,0.993563,0.003366,0.403760,-0.000021,-0.000007,0.000009,-0.000003,-0.000025,63.700530,0.000031,
2041,2653,-4.72642678391166,0.174857451204751,-0.0318913119636477,0.006873,-0.000018,0.002357,0.309924,0.016443,321.387171,24.414120,0.999354,0.990451,0.003993,0.424117,0.000001,0.000002,0.000005,0.000007,-0.000004,49.357825,0.000007,
2101,2758,-3.4391834219568,2.46117616417349,-0.0176230826052688,0.006589,0.000093,0.001842,0.298134,0.033455,319.470623,24.407728,0.999418,0.989929,0.003939,0.425229,-0.000022,-0.000008,-0.000007,-0.000005,-0.000026,-66.613317,0.000033,
2116,2818,-3.12292683238113,3.76686505294786,-0.0191610184459137,0.006769,0.000265,-0.000372,0.312982,0.025821,318.428253,24.441820,0.999453,0.992487,0.003642,0.404361,-0.000022,0.000013,-0.000007,0.000014,-0.000023,-78.505238,0.000023,
2191,3283,-1.57153300610181,13.8588119167643,0.0222054236642748,0.006601,0.000257,0.000763,0.302289,0.031729,310.886755,24.922558,0.999616,0.994706,0.003080,0.431405,-0.000025,0.000006,-0.000006,0.000007,-0.000026,-79.905283,0.000026,
2191,3193,-1.55522013493776,11.9081478457958,0.0361345430762299,0.006462,0.000304,0.002463,0.290435,0.039278,312.465927,24.856546,0.999735,0.995785,0.003018,0.426588,-0.000013,0.000004,-0.000003,0.000004,-0.000013,-80.651220,0.000013,
2491,3283,4.93831971676858,13.8890043059241,0.000768640692967892,0.006432,0.000202,0.000417,0.294482,0.024034,310.617961,26.609626,0.999874,0.995699,0.002795,0.426654,0.000024,-0.000048,0.000026,0.000032,-0.000056,17.948300,0.000056,
2251,2188,-0.0768289528785964,-9.97839528738596,0.0102995848662317,0.006955,-0.000274,0.002866,0.309389,0.025670,328.435933,23.710155,0.999572,0.989547,0.004316,0.247990,-0.000023,-0.000025,-0.000012,-0.000012,-0.000036,-42.391100,0.000051,
2176,3178,-1.87732144574143,11.5809544213031,0.0446488014952706,0.006603,0.000118,0.003872,0.292580,0.031866,312.834602,24.759822,0.999759,0.995313,0.003017,0.433471,-0.000017,0.000009,-0.000004,0.000010,-0.000017,-80.488878,0.000017,
2461,3118,4.32078442595814,10.304866237531,0.0187279515427008,0.006530,0.000222,0.005318,0.280432,0.043222,313.393789,25.864471,0.999492,0.991122,0.003794,0.437982,-0.000013,0.000029,0.000006,0.000030,-0.000014,82.563666,0.000030,
2311,2248,1.22148643688092,-8.66582296168239,0.00966312754945875,0.006755,0.000618,-0.001630,0.315379,0.048012,327.397387,23.417710,0.998856,0.981359,0.005313,0.392499,-0.000020,-0.000041,-0.000013,-0.000014,-0.000047,-25.889511,0.000064,
2476,3178,4.6353167747923,11.6089168984455,0.025702085070975,0.006356,0.000222,0.004187,0.276637,0.050256,312.497348,26.196274,0.999634,0.992172,0.003539,0.394956,-0.000001,0.000021,0.000015,0.000029,-0.000009,63.409185,0.000030,
2221,2053,-0.70822392559597,-12.9384921449375,0.0155961223651389,0.006264,0.000411,0.000768,0.284672,0.038232,330.689067,23.602408,0.998873,0.977670,0.005703,0.324939,-0.000018,-0.000017,0.000018,0.000000,-0.000035,46.138043,0.000041,
2086,2773,-3.7672054113066,2.78770458141395,-0.0249467636904228,0.007092,0.000065,0.001017,0.323764,0.026709,319.265526,24.435302,0.999577,0.991499,0.003837,0.382983,-0.000030,0.000003,-0.000009,0.000005,-0.000032,-75.660387,0.000034,
2071,2758,-4.09072027610982,2.46055531685695,-0.0276449436844928,0.006996,0.000143,0.000147,0.321873,0.016838,319.563326,24.393695,0.999477,0.991810,0.003734,0.408450,-0.000027,-0.000006,0.000000,-0.000006,-0.000027,89.121532,0.000035,
2116,2953,-3.14410914984283,6.69955604700884,-0.0055710621787739,0.006806,0.000405,0.001059,0.310748,0.046774,316.343471,24.506554,0.999564,0.991701,0.003624,0.388175,-0.000013,0.000013,-0.000008,0.000015,-0.000016,-73.586069,0.000018,
2071,2713,-4.0847478481619,1.48215167312888,-0.0286076833156699,0.006361,-0.000111,0.006284,0.275015,0.043088,320.238002,24.418108,0.999290,0.990387,0.003911,0.419146,-0.000013,0.000004,0.000009,0.000008,-0.000017,66.635535,0.000017,
2446,3013,4.01449837636186,8.0243774026842,-0.000813840464331861,0.006699,0.000187,0.001227,0.303551,0.035765,314.943370,25.480986,0.999019,0.985965,0.004386,0.395100,-0.000004,0.000011,0.000001,0.000011,-0.000004,86.931226,0.000011,
2086,2683,-3.75347925328205,0.828997843475925,-0.0245201634634782,0.006590,0.000277,0.001907,0.298027,0.052500,320.703116,24.368154,0.999491,0.992208,0.003543,0.480276,-0.000019,-0.000007,-0.000001,-0.000007,-0.000019,-85.820861,0.000026,
2296,2428,0.860575904592974,-4.72811371209867,-0.00192824715804818,0.006846,-0.000024,0.001155,0.310267,0.018691,324.398431,23.870967,0.999525,0.988922,0.004311,0.361674,-0.000016,-0.000015,-0.000010,-0.000005,-0.000025,-45.590132,0.000033,
2221,2113,-0.718028257600473,-11.6240130699093,0.0201669657234333,0.006439,0.000084,0.001360,0.290775,0.012462,329.769412,23.646115,0.999012,0.981492,0.005321,0.343562,-0.000009,-0.000008,0.000010,0.000002,-0.000019,46.881413,0.000021,
2146,2968,-2.49534880023601,7.0261992083664,0.000501140475876127,0.006780,-0.000076,0.003133,0.302958,0.025340,316.014547,24.563039,0.999676,0.993435,0.003282,0.389089,-0.000010,0.000017,-0.000011,0.000021,-0.000014,-69.439154,0.000021,
2131,2908,-2.81117331796561,5.72155800251527,-0.00139393211611605,0.006562,0.000070,0.001283,0.298512,0.013641,317.033591,24.446954,0.999471,0.989225,0.004083,0.435239,-0.000004,0.000012,-0.000007,0.000015,-0.000006,-70.236950,0.000015,
2476,3193,4.6323483495134,11.9341009560291,0.0247603619518486,0.006401,0.000232,0.002897,0.283646,0.052542,312.250357,26.209367,0.999558,0.992195,0.003479,0.439673,-0.000001,0.000026,0.000016,0.000033,-0.000008,65.021906,0.000034,
2011,2563,-5.36359706640344,-1.78695822766439,-0.0190713751185285,0.006830,0.000393,-0.000947,0.317099,0.026669,323.142805,24.522188,0.999235,0.988598,0.004207,0.409655,0.000015,0.000028,0.000009,0.000032,0.000011,63.788787,0.000045,
2146,3073,-2.51254543286831,9.30441295951632,0.0080352070316394,0.006553,0.000107,0.001701,0.297075,0.029481,314.359323,24.603190,0.999751,0.996340,0.002838,0.402612,-0.000009,0.000011,-0.000012,0.000017,-0.000015,-65.055827,0.000018,
2416,2833,3.39587488461789,4.10908648263739,-0.0215738804853345,0.006862,0.000026,0.000959,0.311786,0.017694,317.672432,24.831240,0.998735,0.987170,0.004509,0.370878,-0.000007,0.000010,-0.000007,0.000012,-0.000010,-69.498492,0.000013,
2266,2293,0.231137147032801,-7.68017629549107,0.00170825363647964,0.006719,0.000330,-0.000060,0.308495,0.028920,326.646075,23.705625,0.999253,0.984958,0.005032,0.374505,-0.000019,-0.000016,-0.000015,-0.000002,-0.000033,-47.886391,0.000039,
2491,3298,4.93523987682807,14.2147201962249,0.0011131459345961,0.006348,0.000496,-0.000065,0.292646,0.040503,310.371907,26.693279,0.999741,0.993379,0.003351,0.416986,0.000022,-0.000061,0.000020,0.000026,-0.000065,12.902621,0.000066,
2056,2908,-4.43903250455617,5.71892067221601,-0.00988549200639,0.006713,0.000377,0.001738,0.304781,0.049337,317.341448,24.356599,0.999487,0.992620,0.003586,0.414779,-0.000018,0.000014,-0.000017,0.000022,-0.000025,-66.149538,0.000027,
2281,2368,0.544405788254412,-6.04158651814301,0.00906243569369281,0.006148,-0.000362,0.004115,0.268209,0.007859,325.435878,23.726648,0.999198,0.983414,0.005028,0.419234,-0.000027,-0.000015,-0.000012,-0.000008,-0.000034,-58.009619,0.000044,
2461,3133,4.3180275174698,10.6305465582069,0.0199487608226718,0.006632,-0.000122,0.004556,0.287847,0.022663,313.165556,25.943981,0.999498,0.990061,0.003849,0.391079,-0.000008,0.000029,0.000001,0.000029,-0.000008,87.995200,0.000030,
2011,2758,-5.39401003329501,2.45862277442264,-0.0331560105198605,0.006570,-0.000053,0.003139,0.294297,0.035820,319.847026,24.362313,0.999487,0.992078,0.003660,0.429468,-0.000036,-0.000007,0.000009,-0.000005,-0.000039,74.253644,0.000048,
2431,2923,3.70444243073284,6.06797601497369,-0.0136803101750047,0.006319,0.000001,0.003545,0.277358,0.029493,316.255534,25.177544,0.999683,0.992174,0.003604,0.351700,-0.000013,-0.000002,-0.000001,-0.000002,-0.000013,-83.695470,0.000016,
2041,2863,-4.75791921158406,4.74113400102907,-0.0173775360524928,0.006649,0.000341,0.001051,0.303712,0.034967,318.096754,24.353614,0.999272,0.990455,0.004126,0.398224,-0.000035,0.000031,-0.000007,0.000032,-0.000035,-83.936769,0.000039,
2161,3163,-2.20104833402514,11.256145222884,0.0294562910469267,0.006501,0.000251,0.001879,0.294252,0.046231,313.007507,24.724146,0.999624,0.993200,0.003403,0.405837,-0.000014,0.000010,-0.000007,0.000012,-0.000015,-74.798428,0.000016,
2161,3193,-2.20610897256131,11.905210085125,0.0351672259458269,0.006285,-0.000104,0.003806,0.278208,0.020955,312.549294,24.690516,0.999657,0.994008,0.003170,0.431734,-0.000018,0.000005,-0.000006,0.000006,-0.000019,-75.130622,0.000020,
2266,2158,0.256631747447845,-10.636589435339,0.0174925514356232,0.007066,0.000676,-0.000805,0.326679,0.054593,328.971937,23.555898,0.999202,0.983543,0.005154,0.297030,-0.000024,-0.000022,-0.000003,-0.000019,-0.000027,-52.680079,0.000046,
2116,2833,-3.12591491429186,4.09365301274556,-0.0219566348255853,0.006587,-0.000091,0.002472,0.296113,0.023280,318.144074,24.490871,0.999627,0.993107,0.003544,0.356109,-0.000021,0.000012,-0.000007,0.000013,-0.000023,-78.563702,0.000023,
2176,3103,-1.86622370140896,9.95652691769464,0.0214342020707932,0.006274,0.000304,0.001590,0.284472,0.041681,313.857665,24.724642,0.999623,0.994171,0.003158,0.422907,-0.000009,0.000005,-0.000016,0.000015,-0.000020,-56.822096,0.000021,
2191,3208,-1.55766864998584,12.2333839602408,0.034684417958772,0.006692,0.000250,0.002170,0.301940,0.033211,312.219711,24.878707,0.999533,0.993787,0.003486,0.411429,-0.000013,0.000003,0.000000,0.000003,-0.000013,89.627782,0.000014,
2236,2188,-0.403708926009234,-9.9786496291093,0.0129242155560974,0.006888,0.000167,0.000146,0.315377,0.019097,328.492735,23.785313,0.999152,0.985764,0.004847,0.243135,-0.000015,-0.000022,-0.000006,-0.000012,-0.000026,-29.345416,0.000038,
2176,3193,-1.87941493382433,11.9041013688264,0.0574708994464004,0.006148,-0.000003,0.002932,0.274477,0.020407,312.679391,24.673683,0.999814,0.996557,0.002810,0.519228,-0.000020,0.000002,-0.000004,0.000003,-0.000020,-79.109255,0.000022,
2341,2443,1.838669274673,-4.39945588281196,-0.00268254730337958,0.006858,0.000197,-0.000316,0.315776,0.022956,324.130760,23.797534,0.999409,0.988294,0.004383,0.351782,0.000005,-0.000005,0.000013,0.000015,-0.000014,34.761462,0.000017,
2296,2308,0.882041958164614,-7.35296926289561,0.00467576629449695,0.006470,-0.000600,0.007202,0.272192,0.033652,326.356038,23.546953,0.999265,0.985283,0.004953,0.446537,-0.000031,-0.000020,-0.000016,-0.000008,-0.000042,-54.751441,0.000054,
2056,2668,-4.40230190424142,0.501455310953666,-0.0232565649073422,0.006709,0.000369,-0.002276,0.315445,0.007675,321.135026,24.440370,0.999292,0.990099,0.004086,0.375774,-0.000010,-0.000007,0.000011,0.000002,-0.000019,48.893755,0.000021,
2221,2068,-0.710410693573127,-12.6088557607002,0.0148685797061034,0.006581,0.000865,-0.000851,0.304540,0.064085,330.461411,23.645079,0.998995,0.977770,0.005679,0.330197,-0.000016,-0.000011,0.000019,0.000005,-0.000033,48.602372,0.000035,
2071,2773,-4.09261465711112,2.78668737491009,-0.0224146379954959,0.007049,0.000389,-0.001139,0.328127,0.026503,319.369726,24.414215,0.999403,0.990550,0.003931,0.394307,-0.000026,0.000005,-0.000001,0.000005,-0.000026,-88.308495,0.000028,
2371,2608,2.45971736842985,-0.796434922735315,-0.0169824023370779,0.006564,-0.000056,0.000582,0.299259,0.003620,321.323546,24.104313,0.999183,0.987289,0.004422,0.409799,0.000003,-0.000001,0.000005,0.000006,-0.000004,32.396182,0.000006,
2116,2968,-3.14601815725205,7.02456649268886,0.000477353671385572,0.006840,0.000330,-0.000775,0.317716,0.031026,316.156979,24.505549,0.999648,0.992899,0.003360,0.376322,-0.000008,0.000015,-0.000013,0.000021,-0.000014,-65.317697,0.000021,
2011,3028,-5.43205106932859,8.31787117886552,0.0210683524802562,0.006398,-0.000681,0.006549,0.277422,0.032333,315.897384,24.152162,0.999499,0.993667,0.003451,0.413113,-0.000005,-0.000001,0.000017,0.000014,-0.000020,48.321784,0.000021,
2026,2818,-5.07710562662758,3.76241170028639,-0.0241376646042113,0.006547,-0.000228,0.003453,0.292245,0.022623,318.851641,24.305652,0.999489,0.992157,0.003533,0.441008,-0.000035,0.000014,-0.000005,0.000015,-0.000035,-84.101377,0.000035,
2236,2128,-0.393290935536047,-11.2944841426012,0.0193091763630377,0.006413,0.000375,-0.000326,0.295059,0.033868,329.491793,23.638442,0.998952,0.980740,0.005379,0.309071,-0.000005,-0.000011,0.000008,0.000000,-0.000016,34.448183,0.000019,
2311,2263,1.21875456370533,-8.33750098417514,0.0132261383454306,0.006896,0.000038,0.003544,0.304030,0.039801,327.173585,23.489914,0.999206,0.984642,0.004839,0.346534,-0.000022,-0.000038,-0.000015,-0.000013,-0.000047,-30.543057,0.000063,
2026,2578,-5.04064484566264,-1.45922461871745,-0.0225216568550195,0.006493,0.000050,0.001242,0.295495,0.022110,322.754890,24.515425,0.999161,0.989622,0.004160,0.381691,0.000011,0.000003,0.000001,0.000011,0.000003,7.852542,0.000015,
2386,2638,2.7806290912338,-0.14117477395888,-0.0196627729587817,0.006744,-0.000125,0.001184,0.305329,0.012185,320.828223,24.190253,0.999233,0.987419,0.004376,0.404777,-0.000007,0.000015,-0.000003,0.000015,-0.000007,-82.002712,0.000015,
2146,2983,-2.49806117016286,7.35166415911969,-0.000487715015481172,0.006608,-0.000002,0.002708,0.296367,0.022079,315.755391,24.547243,0.999705,0.994583,0.003105,0.408991,-0.000011,0.000013,-0.000012,0.000018,-0.000015,-67.764445,0.000019,
2401,2773,3.08068500247184,2.80133915266229,-0.0202186985550838,0.006322,0.000209,0.000648,0.288141,0.021923,318.621778,24.576380,0.999472,0.988851,0.004147,0.429999,-0.000017,0.000001,-0.000013,0.000008,-0.000024,-62.036381,0.000024,
2011,2578,-5.3664729107471,-1.46037125238065,-0.0195723199694271,0.006381,-0.000105,0.001980,0.288397,0.029999,322.867885,24.484119,0.998949,0.986556,0.004739,0.440012,0.000003,0.000014,-0.000002,0.000014,0.000003,-81.650424,0.000018,
2446,3028,4.0119488160852,8.35048485036386,0.00538671262830803,0.006559,0.000393,0.000224,0.300960,0.040429,314.747041,25.581450,0.999338,0.988326,0.004128,0.350779,-0.000008,0.000014,-0.000002,0.000014,-0.000008,-84.508839,0.000014,
2326,2398,1.5204982741999,-5.38438741074285,0.00621095328790489,0.006763,0.000428,0.001552,0.305040,0.036802,324.926744,23.678857,0.999485,0.987854,0.004569,0.416046,0.000001,0.000000,0.000003,0.000003,-0.000002,43.666458,0.000003,
2011,2773,-5.39622796269515,2.78492525751152,-0.0285501155980796,0.006326,0.000036,0.003042,0.283390,0.040990,319.631234,24.397136,0.999564,0.991696,0.003739,0.387927,-0.000035,0.000004,0.000001,0.000004,-0.000035,88.814323,0.000039,
2506,1993,5.5347660501759,-14.265778727291,0.0377069321064027,0.006420,0.000403,0.000813,0.290299,0.044298,331.972844,21.539577,0.999348,0.973979,0.006076,0.280081,0.000080,-0.000128,-0.000011,0.000081,-0.000129,-2.881674,0.000130,
2206,2023,-1.02802291677066,-13.5997849491137,0.0340666856166649,0.007210,0.000348,-0.003189,0.340480,-0.008066,331.418375,23.603007,0.999082,0.980743,0.005407,0.333017,-0.000012,-0.000017,0.000003,-0.000011,-0.000018,22.208235,0.000029,
2101,2818,-3.4488656206984,3.76666274591381,-0.0250241538107048,0.006851,0.000276,-0.000734,0.317837,0.018586,318.454101,24.437707,0.999350,0.992734,0.003624,0.385501,-0.000030,0.000014,-0.000006,0.000015,-0.000031,-82.291525,0.000031,
2176,3208,-1.88268676111609,12.2318588545058,0.0365654102830035,0.006704,0.000078,0.000452,0.307911,0.022249,312.291111,24.805892,0.999689,0.995096,0.003054,0.399843,-0.000019,0.000001,-0.000001,0.000001,-0.000019,-86.983394,0.000022,
2251,2203,-0.0798616990992684,-9.65182281706343,0.011182242331472,0.006587,-0.000176,0.004451,0.287364,0.042922,328.180570,23.548417,0.998985,0.984792,0.005034,0.453124,-0.000021,-0.000019,-0.000016,-0.000003,-0.000036,-47.017044,0.000044,
2236,2203,-0.406326167300374,-9.6528383892916,0.0176114811051775,0.006635,0.000245,0.001780,0.298560,0.027650,328.274626,23.602113,0.999358,0.988732,0.004523,0.458671,-0.000012,-0.000019,-0.000009,-0.000006,-0.000025,-35.285820,0.000033,
2266,2308,0.228430430791111,-7.35274069121938,0.00856756908177658,0.006252,0.000159,0.000950,0.283713,0.033458,326.436519,23.731642,0.998898,0.982489,0.005372,0.380628,-0.000022,-0.000020,-0.000012,-0.000009,-0.000033,-46.704681,0.000044,
2341,2458,1.83462408926647,-4.07159531641431,-0.00847374664283507,0.006406,-0.000298,0.004146,0.279371,0.019637,323.803089,23.799694,0.999510,0.988006,0.004337,0.384607,0.000007,0.000008,0.000016,0.000024,-0.000009,45.953549,0.000024,
2026,2593,-5.04337130288694,-1.13165300892457,-0.0285490975296057,0.006479,-0.000043,0.002847,0.290496,0.044097,322.456863,24.506428,0.998920,0.989534,0.004365,0.404029,0.000003,0.000018,0.000007,0.000021,0.000000,67.500121,0.000024,
2221,2128,-0.720547837621705,-11.29465544298,0.0171303358642376,0.006303,0.000779,-0.004316,0.302929,0.028915,329.514748,23.669414,0.998814,0.980256,0.005427,0.358979,-0.000009,-0.000010,0.000010,0.000001,-0.000020,44.249934,0.000022,
2251,2263,-0.09008479129416,-8.33601131728543,0.0035088303353632,0.006901,0.000959,-0.003281,0.327550,0.067487,327.188420,23.751662,0.999013,0.983691,0.005175,0.377568,-0.000019,-0.000038,-0.000023,-0.000004,-0.000054,-34.127109,0.000064,
2281,2248,0.566584819727918,-8.66614200997749,0.00777338173105591,0.006394,0.000162,-0.002442,0.301338,0.012181,327.395675,23.531607,0.999125,0.981459,0.005291,0.379890,-0.000031,-0.000036,-0.000023,-0.000010,-0.000057,-41.451901,0.000072,
2311,2278,1.21602963487045,-8.00870047837098,0.0119869603389589,0.006829,0.000146,0.001045,0.309570,0.039227,326.926401,23.554282,0.999229,0.984858,0.004695,0.315903,-0.000023,-0.000016,-0.000018,-0.000001,-0.000038,-50.187115,0.000044,
2191,3298,-1.57553613724039,14.1852749160242,0.00144897680030454,0.006594,0.000042,0.000264,0.303588,0.033836,310.467575,24.970194,0.999777,0.996527,0.002670,0.398696,-0.000029,0.000024,-0.000007,0.000025,-0.000030,-82.446063,0.000032,
2056,2683,-4.40420208058578,0.827461632321608,-0.0188881280333248,0.006722,0.000590,-0.004445,0.322308,0.046388,320.935307,24.387860,0.999430,0.991054,0.003894,0.461974,-0.000019,-0.000010,0.000008,-0.000005,-0.000024,60.332021,0.000031,
2431,2938,3.70201917375958,6.39396370819495,-0.0138293973649297,0.006645,0.000365,0.000667,0.303137,0.032088,316.035046,25.202566,0.999683,0.991654,0.003724,0.378835,-0.000006,-0.000001,-0.000003,0.000001,-0.000008,-63.187357,0.000008,
2476,3208,4.63013825335894,12.2595386600917,0.0298613608118217,0.006785,0.000627,0.002616,0.302533,0.062266,312.065695,26.277310,0.999461,0.992005,0.003555,0.436724,0.000002,0.000022,0.000012,0.000027,-0.000003,64.569802,0.000030,
2416,2848,3.39307397325279,4.43530727384212,-0.0185831223598143,0.006720,0.000355,0.000379,0.307552,0.034259,317.448469,24.861900,0.999224,0.988914,0.004139,0.404022,-0.000009,0.000013,-0.000010,0.000017,-0.000013,-67.701284,0.000018,
2506,2008,5.53147075034945,-13.9360066164043,0.0293468882803154,0.006369,0.001156,-0.006128,0.315040,0.037662,331.686397,21.519760,0.999429,0.976312,0.005912,0.358254,0.000054,-0.000098,0.000012,0.000055,-0.000099,4.366211,0.000099,
2296,2443,0.85692834897181,-4.40130568135454,-0.0124919392860647,0.006936,-0.000715,0.004337,0.303415,0.002726,324.061468,23.738628,0.999594,0.989538,0.004185,0.509940,-0.000010,-0.000016,-0.000006,-0.000006,-0.000020,-31.405567,0.000027,
2146,3088,-2.51466978018346,9.63023868999441,0.013501474840325,0.006753,0.000103,0.004249,0.298634,0.048670,314.161306,24.667540,0.999737,0.995007,0.003040,0.364338,-0.000012,0.000008,-0.000011,0.000013,-0.000017,-66.189790,0.000018,
2086,2818,-3.77410782711591,3.76600690116425,-0.0201149194712116,0.006890,0.000588,-0.001274,0.321345,0.045890,318.572731,24.439201,0.999463,0.992536,0.003603,0.394961,-0.000033,0.000015,-0.000009,0.000016,-0.000035,-79.885141,0.000035,
2011,3043,-5.43406148587335,8.6431811430191,0.0166485447035711,0.006545,-0.000046,-0.000154,0.302541,0.024900,315.641231,24.115825,0.999411,0.993661,0.003578,0.429436,0.000000,0.000007,0.000008,0.000012,-0.000006,57.341549,0.000012,
2131,2998,-2.82519457116825,7.67613064585374,0.00236471278202544,0.006874,0.001106,-0.003069,0.326525,0.071556,315.626493,24.466034,0.999743,0.994260,0.003208,0.504678,-0.000012,0.000017,-0.000006,0.000018,-0.000013,-78.754185,0.000018,
2461,3148,4.31527200130911,10.956285694946,0.022561017127714,0.006521,0.000298,0.002621,0.290244,0.036743,312.943661,26.006513,0.999459,0.989805,0.003800,0.395910,-0.000008,0.000018,0.000002,0.000018,-0.000008,86.679119,0.000018,
2041,2878,-4.76049301434445,5.06749692115927,-0.0195805146595944,0.006688,0.000089,0.003663,0.298190,0.036270,317.828946,24.375888,0.998952,0.987622,0.004495,0.369198,-0.000023,0.000041,-0.000009,0.000043,-0.000024,-82.206215,0.000043,
2071,2728,-4.08613375767664,1.80832140624576,-0.0268366751050735,0.006969,0.000263,0.002384,0.314279,0.045617,320.048707,24.409071,0.999237,0.989257,0.004106,0.427781,-0.000020,0.000002,0.000013,0.000009,-0.000026,64.959471,0.000027,
2131,3043,-2.83217334033711,8.65225098783175,0.0162310081227588,0.006815,0.000031,0.002575,0.306562,0.032051,314.989015,24.569743,0.999480,0.992810,0.003505,0.375505,-0.000006,0.000009,-0.000010,0.000014,-0.000011,-63.872742,0.000014,
2236,2143,-0.395445511637323,-10.9662352817119,0.018056859901435,0.006919,0.000322,-0.000629,0.319280,0.026600,329.264517,23.609251,0.998806,0.980371,0.005382,0.354745,-0.000010,-0.000027,0.000005,-0.000009,-0.000029,15.718701,0.000039,
2371,2623,2.4563202294151,-0.469203024026712,-0.0178602735461482,0.006456,-0.000279,0.005115,0.278157,0.020155,321.051248,24.129439,0.999200,0.987496,0.004399,0.442955,0.000000,0.000014,-0.000001,0.000014,0.000000,-87.755558,0.000016,
2011,2593,-5.36921407026577,-1.13300987752913,-0.020341977716555,0.005955,0.000143,0.002706,0.266899,0.027821,322.597430,24.524862,0.998993,0.987545,0.004763,0.385844,-0.000004,0.000020,0.000004,0.000021,-0.000005,81.418532,0.000022,
2266,2173,0.252737942937806,-10.3088682377309,0.0109441114146307,0.006490,0.000008,0.001852,0.291308,0.032908,328.641304,23.448492,0.999456,0.984780,0.005011,0.411608,-0.000020,-0.000016,-0.000003,-0.000015,-0.000021,-62.218655,0.000036,
2206,2038,-1.03219399527537,-13.2693698933335,0.0305875561749644,0.006277,0.000226,0.003416,0.276853,0.050697,331.084358,23.640658,0.999009,0.980444,0.005393,0.375033,-0.000011,-0.000033,-0.000004,-0.000010,-0.000034,-10.509825,0.000046,
2101,2893,-3.46030023795425,5.39501343039979,-0.0107878525522551,0.006649,0.000389,0.000272,0.305802,0.039180,317.342284,24.388515,0.999471,0.992815,0.003723,0.459828,-0.000018,0.000023,-0.000007,0.000025,-0.000019,-80.145391,0.000026,
2281,2383,0.541434570330654,-5.71208530171732,-0.00229696308139182,0.006498,0.000050,0.001211,0.294139,0.010801,325.124001,23.790281,0.998934,0.982969,0.005215,0.388435,-0.000024,-0.000007,-0.000010,-0.000002,-0.000029,-65.762935,0.000034,
2161,3208,-2.20796251685276,12.2304168238134,0.0378529360091306,0.006625,0.000158,0.001138,0.302232,0.030047,312.350122,24.718213,0.999650,0.994591,0.003025,0.422078,-0.000017,0.000003,-0.000004,0.000004,-0.000017,-78.994102,0.000018,
2476,3223,4.6270321554737,12.5854983621174,0.0260097635891157,0.006784,0.000572,-0.000505,0.314438,0.058084,311.798678,26.359291,0.999403,0.991953,0.003616,0.406064,0.000002,0.000008,0.000018,0.000024,-0.000014,49.756197,0.000024,
2026,2608,-5.04617671192798,-0.804491510184363,-0.0331438299626257,0.006277,-0.000377,0.004031,0.277854,0.027467,322.163450,24.516168,0.998852,0.987953,0.004569,0.368754,0.000002,0.000018,0.000011,0.000024,-0.000003,62.330480,0.000026,
2056,2923,-4.44098226472193,6.04433481204377,-0.00629422449821959,0.006853,0.000456,0.001124,0.312979,0.044518,317.135779,24.352030,0.999537,0.992856,0.003500,0.408661,-0.000028,0.000000,-0.000012,0.000005,-0.000033,-69.580865,0.000035,
2446,3043,4.00900400138168,8.67576590079807,0.00924749105894307,0.006435,0.000196,0.001954,0.288755,0.037274,314.521876,25.601460,0.999238,0.987762,0.004202,0.378849,-0.000014,0.000030,-0.000001,0.000030,-0.000014,-89.199723,0.000030,
2251,2218,-0.081807359040301,-9.32303383714911,0.0134370486165949,0.006719,0.000190,-0.001078,0.311626,0.021878,327.981696,23.646410,0.998272,0.979017,0.005868,0.359743,-0.000022,-0.000017,-0.000022,0.000003,-0.000041,-48.128967,0.000046,
2296,2323,0.879742306001216,-7.02493011357675,0.00764684125084614,0.006688,-0.000741,0.007383,0.281550,0.022290,326.147871,23.610222,0.999066,0.983820,0.005226,0.403749,-0.000029,-0.000026,-0.000016,-0.000011,-0.000044,-47.845961,0.000058,
2041,2668,-4.72815787826152,0.500983259207736,-0.025481499535033,0.006891,0.000343,-0.000080,0.317655,0.015950,321.205540,24.424526,0.999354,0.988983,0.004232,0.405954,-0.000008,-0.000008,0.000011,0.000003,-0.000018,44.414751,0.000020,
2146,3118,-2.51915351767214,10.2796046304364,0.0247909163557551,0.006397,0.000302,0.001852,0.289601,0.051202,313.757241,24.633375,0.999694,0.995003,0.003055,0.414575,-0.000016,0.000007,-0.000011,0.000012,-0.000020,-68.679288,0.000020,
2221,2083,-0.713160618402323,-12.280986101213,0.0176773539428154,0.006390,-0.000098,0.001874,0.286757,0.029334,330.226602,23.631818,0.999100,0.979792,0.005508,0.330729,-0.000013,-0.000011,0.000014,0.000002,-0.000026,46.896542,0.000029,
2326,2413,1.51685225971019,-5.05652290628216,-0.00730718536107133,0.006655,0.000550,-0.001886,0.311977,0.010321,324.578575,23.614107,0.999545,0.987946,0.004493,0.490540,0.000001,-0.000003,0.000006,0.000005,-0.000007,37.303413,0.000008,
2116,3208,-3.18292670908794,12.2265595571192,0.043567632673728,0.006776,0.000355,0.001298,0.309071,0.046665,312.592216,24.513198,0.999645,0.994309,0.003168,0.423515,-0.000013,0.000010,-0.000009,0.000013,-0.000016,-71.453980,0.000017,
2251,2278,-0.0932170688103078,-8.00915234744576,0.00735389728430391,0.006479,-0.000187,0.001649,0.291715,0.018675,326.943559,23.738131,0.999295,0.985079,0.004891,0.367790,-0.000016,-0.000023,-0.000024,0.000005,-0.000044,-40.912135,0.000048,
2431,2953,3.69849754248952,6.72035273857587,-0.0206723432966669,0.006563,0.000199,-0.000416,0.303346,0.026277,315.732690,25.230554,0.999756,0.993122,0.003482,0.394588,-0.000006,-0.000001,-0.000001,-0.000001,-0.000006,-77.013820,0.000008,
2341,2473,1.8322086201768,-3.74387492319105,-0.00701136617487919,0.006554,0.000064,0.002383,0.292471,0.029512,323.585218,23.848179,0.999551,0.987855,0.004241,0.383893,0.000008,-0.000005,0.000012,0.000015,-0.000013,30.951452,0.000016,
2176,3118,-1.86813197455763,10.2815085849644,0.0260695284374037,0.006506,0.000415,-0.000054,0.300335,0.040850,313.667283,24.732830,0.999525,0.993508,0.003403,0.425190,-0.000013,0.000002,-0.000016,0.000012,-0.000023,-58.129511,0.000023,
2401,2788,3.07743720396929,3.12905006457606,-0.0221552483506002,0.006461,-0.000024,0.004498,0.280551,0.033375,318.352907,24.693931,0.999574,0.988433,0.004199,0.369702,-0.000018,-0.000001,-0.000014,0.000007,-0.000026,-60.231604,0.000027,
2041,2893,-4.7623735700652,5.39220324503039,-0.00975259668479111,0.006477,0.000006,0.002825,0.290793,0.030257,317.660284,24.345142,0.999292,0.992128,0.003677,0.385848,-0.000019,0.000027,-0.000016,0.000033,-0.000024,-72.395865,0.000034,
2281,2263,0.562701771484459,-8.3343579214217,-0.00512531632193713,0.006390,0.000302,0.000617,0.291031,0.028679,327.034361,23.727597,0.999480,0.986736,0.004689,0.231100,-0.000031,-0.000034,-0.000022,-0.000010,-0.000055,-43.266798,0.000070,
2116,2983,-3.14774881209354,7.34891204064986,0.0101143260695835,0.006939,0.000431,-0.000756,0.322349,0.046187,315.998183,24.440438,0.999714,0.993975,0.003167,0.459241,-0.000011,0.000010,-0.000012,0.000016,-0.000017,-64.696160,0.000019,
2071,2788,-4.09512376932257,3.11202564188464,-0.0167421141820228,0.006703,0.000344,0.001468,0.304750,0.037706,319.150648,24.367584,0.999362,0.989603,0.004017,0.448935,-0.000032,0.000015,-0.000004,0.000015,-0.000033,-85.081223,0.000033,
2371,2638,2.45404865542189,-0.14105912752342,-0.0230915260605116,0.007146,0.000007,0.001019,0.324509,0.026100,320.809616,24.216614,0.999225,0.987735,0.004361,0.403714,-0.000005,0.000014,-0.000006,0.000016,-0.000006,-72.936085,0.000016,
2161,3178,-2.20338520973922,11.5807815113277,0.0358328152142349,0.006514,-0.000001,0.005288,0.284308,0.041591,312.805864,24.728089,0.999597,0.991493,0.003595,0.406024,-0.000016,0.000011,-0.000006,0.000012,-0.000017,-78.682754,0.000017,
2026,2833,-5.07925842551989,4.0891503196944,-0.0249527265322627,0.006573,0.000155,0.000827,0.300802,0.022814,318.609504,24.360600,0.999712,0.994348,0.003324,0.376242,-0.000038,0.000024,-0.000007,0.000025,-0.000039,-83.253837,0.000040,
2101,2833,-3.45134940744195,4.09230128393258,-0.0214877170955674,0.006764,-0.000238,0.002545,0.304125,0.015743,318.226446,24.429291,0.999643,0.993775,0.003318,0.392022,-0.000029,0.000013,-0.000007,0.000014,-0.000030,-81.140365,0.000030,
2386,2653,2.77737639375235,0.185528203527738,-0.0179996991237203,0.006461,-0.000388,0.003817,0.282834,0.018539,320.575835,24.208116,0.999202,0.986860,0.004502,0.437232,-0.000009,0.000012,-0.000001,0.000012,-0.000009,-86.049914,0.000012,
2206,2053,-1.03546138975128,-12.9381788813082,0.016101819046753,0.006292,0.000351,-0.000428,0.289790,0.015140,330.735451,23.726106,0.998848,0.976564,0.005775,0.274815,-0.000012,-0.000017,0.000004,-0.000009,-0.000020,28.958708,0.000030,
2011,2788,-5.39748319827769,3.11056666033772,-0.0247847325594535,0.006941,0.000211,0.000341,0.319104,0.036798,319.455066,24.377751,0.999558,0.991870,0.003691,0.391049,-0.000041,0.000029,-0.000001,0.000029,-0.000041,-89.137460,0.000042,
2506,2023,5.5283119275969,-13.6053073872847,0.0265086340111225,0.006875,0.000995,-0.002788,0.325254,0.037165,331.430584,21.647553,0.999301,0.972654,0.006303,0.294617,0.000047,-0.000048,-0.000009,0.000047,-0.000049,-5.350245,0.000055,
2236,2158,-0.399224395680136,-10.6361188117989,0.00763485516870333,0.006474,0.000222,-0.000795,0.299418,0.008401,328.916177,23.669287,0.998761,0.982266,0.005288,0.301046,-0.000013,-0.000022,0.000001,-0.000013,-0.000022,4.179741,0.000036,
2176,3223,-1.88497719920658,12.5572973202883,0.0412921330277527,0.006645,0.000268,0.000052,0.306545,0.040902,312.083435,24.860966,0.999759,0.995450,0.002897,0.374201,-0.000020,0.000005,-0.000002,0.000005,-0.000020,-85.208074,0.000021,
2056,2938,-4.44338025464575,6.36968413532124,-0.00516771099893276,0.006675,0.000353,0.000126,0.307562,0.033239,316.896014,24.334322,0.999374,0.992075,0.003640,0.409273,-0.000030,-0.000002,-0.000005,-0.000001,-0.000031,-79.597515,0.000037,
2011,3058,-5.4354286092339,8.96776543719766,0.0275573823024615,0.006842,0.000019,0.000099,0.315511,0.013223,315.501129,24.121037,0.999296,0.992901,0.003498,0.399451,-0.000007,0.000033,0.000007,0.000034,-0.000008,80.071366,0.000036,
2086,2788,-3.76959884196222,3.11302985782967,-0.0206364687343807,0.006824,0.000203,0.001320,0.310624,0.034522,319.045273,24.380776,0.999455,0.990896,0.003878,0.444237,-0.000036,0.000012,-0.000010,0.000014,-0.000038,-78.997776,0.000038,
2461,3163,4.31285213916734,11.2816543269633,0.0267331883302973,0.006632,0.000268,0.000859,0.302002,0.030623,312.744442,26.067897,0.999553,0.990947,0.003746,0.381653,-0.000007,0.000020,0.000009,0.000023,-0.000010,73.511245,0.000023,
2356,2503,2.1536806526981,-3.08894555048374,-0.00812162541217276,0.006842,-0.000378,0.002367,0.305481,0.000440,323.103633,23.864439,0.999494,0.987632,0.004421,0.383178,-0.000003,-0.000004,0.000019,0.000015,-0.000022,43.896541,0.000023,
2416,2863,3.38993036553221,4.76142585028042,-0.0132190929103331,0.006275,0.000021,0.002628,0.278778,0.031204,317.219850,24.924336,0.999387,0.989825,0.003969,0.386114,-0.000012,0.000018,-0.000011,0.000022,-0.000016,-71.286691,0.000022,
2221,2143,-0.722599005190673,-10.965581883543,0.0153079126740181,0.007044,0.000827,-0.002968,0.332644,0.044626,329.287726,23.686296,0.998938,0.982306,0.005251,0.379456,-0.000014,-0.000026,0.000007,-0.000011,-0.000029,24.119575,0.000042,
2011,2608,-5.37236303766383,-0.804824109310395,-0.0333079137361665,0.006032,-0.000452,0.006492,0.260033,0.011355,322.239738,24.555514,0.999547,0.992101,0.003793,0.328041,-0.000005,0.000017,0.000010,0.000021,-0.000009,69.068340,0.000021,
2041,2683,-4.73091050880909,0.828553366607785,-0.0337769663253766,0.006821,0.000684,-0.001966,0.319868,0.044108,320.895160,24.421518,0.999416,0.991253,0.003899,0.430066,-0.000017,-0.000012,0.000008,-0.000006,-0.000022,53.141056,0.000030,
2146,3103,-2.51726069492212,9.95414116082493,0.017393573571951,0.006371,0.000117,0.003539,0.283195,0.044001,313.934206,24.571978,0.999852,0.996635,0.002616,0.461937,-0.000015,0.000006,-0.000012,0.000012,-0.000020,-64.899904,0.000020,
2116,3223,-3.1855843131374,12.5508958188706,0.0429779296056836,0.006698,-0.000048,0.002196,0.302639,0.018796,312.335975,24.480929,0.999644,0.994970,0.003074,0.429904,-0.000013,0.000012,-0.000009,0.000015,-0.000016,-71.277775,0.000018,
2071,2983,-4.12463038277399,7.3465155392786,0.00038439154087655,0.006937,0.000001,0.001445,0.315821,0.021884,316.135110,24.322204,0.999303,0.991894,0.003634,0.432403,-0.000017,0.000000,-0.000009,0.000004,-0.000021,-66.721944,0.000022,
2431,2968,3.69533033970223,7.04572880559998,-0.0161862480128434,0.006207,0.000074,0.002115,0.277598,0.025628,315.499541,25.243624,0.999859,0.995254,0.003044,0.430095,-0.000007,0.000002,0.000000,0.000002,-0.000007,89.987623,0.000007,
2476,3238,4.62255241425062,12.9113109815217,0.0107215857136111,0.006411,0.000216,-0.003018,0.306680,0.026858,311.416140,26.394568,0.999692,0.994010,0.003191,0.394551,0.000005,0.000009,0.000024,0.000031,-0.000017,47.940694,0.000031,
2401,2803,3.07455247504295,3.45526463854433,-0.0236948994386807,0.006399,0.000165,0.001745,0.287792,0.040904,318.102905,24.685537,0.999596,0.990315,0.004022,0.431151,-0.000015,0.000002,-0.000013,0.000009,-0.000022,-61.357014,0.000022,
2311,2293,1.21247173501633,-7.68102394432326,0.00960327143195627,0.006403,-0.000119,0.003833,0.280439,0.033619,326.635588,23.514920,0.999266,0.985691,0.004754,0.384438,-0.000022,-0.000013,-0.000014,-0.000003,-0.000032,-54.336394,0.000039,
2026,2623,-5.04762839630214,-0.478873200501667,-0.0254431730209035,0.006474,0.000080,0.001700,0.293488,0.031764,322.000911,24.473504,0.998943,0.988213,0.004549,0.406356,-0.000003,-0.000001,0.000008,0.000007,-0.000010,49.226260,0.000010,
2056,2953,-4.44558668895194,6.69502366117865,-0.00114036206997525,0.006533,0.000369,-0.000526,0.302921,0.037494,316.681038,24.324500,0.999321,0.992636,0.003560,0.417273,-0.000024,-0.000006,-0.000011,-0.000001,-0.000029,-64.937464,0.000035,
2206,1993,-1.02430978257328,-14.2563338240913,0.0259719217063434,0.006620,0.000518,-0.000463,0.304834,0.031899,331.796097,23.607365,0.999449,0.983748,0.004943,0.328606,0.000002,-0.000042,-0.000003,0.000002,-0.000042,-3.434568,0.000047,
2446,3058,4.00619641642301,9.00185906509818,0.00717459982837454,0.006693,0.000155,0.000708,0.305264,0.030729,314.275313,25.664614,0.999535,0.990416,0.003877,0.360526,-0.000016,0.000029,-0.000003,0.000029,-0.000016,-86.715683,0.000029,
2011,2623,-5.37348856374565,-0.47974983998018,-0.024667102947717,0.006461,-0.000242,0.003833,0.287095,0.025463,322.096618,24.460878,0.999568,0.992279,0.003664,0.425362,-0.000010,-0.000004,0.000009,0.000002,-0.000016,54.169013,0.000018,
2296,2338,0.876550347472616,-6.6954144872884,-0.00237613620072352,0.006596,0.000037,0.002422,0.294394,0.031025,325.834242,23.665334,0.999291,0.985401,0.004762,0.389712,-0.000026,-0.000011,-0.000013,-0.000003,-0.000034,-59.478919,0.000041,
2176,3238,-1.88800545103887,12.8818568666894,0.0386732061466546,0.006495,0.000074,0.001886,0.293872,0.027699,311.803579,24.828447,0.999741,0.994970,0.002999,0.404494,-0.000022,0.000002,-0.000003,0.000002,-0.000022,-81.791148,0.000024,
2296,2458,0.854097984107629,-4.07153776073236,-0.0136715157478875,0.006867,-0.000082,0.003474,0.303437,0.015460,323.807644,23.942135,0.999350,0.988112,0.004463,0.350463,-0.000008,-0.000008,-0.000002,-0.000006,-0.000010,-42.901821,0.000016,
2251,2233,-0.0849519253113407,-8.99330756964188,0.00155168000532058,0.006880,0.000667,-0.003593,0.327456,0.027659,327.656361,23.662323,0.998468,0.979973,0.005643,0.375825,-0.000025,-0.000027,-0.000026,0.000000,-0.000051,-43.824369,0.000059,
2056,2698,-4.40701073043097,1.1543828020659,-0.0218434136897372,0.006648,0.000534,-0.000662,0.308270,0.057814,320.653472,24.390661,0.999354,0.990947,0.003845,0.465772,-0.000010,-0.000008,0.000009,0.000000,-0.000018,47.593287,0.000021,
2101,2848,-3.45392795872105,4.41850019876949,-0.0252117784074812,0.006610,0.000666,-0.000986,0.307679,0.047648,317.954916,24.387333,0.999825,0.994377,0.003075,0.466917,-0.000032,0.000019,-0.000006,0.000019,-0.000033,-83.735904,0.000033,
2131,3058,-2.83470835829519,8.97737998235383,0.0176687898751879,0.006542,0.000070,0.000561,0.300009,0.020534,314.749991,24.566324,0.999348,0.992807,0.003642,0.372239,-0.000005,0.000009,-0.000013,0.000016,-0.000013,-59.417814,0.000017,
2206,2068,-1.03733478035497,-12.6104984764072,0.0241772058286642,0.006305,0.000593,-0.001595,0.294131,0.030862,330.566347,23.697910,0.999080,0.979167,0.005551,0.338418,-0.000011,-0.000010,0.000008,-0.000003,-0.000018,46.983620,0.000023,
2146,3133,-2.52143619944297,10.6042558629623,0.0275293684231315,0.006535,0.000252,0.003100,0.292115,0.039464,313.537904,24.613162,0.999576,0.993908,0.003362,0.429853,-0.000014,0.000008,-0.000007,0.000010,-0.000016,-72.769508,0.000016,
2476,3253,4.61889201681244,13.2366733056362,0.00924917622933208,0.006235,0.000123,0.000821,0.283898,0.027605,311.134399,26.439296,0.999746,0.993411,0.003186,0.405691,0.000011,0.000016,0.000026,0.000040,-0.000013,47.839412,0.000041,
2221,2338,-0.759722353919958,-6.69283228667194,-0.0243200788235072,0.006264,0.000822,-0.002134,0.294602,0.018939,325.775916,24.007265,0.999685,0.990311,0.004070,0.311858,-0.000017,-0.000013,-0.000015,0.000000,-0.000030,-48.815021,0.000035,
2101,2908,-3.46206994307757,5.7208510845034,-0.00498997256380562,0.006848,0.000355,-0.001052,0.318857,0.041842,317.159590,24.428319,0.999313,0.992533,0.003845,0.423501,-0.000015,0.000014,-0.000011,0.000017,-0.000019,-71.265361,0.000021,
2236,2413,-0.446309086800532,-5.0519401812075,-0.0345676967316422,0.006599,0.000477,-0.002623,0.311611,0.019423,324.461271,24.131050,0.999623,0.991242,0.003793,0.248080,-0.000027,-0.000005,-0.000018,0.000006,-0.000037,-60.430224,0.000040,
2116,2998,-3.15093299713497,7.67574189242649,0.00171474279665063,0.006644,0.000862,-0.002511,0.314147,0.070444,315.674753,24.475526,0.999497,0.992893,0.003443,0.451394,-0.000012,0.000015,-0.000006,0.000016,-0.000013,-78.150229,0.000017,
2071,2803,-4.09790002952369,3.43888584929761,-0.0223876745993152,0.006671,0.000140,0.001969,0.301844,0.039901,318.856880,24.386317,0.999359,0.990872,0.003898,0.429241,-0.000030,0.000011,-0.000004,0.000012,-0.000031,-84.264010,0.000031,
2506,2038,5.52513925345157,-13.2776922326943,0.0352431885980877,0.006468,0.000209,0.001762,0.288857,0.017042,331.225740,21.649738,0.999152,0.971104,0.006473,0.336594,0.000036,-0.000013,-0.000014,0.000040,-0.000016,-14.790003,0.000040,
2011,2638,-5.37596985410703,-0.152036034837067,-0.0352627970210051,0.006530,0.000207,-0.001430,0.304653,0.009324,321.782916,24.479325,0.998980,0.987289,0.004498,0.379550,0.000000,-0.000014,0.000011,0.000005,-0.000020,28.777317,0.000020,
2086,2833,-3.77641429040613,4.09141818116717,-0.0142640747313294,0.006816,-0.000021,0.002126,0.307971,0.031724,318.364911,24.437962,0.999770,0.994881,0.003029,0.380791,-0.000033,0.000014,-0.000009,0.000015,-0.000035,-79.243454,0.000035,
2416,2878,3.38701011193196,5.0880874467959,-0.0152421643757634,0.006498,0.000151,0.003045,0.287641,0.054941,316.966664,24.959255,0.999466,0.990824,0.003772,0.422554,-0.000014,0.000008,-0.000006,0.000010,-0.000015,-76.619832,0.000016,
2131,3013,-2.82759513934097,8.00206139108962,0.00539251901159332,0.006756,0.000644,-0.003149,0.321224,0.053191,315.401870,24.542946,0.999384,0.991764,0.003711,0.414102,-0.000006,0.000019,-0.000003,0.000019,-0.000007,-82.818714,0.000020,
2041,2908,-4.76388345730776,5.71798092088208,-0.00832346055580047,0.007017,0.000467,-0.000210,0.324345,0.048885,317.461605,24.330683,0.999502,0.992426,0.003499,0.410937,-0.000014,0.000012,-0.000020,0.000023,-0.000025,-61.132066,0.000028,
2341,2488,1.82970750605643,-3.41722749801266,-0.00421977570999843,0.006580,0.000130,0.001528,0.296680,0.033173,323.370034,23.821425,0.999520,0.987518,0.004217,0.452232,0.000005,-0.000004,0.000015,0.000016,-0.000015,36.471612,0.000018,
2026,2638,-5.04947568390026,-0.153376016110741,-0.0180475565239817,0.006324,0.000386,-0.000179,0.291819,0.028930,321.818664,24.427880,0.999207,0.990779,0.004029,0.439872,0.000005,-0.000009,0.000010,0.000010,-0.000014,27.246275,0.000014,
2236,2218,-0.40932780605738,-9.32228131178801,0.00606546715687273,0.006855,0.000230,-0.001226,0.318369,0.020924,327.955852,23.703240,0.998839,0.983803,0.005124,0.374881,-0.000014,-0.000013,-0.000014,0.000001,-0.000028,-46.357266,0.000032,
2371,2653,2.45043011905038,0.186512713826744,-0.0279856750753993,0.006795,0.000145,0.001245,0.307660,0.027395,320.507790,24.264399,0.999276,0.987767,0.004436,0.398918,-0.000007,0.000012,-0.000004,0.000013,-0.000008,-77.693709,0.000013,
2011,2803,-5.40026392016484,3.43627563744448,-0.0309497453910126,0.006752,0.000001,-0.000130,0.311614,0.008019,319.153337,24.316886,0.999542,0.992361,0.003585,0.411339,-0.000033,0.000012,0.000002,0.000013,-0.000033,87.043058,0.000033,
2251,2293,-0.0962185267320201,-7.68058992107575,0.00459824321660562,0.006340,0.000120,0.002067,0.284113,0.030308,326.670814,23.758159,0.999072,0.984243,0.005007,0.385176,-0.000016,-0.000014,-0.000016,0.000001,-0.000031,-46.851090,0.000036,
2041,2698,-4.733290831085,1.15492164110889,-0.0315561587167394,0.006699,0.000426,-0.000334,0.309666,0.048284,320.660545,24.423780,0.999390,0.991082,0.003844,0.424686,-0.000007,-0.000009,0.000008,0.000000,-0.000016,41.997169,0.000019,
2161,3223,-2.21024229927325,12.555218734508,0.0425642760119445,0.006656,0.000087,0.002223,0.300319,0.027189,312.142233,24.735570,0.999681,0.994762,0.003000,0.410463,-0.000016,0.000005,-0.000005,0.000007,-0.000018,-76.616456,0.000018,
2461,3178,4.30982955999773,11.6072947178974,0.0281477692868748,0.006606,0.000162,0.001973,0.296582,0.034714,312.504624,26.131160,0.999594,0.991894,0.003663,0.375576,-0.000009,0.000021,0.000008,0.000023,-0.000011,75.983238,0.000023,
2356,2518,2.15097429175426,-2.76129320572925,-0.0102218688383573,0.006839,0.000076,-0.001467,0.319039,0.003598,322.856324,23.895773,0.999328,0.985966,0.004631,0.394968,-0.000009,-0.000006,0.000016,0.000008,-0.000024,47.466613,0.000024,
2431,2983,3.693529124524,7.37071276817961,-0.00490482049326602,0.006336,0.000183,0.000554,0.289340,0.023618,315.360946,25.271798,0.999704,0.991701,0.003591,0.449076,-0.000012,0.000009,-0.000001,0.000009,-0.000012,-86.174551,0.000012,
2266,2188,0.250962851955727,-9.9796885393962,0.0152542451383511,0.007083,-0.000078,0.002040,0.317884,0.020541,328.461686,23.585134,0.999172,0.983838,0.005104,0.290270,-0.000023,-0.000022,-0.000013,-0.000010,-0.000036,-45.365429,0.000048,
2281,2398,0.538292002700885,-5.3834132498303,-0.0047708174510035,0.006424,-0.000287,0.003706,0.282302,0.026817,324.848544,23.856700,0.999134,0.985451,0.005015,0.367579,-0.000024,-0.000003,-0.000007,-0.000001,-0.000025,-73.883503,0.000030,
2116,3238,-3.18879338708421,12.8763866434145,0.0368482702932624,0.006476,-0.000028,0.003812,0.287648,0.024737,312.024058,24.493965,0.999667,0.995076,0.002922,0.424890,-0.000015,0.000008,-0.000011,0.000013,-0.000019,-67.593207,0.000020,
2071,2998,-4.12610771045295,7.67163626275916,0.0156510411578665,0.006781,0.000444,-0.000327,0.313901,0.048319,316.016295,24.357715,0.999488,0.992983,0.003378,0.419407,-0.000019,0.000009,-0.000004,0.000009,-0.000019,-82.033131,0.000019,
2281,2638,0.494379991688533,-0.144233145834555,-0.0210198263749248,0.006722,0.000175,0.000558,0.307078,0.023283,320.848482,24.294097,0.999301,0.986249,0.004387,0.388785,-0.000006,0.000011,-0.000007,0.000013,-0.000009,-71.221870,0.000013,
2476,3268,4.61549283149067,13.5626369899721,0.00685429356366285,0.006297,0.000018,0.003436,0.276773,0.031256,310.860205,26.535472,0.999863,0.995437,0.002780,0.368208,0.000016,0.000002,0.000024,0.000034,-0.000016,36.986948,0.000034,
2221,2158,-0.725471207608184,-10.6366919044101,0.0137610652930107,0.006926,0.000545,-0.001930,0.323865,0.027012,329.024731,23.728379,0.998896,0.984553,0.005207,0.341881,-0.000015,-0.000021,0.000000,-0.000015,-0.000021,4.690080,0.000036,
2176,3133,-1.87009714867579,10.6070762209113,0.0316961344743731,0.006692,0.000571,-0.000596,0.310760,0.064487,313.479262,24.779971,0.999436,0.993201,0.003595,0.412895,-0.000013,0.000000,-0.000012,0.000007,-0.000021,-58.991929,0.000021,
2401,2818,3.07223395235306,3.7816140354388,-0.0184548534670057,0.006602,0.000138,0.001938,0.296446,0.046173,317.910822,24.748010,0.999522,0.989680,0.004192,0.419441,-0.000014,0.000006,-0.000012,0.000011,-0.000020,-65.007025,0.000020,
2326,2428,1.51284400095924,-4.72573593641137,-0.0194118585864089,0.006652,0.000307,0.001968,0.298545,0.050694,324.219825,23.770453,0.999567,0.990140,0.004173,0.411218,0.000005,-0.000002,0.000004,0.000007,-0.000004,23.588017,0.000007,
2266,2323,0.225971800730015,-7.02396977915595,0.0102559761551788,0.006635,-0.000175,0.004962,0.287909,0.029610,326.212201,23.840921,0.998625,0.980069,0.005764,0.295117,-0.000021,-0.000027,-0.000016,-0.000008,-0.000040,-39.679952,0.000052,
2056,2713,-4.4093917834469,1.48161765704121,-0.0271829860415664,0.006946,0.000524,-0.000233,0.320791,0.055520,320.378025,24.421472,0.999167,0.989814,0.003972,0.427548,-0.000003,0.000005,0.000012,0.000013,-0.000012,54.032624,0.000014,
2026,2653,-5.05192415315411,0.173977960219389,-0.0281735934376002,0.006759,0.000149,0.000039,0.311236,0.021729,321.510710,24.413644,0.999284,0.991395,0.003837,0.437955,-0.000001,0.000000,0.000008,0.000008,-0.000009,47.449947,0.000009,
2311,2308,1.2087500530487,-7.35063582922347,-0.0093958290366345,0.006737,0.000042,0.002191,0.301450,0.042629,326.255215,23.548406,0.999372,0.987568,0.004701,0.394743,-0.000024,-0.000023,-0.000010,-0.000014,-0.000033,-45.284028,0.000048,
2131,3073,-2.83725905533205,9.3027963040492,0.018338303956682,0.006422,0.000368,0.000334,0.295263,0.028935,314.506013,24.568380,0.999666,0.994433,0.003290,0.383217,-0.000006,0.000013,-0.000012,0.000019,-0.000012,-64.430795,0.000019,
2506,2053,5.52078424531785,-12.9479442874431,0.0373261654894463,0.005952,-0.001374,0.012034,0.225034,0.002649,330.936915,21.770932,0.999135,0.981525,0.005553,0.265982,0.000031,-0.000021,-0.000011,0.000033,-0.000024,-11.843010,0.000034,
2086,2848,-3.77858790665565,4.41632623290523,-0.00782418733473378,0.006693,0.000212,0.003258,0.299094,0.041049,318.166520,24.375014,0.999693,0.993581,0.003303,0.451999,-0.000037,0.000022,-0.000008,0.000023,-0.000038,-82.139776,0.000038,
2101,2863,-3.45550806033101,4.74426709071148,-0.0147966604906173,0.006851,0.000516,0.000100,0.315597,0.042881,317.805902,24.451585,0.999669,0.992754,0.003490,0.398642,-0.000027,0.000021,-0.000004,0.000021,-0.000027,-84.660010,0.000029,
2386,2668,2.77416319448578,0.513022537537886,-0.0196761386684443,0.006232,-0.000006,0.003268,0.274432,0.029939,320.309168,24.270193,0.999367,0.988338,0.004289,0.430509,-0.000011,0.000016,-0.000005,0.000016,-0.000011,-80.334826,0.000017,
2161,2038,-2.014820867886,-13.2663237166366,0.0194948070732153,0.006436,0.000041,0.003602,0.284013,0.018412,331.135508,24.026743,0.999211,0.984971,0.004839,0.254100,0.000008,-0.000042,0.000003,0.000008,-0.000042,3.271729,0.000045,
2341,2503,1.82650535515026,-3.08909405968439,-0.01264363997592,0.006802,-0.000064,0.001107,0.308304,0.015718,323.068108,23.854597,0.999367,0.986550,0.004409,0.439435,-0.000001,-0.000004,0.000015,0.000013,-0.000018,42.476624,0.000019,
2041,2713,-4.73569244362396,1.48143670860286,-0.0351332327290947,0.006855,-0.000011,0.000382,0.314712,0.017475,320.392875,24.431606,0.999191,0.989930,0.004117,0.378755,-0.000001,0.000006,0.000011,0.000014,-0.000009,53.995495,0.000014,
2026,2848,-5.08234454683081,4.4138821058948,-0.0421572472634466,0.006467,0.000521,-0.004746,0.311317,0.009808,318.233799,24.126623,0.999723,0.995395,0.003144,0.587735,-0.000043,0.000046,-0.000009,0.000047,-0.000043,-84.407024,0.000052,
2101,2923,-3.46490809112217,6.04652268909626,-0.00354829423292813,0.006423,0.000217,0.000236,0.295492,0.032932,316.904397,24.436946,0.999227,0.991012,0.003980,0.406695,-0.000021,0.000007,-0.000007,0.000009,-0.000022,-77.217736,0.000023,
2431,2998,3.69126283432911,7.69703831764301,0.00159601192422087,0.006709,-0.000087,0.002893,0.297799,0.029961,315.178253,25.385416,0.999424,0.985565,0.004424,0.391196,-0.000014,0.000009,-0.000002,0.000009,-0.000014,-86.105191,0.000014,
2131,3028,-2.83020486610074,8.32703394523647,0.00933961295476138,0.006709,0.000269,0.001996,0.303480,0.040934,315.172891,24.535413,0.999472,0.991634,0.003716,0.413945,-0.000004,0.000015,-0.000005,0.000016,-0.000006,-76.038669,0.000017,
2011,2653,-5.37816036992114,0.174291017391262,-0.0374986251734413,0.006790,0.000167,0.000019,0.312731,0.013082,321.529777,24.427009,0.998808,0.986828,0.004635,0.424168,-0.000005,0.000001,0.000010,0.000009,-0.000012,53.512770,0.000012,
2176,3253,-1.89118891130587,13.2074111517699,0.0307877327612118,0.006515,0.000175,0.003205,0.290780,0.038020,311.488501,24.838904,0.999697,0.994824,0.003117,0.415193,-0.000021,0.000002,-0.000004,0.000002,-0.000022,-80.440230,0.000024,
2296,2713,0.805626582644134,1.49131300515286,-0.0363245948210533,0.006446,0.000032,0.002284,0.288613,0.027025,319.465875,24.386744,0.999776,0.993181,0.003472,0.441455,-0.000010,0.000016,-0.000009,0.000019,-0.000012,-72.823842,0.000019,
2296,2473,0.851095927033008,-3.74356395143201,-0.0168539920476292,0.006637,0.000491,0.000906,0.301780,0.020128,323.536369,23.976052,0.998733,0.983676,0.005181,0.352641,-0.000003,-0.000015,-0.000003,-0.000002,-0.000016,-15.389976,0.000020,
2011,3073,-5.43808026160872,9.293145024233,0.0236569251886181,0.006780,-0.000095,0.001118,0.309948,0.023731,315.218513,24.084860,0.999269,0.993549,0.003510,0.433287,-0.000002,0.000047,0.000011,0.000050,-0.000004,78.072340,0.000055,
2086,2803,-3.77208607531835,3.43948693459479,-0.0157840737588231,0.006560,0.000172,0.003596,0.291906,0.043587,318.823333,24.436862,0.999336,0.990971,0.003855,0.395956,-0.000035,0.000010,-0.000008,0.000012,-0.000036,-79.990065,0.000037,
2356,2533,2.14762729086435,-2.43401353045474,-0.0114856159603391,0.006581,0.000077,0.000530,0.300187,0.021879,322.583601,23.890564,0.999363,0.986666,0.004592,0.458571,-0.000009,-0.000011,0.000011,0.000001,-0.000021,42.583512,0.000024,
2206,2083,-1.04024560618465,-12.2812075136698,0.0164624525911563,0.006509,0.000328,-0.000957,0.301425,0.024654,330.268562,23.668885,0.998963,0.978346,0.005702,0.381737,-0.000009,-0.000009,0.000003,-0.000006,-0.000012,48.042696,0.000018,
2506,2068,5.51975780155677,-12.6201401361936,0.0557079478332412,0.006482,-0.001234,0.011945,0.249656,0.020010,330.872990,21.868582,0.999285,0.983861,0.005212,0.249149,0.000021,-0.000013,-0.000021,0.000031,-0.000023,-25.234218,0.000032,
2281,2413,0.535745468397781,-5.05609272946322,-0.00482029707512766,0.006407,-0.000195,0.001406,0.289264,-0.005382,324.612866,23.875812,0.999309,0.987248,0.004615,0.345434,-0.000022,-0.000009,-0.000006,-0.000006,-0.000025,-67.145671,0.000033,
2026,2668,-5.05414910544755,0.499717464196081,-0.0259365745974947,0.006773,-0.000186,0.001915,0.306628,0.004153,321.282437,24.370467,0.999254,0.990583,0.003935,0.453969,-0.000004,-0.000009,0.000013,0.000007,-0.000020,40.572281,0.000020,
2011,2818,-5.40266785080922,3.76207053692162,-0.0323814209810394,0.006727,0.000150,0.000484,0.308848,0.018251,318.895350,24.266280,0.999298,0.991188,0.003750,0.460102,-0.000031,0.000005,-0.000003,0.000006,-0.000031,-85.410348,0.000034,
2401,2833,3.06899259590706,4.10889913318519,-0.0241250573719185,0.006673,0.000360,0.001161,0.302577,0.032628,317.624578,24.836740,0.999318,0.988927,0.004218,0.362492,-0.000015,0.000010,-0.000011,0.000015,-0.000019,-69.009509,0.000020,
2161,3238,-2.2133945456628,12.8804797214039,0.0366106695927328,0.006515,-0.000177,0.003063,0.291109,0.011145,311.837656,24.751302,0.999721,0.994660,0.003009,0.387375,-0.000018,0.000003,-0.000007,0.000005,-0.000020,-72.066907,0.000021,
2056,2728,-4.41205371628719,1.80824704180716,-0.0311185721666334,0.006845,0.000419,-0.000307,0.316360,0.045046,320.097655,24.421500,0.999315,0.990380,0.003885,0.412004,-0.000010,0.000004,0.000016,0.000015,-0.000020,56.508787,0.000021,
2176,2113,-1.70014685823579,-11.6226276103764,0.0128324116389535,0.006450,0.000012,0.000657,0.293670,0.023384,329.835806,23.878558,0.999092,0.980071,0.005551,0.386581,0.000007,-0.000008,0.000009,0.000011,-0.000012,24.909330,0.000013,
2071,3013,-4.12862602280803,7.99685463198202,0.021390905626447,0.006476,0.000622,0.002654,0.291418,0.070903,315.797468,24.344287,0.999440,0.992086,0.003551,0.451206,-0.000010,0.000008,-0.000003,0.000009,-0.000011,-80.683720,0.000011,
2446,3073,4.0028677223494,9.32713958401436,0.0042801002502415,0.006758,-0.000095,0.002695,0.300700,0.018803,314.001112,25.657360,0.999724,0.993403,0.003374,0.407140,-0.000014,0.000025,-0.000004,0.000025,-0.000014,-84.396971,0.000025,
2041,2923,-4.76619873720101,6.04298806025086,-0.00774747650791596,0.006895,0.000490,-0.001760,0.323008,0.031575,317.221629,24.279283,0.999474,0.992666,0.003497,0.437076,-0.000023,-0.000005,-0.000015,0.000003,-0.000032,-60.312724,0.000035,
2146,3148,-2.52435734060864,10.9298496472924,0.0234373784374498,0.006492,0.000308,0.004380,0.286296,0.045734,313.252541,24.623920,0.999570,0.993214,0.003421,0.432059,-0.000014,0.000010,-0.000003,0.000010,-0.000014,-82.034902,0.000015,
2251,2488,-0.131089316537789,-3.41914014946813,-0.00636180493984284,0.006601,-0.000078,0.002145,0.296099,0.020202,323.439913,23.998848,0.999651,0.990058,0.003888,0.459817,-0.000018,-0.000004,-0.000007,-0.000001,-0.000022,-66.846305,0.000026,
2131,3283,-2.87253742725717,13.8539485894527,0.0178500225354696,0.006479,0.000313,0.004347,0.286211,0.044710,311.058975,24.612854,0.999694,0.995435,0.002886,0.416404,-0.000021,0.000018,-0.000009,0.000020,-0.000024,-77.162268,0.000025,
2416,2893,3.38459067240682,5.41439974555931,-0.0131536948974826,0.006822,0.000145,0.002584,0.304210,0.041022,316.755858,25.034063,0.999519,0.990609,0.003829,0.381111,-0.000014,0.000001,-0.000004,0.000002,-0.000015,-75.830374,0.000017,
2206,2008,-1.02654064849105,-13.9285862437029,0.030900515009705,0.006557,0.000087,-0.000670,0.302496,0.000727,331.594794,23.575990,0.999332,0.981096,0.005254,0.348909,-0.000008,-0.000022,0.000014,0.000001,-0.000030,31.790778,0.000035,
2176,3268,-1.89471257972523,13.5329194298551,0.0169316624871385,0.006590,-0.000033,0.004365,0.290604,0.033215,311.126377,24.832155,0.999634,0.994137,0.003202,0.427958,-0.000017,0.000002,-0.000007,0.000004,-0.000020,-72.269642,0.000021,
2011,3088,-5.44022949385755,9.61834666897886,0.0323994746564154,0.006566,0.000090,0.003686,0.293183,0.042561,315.030175,24.108798,0.999613,0.994938,0.003048,0.415201,-0.000004,0.000034,0.000004,0.000035,-0.000004,83.824433,0.000038,
2236,2428,-0.447894463649124,-4.72753798399942,-0.0171216053912531,0.006652,0.000110,0.001259,0.301416,0.020752,324.355300,24.020823,0.999475,0.990165,0.004039,0.381625,-0.000021,-0.000019,-0.000022,0.000002,-0.000042,-46.506907,0.000048,
2476,3283,4.61368044386971,13.8870032666552,0.0185920523428535,0.006420,0.000065,0.001895,0.288308,0.025032,310.724098,26.574750,0.999850,0.995936,0.002799,0.377910,0.000026,-0.000037,0.000025,0.000035,-0.000046,19.094964,0.000048,
2341,2518,1.82383960333193,-2.76079034299197,-0.0108959394024737,0.006826,0.000175,0.001187,0.309223,0.026070,322.839868,23.973270,0.999001,0.983446,0.004807,0.368718,-0.000007,-0.000008,0.000012,0.000005,-0.000019,43.520389,0.000020,
2161,3253,-2.2166169429919,13.206157378859,0.0223238948966582,0.006702,0.000118,0.001512,0.304650,0.023110,311.485570,24.735599,0.999703,0.994454,0.003084,0.423810,-0.000017,0.000002,-0.000008,0.000006,-0.000020,-69.685175,0.000021,
2011,2833,-5.40393904200877,4.08844496347476,-0.0184770142599859,0.006789,0.000365,-0.001313,0.316671,0.017144,318.775254,24.400157,0.999714,0.994675,0.003305,0.312765,-0.000033,0.000020,-0.000004,0.000020,-0.000033,-85.947802,0.000033,
2056,2743,-4.41470237120712,2.13390241670876,-0.0322213879730384,0.006615,0.000081,0.000132,0.304373,0.012437,319.833860,24.381819,0.999421,0.991386,0.003785,0.413876,-0.000019,0.000006,0.000012,0.000011,-0.000024,67.554755,0.000024,
2116,3253,-3.19138545078551,13.2023836872944,0.032400128001882,0.006519,0.000302,0.001617,0.296366,0.051301,311.749338,24.547028,0.999736,0.996353,0.002600,0.400271,-0.000016,0.000011,-0.000016,0.000018,-0.000023,-64.950934,0.000024,
2131,3298,-2.8747526967685,14.1781990327677,0.0177142668786132,0.006644,0.000059,0.002145,0.300434,0.035701,310.826536,24.577137,0.999627,0.994098,0.003177,0.447032,-0.000014,0.000031,-0.000001,0.000031,-0.000014,-89.226763,0.000031,
2071,2818,-4.09983317576372,3.76493368344249,-0.0219960229269418,0.006753,0.000688,-0.003148,0.320454,0.049434,318.635068,24.374184,0.999399,0.991557,0.003905,0.447543,-0.000030,0.000015,-0.000006,0.000015,-0.000031,-82.801589,0.000031,
2371,2668,2.44720593538579,0.513118521696619,-0.0261716116291382,0.006243,0.000062,0.000565,0.284728,0.012018,320.256332,24.301220,0.999401,0.989117,0.004305,0.388321,-0.000009,0.000017,-0.000007,0.000019,-0.000011,-75.441247,0.000019,
2266,2563,0.181612990654063,-1.7817775530213,-0.0131361543496382,0.006429,0.000042,0.000971,0.292146,0.015212,322.138617,24.086437,0.999558,0.990538,0.003965,0.467596,-0.000013,0.000000,-0.000008,0.000004,-0.000017,-64.277421,0.000018,
2251,2308,-0.0984080236350167,-7.35264604767755,0.00703646016108905,0.006513,0.000116,0.000671,0.296625,0.024442,326.461593,23.796337,0.998449,0.981070,0.005528,0.366365,-0.000017,-0.000019,-0.000014,-0.000004,-0.000032,-42.227568,0.000040,
2431,3013,3.68835368652288,8.0232054661904,0.00200676830627344,0.006597,0.000053,0.001122,0.299230,0.024881,314.937613,25.458299,0.999335,0.986631,0.004303,0.362420,-0.000014,0.000009,-0.000003,0.000010,-0.000015,-82.192473,0.000015,
2281,2653,0.491986422036589,0.183147002753095,-0.0236763122085222,0.006966,0.000765,-0.003063,0.330645,0.030245,320.606042,24.335799,0.999414,0.989114,0.004109,0.382480,-0.000007,0.000011,-0.000001,0.000012,-0.000007,-86.446995,0.000012,
2011,3103,-5.44237251527119,9.94381754733202,0.0331309811068081,0.006563,0.000443,0.001666,0.298721,0.061038,314.796963,24.110268,0.999565,0.994726,0.003088,0.419136,-0.000003,0.000051,0.000008,0.000052,-0.000005,82.002213,0.000058,
2041,2728,-4.73761111246317,1.80747495882871,-0.02900415437216,0.006870,0.000393,0.000568,0.315039,0.035281,320.201169,24.430181,0.999435,0.991063,0.003677,0.390747,-0.000006,0.000007,0.000017,0.000019,-0.000018,55.389991,0.000021,
2356,2548,2.14459912728707,-2.10694261547003,-0.00971132049852486,0.006397,-0.000083,0.002379,0.285190,0.013188,322.340196,23.925035,0.999245,0.986843,0.004587,0.455143,-0.000007,-0.000009,0.000010,0.000002,-0.000017,42.005530,0.000019,
2506,2083,5.51626011223855,-12.2908796673719,0.0410223406665295,0.006598,0.000044,0.003194,0.289230,0.046318,330.548550,21.728516,0.999368,0.984923,0.004903,0.480342,0.000008,-0.000032,-0.000020,0.000016,-0.000040,-22.255183,0.000040,
2236,2233,-0.412666823130227,-8.99301835960033,-0.00341575956105089,0.006784,0.000223,-0.001372,0.315617,0.015643,327.632263,23.713045,0.998838,0.984021,0.005018,0.383835,-0.000019,-0.000020,-0.000018,-0.000002,-0.000037,-44.526198,0.000044,
2056,2968,-4.44765935948602,7.02010783574404,0.00210672783578048,0.006751,0.000223,0.001684,0.306619,0.016203,316.468037,24.314818,0.999262,0.991803,0.003651,0.399740,-0.000018,0.000001,-0.000013,0.000007,-0.000024,-63.295231,0.000025,
2221,2353,-0.76196784726076,-6.36754539832094,-0.0113318244290213,0.006201,-0.000363,0.005266,0.267682,0.014034,325.616175,23.921019,0.999493,0.988888,0.004300,0.413377,-0.000018,-0.000008,-0.000016,0.000003,-0.000030,-54.494222,0.000032,
2476,3298,4.60977771187255,14.213412114651,0.00257205524741266,0.006608,0.000619,-0.001518,0.310272,0.046902,310.364218,26.627751,0.999633,0.993468,0.003436,0.402144,0.000025,-0.000046,0.000024,0.000032,-0.000053,17.282753,0.000053,
2461,3193,4.30707189995771,11.9322358794129,0.0290537716629728,0.006708,0.000197,0.000966,0.305186,0.046361,312.274830,26.122963,0.999583,0.991559,0.003633,0.448808,-0.000009,0.000026,0.000008,0.000028,-0.000011,77.031376,0.000028,
2221,2173,-0.727877266215376,-10.3085449690345,0.0129353014829121,0.006908,0.000901,-0.005288,0.333924,0.031502,328.786716,23.693711,0.998983,0.983848,0.005115,0.402646,-0.000015,-0.000015,0.000003,-0.000012,-0.000018,46.071264,0.000030,
2041,2938,-4.76944751240406,6.36880367968104,-0.0093525788028046,0.006331,0.000352,0.002537,0.285080,0.045871,316.926441,24.259579,0.999229,0.991657,0.003768,0.463003,-0.000027,-0.000009,-0.000007,-0.000007,-0.000029,-70.865765,0.000038,
2086,2863,-3.78086157882894,4.74331096234748,-0.0110854085222627,0.006935,0.000318,0.001925,0.314213,0.049300,317.910055,24.435466,0.999520,0.991224,0.003832,0.398540,-0.000030,0.000023,-0.000006,0.000024,-0.000031,-83.275262,0.000032,
2161,2053,-2.01658730005859,-12.9384965880732,0.0240070281330986,0.006595,0.000140,0.000463,0.300919,0.013568,330.949643,23.986786,0.999197,0.984660,0.004874,0.302665,0.000005,-0.000025,0.000010,0.000008,-0.000028,16.515499,0.000029,
2311,2323,1.2061591844919,-7.02324780789369,-0.00379420140831144,0.006562,-0.000373,0.003331,0.289427,0.008797,326.047942,23.601928,0.999161,0.984486,0.005009,0.341488,-0.000022,-0.000027,-0.000009,-0.000016,-0.000034,-36.492946,0.000051,
2281,2428,0.533144549211244,-4.72821559822964,-0.00445458997796777,0.006438,0.000178,0.000876,0.292632,0.020153,324.376401,23.897148,0.999531,0.989303,0.004259,0.379154,-0.000016,-0.000017,-0.000012,-0.000005,-0.000028,-44.403891,0.000036,
2101,2878,-3.45855462786109,5.0695096072171,-0.0160743128938634,0.006363,0.000138,0.001037,0.290231,0.022271,317.526572,24.400769,0.999683,0.992663,0.003563,0.429854,-0.000020,0.000033,-0.000005,0.000034,-0.000020,-84.394684,0.000034,
2296,2728,0.803388973571575,1.81754101012771,-0.0296452626452606,0.006363,-0.000042,0.001065,0.288881,0.013490,319.278239,24.443301,0.999625,0.991583,0.003703,0.401428,-0.000012,0.000008,-0.000008,0.000011,-0.000015,-70.937074,0.000016,
2086,3058,-3.8099361494708,8.97313920534616,0.0204863667117934,0.006991,0.000107,-0.000141,0.322918,0.012541,315.009215,24.342994,0.999534,0.993052,0.003348,0.433698,-0.000001,0.000009,-0.000014,0.000019,-0.000011,-55.753777,0.000019,
2011,3118,-5.44485842196083,10.2690364269662,0.0285428243134902,0.006732,0.000187,0.002964,0.302854,0.040371,314.518237,24.098342,0.999663,0.995311,0.002927,0.397473,-0.000003,0.000072,0.000014,0.000075,-0.000006,79.532225,0.000083,
2326,2443,1.51077921889072,-4.39895318319843,-0.0143285394260033,0.006777,0.000495,-0.000719,0.313645,0.050051,324.034823,23.768370,0.999377,0.988577,0.004439,0.448358,0.000008,-0.000008,0.000005,0.000009,-0.000009,15.282941,0.000011,
2416,2908,3.38148889587616,5.7400634629586,-0.0162889135193041,0.006829,-0.000144,0.001486,0.308421,0.015451,316.489308,25.027286,0.999621,0.991374,0.003677,0.409559,-0.000013,0.000004,-0.000002,0.000004,-0.000013,-82.638921,0.000013,
2101,2938,-3.46718263688796,6.37287723218324,-0.00607474096420901,0.006601,0.000653,-0.001884,0.310016,0.038643,316.653315,24.469718,0.999217,0.990824,0.004004,0.380327,-0.000024,0.000009,-0.000005,0.000009,-0.000025,-81.314407,0.000025,
2026,2683,-5.05769143053155,0.828932578716859,-0.0432989008799609,0.006594,-0.000129,0.002705,0.296310,0.037378,320.883392,24.438323,0.999797,0.995521,0.003037,0.410318,-0.000014,-0.000014,0.000012,-0.000002,-0.000026,44.071904,0.000031,
2146,1993,-2.3342506939462,-14.2549995789526,0.0301600866025638,0.006254,0.000038,0.002825,0.278067,0.024791,331.994522,24.054961,0.999238,0.982986,0.005008,0.296114,0.000039,-0.000066,-0.000001,0.000039,-0.000066,-0.450652,0.000067,
2011,2668,-5.37977573497926,0.49994620102602,-0.0303305160254581,0.007034,-0.000122,0.000844,0.321697,0.017535,321.355945,24.395356,0.998929,0.987634,0.004412,0.448641,-0.000012,-0.000005,0.000014,0.000006,-0.000023,51.509999,0.000024,
2116,3268,-3.19405559811748,13.5271901084499,0.0290162901327449,0.006458,0.000308,0.000089,0.298055,0.036379,311.477244,24.541900,0.999743,0.995958,0.002738,0.392370,-0.000019,0.000011,-0.000021,0.000021,-0.000029,-62.684387,0.000030,
2176,2128,-1.7030707153845,-11.2936316358661,0.0135851010131205,0.006165,-0.000543,0.003664,0.271156,0.011171,329.578427,23.938290,0.998957,0.981071,0.005428,0.329890,0.000006,-0.000013,0.000010,0.000010,-0.000018,23.281038,0.000018,
2506,2098,5.5117331323273,-11.9570172667019,0.0279377823890172,0.006335,0.000318,0.003081,0.277828,0.046883,330.183793,22.059601,0.999504,0.985855,0.004886,0.214859,-0.000004,-0.000034,-0.000031,0.000015,-0.000053,-31.730532,0.000055,
2296,2488,0.848487838822706,-3.41680281964557,-0.012791498999718,0.006541,0.000320,0.002083,0.293377,0.024216,323.319199,23.971045,0.999403,0.988902,0.004224,0.393032,-0.000007,-0.000010,-0.000004,-0.000004,-0.000012,-33.838902,0.000017,
2026,2863,-5.0836651336902,4.7409393074293,-0.0245167073832704,0.006765,-0.000005,0.001571,0.307634,0.033618,318.132733,24.333828,0.999392,0.992604,0.003760,0.394028,-0.000036,0.000036,0.000000,0.000036,-0.000036,-89.795913,0.000042,
2206,2098,-1.04244038086465,-11.9520899672169,0.0169286632556123,0.006908,0.000271,0.000298,0.315746,0.037112,330.045456,23.701375,0.999075,0.981983,0.005328,0.381500,-0.000008,-0.000006,0.000005,-0.000002,-0.000012,50.037163,0.000015,
2491,1993,5.20634113334453,-14.2660950412118,0.0372376607869569,0.006541,-0.000085,0.002719,0.288391,0.022232,331.921299,21.592841,0.999139,0.968085,0.006794,0.311691,0.000026,-0.000101,-0.000027,0.000031,-0.000107,-11.545018,0.000110,
2116,3013,-3.15315622888953,8.00025934022781,0.00956510203161542,0.006508,0.000420,-0.000389,0.301451,0.051984,315.483747,24.454573,0.998940,0.989792,0.004073,0.456442,-0.000005,0.000018,-0.000004,0.000018,-0.000006,-81.401336,0.000019,
2206,2263,-1.07143370883842,-8.33704638721219,0.00540546996427338,0.006696,0.000119,0.000318,0.306233,0.036203,327.283990,23.896833,0.999046,0.982340,0.005164,0.399219,-0.000021,-0.000024,-0.000015,-0.000008,-0.000038,-42.024881,0.000048,
2266,2578,0.178549543390222,-1.45335079959364,-0.0193932713308982,0.006580,-0.000013,0.002020,0.295621,0.027812,321.846049,24.161940,0.999322,0.988854,0.004270,0.431313,-0.000012,0.000006,-0.000012,0.000012,-0.000017,-63.826123,0.000018,
2176,3283,-1.8976654240614,13.8583268087647,0.0124946160857462,0.006356,0.000228,0.001930,0.287497,0.040504,310.840020,24.860891,0.999701,0.995022,0.002989,0.417455,-0.000016,0.000007,0.000000,0.000007,-0.000016,89.323757,0.000016,
2461,3208,4.30419332004741,12.2581058077532,0.0299561339137995,0.006832,0.000537,0.001666,0.308424,0.059316,312.039066,26.202872,0.999493,0.990027,0.003907,0.434980,-0.000006,0.000022,0.000006,0.000023,-0.000007,78.792938,0.000023,
2011,2848,-5.40654004250446,4.41301432144561,-0.0188255514283924,0.006602,0.000102,0.000946,0.301898,0.026192,318.514800,24.254385,0.999729,0.995302,0.003224,0.455359,-0.000037,0.000050,-0.000004,0.000050,-0.000037,-87.053768,0.000052,
2161,3268,-2.21946326078585,13.531109625345,0.0231463368778577,0.006617,0.000030,0.005379,0.288950,0.038674,311.230974,24.738412,0.999700,0.994499,0.003115,0.444912,-0.000014,0.000002,-0.000012,0.000008,-0.000020,-61.511310,0.000020,
2041,2743,-4.74037962534738,2.13316091095977,-0.0281641910160602,0.006496,-0.000123,0.002983,0.290929,0.017879,319.941441,24.393165,0.999531,0.991540,0.003700,0.402806,-0.000016,0.000011,0.000014,0.000017,-0.000022,66.816069,0.000023,
2266,2338,0.222661627222308,-6.69487595393295,-0.00299127051130199,0.006546,0.000517,-0.000610,0.302534,0.029334,325.873934,23.834133,0.999010,0.983597,0.005161,0.329332,-0.000021,-0.000013,-0.000013,-0.000003,-0.000031,-53.118034,0.000037,
2251,2503,-0.134235277302611,-3.08968626584441,-0.0129469360432495,0.006541,0.000335,0.001562,0.295464,0.041463,323.140459,24.129892,0.999524,0.989677,0.004074,0.374627,-0.000018,-0.000007,-0.000005,-0.000005,-0.000019,-68.514327,0.000026,
2131,3088,-2.83914532938597,9.62746576475703,0.0265319814168379,0.006487,0.000360,0.000289,0.298467,0.035338,314.333083,24.555292,0.999851,0.995467,0.003053,0.407408,-0.000010,0.000011,-0.000011,0.000015,-0.000014,-67.190376,0.000017,
2341,2533,1.82082750832377,-2.4333838199602,-0.0139635755533618,0.006766,0.000206,-0.000035,0.310756,0.027012,322.572564,23.980670,0.999156,0.985105,0.004684,0.400280,-0.000006,-0.000012,0.000005,-0.000003,-0.000015,26.645660,0.000019,
2221,2368,-0.763836850230415,-6.03918068296542,-0.00483218388319528,0.006303,-0.000164,0.002932,0.279912,0.031172,325.439799,24.034378,0.999630,0.989385,0.004220,0.337689,-0.000019,-0.000005,-0.000016,0.000006,-0.000030,-56.860161,0.000032,
2236,2248,-0.414862755365466,-8.66532626730333,0.00745702049806596,0.006808,0.000233,0.004104,0.299052,0.063219,327.464291,23.741838,0.998700,0.981829,0.005419,0.425800,-0.000017,-0.000032,-0.000017,-0.000006,-0.000043,-32.998883,0.000053,
2356,2563,2.14141615991993,-1.77762872630748,-0.0178002938910709,0.006355,0.000519,-0.001898,0.298622,0.035004,322.041630,24.052404,0.999396,0.989790,0.004204,0.389612,-0.000010,0.000000,0.000008,0.000004,-0.000014,60.999099,0.000015,
2431,3028,3.68550451658771,8.3488952982869,0.00706716088041048,0.006393,-0.000002,0.002147,0.286102,0.029348,314.721429,25.512585,0.999412,0.987782,0.004236,0.361665,-0.000017,0.000011,-0.000006,0.000012,-0.000018,-77.673225,0.000019,
2026,2878,-5.08525882636481,5.06681254605468,-0.0192935252144935,0.007173,0.000485,0.001961,0.325581,0.062183,317.950234,24.338450,0.998985,0.989168,0.004278,0.407602,-0.000025,0.000042,-0.000003,0.000042,-0.000025,-87.662507,0.000042,
2416,2923,3.37877796338502,6.06680206774758,-0.0116523984237347,0.006735,0.000024,0.001965,0.302434,0.022065,316.276745,25.147372,0.999706,0.992460,0.003512,0.343408,-0.000012,-0.000001,-0.000002,-0.000001,-0.000012,-80.463629,0.000014,
2011,3163,-5.45149501438116,11.2433059481219,0.0402556769686839,0.006280,0.000154,0.002093,0.284404,0.032686,313.863824,24.060890,0.999506,0.994106,0.003334,0.387739,-0.000025,0.000072,0.000000,0.000072,-0.000025,-89.891899,0.000073,
2326,2458,1.50749421921094,-4.07147197779053,-0.0149586701264752,0.006573,-0.000184,0.002574,0.292710,0.027665,323.765905,23.803277,0.999440,0.988119,0.004383,0.426715,0.000009,0.000002,0.000008,0.000015,-0.000004,34.913113,0.000015,
2071,3028,-4.13132058039867,8.32264272123571,0.0135508350575719,0.006537,0.000530,0.000707,0.299764,0.050863,315.495897,24.338910,0.999566,0.993370,0.003318,0.432837,-0.000003,0.000009,-0.000003,0.000010,-0.000004,-75.320926,0.000010,
2011,3133,-5.44714204463448,10.5946037922441,0.0229381377170625,0.006883,0.000456,-0.000496,0.319376,0.044984,314.242922,24.091618,0.999668,0.994512,0.003054,0.395895,-0.000004,0.000088,0.000018,0.000091,-0.000007,79.403598,0.000101,
2491,2008,5.20349386978276,-13.9361229865099,0.0341435446620721,0.006778,0.000367,-0.000559,0.311973,0.029171,331.677273,21.637465,0.999371,0.973141,0.006156,0.336665,0.000019,-0.000067,-0.000010,0.000020,-0.000068,-6.760335,0.000070,
2176,3298,-1.90081516407449,14.1837112413259,0.0013442530462271,0.006327,0.000356,-0.001303,0.296226,0.030940,310.509283,24.872563,0.999818,0.996641,0.002503,0.406801,-0.000015,0.000025,0.000003,0.000025,-0.000015,85.528490,0.000025,
2296,2743,0.80172507469457,2.14367359652694,-0.0213730546799411,0.006840,0.000191,0.001278,0.310192,0.018751,319.124795,24.488505,0.999490,0.990398,0.003908,0.391315,-0.000013,0.000003,-0.000010,0.000008,-0.000018,-64.817309,0.000018,
2191,2188,-1.38535976177915,-9.9787736311208,0.0118809685447445,0.006707,0.000221,0.000944,0.304748,0.030759,328.586230,23.944244,0.998795,0.978194,0.005622,0.327215,-0.000009,-0.000012,-0.000005,-0.000005,-0.000016,-35.472983,0.000022,
2401,2848,3.06651532011297,4.43427889745443,-0.0174718755899903,0.006591,0.000347,0.001231,0.298580,0.037907,317.431985,24.828674,0.999449,0.990704,0.003939,0.421162,-0.000015,0.000012,-0.000013,0.000017,-0.000020,-68.183291,0.000022,
2161,2068,-2.01903389136407,-12.6101183441555,0.0251959666118182,0.006584,-0.000176,0.001529,0.297059,0.020924,330.715145,23.952981,0.999407,0.985014,0.004869,0.357020,0.000005,-0.000017,0.000013,0.000011,-0.000023,24.222247,0.000023,
2311,2338,1.20352572454275,-6.69532644747006,-0.00245488559647811,0.006717,-0.000249,0.005207,0.290233,0.031223,325.817443,23.610393,0.999237,0.983955,0.004851,0.389495,-0.000017,-0.000014,-0.000005,-0.000010,-0.000021,-53.506965,0.000031,
2086,2878,-3.78361035213934,5.0681777580702,-0.00951577182217989,0.006419,0.000070,0.000986,0.293046,0.029037,317.658868,24.370046,0.999466,0.991669,0.003827,0.442362,-0.000021,0.000036,-0.000007,0.000037,-0.000021,-83.113420,0.000037,
2071,2833,-4.1020747024673,4.09053517364006,-0.0125561272067785,0.006562,-0.000070,0.001249,0.298822,0.022302,318.448940,24.430177,0.999448,0.992034,0.003646,0.360918,-0.000030,0.000014,-0.000007,0.000015,-0.000031,-81.757190,0.000031,
2371,2683,2.44383307605936,0.841319579471829,-0.0359341259035091,0.006718,-0.000055,0.003323,0.296739,0.018802,319.942221,24.371242,0.999447,0.989634,0.004023,0.366759,-0.000014,0.000021,-0.000012,0.000025,-0.000018,-73.200058,0.000026,
2116,3283,-3.19701810321326,13.8515485251577,0.0302539082318845,0.006265,0.000115,0.005625,0.272613,0.035192,311.216832,24.511141,0.999746,0.995778,0.002848,0.424094,-0.000024,0.000020,-0.000010,0.000023,-0.000026,-77.576324,0.000028,
2281,2443,0.530265547355338,-4.40120451463007,-0.00692165736347761,0.006627,-0.000530,0.003464,0.292423,-0.000554,324.113386,23.863767,0.999617,0.989884,0.004139,0.421016,-0.000013,-0.000017,-0.000009,-0.000006,-0.000024,-37.954664,0.000032,
2281,2668,0.489309121620842,0.51071915827913,-0.0227079419289566,0.007082,0.000272,-0.001050,0.329104,0.028351,320.368598,24.439167,0.999602,0.991771,0.003866,0.305209,-0.000006,0.000022,-0.000006,0.000024,-0.000008,-78.920355,0.000024,
2041,2953,-4.77117289765525,6.6945167318069,-0.00473758104755007,0.006380,0.000590,-0.001977,0.300045,0.051294,316.735690,24.286900,0.999483,0.993160,0.003350,0.432950,-0.000021,-0.000016,-0.000012,-0.000006,-0.000030,-51.736234,0.000039,
2386,2683,2.77091038923668,0.842247477006069,-0.0303492045029543,0.006683,0.000412,0.002783,0.297148,0.061246,319.997478,24.401940,0.999428,0.988436,0.004112,0.374079,-0.000016,0.000019,-0.000009,0.000021,-0.000018,-76.870430,0.000023,
2221,2188,-0.730522726470898,-9.97912501734794,0.00988699230157408,0.007178,0.000830,-0.003523,0.340658,0.028605,328.526212,23.764617,0.998790,0.981597,0.005403,0.350573,-0.000018,-0.000021,-0.000006,-0.000013,-0.000026,-37.804294,0.000039,
2446,3088,4.00083159670733,9.6533215440164,0.0152666971445115,0.006762,0.000324,0.001957,0.303955,0.054623,313.850226,25.778016,0.999684,0.993493,0.003446,0.373536,-0.000008,0.000026,-0.000002,0.000026,-0.000008,-86.721547,0.000027,
2056,2983,-4.45002446209186,7.34598789117479,0.00253256493687104,0.006790,0.000210,0.002854,0.305155,0.022222,316.225753,24.335529,0.999151,0.990069,0.003884,0.378994,-0.000026,-0.000006,-0.000013,0.000001,-0.000032,-63.835275,0.000037,
2011,2863,-5.40836935336311,4.7392537013374,-0.0179631773080473,0.007113,-0.000176,0.003037,0.319750,0.026772,318.295976,24.283534,0.999330,0.991900,0.003949,0.414485,-0.000029,0.000036,0.000007,0.000037,-0.000030,83.922357,0.000039,
2506,2113,5.50850272557164,-11.6292417580457,0.0251408091074836,0.006208,0.000393,0.000183,0.283239,0.022828,329.924618,21.978763,0.999592,0.986298,0.004824,0.335697,-0.000018,-0.000058,-0.000040,0.000006,-0.000083,-31.849977,0.000092,
2056,2758,-4.4167735747444,2.45962287667623,-0.021772790302748,0.006332,0.000173,0.001853,0.286575,0.031842,319.660045,24.391987,0.999367,0.990940,0.003905,0.417498,-0.000021,-0.000005,0.000001,-0.000005,-0.000021,86.564745,0.000027,
2101,2953,-3.46982201136867,6.69854604790635,-0.00716614105931512,0.006705,0.000250,0.001964,0.303464,0.038032,316.393510,24.460387,0.999418,0.991657,0.003718,0.389693,-0.000017,0.000008,-0.000009,0.000011,-0.000020,-72.409087,0.000020,
2461,3223,4.30062293410531,12.5838760737764,0.0238348730984512,0.006602,0.000448,-0.000584,0.306263,0.044624,311.739106,26.264775,0.999557,0.991875,0.003618,0.411242,-0.000004,0.000012,0.000012,0.000018,-0.000011,61.831820,0.000018,
2206,2278,-1.07398187222463,-8.00937672961278,0.0106312319632593,0.006647,-0.000544,0.004804,0.289633,0.028211,327.069308,23.929649,0.999010,0.983428,0.005081,0.377216,-0.000014,-0.000016,-0.000015,0.000001,-0.000030,-42.898961,0.000035,
2176,2143,-1.7052536973321,-10.9653381592262,0.0191676504106795,0.006223,-0.000310,0.005753,0.267494,0.044129,329.379945,23.945916,0.998739,0.981201,0.005417,0.370482,0.000002,-0.000028,0.000004,0.000003,-0.000029,7.859566,0.000032,
2236,2443,-0.449765585000815,-4.39985102303861,-0.00626737124986221,0.006886,-0.000331,0.004808,0.300546,0.014481,324.202090,24.159626,0.999602,0.991397,0.004021,0.258759,-0.000018,-0.000016,-0.000018,0.000001,-0.000036,-46.618323,0.000041,
2206,2113,-1.04481950935191,-11.6236046629333,0.0167819353378036,0.007000,0.000367,-0.000764,0.323393,0.027108,329.810961,23.697336,0.998874,0.983312,0.005088,0.395349,-0.000008,-0.000006,0.000005,-0.000002,-0.000011,51.477496,0.000014,
2086,3073,-3.81281554648805,9.29941874623783,0.01756083974783,0.006666,0.000284,-0.000947,0.310376,0.031510,314.727097,24.389734,0.999471,0.992200,0.003446,0.403952,-0.000001,0.000017,-0.000014,0.000024,-0.000009,-61.471636,0.000025,
2296,2503,0.845112884837263,-3.08769888601189,-0.0200945965754045,0.006662,0.000164,0.005014,0.289010,0.051326,323.010038,24.058874,0.999719,0.993091,0.003556,0.363535,-0.000011,-0.000008,-0.000004,-0.000006,-0.000014,-56.976937,0.000020,
2116,3028,-3.15549967506152,8.32592482888244,0.012267488718237,0.006702,0.000306,0.003494,0.298867,0.052397,315.259095,24.489256,0.999280,0.991732,0.003718,0.424752,-0.000002,0.000014,-0.000005,0.000016,-0.000004,-73.272614,0.000016,
2161,3283,-2.22211121507404,13.8561879567323,0.0237499554175429,0.006425,0.000243,0.004414,0.283119,0.046362,310.984282,24.763056,0.999698,0.995107,0.002963,0.436699,-0.000012,0.000010,-0.000003,0.000011,-0.000012,-81.510688,0.000013,
2491,2023,5.20119452393471,-13.6065718745575,0.0385465025444205,0.006869,0.000839,-0.004625,0.331856,0.024447,331.491947,21.746082,0.999247,0.972480,0.006217,0.285389,0.000020,-0.000038,-0.000025,0.000029,-0.000047,-20.118489,0.000047,
2266,2353,0.219597971400475,-6.36738183787525,-0.00475639564143648,0.006375,0.000164,0.000766,0.290029,0.013996,325.604785,23.815229,0.999232,0.984504,0.004981,0.360524,-0.000023,-0.000010,-0.000013,-0.000002,-0.000031,-57.643440,0.000037,
2191,1993,-1.35150605213679,-14.2562119481511,0.0301554519254523,0.006689,0.000515,0.000749,0.304227,0.033263,331.871320,23.732483,0.999449,0.984878,0.004989,0.310291,0.000022,-0.000066,-0.000004,0.000023,-0.000066,-2.890880,0.000067,
2461,3238,4.29769722416125,12.9093805801227,0.0242232368047439,0.006645,0.000196,-0.000827,0.309032,0.024680,311.498757,26.348767,0.999762,0.994036,0.003181,0.360219,0.000001,0.000011,0.000016,0.000023,-0.000011,53.460078,0.000023,
2251,2323,-0.101711053463983,-7.02433501225725,0.0033073784314297,0.006463,-0.000631,0.005486,0.278386,0.011447,326.170207,23.819020,0.998681,0.983161,0.005273,0.356190,-0.000016,-0.000028,-0.000019,-0.000002,-0.000042,-35.820598,0.000050,
2506,2128,5.50521041346725,-11.3003216518847,0.0241185944882432,0.006507,-0.000238,0.004637,0.279510,0.028580,329.670188,21.997635,0.999614,0.984630,0.005017,0.386929,-0.000024,-0.000059,-0.000035,-0.000002,-0.000080,-31.729885,0.000094,
2086,2893,-3.78553784853085,5.39393507694125,-0.00750612504072024,0.006791,-0.000112,0.001473,0.308701,0.011210,317.447444,24.391115,0.999446,0.993485,0.003638,0.402091,-0.000018,0.000025,-0.000010,0.000028,-0.000020,-77.357269,0.000029,
2056,2998,-4.45202299949348,7.67151037029216,0.00497930103102817,0.006881,0.000264,0.000903,0.314967,0.038888,316.011564,24.330470,0.999207,0.990409,0.003899,0.394798,-0.000028,0.000003,-0.000008,0.000005,-0.000030,-76.649189,0.000032,
2011,3148,-5.4496426617781,10.9184039277548,0.0298159416289536,0.006422,0.000109,0.001829,0.291675,0.036006,314.028675,24.016277,0.999676,0.994173,0.003200,0.448923,-0.000011,0.000065,0.000012,0.000067,-0.000013,81.120108,0.000071,
2491,2038,5.19769587729952,-13.2779502415234,0.0403801325871314,0.006457,0.000935,-0.002826,0.306262,0.030143,331.240055,21.735749,0.999234,0.972980,0.006279,0.363868,0.000015,-0.000014,-0.000029,0.000033,-0.000032,-31.737991,0.000038,
2026,2698,-5.0598996899123,1.15507553702369,-0.0444204607208576,0.006521,0.000514,-0.000540,0.302073,0.038330,320.637002,24.396145,0.999831,0.995298,0.003037,0.444101,-0.000005,-0.000012,0.000012,0.000004,-0.000021,36.519008,0.000022,
2221,2383,-0.766309054069961,-5.7125321607971,-0.00493917699736812,0.006465,-0.000340,0.003631,0.285055,0.001887,325.202506,23.977650,0.999532,0.988897,0.004242,0.385786,-0.000020,-0.000001,-0.000016,0.000008,-0.000030,-59.589419,0.000030,
2026,2893,-5.08765906856689,5.391956965764,-0.0133465473712704,0.006661,0.000257,0.001144,0.304134,0.034701,317.735208,24.340839,0.999373,0.993043,0.003467,0.367590,-0.000021,0.000022,-0.000011,0.000025,-0.000023,-76.292456,0.000028,
2251,2518,-0.137255886927072,-2.76265553962109,-0.0140860305433534,0.006252,0.000091,0.001599,0.282015,0.033709,322.874837,24.122760,0.999266,0.987619,0.004437,0.398548,-0.000017,-0.000009,-0.000005,-0.000007,-0.000019,-63.474011,0.000027,
2146,2008,-2.33563245394452,-13.9269519897049,0.0342905427646087,0.006801,0.000731,-0.000138,0.312328,0.051769,331.822856,23.982391,0.999047,0.983219,0.005105,0.406882,0.000023,-0.000037,0.000019,0.000029,-0.000042,15.809610,0.000043,
2266,2593,0.175458053354994,-1.1264067124559,-0.019702879206136,0.006407,-0.000299,0.005018,0.277710,0.035353,321.582359,24.163723,0.999144,0.987436,0.004521,0.463257,-0.000008,-0.000004,-0.000011,0.000005,-0.000017,-50.024625,0.000017,
2446,3103,3.99795401769181,9.97779957301746,0.0192382710828269,0.006478,0.000328,0.001046,0.294255,0.044696,313.628638,25.745712,0.999696,0.993575,0.003457,0.447009,-0.000008,0.000026,0.000004,0.000026,-0.000009,83.592070,0.000027,
2236,2263,-0.417377245601269,-8.3368854619899,0.00980104615138089,0.006646,0.000175,0.002825,0.295755,0.046736,327.238594,23.819734,0.999110,0.983091,0.005250,0.354752,-0.000015,-0.000031,-0.000016,-0.000005,-0.000041,-31.566758,0.000050,
2071,2848,-4.10494291676091,4.41790705352613,-0.0235063946523155,0.006671,0.000395,0.000106,0.307289,0.034075,318.121707,24.460761,0.999658,0.993841,0.003276,0.338988,-0.000033,0.000025,-0.000006,0.000025,-0.000033,-84.145188,0.000035,
2056,2773,-4.41868665187559,2.78519630325196,-0.0146004123733974,0.006363,0.000141,0.002789,0.285355,0.034760,319.475531,24.382414,0.999194,0.989289,0.004137,0.424784,-0.000021,0.000007,-0.000002,0.000007,-0.000021,-86.864386,0.000021,
2131,3103,-2.84177813764801,9.95270811713277,0.0288906324273057,0.006295,0.000309,0.001836,0.284979,0.040561,314.094451,24.562361,0.999830,0.995912,0.002872,0.410262,-0.000012,0.000009,-0.000011,0.000014,-0.000017,-66.100783,0.000018,
2116,3298,-3.19948222310167,14.1767104154311,0.0231571640379684,0.006549,0.000259,0.002481,0.295235,0.045703,310.934014,24.501453,0.999668,0.993855,0.003283,0.446127,-0.000015,0.000034,0.000000,0.000034,-0.000015,-89.495686,0.000034,
2326,2473,1.50537945688743,-3.744873979717,-0.0055474026318052,0.006487,0.000072,0.002062,0.290607,0.023338,323.599688,23.836658,0.999520,0.987585,0.004263,0.424423,0.000012,-0.000010,0.000005,0.000013,-0.000011,11.894296,0.000014,
2431,3043,3.68220009509465,8.67480353042601,0.0058453051763081,0.006326,-0.000025,0.004208,0.275438,0.037767,314.454905,25.545202,0.999463,0.989275,0.004045,0.386694,-0.000022,0.000027,-0.000005,0.000028,-0.000022,-83.707828,0.000030,
2356,2578,2.1389673333463,-1.45101361802505,-0.0136665390700728,0.006522,0.000334,-0.000652,0.301841,0.040323,321.836107,24.061339,0.999263,0.988063,0.004391,0.425661,-0.000008,0.000011,0.000007,0.000014,-0.000010,71.712642,0.000014,
2041,2758,-4.74217256288113,2.45844314520286,-0.0252954469687552,0.006694,0.000103,0.000819,0.306240,0.040555,319.737690,24.299413,0.999375,0.991273,0.003963,0.511803,-0.000023,-0.000004,0.000000,-0.000004,-0.000023,-89.210207,0.000029,
2191,2203,-1.38817644201471,-9.64994893933884,0.00688255667904514,0.006660,0.000574,-0.000319,0.306694,0.041414,328.305043,23.932029,0.998729,0.979412,0.005611,0.367420,-0.000005,-0.000001,-0.000003,0.000001,-0.000007,-62.790326,0.000008,
2236,2458,-0.452445048802907,-4.07312655583036,-0.00499842871124656,0.006581,-0.000210,0.002715,0.293361,0.019598,323.963248,24.113469,0.999449,0.989876,0.004254,0.332722,-0.000016,-0.000007,-0.000014,0.000003,-0.000026,-53.759308,0.000028,
2071,3043,-4.13390947107798,8.64850077167049,0.0122126889112906,0.006558,0.000264,0.002863,0.294530,0.054081,315.234802,24.364628,0.999573,0.993345,0.003311,0.406187,-0.000002,0.000008,-0.000009,0.000013,-0.000008,-59.005557,0.000013,
2206,2293,-1.07590755255957,-7.67985702517278,0.00179461450068175,0.007163,0.000982,-0.005607,0.346760,0.035431,326.810317,23.979272,0.999161,0.985640,0.004783,0.353909,-0.000013,-0.000012,-0.000009,-0.000004,-0.000022,-47.000262,0.000027,
2416,2938,3.37582730134327,6.39255649661555,-0.00830386597738197,0.006552,0.000289,0.003110,0.289987,0.041830,316.047299,25.158248,0.999683,0.991942,0.003660,0.399451,-0.000005,0.000000,-0.000004,0.000002,-0.000007,-60.296888,0.000007,
2401,2863,3.06356860918444,4.76105012104051,-0.0155489119555909,0.006649,0.000263,0.004169,0.290609,0.047961,317.195062,24.912259,0.999439,0.990526,0.003870,0.392856,-0.000019,0.000016,-0.000013,0.000021,-0.000024,-71.465414,0.000026,
2386,2698,2.76831802157409,1.16782776189637,-0.0255222560749075,0.006432,0.000233,0.000632,0.293248,0.035660,319.790587,24.388603,0.999481,0.990373,0.003840,0.405319,-0.000015,0.000015,-0.000010,0.000018,-0.000018,-72.784015,0.000021,
2056,3013,-4.45500850555346,7.99699648613948,0.00539427946540627,0.006342,0.000421,0.002704,0.285132,0.058089,315.740926,24.309825,0.999000,0.987960,0.004467,0.428468,-0.000020,0.000003,-0.000006,0.000004,-0.000021,-75.619771,0.000022,
2176,2158,-1.71114914425824,-10.6303284788364,-0.0296802634734377,0.005927,0.000012,0.002505,0.264103,0.021453,328.727247,24.046018,0.999380,0.959599,0.006903,0.265010,0.000003,-0.000025,-0.000004,0.000003,-0.000026,-7.399748,0.000028,
2506,2143,5.50206212701923,-10.9703518703367,0.0231645189801384,0.006453,-0.000125,0.003211,0.282610,0.004229,329.422662,22.148732,0.999154,0.976260,0.005910,0.275218,-0.000021,-0.000039,-0.000025,-0.000004,-0.000056,-34.686593,0.000067,
2461,3253,4.29384329887683,13.234953623304,0.0184870595359712,0.006490,0.000238,0.001688,0.292442,0.030974,311.187371,26.382501,0.999769,0.994094,0.003081,0.385977,0.000010,0.000017,0.000018,0.000032,-0.000005,50.406323,0.000035,
2266,2368,0.216822081930282,-6.03912670181778,-0.00633632066887913,0.006727,-0.000297,0.005491,0.290451,0.027984,325.349453,23.843700,0.999073,0.984183,0.005026,0.373667,-0.000027,-0.000009,-0.000014,-0.000001,-0.000034,-61.511190,0.000040,
2026,2908,-5.08934392666546,5.71696647923072,-0.00298914659077809,0.006609,0.000390,0.000451,0.303762,0.055491,317.577591,24.317812,0.999319,0.992744,0.003543,0.400980,-0.000016,0.000008,-0.000016,0.000016,-0.000024,-62.783723,0.000025,
2101,3133,-3.49657655784685,10.6012814582129,0.0285911608868332,0.006815,0.000304,0.000089,0.314316,0.035540,313.768636,24.486859,0.999812,0.995568,0.002793,0.365198,-0.000007,0.000017,-0.000008,0.000019,-0.000009,-73.686960,0.000019,
2086,2908,-3.78802729108314,5.72007823100385,-0.0076286877011853,0.006713,-0.000058,0.001564,0.304931,0.026602,317.198461,24.403280,0.999399,0.992356,0.003741,0.404048,-0.000015,0.000014,-0.000014,0.000020,-0.000021,-67.899306,0.000024,
2161,2083,-2.02143772508038,-12.2799889026724,0.0262633684031357,0.006471,0.000268,0.000152,0.296304,0.019560,330.481743,24.091350,0.999358,0.984070,0.005044,0.230693,0.000006,-0.000006,0.000006,0.000009,-0.000009,24.000488,0.000010,
2026,2998,-5.10242144563646,7.66932414612603,0.0091315677378816,0.006725,0.000289,0.001971,0.304944,0.037296,316.216462,24.252407,0.999278,0.992481,0.003594,0.385967,-0.000031,-0.000008,-0.000004,-0.000007,-0.000032,-80.494533,0.000042,
2056,2788,-4.42133092509714,3.11270588632095,-0.0221955510266412,0.006505,0.000431,0.002542,0.292716,0.045499,319.175513,24.431805,0.999270,0.989843,0.004007,0.380939,-0.000031,0.000020,-0.000005,0.000020,-0.000032,-84.260570,0.000032,
2161,3298,-2.22490136063472,14.1811202605837,0.0187501757425252,0.006351,0.000390,0.001727,0.287909,0.025504,310.701437,24.776175,0.999797,0.996645,0.002527,0.411006,-0.000008,0.000027,0.000002,0.000027,-0.000008,87.310783,0.000027,
2146,3163,-2.52601274972575,11.254638007388,0.0330776067260103,0.006587,0.000314,0.002338,0.296966,0.051138,313.098679,24.648082,0.999602,0.992173,0.003546,0.419867,-0.000017,0.000016,-0.000005,0.000017,-0.000017,-81.505155,0.000020,
2251,2533,-0.14070787803989,-2.43433654393721,-0.0218054953573983,0.006227,-0.000357,0.004639,0.270756,0.029310,322.555856,24.176514,0.999624,0.992273,0.003621,0.365120,-0.000016,-0.000008,-0.000008,-0.000003,-0.000021,-58.052488,0.000026,
2311,2353,1.20059728122166,-6.366669187549,-0.00488889900680078,0.006482,0.000033,0.001952,0.290668,0.028193,325.554849,23.679622,0.999447,0.986095,0.004483,0.351554,-0.000013,-0.000013,-0.000003,-0.000010,-0.000016,-41.039560,0.000026,
2296,2758,0.798823693917331,2.47072236001246,-0.0288971919607093,0.006998,0.000399,-0.001933,0.328430,0.022846,318.835952,24.497788,0.999468,0.990459,0.003938,0.416552,-0.000014,0.000008,-0.000006,0.000010,-0.000016,-75.527185,0.000016,
2341,2548,1.81790035395835,-2.10674477458268,-0.00990183819811818,0.006568,-0.000251,0.002960,0.291133,0.034777,322.343777,23.979398,0.998892,0.983441,0.004977,0.446809,-0.000004,-0.000009,0.000003,-0.000002,-0.000010,25.698283,0.000013,
2266,2608,0.172867880951337,-0.798428344795042,-0.0245043287388853,0.006615,0.000020,0.001796,0.298048,0.034595,321.318858,24.234682,0.999186,0.987639,0.004478,0.418141,-0.000005,-0.000012,-0.000006,-0.000002,-0.000015,-29.307238,0.000018,
2071,2863,-4.10661878985666,4.7425430164939,-0.0164041686712153,0.006915,0.000299,0.000106,0.318550,0.036617,317.948979,24.388603,0.999428,0.991377,0.003810,0.410074,-0.000026,0.000025,-0.000003,0.000025,-0.000026,-86.071730,0.000029,
2011,2878,-5.41058443193322,5.06581652472332,-0.0173389709347589,0.007134,0.000432,0.003108,0.320738,0.058244,318.058000,24.314141,0.999029,0.991111,0.004023,0.403128,-0.000017,0.000038,0.000003,0.000038,-0.000017,87.255606,0.000039,
2041,2968,-4.77315352076047,7.01906848976892,0.000185159419004322,0.006523,0.000452,-0.000425,0.302229,0.033781,316.535421,24.236004,0.999499,0.993166,0.003304,0.457953,-0.000018,-0.000008,-0.000012,0.000001,-0.000026,-55.770882,0.000030,
2281,2458,0.527534025572514,-4.07267869675199,-0.00556288519896952,0.006605,-0.000192,0.004890,0.286803,0.034000,323.875646,23.954717,0.999720,0.990928,0.003994,0.393758,-0.000011,-0.000010,-0.000005,-0.000006,-0.000015,-47.203405,0.000021,
2011,3178,-5.45349358711431,11.5680687202292,0.0418274382537902,0.006400,0.000362,0.000348,0.294748,0.034914,313.642408,24.036964,0.999759,0.995684,0.002693,0.400676,-0.000033,0.000065,-0.000011,0.000066,-0.000034,-83.530864,0.000066,
2206,2128,-1.04765289057487,-11.2943627964311,0.0139375048077568,0.006685,0.000761,-0.003913,0.319088,0.023202,329.541667,23.732524,0.998889,0.982236,0.005242,0.376022,-0.000008,-0.000010,0.000006,-0.000003,-0.000015,41.853405,0.000019,
2251,2338,-0.104507554488087,-6.69519177543342,-0.000570142974140708,0.006412,0.000218,0.003080,0.284224,0.019733,325.900988,23.900621,0.998953,0.984669,0.005078,0.308393,-0.000017,-0.000015,-0.000016,0.000000,-0.000032,-47.310842,0.000037,
2191,2008,-1.35405161836926,-13.9270973744467,0.0216104114918494,0.006989,0.000551,-0.002694,0.328748,0.024145,331.584526,23.650019,0.999330,0.984866,0.004992,0.402034,0.000010,-0.000041,0.000016,0.000015,-0.000046,16.179694,0.000047,
2191,2218,-1.39078508790889,-9.32279714881577,0.0116188547008846,0.006468,-0.000425,0.002966,0.287267,0.002563,328.084278,23.923597,0.998708,0.980796,0.005630,0.353849,-0.000011,0.000005,-0.000006,0.000007,-0.000014,-71.345997,0.000014,
2026,2713,-5.06160246930294,1.48099389053054,-0.037278968339308,0.006863,-0.000052,0.002848,0.308369,0.025798,320.459974,24.418313,0.999732,0.994311,0.003332,0.399814,-0.000001,0.000007,0.000016,0.000020,-0.000013,51.840686,0.000020,
2131,1993,-2.66197862689376,-14.254806307317,0.0324890111758691,0.005889,-0.000463,0.005981,0.251918,0.026017,332.046238,24.166084,0.999110,0.981188,0.005304,0.291667,0.000035,-0.000070,0.000000,0.000035,-0.000070,-0.211768,0.000070,
2086,3088,-3.81545776716862,9.6245686612002,0.0191227903303002,0.006409,0.000357,0.000073,0.295626,0.037947,314.480775,24.377893,0.999488,0.991218,0.003636,0.420165,-0.000005,0.000014,-0.000012,0.000020,-0.000011,-64.091472,0.000020,
2221,2398,-0.768659725880063,-5.38348796281714,-0.000232170370622953,0.006473,0.000014,0.004978,0.281266,0.034874,324.994669,24.128989,0.999656,0.991481,0.003805,0.287832,-0.000019,0.000000,-0.000016,0.000009,-0.000028,-60.047388,0.000028,
2221,2203,-0.733548230497238,-9.65030706111086,0.00626538027734114,0.006964,0.001179,-0.003706,0.331624,0.045642,328.245359,23.760493,0.998994,0.983877,0.005088,0.393408,-0.000014,-0.000016,-0.000008,-0.000007,-0.000023,-40.304261,0.000031,
2416,2953,3.37245592130184,6.71932787459218,-0.0138838346397847,0.006491,0.000013,0.001999,0.291141,0.029271,315.756345,25.236429,0.999775,0.992189,0.003654,0.356064,-0.000003,0.000000,-0.000002,0.000001,-0.000005,-59.962424,0.000005,
2236,2278,-0.420863019098018,-8.00895422459752,0.00501428674726867,0.006307,-0.000629,0.005657,0.270807,0.013914,326.932361,23.800232,0.999146,0.984408,0.004956,0.365121,-0.000010,-0.000018,-0.000018,0.000004,-0.000033,-38.841900,0.000036,
2176,1993,-1.67786277424641,-14.256353541635,0.0369769616110602,0.007111,0.000846,-0.002019,0.332291,0.024639,332.001453,23.873667,0.999207,0.982854,0.005206,0.265474,0.000037,-0.000054,0.000002,0.000037,-0.000054,1.366748,0.000055,
2431,3058,3.67935977561451,9.00106044583768,0.00576735377291016,0.006362,-0.000051,0.002913,0.281890,0.033001,314.214911,25.634722,0.999624,0.990809,0.003876,0.341581,-0.000024,0.000026,-0.000007,0.000027,-0.000025,-82.477151,0.000030,
2296,2518,0.842007732816739,-2.76038304065746,-0.0265889348453925,0.006663,0.000198,0.003643,0.293728,0.048326,322.717662,24.026041,0.999684,0.991869,0.003672,0.424761,-0.000013,-0.000011,-0.000005,-0.000006,-0.000017,-50.385181,0.000025,
2206,2308,-1.07864696277077,-7.35273850751776,0.00449656710770796,0.006799,0.000810,-0.005382,0.329306,0.023506,326.573972,23.950295,0.998920,0.985489,0.004798,0.389804,-0.000015,-0.000016,-0.000011,-0.000005,-0.000027,-43.306921,0.000034,
2326,2488,1.50272106043696,-3.4171782572683,-0.0035404438108344,0.006532,0.000126,0.002990,0.289528,0.044802,323.372089,23.880718,0.999484,0.987614,0.004228,0.437470,0.000010,-0.000008,0.000008,0.000012,-0.000011,20.676777,0.000013,
2491,2053,5.19239015949264,-12.9453560402066,0.0197847621606684,0.006237,0.000190,-0.000087,0.285508,-0.001548,330.804746,21.880166,0.999090,0.977786,0.005844,0.251194,0.000013,-0.000018,-0.000025,0.000027,-0.000032,-29.351421,0.000034,
2371,2698,2.44128381389092,1.16706019016394,-0.0295871831289105,0.006467,0.000050,0.002419,0.288496,0.021920,319.743472,24.356598,0.999411,0.990599,0.003759,0.425771,-0.000014,0.000015,-0.000013,0.000020,-0.000019,-68.422917,0.000023,
2461,3268,4.28908787978071,13.5614398692485,-0.00191039858799513,0.006462,0.000263,0.002001,0.290061,0.039631,310.766639,26.422007,0.999785,0.994644,0.002909,0.408050,0.000021,0.000006,0.000018,0.000033,-0.000006,33.812403,0.000035,
2161,2098,-2.02371862362117,-11.9514999323015,0.0246693493192538,0.006738,0.000599,0.000136,0.308725,0.033196,330.240157,24.041419,0.999554,0.984502,0.004986,0.307598,0.000005,-0.000004,0.000007,0.000009,-0.000007,27.784543,0.000009,
2056,2803,-4.42345773419965,3.43889364312981,-0.0273142612899733,0.006922,0.000121,0.000837,0.316705,0.035898,318.913314,24.404574,0.999338,0.991355,0.003813,0.393144,-0.000028,0.000014,-0.000006,0.000015,-0.000029,-82.381816,0.000029,
2056,3028,-4.45711936097741,8.32239494496318,0.00334465089531477,0.006634,0.000602,0.001303,0.302614,0.054664,315.496861,24.291187,0.999448,0.992049,0.003659,0.437437,-0.000010,0.000005,-0.000005,0.000006,-0.000012,-73.780903,0.000012,
2146,2023,-2.33875170600529,-13.5959237487241,0.0249181688396334,0.006848,0.000433,0.001686,0.308890,0.062471,331.500304,24.050255,0.998770,0.982797,0.005151,0.361596,0.000012,-0.000047,0.000007,0.000012,-0.000048,6.281234,0.000050,
2131,3118,-2.84438589442042,10.2785082301001,0.023778077265888,0.006483,0.000464,0.001308,0.295308,0.046388,313.816765,24.577363,0.999758,0.995754,0.002944,0.405682,-0.000012,0.000011,-0.000010,0.000015,-0.000016,-69.679073,0.000017,
2041,2773,-4.74494831877287,2.78564896750203,-0.0284579833188445,0.006485,-0.000138,0.001924,0.293485,0.027264,319.454977,24.374965,0.999150,0.990230,0.004053,0.415452,-0.000025,0.000009,-0.000005,0.000009,-0.000026,-81.721128,0.000026,
2506,2158,5.49912314793389,-10.6411706810079,0.023403202215377,0.006400,0.000455,0.000668,0.290298,0.015872,329.189822,22.210013,0.999318,0.978394,0.005504,0.289648,-0.000025,-0.000053,-0.000039,0.000002,-0.000080,-34.969923,0.000092,
2011,2893,-5.41313257160789,5.39106190192566,-0.0155938746742663,0.006624,0.000284,0.000945,0.302971,0.021317,317.811670,24.304216,0.999225,0.992860,0.003562,0.363634,-0.000011,0.000011,-0.000007,0.000013,-0.000013,-73.873822,0.000015,
2041,2983,-4.77543620291712,7.34472023878953,0.00665553780282835,0.006469,0.000082,0.004300,0.286498,0.037787,316.329509,24.278863,0.999306,0.992081,0.003624,0.410779,-0.000025,-0.000015,-0.000013,-0.000007,-0.000034,-55.303506,0.000043,
2281,2683,0.486450606684784,0.836134614034322,-0.0201763079577404,0.007033,-0.000187,0.002925,0.313439,0.019424,320.131142,24.369012,0.999616,0.991931,0.003736,0.394777,-0.000002,0.000024,-0.000008,0.000026,-0.000004,-74.040836,0.000028,
2206,2143,-1.04998620719766,-10.9644538486069,0.0154162323277092,0.007037,0.000751,-0.000473,0.324382,0.044705,329.317211,23.855327,0.999237,0.984043,0.004988,0.294400,-0.000013,-0.000026,0.000003,-0.000013,-0.000027,13.890480,0.000040,
2446,3118,3.99532287569609,10.3037700978182,0.0171928847995559,0.006786,0.000506,-0.001702,0.318781,0.039540,313.390063,25.812196,0.999642,0.992152,0.003606,0.426600,-0.000009,0.000027,0.000004,0.000027,-0.000009,84.244205,0.000028,
2026,3013,-5.10517318832239,7.99539574333243,0.00837834881184563,0.006327,0.000263,0.001871,0.286863,0.031099,315.947718,24.302009,0.999518,0.993698,0.003416,0.319638,-0.000024,-0.000007,0.000002,-0.000006,-0.000024,82.739207,0.000032,
2011,3193,-5.45565235767665,11.8931198273007,0.0395553564691795,0.006659,0.000436,-0.000221,0.308390,0.046663,313.391901,24.011198,0.999721,0.995684,0.002679,0.425042,-0.000036,0.000064,-0.000019,0.000067,-0.000040,-79.427953,0.000068,
2071,3058,-4.13577418575293,8.97302212892056,0.0103111155002011,0.006979,0.000078,-0.000725,0.324069,0.018942,315.004372,24.306034,0.999361,0.992604,0.003437,0.425770,-0.000005,0.000011,-0.000011,0.000017,-0.000011,-62.916837,0.000017,
2026,2728,-5.06336022404667,1.80628747026072,-0.0259744656989938,0.006684,0.000224,0.002671,0.300716,0.040699,320.303813,24.392827,0.999648,0.992257,0.003580,0.430370,-0.000007,0.000013,0.000026,0.000030,-0.000025,55.313654,0.000032,
2101,3148,-3.49899750968988,10.9250885027091,0.0356429804617164,0.006588,0.000248,0.003148,0.294808,0.026720,313.563808,24.414710,0.999868,0.996703,0.002622,0.428652,-0.000009,0.000019,-0.000006,0.000020,-0.000010,-79.107236,0.000020,
2116,3043,-3.1575553388704,8.65148680216021,0.0231439161942717,0.006571,-0.000478,0.006003,0.285135,0.019435,315.091748,24.604950,0.999593,0.993547,0.003365,0.278483,-0.000003,0.000009,-0.000010,0.000015,-0.000009,-59.585783,0.000015,
2011,2908,-5.41517823364849,5.71637912341683,-0.00869592083967063,0.006362,0.000295,-0.000397,0.294662,0.041355,317.617224,24.285180,0.999157,0.992662,0.003591,0.390356,-0.000004,-0.000001,-0.000013,0.000011,-0.000016,-48.677106,0.000016,
2356,2593,2.13594784819914,-1.12296823324446,-0.0190770149207538,0.006697,0.000286,-0.001520,0.312935,0.028028,321.558166,24.140571,0.999263,0.987841,0.004408,0.373782,-0.000001,-0.000003,0.000008,0.000005,-0.000010,41.595427,0.000010,
2176,2173,-1.71564640821267,-10.2968902204785,-0.0663552352022521,0.006199,0.000013,-0.000777,0.286761,0.019411,328.201895,24.123260,0.999817,0.925435,0.008971,0.202111,-0.000001,-0.000021,-0.000003,-0.000001,-0.000022,-7.893774,0.000025,
2251,2548,-0.142822117881696,-2.108170390263,-0.0182673251156871,0.006481,-0.000445,0.004327,0.283471,0.023880,322.355537,24.139556,0.999765,0.993839,0.003335,0.420716,-0.000012,-0.000008,-0.000006,-0.000003,-0.000017,-54.859916,0.000021,
2251,2353,-0.106822841679726,-6.3688983588524,0.00934092044269619,0.006244,-0.000452,0.006184,0.266137,0.011041,325.723930,23.878905,0.999150,0.986036,0.004835,0.346234,-0.000021,-0.000010,-0.000015,0.000000,-0.000031,-54.732789,0.000036,
2071,2878,-4.1096435212891,5.06854449216902,-0.0196028202544767,0.006393,0.000289,-0.000938,0.297492,0.033548,317.657541,24.375411,0.999218,0.989306,0.004275,0.416940,-0.000016,0.000038,-0.000005,0.000038,-0.000016,-84.423649,0.000038,
2101,2968,-3.47198625533246,7.02352314328661,0.0029280905878295,0.006334,0.000067,0.002108,0.285920,0.037543,316.216329,24.468923,0.999544,0.991609,0.003599,0.381209,-0.000011,0.000011,-0.000014,0.000017,-0.000018,-64.555146,0.000020,
2236,2293,-0.423823359267306,-7.68017912597013,-0.00405122578445116,0.006225,0.000138,0.000458,0.284154,0.020175,326.628093,23.781543,0.999291,0.985867,0.004575,0.413623,-0.000012,-0.000012,-0.000011,-0.000001,-0.000023,-45.698739,0.000027,
2371,2713,2.43834919912689,1.49431649267767,-0.0286284581645759,0.006334,0.000026,0.002475,0.282223,0.029520,319.500842,24.436713,0.999514,0.991305,0.003681,0.394542,-0.000019,0.000018,-0.000012,0.000022,-0.000022,-73.688367,0.000025,
2056,3043,-4.45987385521207,8.64758673624478,0.0085035630364132,0.006211,0.000142,0.005901,0.270080,0.058700,315.263174,24.297850,0.999717,0.994553,0.003138,0.428538,-0.000008,0.000005,-0.000012,0.000012,-0.000016,-59.445061,0.000016,
2311,2368,1.19768020417125,-6.03929419308477,-0.00686849467564343,0.006455,0.000010,0.001882,0.289659,0.025633,325.295172,23.640880,0.999636,0.988842,0.004167,0.421717,-0.000016,-0.000016,-0.000005,-0.000011,-0.000021,-45.497229,0.000032,
2386,2713,2.76611806595837,1.49376974174322,-0.0188041356953477,0.006572,0.000179,0.000330,0.300733,0.025443,319.610536,24.412274,0.999590,0.992069,0.003543,0.414977,-0.000021,0.000020,-0.000008,0.000022,-0.000022,-78.793173,0.000025,
2086,2923,-3.79088867642805,6.04591410467125,-0.00572700658995018,0.006370,-0.000226,0.005348,0.278147,0.032243,316.943580,24.415654,0.999344,0.991083,0.003841,0.395861,-0.000022,0.000005,-0.000010,0.000008,-0.000025,-72.254180,0.000026,
2416,2968,3.37009706025365,7.04448466420516,-0.00493160351385313,0.006337,-0.000113,0.001719,0.285076,0.020119,315.580472,25.267935,0.999840,0.994325,0.003244,0.362268,-0.000004,0.000003,-0.000001,0.000003,-0.000004,-83.768419,0.000005,
2041,2998,-4.77752536368646,7.66997068978515,0.0111574682342166,0.006481,-0.000269,0.004944,0.285228,0.036162,316.121711,24.280294,0.999189,0.990623,0.003866,0.399468,-0.000030,-0.000004,-0.000007,-0.000002,-0.000032,-74.880285,0.000038,
2176,2008,-1.68166701749218,-13.9255407051798,0.0188337054216845,0.006952,0.000906,-0.002869,0.327660,0.050802,331.605183,23.801138,0.999132,0.984993,0.004971,0.381180,0.000019,-0.000033,0.000019,0.000025,-0.000039,17.712378,0.000040,
2206,2323,-1.08150257248358,-7.02537681998298,0.00799394613795812,0.006735,-0.000008,0.001562,0.304154,0.011084,326.336344,23.956650,0.998957,0.985831,0.004625,0.389539,-0.000014,-0.000028,-0.000017,-0.000003,-0.000039,-33.010895,0.000047,
2266,2623,0.170192492483221,-0.472163007444209,-0.0189800339705926,0.006548,-0.000500,0.006337,0.279769,0.013344,321.103718,24.262404,0.999331,0.988579,0.004301,0.395064,-0.000006,0.000002,-0.000005,0.000005,-0.000008,-63.549267,0.000008,
2461,3283,4.28588427758428,13.8868155355408,-0.00400964727680275,0.006627,0.000246,0.004152,0.289531,0.036621,310.501810,26.476625,0.999545,0.991998,0.003575,0.403439,0.000040,-0.000028,0.000021,0.000046,-0.000034,15.614545,0.000047,
2026,2923,-5.09185334768415,6.04260858271183,-0.00458646106022798,0.006481,0.000510,0.000230,0.298521,0.056600,317.315253,24.290241,0.999379,0.993050,0.003504,0.419422,-0.000027,-0.000013,-0.000012,-0.000006,-0.000033,-59.943418,0.000042,
2026,3238,-5.13729157214553,12.8681338244452,0.0561125440718229,0.006313,0.000442,0.001868,0.286668,0.053352,312.676489,24.065787,0.999633,0.995173,0.002908,0.414881,-0.000034,0.000026,-0.000024,0.000034,-0.000042,-70.667703,0.000044,
2191,2233,-1.39304013446271,-8.99344218632861,0.00849652980139126,0.006709,0.000266,-0.000512,0.309458,0.024765,327.838309,23.978741,0.998837,0.982588,0.005331,0.338019,-0.000020,-0.000008,-0.000011,-0.000001,-0.000026,-59.603770,0.000031,
2221,2218,-0.736439746686141,-9.32160191039942,0.0091090226308097,0.006598,0.000597,-0.001667,0.308129,0.033853,328.003797,23.847791,0.998889,0.983442,0.005086,0.316035,-0.000017,-0.000007,-0.000013,0.000001,-0.000026,-55.675183,0.000029,
2266,2383,0.213911235818031,-5.7113245938343,-0.0118893757222054,0.006728,-0.000389,0.003307,0.297686,0.008494,325.068201,23.831113,0.998413,0.980069,0.005568,0.394097,-0.000025,-0.000001,-0.000010,0.000002,-0.000028,-70.469826,0.000031,
2011,3208,-5.45788131259872,12.2181276598028,0.0401599104336015,0.006692,0.000535,-0.000614,0.310997,0.050015,313.154430,24.010587,0.999637,0.993855,0.003125,0.415814,-0.000031,0.000049,-0.000013,0.000051,-0.000033,-80.999067,0.000052,
2281,2473,0.524317987242561,-3.74478266540176,-0.00977924990763768,0.006331,0.000257,0.003999,0.277403,0.051935,323.588069,23.957982,0.999476,0.989413,0.004240,0.437830,-0.000006,-0.000016,-0.000006,-0.000003,-0.000019,-24.978019,0.000024,
2326,2503,1.49923107737373,-3.0881517662103,-0.0141641618580479,0.006557,0.000053,0.001951,0.294286,0.035527,323.044524,23.967383,0.999455,0.987604,0.004189,0.377364,0.000003,-0.000007,0.000008,0.000007,-0.000011,27.978445,0.000011,
2146,2038,-2.34167582716244,-13.2664173479196,0.0213394934245343,0.006606,0.000276,0.002119,0.296496,0.033280,331.217639,24.091133,0.999054,0.983895,0.005067,0.303255,0.000008,-0.000058,0.000003,0.000008,-0.000058,2.624851,0.000063,
2131,2008,-2.66319632384847,-13.9265191902347,0.0331561919913383,0.006727,-0.000022,0.001805,0.302901,0.035666,331.862566,24.092793,0.999131,0.984882,0.005161,0.383566,0.000020,-0.000039,0.000017,0.000025,-0.000043,14.855312,0.000043,
2146,3178,-2.52820664623957,11.5792645006335,0.0372088911526589,0.006688,0.000211,0.002994,0.299619,0.047970,312.890842,24.635752,0.999512,0.991561,0.003571,0.435894,-0.000018,0.000016,-0.000006,0.000016,-0.000019,-80.641576,0.000021,
2101,3163,-3.50173709051349,11.2508750992179,0.0286639392393795,0.006605,0.000383,0.000905,0.302285,0.035223,313.267492,24.426269,0.999769,0.995511,0.002869,0.425620,-0.000016,0.000027,-0.000010,0.000029,-0.000018,-77.321002,0.000029,
2281,2698,0.483874963955849,1.16268814378752,-0.0128315750140473,0.006824,-0.000187,0.005560,0.295056,0.035035,319.930312,24.422349,0.999789,0.993593,0.003458,0.384962,-0.000005,0.000008,-0.000007,0.000011,-0.000008,-66.645931,0.000011,
2071,2893,-4.11225696503542,5.39454218440002,-0.0155375298237459,0.006143,0.000042,0.003001,0.274675,0.036255,317.424775,24.413539,0.999393,0.991997,0.003815,0.377733,-0.000013,0.000026,-0.000010,0.000029,-0.000016,-76.385727,0.000029,
2176,2188,-1.71315352223504,-9.97753168120785,0.00354524756954788,0.006526,0.000326,0.001110,0.296048,0.035040,328.554044,24.029960,0.999210,0.948342,0.007512,0.323169,-0.000004,-0.000020,-0.000010,0.000000,-0.000024,-25.926029,0.000028,
2251,2368,-0.110452495169167,-6.03933850824885,-0.00273851669004443,0.006365,-0.000944,0.009477,0.260804,0.014030,325.375035,23.934694,0.999452,0.988747,0.004529,0.319097,-0.000025,-0.000009,-0.000015,0.000000,-0.000034,-59.188738,0.000039,
2296,2533,0.838901028883182,-2.43408563661622,-0.0338729872501062,0.006713,0.000018,0.002235,0.300750,0.029376,322.421523,23.914434,0.999756,0.994021,0.003292,0.548709,-0.000014,-0.000014,-0.000013,-0.000001,-0.000027,-44.403323,0.000031,
2131,3133,-2.84661226808604,10.6033902713205,0.0272189196795125,0.006521,0.000310,0.001194,0.297340,0.034771,313.602731,24.582354,0.999702,0.995250,0.003002,0.393445,-0.000009,0.000011,-0.000007,0.000013,-0.000011,-72.994056,0.000014,
2026,3028,-5.1067123983891,8.3193531869568,0.0148520517237216,0.006663,0.000081,0.001062,0.304642,0.034605,315.775753,24.199514,0.999443,0.992337,0.003742,0.415230,-0.000011,-0.000001,0.000008,0.000003,-0.000015,61.031072,0.000016,
2416,2983,3.36724750455187,7.3699704532745,-0.0058089835932833,0.006408,0.000286,0.000553,0.292749,0.029069,315.335771,25.247275,0.999863,0.994644,0.003155,0.439230,-0.000008,0.000009,-0.000002,0.000009,-0.000008,-84.105984,0.000010,
2026,3253,-5.14008210305319,13.1938290541228,0.0436360603697494,0.006619,0.000701,0.001832,0.300982,0.056767,312.340785,24.065829,0.999851,0.996393,0.002560,0.407327,-0.000035,0.000039,-0.000029,0.000049,-0.000045,-70.871135,0.000054,
2086,3103,-3.81751166469396,9.94953839511776,0.0240189203651653,0.006657,0.000181,0.003071,0.298379,0.040964,314.279728,24.377483,0.999754,0.993944,0.003115,0.421789,-0.000005,0.000015,-0.000012,0.000020,-0.000010,-64.686892,0.000020,
2236,2473,-0.45507797274416,-3.74717746002158,-0.00191318026577392,0.006347,-0.000073,0.002846,0.282251,0.023394,323.735923,24.019075,0.999500,0.990832,0.004057,0.452997,-0.000012,-0.000012,-0.000007,-0.000005,-0.000019,-46.017337,0.000025,
2296,2773,0.796078695153437,2.79750923030243,-0.0273627462040622,0.006720,0.000701,-0.004110,0.323157,0.036334,318.599198,24.550073,0.999344,0.989536,0.004132,0.407803,-0.000011,0.000001,-0.000008,0.000005,-0.000015,-63.764019,0.000015,
2116,3058,-3.16025415959611,8.9754374673492,0.0191384113916229,0.006441,0.000004,0.003699,0.286096,0.024287,314.815277,24.440685,0.999578,0.993505,0.003449,0.450386,-0.000003,0.000008,-0.000013,0.000016,-0.000011,-56.368557,0.000017,
2071,3073,-4.13824207100053,9.29834553419643,0.0134812809455411,0.006689,0.000276,-0.001015,0.311691,0.040163,314.773776,24.302039,0.999393,0.992168,0.003573,0.446954,-0.000003,0.000019,-0.000011,0.000024,-0.000008,-67.349945,0.000024,
2176,2023,-1.68385328521317,-13.5972277960971,0.0274292962321852,0.006860,0.000523,0.000167,0.313979,0.050988,331.422473,23.836557,0.998838,0.985316,0.004949,0.361580,0.000011,-0.000037,0.000009,0.000012,-0.000039,9.917704,0.000039,
2086,2938,-3.79220308162199,6.37130477055159,-0.000385262655413499,0.006732,0.000491,-0.000752,0.312753,0.050675,316.778526,24.402353,0.999329,0.991389,0.003805,0.425930,-0.000024,0.000006,-0.000006,0.000008,-0.000026,-78.527065,0.000026,
2491,2068,5.18870230504346,-12.6154578774172,0.0149891635506378,0.006223,0.000021,0.001923,0.277128,0.024149,330.514100,21.904777,0.999240,0.979243,0.005752,0.314564,0.000006,-0.000009,-0.000028,0.000028,-0.000031,-37.463668,0.000034,
2206,2158,-1.0531710192564,-10.6370327762872,0.0126397546029011,0.006585,0.000353,-0.000372,0.303200,0.024220,329.032503,23.752976,0.999151,0.985088,0.004951,0.395942,-0.000014,-0.000020,-0.000003,-0.000013,-0.000021,-20.539889,0.000034,
2056,2818,-4.42555878680673,3.76478341351576,-0.0258722622697292,0.006979,0.000315,-0.000576,0.323450,0.052674,318.688518,24.378764,0.999245,0.990393,0.003987,0.430325,-0.000031,0.000016,-0.000008,0.000018,-0.000033,-80.814896,0.000033,
2401,2878,3.06033741754728,5.08801367483176,-0.0240426604244135,0.006727,0.000257,0.000521,0.307516,0.055862,316.895790,24.943312,0.999434,0.991774,0.003667,0.414931,-0.000022,0.000006,-0.000009,0.000009,-0.000024,-74.211094,0.000025,
2221,2413,-0.771019518790073,-5.05586711194898,-0.00314871345545953,0.006628,0.000409,0.001081,0.301038,0.039777,324.747776,24.110074,0.999649,0.991159,0.003876,0.332223,-0.000016,-0.000005,-0.000022,0.000012,-0.000033,-52.141630,0.000034,
2191,2023,-1.35664785463026,-13.5977275956558,0.0253092214616117,0.006840,0.000191,0.000138,0.313026,0.018960,331.358665,23.731866,0.999115,0.984340,0.005013,0.333169,0.000004,-0.000038,0.000007,0.000006,-0.000039,8.991470,0.000043,
2011,3223,-5.46042928459336,12.5432793711813,0.0396800553710932,0.006731,0.000043,0.003374,0.301927,0.047905,312.896185,24.026185,0.999437,0.992823,0.003474,0.384833,-0.000030,0.000031,-0.000010,0.000032,-0.000032,-80.630057,0.000037,
2506,2173,5.49624459311206,-10.3123449745734,0.023827956848038,0.006509,0.000906,-0.000465,0.299861,0.052098,328.960403,22.221500,0.999017,0.977153,0.005706,0.378262,-0.000039,-0.000026,-0.000037,0.000005,-0.000070,-49.920579,0.000078,
2371,2728,2.43595791461174,1.82120592002287,-0.0242002306458176,0.006531,0.000193,0.003288,0.288486,0.046058,319.299779,24.506425,0.999521,0.990992,0.003762,0.382703,-0.000022,0.000004,-0.000009,0.000007,-0.000024,-72.881854,0.000025,
2026,3268,-5.14325081075615,13.5187947673559,0.0314507039233831,0.006573,0.000522,0.002479,0.297065,0.055649,311.989650,24.010296,0.999846,0.996857,0.002484,0.450375,-0.000038,0.000020,-0.000029,0.000032,-0.000050,-67.722740,0.000050,
2056,3058,-4.46160216254621,8.97294175440616,0.00692683558736462,0.006711,0.000064,0.002039,0.304012,0.043550,315.039327,24.298054,0.999542,0.993583,0.003348,0.406901,-0.000012,0.000013,-0.000013,0.000018,-0.000018,-66.534126,0.000021,
2026,2938,-5.09428538356892,6.36783861586464,-0.00298899124084073,0.006469,-0.000180,0.003779,0.287980,0.034688,317.074513,24.274667,0.999067,0.991386,0.003931,0.402803,-0.000029,-0.000017,-0.000003,-0.000017,-0.000029,-75.759978,0.000047,
2041,3013,-4.7803930189134,7.99673140964482,0.00494212749356393,0.006270,0.000140,0.003952,0.278378,0.041523,315.818138,24.345375,0.999448,0.992208,0.003667,0.331236,-0.000022,-0.000005,-0.000003,-0.000004,-0.000023,-79.052519,0.000029,
2041,2788,-4.74700750635868,3.11222751508613,-0.0249213371524206,0.006540,0.000136,0.002289,0.295081,0.038040,319.242396,24.425705,0.999188,0.989123,0.004061,0.367807,-0.000036,0.000026,-0.000007,0.000026,-0.000037,-83.189643,0.000038,
2326,2518,1.49599414180829,-2.76081204855713,-0.0144986314746234,0.006260,-0.000069,0.003684,0.274651,0.031114,322.779011,23.993695,0.999331,0.986417,0.004378,0.382302,-0.000001,-0.000011,0.000004,0.000000,-0.000012,21.042555,0.000014,
2446,3133,3.99174195383697,10.6296398989106,0.0188874957266307,0.006411,0.000088,0.002526,0.285587,0.034956,313.124963,25.896219,0.999570,0.988573,0.004107,0.388972,-0.000004,0.000027,0.000000,0.000027,-0.000004,-89.582216,0.000029,
2236,2308,-0.426140563153997,-7.3512169351681,-0.00889124463242297,0.006711,0.000335,-0.001684,0.313486,0.023579,326.374666,23.831276,0.998844,0.985205,0.004839,0.390567,-0.000015,-0.000016,-0.000011,-0.000005,-0.000026,-43.617426,0.000034,
2431,3073,3.67637217424005,9.32589363429049,0.00427138993791232,0.006350,-0.000013,0.001511,0.286526,0.024099,313.961886,25.592083,0.999669,0.992147,0.003625,0.424261,-0.000020,0.000023,-0.000009,0.000024,-0.000022,-79.072916,0.000027,
2161,2113,-2.02633792384895,-11.6222573046215,0.0167636866484031,0.006879,0.000512,-0.003170,0.325278,0.003863,329.950108,24.040042,0.999362,0.982757,0.005182,0.292984,0.000005,-0.000005,0.000008,0.000010,-0.000010,29.095209,0.000011,
2461,3298,4.2834162785053,14.2119709884446,-0.00360901338535768,0.006851,0.000492,0.000589,0.313453,0.050847,310.282396,26.510983,0.999562,0.993619,0.003388,0.436272,0.000054,-0.000037,0.000023,0.000059,-0.000043,13.539467,0.000061,
2026,3283,-5.14499045367962,13.843123628259,0.038892425253664,0.006738,0.000171,0.002420,0.304768,0.036662,311.814363,24.025869,0.999803,0.996559,0.002568,0.404547,-0.000050,0.000032,-0.000012,0.000034,-0.000051,-81.993709,0.000052,
2311,2383,1.19576773559973,-5.7116630828253,0.00070927400150822,0.006535,0.000497,-0.000682,0.302291,0.036147,325.128314,23.709774,0.999344,0.986838,0.004684,0.397099,-0.000011,-0.000005,-0.000004,-0.000002,-0.000013,-62.609710,0.000017,
2191,2248,-1.39503325542724,-8.66504853622938,0.00483852143850072,0.007175,0.000872,-0.004983,0.345075,0.031511,327.601764,23.961648,0.998746,0.983733,0.005184,0.378635,-0.000019,-0.000019,-0.000016,-0.000003,-0.000036,-44.970395,0.000043,
2356,2608,2.1336419171774,-0.796363910400494,-0.0171001257782564,0.007012,0.000390,-0.002339,0.330378,0.035193,321.348722,24.137047,0.999253,0.987320,0.004438,0.424310,0.000000,-0.000009,0.000005,0.000002,-0.000011,23.694056,0.000012,
2071,3088,-4.14108783804393,9.62348438396516,0.015823082063207,0.006275,0.000302,0.001902,0.284287,0.050906,314.521390,24.289826,0.999325,0.991296,0.003720,0.465712,-0.000005,0.000016,-0.000009,0.000019,-0.000008,-70.138121,0.000019,
2101,2983,-3.47421185633154,7.34885674457397,0.00152857257518235,0.006529,0.000031,0.000564,0.299487,0.038821,315.973964,24.432549,0.999586,0.993079,0.003377,0.419537,-0.000014,0.000005,-0.000012,0.000011,-0.000020,-64.049359,0.000020,
2416,2998,3.364735365256,7.69582293102022,-0.00144209971091414,0.006673,-0.000159,0.002767,0.296660,0.014874,315.131040,25.323288,0.999581,0.989445,0.003925,0.395861,-0.000009,0.000009,-0.000003,0.000010,-0.000010,-82.052143,0.000011,
2056,3073,-4.46389999403016,9.29727383453959,0.0127073620155329,0.006364,0.000212,0.001040,0.290883,0.046879,314.830382,24.237317,0.999415,0.992572,0.003690,0.464563,-0.000007,0.000022,-0.000012,0.000026,-0.000011,-69.600591,0.000026,
2506,2188,5.49230899826777,-9.98253307109891,0.0182010193773863,0.006244,0.000460,0.000235,0.284870,0.033230,328.655668,22.319817,0.998908,0.975330,0.006027,0.325333,-0.000032,-0.000016,-0.000032,0.000009,-0.000057,-51.849054,0.000061,
2191,2038,-1.35980900783152,-13.266689668632,0.0181360460010183,0.006794,0.000092,0.001704,0.305998,0.028104,331.050440,23.834457,0.999210,0.986435,0.004703,0.258197,0.000005,-0.000052,0.000001,0.000005,-0.000052,1.505080,0.000057,
2041,3028,-4.78230911327846,8.3208252396043,0.00949625940552323,0.006377,0.000241,0.003350,0.285014,0.039455,315.619029,24.248881,0.999511,0.992312,0.003714,0.417507,-0.000012,-0.000001,0.000000,-0.000001,-0.000012,-88.040252,0.000015,
2071,2908,-4.11439769709971,5.71986986024206,-0.0117857007086286,0.006285,-0.000002,0.005337,0.274550,0.043086,317.212194,24.387369,0.999494,0.992325,0.003641,0.406951,-0.000012,0.000014,-0.000014,0.000020,-0.000018,-66.014964,0.000022,
2281,2713,0.480750413914624,1.48889628606273,-0.0146384245877016,0.006263,0.000005,0.001776,0.282018,0.027241,319.658733,24.396748,0.999754,0.993221,0.003462,0.430860,-0.000008,0.000012,-0.000007,0.000014,-0.000010,-72.332868,0.000014,
2266,2398,0.211323390570055,-5.38278710808749,-0.0110770784109491,0.006624,0.000081,0.001509,0.299053,0.046472,324.833252,23.895107,0.999015,0.985709,0.004839,0.395361,-0.000025,0.000005,-0.000005,0.000006,-0.000026,-81.567269,0.000027,
2026,2743,-5.06583526545641,2.13205717949443,-0.0228559871954985,0.006438,-0.000252,0.005042,0.282719,0.028740,320.069094,24.375602,0.999510,0.990438,0.003915,0.426085,-0.000019,0.000018,0.000024,0.000030,-0.000031,63.861761,0.000036,
2371,2743,2.43317722970508,2.14758238087894,-0.0265159662177439,0.006709,0.000088,0.002135,0.300708,0.036612,319.048695,24.505161,0.999458,0.990382,0.003825,0.415883,-0.000024,0.000006,-0.000009,0.000009,-0.000026,-73.722784,0.000027,
2221,2233,-0.73880832639318,-8.99413044439271,0.0106630833898294,0.006784,0.000482,-0.000317,0.312338,0.021233,327.779753,23.814698,0.998932,0.983387,0.005160,0.357439,-0.000023,-0.000015,-0.000015,-0.000003,-0.000035,-52.836422,0.000042,
2116,3073,-3.16303899335537,9.30246241844287,0.00851815809789969,0.006533,0.000654,-0.000597,0.303245,0.024088,314.498127,24.526424,0.999716,0.993118,0.003629,0.366946,-0.000003,0.000013,-0.000012,0.000019,-0.000010,-62.255341,0.000019,
2131,3148,-2.84909383470417,10.9282589031854,0.0311075242089487,0.006332,0.000480,0.001957,0.286504,0.055129,313.379366,24.560422,0.999618,0.994214,0.003113,0.440360,-0.000010,0.000013,-0.000003,0.000013,-0.000010,-82.561052,0.000014,
2176,2203,-1.71521954523488,-9.65001446080292,0.00905767289543746,0.006643,0.000270,0.002213,0.298019,0.022225,328.360861,24.032013,0.998477,0.976925,0.005854,0.322754,-0.000001,-0.000006,-0.000006,0.000003,-0.000010,-34.100767,0.000010,
2026,3298,-5.14753232327206,14.1682427414282,0.0311558145745039,0.006801,0.000605,-0.001194,0.317822,0.052923,311.516887,24.000375,0.999470,0.994550,0.003126,0.435271,-0.000066,0.000026,-0.000003,0.000026,-0.000067,-88.029679,0.000067,
2251,2563,-0.144894201174623,-1.78119151735977,-0.0165543776506638,0.006915,-0.000028,0.004057,0.304417,0.025557,322.147701,24.158172,0.999609,0.991699,0.003701,0.427970,-0.000015,0.000002,-0.000008,0.000005,-0.000018,-68.502397,0.000018,
2221,2428,-0.772789647115378,-4.73250770874618,0.00847452390905801,0.006591,0.000148,0.000836,0.300021,0.028961,324.603221,23.859215,0.999682,0.990615,0.003954,0.592374,-0.000011,-0.000021,-0.000023,0.000008,-0.000039,-38.914620,0.000041,
2011,3238,-5.46227057830851,12.8672797980075,0.0464787196341945,0.006589,0.000447,-0.000388,0.305690,0.053473,312.711877,23.972981,0.999564,0.993423,0.003376,0.430209,-0.000031,0.000023,-0.000015,0.000027,-0.000035,-75.154760,0.000037,
2026,2953,-5.09566762048166,6.69333430246183,0.0016572380263824,0.006810,0.000392,-0.001236,0.317665,0.035315,316.898817,24.286156,0.999424,0.992346,0.003546,0.381486,-0.000027,-0.000026,-0.000008,-0.000018,-0.000034,-46.833374,0.000053,
2236,2488,-0.458299577088621,-3.41783635382799,-0.0143488904122933,0.006601,-0.000096,0.002376,0.295479,0.016151,323.401982,24.108793,0.999525,0.989131,0.004121,0.378938,-0.000016,-0.000009,-0.000008,-0.000004,-0.000022,-57.094707,0.000027,
2281,2488,0.520842917587586,-3.41862739318535,-0.0137286824182183,0.006078,-0.000410,0.007265,0.254645,0.018716,323.290434,23.860805,0.999719,0.991093,0.003919,0.530739,-0.000008,-0.000009,-0.000007,-0.000001,-0.000016,-44.463158,0.000019,
2086,2953,-3.79486562644363,6.69721236558054,-0.00183025171531881,0.006678,0.000357,0.001065,0.305041,0.053822,316.514524,24.408034,0.999348,0.992495,0.003644,0.421978,-0.000017,0.000005,-0.000010,0.000009,-0.000021,-68.346146,0.000021,
2251,2383,-0.112579519352547,-5.71346410747666,-0.00557212143297647,0.006688,-0.000822,0.004184,0.292996,-0.001632,325.142347,23.767529,0.999154,0.986723,0.004709,0.495654,-0.000025,-0.000003,-0.000012,0.000002,-0.000030,-65.928349,0.000034,
2326,2533,1.49319347605507,-2.43337295066603,-0.0189152214508113,0.006321,0.000251,0.000312,0.289194,0.025225,322.513531,23.998850,0.999367,0.986867,0.004359,0.406855,0.000000,-0.000016,-0.000004,0.000001,-0.000017,-14.385327,0.000019,
2176,2038,-1.68672550193141,-13.2674553445153,0.0278972206778576,0.006571,0.000192,0.002141,0.294579,0.028895,331.166030,23.940338,0.999119,0.985512,0.004799,0.251515,0.000010,-0.000047,0.000003,0.000010,-0.000047,3.442732,0.000050,
2206,2338,-1.08478032845765,-6.69508890367457,-0.00295694003790459,0.006472,0.000883,-0.002854,0.306392,0.031605,326.004287,24.060083,0.999488,0.988930,0.004280,0.325795,-0.000018,-0.000016,-0.000014,-0.000003,-0.000032,-46.393398,0.000038,
2041,3043,-4.78417278503212,8.6459045429599,0.0132303768830866,0.006498,0.000325,0.001217,0.296625,0.044139,315.417430,24.234293,0.999703,0.994950,0.003036,0.428315,-0.000011,0.000002,-0.000008,0.000006,-0.000015,-63.534745,0.000015,
2386,2728,2.76335862411308,1.8203967545537,-0.0180399749057756,0.006857,-0.000247,0.002989,0.304157,0.012594,319.376304,24.457307,0.999574,0.991453,0.003743,0.400584,-0.000022,0.000005,-0.000004,0.000006,-0.000023,-81.378827,0.000024,
2356,2623,2.12986286177408,-0.46872165490624,-0.0182900430259565,0.006323,0.000410,-0.000331,0.291702,0.045380,321.056109,24.203408,0.999162,0.987417,0.004457,0.407562,-0.000003,0.000007,-0.000001,0.000007,-0.000003,-86.108124,0.000007,
2041,2803,-4.74907863122692,3.43782470515108,-0.0252765938077459,0.006753,0.000069,0.001589,0.306843,0.020730,319.008074,24.388380,0.999412,0.990888,0.003709,0.380297,-0.000034,0.000017,-0.000007,0.000018,-0.000035,-82.034197,0.000035,
2206,2173,-1.05579827517759,-10.3086828522337,0.0137532621598666,0.006410,0.000128,-0.000566,0.295731,0.011769,328.793092,23.774167,0.999355,0.986065,0.004703,0.381610,-0.000015,-0.000014,-0.000001,-0.000013,-0.000016,-67.070632,0.000029,
2131,2023,-2.66631232121768,-13.5936071024117,0.0153545239867867,0.007010,0.000591,-0.000740,0.323730,0.036069,331.493552,24.247077,0.999120,0.984329,0.005218,0.239833,0.000008,-0.000051,0.000003,0.000009,-0.000051,2.512112,0.000055,
2341,2563,1.81478419781943,-1.77842822096932,-0.0143466988122896,0.006474,-0.000046,0.001203,0.293029,0.023621,322.064766,24.080142,0.999045,0.985936,0.004650,0.372627,-0.000007,0.000000,0.000003,0.000001,-0.000008,71.306014,0.000009,
2266,2638,0.1678816090885,-0.145225287870105,-0.0206228301829583,0.006863,-0.000370,0.003926,0.302287,0.016354,320.869052,24.270803,0.999243,0.987906,0.004307,0.415956,-0.000008,0.000006,-0.000004,0.000007,-0.000008,-76.218923,0.000009,
2221,2248,-0.741888250082862,-8.66600206268448,0.00303829526490063,0.006849,0.000236,0.000214,0.313541,0.034822,327.475998,23.726390,0.998849,0.982779,0.005244,0.481085,-0.000021,-0.000025,-0.000016,-0.000007,-0.000040,-41.614337,0.000050,
2041,3073,-4.78810698252094,9.29564839146761,0.0227090970204813,0.006695,0.000418,0.001515,0.304941,0.050866,315.016167,24.193014,0.999440,0.992857,0.003593,0.459583,-0.000009,0.000027,-0.000007,0.000028,-0.000010,-79.651499,0.000029,
2296,2788,0.793426858815138,3.12329589348554,-0.0219484376815444,0.006772,0.000075,0.000813,0.308785,0.041987,318.386204,24.552605,0.999354,0.990413,0.003968,0.440721,-0.000006,-0.000002,-0.000004,0.000000,-0.000008,-59.138961,0.000009,
2431,3088,3.67521311586087,9.65090494501096,0.0224571090370205,0.006615,0.000227,0.000569,0.302307,0.034024,313.884595,25.676162,0.999671,0.993005,0.003506,0.398950,-0.000015,0.000024,-0.000008,0.000025,-0.000017,-78.514453,0.000026,
2026,3043,-5.10886566902556,8.64392960596952,0.0175060522289527,0.006653,0.000155,0.000829,0.304842,0.037929,315.554089,24.132255,0.999400,0.992435,0.003756,0.475106,-0.000008,0.000004,-0.000001,0.000004,-0.000008,-83.326608,0.000008,
2146,2053,-2.34431890414912,-12.9385171779939,0.0257465807250128,0.006070,0.000071,0.001955,0.272369,0.032755,330.990009,24.052135,0.998950,0.983329,0.005082,0.353245,0.000004,-0.000038,0.000007,0.000006,-0.000039,9.478178,0.000043,
2056,2833,-4.4281428515595,4.09034871511557,-0.018419940809224,0.006465,0.000084,0.002545,0.290906,0.049870,318.474899,24.392220,0.998965,0.987857,0.004375,0.408288,-0.000033,0.000018,-0.000009,0.000019,-0.000034,-80.089129,0.000034,
2491,2083,5.18640212906194,-12.287250608876,0.0203314519224591,0.006397,0.000471,-0.000032,0.292757,0.032140,330.332619,21.910548,0.999316,0.978548,0.005627,0.378871,-0.000003,-0.000019,-0.000024,0.000014,-0.000036,-35.275043,0.000036,
2026,2968,-5.09768621738692,7.01847325714115,0.00314965003980205,0.006985,0.000520,-0.001590,0.326762,0.031095,316.676495,24.251493,0.999418,0.992205,0.003518,0.401720,-0.000022,-0.000017,-0.000009,-0.000010,-0.000029,-52.835441,0.000040,
2476,1993,4.87896956363169,-14.2658962968199,0.0429005260756412,0.006776,0.000497,0.000065,0.309550,0.038842,331.947706,21.724530,0.998380,0.970418,0.006533,0.303315,0.000056,-0.000103,0.000013,0.000057,-0.000104,4.531005,0.000105,
2446,3148,3.98942255433476,10.9552273374194,0.0212709743063897,0.006582,0.000619,-0.001274,0.307861,0.046512,312.921184,25.945732,0.999574,0.990881,0.003734,0.401928,-0.000004,0.000017,-0.000001,0.000017,-0.000004,-87.848595,0.000018,
2371,2758,2.42994422162824,2.47517020162625,-0.0290900674031036,0.006508,0.000488,0.001628,0.293493,0.050048,318.775181,24.595221,0.999082,0.986979,0.004250,0.380484,-0.000021,0.000009,-0.000008,0.000011,-0.000023,-75.554080,0.000023,
2041,1993,-4.62455838264991,-14.2518218495519,0.0223761910061171,0.006537,0.000245,-0.000463,0.301162,0.025483,332.452431,24.733231,0.998641,0.982405,0.005476,0.354941,0.000092,-0.000106,0.000032,0.000097,-0.000112,9.054101,0.000121,
2146,3193,-2.53093336165648,11.9042282887981,0.0372807235601158,0.006473,-0.000160,0.002824,0.290089,0.026148,312.636805,24.652593,0.999567,0.993391,0.003247,0.403708,-0.000020,0.000009,-0.000007,0.000011,-0.000021,-76.619063,0.000021,
2296,2548,0.836986686750748,-2.10649226428433,-0.0180071246976468,0.006611,0.000032,0.005596,0.284763,0.050987,322.294204,24.092202,0.999392,0.989668,0.004134,0.423007,-0.000010,-0.000007,-0.000010,0.000002,-0.000018,-50.016860,0.000020,
2011,3253,-5.46446558727598,13.1927070025689,0.0440790845691481,0.006777,0.000805,-0.001841,0.318474,0.061551,312.458947,24.000161,0.999852,0.996016,0.002672,0.397801,-0.000031,0.000045,-0.000021,0.000050,-0.000037,-75.614133,0.000052,
2086,2968,-3.79743076361989,7.02216566739691,0.00603583401590413,0.006236,0.000015,0.004470,0.274711,0.052487,316.306085,24.399178,0.999366,0.992157,0.003629,0.427782,-0.000010,0.000009,-0.000013,0.000016,-0.000017,-62.534204,0.000019,
2506,2203,5.4892949948456,-9.65460994341601,0.0233730384147748,0.006108,0.000329,0.002583,0.269554,0.042201,328.441195,22.336797,0.999018,0.974487,0.006080,0.380829,-0.000025,-0.000043,-0.000030,-0.000002,-0.000066,-36.662947,0.000078,
2101,3178,-3.50435130800546,11.575376898117,0.024591045617683,0.006684,0.000254,0.000576,0.306873,0.028141,312.993191,24.357088,0.999815,0.995903,0.002728,0.487721,-0.000019,0.000025,-0.000011,0.000027,-0.000022,-76.182581,0.000029,
2161,2128,-2.02975864834013,-11.293236351605,0.0105255398174791,0.006568,0.000117,0.000418,0.299958,0.025858,329.631927,23.991955,0.999365,0.981677,0.005277,0.376690,0.000004,-0.000010,0.000009,0.000008,-0.000014,26.292196,0.000014,
2191,2053,-1.36268429841142,-12.937819328031,0.0121354466627395,0.006680,0.000391,-0.000445,0.307620,0.032519,330.761621,23.763852,0.999197,0.983078,0.005058,0.351477,0.000002,-0.000031,0.000010,0.000005,-0.000034,16.014676,0.000037,
2176,2218,-1.71797303814249,-9.3221638322862,0.00932870811840303,0.006552,-0.000710,0.005023,0.284835,-0.004486,328.108919,24.028463,0.998628,0.979946,0.005574,0.314546,-0.000007,0.000001,-0.000009,0.000007,-0.000013,-57.390873,0.000013,
2071,3103,-4.14256153814526,9.94839485967174,0.0266076346428576,0.006512,0.000495,0.001660,0.295944,0.049018,314.378437,24.325656,0.999582,0.993050,0.003311,0.423653,-0.000002,0.000018,-0.000007,0.000020,-0.000004,-71.617807,0.000022,
2116,3088,-3.16522803633422,9.6274113651477,0.0159220783290266,0.006412,0.000382,0.000618,0.294064,0.030713,314.306153,24.534248,0.999707,0.992952,0.003455,0.368277,-0.000008,0.000011,-0.000010,0.000015,-0.000013,-66.299155,0.000016,
2251,2578,-0.147639057568512,-1.45443246875864,-0.0117198181711728,0.006625,-0.000323,0.006138,0.284207,0.023342,321.924827,24.192414,0.999420,0.989882,0.004038,0.415597,-0.000014,0.000007,-0.000011,0.000012,-0.000019,-66.284705,0.000019,
2326,2548,1.49054787730438,-2.10607762011724,-0.0171053232617169,0.006691,0.000047,0.005169,0.289436,0.065757,322.285380,24.005147,0.999098,0.985163,0.004711,0.476652,0.000002,-0.000011,-0.000006,0.000004,-0.000013,-20.240204,0.000014,
2191,2263,-1.39861975508153,-8.33599373964948,-0.00110202237260637,0.006671,0.000622,-0.002787,0.315028,0.020649,327.280441,24.005246,0.998940,0.982433,0.005250,0.341508,-0.000018,-0.000021,-0.000016,-0.000003,-0.000036,-42.170955,0.000044,
2266,2413,0.209416780886453,-5.0563169665804,-0.00129946251240654,0.006640,0.000312,0.001066,0.301375,0.047719,324.674972,23.896489,0.999207,0.987436,0.004505,0.422050,-0.000024,0.000002,-0.000005,0.000003,-0.000025,-78.901897,0.000027,
2416,3013,3.36176363770449,8.02236757234719,-0.00104121989028272,0.006530,0.000169,0.001658,0.294311,0.030526,314.886260,25.410221,0.999486,0.987212,0.004166,0.371566,-0.000008,0.000008,-0.000005,0.000010,-0.000010,-73.498362,0.000011,
2056,3088,-4.46620406151832,9.62263027185199,0.017620822782817,0.006251,0.000089,0.003001,0.280076,0.036638,314.616018,24.281984,0.999459,0.992711,0.003500,0.403305,-0.000007,0.000018,-0.000010,0.000022,-0.000011,-70.310154,0.000022,
2491,2098,5.18498535247339,-11.9600003104204,0.0419886410882668,0.006379,0.000322,0.001467,0.286137,0.019862,330.264867,22.032703,0.999590,0.983815,0.005037,0.305299,-0.000013,-0.000022,-0.000034,0.000016,-0.000052,-40.882119,0.000053,
2401,2893,3.05811651786313,5.41378476723951,-0.0179007807604421,0.006711,0.000682,-0.002334,0.317331,0.064501,316.712299,24.975677,0.999490,0.991487,0.003740,0.436387,-0.000022,-0.000001,-0.000007,0.000001,-0.000024,-73.044920,0.000027,
2026,3058,-5.11071746338335,8.96933219992791,0.0219659631344484,0.006943,-0.000141,0.002310,0.314014,0.010399,315.356103,24.187003,0.999228,0.991045,0.003851,0.382122,-0.000015,0.000023,-0.000004,0.000023,-0.000015,-84.656415,0.000023,
2041,2008,-4.62789232107097,-13.9212223408075,0.0184309484058076,0.005894,0.000048,0.003483,0.260701,0.031771,332.138697,24.820740,0.997929,0.980705,0.005873,0.270409,0.000083,-0.000063,0.000052,0.000100,-0.000080,17.821230,0.000105,
2086,2983,-3.79979652725672,7.34745866850519,0.00401825414843415,0.006366,-0.000216,0.003872,0.282351,0.034637,316.052832,24.373364,0.999496,0.993185,0.003420,0.434134,-0.000014,0.000003,-0.000012,0.000009,-0.000020,-62.870997,0.000020,
2026,2983,-5.10047806279031,7.34424530921933,0.00190552685756984,0.006696,0.000656,0.000397,0.308048,0.049413,316.403200,24.237902,0.999205,0.991864,0.003747,0.423083,-0.000028,-0.000025,-0.000010,-0.000016,-0.000036,-49.751099,0.000054,
2476,2008,4.87448149844771,-13.9352933082934,0.0298334572645444,0.006484,0.000218,0.000458,0.294655,0.020658,331.582165,21.738101,0.999132,0.975541,0.005850,0.332547,0.000045,-0.000070,0.000026,0.000051,-0.000076,12.226722,0.000077,
2236,2323,-0.429124333372823,-7.02374634900765,-0.009032120990355,0.006637,-0.000277,0.002438,0.296584,0.016369,326.114866,23.807769,0.998694,0.986836,0.004722,0.430131,-0.000015,-0.000026,-0.000016,-0.000003,-0.000038,-35.508893,0.000046,
2281,2503,0.518811615203312,-3.0882127052357,-0.0167811114660026,0.006708,0.000182,0.003420,0.296661,0.048931,323.062322,24.103809,0.999724,0.992300,0.003739,0.346973,-0.000010,-0.000008,-0.000006,-0.000003,-0.000015,-49.671741,0.000019,
2206,2188,-1.05805490498286,-9.97936353955414,0.013091257411304,0.006833,0.000145,0.000668,0.311282,0.027448,328.561188,23.842123,0.998969,0.981898,0.005267,0.348884,-0.000018,-0.000017,-0.000008,-0.000009,-0.000025,-45.683557,0.000036,
2251,2398,-0.114948703457301,-5.38469162102403,-0.00465333703294846,0.006793,-0.000612,0.002661,0.302851,-0.010984,324.916898,23.900522,0.999304,0.989879,0.004267,0.378089,-0.000026,0.000002,-0.000009,0.000004,-0.000029,-74.524927,0.000031,
2086,3118,-3.81991259215499,10.2749441481442,0.0245573418949903,0.006584,0.000363,0.002081,0.297963,0.049117,314.038823,24.388317,0.999767,0.994200,0.003001,0.417071,-0.000006,0.000019,-0.000009,0.000022,-0.000009,-72.061887,0.000023,
2311,2398,1.19512404336203,-5.38643107328228,0.0181785777743357,0.007215,0.000469,-0.002181,0.338588,0.037067,325.068606,23.667069,0.999292,0.987778,0.004741,0.473945,-0.000007,0.000000,0.000000,0.000000,-0.000007,-89.528261,0.000008,
2071,2923,-4.11583347978819,6.04486967685698,-0.0053640540310198,0.006646,0.000036,0.002525,0.299256,0.035482,317.046729,24.368054,0.999446,0.991854,0.003679,0.415063,-0.000021,0.000002,-0.000009,0.000005,-0.000024,-71.197218,0.000025,
2131,3163,-2.85138095071953,11.2531088271286,0.0335999479215161,0.006443,0.000229,0.002875,0.288739,0.039761,313.157488,24.567268,0.999522,0.992336,0.003462,0.422474,-0.000014,0.000020,-0.000005,0.000020,-0.000014,-81.550633,0.000021,
2146,2068,-2.34666831422583,-12.609071677733,0.0255185795855368,0.006195,0.000023,0.002535,0.276326,0.048813,330.751011,24.090770,0.998891,0.981692,0.005303,0.341671,0.000005,-0.000027,0.000011,0.000008,-0.000031,17.339548,0.000032,
2221,2443,-0.77570931890558,-4.4017949533716,-0.000322065148282036,0.006989,0.000036,0.002177,0.314033,0.027757,324.299928,24.084078,0.999200,0.988105,0.004533,0.386938,-0.000008,-0.000018,-0.000020,0.000007,-0.000033,-37.772386,0.000034,
2041,3058,-4.78570394108833,8.97029875998972,0.0239188183272745,0.006800,0.000034,0.003514,0.304083,0.038739,315.270030,24.215333,0.999674,0.994603,0.003126,0.433283,-0.000016,0.000015,-0.000009,0.000018,-0.000018,-75.231306,0.000021,
2026,3073,-5.11308970822828,9.29409982125324,0.0241274711639221,0.006837,-0.000274,0.003547,0.305784,0.027040,315.121618,24.128085,0.999200,0.992907,0.003608,0.447050,-0.000009,0.000035,-0.000001,0.000035,-0.000009,-89.065354,0.000037,
2101,2998,-3.47664027419134,7.6754384192616,-0.00463805534332096,0.006679,0.000696,-0.003333,0.318038,0.050333,315.696022,24.472811,0.999592,0.993545,0.003322,0.391587,-0.000015,0.000012,-0.000006,0.000013,-0.000016,-78.372937,0.000017,
2131,2038,-2.66927282601561,-13.2659397847709,0.0146282590825422,0.006697,0.000120,0.002718,0.298929,0.040440,331.223023,24.119472,0.999284,0.984482,0.005197,0.381240,0.000004,-0.000061,0.000001,0.000004,-0.000061,0.791936,0.000068,
2296,2563,0.834983721957304,-1.77984807821196,-0.0123713831376904,0.006686,-0.000302,0.002372,0.298948,0.014119,322.112552,24.153803,0.999132,0.988225,0.004602,0.355220,-0.000013,0.000007,-0.000010,0.000011,-0.000017,-67.637207,0.000017,
2281,2728,0.477507028166787,1.81616272369979,-0.0211457127707035,0.006318,-0.000220,0.003229,0.279593,0.016817,319.357932,24.437959,0.999704,0.992793,0.003468,0.407461,-0.000009,0.000006,-0.000008,0.000009,-0.000012,-65.951423,0.000013,
2341,2578,1.81208094031757,-1.45103046709259,-0.0166444885094279,0.006613,0.000546,-0.000664,0.306182,0.040149,321.815154,24.093071,0.999025,0.986179,0.004532,0.413545,-0.000004,0.000008,0.000001,0.000008,-0.000005,83.679636,0.000008,
2056,2848,-4.43014098280794,4.41616679936186,-0.0196018754967895,0.006774,0.000277,0.000863,0.309933,0.042612,318.240460,24.372012,0.999290,0.990747,0.003889,0.415805,-0.000035,0.000030,-0.000010,0.000032,-0.000037,-81.594138,0.000040,
2191,2068,-1.36583845765459,-12.6095985308628,0.00871730394305814,0.006489,-0.000249,0.002904,0.288268,0.010914,330.473628,23.694982,0.999514,0.983987,0.005047,0.416721,0.000002,-0.000023,0.000014,0.000008,-0.000029,24.000931,0.000030,
2041,2023,-4.6294592068878,-13.5930436964771,0.0214537812170761,0.006230,0.000289,0.001672,0.281234,0.045193,331.944360,24.765217,0.998032,0.981466,0.005763,0.335220,0.000055,-0.000121,0.000022,0.000057,-0.000124,6.897438,0.000124,
2011,3268,-5.46694011939212,13.5167031769795,0.0463672236649018,0.006575,0.000710,-0.000513,0.305478,0.053697,312.220240,23.941288,0.999859,0.996146,0.002627,0.435319,-0.000034,0.000025,-0.000020,0.000031,-0.000041,-72.871114,0.000042,
2386,2743,2.76069523252719,2.14696313299434,-0.0172388005870516,0.006768,0.000134,-0.000267,0.311948,0.030388,319.146548,24.470852,0.999643,0.992040,0.003667,0.448286,-0.000023,0.000008,-0.000005,0.000009,-0.000024,-81.273736,0.000025,
2326,2563,1.48780883599503,-1.77864364636496,-0.0153306662635373,0.006481,-0.000030,0.003510,0.285470,0.033701,322.052922,24.100850,0.998869,0.984333,0.004889,0.383840,-0.000002,0.000000,-0.000005,0.000004,-0.000006,-50.183248,0.000006,
2356,2638,2.12774271220268,-0.141751796114356,-0.0144584080116488,0.006645,0.000573,-0.001677,0.311279,0.037026,320.863986,24.273609,0.999252,0.987547,0.004437,0.368376,-0.000008,0.000008,-0.000007,0.000011,-0.000010,-70.048527,0.000012,
2056,3103,-4.46787276060082,9.94735070189296,0.0252183477577432,0.006393,0.000327,0.001453,0.291144,0.054455,314.445871,24.260247,0.999459,0.992550,0.003482,0.436433,-0.000002,0.000023,-0.000007,0.000025,-0.000004,-75.320984,0.000027,
2101,3193,-3.50642376539975,11.9005181427867,0.0354433755277341,0.006492,0.000309,0.002379,0.292738,0.032342,312.824509,24.427389,0.999644,0.994424,0.003086,0.421666,-0.000020,0.000017,-0.000015,0.000023,-0.000026,-70.313442,0.000028,
2446,3163,3.98673371558994,11.2809809417573,0.0254708075594863,0.006554,0.000727,-0.001182,0.306347,0.053689,312.708658,26.029490,0.999602,0.991395,0.003805,0.376532,-0.000002,0.000020,0.000005,0.000021,-0.000003,77.453651,0.000023,
2281,2518,0.516306099361341,-2.76261550734762,-0.0139823359180014,0.006588,0.000133,0.002030,0.295799,0.034710,322.842734,24.007913,0.999759,0.992615,0.003683,0.457470,-0.000010,-0.000012,-0.000007,-0.000004,-0.000018,-39.521301,0.000023,
2431,3103,3.67172457987743,9.97711245004183,0.013752860848399,0.006668,0.000060,-0.001115,0.310919,0.012468,313.574388,25.734624,0.999742,0.994231,0.003298,0.367975,-0.000014,0.000026,-0.000002,0.000026,-0.000014,-87.300197,0.000026,
2086,2998,-3.80159474063142,7.67343033664092,0.00670129796390029,0.006647,0.000061,0.001323,0.302742,0.028119,315.850994,24.434825,0.999571,0.993436,0.003290,0.364453,-0.000016,0.000010,-0.000006,0.000011,-0.000017,-78.023287,0.000017,
2491,2113,5.18210211547124,-11.6323355487519,0.0459491905359641,0.006284,-0.000025,0.001867,0.280149,0.014712,330.050439,21.995319,0.999651,0.984399,0.004907,0.399397,-0.000023,-0.000038,-0.000037,0.000007,-0.000068,-39.482120,0.000075,
2221,2263,-0.744970293526659,-8.33657205382796,0.00228017924945334,0.006551,-0.000226,0.002246,0.293257,0.011940,327.207150,23.869574,0.998973,0.982951,0.005192,0.336485,-0.000019,-0.000026,-0.000016,-0.000006,-0.000038,-38.721219,0.000048,
2266,2428,0.206379797911211,-4.72793886721988,-0.00602875028721428,0.006623,0.000292,0.001107,0.300461,0.038699,324.391807,23.949724,0.999339,0.988477,0.004318,0.386720,-0.000019,-0.000009,-0.000011,-0.000001,-0.000026,-57.451103,0.000031,
2041,3088,-4.79090089848461,9.62237090894875,0.0128908392222797,0.006625,0.000570,-0.002159,0.312046,0.046173,314.696027,24.263267,0.999635,0.994426,0.003107,0.375943,-0.000008,0.000022,-0.000007,0.000023,-0.000010,-77.862795,0.000023,
2176,2053,-1.6890984875075,-12.9379529141007,0.021395149062414,0.006967,0.000373,-0.000014,0.319452,0.033228,330.895967,23.920769,0.999218,0.985325,0.004705,0.291436,0.000007,-0.000030,0.000011,0.000010,-0.000033,15.283684,0.000034,
2236,2503,-0.461292994988096,-3.09012724972204,-0.0170935462409147,0.006473,0.000266,0.003105,0.287390,0.040175,323.127978,24.112459,0.999481,0.988629,0.004172,0.421794,-0.000013,-0.000007,-0.000005,-0.000005,-0.000016,-59.547783,0.000021,
2266,2653,0.165136013619364,0.183100314612737,-0.0246204748394234,0.007024,-0.000025,0.002947,0.313119,0.041611,320.602178,24.369549,0.999485,0.990302,0.004026,0.368662,-0.000008,0.000007,0.000001,0.000007,-0.000008,86.579832,0.000008,
2206,2353,-1.08752289977074,-6.36828404492607,-0.000543889972959732,0.006391,0.000444,0.001173,0.289815,0.045937,325.766199,23.988418,0.999693,0.989632,0.004159,0.430302,-0.000019,-0.000010,-0.000016,0.000002,-0.000031,-52.868194,0.000035,
2086,3133,-3.82193492268259,10.5998820083035,0.028507368779799,0.006708,0.000396,0.001614,0.305080,0.045677,313.834111,24.392371,0.999741,0.993840,0.003015,0.407543,-0.000002,0.000023,-0.000007,0.000024,-0.000004,-75.963299,0.000026,
2311,2413,1.19058108723563,-5.05644999954932,-0.000380294059311836,0.006666,0.000814,-0.004234,0.320576,0.024731,324.652467,23.733161,0.999453,0.988143,0.004509,0.429789,-0.000007,-0.000004,0.000002,-0.000003,-0.000008,61.337633,0.000012,
2041,2818,-4.75136603083891,3.76325142646913,-0.021538532123941,0.006586,-0.000119,0.002223,0.297343,0.024449,318.786587,24.350087,0.999279,0.990804,0.003853,0.414536,-0.000036,0.000017,-0.000010,0.000019,-0.000038,-79.244430,0.000038,
2476,2023,4.8714395624077,-13.6054114815017,0.0316884743136825,0.006495,-0.000137,0.002009,0.289171,0.015874,331.350114,21.848444,0.999398,0.981668,0.005236,0.277588,0.000043,-0.000053,0.000014,0.000045,-0.000055,8.215394,0.000058,
2416,3028,3.35841336642512,8.34836344773308,-0.00362535981918199,0.006312,0.000200,0.001376,0.285379,0.036027,314.610153,25.441024,0.999520,0.988905,0.004050,0.393421,-0.000010,0.000009,-0.000009,0.000012,-0.000013,-68.213900,0.000015,
2131,2053,-2.67133049767832,-12.9367755263967,0.0195490692987619,0.006741,0.000096,0.003248,0.299430,0.024187,331.023600,24.217081,0.998840,0.981047,0.005411,0.276324,0.000000,-0.000038,0.000006,0.000001,-0.000039,7.960340,0.000044,
2506,2218,5.4862274139545,-9.32613111406747,0.0202335790584698,0.006574,-0.000469,0.004259,0.284081,0.002362,328.187379,22.371367,0.999091,0.976033,0.005878,0.369924,-0.000023,-0.000049,-0.000013,-0.000017,-0.000054,-21.902137,0.000074,
2146,3208,-2.53308786431083,12.2294759698249,0.0382376905466799,0.006658,0.000439,0.000926,0.304641,0.054343,312.413636,24.654605,0.999619,0.994247,0.003103,0.436621,-0.000017,0.000007,-0.000005,0.000008,-0.000018,-78.664871,0.000018,
2131,3178,-2.8537299524384,11.5778687165585,0.0356527133393456,0.006442,-0.000068,0.002577,0.289547,0.029524,312.930447,24.561604,0.999280,0.989187,0.003896,0.422363,-0.000015,0.000018,-0.000006,0.000019,-0.000016,-80.291038,0.000020,
2296,2803,0.789968551783186,3.45086326357741,-0.0256396871268976,0.006502,0.000244,0.003104,0.288742,0.067205,318.090457,24.633031,0.999306,0.989790,0.004021,0.415687,-0.000003,-0.000002,0.000001,-0.000001,-0.000004,56.584552,0.000006,
2101,3013,-3.47892554894597,7.99987137536488,0.000981491984532568,0.006671,0.000549,-0.000136,0.308236,0.042735,315.489285,24.418456,0.999338,0.992331,0.003538,0.438612,-0.000008,0.000014,-0.000004,0.000015,-0.000009,-80.151593,0.000015,
2041,2038,-4.6315841140449,-13.2642551900987,0.0182160741381381,0.006148,0.001174,-0.004121,0.293817,0.059528,331.689957,24.699261,0.998595,0.979165,0.005716,0.411443,0.000033,-0.000135,0.000015,0.000034,-0.000136,5.174735,0.000142,
2221,2458,-0.778834213337358,-4.07406075232246,-0.00294838194838576,0.006478,0.000302,-0.000113,0.297980,0.034288,324.019370,24.092165,0.998958,0.986029,0.004925,0.405609,-0.000005,-0.000008,-0.000016,0.000010,-0.000023,-42.054948,0.000023,
2026,3088,-5.11536975088605,9.62044137003216,0.0270563097440686,0.006636,0.000141,0.002348,0.299967,0.045708,314.895084,24.220467,0.999635,0.994621,0.003124,0.362279,-0.000010,0.000028,-0.000004,0.000028,-0.000010,-84.079123,0.000029,
2251,2413,-0.117504970653915,-5.05668636682967,-0.00186844394272612,0.006618,-0.000168,0.001807,0.297830,0.005404,324.692315,23.960274,0.999282,0.988990,0.004239,0.359720,-0.000025,0.000002,-0.000013,0.000007,-0.000030,-68.551722,0.000031,
2236,2338,-0.431390600952714,-6.69483874478755,-0.00422025090790612,0.006493,0.000714,0.000332,0.297163,0.037122,325.912674,23.941472,0.999074,0.987010,0.004655,0.340005,-0.000018,-0.000014,-0.000015,-0.000001,-0.000031,-48.697304,0.000036,
2056,3118,-4.47013695701337,10.2722228082716,0.0309864772929132,0.006386,-0.000010,0.005278,0.279891,0.041389,314.238294,24.274791,0.999478,0.993704,0.003207,0.402349,-0.000001,0.000033,-0.000003,0.000033,-0.000001,-84.973159,0.000038,
2071,3118,-4.14433463486564,10.2729252967941,0.0395131857245019,0.006437,0.000345,0.003300,0.287750,0.045623,314.233568,24.343649,0.999789,0.994412,0.002928,0.397959,-0.000002,0.000025,-0.000005,0.000026,-0.000003,-80.464439,0.000028,
2056,3148,-4.4739750614467,10.9220658511644,0.0335466031027636,0.006737,0.000416,-0.001412,0.315115,0.033196,313.805216,24.249800,0.999484,0.994082,0.003161,0.406456,-0.000004,0.000037,-0.000001,0.000037,-0.000004,-88.097717,0.000041,
2011,3283,-5.46954809008311,13.8410798126087,0.0431198309534579,0.006592,0.000084,0.001172,0.301459,0.025150,311.944077,23.911295,0.999806,0.996483,0.002617,0.423416,-0.000050,0.000044,-0.000001,0.000044,-0.000050,-89.184452,0.000054,
2116,3103,-3.16699071677817,9.95213799886194,0.025588898081196,0.006564,0.000233,0.001703,0.297885,0.040109,314.146038,24.535926,0.999859,0.995792,0.002874,0.378342,-0.000011,0.000009,-0.000011,0.000014,-0.000016,-66.273016,0.000017,
2476,2038,4.86834806124532,-13.2768610844,0.035633859503946,0.006386,-0.000011,0.005023,0.272869,0.032549,331.125098,21.844677,0.999412,0.980244,0.005485,0.358252,0.000037,-0.000031,0.000004,0.000037,-0.000032,3.227104,0.000040,
2011,3298,-5.47199209254073,14.1661882199419,0.0384601999456322,0.006692,0.000352,0.000049,0.309266,0.035809,311.667182,23.906221,0.999385,0.993090,0.003512,0.425573,-0.000069,0.000028,0.000011,0.000029,-0.000070,83.517567,0.000070,
2281,2533,0.513877497308005,-2.43699716829615,-0.0067166375036436,0.006404,-0.000329,0.003114,0.283575,0.014013,322.648926,23.964737,0.999667,0.993141,0.003539,0.508522,-0.000011,-0.000014,-0.000013,0.000000,-0.000025,-40.829560,0.000029,
2176,2233,-1.72062793890604,-8.9928971452869,0.00408711653261662,0.006483,0.000363,0.001228,0.293763,0.059619,327.832055,24.011875,0.998739,0.982518,0.005217,0.410124,-0.000015,-0.000011,-0.000015,0.000002,-0.000028,-49.621195,0.000031,
2161,2143,-2.03231397690733,-10.9644382926619,0.00993543479950176,0.006623,0.000351,0.002211,0.297108,0.044310,329.382953,23.993789,0.999350,0.972711,0.006057,0.406408,0.000000,-0.000023,0.000002,0.000000,-0.000023,5.796012,0.000026,
2371,2773,2.42745098786818,2.80085993203269,-0.0233088878134708,0.006461,0.000261,0.002004,0.289915,0.037163,318.576098,24.607285,0.999436,0.990470,0.003819,0.396504,-0.000019,0.000002,-0.000013,0.000008,-0.000025,-64.436986,0.000025,
2101,3028,-3.48122181829864,8.32483056450732,0.00683501638070538,0.006664,0.000183,0.003417,0.297385,0.030547,315.283147,24.421901,0.999114,0.991957,0.003716,0.423462,-0.000005,0.000012,-0.000006,0.000014,-0.000007,-71.496849,0.000014,
2131,2068,-2.67291340552719,-12.6083450586452,0.0250456437782418,0.007014,0.000450,0.000670,0.319748,0.040595,330.848853,24.226371,0.998266,0.976493,0.005963,0.292054,0.000002,-0.000027,0.000010,0.000005,-0.000030,17.639629,0.000032,
2056,1993,-4.29755199268481,-14.2526767627413,0.0247931992180952,0.006311,0.000201,-0.000699,0.291443,0.007373,332.378761,24.632386,0.998681,0.980652,0.005570,0.332699,0.000093,-0.000105,0.000022,0.000096,-0.000107,6.154617,0.000118,
2146,2083,-2.34987372679333,-12.2786418917055,0.0155047581907297,0.006111,-0.000115,0.003034,0.271016,0.017196,330.421362,24.164485,0.998942,0.981934,0.005296,0.248082,0.000004,-0.000015,0.000007,0.000006,-0.000017,17.278737,0.000018,
2041,2053,-4.6350050014881,-12.9298765479085,-0.0228421661839207,0.007233,0.001232,-0.007753,0.353726,0.043686,331.166951,24.756914,0.999665,0.992267,0.003735,0.335645,0.000017,-0.000089,0.000003,0.000017,-0.000089,1.456630,0.000095,
2086,3148,-3.82427837203728,10.9245922438308,0.0360737017480233,0.006318,0.000447,0.001666,0.286978,0.049542,313.634500,24.393538,0.999792,0.995584,0.002785,0.407969,-0.000004,0.000023,-0.000006,0.000025,-0.000006,-78.388954,0.000026,
2056,2863,-4.43202641410431,4.74143538876294,-0.0110825360548006,0.006706,0.000347,0.000904,0.306725,0.042799,318.064877,24.370202,0.999318,0.991135,0.003858,0.411915,-0.000030,0.000028,-0.000006,0.000029,-0.000031,-83.862565,0.000034,
2491,2128,5.17975059210731,-11.3041122628705,0.0527310364516325,0.006602,-0.000303,0.003595,0.287972,0.018912,329.872882,22.034853,0.999626,0.987667,0.004581,0.425757,-0.000024,-0.000039,-0.000031,0.000000,-0.000063,-37.922931,0.000073,
2416,3043,3.35620004714192,8.67363118950612,0.00592589296388724,0.006212,0.000382,0.000540,0.283966,0.042297,314.443451,25.487967,0.999578,0.990744,0.003866,0.399483,-0.000015,0.000025,-0.000008,0.000026,-0.000016,-78.906795,0.000026,
2281,2743,0.475216246216899,2.14276390236513,-0.0198166544778928,0.006715,-0.000170,0.004216,0.294576,0.014102,319.140084,24.478105,0.999498,0.990604,0.003817,0.392475,-0.000009,0.000001,-0.000010,0.000007,-0.000016,-58.131580,0.000016,
2401,2908,3.05496835182337,5.7397401204971,-0.0150997740944945,0.006574,-0.000269,0.001550,0.296518,0.010842,316.470368,25.066729,0.999566,0.991186,0.003769,0.336445,-0.000021,0.000002,-0.000005,0.000004,-0.000022,-77.368444,0.000024,
2086,3013,-3.80426529311829,7.99819536435463,0.00927840020892745,0.006425,0.000137,0.004551,0.283191,0.031246,315.608987,24.378867,0.999706,0.994031,0.003039,0.421727,-0.000008,0.000011,-0.000005,0.000012,-0.000009,-76.769793,0.000013,
2041,3103,-4.79307340784638,9.94678127859711,0.0181373959946427,0.006425,0.000692,-0.003121,0.305566,0.057297,314.489021,24.204955,0.999672,0.994682,0.003035,0.436794,-0.000005,0.000031,-0.000003,0.000032,-0.000006,-85.234555,0.000034,
2191,2278,-1.40107504375741,-8.00789378341512,0.00121741683926757,0.006728,0.000321,-0.000623,0.310806,0.022241,327.053752,24.038595,0.998949,0.982136,0.005266,0.326473,-0.000013,-0.000018,-0.000018,0.000003,-0.000034,-41.558562,0.000037,
2071,2068,-3.98093172718384,-12.6074921786446,0.0310587095691517,0.006609,0.000955,-0.003131,0.312356,0.036227,331.169412,24.642331,0.997963,0.968731,0.006919,0.248270,0.000020,-0.000056,0.000008,0.000021,-0.000057,5.911751,0.000057,
2056,3133,-4.47229360099933,10.5972887632511,0.027176792313071,0.006651,0.000139,0.002185,0.300889,0.027362,313.982662,24.252389,0.999004,0.993104,0.003400,0.404516,-0.000001,0.000041,0.000000,0.000041,-0.000001,-89.555998,0.000047,
2101,3208,-3.50821575412332,12.2259257651275,0.0418447156600905,0.006732,0.000324,0.002085,0.304764,0.037118,312.644469,24.498117,0.999654,0.994351,0.003099,0.355483,-0.000019,0.000011,-0.000014,0.000016,-0.000024,-68.121650,0.000025,
2476,2053,4.86508153480428,-12.9469141752976,0.030854080683298,0.006521,-0.000178,0.004174,0.282252,-0.006658,330.852820,21.931659,0.999376,0.982571,0.005279,0.292266,0.000034,-0.000035,0.000005,0.000034,-0.000035,4.051513,0.000040,
2296,2818,0.78789932983512,3.77640393170019,-0.021239705641392,0.006703,0.000263,0.001162,0.304523,0.040434,317.899255,24.645427,0.999482,0.990834,0.003823,0.406386,0.000000,0.000005,0.000001,0.000005,0.000000,80.421047,0.000005,
2191,2083,-1.36754763512878,-12.279341110029,0.0115406893690988,0.006839,0.000265,-0.000962,0.316559,0.015200,330.283521,23.860276,0.999360,0.983334,0.005188,0.273354,0.000003,-0.000016,0.000008,0.000006,-0.000019,20.220033,0.000020,
2131,3193,-2.85640268039644,11.9029795031762,0.036142903186942,0.006351,-0.000104,0.004248,0.280279,0.024457,312.680032,24.577533,0.999532,0.992624,0.003410,0.405876,-0.000018,0.000011,-0.000008,0.000013,-0.000020,-75.422274,0.000020,
2266,2443,0.204123158345137,-4.39995090349567,-0.00411921588590758,0.006851,-0.000017,0.000353,0.313293,-0.003675,324.177851,24.068145,0.999625,0.989766,0.004119,0.252945,-0.000018,-0.000008,-0.000009,-0.000003,-0.000023,-60.146031,0.000029,
2026,3103,-5.11777008343003,9.94524866492151,0.0274821187041994,0.006502,0.000388,0.001789,0.295453,0.059078,314.649643,24.164834,0.999628,0.994069,0.003235,0.420561,-0.000009,0.000043,0.000000,0.000043,-0.000009,-89.770926,0.000045,
2236,2353,-0.434099573404833,-6.36784722685723,0.000178945279969867,0.006261,0.000025,0.002851,0.278140,0.019031,325.688603,23.939186,0.998963,0.986225,0.004752,0.347005,-0.000021,-0.000009,-0.000014,0.000000,-0.000031,-56.174232,0.000036,
2056,3163,-4.47646174506263,11.2469537883102,0.0354750184787349,0.006683,0.000120,0.001326,0.304840,0.027993,313.566260,24.244823,0.999603,0.992933,0.003323,0.399622,-0.000015,0.000046,-0.000009,0.000048,-0.000016,-81.621072,0.000048,
2071,3133,-4.14692706035541,10.5980001937215,0.0332244773508705,0.006527,0.000180,0.001520,0.296961,0.026900,313.945515,24.311323,0.999572,0.994370,0.003004,0.407161,0.000000,0.000030,-0.000003,0.000030,-0.000001,-84.578986,0.000035,
2296,2578,0.832333249493903,-1.45225324054682,-0.0162191853110016,0.006762,0.000166,-0.001548,0.315897,0.028471,321.853847,24.172669,0.999357,0.989808,0.004137,0.381767,-0.000010,0.000014,-0.000011,0.000018,-0.000014,-67.882872,0.000019,
2356,2653,2.12427939286605,0.18546985903135,-0.0224599794291862,0.006547,0.000506,-0.002879,0.310994,0.027005,320.553108,24.273652,0.999277,0.987354,0.004574,0.397995,-0.000010,0.000008,-0.000005,0.000009,-0.000011,-75.960218,0.000012,
2341,2593,1.80923643709388,-1.12330795860032,-0.0198185971599401,0.006916,0.000115,0.000469,0.315982,0.023685,321.554787,24.166217,0.999328,0.988153,0.004270,0.361568,0.000001,-0.000007,0.000000,0.000001,-0.000007,-0.258071,0.000008,
2206,2368,-1.09033643881604,-6.03990043946004,-0.00441094795235131,0.006453,0.000157,0.001856,0.290431,0.033665,325.492301,24.031390,0.999575,0.988375,0.004321,0.393711,-0.000019,-0.000005,-0.000017,0.000006,-0.000030,-56.902938,0.000032,
2506,2233,5.4833006422322,-8.99579018005339,0.0195837957023741,0.006423,0.000224,-0.000605,0.296263,0.015083,327.950602,22.555066,0.998960,0.980532,0.005474,0.262742,-0.000010,-0.000031,0.000003,-0.000010,-0.000031,7.550299,0.000043,
2221,2473,-0.782027046441048,-3.74626561931336,-0.00703405417129943,0.006220,0.000507,0.000732,0.283550,0.030394,323.728220,24.108053,0.999319,0.986720,0.004638,0.406344,-0.000002,-0.000010,-0.000009,0.000003,-0.000016,-32.833709,0.000017,
2056,2008,-4.29933469463048,-13.9236267517919,0.0293928593474106,0.006520,0.000406,0.000005,0.299151,0.011178,332.184324,24.678204,0.998745,0.981693,0.005539,0.288760,0.000086,-0.000065,0.000039,0.000096,-0.000075,13.747094,0.000101,
2491,2143,5.17509144471154,-10.9704252599431,0.0255958064197443,0.006802,0.000293,-0.002892,0.322207,0.015913,329.437019,22.220486,0.999063,0.981320,0.005495,0.299774,-0.000018,-0.000020,-0.000021,0.000002,-0.000040,-43.446239,0.000045,
2041,2068,-4.63746773778208,-12.6033297787662,-0.0126531106720904,0.006678,0.000729,-0.002332,0.313141,0.022686,330.971808,24.685329,0.999673,0.992381,0.003639,0.381962,0.000009,-0.000068,0.000007,0.000010,-0.000069,5.014313,0.000075,
2116,3118,-3.16967777350162,10.2771209796644,0.0241384603232291,0.006399,0.000265,0.001049,0.292253,0.040284,313.883515,24.504017,0.999814,0.995819,0.002838,0.412775,-0.000011,0.000012,-0.000009,0.000015,-0.000014,-70.563646,0.000017,
2026,1993,-4.95084144941469,-14.2518373540256,0.0280401191804458,0.006808,0.000399,-0.002706,0.319828,-0.001948,332.606701,24.892490,0.998561,0.982838,0.005480,0.272648,0.000034,-0.000147,-0.000007,0.000035,-0.000148,-2.204050,0.000154,
2431,3118,3.66810762452697,10.3038080704389,0.0080160038565964,0.006764,0.000185,0.002268,0.302922,0.036037,313.271814,25.816701,0.999809,0.995337,0.003066,0.358450,-0.000012,0.000025,-0.000002,0.000025,-0.000012,-87.404635,0.000025,
2311,2428,1.1867488814854,-4.72744122016148,-0.00662318452623367,0.006539,0.000157,0.002119,0.292885,0.042696,324.329349,23.803650,0.999608,0.990049,0.004119,0.411570,-0.000003,-0.000009,-0.000001,-0.000003,-0.000009,-13.234008,0.000013,
2251,2428,-0.120457234206231,-4.72978815362316,-0.0067497644672585,0.006467,0.000302,-0.000734,0.299397,0.011907,324.411117,23.860932,0.998993,0.987405,0.004389,0.490596,-0.000020,-0.000009,-0.000018,0.000004,-0.000033,-53.148020,0.000036,
2146,2098,-2.35174296385577,-11.950207224832,0.0155650506953862,0.006549,0.000273,0.001480,0.295919,0.022764,330.206006,24.136169,0.999271,0.983881,0.005024,0.292948,0.000003,-0.000014,0.000006,0.000005,-0.000016,17.797538,0.000017,
2371,2788,2.42513763583716,3.12834775030371,-0.0195107050841443,0.006608,0.000406,0.000460,0.302216,0.038185,318.375273,24.758949,0.999856,0.994730,0.003226,0.286888,-0.000017,-0.000003,-0.000011,0.000003,-0.000023,-61.418176,0.000025,
2161,2158,-2.03750535029815,-10.6282655181129,-0.0340381189918162,0.006760,0.000518,0.000578,0.308485,0.052665,328.784692,24.221311,0.999849,0.946069,0.008318,0.202085,0.000001,-0.000024,-0.000005,0.000002,-0.000025,-10.203480,0.000027,
2281,2758,0.471784639789288,2.46995588428005,-0.0249693161313189,0.006435,-0.000166,0.005016,0.279089,0.027194,318.837268,24.510050,0.999416,0.990022,0.003923,0.401589,-0.000011,0.000007,-0.000007,0.000010,-0.000013,-70.575822,0.000014,
2056,2023,-4.30168358819398,-13.5927444655333,0.0199672635325783,0.006899,0.000843,-0.001506,0.320896,0.043247,331.886744,24.709372,0.998628,0.984290,0.005275,0.288336,0.000064,-0.000110,0.000014,0.000065,-0.000111,4.707786,0.000112,
2386,2758,2.75681310146527,2.47440538692146,-0.0253755115123226,0.006596,-0.000005,0.001925,0.296137,0.028120,318.818101,24.518890,0.999376,0.989281,0.004045,0.441754,-0.000020,0.000011,-0.000004,0.000011,-0.000021,-82.454655,0.000021,
2071,3223,-4.16048883698631,12.5477485684518,0.0427061781911107,0.006760,0.000391,0.000357,0.311304,0.049289,312.568445,24.288013,0.999562,0.993823,0.003189,0.426563,-0.000014,0.000017,-0.000016,0.000024,-0.000021,-66.890394,0.000027,
2476,2068,4.86274101159265,-12.6176430988454,0.0317687507945266,0.006903,0.000088,0.000932,0.312086,0.010803,330.648340,21.969535,0.999276,0.979631,0.005661,0.331550,0.000027,-0.000028,0.000001,0.000027,-0.000028,1.189773,0.000032,
2266,2668,0.162318421964734,0.509415717833917,-0.0280013810417472,0.006954,0.000005,0.000511,0.318004,0.024687,320.335660,24.336272,0.999501,0.991348,0.003872,0.410952,-0.000008,0.000015,-0.000005,0.000016,-0.000009,-77.377838,0.000016,
2176,2068,-1.6916239494591,-12.61060394005,0.0269728755837946,0.006725,-0.000380,0.002829,0.299394,0.009239,330.682291,23.873556,0.999416,0.984789,0.004911,0.330115,0.000007,-0.000023,0.000013,0.000012,-0.000028,21.190971,0.000028,
2191,2293,-1.40355232854568,-7.67978100370653,0.00135620988527307,0.006778,0.000422,-0.000395,0.312469,0.031087,326.814709,24.048798,0.998882,0.983530,0.005143,0.341494,-0.000013,-0.000017,-0.000013,-0.000002,-0.000028,-39.999630,0.000034,
2326,2578,1.48522846199531,-1.45143063116844,-0.0173292940854708,0.006551,0.000164,-0.000267,0.301802,0.014989,321.809286,24.134482,0.999255,0.988413,0.004227,0.366960,0.000002,0.000007,-0.000005,0.000010,-0.000001,-57.930479,0.000011,
2041,3118,-4.79536681023328,10.2712484242254,0.0230533574900278,0.006507,0.000220,0.002189,0.294420,0.043080,314.274663,24.178236,0.999657,0.994750,0.003018,0.440630,-0.000006,0.000045,0.000001,0.000045,-0.000006,88.637870,0.000049,
2176,2248,-1.72312968151696,-8.66538143743644,0.00634146408981451,0.006331,-0.000067,0.001440,0.286040,0.026834,327.602024,24.014835,0.998808,0.981812,0.005281,0.389176,-0.000014,-0.000021,-0.000019,0.000002,-0.000037,-39.701057,0.000041,
2446,3178,3.98352740991173,11.6066074444351,0.023471033800945,0.006518,0.000386,-0.001068,0.304104,0.030674,312.443586,26.098237,0.999642,0.992009,0.003581,0.335496,-0.000001,0.000021,0.000003,0.000022,-0.000001,83.225340,0.000024,
2401,2923,3.05256198380875,6.06503473835409,-0.00997164203209877,0.006650,0.000040,0.001196,0.301433,0.023056,316.273571,25.051494,0.999559,0.991254,0.003769,0.409140,-0.000019,-0.000002,-0.000006,-0.000001,-0.000021,-73.329657,0.000025,
2056,2878,-4.43479635660197,5.06709671125503,-0.0102841622004917,0.006360,0.000153,0.003026,0.284788,0.045232,317.806061,24.348848,0.999226,0.990234,0.004084,0.430162,-0.000020,0.000040,-0.000007,0.000041,-0.000021,-83.090683,0.000041,
2116,3133,-3.17232637006896,10.6028959862023,0.0195204484367082,0.006578,0.000035,0.001885,0.297940,0.028011,313.605399,24.542081,0.999855,0.997125,0.002591,0.364665,-0.000007,0.000013,-0.000007,0.000015,-0.000009,-73.124380,0.000015,
2101,3223,-3.51022563369056,12.5499755069236,0.0454785803220261,0.006918,0.000090,0.001582,0.314760,0.024276,312.439955,24.448370,0.999615,0.994342,0.003149,0.392312,-0.000019,0.000011,-0.000014,0.000017,-0.000024,-67.943894,0.000025,
2236,2368,-0.436687173350357,-6.03891741020838,-0.00565944585741818,0.006623,0.000144,0.001705,0.298531,0.034402,325.417552,23.985806,0.999373,0.988139,0.004493,0.338902,-0.000025,-0.000008,-0.000015,0.000001,-0.000034,-59.239185,0.000039,
2086,3163,-3.82744229669706,11.2503036558125,0.0270268432217904,0.006187,0.000162,0.002159,0.279425,0.035095,313.306172,24.408313,0.999806,0.995667,0.002832,0.376493,-0.000013,0.000032,-0.000012,0.000035,-0.000016,-75.809604,0.000035,
2041,2083,-4.63797716621015,-12.2777184550617,0.0179507824047391,0.006584,0.000291,-0.001174,0.305485,0.009199,330.978602,24.749351,0.999362,0.986804,0.004479,0.298588,0.000001,-0.000018,0.000004,0.000002,-0.000019,12.849874,0.000021,
2026,2008,-4.95444616817727,-13.9212908789777,0.0189656009997634,0.006384,-0.000155,0.004914,0.279333,0.048190,332.250487,24.872640,0.998423,0.983959,0.005449,0.337379,0.000036,-0.000099,0.000024,0.000040,-0.000103,9.908636,0.000104,
2356,2668,2.12157717881481,0.512304950507016,-0.0218282419026536,0.006809,0.000565,-0.000628,0.315204,0.045582,320.318697,24.287105,0.999475,0.989693,0.004163,0.442489,-0.000011,0.000015,-0.000006,0.000017,-0.000013,-77.185961,0.000018,
2071,2083,-3.98588410993024,-12.2754360643311,-0.00153354299055763,0.006021,0.000743,-0.002281,0.282953,0.044454,330.628321,24.574446,0.998632,0.969081,0.006669,0.326321,0.000013,-0.000019,0.000004,0.000013,-0.000020,7.817370,0.000020,
2056,2038,-4.30450272819684,-13.2632833793511,0.0113151658417223,0.006584,0.001317,-0.005743,0.318516,0.055331,331.572295,24.646718,0.998513,0.981722,0.005469,0.361697,0.000045,-0.000125,0.000009,0.000045,-0.000126,3.167839,0.000128,
2281,2548,0.510183058542029,-2.1069616709738,-0.0160318151882848,0.006281,-0.000185,0.005469,0.270171,0.034580,322.313305,24.142052,0.999416,0.990413,0.004022,0.380823,-0.000007,-0.000010,-0.000010,0.000001,-0.000018,-39.986365,0.000021,
2281,2773,0.469483035322678,2.79617214762619,-0.018828903754752,0.006274,-0.000010,0.003319,0.277484,0.042339,318.642931,24.543742,0.999299,0.988807,0.004146,0.410770,-0.000008,0.000002,-0.000008,0.000007,-0.000012,-61.396624,0.000012,
2071,2938,-4.11768481652827,6.37054289859972,-0.00336658453966265,0.006853,0.000269,-0.000575,0.317761,0.042891,316.837720,24.367834,0.999410,0.991152,0.003731,0.419074,-0.000024,0.000002,-0.000004,0.000003,-0.000024,-81.715614,0.000027,
2236,2518,-0.464275466022681,-2.76182650423765,-0.021416318574552,0.006300,0.000535,0.001386,0.285132,0.048288,322.846336,24.177194,0.999466,0.988896,0.004118,0.387492,-0.000010,-0.000005,-0.000003,-0.000004,-0.000012,-63.733090,0.000016,
2026,3118,-5.12008556664967,10.2705892282374,0.0271334875382649,0.006626,0.000170,0.003266,0.297036,0.048104,314.403602,24.181539,0.999682,0.994577,0.003116,0.382053,-0.000007,0.000061,0.000006,0.000061,-0.000007,85.328862,0.000067,
2086,3028,-3.80640102444274,8.32369848669255,0.00867395164124218,0.006572,0.000260,0.001900,0.297740,0.034338,315.373916,24.373349,0.999509,0.993053,0.003356,0.428910,-0.000002,0.000010,-0.000006,0.000012,-0.000004,-67.246317,0.000013,
2131,2083,-2.67660146261415,-12.2780303789023,0.00787040264151528,0.006736,0.000519,-0.000939,0.311874,0.007730,330.457506,24.211834,0.998778,0.979705,0.005568,0.283622,0.000002,-0.000014,0.000006,0.000004,-0.000016,19.335268,0.000016,
2146,3223,-2.53544038254646,12.5539506478006,0.0434656647601059,0.006642,0.000257,0.003227,0.296832,0.045342,312.204416,24.650563,0.999591,0.994349,0.003069,0.437910,-0.000016,0.000008,-0.000006,0.000009,-0.000018,-76.024188,0.000018,
2296,2833,0.78542756883148,4.10234774721632,-0.0165457718659923,0.006520,0.000080,-0.000303,0.300966,0.023276,317.690857,24.691326,0.999726,0.992994,0.003516,0.372925,-0.000004,0.000007,0.000001,0.000007,-0.000004,81.918053,0.000007,
2416,3058,3.35345459643785,8.99923605539071,0.00878003939169503,0.006476,0.000097,0.004159,0.282718,0.031217,314.220694,25.542559,0.999633,0.991328,0.003771,0.380677,-0.000017,0.000023,-0.000008,0.000025,-0.000018,-78.897229,0.000026,
2191,2098,-1.37088108763039,-11.9507469615602,-0.00147124042234736,0.006962,0.000501,0.000052,0.319138,0.044844,329.937318,23.680691,0.999435,0.986171,0.004978,0.500913,0.000004,-0.000013,0.000009,0.000007,-0.000017,22.708257,0.000017,
2266,2458,0.200277431480988,-4.07051433139495,-0.0206360017174347,0.006842,0.000116,-0.000170,0.314727,0.024929,323.798056,24.082137,0.999703,0.990973,0.003999,0.294922,-0.000016,-0.000002,-0.000004,-0.000001,-0.000017,-76.066537,0.000020,
2071,3238,-4.16277588696074,12.8723804504928,0.0436985125991214,0.006817,0.000174,0.000181,0.314387,0.037457,312.334667,24.278750,0.999610,0.993689,0.003169,0.419601,-0.000017,0.000014,-0.000020,0.000024,-0.000027,-63.663807,0.000030,
2101,3043,-3.48347586739753,8.65028509516016,0.015575019477069,0.006391,-0.000170,0.004971,0.280173,0.024533,315.094422,24.486932,0.999503,0.993227,0.003398,0.352599,-0.000005,0.000008,-0.000012,0.000016,-0.000012,-59.200724,0.000016,
2056,3178,-4.47861964020316,11.5715933988694,0.043480507526283,0.006515,0.000308,0.002913,0.292739,0.052705,313.376094,24.226783,0.999653,0.994441,0.003091,0.435534,-0.000020,0.000046,-0.000013,0.000048,-0.000022,-79.248251,0.000048,
2221,2488,-0.784570677364332,-3.41857060784825,-0.0112692573695767,0.006570,0.000030,0.000738,0.299434,0.015898,323.466072,24.129312,0.999469,0.987006,0.004365,0.390946,-0.000006,-0.000006,-0.000009,0.000003,-0.000016,-44.915978,0.000016,
2476,2083,4.85869756704543,-12.2871291809004,0.0217040100267809,0.006674,0.000404,-0.000221,0.306151,0.019547,330.316109,22.014044,0.999384,0.980098,0.005463,0.356246,0.000018,-0.000032,0.000003,0.000018,-0.000032,3.722074,0.000033,
2116,3148,-3.17454000179232,10.9272520801416,0.0243257658173661,0.006653,0.000357,0.003846,0.295742,0.051083,313.398547,24.476012,0.999732,0.995453,0.002905,0.456225,-0.000007,0.000015,-0.000004,0.000016,-0.000008,-80.838418,0.000016,
2506,2248,5.48006687420144,-8.66876150130955,0.0212290669322783,0.006628,-0.000476,0.004910,0.284099,-0.005584,327.710317,22.498242,0.998955,0.981148,0.005498,0.362069,-0.000001,-0.000020,0.000001,-0.000001,-0.000020,1.774697,0.000024,
2251,2443,-0.122918227319207,-4.4000976030346,-0.00493032803075266,0.006888,-0.000186,0.004169,0.302547,0.009682,324.185695,24.094136,0.999489,0.989953,0.004136,0.279912,-0.000019,-0.000006,-0.000015,0.000004,-0.000029,-56.404014,0.000032,
2431,3133,3.66539648997174,10.628293304051,0.0155832418643627,0.006544,-0.000028,0.003921,0.286622,0.033357,313.073566,25.807581,0.999723,0.993294,0.003321,0.413612,-0.000007,0.000026,-0.000005,0.000027,-0.000007,-82.213920,0.000027,
2041,3133,-4.7967151077376,10.5966012004029,0.0285430663928423,0.007026,0.000567,-0.000366,0.325620,0.057040,314.106518,24.211591,0.999324,0.992710,0.003519,0.412634,-0.000005,0.000056,0.000004,0.000057,-0.000005,86.318045,0.000063,
2206,2383,-1.09346122058293,-5.7122295735985,-0.00595545608490511,0.006204,-0.000234,0.004912,0.269239,0.024169,325.216215,24.034419,0.999393,0.986524,0.004471,0.399701,-0.000021,-0.000002,-0.000018,0.000009,-0.000032,-59.145160,0.000033,
2401,2938,3.04961426052037,6.39088928097954,-0.0033895144497933,0.006296,0.000440,0.003666,0.276403,0.055682,316.058494,25.081279,0.999568,0.991466,0.003751,0.456941,-0.000011,-0.000002,-0.000007,0.000002,-0.000015,-62.490152,0.000016,
2161,2173,-2.04095801975716,-10.3024294213144,-0.0470497257657598,0.006547,0.000265,-0.000330,0.301453,0.041825,328.430077,23.864546,0.999811,0.932420,0.008737,0.561383,-0.000003,-0.000020,-0.000002,-0.000002,-0.000020,-8.087537,0.000025,
2101,3238,-3.51315448640579,12.874846274288,0.0436716718191406,0.006734,-0.000030,0.004177,0.298615,0.026135,312.163390,24.432231,0.999671,0.994691,0.003014,0.410203,-0.000021,0.000007,-0.000017,0.000015,-0.000029,-64.993552,0.000029,
2131,3208,-2.85811166634041,12.2283481741315,0.0388854523562259,0.006640,0.000472,-0.000771,0.308986,0.054292,312.485842,24.599111,0.999666,0.994656,0.003069,0.418473,-0.000016,0.000008,-0.000006,0.000010,-0.000017,-76.932175,0.000017,
2071,2098,-3.98681188033867,-11.9495664891184,0.0266845725157623,0.005872,0.000044,0.002064,0.263576,0.025647,330.603525,24.644398,0.998694,0.977974,0.005624,0.236470,0.000007,-0.000015,0.000003,0.000007,-0.000016,8.679050,0.000016,
2371,2803,2.42231736010155,3.45308107013589,-0.0151996141644304,0.006541,0.000080,0.003368,0.288674,0.032517,318.154248,24.672016,0.999854,0.995030,0.003244,0.409104,-0.000014,-0.000002,-0.000010,0.000004,-0.000020,-59.932743,0.000021,
2026,3133,-5.12200545361885,10.5956447330083,0.0298408746213568,0.006792,0.000515,0.001887,0.308667,0.068228,314.192915,24.163749,0.999584,0.993985,0.003264,0.409342,-0.000007,0.000075,0.000009,0.000076,-0.000007,84.023382,0.000084,
2071,3148,-4.14937797397451,10.9232512112749,0.0337037230664805,0.006378,0.000499,0.000354,0.293600,0.050418,313.701039,24.299009,0.999753,0.996124,0.002671,0.438702,-0.000003,0.000029,-0.000003,0.000029,-0.000003,-84.936610,0.000032,
2251,2593,-0.150561127622467,-1.12671358557638,-0.0210585941865702,0.006683,0.000034,0.001369,0.302640,0.017553,321.621942,24.199486,0.999223,0.987653,0.004464,0.427133,-0.000011,-0.000002,-0.000011,0.000005,-0.000018,-56.631040,0.000019,
2221,2278,-0.747398591222229,-8.00871791171841,0.00852644274249315,0.006394,-0.000395,0.004110,0.280074,0.027155,327.004099,23.906874,0.998886,0.983595,0.005110,0.335445,-0.000012,-0.000016,-0.000018,0.000004,-0.000032,-42.386564,0.000035,
2206,2203,-1.06105531315501,-9.64902061895628,0.00805290789264745,0.006776,0.000862,0.001293,0.306977,0.070927,328.272430,23.935516,0.998938,0.981735,0.005340,0.318585,-0.000014,-0.000010,-0.000007,-0.000005,-0.000020,-51.693903,0.000026,
2491,2158,5.17110747509107,-10.6410159246107,0.0221567532035465,0.006230,0.000751,-0.002543,0.294928,0.027101,329.138467,22.263658,0.999117,0.979859,0.005600,0.329999,-0.000023,-0.000035,-0.000032,0.000004,-0.000061,-39.821059,0.000069,
2041,2098,-4.63959154859021,-11.9493204352896,0.0181093840035942,0.006899,0.000611,-0.005642,0.332445,0.010037,330.766440,24.721226,0.999087,0.982176,0.005168,0.323098,-0.000009,-0.000014,0.000005,-0.000006,-0.000018,31.104916,0.000024,
2341,2608,1.80562532335651,-0.79529793348712,-0.0317919027415883,0.007062,0.000050,0.000828,0.321446,0.030627,321.216376,24.172015,0.999403,0.986733,0.004465,0.400501,0.000001,-0.000011,-0.000003,0.000002,-0.000011,-15.147784,0.000012,
2026,2023,-4.95572946659192,-13.5928080725463,0.0223196194886555,0.006977,0.000486,0.003431,0.310841,0.060622,332.069675,24.849098,0.998371,0.983528,0.005575,0.366979,0.000016,-0.000167,-0.000001,0.000016,-0.000167,-0.206621,0.000184,
2146,2113,-2.35279327674216,-11.6232313256871,0.0258175771376159,0.006952,0.000563,-0.002730,0.327234,0.006484,330.082211,24.112743,0.999438,0.984777,0.004914,0.310341,0.000002,-0.000015,0.000008,0.000005,-0.000018,21.383072,0.000019,
2281,2563,0.507570648721821,-1.78008274335332,-0.0212350921158304,0.006395,0.000163,0.000628,0.291734,0.025591,322.048533,24.101653,0.999318,0.989184,0.004287,0.440959,-0.000009,0.000001,-0.000010,0.000008,-0.000016,-58.177836,0.000016,
2056,2053,-4.30615601021661,-12.9342156217605,0.00996793231945503,0.007239,0.001346,-0.005942,0.349178,0.037470,331.351318,24.665941,0.997802,0.978462,0.005950,0.322603,0.000031,-0.000081,0.000001,0.000031,-0.000081,0.554647,0.000081,
2176,2263,-1.72540765161133,-8.33625446446614,0.00438419528097711,0.006365,0.000333,-0.003238,0.302233,0.007536,327.359898,24.113394,0.999018,0.981524,0.005387,0.285850,-0.000013,-0.000022,-0.000019,0.000002,-0.000038,-38.161404,0.000042,
2266,2473,0.197941563583417,-3.74527416085941,-0.00977473531492024,0.006466,0.000165,0.001023,0.293592,0.039696,323.625635,23.985095,0.999733,0.991955,0.003867,0.433485,-0.000012,-0.000010,-0.000003,-0.000008,-0.000014,-53.847382,0.000022,
2236,2533,-0.466002279125018,-2.43576873216775,-0.00869782860706891,0.006379,0.000242,0.002627,0.284672,0.029751,322.709501,24.220615,0.999729,0.992120,0.003557,0.347168,-0.000009,-0.000002,-0.000005,0.000001,-0.000012,-60.957093,0.000013,
2056,3193,-4.48119275891431,11.8972337189375,0.0387753524427126,0.006564,0.000451,0.002013,0.297594,0.051745,313.096233,24.254685,0.999517,0.994216,0.003170,0.400230,-0.000023,0.000040,-0.000020,0.000045,-0.000028,-73.524812,0.000046,
2311,2443,1.18467896720648,-4.40135031700967,0.00113849113353126,0.006682,-0.000051,0.002734,0.297290,0.032709,324.156394,23.771512,0.999483,0.989118,0.004309,0.467066,0.000001,-0.000013,0.000000,0.000001,-0.000013,1.137319,0.000014,
2191,2308,-1.40648378328347,-7.35245292958437,0.00178758705891369,0.006269,0.000370,-0.001377,0.292171,0.015526,326.556635,24.019749,0.998619,0.983438,0.005254,0.371833,-0.000014,-0.000024,-0.000016,-0.000003,-0.000036,-35.964273,0.000043,
2071,2953,-4.12056426607066,6.69634655474024,-0.00553377635759489,0.006622,0.000122,0.001603,0.300862,0.032254,316.558723,24.372552,0.999289,0.991906,0.003697,0.399976,-0.000017,0.000000,-0.000008,0.000004,-0.000020,-68.410773,0.000022,
2356,2683,2.11829815607925,0.840069186516644,-0.0238583860765971,0.006777,0.000281,0.002522,0.302565,0.045327,320.044754,24.387332,0.999546,0.990385,0.003913,0.381351,-0.000016,0.000021,-0.000011,0.000024,-0.000019,-74.608379,0.000025,
2176,2083,-1.69451134336788,-12.2802588980632,0.0208839030927948,0.006666,-0.000125,0.001817,0.299921,0.006960,330.390756,23.953886,0.999527,0.984831,0.005024,0.263583,0.000007,-0.000012,0.000006,0.000009,-0.000013,16.836610,0.000014,
2476,2098,4.85553293092119,-11.9569647975073,0.0206571278554293,0.006469,0.000770,-0.002657,0.306174,0.021339,330.064856,22.139224,0.999421,0.978472,0.005593,0.292565,0.000007,-0.000036,-0.000010,0.000010,-0.000039,-12.619290,0.000040,
2236,2383,-0.438838861834267,-5.71262950019026,7.12244193437073E-05,0.006666,-0.000003,0.001646,0.300667,0.021763,325.225836,23.935984,0.999448,0.988198,0.004472,0.398798,-0.000027,-0.000006,-0.000014,0.000001,-0.000034,-63.444112,0.000039,
2131,2098,-2.67861202359296,-11.9484676773439,0.00646898023319409,0.007314,0.000293,0.000604,0.333725,0.029621,330.226369,24.254336,0.999149,0.984313,0.004901,0.271524,0.000002,-0.000013,0.000006,0.000005,-0.000015,19.851014,0.000015,
2056,2893,-4.43723609523525,5.39325915118185,-0.00825012058493257,0.006206,0.000053,0.004068,0.274717,0.038812,317.569057,24.395421,0.999414,0.992875,0.003706,0.371293,-0.000019,0.000028,-0.000013,0.000031,-0.000022,-75.325786,0.000032,
2386,2773,2.75404101022376,2.80084106784179,-0.0225748629435429,0.006608,-0.000054,0.003322,0.291704,0.030988,318.592779,24.560396,0.999356,0.989378,0.004056,0.446161,-0.000020,0.000003,-0.000010,0.000006,-0.000023,-69.448378,0.000024,
2326,2593,1.48244684864235,-1.12371744878876,-0.0226890586582726,0.006878,0.000546,-0.001359,0.320762,0.033179,321.539735,24.153064,0.999620,0.991858,0.003677,0.401886,0.000005,-0.000009,-0.000006,0.000008,-0.000011,-19.660985,0.000011,
2296,2593,0.830292623126539,-1.12646419357507,-0.00278985456560576,0.006551,0.000475,-0.000235,0.301905,0.038924,321.709027,24.184735,0.999621,0.992166,0.003576,0.410478,-0.000005,-0.000001,-0.000011,0.000008,-0.000014,-49.240632,0.000014,
2041,2113,-4.64169090991103,-11.6213724619962,0.020088064959964,0.007080,0.000058,-0.002563,0.332054,0.025422,330.542226,24.662863,0.998885,0.980924,0.005523,0.392267,-0.000018,-0.000027,0.000009,-0.000012,-0.000033,32.150258,0.000047,
2446,3193,3.98093999697968,11.9314461862162,0.0287823049467875,0.006471,0.000355,-0.001318,0.302912,0.034828,312.241025,26.114082,0.999687,0.992121,0.003482,0.374732,0.000000,0.000026,0.000002,0.000026,-0.000001,85.590499,0.000030,
2401,2953,3.04640077440537,6.71741846039267,-0.0100444057003415,0.006424,0.000036,0.002245,0.287251,0.021489,315.768536,25.150686,0.999610,0.991942,0.003690,0.398248,-0.000007,-0.000001,-0.000005,0.000002,-0.000010,-60.042924,0.000011,
2071,3253,-4.16557258962164,13.1978913398433,0.0402085658628266,0.006784,0.000243,0.002218,0.307130,0.049783,312.052498,24.305060,0.999722,0.995084,0.002943,0.401009,-0.000019,0.000023,-0.000027,0.000036,-0.000033,-64.062511,0.000040,
2131,3223,-2.86065913322996,12.552901304991,0.0396633658263568,0.006622,0.000341,0.000352,0.304735,0.047125,312.242940,24.574673,0.999629,0.994566,0.003053,0.440249,-0.000014,0.000009,-0.000007,0.000011,-0.000016,-75.203225,0.000017,
2101,3253,-3.51593677019298,13.2008638794943,0.0412242708101189,0.006596,0.000434,0.004533,0.291528,0.066662,311.889617,24.483661,0.999741,0.995642,0.002796,0.399090,-0.000023,0.000012,-0.000023,0.000023,-0.000035,-63.403759,0.000036,
2146,3238,-2.53881323929189,12.8801161825481,0.0340027387715622,0.006471,0.000131,0.003857,0.287063,0.048017,311.869432,24.710832,0.999655,0.994283,0.003043,0.386701,-0.000017,0.000004,-0.000009,0.000007,-0.000020,-69.287087,0.000020,
2491,2173,5.16872656532156,-10.3137670724878,0.0315163193703256,0.006424,0.000398,0.000747,0.291138,0.034152,328.970938,22.255044,0.998403,0.971696,0.006359,0.406875,-0.000033,-0.000015,-0.000031,0.000008,-0.000056,-53.138540,0.000060,
2296,2848,0.782512411191803,4.42767675287707,-0.0149701318557618,0.006375,0.000118,0.001700,0.287564,0.027581,317.446715,24.639730,0.999701,0.993024,0.003548,0.458641,-0.000002,0.000004,0.000004,0.000006,-0.000004,63.623959,0.000006,
2206,2218,-1.06404083950588,-9.32183852437255,0.0121166696723662,0.006367,-0.000206,0.005832,0.273537,0.049939,328.031972,23.905301,0.998922,0.982319,0.005337,0.347125,-0.000018,-0.000003,-0.000010,0.000002,-0.000022,-64.020858,0.000025,
2266,2683,0.159408908108063,0.836377600980654,-0.0291819447829198,0.006812,0.000050,0.000476,0.311627,0.022473,320.075738,24.370874,0.999455,0.992141,0.003726,0.400321,-0.000005,0.000018,-0.000009,0.000022,-0.000008,-70.048699,0.000022,
2026,2038,-4.95773310449708,-13.2648651680443,0.0244417948962337,0.006812,0.000851,0.000061,0.312614,0.052690,331.849420,24.788059,0.998476,0.979784,0.005709,0.413912,0.000006,-0.000171,0.000001,0.000006,-0.000171,0.332361,0.000194,
2251,2608,-0.153241344702913,-0.799629146500529,-0.0224054625118129,0.006511,0.000327,-0.001991,0.305877,0.020456,321.370628,24.214388,0.999152,0.986099,0.004683,0.439315,-0.000009,-0.000011,-0.000007,-0.000003,-0.000017,-39.263053,0.000021,
2086,3178,-3.82883911584129,11.5736795451457,0.0395752266914542,0.006441,0.000233,0.002366,0.290571,0.037404,313.177766,24.324333,0.999727,0.995544,0.002831,0.460688,-0.000017,0.000030,-0.000014,0.000034,-0.000021,-74.756384,0.000034,
2281,2578,0.506386312602022,-1.453711050379,-0.0114006489965277,0.006955,0.000469,-0.002632,0.328471,0.026420,321.924277,24.141536,0.999167,0.987559,0.004558,0.430404,-0.000007,0.000009,-0.000012,0.000016,-0.000014,-61.161895,0.000017,
2191,2113,-1.37216764617405,-11.6229030013502,0.0190767579689464,0.006837,0.000263,0.000881,0.310776,0.031918,329.858671,23.847083,0.999008,0.982722,0.005271,0.338099,0.000004,-0.000011,0.000009,0.000009,-0.000015,25.601688,0.000015,
2446,3208,3.97791392539915,12.2566414296964,0.030621011324456,0.006457,0.000402,0.000723,0.294714,0.053303,312.001999,26.131521,0.999593,0.990997,0.003750,0.426778,0.000002,0.000021,-0.000001,0.000021,0.000002,-87.691767,0.000025,
2506,2263,5.4765109930215,-8.33836367638383,0.0142595175937572,0.006902,-0.000302,0.006166,0.291886,0.029984,327.416235,22.610422,0.998589,0.976959,0.005878,0.349361,0.000005,-0.000009,-0.000004,0.000006,-0.000010,-13.229444,0.000010,
2251,2458,-0.125691226231677,-4.0729635404355,-0.00628273891010167,0.006764,-0.000121,0.002923,0.300995,0.020191,323.930393,24.055895,0.999734,0.991244,0.004014,0.353488,-0.000017,0.000002,-0.000010,0.000006,-0.000022,-66.104509,0.000022,
2086,3043,-3.80831413649597,8.64790487052945,0.0213561774778555,0.006324,-0.000092,0.002726,0.283784,0.017446,315.222027,24.359759,0.999649,0.992855,0.003352,0.423535,-0.000001,0.000008,-0.000012,0.000016,-0.000009,-55.468221,0.000016,
2071,2113,-3.9886621187388,-11.6207043705517,0.0248925517225871,0.006549,-0.000116,0.004321,0.288171,0.040787,330.372394,24.628541,0.998874,0.982083,0.005313,0.267306,0.000004,-0.000022,0.000006,0.000005,-0.000024,13.301885,0.000025,
2431,3148,3.66206426816469,10.9545222354584,0.0092147747137119,0.006399,0.000193,0.000195,0.293808,0.019847,312.781167,25.888327,0.999664,0.993751,0.003225,0.368103,-0.000006,0.000018,-0.000006,0.000019,-0.000007,-77.275412,0.000019,
2161,2188,-2.04019733005027,-9.9806431360155,0.000318377063763364,0.006492,0.000709,-0.001323,0.302102,0.042949,328.585593,23.768568,0.999752,0.912816,0.009602,0.669135,-0.000005,-0.000016,-0.000007,-0.000002,-0.000020,-25.861830,0.000024,
2116,3163,-3.17669121922385,11.2524583101513,0.0300660022354577,0.006490,0.000568,0.002029,0.293719,0.054680,313.199307,24.516420,0.999587,0.993771,0.003294,0.421776,-0.000011,0.000023,-0.000007,0.000024,-0.000012,-79.622847,0.000024,
2221,2293,-0.749503094676715,-7.68061787010209,0.0044935438447169,0.006610,0.000735,-0.003504,0.314748,0.032028,326.763304,23.877843,0.999070,0.985538,0.004750,0.390215,-0.000013,-0.000012,-0.000011,-0.000002,-0.000024,-47.245324,0.000028,
2416,3073,3.3508058852085,9.32445352267499,0.0116678177909648,0.006452,0.000036,0.003028,0.285725,0.019496,314.002603,25.565911,0.999656,0.991370,0.003743,0.392354,-0.000013,0.000020,-0.000010,0.000023,-0.000016,-75.107463,0.000023,
2041,3148,-4.79896695950831,10.9206136853798,0.0382584106281456,0.006729,0.000256,0.002742,0.303188,0.056053,313.920989,24.165360,0.999573,0.994166,0.003249,0.448972,-0.000010,0.000049,0.000002,0.000049,-0.000010,87.836422,0.000052,
2221,2503,-0.787324447169645,-3.09091538113928,-0.0130413114910084,0.006759,0.000053,0.003964,0.297870,0.036019,323.206766,24.140261,0.999485,0.987871,0.004259,0.420041,-0.000002,-0.000003,-0.000006,0.000003,-0.000008,-42.795265,0.000008,
2446,3223,3.97464905358491,12.5824444537443,0.0287754602977088,0.006429,0.000489,0.001820,0.289393,0.059042,311.734642,26.200261,0.999569,0.991483,0.003768,0.414585,0.000003,0.000013,0.000004,0.000015,0.000002,70.896734,0.000018,
2281,2788,0.467385349436164,3.12246640787336,-0.0167510428796049,0.006682,-0.000059,0.002531,0.298906,0.041772,318.437659,24.572306,0.999108,0.987915,0.004337,0.409453,-0.000003,0.000000,-0.000004,0.000002,-0.000006,-56.115873,0.000006,
2131,2113,-2.68105880485766,-11.62086937805,0.0121725621335145,0.006989,0.000018,0.002274,0.313799,0.018984,330.013543,24.233196,0.999210,0.984110,0.004973,0.290938,0.000003,-0.000014,0.000009,0.000007,-0.000018,22.782414,0.000018,
2326,2608,1.47937324214395,-0.796385080797549,-0.0242271910971112,0.006812,0.000211,-0.000008,0.313016,0.039925,321.275499,24.186527,0.999550,0.989844,0.003949,0.410270,0.000006,-0.000012,-0.000008,0.000008,-0.000015,-20.411490,0.000015,
2341,2623,1.802872934715,-0.469083293962136,-0.0225179819696564,0.006574,0.000076,0.002956,0.291693,0.035846,321.020726,24.202256,0.999369,0.987777,0.004315,0.412335,-0.000003,0.000008,-0.000008,0.000012,-0.000006,-62.688442,0.000012,
2401,2968,3.0447493540265,7.04292592577231,0.00429838373651137,0.006594,0.000058,0.002715,0.293442,0.034206,315.649761,25.229384,0.999865,0.995214,0.003121,0.376986,-0.000007,0.000003,-0.000003,0.000004,-0.000008,-76.394655,0.000008,
2311,2458,1.18102525761266,-4.07299468231214,-0.00788483261101192,0.006489,-0.000468,0.003094,0.287100,0.017678,323.827942,23.799909,0.999355,0.988307,0.004493,0.457461,0.000002,-0.000002,0.000005,0.000005,-0.000005,32.122678,0.000006,
2191,2323,-1.4086329819458,-7.0246691808603,0.00192637558734532,0.006641,0.000374,-0.001267,0.308924,0.014311,326.332679,24.020017,0.998964,0.985433,0.004854,0.386721,-0.000011,-0.000037,-0.000022,0.000001,-0.000049,-29.490493,0.000056,
2371,2818,2.41910499654032,3.77924122143861,-0.0184296330922393,0.006583,0.000002,0.005111,0.284410,0.028361,317.878698,24.661115,0.999871,0.995164,0.003264,0.456948,-0.000015,0.000005,-0.000009,0.000008,-0.000018,-69.492112,0.000019,
2251,2623,-0.155384713555762,-0.473379306315238,-0.0142238815017777,0.006804,-0.000164,0.003148,0.302342,0.015249,321.192307,24.246852,0.999120,0.986693,0.004556,0.425242,-0.000007,0.000001,-0.000007,0.000005,-0.000012,-60.591625,0.000012,
2071,2968,-4.12326126986696,7.02182362806144,-0.00555919183511833,0.006467,-0.000134,0.004171,0.286340,0.036952,316.299937,24.351232,0.999077,0.991341,0.003854,0.422312,-0.000011,0.000006,-0.000010,0.000011,-0.000015,-64.554918,0.000016,
2086,3298,-3.84958484552183,14.1742165002562,0.0219016092117954,0.006311,0.000391,0.001911,0.286138,0.046574,311.061568,24.347152,0.999610,0.995019,0.002918,0.428152,-0.000031,0.000029,-0.000022,0.000036,-0.000038,-71.862111,0.000043,
2356,2698,2.11542091705629,1.16534708937233,-0.0186997447145814,0.006478,-0.000099,0.004344,0.282307,0.032608,319.824435,24.335308,0.999539,0.991411,0.003745,0.459552,-0.000014,0.000015,-0.000012,0.000019,-0.000018,-70.010920,0.000021,
2026,3148,-5.12419386339672,10.9194806160352,0.0377966951388657,0.006559,0.000217,0.003559,0.293221,0.056229,313.999818,24.101087,0.999647,0.995013,0.003047,0.448963,-0.000011,0.000061,0.000006,0.000062,-0.000012,85.634324,0.000065,
2146,3253,-2.54158512023934,13.2055714416755,0.0229114619494339,0.006697,0.000569,-0.000211,0.310031,0.056101,311.553636,24.696160,0.999691,0.993833,0.003095,0.416140,-0.000016,0.000005,-0.000012,0.000010,-0.000021,-65.627849,0.000021,
2056,3208,-4.48343852338949,12.2216612924442,0.0418189649681153,0.006425,0.000396,0.000466,0.295483,0.035338,312.874746,24.235581,0.999557,0.994074,0.003131,0.396004,-0.000020,0.000028,-0.000018,0.000034,-0.000026,-71.222937,0.000035,
2101,3058,-3.48531118971833,8.97479519181315,0.0177485715012722,0.006594,0.000382,0.000910,0.301656,0.040409,314.889651,24.403378,0.999655,0.994548,0.003158,0.452361,-0.000004,0.000009,-0.000014,0.000018,-0.000013,-56.899320,0.000019,
2506,2278,5.47317991809157,-8.00970636879764,0.0102714550770884,0.006764,-0.000077,0.003057,0.297704,0.028057,327.145985,22.637263,0.998733,0.977368,0.005650,0.384191,0.000002,-0.000013,0.000000,0.000002,-0.000013,1.788992,0.000014,
2476,2113,4.85158175293766,-11.6274363568475,0.0153530634188996,0.006314,0.000305,0.000749,0.286025,0.027910,329.758241,22.160910,0.999335,0.976301,0.005899,0.337545,-0.000002,-0.000046,-0.000013,0.000002,-0.000049,-15.403815,0.000056,
2251,2473,-0.128152806921516,-3.74675745507292,-0.000674872698141371,0.006424,0.000095,0.001323,0.290724,0.030746,323.724681,24.001837,0.999655,0.991022,0.003957,0.442585,-0.000014,-0.000006,-0.000006,-0.000003,-0.000018,-60.661422,0.000022,
2236,2548,-0.469559828376891,-2.1077484253394,-0.0229095914539812,0.006418,-0.000081,0.002105,0.288043,0.015741,322.351253,24.203722,0.999735,0.992646,0.003461,0.372524,-0.000007,-0.000002,-0.000004,0.000001,-0.000009,-60.184194,0.000010,
2071,3268,-4.16871503423414,13.522982525522,0.0302070501318212,0.006705,0.000327,0.002529,0.302610,0.047347,311.718817,24.275757,0.999763,0.996146,0.002767,0.423159,-0.000026,0.000018,-0.000032,0.000035,-0.000042,-62.203180,0.000045,
2086,3193,-3.83119593843961,11.899315319521,0.0410980746788141,0.006483,0.000417,0.003312,0.289833,0.046700,312.944235,24.379055,0.999490,0.994180,0.003088,0.412950,-0.000018,0.000022,-0.000018,0.000029,-0.000025,-68.861312,0.000032,
2296,2608,0.82675522559844,-0.798002535926614,-0.0142129986841155,0.006684,0.000193,0.000917,0.304068,0.039052,321.371885,24.241644,0.999441,0.990415,0.003902,0.384724,-0.000003,-0.000009,-0.000008,0.000003,-0.000014,-35.246083,0.000015,
2146,2128,-2.35518838919756,-11.2939614005955,0.0258620236444926,0.007062,0.000608,-0.001476,0.328558,0.021323,329.842573,24.161277,0.999299,0.982505,0.005169,0.287659,0.000001,-0.000018,0.000009,0.000004,-0.000022,21.249903,0.000023,
2101,3268,-3.5184181670231,13.5257101619084,0.0366214076393589,0.006701,0.000530,0.001809,0.304379,0.056790,311.618434,24.469482,0.999785,0.996498,0.002659,0.403122,-0.000027,0.000009,-0.000029,0.000025,-0.000043,-60.997533,0.000044,
2491,2188,5.16450433420099,-9.98297447329782,0.021460879724259,0.006390,-0.000262,0.003482,0.278855,0.021279,328.631615,22.389630,0.998469,0.971487,0.006339,0.321383,-0.000023,-0.000001,-0.000024,0.000015,-0.000039,-57.302045,0.000039,
2026,2053,-4.95990829130468,-12.934444565361,0.0242979034869109,0.006809,0.000118,-0.000470,0.313742,0.025753,331.608444,24.951396,0.999698,0.992908,0.003596,0.217243,0.000000,-0.000119,-0.000008,0.000001,-0.000120,-3.897703,0.000138,
2101,1993,-3.31475501242463,-14.2542433538833,0.0392976101564386,0.006817,-0.000012,0.000406,0.311278,0.019108,332.291526,24.438063,0.999651,0.990704,0.004245,0.222544,0.000050,-0.000076,-0.000017,0.000052,-0.000079,-7.606801,0.000080,
2086,2143,-3.66687080127868,-10.964042441565,0.00764994175665379,0.006832,0.000027,-0.000297,0.314408,0.009489,329.698400,24.366448,0.998964,0.984517,0.005076,0.415331,-0.000005,-0.000023,0.000004,-0.000005,-0.000024,12.600630,0.000031,
2146,3268,-2.54431010787748,13.5306391756574,0.0215676254397863,0.006596,0.000610,-0.000224,0.305407,0.052663,311.292043,24.716250,0.999671,0.994508,0.003042,0.399026,-0.000015,0.000005,-0.000016,0.000014,-0.000024,-60.912824,0.000024,
2431,3163,3.65995108378559,11.2797172902286,0.0169676662127927,0.006695,0.000144,0.000984,0.304571,0.034925,312.610975,25.934606,0.999671,0.992915,0.003390,0.385723,-0.000004,0.000020,-0.000001,0.000020,-0.000004,-88.799907,0.000021,
2206,2398,-1.0953741118564,-5.38384033435984,-0.00273324653926466,0.006525,0.000340,0.003425,0.288936,0.063232,325.019814,24.105325,0.999474,0.988889,0.004267,0.385875,-0.000021,-0.000001,-0.000018,0.000010,-0.000032,-59.148416,0.000032,
2056,2068,-4.30914880021238,-12.6059669762492,0.0166298454824982,0.006642,0.000267,0.003243,0.295740,0.036512,331.113202,24.688388,0.998575,0.980232,0.005444,0.297409,0.000023,-0.000063,0.000006,0.000024,-0.000063,4.077721,0.000064,
2281,2803,0.464117476726571,3.45016712922082,-0.0239854430201376,0.006663,0.000298,0.002530,0.298215,0.062177,318.131680,24.641915,0.999230,0.989102,0.004193,0.388192,-0.000003,-0.000001,0.000000,-0.000001,-0.000003,79.874904,0.000004,
2326,2623,1.4770102077512,-0.470745504349161,-0.013213487255257,0.006526,0.000236,0.001679,0.294071,0.043768,321.105502,24.179412,0.999566,0.989277,0.003983,0.456169,0.000003,0.000009,-0.000010,0.000017,-0.000005,-53.244184,0.000017,
2041,2128,-4.64418582609804,-11.2916977897051,0.00998291118304451,0.007230,0.000433,-0.005670,0.347724,-0.011941,330.233228,24.688988,0.998649,0.978156,0.006044,0.324868,-0.000025,-0.000033,0.000010,-0.000018,-0.000040,33.438854,0.000059,
2266,2488,0.194621159847383,-3.41805611458176,-0.0184280839016537,0.006504,-0.000340,0.001846,0.292461,0.012959,323.309916,23.935489,0.999701,0.991377,0.003868,0.483215,-0.000014,-0.000004,-0.000005,-0.000002,-0.000016,-69.380166,0.000020,
2071,3283,-4.17186185064419,13.8480353062534,0.0210101492459103,0.006516,0.000363,0.001916,0.295686,0.047634,311.389364,24.249673,0.999723,0.996468,0.002710,0.444910,-0.000036,0.000027,-0.000021,0.000033,-0.000042,-73.217442,0.000044,
2131,3238,-2.86379061645824,12.8787056272704,0.0314754126720231,0.006568,0.000430,0.000853,0.300808,0.047228,311.924665,24.611336,0.999617,0.994291,0.003001,0.407927,-0.000015,0.000005,-0.000009,0.000009,-0.000019,-68.876743,0.000019,
2236,2398,-0.442053826359448,-5.38373178920072,-0.00800851380739687,0.006708,-0.000117,0.002567,0.299621,0.026934,324.914639,23.979386,0.999508,0.990200,0.004084,0.383593,-0.000028,-0.000002,-0.000012,0.000003,-0.000033,-68.775541,0.000036,
2311,2473,1.17841122230256,-3.74479480622654,-0.00562777115567314,0.006346,0.000093,0.001514,0.286126,0.019715,323.602475,23.907049,0.999262,0.986829,0.004544,0.385776,0.000006,-0.000012,0.000001,0.000006,-0.000012,2.936488,0.000012,
2371,2833,2.41599437412246,4.10719532218376,-0.02400599134603,0.006556,0.000334,0.002188,0.293725,0.039962,317.596034,24.786551,0.999706,0.991134,0.003785,0.384287,-0.000017,0.000010,-0.000008,0.000013,-0.000019,-74.575249,0.000019,
2491,2203,5.16119812667789,-9.65357686189142,0.0154211152836297,0.006338,0.000312,-0.000633,0.292508,0.030602,328.352224,22.423188,0.998440,0.973420,0.006169,0.358965,-0.000019,-0.000016,-0.000021,0.000004,-0.000038,-46.795260,0.000042,
2056,3223,-4.4858047908801,12.5465297757139,0.0413444649101962,0.006449,0.000557,-0.000025,0.298091,0.046381,312.628105,24.212992,0.999571,0.994093,0.003058,0.422953,-0.000020,0.000022,-0.000018,0.000028,-0.000026,-69.953414,0.000032,
2476,2128,4.84917343476839,-11.2995337250222,0.0254934127326578,0.006546,-0.000296,0.005792,0.277316,0.029436,329.592200,22.212295,0.999016,0.974141,0.006206,0.347184,-0.000001,-0.000043,-0.000009,0.000001,-0.000045,-11.809193,0.000052,
2071,3163,-4.15142110788237,11.2489047750277,0.0353339525395882,0.006619,0.000487,-0.000002,0.305703,0.039644,313.481483,24.368557,0.999740,0.995287,0.002875,0.354142,-0.000013,0.000038,-0.000010,0.000040,-0.000014,-79.460806,0.000040,
2041,3163,-4.80165592511787,11.2457563300709,0.0337321160199053,0.006631,0.000229,0.002034,0.300604,0.037215,313.635784,24.157998,0.999631,0.993907,0.003278,0.428874,-0.000023,0.000057,-0.000006,0.000057,-0.000023,-85.631983,0.000057,
2356,2713,2.11248153108031,1.49325666923038,-0.0219301380068941,0.006539,-0.000004,0.003083,0.289592,0.031964,319.560160,24.448707,0.999534,0.991559,0.003659,0.384888,-0.000017,0.000020,-0.000011,0.000023,-0.000020,-74.101162,0.000025,
2071,3298,-4.17432610819113,14.1730429382865,0.0181284194138698,0.006552,0.000441,0.000224,0.302178,0.041748,311.126012,24.264365,0.999535,0.995003,0.002999,0.419603,-0.000036,0.000031,-0.000019,0.000036,-0.000041,-75.293865,0.000045,
2176,2098,-1.69783087395635,-11.9508668325251,0.00535866667797791,0.006719,0.000508,-0.000388,0.309388,0.040204,330.030237,23.815027,0.999402,0.983894,0.005135,0.451880,0.000007,-0.000008,0.000007,0.000010,-0.000011,21.771771,0.000012,
2116,2053,-2.99859293250793,-12.9362856807545,0.015915504130021,0.006767,0.000537,0.001965,0.304683,0.023733,331.061651,24.288664,0.998862,0.979886,0.005401,0.300677,-0.000001,-0.000037,-0.000009,0.000001,-0.000039,-13.578741,0.000044,
2101,3283,-3.52182729532715,13.8503613891375,0.026889918752147,0.006423,0.000263,0.002444,0.289500,0.032231,311.276854,24.428488,0.999735,0.996677,0.002632,0.419354,-0.000034,0.000019,-0.000019,0.000026,-0.000040,-71.845795,0.000040,
2386,2788,2.75089598158711,3.12839387447011,-0.0247177380386461,0.006609,-0.000030,0.004303,0.288247,0.030312,318.326503,24.673889,0.999664,0.991932,0.003688,0.375561,-0.000020,-0.000001,-0.000010,0.000003,-0.000025,-66.076195,0.000027,
2281,2593,0.502695232990092,-1.12573663470432,-0.0152218422153396,0.006439,0.000378,-0.000100,0.296325,0.038106,321.616528,24.202996,0.999262,0.988900,0.004266,0.409312,-0.000002,-0.000004,-0.000012,0.000009,-0.000015,-43.439422,0.000015,
2131,2128,-2.68408677484092,-11.2925616217561,0.0110929359494207,0.006421,0.000032,0.002281,0.287766,0.009778,329.738004,24.206668,0.998946,0.981668,0.005269,0.317136,0.000003,-0.000018,0.000010,0.000007,-0.000022,21.558847,0.000023,
2071,2128,-3.99080342166728,-11.2905482613156,0.00996090914134129,0.007221,0.000730,-0.001991,0.337291,0.041249,330.056204,24.608971,0.999054,0.984545,0.005052,0.287602,-0.000001,-0.000028,0.000008,0.000002,-0.000030,15.385344,0.000034,
2146,3283,-2.54753373383586,13.8558290068346,0.0135664513856,0.006545,0.000364,0.001373,0.298117,0.040384,310.972006,24.724120,0.999588,0.994494,0.003114,0.385170,-0.000019,0.000017,-0.000008,0.000019,-0.000020,-77.883142,0.000023,
2191,2128,-1.37470672200297,-11.2941133854098,0.0162444921908218,0.006874,0.000500,-0.000956,0.318306,0.031235,329.601562,23.837493,0.998631,0.981334,0.005466,0.364813,0.000003,-0.000015,0.000011,0.000008,-0.000020,24.928396,0.000020,
2101,2008,-3.31711770109897,-13.9279664502741,0.043044949765715,0.006698,-0.000544,0.003253,0.297416,0.002565,332.070046,24.242130,0.999675,0.991473,0.004253,0.406853,0.000036,-0.000043,0.000001,0.000036,-0.000043,0.795834,0.000046,
2221,2308,-0.752129565646506,-7.35220435996158,0.000142448535882522,0.006769,0.000882,-0.004924,0.326673,0.037688,326.496904,23.879285,0.998942,0.987049,0.004531,0.415770,-0.000016,-0.000016,-0.000012,-0.000003,-0.000028,-45.194802,0.000034,
2251,2728,-0.174894538557421,1.81543617459575,-0.0247549216461493,0.006512,0.000289,0.001124,0.295920,0.037092,319.392245,24.433925,0.999412,0.990869,0.003747,0.426698,-0.000008,0.000000,-0.000014,0.000011,-0.000019,-52.975872,0.000019,
2506,2293,5.46943558873801,-7.68141278009756,0.0146767205437754,0.006086,-0.000670,0.006780,0.252069,0.011288,326.894146,22.735995,0.999157,0.978315,0.005510,0.331727,0.000000,0.000003,0.000018,0.000020,-0.000016,47.680842,0.000021,
2116,3178,-3.17858977787501,11.5766653208263,0.0369062016420685,0.006578,0.000300,0.001261,0.299952,0.038035,313.018003,24.494493,0.999575,0.993030,0.003337,0.429059,-0.000013,0.000021,-0.000008,0.000023,-0.000015,-77.942369,0.000023,
2131,3253,-2.86630704407781,13.2037778217652,0.0270933173738968,0.006694,0.000540,-0.001522,0.313796,0.046162,311.655315,24.607751,0.999687,0.994920,0.002885,0.414612,-0.000016,0.000007,-0.000013,0.000013,-0.000022,-64.714992,0.000022,
2176,2278,-1.72771165993957,-8.01000920450525,0.0122578679214485,0.006514,-0.000655,0.004142,0.285931,0.024060,327.168208,24.017989,0.998780,0.981364,0.005445,0.412090,-0.000007,-0.000020,-0.000020,0.000007,-0.000035,-36.301279,0.000036,
2446,3238,3.97136895890312,12.9083208106359,0.0217347092649334,0.006758,0.000467,0.002277,0.302864,0.062030,311.442433,26.253176,0.999657,0.993088,0.003394,0.415674,0.000008,0.000011,0.000006,0.000016,0.000003,51.465830,0.000020,
2101,3298,-3.52486404765635,14.1756344422194,0.0179685399353957,0.006281,0.000626,0.000170,0.289803,0.047993,310.956510,24.413997,0.999602,0.994961,0.003031,0.449276,-0.000028,0.000030,-0.000012,0.000032,-0.000030,-78.406004,0.000036,
2416,3088,3.34831920692934,9.65061829855049,0.0149858620056307,0.006605,0.000336,0.002481,0.294950,0.038451,313.793619,25.652255,0.999665,0.992658,0.003543,0.371653,-0.000010,0.000020,-0.000011,0.000024,-0.000013,-71.864765,0.000024,
2101,3073,-3.48749708851362,9.30105358272017,0.0166238854133667,0.006706,0.000741,-0.002508,0.316945,0.046607,314.650304,24.472889,0.999561,0.991825,0.003624,0.389533,-0.000004,0.000015,-0.000014,0.000022,-0.000011,-62.526806,0.000022,
2296,2863,0.77971907665075,4.75484285054709,-0.0160880794027776,0.006452,-0.000212,0.002206,0.289337,0.022554,317.194269,24.750484,0.999623,0.993056,0.003526,0.372471,-0.000006,0.000006,0.000001,0.000006,-0.000006,86.319742,0.000007,
2326,2638,1.47343655881473,-0.143021248990692,-0.0163923099523799,0.006230,0.000089,0.004938,0.269219,0.053153,320.810109,24.241317,0.999425,0.988960,0.004083,0.438947,-0.000002,0.000012,-0.000012,0.000019,-0.000008,-60.744126,0.000019,
2086,2158,-3.66989618046571,-10.6343825253988,0.00470428459811956,0.006368,-0.000302,0.000612,0.290407,-0.000954,329.408692,24.454787,0.998956,0.983901,0.005147,0.318631,-0.000003,-0.000029,-0.000003,-0.000002,-0.000029,-7.306786,0.000035,
2191,2338,-1.41058893681516,-6.6961954477094,0.011987496741142,0.006588,0.000457,-0.000396,0.303821,0.030689,326.168776,24.168493,0.999618,0.989946,0.004268,0.270688,-0.000016,-0.000025,-0.000020,-0.000001,-0.000041,-38.678894,0.000047,
2101,2218,-3.3525582645258,-9.32011174865269,0.000843647795932156,0.006409,0.000475,-0.000390,0.295514,0.060139,328.344648,24.382351,0.998268,0.981976,0.005514,0.387029,-0.000007,0.000020,0.000010,0.000023,-0.000010,72.123271,0.000023,
2161,2203,-2.04230749301612,-9.64872411767745,0.000801071336411496,0.006907,0.000376,-0.000277,0.317893,0.017858,328.362206,24.131818,0.998878,0.961970,0.006662,0.293482,-0.000002,-0.000002,-0.000003,0.000001,-0.000005,-42.588505,0.000005,
2026,3163,-5.12651917347997,11.2446449117579,0.038825150313528,0.006416,0.000283,0.002020,0.290847,0.044058,313.761182,24.122041,0.999603,0.994391,0.003204,0.404739,-0.000024,0.000067,-0.000005,0.000067,-0.000025,-86.983956,0.000068,
2206,2233,-1.06588981761551,-8.99471971596998,0.0135251315608684,0.006925,-0.000422,0.005326,0.300662,0.018739,327.829890,23.856482,0.999153,0.983304,0.005293,0.383644,-0.000025,-0.000012,-0.000012,-0.000004,-0.000032,-58.911216,0.000040,
2086,1993,-3.64260136723182,-14.2532348108962,0.0316919882519642,0.006698,0.000061,0.001213,0.303602,0.014864,332.292055,24.515695,0.999182,0.984483,0.004945,0.246348,0.000055,-0.000090,0.000003,0.000055,-0.000090,1.186905,0.000091,
2431,3178,3.65754968522105,11.604398334741,0.0259527807082236,0.006648,0.000140,0.002351,0.297320,0.031466,312.433358,25.962117,0.999684,0.992625,0.003377,0.403560,-0.000001,0.000021,-0.000002,0.000022,-0.000002,-84.466888,0.000024,
2251,2638,-0.158340100818254,-0.14543556778704,-0.0181807682242834,0.006974,-0.000404,0.005673,0.301847,0.022328,320.914893,24.323442,0.998855,0.986494,0.004515,0.379815,-0.000008,0.000006,-0.000007,0.000009,-0.000010,-67.545636,0.000011,
2341,2638,1.80061656235086,-0.142629226466468,-0.0179365332120938,0.006570,0.000322,0.000207,0.301157,0.022348,320.825062,24.236725,0.999345,0.987680,0.004357,0.401437,-0.000006,0.000010,-0.000012,0.000016,-0.000012,-62.596361,0.000017,
2146,3298,-2.55010903467885,14.1799672991979,0.0129177773447964,0.006480,0.000215,0.000304,0.298249,0.018220,310.721342,24.689079,0.999629,0.995457,0.002818,0.404376,-0.000014,0.000031,-0.000001,0.000031,-0.000014,-89.029427,0.000031,
2236,2563,-0.471171916409723,-1.7828915660025,-0.00927666605491595,0.006529,0.000117,0.003191,0.289706,0.024971,322.224490,24.125274,0.999694,0.992538,0.003466,0.482122,-0.000009,0.000006,-0.000006,0.000008,-0.000012,-69.899202,0.000012,
2296,2623,0.823532264687483,-0.471423475310623,-0.0169483986469459,0.006516,-0.000050,0.002553,0.290728,0.020143,321.092609,24.225200,0.999413,0.989545,0.003952,0.412950,-0.000004,0.000010,-0.000009,0.000015,-0.000009,-63.406339,0.000015,
2266,2698,0.157242693828319,1.16272050132483,-0.023257515819239,0.006874,0.000192,0.000107,0.315766,0.032701,319.885717,24.398970,0.999620,0.992571,0.003570,0.408135,-0.000010,0.000005,-0.000009,0.000010,-0.000014,-64.731729,0.000014,
2116,2293,-3.03752346498747,-7.67926220472813,-0.00141398134775272,0.006776,0.000375,0.000613,0.309504,0.048440,327.064714,24.363290,0.998946,0.986030,0.004835,0.351202,-0.000007,-0.000011,-0.000004,-0.000005,-0.000013,-29.692795,0.000018,
2491,2218,5.15739914329737,-9.32320839891639,0.00898361249340951,0.006181,0.000203,-0.000702,0.285571,0.031573,328.048297,22.555945,0.998988,0.980996,0.005534,0.288964,-0.000014,-0.000029,-0.000005,-0.000012,-0.000030,-18.484211,0.000044,
2071,2143,-3.99308172406598,-10.9622836095612,0.0102382234026663,0.007121,0.000840,-0.003266,0.336378,0.058417,329.816923,24.571099,0.998992,0.984313,0.005146,0.342449,-0.000006,-0.000022,-0.000001,-0.000006,-0.000022,-2.012049,0.000030,
2056,2083,-4.31235332284569,-12.2764727252031,0.00697242775771656,0.006309,-0.000287,0.003741,0.278880,0.011086,330.775858,24.673536,0.998861,0.981352,0.005269,0.285098,0.000015,-0.000018,0.000003,0.000015,-0.000019,5.176136,0.000020,
2446,3253,3.96841608247332,13.2331218976078,0.0266144901173107,0.006452,0.000204,0.002892,0.286371,0.043836,311.220752,26.299288,0.999782,0.994286,0.003046,0.401806,0.000016,0.000016,0.000007,0.000023,0.000009,46.245430,0.000033,
2116,3193,-3.18133476872541,11.9017866647687,0.0373332992868427,0.006371,0.000159,0.002574,0.286490,0.034345,312.762908,24.509253,0.999616,0.993260,0.003430,0.412784,-0.000015,0.000014,-0.000011,0.000018,-0.000018,-71.682540,0.000021,
2266,2503,0.192485500502851,-3.08912144886904,-0.0170511299172063,0.006822,0.000347,0.000067,0.313209,0.047610,323.098212,24.078840,0.999700,0.992402,0.003797,0.401400,-0.000015,-0.000006,-0.000003,-0.000005,-0.000016,-72.105371,0.000021,
2086,3208,-3.83313354081204,12.2238501985195,0.0458498921883006,0.006572,0.000320,0.001576,0.298950,0.038760,312.748035,24.371784,0.999552,0.994010,0.003179,0.410219,-0.000016,0.000014,-0.000017,0.000022,-0.000024,-65.369661,0.000026,
2191,2143,-1.37733833269436,-10.9650382552594,0.0174856599099371,0.006869,0.000435,0.001934,0.309052,0.065613,329.361068,23.868509,0.998931,0.983067,0.005195,0.385648,-0.000002,-0.000029,0.000006,-0.000001,-0.000030,12.496400,0.000035,
2371,2848,2.4132757068695,4.43341323653686,-0.0239770534474246,0.006555,0.000504,0.000263,0.300636,0.049148,317.358611,24.801776,0.999627,0.990337,0.003847,0.419161,-0.000016,0.000010,-0.000009,0.000013,-0.000018,-72.899802,0.000019,
2041,3178,-4.80397867373191,11.5707007908246,0.0342531718986265,0.006575,0.000692,0.000992,0.301052,0.052437,313.395533,24.132865,0.999692,0.994189,0.003195,0.460519,-0.000031,0.000057,-0.000012,0.000059,-0.000032,-82.546212,0.000059,
2071,3178,-4.15377232156575,11.5730856217146,0.0400595542073461,0.006630,0.000088,0.003993,0.294718,0.039674,313.265374,24.313774,0.999799,0.996424,0.002675,0.404670,-0.000017,0.000037,-0.000012,0.000040,-0.000020,-77.669013,0.000040,
2476,2143,4.84645050471422,-10.968965719335,0.0192389416259289,0.007141,0.000166,0.002446,0.317425,0.030321,329.337393,22.335336,0.998346,0.975562,0.005955,0.284642,0.000004,-0.000024,-0.000004,0.000004,-0.000024,-8.166451,0.000026,
2401,2983,3.04159084386381,7.36912140564078,0.000512523072131899,0.006576,0.000321,0.001678,0.296519,0.047557,315.375781,25.248987,0.999696,0.992679,0.003564,0.415873,-0.000010,0.000009,-0.000003,0.000009,-0.000011,-80.088528,0.000012,
2086,2008,-3.64460998999756,-13.9247743161972,0.0320217138234398,0.006915,-0.000112,0.000570,0.315361,0.023444,332.066576,24.454813,0.999377,0.987202,0.004691,0.318440,0.000044,-0.000055,0.000018,0.000047,-0.000059,10.157808,0.000062,
2116,2068,-3.00081579604066,-12.6075181683647,0.0149370229325996,0.006822,0.000498,-0.000229,0.313715,0.002891,330.822103,24.294127,0.998763,0.970804,0.006472,0.281259,-0.000002,-0.000024,-0.000002,-0.000002,-0.000024,-4.721567,0.000029,
2311,2488,1.17591730414958,-3.4174825641634,4.09878547316112E-05,0.006267,0.000297,0.002633,0.278790,0.043737,323.399330,23.946724,0.999442,0.987749,0.004241,0.403452,0.000002,-0.000009,0.000002,0.000002,-0.000010,9.783891,0.000010,
2056,3238,-4.48741416691529,12.8712641153194,0.0449300950597831,0.006936,0.000439,-0.001274,0.324159,0.048434,312.438743,24.213660,0.999628,0.994599,0.003011,0.417894,-0.000023,0.000019,-0.000022,0.000028,-0.000033,-66.873349,0.000035,
2116,1993,-2.99031683851716,-14.2499703855144,0.00880417903101716,0.006070,0.000048,0.001320,0.274338,0.042545,331.933005,24.387465,0.999663,0.990096,0.004231,0.193206,0.000038,-0.000067,-0.000020,0.000041,-0.000071,-10.192069,0.000071,
2191,2353,-1.41369665922022,-6.36966455751497,0.00763457093279385,0.006413,0.000233,0.001323,0.290350,0.017338,325.877936,24.032034,0.999400,0.987423,0.004541,0.410447,-0.000019,-0.000020,-0.000021,0.000002,-0.000041,-44.355206,0.000046,
2281,2608,0.499221498027246,-0.797776931609228,-0.0195450243325013,0.006485,-0.000399,0.006576,0.275860,0.040122,321.316224,24.273668,0.999117,0.988440,0.004408,0.369111,-0.000001,-0.000011,-0.000008,0.000004,-0.000015,-28.859911,0.000016,
2101,2023,-3.32032528941107,-13.5955351199549,0.0288105144239807,0.006749,-0.000096,0.003409,0.299466,0.025913,331.712147,24.368775,0.999373,0.986825,0.004958,0.309169,0.000021,-0.000069,-0.000012,0.000023,-0.000070,-7.719434,0.000072,
2146,2143,-2.35881940620513,-10.9646042667783,0.0122282575738382,0.006850,0.000563,-0.000047,0.314535,0.042207,329.474194,24.070471,0.999445,0.981897,0.005217,0.410752,-0.000005,-0.000027,0.000003,-0.000004,-0.000027,6.670984,0.000034,
2221,2518,-0.789746028193324,-2.76408157047284,-0.0104868697749225,0.006645,0.000309,0.002483,0.297492,0.037702,322.985060,24.138374,0.999390,0.987215,0.004308,0.443852,0.000001,-0.000005,-0.000003,0.000002,-0.000006,-25.116162,0.000006,
2506,2308,5.46669729830905,-7.35324981188367,0.0128206628710927,0.006076,-0.000102,0.000379,0.276575,0.003732,326.660498,22.755280,0.999017,0.980442,0.005443,0.368029,0.000001,0.000016,0.000013,0.000024,-0.000006,60.856968,0.000024,
2416,3103,3.34560551043971,9.97647610407261,0.0159286862921135,0.006567,0.000424,0.000001,0.302373,0.046763,313.563071,25.709554,0.999793,0.995009,0.003165,0.369499,-0.000007,0.000023,-0.000005,0.000024,-0.000008,-80.806757,0.000025,
2386,2803,2.74766141446967,3.45495679149489,-0.0317253846154131,0.006652,0.000145,0.002177,0.297954,0.032980,318.033168,24.660375,0.999869,0.995188,0.003270,0.435234,-0.000017,0.000000,-0.000009,0.000004,-0.000021,-66.756396,0.000023,
2206,2248,-1.06899078709486,-8.66429144608257,0.000405631706826171,0.007111,0.000073,0.002767,0.317509,0.049709,327.494907,23.904059,0.998949,0.983039,0.005221,0.386543,-0.000023,-0.000023,-0.000016,-0.000008,-0.000039,-45.074971,0.000050,
2281,2818,0.462257206769397,3.7752329282372,-0.0166805837412198,0.006700,0.000318,-0.001308,0.312696,0.023192,317.963760,24.644608,0.999321,0.990111,0.003904,0.373927,0.000000,0.000007,0.000002,0.000008,0.000000,77.556239,0.000008,
2131,2143,-2.68663861940637,-10.9635728160352,0.00914073228267398,0.006367,0.000457,0.001932,0.286485,0.038269,329.479265,24.200692,0.999134,0.983371,0.005139,0.360373,-0.000003,-0.000025,0.000003,-0.000002,-0.000025,6.428586,0.000031,
2026,3178,-5.12847496915611,11.5692652296843,0.0427424110557695,0.006507,0.000418,0.001078,0.297682,0.046375,313.555900,24.099290,0.999681,0.994042,0.003144,0.418783,-0.000032,0.000065,-0.000013,0.000067,-0.000034,-82.269192,0.000067,
2356,2728,2.11026848098996,1.81951990242056,-0.0156746063558444,0.006695,0.000019,0.003209,0.296329,0.026677,319.375291,24.496683,0.999484,0.990740,0.003807,0.370650,-0.000019,0.000008,-0.000008,0.000010,-0.000021,-74.986314,0.000021,
2131,3268,-2.86954176066528,13.5290140681462,0.0218263631363698,0.006549,0.000342,0.002038,0.296339,0.034450,311.348141,24.629441,0.999706,0.995204,0.002844,0.385267,-0.000017,0.000007,-0.000019,0.000017,-0.000027,-61.311859,0.000027,
2176,2353,-1.74168605864979,-6.36688599745109,-0.0115061441998705,0.006325,0.000589,-0.000482,0.292134,0.038885,325.766005,24.139171,0.998705,0.982154,0.005304,0.378104,-0.000018,-0.000025,-0.000023,0.000002,-0.000045,-40.944875,0.000051,
2101,2233,-3.3545967899887,-8.99306904691193,0.00824136946994258,0.006509,-0.000115,0.003807,0.287690,0.029515,328.157689,24.386797,0.998484,0.983354,0.005266,0.355619,-0.000011,0.000017,0.000005,0.000017,-0.000012,79.638583,0.000018,
2251,2653,-0.160975266567132,0.181329090526503,-0.0172314847577582,0.006771,-0.000173,0.003517,0.299706,0.028950,320.677230,24.338630,0.999280,0.989342,0.004177,0.395276,-0.000006,0.000007,-0.000002,0.000007,-0.000007,-80.771632,0.000008,
2296,2878,0.776735335975033,5.08053569775052,-0.0165302080215497,0.006168,0.000054,0.001194,0.279806,0.029312,316.936776,24.723483,0.999606,0.992404,0.003611,0.436054,-0.000009,0.000001,0.000002,0.000001,-0.000009,79.374579,0.000010,
2491,2233,5.153604223709,-8.99549275665279,0.0100736774035681,0.005951,-0.000567,0.006061,0.248900,0.023240,327.778514,22.539514,0.998888,0.981332,0.005682,0.358519,-0.000003,-0.000026,0.000009,0.000000,-0.000029,18.339573,0.000033,
2206,2413,-1.09657500333325,-5.0564498193943,0.00990186638080104,0.006733,0.000850,-0.000548,0.311244,0.070069,324.904827,24.210805,0.999635,0.991298,0.003950,0.305313,-0.000019,-0.000008,-0.000023,0.000010,-0.000037,-51.671411,0.000038,
2161,1993,-2.00638991442877,-14.2528233382659,0.0241970581280953,0.006799,0.001308,-0.002837,0.320609,0.043365,331.932061,24.098328,0.999183,0.983287,0.005109,0.165787,0.000034,-0.000053,-0.000005,0.000035,-0.000053,-3.061191,0.000054,
2236,2653,-0.48685331995539,0.180845159638238,-0.00812602085142089,0.006604,0.000044,0.004080,0.290416,0.025224,320.774331,24.431073,0.999319,0.989396,0.004299,0.307203,-0.000003,0.000012,-0.000002,0.000012,-0.000003,-81.424936,0.000012,
2341,2653,1.7968201996335,0.185280452623509,-0.0284202785739467,0.006421,0.000095,0.000582,0.292960,0.018646,320.485228,24.272886,0.999438,0.989240,0.004189,0.399240,-0.000008,0.000008,-0.000008,0.000011,-0.000011,-67.162092,0.000013,
2431,3193,3.65520355902855,11.9294827494379,0.0319879295632859,0.006741,0.000079,0.001791,0.303631,0.023026,312.244352,26.017072,0.999664,0.991782,0.003521,0.388784,0.000000,0.000026,-0.000003,0.000026,0.000000,-83.375901,0.000030,
2326,2653,1.47010582601431,0.185379620174331,-0.0327424669491165,0.006516,0.000243,-0.000503,0.301208,0.036502,320.461393,24.285875,0.999455,0.990007,0.003964,0.412811,-0.000003,0.000011,-0.000008,0.000014,-0.000006,-65.528311,0.000014,
2086,2173,-3.67129472440525,-10.3063534032506,0.00879311538011507,0.006970,-0.000041,-0.000155,0.320360,0.005655,329.231615,24.457413,0.999048,0.984040,0.004972,0.324209,-0.000006,-0.000025,0.000003,-0.000006,-0.000026,10.035009,0.000033,
2056,2098,-4.3143234640046,-11.9488315502267,0.011289535468336,0.006223,-0.000127,0.002352,0.278926,0.007692,330.571697,24.627340,0.998897,0.980918,0.005361,0.325811,0.000006,-0.000014,0.000003,0.000006,-0.000015,9.151309,0.000015,
2071,2158,-3.99625716307133,-10.6347620708756,0.0107537559645721,0.006351,0.000316,-0.000665,0.293481,0.038593,329.538316,24.510334,0.999118,0.984468,0.005068,0.383245,-0.000005,-0.000031,-0.000012,0.000000,-0.000036,-21.346882,0.000041,
2041,3193,-4.80599353278457,11.8959878525094,0.0394287467378831,0.006557,0.000545,0.000104,0.302720,0.053011,313.195206,24.184847,0.999632,0.994083,0.003198,0.400099,-0.000035,0.000051,-0.000021,0.000056,-0.000040,-77.144488,0.000057,
2101,2038,-3.32340724300761,-13.2662168098579,0.0149842753158396,0.006708,0.000267,0.000924,0.304967,0.059753,331.362574,24.213684,0.999452,0.986052,0.005083,0.503489,0.000012,-0.000080,-0.000012,0.000014,-0.000081,-7.078033,0.000087,
2371,2863,2.41062375257077,4.7590112006343,-0.0153747820394301,0.006463,-0.000006,0.004873,0.279817,0.033741,317.165451,24.852410,0.999540,0.990984,0.003798,0.393609,-0.000018,0.000013,-0.000010,0.000015,-0.000021,-73.688320,0.000022,
2116,2308,-3.03950693090793,-7.35227607538619,-0.000197864787196522,0.007033,0.000299,-0.000285,0.323926,0.020866,326.848199,24.321482,0.999097,0.985492,0.004911,0.370948,-0.000006,-0.000023,-0.000011,-0.000001,-0.000028,-26.182631,0.000033,
2401,2998,3.03840733530249,7.69574669175551,-0.00241738163077798,0.006505,0.000191,0.001100,0.295301,0.027561,315.104530,25.351980,0.999553,0.990359,0.003954,0.337642,-0.000009,0.000010,-0.000005,0.000011,-0.000011,-75.388954,0.000013,
2071,3193,-4.15613733482495,11.8987864917804,0.0380459155453536,0.006728,0.000476,0.002817,0.302738,0.047563,313.011022,24.354790,0.999595,0.994744,0.003014,0.367162,-0.000018,0.000030,-0.000018,0.000036,-0.000025,-71.429957,0.000037,
2281,2833,0.45903064590971,4.10142809571562,-0.0194842064047975,0.006497,0.000101,0.000063,0.298698,0.021129,317.682178,24.641519,0.999510,0.991690,0.003738,0.402470,-0.000003,0.000006,0.000004,0.000007,-0.000004,70.627740,0.000007,
2386,2818,2.74465516575701,3.78133553870057,-0.0265806592873332,0.006340,0.000007,0.004749,0.274380,0.040176,317.808033,24.723401,0.999707,0.992046,0.003739,0.422331,-0.000017,0.000005,-0.000008,0.000008,-0.000020,-71.967759,0.000020,
2251,2743,-0.177461363154901,2.14175316077235,-0.0194266185408765,0.006416,0.000006,0.003788,0.282731,0.035370,319.179828,24.478679,0.999307,0.988941,0.004101,0.403691,-0.000008,-0.000006,-0.000018,0.000011,-0.000025,-46.138218,0.000025,
2116,2083,-3.00343272858069,-12.2779674292289,0.0117409402561748,0.006628,0.000496,-0.002510,0.311570,-0.004038,330.552502,24.338307,0.998755,0.976078,0.006110,0.237053,-0.000003,-0.000007,-0.000003,-0.000001,-0.000009,-27.878034,0.000011,
2176,2368,-1.74383229818057,-6.03910025968553,-0.011078979043873,0.006685,0.000454,0.000014,0.307075,0.028153,325.542436,24.167752,0.999153,0.987172,0.004571,0.352815,-0.000018,-0.000012,-0.000022,0.000007,-0.000037,-48.771046,0.000039,
2176,2293,-1.72994270041253,-7.68029623252175,0.00628695231756637,0.006808,0.000242,-0.001443,0.317039,0.040794,326.906994,24.104004,0.998798,0.982906,0.005268,0.357343,-0.000007,-0.000022,-0.000016,0.000003,-0.000032,-32.507610,0.000035,
2101,3088,-3.48984316238582,9.62524031627107,0.0230085533542592,0.006558,0.000165,0.000054,0.302448,0.023292,314.445105,24.433035,0.999401,0.987432,0.004262,0.406274,-0.000008,0.000013,-0.000013,0.000019,-0.000014,-65.212442,0.000020,
2506,2323,5.46345127860135,-7.0246428266722,0.00770585943297419,0.006299,0.000263,-0.000560,0.290623,0.039423,326.388707,22.745071,0.998924,0.983957,0.005052,0.477253,-0.000005,0.000054,0.000009,0.000055,-0.000006,81.591584,0.000060,
2191,2158,-1.37942888485468,-10.6385498580318,0.029346081149356,0.006449,0.000056,0.001628,0.290623,0.022169,329.201062,23.859585,0.999116,0.985690,0.004907,0.367873,-0.000003,-0.000022,0.000000,-0.000003,-0.000022,-1.406774,0.000028,
2476,2158,4.84285310812884,-10.641001802129,0.0252033420988482,0.006518,-0.000214,0.007369,0.270161,0.030949,329.097816,22.357838,0.998425,0.973407,0.006266,0.322197,-0.000002,-0.000036,-0.000016,0.000004,-0.000042,-21.402223,0.000046,
2191,2368,-1.41671702043306,-6.04043819116181,0.000528677540899025,0.006389,0.000531,0.000970,0.290481,0.035301,325.576134,24.089684,0.999584,0.987959,0.004434,0.387230,-0.000019,-0.000012,-0.000021,0.000006,-0.000036,-50.085128,0.000039,
2221,2323,-0.75565855253171,-7.02387940785052,-0.00790546673022163,0.006752,0.000007,0.000255,0.309030,0.011055,326.170403,23.874082,0.999070,0.987507,0.004487,0.415456,-0.000014,-0.000025,-0.000017,-0.000001,-0.000038,-35.783046,0.000045,
2431,3208,3.65172337989097,12.2546525122085,0.0304920321279951,0.006605,-0.000243,0.004899,0.285780,0.016431,311.967888,26.037544,0.999624,0.990357,0.003844,0.410398,0.000003,0.000020,-0.000005,0.000021,0.000002,-75.203182,0.000026,
2236,2578,-0.474600415849533,-1.45406446469013,-0.0206868879679973,0.006367,0.000237,0.000729,0.290299,0.023867,321.886104,24.205447,0.999360,0.989704,0.004062,0.422977,-0.000009,0.000008,-0.000011,0.000013,-0.000014,-63.978505,0.000016,
2266,2518,0.190082869705172,-2.76380742058313,-0.00815970738841543,0.006452,-0.000020,0.000200,0.295655,0.015689,322.912935,24.029353,0.999615,0.992037,0.003769,0.445214,-0.000015,-0.000010,-0.000004,-0.000008,-0.000017,-60.731113,0.000025,
2446,3268,3.96354986103063,13.5593946414949,0.0045089921957242,0.006266,0.000328,0.001404,0.283454,0.048639,310.785355,26.312776,0.999753,0.993876,0.003130,0.443978,0.000025,0.000008,0.000006,0.000027,0.000006,18.061311,0.000035,
2116,2008,-2.99260197069367,-13.9238736864955,0.0123542208632443,0.005799,-0.000088,-0.000001,0.265799,0.001592,331.715307,24.199622,0.999673,0.991851,0.004179,0.347075,0.000025,-0.000034,-0.000002,0.000025,-0.000035,-2.076858,0.000036,
2086,3223,-3.83534200692934,12.5486470418827,0.0468620559261126,0.006663,0.000326,0.000401,0.306618,0.039825,312.518885,24.361418,0.999492,0.993357,0.003407,0.419303,-0.000015,0.000013,-0.000017,0.000022,-0.000024,-64.944828,0.000026,
2056,3253,-4.49002400453464,13.1964595788315,0.0439747226370741,0.006796,0.000291,-0.001047,0.316987,0.036977,312.178173,24.248267,0.999743,0.995475,0.002925,0.364867,-0.000027,0.000029,-0.000028,0.000041,-0.000039,-67.459207,0.000046,
2266,2713,0.1547356043848,1.48916125104568,-0.0174534525487502,0.006479,0.000529,-0.001985,0.304694,0.036165,319.679415,24.445600,0.999747,0.993316,0.003452,0.390577,-0.000012,0.000008,-0.000010,0.000012,-0.000016,-68.154702,0.000016,
2161,2008,-2.00889892726657,-13.9248457500522,0.0237189451056565,0.006901,0.000806,-0.000639,0.318460,0.043557,331.686089,23.994675,0.999098,0.985164,0.004929,0.283513,0.000018,-0.000027,0.000016,0.000023,-0.000032,17.501962,0.000033,
2041,3208,-4.80827810997583,12.2202605909056,0.0422143163037845,0.006503,0.000319,0.000667,0.298516,0.027022,312.969645,24.159131,0.999568,0.993831,0.003174,0.391096,-0.000033,0.000038,-0.000019,0.000042,-0.000038,-76.033461,0.000046,
2326,2668,1.46772317378578,0.513091270353044,-0.0297963089076916,0.006672,0.000378,-0.000934,0.309923,0.031047,320.250515,24.423318,0.999670,0.991560,0.003779,0.304688,-0.000003,0.000020,-0.000010,0.000023,-0.000006,-69.327163,0.000024,
2026,3193,-5.1305756390633,11.8942199064118,0.0445621299141408,0.006632,0.000431,0.000976,0.303850,0.062473,313.332120,24.084598,0.999603,0.993780,0.003187,0.438531,-0.000035,0.000062,-0.000022,0.000066,-0.000040,-77.798318,0.000067,
2146,2158,-2.36177407971,-10.6340654402549,0.00816209506598398,0.006548,0.000560,-0.000886,0.303235,0.033354,329.187153,24.226257,0.999708,0.966226,0.006423,0.257288,-0.000005,-0.000026,-0.000003,-0.000005,-0.000027,-8.821393,0.000034,
2071,3208,-4.1582267182863,12.2228148209789,0.0412845998284865,0.006666,0.000365,-0.000115,0.308229,0.034539,312.798866,24.297061,0.999574,0.994154,0.003121,0.407262,-0.000015,0.000020,-0.000017,0.000027,-0.000022,-67.998621,0.000028,
2131,2368,-2.72342430793288,-6.0406447170216,-0.00424953078572798,0.006431,0.000252,0.000146,0.295060,0.025115,325.754475,24.278974,0.999095,0.986383,0.004638,0.389238,-0.000013,-0.000006,-0.000016,0.000006,-0.000026,-51.035731,0.000027,
2086,2023,-3.64861225799028,-13.5938239958657,0.0180221341698257,0.006149,-0.000088,0.001400,0.277862,0.035576,331.672165,24.461167,0.999069,0.984619,0.005132,0.327937,0.000028,-0.000086,0.000001,0.000028,-0.000086,0.652066,0.000087,
2506,2338,5.46075303210771,-6.69510311517337,0.0109368297550532,0.006543,0.000416,0.000465,0.297909,0.043855,326.179172,22.939547,0.999269,0.985933,0.005030,0.350314,-0.000002,0.000069,0.000010,0.000070,-0.000004,82.146508,0.000079,
2101,2248,-3.35681762578625,-8.66438127536058,0.000358157487198696,0.006791,0.000461,-0.001608,0.316664,0.032038,327.879621,24.355881,0.998611,0.985581,0.005081,0.392934,-0.000015,0.000013,-0.000003,0.000013,-0.000015,-83.796032,0.000016,
2221,2533,-0.792440319335032,-2.43567627747692,-0.0118109751905422,0.006656,0.000231,0.002613,0.297536,0.034939,322.730626,24.254699,0.999602,0.990237,0.003854,0.344573,0.000002,-0.000002,-0.000002,0.000003,-0.000003,-25.133962,0.000004,
2356,2743,2.1074816800104,2.14594750412507,-0.0160658556533804,0.006563,0.000230,0.000400,0.300247,0.025433,319.131945,24.506472,0.999587,0.991517,0.003623,0.398650,-0.000020,0.000010,-0.000008,0.000012,-0.000022,-76.315972,0.000022,
2071,2173,-3.99832184046433,-10.3068065183093,0.0147721476130869,0.006559,-0.000295,0.003213,0.291871,0.018556,329.329453,24.531451,0.999056,0.985357,0.004944,0.341618,-0.000009,-0.000031,-0.000006,-0.000008,-0.000032,-14.155881,0.000042,
2116,2023,-2.99390768508873,-13.5941893188769,0.0155729855098343,0.006683,0.000308,0.000660,0.304556,0.024681,331.539670,24.275560,0.999296,0.985156,0.005362,0.301029,0.000012,-0.000054,-0.000015,0.000015,-0.000057,-12.596605,0.000059,
2146,2203,-2.36937855206925,-9.64902385627867,0.00135602035311422,0.006732,0.000151,0.000010,0.308949,0.007717,328.413083,24.184504,0.998697,0.978597,0.005594,0.305355,-0.000005,0.000003,0.000003,0.000004,-0.000006,72.877343,0.000006,
2086,2188,-3.67381443860745,-9.97753736335074,0.00904889203604853,0.006795,0.000448,0.000635,0.310236,0.038331,328.982300,24.470420,0.998811,0.983157,0.005242,0.345707,-0.000008,0.000003,0.000008,0.000008,-0.000012,61.747296,0.000012,
2296,2638,0.821097992552605,-0.144968546936511,-0.0142858302615423,0.006556,-0.000048,0.001719,0.295376,0.010013,320.876222,24.239158,0.999330,0.988201,0.004131,0.419339,-0.000007,0.000013,-0.000008,0.000016,-0.000010,-70.225905,0.000016,
2206,2503,-1.11377003446927,-3.0916046656224,-0.0106924139002444,0.006687,-0.000070,0.004447,0.293150,0.032299,323.260503,24.161183,0.999602,0.988633,0.004192,0.426079,-0.000003,-0.000004,-0.000009,0.000005,-0.000013,-43.461141,0.000013,
2281,2848,0.455729195987008,4.4292753363085,-0.0215059385108134,0.006343,0.000396,0.003833,0.279174,0.055904,317.400483,24.764166,0.999618,0.993171,0.003631,0.342466,0.000000,0.000003,0.000007,0.000009,-0.000006,51.576537,0.000009,
2161,2023,-2.01166798768786,-13.5962533083679,0.0239243960797921,0.006695,0.000295,0.001387,0.302647,0.047164,331.431720,23.956930,0.998979,0.984562,0.004967,0.338763,0.000009,-0.000032,0.000006,0.000009,-0.000033,8.345180,0.000034,
2416,3118,3.34280632212189,10.3019487151055,0.0191732227556258,0.006652,0.000171,0.002445,0.297312,0.050615,313.339443,25.753958,0.999831,0.995407,0.002975,0.375602,-0.000004,0.000023,-0.000004,0.000023,-0.000004,-81.408912,0.000025,
2056,2113,-4.31598117903385,-11.6209701662144,0.0118180634240161,0.006760,-0.000383,0.002137,0.304116,0.006308,330.360990,24.562723,0.998945,0.982171,0.005380,0.386685,0.000000,-0.000025,0.000008,0.000002,-0.000027,15.983637,0.000030,
2026,3208,-5.1327618480456,12.2187300141722,0.0482123656464637,0.006647,0.000317,0.002279,0.300926,0.050534,313.114887,24.071024,0.999565,0.993604,0.003215,0.429222,-0.000032,0.000046,-0.000019,0.000050,-0.000036,-77.153598,0.000052,
2056,3268,-4.49287429377645,13.5210896863183,0.0440558879034256,0.006599,0.000364,0.003188,0.295959,0.046366,311.912538,24.219621,0.999709,0.995505,0.002863,0.396006,-0.000035,0.000021,-0.000031,0.000035,-0.000049,-66.321159,0.000050,
2176,2383,-1.74610033410208,-5.71271514612597,-0.00854468469270842,0.007040,-0.000244,0.004427,0.309530,0.018447,325.324566,24.092516,0.999151,0.988924,0.004412,0.432091,-0.000020,-0.000006,-0.000022,0.000010,-0.000036,-53.621734,0.000037,
2161,2218,-2.04442695567264,-9.32079360035478,0.00213875923088835,0.006990,0.000344,-0.002759,0.329267,-0.003410,328.143553,24.141424,0.998587,0.979544,0.005596,0.275064,-0.000007,0.000004,-0.000006,0.000007,-0.000010,-65.707180,0.000011,
2191,2173,-1.38280079372635,-10.3079966504379,0.00917167248167061,0.006639,0.000491,-0.003308,0.314963,0.022192,328.815756,23.842332,0.999271,0.968846,0.006051,0.403318,-0.000006,-0.000014,0.000002,-0.000006,-0.000015,10.557406,0.000021,
2251,2668,-0.163990404769443,0.508253738055394,-0.018342919006102,0.006416,0.000144,0.002461,0.286967,0.039944,320.411630,24.351551,0.999462,0.991179,0.003869,0.417251,-0.000006,0.000014,-0.000007,0.000017,-0.000009,-72.056163,0.000017,
2221,2578,-0.800356351351748,-1.45425345921316,-0.0221914220559256,0.006893,0.000464,-0.002555,0.325135,0.018417,321.942859,24.238206,0.999146,0.989202,0.004130,0.404168,0.000000,0.000006,-0.000006,0.000010,-0.000004,-57.182709,0.000010,
2341,2668,1.79462884133705,0.512394141232072,-0.0209367409885886,0.006788,-0.000030,0.004661,0.295605,0.035850,320.306292,24.370432,0.999675,0.991918,0.003861,0.355884,-0.000008,0.000016,-0.000008,0.000018,-0.000011,-72.490193,0.000018,
2476,2173,4.83957387952232,-10.3115506404612,0.0228335107295266,0.006328,-0.000221,0.005212,0.269644,0.027416,328.834991,22.436271,0.998001,0.966719,0.006840,0.299665,-0.000014,-0.000020,-0.000016,0.000000,-0.000033,-39.951353,0.000038,
2431,3223,3.64856758197738,12.5805057449948,0.0313939259370954,0.006300,-0.000050,0.004280,0.274163,0.027253,311.717244,26.121389,0.999554,0.991469,0.003713,0.385829,0.000005,0.000015,-0.000001,0.000015,0.000005,-84.738054,0.000020,
2101,2053,-3.32505977405131,-12.9365195508237,0.0252531034902859,0.006783,0.000292,0.001645,0.306371,0.035071,331.208108,24.427146,0.999064,0.974336,0.006090,0.269614,0.000006,-0.000046,-0.000008,0.000008,-0.000048,-8.608599,0.000051,
2506,2353,5.45796004705492,-6.36710062001266,0.00958509669555951,0.006639,0.000742,-0.003536,0.317905,0.040550,325.944998,22.960817,0.999259,0.985499,0.005110,0.388720,0.000016,0.000091,0.000011,0.000092,0.000014,81.878875,0.000115,
2131,2158,-2.68742346321775,-10.6367578317526,0.0261425020250385,0.006477,0.000524,-0.003958,0.309130,0.002922,329.402683,24.267589,0.999712,0.991576,0.004099,0.265858,-0.000002,-0.000026,-0.000003,-0.000002,-0.000026,-7.194653,0.000032,
2401,3013,3.03574494739594,8.02126157758528,-0.000561314025389947,0.006684,0.000106,0.001939,0.300458,0.023803,314.880105,25.373045,0.999558,0.989629,0.003960,0.357587,-0.000008,0.000007,-0.000008,0.000011,-0.000011,-66.754429,0.000013,
2491,2248,5.15033467865385,-8.66759360662713,0.0117449339019231,0.005930,-0.000853,0.009651,0.234129,0.011081,327.535364,22.554616,0.998982,0.981913,0.005421,0.392380,0.000006,-0.000019,0.000006,0.000007,-0.000021,12.884276,0.000021,
2116,2098,-3.00521715705595,-11.9492447879114,0.0172346767421345,0.006957,0.000196,-0.000895,0.321810,0.003280,330.367436,24.393648,0.999150,0.975970,0.005956,0.195393,-0.000003,-0.000006,-0.000001,-0.000003,-0.000006,-17.081154,0.000009,
2236,2668,-0.489427538036722,0.507517990519332,-0.0098203496241922,0.006418,0.000594,-0.000991,0.298562,0.051817,320.524816,24.399533,0.999410,0.990635,0.004001,0.387076,-0.000003,0.000016,-0.000006,0.000017,-0.000005,-73.112423,0.000018,
2281,2623,0.49661047253489,-0.471224422485889,-0.0214345787553043,0.006532,-0.000259,0.004059,0.286486,0.025374,321.067964,24.257901,0.999290,0.988203,0.004262,0.398664,-0.000002,0.000007,-0.000008,0.000012,-0.000007,-59.913245,0.000012,
2086,3238,-3.8384189817423,12.8738585244498,0.0412700559518839,0.006576,0.000071,0.003509,0.293541,0.040599,312.213623,24.355943,0.999637,0.994190,0.003125,0.423141,-0.000018,0.000010,-0.000021,0.000021,-0.000029,-61.930193,0.000030,
2386,2833,2.74168426732497,4.10821810013812,-0.0257668131288824,0.006215,0.000059,0.004890,0.268165,0.044043,317.563765,24.807038,0.999566,0.988152,0.004231,0.385757,-0.000018,0.000011,-0.000008,0.000014,-0.000020,-75.245502,0.000020,
2236,2593,-0.476741095052148,-1.12735271361339,-0.0181573636755274,0.006526,0.000425,-0.001306,0.304333,0.031777,321.678139,24.209611,0.999178,0.987195,0.004613,0.448560,-0.000007,0.000003,-0.000010,0.000009,-0.000013,-57.714066,0.000013,
2266,2533,0.186760493673997,-2.43710656267601,-0.0119435725599146,0.006275,-0.000708,0.002920,0.278304,-0.015858,322.621561,23.996890,0.999735,0.995513,0.003157,0.472899,-0.000015,-0.000011,-0.000009,-0.000004,-0.000022,-51.855145,0.000029,
2251,2758,-0.181020365494582,2.46969395538205,-0.0332176497271917,0.006448,0.000107,0.002907,0.287162,0.037360,318.824618,24.521768,0.999407,0.988928,0.004082,0.386372,-0.000008,0.000002,-0.000015,0.000013,-0.000019,-53.840250,0.000020,
2296,2893,0.774340904693705,5.40694335321132,-0.0154220811848518,0.006285,0.000263,-0.000883,0.292283,0.023832,316.713833,24.789959,0.999571,0.992231,0.003570,0.393706,-0.000013,-0.000006,0.000003,-0.000005,-0.000014,68.558210,0.000020,
2266,2728,0.151299810646911,1.81622503552276,-0.0240026459883325,0.006498,0.000152,0.002044,0.292120,0.039121,319.368213,24.454525,0.999561,0.991545,0.003659,0.410862,-0.000010,0.000003,-0.000012,0.000010,-0.000017,-58.655505,0.000017,
2326,2683,1.46469195292186,0.838988290343025,-0.0280034729522072,0.006578,0.000133,0.002876,0.292363,0.031417,320.004582,24.383161,0.999762,0.991934,0.003718,0.380225,-0.000004,0.000024,-0.000012,0.000029,-0.000009,-69.311338,0.000030,
2101,3103,-3.49216111245709,9.95082749357548,0.0295371765960226,0.006518,0.000020,0.003920,0.289269,0.037790,314.241447,24.488370,0.999700,0.992943,0.003299,0.365433,-0.000010,0.000012,-0.000013,0.000018,-0.000016,-65.513777,0.000020,
2056,3283,-4.4958289637224,13.8458642314562,0.0366209939289206,0.006537,0.000447,0.003762,0.291582,0.058127,311.600467,24.164709,0.999711,0.995845,0.002795,0.456031,-0.000049,0.000030,-0.000017,0.000033,-0.000053,-78.233670,0.000054,
2116,2323,-3.04229506948662,-7.02349403394462,-0.00400012565950192,0.006787,0.000450,-0.001689,0.316886,0.033906,326.567469,24.358606,0.999315,0.987275,0.004535,0.352580,-0.000006,-0.000031,-0.000016,0.000002,-0.000039,-26.508456,0.000044,
2101,2263,-3.3595053148765,-8.33786211024223,0.0070888032018388,0.006529,-0.000922,0.006353,0.280991,-0.017425,327.659610,24.333993,0.998751,0.984287,0.005088,0.368724,-0.000018,0.000007,0.000000,0.000007,-0.000018,89.249579,0.000018,
2026,3223,-5.1354183815673,12.5439402444515,0.0486943249361502,0.006456,0.000081,0.004739,0.285269,0.048309,312.858074,24.097445,0.999547,0.994048,0.003112,0.389244,-0.000032,0.000032,-0.000018,0.000037,-0.000037,-75.328727,0.000042,
2206,2428,-1.09988714270284,-4.73139382473001,0.00851474687647169,0.006381,-0.000084,0.004025,0.280314,0.052677,324.621493,23.998239,0.999153,0.988241,0.004502,0.518870,-0.000014,-0.000026,-0.000022,0.000002,-0.000043,-37.229217,0.000048,
2446,3283,3.95990693700542,13.8851749307673,-0.00294290224655924,0.006383,0.000216,0.003297,0.281638,0.030494,310.474245,26.390175,0.999749,0.993086,0.003283,0.398921,0.000042,-0.000023,0.000008,0.000042,-0.000024,6.530599,0.000043,
2056,2128,-4.31884327852729,-11.2906579986431,0.00465911856775847,0.006592,-0.000292,0.002107,0.296562,0.000750,330.052724,24.648054,0.998871,0.982148,0.005466,0.293864,-0.000007,-0.000031,0.000010,-0.000003,-0.000035,19.418405,0.000042,
2371,2878,2.40825036894514,5.08531928113916,-0.0124782516781465,0.006661,-0.000361,0.003876,0.292316,0.007403,316.957565,24.940447,0.999478,0.993025,0.003615,0.319840,-0.000020,0.000005,-0.000006,0.000006,-0.000021,-76.181448,0.000022,
2176,2308,-1.73276037707778,-7.35239864347005,0.00790202434978937,0.006430,0.000603,-0.000607,0.297227,0.051985,326.658860,24.111508,0.998703,0.982820,0.005273,0.375385,-0.000009,-0.000031,-0.000020,0.000002,-0.000043,-30.544188,0.000048,
2311,2503,1.17299082227636,-3.08977133854194,-0.00641845689898446,0.006417,0.000530,0.000479,0.293155,0.046344,323.116725,23.938287,0.999529,0.989049,0.004036,0.448127,-0.000005,-0.000008,0.000002,-0.000004,-0.000009,27.606276,0.000013,
2146,2443,-2.40932064595235,-4.40157162411497,-0.0143869305573503,0.006824,0.000515,-0.000861,0.316353,0.031970,324.420393,24.268111,0.999183,0.987016,0.004752,0.404235,-0.000020,-0.000024,-0.000019,-0.000002,-0.000041,-41.972189,0.000049,
2086,2038,-3.65047689473295,-13.2655955868641,0.0199014471289161,0.006288,0.000181,-0.001222,0.291903,0.045741,331.461684,24.406849,0.999079,0.984072,0.005153,0.394733,0.000018,-0.000099,0.000001,0.000018,-0.000099,0.348102,0.000106,
2431,3238,3.64491015453472,12.9063319008952,0.0215558803632803,0.006403,0.000162,0.004179,0.279377,0.037609,311.393335,26.146178,0.999513,0.992545,0.003583,0.420087,0.000009,0.000011,0.000001,0.000012,0.000009,67.508076,0.000021,
2116,2038,-2.99635614843917,-13.2657671249278,0.0131168275233904,0.006698,0.000310,-0.000008,0.307216,0.038952,331.281785,24.187012,0.999224,0.983894,0.005261,0.410823,0.000004,-0.000064,-0.000014,0.000007,-0.000067,-11.487990,0.000073,
2086,2203,-3.67643705048446,-9.64914977707605,0.00802056614719504,0.006691,0.000143,0.002840,0.299048,0.042008,328.721553,24.465070,0.998568,0.981294,0.005384,0.356642,0.000000,0.000014,0.000014,0.000023,-0.000009,58.144662,0.000023,
2491,2263,5.14818301881625,-8.33797759986908,0.0102430737049417,0.006483,0.000008,0.003481,0.283381,0.026439,327.328902,22.671597,0.998706,0.980087,0.005364,0.351831,0.000010,-0.000009,0.000003,0.000010,-0.000009,8.009137,0.000011,
2191,2383,-1.41953009048256,-5.71332895105471,0.00107440615909127,0.006377,-0.000144,0.005514,0.275545,0.023598,325.324009,24.063032,0.999335,0.987415,0.004540,0.418479,-0.000022,-0.000009,-0.000022,0.000008,-0.000038,-53.047094,0.000041,
2146,2218,-2.37193986866275,-9.32128431439583,0.0100376761665757,0.006093,0.000404,0.001066,0.276541,0.029856,328.211638,24.209518,0.998606,0.979223,0.005553,0.312661,-0.000008,0.000008,-0.000002,0.000009,-0.000009,-82.818824,0.000010,
2131,2383,-2.7258016677198,-5.71295996525846,-0.00481050678160955,0.006470,0.000182,-0.000436,0.298615,0.023845,325.511411,24.283061,0.998883,0.986067,0.004720,0.391241,-0.000014,-0.000008,-0.000014,0.000003,-0.000026,-50.486993,0.000028,
2341,2683,1.79136442436973,0.839161585698612,-0.026040953403708,0.006651,-0.000153,0.003661,0.292775,0.024517,320.017132,24.364577,0.999662,0.991834,0.003785,0.387642,-0.000011,0.000021,-0.000011,0.000024,-0.000015,-72.883630,0.000025,
2101,2068,-3.32737550805251,-12.6085338751696,0.0239771699774565,0.006780,0.000262,0.000250,0.310311,0.028868,330.961449,24.342606,0.999172,0.950760,0.008413,0.352594,0.000006,-0.000032,0.000000,0.000006,-0.000032,0.489739,0.000034,
2191,2428,-1.42658107357432,-4.7297560657824,-0.00642560981827955,0.006940,0.000416,-0.001715,0.324272,0.024104,324.583093,24.095953,0.998734,0.986669,0.004870,0.434529,-0.000019,-0.000029,-0.000024,0.000001,-0.000048,-39.033286,0.000055,
2221,2548,-0.794677845385333,-2.10944155638013,-0.00839901757279904,0.006701,0.000052,0.001605,0.302804,0.029572,322.521866,24.221684,0.999750,0.992086,0.003486,0.391958,0.000003,0.000000,0.000000,0.000003,0.000000,-6.615067,0.000003,
2446,3298,3.95696699058918,14.2098805712122,-0.00747640932274862,0.006683,0.000303,0.001786,0.301183,0.033440,310.209356,26.367561,0.999774,0.993536,0.003219,0.475285,0.000059,-0.000033,0.000009,0.000060,-0.000034,5.433553,0.000060,
2431,3253,3.64122722348295,13.2323482991513,0.0132765740901277,0.006505,-0.000140,0.005923,0.277535,0.025610,311.075352,26.224729,0.999551,0.992747,0.003442,0.378002,0.000015,0.000017,0.000001,0.000017,0.000015,58.925000,0.000032,
2056,3298,-4.49847965923188,14.1712629976001,0.0265228086272487,0.006750,0.000719,0.001141,0.308856,0.055594,311.287353,24.171914,0.999557,0.994491,0.003036,0.439245,-0.000057,0.000031,-0.000015,0.000034,-0.000060,-80.731475,0.000060,
2086,2053,-3.65139074098288,-12.9367479691425,0.0288101068927631,0.007199,0.000188,0.000154,0.329742,0.040103,331.332652,24.508017,0.998769,0.980645,0.005461,0.289810,0.000012,-0.000061,0.000000,0.000012,-0.000061,0.181078,0.000065,
2221,2593,-0.803360249699448,-1.12700636222982,-0.0240883675296573,0.006740,0.000321,-0.000876,0.312735,0.035956,321.671379,24.243509,0.999052,0.987132,0.004494,0.436512,0.000001,0.000002,-0.000005,0.000006,-0.000003,-49.015284,0.000006,
2146,2458,-2.41217311849234,-4.07303901039106,-0.0189374170784049,0.006831,0.000425,0.000651,0.312128,0.049749,324.135395,24.319816,0.999231,0.987626,0.004664,0.379636,-0.000019,-0.000022,-0.000022,0.000002,-0.000043,-43.302922,0.000048,
2491,2278,5.14570604417716,-8.00898317712687,0.0108274655675018,0.006820,0.000208,0.000707,0.309512,0.038433,327.116867,22.761722,0.999077,0.981669,0.005140,0.334732,0.000004,-0.000009,0.000008,0.000007,-0.000013,25.022951,0.000013,
2251,2683,-0.166339284191285,0.834613399450433,-0.0194711534306293,0.006553,0.000217,-0.001030,0.304746,0.021104,320.176701,24.346885,0.999441,0.990957,0.003836,0.426788,-0.000004,0.000017,-0.000011,0.000021,-0.000008,-66.551569,0.000021,
2146,2173,-2.36197915892919,-10.3107634494048,0.0419630295770048,0.006695,0.000310,0.001956,0.301322,0.041536,329.226863,24.111798,0.999826,0.945362,0.008056,0.389072,-0.000009,-0.000017,0.000000,-0.000009,-0.000017,1.542722,0.000027,
2401,3028,3.03307633482907,8.34702120370569,0.000395624936800232,0.006695,0.000426,-0.000167,0.308784,0.044923,314.650989,25.389673,0.999605,0.989882,0.003934,0.406933,-0.000008,0.000007,-0.000012,0.000014,-0.000015,-61.578737,0.000016,
2176,2398,-1.74831400524344,-5.3843117484591,-0.00702163530257849,0.007008,0.000563,0.001200,0.318382,0.076429,325.103212,24.129319,0.998995,0.986978,0.004685,0.467363,-0.000021,-0.000005,-0.000024,0.000012,-0.000038,-54.001024,0.000039,
2161,2233,-2.0470481503116,-8.99357141470566,0.0102956659602,0.006408,0.000401,-0.000798,0.296620,0.027151,327.937628,24.110248,0.998695,0.980402,0.005392,0.349409,-0.000014,-0.000007,-0.000013,0.000003,-0.000025,-52.224331,0.000027,
2506,2368,5.45500173544719,-6.03952859637398,0.00580183101561715,0.007124,0.000657,-0.003387,0.339540,0.023224,325.692422,22.938322,0.998750,0.980187,0.005757,0.456696,0.000019,0.000071,0.000013,0.000074,0.000016,76.573472,0.000096,
2116,2113,-3.00814023752177,-11.6219601017789,0.0170416636358368,0.006578,0.000099,0.001922,0.296109,0.020796,330.100153,24.250813,0.999308,0.985683,0.004806,0.362510,-0.000002,-0.000008,0.000004,0.000000,-0.000010,29.205517,0.000011,
2131,2173,-2.6910857114955,-10.3082911258031,0.0110615694833882,0.006638,-0.000456,0.002803,0.296048,-0.005756,329.023710,24.121971,0.999396,0.976342,0.005590,0.411872,-0.000005,-0.000017,0.000001,-0.000005,-0.000017,5.238915,0.000024,
2296,2908,0.772424971836283,5.73268450819936,-0.00715247879895742,0.006586,0.000297,0.000222,0.302453,0.041935,316.548543,24.827203,0.999525,0.992786,0.003513,0.404072,-0.000015,-0.000001,0.000002,0.000000,-0.000015,81.039112,0.000018,
2041,3223,-4.81083162371324,12.5450138926842,0.0430875302797631,0.006443,0.000034,0.003595,0.287545,0.026756,312.720920,24.144536,0.999544,0.994042,0.003083,0.396311,-0.000033,0.000028,-0.000018,0.000033,-0.000038,-74.725657,0.000041,
2356,2758,2.103358115234,2.47408440884183,-0.0284779838280542,0.006369,0.000463,0.002030,0.285733,0.049948,318.768717,24.557400,0.999411,0.989899,0.003900,0.411290,-0.000018,0.000012,-0.000007,0.000014,-0.000019,-77.888563,0.000020,
2161,2278,-2.05482230247246,-8.00815167089457,0.00517903058141655,0.006799,-0.000232,0.005587,0.294941,0.044818,327.168266,24.158110,0.998354,0.978892,0.005860,0.356493,-0.000008,-0.000022,-0.000020,0.000006,-0.000037,-35.462630,0.000039,
2281,2878,0.450981995763431,5.07928733594829,-0.0159711775665983,0.006439,0.000067,0.001345,0.291862,0.029906,316.971867,24.666202,0.999719,0.993633,0.003450,0.469300,-0.000008,0.000003,0.000003,0.000003,-0.000009,76.062732,0.000009,
2476,2188,4.83718475856704,-9.98285257890186,0.0239569799512651,0.006615,-0.000177,0.001653,0.296305,0.012933,328.628811,22.499190,0.998468,0.969941,0.006662,0.281308,-0.000006,-0.000005,-0.000014,0.000008,-0.000020,-45.814675,0.000020,
2236,2683,-0.492676929991635,0.834257221034846,-0.0158508598885305,0.006344,0.000352,0.000655,0.289722,0.036577,320.222308,24.385000,0.999361,0.989272,0.004109,0.408004,-0.000001,0.000016,-0.000008,0.000019,-0.000004,-68.562736,0.000020,
2431,3268,3.63751588045521,13.5584287886326,0.00317511291819983,0.006363,-0.000118,0.003168,0.281229,0.023748,310.747439,26.293936,0.999697,0.993486,0.003282,0.355408,0.000020,0.000009,0.000002,0.000020,0.000009,8.164195,0.000030,
2101,3118,-3.49472517862356,10.2760048582584,0.0244045898740524,0.006638,0.000206,0.002511,0.299040,0.041340,313.963427,24.447497,0.999785,0.994605,0.002945,0.410211,-0.000011,0.000015,-0.000010,0.000019,-0.000015,-71.155597,0.000020,
2206,2443,-1.10425603046264,-4.40090866867746,-0.0139449921118739,0.006170,-0.000335,0.004401,0.269365,0.032183,324.180008,24.093670,0.998559,0.984379,0.005233,0.421740,-0.000010,-0.000023,-0.000020,0.000005,-0.000037,-36.284489,0.000040,
2101,2278,-3.36113708251734,-8.00906786135228,-0.000187115623930367,0.007163,-0.000023,-0.002244,0.335478,-0.004115,327.411661,24.319597,0.998734,0.983131,0.005168,0.399969,-0.000010,0.000000,0.000004,0.000001,-0.000011,72.593004,0.000013,
2206,2518,-1.11638447400468,-2.76393160829388,-0.0182855757337848,0.006847,0.000386,-0.000131,0.315185,0.036766,322.976333,24.141565,0.999494,0.988393,0.004250,0.468259,-0.000001,-0.000010,-0.000006,0.000002,-0.000013,-25.510739,0.000014,
2416,3133,3.33990058218525,10.6261473920401,0.0191875860361961,0.006681,0.000151,0.002360,0.298977,0.048342,313.096092,25.670623,0.999848,0.995515,0.002886,0.503397,0.000000,0.000024,-0.000006,0.000026,-0.000002,-76.940495,0.000029,
2086,2068,-3.65500849605503,-12.6063267287273,0.0116171777174827,0.006707,0.000806,-0.003916,0.319164,0.041497,330.938606,24.461094,0.998729,0.962101,0.007414,0.341601,0.000011,-0.000045,0.000008,0.000012,-0.000046,8.097317,0.000048,
2461,1993,4.54968231781937,-14.2630627232605,0.0269698726310708,0.006797,0.001057,-0.003328,0.323511,0.035511,331.790801,21.869571,0.998576,0.968124,0.006706,0.262503,0.000014,-0.000090,0.000004,0.000015,-0.000090,2.124924,0.000097,
2266,2548,0.184172129604853,-2.10806497006524,-0.0115856965837793,0.006471,-0.000560,0.004613,0.281791,0.005997,322.383900,24.167604,0.999619,0.992576,0.003620,0.350438,-0.000011,-0.000010,-0.000007,-0.000004,-0.000017,-46.821696,0.000022,
2341,2698,1.78898369973063,1.16435954100277,-0.0142817122616634,0.006381,-0.000364,0.006256,0.271280,0.028690,319.850634,24.342215,0.999665,0.993100,0.003648,0.450884,-0.000009,0.000014,-0.000010,0.000017,-0.000013,-69.491964,0.000018,
2131,2398,-2.72759283294038,-5.38692156203876,0.00671346061886879,0.006371,-0.000255,0.000026,0.292521,-0.006459,325.359975,24.286065,0.998453,0.985077,0.004981,0.364911,-0.000015,-0.000012,-0.000016,0.000002,-0.000030,-47.766018,0.000034,
2146,2233,-2.37426721326338,-8.992719754353,0.00669593339233643,0.006346,0.000630,-0.000034,0.291533,0.044094,327.957262,24.197543,0.998723,0.980075,0.005417,0.349381,-0.000013,-0.000001,-0.000010,0.000004,-0.000018,-60.922945,0.000019,
2176,2593,-1.78216025020201,-1.12883882514338,-0.0205409105888066,0.006647,-0.000117,-0.000003,0.305572,-0.011374,321.824338,24.325470,0.999157,0.988194,0.004286,0.358734,-0.000018,0.000000,-0.000008,0.000003,-0.000021,-68.032946,0.000023,
2311,2518,1.16967129750988,-2.76146636114836,-0.0119852700839829,0.006233,0.000537,-0.000087,0.286657,0.043893,322.820314,24.003178,0.999501,0.987750,0.004158,0.413954,-0.000009,-0.000011,0.000000,-0.000009,-0.000011,-10.310400,0.000020,
2086,2218,-3.67874582816656,-9.32055441126732,0.00646368926112473,0.006601,0.000547,-0.000254,0.303954,0.055855,328.472193,24.468383,0.998467,0.982996,0.005219,0.368816,-0.000002,0.000023,0.000015,0.000030,-0.000009,65.194377,0.000031,
2086,3253,-3.84082434833734,13.19847458154,0.0472916235462435,0.006393,0.000223,0.006066,0.277783,0.051600,312.002891,24.354679,0.999773,0.995025,0.002912,0.432994,-0.000019,0.000017,-0.000028,0.000032,-0.000034,-61.533991,0.000038,
2371,2893,2.40559759110935,5.41102792771204,-0.0130147853354856,0.006525,0.000457,-0.001147,0.304311,0.039254,316.720404,24.894201,0.999456,0.992017,0.003709,0.438853,-0.000020,-0.000001,-0.000006,0.000001,-0.000022,-73.673127,0.000025,
2281,2863,0.453263783202114,4.75500537565716,-0.0211989753520356,0.006651,-0.000242,0.004882,0.289656,0.033005,317.169488,24.771468,0.999673,0.993586,0.003482,0.339587,-0.000004,0.000006,0.000003,0.000007,-0.000005,76.956175,0.000007,
2191,2398,-1.42127468947993,-5.38577833086615,0.00569096684114356,0.006549,0.000480,0.001199,0.297168,0.045111,325.141674,24.087278,0.999213,0.986252,0.004843,0.431803,-0.000023,-0.000008,-0.000023,0.000009,-0.000040,-54.158019,0.000042,
2296,2653,0.817480502611954,0.183213187875005,-0.0241212091435727,0.006338,0.000220,0.000812,0.288524,0.008895,320.543150,24.302214,0.999268,0.988134,0.004156,0.385880,-0.000007,0.000012,-0.000003,0.000013,-0.000008,-80.912071,0.000013,
2221,2608,-0.806131136509816,-0.800393616706408,-0.0239065984746389,0.006766,-0.000078,0.002130,0.304204,0.024194,321.421449,24.242671,0.998852,0.984101,0.004876,0.445080,0.000003,-0.000005,-0.000002,0.000004,-0.000006,-10.986713,0.000006,
2071,2188,-4.00047912787509,-9.97782987775138,0.00674518601539376,0.007107,0.000292,0.002009,0.320668,0.032853,329.050328,24.489426,0.998925,0.984055,0.005253,0.397923,-0.000012,0.000004,0.000001,0.000004,-0.000012,86.456362,0.000012,
2251,2773,-0.182574709446687,2.79458905964176,-0.0219342104402358,0.006629,0.000153,0.001305,0.300707,0.024116,318.689175,24.502675,0.999423,0.988466,0.004091,0.415359,-0.000006,0.000001,-0.000014,0.000012,-0.000017,-52.023673,0.000018,
2101,2083,-3.3315410411147,-12.2775292517464,0.0030952909263533,0.006319,0.000474,0.000824,0.287599,0.040423,330.524250,24.305445,0.999081,0.958228,0.007848,0.407050,0.000004,-0.000010,-0.000001,0.000004,-0.000010,-2.249210,0.000010,
2056,2143,-4.32045469718882,-10.9630138415673,0.00538069628100857,0.006884,0.000329,-0.002637,0.323487,-0.000940,329.845262,24.577104,0.998835,0.983721,0.005389,0.360382,-0.000012,-0.000022,0.000001,-0.000012,-0.000022,7.254129,0.000034,
2176,2323,-1.73611963676927,-7.0240187629089,-0.00337485358141976,0.006166,0.000611,-0.003030,0.292644,0.028569,326.318722,24.074794,0.998661,0.982519,0.005269,0.403597,-0.000007,-0.000041,-0.000025,0.000006,-0.000054,-28.083180,0.000059,
2116,2338,-3.04548715523704,-6.69643090741106,-0.00696391824010334,0.006463,-0.000334,0.002852,0.288342,-0.000269,326.273307,24.299676,0.999314,0.986824,0.004605,0.382745,-0.000016,-0.000025,-0.000014,-0.000006,-0.000036,-36.749323,0.000045,
2176,2413,-1.75095510744147,-5.05671864067106,-0.0066743460872658,0.006691,0.000683,-0.001100,0.311001,0.055081,324.856620,24.164787,0.998748,0.985540,0.004866,0.424512,-0.000020,-0.000012,-0.000028,0.000012,-0.000044,-49.020915,0.000045,
2506,2383,5.45134152689943,-5.71043819364571,0.00557306208173713,0.006883,0.000254,-0.000174,0.315930,0.013251,325.423133,23.087557,0.998757,0.981032,0.005384,0.360547,0.000018,0.000046,-0.000012,0.000051,0.000014,-69.753356,0.000068,
2071,1993,-3.97067261861352,-14.2516702196523,0.0234009704714708,0.006210,0.000643,-0.000159,0.285380,0.038300,332.280350,24.608683,0.998717,0.979521,0.005648,0.282408,0.000074,-0.000100,0.000012,0.000074,-0.000101,3.927427,0.000104,
2431,3283,3.63444818053835,13.8836510597019,-0.00082293246282461,0.006475,0.000180,0.001748,0.291770,0.028426,310.477878,26.315642,0.999798,0.994105,0.003090,0.386962,0.000027,-0.000020,0.000003,0.000027,-0.000020,3.934792,0.000028,
2236,2608,-0.479342330017044,-0.800267394761633,-0.020334703004778,0.006617,0.000580,-0.002557,0.312609,0.025708,321.425025,24.225944,0.999081,0.985749,0.004724,0.448027,-0.000003,-0.000005,-0.000007,0.000003,-0.000011,-41.688702,0.000011,
2221,2563,-0.797890141665267,-1.78145009523207,-0.0169352714978572,0.006755,0.000233,0.002607,0.302191,0.036823,322.206746,24.236341,0.999545,0.991381,0.003698,0.404632,0.000000,0.000006,-0.000002,0.000007,0.000000,-69.515687,0.000008,
2386,2848,2.73983270291174,4.43423111274673,-0.0232680945627521,0.006668,0.000503,-0.000112,0.307131,0.051580,317.379138,24.823707,0.999533,0.989748,0.003981,0.419703,-0.000017,0.000012,-0.000010,0.000015,-0.000020,-73.374293,0.000021,
2146,2473,-2.41419419730677,-3.74682457385799,-0.0130105398442311,0.006668,0.000764,-0.002329,0.313759,0.044172,323.944514,24.284601,0.999245,0.986850,0.004897,0.418270,-0.000017,-0.000019,-0.000015,-0.000003,-0.000033,-42.517687,0.000040,
2491,2293,5.14221268788543,-7.68192957504667,0.0143113060556743,0.006581,-0.000620,0.006214,0.277214,0.012089,326.871488,22.747092,0.999226,0.981784,0.005085,0.384119,0.000002,0.000004,0.000020,0.000024,-0.000017,46.097999,0.000024,
2161,2518,-2.09689378779258,-2.76339210124748,-0.0299677112183758,0.006498,-0.000017,0.002689,0.290469,0.018374,322.996161,24.279859,0.998910,0.986341,0.004824,0.396707,-0.000006,-0.000005,-0.000010,0.000004,-0.000015,-46.723714,0.000016,
2086,2083,-3.66016462795493,-12.2732624588037,-0.0224676373437092,0.006301,0.000416,0.000557,0.287586,0.053033,330.382299,24.466993,0.999011,0.948267,0.008864,0.351268,0.000007,-0.000017,0.000006,0.000009,-0.000018,14.069213,0.000018,
2101,2293,-3.36416375804644,-7.67998779074226,-0.000572125327266804,0.006732,0.000239,0.001110,0.306006,0.032243,327.136916,24.383998,0.999122,0.986174,0.004813,0.375485,-0.000004,-0.000004,0.000006,0.000002,-0.000010,45.568245,0.000010,
2296,2923,0.770138155190178,6.05682157065652,-0.00186374903779551,0.006785,-0.000097,0.002069,0.305241,0.022686,316.351917,24.736034,0.999417,0.993080,0.003489,0.505425,-0.000014,0.000003,-0.000001,0.000003,-0.000014,-87.640459,0.000015,
2191,2443,-1.42987103271907,-4.40138255107405,-0.00861585710578083,0.006515,0.000198,0.000841,0.296704,0.038526,324.294490,24.153606,0.998850,0.986121,0.004917,0.407408,-0.000017,-0.000025,-0.000023,0.000002,-0.000044,-40.109708,0.000049,
2116,2128,-3.01050203811747,-11.2931964546585,0.0142612212872564,0.006576,0.000419,-0.000881,0.304435,0.011921,329.844559,24.246364,0.998921,0.983245,0.005244,0.364757,-0.000003,-0.000013,0.000007,0.000001,-0.000017,27.266562,0.000019,
2251,2698,-0.168909738421902,1.16101467823911,-0.0195107940045887,0.006787,-0.000092,0.000972,0.308876,0.019691,319.937026,24.342320,0.999487,0.991236,0.003643,0.453513,-0.000008,0.000005,-0.000010,0.000011,-0.000013,-62.056548,0.000014,
2191,2668,-1.46906843540776,0.506971616220532,-0.0221075244643316,0.006356,0.000368,0.000260,0.291649,0.022529,320.532947,24.445291,0.999742,0.994380,0.003235,0.331139,-0.000011,0.000013,-0.000008,0.000016,-0.000013,-73.349011,0.000017,
2041,3238,-4.8130006369098,12.8700636700786,0.0405877328599331,0.006611,0.000302,0.000547,0.303958,0.034346,312.470963,24.133948,0.999590,0.995140,0.002894,0.405506,-0.000036,0.000025,-0.000023,0.000033,-0.000044,-71.233601,0.000046,
2266,2743,0.149001107344588,2.14240060001026,-0.0198770256438934,0.006780,0.000054,0.004713,0.296221,0.039417,319.163054,24.474842,0.999383,0.989202,0.003968,0.416439,-0.000009,-0.000002,-0.000015,0.000009,-0.000021,-51.581521,0.000021,
2131,2413,-2.7308876308154,-5.05669593813111,-0.010089780130329,0.006731,0.000079,0.001957,0.303476,0.031643,324.987733,24.338540,0.998889,0.986891,0.004765,0.358324,-0.000017,-0.000019,-0.000020,0.000002,-0.000038,-43.395700,0.000043,
2431,3298,3.63106539855019,14.2087053201232,-0.00966374553740934,0.006644,0.000319,0.000085,0.305744,0.023911,310.171165,26.309274,0.999801,0.994017,0.003062,0.437525,0.000042,-0.000029,0.000003,0.000042,-0.000029,2.559887,0.000043,
2086,3268,-3.84330109737851,13.5240828203511,0.0348575770584034,0.006899,0.000383,0.002155,0.312513,0.048222,311.687647,24.360312,0.999736,0.995810,0.002792,0.421865,-0.000024,0.000013,-0.000034,0.000033,-0.000044,-59.306354,0.000046,
2146,2248,-2.37662904613182,-8.66403615566283,0.001433879693991,0.006580,0.000950,-0.002825,0.310870,0.056425,327.691138,24.184330,0.998742,0.981059,0.005363,0.385146,-0.000014,-0.000012,-0.000016,0.000003,-0.000029,-46.983227,0.000031,
2401,3043,3.03083223312402,8.67223206531243,0.0098668389168779,0.006612,0.000432,-0.000283,0.305449,0.048428,314.481762,25.433151,0.999645,0.991307,0.003738,0.411490,-0.000011,0.000022,-0.000011,0.000025,-0.000014,-73.323830,0.000025,
2461,2008,4.54660301184355,-13.9343651146173,0.0330336842649785,0.006760,0.000252,0.002765,0.298692,0.038131,331.575018,21.907112,0.998969,0.972563,0.006203,0.285627,0.000014,-0.000058,0.000019,0.000019,-0.000063,13.773987,0.000065,
2146,2188,-2.36474575752324,-9.98160957930075,0.0315750965111761,0.006830,0.000710,-0.001250,0.317373,0.038099,328.915254,24.078354,0.999387,0.955169,0.007063,0.429993,-0.000011,-0.000009,-0.000001,-0.000008,-0.000011,-65.529390,0.000019,
2161,2293,-2.05699502664878,-7.68011549114046,-0.00212891534323489,0.006896,0.000587,-0.004574,0.330729,0.022325,326.901724,24.116868,0.998585,0.982174,0.005399,0.387831,-0.000007,-0.000023,-0.000015,0.000002,-0.000032,-30.640253,0.000036,
2071,2008,-3.97272056729891,-13.9215081603217,0.0149888884736811,0.006764,0.000669,-0.003192,0.319434,0.025558,332.004007,24.624931,0.999007,0.982312,0.005257,0.254197,0.000066,-0.000063,0.000029,0.000073,-0.000070,12.095983,0.000082,
2086,2098,-3.66169806910495,-11.9453985181402,-0.00491153451525861,0.006101,0.000198,0.002736,0.272103,0.044877,330.272022,24.593288,0.998974,0.966922,0.006922,0.218423,0.000005,-0.000014,0.000007,0.000007,-0.000016,19.091216,0.000016,
2326,2698,1.46222298399345,1.16455799792254,-0.0242494845045371,0.006513,0.000193,0.001615,0.293775,0.020549,319.794118,24.344420,0.999620,0.991083,0.003845,0.442695,-0.000005,0.000013,-0.000011,0.000019,-0.000010,-64.039141,0.000019,
2176,2428,-1.75372538053648,-4.72889052247523,-0.00760229229877041,0.006735,0.000124,0.002473,0.301779,0.036591,324.597376,24.211820,0.998982,0.986427,0.004747,0.372646,-0.000018,-0.000025,-0.000024,0.000003,-0.000045,-40.606334,0.000051,
2416,3148,3.33735232637856,10.9516572357362,0.0294626432723817,0.006338,0.000169,0.003341,0.279567,0.040127,312.916886,25.780372,0.999758,0.994594,0.003042,0.431771,0.000000,0.000017,-0.000007,0.000019,-0.000002,-71.709823,0.000021,
2281,2893,0.448011355734852,5.40667607467439,-0.0197850768806234,0.006493,0.000159,0.001612,0.293488,0.031932,316.696473,24.779454,0.999602,0.992447,0.003550,0.385384,-0.000012,-0.000002,0.000004,-0.000001,-0.000014,69.872452,0.000017,
2236,2623,-0.481674939435567,-0.473140166940965,-0.0167969268392199,0.006918,0.000200,0.001015,0.314742,0.012166,321.213305,24.307238,0.999141,0.985600,0.004726,0.374941,-0.000003,0.000006,-0.000007,0.000011,-0.000007,-60.836427,0.000011,
2251,2788,-0.184827708173625,3.12096590811853,-0.0209562109737362,0.006888,0.000055,0.000151,0.316412,0.021375,318.469045,24.532225,0.999524,0.988979,0.004037,0.406558,-0.000005,-0.000002,-0.000010,0.000007,-0.000014,-48.933829,0.000014,
2116,2143,-3.01274027231705,-10.9632608905974,0.00829768323023927,0.007005,0.000769,-0.002261,0.328306,0.027164,329.577254,24.296260,0.998434,0.978345,0.005970,0.336739,-0.000009,-0.000019,0.000000,-0.000009,-0.000019,0.585060,0.000028,
2476,2203,4.83397458435105,-9.65348963760715,0.016667724992999,0.006980,0.000129,0.000496,0.317531,0.025390,328.346678,22.513037,0.998117,0.971030,0.006528,0.339499,-0.000004,-0.000014,-0.000012,0.000004,-0.000022,-34.385868,0.000023,
2461,2023,4.54311111393013,-13.6043754188103,0.0280688865814227,0.006589,-0.000135,0.001112,0.296933,0.004765,331.290222,21.978464,0.999264,0.978415,0.005578,0.239030,0.000017,-0.000045,0.000012,0.000019,-0.000047,10.570181,0.000047,
2071,2023,-3.97556469245795,-13.5927491986439,0.0138976377057247,0.006389,0.000610,-0.000910,0.295751,0.052554,331.731220,24.563392,0.998933,0.984048,0.005150,0.343555,0.000049,-0.000100,0.000009,0.000050,-0.000100,3.458279,0.000100,
2191,2458,-1.43250403764221,-4.07358478698114,-0.0162760102608672,0.006675,0.000550,-0.003031,0.316325,0.038292,324.007747,24.127496,0.998909,0.986739,0.004875,0.449102,-0.000016,-0.000015,-0.000019,0.000004,-0.000034,-45.724991,0.000038,
2296,2938,0.767195727184362,6.38460817137067,-0.00242214475628089,0.006630,0.000170,0.001947,0.298686,0.045023,316.094955,24.901441,0.999223,0.990886,0.003889,0.391994,-0.000012,0.000006,-0.000002,0.000006,-0.000012,-82.670919,0.000012,
2221,2818,-0.842421073291387,3.77197523537817,-0.0121040872783738,0.006314,-0.000123,0.004287,0.276824,0.028227,318.081727,24.592392,0.999516,0.990772,0.003925,0.367724,-0.000008,0.000017,-0.000001,0.000017,-0.000008,-87.398101,0.000017,
2161,2248,-2.04980608437716,-8.66478662011185,0.0039536556995472,0.006637,0.000179,0.000676,0.302606,0.023579,327.649221,24.111131,0.998728,0.979471,0.005337,0.357502,-0.000012,-0.000019,-0.000019,0.000004,-0.000034,-39.966148,0.000037,
2161,2533,-2.09873977363397,-2.43642649073544,-0.0239461837301747,0.006655,0.000267,0.001500,0.301457,0.037495,322.814510,24.308331,0.999148,0.987038,0.004476,0.398205,-0.000010,-0.000005,-0.000009,0.000002,-0.000017,-52.724773,0.000019,
2146,2488,-2.41709673569827,-3.41926719646801,-0.0192684013962321,0.006710,0.000426,-0.001214,0.312243,0.028545,323.648508,24.275051,0.999180,0.986762,0.004741,0.421509,-0.000017,-0.000007,-0.000020,0.000009,-0.000033,-52.262005,0.000034,
2251,2713,-0.172153243720434,1.48858244843838,-0.0251873029326362,0.006548,0.000183,0.000078,0.300931,0.023080,319.637597,24.399016,0.999483,0.991419,0.003662,0.423960,-0.000010,0.000006,-0.000011,0.000011,-0.000016,-62.355461,0.000016,
2101,2308,-3.36594415153042,-7.35238752807406,9.00962875221012E-05,0.007098,0.000389,-0.001439,0.330327,0.018514,326.925313,24.378563,0.999149,0.983613,0.005259,0.370387,-0.000004,-0.000018,-0.000001,-0.000004,-0.000018,-5.506141,0.000024,
2116,2353,-3.04793180239323,-6.36684568300129,-0.0127869895757158,0.006780,0.000114,0.002723,0.303480,0.026495,325.997207,24.387880,0.999292,0.984947,0.004831,0.326927,-0.000019,-0.000019,-0.000014,-0.000005,-0.000034,-44.882243,0.000042,
2506,2398,5.4469167945729,-5.38093126708819,-0.00537703211250573,0.006617,0.000183,0.001089,0.298890,0.013982,325.070753,23.166730,0.998730,0.982973,0.005137,0.345139,0.000033,0.000016,-0.000013,0.000039,0.000009,-28.032373,0.000051,
2176,2608,-1.7850851570179,-0.800752560335837,-0.0251394062923964,0.006584,0.000334,0.000404,0.301665,0.039555,321.538292,24.355126,0.999191,0.988569,0.004277,0.393275,-0.000017,-0.000007,-0.000006,-0.000004,-0.000020,-63.567211,0.000026,
2446,1993,4.22083727190322,-14.2622987178133,0.0234950056780008,0.006731,0.000355,0.000123,0.307354,0.022334,331.712595,21.978457,0.999232,0.976580,0.005819,0.247640,0.000009,-0.000088,-0.000011,0.000010,-0.000089,-6.472362,0.000098,
2071,2203,-4.00271333337108,-9.64949885105114,0.00738396822589493,0.006963,0.000516,-0.000474,0.321201,0.039537,328.815113,24.493132,0.998603,0.982309,0.005333,0.400286,-0.000004,0.000014,0.000008,0.000017,-0.000007,69.721862,0.000017,
2221,2623,-0.808687259258033,-0.473408566639158,-0.0232038891231241,0.006893,-0.000414,0.003965,0.304017,0.004229,321.183943,24.293202,0.999127,0.985327,0.004740,0.394262,0.000004,0.000003,-0.000003,0.000007,0.000000,-43.669299,0.000008,
2041,3253,-4.81545141523799,13.1945297644562,0.0413656169254182,0.006516,0.000328,0.001030,0.298232,0.040064,312.226579,24.093864,0.999647,0.994855,0.002880,0.442497,-0.000039,0.000037,-0.000029,0.000047,-0.000049,-71.222429,0.000056,
2161,2308,-2.0594277363035,-7.3513392659796,0.00361640193005996,0.006876,0.000397,0.000263,0.315022,0.040068,326.691497,24.239578,0.998735,0.982416,0.005300,0.294692,-0.000009,-0.000032,-0.000020,0.000002,-0.000044,-30.405847,0.000049,
2386,2863,2.73740647375256,4.75999625311444,-0.0129586319987993,0.006678,0.000205,0.004352,0.291480,0.049395,317.205232,24.889272,0.999488,0.989799,0.003906,0.394765,-0.000020,0.000016,-0.000011,0.000019,-0.000023,-74.877558,0.000025,
2356,2773,2.10113486809614,2.80100169518364,-0.0248829147705578,0.006495,0.000800,-0.000807,0.301685,0.055760,318.570219,24.646206,0.999450,0.990793,0.003743,0.367453,-0.000015,0.000004,-0.000011,0.000009,-0.000020,-64.961748,0.000020,
2401,3058,3.02775762621466,8.99813999320763,0.0117866392506585,0.006573,0.000222,0.003027,0.291533,0.040595,314.238367,25.505950,0.999672,0.992387,0.003599,0.375461,-0.000013,0.000022,-0.000010,0.000024,-0.000015,-74.930935,0.000025,
2206,2533,-1.11853071657103,-2.43637032254132,-0.0121154965480059,0.006754,0.000588,-0.001429,0.315113,0.032743,322.784607,24.249028,0.999538,0.989527,0.004065,0.374220,-0.000001,-0.000010,-0.000005,0.000001,-0.000012,-23.928721,0.000014,
2416,3163,3.33456094544905,11.2770159691865,0.028613204936903,0.006420,0.000036,0.001545,0.289894,0.032597,312.674252,25.811131,0.999733,0.993890,0.003154,0.439995,0.000000,0.000020,-0.000002,0.000020,0.000000,-84.790292,0.000023,
2266,2803,0.138232544110721,3.44952356456319,-0.0250310270510568,0.006905,0.000653,0.001402,0.313336,0.071149,318.160264,24.620669,0.999187,0.988591,0.004508,0.404790,-0.000006,0.000000,-0.000004,0.000002,-0.000008,-63.568483,0.000009,
2311,2533,1.16728541810937,-2.43453085361833,-0.0138301212133456,0.006664,0.000210,-0.001122,0.309873,0.016346,322.585329,24.006342,0.999472,0.988663,0.004107,0.416640,-0.000008,-0.000016,-0.000009,-0.000002,-0.000022,-31.879421,0.000026,
2071,2038,-3.9777345423938,-13.2643643845177,0.0180545478834802,0.006170,0.000846,-0.001725,0.288106,0.066821,331.517933,24.544838,0.999028,0.984972,0.004934,0.376639,0.000036,-0.000114,0.000007,0.000036,-0.000114,2.689613,0.000117,
2461,2038,4.54004632697102,-13.2746642333842,0.0288586997512539,0.006627,0.000476,0.002708,0.292942,0.060938,331.050603,22.005741,0.999375,0.980192,0.005462,0.325981,0.000017,-0.000030,0.000003,0.000017,-0.000030,3.247206,0.000031,
2086,3283,-3.84618387586701,13.8486033917923,0.0349739121297148,0.006527,-0.000060,0.003305,0.291885,0.026192,311.422780,24.358059,0.999622,0.995570,0.002831,0.399482,-0.000033,0.000022,-0.000024,0.000031,-0.000042,-69.182812,0.000044,
2191,2683,-1.47091358063359,0.832336544555091,-0.0161196019539602,0.006540,0.000373,-0.001309,0.305101,0.030101,320.353489,24.380878,0.999640,0.993231,0.003459,0.417754,-0.000011,0.000015,-0.000010,0.000018,-0.000014,-70.899763,0.000019,
2341,2713,1.78598458439211,1.49267051560798,-0.0261701709459317,0.006757,0.000108,0.001632,0.304860,0.028999,319.540244,24.420792,0.999442,0.990138,0.003974,0.409754,-0.000013,0.000019,-0.000009,0.000021,-0.000015,-74.493656,0.000022,
2086,2233,-3.68117358408442,-8.9921518987701,0.00389534332225594,0.007009,-0.000248,0.005344,0.306354,0.026600,328.212156,24.492068,0.998787,0.985847,0.004761,0.317359,-0.000007,0.000021,0.000011,0.000024,-0.000011,71.295341,0.000025,
2191,2413,-1.42448270999953,-5.05584836479511,-0.0108157483669515,0.006650,0.001148,-0.004062,0.318532,0.041877,324.782374,24.157885,0.999083,0.987440,0.004632,0.374413,-0.000022,-0.000014,-0.000027,0.000009,-0.000045,-49.278341,0.000048,
2176,2443,-1.7561583373329,-4.40145456305718,-0.00966998044162892,0.006935,0.000183,0.002296,0.311540,0.024676,324.347666,24.210760,0.999198,0.986696,0.004690,0.375509,-0.000020,-0.000020,-0.000023,0.000004,-0.000043,-44.583900,0.000048,
2056,2158,-4.323267641527,-10.6335588696814,0.00656865707276211,0.006524,0.000026,0.001714,0.294666,0.027048,329.585030,24.652073,0.999104,0.985952,0.004927,0.311020,-0.000014,-0.000035,-0.000016,-0.000005,-0.000044,-28.106159,0.000054,
2206,2458,-1.10578509106287,-4.07357672884424,-0.00908197868795924,0.006465,0.000580,-0.001342,0.301416,0.049359,324.009878,24.124308,0.998944,0.985040,0.005060,0.426142,-0.000007,-0.000012,-0.000016,0.000007,-0.000027,-40.633101,0.000028,
2086,2113,-3.66252002203585,-11.620431292196,0.0137588796773684,0.006406,-0.000399,0.003012,0.285139,-0.001962,330.200996,24.509089,0.998803,0.983642,0.005194,0.257027,0.000004,-0.000019,0.000011,0.000009,-0.000023,21.967966,0.000024,
2326,2713,1.45944228049397,1.49334941369208,-0.0275520364718318,0.006696,0.000383,0.000477,0.306221,0.024002,319.534002,24.534078,0.999274,0.987003,0.004404,0.291279,-0.000009,0.000017,-0.000011,0.000021,-0.000014,-69.620938,0.000021,
2266,2758,0.145580990035814,2.47006024909523,-0.0308022013853133,0.006732,0.000236,0.003198,0.299184,0.058038,318.830289,24.498405,0.999383,0.988976,0.004041,0.437307,-0.000010,0.000006,-0.000012,0.000013,-0.000017,-62.015425,0.000017,
2041,3268,-4.81815623144903,13.5203046654398,0.0372464697292685,0.006539,0.000319,0.002698,0.294743,0.053946,311.942749,24.142874,0.999619,0.994555,0.002964,0.398271,-0.000045,0.000024,-0.000031,0.000036,-0.000057,-69.122149,0.000058,
2146,2263,-2.37909810875762,-8.3350519033461,-0.0040094083702229,0.006968,0.000724,-0.001966,0.326025,0.058382,327.419128,24.213012,0.998747,0.982532,0.005364,0.368787,-0.000016,-0.000016,-0.000017,0.000001,-0.000033,-44.900576,0.000038,
2206,2743,-1.15608523017582,2.14066607720895,-0.027659215557776,0.006491,0.000325,0.000630,0.296797,0.031098,319.230324,24.483098,0.999476,0.990237,0.003978,0.380729,-0.000014,-0.000007,-0.000021,0.000010,-0.000032,-49.840828,0.000032,
2251,2803,-0.188219926195824,3.44792112285636,-0.0235221739820872,0.006639,0.000135,0.004239,0.291640,0.048489,318.178415,24.562369,0.999442,0.989467,0.004182,0.426805,-0.000005,-0.000001,-0.000006,0.000004,-0.000009,-53.427806,0.000009,
2221,2638,-0.811441629635837,-0.146164753309897,-0.0323610341862945,0.007195,-0.000052,0.001323,0.326551,0.009488,320.886638,24.263550,0.999123,0.986272,0.004687,0.448922,0.000001,0.000008,-0.000003,0.000009,0.000001,-70.899295,0.000011,
2446,2008,4.21864578229289,-13.935256793093,0.0344453948150658,0.006697,0.000249,0.000841,0.303063,0.029225,331.558830,21.916330,0.999240,0.976919,0.005881,0.372038,0.000008,-0.000057,0.000005,0.000008,-0.000057,4.072161,0.000062,
2281,3118,0.409263460928525,10.2912921264132,0.0106197241553332,0.006527,0.000106,0.002967,0.290833,0.030530,313.274019,25.206726,0.999775,0.994728,0.003120,0.361789,-0.000012,0.000006,-0.000016,0.000015,-0.000022,-59.448720,0.000022,
2491,2308,5.13908318301605,-7.35198656319859,0.0109862475202931,0.006411,0.000181,0.001230,0.288831,0.035999,326.611634,22.883104,0.998765,0.979731,0.005504,0.332995,0.000006,0.000008,0.000018,0.000025,-0.000011,46.506720,0.000025,
2131,2188,-2.6927425618234,-9.97906982425142,0.0187108543688055,0.006654,0.000317,-0.000723,0.307571,0.016119,328.856889,24.261073,0.999274,0.983900,0.004997,0.302691,-0.000008,-0.000005,0.000001,-0.000005,-0.000008,73.900287,0.000013,
2296,2668,0.815153039255097,0.510297760214627,-0.0179026420209425,0.006310,0.000124,0.001091,0.286356,0.023389,320.348980,24.388344,0.999569,0.990626,0.003872,0.344771,-0.000006,0.000025,-0.000008,0.000027,-0.000008,-76.610412,0.000027,
2476,2218,4.83056138045138,-9.32381973649245,0.0158153789423636,0.006785,0.000192,0.001401,0.305248,0.052229,328.084141,22.613948,0.998884,0.979943,0.005798,0.324802,-0.000003,-0.000028,-0.000002,-0.000003,-0.000028,-3.997547,0.000034,
2191,2473,-1.43539958866092,-3.74498988710475,-0.0243813641213819,0.006674,0.001005,-0.005942,0.325607,0.047478,323.706424,24.166878,0.999153,0.984271,0.005105,0.435136,-0.000015,-0.000013,-0.000011,-0.000003,-0.000025,-47.117259,0.000031,
2236,2698,-0.495608314781567,1.16135671463751,-0.0200583811230786,0.006513,0.000215,0.003030,0.289783,0.041156,319.943490,24.404030,0.999434,0.991168,0.003716,0.415260,-0.000005,0.000005,-0.000005,0.000007,-0.000007,-65.233347,0.000008,
2371,2908,2.40237362167755,5.73734430744838,-0.0134955916554418,0.006521,0.000130,0.002832,0.289946,0.050490,316.457049,24.929307,0.999371,0.990761,0.003882,0.455706,-0.000021,0.000003,-0.000005,0.000004,-0.000022,-77.997223,0.000023,
2131,2428,-2.73402239915344,-4.72767654351009,-0.0202618888123425,0.006695,0.000482,0.002076,0.301665,0.061739,324.658381,24.358485,0.999279,0.988189,0.004449,0.376043,-0.000014,-0.000027,-0.000012,-0.000007,-0.000034,-31.792778,0.000044,
2101,2098,-3.33263090274269,-11.9480466642349,0.0224572952954532,0.006452,0.000038,0.002557,0.288538,0.024881,330.444416,24.604715,0.999388,0.957805,0.008006,0.096002,0.000002,-0.000009,0.000001,0.000003,-0.000009,6.501162,0.000009,
2161,2263,-2.05314265890739,-8.3351189289976,-0.00480364616117868,0.006533,-0.000120,0.003282,0.289798,0.011037,327.321521,24.183166,0.998712,0.980605,0.005487,0.285795,-0.000013,-0.000021,-0.000020,0.000003,-0.000037,-39.284800,0.000041,
2116,2158,-3.01547674982687,-10.6343374121177,0.00169251266555648,0.007110,0.000211,-0.001572,0.330951,0.021117,329.284027,24.274542,0.998903,0.984257,0.005187,0.358887,-0.000008,-0.000022,-0.000005,-0.000006,-0.000024,-17.750192,0.000032,
2056,2173,-4.32546775912646,-10.3054523827963,0.00502513762830858,0.006834,-0.000370,0.004384,0.301315,-0.002297,329.338344,24.637315,0.999132,0.988865,0.004483,0.294101,-0.000017,-0.000038,-0.000011,-0.000013,-0.000042,-22.701970,0.000058,
2296,2953,0.764923670198776,6.71143759360823,-0.00597730240446026,0.007037,0.000807,-0.002574,0.332968,0.061897,315.854174,24.967491,0.998947,0.989216,0.004216,0.372376,-0.000012,0.000009,-0.000005,0.000010,-0.000013,-78.280639,0.000014,
2101,2323,-3.36786905939735,-7.02454067891647,0.00225522949557444,0.007117,0.000929,-0.005684,0.343805,0.023146,326.715079,24.397276,0.999241,0.986741,0.004726,0.359484,-0.000006,-0.000028,-0.000007,-0.000004,-0.000030,-15.853097,0.000037,
2161,2323,-2.06214506464097,-7.02435200743264,-0.00322045110419822,0.006662,0.000617,-0.005919,0.324184,0.006661,326.402735,24.129504,0.999042,0.984328,0.004957,0.383676,-0.000007,-0.000039,-0.000024,0.000006,-0.000052,-28.232049,0.000057,
2236,2638,-0.483903353016277,-0.145885765929599,-0.0198191875811062,0.007425,0.000549,-0.000494,0.343120,0.034622,320.972807,24.312985,0.999109,0.986940,0.004557,0.413474,-0.000003,0.000012,-0.000007,0.000015,-0.000006,-67.263620,0.000015,
2416,3178,3.33172959626519,11.6029168078308,0.0274407801964571,0.006548,0.000503,0.000506,0.299798,0.047668,312.428006,25.871404,0.999660,0.992953,0.003321,0.441602,0.000003,0.000021,-0.000002,0.000021,0.000003,-82.775243,0.000026,
2356,2788,2.09875184729307,3.12707791187886,-0.0217158744285371,0.006675,0.000893,-0.001263,0.311625,0.065394,318.362470,24.654554,0.999676,0.993519,0.003414,0.407474,-0.000014,0.000001,-0.000009,0.000005,-0.000018,-66.019184,0.000018,
2281,2908,0.44522333655809,5.73281878392362,-0.0166737411758504,0.006364,0.000335,0.003865,0.280113,0.056377,316.464367,24.810395,0.999627,0.993108,0.003358,0.406326,-0.000013,0.000003,0.000003,0.000004,-0.000014,81.342041,0.000014,
2461,2053,4.5374427121103,-12.9457998705365,0.0301579010190949,0.006614,0.000649,-0.001389,0.307850,0.023717,330.834932,22.060152,0.999293,0.980731,0.005428,0.292102,0.000018,-0.000036,0.000006,0.000019,-0.000037,5.898008,0.000037,
2506,2413,5.44420889927682,-5.05395510764588,-0.000593449525126744,0.006382,0.000329,-0.001623,0.298657,0.003271,324.867627,23.181376,0.999037,0.984236,0.005062,0.382302,0.000030,0.000006,-0.000006,0.000032,0.000004,-13.631427,0.000039,
2086,2128,-3.66497016894639,-11.2904209501802,0.00355195804633013,0.006779,0.000059,0.000974,0.308300,0.023667,329.897977,24.503336,0.998954,0.984997,0.005063,0.290794,0.000001,-0.000025,0.000012,0.000006,-0.000030,21.444439,0.000032,
2266,2773,0.143380050032619,2.79623190650837,-0.0249390334037116,0.006730,0.000175,0.002289,0.302080,0.046783,318.638316,24.552333,0.999328,0.987753,0.004189,0.397496,-0.000008,0.000003,-0.000012,0.000011,-0.000016,-57.482241,0.000016,
2086,2248,-3.68395157767614,-8.66465546392372,0.00197729465884322,0.006599,-0.000279,0.004282,0.290593,0.016153,327.939737,24.426630,0.998819,0.985567,0.004830,0.374166,-0.000013,0.000019,0.000001,0.000019,-0.000013,88.045326,0.000020,
2161,2548,-2.10135655846716,-2.11030234309094,-0.020272537339622,0.006428,-0.000129,0.003756,0.284007,0.025497,322.585508,24.273997,0.999281,0.987044,0.004325,0.431482,-0.000006,0.000001,-0.000005,0.000004,-0.000008,-61.662376,0.000008,
2146,2503,-2.42009918175845,-3.09183200888992,-0.0236935156596587,0.006542,0.000019,0.000045,0.300622,0.009108,323.357647,24.280490,0.999105,0.985702,0.004775,0.405891,-0.000008,-0.000002,-0.000018,0.000013,-0.000023,-49.373041,0.000023,
2326,2728,1.45658502526945,1.81930557799677,-0.0274441113228363,0.006613,0.000234,0.000402,0.302623,0.029067,319.287664,24.494204,0.999431,0.989075,0.004106,0.370870,-0.000011,0.000007,-0.000009,0.000011,-0.000014,-67.780694,0.000015,
2116,2368,-3.04945019846335,-6.04074866893004,-0.00282328624683714,0.006865,0.000192,0.000661,0.313532,0.028434,325.848894,24.340851,0.999132,0.984990,0.004850,0.380769,-0.000016,-0.000008,-0.000012,0.000001,-0.000025,-54.419615,0.000028,
2401,3073,3.02477948949621,9.32387848662436,0.0112843843767791,0.006513,0.000349,0.002458,0.290908,0.043973,313.987944,25.540107,0.999627,0.991735,0.003680,0.389335,-0.000010,0.000020,-0.000011,0.000023,-0.000013,-71.894804,0.000023,
2491,2323,5.13543769727793,-7.02337049387925,0.00758342521919531,0.006733,-0.000638,0.008210,0.276568,0.045589,326.327861,22.916944,0.998683,0.981282,0.005395,0.369817,0.000002,0.000037,0.000016,0.000043,-0.000005,68.678964,0.000047,
2311,2548,1.16440789678387,-2.10699468137469,-0.013914707619449,0.006999,-0.000046,0.004853,0.304828,0.046360,322.336083,24.027875,0.999265,0.986013,0.004620,0.458399,-0.000005,-0.000010,-0.000008,0.000000,-0.000016,-36.109792,0.000018,
2071,2218,-4.00512137922908,-9.32042340070163,0.00974234154341502,0.006783,0.000752,0.000878,0.309206,0.072842,328.581072,24.561286,0.998244,0.982867,0.005218,0.364722,-0.000004,0.000025,0.000012,0.000029,-0.000009,69.982897,0.000030,
2221,2833,-0.845036404457648,4.09751167206984,-0.0111811332068896,0.006270,-0.000289,0.004602,0.273758,0.027579,317.842648,24.554085,0.999437,0.990862,0.003821,0.424229,-0.000008,0.000017,0.000004,0.000018,-0.000008,81.781528,0.000018,
2476,2233,4.82679908236024,-8.99640867731935,0.017452081155966,0.005869,-0.000104,0.000507,0.266600,0.022311,327.817241,22.596301,0.999061,0.982355,0.005510,0.371587,0.000005,-0.000032,0.000008,0.000007,-0.000034,12.537319,0.000036,
2446,2023,4.21550082023329,-13.6047947073656,0.0309066425785431,0.006793,0.000053,-0.000004,0.310555,0.008159,331.294881,22.034276,0.999313,0.979239,0.005412,0.288852,0.000009,-0.000044,-0.000001,0.000009,-0.000044,-1.592213,0.000046,
2071,2053,-3.97898265479519,-12.9354198067733,0.0162532354335667,0.007052,0.001197,-0.005681,0.340004,0.038970,331.314399,24.557481,0.998390,0.978203,0.005816,0.336093,0.000025,-0.000072,0.000002,0.000025,-0.000072,1.317390,0.000073,
2371,2923,2.3996633260461,6.0636959010701,-0.00994816308559621,0.006425,0.000178,0.003042,0.284778,0.041787,316.236574,25.020537,0.999362,0.990332,0.003939,0.396397,-0.000020,0.000001,-0.000006,0.000003,-0.000022,-74.838979,0.000024,
2341,2728,1.78293299884038,1.82013656165316,-0.0262303713766414,0.006677,-0.000144,0.003528,0.294497,0.025001,319.284972,24.527426,0.999295,0.988892,0.004183,0.335844,-0.000014,0.000008,-0.000007,0.000010,-0.000016,-74.662367,0.000016,
2461,2068,4.53500087385718,-12.6172819692973,0.0345624015234307,0.006751,0.000936,-0.002482,0.318331,0.037071,330.640480,22.072130,0.999266,0.980729,0.005443,0.350934,0.000014,-0.000031,0.000004,0.000015,-0.000031,5.393176,0.000031,
2176,2338,-1.73914573189891,-6.694972568881,-0.00719947927922249,0.006245,0.000125,0.001994,0.280614,0.034996,326.032418,24.149166,0.999107,0.985713,0.004778,0.349955,-0.000014,-0.000030,-0.000022,0.000002,-0.000045,-35.081227,0.000051,
2176,2623,-1.78736772164791,-0.474304125796394,-0.0261473463160655,0.006792,0.000190,-0.001044,0.315642,0.014803,321.301079,24.345907,0.999398,0.988889,0.004190,0.390448,-0.000014,-0.000002,-0.000009,0.000003,-0.000019,-61.256045,0.000020,
2206,2548,-1.12138325726216,-2.10871541149852,-0.0180617873235178,0.006922,0.000295,-0.000905,0.321097,0.026907,322.497998,24.263454,0.999597,0.990892,0.003827,0.371789,-0.000001,-0.000007,-0.000002,0.000000,-0.000008,-15.662919,0.000009,
2101,2113,-3.33450007698427,-11.6228255936776,0.0290108298887048,0.006438,0.000037,0.002018,0.289497,0.009074,330.260805,24.379569,0.999124,0.978603,0.005734,0.309418,0.000003,-0.000013,0.000006,0.000004,-0.000015,17.859502,0.000016,
2176,2458,-1.75869642405609,-4.07464041997439,-0.00879567082017729,0.006684,0.000145,-0.000031,0.307249,0.015949,324.108616,24.182156,0.999133,0.986493,0.004786,0.409059,-0.000021,-0.000015,-0.000022,0.000004,-0.000040,-49.056379,0.000044,
2296,3193,0.722824882964954,11.9181745237078,0.0298703946153296,0.006632,0.000379,0.000999,0.302435,0.047739,312.200098,25.399882,0.999722,0.993305,0.003271,0.390084,-0.000006,0.000005,-0.000009,0.000010,-0.000011,-59.688597,0.000013,
2416,3193,3.32944136993465,11.9282524640148,0.0338882836193761,0.006850,0.000411,0.002460,0.306490,0.049005,312.242682,25.941901,0.999663,0.992024,0.003380,0.418851,0.000003,0.000025,-0.000003,0.000025,0.000003,-82.038499,0.000031,
2251,2968,-0.215933400779591,7.0341431860395,-0.00283136313987598,0.006486,0.000683,-0.000407,0.300312,0.052671,315.671575,24.888407,0.999490,0.993189,0.003530,0.357414,-0.000013,0.000016,-0.000011,0.000020,-0.000017,-72.085607,0.000021,
2191,2488,-1.43838569019308,-3.41759499591035,-0.0253511387371077,0.006324,0.000785,-0.005495,0.308056,0.042418,323.438268,24.181927,0.999073,0.982670,0.005293,0.430669,-0.000016,-0.000002,-0.000012,0.000005,-0.000024,-60.018011,0.000025,
2131,2203,-2.6963199804696,-9.65002610043135,0.00769385324127825,0.006458,-0.000267,0.003230,0.286652,0.009305,328.503237,24.221908,0.998660,0.979871,0.005459,0.343757,-0.000002,0.000005,0.000004,0.000007,-0.000004,66.894387,0.000007,
2056,2188,-4.32760317807827,-9.97721013737379,0.0074652895999634,0.006702,0.000435,0.002844,0.299873,0.044883,329.116085,24.606136,0.998986,0.985036,0.004992,0.369452,-0.000022,0.000001,-0.000001,0.000001,-0.000023,-86.846053,0.000025,
2236,2713,-0.498527697851227,1.48825207540202,-0.0255956064269185,0.006561,0.000029,0.002191,0.294649,0.018206,319.658530,24.426150,0.999288,0.990257,0.003809,0.391754,-0.000006,0.000003,-0.000008,0.000007,-0.000010,-59.246616,0.000011,
2221,2653,-0.813895422784082,0.180525858091563,-0.0292745279282371,0.007070,0.000238,0.000513,0.323511,0.013095,320.665997,24.293341,0.999318,0.988694,0.004344,0.442037,0.000000,0.000009,0.000002,0.000009,0.000000,79.048100,0.000010,
2236,2893,-0.528574950728942,5.40240746596791,0.000639103624564541,0.006401,0.000074,0.003185,0.284441,0.042378,316.939561,24.684486,0.999707,0.992314,0.003533,0.409724,-0.000015,0.000014,0.000002,0.000014,-0.000015,85.707365,0.000017,
2356,2803,2.09634433525065,3.4526801048546,-0.0149814466208795,0.006605,0.000713,-0.001077,0.307693,0.055097,318.170906,24.670649,0.999818,0.995036,0.003214,0.419841,-0.000012,0.000004,-0.000007,0.000006,-0.000014,-68.612163,0.000014,
2266,3043,0.0976802804008479,8.66210597955882,0.0087551264718968,0.006822,0.000316,-0.002011,0.320992,0.027627,314.538204,24.987707,0.999580,0.992167,0.003551,0.395075,-0.000011,0.000012,-0.000016,0.000021,-0.000019,-62.459979,0.000023,
2101,2338,-3.37100571975177,-6.69736003777105,0.00218967006770754,0.006735,0.000027,0.000485,0.308004,0.004103,326.437669,24.361771,0.999231,0.988258,0.004512,0.379408,-0.000016,-0.000023,-0.000006,-0.000012,-0.000026,-29.034324,0.000040,
2041,3283,-4.82068265356457,13.8446761808237,0.0321379833115429,0.006630,0.000220,0.001549,0.302151,0.044630,311.662189,24.084528,0.999586,0.994519,0.002992,0.438291,-0.000059,0.000033,-0.000016,0.000035,-0.000062,-80.471618,0.000062,
2266,2818,0.136026818418717,3.77501881407532,-0.0201380769328239,0.006898,0.000658,-0.000471,0.319169,0.042934,317.963329,24.633604,0.999362,0.989986,0.004098,0.388965,-0.000004,0.000010,-0.000001,0.000010,-0.000004,-85.429408,0.000010,
2296,2968,0.762327318357702,7.03672351039948,-0.00638928789015836,0.007189,0.000384,-0.002991,0.341210,0.035106,315.614572,24.961555,0.999310,0.991551,0.003684,0.380690,-0.000015,0.000013,-0.000006,0.000014,-0.000016,-77.667069,0.000018,
2191,2698,-1.47363500576679,1.15801314350215,-0.018050080066871,0.006527,0.000406,-0.000905,0.303247,0.024938,320.092642,24.296881,0.999700,0.994358,0.003219,0.511650,-0.000013,0.000004,-0.000007,0.000007,-0.000016,-69.484807,0.000016,
2476,2248,4.82434265583764,-8.668968934765,0.0183305857025857,0.006314,0.000092,-0.000422,0.290598,0.009960,327.606667,22.560633,0.999138,0.982638,0.005244,0.453839,0.000010,-0.000025,0.000005,0.000011,-0.000026,7.243571,0.000026,
2281,3133,0.406763365380563,10.6157975466505,0.0173576220197447,0.006272,0.000399,0.003055,0.278899,0.045059,313.073371,25.174950,0.999656,0.994498,0.003285,0.434974,-0.000015,0.000005,-0.000014,0.000012,-0.000022,-63.414839,0.000022,
2221,2848,-0.847727883854013,4.4246391390255,-0.0184914649997268,0.006592,-0.000010,0.002923,0.294115,0.038421,317.557289,24.593195,0.999367,0.991100,0.003720,0.414751,-0.000006,0.000013,0.000008,0.000016,-0.000008,70.097132,0.000016,
2251,2818,-0.19006735646445,3.77324012861503,-0.0156865883093928,0.006633,0.000275,0.000609,0.303292,0.032642,318.011897,24.568773,0.999562,0.990758,0.004079,0.427596,-0.000003,0.000013,-0.000003,0.000013,-0.000004,-79.585493,0.000014,
2086,2263,-3.68590427366157,-8.33718352747724,0.00261312876642705,0.006725,0.000034,0.001168,0.305469,0.007017,327.718879,24.388921,0.998971,0.984650,0.004854,0.403706,-0.000018,0.000014,0.000006,0.000015,-0.000019,80.439109,0.000020,
2266,2788,0.141211951925673,3.1224017572353,-0.0237792025703243,0.006987,0.000426,-0.000184,0.322204,0.052973,318.424140,24.555818,0.999287,0.988310,0.004268,0.425944,-0.000006,0.000000,-0.000008,0.000006,-0.000011,-54.189867,0.000011,
2311,2563,1.16156162088288,-1.77983947223528,-0.0129089609909556,0.006682,-0.000056,0.002782,0.297323,0.021781,322.093836,24.083360,0.999193,0.987463,0.004480,0.411239,-0.000008,0.000003,-0.000007,0.000007,-0.000011,-63.770482,0.000012,
2506,2428,5.44194326141452,-4.72626907980711,0.00303201113337082,0.006771,0.000433,-0.003408,0.323448,0.008644,324.679425,23.238256,0.998899,0.982355,0.005379,0.393257,0.000032,0.000014,0.000009,0.000036,0.000010,23.352809,0.000049,
2116,2383,-3.05207928315265,-5.71318701551792,-0.00962455602251566,0.006815,0.000509,-0.003156,0.322627,0.018773,325.559702,24.281611,0.999215,0.985501,0.004723,0.435799,-0.000016,-0.000009,-0.000011,-0.000001,-0.000025,-53.301383,0.000029,
2446,2038,4.21237520363229,-13.2750138881435,0.0333286693405626,0.006545,0.000785,0.000830,0.296442,0.060729,331.058692,22.089538,0.999269,0.978974,0.005531,0.342165,0.000010,-0.000036,-0.000008,0.000011,-0.000037,-9.768917,0.000038,
2146,2278,-2.38177163797312,-8.00855997124964,-0.00122925960948805,0.006812,-0.000015,0.002152,0.306195,0.029374,327.181830,24.134133,0.998562,0.982315,0.005431,0.428795,-0.000011,-0.000018,-0.000017,0.000002,-0.000031,-38.801645,0.000035,
2176,2638,-1.78966674171142,-0.14793210394047,-0.0251342411306155,0.007030,-0.000038,0.000206,0.322697,0.016143,321.073614,24.325548,0.999570,0.990363,0.003966,0.425142,-0.000013,0.000001,-0.000009,0.000006,-0.000017,-62.983691,0.000018,
2206,2758,-1.15829476310438,2.46664259765557,-0.0222254952359435,0.006489,0.000398,0.000641,0.296742,0.046008,319.031993,24.484340,0.999482,0.990191,0.003938,0.411245,-0.000014,-0.000002,-0.000020,0.000013,-0.000028,-53.336645,0.000028,
2416,3208,3.32631160714169,12.2533068100115,0.0360152572693551,0.006582,0.000207,0.003505,0.290250,0.036546,311.998329,25.978221,0.999567,0.991603,0.003613,0.416359,0.000005,0.000019,-0.000004,0.000020,0.000004,-73.343125,0.000026,
2491,2338,5.13219063730993,-6.69407146941908,0.00587172764727484,0.006374,0.000139,0.004062,0.276351,0.042079,326.069854,23.048595,0.998936,0.985545,0.005256,0.295650,0.000001,0.000053,0.000017,0.000058,-0.000004,72.990795,0.000065,
2386,2878,2.73454597796026,5.08694888443198,-0.0160843957576162,0.006647,0.000368,0.000336,0.304577,0.044723,316.947135,24.970864,0.999460,0.991744,0.003721,0.351656,-0.000022,0.000007,-0.000007,0.000008,-0.000024,-77.551889,0.000024,
2296,2683,0.812401529567257,0.836266002555725,-0.0183508451249281,0.006465,-0.000149,0.002990,0.286985,0.024663,320.102586,24.334021,0.999618,0.990220,0.003893,0.430736,-0.000003,0.000028,-0.000010,0.000031,-0.000007,-73.046366,0.000033,
2101,2128,-3.3370572164276,-11.2940681252486,0.0225052969411195,0.006584,-0.000209,0.001280,0.298269,-0.014964,329.974955,24.348329,0.998997,0.987282,0.004929,0.321097,0.000000,-0.000020,0.000007,0.000002,-0.000022,17.516367,0.000024,
2296,3208,0.719675865122237,12.2434932476246,0.0263390858036132,0.006458,0.000538,0.000365,0.296627,0.044231,311.918883,25.417456,0.999790,0.994222,0.003052,0.397412,-0.000006,0.000004,-0.000006,0.000007,-0.000009,-64.508648,0.000009,
2146,2518,-2.42287365747592,-2.76402322588264,-0.0286720978688777,0.006706,-0.000247,0.002268,0.301355,0.001577,323.074143,24.308692,0.999158,0.986593,0.004603,0.379333,-0.000003,-0.000006,-0.000009,0.000005,-0.000014,-40.162725,0.000015,
2461,2083,4.53124529314802,-12.2869384409718,0.0269189360648738,0.006669,0.000738,-0.002532,0.314717,0.036458,330.330874,22.136801,0.999238,0.979490,0.005626,0.343726,0.000008,-0.000030,0.000007,0.000009,-0.000032,9.644215,0.000032,
2056,2203,-4.33008579980305,-9.64818474022861,0.0022588346450334,0.006685,0.000361,0.000981,0.304343,0.047680,328.836082,24.615616,0.998676,0.981021,0.005477,0.360531,-0.000016,0.000013,0.000005,0.000013,-0.000017,80.457305,0.000018,
2266,3058,0.094618898970996,8.98758295112972,0.0116286692072549,0.006488,0.000172,0.001170,0.295049,0.026988,314.291278,25.017932,0.999549,0.992560,0.003508,0.388842,-0.000008,0.000008,-0.000017,0.000018,-0.000019,-58.121017,0.000021,
2116,2173,-3.01789275781411,-10.306842149559,0.0120862168116673,0.006529,-0.000249,0.000572,0.297818,0.004579,329.096678,24.319368,0.998770,0.984529,0.005207,0.303570,-0.000010,-0.000016,0.000001,-0.000010,-0.000016,13.013004,0.000026,
2371,2938,2.39702165992131,6.38943241807441,-0.00423872301615802,0.006395,0.000034,0.005400,0.274968,0.043868,316.029715,25.063378,0.999350,0.989580,0.003997,0.396119,-0.000012,0.000001,-0.000007,0.000004,-0.000015,-66.408951,0.000016,
2206,2563,-1.12413968319254,-1.78233417009262,-0.013385397274476,0.006617,0.000145,0.002110,0.297527,0.032415,322.270816,24.248947,0.999591,0.991699,0.003711,0.409274,-0.000002,-0.000001,-0.000005,0.000003,-0.000007,-46.328150,0.000007,
2506,2443,5.43809925794109,-4.39828998974456,0.00246643817229142,0.006367,-0.000029,-0.000161,0.292250,0.005501,324.399934,23.295972,0.999088,0.982914,0.005165,0.395149,0.000042,-0.000035,0.000017,0.000045,-0.000038,11.877506,0.000049,
2401,3088,3.02235907142184,9.64936557345925,0.0173599936609321,0.006621,0.000206,0.003547,0.291963,0.052274,313.794299,25.592000,0.999539,0.991248,0.003756,0.390179,-0.000007,0.000019,-0.000014,0.000025,-0.000013,-66.745395,0.000025,
2176,2473,-1.76194102417623,-3.74643783083341,-0.0120804974155817,0.006320,-0.000132,0.002097,0.283885,0.018901,323.815119,24.235542,0.999282,0.984662,0.005047,0.372339,-0.000020,-0.000013,-0.000013,-0.000004,-0.000030,-52.740968,0.000037,
2191,2713,-1.47726487877213,1.48698073039759,-0.0318096446706591,0.006487,0.000106,0.000280,0.297668,0.029901,319.727693,24.413872,0.999289,0.990491,0.003900,0.414757,-0.000014,0.000001,-0.000008,0.000005,-0.000018,-66.683388,0.000018,
2131,2218,-2.69880508899524,-9.3209558800025,0.00578443455049182,0.006360,0.000411,0.001093,0.288786,0.033809,328.247752,24.255178,0.998418,0.978676,0.005606,0.343483,-0.000005,0.000012,-0.000001,0.000012,-0.000005,-85.371650,0.000012,
2161,2563,-2.10310963493452,-1.78327734923687,-0.0141214578716813,0.006601,0.000324,0.001503,0.299044,0.045424,322.408779,24.316248,0.999177,0.986836,0.004409,0.420103,-0.000004,0.000005,-0.000008,0.000010,-0.000009,-60.062671,0.000011,
2326,2743,1.45397114105837,2.14553247597411,-0.0215099244394423,0.006502,0.000319,0.002547,0.290211,0.049483,319.080835,24.514758,0.999626,0.990446,0.003870,0.405282,-0.000012,0.000006,-0.000010,0.000010,-0.000017,-66.485865,0.000017,
2311,3043,1.07497844794317,8.66531147506727,0.0140981311599262,0.006605,0.000112,0.002050,0.297140,0.027885,314.503145,25.163072,0.999625,0.991788,0.003576,0.366914,-0.000014,0.000017,-0.000011,0.000021,-0.000018,-71.918055,0.000023,
2476,2263,4.82161261459893,-8.33899177586505,0.0142686936915197,0.006746,0.000565,-0.003403,0.321881,0.016977,327.360773,22.692361,0.998926,0.980719,0.005289,0.388294,0.000014,-0.000015,-0.000002,0.000014,-0.000015,-4.095760,0.000017,
2326,2878,1.42974157850475,5.08175292288369,-0.0117884641641695,0.006655,-0.000114,0.002240,0.298341,0.023052,316.971917,24.767386,0.999511,0.991334,0.003799,0.435053,-0.000016,0.000004,-0.000003,0.000004,-0.000016,-81.150330,0.000017,
2281,2923,0.443110358910982,6.05819681073014,-0.0140030618451874,0.006632,0.000047,0.001882,0.298976,0.030582,316.261349,24.821676,0.999537,0.992708,0.003564,0.396318,-0.000011,0.000008,0.000000,0.000008,-0.000011,89.343041,0.000011,
2281,3148,0.404451115643965,10.9406717632543,0.0267483551420469,0.006077,0.000208,0.004009,0.266722,0.044378,312.894509,25.211374,0.999501,0.993402,0.003674,0.424256,-0.000013,0.000006,-0.000011,0.000011,-0.000018,-65.169482,0.000018,
2221,2668,-0.816765584983308,0.506968875474897,-0.0204689045129385,0.006546,-0.000263,0.005609,0.282982,0.027286,320.455598,24.341677,0.999499,0.992692,0.003729,0.426907,-0.000001,0.000013,-0.000002,0.000014,-0.000001,-81.294342,0.000015,
2146,2533,-2.42455286564395,-2.43743434450926,-0.0198294839140658,0.006827,0.000270,0.001203,0.310368,0.042390,322.914101,24.305859,0.999365,0.987533,0.004292,0.431485,-0.000006,-0.000006,-0.000006,0.000000,-0.000012,-43.830450,0.000014,
2146,2293,-2.38412283823664,-7.68042706654567,-0.000866191638749569,0.006575,0.000099,-0.002380,0.309098,-0.001231,326.946180,24.187089,0.998454,0.984484,0.005166,0.355220,-0.000009,-0.000017,-0.000012,0.000000,-0.000025,-35.488583,0.000030,
2071,2233,-4.00767822387082,-8.9920212691944,0.00670119163288518,0.006770,0.000306,0.001888,0.305620,0.049972,328.311190,24.573193,0.998812,0.985855,0.004769,0.329373,-0.000009,0.000024,0.000008,0.000026,-0.000011,76.612259,0.000026,
2386,2893,2.73180115614096,5.41306389252657,-0.0176355626186933,0.006604,0.001098,-0.003653,0.317250,0.072110,316.701949,24.959550,0.999441,0.992378,0.003696,0.433495,-0.000023,0.000000,-0.000006,0.000002,-0.000024,-76.542316,0.000027,
2221,2863,-0.85044337488161,4.75114598276085,-0.0207493862345132,0.006505,0.000225,0.000802,0.296979,0.031334,317.296950,24.635951,0.999368,0.991774,0.003592,0.383584,-0.000007,0.000016,0.000004,0.000017,-0.000008,80.887103,0.000017,
2296,2983,0.759855956389725,7.36243931611974,0.00247756846329139,0.006970,0.000445,-0.000865,0.323958,0.041275,315.426585,25.030043,0.999170,0.989064,0.004072,0.347627,-0.000012,0.000012,-0.000007,0.000014,-0.000014,-74.597409,0.000016,
2506,2458,5.43450635557058,-4.06925806321516,-0.00602189996135394,0.006589,0.000197,-0.000432,0.303613,0.032135,324.096307,23.351682,0.999235,0.985561,0.004699,0.428979,0.000046,-0.000014,0.000014,0.000049,-0.000017,12.293103,0.000049,
2491,2353,5.12978411028824,-6.36673858606862,0.00496337982184514,0.006592,0.000929,-0.002221,0.310752,0.057755,325.854116,22.994091,0.998787,0.985454,0.005432,0.426586,0.000016,0.000066,0.000018,0.000071,0.000010,72.125402,0.000089,
2251,2983,-0.218319016999441,7.35914609389057,0.00456237894735523,0.006512,0.000293,0.003298,0.289251,0.053804,315.477933,24.885234,0.999526,0.992438,0.003642,0.384309,-0.000008,0.000015,-0.000011,0.000020,-0.000012,-67.998170,0.000020,
2446,2053,4.20930514926929,-12.9458588567118,0.0301615236394923,0.006526,0.001078,-0.001759,0.305376,0.052804,330.799728,22.090909,0.999156,0.979432,0.005528,0.388463,0.000012,-0.000040,-0.000002,0.000012,-0.000040,-2.613675,0.000041,
2311,2803,1.11642365499712,3.45043806887367,-0.0179475385629075,0.006226,0.000041,0.003958,0.272833,0.045375,318.125892,24.619426,0.999472,0.991983,0.003738,0.420805,-0.000007,-0.000002,-0.000001,-0.000002,-0.000007,-74.459187,0.000010,
2356,2818,2.09344167695231,3.77873892904684,-0.0134556598457038,0.006582,0.000454,0.000921,0.299513,0.036090,317.931330,24.701254,0.999688,0.992604,0.003560,0.408972,-0.000012,0.000009,-0.000005,0.000011,-0.000013,-77.234295,0.000014,
2116,2398,-3.05461091704291,-5.38555660713618,-0.00749606941445791,0.006647,0.000347,-0.001482,0.309930,0.020349,325.322743,24.308756,0.999026,0.986036,0.004697,0.415249,-0.000017,-0.000012,-0.000013,-0.000001,-0.000028,-50.282954,0.000033,
2236,2908,-0.531355753086324,5.72918889617192,-0.00430183303541298,0.006445,0.000160,0.000723,0.294550,0.050918,316.663550,24.729877,0.999679,0.992659,0.003546,0.393900,-0.000015,0.000013,0.000001,0.000013,-0.000015,88.029460,0.000017,
2326,3118,1.38746533745362,10.2939736228255,0.0226785685921982,0.006585,0.000344,0.002260,0.295604,0.040714,313.336568,25.366057,0.999497,0.992859,0.003465,0.393122,-0.000003,0.000012,-0.000013,0.000020,-0.000010,-60.089289,0.000020,
2311,3283,1.02978267451274,13.871586032264,0.00698812646641045,0.006457,0.000457,0.001796,0.291763,0.052890,310.506214,25.623828,0.999607,0.994346,0.002932,0.427137,-0.000006,-0.000004,-0.000006,0.000002,-0.000012,-49.740870,0.000012,
2161,2338,-2.06518398169641,-6.6954111223429,-0.00625888857956625,0.006613,0.000437,-0.001276,0.307716,0.044393,326.118499,24.170502,0.999442,0.988234,0.004270,0.392719,-0.000014,-0.000030,-0.000020,-0.000001,-0.000043,-34.135898,0.000051,
2341,2743,1.78061066468895,2.14553639831701,-0.0189754936921531,0.006640,-0.000098,0.003884,0.291599,0.036856,319.099113,24.491143,0.999508,0.990291,0.003915,0.420781,-0.000016,0.000008,-0.000007,0.000010,-0.000018,-74.324595,0.000018,
2086,2278,-3.68810671104745,-8.00733919294979,-0.00451829717707142,0.007018,0.000573,-0.003334,0.332119,0.021852,327.443899,24.470467,0.999309,0.988610,0.004398,0.338474,-0.000010,0.000003,0.000010,0.000008,-0.000015,62.342822,0.000015,
2461,2098,4.52780825219129,-11.9567031365904,0.0229246408536596,0.006744,0.000387,-0.000918,0.311987,0.014086,330.052506,22.259849,0.999584,0.980523,0.005403,0.256088,0.000000,-0.000034,-0.000006,0.000001,-0.000035,-9.594613,0.000040,
2311,2578,1.15775158252564,-1.45044774344233,-0.0271953960689757,0.006475,0.000333,-0.000321,0.298583,0.020344,321.731588,24.192008,0.999505,0.991282,0.003812,0.334654,-0.000004,0.000010,-0.000007,0.000013,-0.000007,-67.837833,0.000013,
2041,3298,-4.82301718587229,14.1700368168523,0.0286674956623756,0.006798,0.000478,0.000082,0.314056,0.046165,311.399163,24.119679,0.999554,0.995090,0.003050,0.395587,-0.000070,0.000028,-0.000010,0.000029,-0.000071,-84.348267,0.000071,
2131,2443,-2.73575970744356,-4.40227594861641,-0.0160774045769472,0.006901,0.000589,-0.000915,0.320079,0.034943,324.470468,24.244486,0.999276,0.988084,0.004552,0.470127,-0.000017,-0.000026,-0.000016,-0.000005,-0.000038,-37.968560,0.000047,
2341,2038,1.91530274719333,-13.2712382441356,0.0148243927754947,0.006468,-0.000006,0.000717,0.293497,0.000334,330.794200,22.746194,0.998932,0.980710,0.005560,0.325214,-0.000008,-0.000032,0.000004,-0.000007,-0.000033,10.172846,0.000043,
2191,2503,-1.44023386793818,-3.09116614410887,-0.0170712733400364,0.006658,0.000465,-0.002373,0.313564,0.027615,323.270481,24.206993,0.999271,0.985825,0.004772,0.406272,-0.000009,0.000000,-0.000010,0.000006,-0.000015,-57.609872,0.000015,
2206,2773,-1.16056964268276,2.79314898935505,-0.0206578925543113,0.006615,0.000207,-0.000486,0.306080,0.033834,318.810593,24.534692,0.999439,0.990108,0.004054,0.365387,-0.000013,0.000002,-0.000015,0.000011,-0.000022,-58.234311,0.000022,
2296,3223,0.716824182742471,12.5677019886874,0.026609628186236,0.006428,0.000340,0.001457,0.291418,0.029731,311.670624,25.369637,0.999853,0.995145,0.002852,0.459381,-0.000007,0.000007,-0.000008,0.000011,-0.000010,-65.610161,0.000013,
2416,3223,3.3228236078517,12.578893891368,0.0301774480702761,0.006198,0.000208,-0.000412,0.286983,0.031271,311.699809,26.014460,0.999510,0.991491,0.003656,0.421184,0.000005,0.000015,-0.000001,0.000015,0.000005,-82.252935,0.000021,
2326,2893,1.42682538918993,5.40862135834299,-0.0143671407208217,0.006537,0.000241,-0.000332,0.301982,0.034178,316.708959,24.833066,0.999232,0.990933,0.003901,0.414586,-0.000018,-0.000002,-0.000002,-0.000002,-0.000019,-83.766517,0.000023,
2236,2728,-0.500786912377734,1.81514597080677,-0.0232777681215453,0.006683,0.000478,0.000942,0.304551,0.046103,319.443725,24.465755,0.999239,0.989584,0.004005,0.401442,-0.000006,-0.000003,-0.000013,0.000008,-0.000018,-48.400675,0.000018,
2176,2653,-1.7931327122402,0.18056473041328,-0.0371753724331256,0.006798,0.000426,-0.001416,0.317248,0.024427,320.723780,24.388377,0.999588,0.990007,0.004053,0.383735,-0.000013,0.000006,-0.000009,0.000009,-0.000017,-67.746239,0.000017,
2311,3058,1.07217228391517,8.99041883948671,0.0137074872430958,0.006494,0.000078,0.000571,0.297097,0.022972,314.254895,25.142598,0.999724,0.993347,0.003298,0.413902,-0.000013,0.000016,-0.000010,0.000019,-0.000016,-72.138210,0.000020,
2101,2143,-3.34004613521538,-10.9641468730652,0.0141773579779851,0.006592,-0.000242,0.003219,0.293022,-0.003207,329.659177,24.374284,0.998772,0.983181,0.005362,0.311613,-0.000007,-0.000022,-0.000001,-0.000007,-0.000022,-2.894707,0.000030,
2326,2758,1.45070112615246,2.47221840817176,-0.0250269367190867,0.006373,0.000256,0.003664,0.280467,0.059754,318.797538,24.516711,0.999624,0.991812,0.003736,0.448401,-0.000014,0.000007,-0.000008,0.000010,-0.000017,-72.311070,0.000017,
2176,2488,-1.76488093926277,-3.41881239102059,-0.0146990254789898,0.005933,0.000125,0.000110,0.272366,0.031175,323.539128,24.238190,0.999082,0.984418,0.005074,0.395803,-0.000021,-0.000001,-0.000016,0.000007,-0.000030,-61.586327,0.000031,
2116,2188,-3.02065906504881,-9.9770831952516,0.00317307348331042,0.006509,0.000692,-0.002511,0.306358,0.025739,328.789442,24.333707,0.998750,0.982495,0.005300,0.316887,-0.000013,0.000000,0.000003,0.000001,-0.000014,77.190037,0.000015,
2401,3103,3.01980359062285,9.97454260128618,0.0211349108803915,0.006443,0.000523,0.000461,0.295157,0.062552,313.583602,25.602011,0.999583,0.992831,0.003442,0.434959,-0.000006,0.000023,-0.000009,0.000025,-0.000008,-74.288456,0.000026,
2251,2833,-0.192730760437481,4.10025774781329,-0.019518263910129,0.006744,0.000427,-0.001748,0.316259,0.038428,317.748280,24.625035,0.999500,0.991104,0.003845,0.400604,-0.000007,0.000012,0.000000,0.000012,-0.000007,88.549787,0.000012,
2491,2368,5.12649460631721,-6.03809176445398,0.00111659117465024,0.007094,0.000192,0.002213,0.316486,0.031928,325.584564,23.078187,0.998426,0.983871,0.005392,0.377403,0.000016,0.000049,0.000021,0.000059,0.000006,64.079991,0.000072,
2371,2953,2.39408422843757,6.71552110720243,-0.0057121334437511,0.006364,-0.000185,0.004337,0.277183,0.015732,315.774727,25.122045,0.999377,0.989637,0.004055,0.349744,-0.000009,0.000002,-0.000007,0.000005,-0.000012,-63.993720,0.000012,
2101,2353,-3.37384200092513,-6.3670347130585,-0.0154598364485423,0.007116,0.000972,-0.003818,0.338416,0.043625,326.078265,24.388503,0.999010,0.984514,0.004969,0.395675,-0.000020,-0.000018,-0.000006,-0.000013,-0.000025,-48.133184,0.000038,
2191,2728,-1.47919387181234,1.81269697372247,-0.023688699788579,0.006657,0.000044,0.001758,0.300820,0.022085,319.555392,24.427226,0.999259,0.990300,0.003925,0.408131,-0.000017,-0.000001,-0.000011,0.000004,-0.000022,-63.012275,0.000024,
2356,2833,2.09054196893078,4.10552275646445,-0.0179413224896621,0.006825,0.000208,0.000266,0.312925,0.022411,317.662653,24.751973,0.999759,0.990881,0.003798,0.383119,-0.000014,0.000013,-0.000004,0.000014,-0.000014,-81.126674,0.000016,
2146,2308,-2.38615660287416,-7.35255982711229,0.00483281366331312,0.006693,0.000667,-0.000976,0.310455,0.026075,326.753047,24.216320,0.998875,0.984024,0.005118,0.363172,-0.000011,-0.000026,-0.000017,0.000000,-0.000037,-32.736873,0.000043,
2281,2938,0.440368821870283,6.38332274540215,-0.00835767588523595,0.006425,-0.000199,0.004978,0.278991,0.024003,316.044333,24.815535,0.999475,0.992167,0.003669,0.423166,-0.000008,0.000011,-0.000001,0.000011,-0.000008,-87.303955,0.000012,
2311,3298,1.02641752148988,14.1962414122032,0.00170979729512055,0.006281,0.000354,0.001885,0.283280,0.038943,310.207485,25.607005,0.999648,0.994657,0.002901,0.460645,-0.000014,0.000004,-0.000004,0.000005,-0.000015,-77.589062,0.000015,
2296,2698,0.809330264268713,1.16379846277303,-0.0238917242078855,0.006494,0.000047,0.002323,0.290668,0.036983,319.815826,24.375302,0.999741,0.992323,0.003609,0.432426,-0.000006,0.000013,-0.000010,0.000017,-0.000010,-66.878318,0.000017,
2461,2113,4.52386015744692,-11.6270927139611,0.0129218339493491,0.006617,0.000416,-0.001407,0.308077,0.024544,329.723136,22.233645,0.999476,0.977852,0.005728,0.350708,-0.000006,-0.000042,-0.000008,-0.000004,-0.000044,-12.290349,0.000053,
2221,2683,-0.819367477775458,0.833834900745813,-0.0220040675496307,0.006585,-0.000032,0.004592,0.288145,0.033523,320.204376,24.354805,0.999533,0.992209,0.003681,0.439452,-0.000001,0.000014,-0.000004,0.000015,-0.000002,-75.230233,0.000016,
2416,3238,3.3195529345332,12.905110814546,0.0200952917905965,0.006644,0.000401,-0.000925,0.309567,0.045781,311.391066,26.069629,0.999428,0.991863,0.003624,0.427073,0.000008,0.000011,0.000000,0.000011,0.000008,86.480387,0.000019,
2236,2923,-0.534679257251998,6.05431973641677,-0.0103347422199818,0.006491,-0.000152,0.004934,0.282856,0.031959,316.357548,24.648148,0.999660,0.993113,0.003485,0.477477,-0.000014,0.000016,-0.000002,0.000016,-0.000014,-86.932023,0.000017,
2446,2068,4.2058280150344,-12.6169039953213,0.0307681193522171,0.006425,-0.000089,0.003258,0.281643,0.036290,330.539401,22.130510,0.998921,0.977963,0.005861,0.388041,0.000009,-0.000033,-0.000001,0.000009,-0.000033,-1.193211,0.000034,
2146,2548,-2.42718302636024,-2.11135440687569,-0.0160017162333475,0.006391,0.000024,0.001046,0.290719,0.027868,322.684271,24.270788,0.999198,0.986050,0.004505,0.460714,-0.000001,-0.000002,0.000001,0.000000,-0.000002,18.535268,0.000003,
2296,2998,0.756887698327706,7.68716601979959,0.00681854204623278,0.006654,0.000121,0.002189,0.298976,0.028067,315.193574,24.999098,0.999410,0.990686,0.003775,0.394565,-0.000012,0.000018,-0.000008,0.000020,-0.000014,-75.570520,0.000020,
2491,2383,5.12300327276505,-5.71008503079247,-0.000449819181596922,0.006970,-0.000273,0.003941,0.303995,0.015141,325.315934,23.122255,0.998698,0.981999,0.005359,0.377136,0.000016,0.000030,-0.000001,0.000031,0.000016,-84.188702,0.000047,
2221,2878,-0.852599666439065,5.07577775574745,-0.010863082732385,0.006428,-0.000049,0.003031,0.286206,0.031609,317.125180,24.592653,0.999451,0.992916,0.003374,0.445716,-0.000008,0.000020,0.000003,0.000021,-0.000009,83.645910,0.000021,
2206,2578,-1.12662580856415,-1.45516223551463,-0.0146141514706528,0.006795,0.000314,0.002227,0.305418,0.047194,322.025331,24.250124,0.999313,0.990024,0.003993,0.440441,-0.000003,-0.000002,-0.000010,0.000007,-0.000012,-45.390601,0.000012,
2161,2578,-2.10620802084619,-1.45647199590972,-0.0178982132538295,0.006446,-0.000171,0.004487,0.282644,0.034168,322.118330,24.286904,0.999170,0.987109,0.004350,0.449243,-0.000011,-0.000002,-0.000014,0.000008,-0.000021,-53.347251,0.000022,
2266,2833,0.132624369498799,4.10162391426763,-0.0243402708163103,0.006592,0.000423,0.000879,0.300545,0.038953,317.665297,24.659591,0.999377,0.990486,0.003903,0.384426,-0.000007,0.000009,0.000001,0.000009,-0.000007,85.045708,0.000010,
2131,2233,-2.700519540066,-8.99277854234119,0.0107558004717134,0.006723,0.000369,0.001050,0.305550,0.028145,328.064382,24.313419,0.998546,0.980230,0.005516,0.287312,-0.000009,0.000004,-0.000008,0.000008,-0.000013,-64.367763,0.000013,
2386,2908,2.72782616781103,5.73910761465794,-0.0188334799088352,0.006344,-0.000120,0.005519,0.271891,0.040795,316.401897,25.007550,0.999443,0.991058,0.003847,0.396857,-0.000023,0.000004,-0.000005,0.000005,-0.000024,-80.140335,0.000025,
2311,3073,1.06972498683473,9.31642011517742,0.0205016486041814,0.006412,0.000087,0.001799,0.289166,0.030338,314.058267,25.242425,0.999713,0.994525,0.003109,0.352520,-0.000012,0.000013,-0.000009,0.000016,-0.000015,-71.714038,0.000018,
2071,2248,-4.00998760969867,-8.66489539350753,0.0074115280150977,0.006756,-0.000093,0.002749,0.302410,0.042189,328.073273,24.497648,0.998909,0.986191,0.004625,0.396483,-0.000016,0.000024,-0.000004,0.000025,-0.000016,-84.478631,0.000025,
2236,2743,-0.503734145198266,2.14138073151335,-0.0223933126238194,0.006470,-0.000101,0.003194,0.287251,0.032583,319.190294,24.479039,0.999027,0.986764,0.004607,0.395839,-0.000006,-0.000011,-0.000018,0.000010,-0.000027,-41.395192,0.000027,
2086,2293,-3.69166769339742,-7.67934463162305,-0.00699438136859953,0.005993,0.000510,-0.002440,0.282459,0.025769,327.132503,24.447193,0.999659,0.991924,0.003989,0.367387,-0.000003,-0.000001,0.000011,0.000009,-0.000013,46.945921,0.000014,
2101,2158,-3.34256173941793,-10.6361144043514,0.0227014448174145,0.006017,-0.000336,0.005543,0.259872,0.021979,329.455995,24.400840,0.998694,0.982579,0.005472,0.313953,-0.000005,-0.000026,-0.000007,-0.000003,-0.000028,-16.075150,0.000034,
2206,2473,-1.10885873396137,-3.745311887692,-0.0196289821242317,0.006370,0.001243,-0.005877,0.311676,0.042662,323.689438,24.126588,0.999350,0.983013,0.005206,0.435492,-0.000006,-0.000013,-0.000010,0.000001,-0.000020,-34.832398,0.000023,
2416,3253,3.31615557196531,13.2309979187864,0.0149746249062446,0.006847,0.000313,0.002061,0.307969,0.052931,311.099815,26.134639,0.999213,0.990672,0.003856,0.415707,0.000012,0.000016,0.000001,0.000016,0.000011,78.641031,0.000028,
2131,2458,-2.73847333182702,-4.07267652808439,-0.0167881255891302,0.006942,0.000418,0.003212,0.309651,0.070690,324.210595,24.411345,0.999352,0.988762,0.004473,0.346257,-0.000017,-0.000026,-0.000020,0.000000,-0.000042,-38.829811,0.000049,
2326,1993,1.59688164262893,-14.2594492630847,0.0297163518753791,0.006513,0.000175,0.002730,0.288689,0.031953,331.638766,22.829511,0.998008,0.972803,0.006547,0.258473,-0.000033,-0.000044,0.000003,-0.000032,-0.000045,14.817894,0.000077,
2401,3118,3.01717911478617,10.2996227540435,0.0326501558486143,0.006102,0.000072,0.003886,0.266870,0.051989,313.406303,25.675484,0.999872,0.995767,0.002782,0.395085,-0.000003,0.000021,-0.000007,0.000023,-0.000005,-74.938394,0.000025,
2461,2128,4.52143343990283,-11.2984403501744,0.0194788055060826,0.006881,0.000213,0.000936,0.311313,0.028533,329.538923,22.312268,0.999451,0.975927,0.005957,0.333186,-0.000004,-0.000038,-0.000005,-0.000003,-0.000039,-8.296899,0.000047,
2341,2053,1.91378145681943,-12.9432456308004,0.0312020172586358,0.006476,0.000250,0.000480,0.294819,0.027535,330.690451,22.824679,0.999188,0.981691,0.005233,0.313149,-0.000009,-0.000031,0.000010,-0.000005,-0.000035,20.691893,0.000043,
2296,3013,0.753577936678912,8.01338444146214,0.00162181321775279,0.006469,0.000068,0.002016,0.291062,0.030278,314.896964,25.029661,0.999234,0.987358,0.004262,0.395408,-0.000012,0.000015,-0.000008,0.000018,-0.000015,-74.733654,0.000019,
2281,2953,0.438238444979437,6.70983998408103,-0.00940215993614402,0.006710,0.000323,-0.000296,0.310026,0.039411,315.821477,24.872019,0.999204,0.989952,0.004038,0.409459,-0.000010,0.000013,-0.000004,0.000014,-0.000010,-80.914406,0.000014,
2161,2353,-2.0678627516781,-6.36745081167692,-0.0101454950859647,0.006694,0.000429,-0.000842,0.310113,0.028460,325.846687,24.172520,0.999175,0.986679,0.004552,0.386940,-0.000019,-0.000025,-0.000021,-0.000002,-0.000043,-40.881036,0.000051,
2146,2323,-2.38885651477503,-7.02453272843397,0.00117194540354149,0.006646,0.000276,-0.001443,0.309636,0.008863,326.480125,24.216214,0.999331,0.984144,0.004989,0.356088,-0.000010,-0.000033,-0.000022,0.000003,-0.000046,-30.805366,0.000052,
2326,2908,1.4242269499429,5.73471149540541,-0.0153905011973166,0.006577,0.000076,-0.003467,0.314555,0.003674,316.468450,24.884493,0.999171,0.990787,0.003951,0.366704,-0.000019,0.000001,-0.000001,0.000001,-0.000019,-86.283919,0.000022,
2371,2968,2.39114040016395,7.04233088449559,-0.00578556373704942,0.006305,-0.000139,0.004373,0.274468,0.033318,315.525821,25.215539,0.999583,0.989972,0.004067,0.314317,-0.000009,0.000009,-0.000003,0.000009,-0.000009,-79.169889,0.000011,
2506,2473,5.43088165605551,-3.74027355134222,-0.0102228134749112,0.006494,0.000374,0.000206,0.296895,0.037290,323.810310,23.470262,0.999396,0.984907,0.004621,0.378085,0.000034,-0.000028,0.000014,0.000037,-0.000030,12.028426,0.000039,
2311,2593,1.15567981882395,-1.12454235913713,-0.0181181251575708,0.006540,0.000539,0.000510,0.298841,0.044031,321.564587,24.164813,0.999589,0.991703,0.003684,0.418640,0.000000,-0.000006,-0.000007,0.000005,-0.000010,-33.172566,0.000010,
2476,2278,4.81745618548712,-8.00829603855883,0.00561621159920378,0.006564,0.000578,-0.001280,0.305572,0.040108,327.028421,22.833251,0.999325,0.981041,0.005231,0.329838,0.000005,-0.000011,0.000001,0.000005,-0.000011,2.422375,0.000011,
2071,2263,-4.0121362954638,-8.33652663574873,0.0058382081405739,0.007029,-0.000010,0.003247,0.313583,0.041600,327.829959,24.510143,0.999230,0.987549,0.004539,0.382643,-0.000022,0.000018,0.000002,0.000018,-0.000022,87.766447,0.000023,
2176,2503,-1.7667886700981,-3.09129761722012,-0.0175117290736466,0.006648,0.000361,-0.001046,0.308899,0.025403,323.309467,24.251968,0.998962,0.983798,0.005169,0.389421,-0.000012,0.000002,-0.000012,0.000009,-0.000019,-60.327315,0.000019,
2116,2413,-3.05714470629131,-5.05698491759984,-0.00851841166218037,0.006519,0.000369,-0.002404,0.306807,0.018077,325.068601,24.400579,0.999257,0.987357,0.004606,0.326265,-0.000018,-0.000018,-0.000017,-0.000001,-0.000035,-44.943819,0.000041,
2281,3163,0.402062685741168,11.2667262055055,0.0260507675357644,0.006407,0.000375,0.003039,0.285287,0.060134,312.661174,25.282165,0.999576,0.992614,0.003533,0.395847,-0.000011,0.000007,-0.000008,0.000010,-0.000014,-68.536105,0.000014,
2416,3268,3.31233518801642,13.5564650789467,0.00557429244054219,0.006791,0.000183,0.002824,0.302545,0.050368,310.769011,26.151500,0.999561,0.992135,0.003559,0.442509,0.000013,0.000010,0.000003,0.000014,0.000008,29.609017,0.000023,
2251,2998,-0.22082534676759,7.68387686985793,0.00830419560782047,0.006515,0.000085,0.004728,0.284603,0.042257,315.260310,24.848009,0.999581,0.991819,0.003662,0.432695,-0.000007,0.000017,-0.000012,0.000021,-0.000012,-67.607989,0.000021,
2206,2788,-1.16336999007861,3.1189451789074,-0.0226515254599917,0.006563,0.000109,-0.000126,0.302451,0.016213,318.546874,24.501942,0.999113,0.988554,0.004354,0.397119,-0.000011,0.000000,-0.000011,0.000007,-0.000018,-58.697537,0.000018,
2326,3133,1.38440746064687,10.6191549784457,0.0202055174634665,0.006543,0.000062,0.002579,0.292414,0.015586,313.067368,25.379444,0.999359,0.991993,0.003565,0.387757,-0.000005,0.000015,-0.000012,0.000020,-0.000011,-65.108979,0.000020,
2176,2668,-1.79487698944624,0.505499495320343,-0.0190257675994872,0.006513,0.000152,0.001064,0.296409,0.036711,320.611713,24.377536,0.999618,0.992305,0.003613,0.419118,-0.000014,0.000011,-0.000012,0.000016,-0.000019,-67.643252,0.000020,
2206,2488,-1.11162926721757,-3.41689496342825,-0.0223923335852305,0.006590,0.000875,-0.002608,0.311327,0.054738,323.422864,24.201601,0.999373,0.985331,0.004764,0.390633,-0.000009,-0.000007,-0.000011,0.000003,-0.000019,-47.398331,0.000020,
2386,2923,2.72588230343039,6.06454733815764,-0.0106923683068771,0.006581,-0.000079,0.004564,0.286164,0.021687,316.239773,25.058451,0.999395,0.989905,0.004043,0.369465,-0.000023,0.000001,-0.000006,0.000002,-0.000024,-77.159946,0.000026,
2296,3238,0.713853680548649,12.8932855535004,0.0225931174582001,0.006477,0.000120,0.000883,0.295631,0.030672,311.395021,25.412711,0.999716,0.993213,0.003227,0.445882,-0.000007,0.000001,-0.000009,0.000007,-0.000013,-56.288064,0.000013,
2326,2773,1.44875467390195,2.79932738919564,-0.0206792221868,0.006702,0.000263,0.001107,0.304388,0.034203,318.613410,24.659621,0.999724,0.994615,0.003303,0.314001,-0.000013,0.000000,-0.000012,0.000007,-0.000020,-58.800930,0.000020,
2461,2143,4.51818414935649,-10.9679519637395,0.00830007702484181,0.007226,0.000988,-0.003539,0.344196,0.045734,329.235960,22.359140,0.999023,0.976706,0.005875,0.361066,0.000001,-0.000021,-0.000003,0.000001,-0.000022,-6.623824,0.000025,
2341,3193,1.69958969610696,11.921958993574,0.0305240597704142,0.006558,0.000181,0.003765,0.289010,0.035880,312.161252,25.614181,0.999664,0.993702,0.003375,0.377336,-0.000002,0.000018,-0.000005,0.000019,-0.000003,-76.369072,0.000020,
2101,2368,-3.37548394869932,-6.04148878062433,-0.00265565719627148,0.007139,0.000347,-0.001805,0.333413,0.040486,325.938878,24.323636,0.998924,0.983132,0.005210,0.460078,-0.000015,-0.000005,-0.000004,-0.000003,-0.000017,-69.688947,0.000022,
2161,2593,-2.10866465919524,-1.12890866996795,-0.0221023190719052,0.006564,-0.000082,0.001473,0.297324,0.014589,321.854846,24.336744,0.999245,0.988624,0.004275,0.390627,-0.000015,-0.000002,-0.000009,0.000003,-0.000020,-63.056134,0.000021,
2371,2983,2.38912770586741,7.36719772075944,-0.00136765620470669,0.006603,0.000136,0.001627,0.298079,0.035151,315.341806,25.180660,0.999503,0.990335,0.003984,0.391553,-0.000011,0.000014,-0.000004,0.000015,-0.000011,-80.535882,0.000015,
2086,2308,-3.69404262269537,-7.35192815366663,-0.00439320263370746,0.006169,-0.000073,0.003744,0.272558,0.020481,326.903014,24.436174,0.999481,0.989063,0.004430,0.374161,-0.000004,-0.000016,0.000004,-0.000003,-0.000018,16.200084,0.000022,
2236,2938,-0.537156836734741,6.38112012510939,-0.00888652852086125,0.006428,0.000351,0.003048,0.286236,0.037403,316.127994,24.753367,0.999585,0.993155,0.003455,0.398150,-0.000014,0.000018,-0.000005,0.000019,-0.000014,-81.619318,0.000020,
2191,2518,-1.44243051416432,-2.7655902472909,-0.00686500018753122,0.006605,0.000081,0.002144,0.296859,0.025251,323.096882,24.162614,0.999446,0.988197,0.004434,0.463529,-0.000005,-0.000007,-0.000005,-0.000001,-0.000011,-39.643197,0.000013,
2116,2203,-3.02299425113609,-9.64904310247816,0.00397532580279858,0.006594,0.000486,-0.000941,0.305558,0.022000,328.554312,24.324135,0.998250,0.978310,0.005639,0.328755,-0.000008,0.000010,0.000008,0.000013,-0.000011,69.574501,0.000014,
2311,2608,1.15303158360333,-0.797656280221666,-0.0192358484483179,0.006756,0.000209,0.000785,0.307760,0.038706,321.320847,24.172392,0.999612,0.991508,0.003671,0.438399,0.000002,-0.000012,-0.000006,0.000004,-0.000014,-21.378854,0.000014,
2266,2848,0.13062776407638,4.42700417600314,-0.0158842238372472,0.006831,0.000153,0.003047,0.304340,0.041948,317.495806,24.665420,0.999557,0.992549,0.003635,0.406798,-0.000004,0.000007,0.000005,0.000009,-0.000006,67.717748,0.000009,
2341,2758,1.77789351090261,2.47228190840779,-0.0166838192010914,0.006561,0.000204,0.003834,0.288334,0.061708,318.870632,24.529832,0.999526,0.990308,0.003982,0.443664,-0.000015,0.000009,-0.000006,0.000011,-0.000016,-77.292159,0.000017,
2326,2923,1.42183365928181,6.05975060169971,-0.00986877742934666,0.006732,0.000077,-0.001182,0.313828,0.009345,316.269605,24.854135,0.998720,0.988406,0.004392,0.436633,-0.000017,0.000003,-0.000003,0.000004,-0.000018,-82.577860,0.000019,
2191,2743,-1.48118402983629,2.13882118107343,-0.0175433574365229,0.006799,0.000008,0.001689,0.307549,0.020134,319.369883,24.459810,0.999457,0.990604,0.003897,0.387958,-0.000015,-0.000006,-0.000018,0.000008,-0.000028,-52.219336,0.000029,
2341,2953,1.7424140698797,6.71345083980074,-0.0036874873060242,0.006573,0.000251,0.001406,0.297589,0.032196,315.809555,25.037824,0.999351,0.991463,0.003730,0.379109,-0.000015,0.000003,-0.000005,0.000004,-0.000016,-74.163060,0.000017,
2311,2818,1.11389074060255,3.77737460305531,-0.0185838838522727,0.006408,0.000249,0.002589,0.285948,0.034580,317.889163,24.705553,0.999575,0.990441,0.003850,0.355733,-0.000006,0.000006,-0.000003,0.000006,-0.000007,-77.093376,0.000007,
2416,3283,3.30855082960005,13.8824872685211,-0.00288757986857036,0.006533,0.000145,0.001538,0.295352,0.036854,310.443985,26.240692,0.999703,0.992146,0.003540,0.385894,0.000017,-0.000017,0.000003,0.000018,-0.000017,5.273353,0.000020,
2476,2293,4.81423459475263,-7.68260965622727,0.0132646009848827,0.006380,-0.000566,0.006240,0.268190,0.015588,326.813361,22.733831,0.999474,0.981543,0.005151,0.463281,0.000003,-0.000001,0.000009,0.000011,-0.000008,39.548744,0.000011,
2326,2008,1.59497756681013,-13.9299953687162,0.0294501399292812,0.006966,0.000843,-0.002979,0.329315,0.020513,331.436032,22.876190,0.998199,0.973005,0.006612,0.238175,-0.000024,-0.000019,0.000022,0.000001,-0.000044,48.095125,0.000050,
2296,3028,0.751740167131352,8.33915906123402,0.00624779770555506,0.006958,0.000396,0.000895,0.317555,0.045352,314.716916,25.076333,0.999370,0.989246,0.003967,0.393005,-0.000012,0.000008,-0.000013,0.000014,-0.000019,-63.975235,0.000019,
2266,3073,0.0925070141670794,9.3123490960187,0.0229941540411573,0.006314,0.000123,0.001934,0.284491,0.023992,314.131008,25.043092,0.999380,0.991550,0.003784,0.384924,-0.000011,0.000008,-0.000016,0.000017,-0.000020,-60.550083,0.000021,
2491,2398,5.11945327515495,-5.38112857670002,-0.0040071296002111,0.006596,0.000009,0.001376,0.296822,0.011265,325.035401,23.226587,0.999411,0.988108,0.004478,0.329532,0.000027,0.000012,-0.000002,0.000027,0.000012,-6.418055,0.000040,
2146,2563,-2.42973112418176,-1.78399979564391,-0.013990704364744,0.006054,0.000422,-0.000745,0.280812,0.036114,322.448183,24.317997,0.999105,0.986126,0.004536,0.430459,0.000001,0.000003,-0.000004,0.000007,-0.000002,-51.145421,0.000007,
2071,2278,-4.01444132511995,-8.00727423516152,0.00188575635178267,0.007095,0.000254,0.000442,0.324728,0.038577,327.566349,24.587085,0.999871,0.994735,0.003584,0.301859,-0.000014,0.000004,0.000007,0.000007,-0.000017,70.035639,0.000017,
2446,2083,4.20238000649193,-12.2867101595781,0.026817566857062,0.006602,-0.000852,0.006684,0.276737,0.004559,330.259425,22.253459,0.998719,0.976612,0.006194,0.288921,0.000004,-0.000029,0.000003,0.000005,-0.000030,5.570994,0.000032,
2311,3088,1.06723027992838,9.64123110388857,0.0234530559369546,0.006554,0.000081,0.002869,0.292022,0.026392,313.840853,25.222502,0.999753,0.995378,0.002939,0.399779,-0.000012,0.000010,-0.000018,0.000020,-0.000022,-61.272686,0.000024,
2461,2158,4.51498872680726,-10.6391637072706,0.0149544732273625,0.006934,0.000728,0.001476,0.311981,0.056737,329.016755,22.454514,0.999032,0.976586,0.005783,0.334029,0.000000,-0.000033,-0.000012,0.000004,-0.000037,-17.677075,0.000041,
2236,2758,-0.506427400025363,2.46839832481516,-0.026299263719352,0.006546,0.000282,0.001156,0.297511,0.043883,318.923806,24.505943,0.999341,0.988337,0.004181,0.401699,-0.000007,-0.000004,-0.000016,0.000011,-0.000022,-47.613592,0.000022,
2251,2848,-0.195517244768951,4.42600198005854,-0.0171695116163164,0.006789,-0.000129,0.002878,0.302976,0.031710,317.510666,24.627879,0.999501,0.992057,0.003684,0.413932,-0.000004,0.000009,0.000004,0.000010,-0.000005,73.765356,0.000010,
2101,2173,-3.34497891501855,-10.3066034756877,0.0125290411155561,0.006385,-0.000157,0.002299,0.286292,0.001633,329.156619,24.413541,0.998804,0.983597,0.005252,0.285419,-0.000008,-0.000020,0.000001,-0.000008,-0.000020,2.441418,0.000029,
2206,2593,-1.1294412939714,-1.12823869359141,-0.00862668428595725,0.006481,-0.000220,0.007153,0.275276,0.064399,321.802007,24.293583,0.999030,0.988031,0.004357,0.431581,-0.000004,-0.000004,-0.000006,0.000002,-0.000010,-45.249902,0.000010,
2206,2803,-1.16642745313016,3.44527928862739,-0.022301910122053,0.006370,-0.000113,0.004216,0.279834,0.034050,318.283211,24.505991,0.998756,0.985512,0.004790,0.427697,-0.000011,0.000004,-0.000009,0.000008,-0.000015,-64.664068,0.000015,
2281,3178,0.400109719855106,11.591133481793,0.0303859473641523,0.006730,0.000067,0.001099,0.306518,0.024859,312.473643,25.285796,0.999667,0.993259,0.003247,0.383386,-0.000008,0.000006,-0.000008,0.000010,-0.000012,-66.618803,0.000012,
2176,2518,-1.76918797585763,-2.76423958512589,-0.0172187765683134,0.006809,0.000338,-0.000031,0.313171,0.027894,323.073580,24.248977,0.999088,0.986392,0.004723,0.408406,-0.000008,-0.000005,-0.000006,0.000000,-0.000013,-52.577367,0.000015,
2356,2113,2.2286816301797,-11.6245027935619,0.0145576975832569,0.006245,0.000276,0.000753,0.283357,0.029204,329.575296,22.936705,0.999501,0.981678,0.005120,0.274713,-0.000025,-0.000021,-0.000002,-0.000020,-0.000026,-71.728191,0.000046,
2161,2368,-2.06995104369492,-6.03976242197625,-0.00673291612264393,0.006886,0.000366,-0.000299,0.317290,0.017561,325.640261,24.220952,0.999173,0.989652,0.004134,0.339215,-0.000018,-0.000013,-0.000019,0.000004,-0.000034,-48.499714,0.000038,
2221,2698,-0.821769781290069,1.16035803744146,-0.02059542716853,0.006734,-0.000021,0.005223,0.293012,0.041529,319.977466,24.363531,0.999600,0.993909,0.003305,0.458010,-0.000005,0.000002,-0.000002,0.000002,-0.000005,-77.281428,0.000005,
2296,3253,0.710628675642376,13.2190930630032,0.019227410823305,0.006522,-0.000099,0.004333,0.285943,0.026835,311.110807,25.489209,0.999705,0.990947,0.003576,0.394016,-0.000007,0.000002,-0.000007,0.000006,-0.000011,-60.800780,0.000011,
2146,2338,-2.39168113848443,-6.69625152163437,5.97964957478325E-05,0.006565,0.000282,0.001985,0.295573,0.049103,326.214665,24.212765,0.999393,0.986468,0.004575,0.409692,-0.000019,-0.000025,-0.000019,-0.000003,-0.000041,-40.139051,0.000049,
2326,3148,1.3821385228176,10.944708546147,0.0210679528409514,0.006737,0.000312,-0.001107,0.314258,0.026910,312.850637,25.415168,0.999528,0.993026,0.003499,0.396720,-0.000005,0.000012,-0.000010,0.000016,-0.000010,-65.767834,0.000016,
2176,2683,-1.79773860716418,0.831860435315562,-0.0231835455671217,0.006465,-0.000016,0.001162,0.293832,0.023389,320.331413,24.341360,0.999448,0.991225,0.003800,0.454730,-0.000015,0.000011,-0.000013,0.000017,-0.000021,-67.061148,0.000022,
2326,2023,1.59129427398005,-13.600875178547,0.0258555692506093,0.006705,0.000166,0.002072,0.299814,0.015922,331.135663,22.853934,0.998630,0.978746,0.006027,0.294222,-0.000023,-0.000019,0.000018,-0.000003,-0.000039,48.365175,0.000047,
2401,3133,3.01381872163871,10.6259420017002,0.0215450725866049,0.006461,0.000276,0.002781,0.287512,0.063139,313.087709,25.704856,0.999810,0.994977,0.002973,0.421584,0.000000,0.000023,-0.000009,0.000026,-0.000003,-71.892488,0.000028,
2446,2098,4.19919432011807,-11.9561599345543,0.0160906945662305,0.006543,0.000361,-0.002617,0.309101,0.008348,329.960083,22.305079,0.999338,0.979172,0.005740,0.296706,-0.000005,-0.000033,-0.000009,-0.000002,-0.000035,-16.312693,0.000042,
2236,2953,-0.538792862686755,6.70650944287115,-0.00172569346233331,0.006870,0.000142,0.002137,0.309462,0.020715,315.966701,24.794651,0.999468,0.991903,0.003717,0.360684,-0.000014,0.000019,-0.000008,0.000021,-0.000016,-76.509616,0.000022,
2191,2758,-1.48351410226783,2.46540602382664,-0.0166443572828143,0.006969,0.000210,0.001732,0.315357,0.035438,319.141324,24.479739,0.999516,0.990968,0.003739,0.398140,-0.000012,-0.000004,-0.000019,0.000011,-0.000027,-50.933581,0.000027,
2146,2578,-2.43267317339738,-1.45614997653268,-0.0223749017842465,0.006292,0.000085,0.001625,0.284503,0.034059,322.138888,24.334636,0.999266,0.988383,0.004324,0.420807,-0.000004,-0.000003,-0.000011,0.000007,-0.000014,-46.811889,0.000014,
2131,2473,-2.74065515790344,-3.74631116644686,-0.0166039745834041,0.006905,0.000219,-0.000851,0.320042,0.026083,323.980870,24.375520,0.999341,0.988190,0.004520,0.344271,-0.000013,-0.000021,-0.000012,-0.000005,-0.000030,-35.842654,0.000037,
2491,2413,5.11596905062636,-5.05378689196088,-0.0124827555916909,0.006391,0.000395,-0.004694,0.310870,0.021539,324.735867,23.127535,0.999413,0.988656,0.004426,0.499739,0.000023,0.000001,0.000007,0.000025,-0.000001,15.849141,0.000029,
2191,2533,-1.44567995754945,-2.43678820739768,-0.0164476549050505,0.006613,0.000078,0.002914,0.294840,0.031373,322.771538,24.231896,0.999382,0.988804,0.004252,0.416185,-0.000007,-0.000005,-0.000004,-0.000001,-0.000010,-51.812040,0.000013,
2386,2938,2.7229831710443,6.39052254479974,-0.00670938546636535,0.006430,-0.000093,0.006645,0.271781,0.036115,316.013682,25.099028,0.999387,0.989962,0.004006,0.386229,-0.000014,0.000001,-0.000007,0.000004,-0.000017,-69.204376,0.000018,
2281,2968,0.436125831839373,7.03600425702891,-0.00704159271276694,0.006946,0.000511,-0.003090,0.330375,0.045140,315.616548,24.933580,0.999218,0.990397,0.003962,0.380803,-0.000013,0.000015,-0.000007,0.000017,-0.000014,-77.462369,0.000018,
2266,2863,0.128870865146197,4.7517540276359,-0.00157170821165664,0.006731,0.000000,0.003079,0.299559,0.027728,317.366983,24.676952,0.999730,0.994484,0.003322,0.406124,-0.000008,0.000011,0.000002,0.000011,-0.000008,84.507055,0.000011,
2116,2428,-3.05948712623914,-4.73017216931201,-0.00595184196350829,0.006543,0.000305,-0.000217,0.301451,0.031829,324.842786,24.354475,0.999324,0.987898,0.004478,0.390922,-0.000015,-0.000024,-0.000007,-0.000011,-0.000028,-28.777041,0.000040,
2296,3268,0.707794685054161,13.5446023727977,0.0120483274646972,0.006650,0.000316,-0.000170,0.307361,0.042501,310.825664,25.501856,0.999667,0.992601,0.003324,0.425728,-0.000004,0.000004,-0.000007,0.000008,-0.000008,-60.725484,0.000009,
2341,2773,1.77562398522191,2.79855227506344,-0.0109074390060755,0.006737,-0.000117,0.004718,0.293194,0.026352,318.679834,24.616335,0.999570,0.992308,0.003625,0.358273,-0.000012,0.000002,-0.000010,0.000007,-0.000017,-62.851046,0.000017,
2131,2248,-2.70377570504818,-8.66422277703314,-0.00169887307743011,0.006373,0.000523,-0.003703,0.303764,0.014130,327.717833,24.240654,0.998771,0.982158,0.005334,0.354698,-0.000011,-0.000005,-0.000015,0.000008,-0.000023,-50.067747,0.000024,
2506,2488,5.42797219491184,-3.41311785087059,-0.00711749013902363,0.006585,0.000146,0.002018,0.293989,0.042308,323.589939,23.493608,0.999587,0.985668,0.004495,0.422124,0.000032,-0.000047,0.000010,0.000033,-0.000048,7.175925,0.000049,
2101,2383,-3.37893097186752,-5.71267040005746,-0.00676891999216878,0.006578,0.000169,0.002192,0.295947,0.037800,325.625007,24.398046,0.998925,0.984178,0.004945,0.386140,-0.000013,-0.000009,-0.000003,-0.000008,-0.000014,-66.037007,0.000022,
2476,2308,4.81160615073734,-7.3515270109685,0.011242789644939,0.006399,0.000596,-0.000970,0.296868,0.046046,326.580862,22.980453,0.999070,0.977674,0.005860,0.306033,0.000003,-0.000001,0.000009,0.000010,-0.000008,38.907078,0.000010,
2116,2218,-3.02553851212939,-9.32055762499167,0.00390441324913127,0.006365,0.000529,-0.001906,0.297976,0.033091,328.304803,24.336520,0.998302,0.979744,0.005617,0.333543,-0.000011,0.000016,0.000004,0.000017,-0.000011,82.485099,0.000017,
2416,3298,3.30450689151433,14.2078421037467,-0.0176257684091183,0.006653,0.000218,0.001980,0.299293,0.034003,310.077624,26.228790,0.999724,0.992587,0.003428,0.441297,0.000031,-0.000025,0.000001,0.000031,-0.000025,1.093235,0.000033,
2341,3208,1.69717909564617,12.2462005242836,0.0350786804048084,0.006580,0.000319,0.003120,0.292346,0.041413,311.957282,25.570767,0.999661,0.993389,0.003345,0.461532,-0.000002,0.000017,-0.000003,0.000017,-0.000002,-80.332707,0.000019,
2326,2038,1.5880463740815,-13.2691735895195,0.0136061027355368,0.006673,0.001012,-0.004448,0.321065,0.029695,330.812729,22.957326,0.999204,0.983711,0.005100,0.242997,-0.000023,-0.000028,0.000006,-0.000018,-0.000032,34.221750,0.000051,
2326,2938,1.41932845067958,6.3858329532078,-0.00134223063912486,0.006729,0.000113,0.003413,0.297883,0.033947,316.079958,24.925560,0.998980,0.988851,0.004278,0.423510,-0.000013,0.000005,-0.000004,0.000006,-0.000014,-76.466294,0.000014,
2221,2893,-0.854771236633535,5.40162238646221,-0.00463594496022779,0.006356,0.000147,0.001833,0.286843,0.039002,316.933530,24.630048,0.999641,0.993141,0.003444,0.434004,-0.000012,0.000014,0.000003,0.000015,-0.000012,83.369431,0.000016,
2086,2323,-3.69585582810484,-7.0241664558902,-0.00666409794376932,0.006698,0.000184,0.001762,0.302718,0.034716,326.672629,24.393598,0.999269,0.987819,0.004597,0.431910,-0.000005,-0.000029,0.000000,-0.000005,-0.000029,0.712614,0.000037,
2446,2113,4.19697436202184,-11.6276521975052,0.0209864237544934,0.006738,0.000772,-0.004912,0.326774,0.011094,329.776741,22.348299,0.999535,0.978658,0.005651,0.311147,-0.000011,-0.000040,-0.000012,-0.000006,-0.000045,-19.656795,0.000055,
2191,2548,-1.44824944867808,-2.11016214330586,-0.0121428865136295,0.006335,-0.000017,0.003592,0.279943,0.026369,322.549961,24.242160,0.999507,0.990258,0.004045,0.416306,-0.000005,0.000001,0.000000,0.000001,-0.000005,-87.724402,0.000006,
2371,2998,2.38669722303382,7.69281114034518,0.00640597347302219,0.006300,0.000302,-0.000186,0.290660,0.032617,315.154390,25.245226,0.999497,0.991531,0.003786,0.364765,-0.000010,0.000015,-0.000006,0.000016,-0.000012,-76.082355,0.000017,
2311,3103,1.06425648123884,9.96742546772422,0.0203275807818386,0.006345,0.000365,-0.000481,0.294040,0.038494,313.570898,25.279452,0.999530,0.993231,0.003428,0.386017,-0.000011,0.000015,-0.000017,0.000023,-0.000019,-63.671808,0.000025,
2356,3028,2.05476929422518,8.34372238794553,0.00489622823653235,0.006275,0.000355,-0.000246,0.289792,0.036882,314.646956,25.285481,0.999602,0.992142,0.003623,0.362708,-0.000013,0.000009,-0.000012,0.000014,-0.000019,-65.803640,0.000019,
2236,2773,-0.508880030672209,2.79414487578767,-0.025050084957627,0.006592,0.000173,0.000491,0.301741,0.019828,318.695031,24.496707,0.999433,0.988205,0.004054,0.407940,-0.000006,-0.000003,-0.000013,0.000009,-0.000018,-48.746296,0.000018,
2326,2788,1.44568173127661,3.12413569163332,-0.0249024752617402,0.006771,-0.000150,0.001622,0.305638,0.010679,318.336166,24.526605,0.999577,0.993958,0.003464,0.458113,-0.000012,0.000000,-0.000008,0.000004,-0.000016,-62.218304,0.000017,
2266,3088,0.0896399139778907,9.63818713180129,0.0221262664124993,0.006152,0.000168,0.001009,0.280167,0.037042,313.873972,25.075712,0.999592,0.992252,0.003604,0.389989,-0.000013,0.000004,-0.000022,0.000019,-0.000028,-55.775899,0.000028,
2341,2068,1.9105387138902,-12.61459349462,0.0257790534047899,0.006361,0.000465,-0.000545,0.293205,0.036548,330.402662,22.743052,0.999072,0.977836,0.005620,0.444306,-0.000011,-0.000026,0.000011,-0.000005,-0.000032,28.525977,0.000040,
2251,3013,-0.223591159462618,8.00979556493098,0.00724735261098886,0.006391,0.000225,0.003161,0.284123,0.042999,315.006006,24.879290,0.999379,0.990515,0.003850,0.424821,-0.000008,0.000014,-0.000012,0.000019,-0.000013,-65.680924,0.000020,
2356,2848,2.08694587926755,4.43257960517979,-0.0258274471628965,0.006668,0.000400,0.000058,0.306501,0.029908,317.345385,24.786339,0.999656,0.990847,0.003790,0.395172,-0.000012,0.000011,-0.000004,0.000012,-0.000013,-81.073763,0.000014,
2491,2428,5.11323748830636,-4.72474407454219,-0.0110199812518204,0.006775,0.000651,-0.002972,0.322022,0.047934,324.515163,23.268111,0.999373,0.987606,0.004534,0.445846,0.000024,0.000010,0.000022,0.000039,-0.000006,35.936936,0.000042,
2206,2818,-1.16871499707297,3.77069943781341,-0.019170629845064,0.006349,-0.000273,0.002719,0.283540,0.013085,318.069582,24.490173,0.999018,0.988021,0.004367,0.438983,-0.000010,0.000019,-0.000004,0.000019,-0.000011,-81.597365,0.000019,
2116,2443,-3.06206016851988,-4.40427898785485,-0.00753893756842672,0.006558,-0.000041,0.001304,0.297570,0.010005,324.584513,24.225447,0.999289,0.988367,0.004532,0.503190,-0.000018,-0.000025,-0.000012,-0.000009,-0.000034,-37.302288,0.000045,
2146,2593,-2.43505219932889,-1.12929040106998,-0.0265364178830509,0.006414,0.000189,-0.001977,0.301064,0.013093,321.878040,24.321762,0.999215,0.987969,0.004505,0.421474,-0.000007,0.000001,-0.000006,0.000004,-0.000011,-60.707849,0.000011,
2281,3193,0.397348069154702,11.9161906944444,0.0339204615750646,0.006569,0.000118,0.002765,0.293561,0.033416,312.244624,25.304265,0.999707,0.993359,0.003211,0.400080,-0.000008,0.000007,-0.000006,0.000010,-0.000010,-69.747892,0.000011,
2176,2698,-1.80047797164094,1.1594767614055,-0.0266184484663086,0.006494,0.000265,0.001236,0.295075,0.036668,320.060067,24.404878,0.999501,0.991118,0.003719,0.417136,-0.000016,0.000001,-0.000011,0.000006,-0.000022,-63.283218,0.000022,
2296,3043,0.749224956908588,8.66442779680913,0.0145037198498699,0.006692,0.000184,0.002331,0.300418,0.045763,314.523897,25.118423,0.999456,0.989692,0.003897,0.380468,-0.000012,0.000014,-0.000014,0.000020,-0.000018,-66.527065,0.000022,
2101,2188,-3.34763473555739,-9.97777566427448,0.0091310280529342,0.006345,0.000260,0.003231,0.281877,0.030774,328.882686,24.392734,0.998704,0.983240,0.005359,0.339679,-0.000010,0.000002,0.000005,0.000003,-0.000012,70.981730,0.000012,
2461,2173,4.51128222532067,-10.3099588836483,0.00854675679931916,0.006581,0.000678,-0.001114,0.305540,0.036049,328.714675,22.485395,0.999053,0.978939,0.005509,0.339832,-0.000010,-0.000020,-0.000014,0.000000,-0.000029,-34.483639,0.000034,
2206,2608,-1.13262514655477,-0.800681088201991,-0.0175029985711035,0.006286,0.000088,0.004267,0.275543,0.048575,321.485035,24.304310,0.999012,0.985859,0.004645,0.422753,-0.000002,-0.000010,-0.000003,-0.000001,-0.000011,-16.199581,0.000013,
2176,2533,-1.77179197033336,-2.43711806116062,-0.0168546873999844,0.006697,0.000253,0.000011,0.307909,0.031487,322.828656,24.256139,0.999035,0.987233,0.004465,0.418242,-0.000011,-0.000002,-0.000007,0.000002,-0.000016,-60.536504,0.000017,
2311,2623,1.15072646438047,-0.471191653414046,-0.0139091490486862,0.006788,0.000197,0.000462,0.310308,0.027173,321.124612,24.207242,0.999482,0.989802,0.003908,0.424652,-0.000001,0.000008,-0.000009,0.000014,-0.000006,-57.822664,0.000014,
2341,2968,1.73936914255593,7.04019628255085,-0.00711907695750824,0.006490,0.000242,-0.000251,0.299618,0.032731,315.537512,25.118636,0.999915,0.997839,0.002459,0.334970,-0.000016,0.000007,-0.000005,0.000008,-0.000017,-78.910673,0.000017,
2401,3148,3.0116896398111,10.9501668530019,0.0323070281663149,0.006396,0.000156,0.002734,0.284573,0.039413,312.929833,25.714133,0.999789,0.995221,0.002904,0.432659,0.000001,0.000017,-0.000009,0.000021,-0.000003,-66.034516,0.000022,
2296,3283,0.704602287895916,13.870044071253,0.00698545419788843,0.006513,0.000513,-0.001331,0.305125,0.062827,310.534531,25.519909,0.999577,0.992587,0.003294,0.456664,-0.000005,0.000006,-0.000005,0.000008,-0.000007,-69.606162,0.000009,
2236,2968,-0.541557948433553,7.03193178162095,0.00255445484981465,0.006630,0.000077,0.004648,0.290285,0.037768,315.738765,24.788745,0.999433,0.991798,0.003741,0.404217,-0.000012,0.000020,-0.000011,0.000023,-0.000016,-72.632796,0.000024,
2506,2503,5.42454448241403,-3.08502285796441,-0.00955186348198822,0.006528,-0.000215,0.002583,0.289048,-0.000555,323.320976,23.605129,0.999455,0.986219,0.004707,0.329919,0.000020,-0.000027,0.000002,0.000020,-0.000027,2.783704,0.000028,
2311,2833,1.11193700401547,4.10308866087405,-0.00892325287412632,0.006454,0.000033,0.001963,0.290150,0.022499,317.730050,24.762717,0.999747,0.992430,0.003575,0.318539,-0.000010,0.000010,-0.000003,0.000010,-0.000010,-80.858191,0.000012,
2356,3043,2.05205548671905,8.66917598005288,0.00439313125286844,0.006674,0.000378,0.002688,0.297910,0.055994,314.405595,25.269385,0.999604,0.991988,0.003622,0.436078,-0.000013,0.000016,-0.000013,0.000021,-0.000018,-69.390206,0.000023,
2281,2983,0.433013208496288,7.36103703848504,-0.00413089865895699,0.006684,0.000406,0.001573,0.302677,0.051540,315.368721,24.898092,0.999330,0.990478,0.003909,0.449718,-0.000009,0.000014,-0.000007,0.000016,-0.000011,-74.065500,0.000017,
2131,2263,-2.70570447186886,-8.33725608295561,0.00790167693577359,0.006397,0.000283,-0.000956,0.296639,0.021427,327.549458,24.232869,0.998725,0.982956,0.005320,0.377365,-0.000013,-0.000010,-0.000015,0.000003,-0.000026,-47.885987,0.000029,
2251,2863,-0.198377020449659,4.75200208063114,-0.0170074655788994,0.006584,-0.000138,0.002866,0.293619,0.025454,317.258506,24.641592,0.999541,0.992149,0.003602,0.417004,-0.000007,0.000012,0.000000,0.000012,-0.000007,89.579305,0.000012,
2116,2233,-3.02782273736645,-8.9925213552355,0.0095974974315709,0.006414,0.000139,0.003115,0.285276,0.029178,328.098181,24.387551,0.998270,0.980013,0.005709,0.284418,-0.000015,0.000010,-0.000002,0.000010,-0.000015,-84.567148,0.000015,
2326,2053,1.5853060237442,-12.9424554691995,0.0198441923503765,0.006514,-0.000011,-0.000554,0.300073,0.006375,330.603543,22.857014,0.999652,0.987782,0.004378,0.357646,-0.000022,-0.000027,0.000012,-0.000012,-0.000037,39.599483,0.000051,
2161,2608,-2.11048922800307,-0.802001025488806,-0.016748294905085,0.006812,0.000339,0.000549,0.311738,0.043539,321.670635,24.365429,0.999436,0.991224,0.003961,0.401517,-0.000014,-0.000006,-0.000007,-0.000002,-0.000018,-60.216073,0.000022,
2221,2908,-0.857025825288815,5.72761642506281,-0.000587753481624986,0.006391,0.000169,0.001139,0.290756,0.045062,316.726819,24.670233,0.999605,0.992027,0.003821,0.418387,-0.000011,0.000012,0.000002,0.000012,-0.000011,85.558117,0.000014,
2266,2878,0.125851050758317,5.07782007073423,-0.00752176620960654,0.006663,0.000158,0.000698,0.304335,0.012096,317.077810,24.664692,0.999639,0.992463,0.003574,0.428204,-0.000011,0.000009,0.000003,0.000010,-0.000011,83.080019,0.000012,
2236,2788,-0.511161687615523,3.12056105241385,-0.0223782468455056,0.006684,0.000352,-0.000576,0.309542,0.034098,318.481064,24.526022,0.999467,0.989465,0.004033,0.413851,-0.000005,-0.000004,-0.000010,0.000005,-0.000015,-47.191883,0.000015,
2356,2128,2.22592611444969,-11.2963674189061,0.0151446524597532,0.006218,0.000370,0.000086,0.284494,0.030474,329.339979,22.905128,0.999338,0.982366,0.005134,0.349204,-0.000026,-0.000016,-0.000002,-0.000016,-0.000026,-81.154294,0.000042,
2341,3223,1.6938837196374,12.5723979971709,0.0291063485883001,0.006403,0.000121,0.000859,0.292078,0.030264,311.660564,25.667431,0.999586,0.992639,0.003361,0.388997,-0.000003,0.000016,-0.000004,0.000017,-0.000004,-77.532883,0.000018,
2326,3163,1.37994769631723,11.2699431114842,0.0256738710497189,0.007094,0.000212,0.000067,0.326688,0.036395,312.655925,25.449566,0.999690,0.993977,0.003323,0.405149,-0.000005,0.000013,-0.000005,0.000014,-0.000006,-74.403408,0.000014,
2101,2398,-3.38109131938831,-5.38600379804879,-0.00190480006989446,0.006464,0.000234,0.002157,0.290833,0.036062,325.418870,24.365978,0.999178,0.986207,0.004476,0.419273,-0.000013,-0.000015,-0.000002,-0.000011,-0.000017,-37.025145,0.000028,
2161,2383,-2.0729802250414,-5.71157335558726,-0.0121174931586552,0.006750,0.000410,0.000574,0.308432,0.041401,325.344302,24.200516,0.998990,0.988270,0.004425,0.395446,-0.000018,-0.000010,-0.000018,0.000005,-0.000032,-51.379350,0.000035,
2491,2443,5.11018039341673,-4.39737116309247,-0.00069283439023593,0.006539,-0.000285,0.004144,0.283606,0.026350,324.319658,23.391546,0.999090,0.983918,0.004846,0.360921,0.000035,-0.000039,0.000025,0.000043,-0.000047,16.742867,0.000052,
2131,2488,-2.74321517157539,-3.41990777070449,-0.0183326385157443,0.006910,0.000225,-0.000398,0.318920,0.017404,323.723505,24.294766,0.999358,0.987955,0.004509,0.423128,-0.000012,-0.000010,-0.000018,0.000007,-0.000029,-46.387216,0.000030,
2146,2353,-2.3937635746985,-6.36867730013222,-0.00149083367830372,0.006834,0.000444,-0.000907,0.316756,0.041533,325.981176,24.193152,0.999381,0.986674,0.004502,0.431418,-0.000023,-0.000021,-0.000020,-0.000002,-0.000042,-46.334052,0.000049,
2386,2953,2.72031195627724,6.71633065694709,-0.00588838861949625,0.006530,-0.000104,0.005874,0.279147,0.021872,315.783068,25.134357,0.999233,0.988898,0.004233,0.379162,-0.000010,0.000002,-0.000006,0.000005,-0.000013,-66.782427,0.000013,
2086,2338,-3.69755726591147,-6.69715304323943,0.00355313720871209,0.006568,0.000362,0.000002,0.301876,0.032411,326.515338,24.427345,0.998988,0.985994,0.004795,0.396559,-0.000015,-0.000026,0.000002,-0.000015,-0.000026,8.363337,0.000042,
2296,3298,0.700461805495483,14.1958380965541,-0.00375188329354614,0.006411,0.000205,0.005128,0.278347,0.044297,310.171286,25.583285,0.999688,0.994322,0.003089,0.402982,-0.000011,0.000013,-0.000002,0.000013,-0.000011,-85.252510,0.000014,
2476,2323,4.80811973406951,-7.02401246570333,0.00870386472996643,0.006652,-0.000149,0.004687,0.286746,0.050743,326.307082,22.926782,0.998986,0.979797,0.005546,0.423090,0.000000,0.000027,0.000008,0.000029,-0.000003,74.381813,0.000032,
2341,2788,1.77264418222763,3.12496925992696,-0.0121442382902615,0.006602,-0.000038,0.003837,0.290110,0.031592,318.422188,24.625115,0.999578,0.993515,0.003473,0.391664,-0.000012,0.000001,-0.000007,0.000004,-0.000015,-67.606687,0.000015,
2236,2983,-0.543881009345828,7.35748403582756,0.00979693201401233,0.006415,0.000073,0.004213,0.281857,0.044650,315.546213,24.828699,0.999451,0.992069,0.003721,0.391397,-0.000008,0.000017,-0.000011,0.000021,-0.000012,-69.707995,0.000021,
2191,2773,-1.48724285828711,2.79311741403633,-0.0353238107449556,0.006974,0.000056,0.000132,0.320606,0.021167,318.746499,24.483954,0.999307,0.989769,0.004117,0.394417,-0.000013,-0.000001,-0.000014,0.000009,-0.000022,-56.551336,0.000022,
2326,2803,1.44262678832658,3.45111237278165,-0.0222518754354724,0.006284,-0.000011,0.001249,0.284626,0.023253,318.092669,24.614708,0.999347,0.993289,0.003698,0.416926,-0.000010,-0.000001,-0.000006,0.000002,-0.000012,-64.266659,0.000013,
2266,3103,0.0872776291415249,9.96390386106804,0.0195846627064498,0.006596,0.000342,-0.000170,0.304633,0.037137,313.631725,25.103586,0.999713,0.993604,0.003367,0.387073,-0.000013,0.000005,-0.000023,0.000021,-0.000029,-55.586178,0.000030,
2176,2713,-1.8028442419255,1.48622632158772,-0.0246187028317308,0.006395,0.000381,-0.000640,0.296405,0.029500,319.834535,24.458280,0.999441,0.990256,0.003860,0.369145,-0.000017,0.000001,-0.000011,0.000006,-0.000023,-64.494338,0.000024,
2221,2713,-0.824536458426284,1.48718170920645,-0.0201613863661123,0.006462,-0.000012,0.004018,0.284385,0.047831,319.728745,24.398055,0.999219,0.990415,0.003892,0.448997,-0.000005,-0.000002,-0.000004,0.000001,-0.000008,-56.621699,0.000009,
2251,3028,-0.226246217602409,8.33585860399705,0.0036329699243538,0.006418,0.000416,-0.000430,0.297208,0.036872,314.743744,24.917961,0.999198,0.989995,0.003939,0.402645,-0.000009,0.000006,-0.000017,0.000017,-0.000020,-56.787451,0.000022,
2356,3058,2.049630322886,8.99453344355763,0.00966157855327765,0.006738,-0.000009,0.003245,0.298726,0.035504,314.205405,25.325555,0.999637,0.993140,0.003379,0.397186,-0.000014,0.000016,-0.000011,0.000020,-0.000018,-71.401722,0.000022,
2506,2518,5.42065646765787,-2.75748725906931,-0.0108735454345492,0.006081,-0.000356,0.005168,0.258576,0.016384,323.035607,23.620859,0.999388,0.987124,0.004667,0.393427,0.000008,0.000004,0.000009,0.000015,-0.000003,38.670108,0.000016,
2341,2083,1.9074205609205,-12.2837019714957,0.027220287242983,0.006391,-0.000139,0.005164,0.274541,0.046490,330.153438,22.946614,0.999388,0.981801,0.005219,0.290549,-0.000011,-0.000018,0.000010,-0.000004,-0.000026,35.524114,0.000032,
2311,2848,1.10925288859148,4.42776005846934,-0.00555653931917277,0.006282,0.000116,0.001996,0.282186,0.027036,317.506600,24.663470,0.999836,0.992873,0.003522,0.454428,-0.000008,0.000007,-0.000002,0.000007,-0.000008,-83.144200,0.000009,
2431,1993,3.8931861887587,-14.2625508029316,0.0330773134716082,0.006469,0.000306,0.000206,0.295040,0.029681,331.751386,22.123585,0.999125,0.976433,0.005908,0.216224,-0.000005,-0.000086,-0.000002,-0.000005,-0.000086,-1.446477,0.000102,
2206,2623,-1.13472322461576,-0.473922425280676,-0.0172354197049458,0.006617,0.000196,0.002454,0.296548,0.032188,321.265184,24.326025,0.999393,0.985334,0.004674,0.401993,-0.000001,-0.000002,-0.000004,0.000003,-0.000006,-42.890377,0.000006,
2281,3208,0.39528794045733,12.2413693700595,0.0442304128794149,0.006495,0.000216,0.002767,0.290143,0.033976,312.081758,25.384390,0.999838,0.995238,0.002831,0.346651,-0.000008,0.000007,-0.000003,0.000008,-0.000009,-80.291638,0.000009,
2296,3058,0.746445779730593,8.98962193306535,0.0102509271521285,0.006735,0.000391,-0.000976,0.313640,0.042306,314.256580,25.079132,0.999608,0.992637,0.003475,0.445626,-0.000010,0.000012,-0.000012,0.000018,-0.000015,-66.081644,0.000019,
2236,2803,-0.514249780136229,3.44697574557559,-0.0249006736697766,0.006566,0.000244,0.001575,0.297154,0.037740,318.203596,24.530054,0.999495,0.989540,0.004102,0.434770,-0.000005,0.000001,-0.000006,0.000005,-0.000009,-57.013947,0.000009,
2371,3013,2.38394905979628,8.01839578642613,0.0066389412691592,0.006405,0.000217,-0.000223,0.295595,0.033706,314.916171,25.255992,0.999536,0.991257,0.003789,0.395269,-0.000010,0.000012,-0.000008,0.000014,-0.000013,-70.891260,0.000016,
2116,2248,-3.03022978780598,-8.66455478610824,0.00289156681395752,0.006533,0.000340,-0.001193,0.303569,0.014827,327.819647,24.319929,0.998585,0.982884,0.005343,0.343763,-0.000018,0.000003,-0.000010,0.000007,-0.000022,-67.764972,0.000023,
2311,3118,1.06174533355333,10.2928217564988,0.0244594930872495,0.006533,0.000251,0.002553,0.292305,0.042761,313.358277,25.320136,0.999372,0.992031,0.003708,0.380840,-0.000007,0.000012,-0.000015,0.000020,-0.000016,-61.025892,0.000021,
2446,2128,4.19383361335192,-11.2985069798052,0.0215837220749791,0.006721,0.000849,-0.002904,0.318575,0.022600,329.531317,22.399307,0.999465,0.978389,0.005805,0.326872,-0.000011,-0.000035,-0.000009,-0.000008,-0.000037,-17.709254,0.000049,
2146,2608,-2.43750874716314,-0.801094199611541,-0.0284847304333766,0.006571,0.000410,-0.001797,0.307852,0.034576,321.624875,24.413390,0.999412,0.990255,0.004149,0.359789,-0.000006,-0.000002,-0.000004,0.000001,-0.000009,-55.892275,0.000010,
2326,2953,1.4164854242345,6.71337775179866,-0.00575234087222043,0.006733,0.001007,-0.000390,0.311578,0.061138,315.810978,25.041638,0.999099,0.988811,0.004416,0.368739,-0.000014,0.000005,-0.000006,0.000007,-0.000016,-72.901468,0.000016,
2311,1993,1.26890482640857,-14.2589288757734,0.0300886755825331,0.006142,0.000537,0.000426,0.279837,0.030825,331.639233,22.949060,0.999274,0.979562,0.005960,0.243978,-0.000065,-0.000061,-0.000021,-0.000042,-0.000084,-47.176986,0.000128,
2161,2623,-2.11377155817381,-0.473746306468335,-0.0268394306913819,0.006693,0.000502,0.000376,0.306878,0.042663,321.338058,24.419898,0.999552,0.991487,0.003857,0.357306,-0.000011,-0.000002,-0.000010,0.000005,-0.000017,-57.565427,0.000018,
2491,2458,5.10657721693684,-4.06927618317015,-0.00305486040883807,0.006338,-0.000291,0.005542,0.269078,0.027788,324.041787,23.443678,0.999306,0.985037,0.004634,0.370651,0.000040,-0.000024,0.000021,0.000046,-0.000030,16.831698,0.000047,
2356,2863,2.0839921535732,4.75838909659917,-0.0235279762043206,0.006566,0.000096,0.002459,0.293357,0.039912,317.107030,24.784323,0.999565,0.990775,0.003824,0.445966,-0.000016,0.000013,-0.000005,0.000014,-0.000016,-80.368466,0.000018,
2206,2833,-1.17013235256414,4.09647848182729,-0.00734575659242864,0.006729,-0.000389,0.003084,0.299839,0.009540,317.940673,24.559349,0.999307,0.990463,0.003928,0.382663,-0.000009,0.000017,0.000000,0.000017,-0.000009,-89.689170,0.000017,
2191,2563,-1.45038288317596,-1.78377404192847,-0.00728756313287704,0.006313,0.000200,0.002195,0.283382,0.032488,322.351237,24.228453,0.999434,0.990046,0.003989,0.451463,-0.000004,0.000007,-0.000002,0.000007,-0.000005,-77.695402,0.000007,
2311,2638,1.14779077325533,-0.14409804108552,-0.0132146665587243,0.006682,0.000132,0.002066,0.299999,0.036095,320.876416,24.244229,0.999336,0.988876,0.004027,0.429465,-0.000005,0.000011,-0.000009,0.000015,-0.000009,-65.023558,0.000015,
2476,2338,4.80460383485824,-6.69488378809391,0.00729097785927024,0.006262,-0.000093,0.003964,0.271662,0.030631,326.036866,23.062218,0.998680,0.981960,0.005483,0.326332,0.000000,0.000042,0.000011,0.000044,-0.000002,76.270125,0.000050,
2341,2983,1.73741667361915,7.36478608532165,-0.000677227592461804,0.006885,-0.000042,-0.000018,0.316865,0.020401,315.364319,25.085942,0.999785,0.995428,0.002949,0.391114,-0.000017,0.000010,-0.000007,0.000012,-0.000019,-76.247127,0.000019,
2101,2203,-3.34986025024345,-9.6492320348087,0.00612764095711782,0.006513,0.000396,0.001029,0.296072,0.041384,328.630678,24.374261,0.998448,0.981205,0.005474,0.372576,-0.000004,0.000012,0.000011,0.000018,-0.000010,63.122100,0.000018,
2431,2008,3.89052236533437,-13.934116768479,0.0335299619241596,0.006526,0.000557,-0.002403,0.307377,0.028580,331.526533,22.076186,0.999111,0.976292,0.006035,0.316092,-0.000002,-0.000057,0.000011,0.000000,-0.000059,11.245636,0.000068,
2086,2353,-3.69996104589236,-6.36805175824691,-0.00453166139550376,0.006826,0.000911,-0.002893,0.322275,0.038532,326.226170,24.468456,0.998593,0.981721,0.005323,0.362731,-0.000020,-0.000023,0.000002,-0.000019,-0.000024,26.923728,0.000043,
2341,3238,1.69076106020675,12.8980386324183,0.0239812987980486,0.006520,0.000169,0.001060,0.296859,0.040981,311.376052,25.700293,0.999570,0.991839,0.003417,0.402233,-0.000002,0.000010,-0.000005,0.000012,-0.000004,-71.173090,0.000012,
2461,2188,4.5076554371888,-9.98014569362881,-0.00272271826628412,0.007051,0.000253,0.000393,0.321248,0.019491,328.393936,22.522631,0.999643,0.987766,0.004620,0.343735,-0.000003,-0.000010,-0.000012,0.000006,-0.000019,-37.533882,0.000020,
2386,2968,2.71707091471513,7.04287073510717,-0.00938527231295438,0.006421,-0.000383,0.005308,0.276078,0.011763,315.505418,25.207233,0.999546,0.991145,0.003862,0.338812,-0.000010,0.000007,-0.000004,0.000008,-0.000011,-78.295388,0.000011,
2131,2503,-2.7463773874654,-3.09265741167209,-0.0248287964366796,0.006727,-0.000034,0.001521,0.304728,0.016484,323.412932,24.245709,0.999217,0.986619,0.004586,0.478329,-0.000001,-0.000005,-0.000017,0.000014,-0.000020,-41.004365,0.000020,
2401,3163,3.00819146476224,11.2761273793197,0.0287461019497073,0.006129,-0.000097,0.003006,0.271269,0.035463,312.640540,25.780262,0.999645,0.993466,0.003284,0.407063,0.000002,0.000018,-0.000004,0.000019,0.000001,-76.113263,0.000023,
2236,2818,-0.516266600628544,3.77302961025143,-0.0190561993893539,0.006579,0.000817,-0.001172,0.306868,0.054128,318.018014,24.556538,0.999533,0.990546,0.003955,0.445556,-0.000004,0.000016,-0.000002,0.000016,-0.000004,-84.598899,0.000017,
2296,3073,0.74421198282764,9.31531961865792,0.0194051540635769,0.006415,0.000403,-0.003214,0.306496,0.027679,314.080777,25.188087,0.999666,0.994184,0.003320,0.350863,-0.000011,0.000010,-0.000011,0.000015,-0.000016,-66.928648,0.000018,
2176,2548,-1.77474237390492,-2.11010279095073,-0.018762557042578,0.006563,-0.000305,0.002524,0.293770,0.008522,322.556084,24.264683,0.999244,0.987900,0.004315,0.399965,-0.000009,0.000004,-0.000003,0.000005,-0.000010,-77.377245,0.000010,
2176,2728,-1.80557572485923,1.81195470601831,-0.0275411383370283,0.006555,-0.000024,0.001808,0.296042,0.015012,319.566782,24.390028,0.999453,0.990384,0.003933,0.435620,-0.000019,0.000000,-0.000013,0.000007,-0.000025,-63.343762,0.000026,
2146,2368,-2.39641995222989,-6.04117289304514,-0.00028485087068475,0.006780,-0.000225,0.002670,0.303295,0.016990,325.736080,24.216168,0.999104,0.987504,0.004453,0.393611,-0.000019,-0.000010,-0.000018,0.000004,-0.000033,-52.101771,0.000037,
2506,2533,5.41805159453265,-2.42895807959306,-0.0120556058662373,0.006605,-0.000070,0.004135,0.286714,0.026501,322.809617,23.740599,0.999541,0.988648,0.004311,0.345966,0.000013,-0.000003,0.000026,0.000033,-0.000022,36.319782,0.000033,
2266,3118,0.0849075625241369,10.2887554556355,0.0288068143057103,0.006483,0.000349,0.002820,0.289557,0.048809,313.448677,25.117655,0.999681,0.993728,0.003331,0.408970,-0.000013,0.000002,-0.000022,0.000018,-0.000029,-54.129213,0.000029,
2281,2998,0.430444326795808,7.68700080532844,0.00200140500129464,0.006539,0.000252,0.003542,0.289356,0.046539,315.161693,24.985142,0.999350,0.989777,0.003946,0.384510,-0.000009,0.000018,-0.000008,0.000020,-0.000011,-75.566723,0.000020,
2161,2398,-2.07430182382159,-5.38517867695423,-0.00604535881734591,0.007176,0.000855,-0.004089,0.342453,0.052269,325.187118,24.143920,0.998869,0.987195,0.004617,0.474392,-0.000019,-0.000011,-0.000020,0.000005,-0.000035,-51.267047,0.000038,
2356,2143,2.22383213757179,-10.9674215622308,0.0162532593242304,0.006907,0.000184,0.000521,0.314476,0.036144,329.137305,22.953883,0.998950,0.979590,0.005525,0.347932,-0.000026,-0.000019,-0.000003,-0.000017,-0.000027,-68.467396,0.000045,
2251,2878,-0.200757523595612,5.07828171251069,-0.0150509491875255,0.006722,-0.000166,0.002692,0.300517,0.016019,317.037341,24.701556,0.999616,0.990917,0.003702,0.370791,-0.000010,0.000014,0.000000,0.000014,-0.000010,89.571895,0.000014,
2131,2278,-2.70821809169393,-8.0097068425279,0.00780934929758814,0.006688,-0.000913,0.004979,0.291879,-0.019601,327.302902,24.232297,0.998693,0.983350,0.005333,0.344878,-0.000006,-0.000013,-0.000013,0.000004,-0.000023,-37.459157,0.000025,
2326,3178,1.3768534522464,11.5956257064722,0.0212321761873113,0.007067,0.000439,-0.000935,0.328976,0.037748,312.375064,25.483029,0.999716,0.994217,0.003300,0.406280,-0.000003,0.000015,-0.000005,0.000016,-0.000005,-75.097151,0.000017,
2326,2068,1.58216012451294,-12.6136824615762,0.01939012409008,0.006447,-0.000083,0.003123,0.284365,0.020311,330.342814,22.837231,0.999421,0.982975,0.005070,0.429282,-0.000023,-0.000021,0.000013,-0.000010,-0.000035,47.212149,0.000047,
2101,2413,-3.38356789599272,-5.05830436404163,-0.0015525038618307,0.006437,-0.000061,0.003803,0.284753,0.022739,325.173753,24.401397,0.999231,0.986689,0.004509,0.373456,-0.000013,-0.000022,-0.000004,-0.000011,-0.000024,-21.990089,0.000036,
2356,3073,2.04727427368232,9.32003220801109,0.0136604820555135,0.006840,0.000158,0.002152,0.307373,0.037958,314.002154,25.366946,0.999612,0.993190,0.003361,0.395991,-0.000009,0.000015,-0.000011,0.000019,-0.000014,-69.115483,0.000020,
2371,3028,2.38078076151882,8.34487640438909,0.00291639447010539,0.006290,0.000546,-0.001654,0.295565,0.040022,314.639322,25.321938,0.999479,0.990637,0.003923,0.376107,-0.000009,0.000010,-0.000012,0.000016,-0.000015,-64.172401,0.000018,
2116,2458,-3.06451952519333,-4.07536283161266,-0.00750820409132302,0.006608,-0.000268,0.002898,0.295116,0.014626,324.339296,24.366720,0.999357,0.988749,0.004370,0.371347,-0.000018,-0.000026,-0.000016,-0.000005,-0.000038,-37.744583,0.000048,
2311,2653,1.14493093539895,0.183088516600911,-0.017637494030339,0.006706,0.000182,-0.000734,0.310661,0.008260,320.606566,24.288045,0.999462,0.989849,0.003930,0.390614,-0.000006,0.000010,-0.000005,0.000011,-0.000007,-73.348544,0.000011,
2461,2203,4.50360140752896,-9.6513447678685,-0.00618171735231954,0.006389,0.000083,0.001264,0.287685,0.019182,328.089097,22.539959,0.999210,0.982543,0.005231,0.383416,-0.000003,-0.000013,-0.000012,0.000005,-0.000021,-33.275907,0.000022,
2341,3253,1.68689511235537,13.2233922643791,0.0144858507326262,0.006414,-0.000097,0.003716,0.282609,0.032144,311.036048,25.706369,0.999578,0.992572,0.003326,0.422524,-0.000002,0.000009,-0.000002,0.000010,-0.000003,-79.620555,0.000010,
2266,2893,0.123052816008087,5.40497081483442,-0.0104692971266331,0.006797,0.000224,0.000956,0.309725,0.028724,316.813505,24.746915,0.999491,0.990818,0.003822,0.387810,-0.000015,0.000005,0.000005,0.000006,-0.000016,77.484673,0.000016,
2281,3223,0.392356408152093,12.5657997856109,0.0457964721895792,0.006283,0.000220,0.004094,0.275987,0.040813,311.835228,25.341658,0.999825,0.994927,0.002980,0.422864,-0.000009,0.000011,-0.000005,0.000012,-0.000010,-77.773508,0.000013,
2341,2098,1.90409944491227,-11.9547554135827,0.0222625738124975,0.006355,-0.000468,0.006562,0.267964,0.033175,329.864283,22.931179,0.999549,0.982992,0.005004,0.332773,-0.000018,-0.000017,0.000003,-0.000014,-0.000021,47.767279,0.000035,
2491,2473,5.10384771186907,-3.74093036259909,-0.00770548268775428,0.006562,0.000405,-0.000676,0.303434,0.023398,323.793665,23.508592,0.999428,0.984965,0.004631,0.361561,0.000025,-0.000034,0.000014,0.000028,-0.000037,12.664338,0.000039,
2221,2728,-0.826928593919238,1.81339953249008,-0.0180957136594202,0.006470,-0.000100,0.003128,0.287599,0.033689,319.505763,24.414878,0.999230,0.990446,0.003859,0.437210,-0.000008,-0.000007,-0.000010,0.000002,-0.000017,-47.172856,0.000019,
2236,2998,-0.546400780709302,7.68268546244951,0.00969073186308833,0.006663,-0.000013,0.005762,0.288234,0.037754,315.307217,24.803445,0.999463,0.991116,0.003794,0.430256,-0.000008,0.000018,-0.000010,0.000021,-0.000011,-70.740988,0.000021,
2506,2548,5.41619253618368,-2.10251747209937,0.00202717877976966,0.006552,-0.000214,0.002857,0.289141,0.004123,322.686368,23.841688,0.999783,0.990891,0.003873,0.284046,0.000008,-0.000012,0.000021,0.000021,-0.000025,32.623798,0.000027,
2206,2848,-1.17338408570168,4.42388413213972,-0.0190503651800782,0.006611,0.000268,-0.000820,0.307039,0.023770,317.605421,24.587344,0.999302,0.991045,0.003776,0.385463,-0.000009,0.000013,0.000003,0.000014,-0.000010,82.102231,0.000014,
2206,2638,-1.1373545870989,-0.146817336608308,-0.0207375883837813,0.006658,0.000485,0.000360,0.305206,0.036415,321.001263,24.331799,0.999346,0.986732,0.004545,0.417829,-0.000003,0.000003,-0.000004,0.000006,-0.000005,-63.368151,0.000006,
2191,2578,-1.45251549306198,-1.45681359332419,-0.0113865149811545,0.007037,0.000036,0.002666,0.315157,0.022312,322.105959,24.209306,0.999485,0.991162,0.003774,0.475773,-0.000008,0.000003,-0.000007,0.000007,-0.000011,-62.763766,0.000011,
2311,2008,1.26665036536154,-13.9291942580438,0.0250979098178732,0.006618,0.001212,-0.004661,0.319189,0.027862,331.395931,22.958984,0.999280,0.980697,0.005828,0.267093,-0.000053,-0.000040,0.000000,-0.000040,-0.000053,-89.568156,0.000093,
2446,2143,4.18985192881279,-10.9686108905679,0.0131725323154797,0.006704,0.000343,0.000307,0.305699,0.018792,329.205953,22.442733,0.999261,0.978750,0.005803,0.335288,-0.000010,-0.000021,-0.000007,-0.000007,-0.000024,-26.229685,0.000033,
2161,2638,-2.11633489622504,-0.147298062158093,-0.0267589258598377,0.006801,-0.000105,0.003060,0.303438,0.024218,321.092469,24.418197,0.999755,0.993647,0.003465,0.351134,-0.000009,0.000001,-0.000009,0.000007,-0.000014,-58.450665,0.000014,
2251,3043,-0.228166887427097,8.66166241472554,0.00948181182678809,0.006865,0.000361,0.001027,0.313023,0.042810,314.563283,24.987353,0.999510,0.991806,0.003595,0.361411,-0.000008,0.000008,-0.000020,0.000022,-0.000021,-55.775282,0.000025,
2341,2998,1.73457184226128,7.69070310961454,0.00453960669312892,0.006798,0.000035,0.004323,0.297816,0.046038,315.143643,25.132613,0.999883,0.997329,0.002728,0.406284,-0.000018,0.000011,-0.000010,0.000014,-0.000021,-72.784523,0.000021,
2476,2353,4.80187025786352,-6.36675711849982,0.00487395052687134,0.006661,-0.000029,0.002428,0.295816,0.039846,325.797937,23.071918,0.998839,0.983584,0.005446,0.384327,0.000012,0.000049,0.000013,0.000053,0.000008,71.921251,0.000066,
2341,2803,1.76941286423525,3.45190073035468,-0.015909511261782,0.006541,-0.000227,0.004653,0.284439,0.027459,318.140539,24.675742,0.999512,0.992794,0.003588,0.373316,-0.000009,0.000002,-0.000005,0.000004,-0.000011,-70.342702,0.000011,
2191,2788,-1.49000715380697,3.11888817755185,-0.0292254385587398,0.006472,0.000182,0.001895,0.292010,0.028243,318.525266,24.487769,0.998838,0.987461,0.004633,0.412077,-0.000013,-0.000003,-0.000010,0.000004,-0.000020,-58.154152,0.000021,
2146,2383,-2.39863148092874,-5.71323881310676,-0.00172684035317161,0.006765,0.000483,-0.002507,0.318514,0.029500,325.497086,24.220797,0.998768,0.987307,0.004537,0.410997,-0.000019,-0.000010,-0.000017,0.000003,-0.000032,-51.929745,0.000036,
2296,3088,0.74159878622331,9.64019335791199,0.0189215274830872,0.006831,0.000305,0.000037,0.314625,0.032085,313.839847,25.143639,0.999620,0.993451,0.003434,0.428743,-0.000013,0.000007,-0.000019,0.000019,-0.000025,-58.804092,0.000026,
2356,2878,2.08184932545948,5.08396784043143,-0.0160856100272326,0.006592,-0.000090,0.001117,0.299202,0.022053,316.930825,24.830511,0.999536,0.991772,0.003722,0.420066,-0.000017,0.000005,-0.000002,0.000005,-0.000017,-85.191560,0.000018,
2341,3268,1.68316761457601,13.5495825110262,0.00280112710413505,0.006463,0.000206,0.004373,0.282697,0.047999,310.691369,25.757980,0.999598,0.993087,0.003217,0.422017,-0.000002,0.000009,0.000001,0.000009,-0.000002,87.052428,0.000010,
2116,2263,-3.03284486379173,-8.33650330496876,0.00137705238029184,0.006658,-0.000090,0.002893,0.297122,0.016149,327.559298,24.303457,0.998689,0.983785,0.005250,0.367565,-0.000020,-0.000003,-0.000009,0.000000,-0.000024,-67.383813,0.000028,
2236,2833,-0.518997413750892,4.09942396634769,-0.0164891605247703,0.006569,0.000059,0.002454,0.294444,0.046916,317.782871,24.616784,0.999560,0.991113,0.003713,0.398943,-0.000006,0.000015,0.000003,0.000016,-0.000006,82.522211,0.000016,
2176,2563,-1.77733768375591,-1.78210002026279,-0.0203487148493764,0.006524,0.000248,0.001506,0.295366,0.025864,322.301072,24.331320,0.999153,0.987065,0.004427,0.363968,-0.000008,0.000009,-0.000006,0.000011,-0.000010,-72.474977,0.000012,
2431,2023,3.88673822060723,-13.6039098839391,0.0300658907845559,0.006273,-0.000125,0.000811,0.283760,0.005124,331.232236,22.174160,0.999075,0.976910,0.005834,0.248480,-0.000001,-0.000045,0.000004,-0.000001,-0.000046,5.146229,0.000053,
2356,3268,2.00907853103919,13.55098110094,0.00530931858031636,0.006504,0.000128,0.003536,0.287388,0.049489,310.715221,25.849381,0.999667,0.993051,0.003250,0.414323,0.000000,0.000016,0.000001,0.000016,0.000000,85.612263,0.000018,
2356,3088,2.04434599474624,9.64542460867634,0.0169246518440218,0.006497,-0.000018,0.001946,0.292203,0.020961,313.769017,25.416814,0.999594,0.992588,0.003469,0.367087,-0.000005,0.000014,-0.000016,0.000023,-0.000014,-60.762058,0.000023,
2221,2923,-0.859390395862633,6.05424071318537,-0.00454632305468294,0.006855,0.000557,0.000105,0.315561,0.050845,316.473711,24.715284,0.999573,0.992375,0.003622,0.397694,-0.000010,0.000015,0.000001,0.000015,-0.000010,88.238464,0.000015,
2506,2563,5.41373227425271,-1.77689875198276,0.00579949976452099,0.007328,-0.000626,0.008266,0.303691,0.022381,322.489425,23.738715,0.999809,0.991485,0.003797,0.467273,0.000010,-0.000009,0.000015,0.000018,-0.000018,29.529371,0.000021,
2311,2863,1.10663629573818,4.75476687672209,-0.00705939034543235,0.006581,0.000018,0.002379,0.294582,0.024651,317.261594,24.753620,0.999676,0.992238,0.003634,0.393677,-0.000011,0.000009,-0.000004,0.000010,-0.000012,-77.987420,0.000013,
2461,2218,4.50163507912359,-9.32355369562028,0.00193159269133503,0.006799,0.000067,0.001425,0.305831,0.034057,327.932682,22.575664,0.999441,0.985851,0.005039,0.418919,0.000000,-0.000024,-0.000005,0.000001,-0.000025,-12.399252,0.000028,
2146,2623,-2.44032320231141,-0.474262543923992,-0.0257347910704198,0.006453,0.000278,0.004407,0.283628,0.044282,321.380585,24.436755,0.999618,0.992190,0.003812,0.354813,-0.000004,0.000000,-0.000008,0.000006,-0.000010,-52.445597,0.000010,
2281,3238,0.388741855382769,12.891992949373,0.0333380368471126,0.006305,0.000101,0.003858,0.277784,0.038066,311.486303,25.395391,0.999825,0.993883,0.003174,0.392756,-0.000009,0.000004,-0.000005,0.000006,-0.000011,-70.319272,0.000011,
2341,2113,1.90208545534277,-11.6263454012373,0.026517916604007,0.006570,-0.000210,0.003338,0.289112,0.017825,329.679479,22.974994,0.999527,0.983465,0.004972,0.313117,-0.000022,-0.000017,0.000002,-0.000016,-0.000023,70.534128,0.000039,
2326,3193,1.37467873954523,11.9196456062907,0.034208199821137,0.006950,0.000248,0.002128,0.312902,0.030758,312.222494,25.478001,0.999744,0.994993,0.003075,0.437460,-0.000003,0.000015,-0.000005,0.000016,-0.000004,-74.882908,0.000017,
2251,2893,-0.203067453679079,5.40361315643743,-0.00944802857736704,0.006653,-0.000234,0.002324,0.298572,0.019329,316.838125,24.692135,0.999640,0.991808,0.003601,0.406286,-0.000014,0.000009,0.000001,0.000009,-0.000014,86.440980,0.000014,
2386,2983,2.71494412360953,7.36818691848699,-0.000449065907730528,0.006656,-0.000176,0.007460,0.279302,0.034872,315.338435,25.223899,0.999504,0.990497,0.004025,0.387989,-0.000012,0.000012,-0.000004,0.000013,-0.000013,-80.582034,0.000015,
2311,3133,1.05873325724296,10.6180320999038,0.0252292816920203,0.006401,0.000040,0.004647,0.278971,0.029529,313.106040,25.343903,0.999500,0.992811,0.003530,0.374811,-0.000010,0.000012,-0.000014,0.000019,-0.000016,-64.645155,0.000020,
2371,3043,2.37821516591999,8.67002076594752,0.00991589254272185,0.006462,0.000235,0.003597,0.284773,0.060148,314.441946,25.325950,0.999619,0.992068,0.003606,0.432623,-0.000010,0.000020,-0.000012,0.000024,-0.000015,-70.653355,0.000024,
2176,2743,-1.80730603672924,2.1378294492394,-0.0133474930416355,0.006595,-0.000231,0.004746,0.288728,0.028388,319.434413,24.448489,0.999574,0.990909,0.003946,0.402579,-0.000016,-0.000005,-0.000019,0.000009,-0.000030,-52.694385,0.000031,
2371,2188,2.54243378300074,-9.98122879570573,0.0144995832475843,0.006589,-0.000067,0.000365,0.300417,0.009611,328.389072,22.998792,0.999120,0.982141,0.005214,0.323950,-0.000027,-0.000024,-0.000012,-0.000014,-0.000037,-49.195026,0.000053,
2266,3133,0.082403872773515,10.6130804240567,0.0342408305440927,0.006273,0.000555,0.002543,0.280869,0.052122,313.240557,25.070895,0.999653,0.995120,0.003119,0.483603,-0.000016,0.000002,-0.000019,0.000014,-0.000028,-57.737729,0.000028,
2131,2293,-2.71123771342707,-7.68063968665562,-0.000173131263750292,0.006421,-0.000276,0.002249,0.288042,0.005619,326.990634,24.230303,0.998768,0.984729,0.005088,0.380341,-0.000002,-0.000013,-0.000009,0.000003,-0.000018,-30.212812,0.000020,
2161,2413,-2.07798061964127,-5.05696745973005,-0.00615809301740455,0.006424,-0.000024,0.002403,0.287754,0.036727,324.889250,24.225613,0.998858,0.986619,0.004767,0.388862,-0.000019,-0.000015,-0.000025,0.000007,-0.000042,-47.311359,0.000045,
2326,2968,1.41341013717672,7.03966313446325,-0.00540014339833306,0.006533,0.000543,0.000923,0.297678,0.045812,315.555002,25.122060,0.999708,0.995345,0.002978,0.306716,-0.000018,0.000009,-0.000006,0.000010,-0.000019,-78.046922,0.000019,
2116,2473,-3.06704948167414,-3.7472738063606,-0.0125429542159168,0.006705,0.000020,0.001351,0.304239,0.011540,324.063911,24.398255,0.999410,0.989192,0.004200,0.341745,-0.000014,-0.000021,-0.000007,-0.000010,-0.000025,-31.384772,0.000036,
2326,2083,1.57913242716144,-12.2814911197521,0.0156623146655193,0.006498,0.000189,0.003131,0.286793,0.059844,330.071030,23.073027,0.999479,0.983847,0.005212,0.271088,-0.000022,-0.000018,0.000012,-0.000008,-0.000032,50.479638,0.000042,
2206,2863,-1.17542768678777,4.74952826962659,-0.0126659743048663,0.006605,0.000778,-0.002401,0.311991,0.038879,317.419628,24.592358,0.999340,0.991941,0.003574,0.412088,-0.000011,0.000016,-0.000002,0.000016,-0.000011,-86.047902,0.000016,
2221,2743,-0.830388591542683,2.14070622610444,-0.0265809597526072,0.006232,-0.000303,0.003336,0.275906,0.013899,319.179348,24.457641,0.999307,0.989225,0.004106,0.393928,-0.000010,-0.000011,-0.000016,0.000005,-0.000026,-43.874147,0.000028,
2311,2023,1.26387949587731,-13.6015468775477,0.0285688590203677,0.006657,0.000118,-0.000185,0.305378,-0.002555,331.170747,22.908098,0.999153,0.982257,0.005428,0.323212,-0.000049,-0.000037,-0.000002,-0.000037,-0.000049,-79.954183,0.000087,
2191,2593,-1.45586643004443,-1.128510356549,-0.015896913787401,0.006586,0.000028,0.003241,0.292690,0.031333,321.802291,24.296037,0.999111,0.988339,0.004272,0.413556,-0.000011,0.000002,-0.000004,0.000003,-0.000012,-74.236352,0.000012,
2341,3283,1.68007576755128,13.8748775803476,-0.0052808619618645,0.006723,0.000171,0.003086,0.299204,0.040104,310.393773,25.775559,0.999631,0.993649,0.003139,0.431593,-0.000003,-0.000003,0.000001,-0.000002,-0.000004,47.116341,0.000007,
2356,3283,2.00535822678954,13.8764693867307,-0.00544651921956074,0.006384,0.000086,0.002414,0.285760,0.037405,310.376966,25.874554,0.999588,0.992696,0.003368,0.414546,-0.000001,0.000000,0.000000,0.000000,-0.000001,72.936127,0.000001,
2491,2488,5.10145710322888,-3.41378262525601,-0.001922420436415,0.006777,0.000311,-0.000578,0.312905,0.034674,323.608045,23.549094,0.999604,0.985685,0.004417,0.392376,0.000026,-0.000047,0.000006,0.000026,-0.000048,4.302198,0.000048,
2476,2368,4.79831303459187,-6.03686853394514,-0.00277824883414723,0.006724,0.000340,0.001402,0.302815,0.046311,325.497203,23.200378,0.999553,0.986831,0.004891,0.320971,0.000010,0.000033,0.000017,0.000042,0.000001,62.299227,0.000050,
2281,3013,0.427348975395869,8.01286909747234,-0.00104513319178068,0.006376,0.000217,0.003290,0.282732,0.054034,314.884530,24.992700,0.999286,0.989141,0.004011,0.411527,-0.000010,0.000016,-0.000008,0.000018,-0.000012,-74.497979,0.000019,
2446,2158,4.18707532774917,-10.6402654311964,0.0194276148038739,0.006652,0.000071,0.003106,0.292830,0.028890,329.003106,22.493728,0.999291,0.979941,0.005483,0.349253,-0.000011,-0.000030,-0.000013,-0.000004,-0.000037,-26.459183,0.000045,
2311,2668,1.14183703639549,0.511292909525423,-0.022081409435259,0.006582,0.000438,-0.002485,0.311081,0.029873,320.325438,24.381045,0.999788,0.992380,0.003573,0.351995,-0.000004,0.000022,-0.000008,0.000024,-0.000006,-73.357764,0.000025,
2131,2518,-2.74830555428792,-2.7662323080374,-0.0116546271221409,0.006577,-0.000435,0.004697,0.288199,0.010214,323.263879,24.309104,0.999252,0.986794,0.004521,0.415127,0.000002,-0.000011,-0.000009,0.000007,-0.000015,-26.176730,0.000015,
2431,2038,3.88400452707707,-13.2751169839087,0.0354178161667846,0.006327,-0.000039,0.003849,0.275106,0.026866,331.026534,22.202933,0.999232,0.977032,0.005722,0.294785,-0.000001,-0.000041,-0.000004,-0.000001,-0.000042,-6.125034,0.000049,
2101,2428,-3.38618622565916,-4.73053368419148,-0.00149798080536812,0.006438,-0.000245,0.007780,0.273155,0.031031,324.920447,24.423927,0.999469,0.987680,0.004324,0.362019,-0.000011,-0.000025,0.000007,-0.000009,-0.000028,22.942699,0.000038,
2296,3103,0.739114124188887,9.96588413561771,0.0211439082053175,0.006870,0.000297,-0.000905,0.319587,0.021711,313.617982,25.210250,0.999391,0.991434,0.003850,0.380602,-0.000013,0.000009,-0.000019,0.000021,-0.000024,-59.905846,0.000026,
2266,2908,0.120252451914542,5.73137792553214,-0.00749959216193474,0.006432,0.000731,0.000326,0.295301,0.061131,316.579036,24.792312,0.999623,0.992396,0.003567,0.400053,-0.000015,0.000007,0.000003,0.000008,-0.000016,81.517390,0.000016,
2326,2818,1.44049135784018,3.77743947070014,-0.0183106296357209,0.006540,0.000310,-0.000129,0.301294,0.036946,317.897860,24.655708,0.999520,0.991619,0.003732,0.424062,-0.000010,0.000008,-0.000006,0.000009,-0.000012,-72.590608,0.000012,
2401,3178,3.00545784606754,11.6017902218645,0.0248517370353625,0.006433,0.000449,0.000544,0.294380,0.041799,312.384906,25.810932,0.999563,0.993271,0.003375,0.427061,0.000004,0.000020,-0.000004,0.000021,0.000003,-75.447238,0.000026,
2281,3253,0.384937661556069,13.2180765138428,0.0177017434168647,0.006444,0.000012,0.004638,0.281566,0.035292,311.112685,25.426842,0.999772,0.993042,0.003326,0.384822,-0.000009,0.000005,-0.000004,0.000006,-0.000010,-74.782379,0.000010,
2251,3058,-0.229376406854055,8.98539114530903,0.0292352366458886,0.006889,0.000641,0.000636,0.315554,0.056012,314.486716,24.951882,0.999650,0.993198,0.003313,0.432576,-0.000004,0.000005,-0.000021,0.000022,-0.000021,-51.168406,0.000025,
2356,2158,2.22125009890472,-10.6384028260822,0.0204995055876225,0.006761,0.000522,-0.000403,0.311194,0.028911,328.927337,23.060998,0.999238,0.982393,0.005271,0.275136,-0.000028,-0.000024,-0.000011,-0.000015,-0.000037,-50.615372,0.000054,
2356,2893,2.07935714052183,5.41040361527035,-0.00886811495860229,0.006280,0.000423,-0.000324,0.290184,0.052947,316.737115,24.908538,0.999534,0.991905,0.003644,0.411635,-0.000019,-0.000003,-0.000002,-0.000003,-0.000019,-81.757111,0.000024,
2206,2653,-1.14032059139629,0.180289891816805,-0.0255593344746785,0.006755,0.000245,0.002535,0.302713,0.030856,320.715183,24.341655,0.999331,0.986415,0.004661,0.419778,-0.000004,0.000006,-0.000002,0.000006,-0.000004,-77.398984,0.000006,
2341,2128,1.89855384532686,-11.2967386874497,0.0193976730442955,0.006270,0.000015,0.001833,0.280759,0.002340,329.370070,23.010137,0.999599,0.986852,0.004577,0.302277,-0.000022,-0.000013,0.000003,-0.000012,-0.000023,75.168675,0.000035,
2506,2578,5.40877451431171,-1.44588534026177,-0.0139096895237572,0.006720,0.000245,0.003002,0.296588,0.042128,322.071873,23.928710,0.999609,0.988118,0.004429,0.359696,0.000012,0.000008,0.000014,0.000025,-0.000004,41.576590,0.000026,
2236,3013,-0.549202104768796,8.00878478674923,0.00738208002712781,0.006484,0.000272,0.002993,0.289076,0.040718,315.043708,24.840388,0.999325,0.989268,0.004057,0.416616,-0.000007,0.000015,-0.000009,0.000018,-0.000010,-69.584403,0.000018,
2251,2908,-0.204463302589833,5.72954771638961,0.00402237870804356,0.006763,0.000319,-0.000485,0.313117,0.052840,316.720519,24.768009,0.999744,0.993182,0.003347,0.386666,-0.000015,0.000009,0.000001,0.000009,-0.000015,88.511492,0.000015,
2446,2173,4.1846028237037,-10.3109820060633,0.0232299884762028,0.006726,0.000204,0.001188,0.303414,0.021065,328.802886,22.626669,0.999536,0.984683,0.004794,0.263071,-0.000019,-0.000019,-0.000014,-0.000005,-0.000033,-44.598625,0.000041,
2491,2503,5.09732392207572,-3.08553227542044,-0.00660094186127935,0.006176,0.000242,0.000039,0.282993,0.016173,323.295180,23.629726,0.999540,0.986726,0.004454,0.353286,0.000015,-0.000034,-0.000002,0.000015,-0.000034,-2.018813,0.000034,
2341,3013,1.7319470188979,8.01621736453274,0.00728547370397337,0.006641,0.000245,0.002411,0.297379,0.045260,314.921181,25.155329,0.999667,0.993283,0.003379,0.418497,-0.000018,0.000011,-0.000011,0.000014,-0.000022,-71.030896,0.000022,
2371,2203,2.53993514383404,-9.65245694366664,0.0121808576341209,0.007127,0.000049,0.000296,0.325353,0.019672,328.152570,23.012641,0.998862,0.980093,0.005532,0.363905,-0.000025,-0.000018,-0.000012,-0.000009,-0.000034,-52.821029,0.000045,
2326,3208,1.37189684420792,12.2449279592083,0.0383444071603094,0.006737,0.000401,0.003083,0.299862,0.040878,311.998137,25.523157,0.999679,0.993583,0.003236,0.435445,-0.000003,0.000014,-0.000003,0.000014,-0.000004,-79.905125,0.000015,
2236,2848,-0.522108144319699,4.42578656083873,-0.0245439108216488,0.006649,-0.000061,0.002151,0.299099,0.032032,317.476108,24.606399,0.999436,0.991352,0.003704,0.415435,-0.000004,0.000012,0.000007,0.000015,-0.000007,69.181066,0.000015,
2356,3103,2.04143311275049,9.97155188767283,0.0160937634419156,0.006557,0.000154,0.002671,0.292583,0.043979,313.516487,25.472232,0.999655,0.992235,0.003564,0.372595,-0.000001,0.000019,-0.000013,0.000025,-0.000008,-63.705098,0.000026,
2371,3058,2.37532597146479,8.99601946742308,0.00928741427145496,0.006589,-0.000177,0.004743,0.286343,0.036705,314.192827,25.405711,0.999669,0.993433,0.003326,0.369291,-0.000011,0.000020,-0.000011,0.000023,-0.000014,-72.423623,0.000023,
2176,2578,-1.77983521593591,-1.45578872958099,-0.0212771082875634,0.006569,0.000198,0.000997,0.298986,0.019101,322.054452,24.277703,0.999241,0.988382,0.004209,0.424130,-0.000014,0.000002,-0.000012,0.000009,-0.000021,-61.263067,0.000021,
2311,2878,1.10316460350651,5.0819624735659,-0.0160701599228332,0.006442,0.000096,0.000858,0.293475,0.025364,316.940183,24.807621,0.999511,0.990694,0.003897,0.372468,-0.000014,0.000002,-0.000002,0.000002,-0.000015,-83.253444,0.000016,
2281,3268,0.381956665381928,13.5433784043241,0.0101489057402091,0.006684,0.000394,0.003656,0.296142,0.053373,310.817700,25.415771,0.999799,0.993451,0.003254,0.440420,-0.000006,0.000007,-0.000005,0.000009,-0.000008,-71.069483,0.000010,
2146,2638,-2.44261285288494,-0.148541570495667,-0.026420659889709,0.006722,-0.000246,0.005109,0.293702,0.019850,321.142523,24.367460,0.999705,0.992598,0.003592,0.408041,0.000000,0.000001,-0.000007,0.000008,-0.000007,-47.319516,0.000009,
2476,2383,4.79474601989109,-5.70878076321424,-0.0087588562113865,0.006753,0.000195,0.001871,0.302312,0.048956,325.203734,23.190015,0.999620,0.985632,0.004929,0.392796,0.000010,0.000019,-0.000001,0.000019,0.000010,-86.460020,0.000029,
2326,2098,1.57667232915833,-11.9554984490422,0.0191187510498025,0.006513,0.000163,0.002984,0.287989,0.047291,329.861054,22.880069,0.999443,0.982811,0.005207,0.488858,-0.000026,-0.000016,0.000007,-0.000013,-0.000029,64.324613,0.000043,
2131,2308,-2.71329155671098,-7.35195339275893,0.000142447468817863,0.006692,0.000294,0.001228,0.303732,0.029120,326.766742,24.284102,0.998979,0.985051,0.005016,0.357502,-0.000004,-0.000022,-0.000016,0.000005,-0.000031,-29.503907,0.000033,
2146,2398,-2.40128104001497,-5.38553254702218,-0.00469608188410575,0.006843,0.000115,-0.001260,0.318227,0.014505,325.230119,24.222687,0.998664,0.986630,0.004790,0.403844,-0.000020,-0.000014,-0.000019,0.000003,-0.000036,-49.246078,0.000041,
2116,2278,-3.0344835247436,-8.00823583309781,0.0056324911666934,0.006974,0.000261,0.000573,0.318648,0.029087,327.374375,24.358678,0.998766,0.984074,0.005147,0.330678,-0.000012,-0.000009,-0.000006,-0.000004,-0.000017,-51.908853,0.000022,
2311,2038,1.26093392170955,-13.2708508531223,0.0271974133490858,0.006351,0.000729,-0.003035,0.301312,0.023263,330.913213,23.029554,0.999602,0.987604,0.004433,0.263639,-0.000044,-0.000043,-0.000010,-0.000034,-0.000054,-45.984393,0.000088,
2221,2758,-0.832836617547077,2.46762765639848,-0.0263015669639231,0.006271,0.000170,0.001854,0.282693,0.041131,318.944293,24.492874,0.999496,0.989452,0.003982,0.404785,-0.000012,-0.000005,-0.000014,0.000006,-0.000023,-51.874608,0.000023,
2386,2998,2.71238288470065,7.69346486170966,0.00664837318709033,0.006380,-0.000179,0.006779,0.269045,0.022398,315.142717,25.263058,0.999535,0.990863,0.003888,0.378952,-0.000011,0.000013,-0.000006,0.000015,-0.000013,-76.123481,0.000016,
2326,2983,1.41096686678073,7.36400649853578,-0.00125251635051882,0.006592,0.000103,0.001183,0.299319,0.026229,315.347212,25.057958,0.999914,0.997203,0.002549,0.384845,-0.000015,0.000010,-0.000007,0.000012,-0.000017,-76.357477,0.000018,
2461,2233,4.49806593998901,-8.99469916606073,0.00964333656611416,0.005802,-0.000011,0.003449,0.252598,0.045545,327.700762,22.712239,0.999175,0.981767,0.005356,0.350880,0.000006,-0.000030,0.000004,0.000007,-0.000031,6.342004,0.000032,
2266,2923,0.117743122560885,6.05654945154393,-0.00586056814950098,0.006568,0.000413,0.001266,0.298272,0.036393,316.351669,24.775368,0.999630,0.992477,0.003740,0.417156,-0.000013,0.000010,0.000002,0.000010,-0.000013,86.068997,0.000014,
2191,2803,-1.49240109569613,3.44573589805957,-0.0258915180251051,0.006361,0.000699,0.001137,0.289541,0.062231,318.306267,24.545920,0.998864,0.987111,0.004617,0.402330,-0.000015,-0.000001,-0.000009,0.000004,-0.000019,-64.299962,0.000020,
2311,2683,1.13922547733208,0.837117682261223,-0.0180420791745632,0.006592,0.000466,-0.000253,0.303994,0.044398,320.108721,24.337828,0.999737,0.991708,0.003699,0.442429,-0.000003,0.000027,-0.000010,0.000030,-0.000006,-72.469315,0.000032,
2506,2593,5.40484493168692,-1.11647033216384,-0.0268683760301656,0.006638,0.000563,-0.001363,0.309843,0.030767,321.731947,24.069058,0.999835,0.994155,0.003533,0.270223,0.000014,-0.000004,0.000018,0.000025,-0.000015,31.606265,0.000025,
2161,2428,-2.08047982257185,-4.72945502871315,-0.00597155645414205,0.006451,-0.000327,0.003297,0.286176,0.018880,324.647090,24.253269,0.999249,0.986803,0.004560,0.355089,-0.000017,-0.000025,-0.000020,-0.000001,-0.000042,-39.188624,0.000049,
2251,3073,-0.233514411995912,9.31152488184993,0.0197336837748026,0.006407,0.000217,0.004697,0.279897,0.050157,314.126312,24.970538,0.999566,0.992110,0.003535,0.430552,-0.000007,0.000007,-0.000019,0.000020,-0.000021,-54.779846,0.000024,
2191,2608,-1.45878409034093,-0.801363733760788,-0.0184836077609134,0.006266,0.000174,0.001384,0.283842,0.033618,321.528749,24.305277,0.998772,0.985968,0.004672,0.422002,-0.000011,-0.000005,-0.000001,-0.000005,-0.000011,-77.640458,0.000016,
2206,2878,-1.1785083169798,5.07570525660574,-0.0129000125472771,0.006467,0.000058,0.002354,0.290366,0.032593,317.151876,24.622697,0.999596,0.993862,0.003249,0.391855,-0.000009,0.000022,-0.000003,0.000022,-0.000009,-84.401358,0.000022,
2206,2668,-1.1431761736257,0.507427700326573,-0.0243489035726157,0.006124,0.000519,-0.001387,0.286223,0.031031,320.465249,24.404032,0.999561,0.991612,0.003802,0.374581,-0.000004,0.000010,-0.000007,0.000013,-0.000007,-67.512086,0.000013,
2341,3298,1.67680000236106,14.2003140285653,-0.00847854954673721,0.006402,0.000353,0.001441,0.290248,0.048390,310.111406,25.821143,0.999713,0.993038,0.003258,0.429529,-0.000012,0.000002,0.000001,0.000002,-0.000012,87.062773,0.000013,
2221,2938,-0.86237313782512,6.38026082265475,-0.00730882874410099,0.006841,0.000505,0.002275,0.308006,0.058005,316.198512,24.716727,0.999543,0.993575,0.003387,0.422055,-0.000010,0.000017,-0.000002,0.000017,-0.000011,-86.005852,0.000017,
2266,3148,0.0794864330481602,10.9390746446749,0.0293015079172392,0.006513,0.000185,0.003730,0.287849,0.034517,312.960506,25.138984,0.999314,0.991864,0.003757,0.422155,-0.000013,0.000005,-0.000015,0.000014,-0.000022,-60.648310,0.000022,
2161,2653,-2.11922968365082,0.179890305042754,-0.0347627963994341,0.006745,0.000386,0.000172,0.309907,0.037112,320.788823,24.390039,0.999683,0.992202,0.003643,0.403075,-0.000009,0.000006,-0.000008,0.000009,-0.000012,-67.574406,0.000013,
2311,3148,1.05576389979777,10.943872982454,0.0224880699701089,0.006238,0.000402,0.002218,0.279983,0.052118,312.838154,25.372503,0.999576,0.992476,0.003621,0.399882,-0.000009,0.000009,-0.000011,0.000015,-0.000014,-65.106311,0.000017,
2281,3028,0.42544888444559,8.33847240249296,0.00377277943016452,0.006633,0.000570,0.000317,0.304655,0.052702,314.701717,25.041207,0.999148,0.988451,0.004095,0.388833,-0.000012,0.000009,-0.000013,0.000015,-0.000018,-64.454478,0.000019,
2356,3298,2.00240857262029,14.202438460404,-0.00974906877030435,0.006566,0.000221,0.001643,0.296951,0.041170,310.105206,25.968069,0.999702,0.992987,0.003412,0.361863,-0.000006,0.000002,-0.000002,0.000003,-0.000006,-79.947340,0.000006,
2281,3283,0.378872224348964,13.8684550707681,0.00282480924744277,0.006658,0.000310,0.000646,0.304944,0.027398,310.519127,25.433890,0.999597,0.992487,0.003320,0.422624,-0.000006,0.000010,-0.000003,0.000011,-0.000006,-79.085094,0.000011,
2356,2173,2.21801777919022,-10.3111132969111,0.0177481936099184,0.006498,0.000294,-0.001224,0.301970,0.006588,328.654238,22.955885,0.999247,0.982366,0.005289,0.399653,-0.000026,-0.000024,-0.000009,-0.000016,-0.000034,-49.743543,0.000051,
2476,2398,4.79188760379577,-5.38096659547368,-0.00148659314726274,0.006394,0.000113,0.002395,0.283879,0.042792,325.002774,23.296099,0.999581,0.986867,0.004673,0.338586,0.000016,0.000007,-0.000001,0.000016,0.000007,-7.050663,0.000024,
2236,3028,-0.551490409985373,8.33439865858135,0.0091613871193772,0.006471,0.000366,-0.000586,0.300156,0.032848,314.824789,24.874925,0.999451,0.991247,0.003697,0.394593,-0.000007,0.000006,-0.000014,0.000015,-0.000016,-58.032385,0.000018,
2341,2818,1.76633571304389,3.77830440828895,-0.0192737199605517,0.006418,-0.000058,0.003073,0.284362,0.027558,317.867989,24.681600,0.999305,0.989333,0.003966,0.404471,-0.000011,0.000010,-0.000004,0.000010,-0.000011,-80.474988,0.000012,
2401,3193,3.00274847225078,11.9269749330321,0.0307405583331501,0.006389,0.000078,0.003141,0.282818,0.037166,312.176759,25.870255,0.999548,0.992711,0.003404,0.407326,0.000005,0.000023,-0.000004,0.000024,0.000004,-77.170698,0.000031,
2131,2533,-2.75078817400496,-2.43848729547983,-0.0136136113873135,0.006550,0.000037,0.003077,0.292005,0.037510,323.008369,24.327718,0.999215,0.985997,0.004584,0.430494,-0.000002,-0.000011,-0.000005,0.000000,-0.000013,-23.471268,0.000016,
2326,2833,1.43673424040396,4.10547420199228,-0.0263369027272233,0.006419,-0.000042,0.002890,0.285238,0.037848,317.569517,24.780220,0.999854,0.993413,0.003414,0.334657,-0.000012,0.000012,-0.000006,0.000013,-0.000014,-76.099376,0.000015,
2356,2908,2.07623043649166,5.73679931927076,-0.014339303575241,0.006591,0.000143,0.001853,0.296709,0.046079,316.453039,24.932579,0.999372,0.991208,0.003808,0.419207,-0.000019,0.000000,-0.000002,0.000000,-0.000019,-85.525794,0.000022,
2446,2188,4.18143824196721,-9.98243381121348,0.0237258653822323,0.006627,0.000135,0.002424,0.294290,0.032170,328.555665,22.643557,0.999623,0.986478,0.004632,0.312361,-0.000015,-0.000009,-0.000012,0.000001,-0.000024,-51.672019,0.000027,
2311,2893,1.10010348405538,5.40894902893879,-0.0215602628761076,0.006410,0.000146,-0.001225,0.299160,0.023358,316.654988,24.876222,0.999449,0.991646,0.003751,0.333937,-0.000018,-0.000005,0.000000,-0.000005,-0.000018,-89.840375,0.000024,
2506,2608,5.40187612766784,-0.790727938840796,-0.0227837339731991,0.006476,0.000440,-0.000707,0.299882,0.030179,321.512779,24.014503,0.999844,0.993873,0.003599,0.386019,0.000011,-0.000003,0.000009,0.000015,-0.000007,25.376470,0.000015,
2146,2653,-2.44497000249462,0.177890266757238,-0.0266870191180146,0.006581,0.000034,0.001016,0.299718,0.023044,320.903318,24.344045,0.999696,0.991545,0.003687,0.443042,-0.000002,0.000007,-0.000006,0.000009,-0.000005,-64.296449,0.000009,
2251,2923,-0.207860422228929,6.05510060117782,-0.00170590462545306,0.006725,-0.000192,0.003385,0.298430,0.021971,316.413889,24.738821,0.999675,0.993201,0.003451,0.408030,-0.000013,0.000011,-0.000001,0.000011,-0.000013,-87.526702,0.000014,
2191,2623,-1.46102807785993,-0.474805447931828,-0.0157487730904791,0.006367,0.000088,0.001164,0.289144,0.020799,321.313901,24.325918,0.999275,0.987275,0.004423,0.403633,-0.000009,0.000002,-0.000004,0.000003,-0.000010,-71.494280,0.000010,
2461,2248,4.49616131180112,-8.6670711190832,0.0137314516542233,0.006377,0.000085,0.000884,0.288621,0.024744,327.528896,22.735555,0.999078,0.979141,0.005394,0.363193,0.000010,-0.000027,0.000002,0.000011,-0.000027,3.296814,0.000027,
2386,2023,2.90249845978515,-13.6019625667632,0.0253805322018934,0.006473,0.000291,0.001263,0.291687,0.027522,331.141358,22.473584,0.998691,0.971444,0.006549,0.278411,-0.000010,-0.000048,-0.000002,-0.000009,-0.000049,-2.967099,0.000062,
2296,3118,0.736323828585416,10.2911892155061,0.0230125864219417,0.006905,0.000005,0.001882,0.311747,0.030015,313.380378,25.224178,0.999558,0.993234,0.003476,0.403972,-0.000010,0.000005,-0.000018,0.000017,-0.000022,-56.712922,0.000023,
2326,3223,1.36847373879597,12.5705471373184,0.0326853741166246,0.006358,0.000474,0.000526,0.291292,0.036586,311.696040,25.560989,0.999564,0.992748,0.003272,0.426228,-0.000004,0.000014,-0.000005,0.000015,-0.000006,-75.102120,0.000015,
2161,2443,-2.08245376966732,-4.40255915151507,-0.00453524669637773,0.006862,-0.000199,0.003398,0.304812,0.019307,324.435603,24.222802,0.999193,0.987098,0.004633,0.397434,-0.000020,-0.000022,-0.000021,0.000001,-0.000042,-43.650982,0.000048,
2431,2053,3.88094784708347,-12.9449606286218,0.027220218007983,0.006673,-0.000046,0.000814,0.302124,0.016001,330.743465,22.242087,0.998937,0.976724,0.005900,0.298391,-0.000001,-0.000042,0.000000,-0.000001,-0.000042,0.569777,0.000048,
2116,2488,-3.06935488240206,-3.42083310986985,-0.0122362605445119,0.006737,-0.000009,0.000755,0.307490,-0.005817,323.827880,24.347551,0.999286,0.988139,0.004359,0.379609,-0.000012,-0.000010,-0.000012,0.000001,-0.000023,-46.476567,0.000026,
2506,2623,5.3991913033694,-0.466033510420793,-0.0130678655644942,0.006256,0.000003,0.001580,0.280742,0.016479,321.331968,23.928933,0.999862,0.994413,0.003348,0.519229,0.000008,0.000003,0.000000,0.000008,0.000003,4.582341,0.000012,
2311,2698,1.13636351508469,1.1636413082701,-0.0193778683022856,0.006551,0.000368,-0.000805,0.303973,0.035136,319.853917,24.342586,0.999780,0.992296,0.003611,0.461044,-0.000005,0.000014,-0.000009,0.000017,-0.000009,-67.969004,0.000017,
2371,3103,2.36749039309229,9.9724836887954,0.0191968513806273,0.006465,0.000144,0.002903,0.287406,0.047698,313.540398,25.521297,0.999480,0.991083,0.003763,0.385070,-0.000002,0.000018,-0.000013,0.000024,-0.000008,-64.743165,0.000025,
2251,3088,-0.236510246481242,9.63747902829198,0.0127594308552261,0.006347,0.000217,0.001240,0.288519,0.038735,313.831246,24.999439,0.999604,0.991047,0.003639,0.412555,-0.000010,0.000003,-0.000022,0.000020,-0.000026,-53.076421,0.000027,
2311,2053,1.25830073544049,-12.9427906596664,0.0305050136768727,0.006543,0.000222,0.001469,0.294596,0.025550,330.693231,22.992132,0.999520,0.985221,0.004723,0.338888,-0.000040,-0.000037,-0.000003,-0.000036,-0.000042,-58.899775,0.000078,
2161,2668,-2.11979137240319,0.504309023614397,-0.0118531343738368,0.007044,0.000558,-0.001263,0.328165,0.048778,320.755633,24.371406,0.999693,0.993608,0.003364,0.443435,-0.000011,0.000010,-0.000009,0.000014,-0.000014,-70.359611,0.000016,
2326,2113,1.57427524103109,-11.6267020222776,0.0243679689453415,0.006518,-0.000493,0.003216,0.287202,-0.001337,329.662529,23.003279,0.999460,0.982339,0.005188,0.354372,-0.000030,-0.000014,0.000006,-0.000012,-0.000032,71.600887,0.000045,
2176,2758,-1.81035954221445,2.46529974248553,-0.0232264604761099,0.006682,0.000143,0.003810,0.295821,0.050530,319.114875,24.457346,0.999426,0.990063,0.003986,0.428561,-0.000013,-0.000005,-0.000021,0.000012,-0.000030,-50.250794,0.000030,
2131,2323,-2.71562478742222,-7.02460423735722,0.00326627654726508,0.006539,0.000043,0.000822,0.297849,0.027489,326.545395,24.273744,0.999261,0.985822,0.004770,0.373836,-0.000003,-0.000029,-0.000021,0.000008,-0.000040,-28.948065,0.000042,
2386,3013,2.71063311859347,8.01897913662752,0.0116688156933833,0.006871,-0.000035,0.003433,0.303747,0.027750,314.974326,25.295221,0.999587,0.991065,0.003789,0.394634,-0.000011,0.000009,-0.000009,0.000012,-0.000014,-69.274440,0.000015,
2371,3073,2.37286936613063,9.32145364180748,0.0122699619068385,0.006557,0.000260,0.001963,0.294958,0.041840,313.981028,25.432185,0.999595,0.992285,0.003545,0.388286,-0.000008,0.000016,-0.000012,0.000020,-0.000013,-68.146901,0.000021,
2476,2413,4.78940768822936,-5.05425724083413,0.00213393143621943,0.006417,0.000194,-0.000570,0.296216,0.043263,324.802723,23.263503,0.999496,0.987340,0.004640,0.429607,0.000010,0.000000,0.000007,0.000014,-0.000004,27.491365,0.000015,
2326,2998,1.40845412983319,7.68924789387098,0.00479860427202539,0.006542,0.000031,0.002789,0.291525,0.039285,315.145205,25.060408,0.999785,0.995234,0.002985,0.429244,-0.000016,0.000013,-0.000008,0.000015,-0.000018,-74.901422,0.000020,
2341,3028,1.7292277681875,8.34171092656209,0.0143790499914189,0.006282,-0.000203,0.003369,0.277316,0.025389,314.715497,25.227788,0.999746,0.994148,0.003288,0.361935,-0.000017,0.000007,-0.000015,0.000014,-0.000024,-63.906397,0.000024,
2371,2218,2.53724757973669,-9.32353375191452,0.0119046192919541,0.007035,0.000393,-0.003430,0.334507,0.008030,327.917169,23.088885,0.998469,0.975413,0.006228,0.319468,-0.000020,-0.000019,-0.000009,-0.000010,-0.000029,-46.521900,0.000040,
2326,3238,1.36521573342216,12.89706537024,0.0226606675483367,0.006635,0.000525,0.000071,0.305710,0.045135,311.379731,25.648809,0.999508,0.992553,0.003349,0.379987,-0.000004,0.000007,-0.000007,0.000010,-0.000007,-64.506339,0.000011,
2371,1993,2.58113543131411,-14.2614107482305,0.0336967171712672,0.006612,0.000587,0.000722,0.300061,0.050820,331.690768,22.477877,0.998973,0.968127,0.006900,0.309560,-0.000019,-0.000072,-0.000005,-0.000018,-0.000073,-5.027856,0.000096,
2236,2863,-0.524217271128062,4.75197497609476,-0.018816562662721,0.006717,0.000284,0.001288,0.305108,0.036346,317.285609,24.668258,0.999315,0.991138,0.003701,0.378791,-0.000007,0.000016,0.000003,0.000016,-0.000007,83.167087,0.000016,
2311,3163,1.05380476044365,11.2683630825245,0.0286389309393371,0.006533,0.000133,0.001308,0.296601,0.034879,312.661105,25.373855,0.999682,0.993340,0.003403,0.412538,-0.000008,0.000010,-0.000008,0.000013,-0.000011,-68.897823,0.000013,
2146,2413,-2.40458259815703,-5.05693706362798,-0.0134674600446942,0.006788,-0.000306,0.001945,0.305900,0.005406,324.902384,24.250454,0.998567,0.986940,0.005024,0.376506,-0.000021,-0.000020,-0.000024,0.000004,-0.000044,-45.535009,0.000049,
2281,3043,0.422683174339806,8.66388995143872,0.00820103367800584,0.006415,0.000188,0.002251,0.288020,0.045265,314.477193,25.079669,0.999442,0.990909,0.003731,0.369576,-0.000012,0.000014,-0.000014,0.000020,-0.000018,-66.276996,0.000022,
2386,2263,2.85363975599321,-8.33500111948369,-0.0116637863130222,0.006638,0.000673,-0.000858,0.307430,0.049906,326.975693,23.139247,0.998935,0.982982,0.005274,0.375812,-0.000019,-0.000031,-0.000006,-0.000017,-0.000033,-22.056015,0.000051,
2206,2683,-1.14538297424545,0.833925872226096,-0.0236267233220246,0.006602,0.000401,0.000883,0.301038,0.038641,320.242674,24.400613,0.999672,0.992961,0.003582,0.402759,-0.000005,0.000013,-0.000010,0.000017,-0.000009,-65.497134,0.000017,
2431,2068,3.8771938486013,-12.6156488283042,0.0286570735526084,0.006226,-0.000558,0.006252,0.261465,0.040881,330.472750,22.282227,0.998543,0.975077,0.006279,0.336573,-0.000005,-0.000035,0.000002,-0.000004,-0.000035,3.106353,0.000043,
2221,2953,-0.864844591434906,6.70571163049825,-0.00332291251419292,0.006727,0.000101,0.002425,0.302076,0.029381,315.981677,24.753144,0.999447,0.992034,0.003668,0.375251,-0.000009,0.000019,-0.000006,0.000020,-0.000010,-79.178064,0.000020,
2386,2038,2.89923043986861,-13.2720164406027,0.0204180148468822,0.006374,0.000618,-0.000162,0.292406,0.044863,330.859015,22.495982,0.998918,0.975074,0.006131,0.320379,-0.000012,-0.000054,-0.000012,-0.000009,-0.000057,-15.465064,0.000072,
2491,2518,5.09386071579587,-2.75824371792431,-0.00995525402726116,0.006393,-0.000065,0.003812,0.278380,0.020172,323.019036,23.616981,0.999481,0.987175,0.004350,0.430132,0.000004,-0.000014,0.000003,0.000004,-0.000014,8.244280,0.000015,
2191,2818,-1.49486415056083,3.77066032619747,-0.022379903351009,0.006228,0.000001,0.001263,0.282750,0.022046,318.085725,24.506645,0.998492,0.985338,0.004825,0.415691,-0.000013,0.000014,-0.000005,0.000015,-0.000014,-80.070162,0.000017,
2266,2938,0.114510691267416,6.38164212891252,-0.00599006455257722,0.006351,-0.000170,0.005548,0.273944,0.028790,316.082142,24.725686,0.999487,0.991676,0.003737,0.484341,-0.000011,0.000013,0.000001,0.000013,-0.000011,88.610177,0.000014,
2236,3043,-0.553748798705492,8.66003502604915,0.014633196996499,0.006602,0.000255,0.001107,0.300684,0.032829,314.626067,24.931764,0.999614,0.991865,0.003576,0.357868,-0.000006,0.000004,-0.000016,0.000016,-0.000018,-54.086466,0.000019,
2446,2203,4.17728681041631,-9.65307824840502,0.0161450397877729,0.006002,0.000631,0.001233,0.270363,0.061379,328.225885,22.636877,0.999640,0.985524,0.004735,0.403543,-0.000015,-0.000010,-0.000011,-0.000001,-0.000023,-51.521658,0.000028,
2266,3163,0.0768654718941697,11.2650855137207,0.0320370545956621,0.006327,0.000461,0.002600,0.283137,0.046875,312.732733,25.229368,0.999429,0.990513,0.003861,0.368558,-0.000011,0.000007,-0.000011,0.000013,-0.000017,-64.581195,0.000017,
2476,2428,4.78619740575119,-4.72573455005352,-0.00186966124789478,0.006562,0.000417,-0.001024,0.304728,0.034649,324.534319,23.338738,0.999369,0.987335,0.004588,0.404175,0.000010,0.000014,0.000019,0.000031,-0.000007,47.874140,0.000033,
2311,2068,1.25540058414104,-12.6132457259519,0.0241487725666047,0.006949,0.000170,0.002660,0.309147,0.028329,330.413513,22.987401,0.999482,0.982435,0.005071,0.381910,-0.000038,-0.000028,0.000001,-0.000027,-0.000038,83.360003,0.000066,
2116,2503,-3.07202480136048,-3.09337513107317,-0.01958161988847,0.006651,0.000208,-0.003778,0.317025,-0.006542,323.533825,24.308790,0.999152,0.986026,0.004540,0.422645,0.000001,-0.000004,-0.000011,0.000009,-0.000013,-38.754737,0.000013,
2356,2923,2.07331608786584,6.06302318065521,-0.0108872842579331,0.006353,0.000273,0.003085,0.281477,0.046584,316.221752,25.002075,0.999331,0.991083,0.003832,0.388320,-0.000018,0.000000,-0.000002,0.000001,-0.000019,-83.821802,0.000021,
2356,1993,2.25258465915305,-14.2606776535069,0.0284181809399229,0.006360,0.000384,0.000050,0.290916,0.023853,331.631004,22.577720,0.998875,0.967910,0.007060,0.289568,-0.000013,-0.000057,-0.000004,-0.000013,-0.000057,-5.147352,0.000074,
2206,2893,-1.18174196411685,5.40267057950766,-0.0243285404401377,0.006577,0.000217,0.001696,0.297580,0.035332,316.818924,24.639512,0.999799,0.995308,0.003049,0.394170,-0.000011,0.000017,-0.000003,0.000018,-0.000011,-84.159739,0.000018,
2506,2638,5.3959503562616,-0.137473970965381,-0.014777841740738,0.006319,0.000037,0.002086,0.281717,0.020636,321.073734,24.087129,0.999730,0.992032,0.003793,0.427078,0.000001,0.000010,-0.000011,0.000017,-0.000006,-56.309658,0.000017,
2191,2638,-1.46317570677649,-0.147795495012033,-0.0204141742681827,0.006931,0.000532,-0.001094,0.322353,0.032398,321.064826,24.305331,0.999538,0.988908,0.004157,0.450998,-0.000009,0.000006,-0.000004,0.000008,-0.000010,-75.999214,0.000011,
2251,2938,-0.210724380666154,6.38045342597248,-0.00279518411531399,0.006686,-0.000156,0.004453,0.293192,0.030928,316.155227,24.689181,0.999668,0.994029,0.003233,0.489439,-0.000012,0.000014,-0.000003,0.000015,-0.000013,-83.332953,0.000016,
2341,2143,1.89459207348726,-10.9656762083678,0.00149923322851464,0.006526,0.000097,0.002354,0.290708,0.024038,328.988464,23.031590,0.999295,0.984274,0.005029,0.342923,-0.000023,-0.000016,0.000001,-0.000016,-0.000023,85.408220,0.000039,
2221,2773,-0.834838298345264,2.79332780456701,-0.0205236380286351,0.006422,0.000299,0.001116,0.292042,0.042827,318.758314,24.488815,0.999446,0.989725,0.004008,0.429547,-0.000011,-0.000002,-0.000010,0.000004,-0.000018,-56.782146,0.000018,
2491,2533,5.09099409305368,-2.43021479481985,-0.0116259243833952,0.006658,0.000079,0.002687,0.294919,0.019693,322.777685,23.696895,0.999698,0.989804,0.003862,0.409652,0.000004,-0.000022,0.000012,0.000009,-0.000026,21.892696,0.000027,
2311,2713,1.13323942314507,1.49076316267625,-0.0204747085743975,0.006318,0.000234,-0.000240,0.291297,0.028017,319.588051,24.406862,0.999590,0.990610,0.003863,0.422158,-0.000009,0.000017,-0.000009,0.000020,-0.000012,-73.774264,0.000020,
2131,2338,-2.7184835769815,-6.69661823614074,0.00326956255196365,0.006246,0.000051,0.003157,0.277448,0.036787,326.283228,24.284713,0.999418,0.986819,0.004540,0.380044,-0.000013,-0.000022,-0.000018,0.000001,-0.000036,-37.878132,0.000041,
2341,2833,1.7639357545475,4.1050555619168,-0.018037893082635,0.006663,-0.000130,0.001974,0.299398,0.011866,317.648783,24.774652,0.999648,0.991255,0.003718,0.332082,-0.000013,0.000015,-0.000003,0.000015,-0.000013,-83.652141,0.000016,
2386,3178,2.67987594822425,11.6005851645321,0.0283074209818892,0.006612,0.000384,0.002189,0.296737,0.048406,312.404589,25.766135,0.999530,0.992581,0.003449,0.409565,-0.000002,0.000020,-0.000007,0.000022,-0.000004,-72.846766,0.000023,
2131,2548,-2.75348037300859,-2.11134216000862,-0.0141572219742443,0.006209,0.000336,0.001283,0.281826,0.045278,322.751012,24.328512,0.999040,0.983496,0.004869,0.444143,0.000002,-0.000005,0.000001,0.000002,-0.000005,12.121238,0.000005,
2326,3253,1.36115402540605,13.2218785226629,0.0156884822227426,0.006280,-0.000051,0.004990,0.272146,0.026105,311.041936,25.629183,0.999419,0.992751,0.003404,0.413423,-0.000004,0.000006,-0.000005,0.000009,-0.000006,-67.532972,0.000009,
2281,3298,0.375564644621388,14.1944100456824,-0.00171937087924334,0.006554,0.000208,0.002359,0.294451,0.037041,310.223844,25.517215,0.999667,0.994193,0.003083,0.374989,-0.000007,0.000017,-0.000001,0.000017,-0.000007,-86.873755,0.000017,
2221,2968,-0.867427533440047,7.03105590263082,0.00188305645929177,0.006557,-0.000125,0.004600,0.287260,0.034549,315.765961,24.758137,0.999325,0.990029,0.003995,0.393462,-0.000007,0.000021,-0.000008,0.000023,-0.000009,-75.569365,0.000024,
2311,2908,1.09796091922209,5.73391425209154,-0.0109715491541351,0.006187,0.000130,-0.001991,0.291531,0.014528,316.491798,24.886364,0.999484,0.992724,0.003634,0.346537,-0.000020,0.000000,0.000000,0.000000,-0.000020,-89.468949,0.000024,
2146,2428,-2.4068080061476,-4.72880348913821,-0.0138848303650434,0.006787,0.000303,-0.001896,0.317694,0.023409,324.668071,24.293691,0.999069,0.987237,0.004696,0.360810,-0.000019,-0.000027,-0.000017,-0.000005,-0.000041,-38.206546,0.000050,
2356,3118,2.03937762081779,10.2963110127668,0.0213936790754019,0.006838,0.000430,0.001303,0.310437,0.051286,313.333448,25.459291,0.999629,0.992343,0.003560,0.430621,0.000000,0.000016,-0.000012,0.000023,-0.000006,-62.199339,0.000023,
2326,3013,1.40590208049031,8.01521169419807,0.00339532368258233,0.006699,0.000035,0.000166,0.307808,0.020678,314.904656,25.114228,0.999458,0.989861,0.003843,0.390662,-0.000016,0.000012,-0.000008,0.000015,-0.000018,-74.950367,0.000019,
2326,2848,1.43441073457701,4.42975398715375,-0.0168132652214013,0.006306,-0.000049,0.004802,0.273459,0.035781,317.393863,24.698993,0.999775,0.992502,0.003555,0.448015,-0.000010,0.000010,-0.000005,0.000011,-0.000011,-75.629738,0.000013,
2371,3118,2.36459426033469,10.2979542595294,0.0186107518260883,0.006643,0.000064,0.004863,0.288591,0.044323,313.291081,25.548117,0.999676,0.992213,0.003548,0.394733,-0.000001,0.000018,-0.000011,0.000022,-0.000006,-65.523974,0.000023,
2326,2128,1.57155581670825,-11.2973635812636,0.0278697616554382,0.006036,0.000250,-0.000393,0.277860,0.014731,329.440310,23.097165,0.999396,0.984513,0.004986,0.313731,-0.000029,-0.000011,0.000005,-0.000009,-0.000030,75.568925,0.000042,
2401,3208,3.00015463005637,12.2518457488546,0.0340782797440511,0.006399,0.000081,0.002432,0.285787,0.022968,311.961915,25.898346,0.999472,0.992537,0.003572,0.409171,0.000006,0.000017,-0.000005,0.000019,0.000004,-68.591531,0.000024,
2371,2008,2.57726011245808,-13.9299377485999,0.0230106213453496,0.006551,0.000239,0.002087,0.292339,0.042393,331.352079,22.587669,0.998755,0.974001,0.006235,0.236657,-0.000012,-0.000049,0.000014,-0.000007,-0.000054,17.944111,0.000067,
2356,2188,2.21509628192827,-9.98128223301376,0.0215414379877643,0.006511,-0.000204,0.003703,0.285122,0.016349,328.426264,23.125441,0.999161,0.983604,0.005113,0.281234,-0.000025,-0.000027,-0.000011,-0.000016,-0.000037,-42.289704,0.000054,
2161,2683,-2.12323885544973,0.831495190323132,-0.0197171126247895,0.006774,0.000153,0.000945,0.308872,0.034795,320.427450,24.380350,0.999489,0.991093,0.003735,0.431059,-0.000010,0.000010,-0.000009,0.000013,-0.000014,-69.462766,0.000015,
2281,3058,0.41996328277251,8.98880514155706,0.0090720249718288,0.006375,-0.000034,0.002468,0.285383,0.031002,314.237112,25.058968,0.999585,0.993325,0.003383,0.402928,-0.000010,0.000011,-0.000012,0.000017,-0.000015,-65.210845,0.000019,
2446,2218,4.17443691288812,-9.3235158430011,0.00735141608129197,0.006689,0.000740,-0.001118,0.310628,0.042221,327.950342,22.690913,0.999441,0.984130,0.005012,0.385264,-0.000010,-0.000018,-0.000006,-0.000007,-0.000021,-28.495129,0.000029,
2161,2458,-2.0851252498932,-4.07463732297581,-0.0109030946138091,0.006888,0.000213,0.000296,0.315705,0.031436,324.150876,24.206912,0.999144,0.987876,0.004532,0.436840,-0.000020,-0.000019,-0.000021,0.000002,-0.000041,-45.783942,0.000046,
2386,2053,2.89751751667186,-12.9435254057412,0.0313419274082776,0.006478,0.000908,-0.002879,0.306978,0.053418,330.723030,22.577811,0.999275,0.978712,0.005765,0.293243,-0.000013,-0.000051,-0.000005,-0.000012,-0.000052,-7.047982,0.000068,
2431,2083,3.87366978123056,-12.2848520162868,0.020551312793657,0.006502,-0.000852,0.008138,0.267101,0.033182,330.168463,22.390356,0.998881,0.977413,0.006089,0.274420,-0.000009,-0.000029,0.000004,-0.000008,-0.000030,11.563075,0.000040,
2236,3058,-0.555808157534916,8.9847238903182,0.0217743887868096,0.006629,0.000389,0.000213,0.304902,0.044846,314.445308,24.903453,0.999663,0.993069,0.003319,0.418497,-0.000003,0.000001,-0.000017,0.000016,-0.000018,-48.457891,0.000020,
2506,2653,5.39215017703591,0.191882253561218,-0.0265911392920088,0.006494,0.000302,0.000398,0.296481,0.042226,320.744366,24.221277,0.999610,0.988021,0.004402,0.376621,0.000000,0.000006,-0.000022,0.000026,-0.000019,-49.145656,0.000027,
2371,3088,2.36998602501885,9.64615238139452,0.0190677655257332,0.006225,-0.000163,0.004605,0.270033,0.013499,313.768087,25.452219,0.999460,0.990582,0.003873,0.379664,-0.000005,0.000014,-0.000016,0.000023,-0.000015,-59.999225,0.000023,
2356,2008,2.24978291143217,-13.9297418347451,0.0212614913015159,0.006808,0.000928,-0.001743,0.317933,0.044302,331.356537,22.649843,0.998712,0.975761,0.006309,0.280638,-0.000006,-0.000032,0.000019,0.000004,-0.000042,27.584325,0.000046,
2326,3268,1.35784832068123,13.5482641154253,0.00607858340299572,0.006325,0.000239,0.002509,0.282977,0.036460,310.725365,25.715377,0.999567,0.993470,0.003180,0.370633,-0.000002,0.000006,-0.000003,0.000007,-0.000003,-70.874851,0.000007,
2206,2908,-1.18307355774006,5.7271627078612,-0.0109939055590189,0.006703,0.000365,-0.001338,0.313148,0.046587,316.702088,24.604247,0.999668,0.993312,0.003450,0.457200,-0.000009,0.000015,-0.000004,0.000015,-0.000010,-80.654292,0.000015,
2476,2443,4.78243002709923,-4.39690024068937,-0.00597831302235363,0.006427,0.000235,0.001669,0.288231,0.023969,324.239718,23.449251,0.999198,0.986277,0.004732,0.341083,0.000019,-0.000032,0.000021,0.000027,-0.000040,19.821585,0.000041,
2491,2548,5.08745186023382,-2.10258723564141,-0.0128854390638367,0.006307,-0.000148,0.002696,0.278750,0.009168,322.507136,23.758860,0.999704,0.989137,0.004055,0.397282,-0.000003,-0.000025,0.000007,-0.000001,-0.000027,16.376987,0.000032,
2311,2083,1.25245425878311,-12.2819113946916,0.0195707145209667,0.007027,0.000266,0.001609,0.316356,0.040753,330.140093,23.162186,0.999394,0.982931,0.005194,0.255428,-0.000034,-0.000024,0.000003,-0.000024,-0.000035,75.708439,0.000059,
2341,2848,1.76043602084023,4.43133337367914,-0.0221776864676713,0.006539,-0.000116,0.005153,0.282661,0.018673,317.352949,24.765885,0.999674,0.991394,0.003693,0.384211,-0.000011,0.000012,-0.000003,0.000012,-0.000011,-83.380812,0.000014,
2401,2338,3.16719794310747,-6.69509960597927,0.00305602978676234,0.005972,0.001044,-0.003144,0.285424,0.035175,325.878394,23.308304,0.999030,0.981594,0.005042,0.363222,-0.000019,0.000010,0.000010,0.000013,-0.000022,73.031927,0.000022,
2236,2878,-0.525958678212703,5.07658512200606,-0.00593848646195738,0.006708,0.000163,0.001350,0.304460,0.027409,317.148948,24.654163,0.999522,0.991821,0.003578,0.404516,-0.000010,0.000020,0.000002,0.000020,-0.000010,86.814066,0.000020,
2311,2728,1.13061543567359,1.81702570901845,-0.0191306855323887,0.006504,-0.000132,0.001723,0.293054,0.021236,319.357327,24.416121,0.999531,0.989960,0.003965,0.438563,-0.000012,0.000009,-0.000006,0.000011,-0.000014,-74.990597,0.000015,
2251,2953,-0.213202258207481,6.70812875652535,-0.00261262746295188,0.006670,0.000437,0.001601,0.302018,0.032268,315.920010,24.873982,0.999450,0.991788,0.003696,0.328832,-0.000013,0.000015,-0.000007,0.000017,-0.000015,-77.366791,0.000018,
2251,3103,-0.238260784771402,9.96240193475687,0.0202746824009523,0.006618,0.000178,-0.000498,0.306678,0.027532,313.667285,25.028997,0.999606,0.992258,0.003544,0.394026,-0.000010,0.000004,-0.000023,0.000021,-0.000027,-53.404040,0.000029,
2131,2563,-2.75607471659564,-1.78275145396486,-0.0230885655141719,0.006697,0.000216,0.002136,0.301727,0.040595,322.453089,24.405149,0.999244,0.987517,0.004444,0.369759,0.000003,0.000002,-0.000005,0.000007,-0.000002,-42.676146,0.000007,
2311,3178,1.05106274292912,11.5939606896605,0.0274124665120894,0.006556,0.000366,-0.000176,0.302811,0.035883,312.411166,25.418425,0.999752,0.993625,0.003316,0.399815,-0.000006,0.000010,-0.000008,0.000014,-0.000009,-66.961780,0.000014,
2296,1993,0.941190043545067,-14.2590433930038,0.0293851949923578,0.006391,0.000056,0.002420,0.284356,0.031582,331.648843,22.996651,0.999251,0.966561,0.007029,0.303462,-0.000077,-0.000076,-0.000027,-0.000049,-0.000103,-45.462623,0.000155,
2206,2698,-1.14878821605615,1.16049024601018,-0.0328317500630533,0.006599,0.000041,0.003548,0.292319,0.030332,319.913880,24.342656,0.999432,0.992069,0.003675,0.469658,-0.000007,0.000002,-0.000007,0.000006,-0.000011,-62.045746,0.000011,
2341,2158,1.89195799388234,-10.6384604427037,0.00338079538590819,0.006352,0.000628,-0.000040,0.291297,0.038018,328.763639,22.928532,0.999325,0.985635,0.004925,0.499522,-0.000027,-0.000019,-0.000008,-0.000013,-0.000032,-58.429123,0.000047,
2371,2023,2.574874456042,-13.6020728963304,0.0278178903255366,0.006388,0.000272,-0.001166,0.296446,0.025861,331.155538,22.558622,0.998776,0.974475,0.006295,0.293555,-0.000011,-0.000039,0.000009,-0.000008,-0.000042,15.907354,0.000053,
2266,3178,0.0743292479584383,11.5895404055382,0.0312474817844759,0.006513,0.000207,0.001963,0.293766,0.034226,312.491605,25.183816,0.999549,0.991854,0.003514,0.425911,-0.000010,0.000007,-0.000011,0.000012,-0.000015,-64.289302,0.000016,
2221,2788,-0.836653773434005,3.11896173327068,-0.0152474081358491,0.006676,0.000271,-0.001328,0.311549,0.021039,318.578363,24.501787,0.999417,0.991137,0.003940,0.413637,-0.000009,-0.000004,-0.000007,0.000001,-0.000014,-53.955583,0.000016,
2431,2098,3.87105498284496,-11.9552272935302,0.0218304304700041,0.006586,-0.000096,0.005954,0.279306,0.052642,329.949069,22.473715,0.999513,0.980895,0.005711,0.263664,-0.000017,-0.000031,-0.000008,-0.000013,-0.000035,-25.796858,0.000050,
2191,2653,-1.46624532081949,0.179637915444943,-0.0219622580102055,0.006630,0.000394,0.000499,0.303517,0.026720,320.789593,24.372390,0.999550,0.989927,0.004027,0.393067,-0.000010,0.000009,-0.000003,0.000010,-0.000010,-80.039857,0.000012,
2311,2923,1.09539294487837,6.0593503146067,-0.0116003790422496,0.006619,0.000175,0.000476,0.303036,0.029647,316.253563,24.838753,0.999169,0.990823,0.003924,0.441030,-0.000019,0.000002,-0.000002,0.000002,-0.000019,-85.163403,0.000021,
2356,2938,2.07063110475152,6.38908013476665,-0.0106733273467512,0.006564,0.000109,0.003921,0.288222,0.045967,315.985386,25.038175,0.999268,0.989967,0.003969,0.390003,-0.000011,0.000002,-0.000003,0.000002,-0.000012,-77.693340,0.000013,
2386,2278,2.85181845051973,-8.00793421054768,0.00377229810175095,0.006453,0.000275,-0.001391,0.300712,0.010923,326.855726,23.254944,0.999585,0.991322,0.003897,0.266277,-0.000024,-0.000017,-0.000004,-0.000015,-0.000026,-64.292114,0.000041,
2401,2098,3.21541818672538,-11.9556728221858,0.0211054885654107,0.006557,-0.000091,0.003543,0.287170,0.027851,329.908158,22.579661,0.998708,0.973212,0.006516,0.315051,-0.000029,-0.000035,-0.000012,-0.000019,-0.000044,-38.512359,0.000065,
2401,3223,2.99649912433416,12.5773770832922,0.0296834267004442,0.005999,-0.000024,0.002186,0.268252,0.016860,311.661280,25.938511,0.999503,0.992595,0.003472,0.406872,0.000005,0.000013,-0.000003,0.000014,0.000004,-74.577351,0.000019,
2386,3028,2.70719896003424,8.34548688081887,0.00574015871666234,0.006703,0.000161,0.002155,0.300689,0.029761,314.675960,25.353195,0.999599,0.990949,0.003799,0.381403,-0.000011,0.000008,-0.000013,0.000014,-0.000017,-63.365114,0.000018,
2176,2773,-1.81324762634558,2.79184784222366,-0.0316872343104819,0.006741,-0.000114,0.001431,0.305865,0.031463,318.810671,24.439546,0.999434,0.990539,0.004042,0.439846,-0.000015,0.000000,-0.000015,0.000010,-0.000024,-58.055575,0.000024,
2221,2983,-0.869878052867335,7.35672936774895,0.00251619486539312,0.006541,-0.000019,0.002485,0.293357,0.032170,315.532712,24.773026,0.999414,0.991382,0.003766,0.394463,-0.000002,0.000019,-0.000007,0.000021,-0.000005,-73.224004,0.000022,
2356,3133,2.0364470510874,10.6218420952206,0.0257626723503677,0.006640,0.000167,0.004098,0.291462,0.055781,313.105334,25.517922,0.999531,0.991595,0.003758,0.414073,-0.000001,0.000019,-0.000012,0.000025,-0.000007,-64.510900,0.000025,
2356,2203,2.21150757209006,-9.65153919256108,0.00795340954493895,0.006792,-0.000025,0.003556,0.298634,0.021434,328.084300,23.114459,0.999079,0.983375,0.005139,0.339376,-0.000025,-0.000018,-0.000015,-0.000006,-0.000037,-50.683806,0.000046,
2506,2668,5.3898905636496,0.517687007144637,-0.0218980192902336,0.006869,0.000302,-0.000377,0.316680,0.033756,320.560227,24.202704,0.999496,0.986504,0.004594,0.448000,0.000002,-0.000023,-0.000027,0.000020,-0.000040,-32.632094,0.000040,
2281,3073,0.416989416217127,9.31533651346028,0.00287996584989969,0.006370,0.000155,-0.000497,0.295181,0.028679,313.949423,25.133751,0.999575,0.992966,0.003528,0.352795,-0.000012,0.000011,-0.000011,0.000015,-0.000017,-68.954554,0.000018,
2326,3283,1.35460881687543,13.8735234194876,-0.00419546106695634,0.006573,0.000225,0.001187,0.298973,0.033259,310.408918,25.712602,0.999662,0.994620,0.002927,0.403242,-0.000004,-0.000002,-0.000003,0.000001,-0.000006,-54.454566,0.000007,
2191,2833,-1.49659651798701,4.09680836855559,-0.022103386864103,0.006904,0.000117,-0.000743,0.320184,0.008417,317.881454,24.532639,0.999150,0.990149,0.004011,0.390386,-0.000011,0.000013,0.000000,0.000013,-0.000011,-89.546331,0.000014,
2236,3073,-0.559678622943064,9.31070552210398,0.0141474662679002,0.006226,0.000045,0.003993,0.273987,0.039529,314.105424,24.919838,0.999629,0.992648,0.003406,0.416897,-0.000006,0.000003,-0.000016,0.000015,-0.000018,-53.133323,0.000019,
2161,2698,-2.12615693944558,1.15855113640247,-0.0227268927279738,0.006657,0.000312,0.002389,0.299143,0.052726,320.149023,24.390807,0.999417,0.988634,0.003997,0.449002,-0.000009,0.000001,-0.000007,0.000005,-0.000013,-63.230861,0.000013,
2461,2263,4.49318221360754,-8.33727432400512,0.00557224043018323,0.006868,0.000152,-0.002109,0.322347,0.006876,327.251613,22.834112,0.999099,0.979881,0.005427,0.303597,0.000012,-0.000017,-0.000007,0.000013,-0.000018,-13.281663,0.000019,
2131,2353,-2.72098532767442,-6.36839482684216,0.000440249545874849,0.006385,-0.000023,0.003762,0.282062,0.030510,326.022324,24.310222,0.999297,0.986205,0.004628,0.355714,-0.000016,-0.000017,-0.000018,0.000002,-0.000035,-44.413358,0.000039,
2341,3043,1.7261878357775,8.66700316782385,0.00775217039961262,0.006444,0.000005,0.001720,0.290628,0.025703,314.428324,25.174532,0.999673,0.993179,0.003403,0.451315,-0.000016,0.000013,-0.000017,0.000021,-0.000023,-65.867631,0.000026,
2476,2458,4.77966772590623,-4.06919017339033,-0.00495040708358374,0.006566,0.000385,0.000832,0.297881,0.034014,324.014544,23.489124,0.999279,0.986417,0.004669,0.369377,0.000022,-0.000018,0.000019,0.000029,-0.000026,21.935050,0.000032,
2206,2923,-1.18536485301377,6.05393958776187,-0.0112835331130441,0.007027,0.000545,-0.001414,0.328339,0.038634,316.470040,24.703624,0.999482,0.990783,0.003797,0.366002,-0.000009,0.000017,-0.000003,0.000017,-0.000009,-84.021856,0.000017,
2491,2563,5.08438142261075,-1.77417118912459,-0.0195421334688604,0.006742,0.000304,0.001047,0.305238,0.028765,322.233686,23.820367,0.999601,0.989753,0.004177,0.415185,-0.000001,-0.000018,0.000002,-0.000001,-0.000018,8.576756,0.000021,
2296,3133,0.733316032068686,10.6167205141574,0.0242197903262991,0.006795,0.000137,0.004986,0.296199,0.034447,313.129367,25.262454,0.999694,0.994743,0.003227,0.398875,-0.000013,0.000005,-0.000016,0.000014,-0.000022,-59.829612,0.000022,
2326,3028,1.40305850837553,8.34069501928073,0.0105525663653907,0.006381,-0.000054,0.003664,0.281053,0.028746,314.692701,25.158356,0.999631,0.992030,0.003560,0.387898,-0.000015,0.000007,-0.000012,0.000012,-0.000020,-66.559322,0.000021,
2311,2743,1.12823714533407,2.14354277564785,-0.0134704105478249,0.006556,0.000069,0.002908,0.291485,0.033176,319.158982,24.468751,0.999567,0.990671,0.003883,0.430194,-0.000014,0.000005,-0.000008,0.000008,-0.000017,-70.754912,0.000017,
2131,2578,-2.75903028494738,-1.45509934827441,-0.0275907155891559,0.006710,-0.000204,0.005687,0.291607,0.053561,322.162394,24.422966,0.999573,0.992329,0.003904,0.371351,-0.000003,-0.000006,-0.000010,0.000006,-0.000015,-41.232238,0.000015,
2356,2023,2.24711569029344,-13.6019635282071,0.0228514392050556,0.006811,0.000705,-0.002080,0.319188,0.024865,331.130569,22.579443,0.998697,0.974818,0.006494,0.373982,-0.000003,-0.000026,0.000016,0.000005,-0.000035,27.215969,0.000038,
2161,2473,-2.08743139219375,-3.74683742286251,-0.0109845365238357,0.006922,0.000451,-0.001931,0.324152,0.028110,323.915990,24.258929,0.999170,0.986482,0.004815,0.392914,-0.000019,-0.000017,-0.000013,-0.000005,-0.000031,-47.044872,0.000039,
2371,3133,2.36194282057277,10.6233897151755,0.0236517289297353,0.006527,-0.000015,0.005505,0.280991,0.050772,313.079975,25.600472,0.999642,0.992201,0.003551,0.388830,-0.000001,0.000019,-0.000011,0.000024,-0.000006,-66.415946,0.000025,
2386,2068,2.89369615908474,-12.6146191921832,0.0242143169593874,0.006487,0.000213,0.002000,0.289748,0.027858,330.405322,22.535572,0.999302,0.979116,0.005626,0.356937,-0.000016,-0.000047,0.000000,-0.000016,-0.000047,-0.016859,0.000065,
2371,2038,2.57185071432592,-13.2724331804109,0.0220716243017023,0.006722,0.000618,-0.000468,0.309433,0.044238,330.879188,22.542857,0.998961,0.977638,0.005903,0.372678,-0.000012,-0.000043,-0.000002,-0.000012,-0.000043,-4.504596,0.000059,
2491,2578,5.08214892234945,-1.44695485350005,-0.0125264001516712,0.007066,0.000347,0.001802,0.317262,0.045565,322.060372,23.899702,0.999062,0.983146,0.005013,0.412215,0.000002,0.000000,0.000003,0.000004,-0.000002,38.204753,0.000004,
2311,3193,1.04872765062482,11.9189278936326,0.0326604306092122,0.006749,0.000307,0.001649,0.305488,0.040863,312.212113,25.442834,0.999741,0.993781,0.003229,0.411325,-0.000005,0.000010,-0.000008,0.000014,-0.000008,-66.846570,0.000014,
2296,2008,0.938602926402307,-13.9293620392566,0.027273290644473,0.006451,0.000420,-0.000552,0.297259,0.030366,331.403026,23.032626,0.999125,0.978719,0.005721,0.300001,-0.000066,-0.000051,-0.000007,-0.000048,-0.000069,-69.428614,0.000118,
2251,3118,-0.240950774075881,10.2880389481653,0.0221150038839824,0.006461,0.000389,-0.000795,0.300550,0.043509,313.431044,25.064990,0.999582,0.991461,0.003719,0.396397,-0.000009,0.000001,-0.000023,0.000019,-0.000027,-51.623316,0.000028,
2266,2953,0.112384229585658,6.7084536898826,-0.00134409290183157,0.006477,0.000256,0.003976,0.285157,0.051820,315.886876,24.841000,0.999176,0.988028,0.004305,0.416960,-0.000012,0.000014,-0.000003,0.000014,-0.000012,-83.926650,0.000015,
2206,2713,-1.15128488920552,1.48668860938733,-0.0286498538400224,0.006228,0.000042,0.001165,0.282844,0.027591,319.695938,24.359743,0.998757,0.987048,0.004596,0.466750,-0.000008,-0.000001,-0.000009,0.000005,-0.000015,-55.630053,0.000015,
2401,3253,2.98966080068523,13.2296515561519,0.0100160224083652,0.006548,0.000327,0.001843,0.295048,0.041944,311.029638,26.045775,0.999510,0.992122,0.003505,0.413395,0.000008,0.000014,0.000000,0.000014,0.000008,88.004456,0.000022,
2326,2863,1.43209373098569,4.75578472871506,-0.0144380859691182,0.006489,-0.000179,0.003260,0.287136,0.018796,317.183058,24.743665,0.999735,0.992327,0.003592,0.420432,-0.000014,0.000010,-0.000007,0.000012,-0.000016,-75.099332,0.000016,
2386,3043,2.70412956750469,8.6709978603724,0.00587485617973016,0.006708,-0.000094,0.004536,0.292353,0.032678,314.423467,25.363131,0.999726,0.992214,0.003552,0.416786,-0.000013,0.000020,-0.000012,0.000024,-0.000017,-71.447070,0.000025,
2326,3298,1.35142928388146,14.1981675979615,-0.00363999629456657,0.006211,0.000237,0.001828,0.280130,0.038052,310.148582,25.708394,0.999711,0.994709,0.002965,0.444960,-0.000012,0.000003,-0.000001,0.000003,-0.000012,-86.895968,0.000013,
2341,2173,1.88902162090568,-10.3096291142737,0.00962146848559087,0.006184,-0.000395,0.005589,0.263656,0.022292,328.545943,23.054001,0.999097,0.983540,0.005138,0.397635,-0.000023,-0.000019,-0.000005,-0.000015,-0.000027,-55.409050,0.000042,
2416,2173,3.52704180243947,-10.310495468631,0.00706227222485722,0.006117,-0.000494,0.002473,0.270788,-0.020221,328.584379,22.669230,0.998935,0.980149,0.005265,0.340215,-0.000027,-0.000021,-0.000016,-0.000008,-0.000041,-49.884193,0.000052,
2416,2413,3.47998173669292,-5.0540745187982,-0.00151847023704477,0.006773,0.000062,0.000366,0.309145,0.025359,324.667608,23.510253,0.999665,0.987939,0.004412,0.343298,0.000000,-0.000001,0.000018,0.000017,-0.000018,44.438072,0.000021,
2326,2143,1.56847198832141,-10.9670723850343,0.0164965611229491,0.006737,0.000047,0.001525,0.303334,0.020015,329.128933,23.133818,0.999304,0.985019,0.005088,0.320159,-0.000029,-0.000016,0.000002,-0.000016,-0.000029,81.287226,0.000046,
2371,2233,2.5336803221263,-8.99499905572309,0.0140026142774445,0.006656,-0.000408,0.002792,0.294827,0.004159,327.652717,23.151877,0.998662,0.979430,0.005884,0.296259,-0.000016,-0.000033,-0.000003,-0.000016,-0.000033,-11.339338,0.000050,
2431,2113,3.86855310220102,-11.6276086440822,0.0262837922530821,0.006512,0.000272,0.003770,0.284138,0.059199,329.749686,22.426677,0.999454,0.979325,0.005766,0.370191,-0.000024,-0.000037,-0.000012,-0.000016,-0.000044,-30.847489,0.000063,
2446,2233,4.17199354256401,-8.9952741683278,0.016013068006032,0.006578,0.000978,-0.000695,0.304087,0.051679,327.773495,22.782578,0.999119,0.979722,0.005482,0.357562,-0.000002,-0.000026,0.000003,-0.000002,-0.000027,7.337518,0.000032,
2476,2473,4.77540325638995,-3.74047555991257,-0.0207493460541741,0.006669,-0.000047,0.000711,0.302931,0.010356,323.644038,23.504468,0.999567,0.989145,0.004224,0.388756,0.000008,-0.000028,0.000011,0.000011,-0.000031,16.099021,0.000031,
2356,2953,2.06767775979513,6.71466618838485,-0.0109444613109986,0.006421,-0.000158,0.003165,0.284150,0.016759,315.734454,25.060305,0.999342,0.990097,0.003923,0.377027,-0.000010,0.000002,-0.000004,0.000003,-0.000011,-74.363934,0.000011,
2506,2683,5.38540588304828,0.84651915679251,-0.0338364961937714,0.006540,0.000281,-0.000042,0.300263,0.020047,320.198779,24.334562,0.999670,0.990651,0.003821,0.364320,-0.000004,-0.000033,-0.000020,0.000007,-0.000044,-26.828430,0.000047,
2311,2758,1.12513812828439,2.47066467549496,-0.0179025118208642,0.006460,0.000382,0.001640,0.291542,0.044943,318.877665,24.501213,0.999621,0.991880,0.003789,0.441903,-0.000017,0.000007,-0.000005,0.000009,-0.000018,-78.301846,0.000018,
2341,2863,1.75802416434709,4.75663510600238,-0.0128356341560902,0.006243,-0.000287,0.005277,0.268586,0.025074,317.172817,24.772412,0.999635,0.991470,0.003729,0.420321,-0.000015,0.000013,-0.000004,0.000013,-0.000015,-81.367824,0.000017,
2446,2563,4.10332580532975,-1.77518243984779,-0.0147462207335138,0.006715,0.000217,0.001474,0.302611,0.045224,322.164796,23.934667,0.999557,0.988934,0.004337,0.384522,-0.000002,-0.000009,-0.000008,0.000003,-0.000014,-32.567243,0.000015,
2431,2248,3.84072225165209,-8.66684856229104,0.0125874252964877,0.006462,-0.000067,0.001970,0.288572,0.024785,327.459462,22.870779,0.999034,0.980643,0.005479,0.366159,-0.000010,-0.000027,-0.000003,-0.000010,-0.000027,-9.464104,0.000038,
2386,3193,2.67762754606337,11.9254271590542,0.0346473107307474,0.006829,0.000201,0.002984,0.303834,0.042918,312.219102,25.796833,0.999495,0.993012,0.003288,0.415293,0.000000,0.000023,-0.000007,0.000025,-0.000002,-74.990770,0.000027,
2401,2353,3.16374121374257,-6.36674779730011,-0.000193107280267668,0.006027,0.000032,0.000969,0.272691,0.010268,325.595835,23.364283,0.998827,0.981774,0.005158,0.329629,-0.000009,0.000008,0.000014,0.000016,-0.000017,60.374424,0.000019,
2266,3193,0.0714825169493274,11.9153319840481,0.0312530601585195,0.006525,0.000244,0.003948,0.287796,0.044111,312.239688,25.247665,0.999602,0.991636,0.003493,0.395945,-0.000010,0.000006,-0.000008,0.000010,-0.000014,-67.871927,0.000014,
2221,2803,-0.840570167561062,3.44601448047046,-0.0240237594704809,0.006249,-0.000167,0.002347,0.279992,0.010368,318.229415,24.530003,0.999296,0.989240,0.004189,0.393554,-0.000008,0.000001,-0.000005,0.000003,-0.000011,-63.558104,0.000011,
2371,2053,2.56906579841503,-12.9426199053263,0.0270928151925318,0.006597,0.000427,0.001854,0.295446,0.049892,330.665007,22.682151,0.999193,0.979572,0.005533,0.283503,-0.000012,-0.000043,0.000004,-0.000012,-0.000043,7.228545,0.000058,
2341,1993,1.92431625929258,-14.2606838474872,0.0310279527767534,0.006135,-0.000504,0.004560,0.264651,0.018178,331.624174,22.679270,0.998612,0.977678,0.006175,0.288733,-0.000018,-0.000044,-0.000003,-0.000018,-0.000044,-6.158811,0.000064,
2491,2593,5.07885162245072,-1.11967775791029,-0.0137290854697767,0.006694,0.000181,-0.001283,0.311963,0.030755,321.801147,23.948873,0.999845,0.994538,0.003416,0.408005,0.000003,-0.000013,0.000007,0.000005,-0.000015,21.397188,0.000016,
2386,2293,2.84919320677543,-7.68059826149709,0.00504357016978929,0.006764,0.000067,0.000532,0.308006,0.024134,326.631567,23.203704,0.999827,0.994348,0.003349,0.376084,-0.000021,-0.000007,0.000003,-0.000006,-0.000021,77.858657,0.000029,
2191,2848,-1.49897599173508,4.42278254158668,-0.0167780850629242,0.006706,0.000389,-0.001025,0.312051,0.016492,317.673757,24.563188,0.999194,0.990676,0.003881,0.382135,-0.000013,0.000011,0.000003,0.000011,-0.000014,82.313800,0.000015,
2341,3058,1.72332455177387,8.99238238140854,0.00543790475086325,0.006601,-0.000214,0.001950,0.296954,0.011972,314.170182,25.176282,0.999663,0.993950,0.003205,0.471776,-0.000016,0.000013,-0.000014,0.000019,-0.000022,-68.508649,0.000023,
2281,3088,0.415075875063742,9.63980127286559,0.0136614383853271,0.006283,0.000358,-0.002050,0.296471,0.036697,313.796088,25.120477,0.999668,0.992807,0.003626,0.400754,-0.000015,0.000008,-0.000018,0.000017,-0.000024,-61.406675,0.000025,
2161,2713,-2.12901923526256,1.48578351018355,-0.0237178539330216,0.006344,0.000228,0.002041,0.285835,0.048171,319.883775,24.461193,0.999481,0.990160,0.003927,0.384483,-0.000009,0.000005,-0.000008,0.000008,-0.000012,-65.869468,0.000013,
2461,2278,4.49050886273981,-8.00863699032846,0.0100034890379561,0.006770,0.000825,-0.003219,0.322347,0.051088,327.045496,22.898473,0.999409,0.980790,0.005338,0.340219,0.000002,-0.000010,-0.000004,0.000003,-0.000011,-18.463905,0.000011,
2296,3148,0.730013238768066,10.9424930196552,0.0268283328529719,0.005926,0.000488,0.003193,0.262398,0.043031,312.871625,25.331125,0.999620,0.993476,0.003468,0.367507,-0.000011,0.000004,-0.000013,0.000012,-0.000019,-59.959323,0.000019,
2476,2488,4.77316174246615,-3.41353182839289,-0.0138531797393853,0.006564,0.000492,-0.003389,0.313882,0.015537,323.469338,23.543321,0.999608,0.986725,0.004357,0.412642,0.000009,-0.000038,0.000002,0.000009,-0.000038,2.239701,0.000039,
2356,3148,2.03400595562494,10.9469184913826,0.0275413077893631,0.006798,-0.000024,0.002571,0.303993,0.032155,312.887345,25.550177,0.999542,0.992325,0.003634,0.396021,-0.000001,0.000015,-0.000012,0.000021,-0.000007,-62.156224,0.000021,
2371,3148,2.35968709321987,10.9487709358516,0.0241500119029183,0.006725,0.000264,0.000563,0.307770,0.039973,312.865265,25.640573,0.999633,0.991590,0.003578,0.378017,0.000000,0.000014,-0.000011,0.000020,-0.000006,-61.645456,0.000021,
2221,2998,-0.872145713386619,7.68234009928311,0.00272625189029441,0.006849,0.000163,0.001962,0.309315,0.035541,315.305680,24.777557,0.999494,0.991311,0.003736,0.411526,-0.000002,0.000020,-0.000006,0.000021,-0.000004,-76.127854,0.000022,
2311,2938,1.09260015291229,6.38554495187709,-0.00901712420142076,0.006560,0.000320,0.002527,0.293436,0.056806,316.020547,24.875951,0.999054,0.989081,0.004181,0.462727,-0.000015,0.000004,-0.000004,0.000005,-0.000016,-79.599605,0.000016,
2356,2218,2.2091596262639,-9.32340975921052,0.0122209327495852,0.006721,0.000213,0.000619,0.305760,0.025257,327.884999,23.150088,0.998579,0.979639,0.005731,0.348675,-0.000020,-0.000019,-0.000015,-0.000004,-0.000034,-45.897505,0.000042,
2236,3088,-0.561635838236278,9.63650956343927,0.0166870915743971,0.006600,0.000162,0.001882,0.298102,0.032164,313.905448,24.991322,0.999555,0.992472,0.003454,0.358111,-0.000010,0.000000,-0.000017,0.000012,-0.000023,-53.596343,0.000023,
2401,3268,2.98528003262799,13.5558208406188,-0.008174828444794,0.006412,0.000139,0.000246,0.294570,0.035401,310.629773,26.083187,0.999631,0.992237,0.003556,0.413551,0.000008,0.000007,0.000003,0.000011,0.000004,44.612663,0.000015,
2356,2038,2.2443323529441,-13.2722372010397,0.0233485117508394,0.006808,0.000715,-0.002301,0.319841,0.031761,330.893692,22.653328,0.998921,0.978400,0.005832,0.349383,-0.000005,-0.000035,0.000006,-0.000003,-0.000036,10.331094,0.000043,
2431,2488,3.79116318962189,-3.41489326574086,-0.00832553765974353,0.006321,-0.000047,0.003104,0.278356,0.010862,323.386395,23.656967,0.999222,0.983983,0.004752,0.394621,-0.000001,-0.000029,0.000000,-0.000001,-0.000029,-0.292213,0.000034,
2311,3208,1.04618476100625,12.2442761477557,0.0396479297687051,0.006581,0.000461,0.003134,0.292685,0.040949,312.011923,25.520458,0.999745,0.993201,0.003253,0.364459,-0.000006,0.000008,-0.000005,0.000010,-0.000007,-71.670929,0.000010,
2341,2188,1.88702384595305,-9.97992858319174,0.0102003152632619,0.006665,-0.000004,0.001798,0.299028,0.015812,328.343678,23.194172,0.999196,0.986533,0.004810,0.290025,-0.000023,-0.000024,-0.000008,-0.000016,-0.000031,-43.476560,0.000048,
2446,2323,4.15292810719992,-7.02377572114547,0.00348896673528998,0.006695,0.000406,0.000749,0.304017,0.049928,326.212777,23.022769,0.999294,0.980394,0.005247,0.442456,-0.000017,0.000017,0.000000,0.000017,-0.000017,-89.593374,0.000020,
2446,2248,4.16885211947256,-8.66606192652717,0.0103190869281207,0.006726,0.000836,-0.002997,0.319368,0.039973,327.498654,22.840800,0.999053,0.979595,0.005510,0.342140,0.000002,-0.000026,0.000001,0.000002,-0.000026,1.093140,0.000029,
2266,3208,0.0686126402580598,12.2411552438324,0.0280532192401779,0.006478,0.000302,0.002221,0.291454,0.048252,311.970485,25.305417,0.999739,0.994398,0.003108,0.366685,-0.000012,0.000006,-0.000004,0.000007,-0.000013,-76.870055,0.000013,
2341,2008,1.92158415711765,-13.930966834672,0.0311931409683552,0.006187,-0.000243,0.004506,0.267373,0.016092,331.386895,22.745736,0.998500,0.975675,0.006447,0.260438,-0.000009,-0.000020,0.000020,0.000006,-0.000035,37.606348,0.000037,
2401,3238,2.99366485537833,12.9033079974979,0.0236411584715484,0.006552,0.000104,0.001944,0.294745,0.035869,311.390472,25.985420,0.999474,0.992742,0.003400,0.423447,0.000006,0.000009,-0.000002,0.000010,0.000005,-66.387182,0.000015,
2491,2608,5.07585078196061,-0.793363501222821,-0.00610609887218061,0.006343,0.000107,0.001272,0.286096,0.038427,321.595275,23.967954,0.999845,0.994292,0.003499,0.456096,0.000001,-0.000009,-0.000001,0.000002,-0.000009,-7.607571,0.000010,
2431,2263,3.83709806109462,-8.33637419336439,0.0010355966396105,0.006917,-0.000023,0.003897,0.302348,0.011732,327.133685,22.991784,0.999079,0.980374,0.005504,0.284619,-0.000014,-0.000019,-0.000012,-0.000004,-0.000029,-39.802869,0.000036,
2401,2113,3.21287462941944,-11.6269590196858,0.026334099345263,0.006506,-0.000105,0.003385,0.285436,0.030058,329.708148,22.645130,0.998918,0.975232,0.006077,0.300398,-0.000033,-0.000039,-0.000014,-0.000022,-0.000050,-38.127726,0.000074,
2401,2368,3.16112131560279,-6.03927345839581,0.000795035435260161,0.006555,-0.000446,0.004863,0.282682,0.016455,325.371510,23.355403,0.998784,0.981053,0.005213,0.392070,-0.000012,0.000003,0.000017,0.000014,-0.000023,57.487091,0.000023,
2371,2068,2.565809625588,-12.6140225673184,0.02374633067177,0.006437,0.000485,0.001628,0.288950,0.047981,330.389518,22.630118,0.999442,0.981501,0.005089,0.378295,-0.000015,-0.000039,0.000007,-0.000013,-0.000041,15.473566,0.000057,
2191,2863,-1.50181732598719,4.74913673862116,-0.0200127963542513,0.006609,0.000371,-0.001692,0.309712,0.016494,317.400201,24.576970,0.999314,0.991719,0.003623,0.382792,-0.000013,0.000014,-0.000001,0.000014,-0.000013,-88.902038,0.000016,
2416,2428,3.47652113845237,-4.72602353117345,-0.00734543512663777,0.006622,-0.000256,-0.000976,0.307002,-0.019501,324.373938,23.561011,0.999520,0.987085,0.004546,0.297149,0.000004,0.000011,0.000023,0.000030,-0.000016,49.431220,0.000030,
2461,2398,4.46423137225613,-5.38187079708807,-0.000501464958404085,0.006081,0.000052,0.002245,0.270203,0.033397,324.961770,23.294108,0.999570,0.987107,0.004682,0.378050,0.000015,0.000005,0.000001,0.000015,0.000005,5.296369,0.000022,
2386,3058,2.70165826809581,8.99671108056282,0.013227937116767,0.006521,0.000092,0.004056,0.285550,0.035833,314.232741,25.442324,0.999677,0.992493,0.003524,0.383094,-0.000013,0.000020,-0.000011,0.000024,-0.000017,-73.208239,0.000024,
2461,2638,4.41465879232475,-0.137180112717957,-0.0273197345781,0.006785,0.000483,-0.002857,0.322232,0.020002,320.890193,24.188376,0.999545,0.989832,0.003990,0.359238,-0.000007,0.000010,-0.000019,0.000022,-0.000019,-57.043359,0.000024,
2431,2128,3.86625025846392,-11.2989831899984,0.0315957817651906,0.006357,0.000912,-0.001138,0.295409,0.046761,329.563353,22.504539,0.999615,0.980223,0.005810,0.332445,-0.000023,-0.000031,-0.000010,-0.000016,-0.000038,-34.169973,0.000056,
2326,2158,1.56517749618568,-10.6387431316883,0.0156324577597502,0.006341,0.000316,0.002400,0.282296,0.053401,328.859076,23.082593,0.999153,0.984019,0.005143,0.442414,-0.000033,-0.000016,-0.000006,-0.000014,-0.000035,-73.279359,0.000051,
2206,2938,-1.1881317289035,6.37876088368206,-0.00548414479658277,0.006638,0.000182,0.001218,0.301955,0.035001,316.248237,24.666174,0.999483,0.992396,0.003586,0.415868,-0.000011,0.000018,-0.000004,0.000019,-0.000012,-82.007567,0.000019,
2416,2188,3.52596076969986,-9.98204584791213,0.0229600310865408,0.006533,0.000002,0.000219,0.298245,0.012253,328.501788,22.818679,0.999261,0.983390,0.005015,0.273108,-0.000026,-0.000014,-0.000014,-0.000004,-0.000036,-56.421309,0.000044,
2476,2503,4.77020113067665,-3.0866717631777,-0.00492292744604583,0.006484,-0.000111,0.003430,0.284124,0.021297,323.270754,23.596445,0.999611,0.988199,0.004227,0.423036,0.000002,-0.000028,-0.000003,0.000002,-0.000029,-5.408756,0.000032,
2476,2713,4.72594403599912,1.49754130489487,-0.0235354267628622,0.006462,0.000193,0.002410,0.287508,0.037021,319.701034,24.357846,0.999655,0.990056,0.004068,0.480887,-0.000022,0.000010,-0.000013,0.000015,-0.000027,-70.753904,0.000027,
2161,2488,-2.09095525263043,-3.4187968231037,-0.0209416160818705,0.006507,0.000602,-0.002546,0.307062,0.037092,323.573298,24.235493,0.999009,0.986541,0.004785,0.436986,-0.000020,-0.000004,-0.000018,0.000008,-0.000032,-56.673608,0.000033,
2206,2728,-1.15357239384639,1.81390781424241,-0.0274955646278272,0.006392,0.000398,0.000406,0.292968,0.042082,319.471620,24.432925,0.999181,0.989508,0.004089,0.425012,-0.000013,-0.000005,-0.000014,0.000006,-0.000023,-53.327059,0.000024,
2506,2698,5.38304041633962,1.17279825147578,-0.027866509818864,0.006506,0.000513,-0.003139,0.310816,0.016309,320.015197,24.374361,0.999657,0.991713,0.003624,0.382169,0.000001,-0.000021,-0.000021,0.000014,-0.000033,-31.126987,0.000034,
2431,2278,3.83356288850824,-8.00921593113323,0.000852927499863654,0.006276,-0.000004,0.002832,0.276976,0.013926,326.864825,22.916318,0.999139,0.978673,0.005732,0.414682,-0.000024,-0.000007,-0.000010,-0.000002,-0.000028,-65.659296,0.000034,
2386,3208,2.67406872090169,12.2506696759999,0.0308760569175206,0.006403,0.000099,0.002157,0.287151,0.026799,311.924876,25.819606,0.999483,0.992927,0.003432,0.418356,0.000000,0.000018,-0.000006,0.000020,-0.000002,-71.973822,0.000022,
2371,2248,2.53028841994403,-8.66458348949924,-0.00304589829380575,0.007154,0.000346,-0.001114,0.331790,0.026333,327.304644,23.169035,0.999124,0.982827,0.005528,0.345318,-0.000016,-0.000040,-0.000005,-0.000016,-0.000041,-10.572323,0.000058,
2461,2293,4.48677378143779,-7.68223364149022,0.0139891783611574,0.006305,-0.000320,0.003741,0.274484,0.029313,326.789110,22.824697,0.999323,0.980001,0.005405,0.448541,0.000000,0.000001,0.000003,0.000004,-0.000002,51.518239,0.000004,
2176,2788,-1.81553193107613,3.11820899805957,-0.0291800527631949,0.006644,0.000151,-0.001208,0.309640,0.019584,318.591604,24.488003,0.999281,0.989738,0.004220,0.391808,-0.000018,0.000000,-0.000011,0.000005,-0.000023,-65.016293,0.000024,
2491,2788,5.0369388625255,3.13409818625169,-0.0260209866412993,0.006220,0.000125,0.003113,0.273675,0.038665,318.481481,24.775100,0.999281,0.987663,0.004279,0.360516,-0.000016,-0.000015,-0.000033,0.000017,-0.000048,-45.579480,0.000049,
2386,2083,2.89078806871915,-12.285077973158,0.0238824364114976,0.006536,0.000076,0.002443,0.290329,0.040896,330.161211,22.593921,0.999138,0.976141,0.005804,0.358299,-0.000018,-0.000037,0.000003,-0.000018,-0.000037,8.004721,0.000056,
2446,2263,4.16575525237866,-8.33743583308151,0.00828923132564796,0.006539,0.000495,-0.006258,0.322834,0.006164,327.242760,22.910917,0.998983,0.978874,0.005686,0.292891,-0.000001,-0.000017,-0.000008,0.000003,-0.000021,-22.333344,0.000023,
2341,2878,1.75441760813429,5.0830679815986,-0.0243851392755232,0.005983,0.000110,0.000657,0.272942,0.027654,316.835934,24.736612,0.999567,0.991383,0.003806,0.495162,-0.000017,0.000005,0.000000,0.000005,-0.000017,-88.753991,0.000018,
2356,3163,2.031153866867,11.271943476821,0.0318445855534151,0.006443,0.000209,0.002257,0.288856,0.041534,312.662594,25.563609,0.999520,0.992458,0.003715,0.429581,-0.000002,0.000018,-0.000007,0.000020,-0.000004,-71.366780,0.000021,
2266,2968,0.109998655048127,7.03466433738824,-0.0070711333829081,0.006817,0.000406,-0.001404,0.318754,0.047234,315.627665,24.860393,0.999367,0.991073,0.003863,0.418143,-0.000013,0.000015,-0.000007,0.000017,-0.000015,-77.260886,0.000018,
2356,2053,2.24214990075761,-12.9441770980959,0.0369523247773031,0.006504,0.000689,-0.001016,0.301436,0.039678,330.747235,22.725965,0.999096,0.980435,0.005372,0.326435,-0.000006,-0.000035,0.000012,-0.000002,-0.000039,19.258969,0.000046,
2251,3133,-0.243367766308065,10.6130078269187,0.0274099141664124,0.006715,0.000148,0.004283,0.295555,0.055420,313.225101,25.068343,0.999391,0.991900,0.003711,0.427033,-0.000011,0.000002,-0.000019,0.000015,-0.000024,-54.816484,0.000025,
2386,2308,2.84527926219931,-7.35202552067942,-0.00402205880345718,0.006509,-0.000070,0.001245,0.293777,0.019784,326.299252,23.185017,0.999784,0.994150,0.003413,0.436049,-0.000021,-0.000010,0.000007,-0.000006,-0.000025,63.280669,0.000033,
2311,3223,1.0431212796274,12.5689443679966,0.0372902593978779,0.006337,0.000349,0.001241,0.287870,0.025988,311.741801,25.499754,0.999661,0.993492,0.003170,0.401213,-0.000008,0.000008,-0.000008,0.000012,-0.000011,-68.268346,0.000013,
2461,2413,4.46225418413252,-5.05468638399147,0.00347503826975526,0.006781,0.000197,0.002000,0.303300,0.055097,324.785176,23.286894,0.999526,0.987016,0.004688,0.462598,0.000009,0.000000,0.000007,0.000013,-0.000004,28.014878,0.000014,
2506,2863,5.34850282448054,4.76757458059625,-0.0275022503038826,0.006548,0.000034,0.002542,0.290855,0.027473,317.305027,25.043205,0.999729,0.992759,0.003445,0.397002,-0.000009,0.000051,0.000000,0.000051,-0.000009,89.961622,0.000055,
2311,2773,1.12301742427998,2.79681699600584,-0.0107521685800975,0.006510,0.000358,0.000827,0.296647,0.039887,318.698540,24.557012,0.999587,0.992611,0.003652,0.413167,-0.000013,-0.000001,-0.000009,0.000003,-0.000018,-61.794715,0.000019,
2446,2578,4.0990391164494,-1.44714585858232,-0.0216897674080769,0.006690,-0.000733,0.009880,0.269813,0.039014,321.829898,23.989835,0.999638,0.991666,0.003944,0.376436,0.000000,0.000005,-0.000006,0.000009,-0.000005,-55.632933,0.000009,
2371,3163,2.35686074986247,11.2734774279033,0.0282264722357581,0.006561,0.000040,0.001897,0.295438,0.035866,312.641619,25.637177,0.999554,0.992023,0.003607,0.417108,-0.000002,0.000017,-0.000008,0.000020,-0.000005,-69.302269,0.000020,
2461,2653,4.41166224608969,0.189650303117247,-0.0209083939881225,0.006618,0.000273,0.001159,0.299407,0.030624,320.676805,24.254848,0.999566,0.989858,0.003952,0.358221,-0.000008,0.000004,-0.000026,0.000024,-0.000028,-51.486873,0.000031,
2491,2803,5.03391644997066,3.46035935481599,-0.0261276566067181,0.006326,-0.000076,0.003654,0.276400,0.026216,318.238788,24.803207,0.999314,0.987102,0.004480,0.378615,-0.000011,-0.000002,-0.000032,0.000026,-0.000039,-48.870007,0.000040,
2341,2203,1.88424323144394,-9.6514703511222,0.00982631457156913,0.006668,0.000376,0.001223,0.301370,0.036249,328.100925,23.189406,0.999054,0.983991,0.005168,0.354584,-0.000023,-0.000015,-0.000014,-0.000005,-0.000033,-54.044232,0.000041,
2476,2728,4.72337463206569,1.82531279396399,-0.0207022788499671,0.006709,-0.000005,0.002314,0.299100,0.017313,319.491492,24.532851,0.999623,0.991592,0.003600,0.343135,-0.000024,-0.000006,-0.000004,-0.000006,-0.000024,-78.765081,0.000032,
2326,3043,1.40051407915285,8.66631902082268,0.0135118096331439,0.006283,0.000230,0.001933,0.282686,0.037749,314.473859,25.189944,0.999679,0.992631,0.003496,0.399029,-0.000014,0.000014,-0.000013,0.000019,-0.000019,-69.100317,0.000022,
2506,2713,5.38028783943072,1.50000689576911,-0.0218722027232161,0.006646,0.000259,0.000305,0.303848,0.028034,319.813610,24.488133,0.999635,0.991181,0.003732,0.341333,-0.000011,-0.000027,-0.000009,-0.000006,-0.000031,-24.731647,0.000040,
2206,2953,-1.19126561276715,6.70520431576071,-0.0154546744919912,0.006571,0.000635,-0.002004,0.309319,0.047526,315.927441,24.655055,0.999454,0.992627,0.003573,0.455968,-0.000009,0.000020,-0.000008,0.000022,-0.000011,-75.894784,0.000022,
2401,3283,2.98197988153762,13.8810108092222,-0.0121075926920753,0.006617,0.000018,0.003611,0.291693,0.026890,310.347473,26.115912,0.999670,0.991896,0.003629,0.415963,0.000011,-0.000015,0.000003,0.000012,-0.000016,5.346543,0.000016,
2296,3163,0.728129151488631,11.2672855493041,0.036557980992086,0.006113,0.000238,0.003599,0.269580,0.043505,312.714878,25.363633,0.999709,0.993283,0.003352,0.364359,-0.000009,0.000006,-0.000010,0.000011,-0.000014,-63.054659,0.000015,
2401,2128,3.21093535782287,-11.2980385045848,0.0324920619747218,0.006937,0.000098,0.002600,0.308112,0.040168,329.540069,22.736176,0.999249,0.980584,0.005400,0.267489,-0.000031,-0.000033,-0.000011,-0.000021,-0.000043,-42.351887,0.000065,
2236,3103,-0.564415516103015,9.96109901192811,0.015971621595213,0.006551,0.000099,0.002190,0.294784,0.020372,313.651426,24.938629,0.999523,0.992921,0.003452,0.419348,-0.000011,0.000000,-0.000018,0.000013,-0.000024,-53.913531,0.000024,
2341,3073,1.72058923526004,9.319401795257,0.00578539504198261,0.006518,0.000194,-0.000041,0.300320,0.028265,313.930277,25.320635,0.999658,0.994169,0.003131,0.379268,-0.000011,0.000013,-0.000012,0.000018,-0.000016,-67.530905,0.000020,
2431,2143,3.86204859009414,-10.9689055450553,0.0186037795338052,0.006605,-0.000302,0.003893,0.287777,0.001817,329.205355,22.555582,0.999387,0.980083,0.005569,0.289824,-0.000024,-0.000020,-0.000010,-0.000012,-0.000032,-49.947504,0.000046,
2356,2968,2.0651332290267,7.04143036026966,-0.00883337694381225,0.006429,0.000268,0.001406,0.290986,0.048571,315.513347,25.150618,0.999567,0.991812,0.003627,0.356773,-0.000011,0.000008,-0.000001,0.000008,-0.000011,-85.817576,0.000012,
2446,2338,4.15035927917774,-6.69613232465463,0.0139218251973716,0.006624,-0.000440,0.004914,0.284954,0.030149,326.038034,23.138604,0.999180,0.981326,0.005183,0.360577,-0.000013,0.000028,0.000007,0.000030,-0.000014,80.856965,0.000030,
2386,3073,2.69849111180605,9.32271368976423,0.00712713497836148,0.006575,0.000353,0.002048,0.295359,0.040015,313.945789,25.463755,0.999641,0.991937,0.003621,0.408315,-0.000010,0.000017,-0.000012,0.000021,-0.000015,-69.608841,0.000022,
2491,2623,5.07242923868241,-0.466520519463515,-0.00943517362463808,0.006485,-0.000242,0.003712,0.283116,0.028237,321.320669,23.963640,0.999845,0.994341,0.003386,0.509857,0.000002,0.000003,-0.000010,0.000012,-0.000007,-45.924313,0.000012,
2356,2233,2.20588841584521,-8.99469809457241,0.0103496300064876,0.006595,-0.000056,0.002774,0.292388,0.038928,327.613768,23.170440,0.997919,0.976180,0.006236,0.383686,-0.000017,-0.000036,-0.000012,-0.000012,-0.000042,-25.441790,0.000057,
2431,2293,3.83083512838513,-7.68091605701735,0.00863850739494865,0.006079,-0.000220,0.005056,0.259708,0.021573,326.669645,23.025035,0.999123,0.980578,0.005440,0.365418,-0.000024,0.000003,-0.000002,0.000003,-0.000024,-84.868122,0.000026,
2161,2503,-2.09368300676708,-3.09074878072191,-0.0294395886375014,0.006935,0.000347,-0.001056,0.322140,0.025721,323.274770,24.252379,0.998997,0.985596,0.004888,0.420320,-0.000010,0.000000,-0.000016,0.000012,-0.000022,-54.049676,0.000022,
2311,2953,1.09034186027062,6.71198444858676,-0.00879375579069119,0.006668,0.000857,-0.002712,0.316493,0.053696,315.800397,24.953158,0.999251,0.991159,0.003825,0.414064,-0.000017,0.000006,-0.000006,0.000008,-0.000018,-76.571834,0.000018,
2491,2818,5.03130748677389,3.78622155989348,-0.0233011386362705,0.006474,-0.000166,0.002730,0.286742,0.025225,318.028330,24.809874,0.999408,0.988314,0.004378,0.429943,-0.000013,0.000005,-0.000020,0.000018,-0.000026,-56.891982,0.000026,
2251,3148,-0.245586585477533,10.9381220349161,0.0262561997015496,0.006918,0.000239,-0.000576,0.320808,0.027670,312.995480,25.088583,0.998671,0.988422,0.004374,0.401406,-0.000008,0.000007,-0.000014,0.000016,-0.000016,-59.336271,0.000019,
2416,2443,3.47338000712535,-4.39821280464668,-0.00685074791033458,0.006572,0.000182,0.001359,0.296415,0.031808,324.124039,23.558603,0.999546,0.987655,0.004436,0.400119,0.000007,-0.000016,0.000021,0.000019,-0.000029,30.641912,0.000029,
2446,2593,4.09637891793058,-1.11974471671793,-0.0297023303898527,0.006799,0.000434,-0.000883,0.315420,0.042668,321.564823,23.972980,0.999711,0.992940,0.003707,0.450129,0.000004,-0.000010,-0.000002,0.000005,-0.000010,-7.762850,0.000010,
2356,2068,2.23927438620425,-12.6147629695499,0.0348395017057896,0.006571,0.000796,-0.001695,0.306925,0.051736,330.493533,22.747213,0.999266,0.980575,0.005280,0.359550,-0.000010,-0.000031,0.000013,-0.000003,-0.000037,25.685595,0.000045,
2401,2383,3.15827888078757,-5.70992004969908,-0.00536216279658674,0.006625,0.000434,-0.001446,0.309073,0.033824,325.103005,23.443380,0.999246,0.984999,0.004800,0.368980,-0.000006,0.000004,0.000011,0.000011,-0.000013,56.958596,0.000014,
2311,3238,1.03965320448944,12.895250644765,0.0263831473804998,0.006440,0.000346,0.000799,0.294153,0.028601,311.410160,25.568422,0.999481,0.992875,0.003304,0.365804,-0.000008,0.000001,-0.000009,0.000006,-0.000014,-57.699950,0.000014,
2431,2503,3.78858418345626,-3.08858007349292,-0.000870039746928342,0.006274,-0.000532,0.005130,0.268524,-0.000705,323.195968,23.662962,0.999371,0.987080,0.004400,0.428043,-0.000004,-0.000022,-0.000003,-0.000004,-0.000022,-9.348189,0.000028,
2281,3103,0.412549141496982,9.96543838110843,0.0120485879281205,0.006770,0.000212,0.000177,0.311349,0.023360,313.552111,25.161126,0.999637,0.993143,0.003491,0.373587,-0.000014,0.000009,-0.000018,0.000019,-0.000024,-61.519863,0.000025,
2476,2518,4.76729327513777,-2.75853325766869,-0.00743495333085775,0.006618,0.000052,0.000713,0.300706,0.019335,323.022508,23.674863,0.999424,0.985093,0.004524,0.400491,-0.000006,-0.000014,0.000002,-0.000005,-0.000014,11.188005,0.000020,
2446,2278,4.16294897483283,-8.00821598414407,0.00816329233708757,0.006879,0.000853,-0.004698,0.332788,0.040818,327.008484,22.991621,0.999211,0.979724,0.005543,0.301280,-0.000011,-0.000008,-0.000006,-0.000003,-0.000016,-52.268760,0.000020,
2161,2728,-2.13150400512601,1.81157524398118,-0.0250295120073929,0.006483,0.000131,0.002555,0.290607,0.036848,319.634551,24.408165,0.999536,0.990072,0.004002,0.436585,-0.000012,0.000004,-0.000008,0.000008,-0.000015,-66.270573,0.000015,
2476,2743,4.71955729755105,2.15217456112232,-0.0272123813535359,0.006380,-0.000015,0.001071,0.288784,0.023378,319.182187,24.528309,0.999702,0.992578,0.003527,0.410698,-0.000021,0.000003,-0.000005,0.000004,-0.000022,-79.420998,0.000024,
2386,3223,2.67060152080963,12.5765636634091,0.026985129551008,0.006156,0.000033,0.002285,0.275324,0.026706,311.634001,25.890119,0.999556,0.993608,0.003257,0.389642,-0.000002,0.000016,-0.000005,0.000017,-0.000003,-74.365949,0.000018,
2341,2023,1.91872782842411,-13.6027504411263,0.0313143584024829,0.006073,-0.000254,0.003994,0.263935,0.008254,331.143831,22.686236,0.998690,0.977487,0.006132,0.352381,-0.000008,-0.000021,0.000017,0.000004,-0.000032,34.647379,0.000035,
2341,2893,1.75271381963768,5.40981861785217,-0.0134053876391249,0.006239,0.000500,0.000300,0.286177,0.054554,316.695793,24.875197,0.999396,0.991326,0.003807,0.419688,-0.000020,-0.000002,0.000000,-0.000002,-0.000020,-88.834233,0.000024,
2461,2308,4.4836300506023,-7.35110708506939,0.00241974933658184,0.006811,0.000204,-0.000556,0.314055,0.032959,326.488216,23.006601,0.999093,0.977111,0.005716,0.327189,-0.000002,0.000000,0.000002,0.000001,-0.000003,61.282304,0.000003,
2371,2263,2.52747766743333,-8.33596049448747,0.000546094284800347,0.006859,0.000654,-0.001990,0.321560,0.042602,327.081750,23.246281,0.999273,0.986287,0.004815,0.327699,-0.000019,-0.000035,-0.000008,-0.000016,-0.000038,-21.762397,0.000055,
2371,2083,2.56273192829859,-12.2842453190312,0.021822125709889,0.006519,0.000282,0.003462,0.286142,0.061388,330.128723,22.691973,0.999288,0.979461,0.005418,0.374094,-0.000017,-0.000030,0.000009,-0.000013,-0.000035,26.528242,0.000049,
2221,3013,-0.874519792320744,8.00783950994673,0.00635971434041949,0.006743,0.000342,0.000438,0.309397,0.040811,315.091374,24.797007,0.999476,0.991473,0.003676,0.415485,0.000000,0.000018,-0.000005,0.000019,-0.000002,-75.183842,0.000021,
2191,2878,-1.50446229225271,5.07568111426638,-0.0129595586610662,0.006340,-0.000042,0.002480,0.284198,0.034524,317.189096,24.670474,0.999796,0.995282,0.002998,0.321264,-0.000010,0.000021,-0.000002,0.000021,-0.000010,-85.702000,0.000021,
2506,2728,5.37770665988087,1.82621531832589,-0.0197774170845264,0.006847,0.000173,-0.001360,0.319506,0.027463,319.602641,24.494548,0.999481,0.989872,0.003961,0.395824,-0.000013,-0.000038,-0.000003,-0.000013,-0.000038,-6.834550,0.000053,
2356,3178,2.02846003943552,11.5975860052955,0.0312642770289813,0.006563,0.000413,0.001146,0.298384,0.043314,312.421264,25.615812,0.999584,0.992861,0.003556,0.416855,0.000000,0.000019,-0.000007,0.000021,-0.000002,-72.966457,0.000023,
2416,2203,3.5227865558134,-9.65404881187143,0.0176278067641533,0.006799,0.000019,0.001140,0.307104,0.008165,328.224514,22.744301,0.999291,0.982354,0.005234,0.393836,-0.000024,-0.000012,-0.000013,-0.000004,-0.000032,-58.054667,0.000039,
2371,3178,2.35378907024803,11.5991682114309,0.0243827148124183,0.006632,0.000206,0.001446,0.300339,0.035398,312.368276,25.677220,0.999566,0.992559,0.003430,0.416526,0.000000,0.000019,-0.000008,0.000022,-0.000003,-70.324286,0.000024,
2266,2983,0.107214587555934,7.36009019506523,-0.00328540887954887,0.006721,0.000024,0.002198,0.302267,0.041000,315.398251,24.879385,0.999584,0.992676,0.003656,0.417656,-0.000009,0.000015,-0.000008,0.000018,-0.000011,-73.570708,0.000018,
2401,3298,2.9786801467697,14.2061179159435,-0.020263319512992,0.006826,0.000110,0.002803,0.304275,0.023453,310.045142,26.117448,0.999658,0.993094,0.003491,0.455202,0.000021,-0.000023,0.000001,0.000021,-0.000023,0.804500,0.000026,
2491,2833,5.0285336870666,4.11313837804258,-0.0283848621063498,0.006669,0.000374,-0.003609,0.320222,0.017268,317.774323,24.864785,0.999461,0.988785,0.004156,0.425786,-0.000006,0.000019,-0.000013,0.000025,-0.000011,-67.026029,0.000025,
2296,3178,0.725280806577146,11.5927326483787,0.0305616296681137,0.006307,0.000361,0.001427,0.285955,0.043416,312.435288,25.366325,0.999712,0.993368,0.003296,0.390313,-0.000007,0.000005,-0.000010,0.000011,-0.000013,-59.878675,0.000014,
2431,2308,3.82883627413327,-7.35180799185157,0.00992530304802131,0.006541,0.000281,-0.000109,0.300102,0.021392,326.477700,23.154475,0.999152,0.982721,0.005094,0.287792,-0.000027,0.000001,-0.000002,0.000001,-0.000027,-86.489343,0.000031,
2311,3253,1.0360374762608,13.2207824518698,0.0210747089726055,0.006355,0.000095,0.005438,0.274353,0.036349,311.099603,25.597113,0.999548,0.992498,0.003364,0.375630,-0.000008,-0.000001,-0.000008,0.000004,-0.000013,-58.176541,0.000014,
2446,2293,4.15931309881114,-7.68170667631611,0.00991980698256612,0.006494,0.000128,0.000212,0.296647,0.025549,326.745262,22.898579,0.999315,0.980558,0.005414,0.433273,-0.000012,0.000003,0.000001,0.000003,-0.000012,86.765597,0.000013,
2461,2668,4.40863562109698,0.515950367453044,-0.0225705738674264,0.006790,0.000136,0.001651,0.305424,0.018936,320.425229,24.231422,0.999525,0.987978,0.004139,0.425019,-0.000005,-0.000002,-0.000028,0.000024,-0.000032,-46.264213,0.000033,
2386,2098,2.88704787816795,-11.9550969987165,0.0165640295919616,0.006326,0.000108,0.003220,0.278004,0.046320,329.845913,22.629074,0.998882,0.974158,0.006140,0.375522,-0.000025,-0.000033,-0.000005,-0.000022,-0.000036,-25.158536,0.000059,
2311,2968,1.08834541539026,7.03749180399217,0.00371812709983033,0.006563,0.000361,-0.002049,0.309224,0.034722,315.653136,25.049557,0.999903,0.997526,0.002488,0.329862,-0.000019,0.000011,-0.000006,0.000012,-0.000021,-79.074659,0.000021,
2461,2428,4.45840452054614,-4.72575194956346,-0.00742634260291197,0.006696,0.000549,-0.000038,0.307197,0.038150,324.454547,23.342945,0.999348,0.985485,0.004808,0.445905,0.000010,0.000014,0.000017,0.000030,-0.000005,48.222877,0.000032,
2386,2323,2.84167088420186,-7.02266429792818,-0.0112986082727389,0.006362,0.000144,0.001158,0.287482,0.033396,325.989146,23.244605,0.999675,0.992364,0.003865,0.435939,-0.000024,-0.000010,0.000007,-0.000007,-0.000027,66.319152,0.000036,
2386,3238,2.66715161559347,12.9026039947629,0.0135244023694554,0.006547,0.000238,0.000759,0.298972,0.040447,311.298166,25.910519,0.999629,0.993300,0.003229,0.425236,-0.000001,0.000011,-0.000006,0.000014,-0.000003,-68.719985,0.000014,
2326,3058,1.39761846548243,8.99172359693511,0.00974922167858949,0.006480,-0.000095,0.002023,0.291400,0.033360,314.205965,25.174685,0.999693,0.993780,0.003219,0.443389,-0.000013,0.000014,-0.000010,0.000018,-0.000017,-71.483790,0.000020,
2476,2758,4.71696886772547,2.47727581661896,-0.0165055805081238,0.006122,0.000045,0.003229,0.268791,0.037547,319.007851,24.495120,0.999550,0.990522,0.003869,0.514762,-0.000010,0.000001,-0.000010,0.000007,-0.000016,-59.144841,0.000016,
2431,2158,3.86001171108863,-10.6423409834729,0.0303487271570475,0.006391,-0.000150,0.001546,0.286684,-0.004722,329.060973,22.518569,0.999333,0.979746,0.005551,0.372410,-0.000026,-0.000028,-0.000015,-0.000011,-0.000042,-43.539836,0.000057,
2476,2533,4.76386589380563,-2.43009455046145,-0.0116730365060675,0.006621,0.000213,0.000920,0.300159,0.029373,322.742389,23.758661,0.999620,0.988605,0.004028,0.384629,-0.000007,-0.000018,0.000007,-0.000004,-0.000022,26.320221,0.000027,
2491,2638,5.06825342830924,-0.13645495256818,-0.025752902567092,0.006684,0.000032,0.002631,0.296548,0.045511,320.952152,24.123142,0.999519,0.989772,0.004011,0.427649,-0.000003,0.000005,-0.000022,0.000023,-0.000021,-50.393207,0.000026,
2341,2218,1.88162774387064,-9.32343035678919,0.0105167777315955,0.006606,0.000333,-0.001347,0.307465,0.019067,327.871068,23.200355,0.998848,0.983589,0.005321,0.365459,-0.000020,-0.000016,-0.000016,-0.000002,-0.000034,-48.809718,0.000041,
2506,2878,5.34684686655541,5.09223548061569,-0.0111909100514822,0.006549,0.000016,0.001919,0.293248,0.008586,317.199798,25.072935,0.999714,0.993351,0.003350,0.408725,-0.000010,0.000048,0.000008,0.000049,-0.000012,82.020806,0.000051,
2506,2743,5.37300641019124,2.15509557876589,-0.0321910314700062,0.006539,0.000047,0.001316,0.295045,0.031295,319.228665,24.631091,0.999711,0.990375,0.003807,0.324610,-0.000017,-0.000020,-0.000008,-0.000010,-0.000027,-40.223095,0.000038,
2446,2353,4.14750450250216,-6.36832416951088,0.011065944298366,0.006703,-0.000115,0.001254,0.302323,0.017080,325.789008,23.136408,0.999365,0.982686,0.005188,0.403633,-0.000002,0.000030,0.000010,0.000033,-0.000005,73.667515,0.000036,
2176,2803,-1.81802376083921,3.44383855661658,-0.0201679178161385,0.006053,0.000631,-0.001527,0.283663,0.045799,318.397207,24.485399,0.999369,0.990132,0.004220,0.432520,-0.000019,0.000002,-0.000010,0.000006,-0.000022,-68.798891,0.000023,
2401,2143,3.20719149697682,-10.9691075485448,0.0211145571469729,0.006634,0.000735,-0.002097,0.311480,0.049525,329.206984,22.645189,0.999229,0.979193,0.005414,0.416692,-0.000031,-0.000027,-0.000012,-0.000016,-0.000042,-50.494165,0.000060,
2446,2608,4.093982535974,-0.793476178264953,-0.0147340542201846,0.006560,-0.000377,0.003735,0.286908,0.010730,321.417901,24.091264,0.999390,0.989209,0.004176,0.352370,0.000003,-0.000007,-0.000010,0.000009,-0.000013,-31.484257,0.000013,
2341,2908,1.75070936718493,5.73619344127912,-0.0149698314558009,0.007037,0.000514,-0.001534,0.329293,0.047188,316.481001,24.925876,0.999250,0.991084,0.003875,0.398040,-0.000020,0.000001,-0.000001,0.000001,-0.000020,-88.051785,0.000023,
2386,3088,2.69591591229032,9.64714509598661,0.0169647517462863,0.006398,-0.000324,0.005522,0.274421,0.004965,313.762424,25.485690,0.999442,0.990767,0.003829,0.393230,-0.000007,0.000015,-0.000016,0.000023,-0.000016,-62.444976,0.000024,
2431,2518,3.78631632832077,-2.76100794770936,0.000698447682339065,0.006560,0.000085,0.001537,0.295200,0.011309,322.992195,23.711438,0.999108,0.985060,0.004734,0.442578,-0.000010,-0.000015,-0.000003,-0.000009,-0.000017,-24.951765,0.000026,
2416,2458,3.47021396627906,-4.06948829344496,-0.0152290190297322,0.006835,0.000600,-0.001038,0.317440,0.038542,323.831526,23.606819,0.999410,0.986817,0.004628,0.407984,0.000010,-0.000006,0.000019,0.000022,-0.000019,33.828719,0.000024,
2461,2683,4.40494320018651,0.843946879324292,-0.0277723952960969,0.006488,0.000142,0.000790,0.294830,0.027055,320.126375,24.319778,0.999559,0.988878,0.004083,0.399886,-0.000009,-0.000001,-0.000025,0.000020,-0.000030,-49.279944,0.000031,
2356,3193,2.02511492004833,11.9235118148118,0.0269210361138903,0.006412,0.000300,0.001182,0.291270,0.035724,312.131596,25.685453,0.999572,0.992155,0.003593,0.377022,0.000000,0.000021,-0.000006,0.000022,-0.000002,-75.874638,0.000025,
2356,2983,2.06300952396585,7.36700534236864,-0.00711818047187762,0.006796,0.000595,-0.001498,0.318265,0.058316,315.310015,25.154568,0.999429,0.989342,0.004058,0.401036,-0.000013,0.000013,-0.000004,0.000014,-0.000014,-82.645128,0.000016,
2386,3253,2.66350419216638,13.2284838015627,0.00665737119794585,0.006536,0.000281,0.003208,0.289656,0.045610,310.984636,25.967201,0.999722,0.992836,0.003208,0.415489,0.000000,0.000016,-0.000004,0.000017,-0.000001,-75.628638,0.000019,
2446,2308,4.15588252979704,-7.35048894665143,0.000553109376085104,0.006600,0.000467,-0.002902,0.313216,0.025910,326.439656,23.114331,0.999214,0.980196,0.005368,0.272593,-0.000016,0.000001,-0.000001,0.000001,-0.000016,-86.810772,0.000017,
2431,2173,3.85646479619602,-10.3121017422034,0.0247803505729962,0.006225,-0.000219,0.000817,0.281797,-0.021917,328.766985,22.647938,0.999370,0.983129,0.004997,0.279105,-0.000031,-0.000020,-0.000016,-0.000009,-0.000042,-54.933722,0.000055,
2476,2548,4.76050864673418,-2.10282836484695,-0.0129587364837676,0.006319,0.000471,-0.000331,0.291181,0.033566,322.478997,23.772364,0.999582,0.988047,0.004205,0.432752,-0.000012,-0.000019,0.000004,-0.000010,-0.000020,24.776236,0.000031,
2356,2083,2.23509797051208,-12.283444465368,0.0210614745720932,0.006591,0.000328,0.002058,0.294594,0.039718,330.124236,22.843568,0.999452,0.982528,0.005040,0.293902,-0.000012,-0.000020,0.000012,-0.000003,-0.000029,35.567899,0.000036,
2326,3073,1.39502030189624,9.31856487106765,0.0115784535077523,0.006507,0.000406,0.001451,0.294779,0.043706,313.978631,25.317543,0.999708,0.995191,0.002877,0.344359,-0.000009,0.000013,-0.000009,0.000016,-0.000012,-70.769420,0.000017,
2386,2338,2.83978035301888,-6.69517537132696,0.000927178061829181,0.006226,0.000561,-0.001055,0.289354,0.033433,325.850391,23.344443,0.999170,0.985502,0.004727,0.380837,-0.000018,0.000001,0.000013,0.000007,-0.000024,62.869152,0.000025,
2431,2323,3.82547018786688,-7.02444094580164,0.00749113562079629,0.006401,0.000132,0.000636,0.290913,0.031457,326.205920,23.082658,0.999134,0.982472,0.005039,0.421801,-0.000029,0.000011,0.000000,0.000011,-0.000029,-89.434015,0.000029,
2401,2398,3.1553666720874,-5.38252903267802,-0.0035166992735185,0.006522,0.000207,-0.000978,0.302570,0.023654,324.869249,23.461748,0.999391,0.986087,0.004675,0.387571,0.000000,0.000000,0.000015,0.000015,-0.000014,44.929095,0.000017,
2371,2278,2.52544196907293,-8.00876889965989,0.0157022591966438,0.006473,0.000568,-0.002408,0.305310,0.017160,326.949826,23.356012,0.999806,0.993937,0.003529,0.235159,-0.000023,-0.000020,-0.000007,-0.000015,-0.000028,-51.067784,0.000044,
2371,2098,2.55950409142827,-11.9546278117904,0.0160107024526042,0.006562,0.000119,0.002876,0.290201,0.035322,329.842708,22.741829,0.999121,0.977674,0.005738,0.342646,-0.000024,-0.000027,0.000001,-0.000024,-0.000027,12.010801,0.000051,
2341,3088,1.71736842520917,9.64482895822791,0.00397139130075175,0.006427,0.000006,0.002106,0.288512,0.015655,313.657987,25.337426,0.999648,0.994345,0.003080,0.385514,-0.000008,0.000012,-0.000018,0.000022,-0.000019,-59.154070,0.000024,
2221,3028,-0.877432638450738,8.33331865894041,0.00316950354203982,0.006605,0.000099,-0.000700,0.306631,0.029437,314.817234,24.789556,0.999667,0.993861,0.003217,0.429756,0.000000,0.000010,-0.000011,0.000017,-0.000007,-57.605879,0.000017,
2311,2983,1.08581912914362,7.36223700829731,0.00772004029806794,0.006580,0.000308,-0.001088,0.306664,0.018432,315.439748,25.017311,0.999718,0.995084,0.002982,0.377573,-0.000016,0.000012,-0.000006,0.000013,-0.000017,-77.433210,0.000018,
2476,2773,4.71336106015053,2.80593839416646,-0.0242451737105966,0.006299,-0.000307,0.004167,0.273264,0.025234,318.702068,24.674470,0.999214,0.986874,0.004357,0.379838,-0.000016,-0.000011,-0.000015,0.000002,-0.000029,-49.259243,0.000032,
2416,1993,3.56575229771063,-14.2645226015257,0.0458947546258628,0.006178,0.000060,0.001020,0.278737,0.016829,331.818372,22.169262,0.998994,0.975457,0.006165,0.263908,-0.000020,-0.000082,-0.000007,-0.000019,-0.000083,-6.705349,0.000109,
2401,2158,3.20423153287436,-10.6405619867777,0.0245883889787706,0.006698,-0.000036,0.002632,0.297041,0.018096,328.979672,22.725257,0.999272,0.979668,0.005327,0.353628,-0.000032,-0.000029,-0.000017,-0.000014,-0.000048,-47.572780,0.000065,
2491,2653,5.06545384537623,0.191237962363104,-0.0258701333953013,0.006752,0.000511,-0.000023,0.310073,0.051045,320.720197,24.219239,0.999514,0.988236,0.004265,0.396501,-0.000003,0.000000,-0.000036,0.000034,-0.000038,-46.209861,0.000042,
2416,2218,3.51905648274806,-9.32337512380838,0.0097369201582751,0.006516,0.000380,-0.000693,0.300994,0.035039,327.909321,22.863051,0.999385,0.983828,0.005100,0.352731,-0.000018,-0.000016,-0.000009,-0.000008,-0.000026,-47.453246,0.000036,
2311,2788,1.12028061213494,3.12208294087197,-0.00698160106787782,0.006427,-0.000097,0.003132,0.284810,0.031221,318.474682,24.512284,0.999659,0.994411,0.003383,0.481436,-0.000010,-0.000003,-0.000005,0.000000,-0.000013,-61.267693,0.000015,
2356,2248,2.20258706248078,-8.66608678818754,0.0107475426660244,0.006463,-0.000349,0.007491,0.269671,0.026586,327.352120,23.236396,0.998831,0.981727,0.005459,0.346591,-0.000018,-0.000049,-0.000014,-0.000013,-0.000054,-20.830698,0.000071,
2461,2443,4.45604923346433,-4.39811960483351,0.000290164710520457,0.006875,0.000322,0.001630,0.309082,0.040811,324.277513,23.440781,0.999128,0.985418,0.004820,0.406490,0.000016,-0.000027,0.000019,0.000023,-0.000034,20.605610,0.000035,
2446,2368,4.14425314260443,-6.03913047617581,0.00547717702272621,0.006804,0.000144,-0.000131,0.312258,0.002732,325.508960,23.241309,0.999414,0.985562,0.004887,0.338749,-0.000003,0.000018,0.000013,0.000024,-0.000010,64.172591,0.000024,
2386,3103,2.69323668278794,9.97275114793766,0.0194146143763305,0.006230,0.000025,0.003028,0.275897,0.031701,313.538635,25.510331,0.999128,0.989302,0.004066,0.437737,-0.000006,0.000020,-0.000012,0.000025,-0.000010,-68.597769,0.000025,
2266,2998,0.105092254566948,7.68527785511314,0.00186139688707954,0.006851,-0.000019,0.001154,0.311649,0.017931,315.206174,24.905963,0.999481,0.991313,0.003751,0.392806,-0.000009,0.000018,-0.000009,0.000021,-0.000011,-73.700440,0.000021,
2341,2233,1.87871534249564,-8.99498580419932,0.0139956139392439,0.006420,0.000433,0.001102,0.290467,0.046894,327.640776,23.237337,0.998624,0.979498,0.005687,0.395592,-0.000020,-0.000036,-0.000014,-0.000012,-0.000044,-30.616069,0.000059,
2476,2563,4.7571794421853,-1.77364587534655,-0.0237224398840112,0.006762,0.000812,-0.002577,0.320181,0.031242,322.173541,23.889841,0.998805,0.984681,0.004903,0.370745,-0.000009,-0.000011,0.000002,-0.000007,-0.000012,31.030122,0.000019,
2446,2623,4.09103282541937,-0.466137487235727,-0.0127221912360369,0.006311,0.000127,0.002087,0.281852,0.034881,321.185475,24.143845,0.999441,0.989654,0.004035,0.376709,0.000002,0.000009,-0.000017,0.000023,-0.000012,-51.548239,0.000023,
2431,2188,3.85441877824617,-9.98291127325065,0.029458232400998,0.006565,0.000195,-0.001882,0.307445,-0.000307,328.589006,22.756645,0.999673,0.987938,0.004377,0.244391,-0.000029,-0.000011,-0.000013,-0.000004,-0.000036,-62.051867,0.000044,
2356,3208,2.02264564068836,12.2480735829276,0.0311229254484715,0.006498,0.000190,0.001514,0.294033,0.026966,311.923989,25.684272,0.999548,0.992668,0.003490,0.406937,0.000000,0.000019,-0.000004,0.000020,0.000000,-78.422001,0.000023,
2431,2533,3.78331948072928,-2.43209669904127,-0.00176111792069378,0.006645,0.000184,0.000283,0.303823,0.031337,322.735936,23.843403,0.999288,0.987926,0.004408,0.381702,-0.000010,-0.000018,-0.000003,-0.000009,-0.000019,-17.414931,0.000029,
2461,2323,4.4805337197472,-7.02402577663933,0.00400536379993355,0.006902,-0.000148,0.002998,0.304749,0.025127,326.249905,22.967176,0.999082,0.979040,0.005496,0.415105,-0.000005,0.000022,0.000001,0.000022,-0.000005,88.092368,0.000023,
2386,3268,2.66025402371133,13.553908994495,0.0032981260430347,0.006380,0.000272,0.002276,0.285865,0.043153,310.706220,26.013523,0.999685,0.992728,0.003363,0.408500,0.000000,0.000012,-0.000003,0.000012,-0.000001,-77.169693,0.000014,
2386,2353,2.83690575013292,-6.36859087359774,0.00414401261463127,0.006348,-0.000413,0.003547,0.278063,0.004053,325.624069,23.306294,0.998895,0.982515,0.005182,0.434607,-0.000010,-0.000002,0.000017,0.000011,-0.000023,51.337784,0.000023,
2326,3088,1.39278559065586,9.64240131861214,0.0177751515432192,0.006652,0.000155,0.002089,0.299127,0.031050,313.790366,25.237965,0.999679,0.994749,0.003027,0.444846,-0.000008,0.000010,-0.000016,0.000020,-0.000017,-59.572656,0.000022,
2476,2788,4.71069022159546,3.13326717591401,-0.0237637040749519,0.006512,0.000363,0.002643,0.289152,0.056407,318.476835,24.756955,0.999228,0.985886,0.004441,0.385216,-0.000015,-0.000013,-0.000017,0.000003,-0.000031,-47.086663,0.000035,
2416,2008,3.56326901204345,-13.9360867267106,0.0446602359215831,0.006565,0.000553,-0.001025,0.304085,0.036440,331.592529,22.081040,0.998966,0.974422,0.006229,0.423144,-0.000014,-0.000056,0.000006,-0.000013,-0.000057,8.619646,0.000074,
2491,2668,5.06264718133104,0.51701525196647,-0.021319460679365,0.006736,0.000145,0.001157,0.304651,0.028128,320.509286,24.211326,0.999413,0.987048,0.004413,0.440672,0.000000,-0.000019,-0.000043,0.000034,-0.000053,-38.610944,0.000054,
2401,2413,3.15264243162624,-5.05464292504867,-0.00277334097614812,0.006666,0.000320,-0.000871,0.308892,0.030849,324.638733,23.502317,0.999469,0.986363,0.004619,0.401359,-0.000003,-0.000004,0.000019,0.000016,-0.000022,44.148723,0.000023,
2311,2998,1.08319206467227,7.68759542477387,0.0114475485332832,0.006582,0.000099,0.000691,0.300694,0.031089,315.220117,25.014344,0.999884,0.996544,0.002821,0.424648,-0.000016,0.000017,-0.000008,0.000019,-0.000017,-77.220113,0.000021,
2506,2893,5.34449487946408,5.41955636092933,-0.00767728606496121,0.006791,0.000407,-0.000574,0.314261,0.035306,317.004480,25.210962,0.999566,0.990804,0.003921,0.358262,-0.000005,0.000033,0.000005,0.000033,-0.000006,82.545859,0.000036,
2491,2848,5.02569265773026,4.44020761459036,-0.0215068216501209,0.006567,0.000092,-0.000800,0.304656,0.014283,317.570996,25.023422,0.999603,0.991997,0.003638,0.322627,-0.000008,0.000032,-0.000020,0.000040,-0.000016,-67.196675,0.000041,
2386,2113,2.88415096145357,-11.6259835573134,0.0183525030117835,0.006215,0.000086,0.003650,0.271405,0.048111,329.612304,22.694184,0.998562,0.969607,0.006501,0.358688,-0.000028,-0.000035,-0.000008,-0.000023,-0.000041,-33.471261,0.000065,
2371,3193,2.35131955973481,11.9241157036828,0.0310625401205016,0.006535,0.000066,0.001627,0.295186,0.025989,312.173371,25.723672,0.999510,0.992569,0.003481,0.400241,0.000001,0.000022,-0.000007,0.000025,-0.000001,-72.926363,0.000028,
2371,2293,2.52283834733372,-7.68118738520697,0.0191195703371818,0.006663,0.000449,0.000180,0.304837,0.042001,326.735604,23.336199,0.999780,0.994352,0.003437,0.323157,-0.000020,-0.000010,0.000001,-0.000010,-0.000021,85.778576,0.000031,
2506,2758,5.36956449852551,2.48098425178621,-0.0332620926129721,0.006452,-0.000150,0.003280,0.283386,0.033371,318.963810,24.590040,0.999742,0.990980,0.003675,0.428970,-0.000015,-0.000025,-0.000018,-0.000002,-0.000038,-36.953661,0.000045,
2266,3223,0.0656716820364309,12.5660236924504,0.025835388108078,0.006364,0.000435,0.001547,0.288508,0.055230,311.703272,25.282177,0.999785,0.995443,0.003060,0.421136,-0.000014,0.000011,-0.000006,0.000012,-0.000015,-77.239773,0.000016,
2251,3163,-0.24807492791933,11.2638071035875,0.0331403655225699,0.006709,0.000368,0.000581,0.307514,0.042250,312.794028,25.171580,0.999260,0.990560,0.003855,0.354833,-0.000007,0.000010,-0.000011,0.000016,-0.000012,-64.546648,0.000016,
2461,2698,4.40223766481359,1.17075430583872,-0.0205587369961791,0.006335,0.000006,0.002245,0.282316,0.031395,319.929834,24.409453,0.999692,0.989219,0.004146,0.368816,-0.000006,0.000006,-0.000024,0.000024,-0.000025,-52.467697,0.000028,
2341,3103,1.71584104527501,9.96954527017467,0.0182610758773194,0.006600,0.000031,0.001624,0.298265,0.030617,313.542162,25.366422,0.999640,0.993498,0.003307,0.406960,-0.000004,0.000017,-0.000016,0.000026,-0.000013,-62.280082,0.000026,
2311,3268,1.03296247144657,13.5463770025398,0.0124316362214358,0.006409,0.000337,0.001357,0.290988,0.046754,310.797371,25.614947,0.999588,0.993421,0.003174,0.399206,-0.000006,-0.000001,-0.000006,0.000004,-0.000010,-54.795260,0.000010,
2431,2338,3.82232251549702,-6.69570451217914,0.00646433584216766,0.006629,-0.000563,0.004443,0.287093,0.014750,325.950534,23.182169,0.999108,0.983368,0.004822,0.357452,-0.000023,0.000022,0.000007,0.000023,-0.000024,81.855360,0.000027,
2341,2923,1.74763101064427,6.06222478579109,-0.0131823405151863,0.006868,0.000088,0.001371,0.311238,0.037582,316.233165,24.975746,0.999087,0.989920,0.004056,0.374590,-0.000020,0.000002,-0.000002,0.000002,-0.000020,-85.178944,0.000022,
2356,2098,2.2314556193254,-11.9539177992227,0.0151672452458911,0.006388,-0.000093,0.003993,0.278371,0.018698,329.817325,22.879160,0.999406,0.981218,0.005226,0.279617,-0.000020,-0.000019,0.000002,-0.000017,-0.000022,49.837543,0.000038,
2401,2173,3.20061309763351,-10.3109723271858,0.0177189338786548,0.006467,0.000048,0.001615,0.290231,0.020660,328.673304,22.761864,0.999188,0.981459,0.005246,0.368210,-0.000033,-0.000025,-0.000014,-0.000014,-0.000044,-52.230910,0.000060,
2356,2998,2.06006170098494,7.69272898969668,0.00103603243240968,0.006391,0.000476,0.002676,0.284902,0.062360,315.099768,25.225595,0.999597,0.992499,0.003558,0.371796,-0.000014,0.000014,-0.000007,0.000015,-0.000015,-77.100445,0.000017,
2386,3118,2.69058442548586,10.2987947111304,0.0212991968355141,0.006431,-0.000039,0.004283,0.280639,0.033969,313.313213,25.599843,0.999601,0.992672,0.003429,0.392857,-0.000004,0.000019,-0.000010,0.000023,-0.000007,-69.802312,0.000023,
2356,2263,2.19982841002274,-8.33725804051317,0.00880406370504261,0.006310,0.000589,0.002621,0.280148,0.045327,327.103876,23.272353,0.999227,0.985404,0.004930,0.370680,-0.000021,-0.000046,-0.000017,-0.000012,-0.000055,-26.571806,0.000072,
2506,2773,5.36695003764722,2.80742416725708,-0.032382951914542,0.006479,0.000089,-0.001248,0.302249,0.018446,318.745588,24.636440,0.999738,0.991290,0.003677,0.428675,-0.000017,-0.000027,-0.000020,-0.000001,-0.000043,-38.311057,0.000050,
2416,2473,3.46787980431543,-3.74316614877704,-0.00543204251994212,0.006602,0.000773,-0.001708,0.309271,0.034608,323.662412,23.619234,0.999219,0.986104,0.004726,0.440491,0.000005,-0.000019,0.000014,0.000011,-0.000025,24.464453,0.000025,
2506,2908,5.34022281285037,5.74640027956237,-0.0166163222666569,0.006448,0.000377,0.000282,0.295210,0.029335,316.665087,25.252170,0.999535,0.989327,0.004071,0.371981,-0.000001,0.000029,0.000009,0.000032,-0.000004,75.088611,0.000035,
2431,2548,3.78056608643805,-2.1048690589639,0.00526866559897599,0.006584,0.000004,0.003803,0.287943,0.034038,322.535128,23.927684,0.999678,0.990192,0.003925,0.350876,-0.000007,-0.000015,-0.000003,-0.000006,-0.000016,-15.816616,0.000023,
2491,2863,5.02299559735905,4.76596282341862,-0.0192377863072579,0.006889,0.000096,0.000860,0.313104,0.025263,317.353733,25.016339,0.999578,0.991533,0.003694,0.399515,-0.000009,0.000042,-0.000018,0.000048,-0.000015,-72.566736,0.000049,
2311,3013,1.07950993096787,8.014682213176,0.000309570690546934,0.006587,-0.000145,0.001685,0.297424,0.013707,314.878098,25.104513,0.999554,0.991311,0.003635,0.348568,-0.000016,0.000018,-0.000007,0.000019,-0.000017,-78.161379,0.000021,
2386,2128,2.88133726916488,-11.2972625287058,0.0181742191950889,0.006435,-0.000200,0.005293,0.275506,0.033951,329.373273,22.723256,0.999042,0.976611,0.005757,0.361624,-0.000028,-0.000028,-0.000008,-0.000020,-0.000036,-44.789370,0.000057,
2251,3178,-0.250722955133828,11.5879207151783,0.0377419688482519,0.006464,0.000086,0.001200,0.294086,0.030977,312.574190,25.124888,0.999498,0.992008,0.003456,0.412383,-0.000005,0.000010,-0.000009,0.000015,-0.000009,-64.745870,0.000015,
2431,2203,3.85072083278243,-9.65526439153599,0.0254100446277334,0.006439,-0.000163,0.001540,0.288961,-0.001548,328.295146,22.660663,0.999542,0.985310,0.004785,0.391975,-0.000026,-0.000010,-0.000011,-0.000005,-0.000032,-62.993332,0.000040,
2431,2353,3.81909074768365,-6.36692976995228,0.000728730720311432,0.006506,-0.000123,0.000329,0.296812,0.009708,325.669359,23.232698,0.999022,0.982771,0.005063,0.353970,-0.000013,0.000023,0.000010,0.000025,-0.000016,75.497426,0.000025,
2506,2788,5.36406403396332,3.13418680408699,-0.025225280230643,0.006454,0.000060,0.003051,0.284457,0.028752,318.542725,24.740452,0.999583,0.990502,0.003933,0.396119,-0.000013,-0.000024,-0.000025,0.000007,-0.000045,-39.040930,0.000048,
2341,2938,1.74535118654733,6.38727366455207,-0.00694589808682622,0.006998,0.000044,0.002242,0.314192,0.038258,316.043891,24.960193,0.999048,0.989107,0.004123,0.426936,-0.000014,0.000003,-0.000003,0.000004,-0.000015,-79.675721,0.000015,
2506,2923,5.33601572837624,6.07368275107672,-0.0261467976104655,0.006575,-0.000213,0.005263,0.281558,0.027984,316.325806,25.330450,0.999364,0.987290,0.004234,0.353054,-0.000001,0.000017,0.000005,0.000018,-0.000003,76.970262,0.000020,
2476,2578,4.7537991737798,-1.44683543657396,-0.0188898415761969,0.006537,-0.000223,0.003421,0.286719,0.027497,321.936746,23.933752,0.998592,0.985143,0.004922,0.380492,-0.000008,0.000003,0.000005,0.000005,-0.000010,69.222690,0.000010,
2461,2458,4.45326952846615,-4.06957206153931,-0.000235204101386444,0.006827,0.001170,-0.002536,0.322890,0.065216,324.043096,23.528029,0.999399,0.986389,0.004627,0.399508,0.000019,-0.000015,0.000018,0.000026,-0.000023,23.037774,0.000028,
2491,2878,5.0201014714832,5.09076585445307,-0.0113470005788372,0.006420,-0.000007,0.001125,0.290536,0.014025,317.152934,24.989143,0.999553,0.992879,0.003481,0.473772,-0.000008,0.000037,-0.000010,0.000039,-0.000010,-78.538244,0.000040,
2461,2713,4.39945951038468,1.49772830083804,-0.0210420475434603,0.006818,0.000076,0.004626,0.295623,0.062650,319.694592,24.428636,0.999687,0.991126,0.003811,0.435988,-0.000016,0.000016,-0.000014,0.000021,-0.000022,-68.893332,0.000025,
2431,2563,3.77762527531855,-1.77709662723876,0.00128945439189465,0.007239,-0.000084,0.007494,0.304387,0.055728,322.274452,23.949783,0.999509,0.989307,0.004130,0.401774,-0.000004,-0.000006,-0.000005,0.000000,-0.000010,-39.289250,0.000012,
2461,2338,4.47727868193414,-6.69498472877905,0.00489630514692863,0.006650,-0.000039,0.003453,0.291593,0.030357,326.000771,23.092107,0.998955,0.978856,0.005474,0.351915,-0.000002,0.000035,0.000006,0.000036,-0.000003,80.829675,0.000040,
2341,3118,1.71378369894336,10.2946861220581,0.0287514828814324,0.006694,0.000147,0.003245,0.297004,0.036691,313.383296,25.421813,0.999653,0.993330,0.003371,0.393271,-0.000002,0.000015,-0.000014,0.000023,-0.000010,-60.361676,0.000023,
2386,2368,2.83340254922464,-6.03901663809791,-0.00231117207857778,0.006449,-0.000421,0.006047,0.273794,0.012588,325.322462,23.414634,0.998893,0.983119,0.005084,0.380276,-0.000012,-0.000004,0.000019,0.000011,-0.000027,51.299498,0.000027,
2386,3133,2.68835842199121,10.6241930824143,0.0283256257811786,0.006548,0.000152,0.004214,0.286392,0.047267,313.132051,25.654083,0.999729,0.993405,0.003321,0.394054,-0.000002,0.000022,-0.000011,0.000026,-0.000006,-69.157483,0.000027,
2476,2803,4.70758953176584,3.46001682423517,-0.0251542898257071,0.006569,0.000207,0.002533,0.292135,0.041867,318.223460,24.821922,0.999311,0.985085,0.004624,0.362528,-0.000015,-0.000004,-0.000018,0.000009,-0.000028,-53.765651,0.000029,
2416,2488,3.46431680506657,-3.41563798277372,-0.00987242713569003,0.006723,-0.000340,0.002979,0.297245,-0.002160,323.370264,23.648294,0.999357,0.987246,0.004451,0.423611,0.000008,-0.000025,0.000009,0.000010,-0.000028,13.857483,0.000028,
2356,3013,2.05723599244436,8.01808427376162,-0.000612933186744158,0.006342,0.000432,0.000105,0.291682,0.044389,314.847896,25.221838,0.999581,0.991794,0.003659,0.395681,-0.000014,0.000011,-0.000008,0.000014,-0.000017,-73.169450,0.000018,
2386,3283,2.65740027710568,13.8787832538711,0.00450979374244298,0.006398,0.000315,0.003092,0.283766,0.042278,310.468004,26.036415,0.999634,0.992029,0.003536,0.426375,0.000002,-0.000008,-0.000004,0.000004,-0.000010,-19.549024,0.000010,
2311,3028,1.07765080178158,8.33946335404121,0.0110132804125556,0.006789,-0.000135,0.002835,0.302802,0.020906,314.728298,25.108232,0.999642,0.991480,0.003613,0.383281,-0.000015,0.000011,-0.000011,0.000015,-0.000019,-70.079520,0.000020,
2506,2803,5.36047006393462,3.4610014791209,-0.0271008422203636,0.006352,-0.000383,0.005750,0.269177,0.022638,318.266823,24.799703,0.999215,0.986678,0.004775,0.391877,-0.000006,-0.000007,-0.000026,0.000020,-0.000033,-44.596863,0.000033,
2431,2368,3.81616704286624,-6.03920826229107,0.00581631607866484,0.006193,-0.000056,0.000914,0.280332,-0.002280,325.452523,23.304741,0.999014,0.983098,0.005046,0.321614,-0.000015,0.000012,0.000013,0.000018,-0.000020,68.227689,0.000022,
2506,2938,5.33450269420294,6.39887072087355,-0.00972687143354278,0.006824,-0.000033,0.005983,0.290313,0.037971,316.227185,25.392958,0.999576,0.990639,0.003794,0.361040,0.000008,0.000011,0.000002,0.000012,0.000007,63.095950,0.000020,
2266,3238,0.0632031797017909,12.8904603350279,0.0261258500179906,0.006551,0.000300,0.001005,0.298820,0.033828,311.470583,25.265605,0.999784,0.994770,0.003109,0.440510,-0.000016,0.000003,-0.000006,0.000005,-0.000017,-73.432893,0.000018,
2356,2278,2.19553735205486,-8.00771878735858,-0.00685577137113569,0.005915,0.000297,0.000666,0.268850,0.021311,326.719578,23.282777,0.999444,0.989236,0.004313,0.378028,-0.000025,-0.000030,-0.000017,-0.000011,-0.000044,-40.635311,0.000058,
2371,3208,2.34802434821517,12.2492315301486,0.0260837369222031,0.006383,0.000075,0.000062,0.293736,0.011883,311.884357,25.725755,0.999409,0.992550,0.003612,0.423888,0.000002,0.000019,-0.000006,0.000021,0.000000,-71.371121,0.000024,
2476,2818,4.70454123661642,3.78582321743534,-0.0218038443109663,0.006284,0.000095,0.002479,0.279239,0.044810,317.994128,24.823397,0.999373,0.987089,0.004501,0.420448,-0.000015,-0.000002,-0.000010,0.000003,-0.000020,-61.463226,0.000022,
2386,3298,2.65339357958788,14.2051974560987,-0.0161370215614625,0.006734,0.000530,0.000746,0.307776,0.041088,310.071734,26.087994,0.999628,0.993125,0.003500,0.415535,0.000006,-0.000015,-0.000007,0.000008,-0.000017,-16.637655,0.000017,
2341,3133,1.71042359624215,10.6203298445692,0.0242417182157624,0.006546,0.000083,0.003741,0.288387,0.029448,313.091260,25.447285,0.999507,0.992644,0.003545,0.396267,-0.000005,0.000018,-0.000013,0.000024,-0.000011,-64.936568,0.000024,
2401,2188,3.19819503680917,-9.98157507125385,0.0184182616745829,0.006665,0.000611,-0.001564,0.310989,0.046681,328.457302,22.843352,0.999146,0.983118,0.005183,0.360940,-0.000032,-0.000019,-0.000013,-0.000011,-0.000040,-58.617303,0.000054,
2266,3013,0.102466223818176,8.01057086555284,0.00545964040998115,0.006652,0.000182,0.000971,0.303251,0.038361,314.983037,24.891921,0.999411,0.990979,0.003740,0.452059,-0.000010,0.000016,-0.000009,0.000019,-0.000013,-72.103897,0.000019,
2416,2503,3.46067780064632,-3.08692803663315,-0.0185684356014804,0.006754,-0.000514,0.003222,0.297766,-0.012926,323.054375,23.726527,0.999584,0.990352,0.003987,0.383962,0.000005,-0.000019,0.000006,0.000006,-0.000020,12.748075,0.000021,
2386,2383,2.83073596248916,-5.71054654528376,-0.00326299568217792,0.006520,-0.000043,0.003100,0.287758,0.021157,325.085383,23.480767,0.999096,0.985097,0.004955,0.367748,-0.000005,0.000000,0.000014,0.000012,-0.000017,49.512591,0.000018,
2386,3148,2.68603653495966,10.9489839036182,0.0329216773814096,0.006604,0.000114,0.002167,0.296247,0.026215,312.935061,25.674762,0.999662,0.992925,0.003377,0.394502,-0.000002,0.000016,-0.000011,0.000021,-0.000007,-64.429446,0.000021,
2446,2638,4.08790080154725,-0.13809062798321,-0.0218454204309637,0.006555,0.000453,-0.002468,0.310171,0.021091,320.893290,24.209551,0.999539,0.990408,0.003948,0.350026,-0.000005,0.000011,-0.000023,0.000027,-0.000022,-54.464695,0.000029,
2416,2023,3.55876665819171,-13.6030903986353,0.0352606709139422,0.006186,0.000048,0.003804,0.269000,0.032561,331.236006,22.345835,0.998644,0.975079,0.006165,0.206576,-0.000012,-0.000046,0.000000,-0.000012,-0.000046,-0.780724,0.000062,
2506,2818,5.35791808693777,3.78812581371926,-0.0263681760221743,0.006634,0.000011,0.003318,0.291754,0.040006,318.050345,24.888361,0.999385,0.988736,0.004285,0.381752,-0.000013,0.000006,-0.000012,0.000012,-0.000019,-64.254771,0.000019,
2326,3103,1.39049286445909,9.96802962740347,0.020312890328114,0.006811,0.000256,-0.000048,0.313935,0.035525,313.580869,25.286494,0.999605,0.994082,0.003214,0.434120,-0.000006,0.000016,-0.000015,0.000023,-0.000013,-62.812429,0.000023,
2446,2383,4.14055499898303,-5.71047118291939,0.00555070434904792,0.006273,0.000045,0.001875,0.280472,0.035432,325.234222,23.310818,0.999715,0.988537,0.004516,0.355866,0.000004,0.000009,0.000002,0.000010,0.000003,71.654446,0.000014,
2476,2593,4.75078548615443,-1.1195098995669,-0.0185317146767261,0.006359,0.000177,0.001169,0.287285,0.040134,321.696303,23.973737,0.998783,0.984331,0.004761,0.410738,-0.000005,-0.000011,0.000009,0.000002,-0.000018,35.400425,0.000020,
2491,2683,5.05888168885549,0.844574971691856,-0.0247005560804041,0.006656,-0.000347,0.004938,0.286317,0.018065,320.218103,24.292969,0.999638,0.990593,0.003831,0.408395,-0.000005,-0.000022,-0.000039,0.000026,-0.000053,-38.710936,0.000053,
2506,2953,5.33213738336216,6.72414865619631,-0.00251586044822716,0.006649,-0.000033,0.002541,0.295609,0.019647,316.048031,25.429675,0.999573,0.991170,0.003803,0.366426,0.000017,0.000013,0.000010,0.000025,0.000005,38.128184,0.000032,
2371,2113,2.55659936374363,-11.6253693149636,0.0130861695819249,0.006420,0.000445,-0.001319,0.298701,0.026703,329.585108,22.779112,0.999121,0.977576,0.005668,0.341036,-0.000028,-0.000029,-0.000003,-0.000025,-0.000031,-38.846181,0.000057,
2386,2143,2.87810678756651,-10.9676626514828,0.0119344736629046,0.006294,0.000117,0.001550,0.282589,0.020351,329.086342,22.772282,0.999056,0.974907,0.005815,0.345491,-0.000028,-0.000024,-0.000010,-0.000016,-0.000036,-50.861149,0.000054,
2356,3223,2.01917273191076,12.573834921678,0.0292186375672259,0.006114,0.000188,0.002615,0.272487,0.031518,311.640162,25.748855,0.999550,0.992579,0.003408,0.384485,-0.000001,0.000018,-0.000004,0.000019,-0.000002,-77.757296,0.000021,
2431,2383,3.8129090866191,-5.71024745095813,0.000852985290237029,0.006385,-0.000008,0.001746,0.286126,0.028177,325.173396,23.355251,0.999534,0.986803,0.004622,0.353341,-0.000008,0.000008,0.000005,0.000009,-0.000009,73.104628,0.000011,
2491,2893,5.01615641585886,5.41961319387926,-0.024201267653325,0.006484,0.000229,-0.000722,0.300735,0.033079,316.809080,25.156425,0.998941,0.987474,0.004310,0.384233,-0.000003,0.000025,-0.000010,0.000028,-0.000007,-71.908852,0.000029,
2461,2353,4.47345237542201,-6.3659545282766,-0.00445357788748879,0.006617,-0.000260,0.003259,0.290732,0.018806,325.678705,23.137663,0.999180,0.983264,0.005227,0.351377,0.000008,0.000038,0.000011,0.000042,0.000005,72.089157,0.000051,
2371,2308,2.51903001052208,-7.35256833041038,0.00715154514057303,0.006612,0.000377,-0.000272,0.304136,0.031117,326.392774,23.298105,0.999844,0.995647,0.003045,0.394003,-0.000022,-0.000015,0.000005,-0.000012,-0.000025,61.602217,0.000037,
2431,2578,3.77441263836888,-1.44908107245804,-0.00138359331526772,0.007338,-0.000483,0.008917,0.303568,0.042134,322.007327,24.046247,0.999744,0.993025,0.003646,0.342653,-0.000001,0.000007,-0.000004,0.000008,-0.000003,-69.553301,0.000008,
2266,3253,0.0603074621454063,13.2160963219215,0.0232423362016903,0.006694,0.000073,0.002533,0.300337,0.034357,311.201737,25.323815,0.999759,0.993889,0.003301,0.406993,-0.000017,0.000004,-0.000005,0.000005,-0.000018,-76.187322,0.000019,
2416,2233,3.5159257710733,-8.99495134821809,0.0131931292602303,0.006186,0.000502,0.000941,0.280027,0.041458,327.674750,22.920233,0.999372,0.984583,0.005063,0.352207,-0.000010,-0.000027,-0.000002,-0.000010,-0.000027,-6.508444,0.000038,
2401,1993,3.23746446234452,-14.263685165489,0.0391348519214603,0.006411,0.000221,-0.000219,0.294006,0.028358,331.757401,22.222779,0.998512,0.970583,0.006637,0.328840,-0.000021,-0.000087,-0.000026,-0.000012,-0.000096,-19.356856,0.000119,
2431,2218,3.84847637682406,-9.32693700428933,0.0311705870918217,0.006863,-0.000157,0.003500,0.301218,0.006269,328.113106,22.725466,0.999565,0.985424,0.004793,0.387370,-0.000020,-0.000017,-0.000007,-0.000011,-0.000026,-52.161959,0.000038,
2356,2293,2.19360396699818,-7.67850530242273,-0.0031020891958633,0.006783,-0.000137,0.003836,0.297364,0.023277,326.536407,23.439701,0.999641,0.993477,0.003827,0.263802,-0.000023,-0.000019,-0.000009,-0.000012,-0.000030,-51.362834,0.000044,
2461,2728,4.39679298361828,1.82464129329036,-0.0173252684718932,0.006868,-0.000040,0.004576,0.298036,0.031664,319.483772,24.542815,0.999660,0.992723,0.003458,0.345308,-0.000018,0.000000,-0.000006,0.000002,-0.000020,-72.582644,0.000022,
2461,2473,4.44953000334791,-3.74163285700449,-0.0068178747162051,0.006817,0.000431,-0.000687,0.315220,0.038923,323.737142,23.559455,0.999525,0.987298,0.004455,0.397613,0.000007,-0.000026,0.000011,0.000011,-0.000030,17.052682,0.000030,
2401,2428,3.14955135816074,-4.72699054949855,-0.00268674519742262,0.006592,0.000060,0.000430,0.300693,0.017274,324.388348,23.540967,0.999447,0.985813,0.004657,0.396146,0.000002,0.000007,0.000023,0.000028,-0.000018,48.031236,0.000028,
2416,2038,3.55488015765777,-13.2741313931409,0.0259835275693945,0.005945,0.000049,0.003327,0.259767,0.020094,330.908468,22.259233,0.998860,0.974992,0.006066,0.332440,-0.000014,-0.000046,-0.000009,-0.000011,-0.000049,-15.000018,0.000063,
2491,2698,5.055499141083,1.17276301454771,-0.0290496239888398,0.006413,0.000040,0.001242,0.289488,0.019924,319.939922,24.417522,0.999700,0.990683,0.003811,0.344922,-0.000004,-0.000009,-0.000039,0.000033,-0.000046,-43.315896,0.000047,
2371,3223,2.34478051097338,12.5748680501282,0.027348169334573,0.006126,-0.000110,0.002686,0.272550,0.020273,311.627438,25.793665,0.999569,0.993188,0.003332,0.404028,0.000000,0.000016,-0.000006,0.000018,-0.000002,-70.788618,0.000020,
2506,2968,5.32903835036279,7.05077806412665,-0.00324564550362538,0.006571,0.000437,0.000920,0.298512,0.031857,315.799062,25.508683,0.999513,0.990309,0.004055,0.360206,0.000022,0.000013,0.000011,0.000029,0.000006,33.740472,0.000038,
2506,2833,5.35542740274191,4.11374786576395,-0.018821047534459,0.006481,0.000120,0.001923,0.290180,0.033101,317.867465,24.918837,0.999545,0.990153,0.003991,0.405201,-0.000006,0.000026,-0.000001,0.000026,-0.000006,-87.608457,0.000027,
2386,3163,2.68260504677676,11.2746585653855,0.0298482347329809,0.006385,0.000104,0.003049,0.283021,0.029140,312.650078,25.710340,0.999496,0.991483,0.003705,0.403894,-0.000003,0.000017,-0.000007,0.000020,-0.000005,-72.525399,0.000020,
2386,2398,2.82820386546683,-5.38383531126189,0.00256708225509783,0.006260,-0.000006,0.001127,0.282932,0.001801,324.886912,23.483839,0.999331,0.986213,0.004723,0.389936,0.000002,-0.000001,0.000019,0.000020,-0.000019,42.553492,0.000023,
2446,2653,4.08461616582479,0.189008300400928,-0.0204767492402311,0.006406,0.000472,0.000557,0.292074,0.038125,320.642417,24.251456,0.999613,0.991206,0.003827,0.378014,-0.000006,0.000004,-0.000026,0.000026,-0.000028,-50.442103,0.000031,
2341,3148,1.70835002925062,10.945482157665,0.0290487647303053,0.006889,-0.000132,0.003126,0.306268,0.016672,312.903905,25.493951,0.999487,0.993658,0.003487,0.372171,-0.000005,0.000014,-0.000012,0.000020,-0.000010,-64.298369,0.000020,
2491,2908,5.01336656038305,5.74587840827991,-0.0162177248216153,0.006201,0.000172,0.000501,0.282974,0.020968,316.612971,25.273203,0.999156,0.987167,0.004406,0.313527,-0.000003,0.000023,-0.000007,0.000025,-0.000004,-76.645211,0.000026,
2461,2488,4.44671376150371,-3.41465206154672,-0.00398850586890376,0.006876,0.000228,0.000311,0.314124,0.027606,323.516566,23.579923,0.999587,0.985961,0.004558,0.421380,0.000009,-0.000035,0.000002,0.000009,-0.000035,2.139694,0.000036,
2431,2398,3.80987964933106,-5.38236231233685,-0.00249632520541354,0.006591,0.000150,0.001657,0.296033,0.043899,324.912369,23.343128,0.999696,0.987817,0.004567,0.433053,-0.000002,0.000004,0.000008,0.000009,-0.000007,54.045998,0.000010,
2431,2593,3.77134404486924,-1.12308007019801,-0.00400062655495503,0.006788,0.000406,0.000839,0.308494,0.030816,321.747378,23.961151,0.999595,0.991335,0.003888,0.466946,0.000005,-0.000008,-0.000001,0.000005,-0.000008,-4.272311,0.000008,
2461,2743,4.39256320048325,2.15137338662915,-0.0259461268604468,0.006432,-0.000343,0.005283,0.275255,0.024175,319.144525,24.522762,0.999653,0.991691,0.003640,0.412535,-0.000016,0.000007,-0.000006,0.000008,-0.000017,-76.428972,0.000017,
2416,2053,3.55277183025069,-12.9446421384621,0.0275975453855608,0.006240,0.000431,-0.001904,0.292525,0.007745,330.712956,22.348975,0.998817,0.975353,0.006071,0.281179,-0.000012,-0.000044,-0.000003,-0.000012,-0.000044,-6.190346,0.000059,
2506,2983,5.32581136923958,7.3766985897137,-0.00697176000278432,0.006639,0.000189,-0.000457,0.306924,0.026548,315.530896,25.523651,0.999302,0.988945,0.004189,0.400481,0.000019,0.000025,0.000010,0.000032,0.000012,53.547824,0.000045,
2491,2713,5.05244491078239,1.49949631201195,-0.0313658494109177,0.006735,0.000317,0.002535,0.299494,0.040736,319.686155,24.411068,0.999687,0.990170,0.004062,0.431505,-0.000018,-0.000007,-0.000027,0.000016,-0.000040,-50.452909,0.000041,
2401,2008,3.23428289705229,-13.9324194965744,0.0296419135651718,0.006776,0.000780,-0.001921,0.317090,0.040439,331.459358,22.306535,0.998333,0.969534,0.006700,0.306753,-0.000014,-0.000062,-0.000008,-0.000013,-0.000064,-9.354943,0.000082,
2401,2443,3.14691114184165,-4.39906888091259,0.0012556883567072,0.006605,0.000397,0.001012,0.299361,0.047127,324.176515,23.601875,0.999433,0.987269,0.004573,0.411881,0.000006,-0.000015,0.000022,0.000020,-0.000029,32.117150,0.000030,
2416,2248,3.51352144231035,-8.6667540519937,0.01476538386828,0.006470,0.000563,-0.000716,0.299115,0.051616,327.464653,22.938224,0.999187,0.982908,0.005231,0.394503,-0.000009,-0.000029,-0.000005,-0.000008,-0.000030,-13.650732,0.000040,
2266,3028,0.100000642820216,8.33664670559298,0.00635018100393836,0.006632,0.000339,-0.001723,0.311301,0.026914,314.753391,24.967327,0.999334,0.990398,0.003831,0.389841,-0.000011,0.000008,-0.000014,0.000015,-0.000019,-62.639094,0.000020,
2476,2608,4.74723525106151,-0.792108825273694,-0.020465447396532,0.006145,0.000002,0.002618,0.271937,0.025677,321.420784,24.032790,0.999040,0.985868,0.004475,0.394536,-0.000007,-0.000006,0.000002,-0.000005,-0.000009,50.336338,0.000014,
2491,2923,5.00942559226824,6.07306870694941,-0.0262970996562331,0.006452,0.000112,0.003720,0.282215,0.039270,316.282020,25.319221,0.999367,0.987435,0.004239,0.344603,-0.000004,0.000012,-0.000008,0.000015,-0.000007,-68.164896,0.000015,
2476,2833,4.70261098007075,4.11222125857491,-0.0205359324216374,0.006750,0.000794,-0.004066,0.325767,0.042277,317.806594,24.872759,0.999540,0.988693,0.003982,0.425140,-0.000009,0.000009,-0.000006,0.000011,-0.000011,-72.701580,0.000013,
2506,2848,5.35225192997796,4.4410970836249,-0.0191648503957254,0.006329,0.000129,0.000613,0.288292,0.028441,317.617279,25.050372,0.999704,0.992297,0.003510,0.329646,-0.000006,0.000042,-0.000006,0.000042,-0.000007,-82.803438,0.000045,
2416,2518,3.45792720416322,-2.75996556478722,-0.0134407901505824,0.006369,-0.000018,0.001147,0.287898,0.010862,322.843949,23.740639,0.999360,0.988125,0.004379,0.442414,-0.000003,-0.000013,0.000003,-0.000002,-0.000014,16.358006,0.000018,
2401,2203,3.1955113360044,-9.65363515332882,0.0177026099960358,0.006933,0.000493,-0.001804,0.324120,0.028016,328.222799,22.826779,0.999132,0.981967,0.005318,0.406700,-0.000031,-0.000014,-0.000012,-0.000008,-0.000037,-61.861683,0.000048,
2431,2233,3.84415299297353,-8.99623834822852,0.0204098689862349,0.006236,-0.000039,0.001441,0.280140,0.012662,327.759012,22.842417,0.999273,0.982593,0.005204,0.329620,-0.000012,-0.000026,0.000001,-0.000012,-0.000026,2.294919,0.000039,
2386,2413,2.82571290876581,-5.05567782743058,0.000742845246804791,0.006465,0.000643,-0.003171,0.308018,0.017332,324.653667,23.515871,0.999373,0.985614,0.004733,0.418468,0.000001,-0.000003,0.000025,0.000024,-0.000027,43.127655,0.000030,
2386,2158,2.87536703129109,-10.6385134338725,0.0142771617257722,0.006300,-0.000059,0.001972,0.281305,0.008758,328.862432,22.876011,0.999289,0.979865,0.005424,0.276260,-0.000029,-0.000027,-0.000015,-0.000013,-0.000044,-46.969656,0.000059,
2371,3238,2.34216523655725,12.9007497490832,0.025407413771859,0.006476,0.000406,0.001844,0.291949,0.050482,311.383932,25.847789,0.999763,0.994016,0.003048,0.419899,0.000001,0.000012,-0.000007,0.000015,-0.000003,-63.515389,0.000016,
2461,2368,4.47129870362682,-6.03779787534522,0.0032693893438136,0.006656,0.000333,0.000806,0.302010,0.035920,325.511181,23.246591,0.999562,0.987929,0.004800,0.315494,0.000007,0.000025,0.000015,0.000033,-0.000001,60.585672,0.000037,
2371,2323,2.51559413305437,-7.02535144521439,0.011787647479423,0.006231,-0.000596,0.006827,0.261112,0.009312,326.146348,23.314134,0.999576,0.991975,0.003839,0.399185,-0.000023,-0.000015,0.000006,-0.000011,-0.000027,61.617296,0.000039,
2356,3238,2.01629560900845,12.8990936412912,0.0260236356977543,0.006293,0.000227,0.002014,0.282901,0.036443,311.377643,25.763346,0.999652,0.992761,0.003285,0.412403,0.000000,0.000013,-0.000004,0.000014,-0.000001,-73.622500,0.000016,
2446,2398,4.13692897656781,-5.38202342909477,-0.00490793817391477,0.006457,0.000151,0.001294,0.291106,0.025357,324.914506,23.307825,0.999667,0.987898,0.004596,0.403256,0.000009,0.000003,0.000004,0.000011,0.000001,25.658665,0.000014,
2401,2218,3.19230609070983,-9.32291911178304,0.0150963502793502,0.006839,0.000825,-0.002189,0.321377,0.040729,327.954987,23.018305,0.999314,0.982953,0.005308,0.276211,-0.000025,-0.000017,-0.000009,-0.000011,-0.000031,-57.298528,0.000044,
2416,2533,3.4549643865694,-2.43180859053216,-0.0117374583654168,0.006507,-0.000517,0.004670,0.281241,0.023438,322.607546,23.848982,0.999257,0.988690,0.004431,0.395336,-0.000005,-0.000015,0.000002,-0.000004,-0.000015,11.918366,0.000021,
2461,2503,4.44332412014354,-3.08727996778784,-0.000881397699515674,0.006478,-0.000093,0.002952,0.285872,0.035023,323.270716,23.624635,0.999497,0.986861,0.004379,0.439719,0.000005,-0.000026,-0.000001,0.000005,-0.000026,-2.667999,0.000028,
2461,2383,4.46738028979015,-5.70964407328229,-0.000801728275348523,0.006293,-0.000110,0.003059,0.276770,0.038263,325.208845,23.260512,0.999617,0.987301,0.004732,0.360206,0.000010,0.000014,0.000000,0.000014,0.000010,85.209275,0.000024,
2386,2173,2.87224386942957,-10.3099790520975,0.00800609360373983,0.006374,0.000420,-0.000281,0.293002,0.024132,328.580101,22.810284,0.999401,0.982901,0.005210,0.403468,-0.000030,-0.000025,-0.000014,-0.000014,-0.000042,-50.081890,0.000057,
2431,2413,3.80685254352552,-5.05458054839008,-0.0034238617517417,0.006624,0.000107,0.001782,0.297075,0.038675,324.662688,23.370958,0.999618,0.987705,0.004569,0.451640,-0.000007,-0.000001,0.000013,0.000009,-0.000017,51.308198,0.000017,
2341,3163,1.70555950630436,11.2711173920921,0.0322040537410544,0.006647,0.000353,0.002592,0.297286,0.051413,312.675281,25.531113,0.999594,0.993591,0.003503,0.405203,-0.000004,0.000016,-0.000007,0.000018,-0.000006,-72.676415,0.000018,
2416,2068,3.54940041786166,-12.6158082173883,0.0289050573946952,0.006209,-0.000258,0.004267,0.268317,0.025379,330.457985,22.351082,0.998866,0.976901,0.006092,0.347912,-0.000015,-0.000037,0.000000,-0.000015,-0.000037,-1.212579,0.000053,
2461,2758,4.389425610329,2.47870335958053,-0.0302890777402922,0.006431,0.000106,0.002296,0.286717,0.042063,318.874804,24.571649,0.999616,0.990295,0.003856,0.436341,-0.000006,0.000006,-0.000009,0.000011,-0.000011,-62.029090,0.000013,
2371,3253,2.33894219639573,13.2260231696811,0.0197922301132394,0.006648,0.000282,0.002861,0.296215,0.040544,311.094928,25.869464,0.999742,0.993318,0.003168,0.428054,0.000002,0.000015,-0.000006,0.000017,0.000000,-69.251815,0.000019,
2416,2263,3.51043404576889,-8.33802440341272,0.0144940113055441,0.006467,0.000362,0.000658,0.293890,0.023036,327.214689,23.029902,0.999159,0.983308,0.005118,0.324033,-0.000012,-0.000021,-0.000012,-0.000004,-0.000029,-34.746266,0.000036,
2356,2308,2.19144893149942,-7.35231518171044,0.00313458815935519,0.006759,0.000149,0.001124,0.305874,0.021429,326.355404,23.353427,0.999416,0.991555,0.003900,0.388919,-0.000024,-0.000024,-0.000003,-0.000021,-0.000027,-45.494232,0.000048,
2371,2338,2.51288891224411,-6.6957944506826,0.00387502942334095,0.006644,0.000102,0.002136,0.297015,0.026828,325.873030,23.385623,0.999079,0.985536,0.004820,0.388347,-0.000017,-0.000005,0.000012,0.000002,-0.000024,58.487736,0.000027,
2371,2128,2.55394109272659,-11.2966878610997,0.0128847014134976,0.006591,0.000616,-0.001882,0.308619,0.043078,329.351630,22.773993,0.999301,0.981345,0.005314,0.406651,-0.000027,-0.000022,-0.000003,-0.000021,-0.000029,-66.738712,0.000050,
2431,2608,3.76706898764736,-0.794409046632452,-0.0168543578794811,0.006768,-0.000251,0.003686,0.296794,0.004267,321.383960,24.053539,0.999354,0.988046,0.004368,0.399268,0.000004,-0.000007,-0.000008,0.000008,-0.000011,-27.394789,0.000012,
2476,2623,4.7445814337093,-0.464506644063363,-0.0204095003196016,0.006470,-0.000061,0.001722,0.290191,0.008058,321.195383,24.135266,0.999544,0.991467,0.003733,0.331755,-0.000007,0.000008,-0.000005,0.000010,-0.000009,-72.866052,0.000011,
2401,2233,3.18853060518164,-8.9946733750256,0.0126385267607247,0.006244,0.000466,-0.001341,0.290982,0.018356,327.662102,23.026429,0.999251,0.983483,0.005295,0.293868,-0.000020,-0.000028,-0.000002,-0.000019,-0.000028,-11.043086,0.000048,
2446,2413,4.13454455497954,-5.05392986661266,0.00167609146132008,0.006617,0.000493,0.002246,0.295066,0.056767,324.729930,23.399235,0.999689,0.988132,0.004620,0.396855,0.000004,-0.000002,0.000009,0.000010,-0.000009,35.823634,0.000011,
2416,2548,3.45164956191286,-2.10426982818848,-0.0166143241897885,0.006533,-0.000559,0.004704,0.282279,0.004952,322.324382,23.877860,0.999337,0.988531,0.004353,0.396836,-0.000004,-0.000012,0.000002,-0.000004,-0.000012,16.427386,0.000017,
2401,2023,3.23032446624191,-13.602981760403,0.0252393981942305,0.006309,0.000368,0.000867,0.285554,0.010099,331.149895,22.330671,0.998604,0.972140,0.006430,0.301765,-0.000013,-0.000052,-0.000011,-0.000010,-0.000055,-14.878657,0.000070,
2386,2188,2.86971315781816,-9.9806826263909,0.013178752781414,0.006532,-0.000022,0.002178,0.291278,0.039198,328.378882,22.941239,0.999111,0.981901,0.005289,0.333578,-0.000029,-0.000021,-0.000013,-0.000012,-0.000039,-53.692863,0.000053,
2491,2728,5.04930940151426,1.82689272103869,-0.031354513481233,0.006641,0.000083,0.002056,0.296958,0.031882,319.438971,24.518850,0.999643,0.992011,0.003551,0.374096,-0.000021,-0.000021,-0.000020,-0.000001,-0.000041,-45.179541,0.000048,
2386,2428,2.82298693938809,-4.72774951605982,0.00287172728860696,0.006695,0.000117,-0.000294,0.308086,0.016610,324.428398,23.585735,0.999450,0.988223,0.004461,0.392491,0.000004,0.000007,0.000028,0.000034,-0.000023,46.743095,0.000035,
2401,2458,3.14342939741652,-4.07103671289947,-0.00729437315874293,0.006754,0.000214,0.001409,0.304700,0.027853,323.867412,23.610364,0.999455,0.987002,0.004678,0.431242,0.000008,-0.000006,0.000021,0.000024,-0.000021,35.818575,0.000026,
2446,2668,4.08213259643322,0.515378496048314,-0.0170088116622651,0.006656,0.000183,0.000790,0.302612,0.028871,320.438187,24.274475,0.999510,0.989520,0.004060,0.398492,-0.000004,0.000000,-0.000027,0.000025,-0.000030,-46.978574,0.000032,
2461,2518,4.44073763895785,-2.76021472677586,0.0044841377357443,0.006620,-0.000422,0.004666,0.285792,0.015811,323.072140,23.692462,0.999217,0.984357,0.004608,0.408159,-0.000002,-0.000015,0.000001,-0.000002,-0.000015,6.041202,0.000019,
2491,2938,5.00709684878729,6.39915328712213,-0.0190779312264908,0.006605,0.000140,0.003907,0.288583,0.045995,316.103554,25.402591,0.999449,0.990259,0.003793,0.326181,0.000003,0.000007,-0.000008,0.000013,-0.000004,-51.241675,0.000014,
2476,2848,4.69871239112581,4.43910626281505,-0.0251237394605255,0.006719,0.000237,0.001150,0.304323,0.024690,317.501686,24.942686,0.999326,0.988514,0.004092,0.393917,-0.000013,0.000020,-0.000013,0.000024,-0.000018,-70.817925,0.000025,
2506,2998,5.32280287190985,7.70284144024418,-0.00403823968167671,0.006484,0.000140,-0.000399,0.299556,0.024939,315.302457,25.605233,0.999452,0.990239,0.003884,0.377432,0.000022,0.000013,0.000012,0.000030,0.000005,34.810716,0.000038,
2356,3253,2.01342082624192,13.2240244709417,0.0270418095329319,0.006370,0.000071,0.004271,0.278474,0.039878,311.135673,25.776802,0.999727,0.992610,0.003266,0.440037,0.000000,0.000015,-0.000001,0.000015,0.000000,-84.258837,0.000017,
2431,2428,3.80326576327544,-4.72599663283901,-0.00219806023466163,0.006121,-0.000608,0.004211,0.264784,-0.014893,324.397268,23.546123,0.999423,0.986932,0.004679,0.274069,-0.000003,0.000012,0.000019,0.000025,-0.000016,55.735493,0.000025,
2461,2773,4.38613800441557,2.80540848051964,-0.0321231413221881,0.006136,-0.000104,0.000057,0.281526,0.018278,318.609798,24.629525,0.999418,0.988192,0.004199,0.409053,-0.000010,-0.000005,-0.000013,0.000005,-0.000021,-50.134020,0.000022,
2416,2083,3.54716586771591,-12.2864800167226,0.0325866503994234,0.006902,-0.000891,0.007572,0.287767,-0.004012,330.266297,22.476524,0.998749,0.977066,0.006173,0.243711,-0.000017,-0.000029,0.000002,-0.000016,-0.000030,8.460943,0.000046,
2401,2038,3.22737897726963,-13.2736312051609,0.0222028387251498,0.006239,0.000756,-0.002681,0.295362,0.016757,330.892943,22.331169,0.998747,0.972503,0.006305,0.356992,-0.000016,-0.000055,-0.000020,-0.000008,-0.000063,-22.995875,0.000078,
2491,2743,5.04584139510227,2.15364014311803,-0.0336347317966101,0.006520,-0.000144,0.002984,0.287774,0.027173,319.166205,24.549137,0.999716,0.991701,0.003624,0.398261,-0.000024,-0.000005,-0.000022,0.000010,-0.000039,-56.770809,0.000040,
2476,2863,4.69599626472,4.76489660500061,-0.0169661724024763,0.006600,0.000033,0.003891,0.288358,0.029253,317.309248,24.989041,0.999153,0.987389,0.004264,0.408582,-0.000015,0.000029,-0.000012,0.000032,-0.000018,-75.280572,0.000032,
2401,2248,3.18538236266864,-8.66674957837616,0.00777094391895616,0.006564,0.000359,0.000788,0.297902,0.037772,327.386436,22.944053,0.999182,0.983096,0.005266,0.443737,-0.000019,-0.000031,-0.000004,-0.000018,-0.000033,-17.743092,0.000052,
2371,2143,2.55144228594958,-10.96725250632,0.0131216889176358,0.006907,0.000468,-0.002336,0.324662,0.037947,329.127522,22.869257,0.999184,0.979456,0.005500,0.350111,-0.000027,-0.000022,-0.000005,-0.000019,-0.000030,-58.639172,0.000049,
2401,2473,3.141018727582,-3.74339642903858,-0.0045356398429135,0.006775,0.000378,-0.002002,0.318071,0.011768,323.660635,23.690038,0.999379,0.987710,0.004530,0.382061,0.000005,-0.000019,0.000017,0.000014,-0.000028,27.362256,0.000028,
2446,2683,4.07847242203583,0.843253135723266,-0.02230819151481,0.006366,0.000328,-0.000027,0.292420,0.033144,320.139059,24.354127,0.999390,0.988607,0.004110,0.376005,-0.000006,0.000002,-0.000025,0.000024,-0.000028,-49.905188,0.000030,
2386,2443,2.81890989609085,-4.39934242260006,-0.00369511885668317,0.006538,-0.000388,0.006159,0.277571,0.005564,324.099837,23.633221,0.999285,0.988607,0.004521,0.378850,0.000007,-0.000011,0.000029,0.000028,-0.000032,36.101531,0.000035,
2341,3178,1.70242523852919,11.5966557126135,0.0290362137594116,0.006584,0.000408,0.002571,0.294468,0.050014,312.400041,25.561350,0.999680,0.994272,0.003487,0.408936,-0.000003,0.000018,-0.000006,0.000019,-0.000004,-74.378936,0.000020,
2461,2788,4.38421538479956,3.13145062732639,-0.0214735774844712,0.006313,0.000341,-0.000471,0.291793,0.030659,318.464708,24.691707,0.999295,0.986924,0.004338,0.413579,-0.000013,-0.000007,-0.000014,0.000005,-0.000025,-51.565144,0.000026,
2416,2098,3.5435360495825,-11.9564271414669,0.0211011167858146,0.006695,0.000011,0.002026,0.298876,0.028776,329.939612,22.444864,0.999031,0.977174,0.006073,0.359724,-0.000022,-0.000029,-0.000010,-0.000016,-0.000036,-35.512928,0.000053,
2476,2638,4.74164819307503,-0.137446430034963,-0.0253452089715438,0.006727,0.000230,-0.001533,0.314504,0.021337,320.934434,24.119552,0.999593,0.990917,0.003764,0.417988,-0.000014,0.000010,-0.000014,0.000017,-0.000020,-65.114651,0.000022,
2491,2758,5.04328487026756,2.47950439717313,-0.0276514077572187,0.006588,-0.000043,0.003641,0.288415,0.033787,318.972682,24.556894,0.999567,0.988955,0.003998,0.455898,-0.000017,-0.000008,-0.000028,0.000016,-0.000041,-49.372382,0.000041,
2401,2053,3.22389491435379,-12.9424476297942,0.0185771105803383,0.006286,0.000119,0.001116,0.283524,0.027737,330.608335,22.493979,0.999049,0.976669,0.005997,0.254388,-0.000017,-0.000051,-0.000012,-0.000013,-0.000055,-17.626880,0.000072,
2491,2953,5.00468578259322,6.72421562002884,-0.0150479942338961,0.006691,0.000010,0.001142,0.303050,0.018027,315.907145,25.407377,0.999357,0.989969,0.003927,0.351682,0.000011,0.000007,0.000000,0.000011,0.000007,2.717450,0.000018,
2371,3268,2.33524282139318,13.5517646582248,0.0103805210568453,0.006468,0.000257,0.001650,0.292281,0.042413,310.765499,25.906207,0.999756,0.993810,0.003149,0.432759,0.000002,0.000013,-0.000004,0.000014,0.000001,-71.677937,0.000017,
2476,2878,4.69196608025463,5.09258367936464,-0.0252891112039038,0.006345,0.000173,0.004249,0.275380,0.030853,316.980898,25.095290,0.998724,0.987742,0.004498,0.360124,-0.000015,0.000022,-0.000005,0.000022,-0.000016,-82.530820,0.000023,
2401,2263,3.18189604323929,-8.3363749446317,0.00296673543118686,0.006787,-0.000333,0.005696,0.290140,0.032650,327.095304,23.116848,0.999262,0.985852,0.004774,0.313972,-0.000021,-0.000023,-0.000010,-0.000013,-0.000032,-42.171521,0.000046,
2371,2158,2.5486937418627,-10.638798578203,0.0178970927847217,0.006748,0.000187,-0.001076,0.312837,0.012010,328.913739,22.949576,0.999428,0.981983,0.005345,0.287626,-0.000028,-0.000025,-0.000013,-0.000014,-0.000039,-48.202766,0.000056,
2446,2698,4.07439864560229,1.17069426465295,-0.030251677643264,0.006249,-0.000133,0.003718,0.272956,0.021644,319.808768,24.393500,0.999653,0.990717,0.003844,0.377724,-0.000002,0.000007,-0.000024,0.000027,-0.000022,-50.040625,0.000028,
2386,2458,2.8158786666281,-4.07029256492603,-0.00861181610582662,0.006751,-0.000059,0.005641,0.289381,0.030872,323.826764,23.724293,0.999326,0.987734,0.004583,0.358242,0.000009,-0.000001,0.000028,0.000033,-0.000024,40.102934,0.000034,
2461,2803,4.38046599533019,3.45957766696331,-0.0315671068584606,0.006491,0.000020,0.000285,0.297020,0.017423,318.140149,24.814878,0.999404,0.987440,0.004290,0.331686,-0.000014,0.000000,-0.000015,0.000010,-0.000023,-57.882077,0.000023,
2506,3013,5.3200337300487,8.02874312774378,-0.00167837637712864,0.006548,0.000206,-0.001118,0.305348,0.024465,315.082456,25.663275,0.999490,0.990887,0.003709,0.379359,0.000018,0.000016,0.000013,0.000030,0.000004,42.536380,0.000037,
2401,2488,3.13780347943885,-3.41612424343931,0.00102874001362352,0.006705,-0.000697,0.006342,0.284282,0.008550,323.430075,23.753471,0.999401,0.988546,0.004340,0.362242,0.000007,-0.000025,0.000014,0.000012,-0.000030,21.041905,0.000030,
2386,2203,2.86661238005614,-9.65106564734477,0.00430128075117864,0.006877,0.000132,0.000310,0.313845,0.037401,328.085085,22.975802,0.998778,0.979445,0.005548,0.343460,-0.000027,-0.000016,-0.000012,-0.000008,-0.000035,-57.429492,0.000046,
2431,2443,3.80027527850872,-4.39789123227443,-0.00647200061882813,0.006432,-0.000238,0.003983,0.280037,0.018065,324.133421,23.544129,0.999239,0.986154,0.004725,0.360892,0.000002,-0.000020,0.000018,0.000012,-0.000030,29.143081,0.000030,
2491,2773,5.04011905269364,2.8068318846714,-0.0264357347829787,0.006326,-0.000046,0.002752,0.279835,0.031333,318.729264,24.674658,0.999219,0.986913,0.004355,0.394604,-0.000020,-0.000015,-0.000030,0.000013,-0.000048,-47.538479,0.000049,
2446,2428,4.13015197673444,-4.72523812542833,-0.0080101681621727,0.006326,-0.000398,0.005903,0.267782,0.014935,324.378476,23.469496,0.999256,0.986017,0.004804,0.338688,0.000006,0.000012,0.000017,0.000026,-0.000008,49.632013,0.000027,
2401,2068,3.2201874854376,-12.6136583213871,0.0110807974089084,0.006262,-0.000202,0.003327,0.274360,0.022356,330.295539,22.417844,0.999355,0.980109,0.005847,0.374485,-0.000021,-0.000044,-0.000007,-0.000019,-0.000046,-15.035075,0.000067,
2371,3283,2.33194878895123,13.8769295739961,0.00625145718470321,0.006415,0.000163,0.002153,0.287981,0.031281,310.480252,25.936448,0.999657,0.993390,0.003293,0.430823,0.000003,-0.000004,-0.000005,0.000006,-0.000006,-27.293262,0.000007,
2416,2278,3.5069004745632,-8.00936502022152,0.00735611152077809,0.006391,0.000096,-0.000144,0.293272,0.007852,326.912129,23.037502,0.999239,0.984090,0.004952,0.351429,-0.000018,-0.000007,-0.000008,-0.000003,-0.000023,-61.325548,0.000028,
2491,2968,5.00228052650727,7.04973313866457,-0.0079398915320894,0.006569,0.000299,-0.001103,0.306189,0.026643,315.724652,25.442451,0.999304,0.988177,0.004268,0.383394,0.000014,0.000008,0.000002,0.000015,0.000007,17.335407,0.000023,
2431,2623,3.76345254723978,-0.466728678026456,-0.0201786742658783,0.006349,-0.000270,0.003096,0.279815,0.012263,321.095003,24.108201,0.999435,0.989382,0.004108,0.403221,0.000001,0.000009,-0.000014,0.000020,-0.000009,-53.017476,0.000020,
2371,2353,2.51029344624553,-6.36858289151923,0.00713554521564674,0.006561,0.000137,0.000948,0.297452,0.028053,325.658377,23.374280,0.999065,0.985218,0.004873,0.443866,-0.000010,-0.000008,0.000016,0.000006,-0.000025,47.047473,0.000026,
2416,2563,3.44905815324269,-1.77616798098255,-0.0182800917158943,0.006862,0.000269,0.002709,0.305086,0.066639,322.089016,23.911920,0.999058,0.985076,0.004610,0.473241,-0.000005,-0.000003,0.000000,-0.000003,-0.000005,-89.385256,0.000007,
2401,2278,3.17745188310704,-8.00546280778259,-0.0147726212162524,0.006378,0.000024,0.001857,0.285471,0.005269,326.699438,23.236063,0.999771,0.994020,0.003437,0.215898,-0.000026,-0.000008,-0.000007,-0.000006,-0.000028,-70.507357,0.000037,
2431,2458,3.79732841502861,-4.06972662614587,-0.00997512987447635,0.006513,0.000568,0.001172,0.294490,0.055422,323.875051,23.555863,0.999421,0.986508,0.004673,0.438018,0.000005,-0.000009,0.000016,0.000015,-0.000019,32.524748,0.000020,
2446,2443,4.12862601380414,-4.39874227226328,0.00198605629668691,0.006784,0.000019,0.003533,0.297763,0.018610,324.249211,23.483289,0.998566,0.983520,0.005111,0.381561,0.000012,-0.000024,0.000017,0.000019,-0.000031,21.251562,0.000031,
2371,3298,2.32845420784095,14.2028346172535,-0.00482528558262629,0.006619,0.000256,0.001579,0.299522,0.036751,310.152034,25.985396,0.999621,0.993665,0.003335,0.427143,0.000003,-0.000004,-0.000008,0.000008,-0.000010,-32.298748,0.000010,
2461,2533,4.43767991177485,-2.43136984137584,-0.00286309048033218,0.006973,-0.000023,0.001878,0.312641,0.021983,322.793416,23.788484,0.999415,0.988172,0.004217,0.373815,-0.000004,-0.000019,0.000002,-0.000004,-0.000019,7.715666,0.000024,
2401,2083,3.21889310657318,-12.2857623186033,0.0279601594550059,0.006653,-0.000493,0.004657,0.287388,0.009965,330.207650,22.542161,0.998988,0.976632,0.006085,0.285783,-0.000023,-0.000036,-0.000004,-0.000022,-0.000037,-14.353545,0.000059,
2491,2983,4.99883894207861,7.37678132522258,-0.00995021351303649,0.006378,0.000425,-0.001022,0.297216,0.037818,315.452786,25.556844,0.999183,0.988617,0.004155,0.338552,0.000011,0.000018,-0.000001,0.000018,0.000011,-83.674943,0.000030,
2371,2173,2.54534474137754,-10.3118480873998,0.0162856852614368,0.006380,-0.000007,-0.000950,0.295506,0.001128,328.642073,22.814538,0.999299,0.982348,0.005265,0.455630,-0.000029,-0.000024,-0.000011,-0.000015,-0.000038,-50.804680,0.000054,
2416,2113,3.54157659377129,-11.62769879429,0.0269597417298542,0.006776,0.001002,-0.003378,0.322717,0.054889,329.770292,22.494665,0.999154,0.977523,0.005892,0.386466,-0.000026,-0.000034,-0.000013,-0.000016,-0.000044,-36.185335,0.000062,
2431,2473,3.7947112324836,-3.74206174574949,-0.00578559343142615,0.006446,0.000726,0.000104,0.295438,0.047713,323.667630,23.643193,0.999353,0.986073,0.004640,0.394170,-0.000002,-0.000021,0.000008,0.000001,-0.000024,20.545429,0.000027,
2386,1993,2.90906431483252,-14.2629984792498,0.0399125717911488,0.006159,0.000211,0.001963,0.274689,0.043078,331.728747,22.345801,0.998808,0.962004,0.007185,0.327354,-0.000017,-0.000085,-0.000018,-0.000012,-0.000090,-14.214994,0.000111,
2416,2293,3.50347917330685,-7.68090732225415,0.0082528654854741,0.006124,-0.000232,0.003286,0.268415,0.010265,326.652043,23.096074,0.998887,0.980360,0.005520,0.345393,-0.000017,0.000001,-0.000001,0.000002,-0.000017,-86.823263,0.000018,
2446,2458,4.12542500855994,-4.06971175177594,-0.00458630142117045,0.006589,0.001081,-0.003013,0.313696,0.042400,323.966326,23.558981,0.999233,0.986029,0.004705,0.383627,0.000016,-0.000013,0.000016,0.000022,-0.000020,23.657196,0.000025,
2476,2893,4.68929903701076,5.41886275508102,-0.0235689231753327,0.006484,0.000052,0.003041,0.286311,0.026772,316.761203,25.155931,0.998863,0.987162,0.004489,0.351946,-0.000010,0.000012,-0.000004,0.000012,-0.000010,-80.881213,0.000013,
2371,2368,2.50666256984344,-6.03891787763354,-0.000372327333991507,0.006554,0.000309,0.003105,0.289592,0.043172,325.344395,23.473766,0.998797,0.983812,0.004986,0.402609,-0.000012,-0.000007,0.000018,0.000008,-0.000028,48.606882,0.000028,
2431,2638,3.76028105632998,-0.139243047881536,-0.0226228474130608,0.006187,0.000149,0.001093,0.279954,0.025202,320.830522,24.152568,0.999559,0.990941,0.003941,0.422569,-0.000005,0.000011,-0.000020,0.000025,-0.000019,-56.057525,0.000026,
2416,2578,3.44610150343341,-1.44820041520381,-0.0193140296494221,0.007022,-0.000435,0.003677,0.308610,0.021539,321.840104,24.050964,0.999423,0.989360,0.004117,0.337586,-0.000002,0.000010,0.000001,0.000010,-0.000002,85.266556,0.000010,
2476,2653,4.73855325516152,0.189698718765442,-0.0232275861769722,0.006557,0.000347,-0.000950,0.304575,0.023494,320.697965,24.187356,0.999581,0.990414,0.003852,0.409760,-0.000013,0.000005,-0.000024,0.000022,-0.000030,-54.776302,0.000031,
2461,2818,4.37785776624849,3.78496739810198,-0.0244173423765801,0.006372,-0.000090,0.001010,0.288806,0.017509,317.947532,24.810085,0.999350,0.987081,0.004451,0.390816,-0.000014,-0.000001,-0.000011,0.000005,-0.000020,-60.100919,0.000021,
2461,2548,4.43434190184761,-2.10296123301169,-0.00420739506938617,0.006635,0.000208,0.000117,0.303890,0.029719,322.529198,23.902169,0.999713,0.991966,0.003690,0.323516,-0.000006,-0.000018,-0.000001,-0.000006,-0.000018,-3.547428,0.000025,
2386,2218,2.8642648064232,-9.32312568125972,0.0111509285035254,0.006682,0.000296,-0.002204,0.314004,0.017209,327.900398,23.045595,0.998925,0.980277,0.005657,0.298684,-0.000022,-0.000018,-0.000008,-0.000011,-0.000029,-52.107003,0.000041,
2446,2713,4.07145942058197,1.4982866703567,-0.034120856577772,0.006512,0.000437,0.002323,0.290520,0.061014,319.549173,24.434492,0.999743,0.992507,0.003570,0.428797,-0.000009,0.000016,-0.000017,0.000024,-0.000017,-63.379094,0.000025,
2401,2293,3.17432639275716,-7.67866074819497,-0.00942742886309134,0.006170,-0.000476,0.007279,0.256156,0.023339,326.472709,23.173708,0.999569,0.990743,0.003925,0.343812,-0.000023,0.000001,0.000000,0.000001,-0.000023,88.913308,0.000026,
2386,2008,2.90571890854995,-13.9319855105708,0.0334084621173361,0.006338,0.000040,0.003373,0.277831,0.033466,331.435805,22.462033,0.998709,0.973054,0.006198,0.248669,-0.000011,-0.000060,0.000001,-0.000010,-0.000060,0.938213,0.000076,
2416,2128,3.53713103722449,-11.2963831928571,0.0132670563663169,0.006609,0.000499,-0.000706,0.305189,0.046804,329.395897,22.608233,0.999339,0.979986,0.005554,0.316362,-0.000024,-0.000029,-0.000011,-0.000015,-0.000038,-38.869321,0.000054,
2506,3028,5.31717573041528,8.35437564477717,0.00355519400358162,0.006426,0.000525,-0.000083,0.295867,0.035886,314.871209,25.707492,0.999583,0.992631,0.003527,0.406895,0.000022,0.000027,0.000009,0.000033,0.000015,53.367617,0.000050,
2446,2473,4.12253747722264,-3.74184496228767,-0.000593025813770964,0.006553,0.000861,-0.000921,0.304171,0.042781,323.746603,23.654746,0.999548,0.987698,0.004409,0.341834,0.000006,-0.000024,0.000009,0.000009,-0.000026,15.317630,0.000027,
2476,2908,4.68690593797767,5.74458109020487,-0.0215650128614584,0.006599,0.000030,-0.001413,0.308546,0.009033,316.555494,25.184631,0.998934,0.985554,0.004664,0.361524,-0.000009,0.000012,0.000001,0.000012,-0.000009,88.495812,0.000012,
2401,2503,3.13410362014375,-3.08663178624086,-0.013523438914433,0.006764,-0.000206,0.002267,0.301978,0.022096,323.082125,23.824999,0.999515,0.989297,0.004187,0.351488,0.000003,-0.000019,0.000012,0.000009,-0.000024,24.003854,0.000024,
2416,2308,3.50167028331834,-7.35289413423253,0.00963653178445156,0.006670,0.000476,-0.002678,0.315481,0.026697,326.468117,23.109552,0.999203,0.985182,0.004750,0.398186,-0.000018,-0.000003,0.000001,-0.000003,-0.000018,86.094815,0.000022,
2371,2383,2.50360453825429,-5.71049071549012,0.000339297010270911,0.006315,0.000363,0.003184,0.278389,0.060280,325.096001,23.543253,0.999173,0.984931,0.004872,0.393021,-0.000004,-0.000001,0.000014,0.000011,-0.000016,48.351142,0.000016,
2461,2833,4.37446661087133,4.11338037316743,-0.0353358215544972,0.006626,0.000312,-0.002453,0.313750,0.027823,317.635377,24.940211,0.999598,0.990496,0.003783,0.325429,-0.000010,0.000007,-0.000009,0.000011,-0.000014,-65.728199,0.000015,
2476,2668,4.73538930755782,0.516034899337981,-0.025294671576205,0.006794,0.000026,0.001217,0.307111,0.012500,320.439457,24.163499,0.999501,0.988093,0.004139,0.479548,-0.000008,-0.000007,-0.000028,0.000021,-0.000036,-45.863205,0.000036,
2431,2653,3.75778453487645,0.187367250904721,-0.0154336286524881,0.006180,0.000125,0.002313,0.275160,0.038669,320.641867,24.201775,0.999555,0.990471,0.004013,0.437136,-0.000007,0.000004,-0.000022,0.000022,-0.000024,-51.843943,0.000027,
2416,2143,3.5339058737822,-10.9677675410465,0.00988367444927007,0.006499,0.000612,-0.001960,0.304787,0.041351,329.125574,22.590646,0.999340,0.981614,0.005112,0.379447,-0.000024,-0.000020,-0.000012,-0.000009,-0.000034,-48.740348,0.000046,
2401,2518,3.13120566527608,-2.75979241797692,-0.0156685501175389,0.006650,0.000777,-0.001447,0.310627,0.058117,322.829679,23.749520,0.999492,0.988399,0.004365,0.509665,-0.000004,-0.000014,0.000010,0.000002,-0.000020,31.782231,0.000023,
2476,2683,4.73186165418626,0.844482869034508,-0.0286859608673922,0.006612,0.000109,0.001235,0.298731,0.022145,320.157648,24.307059,0.999628,0.989709,0.003937,0.402778,-0.000011,-0.000007,-0.000024,0.000015,-0.000033,-47.155179,0.000033,
2446,2488,4.11991129956873,-3.41578342248635,0.000489936950884839,0.006798,0.000485,-0.001338,0.316802,0.021495,323.525802,23.584292,0.999482,0.986642,0.004461,0.444164,0.000007,-0.000032,-0.000001,0.000007,-0.000032,-1.447274,0.000033,
2416,2593,3.44270011593921,-1.12088061372365,-0.0247175263624513,0.006654,0.000297,-0.000595,0.307615,0.022205,321.550254,24.051923,0.999572,0.991330,0.003832,0.385999,0.000005,-0.000006,0.000003,0.000006,-0.000007,13.456314,0.000007,
2461,2563,4.43027962231821,-1.77418383993633,-0.023605815303938,0.007224,0.000510,0.000383,0.330061,0.041583,322.149080,23.891568,0.999404,0.989336,0.004254,0.401869,-0.000003,-0.000010,-0.000003,-0.000002,-0.000012,-20.086979,0.000015,
2416,2323,3.49867801484725,-7.02332276432993,0.00675479717318694,0.006721,0.001236,-0.004431,0.324564,0.066625,326.209652,23.204935,0.998982,0.983405,0.004992,0.392579,-0.000019,0.000002,0.000002,0.000002,-0.000020,85.881476,0.000021,
2431,2668,3.75376080928218,0.516914555916514,-0.0321403777616069,0.006233,0.000224,-0.000911,0.289567,0.022370,320.271522,24.355447,0.999511,0.990289,0.004165,0.317917,-0.000005,0.000002,-0.000024,0.000022,-0.000025,-48.791795,0.000028,
2386,2233,2.86113671613645,-8.99537338920239,0.023496584390216,0.005948,-0.000215,0.003811,0.258701,0.022633,327.705783,23.133902,0.999137,0.983298,0.005542,0.261384,-0.000017,-0.000032,-0.000001,-0.000017,-0.000032,-4.920814,0.000049,
2416,2158,3.53070020751894,-10.6398926452714,0.0144061792005346,0.006151,-0.000167,0.001434,0.276199,0.001710,328.893145,22.629888,0.999220,0.980294,0.005314,0.350859,-0.000025,-0.000026,-0.000017,-0.000008,-0.000043,-43.741294,0.000054,
2401,2308,3.1715200736263,-7.3512646460514,-0.0105842485843368,0.006255,-0.000245,0.005884,0.265228,0.037553,326.229965,23.108858,0.999791,0.994243,0.003393,0.470547,-0.000023,-0.000004,0.000004,-0.000003,-0.000023,79.090007,0.000029,
2446,2728,4.06900604852477,1.82336799878424,-0.0272463256425794,0.006639,-0.000344,0.004131,0.289230,0.003106,319.362127,24.433372,0.999695,0.992223,0.003567,0.423935,-0.000011,0.000000,-0.000009,0.000006,-0.000016,-60.847989,0.000017,
2401,2533,3.12845710960486,-2.43139648474682,-0.0124975320611611,0.006653,0.000586,-0.000523,0.307358,0.055605,322.608879,23.907940,0.999399,0.989229,0.004377,0.395102,-0.000006,-0.000016,0.000009,-0.000001,-0.000021,30.506199,0.000025,
2506,3043,5.31371831630991,8.68126529518752,0.00447021690598604,0.006216,0.000340,0.002568,0.275903,0.044024,314.612561,25.845953,0.999719,0.992894,0.003644,0.336802,0.000019,0.000032,0.000011,0.000038,0.000012,60.384623,0.000053,
2476,2698,4.72885498445864,1.17137520790894,-0.0239031910074914,0.006352,-0.000023,0.002331,0.282630,0.028127,319.937120,24.383258,0.999682,0.989651,0.004036,0.389639,-0.000010,0.000003,-0.000024,0.000021,-0.000028,-52.992202,0.000029,
2416,2338,3.49529544720258,-6.69458562442138,0.00379622371758614,0.006609,0.000959,-0.003426,0.315718,0.061602,325.933150,23.273753,0.998930,0.982575,0.005013,0.368449,-0.000014,0.000014,0.000008,0.000016,-0.000017,75.039152,0.000019,
2446,2503,4.11634836422867,-3.08789985879746,2.67708788328491E-05,0.006566,-0.000046,0.002168,0.292971,0.035370,323.254371,23.636549,0.999571,0.988927,0.004124,0.459383,0.000003,-0.000024,-0.000004,0.000004,-0.000024,-9.283459,0.000026,
2431,2683,3.75131473499998,0.843538345896619,-0.0303276041152003,0.006526,0.000579,-0.001951,0.307044,0.049133,320.060055,24.357141,0.999534,0.989566,0.004106,0.393646,-0.000007,0.000005,-0.000023,0.000023,-0.000025,-52.441698,0.000027,
2416,2608,3.43956918424754,-0.793897288129855,-0.0235267457176747,0.006603,-0.000241,0.002229,0.294750,0.008295,321.303678,24.098721,0.999448,0.989454,0.004088,0.373689,0.000004,-0.000007,-0.000003,0.000004,-0.000008,-13.200641,0.000008,
2506,3058,5.31121891958329,9.00528521439962,0.0121976649276121,0.006313,-0.000188,0.004500,0.272642,0.017150,314.429330,25.802894,0.999722,0.992614,0.003786,0.413046,0.000014,0.000036,0.000001,0.000036,0.000014,88.247101,0.000052,
2401,2323,3.16951475061612,-7.0229624863126,0.00309749366169854,0.005748,0.000582,0.001630,0.257737,0.065383,326.093433,23.265679,0.999369,0.987901,0.004323,0.388533,-0.000025,-0.000002,0.000004,-0.000001,-0.000025,81.090159,0.000030,
2446,2743,4.06677666262958,2.14970472080824,-0.018066944512384,0.006640,-0.000379,0.003898,0.290162,0.010343,319.195516,24.504408,0.999635,0.991167,0.003720,0.412677,-0.000010,0.000006,-0.000008,0.000009,-0.000013,-67.131696,0.000014,
2461,2578,4.42547927564349,-1.44687545564096,-0.0301295574670348,0.006433,-0.000202,0.005754,0.273374,0.043847,321.794018,23.875973,0.999539,0.991765,0.004086,0.475323,-0.000003,0.000003,-0.000001,0.000003,-0.000003,-81.474244,0.000004,
2386,2248,2.85741793202697,-8.66514140335455,0.00563193478916446,0.006546,0.000043,0.004032,0.285444,0.035773,327.340801,23.134488,0.999095,0.983051,0.005403,0.320210,-0.000016,-0.000038,-0.000002,-0.000016,-0.000038,-6.031422,0.000055,
2446,2518,4.11313200165634,-2.75962989630771,-0.00556589680644493,0.006804,0.000093,0.002080,0.304280,0.032723,322.975175,23.699329,0.999252,0.986526,0.004502,0.447366,-0.000004,-0.000015,-0.000003,-0.000003,-0.000016,-15.048741,0.000020,
2416,2353,3.49177750999513,-6.36691033875579,0.0031736572489649,0.006309,0.000334,-0.000684,0.291732,0.041924,325.661464,23.288420,0.998602,0.981934,0.005195,0.383921,-0.000004,0.000013,0.000012,0.000020,-0.000010,62.402869,0.000020,
2461,2593,4.4238041835649,-1.12020373280334,-0.0174697673812148,0.006589,0.000253,0.003936,0.287547,0.052942,321.670242,23.966609,0.999272,0.988808,0.004287,0.448620,0.000001,-0.000012,0.000004,0.000002,-0.000013,14.267440,0.000014,
2446,2758,4.0629875545885,2.4774729633248,-0.0317489141521605,0.006686,-0.000126,0.000420,0.305348,0.002312,318.851445,24.545058,0.999589,0.989862,0.003950,0.416474,-0.000001,0.000007,-0.000009,0.000013,-0.000007,-56.553179,0.000013,
2416,2368,3.4892423723518,-6.0399570180301,0.00713998661433379,0.006458,0.000011,0.000046,0.295750,0.015436,325.456338,23.293336,0.999028,0.983461,0.004953,0.401760,-0.000007,0.000006,0.000016,0.000017,-0.000018,56.460515,0.000020,
2446,2533,4.11043276492746,-2.43015144841878,-0.00987747484435886,0.007072,0.000541,-0.002804,0.334953,0.030358,322.725328,23.889675,0.999111,0.987761,0.004542,0.308012,-0.000005,-0.000019,-0.000003,-0.000005,-0.000019,-12.954418,0.000025,
2461,2608,4.42115676131786,-0.793384265619693,-0.0144719686201711,0.006602,-0.000166,0.002469,0.293513,0.025153,321.457653,24.027648,0.999055,0.986194,0.004593,0.414834,0.000000,-0.000008,-0.000004,0.000001,-0.000010,-22.718623,0.000011,
2446,2548,4.10650293442195,-2.10284062837092,-0.012426606756776,0.006658,0.000228,0.000955,0.301881,0.034235,322.427325,23.896279,0.999515,0.989713,0.004124,0.358613,-0.000004,-0.000017,-0.000006,-0.000001,-0.000020,-20.300377,0.000024,
2416,2383,3.48699018928255,-5.71132499278737,0.0146442705072332,0.006556,0.000324,0.000024,0.300487,0.021260,325.280266,23.458196,0.999712,0.987759,0.004358,0.291780,-0.000001,0.000005,0.000010,0.000012,-0.000008,54.645918,0.000012,
2461,2623,4.41756166554425,-0.464400073126541,-0.0238599988243777,0.006715,0.000285,0.001250,0.303482,0.034594,321.144312,24.148956,0.999396,0.989287,0.004088,0.358157,-0.000001,0.000008,-0.000011,0.000016,-0.000008,-55.745718,0.000016,
2416,2398,3.48339888402241,-5.38349280172638,0.00373235144655837,0.006790,0.000146,0.000111,0.310864,0.026213,324.956888,23.378537,0.999616,0.987400,0.004503,0.426394,0.000004,0.000003,0.000013,0.000016,-0.000010,43.740831,0.000017,
