Image X[Pixel],Image Y[Pixel],X[mm],Y[mm],Z[mm],Horizontal Displacement U[mm],Vertical Displacement V[mm],Out-Of-Plane: W[mm],Horizontal: u[Pixel],Vertical: v[Pixel],Horizontal: q[Pixel],Vertical: r[Pixel],Correlation Value 2D,Correlation Value Persp,Sigma,Epipolar Distance,Strain-global frame: Exx,Strain-global frame: Eyy,Strain-global frame: Exy,Maximum Principal Strain: EI,Minimum Principal Strain: EII,Shear Angle Gamma,Von Mises Equivalent Strain,
2266,2653,0.158112356680235,0.183125382462073,-0.0275675034837946,0.000000,0.000000,0.000000,0.000000,0.000000,320.265194,24.389874,-1.000000,0.990303,0.006428,0.306927,0.000000,0.000000,0.000000,0.000000,0.000000,0.000000,0.000000,
2251,2638,-0.165313751897425,-0.145031164903912,-0.0238534271000503,0.000000,0.000000,0.000000,0.000000,0.000000,320.566256,24.336064,-1.000000,0.987143,0.006725,0.345358,0.000000,0.000000,0.000000,0.000000,0.000000,0.000000,0.000000,
2251,2668,-0.170405927383669,0.508110192043262,-0.020803734112576,0.000000,0.000000,0.000000,0.000000,0.000000,320.104969,24.358872,-1.000000,0.991445,0.006028,0.370057,0.000000,0.000000,0.000000,0.000000,0.000000,0.000000,0.000000,
2281,2638,0.487658472991299,-0.144408565163928,-0.021577661673291,0.000000,0.000000,0.000000,0.000000,0.000000,320.537358,24.297701,-1.000000,0.987020,0.006845,0.361897,0.000000,0.000000,0.000000,0.000000,0.000000,0.000000,0.000000,
2281,2668,0.482227544788813,0.510447651371301,-0.021658308712972,0.000000,0.000000,0.000000,0.000000,0.000000,320.048955,24.452507,-1.000000,0.991394,0.006384,0.263781,0.000000,0.000000,0.000000,0.000000,0.000000,0.000000,0.000000,
2236,2653,-0.493457450528215,0.180800829291762,-0.0122056252757829,0.000000,0.000000,0.000000,0.000000,0.000000,320.450708,24.419104,-1.000000,0.989512,0.006681,0.294135,0.000000,0.000000,0.000000,0.000000,0.000000,0.000000,0.000000,
2236,2683,-0.499020677923806,0.833904727500219,-0.0165057790437118,0.000000,0.000000,0.000000,0.000000,0.000000,319.928123,24.384827,-1.000000,0.989673,0.006379,0.371743,0.000000,0.000000,0.000000,0.000000,0.000000,0.000000,0.000000,
2266,2683,0.152596664994057,0.836327979467441,-0.0296579907075056,0.000000,0.000000,0.000000,0.000000,0.000000,319.760777,24.385996,-1.000000,0.992365,0.005728,0.362759,0.000000,0.000000,0.000000,0.000000,0.000000,0.000000,0.000000,
2296,2653,0.811142981527244,0.182993150199124,-0.0249328453608086,0.000000,0.000000,0.000000,0.000000,0.000000,320.248308,24.285206,-1.000000,0.988643,0.006440,0.394198,0.000000,0.000000,0.000000,0.000000,0.000000,0.000000,0.000000,
2296,2683,0.805936578525955,0.836415396664407,-0.0213404262755148,0.000000,0.000000,0.000000,0.000000,0.000000,319.791010,24.348815,-1.000000,0.989960,0.006503,0.391459,0.000000,0.000000,0.000000,0.000000,0.000000,0.000000,0.000000,
2236,2623,-0.488592623635267,-0.473339987181127,-0.0178114842256036,0.000000,0.000000,0.000000,0.000000,0.000000,320.890956,24.293612,-1.000000,0.986100,0.007342,0.376796,0.000000,0.000000,0.000000,0.000000,0.000000,0.000000,0.000000,
2266,2623,0.163644612134906,-0.471663087870276,-0.025316719966952,0.000000,0.000000,0.000000,0.000000,0.000000,320.771408,24.268696,-1.000000,0.988919,0.006704,0.375833,0.000000,0.000000,0.000000,0.000000,0.000000,0.000000,0.000000,
2296,2623,0.81701620028835,-0.47137319798486,-0.0195014451497286,0.000000,0.000000,0.000000,0.000000,0.000000,320.780969,24.229298,-1.000000,0.989503,0.006322,0.389013,0.000000,0.000000,0.000000,0.000000,0.000000,0.000000,0.000000,
2251,2698,-0.175696870547373,1.1611067116808,-0.0204830409505803,0.000000,0.000000,0.000000,0.000000,0.000000,319.620679,24.363628,-1.000000,0.991583,0.005676,0.412642,0.000000,0.000000,0.000000,0.000000,0.000000,0.000000,0.000000,
2281,2698,0.477050961603389,1.1628754054468,-0.0183911495746543,0.000000,0.000000,0.000000,0.000000,0.000000,319.589367,24.430213,-1.000000,0.993322,0.005900,0.342210,0.000000,0.000000,0.000000,0.000000,0.000000,0.000000,0.000000,
2311,2668,1.13525550658875,0.510854707336222,-0.0195959649110478,0.000000,0.000000,0.000000,0.000000,0.000000,320.035680,24.392474,-1.000000,0.992621,0.005971,0.310721,0.000000,0.000000,0.000000,0.000000,0.000000,0.000000,0.000000,
2311,2698,1.12981248223738,1.16327328018178,-0.0185727488819225,0.000000,0.000000,0.000000,0.000000,0.000000,319.557243,24.351594,-1.000000,0.992292,0.006099,0.416820,0.000000,0.000000,0.000000,0.000000,0.000000,0.000000,0.000000,
2221,2668,-0.823311770265708,0.507231501531223,-0.0260775188333469,0.000000,0.000000,0.000000,0.000000,0.000000,320.126590,24.347472,-1.000000,0.993281,0.005605,0.394059,0.000000,0.000000,0.000000,0.000000,0.000000,0.000000,0.000000,
2221,2698,-0.828503953573168,1.16037932891383,-0.0258182150037101,0.000000,0.000000,0.000000,0.000000,0.000000,319.641853,24.365348,-1.000000,0.993979,0.005174,0.414882,0.000000,0.000000,0.000000,0.000000,0.000000,0.000000,0.000000,
2221,2638,-0.818636850670391,-0.146113026400542,-0.033684058521203,0.000000,0.000000,0.000000,0.000000,0.000000,320.549889,24.267823,-1.000000,0.986427,0.007296,0.435174,0.000000,0.000000,0.000000,0.000000,0.000000,0.000000,0.000000,
2281,2608,0.492736850301903,-0.797377955582988,-0.0261210424367277,0.000000,0.000000,0.000000,0.000000,0.000000,320.985925,24.294914,-1.000000,0.988441,0.006780,0.308153,0.000000,0.000000,0.000000,0.000000,0.000000,0.000000,0.000000,
2311,2608,1.14627544613282,-0.797865301622799,-0.0200209076307942,0.000000,0.000000,0.000000,0.000000,0.000000,321.007059,24.186307,-1.000000,0.991129,0.006101,0.386049,0.000000,0.000000,0.000000,0.000000,0.000000,0.000000,0.000000,
2311,2638,1.14110869049489,-0.144229644502559,-0.0152810342664225,0.000000,0.000000,0.000000,0.000000,0.000000,320.559652,24.251886,-1.000000,0.989327,0.006253,0.385994,0.000000,0.000000,0.000000,0.000000,0.000000,0.000000,0.000000,
2251,2608,-0.159752662669252,-0.799956183617475,-0.0204146535107839,0.000000,0.000000,0.000000,0.000000,0.000000,321.082173,24.223065,-1.000000,0.986702,0.007225,0.410205,0.000000,0.000000,0.000000,0.000000,0.000000,0.000000,0.000000,
2221,2608,-0.812897327438126,-0.800315938507673,-0.0260363295087132,0.000000,0.000000,0.000000,0.000000,0.000000,321.100336,24.256804,-1.000000,0.984112,0.007556,0.407170,0.000000,0.000000,0.000000,0.000000,0.000000,0.000000,0.000000,
2206,2683,-1.15198544324552,0.833524979423807,-0.024509246729906,0.000000,0.000000,0.000000,0.000000,0.000000,319.935514,24.396213,-1.000000,0.993410,0.005644,0.368494,0.000000,0.000000,0.000000,0.000000,0.000000,0.000000,0.000000,
2206,2713,-1.15751266031506,1.48664642826385,-0.0298146131149792,0.000000,0.000000,0.000000,0.000000,0.000000,319.404329,24.374997,-1.000000,0.987539,0.006761,0.423972,0.000000,0.000000,0.000000,0.000000,0.000000,0.000000,0.000000,
2236,2713,-0.505088601396043,1.4882229794455,-0.0277861563536135,0.000000,0.000000,0.000000,0.000000,0.000000,319.346371,24.424999,-1.000000,0.990439,0.005857,0.374534,0.000000,0.000000,0.000000,0.000000,0.000000,0.000000,0.000000,
2266,2713,0.148256206907863,1.48863229372139,-0.0154681794106182,0.000000,0.000000,0.000000,0.000000,0.000000,319.392215,24.450330,-1.000000,0.993166,0.005756,0.349732,0.000000,0.000000,0.000000,0.000000,0.000000,0.000000,0.000000,
2296,2713,0.799180737350124,1.49128136542234,-0.038608695641301,0.000000,0.000000,0.000000,0.000000,0.000000,319.158657,24.393402,-1.000000,0.993056,0.005854,0.407739,0.000000,0.000000,0.000000,0.000000,0.000000,0.000000,0.000000,
2206,2653,-1.14707599989987,0.180044590788746,-0.0280948315730711,0.000000,0.000000,0.000000,0.000000,0.000000,320.392464,24.329830,-1.000000,0.986568,0.007424,0.400852,0.000000,0.000000,0.000000,0.000000,0.000000,0.000000,0.000000,
2326,2653,1.46358980825492,0.185136236227343,-0.0322398777523745,0.000000,0.000000,0.000000,0.000000,0.000000,320.164810,24.305345,-1.000000,0.990053,0.006326,0.357049,0.000000,0.000000,0.000000,0.000000,0.000000,0.000000,0.000000,
2326,2683,1.458114436791,0.838855064141029,-0.0308796968302545,0.000000,0.000000,0.000000,0.000000,0.000000,319.688580,24.379718,-1.000000,0.992205,0.006161,0.352187,0.000000,0.000000,0.000000,0.000000,0.000000,0.000000,0.000000,
2326,2713,1.45274579603427,1.49296678197064,-0.0280293836860324,0.000000,0.000000,0.000000,0.000000,0.000000,319.224250,24.520196,-1.000000,0.987236,0.006955,0.281124,0.000000,0.000000,0.000000,0.000000,0.000000,0.000000,0.000000,
2296,2593,0.823741451818382,-1.12693942877842,-0.00255445838337209,0.000000,0.000000,0.000000,0.000000,0.000000,321.409819,24.183209,-1.000000,0.991582,0.005989,0.373244,0.000000,0.000000,0.000000,0.000000,0.000000,0.000000,0.000000,
2326,2593,1.47556880149784,-1.12426387286341,-0.0213298538208733,0.000000,0.000000,0.000000,0.000000,0.000000,321.230879,24.149083,-1.000000,0.991239,0.006165,0.372976,0.000000,0.000000,0.000000,0.000000,0.000000,0.000000,0.000000,
2326,2623,1.47048434845124,-0.470981787711523,-0.0148923610522615,0.000000,0.000000,0.000000,0.000000,0.000000,320.797896,24.188269,-1.000000,0.988935,0.006641,0.403778,0.000000,0.000000,0.000000,0.000000,0.000000,0.000000,0.000000,
2266,2593,0.169051231833198,-1.12610754616045,-0.0247205860704298,0.000000,0.000000,0.000000,0.000000,0.000000,321.263312,24.184081,-1.000000,0.987119,0.007095,0.408020,0.000000,0.000000,0.000000,0.000000,0.000000,0.000000,0.000000,
2236,2593,-0.483267410611553,-1.12777729325897,-0.0168511515977912,0.000000,0.000000,0.000000,0.000000,0.000000,321.385713,24.214852,-1.000000,0.987550,0.007113,0.411925,0.000000,0.000000,0.000000,0.000000,0.000000,0.000000,0.000000,
2206,2623,-1.14134035839222,-0.474118003059672,-0.0196893409929544,0.000000,0.000000,0.000000,0.000000,0.000000,320.949279,24.320424,-1.000000,0.985165,0.007678,0.375649,0.000000,0.000000,0.000000,0.000000,0.000000,0.000000,0.000000,
2206,2593,-1.13592236442964,-1.12801890179308,-0.0157799165074834,0.000000,0.000000,0.000000,0.000000,0.000000,321.468148,24.317115,-1.000000,0.987193,0.006869,0.344187,0.000000,0.000000,0.000000,0.000000,0.000000,0.000000,0.000000,
2191,2668,-1.47542440514119,0.506603448808924,-0.0223677552251615,0.000000,0.000000,0.000000,0.000000,0.000000,320.240319,24.432906,-1.000000,0.994349,0.005279,0.321011,0.000000,0.000000,0.000000,0.000000,0.000000,0.000000,0.000000,
2191,2698,-1.48016221978128,1.15760696604937,-0.0171449276631392,0.000000,0.000000,0.000000,0.000000,0.000000,319.798191,24.292982,-1.000000,0.994654,0.005039,0.490630,0.000000,0.000000,0.000000,0.000000,0.000000,0.000000,0.000000,
2251,2728,-0.181406385794446,1.81514705418563,-0.0258786585555413,0.000000,0.000000,0.000000,0.000000,0.000000,319.087851,24.436458,-1.000000,0.990744,0.005936,0.387227,0.000000,0.000000,0.000000,0.000000,0.000000,0.000000,0.000000,
2281,2728,0.471189352268869,1.81638225483054,-0.024374841042345,0.000000,0.000000,0.000000,0.000000,0.000000,319.051747,24.450026,-1.000000,0.992285,0.005867,0.378357,0.000000,0.000000,0.000000,0.000000,0.000000,0.000000,0.000000,
2311,2728,1.12411112169431,1.81715795643794,-0.0208541631283765,0.000000,0.000000,0.000000,0.000000,0.000000,319.050146,24.436732,-1.000000,0.990314,0.006319,0.396524,0.000000,0.000000,0.000000,0.000000,0.000000,0.000000,0.000000,
2341,2668,1.78784064461626,0.512424365275201,-0.025597355391767,0.000000,0.000000,0.000000,0.000000,0.000000,319.972018,24.371422,-1.000000,0.991910,0.006306,0.319128,0.000000,0.000000,0.000000,0.000000,0.000000,0.000000,0.000000,
2341,2698,1.78260232174514,1.16472340734546,-0.0205376171811622,0.000000,0.000000,0.000000,0.000000,0.000000,319.527156,24.354214,-1.000000,0.992890,0.005966,0.410270,0.000000,0.000000,0.000000,0.000000,0.000000,0.000000,0.000000,
2281,2578,0.49943105924881,-1.45417982098142,-0.00876892597364076,0.000000,0.000000,0.000000,0.000000,0.000000,321.618517,24.149153,-1.000000,0.987172,0.007186,0.396628,0.000000,0.000000,0.000000,0.000000,0.000000,0.000000,0.000000,
2311,2578,1.15127665523153,-1.45078107882078,-0.0268740527485534,0.000000,0.000000,0.000000,0.000000,0.000000,321.436164,24.185718,-1.000000,0.990993,0.006170,0.320980,0.000000,0.000000,0.000000,0.000000,0.000000,0.000000,0.000000,
2341,2578,1.80546744674983,-1.45157687458008,-0.0159799978303568,0.000000,0.000000,0.000000,0.000000,0.000000,321.515025,24.090043,-1.000000,0.985599,0.007187,0.376813,0.000000,0.000000,0.000000,0.000000,0.000000,0.000000,0.000000,
2341,2608,1.79856372859514,-0.795347479128381,-0.0326198792100172,0.000000,0.000000,0.000000,0.000000,0.000000,320.888243,24.192193,-1.000000,0.986401,0.007341,0.349900,0.000000,0.000000,0.000000,0.000000,0.000000,0.000000,0.000000,
2221,2728,-0.833398561941056,1.81349917548647,-0.0212239766538573,0.000000,0.000000,0.000000,0.000000,0.000000,319.192921,24.433576,-1.000000,0.990533,0.005909,0.384700,0.000000,0.000000,0.000000,0.000000,0.000000,0.000000,0.000000,
2341,2638,1.79404628558197,-0.1429513111026,-0.0181439071105842,0.000000,0.000000,0.000000,0.000000,0.000000,320.522491,24.228895,-1.000000,0.987460,0.007038,0.387337,0.000000,0.000000,0.000000,0.000000,0.000000,0.000000,0.000000,
2221,2578,-0.807249159812802,-1.45471755489459,-0.0196367308136587,0.000000,0.000000,0.000000,0.000000,0.000000,321.640114,24.237565,-1.000000,0.988683,0.006482,0.386865,0.000000,0.000000,0.000000,0.000000,0.000000,0.000000,0.000000,
2251,2578,-0.154263831486361,-1.45410995943006,-0.0178578556019033,0.000000,0.000000,0.000000,0.000000,0.000000,321.589989,24.192828,-1.000000,0.989438,0.006537,0.392419,0.000000,0.000000,0.000000,0.000000,0.000000,0.000000,0.000000,
2191,2728,-1.48585106007097,1.8126533232367,-0.0254462777618869,0.000000,0.000000,0.000000,0.000000,0.000000,319.240978,24.432233,-1.000000,0.989921,0.006178,0.380890,0.000000,0.000000,0.000000,0.000000,0.000000,0.000000,0.000000,
2341,2728,1.77625605562884,1.82028026882042,-0.0297579800786707,0.000000,0.000000,0.000000,0.000000,0.000000,318.961132,24.538387,-1.000000,0.989478,0.006402,0.299948,0.000000,0.000000,0.000000,0.000000,0.000000,0.000000,0.000000,
2191,2578,-1.45955239905831,-1.45684913334514,-0.0140529366120745,0.000000,0.000000,0.000000,0.000000,0.000000,321.769693,24.206251,-1.000000,0.991207,0.005971,0.457119,0.000000,0.000000,0.000000,0.000000,0.000000,0.000000,0.000000,
2191,2608,-1.46504973007888,-0.801537540676414,-0.0198672260845569,0.000000,0.000000,0.000000,0.000000,0.000000,321.234506,24.312065,-1.000000,0.985760,0.007159,0.381814,0.000000,0.000000,0.000000,0.000000,0.000000,0.000000,0.000000,
2191,2638,-1.47010658756503,-0.148327925711158,-0.0193197606095055,0.000000,0.000000,0.000000,0.000000,0.000000,320.752998,24.299257,-1.000000,0.988672,0.006876,0.424739,0.000000,0.000000,0.000000,0.000000,0.000000,0.000000,0.000000,
2176,2683,-1.80420341233383,0.8318764314104,-0.024345534957547,0.000000,0.000000,0.000000,0.000000,0.000000,320.028992,24.357661,-1.000000,0.991094,0.006041,0.415070,0.000000,0.000000,0.000000,0.000000,0.000000,0.000000,0.000000,
2176,2713,-1.80923973665359,1.48584570304696,-0.0239784784864128,0.000000,0.000000,0.000000,0.000000,0.000000,319.544798,24.459023,-1.000000,0.989894,0.006228,0.338818,0.000000,0.000000,0.000000,0.000000,0.000000,0.000000,0.000000,
2176,2653,-1.79993097038535,0.180138663083909,-0.0357589285133599,0.000000,0.000000,0.000000,0.000000,0.000000,320.419723,24.386693,-1.000000,0.989566,0.006775,0.361097,0.000000,0.000000,0.000000,0.000000,0.000000,0.000000,0.000000,
2356,2683,2.1115212063281,0.839788066972602,-0.0263802964646516,0.000000,0.000000,0.000000,0.000000,0.000000,319.721474,24.387169,-1.000000,0.989996,0.006447,0.335993,0.000000,0.000000,0.000000,0.000000,0.000000,0.000000,0.000000,
2356,2713,2.10594256676125,1.49326034283449,-0.0250128829946448,0.000000,0.000000,0.000000,0.000000,0.000000,319.244958,24.457104,-1.000000,0.991504,0.005878,0.344349,0.000000,0.000000,0.000000,0.000000,0.000000,0.000000,0.000000,
2266,2743,0.142221378470158,2.14234688333422,-0.0245896968683041,0.000000,0.000000,0.000000,0.000000,0.000000,318.828232,24.472838,-1.000000,0.988699,0.006436,0.378850,0.000000,0.000000,0.000000,0.000000,0.000000,0.000000,0.000000,
2296,2743,0.794885206312824,2.14348270280004,-0.0226509901432905,0.000000,0.000000,0.000000,0.000000,0.000000,318.804452,24.480677,-1.000000,0.990448,0.006248,0.380415,0.000000,0.000000,0.000000,0.000000,0.000000,0.000000,0.000000,
2356,2653,2.11773287158453,0.184963379598912,-0.0195804971048119,0.000000,0.000000,0.000000,0.000000,0.000000,320.266476,24.279454,-1.000000,0.987074,0.007335,0.365025,0.000000,0.000000,0.000000,0.000000,0.000000,0.000000,0.000000,
2176,2563,-1.78386187117433,-1.78234788701289,-0.0218545052480863,0.000000,0.000000,0.000000,0.000000,0.000000,321.994412,24.322292,-1.000000,0.986859,0.006980,0.347565,0.000000,0.000000,0.000000,0.000000,0.000000,0.000000,0.000000,
2176,2593,-1.78880721293202,-1.12872198973529,-0.020538198303143,0.000000,0.000000,0.000000,0.000000,0.000000,321.519684,24.326027,-1.000000,0.988490,0.006580,0.369840,0.000000,0.000000,0.000000,0.000000,0.000000,0.000000,0.000000,
2206,2563,-1.13075698714976,-1.78247955193611,-0.0154957265364715,0.000000,0.000000,0.000000,0.000000,0.000000,321.956774,24.250546,-1.000000,0.991515,0.006049,0.375802,0.000000,0.000000,0.000000,0.000000,0.000000,0.000000,0.000000,
2296,2563,0.828297867294733,-1.77954619686052,-0.0147436367474256,0.000000,0.000000,0.000000,0.000000,0.000000,321.794054,24.175882,-1.000000,0.987475,0.007296,0.319428,0.000000,0.000000,0.000000,0.000000,0.000000,0.000000,0.000000,
2326,2563,1.48132818120479,-1.77861320581499,-0.0188410725264134,0.000000,0.000000,0.000000,0.000000,0.000000,321.738470,24.107537,-1.000000,0.984228,0.007605,0.343883,0.000000,0.000000,0.000000,0.000000,0.000000,0.000000,0.000000,
2236,2743,-0.510203855870831,2.14148154089399,-0.0255874358904862,0.000000,0.000000,0.000000,0.000000,0.000000,318.877155,24.496439,-1.000000,0.986990,0.007052,0.345875,0.000000,0.000000,0.000000,0.000000,0.000000,0.000000,0.000000,
2206,2743,-1.16257667319971,2.14034137461218,-0.028289652551905,0.000000,0.000000,0.000000,0.000000,0.000000,318.929417,24.480363,-1.000000,0.990602,0.006253,0.352224,0.000000,0.000000,0.000000,0.000000,0.000000,0.000000,0.000000,
2326,2743,1.44746940339199,2.14521333327627,-0.0240574038681984,0.000000,0.000000,0.000000,0.000000,0.000000,318.769908,24.515657,-1.000000,0.991052,0.006180,0.354687,0.000000,0.000000,0.000000,0.000000,0.000000,0.000000,0.000000,
2176,2743,-1.81390069016392,2.13806087563454,-0.0180934654532621,0.000000,0.000000,0.000000,0.000000,0.000000,319.107133,24.461326,-1.000000,0.990799,0.006441,0.361436,0.000000,0.000000,0.000000,0.000000,0.000000,0.000000,0.000000,
2356,2743,2.1009187970224,2.14571785153758,-0.0164657677391915,0.000000,0.000000,0.000000,0.000000,0.000000,318.828563,24.508727,-1.000000,0.991689,0.005803,0.370612,0.000000,0.000000,0.000000,0.000000,0.000000,0.000000,0.000000,
2236,2563,-0.477700691267799,-1.78300819696751,-0.0124681623005358,0.000000,0.000000,0.000000,0.000000,0.000000,321.909023,24.112559,-1.000000,0.992183,0.005823,0.470378,0.000000,0.000000,0.000000,0.000000,0.000000,0.000000,0.000000,
2266,2563,0.175183849422631,-1.78182004575953,-0.0141074304659128,0.000000,0.000000,0.000000,0.000000,0.000000,321.838937,24.090318,-1.000000,0.989997,0.006609,0.448834,0.000000,0.000000,0.000000,0.000000,0.000000,0.000000,0.000000,
2176,2623,-1.79415927684591,-0.474494017716587,-0.0251031443496572,0.000000,0.000000,0.000000,0.000000,0.000000,320.995349,24.353330,-1.000000,0.988484,0.006815,0.368573,0.000000,0.000000,0.000000,0.000000,0.000000,0.000000,0.000000,
2356,2623,2.12353993473162,-0.469131403028364,-0.0179586193675618,0.000000,0.000000,0.000000,0.000000,0.000000,320.767557,24.215081,-1.000000,0.987760,0.006878,0.350466,0.000000,0.000000,0.000000,0.000000,0.000000,0.000000,0.000000,
2356,2593,2.12925095447151,-1.1232542929575,-0.0175567831994954,0.000000,0.000000,0.000000,0.000000,0.000000,321.258136,24.156704,-1.000000,0.987604,0.007010,0.329947,0.000000,0.000000,0.000000,0.000000,0.000000,0.000000,0.000000,
2356,2563,2.13506073302429,-1.7781478505688,-0.0159024210796588,0.000000,0.000000,0.000000,0.000000,0.000000,321.759212,24.057623,-1.000000,0.989383,0.006772,0.349787,0.000000,0.000000,0.000000,0.000000,0.000000,0.000000,0.000000,
2221,2548,-0.801378500239963,-2.10949360544299,-0.0100039290794598,0.000000,0.000000,0.000000,0.000000,0.000000,322.206615,24.233363,-1.000000,0.991836,0.005948,0.351185,0.000000,0.000000,0.000000,0.000000,0.000000,0.000000,0.000000,
2251,2548,-0.149303422097137,-2.1077255493567,-0.0225938782354547,0.000000,0.000000,0.000000,0.000000,0.000000,322.036462,24.166913,-1.000000,0.993542,0.005643,0.369942,0.000000,0.000000,0.000000,0.000000,0.000000,0.000000,0.000000,
2341,2758,1.77133259596706,2.47207825663666,-0.0205180775817553,0.000000,0.000000,0.000000,0.000000,0.000000,318.550754,24.543567,-1.000000,0.990856,0.006251,0.368042,0.000000,0.000000,0.000000,0.000000,0.000000,0.000000,0.000000,
2371,2728,2.4294264603326,1.82101289388268,-0.0274884641524409,0.000000,0.000000,0.000000,0.000000,0.000000,318.984049,24.509391,-1.000000,0.990749,0.006110,0.333595,0.000000,0.000000,0.000000,0.000000,0.000000,0.000000,0.000000,
2371,2758,2.42343576897805,2.47468216684719,-0.0307177220549875,0.000000,0.000000,0.000000,0.000000,0.000000,318.468475,24.588625,-1.000000,0.986986,0.006627,0.336806,0.000000,0.000000,0.000000,0.000000,0.000000,0.000000,0.000000,
2191,2548,-1.45458467944839,-2.11014518416581,-0.0157353808554035,0.000000,0.000000,0.000000,0.000000,0.000000,322.241096,24.239261,-1.000000,0.990487,0.006427,0.393453,0.000000,0.000000,0.000000,0.000000,0.000000,0.000000,0.000000,
2371,2698,2.43481632568655,1.16700997512642,-0.032005824095279,0.000000,0.000000,0.000000,0.000000,0.000000,319.434798,24.355232,-1.000000,0.990452,0.005975,0.405132,0.000000,0.000000,0.000000,0.000000,0.000000,0.000000,0.000000,
2161,2668,-2.12683536423698,0.503751164425516,-0.0105903836679317,0.000000,0.000000,0.000000,0.000000,0.000000,320.439700,24.380554,-1.000000,0.993515,0.005488,0.385429,0.000000,0.000000,0.000000,0.000000,0.000000,0.000000,0.000000,
2161,2698,-2.13281357862246,1.15823934205706,-0.0251163675044381,0.000000,0.000000,0.000000,0.000000,0.000000,319.831491,24.396343,-1.000000,0.987732,0.006658,0.390957,0.000000,0.000000,0.000000,0.000000,0.000000,0.000000,0.000000,
2311,2758,1.118678335835,2.47028246370806,-0.0195427354366302,0.000000,0.000000,0.000000,0.000000,0.000000,318.573073,24.499109,-1.000000,0.992005,0.006103,0.398842,0.000000,0.000000,0.000000,0.000000,0.000000,0.000000,0.000000,
2161,2728,-2.13798682135033,1.81144417427905,-0.0275844132459042,0.000000,0.000000,0.000000,0.000000,0.000000,319.323971,24.413416,-1.000000,0.989844,0.006559,0.394462,0.000000,0.000000,0.000000,0.000000,0.000000,0.000000,0.000000,
2161,2758,-2.14298445958779,2.46428699537241,-0.0273508036657404,0.000000,0.000000,0.000000,0.000000,0.000000,318.838792,24.437283,-1.000000,0.987369,0.006707,0.390938,0.000000,0.000000,0.000000,0.000000,0.000000,0.000000,0.000000,
2191,2758,-1.49048278634771,2.46519599087233,-0.0183758836099059,0.000000,0.000000,0.000000,0.000000,0.000000,318.812788,24.483273,-1.000000,0.991299,0.005875,0.358814,0.000000,0.000000,0.000000,0.000000,0.000000,0.000000,0.000000,
2221,2758,-0.839107867384609,2.46745775293492,-0.0281560063775146,0.000000,0.000000,0.000000,0.000000,0.000000,318.647138,24.504697,-1.000000,0.990130,0.006242,0.351833,0.000000,0.000000,0.000000,0.000000,0.000000,0.000000,0.000000,
2281,2758,0.465349634343141,2.47012221461588,-0.0299850718618018,0.000000,0.000000,0.000000,0.000000,0.000000,318.516756,24.513939,-1.000000,0.990121,0.006188,0.370532,0.000000,0.000000,0.000000,0.000000,0.000000,0.000000,0.000000,
2281,2548,0.503901843175171,-2.1067768724988,-0.0215012613735439,0.000000,0.000000,0.000000,0.000000,0.000000,321.998010,24.146084,-1.000000,0.990111,0.006458,0.342727,0.000000,0.000000,0.000000,0.000000,0.000000,0.000000,0.000000,
2371,2668,2.44096271738613,0.513056881736837,-0.0267364825614891,0.000000,0.000000,0.000000,0.000000,0.000000,319.966855,24.303974,-1.000000,0.988751,0.006969,0.373651,0.000000,0.000000,0.000000,0.000000,0.000000,0.000000,0.000000,
2161,2638,-2.12313555647691,-0.147192792954407,-0.0298191232513432,0.000000,0.000000,0.000000,0.000000,0.000000,320.764723,24.427291,-1.000000,0.993488,0.005766,0.318222,0.000000,0.000000,0.000000,0.000000,0.000000,0.000000,0.000000,
2341,2548,1.81133243257305,-2.10649388345323,-0.0128620103172352,0.000000,0.000000,0.000000,0.000000,0.000000,322.028051,24.012037,-1.000000,0.983442,0.007791,0.379775,0.000000,0.000000,0.000000,0.000000,0.000000,0.000000,0.000000,
2371,2548,2.46499920047117,-2.10573975223146,-0.012708164221408,0.000000,0.000000,0.000000,0.000000,0.000000,322.034270,23.963446,-1.000000,0.986752,0.007499,0.379796,0.000000,0.000000,0.000000,0.000000,0.000000,0.000000,0.000000,
2371,2578,2.45903667760451,-1.45073418238022,-0.0156299905212904,0.000000,0.000000,0.000000,0.000000,0.000000,321.522667,24.052046,-1.000000,0.988289,0.007079,0.375035,0.000000,0.000000,0.000000,0.000000,0.000000,0.000000,0.000000,
2251,2758,-0.187468782861625,2.46958709327384,-0.0361241647082124,0.000000,0.000000,0.000000,0.000000,0.000000,318.514006,24.527355,-1.000000,0.988967,0.006501,0.343214,0.000000,0.000000,0.000000,0.000000,0.000000,0.000000,0.000000,
2161,2578,-2.11265405231098,-1.45630091822006,-0.0223850174699578,0.000000,0.000000,0.000000,0.000000,0.000000,321.799457,24.298592,-1.000000,0.986808,0.006909,0.403809,0.000000,0.000000,0.000000,0.000000,0.000000,0.000000,0.000000,
2161,2608,-2.11730076269534,-0.802339595668847,-0.01729699921475,0.000000,0.000000,0.000000,0.000000,0.000000,321.355847,24.374259,-1.000000,0.991406,0.006149,0.349435,0.000000,0.000000,0.000000,0.000000,0.000000,0.000000,0.000000,
2371,2608,2.45315289495271,-0.796378839547103,-0.0175644778963715,0.000000,0.000000,0.000000,0.000000,0.000000,321.019284,24.109252,-1.000000,0.987494,0.006912,0.401601,0.000000,0.000000,0.000000,0.000000,0.000000,0.000000,0.000000,
2371,2638,2.44690296965013,-0.14106604003409,-0.024110865010698,0.000000,0.000000,0.000000,0.000000,0.000000,320.476589,24.234701,-1.000000,0.988079,0.006770,0.359672,0.000000,0.000000,0.000000,0.000000,0.000000,0.000000,0.000000,
2311,2548,1.15740905948802,-2.10694904961247,-0.0187673550061618,0.000000,0.000000,0.000000,0.000000,0.000000,321.991249,24.036521,-1.000000,0.986186,0.007375,0.403922,0.000000,0.000000,0.000000,0.000000,0.000000,0.000000,0.000000,
2161,2548,-2.10778462922338,-2.11017349350762,-0.0240284978634691,0.000000,0.000000,0.000000,0.000000,0.000000,322.271341,24.279036,-1.000000,0.987556,0.006768,0.401700,0.000000,0.000000,0.000000,0.000000,0.000000,0.000000,0.000000,
2236,2533,-0.472381711785015,-2.43601088051904,-0.0113243947521369,0.000000,0.000000,0.000000,0.000000,0.000000,322.403853,24.205761,-1.000000,0.991477,0.006152,0.332991,0.000000,0.000000,0.000000,0.000000,0.000000,0.000000,0.000000,
2266,2533,0.180485191685957,-2.43639834740713,-0.0148631548638605,0.000000,0.000000,0.000000,0.000000,0.000000,322.318944,24.020986,-1.000000,0.995351,0.005105,0.465160,0.000000,0.000000,0.000000,0.000000,0.000000,0.000000,0.000000,
2146,2653,-2.45155053630795,0.177855795252668,-0.0277029390903181,0.000000,0.000000,0.000000,0.000000,0.000000,320.596447,24.356455,-1.000000,0.991783,0.006033,0.407702,0.000000,0.000000,0.000000,0.000000,0.000000,0.000000,0.000000,
2146,2683,-2.45672140922892,0.831910638225381,-0.0310405932329445,0.000000,0.000000,0.000000,0.000000,0.000000,320.081859,24.416238,-1.000000,0.990805,0.005964,0.364744,0.000000,0.000000,0.000000,0.000000,0.000000,0.000000,0.000000,
2146,2623,-2.44677645524101,-0.47454058751859,-0.0301421443122649,0.000000,0.000000,0.000000,0.000000,0.000000,321.061752,24.418953,-1.000000,0.992030,0.006190,0.328622,0.000000,0.000000,0.000000,0.000000,0.000000,0.000000,0.000000,
2296,2773,0.789359109629167,2.79680870848043,-0.0232526934052544,0.000000,0.000000,0.000000,0.000000,0.000000,318.311214,24.555298,-1.000000,0.989248,0.006593,0.366026,0.000000,0.000000,0.000000,0.000000,0.000000,0.000000,0.000000,
2326,2773,1.44205275793703,2.7990644228237,-0.0217858849711661,0.000000,0.000000,0.000000,0.000000,0.000000,318.300231,24.662086,-1.000000,0.994613,0.005324,0.277038,0.000000,0.000000,0.000000,0.000000,0.000000,0.000000,0.000000,
2206,2533,-1.12528489583444,-2.43695876437915,-0.0106866827539989,0.000000,0.000000,0.000000,0.000000,0.000000,322.482704,24.241756,-1.000000,0.989016,0.006767,0.349293,0.000000,0.000000,0.000000,0.000000,0.000000,0.000000,0.000000,
2146,2593,-2.44146645365568,-1.12947917382144,-0.0245596434625099,0.000000,0.000000,0.000000,0.000000,0.000000,321.594755,24.335746,-1.000000,0.988344,0.006922,0.394686,0.000000,0.000000,0.000000,0.000000,0.000000,0.000000,0.000000,
2176,2773,-1.81998854867953,2.79196175252305,-0.0331180448757777,0.000000,0.000000,0.000000,0.000000,0.000000,318.494010,24.471281,-1.000000,0.990715,0.006315,0.376432,0.000000,0.000000,0.000000,0.000000,0.000000,0.000000,0.000000,
2206,2773,-1.16718506358935,2.79294157679249,-0.0201714224799048,0.000000,0.000000,0.000000,0.000000,0.000000,318.509699,24.554287,-1.000000,0.990435,0.006349,0.311695,0.000000,0.000000,0.000000,0.000000,0.000000,0.000000,0.000000,
2356,2773,2.09463983799568,2.80020133930803,-0.0240760938861513,0.000000,0.000000,0.000000,0.000000,0.000000,318.275924,24.635771,-1.000000,0.990531,0.006012,0.321529,0.000000,0.000000,0.000000,0.000000,0.000000,0.000000,0.000000,
2386,2713,2.75954634569804,1.4935911530954,-0.0191346228615998,0.000000,0.000000,0.000000,0.000000,0.000000,319.307043,24.419764,-1.000000,0.991550,0.005849,0.381851,0.000000,0.000000,0.000000,0.000000,0.000000,0.000000,0.000000,
2386,2743,2.75392724889311,2.14682906487795,-0.0169716905932091,0.000000,0.000000,0.000000,0.000000,0.000000,318.836823,24.492204,-1.000000,0.991545,0.006147,0.396456,0.000000,0.000000,0.000000,0.000000,0.000000,0.000000,0.000000,
2176,2533,-1.77848914795623,-2.43737066333178,-0.0168657039496907,0.000000,0.000000,0.000000,0.000000,0.000000,322.521956,24.265484,-1.000000,0.987911,0.006708,0.377840,0.000000,0.000000,0.000000,0.000000,0.000000,0.000000,0.000000,
2386,2683,2.76422716651187,0.841835039691972,-0.033132113534748,0.000000,0.000000,0.000000,0.000000,0.000000,319.677406,24.403459,-1.000000,0.988119,0.006713,0.311248,0.000000,0.000000,0.000000,0.000000,0.000000,0.000000,0.000000,
2236,2773,-0.515472106490133,2.79397152988665,-0.0255409759818122,0.000000,0.000000,0.000000,0.000000,0.000000,318.390047,24.497825,-1.000000,0.988916,0.006353,0.386712,0.000000,0.000000,0.000000,0.000000,0.000000,0.000000,0.000000,
2266,2773,0.136650191311286,2.79605685441036,-0.0272278396274714,0.000000,0.000000,0.000000,0.000000,0.000000,318.317958,24.566144,-1.000000,0.988182,0.006567,0.336885,0.000000,0.000000,0.000000,0.000000,0.000000,0.000000,0.000000,
2296,2533,0.832187853662923,-2.4341037733812,-0.0361081552877067,0.000000,0.000000,0.000000,0.000000,0.000000,322.102605,23.923309,-1.000000,0.993816,0.005500,0.510889,0.000000,0.000000,0.000000,0.000000,0.000000,0.000000,0.000000,
2146,2713,-2.46191950207913,1.48543585296721,-0.0347288490989399,0.000000,0.000000,0.000000,0.000000,0.000000,319.564259,24.443847,-1.000000,0.991866,0.006066,0.353374,0.000000,0.000000,0.000000,0.000000,0.000000,0.000000,0.000000,
2146,2743,-2.46599956525542,2.13670830081782,-0.0215377197384896,0.000000,0.000000,0.000000,0.000000,0.000000,319.188053,24.418107,-1.000000,0.990658,0.006417,0.394858,0.000000,0.000000,0.000000,0.000000,0.000000,0.000000,0.000000,
2386,2653,2.77091521012943,0.185915822470427,-0.0218168010499085,0.000000,0.000000,0.000000,0.000000,0.000000,320.260834,24.231344,-1.000000,0.986113,0.007330,0.395677,0.000000,0.000000,0.000000,0.000000,0.000000,0.000000,0.000000,
2386,2563,2.78867636567685,-1.77698252418828,-0.0167321916480887,0.000000,0.000000,0.000000,0.000000,0.000000,321.765677,24.038199,-1.000000,0.989709,0.006651,0.325112,0.000000,0.000000,0.000000,0.000000,0.000000,0.000000,0.000000,
2386,2593,2.78276162890472,-1.12260213267098,-0.018373447603949,0.000000,0.000000,0.000000,0.000000,0.000000,321.264813,24.091193,-1.000000,0.988060,0.007206,0.359998,0.000000,0.000000,0.000000,0.000000,0.000000,0.000000,0.000000,
2386,2623,2.77662668673196,-0.46836402908859,-0.0228140133252737,0.000000,0.000000,0.000000,0.000000,0.000000,320.740331,24.126604,-1.000000,0.987946,0.006771,0.412763,0.000000,0.000000,0.000000,0.000000,0.000000,0.000000,0.000000,
2146,2533,-2.43137997146291,-2.43770416684264,-0.0210328957088564,0.000000,0.000000,0.000000,0.000000,0.000000,322.595278,24.313847,-1.000000,0.988384,0.006658,0.381610,0.000000,0.000000,0.000000,0.000000,0.000000,0.000000,0.000000,
2146,2563,-2.43578519438561,-1.78442226279829,-0.0132452143906789,0.000000,0.000000,0.000000,0.000000,0.000000,322.175058,24.322908,-1.000000,0.986435,0.007040,0.389909,0.000000,0.000000,0.000000,0.000000,0.000000,0.000000,0.000000,
2146,2773,-2.47125687302492,2.79047465888858,-0.0258987363193341,0.000000,0.000000,0.000000,0.000000,0.000000,318.664039,24.498343,-1.000000,0.993934,0.005172,0.330508,0.000000,0.000000,0.000000,0.000000,0.000000,0.000000,0.000000,
2386,2773,2.74743270061995,2.80089504483642,-0.0258964831633648,0.000000,0.000000,0.000000,0.000000,0.000000,318.273250,24.571445,-1.000000,0.988806,0.006587,0.404078,0.000000,0.000000,0.000000,0.000000,0.000000,0.000000,0.000000,
2356,2533,2.14104667807807,-2.43409097497165,-0.012015617700456,0.000000,0.000000,0.000000,0.000000,0.000000,322.279088,23.901771,-1.000000,0.986856,0.007375,0.425942,0.000000,0.000000,0.000000,0.000000,0.000000,0.000000,0.000000,
2386,2533,2.79437318933998,-2.43222501534204,-0.0179285664391955,0.000000,0.000000,0.000000,0.000000,0.000000,322.242995,23.900277,-1.000000,0.989498,0.006929,0.374525,0.000000,0.000000,0.000000,0.000000,0.000000,0.000000,0.000000,
2326,2533,1.48687273095888,-2.43362390530396,-0.019226850266989,0.000000,0.000000,0.000000,0.000000,0.000000,322.222110,23.999390,-1.000000,0.986867,0.007056,0.381386,0.000000,0.000000,0.000000,0.000000,0.000000,0.000000,0.000000,
2251,2518,-0.143508347218006,-2.7627464311438,-0.0156852859578862,0.000000,0.000000,0.000000,0.000000,0.000000,322.580245,24.134776,-1.000000,0.986720,0.007247,0.353344,0.000000,0.000000,0.000000,0.000000,0.000000,0.000000,0.000000,
2281,2518,0.509718322505393,-2.76274862680815,-0.0160126249185737,0.000000,0.000000,0.000000,0.000000,0.000000,322.530645,24.013244,-1.000000,0.992468,0.006217,0.418066,0.000000,0.000000,0.000000,0.000000,0.000000,0.000000,0.000000,
2311,2788,1.11385351701222,3.12217989755279,-0.0101139229017235,0.000000,0.000000,0.000000,0.000000,0.000000,318.164047,24.529143,-1.000000,0.994510,0.005314,0.432974,0.000000,0.000000,0.000000,0.000000,0.000000,0.000000,0.000000,
2341,2788,1.7660421268088,3.12500715922351,-0.015981648598995,0.000000,0.000000,0.000000,0.000000,0.000000,318.100226,24.631491,-1.000000,0.993435,0.005497,0.353478,0.000000,0.000000,0.000000,0.000000,0.000000,0.000000,0.000000,
2131,2758,-2.79467929741248,2.46352298623266,-0.0268360965845886,0.000000,0.000000,0.000000,0.000000,0.000000,318.961165,24.478498,-1.000000,0.991731,0.005882,0.335331,0.000000,0.000000,0.000000,0.000000,0.000000,0.000000,0.000000,
2131,2788,-2.79929614858753,3.11536478291519,-0.0222990501450795,0.000000,0.000000,0.000000,0.000000,0.000000,318.512156,24.460326,-1.000000,0.993281,0.005299,0.364788,0.000000,0.000000,0.000000,0.000000,0.000000,0.000000,0.000000,
2161,2788,-2.1479540136747,3.11712609263625,-0.0265993348230609,0.000000,0.000000,0.000000,0.000000,0.000000,318.357586,24.482607,-1.000000,0.990791,0.006363,0.365789,0.000000,0.000000,0.000000,0.000000,0.000000,0.000000,0.000000,
2311,2518,1.16343843051536,-2.76200373964001,-0.0118987027828439,0.000000,0.000000,0.000000,0.000000,0.000000,322.535066,23.999659,-1.000000,0.987749,0.006817,0.374205,0.000000,0.000000,0.000000,0.000000,0.000000,0.000000,0.000000,
2131,2608,-2.76982583197766,-0.803166895943683,-0.0212814596414432,0.000000,0.000000,0.000000,0.000000,0.000000,321.440004,24.377262,-1.000000,0.989317,0.006878,0.376404,0.000000,0.000000,0.000000,0.000000,0.000000,0.000000,0.000000,
2131,2638,-2.77357472084386,-0.151108394349301,-0.00397681377643266,0.000000,0.000000,0.000000,0.000000,0.000000,321.098833,24.398288,-1.000000,0.992899,0.005702,0.367601,0.000000,0.000000,0.000000,0.000000,0.000000,0.000000,0.000000,
2131,2698,-2.78468228264812,1.15711147104698,-0.0240711632501984,0.000000,0.000000,0.000000,0.000000,0.000000,319.958146,24.410995,-1.000000,0.990631,0.006136,0.379541,0.000000,0.000000,0.000000,0.000000,0.000000,0.000000,0.000000,
2131,2728,-2.78954849051665,1.80931123444137,-0.023553265261512,0.000000,0.000000,0.000000,0.000000,0.000000,319.476168,24.358480,-1.000000,0.989147,0.006629,0.443764,0.000000,0.000000,0.000000,0.000000,0.000000,0.000000,0.000000,
2131,2668,-2.77765527274141,0.499625064403403,0.00824974615136398,0.000000,0.000000,0.000000,0.000000,0.000000,320.715791,24.269313,-1.000000,0.992144,0.005928,0.508483,0.000000,0.000000,0.000000,0.000000,0.000000,0.000000,0.000000,
2401,2698,3.08795011828262,1.16874166771571,-0.0336433131207059,0.000000,0.000000,0.000000,0.000000,0.000000,319.442233,24.384802,-1.000000,0.989761,0.006521,0.371544,0.000000,0.000000,0.000000,0.000000,0.000000,0.000000,0.000000,
2401,2728,3.08237553398987,1.82232502831516,-0.030266696756712,0.000000,0.000000,0.000000,0.000000,0.000000,318.982032,24.492246,-1.000000,0.990232,0.006586,0.355366,0.000000,0.000000,0.000000,0.000000,0.000000,0.000000,0.000000,
2401,2758,3.07662229960899,2.47519253635263,-0.0291848786414448,0.000000,0.000000,0.000000,0.000000,0.000000,318.502714,24.532938,-1.000000,0.988590,0.006805,0.406135,0.000000,0.000000,0.000000,0.000000,0.000000,0.000000,0.000000,
2221,2518,-0.796391513502183,-2.76439039171544,-0.0129694533125075,0.000000,0.000000,0.000000,0.000000,0.000000,322.667980,24.126510,-1.000000,0.986886,0.007037,0.418508,0.000000,0.000000,0.000000,0.000000,0.000000,0.000000,0.000000,
2191,2788,-1.49647893264536,3.11870619002628,-0.0311201844990023,0.000000,0.000000,0.000000,0.000000,0.000000,318.218592,24.485582,-1.000000,0.987708,0.006898,0.385710,0.000000,0.000000,0.000000,0.000000,0.000000,0.000000,0.000000,
2371,2788,2.41852966293565,3.12794139362089,-0.0199706022761461,0.000000,0.000000,0.000000,0.000000,0.000000,318.069492,24.757305,-1.000000,0.994557,0.005554,0.250002,0.000000,0.000000,0.000000,0.000000,0.000000,0.000000,0.000000,
2221,2788,-0.843329776850556,3.11869097870314,-0.0139190794232036,0.000000,0.000000,0.000000,0.000000,0.000000,318.278911,24.509313,-1.000000,0.991295,0.006125,0.384681,0.000000,0.000000,0.000000,0.000000,0.000000,0.000000,0.000000,
2401,2548,3.11874648093101,-2.10501978625217,-0.0137566393844395,0.000000,0.000000,0.000000,0.000000,0.000000,322.047982,23.900523,-1.000000,0.989536,0.007125,0.393843,0.000000,0.000000,0.000000,0.000000,0.000000,0.000000,0.000000,
2401,2578,3.11235296209103,-1.44909593615938,-0.02063303168012,0.000000,0.000000,0.000000,0.000000,0.000000,321.502758,24.039732,-1.000000,0.986609,0.007346,0.347727,0.000000,0.000000,0.000000,0.000000,0.000000,0.000000,0.000000,
2371,2518,2.47079134179287,-2.76106417783099,-0.0119859869445804,0.000000,0.000000,0.000000,0.000000,0.000000,322.527361,23.845756,-1.000000,0.986882,0.007506,0.413294,0.000000,0.000000,0.000000,0.000000,0.000000,0.000000,0.000000,
2401,2518,3.12455567768884,-2.76056946319621,-0.0142213860346487,0.000000,0.000000,0.000000,0.000000,0.000000,322.531465,23.750616,-1.000000,0.988698,0.007026,0.450896,0.000000,0.000000,0.000000,0.000000,0.000000,0.000000,0.000000,
2281,2788,0.460703150117578,3.12252544926894,-0.019281603736431,0.000000,0.000000,0.000000,0.000000,0.000000,318.118217,24.600904,-1.000000,0.987885,0.006724,0.338924,0.000000,0.000000,0.000000,0.000000,0.000000,0.000000,0.000000,
2191,2518,-1.44903563353431,-2.76567162157708,-0.00900933622637012,0.000000,0.000000,0.000000,0.000000,0.000000,322.783246,24.162202,-1.000000,0.988174,0.007177,0.439399,0.000000,0.000000,0.000000,0.000000,0.000000,0.000000,0.000000,
2251,2788,-0.191715695204827,3.12091127220202,-0.0211071700692855,0.000000,0.000000,0.000000,0.000000,0.000000,318.152114,24.548512,-1.000000,0.989682,0.006396,0.368491,0.000000,0.000000,0.000000,0.000000,0.000000,0.000000,0.000000,
2401,2788,3.07097608328361,3.12907383678339,-0.026653407339893,0.000000,0.000000,0.000000,0.000000,0.000000,318.034653,24.695664,-1.000000,0.988281,0.007000,0.334428,0.000000,0.000000,0.000000,0.000000,0.000000,0.000000,0.000000,
2131,2518,-2.75488228692932,-2.76579689781027,-0.0163514073464626,0.000000,0.000000,0.000000,0.000000,0.000000,322.937666,24.318013,-1.000000,0.986630,0.007225,0.396645,0.000000,0.000000,0.000000,0.000000,0.000000,0.000000,0.000000,
2131,2548,-2.75968924806677,-2.1116784221086,-0.0154405755798734,0.000000,0.000000,0.000000,0.000000,0.000000,322.460088,24.332544,-1.000000,0.983915,0.007610,0.395375,0.000000,0.000000,0.000000,0.000000,0.000000,0.000000,0.000000,
2161,2518,-2.10339178900875,-2.7633752540286,-0.032656866399293,0.000000,0.000000,0.000000,0.000000,0.000000,322.684455,24.276650,-1.000000,0.986584,0.007302,0.382209,0.000000,0.000000,0.000000,0.000000,0.000000,0.000000,0.000000,
2131,2578,-2.76574019040546,-1.45489584161882,-0.0332781834368916,0.000000,0.000000,0.000000,0.000000,0.000000,321.824866,24.446502,-1.000000,0.992006,0.006317,0.294884,0.000000,0.000000,0.000000,0.000000,0.000000,0.000000,0.000000,
2356,2803,2.08973978967608,3.45196755494221,-0.0139039851437701,0.000000,0.000000,0.000000,0.000000,0.000000,317.872817,24.669584,-1.000000,0.994784,0.005445,0.365218,0.000000,0.000000,0.000000,0.000000,0.000000,0.000000,0.000000,
2386,2803,2.74100930619219,3.4548118991642,-0.0339020639411842,0.000000,0.000000,0.000000,0.000000,0.000000,317.717057,24.664402,-1.000000,0.995130,0.005573,0.397615,0.000000,0.000000,0.000000,0.000000,0.000000,0.000000,0.000000,
2296,2803,0.783466386150682,3.45061883870746,-0.0287436255838998,0.000000,0.000000,0.000000,0.000000,0.000000,317.776578,24.654862,-1.000000,0.989804,0.006264,0.326207,0.000000,0.000000,0.000000,0.000000,0.000000,0.000000,0.000000,
2326,2803,1.43634294999913,3.45112302225055,-0.0235004440465332,0.000000,0.000000,0.000000,0.000000,0.000000,317.797859,24.630368,-1.000000,0.993444,0.005474,0.377683,0.000000,0.000000,0.000000,0.000000,0.000000,0.000000,0.000000,
2116,2773,-3.12253983496369,2.7882925867089,-0.021083188477121,0.000000,0.000000,0.000000,0.000000,0.000000,318.831689,24.441899,-1.000000,0.992660,0.005638,0.368241,0.000000,0.000000,0.000000,0.000000,0.000000,0.000000,0.000000,
2116,2803,-3.12698383478745,3.44032766271677,-0.0145310100716642,0.000000,0.000000,0.000000,0.000000,0.000000,318.399286,24.464027,-1.000000,0.992820,0.005483,0.352613,0.000000,0.000000,0.000000,0.000000,0.000000,0.000000,0.000000,
2146,2803,-2.47593237051641,3.44169471756389,-0.0215180757487019,0.000000,0.000000,0.000000,0.000000,0.000000,318.213802,24.430878,-1.000000,0.993084,0.005508,0.413684,0.000000,0.000000,0.000000,0.000000,0.000000,0.000000,0.000000,
2116,2623,-3.09898888433528,-0.475883225842821,-0.0317320297053243,0.000000,0.000000,0.000000,0.000000,0.000000,321.174868,24.394456,-1.000000,0.985009,0.007750,0.378502,0.000000,0.000000,0.000000,0.000000,0.000000,0.000000,0.000000,
2116,2653,-3.10399929135809,0.178332771938223,-0.0343882534328372,0.000000,0.000000,0.000000,0.000000,0.000000,320.666384,24.455160,-1.000000,0.990141,0.006230,0.325868,0.000000,0.000000,0.000000,0.000000,0.000000,0.000000,0.000000,
2266,2503,0.185663833937877,-3.08946796770554,-0.0171176380048905,0.000000,0.000000,0.000000,0.000000,0.000000,322.785347,24.095234,-1.000000,0.992015,0.006394,0.337733,0.000000,0.000000,0.000000,0.000000,0.000000,0.000000,0.000000,
2296,2503,0.838451267961769,-3.0878625139778,-0.0251082865006538,0.000000,0.000000,0.000000,0.000000,0.000000,322.679907,24.050772,-1.000000,0.992821,0.005943,0.321165,0.000000,0.000000,0.000000,0.000000,0.000000,0.000000,0.000000,
2116,2683,-3.1088356926944,0.830370582748053,-0.034396852242935,0.000000,0.000000,0.000000,0.000000,0.000000,320.180685,24.357134,-1.000000,0.992613,0.005495,0.431610,0.000000,0.000000,0.000000,0.000000,0.000000,0.000000,0.000000,
2116,2563,-3.08897390761451,-1.78372035719946,-0.0261133176194903,0.000000,0.000000,0.000000,0.000000,0.000000,322.192992,24.388559,-1.000000,0.987962,0.007072,0.367743,0.000000,0.000000,0.000000,0.000000,0.000000,0.000000,0.000000,
2116,2593,-3.0931969610961,-1.13144300747901,-0.0169406018425775,0.000000,0.000000,0.000000,0.000000,0.000000,321.784606,24.334965,-1.000000,0.991150,0.006371,0.429452,0.000000,0.000000,0.000000,0.000000,0.000000,0.000000,0.000000,
2116,2743,-3.11864665639456,2.13760538325474,-0.0359671849343499,0.000000,0.000000,0.000000,0.000000,0.000000,319.193702,24.493093,-1.000000,0.990534,0.006225,0.310201,0.000000,0.000000,0.000000,0.000000,0.000000,0.000000,0.000000,
2206,2803,-1.17279786433082,3.44539252514865,-0.0265179050382471,0.000000,0.000000,0.000000,0.000000,0.000000,317.969114,24.518984,-1.000000,0.986176,0.007103,0.380457,0.000000,0.000000,0.000000,0.000000,0.000000,0.000000,0.000000,
2236,2803,-0.520816068693545,3.44673165091223,-0.0264753946056544,0.000000,0.000000,0.000000,0.000000,0.000000,317.894277,24.534253,-1.000000,0.989590,0.006617,0.392525,0.000000,0.000000,0.000000,0.000000,0.000000,0.000000,0.000000,
2176,2803,-1.82407712307527,3.44320799584493,-0.0186412494276738,0.000000,0.000000,0.000000,0.000000,0.000000,318.127782,24.485858,-1.000000,0.990277,0.006608,0.385931,0.000000,0.000000,0.000000,0.000000,0.000000,0.000000,0.000000,
2116,2713,-3.11310236528434,1.48354843490782,-0.0253600877158533,0.000000,0.000000,0.000000,0.000000,0.000000,319.769368,24.455085,-1.000000,0.990056,0.006289,0.340845,0.000000,0.000000,0.000000,0.000000,0.000000,0.000000,0.000000,
2416,2713,3.41297904192067,1.49447258041929,-0.0177812389331962,0.000000,0.000000,0.000000,0.000000,0.000000,319.348601,24.395519,-1.000000,0.990946,0.006347,0.406242,0.000000,0.000000,0.000000,0.000000,0.000000,0.000000,0.000000,
2416,2743,3.40653963680137,2.14925932282397,-0.0245088502837234,0.000000,0.000000,0.000000,0.000000,0.000000,318.803186,24.540052,-1.000000,0.990234,0.006304,0.357607,0.000000,0.000000,0.000000,0.000000,0.000000,0.000000,0.000000,
2416,2683,3.41872349772011,0.841277589587207,-0.0196116048019235,0.000000,0.000000,0.000000,0.000000,0.000000,319.821390,24.346800,-1.000000,0.986519,0.007589,0.358868,0.000000,0.000000,0.000000,0.000000,0.000000,0.000000,0.000000,
2266,2803,0.13132720744845,3.44887027796037,-0.0264334712027789,0.000000,0.000000,0.000000,0.000000,0.000000,317.836433,24.621993,-1.000000,0.988465,0.007042,0.331944,0.000000,0.000000,0.000000,0.000000,0.000000,0.000000,0.000000,
2416,2533,3.44845701893049,-2.43129188390124,-0.0164073668966012,0.000000,0.000000,0.000000,0.000000,0.000000,322.286839,23.879181,-1.000000,0.988408,0.007031,0.342249,0.000000,0.000000,0.000000,0.000000,0.000000,0.000000,0.000000,
2416,2563,3.44219605950769,-1.77643730150378,-0.020988885717145,0.000000,0.000000,0.000000,0.000000,0.000000,321.761393,23.931182,-1.000000,0.984450,0.007422,0.387769,0.000000,0.000000,0.000000,0.000000,0.000000,0.000000,0.000000,
2386,2503,2.80083259800903,-3.08750517067185,-0.00935789548429966,0.000000,0.000000,0.000000,0.000000,0.000000,322.801372,23.866438,-1.000000,0.990459,0.006474,0.319387,0.000000,0.000000,0.000000,0.000000,0.000000,0.000000,0.000000,
2416,2503,3.45392352561558,-3.0864137057039,-0.0217900064969854,0.000000,0.000000,0.000000,0.000000,0.000000,322.729026,23.732729,-1.000000,0.990309,0.006546,0.391127,0.000000,0.000000,0.000000,0.000000,0.000000,0.000000,0.000000,
2416,2773,3.40102913374207,2.80155885392114,-0.0197871152677749,0.000000,0.000000,0.000000,0.000000,0.000000,318.354342,24.565427,-1.000000,0.988794,0.006779,0.427733,0.000000,0.000000,0.000000,0.000000,0.000000,0.000000,0.000000,
2416,2803,3.39480740185325,3.45580640507731,-0.0238041772909128,0.000000,0.000000,0.000000,0.000000,0.000000,317.831154,24.719284,-1.000000,0.987931,0.007114,0.369489,0.000000,0.000000,0.000000,0.000000,0.000000,0.000000,0.000000,
2176,2503,-1.77343681138705,-3.09165828078469,-0.0164661102122068,0.000000,0.000000,0.000000,0.000000,0.000000,323.010591,24.254956,-1.000000,0.983603,0.008149,0.361713,0.000000,0.000000,0.000000,0.000000,0.000000,0.000000,0.000000,
2206,2503,-1.12045700284531,-3.09153437985659,-0.0151397126909387,0.000000,0.000000,0.000000,0.000000,0.000000,322.931281,24.160650,-1.000000,0.988276,0.007067,0.394944,0.000000,0.000000,0.000000,0.000000,0.000000,0.000000,0.000000,
2401,2668,3.09483110935053,0.514001488044528,-0.0205767201838967,0.000000,0.000000,0.000000,0.000000,0.000000,320.039937,24.325069,-1.000000,0.988405,0.006973,0.339100,0.000000,0.000000,0.000000,0.000000,0.000000,0.000000,0.000000,
2371,2818,2.41252173624483,3.77923953076595,-0.0235403450528793,0.000000,0.000000,0.000000,0.000000,0.000000,317.551620,24.651459,-1.000000,0.995024,0.005626,0.438013,0.000000,0.000000,0.000000,0.000000,0.000000,0.000000,0.000000,
2401,2818,3.06563221778339,3.78147565000698,-0.0203931215693842,0.000000,0.000000,0.000000,0.000000,0.000000,317.598187,24.767778,-1.000000,0.989613,0.006805,0.352982,0.000000,0.000000,0.000000,0.000000,0.000000,0.000000,0.000000,
2341,2818,1.75991758815696,3.77836251897129,-0.0223471076010924,0.000000,0.000000,0.000000,0.000000,0.000000,317.558117,24.692127,-1.000000,0.989389,0.006224,0.365970,0.000000,0.000000,0.000000,0.000000,0.000000,0.000000,0.000000,
2311,2818,1.10748267838968,3.77712520875826,-0.0211731441978031,0.000000,0.000000,0.000000,0.000000,0.000000,317.582115,24.698495,-1.000000,0.990624,0.006201,0.327973,0.000000,0.000000,0.000000,0.000000,0.000000,0.000000,0.000000,
2131,2818,-2.80378920621252,3.76688018420204,-0.0157742140504524,0.000000,0.000000,0.000000,0.000000,0.000000,318.079549,24.443662,-1.000000,0.991234,0.006040,0.392488,0.000000,0.000000,0.000000,0.000000,0.000000,0.000000,0.000000,
2161,2818,-2.15239638196664,3.76985100615197,-0.017867394623579,0.000000,0.000000,0.000000,0.000000,0.000000,317.942635,24.595606,-1.000000,0.993670,0.005417,0.272492,0.000000,0.000000,0.000000,0.000000,0.000000,0.000000,0.000000,
2281,2488,0.514764911467463,-3.41821761593522,-0.0209938917828936,0.000000,0.000000,0.000000,0.000000,0.000000,322.975525,23.851622,-1.000000,0.991141,0.006552,0.522143,0.000000,0.000000,0.000000,0.000000,0.000000,0.000000,0.000000,
2311,2488,1.16965059338018,-3.41777986569394,-0.00259175108470799,0.000000,0.000000,0.000000,0.000000,0.000000,323.099180,23.940191,-1.000000,0.987524,0.006959,0.366726,0.000000,0.000000,0.000000,0.000000,0.000000,0.000000,0.000000,
2101,2788,-3.45081048298526,3.11386045709396,-0.0229632180501085,0.000000,0.000000,0.000000,0.000000,0.000000,318.642544,24.422245,-1.000000,0.991889,0.005939,0.379717,0.000000,0.000000,0.000000,0.000000,0.000000,0.000000,0.000000,
2101,2818,-3.45571657099824,3.7663866146528,-0.0242900921867317,0.000000,0.000000,0.000000,0.000000,0.000000,318.144143,24.437541,-1.000000,0.992639,0.005512,0.366544,0.000000,0.000000,0.000000,0.000000,0.000000,0.000000,0.000000,
2101,2758,-3.44577278055944,2.46108317670277,-0.0194650622227073,0.000000,0.000000,0.000000,0.000000,0.000000,319.158799,24.419050,-1.000000,0.990207,0.006169,0.380149,0.000000,0.000000,0.000000,0.000000,0.000000,0.000000,0.000000,
2101,2668,-3.4319656930867,0.503235705465826,-0.0287021189217853,0.000000,0.000000,0.000000,0.000000,0.000000,320.540946,24.403655,-1.000000,0.991146,0.005995,0.387010,0.000000,0.000000,0.000000,0.000000,0.000000,0.000000,0.000000,
2101,2698,-3.43648175259483,1.15640906908691,-0.0243501139706837,0.000000,0.000000,0.000000,0.000000,0.000000,320.090882,24.453060,-1.000000,0.990852,0.005959,0.340674,0.000000,0.000000,0.000000,0.000000,0.000000,0.000000,0.000000,
2251,2488,-0.137690139680657,-3.41906165399643,-0.00850659083636174,0.000000,0.000000,0.000000,0.000000,0.000000,323.126572,24.007764,-1.000000,0.990079,0.006463,0.431316,0.000000,0.000000,0.000000,0.000000,0.000000,0.000000,0.000000,
2101,2578,-3.41709723121184,-1.45838044603771,-0.0204522656732706,0.000000,0.000000,0.000000,0.000000,0.000000,322.067370,24.352633,-1.000000,0.988880,0.006628,0.426940,0.000000,0.000000,0.000000,0.000000,0.000000,0.000000,0.000000,
2101,2608,-3.42154984245208,-0.804782359382756,-0.0154360993395812,0.000000,0.000000,0.000000,0.000000,0.000000,321.623652,24.391729,-1.000000,0.986144,0.007309,0.391715,0.000000,0.000000,0.000000,0.000000,0.000000,0.000000,0.000000,
2431,2698,3.74199337437831,1.17033498647265,-0.0261363525638671,0.000000,0.000000,0.000000,0.000000,0.000000,319.543610,24.475584,-1.000000,0.992378,0.006060,0.276069,0.000000,0.000000,0.000000,0.000000,0.000000,0.000000,0.000000,
2431,2728,3.73648584602914,1.82164355351433,-0.0208849052631876,0.000000,0.000000,0.000000,0.000000,0.000000,319.100120,24.388680,-1.000000,0.992473,0.005883,0.463152,0.000000,0.000000,0.000000,0.000000,0.000000,0.000000,0.000000,
2101,2728,-3.44176308913892,1.80958513599348,-0.031892446610982,0.000000,0.000000,0.000000,0.000000,0.000000,319.541455,24.424288,-1.000000,0.989847,0.006306,0.372467,0.000000,0.000000,0.000000,0.000000,0.000000,0.000000,0.000000,
2371,2488,2.47701872283418,-3.41660855140937,-0.00563704174805935,0.000000,0.000000,0.000000,0.000000,0.000000,323.067086,23.778876,-1.000000,0.987629,0.007102,0.395581,0.000000,0.000000,0.000000,0.000000,0.000000,0.000000,0.000000,
2401,2488,3.13109848578696,-3.41542750351219,-0.00531371547708659,0.000000,0.000000,0.000000,0.000000,0.000000,323.092327,23.769021,-1.000000,0.988833,0.006877,0.338827,0.000000,0.000000,0.000000,0.000000,0.000000,0.000000,0.000000,
2431,2488,3.78484194074193,-3.41484592896532,-0.0114296534435994,0.000000,0.000000,0.000000,0.000000,0.000000,323.081738,23.644898,-1.000000,0.983406,0.007805,0.396353,0.000000,0.000000,0.000000,0.000000,0.000000,0.000000,0.000000,
2431,2518,3.77975586938135,-2.76109265824858,-0.000838738311301768,0.000000,0.000000,0.000000,0.000000,0.000000,322.683795,23.702316,-1.000000,0.985092,0.007486,0.441108,0.000000,0.000000,0.000000,0.000000,0.000000,0.000000,0.000000,
2191,2818,-1.50109185123332,3.77065980573217,-0.0236424073245303,0.000000,0.000000,0.000000,0.000000,0.000000,317.793429,24.519976,-1.000000,0.985640,0.007082,0.380103,0.000000,0.000000,0.000000,0.000000,0.000000,0.000000,0.000000,
2431,2758,3.73040542548653,2.47636505494269,-0.0224513716985371,0.000000,0.000000,0.000000,0.000000,0.000000,318.597588,24.578228,-1.000000,0.989532,0.006453,0.373894,0.000000,0.000000,0.000000,0.000000,0.000000,0.000000,0.000000,
2101,2638,-3.4274555846068,-0.149587064902079,-0.0329978803421227,0.000000,0.000000,0.000000,0.000000,0.000000,320.990968,24.403997,-1.000000,0.987273,0.006838,0.383553,0.000000,0.000000,0.000000,0.000000,0.000000,0.000000,0.000000,
2281,2818,0.455557011543117,3.77491514737807,-0.0153725967034006,0.000000,0.000000,0.000000,0.000000,0.000000,317.662677,24.649634,-1.000000,0.989557,0.006249,0.345176,0.000000,0.000000,0.000000,0.000000,0.000000,0.000000,0.000000,
2221,2818,-0.848735097748847,3.77209782813697,-0.0163906617104317,0.000000,0.000000,0.000000,0.000000,0.000000,317.769921,24.600192,-1.000000,0.991064,0.006189,0.331442,0.000000,0.000000,0.000000,0.000000,0.000000,0.000000,0.000000,
2251,2818,-0.19669995838245,3.772965178297,-0.0162959583181532,0.000000,0.000000,0.000000,0.000000,0.000000,317.704407,24.572527,-1.000000,0.990483,0.006678,0.390812,0.000000,0.000000,0.000000,0.000000,0.000000,0.000000,0.000000,
2431,2788,3.72457122939435,3.13022261702113,-0.0210247831134325,0.000000,0.000000,0.000000,0.000000,0.000000,318.120177,24.729966,-1.000000,0.990203,0.006428,0.322165,0.000000,0.000000,0.000000,0.000000,0.000000,0.000000,0.000000,
2431,2548,3.77398250927881,-2.10487329487447,0.0014654539832577,0.000000,0.000000,0.000000,0.000000,0.000000,322.215170,23.928741,-1.000000,0.990011,0.006616,0.316437,0.000000,0.000000,0.000000,0.000000,0.000000,0.000000,0.000000,
2416,2653,3.42428989494365,0.187674104343465,-0.0236883295603434,0.000000,0.000000,0.000000,0.000000,0.000000,320.275316,24.259557,-1.000000,0.988864,0.006861,0.349994,0.000000,0.000000,0.000000,0.000000,0.000000,0.000000,0.000000,
2356,2833,2.08371651785746,4.10531471224725,-0.0182070449080243,0.000000,0.000000,0.000000,0.000000,0.000000,317.347689,24.754381,-1.000000,0.990957,0.006434,0.358156,0.000000,0.000000,0.000000,0.000000,0.000000,0.000000,0.000000,
2386,2833,2.73546910408869,4.10815920834509,-0.0306566312568179,0.000000,0.000000,0.000000,0.000000,0.000000,317.254805,24.809749,-1.000000,0.988191,0.006989,0.338678,0.000000,0.000000,0.000000,0.000000,0.000000,0.000000,0.000000,
2146,2833,-2.48014084755562,4.09349376578882,-0.00991888073826885,0.000000,0.000000,0.000000,0.000000,0.000000,317.823124,24.487275,-1.000000,0.993479,0.005303,0.372211,0.000000,0.000000,0.000000,0.000000,0.000000,0.000000,0.000000,
2176,2833,-1.83052016618362,4.09733665273423,-0.038724870670535,0.000000,0.000000,0.000000,0.000000,0.000000,317.471601,24.518313,-1.000000,0.994173,0.005308,0.378000,0.000000,0.000000,0.000000,0.000000,0.000000,0.000000,0.000000,
2086,2803,-3.77864577710445,3.43931538841468,-0.0193804396624842,0.000000,0.000000,0.000000,0.000000,0.000000,318.503274,24.437936,-1.000000,0.991134,0.005922,0.351322,0.000000,0.000000,0.000000,0.000000,0.000000,0.000000,0.000000,
2086,2833,-3.78323072257922,4.09143885570096,-0.0163905662689672,0.000000,0.000000,0.000000,0.000000,0.000000,318.040951,24.456484,-1.000000,0.995003,0.004885,0.330264,0.000000,0.000000,0.000000,0.000000,0.000000,0.000000,0.000000,
2116,2833,-3.13250184582407,4.09374435287414,-0.024428390251785,0.000000,0.000000,0.000000,0.000000,0.000000,317.828777,24.504848,-1.000000,0.993092,0.005667,0.318608,0.000000,0.000000,0.000000,0.000000,0.000000,0.000000,0.000000,
2446,2713,4.06494734192177,1.49785013437624,-0.0364442994236356,0.000000,0.000000,0.000000,0.000000,0.000000,319.239223,24.437665,-1.000000,0.992201,0.006074,0.364414,0.000000,0.000000,0.000000,0.000000,0.000000,0.000000,0.000000,
2446,2743,4.06013680292699,2.15008394598503,-0.0219649764792393,0.000000,0.000000,0.000000,0.000000,0.000000,318.872094,24.519701,-1.000000,0.991225,0.006086,0.386761,0.000000,0.000000,0.000000,0.000000,0.000000,0.000000,0.000000,
2446,2683,4.07210675556437,0.842925622827039,-0.0222813080088713,0.000000,0.000000,0.000000,0.000000,0.000000,319.846640,24.358535,-1.000000,0.988320,0.006646,0.338362,0.000000,0.000000,0.000000,0.000000,0.000000,0.000000,0.000000,
2086,2773,-3.77429705029996,2.78763969654945,-0.0259642299291727,0.000000,0.000000,0.000000,0.000000,0.000000,318.935108,24.449128,-1.000000,0.991476,0.006172,0.342190,0.000000,0.000000,0.000000,0.000000,0.000000,0.000000,0.000000,
2086,2653,-3.75511724994278,0.175842878793944,-0.0229914767160722,0.000000,0.000000,0.000000,0.000000,0.000000,320.905599,24.432480,-1.000000,0.990191,0.006168,0.364646,0.000000,0.000000,0.000000,0.000000,0.000000,0.000000,0.000000,
2086,2683,-3.76006898926522,0.82872072247531,-0.0264271828215215,0.000000,0.000000,0.000000,0.000000,0.000000,320.391139,24.380413,-1.000000,0.992518,0.005468,0.415663,0.000000,0.000000,0.000000,0.000000,0.000000,0.000000,0.000000,
2266,2473,0.191475382100219,-3.74543890197405,-0.0107977994681505,0.000000,0.000000,0.000000,0.000000,0.000000,323.324262,24.001364,-1.000000,0.991984,0.006439,0.377993,0.000000,0.000000,0.000000,0.000000,0.000000,0.000000,0.000000,
2296,2473,0.844458667276143,-3.74405512855655,-0.0177601506214842,0.000000,0.000000,0.000000,0.000000,0.000000,323.227694,23.944014,-1.000000,0.983335,0.008024,0.365281,0.000000,0.000000,0.000000,0.000000,0.000000,0.000000,0.000000,
2206,2833,-1.17686137767026,4.09686776650169,-0.0104295083003763,0.000000,0.000000,0.000000,0.000000,0.000000,317.615799,24.582454,-1.000000,0.990263,0.006145,0.349796,0.000000,0.000000,0.000000,0.000000,0.000000,0.000000,0.000000,
2236,2833,-0.525566195526313,4.09936508218657,-0.0189436365276379,0.000000,0.000000,0.000000,0.000000,0.000000,317.468872,24.640718,-1.000000,0.991282,0.005923,0.327741,0.000000,0.000000,0.000000,0.000000,0.000000,0.000000,0.000000,
2086,2713,-3.76482524427777,1.48174781707587,-0.0266130651650087,0.000000,0.000000,0.000000,0.000000,0.000000,319.903285,24.387533,-1.000000,0.990969,0.005952,0.407387,0.000000,0.000000,0.000000,0.000000,0.000000,0.000000,0.000000,
2296,2833,0.778907806900616,4.10226769209454,-0.0162431172631159,0.000000,0.000000,0.000000,0.000000,0.000000,317.392892,24.710574,-1.000000,0.992866,0.005845,0.329866,0.000000,0.000000,0.000000,0.000000,0.000000,0.000000,0.000000,
2326,2833,1.43031556005159,4.10551646765878,-0.0292267441603258,0.000000,0.000000,0.000000,0.000000,0.000000,317.260451,24.801151,-1.000000,0.993470,0.005851,0.275507,0.000000,0.000000,0.000000,0.000000,0.000000,0.000000,0.000000,
2266,2833,0.126032593495903,4.10120089340386,-0.0252194869117943,0.000000,0.000000,0.000000,0.000000,0.000000,317.358319,24.654029,-1.000000,0.989953,0.006264,0.350673,0.000000,0.000000,0.000000,0.000000,0.000000,0.000000,0.000000,
2086,2743,-3.76928712365698,2.13439652112758,-0.0220186953367261,0.000000,0.000000,0.000000,0.000000,0.000000,319.455069,24.416091,-1.000000,0.990233,0.006268,0.376905,0.000000,0.000000,0.000000,0.000000,0.000000,0.000000,0.000000,
2446,2773,4.05333176245052,2.80399061635465,-0.0318407225987016,0.000000,0.000000,0.000000,0.000000,0.000000,318.300305,24.578962,-1.000000,0.988824,0.006902,0.432450,0.000000,0.000000,0.000000,0.000000,0.000000,0.000000,0.000000,
2446,2803,4.04742440336942,3.45813452799732,-0.0306687131081276,0.000000,0.000000,0.000000,0.000000,0.000000,317.820359,24.765544,-1.000000,0.990315,0.006323,0.350092,0.000000,0.000000,0.000000,0.000000,0.000000,0.000000,0.000000,
2236,2473,-0.461424743334785,-3.74710397261088,-0.00475950097296618,0.000000,0.000000,0.000000,0.000000,0.000000,323.430674,24.024052,-1.000000,0.990868,0.006457,0.425473,0.000000,0.000000,0.000000,0.000000,0.000000,0.000000,0.000000,
2236,2503,-0.467765838100732,-3.09039322277063,-0.0201989501097728,0.000000,0.000000,0.000000,0.000000,0.000000,322.815699,24.101139,-1.000000,0.988233,0.006874,0.393523,0.000000,0.000000,0.000000,0.000000,0.000000,0.000000,0.000000,
2446,2533,4.10336121593811,-2.4306924408679,-0.00707378475249243,0.000000,0.000000,0.000000,0.000000,0.000000,322.413535,23.896805,-1.000000,0.987421,0.007129,0.270879,0.000000,0.000000,0.000000,0.000000,0.000000,0.000000,0.000000,
2446,2563,4.09661091209569,-1.77539919767106,-0.0162206528117395,0.000000,0.000000,0.000000,0.000000,0.000000,321.849636,23.948219,-1.000000,0.988501,0.007214,0.325864,0.000000,0.000000,0.000000,0.000000,0.000000,0.000000,0.000000,
2416,2833,3.38901310414952,4.10906038311454,-0.0225327428960895,0.000000,0.000000,0.000000,0.000000,0.000000,317.352331,24.840470,-1.000000,0.987137,0.006743,0.343479,0.000000,0.000000,0.000000,0.000000,0.000000,0.000000,0.000000,
2086,2563,-3.7400155618121,-1.78590998992068,-0.00822623257130317,0.000000,0.000000,0.000000,0.000000,0.000000,322.485415,24.459025,-1.000000,0.988208,0.006761,0.339544,0.000000,0.000000,0.000000,0.000000,0.000000,0.000000,0.000000,
2086,2593,-3.74547656053088,-1.13127273835705,-0.0200120906043253,0.000000,0.000000,0.000000,0.000000,0.000000,321.901749,24.436646,-1.000000,0.988251,0.006716,0.361910,0.000000,0.000000,0.000000,0.000000,0.000000,0.000000,0.000000,
2401,2638,3.10058405738809,-0.14024371970082,-0.0217138718965089,0.000000,0.000000,0.000000,0.000000,0.000000,320.518488,24.212907,-1.000000,0.986938,0.006943,0.359226,0.000000,0.000000,0.000000,0.000000,0.000000,0.000000,0.000000,
2071,2818,-4.10658658412435,3.76424592130957,-0.0188483285656957,0.000000,0.000000,0.000000,0.000000,0.000000,318.343163,24.385288,-1.000000,0.991097,0.006219,0.386605,0.000000,0.000000,0.000000,0.000000,0.000000,0.000000,0.000000,
2071,2848,-4.11161400959154,4.41751204566457,-0.0236127790656155,0.000000,0.000000,0.000000,0.000000,0.000000,317.815568,24.458657,-1.000000,0.993659,0.005310,0.306580,0.000000,0.000000,0.000000,0.000000,0.000000,0.000000,0.000000,
2101,2848,-3.46053754920451,4.41783460621632,-0.0242261256668712,0.000000,0.000000,0.000000,0.000000,0.000000,317.657519,24.382062,-1.000000,0.994500,0.005117,0.424256,0.000000,0.000000,0.000000,0.000000,0.000000,0.000000,0.000000,
2161,2848,-2.15730070283128,4.42003239706941,-0.0161167247852632,0.000000,0.000000,0.000000,0.000000,0.000000,317.470427,24.437897,-1.000000,0.993990,0.005187,0.449839,0.000000,0.000000,0.000000,0.000000,0.000000,0.000000,0.000000,
2191,2848,-1.5056816448797,4.42239379838803,-0.0157534743927954,0.000000,0.000000,0.000000,0.000000,0.000000,317.371493,24.552654,-1.000000,0.990442,0.005976,0.375696,0.000000,0.000000,0.000000,0.000000,0.000000,0.000000,0.000000,
2131,2848,-2.80946013673183,4.42064143181766,-0.0270437590121446,0.000000,0.000000,0.000000,0.000000,0.000000,317.497154,24.516107,-1.000000,0.993327,0.005421,0.331027,0.000000,0.000000,0.000000,0.000000,0.000000,0.000000,0.000000,
2311,2848,1.10297043995958,4.42764378780019,-0.00755256573364704,0.000000,0.000000,0.000000,0.000000,0.000000,317.208156,24.665887,-1.000000,0.992981,0.006003,0.424535,0.000000,0.000000,0.000000,0.000000,0.000000,0.000000,0.000000,
2341,2848,1.75389685382047,4.43144888025284,-0.0273308890559747,0.000000,0.000000,0.000000,0.000000,0.000000,317.027324,24.757705,-1.000000,0.992052,0.005881,0.373167,0.000000,0.000000,0.000000,0.000000,0.000000,0.000000,0.000000,
2281,2848,0.449386598649703,4.4288790383663,-0.0253392517977318,0.000000,0.000000,0.000000,0.000000,0.000000,317.090172,24.755895,-1.000000,0.992938,0.005882,0.294418,0.000000,0.000000,0.000000,0.000000,0.000000,0.000000,0.000000,
2071,2668,-4.08385708200777,0.502635243914561,-0.0314225510050505,0.000000,0.000000,0.000000,0.000000,0.000000,320.670471,24.435233,-1.000000,0.989301,0.006444,0.367462,0.000000,0.000000,0.000000,0.000000,0.000000,0.000000,0.000000,
2071,2698,-4.08824078010881,1.15492857771869,-0.0265747775345631,0.000000,0.000000,0.000000,0.000000,0.000000,320.225119,24.407092,-1.000000,0.992172,0.005618,0.389960,0.000000,0.000000,0.000000,0.000000,0.000000,0.000000,0.000000,
2461,2698,4.39590290902237,1.17074837029038,-0.0228037919187614,0.000000,0.000000,0.000000,0.000000,0.000000,319.628306,24.423055,-1.000000,0.988602,0.007159,0.323979,0.000000,0.000000,0.000000,0.000000,0.000000,0.000000,0.000000,
2461,2728,4.3899248793,1.82468150368317,-0.0219011903781734,0.000000,0.000000,0.000000,0.000000,0.000000,319.146992,24.542577,-1.000000,0.992501,0.005710,0.313823,0.000000,0.000000,0.000000,0.000000,0.000000,0.000000,0.000000,
2251,2458,-0.132455557932449,-4.07284262399249,-0.00920580234497947,0.000000,0.000000,0.000000,0.000000,0.000000,323.605675,24.061192,-1.000000,0.991182,0.006754,0.328735,0.000000,0.000000,0.000000,0.000000,0.000000,0.000000,0.000000,
2281,2458,0.520929283391013,-4.07248671713538,-0.0104526548647641,0.000000,0.000000,0.000000,0.000000,0.000000,323.548585,23.962002,-1.000000,0.990624,0.006799,0.353275,0.000000,0.000000,0.000000,0.000000,0.000000,0.000000,0.000000,
2071,2758,-4.09771602319983,2.46041222362874,-0.0277922061806635,0.000000,0.000000,0.000000,0.000000,0.000000,319.242114,24.397297,-1.000000,0.991781,0.005902,0.387788,0.000000,0.000000,0.000000,0.000000,0.000000,0.000000,0.000000,
2071,2788,-4.10182668885143,3.11168182553239,-0.0182099585235278,0.000000,0.000000,0.000000,0.000000,0.000000,318.835684,24.363264,-1.000000,0.989583,0.006341,0.415165,0.000000,0.000000,0.000000,0.000000,0.000000,0.000000,0.000000,
2221,2848,-0.854319891515427,4.42464926520118,-0.0214141261374721,0.000000,0.000000,0.000000,0.000000,0.000000,317.239718,24.611659,-1.000000,0.991047,0.005809,0.357571,0.000000,0.000000,0.000000,0.000000,0.000000,0.000000,0.000000,
2251,2848,-0.20230586129226,4.42613084620878,-0.0200473133264154,0.000000,0.000000,0.000000,0.000000,0.000000,317.184352,24.650951,-1.000000,0.992236,0.005733,0.358591,0.000000,0.000000,0.000000,0.000000,0.000000,0.000000,0.000000,
2461,2758,4.38299431964366,2.47859749729456,-0.0325853273525922,0.000000,0.000000,0.000000,0.000000,0.000000,318.568534,24.586955,-1.000000,0.990005,0.006447,0.378728,0.000000,0.000000,0.000000,0.000000,0.000000,0.000000,0.000000,
2071,2728,-4.09310251962028,1.80805849257228,-0.0292211151385118,0.000000,0.000000,0.000000,0.000000,0.000000,319.716638,24.412367,-1.000000,0.989817,0.006211,0.378786,0.000000,0.000000,0.000000,0.000000,0.000000,0.000000,0.000000,
2371,2848,2.40672095403962,4.43290888092038,-0.0242400945747931,0.000000,0.000000,0.000000,0.000000,0.000000,317.056162,24.803622,-1.000000,0.990400,0.006342,0.367413,0.000000,0.000000,0.000000,0.000000,0.000000,0.000000,0.000000,
2221,2458,-0.785311836099584,-4.07436233176795,-0.00283532912749251,0.000000,0.000000,0.000000,0.000000,0.000000,323.723371,24.100991,-1.000000,0.985759,0.007646,0.363308,0.000000,0.000000,0.000000,0.000000,0.000000,0.000000,0.000000,
2221,2488,-0.791140333665471,-3.41860072076511,-0.0120072542152911,0.000000,0.000000,0.000000,0.000000,0.000000,323.161319,24.136849,-1.000000,0.987357,0.007065,0.368158,0.000000,0.000000,0.000000,0.000000,0.000000,0.000000,0.000000,
2431,2818,3.71866729039613,3.78293163834767,-0.0205387196743914,0.000000,0.000000,0.000000,0.000000,0.000000,317.635170,24.786288,-1.000000,0.990957,0.006321,0.365530,0.000000,0.000000,0.000000,0.000000,0.000000,0.000000,0.000000,
2461,2788,4.37790273208327,3.13110925745593,-0.0210026036871227,0.000000,0.000000,0.000000,0.000000,0.000000,318.176544,24.695738,-1.000000,0.987133,0.006882,0.378715,0.000000,0.000000,0.000000,0.000000,0.000000,0.000000,0.000000,
2461,2818,4.37148600797729,3.78505718630496,-0.0254269850325954,0.000000,0.000000,0.000000,0.000000,0.000000,317.649697,24.829275,-1.000000,0.986911,0.007190,0.353864,0.000000,0.000000,0.000000,0.000000,0.000000,0.000000,0.000000,
2071,2638,-4.07862081835448,-0.151018350893388,-0.0225140278084837,0.000000,0.000000,0.000000,0.000000,0.000000,321.230587,24.471733,-1.000000,0.987498,0.006832,0.336221,0.000000,0.000000,0.000000,0.000000,0.000000,0.000000,0.000000,
2431,2638,3.75409436261974,-0.139392316499006,-0.0237156522599093,0.000000,0.000000,0.000000,0.000000,0.000000,320.541195,24.155918,-1.000000,0.990710,0.006438,0.394011,0.000000,0.000000,0.000000,0.000000,0.000000,0.000000,0.000000,
2431,2668,3.74752779244976,0.516690520234285,-0.0312293818345211,0.000000,0.000000,0.000000,0.000000,0.000000,319.989320,24.365932,-1.000000,0.990103,0.006759,0.285275,0.000000,0.000000,0.000000,0.000000,0.000000,0.000000,0.000000,
2386,2473,2.80641523745054,-3.74280954192152,-0.0119697697151082,0.000000,0.000000,0.000000,0.000000,0.000000,323.266241,23.749119,-1.000000,0.989083,0.007053,0.347700,0.000000,0.000000,0.000000,0.000000,0.000000,0.000000,0.000000,
2416,2473,3.46127782821535,-3.74393948335481,-0.00372392093009921,0.000000,0.000000,0.000000,0.000000,0.000000,323.367521,23.599935,-1.000000,0.985797,0.007595,0.425718,0.000000,0.000000,0.000000,0.000000,0.000000,0.000000,0.000000,
2086,2863,-3.78779703531586,4.74299264270025,-0.013010107093578,0.000000,0.000000,0.000000,0.000000,0.000000,317.581830,24.442151,-1.000000,0.991188,0.006116,0.342007,0.000000,0.000000,0.000000,0.000000,0.000000,0.000000,0.000000,
2116,2863,-3.13680233594628,4.74454844462504,-0.0154955990331018,0.000000,0.000000,0.000000,0.000000,0.000000,317.416161,24.465117,-1.000000,0.992620,0.005687,0.364565,0.000000,0.000000,0.000000,0.000000,0.000000,0.000000,0.000000,
2146,2863,-2.48621595147862,4.74700789624572,-0.026375019420243,0.000000,0.000000,0.000000,0.000000,0.000000,317.197342,24.507941,-1.000000,0.992437,0.005547,0.367237,0.000000,0.000000,0.000000,0.000000,0.000000,0.000000,0.000000,
2176,2863,-1.83416566458656,4.74786302622371,-0.017551500158163,0.000000,0.000000,0.000000,0.000000,0.000000,317.160959,24.547964,-1.000000,0.988229,0.006272,0.372013,0.000000,0.000000,0.000000,0.000000,0.000000,0.000000,0.000000,
2056,2833,-4.43460797621381,4.0902646202247,-0.0209648944331775,0.000000,0.000000,0.000000,0.000000,0.000000,318.164757,24.415959,-1.000000,0.987418,0.006778,0.334433,0.000000,0.000000,0.000000,0.000000,0.000000,0.000000,0.000000,
2056,2863,-4.43873259910179,4.74108868968183,-0.0119868905845237,0.000000,0.000000,0.000000,0.000000,0.000000,317.752763,24.375307,-1.000000,0.991159,0.005937,0.363657,0.000000,0.000000,0.000000,0.000000,0.000000,0.000000,0.000000,
2296,2863,0.773266736233342,4.75505491618385,-0.018293933037512,0.000000,0.000000,0.000000,0.000000,0.000000,316.886823,24.777220,-1.000000,0.992974,0.005673,0.322679,0.000000,0.000000,0.000000,0.000000,0.000000,0.000000,0.000000,
2326,2863,1.42560465192305,4.75596388766736,-0.0176981106627636,0.000000,0.000000,0.000000,0.000000,0.000000,316.868828,24.755835,-1.000000,0.992295,0.006002,0.388957,0.000000,0.000000,0.000000,0.000000,0.000000,0.000000,0.000000,
2266,2863,0.122139513114945,4.75175372318965,-0.0046510026978126,0.000000,0.000000,0.000000,0.000000,0.000000,317.042349,24.682881,-1.000000,0.994217,0.005490,0.371996,0.000000,0.000000,0.000000,0.000000,0.000000,0.000000,0.000000,
2476,2713,4.71948195366395,1.49734871359351,-0.0259457678129706,0.000000,0.000000,0.000000,0.000000,0.000000,319.392955,24.358759,-1.000000,0.989778,0.006838,0.443115,0.000000,0.000000,0.000000,0.000000,0.000000,0.000000,0.000000,
2476,2728,4.71666602091821,1.82531736736061,-0.0230161905764703,0.000000,0.000000,0.000000,0.000000,0.000000,319.172399,24.533171,-1.000000,0.991596,0.005880,0.325402,0.000000,0.000000,0.000000,0.000000,0.000000,0.000000,0.000000,
2476,2743,4.71317750884065,2.15218983745368,-0.0282831773199632,0.000000,0.000000,0.000000,0.000000,0.000000,318.883845,24.545692,-1.000000,0.992617,0.005799,0.369697,0.000000,0.000000,0.000000,0.000000,0.000000,0.000000,0.000000,
2236,2863,-0.530933926000113,4.75169075116692,-0.0201042342265509,0.000000,0.000000,0.000000,0.000000,0.000000,316.970763,24.669937,-1.000000,0.991199,0.005700,0.340252,0.000000,0.000000,0.000000,0.000000,0.000000,0.000000,0.000000,
2056,2683,-4.41092388533544,0.826871178613821,-0.014443024503862,0.000000,0.000000,0.000000,0.000000,0.000000,320.652329,24.417646,-1.000000,0.991272,0.006065,0.385812,0.000000,0.000000,0.000000,0.000000,0.000000,0.000000,0.000000,
2056,2713,-4.41633755585357,1.48109316076845,-0.0269504036861576,0.000000,0.000000,0.000000,0.000000,0.000000,320.061535,24.431668,-1.000000,0.990465,0.005905,0.361690,0.000000,0.000000,0.000000,0.000000,0.000000,0.000000,0.000000,
2356,2863,2.07742572884662,4.75829323444131,-0.0259870844394641,0.000000,0.000000,0.000000,0.000000,0.000000,316.793343,24.798245,-1.000000,0.991058,0.006104,0.391538,0.000000,0.000000,0.000000,0.000000,0.000000,0.000000,0.000000,
2056,2743,-4.42131735360283,2.13382104385925,-0.0323536235264896,0.000000,0.000000,0.000000,0.000000,0.000000,319.530212,24.386752,-1.000000,0.991475,0.005885,0.396366,0.000000,0.000000,0.000000,0.000000,0.000000,0.000000,0.000000,
2056,2773,-4.42504937448258,2.78505511184294,-0.0173892312056978,0.000000,0.000000,0.000000,0.000000,0.000000,319.168829,24.383270,-1.000000,0.989022,0.006494,0.388957,0.000000,0.000000,0.000000,0.000000,0.000000,0.000000,0.000000,
2236,2443,-0.456652084835106,-4.39952032504513,-0.0110754643483233,0.000000,0.000000,0.000000,0.000000,0.000000,323.862102,24.160606,-1.000000,0.991600,0.006416,0.244342,0.000000,0.000000,0.000000,0.000000,0.000000,0.000000,0.000000,
2266,2443,0.197272494249415,-4.39993344278969,-0.00447247034992415,0.000000,0.000000,0.000000,0.000000,0.000000,323.862077,24.064035,-1.000000,0.989497,0.006886,0.261619,0.000000,0.000000,0.000000,0.000000,0.000000,0.000000,0.000000,
2056,2803,-4.43037975669362,3.438772617461,-0.0281512090729166,0.000000,0.000000,0.000000,0.000000,0.000000,318.591686,24.423865,-1.000000,0.990601,0.006127,0.337642,0.000000,0.000000,0.000000,0.000000,0.000000,0.000000,0.000000,
2206,2863,-1.18203302775016,4.74874980626888,-0.0102652109675887,0.000000,0.000000,0.000000,0.000000,0.000000,317.129134,24.578425,-1.000000,0.992149,0.005426,0.386573,0.000000,0.000000,0.000000,0.000000,0.000000,0.000000,0.000000,
2446,2833,4.04227630786767,4.11151027294129,-0.020228771761424,0.000000,0.000000,0.000000,0.000000,0.000000,317.417974,24.968732,-1.000000,0.992441,0.005821,0.250601,0.000000,0.000000,0.000000,0.000000,0.000000,0.000000,0.000000,
2416,2623,3.43004497012288,-0.466910813336057,-0.0254698214363884,0.000000,0.000000,0.000000,0.000000,0.000000,320.748584,24.119139,-1.000000,0.988560,0.006627,0.393673,0.000000,0.000000,0.000000,0.000000,0.000000,0.000000,0.000000,
2446,2623,4.08472185490599,-0.466264434692498,-0.0148087752978086,0.000000,0.000000,0.000000,0.000000,0.000000,320.885907,24.150394,-1.000000,0.989141,0.006604,0.335378,0.000000,0.000000,0.000000,0.000000,0.000000,0.000000,0.000000,
2446,2653,4.07821061853315,0.188536654120789,-0.0210339232514798,0.000000,0.000000,0.000000,0.000000,0.000000,320.345566,24.242729,-1.000000,0.991044,0.006289,0.348843,0.000000,0.000000,0.000000,0.000000,0.000000,0.000000,0.000000,
2296,2443,0.849992707149092,-4.40059054622509,-0.0168285318580956,0.000000,0.000000,0.000000,0.000000,0.000000,323.721902,23.767508,-1.000000,0.989281,0.006964,0.479282,0.000000,0.000000,0.000000,0.000000,0.000000,0.000000,0.000000,
2386,2863,2.73072820823295,4.75979113137195,-0.0173108280887391,0.000000,0.000000,0.000000,0.000000,0.000000,316.877531,24.888618,-1.000000,0.989879,0.006279,0.345609,0.000000,0.000000,0.000000,0.000000,0.000000,0.000000,0.000000,
2476,2758,4.71084724307228,2.47723130629407,-0.0197341716355481,0.000000,0.000000,0.000000,0.000000,0.000000,318.711618,24.504133,-1.000000,0.990566,0.006269,0.467864,0.000000,0.000000,0.000000,0.000000,0.000000,0.000000,0.000000,
2476,2773,4.70706178584375,2.80624577972144,-0.028411760948643,0.000000,0.000000,0.000000,0.000000,0.000000,318.393267,24.696439,-1.000000,0.987339,0.006768,0.332474,0.000000,0.000000,0.000000,0.000000,0.000000,0.000000,0.000000,
2056,2653,-4.40745076540309,0.175361648822118,-0.0332127199022239,0.000000,0.000000,0.000000,0.000000,0.000000,320.981236,24.412306,-1.000000,0.990208,0.006377,0.401487,0.000000,0.000000,0.000000,0.000000,0.000000,0.000000,0.000000,
2371,2458,2.48237410261269,-4.07101013008248,-0.010404655603736,0.000000,0.000000,0.000000,0.000000,0.000000,323.513280,23.734746,-1.000000,0.985998,0.007487,0.355255,0.000000,0.000000,0.000000,0.000000,0.000000,0.000000,0.000000,
2251,2878,-0.207479734121637,5.07844725420027,-0.017743153220465,0.000000,0.000000,0.000000,0.000000,0.000000,316.714925,24.714096,-1.000000,0.990863,0.006085,0.341395,0.000000,0.000000,0.000000,0.000000,0.000000,0.000000,0.000000,
2281,2878,0.444542515072587,5.0792205921862,-0.0173164226775384,0.000000,0.000000,0.000000,0.000000,0.000000,316.669350,24.681093,-1.000000,0.993257,0.005782,0.423874,0.000000,0.000000,0.000000,0.000000,0.000000,0.000000,0.000000,
2311,2878,1.09672244051927,5.08186673628334,-0.0169286128709132,0.000000,0.000000,0.000000,0.000000,0.000000,316.639940,24.818904,-1.000000,0.990426,0.006316,0.335334,0.000000,0.000000,0.000000,0.000000,0.000000,0.000000,0.000000,
2101,2878,-3.46491748785482,5.06937147115703,-0.0171113841308852,0.000000,0.000000,0.000000,0.000000,0.000000,317.229280,24.403641,-1.000000,0.992386,0.005928,0.404196,0.000000,0.000000,0.000000,0.000000,0.000000,0.000000,0.000000,
2131,2878,-2.81292683133401,5.0695832323443,-0.00472922244540541,0.000000,0.000000,0.000000,0.000000,0.000000,317.196820,24.412255,-1.000000,0.991837,0.005752,0.445263,0.000000,0.000000,0.000000,0.000000,0.000000,0.000000,0.000000,
2491,2728,5.04266800170607,1.82681021899798,-0.0334100430694093,0.000000,0.000000,0.000000,0.000000,0.000000,319.124212,24.527802,-1.000000,0.992006,0.005792,0.333027,0.000000,0.000000,0.000000,0.000000,0.000000,0.000000,0.000000,
2491,2743,5.03932118137126,2.15378452756217,-0.0366186784974616,0.000000,0.000000,0.000000,0.000000,0.000000,318.852752,24.566954,-1.000000,0.991819,0.006004,0.353147,0.000000,0.000000,0.000000,0.000000,0.000000,0.000000,0.000000,
2491,2758,5.03669721237585,2.47954711608038,-0.0312919689161504,0.000000,0.000000,0.000000,0.000000,0.000000,318.653180,24.567003,-1.000000,0.989236,0.006508,0.411869,0.000000,0.000000,0.000000,0.000000,0.000000,0.000000,0.000000,
2431,2848,3.71282968591203,4.43603721723584,-0.0191901713462812,0.000000,0.000000,0.000000,0.000000,0.000000,317.156838,24.902961,-1.000000,0.988089,0.006562,0.348455,0.000000,0.000000,0.000000,0.000000,0.000000,0.000000,0.000000,
2461,2848,4.36462460568364,4.4389107905939,-0.035265528908667,0.000000,0.000000,0.000000,0.000000,0.000000,317.077270,24.932547,-1.000000,0.993269,0.005498,0.359121,0.000000,0.000000,0.000000,0.000000,0.000000,0.000000,0.000000,
2161,2878,-2.16233723594048,5.0731225770903,-0.0160600743267878,0.000000,0.000000,0.000000,0.000000,0.000000,316.982296,24.551819,-1.000000,0.993100,0.005336,0.355343,0.000000,0.000000,0.000000,0.000000,0.000000,0.000000,0.000000,
2341,2878,1.74843465819108,5.08295765868741,-0.0250420111817675,0.000000,0.000000,0.000000,0.000000,0.000000,316.557748,24.750257,-1.000000,0.991416,0.006110,0.453343,0.000000,0.000000,0.000000,0.000000,0.000000,0.000000,0.000000,
2191,2878,-1.5108019295863,5.07572306073113,-0.0154397677491716,0.000000,0.000000,0.000000,0.000000,0.000000,316.885245,24.691563,-1.000000,0.995160,0.004972,0.265112,0.000000,0.000000,0.000000,0.000000,0.000000,0.000000,0.000000,
2221,2878,-0.859027185993959,5.07582677930851,-0.0138944412233286,0.000000,0.000000,0.000000,0.000000,0.000000,316.814531,24.607475,-1.000000,0.993341,0.005062,0.398606,0.000000,0.000000,0.000000,0.000000,0.000000,0.000000,0.000000,
2221,2428,-0.779380475754149,-4.73265545189618,0.00763827565117481,0.000000,0.000000,0.000000,0.000000,0.000000,324.297183,23.867912,-1.000000,0.990555,0.006615,0.555525,0.000000,0.000000,0.000000,0.000000,0.000000,0.000000,0.000000,
2251,2428,-0.126924499503403,-4.7300900365789,-0.00601597590400615,0.000000,0.000000,0.000000,0.000000,0.000000,324.118584,23.853298,-1.000000,0.986919,0.006858,0.487001,0.000000,0.000000,0.000000,0.000000,0.000000,0.000000,0.000000,
2491,2713,5.04570959303141,1.49917923743693,-0.0339013264151049,0.000000,0.000000,0.000000,0.000000,0.000000,319.365008,24.403293,-1.000000,0.989602,0.006971,0.398403,0.000000,0.000000,0.000000,0.000000,0.000000,0.000000,0.000000,
2041,2728,-4.74448108171784,1.8070822253091,-0.0295722857214855,0.000000,0.000000,0.000000,0.000000,0.000000,319.883655,24.425834,-1.000000,0.991583,0.005633,0.359515,0.000000,0.000000,0.000000,0.000000,0.000000,0.000000,0.000000,
2041,2743,-4.74687529031752,2.13328372091746,-0.0311473495222572,0.000000,0.000000,0.000000,0.000000,0.000000,319.627446,24.399527,-1.000000,0.991695,0.005836,0.378595,0.000000,0.000000,0.000000,0.000000,0.000000,0.000000,0.000000,
2041,2758,-4.74886649801642,2.45834033235018,-0.0261139844987497,0.000000,0.000000,0.000000,0.000000,0.000000,319.426721,24.324962,-1.000000,0.991118,0.006192,0.445491,0.000000,0.000000,0.000000,0.000000,0.000000,0.000000,0.000000,
2041,2668,-4.73504900244184,0.500640631305444,-0.0254012025743577,0.000000,0.000000,0.000000,0.000000,0.000000,320.890690,24.410812,-1.000000,0.988661,0.006820,0.403716,0.000000,0.000000,0.000000,0.000000,0.000000,0.000000,0.000000,
2041,2683,-4.73773163598718,0.827869433403528,-0.0318109257671608,0.000000,0.000000,0.000000,0.000000,0.000000,320.594115,24.420051,-1.000000,0.991236,0.006132,0.387540,0.000000,0.000000,0.000000,0.000000,0.000000,0.000000,0.000000,
2041,2698,-4.73998967433345,1.15449554044498,-0.0312217161935564,0.000000,0.000000,0.000000,0.000000,0.000000,320.355964,24.436608,-1.000000,0.991632,0.005875,0.363703,0.000000,0.000000,0.000000,0.000000,0.000000,0.000000,0.000000,
2071,2878,-4.11603649402316,5.0682556977232,-0.0186650336873413,0.000000,0.000000,0.000000,0.000000,0.000000,317.369794,24.390143,-1.000000,0.989027,0.006707,0.367853,0.000000,0.000000,0.000000,0.000000,0.000000,0.000000,0.000000,
2041,2848,-4.76274631354446,4.41522197655782,-0.0265567517711247,0.000000,0.000000,0.000000,0.000000,0.000000,317.962234,24.326963,-1.000000,0.990694,0.006051,0.397451,0.000000,0.000000,0.000000,0.000000,0.000000,0.000000,0.000000,
2041,2863,-4.7645679987627,4.74079323483247,-0.0184284989939556,0.000000,0.000000,0.000000,0.000000,0.000000,317.786458,24.350365,-1.000000,0.990587,0.006321,0.366052,0.000000,0.000000,0.000000,0.000000,0.000000,0.000000,0.000000,
2041,2878,-4.76718060366945,5.06740759791052,-0.0232433516042079,0.000000,0.000000,0.000000,0.000000,0.000000,317.502262,24.377946,-1.000000,0.986809,0.007042,0.330337,0.000000,0.000000,0.000000,0.000000,0.000000,0.000000,0.000000,
2371,2878,2.40158935980753,5.08568022969541,-0.0163547510504714,0.000000,0.000000,0.000000,0.000000,0.000000,316.632584,24.953719,-1.000000,0.993041,0.005570,0.298861,0.000000,0.000000,0.000000,0.000000,0.000000,0.000000,0.000000,
2461,2638,4.40787388280244,-0.137662846702931,-0.0244626172706717,0.000000,0.000000,0.000000,0.000000,0.000000,320.591449,24.189463,-1.000000,0.989829,0.006494,0.338400,0.000000,0.000000,0.000000,0.000000,0.000000,0.000000,0.000000,
2461,2668,4.40184525265597,0.515813932010772,-0.0242216069167398,0.000000,0.000000,0.000000,0.000000,0.000000,320.105510,24.225303,-1.000000,0.987712,0.006898,0.412258,0.000000,0.000000,0.000000,0.000000,0.000000,0.000000,0.000000,
2041,2788,-4.75354723806,3.1120917298276,-0.02721017742698,0.000000,0.000000,0.000000,0.000000,0.000000,318.930287,24.434403,-1.000000,0.988965,0.006329,0.320744,0.000000,0.000000,0.000000,0.000000,0.000000,0.000000,0.000000,
2041,2803,-4.75583212354994,3.4377557005998,-0.0268660477377125,0.000000,0.000000,0.000000,0.000000,0.000000,318.689969,24.391532,-1.000000,0.990711,0.005889,0.356147,0.000000,0.000000,0.000000,0.000000,0.000000,0.000000,0.000000,
2176,2893,-1.83794659624491,5.39823078516907,0.00170362278106495,0.000000,0.000000,0.000000,0.000000,0.000000,316.834118,24.560361,-1.000000,0.995549,0.004963,0.383176,0.000000,0.000000,0.000000,0.000000,0.000000,0.000000,0.000000,
2206,2893,-1.18831886301404,5.40245309289715,-0.0260240836183243,0.000000,0.000000,0.000000,0.000000,0.000000,316.508322,24.643473,-1.000000,0.995172,0.005058,0.354364,0.000000,0.000000,0.000000,0.000000,0.000000,0.000000,0.000000,
2236,2893,-0.534976320364702,5.40233349604534,-0.00254597887402497,0.000000,0.000000,0.000000,0.000000,0.000000,316.629423,24.697835,-1.000000,0.992137,0.005899,0.353683,0.000000,0.000000,0.000000,0.000000,0.000000,0.000000,0.000000,
2446,2863,4.03726097108726,4.76180276067985,-0.00837297603226261,0.000000,0.000000,0.000000,0.000000,0.000000,317.028719,24.913247,-1.000000,0.993409,0.005428,0.409999,0.000000,0.000000,0.000000,0.000000,0.000000,0.000000,0.000000,
2476,2833,4.6958614709368,4.11142722950951,-0.0164695869513594,0.000000,0.000000,0.000000,0.000000,0.000000,317.514651,24.873885,-1.000000,0.988250,0.006666,0.380946,0.000000,0.000000,0.000000,0.000000,0.000000,0.000000,0.000000,
2476,2848,4.69199296999209,4.43886921111379,-0.0262736457740971,0.000000,0.000000,0.000000,0.000000,0.000000,317.187243,24.938134,-1.000000,0.988028,0.006639,0.373431,0.000000,0.000000,0.000000,0.000000,0.000000,0.000000,0.000000,
2476,2863,4.68939646386342,4.76486389606092,-0.0208575230796555,0.000000,0.000000,0.000000,0.000000,0.000000,316.987794,24.987580,-1.000000,0.986403,0.006912,0.380277,0.000000,0.000000,0.000000,0.000000,0.000000,0.000000,0.000000,
2266,2893,0.116256186265577,5.40474696859027,-0.0114254191265104,0.000000,0.000000,0.000000,0.000000,0.000000,316.496565,24.749146,-1.000000,0.991079,0.006019,0.356309,0.000000,0.000000,0.000000,0.000000,0.000000,0.000000,0.000000,
2296,2893,0.768055773935874,5.4066804900507,-0.0145387952298961,0.000000,0.000000,0.000000,0.000000,0.000000,316.429492,24.797024,-1.000000,0.991882,0.005825,0.362139,0.000000,0.000000,0.000000,0.000000,0.000000,0.000000,0.000000,
2146,2893,-2.49019708730998,5.39752367896951,-0.011205009035848,0.000000,0.000000,0.000000,0.000000,0.000000,316.836440,24.504392,-1.000000,0.990603,0.006268,0.385279,0.000000,0.000000,0.000000,0.000000,0.000000,0.000000,0.000000,
2356,2893,2.07307712854771,5.40998108019911,-0.00854453111452358,0.000000,0.000000,0.000000,0.000000,0.000000,316.450092,24.925941,-1.000000,0.991654,0.005868,0.340269,0.000000,0.000000,0.000000,0.000000,0.000000,0.000000,0.000000,
2386,2893,2.72519738724096,5.41196549598301,-0.0139822825313445,0.000000,0.000000,0.000000,0.000000,0.000000,316.415952,24.958190,-1.000000,0.992071,0.005837,0.361873,0.000000,0.000000,0.000000,0.000000,0.000000,0.000000,0.000000,
2086,2893,-3.79232882532569,5.39404667550697,-0.00897936048113479,0.000000,0.000000,0.000000,0.000000,0.000000,317.128042,24.402870,-1.000000,0.993158,0.005692,0.378653,0.000000,0.000000,0.000000,0.000000,0.000000,0.000000,0.000000,
2116,2893,-3.14212134871098,5.39671414943466,-0.0221525054521976,0.000000,0.000000,0.000000,0.000000,0.000000,316.872561,24.452078,-1.000000,0.992198,0.006101,0.383799,0.000000,0.000000,0.000000,0.000000,0.000000,0.000000,0.000000,
2506,2713,5.37364200705519,1.49974807651106,-0.0221769441849915,0.000000,0.000000,0.000000,0.000000,0.000000,319.506554,24.491111,-1.000000,0.990664,0.006294,0.310273,0.000000,0.000000,0.000000,0.000000,0.000000,0.000000,0.000000,
2506,2728,5.37086006386454,1.82604252462856,-0.0184177875983096,0.000000,0.000000,0.000000,0.000000,0.000000,319.293741,24.518311,-1.000000,0.989534,0.006477,0.344240,0.000000,0.000000,0.000000,0.000000,0.000000,0.000000,0.000000,
2506,2743,5.36646703917615,2.15504860031791,-0.0335067817750314,0.000000,0.000000,0.000000,0.000000,0.000000,318.921897,24.648755,-1.000000,0.990218,0.006465,0.275556,0.000000,0.000000,0.000000,0.000000,0.000000,0.000000,0.000000,
2506,2758,5.36311253964623,2.4811346895288,-0.0365423550019273,0.000000,0.000000,0.000000,0.000000,0.000000,318.652218,24.612472,-1.000000,0.991236,0.006137,0.372956,0.000000,0.000000,0.000000,0.000000,0.000000,0.000000,0.000000,
2026,2728,-5.07004435406047,1.80606343859682,-0.0286454823695976,0.000000,0.000000,0.000000,0.000000,0.000000,319.983073,24.392424,-1.000000,0.992488,0.005733,0.390144,0.000000,0.000000,0.000000,0.000000,0.000000,0.000000,0.000000,
2026,2743,-5.07227285639302,2.13230938686061,-0.0278983139256752,0.000000,0.000000,0.000000,0.000000,0.000000,319.746206,24.388238,-1.000000,0.990447,0.006277,0.384730,0.000000,0.000000,0.000000,0.000000,0.000000,0.000000,0.000000,
2026,2758,-5.0744208705108,2.45812366576611,-0.0257959531554093,0.000000,0.000000,0.000000,0.000000,0.000000,319.520745,24.359504,-1.000000,0.990050,0.006330,0.403669,0.000000,0.000000,0.000000,0.000000,0.000000,0.000000,0.000000,
2026,2683,-5.06428507401875,0.829061116615264,-0.0460036093135727,0.000000,0.000000,0.000000,0.000000,0.000000,320.566559,24.466111,-1.000000,0.995842,0.004785,0.345351,0.000000,0.000000,0.000000,0.000000,0.000000,0.000000,0.000000,
2026,2698,-5.06642085011661,1.15456193383358,-0.0438801353139411,0.000000,0.000000,0.000000,0.000000,0.000000,320.341760,24.392687,-1.000000,0.995518,0.004938,0.409327,0.000000,0.000000,0.000000,0.000000,0.000000,0.000000,0.000000,
2026,2713,-5.06846575925431,1.48104563681958,-0.0401271176335172,0.000000,0.000000,0.000000,0.000000,0.000000,320.129939,24.426782,-1.000000,0.994443,0.005342,0.365602,0.000000,0.000000,0.000000,0.000000,0.000000,0.000000,0.000000,
2041,2713,-4.74254730865806,1.48144766971627,-0.0355155116396304,0.000000,0.000000,0.000000,0.000000,0.000000,320.076937,24.448026,-1.000000,0.990440,0.006167,0.344962,0.000000,0.000000,0.000000,0.000000,0.000000,0.000000,0.000000,
2326,2893,1.4202882560412,5.40838034454333,-0.0140355984509597,0.000000,0.000000,0.000000,0.000000,0.000000,316.410188,24.848513,-1.000000,0.990413,0.006099,0.364488,0.000000,0.000000,0.000000,0.000000,0.000000,0.000000,0.000000,
2026,2668,-5.0609224044938,0.499902967618056,-0.0278512530568946,0.000000,0.000000,0.000000,0.000000,0.000000,320.961721,24.376816,-1.000000,0.990566,0.006059,0.443801,0.000000,0.000000,0.000000,0.000000,0.000000,0.000000,0.000000,
2026,2773,-5.07708860084661,2.78581073734987,-0.0322138789384212,0.000000,0.000000,0.000000,0.000000,0.000000,319.223356,24.440186,-1.000000,0.991542,0.006130,0.313269,0.000000,0.000000,0.000000,0.000000,0.000000,0.000000,0.000000,
2041,2773,-4.75143362531647,2.78578687640219,-0.0303822893089318,0.000000,0.000000,0.000000,0.000000,0.000000,319.147295,24.400737,-1.000000,0.990084,0.006201,0.362159,0.000000,0.000000,0.000000,0.000000,0.000000,0.000000,0.000000,
2026,2788,-5.0791974110934,3.11135009222845,-0.0293958986449638,0.000000,0.000000,0.000000,0.000000,0.000000,319.003812,24.400660,-1.000000,0.992316,0.005712,0.343007,0.000000,0.000000,0.000000,0.000000,0.000000,0.000000,0.000000,
2026,2803,-5.08151298951757,3.43702319049205,-0.0299828573990908,0.000000,0.000000,0.000000,0.000000,0.000000,318.755773,24.351291,-1.000000,0.992556,0.005559,0.382409,0.000000,0.000000,0.000000,0.000000,0.000000,0.000000,0.000000,
2026,2818,-5.08365240510241,3.76263920130906,-0.0275906639398045,0.000000,0.000000,0.000000,0.000000,0.000000,318.532479,24.323783,-1.000000,0.992325,0.005491,0.400131,0.000000,0.000000,0.000000,0.000000,0.000000,0.000000,0.000000,
2011,2668,-5.38680966159183,0.500068181839488,-0.0311744897772996,0.000000,0.000000,0.000000,0.000000,0.000000,321.029350,24.418132,-1.000000,0.987788,0.006650,0.408354,0.000000,0.000000,0.000000,0.000000,0.000000,0.000000,0.000000,
2011,2683,-5.38836875607336,0.825581359858901,-0.0197373712782678,0.000000,0.000000,0.000000,0.000000,0.000000,320.882124,24.416661,-1.000000,0.996058,0.004630,0.397901,0.000000,0.000000,0.000000,0.000000,0.000000,0.000000,0.000000,
2011,2698,-5.39066477074448,1.15182155630984,-0.0206827858793304,0.000000,0.000000,0.000000,0.000000,0.000000,320.631496,24.383770,-1.000000,0.995751,0.004776,0.419345,0.000000,0.000000,0.000000,0.000000,0.000000,0.000000,0.000000,
2161,2908,-2.16693404655406,5.72401327550901,-0.00945926260419583,0.000000,0.000000,0.000000,0.000000,0.000000,316.549520,24.527765,-1.000000,0.991876,0.005873,0.398555,0.000000,0.000000,0.000000,0.000000,0.000000,0.000000,0.000000,
2191,2908,-1.51549597761919,5.72513680869688,-0.00904329045943086,0.000000,0.000000,0.000000,0.000000,0.000000,316.451374,24.531332,-1.000000,0.995006,0.005187,0.453488,0.000000,0.000000,0.000000,0.000000,0.000000,0.000000,0.000000,
2011,2713,-5.3934619910909,1.47926912805635,-0.0299862094454966,0.000000,0.000000,0.000000,0.000000,0.000000,320.310657,24.398636,-1.000000,0.994198,0.005430,0.392847,0.000000,0.000000,0.000000,0.000000,0.000000,0.000000,0.000000,
2221,2908,-0.863416908579136,5.72744757494214,-0.00172648795472696,0.000000,0.000000,0.000000,0.000000,0.000000,316.427611,24.692467,-1.000000,0.992037,0.006144,0.350473,0.000000,0.000000,0.000000,0.000000,0.000000,0.000000,0.000000,
2011,2728,-5.39564563675169,1.80517283345176,-0.0289701540012288,0.000000,0.000000,0.000000,0.000000,0.000000,320.076323,24.360525,-1.000000,0.992401,0.005850,0.419057,0.000000,0.000000,0.000000,0.000000,0.000000,0.000000,0.000000,
2431,2878,3.70704304934036,5.08899158876353,-0.017211175536147,0.000000,0.000000,0.000000,0.000000,0.000000,316.683530,25.027373,-1.000000,0.991524,0.005658,0.323304,0.000000,0.000000,0.000000,0.000000,0.000000,0.000000,0.000000,
2461,2878,4.35882209591654,5.09162684997023,-0.03230631424276,0.000000,0.000000,0.000000,0.000000,0.000000,316.612111,25.045148,-1.000000,0.992080,0.005628,0.354739,0.000000,0.000000,0.000000,0.000000,0.000000,0.000000,0.000000,
2071,2908,-4.12068248880207,5.71987195419311,-0.0171226481472218,0.000000,0.000000,0.000000,0.000000,0.000000,316.894874,24.393023,-1.000000,0.992603,0.005603,0.357769,0.000000,0.000000,0.000000,0.000000,0.000000,0.000000,0.000000,
2101,2908,-3.46891755512724,5.72049627103144,-0.00393779386865845,0.000000,0.000000,0.000000,0.000000,0.000000,316.851447,24.446004,-1.000000,0.992445,0.005830,0.363311,0.000000,0.000000,0.000000,0.000000,0.000000,0.000000,0.000000,
2011,2788,-5.40442384393178,3.11035567652119,-0.0251252384128975,0.000000,0.000000,0.000000,0.000000,0.000000,319.135514,24.393458,-1.000000,0.991700,0.005956,0.338393,0.000000,0.000000,0.000000,0.000000,0.000000,0.000000,0.000000,
2011,2803,-5.40701639400939,3.43627473201155,-0.0308199878509754,0.000000,0.000000,0.000000,0.000000,0.000000,318.844880,24.326827,-1.000000,0.992305,0.005686,0.393136,0.000000,0.000000,0.000000,0.000000,0.000000,0.000000,0.000000,
2011,2818,-5.4093947462,3.76192056764975,-0.0328650409135776,0.000000,0.000000,0.000000,0.000000,0.000000,318.584664,24.268034,-1.000000,0.991557,0.005612,0.439717,0.000000,0.000000,0.000000,0.000000,0.000000,0.000000,0.000000,
2041,2818,-4.75795176131748,3.76337055805009,-0.023761537319217,0.000000,0.000000,0.000000,0.000000,0.000000,318.472575,24.369464,-1.000000,0.990728,0.005961,0.370335,0.000000,0.000000,0.000000,0.000000,0.000000,0.000000,0.000000,
2011,2743,-5.39857208630034,2.13341078069413,-0.0403272296906607,0.000000,0.000000,0.000000,0.000000,0.000000,319.737797,24.442471,-1.000000,0.992986,0.005451,0.325628,0.000000,0.000000,0.000000,0.000000,0.000000,0.000000,0.000000,
2011,2833,-5.4107284695361,4.08807976585778,-0.0171644504155779,0.000000,0.000000,0.000000,0.000000,0.000000,318.471852,24.394634,-1.000000,0.994663,0.005287,0.300506,0.000000,0.000000,0.000000,0.000000,0.000000,0.000000,0.000000,
2026,2833,-5.08583163402276,4.08899533995822,-0.0257792560677785,0.000000,0.000000,0.000000,0.000000,0.000000,318.303899,24.363859,-1.000000,0.994481,0.005289,0.350071,0.000000,0.000000,0.000000,0.000000,0.000000,0.000000,0.000000,
2041,2833,-4.76010734158641,4.08927004183573,-0.0211943876125815,0.000000,0.000000,0.000000,0.000000,0.000000,318.250483,24.373398,-1.000000,0.989085,0.006296,0.358625,0.000000,0.000000,0.000000,0.000000,0.000000,0.000000,0.000000,
2011,2773,-5.40255419361297,2.78488899075214,-0.03159232100694,0.000000,0.000000,0.000000,0.000000,0.000000,319.324615,24.411808,-1.000000,0.991598,0.006024,0.332195,0.000000,0.000000,0.000000,0.000000,0.000000,0.000000,0.000000,
2131,2908,-2.81773527382058,5.72148778493711,-0.0026774272489547,0.000000,0.000000,0.000000,0.000000,0.000000,316.725747,24.445872,-1.000000,0.989478,0.006492,0.422009,0.000000,0.000000,0.000000,0.000000,0.000000,0.000000,0.000000,
2251,2908,-0.211226306277272,5.72922850729272,0.0045077481220801,0.000000,0.000000,0.000000,0.000000,0.000000,316.412501,24.795945,-1.000000,0.993310,0.005487,0.305090,0.000000,0.000000,0.000000,0.000000,0.000000,0.000000,0.000000,
2371,2908,2.39585219121122,5.73721394213483,-0.0163280914188135,0.000000,0.000000,0.000000,0.000000,0.000000,316.143634,24.948430,-1.000000,0.990517,0.006149,0.385463,0.000000,0.000000,0.000000,0.000000,0.000000,0.000000,0.000000,
2401,2878,3.05361078593619,5.08775621880201,-0.0245632548251251,0.000000,0.000000,0.000000,0.000000,0.000000,316.584035,24.972755,-1.000000,0.991926,0.005678,0.329094,0.000000,0.000000,0.000000,0.000000,0.000000,0.000000,0.000000,
2401,2908,3.04839418402782,5.74000947376922,-0.0166494047603578,0.000000,0.000000,0.000000,0.000000,0.000000,316.160516,25.092312,-1.000000,0.991170,0.006102,0.299644,0.000000,0.000000,0.000000,0.000000,0.000000,0.000000,0.000000,
2281,2908,0.438859756344346,5.73248424255754,-0.0205392278010663,0.000000,0.000000,0.000000,0.000000,0.000000,316.152809,24.809082,-1.000000,0.993075,0.005395,0.350509,0.000000,0.000000,0.000000,0.000000,0.000000,0.000000,0.000000,
2311,2908,1.09177359312486,5.7337838008338,-0.00898101548960994,0.000000,0.000000,0.000000,0.000000,0.000000,316.217262,24.904219,-1.000000,0.992262,0.005830,0.313343,0.000000,0.000000,0.000000,0.000000,0.000000,0.000000,0.000000,
2341,2908,1.74367219227716,5.73567901092986,-0.0134362648038859,0.000000,0.000000,0.000000,0.000000,0.000000,316.165092,24.937871,-1.000000,0.990469,0.006119,0.338063,0.000000,0.000000,0.000000,0.000000,0.000000,0.000000,0.000000,
2011,2758,-5.40057986337768,2.45867613029345,-0.0362947913832841,0.000000,0.000000,0.000000,0.000000,0.000000,319.528693,24.379132,-1.000000,0.992380,0.005641,0.376852,0.000000,0.000000,0.000000,0.000000,0.000000,0.000000,0.000000,
2491,2773,5.03379315031357,2.80687771412411,-0.0291872553743246,0.000000,0.000000,0.000000,0.000000,0.000000,318.425783,24.689773,-1.000000,0.987293,0.006810,0.347829,0.000000,0.000000,0.000000,0.000000,0.000000,0.000000,0.000000,
2506,2773,5.36047093530844,2.80733512364993,-0.0311348483924689,0.000000,0.000000,0.000000,0.000000,0.000000,318.452986,24.657649,-1.000000,0.991655,0.006069,0.388967,0.000000,0.000000,0.000000,0.000000,0.000000,0.000000,0.000000,
2176,2923,-1.84421922173021,6.05177640194024,-0.0156230759752134,0.000000,0.000000,0.000000,0.000000,0.000000,316.200145,24.616234,-1.000000,0.987856,0.006694,0.351212,0.000000,0.000000,0.000000,0.000000,0.000000,0.000000,0.000000,
2206,2923,-1.19239226895907,6.05339484040153,-0.00986910807637287,0.000000,0.000000,0.000000,0.000000,0.000000,316.154906,24.703243,-1.000000,0.990594,0.006115,0.326779,0.000000,0.000000,0.000000,0.000000,0.000000,0.000000,0.000000,
2011,2848,-5.41314219947975,4.41291236490578,-0.0197714561856515,0.000000,0.000000,0.000000,0.000000,0.000000,318.207190,24.265026,-1.000000,0.995344,0.005105,0.417942,0.000000,0.000000,0.000000,0.000000,0.000000,0.000000,0.000000,
2026,2848,-5.08881113720138,4.41336105020277,-0.0374116566977705,0.000000,0.000000,0.000000,0.000000,0.000000,317.964260,24.124991,-1.000000,0.995336,0.004993,0.579154,0.000000,0.000000,0.000000,0.000000,0.000000,0.000000,0.000000,
2236,2923,-0.541170408975123,6.05447181654083,-0.0152684652014159,0.000000,0.000000,0.000000,0.000000,0.000000,316.034214,24.659878,-1.000000,0.992997,0.005668,0.433009,0.000000,0.000000,0.000000,0.000000,0.000000,0.000000,0.000000,
2266,2923,0.111175519409084,6.05613640226228,-0.00712607976186064,0.000000,0.000000,0.000000,0.000000,0.000000,316.043716,24.765720,-1.000000,0.992561,0.006010,0.389629,0.000000,0.000000,0.000000,0.000000,0.000000,0.000000,0.000000,
2296,2923,0.76335269251037,6.05691825305657,-0.00393268084701504,0.000000,0.000000,0.000000,0.000000,0.000000,316.029780,24.753927,-1.000000,0.992764,0.005453,0.464240,0.000000,0.000000,0.000000,0.000000,0.000000,0.000000,0.000000,
2056,2893,-4.44344244330509,5.39320566682697,-0.0123177376892158,0.000000,0.000000,0.000000,0.000000,0.000000,317.262244,24.400546,-1.000000,0.992854,0.005679,0.326890,0.000000,0.000000,0.000000,0.000000,0.000000,0.000000,0.000000,
2056,2923,-4.44783490366443,6.04387875578838,-0.00741783563597664,0.000000,0.000000,0.000000,0.000000,0.000000,316.815684,24.347466,-1.000000,0.993021,0.005434,0.368255,0.000000,0.000000,0.000000,0.000000,0.000000,0.000000,0.000000,
2086,2923,-3.79725829661742,6.04613992435445,-0.0110752797187956,0.000000,0.000000,0.000000,0.000000,0.000000,316.622327,24.431380,-1.000000,0.991378,0.005841,0.347150,0.000000,0.000000,0.000000,0.000000,0.000000,0.000000,0.000000,
2116,2923,-3.14584891768522,6.04712011692903,-0.0041239152833441,0.000000,0.000000,0.000000,0.000000,0.000000,316.535353,24.471841,-1.000000,0.989535,0.006359,0.369813,0.000000,0.000000,0.000000,0.000000,0.000000,0.000000,0.000000,
2326,2923,1.41510121725672,6.05967331028551,-0.00868678612914664,0.000000,0.000000,0.000000,0.000000,0.000000,315.965889,24.865898,-1.000000,0.988124,0.006570,0.414700,0.000000,0.000000,0.000000,0.000000,0.000000,0.000000,0.000000,
2446,2893,4.02931475317181,5.41712072587116,-0.0321346265093325,0.000000,0.000000,0.000000,0.000000,0.000000,316.338669,25.075610,-1.000000,0.991818,0.005843,0.351474,0.000000,0.000000,0.000000,0.000000,0.000000,0.000000,0.000000,
2476,2878,4.68562073741818,5.09241063193323,-0.0295384065827307,0.000000,0.000000,0.000000,0.000000,0.000000,316.669536,25.080103,-1.000000,0.986389,0.007005,0.344229,0.000000,0.000000,0.000000,0.000000,0.000000,0.000000,0.000000,
2476,2893,4.68281544086587,5.41881067494467,-0.0266102852687027,0.000000,0.000000,0.000000,0.000000,0.000000,316.448904,25.156909,-1.000000,0.987101,0.006816,0.323580,0.000000,0.000000,0.000000,0.000000,0.000000,0.000000,0.000000,
2416,2863,3.38365550996511,4.76140527465195,-0.0158472210298441,0.000000,0.000000,0.000000,0.000000,0.000000,316.918911,24.935220,-1.000000,0.990069,0.006219,0.343616,0.000000,0.000000,0.000000,0.000000,0.000000,0.000000,0.000000,
2416,2893,3.37776839584578,5.41425509790736,-0.0157380034918901,0.000000,0.000000,0.000000,0.000000,0.000000,316.429933,25.044109,-1.000000,0.991068,0.006016,0.329461,0.000000,0.000000,0.000000,0.000000,0.000000,0.000000,0.000000,
2146,2923,-2.49455692088385,6.04871769775328,-0.0016221541327468,0.000000,0.000000,0.000000,0.000000,0.000000,316.428299,24.536183,-1.000000,0.986688,0.007007,0.368149,0.000000,0.000000,0.000000,0.000000,0.000000,0.000000,0.000000,
2491,2788,5.03071902208253,3.13397310488393,-0.0291337875325439,0.000000,0.000000,0.000000,0.000000,0.000000,318.181282,24.779190,-1.000000,0.987560,0.006832,0.317247,0.000000,0.000000,0.000000,0.000000,0.000000,0.000000,0.000000,
2506,2788,5.35761016306372,3.13412632678813,-0.0282761957728326,0.000000,0.000000,0.000000,0.000000,0.000000,318.232059,24.741104,-1.000000,0.990713,0.006361,0.366543,0.000000,0.000000,0.000000,0.000000,0.000000,0.000000,0.000000,
2386,2923,2.71930145345771,6.06462633455451,-0.0152566355841373,0.000000,0.000000,0.000000,0.000000,0.000000,315.915316,25.055942,-1.000000,0.990125,0.006326,0.349879,0.000000,0.000000,0.000000,0.000000,0.000000,0.000000,0.000000,
2416,2923,3.37204272498501,6.06677804142221,-0.0136173830218809,0.000000,0.000000,0.000000,0.000000,0.000000,315.957614,25.154341,-1.000000,0.992365,0.005830,0.313799,0.000000,0.000000,0.000000,0.000000,0.000000,0.000000,0.000000,
2026,2863,-5.09042973425452,4.74094391573522,-0.026087576542011,0.000000,0.000000,0.000000,0.000000,0.000000,317.814121,24.357109,-1.000000,0.992371,0.005806,0.336484,0.000000,0.000000,0.000000,0.000000,0.000000,0.000000,0.000000,
2491,2698,5.0490866230532,1.17272266669549,-0.030291194044537,0.000000,0.000000,0.000000,0.000000,0.000000,319.639375,24.424736,-1.000000,0.990415,0.006457,0.317902,0.000000,0.000000,0.000000,0.000000,0.000000,0.000000,0.000000,
2506,2698,5.37653431529762,1.17228476123532,-0.0247277729483812,0.000000,0.000000,0.000000,0.000000,0.000000,319.729998,24.370364,-1.000000,0.991440,0.006045,0.369640,0.000000,0.000000,0.000000,0.000000,0.000000,0.000000,0.000000,
2026,2878,-5.09243168464247,5.06632794338854,-0.0212549203104686,0.000000,0.000000,0.000000,0.000000,0.000000,317.610932,24.342537,-1.000000,0.988562,0.006594,0.340858,0.000000,0.000000,0.000000,0.000000,0.000000,0.000000,0.000000,
2011,2653,-5.38495032823804,0.174124412819204,-0.0375178777608767,0.000000,0.000000,0.000000,0.000000,0.000000,321.219068,24.425728,-1.000000,0.986445,0.007089,0.412528,0.000000,0.000000,0.000000,0.000000,0.000000,0.000000,0.000000,
2026,2653,-5.05868341720754,0.173828567579363,-0.0282126676031567,0.000000,0.000000,0.000000,0.000000,0.000000,321.201268,24.422379,-1.000000,0.990783,0.006064,0.407649,0.000000,0.000000,0.000000,0.000000,0.000000,0.000000,0.000000,
2041,2653,-4.73329976552769,0.174875460057891,-0.0342481001476926,0.000000,0.000000,0.000000,0.000000,0.000000,321.059559,24.413543,-1.000000,0.989570,0.006511,0.408375,0.000000,0.000000,0.000000,0.000000,0.000000,0.000000,0.000000,
2206,2413,-1.10330817270334,-5.05729968772329,0.010450245268828,0.000000,0.000000,0.000000,0.000000,0.000000,324.599759,24.209379,-1.000000,0.991314,0.006467,0.237374,0.000000,0.000000,0.000000,0.000000,0.000000,0.000000,0.000000,
2206,2443,-1.1104259519755,-4.40057412526274,-0.0183459764037934,0.000000,0.000000,0.000000,0.000000,0.000000,323.874766,24.116326,-1.000000,0.984172,0.007956,0.367652,0.000000,0.000000,0.000000,0.000000,0.000000,0.000000,0.000000,
2236,2413,-0.452907724187899,-5.05241715668573,-0.0319449441082043,0.000000,0.000000,0.000000,0.000000,0.000000,324.172468,24.132914,-1.000000,0.990873,0.006330,0.227527,0.000000,0.000000,0.000000,0.000000,0.000000,0.000000,0.000000,
2011,2863,-5.41548262445675,4.73942921053625,-0.0209997116244267,0.000000,0.000000,0.000000,0.000000,0.000000,317.953089,24.304890,-1.000000,0.992130,0.005952,0.365781,0.000000,0.000000,0.000000,0.000000,0.000000,0.000000,0.000000,
2041,2908,-4.77090020657942,5.71751423034472,-0.0081133007184917,0.000000,0.000000,0.000000,0.000000,0.000000,317.141449,24.339031,-1.000000,0.992209,0.005570,0.353114,0.000000,0.000000,0.000000,0.000000,0.000000,0.000000,0.000000,
2041,2923,-4.77309332783148,6.04249760607534,-0.00598793510954465,0.000000,0.000000,0.000000,0.000000,0.000000,316.915630,24.279207,-1.000000,0.992522,0.005488,0.404813,0.000000,0.000000,0.000000,0.000000,0.000000,0.000000,0.000000,
2041,2938,-4.77577881430006,6.36845151730896,-0.0118893169288299,0.000000,0.000000,0.000000,0.000000,0.000000,316.622348,24.255922,-1.000000,0.991200,0.005830,0.420245,0.000000,0.000000,0.000000,0.000000,0.000000,0.000000,0.000000,
2071,2938,-4.12453741175651,6.37027390473934,-0.00279192680216056,0.000000,0.000000,0.000000,0.000000,0.000000,316.526836,24.390893,-1.000000,0.991487,0.005731,0.352505,0.000000,0.000000,0.000000,0.000000,0.000000,0.000000,0.000000,
2221,2938,-0.869214609409841,6.37975616413059,-0.00958342349770192,0.000000,0.000000,0.000000,0.000000,0.000000,315.872851,24.713179,-1.000000,0.993151,0.005436,0.366596,0.000000,0.000000,0.000000,0.000000,0.000000,0.000000,0.000000,
2251,2938,-0.217410042086769,6.38060931906956,-0.0072483351361825,0.000000,0.000000,0.000000,0.000000,0.000000,315.825491,24.704009,-1.000000,0.994058,0.005146,0.443004,0.000000,0.000000,0.000000,0.000000,0.000000,0.000000,0.000000,
2041,2893,-4.76885024613536,5.39219719349403,-0.01257737540584,0.000000,0.000000,0.000000,0.000000,0.000000,317.347860,24.355165,-1.000000,0.991707,0.005709,0.345093,0.000000,0.000000,0.000000,0.000000,0.000000,0.000000,0.000000,
2281,2938,0.433944238800578,6.38352146947195,-0.0133353448477465,0.000000,0.000000,0.000000,0.000000,0.000000,315.724157,24.823669,-1.000000,0.991741,0.005893,0.390502,0.000000,0.000000,0.000000,0.000000,0.000000,0.000000,0.000000,
2311,2938,1.08604011202373,6.38522509529685,-0.0115446201403415,0.000000,0.000000,0.000000,0.000000,0.000000,315.706674,24.886440,-1.000000,0.989116,0.006322,0.394656,0.000000,0.000000,0.000000,0.000000,0.000000,0.000000,0.000000,
2011,2878,-5.41771829368408,5.06538408332852,-0.0204473705146029,0.000000,0.000000,0.000000,0.000000,0.000000,317.714005,24.310673,-1.000000,0.990763,0.006040,0.347842,0.000000,0.000000,0.000000,0.000000,0.000000,0.000000,0.000000,
2401,2938,3.04331838728592,6.39044924776148,-0.00705533690609172,0.000000,0.000000,0.000000,0.000000,0.000000,315.751672,25.071563,-1.000000,0.991484,0.006032,0.410317,0.000000,0.000000,0.000000,0.000000,0.000000,0.000000,0.000000,
2431,2908,3.70078215311987,5.74116619826324,-0.021152416375287,0.000000,0.000000,0.000000,0.000000,0.000000,316.160777,25.054113,-1.000000,0.991337,0.005971,0.395896,0.000000,0.000000,0.000000,0.000000,0.000000,0.000000,0.000000,
2431,2938,3.69537414474918,6.39359883381504,-0.0144968147848203,0.000000,0.000000,0.000000,0.000000,0.000000,315.726202,25.197457,-1.000000,0.991854,0.006073,0.351012,0.000000,0.000000,0.000000,0.000000,0.000000,0.000000,0.000000,
2461,2908,4.35399522385915,5.74359514813911,-0.0175330262332523,0.000000,0.000000,0.000000,0.000000,0.000000,316.245866,25.190256,-1.000000,0.988473,0.006613,0.317223,0.000000,0.000000,0.000000,0.000000,0.000000,0.000000,0.000000,
2491,2683,5.0522254680903,0.844921991662375,-0.0296380894606045,0.000000,0.000000,0.000000,0.000000,0.000000,319.889651,24.303360,-1.000000,0.990620,0.006325,0.380009,0.000000,0.000000,0.000000,0.000000,0.000000,0.000000,0.000000,
2506,2683,5.37886628311561,0.846238575044516,-0.0337947876581097,0.000000,0.000000,0.000000,0.000000,0.000000,319.898184,24.330365,-1.000000,0.990414,0.006448,0.348306,0.000000,0.000000,0.000000,0.000000,0.000000,0.000000,0.000000,
2101,2938,-3.4737834277232,6.37222460796147,-0.00419036296420927,0.000000,0.000000,0.000000,0.000000,0.000000,316.361046,24.462507,-1.000000,0.990613,0.006161,0.348255,0.000000,0.000000,0.000000,0.000000,0.000000,0.000000,0.000000,
2191,2398,-1.42782368646986,-5.38625801866287,0.0044922606253408,0.000000,0.000000,0.000000,0.000000,0.000000,324.835898,24.078133,-1.000000,0.986113,0.007673,0.396708,0.000000,0.000000,0.000000,0.000000,0.000000,0.000000,0.000000,
2191,2428,-1.43352107805788,-4.73017227777107,-0.00471078300040517,0.000000,0.000000,0.000000,0.000000,0.000000,324.274372,24.099347,-1.000000,0.986118,0.007460,0.407806,0.000000,0.000000,0.000000,0.000000,0.000000,0.000000,0.000000,
2221,2398,-0.775132536105605,-5.38350170777477,-0.00521011351486322,0.000000,0.000000,0.000000,0.000000,0.000000,324.672887,24.116094,-1.000000,0.991331,0.006307,0.266829,0.000000,0.000000,0.000000,0.000000,0.000000,0.000000,0.000000,
2251,2398,-0.12174125814234,-5.38407966766782,-0.00731427889178349,0.000000,0.000000,0.000000,0.000000,0.000000,324.592109,23.921359,-1.000000,0.989380,0.006795,0.369286,0.000000,0.000000,0.000000,0.000000,0.000000,0.000000,0.000000,
2011,2638,-5.38249941454068,-0.152242912482329,-0.0338327616412357,0.000000,0.000000,0.000000,0.000000,0.000000,321.492280,24.482818,-1.000000,0.986628,0.007043,0.366756,0.000000,0.000000,0.000000,0.000000,0.000000,0.000000,0.000000,
2026,2638,-5.05579951318966,-0.1537615668706,-0.0178690440851597,0.000000,0.000000,0.000000,0.000000,0.000000,321.530483,24.423919,-1.000000,0.990161,0.006316,0.415138,0.000000,0.000000,0.000000,0.000000,0.000000,0.000000,0.000000,
2041,2638,-4.73031075475248,-0.152775202308213,-0.0227395290226013,0.000000,0.000000,0.000000,0.000000,0.000000,321.398552,24.418592,-1.000000,0.989347,0.006523,0.410327,0.000000,0.000000,0.000000,0.000000,0.000000,0.000000,0.000000,
2491,2803,5.02759028196117,3.46043565776994,-0.0297820243270053,0.000000,0.000000,0.000000,0.000000,0.000000,317.931157,24.809442,-1.000000,0.987036,0.007179,0.345969,0.000000,0.000000,0.000000,0.000000,0.000000,0.000000,0.000000,
2506,2803,5.35411823414436,3.46138443013628,-0.0328512042776765,0.000000,0.000000,0.000000,0.000000,0.000000,317.948645,24.814449,-1.000000,0.986892,0.007489,0.354255,0.000000,0.000000,0.000000,0.000000,0.000000,0.000000,0.000000,
2191,2938,-1.52020304736228,6.37759686024825,-0.00256622504269899,0.000000,0.000000,0.000000,0.000000,0.000000,316.016338,24.666875,-1.000000,0.992465,0.005606,0.345607,0.000000,0.000000,0.000000,0.000000,0.000000,0.000000,0.000000,
2356,2923,2.06696333089881,6.0627503265147,-0.0139725910930792,0.000000,0.000000,0.000000,0.000000,0.000000,315.914834,25.002535,-1.000000,0.990911,0.005982,0.340632,0.000000,0.000000,0.000000,0.000000,0.000000,0.000000,0.000000,
2476,2683,4.72525011525191,0.844373999442446,-0.0299209024541938,0.000000,0.000000,0.000000,0.000000,0.000000,319.848023,24.310199,-1.000000,0.989696,0.006529,0.377759,0.000000,0.000000,0.000000,0.000000,0.000000,0.000000,0.000000,
2476,2698,4.7225033247233,1.17139840274437,-0.0262341702253366,0.000000,0.000000,0.000000,0.000000,0.000000,319.634441,24.395576,-1.000000,0.989183,0.006905,0.349199,0.000000,0.000000,0.000000,0.000000,0.000000,0.000000,0.000000,
2371,2938,2.3906266122487,6.38939840210638,-0.00963902264498984,0.000000,0.000000,0.000000,0.000000,0.000000,315.709728,25.066989,-1.000000,0.989889,0.006219,0.348063,0.000000,0.000000,0.000000,0.000000,0.000000,0.000000,0.000000,
2236,2953,-0.545663065722589,6.70636756618206,-0.00386253256948521,0.000000,0.000000,0.000000,0.000000,0.000000,315.640261,24.788417,-1.000000,0.992210,0.005727,0.345591,0.000000,0.000000,0.000000,0.000000,0.000000,0.000000,0.000000,
2266,2953,0.105907458679763,6.70819738475981,-0.0053201665658662,0.000000,0.000000,0.000000,0.000000,0.000000,315.569376,24.842363,-1.000000,0.988082,0.006686,0.362920,0.000000,0.000000,0.000000,0.000000,0.000000,0.000000,0.000000,
2206,2953,-1.1978369148339,6.70456957845565,-0.0134505248042274,0.000000,0.000000,0.000000,0.000000,0.000000,315.636296,24.659085,-1.000000,0.992242,0.005657,0.403366,0.000000,0.000000,0.000000,0.000000,0.000000,0.000000,0.000000,
2026,2908,-5.0959530007454,5.71657676882977,-0.00344026539136166,0.000000,0.000000,0.000000,0.000000,0.000000,317.272474,24.334979,-1.000000,0.992593,0.005398,0.327888,0.000000,0.000000,0.000000,0.000000,0.000000,0.000000,0.000000,
2026,2923,-5.09833444990796,6.04209895108383,-0.00481598354002699,0.000000,0.000000,0.000000,0.000000,0.000000,317.017255,24.299074,-1.000000,0.992682,0.005450,0.353514,0.000000,0.000000,0.000000,0.000000,0.000000,0.000000,0.000000,
2026,2938,-5.1007539742754,6.36801870080204,-0.00676763877231679,0.000000,0.000000,0.000000,0.000000,0.000000,316.756953,24.300036,-1.000000,0.990937,0.005961,0.342220,0.000000,0.000000,0.000000,0.000000,0.000000,0.000000,0.000000,
2176,2953,-1.8487938069557,6.70243697394275,-0.00790467914509918,0.000000,0.000000,0.000000,0.000000,0.000000,315.776255,24.603303,-1.000000,0.992147,0.005468,0.387327,0.000000,0.000000,0.000000,0.000000,0.000000,0.000000,0.000000,
2026,2893,-5.09432030430634,5.39169986560141,-0.0144908207115577,0.000000,0.000000,0.000000,0.000000,0.000000,317.423763,24.344450,-1.000000,0.992760,0.005343,0.328681,0.000000,0.000000,0.000000,0.000000,0.000000,0.000000,0.000000,
2416,2953,3.36596528008173,6.71931520787227,-0.015883202245675,0.000000,0.000000,0.000000,0.000000,0.000000,315.448265,25.251628,-1.000000,0.992112,0.006197,0.310889,0.000000,0.000000,0.000000,0.000000,0.000000,0.000000,0.000000,
2446,2923,4.0244860586456,6.06917347703592,-0.0178502193875261,0.000000,0.000000,0.000000,0.000000,0.000000,315.968196,25.232173,-1.000000,0.993520,0.005664,0.298314,0.000000,0.000000,0.000000,0.000000,0.000000,0.000000,0.000000,
2446,2953,4.01840371543599,6.72098445606591,-0.0189614477798727,0.000000,0.000000,0.000000,0.000000,0.000000,315.468725,25.271931,-1.000000,0.993462,0.005673,0.361714,0.000000,0.000000,0.000000,0.000000,0.000000,0.000000,0.000000,
2296,2953,0.757886781759574,6.71063081258781,-0.00340328979797277,0.000000,0.000000,0.000000,0.000000,0.000000,315.543808,24.974144,-1.000000,0.988585,0.006468,0.302574,0.000000,0.000000,0.000000,0.000000,0.000000,0.000000,0.000000,
2056,2953,-4.45211970414379,6.6946549278944,-0.000614403857639445,0.000000,0.000000,0.000000,0.000000,0.000000,316.384615,24.332571,-1.000000,0.992242,0.005502,0.371034,0.000000,0.000000,0.000000,0.000000,0.000000,0.000000,0.000000,
2086,2953,-3.80154409552875,6.69685579036945,-0.0028953198350905,0.000000,0.000000,0.000000,0.000000,0.000000,316.202636,24.422410,-1.000000,0.992174,0.005670,0.353079,0.000000,0.000000,0.000000,0.000000,0.000000,0.000000,0.000000,
2386,2953,2.71378188902031,6.71643487549664,-0.0117621662903389,0.000000,0.000000,0.000000,0.000000,0.000000,315.454661,25.125824,-1.000000,0.989132,0.006526,0.365278,0.000000,0.000000,0.000000,0.000000,0.000000,0.000000,0.000000,
2206,2383,-1.099665316366,-5.7119956748211,-0.0108672479651091,0.000000,0.000000,0.000000,0.000000,0.000000,324.906887,24.033742,-1.000000,0.986382,0.007285,0.377322,0.000000,0.000000,0.000000,0.000000,0.000000,0.000000,0.000000,
2236,2383,-0.445505085835208,-5.71262676277534,-0.00157486471670154,0.000000,0.000000,0.000000,0.000000,0.000000,324.912226,23.943326,-1.000000,0.987824,0.007346,0.370701,0.000000,0.000000,0.000000,0.000000,0.000000,0.000000,0.000000,
2026,2953,-5.10247729824798,6.6929418397725,0.00289276775401959,0.000000,0.000000,0.000000,0.000000,0.000000,316.593830,24.294854,-1.000000,0.992505,0.005429,0.336975,0.000000,0.000000,0.000000,0.000000,0.000000,0.000000,0.000000,
2041,2953,-4.77755315097546,6.69392683363426,-0.00276012475268317,0.000000,0.000000,0.000000,0.000000,0.000000,316.454500,24.298485,-1.000000,0.993042,0.005217,0.369139,0.000000,0.000000,0.000000,0.000000,0.000000,0.000000,0.000000,
2341,2938,1.73835314746264,6.38722993852132,-0.00918803572932347,0.000000,0.000000,0.000000,0.000000,0.000000,315.711236,24.979691,-1.000000,0.989653,0.006093,0.368287,0.000000,0.000000,0.000000,0.000000,0.000000,0.000000,0.000000,
2011,2893,-5.41975619470346,5.390777826301,-0.0165391342549697,0.000000,0.000000,0.000000,0.000000,0.000000,317.503064,24.293463,-1.000000,0.992764,0.005306,0.352661,0.000000,0.000000,0.000000,0.000000,0.000000,0.000000,0.000000,
2476,2668,4.72859488229542,0.516008483784191,-0.026512021319661,0.000000,0.000000,0.000000,0.000000,0.000000,320.121488,24.164669,-1.000000,0.988309,0.006714,0.466292,0.000000,0.000000,0.000000,0.000000,0.000000,0.000000,0.000000,
2491,2668,5.05591116423559,0.516870503540716,-0.0224760338665533,0.000000,0.000000,0.000000,0.000000,0.000000,320.194338,24.217750,-1.000000,0.987497,0.007068,0.406281,0.000000,0.000000,0.000000,0.000000,0.000000,0.000000,0.000000,
2506,2668,5.38302142362547,0.517385306781179,-0.0215211411048699,0.000000,0.000000,0.000000,0.000000,0.000000,320.246040,24.213136,-1.000000,0.986769,0.007532,0.403954,0.000000,0.000000,0.000000,0.000000,0.000000,0.000000,0.000000,
2116,2953,-3.15091466376767,6.69915087376092,-0.0066301856728046,0.000000,0.000000,0.000000,0.000000,0.000000,316.025756,24.509525,-1.000000,0.991684,0.005841,0.337833,0.000000,0.000000,0.000000,0.000000,0.000000,0.000000,0.000000,
2011,2623,-5.3799496050092,-0.479507931424102,-0.0285005746123375,0.000000,0.000000,0.000000,0.000000,0.000000,321.779536,24.476820,-1.000000,0.992168,0.005867,0.384029,0.000000,0.000000,0.000000,0.000000,0.000000,0.000000,0.000000,
2026,2623,-5.05410254763056,-0.478953176978948,-0.027143110597649,0.000000,0.000000,0.000000,0.000000,0.000000,321.695317,24.484408,-1.000000,0.987533,0.007020,0.364008,0.000000,0.000000,0.000000,0.000000,0.000000,0.000000,0.000000,
2041,2623,-4.72808677145573,-0.479180313711147,-0.0237241268334287,0.000000,0.000000,0.000000,0.000000,0.000000,321.632945,24.437738,-1.000000,0.987789,0.006775,0.398016,0.000000,0.000000,0.000000,0.000000,0.000000,0.000000,0.000000,
2401,2848,3.05992476587511,4.43393156100744,-0.0187033068654614,0.000000,0.000000,0.000000,0.000000,0.000000,317.123185,24.826512,-1.000000,0.990910,0.006159,0.384926,0.000000,0.000000,0.000000,0.000000,0.000000,0.000000,0.000000,
2356,2953,2.06125715582089,6.71482426203488,-0.0141096611154694,0.000000,0.000000,0.000000,0.000000,0.000000,315.423814,25.070528,-1.000000,0.990131,0.006132,0.349202,0.000000,0.000000,0.000000,0.000000,0.000000,0.000000,0.000000,
2476,2623,4.73811151814276,-0.464445697982825,-0.0221314633662928,0.000000,0.000000,0.000000,0.000000,0.000000,320.890100,24.135406,-1.000000,0.990775,0.006216,0.323779,0.000000,0.000000,0.000000,0.000000,0.000000,0.000000,0.000000,
2476,2638,4.73492145210926,-0.137676545095957,-0.0238121092854158,0.000000,0.000000,0.000000,0.000000,0.000000,320.632167,24.133960,-1.000000,0.990810,0.006165,0.382639,0.000000,0.000000,0.000000,0.000000,0.000000,0.000000,0.000000,
2461,2938,4.34797491101778,6.39622340061467,-0.0172239724436167,0.000000,0.000000,0.000000,0.000000,0.000000,315.757959,25.307035,-1.000000,0.990977,0.006297,0.308490,0.000000,0.000000,0.000000,0.000000,0.000000,0.000000,0.000000,
2431,2968,3.68912309376232,7.04565473603738,-0.0183014581217549,0.000000,0.000000,0.000000,0.000000,0.000000,315.203977,25.248823,-1.000000,0.995521,0.005005,0.398556,0.000000,0.000000,0.000000,0.000000,0.000000,0.000000,0.000000,
2461,2968,4.3427549222953,7.04737305139668,-0.0072783633072504,0.000000,0.000000,0.000000,0.000000,0.000000,315.351145,25.370992,-1.000000,0.990235,0.006453,0.351876,0.000000,0.000000,0.000000,0.000000,0.000000,0.000000,0.000000,
2026,2968,-5.10467142432396,7.01795372643462,0.00473939724111005,0.000000,0.000000,0.000000,0.000000,0.000000,316.365460,24.246689,-1.000000,0.992577,0.005321,0.374669,0.000000,0.000000,0.000000,0.000000,0.000000,0.000000,0.000000,
2041,2968,-4.77967690316867,7.01861684763958,0.000610182845605323,0.000000,0.000000,0.000000,0.000000,0.000000,316.238952,24.232004,-1.000000,0.993201,0.005119,0.427457,0.000000,0.000000,0.000000,0.000000,0.000000,0.000000,0.000000,
2011,2908,-5.4215401758788,5.71608427637373,-0.00829932343623341,0.000000,0.000000,0.000000,0.000000,0.000000,317.328170,24.303042,-1.000000,0.992923,0.005208,0.330393,0.000000,0.000000,0.000000,0.000000,0.000000,0.000000,0.000000,
2011,2923,-5.4235460957365,6.04132754902405,-0.00377439549498604,0.000000,0.000000,0.000000,0.000000,0.000000,317.122283,24.283466,-1.000000,0.992845,0.005132,0.337452,0.000000,0.000000,0.000000,0.000000,0.000000,0.000000,0.000000,
2011,2938,-5.42603037255467,6.36711163015456,-0.00727022988291992,0.000000,0.000000,0.000000,0.000000,0.000000,316.849220,24.260656,-1.000000,0.993452,0.005243,0.347661,0.000000,0.000000,0.000000,0.000000,0.000000,0.000000,0.000000,
2011,2953,-5.42791166259468,6.69237433128065,-0.00055346292339209,0.000000,0.000000,0.000000,0.000000,0.000000,316.661424,24.265823,-1.000000,0.994728,0.004739,0.329865,0.000000,0.000000,0.000000,0.000000,0.000000,0.000000,0.000000,
2011,2968,-5.43009085476784,7.01761902494899,0.00116705411954854,0.000000,0.000000,0.000000,0.000000,0.000000,316.431920,24.238066,-1.000000,0.994936,0.004594,0.345173,0.000000,0.000000,0.000000,0.000000,0.000000,0.000000,0.000000,
2071,2968,-4.12972818275565,7.02195713031421,-0.00972970437993581,0.000000,0.000000,0.000000,0.000000,0.000000,315.980504,24.372416,-1.000000,0.990971,0.005832,0.363391,0.000000,0.000000,0.000000,0.000000,0.000000,0.000000,0.000000,
2191,2968,-1.5251205546593,7.02866613090002,0.000838637335334624,0.000000,0.000000,0.000000,0.000000,0.000000,315.556028,24.668292,-1.000000,0.991433,0.005775,0.372038,0.000000,0.000000,0.000000,0.000000,0.000000,0.000000,0.000000,
2221,2968,-0.873984609483351,7.03118042728978,-0.00271664526906079,0.000000,0.000000,0.000000,0.000000,0.000000,315.441133,24.773253,-1.000000,0.989973,0.006251,0.343201,0.000000,0.000000,0.000000,0.000000,0.000000,0.000000,0.000000,
2251,2968,-0.222419899129051,7.0334602556769,-0.00242393436599286,0.000000,0.000000,0.000000,0.000000,0.000000,315.375875,24.881950,-1.000000,0.993572,0.005319,0.310286,0.000000,0.000000,0.000000,0.000000,0.000000,0.000000,0.000000,
2101,2968,-3.47831989382505,7.02345606258601,0.000820100570877003,0.000000,0.000000,0.000000,0.000000,0.000000,315.914448,24.486516,-1.000000,0.991030,0.005960,0.325431,0.000000,0.000000,0.000000,0.000000,0.000000,0.000000,0.000000,
2011,2608,-5.37839530739496,-0.804372235189696,-0.0397996154588327,0.000000,0.000000,0.000000,0.000000,0.000000,321.927277,24.553492,-1.000000,0.991940,0.006079,0.319048,0.000000,0.000000,0.000000,0.000000,0.000000,0.000000,0.000000,
2026,2608,-5.05245351035953,-0.804114762540387,-0.0371747866450391,0.000000,0.000000,0.000000,0.000000,0.000000,321.853767,24.544472,-1.000000,0.987232,0.007002,0.313365,0.000000,0.000000,0.000000,0.000000,0.000000,0.000000,0.000000,
2161,2938,-2.17176311712479,6.37588759659,-0.00617764841973667,0.000000,0.000000,0.000000,0.000000,0.000000,316.088239,24.585843,-1.000000,0.989075,0.006594,0.359551,0.000000,0.000000,0.000000,0.000000,0.000000,0.000000,0.000000,
2161,2968,-2.1765187530323,7.02734340550966,-0.00172354329856717,0.000000,0.000000,0.000000,0.000000,0.000000,315.636623,24.629409,-1.000000,0.993375,0.005303,0.334681,0.000000,0.000000,0.000000,0.000000,0.000000,0.000000,0.000000,
2401,2968,3.03815528343342,7.04286766662053,0.00158291820815748,0.000000,0.000000,0.000000,0.000000,0.000000,315.333523,25.240502,-1.000000,0.995173,0.005313,0.330952,0.000000,0.000000,0.000000,0.000000,0.000000,0.000000,0.000000,
2131,2938,-2.82232975547756,6.37392015135585,0.00278885100425441,0.000000,0.000000,0.000000,0.000000,0.000000,316.282565,24.568456,-1.000000,0.992513,0.005855,0.309602,0.000000,0.000000,0.000000,0.000000,0.000000,0.000000,0.000000,
2131,2968,-2.82730627660552,7.02501290695734,0.00243957557597696,0.000000,0.000000,0.000000,0.000000,0.000000,315.791194,24.542997,-1.000000,0.994719,0.004864,0.345097,0.000000,0.000000,0.000000,0.000000,0.000000,0.000000,0.000000,
2476,2653,4.73199607213396,0.189351441891425,-0.0222778084942661,0.000000,0.000000,0.000000,0.000000,0.000000,320.400855,24.188116,-1.000000,0.990552,0.006235,0.385594,0.000000,0.000000,0.000000,0.000000,0.000000,0.000000,0.000000,
2491,2623,5.06594422201437,-0.466278208865333,-0.0131469937418274,0.000000,0.000000,0.000000,0.000000,0.000000,321.005781,23.983630,-1.000000,0.994074,0.005876,0.461858,0.000000,0.000000,0.000000,0.000000,0.000000,0.000000,0.000000,
2491,2638,5.06156959838765,-0.136487343755988,-0.0283841691883708,0.000000,0.000000,0.000000,0.000000,0.000000,320.633042,24.144619,-1.000000,0.989596,0.006564,0.360713,0.000000,0.000000,0.000000,0.000000,0.000000,0.000000,0.000000,
2491,2653,5.05870165351154,0.190727310880781,-0.0258466474129477,0.000000,0.000000,0.000000,0.000000,0.000000,320.409970,24.224800,-1.000000,0.988314,0.006972,0.339757,0.000000,0.000000,0.000000,0.000000,0.000000,0.000000,0.000000,
2461,2608,4.41455457442813,-0.79321796691351,-0.0169414517793598,0.000000,0.000000,0.000000,0.000000,0.000000,321.142917,24.048017,-1.000000,0.985365,0.007380,0.369428,0.000000,0.000000,0.000000,0.000000,0.000000,0.000000,0.000000,
2476,2608,4.74108976664408,-0.792110792571329,-0.0230834000262234,0.000000,0.000000,0.000000,0.000000,0.000000,321.126441,24.036879,-1.000000,0.984531,0.007314,0.365050,0.000000,0.000000,0.000000,0.000000,0.000000,0.000000,0.000000,
2491,2608,5.06950736099685,-0.793470438564739,-0.00737851080208429,0.000000,0.000000,0.000000,0.000000,0.000000,321.297997,23.986775,-1.000000,0.994075,0.006039,0.398901,0.000000,0.000000,0.000000,0.000000,0.000000,0.000000,0.000000,
2341,2968,1.73287924177856,7.03995443148035,-0.00686757916656688,0.000000,0.000000,0.000000,0.000000,0.000000,315.240350,25.131856,-1.000000,0.997753,0.004130,0.288062,0.000000,0.000000,0.000000,0.000000,0.000000,0.000000,0.000000,
2371,2968,2.38483526904109,7.04246986717901,-0.0101588703827247,0.000000,0.000000,0.000000,0.000000,0.000000,315.214774,25.232388,-1.000000,0.989869,0.006686,0.263397,0.000000,0.000000,0.000000,0.000000,0.000000,0.000000,0.000000,
2326,2953,1.40975206006822,6.71237061074586,-0.00536207445577475,0.000000,0.000000,0.000000,0.000000,0.000000,315.503644,25.013800,-1.000000,0.989080,0.006656,0.334447,0.000000,0.000000,0.000000,0.000000,0.000000,0.000000,0.000000,
2326,2983,1.40437528239461,7.36390385414228,-0.00243570845793784,0.000000,0.000000,0.000000,0.000000,0.000000,315.038335,25.067659,-1.000000,0.997154,0.004327,0.348191,0.000000,0.000000,0.000000,0.000000,0.000000,0.000000,0.000000,
2356,2983,2.05621382463844,7.36640996289646,-0.00562057763437451,0.000000,0.000000,0.000000,0.000000,0.000000,315.004854,25.169352,-1.000000,0.988899,0.006625,0.326651,0.000000,0.000000,0.000000,0.000000,0.000000,0.000000,0.000000,
2416,2983,3.36083976166063,7.36968474372222,-0.0063617579941706,0.000000,0.000000,0.000000,0.000000,0.000000,315.038320,25.247296,-1.000000,0.994549,0.005442,0.409259,0.000000,0.000000,0.000000,0.000000,0.000000,0.000000,0.000000,
2446,2983,4.01278322791046,7.37326562079166,-0.014367784829119,0.000000,0.000000,0.000000,0.000000,0.000000,315.016432,25.411096,-1.000000,0.991506,0.006142,0.325546,0.000000,0.000000,0.000000,0.000000,0.000000,0.000000,0.000000,
2386,2983,2.70828806907292,7.3683633476334,-0.00790890353277973,0.000000,0.000000,0.000000,0.000000,0.000000,314.996627,25.224972,-1.000000,0.989750,0.006693,0.351372,0.000000,0.000000,0.000000,0.000000,0.000000,0.000000,0.000000,
2011,2983,-5.43278678581194,7.34360509578354,-0.00577427359951344,0.000000,0.000000,0.000000,0.000000,0.000000,316.129771,24.223153,-1.000000,0.992164,0.005302,0.347373,0.000000,0.000000,0.000000,0.000000,0.000000,0.000000,0.000000,
2026,2983,-5.10717392250094,7.34358927226733,0.0015081754203834,0.000000,0.000000,0.000000,0.000000,0.000000,316.094370,24.225019,-1.000000,0.991880,0.005631,0.385890,0.000000,0.000000,0.000000,0.000000,0.000000,0.000000,0.000000,
2116,2983,-3.15468798805375,7.34848084978627,0.0108706200973643,0.000000,0.000000,0.000000,0.000000,0.000000,315.684076,24.453004,-1.000000,0.994106,0.005098,0.399685,0.000000,0.000000,0.000000,0.000000,0.000000,0.000000,0.000000,
2146,2953,-2.49981748713519,6.70063888445769,-0.0055298275469795,0.000000,0.000000,0.000000,0.000000,0.000000,315.906916,24.554909,-1.000000,0.991696,0.005854,0.364140,0.000000,0.000000,0.000000,0.000000,0.000000,0.000000,0.000000,
2146,2983,-2.50466944154157,7.35166592999729,-0.00319619563862261,0.000000,0.000000,0.000000,0.000000,0.000000,315.437711,24.551864,-1.000000,0.994902,0.004848,0.381530,0.000000,0.000000,0.000000,0.000000,0.000000,0.000000,0.000000,
2476,2593,4.74442676257965,-1.11968690580272,-0.0197010130340232,0.000000,0.000000,0.000000,0.000000,0.000000,321.398825,23.988638,-1.000000,0.983556,0.007492,0.355880,0.000000,0.000000,0.000000,0.000000,0.000000,0.000000,0.000000,
2491,2593,5.07215771003629,-1.11985891564193,-0.0124457320603142,0.000000,0.000000,0.000000,0.000000,0.000000,321.499263,23.975364,-1.000000,0.994390,0.005840,0.350974,0.000000,0.000000,0.000000,0.000000,0.000000,0.000000,0.000000,
2506,2593,5.39820715674534,-1.11703363298118,-0.0255058012199925,0.000000,0.000000,0.000000,0.000000,0.000000,321.432964,24.061159,-1.000000,0.993996,0.006047,0.247604,0.000000,0.000000,0.000000,0.000000,0.000000,0.000000,0.000000,
2506,2608,5.39539974284397,-0.791167976700848,-0.0220771339247676,0.000000,0.000000,0.000000,0.000000,0.000000,321.218246,24.011554,-1.000000,0.993625,0.006250,0.358971,0.000000,0.000000,0.000000,0.000000,0.000000,0.000000,0.000000,
2506,2623,5.39293572360017,-0.466037002561798,-0.0146479734563059,0.000000,0.000000,0.000000,0.000000,0.000000,321.037245,23.932754,-1.000000,0.994339,0.005775,0.499371,0.000000,0.000000,0.000000,0.000000,0.000000,0.000000,0.000000,
2506,2638,5.38963173531416,-0.137510998936257,-0.0168643229210943,0.000000,0.000000,0.000000,0.000000,0.000000,320.773843,24.087859,-1.000000,0.992044,0.006327,0.405880,0.000000,0.000000,0.000000,0.000000,0.000000,0.000000,0.000000,
2236,2983,-0.55029568294319,7.35741120013638,0.00558355630784035,0.000000,0.000000,0.000000,0.000000,0.000000,315.230065,24.838680,-1.000000,0.992486,0.005672,0.335971,0.000000,0.000000,0.000000,0.000000,0.000000,0.000000,0.000000,
2266,2983,0.100493742793411,7.36006584152995,-0.00548338338262511,0.000000,0.000000,0.000000,0.000000,0.000000,315.078348,24.904059,-1.000000,0.992853,0.005764,0.351126,0.000000,0.000000,0.000000,0.000000,0.000000,0.000000,0.000000,
2176,2983,-1.85370716877593,7.35409779324559,-0.00504904832263264,0.000000,0.000000,0.000000,0.000000,0.000000,315.310956,24.663644,-1.000000,0.992376,0.005443,0.350161,0.000000,0.000000,0.000000,0.000000,0.000000,0.000000,0.000000,
2041,2983,-4.78190544792366,7.34463847891884,0.00235521721452869,0.000000,0.000000,0.000000,0.000000,0.000000,316.009124,24.280468,-1.000000,0.992336,0.005423,0.370533,0.000000,0.000000,0.000000,0.000000,0.000000,0.000000,0.000000,
2056,2983,-4.45681447341985,7.34577772947517,-0.000321276606200627,0.000000,0.000000,0.000000,0.000000,0.000000,315.898764,24.319791,-1.000000,0.990211,0.005874,0.371579,0.000000,0.000000,0.000000,0.000000,0.000000,0.000000,0.000000,
2011,2593,-5.37516908661864,-1.13315289433377,-0.023047916005055,0.000000,0.000000,0.000000,0.000000,0.000000,322.309996,24.517051,-1.000000,0.987162,0.007376,0.366325,0.000000,0.000000,0.000000,0.000000,0.000000,0.000000,0.000000,
2026,2593,-5.04985019951659,-1.13161009891385,-0.0313962355409103,0.000000,0.000000,0.000000,0.000000,0.000000,322.144711,24.530713,-1.000000,0.988874,0.006662,0.336003,0.000000,0.000000,0.000000,0.000000,0.000000,0.000000,0.000000,
2206,2983,-1.20237521908816,7.35634458530798,-0.00380904753563982,0.000000,0.000000,0.000000,0.000000,0.000000,315.227471,24.778243,-1.000000,0.992301,0.005505,0.315948,0.000000,0.000000,0.000000,0.000000,0.000000,0.000000,0.000000,
2086,2983,-3.80616218666447,7.34767513098471,0.00014582452894274,0.000000,0.000000,0.000000,0.000000,0.000000,315.739711,24.402193,-1.000000,0.993188,0.005289,0.369944,0.000000,0.000000,0.000000,0.000000,0.000000,0.000000,0.000000,
2476,2923,4.6772435425112,6.07121820733045,-0.0203166237241135,0.000000,0.000000,0.000000,0.000000,0.000000,316.011273,25.289091,-1.000000,0.986883,0.007038,0.303429,0.000000,0.000000,0.000000,0.000000,0.000000,0.000000,0.000000,
2476,2938,4.67457301735509,6.39679963013482,-0.0158213820432138,0.000000,0.000000,0.000000,0.000000,0.000000,315.803948,25.313078,-1.000000,0.989538,0.006341,0.335531,0.000000,0.000000,0.000000,0.000000,0.000000,0.000000,0.000000,
2476,2953,4.67192346942221,6.72241874807242,-0.011070602905022,0.000000,0.000000,0.000000,0.000000,0.000000,315.598669,25.345894,-1.000000,0.988963,0.006524,0.358814,0.000000,0.000000,0.000000,0.000000,0.000000,0.000000,0.000000,
2476,2968,4.66950725268281,7.04854953214815,-0.00347655697578375,0.000000,0.000000,0.000000,0.000000,0.000000,315.416855,25.449012,-1.000000,0.990219,0.006355,0.311465,0.000000,0.000000,0.000000,0.000000,0.000000,0.000000,0.000000,
2476,2983,4.66586070149578,7.37550183697486,-0.0106492311787747,0.000000,0.000000,0.000000,0.000000,0.000000,315.110916,25.529923,-1.000000,0.989955,0.006380,0.286501,0.000000,0.000000,0.000000,0.000000,0.000000,0.000000,0.000000,
2506,2653,5.38565589749214,0.19158073690452,-0.0269895863324336,0.000000,0.000000,0.000000,0.000000,0.000000,320.444006,24.233650,-1.000000,0.988130,0.007327,0.321813,0.000000,0.000000,0.000000,0.000000,0.000000,0.000000,0.000000,
2281,2428,0.526706244433008,-4.72839401956693,-0.0053303941148215,0.000000,0.000000,0.000000,0.000000,0.000000,324.077040,23.893860,-1.000000,0.988762,0.007084,0.362893,0.000000,0.000000,0.000000,0.000000,0.000000,0.000000,0.000000,
2311,2968,1.08178260051104,7.03713111735218,0.00576743902280441,0.000000,0.000000,0.000000,0.000000,0.000000,315.361648,25.066260,-1.000000,0.997431,0.004195,0.277700,0.000000,0.000000,0.000000,0.000000,0.000000,0.000000,0.000000,
2311,2998,1.07660978992249,7.68749656590835,0.0107564494696248,0.000000,0.000000,0.000000,0.000000,0.000000,314.914092,25.032647,-1.000000,0.996458,0.004776,0.374297,0.000000,0.000000,0.000000,0.000000,0.000000,0.000000,0.000000,
2341,2998,1.72777420966256,7.69066787012573,0.000216520148399013,0.000000,0.000000,0.000000,0.000000,0.000000,314.809993,25.147124,-1.000000,0.997261,0.004503,0.344617,0.000000,0.000000,0.000000,0.000000,0.000000,0.000000,0.000000,
2131,2998,-2.83206828794176,7.67502491232941,0.00543328435418289,0.000000,0.000000,0.000000,0.000000,0.000000,315.327911,24.457430,-1.000000,0.994461,0.005154,0.440589,0.000000,0.000000,0.000000,0.000000,0.000000,0.000000,0.000000,
2161,2998,-2.18135344707925,7.67835298181153,0.00162253571403426,0.000000,0.000000,0.000000,0.000000,0.000000,315.175651,24.639790,-1.000000,0.993298,0.005599,0.342905,0.000000,0.000000,0.000000,0.000000,0.000000,0.000000,0.000000,
2401,2998,3.03190190067925,7.69555542450574,-0.00351783295576524,0.000000,0.000000,0.000000,0.000000,0.000000,314.799975,25.355519,-1.000000,0.989943,0.006539,0.305591,0.000000,0.000000,0.000000,0.000000,0.000000,0.000000,0.000000,
2431,2998,3.68455370736239,7.69712538791124,-0.00129727716057459,0.000000,0.000000,0.000000,0.000000,0.000000,314.855884,25.404887,-1.000000,0.985802,0.007218,0.340730,0.000000,0.000000,0.000000,0.000000,0.000000,0.000000,0.000000,
2476,2578,4.74726210109932,-1.44661201724622,-0.0223105236306083,0.000000,0.000000,0.000000,0.000000,0.000000,321.620780,23.953039,-1.000000,0.983246,0.007762,0.334027,0.000000,0.000000,0.000000,0.000000,0.000000,0.000000,0.000000,
2491,2578,5.0750825089755,-1.44730172246192,-0.0143282466417531,0.000000,0.000000,0.000000,0.000000,0.000000,321.727584,23.898971,-1.000000,0.982172,0.008165,0.367743,0.000000,0.000000,0.000000,0.000000,0.000000,0.000000,0.000000,
2506,2578,5.40205449264795,-1.44613008268922,-0.0169120727870791,0.000000,0.000000,0.000000,0.000000,0.000000,321.749639,23.923358,-1.000000,0.987844,0.007458,0.323373,0.000000,0.000000,0.000000,0.000000,0.000000,0.000000,0.000000,
2101,2998,-3.48331930933302,7.6747428627463,-0.00130458689204715,0.000000,0.000000,0.000000,0.000000,0.000000,315.407961,24.482535,-1.000000,0.993295,0.005326,0.330534,0.000000,0.000000,0.000000,0.000000,0.000000,0.000000,0.000000,
2071,2998,-4.13288895220884,7.67119258921112,0.0159780271126806,0.000000,0.000000,0.000000,0.000000,0.000000,315.707309,24.368227,-1.000000,0.993270,0.005132,0.359478,0.000000,0.000000,0.000000,0.000000,0.000000,0.000000,0.000000,
2251,2998,-0.227340061562305,7.68379164177912,0.00357666151563762,0.000000,0.000000,0.000000,0.000000,0.000000,314.937027,24.851292,-1.000000,0.992042,0.005828,0.386044,0.000000,0.000000,0.000000,0.000000,0.000000,0.000000,0.000000,
2281,2968,0.429179673277275,7.03549342582262,-0.00395200421729669,0.000000,0.000000,0.000000,0.000000,0.000000,315.312939,24.954099,-1.000000,0.990164,0.006130,0.314022,0.000000,0.000000,0.000000,0.000000,0.000000,0.000000,0.000000,
2281,2998,0.423905215831013,7.68674862139173,-0.00154053043854674,0.000000,0.000000,0.000000,0.000000,0.000000,314.843502,24.985390,-1.000000,0.990222,0.006079,0.336870,0.000000,0.000000,0.000000,0.000000,0.000000,0.000000,0.000000,
2221,2998,-0.878995052195098,7.6821767208563,0.000763811054184771,0.000000,0.000000,0.000000,0.000000,0.000000,314.981025,24.785725,-1.000000,0.991507,0.005903,0.366964,0.000000,0.000000,0.000000,0.000000,0.000000,0.000000,0.000000,
2191,2998,-1.53042933790368,7.68030040214096,-0.00136073379354684,0.000000,0.000000,0.000000,0.000000,0.000000,315.048308,24.699418,-1.000000,0.992135,0.005764,0.368266,0.000000,0.000000,0.000000,0.000000,0.000000,0.000000,0.000000,
2026,2998,-5.10914603565573,7.66903480511656,0.00716013752315803,0.000000,0.000000,0.000000,0.000000,0.000000,315.897347,24.250533,-1.000000,0.992446,0.005419,0.349852,0.000000,0.000000,0.000000,0.000000,0.000000,0.000000,0.000000,
2041,2998,-4.78400679455636,7.67023927983806,0.00621333969178295,0.000000,0.000000,0.000000,0.000000,0.000000,315.797039,24.308424,-1.000000,0.990714,0.005847,0.334305,0.000000,0.000000,0.000000,0.000000,0.000000,0.000000,0.000000,
2011,2998,-5.43453504361265,7.66844511225422,0.00329783299514474,0.000000,0.000000,0.000000,0.000000,0.000000,315.961574,24.216294,-1.000000,0.992623,0.005267,0.341394,0.000000,0.000000,0.000000,0.000000,0.000000,0.000000,0.000000,
2461,2998,4.33700661733069,7.69866592628915,-0.00374151147872226,0.000000,0.000000,0.000000,0.000000,0.000000,314.890307,25.418608,-1.000000,0.990167,0.006266,0.411703,0.000000,0.000000,0.000000,0.000000,0.000000,0.000000,0.000000,
2491,2953,4.99799466279155,6.72420516386575,-0.0161904266681177,0.000000,0.000000,0.000000,0.000000,0.000000,315.593798,25.417617,-1.000000,0.989476,0.006318,0.322756,0.000000,0.000000,0.000000,0.000000,0.000000,0.000000,0.000000,
2491,2968,4.99571192691001,7.0494343845079,-0.00683724287642917,0.000000,0.000000,0.000000,0.000000,0.000000,315.427147,25.450346,-1.000000,0.987528,0.006938,0.348062,0.000000,0.000000,0.000000,0.000000,0.000000,0.000000,0.000000,
2491,2983,4.9924610998875,7.3763566197946,-0.00892866224103273,0.000000,0.000000,0.000000,0.000000,0.000000,315.163725,25.563632,-1.000000,0.987745,0.006703,0.292805,0.000000,0.000000,0.000000,0.000000,0.000000,0.000000,0.000000,
2476,2998,4.66314035328987,7.70056472762959,-0.00678639172531348,0.000000,0.000000,0.000000,0.000000,0.000000,314.898256,25.516613,-1.000000,0.989833,0.006245,0.355965,0.000000,0.000000,0.000000,0.000000,0.000000,0.000000,0.000000,
2491,2998,4.99007845866409,7.7011308698857,-0.000797806184209549,0.000000,0.000000,0.000000,0.000000,0.000000,314.986930,25.552636,-1.000000,0.988189,0.006625,0.362019,0.000000,0.000000,0.000000,0.000000,0.000000,0.000000,0.000000,
2371,2998,2.38039676248846,7.69250954708046,0.00659171343875187,0.000000,0.000000,0.000000,0.000000,0.000000,314.865495,25.252323,-1.000000,0.991473,0.006006,0.324147,0.000000,0.000000,0.000000,0.000000,0.000000,0.000000,0.000000,
2491,2923,5.00297349707736,6.07295663697023,-0.0300174775808841,0.000000,0.000000,0.000000,0.000000,0.000000,315.968149,25.322746,-1.000000,0.987340,0.006862,0.301174,0.000000,0.000000,0.000000,0.000000,0.000000,0.000000,0.000000,
2491,2938,5.00049166441511,6.39901345458706,-0.0229844567247142,0.000000,0.000000,0.000000,0.000000,0.000000,315.781787,25.409250,-1.000000,0.990043,0.006115,0.272850,0.000000,0.000000,0.000000,0.000000,0.000000,0.000000,0.000000,
2266,2383,0.207183261320978,-5.71093580519754,-0.0151965386425559,0.000000,0.000000,0.000000,0.000000,0.000000,324.743316,23.844540,-1.000000,0.980817,0.008340,0.373242,0.000000,0.000000,0.000000,0.000000,0.000000,0.000000,0.000000,
2266,2413,0.202776682064702,-5.05662903336131,-0.00236540691713572,0.000000,0.000000,0.000000,0.000000,0.000000,324.365587,23.906650,-1.000000,0.987345,0.007115,0.364843,0.000000,0.000000,0.000000,0.000000,0.000000,0.000000,0.000000,
2056,2623,-4.40210251732342,-0.478682611242419,-0.0214722091977819,0.000000,0.000000,0.000000,0.000000,0.000000,321.564822,24.447375,-1.000000,0.990611,0.006082,0.375895,0.000000,0.000000,0.000000,0.000000,0.000000,0.000000,0.000000,
2296,2983,0.752886390955471,7.36199455717538,0.00334249939800202,0.000000,0.000000,0.000000,0.000000,0.000000,315.110647,25.037337,-1.000000,0.988973,0.006316,0.298050,0.000000,0.000000,0.000000,0.000000,0.000000,0.000000,0.000000,
2326,3013,1.3992028438583,8.01517631319149,0.00322978721152367,0.000000,0.000000,0.000000,0.000000,0.000000,314.595741,25.131583,-1.000000,0.990002,0.006119,0.351402,0.000000,0.000000,0.000000,0.000000,0.000000,0.000000,0.000000,
2356,3013,2.05089394929907,8.01765248377652,-0.000717876624946712,0.000000,0.000000,0.000000,0.000000,0.000000,314.555763,25.226723,-1.000000,0.991684,0.005918,0.345408,0.000000,0.000000,0.000000,0.000000,0.000000,0.000000,0.000000,
2296,3013,0.74710903531027,8.01331606952591,-0.000394378666783268,0.000000,0.000000,0.000000,0.000000,0.000000,314.589553,25.041084,-1.000000,0.988195,0.006517,0.352731,0.000000,0.000000,0.000000,0.000000,0.000000,0.000000,0.000000,
2116,3013,-3.15966405462954,7.9998397870628,0.0099543753444209,0.000000,0.000000,0.000000,0.000000,0.000000,315.187412,24.471329,-1.000000,0.989245,0.006214,0.386587,0.000000,0.000000,0.000000,0.000000,0.000000,0.000000,0.000000,
2146,3013,-2.50874724621679,8.00240636053177,0.0109447705580692,0.000000,0.000000,0.000000,0.000000,0.000000,315.066891,24.617351,-1.000000,0.991019,0.006089,0.329795,0.000000,0.000000,0.000000,0.000000,0.000000,0.000000,0.000000,
2176,3013,-1.85816826307429,8.00470565266308,0.00453301491342017,0.000000,0.000000,0.000000,0.000000,0.000000,314.902021,24.687872,-1.000000,0.990081,0.006220,0.348911,0.000000,0.000000,0.000000,0.000000,0.000000,0.000000,0.000000,
2086,3013,-3.81069022686614,7.99805836168262,0.00472749484021051,0.000000,0.000000,0.000000,0.000000,0.000000,315.289518,24.367807,-1.000000,0.993986,0.004931,0.400959,0.000000,0.000000,0.000000,0.000000,0.000000,0.000000,0.000000,
2056,3013,-4.46135008414957,7.99657541941896,0.00269056365232245,0.000000,0.000000,0.000000,0.000000,0.000000,315.435402,24.311718,-1.000000,0.987961,0.006787,0.367567,0.000000,0.000000,0.000000,0.000000,0.000000,0.000000,0.000000,
2011,3013,-5.43665164185354,7.99336064630019,0.0061882763307608,0.000000,0.000000,0.000000,0.000000,0.000000,315.741729,24.177817,-1.000000,0.993561,0.005228,0.367230,0.000000,0.000000,0.000000,0.000000,0.000000,0.000000,0.000000,
2026,3013,-5.11149993180537,7.99513269875491,0.00650707388786032,0.000000,0.000000,0.000000,0.000000,0.000000,315.647358,24.297126,-1.000000,0.993511,0.005350,0.292617,0.000000,0.000000,0.000000,0.000000,0.000000,0.000000,0.000000,
2041,3013,-4.78666346841824,7.99659095774894,0.000990435379492283,0.000000,0.000000,0.000000,0.000000,0.000000,315.508776,24.348196,-1.000000,0.992153,0.005712,0.286049,0.000000,0.000000,0.000000,0.000000,0.000000,0.000000,0.000000,
2206,3013,-1.2072836203815,8.00708864187001,0.000505726538733597,0.000000,0.000000,0.000000,0.000000,0.000000,314.774354,24.780700,-1.000000,0.991527,0.005750,0.345422,0.000000,0.000000,0.000000,0.000000,0.000000,0.000000,0.000000,
2236,3013,-0.555685795517,8.00851302854745,0.00438909194934922,0.000000,0.000000,0.000000,0.000000,0.000000,314.730625,24.836914,-1.000000,0.989664,0.006259,0.378361,0.000000,0.000000,0.000000,0.000000,0.000000,0.000000,0.000000,
2266,3013,0.0958139826360949,8.01038932137968,0.00448885356416895,0.000000,0.000000,0.000000,0.000000,0.000000,314.672470,24.908011,-1.000000,0.991266,0.005773,0.396577,0.000000,0.000000,0.000000,0.000000,0.000000,0.000000,0.000000,
2386,3013,2.70376214416435,8.01901370512012,0.00823614709111098,0.000000,0.000000,0.000000,0.000000,0.000000,314.641777,25.304222,-1.000000,0.991188,0.006107,0.357105,0.000000,0.000000,0.000000,0.000000,0.000000,0.000000,0.000000,
2041,2608,-4.72580022943008,-0.805633299006963,-0.0236415045781087,0.000000,0.000000,0.000000,0.000000,0.000000,321.876144,24.466154,-1.000000,0.987929,0.006703,0.376612,0.000000,0.000000,0.000000,0.000000,0.000000,0.000000,0.000000,
2071,2608,-4.07462219207972,-0.803105073899573,-0.0332665716704241,0.000000,0.000000,0.000000,0.000000,0.000000,321.626044,24.504170,-1.000000,0.990253,0.006147,0.309229,0.000000,0.000000,0.000000,0.000000,0.000000,0.000000,0.000000,
2446,3013,4.00779927381729,8.02419072758023,-0.00204054409505261,0.000000,0.000000,0.000000,0.000000,0.000000,314.629269,25.492429,-1.000000,0.986263,0.006765,0.346913,0.000000,0.000000,0.000000,0.000000,0.000000,0.000000,0.000000,
2476,3013,4.6603006458109,8.02662648050102,-0.00429890104896913,0.000000,0.000000,0.000000,0.000000,0.000000,314.673492,25.589709,-1.000000,0.991737,0.005741,0.338513,0.000000,0.000000,0.000000,0.000000,0.000000,0.000000,0.000000,
2506,2923,5.32944091805838,6.07389538079532,-0.0314102485634749,0.000000,0.000000,0.000000,0.000000,0.000000,315.999362,25.341615,-1.000000,0.986844,0.006938,0.313435,0.000000,0.000000,0.000000,0.000000,0.000000,0.000000,0.000000,
2506,2938,5.32767854059731,6.39890416448261,-0.0157097558201258,0.000000,0.000000,0.000000,0.000000,0.000000,315.886078,25.392933,-1.000000,0.990523,0.006219,0.322271,0.000000,0.000000,0.000000,0.000000,0.000000,0.000000,0.000000,
2506,2953,5.32548789881525,6.72418173136634,-0.00505661185417239,0.000000,0.000000,0.000000,0.000000,0.000000,315.730336,25.435763,-1.000000,0.991070,0.006197,0.339818,0.000000,0.000000,0.000000,0.000000,0.000000,0.000000,0.000000,
2416,3013,3.35523406958474,8.02219898187631,-0.00269959291415489,0.000000,0.000000,0.000000,0.000000,0.000000,314.577942,25.415150,-1.000000,0.986980,0.006906,0.335222,0.000000,0.000000,0.000000,0.000000,0.000000,0.000000,0.000000,
2491,3013,4.98670848354727,8.0277761646232,-0.00433192731793497,0.000000,0.000000,0.000000,0.000000,0.000000,314.711404,25.638895,-1.000000,0.992661,0.005587,0.334056,0.000000,0.000000,0.000000,0.000000,0.000000,0.000000,0.000000,
2506,2968,5.32246690376646,7.05034117735573,-0.00416557023095265,0.000000,0.000000,0.000000,0.000000,0.000000,315.492330,25.495065,-1.000000,0.989950,0.006646,0.341128,0.000000,0.000000,0.000000,0.000000,0.000000,0.000000,0.000000,
2311,2428,1.18021002015436,-4.7275977672411,-0.00874201580688805,0.000000,0.000000,0.000000,0.000000,0.000000,324.019316,23.813164,-1.000000,0.990324,0.006683,0.360071,0.000000,0.000000,0.000000,0.000000,0.000000,0.000000,0.000000,
2311,2458,1.17453595227279,-4.07252686774829,-0.0109789900944861,0.000000,0.000000,0.000000,0.000000,0.000000,323.515124,23.832840,-1.000000,0.988295,0.007152,0.407513,0.000000,0.000000,0.000000,0.000000,0.000000,0.000000,0.000000,
2431,2608,3.76030138797625,-0.794158457603928,-0.0205402369929857,0.000000,0.000000,0.000000,0.000000,0.000000,321.055822,24.050325,-1.000000,0.988128,0.006961,0.398467,0.000000,0.000000,0.000000,0.000000,0.000000,0.000000,0.000000,
2401,2458,3.13667540812294,-4.07125117587191,-0.00870289671706814,0.000000,0.000000,0.000000,0.000000,0.000000,323.550898,23.606701,-1.000000,0.986744,0.007705,0.407666,0.000000,0.000000,0.000000,0.000000,0.000000,0.000000,0.000000,
2011,2578,-5.37285372962436,-1.46026659230152,-0.0215523000210851,0.000000,0.000000,0.000000,0.000000,0.000000,322.565007,24.507375,-1.000000,0.986158,0.007346,0.387221,0.000000,0.000000,0.000000,0.000000,0.000000,0.000000,0.000000,
2026,2578,-5.04713750889485,-1.45927507625299,-0.0237636704046622,0.000000,0.000000,0.000000,0.000000,0.000000,322.451043,24.523090,-1.000000,0.989003,0.006539,0.352584,0.000000,0.000000,0.000000,0.000000,0.000000,0.000000,0.000000,
2071,3028,-4.13785799298394,8.32211295567174,0.0128434687753156,0.000000,0.000000,0.000000,0.000000,0.000000,315.192402,24.337071,-1.000000,0.993358,0.005217,0.382759,0.000000,0.000000,0.000000,0.000000,0.000000,0.000000,0.000000,
2101,3028,-3.48788588730893,8.32464795144799,0.0034184909037549,0.000000,0.000000,0.000000,0.000000,0.000000,314.958947,24.413828,-1.000000,0.991341,0.005680,0.399990,0.000000,0.000000,0.000000,0.000000,0.000000,0.000000,0.000000,
2011,3028,-5.43844956313114,8.31855247065924,0.0145196932851377,0.000000,0.000000,0.000000,0.000000,0.000000,315.567040,24.204434,-1.000000,0.993978,0.005177,0.327518,0.000000,0.000000,0.000000,0.000000,0.000000,0.000000,0.000000,
2026,3028,-5.11337575869964,8.31927187417365,0.0137899673808874,0.000000,0.000000,0.000000,0.000000,0.000000,315.464404,24.220364,-1.000000,0.992896,0.005578,0.358661,0.000000,0.000000,0.000000,0.000000,0.000000,0.000000,0.000000,
2041,3028,-4.78868641712375,8.32058439858523,0.0061465703136605,0.000000,0.000000,0.000000,0.000000,0.000000,315.308125,24.244688,-1.000000,0.992350,0.005825,0.381335,0.000000,0.000000,0.000000,0.000000,0.000000,0.000000,0.000000,
2476,3028,4.65762415085799,8.35231520564607,0.000130816513888021,0.000000,0.000000,0.000000,0.000000,0.000000,314.465108,25.645055,-1.000000,0.992909,0.005600,0.339066,0.000000,0.000000,0.000000,0.000000,0.000000,0.000000,0.000000,
2491,3028,4.9834722132276,8.35371172367655,-0.00631619738368272,0.000000,0.000000,0.000000,0.000000,0.000000,314.449135,25.674622,-1.000000,0.994025,0.005317,0.356204,0.000000,0.000000,0.000000,0.000000,0.000000,0.000000,0.000000,
2506,2998,5.31631909496459,7.70270153482052,-0.00363922320360643,0.000000,0.000000,0.000000,0.000000,0.000000,315.005537,25.621117,-1.000000,0.989625,0.006381,0.335953,0.000000,0.000000,0.000000,0.000000,0.000000,0.000000,0.000000,
2506,3013,5.31348548180348,8.02853665538926,-0.000560358809536865,0.000000,0.000000,0.000000,0.000000,0.000000,314.785782,25.677356,-1.000000,0.990765,0.005967,0.339813,0.000000,0.000000,0.000000,0.000000,0.000000,0.000000,0.000000,
2506,3028,5.31074943649827,8.35385044420259,0.00363798325446396,0.000000,0.000000,0.000000,0.000000,0.000000,314.575597,25.696626,-1.000000,0.992381,0.005726,0.380869,0.000000,0.000000,0.000000,0.000000,0.000000,0.000000,0.000000,
2461,3028,4.33209833267441,8.35093067553501,0.0100684830639466,0.000000,0.000000,0.000000,0.000000,0.000000,314.514683,25.639385,-1.000000,0.991723,0.006114,0.297724,0.000000,0.000000,0.000000,0.000000,0.000000,0.000000,0.000000,
2341,3028,1.72294620348427,8.34191429564942,0.0110095511104191,0.000000,0.000000,0.000000,0.000000,0.000000,314.410085,25.250511,-1.000000,0.994066,0.005409,0.312882,0.000000,0.000000,0.000000,0.000000,0.000000,0.000000,0.000000,
2371,3028,2.37449055039645,8.34433055911809,0.00457054547035796,0.000000,0.000000,0.000000,0.000000,0.000000,314.357974,25.323638,-1.000000,0.990466,0.006298,0.333244,0.000000,0.000000,0.000000,0.000000,0.000000,0.000000,0.000000,
2191,3028,-1.53506619130658,8.33080633551086,0.00629464102598831,0.000000,0.000000,0.000000,0.000000,0.000000,314.623116,24.709063,-1.000000,0.992941,0.005785,0.386095,0.000000,0.000000,0.000000,0.000000,0.000000,0.000000,0.000000,
2221,3028,-0.884037277527327,8.33321968430673,0.00386911676861246,0.000000,0.000000,0.000000,0.000000,0.000000,314.517433,24.815457,-1.000000,0.993952,0.005115,0.373389,0.000000,0.000000,0.000000,0.000000,0.000000,0.000000,0.000000,
2251,3028,-0.23266422183033,8.33544262403855,0.00406278151558581,0.000000,0.000000,0.000000,0.000000,0.000000,314.451115,24.920294,-1.000000,0.989772,0.006096,0.362260,0.000000,0.000000,0.000000,0.000000,0.000000,0.000000,0.000000,
2281,3028,0.418815774313401,8.33790193456709,0.00345530221272838,0.000000,0.000000,0.000000,0.000000,0.000000,314.395395,25.040199,-1.000000,0.989211,0.006139,0.336009,0.000000,0.000000,0.000000,0.000000,0.000000,0.000000,0.000000,
2401,3028,3.0263818212667,8.34659562044099,0.0005630190720467,0.000000,0.000000,0.000000,0.000000,0.000000,314.343759,25.397560,-1.000000,0.989906,0.006476,0.352742,0.000000,0.000000,0.000000,0.000000,0.000000,0.000000,0.000000,
2131,3028,-2.8369139739392,8.32676493064476,0.00734313208454296,0.000000,0.000000,0.000000,0.000000,0.000000,314.854398,24.539185,-1.000000,0.991905,0.005774,0.368376,0.000000,0.000000,0.000000,0.000000,0.000000,0.000000,0.000000,
2161,3028,-2.18612733156728,8.3290752269543,0.00596343286360934,0.000000,0.000000,0.000000,0.000000,0.000000,314.722799,24.645800,-1.000000,0.989793,0.006679,0.355387,0.000000,0.000000,0.000000,0.000000,0.000000,0.000000,0.000000,
2296,2413,0.856451643271814,-5.05578690473587,-0.00313985477305323,0.000000,0.000000,0.000000,0.000000,0.000000,324.321155,23.854647,-1.000000,0.986989,0.007477,0.328686,0.000000,0.000000,0.000000,0.000000,0.000000,0.000000,0.000000,
2326,2413,1.51019733625019,-5.05707264023701,-0.00542102421644586,0.000000,0.000000,0.000000,0.000000,0.000000,324.282746,23.593254,-1.000000,0.987663,0.007503,0.501989,0.000000,0.000000,0.000000,0.000000,0.000000,0.000000,0.000000,
2326,2443,1.50400201685402,-4.39944859925181,-0.0136093356640572,0.000000,0.000000,0.000000,0.000000,0.000000,323.727779,23.780961,-1.000000,0.988577,0.007069,0.386204,0.000000,0.000000,0.000000,0.000000,0.000000,0.000000,0.000000,
2056,2593,-4.39812088357606,-1.13039236873667,-0.0316763980161454,0.000000,0.000000,0.000000,0.000000,0.000000,321.964410,24.528443,-1.000000,0.988098,0.006491,0.304350,0.000000,0.000000,0.000000,0.000000,0.000000,0.000000,0.000000,
2086,2623,-3.75083599869938,-0.477519756311494,-0.0301242853844883,0.000000,0.000000,0.000000,0.000000,0.000000,321.332045,24.369581,-1.000000,0.988446,0.006716,0.428752,0.000000,0.000000,0.000000,0.000000,0.000000,0.000000,0.000000,
2311,3028,1.07086204384047,8.33959802794399,0.00817820250654222,0.000000,0.000000,0.000000,0.000000,0.000000,314.402067,25.123763,-1.000000,0.991352,0.005962,0.346097,0.000000,0.000000,0.000000,0.000000,0.000000,0.000000,0.000000,
2506,2983,5.31917200607489,7.37650961335765,-0.00651482381834967,0.000000,0.000000,0.000000,0.000000,0.000000,315.227102,25.537079,-1.000000,0.988225,0.006803,0.359520,0.000000,0.000000,0.000000,0.000000,0.000000,0.000000,0.000000,
2011,2563,-5.37042688163281,-1.78735131202799,-0.0181240171639843,0.000000,0.000000,0.000000,0.000000,0.000000,322.835963,24.522251,-1.000000,0.987750,0.006811,0.383510,0.000000,0.000000,0.000000,0.000000,0.000000,0.000000,0.000000,
2026,2563,-5.04446113900766,-1.78691677864256,-0.0166978339911452,0.000000,0.000000,0.000000,0.000000,0.000000,322.752548,24.518415,-1.000000,0.989952,0.006298,0.366074,0.000000,0.000000,0.000000,0.000000,0.000000,0.000000,0.000000,
2041,2563,-4.71882142318817,-1.78629893851099,-0.0213047968549631,0.000000,0.000000,0.000000,0.000000,0.000000,322.623229,24.478233,-1.000000,0.990245,0.006179,0.385035,0.000000,0.000000,0.000000,0.000000,0.000000,0.000000,0.000000,
2041,2578,-4.72148190979891,-1.45920433408714,-0.0276234215440354,0.000000,0.000000,0.000000,0.000000,0.000000,322.328155,24.439987,-1.000000,0.989653,0.006265,0.416474,0.000000,0.000000,0.000000,0.000000,0.000000,0.000000,0.000000,
2041,2593,-4.72351342927371,-1.13199754628081,-0.0235088870488198,0.000000,0.000000,0.000000,0.000000,0.000000,322.119625,24.507801,-1.000000,0.989270,0.006307,0.341883,0.000000,0.000000,0.000000,0.000000,0.000000,0.000000,0.000000,
2326,3043,1.39423089246117,8.66608865922763,0.0115783420686739,0.000000,0.000000,0.000000,0.000000,0.000000,314.175457,25.194710,-1.000000,0.992659,0.005700,0.355320,0.000000,0.000000,0.000000,0.000000,0.000000,0.000000,0.000000,
2356,3043,2.04538141807505,8.66879808765463,0.00170551490941762,0.000000,0.000000,0.000000,0.000000,0.000000,314.085659,25.273902,-1.000000,0.992053,0.005827,0.374201,0.000000,0.000000,0.000000,0.000000,0.000000,0.000000,0.000000,
2476,3043,4.654468119623,8.67850822429911,-0.00118448080911548,0.000000,0.000000,0.000000,0.000000,0.000000,314.208268,25.712661,-1.000000,0.992895,0.005710,0.327081,0.000000,0.000000,0.000000,0.000000,0.000000,0.000000,0.000000,
2491,3043,4.98028930534111,8.68034878848569,-0.00762344925544767,0.000000,0.000000,0.000000,0.000000,0.000000,314.192092,25.783828,-1.000000,0.993374,0.005718,0.304953,0.000000,0.000000,0.000000,0.000000,0.000000,0.000000,0.000000,
2506,3043,5.30750259160732,8.68092507221678,0.00190186074075882,0.000000,0.000000,0.000000,0.000000,0.000000,314.314710,25.842798,-1.000000,0.992809,0.006044,0.294890,0.000000,0.000000,0.000000,0.000000,0.000000,0.000000,0.000000,
2011,3043,-5.44060654417243,8.64322761036182,0.0168027491100133,0.000000,0.000000,0.000000,0.000000,0.000000,315.342085,24.146787,-1.000000,0.993971,0.005267,0.372452,0.000000,0.000000,0.000000,0.000000,0.000000,0.000000,0.000000,
2026,3043,-5.11551839786886,8.64377417210634,0.016676914290656,0.000000,0.000000,0.000000,0.000000,0.000000,315.244537,24.151191,-1.000000,0.992919,0.005593,0.417185,0.000000,0.000000,0.000000,0.000000,0.000000,0.000000,0.000000,
2206,3043,-1.21171157670767,8.65764975493111,0.011841165786393,0.000000,0.000000,0.000000,0.000000,0.000000,314.379667,24.827461,-1.000000,0.995417,0.004901,0.330269,0.000000,0.000000,0.000000,0.000000,0.000000,0.000000,0.000000,
2236,3043,-0.5603510873751,8.65978002157467,0.0135262225605857,0.000000,0.000000,0.000000,0.000000,0.000000,314.317111,24.934773,-1.000000,0.991815,0.005808,0.321020,0.000000,0.000000,0.000000,0.000000,0.000000,0.000000,0.000000,
2056,3043,-4.46608527150264,8.64744510936002,0.00260223320680097,0.000000,0.000000,0.000000,0.000000,0.000000,314.945805,24.305404,-1.000000,0.994595,0.005045,0.361236,0.000000,0.000000,0.000000,0.000000,0.000000,0.000000,0.000000,
2086,3043,-3.81463817382452,8.64799722111432,0.0186301349369273,0.000000,0.000000,0.000000,0.000000,0.000000,314.917001,24.368641,-1.000000,0.992455,0.005561,0.396335,0.000000,0.000000,0.000000,0.000000,0.000000,0.000000,0.000000,
2176,3043,-1.86264101156648,8.65590821031163,0.0140647119945925,0.000000,0.000000,0.000000,0.000000,0.000000,314.492070,24.780132,-1.000000,0.995388,0.004927,0.279192,0.000000,0.000000,0.000000,0.000000,0.000000,0.000000,0.000000,
2041,3043,-4.79067119627187,8.64557911054037,0.012013188556864,0.000000,0.000000,0.000000,0.000000,0.000000,315.112841,24.241218,-1.000000,0.995088,0.004776,0.376489,0.000000,0.000000,0.000000,0.000000,0.000000,0.000000,0.000000,
2116,3043,-3.16412678089685,8.65196484801859,0.0171407524905476,0.000000,0.000000,0.000000,0.000000,0.000000,314.757677,24.629843,-1.000000,0.993521,0.005311,0.233249,0.000000,0.000000,0.000000,0.000000,0.000000,0.000000,0.000000,
2146,3043,-2.51393063985624,8.65341094760795,0.00847139614012349,0.000000,0.000000,0.000000,0.000000,0.000000,314.556912,24.610589,-1.000000,0.993311,0.005100,0.350766,0.000000,0.000000,0.000000,0.000000,0.000000,0.000000,0.000000,
2446,3043,4.00256857326525,8.6755698945076,0.00729361735909606,0.000000,0.000000,0.000000,0.000000,0.000000,314.216522,25.608889,-1.000000,0.988019,0.006578,0.332807,0.000000,0.000000,0.000000,0.000000,0.000000,0.000000,0.000000,
2296,3043,0.742532457722046,8.66424411325626,0.0121729778270492,0.000000,0.000000,0.000000,0.000000,0.000000,314.204653,25.132919,-1.000000,0.989867,0.006213,0.319215,0.000000,0.000000,0.000000,0.000000,0.000000,0.000000,0.000000,
2386,3043,2.69742115734385,8.67109173229105,0.00133858428370104,0.000000,0.000000,0.000000,0.000000,0.000000,314.093074,25.375714,-1.000000,0.992039,0.005964,0.370541,0.000000,0.000000,0.000000,0.000000,0.000000,0.000000,0.000000,
2026,2548,-5.04231069973556,-2.11359878747551,-0.0183088957658128,0.000000,0.000000,0.000000,0.000000,0.000000,322.981390,24.530509,-1.000000,0.990517,0.006055,0.362925,0.000000,0.000000,0.000000,0.000000,0.000000,0.000000,0.000000,
2041,2548,-4.71693782264617,-2.11264458763417,-0.0277148010272867,0.000000,0.000000,0.000000,0.000000,0.000000,322.812078,24.477972,-1.000000,0.990472,0.006113,0.392249,0.000000,0.000000,0.000000,0.000000,0.000000,0.000000,0.000000,
2056,2563,-4.39254790622675,-1.78648878130447,-0.0161527882904693,0.000000,0.000000,0.000000,0.000000,0.000000,322.579713,24.449678,-1.000000,0.989196,0.006546,0.392238,0.000000,0.000000,0.000000,0.000000,0.000000,0.000000,0.000000,
2011,2548,-5.36822124978061,-2.11451552264545,-0.0184101233571141,0.000000,0.000000,0.000000,0.000000,0.000000,323.076017,24.502188,-1.000000,0.988731,0.006548,0.414779,0.000000,0.000000,0.000000,0.000000,0.000000,0.000000,0.000000,
2416,3043,3.34998791652132,8.67324915813118,0.00538608966235188,0.000000,0.000000,0.000000,0.000000,0.000000,314.155025,25.492505,-1.000000,0.990294,0.006432,0.351474,0.000000,0.000000,0.000000,0.000000,0.000000,0.000000,0.000000,
2266,3043,0.0908586801733229,8.66178965503789,0.0107661818250904,0.000000,0.000000,0.000000,0.000000,0.000000,314.234864,25.000414,-1.000000,0.992238,0.005662,0.353578,0.000000,0.000000,0.000000,0.000000,0.000000,0.000000,0.000000,
2341,2428,1.83576980218957,-4.72983324504423,0.0125210290739801,0.000000,0.000000,0.000000,0.000000,0.000000,324.185949,23.686987,-1.000000,0.993859,0.006004,0.401535,0.000000,0.000000,0.000000,0.000000,0.000000,0.000000,0.000000,
2341,2458,1.82821826421599,-4.07129734612295,-0.0126197728171746,0.000000,0.000000,0.000000,0.000000,0.000000,323.489169,23.809241,-1.000000,0.988150,0.007071,0.356269,0.000000,0.000000,0.000000,0.000000,0.000000,0.000000,0.000000,
2401,2608,3.10681845695077,-0.794936958374414,-0.0167805812745883,0.000000,0.000000,0.000000,0.000000,0.000000,321.047571,24.130060,-1.000000,0.989365,0.006631,0.349765,0.000000,0.000000,0.000000,0.000000,0.000000,0.000000,0.000000,
2431,2578,3.76707435030314,-1.44859794071409,-0.0103004478445996,0.000000,0.000000,0.000000,0.000000,0.000000,321.628848,24.056066,-1.000000,0.993447,0.005851,0.290903,0.000000,0.000000,0.000000,0.000000,0.000000,0.000000,0.000000,
2461,2548,4.42770719632053,-2.10316888655039,-0.00432411868297322,0.000000,0.000000,0.000000,0.000000,0.000000,322.223912,23.913016,-1.000000,0.991782,0.006193,0.283163,0.000000,0.000000,0.000000,0.000000,0.000000,0.000000,0.000000,
2461,2578,4.41904604950293,-1.44667326223777,-0.0358830774422927,0.000000,0.000000,0.000000,0.000000,0.000000,321.472137,23.889227,-1.000000,0.991718,0.006487,0.418372,0.000000,0.000000,0.000000,0.000000,0.000000,0.000000,0.000000,
2476,2908,4.68030695652066,5.74455103295436,-0.0201524600968241,0.000000,0.000000,0.000000,0.000000,0.000000,316.258072,25.202230,-1.000000,0.985317,0.007286,0.334099,0.000000,0.000000,0.000000,0.000000,0.000000,0.000000,0.000000,
2326,2473,1.49889266697306,-3.74494574768864,-0.00760926114401173,0.000000,0.000000,0.000000,0.000000,0.000000,323.292179,23.835557,-1.000000,0.987488,0.007060,0.402999,0.000000,0.000000,0.000000,0.000000,0.000000,0.000000,0.000000,
2191,3058,-1.53951512842257,8.98111545506481,0.0167772028655122,0.000000,0.000000,0.000000,0.000000,0.000000,314.221331,24.733007,-1.000000,0.995673,0.004846,0.389133,0.000000,0.000000,0.000000,0.000000,0.000000,0.000000,0.000000,
2221,3058,-0.888554039087008,8.98358781142862,0.0145315080461614,0.000000,0.000000,0.000000,0.000000,0.000000,314.117007,24.847457,-1.000000,0.994740,0.004807,0.377303,0.000000,0.000000,0.000000,0.000000,0.000000,0.000000,0.000000,
2161,3058,-2.18942251448185,8.9777147799714,0.0324273823172234,0.000000,0.000000,0.000000,0.000000,0.000000,314.455423,24.618612,-1.000000,0.995342,0.005017,0.400741,0.000000,0.000000,0.000000,0.000000,0.000000,0.000000,0.000000,
2026,3058,-5.11766075684415,8.96947286833516,0.019656426652034,0.000000,0.000000,0.000000,0.000000,0.000000,315.024787,24.196253,-1.000000,0.991408,0.005758,0.361255,0.000000,0.000000,0.000000,0.000000,0.000000,0.000000,0.000000,
2041,3058,-4.79250433433522,8.97026472965176,0.0204044249914546,0.000000,0.000000,0.000000,0.000000,0.000000,314.938691,24.228889,-1.000000,0.994520,0.005001,0.380138,0.000000,0.000000,0.000000,0.000000,0.000000,0.000000,0.000000,
2071,3058,-4.14275275969375,8.97294453860862,0.011035947480309,0.000000,0.000000,0.000000,0.000000,0.000000,314.688253,24.323447,-1.000000,0.992648,0.005227,0.388175,0.000000,0.000000,0.000000,0.000000,0.000000,0.000000,0.000000,
2011,3058,-5.44227043442251,8.96774646111074,0.0274583377150748,0.000000,0.000000,0.000000,0.000000,0.000000,315.186949,24.132741,-1.000000,0.992983,0.005226,0.373469,0.000000,0.000000,0.000000,0.000000,0.000000,0.000000,0.000000,
2356,2413,2.16417237399267,-5.05458997143926,-0.00648892026720205,0.000000,0.000000,0.000000,0.000000,0.000000,324.269893,23.688069,-1.000000,0.990098,0.007017,0.318506,0.000000,0.000000,0.000000,0.000000,0.000000,0.000000,0.000000,
2356,2443,2.15880898217018,-4.40050181920691,-0.0025752474510341,0.000000,0.000000,0.000000,0.000000,0.000000,323.817340,23.666114,-1.000000,0.983086,0.008005,0.421105,0.000000,0.000000,0.000000,0.000000,0.000000,0.000000,0.000000,
2101,3058,-3.49190558450518,8.97441336949687,0.0168390696379106,0.000000,0.000000,0.000000,0.000000,0.000000,314.582279,24.403529,-1.000000,0.994182,0.005131,0.411004,0.000000,0.000000,0.000000,0.000000,0.000000,0.000000,0.000000,
2131,3058,-2.8412501032881,8.97731008307224,0.0171082550129995,0.000000,0.000000,0.000000,0.000000,0.000000,314.446730,24.577660,-1.000000,0.992805,0.005529,0.339285,0.000000,0.000000,0.000000,0.000000,0.000000,0.000000,0.000000,
2416,2593,3.43604633370429,-1.12117733126035,-0.0241227220566884,0.000000,0.000000,0.000000,0.000000,0.000000,321.247451,24.053252,-1.000000,0.991099,0.006293,0.362797,0.000000,0.000000,0.000000,0.000000,0.000000,0.000000,0.000000,
2446,2593,4.08957948319867,-1.12017856613902,-0.0288192299968841,0.000000,0.000000,0.000000,0.000000,0.000000,321.256597,23.984710,-1.000000,0.992598,0.006223,0.395927,0.000000,0.000000,0.000000,0.000000,0.000000,0.000000,0.000000,
2476,3058,4.65255204142732,9.0036180039294,0.0123671616974548,0.000000,0.000000,0.000000,0.000000,0.000000,314.076444,25.781118,-1.000000,0.990758,0.006448,0.314305,0.000000,0.000000,0.000000,0.000000,0.000000,0.000000,0.000000,
2491,3058,4.97824187904464,9.00487891958678,0.00449026270717923,0.000000,0.000000,0.000000,0.000000,0.000000,314.048495,25.790114,-1.000000,0.992228,0.006140,0.356452,0.000000,0.000000,0.000000,0.000000,0.000000,0.000000,0.000000,
2506,3058,5.30490589115893,9.00547286168478,0.00769811189246639,0.000000,0.000000,0.000000,0.000000,0.000000,314.118153,25.809175,-1.000000,0.992739,0.006220,0.388721,0.000000,0.000000,0.000000,0.000000,0.000000,0.000000,0.000000,
2461,3058,4.32620427687701,9.00202916854366,0.0118283423378784,0.000000,0.000000,0.000000,0.000000,0.000000,314.038443,25.686918,-1.000000,0.989513,0.006679,0.357331,0.000000,0.000000,0.000000,0.000000,0.000000,0.000000,0.000000,
2311,3058,1.06567834785632,8.9903409881939,0.0131367537009055,0.000000,0.000000,0.000000,0.000000,0.000000,313.953419,25.155675,-1.000000,0.993516,0.005358,0.376646,0.000000,0.000000,0.000000,0.000000,0.000000,0.000000,0.000000,
2341,3058,1.71672400667263,8.99259659945739,0.00348767342677547,0.000000,0.000000,0.000000,0.000000,0.000000,313.856924,25.196357,-1.000000,0.994134,0.005050,0.438559,0.000000,0.000000,0.000000,0.000000,0.000000,0.000000,0.000000,
2251,3058,-0.236265587542672,8.98474987480079,0.0285988822064951,0.000000,0.000000,0.000000,0.000000,0.000000,314.167084,24.945626,-1.000000,0.992953,0.005431,0.381448,0.000000,0.000000,0.000000,0.000000,0.000000,0.000000,0.000000,
2281,3058,0.413588216934777,8.98883895931661,0.00660373603056996,0.000000,0.000000,0.000000,0.000000,0.000000,313.931630,25.077972,-1.000000,0.993133,0.005423,0.351889,0.000000,0.000000,0.000000,0.000000,0.000000,0.000000,0.000000,
2371,3058,2.36873700143437,8.9961967456551,0.00454406844232835,0.000000,0.000000,0.000000,0.000000,0.000000,313.866783,25.428939,-1.000000,0.993438,0.005362,0.308373,0.000000,0.000000,0.000000,0.000000,0.000000,0.000000,0.000000,
2401,3058,3.02118483553037,8.99791806219975,0.00875989953999579,0.000000,0.000000,0.000000,0.000000,0.000000,313.921542,25.507455,-1.000000,0.992362,0.005880,0.332105,0.000000,0.000000,0.000000,0.000000,0.000000,0.000000,0.000000,
2476,2533,4.75724453019515,-2.43030761961015,-0.0125933689698741,0.000000,0.000000,0.000000,0.000000,0.000000,322.434050,23.761468,-1.000000,0.988614,0.006722,0.352722,0.000000,0.000000,0.000000,0.000000,0.000000,0.000000,0.000000,
2476,2548,4.75418953495965,-2.10329894853872,-0.0126277479614032,0.000000,0.000000,0.000000,0.000000,0.000000,322.190251,23.766857,-1.000000,0.987837,0.007052,0.405151,0.000000,0.000000,0.000000,0.000000,0.000000,0.000000,0.000000,
2476,2563,4.75041725397962,-1.77445820114803,-0.021145512848193,0.000000,0.000000,0.000000,0.000000,0.000000,321.874630,23.870497,-1.000000,0.982974,0.007919,0.359272,0.000000,0.000000,0.000000,0.000000,0.000000,0.000000,0.000000,
2011,2533,-5.36587541272273,-2.44114944962195,-0.0162325804399188,0.000000,0.000000,0.000000,0.000000,0.000000,323.336165,24.557348,-1.000000,0.987929,0.006990,0.370508,0.000000,0.000000,0.000000,0.000000,0.000000,0.000000,0.000000,
2026,2533,-5.04031440012267,-2.44015639733313,-0.0224480462028964,0.000000,0.000000,0.000000,0.000000,0.000000,323.189088,24.535957,-1.000000,0.989627,0.006461,0.366276,0.000000,0.000000,0.000000,0.000000,0.000000,0.000000,0.000000,
2041,2533,-4.71413105829235,-2.44011282030179,-0.0189355685267287,0.000000,0.000000,0.000000,0.000000,0.000000,323.127588,24.514333,-1.000000,0.989768,0.006234,0.362130,0.000000,0.000000,0.000000,0.000000,0.000000,0.000000,0.000000,
2056,2533,-4.38769927954084,-2.44097107571035,-0.0121639789316532,0.000000,0.000000,0.000000,0.000000,0.000000,323.097945,24.439116,-1.000000,0.988404,0.006678,0.411342,0.000000,0.000000,0.000000,0.000000,0.000000,0.000000,0.000000,
2431,3028,3.67911136869779,8.34889739042212,0.00492002570769046,0.000000,0.000000,0.000000,0.000000,0.000000,314.417059,25.528917,-1.000000,0.987702,0.006851,0.314913,0.000000,0.000000,0.000000,0.000000,0.000000,0.000000,0.000000,
2431,3058,3.67299763530221,9.00111130700506,0.0028547594448014,0.000000,0.000000,0.000000,0.000000,0.000000,313.908343,25.654512,-1.000000,0.990619,0.006438,0.287592,0.000000,0.000000,0.000000,0.000000,0.000000,0.000000,0.000000,
2176,3073,-1.86725466650209,9.30416268850565,0.0214702079977087,0.000000,0.000000,0.000000,0.000000,0.000000,314.065491,24.600852,-1.000000,0.995403,0.004790,0.481351,0.000000,0.000000,0.000000,0.000000,0.000000,0.000000,0.000000,
2206,3073,-1.21653151365167,9.30801412585188,0.0175826180616809,0.000000,0.000000,0.000000,0.000000,0.000000,313.938026,24.833182,-1.000000,0.993430,0.005335,0.355830,0.000000,0.000000,0.000000,0.000000,0.000000,0.000000,0.000000,
2146,3073,-2.51909842189167,9.3043056655811,0.0063341284459284,0.000000,0.000000,0.000000,0.000000,0.000000,314.049441,24.612713,-1.000000,0.996188,0.004536,0.362562,0.000000,0.000000,0.000000,0.000000,0.000000,0.000000,0.000000,
2236,3073,-0.565904428177845,9.31066054632617,0.0101541120965862,0.000000,0.000000,0.000000,0.000000,0.000000,313.798909,24.930398,-1.000000,0.992686,0.005480,0.365855,0.000000,0.000000,0.000000,0.000000,0.000000,0.000000,0.000000,
2026,3073,-5.11992680411587,9.29437429018029,0.0205808063830091,0.000000,0.000000,0.000000,0.000000,0.000000,314.788193,24.158399,-1.000000,0.992510,0.005454,0.388487,0.000000,0.000000,0.000000,0.000000,0.000000,0.000000,0.000000,
2041,3073,-4.7948018952931,9.29523064263709,0.0211938382942662,0.000000,0.000000,0.000000,0.000000,0.000000,314.700908,24.196404,-1.000000,0.992191,0.005747,0.404201,0.000000,0.000000,0.000000,0.000000,0.000000,0.000000,0.000000,
2056,3073,-4.47026365265974,9.29706186327366,0.0116672809471083,0.000000,0.000000,0.000000,0.000000,0.000000,314.532854,24.258686,-1.000000,0.991967,0.005845,0.395488,0.000000,0.000000,0.000000,0.000000,0.000000,0.000000,0.000000,
2086,3073,-3.81948120611592,9.29913451872435,0.0185079447139174,0.000000,0.000000,0.000000,0.000000,0.000000,314.426539,24.401982,-1.000000,0.991844,0.005501,0.359153,0.000000,0.000000,0.000000,0.000000,0.000000,0.000000,0.000000,
2116,3073,-3.169572336187,9.30180818294838,0.00911555004307729,0.000000,0.000000,0.000000,0.000000,0.000000,314.201706,24.494983,-1.000000,0.992855,0.006061,0.373140,0.000000,0.000000,0.000000,0.000000,0.000000,0.000000,0.000000,
2326,3073,1.38851313982817,9.31815867219283,0.0101279207629545,0.000000,0.000000,0.000000,0.000000,0.000000,313.672304,25.315451,-1.000000,0.995090,0.004621,0.301473,0.000000,0.000000,0.000000,0.000000,0.000000,0.000000,0.000000,
2356,3073,2.04043400743138,9.31987428685019,0.0115087825397495,0.000000,0.000000,0.000000,0.000000,0.000000,313.677030,25.377561,-1.000000,0.993140,0.005360,0.346284,0.000000,0.000000,0.000000,0.000000,0.000000,0.000000,0.000000,
2296,3073,0.737796615390497,9.3149170405581,0.0226192664779319,0.000000,0.000000,0.000000,0.000000,0.000000,313.801848,25.200290,-1.000000,0.994491,0.005152,0.309783,0.000000,0.000000,0.000000,0.000000,0.000000,0.000000,0.000000,
2386,3073,2.69191614934224,9.3223610678068,0.00507904338445542,0.000000,0.000000,0.000000,0.000000,0.000000,313.633478,25.459125,-1.000000,0.991823,0.005920,0.371772,0.000000,0.000000,0.000000,0.000000,0.000000,0.000000,0.000000,
2266,3073,0.0861928011744517,9.31222630173821,0.0210603854069404,0.000000,0.000000,0.000000,0.000000,0.000000,313.831012,25.044262,-1.000000,0.991563,0.005865,0.358763,0.000000,0.000000,0.000000,0.000000,0.000000,0.000000,0.000000,
2011,3073,-5.44486032883179,9.29324004772391,0.022539313300399,0.000000,0.000000,0.000000,0.000000,0.000000,314.901372,24.110955,-1.000000,0.993801,0.005068,0.382384,0.000000,0.000000,0.000000,0.000000,0.000000,0.000000,0.000000,
2491,3073,4.97507641719779,9.33026103087217,0.00331488141068803,0.000000,0.000000,0.000000,0.000000,0.000000,313.793045,25.791968,-1.000000,0.991530,0.006260,0.412804,0.000000,0.000000,0.000000,0.000000,0.000000,0.000000,0.000000,
2506,3073,5.30103678103045,9.33178636365308,-0.00144501398352759,0.000000,0.000000,0.000000,0.000000,0.000000,313.795417,25.845687,-1.000000,0.992120,0.006311,0.412475,0.000000,0.000000,0.000000,0.000000,0.000000,0.000000,0.000000,
2416,3073,3.34435362684637,9.32441714807115,0.00863951926953632,0.000000,0.000000,0.000000,0.000000,0.000000,313.691282,25.563630,-1.000000,0.991449,0.006139,0.373877,0.000000,0.000000,0.000000,0.000000,0.000000,0.000000,0.000000,
2476,3073,4.64963731511441,9.3287793729167,0.0138971808801216,0.000000,0.000000,0.000000,0.000000,0.000000,313.843815,25.779283,-1.000000,0.990982,0.006246,0.371698,0.000000,0.000000,0.000000,0.000000,0.000000,0.000000,0.000000,
2446,3073,3.99611006090397,9.32723437912469,0.00158547461808212,0.000000,0.000000,0.000000,0.000000,0.000000,313.677337,25.668695,-1.000000,0.993344,0.005556,0.375607,0.000000,0.000000,0.000000,0.000000,0.000000,0.000000,0.000000,
2341,2398,1.8398051323284,-5.38248687703599,-0.00804450385197697,0.000000,0.000000,0.000000,0.000000,0.000000,324.498939,23.693210,-1.000000,0.988219,0.007418,0.319649,0.000000,0.000000,0.000000,0.000000,0.000000,0.000000,0.000000,
2371,2398,2.49427620372513,-5.38332948195561,-0.00480976481344442,0.000000,0.000000,0.000000,0.000000,0.000000,324.532461,23.524123,-1.000000,0.987902,0.007389,0.395544,0.000000,0.000000,0.000000,0.000000,0.000000,0.000000,0.000000,
2371,2428,2.48822959524136,-4.72808006894211,-0.00894816067989268,0.000000,0.000000,0.000000,0.000000,0.000000,324.012368,23.523126,-1.000000,0.992443,0.006602,0.481833,0.000000,0.000000,0.000000,0.000000,0.000000,0.000000,0.000000,
2026,2518,-5.03828697618036,-2.76768779042918,-0.0261133876564372,0.000000,0.000000,0.000000,0.000000,0.000000,323.401140,24.460749,-1.000000,0.994062,0.005422,0.450529,0.000000,0.000000,0.000000,0.000000,0.000000,0.000000,0.000000,
2041,2518,-4.71180809922331,-2.76776989750918,-0.0181275685732771,0.000000,0.000000,0.000000,0.000000,0.000000,323.376887,24.467749,-1.000000,0.990669,0.006274,0.415455,0.000000,0.000000,0.000000,0.000000,0.000000,0.000000,0.000000,
2011,2518,-5.3638166784867,-2.76827828625724,-0.018922932827877,0.000000,0.000000,0.000000,0.000000,0.000000,323.556060,24.528530,-1.000000,0.993301,0.005732,0.410328,0.000000,0.000000,0.000000,0.000000,0.000000,0.000000,0.000000,
2071,2548,-4.06457305654715,-2.11253674784973,-0.02175510634288,0.000000,0.000000,0.000000,0.000000,0.000000,322.693083,24.426962,-1.000000,0.991068,0.006235,0.395848,0.000000,0.000000,0.000000,0.000000,0.000000,0.000000,0.000000,
2071,2578,-4.06974926570633,-1.4576714666828,-0.0300074198622156,0.000000,0.000000,0.000000,0.000000,0.000000,322.138924,24.447238,-1.000000,0.989205,0.006581,0.371233,0.000000,0.000000,0.000000,0.000000,0.000000,0.000000,0.000000,
2461,2518,4.43411756648763,-2.7597926117614,-0.000181544547217527,0.000000,0.000000,0.000000,0.000000,0.000000,322.746663,23.706109,-1.000000,0.984138,0.007462,0.379277,0.000000,0.000000,0.000000,0.000000,0.000000,0.000000,0.000000,
2476,2518,4.76067490367082,-2.758585446691,-0.0081482584757282,0.000000,0.000000,0.000000,0.000000,0.000000,322.715214,23.684202,-1.000000,0.984516,0.007579,0.372276,0.000000,0.000000,0.000000,0.000000,0.000000,0.000000,0.000000,
2491,2518,5.08746796467738,-2.7581782626788,-0.0137670426752834,0.000000,0.000000,0.000000,0.000000,0.000000,322.708142,23.609946,-1.000000,0.986615,0.007276,0.417554,0.000000,0.000000,0.000000,0.000000,0.000000,0.000000,0.000000,
2491,2533,5.08433623679452,-2.43029414808012,-0.0143133197738052,0.000000,0.000000,0.000000,0.000000,0.000000,322.459655,23.686478,-1.000000,0.989885,0.006482,0.400983,0.000000,0.000000,0.000000,0.000000,0.000000,0.000000,0.000000,
2131,3088,-2.84563266126787,9.62710584398869,0.0262425502431256,0.000000,0.000000,0.000000,0.000000,0.000000,314.033850,24.556459,-1.000000,0.995242,0.005246,0.369770,0.000000,0.000000,0.000000,0.000000,0.000000,0.000000,0.000000,
2161,3088,-2.19541176956553,9.63028781608187,0.0188720165336349,0.000000,0.000000,0.000000,0.000000,0.000000,313.851547,24.708155,-1.000000,0.991396,0.005862,0.329524,0.000000,0.000000,0.000000,0.000000,0.000000,0.000000,0.000000,
2191,3088,-1.54444383456598,9.63193321851064,0.0203570186225761,0.000000,0.000000,0.000000,0.000000,0.000000,313.761307,24.773085,-1.000000,0.992638,0.005550,0.376007,0.000000,0.000000,0.000000,0.000000,0.000000,0.000000,0.000000,
2311,3088,1.06067644003744,9.64114986030527,0.020583613439328,0.000000,0.000000,0.000000,0.000000,0.000000,313.525239,25.224142,-1.000000,0.995163,0.004841,0.370677,0.000000,0.000000,0.000000,0.000000,0.000000,0.000000,0.000000,
2341,3088,1.71094171811349,9.64482311862215,0.00186508845985145,0.000000,0.000000,0.000000,0.000000,0.000000,313.351993,25.340149,-1.000000,0.994152,0.004964,0.366041,0.000000,0.000000,0.000000,0.000000,0.000000,0.000000,0.000000,
2281,3088,0.408792901048173,9.63944369594296,0.0157110731719285,0.000000,0.000000,0.000000,0.000000,0.000000,313.517547,25.138154,-1.000000,0.993018,0.005806,0.345252,0.000000,0.000000,0.000000,0.000000,0.000000,0.000000,0.000000,
2011,2503,-5.36193571938883,-3.0934951499761,-0.0244143744289431,0.000000,0.000000,0.000000,0.000000,0.000000,323.751636,24.653670,-1.000000,0.992634,0.005992,0.296154,0.000000,0.000000,0.000000,0.000000,0.000000,0.000000,0.000000,
2026,2503,-5.03625783639535,-3.0929546921566,-0.0295073301176103,0.000000,0.000000,0.000000,0.000000,0.000000,323.614196,24.599479,-1.000000,0.992929,0.005820,0.320640,0.000000,0.000000,0.000000,0.000000,0.000000,0.000000,0.000000,
2041,2503,-4.70944608224789,-3.09497349994285,-0.01659653879301,0.000000,0.000000,0.000000,0.000000,0.000000,323.631866,24.474134,-1.000000,0.989896,0.006527,0.415260,0.000000,0.000000,0.000000,0.000000,0.000000,0.000000,0.000000,
2011,3088,-5.44679542708894,9.61825617137333,0.0287130219412006,0.000000,0.000000,0.000000,0.000000,0.000000,314.708462,24.120290,-1.000000,0.995247,0.004577,0.359812,0.000000,0.000000,0.000000,0.000000,0.000000,0.000000,0.000000,
2026,3088,-5.12200547569726,9.62030066350993,0.0247085869623902,0.000000,0.000000,0.000000,0.000000,0.000000,314.577754,24.238997,-1.000000,0.994669,0.004872,0.296979,0.000000,0.000000,0.000000,0.000000,0.000000,0.000000,0.000000,
2221,3088,-0.893925467615013,9.63508995862301,0.0131035900606093,0.000000,0.000000,0.000000,0.000000,0.000000,313.614653,24.920227,-1.000000,0.993441,0.005050,0.340310,0.000000,0.000000,0.000000,0.000000,0.000000,0.000000,0.000000,
2431,3088,3.66859833184374,9.65067764775569,0.0218882764383466,0.000000,0.000000,0.000000,0.000000,0.000000,313.577351,25.686685,-1.000000,0.993046,0.005670,0.353094,0.000000,0.000000,0.000000,0.000000,0.000000,0.000000,0.000000,
2461,3088,4.31940241390737,9.65446244874498,0.00263278699844705,0.000000,0.000000,0.000000,0.000000,0.000000,313.469411,25.803608,-1.000000,0.994034,0.005451,0.347703,0.000000,0.000000,0.000000,0.000000,0.000000,0.000000,0.000000,
2371,3088,2.36376085095639,9.64631517886268,0.0144630021466128,0.000000,0.000000,0.000000,0.000000,0.000000,313.459395,25.452427,-1.000000,0.990590,0.006120,0.364829,0.000000,0.000000,0.000000,0.000000,0.000000,0.000000,0.000000,
2101,3088,-3.49640157350668,9.62507577075491,0.0229548309467305,0.000000,0.000000,0.000000,0.000000,0.000000,314.143887,24.441674,-1.000000,0.987101,0.007030,0.373148,0.000000,0.000000,0.000000,0.000000,0.000000,0.000000,0.000000,
2251,3088,-0.242857547136282,9.63726170431421,0.0115192392287327,0.000000,0.000000,0.000000,0.000000,0.000000,313.533242,25.011141,-1.000000,0.991152,0.005904,0.360865,0.000000,0.000000,0.000000,0.000000,0.000000,0.000000,0.000000,
2041,3088,-4.79752624067475,9.62180117026887,0.0150493922503188,0.000000,0.000000,0.000000,0.000000,0.000000,314.404411,24.271423,-1.000000,0.994210,0.004971,0.320273,0.000000,0.000000,0.000000,0.000000,0.000000,0.000000,0.000000,
2386,2413,2.81924789148104,-5.05632062242527,0.00391364094605251,0.000000,0.000000,0.000000,0.000000,0.000000,324.372218,23.505679,-1.000000,0.985399,0.007768,0.412031,0.000000,0.000000,0.000000,0.000000,0.000000,0.000000,0.000000,
2386,2443,2.81237217339401,-4.39895436587057,-0.00985380494603305,0.000000,0.000000,0.000000,0.000000,0.000000,323.770590,23.617852,-1.000000,0.988790,0.007037,0.389654,0.000000,0.000000,0.000000,0.000000,0.000000,0.000000,0.000000,
2491,3088,4.97255848253124,9.6562360052093,0.00989761222922425,0.000000,0.000000,0.000000,0.000000,0.000000,313.602221,25.901926,-1.000000,0.990957,0.006025,0.360415,0.000000,0.000000,0.000000,0.000000,0.000000,0.000000,0.000000,
2506,3088,5.29884684385678,9.65749027005717,0.00922388583654765,0.000000,0.000000,0.000000,0.000000,0.000000,313.638950,25.957070,-1.000000,0.993069,0.005596,0.360956,0.000000,0.000000,0.000000,0.000000,0.000000,0.000000,0.000000,
2071,3088,-4.14736256641657,9.62318221897215,0.0139209170566801,0.000000,0.000000,0.000000,0.000000,0.000000,314.223208,24.301491,-1.000000,0.991344,0.005707,0.401850,0.000000,0.000000,0.000000,0.000000,0.000000,0.000000,0.000000,
2401,3088,3.01573781502089,9.64915960240632,0.0138130278714357,0.000000,0.000000,0.000000,0.000000,0.000000,313.472739,25.603753,-1.000000,0.991300,0.006006,0.324808,0.000000,0.000000,0.000000,0.000000,0.000000,0.000000,0.000000,
2476,3088,4.64645649440304,9.65503611987546,0.0122852024289273,0.000000,0.000000,0.000000,0.000000,0.000000,313.584219,25.862301,-1.000000,0.992052,0.005711,0.344485,0.000000,0.000000,0.000000,0.000000,0.000000,0.000000,0.000000,
2086,2533,-3.7356063199511,-2.43970781387823,-0.0129699694588226,0.000000,0.000000,0.000000,0.000000,0.000000,322.930893,24.433008,-1.000000,0.992489,0.005985,0.365976,0.000000,0.000000,0.000000,0.000000,0.000000,0.000000,0.000000,
2056,2503,-4.38371839317827,-3.09412019326259,-0.0220675147839415,0.000000,0.000000,0.000000,0.000000,0.000000,323.499745,24.444901,-1.000000,0.989421,0.006677,0.414724,0.000000,0.000000,0.000000,0.000000,0.000000,0.000000,0.000000,
2491,2548,5.08114439625851,-2.10243928449678,-0.0155818734499462,0.000000,0.000000,0.000000,0.000000,0.000000,322.205073,23.758815,-1.000000,0.989145,0.006877,0.388550,0.000000,0.000000,0.000000,0.000000,0.000000,0.000000,0.000000,
2506,2518,5.41457518711299,-2.75713170395706,-0.0160412652796822,0.000000,0.000000,0.000000,0.000000,0.000000,322.733011,23.624354,-1.000000,0.987141,0.007500,0.374226,0.000000,0.000000,0.000000,0.000000,0.000000,0.000000,0.000000,
2506,2533,5.41144666488657,-2.42888848298051,-0.016190466206524,0.000000,0.000000,0.000000,0.000000,0.000000,322.487606,23.737686,-1.000000,0.988658,0.007051,0.322890,0.000000,0.000000,0.000000,0.000000,0.000000,0.000000,0.000000,
2506,2548,5.40964094316201,-2.10230298297725,-0.000829654881158604,0.000000,0.000000,0.000000,0.000000,0.000000,322.372401,23.841327,-1.000000,0.990994,0.006601,0.280970,0.000000,0.000000,0.000000,0.000000,0.000000,0.000000,0.000000,
2071,2518,-4.05966654254719,-2.76692616186341,-0.0176688840346628,0.000000,0.000000,0.000000,0.000000,0.000000,323.211995,24.434148,-1.000000,0.991432,0.006040,0.392960,0.000000,0.000000,0.000000,0.000000,0.000000,0.000000,0.000000,
2011,3103,-5.44893566843647,9.94337433948584,0.0314644969240589,0.000000,0.000000,0.000000,0.000000,0.000000,314.486877,24.120634,-1.000000,0.995021,0.004617,0.346517,0.000000,0.000000,0.000000,0.000000,0.000000,0.000000,0.000000,
2026,3103,-5.12427201458863,9.94486091380103,0.0256931323373806,0.000000,0.000000,0.000000,0.000000,0.000000,314.341655,24.177587,-1.000000,0.994373,0.004991,0.347449,0.000000,0.000000,0.000000,0.000000,0.000000,0.000000,0.000000,
2116,3103,-3.17355499330656,9.95190526217272,0.0238855151210373,0.000000,0.000000,0.000000,0.000000,0.000000,313.835630,24.544678,-1.000000,0.995484,0.004984,0.328134,0.000000,0.000000,0.000000,0.000000,0.000000,0.000000,0.000000,
2146,3103,-2.52363160686309,9.95402436402469,0.0138549983224152,0.000000,0.000000,0.000000,0.000000,0.000000,313.622883,24.583742,-1.000000,0.996620,0.004284,0.405020,0.000000,0.000000,0.000000,0.000000,0.000000,0.000000,0.000000,
2296,3103,0.732244027971454,9.96558736201242,0.0220487173019706,0.000000,0.000000,0.000000,0.000000,0.000000,313.306577,25.211329,-1.000000,0.991446,0.006013,0.356723,0.000000,0.000000,0.000000,0.000000,0.000000,0.000000,0.000000,
2326,3103,1.38368195166973,9.96777362529659,0.0203612905768864,0.000000,0.000000,0.000000,0.000000,0.000000,313.267816,25.299740,-1.000000,0.994021,0.005081,0.384119,0.000000,0.000000,0.000000,0.000000,0.000000,0.000000,0.000000,
2041,3103,-4.79949797944481,9.94608962327017,0.0212581289198397,0.000000,0.000000,0.000000,0.000000,0.000000,314.212002,24.218817,-1.000000,0.994772,0.004776,0.364489,0.000000,0.000000,0.000000,0.000000,0.000000,0.000000,0.000000,
2056,3103,-4.47426545424453,9.94702369826374,0.0237657702538741,0.000000,0.000000,0.000000,0.000000,0.000000,314.144742,24.276112,-1.000000,0.992535,0.005425,0.365123,0.000000,0.000000,0.000000,0.000000,0.000000,0.000000,0.000000,
2356,3103,2.0348759752794,9.97139811619879,0.0134230627913894,0.000000,0.000000,0.000000,0.000000,0.000000,313.201840,25.486220,-1.000000,0.992280,0.005795,0.313190,0.000000,0.000000,0.000000,0.000000,0.000000,0.000000,0.000000,
2446,3103,3.99147618450371,9.97747125350263,0.0181917971443113,0.000000,0.000000,0.000000,0.000000,0.000000,313.325478,25.754600,-1.000000,0.993621,0.005589,0.392211,0.000000,0.000000,0.000000,0.000000,0.000000,0.000000,0.000000,
2476,3103,4.64389066879562,9.98044895354875,0.0180302080802335,0.000000,0.000000,0.000000,0.000000,0.000000,313.386621,25.917900,-1.000000,0.991252,0.005928,0.344397,0.000000,0.000000,0.000000,0.000000,0.000000,0.000000,0.000000,
2206,3103,-1.22138934372845,9.95825320179594,0.0228541251085517,0.000000,0.000000,0.000000,0.000000,0.000000,313.492199,24.838762,-1.000000,0.991738,0.005926,0.381763,0.000000,0.000000,0.000000,0.000000,0.000000,0.000000,0.000000,
2236,3103,-0.570966114235414,9.96099970843283,0.013781674800498,0.000000,0.000000,0.000000,0.000000,0.000000,313.339153,24.937020,-1.000000,0.993326,0.005252,0.399255,0.000000,0.000000,0.000000,0.000000,0.000000,0.000000,0.000000,
2491,3103,4.96980351280474,9.98176562582468,0.013625555169142,0.000000,0.000000,0.000000,0.000000,0.000000,313.387629,25.955951,-1.000000,0.990053,0.006062,0.364175,0.000000,0.000000,0.000000,0.000000,0.000000,0.000000,0.000000,
2506,3103,5.29595732164226,9.98262405772472,0.0115882907815603,0.000000,0.000000,0.000000,0.000000,0.000000,313.413102,25.966209,-1.000000,0.992802,0.005579,0.411889,0.000000,0.000000,0.000000,0.000000,0.000000,0.000000,0.000000,
2416,3103,3.33903886376634,9.97605172191156,0.0159281389402963,0.000000,0.000000,0.000000,0.000000,0.000000,313.260781,25.718221,-1.000000,0.994980,0.005207,0.312754,0.000000,0.000000,0.000000,0.000000,0.000000,0.000000,0.000000,
2266,3103,0.0806812546249063,9.96356138893328,0.0197541730206012,0.000000,0.000000,0.000000,0.000000,0.000000,313.329392,25.111157,-1.000000,0.993788,0.005418,0.341098,0.000000,0.000000,0.000000,0.000000,0.000000,0.000000,0.000000,
2011,2488,-5.35935359383188,-3.42234651965404,-0.0183037008881684,0.000000,0.000000,0.000000,0.000000,0.000000,324.045296,24.556289,-1.000000,0.987792,0.006905,0.404491,0.000000,0.000000,0.000000,0.000000,0.000000,0.000000,0.000000,
2026,2488,-5.03329781347608,-3.42265474449844,-0.0176838136216588,0.000000,0.000000,0.000000,0.000000,0.000000,323.955777,24.475911,-1.000000,0.987650,0.006878,0.452453,0.000000,0.000000,0.000000,0.000000,0.000000,0.000000,0.000000,
2041,2488,-4.70674901907003,-3.42236332076097,-0.00950784895780998,0.000000,0.000000,0.000000,0.000000,0.000000,323.932986,24.519259,-1.000000,0.987793,0.007230,0.376530,0.000000,0.000000,0.000000,0.000000,0.000000,0.000000,0.000000,
2176,3103,-1.87249723583141,9.95622263701442,0.0198444229440042,0.000000,0.000000,0.000000,0.000000,0.000000,313.561261,24.729089,-1.000000,0.993919,0.005072,0.375490,0.000000,0.000000,0.000000,0.000000,0.000000,0.000000,0.000000,
2101,2518,-3.40776145245855,-2.76517093192992,-0.0233075994514138,0.000000,0.000000,0.000000,0.000000,0.000000,323.013238,24.428672,-1.000000,0.992824,0.005709,0.342525,0.000000,0.000000,0.000000,0.000000,0.000000,0.000000,0.000000,
2101,2548,-3.41345068522699,-2.11116604791684,-0.0379443097286298,0.000000,0.000000,0.000000,0.000000,0.000000,322.406635,24.294918,-1.000000,0.993784,0.005682,0.481090,0.000000,0.000000,0.000000,0.000000,0.000000,0.000000,0.000000,
2086,2503,-3.73118682500319,-3.09373669152727,-0.0174409798052011,0.000000,0.000000,0.000000,0.000000,0.000000,323.378420,24.406101,-1.000000,0.990519,0.006016,0.392746,0.000000,0.000000,0.000000,0.000000,0.000000,0.000000,0.000000,
2086,3103,-3.8241686567599,9.94935704825971,0.0209482597879855,0.000000,0.000000,0.000000,0.000000,0.000000,313.957569,24.383215,-1.000000,0.994058,0.005084,0.373929,0.000000,0.000000,0.000000,0.000000,0.000000,0.000000,0.000000,
2386,3103,2.68700648434539,9.97272580991695,0.0163865752457468,0.000000,0.000000,0.000000,0.000000,0.000000,313.237382,25.521622,-1.000000,0.988966,0.006307,0.393573,0.000000,0.000000,0.000000,0.000000,0.000000,0.000000,0.000000,
2491,2563,5.0776390105352,-1.77447503680487,-0.0205889399479133,0.000000,0.000000,0.000000,0.000000,0.000000,321.919154,23.813264,-1.000000,0.989330,0.007003,0.393882,0.000000,0.000000,0.000000,0.000000,0.000000,0.000000,0.000000,
2506,2563,5.4064044109971,-1.77627307130993,-0.00246669188845772,0.000000,0.000000,0.000000,0.000000,0.000000,322.115593,23.747002,-1.000000,0.991405,0.006557,0.437263,0.000000,0.000000,0.000000,0.000000,0.000000,0.000000,0.000000,
2071,2488,-4.05445788849871,-3.4220257714114,-0.00864059265541073,0.000000,0.000000,0.000000,0.000000,0.000000,323.771940,24.441828,-1.000000,0.990751,0.006692,0.389048,0.000000,0.000000,0.000000,0.000000,0.000000,0.000000,0.000000,
2401,2428,3.14295937118092,-4.72705037800215,-0.00311669751647514,0.000000,0.000000,0.000000,0.000000,0.000000,324.083863,23.549923,-1.000000,0.985646,0.007708,0.370618,0.000000,0.000000,0.000000,0.000000,0.000000,0.000000,0.000000,
2191,2488,-1.44470924737014,-3.41837966808645,-0.0198561269804145,0.000000,0.000000,0.000000,0.000000,0.000000,323.177440,24.203794,-1.000000,0.982611,0.008486,0.366965,0.000000,0.000000,0.000000,0.000000,0.000000,0.000000,0.000000,
2476,2818,4.69825723676654,3.78572831483098,-0.0242827491878757,0.000000,0.000000,0.000000,0.000000,0.000000,317.693745,24.841673,-1.000000,0.986887,0.007291,0.356877,0.000000,0.000000,0.000000,0.000000,0.000000,0.000000,0.000000,
2131,3118,-2.85086872403667,10.2780439663709,0.0224696758582468,0.000000,0.000000,0.000000,0.000000,0.000000,313.512281,24.573618,-1.000000,0.995582,0.004790,0.361793,0.000000,0.000000,0.000000,0.000000,0.000000,0.000000,0.000000,
2161,3118,-2.19990020463076,10.2802622218409,0.027749129901224,0.000000,0.000000,0.000000,0.000000,0.000000,313.435999,24.717363,-1.000000,0.993109,0.005417,0.338304,0.000000,0.000000,0.000000,0.000000,0.000000,0.000000,0.000000,
2101,3118,-3.50136331107526,10.2757986490736,0.0218934541604199,0.000000,0.000000,0.000000,0.000000,0.000000,313.645205,24.455006,-1.000000,0.994843,0.004749,0.360125,0.000000,0.000000,0.000000,0.000000,0.000000,0.000000,0.000000,
2011,3118,-5.45159005650295,10.2688490560295,0.0255789470775767,0.000000,0.000000,0.000000,0.000000,0.000000,314.192974,24.103752,-1.000000,0.995302,0.004571,0.350344,0.000000,0.000000,0.000000,0.000000,0.000000,0.000000,0.000000,
2026,3118,-5.12671137982754,10.2704188705476,0.023867863804071,0.000000,0.000000,0.000000,0.000000,0.000000,314.081550,24.194333,-1.000000,0.994795,0.004860,0.320132,0.000000,0.000000,0.000000,0.000000,0.000000,0.000000,0.000000,
2401,3118,3.01107672140811,10.2995504438109,0.0287643891676339,0.000000,0.000000,0.000000,0.000000,0.000000,313.106952,25.697572,-1.000000,0.995676,0.004735,0.319886,0.000000,0.000000,0.000000,0.000000,0.000000,0.000000,0.000000,
2431,3118,3.66134359078045,10.3036229628989,0.00574769457335833,0.000000,0.000000,0.000000,0.000000,0.000000,312.949707,25.822645,-1.000000,0.995248,0.005076,0.315007,0.000000,0.000000,0.000000,0.000000,0.000000,0.000000,0.000000,
2041,3118,-4.80187425615241,10.2710287744564,0.0208645923680706,0.000000,0.000000,0.000000,0.000000,0.000000,313.964101,24.188179,-1.000000,0.994976,0.004650,0.386401,0.000000,0.000000,0.000000,0.000000,0.000000,0.000000,0.000000,
2071,3118,-4.15077118188131,10.2725801862254,0.0362134364051485,0.000000,0.000000,0.000000,0.000000,0.000000,313.920266,24.337690,-1.000000,0.994591,0.004783,0.357019,0.000000,0.000000,0.000000,0.000000,0.000000,0.000000,0.000000,
2311,3118,1.05521231377493,10.2925707181484,0.0219066672475492,0.000000,0.000000,0.000000,0.000000,0.000000,313.045201,25.324819,-1.000000,0.991697,0.005846,0.332041,0.000000,0.000000,0.000000,0.000000,0.000000,0.000000,0.000000,
2341,3118,1.70708926198757,10.2945387261944,0.025506673370387,0.000000,0.000000,0.000000,0.000000,0.000000,313.059468,25.425736,-1.000000,0.993381,0.005411,0.351433,0.000000,0.000000,0.000000,0.000000,0.000000,0.000000,0.000000,
2191,3118,-1.54892795391294,10.281907755574,0.03048759789408,0.000000,0.000000,0.000000,0.000000,0.000000,313.356126,24.791037,-1.000000,0.992728,0.005570,0.384926,0.000000,0.000000,0.000000,0.000000,0.000000,0.000000,0.000000,
2251,3118,-0.247411748609125,10.2876495874275,0.0229103936000001,0.000000,0.000000,0.000000,0.000000,0.000000,313.138170,25.078434,-1.000000,0.991664,0.005950,0.337827,0.000000,0.000000,0.000000,0.000000,0.000000,0.000000,0.000000,
2281,3118,0.402736117439531,10.2911865277868,0.0076526717286356,0.000000,0.000000,0.000000,0.000000,0.000000,312.958984,25.210009,-1.000000,0.994515,0.005213,0.326789,0.000000,0.000000,0.000000,0.000000,0.000000,0.000000,0.000000,
2116,2533,-3.08390834575053,-2.4384591986946,-0.022297033629286,0.000000,0.000000,0.000000,0.000000,0.000000,322.710299,24.349015,-1.000000,0.986913,0.007171,0.398449,0.000000,0.000000,0.000000,0.000000,0.000000,0.000000,0.000000,
2461,3118,4.31425398701613,10.3046440656216,0.0134101151900268,0.000000,0.000000,0.000000,0.000000,0.000000,313.068538,25.855187,-1.000000,0.990945,0.006111,0.402710,0.000000,0.000000,0.000000,0.000000,0.000000,0.000000,0.000000,
2221,3118,-0.898223562953319,10.2851739807021,0.027032815233099,0.000000,0.000000,0.000000,0.000000,0.000000,313.241061,24.973992,-1.000000,0.992128,0.005870,0.322241,0.000000,0.000000,0.000000,0.000000,0.000000,0.000000,0.000000,
2116,2503,-3.07867571653297,-3.09358351650772,-0.0158037886802731,0.000000,0.000000,0.000000,0.000000,0.000000,323.249680,24.318672,-1.000000,0.986045,0.007186,0.419637,0.000000,0.000000,0.000000,0.000000,0.000000,0.000000,0.000000,
2491,3118,4.966807111693,10.3074681192259,0.014481539160272,0.000000,0.000000,0.000000,0.000000,0.000000,313.148799,26.011533,-1.000000,0.991263,0.005787,0.366462,0.000000,0.000000,0.000000,0.000000,0.000000,0.000000,0.000000,
2506,3118,5.29292373121822,10.309187994666,0.0123272658148608,0.000000,0.000000,0.000000,0.000000,0.000000,313.172814,26.100824,-1.000000,0.992282,0.005689,0.337072,0.000000,0.000000,0.000000,0.000000,0.000000,0.000000,0.000000,
2371,3118,2.35795091308834,10.2978899073478,0.0137479847595046,0.000000,0.000000,0.000000,0.000000,0.000000,312.961937,25.557267,-1.000000,0.992492,0.005718,0.340077,0.000000,0.000000,0.000000,0.000000,0.000000,0.000000,0.000000,
2476,3118,4.64090726118949,10.3058086693481,0.0187443559057101,0.000000,0.000000,0.000000,0.000000,0.000000,313.146815,25.940521,-1.000000,0.990979,0.005919,0.377160,0.000000,0.000000,0.000000,0.000000,0.000000,0.000000,0.000000,
2056,2473,-4.37848621697634,-3.74798663231346,-0.0114718707152974,0.000000,0.000000,0.000000,0.000000,0.000000,324.071792,24.590133,-1.000000,0.987084,0.007663,0.277466,0.000000,0.000000,0.000000,0.000000,0.000000,0.000000,0.000000,
2086,2473,-3.72673989755452,-3.74734991743638,-0.0213051439797596,0.000000,0.000000,0.000000,0.000000,0.000000,323.830434,24.440838,-1.000000,0.989215,0.006855,0.357855,0.000000,0.000000,0.000000,0.000000,0.000000,0.000000,0.000000,
2101,2488,-3.40255324260881,-3.42110864049828,-0.0162827750804126,0.000000,0.000000,0.000000,0.000000,0.000000,323.557180,24.339286,-1.000000,0.989571,0.006415,0.426948,0.000000,0.000000,0.000000,0.000000,0.000000,0.000000,0.000000,
2491,2818,5.02483325188163,3.78638792946617,-0.0260314588767301,0.000000,0.000000,0.000000,0.000000,0.000000,317.718001,24.830734,-1.000000,0.988509,0.006971,0.383250,0.000000,0.000000,0.000000,0.000000,0.000000,0.000000,0.000000,
2491,2833,5.02186461889793,4.11276464921067,-0.0247759712253242,0.000000,0.000000,0.000000,0.000000,0.000000,317.483681,24.876121,-1.000000,0.989089,0.006647,0.396493,0.000000,0.000000,0.000000,0.000000,0.000000,0.000000,0.000000,
2491,2848,5.01912583710395,4.44011610135639,-0.0207068793636154,0.000000,0.000000,0.000000,0.000000,0.000000,317.272311,25.036438,-1.000000,0.992070,0.005860,0.294911,0.000000,0.000000,0.000000,0.000000,0.000000,0.000000,0.000000,
2326,2383,1.51549303703331,-5.71034004787612,-0.00872228714729317,0.000000,0.000000,0.000000,0.000000,0.000000,324.739468,23.715900,-1.000000,0.988047,0.007368,0.307365,0.000000,0.000000,0.000000,0.000000,0.000000,0.000000,0.000000,
2356,2383,2.16960909492868,-5.70937121839732,-0.00947680414310526,0.000000,0.000000,0.000000,0.000000,0.000000,324.730186,23.674199,-1.000000,0.982809,0.008219,0.251763,0.000000,0.000000,0.000000,0.000000,0.000000,0.000000,0.000000,
2356,2473,2.15252658197029,-3.74318588209465,-0.0102940650887717,0.000000,0.000000,0.000000,0.000000,0.000000,323.265910,23.851268,-1.000000,0.988549,0.006924,0.316557,0.000000,0.000000,0.000000,0.000000,0.000000,0.000000,0.000000,
2491,2863,5.0161070626462,4.76586690384324,-0.0200977234474067,0.000000,0.000000,0.000000,0.000000,0.000000,317.032748,25.027612,-1.000000,0.991708,0.005919,0.362302,0.000000,0.000000,0.000000,0.000000,0.000000,0.000000,0.000000,
2386,3133,2.6818101857438,10.6240412370335,0.0241113738264289,0.000000,0.000000,0.000000,0.000000,0.000000,312.810508,25.662428,-1.000000,0.993428,0.005445,0.337046,0.000000,0.000000,0.000000,0.000000,0.000000,0.000000,0.000000,
2416,3133,3.33321909456773,10.6259960873289,0.0168274883712343,0.000000,0.000000,0.000000,0.000000,0.000000,312.777303,25.691541,-1.000000,0.995579,0.004790,0.432708,0.000000,0.000000,0.000000,0.000000,0.000000,0.000000,0.000000,
2116,3133,-3.17890426795956,10.6028610362589,0.0176350141389889,0.000000,0.000000,0.000000,0.000000,0.000000,313.293248,24.556098,-1.000000,0.997020,0.004256,0.321496,0.000000,0.000000,0.000000,0.000000,0.000000,0.000000,0.000000,
2146,3133,-2.52797082012419,10.604003449215,0.0244295703221837,0.000000,0.000000,0.000000,0.000000,0.000000,313.221401,24.611118,-1.000000,0.993779,0.005299,0.391077,0.000000,0.000000,0.000000,0.000000,0.000000,0.000000,0.000000,
2011,3133,-5.45402522365201,10.594147937197,0.0234342755185253,0.000000,0.000000,0.000000,0.000000,0.000000,313.930274,24.098379,-1.000000,0.994341,0.004911,0.342737,0.000000,0.000000,0.000000,0.000000,0.000000,0.000000,0.000000,
2026,3133,-5.12879720894355,10.5951302084502,0.027953599041723,0.000000,0.000000,0.000000,0.000000,0.000000,313.871092,24.173603,-1.000000,0.993978,0.005093,0.329744,0.000000,0.000000,0.000000,0.000000,0.000000,0.000000,0.000000,
2446,3133,3.9853309575551,10.6295521402293,0.0163612617783997,0.000000,0.000000,0.000000,0.000000,0.000000,312.817913,25.908584,-1.000000,0.988885,0.006708,0.340122,0.000000,0.000000,0.000000,0.000000,0.000000,0.000000,0.000000,
2041,3133,-4.8037407755738,10.5960339168551,0.028909086939791,0.000000,0.000000,0.000000,0.000000,0.000000,313.786518,24.219338,-1.000000,0.993082,0.005182,0.346565,0.000000,0.000000,0.000000,0.000000,0.000000,0.000000,0.000000,
2056,3133,-4.47894494246611,10.5971496309423,0.0249915768236519,0.000000,0.000000,0.000000,0.000000,0.000000,313.665476,24.254294,-1.000000,0.993090,0.004862,0.373922,0.000000,0.000000,0.000000,0.000000,0.000000,0.000000,0.000000,
2086,3133,-3.82864335903233,10.5994855330928,0.0268934126112867,0.000000,0.000000,0.000000,0.000000,0.000000,313.517579,24.392360,-1.000000,0.994019,0.004885,0.360343,0.000000,0.000000,0.000000,0.000000,0.000000,0.000000,0.000000,
2266,3133,0.076130531733444,10.6125253875733,0.0316978372010226,0.000000,0.000000,0.000000,0.000000,0.000000,312.939448,25.057061,-1.000000,0.995094,0.004877,0.444059,0.000000,0.000000,0.000000,0.000000,0.000000,0.000000,0.000000,
2296,3133,0.726520918124763,10.6165830405812,0.0192339220940312,0.000000,0.000000,0.000000,0.000000,0.000000,312.792025,25.254552,-1.000000,0.994541,0.005190,0.371198,0.000000,0.000000,0.000000,0.000000,0.000000,0.000000,0.000000,
2326,3133,1.37786423671471,10.6190929700214,0.0176265379477627,0.000000,0.000000,0.000000,0.000000,0.000000,312.753628,25.374455,-1.000000,0.991996,0.005470,0.375798,0.000000,0.000000,0.000000,0.000000,0.000000,0.000000,0.000000,
2356,3133,2.02980676395385,10.6216754697738,0.021664448427714,0.000000,0.000000,0.000000,0.000000,0.000000,312.779923,25.534107,-1.000000,0.992005,0.005838,0.340839,0.000000,0.000000,0.000000,0.000000,0.000000,0.000000,0.000000,
2176,3133,-1.87678896780298,10.6065055547006,0.0322917575221595,0.000000,0.000000,0.000000,0.000000,0.000000,313.175189,24.796305,-1.000000,0.992713,0.005673,0.330418,0.000000,0.000000,0.000000,0.000000,0.000000,0.000000,0.000000,
2206,3133,-1.22600246686081,10.6086783585094,0.0317545391550311,0.000000,0.000000,0.000000,0.000000,0.000000,313.076302,24.898047,-1.000000,0.993996,0.005310,0.353712,0.000000,0.000000,0.000000,0.000000,0.000000,0.000000,0.000000,
2491,3133,4.96364983416526,10.6333128659711,0.0134244572822126,0.000000,0.000000,0.000000,0.000000,0.000000,312.893778,26.072323,-1.000000,0.991151,0.005737,0.363358,0.000000,0.000000,0.000000,0.000000,0.000000,0.000000,0.000000,
2506,3133,5.28963940115535,10.6348528913158,0.0100496605170974,0.000000,0.000000,0.000000,0.000000,0.000000,312.907615,26.137830,-1.000000,0.992179,0.005675,0.360142,0.000000,0.000000,0.000000,0.000000,0.000000,0.000000,0.000000,
2236,3133,-0.576446445835128,10.6125847501237,0.011615410607078,0.000000,0.000000,0.000000,0.000000,0.000000,312.830001,25.037650,-1.000000,0.992511,0.005931,0.338702,0.000000,0.000000,0.000000,0.000000,0.000000,0.000000,0.000000,
2506,2833,5.34894636617048,4.1136279126105,-0.0207439958334703,0.000000,0.000000,0.000000,0.000000,0.000000,317.560541,24.927525,-1.000000,0.990670,0.006331,0.362988,0.000000,0.000000,0.000000,0.000000,0.000000,0.000000,0.000000,
2506,2848,5.34592302446701,4.44096857160282,-0.0197780193930157,0.000000,0.000000,0.000000,0.000000,0.000000,317.323189,25.063523,-1.000000,0.992576,0.005713,0.287629,0.000000,0.000000,0.000000,0.000000,0.000000,0.000000,0.000000,
2506,2863,5.34195497746031,4.76754041886439,-0.030044490877458,0.000000,0.000000,0.000000,0.000000,0.000000,316.992169,25.049842,-1.000000,0.992932,0.005651,0.362456,0.000000,0.000000,0.000000,0.000000,0.000000,0.000000,0.000000,
2491,2878,5.01368116635041,5.09077235564374,-0.0124719780852161,0.000000,0.000000,0.000000,0.000000,0.000000,316.852251,24.996637,-1.000000,0.992849,0.005506,0.451648,0.000000,0.000000,0.000000,0.000000,0.000000,0.000000,0.000000,
2506,2878,5.34029834316232,5.0922197002959,-0.0131097297903011,0.000000,0.000000,0.000000,0.000000,0.000000,316.889651,25.067136,-1.000000,0.993260,0.005530,0.405418,0.000000,0.000000,0.000000,0.000000,0.000000,0.000000,0.000000,
2476,3133,4.63790980861711,10.6321690796799,0.0193424012570631,0.000000,0.000000,0.000000,0.000000,0.000000,312.905444,26.058584,-1.000000,0.990333,0.006019,0.314678,0.000000,0.000000,0.000000,0.000000,0.000000,0.000000,0.000000,
2116,2473,-3.07375424402703,-3.74729359394625,-0.0138942503730277,0.000000,0.000000,0.000000,0.000000,0.000000,323.749865,24.396699,-1.000000,0.989350,0.006643,0.332451,0.000000,0.000000,0.000000,0.000000,0.000000,0.000000,0.000000,
2071,2458,-4.04959073875991,-4.07707408971628,-0.00497325405359561,0.000000,0.000000,0.000000,0.000000,0.000000,324.286952,24.426418,-1.000000,0.989539,0.006878,0.408240,0.000000,0.000000,0.000000,0.000000,0.000000,0.000000,0.000000,
2101,2458,-3.39764474486728,-4.0754589736246,-0.0136994973555034,0.000000,0.000000,0.000000,0.000000,0.000000,324.063025,24.375352,-1.000000,0.988335,0.006917,0.386105,0.000000,0.000000,0.000000,0.000000,0.000000,0.000000,0.000000,
2506,2818,5.35128416135013,3.78811481674398,-0.0296864716796108,0.000000,0.000000,0.000000,0.000000,0.000000,317.730150,24.903232,-1.000000,0.989368,0.006664,0.326275,0.000000,0.000000,0.000000,0.000000,0.000000,0.000000,0.000000,
2341,2488,1.82312766738464,-3.41735792168078,-0.0057482349538418,0.000000,0.000000,0.000000,0.000000,0.000000,323.060882,23.829812,-1.000000,0.987438,0.006999,0.411016,0.000000,0.000000,0.000000,0.000000,0.000000,0.000000,0.000000,
2476,2803,4.70102016398708,3.45981031877088,-0.0276873996053837,0.000000,0.000000,0.000000,0.000000,0.000000,317.909743,24.826454,-1.000000,0.985343,0.007438,0.315482,0.000000,0.000000,0.000000,0.000000,0.000000,0.000000,0.000000,
2311,2368,1.19122558271944,-6.0393040273925,-0.0087500940316545,0.000000,0.000000,0.000000,0.000000,0.000000,324.990182,23.648511,-1.000000,0.989078,0.006891,0.389444,0.000000,0.000000,0.000000,0.000000,0.000000,0.000000,0.000000,
2101,3148,-3.5055852219569,10.9248401603296,0.0324953109490025,0.000000,0.000000,0.000000,0.000000,0.000000,313.244413,24.400243,-1.000000,0.996585,0.004397,0.415122,0.000000,0.000000,0.000000,0.000000,0.000000,0.000000,0.000000,
2131,3148,-2.85542622285287,10.9277791764838,0.0291500725649598,0.000000,0.000000,0.000000,0.000000,0.000000,313.078284,24.560156,-1.000000,0.993633,0.005151,0.384240,0.000000,0.000000,0.000000,0.000000,0.000000,0.000000,0.000000,
2401,3148,3.0052936624608,10.9500108448403,0.0295727853951462,0.000000,0.000000,0.000000,0.000000,0.000000,312.622375,25.723527,-1.000000,0.995264,0.004730,0.382576,0.000000,0.000000,0.000000,0.000000,0.000000,0.000000,0.000000,
2431,3148,3.6556650125453,10.9543294895272,0.009019555163718,0.000000,0.000000,0.000000,0.000000,0.000000,312.485475,25.890245,-1.000000,0.993984,0.005081,0.344994,0.000000,0.000000,0.000000,0.000000,0.000000,0.000000,0.000000,
2251,3148,-0.25250414550743,10.9378826106008,0.0268325210174112,0.000000,0.000000,0.000000,0.000000,0.000000,312.680395,25.098656,-1.000000,0.988709,0.006361,0.361973,0.000000,0.000000,0.000000,0.000000,0.000000,0.000000,0.000000,
2281,3148,0.398373765361672,10.9404639139711,0.0227397577202737,0.000000,0.000000,0.000000,0.000000,0.000000,312.594962,25.213055,-1.000000,0.993316,0.005710,0.376757,0.000000,0.000000,0.000000,0.000000,0.000000,0.000000,0.000000,
2311,3148,1.04952607101486,10.9434709200121,0.0202704534985969,0.000000,0.000000,0.000000,0.000000,0.000000,312.540321,25.374936,-1.000000,0.992720,0.005654,0.343954,0.000000,0.000000,0.000000,0.000000,0.000000,0.000000,0.000000,
2011,3148,-5.45606457658095,10.9182952386654,0.0279873393882326,0.000000,0.000000,0.000000,0.000000,0.000000,313.723926,24.031832,-1.000000,0.993727,0.005282,0.396089,0.000000,0.000000,0.000000,0.000000,0.000000,0.000000,0.000000,
2026,3148,-5.1307526633558,10.9192639915677,0.0342380738907195,0.000000,0.000000,0.000000,0.000000,0.000000,313.679179,24.116358,-1.000000,0.994830,0.004823,0.376178,0.000000,0.000000,0.000000,0.000000,0.000000,0.000000,0.000000,
2071,3148,-4.15575600470966,10.9227524786963,0.0333496282589749,0.000000,0.000000,0.000000,0.000000,0.000000,313.406613,24.302001,-1.000000,0.995976,0.004289,0.384168,0.000000,0.000000,0.000000,0.000000,0.000000,0.000000,0.000000,
2191,3148,-1.554342802125,10.9334126614474,0.0271623188441481,0.000000,0.000000,0.000000,0.000000,0.000000,312.837398,24.881189,-1.000000,0.991362,0.005977,0.321177,0.000000,0.000000,0.000000,0.000000,0.000000,0.000000,0.000000,
2221,3148,-0.903448119490861,10.9350958368878,0.0277877785607075,0.000000,0.000000,0.000000,0.000000,0.000000,312.757080,24.944683,-1.000000,0.992568,0.005618,0.387030,0.000000,0.000000,0.000000,0.000000,0.000000,0.000000,0.000000,
2041,3148,-4.80569555585265,10.9203581020181,0.0355166314962503,0.000000,0.000000,0.000000,0.000000,0.000000,313.597189,24.181867,-1.000000,0.993950,0.005131,0.375072,0.000000,0.000000,0.000000,0.000000,0.000000,0.000000,0.000000,
2161,3148,-2.20539865302653,10.9308719696483,0.0216462484505087,0.000000,0.000000,0.000000,0.000000,0.000000,312.894624,24.707416,-1.000000,0.992223,0.005834,0.366105,0.000000,0.000000,0.000000,0.000000,0.000000,0.000000,0.000000,
2371,3148,2.35296223913618,10.948506704857,0.023587416659268,0.000000,0.000000,0.000000,0.000000,0.000000,312.553020,25.653776,-1.000000,0.991543,0.005846,0.323304,0.000000,0.000000,0.000000,0.000000,0.000000,0.000000,0.000000,
2491,2893,5.00967236510985,5.41938425427109,-0.0234792306382587,0.000000,0.000000,0.000000,0.000000,0.000000,316.513847,25.174817,-1.000000,0.987889,0.006446,0.332152,0.000000,0.000000,0.000000,0.000000,0.000000,0.000000,0.000000,
2506,2893,5.337704362425,5.41914962991609,-0.00710312123953827,0.000000,0.000000,0.000000,0.000000,0.000000,316.694456,25.214199,-1.000000,0.990766,0.006376,0.319030,0.000000,0.000000,0.000000,0.000000,0.000000,0.000000,0.000000,
2491,3148,4.96091413452136,10.9589876131514,0.0173854808739407,0.000000,0.000000,0.000000,0.000000,0.000000,312.680833,26.151948,-1.000000,0.990320,0.006048,0.341147,0.000000,0.000000,0.000000,0.000000,0.000000,0.000000,0.000000,
2506,3148,5.28713507839939,10.9603068580934,0.0169780798097463,0.000000,0.000000,0.000000,0.000000,0.000000,312.719633,26.215471,-1.000000,0.991178,0.005912,0.342236,0.000000,0.000000,0.000000,0.000000,0.000000,0.000000,0.000000,
2341,3148,1.70146124366429,10.9456139865715,0.0259230470680336,0.000000,0.000000,0.000000,0.000000,0.000000,312.571557,25.504834,-1.000000,0.993852,0.005269,0.343112,0.000000,0.000000,0.000000,0.000000,0.000000,0.000000,0.000000,
2476,3148,4.63498018153813,10.9577233471803,0.0207131704568724,0.000000,0.000000,0.000000,0.000000,0.000000,312.670880,26.110809,-1.000000,0.989765,0.006139,0.317832,0.000000,0.000000,0.000000,0.000000,0.000000,0.000000,0.000000,
2461,3148,4.30875066737251,10.9559877925547,0.0199397214993269,0.000000,0.000000,0.000000,0.000000,0.000000,312.631176,26.000902,-1.000000,0.989779,0.006096,0.363280,0.000000,0.000000,0.000000,0.000000,0.000000,0.000000,0.000000,
2056,2443,-4.37405543572241,-4.40303146712397,-0.0139165546946742,0.000000,0.000000,0.000000,0.000000,0.000000,324.535801,24.528183,-1.000000,0.987113,0.007105,0.347748,0.000000,0.000000,0.000000,0.000000,0.000000,0.000000,0.000000,
2086,2443,-3.72168793011794,-4.40230021132458,-0.0155293227932134,0.000000,0.000000,0.000000,0.000000,0.000000,324.362837,24.461658,-1.000000,0.988020,0.007052,0.336333,0.000000,0.000000,0.000000,0.000000,0.000000,0.000000,0.000000,
2131,2458,-2.74541534079183,-4.07309494524945,-0.0200004678950449,0.000000,0.000000,0.000000,0.000000,0.000000,323.876104,24.414933,-1.000000,0.989200,0.006943,0.272664,0.000000,0.000000,0.000000,0.000000,0.000000,0.000000,0.000000,
2131,2488,-2.75012515598833,-3.42013320259748,-0.0179347891785255,0.000000,0.000000,0.000000,0.000000,0.000000,323.409418,24.296355,-1.000000,0.987743,0.007246,0.405021,0.000000,0.000000,0.000000,0.000000,0.000000,0.000000,0.000000,
2296,2353,0.867999381374421,-6.36867403138827,0.00552671389857551,0.000000,0.000000,0.000000,0.000000,0.000000,325.364206,23.689110,-1.000000,0.988867,0.006901,0.367279,0.000000,0.000000,0.000000,0.000000,0.000000,0.000000,0.000000,
2296,2383,0.862105516633655,-5.71159872757634,-0.000399642666764066,0.000000,0.000000,0.000000,0.000000,0.000000,324.829287,23.803709,-1.000000,0.982930,0.008319,0.316371,0.000000,0.000000,0.000000,0.000000,0.000000,0.000000,0.000000,
2326,2353,1.52182288542253,-6.36731885945569,0.001414086114778,0.000000,0.000000,0.000000,0.000000,0.000000,325.309545,23.649218,-1.000000,0.982807,0.007858,0.301337,0.000000,0.000000,0.000000,0.000000,0.000000,0.000000,0.000000,
2116,2443,-3.06861841061787,-4.40423788671415,-0.00884281563810418,0.000000,0.000000,0.000000,0.000000,0.000000,324.277461,24.228174,-1.000000,0.988422,0.007165,0.491336,0.000000,0.000000,0.000000,0.000000,0.000000,0.000000,0.000000,
2311,2398,1.18790918204564,-5.38689988365586,0.0203598349533536,0.000000,0.000000,0.000000,0.000000,0.000000,324.748800,23.683394,-1.000000,0.987268,0.007645,0.421308,0.000000,0.000000,0.000000,0.000000,0.000000,0.000000,0.000000,
2341,2368,1.8453149755993,-6.03881214390901,-0.00950938271506629,0.000000,0.000000,0.000000,0.000000,0.000000,324.972463,23.562755,-1.000000,0.985281,0.007551,0.373470,0.000000,0.000000,0.000000,0.000000,0.000000,0.000000,0.000000,
2086,3163,-3.83362969447106,11.2501414597992,0.0248681034406673,0.000000,0.000000,0.000000,0.000000,0.000000,313.010437,24.416200,-1.000000,0.995565,0.004670,0.332167,0.000000,0.000000,0.000000,0.000000,0.000000,0.000000,0.000000,
2116,3163,-3.18318170865099,11.2518901047591,0.0280372690110084,0.000000,0.000000,0.000000,0.000000,0.000000,312.890573,24.507266,-1.000000,0.993315,0.005341,0.374790,0.000000,0.000000,0.000000,0.000000,0.000000,0.000000,0.000000,
2056,3163,-4.48314493211674,11.246833579125,0.034149084892249,0.000000,0.000000,0.000000,0.000000,0.000000,313.252315,24.254550,-1.000000,0.992472,0.005470,0.360331,0.000000,0.000000,0.000000,0.000000,0.000000,0.000000,0.000000,
2386,3163,2.67622025605816,11.2745548829135,0.0267996526623051,0.000000,0.000000,0.000000,0.000000,0.000000,312.341543,25.712586,-1.000000,0.991400,0.005902,0.371007,0.000000,0.000000,0.000000,0.000000,0.000000,0.000000,0.000000,
2416,3163,3.32814077274813,11.2769795653617,0.0270677476332253,0.000000,0.000000,0.000000,0.000000,0.000000,312.371240,25.832096,-1.000000,0.994042,0.005098,0.385247,0.000000,0.000000,0.000000,0.000000,0.000000,0.000000,0.000000,
2011,3163,-5.45777501207151,11.2431522024148,0.0381630039079255,0.000000,0.000000,0.000000,0.000000,0.000000,313.564095,24.067512,-1.000000,0.993789,0.005216,0.347225,0.000000,0.000000,0.000000,0.000000,0.000000,0.000000,0.000000,
2026,3163,-5.13293512261241,11.2443614764228,0.036804892948112,0.000000,0.000000,0.000000,0.000000,0.000000,313.455701,24.128505,-1.000000,0.994229,0.005054,0.352889,0.000000,0.000000,0.000000,0.000000,0.000000,0.000000,0.000000,
2041,3163,-4.80828721560298,11.2455275063093,0.0316980791778292,0.000000,0.000000,0.000000,0.000000,0.000000,313.320335,24.162636,-1.000000,0.993581,0.005329,0.385680,0.000000,0.000000,0.000000,0.000000,0.000000,0.000000,0.000000,
2446,3163,3.98017929575672,11.2802543445638,0.0266526841234054,0.000000,0.000000,0.000000,0.000000,0.000000,312.412313,26.024290,-1.000000,0.991336,0.006186,0.326286,0.000000,0.000000,0.000000,0.000000,0.000000,0.000000,0.000000,
2326,3163,1.37285319925665,11.2697306903036,0.0256066775168051,0.000000,0.000000,0.000000,0.000000,0.000000,312.329147,25.467004,-1.000000,0.994030,0.005314,0.349580,0.000000,0.000000,0.000000,0.000000,0.000000,0.000000,0.000000,
2356,3163,2.0247112810397,11.2717347533179,0.0295875364078597,0.000000,0.000000,0.000000,0.000000,0.000000,312.355146,25.573284,-1.000000,0.992341,0.005891,0.376800,0.000000,0.000000,0.000000,0.000000,0.000000,0.000000,0.000000,
2146,3163,-2.53259973702237,11.2543238941351,0.0307399781743243,0.000000,0.000000,0.000000,0.000000,0.000000,312.783810,24.656987,-1.000000,0.992172,0.005714,0.358605,0.000000,0.000000,0.000000,0.000000,0.000000,0.000000,0.000000,
2266,3163,0.0705389289387988,11.2646240904676,0.0294370147668133,0.000000,0.000000,0.000000,0.000000,0.000000,312.428805,25.218929,-1.000000,0.990376,0.006155,0.330566,0.000000,0.000000,0.000000,0.000000,0.000000,0.000000,0.000000,
2296,3163,0.722016505622246,11.267047800068,0.0329588062002131,0.000000,0.000000,0.000000,0.000000,0.000000,312.415830,25.364439,-1.000000,0.993368,0.005445,0.318788,0.000000,0.000000,0.000000,0.000000,0.000000,0.000000,0.000000,
2206,3163,-1.23154047490031,11.2594499754012,0.0273804155459061,0.000000,0.000000,0.000000,0.000000,0.000000,312.548918,24.922782,-1.000000,0.995049,0.004994,0.359671,0.000000,0.000000,0.000000,0.000000,0.000000,0.000000,0.000000,
2236,3163,-0.580945063859605,11.2619091052281,0.0233055982344013,0.000000,0.000000,0.000000,0.000000,0.000000,312.437531,25.029288,-1.000000,0.991020,0.005958,0.386938,0.000000,0.000000,0.000000,0.000000,0.000000,0.000000,0.000000,
2176,3163,-1.88192852252743,11.2570060115867,0.0323055378684103,0.000000,0.000000,0.000000,0.000000,0.000000,312.684766,24.821129,-1.000000,0.996529,0.004534,0.327920,0.000000,0.000000,0.000000,0.000000,0.000000,0.000000,0.000000,
2491,3163,4.95801989554823,11.2841929433434,0.0194293869109288,0.000000,0.000000,0.000000,0.000000,0.000000,312.451976,26.180098,-1.000000,0.991770,0.005640,0.370676,0.000000,0.000000,0.000000,0.000000,0.000000,0.000000,0.000000,
2506,3163,5.28410157641221,11.2854766329012,0.0176345851807582,0.000000,0.000000,0.000000,0.000000,0.000000,312.479129,26.232190,-1.000000,0.992210,0.005618,0.385618,0.000000,0.000000,0.000000,0.000000,0.000000,0.000000,0.000000,
2491,2908,5.00716592318577,5.74570653027641,-0.0167182310520388,0.000000,0.000000,0.000000,0.000000,0.000000,316.325226,25.275826,-1.000000,0.987285,0.006875,0.289488,0.000000,0.000000,0.000000,0.000000,0.000000,0.000000,0.000000,
2506,2908,5.33377482715979,5.74602289725263,-0.0168984364768221,0.000000,0.000000,0.000000,0.000000,0.000000,316.366963,25.245858,-1.000000,0.989261,0.006672,0.348203,0.000000,0.000000,0.000000,0.000000,0.000000,0.000000,0.000000,
2476,3163,4.63188097889087,11.2835229410329,0.0200542265596368,0.000000,0.000000,0.000000,0.000000,0.000000,312.419094,26.177205,-1.000000,0.990807,0.005995,0.306806,0.000000,0.000000,0.000000,0.000000,0.000000,0.000000,0.000000,
2146,2443,-2.4161444101034,-4.40208636700959,-0.0135256976356004,0.000000,0.000000,0.000000,0.000000,0.000000,324.112838,24.262181,-1.000000,0.987671,0.007287,0.378972,0.000000,0.000000,0.000000,0.000000,0.000000,0.000000,0.000000,
2146,2473,-2.42086175112307,-3.7475884392585,-0.0106816945629475,0.000000,0.000000,0.000000,0.000000,0.000000,323.651930,24.281382,-1.000000,0.986939,0.007698,0.377903,0.000000,0.000000,0.000000,0.000000,0.000000,0.000000,0.000000,
2281,2338,0.543465501017828,-6.69602200028029,0.00254659342931518,0.000000,0.000000,0.000000,0.000000,0.000000,325.597880,23.752362,-1.000000,0.984687,0.007831,0.327691,0.000000,0.000000,0.000000,0.000000,0.000000,0.000000,0.000000,
2281,2368,0.538257444967147,-6.04122415146216,0.00494777188612261,0.000000,0.000000,0.000000,0.000000,0.000000,325.133647,23.728845,-1.000000,0.983246,0.008159,0.410261,0.000000,0.000000,0.000000,0.000000,0.000000,0.000000,0.000000,
2311,2338,1.19680836017295,-6.69507731008314,-0.00766148802711086,0.000000,0.000000,0.000000,0.000000,0.000000,325.484133,23.614337,-1.000000,0.984574,0.007690,0.355679,0.000000,0.000000,0.000000,0.000000,0.000000,0.000000,0.000000,
2101,2428,-3.39262459444938,-4.73028915256832,-0.00927824679246214,0.000000,0.000000,0.000000,0.000000,0.000000,324.584010,24.405076,-1.000000,0.987583,0.007087,0.350813,0.000000,0.000000,0.000000,0.000000,0.000000,0.000000,0.000000,
2131,2428,-2.74071770347818,-4.72815896240799,-0.0223382367055365,0.000000,0.000000,0.000000,0.000000,0.000000,324.341270,24.357538,-1.000000,0.987942,0.007101,0.316193,0.000000,0.000000,0.000000,0.000000,0.000000,0.000000,0.000000,
2071,2428,-4.04497615406654,-4.73087138930828,-0.00511712136841425,0.000000,0.000000,0.000000,0.000000,0.000000,324.769307,24.510121,-1.000000,0.986390,0.006990,0.328168,0.000000,0.000000,0.000000,0.000000,0.000000,0.000000,0.000000,
2386,2383,2.82421612931048,-5.7105036019697,-0.00636312110123072,0.000000,0.000000,0.000000,0.000000,0.000000,324.771674,23.477160,-1.000000,0.984024,0.008069,0.351229,0.000000,0.000000,0.000000,0.000000,0.000000,0.000000,0.000000,
2221,2368,-0.770139973447886,-6.03901624599489,-0.00776447839956518,0.000000,0.000000,0.000000,0.000000,0.000000,325.136260,24.053227,-1.000000,0.989356,0.007013,0.288821,0.000000,0.000000,0.000000,0.000000,0.000000,0.000000,0.000000,
2161,3178,-2.20989896598707,11.5807822456831,0.0305443520309154,0.000000,0.000000,0.000000,0.000000,0.000000,312.478639,24.739134,-1.000000,0.991649,0.005803,0.351806,0.000000,0.000000,0.000000,0.000000,0.000000,0.000000,0.000000,
2191,3178,-1.55981822739838,11.5838284306945,0.0229938287866389,0.000000,0.000000,0.000000,0.000000,0.000000,312.311793,24.882484,-1.000000,0.996358,0.004735,0.346646,0.000000,0.000000,0.000000,0.000000,0.000000,0.000000,0.000000,
2071,3178,-4.16040218153091,11.5729981038447,0.0360669314936786,0.000000,0.000000,0.000000,0.000000,0.000000,312.939187,24.322410,-1.000000,0.996418,0.004281,0.354863,0.000000,0.000000,0.000000,0.000000,0.000000,0.000000,0.000000,
2101,3178,-3.51103512736429,11.5751231368357,0.0240155140575098,0.000000,0.000000,0.000000,0.000000,0.000000,312.683285,24.359232,-1.000000,0.995799,0.004495,0.456076,0.000000,0.000000,0.000000,0.000000,0.000000,0.000000,0.000000,
2221,3178,-0.907893966996536,11.5852431961017,0.0397633163431692,0.000000,0.000000,0.000000,0.000000,0.000000,312.366513,25.017927,-1.000000,0.991816,0.005609,0.348966,0.000000,0.000000,0.000000,0.000000,0.000000,0.000000,0.000000,
2011,3178,-5.45989331564103,11.5677063538666,0.0414796082104658,0.000000,0.000000,0.000000,0.000000,0.000000,313.347080,24.037103,-1.000000,0.995562,0.004375,0.364153,0.000000,0.000000,0.000000,0.000000,0.000000,0.000000,0.000000,
2026,3178,-5.13498151809312,11.5688467707907,0.0416648515411566,0.000000,0.000000,0.000000,0.000000,0.000000,313.251575,24.101364,-1.000000,0.993900,0.005108,0.369109,0.000000,0.000000,0.000000,0.000000,0.000000,0.000000,0.000000,
2041,3178,-4.81055329082015,11.5700083152568,0.0332609985692898,0.000000,0.000000,0.000000,0.000000,0.000000,313.088649,24.116271,-1.000000,0.993909,0.005256,0.423050,0.000000,0.000000,0.000000,0.000000,0.000000,0.000000,0.000000,
2401,3178,2.99902474744107,11.6013411572477,0.0243079408909352,0.000000,0.000000,0.000000,0.000000,0.000000,312.086142,25.809062,-1.000000,0.993201,0.005348,0.385596,0.000000,0.000000,0.000000,0.000000,0.000000,0.000000,0.000000,
2431,3178,3.65090187256624,11.6042579761169,0.0236020604873488,0.000000,0.000000,0.000000,0.000000,0.000000,312.116119,25.967733,-1.000000,0.992653,0.005525,0.364910,0.000000,0.000000,0.000000,0.000000,0.000000,0.000000,0.000000,
2311,3178,1.04450674077379,11.5935949806734,0.027588633360665,0.000000,0.000000,0.000000,0.000000,0.000000,312.110454,25.422565,-1.000000,0.993520,0.005536,0.358248,0.000000,0.000000,0.000000,0.000000,0.000000,0.000000,0.000000,
2341,3178,1.69584162390231,11.5962478142453,0.0264649621227591,0.000000,0.000000,0.000000,0.000000,0.000000,312.084584,25.559417,-1.000000,0.994172,0.005614,0.359317,0.000000,0.000000,0.000000,0.000000,0.000000,0.000000,0.000000,
2281,3178,0.393379307045972,11.5910667714706,0.0292873388210637,0.000000,0.000000,0.000000,0.000000,0.000000,312.158527,25.298942,-1.000000,0.993084,0.005335,0.343905,0.000000,0.000000,0.000000,0.000000,0.000000,0.000000,0.000000,
2131,3178,-2.86017209942318,11.5779366407351,0.0330753278350358,0.000000,0.000000,0.000000,0.000000,0.000000,312.620739,24.582868,-1.000000,0.988668,0.006227,0.370206,0.000000,0.000000,0.000000,0.000000,0.000000,0.000000,0.000000,
2371,3178,2.34715737166409,11.5989620664427,0.0229368005019523,0.000000,0.000000,0.000000,0.000000,0.000000,312.056012,25.686017,-1.000000,0.992121,0.005609,0.370805,0.000000,0.000000,0.000000,0.000000,0.000000,0.000000,0.000000,
2491,3178,4.956023176273,11.6091562503237,0.0321661201808752,0.000000,0.000000,0.000000,0.000000,0.000000,312.312832,26.252860,-1.000000,0.991379,0.005940,0.355445,0.000000,0.000000,0.000000,0.000000,0.000000,0.000000,0.000000,
2506,3178,5.28176180776021,11.6109544578537,0.0265046949368184,0.000000,0.000000,0.000000,0.000000,0.000000,312.307273,26.329797,-1.000000,0.992811,0.005540,0.347744,0.000000,0.000000,0.000000,0.000000,0.000000,0.000000,0.000000,
2476,3178,4.62896055342334,11.6086944790251,0.0215153328920792,0.000000,0.000000,0.000000,0.000000,0.000000,312.185320,26.202175,-1.000000,0.992286,0.005721,0.337367,0.000000,0.000000,0.000000,0.000000,0.000000,0.000000,0.000000,
2461,3178,4.30322386566213,11.6071325387587,0.0261743126033025,0.000000,0.000000,0.000000,0.000000,0.000000,312.191136,26.140264,-1.000000,0.992060,0.005860,0.330082,0.000000,0.000000,0.000000,0.000000,0.000000,0.000000,0.000000,
2251,3178,-0.257186776457228,11.5878349585867,0.0365421431449704,0.000000,0.000000,0.000000,0.000000,0.000000,312.270859,25.141715,-1.000000,0.991866,0.005502,0.363134,0.000000,0.000000,0.000000,0.000000,0.000000,0.000000,0.000000,
2206,2353,-1.09391354766639,-6.36872822506806,-0.001716702120234,0.000000,0.000000,0.000000,0.000000,0.000000,325.467868,23.983356,-1.000000,0.989746,0.006965,0.390479,0.000000,0.000000,0.000000,0.000000,0.000000,0.000000,0.000000,
2236,2353,-0.440360806584774,-6.36787239388688,-0.00267218763008259,0.000000,0.000000,0.000000,0.000000,0.000000,325.387466,23.929175,-1.000000,0.985329,0.007538,0.339034,0.000000,0.000000,0.000000,0.000000,0.000000,0.000000,0.000000,
2116,2413,-3.06366375665994,-5.05735402814265,-0.00611454354168472,0.000000,0.000000,0.000000,0.000000,0.000000,324.783391,24.408852,-1.000000,0.987350,0.007316,0.300581,0.000000,0.000000,0.000000,0.000000,0.000000,0.000000,0.000000,
2146,2413,-2.41137082255422,-5.05663084702278,-0.0154124094139547,0.000000,0.000000,0.000000,0.000000,0.000000,324.581376,24.266634,-1.000000,0.986928,0.007367,0.355960,0.000000,0.000000,0.000000,0.000000,0.000000,0.000000,0.000000,
2251,2368,-0.116817546900826,-6.03839470995496,-0.0122152119234329,0.000000,0.000000,0.000000,0.000000,0.000000,325.035524,23.944217,-1.000000,0.987960,0.007523,0.296736,0.000000,0.000000,0.000000,0.000000,0.000000,0.000000,0.000000,
2026,2473,-5.03160313297046,-3.74804573867887,-0.0266038406549001,0.000000,0.000000,0.000000,0.000000,0.000000,324.122846,24.562184,-1.000000,0.985798,0.007307,0.375161,0.000000,0.000000,0.000000,0.000000,0.000000,0.000000,0.000000,
2041,2473,-4.7049042952965,-3.74862866469459,-0.016361519438135,0.000000,0.000000,0.000000,0.000000,0.000000,324.117686,24.544806,-1.000000,0.982130,0.008268,0.357729,0.000000,0.000000,0.000000,0.000000,0.000000,0.000000,0.000000,
2011,2473,-5.35664647562852,-3.74984954518242,-0.00990987498380491,0.000000,0.000000,0.000000,0.000000,0.000000,324.357105,24.608952,-1.000000,0.987859,0.006787,0.362193,0.000000,0.000000,0.000000,0.000000,0.000000,0.000000,0.000000,
2326,2503,1.4926739771464,-3.08820495516282,-0.0161147586971992,0.000000,0.000000,0.000000,0.000000,0.000000,322.734311,23.981453,-1.000000,0.987952,0.006742,0.328444,0.000000,0.000000,0.000000,0.000000,0.000000,0.000000,0.000000,
2146,2503,-2.42664164739228,-3.09185066881606,-0.0237387205017967,0.000000,0.000000,0.000000,0.000000,0.000000,323.057868,24.288621,-1.000000,0.984800,0.007736,0.389287,0.000000,0.000000,0.000000,0.000000,0.000000,0.000000,0.000000,
2161,2428,-2.08693050804984,-4.7291283502023,-0.00926840637356463,0.000000,0.000000,0.000000,0.000000,0.000000,324.334468,24.272084,-1.000000,0.987136,0.007165,0.318261,0.000000,0.000000,0.000000,0.000000,0.000000,0.000000,0.000000,
2161,2458,-2.0920135855896,-4.07485048825469,-0.0111988027865095,0.000000,0.000000,0.000000,0.000000,0.000000,323.834104,24.217245,-1.000000,0.988629,0.006824,0.395964,0.000000,0.000000,0.000000,0.000000,0.000000,0.000000,0.000000,
2056,3193,-4.4877567572019,11.8967826041484,0.0367620828994291,0.000000,0.000000,0.000000,0.000000,0.000000,312.784053,24.253706,-1.000000,0.993792,0.005014,0.347983,0.000000,0.000000,0.000000,0.000000,0.000000,0.000000,0.000000,
2086,3193,-3.83767887770062,11.898898333773,0.0377863178003395,0.000000,0.000000,0.000000,0.000000,0.000000,312.628703,24.368598,-1.000000,0.994175,0.004701,0.375320,0.000000,0.000000,0.000000,0.000000,0.000000,0.000000,0.000000,
2176,3193,-1.88556332248229,11.9041043937707,0.0545388471051069,0.000000,0.000000,0.000000,0.000000,0.000000,312.381450,24.677974,-1.000000,0.996460,0.004574,0.493030,0.000000,0.000000,0.000000,0.000000,0.000000,0.000000,0.000000,
2206,3193,-1.23634434508044,11.9092535731627,0.0336633875087387,0.000000,0.000000,0.000000,0.000000,0.000000,312.110794,24.937368,-1.000000,0.996052,0.004708,0.375951,0.000000,0.000000,0.000000,0.000000,0.000000,0.000000,0.000000,
2116,3193,-3.18770615154883,11.9016280248175,0.0347593601501899,0.000000,0.000000,0.000000,0.000000,0.000000,312.456495,24.514622,-1.000000,0.992922,0.005561,0.371593,0.000000,0.000000,0.000000,0.000000,0.000000,0.000000,0.000000,
2011,3193,-5.4623118033003,11.8926835078836,0.039776488774578,0.000000,0.000000,0.000000,0.000000,0.000000,313.087878,24.019598,-1.000000,0.995552,0.004296,0.368759,0.000000,0.000000,0.000000,0.000000,0.000000,0.000000,0.000000,
2026,3193,-5.13720721078539,11.8937885353731,0.0435865461615776,0.000000,0.000000,0.000000,0.000000,0.000000,313.022621,24.102180,-1.000000,0.993272,0.005224,0.357238,0.000000,0.000000,0.000000,0.000000,0.000000,0.000000,0.000000,
2326,3193,1.36772871002118,11.919397216768,0.0320798530792104,0.000000,0.000000,0.000000,0.000000,0.000000,311.892222,25.474376,-1.000000,0.994967,0.004972,0.408701,0.000000,0.000000,0.000000,0.000000,0.000000,0.000000,0.000000,
2356,3193,2.01870326788234,11.9232118729721,0.0257387705893848,0.000000,0.000000,0.000000,0.000000,0.000000,311.830749,25.687520,-1.000000,0.992240,0.005727,0.337868,0.000000,0.000000,0.000000,0.000000,0.000000,0.000000,0.000000,
2041,3193,-4.81255005986764,11.8954429298437,0.0393251694494552,0.000000,0.000000,0.000000,0.000000,0.000000,312.894020,24.187672,-1.000000,0.993548,0.005266,0.342723,0.000000,0.000000,0.000000,0.000000,0.000000,0.000000,0.000000,
2296,3193,0.716192892076975,11.917795683829,0.0288710713886644,0.000000,0.000000,0.000000,0.000000,0.000000,311.890084,25.407724,-1.000000,0.993178,0.005434,0.332760,0.000000,0.000000,0.000000,0.000000,0.000000,0.000000,0.000000,
2386,3193,2.67079848911732,11.9252261377774,0.0316628932517347,0.000000,0.000000,0.000000,0.000000,0.000000,311.890398,25.804724,-1.000000,0.992345,0.005352,0.362964,0.000000,0.000000,0.000000,0.000000,0.000000,0.000000,0.000000,
2416,3193,3.32259168854144,11.9278418596448,0.031428746905533,0.000000,0.000000,0.000000,0.000000,0.000000,311.915671,25.939644,-1.000000,0.992062,0.005537,0.370541,0.000000,0.000000,0.000000,0.000000,0.000000,0.000000,0.000000,
2266,3193,0.0649575089910996,11.9150883564988,0.0273051509356037,0.000000,0.000000,0.000000,0.000000,0.000000,311.919702,25.247016,-1.000000,0.991739,0.005642,0.351085,0.000000,0.000000,0.000000,0.000000,0.000000,0.000000,0.000000,
2491,3193,4.95342362497773,11.9341483079949,0.0377127410272351,0.000000,0.000000,0.000000,0.000000,0.000000,312.113312,26.288217,-1.000000,0.991517,0.005850,0.377708,0.000000,0.000000,0.000000,0.000000,0.000000,0.000000,0.000000,
2506,3193,5.2787494944058,11.9360950296247,0.0274062559394679,0.000000,0.000000,0.000000,0.000000,0.000000,312.068685,26.352206,-1.000000,0.992924,0.005529,0.384961,0.000000,0.000000,0.000000,0.000000,0.000000,0.000000,0.000000,
2446,3193,3.97446869429105,11.931090998646,0.0301001431544705,0.000000,0.000000,0.000000,0.000000,0.000000,311.948976,26.124906,-1.000000,0.992064,0.005773,0.327499,0.000000,0.000000,0.000000,0.000000,0.000000,0.000000,0.000000,
2476,3193,4.6259476394285,11.9338690029093,0.0218630766701722,0.000000,0.000000,0.000000,0.000000,0.000000,311.942128,26.224537,-1.000000,0.992033,0.005621,0.370343,0.000000,0.000000,0.000000,0.000000,0.000000,0.000000,0.000000,
2236,3193,-0.585857835391341,11.9120116478911,0.0292450006255649,0.000000,0.000000,0.000000,0.000000,0.000000,311.996264,25.071093,-1.000000,0.991654,0.005643,0.384683,0.000000,0.000000,0.000000,0.000000,0.000000,0.000000,0.000000,
2146,3193,-2.53740648322552,11.9043882188562,0.0344562657751908,0.000000,0.000000,0.000000,0.000000,0.000000,312.324338,24.677714,-1.000000,0.993038,0.005241,0.350796,0.000000,0.000000,0.000000,0.000000,0.000000,0.000000,0.000000,
2191,2338,-1.41717697994816,-6.6966519750872,0.0123831037548712,0.000000,0.000000,0.000000,0.000000,0.000000,325.869526,24.162502,-1.000000,0.990068,0.006993,0.247122,0.000000,0.000000,0.000000,0.000000,0.000000,0.000000,0.000000,
2191,2368,-1.42310561860528,-6.04096874237323,-0.000440893307313672,0.000000,0.000000,0.000000,0.000000,0.000000,325.278910,24.068157,-1.000000,0.988287,0.007261,0.374601,0.000000,0.000000,0.000000,0.000000,0.000000,0.000000,0.000000,
2221,2338,-0.76598625397293,-6.69365454044305,-0.022185978725247,0.000000,0.000000,0.000000,0.000000,0.000000,325.500265,23.973174,-1.000000,0.990443,0.006759,0.327839,0.000000,0.000000,0.000000,0.000000,0.000000,0.000000,0.000000,
2176,2443,-1.76309291510853,-4.4016374057521,-0.0119658353171985,0.000000,0.000000,0.000000,0.000000,0.000000,324.018284,24.198417,-1.000000,0.986850,0.007358,0.364114,0.000000,0.000000,0.000000,0.000000,0.000000,0.000000,0.000000,
2176,2473,-1.76826127564736,-3.74630543284589,-0.0141776881727651,0.000000,0.000000,0.000000,0.000000,0.000000,323.514759,24.248319,-1.000000,0.984501,0.008168,0.341504,0.000000,0.000000,0.000000,0.000000,0.000000,0.000000,0.000000,
2266,2353,0.213222830687368,-6.3675454164541,-0.00552236796153238,0.000000,0.000000,0.000000,0.000000,0.000000,325.308985,23.807948,-1.000000,0.983656,0.008198,0.354843,0.000000,0.000000,0.000000,0.000000,0.000000,0.000000,0.000000,
2341,2518,1.81701375513301,-2.76096552772555,-0.0120828257315679,0.000000,0.000000,0.000000,0.000000,0.000000,322.521009,23.973789,-1.000000,0.984738,0.007300,0.342754,0.000000,0.000000,0.000000,0.000000,0.000000,0.000000,0.000000,
2011,2458,-5.35401635129514,-4.07792842751055,-0.00283325840814541,0.000000,0.000000,0.000000,0.000000,0.000000,324.658170,24.602786,-1.000000,0.990317,0.006315,0.378731,0.000000,0.000000,0.000000,0.000000,0.000000,0.000000,0.000000,
2026,2458,-5.02937606871702,-4.07569979323773,-0.0267826715512456,0.000000,0.000000,0.000000,0.000000,0.000000,324.363557,24.526098,-1.000000,0.990305,0.006383,0.419634,0.000000,0.000000,0.000000,0.000000,0.000000,0.000000,0.000000,
2356,2503,2.14683865454034,-3.08856804569059,-0.0104881959588283,0.000000,0.000000,0.000000,0.000000,0.000000,322.778188,23.879227,-1.000000,0.988596,0.006974,0.368489,0.000000,0.000000,0.000000,0.000000,0.000000,0.000000,0.000000,
2086,2413,-3.71636601932088,-5.05859783504405,-0.00545355153980154,0.000000,0.000000,0.000000,0.000000,0.000000,324.931244,24.421291,-1.000000,0.985448,0.007257,0.375203,0.000000,0.000000,0.000000,0.000000,0.000000,0.000000,0.000000,
2476,2788,4.70417806090765,3.13290466449014,-0.0264067833952026,0.000000,0.000000,0.000000,0.000000,0.000000,318.165343,24.760636,-1.000000,0.985921,0.007080,0.324758,0.000000,0.000000,0.000000,0.000000,0.000000,0.000000,0.000000,
2161,3208,-2.21458746581175,12.2302592325589,0.0367144657897711,0.000000,0.000000,0.000000,0.000000,0.000000,312.039741,24.727955,-1.000000,0.994238,0.004920,0.380504,0.000000,0.000000,0.000000,0.000000,0.000000,0.000000,0.000000,
2191,3208,-1.56436050884341,12.2331341157957,0.0325146738456397,0.000000,0.000000,0.000000,0.000000,0.000000,311.900880,24.877158,-1.000000,0.993626,0.005444,0.378024,0.000000,0.000000,0.000000,0.000000,0.000000,0.000000,0.000000,
2221,3208,-0.913089946537216,12.2355941103865,0.0410993072315478,0.000000,0.000000,0.000000,0.000000,0.000000,311.886533,25.060355,-1.000000,0.992458,0.005513,0.341598,0.000000,0.000000,0.000000,0.000000,0.000000,0.000000,0.000000,
2011,3208,-5.46457287625406,12.2175926766476,0.0407739918410925,0.000000,0.000000,0.000000,0.000000,0.000000,312.851167,24.015488,-1.000000,0.993752,0.005012,0.359372,0.000000,0.000000,0.000000,0.000000,0.000000,0.000000,0.000000,
2026,3208,-5.13940933746499,12.2184127250073,0.0459337516118126,0.000000,0.000000,0.000000,0.000000,0.000000,312.797287,24.079742,-1.000000,0.993181,0.005192,0.368527,0.000000,0.000000,0.000000,0.000000,0.000000,0.000000,0.000000,
2311,3208,1.03960345000999,12.2438151348209,0.0365137971222111,0.000000,0.000000,0.000000,0.000000,0.000000,311.693687,25.501639,-1.000000,0.993344,0.005328,0.340926,0.000000,0.000000,0.000000,0.000000,0.000000,0.000000,0.000000,
2341,3208,1.69059939125436,12.2458814793759,0.0319584275800935,0.000000,0.000000,0.000000,0.000000,0.000000,311.639252,25.565606,-1.000000,0.993628,0.005288,0.423955,0.000000,0.000000,0.000000,0.000000,0.000000,0.000000,0.000000,
2071,3208,-4.16489271709179,12.2224500963336,0.0413999796252824,0.000000,0.000000,0.000000,0.000000,0.000000,312.493657,24.299394,-1.000000,0.994411,0.004749,0.368876,0.000000,0.000000,0.000000,0.000000,0.000000,0.000000,0.000000,
2101,3208,-3.5149481141691,12.2256015539871,0.0397601700814221,0.000000,0.000000,0.000000,0.000000,0.000000,312.324143,24.494039,-1.000000,0.994216,0.004948,0.321005,0.000000,0.000000,0.000000,0.000000,0.000000,0.000000,0.000000,
2041,3208,-4.81478084133125,12.2199416267711,0.0415477295306346,0.000000,0.000000,0.000000,0.000000,0.000000,312.667671,24.153625,-1.000000,0.993358,0.005128,0.367959,0.000000,0.000000,0.000000,0.000000,0.000000,0.000000,0.000000,
2281,3208,0.388793424593317,12.2411531254085,0.0414633494643795,0.000000,0.000000,0.000000,0.000000,0.000000,311.769153,25.383279,-1.000000,0.995406,0.004657,0.312254,0.000000,0.000000,0.000000,0.000000,0.000000,0.000000,0.000000,
2131,3208,-2.86475129792501,12.2278757904083,0.0396568149089944,0.000000,0.000000,0.000000,0.000000,0.000000,312.185177,24.615043,-1.000000,0.994344,0.004977,0.346759,0.000000,0.000000,0.000000,0.000000,0.000000,0.000000,0.000000,
2491,3208,4.9498733343227,12.2603043076736,0.0319746209995628,0.000000,0.000000,0.000000,0.000000,0.000000,311.818476,26.368772,-1.000000,0.991798,0.005787,0.354820,0.000000,0.000000,0.000000,0.000000,0.000000,0.000000,0.000000,
2506,3208,5.27523308858325,12.2626781323901,0.0224187334092107,0.000000,0.000000,0.000000,0.000000,0.000000,311.779875,26.477420,-1.000000,0.991794,0.005724,0.319256,0.000000,0.000000,0.000000,0.000000,0.000000,0.000000,0.000000,
2371,3208,2.3416412834301,12.2491564976535,0.0260212814444571,0.000000,0.000000,0.000000,0.000000,0.000000,311.590093,25.731343,-1.000000,0.992601,0.005533,0.404974,0.000000,0.000000,0.000000,0.000000,0.000000,0.000000,0.000000,
2401,3208,2.99375602930725,12.251764597643,0.0316467724238692,0.000000,0.000000,0.000000,0.000000,0.000000,311.655644,25.900726,-1.000000,0.992181,0.005677,0.382202,0.000000,0.000000,0.000000,0.000000,0.000000,0.000000,0.000000,
2431,3208,3.6451183143109,12.2548951082663,0.025592844038556,0.000000,0.000000,0.000000,0.000000,0.000000,311.640564,26.049017,-1.000000,0.990396,0.006318,0.380993,0.000000,0.000000,0.000000,0.000000,0.000000,0.000000,0.000000,
2461,3208,4.29736087658918,12.257569113993,0.0282906288085201,0.000000,0.000000,0.000000,0.000000,0.000000,311.716614,26.204085,-1.000000,0.989203,0.006517,0.372592,0.000000,0.000000,0.000000,0.000000,0.000000,0.000000,0.000000,
2476,3208,4.62335341186275,12.2589114092136,0.027244967301101,0.000000,0.000000,0.000000,0.000000,0.000000,311.741142,26.267603,-1.000000,0.991093,0.005867,0.382633,0.000000,0.000000,0.000000,0.000000,0.000000,0.000000,0.000000,
2251,3208,-0.262542705390015,12.238468942117,0.0369271946062781,0.000000,0.000000,0.000000,0.000000,0.000000,311.782650,25.206277,-1.000000,0.995584,0.004708,0.342491,0.000000,0.000000,0.000000,0.000000,0.000000,0.000000,0.000000,
2206,2323,-1.08823739425779,-7.02536846966163,0.00643176673406742,0.000000,0.000000,0.000000,0.000000,0.000000,326.020082,23.954258,-1.000000,0.985891,0.007179,0.382167,0.000000,0.000000,0.000000,0.000000,0.000000,0.000000,0.000000,
2236,2323,-0.435761704250847,-7.02346949142086,-0.0114704689275982,0.000000,0.000000,0.000000,0.000000,0.000000,325.798583,23.826491,-1.000000,0.986876,0.007037,0.396262,0.000000,0.000000,0.000000,0.000000,0.000000,0.000000,0.000000,
2011,2443,-5.35200182633175,-4.40381385226936,-0.00594744226833654,0.000000,0.000000,0.000000,0.000000,0.000000,324.873457,24.707886,-1.000000,0.990307,0.006326,0.284511,0.000000,0.000000,0.000000,0.000000,0.000000,0.000000,0.000000,
2026,2443,-5.02645579053049,-4.40284367900223,-0.0152666520548905,0.000000,0.000000,0.000000,0.000000,0.000000,324.700952,24.650723,-1.000000,0.989590,0.006629,0.302917,0.000000,0.000000,0.000000,0.000000,0.000000,0.000000,0.000000,
2041,2443,-4.69975640609612,-4.40448824147661,-0.00616222697368585,0.000000,0.000000,0.000000,0.000000,0.000000,324.686974,24.526424,-1.000000,0.982882,0.008100,0.388119,0.000000,0.000000,0.000000,0.000000,0.000000,0.000000,0.000000,
2041,2458,-4.70224522770644,-4.0770578738484,-0.00992112042757753,0.000000,0.000000,0.000000,0.000000,0.000000,324.413768,24.499565,-1.000000,0.982578,0.008285,0.408788,0.000000,0.000000,0.000000,0.000000,0.000000,0.000000,0.000000,
2176,2323,-1.74228555268766,-7.02462966231961,-0.000344582765421819,0.000000,0.000000,0.000000,0.000000,0.000000,326.052637,24.078652,-1.000000,0.982831,0.008027,0.372078,0.000000,0.000000,0.000000,0.000000,0.000000,0.000000,0.000000,
2176,2353,-1.74801130922063,-6.36747510860988,-0.0110242381651915,0.000000,0.000000,0.000000,0.000000,0.000000,325.479316,24.129981,-1.000000,0.981992,0.008250,0.349454,0.000000,0.000000,0.000000,0.000000,0.000000,0.000000,0.000000,
2176,2383,-1.75314016748031,-5.71247070429408,-0.0129717705754615,0.000000,0.000000,0.000000,0.000000,0.000000,324.979239,24.091919,-1.000000,0.989171,0.006726,0.415609,0.000000,0.000000,0.000000,0.000000,0.000000,0.000000,0.000000,
2206,2473,-1.11522898783153,-3.74655492149088,-0.0137522812071325,0.000000,0.000000,0.000000,0.000000,0.000000,323.428323,24.110668,-1.000000,0.983703,0.008380,0.409156,0.000000,0.000000,0.000000,0.000000,0.000000,0.000000,0.000000,
2101,2398,-3.38755491291874,-5.38623764044621,-0.00406155668736119,0.000000,0.000000,0.000000,0.000000,0.000000,325.111800,24.361098,-1.000000,0.984954,0.007383,0.389083,0.000000,0.000000,0.000000,0.000000,0.000000,0.000000,0.000000,
2131,2398,-2.73396341876701,-5.38666616869905,0.00668717135204133,0.000000,0.000000,0.000000,0.000000,0.000000,325.068282,24.303907,-1.000000,0.985240,0.007341,0.354388,0.000000,0.000000,0.000000,0.000000,0.000000,0.000000,0.000000,
2236,3223,-0.590937936402067,12.5625710684374,0.0329066382187762,0.000000,0.000000,0.000000,0.000000,0.000000,311.535396,25.155578,-1.000000,0.992448,0.005671,0.339708,0.000000,0.000000,0.000000,0.000000,0.000000,0.000000,0.000000,
2266,3223,0.0593077087007927,12.5655886056139,0.0242887060231851,0.000000,0.000000,0.000000,0.000000,0.000000,311.402830,25.289225,-1.000000,0.995662,0.004848,0.357182,0.000000,0.000000,0.000000,0.000000,0.000000,0.000000,0.000000,
2296,3223,0.710396301330785,12.5673621691089,0.0251525279737166,0.000000,0.000000,0.000000,0.000000,0.000000,311.367658,25.360580,-1.000000,0.995167,0.004803,0.437164,0.000000,0.000000,0.000000,0.000000,0.000000,0.000000,0.000000,
2056,3223,-4.49225377532528,12.5459728648581,0.0413689975910074,0.000000,0.000000,0.000000,0.000000,0.000000,312.332471,24.208832,-1.000000,0.993662,0.004928,0.379310,0.000000,0.000000,0.000000,0.000000,0.000000,0.000000,0.000000,
2086,3223,-3.84200531630585,12.5483214032824,0.0464606730664059,0.000000,0.000000,0.000000,0.000000,0.000000,312.210887,24.369651,-1.000000,0.993337,0.005285,0.369664,0.000000,0.000000,0.000000,0.000000,0.000000,0.000000,0.000000,
2116,3223,-3.19228266088946,12.5509433669949,0.0407823997864512,0.000000,0.000000,0.000000,0.000000,0.000000,312.016456,24.492365,-1.000000,0.994703,0.004916,0.398064,0.000000,0.000000,0.000000,0.000000,0.000000,0.000000,0.000000,
2146,3223,-2.54208213718384,12.5536933785487,0.0402382372222974,0.000000,0.000000,0.000000,0.000000,0.000000,311.882175,24.654463,-1.000000,0.994193,0.004827,0.387176,0.000000,0.000000,0.000000,0.000000,0.000000,0.000000,0.000000,
2176,3223,-1.89162176754529,12.5570294230528,0.0412403113525102,0.000000,0.000000,0.000000,0.000000,0.000000,311.777875,24.877666,-1.000000,0.995236,0.004754,0.315153,0.000000,0.000000,0.000000,0.000000,0.000000,0.000000,0.000000,
2011,3223,-5.46716076978157,12.5432365710392,0.0363061517724645,0.000000,0.000000,0.000000,0.000000,0.000000,312.568391,24.051443,-1.000000,0.993105,0.005233,0.309963,0.000000,0.000000,0.000000,0.000000,0.000000,0.000000,0.000000,
2026,3223,-5.14187431833765,12.5438589705394,0.0439554212849771,0.000000,0.000000,0.000000,0.000000,0.000000,312.535362,24.111733,-1.000000,0.993843,0.004881,0.325248,0.000000,0.000000,0.000000,0.000000,0.000000,0.000000,0.000000,
2326,3223,1.36211602617203,12.5700733763966,0.0321590742925082,0.000000,0.000000,0.000000,0.000000,0.000000,311.400928,25.551758,-1.000000,0.992996,0.005108,0.397291,0.000000,0.000000,0.000000,0.000000,0.000000,0.000000,0.000000,
2356,3223,2.0130589127086,12.5736473964975,0.0266038726415445,0.000000,0.000000,0.000000,0.000000,0.000000,311.346017,25.748996,-1.000000,0.992498,0.005446,0.351391,0.000000,0.000000,0.000000,0.000000,0.000000,0.000000,0.000000,
2206,3223,-1.24249754605342,12.5612463883243,0.020600976459491,0.000000,0.000000,0.000000,0.000000,0.000000,311.509433,25.056680,-1.000000,0.995951,0.004686,0.287425,0.000000,0.000000,0.000000,0.000000,0.000000,0.000000,0.000000,
2041,3223,-4.81727448408451,12.5449795629164,0.0394929126373427,0.000000,0.000000,0.000000,0.000000,0.000000,312.405258,24.148257,-1.000000,0.993539,0.004953,0.364369,0.000000,0.000000,0.000000,0.000000,0.000000,0.000000,0.000000,
2386,3223,2.66444528293701,12.5765308111986,0.0247002221266825,0.000000,0.000000,0.000000,0.000000,0.000000,311.339511,25.901645,-1.000000,0.993511,0.005133,0.349951,0.000000,0.000000,0.000000,0.000000,0.000000,0.000000,0.000000,
2416,3223,3.31662572308246,12.5786856430729,0.03058962026779,0.000000,0.000000,0.000000,0.000000,0.000000,311.416202,26.029837,-1.000000,0.991270,0.005864,0.373063,0.000000,0.000000,0.000000,0.000000,0.000000,0.000000,0.000000,
2476,3223,4.62024773613068,12.5849260033562,0.0265152488936451,0.000000,0.000000,0.000000,0.000000,0.000000,311.488327,26.368530,-1.000000,0.991391,0.005784,0.336809,0.000000,0.000000,0.000000,0.000000,0.000000,0.000000,0.000000,
2491,3223,4.94656682501761,12.5862705911898,0.0291323928635734,0.000000,0.000000,0.000000,0.000000,0.000000,311.547935,26.452990,-1.000000,0.991289,0.005964,0.327848,0.000000,0.000000,0.000000,0.000000,0.000000,0.000000,0.000000,
2506,3223,5.27214343812283,12.5878530063709,0.022402886624775,0.000000,0.000000,0.000000,0.000000,0.000000,311.533404,26.505549,-1.000000,0.991302,0.006056,0.351038,0.000000,0.000000,0.000000,0.000000,0.000000,0.000000,0.000000,
2446,3223,3.9682201255167,12.5819559311751,0.0269552362821628,0.000000,0.000000,0.000000,0.000000,0.000000,311.430026,26.204787,-1.000000,0.991629,0.006019,0.349369,0.000000,0.000000,0.000000,0.000000,0.000000,0.000000,0.000000,
2011,2428,-5.34982436390156,-4.73210977903997,-0.00648602410620924,0.000000,0.000000,0.000000,0.000000,0.000000,325.111267,24.621309,-1.000000,0.987469,0.006923,0.381684,0.000000,0.000000,0.000000,0.000000,0.000000,0.000000,0.000000,
2026,2428,-5.02421692453937,-4.73092063116304,-0.0152086067416235,0.000000,0.000000,0.000000,0.000000,0.000000,324.943653,24.588767,-1.000000,0.985535,0.007423,0.373325,0.000000,0.000000,0.000000,0.000000,0.000000,0.000000,0.000000,
2041,2428,-4.69826288576727,-4.73013234264933,-0.0186455407020958,0.000000,0.000000,0.000000,0.000000,0.000000,324.824388,24.569222,-1.000000,0.984539,0.007529,0.352084,0.000000,0.000000,0.000000,0.000000,0.000000,0.000000,0.000000,
2161,2368,-2.07683720277833,-6.04012845905466,-0.00643401787641551,0.000000,0.000000,0.000000,0.000000,0.000000,325.326856,24.209181,-1.000000,0.990134,0.006212,0.334325,0.000000,0.000000,0.000000,0.000000,0.000000,0.000000,0.000000,
2161,2398,-2.08147826370429,-5.38603403573222,-0.00195659666775327,0.000000,0.000000,0.000000,0.000000,0.000000,324.880533,24.158230,-1.000000,0.986746,0.007105,0.408675,0.000000,0.000000,0.000000,0.000000,0.000000,0.000000,0.000000,
2281,2398,0.531868358803681,-5.38312592486918,-0.00847715190326426,0.000000,0.000000,0.000000,0.000000,0.000000,324.535752,23.875483,-1.000000,0.985690,0.007818,0.322970,0.000000,0.000000,0.000000,0.000000,0.000000,0.000000,0.000000,
2491,2503,5.09114787602834,-3.08577445155537,-0.00663964700100905,0.000000,0.000000,0.000000,0.000000,0.000000,323.011271,23.624489,-1.000000,0.986359,0.007504,0.342956,0.000000,0.000000,0.000000,0.000000,0.000000,0.000000,0.000000,
2506,2503,5.41801649805267,-3.08480761947251,-0.0121345863393003,0.000000,0.000000,0.000000,0.000000,0.000000,323.009372,23.602046,-1.000000,0.986033,0.007746,0.334109,0.000000,0.000000,0.000000,0.000000,0.000000,0.000000,0.000000,
2176,2413,-1.75764628244502,-5.05740145030072,-0.00557396619126393,0.000000,0.000000,0.000000,0.000000,0.000000,324.556397,24.168922,-1.000000,0.984584,0.007598,0.366070,0.000000,0.000000,0.000000,0.000000,0.000000,0.000000,0.000000,
2161,2488,-2.09746211428444,-3.41939872256484,-0.0183960591487562,0.000000,0.000000,0.000000,0.000000,0.000000,323.288987,24.241823,-1.000000,0.986147,0.007500,0.394238,0.000000,0.000000,0.000000,0.000000,0.000000,0.000000,0.000000,
2221,2308,-0.758898958762789,-7.35308666882105,0.00506641844651767,0.000000,0.000000,0.000000,0.000000,0.000000,326.212530,23.886687,-1.000000,0.987111,0.006917,0.371781,0.000000,0.000000,0.000000,0.000000,0.000000,0.000000,0.000000,
2251,2308,-0.104920937817987,-7.35276168461829,0.00636519986301209,0.000000,0.000000,0.000000,0.000000,0.000000,326.160103,23.804692,-1.000000,0.980311,0.008545,0.334773,0.000000,0.000000,0.000000,0.000000,0.000000,0.000000,0.000000,
2191,3238,-1.56890926516709,12.8825115397198,0.042034759326782,0.000000,0.000000,0.000000,0.000000,0.000000,311.489619,24.890876,-1.000000,0.994855,0.004917,0.390492,0.000000,0.000000,0.000000,0.000000,0.000000,0.000000,0.000000,
2221,3238,-0.919107678419376,12.8864078738523,0.0307797082131174,0.000000,0.000000,0.000000,0.000000,0.000000,311.308452,25.094454,-1.000000,0.994215,0.005115,0.342674,0.000000,0.000000,0.000000,0.000000,0.000000,0.000000,0.000000,
2251,3238,-0.267731072692893,12.8875071559229,0.0396631790221704,0.000000,0.000000,0.000000,0.000000,0.000000,311.314563,25.152015,-1.000000,0.995991,0.004560,0.440723,0.000000,0.000000,0.000000,0.000000,0.000000,0.000000,0.000000,
2281,3238,0.382437143832323,12.8918922392683,0.0294796014467238,0.000000,0.000000,0.000000,0.000000,0.000000,311.176863,25.403190,-1.000000,0.994006,0.005317,0.345257,0.000000,0.000000,0.000000,0.000000,0.000000,0.000000,0.000000,
2161,3238,-2.2199090563931,12.8806565297707,0.0335478414054933,0.000000,0.000000,0.000000,0.000000,0.000000,311.521989,24.762284,-1.000000,0.994535,0.004901,0.363434,0.000000,0.000000,0.000000,0.000000,0.000000,0.000000,0.000000,
2311,3238,1.03321347067119,12.8949045268063,0.0255837599999609,0.000000,0.000000,0.000000,0.000000,0.000000,311.109882,25.561484,-1.000000,0.992653,0.005217,0.342830,0.000000,0.000000,0.000000,0.000000,0.000000,0.000000,0.000000,
2101,3238,-3.51988811536848,12.8748758501685,0.0394943140362898,0.000000,0.000000,0.000000,0.000000,0.000000,311.831453,24.438257,-1.000000,0.994618,0.004804,0.376417,0.000000,0.000000,0.000000,0.000000,0.000000,0.000000,0.000000,
2131,3238,-2.87035890675778,12.8782757363477,0.0306221877949042,0.000000,0.000000,0.000000,0.000000,0.000000,311.618501,24.614822,-1.000000,0.994356,0.004685,0.355461,0.000000,0.000000,0.000000,0.000000,0.000000,0.000000,0.000000,
2011,3238,-5.46885931262812,12.8668323921746,0.0468665008564244,0.000000,0.000000,0.000000,0.000000,0.000000,312.411981,23.987983,-1.000000,0.993390,0.005300,0.360191,0.000000,0.000000,0.000000,0.000000,0.000000,0.000000,0.000000,
2026,3238,-5.14360418142983,12.8676919758095,0.0542449060479839,0.000000,0.000000,0.000000,0.000000,0.000000,312.376566,24.068416,-1.000000,0.995253,0.004464,0.357448,0.000000,0.000000,0.000000,0.000000,0.000000,0.000000,0.000000,
2041,3238,-4.81961205690591,12.8697615164689,0.040040914578185,0.000000,0.000000,0.000000,0.000000,0.000000,312.164618,24.138043,-1.000000,0.995181,0.004409,0.365620,0.000000,0.000000,0.000000,0.000000,0.000000,0.000000,0.000000,
2071,3238,-4.16959266859744,12.8722062490476,0.0435174621848091,0.000000,0.000000,0.000000,0.000000,0.000000,312.020788,24.299847,-1.000000,0.993712,0.005021,0.359204,0.000000,0.000000,0.000000,0.000000,0.000000,0.000000,0.000000,
2371,3238,2.33568936218709,12.9003441578058,0.0235635671830323,0.000000,0.000000,0.000000,0.000000,0.000000,311.076908,25.851347,-1.000000,0.994183,0.004977,0.364324,0.000000,0.000000,0.000000,0.000000,0.000000,0.000000,0.000000,
2401,3238,2.98711300965968,12.9032044807683,0.0216967993771391,0.000000,0.000000,0.000000,0.000000,0.000000,311.079398,26.001733,-1.000000,0.992609,0.005357,0.369458,0.000000,0.000000,0.000000,0.000000,0.000000,0.000000,0.000000,
2341,3238,1.68424089029955,12.8978692149011,0.0229214761960748,0.000000,0.000000,0.000000,0.000000,0.000000,311.070695,25.720575,-1.000000,0.991734,0.005540,0.339219,0.000000,0.000000,0.000000,0.000000,0.000000,0.000000,0.000000,
2431,3238,3.63850750351853,12.9061700483183,0.0173769991199606,0.000000,0.000000,0.000000,0.000000,0.000000,311.078775,26.146203,-1.000000,0.992780,0.005539,0.380862,0.000000,0.000000,0.000000,0.000000,0.000000,0.000000,0.000000,
2461,3238,4.29105242790984,12.9091847241637,0.0250501184020777,0.000000,0.000000,0.000000,0.000000,0.000000,311.196241,26.361122,-1.000000,0.993747,0.005365,0.321599,0.000000,0.000000,0.000000,0.000000,0.000000,0.000000,0.000000,
2476,3238,4.61614100368066,12.9110952862705,0.0137394138507716,0.000000,0.000000,0.000000,0.000000,0.000000,311.134294,26.419639,-1.000000,0.993584,0.005316,0.341031,0.000000,0.000000,0.000000,0.000000,0.000000,0.000000,0.000000,
2491,3238,4.94265534514149,12.9122325820271,0.0190714597509896,0.000000,0.000000,0.000000,0.000000,0.000000,311.216742,26.500257,-1.000000,0.992085,0.005864,0.338225,0.000000,0.000000,0.000000,0.000000,0.000000,0.000000,0.000000,
2506,3238,5.26877604565842,12.9129454360087,0.0190984069305955,0.000000,0.000000,0.000000,0.000000,0.000000,311.259298,26.511278,-1.000000,0.991232,0.006058,0.405012,0.000000,0.000000,0.000000,0.000000,0.000000,0.000000,0.000000,
2146,2353,-2.40059735274585,-6.36912088911171,-0.000583823391764327,0.000000,0.000000,0.000000,0.000000,0.000000,325.673591,24.204146,-1.000000,0.986371,0.007374,0.379913,0.000000,0.000000,0.000000,0.000000,0.000000,0.000000,0.000000,
2146,2383,-2.40539684984932,-5.71372143383986,0.000779855279574804,0.000000,0.000000,0.000000,0.000000,0.000000,325.201000,24.231476,-1.000000,0.987065,0.006866,0.371610,0.000000,0.000000,0.000000,0.000000,0.000000,0.000000,0.000000,
2011,2413,-5.34756669311818,-5.05970828179408,-0.00555614187095443,0.000000,0.000000,0.000000,0.000000,0.000000,325.360806,24.617258,-1.000000,0.988303,0.006757,0.396121,0.000000,0.000000,0.000000,0.000000,0.000000,0.000000,0.000000,
2026,2413,-5.02176665717899,-5.05861171915001,-0.0115339145550024,0.000000,0.000000,0.000000,0.000000,0.000000,325.216064,24.601301,-1.000000,0.987511,0.006983,0.369090,0.000000,0.000000,0.000000,0.000000,0.000000,0.000000,0.000000,
2206,2293,-1.08307051783194,-7.68083880020978,0.00740198602915143,0.000000,0.000000,0.000000,0.000000,0.000000,326.511706,23.982636,-1.000000,0.984939,0.007743,0.316238,0.000000,0.000000,0.000000,0.000000,0.000000,0.000000,0.000000,
2236,2293,-0.43004839121399,-7.68031696768526,-0.00450955981148127,0.000000,0.000000,0.000000,0.000000,0.000000,326.340894,23.785655,-1.000000,0.985676,0.007405,0.390407,0.000000,0.000000,0.000000,0.000000,0.000000,0.000000,0.000000,
2251,2338,-0.110919737939732,-6.69540999478627,-0.00365064068233778,0.000000,0.000000,0.000000,0.000000,0.000000,325.591895,23.871237,-1.000000,0.984178,0.007981,0.319030,0.000000,0.000000,0.000000,0.000000,0.000000,0.000000,0.000000,
2191,2458,-1.43917867405544,-4.07413455879251,-0.0132451840833028,0.000000,0.000000,0.000000,0.000000,0.000000,323.718032,24.144724,-1.000000,0.986873,0.007389,0.394448,0.000000,0.000000,0.000000,0.000000,0.000000,0.000000,0.000000,
2416,2443,3.46680799012848,-4.39839522419295,-0.00820944667435697,0.000000,0.000000,0.000000,0.000000,0.000000,323.816147,23.562171,-1.000000,0.987365,0.007424,0.365417,0.000000,0.000000,0.000000,0.000000,0.000000,0.000000,0.000000,
2476,2503,4.76371753612075,-3.08656038755984,-0.0083533531987996,0.000000,0.000000,0.000000,0.000000,0.000000,322.957352,23.597963,-1.000000,0.987893,0.007150,0.400966,0.000000,0.000000,0.000000,0.000000,0.000000,0.000000,0.000000,
2056,2413,-4.36908315899558,-5.05906735760794,-0.00747577709978486,0.000000,0.000000,0.000000,0.000000,0.000000,325.073706,24.478808,-1.000000,0.982395,0.008067,0.404667,0.000000,0.000000,0.000000,0.000000,0.000000,0.000000,0.000000,
2476,2488,4.76659815074599,-3.41402339449375,-0.010464260039214,0.000000,0.000000,0.000000,0.000000,0.000000,323.183248,23.546064,-1.000000,0.986958,0.007287,0.394889,0.000000,0.000000,0.000000,0.000000,0.000000,0.000000,0.000000,
2236,3253,-0.596933030596727,13.2124159363877,0.0236758081233575,0.000000,0.000000,0.000000,0.000000,0.000000,310.966625,25.116348,-1.000000,0.994150,0.004967,0.418285,0.000000,0.000000,0.000000,0.000000,0.000000,0.000000,0.000000,
2266,3253,0.0536131033132641,13.216023539789,0.0207095088418328,0.000000,0.000000,0.000000,0.000000,0.000000,310.880929,25.338202,-1.000000,0.994089,0.005360,0.356549,0.000000,0.000000,0.000000,0.000000,0.000000,0.000000,0.000000,
2011,3253,-5.47124307632615,13.191901688446,0.0459201928608195,0.000000,0.000000,0.000000,0.000000,0.000000,312.158711,23.998328,-1.000000,0.995899,0.004492,0.336202,0.000000,0.000000,0.000000,0.000000,0.000000,0.000000,0.000000,
2026,3253,-5.14670105558023,13.1931282565265,0.0418043534856452,0.000000,0.000000,0.000000,0.000000,0.000000,312.027079,24.048359,-1.000000,0.996351,0.004230,0.366342,0.000000,0.000000,0.000000,0.000000,0.000000,0.000000,0.000000,
2041,3253,-4.82196692203391,13.1942019827334,0.0403353745487038,0.000000,0.000000,0.000000,0.000000,0.000000,311.921934,24.098606,-1.000000,0.994825,0.004520,0.395998,0.000000,0.000000,0.000000,0.000000,0.000000,0.000000,0.000000,
2056,3253,-4.49681996951345,13.1961688675903,0.0450221816755629,0.000000,0.000000,0.000000,0.000000,0.000000,311.872121,24.264995,-1.000000,0.995428,0.004683,0.309576,0.000000,0.000000,0.000000,0.000000,0.000000,0.000000,0.000000,
2176,3253,-1.89770437521812,13.207236577002,0.0275822545725646,0.000000,0.000000,0.000000,0.000000,0.000000,311.172206,24.843697,-1.000000,0.994909,0.004920,0.370755,0.000000,0.000000,0.000000,0.000000,0.000000,0.000000,0.000000,
2206,3253,-1.24739238872571,13.2096838108507,0.0256881832747808,0.000000,0.000000,0.000000,0.000000,0.000000,311.061295,24.968123,-1.000000,0.995487,0.004659,0.406706,0.000000,0.000000,0.000000,0.000000,0.000000,0.000000,0.000000,
2086,3253,-3.84721757569503,13.1982515366499,0.0412255991066672,0.000000,0.000000,0.000000,0.000000,0.000000,311.676255,24.352469,-1.000000,0.995165,0.004684,0.382122,0.000000,0.000000,0.000000,0.000000,0.000000,0.000000,0.000000,
2116,3253,-3.19790453831668,13.2020817883788,0.030783355559322,0.000000,0.000000,0.000000,0.000000,0.000000,311.441265,24.562133,-1.000000,0.996372,0.004042,0.332163,0.000000,0.000000,0.000000,0.000000,0.000000,0.000000,0.000000,
2146,3253,-2.54828234825454,13.2050020559553,0.0231222484727027,0.000000,0.000000,0.000000,0.000000,0.000000,311.247217,24.701644,-1.000000,0.993954,0.004957,0.352663,0.000000,0.000000,0.000000,0.000000,0.000000,0.000000,0.000000,
2356,3253,2.00705131350124,13.2239539647997,0.022771226070688,0.000000,0.000000,0.000000,0.000000,0.000000,310.821648,25.787233,-1.000000,0.992714,0.005391,0.387865,0.000000,0.000000,0.000000,0.000000,0.000000,0.000000,0.000000,
2386,3253,2.65696865042069,13.2282024637423,0.00344905332951839,0.000000,0.000000,0.000000,0.000000,0.000000,310.668289,25.969881,-1.000000,0.993143,0.005197,0.365509,0.000000,0.000000,0.000000,0.000000,0.000000,0.000000,0.000000,
2296,3253,0.704106859376537,13.2191923347619,0.0148941084958096,0.000000,0.000000,0.000000,0.000000,0.000000,310.788986,25.501909,-1.000000,0.991261,0.005890,0.352839,0.000000,0.000000,0.000000,0.000000,0.000000,0.000000,0.000000,
2446,3253,3.96196364364012,13.2329174442457,0.0237223868242609,0.000000,0.000000,0.000000,0.000000,0.000000,310.909945,26.309102,-1.000000,0.994293,0.005040,0.346316,0.000000,0.000000,0.000000,0.000000,0.000000,0.000000,0.000000,
2476,3253,4.61265715611591,13.2365498060354,0.00842809156904423,0.000000,0.000000,0.000000,0.000000,0.000000,310.843141,26.451928,-1.000000,0.993390,0.005281,0.363873,0.000000,0.000000,0.000000,0.000000,0.000000,0.000000,0.000000,
2491,3253,4.93867290234051,13.2379487430385,0.0081503359822932,0.000000,0.000000,0.000000,0.000000,0.000000,310.878350,26.525213,-1.000000,0.993462,0.005480,0.370764,0.000000,0.000000,0.000000,0.000000,0.000000,0.000000,0.000000,
2416,3253,3.3093082497035,13.2306852452635,0.0129139551584672,0.000000,0.000000,0.000000,0.000000,0.000000,310.774635,26.148229,-1.000000,0.990515,0.005945,0.347164,0.000000,0.000000,0.000000,0.000000,0.000000,0.000000,0.000000,
2326,3253,1.35487393129686,13.2219295680321,0.0106981074974328,0.000000,0.000000,0.000000,0.000000,0.000000,310.728239,25.633022,-1.000000,0.992489,0.005327,0.381885,0.000000,0.000000,0.000000,0.000000,0.000000,0.000000,0.000000,
2506,3253,5.26534808059095,13.2389709045573,0.0151191697672743,0.000000,0.000000,0.000000,0.000000,0.000000,310.978963,26.603640,-1.000000,0.993192,0.005594,0.372151,0.000000,0.000000,0.000000,0.000000,0.000000,0.000000,0.000000,
2011,2398,-5.34532078806422,-5.38688603258528,-0.00474194898094993,0.000000,0.000000,0.000000,0.000000,0.000000,325.609074,24.655628,-1.000000,0.988243,0.006806,0.368187,0.000000,0.000000,0.000000,0.000000,0.000000,0.000000,0.000000,
2026,2398,-5.01910859104543,-5.3869905225367,-0.00440701824504686,0.000000,0.000000,0.000000,0.000000,0.000000,325.517364,24.589403,-1.000000,0.989955,0.006330,0.388762,0.000000,0.000000,0.000000,0.000000,0.000000,0.000000,0.000000,
2461,2488,4.43983752441941,-3.41487965005774,-0.00429989723130575,0.000000,0.000000,0.000000,0.000000,0.000000,323.199394,23.585082,-1.000000,0.985918,0.007691,0.389210,0.000000,0.000000,0.000000,0.000000,0.000000,0.000000,0.000000,
2491,2488,5.09468034089513,-3.41409343803583,-0.00134442763805964,0.000000,0.000000,0.000000,0.000000,0.000000,323.299404,23.561830,-1.000000,0.985225,0.007609,0.345393,0.000000,0.000000,0.000000,0.000000,0.000000,0.000000,0.000000,
2041,2398,-4.69323759209774,-5.38687962830665,-0.0103331272367768,0.000000,0.000000,0.000000,0.000000,0.000000,325.377918,24.483024,-1.000000,0.988938,0.006564,0.449954,0.000000,0.000000,0.000000,0.000000,0.000000,0.000000,0.000000,
2041,2413,-4.69609463267799,-5.05783182020071,-0.0201355534461527,0.000000,0.000000,0.000000,0.000000,0.000000,325.054008,24.531465,-1.000000,0.984677,0.007503,0.395979,0.000000,0.000000,0.000000,0.000000,0.000000,0.000000,0.000000,
2431,2428,3.79714426448434,-4.72538860906931,-0.00640936239057055,0.000000,0.000000,0.000000,0.000000,0.000000,324.096579,23.548338,-1.000000,0.986470,0.007727,0.287839,0.000000,0.000000,0.000000,0.000000,0.000000,0.000000,0.000000,
2431,2458,3.79081580532003,-4.07029491336661,-0.0111467568418675,0.000000,0.000000,0.000000,0.000000,0.000000,323.570872,23.549490,-1.000000,0.986258,0.007659,0.389598,0.000000,0.000000,0.000000,0.000000,0.000000,0.000000,0.000000,
2131,2368,-2.72985503486301,-6.04089687017886,-0.00439592158636515,0.000000,0.000000,0.000000,0.000000,0.000000,325.459671,24.280733,-1.000000,0.986355,0.007272,0.363406,0.000000,0.000000,0.000000,0.000000,0.000000,0.000000,0.000000,
2476,2473,4.76873394083275,-3.7404288483726,-0.0214607577106563,0.000000,0.000000,0.000000,0.000000,0.000000,323.334435,23.513784,-1.000000,0.989725,0.006769,0.369902,0.000000,0.000000,0.000000,0.000000,0.000000,0.000000,0.000000,
2491,2473,5.09728582562681,-3.74133498497931,-0.00702932017998137,0.000000,0.000000,0.000000,0.000000,0.000000,323.495335,23.502366,-1.000000,0.984587,0.007732,0.345093,0.000000,0.000000,0.000000,0.000000,0.000000,0.000000,0.000000,
2131,2338,-2.72472923572614,-6.69666873627113,0.000112451561619764,0.000000,0.000000,0.000000,0.000000,0.000000,325.980927,24.286871,-1.000000,0.986523,0.007477,0.342098,0.000000,0.000000,0.000000,0.000000,0.000000,0.000000,0.000000,
2101,3268,-3.52511961697393,13.5251797493037,0.0348119121698005,0.000000,0.000000,0.000000,0.000000,0.000000,311.301005,24.468043,-1.000000,0.996445,0.004253,0.346118,0.000000,0.000000,0.000000,0.000000,0.000000,0.000000,0.000000,
2131,3268,-2.8760912389257,13.528671695404,0.0197883770876501,0.000000,0.000000,0.000000,0.000000,0.000000,311.036399,24.621829,-1.000000,0.995304,0.004466,0.356798,0.000000,0.000000,0.000000,0.000000,0.000000,0.000000,0.000000,
2011,3268,-5.4735155015421,13.5159934650737,0.0468798471295031,0.000000,0.000000,0.000000,0.000000,0.000000,311.921725,23.932958,-1.000000,0.995928,0.004480,0.388347,0.000000,0.000000,0.000000,0.000000,0.000000,0.000000,0.000000,
2026,3268,-5.14982341035345,13.5182726049327,0.0289719063156895,0.000000,0.000000,0.000000,0.000000,0.000000,311.674338,24.004710,-1.000000,0.996744,0.004088,0.398763,0.000000,0.000000,0.000000,0.000000,0.000000,0.000000,0.000000,
2041,3268,-4.82469499055976,13.5199855197111,0.0345488819277762,0.000000,0.000000,0.000000,0.000000,0.000000,311.627724,24.153101,-1.000000,0.994394,0.004701,0.332494,0.000000,0.000000,0.000000,0.000000,0.000000,0.000000,0.000000,
2191,3268,-1.57579246681785,13.5335349704247,0.0175715845279001,0.000000,0.000000,0.000000,0.000000,0.000000,310.792867,24.881586,-1.000000,0.992576,0.005445,0.426076,0.000000,0.000000,0.000000,0.000000,0.000000,0.000000,0.000000,
2221,3268,-0.925187620551572,13.5359880853387,0.0196052048102047,0.000000,0.000000,0.000000,0.000000,0.000000,310.723428,25.027972,-1.000000,0.993635,0.005200,0.444180,0.000000,0.000000,0.000000,0.000000,0.000000,0.000000,0.000000,
2071,3268,-4.17542011334602,13.5226559919727,0.027677620245413,0.000000,0.000000,0.000000,0.000000,0.000000,311.397156,24.279710,-1.000000,0.996075,0.004423,0.370180,0.000000,0.000000,0.000000,0.000000,0.000000,0.000000,0.000000,
2161,3268,-2.2260807266647,13.5310797724741,0.0177675991185993,0.000000,0.000000,0.000000,0.000000,0.000000,310.898340,24.745436,-1.000000,0.994442,0.005019,0.397529,0.000000,0.000000,0.000000,0.000000,0.000000,0.000000,0.000000,
2431,3268,3.6311531772225,13.558546896466,6.72968621984182E-06,0.000000,0.000000,0.000000,0.000000,0.000000,310.439276,26.312111,-1.000000,0.993397,0.005365,0.311626,0.000000,0.000000,0.000000,0.000000,0.000000,0.000000,0.000000,
2461,3268,4.28262610867864,13.5611770602907,-0.00391141149941632,0.000000,0.000000,0.000000,0.000000,0.000000,310.459525,26.427358,-1.000000,0.994479,0.004869,0.361451,0.000000,0.000000,0.000000,0.000000,0.000000,0.000000,0.000000,
2251,3268,-0.275053746482474,13.5399347116597,0.0127307254261382,0.000000,0.000000,0.000000,0.000000,0.000000,310.596065,25.261251,-1.000000,0.992908,0.005385,0.375179,0.000000,0.000000,0.000000,0.000000,0.000000,0.000000,0.000000,
2281,3268,0.375272446175412,13.542984673781,0.00649295497919411,0.000000,0.000000,0.000000,0.000000,0.000000,310.491846,25.413504,-1.000000,0.993692,0.005387,0.387392,0.000000,0.000000,0.000000,0.000000,0.000000,0.000000,0.000000,
2476,3268,4.60919616739588,13.562619189655,0.00341794178916643,0.000000,0.000000,0.000000,0.000000,0.000000,310.554111,26.547147,-1.000000,0.995434,0.004694,0.323687,0.000000,0.000000,0.000000,0.000000,0.000000,0.000000,0.000000,
2491,3268,4.93511917308838,13.5642889695901,0.00236806358333297,0.000000,0.000000,0.000000,0.000000,0.000000,310.582663,26.641379,-1.000000,0.995219,0.004830,0.311697,0.000000,0.000000,0.000000,0.000000,0.000000,0.000000,0.000000,
2506,3268,5.26164083748735,13.5654835480644,0.00785713416024691,0.000000,0.000000,0.000000,0.000000,0.000000,310.670735,26.727246,-1.000000,0.995804,0.004629,0.308137,0.000000,0.000000,0.000000,0.000000,0.000000,0.000000,0.000000,
2371,3268,2.32877456748221,13.5515077751024,0.00873052708828936,0.000000,0.000000,0.000000,0.000000,0.000000,310.459646,25.916744,-1.000000,0.993803,0.005191,0.378120,0.000000,0.000000,0.000000,0.000000,0.000000,0.000000,0.000000,
2401,3268,2.97886812212529,13.5556818751321,-0.00842033835880329,0.000000,0.000000,0.000000,0.000000,0.000000,310.333134,26.105373,-1.000000,0.992283,0.005741,0.354147,0.000000,0.000000,0.000000,0.000000,0.000000,0.000000,0.000000,
2341,3268,1.67670503813262,13.549376098976,-0.00157148644262861,0.000000,0.000000,0.000000,0.000000,0.000000,310.372461,25.763705,-1.000000,0.993226,0.005076,0.366533,0.000000,0.000000,0.000000,0.000000,0.000000,0.000000,0.000000,
2311,3268,1.0265532582228,13.5460402224349,0.0110742838202782,0.000000,0.000000,0.000000,0.000000,0.000000,310.495680,25.623997,-1.000000,0.993372,0.005032,0.341528,0.000000,0.000000,0.000000,0.000000,0.000000,0.000000,0.000000,
2011,2383,-5.34314776192189,-5.71373811974375,-0.00508855636076078,0.000000,0.000000,0.000000,0.000000,0.000000,325.847455,24.717662,-1.000000,0.988495,0.006770,0.316579,0.000000,0.000000,0.000000,0.000000,0.000000,0.000000,0.000000,
2026,2383,-5.01670884095744,-5.7143522419648,-0.00146452205058267,0.000000,0.000000,0.000000,0.000000,0.000000,325.783328,24.636184,-1.000000,0.989885,0.006323,0.350191,0.000000,0.000000,0.000000,0.000000,0.000000,0.000000,0.000000,
2041,2383,-4.69073232122204,-5.71389594277136,-0.00610471574560734,0.000000,0.000000,0.000000,0.000000,0.000000,325.654420,24.572992,-1.000000,0.988410,0.006773,0.365900,0.000000,0.000000,0.000000,0.000000,0.000000,0.000000,0.000000,
2461,2458,4.44644302825086,-4.07074229343686,0.00230098146624869,0.000000,0.000000,0.000000,0.000000,0.000000,323.741540,23.510836,-1.000000,0.986517,0.007510,0.351920,0.000000,0.000000,0.000000,0.000000,0.000000,0.000000,0.000000,
2476,2458,4.77310194436644,-4.06957520201354,-0.00578222780399074,0.000000,0.000000,0.000000,0.000000,0.000000,323.709339,23.481332,-1.000000,0.987061,0.007326,0.343794,0.000000,0.000000,0.000000,0.000000,0.000000,0.000000,0.000000,
2491,2458,5.10023896358887,-4.06898556760911,-0.00859718177105151,0.000000,0.000000,0.000000,0.000000,0.000000,323.725728,23.447732,-1.000000,0.985158,0.007532,0.339377,0.000000,0.000000,0.000000,0.000000,0.000000,0.000000,0.000000,
2056,2383,-4.36516915106937,-5.71213577696158,-0.0178724752173025,0.000000,0.000000,0.000000,0.000000,0.000000,325.470006,24.560355,-1.000000,0.988904,0.006929,0.331173,0.000000,0.000000,0.000000,0.000000,0.000000,0.000000,0.000000,
2116,2323,-3.04908248349093,-7.02394402045365,-0.00231161690516046,0.000000,0.000000,0.000000,0.000000,0.000000,326.266382,24.369293,-1.000000,0.988014,0.007045,0.309036,0.000000,0.000000,0.000000,0.000000,0.000000,0.000000,0.000000,
2116,2353,-3.05471195673263,-6.36695961582496,-0.0155099009931519,0.000000,0.000000,0.000000,0.000000,0.000000,325.672657,24.378537,-1.000000,0.985123,0.007765,0.310767,0.000000,0.000000,0.000000,0.000000,0.000000,0.000000,0.000000,
2146,2323,-2.39550271804959,-7.02480827374282,0.00261511200557152,0.000000,0.000000,0.000000,0.000000,0.000000,326.183838,24.215431,-1.000000,0.983829,0.008214,0.348991,0.000000,0.000000,0.000000,0.000000,0.000000,0.000000,0.000000,
2416,2413,3.47320879863128,-5.05413620847992,-0.00188485363531754,0.000000,0.000000,0.000000,0.000000,0.000000,324.355141,23.527733,-1.000000,0.987740,0.007520,0.301339,0.000000,0.000000,0.000000,0.000000,0.000000,0.000000,0.000000,
2446,2413,4.12792775477625,-5.05442318364288,-0.000570391055020991,0.000000,0.000000,0.000000,0.000000,0.000000,324.416101,23.390667,-1.000000,0.988301,0.007771,0.349391,0.000000,0.000000,0.000000,0.000000,0.000000,0.000000,0.000000,
2011,3283,-5.4761400667878,13.8409960901753,0.0419473665494934,0.000000,0.000000,0.000000,0.000000,0.000000,311.635008,23.923018,-1.000000,0.996315,0.004278,0.384801,0.000000,0.000000,0.000000,0.000000,0.000000,0.000000,0.000000,
2026,3283,-5.15172883162466,13.8429527227882,0.0364720446924593,0.000000,0.000000,0.000000,0.000000,0.000000,311.491602,24.034254,-1.000000,0.996399,0.004181,0.357875,0.000000,0.000000,0.000000,0.000000,0.000000,0.000000,0.000000,
2041,3283,-4.82731284791357,13.8444560681148,0.0305893105353334,0.000000,0.000000,0.000000,0.000000,0.000000,311.349295,24.101051,-1.000000,0.994328,0.004712,0.375394,0.000000,0.000000,0.000000,0.000000,0.000000,0.000000,0.000000,
2086,3283,-3.85271111825174,13.8486638038899,0.0316691417690436,0.000000,0.000000,0.000000,0.000000,0.000000,311.104902,24.372553,-1.000000,0.995510,0.004369,0.356951,0.000000,0.000000,0.000000,0.000000,0.000000,0.000000,0.000000,
2101,3283,-3.52824987963739,13.850098379548,0.0244459145162068,0.000000,0.000000,0.000000,0.000000,0.000000,310.968647,24.423867,-1.000000,0.996543,0.004142,0.390004,0.000000,0.000000,0.000000,0.000000,0.000000,0.000000,0.000000,
2116,3283,-3.20328270163222,13.8514340153541,0.0246288332211861,0.000000,0.000000,0.000000,0.000000,0.000000,310.898690,24.505837,-1.000000,0.995764,0.004531,0.392433,0.000000,0.000000,0.000000,0.000000,0.000000,0.000000,0.000000,
2056,3283,-4.50236630079653,13.8454175759313,0.0328589239679218,0.000000,0.000000,0.000000,0.000000,0.000000,311.279682,24.161748,-1.000000,0.995584,0.004499,0.399128,0.000000,0.000000,0.000000,0.000000,0.000000,0.000000,0.000000,
2071,3283,-4.17837803151594,13.8476721741371,0.0190941518860086,0.000000,0.000000,0.000000,0.000000,0.000000,311.079735,24.254019,-1.000000,0.996252,0.004307,0.391285,0.000000,0.000000,0.000000,0.000000,0.000000,0.000000,0.000000,
2491,3283,4.93188814783488,13.8888022786185,0.000351975070486787,0.000000,0.000000,0.000000,0.000000,0.000000,310.319420,26.613788,-1.000000,0.995675,0.004748,0.396886,0.000000,0.000000,0.000000,0.000000,0.000000,0.000000,0.000000,
2506,3283,5.25821284073566,13.8903806983371,0.00381959377182284,0.000000,0.000000,0.000000,0.000000,0.000000,310.390300,26.723886,-1.000000,0.996011,0.004436,0.371161,0.000000,0.000000,0.000000,0.000000,0.000000,0.000000,0.000000,
2461,3283,4.27925708502608,13.8865697282984,-0.00816177967834619,0.000000,0.000000,0.000000,0.000000,0.000000,310.177149,26.468982,-1.000000,0.992126,0.005655,0.372446,0.000000,0.000000,0.000000,0.000000,0.000000,0.000000,0.000000,
2476,3283,4.60726082433852,13.8869385268084,0.0166969775528969,0.000000,0.000000,0.000000,0.000000,0.000000,310.419364,26.584525,-1.000000,0.995994,0.004617,0.341308,0.000000,0.000000,0.000000,0.000000,0.000000,0.000000,0.000000,
2131,3283,-2.87901641308661,13.8536352579777,0.0135035042274012,0.000000,0.000000,0.000000,0.000000,0.000000,310.738052,24.605698,-1.000000,0.995424,0.004539,0.377061,0.000000,0.000000,0.000000,0.000000,0.000000,0.000000,0.000000,
2146,3283,-2.55407871646743,13.8554649705943,0.012192965726058,0.000000,0.000000,0.000000,0.000000,0.000000,310.664009,24.724182,-1.000000,0.994328,0.004898,0.342760,0.000000,0.000000,0.000000,0.000000,0.000000,0.000000,0.000000,
2446,3283,3.95352411494116,13.8849590174965,-0.00623988943942777,0.000000,0.000000,0.000000,0.000000,0.000000,310.164709,26.383777,-1.000000,0.993016,0.005476,0.373300,0.000000,0.000000,0.000000,0.000000,0.000000,0.000000,0.000000,
2161,3283,-2.22853586960998,13.8559445311203,0.0193360951963086,0.000000,0.000000,0.000000,0.000000,0.000000,310.665676,24.763644,-1.000000,0.994991,0.004739,0.387940,0.000000,0.000000,0.000000,0.000000,0.000000,0.000000,0.000000,
2176,3283,-1.90402173137762,13.858098980393,0.0105647086405725,0.000000,0.000000,0.000000,0.000000,0.000000,310.537708,24.870603,-1.000000,0.995069,0.004723,0.365518,0.000000,0.000000,0.000000,0.000000,0.000000,0.000000,0.000000,
2356,3283,1.99897452337498,13.8763837690547,-0.00786031471676552,0.000000,0.000000,0.000000,0.000000,0.000000,310.071206,25.891825,-1.000000,0.992845,0.005325,0.357936,0.000000,0.000000,0.000000,0.000000,0.000000,0.000000,0.000000,
2371,3283,2.32553369762443,13.8767661043112,0.00409842386238779,0.000000,0.000000,0.000000,0.000000,0.000000,310.174373,25.941857,-1.000000,0.993319,0.005317,0.392400,0.000000,0.000000,0.000000,0.000000,0.000000,0.000000,0.000000,
2386,3283,2.65100244641024,13.878468231487,0.00141749039954675,0.000000,0.000000,0.000000,0.000000,0.000000,310.158517,26.033705,-1.000000,0.991967,0.005781,0.385261,0.000000,0.000000,0.000000,0.000000,0.000000,0.000000,0.000000,
2266,3283,0.0469252116853518,13.8664625214097,0.00344468076133353,0.000000,0.000000,0.000000,0.000000,0.000000,310.244038,25.329087,-1.000000,0.993241,0.005151,0.413774,0.000000,0.000000,0.000000,0.000000,0.000000,0.000000,0.000000,
2281,3283,0.372214016023509,13.8681452996651,0.00217928386717858,0.000000,0.000000,0.000000,0.000000,0.000000,310.209510,25.430095,-1.000000,0.992909,0.005188,0.397154,0.000000,0.000000,0.000000,0.000000,0.000000,0.000000,0.000000,
2296,3283,0.698089691109526,13.8695309639145,0.00831621217201928,0.000000,0.000000,0.000000,0.000000,0.000000,310.241507,25.543447,-1.000000,0.992746,0.005206,0.368212,0.000000,0.000000,0.000000,0.000000,0.000000,0.000000,0.000000,
2206,3283,-1.25376460348921,13.8612106926473,0.00960154428850046,0.000000,0.000000,0.000000,0.000000,0.000000,310.434095,25.062832,-1.000000,0.993030,0.005093,0.342046,0.000000,0.000000,0.000000,0.000000,0.000000,0.000000,0.000000,
2221,3283,-0.928657420567525,13.8631702871297,0.00797590650233815,0.000000,0.000000,0.000000,0.000000,0.000000,310.379028,25.189276,-1.000000,0.992743,0.005238,0.299990,0.000000,0.000000,0.000000,0.000000,0.000000,0.000000,0.000000,
2236,3283,-0.603214296449252,13.8637644574172,0.0105183461778324,0.000000,0.000000,0.000000,0.000000,0.000000,310.363865,25.211950,-1.000000,0.993339,0.005151,0.361713,0.000000,0.000000,0.000000,0.000000,0.000000,0.000000,0.000000,
2416,3283,3.30201813905139,13.8823425993961,-0.00442557797862264,0.000000,0.000000,0.000000,0.000000,0.000000,310.135646,26.256809,-1.000000,0.992332,0.005786,0.330982,0.000000,0.000000,0.000000,0.000000,0.000000,0.000000,0.000000,
2431,3283,3.62797333959764,13.8834705730695,-0.00257056618494289,0.000000,0.000000,0.000000,0.000000,0.000000,310.171250,26.318893,-1.000000,0.994041,0.005186,0.353413,0.000000,0.000000,0.000000,0.000000,0.000000,0.000000,0.000000,
2311,3283,1.02332558302477,13.8711295064802,0.00519172861680772,0.000000,0.000000,0.000000,0.000000,0.000000,310.200163,25.625651,-1.000000,0.994207,0.004649,0.370660,0.000000,0.000000,0.000000,0.000000,0.000000,0.000000,0.000000,
2326,3283,1.34803598848772,13.8732981318489,-0.00538262448651494,0.000000,0.000000,0.000000,0.000000,0.000000,310.100452,25.719524,-1.000000,0.994681,0.004610,0.361163,0.000000,0.000000,0.000000,0.000000,0.000000,0.000000,0.000000,
2341,3283,1.67335237578935,13.8747070638617,-0.00836663312622932,0.000000,0.000000,0.000000,0.000000,0.000000,310.069082,25.784065,-1.000000,0.993805,0.004941,0.381335,0.000000,0.000000,0.000000,0.000000,0.000000,0.000000,0.000000,
2251,3283,-0.278243939776054,13.8651314872805,0.00584235892364404,0.000000,0.000000,0.000000,0.000000,0.000000,310.292229,25.266222,-1.000000,0.992899,0.005335,0.391948,0.000000,0.000000,0.000000,0.000000,0.000000,0.000000,0.000000,
2086,3298,-3.85589576637638,14.1738254697939,0.0199901787537442,0.000000,0.000000,0.000000,0.000000,0.000000,310.761395,24.348006,-1.000000,0.994807,0.004601,0.378897,0.000000,0.000000,0.000000,0.000000,0.000000,0.000000,0.000000,
2101,3298,-3.53114487706379,14.1750085592844,0.0177988682836485,0.000000,0.000000,0.000000,0.000000,0.000000,310.667290,24.403977,-1.000000,0.994929,0.004693,0.409673,0.000000,0.000000,0.000000,0.000000,0.000000,0.000000,0.000000,
2116,3298,-3.20603169291415,14.1764518366501,0.0206766121081614,0.000000,0.000000,0.000000,0.000000,0.000000,310.619784,24.510650,-1.000000,0.993920,0.005240,0.389432,0.000000,0.000000,0.000000,0.000000,0.000000,0.000000,0.000000,
2011,3298,-5.47868434376043,14.1658365171784,0.0384108203302844,0.000000,0.000000,0.000000,0.000000,0.000000,311.359933,23.909972,-1.000000,0.993158,0.005312,0.384145,0.000000,0.000000,0.000000,0.000000,0.000000,0.000000,0.000000,
2026,3298,-5.15433338181115,14.1676376451475,0.0323496990484955,0.000000,0.000000,0.000000,0.000000,0.000000,311.211662,24.004508,-1.000000,0.994224,0.004836,0.376155,0.000000,0.000000,0.000000,0.000000,0.000000,0.000000,0.000000,
2041,3298,-4.82981500304063,14.1695592934936,0.0285853788466852,0.000000,0.000000,0.000000,0.000000,0.000000,311.086825,24.122003,-1.000000,0.994852,0.004729,0.345120,0.000000,0.000000,0.000000,0.000000,0.000000,0.000000,0.000000,
2056,3298,-4.50522925068007,14.1705441728475,0.0253816945978542,0.000000,0.000000,0.000000,0.000000,0.000000,310.971412,24.155701,-1.000000,0.994308,0.004752,0.398324,0.000000,0.000000,0.000000,0.000000,0.000000,0.000000,0.000000,
2071,3298,-4.1808776787526,14.1726021015287,0.017904776146338,0.000000,0.000000,0.000000,0.000000,0.000000,310.824076,24.264906,-1.000000,0.994896,0.004583,0.375369,0.000000,0.000000,0.000000,0.000000,0.000000,0.000000,0.000000,
2491,3298,4.92889218228986,14.2142236988395,0.0011778360359358,0.000000,0.000000,0.000000,0.000000,0.000000,310.079488,26.689296,-1.000000,0.993286,0.005567,0.378512,0.000000,0.000000,0.000000,0.000000,0.000000,0.000000,0.000000,
2506,3298,5.25547109939921,14.2153890717973,0.00789537571176879,0.000000,0.000000,0.000000,0.000000,0.000000,310.177835,26.778564,-1.000000,0.993945,0.005179,0.375911,0.000000,0.000000,0.000000,0.000000,0.000000,0.000000,0.000000,
2461,3298,4.27656568477594,14.2114789960117,-0.00419812266164854,0.000000,0.000000,0.000000,0.000000,0.000000,309.963865,26.514296,-1.000000,0.993324,0.005423,0.379983,0.000000,0.000000,0.000000,0.000000,0.000000,0.000000,0.000000,
2476,3298,4.60316973857114,14.2127929778649,0.00408974001931028,0.000000,0.000000,0.000000,0.000000,0.000000,310.066511,26.626678,-1.000000,0.993480,0.005479,0.354396,0.000000,0.000000,0.000000,0.000000,0.000000,0.000000,0.000000,
2131,3298,-2.88139714201048,14.1781396425574,0.0155691766379391,0.000000,0.000000,0.000000,0.000000,0.000000,310.509691,24.596567,-1.000000,0.994032,0.005042,0.390313,0.000000,0.000000,0.000000,0.000000,0.000000,0.000000,0.000000,
2146,3298,-2.55658887363682,14.1797522526924,0.0126138093195891,0.000000,0.000000,0.000000,0.000000,0.000000,310.421957,24.686624,-1.000000,0.995160,0.004462,0.386942,0.000000,0.000000,0.000000,0.000000,0.000000,0.000000,0.000000,
2161,3298,-2.2312521000271,14.1807298478271,0.0170232649364266,0.000000,0.000000,0.000000,0.000000,0.000000,310.400486,24.757152,-1.000000,0.996456,0.004127,0.402866,0.000000,0.000000,0.000000,0.000000,0.000000,0.000000,0.000000,
2176,3298,-1.90714235325316,14.1833551501555,0.00264729112052464,0.000000,0.000000,0.000000,0.000000,0.000000,310.225337,24.878408,-1.000000,0.996573,0.004062,0.368271,0.000000,0.000000,0.000000,0.000000,0.000000,0.000000,0.000000,
2191,3283,-1.57813366661114,13.8585549642853,0.0214420828702373,0.000000,0.000000,0.000000,0.000000,0.000000,310.579337,24.927236,-1.000000,0.994795,0.004746,0.393252,0.000000,0.000000,0.000000,0.000000,0.000000,0.000000,0.000000,
2191,3298,-1.5821300652424,14.185232872476,0.00118528347599067,0.000000,0.000000,0.000000,0.000000,0.000000,310.162957,24.999524,-1.000000,0.996324,0.004311,0.333796,0.000000,0.000000,0.000000,0.000000,0.000000,0.000000,0.000000,
2311,3298,1.02013633877206,14.1958875909651,-0.000175675403284004,0.000000,0.000000,0.000000,0.000000,0.000000,309.909030,25.604002,-1.000000,0.994471,0.004647,0.422822,0.000000,0.000000,0.000000,0.000000,0.000000,0.000000,0.000000,
2326,3298,1.34521819158368,14.1979309303868,-0.00546807305562425,0.000000,0.000000,0.000000,0.000000,0.000000,309.853608,25.715627,-1.000000,0.994691,0.004769,0.397857,0.000000,0.000000,0.000000,0.000000,0.000000,0.000000,0.000000,
2341,3298,1.67039832806938,14.1999606239741,-0.00991953902951082,0.000000,0.000000,0.000000,0.000000,0.000000,309.809595,25.830038,-1.000000,0.993033,0.005357,0.370094,0.000000,0.000000,0.000000,0.000000,0.000000,0.000000,0.000000,
2296,3298,0.694051002631348,14.1956335755446,-0.00887967465763495,0.000000,0.000000,0.000000,0.000000,0.000000,309.850631,25.581983,-1.000000,0.994217,0.004995,0.358083,0.000000,0.000000,0.000000,0.000000,0.000000,0.000000,0.000000,
2416,3298,3.29785385210066,14.20762449946,-0.0196056276677723,0.000000,0.000000,0.000000,0.000000,0.000000,309.761650,26.233068,-1.000000,0.992640,0.005655,0.401013,0.000000,0.000000,0.000000,0.000000,0.000000,0.000000,0.000000,
2431,3298,3.62442178014286,14.2083867806293,-0.00974872334683141,0.000000,0.000000,0.000000,0.000000,0.000000,309.864536,26.304348,-1.000000,0.994186,0.005054,0.416532,0.000000,0.000000,0.000000,0.000000,0.000000,0.000000,0.000000,
2446,3298,3.95028393281008,14.2095771739334,-0.0092624924486131,0.000000,0.000000,0.000000,0.000000,0.000000,309.892975,26.364424,-1.000000,0.993708,0.005295,0.443296,0.000000,0.000000,0.000000,0.000000,0.000000,0.000000,0.000000,
2356,3298,1.99584271757679,14.2022174738393,-0.0113915751500144,0.000000,0.000000,0.000000,0.000000,0.000000,309.794810,25.980939,-1.000000,0.992871,0.005639,0.305966,0.000000,0.000000,0.000000,0.000000,0.000000,0.000000,0.000000,
2221,3298,-0.9319522670793,14.1879228801674,-0.00120927954691297,0.000000,0.000000,0.000000,0.000000,0.000000,310.056154,25.144902,-1.000000,0.993245,0.004987,0.361936,0.000000,0.000000,0.000000,0.000000,0.000000,0.000000,0.000000,
2236,3298,-0.606527628092948,14.1890788108041,0.00151117275453316,0.000000,0.000000,0.000000,0.000000,0.000000,310.042172,25.220449,-1.000000,0.993325,0.005104,0.372906,0.000000,0.000000,0.000000,0.000000,0.000000,0.000000,0.000000,
2251,3298,-0.280509477666541,14.1899936856125,0.0118928018960673,0.000000,0.000000,0.000000,0.000000,0.000000,310.096838,25.314371,-1.000000,0.992083,0.005447,0.365458,0.000000,0.000000,0.000000,0.000000,0.000000,0.000000,0.000000,
2371,3298,2.32183477161292,14.2025788927147,-0.00640454689448688,0.000000,0.000000,0.000000,0.000000,0.000000,309.839498,25.991008,-1.000000,0.993434,0.005381,0.382838,0.000000,0.000000,0.000000,0.000000,0.000000,0.000000,0.000000,
2386,3298,2.64665973954727,14.204667044253,-0.0168834814006118,0.000000,0.000000,0.000000,0.000000,0.000000,309.757995,26.077078,-1.000000,0.992902,0.005702,0.383433,0.000000,0.000000,0.000000,0.000000,0.000000,0.000000,0.000000,
2266,3298,0.0446890168126508,14.1920177130652,0.0101738259057242,0.000000,0.000000,0.000000,0.000000,0.000000,310.053969,25.445255,-1.000000,0.993602,0.005218,0.321404,0.000000,0.000000,0.000000,0.000000,0.000000,0.000000,0.000000,
2206,3298,-1.25692530636215,14.1860485888761,0.00192720832535542,0.000000,0.000000,0.000000,0.000000,0.000000,310.123875,25.034025,-1.000000,0.993389,0.004920,0.386003,0.000000,0.000000,0.000000,0.000000,0.000000,0.000000,0.000000,
2281,3298,0.369010470800934,14.194201781724,-0.00407857330679917,0.000000,0.000000,0.000000,0.000000,0.000000,309.910355,25.523218,-1.000000,0.994284,0.004878,0.330217,0.000000,0.000000,0.000000,0.000000,0.000000,0.000000,0.000000,
2401,3283,2.97536296318092,13.8809925219659,-0.0157187218197237,0.000000,0.000000,0.000000,0.000000,0.000000,310.025376,26.122454,-1.000000,0.992025,0.005924,0.380955,0.000000,0.000000,0.000000,0.000000,0.000000,0.000000,0.000000,
2401,3298,2.97185450276048,14.2060083432797,-0.0230661382403241,0.000000,0.000000,0.000000,0.000000,0.000000,309.717256,26.116756,-1.000000,0.992970,0.005688,0.430426,0.000000,0.000000,0.000000,0.000000,0.000000,0.000000,0.000000,
2011,2368,-5.34107005455451,-6.04151305778287,-0.00710379625132873,0.000000,0.000000,0.000000,0.000000,0.000000,326.072393,24.684160,-1.000000,0.988664,0.007064,0.360317,0.000000,0.000000,0.000000,0.000000,0.000000,0.000000,0.000000,
2026,2368,-5.01460900007193,-6.04206364988873,-0.0035413971025946,0.000000,0.000000,0.000000,0.000000,0.000000,326.007761,24.607808,-1.000000,0.987623,0.007206,0.386710,0.000000,0.000000,0.000000,0.000000,0.000000,0.000000,0.000000,
2041,2368,-4.68845266316391,-6.04120335293874,-0.00559760757641925,0.000000,0.000000,0.000000,0.000000,0.000000,325.900117,24.605886,-1.000000,0.985834,0.007469,0.338826,0.000000,0.000000,0.000000,0.000000,0.000000,0.000000,0.000000,
2071,2368,-4.03569821140504,-6.04104084562707,-0.00444738767612307,0.000000,0.000000,0.000000,0.000000,0.000000,325.742213,24.510500,-1.000000,0.980012,0.008363,0.333992,0.000000,0.000000,0.000000,0.000000,0.000000,0.000000,0.000000,
2071,2398,-4.04051859611116,-5.38568436425704,-0.00775053809610426,0.000000,0.000000,0.000000,0.000000,0.000000,325.231171,24.496826,-1.000000,0.984851,0.007794,0.344863,0.000000,0.000000,0.000000,0.000000,0.000000,0.000000,0.000000,
2431,2398,3.80328816510245,-5.38251216086017,-0.00415350538048642,0.000000,0.000000,0.000000,0.000000,0.000000,324.602327,23.358646,-1.000000,0.987962,0.007737,0.374494,0.000000,0.000000,0.000000,0.000000,0.000000,0.000000,0.000000,
2461,2398,4.45815016872334,-5.38192262697452,-0.00274636508879667,0.000000,0.000000,0.000000,0.000000,0.000000,324.672445,23.302389,-1.000000,0.986583,0.007916,0.337223,0.000000,0.000000,0.000000,0.000000,0.000000,0.000000,0.000000,
2461,2428,4.45170860558428,-4.72630088215836,-0.00738878898755502,0.000000,0.000000,0.000000,0.000000,0.000000,324.147440,23.332401,-1.000000,0.985792,0.007700,0.419153,0.000000,0.000000,0.000000,0.000000,0.000000,0.000000,0.000000,
2101,2308,-3.37304174229294,-7.35277613508124,0.00152949190737672,0.000000,0.000000,0.000000,0.000000,0.000000,326.608764,24.377223,-1.000000,0.984003,0.008279,0.354614,0.000000,0.000000,0.000000,0.000000,0.000000,0.000000,0.000000,
2101,2338,-3.37774094501151,-6.69738736604661,0.00170500616326308,0.000000,0.000000,0.000000,0.000000,0.000000,326.127127,24.359862,-1.000000,0.988996,0.006860,0.378325,0.000000,0.000000,0.000000,0.000000,0.000000,0.000000,0.000000,
2131,2308,-2.71998352622251,-7.35224738510298,-0.00108555439175007,0.000000,0.000000,0.000000,0.000000,0.000000,326.454365,24.275286,-1.000000,0.985012,0.007787,0.338423,0.000000,0.000000,0.000000,0.000000,0.000000,0.000000,0.000000,
2401,2398,3.14884504782117,-5.38273574753411,-0.00253884279999284,0.000000,0.000000,0.000000,0.000000,0.000000,324.574711,23.477046,-1.000000,0.985717,0.007696,0.349342,0.000000,0.000000,0.000000,0.000000,0.000000,0.000000,0.000000,
2476,2443,4.77600350905657,-4.39713521869749,-0.00764711560367459,0.000000,0.000000,0.000000,0.000000,0.000000,323.937086,23.437247,-1.000000,0.986273,0.007519,0.329798,0.000000,0.000000,0.000000,0.000000,0.000000,0.000000,0.000000,
2491,2443,5.10364133512501,-4.39708575459347,-0.00483711251627028,0.000000,0.000000,0.000000,0.000000,0.000000,324.000683,23.406439,-1.000000,0.983709,0.007799,0.320403,0.000000,0.000000,0.000000,0.000000,0.000000,0.000000,0.000000,
2446,2443,4.12184220599365,-4.39876094133084,-0.00154724082557323,0.000000,0.000000,0.000000,0.000000,0.000000,323.921528,23.468341,-1.000000,0.983132,0.007866,0.378922,0.000000,0.000000,0.000000,0.000000,0.000000,0.000000,0.000000,
2446,2473,4.11598453410948,-3.74270643246572,0.000327892020493437,0.000000,0.000000,0.000000,0.000000,0.000000,323.450171,23.628265,-1.000000,0.987843,0.007252,0.325957,0.000000,0.000000,0.000000,0.000000,0.000000,0.000000,0.000000,
2161,2338,-2.07179698351568,-6.69584855517997,-0.00498273205676014,0.000000,0.000000,0.000000,0.000000,0.000000,325.822904,24.188580,-1.000000,0.987922,0.006999,0.331301,0.000000,0.000000,0.000000,0.000000,0.000000,0.000000,0.000000,
2506,2488,5.42138761121431,-3.4132634480674,-0.00913581079777259,0.000000,0.000000,0.000000,0.000000,0.000000,323.278479,23.505304,-1.000000,0.985314,0.007663,0.368558,0.000000,0.000000,0.000000,0.000000,0.000000,0.000000,0.000000,
2116,2383,-3.05889451642723,-5.71369590760202,-0.00646823828770948,0.000000,0.000000,0.000000,0.000000,0.000000,325.265054,24.285458,-1.000000,0.984392,0.007796,0.414100,0.000000,0.000000,0.000000,0.000000,0.000000,0.000000,0.000000,
2446,2503,4.1097823338886,-3.08785410480951,-0.00214118955409504,0.000000,0.000000,0.000000,0.000000,0.000000,322.942903,23.657604,-1.000000,0.988720,0.006860,0.403492,0.000000,0.000000,0.000000,0.000000,0.000000,0.000000,0.000000,
2191,2308,-1.41275293441156,-7.35282264413777,0.00316467527898112,0.000000,0.000000,0.000000,0.000000,0.000000,326.277027,24.016387,-1.000000,0.983046,0.008090,0.360772,0.000000,0.000000,0.000000,0.000000,0.000000,0.000000,0.000000,
2221,2278,-0.753792707188349,-8.00832262516258,0.00441616902924125,0.000000,0.000000,0.000000,0.000000,0.000000,326.690493,23.929696,-1.000000,0.983403,0.007973,0.286620,0.000000,0.000000,0.000000,0.000000,0.000000,0.000000,0.000000,
2251,2278,-0.0996961317109957,-8.00896544659948,0.00570477451736906,0.000000,0.000000,0.000000,0.000000,0.000000,326.638664,23.758390,-1.000000,0.984964,0.007916,0.330152,0.000000,0.000000,0.000000,0.000000,0.000000,0.000000,0.000000,
2356,2353,2.17597861062082,-6.36931224525478,-0.000795320345673645,0.000000,0.000000,0.000000,0.000000,0.000000,325.289925,23.321343,-1.000000,0.989298,0.007206,0.523087,0.000000,0.000000,0.000000,0.000000,0.000000,0.000000,0.000000,
2506,2473,5.42438785774401,-3.74064798968328,-0.0104284851388456,0.000000,0.000000,0.000000,0.000000,0.000000,323.511148,23.472542,-1.000000,0.984475,0.007685,0.339142,0.000000,0.000000,0.000000,0.000000,0.000000,0.000000,0.000000,
2506,2443,5.43173229857578,-4.39826109373375,0.00262720177528308,0.000000,0.000000,0.000000,0.000000,0.000000,324.108121,23.306830,-1.000000,0.982495,0.008365,0.379556,0.000000,0.000000,0.000000,0.000000,0.000000,0.000000,0.000000,
2506,2458,5.42791747337307,-4.06945468600307,-0.00558959725850627,0.000000,0.000000,0.000000,0.000000,0.000000,323.795605,23.371057,-1.000000,0.985745,0.007482,0.377855,0.000000,0.000000,0.000000,0.000000,0.000000,0.000000,0.000000,
2101,2368,-3.38262293661375,-6.04183550910945,-0.000851090866603954,0.000000,0.000000,0.000000,0.000000,0.000000,325.622378,24.351112,-1.000000,0.983055,0.008186,0.393347,0.000000,0.000000,0.000000,0.000000,0.000000,0.000000,0.000000,
2341,2338,1.8522566783602,-6.69620481991086,0.00783132477067738,0.000000,0.000000,0.000000,0.000000,0.000000,325.602574,23.539400,-1.000000,0.987590,0.007426,0.319423,0.000000,0.000000,0.000000,0.000000,0.000000,0.000000,0.000000,
2371,2338,2.50624446039352,-6.69589621951262,0.00173943473924965,0.000000,0.000000,0.000000,0.000000,0.000000,325.558279,23.383329,-1.000000,0.985882,0.007466,0.364939,0.000000,0.000000,0.000000,0.000000,0.000000,0.000000,0.000000,
2371,2368,2.50010811818622,-6.03922690793893,-0.00347774714504112,0.000000,0.000000,0.000000,0.000000,0.000000,325.029185,23.459674,-1.000000,0.983350,0.007787,0.374642,0.000000,0.000000,0.000000,0.000000,0.000000,0.000000,0.000000,
2086,2323,-3.70255410529044,-7.02435010313965,-0.00842642281884309,0.000000,0.000000,0.000000,0.000000,0.000000,326.357063,24.395212,-1.000000,0.988601,0.006994,0.396737,0.000000,0.000000,0.000000,0.000000,0.000000,0.000000,0.000000,
2086,2353,-3.706786791115,-6.3689631105966,-0.00163837689751745,0.000000,0.000000,0.000000,0.000000,0.000000,325.930163,24.453104,-1.000000,0.981633,0.008190,0.340480,0.000000,0.000000,0.000000,0.000000,0.000000,0.000000,0.000000,
2011,2353,-5.33906406659812,-6.36817504227619,-0.0101795624671013,0.000000,0.000000,0.000000,0.000000,0.000000,326.287872,24.746699,-1.000000,0.989347,0.006862,0.308257,0.000000,0.000000,0.000000,0.000000,0.000000,0.000000,0.000000,
2026,2353,-5.01252608009522,-6.36876552077172,-0.00575692335814892,0.000000,0.000000,0.000000,0.000000,0.000000,326.230430,24.675013,-1.000000,0.987661,0.007131,0.327750,0.000000,0.000000,0.000000,0.000000,0.000000,0.000000,0.000000,
2416,2383,3.48043409093004,-5.71164880969951,0.0146204127966598,0.000000,0.000000,0.000000,0.000000,0.000000,324.979436,23.450801,-1.000000,0.987917,0.007422,0.279112,0.000000,0.000000,0.000000,0.000000,0.000000,0.000000,0.000000,
2446,2383,4.13428162904967,-5.71051626379401,0.0036760551839734,0.000000,0.000000,0.000000,0.000000,0.000000,324.937780,23.325204,-1.000000,0.988639,0.007676,0.306917,0.000000,0.000000,0.000000,0.000000,0.000000,0.000000,0.000000,
2041,2353,-4.68643268164573,-6.36854028102156,-0.0093500697860236,0.000000,0.000000,0.000000,0.000000,0.000000,326.110419,24.599611,-1.000000,0.985557,0.007519,0.351175,0.000000,0.000000,0.000000,0.000000,0.000000,0.000000,0.000000,
2476,2383,4.78799328895926,-5.70897564292095,-0.0106293721177622,0.000000,0.000000,0.000000,0.000000,0.000000,324.885404,23.204341,-1.000000,0.985241,0.008469,0.330250,0.000000,0.000000,0.000000,0.000000,0.000000,0.000000,0.000000,
2476,2398,4.78549353084028,-5.38107987018035,-0.00388204467458308,0.000000,0.000000,0.000000,0.000000,0.000000,324.698479,23.306765,-1.000000,0.986623,0.007896,0.285855,0.000000,0.000000,0.000000,0.000000,0.000000,0.000000,0.000000,
2476,2413,4.78299108101036,-5.05445132536259,0.00270388566121937,0.000000,0.000000,0.000000,0.000000,0.000000,324.510805,23.295610,-1.000000,0.987948,0.007435,0.355077,0.000000,0.000000,0.000000,0.000000,0.000000,0.000000,0.000000,
2476,2428,4.77963494521179,-4.72615158350008,-0.000846049927702097,0.000000,0.000000,0.000000,0.000000,0.000000,324.237727,23.346068,-1.000000,0.987594,0.007296,0.362846,0.000000,0.000000,0.000000,0.000000,0.000000,0.000000,0.000000,
2491,2428,5.1064626924329,-4.72539494120267,-0.00804779448208137,0.000000,0.000000,0.000000,0.000000,0.000000,324.217564,23.285743,-1.000000,0.987491,0.007340,0.380837,0.000000,0.000000,0.000000,0.000000,0.000000,0.000000,0.000000,
2056,2353,-4.36010604768018,-6.36855557962919,-0.00969491073510653,0.000000,0.000000,0.000000,0.000000,0.000000,326.021771,24.533866,-1.000000,0.984102,0.007789,0.364569,0.000000,0.000000,0.000000,0.000000,0.000000,0.000000,0.000000,
2116,2293,-3.04429979471038,-7.67963698579962,-0.00202711582431903,0.000000,0.000000,0.000000,0.000000,0.000000,326.751911,24.372462,-1.000000,0.986481,0.007314,0.295057,0.000000,0.000000,0.000000,0.000000,0.000000,0.000000,0.000000,
2146,2293,-2.39069817587138,-7.68052615199316,0.00151341421525331,0.000000,0.000000,0.000000,0.000000,0.000000,326.658052,24.201978,-1.000000,0.984145,0.007753,0.342622,0.000000,0.000000,0.000000,0.000000,0.000000,0.000000,0.000000,
2236,2263,-0.424022767830735,-8.33706093693739,0.00697636671583268,0.000000,0.000000,0.000000,0.000000,0.000000,326.920318,23.822818,-1.000000,0.982661,0.008476,0.306105,0.000000,0.000000,0.000000,0.000000,0.000000,0.000000,0.000000,
2266,2263,0.2306280594265,-8.33741447047824,0.0139810760696264,0.000000,0.000000,0.000000,0.000000,0.000000,326.924589,23.735726,-1.000000,0.989445,0.007237,0.260796,0.000000,0.000000,0.000000,0.000000,0.000000,0.000000,0.000000,
2266,2293,0.224417879154846,-7.68050596893141,0.00176798784491439,0.000000,0.000000,0.000000,0.000000,0.000000,326.338850,23.706239,-1.000000,0.984857,0.008096,0.346259,0.000000,0.000000,0.000000,0.000000,0.000000,0.000000,0.000000,
2086,2383,-3.71200049103885,-5.71249143534253,-0.0102382159188323,0.000000,0.000000,0.000000,0.000000,0.000000,325.374687,24.480409,-1.000000,0.981303,0.008197,0.315052,0.000000,0.000000,0.000000,0.000000,0.000000,0.000000,0.000000,
2191,2278,-1.40780307819733,-8.00821488954622,0.00184061890342946,0.000000,0.000000,0.000000,0.000000,0.000000,326.749309,24.039039,-1.000000,0.980811,0.008609,0.304951,0.000000,0.000000,0.000000,0.000000,0.000000,0.000000,0.000000,
2266,2323,0.219337091697202,-7.02379446627892,0.00529414017699992,0.000000,0.000000,0.000000,0.000000,0.000000,325.883557,23.838552,-1.000000,0.979850,0.008966,0.268877,0.000000,0.000000,0.000000,0.000000,0.000000,0.000000,0.000000,
2296,2323,0.873054433846466,-7.02418909482198,0.000263901331322813,0.000000,0.000000,0.000000,0.000000,0.000000,325.804946,23.628274,-1.000000,0.983663,0.008294,0.364750,0.000000,0.000000,0.000000,0.000000,0.000000,0.000000,0.000000,
2326,2323,1.52697873372507,-7.02329896549346,-0.00393708619924382,0.000000,0.000000,0.000000,0.000000,0.000000,325.749962,23.543537,-1.000000,0.982370,0.008372,0.334792,0.000000,0.000000,0.000000,0.000000,0.000000,0.000000,0.000000,
2401,2368,3.15456586546916,-6.0388279440198,-0.00406763452070891,0.000000,0.000000,0.000000,0.000000,0.000000,325.047895,23.366618,-1.000000,0.981643,0.008062,0.365485,0.000000,0.000000,0.000000,0.000000,0.000000,0.000000,0.000000,
2086,2293,-3.6976603379228,-7.67985461099288,-0.00455424969101159,0.000000,0.000000,0.000000,0.000000,0.000000,326.872068,24.451947,-1.000000,0.992120,0.006370,0.337841,0.000000,0.000000,0.000000,0.000000,0.000000,0.000000,0.000000,
2161,2308,-2.06630405982724,-7.3517367600299,0.00335376307117485,0.000000,0.000000,0.000000,0.000000,0.000000,326.375808,24.241890,-1.000000,0.981772,0.008312,0.253667,0.000000,0.000000,0.000000,0.000000,0.000000,0.000000,0.000000,
2506,2428,5.43517252430306,-4.72670242287352,0.00643976594494688,0.000000,0.000000,0.000000,0.000000,0.000000,324.383635,23.240649,-1.000000,0.981664,0.008593,0.382956,0.000000,0.000000,0.000000,0.000000,0.000000,0.000000,0.000000,
2206,2263,-1.07812948757642,-8.33716548545519,0.00508708815732462,0.000000,0.000000,0.000000,0.000000,0.000000,326.976159,23.920104,-1.000000,0.981535,0.008425,0.341124,0.000000,0.000000,0.000000,0.000000,0.000000,0.000000,0.000000,
2176,2293,-1.7367509314285,-7.68053823397461,0.00773027108630231,0.000000,0.000000,0.000000,0.000000,0.000000,326.603278,24.138372,-1.000000,0.981631,0.008440,0.283324,0.000000,0.000000,0.000000,0.000000,0.000000,0.000000,0.000000,
2071,2278,-4.02153629821143,-8.00752852299949,0.0014433846044426,0.000000,0.000000,0.000000,0.000000,0.000000,327.239978,24.599180,-1.000000,0.994516,0.006213,0.252509,0.000000,0.000000,0.000000,0.000000,0.000000,0.000000,0.000000,
2071,2308,-4.02706025864149,-7.35134940614322,-0.0135550456440683,0.000000,0.000000,0.000000,0.000000,0.000000,326.632675,24.481293,-1.000000,0.993321,0.006456,0.368715,0.000000,0.000000,0.000000,0.000000,0.000000,0.000000,0.000000,
2101,2278,-3.36830001049762,-8.00904469535175,0.00205660833677257,0.000000,0.000000,0.000000,0.000000,0.000000,327.096327,24.341680,-1.000000,0.983413,0.007903,0.383479,0.000000,0.000000,0.000000,0.000000,0.000000,0.000000,0.000000,
2251,2248,-0.0947547556766963,-8.66385895346858,0.00128142029478795,0.000000,0.000000,0.000000,0.000000,0.000000,327.084948,23.813624,-1.000000,0.978576,0.009124,0.223987,0.000000,0.000000,0.000000,0.000000,0.000000,0.000000,0.000000,
2281,2248,0.560190738651382,-8.6663038602355,0.0102149441191841,0.000000,0.000000,0.000000,0.000000,0.000000,327.115115,23.555274,-1.000000,0.981912,0.008448,0.345349,0.000000,0.000000,0.000000,0.000000,0.000000,0.000000,0.000000,
2281,2278,0.5539293592125,-8.00841481282184,-0.00171443253276493,0.000000,0.000000,0.000000,0.000000,0.000000,326.531293,23.608024,-1.000000,0.988278,0.007483,0.352941,0.000000,0.000000,0.000000,0.000000,0.000000,0.000000,0.000000,
2011,2338,-5.33632861547671,-6.69751979409926,-0.00110929316434749,0.000000,0.000000,0.000000,0.000000,0.000000,326.605328,24.688114,-1.000000,0.986082,0.007447,0.376570,0.000000,0.000000,0.000000,0.000000,0.000000,0.000000,0.000000,
2026,2338,-5.01004286183609,-6.69742223940868,-0.00142778969370738,0.000000,0.000000,0.000000,0.000000,0.000000,326.508281,24.632669,-1.000000,0.986776,0.007130,0.377648,0.000000,0.000000,0.000000,0.000000,0.000000,0.000000,0.000000,
2431,2368,3.80997432274944,-6.03915210314012,0.00490182385544813,0.000000,0.000000,0.000000,0.000000,0.000000,325.164069,23.299891,-1.000000,0.983803,0.007843,0.329671,0.000000,0.000000,0.000000,0.000000,0.000000,0.000000,0.000000,
2461,2368,4.46464240602558,-6.03813051573183,0.00246301335988619,0.000000,0.000000,0.000000,0.000000,0.000000,325.202119,23.245468,-1.000000,0.987097,0.008203,0.281742,0.000000,0.000000,0.000000,0.000000,0.000000,0.000000,0.000000,
2071,2338,-4.03052044552985,-6.69786177924014,0.00460916842712322,0.000000,0.000000,0.000000,0.000000,0.000000,326.301354,24.467890,-1.000000,0.986277,0.007246,0.379058,0.000000,0.000000,0.000000,0.000000,0.000000,0.000000,0.000000,
2491,2398,5.11285767105771,-5.38113725984253,-0.00538327246249537,0.000000,0.000000,0.000000,0.000000,0.000000,324.726330,23.225119,-1.000000,0.988033,0.007229,0.320532,0.000000,0.000000,0.000000,0.000000,0.000000,0.000000,0.000000,
2491,2413,5.1095783497615,-5.05418185789348,-0.00778833558678116,0.000000,0.000000,0.000000,0.000000,0.000000,324.463538,23.158752,-1.000000,0.988593,0.007117,0.447602,0.000000,0.000000,0.000000,0.000000,0.000000,0.000000,0.000000,
2041,2338,-4.68383035709846,-6.69674378671571,-0.00352004725897359,0.000000,0.000000,0.000000,0.000000,0.000000,326.400531,24.612814,-1.000000,0.987444,0.006969,0.343238,0.000000,0.000000,0.000000,0.000000,0.000000,0.000000,0.000000,
2356,2323,2.18150463517038,-7.02440813191484,-0.00257764685221673,0.000000,0.000000,0.000000,0.000000,0.000000,325.759707,23.330876,-1.000000,0.994468,0.005757,0.432235,0.000000,0.000000,0.000000,0.000000,0.000000,0.000000,0.000000,
2506,2413,5.43782736272832,-5.05428441650062,0.00102940702248588,0.000000,0.000000,0.000000,0.000000,0.000000,324.581748,23.171119,-1.000000,0.983772,0.008088,0.390162,0.000000,0.000000,0.000000,0.000000,0.000000,0.000000,0.000000,
2491,2383,5.11603365032346,-5.7098118460488,-0.00439102960882565,0.000000,0.000000,0.000000,0.000000,0.000000,324.978172,23.125700,-1.000000,0.980844,0.008524,0.359616,0.000000,0.000000,0.000000,0.000000,0.000000,0.000000,0.000000,
2131,2278,-2.71490594572413,-8.00879383159739,0.00282988740127621,0.000000,0.000000,0.000000,0.000000,0.000000,326.970361,24.247045,-1.000000,0.984013,0.007973,0.351287,0.000000,0.000000,0.000000,0.000000,0.000000,0.000000,0.000000,
2386,2323,2.83530841223983,-7.02280816539728,-0.0124565481269769,0.000000,0.000000,0.000000,0.000000,0.000000,325.692030,23.254527,-1.000000,0.992623,0.006228,0.393553,0.000000,0.000000,0.000000,0.000000,0.000000,0.000000,0.000000,
2386,2353,2.83055803944389,-6.36817748842944,0.000597169139325615,0.000000,0.000000,0.000000,0.000000,0.000000,325.316076,23.314672,-1.000000,0.982661,0.008087,0.423358,0.000000,0.000000,0.000000,0.000000,0.000000,0.000000,0.000000,
2476,2368,4.79158862804546,-6.03720850024494,-0.00418027367550167,0.000000,0.000000,0.000000,0.000000,0.000000,325.182336,23.203198,-1.000000,0.986043,0.008368,0.272964,0.000000,0.000000,0.000000,0.000000,0.000000,0.000000,0.000000,
2491,2368,5.11940032931057,-6.03828400926034,-0.00109652015783013,0.000000,0.000000,0.000000,0.000000,0.000000,325.248996,23.072343,-1.000000,0.983283,0.008178,0.352314,0.000000,0.000000,0.000000,0.000000,0.000000,0.000000,0.000000,
2281,2308,0.549055092488604,-7.35243477667004,0.00527977661687373,0.000000,0.000000,0.000000,0.000000,0.000000,326.105277,23.698990,-1.000000,0.984325,0.008235,0.321460,0.000000,0.000000,0.000000,0.000000,0.000000,0.000000,0.000000,
2161,2278,-2.06162142721706,-8.00791999087056,-0.000407707585338812,0.000000,0.000000,0.000000,0.000000,0.000000,326.828109,24.168723,-1.000000,0.978126,0.009080,0.302573,0.000000,0.000000,0.000000,0.000000,0.000000,0.000000,0.000000,
2311,2308,1.20201341829604,-7.35067775804055,-0.0115867838658232,0.000000,0.000000,0.000000,0.000000,0.000000,325.935971,23.566527,-1.000000,0.987913,0.007445,0.335396,0.000000,0.000000,0.000000,0.000000,0.000000,0.000000,0.000000,
2221,2248,-0.748736870394662,-8.66623852700127,0.00282412515372243,0.000000,0.000000,0.000000,0.000000,0.000000,327.161705,23.738654,-1.000000,0.983057,0.008117,0.435490,0.000000,0.000000,0.000000,0.000000,0.000000,0.000000,0.000000,
2341,2308,1.85786895280674,-7.35230117477405,0.00782303111816418,0.000000,0.000000,0.000000,0.000000,0.000000,326.087362,23.486701,-1.000000,0.982459,0.007813,0.294914,0.000000,0.000000,0.000000,0.000000,0.000000,0.000000,0.000000,
2416,2353,3.48546827124973,-6.36724384826772,0.00385752539352779,0.000000,0.000000,0.000000,0.000000,0.000000,325.375389,23.307678,-1.000000,0.981744,0.008033,0.323616,0.000000,0.000000,0.000000,0.000000,0.000000,0.000000,0.000000,
2191,2248,-1.40220843550475,-8.66592063688664,0.00982150690009576,0.000000,0.000000,0.000000,0.000000,0.000000,327.299646,23.965940,-1.000000,0.982974,0.008159,0.344333,0.000000,0.000000,0.000000,0.000000,0.000000,0.000000,0.000000,
2176,2263,-1.73177309659031,-8.33658731297552,0.00762194296351026,0.000000,0.000000,0.000000,0.000000,0.000000,327.085715,24.124724,-1.000000,0.981087,0.008673,0.268228,0.000000,0.000000,0.000000,0.000000,0.000000,0.000000,0.000000,
2056,2263,-4.34601940111084,-8.335722118754,-0.00206785704375534,0.000000,0.000000,0.000000,0.000000,0.000000,327.533477,24.608852,-1.000000,0.983428,0.008290,0.309400,0.000000,0.000000,0.000000,0.000000,0.000000,0.000000,0.000000,
2056,2293,-4.35022510537241,-7.6809688423363,0.0031396543045048,0.000000,0.000000,0.000000,0.000000,0.000000,327.094691,24.552022,-1.000000,0.994422,0.005954,0.359655,0.000000,0.000000,0.000000,0.000000,0.000000,0.000000,0.000000,
2086,2263,-3.6926287944627,-8.33721709217381,0.00144548809436174,0.000000,0.000000,0.000000,0.000000,0.000000,327.405303,24.382253,-1.000000,0.985080,0.007457,0.405072,0.000000,0.000000,0.000000,0.000000,0.000000,0.000000,0.000000,
2371,2308,2.51241756583116,-7.35294494510988,0.00742373635148397,0.000000,0.000000,0.000000,0.000000,0.000000,326.091086,23.298725,-1.000000,0.995708,0.005034,0.363255,0.000000,0.000000,0.000000,0.000000,0.000000,0.000000,0.000000,
2056,2323,-4.35423887160541,-7.02595763067473,0.0116628972372155,0.000000,0.000000,0.000000,0.000000,0.000000,326.682909,24.570510,-1.000000,0.984972,0.007713,0.334232,0.000000,0.000000,0.000000,0.000000,0.000000,0.000000,0.000000,
2401,2308,3.16526475911707,-7.35101951476759,-0.0164686024819503,0.000000,0.000000,0.000000,0.000000,0.000000,325.915542,23.111187,-1.000000,0.994256,0.005631,0.431914,0.000000,0.000000,0.000000,0.000000,0.000000,0.000000,0.000000,
2401,2338,3.16122616673463,-6.69614374978587,0.00620009113140441,0.000000,0.000000,0.000000,0.000000,0.000000,325.619529,23.280024,-1.000000,0.982184,0.007967,0.357144,0.000000,0.000000,0.000000,0.000000,0.000000,0.000000,0.000000,
2506,2398,5.44029989289835,-5.38111404165633,-0.00646564430559238,0.000000,0.000000,0.000000,0.000000,0.000000,324.762018,23.154791,-1.000000,0.982623,0.008013,0.343949,0.000000,0.000000,0.000000,0.000000,0.000000,0.000000,0.000000,
2296,2263,0.883619655617839,-8.33549043361727,-0.00392869334450552,0.000000,0.000000,0.000000,0.000000,0.000000,326.738183,23.603070,-1.000000,0.988163,0.007446,0.261921,0.000000,0.000000,0.000000,0.000000,0.000000,0.000000,0.000000,
2296,2293,0.878757693306959,-7.67988410488649,0.00385662327352065,0.000000,0.000000,0.000000,0.000000,0.000000,326.319022,23.658797,-1.000000,0.986731,0.007433,0.270089,0.000000,0.000000,0.000000,0.000000,0.000000,0.000000,0.000000,
2506,2383,5.44445886869274,-5.71069222846783,0.00574705038633283,0.000000,0.000000,0.000000,0.000000,0.000000,325.107858,23.080527,-1.000000,0.980685,0.008491,0.355010,0.000000,0.000000,0.000000,0.000000,0.000000,0.000000,0.000000,
2326,2293,1.53284046333413,-7.68007616429634,7.57590306648126E-05,0.000000,0.000000,0.000000,0.000000,0.000000,326.268292,23.477917,-1.000000,0.984275,0.007819,0.327243,0.000000,0.000000,0.000000,0.000000,0.000000,0.000000,0.000000,
2026,2323,-5.00797850001087,-7.02446982825855,-0.00390793478209162,0.000000,0.000000,0.000000,0.000000,0.000000,326.728756,24.675583,-1.000000,0.984416,0.007731,0.342666,0.000000,0.000000,0.000000,0.000000,0.000000,0.000000,0.000000,
2041,2323,-4.68149562233389,-7.02433707049891,-0.00201383690688317,0.000000,0.000000,0.000000,0.000000,0.000000,326.654378,24.644845,-1.000000,0.984213,0.007692,0.317002,0.000000,0.000000,0.000000,0.000000,0.000000,0.000000,0.000000,
2446,2353,4.14080164962398,-6.36820868103045,0.009811680593657,0.000000,0.000000,0.000000,0.000000,0.000000,325.475666,23.153050,-1.000000,0.981851,0.008762,0.371036,0.000000,0.000000,0.000000,0.000000,0.000000,0.000000,0.000000,
2476,2353,4.79520967937698,-6.36672802445035,0.00244566604874308,0.000000,0.000000,0.000000,0.000000,0.000000,325.481316,23.091917,-1.000000,0.983166,0.008467,0.325491,0.000000,0.000000,0.000000,0.000000,0.000000,0.000000,0.000000,
2011,2323,-5.33375924766327,-7.02526783908522,0.00535205144564088,0.000000,0.000000,0.000000,0.000000,0.000000,326.900217,24.755860,-1.000000,0.984191,0.007924,0.318477,0.000000,0.000000,0.000000,0.000000,0.000000,0.000000,0.000000,
2491,2353,5.12319177082378,-6.36766751238023,0.00718482552497335,0.000000,0.000000,0.000000,0.000000,0.000000,325.561736,22.989796,-1.000000,0.985732,0.008124,0.373732,0.000000,0.000000,0.000000,0.000000,0.000000,0.000000,0.000000,
2116,2263,-3.03950266589657,-8.33641328978633,-0.00151561266733324,0.000000,0.000000,0.000000,0.000000,0.000000,327.239528,24.299588,-1.000000,0.984501,0.007866,0.356640,0.000000,0.000000,0.000000,0.000000,0.000000,0.000000,0.000000,
2146,2263,-2.38606588209413,-8.33577594249375,-0.0020433220725522,0.000000,0.000000,0.000000,0.000000,0.000000,327.111303,24.226459,-1.000000,0.983177,0.008107,0.298270,0.000000,0.000000,0.000000,0.000000,0.000000,0.000000,0.000000,
2506,2353,5.4513212117702,-6.3678428380579,0.0131209401166643,0.000000,0.000000,0.000000,0.000000,0.000000,325.656122,22.969296,-1.000000,0.985718,0.008087,0.340372,0.000000,0.000000,0.000000,0.000000,0.000000,0.000000,0.000000,
2506,2368,5.44787746282759,-6.04018556244505,0.0091886135987238,0.000000,0.000000,0.000000,0.000000,0.000000,325.380481,22.935665,-1.000000,0.980139,0.009018,0.437136,0.000000,0.000000,0.000000,0.000000,0.000000,0.000000,0.000000,
2206,2233,-1.07281450631242,-8.99429759530368,0.00819878319504141,0.000000,0.000000,0.000000,0.000000,0.000000,327.485707,23.860044,-1.000000,0.983374,0.008480,0.362864,0.000000,0.000000,0.000000,0.000000,0.000000,0.000000,0.000000,
2236,2233,-0.41945067107164,-8.99324185168543,-0.00204417984190286,0.000000,0.000000,0.000000,0.000000,0.000000,327.328873,23.723727,-1.000000,0.984313,0.007683,0.358703,0.000000,0.000000,0.000000,0.000000,0.000000,0.000000,0.000000,
2176,2233,-1.72711048443606,-8.99326037257249,0.00285864357744003,0.000000,0.000000,0.000000,0.000000,0.000000,327.529516,24.026729,-1.000000,0.982513,0.008063,0.337043,0.000000,0.000000,0.000000,0.000000,0.000000,0.000000,0.000000,
2356,2293,2.18682050769199,-7.67836876778218,-0.00693854635920843,0.000000,0.000000,0.000000,0.000000,0.000000,326.207120,23.438134,-1.000000,0.993512,0.006086,0.243579,0.000000,0.000000,0.000000,0.000000,0.000000,0.000000,0.000000,
2266,2233,0.235531029568694,-8.99424844307373,0.0080987310323053,0.000000,0.000000,0.000000,0.000000,0.000000,327.359679,23.609411,-1.000000,0.979790,0.008637,0.331789,0.000000,0.000000,0.000000,0.000000,0.000000,0.000000,0.000000,
2296,2233,0.890157886928595,-8.99423658251405,0.0108025513550274,0.000000,0.000000,0.000000,0.000000,0.000000,327.345639,23.511379,-1.000000,0.979968,0.008690,0.288247,0.000000,0.000000,0.000000,0.000000,0.000000,0.000000,0.000000,
2431,2338,3.81569307159365,-6.69514128056688,0.00202146066169462,0.000000,0.000000,0.000000,0.000000,0.000000,325.625758,23.205928,-1.000000,0.983358,0.007729,0.320290,0.000000,0.000000,0.000000,0.000000,0.000000,0.000000,0.000000,
2161,2248,-2.05644355236294,-8.66496547962885,0.00327785910690181,0.000000,0.000000,0.000000,0.000000,0.000000,327.342281,24.112659,-1.000000,0.979278,0.008424,0.333840,0.000000,0.000000,0.000000,0.000000,0.000000,0.000000,0.000000,
2386,2293,2.84242953599076,-7.68066519040624,0.00451118181365473,0.000000,0.000000,0.000000,0.000000,0.000000,326.319030,23.217633,-1.000000,0.994445,0.005602,0.339299,0.000000,0.000000,0.000000,0.000000,0.000000,0.000000,0.000000,
2041,2278,-4.67435986840896,-8.00838507978607,0.00478156383837813,0.000000,0.000000,0.000000,0.000000,0.000000,327.434877,24.679918,-1.000000,0.992386,0.006787,0.298062,0.000000,0.000000,0.000000,0.000000,0.000000,0.000000,0.000000,
2041,2293,-4.67636821908168,-7.68178665878384,0.00845004129450899,0.000000,0.000000,0.000000,0.000000,0.000000,327.224720,24.592909,-1.000000,0.993549,0.006414,0.379376,0.000000,0.000000,0.000000,0.000000,0.000000,0.000000,0.000000,
2041,2308,-4.67908257821129,-7.35284774330044,0.000728824774739678,0.000000,0.000000,0.000000,0.000000,0.000000,326.918859,24.610709,-1.000000,0.991735,0.006857,0.356602,0.000000,0.000000,0.000000,0.000000,0.000000,0.000000,0.000000,
2416,2293,3.49735512528727,-7.68067507838256,0.00496672423025757,0.000000,0.000000,0.000000,0.000000,0.000000,326.355847,23.095676,-1.000000,0.980015,0.008799,0.336732,0.000000,0.000000,0.000000,0.000000,0.000000,0.000000,0.000000,
2416,2323,3.49195738893141,-7.02455863570255,0.0111858077607394,0.000000,0.000000,0.000000,0.000000,0.000000,325.922460,23.203696,-1.000000,0.983025,0.008129,0.327917,0.000000,0.000000,0.000000,0.000000,0.000000,0.000000,0.000000,
2341,2278,1.86289214422488,-8.00895093736212,2.53946740826905E-05,0.000000,0.000000,0.000000,0.000000,0.000000,326.507363,23.325072,-1.000000,0.984086,0.007872,0.379581,0.000000,0.000000,0.000000,0.000000,0.000000,0.000000,0.000000,
2371,2278,2.51896936373238,-8.00933648514944,0.0181101183011947,0.000000,0.000000,0.000000,0.000000,0.000000,326.664750,23.346897,-1.000000,0.993880,0.005931,0.228422,0.000000,0.000000,0.000000,0.000000,0.000000,0.000000,0.000000,
2311,2248,1.21473160343436,-8.666440730157,0.0112932777140031,0.000000,0.000000,0.000000,0.000000,0.000000,327.096290,23.427235,-1.000000,0.980858,0.008469,0.336205,0.000000,0.000000,0.000000,0.000000,0.000000,0.000000,0.000000,
2311,2278,1.20920023514065,-8.00884609428805,0.0109417406587795,0.000000,0.000000,0.000000,0.000000,0.000000,326.608605,23.570859,-1.000000,0.984791,0.007539,0.261477,0.000000,0.000000,0.000000,0.000000,0.000000,0.000000,0.000000,
2476,2338,4.79834231368281,-6.69479033935387,0.0033267682572955,0.000000,0.000000,0.000000,0.000000,0.000000,325.731601,23.063509,-1.000000,0.981196,0.008575,0.295543,0.000000,0.000000,0.000000,0.000000,0.000000,0.000000,0.000000,
2491,2338,5.12581682490964,-6.69421018419004,0.00180935394450898,0.000000,0.000000,0.000000,0.000000,0.000000,325.759161,23.039135,-1.000000,0.985746,0.008018,0.264137,0.000000,0.000000,0.000000,0.000000,0.000000,0.000000,0.000000,
2506,2338,5.45421005346404,-6.69551881887313,0.010471473849293,0.000000,0.000000,0.000000,0.000000,0.000000,325.876875,22.942010,-1.000000,0.985982,0.008011,0.305090,0.000000,0.000000,0.000000,0.000000,0.000000,0.000000,0.000000,
2071,2248,-4.0167433541263,-8.6648024263944,0.00466252240607901,0.000000,0.000000,0.000000,0.000000,0.000000,327.749819,24.521280,-1.000000,0.985282,0.007282,0.332051,0.000000,0.000000,0.000000,0.000000,0.000000,0.000000,0.000000,
2101,2248,-3.36360902464027,-8.66484261663662,0.00196611749356634,0.000000,0.000000,0.000000,0.000000,0.000000,327.578155,24.363493,-1.000000,0.986056,0.007479,0.354623,0.000000,0.000000,0.000000,0.000000,0.000000,0.000000,0.000000,
2131,2248,-2.71014848968903,-8.66474590573134,0.00200438141581571,0.000000,0.000000,0.000000,0.000000,0.000000,327.446359,24.246191,-1.000000,0.982699,0.008143,0.336239,0.000000,0.000000,0.000000,0.000000,0.000000,0.000000,0.000000,
2011,2308,-5.3324362079599,-7.35122940406507,-0.00911522875668425,0.000000,0.000000,0.000000,0.000000,0.000000,327.020669,24.784231,-1.000000,0.986827,0.007348,0.300788,0.000000,0.000000,0.000000,0.000000,0.000000,0.000000,0.000000,
2026,2308,-5.00608096775743,-7.35124064431578,-0.0091130504037551,0.000000,0.000000,0.000000,0.000000,0.000000,326.926418,24.721333,-1.000000,0.983242,0.007962,0.304964,0.000000,0.000000,0.000000,0.000000,0.000000,0.000000,0.000000,
2221,2218,-0.743037855080196,-9.32219911056406,0.0107757435246185,0.000000,0.000000,0.000000,0.000000,0.000000,327.710694,23.845653,-1.000000,0.982957,0.008052,0.285386,0.000000,0.000000,0.000000,0.000000,0.000000,0.000000,0.000000,
2251,2218,-0.088526043315337,-9.3232240161046,0.0145149229433628,0.000000,0.000000,0.000000,0.000000,0.000000,327.679771,23.663393,-1.000000,0.979262,0.008857,0.322172,0.000000,0.000000,0.000000,0.000000,0.000000,0.000000,0.000000,
2041,2248,-4.67007361152349,-8.66469260900234,0.00167961591898802,0.000000,0.000000,0.000000,0.000000,0.000000,327.891654,24.627264,-1.000000,0.985360,0.007571,0.361491,0.000000,0.000000,0.000000,0.000000,0.000000,0.000000,0.000000,
2041,2263,-4.67214183578432,-8.33686057475152,0.00441552228511455,0.000000,0.000000,0.000000,0.000000,0.000000,327.673295,24.633806,-1.000000,0.986088,0.007540,0.349643,0.000000,0.000000,0.000000,0.000000,0.000000,0.000000,0.000000,
2191,2218,-1.39725264893844,-9.32237251635198,0.00865318991287722,0.000000,0.000000,0.000000,0.000000,0.000000,327.773051,23.935342,-1.000000,0.980695,0.008824,0.341104,0.000000,0.000000,0.000000,0.000000,0.000000,0.000000,0.000000,
2446,2323,4.14623304801905,-7.02418157502726,0.00273966940329728,0.000000,0.000000,0.000000,0.000000,0.000000,325.902367,23.029376,-1.000000,0.980147,0.008713,0.386802,0.000000,0.000000,0.000000,0.000000,0.000000,0.000000,0.000000,
2461,2338,4.47062829407664,-6.6949457532878,0.00144361577565633,0.000000,0.000000,0.000000,0.000000,0.000000,325.679898,23.093252,-1.000000,0.977559,0.009014,0.321442,0.000000,0.000000,0.000000,0.000000,0.000000,0.000000,0.000000,
2161,2218,-2.05141672404886,-9.32113797195337,0.00489800773215165,0.000000,0.000000,0.000000,0.000000,0.000000,327.838490,24.136640,-1.000000,0.979271,0.008743,0.284865,0.000000,0.000000,0.000000,0.000000,0.000000,0.000000,0.000000,
2281,2218,0.565492925187531,-9.32253370303905,0.00920170796848652,0.000000,0.000000,0.000000,0.000000,0.000000,327.590221,23.543765,-1.000000,0.980969,0.008586,0.296383,0.000000,0.000000,0.000000,0.000000,0.000000,0.000000,0.000000,
2311,2218,1.22012109452157,-9.3237438803186,0.00981558446295594,0.000000,0.000000,0.000000,0.000000,0.000000,327.568282,23.312175,-1.000000,0.978022,0.009079,0.382071,0.000000,0.000000,0.000000,0.000000,0.000000,0.000000,0.000000,
2146,2233,-2.3806127275842,-8.99334977639163,0.00672946016931064,0.000000,0.000000,0.000000,0.000000,0.000000,327.667652,24.185566,-1.000000,0.980306,0.008416,0.318594,0.000000,0.000000,0.000000,0.000000,0.000000,0.000000,0.000000,
2401,2278,3.17107358600417,-8.00548681551806,-0.0166300655280907,0.000000,0.000000,0.000000,0.000000,0.000000,326.398243,23.221536,-1.000000,0.994301,0.005534,0.226204,0.000000,0.000000,0.000000,0.000000,0.000000,0.000000,0.000000,
2356,2263,2.19351867036859,-8.33784670499102,0.00618341968799996,0.000000,0.000000,0.000000,0.000000,0.000000,326.802403,23.238300,-1.000000,0.984990,0.007944,0.360500,0.000000,0.000000,0.000000,0.000000,0.000000,0.000000,0.000000,
2386,2263,2.8470015972002,-8.33567402362919,-0.0108061073224235,0.000000,0.000000,0.000000,0.000000,0.000000,326.675725,23.137613,-1.000000,0.983699,0.008079,0.328997,0.000000,0.000000,0.000000,0.000000,0.000000,0.000000,0.000000,
2026,2278,-5.00091822510274,-8.00867058206511,0.00310603719827895,0.000000,0.000000,0.000000,0.000000,0.000000,327.511005,24.699528,-1.000000,0.983740,0.007852,0.341638,0.000000,0.000000,0.000000,0.000000,0.000000,0.000000,0.000000,
2026,2293,-5.00335050749866,-7.68014292298267,-0.000544504587594474,0.000000,0.000000,0.000000,0.000000,0.000000,327.239237,24.715001,-1.000000,0.983921,0.007822,0.318710,0.000000,0.000000,0.000000,0.000000,0.000000,0.000000,0.000000,
2026,2263,-4.99891862712428,-8.33551328205927,-0.00027036135270464,0.000000,0.000000,0.000000,0.000000,0.000000,327.723585,24.772018,-1.000000,0.983309,0.007812,0.276918,0.000000,0.000000,0.000000,0.000000,0.000000,0.000000,0.000000,
2011,2293,-5.33051578733385,-7.67838607606045,-0.0135233305566089,0.000000,0.000000,0.000000,0.000000,0.000000,327.225015,24.807432,-1.000000,0.986586,0.007377,0.287581,0.000000,0.000000,0.000000,0.000000,0.000000,0.000000,0.000000,
2026,2248,-4.99674742403922,-8.66460120779899,-0.000980755440252778,0.000000,0.000000,0.000000,0.000000,0.000000,327.959342,24.671619,-1.000000,0.987431,0.007236,0.384773,0.000000,0.000000,0.000000,0.000000,0.000000,0.000000,0.000000,
2086,2233,-3.68818240759219,-8.99190405192316,-0.00144848579617474,0.000000,0.000000,0.000000,0.000000,0.000000,327.863040,24.487393,-1.000000,0.985899,0.007198,0.297102,0.000000,0.000000,0.000000,0.000000,0.000000,0.000000,0.000000,
2116,2233,-3.03423637536786,-8.99266064910111,0.0064823858471641,0.000000,0.000000,0.000000,0.000000,0.000000,327.788548,24.373004,-1.000000,0.980948,0.008461,0.271424,0.000000,0.000000,0.000000,0.000000,0.000000,0.000000,0.000000,
2491,2323,5.1287051015605,-7.02273296716594,-0.000626218364061515,0.000000,0.000000,0.000000,0.000000,0.000000,325.982031,22.940655,-1.000000,0.981658,0.008308,0.301745,0.000000,0.000000,0.000000,0.000000,0.000000,0.000000,0.000000,
2506,2323,5.45715187407238,-7.02490551616391,0.00826553712107625,0.000000,0.000000,0.000000,0.000000,0.000000,326.102147,22.767218,-1.000000,0.983679,0.007955,0.416858,0.000000,0.000000,0.000000,0.000000,0.000000,0.000000,0.000000,
2476,2323,4.80146798046249,-7.02386338235372,0.00401647693934137,0.000000,0.000000,0.000000,0.000000,0.000000,325.980738,22.945893,-1.000000,0.979651,0.008887,0.354318,0.000000,0.000000,0.000000,0.000000,0.000000,0.000000,0.000000,
2026,2233,-4.99463660187284,-8.99126037627867,-0.00238588014866536,0.000000,0.000000,0.000000,0.000000,0.000000,328.187971,24.790714,-1.000000,0.986143,0.007634,0.273042,0.000000,0.000000,0.000000,0.000000,0.000000,0.000000,0.000000,
2041,2233,-4.66782566604566,-8.99192646648495,0.00202857397920297,0.000000,0.000000,0.000000,0.000000,0.000000,328.135156,24.711874,-1.000000,0.983785,0.008022,0.281881,0.000000,0.000000,0.000000,0.000000,0.000000,0.000000,0.000000,
2056,2233,-4.3412745090776,-8.99213805002698,0.00150506949091778,0.000000,0.000000,0.000000,0.000000,0.000000,328.045520,24.623610,-1.000000,0.987894,0.007199,0.300422,0.000000,0.000000,0.000000,0.000000,0.000000,0.000000,0.000000,
2326,2263,1.5390432694904,-8.33797665778397,0.00855639297873267,0.000000,0.000000,0.000000,0.000000,0.000000,326.823962,23.376810,-1.000000,0.983408,0.007868,0.354901,0.000000,0.000000,0.000000,0.000000,0.000000,0.000000,0.000000,
2431,2308,3.82229522807785,-7.35208894560706,0.010034326753555,0.000000,0.000000,0.000000,0.000000,0.000000,326.178247,23.152493,-1.000000,0.982969,0.008141,0.269603,0.000000,0.000000,0.000000,0.000000,0.000000,0.000000,0.000000,
2206,2203,-1.06783120442979,-9.64988276659137,0.00675983827909477,0.000000,0.000000,0.000000,0.000000,0.000000,327.956322,23.915352,-1.000000,0.982203,0.008383,0.269543,0.000000,0.000000,0.000000,0.000000,0.000000,0.000000,0.000000,
2236,2203,-0.412961278406424,-9.65308358322028,0.0158311131797859,0.000000,0.000000,0.000000,0.000000,0.000000,327.962171,23.589974,-1.000000,0.989217,0.007028,0.444739,0.000000,0.000000,0.000000,0.000000,0.000000,0.000000,0.000000,
2266,2203,0.240816972282634,-9.65117394295904,0.00759578307832953,0.000000,0.000000,0.000000,0.000000,0.000000,327.839126,23.550232,-1.000000,0.981541,0.008492,0.334936,0.000000,0.000000,0.000000,0.000000,0.000000,0.000000,0.000000,
2296,2203,0.895624012915469,-9.65156103296911,0.0111583265531294,0.000000,0.000000,0.000000,0.000000,0.000000,327.832597,23.424247,-1.000000,0.976206,0.009352,0.310489,0.000000,0.000000,0.000000,0.000000,0.000000,0.000000,0.000000,
2326,2233,1.5445629043912,-8.99482199923353,0.00809545754566443,0.000000,0.000000,0.000000,0.000000,0.000000,327.304422,23.302956,-1.000000,0.975534,0.009620,0.355307,0.000000,0.000000,0.000000,0.000000,0.000000,0.000000,0.000000,
2176,2203,-1.72186289008611,-9.65028464339946,0.00684506781811933,0.000000,0.000000,0.000000,0.000000,0.000000,328.045705,24.007662,-1.000000,0.975911,0.009324,0.326536,0.000000,0.000000,0.000000,0.000000,0.000000,0.000000,0.000000,
2131,2218,-2.70516547196313,-9.32136665913822,0.00469104185748392,0.000000,0.000000,0.000000,0.000000,0.000000,327.951458,24.241265,-1.000000,0.979060,0.008592,0.325070,0.000000,0.000000,0.000000,0.000000,0.000000,0.000000,0.000000,
2461,2308,4.47681882280849,-7.35131119790433,0.00297535139901584,0.000000,0.000000,0.000000,0.000000,0.000000,326.178333,23.027733,-1.000000,0.977041,0.009363,0.274249,0.000000,0.000000,0.000000,0.000000,0.000000,0.000000,0.000000,
2431,2278,3.82728675266216,-8.00921201818284,-0.00197863335768034,0.000000,0.000000,0.000000,0.000000,0.000000,326.563892,22.903104,-1.000000,0.978926,0.009273,0.415095,0.000000,0.000000,0.000000,0.000000,0.000000,0.000000,0.000000,
2146,2203,-2.37611101006771,-9.64917438551304,0.00134614697742563,0.000000,0.000000,0.000000,0.000000,0.000000,328.105345,24.179678,-1.000000,0.979172,0.008679,0.303845,0.000000,0.000000,0.000000,0.000000,0.000000,0.000000,0.000000,
2326,2203,1.55076143048008,-9.65246801360438,0.0166431486426859,0.000000,0.000000,0.000000,0.000000,0.000000,327.859750,23.270958,-1.000000,0.981667,0.008810,0.313217,0.000000,0.000000,0.000000,0.000000,0.000000,0.000000,0.000000,
2416,2263,3.50396722609281,-8.33838641352692,0.0138359180556904,0.000000,0.000000,0.000000,0.000000,0.000000,326.915212,23.014354,-1.000000,0.983513,0.008137,0.317862,0.000000,0.000000,0.000000,0.000000,0.000000,0.000000,0.000000,
2221,2188,-0.737700411829824,-9.97995502690613,0.013409839022529,0.000000,0.000000,0.000000,0.000000,0.000000,328.216142,23.755929,-1.000000,0.982635,0.008237,0.332013,0.000000,0.000000,0.000000,0.000000,0.000000,0.000000,0.000000,
2251,2188,-0.0837844371854075,-9.9781207887284,0.00743376407615415,0.000000,0.000000,0.000000,0.000000,0.000000,328.103294,23.731985,-1.000000,0.989542,0.007061,0.202196,0.000000,0.000000,0.000000,0.000000,0.000000,0.000000,0.000000,
2041,2218,-4.66559776202562,-9.32090830871015,0.00188361942474558,0.000000,0.000000,0.000000,0.000000,0.000000,328.375400,24.637154,-1.000000,0.977520,0.008801,0.361922,0.000000,0.000000,0.000000,0.000000,0.000000,0.000000,0.000000,
2071,2218,-4.01190470716397,-9.32117502792083,0.00886415200056945,0.000000,0.000000,0.000000,0.000000,0.000000,328.266941,24.557474,-1.000000,0.982330,0.007856,0.297382,0.000000,0.000000,0.000000,0.000000,0.000000,0.000000,0.000000,
2011,2233,-5.32102685102928,-8.99155780055649,-0.000527809325376438,0.000000,0.000000,0.000000,0.000000,0.000000,328.297543,24.846306,-1.000000,0.984929,0.007934,0.287123,0.000000,0.000000,0.000000,0.000000,0.000000,0.000000,0.000000,
2011,2248,-5.32300804669054,-8.6646490594755,0.00264599098790086,0.000000,0.000000,0.000000,0.000000,0.000000,328.083473,24.767621,-1.000000,0.984532,0.007838,0.356165,0.000000,0.000000,0.000000,0.000000,0.000000,0.000000,0.000000,
2011,2263,-5.32513401906001,-8.33677112721334,0.00351415617535622,0.000000,0.000000,0.000000,0.000000,0.000000,327.849712,24.758629,-1.000000,0.980785,0.008096,0.355312,0.000000,0.000000,0.000000,0.000000,0.000000,0.000000,0.000000,
2011,2278,-5.32751611214231,-8.00859156695453,0.000107698607621387,0.000000,0.000000,0.000000,0.000000,0.000000,327.580296,24.739035,-1.000000,0.981263,0.008424,0.365335,0.000000,0.000000,0.000000,0.000000,0.000000,0.000000,0.000000,
2011,2218,-5.31878671192976,-9.31995262609028,0.000572063795061695,0.000000,0.000000,0.000000,0.000000,0.000000,328.547687,24.838526,-1.000000,0.987606,0.007376,0.304434,0.000000,0.000000,0.000000,0.000000,0.000000,0.000000,0.000000,
2026,2218,-4.99229089206852,-9.32073065213552,-0.000133076212421201,0.000000,0.000000,0.000000,0.000000,0.000000,328.448283,24.696343,-1.000000,0.981536,0.008422,0.374747,0.000000,0.000000,0.000000,0.000000,0.000000,0.000000,0.000000,
2101,2218,-3.35896753598189,-9.32058701048033,0.0012338874647071,0.000000,0.000000,0.000000,0.000000,0.000000,328.054271,24.404210,-1.000000,0.982638,0.008093,0.306624,0.000000,0.000000,0.000000,0.000000,0.000000,0.000000,0.000000,
2341,2248,1.86836551037205,-8.66531861676686,-0.00176129158870708,0.000000,0.000000,0.000000,0.000000,0.000000,326.976837,23.269332,-1.000000,0.982597,0.008183,0.357576,0.000000,0.000000,0.000000,0.000000,0.000000,0.000000,0.000000,
2371,2248,2.52313491630632,-8.66492918473391,-0.00193169890036415,0.000000,0.000000,0.000000,0.000000,0.000000,326.982241,23.176567,-1.000000,0.983306,0.008711,0.312798,0.000000,0.000000,0.000000,0.000000,0.000000,0.000000,0.000000,
2401,2248,3.17881854763361,-8.66710823668734,0.00698334991699312,0.000000,0.000000,0.000000,0.000000,0.000000,327.082016,22.942186,-1.000000,0.983322,0.008427,0.409291,0.000000,0.000000,0.000000,0.000000,0.000000,0.000000,0.000000,
2491,2308,5.13267245950896,-7.35216715642549,0.00975580689845401,0.000000,0.000000,0.000000,0.000000,0.000000,326.311999,22.891502,-1.000000,0.981198,0.008382,0.289640,0.000000,0.000000,0.000000,0.000000,0.000000,0.000000,0.000000,
2506,2308,5.46062150957197,-7.35314761124394,0.0124421620530484,0.000000,0.000000,0.000000,0.000000,0.000000,326.379864,22.765747,-1.000000,0.981121,0.008580,0.355135,0.000000,0.000000,0.000000,0.000000,0.000000,0.000000,0.000000,
2446,2293,4.15281867946748,-7.68183509782366,0.00970753372280342,0.000000,0.000000,0.000000,0.000000,0.000000,326.446445,22.911480,-1.000000,0.980768,0.008904,0.396301,0.000000,0.000000,0.000000,0.000000,0.000000,0.000000,0.000000,
2191,2188,-1.39206707823088,-9.97899496156192,0.0109367324371874,0.000000,0.000000,0.000000,0.000000,0.000000,328.274806,23.946090,-1.000000,0.977883,0.008981,0.295972,0.000000,0.000000,0.000000,0.000000,0.000000,0.000000,0.000000,
2311,2188,1.22699959844355,-9.98229988796624,0.0283080953715853,0.000000,0.000000,0.000000,0.000000,0.000000,328.206341,23.313546,-1.000000,0.981929,0.008336,0.310516,0.000000,0.000000,0.000000,0.000000,0.000000,0.000000,0.000000,
2341,2188,1.88035926717196,-9.97992414786411,0.00840266008640356,0.000000,0.000000,0.000000,0.000000,0.000000,328.029806,23.192715,-1.000000,0.985775,0.007810,0.277328,0.000000,0.000000,0.000000,0.000000,0.000000,0.000000,0.000000,
2341,2218,1.8750213376293,-9.32376328401119,0.0118635958062896,0.000000,0.000000,0.000000,0.000000,0.000000,327.575066,23.204282,-1.000000,0.982699,0.008445,0.343964,0.000000,0.000000,0.000000,0.000000,0.000000,0.000000,0.000000,
2476,2308,4.80520764468673,-7.35212303175575,0.0122130360327333,0.000000,0.000000,0.000000,0.000000,0.000000,326.291837,22.982879,-1.000000,0.977906,0.009481,0.258483,0.000000,0.000000,0.000000,0.000000,0.000000,0.000000,0.000000,
2281,2188,0.571148066291311,-9.9804480888775,0.0129126603209215,0.000000,0.000000,0.000000,0.000000,0.000000,328.105068,23.448829,-1.000000,0.979628,0.008956,0.330704,0.000000,0.000000,0.000000,0.000000,0.000000,0.000000,0.000000,
2131,2188,-2.69939623324223,-9.97938727034433,0.0194335590373385,0.000000,0.000000,0.000000,0.000000,0.000000,328.556806,24.257102,-1.000000,0.983984,0.008089,0.292020,0.000000,0.000000,0.000000,0.000000,0.000000,0.000000,0.000000,
2161,2188,-2.04668925289387,-9.98135243078886,0.00164186205472561,0.000000,0.000000,0.000000,0.000000,0.000000,328.296086,23.761889,-1.000000,0.911679,0.018163,0.634497,0.000000,0.000000,0.000000,0.000000,0.000000,0.000000,0.000000,
2116,2203,-3.02958775355533,-9.64952947559796,0.00491628203138816,0.000000,0.000000,0.000000,0.000000,0.000000,328.258248,24.312822,-1.000000,0.978227,0.008611,0.319753,0.000000,0.000000,0.000000,0.000000,0.000000,0.000000,0.000000,
2446,2263,4.15921634968746,-8.33793130734971,0.0145472189145721,0.000000,0.000000,0.000000,0.000000,0.000000,326.971622,22.936890,-1.000000,0.979173,0.009084,0.261698,0.000000,0.000000,0.000000,0.000000,0.000000,0.000000,0.000000,
2476,2293,4.8078544621359,-7.68204338689658,0.0070243583102183,0.000000,0.000000,0.000000,0.000000,0.000000,326.492325,22.739624,-1.000000,0.981609,0.008659,0.443255,0.000000,0.000000,0.000000,0.000000,0.000000,0.000000,0.000000,
2236,2173,-0.407970040618917,-10.3082383824967,0.013043168803847,0.000000,0.000000,0.000000,0.000000,0.000000,328.421170,23.691195,-1.000000,0.984105,0.007878,0.295903,0.000000,0.000000,0.000000,0.000000,0.000000,0.000000,0.000000,
2266,2173,0.246248401123808,-10.3088761042066,0.00909223480175569,0.000000,0.000000,0.000000,0.000000,0.000000,328.335218,23.462243,-1.000000,0.985001,0.008220,0.366432,0.000000,0.000000,0.000000,0.000000,0.000000,0.000000,0.000000,
2011,2203,-5.31695555818392,-9.64771039340657,-0.00516334277091346,0.000000,0.000000,0.000000,0.000000,0.000000,328.740826,24.822838,-1.000000,0.992062,0.006559,0.329810,0.000000,0.000000,0.000000,0.000000,0.000000,0.000000,0.000000,
2026,2203,-4.99022529387771,-9.64834308758951,-0.00232313652753646,0.000000,0.000000,0.000000,0.000000,0.000000,328.670734,24.730554,-1.000000,0.985265,0.007852,0.347943,0.000000,0.000000,0.000000,0.000000,0.000000,0.000000,0.000000,
2326,2173,1.5557270821757,-10.3083038228459,0.00901055072961299,0.000000,0.000000,0.000000,0.000000,0.000000,328.279423,23.256200,-1.000000,0.979416,0.008621,0.254093,0.000000,0.000000,0.000000,0.000000,0.000000,0.000000,0.000000,
2356,2173,2.21152000340205,-10.3114076619761,0.0189726400254813,0.000000,0.000000,0.000000,0.000000,0.000000,328.362544,22.949858,-1.000000,0.981986,0.008676,0.400535,0.000000,0.000000,0.000000,0.000000,0.000000,0.000000,0.000000,
2356,2203,2.2047151400142,-9.65151409981215,0.0043970896883252,0.000000,0.000000,0.000000,0.000000,0.000000,327.756139,23.102224,-1.000000,0.983538,0.008160,0.331732,0.000000,0.000000,0.000000,0.000000,0.000000,0.000000,0.000000,
2116,2173,-3.02442149399032,-10.3065932375199,0.0115142837590838,0.000000,0.000000,0.000000,0.000000,0.000000,328.795316,24.341861,-1.000000,0.985102,0.007842,0.278124,0.000000,0.000000,0.000000,0.000000,0.000000,0.000000,0.000000,
2146,2173,-2.36867420694256,-10.3110733121668,0.0400072581830955,0.000000,0.000000,0.000000,0.000000,0.000000,328.910833,24.105529,-1.000000,0.944814,0.015211,0.355324,0.000000,0.000000,0.000000,0.000000,0.000000,0.000000,0.000000,
2431,2248,3.83426033571002,-8.66678142921239,0.0106177609343376,0.000000,0.000000,0.000000,0.000000,0.000000,327.154101,22.882703,-1.000000,0.980266,0.008854,0.330745,0.000000,0.000000,0.000000,0.000000,0.000000,0.000000,0.000000,
2386,2233,2.85518837464727,-8.99515836716182,0.0196858517115288,0.000000,0.000000,0.000000,0.000000,0.000000,327.415194,23.137915,-1.000000,0.983273,0.008804,0.236177,0.000000,0.000000,0.000000,0.000000,0.000000,0.000000,0.000000,
2416,2233,3.50973928795169,-8.99545379629378,0.0122517022346642,0.000000,0.000000,0.000000,0.000000,0.000000,327.386958,22.907199,-1.000000,0.984845,0.008196,0.325024,0.000000,0.000000,0.000000,0.000000,0.000000,0.000000,0.000000,
2356,2233,2.19929297523911,-8.99464207310294,0.0075752451543849,0.000000,0.000000,0.000000,0.000000,0.000000,327.298407,23.187034,-1.000000,0.975993,0.009447,0.329547,0.000000,0.000000,0.000000,0.000000,0.000000,0.000000,0.000000,
2086,2203,-3.68312836728565,-9.64929267554594,0.005180225919446,0.000000,0.000000,0.000000,0.000000,0.000000,328.400728,24.465489,-1.000000,0.982095,0.008098,0.315695,0.000000,0.000000,0.000000,0.000000,0.000000,0.000000,0.000000,
2206,2173,-1.06220778358056,-10.3088105263732,0.0143197554303356,0.000000,0.000000,0.000000,0.000000,0.000000,328.502960,23.781527,-1.000000,0.986722,0.007453,0.364179,0.000000,0.000000,0.000000,0.000000,0.000000,0.000000,0.000000,
2056,2203,-4.3367712363801,-9.64854543611152,0.00127823001372462,0.000000,0.000000,0.000000,0.000000,0.000000,328.525709,24.621262,-1.000000,0.982580,0.008147,0.308797,0.000000,0.000000,0.000000,0.000000,0.000000,0.000000,0.000000,
2296,2173,0.900839088940781,-10.3094963311301,0.00807906075556275,0.000000,0.000000,0.000000,0.000000,0.000000,328.291021,23.266111,-1.000000,0.982898,0.008625,0.403426,0.000000,0.000000,0.000000,0.000000,0.000000,0.000000,0.000000,
2461,2278,4.48373914173859,-8.00946179921329,0.0132227997701762,0.000000,0.000000,0.000000,0.000000,0.000000,326.749868,22.908035,-1.000000,0.980261,0.009025,0.280651,0.000000,0.000000,0.000000,0.000000,0.000000,0.000000,0.000000,
2476,2278,4.8108918573273,-8.00887373062743,0.00689648723135861,0.000000,0.000000,0.000000,0.000000,0.000000,326.733207,22.834749,-1.000000,0.980774,0.008707,0.289320,0.000000,0.000000,0.000000,0.000000,0.000000,0.000000,0.000000,
2491,2278,5.13888623409859,-8.00919086304651,0.0101202693599021,0.000000,0.000000,0.000000,0.000000,0.000000,326.800872,22.775299,-1.000000,0.981910,0.008186,0.283796,0.000000,0.000000,0.000000,0.000000,0.000000,0.000000,0.000000,
2491,2293,5.13563139521409,-7.6813099461082,0.00809727038921437,0.000000,0.000000,0.000000,0.000000,0.000000,326.541492,22.754573,-1.000000,0.982801,0.008059,0.365724,0.000000,0.000000,0.000000,0.000000,0.000000,0.000000,0.000000,
2041,2203,-4.66331417728142,-9.64871790920874,0.00283696208134643,0.000000,0.000000,0.000000,0.000000,0.000000,328.624023,24.686028,-1.000000,0.983765,0.007914,0.317865,0.000000,0.000000,0.000000,0.000000,0.000000,0.000000,0.000000,
2506,2293,5.46334984603932,-7.68074236794179,0.00789659087098471,0.000000,0.000000,0.000000,0.000000,0.000000,326.584544,22.741528,-1.000000,0.979447,0.008795,0.316169,0.000000,0.000000,0.000000,0.000000,0.000000,0.000000,0.000000,
2461,2248,4.48978393131586,-8.66715622768852,0.0128477223889263,0.000000,0.000000,0.000000,0.000000,0.000000,327.232424,22.744663,-1.000000,0.979574,0.008706,0.330663,0.000000,0.000000,0.000000,0.000000,0.000000,0.000000,0.000000,
2101,2188,-3.35397928883028,-9.97803523044878,0.00590050663151942,0.000000,0.000000,0.000000,0.000000,0.000000,328.575643,24.366958,-1.000000,0.983957,0.008023,0.336014,0.000000,0.000000,0.000000,0.000000,0.000000,0.000000,0.000000,
2176,2173,-1.72184524198847,-10.2969028201651,-0.0655783474137479,0.000000,0.000000,0.000000,0.000000,0.000000,327.922599,24.150925,-1.000000,0.923356,0.017131,0.156436,0.000000,0.000000,0.000000,0.000000,0.000000,0.000000,0.000000,
2011,2188,-5.31540418618991,-9.97362315666642,-0.0153932838333617,0.000000,0.000000,0.000000,0.000000,0.000000,328.895710,24.932540,-1.000000,0.991683,0.006719,0.229867,0.000000,0.000000,0.000000,0.000000,0.000000,0.000000,0.000000,
2026,2188,-4.98722640848085,-9.97777036059565,0.0109776026739041,0.000000,0.000000,0.000000,0.000000,0.000000,329.022268,24.767064,-1.000000,0.986727,0.007450,0.317772,0.000000,0.000000,0.000000,0.000000,0.000000,0.000000,0.000000,
2191,2158,-1.38587747343088,-10.6386060612842,0.0277176949639397,0.000000,0.000000,0.000000,0.000000,0.000000,328.897925,23.860464,-1.000000,0.985633,0.007744,0.346753,0.000000,0.000000,0.000000,0.000000,0.000000,0.000000,0.000000,
2221,2158,-0.73239718537673,-10.6372368368161,0.0156911738176859,0.000000,0.000000,0.000000,0.000000,0.000000,328.718040,23.727582,-1.000000,0.984739,0.007947,0.317115,0.000000,0.000000,0.000000,0.000000,0.000000,0.000000,0.000000,
2041,2188,-4.66083755093802,-9.9775776607128,0.00690487690599184,0.000000,0.000000,0.000000,0.000000,0.000000,328.898889,24.677257,-1.000000,0.986212,0.007551,0.331503,0.000000,0.000000,0.000000,0.000000,0.000000,0.000000,0.000000,
2101,2158,-3.34857914485158,-10.6357782179959,0.0171585415830577,0.000000,0.000000,0.000000,0.000000,0.000000,329.151360,24.395462,-1.000000,0.982907,0.008333,0.299065,0.000000,0.000000,0.000000,0.000000,0.000000,0.000000,0.000000,
2131,2158,-2.69390057889195,-10.63728211529,0.0301001590523811,0.000000,0.000000,0.000000,0.000000,0.000000,329.127887,24.266203,-1.000000,0.991312,0.006926,0.265574,0.000000,0.000000,0.000000,0.000000,0.000000,0.000000,0.000000,
2251,2158,-0.0774569200158304,-10.6383563699393,0.0220954904033874,0.000000,0.000000,0.000000,0.000000,0.000000,328.709630,23.564287,-1.000000,0.981876,0.008048,0.317114,0.000000,0.000000,0.000000,0.000000,0.000000,0.000000,0.000000,
2281,2158,0.576757972210412,-10.6377097251479,0.0161412256230165,0.000000,0.000000,0.000000,0.000000,0.000000,328.615192,23.430520,-1.000000,0.983588,0.008592,0.288007,0.000000,0.000000,0.000000,0.000000,0.000000,0.000000,0.000000,
2401,2218,3.18546722918484,-9.32374417544951,0.0172851074165692,0.000000,0.000000,0.000000,0.000000,0.000000,327.652061,23.007718,-1.000000,0.982598,0.008757,0.247540,0.000000,0.000000,0.000000,0.000000,0.000000,0.000000,0.000000,
2431,2218,3.84161294768422,-9.32678002087918,0.0276702720743174,0.000000,0.000000,0.000000,0.000000,0.000000,327.782228,22.710966,-1.000000,0.985519,0.008036,0.396927,0.000000,0.000000,0.000000,0.000000,0.000000,0.000000,0.000000,
2086,2173,-3.67826494492978,-10.3063124769548,0.00894800734357659,0.000000,0.000000,0.000000,0.000000,0.000000,328.914130,24.469801,-1.000000,0.984443,0.007761,0.307767,0.000000,0.000000,0.000000,0.000000,0.000000,0.000000,0.000000,
2371,2188,2.53584447038152,-9.98116176541464,0.0141342316417763,0.000000,0.000000,0.000000,0.000000,0.000000,328.085466,23.011950,-1.000000,0.982222,0.008400,0.302655,0.000000,0.000000,0.000000,0.000000,0.000000,0.000000,0.000000,
2371,2218,2.5302126969746,-9.32392665294004,0.0153346656080089,0.000000,0.000000,0.000000,0.000000,0.000000,327.611221,23.098076,-1.000000,0.976483,0.009542,0.303514,0.000000,0.000000,0.000000,0.000000,0.000000,0.000000,0.000000,
2311,2158,1.2320549348191,-10.6394359622135,0.0224521861562152,0.000000,0.000000,0.000000,0.000000,0.000000,328.641174,23.211145,-1.000000,0.986210,0.008015,0.343357,0.000000,0.000000,0.000000,0.000000,0.000000,0.000000,0.000000,
2506,2278,5.46641589613352,-8.00962932786666,0.00721449638621152,0.000000,0.000000,0.000000,0.000000,0.000000,326.821987,22.642680,-1.000000,0.977851,0.008849,0.351859,0.000000,0.000000,0.000000,0.000000,0.000000,0.000000,0.000000,
2071,2188,-4.00758641164915,-9.97812154469123,0.00473578135728303,0.000000,0.000000,0.000000,0.000000,0.000000,328.715005,24.475801,-1.000000,0.985298,0.007849,0.380134,0.000000,0.000000,0.000000,0.000000,0.000000,0.000000,0.000000,
2341,2158,1.88560576125547,-10.6390879868604,0.00342108300407062,0.000000,0.000000,0.000000,0.000000,0.000000,328.473188,22.910889,-1.000000,0.985108,0.008073,0.480520,0.000000,0.000000,0.000000,0.000000,0.000000,0.000000,0.000000,
2371,2158,2.54194558960597,-10.6389854628914,0.0189731024279922,0.000000,0.000000,0.000000,0.000000,0.000000,328.609818,22.957334,-1.000000,0.982124,0.008850,0.269424,0.000000,0.000000,0.000000,0.000000,0.000000,0.000000,0.000000,
2476,2263,4.81486663931978,-8.33955641689617,0.0176714997818408,0.000000,0.000000,0.000000,0.000000,0.000000,327.066748,22.693726,-1.000000,0.980275,0.008504,0.370996,0.000000,0.000000,0.000000,0.000000,0.000000,0.000000,0.000000,
2491,2263,5.1417000648714,-8.33798597084415,0.00676217755113839,0.000000,0.000000,0.000000,0.000000,0.000000,327.015872,22.662988,-1.000000,0.979486,0.008508,0.335226,0.000000,0.000000,0.000000,0.000000,0.000000,0.000000,0.000000,
2506,2263,5.46960933917813,-8.33806212458352,0.00809343630095327,0.000000,0.000000,0.000000,0.000000,0.000000,327.072095,22.606379,-1.000000,0.976245,0.009358,0.324958,0.000000,0.000000,0.000000,0.000000,0.000000,0.000000,0.000000,
2446,2233,4.16541557443494,-8.99625187969129,0.0167081199899144,0.000000,0.000000,0.000000,0.000000,0.000000,327.475335,22.753321,-1.000000,0.979634,0.008911,0.336400,0.000000,0.000000,0.000000,0.000000,0.000000,0.000000,0.000000,
2476,2233,4.82093013660481,-8.99630481430422,0.0169453295479798,0.000000,0.000000,0.000000,0.000000,0.000000,327.545785,22.624000,-1.000000,0.982601,0.008715,0.322958,0.000000,0.000000,0.000000,0.000000,0.000000,0.000000,0.000000,
2476,2248,4.81802855497677,-8.66906107245334,0.0187528326122788,0.000000,0.000000,0.000000,0.000000,0.000000,327.318926,22.567726,-1.000000,0.982836,0.008392,0.438241,0.000000,0.000000,0.000000,0.000000,0.000000,0.000000,0.000000,
2161,2158,-2.04426507510982,-10.6287838849936,-0.0346161287928908,0.000000,0.000000,0.000000,0.000000,0.000000,328.473015,24.221704,-1.000000,0.944729,0.015861,0.150641,0.000000,0.000000,0.000000,0.000000,0.000000,0.000000,0.000000,
2011,2173,-5.31185598147733,-10.3053118576544,0.00768596978423375,0.000000,0.000000,0.000000,0.000000,0.000000,329.329197,24.871964,-1.000000,0.985654,0.007874,0.298640,0.000000,0.000000,0.000000,0.000000,0.000000,0.000000,0.000000,
2026,2173,-4.98486065543691,-10.3060694469707,0.0138285690160274,0.000000,0.000000,0.000000,0.000000,0.000000,329.286604,24.802979,-1.000000,0.988410,0.006934,0.288842,0.000000,0.000000,0.000000,0.000000,0.000000,0.000000,0.000000,
2116,2143,-3.01974519201024,-10.9640298672151,0.0105590908937643,0.000000,0.000000,0.000000,0.000000,0.000000,329.269638,24.278903,-1.000000,0.977765,0.009292,0.328609,0.000000,0.000000,0.000000,0.000000,0.000000,0.000000,0.000000,
2146,2143,-2.36566968043449,-10.9651674589983,0.0122750665731246,0.000000,0.000000,0.000000,0.000000,0.000000,329.161726,24.063058,-1.000000,0.981759,0.008761,0.377648,0.000000,0.000000,0.000000,0.000000,0.000000,0.000000,0.000000,
2041,2173,-4.65856751128616,-10.3059291450207,0.00764981013332999,0.000000,0.000000,0.000000,0.000000,0.000000,329.145880,24.685501,-1.000000,0.988650,0.007001,0.328023,0.000000,0.000000,0.000000,0.000000,0.000000,0.000000,0.000000,
2056,2173,-4.33230133094622,-10.3050828373808,0.000641510065293005,0.000000,0.000000,0.000000,0.000000,0.000000,329.002203,24.623631,-1.000000,0.988808,0.006931,0.311800,0.000000,0.000000,0.000000,0.000000,0.000000,0.000000,0.000000,
2296,2143,0.906717541099244,-10.9650790589094,0.0143763364833376,0.000000,0.000000,0.000000,0.000000,0.000000,328.825635,23.443718,-1.000000,0.982954,0.008540,0.160149,0.000000,0.000000,0.000000,0.000000,0.000000,0.000000,0.000000,
2326,2143,1.56173458978911,-10.9671189886168,0.0149714592438386,0.000000,0.000000,0.000000,0.000000,0.000000,328.813155,23.134483,-1.000000,0.984666,0.008307,0.301188,0.000000,0.000000,0.000000,0.000000,0.000000,0.000000,0.000000,
2176,2143,-1.71147698650054,-10.9650281990711,0.0134143562831355,0.000000,0.000000,0.000000,0.000000,0.000000,329.065674,23.957624,-1.000000,0.980316,0.008614,0.316254,0.000000,0.000000,0.000000,0.000000,0.000000,0.000000,0.000000,
2206,2143,-1.05702354724612,-10.9652044089413,0.0158888546753246,0.000000,0.000000,0.000000,0.000000,0.000000,328.998201,23.837931,-1.000000,0.984358,0.007976,0.268756,0.000000,0.000000,0.000000,0.000000,0.000000,0.000000,0.000000,
2416,2203,3.51598727606499,-9.65406742035134,0.0164873090608353,0.000000,0.000000,0.000000,0.000000,0.000000,327.907546,22.740130,-1.000000,0.982821,0.008489,0.391383,0.000000,0.000000,0.000000,0.000000,0.000000,0.000000,0.000000,
2446,2203,4.17128470029046,-9.65370886245763,0.0149120961783638,0.000000,0.000000,0.000000,0.000000,0.000000,327.945344,22.628847,-1.000000,0.985685,0.008032,0.351445,0.000000,0.000000,0.000000,0.000000,0.000000,0.000000,0.000000,
2356,2143,2.21692517475224,-10.9676058610378,0.0157326192478422,0.000000,0.000000,0.000000,0.000000,0.000000,328.818685,22.968923,-1.000000,0.979186,0.008920,0.298334,0.000000,0.000000,0.000000,0.000000,0.000000,0.000000,0.000000,
2236,2143,-0.402364926563411,-10.966557647221,0.0186859546125788,0.000000,0.000000,0.000000,0.000000,0.000000,328.951400,23.614513,-1.000000,0.980430,0.008475,0.324544,0.000000,0.000000,0.000000,0.000000,0.000000,0.000000,0.000000,
2071,2158,-4.00260794463721,-10.635078050008,0.0114187217425297,0.000000,0.000000,0.000000,0.000000,0.000000,329.252215,24.528326,-1.000000,0.984476,0.008014,0.328381,0.000000,0.000000,0.000000,0.000000,0.000000,0.000000,0.000000,
2266,2143,0.25189423308959,-10.964196449296,0.013927500477962,0.000000,0.000000,0.000000,0.000000,0.000000,328.857372,23.649054,-1.000000,0.984835,0.008280,0.122640,0.000000,0.000000,0.000000,0.000000,0.000000,0.000000,0.000000,
2086,2143,-3.67370322132284,-10.9640697119617,0.00794694851009581,0.000000,0.000000,0.000000,0.000000,0.000000,329.388063,24.377970,-1.000000,0.984821,0.007819,0.396098,0.000000,0.000000,0.000000,0.000000,0.000000,0.000000,0.000000,
2491,2233,5.14765288850652,-8.99492593118958,0.00401256511560177,0.000000,0.000000,0.000000,0.000000,0.000000,327.478288,22.553025,-1.000000,0.981082,0.009016,0.322966,0.000000,0.000000,0.000000,0.000000,0.000000,0.000000,0.000000,
2491,2248,5.14440419763358,-8.66674089007597,0.00209391121251201,0.000000,0.000000,0.000000,0.000000,0.000000,327.219874,22.545641,-1.000000,0.981805,0.008657,0.391676,0.000000,0.000000,0.000000,0.000000,0.000000,0.000000,0.000000,
2461,2218,4.49483606674945,-9.32362094898389,0.000506384985669683,0.000000,0.000000,0.000000,0.000000,0.000000,327.614490,22.590042,-1.000000,0.986089,0.008187,0.372005,0.000000,0.000000,0.000000,0.000000,0.000000,0.000000,0.000000,
2476,2218,4.82377604174374,-9.32401170300633,0.0144147320002617,0.000000,0.000000,0.000000,0.000000,0.000000,327.766799,22.635353,-1.000000,0.979923,0.009201,0.252723,0.000000,0.000000,0.000000,0.000000,0.000000,0.000000,0.000000,
2491,2218,5.15121776044981,-9.32341141081523,0.00968577131442316,0.000000,0.000000,0.000000,0.000000,0.000000,327.767999,22.577472,-1.000000,0.980792,0.008867,0.237092,0.000000,0.000000,0.000000,0.000000,0.000000,0.000000,0.000000,
2386,2203,2.85973534066609,-9.65119805183009,0.00399083299566882,0.000000,0.000000,0.000000,0.000000,0.000000,327.768640,22.999158,-1.000000,0.979662,0.008701,0.283994,0.000000,0.000000,0.000000,0.000000,0.000000,0.000000,0.000000,
2386,2173,2.86586965185221,-10.3103989103585,0.00828710098102192,0.000000,0.000000,0.000000,0.000000,0.000000,328.289519,22.800281,-1.000000,0.982931,0.008603,0.390790,0.000000,0.000000,0.000000,0.000000,0.000000,0.000000,0.000000,
2386,2143,2.87181317704112,-10.9677792542546,0.0103847930682832,0.000000,0.000000,0.000000,0.000000,0.000000,328.790801,22.766540,-1.000000,0.974645,0.009613,0.332516,0.000000,0.000000,0.000000,0.000000,0.000000,0.000000,0.000000,
2506,2248,5.47343891112019,-8.66828573175822,0.0163187480371789,0.000000,0.000000,0.000000,0.000000,0.000000,327.384189,22.486982,-1.000000,0.980549,0.008900,0.380604,0.000000,0.000000,0.000000,0.000000,0.000000,0.000000,0.000000,
2041,2158,-4.65692386866033,-10.6323341610715,-0.00171110664530261,0.000000,0.000000,0.000000,0.000000,0.000000,329.308110,24.768911,-1.000000,0.986938,0.007585,0.250024,0.000000,0.000000,0.000000,0.000000,0.000000,0.000000,0.000000,
2026,2158,-4.98298284771056,-10.6331674154369,0.00867601433230902,0.000000,0.000000,0.000000,0.000000,0.000000,329.483982,24.868803,-1.000000,0.986421,0.007511,0.230329,0.000000,0.000000,0.000000,0.000000,0.000000,0.000000,0.000000,
2011,2158,-5.30997435071745,-10.6322355441001,0.00304102148459151,0.000000,0.000000,0.000000,0.000000,0.000000,329.530646,24.958972,-1.000000,0.979731,0.008900,0.220962,0.000000,0.000000,0.000000,0.000000,0.000000,0.000000,0.000000,
2476,2203,4.82699447468486,-9.65361889867737,0.0161718139690947,0.000000,0.000000,0.000000,0.000000,0.000000,328.024386,22.522768,-1.000000,0.969598,0.010426,0.305937,0.000000,0.000000,0.000000,0.000000,0.000000,0.000000,0.000000,
2431,2188,3.84785410798026,-9.98310659357939,0.0313399943663626,0.000000,0.000000,0.000000,0.000000,0.000000,328.296773,22.759627,-1.000000,0.988180,0.007350,0.243055,0.000000,0.000000,0.000000,0.000000,0.000000,0.000000,0.000000,
2461,2188,4.50060477003495,-9.98039848337997,-0.00311571741821126,0.000000,0.000000,0.000000,0.000000,0.000000,328.068906,22.516244,-1.000000,0.988007,0.007703,0.332183,0.000000,0.000000,0.000000,0.000000,0.000000,0.000000,0.000000,
2251,2128,-0.0726174174821814,-11.2953491549867,0.0162896657618035,0.000000,0.000000,0.000000,0.000000,0.000000,329.144133,23.496835,-1.000000,0.980003,0.008666,0.332439,0.000000,0.000000,0.000000,0.000000,0.000000,0.000000,0.000000,
2281,2128,0.582644580502166,-11.2966845148864,0.0230365644539461,0.000000,0.000000,0.000000,0.000000,0.000000,329.156261,23.317712,-1.000000,0.978974,0.008615,0.339123,0.000000,0.000000,0.000000,0.000000,0.000000,0.000000,0.000000,
2071,2128,-3.99802486896724,-11.2912785479235,0.011952042475059,0.000000,0.000000,0.000000,0.000000,0.000000,329.737727,24.606468,-1.000000,0.984481,0.007977,0.250637,0.000000,0.000000,0.000000,0.000000,0.000000,0.000000,0.000000,
2101,2128,-3.34364072939773,-11.2938594255809,0.0212253154643918,0.000000,0.000000,0.000000,0.000000,0.000000,329.667305,24.339933,-1.000000,0.986990,0.007596,0.346150,0.000000,0.000000,0.000000,0.000000,0.000000,0.000000,0.000000,
2311,2128,1.23763316901211,-11.2959335146199,0.0237773066184559,0.000000,0.000000,0.000000,0.000000,0.000000,329.134905,23.264256,-1.000000,0.983877,0.008159,0.220251,0.000000,0.000000,0.000000,0.000000,0.000000,0.000000,0.000000,
2341,2128,1.89228349739743,-11.2967533580147,0.0175651642219918,0.000000,0.000000,0.000000,0.000000,0.000000,329.074132,22.992545,-1.000000,0.986912,0.007677,0.319476,0.000000,0.000000,0.000000,0.000000,0.000000,0.000000,0.000000,
2056,2143,-4.32733828993592,-10.9633433125934,0.00801809971454759,0.000000,0.000000,0.000000,0.000000,0.000000,329.545560,24.575828,-1.000000,0.983801,0.008274,0.364153,0.000000,0.000000,0.000000,0.000000,0.000000,0.000000,0.000000,
2191,2128,-1.38158076389925,-11.2946136978982,0.0172006206211677,0.000000,0.000000,0.000000,0.000000,0.000000,329.292514,23.834729,-1.000000,0.981271,0.008429,0.338279,0.000000,0.000000,0.000000,0.000000,0.000000,0.000000,0.000000,
2221,2128,-0.726850533050868,-11.295434036778,0.0214462972562615,0.000000,0.000000,0.000000,0.000000,0.000000,329.248842,23.675175,-1.000000,0.980178,0.008570,0.325736,0.000000,0.000000,0.000000,0.000000,0.000000,0.000000,0.000000,
2401,2158,3.19753384842447,-10.6405258901955,0.0219565001855244,0.000000,0.000000,0.000000,0.000000,0.000000,328.660500,22.719822,-1.000000,0.979351,0.008863,0.342582,0.000000,0.000000,0.000000,0.000000,0.000000,0.000000,0.000000,
2401,2188,3.19153045458404,-9.9821860019469,0.0199823179733585,0.000000,0.000000,0.000000,0.000000,0.000000,328.159491,22.851988,-1.000000,0.984033,0.008126,0.306769,0.000000,0.000000,0.000000,0.000000,0.000000,0.000000,0.000000,
2506,2233,5.47687772498267,-8.99601428077395,0.0201891057937473,0.000000,0.000000,0.000000,0.000000,0.000000,327.658626,22.557166,-1.000000,0.979793,0.008894,0.246694,0.000000,0.000000,0.000000,0.000000,0.000000,0.000000,0.000000,
2131,2128,-2.69050816125841,-11.2925931994217,0.00881240872996614,0.000000,0.000000,0.000000,0.000000,0.000000,329.432589,24.190177,-1.000000,0.981544,0.008363,0.325728,0.000000,0.000000,0.000000,0.000000,0.000000,0.000000,0.000000,
2161,2128,-2.03632670371734,-11.2933535376597,0.0101076885393923,0.000000,0.000000,0.000000,0.000000,0.000000,329.329735,24.003846,-1.000000,0.981453,0.008782,0.340603,0.000000,0.000000,0.000000,0.000000,0.000000,0.000000,0.000000,
2506,2218,5.47965368126766,-9.32566204704903,0.0159742018910265,0.000000,0.000000,0.000000,0.000000,0.000000,327.866732,22.373521,-1.000000,0.975649,0.009737,0.366976,0.000000,0.000000,0.000000,0.000000,0.000000,0.000000,0.000000,
2491,2203,5.15485967372468,-9.65388931474442,0.0160540121995609,0.000000,0.000000,0.000000,0.000000,0.000000,328.064443,22.433099,-1.000000,0.972182,0.009918,0.319858,0.000000,0.000000,0.000000,0.000000,0.000000,0.000000,0.000000,
2506,2203,5.48318703799274,-9.6549384459873,0.0207899624818992,0.000000,0.000000,0.000000,0.000000,0.000000,328.149670,22.323076,-1.000000,0.973989,0.010044,0.353443,0.000000,0.000000,0.000000,0.000000,0.000000,0.000000,0.000000,
2371,2128,2.54734968516701,-11.2973034786637,0.0147663700286671,0.000000,0.000000,0.000000,0.000000,0.000000,329.058976,22.782506,-1.000000,0.981867,0.008624,0.356566,0.000000,0.000000,0.000000,0.000000,0.000000,0.000000,0.000000,
2401,2128,3.20399790636495,-11.2981361341004,0.0298917354297146,0.000000,0.000000,0.000000,0.000000,0.000000,329.210251,22.740620,-1.000000,0.980250,0.008936,0.224555,0.000000,0.000000,0.000000,0.000000,0.000000,0.000000,0.000000,
2416,2173,3.52092435899353,-10.3100017445909,0.00458933543654894,0.000000,0.000000,0.000000,0.000000,0.000000,328.292310,22.669056,-1.000000,0.980694,0.008300,0.362470,0.000000,0.000000,0.000000,0.000000,0.000000,0.000000,0.000000,
2446,2173,4.17787716767821,-10.3111864012838,0.0220424548992355,0.000000,0.000000,0.000000,0.000000,0.000000,328.489200,22.617756,-1.000000,0.985310,0.007872,0.252704,0.000000,0.000000,0.000000,0.000000,0.000000,0.000000,0.000000,
2476,2173,4.83324593638392,-10.311329718183,0.0176220029844671,0.000000,0.000000,0.000000,0.000000,0.000000,328.521339,22.429744,-1.000000,0.964922,0.010933,0.280378,0.000000,0.000000,0.000000,0.000000,0.000000,0.000000,0.000000,
2476,2188,4.83056931763774,-9.98267594130872,0.0223036284324394,0.000000,0.000000,0.000000,0.000000,0.000000,328.317961,22.512104,-1.000000,0.968225,0.010887,0.257116,0.000000,0.000000,0.000000,0.000000,0.000000,0.000000,0.000000,
2086,2113,-3.66892616408401,-11.6200327726808,0.0107469191785867,0.000000,0.000000,0.000000,0.000000,0.000000,329.892121,24.511993,-1.000000,0.983674,0.008005,0.257959,0.000000,0.000000,0.000000,0.000000,0.000000,0.000000,0.000000,
2116,2113,-3.01471831708068,-11.6220587535052,0.0151193151256166,0.000000,0.000000,0.000000,0.000000,0.000000,329.789568,24.242967,-1.000000,0.985411,0.007790,0.351621,0.000000,0.000000,0.000000,0.000000,0.000000,0.000000,0.000000,
2026,2143,-4.98055935414449,-10.9638532478725,0.0122875770706514,0.000000,0.000000,0.000000,0.000000,0.000000,329.755691,24.706192,-1.000000,0.978401,0.009009,0.399669,0.000000,0.000000,0.000000,0.000000,0.000000,0.000000,0.000000,
2041,2143,-4.65341551787479,-10.9643146227755,0.0191976979764945,0.000000,0.000000,0.000000,0.000000,0.000000,329.723689,24.672662,-1.000000,0.981464,0.008666,0.349844,0.000000,0.000000,0.000000,0.000000,0.000000,0.000000,0.000000,
2326,2113,1.5677574902884,-11.6262085310811,0.0211517433081667,0.000000,0.000000,0.000000,0.000000,0.000000,329.348469,23.013239,-1.000000,0.982104,0.008766,0.347519,0.000000,0.000000,0.000000,0.000000,0.000000,0.000000,0.000000,
2356,2113,2.22243641793632,-11.6247785145446,0.0138050888162979,0.000000,0.000000,0.000000,0.000000,0.000000,329.285896,22.933756,-1.000000,0.981873,0.008624,0.250147,0.000000,0.000000,0.000000,0.000000,0.000000,0.000000,0.000000,
2011,2143,-5.30768390883465,-10.9619309827053,0.00505499491242745,0.000000,0.000000,0.000000,0.000000,0.000000,329.788563,24.869421,-1.000000,0.979697,0.008753,0.319716,0.000000,0.000000,0.000000,0.000000,0.000000,0.000000,0.000000,
2056,2113,-4.32274123795769,-11.6205874682026,0.00968087528644901,0.000000,0.000000,0.000000,0.000000,0.000000,330.040694,24.582005,-1.000000,0.982662,0.008387,0.363021,0.000000,0.000000,0.000000,0.000000,0.000000,0.000000,0.000000,
2296,2113,0.911986598167974,-11.6247022379826,0.0119435824177572,0.000000,0.000000,0.000000,0.000000,0.000000,329.289604,23.180825,-1.000000,0.980656,0.008727,0.357161,0.000000,0.000000,0.000000,0.000000,0.000000,0.000000,0.000000,
2041,2128,-4.65141547985498,-11.2921310824824,0.0156530260135241,0.000000,0.000000,0.000000,0.000000,0.000000,329.934610,24.700317,-1.000000,0.978551,0.009364,0.327054,0.000000,0.000000,0.000000,0.000000,0.000000,0.000000,0.000000,
2386,2113,2.87793591023683,-11.626069153635,0.0147027604195955,0.000000,0.000000,0.000000,0.000000,0.000000,329.310633,22.695909,-1.000000,0.971431,0.010146,0.310377,0.000000,0.000000,0.000000,0.000000,0.000000,0.000000,0.000000,
2146,2113,-2.35974508797267,-11.6237946489217,0.0285472817144523,0.000000,0.000000,0.000000,0.000000,0.000000,329.779148,24.098950,-1.000000,0.984337,0.008202,0.319429,0.000000,0.000000,0.000000,0.000000,0.000000,0.000000,0.000000,
2176,2113,-1.7065964758873,-11.6226395011896,0.0121751783940454,0.000000,0.000000,0.000000,0.000000,0.000000,329.537744,23.894933,-1.000000,0.980172,0.008916,0.348651,0.000000,0.000000,0.000000,0.000000,0.000000,0.000000,0.000000,
2206,2113,-1.05181956455234,-11.6239712978659,0.0175459617234424,0.000000,0.000000,0.000000,0.000000,0.000000,329.495064,23.700660,-1.000000,0.983331,0.007917,0.366674,0.000000,0.000000,0.000000,0.000000,0.000000,0.000000,0.000000,
2416,2113,3.53480059283986,-11.6287006850932,0.0303381117585673,0.000000,0.000000,0.000000,0.000000,0.000000,329.475937,22.496221,-1.000000,0.978551,0.009489,0.331634,0.000000,0.000000,0.000000,0.000000,0.000000,0.000000,0.000000,
2416,2143,3.52740692065714,-10.9683799225372,0.0118435735789149,0.000000,0.000000,0.000000,0.000000,0.000000,328.837140,22.598416,-1.000000,0.981760,0.008431,0.331633,0.000000,0.000000,0.000000,0.000000,0.000000,0.000000,0.000000,
2236,2113,-0.396865648861247,-11.6255163938189,0.0228222876356767,0.000000,0.000000,0.000000,0.000000,0.000000,329.469100,23.486127,-1.000000,0.981807,0.008693,0.404739,0.000000,0.000000,0.000000,0.000000,0.000000,0.000000,0.000000,
2266,2113,0.257973276655644,-11.6245540960974,0.0242542963172241,0.000000,0.000000,0.000000,0.000000,0.000000,329.427332,23.458699,-1.000000,0.981612,0.008548,0.255515,0.000000,0.000000,0.000000,0.000000,0.000000,0.000000,0.000000,
2491,2188,5.15811475057341,-9.98271278961274,0.0179793230612404,0.000000,0.000000,0.000000,0.000000,0.000000,328.322969,22.399324,-1.000000,0.971004,0.010135,0.292167,0.000000,0.000000,0.000000,0.000000,0.000000,0.000000,0.000000,
2506,2188,5.48606483166829,-9.98299347352771,0.0179657257885424,0.000000,0.000000,0.000000,0.000000,0.000000,328.368333,22.309705,-1.000000,0.975419,0.009721,0.303446,0.000000,0.000000,0.000000,0.000000,0.000000,0.000000,0.000000,
2101,2098,-3.33908310667832,-11.94808450995,0.0199005268100336,0.000000,0.000000,0.000000,0.000000,0.000000,330.136193,24.599388,-1.000000,0.957411,0.014217,0.078062,0.000000,0.000000,0.000000,0.000000,0.000000,0.000000,0.000000,
2131,2098,-2.68592599853718,-11.9487610241435,0.00586476957101922,0.000000,0.000000,0.000000,0.000000,0.000000,329.889289,24.251991,-1.000000,0.983350,0.008036,0.246413,0.000000,0.000000,0.000000,0.000000,0.000000,0.000000,0.000000,
2431,2158,3.85362086173663,-10.6421905833317,0.0288025556442904,0.000000,0.000000,0.000000,0.000000,0.000000,328.760854,22.512310,-1.000000,0.980033,0.009137,0.385198,0.000000,0.000000,0.000000,0.000000,0.000000,0.000000,0.000000,
2461,2158,4.50805463416341,-10.6398920457579,0.0134787801561629,0.000000,0.000000,0.000000,0.000000,0.000000,328.692437,22.430288,-1.000000,0.975908,0.009506,0.303206,0.000000,0.000000,0.000000,0.000000,0.000000,0.000000,0.000000,
2161,2098,-2.03045672475437,-11.952098849535,0.0245333400100094,0.000000,0.000000,0.000000,0.000000,0.000000,329.931851,24.019799,-1.000000,0.984555,0.008361,0.297837,0.000000,0.000000,0.000000,0.000000,0.000000,0.000000,0.000000,
2071,2098,-3.99268418487955,-11.9496109569122,0.0246206926880745,0.000000,0.000000,0.000000,0.000000,0.000000,330.324389,24.644506,-1.000000,0.977847,0.008897,0.212248,0.000000,0.000000,0.000000,0.000000,0.000000,0.000000,0.000000,
2191,2098,-1.37784308709308,-11.9512480460533,-0.00152280102696523,0.000000,0.000000,0.000000,0.000000,0.000000,329.619145,23.680569,-1.000000,0.986177,0.008117,0.457999,0.000000,0.000000,0.000000,0.000000,0.000000,0.000000,0.000000,
2221,2098,-0.721872287796625,-11.9525168252018,0.0192506208958321,0.000000,0.000000,0.000000,0.000000,0.000000,329.712784,23.660488,-1.000000,0.979968,0.008904,0.296492,0.000000,0.000000,0.000000,0.000000,0.000000,0.000000,0.000000,
2041,2098,-4.6464905692189,-11.9499313817865,0.0237513453100746,0.000000,0.000000,0.000000,0.000000,0.000000,330.482953,24.738692,-1.000000,0.981643,0.008396,0.297545,0.000000,0.000000,0.000000,0.000000,0.000000,0.000000,0.000000,
2041,2113,-4.64877094777394,-11.6214306174378,0.0226510307736021,0.000000,0.000000,0.000000,0.000000,0.000000,330.233437,24.712169,-1.000000,0.981343,0.008628,0.319387,0.000000,0.000000,0.000000,0.000000,0.000000,0.000000,0.000000,
2311,2098,1.24257918368792,-11.953806802368,0.0164658809775915,0.000000,0.000000,0.000000,0.000000,0.000000,329.557378,23.119139,-1.000000,0.981709,0.008930,0.294905,0.000000,0.000000,0.000000,0.000000,0.000000,0.000000,0.000000,
2341,2098,1.89774443135105,-11.9542871577749,0.0157010337214274,0.000000,0.000000,0.000000,0.000000,0.000000,329.541792,22.936379,-1.000000,0.983095,0.008445,0.296324,0.000000,0.000000,0.000000,0.000000,0.000000,0.000000,0.000000,
2371,2098,2.55294178755888,-11.9547464640749,0.0131351248138571,0.000000,0.000000,0.000000,0.000000,0.000000,329.528703,22.736069,-1.000000,0.977997,0.009314,0.314812,0.000000,0.000000,0.000000,0.000000,0.000000,0.000000,0.000000,
2251,2098,-0.0673581039223485,-11.9525405040271,0.0164409590674381,0.000000,0.000000,0.000000,0.000000,0.000000,329.627778,23.496259,-1.000000,0.981045,0.009029,0.280241,0.000000,0.000000,0.000000,0.000000,0.000000,0.000000,0.000000,
2431,2128,3.85989277344411,-11.2998952041362,0.032733652154036,0.000000,0.000000,0.000000,0.000000,0.000000,329.277579,22.481586,-1.000000,0.980662,0.009924,0.310022,0.000000,0.000000,0.000000,0.000000,0.000000,0.000000,0.000000,
2281,2098,0.587439810099177,-11.9530799968013,0.0152838919615306,0.000000,0.000000,0.000000,0.000000,0.000000,329.574125,23.303322,-1.000000,0.979047,0.008886,0.292252,0.000000,0.000000,0.000000,0.000000,0.000000,0.000000,0.000000,
2026,2128,-4.97851439970639,-11.2912158177769,0.00999432617931006,0.000000,0.000000,0.000000,0.000000,0.000000,329.976681,24.788540,-1.000000,0.978922,0.009246,0.324373,0.000000,0.000000,0.000000,0.000000,0.000000,0.000000,0.000000,
2011,2128,-5.30522492208687,-11.2902047316983,0.0101555526489392,0.000000,0.000000,0.000000,0.000000,0.000000,330.071151,24.948317,-1.000000,0.980322,0.008901,0.249499,0.000000,0.000000,0.000000,0.000000,0.000000,0.000000,0.000000,
2401,2098,3.20886147592288,-11.9555819079315,0.0175628625269724,0.000000,0.000000,0.000000,0.000000,0.000000,329.591330,22.578246,-1.000000,0.973638,0.010348,0.290401,0.000000,0.000000,0.000000,0.000000,0.000000,0.000000,0.000000,
2431,2098,3.86446883146279,-11.9551312927347,0.0158763568369409,0.000000,0.000000,0.000000,0.000000,0.000000,329.620032,22.471105,-1.000000,0.981050,0.009633,0.215267,0.000000,0.000000,0.000000,0.000000,0.000000,0.000000,0.000000,
2026,2113,-4.9761074448799,-11.6203003087046,0.0136086938727544,0.000000,0.000000,0.000000,0.000000,0.000000,330.247361,24.783172,-1.000000,0.979259,0.008966,0.336287,0.000000,0.000000,0.000000,0.000000,0.000000,0.000000,0.000000,
2491,2173,5.16230229018537,-10.3141651025171,0.0307696391001855,0.000000,0.000000,0.000000,0.000000,0.000000,328.673119,22.246150,-1.000000,0.971018,0.010149,0.383110,0.000000,0.000000,0.000000,0.000000,0.000000,0.000000,0.000000,
2506,2173,5.48973520986406,-10.3132509035554,0.0242932388356962,0.000000,0.000000,0.000000,0.000000,0.000000,328.664174,22.197038,-1.000000,0.976645,0.009378,0.352029,0.000000,0.000000,0.000000,0.000000,0.000000,0.000000,0.000000,
2476,2158,4.83633491208468,-10.6407873031757,0.0178338903781423,0.000000,0.000000,0.000000,0.000000,0.000000,328.765736,22.330858,-1.000000,0.973302,0.009850,0.320000,0.000000,0.000000,0.000000,0.000000,0.000000,0.000000,0.000000,
2491,2158,5.1648779410422,-10.6417673665692,0.0246992853189454,0.000000,0.000000,0.000000,0.000000,0.000000,328.864343,22.250516,-1.000000,0.980225,0.008984,0.317247,0.000000,0.000000,0.000000,0.000000,0.000000,0.000000,0.000000,
2176,2083,-1.7011773970921,-12.2801335253657,0.0190669889266815,0.000000,0.000000,0.000000,0.000000,0.000000,330.076716,23.953582,-1.000000,0.985383,0.008245,0.258727,0.000000,0.000000,0.000000,0.000000,0.000000,0.000000,0.000000,
2206,2083,-1.04675466377894,-12.2815355141998,0.0174190597940651,0.000000,0.000000,0.000000,0.000000,0.000000,329.976135,23.675434,-1.000000,0.979127,0.009029,0.352243,0.000000,0.000000,0.000000,0.000000,0.000000,0.000000,0.000000,
2146,2083,-2.35598494567345,-12.2785270357926,0.0124702764682638,0.000000,0.000000,0.000000,0.000000,0.000000,330.126266,24.159906,-1.000000,0.981402,0.008485,0.237278,0.000000,0.000000,0.000000,0.000000,0.000000,0.000000,0.000000,
2116,2083,-3.01006101889286,-12.2784637904932,0.0142504778825696,0.000000,0.000000,0.000000,0.000000,0.000000,330.263307,24.318049,-1.000000,0.975602,0.009777,0.263177,0.000000,0.000000,0.000000,0.000000,0.000000,0.000000,0.000000,
2326,2083,1.57263417094421,-12.2816800182548,0.0125315790747891,0.000000,0.000000,0.000000,0.000000,0.000000,329.758729,23.082329,-1.000000,0.983438,0.008779,0.203847,0.000000,0.000000,0.000000,0.000000,0.000000,0.000000,0.000000,
2356,2083,2.22850648653271,-12.2837725116498,0.0190036868268066,0.000000,0.000000,0.000000,0.000000,0.000000,329.812842,22.831933,-1.000000,0.982010,0.008552,0.267664,0.000000,0.000000,0.000000,0.000000,0.000000,0.000000,0.000000,
2296,2083,0.918201159793799,-12.2828530982894,0.0226339637949877,0.000000,0.000000,0.000000,0.000000,0.000000,329.861242,23.217693,-1.000000,0.983402,0.008309,0.253778,0.000000,0.000000,0.000000,0.000000,0.000000,0.000000,0.000000,
2026,2083,-4.97115937262999,-12.2787672884267,0.0231802772127594,0.000000,0.000000,0.000000,0.000000,0.000000,330.807937,24.788726,-1.000000,0.986553,0.007421,0.343328,0.000000,0.000000,0.000000,0.000000,0.000000,0.000000,0.000000,
2026,2098,-4.97321178426152,-11.9499391843032,0.0254057899509235,0.000000,0.000000,0.000000,0.000000,0.000000,330.585891,24.822592,-1.000000,0.981222,0.008542,0.302902,0.000000,0.000000,0.000000,0.000000,0.000000,0.000000,0.000000,
2041,2083,-4.64456116436676,-12.2780091095954,0.0191245890868572,0.000000,0.000000,0.000000,0.000000,0.000000,330.684790,24.746310,-1.000000,0.985982,0.007418,0.294244,0.000000,0.000000,0.000000,0.000000,0.000000,0.000000,0.000000,
2056,2083,-4.31866183025011,-12.2761852460016,0.00323124010623133,0.000000,0.000000,0.000000,0.000000,0.000000,330.467467,24.670863,-1.000000,0.980516,0.008462,0.278637,0.000000,0.000000,0.000000,0.000000,0.000000,0.000000,0.000000,
2416,2083,3.54026408335136,-12.2855894392988,0.0250151428307959,0.000000,0.000000,0.000000,0.000000,0.000000,329.914782,22.471598,-1.000000,0.977263,0.009749,0.254812,0.000000,0.000000,0.000000,0.000000,0.000000,0.000000,0.000000,
2446,2083,4.19577810081878,-12.285857756347,0.0201336193337056,0.000000,0.000000,0.000000,0.000000,0.000000,329.926203,22.263345,-1.000000,0.976150,0.009921,0.276358,0.000000,0.000000,0.000000,0.000000,0.000000,0.000000,0.000000,
2446,2113,4.19023608883323,-11.6284240241994,0.0258986645781079,0.000000,0.000000,0.000000,0.000000,0.000000,329.490563,22.343791,-1.000000,0.979482,0.009522,0.306216,0.000000,0.000000,0.000000,0.000000,0.000000,0.000000,0.000000,
2236,2083,-0.391803062530894,-12.2813339575011,0.0212196384350705,0.000000,0.000000,0.000000,0.000000,0.000000,329.937186,23.603679,-1.000000,0.982493,0.008575,0.238743,0.000000,0.000000,0.000000,0.000000,0.000000,0.000000,0.000000,
2266,2083,0.262317469589274,-12.2811453041598,0.0109632557221175,0.000000,0.000000,0.000000,0.000000,0.000000,329.799139,23.376306,-1.000000,0.983696,0.008233,0.281176,0.000000,0.000000,0.000000,0.000000,0.000000,0.000000,0.000000,
2446,2143,4.18314809798641,-10.9689537771192,0.0128655562966742,0.000000,0.000000,0.000000,0.000000,0.000000,328.897357,22.428217,-1.000000,0.978504,0.009637,0.332748,0.000000,0.000000,0.000000,0.000000,0.000000,0.000000,0.000000,
2011,2113,-5.30257717371383,-11.620323595544,0.018281690896174,0.000000,0.000000,0.000000,0.000000,0.000000,330.379633,24.898044,-1.000000,0.979888,0.008879,0.308252,0.000000,0.000000,0.000000,0.000000,0.000000,0.000000,0.000000,
2476,2143,4.83930921970012,-10.9691322104002,0.0167928490623126,0.000000,0.000000,0.000000,0.000000,0.000000,328.999044,22.325524,-1.000000,0.975268,0.009307,0.265770,0.000000,0.000000,0.000000,0.000000,0.000000,0.000000,0.000000,
2491,2143,5.16828949859874,-10.9707182259168,0.0284882989228663,0.000000,0.000000,0.000000,0.000000,0.000000,329.138147,22.242102,-1.000000,0.981615,0.008715,0.263976,0.000000,0.000000,0.000000,0.000000,0.000000,0.000000,0.000000,
2506,2143,5.49560947407466,-10.9702268294028,0.0199530244286734,0.000000,0.000000,0.000000,0.000000,0.000000,329.112413,22.131079,-1.000000,0.977014,0.009635,0.290634,0.000000,0.000000,0.000000,0.000000,0.000000,0.000000,0.000000,
2506,2158,5.49272278197231,-10.6416257591414,0.0227353248091049,0.000000,0.000000,0.000000,0.000000,0.000000,328.893363,22.178417,-1.000000,0.978883,0.009104,0.307039,0.000000,0.000000,0.000000,0.000000,0.000000,0.000000,0.000000,
2011,2098,-5.30092129307872,-11.9474720886704,0.0099469871881297,0.000000,0.000000,0.000000,0.000000,0.000000,330.550324,24.944987,-1.000000,0.977939,0.009139,0.270656,0.000000,0.000000,0.000000,0.000000,0.000000,0.000000,0.000000,
2386,2083,2.884252376666,-12.285153629709,0.0214394829620232,0.000000,0.000000,0.000000,0.000000,0.000000,329.850583,22.602228,-1.000000,0.976303,0.009542,0.310814,0.000000,0.000000,0.000000,0.000000,0.000000,0.000000,0.000000,
2086,2083,-3.66646573042552,-12.2736786927166,-0.0230243419474618,0.000000,0.000000,0.000000,0.000000,0.000000,330.091978,24.477061,-1.000000,0.948182,0.015369,0.290063,0.000000,0.000000,0.000000,0.000000,0.000000,0.000000,0.000000,
2011,2068,-5.29601034254543,-12.6068447615468,0.0199811455964891,0.000000,0.000000,0.000000,0.000000,0.000000,331.114905,24.884809,-1.000000,0.991173,0.006171,0.347877,0.000000,0.000000,0.000000,0.000000,0.000000,0.000000,0.000000,
2011,2083,-5.298573608032,-12.2769216594839,0.013137927014327,0.000000,0.000000,0.000000,0.000000,0.000000,330.817446,24.913314,-1.000000,0.983381,0.008121,0.310902,0.000000,0.000000,0.000000,0.000000,0.000000,0.000000,0.000000,
2026,2068,-4.96862554370594,-12.6083696901544,0.0289868149475296,0.000000,0.000000,0.000000,0.000000,0.000000,331.096701,24.778332,-1.000000,0.992119,0.006110,0.360051,0.000000,0.000000,0.000000,0.000000,0.000000,0.000000,0.000000,
2041,2068,-4.64414578417372,-12.6040588494815,-0.0103209012895036,0.000000,0.000000,0.000000,0.000000,0.000000,330.680255,24.668741,-1.000000,0.991932,0.006101,0.377652,0.000000,0.000000,0.000000,0.000000,0.000000,0.000000,0.000000,
2161,2068,-2.02561762761137,-12.6099419132901,0.0236666145908657,0.000000,0.000000,0.000000,0.000000,0.000000,330.406459,23.974300,-1.000000,0.984628,0.008074,0.316771,0.000000,0.000000,0.000000,0.000000,0.000000,0.000000,0.000000,
2191,2068,-1.37232791764231,-12.6093498544201,0.00581355752200352,0.000000,0.000000,0.000000,0.000000,0.000000,330.162069,23.697647,-1.000000,0.983838,0.008502,0.405035,0.000000,0.000000,0.000000,0.000000,0.000000,0.000000,0.000000,
2251,2068,-0.0614186852389977,-12.6118793420635,0.025970868557863,0.000000,0.000000,0.000000,0.000000,0.000000,330.189910,23.425455,-1.000000,0.981987,0.008340,0.297540,0.000000,0.000000,0.000000,0.000000,0.000000,0.000000,0.000000,
2281,2068,0.593221406106867,-12.6114266901319,0.0209408296918809,0.000000,0.000000,0.000000,0.000000,0.000000,330.103843,23.279014,-1.000000,0.983928,0.007944,0.254290,0.000000,0.000000,0.000000,0.000000,0.000000,0.000000,0.000000,
2311,2068,1.24845196574798,-12.6134155680437,0.0214892003579621,0.000000,0.000000,0.000000,0.000000,0.000000,330.082716,22.972083,-1.000000,0.981922,0.008653,0.371067,0.000000,0.000000,0.000000,0.000000,0.000000,0.000000,0.000000,
2341,2068,1.90417757160897,-12.6150581046433,0.026323804469655,0.000000,0.000000,0.000000,0.000000,0.000000,330.114385,22.744503,-1.000000,0.977502,0.009275,0.408076,0.000000,0.000000,0.000000,0.000000,0.000000,0.000000,0.000000,
2221,2068,-0.716991888886614,-12.6097204521847,0.0157195868609961,0.000000,0.000000,0.000000,0.000000,0.000000,330.165372,23.640969,-1.000000,0.978467,0.009073,0.272070,0.000000,0.000000,0.000000,0.000000,0.000000,0.000000,0.000000,
2371,2068,2.55937290550319,-12.6145080612377,0.0221179306317367,0.000000,0.000000,0.000000,0.000000,0.000000,330.087366,22.616980,-1.000000,0.981139,0.008624,0.344943,0.000000,0.000000,0.000000,0.000000,0.000000,0.000000,0.000000,
2476,2128,4.84262730707835,-11.2992372888528,0.0197014891593881,0.000000,0.000000,0.000000,0.000000,0.000000,329.266017,22.207355,-1.000000,0.974346,0.010105,0.324364,0.000000,0.000000,0.000000,0.000000,0.000000,0.000000,0.000000,
2491,2128,5.17314904235144,-11.3038092286275,0.0491363202506818,0.000000,0.000000,0.000000,0.000000,0.000000,329.554133,22.043800,-1.000000,0.988043,0.007563,0.399492,0.000000,0.000000,0.000000,0.000000,0.000000,0.000000,0.000000,
2506,2128,5.49870351981946,-11.3000836099334,0.0194820672907099,0.000000,0.000000,0.000000,0.000000,0.000000,329.351258,21.999011,-1.000000,0.985758,0.008240,0.358697,0.000000,0.000000,0.000000,0.000000,0.000000,0.000000,0.000000,
2131,2068,-2.67992746164375,-12.6087952348911,0.02437576557179,0.000000,0.000000,0.000000,0.000000,0.000000,330.525278,24.219830,-1.000000,0.975585,0.009310,0.260098,0.000000,0.000000,0.000000,0.000000,0.000000,0.000000,0.000000,
2071,2068,-3.98754037803247,-12.6084474817852,0.0341901749775957,0.000000,0.000000,0.000000,0.000000,0.000000,330.885250,24.627470,-1.000000,0.966698,0.011329,0.228667,0.000000,0.000000,0.000000,0.000000,0.000000,0.000000,0.000000,
2461,2098,4.52106461063179,-11.9570904611256,0.0238421503353834,0.000000,0.000000,0.000000,0.000000,0.000000,329.747687,22.249971,-1.000000,0.981218,0.009134,0.253589,0.000000,0.000000,0.000000,0.000000,0.000000,0.000000,0.000000,
2461,2128,4.51455213477449,-11.298653080821,0.018543225251392,0.000000,0.000000,0.000000,0.000000,0.000000,329.219361,22.312590,-1.000000,0.976055,0.010106,0.306183,0.000000,0.000000,0.000000,0.000000,0.000000,0.000000,0.000000,
2401,2068,3.21392576981848,-12.6134563593045,0.00775379706942658,0.000000,0.000000,0.000000,0.000000,0.000000,329.993246,22.422916,-1.000000,0.979779,0.009787,0.348827,0.000000,0.000000,0.000000,0.000000,0.000000,0.000000,0.000000,
2431,2068,3.87096819581233,-12.6150909854768,0.0224050535560423,0.000000,0.000000,0.000000,0.000000,0.000000,330.158824,22.305796,-1.000000,0.974123,0.010066,0.274103,0.000000,0.000000,0.000000,0.000000,0.000000,0.000000,0.000000,
2461,2068,4.52825017912427,-12.6182183102852,0.0370442637016026,0.000000,0.000000,0.000000,0.000000,0.000000,330.342678,22.052660,-1.000000,0.981946,0.008690,0.334882,0.000000,0.000000,0.000000,0.000000,0.000000,0.000000,0.000000,
2101,2068,-3.33415579495741,-12.6087954024293,0.0237276210517052,0.000000,0.000000,0.000000,0.000000,0.000000,330.650778,24.346171,-1.000000,0.951335,0.014618,0.322258,0.000000,0.000000,0.000000,0.000000,0.000000,0.000000,0.000000,
2011,2053,-5.29439108604484,-12.9337858025148,0.0111850640466287,0.000000,0.000000,0.000000,0.000000,0.000000,331.281412,24.960059,-1.000000,0.991431,0.006115,0.281658,0.000000,0.000000,0.000000,0.000000,0.000000,0.000000,0.000000,
2026,2053,-4.96671733721122,-12.9345622859155,0.0247680463783695,0.000000,0.000000,0.000000,0.000000,0.000000,331.300669,24.972967,-1.000000,0.992582,0.005990,0.171895,0.000000,0.000000,0.000000,0.000000,0.000000,0.000000,0.000000,
2041,2053,-4.6422378854913,-12.9311090368662,-0.0150888415570876,0.000000,0.000000,0.000000,0.000000,0.000000,330.880224,24.776120,-1.000000,0.992082,0.006162,0.274468,0.000000,0.000000,0.000000,0.000000,0.000000,0.000000,0.000000,
2056,2053,-4.31339464411684,-12.9355612849375,0.015910298138067,0.000000,0.000000,0.000000,0.000000,0.000000,331.054074,24.648476,-1.000000,0.978354,0.008858,0.304696,0.000000,0.000000,0.000000,0.000000,0.000000,0.000000,0.000000,
2476,2113,4.84526763112428,-11.6277412759968,0.0146045316698178,0.000000,0.000000,0.000000,0.000000,0.000000,329.465541,22.154062,-1.000000,0.976733,0.009838,0.318229,0.000000,0.000000,0.000000,0.000000,0.000000,0.000000,0.000000,
2491,2113,5.17581816324551,-11.6323100922338,0.0440816980420777,0.000000,0.000000,0.000000,0.000000,0.000000,329.754016,21.993235,-1.000000,0.984534,0.008388,0.388529,0.000000,0.000000,0.000000,0.000000,0.000000,0.000000,0.000000,
2506,2113,5.50229515715245,-11.6296345213797,0.0249579536376814,0.000000,0.000000,0.000000,0.000000,0.000000,329.639268,21.964955,-1.000000,0.986512,0.008045,0.328431,0.000000,0.000000,0.000000,0.000000,0.000000,0.000000,0.000000,
2146,2053,-2.35038881590788,-12.9385885179949,0.0237918034506492,0.000000,0.000000,0.000000,0.000000,0.000000,330.702671,24.057728,-1.000000,0.982766,0.008064,0.316689,0.000000,0.000000,0.000000,0.000000,0.000000,0.000000,0.000000,
2176,2053,-1.69606520525405,-12.9383254453408,0.0214093355189107,0.000000,0.000000,0.000000,0.000000,0.000000,330.577998,23.921542,-1.000000,0.984581,0.007701,0.259444,0.000000,0.000000,0.000000,0.000000,0.000000,0.000000,0.000000,
2266,2053,0.268276109219677,-12.940863549598,0.0198255130464986,0.000000,0.000000,0.000000,0.000000,0.000000,330.355870,23.273811,-1.000000,0.980075,0.008710,0.325591,0.000000,0.000000,0.000000,0.000000,0.000000,0.000000,0.000000,
2296,2053,0.924134216366188,-12.9422332083795,0.0293952840025327,0.000000,0.000000,0.000000,0.000000,0.000000,330.400558,23.123386,-1.000000,0.983110,0.008241,0.281036,0.000000,0.000000,0.000000,0.000000,0.000000,0.000000,0.000000,
2206,2053,-1.04175365010941,-12.9385299151352,0.0165294480727312,0.000000,0.000000,0.000000,0.000000,0.000000,330.450216,23.715273,-1.000000,0.976659,0.009242,0.272407,0.000000,0.000000,0.000000,0.000000,0.000000,0.000000,0.000000,
2236,2053,-0.386347130098564,-12.9402661218231,0.0249043808977945,0.000000,0.000000,0.000000,0.000000,0.000000,330.450373,23.517468,-1.000000,0.978059,0.009004,0.275966,0.000000,0.000000,0.000000,0.000000,0.000000,0.000000,0.000000,
2446,2053,4.20277867525433,-12.9469369210127,0.0319209029073022,0.000000,0.000000,0.000000,0.000000,0.000000,330.509141,22.066311,-1.000000,0.979838,0.008949,0.362129,0.000000,0.000000,0.000000,0.000000,0.000000,0.000000,0.000000,
2476,2053,4.85856033606941,-12.9467366606153,0.026680501430576,0.000000,0.000000,0.000000,0.000000,0.000000,330.535058,21.895842,-1.000000,0.982623,0.008723,0.336545,0.000000,0.000000,0.000000,0.000000,0.000000,0.000000,0.000000,
2476,2068,4.85583778734473,-12.6177308804593,0.0308364578502278,0.000000,0.000000,0.000000,0.000000,0.000000,330.327793,21.963338,-1.000000,0.980473,0.009197,0.328819,0.000000,0.000000,0.000000,0.000000,0.000000,0.000000,0.000000,
2476,2083,4.85202327259009,-12.287533605476,0.021924741604721,0.000000,0.000000,0.000000,0.000000,0.000000,330.011296,22.000433,-1.000000,0.981160,0.008933,0.351941,0.000000,0.000000,0.000000,0.000000,0.000000,0.000000,0.000000,
2326,2053,1.57879162609378,-12.9424446538515,0.0203982624614127,0.000000,0.000000,0.000000,0.000000,0.000000,330.308176,22.871862,-1.000000,0.987388,0.007506,0.338445,0.000000,0.000000,0.000000,0.000000,0.000000,0.000000,0.000000,
2476,2098,4.84906373940257,-11.9577350110627,0.0233141574911997,0.000000,0.000000,0.000000,0.000000,0.000000,329.780459,22.120671,-1.000000,0.979480,0.009251,0.291419,0.000000,0.000000,0.000000,0.000000,0.000000,0.000000,0.000000,
2356,2053,2.23564587963374,-12.9448657722814,0.0379686428963737,0.000000,0.000000,0.000000,0.000000,0.000000,330.454683,22.715457,-1.000000,0.980708,0.008621,0.299034,0.000000,0.000000,0.000000,0.000000,0.000000,0.000000,0.000000,
2386,2053,2.8910394476547,-12.9444333728452,0.034220858913784,0.000000,0.000000,0.000000,0.000000,0.000000,330.440388,22.581832,-1.000000,0.978858,0.009528,0.237701,0.000000,0.000000,0.000000,0.000000,0.000000,0.000000,0.000000,
2416,2053,3.54653142780799,-12.9450729841639,0.0295019165205872,0.000000,0.000000,0.000000,0.000000,0.000000,330.436074,22.339938,-1.000000,0.975524,0.009723,0.284211,0.000000,0.000000,0.000000,0.000000,0.000000,0.000000,0.000000,
2116,2053,-3.00535947620144,-12.9368221882608,0.0139506755940602,0.000000,0.000000,0.000000,0.000000,0.000000,330.742430,24.242935,-1.000000,0.980214,0.008482,0.324851,0.000000,0.000000,0.000000,0.000000,0.000000,0.000000,0.000000,
2086,2053,-3.65858930500114,-12.9369356787834,0.0286564148837556,0.000000,0.000000,0.000000,0.000000,0.000000,331.003537,24.530644,-1.000000,0.981077,0.008476,0.229463,0.000000,0.000000,0.000000,0.000000,0.000000,0.000000,0.000000,
2011,2038,-5.29216839322609,-13.2636202033495,0.012327604263362,0.000000,0.000000,0.000000,0.000000,0.000000,331.531519,24.887502,-1.000000,0.980137,0.008497,0.362534,0.000000,0.000000,0.000000,0.000000,0.000000,0.000000,0.000000,
2026,2038,-4.96454481194434,-13.2657165755195,0.0243808111977728,0.000000,0.000000,0.000000,0.000000,0.000000,331.538880,24.763769,-1.000000,0.979426,0.008798,0.387372,0.000000,0.000000,0.000000,0.000000,0.000000,0.000000,0.000000,
2041,2038,-4.63773249834181,-13.2654291501789,0.0223367795750846,0.000000,0.000000,0.000000,0.000000,0.000000,331.432777,24.699176,-1.000000,0.979961,0.008719,0.353914,0.000000,0.000000,0.000000,0.000000,0.000000,0.000000,0.000000,
2311,2038,1.25458260687087,-13.2715795362447,0.0302321714227105,0.000000,0.000000,0.000000,0.000000,0.000000,330.637720,23.021739,-1.000000,0.987531,0.007433,0.249898,0.000000,0.000000,0.000000,0.000000,0.000000,0.000000,0.000000,
2341,2038,1.90883517933962,-13.271232491944,0.0141077478178318,0.000000,0.000000,0.000000,0.000000,0.000000,330.494763,22.740301,-1.000000,0.980501,0.008860,0.332666,0.000000,0.000000,0.000000,0.000000,0.000000,0.000000,0.000000,
2491,2098,5.17860679159831,-11.9603224395619,0.0405214402874208,0.000000,0.000000,0.000000,0.000000,0.000000,329.965974,22.008320,-1.000000,0.984417,0.008427,0.311554,0.000000,0.000000,0.000000,0.000000,0.000000,0.000000,0.000000,
2506,2098,5.50539820767722,-11.9573356196968,0.024856590132174,0.000000,0.000000,0.000000,0.000000,0.000000,329.879862,22.044872,-1.000000,0.985980,0.008082,0.184260,0.000000,0.000000,0.000000,0.000000,0.000000,0.000000,0.000000,
2161,2038,-2.02125677657807,-13.2663652078665,0.0158925659693523,0.000000,0.000000,0.000000,0.000000,0.000000,330.822777,24.002213,-1.000000,0.984177,0.007932,0.262312,0.000000,0.000000,0.000000,0.000000,0.000000,0.000000,0.000000,
2191,2038,-1.36660262608407,-13.2667814296878,0.0164320897575863,0.000000,0.000000,0.000000,0.000000,0.000000,330.731397,23.836387,-1.000000,0.985689,0.007640,0.230265,0.000000,0.000000,0.000000,0.000000,0.000000,0.000000,0.000000,
2281,2038,0.598082490065181,-13.2688928719873,0.0140937384149993,0.000000,0.000000,0.000000,0.000000,0.000000,330.529096,23.218076,-1.000000,0.985227,0.007906,0.253217,0.000000,0.000000,0.000000,0.000000,0.000000,0.000000,0.000000,
2131,2038,-2.67596960677864,-13.2660602517475,0.0119099948420853,0.000000,0.000000,0.000000,0.000000,0.000000,330.903056,24.119683,-1.000000,0.984225,0.008465,0.342639,0.000000,0.000000,0.000000,0.000000,0.000000,0.000000,0.000000,
2461,2038,4.53341980301064,-13.2751400115069,0.0261503768166449,0.000000,0.000000,0.000000,0.000000,0.000000,330.735024,21.994136,-1.000000,0.980390,0.009105,0.278682,0.000000,0.000000,0.000000,0.000000,0.000000,0.000000,0.000000,
2476,2038,4.86196212921108,-13.2768505618507,0.0306105380529402,0.000000,0.000000,0.000000,0.000000,0.000000,330.809956,21.822963,-1.000000,0.980262,0.009209,0.349109,0.000000,0.000000,0.000000,0.000000,0.000000,0.000000,0.000000,
2491,2038,5.1912388056367,-13.2788848613081,0.0432062355253038,0.000000,0.000000,0.000000,0.000000,0.000000,330.956994,21.713700,-1.000000,0.973079,0.010526,0.357662,0.000000,0.000000,0.000000,0.000000,0.000000,0.000000,0.000000,
2491,2053,5.18615268349354,-12.945545999432,0.0198713694377943,0.000000,0.000000,0.000000,0.000000,0.000000,330.519222,21.863487,-1.000000,0.977779,0.009537,0.271120,0.000000,0.000000,0.000000,0.000000,0.000000,0.000000,0.000000,
2491,2068,5.18247890647931,-12.6154787772287,0.0130664532121614,0.000000,0.000000,0.000000,0.000000,0.000000,330.220318,21.906893,-1.000000,0.979631,0.009421,0.290314,0.000000,0.000000,0.000000,0.000000,0.000000,0.000000,0.000000,
2491,2083,5.18000481388266,-12.2877216652536,0.0203633590107302,0.000000,0.000000,0.000000,0.000000,0.000000,330.039672,21.901308,-1.000000,0.979332,0.009248,0.357512,0.000000,0.000000,0.000000,0.000000,0.000000,0.000000,0.000000,
2071,2038,-3.98390429024172,-13.2652099945501,0.0197791651601733,0.000000,0.000000,0.000000,0.000000,0.000000,331.246323,24.555040,-1.000000,0.985289,0.007653,0.301309,0.000000,0.000000,0.000000,0.000000,0.000000,0.000000,0.000000,
2101,2038,-3.33011571121631,-13.2664842695541,0.0140607605353011,0.000000,0.000000,0.000000,0.000000,0.000000,331.051773,24.239891,-1.000000,0.985749,0.008392,0.419640,0.000000,0.000000,0.000000,0.000000,0.000000,0.000000,0.000000,
2371,2038,2.56512835364159,-13.2730511236946,0.0225400209605482,0.000000,0.000000,0.000000,0.000000,0.000000,330.573984,22.537323,-1.000000,0.977547,0.009510,0.335722,0.000000,0.000000,0.000000,0.000000,0.000000,0.000000,0.000000,
2251,2038,-0.0567314439392241,-13.2689919146084,0.0182338776932625,0.000000,0.000000,0.000000,0.000000,0.000000,330.607420,23.388365,-1.000000,0.980846,0.008668,0.281582,0.000000,0.000000,0.000000,0.000000,0.000000,0.000000,0.000000,
2431,2038,3.87767789693347,-13.2750783093132,0.0315689411780795,0.000000,0.000000,0.000000,0.000000,0.000000,330.719112,22.191306,-1.000000,0.977286,0.009454,0.281581,0.000000,0.000000,0.000000,0.000000,0.000000,0.000000,0.000000,
2401,2038,3.22113959034057,-13.2743870170409,0.0248839121725268,0.000000,0.000000,0.000000,0.000000,0.000000,330.619957,22.310379,-1.000000,0.972519,0.010143,0.362762,0.000000,0.000000,0.000000,0.000000,0.000000,0.000000,0.000000,
2221,2038,-0.711560829581412,-13.2687157753557,0.0199697252699025,0.000000,0.000000,0.000000,0.000000,0.000000,330.683001,23.566235,-1.000000,0.978359,0.009047,0.301957,0.000000,0.000000,0.000000,0.000000,0.000000,0.000000,0.000000,
2296,2023,0.929398045368476,-13.6021013191661,0.0270250916919963,0.000000,0.000000,0.000000,0.000000,0.000000,330.864091,22.905379,-1.000000,0.981631,0.008769,0.432364,0.000000,0.000000,0.000000,0.000000,0.000000,0.000000,0.000000,
2326,2023,1.58458910783794,-13.6010409016365,0.0237837004733024,0.000000,0.000000,0.000000,0.000000,0.000000,330.818925,22.832666,-1.000000,0.978771,0.009416,0.301673,0.000000,0.000000,0.000000,0.000000,0.000000,0.000000,0.000000,
2506,2083,5.50966251365577,-12.2909239887059,0.0378280974231302,0.000000,0.000000,0.000000,0.000000,0.000000,330.232089,21.736834,-1.000000,0.984909,0.008017,0.427486,0.000000,0.000000,0.000000,0.000000,0.000000,0.000000,0.000000,
2086,2023,-3.6547608427617,-13.593735879235,0.0166223072306479,0.000000,0.000000,0.000000,0.000000,0.000000,331.384200,24.490105,-1.000000,0.983820,0.008283,0.265377,0.000000,0.000000,0.000000,0.000000,0.000000,0.000000,0.000000,
2116,2023,-3.00059096868021,-13.5944972802939,0.0149133176652185,0.000000,0.000000,0.000000,0.000000,0.000000,331.231252,24.266054,-1.000000,0.984866,0.008708,0.287887,0.000000,0.000000,0.000000,0.000000,0.000000,0.000000,0.000000,
2176,2023,-1.69071334349037,-13.5977509804505,0.0272627611973917,0.000000,0.000000,0.000000,0.000000,0.000000,331.108615,23.839283,-1.000000,0.985192,0.007627,0.310034,0.000000,0.000000,0.000000,0.000000,0.000000,0.000000,0.000000,
2206,2023,-1.03523272592974,-13.6001326518341,0.0372561017901489,0.000000,0.000000,0.000000,0.000000,0.000000,331.105338,23.600795,-1.000000,0.980485,0.008787,0.345445,0.000000,0.000000,0.000000,0.000000,0.000000,0.000000,0.000000,
2056,2023,-4.30858214612326,-13.5935872579743,0.0214732005815108,0.000000,0.000000,0.000000,0.000000,0.000000,331.580695,24.694173,-1.000000,0.984356,0.007946,0.262316,0.000000,0.000000,0.000000,0.000000,0.000000,0.000000,0.000000,
2266,2023,0.274472146481376,-13.5999612350287,0.032146469477766,0.000000,0.000000,0.000000,0.000000,0.000000,330.940506,23.291316,-1.000000,0.978899,0.009509,0.249454,0.000000,0.000000,0.000000,0.000000,0.000000,0.000000,0.000000,
2146,2023,-2.34559965734096,-13.5963567596803,0.0232323072974054,0.000000,0.000000,0.000000,0.000000,0.000000,331.179129,24.055479,-1.000000,0.983411,0.007847,0.296127,0.000000,0.000000,0.000000,0.000000,0.000000,0.000000,0.000000,
2236,2023,-0.380246447210567,-13.6007483006921,0.0376461849814973,0.000000,0.000000,0.000000,0.000000,0.000000,331.039000,23.415197,-1.000000,0.981994,0.008656,0.328307,0.000000,0.000000,0.000000,0.000000,0.000000,0.000000,0.000000,
2356,2023,2.24030449280801,-13.6026687864169,0.0249312977584282,0.000000,0.000000,0.000000,0.000000,0.000000,330.829018,22.564884,-1.000000,0.973649,0.010535,0.365595,0.000000,0.000000,0.000000,0.000000,0.000000,0.000000,0.000000,
2446,2023,4.20870814100646,-13.6048479572086,0.0309105253804205,0.000000,0.000000,0.000000,0.000000,0.000000,330.983791,22.038977,-1.000000,0.979723,0.008946,0.278018,0.000000,0.000000,0.000000,0.000000,0.000000,0.000000,0.000000,
2476,2023,4.86494447696098,-13.6052749614181,0.029679561787475,0.000000,0.000000,0.000000,0.000000,0.000000,331.043509,21.855331,-1.000000,0.981987,0.008671,0.256833,0.000000,0.000000,0.000000,0.000000,0.000000,0.000000,0.000000,
2491,2023,5.19432587341229,-13.6074111504831,0.0431718185545833,0.000000,0.000000,0.000000,0.000000,0.000000,331.198073,21.747686,-1.000000,0.972914,0.010393,0.261321,0.000000,0.000000,0.000000,0.000000,0.000000,0.000000,0.000000,
2011,2023,-5.28971110167621,-13.5931953377962,0.0175450931652108,0.000000,0.000000,0.000000,0.000000,0.000000,331.815051,24.890113,-1.000000,0.982943,0.008151,0.368110,0.000000,0.000000,0.000000,0.000000,0.000000,0.000000,0.000000,
2026,2023,-4.96270670948264,-13.5932939772649,0.0188883806077342,0.000000,0.000000,0.000000,0.000000,0.000000,331.732887,24.827992,-1.000000,0.982557,0.008450,0.329776,0.000000,0.000000,0.000000,0.000000,0.000000,0.000000,0.000000,
2041,2023,-4.6356895577122,-13.5933322860223,0.0197822518357498,0.000000,0.000000,0.000000,0.000000,0.000000,331.651284,24.766399,-1.000000,0.980917,0.008564,0.290775,0.000000,0.000000,0.000000,0.000000,0.000000,0.000000,0.000000,
2506,2053,5.51483264367401,-12.946570532717,0.0252924213988877,0.000000,0.000000,0.000000,0.000000,0.000000,330.610509,21.765593,-1.000000,0.981564,0.008926,0.270759,0.000000,0.000000,0.000000,0.000000,0.000000,0.000000,0.000000,
2506,2068,5.51327613528122,-12.6189065510396,0.043762452631654,0.000000,0.000000,0.000000,0.000000,0.000000,330.522763,21.869756,-1.000000,0.983733,0.008488,0.229983,0.000000,0.000000,0.000000,0.000000,0.000000,0.000000,0.000000,
2506,2038,5.51867107814209,-13.2779009259118,0.0334807361065259,0.000000,0.000000,0.000000,0.000000,0.000000,330.921511,21.629201,-1.000000,0.970982,0.010842,0.342228,0.000000,0.000000,0.000000,0.000000,0.000000,0.000000,0.000000,
2386,2023,2.89602516204749,-13.6022538103921,0.0241178304192431,0.000000,0.000000,0.000000,0.000000,0.000000,330.839223,22.461554,-1.000000,0.972041,0.010473,0.264899,0.000000,0.000000,0.000000,0.000000,0.000000,0.000000,0.000000,
2416,2023,3.5525810903058,-13.6031387535717,0.0314564162562192,0.000000,0.000000,0.000000,0.000000,0.000000,330.935229,22.332180,-1.000000,0.975400,0.009758,0.189509,0.000000,0.000000,0.000000,0.000000,0.000000,0.000000,0.000000,
2506,2023,5.52143734261154,-13.6063019446679,0.0292964210764808,0.000000,0.000000,0.000000,0.000000,0.000000,331.128127,21.626920,-1.000000,0.972957,0.010612,0.280104,0.000000,0.000000,0.000000,0.000000,0.000000,0.000000,0.000000,
2161,2008,-2.01580023138066,-13.9256515547591,0.0243578291493804,0.000000,0.000000,0.000000,0.000000,0.000000,331.374641,23.973424,-1.000000,0.985532,0.007670,0.263341,0.000000,0.000000,0.000000,0.000000,0.000000,0.000000,0.000000,
2176,2008,-1.68861895110388,-13.9264468326446,0.0217026170860208,0.000000,0.000000,0.000000,0.000000,0.000000,331.303008,23.803322,-1.000000,0.985397,0.007790,0.330312,0.000000,0.000000,0.000000,0.000000,0.000000,0.000000,0.000000,
2191,2008,-1.36104020976757,-13.9276479673024,0.0243043013904298,0.000000,0.000000,0.000000,0.000000,0.000000,331.279421,23.656013,-1.000000,0.984707,0.008149,0.374051,0.000000,0.000000,0.000000,0.000000,0.000000,0.000000,0.000000,
2101,2008,-3.32381571166704,-13.9274222358864,0.0397922119508394,0.000000,0.000000,0.000000,0.000000,0.000000,331.746834,24.258669,-1.000000,0.991485,0.007025,0.389949,0.000000,0.000000,0.000000,0.000000,0.000000,0.000000,0.000000,
2116,2008,-2.99840070047185,-13.9237857513153,0.0123556666040372,0.000000,0.000000,0.000000,0.000000,0.000000,331.450634,24.210433,-1.000000,0.992006,0.006811,0.336485,0.000000,0.000000,0.000000,0.000000,0.000000,0.000000,0.000000,
2131,2008,-2.66992320213393,-13.9264973675095,0.031350773745487,0.000000,0.000000,0.000000,0.000000,0.000000,331.546099,24.111215,-1.000000,0.984615,0.008221,0.331738,0.000000,0.000000,0.000000,0.000000,0.000000,0.000000,0.000000,
2041,2008,-4.63378619631212,-13.9212704377791,0.0149479482833499,0.000000,0.000000,0.000000,0.000000,0.000000,331.850884,24.809700,-1.000000,0.981220,0.008481,0.251575,0.000000,0.000000,0.000000,0.000000,0.000000,0.000000,0.000000,
2056,2008,-4.30585466309156,-13.9240329545579,0.0293879224476541,0.000000,0.000000,0.000000,0.000000,0.000000,331.887043,24.653685,-1.000000,0.982771,0.008333,0.304133,0.000000,0.000000,0.000000,0.000000,0.000000,0.000000,0.000000,
2071,2008,-3.97948414977828,-13.9221774717082,0.0181812469278952,0.000000,0.000000,0.000000,0.000000,0.000000,331.713091,24.627140,-1.000000,0.983421,0.008093,0.228461,0.000000,0.000000,0.000000,0.000000,0.000000,0.000000,0.000000,
2086,2008,-3.65152515013332,-13.92466249809,0.0314514795398964,0.000000,0.000000,0.000000,0.000000,0.000000,331.748091,24.483310,-1.000000,0.986620,0.007679,0.268762,0.000000,0.000000,0.000000,0.000000,0.000000,0.000000,0.000000,
2146,2008,-2.34243363733213,-13.9276827081653,0.0344289163090821,0.000000,0.000000,0.000000,0.000000,0.000000,331.513459,23.970458,-1.000000,0.984206,0.007872,0.369188,0.000000,0.000000,0.000000,0.000000,0.000000,0.000000,0.000000,
2011,2008,-5.28766347507145,-13.9207970354118,0.0160964504829053,0.000000,0.000000,0.000000,0.000000,0.000000,332.042343,25.002904,-1.000000,0.984205,0.007903,0.263681,0.000000,0.000000,0.000000,0.000000,0.000000,0.000000,0.000000,
2026,2008,-4.9608301585362,-13.9211355099814,0.0140511473556444,0.000000,0.000000,0.000000,0.000000,0.000000,331.932366,24.880314,-1.000000,0.983506,0.008195,0.283773,0.000000,0.000000,0.000000,0.000000,0.000000,0.000000,0.000000,
2221,2008,-0.706101941738236,-13.9267329617256,0.0248369473715115,0.000000,0.000000,0.000000,0.000000,0.000000,331.204825,23.610766,-1.000000,0.987819,0.007808,0.212299,0.000000,0.000000,0.000000,0.000000,0.000000,0.000000,0.000000,
2236,2008,-0.378372372829549,-13.9290050052992,0.0275598439912415,0.000000,0.000000,0.000000,0.000000,0.000000,331.195843,23.367602,-1.000000,0.988426,0.007573,0.351713,0.000000,0.000000,0.000000,0.000000,0.000000,0.000000,0.000000,
2251,2008,-0.0523048855626449,-13.9260909639958,0.00690462079938925,0.000000,0.000000,0.000000,0.000000,0.000000,330.994841,23.331482,-1.000000,0.988332,0.007602,0.285157,0.000000,0.000000,0.000000,0.000000,0.000000,0.000000,0.000000,
2461,2008,4.53984307659541,-13.9346173673673,0.030269071725229,0.000000,0.000000,0.000000,0.000000,0.000000,331.252993,21.892119,-1.000000,0.973465,0.010073,0.264607,0.000000,0.000000,0.000000,0.000000,0.000000,0.000000,0.000000,
2476,2008,4.86799751295875,-13.935511566939,0.0293751535400588,0.000000,0.000000,0.000000,0.000000,0.000000,331.283142,21.734932,-1.000000,0.976524,0.009509,0.317074,0.000000,0.000000,0.000000,0.000000,0.000000,0.000000,0.000000,
2491,2008,5.19671565693967,-13.9364903468022,0.0347021985423908,0.000000,0.000000,0.000000,0.000000,0.000000,331.369352,21.640849,-1.000000,0.973944,0.010316,0.306101,0.000000,0.000000,0.000000,0.000000,0.000000,0.000000,0.000000,
2281,2008,0.604620772506355,-13.9297893944593,0.0299842858466945,0.000000,0.000000,0.000000,0.000000,0.000000,331.144191,23.122844,-1.000000,0.983478,0.008503,0.285036,0.000000,0.000000,0.000000,0.000000,0.000000,0.000000,0.000000,
2296,2008,0.932152176454434,-13.9297825013685,0.0278250368976956,0.000000,0.000000,0.000000,0.000000,0.000000,331.110953,23.032220,-1.000000,0.978880,0.009324,0.271934,0.000000,0.000000,0.000000,0.000000,0.000000,0.000000,0.000000,
2311,2008,1.26003228297138,-13.930406507935,0.0297590491607593,0.000000,0.000000,0.000000,0.000000,0.000000,331.116316,22.930702,-1.000000,0.980176,0.009698,0.269344,0.000000,0.000000,0.000000,0.000000,0.000000,0.000000,0.000000,
2206,2008,-1.03309752081004,-13.9286730301849,0.0315709559460515,0.000000,0.000000,0.000000,0.000000,0.000000,331.298687,23.577779,-1.000000,0.981349,0.008666,0.348510,0.000000,0.000000,0.000000,0.000000,0.000000,0.000000,0.000000,
2431,2008,3.88399663331733,-13.9346733583111,0.0359333075172117,0.000000,0.000000,0.000000,0.000000,0.000000,331.238977,22.082671,-1.000000,0.975734,0.010041,0.282917,0.000000,0.000000,0.000000,0.000000,0.000000,0.000000,0.000000,
2446,2008,4.21194925218799,-13.9355057612448,0.0336040188427091,0.000000,0.000000,0.000000,0.000000,0.000000,331.248430,21.914611,-1.000000,0.976713,0.009820,0.346562,0.000000,0.000000,0.000000,0.000000,0.000000,0.000000,0.000000,
2266,2008,0.277211180645995,-13.9294583819108,0.0333404275943963,0.000000,0.000000,0.000000,0.000000,0.000000,331.191506,23.257940,-1.000000,0.982710,0.008584,0.253621,0.000000,0.000000,0.000000,0.000000,0.000000,0.000000,0.000000,
2326,2008,1.58801159036483,-13.9308387313761,0.0324286721933618,0.000000,0.000000,0.000000,0.000000,0.000000,331.132035,22.855114,-1.000000,0.972726,0.010349,0.240875,0.000000,0.000000,0.000000,0.000000,0.000000,0.000000,0.000000,
2341,2008,1.91539678128941,-13.9307242588596,0.0266868644814622,0.000000,0.000000,0.000000,0.000000,0.000000,331.082117,22.733910,-1.000000,0.974228,0.010347,0.258197,0.000000,0.000000,0.000000,0.000000,0.000000,0.000000,0.000000,
2401,2008,3.22750682625279,-13.9331996673014,0.0315632399232868,0.000000,0.000000,0.000000,0.000000,0.000000,331.158424,22.299055,-1.000000,0.969116,0.010661,0.275728,0.000000,0.000000,0.000000,0.000000,0.000000,0.000000,0.000000,
2416,2008,3.55670426939202,-13.9366401625475,0.0456851194726937,0.000000,0.000000,0.000000,0.000000,0.000000,331.296954,22.079991,-1.000000,0.973239,0.010382,0.389646,0.000000,0.000000,0.000000,0.000000,0.000000,0.000000,0.000000,
2356,2008,2.24297442729138,-13.9306697592753,0.0230043423661641,0.000000,0.000000,0.000000,0.000000,0.000000,331.053648,22.630730,-1.000000,0.974564,0.010226,0.257385,0.000000,0.000000,0.000000,0.000000,0.000000,0.000000,0.000000,
2371,2008,2.57070922671234,-13.9301767461157,0.0209232808610409,0.000000,0.000000,0.000000,0.000000,0.000000,331.042580,22.585812,-1.000000,0.973579,0.010099,0.198241,0.000000,0.000000,0.000000,0.000000,0.000000,0.000000,0.000000,
2101,1993,-3.32157173062659,-14.2542317822013,0.0388919293384902,0.000000,0.000000,0.000000,0.000000,0.000000,331.978410,24.454944,-1.000000,0.990653,0.007049,0.188779,0.000000,0.000000,0.000000,0.000000,0.000000,0.000000,0.000000,
2116,1993,-2.99638715526578,-14.2500188443658,0.00748405258110552,0.000000,0.000000,0.000000,0.000000,0.000000,331.649151,24.411634,-1.000000,0.990205,0.007029,0.128402,0.000000,0.000000,0.000000,0.000000,0.000000,0.000000,0.000000,
2131,1993,-2.66786796527002,-14.2543430774355,0.0265076282411769,0.000000,0.000000,0.000000,0.000000,0.000000,331.745742,24.167050,-1.000000,0.981602,0.008495,0.266733,0.000000,0.000000,0.000000,0.000000,0.000000,0.000000,0.000000,
2086,1993,-3.64929911136756,-14.2532961862281,0.0304790882840962,0.000000,0.000000,0.000000,0.000000,0.000000,331.980017,24.512465,-1.000000,0.984662,0.007907,0.236804,0.000000,0.000000,0.000000,0.000000,0.000000,0.000000,0.000000,
2221,1993,-0.702549556050894,-14.2581882050639,0.038829419503088,0.000000,0.000000,0.000000,0.000000,0.000000,331.562566,23.551032,-1.000000,0.989141,0.007384,0.248691,0.000000,0.000000,0.000000,0.000000,0.000000,0.000000,0.000000,
2236,1993,-0.375492966666858,-14.2585921686671,0.031634312144547,0.000000,0.000000,0.000000,0.000000,0.000000,331.470548,23.364691,-1.000000,0.989258,0.007447,0.329598,0.000000,0.000000,0.000000,0.000000,0.000000,0.000000,0.000000,
2251,1993,-0.0502923589470541,-14.2541955388086,-0.00150000029742614,0.000000,0.000000,0.000000,0.000000,0.000000,331.165505,23.319354,-1.000000,0.990571,0.007154,0.270714,0.000000,0.000000,0.000000,0.000000,0.000000,0.000000,0.000000,
2266,1993,0.279214391593332,-14.2582190865078,0.0243956537325403,0.000000,0.000000,0.000000,0.000000,0.000000,331.358065,23.181533,-1.000000,0.965474,0.012195,0.301224,0.000000,0.000000,0.000000,0.000000,0.000000,0.000000,0.000000,
2206,1993,-1.03092952159424,-14.2568518202496,0.0264353364826775,0.000000,0.000000,0.000000,0.000000,0.000000,331.496307,23.598684,-1.000000,0.984106,0.008154,0.307395,0.000000,0.000000,0.000000,0.000000,0.000000,0.000000,0.000000,
2071,1993,-3.97688229027616,-14.2523131290685,0.0235603339070281,0.000000,0.000000,0.000000,0.000000,0.000000,331.998279,24.591465,-1.000000,0.980746,0.008626,0.263310,0.000000,0.000000,0.000000,0.000000,0.000000,0.000000,0.000000,
2146,1993,-2.34050441377357,-14.2550372938438,0.027335130510437,0.000000,0.000000,0.000000,0.000000,0.000000,331.694264,24.045257,-1.000000,0.983597,0.007987,0.283085,0.000000,0.000000,0.000000,0.000000,0.000000,0.000000,0.000000,
2161,1993,-2.01318844722349,-14.254131429149,0.0270335845854675,0.000000,0.000000,0.000000,0.000000,0.000000,331.636916,24.056324,-1.000000,0.983191,0.008231,0.166592,0.000000,0.000000,0.000000,0.000000,0.000000,0.000000,0.000000,
2176,1993,-1.68497352762695,-14.2571993374163,0.0389956711147761,0.000000,0.000000,0.000000,0.000000,0.000000,331.687480,23.845790,-1.000000,0.982760,0.008452,0.271012,0.000000,0.000000,0.000000,0.000000,0.000000,0.000000,0.000000,
2191,1993,-1.35819458260736,-14.256727402074,0.0294062557006214,0.000000,0.000000,0.000000,0.000000,0.000000,331.562194,23.711548,-1.000000,0.985007,0.008215,0.300001,0.000000,0.000000,0.000000,0.000000,0.000000,0.000000,0.000000,
2011,1993,-5.2846625361705,-14.2522349178753,0.0304154139309389,0.000000,0.000000,0.000000,0.000000,0.000000,332.401833,24.951900,-1.000000,0.982537,0.008221,0.322201,0.000000,0.000000,0.000000,0.000000,0.000000,0.000000,0.000000,
2026,1993,-4.95764977389331,-14.2522364385305,0.0307457184338773,0.000000,0.000000,0.000000,0.000000,0.000000,332.311368,24.886580,-1.000000,0.983058,0.008240,0.282699,0.000000,0.000000,0.000000,0.000000,0.000000,0.000000,0.000000,
2041,1993,-4.63109557155385,-14.2520667719839,0.0228396109671962,0.000000,0.000000,0.000000,0.000000,0.000000,332.157075,24.742995,-1.000000,0.982985,0.008241,0.321753,0.000000,0.000000,0.000000,0.000000,0.000000,0.000000,0.000000,
2281,1993,0.607280652771298,-14.2585867074948,0.0297730023164036,0.000000,0.000000,0.000000,0.000000,0.000000,331.383137,23.142419,-1.000000,0.969250,0.011598,0.234152,0.000000,0.000000,0.000000,0.000000,0.000000,0.000000,0.000000,
2296,1993,0.934799141587266,-14.2590992518288,0.0269648303146823,0.000000,0.000000,0.000000,0.000000,0.000000,331.344853,22.996706,-1.000000,0.965571,0.012223,0.273837,0.000000,0.000000,0.000000,0.000000,0.000000,0.000000,0.000000,
2056,1993,-4.30386306141873,-14.252877270294,0.0254922991894659,0.000000,0.000000,0.000000,0.000000,0.000000,332.094834,24.630798,-1.000000,0.981272,0.008525,0.328902,0.000000,0.000000,0.000000,0.000000,0.000000,0.000000,0.000000,
2311,1993,1.26276246522986,-14.2594663553227,0.0296625895253442,0.000000,0.000000,0.000000,0.000000,0.000000,331.356450,22.927252,-1.000000,0.979235,0.009892,0.236991,0.000000,0.000000,0.000000,0.000000,0.000000,0.000000,0.000000,
2326,1993,1.59036867359064,-14.2596245528188,0.0269860430432232,0.000000,0.000000,0.000000,0.000000,0.000000,331.327772,22.815534,-1.000000,0.972138,0.010186,0.242680,0.000000,0.000000,0.000000,0.000000,0.000000,0.000000,0.000000,
2431,1993,3.88671765576541,-14.2628572466494,0.032870981668907,0.000000,0.000000,0.000000,0.000000,0.000000,331.454413,22.124258,-1.000000,0.976456,0.009731,0.187942,0.000000,0.000000,0.000000,0.000000,0.000000,0.000000,0.000000,
2446,1993,4.21410597525966,-14.2626534759912,0.0233723081319113,0.000000,0.000000,0.000000,0.000000,0.000000,331.403884,21.968389,-1.000000,0.976260,0.009738,0.237436,0.000000,0.000000,0.000000,0.000000,0.000000,0.000000,0.000000,
2461,1993,4.54288565871972,-14.2641197754811,0.0302974482298168,0.000000,0.000000,0.000000,0.000000,0.000000,331.494862,21.848179,-1.000000,0.968416,0.010766,0.250506,0.000000,0.000000,0.000000,0.000000,0.000000,0.000000,0.000000,
2476,1993,4.8721936925136,-14.2663934082483,0.0428357248622433,0.000000,0.000000,0.000000,0.000000,0.000000,331.637241,21.718663,-1.000000,0.970513,0.010347,0.272358,0.000000,0.000000,0.000000,0.000000,0.000000,0.000000,0.000000,
2491,1993,5.19980060466737,-14.2660102090282,0.0345186533655806,0.000000,0.000000,0.000000,0.000000,0.000000,331.609556,21.592972,-1.000000,0.968980,0.011251,0.291432,0.000000,0.000000,0.000000,0.000000,0.000000,0.000000,0.000000,
2416,1993,3.55957439921025,-14.2645829558874,0.0448751396631337,0.000000,0.000000,0.000000,0.000000,0.000000,331.530880,22.170151,-1.000000,0.975314,0.010076,0.248214,0.000000,0.000000,0.000000,0.000000,0.000000,0.000000,0.000000,
2341,1993,1.91818111244045,-14.2601794115872,0.0264680311527741,0.000000,0.000000,0.000000,0.000000,0.000000,331.321546,22.692449,-1.000000,0.976731,0.009821,0.259401,0.000000,0.000000,0.000000,0.000000,0.000000,0.000000,0.000000,
2356,1993,2.24622426903423,-14.2610611747197,0.0283684028266293,0.000000,0.000000,0.000000,0.000000,0.000000,331.339899,22.567321,-1.000000,0.967322,0.011772,0.278048,0.000000,0.000000,0.000000,0.000000,0.000000,0.000000,0.000000,
2371,1993,2.57452345902782,-14.2619974603505,0.0329743242872951,0.000000,0.000000,0.000000,0.000000,0.000000,331.385078,22.468253,-1.000000,0.967975,0.011532,0.270472,0.000000,0.000000,0.000000,0.000000,0.000000,0.000000,0.000000,
2506,1993,5.52834572681255,-14.2661819278056,0.0368942486787205,0.000000,0.000000,0.000000,0.000000,0.000000,331.675279,21.539092,-1.000000,0.974239,0.010254,0.238171,0.000000,0.000000,0.000000,0.000000,0.000000,0.000000,0.000000,
2401,1993,3.23105312514803,-14.2639062252924,0.0393542584831721,0.000000,0.000000,0.000000,0.000000,0.000000,331.465113,22.234775,-1.000000,0.970254,0.010641,0.290530,0.000000,0.000000,0.000000,0.000000,0.000000,0.000000,0.000000,
2506,2008,5.52510168418113,-13.9371626051122,0.0354749106840586,0.000000,0.000000,0.000000,0.000000,0.000000,331.421995,21.523046,-1.000000,0.976478,0.010004,0.319066,0.000000,0.000000,0.000000,0.000000,0.000000,0.000000,0.000000,
2386,1993,2.90290537872171,-14.2632091973163,0.0379490914854159,0.000000,0.000000,0.000000,0.000000,0.000000,331.437840,22.348409,-1.000000,0.962903,0.011913,0.283599,0.000000,0.000000,0.000000,0.000000,0.000000,0.000000,0.000000,
2386,2008,2.89938071129265,-13.9320255513307,0.0300358992044494,0.000000,0.000000,0.000000,0.000000,0.000000,331.129938,22.454727,-1.000000,0.973191,0.009972,0.224577,0.000000,0.000000,0.000000,0.000000,0.000000,0.000000,0.000000,
2056,2038,-4.31108665341062,-13.2646004353225,0.0170577577424638,0.000000,0.000000,0.000000,0.000000,0.000000,331.303943,24.647708,-1.000000,0.981990,0.008294,0.307215,0.000000,0.000000,0.000000,0.000000,0.000000,0.000000,0.000000,
2056,2068,-4.31579127464454,-12.6062338170995,0.0133870256189539,0.000000,0.000000,0.000000,0.000000,0.000000,330.792576,24.665896,-1.000000,0.979375,0.008688,0.285337,0.000000,0.000000,0.000000,0.000000,0.000000,0.000000,0.000000,
2056,2098,-4.32054636449708,-11.9487045565468,0.0089371553895603,0.000000,0.000000,0.000000,0.000000,0.000000,330.274817,24.622100,-1.000000,0.980667,0.008535,0.325125,0.000000,0.000000,0.000000,0.000000,0.000000,0.000000,0.000000,
2056,2128,-4.32543538715443,-11.2903664880602,0.00255206984405731,0.000000,0.000000,0.000000,0.000000,0.000000,329.740215,24.653931,-1.000000,0.982374,0.008501,0.288935,0.000000,0.000000,0.000000,0.000000,0.000000,0.000000,0.000000,
2056,2158,-4.32979131173418,-10.6335847120199,0.00485418105137114,0.000000,0.000000,0.000000,0.000000,0.000000,329.277937,24.659672,-1.000000,0.986006,0.007701,0.278106,0.000000,0.000000,0.000000,0.000000,0.000000,0.000000,0.000000,
2056,2188,-4.33430530051955,-9.97764477977581,0.00462123958129723,0.000000,0.000000,0.000000,0.000000,0.000000,328.794757,24.582590,-1.000000,0.985724,0.007620,0.350021,0.000000,0.000000,0.000000,0.000000,0.000000,0.000000,0.000000,
2056,2218,-4.33845591747774,-9.32112675903626,0.0105551940573605,0.000000,0.000000,0.000000,0.000000,0.000000,328.361963,24.643302,-1.000000,0.982581,0.008001,0.283485,0.000000,0.000000,0.000000,0.000000,0.000000,0.000000,0.000000,
2056,2248,-4.34341088683824,-8.66462308191429,0.00348114807945876,0.000000,0.000000,0.000000,0.000000,0.000000,327.821081,24.588800,-1.000000,0.985491,0.007586,0.332231,0.000000,0.000000,0.000000,0.000000,0.000000,0.000000,0.000000,
2056,2278,-4.34839780223006,-8.00665169679713,-0.00380002098211207,0.000000,0.000000,0.000000,0.000000,0.000000,327.277309,24.688871,-1.000000,0.991188,0.006811,0.226304,0.000000,0.000000,0.000000,0.000000,0.000000,0.000000,0.000000,
2056,2308,-4.35253399482094,-7.35298837411464,0.00249868592942448,0.000000,0.000000,0.000000,0.000000,0.000000,326.847957,24.553542,-1.000000,0.991112,0.006745,0.354819,0.000000,0.000000,0.000000,0.000000,0.000000,0.000000,0.000000,
2056,2338,-4.3571766451097,-6.69704911807376,0.000918862025002909,0.000000,0.000000,0.000000,0.000000,0.000000,326.351751,24.567220,-1.000000,0.985699,0.007429,0.334478,0.000000,0.000000,0.000000,0.000000,0.000000,0.000000,0.000000,
2056,2368,-4.36252857827523,-6.04015323764955,-0.012001350461901,0.000000,0.000000,0.000000,0.000000,0.000000,325.760621,24.579157,-1.000000,0.984713,0.007637,0.315735,0.000000,0.000000,0.000000,0.000000,0.000000,0.000000,0.000000,
2056,2398,-4.36686122899129,-5.3867517147171,-0.00848265793757719,0.000000,0.000000,0.000000,0.000000,0.000000,325.307270,24.452361,-1.000000,0.986272,0.007339,0.435048,0.000000,0.000000,0.000000,0.000000,0.000000,0.000000,0.000000,
2056,2428,-4.37178471148144,-4.73046985183448,-0.0141740725222803,0.000000,0.000000,0.000000,0.000000,0.000000,324.775639,24.521069,-1.000000,0.985109,0.007423,0.358885,0.000000,0.000000,0.000000,0.000000,0.000000,0.000000,0.000000,
2056,2458,-4.37623467276925,-4.07628093610267,-0.0121949742211882,0.000000,0.000000,0.000000,0.000000,0.000000,324.308382,24.490829,-1.000000,0.986578,0.007483,0.380964,0.000000,0.000000,0.000000,0.000000,0.000000,0.000000,0.000000,
2056,2488,-4.38083169124309,-3.42102474555033,-0.0123703960093167,0.000000,0.000000,0.000000,0.000000,0.000000,323.822334,24.557524,-1.000000,0.988762,0.007066,0.305927,0.000000,0.000000,0.000000,0.000000,0.000000,0.000000,0.000000,
2056,2518,-4.38558944974512,-2.76736862428636,-0.0151704077282488,0.000000,0.000000,0.000000,0.000000,0.000000,323.314951,24.473652,-1.000000,0.989981,0.006417,0.381251,0.000000,0.000000,0.000000,0.000000,0.000000,0.000000,0.000000,
2056,2548,-4.39068059937625,-2.11286687247932,-0.0231861602444496,0.000000,0.000000,0.000000,0.000000,0.000000,322.763429,24.440961,-1.000000,0.989785,0.006393,0.405538,0.000000,0.000000,0.000000,0.000000,0.000000,0.000000,0.000000,
2056,2578,-4.39518962847361,-1.4592346990975,-0.0216378231303906,0.000000,0.000000,0.000000,0.000000,0.000000,322.291442,24.433266,-1.000000,0.989038,0.006471,0.404159,0.000000,0.000000,0.000000,0.000000,0.000000,0.000000,0.000000,
2056,2608,-4.39999667399876,-0.805149351806286,-0.0247673157015811,0.000000,0.000000,0.000000,0.000000,0.000000,321.779988,24.445388,-1.000000,0.989223,0.006356,0.382622,0.000000,0.000000,0.000000,0.000000,0.000000,0.000000,0.000000,
2056,2638,-4.40468430255847,-0.151433387579274,-0.0258375211012094,0.000000,0.000000,0.000000,0.000000,0.000000,321.285479,24.460619,-1.000000,0.989416,0.006454,0.357857,0.000000,0.000000,0.000000,0.000000,0.000000,0.000000,0.000000,
2056,2668,-4.40901135403479,0.501086623753814,-0.0209804824058324,0.000000,0.000000,0.000000,0.000000,0.000000,320.840516,24.434243,-1.000000,0.989860,0.006427,0.374292,0.000000,0.000000,0.000000,0.000000,0.000000,0.000000,0.000000,
2056,2698,-4.41365879353149,1.15384906084594,-0.0211814086266031,0.000000,0.000000,0.000000,0.000000,0.000000,320.353018,24.405784,-1.000000,0.991385,0.005866,0.392703,0.000000,0.000000,0.000000,0.000000,0.000000,0.000000,0.000000,
2056,2728,-4.41889911547696,1.80782772216124,-0.0308114521420748,0.000000,0.000000,0.000000,0.000000,0.000000,319.786086,24.431466,-1.000000,0.990835,0.005908,0.356990,0.000000,0.000000,0.000000,0.000000,0.000000,0.000000,0.000000,
2056,2758,-4.42310581121349,2.45944999595242,-0.0236255401040353,0.000000,0.000000,0.000000,0.000000,0.000000,319.359923,24.394225,-1.000000,0.990849,0.006118,0.383492,0.000000,0.000000,0.000000,0.000000,0.000000,0.000000,0.000000,
2056,2788,-4.42783575352753,3.11227511421762,-0.0247377338718024,0.000000,0.000000,0.000000,0.000000,0.000000,318.863745,24.418898,-1.000000,0.989543,0.006323,0.347922,0.000000,0.000000,0.000000,0.000000,0.000000,0.000000,0.000000,
2056,2818,-4.43253793108974,3.76446818555257,-0.0252966895191662,0.000000,0.000000,0.000000,0.000000,0.000000,318.372135,24.407739,-1.000000,0.989961,0.006271,0.348205,0.000000,0.000000,0.000000,0.000000,0.000000,0.000000,0.000000,
2056,2848,-4.43691496332729,4.41589020466213,-0.0204650993134692,0.000000,0.000000,0.000000,0.000000,0.000000,317.925462,24.383632,-1.000000,0.990732,0.006019,0.361092,0.000000,0.000000,0.000000,0.000000,0.000000,0.000000,0.000000,
2056,2878,-4.44115683741553,5.06694414297397,-0.0133097767688923,0.000000,0.000000,0.000000,0.000000,0.000000,317.498002,24.358651,-1.000000,0.989962,0.006341,0.374416,0.000000,0.000000,0.000000,0.000000,0.000000,0.000000,0.000000,
2056,2908,-4.44574540469004,5.71854334882999,-0.011623297545782,0.000000,0.000000,0.000000,0.000000,0.000000,317.024373,24.359561,-1.000000,0.992672,0.005571,0.362072,0.000000,0.000000,0.000000,0.000000,0.000000,0.000000,0.000000,
2056,2938,-4.45005491675362,6.36933143600528,-0.00529412222113024,0.000000,0.000000,0.000000,0.000000,0.000000,316.589504,24.335100,-1.000000,0.991987,0.005624,0.374682,0.000000,0.000000,0.000000,0.000000,0.000000,0.000000,0.000000,
2056,2968,-4.454410270615,7.01988511863621,0.00042276935010932,0.000000,0.000000,0.000000,0.000000,0.000000,316.149320,24.299825,-1.000000,0.991656,0.005581,0.397679,0.000000,0.000000,0.000000,0.000000,0.000000,0.000000,0.000000,
2056,2998,-4.45890363322124,7.67124598252613,0.00407666593520162,0.000000,0.000000,0.000000,0.000000,0.000000,315.691212,24.339754,-1.000000,0.990539,0.005910,0.345494,0.000000,0.000000,0.000000,0.000000,0.000000,0.000000,0.000000,
2056,3028,-4.46375315785354,8.32179320903274,0.00204182670501041,0.000000,0.000000,0.000000,0.000000,0.000000,315.185708,24.282565,-1.000000,0.992066,0.005718,0.390303,0.000000,0.000000,0.000000,0.000000,0.000000,0.000000,0.000000,
2056,3058,-4.46831298922186,8.97287735273031,0.00488742044893797,0.000000,0.000000,0.000000,0.000000,0.000000,314.720316,24.323180,-1.000000,0.993432,0.005279,0.337137,0.000000,0.000000,0.000000,0.000000,0.000000,0.000000,0.000000,
2056,3088,-4.4724549182961,9.6225412049511,0.0146200066819233,0.000000,0.000000,0.000000,0.000000,0.000000,314.312753,24.292059,-1.000000,0.992514,0.005487,0.355564,0.000000,0.000000,0.000000,0.000000,0.000000,0.000000,0.000000,
2056,3118,-4.47652266418727,10.2722331209868,0.0257081064073077,0.000000,0.000000,0.000000,0.000000,0.000000,313.916180,24.285016,-1.000000,0.993798,0.004930,0.349700,0.000000,0.000000,0.000000,0.000000,0.000000,0.000000,0.000000,
2056,3148,-4.48071187366089,10.9216500090728,0.0349588519391659,0.000000,0.000000,0.000000,0.000000,0.000000,313.504089,24.254042,-1.000000,0.993872,0.004938,0.367529,0.000000,0.000000,0.000000,0.000000,0.000000,0.000000,0.000000,
2056,3178,-4.48513449616303,11.5712853933105,0.0405678288261129,0.000000,0.000000,0.000000,0.000000,0.000000,313.061168,24.234466,-1.000000,0.994148,0.005005,0.374032,0.000000,0.000000,0.000000,0.000000,0.000000,0.000000,0.000000,
2056,3208,-4.4898633291251,12.2212650476461,0.0413525629651303,0.000000,0.000000,0.000000,0.000000,0.000000,312.577461,24.232396,-1.000000,0.993806,0.004955,0.362365,0.000000,0.000000,0.000000,0.000000,0.000000,0.000000,0.000000,
2056,3238,-4.49435042423706,12.8708251514278,0.0462044863405708,0.000000,0.000000,0.000000,0.000000,0.000000,312.127592,24.229521,-1.000000,0.994496,0.004760,0.351884,0.000000,0.000000,0.000000,0.000000,0.000000,0.000000,0.000000,
2056,3268,-4.49947338634013,13.5207255458036,0.0408683360125792,0.000000,0.000000,0.000000,0.000000,0.000000,311.592094,24.215480,-1.000000,0.995370,0.004576,0.352172,0.000000,0.000000,0.000000,0.000000,0.000000,0.000000,0.000000,
2071,2023,-3.98195354176256,-13.5933595075762,0.0148074223885715,0.000000,0.000000,0.000000,0.000000,0.000000,331.445080,24.571787,-1.000000,0.984221,0.007994,0.284483,0.000000,0.000000,0.000000,0.000000,0.000000,0.000000,0.000000,
2071,2053,-3.98603503093999,-12.9366171036448,0.0219339134280858,0.000000,0.000000,0.000000,0.000000,0.000000,331.023950,24.552064,-1.000000,0.977854,0.009079,0.304448,0.000000,0.000000,0.000000,0.000000,0.000000,0.000000,0.000000,
2071,2083,-3.99190521127496,-12.2761788658802,0.000747598604561972,0.000000,0.000000,0.000000,0.000000,0.000000,330.366305,24.577412,-1.000000,0.968311,0.011014,0.280453,0.000000,0.000000,0.000000,0.000000,0.000000,0.000000,0.000000,
2071,2113,-3.99521091890317,-11.6205881736351,0.0205719858708449,0.000000,0.000000,0.000000,0.000000,0.000000,330.050100,24.634107,-1.000000,0.982166,0.008316,0.222705,0.000000,0.000000,0.000000,0.000000,0.000000,0.000000,0.000000,
2071,2143,-4.00020315785122,-10.9631239373234,0.0135041132379001,0.000000,0.000000,0.000000,0.000000,0.000000,329.510041,24.589173,-1.000000,0.984395,0.008021,0.267718,0.000000,0.000000,0.000000,0.000000,0.000000,0.000000,0.000000,
2071,2173,-4.00488123609014,-10.3065118636522,0.011559388402361,0.000000,0.000000,0.000000,0.000000,0.000000,329.012441,24.544057,-1.000000,0.985756,0.007639,0.312014,0.000000,0.000000,0.000000,0.000000,0.000000,0.000000,0.000000,
2071,2203,-4.00967633193845,-9.65001472921185,0.00785781920467343,0.000000,0.000000,0.000000,0.000000,0.000000,328.499972,24.491783,-1.000000,0.983076,0.007987,0.363575,0.000000,0.000000,0.000000,0.000000,0.000000,0.000000,0.000000,
2071,2233,-4.01444834803352,-8.99232773459913,0.00481317356434374,0.000000,0.000000,0.000000,0.000000,0.000000,327.991925,24.576837,-1.000000,0.985351,0.007384,0.277394,0.000000,0.000000,0.000000,0.000000,0.000000,0.000000,0.000000,
2071,2263,-4.01916493456688,-8.33651627344069,0.00259092629880797,0.000000,0.000000,0.000000,0.000000,0.000000,327.491302,24.520814,-1.000000,0.987076,0.007311,0.331798,0.000000,0.000000,0.000000,0.000000,0.000000,0.000000,0.000000,
2071,2293,-4.02400943985539,-7.68061835638133,-0.00154134834821207,0.000000,0.000000,0.000000,0.000000,0.000000,326.974423,24.474763,-1.000000,0.993595,0.006248,0.376131,0.000000,0.000000,0.000000,0.000000,0.000000,0.000000,0.000000,
2071,2323,-4.02869767532561,-7.02472634449894,-0.00300810650276162,0.000000,0.000000,0.000000,0.000000,0.000000,326.479261,24.476160,-1.000000,0.988293,0.007102,0.372488,0.000000,0.000000,0.000000,0.000000,0.000000,0.000000,0.000000,
2071,2353,-4.03331105686824,-6.36874107690773,-0.00311670918955542,0.000000,0.000000,0.000000,0.000000,0.000000,325.994943,24.520051,-1.000000,0.983006,0.007897,0.325831,0.000000,0.000000,0.000000,0.000000,0.000000,0.000000,0.000000,
2071,2383,-4.03803723775832,-5.71309034181494,-0.00494112193985075,0.000000,0.000000,0.000000,0.000000,0.000000,325.496204,24.537068,-1.000000,0.983767,0.007821,0.306092,0.000000,0.000000,0.000000,0.000000,0.000000,0.000000,0.000000,
2071,2413,-4.04277493403948,-5.05874736537081,-0.00694214462026821,0.000000,0.000000,0.000000,0.000000,0.000000,324.996309,24.453352,-1.000000,0.984771,0.007527,0.386784,0.000000,0.000000,0.000000,0.000000,0.000000,0.000000,0.000000,
2071,2443,-4.04716505601294,-4.4039939606085,-0.00315660598113254,0.000000,0.000000,0.000000,0.000000,0.000000,324.543862,24.481525,-1.000000,0.987765,0.007006,0.355098,0.000000,0.000000,0.000000,0.000000,0.000000,0.000000,0.000000,
2071,2473,-4.05175256081589,-3.74975026717308,-0.002463010126462,0.000000,0.000000,0.000000,0.000000,0.000000,324.065664,24.453200,-1.000000,0.989147,0.007022,0.379427,0.000000,0.000000,0.000000,0.000000,0.000000,0.000000,0.000000,
2071,2503,-4.05706651047708,-3.09457273118171,-0.0132500388265839,0.000000,0.000000,0.000000,0.000000,0.000000,323.491276,24.425540,-1.000000,0.990531,0.006356,0.403355,0.000000,0.000000,0.000000,0.000000,0.000000,0.000000,0.000000,
2071,2533,-4.06182207517721,-2.4397260287839,-0.0149325115805823,0.000000,0.000000,0.000000,0.000000,0.000000,322.992292,24.471167,-1.000000,0.990848,0.006235,0.353756,0.000000,0.000000,0.000000,0.000000,0.000000,0.000000,0.000000,
2071,2563,-4.06719996531627,-1.78477796603821,-0.0264952242451386,0.000000,0.000000,0.000000,0.000000,0.000000,322.410783,24.458910,-1.000000,0.989419,0.006531,0.361781,0.000000,0.000000,0.000000,0.000000,0.000000,0.000000,0.000000,
2071,2593,-4.07206274001726,-1.13082414899724,-0.0297092827259462,0.000000,0.000000,0.000000,0.000000,0.000000,321.898778,24.449978,-1.000000,0.988952,0.006484,0.365897,0.000000,0.000000,0.000000,0.000000,0.000000,0.000000,0.000000,
2071,2623,-4.07662756812515,-0.477870220053518,-0.0280701923753099,0.000000,0.000000,0.000000,0.000000,0.000000,321.427270,24.410399,-1.000000,0.989202,0.006444,0.400378,0.000000,0.000000,0.000000,0.000000,0.000000,0.000000,0.000000,
2071,2653,-4.08144670701301,0.176099898217878,-0.0303070070911531,0.000000,0.000000,0.000000,0.000000,0.000000,320.922660,24.449642,-1.000000,0.989299,0.006455,0.355836,0.000000,0.000000,0.000000,0.000000,0.000000,0.000000,0.000000,
2071,2683,-4.08589861892604,0.828632827732989,-0.0266080949937759,0.000000,0.000000,0.000000,0.000000,0.000000,320.467802,24.425057,-1.000000,0.991316,0.005899,0.374873,0.000000,0.000000,0.000000,0.000000,0.000000,0.000000,0.000000,
2071,2713,-4.091108700991,1.48226305295869,-0.0348917899213461,0.000000,0.000000,0.000000,0.000000,0.000000,319.912331,24.421370,-1.000000,0.990856,0.005922,0.372951,0.000000,0.000000,0.000000,0.000000,0.000000,0.000000,0.000000,
2071,2743,-4.09514561191571,2.13369965422361,-0.0243192833273156,0.000000,0.000000,0.000000,0.000000,0.000000,319.514545,24.386793,-1.000000,0.990826,0.006066,0.401212,0.000000,0.000000,0.000000,0.000000,0.000000,0.000000,0.000000,
2071,2773,-4.09966407808832,2.7862987977102,-0.0212760455792136,0.000000,0.000000,0.000000,0.000000,0.000000,319.053176,24.414982,-1.000000,0.990466,0.006227,0.366910,0.000000,0.000000,0.000000,0.000000,0.000000,0.000000,0.000000,
2071,2803,-4.10457107127909,3.43874553196319,-0.0243570804880164,0.000000,0.000000,0.000000,0.000000,0.000000,318.540539,24.399094,-1.000000,0.990604,0.006152,0.376166,0.000000,0.000000,0.000000,0.000000,0.000000,0.000000,0.000000,
2071,2833,-4.10863646931331,4.09060499481891,-0.0138050212127609,0.000000,0.000000,0.000000,0.000000,0.000000,318.141407,24.450398,-1.000000,0.991794,0.005798,0.318035,0.000000,0.000000,0.000000,0.000000,0.000000,0.000000,0.000000,
2071,2863,-4.1135339649464,4.74224370416055,-0.0165104139587129,0.000000,0.000000,0.000000,0.000000,0.000000,317.631607,24.397853,-1.000000,0.991259,0.006018,0.363643,0.000000,0.000000,0.000000,0.000000,0.000000,0.000000,0.000000,
2071,2893,-4.1184000285348,5.39449984746526,-0.0185382654365185,0.000000,0.000000,0.000000,0.000000,0.000000,317.126791,24.424889,-1.000000,0.991911,0.005920,0.329648,0.000000,0.000000,0.000000,0.000000,0.000000,0.000000,0.000000,
2071,2923,-4.12247944057345,6.0448340025578,-0.00788943550594468,0.000000,0.000000,0.000000,0.000000,0.000000,316.728249,24.383114,-1.000000,0.992122,0.005652,0.363909,0.000000,0.000000,0.000000,0.000000,0.000000,0.000000,0.000000,
2071,2953,-4.12718659496533,6.69622499311529,-0.00713696475759207,0.000000,0.000000,0.000000,0.000000,0.000000,316.246358,24.383278,-1.000000,0.991719,0.005684,0.356202,0.000000,0.000000,0.000000,0.000000,0.000000,0.000000,0.000000,
2071,2983,-4.13156764164892,7.34651463813626,-0.00106023585510684,0.000000,0.000000,0.000000,0.000000,0.000000,315.809069,24.335038,-1.000000,0.991910,0.005532,0.396773,0.000000,0.000000,0.000000,0.000000,0.000000,0.000000,0.000000,
2071,3013,-4.13510204967117,7.9962330108036,0.0187364361908635,0.000000,0.000000,0.000000,0.000000,0.000000,315.486190,24.340857,-1.000000,0.992144,0.005517,0.382983,0.000000,0.000000,0.000000,0.000000,0.000000,0.000000,0.000000,
2071,3043,-4.14046734085894,8.64823667661078,0.00934991958013143,0.000000,0.000000,0.000000,0.000000,0.000000,314.918419,24.376322,-1.000000,0.993264,0.005262,0.339368,0.000000,0.000000,0.000000,0.000000,0.000000,0.000000,0.000000,
2071,3073,-4.14493099896407,9.29806982181531,0.0144965394010228,0.000000,0.000000,0.000000,0.000000,0.000000,314.472613,24.324117,-1.000000,0.991951,0.005570,0.383359,0.000000,0.000000,0.000000,0.000000,0.000000,0.000000,0.000000,
2071,3103,-4.14907325000655,9.94790013004185,0.0249478622032484,0.000000,0.000000,0.000000,0.000000,0.000000,314.070766,24.319400,-1.000000,0.993132,0.005250,0.379581,0.000000,0.000000,0.000000,0.000000,0.000000,0.000000,0.000000,
2071,3133,-4.15345437202835,10.5978201774803,0.0317044123958681,0.000000,0.000000,0.000000,0.000000,0.000000,313.637717,24.313084,-1.000000,0.994419,0.004705,0.377291,0.000000,0.000000,0.000000,0.000000,0.000000,0.000000,0.000000,
2071,3163,-4.15804000134347,11.2484174234189,0.0353360592933427,0.000000,0.000000,0.000000,0.000000,0.000000,313.177928,24.364054,-1.000000,0.995108,0.004678,0.317526,0.000000,0.000000,0.000000,0.000000,0.000000,0.000000,0.000000,
2071,3193,-4.16286552716363,11.8983101367114,0.0352292912342591,0.000000,0.000000,0.000000,0.000000,0.000000,312.686913,24.342648,-1.000000,0.994699,0.004686,0.330162,0.000000,0.000000,0.000000,0.000000,0.000000,0.000000,0.000000,
2071,3223,-4.16724848375228,12.5473575566518,0.0423490519846155,0.000000,0.000000,0.000000,0.000000,0.000000,312.256334,24.299898,-1.000000,0.993780,0.004996,0.363745,0.000000,0.000000,0.000000,0.000000,0.000000,0.000000,0.000000,
2071,3253,-4.1723566825274,13.1976480980604,0.0379904842839096,0.000000,0.000000,0.000000,0.000000,0.000000,311.728922,24.320695,-1.000000,0.995095,0.004703,0.333757,0.000000,0.000000,0.000000,0.000000,0.000000,0.000000,0.000000,
2086,2038,-3.65676518184342,-13.2657764212766,0.0211230213324711,0.000000,0.000000,0.000000,0.000000,0.000000,331.181608,24.450955,-1.000000,0.983984,0.008201,0.306917,0.000000,0.000000,0.000000,0.000000,0.000000,0.000000,0.000000,
2086,2068,-3.66171582678301,-12.60713296941,0.0155332144881868,0.000000,0.000000,0.000000,0.000000,0.000000,330.654019,24.473770,-1.000000,0.961823,0.012448,0.289040,0.000000,0.000000,0.000000,0.000000,0.000000,0.000000,0.000000,
2086,2098,-3.6677992749972,-11.9455968173072,-0.00764751925004248,0.000000,0.000000,0.000000,0.000000,0.000000,329.978927,24.591228,-1.000000,0.966778,0.011622,0.177477,0.000000,0.000000,0.000000,0.000000,0.000000,0.000000,0.000000,
2086,2128,-3.67174958132703,-11.2904799715308,0.00257831319476054,0.000000,0.000000,0.000000,0.000000,0.000000,329.583279,24.512376,-1.000000,0.984992,0.007849,0.259911,0.000000,0.000000,0.000000,0.000000,0.000000,0.000000,0.000000,
2086,2158,-3.67626428726751,-10.634080852742,0.00409231918064279,0.000000,0.000000,0.000000,0.000000,0.000000,329.114493,24.476080,-1.000000,0.984162,0.007982,0.299894,0.000000,0.000000,0.000000,0.000000,0.000000,0.000000,0.000000,
2086,2188,-3.68060964477706,-9.97798565572243,0.00841374420679131,0.000000,0.000000,0.000000,0.000000,0.000000,328.668751,24.462374,-1.000000,0.983948,0.007933,0.317062,0.000000,0.000000,0.000000,0.000000,0.000000,0.000000,0.000000,
2086,2218,-3.68534658964771,-9.32110103772756,0.00671745603358431,0.000000,0.000000,0.000000,0.000000,0.000000,328.172390,24.478079,-1.000000,0.983240,0.007811,0.304685,0.000000,0.000000,0.000000,0.000000,0.000000,0.000000,0.000000,
2086,2248,-3.69055021096093,-8.66437677666051,-0.00230503251299297,0.000000,0.000000,0.000000,0.000000,0.000000,327.615030,24.425530,-1.000000,0.985579,0.007354,0.360471,0.000000,0.000000,0.000000,0.000000,0.000000,0.000000,0.000000,
2086,2278,-3.69512468917342,-8.00791208477449,-0.00118447692250356,0.000000,0.000000,0.000000,0.000000,0.000000,327.141471,24.474994,-1.000000,0.988782,0.006986,0.313533,0.000000,0.000000,0.000000,0.000000,0.000000,0.000000,0.000000,
2086,2308,-3.70021113011647,-7.35185549135946,-0.00813733585306409,0.000000,0.000000,0.000000,0.000000,0.000000,326.600827,24.427035,-1.000000,0.989511,0.007025,0.364072,0.000000,0.000000,0.000000,0.000000,0.000000,0.000000,0.000000,
2086,2338,-3.70412516427008,-6.69751474348214,0.00355091597879209,0.000000,0.000000,0.000000,0.000000,0.000000,326.215292,24.427799,-1.000000,0.986377,0.007323,0.364825,0.000000,0.000000,0.000000,0.000000,0.000000,0.000000,0.000000,
2086,2368,-3.70936914674479,-6.04140158573582,-0.00563419186249803,0.000000,0.000000,0.000000,0.000000,0.000000,325.655351,24.405267,-1.000000,0.981501,0.008234,0.389296,0.000000,0.000000,0.000000,0.000000,0.000000,0.000000,0.000000,
2086,2398,-3.71418791071113,-5.38550835415138,-0.0079334835646705,0.000000,0.000000,0.000000,0.000000,0.000000,325.152262,24.451019,-1.000000,0.984139,0.007658,0.345133,0.000000,0.000000,0.000000,0.000000,0.000000,0.000000,0.000000,
2086,2428,-3.71889177025946,-4.73067535033375,-0.00837666837145434,0.000000,0.000000,0.000000,0.000000,0.000000,324.664764,24.437853,-1.000000,0.986860,0.007097,0.359500,0.000000,0.000000,0.000000,0.000000,0.000000,0.000000,0.000000,
2086,2458,-3.72414705430345,-4.07529562076837,-0.0174142313058496,0.000000,0.000000,0.000000,0.000000,0.000000,324.105256,24.414857,-1.000000,0.988777,0.006926,0.383400,0.000000,0.000000,0.000000,0.000000,0.000000,0.000000,0.000000,
2086,2488,-3.72892780369036,-3.42092546899941,-0.0188593079981274,0.000000,0.000000,0.000000,0.000000,0.000000,323.608935,24.390910,-1.000000,0.990014,0.006495,0.408025,0.000000,0.000000,0.000000,0.000000,0.000000,0.000000,0.000000,
2086,2518,-3.73307857386198,-2.76712007685065,-0.010196865410137,0.000000,0.000000,0.000000,0.000000,0.000000,323.196516,24.425941,-1.000000,0.991816,0.005938,0.373002,0.000000,0.000000,0.000000,0.000000,0.000000,0.000000,0.000000,
2086,2548,-3.73836472641279,-2.11286218253879,-0.0194302963060977,0.000000,0.000000,0.000000,0.000000,0.000000,322.634824,24.360721,-1.000000,0.991387,0.006166,0.438475,0.000000,0.000000,0.000000,0.000000,0.000000,0.000000,0.000000,
2086,2578,-3.74309100004161,-1.45822177141162,-0.0195912732743864,0.000000,0.000000,0.000000,0.000000,0.000000,322.147955,24.431221,-1.000000,0.988636,0.006672,0.367565,0.000000,0.000000,0.000000,0.000000,0.000000,0.000000,0.000000,
2086,2608,-3.74797008363837,-0.804007700220254,-0.0220917065794879,0.000000,0.000000,0.000000,0.000000,0.000000,321.641500,24.461551,-1.000000,0.988274,0.006722,0.336868,0.000000,0.000000,0.000000,0.000000,0.000000,0.000000,0.000000,
2086,2638,-3.75303089496398,-0.150359400959012,-0.0273986938075836,0.000000,0.000000,0.000000,0.000000,0.000000,321.111625,24.435772,-1.000000,0.988352,0.006639,0.362012,0.000000,0.000000,0.000000,0.000000,0.000000,0.000000,0.000000,
2086,2668,-3.75752236650871,0.502062552167637,-0.0236178614869686,0.000000,0.000000,0.000000,0.000000,0.000000,320.657607,24.392994,-1.000000,0.990789,0.006019,0.403884,0.000000,0.000000,0.000000,0.000000,0.000000,0.000000,0.000000,
2086,2698,-3.76257321890356,1.15570478677698,-0.0285058562051859,0.000000,0.000000,0.000000,0.000000,0.000000,320.130492,24.408639,-1.000000,0.991628,0.005749,0.386862,0.000000,0.000000,0.000000,0.000000,0.000000,0.000000,0.000000,
2086,2728,-3.7671691874332,1.80836858456152,-0.0261067154212355,0.000000,0.000000,0.000000,0.000000,0.000000,319.664161,24.412550,-1.000000,0.990216,0.006184,0.381391,0.000000,0.000000,0.000000,0.000000,0.000000,0.000000,0.000000,
2086,2758,-3.77225412027951,2.46129906067701,-0.0313297794942287,0.000000,0.000000,0.000000,0.000000,0.000000,319.133888,24.398185,-1.000000,0.990924,0.006128,0.394018,0.000000,0.000000,0.000000,0.000000,0.000000,0.000000,0.000000,
2086,2788,-3.77642262922608,3.11282662485267,-0.0219565654152234,0.000000,0.000000,0.000000,0.000000,0.000000,318.725518,24.387359,-1.000000,0.991021,0.006094,0.402908,0.000000,0.000000,0.000000,0.000000,0.000000,0.000000,0.000000,
2086,2818,-3.78099751697009,3.7654188148421,-0.018840420265974,0.000000,0.000000,0.000000,0.000000,0.000000,318.264178,24.441699,-1.000000,0.992468,0.005635,0.346374,0.000000,0.000000,0.000000,0.000000,0.000000,0.000000,0.000000,
2086,2848,-3.78528083790181,4.41611458539357,-0.0110819484874582,0.000000,0.000000,0.000000,0.000000,0.000000,317.842130,24.373156,-1.000000,0.993587,0.005357,0.412436,0.000000,0.000000,0.000000,0.000000,0.000000,0.000000,0.000000,
2086,2878,-3.79002936329102,5.06810806924423,-0.0105020307018435,0.000000,0.000000,0.000000,0.000000,0.000000,317.359288,24.386316,-1.000000,0.991440,0.006111,0.396470,0.000000,0.000000,0.000000,0.000000,0.000000,0.000000,0.000000,
2086,2908,-3.79474011874411,5.72013574306755,-0.00919227341762507,0.000000,0.000000,0.000000,0.000000,0.000000,316.882170,24.424829,-1.000000,0.992396,0.005742,0.355326,0.000000,0.000000,0.000000,0.000000,0.000000,0.000000,0.000000,
2086,2938,-3.79893486310072,6.37081346317208,0.000366545442204824,0.000000,0.000000,0.000000,0.000000,0.000000,316.474163,24.413973,-1.000000,0.991413,0.005851,0.362899,0.000000,0.000000,0.000000,0.000000,0.000000,0.000000,0.000000,
2086,2968,-3.80366653150707,7.0221504767722,0.00156568752265684,0.000000,0.000000,0.000000,0.000000,0.000000,315.995798,24.420067,-1.000000,0.991841,0.005688,0.353622,0.000000,0.000000,0.000000,0.000000,0.000000,0.000000,0.000000,
2086,2998,-3.80824132981379,7.67336953246191,0.00537850630882986,0.000000,0.000000,0.000000,0.000000,0.000000,315.538955,24.449246,-1.000000,0.993435,0.005169,0.321102,0.000000,0.000000,0.000000,0.000000,0.000000,0.000000,0.000000,
2086,3028,-3.81297333153877,8.32343858424812,0.00677355974107741,0.000000,0.000000,0.000000,0.000000,0.000000,315.062164,24.371978,-1.000000,0.992785,0.005347,0.394794,0.000000,0.000000,0.000000,0.000000,0.000000,0.000000,0.000000,
2086,3058,-3.8169275661774,8.97303228496365,0.0206276781307793,0.000000,0.000000,0.000000,0.000000,0.000000,314.689253,24.347559,-1.000000,0.992782,0.005355,0.415394,0.000000,0.000000,0.000000,0.000000,0.000000,0.000000,0.000000,
2086,3088,-3.82186654499587,9.62421159453009,0.0190497929795583,0.000000,0.000000,0.000000,0.000000,0.000000,314.186450,24.383254,-1.000000,0.991087,0.005830,0.375718,0.000000,0.000000,0.000000,0.000000,0.000000,0.000000,0.000000,
2086,3118,-3.8264963379819,10.2745812227983,0.0224766541380177,0.000000,0.000000,0.000000,0.000000,0.000000,313.725478,24.391799,-1.000000,0.994378,0.004875,0.363078,0.000000,0.000000,0.000000,0.000000,0.000000,0.000000,0.000000,
2086,3148,-3.83059676429417,10.924145431486,0.0344076950328827,0.000000,0.000000,0.000000,0.000000,0.000000,313.335590,24.392473,-1.000000,0.995536,0.004560,0.358318,0.000000,0.000000,0.000000,0.000000,0.000000,0.000000,0.000000,
2086,3178,-3.83528044484708,11.5734463173229,0.0372088543465452,0.000000,0.000000,0.000000,0.000000,0.000000,312.869255,24.326924,-1.000000,0.995489,0.004536,0.419523,0.000000,0.000000,0.000000,0.000000,0.000000,0.000000,0.000000,
2086,3208,-3.83970540573711,12.223530320452,0.0442734925707668,0.000000,0.000000,0.000000,0.000000,0.000000,312.437836,24.372651,-1.000000,0.994034,0.004921,0.368903,0.000000,0.000000,0.000000,0.000000,0.000000,0.000000,0.000000,
2086,3238,-3.84499453542886,12.8737873147538,0.0377608203713748,0.000000,0.000000,0.000000,0.000000,0.000000,311.892545,24.370827,-1.000000,0.994208,0.004949,0.366162,0.000000,0.000000,0.000000,0.000000,0.000000,0.000000,0.000000,
2086,3268,-3.85019967396791,13.5237000579777,0.0327028521071497,0.000000,0.000000,0.000000,0.000000,0.000000,311.359207,24.362058,-1.000000,0.995799,0.004432,0.369861,0.000000,0.000000,0.000000,0.000000,0.000000,0.000000,0.000000,
2101,2023,-3.32707395486927,-13.5954393898035,0.0254017341774215,0.000000,0.000000,0.000000,0.000000,0.000000,331.385942,24.366231,-1.000000,0.986480,0.008102,0.287953,0.000000,0.000000,0.000000,0.000000,0.000000,0.000000,0.000000,
2101,2053,-3.33184310079045,-12.9368114883712,0.0236077359434148,0.000000,0.000000,0.000000,0.000000,0.000000,330.889857,24.418554,-1.000000,0.974594,0.009992,0.245202,0.000000,0.000000,0.000000,0.000000,0.000000,0.000000,0.000000,
2101,2083,-3.33786013456156,-12.2780031872196,0.00227148592006188,0.000000,0.000000,0.000000,0.000000,0.000000,330.231599,24.294761,-1.000000,0.958133,0.013495,0.379169,0.000000,0.000000,0.000000,0.000000,0.000000,0.000000,0.000000,
2101,2113,-3.34093828669259,-11.6228622810627,0.0269931377890202,0.000000,0.000000,0.000000,0.000000,0.000000,329.956016,24.364627,-1.000000,0.978371,0.009402,0.317052,0.000000,0.000000,0.000000,0.000000,0.000000,0.000000,0.000000,
2101,2143,-3.34663794787823,-10.9639051992112,0.0109587138531424,0.000000,0.000000,0.000000,0.000000,0.000000,329.340732,24.359883,-1.000000,0.983121,0.008260,0.330865,0.000000,0.000000,0.000000,0.000000,0.000000,0.000000,0.000000,
2101,2173,-3.35136404509321,-10.3064462134133,0.0102303836265492,0.000000,0.000000,0.000000,0.000000,0.000000,328.852551,24.406413,-1.000000,0.984102,0.007990,0.292480,0.000000,0.000000,0.000000,0.000000,0.000000,0.000000,0.000000,
2101,2203,-3.35637290778526,-9.64962804281951,0.00509814378699502,0.000000,0.000000,0.000000,0.000000,0.000000,328.327856,24.369877,-1.000000,0.981729,0.008206,0.337019,0.000000,0.000000,0.000000,0.000000,0.000000,0.000000,0.000000,
2101,2233,-3.36110563746895,-8.9929543565819,0.00443429686356467,0.000000,0.000000,0.000000,0.000000,0.000000,327.839872,24.388639,-1.000000,0.983885,0.007808,0.325575,0.000000,0.000000,0.000000,0.000000,0.000000,0.000000,0.000000,
2101,2263,-3.36603447890447,-8.33694039676443,0.000735424751326264,0.000000,0.000000,0.000000,0.000000,0.000000,327.326710,24.337331,-1.000000,0.984762,0.007677,0.384186,0.000000,0.000000,0.000000,0.000000,0.000000,0.000000,0.000000,
2101,2293,-3.37089526725877,-7.68022683992787,-0.0016821158542939,0.000000,0.000000,0.000000,0.000000,0.000000,326.823417,24.384426,-1.000000,0.986504,0.007467,0.344228,0.000000,0.000000,0.000000,0.000000,0.000000,0.000000,0.000000,
2101,2323,-3.37498617750028,-7.0254698786087,0.00793949372041425,0.000000,0.000000,0.000000,0.000000,0.000000,326.420629,24.393112,-1.000000,0.987403,0.007295,0.341659,0.000000,0.000000,0.000000,0.000000,0.000000,0.000000,0.000000,
2101,2353,-3.38095824662514,-6.36800705363049,-0.0116421886231137,0.000000,0.000000,0.000000,0.000000,0.000000,325.773829,24.381736,-1.000000,0.984702,0.007750,0.359921,0.000000,0.000000,0.000000,0.000000,0.000000,0.000000,0.000000,
2101,2383,-3.38550894481019,-5.7128394943491,-0.00896044097078175,0.000000,0.000000,0.000000,0.000000,0.000000,325.312534,24.400362,-1.000000,0.983426,0.007891,0.347204,0.000000,0.000000,0.000000,0.000000,0.000000,0.000000,0.000000,
2101,2413,-3.3900053628459,-5.05824369007323,-0.00535558398826197,0.000000,0.000000,0.000000,0.000000,0.000000,324.858852,24.394684,-1.000000,0.986334,0.007261,0.358259,0.000000,0.000000,0.000000,0.000000,0.000000,0.000000,0.000000,
2101,2443,-3.39498183235711,-4.403222387787,-0.00913432855406882,0.000000,0.000000,0.000000,0.000000,0.000000,324.343297,24.377739,-1.000000,0.988090,0.007056,0.380795,0.000000,0.000000,0.000000,0.000000,0.000000,0.000000,0.000000,
2101,2473,-3.400203327622,-3.74758442628058,-0.0165820041373195,0.000000,0.000000,0.000000,0.000000,0.000000,323.796572,24.404150,-1.000000,0.989118,0.006708,0.359720,0.000000,0.000000,0.000000,0.000000,0.000000,0.000000,0.000000,
2101,2503,-3.40503068754729,-3.09307880013066,-0.017812954229214,0.000000,0.000000,0.000000,0.000000,0.000000,323.301695,24.404859,-1.000000,0.989740,0.006332,0.363699,0.000000,0.000000,0.000000,0.000000,0.000000,0.000000,0.000000,
2101,2533,-3.41064819328469,-2.43777860025762,-0.0312696176898157,0.000000,0.000000,0.000000,0.000000,0.000000,322.704438,24.388851,-1.000000,0.991503,0.006137,0.384748,0.000000,0.000000,0.000000,0.000000,0.000000,0.000000,0.000000,
2101,2563,-3.41534480501792,-1.78381656890403,-0.0302442137943899,0.000000,0.000000,0.000000,0.000000,0.000000,322.227850,24.400451,-1.000000,0.989709,0.006536,0.377398,0.000000,0.000000,0.000000,0.000000,0.000000,0.000000,0.000000,
2101,2593,-3.41941679710851,-1.13128034478223,-0.0193997028985677,0.000000,0.000000,0.000000,0.000000,0.000000,321.833295,24.385003,-1.000000,0.988606,0.006756,0.396621,0.000000,0.000000,0.000000,0.000000,0.000000,0.000000,0.000000,
2101,2623,-3.42500785532184,-0.476671516051454,-0.0321266034957262,0.000000,0.000000,0.000000,0.000000,0.000000,321.241311,24.374650,-1.000000,0.986718,0.007153,0.410998,0.000000,0.000000,0.000000,0.000000,0.000000,0.000000,0.000000,
2101,2653,-3.42975276500814,0.177373830407575,-0.0314842093990251,0.000000,0.000000,0.000000,0.000000,0.000000,320.760443,24.446740,-1.000000,0.989688,0.006308,0.342345,0.000000,0.000000,0.000000,0.000000,0.000000,0.000000,0.000000,
2101,2683,-3.43424077076154,0.829276493685832,-0.0268503963725948,0.000000,0.000000,0.000000,0.000000,0.000000,320.313533,24.373500,-1.000000,0.991782,0.005729,0.418862,0.000000,0.000000,0.000000,0.000000,0.000000,0.000000,0.000000,
2101,2713,-3.43898943401845,1.48267178726213,-0.0260723842789048,0.000000,0.000000,0.000000,0.000000,0.000000,319.833437,24.422885,-1.000000,0.990431,0.006126,0.372412,0.000000,0.000000,0.000000,0.000000,0.000000,0.000000,0.000000,
2101,2743,-3.44388482434519,2.13599756630625,-0.0274828651301959,0.000000,0.000000,0.000000,0.000000,0.000000,319.334809,24.466393,-1.000000,0.990205,0.006242,0.331738,0.000000,0.000000,0.000000,0.000000,0.000000,0.000000,0.000000,
2101,2773,-3.44878699619829,2.78857119036892,-0.0289306624219421,0.000000,0.000000,0.000000,0.000000,0.000000,318.835894,24.458923,-1.000000,0.991558,0.005979,0.341955,0.000000,0.000000,0.000000,0.000000,0.000000,0.000000,0.000000,
2101,2803,-3.45343150198492,3.44028584410066,-0.0262676308385039,0.000000,0.000000,0.000000,0.000000,0.000000,318.371303,24.422287,-1.000000,0.992120,0.005714,0.380766,0.000000,0.000000,0.000000,0.000000,0.000000,0.000000,0.000000,
2101,2833,-3.4581134121399,4.0925391417011,-0.0240328899147357,0.000000,0.000000,0.000000,0.000000,0.000000,317.902538,24.448682,-1.000000,0.993808,0.005295,0.356362,0.000000,0.000000,0.000000,0.000000,0.000000,0.000000,0.000000,
2101,2863,-3.46235923723251,4.74375073090715,-0.0148967310447006,0.000000,0.000000,0.000000,0.000000,0.000000,317.491477,24.447191,-1.000000,0.992674,0.005712,0.359767,0.000000,0.000000,0.000000,0.000000,0.000000,0.000000,0.000000,
2101,2893,-3.46694950094904,5.39462486173633,-0.0110594255814362,0.000000,0.000000,0.000000,0.000000,0.000000,317.036095,24.390886,-1.000000,0.992547,0.005888,0.417721,0.000000,0.000000,0.000000,0.000000,0.000000,0.000000,0.000000,
2101,2923,-3.47133148670056,6.04630534357157,-0.00378421833755738,0.000000,0.000000,0.000000,0.000000,0.000000,316.608650,24.449066,-1.000000,0.990993,0.006048,0.360867,0.000000,0.000000,0.000000,0.000000,0.000000,0.000000,0.000000,
2101,2953,-3.47652681495256,6.69829624179694,-0.00912964198624877,0.000000,0.000000,0.000000,0.000000,0.000000,316.075467,24.462594,-1.000000,0.991375,0.005908,0.348743,0.000000,0.000000,0.000000,0.000000,0.000000,0.000000,0.000000,
2101,2983,-3.48074084530689,7.3488257115864,0.000964128040607193,0.000000,0.000000,0.000000,0.000000,0.000000,315.671447,24.465462,-1.000000,0.992904,0.005418,0.346784,0.000000,0.000000,0.000000,0.000000,0.000000,0.000000,0.000000,
2101,3013,-3.48559663639369,7.99932255710856,0.00111702535662062,0.000000,0.000000,0.000000,0.000000,0.000000,315.184178,24.412423,-1.000000,0.991967,0.005538,0.400976,0.000000,0.000000,0.000000,0.000000,0.000000,0.000000,0.000000,
2101,3043,-3.48986703215424,8.65045541315537,0.010603543435252,0.000000,0.000000,0.000000,0.000000,0.000000,314.774165,24.495324,-1.000000,0.992875,0.005421,0.318580,0.000000,0.000000,0.000000,0.000000,0.000000,0.000000,0.000000,
2101,3073,-3.49420289239163,9.30031292053197,0.019131811063005,0.000000,0.000000,0.000000,0.000000,0.000000,314.356460,24.468213,-1.000000,0.991496,0.005931,0.346321,0.000000,0.000000,0.000000,0.000000,0.000000,0.000000,0.000000,
2101,3103,-3.49867868972715,9.95080732679781,0.0256175393968192,0.000000,0.000000,0.000000,0.000000,0.000000,313.921079,24.500434,-1.000000,0.992871,0.005462,0.314505,0.000000,0.000000,0.000000,0.000000,0.000000,0.000000,0.000000,
2101,3133,-3.50339131922258,10.6009776786792,0.0285021957673735,0.000000,0.000000,0.000000,0.000000,0.000000,313.455456,24.494682,-1.000000,0.995617,0.004572,0.320545,0.000000,0.000000,0.000000,0.000000,0.000000,0.000000,0.000000,
2101,3163,-3.50834196077108,11.2504916413373,0.0277586976854423,0.000000,0.000000,0.000000,0.000000,0.000000,312.959502,24.421502,-1.000000,0.995316,0.004726,0.393884,0.000000,0.000000,0.000000,0.000000,0.000000,0.000000,0.000000,
2101,3193,-3.51291529111441,11.9002089212506,0.0330647327785982,0.000000,0.000000,0.000000,0.000000,0.000000,312.513656,24.418042,-1.000000,0.994278,0.004926,0.397215,0.000000,0.000000,0.000000,0.000000,0.000000,0.000000,0.000000,
2101,3223,-3.51714409502829,12.5498858057554,0.0438969612945357,0.000000,0.000000,0.000000,0.000000,0.000000,312.113695,24.456149,-1.000000,0.994218,0.004988,0.358657,0.000000,0.000000,0.000000,0.000000,0.000000,0.000000,0.000000,
2101,3253,-3.52253297489248,13.2004296056017,0.0366916102005348,0.000000,0.000000,0.000000,0.000000,0.000000,311.562226,24.485584,-1.000000,0.995650,0.004446,0.328816,0.000000,0.000000,0.000000,0.000000,0.000000,0.000000,0.000000,
2116,2038,-3.00305441153673,-13.2660774945807,0.0131245941354905,0.000000,0.000000,0.000000,0.000000,0.000000,330.976301,24.199034,-1.000000,0.983763,0.008512,0.361888,0.000000,0.000000,0.000000,0.000000,0.000000,0.000000,0.000000,
2116,2068,-3.00763783221812,-12.6080163699151,0.0151662617775514,0.000000,0.000000,0.000000,0.000000,0.000000,330.511933,24.255564,-1.000000,0.970684,0.010547,0.319013,0.000000,0.000000,0.000000,0.000000,0.000000,0.000000,0.000000,
2116,2098,-3.01217433170884,-11.9494409121396,0.0181295164429685,0.000000,0.000000,0.000000,0.000000,0.000000,330.054556,24.390247,-1.000000,0.975443,0.009955,0.197475,0.000000,0.000000,0.000000,0.000000,0.000000,0.000000,0.000000,
2116,2128,-3.01707844718775,-11.2936158067534,0.0151422280647466,0.000000,0.000000,0.000000,0.000000,0.000000,329.549025,24.230859,-1.000000,0.982928,0.008260,0.370012,0.000000,0.000000,0.000000,0.000000,0.000000,0.000000,0.000000,
2116,2158,-3.02258707038453,-10.6345485250644,0.00326439290125791,0.000000,0.000000,0.000000,0.000000,0.000000,328.967749,24.294516,-1.000000,0.984272,0.008098,0.319531,0.000000,0.000000,0.000000,0.000000,0.000000,0.000000,0.000000,
2116,2188,-3.02716826196375,-9.97777521347258,0.00568417456099723,0.000000,0.000000,0.000000,0.000000,0.000000,328.505712,24.323958,-1.000000,0.982817,0.008141,0.302359,0.000000,0.000000,0.000000,0.000000,0.000000,0.000000,0.000000,
2116,2218,-3.03190400985544,-9.32108675206846,0.00581057583633537,0.000000,0.000000,0.000000,0.000000,0.000000,328.024360,24.342264,-1.000000,0.980218,0.008439,0.296143,0.000000,0.000000,0.000000,0.000000,0.000000,0.000000,0.000000,
2116,2248,-3.03676302993199,-8.66489436661649,0.004084746924093,0.000000,0.000000,0.000000,0.000000,0.000000,327.527551,24.317206,-1.000000,0.983551,0.007987,0.333084,0.000000,0.000000,0.000000,0.000000,0.000000,0.000000,0.000000,
2116,2278,-3.04145801637516,-8.00849658304332,0.00505977076284125,0.000000,0.000000,0.000000,0.000000,0.000000,327.052653,24.359396,-1.000000,0.984602,0.007764,0.302163,0.000000,0.000000,0.000000,0.000000,0.000000,0.000000,0.000000,
2116,2308,-3.04653969015618,-7.35257532694029,8.67223849922993E-05,0.000000,0.000000,0.000000,0.000000,0.000000,326.528316,24.319115,-1.000000,0.985877,0.007607,0.353744,0.000000,0.000000,0.000000,0.000000,0.000000,0.000000,0.000000,
2116,2338,-3.05195003032712,-6.69609671916898,-0.0098157929143099,0.000000,0.000000,0.000000,0.000000,0.000000,325.962402,24.303101,-1.000000,0.987164,0.007287,0.380819,0.000000,0.000000,0.000000,0.000000,0.000000,0.000000,0.000000,
2116,2368,-3.05631558458286,-6.04094019220402,-0.00348413558901939,0.000000,0.000000,0.000000,0.000000,0.000000,325.531499,24.346547,-1.000000,0.984731,0.007755,0.347711,0.000000,0.000000,0.000000,0.000000,0.000000,0.000000,0.000000,
2116,2398,-3.0612579176109,-5.38590365818433,-0.00601380800509332,0.000000,0.000000,0.000000,0.000000,0.000000,325.026768,24.312699,-1.000000,0.985484,0.007459,0.391825,0.000000,0.000000,0.000000,0.000000,0.000000,0.000000,0.000000,
2116,2428,-3.06602991333561,-4.73047750054357,-0.00573514459318858,0.000000,0.000000,0.000000,0.000000,0.000000,324.544782,24.361500,-1.000000,0.987824,0.007167,0.353083,0.000000,0.000000,0.000000,0.000000,0.000000,0.000000,0.000000,
2116,2458,-3.07112764373358,-4.07509517925264,-0.0104057735549645,0.000000,0.000000,0.000000,0.000000,0.000000,324.021356,24.380076,-1.000000,0.988827,0.006917,0.344265,0.000000,0.000000,0.000000,0.000000,0.000000,0.000000,0.000000,
2116,2488,-3.07609210203484,-3.42082403012439,-0.012991132492516,0.000000,0.000000,0.000000,0.000000,0.000000,323.515453,24.336893,-1.000000,0.988177,0.006872,0.396876,0.000000,0.000000,0.000000,0.000000,0.000000,0.000000,0.000000,
2116,2518,-3.08143297820856,-2.76521009416815,-0.021180988592107,0.000000,0.000000,0.000000,0.000000,0.000000,322.961911,24.386317,-1.000000,0.988103,0.006823,0.356636,0.000000,0.000000,0.000000,0.000000,0.000000,0.000000,0.000000,
2116,2548,-3.08674151446727,-2.11098369623873,-0.0288755968981604,0.000000,0.000000,0.000000,0.000000,0.000000,322.412810,24.334624,-1.000000,0.988144,0.006884,0.417305,0.000000,0.000000,0.000000,0.000000,0.000000,0.000000,0.000000,
2116,2578,-3.09113264311659,-1.45711886225891,-0.0222357195995642,0.000000,0.000000,0.000000,0.000000,0.000000,321.982707,24.395951,-1.000000,0.990000,0.006597,0.364508,0.000000,0.000000,0.000000,0.000000,0.000000,0.000000,0.000000,
2116,2608,-3.09582261254806,-0.80406366444786,-0.0201872120796907,0.000000,0.000000,0.000000,0.000000,0.000000,321.514506,24.360732,-1.000000,0.987905,0.007077,0.408038,0.000000,0.000000,0.000000,0.000000,0.000000,0.000000,0.000000,
2116,2638,-3.10151008880051,-0.148918931438502,-0.0333341924380761,0.000000,0.000000,0.000000,0.000000,0.000000,320.918464,24.406909,-1.000000,0.988831,0.006630,0.370153,0.000000,0.000000,0.000000,0.000000,0.000000,0.000000,0.000000,
2116,2668,-3.10663624637478,0.504670739215157,-0.0377778125254622,0.000000,0.000000,0.000000,0.000000,0.000000,320.395241,24.405018,-1.000000,0.991511,0.005912,0.379879,0.000000,0.000000,0.000000,0.000000,0.000000,0.000000,0.000000,
2116,2698,-3.11078526838203,1.15725546002096,-0.0270192225226538,0.000000,0.000000,0.000000,0.000000,0.000000,319.998718,24.454627,-1.000000,0.991038,0.005970,0.337715,0.000000,0.000000,0.000000,0.000000,0.000000,0.000000,0.000000,
2116,2728,-3.11576577616783,1.81000395534316,-0.0290322593003225,0.000000,0.000000,0.000000,0.000000,0.000000,319.495458,24.431980,-1.000000,0.989896,0.006362,0.367742,0.000000,0.000000,0.000000,0.000000,0.000000,0.000000,0.000000,
2116,2758,-3.11995765286519,2.46197696342828,-0.0187495060343394,0.000000,0.000000,0.000000,0.000000,0.000000,319.094644,24.453644,-1.000000,0.991283,0.005979,0.352946,0.000000,0.000000,0.000000,0.000000,0.000000,0.000000,0.000000,
2116,2788,-3.12516157104251,3.11456756687359,-0.0240037056470896,0.000000,0.000000,0.000000,0.000000,0.000000,318.563773,24.426642,-1.000000,0.992662,0.005590,0.386929,0.000000,0.000000,0.000000,0.000000,0.000000,0.000000,0.000000,
2116,2818,-3.129695575067,3.76660037741053,-0.0187888673071939,0.000000,0.000000,0.000000,0.000000,0.000000,318.120054,24.447150,-1.000000,0.992446,0.005676,0.372837,0.000000,0.000000,0.000000,0.000000,0.000000,0.000000,0.000000,
2116,2848,-3.13474814740735,4.41897297557364,-0.0214769795514371,0.000000,0.000000,0.000000,0.000000,0.000000,317.609966,24.455902,-1.000000,0.993385,0.005473,0.370613,0.000000,0.000000,0.000000,0.000000,0.000000,0.000000,0.000000,
2116,2878,-3.13926618178087,5.07009555882446,-0.0158371380651374,0.000000,0.000000,0.000000,0.000000,0.000000,317.169577,24.428877,-1.000000,0.992260,0.005867,0.403870,0.000000,0.000000,0.000000,0.000000,0.000000,0.000000,0.000000,
2116,2908,-3.14380227636279,5.72197970455294,-0.0103152113309193,0.000000,0.000000,0.000000,0.000000,0.000000,316.727504,24.486509,-1.000000,0.990914,0.006196,0.351939,0.000000,0.000000,0.000000,0.000000,0.000000,0.000000,0.000000,
2116,2938,-3.14847108524777,6.3732768863419,-0.00676767077146678,0.000000,0.000000,0.000000,0.000000,0.000000,316.268929,24.491696,-1.000000,0.991086,0.006054,0.352761,0.000000,0.000000,0.000000,0.000000,0.000000,0.000000,0.000000,
2116,2968,-3.15285769657105,7.02423610896465,0.00125268824336899,0.000000,0.000000,0.000000,0.000000,0.000000,315.847508,24.512463,-1.000000,0.992885,0.005440,0.337399,0.000000,0.000000,0.000000,0.000000,0.000000,0.000000,0.000000,
2116,2998,-3.15757657448897,7.67488034794841,0.004226141667516,0.000000,0.000000,0.000000,0.000000,0.000000,315.383809,24.484453,-1.000000,0.992777,0.005448,0.370942,0.000000,0.000000,0.000000,0.000000,0.000000,0.000000,0.000000,
2116,3028,-3.16220182523131,8.32561916602978,0.00877357567173931,0.000000,0.000000,0.000000,0.000000,0.000000,314.932869,24.491128,-1.000000,0.991503,0.005745,0.369431,0.000000,0.000000,0.000000,0.000000,0.000000,0.000000,0.000000,
2116,3058,-3.16669535218231,8.97543319376997,0.0154391134663001,0.000000,0.000000,0.000000,0.000000,0.000000,314.499737,24.441389,-1.000000,0.993341,0.005508,0.424284,0.000000,0.000000,0.000000,0.000000,0.000000,0.000000,0.000000,
2116,3088,-3.17164036018997,9.62702905484718,0.0153045677012074,0.000000,0.000000,0.000000,0.000000,0.000000,314.008634,24.526641,-1.000000,0.992671,0.005830,0.343823,0.000000,0.000000,0.000000,0.000000,0.000000,0.000000,0.000000,
2116,3118,-3.17607703369951,10.2768560726422,0.0230897111992476,0.000000,0.000000,0.000000,0.000000,0.000000,313.584196,24.514136,-1.000000,0.995732,0.004695,0.361072,0.000000,0.000000,0.000000,0.000000,0.000000,0.000000,0.000000,
2116,3148,-3.18119297909427,10.92689552466,0.0204801009858784,0.000000,0.000000,0.000000,0.000000,0.000000,313.072495,24.471622,-1.000000,0.995138,0.004786,0.408296,0.000000,0.000000,0.000000,0.000000,0.000000,0.000000,0.000000,
2116,3178,-3.18516796879499,11.5763652241763,0.035645017508557,0.000000,0.000000,0.000000,0.000000,0.000000,312.709250,24.498153,-1.000000,0.992676,0.005406,0.386069,0.000000,0.000000,0.000000,0.000000,0.000000,0.000000,0.000000,
2116,3208,-3.18970281631539,12.2262041449223,0.0422698358100888,0.000000,0.000000,0.000000,0.000000,0.000000,312.274159,24.520328,-1.000000,0.994046,0.005101,0.368170,0.000000,0.000000,0.000000,0.000000,0.000000,0.000000,0.000000,
2116,3238,-3.19526985704323,12.8764150611098,0.0330360336247395,0.000000,0.000000,0.000000,0.000000,0.000000,311.705989,24.500534,-1.000000,0.995012,0.004612,0.392052,0.000000,0.000000,0.000000,0.000000,0.000000,0.000000,0.000000,
2116,3268,-3.20051400043815,13.5268817944807,0.028927334241871,0.000000,0.000000,0.000000,0.000000,0.000000,311.180178,24.550069,-1.000000,0.995971,0.004323,0.346324,0.000000,0.000000,0.000000,0.000000,0.000000,0.000000,0.000000,
2131,2023,-2.6733222975419,-13.5941981277503,0.0160942246868672,0.000000,0.000000,0.000000,0.000000,0.000000,331.177726,24.239015,-1.000000,0.984279,0.008310,0.213926,0.000000,0.000000,0.000000,0.000000,0.000000,0.000000,0.000000,
2131,2053,-2.67807177816604,-12.9368711335199,0.016300874993135,0.000000,0.000000,0.000000,0.000000,0.000000,330.698667,24.197637,-1.000000,0.980697,0.008580,0.273543,0.000000,0.000000,0.000000,0.000000,0.000000,0.000000,0.000000,
2131,2083,-2.6833371559542,-12.2785494775901,0.00880936739417848,0.000000,0.000000,0.000000,0.000000,0.000000,330.154986,24.183953,-1.000000,0.978985,0.008902,0.305558,0.000000,0.000000,0.000000,0.000000,0.000000,0.000000,0.000000,
2131,2113,-2.68804820898088,-11.6208870499497,0.00989829957478605,0.000000,0.000000,0.000000,0.000000,0.000000,329.682289,24.227178,-1.000000,0.983661,0.008098,0.279934,0.000000,0.000000,0.000000,0.000000,0.000000,0.000000,0.000000,
2131,2143,-2.69300587758178,-10.964030068169,0.00720918514497271,0.000000,0.000000,0.000000,0.000000,0.000000,329.178367,24.177673,-1.000000,0.983095,0.008336,0.346611,0.000000,0.000000,0.000000,0.000000,0.000000,0.000000,0.000000,
2131,2173,-2.69772355359885,-10.307834765941,0.00825836425508442,0.000000,0.000000,0.000000,0.000000,0.000000,328.705383,24.129456,-1.000000,0.976303,0.009517,0.411774,0.000000,0.000000,0.000000,0.000000,0.000000,0.000000,0.000000,
2131,2203,-2.70277826629866,-9.64975882485961,0.00446398433712147,0.000000,0.000000,0.000000,0.000000,0.000000,328.190896,24.223043,-1.000000,0.980111,0.008493,0.335059,0.000000,0.000000,0.000000,0.000000,0.000000,0.000000,0.000000,
2131,2233,-2.70724214072011,-8.99314706210865,0.00970547538275923,0.000000,0.000000,0.000000,0.000000,0.000000,327.751704,24.298297,-1.000000,0.980753,0.008403,0.275795,0.000000,0.000000,0.000000,0.000000,0.000000,0.000000,0.000000,
2131,2263,-2.71210192312872,-8.33753871904744,0.00885809522924319,0.000000,0.000000,0.000000,0.000000,0.000000,327.262216,24.239392,-1.000000,0.983597,0.008022,0.350793,0.000000,0.000000,0.000000,0.000000,0.000000,0.000000,0.000000,
2131,2293,-2.71765912361235,-7.6803638473725,-0.00242199219519534,0.000000,0.000000,0.000000,0.000000,0.000000,326.685007,24.239727,-1.000000,0.984912,0.007707,0.366359,0.000000,0.000000,0.000000,0.000000,0.000000,0.000000,0.000000,
2131,2323,-2.72216346345889,-7.02464763566788,0.00244456439992291,0.000000,0.000000,0.000000,0.000000,0.000000,326.242107,24.290267,-1.000000,0.985844,0.007631,0.331256,0.000000,0.000000,0.000000,0.000000,0.000000,0.000000,0.000000,
2131,2353,-2.72737077655099,-6.36837141143347,-0.0033218820969978,0.000000,0.000000,0.000000,0.000000,0.000000,325.710337,24.307207,-1.000000,0.986093,0.007472,0.329488,0.000000,0.000000,0.000000,0.000000,0.000000,0.000000,0.000000,
2131,2383,-2.73227178688154,-5.71314148299977,-0.00437442721289472,0.000000,0.000000,0.000000,0.000000,0.000000,325.217859,24.295630,-1.000000,0.985763,0.007319,0.355751,0.000000,0.000000,0.000000,0.000000,0.000000,0.000000,0.000000,
2131,2413,-2.73761857391397,-5.0567747587249,-0.0120467669237314,0.000000,0.000000,0.000000,0.000000,0.000000,324.669456,24.345524,-1.000000,0.986865,0.007281,0.320566,0.000000,0.000000,0.000000,0.000000,0.000000,0.000000,0.000000,
2131,2443,-2.74266034120698,-4.40286455920923,-0.0151621341927353,0.000000,0.000000,0.000000,0.000000,0.000000,324.159792,24.235276,-1.000000,0.988309,0.007124,0.445123,0.000000,0.000000,0.000000,0.000000,0.000000,0.000000,0.000000,
2131,2473,-2.74756041294692,-3.7465297436308,-0.01575257016151,0.000000,0.000000,0.000000,0.000000,0.000000,323.669473,24.390600,-1.000000,0.988308,0.007132,0.303714,0.000000,0.000000,0.000000,0.000000,0.000000,0.000000,0.000000,
2131,2503,-2.75310451583961,-3.09262361895119,-0.0263493449596126,0.000000,0.000000,0.000000,0.000000,0.000000,323.096896,24.252629,-1.000000,0.986304,0.007348,0.455702,0.000000,0.000000,0.000000,0.000000,0.000000,0.000000,0.000000,
2131,2533,-2.75733787607078,-2.43852405763731,-0.0166906806761062,0.000000,0.000000,0.000000,0.000000,0.000000,322.692204,24.335385,-1.000000,0.986460,0.007166,0.386096,0.000000,0.000000,0.000000,0.000000,0.000000,0.000000,0.000000,
2131,2563,-2.76277205614418,-1.78296748759345,-0.0252244999836648,0.000000,0.000000,0.000000,0.000000,0.000000,322.135173,24.408190,-1.000000,0.987580,0.007010,0.326432,0.000000,0.000000,0.000000,0.000000,0.000000,0.000000,0.000000,
2131,2593,-2.76772466709683,-1.12963186940502,-0.0264497909126931,0.000000,0.000000,0.000000,0.000000,0.000000,321.639685,24.362119,-1.000000,0.990204,0.006622,0.385428,0.000000,0.000000,0.000000,0.000000,0.000000,0.000000,0.000000,
2131,2623,-2.77225489978171,-0.476367042763961,-0.0210878411561453,0.000000,0.000000,0.000000,0.000000,0.000000,321.198684,24.384717,-1.000000,0.989814,0.006630,0.375406,0.000000,0.000000,0.000000,0.000000,0.000000,0.000000,0.000000,
2131,2653,-2.77666182395035,0.17637787561064,-0.0137652382706506,0.000000,0.000000,0.000000,0.000000,0.000000,320.773937,24.393167,-1.000000,0.991742,0.005973,0.379132,0.000000,0.000000,0.000000,0.000000,0.000000,0.000000,0.000000,
2131,2683,-2.78127672554603,0.829112181357075,-0.00952108984427014,0.000000,0.000000,0.000000,0.000000,0.000000,320.323248,24.391681,-1.000000,0.991548,0.005881,0.392563,0.000000,0.000000,0.000000,0.000000,0.000000,0.000000,0.000000,
2131,2713,-2.78738204257085,1.48429502345041,-0.0278344847533845,0.000000,0.000000,0.000000,0.000000,0.000000,319.683158,24.449367,-1.000000,0.990425,0.006280,0.347073,0.000000,0.000000,0.000000,0.000000,0.000000,0.000000,0.000000,
2131,2743,-2.79200433693432,2.13626719114059,-0.0235388405718027,0.000000,0.000000,0.000000,0.000000,0.000000,319.232578,24.415534,-1.000000,0.990518,0.006289,0.392459,0.000000,0.000000,0.000000,0.000000,0.000000,0.000000,0.000000,
2131,2773,-2.79703289475394,2.78936817247544,-0.0252791520916276,0.000000,0.000000,0.000000,0.000000,0.000000,318.730811,24.454847,-1.000000,0.992901,0.005498,0.364605,0.000000,0.000000,0.000000,0.000000,0.000000,0.000000,0.000000,
2131,2803,-2.80172066001471,3.44122799686408,-0.0217712289206702,0.000000,0.000000,0.000000,0.000000,0.000000,318.273051,24.438735,-1.000000,0.992604,0.005583,0.391822,0.000000,0.000000,0.000000,0.000000,0.000000,0.000000,0.000000,
2131,2833,-2.80645349458623,4.09370486346464,-0.0188028077104718,0.000000,0.000000,0.000000,0.000000,0.000000,317.810153,24.491802,-1.000000,0.992783,0.005608,0.349834,0.000000,0.000000,0.000000,0.000000,0.000000,0.000000,0.000000,
2131,2863,-2.81117619249919,4.74553388446338,-0.0156107714233258,0.000000,0.000000,0.000000,0.000000,0.000000,317.349110,24.503591,-1.000000,0.992555,0.005602,0.348845,0.000000,0.000000,0.000000,0.000000,0.000000,0.000000,0.000000,
2131,2893,-2.81553610865279,5.39639674985425,-0.00680765301461861,0.000000,0.000000,0.000000,0.000000,0.000000,316.935009,24.483626,-1.000000,0.991029,0.006153,0.378892,0.000000,0.000000,0.000000,0.000000,0.000000,0.000000,0.000000,
2131,2923,-2.8203046665943,6.04794135199968,-0.00411252818389585,0.000000,0.000000,0.000000,0.000000,0.000000,316.469308,24.497407,-1.000000,0.989554,0.006428,0.375713,0.000000,0.000000,0.000000,0.000000,0.000000,0.000000,0.000000,
2131,2953,-2.82489425080194,6.69904998366999,0.00141054040255995,0.000000,0.000000,0.000000,0.000000,0.000000,316.027084,24.506938,-1.000000,0.992653,0.005603,0.376276,0.000000,0.000000,0.000000,0.000000,0.000000,0.000000,0.000000,
2131,2983,-2.82990318943619,7.35034498856329,0.000632136218371215,0.000000,0.000000,0.000000,0.000000,0.000000,315.531857,24.505666,-1.000000,0.994547,0.004991,0.387294,0.000000,0.000000,0.000000,0.000000,0.000000,0.000000,0.000000,
2131,3013,-2.83435130216511,8.00141750056796,0.00854118310229524,0.000000,0.000000,0.000000,0.000000,0.000000,315.108912,24.558815,-1.000000,0.991657,0.005808,0.343751,0.000000,0.000000,0.000000,0.000000,0.000000,0.000000,0.000000,
2131,3043,-2.83898823568046,8.65222039766416,0.0136562952015993,0.000000,0.000000,0.000000,0.000000,0.000000,314.662458,24.582955,-1.000000,0.992885,0.005428,0.329284,0.000000,0.000000,0.000000,0.000000,0.000000,0.000000,0.000000,
2131,3073,-2.84368084616628,9.30242850687888,0.0180042593628968,0.000000,0.000000,0.000000,0.000000,0.000000,314.209563,24.562137,-1.000000,0.994273,0.005343,0.359645,0.000000,0.000000,0.000000,0.000000,0.000000,0.000000,0.000000,
2131,3103,-2.84807309514552,9.95239909005713,0.0270542021867755,0.000000,0.000000,0.000000,0.000000,0.000000,313.795732,24.563677,-1.000000,0.995732,0.004826,0.367009,0.000000,0.000000,0.000000,0.000000,0.000000,0.000000,0.000000,
2131,3133,-2.85313292844372,10.6030798282291,0.0260245909070136,0.000000,0.000000,0.000000,0.000000,0.000000,313.297035,24.581986,-1.000000,0.995003,0.004874,0.357837,0.000000,0.000000,0.000000,0.000000,0.000000,0.000000,0.000000,
2131,3163,-2.85782362526959,11.2528798649031,0.0307249809052337,0.000000,0.000000,0.000000,0.000000,0.000000,312.846302,24.569423,-1.000000,0.991947,0.005608,0.379260,0.000000,0.000000,0.000000,0.000000,0.000000,0.000000,0.000000,
2131,3193,-2.86275322845779,11.903083409879,0.031895241769746,0.000000,0.000000,0.000000,0.000000,0.000000,312.365542,24.587434,-1.000000,0.992243,0.005502,0.370057,0.000000,0.000000,0.000000,0.000000,0.000000,0.000000,0.000000,
2131,3223,-2.86728067570054,12.5525599086935,0.0393108802142024,0.000000,0.000000,0.000000,0.000000,0.000000,311.937008,24.589035,-1.000000,0.994399,0.004851,0.377173,0.000000,0.000000,0.000000,0.000000,0.000000,0.000000,0.000000,
2131,3253,-2.87300097414373,13.2032375012551,0.0286152983043735,0.000000,0.000000,0.000000,0.000000,0.000000,311.356129,24.613322,-1.000000,0.994996,0.004537,0.361015,0.000000,0.000000,0.000000,0.000000,0.000000,0.000000,0.000000,
2146,2038,-2.34828160077109,-13.2666933382259,0.0192208865158818,0.000000,0.000000,0.000000,0.000000,0.000000,330.905023,24.076755,-1.000000,0.983645,0.008077,0.286395,0.000000,0.000000,0.000000,0.000000,0.000000,0.000000,0.000000,
2146,2068,-2.35286286758446,-12.609094413646,0.0229835349560972,0.000000,0.000000,0.000000,0.000000,0.000000,330.454970,24.110518,-1.000000,0.981095,0.008483,0.275134,0.000000,0.000000,0.000000,0.000000,0.000000,0.000000,0.000000,
2146,2098,-2.35829152038431,-11.9504799246728,0.014085344201817,0.000000,0.000000,0.000000,0.000000,0.000000,329.899202,24.119134,-1.000000,0.983411,0.008271,0.289155,0.000000,0.000000,0.000000,0.000000,0.000000,0.000000,0.000000,
2146,2128,-2.36225066564975,-11.2945692711514,0.0273381215767472,0.000000,0.000000,0.000000,0.000000,0.000000,329.527903,24.144485,-1.000000,0.982274,0.008527,0.284712,0.000000,0.000000,0.000000,0.000000,0.000000,0.000000,0.000000,
2146,2158,-2.36832208014144,-10.6346253374955,0.00904782912681412,0.000000,0.000000,0.000000,0.000000,0.000000,328.892855,24.219192,-1.000000,0.965653,0.011690,0.232596,0.000000,0.000000,0.000000,0.000000,0.000000,0.000000,0.000000,
2146,2188,-2.37157600574293,-9.98231994187831,0.0328253066367665,0.000000,0.000000,0.000000,0.000000,0.000000,328.609994,24.066039,-1.000000,0.954912,0.012535,0.405821,0.000000,0.000000,0.000000,0.000000,0.000000,0.000000,0.000000,
2146,2218,-2.37803326862545,-9.32168792709492,0.00897193486434844,0.000000,0.000000,0.000000,0.000000,0.000000,327.927666,24.192556,-1.000000,0.979452,0.008607,0.301266,0.000000,0.000000,0.000000,0.000000,0.000000,0.000000,0.000000,
2146,2248,-2.38320926548392,-8.66498583900663,0.00425848413232188,0.000000,0.000000,0.000000,0.000000,0.000000,327.405634,24.184111,-1.000000,0.981365,0.008272,0.330411,0.000000,0.000000,0.000000,0.000000,0.000000,0.000000,0.000000,
2146,2278,-2.38858322474449,-8.00854481853716,-0.00338119568095863,0.000000,0.000000,0.000000,0.000000,0.000000,326.859083,24.144328,-1.000000,0.982365,0.008228,0.390648,0.000000,0.000000,0.000000,0.000000,0.000000,0.000000,0.000000,
2146,2308,-2.3928491414741,-7.35322658293562,0.00580865601654068,0.000000,0.000000,0.000000,0.000000,0.000000,326.452349,24.192409,-1.000000,0.983689,0.008017,0.362103,0.000000,0.000000,0.000000,0.000000,0.000000,0.000000,0.000000,
2146,2338,-2.39824572915586,-6.69653361863538,-0.00192551798227214,0.000000,0.000000,0.000000,0.000000,0.000000,325.904127,24.217626,-1.000000,0.986161,0.007516,0.356887,0.000000,0.000000,0.000000,0.000000,0.000000,0.000000,0.000000,
2146,2368,-2.40320042884722,-6.04094811448506,-0.00295473672611024,0.000000,0.000000,0.000000,0.000000,0.000000,325.411750,24.229014,-1.000000,0.987481,0.006931,0.364842,0.000000,0.000000,0.000000,0.000000,0.000000,0.000000,0.000000,
2146,2398,-2.4081243203367,-5.38564725028667,-0.00343651275204593,0.000000,0.000000,0.000000,0.000000,0.000000,324.923705,24.239966,-1.000000,0.986495,0.007170,0.372893,0.000000,0.000000,0.000000,0.000000,0.000000,0.000000,0.000000,
2146,2428,-2.4135949477595,-4.72910696603876,-0.0119884333532809,0.000000,0.000000,0.000000,0.000000,0.000000,324.367624,24.308377,-1.000000,0.987419,0.007230,0.323578,0.000000,0.000000,0.000000,0.000000,0.000000,0.000000,0.000000,
2146,2458,-2.41900399391872,-4.07346434493913,-0.0195880374781723,0.000000,0.000000,0.000000,0.000000,0.000000,323.819529,24.325674,-1.000000,0.988110,0.007188,0.324862,0.000000,0.000000,0.000000,0.000000,0.000000,0.000000,0.000000,
2146,2488,-2.42380659194939,-3.41969319859462,-0.0180540153359061,0.000000,0.000000,0.000000,0.000000,0.000000,323.347925,24.276820,-1.000000,0.986407,0.007545,0.391876,0.000000,0.000000,0.000000,0.000000,0.000000,0.000000,0.000000,
2146,2518,-2.42957977388179,-2.763776404358,-0.0309397758542787,0.000000,0.000000,0.000000,0.000000,0.000000,322.754983,24.313633,-1.000000,0.986600,0.007230,0.373390,0.000000,0.000000,0.000000,0.000000,0.000000,0.000000,0.000000,
2146,2548,-2.4335738154196,-2.11137879084202,-0.0170474118357902,0.000000,0.000000,0.000000,0.000000,0.000000,322.386133,24.288180,-1.000000,0.986573,0.007019,0.416100,0.000000,0.000000,0.000000,0.000000,0.000000,0.000000,0.000000,
2146,2578,-2.4389651813739,-1.45623532474332,-0.0240003759895444,0.000000,0.000000,0.000000,0.000000,0.000000,321.842184,24.347668,-1.000000,0.988398,0.006797,0.374213,0.000000,0.000000,0.000000,0.000000,0.000000,0.000000,0.000000,
2146,2608,-2.44407965608022,-0.801504277280706,-0.0266877918953696,0.000000,0.000000,0.000000,0.000000,0.000000,321.333559,24.426835,-1.000000,0.990274,0.006535,0.312160,0.000000,0.000000,0.000000,0.000000,0.000000,0.000000,0.000000,
2146,2638,-2.44933483588258,-0.148295592213671,-0.0315297449124614,0.000000,0.000000,0.000000,0.000000,0.000000,320.807418,24.367766,-1.000000,0.992550,0.005923,0.388206,0.000000,0.000000,0.000000,0.000000,0.000000,0.000000,0.000000,
2146,2668,-2.45355326099333,0.50369042924185,-0.0206460896972658,0.000000,0.000000,0.000000,0.000000,0.000000,320.412447,24.346975,-1.000000,0.992062,0.005853,0.425401,0.000000,0.000000,0.000000,0.000000,0.000000,0.000000,0.000000,
2146,2698,-2.45950121934025,1.15869676863505,-0.035635114956051,0.000000,0.000000,0.000000,0.000000,0.000000,319.800188,24.407347,-1.000000,0.990258,0.006206,0.381657,0.000000,0.000000,0.000000,0.000000,0.000000,0.000000,0.000000,
2146,2728,-2.46378179116553,1.81067231853664,-0.0254830089156144,0.000000,0.000000,0.000000,0.000000,0.000000,319.398471,24.413774,-1.000000,0.990379,0.006418,0.391283,0.000000,0.000000,0.000000,0.000000,0.000000,0.000000,0.000000,
2146,2758,-2.46856339454273,2.46363448195724,-0.0227456444787322,0.000000,0.000000,0.000000,0.000000,0.000000,318.934172,24.467449,-1.000000,0.990923,0.006044,0.353591,0.000000,0.000000,0.000000,0.000000,0.000000,0.000000,0.000000,
2146,2788,-2.47389024248529,3.11646252001236,-0.0281740236598012,0.000000,0.000000,0.000000,0.000000,0.000000,318.401556,24.462674,-1.000000,0.992772,0.005585,0.374152,0.000000,0.000000,0.000000,0.000000,0.000000,0.000000,0.000000,
2146,2818,-2.47864771611635,3.76896945089597,-0.0248965323104926,0.000000,0.000000,0.000000,0.000000,0.000000,317.941305,24.513807,-1.000000,0.992867,0.005567,0.338388,0.000000,0.000000,0.000000,0.000000,0.000000,0.000000,0.000000,
2146,2848,-2.48321909419622,4.4202920323569,-0.0187732225506352,0.000000,0.000000,0.000000,0.000000,0.000000,317.505043,24.493970,-1.000000,0.993308,0.005364,0.373362,0.000000,0.000000,0.000000,0.000000,0.000000,0.000000,0.000000,
2146,2878,-2.48779627363431,5.07170457015007,-0.0126258261197449,0.000000,0.000000,0.000000,0.000000,0.000000,317.068616,24.498143,-1.000000,0.991994,0.005726,0.384292,0.000000,0.000000,0.000000,0.000000,0.000000,0.000000,0.000000,
2146,2908,-2.4923352517347,5.72320265644661,-0.00578985834079049,0.000000,0.000000,0.000000,0.000000,0.000000,316.637570,24.530520,-1.000000,0.989661,0.006410,0.366530,0.000000,0.000000,0.000000,0.000000,0.000000,0.000000,0.000000,
2146,2938,-2.49706517393161,6.37517611870476,-0.00171435082313565,0.000000,0.000000,0.000000,0.000000,0.000000,316.182940,24.602193,-1.000000,0.989993,0.006327,0.309496,0.000000,0.000000,0.000000,0.000000,0.000000,0.000000,0.000000,
2146,2968,-2.50212864772167,7.02627488618746,-0.0026319078187953,0.000000,0.000000,0.000000,0.000000,0.000000,315.686743,24.574612,-1.000000,0.993673,0.005217,0.351523,0.000000,0.000000,0.000000,0.000000,0.000000,0.000000,0.000000,
2146,2998,-2.50628280166589,7.6762721214758,0.0102634998952453,0.000000,0.000000,0.000000,0.000000,0.000000,315.306048,24.555998,-1.000000,0.993420,0.005422,0.384465,0.000000,0.000000,0.000000,0.000000,0.000000,0.000000,0.000000,
2146,3028,-2.51129502646677,8.32766388079563,0.010347968155429,0.000000,0.000000,0.000000,0.000000,0.000000,314.817408,24.593572,-1.000000,0.991507,0.005910,0.360799,0.000000,0.000000,0.000000,0.000000,0.000000,0.000000,0.000000,
2146,3058,-2.516054497792,8.9783005940009,0.0143260255283622,0.000000,0.000000,0.000000,0.000000,0.000000,314.361313,24.603140,-1.000000,0.994411,0.005045,0.365039,0.000000,0.000000,0.000000,0.000000,0.000000,0.000000,0.000000,
2146,3088,-2.52142247499364,9.63013550690054,0.00925245029844746,0.000000,0.000000,0.000000,0.000000,0.000000,313.828696,24.680509,-1.000000,0.994862,0.004982,0.301359,0.000000,0.000000,0.000000,0.000000,0.000000,0.000000,0.000000,
2146,3118,-2.5255501848041,10.2793023954428,0.0229386739300708,0.000000,0.000000,0.000000,0.000000,0.000000,313.453761,24.645963,-1.000000,0.994772,0.004948,0.349442,0.000000,0.000000,0.000000,0.000000,0.000000,0.000000,0.000000,
2146,3148,-2.53084893101544,10.9295412245101,0.0190576919525824,0.000000,0.000000,0.000000,0.000000,0.000000,312.931199,24.615392,-1.000000,0.992952,0.005499,0.393640,0.000000,0.000000,0.000000,0.000000,0.000000,0.000000,0.000000,
2146,3178,-2.5348946614188,11.5790539399711,0.0342151209035251,0.000000,0.000000,0.000000,0.000000,0.000000,312.567777,24.647315,-1.000000,0.991382,0.005746,0.374728,0.000000,0.000000,0.000000,0.000000,0.000000,0.000000,0.000000,
2146,3208,-2.53974572020875,12.2290366191891,0.0373121209815395,0.000000,0.000000,0.000000,0.000000,0.000000,312.103005,24.663816,-1.000000,0.993953,0.004991,0.371499,0.000000,0.000000,0.000000,0.000000,0.000000,0.000000,0.000000,
2146,3238,-2.54528410679516,12.8799855014932,0.0301455558555972,0.000000,0.000000,0.000000,0.000000,0.000000,311.551609,24.725699,-1.000000,0.994259,0.004843,0.322272,0.000000,0.000000,0.000000,0.000000,0.000000,0.000000,0.000000,
2146,3268,-2.5509060514223,13.5300290469637,0.0217916175249684,0.000000,0.000000,0.000000,0.000000,0.000000,310.990342,24.714585,-1.000000,0.994507,0.004835,0.346270,0.000000,0.000000,0.000000,0.000000,0.000000,0.000000,0.000000,
2161,2023,-2.01836270608298,-13.5965487837837,0.0225372508928672,0.000000,0.000000,0.000000,0.000000,0.000000,331.119009,23.962760,-1.000000,0.984578,0.007769,0.287938,0.000000,0.000000,0.000000,0.000000,0.000000,0.000000,0.000000,
2161,2053,-2.02318213768439,-12.9386361289954,0.0235437543697117,0.000000,0.000000,0.000000,0.000000,0.000000,330.646073,23.983780,-1.000000,0.984038,0.007943,0.293902,0.000000,0.000000,0.000000,0.000000,0.000000,0.000000,0.000000,
2161,2083,-2.02790908486483,-12.280256984228,0.0261115629953679,0.000000,0.000000,0.000000,0.000000,0.000000,330.185447,24.086061,-1.000000,0.983992,0.008291,0.218300,0.000000,0.000000,0.000000,0.000000,0.000000,0.000000,0.000000,
2161,2113,-2.03321677685026,-11.6227690305154,0.0199338574723242,0.000000,0.000000,0.000000,0.000000,0.000000,329.652513,24.033113,-1.000000,0.982630,0.008565,0.298005,0.000000,0.000000,0.000000,0.000000,0.000000,0.000000,0.000000,
2161,2143,-2.03893682812429,-10.9647892540224,0.00772467629144558,0.000000,0.000000,0.000000,0.000000,0.000000,329.068954,23.983534,-1.000000,0.972064,0.010504,0.374040,0.000000,0.000000,0.000000,0.000000,0.000000,0.000000,0.000000,
2161,2173,-2.04750525976104,-10.3026947373858,-0.0467196148453581,0.000000,0.000000,0.000000,0.000000,0.000000,328.132741,23.886829,-1.000000,0.931144,0.016591,0.498842,0.000000,0.000000,0.000000,0.000000,0.000000,0.000000,0.000000,
2161,2203,-2.0492149426567,-9.6490996202161,0.00107808844450119,0.000000,0.000000,0.000000,0.000000,0.000000,328.048009,24.119607,-1.000000,0.961508,0.011227,0.289319,0.000000,0.000000,0.000000,0.000000,0.000000,0.000000,0.000000,
2161,2233,-2.05345612776619,-8.99397243289265,0.0110935125264859,0.000000,0.000000,0.000000,0.000000,0.000000,327.649005,24.110191,-1.000000,0.980342,0.008411,0.323610,0.000000,0.000000,0.000000,0.000000,0.000000,0.000000,0.000000,
2161,2263,-2.05967601440426,-8.33499893213667,-0.00808571251263857,0.000000,0.000000,0.000000,0.000000,0.000000,327.005512,24.172949,-1.000000,0.980417,0.008571,0.286437,0.000000,0.000000,0.000000,0.000000,0.000000,0.000000,0.000000,
2161,2293,-2.06389083124295,-7.68070208585093,0.00244486090775808,0.000000,0.000000,0.000000,0.000000,0.000000,326.610523,24.132818,-1.000000,0.981418,0.008396,0.350475,0.000000,0.000000,0.000000,0.000000,0.000000,0.000000,0.000000,
2161,2323,-2.06880731638517,-7.02496879755536,0.00269857042604826,0.000000,0.000000,0.000000,0.000000,0.000000,326.129178,24.139705,-1.000000,0.984088,0.007888,0.367817,0.000000,0.000000,0.000000,0.000000,0.000000,0.000000,0.000000,
2161,2353,-2.07455644317631,-6.36787965693939,-0.00930363678071444,0.000000,0.000000,0.000000,0.000000,0.000000,325.545022,24.171172,-1.000000,0.986605,0.007209,0.360668,0.000000,0.000000,0.000000,0.000000,0.000000,0.000000,0.000000,
2161,2383,-2.07973031394124,-5.71198298641116,-0.0126911868371735,0.000000,0.000000,0.000000,0.000000,0.000000,325.032613,24.200057,-1.000000,0.988279,0.006727,0.355519,0.000000,0.000000,0.000000,0.000000,0.000000,0.000000,0.000000,
2161,2413,-2.08440431021673,-5.05694308759253,-0.00856112500235895,0.000000,0.000000,0.000000,0.000000,0.000000,324.582724,24.242819,-1.000000,0.986348,0.007308,0.335933,0.000000,0.000000,0.000000,0.000000,0.000000,0.000000,0.000000,
2161,2443,-2.08931546492773,-4.40236044855341,-0.00793349948253308,0.000000,0.000000,0.000000,0.000000,0.000000,324.103635,24.229689,-1.000000,0.987571,0.007158,0.372134,0.000000,0.000000,0.000000,0.000000,0.000000,0.000000,0.000000,
2161,2473,-2.09435306097983,-3.74728819108849,-0.00905336246637489,0.000000,0.000000,0.000000,0.000000,0.000000,323.609417,24.264743,-1.000000,0.986554,0.007547,0.359661,0.000000,0.000000,0.000000,0.000000,0.000000,0.000000,0.000000,
2161,2503,-2.10061841439962,-3.09109591756865,-0.0283833781128919,0.000000,0.000000,0.000000,0.000000,0.000000,322.962871,24.257065,-1.000000,0.985284,0.007672,0.390593,0.000000,0.000000,0.000000,0.000000,0.000000,0.000000,0.000000,
2161,2533,-2.10539470752602,-2.4366929954859,-0.0254466549261565,0.000000,0.000000,0.000000,0.000000,0.000000,322.501979,24.309064,-1.000000,0.987609,0.006859,0.360626,0.000000,0.000000,0.000000,0.000000,0.000000,0.000000,0.000000,
2161,2563,-2.10971061814687,-1.78360096995709,-0.0156246109915514,0.000000,0.000000,0.000000,0.000000,0.000000,322.098698,24.319808,-1.000000,0.986914,0.006924,0.371373,0.000000,0.000000,0.000000,0.000000,0.000000,0.000000,0.000000,
2161,2593,-2.11522852004488,-1.12882643309325,-0.0235749462117383,0.000000,0.000000,0.000000,0.000000,0.000000,321.546371,24.347212,-1.000000,0.988762,0.006640,0.365874,0.000000,0.000000,0.000000,0.000000,0.000000,0.000000,0.000000,
2161,2623,-2.12046425358914,-0.474248711940994,-0.0272153713693797,0.000000,0.000000,0.000000,0.000000,0.000000,321.029632,24.414315,-1.000000,0.991352,0.006230,0.320450,0.000000,0.000000,0.000000,0.000000,0.000000,0.000000,0.000000,
2161,2653,-2.12597426313859,0.179504128985776,-0.0349350663108225,0.000000,0.000000,0.000000,0.000000,0.000000,320.478988,24.391323,-1.000000,0.992088,0.006016,0.364716,0.000000,0.000000,0.000000,0.000000,0.000000,0.000000,0.000000,
2161,2683,-2.1300129475477,0.831342230183722,-0.0206621355636116,0.000000,0.000000,0.000000,0.000000,0.000000,320.112082,24.394355,-1.000000,0.990787,0.006038,0.382176,0.000000,0.000000,0.000000,0.000000,0.000000,0.000000,0.000000,
2161,2713,-2.13536343742425,1.48555554681398,-0.0257588019897526,0.000000,0.000000,0.000000,0.000000,0.000000,319.582342,24.472809,-1.000000,0.989834,0.006377,0.324665,0.000000,0.000000,0.000000,0.000000,0.000000,0.000000,0.000000,
2161,2743,-2.14066426476552,2.1381722689259,-0.0301327053322211,0.000000,0.000000,0.000000,0.000000,0.000000,319.059064,24.430068,-1.000000,0.989668,0.006531,0.387955,0.000000,0.000000,0.000000,0.000000,0.000000,0.000000,0.000000,
2161,2773,-2.14587212214337,2.79134282117179,-0.0329753357092955,0.000000,0.000000,0.000000,0.000000,0.000000,318.547903,24.469281,-1.000000,0.990702,0.006139,0.369045,0.000000,0.000000,0.000000,0.000000,0.000000,0.000000,0.000000,
2161,2803,-2.15009826555549,3.44295674323676,-0.0211288914875354,0.000000,0.000000,0.000000,0.000000,0.000000,318.159622,24.496850,-1.000000,0.991955,0.005974,0.361190,0.000000,0.000000,0.000000,0.000000,0.000000,0.000000,0.000000,
2161,2833,-2.15459067879217,4.0944796407262,-0.0131750684096232,0.000000,0.000000,0.000000,0.000000,0.000000,317.738629,24.500965,-1.000000,0.993828,0.005304,0.376982,0.000000,0.000000,0.000000,0.000000,0.000000,0.000000,0.000000,
2161,2863,-2.16028978771796,4.74778667348094,-0.0230716675264375,0.000000,0.000000,0.000000,0.000000,0.000000,317.167557,24.552165,-1.000000,0.991939,0.005586,0.345466,0.000000,0.000000,0.000000,0.000000,0.000000,0.000000,0.000000,
2161,2893,-2.16499546288754,5.39927397756145,-0.0181152219307705,0.000000,0.000000,0.000000,0.000000,0.000000,316.720919,24.563935,-1.000000,0.992782,0.005610,0.353000,0.000000,0.000000,0.000000,0.000000,0.000000,0.000000,0.000000,
2161,2923,-2.1694799253815,6.05052010602952,-0.00976345212785645,0.000000,0.000000,0.000000,0.000000,0.000000,316.302409,24.593341,-1.000000,0.988874,0.006542,0.342655,0.000000,0.000000,0.000000,0.000000,0.000000,0.000000,0.000000,
2161,2953,-2.17398009393562,6.70108524550037,-0.00158511914645487,0.000000,0.000000,0.000000,0.000000,0.000000,315.882476,24.573434,-1.000000,0.991573,0.005805,0.381401,0.000000,0.000000,0.000000,0.000000,0.000000,0.000000,0.000000,
2161,2983,-2.17942107564397,7.35341698325025,-0.00728910436470187,0.000000,0.000000,0.000000,0.000000,0.000000,315.345468,24.635493,-1.000000,0.993488,0.005298,0.338043,0.000000,0.000000,0.000000,0.000000,0.000000,0.000000,0.000000,
2161,3013,-2.18388691752688,8.00381137476528,0.00159327965582179,0.000000,0.000000,0.000000,0.000000,0.000000,314.930850,24.635129,-1.000000,0.991048,0.006147,0.357120,0.000000,0.000000,0.000000,0.000000,0.000000,0.000000,0.000000,
2161,3043,-2.18779577557989,8.65404572823378,0.0189006234048179,0.000000,0.000000,0.000000,0.000000,0.000000,314.586365,24.689078,-1.000000,0.993458,0.005431,0.321314,0.000000,0.000000,0.000000,0.000000,0.000000,0.000000,0.000000,
2161,3073,-2.19224911308378,9.30345224049384,0.0281271636001748,0.000000,0.000000,0.000000,0.000000,0.000000,314.174498,24.626256,-1.000000,0.994582,0.005051,0.402297,0.000000,0.000000,0.000000,0.000000,0.000000,0.000000,0.000000,
2161,3103,-2.19755776653681,9.95475343100453,0.024745153995525,0.000000,0.000000,0.000000,0.000000,0.000000,313.656052,24.672079,-1.000000,0.993761,0.005159,0.374623,0.000000,0.000000,0.000000,0.000000,0.000000,0.000000,0.000000,
2161,3133,-2.20250830789086,10.6053240258072,0.026786348726489,0.000000,0.000000,0.000000,0.000000,0.000000,313.182931,24.700653,-1.000000,0.992956,0.005556,0.363863,0.000000,0.000000,0.000000,0.000000,0.000000,0.000000,0.000000,
2161,3163,-2.20754904636297,11.2558937537998,0.0275771355843517,0.000000,0.000000,0.000000,0.000000,0.000000,312.699025,24.736685,-1.000000,0.993143,0.005471,0.345412,0.000000,0.000000,0.000000,0.000000,0.000000,0.000000,0.000000,
2161,3193,-2.21239353714008,11.9053140997335,0.0313614065063916,0.000000,0.000000,0.000000,0.000000,0.000000,312.240366,24.699542,-1.000000,0.993846,0.005135,0.400416,0.000000,0.000000,0.000000,0.000000,0.000000,0.000000,0.000000,
2161,3223,-2.21689835294382,12.5551313912862,0.0403411753057412,0.000000,0.000000,0.000000,0.000000,0.000000,311.824638,24.742808,-1.000000,0.994550,0.004851,0.374468,0.000000,0.000000,0.000000,0.000000,0.000000,0.000000,0.000000,
2161,3253,-2.22331848169145,13.2060395752043,0.0208115141835492,0.000000,0.000000,0.000000,0.000000,0.000000,311.169592,24.740236,-1.000000,0.994460,0.004949,0.394250,0.000000,0.000000,0.000000,0.000000,0.000000,0.000000,0.000000,
2176,2038,-1.69329648458905,-13.2676473166657,0.0257557697523794,0.000000,0.000000,0.000000,0.000000,0.000000,330.854897,23.928974,-1.000000,0.984910,0.007725,0.236106,0.000000,0.000000,0.000000,0.000000,0.000000,0.000000,0.000000,
2176,2068,-1.69834941407246,-12.6102236193469,0.0241442468926039,0.000000,0.000000,0.000000,0.000000,0.000000,330.360275,23.887427,-1.000000,0.984608,0.008130,0.308967,0.000000,0.000000,0.000000,0.000000,0.000000,0.000000,0.000000,
2176,2098,-1.70454972705897,-11.9513750155119,0.00574699508047161,0.000000,0.000000,0.000000,0.000000,0.000000,329.725503,23.814399,-1.000000,0.984072,0.008410,0.413892,0.000000,0.000000,0.000000,0.000000,0.000000,0.000000,0.000000,
2176,2128,-1.70923528809825,-11.2930885576023,0.00992086881882415,0.000000,0.000000,0.000000,0.000000,0.000000,329.277548,23.960567,-1.000000,0.980803,0.008685,0.298173,0.000000,0.000000,0.000000,0.000000,0.000000,0.000000,0.000000,
2176,2158,-1.71707585402948,-10.6303402991581,-0.032184887252015,0.000000,0.000000,0.000000,0.000000,0.000000,328.443340,24.040773,-1.000000,0.958508,0.012337,0.250140,0.000000,0.000000,0.000000,0.000000,0.000000,0.000000,0.000000,
2176,2188,-1.71967983663624,-9.97785758401022,0.00243570365699952,0.000000,0.000000,0.000000,0.000000,0.000000,328.250085,24.024754,-1.000000,0.947207,0.013400,0.294704,0.000000,0.000000,0.000000,0.000000,0.000000,0.000000,0.000000,
2176,2218,-1.72452509498072,-9.32145386176689,0.00430547727711428,0.000000,0.000000,0.000000,0.000000,0.000000,327.782959,24.037851,-1.000000,0.979598,0.008738,0.311265,0.000000,0.000000,0.000000,0.000000,0.000000,0.000000,0.000000,
2176,2248,-1.72946081445359,-8.66531427493435,0.0049014661552178,0.000000,0.000000,0.000000,0.000000,0.000000,327.305054,24.034175,-1.000000,0.981463,0.008330,0.344353,0.000000,0.000000,0.000000,0.000000,0.000000,0.000000,0.000000,
2176,2278,-1.73422564551406,-8.00935393547016,0.00811612427037289,0.000000,0.000000,0.000000,0.000000,0.000000,326.848609,24.061165,-1.000000,0.980414,0.008701,0.346208,0.000000,0.000000,0.000000,0.000000,0.000000,0.000000,0.000000,
2176,2308,-1.73918996789626,-7.3530018693183,0.00850921437074703,0.000000,0.000000,0.000000,0.000000,0.000000,326.368197,24.115503,-1.000000,0.982320,0.008217,0.320587,0.000000,0.000000,0.000000,0.000000,0.000000,0.000000,0.000000,
2176,2338,-1.74539082091507,-6.69509735135227,-0.00919334762681956,0.000000,0.000000,0.000000,0.000000,0.000000,325.736396,24.154205,-1.000000,0.985703,0.007567,0.310996,0.000000,0.000000,0.000000,0.000000,0.000000,0.000000,0.000000,
2176,2368,-1.75051687898868,-6.03955393658229,-0.0110934448297257,0.000000,0.000000,0.000000,0.000000,0.000000,325.236615,24.155449,-1.000000,0.987396,0.007112,0.337897,0.000000,0.000000,0.000000,0.000000,0.000000,0.000000,0.000000,
2176,2398,-1.75532202157284,-5.38487496063226,-0.00822184103589052,0.000000,0.000000,0.000000,0.000000,0.000000,324.776556,24.143820,-1.000000,0.986654,0.007276,0.377325,0.000000,0.000000,0.000000,0.000000,0.000000,0.000000,0.000000,
2176,2428,-1.76046014285316,-4.72901458506777,-0.0100751521079587,0.000000,0.000000,0.000000,0.000000,0.000000,324.276280,24.214877,-1.000000,0.986172,0.007395,0.333912,0.000000,0.000000,0.000000,0.000000,0.000000,0.000000,0.000000,
2176,2458,-1.76538058545419,-4.07478515817843,-0.008764337964692,0.000000,0.000000,0.000000,0.000000,0.000000,323.802789,24.186318,-1.000000,0.986713,0.007435,0.389739,0.000000,0.000000,0.000000,0.000000,0.000000,0.000000,0.000000,
2176,2488,-1.77081393312659,-3.41893699799934,-0.014809064279234,0.000000,0.000000,0.000000,0.000000,0.000000,323.266960,24.257924,-1.000000,0.984216,0.008076,0.345441,0.000000,0.000000,0.000000,0.000000,0.000000,0.000000,0.000000,
2176,2518,-1.77599697946335,-2.76457770276126,-0.0171876405781859,0.000000,0.000000,0.000000,0.000000,0.000000,322.762012,24.247319,-1.000000,0.986568,0.007334,0.382805,0.000000,0.000000,0.000000,0.000000,0.000000,0.000000,0.000000,
2176,2548,-1.78130505794217,-2.10979746667351,-0.0212862325001311,0.000000,0.000000,0.000000,0.000000,0.000000,322.242176,24.279926,-1.000000,0.988203,0.006721,0.376871,0.000000,0.000000,0.000000,0.000000,0.000000,0.000000,0.000000,
2176,2578,-1.78640383978175,-1.45598695519393,-0.0222742498232833,0.000000,0.000000,0.000000,0.000000,0.000000,321.748355,24.271027,-1.000000,0.988341,0.006610,0.411969,0.000000,0.000000,0.000000,0.000000,0.000000,0.000000,0.000000,
2176,2608,-1.79166915940589,-0.801086391787919,-0.0255430665428094,0.000000,0.000000,0.000000,0.000000,0.000000,321.234637,24.361632,-1.000000,0.988535,0.006676,0.347388,0.000000,0.000000,0.000000,0.000000,0.000000,0.000000,0.000000,
2176,2638,-1.79669673016038,-0.147893613705435,-0.0253399405809205,0.000000,0.000000,0.000000,0.000000,0.000000,320.750337,24.344643,-1.000000,0.990052,0.006558,0.390115,0.000000,0.000000,0.000000,0.000000,0.000000,0.000000,0.000000,
2176,2668,-1.80139023575753,0.505347827090873,-0.0200902108734908,0.000000,0.000000,0.000000,0.000000,0.000000,320.307690,24.392481,-1.000000,0.992131,0.005896,0.367650,0.000000,0.000000,0.000000,0.000000,0.000000,0.000000,0.000000,
2176,2698,-1.80697195722016,1.15921143009918,-0.0278539841955308,0.000000,0.000000,0.000000,0.000000,0.000000,319.756006,24.408084,-1.000000,0.990844,0.005991,0.377476,0.000000,0.000000,0.000000,0.000000,0.000000,0.000000,0.000000,
2176,2728,-1.81213104536576,1.81197882444756,-0.0293495776846839,0.000000,0.000000,0.000000,0.000000,0.000000,319.256725,24.393774,-1.000000,0.990115,0.006351,0.416671,0.000000,0.000000,0.000000,0.000000,0.000000,0.000000,0.000000,
2176,2758,-1.81704120082868,2.46515699581931,-0.0270365145497635,0.000000,0.000000,0.000000,0.000000,0.000000,318.788625,24.465635,-1.000000,0.990045,0.006334,0.369716,0.000000,0.000000,0.000000,0.000000,0.000000,0.000000,0.000000,
2176,2788,-1.82217562108083,3.11805794332798,-0.0279723701443686,0.000000,0.000000,0.000000,0.000000,0.000000,318.293248,24.504108,-1.000000,0.989873,0.006546,0.355787,0.000000,0.000000,0.000000,0.000000,0.000000,0.000000,0.000000,
2176,2818,-1.82754286836099,3.77121527310089,-0.0322460376792151,0.000000,0.000000,0.000000,0.000000,0.000000,317.769563,24.558705,-1.000000,0.990940,0.006104,0.325414,0.000000,0.000000,0.000000,0.000000,0.000000,0.000000,0.000000,
2176,2848,-1.83234141735853,4.42280712472874,-0.0281146907630614,0.000000,0.000000,0.000000,0.000000,0.000000,317.316406,24.550944,-1.000000,0.991708,0.005686,0.357251,0.000000,0.000000,0.000000,0.000000,0.000000,0.000000,0.000000,
2176,2878,-1.83630003269484,5.07382790903424,-0.0114968025880557,0.000000,0.000000,0.000000,0.000000,0.000000,316.967378,24.598307,-1.000000,0.993009,0.005386,0.333474,0.000000,0.000000,0.000000,0.000000,0.000000,0.000000,0.000000,
2176,2908,-1.84125943849155,5.7250316051531,-0.00958063116246421,0.000000,0.000000,0.000000,0.000000,0.000000,316.495301,24.569302,-1.000000,0.992572,0.005679,0.386355,0.000000,0.000000,0.000000,0.000000,0.000000,0.000000,0.000000,
2176,2938,-1.8462726591847,6.3771877402293,-0.0083119268616656,0.000000,0.000000,0.000000,0.000000,0.000000,316.017011,24.639719,-1.000000,0.990386,0.006090,0.339393,0.000000,0.000000,0.000000,0.000000,0.000000,0.000000,0.000000,
2176,2968,-1.85070065044981,7.02778845042731,0.00161880253114077,0.000000,0.000000,0.000000,0.000000,0.000000,315.611469,24.643350,-1.000000,0.992333,0.005497,0.358825,0.000000,0.000000,0.000000,0.000000,0.000000,0.000000,0.000000,
2176,2998,-1.8557899085159,7.67926085854767,0.00190903751337146,0.000000,0.000000,0.000000,0.000000,0.000000,315.124692,24.675745,-1.000000,0.991973,0.005756,0.349468,0.000000,0.000000,0.000000,0.000000,0.000000,0.000000,0.000000,
2176,3028,-1.8606891002121,8.33006619461503,0.00506904607226488,0.000000,0.000000,0.000000,0.000000,0.000000,314.661873,24.682125,-1.000000,0.992051,0.005903,0.366055,0.000000,0.000000,0.000000,0.000000,0.000000,0.000000,0.000000,
2176,3058,-1.86478956805211,8.9798175544414,0.0200851341037378,0.000000,0.000000,0.000000,0.000000,0.000000,314.298286,24.683733,-1.000000,0.995451,0.004895,0.387043,0.000000,0.000000,0.000000,0.000000,0.000000,0.000000,0.000000,
2176,3088,-1.87030499695507,9.6315764897033,0.0143632699165437,0.000000,0.000000,0.000000,0.000000,0.000000,313.760150,24.750391,-1.000000,0.993339,0.005318,0.343163,0.000000,0.000000,0.000000,0.000000,0.000000,0.000000,0.000000,
2176,3118,-1.87463780106157,10.2810937353937,0.0261236094224273,0.000000,0.000000,0.000000,0.000000,0.000000,313.368857,24.736619,-1.000000,0.993117,0.005433,0.379090,0.000000,0.000000,0.000000,0.000000,0.000000,0.000000,0.000000,
2176,3148,-1.87988405718249,10.9320484905869,0.0245315344335495,0.000000,0.000000,0.000000,0.000000,0.000000,312.864947,24.786632,-1.000000,0.993207,0.005504,0.351270,0.000000,0.000000,0.000000,0.000000,0.000000,0.000000,0.000000,
2176,3178,-1.8839246828358,11.5808360319738,0.0407763401240686,0.000000,0.000000,0.000000,0.000000,0.000000,312.510883,24.758629,-1.000000,0.995249,0.004912,0.401465,0.000000,0.000000,0.000000,0.000000,0.000000,0.000000,0.000000,
2176,3208,-1.88939122007234,12.2317805783831,0.0361132464530556,0.000000,0.000000,0.000000,0.000000,0.000000,311.980637,24.819173,-1.000000,0.994890,0.004923,0.362774,0.000000,0.000000,0.000000,0.000000,0.000000,0.000000,0.000000,
2176,3238,-1.89450080979602,12.8817824049458,0.0367875223099077,0.000000,0.000000,0.000000,0.000000,0.000000,311.495137,24.839426,-1.000000,0.994884,0.004873,0.364209,0.000000,0.000000,0.000000,0.000000,0.000000,0.000000,0.000000,
2176,3268,-1.90130299755492,13.532952476003,0.0125665382411739,0.000000,0.000000,0.000000,0.000000,0.000000,310.800422,24.845137,-1.000000,0.994249,0.005027,0.380196,0.000000,0.000000,0.000000,0.000000,0.000000,0.000000,0.000000,
2191,2023,-1.36348811960984,-13.5979186473228,0.0251709219416512,0.000000,0.000000,0.000000,0.000000,0.000000,331.045587,23.733217,-1.000000,0.984018,0.008051,0.314912,0.000000,0.000000,0.000000,0.000000,0.000000,0.000000,0.000000,
2191,2053,-1.36936403259944,-12.9382101055591,0.0125808828116192,0.000000,0.000000,0.000000,0.000000,0.000000,330.458934,23.767008,-1.000000,0.982692,0.008271,0.317688,0.000000,0.000000,0.000000,0.000000,0.000000,0.000000,0.000000,
2191,2083,-1.37438669582287,-12.2796060798647,0.0125027139758345,0.000000,0.000000,0.000000,0.000000,0.000000,329.976061,23.863267,-1.000000,0.983631,0.008473,0.257116,0.000000,0.000000,0.000000,0.000000,0.000000,0.000000,0.000000,
2191,2113,-1.37900503073216,-11.6231658241438,0.0181960172319577,0.000000,0.000000,0.000000,0.000000,0.000000,329.541788,23.846738,-1.000000,0.982738,0.008345,0.308583,0.000000,0.000000,0.000000,0.000000,0.000000,0.000000,0.000000,
2191,2143,-1.38420752377918,-10.9654734293177,0.015551645319249,0.000000,0.000000,0.000000,0.000000,0.000000,329.037415,23.874840,-1.000000,0.982894,0.008191,0.315368,0.000000,0.000000,0.000000,0.000000,0.000000,0.000000,0.000000,
2191,2173,-1.38943986342229,-10.3084880042194,0.0124797186284695,0.000000,0.000000,0.000000,0.000000,0.000000,328.529498,23.856023,-1.000000,0.968398,0.010327,0.369037,0.000000,0.000000,0.000000,0.000000,0.000000,0.000000,0.000000,
2191,2203,-1.39483677765665,-9.65052266628407,0.00720198296704666,0.000000,0.000000,0.000000,0.000000,0.000000,328.002390,23.925610,-1.000000,0.979173,0.008878,0.333799,0.000000,0.000000,0.000000,0.000000,0.000000,0.000000,0.000000,
2191,2233,-1.39974871168816,-8.99370829974401,0.00900895697810711,0.000000,0.000000,0.000000,0.000000,0.000000,327.534267,23.985735,-1.000000,0.982389,0.008382,0.307524,0.000000,0.000000,0.000000,0.000000,0.000000,0.000000,0.000000,
2191,2263,-1.40529075869987,-8.33661570040116,0.00168468861318161,0.000000,0.000000,0.000000,0.000000,0.000000,326.989888,23.998712,-1.000000,0.981602,0.008466,0.328486,0.000000,0.000000,0.000000,0.000000,0.000000,0.000000,0.000000,
2191,2293,-1.41033071116013,-7.68020290370369,0.0017515557398724,0.000000,0.000000,0.000000,0.000000,0.000000,326.506812,24.046519,-1.000000,0.982607,0.008221,0.314108,0.000000,0.000000,0.000000,0.000000,0.000000,0.000000,0.000000,
2191,2323,-1.41527402382112,-7.02504327771688,0.00319357163328959,0.000000,0.000000,0.000000,0.000000,0.000000,326.035454,24.013917,-1.000000,0.985459,0.007572,0.379626,0.000000,0.000000,0.000000,0.000000,0.000000,0.000000,0.000000,
2191,2353,-1.42010951409182,-6.36989784917723,0.00631122756726654,0.000000,0.000000,0.000000,0.000000,0.000000,325.577665,24.016267,-1.000000,0.987523,0.007368,0.409800,0.000000,0.000000,0.000000,0.000000,0.000000,0.000000,0.000000,
2191,2383,-1.42590748589738,-5.71318490141162,-0.00443924458204492,0.000000,0.000000,0.000000,0.000000,0.000000,325.003524,24.047801,-1.000000,0.987488,0.007236,0.411040,0.000000,0.000000,0.000000,0.000000,0.000000,0.000000,0.000000,
2191,2413,-1.43113291501717,-5.05699621036873,-0.00675379526774122,0.000000,0.000000,0.000000,0.000000,0.000000,324.499342,24.134433,-1.000000,0.987032,0.007299,0.356668,0.000000,0.000000,0.000000,0.000000,0.000000,0.000000,0.000000,
2191,2443,-1.43638558779922,-4.40158102676665,-0.00945680944522564,0.000000,0.000000,0.000000,0.000000,0.000000,323.991973,24.167180,-1.000000,0.986003,0.007541,0.355881,0.000000,0.000000,0.000000,0.000000,0.000000,0.000000,0.000000,
2191,2473,-1.4420737141549,-3.74599464893758,-0.0184390373501628,0.000000,0.000000,0.000000,0.000000,0.000000,323.431948,24.178228,-1.000000,0.984422,0.008106,0.376755,0.000000,0.000000,0.000000,0.000000,0.000000,0.000000,0.000000,
2191,2503,-1.44689225052388,-3.09163090438096,-0.0146980817937106,0.000000,0.000000,0.000000,0.000000,0.000000,322.977970,24.214713,-1.000000,0.985666,0.007720,0.371343,0.000000,0.000000,0.000000,0.000000,0.000000,0.000000,0.000000,
2191,2533,-1.45229274806109,-2.43686647432762,-0.0193616422433252,0.000000,0.000000,0.000000,0.000000,0.000000,322.453541,24.231134,-1.000000,0.988897,0.006770,0.386073,0.000000,0.000000,0.000000,0.000000,0.000000,0.000000,0.000000,
2191,2563,-1.45669556701889,-1.78397419303004,-0.0094823483529467,0.000000,0.000000,0.000000,0.000000,0.000000,322.050711,24.224304,-1.000000,0.990017,0.006357,0.423562,0.000000,0.000000,0.000000,0.000000,0.000000,0.000000,0.000000,
2191,2593,-1.46245280892315,-1.1285384455607,-0.0191374946397218,0.000000,0.000000,0.000000,0.000000,0.000000,321.483686,24.297785,-1.000000,0.988163,0.006645,0.380905,0.000000,0.000000,0.000000,0.000000,0.000000,0.000000,0.000000,
2191,2623,-1.46739461078917,-0.474893729331228,-0.0169129327096016,0.000000,0.000000,0.000000,0.000000,0.000000,321.016090,24.329744,-1.000000,0.987020,0.007132,0.379176,0.000000,0.000000,0.000000,0.000000,0.000000,0.000000,0.000000,
2191,2653,-1.47287581667485,0.179243980430556,-0.0224609175659225,0.000000,0.000000,0.000000,0.000000,0.000000,320.483181,24.359860,-1.000000,0.989789,0.006588,0.379337,0.000000,0.000000,0.000000,0.000000,0.000000,0.000000,0.000000,
2191,2683,-1.47745397757891,0.831963989030278,-0.0148103967432576,0.000000,0.000000,0.000000,0.000000,0.000000,320.060563,24.388617,-1.000000,0.993377,0.005501,0.380149,0.000000,0.000000,0.000000,0.000000,0.000000,0.000000,0.000000,
2191,2713,-1.48375228462087,1.48687458224485,-0.0320898560382261,0.000000,0.000000,0.000000,0.000000,0.000000,319.428804,24.432764,-1.000000,0.990502,0.006051,0.365768,0.000000,0.000000,0.000000,0.000000,0.000000,0.000000,0.000000,
2191,2743,-1.48798266207585,2.13881327194623,-0.0192328532897932,0.000000,0.000000,0.000000,0.000000,0.000000,319.049300,24.466837,-1.000000,0.990655,0.006187,0.360841,0.000000,0.000000,0.000000,0.000000,0.000000,0.000000,0.000000,
2191,2773,-1.49421708657466,2.79306106879562,-0.0354557143845682,0.000000,0.000000,0.000000,0.000000,0.000000,318.425913,24.500005,-1.000000,0.990039,0.006359,0.357118,0.000000,0.000000,0.000000,0.000000,0.000000,0.000000,0.000000,
2191,2803,-1.49876219033751,3.44503674937935,-0.0270286110721827,0.000000,0.000000,0.000000,0.000000,0.000000,318.008813,24.536043,-1.000000,0.987450,0.006923,0.349712,0.000000,0.000000,0.000000,0.000000,0.000000,0.000000,0.000000,
2191,2833,-1.50350032424709,4.09669154854276,-0.0213598958396233,0.000000,0.000000,0.000000,0.000000,0.000000,317.568556,24.537030,-1.000000,0.990129,0.006128,0.377154,0.000000,0.000000,0.000000,0.000000,0.000000,0.000000,0.000000,
2191,2863,-1.50842604007024,4.74876565419633,-0.0183205798634845,0.000000,0.000000,0.000000,0.000000,0.000000,317.105831,24.572906,-1.000000,0.991495,0.005662,0.369725,0.000000,0.000000,0.000000,0.000000,0.000000,0.000000,0.000000,
2191,2893,-1.51320420278834,5.4007309155685,-0.013043306543068,0.000000,0.000000,0.000000,0.000000,0.000000,316.661507,24.631404,-1.000000,0.995222,0.005045,0.339301,0.000000,0.000000,0.000000,0.000000,0.000000,0.000000,0.000000,
2191,2923,-1.51812807951982,6.05231160730118,-0.00983438706583684,0.000000,0.000000,0.000000,0.000000,0.000000,316.199790,24.655412,-1.000000,0.991480,0.005900,0.343469,0.000000,0.000000,0.000000,0.000000,0.000000,0.000000,0.000000,
2191,2953,-1.52268422459938,6.7031347798967,-0.00120262625620171,0.000000,0.000000,0.000000,0.000000,0.000000,315.783394,24.663556,-1.000000,0.992072,0.005626,0.362935,0.000000,0.000000,0.000000,0.000000,0.000000,0.000000,0.000000,
2191,2983,-1.52758747391025,7.35428702840472,0.00245935835295086,0.000000,0.000000,0.000000,0.000000,0.000000,315.325025,24.682254,-1.000000,0.992061,0.005621,0.371851,0.000000,0.000000,0.000000,0.000000,0.000000,0.000000,0.000000,
2191,3013,-1.53223893063891,8.004851790073,0.00986074461269482,0.000000,0.000000,0.000000,0.000000,0.000000,314.897853,24.687419,-1.000000,0.991671,0.005880,0.394015,0.000000,0.000000,0.000000,0.000000,0.000000,0.000000,0.000000,
2191,3043,-1.53684461655281,8.6568154712863,0.0180876209153098,0.000000,0.000000,0.000000,0.000000,0.000000,314.476578,24.840995,-1.000000,0.994855,0.005115,0.267503,0.000000,0.000000,0.000000,0.000000,0.000000,0.000000,0.000000,
2191,3073,-1.54163377491249,9.30593338272896,0.0235835707327396,0.000000,0.000000,0.000000,0.000000,0.000000,314.033567,24.728953,-1.000000,0.994286,0.005130,0.406654,0.000000,0.000000,0.000000,0.000000,0.000000,0.000000,0.000000,
2191,3103,-1.54664326467423,9.95694108964605,0.0260352175923799,0.000000,0.000000,0.000000,0.000000,0.000000,313.563867,24.786190,-1.000000,0.992756,0.005530,0.376390,0.000000,0.000000,0.000000,0.000000,0.000000,0.000000,0.000000,
2191,3133,-1.55155886532068,10.6078231309838,0.0299398004473801,0.000000,0.000000,0.000000,0.000000,0.000000,313.106046,24.855887,-1.000000,0.992700,0.005632,0.333409,0.000000,0.000000,0.000000,0.000000,0.000000,0.000000,0.000000,
2191,3163,-1.557645077674,11.2595815310501,0.0168508082409744,0.000000,0.000000,0.000000,0.000000,0.000000,312.505377,24.918980,-1.000000,0.994825,0.005060,0.296743,0.000000,0.000000,0.000000,0.000000,0.000000,0.000000,0.000000,
2191,3193,-1.56168222117559,11.907844114222,0.0336715202686833,0.000000,0.000000,0.000000,0.000000,0.000000,312.156174,24.854181,-1.000000,0.995624,0.004865,0.387958,0.000000,0.000000,0.000000,0.000000,0.000000,0.000000,0.000000,
2191,3223,-1.56708121634076,12.558813200312,0.0307722268095176,0.000000,0.000000,0.000000,0.000000,0.000000,311.640413,24.936607,-1.000000,0.994917,0.004950,0.331680,0.000000,0.000000,0.000000,0.000000,0.000000,0.000000,0.000000,
2191,3253,-1.5723397771158,13.2081033827671,0.0299573374198303,0.000000,0.000000,0.000000,0.000000,0.000000,311.142551,24.891757,-1.000000,0.994457,0.004985,0.402699,0.000000,0.000000,0.000000,0.000000,0.000000,0.000000,0.000000,
2206,2038,-1.03847085974043,-13.2695962686611,0.0271718790921227,0.000000,0.000000,0.000000,0.000000,0.000000,330.780290,23.633538,-1.000000,0.980298,0.008679,0.333411,0.000000,0.000000,0.000000,0.000000,0.000000,0.000000,0.000000,
2206,2068,-1.04363933476571,-12.6110912074958,0.0257724774592702,0.000000,0.000000,0.000000,0.000000,0.000000,330.286650,23.693643,-1.000000,0.979523,0.008961,0.313755,0.000000,0.000000,0.000000,0.000000,0.000000,0.000000,0.000000,
2206,2098,-1.04934828938953,-11.9523609515271,0.0166305174303716,0.000000,0.000000,0.000000,0.000000,0.000000,329.728377,23.711809,-1.000000,0.982151,0.008492,0.335646,0.000000,0.000000,0.000000,0.000000,0.000000,0.000000,0.000000,
2206,2128,-1.05433836778243,-11.2951237633797,0.0178503658879663,0.000000,0.000000,0.000000,0.000000,0.000000,329.256353,23.729910,-1.000000,0.982284,0.008223,0.357173,0.000000,0.000000,0.000000,0.000000,0.000000,0.000000,0.000000,
2206,2158,-1.05975567163705,-10.6373855259261,0.0130114613791648,0.000000,0.000000,0.000000,0.000000,0.000000,328.733481,23.750224,-1.000000,0.985363,0.007780,0.376020,0.000000,0.000000,0.000000,0.000000,0.000000,0.000000,0.000000,
2206,2188,-1.06488786809319,-9.97950844453024,0.012423077228334,0.000000,0.000000,0.000000,0.000000,0.000000,328.245391,23.850576,-1.000000,0.982361,0.008264,0.314604,0.000000,0.000000,0.000000,0.000000,0.000000,0.000000,0.000000,
2206,2218,-1.07040791079391,-9.32163280689264,0.00628494679949654,0.000000,0.000000,0.000000,0.000000,0.000000,327.710910,23.914491,-1.000000,0.982307,0.008435,0.289414,0.000000,0.000000,0.000000,0.000000,0.000000,0.000000,0.000000,
2206,2248,-1.07610186511885,-8.66436481318954,-0.00236133286830409,0.000000,0.000000,0.000000,0.000000,0.000000,327.155551,23.919921,-1.000000,0.982735,0.008295,0.322528,0.000000,0.000000,0.000000,0.000000,0.000000,0.000000,0.000000,
2206,2278,-1.08062927603114,-8.00883244913986,0.005827572186206,0.000000,0.000000,0.000000,0.000000,0.000000,326.740426,23.960162,-1.000000,0.982672,0.008187,0.319802,0.000000,0.000000,0.000000,0.000000,0.000000,0.000000,0.000000,
2206,2308,-1.08544586097151,-7.35354893153541,0.00987815873236286,0.000000,0.000000,0.000000,0.000000,0.000000,326.290756,23.954693,-1.000000,0.985246,0.007482,0.362901,0.000000,0.000000,0.000000,0.000000,0.000000,0.000000,0.000000,
2206,2338,-1.09125212890954,-6.69597237982549,-0.000102789678578574,0.000000,0.000000,0.000000,0.000000,0.000000,325.723029,24.040158,-1.000000,0.989037,0.006974,0.314959,0.000000,0.000000,0.000000,0.000000,0.000000,0.000000,0.000000,
2206,2368,-1.09678913905988,-6.04005713305152,-0.00626658986396933,0.000000,0.000000,0.000000,0.000000,0.000000,325.187478,24.033832,-1.000000,0.988443,0.007131,0.358651,0.000000,0.000000,0.000000,0.000000,0.000000,0.000000,0.000000,
2206,2398,-1.10189947845333,-5.38418030949308,-0.00615789171990855,0.000000,0.000000,0.000000,0.000000,0.000000,324.703680,24.105733,-1.000000,0.988785,0.006933,0.323372,0.000000,0.000000,0.000000,0.000000,0.000000,0.000000,0.000000,
2206,2428,-1.10626831446829,-4.73131010815692,0.00448955951196695,0.000000,0.000000,0.000000,0.000000,0.000000,324.308687,24.021656,-1.000000,0.988040,0.007124,0.443489,0.000000,0.000000,0.000000,0.000000,0.000000,0.000000,0.000000,
2206,2458,-1.11224975151822,-4.07415704424632,-0.00774029736538751,0.000000,0.000000,0.000000,0.000000,0.000000,323.720970,24.134053,-1.000000,0.985127,0.007843,0.367587,0.000000,0.000000,0.000000,0.000000,0.000000,0.000000,0.000000,
2206,2488,-1.11821881472273,-3.41776984689784,-0.0197844238800258,0.000000,0.000000,0.000000,0.000000,0.000000,323.134789,24.201131,-1.000000,0.985487,0.007750,0.336804,0.000000,0.000000,0.000000,0.000000,0.000000,0.000000,0.000000,
2206,2518,-1.12323144161305,-2.76431772881871,-0.0181549023635057,0.000000,0.000000,0.000000,0.000000,0.000000,322.663470,24.145268,-1.000000,0.988088,0.007012,0.428383,0.000000,0.000000,0.000000,0.000000,0.000000,0.000000,0.000000,
2206,2548,-1.12830516162466,-2.10901091089713,-0.0171570706390867,0.000000,0.000000,0.000000,0.000000,0.000000,322.185589,24.272469,-1.000000,0.990713,0.006298,0.336379,0.000000,0.000000,0.000000,0.000000,0.000000,0.000000,0.000000,
2206,2578,-1.13342065244113,-1.45547647307316,-0.0168408833317812,0.000000,0.000000,0.000000,0.000000,0.000000,321.702609,24.250137,-1.000000,0.989650,0.006343,0.393677,0.000000,0.000000,0.000000,0.000000,0.000000,0.000000,0.000000,
2206,2608,-1.13891095297847,-0.800769571587253,-0.021769816045321,0.000000,0.000000,0.000000,0.000000,0.000000,321.175012,24.309067,-1.000000,0.985557,0.007316,0.369814,0.000000,0.000000,0.000000,0.000000,0.000000,0.000000,0.000000,
2206,2638,-1.14401300328289,-0.147301887325966,-0.0210974490313447,0.000000,0.000000,0.000000,0.000000,0.000000,320.694328,24.321784,-1.000000,0.986708,0.007318,0.391553,0.000000,0.000000,0.000000,0.000000,0.000000,0.000000,0.000000,
2206,2668,-1.14930001804501,0.506909023686717,-0.0229615451964946,0.000000,0.000000,0.000000,0.000000,0.000000,320.191793,24.399980,-1.000000,0.991902,0.005988,0.347807,0.000000,0.000000,0.000000,0.000000,0.000000,0.000000,0.000000,
2206,2698,-1.155386914534,1.16044951258934,-0.0363794903761345,0.000000,0.000000,0.000000,0.000000,0.000000,319.592979,24.341281,-1.000000,0.992396,0.005654,0.440895,0.000000,0.000000,0.000000,0.000000,0.000000,0.000000,0.000000,
2206,2728,-1.15996463219711,1.81351030434714,-0.0279020016421327,0.000000,0.000000,0.000000,0.000000,0.000000,319.176492,24.436209,-1.000000,0.989649,0.006275,0.379666,0.000000,0.000000,0.000000,0.000000,0.000000,0.000000,0.000000,
2206,2758,-1.16478394714576,2.46624492845557,-0.0228663223760464,0.000000,0.000000,0.000000,0.000000,0.000000,318.731170,24.489724,-1.000000,0.990616,0.006180,0.359654,0.000000,0.000000,0.000000,0.000000,0.000000,0.000000,0.000000,
2206,2788,-1.16993256509096,3.11883624372854,-0.0225257957673648,0.000000,0.000000,0.000000,0.000000,0.000000,318.246448,24.510164,-1.000000,0.988904,0.006619,0.372689,0.000000,0.000000,0.000000,0.000000,0.000000,0.000000,0.000000,
2206,2818,-1.17506424493202,3.7709725802932,-0.0218895298201005,0.000000,0.000000,0.000000,0.000000,0.000000,317.764081,24.508645,-1.000000,0.988286,0.006630,0.407071,0.000000,0.000000,0.000000,0.000000,0.000000,0.000000,0.000000,
2206,2848,-1.17999496796729,4.42361657418207,-0.0182302989196614,0.000000,0.000000,0.000000,0.000000,0.000000,317.306338,24.593661,-1.000000,0.990975,0.005839,0.355218,0.000000,0.000000,0.000000,0.000000,0.000000,0.000000,0.000000,
2206,2878,-1.18497563031005,5.07564742077085,-0.0152535603198203,0.000000,0.000000,0.000000,0.000000,0.000000,316.842883,24.633649,-1.000000,0.993955,0.005130,0.347802,0.000000,0.000000,0.000000,0.000000,0.000000,0.000000,0.000000,
2206,2908,-1.18977698569038,5.72679765408643,-0.00965549211463212,0.000000,0.000000,0.000000,0.000000,0.000000,316.401418,24.627828,-1.000000,0.993202,0.005626,0.386118,0.000000,0.000000,0.000000,0.000000,0.000000,0.000000,0.000000,
2206,2938,-1.19476947811265,6.37857883114163,-0.0067020736794916,0.000000,0.000000,0.000000,0.000000,0.000000,315.937238,24.676777,-1.000000,0.992113,0.005703,0.369421,0.000000,0.000000,0.000000,0.000000,0.000000,0.000000,0.000000,
2206,2968,-1.19952123004523,7.03014816738559,-0.000198745056309235,0.000000,0.000000,0.000000,0.000000,0.000000,315.502481,24.746731,-1.000000,0.991487,0.005797,0.331544,0.000000,0.000000,0.000000,0.000000,0.000000,0.000000,0.000000,
2206,2998,-1.20512554043536,7.68199996717992,-0.00592920889613424,0.000000,0.000000,0.000000,0.000000,0.000000,314.965083,24.774702,-1.000000,0.991867,0.005730,0.335697,0.000000,0.000000,0.000000,0.000000,0.000000,0.000000,0.000000,
2206,3028,-1.20977771110596,8.33254696271312,0.00212180670558837,0.000000,0.000000,0.000000,0.000000,0.000000,314.543110,24.791964,-1.000000,0.993460,0.005388,0.349928,0.000000,0.000000,0.000000,0.000000,0.000000,0.000000,0.000000,
2206,3058,-1.21430404425553,8.98295329535323,0.012068590468175,0.000000,0.000000,0.000000,0.000000,0.000000,314.136738,24.822545,-1.000000,0.994815,0.004972,0.351088,0.000000,0.000000,0.000000,0.000000,0.000000,0.000000,0.000000,
2206,3088,-1.21901571637064,9.63401957483426,0.0194485321022739,0.000000,0.000000,0.000000,0.000000,0.000000,313.708285,24.910868,-1.000000,0.992812,0.005465,0.293925,0.000000,0.000000,0.000000,0.000000,0.000000,0.000000,0.000000,
2206,3118,-1.22373331246401,10.2835833360352,0.0267583483368412,0.000000,0.000000,0.000000,0.000000,0.000000,313.279667,24.874195,-1.000000,0.992648,0.005669,0.361774,0.000000,0.000000,0.000000,0.000000,0.000000,0.000000,0.000000,
2206,3148,-1.22888591730409,10.9342004779451,0.0279084298556995,0.000000,0.000000,0.000000,0.000000,0.000000,312.798715,24.910815,-1.000000,0.993244,0.005475,0.356417,0.000000,0.000000,0.000000,0.000000,0.000000,0.000000,0.000000,
2206,3178,-1.23419384928203,11.5849075044533,0.0268978031653546,0.000000,0.000000,0.000000,0.000000,0.000000,312.299314,24.958121,-1.000000,0.994819,0.005012,0.339954,0.000000,0.000000,0.000000,0.000000,0.000000,0.000000,0.000000,
2206,3208,-1.23908816408634,12.2344836917671,0.0319061472966382,0.000000,0.000000,0.000000,0.000000,0.000000,311.850472,24.951644,-1.000000,0.994522,0.005088,0.377159,0.000000,0.000000,0.000000,0.000000,0.000000,0.000000,0.000000,
2206,3238,-1.24461709019391,12.8849503423239,0.0278558115875853,0.000000,0.000000,0.000000,0.000000,0.000000,311.325076,24.989851,-1.000000,0.995127,0.004844,0.369587,0.000000,0.000000,0.000000,0.000000,0.000000,0.000000,0.000000,
2206,3268,-1.2509440251128,13.5356263712003,0.0123575077473674,0.000000,0.000000,0.000000,0.000000,0.000000,310.703401,25.000472,-1.000000,0.993682,0.005099,0.389233,0.000000,0.000000,0.000000,0.000000,0.000000,0.000000,0.000000,
2221,2023,-0.708696517067132,-13.5979998148296,0.024297139008695,0.000000,0.000000,0.000000,0.000000,0.000000,330.959789,23.581856,-1.000000,0.982164,0.008575,0.263706,0.000000,0.000000,0.000000,0.000000,0.000000,0.000000,0.000000,
2221,2053,-0.714488020616248,-12.9389033213634,0.0148284994898518,0.000000,0.000000,0.000000,0.000000,0.000000,330.399087,23.595785,-1.000000,0.977886,0.009091,0.295106,0.000000,0.000000,0.000000,0.000000,0.000000,0.000000,0.000000,
2221,2083,-0.719550225549145,-12.2808882999545,0.015803733806024,0.000000,0.000000,0.000000,0.000000,0.000000,329.925070,23.650633,-1.000000,0.980014,0.008895,0.284438,0.000000,0.000000,0.000000,0.000000,0.000000,0.000000,0.000000,
2221,2113,-0.72446680520407,-11.6240969052368,0.0188066320177995,0.000000,0.000000,0.000000,0.000000,0.000000,329.468146,23.637386,-1.000000,0.981321,0.008521,0.341778,0.000000,0.000000,0.000000,0.000000,0.000000,0.000000,0.000000,
2221,2143,-0.729642901516694,-10.9664086920105,0.0182754331132742,0.000000,0.000000,0.000000,0.000000,0.000000,328.981098,23.688673,-1.000000,0.982426,0.008242,0.334458,0.000000,0.000000,0.000000,0.000000,0.000000,0.000000,0.000000,
2221,2173,-0.734785476597608,-10.3094458042887,0.01822322863012,0.000000,0.000000,0.000000,0.000000,0.000000,328.498042,23.700379,-1.000000,0.984550,0.007879,0.366048,0.000000,0.000000,0.000000,0.000000,0.000000,0.000000,0.000000,
2221,2203,-0.740512714432978,-9.65148628344167,0.00997147627265349,0.000000,0.000000,0.000000,0.000000,0.000000,327.946088,23.738536,-1.000000,0.984253,0.007925,0.371239,0.000000,0.000000,0.000000,0.000000,0.000000,0.000000,0.000000,
2221,2233,-0.745592464861954,-8.99461283532744,0.0109801400944889,0.000000,0.000000,0.000000,0.000000,0.000000,327.471137,23.796422,-1.000000,0.983425,0.008083,0.356016,0.000000,0.000000,0.000000,0.000000,0.000000,0.000000,0.000000,
2221,2263,-0.751521140043113,-8.33634621698923,3.43082743938794E-05,0.000000,0.000000,0.000000,0.000000,0.000000,326.895887,23.880487,-1.000000,0.982664,0.008248,0.314885,0.000000,0.000000,0.000000,0.000000,0.000000,0.000000,0.000000,
2221,2293,-0.7561133346519,-7.68135323246476,0.0079976237772712,0.000000,0.000000,0.000000,0.000000,0.000000,326.478929,23.879083,-1.000000,0.985282,0.007509,0.358208,0.000000,0.000000,0.000000,0.000000,0.000000,0.000000,0.000000,
2221,2323,-0.76241024801713,-7.02388604342973,-0.00816056602673143,0.000000,0.000000,0.000000,0.000000,0.000000,325.860048,23.883254,-1.000000,0.987580,0.006973,0.396570,0.000000,0.000000,0.000000,0.000000,0.000000,0.000000,0.000000,
2221,2353,-0.768169256883038,-6.36718268040708,-0.0165974504586757,0.000000,0.000000,0.000000,0.000000,0.000000,325.305270,23.917875,-1.000000,0.988718,0.007069,0.403612,0.000000,0.000000,0.000000,0.000000,0.000000,0.000000,0.000000,
2221,2383,-0.772774102495834,-5.71219241541078,-0.00857063379453393,0.000000,0.000000,0.000000,0.000000,0.000000,324.887794,23.976820,-1.000000,0.988723,0.006988,0.385634,0.000000,0.000000,0.000000,0.000000,0.000000,0.000000,0.000000,
2221,2413,-0.777647858976064,-5.05627635917562,-0.00422979871143525,0.000000,0.000000,0.000000,0.000000,0.000000,324.438882,24.103261,-1.000000,0.991018,0.006430,0.300171,0.000000,0.000000,0.000000,0.000000,0.000000,0.000000,0.000000,
2221,2443,-0.782698781246015,-4.40183119692294,-0.00249899325376646,0.000000,0.000000,0.000000,0.000000,0.000000,323.968708,24.089355,-1.000000,0.988021,0.007158,0.354677,0.000000,0.000000,0.000000,0.000000,0.000000,0.000000,0.000000,
2221,2473,-0.788247501577498,-3.74677252694672,-0.00776600221138324,0.000000,0.000000,0.000000,0.000000,0.000000,323.439679,24.086341,-1.000000,0.986922,0.007387,0.398291,0.000000,0.000000,0.000000,0.000000,0.000000,0.000000,0.000000,
2221,2503,-0.794083714315981,-3.09096880574985,-0.0170049225704361,0.000000,0.000000,0.000000,0.000000,0.000000,322.876850,24.136518,-1.000000,0.987688,0.007011,0.388662,0.000000,0.000000,0.000000,0.000000,0.000000,0.000000,0.000000,
2221,2533,-0.79909584193706,-2.43590763332014,-0.0144239197020397,0.000000,0.000000,0.000000,0.000000,0.000000,322.412364,24.246177,-1.000000,0.989803,0.006476,0.318851,0.000000,0.000000,0.000000,0.000000,0.000000,0.000000,0.000000,
2221,2563,-0.804645280074897,-1.78168330014601,-0.0195423446867267,0.000000,0.000000,0.000000,0.000000,0.000000,321.883895,24.229943,-1.000000,0.991054,0.006075,0.374733,0.000000,0.000000,0.000000,0.000000,0.000000,0.000000,0.000000,
2221,2593,-0.810099924484501,-1.12732780438358,-0.023212211208147,0.000000,0.000000,0.000000,0.000000,0.000000,321.367046,24.258678,-1.000000,0.986885,0.007005,0.385385,0.000000,0.000000,0.000000,0.000000,0.000000,0.000000,0.000000,
2221,2623,-0.815579850494466,-0.472994679479051,-0.0271693430024698,0.000000,0.000000,0.000000,0.000000,0.000000,320.847455,24.302775,-1.000000,0.985451,0.007468,0.380537,0.000000,0.000000,0.000000,0.000000,0.000000,0.000000,0.000000,
2221,2653,-0.82096562976832,0.18028775763041,-0.0297879871513373,0.000000,0.000000,0.000000,0.000000,0.000000,320.339191,24.281479,-1.000000,0.988947,0.006751,0.440932,0.000000,0.000000,0.000000,0.000000,0.000000,0.000000,0.000000,
2221,2683,-0.825952769693199,0.83386702341415,-0.0265957463086579,0.000000,0.000000,0.000000,0.000000,0.000000,319.878835,24.354452,-1.000000,0.992586,0.005700,0.406456,0.000000,0.000000,0.000000,0.000000,0.000000,0.000000,0.000000,
2221,2713,-0.8309979629332,1.48719410935535,-0.0241796819231013,0.000000,0.000000,0.000000,0.000000,0.000000,319.411808,24.415418,-1.000000,0.990622,0.005925,0.383836,0.000000,0.000000,0.000000,0.000000,0.000000,0.000000,0.000000,
2221,2743,-0.836620472807713,2.14100897756524,-0.0299172881892673,0.000000,0.000000,0.000000,0.000000,0.000000,318.876228,24.473769,-1.000000,0.989564,0.006364,0.363822,0.000000,0.000000,0.000000,0.000000,0.000000,0.000000,0.000000,
2221,2773,-0.841259963825927,2.79302882241121,-0.0216395727807708,0.000000,0.000000,0.000000,0.000000,0.000000,318.458064,24.496402,-1.000000,0.990194,0.006267,0.378908,0.000000,0.000000,0.000000,0.000000,0.000000,0.000000,0.000000,
2221,2803,-0.846819330890881,3.44618103093327,-0.0263709290063048,0.000000,0.000000,0.000000,0.000000,0.000000,317.930510,24.538634,-1.000000,0.989531,0.006509,0.374470,0.000000,0.000000,0.000000,0.000000,0.000000,0.000000,0.000000,
2221,2833,-0.851306205969163,4.09780100468274,-0.0157835276282299,0.000000,0.000000,0.000000,0.000000,0.000000,317.531174,24.574464,-1.000000,0.990914,0.006017,0.375834,0.000000,0.000000,0.000000,0.000000,0.000000,0.000000,0.000000,
2221,2863,-0.856948328031592,4.75092116501495,-0.0215518577597891,0.000000,0.000000,0.000000,0.000000,0.000000,316.994295,24.641644,-1.000000,0.991934,0.005499,0.346128,0.000000,0.000000,0.000000,0.000000,0.000000,0.000000,0.000000,
2221,2893,-0.861126929531085,5.40147524138855,-0.00646905829302113,0.000000,0.000000,0.000000,0.000000,0.000000,316.632386,24.643110,-1.000000,0.993172,0.005541,0.381612,0.000000,0.000000,0.000000,0.000000,0.000000,0.000000,0.000000,
2221,2923,-0.866245254456349,6.05368332432879,-0.00465096339576121,0.000000,0.000000,0.000000,0.000000,0.000000,316.158620,24.715069,-1.000000,0.992195,0.005841,0.346390,0.000000,0.000000,0.000000,0.000000,0.000000,0.000000,0.000000,
2221,2953,-0.871571375347774,6.70561072225908,-0.00574753561295438,0.000000,0.000000,0.000000,0.000000,0.000000,315.660322,24.757278,-1.000000,0.991894,0.005768,0.340864,0.000000,0.000000,0.000000,0.000000,0.000000,0.000000,0.000000,
2221,2983,-0.876418973327201,7.35674855620653,3.11106983303944E-05,0.000000,0.000000,0.000000,0.000000,0.000000,315.219501,24.790874,-1.000000,0.991567,0.005833,0.343791,0.000000,0.000000,0.000000,0.000000,0.000000,0.000000,0.000000,
2221,3013,-0.881262678482095,8.00749773087387,0.00592149392610963,0.000000,0.000000,0.000000,0.000000,0.000000,314.779489,24.804347,-1.000000,0.991663,0.005757,0.366246,0.000000,0.000000,0.000000,0.000000,0.000000,0.000000,0.000000,
2221,3043,-0.886655002905673,8.65922969986737,0.00409306253720843,0.000000,0.000000,0.000000,0.000000,0.000000,314.274170,24.872365,-1.000000,0.993981,0.005158,0.334459,0.000000,0.000000,0.000000,0.000000,0.000000,0.000000,0.000000,
2221,3073,-0.891080182952582,9.30935961693074,0.0160909926797217,0.000000,0.000000,0.000000,0.000000,0.000000,313.884866,24.898286,-1.000000,0.993574,0.005168,0.344405,0.000000,0.000000,0.000000,0.000000,0.000000,0.000000,0.000000,
2221,3103,-0.896020503685733,9.95963082010832,0.0208082801270848,0.000000,0.000000,0.000000,0.000000,0.000000,313.434327,24.904113,-1.000000,0.992658,0.005525,0.374193,0.000000,0.000000,0.000000,0.000000,0.000000,0.000000,0.000000,
2221,3133,-0.90105137319598,10.6095279917505,0.0242929569911894,0.000000,0.000000,0.000000,0.000000,0.000000,312.973342,24.882375,-1.000000,0.992801,0.005682,0.431699,0.000000,0.000000,0.000000,0.000000,0.000000,0.000000,0.000000,
2221,3163,-0.905694214753908,11.2603552243935,0.0334420945349621,0.000000,0.000000,0.000000,0.000000,0.000000,312.558954,24.994912,-1.000000,0.992614,0.005545,0.354400,0.000000,0.000000,0.000000,0.000000,0.000000,0.000000,0.000000,
2221,3193,-0.910696703901046,11.9103241828808,0.0374911647821818,0.000000,0.000000,0.000000,0.000000,0.000000,312.102014,25.011360,-1.000000,0.992995,0.005368,0.373329,0.000000,0.000000,0.000000,0.000000,0.000000,0.000000,0.000000,
2221,3223,-0.916097492353853,12.561113789137,0.035953079081537,0.000000,0.000000,0.000000,0.000000,0.000000,311.597599,25.085633,-1.000000,0.993768,0.005246,0.333918,0.000000,0.000000,0.000000,0.000000,0.000000,0.000000,0.000000,
2221,3253,-0.922273784891505,13.2112284314452,0.0233804915239375,0.000000,0.000000,0.000000,0.000000,0.000000,311.000807,25.051673,-1.000000,0.994372,0.004985,0.403036,0.000000,0.000000,0.000000,0.000000,0.000000,0.000000,0.000000,
2236,2038,-0.383426311484413,-13.2709001060954,0.0293701890279863,0.000000,0.000000,0.000000,0.000000,0.000000,330.729176,23.405970,-1.000000,0.979814,0.008844,0.362518,0.000000,0.000000,0.000000,0.000000,0.000000,0.000000,0.000000,
2236,2068,-0.388568011345154,-12.6118859721795,0.0301299421320209,0.000000,0.000000,0.000000,0.000000,0.000000,330.252957,23.537025,-1.000000,0.980251,0.008748,0.280601,0.000000,0.000000,0.000000,0.000000,0.000000,0.000000,0.000000,
2236,2098,-0.394246043238265,-11.953275015397,0.0232853393563914,0.000000,0.000000,0.000000,0.000000,0.000000,329.713583,23.569791,-1.000000,0.981328,0.008800,0.296798,0.000000,0.000000,0.000000,0.000000,0.000000,0.000000,0.000000,
2236,2128,-0.39970349095859,-11.2948594943561,0.0196349970855749,0.000000,0.000000,0.000000,0.000000,0.000000,329.200393,23.642796,-1.000000,0.980605,0.008601,0.272428,0.000000,0.000000,0.000000,0.000000,0.000000,0.000000,0.000000,
2236,2158,-0.405698621564024,-10.6363404644117,0.00843033298917817,0.000000,0.000000,0.000000,0.000000,0.000000,328.624129,23.667218,-1.000000,0.982787,0.008087,0.296584,0.000000,0.000000,0.000000,0.000000,0.000000,0.000000,0.000000,
2236,2188,-0.410596954736778,-9.97881684490411,0.012777904152756,0.000000,0.000000,0.000000,0.000000,0.000000,328.176974,23.788912,-1.000000,0.986375,0.007551,0.222033,0.000000,0.000000,0.000000,0.000000,0.000000,0.000000,0.000000,
2236,2218,-0.416182665273993,-9.32251160712332,0.00729124289176752,0.000000,0.000000,0.000000,0.000000,0.000000,327.648531,23.717170,-1.000000,0.983938,0.007905,0.341489,0.000000,0.000000,0.000000,0.000000,0.000000,0.000000,0.000000,
2236,2248,-0.421670407983676,-8.66555960689043,0.00335255429735071,0.000000,0.000000,0.000000,0.000000,0.000000,327.132209,23.742791,-1.000000,0.982152,0.008350,0.362962,0.000000,0.000000,0.000000,0.000000,0.000000,0.000000,0.000000,
2236,2278,-0.427169788072415,-8.00832550146045,-0.000642407913687748,0.000000,0.000000,0.000000,0.000000,0.000000,326.614893,23.815506,-1.000000,0.984176,0.007942,0.337181,0.000000,0.000000,0.000000,0.000000,0.000000,0.000000,0.000000,
2236,2308,-0.432851872163205,-7.35155223693422,-0.00720728152998618,0.000000,0.000000,0.000000,0.000000,0.000000,326.076106,23.842243,-1.000000,0.984994,0.007476,0.357255,0.000000,0.000000,0.000000,0.000000,0.000000,0.000000,0.000000,
2236,2338,-0.437884051987162,-6.69555248451774,-0.00455217274270581,0.000000,0.000000,0.000000,0.000000,0.000000,325.613927,23.911206,-1.000000,0.986706,0.007329,0.334124,0.000000,0.000000,0.000000,0.000000,0.000000,0.000000,0.000000,
2236,2368,-0.443310254777149,-6.0390618138957,-0.0073646553130402,0.000000,0.000000,0.000000,0.000000,0.000000,325.105720,23.991607,-1.000000,0.987617,0.007355,0.299715,0.000000,0.000000,0.000000,0.000000,0.000000,0.000000,0.000000,
2236,2398,-0.448762204711318,-5.38361460895026,-0.0105759137233008,0.000000,0.000000,0.000000,0.000000,0.000000,324.594380,23.993658,-1.000000,0.989852,0.006694,0.343423,0.000000,0.000000,0.000000,0.000000,0.000000,0.000000,0.000000,
2236,2428,-0.454546943620841,-4.72764803919937,-0.018380864689334,0.000000,0.000000,0.000000,0.000000,0.000000,324.044211,24.020806,-1.000000,0.989987,0.006555,0.361756,0.000000,0.000000,0.000000,0.000000,0.000000,0.000000,0.000000,
2236,2458,-0.459026013300548,-4.07291615489686,-0.00771339959771922,0.000000,0.000000,0.000000,0.000000,0.000000,323.647919,24.128264,-1.000000,0.989852,0.006818,0.299028,0.000000,0.000000,0.000000,0.000000,0.000000,0.000000,0.000000,
2236,2488,-0.464900842979624,-3.41774009988056,-0.0167253595617467,0.000000,0.000000,0.000000,0.000000,0.000000,323.087394,24.113171,-1.000000,0.989135,0.006715,0.358988,0.000000,0.000000,0.000000,0.000000,0.000000,0.000000,0.000000,
2236,2518,-0.470575209722963,-2.76236145460567,-0.0228018891091324,0.000000,0.000000,0.000000,0.000000,0.000000,322.550798,24.165001,-1.000000,0.988329,0.006828,0.351825,0.000000,0.000000,0.000000,0.000000,0.000000,0.000000,0.000000,
2236,2548,-0.475977667350858,-2.1076675696557,-0.0250144792566402,0.000000,0.000000,0.000000,0.000000,0.000000,322.046344,24.209304,-1.000000,0.992259,0.005891,0.351722,0.000000,0.000000,0.000000,0.000000,0.000000,0.000000,0.000000,
2236,2578,-0.480966938449122,-1.45430142005522,-0.0214160152634122,0.000000,0.000000,0.000000,0.000000,0.000000,321.590600,24.202293,-1.000000,0.989464,0.006489,0.402601,0.000000,0.000000,0.000000,0.000000,0.000000,0.000000,0.000000,
2236,2608,-0.485959182936593,-0.800847594159841,-0.017777949544211,0.000000,0.000000,0.000000,0.000000,0.000000,321.134808,24.221524,-1.000000,0.986116,0.007309,0.426980,0.000000,0.000000,0.000000,0.000000,0.000000,0.000000,0.000000,
2236,2638,-0.491328179027779,-0.146435060181275,-0.0193250995454264,0.000000,0.000000,0.000000,0.000000,0.000000,320.635001,24.302608,-1.000000,0.987295,0.007011,0.389241,0.000000,0.000000,0.000000,0.000000,0.000000,0.000000,0.000000,
2236,2668,-0.495845816229764,0.506924283150553,-0.00882923996863383,0.000000,0.000000,0.000000,0.000000,0.000000,320.235726,24.406095,-1.000000,0.990978,0.006173,0.328731,0.000000,0.000000,0.000000,0.000000,0.000000,0.000000,0.000000,
2236,2698,-0.50212099337152,1.16114176255158,-0.023088331842871,0.000000,0.000000,0.000000,0.000000,0.000000,319.629403,24.401692,-1.000000,0.991419,0.005771,0.376592,0.000000,0.000000,0.000000,0.000000,0.000000,0.000000,0.000000,
2236,2728,-0.507470387674481,1.8146679729615,-0.0242194657756727,0.000000,0.000000,0.000000,0.000000,0.000000,319.132468,24.461421,-1.000000,0.989676,0.006188,0.359434,0.000000,0.000000,0.000000,0.000000,0.000000,0.000000,0.000000,
2236,2758,-0.512972915701592,2.46811590935472,-0.02745523564721,0.000000,0.000000,0.000000,0.000000,0.000000,318.617676,24.515748,-1.000000,0.988751,0.006537,0.347673,0.000000,0.000000,0.000000,0.000000,0.000000,0.000000,0.000000,
2236,2788,-0.517845649897133,3.12020910637963,-0.0218023688621543,0.000000,0.000000,0.000000,0.000000,0.000000,318.177358,24.533284,-1.000000,0.989871,0.006373,0.372463,0.000000,0.000000,0.000000,0.000000,0.000000,0.000000,0.000000,
2236,2818,-0.522845569866394,3.77221252925587,-0.0178839313753087,0.000000,0.000000,0.000000,0.000000,0.000000,317.722296,24.545462,-1.000000,0.990605,0.006352,0.402050,0.000000,0.000000,0.000000,0.000000,0.000000,0.000000,0.000000,
2236,2848,-0.52875763944521,4.42584715162489,-0.026695158948371,0.000000,0.000000,0.000000,0.000000,0.000000,317.159852,24.628917,-1.000000,0.991441,0.005791,0.360563,0.000000,0.000000,0.000000,0.000000,0.000000,0.000000,0.000000,
2236,2878,-0.532666539187783,5.07642209296284,-0.00728804586765364,0.000000,0.000000,0.000000,0.000000,0.000000,316.834122,24.657697,-1.000000,0.991885,0.005687,0.373163,0.000000,0.000000,0.000000,0.000000,0.000000,0.000000,0.000000,
2236,2908,-0.537801054237107,5.72902928469742,-0.00502498359099945,0.000000,0.000000,0.000000,0.000000,0.000000,316.363968,24.761811,-1.000000,0.992620,0.005799,0.310359,0.000000,0.000000,0.000000,0.000000,0.000000,0.000000,0.000000,
2236,2938,-0.543585061607256,6.38076898662379,-0.0119347650049235,0.000000,0.000000,0.000000,0.000000,0.000000,315.817313,24.737879,-1.000000,0.993104,0.005494,0.375494,0.000000,0.000000,0.000000,0.000000,0.000000,0.000000,0.000000,
2236,2968,-0.548187454317677,7.03185441274192,-0.00209396512707372,0.000000,0.000000,0.000000,0.000000,0.000000,315.410539,24.788181,-1.000000,0.992061,0.005742,0.366165,0.000000,0.000000,0.000000,0.000000,0.000000,0.000000,0.000000,
2236,2998,-0.553063870513792,7.6826981466854,0.0039286047050382,0.000000,0.000000,0.000000,0.000000,0.000000,314.971682,24.804251,-1.000000,0.991425,0.005916,0.390706,0.000000,0.000000,0.000000,0.000000,0.000000,0.000000,0.000000,
2236,3028,-0.557961567246728,8.3340325126016,0.00974764767090619,0.000000,0.000000,0.000000,0.000000,0.000000,314.530564,24.878870,-1.000000,0.991301,0.005820,0.356898,0.000000,0.000000,0.000000,0.000000,0.000000,0.000000,0.000000,
2236,3058,-0.562436742204763,8.98433521171919,0.0215610034308042,0.000000,0.000000,0.000000,0.000000,0.000000,314.139745,24.912016,-1.000000,0.993048,0.005381,0.363929,0.000000,0.000000,0.000000,0.000000,0.000000,0.000000,0.000000,
2236,3088,-0.568235709616044,9.63634802410189,0.0148052260093436,0.000000,0.000000,0.000000,0.000000,0.000000,313.592540,24.997557,-1.000000,0.992651,0.005422,0.318763,0.000000,0.000000,0.000000,0.000000,0.000000,0.000000,0.000000,
2236,3118,-0.573543776783875,10.286930164691,0.0149944019112809,0.000000,0.000000,0.000000,0.000000,0.000000,313.103752,25.012245,-1.000000,0.992407,0.005751,0.344199,0.000000,0.000000,0.000000,0.000000,0.000000,0.000000,0.000000,
2236,3148,-0.578397231074973,10.9369854911099,0.0216615235121367,0.000000,0.000000,0.000000,0.000000,0.000000,312.669072,25.033336,-1.000000,0.991202,0.005967,0.362872,0.000000,0.000000,0.000000,0.000000,0.000000,0.000000,0.000000,
2236,3178,-0.582968213528506,11.5866222874981,0.0323790885666426,0.000000,0.000000,0.000000,0.000000,0.000000,312.268169,25.053489,-1.000000,0.991589,0.005678,0.382500,0.000000,0.000000,0.000000,0.000000,0.000000,0.000000,0.000000,
2236,3208,-0.587806519831759,12.2368687300409,0.0394133768257916,0.000000,0.000000,0.000000,0.000000,0.000000,311.835847,25.120837,-1.000000,0.993036,0.005384,0.354553,0.000000,0.000000,0.000000,0.000000,0.000000,0.000000,0.000000,
2236,3238,-0.593784398608069,12.8872082573864,0.0304085161748162,0.000000,0.000000,0.000000,0.000000,0.000000,311.268919,25.119417,-1.000000,0.994201,0.005078,0.395612,0.000000,0.000000,0.000000,0.000000,0.000000,0.000000,0.000000,
2236,3268,-0.600121142330227,13.5380127208476,0.0164151111362116,0.000000,0.000000,0.000000,0.000000,0.000000,310.659621,25.150931,-1.000000,0.993508,0.005176,0.403448,0.000000,0.000000,0.000000,0.000000,0.000000,0.000000,0.000000,
2251,2023,-0.0539618109336679,-13.5981005094624,0.0203217361122938,0.000000,0.000000,0.000000,0.000000,0.000000,330.865676,23.394114,-1.000000,0.982518,0.008609,0.248737,0.000000,0.000000,0.000000,0.000000,0.000000,0.000000,0.000000,
2251,2053,-0.0590995299782087,-12.9402256040503,0.0217753076876193,0.000000,0.000000,0.000000,0.000000,0.000000,330.395885,23.419945,-1.000000,0.980242,0.008681,0.276466,0.000000,0.000000,0.000000,0.000000,0.000000,0.000000,0.000000,
2251,2083,-0.0650712211326763,-12.2807239300313,0.0117735075953078,0.000000,0.000000,0.000000,0.000000,0.000000,329.829938,23.489443,-1.000000,0.982305,0.008544,0.260719,0.000000,0.000000,0.000000,0.000000,0.000000,0.000000,0.000000,
2251,2113,-0.0698679869302232,-11.6239878272977,0.0180355786357609,0.000000,0.000000,0.000000,0.000000,0.000000,329.399869,23.508087,-1.000000,0.981117,0.008734,0.294748,0.000000,0.000000,0.000000,0.000000,0.000000,0.000000,0.000000,
2251,2143,-0.0752817350253885,-10.9662247820049,0.0158196106260675,0.000000,0.000000,0.000000,0.000000,0.000000,328.898622,23.549186,-1.000000,0.981786,0.008367,0.306321,0.000000,0.000000,0.000000,0.000000,0.000000,0.000000,0.000000,
2251,2173,-0.0806203750508594,-10.309086970854,0.0146595238655323,0.000000,0.000000,0.000000,0.000000,0.000000,328.406094,23.566414,-1.000000,0.985131,0.007802,0.341522,0.000000,0.000000,0.000000,0.000000,0.000000,0.000000,0.000000,
2251,2203,-0.0864482621828984,-9.65164670142439,0.00673120581990361,0.000000,0.000000,0.000000,0.000000,0.000000,327.856888,23.562006,-1.000000,0.984891,0.007859,0.398112,0.000000,0.000000,0.000000,0.000000,0.000000,0.000000,0.000000,
2251,2233,-0.0918322298300929,-8.9939745332789,0.00514425848342626,0.000000,0.000000,0.000000,0.000000,0.000000,327.359786,23.667459,-1.000000,0.980485,0.008575,0.344438,0.000000,0.000000,0.000000,0.000000,0.000000,0.000000,0.000000,
2251,2263,-0.0969856545376011,-8.33697064520556,0.00679030721920526,0.000000,0.000000,0.000000,0.000000,0.000000,326.889514,23.766129,-1.000000,0.983911,0.008188,0.296970,0.000000,0.000000,0.000000,0.000000,0.000000,0.000000,0.000000,
2251,2293,-0.102558537017277,-7.68071006819876,0.00253102576004949,0.000000,0.000000,0.000000,0.000000,0.000000,326.370251,23.757845,-1.000000,0.983952,0.007990,0.356294,0.000000,0.000000,0.000000,0.000000,0.000000,0.000000,0.000000,
2251,2323,-0.108174407840156,-7.02370447806042,-0.00217855414729229,0.000000,0.000000,0.000000,0.000000,0.000000,325.846479,23.834915,-1.000000,0.982804,0.008132,0.330166,0.000000,0.000000,0.000000,0.000000,0.000000,0.000000,0.000000,
2251,2353,-0.113066658603476,-6.36844622626656,0.00315657923704293,0.000000,0.000000,0.000000,0.000000,0.000000,325.406709,23.871981,-1.000000,0.985281,0.007810,0.343449,0.000000,0.000000,0.000000,0.000000,0.000000,0.000000,0.000000,
2251,2383,-0.119267777542522,-5.71264233935777,-0.00975575239397131,0.000000,0.000000,0.000000,0.000000,0.000000,324.814673,23.802005,-1.000000,0.986495,0.007501,0.463944,0.000000,0.000000,0.000000,0.000000,0.000000,0.000000,0.000000,
2251,2413,-0.124123300071258,-5.05651810995229,-0.00367584178400193,0.000000,0.000000,0.000000,0.000000,0.000000,324.379942,23.965123,-1.000000,0.988629,0.006774,0.350365,0.000000,0.000000,0.000000,0.000000,0.000000,0.000000,0.000000,
2251,2443,-0.129806435243733,-4.39991127703313,-0.00909891120369366,0.000000,0.000000,0.000000,0.000000,0.000000,323.848987,24.083101,-1.000000,0.989800,0.006728,0.282327,0.000000,0.000000,0.000000,0.000000,0.000000,0.000000,0.000000,
2251,2473,-0.134577145061993,-3.74685255700686,-0.00199772678922727,0.000000,0.000000,0.000000,0.000000,0.000000,323.423685,24.012777,-1.000000,0.991028,0.006528,0.401372,0.000000,0.000000,0.000000,0.000000,0.000000,0.000000,0.000000,
2251,2503,-0.140776641002379,-3.09002133085517,-0.0145093064131174,0.000000,0.000000,0.000000,0.000000,0.000000,322.832915,24.127560,-1.000000,0.989262,0.006745,0.336090,0.000000,0.000000,0.000000,0.000000,0.000000,0.000000,0.000000,
2251,2533,-0.146934382663659,-2.43398001396125,-0.0264446112485075,0.000000,0.000000,0.000000,0.000000,0.000000,322.246948,24.198053,-1.000000,0.991773,0.006037,0.314821,0.000000,0.000000,0.000000,0.000000,0.000000,0.000000,0.000000,
2251,2563,-0.151808966497779,-1.78116358956312,-0.020611571658435,0.000000,0.000000,0.000000,0.000000,0.000000,321.810183,24.151741,-1.000000,0.991290,0.006153,0.409219,0.000000,0.000000,0.000000,0.000000,0.000000,0.000000,0.000000,
2251,2593,-0.15724421953335,-1.12674745405914,-0.0224277171964218,0.000000,0.000000,0.000000,0.000000,0.000000,321.308568,24.203212,-1.000000,0.987702,0.006993,0.406296,0.000000,0.000000,0.000000,0.000000,0.000000,0.000000,0.000000,
2251,2623,-0.162188500638202,-0.473214852331644,-0.0173714571876076,0.000000,0.000000,0.000000,0.000000,0.000000,320.864303,24.251507,-1.000000,0.987216,0.006999,0.405629,0.000000,0.000000,0.000000,0.000000,0.000000,0.000000,0.000000,
2251,2653,-0.16774622782928,0.181501872120727,-0.0207481099818665,0.000000,0.000000,0.000000,0.000000,0.000000,320.348842,24.355049,-1.000000,0.989601,0.006466,0.349993,0.000000,0.000000,0.000000,0.000000,0.000000,0.000000,0.000000,
2251,2683,-0.172892438043164,0.834395962176309,-0.0184416376640684,0.000000,0.000000,0.000000,0.000000,0.000000,319.881326,24.357605,-1.000000,0.991267,0.005953,0.394913,0.000000,0.000000,0.000000,0.000000,0.000000,0.000000,0.000000,
2251,2713,-0.178701370941887,1.48839917838288,-0.0252654483289803,0.000000,0.000000,0.000000,0.000000,0.000000,319.336793,24.405703,-1.000000,0.991483,0.005806,0.394385,0.000000,0.000000,0.000000,0.000000,0.000000,0.000000,0.000000,
2251,2743,-0.183877803000218,2.14174742657823,-0.0232149875700429,0.000000,0.000000,0.000000,0.000000,0.000000,318.866225,24.484340,-1.000000,0.988850,0.006481,0.362633,0.000000,0.000000,0.000000,0.000000,0.000000,0.000000,0.000000,
2251,2773,-0.189203542870946,2.79443597128206,-0.023239618165519,0.000000,0.000000,0.000000,0.000000,0.000000,318.378352,24.503568,-1.000000,0.988937,0.006454,0.390121,0.000000,0.000000,0.000000,0.000000,0.000000,0.000000,0.000000,
2251,2803,-0.19485848252484,3.44778650011187,-0.0277613403043233,0.000000,0.000000,0.000000,0.000000,0.000000,317.852282,24.566882,-1.000000,0.989555,0.006683,0.373491,0.000000,0.000000,0.000000,0.000000,0.000000,0.000000,0.000000,
2251,2833,-0.199475078616803,4.09983049458691,-0.0177707598799657,0.000000,0.000000,0.000000,0.000000,0.000000,317.447626,24.638406,-1.000000,0.990988,0.006150,0.348160,0.000000,0.000000,0.000000,0.000000,0.000000,0.000000,0.000000,
2251,2863,-0.204961409056796,4.75214023598178,-0.0198734524786346,0.000000,0.000000,0.000000,0.000000,0.000000,316.941589,24.659530,-1.000000,0.992129,0.005752,0.373097,0.000000,0.000000,0.000000,0.000000,0.000000,0.000000,0.000000,
2251,2893,-0.209720714881737,5.40384745322226,-0.0117721124103127,0.000000,0.000000,0.000000,0.000000,0.000000,316.520705,24.717148,-1.000000,0.991847,0.005873,0.361234,0.000000,0.000000,0.000000,0.000000,0.000000,0.000000,0.000000,
2251,2923,-0.214585026444791,6.05529298542143,-0.00509108274212622,0.000000,0.000000,0.000000,0.000000,0.000000,316.087784,24.755383,-1.000000,0.993232,0.005578,0.368809,0.000000,0.000000,0.000000,0.000000,0.000000,0.000000,0.000000,
2251,2953,-0.219872675536063,6.7076913117163,-0.00421338810070893,0.000000,0.000000,0.000000,0.000000,0.000000,315.605596,24.855799,-1.000000,0.991981,0.005719,0.313845,0.000000,0.000000,0.000000,0.000000,0.000000,0.000000,0.000000,
2251,2983,-0.224831125712893,7.35885272001669,0.00126391642942281,0.000000,0.000000,0.000000,0.000000,0.000000,315.162122,24.890340,-1.000000,0.992738,0.005646,0.324368,0.000000,0.000000,0.000000,0.000000,0.000000,0.000000,0.000000,
2251,3013,-0.229982371680403,8.00957060137673,0.00408590549358223,0.000000,0.000000,0.000000,0.000000,0.000000,314.696360,24.881263,-1.000000,0.990686,0.005989,0.378619,0.000000,0.000000,0.000000,0.000000,0.000000,0.000000,0.000000,
2251,3043,-0.235031563463377,8.66130136318384,0.00845499235492753,0.000000,0.000000,0.000000,0.000000,0.000000,314.242701,24.991129,-1.000000,0.991695,0.005749,0.313833,0.000000,0.000000,0.000000,0.000000,0.000000,0.000000,0.000000,
2251,3073,-0.239921096281691,9.31130822420564,0.0150362496036678,0.000000,0.000000,0.000000,0.000000,0.000000,313.808070,24.971401,-1.000000,0.992088,0.005670,0.378298,0.000000,0.000000,0.000000,0.000000,0.000000,0.000000,0.000000,
2251,3103,-0.244878971877448,9.96222349619798,0.0207726023896271,0.000000,0.000000,0.000000,0.000000,0.000000,313.365611,25.044157,-1.000000,0.992482,0.005631,0.350006,0.000000,0.000000,0.000000,0.000000,0.000000,0.000000,0.000000,
2251,3133,-0.250082340975407,10.6128594170133,0.0231270127863468,0.000000,0.000000,0.000000,0.000000,0.000000,312.894685,25.084626,-1.000000,0.991994,0.005780,0.353833,0.000000,0.000000,0.000000,0.000000,0.000000,0.000000,0.000000,
2251,3163,-0.254784199077701,11.2634386734869,0.0325597545302116,0.000000,0.000000,0.000000,0.000000,0.000000,312.482681,25.177275,-1.000000,0.990493,0.005994,0.305493,0.000000,0.000000,0.000000,0.000000,0.000000,0.000000,0.000000,
2251,3193,-0.259989949578735,11.9134718474784,0.0349877034101382,0.000000,0.000000,0.000000,0.000000,0.000000,312.012021,25.191363,-1.000000,0.992711,0.005374,0.335566,0.000000,0.000000,0.000000,0.000000,0.000000,0.000000,0.000000,
2251,3223,-0.264616270229116,12.5628874703623,0.0455648280453715,0.000000,0.000000,0.000000,0.000000,0.000000,311.609544,25.209635,-1.000000,0.994921,0.004947,0.361082,0.000000,0.000000,0.000000,0.000000,0.000000,0.000000,0.000000,
2251,3253,-0.271368002662687,13.2142997575195,0.0265514233479394,0.000000,0.000000,0.000000,0.000000,0.000000,310.958059,25.259176,-1.000000,0.994285,0.005068,0.355543,0.000000,0.000000,0.000000,0.000000,0.000000,0.000000,0.000000,
2266,2038,0.271383464941177,-13.2702851881177,0.0261230633690843,0.000000,0.000000,0.000000,0.000000,0.000000,330.649309,23.292515,-1.000000,0.981261,0.008698,0.277771,0.000000,0.000000,0.000000,0.000000,0.000000,0.000000,0.000000,
2266,2068,0.265676662617409,-12.6112415317733,0.020645590918889,0.000000,0.000000,0.000000,0.000000,0.000000,330.121197,23.358573,-1.000000,0.982421,0.008307,0.269590,0.000000,0.000000,0.000000,0.000000,0.000000,0.000000,0.000000,
2266,2098,0.259507886254514,-11.9512919075635,0.00891978399562277,0.000000,0.000000,0.000000,0.000000,0.000000,329.540418,23.462267,-1.000000,0.981350,0.008674,0.223897,0.000000,0.000000,0.000000,0.000000,0.000000,0.000000,0.000000,
2266,2128,0.254719946838275,-11.2952991695027,0.0159948902390283,0.000000,0.000000,0.000000,0.000000,0.000000,329.117220,23.433092,-1.000000,0.981356,0.008527,0.310137,0.000000,0.000000,0.000000,0.000000,0.000000,0.000000,0.000000,
2266,2158,0.249566158981477,-10.6372657057629,0.0182976370994083,0.000000,0.000000,0.000000,0.000000,0.000000,328.653025,23.558656,-1.000000,0.983825,0.008285,0.241086,0.000000,0.000000,0.000000,0.000000,0.000000,0.000000,0.000000,
2266,2188,0.243879913472693,-9.97961077786815,0.0132143397760274,0.000000,0.000000,0.000000,0.000000,0.000000,328.127405,23.592620,-1.000000,0.983928,0.008182,0.264132,0.000000,0.000000,0.000000,0.000000,0.000000,0.000000,0.000000,
2266,2218,0.238451068343796,-9.32300847543011,0.0116573854713238,0.000000,0.000000,0.000000,0.000000,0.000000,327.631224,23.589650,-1.000000,0.980391,0.008643,0.323150,0.000000,0.000000,0.000000,0.000000,0.000000,0.000000,0.000000,
2266,2248,0.232345726266551,-8.66518235377149,0.000903854302123364,0.000000,0.000000,0.000000,0.000000,0.000000,327.057687,23.625583,-1.000000,0.982431,0.008361,0.343829,0.000000,0.000000,0.000000,0.000000,0.000000,0.000000,0.000000,
2266,2278,0.227240784831775,-8.00896267014274,0.00394353163744654,0.000000,0.000000,0.000000,0.000000,0.000000,326.599130,23.678011,-1.000000,0.986886,0.007683,0.346849,0.000000,0.000000,0.000000,0.000000,0.000000,0.000000,0.000000,
2266,2308,0.222177958448935,-7.35290000009381,0.007617137221132,0.000000,0.000000,0.000000,0.000000,0.000000,326.145580,23.742166,-1.000000,0.982336,0.008460,0.337763,0.000000,0.000000,0.000000,0.000000,0.000000,0.000000,0.000000,
2266,2338,0.216115269741028,-6.69539330605023,-0.00238114891180885,0.000000,0.000000,0.000000,0.000000,0.000000,325.577340,23.823342,-1.000000,0.983093,0.008244,0.311843,0.000000,0.000000,0.000000,0.000000,0.000000,0.000000,0.000000,
2266,2368,0.210094838582055,-6.03882940263676,-0.0118276543299771,0.000000,0.000000,0.000000,0.000000,0.000000,325.013781,23.846769,-1.000000,0.983920,0.008055,0.343484,0.000000,0.000000,0.000000,0.000000,0.000000,0.000000,0.000000,
2266,2398,0.204699787565826,-5.38286841684232,-0.0125865204497586,0.000000,0.000000,0.000000,0.000000,0.000000,324.522371,23.920826,-1.000000,0.985808,0.007517,0.323896,0.000000,0.000000,0.000000,0.000000,0.000000,0.000000,0.000000,
2266,2428,0.199756993914736,-4.72823045700658,-0.00713589845150864,0.000000,0.000000,0.000000,0.000000,0.000000,324.082939,23.952432,-1.000000,0.988131,0.006985,0.346086,0.000000,0.000000,0.000000,0.000000,0.000000,0.000000,0.000000,
2266,2458,0.193435737130692,-4.070630785026,-0.0204662669527238,0.000000,0.000000,0.000000,0.000000,0.000000,323.485410,24.099181,-1.000000,0.990822,0.006719,0.253772,0.000000,0.000000,0.000000,0.000000,0.000000,0.000000,0.000000,
2266,2488,0.18811677534735,-3.4177166062728,-0.0202743812682797,0.000000,0.000000,0.000000,0.000000,0.000000,323.002430,23.963804,-1.000000,0.991305,0.006462,0.442729,0.000000,0.000000,0.000000,0.000000,0.000000,0.000000,0.000000,
2266,2518,0.183630805460808,-2.76378715138286,-0.00835981722264023,0.000000,0.000000,0.000000,0.000000,0.000000,322.616140,24.046229,-1.000000,0.991639,0.006241,0.413319,0.000000,0.000000,0.000000,0.000000,0.000000,0.000000,0.000000,
2266,2548,0.177701103336307,-2.1075052077069,-0.0161986887042644,0.000000,0.000000,0.000000,0.000000,0.000000,322.063885,24.185116,-1.000000,0.992250,0.005954,0.327734,0.000000,0.000000,0.000000,0.000000,0.000000,0.000000,0.000000,
2266,2578,0.17196993041367,-1.45333811895745,-0.0214134232657557,0.000000,0.000000,0.000000,0.000000,0.000000,321.534198,24.174377,-1.000000,0.988432,0.006857,0.391456,0.000000,0.000000,0.000000,0.000000,0.000000,0.000000,0.000000,
2266,2608,0.166253326187128,-0.798448272567718,-0.0263004102039304,0.000000,0.000000,0.000000,0.000000,0.000000,321.006500,24.253101,-1.000000,0.987795,0.006951,0.365185,0.000000,0.000000,0.000000,0.000000,0.000000,0.000000,0.000000,
2266,2638,0.161019087673637,-0.144855081840291,-0.024548636459599,0.000000,0.000000,0.000000,0.000000,0.000000,320.534423,24.289087,-1.000000,0.988346,0.006675,0.381573,0.000000,0.000000,0.000000,0.000000,0.000000,0.000000,0.000000,
2266,2668,0.155364141255028,0.509410491519283,-0.0285126631551975,0.000000,0.000000,0.000000,0.000000,0.000000,320.014026,24.357380,-1.000000,0.991377,0.006142,0.365256,0.000000,0.000000,0.000000,0.000000,0.000000,0.000000,0.000000,
2266,2698,0.150368880685448,1.16252854612684,-0.0233646654685344,0.000000,0.000000,0.000000,0.000000,0.000000,319.569825,24.414285,-1.000000,0.992609,0.005765,0.360064,0.000000,0.000000,0.000000,0.000000,0.000000,0.000000,0.000000,
2266,2728,0.144801890131561,1.81607350172687,-0.0260464775734022,0.000000,0.000000,0.000000,0.000000,0.000000,319.059792,24.464325,-1.000000,0.991223,0.005999,0.361634,0.000000,0.000000,0.000000,0.000000,0.000000,0.000000,0.000000,
2266,2758,0.138848970319639,2.46982456885639,-0.0340006833744155,0.000000,0.000000,0.000000,0.000000,0.000000,318.505323,24.510537,-1.000000,0.988992,0.006423,0.366964,0.000000,0.000000,0.000000,0.000000,0.000000,0.000000,0.000000,
2266,2788,0.134225303216745,3.12197558443287,-0.0235951323531935,0.000000,0.000000,0.000000,0.000000,0.000000,318.104481,24.572115,-1.000000,0.988554,0.006682,0.356277,0.000000,0.000000,0.000000,0.000000,0.000000,0.000000,0.000000,
2266,2818,0.12912847991911,3.7743608876882,-0.0196670052235959,0.000000,0.000000,0.000000,0.000000,0.000000,317.649164,24.620714,-1.000000,0.989614,0.006559,0.358667,0.000000,0.000000,0.000000,0.000000,0.000000,0.000000,0.000000,
2266,2848,0.123796348539646,4.42685132508178,-0.0189307683760944,0.000000,0.000000,0.000000,0.000000,0.000000,317.166826,24.671564,-1.000000,0.992336,0.005843,0.358304,0.000000,0.000000,0.000000,0.000000,0.000000,0.000000,0.000000,
2266,2878,0.119188042244716,5.07766210242271,-0.00821932024717853,0.000000,0.000000,0.000000,0.000000,0.000000,316.768288,24.658210,-1.000000,0.992354,0.005844,0.421975,0.000000,0.000000,0.000000,0.000000,0.000000,0.000000,0.000000,
2266,2908,0.113820183715831,5.73064718633178,-0.00782604523925556,0.000000,0.000000,0.000000,0.000000,0.000000,316.282184,24.784783,-1.000000,0.992506,0.005728,0.345678,0.000000,0.000000,0.000000,0.000000,0.000000,0.000000,0.000000,
2266,2938,0.108159708574348,6.38181195009585,-0.0115380854650198,0.000000,0.000000,0.000000,0.000000,0.000000,315.762368,24.731890,-1.000000,0.991610,0.005934,0.448874,0.000000,0.000000,0.000000,0.000000,0.000000,0.000000,0.000000,
2266,2968,0.10318141330826,7.03425858452749,-0.00566751247595221,0.000000,0.000000,0.000000,0.000000,0.000000,315.321620,24.880973,-1.000000,0.991168,0.005974,0.349416,0.000000,0.000000,0.000000,0.000000,0.000000,0.000000,0.000000,
2266,2998,0.0982411785220556,7.68529647018763,0.000707341663030547,0.000000,0.000000,0.000000,0.000000,0.000000,314.885480,24.918827,-1.000000,0.991596,0.005861,0.361278,0.000000,0.000000,0.000000,0.000000,0.000000,0.000000,0.000000,
2266,3028,0.0933682562860803,8.33630789485973,0.00807364028884194,0.000000,0.000000,0.000000,0.000000,0.000000,314.457326,24.975463,-1.000000,0.990622,0.005918,0.353970,0.000000,0.000000,0.000000,0.000000,0.000000,0.000000,0.000000,
2266,3058,0.088130752604588,8.98741062538292,0.010458551786769,0.000000,0.000000,0.000000,0.000000,0.000000,313.987168,25.022389,-1.000000,0.992472,0.005595,0.356358,0.000000,0.000000,0.000000,0.000000,0.000000,0.000000,0.000000,
2266,3088,0.0834883903781112,9.63801886442441,0.0211168324963751,0.000000,0.000000,0.000000,0.000000,0.000000,313.586117,25.091693,-1.000000,0.992380,0.005749,0.335963,0.000000,0.000000,0.000000,0.000000,0.000000,0.000000,0.000000,
2266,3118,0.0784241240192678,10.2884060891968,0.0259865926844896,0.000000,0.000000,0.000000,0.000000,0.000000,313.136457,25.117608,-1.000000,0.993765,0.005365,0.358840,0.000000,0.000000,0.000000,0.000000,0.000000,0.000000,0.000000,
2266,3148,0.0729732282248641,10.9388899857422,0.0255715433341948,0.000000,0.000000,0.000000,0.000000,0.000000,312.642214,25.134714,-1.000000,0.991874,0.005776,0.390660,0.000000,0.000000,0.000000,0.000000,0.000000,0.000000,0.000000,
2266,3178,0.0678163246721901,11.589333203421,0.0292845287664818,0.000000,0.000000,0.000000,0.000000,0.000000,312.182198,25.188177,-1.000000,0.991766,0.005659,0.385823,0.000000,0.000000,0.000000,0.000000,0.000000,0.000000,0.000000,
2266,3208,0.0621343014309623,12.2408534356973,0.0258326776548188,0.000000,0.000000,0.000000,0.000000,0.000000,311.661358,25.313808,-1.000000,0.994598,0.004964,0.308497,0.000000,0.000000,0.000000,0.000000,0.000000,0.000000,0.000000,
2266,3238,0.0566521112022436,12.8901604934001,0.0251209436074191,0.000000,0.000000,0.000000,0.000000,0.000000,311.164191,25.266972,-1.000000,0.994937,0.005021,0.403630,0.000000,0.000000,0.000000,0.000000,0.000000,0.000000,0.000000,
2266,3268,0.0502824399149127,13.5410841051153,0.0122480818102417,0.000000,0.000000,0.000000,0.000000,0.000000,310.564045,25.317467,-1.000000,0.993482,0.005321,0.401359,0.000000,0.000000,0.000000,0.000000,0.000000,0.000000,0.000000,
2281,2023,0.601605334640624,-13.6003172396326,0.0254004281688935,0.000000,0.000000,0.000000,0.000000,0.000000,330.865069,23.116132,-1.000000,0.982308,0.008672,0.323365,0.000000,0.000000,0.000000,0.000000,0.000000,0.000000,0.000000,
2281,2053,0.595270752040847,-12.9403480110132,0.0122320675031347,0.000000,0.000000,0.000000,0.000000,0.000000,330.272815,23.169974,-1.000000,0.983085,0.008201,0.332597,0.000000,0.000000,0.000000,0.000000,0.000000,0.000000,0.000000,
2281,2083,0.590450428027719,-12.2827801547322,0.0196882555296156,0.000000,0.000000,0.000000,0.000000,0.000000,329.852377,23.257570,-1.000000,0.982518,0.008343,0.306783,0.000000,0.000000,0.000000,0.000000,0.000000,0.000000,0.000000,
2281,2113,0.584794508874712,-11.6249220355508,0.0157357727667886,0.000000,0.000000,0.000000,0.000000,0.000000,329.336862,23.267242,-1.000000,0.980072,0.008694,0.359129,0.000000,0.000000,0.000000,0.000000,0.000000,0.000000,0.000000,
2281,2143,0.579628052926797,-10.9658623591918,0.0187345309702209,0.000000,0.000000,0.000000,0.000000,0.000000,328.877982,23.483814,-1.000000,0.982588,0.008507,0.203640,0.000000,0.000000,0.000000,0.000000,0.000000,0.000000,0.000000,
2281,2173,0.573570741936699,-10.3097668608774,0.00917460255448077,0.000000,0.000000,0.000000,0.000000,0.000000,328.316140,23.317404,-1.000000,0.982779,0.008598,0.431729,0.000000,0.000000,0.000000,0.000000,0.000000,0.000000,0.000000,
2281,2203,0.568237232512104,-9.65145821478325,0.0099076545982939,0.000000,0.000000,0.000000,0.000000,0.000000,327.838134,23.484495,-1.000000,0.979586,0.008846,0.325387,0.000000,0.000000,0.000000,0.000000,0.000000,0.000000,0.000000,
2281,2233,0.562927494612584,-8.99376887808695,0.010952881378671,0.000000,0.000000,0.000000,0.000000,0.000000,327.362700,23.619156,-1.000000,0.980660,0.008590,0.251253,0.000000,0.000000,0.000000,0.000000,0.000000,0.000000,0.000000,
2281,2263,0.556312096023316,-8.33465962275375,-0.00574210128104369,0.000000,0.000000,0.000000,0.000000,0.000000,326.738854,23.723593,-1.000000,0.986949,0.007653,0.207596,0.000000,0.000000,0.000000,0.000000,0.000000,0.000000,0.000000,
2281,2293,0.551215299292604,-7.67994741718492,-0.0019799867270649,0.000000,0.000000,0.000000,0.000000,0.000000,326.286819,23.657034,-1.000000,0.986048,0.007812,0.333878,0.000000,0.000000,0.000000,0.000000,0.000000,0.000000,0.000000,
2281,2323,0.546311091950493,-7.02423997146393,0.00460262129968214,0.000000,0.000000,0.000000,0.000000,0.000000,325.857358,23.728802,-1.000000,0.983131,0.008331,0.321393,0.000000,0.000000,0.000000,0.000000,0.000000,0.000000,0.000000,
2281,2353,0.540669551891799,-6.36868186995684,0.00109530839773697,0.000000,0.000000,0.000000,0.000000,0.000000,325.343798,23.706897,-1.000000,0.985114,0.007772,0.402777,0.000000,0.000000,0.000000,0.000000,0.000000,0.000000,0.000000,
2281,2383,0.534936252395791,-5.71213484507353,-0.00350750740534522,0.000000,0.000000,0.000000,0.000000,0.000000,324.820241,23.786076,-1.000000,0.983171,0.008159,0.382628,0.000000,0.000000,0.000000,0.000000,0.000000,0.000000,0.000000,
2281,2413,0.529338208192335,-5.05589742512799,-0.00622590445823334,0.000000,0.000000,0.000000,0.000000,0.000000,324.312147,23.876155,-1.000000,0.987196,0.007373,0.351531,0.000000,0.000000,0.000000,0.000000,0.000000,0.000000,0.000000,
2281,2443,0.523638377307332,-4.40067484694119,-0.0103856588254416,0.000000,0.000000,0.000000,0.000000,0.000000,323.792235,23.880502,-1.000000,0.989541,0.006933,0.405667,0.000000,0.000000,0.000000,0.000000,0.000000,0.000000,0.000000,
2281,2473,0.517987115961429,-3.74504004024533,-0.0137783354999215,0.000000,0.000000,0.000000,0.000000,0.000000,323.278123,23.950512,-1.000000,0.989271,0.006954,0.393966,0.000000,0.000000,0.000000,0.000000,0.000000,0.000000,0.000000,
2281,2503,0.51210410267289,-3.08839474324213,-0.0202013370746386,0.000000,0.000000,0.000000,0.000000,0.000000,322.737901,24.106110,-1.000000,0.992111,0.006276,0.296529,0.000000,0.000000,0.000000,0.000000,0.000000,0.000000,0.000000,
2281,2533,0.507473661912872,-2.43666835309433,-0.00983017304213263,0.000000,0.000000,0.000000,0.000000,0.000000,322.339686,23.982161,-1.000000,0.992937,0.005820,0.477625,0.000000,0.000000,0.000000,0.000000,0.000000,0.000000,0.000000,
2281,2563,0.501175232095473,-1.78024545061938,-0.0218631706210317,0.000000,0.000000,0.000000,0.000000,0.000000,321.752150,24.107890,-1.000000,0.988689,0.006887,0.409614,0.000000,0.000000,0.000000,0.000000,0.000000,0.000000,0.000000,
2281,2593,0.49625582366323,-1.12611437052476,-0.0151221725935216,0.000000,0.000000,0.000000,0.000000,0.000000,321.321797,24.208392,-1.000000,0.988579,0.006762,0.365958,0.000000,0.000000,0.000000,0.000000,0.000000,0.000000,0.000000,
2281,2623,0.490078768545299,-0.470964997051659,-0.0254938290426594,0.000000,0.000000,0.000000,0.000000,0.000000,320.748016,24.273557,-1.000000,0.988471,0.006662,0.358034,0.000000,0.000000,0.000000,0.000000,0.000000,0.000000,0.000000,
2281,2653,0.485020494319325,0.182382373528995,-0.0206137566240159,0.000000,0.000000,0.000000,0.000000,0.000000,320.301895,24.322727,-1.000000,0.989340,0.006524,0.365198,0.000000,0.000000,0.000000,0.000000,0.000000,0.000000,0.000000,
2281,2683,0.479417419189904,0.8363215830394,-0.0231014672256151,0.000000,0.000000,0.000000,0.000000,0.000000,319.793725,24.382652,-1.000000,0.991760,0.006129,0.361798,0.000000,0.000000,0.000000,0.000000,0.000000,0.000000,0.000000,
2281,2713,0.474487217294087,1.48889152865105,-0.0164141626133869,0.000000,0.000000,0.000000,0.000000,0.000000,319.362416,24.410175,-1.000000,0.992957,0.005844,0.390281,0.000000,0.000000,0.000000,0.000000,0.000000,0.000000,0.000000,
2281,2743,0.468501273443334,2.14293392919278,-0.0240329812286859,0.000000,0.000000,0.000000,0.000000,0.000000,318.810710,24.475342,-1.000000,0.990388,0.006185,0.380987,0.000000,0.000000,0.000000,0.000000,0.000000,0.000000,0.000000,
2281,2773,0.463208958693887,2.79618240160279,-0.022147853645663,0.000000,0.000000,0.000000,0.000000,0.000000,318.338333,24.562010,-1.000000,0.988859,0.006518,0.349993,0.000000,0.000000,0.000000,0.000000,0.000000,0.000000,0.000000,
2281,2803,0.457454274126423,3.44986905114154,-0.0265159335720568,0.000000,0.000000,0.000000,0.000000,0.000000,317.813217,24.658225,-1.000000,0.988928,0.006570,0.309345,0.000000,0.000000,0.000000,0.000000,0.000000,0.000000,0.000000,
2281,2833,0.452534079980754,4.10132722056599,-0.0195476864632269,0.000000,0.000000,0.000000,0.000000,0.000000,317.383508,24.653935,-1.000000,0.991329,0.006060,0.368692,0.000000,0.000000,0.000000,0.000000,0.000000,0.000000,0.000000,
2281,2863,0.4466125169474,4.7552472638525,-0.0260807090579078,0.000000,0.000000,0.000000,0.000000,0.000000,316.839508,24.791569,-1.000000,0.993347,0.005707,0.286061,0.000000,0.000000,0.000000,0.000000,0.000000,0.000000,0.000000,
2281,2893,0.441518277397826,5.40651739454796,-0.0213971668767954,0.000000,0.000000,0.000000,0.000000,0.000000,316.390163,24.786068,-1.000000,0.992323,0.005755,0.346292,0.000000,0.000000,0.000000,0.000000,0.000000,0.000000,0.000000,
2281,2923,0.436478674994387,6.0581496928869,-0.0158849692888339,0.000000,0.000000,0.000000,0.000000,0.000000,315.947239,24.835518,-1.000000,0.992535,0.005688,0.351465,0.000000,0.000000,0.000000,0.000000,0.000000,0.000000,0.000000,
2281,2953,0.431528647192177,6.70951707785963,-0.00910589797285866,0.000000,0.000000,0.000000,0.000000,0.000000,315.514718,24.884781,-1.000000,0.989643,0.006294,0.356495,0.000000,0.000000,0.000000,0.000000,0.000000,0.000000,0.000000,
2281,2983,0.426329088671206,7.36063085080154,-0.00570366255129784,0.000000,0.000000,0.000000,0.000000,0.000000,315.053789,24.902424,-1.000000,0.990553,0.006072,0.392943,0.000000,0.000000,0.000000,0.000000,0.000000,0.000000,0.000000,
2281,3013,0.420973307749019,8.01265241656863,-0.00433498203915406,0.000000,0.000000,0.000000,0.000000,0.000000,314.575082,25.005599,-1.000000,0.989723,0.006127,0.343716,0.000000,0.000000,0.000000,0.000000,0.000000,0.000000,0.000000,
2281,3043,0.416268443317154,8.66370234195117,0.00594979062975654,0.000000,0.000000,0.000000,0.000000,0.000000,314.171084,25.093773,-1.000000,0.991113,0.005859,0.309168,0.000000,0.000000,0.000000,0.000000,0.000000,0.000000,0.000000,
2281,3073,0.410619151104868,9.31518130409768,0.00337664431356188,0.000000,0.000000,0.000000,0.000000,0.000000,313.659035,25.152253,-1.000000,0.993051,0.005562,0.304405,0.000000,0.000000,0.000000,0.000000,0.000000,0.000000,0.000000,
2281,3103,0.405779165741695,9.96522678214347,0.0118718809974325,0.000000,0.000000,0.000000,0.000000,0.000000,313.239945,25.164871,-1.000000,0.993192,0.005613,0.345315,0.000000,0.000000,0.000000,0.000000,0.000000,0.000000,0.000000,
2281,3133,0.400491619385878,10.6153985874555,0.0143022013058953,0.000000,0.000000,0.000000,0.000000,0.000000,312.769739,25.165311,-1.000000,0.994367,0.005248,0.398115,0.000000,0.000000,0.000000,0.000000,0.000000,0.000000,0.000000,
2281,3163,0.395655961069686,11.2663507734012,0.023011445480563,0.000000,0.000000,0.000000,0.000000,0.000000,312.351370,25.290263,-1.000000,0.992536,0.005661,0.325998,0.000000,0.000000,0.000000,0.000000,0.000000,0.000000,0.000000,
2281,3193,0.390778827337932,11.9160723094956,0.0311558454022816,0.000000,0.000000,0.000000,0.000000,0.000000,311.928574,25.311456,-1.000000,0.993352,0.005267,0.357774,0.000000,0.000000,0.000000,0.000000,0.000000,0.000000,0.000000,
2281,3223,0.386073509089854,12.5655796690358,0.041702743937833,0.000000,0.000000,0.000000,0.000000,0.000000,311.525690,25.339569,-1.000000,0.995060,0.004906,0.382467,0.000000,0.000000,0.000000,0.000000,0.000000,0.000000,0.000000,
2281,3253,0.378494064698778,13.2180649897729,0.0130632561655943,0.000000,0.000000,0.000000,0.000000,0.000000,310.792871,25.436028,-1.000000,0.993262,0.005488,0.338770,0.000000,0.000000,0.000000,0.000000,0.000000,0.000000,0.000000,
2296,2038,0.927176948182222,-13.2715225088237,0.0338894045834763,0.000000,0.000000,0.000000,0.000000,0.000000,330.679081,23.134174,-1.000000,0.984375,0.008087,0.236760,0.000000,0.000000,0.000000,0.000000,0.000000,0.000000,0.000000,
2296,2068,0.92150763520976,-12.6134732502566,0.0305237393536117,0.000000,0.000000,0.000000,0.000000,0.000000,330.168822,23.132732,-1.000000,0.983091,0.008287,0.304933,0.000000,0.000000,0.000000,0.000000,0.000000,0.000000,0.000000,
2296,2098,0.915079530300655,-11.9533297814032,0.0171408815261316,0.000000,0.000000,0.000000,0.000000,0.000000,329.574010,23.235415,-1.000000,0.981203,0.008713,0.269365,0.000000,0.000000,0.000000,0.000000,0.000000,0.000000,0.000000,
2296,2128,0.909815957794343,-11.2963196981761,0.0193000582833633,0.000000,0.000000,0.000000,0.000000,0.000000,329.109347,23.245611,-1.000000,0.981615,0.008510,0.325227,0.000000,0.000000,0.000000,0.000000,0.000000,0.000000,0.000000,
2296,2158,0.903895504113123,-10.6377354691613,0.0127620228914793,0.000000,0.000000,0.000000,0.000000,0.000000,328.571341,23.327546,-1.000000,0.983913,0.008443,0.309324,0.000000,0.000000,0.000000,0.000000,0.000000,0.000000,0.000000,
2296,2188,0.89894903948062,-9.98105265509354,0.0193210751905895,0.000000,0.000000,0.000000,0.000000,0.000000,328.142647,23.396940,-1.000000,0.980165,0.008817,0.305052,0.000000,0.000000,0.000000,0.000000,0.000000,0.000000,0.000000,
2296,2218,0.892901751011738,-9.3229875772841,0.0111102105046825,0.000000,0.000000,0.000000,0.000000,0.000000,327.590286,23.458418,-1.000000,0.978791,0.008927,0.308716,0.000000,0.000000,0.000000,0.000000,0.000000,0.000000,0.000000,
2296,2248,0.887237427798684,-8.666210846982,0.00802294219664645,0.000000,0.000000,0.000000,0.000000,0.000000,327.080759,23.478010,-1.000000,0.982725,0.008263,0.354142,0.000000,0.000000,0.000000,0.000000,0.000000,0.000000,0.000000,
2296,2278,0.881426352600322,-8.00851879183276,0.00309891287594155,0.000000,0.000000,0.000000,0.000000,0.000000,326.555121,23.584335,-1.000000,0.986991,0.007475,0.312343,0.000000,0.000000,0.000000,0.000000,0.000000,0.000000,0.000000,
2296,2308,0.875572118297562,-7.35236876939206,-0.00252645385370442,0.000000,0.000000,0.000000,0.000000,0.000000,326.024096,23.564742,-1.000000,0.985658,0.007852,0.396524,0.000000,0.000000,0.000000,0.000000,0.000000,0.000000,0.000000,
2296,2338,0.869954060538646,-6.69545184139549,-0.00479849604658966,0.000000,0.000000,0.000000,0.000000,0.000000,325.520156,23.670276,-1.000000,0.985448,0.007679,0.354836,0.000000,0.000000,0.000000,0.000000,0.000000,0.000000,0.000000,
2296,2368,0.865536705565265,-6.0414935787571,0.00900027529883118,0.000000,0.000000,0.000000,0.000000,0.000000,325.151017,23.681927,-1.000000,0.986030,0.007568,0.406311,0.000000,0.000000,0.000000,0.000000,0.000000,0.000000,0.000000,
2296,2398,0.859355109099607,-5.3840011763273,-0.000767600514905098,0.000000,0.000000,0.000000,0.000000,0.000000,324.583761,23.807945,-1.000000,0.985719,0.007815,0.343751,0.000000,0.000000,0.000000,0.000000,0.000000,0.000000,0.000000,
2296,2428,0.853729747705458,-4.72809015589034,-0.00308278492701675,0.000000,0.000000,0.000000,0.000000,0.000000,324.078935,23.882160,-1.000000,0.988839,0.007052,0.332792,0.000000,0.000000,0.000000,0.000000,0.000000,0.000000,0.000000,
2296,2458,0.847230838859005,-4.07145606717814,-0.0171455482308147,0.000000,0.000000,0.000000,0.000000,0.000000,323.475624,23.934027,-1.000000,0.987884,0.007235,0.343927,0.000000,0.000000,0.000000,0.000000,0.000000,0.000000,0.000000,
2296,2488,0.841946413517189,-3.41712293856413,-0.0148743524117094,0.000000,0.000000,0.000000,0.000000,0.000000,323.009055,23.948019,-1.000000,0.988705,0.006869,0.392354,0.000000,0.000000,0.000000,0.000000,0.000000,0.000000,0.000000,
2296,2518,0.835345010969828,-2.76058122575517,-0.0302323636220194,0.000000,0.000000,0.000000,0.000000,0.000000,322.394223,24.024473,-1.000000,0.991714,0.006119,0.378558,0.000000,0.000000,0.000000,0.000000,0.000000,0.000000,0.000000,
2296,2548,0.830375428306688,-2.1065244996268,-0.023603296848421,0.000000,0.000000,0.000000,0.000000,0.000000,321.963382,24.091652,-1.000000,0.989397,0.006657,0.373247,0.000000,0.000000,0.000000,0.000000,0.000000,0.000000,0.000000,
2296,2578,0.82557128967618,-1.45241905694165,-0.0146715231018106,0.000000,0.000000,0.000000,0.000000,0.000000,321.551381,24.200612,-1.000000,0.989306,0.006660,0.325518,0.000000,0.000000,0.000000,0.000000,0.000000,0.000000,0.000000,
2296,2608,0.82007104708234,-0.798195676307579,-0.0151302179688741,0.000000,0.000000,0.000000,0.000000,0.000000,321.060770,24.256206,-1.000000,0.990164,0.006298,0.331271,0.000000,0.000000,0.000000,0.000000,0.000000,0.000000,0.000000,
2296,2638,0.814542250234499,-0.144920543033429,-0.0160045953145413,0.000000,0.000000,0.000000,0.000000,0.000000,320.566841,24.240176,-1.000000,0.988623,0.006465,0.408434,0.000000,0.000000,0.000000,0.000000,0.000000,0.000000,0.000000,
2296,2668,0.80884269150879,0.510173340978533,-0.0189938517882524,0.000000,0.000000,0.000000,0.000000,0.000000,320.053997,24.392296,-1.000000,0.990655,0.006325,0.317550,0.000000,0.000000,0.000000,0.000000,0.000000,0.000000,0.000000,
2296,2698,0.802836746395307,1.16375133608123,-0.0262148273246225,0.000000,0.000000,0.000000,0.000000,0.000000,319.506290,24.390011,-1.000000,0.992158,0.006089,0.380551,0.000000,0.000000,0.000000,0.000000,0.000000,0.000000,0.000000,
2296,2728,0.797026385589351,1.81758283226459,-0.0307101214501131,0.000000,0.000000,0.000000,0.000000,0.000000,318.980817,24.453142,-1.000000,0.991526,0.006072,0.378040,0.000000,0.000000,0.000000,0.000000,0.000000,0.000000,0.000000,
2296,2758,0.791825908745558,2.47032321533241,-0.026963714834551,0.000000,0.000000,0.000000,0.000000,0.000000,318.524311,24.500393,-1.000000,0.990455,0.006283,0.390716,0.000000,0.000000,0.000000,0.000000,0.000000,0.000000,0.000000,
2296,2788,0.786654456289558,3.1232210880912,-0.0227611189528147,0.000000,0.000000,0.000000,0.000000,0.000000,318.071208,24.582475,-1.000000,0.990362,0.006224,0.368594,0.000000,0.000000,0.000000,0.000000,0.000000,0.000000,0.000000,
2296,2818,0.781195867503854,3.77614071272605,-0.0224020309323691,0.000000,0.000000,0.000000,0.000000,0.000000,317.585688,24.653856,-1.000000,0.990713,0.006140,0.356918,0.000000,0.000000,0.000000,0.000000,0.000000,0.000000,0.000000,
2296,2848,0.776137383046262,4.42755885267494,-0.0166698462772956,0.000000,0.000000,0.000000,0.000000,0.000000,317.145460,24.644765,-1.000000,0.992940,0.005851,0.425583,0.000000,0.000000,0.000000,0.000000,0.000000,0.000000,0.000000,
2296,2878,0.770567108376948,5.0804817949007,-0.0177247054483587,0.000000,0.000000,0.000000,0.000000,0.000000,316.647466,24.740032,-1.000000,0.992135,0.005899,0.389624,0.000000,0.000000,0.000000,0.000000,0.000000,0.000000,0.000000,
2296,2908,0.765839252632656,5.73238749682884,-0.00737491466884421,0.000000,0.000000,0.000000,0.000000,0.000000,316.244921,24.841209,-1.000000,0.992496,0.005626,0.347499,0.000000,0.000000,0.000000,0.000000,0.000000,0.000000,0.000000,
2296,2938,0.760565385987139,6.38443793852854,-0.00436945267182409,0.000000,0.000000,0.000000,0.000000,0.000000,315.780638,24.918038,-1.000000,0.990552,0.006034,0.329538,0.000000,0.000000,0.000000,0.000000,0.000000,0.000000,0.000000,
2296,2968,0.755138447019956,7.03633981258587,-0.00339867690559004,0.000000,0.000000,0.000000,0.000000,0.000000,315.299100,24.983128,-1.000000,0.991288,0.005777,0.323077,0.000000,0.000000,0.000000,0.000000,0.000000,0.000000,0.000000,
2296,2998,0.750233513966318,7.68704517234669,0.00462950091571201,0.000000,0.000000,0.000000,0.000000,0.000000,314.876828,25.002207,-1.000000,0.990962,0.005922,0.362421,0.000000,0.000000,0.000000,0.000000,0.000000,0.000000,0.000000,
2296,3028,0.744781708273507,8.33876339138694,0.00535302678895277,0.000000,0.000000,0.000000,0.000000,0.000000,314.392663,25.080318,-1.000000,0.989656,0.006208,0.342646,0.000000,0.000000,0.000000,0.000000,0.000000,0.000000,0.000000,
2296,3058,0.739711099927984,8.98923061139908,0.0112265481075724,0.000000,0.000000,0.000000,0.000000,0.000000,313.951862,25.092705,-1.000000,0.992752,0.005537,0.388360,0.000000,0.000000,0.000000,0.000000,0.000000,0.000000,0.000000,
2296,3088,0.734767613694707,9.63988832688895,0.018884965874804,0.000000,0.000000,0.000000,0.000000,0.000000,313.525583,25.148388,-1.000000,0.993530,0.005453,0.390489,0.000000,0.000000,0.000000,0.000000,0.000000,0.000000,0.000000,
2296,3118,0.729418714727121,10.2911844272108,0.0211308498261928,0.000000,0.000000,0.000000,0.000000,0.000000,313.053391,25.243057,-1.000000,0.993050,0.005565,0.353842,0.000000,0.000000,0.000000,0.000000,0.000000,0.000000,0.000000,
2296,3148,0.724086953767891,10.9420053033888,0.0236357344921316,0.000000,0.000000,0.000000,0.000000,0.000000,312.583276,25.310612,-1.000000,0.993486,0.005500,0.343678,0.000000,0.000000,0.000000,0.000000,0.000000,0.000000,0.000000,
2296,3178,0.718973957499117,11.5923719208783,0.0291351290844091,0.000000,0.000000,0.000000,0.000000,0.000000,312.138126,25.368877,-1.000000,0.993288,0.005437,0.343013,0.000000,0.000000,0.000000,0.000000,0.000000,0.000000,0.000000,
2296,3208,0.713217378083119,12.2429549243551,0.0259739786675368,0.000000,0.000000,0.000000,0.000000,0.000000,311.620040,25.410801,-1.000000,0.994274,0.005056,0.358372,0.000000,0.000000,0.000000,0.000000,0.000000,0.000000,0.000000,
2296,3238,0.707376796538608,12.8931657470109,0.0217102612077156,0.000000,0.000000,0.000000,0.000000,0.000000,311.092553,25.428238,-1.000000,0.993272,0.005307,0.398253,0.000000,0.000000,0.000000,0.000000,0.000000,0.000000,0.000000,
2296,3268,0.701144211398333,13.5442865445885,0.0122186751921163,0.000000,0.000000,0.000000,0.000000,0.000000,310.520469,25.517043,-1.000000,0.992768,0.005379,0.366221,0.000000,0.000000,0.000000,0.000000,0.000000,0.000000,0.000000,
2311,2023,1.25722245302579,-13.6016647064568,0.0287540114716762,0.000000,0.000000,0.000000,0.000000,0.000000,330.867135,22.898251,-1.000000,0.982027,0.008829,0.337667,0.000000,0.000000,0.000000,0.000000,0.000000,0.000000,0.000000,
2311,2053,1.25175803347074,-12.9430130078853,0.0290355713722192,0.000000,0.000000,0.000000,0.000000,0.000000,330.386860,22.982283,-1.000000,0.984988,0.007958,0.325000,0.000000,0.000000,0.000000,0.000000,0.000000,0.000000,0.000000,
2311,2083,1.24542742414123,-12.2821777921126,0.017961753728855,0.000000,0.000000,0.000000,0.000000,0.000000,329.810908,23.162243,-1.000000,0.982618,0.008668,0.216479,0.000000,0.000000,0.000000,0.000000,0.000000,0.000000,0.000000,
2311,2113,1.24027894546327,-11.6262175471734,0.022278968952719,0.000000,0.000000,0.000000,0.000000,0.000000,329.364794,23.089795,-1.000000,0.982087,0.008645,0.359542,0.000000,0.000000,0.000000,0.000000,0.000000,0.000000,0.000000,
2311,2143,1.23494742610406,-10.9674359047796,0.0245310318861698,0.000000,0.000000,0.000000,0.000000,0.000000,328.899703,23.272902,-1.000000,0.984427,0.008255,0.246481,0.000000,0.000000,0.000000,0.000000,0.000000,0.000000,0.000000,
2311,2173,1.22898686967781,-10.3099031639512,0.0182047783778785,0.000000,0.000000,0.000000,0.000000,0.000000,328.363741,23.271932,-1.000000,0.982613,0.008399,0.317737,0.000000,0.000000,0.000000,0.000000,0.000000,0.000000,0.000000,
2311,2203,1.22352385785185,-9.65269270750355,0.0186015479519028,0.000000,0.000000,0.000000,0.000000,0.000000,327.883372,23.334826,-1.000000,0.979456,0.008894,0.324363,0.000000,0.000000,0.000000,0.000000,0.000000,0.000000,0.000000,
2311,2233,1.2173554019313,-8.99431891779614,0.00968092541450005,0.000000,0.000000,0.000000,0.000000,0.000000,327.324666,23.428781,-1.000000,0.978596,0.008964,0.300232,0.000000,0.000000,0.000000,0.000000,0.000000,0.000000,0.000000,
2311,2263,1.21185893679899,-8.33753916552913,0.0096824479213069,0.000000,0.000000,0.000000,0.000000,0.000000,326.840516,23.491354,-1.000000,0.984305,0.007831,0.306604,0.000000,0.000000,0.000000,0.000000,0.000000,0.000000,0.000000,
2311,2293,1.20606913426305,-7.68090447188033,0.00576995618530418,0.000000,0.000000,0.000000,0.000000,0.000000,326.323571,23.522073,-1.000000,0.985927,0.007559,0.344977,0.000000,0.000000,0.000000,0.000000,0.000000,0.000000,0.000000,
2311,2323,1.19959697357182,-7.02287434110885,-0.00712532450290837,0.000000,0.000000,0.000000,0.000000,0.000000,325.730861,23.613069,-1.000000,0.984630,0.007950,0.322755,0.000000,0.000000,0.000000,0.000000,0.000000,0.000000,0.000000,
2311,2353,1.19411504029899,-6.36670230077699,-0.00684094502543076,0.000000,0.000000,0.000000,0.000000,0.000000,325.248292,23.686869,-1.000000,0.986331,0.007335,0.316988,0.000000,0.000000,0.000000,0.000000,0.000000,0.000000,0.000000,
2311,2383,1.18923262634625,-5.71216028508363,0.00139140450465902,0.000000,0.000000,0.000000,0.000000,0.000000,324.832326,23.708163,-1.000000,0.986831,0.007556,0.363303,0.000000,0.000000,0.000000,0.000000,0.000000,0.000000,0.000000,
2311,2413,1.1839147671174,-5.05726430363931,0.00385329166681458,0.000000,0.000000,0.000000,0.000000,0.000000,324.367863,23.724783,-1.000000,0.988061,0.007327,0.414338,0.000000,0.000000,0.000000,0.000000,0.000000,0.000000,0.000000,
2311,2443,1.17799703060154,-4.40129926704559,-0.00159595395808765,0.000000,0.000000,0.000000,0.000000,0.000000,323.836679,23.784471,-1.000000,0.989119,0.006967,0.421929,0.000000,0.000000,0.000000,0.000000,0.000000,0.000000,0.000000,
2311,2473,1.17206527108312,-3.74488765184778,-0.00714209160770451,0.000000,0.000000,0.000000,0.000000,0.000000,323.304083,23.905423,-1.000000,0.986661,0.007299,0.368347,0.000000,0.000000,0.000000,0.000000,0.000000,0.000000,0.000000,
2311,2503,1.16657368998283,-3.09030134707368,-0.00689758175826682,0.000000,0.000000,0.000000,0.000000,0.000000,322.820280,23.932803,-1.000000,0.989011,0.006615,0.407583,0.000000,0.000000,0.000000,0.000000,0.000000,0.000000,0.000000,
2311,2533,1.16062132124512,-2.43474065762011,-0.0127076496085579,0.000000,0.000000,0.000000,0.000000,0.000000,322.285206,24.014680,-1.000000,0.988654,0.006687,0.392424,0.000000,0.000000,0.000000,0.000000,0.000000,0.000000,0.000000,
2311,2563,1.15487990280052,-1.77978344331863,-0.0156908639381186,0.000000,0.000000,0.000000,0.000000,0.000000,321.773624,24.086942,-1.000000,0.987221,0.007111,0.386438,0.000000,0.000000,0.000000,0.000000,0.000000,0.000000,0.000000,
2311,2593,1.1491401299567,-1.1250817823141,-0.0186280113351813,0.000000,0.000000,0.000000,0.000000,0.000000,321.262203,24.156039,-1.000000,0.991236,0.006106,0.383488,0.000000,0.000000,0.000000,0.000000,0.000000,0.000000,0.000000,
2311,2623,1.14393878775867,-0.471388328562846,-0.0143713197867328,0.000000,0.000000,0.000000,0.000000,0.000000,320.810907,24.213585,-1.000000,0.989724,0.006329,0.391323,0.000000,0.000000,0.000000,0.000000,0.000000,0.000000,0.000000,
2311,2653,1.13822485777544,0.182906596440326,-0.0169030081351593,0.000000,0.000000,0.000000,0.000000,0.000000,320.302384,24.286940,-1.000000,0.990161,0.006248,0.383700,0.000000,0.000000,0.000000,0.000000,0.000000,0.000000,0.000000,
2311,2683,1.13263339327501,0.836651587062605,-0.0177889869668775,0.000000,0.000000,0.000000,0.000000,0.000000,319.807517,24.342597,-1.000000,0.991769,0.006184,0.393358,0.000000,0.000000,0.000000,0.000000,0.000000,0.000000,0.000000,
2311,2713,1.12692153450701,1.49052915302564,-0.0202351516767862,0.000000,0.000000,0.000000,0.000000,0.000000,319.299225,24.416378,-1.000000,0.990725,0.006307,0.384484,0.000000,0.000000,0.000000,0.000000,0.000000,0.000000,0.000000,
2311,2743,1.12168105375302,2.14347339389488,-0.01637864137939,0.000000,0.000000,0.000000,0.000000,0.000000,318.843648,24.473443,-1.000000,0.990955,0.006212,0.392061,0.000000,0.000000,0.000000,0.000000,0.000000,0.000000,0.000000,
2311,2773,1.11650715691917,2.7964589488233,-0.0115790321661962,0.000000,0.000000,0.000000,0.000000,0.000000,318.395598,24.558565,-1.000000,0.992594,0.005833,0.371544,0.000000,0.000000,0.000000,0.000000,0.000000,0.000000,0.000000,
2311,2803,1.11019795483615,3.45039738389554,-0.0219056743662804,0.000000,0.000000,0.000000,0.000000,0.000000,317.820473,24.631591,-1.000000,0.992095,0.005813,0.362913,0.000000,0.000000,0.000000,0.000000,0.000000,0.000000,0.000000,
2311,2833,1.10548260573682,4.10305576550191,-0.0108865084123408,0.000000,0.000000,0.000000,0.000000,0.000000,317.423858,24.768414,-1.000000,0.992485,0.005975,0.290024,0.000000,0.000000,0.000000,0.000000,0.000000,0.000000,0.000000,
2311,2863,1.10005564571063,4.75474865562921,-0.00943837154432003,0.000000,0.000000,0.000000,0.000000,0.000000,316.947502,24.760020,-1.000000,0.992169,0.005999,0.362207,0.000000,0.000000,0.000000,0.000000,0.000000,0.000000,0.000000,
2311,2893,1.09369369956682,5.40880308676412,-0.020335376284379,0.000000,0.000000,0.000000,0.000000,0.000000,316.366486,24.896080,-1.000000,0.991245,0.006017,0.289921,0.000000,0.000000,0.000000,0.000000,0.000000,0.000000,0.000000,
2311,2923,1.0887736961359,6.05917490018215,-0.0120760110498281,0.000000,0.000000,0.000000,0.000000,0.000000,315.947027,24.849901,-1.000000,0.990567,0.006044,0.399696,0.000000,0.000000,0.000000,0.000000,0.000000,0.000000,0.000000,
2311,2953,1.08367398293041,6.71112725692782,-0.00608129525289769,0.000000,0.000000,0.000000,0.000000,0.000000,315.507535,24.947906,-1.000000,0.991053,0.005910,0.364737,0.000000,0.000000,0.000000,0.000000,0.000000,0.000000,0.000000,
2311,2983,1.0792390261165,7.36192945350871,0.00880808959487922,0.000000,0.000000,0.000000,0.000000,0.000000,315.142668,25.015916,-1.000000,0.995004,0.004904,0.359700,0.000000,0.000000,0.000000,0.000000,0.000000,0.000000,0.000000,
2311,3013,1.0729226980188,8.01482704942125,-0.00137515274258249,0.000000,0.000000,0.000000,0.000000,0.000000,314.566818,25.121285,-1.000000,0.991502,0.005844,0.317123,0.000000,0.000000,0.000000,0.000000,0.000000,0.000000,0.000000,
2311,3043,1.06837342460512,8.66519971162662,0.0120484011308122,0.000000,0.000000,0.000000,0.000000,0.000000,314.189301,25.168196,-1.000000,0.991849,0.005808,0.332871,0.000000,0.000000,0.000000,0.000000,0.000000,0.000000,0.000000,
2311,3073,1.06331297137282,9.31633334087829,0.0187027066721157,0.000000,0.000000,0.000000,0.000000,0.000000,313.754489,25.254157,-1.000000,0.994565,0.004993,0.309391,0.000000,0.000000,0.000000,0.000000,0.000000,0.000000,0.000000,
2311,3103,1.05791148597517,9.96706063732246,0.0208084030689974,0.000000,0.000000,0.000000,0.000000,0.000000,313.281507,25.288267,-1.000000,0.993082,0.005445,0.337462,0.000000,0.000000,0.000000,0.000000,0.000000,0.000000,0.000000,
2311,3133,1.05233199453477,10.617992079955,0.0205827442158579,0.000000,0.000000,0.000000,0.000000,0.000000,312.788585,25.342112,-1.000000,0.992738,0.005540,0.345770,0.000000,0.000000,0.000000,0.000000,0.000000,0.000000,0.000000,
2311,3163,1.0472715201238,11.2682305161649,0.0273312880338494,0.000000,0.000000,0.000000,0.000000,0.000000,312.354053,25.389592,-1.000000,0.993410,0.005487,0.360374,0.000000,0.000000,0.000000,0.000000,0.000000,0.000000,0.000000,
2311,3193,1.04197828367132,11.9186212150301,0.0310119120009062,0.000000,0.000000,0.000000,0.000000,0.000000,311.893448,25.446691,-1.000000,0.993752,0.005318,0.364865,0.000000,0.000000,0.000000,0.000000,0.000000,0.000000,0.000000,
2311,3223,1.03678402983953,12.568595094524,0.0360490473559025,0.000000,0.000000,0.000000,0.000000,0.000000,311.444087,25.487325,-1.000000,0.993540,0.005114,0.386072,0.000000,0.000000,0.000000,0.000000,0.000000,0.000000,0.000000,
2311,3253,1.02968233834227,13.2206873678637,0.0156363363369678,0.000000,0.000000,0.000000,0.000000,0.000000,310.780166,25.595189,-1.000000,0.992444,0.005366,0.339582,0.000000,0.000000,0.000000,0.000000,0.000000,0.000000,0.000000,
2326,2038,1.58137363447045,-13.270185919447,0.0180541674414485,0.000000,0.000000,0.000000,0.000000,0.000000,330.529304,22.946019,-1.000000,0.983548,0.008303,0.226616,0.000000,0.000000,0.000000,0.000000,0.000000,0.000000,0.000000,
2326,2068,1.57571309890953,-12.6135997989993,0.0162670638689519,0.000000,0.000000,0.000000,0.000000,0.000000,330.032685,22.831685,-1.000000,0.982563,0.008553,0.416492,0.000000,0.000000,0.000000,0.000000,0.000000,0.000000,0.000000,
2326,2098,1.57015943709723,-11.9556614493011,0.0161346756037233,0.000000,0.000000,0.000000,0.000000,0.000000,329.548696,22.881017,-1.000000,0.982587,0.008730,0.442470,0.000000,0.000000,0.000000,0.000000,0.000000,0.000000,0.000000,
2326,2128,1.56551958430835,-11.2976135108625,0.0282626407723114,0.000000,0.000000,0.000000,0.000000,0.000000,329.165996,23.094514,-1.000000,0.984390,0.008227,0.303228,0.000000,0.000000,0.000000,0.000000,0.000000,0.000000,0.000000,
2326,2158,1.55883643059897,-10.6390588290809,0.0132322154526605,0.000000,0.000000,0.000000,0.000000,0.000000,328.557356,23.082703,-1.000000,0.983850,0.008254,0.390270,0.000000,0.000000,0.000000,0.000000,0.000000,0.000000,0.000000,
2326,2188,1.55386444196481,-9.9819600782729,0.0209072187822699,0.000000,0.000000,0.000000,0.000000,0.000000,328.137539,23.202546,-1.000000,0.982197,0.008394,0.344361,0.000000,0.000000,0.000000,0.000000,0.000000,0.000000,0.000000,
2326,2218,1.54776017328153,-9.32400680934563,0.0136281051622973,0.000000,0.000000,0.000000,0.000000,0.000000,327.592780,23.264065,-1.000000,0.979480,0.008988,0.357055,0.000000,0.000000,0.000000,0.000000,0.000000,0.000000,0.000000,
2326,2248,1.54163722017056,-8.66592046369814,0.00616307394318483,0.000000,0.000000,0.000000,0.000000,0.000000,327.046017,23.358882,-1.000000,0.980599,0.008535,0.336286,0.000000,0.000000,0.000000,0.000000,0.000000,0.000000,0.000000,
2326,2278,1.53568719351492,-8.00848092479718,0.000976730652439528,0.000000,0.000000,0.000000,0.000000,0.000000,326.518141,23.440570,-1.000000,0.984140,0.007775,0.328098,0.000000,0.000000,0.000000,0.000000,0.000000,0.000000,0.000000,
2326,2308,1.52987233005925,-7.35134695946446,-0.00239605970369894,0.000000,0.000000,0.000000,0.000000,0.000000,326.005126,23.534530,-1.000000,0.984254,0.007862,0.307372,0.000000,0.000000,0.000000,0.000000,0.000000,0.000000,0.000000,
2326,2338,1.52525592942614,-6.69671426165442,0.00997477787063872,0.000000,0.000000,0.000000,0.000000,0.000000,325.623946,23.576004,-1.000000,0.984335,0.007837,0.338175,0.000000,0.000000,0.000000,0.000000,0.000000,0.000000,0.000000,
2326,2368,1.51849408719076,-6.03933838223028,-0.00589539500151659,0.000000,0.000000,0.000000,0.000000,0.000000,325.006185,23.611379,-1.000000,0.986303,0.007417,0.375736,0.000000,0.000000,0.000000,0.000000,0.000000,0.000000,0.000000,
2326,2398,1.51373509649428,-5.38481527482302,0.00465848949278325,0.000000,0.000000,0.000000,0.000000,0.000000,324.609302,23.662842,-1.000000,0.987799,0.007484,0.395988,0.000000,0.000000,0.000000,0.000000,0.000000,0.000000,0.000000,
2326,2428,1.50619213910707,-4.72604301799682,-0.0213799200453764,0.000000,0.000000,0.000000,0.000000,0.000000,323.905417,23.775617,-1.000000,0.990106,0.006815,0.356072,0.000000,0.000000,0.000000,0.000000,0.000000,0.000000,0.000000,
2326,2458,1.50092093422239,-4.07128844126713,-0.0175327098766047,0.000000,0.000000,0.000000,0.000000,0.000000,323.451918,23.824996,-1.000000,0.988128,0.007088,0.377993,0.000000,0.000000,0.000000,0.000000,0.000000,0.000000,0.000000,
2326,2488,1.49618952675261,-3.41730436475694,-0.00653090302955661,0.000000,0.000000,0.000000,0.000000,0.000000,323.058057,23.887710,-1.000000,0.987601,0.006940,0.386266,0.000000,0.000000,0.000000,0.000000,0.000000,0.000000,0.000000,
2326,2518,1.4897340800174,-2.76074309297083,-0.0181830517395838,0.000000,0.000000,0.000000,0.000000,0.000000,322.473900,23.998997,-1.000000,0.986826,0.006979,0.346402,0.000000,0.000000,0.000000,0.000000,0.000000,0.000000,0.000000,
2326,2548,1.4838573300299,-2.10612499541718,-0.0222739040046349,0.000000,0.000000,0.000000,0.000000,0.000000,321.953346,24.021776,-1.000000,0.985181,0.007457,0.394665,0.000000,0.000000,0.000000,0.000000,0.000000,0.000000,0.000000,
2326,2578,1.47867727822571,-1.45159451607966,-0.0170618564520737,0.000000,0.000000,0.000000,0.000000,0.000000,321.509994,24.137932,-1.000000,0.988015,0.006782,0.348659,0.000000,0.000000,0.000000,0.000000,0.000000,0.000000,0.000000,
2326,2608,1.47256100485654,-0.796596144233106,-0.0242189353566573,0.000000,0.000000,0.000000,0.000000,0.000000,320.962987,24.208309,-1.000000,0.989426,0.006562,0.349003,0.000000,0.000000,0.000000,0.000000,0.000000,0.000000,0.000000,
2326,2638,1.46720681984164,-0.143110365508875,-0.0213298198718803,0.000000,0.000000,0.000000,0.000000,0.000000,320.500147,24.245537,-1.000000,0.988944,0.006565,0.381415,0.000000,0.000000,0.000000,0.000000,0.000000,0.000000,0.000000,
2326,2668,1.46105101113768,0.51271360826329,-0.0288625243375691,0.000000,0.000000,0.000000,0.000000,0.000000,319.948863,24.428588,-1.000000,0.991697,0.006191,0.268449,0.000000,0.000000,0.000000,0.000000,0.000000,0.000000,0.000000,
2326,2698,1.45570984605024,1.16436490972151,-0.0258645914113913,0.000000,0.000000,0.000000,0.000000,0.000000,319.487199,24.335132,-1.000000,0.991156,0.006296,0.431455,0.000000,0.000000,0.000000,0.000000,0.000000,0.000000,0.000000,
2326,2728,1.44997245877412,1.81907135882595,-0.0278463745555086,0.000000,0.000000,0.000000,0.000000,0.000000,318.982084,24.499622,-1.000000,0.989520,0.006464,0.336393,0.000000,0.000000,0.000000,0.000000,0.000000,0.000000,0.000000,
2326,2758,1.44432825915628,2.47196282412557,-0.0286907480671061,0.000000,0.000000,0.000000,0.000000,0.000000,318.487050,24.525028,-1.000000,0.992132,0.005965,0.380084,0.000000,0.000000,0.000000,0.000000,0.000000,0.000000,0.000000,
2326,2788,1.43891057537402,3.12428528220862,-0.0265247799937924,0.000000,0.000000,0.000000,0.000000,0.000000,318.017098,24.539584,-1.000000,0.994001,0.005402,0.434202,0.000000,0.000000,0.000000,0.000000,0.000000,0.000000,0.000000,
2326,2818,1.43395180717779,3.77712953923474,-0.0181816746982122,0.000000,0.000000,0.000000,0.000000,0.000000,317.598127,24.666191,-1.000000,0.991732,0.005937,0.376143,0.000000,0.000000,0.000000,0.000000,0.000000,0.000000,0.000000,
2326,2848,1.42810447883643,4.42980343145643,-0.0216147678049197,0.000000,0.000000,0.000000,0.000000,0.000000,317.080585,24.704399,-1.000000,0.992699,0.005934,0.406431,0.000000,0.000000,0.000000,0.000000,0.000000,0.000000,0.000000,
2326,2878,1.42308680609366,5.08186678525141,-0.0140279784265545,0.000000,0.000000,0.000000,0.000000,0.000000,316.655066,24.785545,-1.000000,0.991137,0.006131,0.393188,0.000000,0.000000,0.000000,0.000000,0.000000,0.000000,0.000000,
2326,2908,1.41764986284222,5.7346351457447,-0.0119235878016184,0.000000,0.000000,0.000000,0.000000,0.000000,316.183070,24.907196,-1.000000,0.990317,0.006154,0.339630,0.000000,0.000000,0.000000,0.000000,0.000000,0.000000,0.000000,
2326,2938,1.41259928164616,6.38572019777725,-0.00475510675823898,0.000000,0.000000,0.000000,0.000000,0.000000,315.753927,24.926081,-1.000000,0.988993,0.006410,0.388412,0.000000,0.000000,0.000000,0.000000,0.000000,0.000000,0.000000,
2326,2968,1.40687712766812,7.03912002338538,-0.00632276884624616,0.000000,0.000000,0.000000,0.000000,0.000000,315.250273,25.112477,-1.000000,0.995354,0.004827,0.269588,0.000000,0.000000,0.000000,0.000000,0.000000,0.000000,0.000000,
2326,2998,1.40191228194983,7.68921687479795,0.00200931410307703,0.000000,0.000000,0.000000,0.000000,0.000000,314.830722,25.078915,-1.000000,0.995219,0.004931,0.370605,0.000000,0.000000,0.000000,0.000000,0.000000,0.000000,0.000000,
2326,3028,1.3966779313449,8.34074880298101,0.00688831521614475,0.000000,0.000000,0.000000,0.000000,0.000000,314.381265,25.168701,-1.000000,0.992020,0.005798,0.347887,0.000000,0.000000,0.000000,0.000000,0.000000,0.000000,0.000000,
2326,3058,1.39113800174163,8.99181886518896,0.00772590727746092,0.000000,0.000000,0.000000,0.000000,0.000000,313.897913,25.204644,-1.000000,0.993850,0.005182,0.379041,0.000000,0.000000,0.000000,0.000000,0.000000,0.000000,0.000000,
2326,3088,1.38613402293469,9.64224592083967,0.0156866130840854,0.000000,0.000000,0.000000,0.000000,0.000000,313.474156,25.242411,-1.000000,0.994606,0.004877,0.408053,0.000000,0.000000,0.000000,0.000000,0.000000,0.000000,0.000000,
2326,3118,1.38088007119674,10.2936293947643,0.0204184628835264,0.000000,0.000000,0.000000,0.000000,0.000000,313.022591,25.361948,-1.000000,0.992774,0.005452,0.355187,0.000000,0.000000,0.000000,0.000000,0.000000,0.000000,0.000000,
2326,3148,1.37540125634043,10.9443966297246,0.0221754431710224,0.000000,0.000000,0.000000,0.000000,0.000000,312.546112,25.421055,-1.000000,0.993149,0.005427,0.362516,0.000000,0.000000,0.000000,0.000000,0.000000,0.000000,0.000000,
2326,3178,1.36978630843615,11.5951868619679,0.0221671871132116,0.000000,0.000000,0.000000,0.000000,0.000000,312.054512,25.486882,-1.000000,0.994172,0.005359,0.363013,0.000000,0.000000,0.000000,0.000000,0.000000,0.000000,0.000000,
2326,3208,1.36516013041162,12.2445266954244,0.0352613775084478,0.000000,0.000000,0.000000,0.000000,0.000000,311.673035,25.510108,-1.000000,0.993734,0.005174,0.406053,0.000000,0.000000,0.000000,0.000000,0.000000,0.000000,0.000000,
2326,3238,1.35858116248881,12.8965399665424,0.0225892526861458,0.000000,0.000000,0.000000,0.000000,0.000000,311.074096,25.645987,-1.000000,0.992468,0.005298,0.335896,0.000000,0.000000,0.000000,0.000000,0.000000,0.000000,0.000000,
2326,3268,1.35152284902187,13.5480246775551,0.0035694808915423,0.000000,0.000000,0.000000,0.000000,0.000000,310.421835,25.716784,-1.000000,0.993442,0.005011,0.330895,0.000000,0.000000,0.000000,0.000000,0.000000,0.000000,0.000000,
2341,2023,1.91265493355251,-13.6024965617482,0.0273199782249094,0.000000,0.000000,0.000000,0.000000,0.000000,330.846689,22.673687,-1.000000,0.976787,0.009789,0.358619,0.000000,0.000000,0.000000,0.000000,0.000000,0.000000,0.000000,
2341,2053,1.90730499542484,-12.9434953855399,0.0307216431806978,0.000000,0.000000,0.000000,0.000000,0.000000,330.391906,22.825343,-1.000000,0.981525,0.008565,0.287128,0.000000,0.000000,0.000000,0.000000,0.000000,0.000000,0.000000,
2341,2083,1.90102989205227,-12.2835631402595,0.0220567227520405,0.000000,0.000000,0.000000,0.000000,0.000000,329.836208,22.950033,-1.000000,0.981511,0.008763,0.242497,0.000000,0.000000,0.000000,0.000000,0.000000,0.000000,0.000000,
2341,2113,1.89551568464993,-11.6261352768529,0.0231797609948785,0.000000,0.000000,0.000000,0.000000,0.000000,329.362647,22.976916,-1.000000,0.983496,0.008378,0.295049,0.000000,0.000000,0.000000,0.000000,0.000000,0.000000,0.000000,
2341,2143,1.88806625018459,-10.965773515296,-0.000854394670966485,0.000000,0.000000,0.000000,0.000000,0.000000,328.678390,23.022693,-1.000000,0.983968,0.008244,0.329659,0.000000,0.000000,0.000000,0.000000,0.000000,0.000000,0.000000,
2341,2173,1.88283805451109,-10.3092340202174,0.0040328902668989,0.000000,0.000000,0.000000,0.000000,0.000000,328.235792,23.054231,-1.000000,0.983071,0.008295,0.376639,0.000000,0.000000,0.000000,0.000000,0.000000,0.000000,0.000000,
2341,2203,1.877574868242,-9.65184670110203,0.00860320304428797,0.000000,0.000000,0.000000,0.000000,0.000000,327.789775,23.179717,-1.000000,0.983420,0.008306,0.329523,0.000000,0.000000,0.000000,0.000000,0.000000,0.000000,0.000000,
2341,2233,1.87229567698885,-8.99541854915292,0.0128933486630558,0.000000,0.000000,0.000000,0.000000,0.000000,327.341608,23.234476,-1.000000,0.979206,0.008924,0.352853,0.000000,0.000000,0.000000,0.000000,0.000000,0.000000,0.000000,
2341,2263,1.86590377035181,-8.3375212819974,0.00271083581901621,0.000000,0.000000,0.000000,0.000000,0.000000,326.772083,23.295795,-1.000000,0.983770,0.007967,0.369795,0.000000,0.000000,0.000000,0.000000,0.000000,0.000000,0.000000,
2341,2293,1.86005252719465,-7.68003117593598,-0.000341911328462174,0.000000,0.000000,0.000000,0.000000,0.000000,326.261631,23.415125,-1.000000,0.986083,0.007397,0.328087,0.000000,0.000000,0.000000,0.000000,0.000000,0.000000,0.000000,
2341,2323,1.85448966151153,-7.02333688581633,0.000361954752690963,0.000000,0.000000,0.000000,0.000000,0.000000,325.782467,23.520341,-1.000000,0.986722,0.007342,0.300138,0.000000,0.000000,0.000000,0.000000,0.000000,0.000000,0.000000,
2341,2353,1.84933638488697,-6.36824757560649,0.00633655200630301,0.000000,0.000000,0.000000,0.000000,0.000000,325.347632,23.550407,-1.000000,0.986244,0.007510,0.346942,0.000000,0.000000,0.000000,0.000000,0.000000,0.000000,0.000000,
2341,2383,1.84228244801617,-5.70976481586919,-0.0123496935152048,0.000000,0.000000,0.000000,0.000000,0.000000,324.705558,23.672094,-1.000000,0.986089,0.007639,0.302817,0.000000,0.000000,0.000000,0.000000,0.000000,0.000000,0.000000,
2341,2413,1.83825485883088,-5.05605001444424,0.00840347857877077,0.000000,0.000000,0.000000,0.000000,0.000000,324.393717,23.756932,-1.000000,0.989960,0.006985,0.293441,0.000000,0.000000,0.000000,0.000000,0.000000,0.000000,0.000000,
2341,2443,1.83181168200372,-4.39965269444169,-0.00236637818773033,0.000000,0.000000,0.000000,0.000000,0.000000,323.817856,23.806666,-1.000000,0.988418,0.007037,0.320531,0.000000,0.000000,0.000000,0.000000,0.000000,0.000000,0.000000,
2341,2473,1.82565453332487,-3.74393881832872,-0.00939445281716189,0.000000,0.000000,0.000000,0.000000,0.000000,323.273109,23.851015,-1.000000,0.987906,0.007014,0.352109,0.000000,0.000000,0.000000,0.000000,0.000000,0.000000,0.000000,
2341,2503,1.81970302775848,-3.08902971187582,-0.0137503170540185,0.000000,0.000000,0.000000,0.000000,0.000000,322.750660,23.867379,-1.000000,0.987181,0.007004,0.411656,0.000000,0.000000,0.000000,0.000000,0.000000,0.000000,0.000000,
2341,2533,1.81406192939678,-2.43358958264201,-0.0139283924316373,0.000000,0.000000,0.000000,0.000000,0.000000,322.262372,23.990326,-1.000000,0.985476,0.007381,0.363887,0.000000,0.000000,0.000000,0.000000,0.000000,0.000000,0.000000,
2341,2563,1.8083101140871,-1.77838175945282,-0.0155495710322953,0.000000,0.000000,0.000000,0.000000,0.000000,321.761839,24.098563,-1.000000,0.985663,0.007339,0.330798,0.000000,0.000000,0.000000,0.000000,0.000000,0.000000,0.000000,
2341,2593,1.80232046044314,-1.12342294863016,-0.0202875681756041,0.000000,0.000000,0.000000,0.000000,0.000000,321.235110,24.176496,-1.000000,0.987711,0.006925,0.327686,0.000000,0.000000,0.000000,0.000000,0.000000,0.000000,0.000000,
2341,2623,1.79629846149045,-0.469158831539154,-0.0254739111836102,0.000000,0.000000,0.000000,0.000000,0.000000,320.704641,24.207076,-1.000000,0.987639,0.006975,0.372173,0.000000,0.000000,0.000000,0.000000,0.000000,0.000000,0.000000,
2341,2653,1.79039901953128,0.185185041087209,-0.0290021349593417,0.000000,0.000000,0.000000,0.000000,0.000000,320.187596,24.279003,-1.000000,0.989124,0.006751,0.374728,0.000000,0.000000,0.000000,0.000000,0.000000,0.000000,0.000000,
2341,2683,1.78471305227392,0.839314906352413,-0.0297023242239902,0.000000,0.000000,0.000000,0.000000,0.000000,319.693898,24.374096,-1.000000,0.991750,0.006220,0.353640,0.000000,0.000000,0.000000,0.000000,0.000000,0.000000,0.000000,
2341,2713,1.77922737019633,1.49256243155245,-0.0278017996618587,0.000000,0.000000,0.000000,0.000000,0.000000,319.222014,24.427767,-1.000000,0.990277,0.006300,0.373620,0.000000,0.000000,0.000000,0.000000,0.000000,0.000000,0.000000,
2341,2743,1.77397114414642,2.14563398443003,-0.0228590099746384,0.000000,0.000000,0.000000,0.000000,0.000000,318.775282,24.507103,-1.000000,0.990769,0.006159,0.367895,0.000000,0.000000,0.000000,0.000000,0.000000,0.000000,0.000000,
2341,2773,1.76888652832519,2.79866909061532,-0.0156254998391319,0.000000,0.000000,0.000000,0.000000,0.000000,318.347374,24.617594,-1.000000,0.992359,0.005771,0.330632,0.000000,0.000000,0.000000,0.000000,0.000000,0.000000,0.000000,
2341,2803,1.76287148966554,3.45212751425908,-0.0205620253724987,0.000000,0.000000,0.000000,0.000000,0.000000,317.817320,24.689339,-1.000000,0.992763,0.005660,0.332182,0.000000,0.000000,0.000000,0.000000,0.000000,0.000000,0.000000,
2341,2833,1.75727316361789,4.10518548299213,-0.0200121358817,0.000000,0.000000,0.000000,0.000000,0.000000,317.332940,24.784671,-1.000000,0.991467,0.006097,0.309808,0.000000,0.000000,0.000000,0.000000,0.000000,0.000000,0.000000,
2341,2863,1.75178163865288,4.75692234963889,-0.0181129192628191,0.000000,0.000000,0.000000,0.000000,0.000000,316.860171,24.785805,-1.000000,0.991705,0.006024,0.381275,0.000000,0.000000,0.000000,0.000000,0.000000,0.000000,0.000000,
2341,2893,1.74647464768853,5.40931862853378,-0.0137054027470072,0.000000,0.000000,0.000000,0.000000,0.000000,316.407698,24.882526,-1.000000,0.990988,0.006049,0.357117,0.000000,0.000000,0.000000,0.000000,0.000000,0.000000,0.000000,
2341,2923,1.74076316627978,6.06213691584276,-0.0145534297562904,0.000000,0.000000,0.000000,0.000000,0.000000,315.910766,24.996545,-1.000000,0.989789,0.006191,0.315457,0.000000,0.000000,0.000000,0.000000,0.000000,0.000000,0.000000,
2341,2953,1.73584156684428,6.71320008535022,-0.00509343833334697,0.000000,0.000000,0.000000,0.000000,0.000000,315.500564,25.038142,-1.000000,0.991654,0.005753,0.345912,0.000000,0.000000,0.000000,0.000000,0.000000,0.000000,0.000000,
2341,2983,1.73053215125903,7.36482834611408,-0.000658952159142245,0.000000,0.000000,0.000000,0.000000,0.000000,315.047752,25.111456,-1.000000,0.995267,0.004896,0.344458,0.000000,0.000000,0.000000,0.000000,0.000000,0.000000,0.000000,
2341,3013,1.72530572613995,8.0159727662648,0.00487458065430246,0.000000,0.000000,0.000000,0.000000,0.000000,314.604059,25.162888,-1.000000,0.993254,0.005487,0.364598,0.000000,0.000000,0.000000,0.000000,0.000000,0.000000,0.000000,
2341,3043,1.71974395999448,8.66699845116706,0.00603193981595496,0.000000,0.000000,0.000000,0.000000,0.000000,314.123500,25.189496,-1.000000,0.993228,0.005496,0.409808,0.000000,0.000000,0.000000,0.000000,0.000000,0.000000,0.000000,
2341,3073,1.71407087555116,9.31920820533326,0.00582608287959374,0.000000,0.000000,0.000000,0.000000,0.000000,313.630608,25.332321,-1.000000,0.994129,0.004999,0.338080,0.000000,0.000000,0.000000,0.000000,0.000000,0.000000,0.000000,
2341,3103,1.7092411219714,9.96951396916935,0.0166372451829488,0.000000,0.000000,0.000000,0.000000,0.000000,313.230550,25.384940,-1.000000,0.993458,0.005313,0.356832,0.000000,0.000000,0.000000,0.000000,0.000000,0.000000,0.000000,
2341,3133,1.70387808665061,10.6202464241564,0.0205003610246308,0.000000,0.000000,0.000000,0.000000,0.000000,312.771815,25.447021,-1.000000,0.992808,0.005497,0.365634,0.000000,0.000000,0.000000,0.000000,0.000000,0.000000,0.000000,
2341,3163,1.69891250732446,11.2707641365981,0.029611867937092,0.000000,0.000000,0.000000,0.000000,0.000000,312.356815,25.535329,-1.000000,0.993599,0.005522,0.348161,0.000000,0.000000,0.000000,0.000000,0.000000,0.000000,0.000000,
2341,3193,1.69303184385678,11.921778303635,0.0267591297450736,0.000000,0.000000,0.000000,0.000000,0.000000,311.841061,25.612261,-1.000000,0.993752,0.005400,0.341857,0.000000,0.000000,0.000000,0.000000,0.000000,0.000000,0.000000,
2341,3223,1.68748062381729,12.5722766032529,0.0282474380117037,0.000000,0.000000,0.000000,0.000000,0.000000,311.361585,25.682511,-1.000000,0.992714,0.005345,0.342114,0.000000,0.000000,0.000000,0.000000,0.000000,0.000000,0.000000,
2341,3253,1.68048091159294,13.2234893762459,0.0107703042079947,0.000000,0.000000,0.000000,0.000000,0.000000,310.722499,25.727642,-1.000000,0.992541,0.005333,0.367425,0.000000,0.000000,0.000000,0.000000,0.000000,0.000000,0.000000,
2356,2038,2.23752430480512,-13.2729526744855,0.0256491475997223,0.000000,0.000000,0.000000,0.000000,0.000000,330.593357,22.647046,-1.000000,0.978101,0.009381,0.325832,0.000000,0.000000,0.000000,0.000000,0.000000,0.000000,0.000000,
2356,2068,2.23270372020208,-12.615559025282,0.0365346814744498,0.000000,0.000000,0.000000,0.000000,0.000000,330.201233,22.746419,-1.000000,0.980339,0.008768,0.310278,0.000000,0.000000,0.000000,0.000000,0.000000,0.000000,0.000000,
2356,2098,2.22506764899581,-11.9538243834421,0.011173791652368,0.000000,0.000000,0.000000,0.000000,0.000000,329.505779,22.863856,-1.000000,0.981244,0.008734,0.278021,0.000000,0.000000,0.000000,0.000000,0.000000,0.000000,0.000000,
2356,2128,2.21970845022238,-11.2967369649675,0.0150587692823478,0.000000,0.000000,0.000000,0.000000,0.000000,329.055029,22.902138,-1.000000,0.982459,0.008461,0.323252,0.000000,0.000000,0.000000,0.000000,0.000000,0.000000,0.000000,
2356,2158,2.21448926719929,-10.638925198327,0.0209028090716288,0.000000,0.000000,0.000000,0.000000,0.000000,328.619818,23.047821,-1.000000,0.982101,0.008630,0.260981,0.000000,0.000000,0.000000,0.000000,0.000000,0.000000,0.000000,
2356,2188,2.20858530202595,-9.98107841596472,0.0178380944172432,0.000000,0.000000,0.000000,0.000000,0.000000,328.110286,23.122602,-1.000000,0.983380,0.008262,0.269401,0.000000,0.000000,0.000000,0.000000,0.000000,0.000000,0.000000,
2356,2218,2.20243907315716,-9.32362237433954,0.0116023589088172,0.000000,0.000000,0.000000,0.000000,0.000000,327.574254,23.150758,-1.000000,0.979678,0.008899,0.324442,0.000000,0.000000,0.000000,0.000000,0.000000,0.000000,0.000000,
2356,2248,2.19612450831056,-8.66573808018903,0.00325699444016436,0.000000,0.000000,0.000000,0.000000,0.000000,327.020084,23.219148,-1.000000,0.981722,0.008571,0.338776,0.000000,0.000000,0.000000,0.000000,0.000000,0.000000,0.000000,
2356,2278,2.18962203541063,-8.00801592518136,-0.00752197814944111,0.000000,0.000000,0.000000,0.000000,0.000000,326.445383,23.271283,-1.000000,0.989117,0.006958,0.369290,0.000000,0.000000,0.000000,0.000000,0.000000,0.000000,0.000000,
2356,2308,2.18469040665457,-7.35246464098022,0.00201094608655694,0.000000,0.000000,0.000000,0.000000,0.000000,326.040297,23.351225,-1.000000,0.991537,0.006173,0.370930,0.000000,0.000000,0.000000,0.000000,0.000000,0.000000,0.000000,
2356,2338,2.1785627701575,-6.69467645176703,-0.00379264122619816,0.000000,0.000000,0.000000,0.000000,0.000000,325.506187,23.502706,-1.000000,0.989309,0.006964,0.301001,0.000000,0.000000,0.000000,0.000000,0.000000,0.000000,0.000000,
2356,2368,2.17276749810825,-6.03903044253281,-0.00544957195188545,0.000000,0.000000,0.000000,0.000000,0.000000,325.007326,23.520369,-1.000000,0.985184,0.007691,0.364934,0.000000,0.000000,0.000000,0.000000,0.000000,0.000000,0.000000,
2356,2398,2.16732197892779,-5.38301792766416,-0.00246686498263671,0.000000,0.000000,0.000000,0.000000,0.000000,324.546522,23.636518,-1.000000,0.987257,0.007511,0.329576,0.000000,0.000000,0.000000,0.000000,0.000000,0.000000,0.000000,
2356,2428,2.1611662004256,-4.72869854201699,-0.00888634461182392,0.000000,0.000000,0.000000,0.000000,0.000000,324.008029,23.528181,-1.000000,0.989871,0.006907,0.519010,0.000000,0.000000,0.000000,0.000000,0.000000,0.000000,0.000000,
2356,2458,2.15523224732154,-4.07080131591641,-0.0120166455149615,0.000000,0.000000,0.000000,0.000000,0.000000,323.494653,23.799644,-1.000000,0.986446,0.007372,0.327955,0.000000,0.000000,0.000000,0.000000,0.000000,0.000000,0.000000,
2356,2488,2.15000849396862,-3.41673457754565,-0.00622844576759007,0.000000,0.000000,0.000000,0.000000,0.000000,323.057206,23.822285,-1.000000,0.988053,0.007000,0.385378,0.000000,0.000000,0.000000,0.000000,0.000000,0.000000,0.000000,
2356,2518,2.14413479890516,-2.76136970028168,-0.00875526831038087,0.000000,0.000000,0.000000,0.000000,0.000000,322.549499,23.906835,-1.000000,0.986768,0.007289,0.381045,0.000000,0.000000,0.000000,0.000000,0.000000,0.000000,0.000000,
2356,2548,2.13820256395096,-2.10685949799702,-0.0120901456901947,0.000000,0.000000,0.000000,0.000000,0.000000,322.035154,23.925869,-1.000000,0.986608,0.007359,0.441781,0.000000,0.000000,0.000000,0.000000,0.000000,0.000000,0.000000,
2356,2578,2.1324456550943,-1.45134781855383,-0.0130142134374296,0.000000,0.000000,0.000000,0.000000,0.000000,321.540020,24.077832,-1.000000,0.987719,0.007012,0.369260,0.000000,0.000000,0.000000,0.000000,0.000000,0.000000,0.000000,
2356,2608,2.12662945735891,-0.796753527858613,-0.0147613477390678,0.000000,0.000000,0.000000,0.000000,0.000000,321.038161,24.157817,-1.000000,0.987315,0.007035,0.368158,0.000000,0.000000,0.000000,0.000000,0.000000,0.000000,0.000000,
2356,2638,2.12109792080854,-0.142324409611987,-0.0127812181353306,0.000000,0.000000,0.000000,0.000000,0.000000,320.567122,24.273405,-1.000000,0.987593,0.007005,0.331672,0.000000,0.000000,0.000000,0.000000,0.000000,0.000000,0.000000,
2356,2668,2.11476799798453,0.511740062290457,-0.0212005117873559,0.000000,0.000000,0.000000,0.000000,0.000000,320.009197,24.287191,-1.000000,0.989433,0.006764,0.396504,0.000000,0.000000,0.000000,0.000000,0.000000,0.000000,0.000000,
2356,2698,2.10894250654767,1.16544581181375,-0.0230442056550828,0.000000,0.000000,0.000000,0.000000,0.000000,319.505946,24.342532,-1.000000,0.991211,0.006067,0.419897,0.000000,0.000000,0.000000,0.000000,0.000000,0.000000,0.000000,
2356,2728,2.10357345482377,1.81950043941205,-0.0188834299052587,0.000000,0.000000,0.000000,0.000000,0.000000,319.052282,24.496902,-1.000000,0.990855,0.006048,0.343661,0.000000,0.000000,0.000000,0.000000,0.000000,0.000000,0.000000,
2356,2758,2.09698950357424,2.47362140645365,-0.0305084821883952,0.000000,0.000000,0.000000,0.000000,0.000000,318.466482,24.549790,-1.000000,0.990015,0.006173,0.368945,0.000000,0.000000,0.000000,0.000000,0.000000,0.000000,0.000000,
2356,2788,2.09207718351906,3.12618541061655,-0.0204533431851814,0.000000,0.000000,0.000000,0.000000,0.000000,318.062137,24.648766,-1.000000,0.993327,0.005627,0.347505,0.000000,0.000000,0.000000,0.000000,0.000000,0.000000,0.000000,
2356,2818,2.08685934520082,3.77828453633479,-0.0143770465442685,0.000000,0.000000,0.000000,0.000000,0.000000,317.624499,24.689619,-1.000000,0.992538,0.005932,0.383890,0.000000,0.000000,0.000000,0.000000,0.000000,0.000000,0.000000,
2356,2848,2.08027837493422,4.4321791762229,-0.0258855649750558,0.000000,0.000000,0.000000,0.000000,0.000000,317.038719,24.780077,-1.000000,0.991117,0.006190,0.371025,0.000000,0.000000,0.000000,0.000000,0.000000,0.000000,0.000000,
2356,2878,2.07525699166689,5.08405778703609,-0.0172026394573663,0.000000,0.000000,0.000000,0.000000,0.000000,316.622320,24.853720,-1.000000,0.991792,0.005913,0.374275,0.000000,0.000000,0.000000,0.000000,0.000000,0.000000,0.000000,
2356,2908,2.06963992919922,5.73665647363789,-0.0161925951959461,0.000000,0.000000,0.000000,0.000000,0.000000,316.141118,24.953202,-1.000000,0.990888,0.006029,0.351774,0.000000,0.000000,0.000000,0.000000,0.000000,0.000000,0.000000,
2356,2938,2.06406714915569,6.38897121441356,-0.0145943049811876,0.000000,0.000000,0.000000,0.000000,0.000000,315.664648,25.047451,-1.000000,0.990146,0.006107,0.334016,0.000000,0.000000,0.000000,0.000000,0.000000,0.000000,0.000000,
2356,2968,2.05870447368629,7.04116234743861,-0.0102397599795836,0.000000,0.000000,0.000000,0.000000,0.000000,315.210964,25.165768,-1.000000,0.991663,0.005893,0.292169,0.000000,0.000000,0.000000,0.000000,0.000000,0.000000,0.000000,
2356,2998,2.05367078071331,7.69225309294735,-0.00163962306925214,0.000000,0.000000,0.000000,0.000000,0.000000,314.793031,25.226937,-1.000000,0.992329,0.005763,0.307157,0.000000,0.000000,0.000000,0.000000,0.000000,0.000000,0.000000,
2356,3028,2.04849471031756,8.34336698808095,0.00514234197549968,0.000000,0.000000,0.000000,0.000000,0.000000,314.359572,25.292227,-1.000000,0.992067,0.005863,0.317901,0.000000,0.000000,0.000000,0.000000,0.000000,0.000000,0.000000,
2356,3058,2.04289252049193,8.99454259852146,0.00641672820245276,0.000000,0.000000,0.000000,0.000000,0.000000,313.879684,25.341846,-1.000000,0.993191,0.005400,0.344083,0.000000,0.000000,0.000000,0.000000,0.000000,0.000000,0.000000,
2356,3088,2.03784919765723,9.64544260118315,0.0149784220001266,0.000000,0.000000,0.000000,0.000000,0.000000,313.460602,25.428069,-1.000000,0.992540,0.005559,0.333699,0.000000,0.000000,0.000000,0.000000,0.000000,0.000000,0.000000,
2356,3118,2.0325399899572,10.2958810238815,0.0200905714487476,0.000000,0.000000,0.000000,0.000000,0.000000,313.012570,25.463845,-1.000000,0.992539,0.005691,0.373519,0.000000,0.000000,0.000000,0.000000,0.000000,0.000000,0.000000,
2356,3148,2.02720808217847,10.9469428271044,0.0249704049795128,0.000000,0.000000,0.000000,0.000000,0.000000,312.561964,25.569975,-1.000000,0.992435,0.005711,0.342542,0.000000,0.000000,0.000000,0.000000,0.000000,0.000000,0.000000,
2356,3178,2.02189738828102,11.5971727862455,0.0301187056072081,0.000000,0.000000,0.000000,0.000000,0.000000,312.113708,25.615174,-1.000000,0.992719,0.005710,0.372598,0.000000,0.000000,0.000000,0.000000,0.000000,0.000000,0.000000,
2356,3208,2.01614748574366,12.2478831262299,0.0296085361073324,0.000000,0.000000,0.000000,0.000000,0.000000,311.617492,25.685860,-1.000000,0.992742,0.005498,0.376921,0.000000,0.000000,0.000000,0.000000,0.000000,0.000000,0.000000,
2356,3238,2.01000306099212,12.8988669028762,0.0240093135831216,0.000000,0.000000,0.000000,0.000000,0.000000,311.078160,25.768388,-1.000000,0.992782,0.005338,0.369404,0.000000,0.000000,0.000000,0.000000,0.000000,0.000000,0.000000,
2356,3268,2.00257422311775,13.5508528105519,0.00177370356152551,0.000000,0.000000,0.000000,0.000000,0.000000,310.398521,25.868442,-1.000000,0.993147,0.005246,0.343942,0.000000,0.000000,0.000000,0.000000,0.000000,0.000000,0.000000,
2371,2023,2.56848619742558,-13.6023451916177,0.0289841125379553,0.000000,0.000000,0.000000,0.000000,0.000000,330.868850,22.574108,-1.000000,0.974204,0.010154,0.254135,0.000000,0.000000,0.000000,0.000000,0.000000,0.000000,0.000000,
2371,2053,2.56246841267049,-12.9430464644801,0.0252386040386909,0.000000,0.000000,0.000000,0.000000,0.000000,330.354461,22.673705,-1.000000,0.979563,0.009071,0.243750,0.000000,0.000000,0.000000,0.000000,0.000000,0.000000,0.000000,
2371,2083,2.55621338708524,-12.2845271699681,0.0183603286827179,0.000000,0.000000,0.000000,0.000000,0.000000,329.814119,22.690697,-1.000000,0.979362,0.009008,0.315887,0.000000,0.000000,0.000000,0.000000,0.000000,0.000000,0.000000,
2371,2113,2.55017923792809,-11.6258145096345,0.014405596166057,0.000000,0.000000,0.000000,0.000000,0.000000,329.297546,22.780805,-1.000000,0.978292,0.009177,0.314263,0.000000,0.000000,0.000000,0.000000,0.000000,0.000000,0.000000,
2371,2143,2.54453489859661,-10.9677209086898,0.0154577028386029,0.000000,0.000000,0.000000,0.000000,0.000000,328.822491,22.890887,-1.000000,0.979455,0.009002,0.292260,0.000000,0.000000,0.000000,0.000000,0.000000,0.000000,0.000000,
2371,2173,2.53896431976036,-10.3118406775845,0.0172356572002172,0.000000,0.000000,0.000000,0.000000,0.000000,328.354295,22.827677,-1.000000,0.982316,0.008633,0.443187,0.000000,0.000000,0.000000,0.000000,0.000000,0.000000,0.000000,
2371,2203,2.53280828967479,-9.65250593789953,0.0118846221368472,0.000000,0.000000,0.000000,0.000000,0.000000,327.824696,23.026101,-1.000000,0.980476,0.008701,0.332089,0.000000,0.000000,0.000000,0.000000,0.000000,0.000000,0.000000,
2371,2233,2.52702419088887,-8.99459098547327,0.011210264421436,0.000000,0.000000,0.000000,0.000000,0.000000,327.334335,23.165742,-1.000000,0.979764,0.009126,0.279737,0.000000,0.000000,0.000000,0.000000,0.000000,0.000000,0.000000,
2371,2263,2.52061850428418,-8.33661440543529,0.00253649585783933,0.000000,0.000000,0.000000,0.000000,0.000000,326.777105,23.250682,-1.000000,0.986469,0.007666,0.281766,0.000000,0.000000,0.000000,0.000000,0.000000,0.000000,0.000000,
2371,2293,2.51617554729119,-7.68163651437237,0.018939866361336,0.000000,0.000000,0.000000,0.000000,0.000000,326.429545,23.336551,-1.000000,0.994386,0.005663,0.281826,0.000000,0.000000,0.000000,0.000000,0.000000,0.000000,0.000000,
2371,2323,2.50936346696326,-7.02475516843373,0.00496082930419561,0.000000,0.000000,0.000000,0.000000,0.000000,325.828060,23.311426,-1.000000,0.992170,0.006122,0.393763,0.000000,0.000000,0.000000,0.000000,0.000000,0.000000,0.000000,
2371,2353,2.50373221021399,-6.36871966305208,0.00618792359148301,0.000000,0.000000,0.000000,0.000000,0.000000,325.353092,23.381756,-1.000000,0.985298,0.007636,0.409286,0.000000,0.000000,0.000000,0.000000,0.000000,0.000000,0.000000,
2371,2383,2.49728961593598,-5.71085414761217,-0.00284488157882379,0.000000,0.000000,0.000000,0.000000,0.000000,324.791451,23.540672,-1.000000,0.984521,0.007866,0.336299,0.000000,0.000000,0.000000,0.000000,0.000000,0.000000,0.000000,
2371,2413,2.4915028744138,-5.0548502051477,-0.00356765123564173,0.000000,0.000000,0.000000,0.000000,0.000000,324.299568,23.630682,-1.000000,0.988960,0.007194,0.331604,0.000000,0.000000,0.000000,0.000000,0.000000,0.000000,0.000000,
2371,2443,2.48566359794937,-4.3993162525686,-0.00498491550291646,0.000000,0.000000,0.000000,0.000000,0.000000,323.801803,23.691250,-1.000000,0.987579,0.007283,0.356215,0.000000,0.000000,0.000000,0.000000,0.000000,0.000000,0.000000,
2371,2473,2.47984574514929,-3.74407633578333,-0.00612271928025621,0.000000,0.000000,0.000000,0.000000,0.000000,323.306170,23.747564,-1.000000,0.987815,0.007142,0.384711,0.000000,0.000000,0.000000,0.000000,0.000000,0.000000,0.000000,
2371,2503,2.47388657625911,-3.08827739984206,-0.00900050845643818,0.000000,0.000000,0.000000,0.000000,0.000000,322.795403,23.859189,-1.000000,0.988391,0.007014,0.357710,0.000000,0.000000,0.000000,0.000000,0.000000,0.000000,0.000000,
2371,2533,2.46775131303641,-2.4328146615789,-0.014154130249949,0.000000,0.000000,0.000000,0.000000,0.000000,322.265494,23.939874,-1.000000,0.987497,0.007327,0.361399,0.000000,0.000000,0.000000,0.000000,0.000000,0.000000,0.000000,
2371,2563,2.46190268876713,-1.77774735617189,-0.0156156312236817,0.000000,0.000000,0.000000,0.000000,0.000000,321.766201,24.037444,-1.000000,0.988533,0.007000,0.347750,0.000000,0.000000,0.000000,0.000000,0.000000,0.000000,0.000000,
2371,2593,2.45603139800798,-1.12361094898511,-0.017423677263082,0.000000,0.000000,0.000000,0.000000,0.000000,321.264157,24.066075,-1.000000,0.987862,0.007052,0.402823,0.000000,0.000000,0.000000,0.000000,0.000000,0.000000,0.000000,
2371,2623,2.44986382696238,-0.468924181941432,-0.0229753738799445,0.000000,0.000000,0.000000,0.000000,0.000000,320.730260,24.132681,-1.000000,0.987820,0.006833,0.419894,0.000000,0.000000,0.000000,0.000000,0.000000,0.000000,0.000000,
2371,2653,2.44363551071266,0.186367860175231,-0.0292310265994615,0.000000,0.000000,0.000000,0.000000,0.000000,320.189812,24.269224,-1.000000,0.987504,0.007101,0.366771,0.000000,0.000000,0.000000,0.000000,0.000000,0.000000,0.000000,
2371,2683,2.43711468434737,0.841374270674571,-0.0392575399037582,0.000000,0.000000,0.000000,0.000000,0.000000,319.617682,24.368809,-1.000000,0.989329,0.006526,0.350581,0.000000,0.000000,0.000000,0.000000,0.000000,0.000000,0.000000,
2371,2713,2.43201473892813,1.49429029774146,-0.0311032581299742,0.000000,0.000000,0.000000,0.000000,0.000000,319.198000,24.444828,-1.000000,0.991064,0.005953,0.356898,0.000000,0.000000,0.000000,0.000000,0.000000,0.000000,0.000000,
2371,2743,2.42646855192443,2.14749416455183,-0.0286511801481879,0.000000,0.000000,0.000000,0.000000,0.000000,318.730261,24.517770,-1.000000,0.990242,0.006172,0.366519,0.000000,0.000000,0.000000,0.000000,0.000000,0.000000,0.000000,
2371,2773,2.42098955657493,2.80059885485487,-0.0253124073490767,0.000000,0.000000,0.000000,0.000000,0.000000,318.269650,24.605835,-1.000000,0.990220,0.006195,0.360493,0.000000,0.000000,0.000000,0.000000,0.000000,0.000000,0.000000,
2371,2803,2.41577666871433,3.45300137618104,-0.0185677885588689,0.000000,0.000000,0.000000,0.000000,0.000000,317.837526,24.672383,-1.000000,0.994874,0.005549,0.376007,0.000000,0.000000,0.000000,0.000000,0.000000,0.000000,0.000000,
2371,2833,2.40943847562859,4.10686087669589,-0.0261941275352342,0.000000,0.000000,0.000000,0.000000,0.000000,317.284281,24.780302,-1.000000,0.991143,0.006348,0.350038,0.000000,0.000000,0.000000,0.000000,0.000000,0.000000,0.000000,
2371,2863,2.40416073830135,4.75901693410854,-0.0202475842813215,0.000000,0.000000,0.000000,0.000000,0.000000,316.844969,24.851614,-1.000000,0.991095,0.006074,0.360433,0.000000,0.000000,0.000000,0.000000,0.000000,0.000000,0.000000,
2371,2893,2.39907281976395,5.41057083553699,-0.0118673825737687,0.000000,0.000000,0.000000,0.000000,0.000000,316.425995,24.900793,-1.000000,0.991821,0.005856,0.392402,0.000000,0.000000,0.000000,0.000000,0.000000,0.000000,0.000000,
2371,2923,2.39323808042689,6.06351831860772,-0.0129901773888719,0.000000,0.000000,0.000000,0.000000,0.000000,315.926556,25.025306,-1.000000,0.990361,0.006169,0.349077,0.000000,0.000000,0.000000,0.000000,0.000000,0.000000,0.000000,
2371,2953,2.38772060102348,6.71570576337433,-0.0100490002174638,0.000000,0.000000,0.000000,0.000000,0.000000,315.461153,25.125497,-1.000000,0.989755,0.006391,0.329857,0.000000,0.000000,0.000000,0.000000,0.000000,0.000000,0.000000,
2371,2983,2.38252429562143,7.36706152126775,-0.00299456995253422,0.000000,0.000000,0.000000,0.000000,0.000000,315.030256,25.193169,-1.000000,0.989998,0.006502,0.343054,0.000000,0.000000,0.000000,0.000000,0.000000,0.000000,0.000000,
2371,3013,2.37754445350754,8.01817867756326,0.00686222942698578,0.000000,0.000000,0.000000,0.000000,0.000000,314.622617,25.272208,-1.000000,0.991203,0.006082,0.344507,0.000000,0.000000,0.000000,0.000000,0.000000,0.000000,0.000000,
2371,3043,2.37175286352592,8.6697861030741,0.00631909153707966,0.000000,0.000000,0.000000,0.000000,0.000000,314.127404,25.341814,-1.000000,0.991999,0.005863,0.355475,0.000000,0.000000,0.000000,0.000000,0.000000,0.000000,0.000000,
2371,3073,2.3663118943456,9.32119332503193,0.0103073260210067,0.000000,0.000000,0.000000,0.000000,0.000000,313.669886,25.438420,-1.000000,0.992248,0.005690,0.338928,0.000000,0.000000,0.000000,0.000000,0.000000,0.000000,0.000000,
2371,3103,2.36102512916053,9.97233985444603,0.0162940688860544,0.000000,0.000000,0.000000,0.000000,0.000000,313.228913,25.538453,-1.000000,0.991082,0.005985,0.318945,0.000000,0.000000,0.000000,0.000000,0.000000,0.000000,0.000000,
2371,3133,2.35541564053249,10.6234045038998,0.0181471767619996,0.000000,0.000000,0.000000,0.000000,0.000000,312.753054,25.619730,-1.000000,0.992367,0.005712,0.317426,0.000000,0.000000,0.000000,0.000000,0.000000,0.000000,0.000000,
2371,3163,2.35029938450433,11.2734369967265,0.0263297293585651,0.000000,0.000000,0.000000,0.000000,0.000000,312.330401,25.658909,-1.000000,0.991851,0.005812,0.357979,0.000000,0.000000,0.000000,0.000000,0.000000,0.000000,0.000000,
2371,3193,2.34478457706775,11.9240497270401,0.0294358079322024,0.000000,0.000000,0.000000,0.000000,0.000000,311.864625,25.735025,-1.000000,0.992327,0.005555,0.361455,0.000000,0.000000,0.000000,0.000000,0.000000,0.000000,0.000000,
2371,3223,2.33865472299527,12.5749781654144,0.0246626624193027,0.000000,0.000000,0.000000,0.000000,0.000000,311.332342,25.809649,-1.000000,0.993198,0.005272,0.366173,0.000000,0.000000,0.000000,0.000000,0.000000,0.000000,0.000000,
2371,3253,2.3322937054515,13.2257406807739,0.0169315589071175,0.000000,0.000000,0.000000,0.000000,0.000000,310.774995,25.868928,-1.000000,0.993461,0.005189,0.386256,0.000000,0.000000,0.000000,0.000000,0.000000,0.000000,0.000000,
2386,2038,2.89285598233987,-13.2726339576571,0.0205804615581542,0.000000,0.000000,0.000000,0.000000,0.000000,330.568230,22.487604,-1.000000,0.975241,0.009914,0.285842,0.000000,0.000000,0.000000,0.000000,0.000000,0.000000,0.000000,
2386,2068,2.88720877059687,-12.614832143861,0.0222146154621896,0.000000,0.000000,0.000000,0.000000,0.000000,330.098971,22.523075,-1.000000,0.979020,0.009370,0.343385,0.000000,0.000000,0.000000,0.000000,0.000000,0.000000,0.000000,
2386,2098,2.88072183249522,-11.955205318803,0.0133439425944175,0.000000,0.000000,0.000000,0.000000,0.000000,329.541210,22.631421,-1.000000,0.974842,0.009837,0.328467,0.000000,0.000000,0.000000,0.000000,0.000000,0.000000,0.000000,
2386,2128,2.87490252701862,-11.2970623668473,0.0128815121625507,0.000000,0.000000,0.000000,0.000000,0.000000,329.053642,22.719424,-1.000000,0.977048,0.009330,0.333168,0.000000,0.000000,0.000000,0.000000,0.000000,0.000000,0.000000,
2386,2158,2.86906752642669,-10.6384541509723,0.0123050510512144,0.000000,0.000000,0.000000,0.000000,0.000000,328.564523,22.870336,-1.000000,0.979763,0.008982,0.274631,0.000000,0.000000,0.000000,0.000000,0.000000,0.000000,0.000000,
2386,2188,2.86318095284551,-9.98066107720313,0.0110002728466156,0.000000,0.000000,0.000000,0.000000,0.000000,328.069432,22.960666,-1.000000,0.982212,0.008458,0.276294,0.000000,0.000000,0.000000,0.000000,0.000000,0.000000,0.000000,
2386,2218,2.85758276138794,-9.32342122404604,0.0133554277347798,0.000000,0.000000,0.000000,0.000000,0.000000,327.604687,23.060029,-1.000000,0.980504,0.008951,0.268519,0.000000,0.000000,0.000000,0.000000,0.000000,0.000000,0.000000,
2386,2248,2.85087147895815,-8.6651843922962,0.001600066275671,0.000000,0.000000,0.000000,0.000000,0.000000,327.021799,23.126151,-1.000000,0.983400,0.008505,0.294382,0.000000,0.000000,0.000000,0.000000,0.000000,0.000000,0.000000,
2386,2278,2.84536539032478,-8.00820886061312,0.00516298981284535,0.000000,0.000000,0.000000,0.000000,0.000000,326.566526,23.256074,-1.000000,0.991581,0.006286,0.255289,0.000000,0.000000,0.000000,0.000000,0.000000,0.000000,0.000000,
2386,2308,2.83877000472765,-7.35195520653976,-0.00526710292700727,0.000000,0.000000,0.000000,0.000000,0.000000,325.994936,23.200015,-1.000000,0.994258,0.005624,0.402626,0.000000,0.000000,0.000000,0.000000,0.000000,0.000000,0.000000,
2386,2338,2.8335538740117,-6.6957362747296,0.00198248496178621,0.000000,0.000000,0.000000,0.000000,0.000000,325.570033,23.338104,-1.000000,0.985838,0.007437,0.354591,0.000000,0.000000,0.000000,0.000000,0.000000,0.000000,0.000000,
2386,2368,2.82695322698244,-6.03859525926382,-0.00835831615853522,0.000000,0.000000,0.000000,0.000000,0.000000,324.997969,23.408246,-1.000000,0.982919,0.008001,0.375055,0.000000,0.000000,0.000000,0.000000,0.000000,0.000000,0.000000,
2386,2398,2.82194395942898,-5.38382974556018,0.00143958603143801,0.000000,0.000000,0.000000,0.000000,0.000000,324.594379,23.476529,-1.000000,0.985761,0.007730,0.396383,0.000000,0.000000,0.000000,0.000000,0.000000,0.000000,0.000000,
2386,2428,2.81629185074699,-4.72786609538445,0.00316532201236441,0.000000,0.000000,0.000000,0.000000,0.000000,324.122653,23.595674,-1.000000,0.988070,0.007279,0.366725,0.000000,0.000000,0.000000,0.000000,0.000000,0.000000,0.000000,
2386,2458,2.8091276792041,-4.07023313358777,-0.0142523376931649,0.000000,0.000000,0.000000,0.000000,0.000000,323.490299,23.709385,-1.000000,0.987654,0.007321,0.343045,0.000000,0.000000,0.000000,0.000000,0.000000,0.000000,0.000000,
2386,2488,2.80343392470072,-3.41521684293765,-0.0131012582528456,0.000000,0.000000,0.000000,0.000000,0.000000,323.013574,23.777693,-1.000000,0.989001,0.006877,0.363785,0.000000,0.000000,0.000000,0.000000,0.000000,0.000000,0.000000,
2386,2518,2.7979397396994,-2.76079203856536,-0.00942864477093508,0.000000,0.000000,0.000000,0.000000,0.000000,322.557833,23.833616,-1.000000,0.988884,0.006984,0.396408,0.000000,0.000000,0.000000,0.000000,0.000000,0.000000,0.000000,
2386,2548,2.7920331099423,-2.10543505913974,-0.0109138726226092,0.000000,0.000000,0.000000,0.000000,0.000000,322.058291,23.947538,-1.000000,0.988874,0.007051,0.371196,0.000000,0.000000,0.000000,0.000000,0.000000,0.000000,0.000000,
2386,2578,2.78578400752936,-1.44975219881945,-0.0167219579449807,0.000000,0.000000,0.000000,0.000000,0.000000,321.522194,24.073203,-1.000000,0.988167,0.007071,0.334127,0.000000,0.000000,0.000000,0.000000,0.000000,0.000000,0.000000,
2386,2608,2.77993469507098,-0.795738104150971,-0.0175467162550831,0.000000,0.000000,0.000000,0.000000,0.000000,321.028160,24.109161,-1.000000,0.988216,0.006880,0.386133,0.000000,0.000000,0.000000,0.000000,0.000000,0.000000,0.000000,
2386,2638,2.77388501725276,-0.141049645598265,-0.0208465414115722,0.000000,0.000000,0.000000,0.000000,0.000000,320.512786,24.205105,-1.000000,0.987269,0.006953,0.378261,0.000000,0.000000,0.000000,0.000000,0.000000,0.000000,0.000000,
2386,2668,2.76793168107494,0.513028406012779,-0.0229436867043091,0.000000,0.000000,0.000000,0.000000,0.000000,320.007412,24.274554,-1.000000,0.987847,0.006996,0.396339,0.000000,0.000000,0.000000,0.000000,0.000000,0.000000,0.000000,
2386,2698,2.76188614606114,1.1675942965907,-0.0261542694915988,0.000000,0.000000,0.000000,0.000000,0.000000,319.492147,24.398747,-1.000000,0.989970,0.006264,0.359624,0.000000,0.000000,0.000000,0.000000,0.000000,0.000000,0.000000,
2386,2728,2.75650123745823,1.82064381811416,-0.0210292728793888,0.000000,0.000000,0.000000,0.000000,0.000000,319.046904,24.469753,-1.000000,0.991019,0.006173,0.375561,0.000000,0.000000,0.000000,0.000000,0.000000,0.000000,0.000000,
2386,2758,2.75021731421178,2.47441080174811,-0.0273006025138898,0.000000,0.000000,0.000000,0.000000,0.000000,318.505811,24.533417,-1.000000,0.988982,0.006542,0.398699,0.000000,0.000000,0.000000,0.000000,0.000000,0.000000,0.000000,
2386,2788,2.74428673838794,3.12842352736718,-0.0290205291751136,0.000000,0.000000,0.000000,0.000000,0.000000,318.002246,24.674638,-1.000000,0.991694,0.006178,0.344331,0.000000,0.000000,0.000000,0.000000,0.000000,0.000000,0.000000,
2386,2818,2.7383146727316,3.78132875723948,-0.0313301376864388,0.000000,0.000000,0.000000,0.000000,0.000000,317.493982,24.727795,-1.000000,0.991989,0.006248,0.377606,0.000000,0.000000,0.000000,0.000000,0.000000,0.000000,0.000000,
2386,2848,2.73316508675805,4.43372833796104,-0.0231564653813621,0.000000,0.000000,0.000000,0.000000,0.000000,317.073244,24.830959,-1.000000,0.989845,0.006442,0.360391,0.000000,0.000000,0.000000,0.000000,0.000000,0.000000,0.000000,
2386,2878,2.72789866640692,5.08658126695263,-0.0164201485999342,0.000000,0.000000,0.000000,0.000000,0.000000,316.639957,24.980379,-1.000000,0.991729,0.005841,0.296823,0.000000,0.000000,0.000000,0.000000,0.000000,0.000000,0.000000,
2386,2908,2.72148191422645,5.73922775658502,-0.0243523957730645,0.000000,0.000000,0.000000,0.000000,0.000000,316.083822,25.020676,-1.000000,0.990971,0.006104,0.342370,0.000000,0.000000,0.000000,0.000000,0.000000,0.000000,0.000000,
2386,2938,2.71655360047596,6.39061512454862,-0.0133547967289473,0.000000,0.000000,0.000000,0.000000,0.000000,315.686278,25.097772,-1.000000,0.990157,0.006276,0.350634,0.000000,0.000000,0.000000,0.000000,0.000000,0.000000,0.000000,
2386,2968,2.71065024564075,7.04325422781667,-0.0146932135468774,0.000000,0.000000,0.000000,0.000000,0.000000,315.184614,25.218629,-1.000000,0.990981,0.006304,0.315252,0.000000,0.000000,0.000000,0.000000,0.000000,0.000000,0.000000,
2386,2998,2.70600245883294,7.69364408432921,-0.000131013264876856,0.000000,0.000000,0.000000,0.000000,0.000000,314.816794,25.257021,-1.000000,0.990588,0.006336,0.361824,0.000000,0.000000,0.000000,0.000000,0.000000,0.000000,0.000000,
2386,3028,2.70049640844713,8.34532632197418,0.0035856520495372,0.000000,0.000000,0.000000,0.000000,0.000000,314.357276,25.354927,-1.000000,0.990900,0.006211,0.348717,0.000000,0.000000,0.000000,0.000000,0.000000,0.000000,0.000000,
2386,3058,2.69513692201005,8.99661939685864,0.00917174179659241,0.000000,0.000000,0.000000,0.000000,0.000000,313.913284,25.444364,-1.000000,0.992416,0.005781,0.343894,0.000000,0.000000,0.000000,0.000000,0.000000,0.000000,0.000000,
2386,3088,2.68951753183848,9.64746897648257,0.0114425750276723,0.000000,0.000000,0.000000,0.000000,0.000000,313.441447,25.486425,-1.000000,0.990670,0.006088,0.386830,0.000000,0.000000,0.000000,0.000000,0.000000,0.000000,0.000000,
2386,3118,2.68415325513468,10.2988341081483,0.0170166557528546,0.000000,0.000000,0.000000,0.000000,0.000000,312.996688,25.611806,-1.000000,0.992640,0.005551,0.345755,0.000000,0.000000,0.000000,0.000000,0.000000,0.000000,0.000000,
2386,3148,2.67943272147381,10.9488699560533,0.0307551507677886,0.000000,0.000000,0.000000,0.000000,0.000000,312.620670,25.678328,-1.000000,0.992908,0.005481,0.363226,0.000000,0.000000,0.000000,0.000000,0.000000,0.000000,0.000000,
2386,3178,2.67326428495358,11.6002009341941,0.0261179334384565,0.000000,0.000000,0.000000,0.000000,0.000000,312.089771,25.767088,-1.000000,0.992267,0.005553,0.358592,0.000000,0.000000,0.000000,0.000000,0.000000,0.000000,0.000000,
2386,3208,2.6676653354842,12.250570574144,0.0287194038767211,0.000000,0.000000,0.000000,0.000000,0.000000,311.619661,25.825739,-1.000000,0.992659,0.005424,0.383940,0.000000,0.000000,0.000000,0.000000,0.000000,0.000000,0.000000,
2386,3238,2.66060442908068,12.9023660041321,0.0127650546930909,0.000000,0.000000,0.000000,0.000000,0.000000,310.992977,25.925682,-1.000000,0.993362,0.005166,0.367826,0.000000,0.000000,0.000000,0.000000,0.000000,0.000000,0.000000,
2386,3268,2.65387415097149,13.5536365571746,0.00102225748628371,0.000000,0.000000,0.000000,0.000000,0.000000,310.401464,26.019910,-1.000000,0.992799,0.005478,0.357156,0.000000,0.000000,0.000000,0.000000,0.000000,0.000000,0.000000,
2401,2023,3.22401586148705,-13.6033493807145,0.0243720613461846,0.000000,0.000000,0.000000,0.000000,0.000000,330.857058,22.298703,-1.000000,0.972269,0.010259,0.325615,0.000000,0.000000,0.000000,0.000000,0.000000,0.000000,0.000000,
2401,2053,3.21760939565563,-12.9425667043393,0.0174612997603845,0.000000,0.000000,0.000000,0.000000,0.000000,330.315413,22.499625,-1.000000,0.976670,0.009795,0.222713,0.000000,0.000000,0.000000,0.000000,0.000000,0.000000,0.000000,
2401,2083,3.21223964813122,-12.2852689265052,0.0233036581497572,0.000000,0.000000,0.000000,0.000000,0.000000,329.881072,22.547080,-1.000000,0.976746,0.009857,0.272570,0.000000,0.000000,0.000000,0.000000,0.000000,0.000000,0.000000,
2401,2113,3.20636860208953,-11.6268540491943,0.0229494978925686,0.000000,0.000000,0.000000,0.000000,0.000000,329.394369,22.649158,-1.000000,0.975967,0.009730,0.267778,0.000000,0.000000,0.000000,0.000000,0.000000,0.000000,0.000000,
2401,2143,3.20055731980508,-10.9698422502017,0.0232118248702022,0.000000,0.000000,0.000000,0.000000,0.000000,328.913175,22.651462,-1.000000,0.979002,0.008961,0.362559,0.000000,0.000000,0.000000,0.000000,0.000000,0.000000,0.000000,
2401,2173,3.19414578567543,-10.3110201478465,0.0161041567243387,0.000000,0.000000,0.000000,0.000000,0.000000,328.369452,22.762260,-1.000000,0.981752,0.008473,0.348519,0.000000,0.000000,0.000000,0.000000,0.000000,0.000000,0.000000,
2401,2203,3.18857856786502,-9.65412818044086,0.0195068109421754,0.000000,0.000000,0.000000,0.000000,0.000000,327.913692,22.829985,-1.000000,0.982278,0.008518,0.376985,0.000000,0.000000,0.000000,0.000000,0.000000,0.000000,0.000000,
2401,2233,3.18228616128926,-8.99513907374626,0.0139798709869297,0.000000,0.000000,0.000000,0.000000,0.000000,327.382274,23.017287,-1.000000,0.983510,0.008546,0.285941,0.000000,0.000000,0.000000,0.000000,0.000000,0.000000,0.000000,
2401,2263,3.17510911890917,-8.33604159308696,-0.00272938673248291,0.000000,0.000000,0.000000,0.000000,0.000000,326.757460,23.123144,-1.000000,0.986209,0.007544,0.276490,0.000000,0.000000,0.000000,0.000000,0.000000,0.000000,0.000000,
2401,2293,3.16815647389407,-7.67818464444716,-0.0167066042699844,0.000000,0.000000,0.000000,0.000000,0.000000,326.155589,23.168500,-1.000000,0.990754,0.006391,0.326947,0.000000,0.000000,0.000000,0.000000,0.000000,0.000000,0.000000,
2401,2323,3.16376628186188,-7.02354437401824,0.0014671809100264,0.000000,0.000000,0.000000,0.000000,0.000000,325.822461,23.262684,-1.000000,0.988022,0.006989,0.327220,0.000000,0.000000,0.000000,0.000000,0.000000,0.000000,0.000000,
2401,2353,3.15771449305923,-6.36678000988334,-0.00116194132726832,0.000000,0.000000,0.000000,0.000000,0.000000,325.314849,23.363257,-1.000000,0.982058,0.008037,0.321555,0.000000,0.000000,0.000000,0.000000,0.000000,0.000000,0.000000,
2401,2383,3.15165376198518,-5.71035412565779,-0.00391656322199196,0.000000,0.000000,0.000000,0.000000,0.000000,324.806015,23.452628,-1.000000,0.984825,0.007812,0.326749,0.000000,0.000000,0.000000,0.000000,0.000000,0.000000,0.000000,
2401,2413,3.14597605850677,-5.05496269897306,-0.00190256015667956,0.000000,0.000000,0.000000,0.000000,0.000000,324.337069,23.513383,-1.000000,0.986126,0.007673,0.359965,0.000000,0.000000,0.000000,0.000000,0.000000,0.000000,0.000000,
2401,2443,3.14030609734561,-4.39946633293825,0.000243776891636571,0.000000,0.000000,0.000000,0.000000,0.000000,323.868836,23.604302,-1.000000,0.987136,0.007469,0.363141,0.000000,0.000000,0.000000,0.000000,0.000000,0.000000,0.000000,
2401,2473,3.13424393056087,-3.7437745587513,-0.00253380003346138,0.000000,0.000000,0.000000,0.000000,0.000000,323.359153,23.686878,-1.000000,0.987614,0.007308,0.374282,0.000000,0.000000,0.000000,0.000000,0.000000,0.000000,0.000000,
2401,2503,3.12733967304969,-3.08642585414519,-0.0157903030931834,0.000000,0.000000,0.000000,0.000000,0.000000,322.760935,23.846596,-1.000000,0.989575,0.006731,0.308215,0.000000,0.000000,0.000000,0.000000,0.000000,0.000000,0.000000,
2401,2533,3.12180447116702,-2.43198255018783,-0.0119745893447885,0.000000,0.000000,0.000000,0.000000,0.000000,322.306129,23.915652,-1.000000,0.989035,0.007028,0.332303,0.000000,0.000000,0.000000,0.000000,0.000000,0.000000,0.000000,
2401,2563,3.11528898336563,-1.77707979531078,-0.0204981291915942,0.000000,0.000000,0.000000,0.000000,0.000000,321.747888,23.936426,-1.000000,0.987576,0.007136,0.404587,0.000000,0.000000,0.000000,0.000000,0.000000,0.000000,0.000000,
2401,2593,3.10946045114658,-1.12227560267833,-0.0203169874422429,0.000000,0.000000,0.000000,0.000000,0.000000,321.261912,24.044952,-1.000000,0.988783,0.006869,0.388721,0.000000,0.000000,0.000000,0.000000,0.000000,0.000000,0.000000,
2401,2623,3.10380017330344,-0.467722703562515,-0.0180100937076872,0.000000,0.000000,0.000000,0.000000,0.000000,320.793463,24.167360,-1.000000,0.988202,0.006743,0.358753,0.000000,0.000000,0.000000,0.000000,0.000000,0.000000,0.000000,
2401,2653,3.09769344118743,0.186764305249994,-0.0213361953302638,0.000000,0.000000,0.000000,0.000000,0.000000,320.277721,24.254591,-1.000000,0.987580,0.007026,0.363710,0.000000,0.000000,0.000000,0.000000,0.000000,0.000000,0.000000,
2401,2683,3.09162604157214,0.84131872389311,-0.0241399980427559,0.000000,0.000000,0.000000,0.000000,0.000000,319.765951,24.371796,-1.000000,0.988201,0.006949,0.338486,0.000000,0.000000,0.000000,0.000000,0.000000,0.000000,0.000000,
2401,2713,3.0849121465156,1.49541681408456,-0.0351360617394221,0.000000,0.000000,0.000000,0.000000,0.000000,319.185675,24.399897,-1.000000,0.990622,0.006326,0.402056,0.000000,0.000000,0.000000,0.000000,0.000000,0.000000,0.000000,
2401,2743,3.07920606035063,2.14901957920278,-0.0334101557039617,0.000000,0.000000,0.000000,0.000000,0.000000,318.711512,24.505022,-1.000000,0.990150,0.006460,0.388413,0.000000,0.000000,0.000000,0.000000,0.000000,0.000000,0.000000,
2401,2773,3.07436331319556,2.80113016881428,-0.020867075893932,0.000000,0.000000,0.000000,0.000000,0.000000,318.328146,24.575100,-1.000000,0.988618,0.006793,0.409336,0.000000,0.000000,0.000000,0.000000,0.000000,0.000000,0.000000,
2401,2803,3.06815367901596,3.45509964773899,-0.0254403660186426,0.000000,0.000000,0.000000,0.000000,0.000000,317.800531,24.698913,-1.000000,0.990239,0.006623,0.376408,0.000000,0.000000,0.000000,0.000000,0.000000,0.000000,0.000000,
2401,2833,3.06231992295713,4.1085389457616,-0.025285662840588,0.000000,0.000000,0.000000,0.000000,0.000000,317.312349,24.828594,-1.000000,0.988963,0.006674,0.337639,0.000000,0.000000,0.000000,0.000000,0.000000,0.000000,0.000000,
2401,2863,3.05691983241333,4.76078713374191,-0.0197178227348331,0.000000,0.000000,0.000000,0.000000,0.000000,316.869695,24.906211,-1.000000,0.990696,0.006084,0.350404,0.000000,0.000000,0.000000,0.000000,0.000000,0.000000,0.000000,
2401,2893,3.05140569078219,5.41310282468597,-0.0155669515361865,0.000000,0.000000,0.000000,0.000000,0.000000,316.414847,24.995472,-1.000000,0.991559,0.005908,0.351109,0.000000,0.000000,0.000000,0.000000,0.000000,0.000000,0.000000,
2401,2923,3.04591194792976,6.06499429531927,-0.011167500085719,0.000000,0.000000,0.000000,0.000000,0.000000,315.961978,25.063405,-1.000000,0.991286,0.006073,0.373417,0.000000,0.000000,0.000000,0.000000,0.000000,0.000000,0.000000,
2401,2953,3.0399770766214,6.71738289123248,-0.0122894023879212,0.000000,0.000000,0.000000,0.000000,0.000000,315.462352,25.154265,-1.000000,0.991975,0.006017,0.372608,0.000000,0.000000,0.000000,0.000000,0.000000,0.000000,0.000000,
2401,2983,3.03501502497777,7.3688004618204,-0.00116576840889593,0.000000,0.000000,0.000000,0.000000,0.000000,315.065343,25.256536,-1.000000,0.992354,0.005997,0.359796,0.000000,0.000000,0.000000,0.000000,0.000000,0.000000,0.000000,
2401,3013,3.02906068701585,8.02115515783364,-0.00250048853052931,0.000000,0.000000,0.000000,0.000000,0.000000,314.563304,25.375119,-1.000000,0.989504,0.006507,0.330658,0.000000,0.000000,0.000000,0.000000,0.000000,0.000000,0.000000,
2401,3043,3.02422013291213,8.67179963859821,0.0101496102196279,0.000000,0.000000,0.000000,0.000000,0.000000,314.178860,25.444632,-1.000000,0.991150,0.006188,0.350317,0.000000,0.000000,0.000000,0.000000,0.000000,0.000000,0.000000,
2401,3073,3.01826669408819,9.32352991545056,0.00882591785602926,0.000000,0.000000,0.000000,0.000000,0.000000,313.676583,25.537164,-1.000000,0.991734,0.005986,0.347048,0.000000,0.000000,0.000000,0.000000,0.000000,0.000000,0.000000,
2401,3103,3.01336017245484,9.97401959243533,0.0206739751522491,0.000000,0.000000,0.000000,0.000000,0.000000,313.284902,25.614427,-1.000000,0.992731,0.005564,0.358559,0.000000,0.000000,0.000000,0.000000,0.000000,0.000000,0.000000,
2401,3133,3.00735790630809,10.6256656085184,0.0187645427567986,0.000000,0.000000,0.000000,0.000000,0.000000,312.777112,25.726383,-1.000000,0.994987,0.004925,0.335387,0.000000,0.000000,0.000000,0.000000,0.000000,0.000000,0.000000,
2401,3163,3.00206223835957,11.2762244143527,0.025740337036666,0.000000,0.000000,0.000000,0.000000,0.000000,312.343973,25.807562,-1.000000,0.993477,0.005270,0.342911,0.000000,0.000000,0.000000,0.000000,0.000000,0.000000,0.000000,
2401,3193,2.99635941749425,11.9268973291788,0.0275997987689038,0.000000,0.000000,0.000000,0.000000,0.000000,311.867595,25.882812,-1.000000,0.992447,0.005479,0.356205,0.000000,0.000000,0.000000,0.000000,0.000000,0.000000,0.000000,
2401,3223,2.99050031844616,12.5774013090662,0.0274970153607228,0.000000,0.000000,0.000000,0.000000,0.000000,311.374527,25.946022,-1.000000,0.992393,0.005507,0.381340,0.000000,0.000000,0.000000,0.000000,0.000000,0.000000,0.000000,
2401,3253,2.98311259531831,13.229324748509,0.00817266400326844,0.000000,0.000000,0.000000,0.000000,0.000000,310.719252,26.048239,-1.000000,0.992138,0.005560,0.367194,0.000000,0.000000,0.000000,0.000000,0.000000,0.000000,0.000000,
2416,2038,3.54893545438057,-13.2741807808227,0.0226569436894124,0.000000,0.000000,0.000000,0.000000,0.000000,330.620841,22.238603,-1.000000,0.975182,0.009770,0.334749,0.000000,0.000000,0.000000,0.000000,0.000000,0.000000,0.000000,
2416,2068,3.5431918155482,-12.6155497285644,0.0246383751233452,0.000000,0.000000,0.000000,0.000000,0.000000,330.153847,22.353888,-1.000000,0.976672,0.009831,0.321528,0.000000,0.000000,0.000000,0.000000,0.000000,0.000000,0.000000,
2416,2098,3.53684147386197,-11.9564381540175,0.0190749197013815,0.000000,0.000000,0.000000,0.000000,0.000000,329.623620,22.451725,-1.000000,0.977626,0.009805,0.325671,0.000000,0.000000,0.000000,0.000000,0.000000,0.000000,0.000000,
2416,2128,3.53052167935165,-11.2968825505071,0.0139730279528862,0.000000,0.000000,0.000000,0.000000,0.000000,329.096609,22.618365,-1.000000,0.980306,0.009195,0.260930,0.000000,0.000000,0.000000,0.000000,0.000000,0.000000,0.000000,
2416,2158,3.52454944394082,-10.6397257039015,0.0129723420351979,0.000000,0.000000,0.000000,0.000000,0.000000,328.604562,22.632723,-1.000000,0.980460,0.008683,0.347717,0.000000,0.000000,0.000000,0.000000,0.000000,0.000000,0.000000,
2416,2188,3.51942755928424,-9.98204776293492,0.0227413357371233,0.000000,0.000000,0.000000,0.000000,0.000000,328.201361,22.829717,-1.000000,0.983932,0.008066,0.251307,0.000000,0.000000,0.000000,0.000000,0.000000,0.000000,0.000000,
2416,2218,3.51254056096975,-9.32375552036147,0.0104297787100904,0.000000,0.000000,0.000000,0.000000,0.000000,327.614021,22.871782,-1.000000,0.983946,0.008370,0.310231,0.000000,0.000000,0.000000,0.000000,0.000000,0.000000,0.000000,
2416,2248,3.50705115707487,-8.66731675580169,0.0154812958452339,0.000000,0.000000,0.000000,0.000000,0.000000,327.171601,22.946967,-1.000000,0.982987,0.008403,0.335218,0.000000,0.000000,0.000000,0.000000,0.000000,0.000000,0.000000,
2416,2278,3.50050933939654,-8.00946132404101,0.00750024570294272,0.000000,0.000000,0.000000,0.000000,0.000000,326.619733,23.039231,-1.000000,0.984189,0.007936,0.343139,0.000000,0.000000,0.000000,0.000000,0.000000,0.000000,0.000000,
2416,2308,3.49500070832724,-7.35336992329462,0.0123149202786408,0.000000,0.000000,0.000000,0.000000,0.000000,326.174848,23.120752,-1.000000,0.985066,0.007675,0.361289,0.000000,0.000000,0.000000,0.000000,0.000000,0.000000,0.000000,
2416,2338,3.48868611027781,-6.69554491206663,0.00722194585370062,0.000000,0.000000,0.000000,0.000000,0.000000,325.646291,23.282545,-1.000000,0.982578,0.007964,0.299000,0.000000,0.000000,0.000000,0.000000,0.000000,0.000000,0.000000,
2416,2368,3.48278469199775,-6.03996783261989,0.00709358630666657,0.000000,0.000000,0.000000,0.000000,0.000000,325.159869,23.308543,-1.000000,0.983777,0.007840,0.372130,0.000000,0.000000,0.000000,0.000000,0.000000,0.000000,0.000000,
2416,2398,3.47660878363574,-5.38363886404159,0.00362150747821488,0.000000,0.000000,0.000000,0.000000,0.000000,324.644871,23.391573,-1.000000,0.987334,0.007594,0.388116,0.000000,0.000000,0.000000,0.000000,0.000000,0.000000,0.000000,
2416,2428,3.46989917035536,-4.72576788742224,-0.00636951956568055,0.000000,0.000000,0.000000,0.000000,0.000000,324.074417,23.575398,-1.000000,0.986805,0.007595,0.303108,0.000000,0.000000,0.000000,0.000000,0.000000,0.000000,0.000000,
2416,2458,3.46337871509445,-4.07008851320728,-0.0141907224349325,0.000000,0.000000,0.000000,0.000000,0.000000,323.522800,23.601261,-1.000000,0.986541,0.007596,0.375705,0.000000,0.000000,0.000000,0.000000,0.000000,0.000000,0.000000,
2416,2488,3.45759421305921,-3.41529830633515,-0.0128516599087902,0.000000,0.000000,0.000000,0.000000,0.000000,323.047602,23.651229,-1.000000,0.987086,0.007206,0.423583,0.000000,0.000000,0.000000,0.000000,0.000000,0.000000,0.000000,
2416,2518,3.4515585746962,-2.7599480580929,-0.0145878405955955,0.000000,0.000000,0.000000,0.000000,0.000000,322.546144,23.743926,-1.000000,0.988127,0.007022,0.428700,0.000000,0.000000,0.000000,0.000000,0.000000,0.000000,0.000000,
2416,2548,3.44511647813766,-2.10371059078618,-0.0213185915699796,0.000000,0.000000,0.000000,0.000000,0.000000,322.002233,23.893519,-1.000000,0.988101,0.007048,0.376818,0.000000,0.000000,0.000000,0.000000,0.000000,0.000000,0.000000,
2416,2578,3.43907916912802,-1.4477650934875,-0.0229907386388959,0.000000,0.000000,0.000000,0.000000,0.000000,321.500296,24.081566,-1.000000,0.988901,0.006728,0.286081,0.000000,0.000000,0.000000,0.000000,0.000000,0.000000,0.000000,
2416,2608,3.43296648471051,-0.793656646292405,-0.0257561592920865,0.000000,0.000000,0.000000,0.000000,0.000000,320.989851,24.111116,-1.000000,0.989288,0.006628,0.353313,0.000000,0.000000,0.000000,0.000000,0.000000,0.000000,0.000000,
2416,2638,3.42735862058277,-0.139415980059312,-0.0221688501802078,0.000000,0.000000,0.000000,0.000000,0.000000,320.531997,24.226025,-1.000000,0.988768,0.006717,0.335043,0.000000,0.000000,0.000000,0.000000,0.000000,0.000000,0.000000,
2416,2668,3.42148651056342,0.515115803666703,-0.0218514704846484,0.000000,0.000000,0.000000,0.000000,0.000000,320.046380,24.358116,-1.000000,0.988473,0.007045,0.299277,0.000000,0.000000,0.000000,0.000000,0.000000,0.000000,0.000000,
2416,2698,3.41513825555414,1.16834897498578,-0.0275880868900913,0.000000,0.000000,0.000000,0.000000,0.000000,319.510559,24.339833,-1.000000,0.989901,0.006629,0.414025,0.000000,0.000000,0.000000,0.000000,0.000000,0.000000,0.000000,
2416,2728,3.40947006347331,1.8218900119134,-0.0247663941721612,0.000000,0.000000,0.000000,0.000000,0.000000,319.045686,24.438410,-1.000000,0.990971,0.006280,0.411382,0.000000,0.000000,0.000000,0.000000,0.000000,0.000000,0.000000,
2416,2758,3.4036812251232,2.47551626803459,-0.023433375303,0.000000,0.000000,0.000000,0.000000,0.000000,318.568011,24.550381,-1.000000,0.989287,0.006585,0.395216,0.000000,0.000000,0.000000,0.000000,0.000000,0.000000,0.000000,
2416,2788,3.39764260618417,3.13025246939047,-0.0251296618434935,0.000000,0.000000,0.000000,0.000000,0.000000,318.064127,24.758492,-1.000000,0.988802,0.006830,0.282548,0.000000,0.000000,0.000000,0.000000,0.000000,0.000000,0.000000,
2416,2818,3.39217576030576,3.78182077033878,-0.0198920347164631,0.000000,0.000000,0.000000,0.000000,0.000000,317.619481,24.746314,-1.000000,0.988909,0.006746,0.389946,0.000000,0.000000,0.000000,0.000000,0.000000,0.000000,0.000000,
2416,2848,3.38635427550308,4.43495208910196,-0.0189619014439018,0.000000,0.000000,0.000000,0.000000,0.000000,317.137710,24.861783,-1.000000,0.989051,0.006421,0.369496,0.000000,0.000000,0.000000,0.000000,0.000000,0.000000,0.000000,
2416,2878,3.38051213672344,5.08793693362047,-0.0182871516247474,0.000000,0.000000,0.000000,0.000000,0.000000,316.653551,24.979052,-1.000000,0.991146,0.005893,0.347093,0.000000,0.000000,0.000000,0.000000,0.000000,0.000000,0.000000,
2416,2908,3.37465977899255,5.74020795742493,-0.0177749638245928,0.000000,0.000000,0.000000,0.000000,0.000000,316.168068,25.046491,-1.000000,0.991485,0.005980,0.374367,0.000000,0.000000,0.000000,0.000000,0.000000,0.000000,0.000000,
2416,2938,3.36927483623613,6.39226789871371,-0.0114139668342546,0.000000,0.000000,0.000000,0.000000,0.000000,315.731289,25.152616,-1.000000,0.991954,0.006033,0.362729,0.000000,0.000000,0.000000,0.000000,0.000000,0.000000,0.000000,
2416,2968,3.36375973042096,7.04459763204757,-0.00665043629157935,0.000000,0.000000,0.000000,0.000000,0.000000,315.280699,25.287615,-1.000000,0.994338,0.005489,0.321823,0.000000,0.000000,0.000000,0.000000,0.000000,0.000000,0.000000,
2416,2998,3.35806257515306,7.6959815721198,-0.00420863258119653,0.000000,0.000000,0.000000,0.000000,0.000000,314.810845,25.335124,-1.000000,0.989318,0.006526,0.368224,0.000000,0.000000,0.000000,0.000000,0.000000,0.000000,0.000000,
2416,3028,3.35210183913523,8.34816315917482,-0.00500130130234311,0.000000,0.000000,0.000000,0.000000,0.000000,314.313187,25.450478,-1.000000,0.988721,0.006666,0.346787,0.000000,0.000000,0.000000,0.000000,0.000000,0.000000,0.000000,
2416,3058,3.34697827914612,8.99913884769798,0.00462065056404981,0.000000,0.000000,0.000000,0.000000,0.000000,313.903009,25.538821,-1.000000,0.991181,0.006222,0.351849,0.000000,0.000000,0.000000,0.000000,0.000000,0.000000,0.000000,
2416,3088,3.3417138225545,9.65028271423434,0.0125047843555421,0.000000,0.000000,0.000000,0.000000,0.000000,313.477895,25.645040,-1.000000,0.992694,0.005755,0.339237,0.000000,0.000000,0.000000,0.000000,0.000000,0.000000,0.000000,
2416,3118,3.33615409812689,10.3017774781112,0.0167286389515766,0.000000,0.000000,0.000000,0.000000,0.000000,313.021641,25.774618,-1.000000,0.995371,0.004952,0.302861,0.000000,0.000000,0.000000,0.000000,0.000000,0.000000,0.000000,
2416,3148,3.33101387104631,10.951487902804,0.0261218216857628,0.000000,0.000000,0.000000,0.000000,0.000000,312.609281,25.785563,-1.000000,0.994717,0.004925,0.385103,0.000000,0.000000,0.000000,0.000000,0.000000,0.000000,0.000000,
2416,3178,3.32518133319992,11.602413995656,0.0269346950241243,0.000000,0.000000,0.000000,0.000000,0.000000,312.124105,25.870692,-1.000000,0.992990,0.005377,0.393057,0.000000,0.000000,0.000000,0.000000,0.000000,0.000000,0.000000,
2416,3208,3.31972945580225,12.2530996393263,0.0325098775194874,0.000000,0.000000,0.000000,0.000000,0.000000,311.678640,25.976348,-1.000000,0.991477,0.005849,0.380236,0.000000,0.000000,0.000000,0.000000,0.000000,0.000000,0.000000,
2416,3238,3.31290851810264,12.9047099084506,0.0210207592709253,0.000000,0.000000,0.000000,0.000000,0.000000,311.089328,26.084658,-1.000000,0.991794,0.005676,0.364534,0.000000,0.000000,0.000000,0.000000,0.000000,0.000000,0.000000,
2416,3268,3.30554455336643,13.5562818912983,0.00275014053113409,0.000000,0.000000,0.000000,0.000000,0.000000,310.442777,26.170400,-1.000000,0.992132,0.005710,0.371138,0.000000,0.000000,0.000000,0.000000,0.000000,0.000000,0.000000,
2431,2023,3.88046541012635,-13.603784827802,0.0292553697074709,0.000000,0.000000,0.000000,0.000000,0.000000,330.941213,22.182771,-1.000000,0.977036,0.009550,0.236740,0.000000,0.000000,0.000000,0.000000,0.000000,0.000000,0.000000,
2431,2053,3.87427490696524,-12.9449143535374,0.0264062929986153,0.000000,0.000000,0.000000,0.000000,0.000000,330.434108,22.254536,-1.000000,0.976693,0.009548,0.272057,0.000000,0.000000,0.000000,0.000000,0.000000,0.000000,0.000000,
2431,2083,3.86716737699443,-12.2839998817052,0.0124133573808081,0.000000,0.000000,0.000000,0.000000,0.000000,329.833038,22.412766,-1.000000,0.977147,0.009842,0.220719,0.000000,0.000000,0.000000,0.000000,0.000000,0.000000,0.000000,
2431,2113,3.86204079894227,-11.6278810426185,0.0225142340627258,0.000000,0.000000,0.000000,0.000000,0.000000,329.434166,22.421191,-1.000000,0.979936,0.009642,0.318029,0.000000,0.000000,0.000000,0.000000,0.000000,0.000000,0.000000,
2431,2143,3.85544333427724,-10.9686038760458,0.0147104134128995,0.000000,0.000000,0.000000,0.000000,0.000000,328.884592,22.544355,-1.000000,0.980240,0.009282,0.301031,0.000000,0.000000,0.000000,0.000000,0.000000,0.000000,0.000000,
2431,2173,3.85023946731019,-10.3118826230311,0.0239634699354951,0.000000,0.000000,0.000000,0.000000,0.000000,328.477703,22.638590,-1.000000,0.983554,0.008165,0.311844,0.000000,0.000000,0.000000,0.000000,0.000000,0.000000,0.000000,
2431,2203,3.84428228943556,-9.65510110714317,0.0238701110670263,0.000000,0.000000,0.000000,0.000000,0.000000,327.992801,22.659148,-1.000000,0.985551,0.007977,0.396538,0.000000,0.000000,0.000000,0.000000,0.000000,0.000000,0.000000,
2431,2233,3.83791737153495,-8.99619945104976,0.0189689364738683,0.000000,0.000000,0.000000,0.000000,0.000000,327.466454,22.844933,-1.000000,0.982566,0.008499,0.315893,0.000000,0.000000,0.000000,0.000000,0.000000,0.000000,0.000000,
2431,2263,3.83018143592705,-8.33635104434347,-0.0028612507702519,0.000000,0.000000,0.000000,0.000000,0.000000,326.798460,22.967196,-1.000000,0.980470,0.008837,0.299011,0.000000,0.000000,0.000000,0.000000,0.000000,0.000000,0.000000,
2431,2293,3.82475565561649,-7.68069590339641,0.00358254345712794,0.000000,0.000000,0.000000,0.000000,0.000000,326.367425,23.017010,-1.000000,0.980669,0.008779,0.353121,0.000000,0.000000,0.000000,0.000000,0.000000,0.000000,0.000000,
2431,2323,3.81906916110978,-7.02457250310248,0.00685475771570054,0.000000,0.000000,0.000000,0.000000,0.000000,325.909436,23.096965,-1.000000,0.982375,0.008178,0.376967,0.000000,0.000000,0.000000,0.000000,0.000000,0.000000,0.000000,
2431,2353,3.81258455748752,-6.36680640313678,0.000399722318718432,0.000000,0.000000,0.000000,0.000000,0.000000,325.369291,23.251709,-1.000000,0.982689,0.008092,0.326327,0.000000,0.000000,0.000000,0.000000,0.000000,0.000000,0.000000,
2431,2383,3.80652447394359,-5.71023923835768,-0.000892988270720707,0.000000,0.000000,0.000000,0.000000,0.000000,324.872385,23.368524,-1.000000,0.987080,0.007670,0.312840,0.000000,0.000000,0.000000,0.000000,0.000000,0.000000,0.000000,
2431,2413,3.80022846198354,-5.05468786936261,-0.00520557440160019,0.000000,0.000000,0.000000,0.000000,0.000000,324.350517,23.384083,-1.000000,0.987618,0.007689,0.400637,0.000000,0.000000,0.000000,0.000000,0.000000,0.000000,0.000000,
2431,2443,3.79384366042706,-4.39765369484802,-0.0104552020749793,0.000000,0.000000,0.000000,0.000000,0.000000,323.819700,23.547828,-1.000000,0.985806,0.007669,0.339890,0.000000,0.000000,0.000000,0.000000,0.000000,0.000000,0.000000,
2431,2473,3.78826548276721,-3.7427872975502,-0.00588981947970524,0.000000,0.000000,0.000000,0.000000,0.000000,323.371442,23.624613,-1.000000,0.985826,0.007578,0.365357,0.000000,0.000000,0.000000,0.000000,0.000000,0.000000,0.000000,
2431,2503,3.78231046376575,-3.08804797908667,-0.00600023067573829,0.000000,0.000000,0.000000,0.000000,0.000000,322.883962,23.665564,-1.000000,0.986882,0.007174,0.426734,0.000000,0.000000,0.000000,0.000000,0.000000,0.000000,0.000000,
2431,2533,3.77667403424036,-2.43228040611771,-0.00204422287299622,0.000000,0.000000,0.000000,0.000000,0.000000,322.429500,23.856563,-1.000000,0.987733,0.007066,0.337842,0.000000,0.000000,0.000000,0.000000,0.000000,0.000000,0.000000,
2431,2563,3.77038655893606,-1.77701221853829,-0.00620457972928534,0.000000,0.000000,0.000000,0.000000,0.000000,321.907300,23.948502,-1.000000,0.989102,0.006776,0.347680,0.000000,0.000000,0.000000,0.000000,0.000000,0.000000,0.000000,
2431,2593,3.76455594690409,-1.12348612731917,-0.0048391757590025,0.000000,0.000000,0.000000,0.000000,0.000000,321.431747,23.948648,-1.000000,0.991318,0.006332,0.449156,0.000000,0.000000,0.000000,0.000000,0.000000,0.000000,0.000000,
2431,2623,3.75710336950406,-0.466458936000464,-0.0232742936792647,0.000000,0.000000,0.000000,0.000000,0.000000,320.788821,24.119955,-1.000000,0.989135,0.006658,0.379626,0.000000,0.000000,0.000000,0.000000,0.000000,0.000000,0.000000,
2431,2653,3.7516048075447,0.187242604289779,-0.0177469389067255,0.000000,0.000000,0.000000,0.000000,0.000000,320.347207,24.210669,-1.000000,0.990180,0.006587,0.389649,0.000000,0.000000,0.000000,0.000000,0.000000,0.000000,0.000000,
2431,2683,3.74478904350274,0.842959184055637,-0.0283769598970025,0.000000,0.000000,0.000000,0.000000,0.000000,319.769344,24.370312,-1.000000,0.989330,0.006763,0.331216,0.000000,0.000000,0.000000,0.000000,0.000000,0.000000,0.000000,
2431,2713,3.73973407936112,1.49516821450429,-0.017447327630407,0.000000,0.000000,0.000000,0.000000,0.000000,319.372961,24.403729,-1.000000,0.992000,0.006091,0.397990,0.000000,0.000000,0.000000,0.000000,0.000000,0.000000,0.000000,
2431,2743,3.73331107967864,2.14965592958977,-0.0232859588079464,0.000000,0.000000,0.000000,0.000000,0.000000,318.835044,24.528154,-1.000000,0.990866,0.006181,0.373834,0.000000,0.000000,0.000000,0.000000,0.000000,0.000000,0.000000,
2431,2773,3.72746588491752,2.80308962342973,-0.022032984716418,0.000000,0.000000,0.000000,0.000000,0.000000,318.356565,24.630832,-1.000000,0.989338,0.006640,0.371244,0.000000,0.000000,0.000000,0.000000,0.000000,0.000000,0.000000,
2431,2803,3.72206502569439,3.45694340785844,-0.0152305816376952,0.000000,0.000000,0.000000,0.000000,0.000000,317.923919,24.832261,-1.000000,0.989852,0.006547,0.269662,0.000000,0.000000,0.000000,0.000000,0.000000,0.000000,0.000000,
2431,2833,3.71553338226868,4.1106834724967,-0.0224454763171593,0.000000,0.000000,0.000000,0.000000,0.000000,317.373854,24.933326,-1.000000,0.989656,0.006362,0.268311,0.000000,0.000000,0.000000,0.000000,0.000000,0.000000,0.000000,
2431,2863,3.710105632792,4.76232103607993,-0.0161176220315724,0.000000,0.000000,0.000000,0.000000,0.000000,316.937741,24.960694,-1.000000,0.990773,0.005967,0.340440,0.000000,0.000000,0.000000,0.000000,0.000000,0.000000,0.000000,
2431,2893,3.70398640880913,5.41530286855939,-0.0182534713219979,0.000000,0.000000,0.000000,0.000000,0.000000,316.429846,25.065822,-1.000000,0.991437,0.005872,0.334461,0.000000,0.000000,0.000000,0.000000,0.000000,0.000000,0.000000,
2431,2923,3.69812344403074,6.06797511670791,-0.0172253873288355,0.000000,0.000000,0.000000,0.000000,0.000000,315.948237,25.182726,-1.000000,0.992269,0.005885,0.316454,0.000000,0.000000,0.000000,0.000000,0.000000,0.000000,0.000000,
2431,2953,3.69193468322656,6.72015382094099,-0.0202565107798023,0.000000,0.000000,0.000000,0.000000,0.000000,315.432586,25.242523,-1.000000,0.993237,0.005737,0.355382,0.000000,0.000000,0.000000,0.000000,0.000000,0.000000,0.000000,
2431,2983,3.68719319396382,7.3705297258515,-0.00545832727374318,0.000000,0.000000,0.000000,0.000000,0.000000,315.066737,25.275821,-1.000000,0.991844,0.005952,0.420808,0.000000,0.000000,0.000000,0.000000,0.000000,0.000000,0.000000,
2431,3013,3.68175715347116,8.02315257974538,0.000884753774869296,0.000000,0.000000,0.000000,0.000000,0.000000,314.628681,25.471871,-1.000000,0.986687,0.006935,0.322783,0.000000,0.000000,0.000000,0.000000,0.000000,0.000000,0.000000,
2431,3043,3.6758737329218,8.67482864241153,0.00163715470512216,0.000000,0.000000,0.000000,0.000000,0.000000,314.143991,25.558658,-1.000000,0.989159,0.006575,0.334432,0.000000,0.000000,0.000000,0.000000,0.000000,0.000000,0.000000,
2431,3073,3.67002215771786,9.32590630537158,0.00276045646796774,0.000000,0.000000,0.000000,0.000000,0.000000,313.662382,25.608675,-1.000000,0.992114,0.005951,0.382451,0.000000,0.000000,0.000000,0.000000,0.000000,0.000000,0.000000,
2431,3103,3.66505615811855,9.97705224390245,0.0148674390690076,0.000000,0.000000,0.000000,0.000000,0.000000,313.272421,25.749652,-1.000000,0.994224,0.005385,0.339191,0.000000,0.000000,0.000000,0.000000,0.000000,0.000000,0.000000,
2431,3133,3.65885258907061,10.6283215034884,0.0116623050078601,0.000000,0.000000,0.000000,0.000000,0.000000,312.753814,25.820475,-1.000000,0.993424,0.005414,0.366121,0.000000,0.000000,0.000000,0.000000,0.000000,0.000000,0.000000,
2431,3163,3.65325606384602,11.2795730442793,0.0159838398842567,0.000000,0.000000,0.000000,0.000000,0.000000,312.297951,25.951380,-1.000000,0.993004,0.005472,0.332687,0.000000,0.000000,0.000000,0.000000,0.000000,0.000000,0.000000,
2431,3193,3.64846299408093,11.9294033847375,0.0301969243383269,0.000000,0.000000,0.000000,0.000000,0.000000,311.925407,26.023345,-1.000000,0.991794,0.005788,0.357807,0.000000,0.000000,0.000000,0.000000,0.000000,0.000000,0.000000,
2431,3223,3.64226742520398,12.5805561615013,0.0271138402018778,0.000000,0.000000,0.000000,0.000000,0.000000,311.406899,26.129776,-1.000000,0.991519,0.005935,0.348458,0.000000,0.000000,0.000000,0.000000,0.000000,0.000000,0.000000,
2431,3253,3.63472183397312,13.2324882150832,0.00735348281881443,0.000000,0.000000,0.000000,0.000000,0.000000,310.747786,26.231187,-1.000000,0.992746,0.005472,0.344256,0.000000,0.000000,0.000000,0.000000,0.000000,0.000000,0.000000,
2446,2038,4.20583043724198,-13.2757992134675,0.0324989879282498,0.000000,0.000000,0.000000,0.000000,0.000000,330.755449,22.070598,-1.000000,0.979309,0.009114,0.301943,0.000000,0.000000,0.000000,0.000000,0.000000,0.000000,0.000000,
2446,2068,4.19940293821745,-12.6168146151472,0.0275098220353129,0.000000,0.000000,0.000000,0.000000,0.000000,330.230253,22.140034,-1.000000,0.978014,0.009407,0.344095,0.000000,0.000000,0.000000,0.000000,0.000000,0.000000,0.000000,
2446,2098,4.19265174360681,-11.9565205260233,0.0187079944279276,0.000000,0.000000,0.000000,0.000000,0.000000,329.672321,22.310509,-1.000000,0.979475,0.009552,0.284722,0.000000,0.000000,0.000000,0.000000,0.000000,0.000000,0.000000,
2446,2128,4.18711289754816,-11.2993559464534,0.0244875511344276,0.000000,0.000000,0.000000,0.000000,0.000000,329.236772,22.377150,-1.000000,0.978676,0.009797,0.328185,0.000000,0.000000,0.000000,0.000000,0.000000,0.000000,0.000000,
2446,2158,4.18042345847891,-10.640336258569,0.0163217797827997,0.000000,0.000000,0.000000,0.000000,0.000000,328.684051,22.484238,-1.000000,0.979939,0.009038,0.331483,0.000000,0.000000,0.000000,0.000000,0.000000,0.000000,0.000000,
2446,2188,4.17481150092669,-9.98256908303478,0.0213021960589685,0.000000,0.000000,0.000000,0.000000,0.000000,328.240861,22.639074,-1.000000,0.986796,0.007739,0.286110,0.000000,0.000000,0.000000,0.000000,0.000000,0.000000,0.000000,
2446,2218,4.16774768749501,-9.32425577004735,0.00846925178933589,0.000000,0.000000,0.000000,0.000000,0.000000,327.648971,22.678425,-1.000000,0.984232,0.008292,0.356813,0.000000,0.000000,0.000000,0.000000,0.000000,0.000000,0.000000,
2446,2248,4.16212661876304,-8.6668980216957,0.0133160978411411,0.000000,0.000000,0.000000,0.000000,0.000000,327.204198,22.836402,-1.000000,0.979662,0.008889,0.307766,0.000000,0.000000,0.000000,0.000000,0.000000,0.000000,0.000000,
2446,2278,4.15606994240158,-8.009068702673,0.0128609651714555,0.000000,0.000000,0.000000,0.000000,0.000000,326.714752,23.003364,-1.000000,0.979782,0.009072,0.249890,0.000000,0.000000,0.000000,0.000000,0.000000,0.000000,0.000000,
2446,2308,4.14928296951991,-7.35095549021986,0.00345478829694912,0.000000,0.000000,0.000000,0.000000,0.000000,326.150332,23.127813,-1.000000,0.980231,0.008780,0.234327,0.000000,0.000000,0.000000,0.000000,0.000000,0.000000,0.000000,
2446,2338,4.14373502275906,-6.69569241770904,0.00900750416553819,0.000000,0.000000,0.000000,0.000000,0.000000,325.711526,23.161821,-1.000000,0.980729,0.008555,0.308402,0.000000,0.000000,0.000000,0.000000,0.000000,0.000000,0.000000,
2446,2368,4.13744870353911,-6.03927427116883,0.00560834582176994,0.000000,0.000000,0.000000,0.000000,0.000000,325.197270,23.233440,-1.000000,0.985347,0.008121,0.344836,0.000000,0.000000,0.000000,0.000000,0.000000,0.000000,0.000000,
2446,2398,4.13047215717198,-5.38217425171758,-0.00620152732153656,0.000000,0.000000,0.000000,0.000000,0.000000,324.612255,23.308183,-1.000000,0.987871,0.007775,0.378119,0.000000,0.000000,0.000000,0.000000,0.000000,0.000000,0.000000,
2446,2428,4.12382590475429,-4.72484040640876,-0.0139130098066857,0.000000,0.000000,0.000000,0.000000,0.000000,324.060859,23.466324,-1.000000,0.985924,0.007766,0.327858,0.000000,0.000000,0.000000,0.000000,0.000000,0.000000,0.000000,
2446,2458,4.11883559208527,-4.07079250082508,-0.00157308881603058,0.000000,0.000000,0.000000,0.000000,0.000000,323.677894,23.531571,-1.000000,0.985937,0.007571,0.369088,0.000000,0.000000,0.000000,0.000000,0.000000,0.000000,0.000000,
2446,2488,4.11311370511967,-3.41626858188685,0.00182796207883484,0.000000,0.000000,0.000000,0.000000,0.000000,323.219892,23.574824,-1.000000,0.986472,0.007402,0.432706,0.000000,0.000000,0.000000,0.000000,0.000000,0.000000,0.000000,
2446,2518,4.10632813205376,-2.7597224941938,-0.0076459330285843,0.000000,0.000000,0.000000,0.000000,0.000000,322.653168,23.706036,-1.000000,0.986343,0.007234,0.408581,0.000000,0.000000,0.000000,0.000000,0.000000,0.000000,0.000000,
2446,2548,4.09984524648897,-2.10306815505295,-0.0133816628355135,0.000000,0.000000,0.000000,0.000000,0.000000,322.117180,23.902367,-1.000000,0.989429,0.006788,0.318640,0.000000,0.000000,0.000000,0.000000,0.000000,0.000000,0.000000,
2446,2578,4.0923489291514,-1.44641308406782,-0.0315697530365924,0.000000,0.000000,0.000000,0.000000,0.000000,321.476952,24.010910,-1.000000,0.991566,0.006444,0.316670,0.000000,0.000000,0.000000,0.000000,0.000000,0.000000,0.000000,
2446,2608,4.08742204026453,-0.793099145017536,-0.0184690445147453,0.000000,0.000000,0.000000,0.000000,0.000000,321.099134,24.105660,-1.000000,0.988808,0.006792,0.327487,0.000000,0.000000,0.000000,0.000000,0.000000,0.000000,0.000000,
2446,2638,4.08134555515226,-0.138543953337972,-0.0193777055537794,0.000000,0.000000,0.000000,0.000000,0.000000,320.603460,24.211084,-1.000000,0.990181,0.006456,0.327581,0.000000,0.000000,0.000000,0.000000,0.000000,0.000000,0.000000,
2446,2668,4.07547654773449,0.515195911674667,-0.0177983355306424,0.000000,0.000000,0.000000,0.000000,0.000000,320.128643,24.281190,-1.000000,0.989295,0.006648,0.362998,0.000000,0.000000,0.000000,0.000000,0.000000,0.000000,0.000000,
2446,2698,4.06814914767164,1.17082711584737,-0.0339698476853982,0.000000,0.000000,0.000000,0.000000,0.000000,319.504279,24.398028,-1.000000,0.990375,0.006485,0.351452,0.000000,0.000000,0.000000,0.000000,0.000000,0.000000,0.000000,
2446,2728,4.06236691609991,1.82371215697222,-0.0313776812417927,0.000000,0.000000,0.000000,0.000000,0.000000,319.037675,24.436057,-1.000000,0.992100,0.005938,0.418434,0.000000,0.000000,0.000000,0.000000,0.000000,0.000000,0.000000,
2446,2758,4.05630196045684,2.4775988577134,-0.0321693690250981,0.000000,0.000000,0.000000,0.000000,0.000000,318.541952,24.556812,-1.000000,0.989897,0.006472,0.402230,0.000000,0.000000,0.000000,0.000000,0.000000,0.000000,0.000000,
2446,2788,4.05060783112598,3.1305537297185,-0.028472532337446,0.000000,0.000000,0.000000,0.000000,0.000000,318.083889,24.644840,-1.000000,0.989119,0.006634,0.418517,0.000000,0.000000,0.000000,0.000000,0.000000,0.000000,0.000000,
2446,2818,4.04482977365958,3.78319254544107,-0.0258220961740676,0.000000,0.000000,0.000000,0.000000,0.000000,317.616925,24.712535,-1.000000,0.990156,0.006414,0.454964,0.000000,0.000000,0.000000,0.000000,0.000000,0.000000,0.000000,
2446,2848,4.03993263531173,4.43584096134553,-0.0123476041645745,0.000000,0.000000,0.000000,0.000000,0.000000,317.240133,24.878797,-1.000000,0.991802,0.005827,0.392593,0.000000,0.000000,0.000000,0.000000,0.000000,0.000000,0.000000,
2446,2878,4.03334772154787,5.08959062424846,-0.0195100310127714,0.000000,0.000000,0.000000,0.000000,0.000000,316.689904,25.008740,-1.000000,0.992208,0.005639,0.366461,0.000000,0.000000,0.000000,0.000000,0.000000,0.000000,0.000000,
2446,2908,4.02697076692964,5.74274436172746,-0.0241565909516908,0.000000,0.000000,0.000000,0.000000,0.000000,316.160667,25.121196,-1.000000,0.991287,0.006023,0.357604,0.000000,0.000000,0.000000,0.000000,0.000000,0.000000,0.000000,
2446,2938,4.02130743260685,6.3950289078748,-0.0200971062695317,0.000000,0.000000,0.000000,0.000000,0.000000,315.704375,25.233374,-1.000000,0.992453,0.005927,0.348609,0.000000,0.000000,0.000000,0.000000,0.000000,0.000000,0.000000,
2446,2968,4.01603536299188,7.04713941100331,-0.0112414160830099,0.000000,0.000000,0.000000,0.000000,0.000000,315.288002,25.378388,-1.000000,0.992681,0.005818,0.306715,0.000000,0.000000,0.000000,0.000000,0.000000,0.000000,0.000000,
2446,2998,4.01065177386846,7.69833794265998,-0.00380503936008836,0.000000,0.000000,0.000000,0.000000,0.000000,314.859913,25.443965,-1.000000,0.988434,0.006598,0.343945,0.000000,0.000000,0.000000,0.000000,0.000000,0.000000,0.000000,
2446,3028,4.00538969182977,8.35009144695764,0.00516299814904642,0.000000,0.000000,0.000000,0.000000,0.000000,314.444064,25.585222,-1.000000,0.988427,0.006577,0.305243,0.000000,0.000000,0.000000,0.000000,0.000000,0.000000,0.000000,
2446,3058,3.9995031741026,9.00170454788696,0.00646643820272175,0.000000,0.000000,0.000000,0.000000,0.000000,313.963796,25.677603,-1.000000,0.990374,0.006313,0.315691,0.000000,0.000000,0.000000,0.000000,0.000000,0.000000,0.000000,
2446,3088,3.99406920660983,9.65299773959368,0.0133101611087909,0.000000,0.000000,0.000000,0.000000,0.000000,313.529777,25.791430,-1.000000,0.993511,0.005566,0.304000,0.000000,0.000000,0.000000,0.000000,0.000000,0.000000,0.000000,
2446,3118,3.98853656695666,10.3032642896916,0.0188947690357395,0.000000,0.000000,0.000000,0.000000,0.000000,313.085422,25.816779,-1.000000,0.992175,0.005871,0.380825,0.000000,0.000000,0.000000,0.000000,0.000000,0.000000,0.000000,
2446,3148,3.98284102440136,10.9546083274033,0.0225449698075408,0.000000,0.000000,0.000000,0.000000,0.000000,312.623999,25.943944,-1.000000,0.990996,0.006018,0.355853,0.000000,0.000000,0.000000,0.000000,0.000000,0.000000,0.000000,
2446,3178,3.97700908986723,11.6062217100319,0.0245393350627978,0.000000,0.000000,0.000000,0.000000,0.000000,312.148243,26.100718,-1.000000,0.992028,0.005836,0.300863,0.000000,0.000000,0.000000,0.000000,0.000000,0.000000,0.000000,
2446,3208,3.97145729143051,12.2562394282172,0.0298984913246727,0.000000,0.000000,0.000000,0.000000,0.000000,311.701181,26.144550,-1.000000,0.990823,0.006157,0.358769,0.000000,0.000000,0.000000,0.000000,0.000000,0.000000,0.000000,
2446,3238,3.96461099038268,12.9078537967846,0.0194579337772893,0.000000,0.000000,0.000000,0.000000,0.000000,311.120497,26.260262,-1.000000,0.993112,0.005491,0.344575,0.000000,0.000000,0.000000,0.000000,0.000000,0.000000,0.000000,
2446,3268,3.9572839780071,13.5590665213067,0.00310538916482983,0.000000,0.000000,0.000000,0.000000,0.000000,310.490042,26.324348,-1.000000,0.993796,0.005188,0.381999,0.000000,0.000000,0.000000,0.000000,0.000000,0.000000,0.000000,
2461,2023,4.53652239651122,-13.6042401026381,0.0269567131003328,0.000000,0.000000,0.000000,0.000000,0.000000,330.983318,21.984300,-1.000000,0.978891,0.009199,0.230492,0.000000,0.000000,0.000000,0.000000,0.000000,0.000000,0.000000,
2461,2053,4.53082864765696,-12.9464485440772,0.0315470916375489,0.000000,0.000000,0.000000,0.000000,0.000000,330.538350,22.041524,-1.000000,0.981199,0.008867,0.288642,0.000000,0.000000,0.000000,0.000000,0.000000,0.000000,0.000000,
2461,2083,4.52457652634983,-12.2876762105932,0.0294513782176296,0.000000,0.000000,0.000000,0.000000,0.000000,330.037010,22.135191,-1.000000,0.980118,0.009169,0.310659,0.000000,0.000000,0.000000,0.000000,0.000000,0.000000,0.000000,
2461,2113,4.51724298457238,-11.6275090897907,0.0143290340039925,0.000000,0.000000,0.000000,0.000000,0.000000,329.426368,22.236810,-1.000000,0.978372,0.009650,0.324709,0.000000,0.000000,0.000000,0.000000,0.000000,0.000000,0.000000,
2461,2143,4.51095859168463,-10.9689395926266,0.0118390208829169,0.000000,0.000000,0.000000,0.000000,0.000000,328.921106,22.354162,-1.000000,0.976434,0.009639,0.322171,0.000000,0.000000,0.000000,0.000000,0.000000,0.000000,0.000000,
2461,2173,4.50470142496264,-10.3106370683355,0.00966032528378946,0.000000,0.000000,0.000000,0.000000,0.000000,328.418211,22.472589,-1.000000,0.978537,0.009003,0.318134,0.000000,0.000000,0.000000,0.000000,0.000000,0.000000,0.000000,
2461,2203,4.49721193232234,-9.6514280474953,-0.00744526926229128,0.000000,0.000000,0.000000,0.000000,0.000000,327.790379,22.539521,-1.000000,0.982345,0.008587,0.365850,0.000000,0.000000,0.000000,0.000000,0.000000,0.000000,0.000000,
2461,2233,4.4922639669904,-8.99468813518026,0.00619421864678316,0.000000,0.000000,0.000000,0.000000,0.000000,327.419108,22.724225,-1.000000,0.981974,0.008630,0.294606,0.000000,0.000000,0.000000,0.000000,0.000000,0.000000,0.000000,
2461,2263,4.486314697705,-8.33742598224292,0.00768160811509233,0.000000,0.000000,0.000000,0.000000,0.000000,326.946190,22.849969,-1.000000,0.979821,0.008830,0.282204,0.000000,0.000000,0.000000,0.000000,0.000000,0.000000,0.000000,
2461,2293,4.48046902609238,-7.6819135121773,0.010248294359485,0.000000,0.000000,0.000000,0.000000,0.000000,326.482840,22.846840,-1.000000,0.979920,0.008988,0.398173,0.000000,0.000000,0.000000,0.000000,0.000000,0.000000,0.000000,
2461,2323,4.47363168139622,-7.0238780064193,0.00100692429595028,0.000000,0.000000,0.000000,0.000000,0.000000,325.919547,22.977369,-1.000000,0.978599,0.008994,0.381033,0.000000,0.000000,0.000000,0.000000,0.000000,0.000000,0.000000,
2461,2353,4.46683527720054,-6.36569487512664,-0.00771305797076138,0.000000,0.000000,0.000000,0.000000,0.000000,325.360129,23.149586,-1.000000,0.982418,0.008612,0.321732,0.000000,0.000000,0.000000,0.000000,0.000000,0.000000,0.000000,
2461,2383,4.46108712243344,-5.70953415484477,-0.0038604975136991,0.000000,0.000000,0.000000,0.000000,0.000000,324.906099,23.280504,-1.000000,0.986890,0.008066,0.302981,0.000000,0.000000,0.000000,0.000000,0.000000,0.000000,0.000000,
2461,2413,4.45547273016063,-5.05488368494755,0.00147473629664319,0.000000,0.000000,0.000000,0.000000,0.000000,324.464891,23.306152,-1.000000,0.987156,0.007705,0.389034,0.000000,0.000000,0.000000,0.000000,0.000000,0.000000,0.000000,
2461,2443,4.44917400333092,-4.39844142217841,-0.00133986608432224,0.000000,0.000000,0.000000,0.000000,0.000000,323.954517,23.438102,-1.000000,0.985429,0.007649,0.369153,0.000000,0.000000,0.000000,0.000000,0.000000,0.000000,0.000000,
2461,2473,4.44271320649012,-3.74206365890055,-0.00613042107949013,0.000000,0.000000,0.000000,0.000000,0.000000,323.427356,23.566494,-1.000000,0.987501,0.007305,0.352254,0.000000,0.000000,0.000000,0.000000,0.000000,0.000000,0.000000,
2461,2503,4.43684570723254,-3.08718683020544,-0.00383304392892114,0.000000,0.000000,0.000000,0.000000,0.000000,322.959716,23.642551,-1.000000,0.986667,0.007291,0.387359,0.000000,0.000000,0.000000,0.000000,0.000000,0.000000,0.000000,
2461,2533,4.43070705249734,-2.43134705734219,-0.00474098647998744,0.000000,0.000000,0.000000,0.000000,0.000000,322.464512,23.797026,-1.000000,0.987989,0.006876,0.343947,0.000000,0.000000,0.000000,0.000000,0.000000,0.000000,0.000000,
2461,2563,4.42305589656485,-1.7746933792934,-0.0239891380018662,0.000000,0.000000,0.000000,0.000000,0.000000,321.815555,23.884332,-1.000000,0.988744,0.006953,0.367811,0.000000,0.000000,0.000000,0.000000,0.000000,0.000000,0.000000,
2461,2593,4.41721533136201,-1.12045700223543,-0.0214056571423953,0.000000,0.000000,0.000000,0.000000,0.000000,321.349604,23.963348,-1.000000,0.988309,0.006896,0.398966,0.000000,0.000000,0.000000,0.000000,0.000000,0.000000,0.000000,
2461,2623,4.41084676052378,-0.464685359503726,-0.0251095639727623,0.000000,0.000000,0.000000,0.000000,0.000000,320.830048,24.147904,-1.000000,0.988777,0.006674,0.324936,0.000000,0.000000,0.000000,0.000000,0.000000,0.000000,0.000000,
2461,2653,4.40504438692266,0.189377558024134,-0.0220677417365209,0.000000,0.000000,0.000000,0.000000,0.000000,320.367351,24.251879,-1.000000,0.989784,0.006479,0.330676,0.000000,0.000000,0.000000,0.000000,0.000000,0.000000,0.000000,
2461,2683,4.39845554405639,0.843804821856011,-0.0285623854268806,0.000000,0.000000,0.000000,0.000000,0.000000,319.824506,24.328423,-1.000000,0.988582,0.006808,0.363976,0.000000,0.000000,0.000000,0.000000,0.000000,0.000000,0.000000,
2461,2713,4.39264188805609,1.49765181097425,-0.0256676768753437,0.000000,0.000000,0.000000,0.000000,0.000000,319.360031,24.447913,-1.000000,0.990770,0.006445,0.353962,0.000000,0.000000,0.000000,0.000000,0.000000,0.000000,0.000000,
2461,2743,4.38613156816688,2.15171672225949,-0.0312286551032912,0.000000,0.000000,0.000000,0.000000,0.000000,318.824471,24.537507,-1.000000,0.991587,0.006010,0.373660,0.000000,0.000000,0.000000,0.000000,0.000000,0.000000,0.000000,
2461,2773,4.38000158531024,2.80551203224742,-0.0321806326577985,0.000000,0.000000,0.000000,0.000000,0.000000,318.327214,24.657961,-1.000000,0.988325,0.006750,0.362242,0.000000,0.000000,0.000000,0.000000,0.000000,0.000000,0.000000,
2461,2803,4.37397519902531,3.45955768757603,-0.0318519471097147,0.000000,0.000000,0.000000,0.000000,0.000000,317.840199,24.829417,-1.000000,0.987426,0.006958,0.299515,0.000000,0.000000,0.000000,0.000000,0.000000,0.000000,0.000000,
2461,2833,4.3678402865342,4.11306790125554,-0.0328826544799199,0.000000,0.000000,0.000000,0.000000,0.000000,317.341763,24.958977,-1.000000,0.990218,0.006294,0.278556,0.000000,0.000000,0.000000,0.000000,0.000000,0.000000,0.000000,
2461,2863,4.36216461468755,4.76484872417259,-0.0284499157875757,0.000000,0.000000,0.000000,0.000000,0.000000,316.889578,24.987618,-1.000000,0.991290,0.005867,0.357955,0.000000,0.000000,0.000000,0.000000,0.000000,0.000000,0.000000,
2461,2893,4.35619968488556,5.4184334336634,-0.0274045815979775,0.000000,0.000000,0.000000,0.000000,0.000000,316.407812,25.173752,-1.000000,0.989868,0.006225,0.280061,0.000000,0.000000,0.000000,0.000000,0.000000,0.000000,0.000000,
2461,2923,4.35068294477019,6.07034411173623,-0.0210230471903969,0.000000,0.000000,0.000000,0.000000,0.000000,315.971234,25.260624,-1.000000,0.989963,0.006403,0.300719,0.000000,0.000000,0.000000,0.000000,0.000000,0.000000,0.000000,
2461,2953,4.34532983390197,6.72184983338423,-0.0126749777181772,0.000000,0.000000,0.000000,0.000000,0.000000,315.551015,25.339067,-1.000000,0.990909,0.006237,0.330139,0.000000,0.000000,0.000000,0.000000,0.000000,0.000000,0.000000,
2461,2983,4.33995985846127,7.37387578654135,-0.00449548333625671,0.000000,0.000000,0.000000,0.000000,0.000000,315.128820,25.478686,-1.000000,0.990466,0.006310,0.297809,0.000000,0.000000,0.000000,0.000000,0.000000,0.000000,0.000000,
2461,3013,4.33481237250689,8.0249582870991,0.00633264717919246,0.000000,0.000000,0.000000,0.000000,0.000000,314.728984,25.563404,-1.000000,0.989972,0.006221,0.320384,0.000000,0.000000,0.000000,0.000000,0.000000,0.000000,0.000000,
2461,3043,4.3291644905974,8.6760417189981,0.0110825265860512,0.000000,0.000000,0.000000,0.000000,0.000000,314.277951,25.621675,-1.000000,0.990538,0.006270,0.369046,0.000000,0.000000,0.000000,0.000000,0.000000,0.000000,0.000000,
2461,3073,4.32258130033813,9.32797290931273,0.00451640426939548,0.000000,0.000000,0.000000,0.000000,0.000000,313.731376,25.700344,-1.000000,0.991968,0.005983,0.397423,0.000000,0.000000,0.000000,0.000000,0.000000,0.000000,0.000000,
2461,3103,4.31729669730774,9.97924864556891,0.0136980662941255,0.000000,0.000000,0.000000,0.000000,0.000000,313.316732,25.835346,-1.000000,0.992463,0.005770,0.369253,0.000000,0.000000,0.000000,0.000000,0.000000,0.000000,0.000000,
2461,3133,4.31139527367074,10.6306688177864,0.0153923682545383,0.000000,0.000000,0.000000,0.000000,0.000000,312.838966,25.950995,-1.000000,0.989986,0.006233,0.359947,0.000000,0.000000,0.000000,0.000000,0.000000,0.000000,0.000000,
2461,3163,4.30621979277646,11.2813861460438,0.0258739288297534,0.000000,0.000000,0.000000,0.000000,0.000000,312.434896,26.069700,-1.000000,0.990996,0.006034,0.347779,0.000000,0.000000,0.000000,0.000000,0.000000,0.000000,0.000000,
2461,3193,4.30036406235616,11.93203838329,0.0280881638360597,0.000000,0.000000,0.000000,0.000000,0.000000,311.961249,26.146513,-1.000000,0.991340,0.005943,0.377286,0.000000,0.000000,0.000000,0.000000,0.000000,0.000000,0.000000,
2461,3223,4.29402113650936,12.5834284605947,0.0244187047512128,0.000000,0.000000,0.000000,0.000000,0.000000,311.437560,26.272484,-1.000000,0.991493,0.005921,0.357252,0.000000,0.000000,0.000000,0.000000,0.000000,0.000000,0.000000,
2461,3253,4.28735356983273,13.2347154740104,0.0167987532316829,0.000000,0.000000,0.000000,0.000000,0.000000,310.880437,26.383097,-1.000000,0.993977,0.005139,0.352465,0.000000,0.000000,0.000000,0.000000,0.000000,0.000000,0.000000,
