Image X[Pixel],Image Y[Pixel],X[mm],Y[mm],Z[mm],Horizontal Displacement U[mm],Vertical Displacement V[mm],Out-Of-Plane: W[mm],Horizontal: u[Pixel],Vertical: v[Pixel],Horizontal: q[Pixel],Vertical: r[Pixel],Correlation Value 2D,Correlation Value Persp,Sigma,Epipolar Distance,Strain-global frame: Exx,Strain-global frame: Eyy,Strain-global frame: Exy,Maximum Principal Strain: EI,Minimum Principal Strain: EII,Shear Angle Gamma,Von Mises Equivalent Strain,
2011,1993,-5.29037263785846,-14.2698814544817,0.0268883296911326,-0.005710,-0.017647,-0.003527,-0.257748,-0.791040,332.129410,24.095451,0.998663,0.980619,0.005546,0.390079,0.000745,0.000646,0.000180,0.000882,0.000509,37.249572,0.001408,
2041,2143,-4.65693071929676,-10.9811524032563,0.0230810334114722,-0.003515,-0.016838,0.003883,-0.177386,-0.714216,329.591563,23.891886,0.998162,0.980322,0.005962,0.417532,0.000450,0.000433,0.000111,0.000554,0.000330,42.815796,0.000893,
2026,2068,-4.97328082896312,-12.6255562014566,0.0294232087523483,-0.004655,-0.017187,0.000436,-0.220087,-0.757970,330.894012,23.974208,0.999659,0.991691,0.003815,0.407771,0.000608,0.000507,0.000138,0.000705,0.000410,34.919966,0.001128,
2056,2218,-4.34056143568843,-9.33629645085186,0.0113374487443707,-0.002106,-0.015170,0.000782,-0.103692,-0.647513,328.276260,23.912992,0.998383,0.980827,0.005492,0.366757,0.000340,0.000330,0.000094,0.000429,0.000240,43.425607,0.000678,
2101,2443,-3.39552918830884,-4.41835449487469,-0.00538109996119829,-0.000547,-0.015132,0.003753,-0.041100,-0.635674,324.344472,23.662108,0.999275,0.987593,0.004517,0.460569,0.000116,0.000042,0.000023,0.000123,0.000036,16.071552,0.000167,
2131,2593,-2.76792596816162,-1.14442035923158,-0.0188965503185727,-0.000201,-0.014788,0.007553,-0.036796,-0.584445,321.676390,23.654862,0.999396,0.989752,0.004256,0.507941,0.000063,0.000032,0.000011,0.000066,0.000028,18.263544,0.000097,
2086,2368,-3.71051986599205,-6.05712393037247,-0.00274852531020997,-0.001151,-0.015722,0.002886,-0.066307,-0.654692,325.624616,23.648816,0.998165,0.980384,0.005618,0.491239,0.000186,0.000117,0.000032,0.000199,0.000104,21.364470,0.000308,
2296,2023,0.928151328138728,-13.6217045443547,0.0268463836916339,-0.001247,-0.019603,-0.000179,-0.063903,-0.862592,330.812995,21.978466,0.998867,0.980047,0.005746,0.495241,0.000620,0.000730,-0.000009,0.000731,0.000619,-85.279150,0.001352,
2431,2698,3.74237935577832,1.15444879657215,-0.0204590130033466,0.000386,-0.015886,0.005677,-0.009772,-0.666713,319.592783,23.728693,0.999783,0.991777,0.003676,0.353797,0.000053,0.000045,0.000015,0.000064,0.000033,36.994063,0.000099,
2191,2893,-1.51257491111737,5.38588559465639,-0.00503321828404069,0.000629,-0.014845,0.008010,-0.001325,-0.601927,316.737710,23.924899,0.999786,0.994887,0.003165,0.443347,0.000012,0.000051,0.000018,0.000058,0.000005,68.524077,0.000070,
2221,3043,-0.885602097830649,8.64414095534569,0.0144436658255813,0.001053,-0.015089,0.010351,0.009899,-0.616771,314.381454,24.166082,0.999725,0.993600,0.003237,0.423308,0.000015,0.000022,0.000004,0.000024,0.000013,66.865314,0.000038,
2251,3193,-0.258641884461397,11.8981052986686,0.0486344712729192,0.001348,-0.015367,0.013647,0.011750,-0.626951,312.149081,24.479905,0.999475,0.992148,0.003544,0.419152,0.000024,0.000029,0.000010,0.000037,0.000016,51.076274,0.000054,
2026,2098,-4.97720519678049,-11.9663915204228,0.0259254040077508,-0.003993,-0.016452,0.000520,-0.189753,-0.731276,330.413541,24.058877,0.998898,0.981754,0.005351,0.336703,0.000544,0.000512,0.000134,0.000663,0.000393,41.643188,0.001068,
2011,2038,-5.29682533789277,-13.2807358153933,0.00809539351956801,-0.004657,-0.017116,-0.004232,-0.207440,-0.776391,331.302913,24.056410,0.998199,0.979634,0.005683,0.419351,0.000679,0.000449,0.000143,0.000747,0.000380,25.624288,0.001147,
2011,2008,-5.29337188833793,-13.9385335327599,0.0145189264433725,-0.005708,-0.017736,-0.001578,-0.262996,-0.784250,331.780827,24.153528,0.998505,0.982091,0.005483,0.331166,0.000742,0.000637,0.000187,0.000884,0.000495,37.121951,0.001397,
2116,2518,-3.08177156647372,-2.78070322159761,-0.0124966358213783,-0.000339,-0.015493,0.008684,-0.046379,-0.623162,322.998970,23.667074,0.999159,0.987102,0.004500,0.452469,0.000083,0.000037,0.000014,0.000087,0.000034,15.449255,0.000124,
2446,2773,4.053744582008,2.78869265459882,-0.0277983631353891,0.000413,-0.015298,0.004042,-0.002468,-0.654133,318.342826,23.857653,0.999494,0.987885,0.004388,0.497113,0.000037,0.000057,0.000016,0.000066,0.000028,61.387569,0.000096,
2266,3283,0.0485791486871214,13.8515055582782,0.0131581560645486,0.001654,-0.014957,0.009713,0.038581,-0.611917,310.374792,24.612025,0.999551,0.992293,0.003432,0.518249,0.000024,0.000033,0.000015,0.000045,0.000013,53.260435,0.000060,
2476,2923,4.67780180776279,6.0554146996009,-0.0114317518199414,0.000558,-0.015804,0.008885,-0.014802,-0.668689,316.082372,24.565464,0.999295,0.986067,0.004490,0.355897,0.000026,-0.000017,0.000032,0.000043,-0.000034,28.220408,0.000045,
2206,2968,-1.198520097913,7.01518710032162,0.00864118947811221,0.001001,-0.014961,0.008840,0.012755,-0.616114,315.599850,24.045668,0.999375,0.990951,0.003812,0.415784,0.000013,0.000039,0.000013,0.000045,0.000008,67.277883,0.000057,
2026,2083,-4.97579829189965,-12.2953645523592,0.0239773733744642,-0.004639,-0.016597,0.000797,-0.220162,-0.736008,330.607751,24.020017,0.999202,0.986887,0.004647,0.377810,0.000575,0.000530,0.000137,0.000691,0.000413,40.378442,0.001117,
2146,2668,-2.45298250702678,0.488681229064788,-0.0138389233406429,0.000571,-0.015009,0.006807,0.000569,-0.604145,320.480427,23.629093,0.999604,0.991277,0.003740,0.538654,0.000059,0.000023,0.000004,0.000060,0.000023,5.635410,0.000085,
2086,2383,-3.71315154658786,-5.72790581280464,-0.00531386857193183,-0.001151,-0.015414,0.004924,-0.072108,-0.643839,325.354886,23.760473,0.998069,0.979425,0.005719,0.391181,0.000174,0.000098,0.000035,0.000188,0.000084,21.194514,0.000278,
2251,3208,-0.261144232450196,12.2231052741737,0.0466272360012567,0.001398,-0.015364,0.009700,0.027057,-0.631518,311.901997,24.475616,0.999703,0.994909,0.003160,0.441114,0.000025,0.000027,0.000011,0.000038,0.000015,46.840288,0.000054,
2236,3118,-0.57239411900893,10.2719453715167,0.0274763081233118,0.001150,-0.014985,0.012482,0.007102,-0.601733,313.226011,24.309250,0.999595,0.992156,0.003618,0.444752,0.000011,0.000017,0.000001,0.000018,0.000011,80.086893,0.000029,
2071,2293,-4.02571353867327,-7.69592223430797,-0.00148786503314113,-0.001704,-0.015304,0.000053,-0.083352,-0.659951,326.903039,23.735658,0.999781,0.993045,0.003846,0.455496,0.000271,0.000230,0.000065,0.000319,0.000182,36.173454,0.000507,
2116,2533,-3.08425311979515,-2.45350928084531,-0.017367351470341,-0.000345,-0.015050,0.004930,-0.035437,-0.624655,322.726836,23.637427,0.998982,0.985794,0.004799,0.485080,0.000075,0.000036,0.000017,0.000082,0.000030,20.314248,0.000116,
2056,2248,-4.34560507466595,-8.68047522836668,0.00487686464452963,-0.002194,-0.015852,0.001396,-0.109724,-0.699858,327.735068,23.854038,0.998965,0.984556,0.005021,0.367829,0.000296,0.000291,0.000076,0.000370,0.000217,43.971731,0.000594,
2161,2743,-2.14036995518807,2.12256061858649,-0.0185651340426602,0.000294,-0.015612,0.011568,-0.027311,-0.643634,319.139495,23.730758,0.999373,0.989039,0.004204,0.442847,0.000034,0.000020,-0.000001,0.000034,0.000020,-2.880268,0.000055,
2236,3133,-0.575576646461638,10.5978837302442,0.0218743411290916,0.000870,-0.014701,0.010259,0.001547,-0.591502,312.927944,24.335905,0.999601,0.992636,0.003673,0.448189,0.000009,0.000021,0.000002,0.000021,0.000009,80.335008,0.000031,
2221,3058,-0.887298896221537,8.96847419144289,0.0263242042450429,0.001255,-0.015114,0.011793,0.014612,-0.607422,314.241014,24.138027,0.999779,0.994302,0.003004,0.478592,0.000017,0.000015,0.000004,0.000020,0.000012,38.424599,0.000033,
2011,2023,-5.29478779369324,-13.6106572983465,0.012657607366009,-0.005077,-0.017462,-0.004887,-0.224984,-0.812660,331.563935,24.056328,0.998601,0.981052,0.005525,0.391426,0.000710,0.000500,0.000154,0.000792,0.000419,27.845650,0.001230,
2506,3073,5.30227299306442,9.31620726480808,0.0104984893221172,0.001236,-0.015579,0.011944,0.003919,-0.643604,313.910818,25.129050,0.999628,0.991506,0.003993,0.482826,0.000032,0.000052,0.000033,0.000077,0.000008,53.425026,0.000094,
2386,2473,2.8065188750757,-3.75829699339351,-0.00564591972431572,0.000104,-0.015487,0.006324,-0.024113,-0.633038,323.305917,23.020613,0.999419,0.988513,0.004479,0.441296,0.000138,0.000070,0.000045,0.000160,0.000048,26.395212,0.000218,
2011,2053,-5.29929292123512,-12.951566871516,0.0132663698038868,-0.004902,-0.017781,0.002081,-0.235966,-0.761925,331.076930,24.124419,0.999390,0.991112,0.003979,0.357285,0.000653,0.000479,0.000137,0.000728,0.000403,28.842712,0.001147,
2401,2548,3.11903085765603,-2.1205261733698,-0.00838768538750401,0.000284,-0.015506,0.005369,-0.012662,-0.646939,322.091294,23.172288,0.999367,0.989295,0.004556,0.473235,0.000089,0.000030,0.000032,0.000102,0.000016,23.511914,0.000129,
2296,2053,0.923612121295154,-12.960035545796,0.0236444932326094,-0.000522,-0.017802,-0.005751,-0.011315,-0.808302,330.354630,22.243437,0.999024,0.981812,0.005325,0.351501,0.000572,0.000669,-0.000005,0.000669,0.000572,-86.973595,0.001243,
2266,3298,0.0463303487539086,14.1772146675358,0.0196422023335572,0.001641,-0.014803,0.009468,0.038804,-0.618272,310.182858,24.746586,0.999569,0.992845,0.003461,0.401230,0.000030,0.000040,0.000016,0.000052,0.000018,53.927097,0.000073,
2341,2248,1.86784875500706,-8.6825101807575,0.00506076702635028,-0.000517,-0.017192,0.006822,-0.054102,-0.714287,326.991772,22.481696,0.999037,0.981446,0.005250,0.428902,0.000302,0.000265,-0.000007,0.000304,0.000264,-10.654035,0.000568,
2371,2398,2.4938123788557,-5.39917106837745,0.00105836377309743,-0.000464,-0.015842,0.005868,-0.048379,-0.647752,324.544268,22.777036,0.999410,0.987500,0.004631,0.493059,0.000186,0.000134,0.000040,0.000208,0.000112,28.696960,0.000325,
2086,2398,-3.71518114094132,-5.40058970997966,-0.00386613346915965,-0.000993,-0.015081,0.004067,-0.062274,-0.620802,325.134862,23.729788,0.998745,0.983181,0.005077,0.445531,0.000157,0.000080,0.000029,0.000167,0.000070,18.581544,0.000243,
2026,2113,-4.98000328838288,-11.63720902319,0.0177538998558475,-0.003896,-0.016909,0.004145,-0.195368,-0.726463,330.099644,24.012142,0.998438,0.977152,0.006034,0.382044,0.000513,0.000487,0.000128,0.000629,0.000372,42.103322,0.001012,
2131,2608,-2.77004158990904,-0.818479776742002,-0.0155417256694363,-0.000216,-0.015313,0.005740,-0.032238,-0.625967,321.466645,23.647019,0.999379,0.988894,0.004398,0.480436,0.000066,0.000026,0.000011,0.000068,0.000024,14.236228,0.000095,
2266,3268,0.0520094016152761,13.5262477749237,0.0243393449243854,0.001727,-0.014836,0.012091,0.034088,-0.602491,310.710097,24.616121,0.999606,0.992748,0.003469,0.499466,0.000026,0.000028,0.000015,0.000041,0.000012,46.710307,0.000056,
2041,2188,-4.66359801900103,-9.99292574036486,0.00768874455616242,-0.002760,-0.015348,0.000784,-0.133731,-0.659859,328.783505,23.943728,0.998975,0.985889,0.004909,0.406191,0.000383,0.000354,0.000090,0.000459,0.000278,40.520446,0.000745,
2206,2983,-1.2014775080007,7.34187074307389,0.00232609332618949,0.000898,-0.014474,0.006135,0.016746,-0.604032,315.305934,24.090630,0.999442,0.991460,0.003666,0.398989,0.000013,0.000037,0.000014,0.000044,0.000006,64.750050,0.000055,
2131,2623,-2.77238283544049,-0.491365012424247,-0.0147916824936942,-0.000128,-0.014998,0.006296,-0.029780,-0.621234,321.232225,23.682730,0.999443,0.989182,0.004242,0.455606,0.000066,0.000031,0.000008,0.000067,0.000030,13.107872,0.000099,
2071,2308,-4.02922624533835,-7.36642487037599,-0.0104155104619963,-0.002166,-0.015075,0.003140,-0.113291,-0.639954,326.556887,23.773725,0.999800,0.992823,0.003942,0.436951,0.000253,0.000185,0.000050,0.000279,0.000159,27.945527,0.000444,
2251,3223,-0.263242426076431,12.5477829774133,0.0562429373999862,0.001374,-0.015104,0.010678,0.022827,-0.615139,311.732644,24.491313,0.999667,0.994333,0.003265,0.463736,0.000026,0.000038,0.000013,0.000046,0.000017,57.215581,0.000066,
2431,2713,3.74030985873071,1.47979859430937,-0.0110767269945882,0.000576,-0.015370,0.006371,-0.003402,-0.639723,319.433914,23.682341,0.999726,0.991512,0.003724,0.477415,0.000047,0.000052,0.000015,0.000064,0.000035,49.641468,0.000101,
2296,2038,0.92598169811291,-13.2900748097239,0.0306977546971439,-0.001195,-0.018552,-0.003192,-0.051007,-0.839916,330.615240,22.246245,0.999135,0.983148,0.005199,0.283349,0.000595,0.000683,-0.000010,0.000684,0.000594,-83.434477,0.001279,
2176,2818,-1.8271918663937,3.75596354093157,-0.0207740463297341,0.000351,-0.015252,0.011472,-0.024712,-0.617154,317.851549,23.860205,0.999358,0.990323,0.003959,0.406152,0.000019,0.000039,0.000010,0.000043,0.000015,68.161815,0.000060,
2491,2998,4.9908899949258,7.68552681971704,0.010639665040344,0.000812,-0.015604,0.011437,-0.013176,-0.638198,315.080841,24.830115,0.999325,0.987818,0.004215,0.443631,0.000029,0.000015,0.000026,0.000049,-0.000005,37.641101,0.000054,
2326,2173,1.55500109686855,-10.3258787465117,0.0124555127360395,-0.000726,-0.017575,0.003445,-0.051904,-0.750512,328.268830,22.437709,0.998769,0.978691,0.005533,0.320464,0.000408,0.000434,-0.000007,0.000436,0.000406,-75.312300,0.000842,
2056,2233,-4.34339871218489,-9.00769554594963,0.00540275764080889,-0.002124,-0.015557,0.003898,-0.113436,-0.647254,327.976141,23.889496,0.999154,0.986710,0.004797,0.387869,0.000319,0.000298,0.000085,0.000394,0.000223,41.592021,0.000625,
2086,2428,-3.71986264128826,-4.74587150859343,-0.0026140191802142,-0.000971,-0.015196,0.005763,-0.066191,-0.630391,324.657659,23.730624,0.999114,0.986231,0.004593,0.436175,0.000134,0.000037,0.000034,0.000145,0.000026,17.279349,0.000184,
2461,2848,4.36548077100181,4.42366784571653,-0.028518413090751,0.000856,-0.015243,0.006747,0.007581,-0.633208,317.152389,24.213096,0.999744,0.993080,0.003349,0.443114,0.000021,0.000023,0.000015,0.000038,0.000007,47.571590,0.000048,
2101,2473,-3.40100123336265,-3.76294811448284,-0.00960480289211318,-0.000798,-0.015364,0.006977,-0.062105,-0.627534,323.803716,23.687982,0.999302,0.988124,0.004396,0.448262,0.000101,0.000036,0.000016,0.000105,0.000032,13.221032,0.000144,
2281,2008,0.603024923213717,-13.9487215920727,0.027041565118509,-0.001596,-0.018932,-0.002943,-0.070380,-0.833724,331.063255,22.197224,0.999098,0.982753,0.005419,0.375854,0.000642,0.000740,-0.000014,0.000742,0.000640,-81.744157,0.001383,
2041,2158,-4.66023013131787,-10.6492509993325,0.00812538788852635,-0.003306,-0.016917,0.009836,-0.184340,-0.699557,329.218322,24.029166,0.999279,0.986474,0.004819,0.290956,0.000427,0.000399,0.000093,0.000507,0.000319,40.719539,0.000833,
2506,3088,5.30017635606269,9.64226404615271,0.0160632992615319,0.001330,-0.015226,0.006839,0.028154,-0.639598,313.735688,25.235465,0.999680,0.992409,0.003553,0.440482,0.000038,0.000062,0.000034,0.000086,0.000014,54.339062,0.000108,
2251,3253,-0.269860587959553,13.1993443699183,0.0375720627710052,0.001507,-0.014955,0.011021,0.027960,-0.602299,311.089036,24.541791,0.999609,0.993670,0.003343,0.470050,0.000023,0.000024,0.000017,0.000041,0.000006,46.215156,0.000051,
2311,2098,1.24195680544943,-11.9719730843184,0.0170093044563373,-0.000622,-0.018166,0.000543,-0.037316,-0.791523,329.537766,22.258496,0.999263,0.981307,0.005499,0.362356,0.000512,0.000615,-0.000002,0.000615,0.000512,-89.072572,0.001129,
2146,2698,-2.45913204988314,1.14363141861376,-0.0268450315314226,0.000369,-0.015065,0.008790,-0.014735,-0.604033,319.869484,23.699035,0.999433,0.989557,0.004003,0.485771,0.000054,0.000021,0.000002,0.000054,0.000021,4.156998,0.000077,
2236,3178,-0.58178714073097,11.5713512710677,0.0452361429489088,0.001181,-0.015271,0.012857,0.007143,-0.632458,312.393975,24.352815,0.999320,0.990925,0.003790,0.450021,0.000018,0.000033,0.000008,0.000037,0.000014,66.381373,0.000053,
2116,2548,-3.08702028150658,-2.12587702241473,-0.0217590799650793,-0.000279,-0.014893,0.007117,-0.038813,-0.608760,322.444018,23.640360,0.999137,0.987502,0.004512,0.502778,0.000075,0.000033,0.000021,0.000083,0.000024,22.247012,0.000113,
2356,2323,2.18082303721473,-7.04129510230796,0.00686927538617965,-0.000682,-0.016887,0.009447,-0.071068,-0.690660,325.779282,22.569861,0.999724,0.993877,0.003704,0.500573,0.000221,0.000160,0.000012,0.000224,0.000157,11.012589,0.000383,
2221,3073,-0.88990842910475,9.29439815901302,0.0262607274031552,0.001172,-0.014961,0.010170,0.016021,-0.608968,313.996659,24.192979,0.999629,0.993080,0.003311,0.439973,0.000016,0.000022,0.000002,0.000022,0.000015,71.152281,0.000038,
2161,2758,-2.14281379953855,2.4487805113109,-0.0147816394169809,0.000171,-0.015506,0.012569,-0.036007,-0.626122,318.918773,23.737093,0.999055,0.986539,0.004434,0.464260,0.000035,0.000022,0.000002,0.000035,0.000022,6.848022,0.000058,
2416,2623,3.43027480211066,-0.482612030320766,-0.0176526149688243,0.000230,-0.015701,0.007817,-0.024404,-0.632390,320.800648,23.376351,0.999318,0.987990,0.004241,0.502067,0.000068,0.000011,0.000025,0.000078,0.000002,20.286641,0.000091,
2206,2998,-1.20427506935882,7.66694087611334,0.00554447993050644,0.000850,-0.015059,0.011474,-0.002547,-0.607585,315.069218,24.072364,0.999424,0.991015,0.003806,0.429695,0.000012,0.000033,0.000013,0.000039,0.000005,64.672376,0.000049,
2191,2908,-1.51474319782138,5.71001949852723,-0.000240580800891621,0.000753,-0.015117,0.008803,0.001781,-0.610586,316.537487,23.813403,0.999778,0.994634,0.003251,0.560209,0.000013,0.000044,0.000020,0.000054,0.000003,63.769679,0.000064,
2476,2938,4.67523490985138,6.38136457304265,-0.00654246185808915,0.000662,-0.015435,0.009279,-0.011319,-0.634746,315.881484,24.591412,0.999429,0.988690,0.004079,0.420116,0.000023,-0.000017,0.000026,0.000036,-0.000030,26.591848,0.000039,
2386,2488,2.80346918739276,-3.4313910340536,-0.00280715914715302,0.000035,-0.016174,0.010294,-0.041755,-0.651897,323.069127,23.040802,0.999469,0.988125,0.004364,0.446699,0.000130,0.000066,0.000044,0.000153,0.000043,26.868556,0.000206,
2251,3238,-0.266281749364403,12.8724699554626,0.0496626542301897,0.001449,-0.015037,0.009999,0.028521,-0.621029,311.437686,24.440982,0.999771,0.995505,0.002977,0.530329,0.000026,0.000032,0.000013,0.000042,0.000015,51.235943,0.000059,
2056,2278,-4.3501769392449,-8.02190158973526,0.000893336054559768,-0.001779,-0.015250,0.004693,-0.099756,-0.653051,327.228012,23.995021,0.999619,0.990965,0.004186,0.267530,0.000259,0.000242,0.000072,0.000323,0.000178,41.606841,0.000508,
2026,2158,-4.98638621364172,-10.6495487362838,0.0161443352527613,-0.003403,-0.016381,0.007468,-0.181753,-0.687004,329.376864,24.140179,0.999263,0.985547,0.004807,0.272969,0.000438,0.000401,0.000097,0.000518,0.000321,39.671246,0.000847,
2281,1993,0.606083177138519,-14.2775367857568,0.0268083590289621,-0.001197,-0.018950,-0.002965,-0.052058,-0.843906,331.320370,22.225116,0.999070,0.968934,0.006929,0.306253,0.000662,0.000739,-0.000028,0.000748,0.000653,-71.941693,0.001402,
2146,2683,-2.45634811349161,0.816642035695494,-0.0224017832900358,0.000373,-0.015269,0.008639,-0.014176,-0.621069,320.150628,23.705847,0.999412,0.989823,0.003922,0.453360,0.000055,0.000022,0.000003,0.000055,0.000022,4.538342,0.000079,
2011,2068,-5.30073544094646,-12.6233194989096,0.018348455587784,-0.004725,-0.016475,-0.001633,-0.217432,-0.737884,330.897348,24.102565,0.999366,0.991161,0.004007,0.394102,0.000625,0.000523,0.000139,0.000722,0.000426,34.996647,0.001161,
2056,2263,-4.34811885488069,-8.35175686212266,0.004971768166115,-0.002099,-0.016035,0.007040,-0.121299,-0.675706,327.482705,23.890463,0.999014,0.983668,0.005279,0.352480,0.000275,0.000265,0.000074,0.000344,0.000196,43.077972,0.000547,
2011,2083,-5.30369424727601,-12.2937973278594,0.0168585022184402,-0.005121,-0.016876,0.003721,-0.250202,-0.721229,330.611724,24.136809,0.998501,0.980983,0.005543,0.368004,0.000588,0.000542,0.000141,0.000709,0.000422,40.346382,0.001143,
2206,3028,-1.20871449821598,8.31747688133265,0.017539217484341,0.001063,-0.015070,0.015417,-0.005316,-0.609665,314.677472,24.114882,0.999596,0.992750,0.003520,0.416559,0.000014,0.000026,0.000008,0.000031,0.000010,62.464359,0.000042,
2071,2353,-4.03456624278208,-6.38389316722898,-0.000406728136056245,-0.001255,-0.015152,0.002710,-0.070258,-0.625850,325.958391,23.785747,0.998294,0.981892,0.005404,0.434656,0.000203,0.000114,0.000040,0.000218,0.000099,20.733467,0.000324,
2101,2458,-3.39836380381684,-4.09084960534127,-0.00799532781206835,-0.000719,-0.015391,0.005704,-0.054761,-0.625145,324.066900,23.643228,0.999319,0.987537,0.004456,0.492836,0.000106,0.000036,0.000014,0.000109,0.000033,10.658602,0.000149,
2431,2728,3.73731952001868,1.80602254030273,-0.0126514174828003,0.000834,-0.015621,0.008233,0.001442,-0.649871,319.181676,23.668608,0.999732,0.991813,0.003641,0.531045,0.000040,0.000059,0.000015,0.000068,0.000032,61.284431,0.000102,
2026,2128,-4.98180750807298,-11.3072331416914,0.00892943253160183,-0.003293,-0.016017,-0.001065,-0.153199,-0.699644,329.827202,24.015035,0.998551,0.976657,0.006175,0.399261,0.000478,0.000462,0.000124,0.000594,0.000345,43.158395,0.000951,
2161,2773,-2.14542275281486,2.77620142371378,-0.0221629653182731,0.000449,-0.015141,0.010812,-0.017658,-0.611607,318.631284,23.773240,0.999400,0.989984,0.003996,0.452846,0.000035,0.000028,0.000007,0.000039,0.000024,32.001782,0.000064,
2221,3103,-0.894490253807433,9.94436894439037,0.0317356736240981,0.001530,-0.015262,0.010927,0.029919,-0.637919,313.566653,24.202938,0.999494,0.992002,0.003632,0.436939,0.000015,0.000027,0.000006,0.000029,0.000012,67.438840,0.000043,
2296,2068,0.920520461671455,-12.6314935711952,0.0299769190961001,-0.000987,-0.018020,-0.000547,-0.050197,-0.793810,330.127232,22.276398,0.999188,0.981939,0.005242,0.366215,0.000551,0.000653,0.000000,0.000653,0.000551,-89.807032,0.001205,
2086,2413,-3.71710626842433,-5.07377934694625,-0.00156662961535403,-0.000740,-0.015182,0.003887,-0.050179,-0.643734,324.924549,23.711482,0.998896,0.984683,0.004776,0.441378,0.000144,0.000056,0.000025,0.000151,0.000050,14.678508,0.000209,
2116,2578,-3.09127130472837,-1.47234085587915,-0.0165056172363052,-0.000139,-0.015222,0.005730,-0.028419,-0.646456,322.013107,23.695603,0.999403,0.989477,0.004232,0.418048,0.000057,0.000037,0.000012,0.000063,0.000032,24.945017,0.000096,
2086,2443,-3.72233592593841,-4.41757461244077,-0.0104357162225597,-0.000648,-0.015274,0.005094,-0.049457,-0.642767,324.366937,23.752632,0.999236,0.987515,0.004542,0.402357,0.000121,0.000031,0.000031,0.000131,0.000022,17.066048,0.000165,
2131,2653,-2.77654056729271,0.16116298706617,-0.00779849270287514,0.000121,-0.015215,0.005967,-0.017406,-0.631238,320.817239,23.677179,0.999610,0.990884,0.003814,0.463347,0.000059,0.000027,0.000007,0.000061,0.000025,12.554884,0.000088,
2461,2863,4.36266830339121,4.7496570770374,-0.0208355192703493,0.000504,-0.015192,0.007614,-0.011818,-0.619210,316.952421,24.264741,0.999516,0.990766,0.003724,0.459439,0.000022,0.000018,0.000014,0.000034,0.000006,40.125886,0.000043,
2041,2173,-4.66182724374348,-10.3219565290996,0.0101026539545614,-0.003260,-0.016027,0.002453,-0.161473,-0.693545,329.017231,23.941679,0.999185,0.988384,0.004528,0.379293,0.000407,0.000371,0.000086,0.000476,0.000301,39.081784,0.000784,
2191,2923,-1.51724823253547,6.0372644406449,0.00109163086716535,0.000880,-0.015047,0.010926,0.000977,-0.608099,316.302779,23.955754,0.999402,0.990778,0.003861,0.434297,0.000013,0.000050,0.000022,0.000061,0.000003,65.005438,0.000072,
2401,2563,3.11520117472704,-1.79267758600285,-0.0136061241992138,-0.000088,-0.015598,0.006892,-0.035293,-0.649029,321.781311,23.214767,0.999270,0.987525,0.004493,0.475103,0.000080,0.000032,0.000032,0.000096,0.000016,26.331593,0.000121,
2281,2038,0.596596400880067,-13.2876868484762,0.0134501278450898,-0.001486,-0.018794,-0.000644,-0.072988,-0.800357,330.464388,22.297261,0.999091,0.983851,0.005177,0.372551,0.000594,0.000679,0.000002,0.000679,0.000594,88.729436,0.001274,
2176,2833,-1.82997900217911,4.08206123934119,-0.0258687787604686,0.000541,-0.015275,0.012856,-0.020278,-0.619633,317.569594,23.829502,0.999662,0.993901,0.003394,0.446503,0.000018,0.000040,0.000013,0.000046,0.000012,65.603065,0.000061,
2131,2638,-2.77376359373802,-0.166485413758252,0.00378943494592932,-0.000189,-0.015377,0.007766,-0.037114,-0.634241,321.137567,23.686356,0.999700,0.992274,0.003592,0.444877,0.000063,0.000030,0.000008,0.000065,0.000028,13.568880,0.000095,
2281,2023,0.600125157627694,-13.6191453221967,0.0228305733055549,-0.001480,-0.018828,-0.002570,-0.066287,-0.831961,330.791250,22.202296,0.998965,0.981312,0.005597,0.404189,0.000617,0.000725,0.000002,0.000725,0.000617,89.058412,0.001343,
2356,2338,2.17817151778935,-6.71079704451612,-0.000270203917580147,-0.000391,-0.016121,0.003522,-0.036664,-0.679649,325.510461,22.741434,0.999389,0.988317,0.004512,0.381129,0.000212,0.000155,0.000022,0.000219,0.000147,18.599996,0.000369,
2011,2143,-5.31130797208775,-10.9773308721178,0.00707952745642615,-0.003624,-0.015400,0.002025,-0.176581,-0.636123,329.640847,24.121980,0.997897,0.977292,0.006119,0.432141,0.000472,0.000437,0.000128,0.000584,0.000325,41.111368,0.000922,
2236,3148,-0.577090504488979,10.9220339847355,0.0352340556629542,0.001307,-0.014952,0.013573,0.010826,-0.596681,312.804149,24.332890,0.999288,0.990768,0.003895,0.465992,0.000011,0.000024,0.000003,0.000025,0.000010,76.868619,0.000036,
2296,2083,0.917133293196816,-12.3011871735938,0.0233633572264011,-0.001068,-0.018334,0.000729,-0.058315,-0.795294,329.822298,22.348030,0.999260,0.982872,0.005164,0.326639,0.000528,0.000630,0.000003,0.000630,0.000528,88.105847,0.001159,
2341,2263,1.86540391756239,-8.3541173686837,0.00780277849895583,-0.000500,-0.016596,0.005092,-0.047089,-0.716850,326.779361,22.546763,0.999135,0.982407,0.005125,0.400144,0.000280,0.000229,-0.000012,0.000283,0.000226,-12.233317,0.000510,
2176,2848,-1.8316285315064,4.40739854197107,-0.016144298782649,0.000713,-0.015409,0.011970,-0.009679,-0.630352,317.417709,23.852861,0.999420,0.991047,0.003716,0.424306,0.000015,0.000045,0.000018,0.000054,0.000007,65.210898,0.000066,
2236,3193,-0.584637287392155,11.8965466235145,0.0444930450645984,0.001221,-0.015465,0.015248,0.001103,-0.640886,312.136208,24.373874,0.999282,0.990842,0.003821,0.440244,0.000020,0.000028,0.000008,0.000033,0.000015,58.546302,0.000048,
2071,2323,-4.03009154627806,-7.04015214637068,0.00238462834113307,-0.001394,-0.015426,0.005393,-0.084344,-0.634119,326.451111,23.752545,0.999206,0.987767,0.004576,0.462127,0.000238,0.000145,0.000045,0.000256,0.000127,22.226389,0.000390,
2056,2293,-4.3520011895219,-7.69616120172773,0.00585650958907991,-0.001776,-0.015192,0.002717,-0.094053,-0.640422,327.034611,23.830454,0.999862,0.993999,0.003579,0.441294,0.000260,0.000228,0.000066,0.000312,0.000176,38.260221,0.000494,
2011,2098,-5.30595350871081,-11.9641384809354,0.0155278481807386,-0.005032,-0.016666,0.005581,-0.251141,-0.693344,330.358827,24.179563,0.998242,0.978305,0.005936,0.344376,0.000558,0.000514,0.000137,0.000675,0.000397,40.436219,0.001084,
2251,3283,-0.276496574103703,13.8502016858482,0.0164165200747561,0.001747,-0.014930,0.010574,0.040438,-0.614779,310.432019,24.559226,0.999450,0.992016,0.003589,0.483768,0.000014,0.000034,0.000017,0.000044,0.000005,59.928922,0.000053,
2311,2113,1.23938842230272,-11.6444265939389,0.0233722089689081,-0.000891,-0.018209,0.001093,-0.051484,-0.791270,329.335610,22.230726,0.999195,0.981167,0.005423,0.425456,0.000485,0.000596,0.000000,0.000596,0.000485,89.983518,0.001082,
2161,2803,-2.14938963099335,3.42814216883232,-0.0144851670498269,0.000709,-0.014815,0.006644,0.007154,-0.614683,318.232850,23.799915,0.999608,0.991392,0.003771,0.442961,0.000028,0.000030,0.000009,0.000038,0.000020,49.135519,0.000059,
2326,2188,1.55344882946488,-9.99840936612759,0.0167404853270341,-0.000416,-0.016449,-0.004167,-0.011095,-0.744725,328.103941,22.400240,0.999041,0.981689,0.005300,0.400349,0.000381,0.000406,-0.000012,0.000411,0.000377,-67.957851,0.000788,
2251,3268,-0.273345792301225,13.525114117432,0.0231403876009608,0.001708,-0.014821,0.010410,0.039221,-0.605819,310.733141,24.555423,0.999444,0.992028,0.003636,0.474802,0.000020,0.000029,0.000017,0.000042,0.000007,52.520019,0.000053,
2446,2788,4.05112566409774,3.11509911970881,-0.0216681380011323,0.000518,-0.015455,0.006804,-0.007981,-0.642177,318.143998,23.918137,0.999480,0.988208,0.004218,0.500603,0.000032,0.000050,0.000009,0.000054,0.000028,68.051411,0.000083,
2431,2743,3.73396010220866,2.13375559487022,-0.0130804374388731,0.000649,-0.015900,0.010206,-0.014425,-0.653975,318.917353,23.801474,0.999585,0.990046,0.003910,0.444173,0.000040,0.000061,0.000016,0.000070,0.000031,61.782750,0.000104,
2026,2173,-4.98791135327008,-10.3220431395496,0.0162150644767962,-0.003051,-0.015974,0.002386,-0.151538,-0.697220,329.167307,24.067003,0.999242,0.987904,0.004485,0.328636,0.000422,0.000381,0.000087,0.000491,0.000312,38.239394,0.000810,
2461,2878,4.35956712234366,5.07638011661519,-0.0232417950735453,0.000745,-0.015247,0.009065,-0.006161,-0.602008,316.692708,24.309876,0.999370,0.991126,0.003804,0.485501,0.000021,0.000017,0.000022,0.000041,-0.000003,42.632212,0.000045,
2116,2563,-3.08913885655801,-1.79915365865698,-0.0184198232166182,-0.000165,-0.015433,0.007693,-0.035496,-0.648005,322.232777,23.688291,0.999185,0.987267,0.004618,0.419785,0.000070,0.000041,0.000016,0.000077,0.000035,23.900645,0.000114,
2146,2728,-2.46367936725116,1.79559129538004,-0.0156309774993701,0.000102,-0.015081,0.009852,-0.030276,-0.617737,319.461230,23.724647,0.999476,0.989794,0.004094,0.462107,0.000047,0.000017,-0.000004,0.000048,0.000017,-6.788248,0.000067,
2041,2203,-4.66577752467348,-9.66364759835427,0.00259059564746167,-0.002463,-0.014930,-0.000246,-0.117116,-0.637857,328.516313,23.957595,0.998282,0.982287,0.005502,0.409325,0.000359,0.000334,0.000086,0.000434,0.000259,40.818327,0.000701,
2146,2713,-2.46185208286465,1.47022467179893,-0.0236999104616302,0.000067,-0.015211,0.011029,-0.035486,-0.616948,319.631681,23.752403,0.999518,0.991141,0.003932,0.427356,0.000054,0.000017,-0.000003,0.000054,0.000017,-4.730159,0.000074,
2026,2143,-4.98380918846814,-10.9794716205102,0.0130596992360665,-0.003250,-0.015618,0.000772,-0.156128,-0.681049,329.618208,23.970052,0.998048,0.976976,0.006116,0.455902,0.000459,0.000439,0.000119,0.000569,0.000329,42.657506,0.000909,
2101,2503,-3.40549181508343,-3.10839194970336,-0.0113103155507588,-0.000461,-0.015313,0.006503,-0.045234,-0.632178,323.321704,23.692147,0.999258,0.988631,0.004211,0.444140,0.000095,0.000038,0.000020,0.000101,0.000031,17.620313,0.000138,
2476,2953,4.67298464070484,6.70686550497443,-0.00327799654996852,0.001061,-0.015553,0.007793,0.012608,-0.650261,315.687901,24.617544,0.999354,0.988643,0.004142,0.434585,0.000029,-0.000009,0.000030,0.000046,-0.000026,29.345106,0.000046,
2191,2953,-1.52216701087812,6.68780209741717,0.0113249615312156,0.000517,-0.015333,0.012528,-0.020847,-0.616319,315.878207,23.955197,0.999363,0.991499,0.003745,0.454280,0.000013,0.000043,0.000015,0.000049,0.000006,67.309388,0.000061,
2071,2338,-4.03191457508251,-6.71293161015242,0.00597346831244749,-0.001394,-0.015070,0.001364,-0.072785,-0.637991,326.251137,23.740424,0.998671,0.985728,0.004887,0.468901,0.000222,0.000130,0.000046,0.000241,0.000111,22.402256,0.000360,
2221,3088,-0.892904663026844,9.62020012060522,0.0218499819442854,0.001021,-0.014890,0.008746,0.013602,-0.622606,313.712191,24.225179,0.999427,0.992650,0.003439,0.412114,0.000015,0.000020,0.000004,0.000023,0.000012,60.025473,0.000035,
2281,2053,0.594044408287093,-12.9590365024888,0.0137703051971698,-0.001226,-0.018688,0.001538,-0.068317,-0.790844,330.230763,22.273316,0.998996,0.981697,0.005335,0.437271,0.000572,0.000664,0.000007,0.000664,0.000571,85.512517,0.001237,
2491,3013,4.98766189939923,8.01214045977979,0.00743843782703379,0.000953,-0.015636,0.011770,-0.007934,-0.636477,314.813382,24.912935,0.999617,0.992454,0.003498,0.420792,0.000030,0.000028,0.000017,0.000047,0.000012,43.369976,0.000062,
2101,2488,-3.40341873231274,-3.43641734668876,-0.0101367026722983,-0.000865,-0.015309,0.006146,-0.062783,-0.633952,323.556761,23.626243,0.999261,0.988427,0.004274,0.505999,0.000096,0.000039,0.000018,0.000101,0.000034,16.406125,0.000140,
2266,2023,0.272924916646325,-13.6179843766985,0.0244823674796635,-0.001547,-0.018023,-0.007664,-0.052318,-0.810721,330.837936,22.372095,0.998803,0.978597,0.006046,0.357163,0.000610,0.000704,0.000011,0.000705,0.000608,83.131308,0.001315,
2056,2368,-4.36387243404318,-6.05461300995021,-0.0120926991108377,-0.001344,-0.014460,-0.000091,-0.066108,-0.623444,325.704608,23.878131,0.998562,0.983397,0.005207,0.393788,0.000183,0.000103,0.000043,0.000202,0.000084,23.619167,0.000293,
2236,3208,-0.586480725261843,12.2219946948896,0.049043417926498,0.001326,-0.014874,0.009630,0.024489,-0.614302,311.951685,24.417784,0.999405,0.992389,0.003635,0.442956,0.000021,0.000027,0.000009,0.000033,0.000014,53.895479,0.000048,
2506,3103,5.29756795999314,9.96742648149247,0.0188425377220369,0.001611,-0.015198,0.007254,0.039487,-0.636785,313.524666,25.246340,0.999686,0.992174,0.003511,0.492515,0.000028,0.000047,0.000043,0.000081,-0.000006,51.198510,0.000091,
2296,2113,0.91087443409436,-11.6426456017621,0.0144830728560805,-0.001112,-0.017943,0.002539,-0.066299,-0.771048,329.257395,22.341578,0.998961,0.978897,0.005662,0.424119,0.000478,0.000579,0.000009,0.000580,0.000477,85.212238,0.001059,
2071,2368,-4.03676003069168,-6.05631463577958,-0.0019318469790619,-0.001062,-0.015274,0.002516,-0.060863,-0.631681,325.713491,23.768535,0.997416,0.979182,0.005889,0.444735,0.000192,0.000108,0.000042,0.000209,0.000091,22.601289,0.000308,
2026,2188,-4.9904164039743,-9.99301825643852,0.00860208052779399,-0.003190,-0.015248,-0.002376,-0.144692,-0.690113,328.869956,24.039647,0.999120,0.986061,0.004837,0.356370,0.000405,0.000366,0.000089,0.000477,0.000295,38.825651,0.000778,
2356,2353,2.17594996994191,-6.38520398504522,-0.000151892429471445,-0.000029,-0.015892,0.000643,-0.009854,-0.687226,325.297000,22.559853,0.999424,0.988176,0.004668,0.595635,0.000201,0.000146,0.000030,0.000214,0.000133,23.844460,0.000350,
2056,2308,-4.35415747709284,-7.36797534953558,0.00613248350072126,-0.001623,-0.014987,0.003634,-0.089564,-0.633137,326.799805,23.852163,0.999658,0.990639,0.004148,0.423352,0.000242,0.000179,0.000050,0.000270,0.000151,28.964097,0.000427,
2086,2458,-3.72491540692393,-4.09096106362844,-0.0082030909567834,-0.000768,-0.015665,0.009211,-0.066979,-0.629040,324.126261,23.694056,0.999335,0.988199,0.004438,0.475105,0.000111,0.000026,0.000020,0.000115,0.000022,12.401601,0.000147,
2416,2638,3.42744080259601,-0.155360189162693,-0.014114586749713,0.000082,-0.015944,0.008054,-0.032205,-0.671800,320.578553,23.501577,0.999399,0.988306,0.004245,0.385220,0.000060,0.000015,0.000020,0.000067,0.000007,21.158352,0.000082,
2371,2413,2.49143379047338,-5.07097965869531,0.000972730497153407,-0.000069,-0.016129,0.004540,-0.025699,-0.682444,324.323337,22.878539,0.999522,0.988592,0.004444,0.399281,0.000171,0.000136,0.000045,0.000201,0.000105,34.331045,0.000312,
2401,2578,3.11243334266294,-1.46493965268017,-0.0157180734586859,0.000080,-0.015844,0.004915,-0.020510,-0.662774,321.534699,23.291212,0.999297,0.987076,0.004502,0.431310,0.000076,0.000036,0.000032,0.000094,0.000018,29.266958,0.000120,
2446,2803,4.04832243570234,3.44280169283051,-0.0243356845664948,0.000898,-0.015333,0.006333,0.011249,-0.652489,317.895791,24.055955,0.999617,0.989659,0.003929,0.404803,0.000026,0.000041,0.000010,0.000046,0.000021,63.978400,0.000069,
2221,3118,-0.896819296419331,10.2705295154834,0.0341016238526208,0.001404,-0.014644,0.007069,0.036783,-0.609868,313.347520,24.276812,0.999600,0.991774,0.003684,0.408933,0.000012,0.000021,0.000004,0.000023,0.000010,70.975905,0.000034,
2026,2218,-4.99507548547584,-9.33575068478323,0.000679618308197405,-0.002785,-0.015020,0.000813,-0.134766,-0.668428,328.332017,24.000959,0.998399,0.980237,0.005683,0.402621,0.000361,0.000331,0.000081,0.000428,0.000264,39.751745,0.000699,
2086,2518,-3.7334354966273,-2.78221306746028,-0.00519808730763316,-0.000357,-0.015093,0.004999,-0.035767,-0.637274,323.213373,23.724257,0.999446,0.991157,0.003870,0.437141,0.000086,0.000030,0.000022,0.000093,0.000023,18.836363,0.000123,
2281,2098,0.585972775047669,-11.971169932253,0.014932054410508,-0.001467,-0.018090,-0.000352,-0.072801,-0.811426,329.511710,22.459891,0.998420,0.976483,0.006023,0.323062,0.000507,0.000592,0.000018,0.000596,0.000504,78.288183,0.001101,
2041,2218,-4.66806173135323,-9.3361166137582,0.00480532665255851,-0.002464,-0.015208,0.002922,-0.126024,-0.653935,328.285288,23.932008,0.997797,0.975769,0.006066,0.413765,0.000335,0.000326,0.000085,0.000416,0.000245,43.486946,0.000668,
2011,2158,-5.31393311335251,-10.6489169177059,0.0156037075858535,-0.003959,-0.016681,0.012563,-0.220820,-0.656645,329.426920,24.227219,0.998257,0.977716,0.006077,0.297292,0.000445,0.000405,0.000103,0.000530,0.000321,39.504159,0.000859,
2236,3163,-0.57991294689737,11.2467689150084,0.0373713634569413,0.001032,-0.015140,0.014066,-0.003537,-0.611799,312.562599,24.328409,0.999352,0.990482,0.003898,0.475192,0.000016,0.000033,0.000006,0.000035,0.000014,72.064512,0.000050,
2281,2068,0.592549700401523,-12.6299136358002,0.0221443135841923,-0.000672,-0.018487,0.001203,-0.041708,-0.801992,330.085535,22.407646,0.999054,0.982409,0.005170,0.322332,0.000551,0.000645,0.000012,0.000646,0.000550,82.873739,0.001198,
2191,2938,-1.51927445300784,6.36222791040812,0.00751180850789979,0.000929,-0.015369,0.010078,0.005744,-0.631331,316.117299,23.953855,0.999464,0.991826,0.003700,0.426694,0.000012,0.000051,0.000020,0.000059,0.000004,67.428116,0.000071,
2311,2128,1.23632099650732,-11.313021108448,0.0175612333983963,-0.001312,-0.017088,-0.006216,-0.045513,-0.779619,329.050410,22.416484,0.999163,0.983028,0.005213,0.286824,0.000464,0.000579,0.000002,0.000579,0.000464,89.197720,0.001045,
2131,2683,-2.78103553131568,0.81418435089271,-0.00406065171330283,0.000241,-0.014928,0.005460,-0.010288,-0.625254,320.369265,23.690617,0.999518,0.990787,0.003802,0.467988,0.000048,0.000019,0.000004,0.000049,0.000019,8.523218,0.000070,
2506,3118,5.29422549902363,10.2935765055377,0.023572905193646,0.001302,-0.015611,0.011246,0.009712,-0.632242,313.288169,25.362437,0.999554,0.991556,0.003685,0.440781,0.000023,0.000062,0.000043,0.000089,-0.000004,57.048943,0.000101,
2341,2278,1.86200156752217,-8.02578392523183,0.0044895312406652,-0.000891,-0.016833,0.004464,-0.062912,-0.725995,326.493780,22.556605,0.999024,0.981749,0.005256,0.420038,0.000259,0.000220,-0.000007,0.000260,0.000219,-9.525730,0.000480,
2056,2383,-4.3665650998428,-5.72643894671423,-0.0170204081122165,-0.001396,-0.014303,0.000852,-0.071111,-0.609188,325.416700,23.868306,0.999160,0.987681,0.004653,0.414203,0.000173,0.000085,0.000042,0.000190,0.000068,21.829495,0.000267,
2161,2788,-2.14728307401277,3.10233586595773,-0.0202435337513975,0.000671,-0.014790,0.006356,0.006297,-0.618327,318.427559,23.789958,0.999554,0.990243,0.004007,0.439391,0.000030,0.000031,0.000007,0.000037,0.000024,46.673808,0.000062,
2251,3298,-0.278543602023984,14.1751260592998,0.0229826262987558,0.001966,-0.014868,0.011090,0.048773,-0.623646,310.249295,24.623803,0.999390,0.991088,0.003672,0.432024,0.000013,0.000041,0.000014,0.000047,0.000007,67.298732,0.000059,
2146,2758,-2.46824532941116,2.44852379643324,-0.0133623815279407,0.000318,-0.015111,0.009383,-0.018926,-0.615064,319.004356,23.767419,0.999410,0.990217,0.003937,0.437835,0.000042,0.000018,-0.000002,0.000042,0.000018,-4.406376,0.000062,
2011,2113,-5.30706745128431,-11.6368906528327,0.021034835000421,-0.004490,-0.016567,0.002753,-0.218597,-0.721450,330.197168,24.138165,0.998293,0.978603,0.005969,0.348492,0.000525,0.000485,0.000133,0.000640,0.000370,40.752822,0.001022,
2206,3013,-1.2061513037679,7.99214872219767,0.0120369878156339,0.001132,-0.014940,0.011531,0.010283,-0.605866,314.891707,24.086986,0.999395,0.990557,0.003838,0.432573,0.000013,0.000029,0.000012,0.000035,0.000006,62.212671,0.000044,
2206,3043,-1.21082664311052,8.64269654098961,0.022886489637699,0.000885,-0.014953,0.011045,0.000407,-0.612900,314.483179,24.134429,0.999802,0.995014,0.003086,0.409641,0.000016,0.000022,0.000005,0.000025,0.000013,59.939334,0.000039,
2176,2863,-1.83324575427617,4.73281370187269,-0.0108383717642369,0.000920,-0.015049,0.006713,0.016298,-0.625697,317.244107,23.838265,0.999040,0.986819,0.004247,0.455453,0.000016,0.000045,0.000016,0.000052,0.000008,65.984366,0.000066,
2491,3028,4.9844797963133,8.33815290835159,0.00620669489870807,0.001008,-0.015559,0.012523,-0.008314,-0.635027,314.557005,24.958266,0.999731,0.993887,0.003285,0.435012,0.000030,0.000045,0.000016,0.000056,0.000020,56.955329,0.000078,
2476,2968,4.67048068036881,7.0334060528884,0.0027641887761547,0.000973,-0.015143,0.006241,0.014683,-0.630255,315.494870,24.726956,0.999423,0.989966,0.004029,0.400955,0.000034,0.000002,0.000036,0.000057,-0.000021,32.873558,0.000058,
2011,2173,-5.3155674404437,-10.3215382371744,0.0137950860069509,-0.003711,-0.016226,0.006109,-0.191899,-0.680326,329.200697,24.135711,0.998768,0.984968,0.005280,0.355695,0.000425,0.000390,0.000092,0.000501,0.000313,39.590783,0.000822,
2461,2893,4.35687155055227,5.4027418747341,-0.0162839347384534,0.000672,-0.015692,0.011121,-0.017449,-0.616697,316.494607,24.426368,0.999138,0.988991,0.004185,0.408249,0.000022,0.000003,0.000027,0.000042,-0.000016,35.359132,0.000042,
2176,2878,-1.83538849169101,5.05861407099081,-0.00102626535368699,0.000912,-0.015214,0.010471,0.004206,-0.621833,317.069885,23.896566,0.999532,0.992288,0.003514,0.412977,0.000016,0.000056,0.000016,0.000062,0.000011,70.977212,0.000078,
2266,2038,0.269657352546279,-13.2887409077219,0.0250361500217764,-0.001726,-0.018456,-0.001087,-0.082318,-0.810267,330.571492,22.407552,0.998957,0.980091,0.005600,0.351461,0.000588,0.000669,0.000013,0.000671,0.000586,80.981028,0.001258,
2161,2818,-2.15207517512306,3.75509010240989,-0.0108463051404328,0.000321,-0.014761,0.007021,-0.011793,-0.604187,318.000052,23.895424,0.999775,0.993365,0.003305,0.367844,0.000024,0.000039,0.000010,0.000044,0.000019,62.971278,0.000065,
2131,2668,-2.77722151378104,0.484574930158644,0.0150231739574451,0.000434,-0.015050,0.006773,-0.005361,-0.609540,320.777617,23.552909,0.999620,0.991369,0.003792,0.614976,0.000053,0.000021,0.000006,0.000054,0.000020,9.861744,0.000076,
2026,2203,-4.99341364928043,-9.6634458451508,-0.00463315312879331,-0.003188,-0.015103,-0.002310,-0.144777,-0.672792,328.518729,23.999686,0.998751,0.984188,0.005280,0.406873,0.000384,0.000341,0.000083,0.000449,0.000277,37.764703,0.000732,
2071,2383,-4.03913227576204,-5.72806693680613,0.001101926392721,-0.001095,-0.014977,0.006043,-0.072344,-0.611330,325.485078,23.835565,0.998398,0.982579,0.005340,0.396473,0.000181,0.000090,0.000045,0.000199,0.000072,22.294454,0.000280,
2296,2098,0.914021612155015,-11.9716179942975,0.020765584248295,-0.001058,-0.018288,0.003625,-0.067583,-0.785756,329.549752,22.391771,0.998976,0.979890,0.005587,0.325786,0.000503,0.000598,0.000007,0.000599,0.000503,86.035270,0.001103,
2116,2593,-3.0934326122574,-1.14652672146595,-0.0101383022010282,-0.000236,-0.015084,0.006802,-0.035966,-0.615223,321.816193,23.624874,0.999551,0.990881,0.003995,0.523965,0.000054,0.000031,0.000014,0.000061,0.000024,24.971400,0.000088,
2236,3268,-0.598536452550665,13.5231605241294,0.0274281563147838,0.001585,-0.014852,0.011013,0.031952,-0.612290,310.794521,24.452023,0.999434,0.993043,0.003472,0.489568,0.000016,0.000029,0.000014,0.000038,0.000007,57.615438,0.000048,
2386,2503,2.80084029511707,-3.10334298853048,-0.00140285439442778,0.000008,-0.015838,0.007955,-0.034509,-0.651700,322.844522,23.137976,0.999611,0.989255,0.004108,0.394049,0.000120,0.000052,0.000043,0.000141,0.000031,25.983720,0.000183,
2326,2203,1.55023263141221,-9.66908452380192,0.0144517086060318,-0.000529,-0.016617,-0.002191,-0.023134,-0.743789,327.830599,22.473174,0.999107,0.981167,0.005511,0.365643,0.000354,0.000372,-0.000011,0.000377,0.000349,-64.392576,0.000727,
2116,2608,-3.0958199978409,-0.81925955482123,-0.0153726997896229,0.000003,-0.015196,0.004815,-0.019181,-0.633234,321.546428,23.640486,0.999249,0.987558,0.004520,0.494761,0.000057,0.000025,0.000012,0.000061,0.000021,18.459963,0.000085,
2431,2758,3.73098826828594,2.46075377539807,-0.0137864235821894,0.000583,-0.015611,0.008665,-0.011660,-0.649127,318.669638,23.860176,0.999561,0.988541,0.004063,0.440602,0.000046,0.000065,0.000017,0.000075,0.000035,59.509332,0.000113,
2371,2428,2.48804271015522,-4.74381162419651,-0.00671940199794108,-0.000187,-0.015732,0.002229,-0.022731,-0.654392,324.019543,22.757031,0.999661,0.992216,0.004099,0.591697,0.000163,0.000123,0.000043,0.000190,0.000095,32.647208,0.000291,
2071,2443,-4.04760997523876,-4.41919168975753,0.00195851803687219,-0.000445,-0.015198,0.005115,-0.039924,-0.639972,324.557574,23.776949,0.999139,0.987203,0.004569,0.419661,0.000125,0.000022,0.000037,0.000137,0.000010,18.102251,0.000164,
2296,2128,0.908631047917606,-11.3131904071536,0.0146295432495549,-0.001185,-0.016871,-0.004671,-0.044963,-0.760212,329.038040,22.414955,0.999016,0.980433,0.005454,0.394465,0.000458,0.000561,0.000008,0.000562,0.000458,85.308527,0.001021,
2356,2368,2.17220042454071,-6.05483055699223,-7.888480922702E-06,-0.000567,-0.015800,0.005442,-0.051331,-0.643400,325.012575,22.769919,0.999135,0.984435,0.004933,0.470209,0.000188,0.000144,0.000033,0.000205,0.000127,28.086462,0.000335,
2041,2233,-4.67001852070715,-9.00758531014505,0.00576945439513565,-0.002193,-0.015659,0.003741,-0.115999,-0.655378,328.062044,23.975022,0.998855,0.981854,0.005393,0.364155,0.000314,0.000291,0.000073,0.000376,0.000229,40.441585,0.000611,
2221,3133,-0.899482284452805,10.5949436673459,0.0338958958016065,0.001569,-0.014584,0.009603,0.036257,-0.603087,313.100412,24.198857,0.999601,0.992741,0.003555,0.511662,0.000008,0.000025,0.000004,0.000026,0.000008,77.857855,0.000035,
2191,2968,-1.52420677553667,7.01327666864386,0.0109586774537433,0.000914,-0.015389,0.010120,0.004948,-0.626946,315.656558,23.947517,0.999301,0.990786,0.003859,0.465348,0.000015,0.000038,0.000017,0.000047,0.000006,62.047285,0.000059,
2056,2323,-4.35530429070869,-7.04050462093917,0.00940682270328352,-0.001065,-0.014547,-0.002256,-0.047233,-0.630181,326.627791,23.847457,0.999230,0.984766,0.004808,0.427316,0.000225,0.000133,0.000045,0.000244,0.000115,22.329890,0.000366,
2086,2473,-3.72770428975817,-3.76286647187165,-0.0128511695813245,-0.000964,-0.015517,0.008454,-0.073770,-0.627682,323.838324,23.724477,0.999337,0.988606,0.004418,0.446570,0.000106,0.000027,0.000021,0.000111,0.000022,13.970784,0.000143,
2086,2533,-3.73615223481179,-2.45493826165602,-0.00426218451713112,-0.000546,-0.015230,0.008708,-0.055186,-0.616729,322.959226,23.730887,0.999617,0.992112,0.003779,0.451051,0.000077,0.000032,0.000023,0.000087,0.000023,22.823005,0.000116,
2101,2533,-3.41112803232435,-2.45295843792879,-0.0256684577790338,-0.000480,-0.015180,0.005601,-0.043429,-0.629947,322.718698,23.676672,0.999454,0.990922,0.003975,0.466923,0.000078,0.000034,0.000023,0.000088,0.000024,23.586573,0.000118,
2491,3043,4.98144090031189,8.66479696049125,0.0051070015030632,0.001152,-0.015552,0.012730,-0.002494,-0.636477,314.307555,25.069825,0.999734,0.992963,0.003541,0.380098,0.000029,0.000044,0.000026,0.000064,0.000009,53.154894,0.000080,
2011,2128,-5.30888530839162,-11.3058505760244,0.00804942401083508,-0.003660,-0.015646,-0.002106,-0.167132,-0.679631,329.898971,24.177579,0.998206,0.977177,0.006211,0.342104,0.000490,0.000462,0.000129,0.000606,0.000346,41.933453,0.000963,
2026,2233,-4.9970428807308,-9.0065870607861,0.00117508382419373,-0.002406,-0.015327,0.003561,-0.125026,-0.654587,328.104246,24.081562,0.999241,0.984466,0.004992,0.328448,0.000342,0.000291,0.000066,0.000388,0.000245,34.400348,0.000638,
2011,2188,-5.31935258070926,-9.98922197523943,-0.0118882335349326,-0.003948,-0.015599,0.003505,-0.195581,-0.666342,328.741621,24.211450,0.999551,0.991749,0.004203,0.285687,0.000408,0.000373,0.000090,0.000482,0.000299,39.620716,0.000788,
2176,2908,-1.84065376843551,5.70992006615224,-0.00115391839915446,0.000606,-0.015112,0.008427,-0.003469,-0.614428,316.573044,23.853067,0.999524,0.991874,0.003681,0.487646,0.000015,0.000045,0.000021,0.000056,0.000005,63.032094,0.000067,
2236,3223,-0.589853387118673,12.5475712130994,0.0454881935061735,0.001085,-0.015000,0.012582,0.003789,-0.605264,311.655304,24.447984,0.999407,0.991807,0.003790,0.441418,0.000021,0.000037,0.000010,0.000042,0.000016,63.210647,0.000060,
2146,2743,-2.46536225856096,2.12156615644145,-0.0131437573236894,0.000637,-0.015142,0.008394,-0.001280,-0.631037,319.267660,23.724037,0.999496,0.989970,0.004104,0.457475,0.000042,0.000018,-0.000002,0.000042,0.000018,-5.732455,0.000062,
2221,3193,-0.90923663859795,11.8955995053816,0.0484053733729297,0.001460,-0.014725,0.010914,0.027028,-0.599289,312.230935,24.315487,0.999377,0.992438,0.003605,0.469197,0.000015,0.000027,0.000009,0.000032,0.000011,62.003784,0.000044,
2506,3133,5.29108849861366,10.6194387441739,0.0200873809348536,0.001449,-0.015414,0.010038,0.021248,-0.628492,313.024309,25.405455,0.999536,0.991184,0.003730,0.461547,0.000028,0.000058,0.000039,0.000084,0.000001,55.617587,0.000098,
2146,2773,-2.47081465912693,2.7753951929211,-0.0176301835184631,0.000442,-0.015079,0.008269,-0.009820,-0.616149,318.734007,23.792644,0.999649,0.993550,0.003312,0.419641,0.000041,0.000024,0.000002,0.000041,0.000024,8.056384,0.000066,
2416,2653,3.42496339593334,0.171258046996826,-0.00940916520596602,0.000674,-0.016416,0.014279,-0.027959,-0.642673,320.378185,23.514052,0.999472,0.988405,0.004306,0.450309,0.000051,0.000016,0.000018,0.000059,0.000008,23.109458,0.000073,
2266,1993,0.277593929926724,-14.2771737511191,0.0236188678945268,-0.001620,-0.018955,-0.000777,-0.078686,-0.817734,331.286736,22.262810,0.998886,0.965195,0.007352,0.401255,0.000667,0.000702,-0.000024,0.000714,0.000656,-63.265454,0.001370,
2311,2143,1.23421790582107,-10.9847025791725,0.0243888037571196,-0.000730,-0.017267,-0.000142,-0.039558,-0.749031,328.871507,22.443606,0.999289,0.983661,0.005186,0.325324,0.000443,0.000521,0.000005,0.000521,0.000443,85.989245,0.000965,
2281,2083,0.589372837387163,-12.3011655948115,0.0188199937751961,-0.001078,-0.018385,-0.000868,-0.053353,-0.821541,329.805304,22.391809,0.999019,0.981006,0.005386,0.349599,0.000530,0.000623,0.000015,0.000625,0.000528,81.000891,0.001154,
2191,2983,-1.52661570488965,7.33927538866325,0.0125579692229394,0.000972,-0.015012,0.010099,0.007814,-0.612669,315.427980,23.980952,0.999358,0.991187,0.003789,0.459895,0.000015,0.000035,0.000018,0.000046,0.000004,59.410608,0.000056,
2056,2398,-4.3683306822202,-5.4017630343406,-0.0027135488334693,-0.001469,-0.015011,0.005769,-0.088552,-0.624505,325.277861,23.757617,0.998877,0.985459,0.004880,0.505551,0.000157,0.000065,0.000035,0.000169,0.000054,18.496640,0.000232,
2401,2593,3.10951034722301,-1.13819050373604,-0.012443131060877,0.000050,-0.015915,0.007874,-0.032693,-0.678475,321.306454,23.330693,0.999434,0.988827,0.004239,0.422212,0.000075,0.000027,0.000033,0.000091,0.000011,26.777181,0.000112,
2041,2293,-4.67818436140846,-7.69717088790493,0.0139078278727993,-0.001816,-0.015384,0.005458,-0.103413,-0.633123,327.178135,23.874135,0.999803,0.993094,0.003911,0.465770,0.000267,0.000219,0.000049,0.000298,0.000188,31.782418,0.000490,
2101,2548,-3.41392866651183,-2.12629109582149,-0.0294421666758922,-0.000478,-0.015125,0.008502,-0.051789,-0.608681,322.436572,23.591675,0.999634,0.993506,0.003638,0.575398,0.000078,0.000031,0.000027,0.000091,0.000019,24.589498,0.000117,
2101,2518,-3.40802724118056,-2.78059515458713,-0.0167534728855685,-0.000266,-0.015424,0.006554,-0.036443,-0.637239,323.042518,23.710567,0.999583,0.992274,0.003685,0.423313,0.000086,0.000033,0.000021,0.000093,0.000026,19.141701,0.000125,
2026,2278,-5.00300595728381,-8.02407469612177,0.0061247099209254,-0.002088,-0.015404,0.003019,-0.108968,-0.675146,327.438905,23.996781,0.998201,0.983059,0.005407,0.370011,0.000292,0.000233,0.000041,0.000313,0.000212,27.175099,0.000528,
2011,2203,-5.31980006676219,-9.66274406467243,-0.00638292381131578,-0.002845,-0.015034,-0.001220,-0.131957,-0.638172,328.610438,24.075155,0.999538,0.991795,0.004179,0.440267,0.000388,0.000342,0.000078,0.000446,0.000284,36.831260,0.000736,
2461,2908,4.35490294132384,5.72816945272935,-0.00990288016964769,0.000908,-0.015426,0.007630,0.006580,-0.634753,316.327506,24.459240,0.999016,0.987181,0.004482,0.411353,0.000026,-0.000015,0.000032,0.000043,-0.000032,28.307024,0.000045,
2281,2113,0.583445338466905,-11.6424770656281,0.0140654626067658,-0.001349,-0.017555,-0.001670,-0.062826,-0.786916,329.273091,22.433484,0.998731,0.978207,0.005728,0.404706,0.000483,0.000574,0.000020,0.000578,0.000479,78.365192,0.001058,
2116,2668,-3.10686784774493,0.489620878749207,-0.030551880154519,-0.000232,-0.015050,0.007226,-0.037063,-0.625766,320.429352,23.708552,0.999513,0.990855,0.003809,0.450363,0.000044,0.000014,0.000007,0.000045,0.000012,12.493396,0.000060,
2131,2698,-2.78438161741636,1.14207830500747,-0.0158593881709521,0.000301,-0.015033,0.008212,-0.015813,-0.617544,320.021592,23.714436,0.999494,0.989811,0.003946,0.458209,0.000048,0.000018,0.000005,0.000049,0.000018,8.961320,0.000069,
2161,2893,-2.16447201899951,5.38394165806852,-0.00757962231153897,0.000523,-0.015332,0.010536,-0.013521,-0.637564,316.806452,23.866584,0.999590,0.992077,0.003634,0.412094,0.000012,0.000055,0.000018,0.000061,0.000006,69.988332,0.000074,
2476,2983,4.66679401264424,7.36022857045132,-0.00317103568511357,0.000933,-0.015273,0.007478,0.008103,-0.627949,315.192761,24.801443,0.999308,0.989174,0.004181,0.384897,0.000035,0.000006,0.000035,0.000058,-0.000017,33.876119,0.000059,
2206,3118,-1.22226331440167,10.2685976527488,0.0371687038222603,0.001470,-0.014986,0.010410,0.029369,-0.619629,313.406868,24.176109,0.999547,0.992323,0.003625,0.439828,0.000011,0.000023,0.000004,0.000024,0.000010,73.431968,0.000035,
2116,2623,-3.09884088911626,-0.490753674036668,-0.0270325855111651,0.000148,-0.014870,0.004699,-0.012019,-0.607906,321.212678,23.677210,0.999123,0.984413,0.004947,0.487783,0.000056,0.000029,0.000010,0.000059,0.000026,17.437308,0.000087,
2221,3208,-0.911765436571198,12.221206065595,0.050216507556911,0.001325,-0.014388,0.009117,0.026710,-0.583211,311.999855,24.368157,0.999230,0.991999,0.003768,0.450294,0.000016,0.000027,0.000011,0.000033,0.000009,59.187195,0.000045,
2266,2053,0.266390667978044,-12.9594073847133,0.0225455611793564,-0.001885,-0.018544,0.002720,-0.102207,-0.787221,330.289690,22.400100,0.998814,0.978715,0.005666,0.411042,0.000567,0.000658,0.000020,0.000662,0.000563,78.168883,0.001226,
2506,3148,5.28847734175114,10.9447982285473,0.028846551707602,0.001342,-0.015509,0.011868,0.009171,-0.635402,312.839657,25.491575,0.999523,0.990236,0.003828,0.428251,0.000028,0.000041,0.000034,0.000069,0.000000,50.420347,0.000080,
2041,2248,-4.6722000423544,-8.68002870879905,0.000587241371647451,-0.002126,-0.015336,-0.001092,-0.099454,-0.660892,327.794826,23.875278,0.998890,0.983917,0.005085,0.453287,0.000291,0.000283,0.000059,0.000346,0.000228,43.238141,0.000578,
2206,3058,-1.21336459806774,8.96781606528974,0.0256700261886635,0.000939,-0.015137,0.013601,-0.005225,-0.607146,314.256065,24.122485,0.999755,0.994397,0.003141,0.443146,0.000018,0.000015,0.000004,0.000021,0.000012,34.577445,0.000033,
2431,2773,3.72814063226051,2.78773077556656,-0.0148756890356481,0.000675,-0.015359,0.007157,-0.001726,-0.630112,318.425755,23.904336,0.999515,0.988419,0.004208,0.465435,0.000043,0.000055,0.000017,0.000067,0.000031,54.553003,0.000100,
2341,2293,1.85947195434335,-7.69628878378716,0.00279736416479182,-0.000581,-0.016258,0.003139,-0.043878,-0.690547,326.255611,22.649901,0.999025,0.984209,0.004959,0.401224,0.000239,0.000211,-0.000003,0.000239,0.000211,-6.044393,0.000451,
2446,2818,4.04565307375026,3.76837217621173,-0.0208023463268319,0.000823,-0.014820,0.005020,0.012974,-0.620131,317.682692,24.007113,0.999533,0.989606,0.004034,0.538041,0.000027,0.000029,0.000012,0.000039,0.000016,47.498817,0.000057,
2071,2398,-4.04155395674399,-5.40062222299998,-0.00352186531097232,-0.001035,-0.014938,0.004229,-0.064423,-0.607106,325.212843,23.776642,0.998948,0.984028,0.005097,0.458088,0.000165,0.000071,0.000039,0.000179,0.000058,19.847323,0.000246,
2086,2488,-3.72991121135782,-3.43623137082342,-0.0116745960030471,-0.000983,-0.015306,0.007185,-0.070917,-0.619596,323.608987,23.673356,0.999316,0.989175,0.004261,0.505781,0.000099,0.000033,0.000022,0.000106,0.000026,16.905850,0.000140,
2356,2383,2.16898626418796,-5.72539243929651,-0.00298629316563392,-0.000623,-0.016021,0.006491,-0.057660,-0.655142,324.738006,22.924729,0.999331,0.981990,0.005081,0.344210,0.000183,0.000140,0.000036,0.000204,0.000119,29.511801,0.000327,
2236,3283,-0.601815909303127,13.8491435888353,0.0230338373478958,0.001398,-0.014621,0.012515,0.018605,-0.593511,310.497820,24.522908,0.999318,0.992867,0.003527,0.456982,0.000009,0.000036,0.000013,0.000041,0.000003,67.871749,0.000050,
2491,3058,4.97947705667108,8.98933177002175,0.0152720918906653,0.001235,-0.015547,0.010782,0.008853,-0.637889,314.159027,25.064214,0.999697,0.991241,0.003884,0.442096,0.000032,0.000044,0.000030,0.000068,0.000008,50.779521,0.000084,
2011,2323,-5.33608553879408,-7.04020178152248,0.00974213024989012,-0.002326,-0.014934,0.004390,-0.123378,-0.631209,326.824760,24.064607,0.998989,0.984341,0.005035,0.379415,0.000255,0.000088,-0.000005,0.000255,0.000088,-1.783054,0.000356,
2296,2143,0.905904152646148,-10.9820753583658,0.0143196647898662,-0.000813,-0.016996,-0.000057,-0.043524,-0.738021,328.794000,22.629018,0.999320,0.981890,0.005333,0.235517,0.000436,0.000504,0.000013,0.000506,0.000433,79.213533,0.000940,
2416,2668,3.42187327364882,0.499301396555396,-0.0133273505737179,0.000387,-0.015814,0.008524,-0.019883,-0.661640,320.109101,23.637719,0.999448,0.988017,0.004412,0.355888,0.000046,0.000022,0.000016,0.000054,0.000014,26.530468,0.000072,
2221,3148,-0.902213587022874,10.9204183668384,0.0393245604716981,0.001235,-0.014677,0.011537,0.014657,-0.591695,312.878767,24.252193,0.999559,0.992737,0.003493,0.487259,0.000010,0.000027,0.000005,0.000028,0.000008,74.987418,0.000038,
2236,3238,-0.592526042602071,12.8721135220687,0.0423610062104558,0.001258,-0.015095,0.011952,0.013788,-0.615097,311.393660,24.408233,0.999586,0.993695,0.003350,0.491236,0.000021,0.000032,0.000010,0.000038,0.000015,58.503557,0.000054,
2506,3163,5.28528040356082,11.2700888625295,0.0271689454357329,0.001179,-0.015388,0.009534,0.010716,-0.645454,312.581136,25.514471,0.999616,0.991484,0.003589,0.455411,0.000031,0.000045,0.000038,0.000077,-0.000001,50.292684,0.000089,
2281,2128,0.581514937608066,-11.3140163660328,0.0230088540079691,-0.001130,-0.017332,-0.000028,-0.058185,-0.738075,329.110417,22.473154,0.998619,0.977916,0.005607,0.444278,0.000462,0.000555,0.000019,0.000559,0.000458,79.102151,0.001019,
2296,2173,0.899980609370733,-10.3263033922109,0.00387807397851248,-0.000858,-0.016807,-0.004201,-0.031578,-0.751339,328.236909,22.437431,0.999433,0.981268,0.005356,0.479764,0.000386,0.000423,0.000010,0.000426,0.000384,75.882816,0.000810,
2326,2218,1.54725805261887,-9.3408927388278,0.0156090952312979,-0.000502,-0.016886,0.001981,-0.036364,-0.720686,327.585093,22.461905,0.998802,0.978472,0.005771,0.436837,0.000334,0.000333,-0.000007,0.000340,0.000327,-43.631985,0.000667,
2026,2248,-4.99920303940055,-8.67979775027094,0.00113847474375461,-0.002456,-0.015197,0.002119,-0.123317,-0.665304,327.865365,23.969755,0.999288,0.985847,0.004750,0.422048,0.000314,0.000284,0.000050,0.000351,0.000247,36.746695,0.000602,
2056,2413,-4.37046168815577,-5.07406183381568,-0.00243692626423808,-0.001379,-0.014994,0.005039,-0.082322,-0.628676,325.044452,23.782183,0.998265,0.982084,0.005393,0.472971,0.000144,0.000041,0.000031,0.000153,0.000033,15.452206,0.000198,
2086,2548,-3.73884053303117,-2.12799952578237,-0.012564535421177,-0.000476,-0.015137,0.006866,-0.046630,-0.622713,322.656362,23.655890,0.999414,0.990920,0.003999,0.520536,0.000078,0.000029,0.000027,0.000090,0.000017,24.087140,0.000115,
2476,2998,4.66429748864194,7.6850821375101,0.00569609927464398,0.001157,-0.015483,0.012482,-0.000780,-0.634726,315.013253,24.808841,0.999324,0.989004,0.004083,0.426373,0.000035,0.000015,0.000032,0.000059,-0.000009,36.537867,0.000064,
2386,2518,2.79780587947822,-2.77603313338724,-0.00652663113970675,-0.000134,-0.015241,0.002902,-0.022640,-0.632733,322.570375,23.094560,0.999482,0.988062,0.004412,0.500973,0.000107,0.000048,0.000041,0.000127,0.000027,27.192829,0.000165,
2131,2743,-2.79150473176048,2.12089372834247,-0.0140590295003449,0.000500,-0.015373,0.009480,-0.010603,-0.640399,319.312099,23.718249,0.999428,0.989706,0.004086,0.448904,0.000037,0.000014,0.000002,0.000037,0.000013,4.246213,0.000053,
2041,2263,-4.67422307756341,-8.35235423698998,0.0049226945150167,-0.002081,-0.015494,0.000507,-0.101873,-0.670394,327.587439,23.893023,0.998978,0.985729,0.004917,0.420519,0.000275,0.000255,0.000057,0.000323,0.000207,39.960221,0.000534,
2056,2338,-4.35832492980268,-6.71142696353616,-0.00130547702480044,-0.001148,-0.014378,-0.002224,-0.051082,-0.621938,326.292942,23.851633,0.998964,0.984833,0.004877,0.428417,0.000210,0.000116,0.000045,0.000228,0.000098,21.833765,0.000335,
2371,2443,2.48526610805804,-4.415644597725,0.0039918110279018,-0.000397,-0.016328,0.008977,-0.056571,-0.668549,323.831674,22.947521,0.999139,0.986877,0.004742,0.429248,0.000155,0.000106,0.000044,0.000181,0.000080,30.508772,0.000267,
2266,2008,0.275473942016855,-13.9482804778297,0.0301604971961069,-0.001737,-0.018822,-0.003180,-0.076078,-0.821206,331.102824,22.327222,0.999068,0.982774,0.005385,0.362236,0.000639,0.000710,-0.000008,0.000711,0.000638,-83.674077,0.001350,
2026,2293,-5.00621185980883,-7.69482556381903,0.00217651674711306,-0.002861,-0.014683,0.002721,-0.143490,-0.616036,327.129720,24.015958,0.998170,0.982893,0.005442,0.402341,0.000290,0.000218,0.000031,0.000301,0.000207,20.255581,0.000510,
2071,2458,-4.05001489591492,-4.09250258572595,-0.000858674808341675,-0.000424,-0.015428,0.004115,-0.036214,-0.666348,324.296305,23.717122,0.999449,0.989136,0.004336,0.451363,0.000113,0.000020,0.000026,0.000120,0.000014,14.444076,0.000147,
2071,2413,-4.04359400932854,-5.0739675515445,-0.000624350225052694,-0.000819,-0.015220,0.006318,-0.060536,-0.623500,324.999417,23.742960,0.998755,0.984082,0.004977,0.473825,0.000151,0.000047,0.000035,0.000162,0.000037,16.802640,0.000211,
2041,2308,-4.68082353888669,-7.36742735302713,0.00112358234440535,-0.001741,-0.014580,0.000395,-0.085668,-0.619691,326.847483,23.900861,0.999740,0.990969,0.004261,0.447229,0.000250,0.000164,0.000034,0.000262,0.000153,19.069336,0.000420,
2191,3043,-1.53591520723563,8.64165670592027,0.0275636867713729,0.000929,-0.015159,0.009476,0.007798,-0.616640,314.574449,24.122494,0.999702,0.994275,0.003325,0.368911,0.000015,0.000019,0.000010,0.000027,0.000007,51.865337,0.000036,
2341,2308,1.85782867442121,-7.36938632947648,0.0170523936633344,-0.000040,-0.017085,0.009229,-0.040588,-0.679178,326.135641,22.694765,0.998396,0.979892,0.005439,0.405769,0.000221,0.000186,0.000006,0.000222,0.000185,9.211916,0.000408,
2011,2218,-5.32138846896492,-9.33498450312641,0.00179239557513711,-0.002602,-0.015032,0.001220,-0.127403,-0.651068,328.442075,24.129000,0.999005,0.986634,0.004926,0.363766,0.000363,0.000325,0.000071,0.000418,0.000270,37.588936,0.000693,
2236,3298,-0.605238664670846,14.1743998392367,0.0151278113806939,0.001289,-0.014679,0.013617,0.009935,-0.598939,310.176778,24.536324,0.999345,0.992511,0.003537,0.457570,0.000003,0.000045,0.000010,0.000047,0.000001,76.796483,0.000055,
2236,3253,-0.59532013111733,13.1976346441572,0.0320677007783843,0.001613,-0.014781,0.008392,0.041794,-0.613347,311.089358,24.411348,0.999522,0.993590,0.003337,0.509652,0.000018,0.000025,0.000015,0.000036,0.000007,51.035813,0.000046,
2491,3073,4.97617296778687,9.31470173121363,0.0129789819690131,0.001097,-0.015559,0.009664,0.006721,-0.652958,313.892175,25.071890,0.999623,0.990679,0.003972,0.477099,0.000033,0.000050,0.000025,0.000068,0.000015,54.534100,0.000088,
2176,2923,-1.84370085421313,6.03691475878486,-0.00339388857247513,0.000518,-0.014862,0.012229,-0.019198,-0.593578,316.293717,23.928511,0.998957,0.986589,0.004543,0.444767,0.000016,0.000050,0.000022,0.000061,0.000005,63.599121,0.000073,
2281,2158,0.575780518026793,-10.6547528383449,0.0162539016945402,-0.000977,-0.017043,0.000113,-0.051577,-0.724035,328.576902,22.599182,0.999512,0.982164,0.005270,0.393971,0.000410,0.000453,0.000023,0.000463,0.000401,66.787483,0.000865,
2146,2788,-2.4733771827514,3.10125606728699,-0.019498919081343,0.000513,-0.015206,0.008675,-0.007846,-0.624029,318.476999,23.755524,0.999613,0.992273,0.003562,0.456817,0.000036,0.000027,0.000003,0.000036,0.000026,15.613838,0.000063,
2146,2818,-2.47851375012517,3.75404502634871,-0.0139682928420939,0.000134,-0.014924,0.010928,-0.032005,-0.597609,318.011203,23.821846,0.999576,0.992441,0.003566,0.432270,0.000029,0.000036,0.000007,0.000040,0.000024,57.577480,0.000065,
2191,2998,-1.5294895418089,7.66502466429085,0.0117831604500225,0.000940,-0.015276,0.013144,-0.003286,-0.611265,315.165765,23.992161,0.999457,0.990992,0.003870,0.463750,0.000013,0.000032,0.000018,0.000043,0.000003,58.854665,0.000051,
2401,2608,3.10724856778728,-0.810161953209317,-0.0131572007447858,0.000430,-0.015225,0.003623,0.000475,-0.638237,321.089320,23.401503,0.999443,0.988949,0.004164,0.437966,0.000067,0.000021,0.000031,0.000082,0.000005,26.544344,0.000098,
2176,2893,-1.83722575993479,5.38329237962178,0.00917524035656925,0.000721,-0.014938,0.007472,0.004810,-0.621823,316.912082,23.861269,0.999783,0.995171,0.003157,0.460046,0.000013,0.000053,0.000018,0.000060,0.000006,68.702265,0.000073,
2206,3073,-1.21548251584133,9.29292771610891,0.0288464701096132,0.001049,-0.015086,0.011264,0.007256,-0.612782,314.050284,24.127252,0.999647,0.993027,0.003386,0.448521,0.000016,0.000021,0.000002,0.000022,0.000015,75.356802,0.000037,
2311,2158,1.23130598610694,-10.657308610774,0.0263908206793531,-0.000749,-0.017873,0.003939,-0.054561,-0.759498,328.632222,22.380318,0.999317,0.985396,0.005084,0.413188,0.000416,0.000470,0.000004,0.000471,0.000416,85.379281,0.000887,
2506,3178,5.28327264800438,11.5955574230478,0.0366471768298311,0.001511,-0.015397,0.010142,0.023679,-0.633826,312.427335,25.602330,0.999653,0.992154,0.003526,0.438903,0.000030,0.000047,0.000040,0.000079,-0.000002,51.136669,0.000090,
2101,2563,-3.41568467274852,-1.79943858335541,-0.0219597029306442,-0.000340,-0.015622,0.008285,-0.044993,-0.647381,322.263192,23.687513,0.999269,0.989016,0.004282,0.442793,0.000072,0.000039,0.000021,0.000083,0.000029,26.044573,0.000116,
2086,2503,-3.73182788310752,-3.10885461566659,-0.0112927862537049,-0.000641,-0.015118,0.006148,-0.052153,-0.633628,323.388511,23.709535,0.999157,0.989408,0.004103,0.455822,0.000096,0.000034,0.000022,0.000103,0.000027,17.824871,0.000137,
2416,2683,3.41924282532404,0.825848559580081,-0.0117407916876004,0.000519,-0.015429,0.007871,-0.011250,-0.646796,319.887041,23.640742,0.999425,0.985973,0.004707,0.415845,0.000042,0.000034,0.000016,0.000055,0.000021,37.569251,0.000078,
2011,2233,-5.32399407437281,-9.00705559075289,0.00592922239320615,-0.002967,-0.015498,0.006457,-0.158507,-0.647466,328.204613,24.144477,0.999236,0.983832,0.005055,0.342479,0.000344,0.000282,0.000056,0.000377,0.000249,30.346743,0.000630,
2026,2263,-5.00113163469551,-8.35037954934617,0.000842137878692029,-0.002213,-0.014866,0.001112,-0.109323,-0.655735,327.634964,24.080081,0.998786,0.982193,0.005150,0.313890,0.000299,0.000254,0.000047,0.000329,0.000225,32.236092,0.000557,
2266,2083,0.260897747237056,-12.2985929520713,0.00839442964729642,-0.001420,-0.017448,-0.002569,-0.063052,-0.774025,329.727592,22.529925,0.999340,0.982258,0.005188,0.352490,0.000529,0.000617,0.000028,0.000625,0.000521,73.749542,0.001148,
2431,2788,3.72516589045425,3.11509530896502,-0.0150596847754514,0.000595,-0.015127,0.005965,-0.000876,-0.616394,318.180076,24.001100,0.999494,0.989362,0.004115,0.432503,0.000037,0.000049,0.000011,0.000056,0.000030,58.495267,0.000087,
2281,2143,0.578512159900956,-10.9831083080673,0.0215385444137723,-0.001116,-0.017246,0.002804,-0.066953,-0.722380,328.846747,22.661574,0.999226,0.981456,0.005333,0.302489,0.000437,0.000497,0.000022,0.000504,0.000430,71.736174,0.000935,
2296,2158,0.903174897682913,-10.6545936501325,0.0110734425019245,-0.000721,-0.016858,-0.001689,-0.033732,-0.744129,328.535914,22.513818,0.999395,0.982679,0.005261,0.377511,0.000407,0.000459,0.000012,0.000462,0.000404,77.263076,0.000866,
2251,2008,-0.0547625998845334,-13.9457182586992,0.00390486306685034,-0.002458,-0.019627,-0.003000,-0.109982,-0.869888,330.874470,22.378107,0.999419,0.987524,0.004849,0.368031,0.000643,0.000703,-0.000008,0.000704,0.000642,-82.323714,0.001347,
2461,2923,4.3511884083943,6.0549982352799,-0.0108063468584305,0.000505,-0.015346,0.010217,-0.021607,-0.623926,316.046183,24.543925,0.999351,0.989166,0.004174,0.391215,0.000028,-0.000017,0.000031,0.000044,-0.000033,27.129456,0.000046,
2356,2398,2.16682946350594,-5.3990099788522,0.00266323152573023,-0.000493,-0.015992,0.005130,-0.046899,-0.658002,324.553797,22.878851,0.999527,0.986688,0.004604,0.427641,0.000176,0.000140,0.000041,0.000203,0.000113,33.200520,0.000321,
2101,2593,-3.41974791562753,-1.14634483520554,-0.0104562875661713,-0.000331,-0.015064,0.008943,-0.046319,-0.610561,321.872347,23.690602,0.999228,0.988203,0.004357,0.480298,0.000054,0.000031,0.000018,0.000064,0.000022,28.548348,0.000089,
2116,2638,-3.10180660329813,-0.163985469855298,-0.0253709233045925,-0.000297,-0.015067,0.007963,-0.042192,-0.607203,320.953496,23.698110,0.999319,0.988128,0.004275,0.471501,0.000053,0.000026,0.000009,0.000056,0.000023,16.435293,0.000082,
2491,3088,4.97387364190528,9.64110570313105,0.0191573872685922,0.001315,-0.015130,0.009260,0.018533,-0.630090,313.709476,25.195091,0.999507,0.990594,0.003811,0.434977,0.000038,0.000057,0.000023,0.000072,0.000023,56.030633,0.000099,
2161,2833,-2.15397263162123,4.07953194847582,-0.0036657114777654,0.000618,-0.014948,0.009509,-0.005839,-0.610323,317.822865,23.807804,0.999670,0.993490,0.003369,0.459228,0.000022,0.000039,0.000013,0.000046,0.000015,61.777179,0.000064,
2341,2323,1.85383611766546,-7.0398681851288,0.00693210249403364,-0.000654,-0.016531,0.006570,-0.059249,-0.673545,325.789679,22.746230,0.999119,0.985141,0.004847,0.398975,0.000201,0.000161,0.000011,0.000204,0.000158,13.925863,0.000363,
2251,1993,-0.0522339322055778,-14.2736675664787,-0.00527910608985849,-0.001942,-0.019472,-0.003779,-0.083722,-0.880978,331.064854,22.382252,0.999611,0.989829,0.004490,0.326080,0.000682,0.000700,-0.000022,0.000715,0.000667,-55.785228,0.001382,
2506,3193,5.28033914746616,11.9208190981034,0.0397280385066097,0.001590,-0.015276,0.012322,0.018928,-0.619959,312.202139,25.633951,0.999613,0.992491,0.003525,0.481135,0.000029,0.000036,0.000045,0.000078,-0.000013,47.195613,0.000083,
2206,3133,-1.22453549533758,10.5938716467799,0.0411827262629458,0.001467,-0.014807,0.009428,0.032452,-0.607246,313.198219,24.197172,0.999641,0.993816,0.003372,0.446659,0.000009,0.000026,0.000003,0.000027,0.000008,79.387322,0.000037,
2161,2908,-2.16607953011084,5.70895301778718,-0.00229685331146356,0.000855,-0.015060,0.007162,0.012237,-0.616399,316.632338,23.809089,0.999577,0.991104,0.003771,0.500497,0.000015,0.000047,0.000019,0.000056,0.000006,65.158440,0.000069,
2086,2563,-3.74000828411512,-1.80096926275015,-0.00537877671547449,0.000007,-0.015059,0.002847,-0.012806,-0.643746,322.507277,23.746186,0.998943,0.987158,0.004584,0.408822,0.000071,0.000037,0.000018,0.000079,0.000029,24.020786,0.000112,
2056,2353,-4.36117566170354,-6.38263714922761,-0.0128337762639603,-0.001070,-0.014082,-0.003139,-0.044801,-0.599390,325.961366,23.813842,0.998751,0.982357,0.005270,0.485585,0.000191,0.000103,0.000040,0.000207,0.000088,21.235563,0.000303,
2446,2833,4.0430802043307,4.09680206934233,-0.0180478130486108,0.000804,-0.014708,0.002181,0.022796,-0.603904,317.469706,24.235423,0.999694,0.991782,0.003649,0.378146,0.000029,0.000024,0.000016,0.000043,0.000010,40.833187,0.000056,
2011,2338,-5.33846257328002,-6.71255754842721,0.00565191144193022,-0.002134,-0.015038,0.006761,-0.120997,-0.622156,326.551911,24.001097,0.999008,0.986178,0.004788,0.442046,0.000233,0.000058,-0.000006,0.000233,0.000058,-1.946485,0.000308,
2086,2578,-3.74316860102017,-1.47320720937476,-0.0139865737697278,-0.000078,-0.014985,0.005605,-0.024639,-0.627140,322.180852,23.732239,0.999085,0.987789,0.004447,0.439338,0.000053,0.000035,0.000011,0.000059,0.000030,25.893504,0.000090,
2266,2068,0.264040572395896,-12.6291263747658,0.0216480242977468,-0.001636,-0.017885,0.001002,-0.084887,-0.769912,330.057655,22.508055,0.999097,0.980895,0.005341,0.349282,0.000548,0.000638,0.000025,0.000645,0.000541,75.678829,0.001188,
2011,2248,-5.32559047179963,-8.67998189965824,0.0077547069226398,-0.002582,-0.015333,0.005109,-0.137147,-0.648739,328.000534,24.067530,0.999152,0.983309,0.005044,0.408159,0.000313,0.000281,0.000034,0.000335,0.000259,32.535010,0.000596,
2071,2428,-4.04573383431473,-4.74575008078308,0.000895045893742008,-0.000758,-0.014879,0.006012,-0.056725,-0.597899,324.773376,23.801903,0.998909,0.985535,0.004643,0.438508,0.000140,0.000030,0.000043,0.000154,0.000016,18.971642,0.000188,
2146,2803,-2.47540022396315,3.42643949620704,-0.0116800875423451,0.000532,-0.015255,0.009838,-0.010535,-0.631451,318.296332,23.734792,0.999647,0.992531,0.003509,0.477540,0.000033,0.000027,0.000006,0.000037,0.000024,32.126260,0.000061,
2326,2233,1.5437380917133,-9.01114952934969,0.00804841553406277,-0.000825,-0.016328,-0.000047,-0.043963,-0.717266,327.271990,22.527063,0.998323,0.974508,0.006293,0.412383,0.000308,0.000296,-0.000007,0.000311,0.000293,-24.032438,0.000604,
2386,2533,2.79437332721342,-2.44698198000403,-0.0144258150605765,0.000000,-0.014757,0.003503,-0.018413,-0.585896,322.264303,23.163729,0.999470,0.989052,0.004366,0.523258,0.000098,0.000047,0.000038,0.000118,0.000027,27.855744,0.000154,
2041,2278,-4.67596712212825,-8.02331291314029,0.00780361316833478,-0.001607,-0.014928,0.003022,-0.086905,-0.628726,327.384251,23.974353,0.999744,0.991970,0.004156,0.375553,0.000266,0.000232,0.000056,0.000307,0.000191,36.580094,0.000503,
2116,2683,-3.10880615751173,0.815200956377481,-0.0276210748030508,0.000030,-0.015170,0.006776,-0.023753,-0.630748,320.224398,23.650190,0.999544,0.992143,0.003549,0.507329,0.000041,0.000011,0.000006,0.000042,0.000010,10.654319,0.000055,
2056,2428,-4.37296328783104,-4.74529575873185,-0.00837804582903345,-0.001179,-0.014826,0.005796,-0.075197,-0.602077,324.759548,23.819872,0.998733,0.984513,0.004941,0.458115,0.000133,0.000027,0.000038,0.000145,0.000015,17.658179,0.000176,
2221,3163,-0.904591278090113,11.2454138278378,0.044096300109004,0.001103,-0.014941,0.010654,0.011384,-0.596314,312.670160,24.276456,0.999468,0.992300,0.003589,0.476140,0.000015,0.000033,0.000006,0.000035,0.000013,72.521102,0.000050,
2371,2458,2.48223216662512,-4.08721892007912,-0.00218192588602051,-0.000142,-0.016209,0.008223,-0.042149,-0.682603,323.551320,23.008058,0.999049,0.985807,0.004817,0.397129,0.000146,0.000091,0.000048,0.000174,0.000063,30.235615,0.000245,
2296,2233,0.88982721944398,-9.01033665428454,0.0106817326656028,-0.000331,-0.016100,-0.000121,-0.020865,-0.687883,327.335437,22.726114,0.998998,0.978917,0.005503,0.384489,0.000292,0.000302,0.000001,0.000302,0.000292,81.920761,0.000594,
2401,2623,3.10445030763116,-0.483028003801159,-0.0119558834488771,0.000650,-0.015305,0.006054,0.001750,-0.628401,320.856767,23.441840,0.999289,0.987698,0.004308,0.453608,0.000056,0.000018,0.000029,0.000071,0.000002,28.288063,0.000084,
2281,2173,0.572114286896181,-10.3271573294581,0.011082560430566,-0.001456,-0.017390,0.001908,-0.079636,-0.748604,328.265023,22.497723,0.999347,0.981370,0.005360,0.501630,0.000390,0.000416,0.000019,0.000426,0.000380,62.090048,0.000807,
2131,2758,-2.79440621021337,2.44862100563816,-0.0185142256188442,0.000273,-0.014902,0.008322,-0.017354,-0.606314,319.023914,23.780537,0.999438,0.990811,0.003896,0.426696,0.000037,0.000015,0.000002,0.000037,0.000015,4.326209,0.000054,
2416,2698,3.41562301401651,1.15331168838836,-0.0244353317045807,0.000485,-0.015037,0.003153,0.004590,-0.642124,319.552474,23.625684,0.999581,0.989635,0.004063,0.484138,0.000041,0.000044,0.000019,0.000062,0.000023,47.029473,0.000087,
2491,3103,4.97109265515155,9.96680402075931,0.0238868655895885,0.001289,-0.014962,0.010261,0.013592,-0.614935,313.498168,25.255012,0.999512,0.989961,0.003746,0.448032,0.000032,0.000044,0.000029,0.000068,0.000008,50.595391,0.000083,
2476,3013,4.6613538755632,8.01103962469006,0.00756112452421576,0.001053,-0.015587,0.011860,-0.003170,-0.627890,314.780913,24.860268,0.999551,0.991395,0.003625,0.437737,0.000032,0.000028,0.000025,0.000055,0.000005,42.573129,0.000067,
2341,2338,1.851830872151,-6.71210957067676,0.0107041665184511,-0.000426,-0.015905,0.002873,-0.035721,-0.668049,325.602225,22.779949,0.999389,0.986164,0.004782,0.409260,0.000190,0.000159,0.000015,0.000197,0.000152,21.987234,0.000350,
2146,2833,-2.47933978987018,4.07863042193372,-0.00393611534678939,0.000801,-0.014863,0.005983,0.013688,-0.618942,317.897402,23.783832,0.999567,0.992971,0.003494,0.456474,0.000025,0.000036,0.000008,0.000040,0.000021,60.666313,0.000062,
2026,2308,-5.00784101861627,-7.36649385106235,-0.00445557633389626,-0.001760,-0.015253,0.004657,-0.098378,-0.648862,326.878240,24.021539,0.998618,0.982671,0.005279,0.356387,0.000270,0.000157,0.000013,0.000271,0.000156,6.531238,0.000432,
2281,2278,0.552915181118593,-8.02514578281701,0.00492133675032846,-0.001014,-0.016731,0.006636,-0.074915,-0.690535,326.523585,22.835555,0.999600,0.987431,0.004619,0.433475,0.000243,0.000223,0.000000,0.000243,0.000223,-0.438641,0.000466,
2011,2353,-5.34080940960891,-6.38325949078045,-0.00377434043878111,-0.001745,-0.015084,0.006405,-0.102200,-0.635941,326.250280,24.064858,0.999113,0.988912,0.004563,0.354650,0.000220,0.000076,0.000004,0.000220,0.000076,1.660391,0.000307,
2041,2323,-4.68275336192394,-7.03915857427535,-0.000644119985622638,-0.001258,-0.014822,0.001370,-0.066253,-0.635965,326.610587,23.938414,0.999096,0.983750,0.004879,0.387754,0.000235,0.000113,0.000031,0.000242,0.000105,13.369987,0.000357,
2431,2803,3.72274745956672,3.44176951139366,-0.0101816361585634,0.000682,-0.015174,0.005049,0.006481,-0.636533,317.983661,24.111560,0.999499,0.989174,0.004155,0.351434,0.000031,0.000040,0.000013,0.000049,0.000022,54.496353,0.000073,
2206,3088,-1.21790454269129,9.61905615178849,0.0302146859445429,0.001111,-0.014963,0.010766,0.011805,-0.597403,313.820783,24.196789,0.999475,0.992160,0.003615,0.410048,0.000014,0.000020,0.000004,0.000022,0.000012,65.839150,0.000035,
2266,2098,0.258054511597802,-11.9690584955919,0.00803917097294971,-0.001453,-0.017767,-0.000881,-0.070277,-0.781704,329.475854,22.612852,0.998990,0.979308,0.005634,0.290775,0.000508,0.000587,0.000031,0.000598,0.000497,70.779097,0.001097,
2176,2938,-1.8453704190755,6.36213340402995,0.00151848848094005,0.000902,-0.015054,0.009830,0.005810,-0.621009,316.115743,23.943600,0.999223,0.989639,0.004064,0.413806,0.000016,0.000049,0.000019,0.000058,0.000007,65.350177,0.000071,
2311,2173,1.22824557446884,-10.3272320068126,0.0173923396192208,-0.000741,-0.017329,-0.000812,-0.037854,-0.745484,328.331715,22.425744,0.999158,0.981684,0.005299,0.416982,0.000395,0.000435,0.000002,0.000435,0.000395,86.854542,0.000831,
2506,3208,5.27666452045758,12.2473054402354,0.0328623107870953,0.001431,-0.015373,0.010444,0.018930,-0.624061,311.897661,25.742396,0.999390,0.991475,0.003729,0.428271,0.000030,0.000036,0.000045,0.000078,-0.000012,46.885112,0.000084,
2026,2398,-5.02019987948174,-5.40192756926501,0.00238627583968309,-0.001091,-0.014937,0.006793,-0.073441,-0.615128,325.511412,23.901881,0.999356,0.989051,0.004146,0.461802,0.000203,0.000033,0.000023,0.000206,0.000030,7.468643,0.000257,
2071,2473,-4.05226045730875,-3.76491874017979,0.000564305726186376,-0.000508,-0.015168,0.003027,-0.036879,-0.651117,324.065127,23.742010,0.999392,0.988601,0.004479,0.439787,0.000110,0.000024,0.000027,0.000117,0.000016,15.816121,0.000146,
2086,2593,-3.74606108030527,-1.14655805331493,-0.00916940336134076,-0.000585,-0.015285,0.010843,-0.063149,-0.606863,321.939938,23.734841,0.999103,0.987753,0.004404,0.456862,0.000049,0.000033,0.000013,0.000057,0.000025,29.247266,0.000084,
2221,3223,-0.914856070300143,12.5464647773301,0.048824374607193,0.001241,-0.014649,0.012871,0.010741,-0.584660,311.726553,24.391513,0.999518,0.993300,0.003468,0.442977,0.000016,0.000034,0.000011,0.000039,0.000011,64.936198,0.000053,
2176,2968,-1.84937076210202,7.01265147706685,0.0104442233653117,0.001330,-0.015137,0.008825,0.028642,-0.617993,315.724613,23.927877,0.999349,0.991605,0.003701,0.455935,0.000019,0.000037,0.000017,0.000047,0.000009,58.280261,0.000060,
2056,2548,-4.39067846517922,-2.12776448055835,-0.0151693490627167,0.000002,-0.014898,0.008017,-0.027212,-0.607765,322.813646,23.753343,0.999313,0.988990,0.004190,0.485495,0.000076,0.000028,0.000023,0.000086,0.000019,22.062697,0.000111,
2461,2938,4.34850109565343,6.38081734689284,-0.0104536225825882,0.000526,-0.015406,0.006770,-0.007700,-0.638797,315.818125,24.574390,0.999466,0.990390,0.004070,0.399740,0.000027,-0.000016,0.000027,0.000040,-0.000029,25.273309,0.000041,
2296,2188,0.898297166039196,-9.99791587443436,0.017713045031428,-0.000652,-0.016863,-0.001608,-0.030862,-0.738603,328.110738,22.577786,0.998968,0.979225,0.005579,0.384081,0.000362,0.000394,0.000002,0.000395,0.000362,86.656403,0.000756,
2011,2263,-5.32725178735325,-8.35190210634278,0.00698519974088185,-0.002118,-0.015131,0.003471,-0.111320,-0.662378,327.778836,24.073175,0.998737,0.979830,0.005258,0.379090,0.000296,0.000254,0.000030,0.000311,0.000239,27.555132,0.000552,
2191,3058,-1.53861749724681,8.96593301553226,0.0305889375545689,0.000898,-0.015182,0.013812,-0.007314,-0.612613,314.340367,24.035645,0.999790,0.995246,0.003089,0.473305,0.000018,0.000013,0.000009,0.000024,0.000006,36.865977,0.000032,
2041,2353,-4.6875896800233,-6.38350980228306,-0.00622177887373709,-0.001157,-0.014970,0.003128,-0.066561,-0.624190,326.080937,23.884422,0.998934,0.983856,0.005065,0.442342,0.000203,0.000088,0.000033,0.000212,0.000079,15.069041,0.000301,
2101,2578,-3.41739132525974,-1.47385139502386,-0.0122414305822645,-0.000294,-0.015471,0.008211,-0.042634,-0.645185,322.104368,23.649925,0.999313,0.988134,0.004290,0.484276,0.000057,0.000036,0.000016,0.000066,0.000027,27.747384,0.000096,
2086,2698,-3.76279559116066,1.1407305329034,-0.0197863660402504,-0.000222,-0.014974,0.008719,-0.040291,-0.607207,320.173703,23.711469,0.999385,0.990575,0.003866,0.476807,0.000041,0.000001,0.000007,0.000042,0.000000,9.087924,0.000048,
2011,2368,-5.34274419330013,-6.0568948276334,0.000223535961424659,-0.001674,-0.015382,0.007327,-0.101522,-0.641931,326.043313,23.989385,0.999111,0.988382,0.004641,0.413645,0.000224,0.000079,0.000011,0.000225,0.000078,4.271829,0.000315,
2116,2653,-3.10380769391301,0.163448722125857,-0.027946040521897,0.000192,-0.014884,0.006442,-0.015189,-0.611687,320.715579,23.753952,0.999423,0.989336,0.004031,0.415102,0.000050,0.000021,0.000008,0.000052,0.000019,15.555624,0.000073,
2011,2278,-5.32978367687499,-8.02418348461588,0.00589262140016444,-0.002268,-0.015592,0.005785,-0.124616,-0.657726,327.515606,24.029824,0.998480,0.980359,0.005608,0.417507,0.000293,0.000237,0.000021,0.000301,0.000230,18.662084,0.000532,
2131,2713,-2.78729409074328,1.46918014591079,-0.0196829336672977,0.000088,-0.015115,0.008152,-0.025463,-0.625884,319.736589,23.752375,0.999425,0.989653,0.004071,0.417716,0.000049,0.000015,0.000000,0.000049,0.000015,0.813804,0.000066,
2251,2023,-0.0563553776733343,-13.6169695345942,0.0206560732001435,-0.002394,-0.018869,0.000334,-0.117637,-0.817816,330.764645,22.495461,0.999074,0.981570,0.005501,0.328908,0.000611,0.000697,0.000007,0.000698,0.000610,85.125857,0.001309,
2476,3028,4.6587308996495,8.33650479282156,0.0130802948134487,0.001107,-0.015810,0.012949,-0.004938,-0.633616,314.580038,24.906952,0.999714,0.992539,0.003454,0.441101,0.000029,0.000042,0.000023,0.000059,0.000011,52.835947,0.000076,
2371,2473,2.47966529225661,-3.7597836258366,0.000512625025692159,-0.000180,-0.015707,0.006635,-0.038086,-0.666154,323.334728,23.034953,0.999368,0.987284,0.004504,0.429069,0.000136,0.000079,0.000048,0.000163,0.000052,29.526627,0.000225,
2161,2848,-2.15670677374719,4.40474474094651,-0.00447498679147884,0.000594,-0.015288,0.011642,-0.013574,-0.609563,317.564922,23.727828,0.999675,0.993723,0.003283,0.549762,0.000018,0.000045,0.000017,0.000054,0.000009,64.495164,0.000068,
2266,2203,0.240089289508813,-9.66779441383916,0.00859863539039907,-0.000728,-0.016620,0.001003,-0.042845,-0.716476,327.816709,22.758355,0.998682,0.980668,0.005571,0.409003,0.000350,0.000355,0.000021,0.000374,0.000331,48.671598,0.000706,
2491,3118,4.96815157451514,10.2919275862494,0.0268066431131615,0.001344,-0.015541,0.012325,0.007979,-0.633074,313.271413,25.287260,0.999567,0.990730,0.003647,0.455186,0.000029,0.000054,0.000031,0.000075,0.000008,55.912659,0.000092,
2146,2878,-2.48727824311296,5.05666443695652,-0.00125638485241097,0.000518,-0.015040,0.011369,-0.015715,-0.606970,317.158579,23.804250,0.999485,0.991319,0.003748,0.470720,0.000018,0.000054,0.000011,0.000058,0.000015,73.837102,0.000076,
2206,3148,-1.22746250726156,10.9195708082709,0.0377397125640186,0.001423,-0.014630,0.009831,0.029214,-0.602191,312.920672,24.222820,0.999518,0.993271,0.003488,0.441805,0.000010,0.000029,0.000006,0.000031,0.000009,74.222828,0.000042,
2056,2443,-4.37531046959058,-4.41809697698514,-0.00782811619143331,-0.001255,-0.015066,0.006088,-0.079635,-0.627734,324.517979,23.832745,0.998964,0.986624,0.004752,0.415761,0.000120,0.000017,0.000031,0.000129,0.000008,15.629094,0.000154,
2071,2488,-4.05503549870048,-3.43707556928234,-0.00389135854908318,-0.000578,-0.015050,0.004749,-0.044931,-0.619247,323.777486,23.725065,0.999508,0.990258,0.004248,0.486825,0.000102,0.000031,0.000028,0.000112,0.000021,19.251101,0.000143,
2131,2773,-2.79676783039058,2.77457387243628,-0.0179298993531347,0.000265,-0.014794,0.007349,-0.014764,-0.601126,318.787966,23.753213,0.999582,0.992354,0.003542,0.464665,0.000036,0.000023,0.000006,0.000038,0.000021,20.338991,0.000060,
2356,2413,2.16415277957685,-5.07011283227846,-0.0033732524547645,-0.000020,-0.015523,0.003116,-0.017977,-0.672722,324.289164,22.968204,0.999713,0.989914,0.004187,0.363911,0.000162,0.000145,0.000044,0.000199,0.000108,39.619630,0.000311,
2221,3238,-0.917990114242446,12.8714366267464,0.041713572884305,0.001118,-0.014971,0.010934,0.011120,-0.607164,311.421876,24.381028,0.999643,0.993878,0.003296,0.448469,0.000015,0.000030,0.000012,0.000036,0.000009,61.688638,0.000048,
2281,2293,0.550696370285738,-7.69670898302514,0.00287258230406451,-0.000519,-0.016762,0.004853,-0.046276,-0.702106,326.292983,22.874559,0.999383,0.984939,0.004942,0.412764,0.000223,0.000218,0.000005,0.000225,0.000215,30.807663,0.000441,
2191,3013,-1.53126518938938,7.98996029949166,0.0206184808365037,0.000974,-0.014891,0.010758,0.005825,-0.619216,315.004328,24.006353,0.999429,0.990648,0.003917,0.455114,0.000013,0.000028,0.000018,0.000040,0.000002,56.445249,0.000047,
2386,2548,2.79204481659691,-2.12133618105985,-0.00410110500303063,0.000012,-0.015901,0.006813,-0.030261,-0.660560,322.096288,23.209608,0.999383,0.988559,0.004464,0.446616,0.000091,0.000034,0.000037,0.000109,0.000016,26.192438,0.000136,
2011,2293,-5.33278070083583,-7.6933262953048,-0.0100839331253724,-0.002265,-0.014940,0.003439,-0.117966,-0.632104,327.147054,24.107953,0.998941,0.985822,0.004906,0.355650,0.000292,0.000222,0.000015,0.000295,0.000219,11.446917,0.000515,
2461,2953,4.34636819893015,6.70639798022337,-0.00287182372562711,0.001038,-0.015452,0.009803,0.004404,-0.628649,315.648674,24.612539,0.999480,0.990564,0.003968,0.425611,0.000030,-0.000009,0.000030,0.000046,-0.000026,28.585721,0.000046,
2116,2698,-3.11082829575414,1.14229727002886,-0.0185726590897843,-0.000043,-0.014958,0.008447,-0.031965,-0.616729,320.047989,23.766118,0.999414,0.990341,0.003904,0.409139,0.000044,0.000011,0.000006,0.000045,0.000010,10.272223,0.000058,
2446,2848,4.04063418274254,4.42106823371243,-0.00736553556282615,0.000702,-0.014773,0.004982,0.007568,-0.613322,317.300122,24.169635,0.999627,0.991243,0.003638,0.486063,0.000024,0.000021,0.000012,0.000035,0.000011,41.730646,0.000048,
2176,2953,-1.84779318136708,6.68733494092877,0.00320419295053398,0.001001,-0.015102,0.011109,0.006364,-0.618582,315.886235,23.908421,0.999246,0.991498,0.003728,0.463193,0.000016,0.000040,0.000016,0.000048,0.000008,63.544156,0.000061,
2161,2923,-2.16896158024038,6.03554489724971,0.00073900576825281,0.000518,-0.014975,0.010502,-0.013464,-0.604968,316.387389,23.894257,0.999231,0.988182,0.004271,0.436169,0.000016,0.000049,0.000021,0.000059,0.000006,64.512535,0.000072,
2056,2563,-4.39269147042309,-1.80133618405996,-0.00964373382112171,-0.000144,-0.014847,0.006509,-0.029663,-0.614222,322.614979,23.759095,0.999309,0.988037,0.004313,0.468478,0.000072,0.000034,0.000013,0.000076,0.000030,16.672987,0.000109,
2416,2713,3.41351173633612,1.47934959330008,-0.0166073256442587,0.000533,-0.015123,0.001174,0.014041,-0.635235,319.383475,23.650142,0.999657,0.990769,0.003857,0.514344,0.000036,0.000050,0.000018,0.000063,0.000023,55.747210,0.000089,
2146,2848,-2.48278856869895,4.4051766341954,-0.00861290412973403,0.000431,-0.015115,0.010160,-0.016095,-0.610124,317.584576,23.789243,0.999567,0.992775,0.003503,0.467498,0.000021,0.000042,0.000013,0.000048,0.000015,65.092927,0.000066,
2041,2368,-4.68987089177681,-6.05612820189463,-0.00115589061937271,-0.001418,-0.014925,0.004442,-0.082205,-0.613170,325.865905,23.896158,0.998923,0.984367,0.005015,0.435734,0.000198,0.000093,0.000039,0.000212,0.000080,18.459141,0.000302,
2296,2248,0.886677173027977,-8.68237918343562,0.00634688777239489,-0.000560,-0.016168,-0.001676,-0.026178,-0.706493,327.052461,22.688902,0.999051,0.981396,0.005325,0.435338,0.000275,0.000267,-0.000001,0.000275,0.000267,-5.849302,0.000542,
2476,3043,4.65571905662029,8.66276080462902,0.011337532419418,0.001251,-0.015747,0.012522,0.003358,-0.629634,314.327898,24.972436,0.999715,0.992276,0.003569,0.435339,0.000027,0.000044,0.000030,0.000066,0.000005,52.694053,0.000080,
2251,2128,-0.0744982946569159,-11.3127556867513,0.0189837222898177,-0.001881,-0.017407,0.002694,-0.101383,-0.735228,329.077788,22.672234,0.998527,0.977740,0.005838,0.420958,0.000464,0.000542,0.000036,0.000556,0.000450,68.733530,0.001008,
2011,2308,-5.33474238803182,-7.36636667803288,-0.00419119330325657,-0.002306,-0.015137,0.004924,-0.123951,-0.637972,326.949199,24.086960,0.999023,0.986760,0.004768,0.360766,0.000277,0.000152,-0.000001,0.000277,0.000152,-0.536736,0.000434,
2086,2713,-3.76462389403024,1.46666305793327,-0.0195390130514852,0.000201,-0.015085,0.007074,-0.016070,-0.617565,319.957022,23.676331,0.999302,0.989900,0.004010,0.500859,0.000040,0.000001,0.000003,0.000041,0.000001,4.373032,0.000047,
2191,3073,-1.54060224570996,9.29119444908965,0.0336372664262967,0.001032,-0.014739,0.010054,0.010795,-0.606933,314.139019,24.041447,0.999644,0.993797,0.003330,0.486684,0.000016,0.000019,0.000006,0.000024,0.000011,52.795154,0.000036,
2011,2383,-5.34445594256256,-5.72818151417686,-0.000443143665449952,-0.001308,-0.014443,0.004645,-0.077143,-0.589796,325.819638,24.030102,0.999279,0.988353,0.004312,0.414732,0.000215,0.000045,0.000004,0.000215,0.000045,1.242907,0.000279,
2026,2323,-5.00972905452041,-7.03965153846413,-0.000633490321263253,-0.001751,-0.015182,0.003274,-0.094136,-0.642147,326.673272,23.961389,0.998991,0.984010,0.004977,0.415221,0.000249,0.000098,0.000010,0.000249,0.000098,3.672720,0.000358,
2281,2188,0.570199822023007,-9.99720188632369,0.0121661839063449,-0.000948,-0.016754,-0.000746,-0.047268,-0.730372,328.063837,22.640585,0.998917,0.978603,0.005710,0.407140,0.000367,0.000386,0.000011,0.000391,0.000362,65.851674,0.000754,
2101,2608,-3.42168392841511,-0.819782886450852,-0.0107944034631942,-0.000134,-0.015001,0.004642,-0.024663,-0.619436,321.648507,23.674212,0.998945,0.986043,0.004741,0.489601,0.000056,0.000026,0.000014,0.000062,0.000020,21.918054,0.000086,
2071,2623,-4.0766364075223,-0.492811539997447,-0.022348940805216,-0.000009,-0.014941,0.005721,-0.021530,-0.615737,321.464177,23.703266,0.999104,0.988315,0.004320,0.491721,0.000050,0.000025,0.000007,0.000052,0.000023,14.310714,0.000077,
2026,2413,-5.02312840766552,-5.07339405879287,-0.00496489757591689,-0.001362,-0.014782,0.006569,-0.085211,-0.594745,325.196389,23.904831,0.999128,0.986624,0.004591,0.471211,0.000194,0.000013,0.000034,0.000200,0.000006,10.251061,0.000235,
2221,3178,-0.906738011051775,11.5702949524111,0.0489255861198217,0.001156,-0.014948,0.009162,0.018497,-0.623307,312.472503,24.315981,0.999237,0.990898,0.003849,0.427156,0.000015,0.000033,0.000009,0.000037,0.000012,66.928279,0.000051,
2041,2338,-4.68526203874346,-6.71186454065184,0.000138731013407778,-0.001432,-0.015121,0.003659,-0.080702,-0.638499,326.361525,23.903795,0.999206,0.986481,0.004545,0.414346,0.000219,0.000092,0.000031,0.000226,0.000085,12.971082,0.000321,
2266,2218,0.237480662986457,-9.33961895742191,0.0113615591945404,-0.000970,-0.016610,-0.000296,-0.049690,-0.717990,327.591201,22.786409,0.998747,0.979368,0.005605,0.407437,0.000329,0.000323,0.000023,0.000349,0.000303,41.536530,0.000653,
2401,2638,3.10092617013341,-0.155791817280658,-0.0162281936629824,0.000342,-0.015548,0.005486,-0.010446,-0.651862,320.565091,23.483127,0.999217,0.986595,0.004420,0.435088,0.000047,0.000021,0.000024,0.000062,0.000006,30.588928,0.000075,
2086,2608,-3.74825126566986,-0.818992193456708,-0.0151089074628885,-0.000281,-0.014984,0.006983,-0.037950,-0.603463,321.672510,23.749731,0.999107,0.987679,0.004418,0.445251,0.000050,0.000028,0.000010,0.000054,0.000024,20.911685,0.000080,
2206,3103,-1.21977267703133,9.94324373885005,0.0332863575201259,0.001617,-0.015009,0.010432,0.036116,-0.606054,313.626237,24.125969,0.999363,0.991037,0.003951,0.488109,0.000014,0.000027,0.000006,0.000029,0.000012,69.761045,0.000042,
2311,2188,1.22631093423886,-9.99925271310609,0.0261794089265663,-0.000689,-0.016953,-0.002129,-0.030819,-0.742155,328.170209,22.484288,0.999115,0.981382,0.005222,0.396108,0.000371,0.000407,-0.000004,0.000408,0.000371,-84.480161,0.000779,
2176,2983,-1.85261247897351,7.33895726529348,0.00535875188097634,0.001095,-0.015141,0.010408,0.012857,-0.624032,315.421628,23.963906,0.999233,0.991512,0.003763,0.425425,0.000018,0.000033,0.000018,0.000046,0.000006,56.500038,0.000056,
2206,3163,-1.23042084103107,11.2445083001707,0.0383544877545319,0.001120,-0.014942,0.010974,0.011475,-0.613111,312.662970,24.222971,0.999722,0.995085,0.003118,0.446062,0.000014,0.000035,0.000007,0.000037,0.000012,72.304990,0.000051,
2431,2818,3.71929256568112,3.76769455992283,-0.0132849319608681,0.000625,-0.015237,0.007254,-0.004289,-0.623501,317.702535,24.063010,0.999503,0.990446,0.004041,0.463167,0.000030,0.000029,0.000013,0.000042,0.000016,43.955001,0.000060,
2101,2653,-3.42962473740911,0.162339429801804,-0.0244824958966774,0.000128,-0.015034,0.007002,-0.019515,-0.614738,320.810074,23.739518,0.999337,0.988948,0.004103,0.434660,0.000052,0.000019,0.000011,0.000056,0.000016,16.464458,0.000075,
2461,2968,4.34378111350127,7.03172865026389,0.00506086920552207,0.001026,-0.015644,0.012339,-0.005796,-0.632081,315.459937,24.646861,0.999444,0.990184,0.004050,0.441352,0.000032,0.000001,0.000035,0.000054,-0.000022,32.891867,0.000055,
2251,2038,-0.0585538942087851,-13.2875114297198,0.0181747481631191,-0.001822,-0.018520,-0.000059,-0.090068,-0.815518,330.530460,22.514381,0.999121,0.979201,0.005511,0.339149,0.000585,0.000664,0.000009,0.000665,0.000584,83.320471,0.001250,
2341,2353,1.84937878582512,-6.38385160040965,0.00659732000019631,0.000042,-0.015604,0.000261,-0.005066,-0.675000,325.356097,22.799312,0.999205,0.984792,0.004890,0.421482,0.000179,0.000151,0.000023,0.000192,0.000139,29.141799,0.000332,
2446,2863,4.0380764369837,4.74675454157038,-0.00129717054556977,0.000815,-0.015048,0.007076,0.004850,-0.627741,317.103714,24.208123,0.999742,0.993043,0.003350,0.485007,0.000023,0.000016,0.000010,0.000031,0.000009,35.488715,0.000041,
2506,3223,5.27367022017254,12.5725234880594,0.0333098284590392,0.001527,-0.015330,0.010907,0.021513,-0.626770,311.657676,25.778947,0.999490,0.990848,0.003873,0.448699,0.000032,0.000018,0.000040,0.000066,-0.000016,40.090957,0.000069,
2356,2428,2.16109772400646,-4.74411164121599,-0.00730212985837397,-0.000068,-0.015413,0.001584,-0.014782,-0.650288,324.017606,22.781062,0.999467,0.989228,0.004352,0.614016,0.000152,0.000133,0.000042,0.000185,0.000100,38.503033,0.000289,
2056,2458,-4.3771522384815,-4.09188491089023,-0.00402275018018372,-0.000918,-0.015604,0.008172,-0.070156,-0.642722,324.317645,23.779711,0.999136,0.986034,0.004834,0.449251,0.000110,0.000019,0.000023,0.000115,0.000013,13.284000,0.000141,
2041,2473,-4.70534659270273,-3.76354950108082,-0.0128792428720885,-0.000442,-0.014921,0.003482,-0.034717,-0.630858,324.122859,23.840269,0.998781,0.982277,0.005274,0.431556,0.000129,0.000019,0.000032,0.000138,0.000011,14.903244,0.000166,
2116,2728,-3.11563071124235,1.79521495237219,-0.0197497272405371,0.000135,-0.014789,0.009283,-0.026150,-0.592724,319.557293,23.740170,0.999347,0.989041,0.004164,0.466332,0.000036,0.000007,0.000001,0.000036,0.000007,2.146947,0.000046,
2146,2893,-2.4895743746398,5.38248065143163,-0.00327567912927407,0.000623,-0.015043,0.007929,-0.000482,-0.621600,316.912978,23.798804,0.999490,0.989753,0.004047,0.468828,0.000011,0.000049,0.000014,0.000054,0.000007,71.438079,0.000067,
2401,2653,3.09815727913564,0.170912407401147,-0.010575484924118,0.000464,-0.015852,0.010761,-0.024056,-0.633582,320.354790,23.522322,0.999309,0.987311,0.004428,0.459999,0.000040,0.000022,0.000021,0.000054,0.000008,33.404840,0.000067,
2191,3088,-1.54342263641839,9.61707196764565,0.0317628508093435,0.001021,-0.014861,0.011406,0.006040,-0.607545,313.873395,24.082633,0.999463,0.991926,0.003686,0.458610,0.000013,0.000018,0.000007,0.000023,0.000008,56.285845,0.000032,
2086,2623,-3.75097361210527,-0.492873681289737,-0.0223123233222395,-0.000138,-0.015354,0.007812,-0.033886,-0.627991,321.374323,23.654656,0.999107,0.987628,0.004441,0.515531,0.000049,0.000028,0.000007,0.000052,0.000026,17.072611,0.000079,
2131,2728,-2.78920589816829,1.79432578037132,-0.0171853047013997,0.000343,-0.014985,0.006368,-0.008354,-0.622614,319.531715,23.654970,0.999380,0.988331,0.004273,0.524415,0.000042,0.000014,0.000000,0.000042,0.000014,0.738485,0.000058,
2086,2728,-3.76666304321586,1.79336484169075,-0.0183536152288752,0.000506,-0.015004,0.007753,-0.003954,-0.606094,319.735513,23.702062,0.999292,0.989412,0.004089,0.485918,0.000029,-0.000002,0.000002,0.000029,-0.000002,3.327104,0.000033,
2026,2428,-5.02565599193586,-4.74582725782917,-0.00834992303111903,-0.001439,-0.014907,0.006859,-0.089615,-0.606017,324.922134,23.894208,0.999018,0.984597,0.004851,0.462405,0.000183,0.000004,0.000041,0.000192,-0.000005,12.426480,0.000219,
2146,2863,-2.48615348919126,4.73150084516652,-0.0129824767375339,0.000062,-0.015507,0.013393,-0.042990,-0.621476,317.277311,23.801611,0.999426,0.991823,0.003682,0.451500,0.000020,0.000042,0.000011,0.000047,0.000015,67.133032,0.000065,
2371,2488,2.47670580977767,-3.43225082104505,-0.000579832545781755,-0.000313,-0.015642,0.005057,-0.038520,-0.653904,323.081986,23.044861,0.999440,0.986904,0.004451,0.473807,0.000128,0.000074,0.000046,0.000154,0.000048,29.746878,0.000211,
2386,2563,2.78877480577089,-1.79296691070883,-0.00753308300375011,0.000098,-0.015984,0.009199,-0.034888,-0.666681,321.819018,23.319036,0.999423,0.989792,0.004149,0.375338,0.000082,0.000037,0.000036,0.000102,0.000016,29.166284,0.000128,
2476,3058,4.65371499760937,8.98856994728333,0.0182166496194895,0.001163,-0.015048,0.005849,0.024957,-0.627444,314.161469,25.058753,0.999628,0.989736,0.004071,0.406997,0.000033,0.000044,0.000034,0.000073,0.000003,49.579161,0.000087,
2056,2578,-4.39503325020067,-1.47398783862158,-0.014303066145203,0.000156,-0.014753,0.007335,-0.018148,-0.601328,322.344920,23.744949,0.999105,0.988039,0.004347,0.491058,0.000054,0.000033,0.000003,0.000054,0.000032,7.001064,0.000087,
2431,2833,3.71631688381042,4.09523511402571,-0.010227251363915,0.000784,-0.015448,0.012218,-0.015457,-0.620111,317.471627,24.223997,0.999350,0.988912,0.004104,0.355147,0.000029,0.000024,0.000015,0.000042,0.000011,40.516023,0.000057,
2206,3178,-1.23282588970501,11.5700817343891,0.0367729433260138,0.001368,-0.014826,0.009875,0.026472,-0.608211,312.419057,24.256596,0.999635,0.994597,0.003214,0.432685,0.000014,0.000036,0.000010,0.000040,0.000010,68.377363,0.000053,
2461,2983,4.3409993560821,7.3584190883951,0.00607221482073328,0.001039,-0.015457,0.010568,0.001559,-0.633056,315.230074,24.759614,0.999424,0.989895,0.004053,0.381444,0.000031,0.000005,0.000034,0.000055,-0.000019,34.216858,0.000055,
2266,2113,0.256746499646173,-11.6413985175316,0.0206358290423054,-0.001227,-0.016844,-0.003618,-0.050553,-0.734461,329.359071,22.616215,0.998925,0.979533,0.005619,0.362552,0.000486,0.000567,0.000031,0.000578,0.000475,71.201812,0.001055,
2026,2338,-5.01183255347695,-6.71245571525265,0.00299753565269611,-0.001790,-0.015033,0.004425,-0.099057,-0.639599,326.457363,23.940348,0.999098,0.986249,0.004632,0.431000,0.000231,0.000070,0.000011,0.000232,0.000069,3.960804,0.000316,
2101,2668,-3.43203763535704,0.487925820349631,-0.0199919890429214,-0.000072,-0.015310,0.008710,-0.033824,-0.629671,320.590779,23.699598,0.999465,0.990571,0.003865,0.461285,0.000046,0.000009,0.000010,0.000049,0.000006,13.946425,0.000060,
2236,2053,-0.388238009364972,-12.95902622731,0.0277649977247734,-0.001891,-0.018760,0.002861,-0.102650,-0.810594,330.385175,22.648994,0.998763,0.976559,0.005819,0.332971,0.000555,0.000642,0.000023,0.000648,0.000549,75.800131,0.001198,
2296,2203,0.895013163291733,-9.6680870510665,0.0110742368423757,-0.000611,-0.016526,-0.000084,-0.033986,-0.722829,327.809968,22.635906,0.998410,0.975646,0.006027,0.374575,0.000337,0.000367,0.000001,0.000367,0.000337,88.404431,0.000705,
2011,2443,-5.35310663709454,-4.41878818690793,0.00128729590329613,-0.001105,-0.014974,0.007235,-0.075001,-0.615453,324.869675,24.019331,0.999334,0.989240,0.004192,0.357937,0.000178,-0.000031,0.000019,0.000180,-0.000033,5.269180,0.000191,
2506,3238,5.27032873262888,12.8976919487205,0.029543149986182,0.001553,-0.015253,0.010445,0.024542,-0.623433,311.382691,25.784786,0.999539,0.990508,0.003873,0.505857,0.000032,0.000030,0.000043,0.000074,-0.000012,44.388883,0.000079,
2311,2203,1.22279421987182,-9.66990172466782,0.0203580838359017,-0.000730,-0.017209,0.001757,-0.046014,-0.734222,327.864409,22.514807,0.998894,0.978630,0.005636,0.408768,0.000346,0.000376,-0.000003,0.000376,0.000346,-84.501093,0.000722,
2281,2308,0.548821033947771,-7.36859422341456,0.00610934928971574,-0.000234,-0.016159,0.000830,-0.019568,-0.676846,326.104270,22.905533,0.999275,0.983218,0.005226,0.436869,0.000205,0.000196,0.000008,0.000210,0.000191,29.962479,0.000402,
2176,2998,-1.85500037728267,7.66409897365548,0.0138151671131936,0.000790,-0.015162,0.011906,-0.005802,-0.608140,315.229212,23.967511,0.999401,0.991043,0.003854,0.449032,0.000017,0.000031,0.000020,0.000045,0.000003,54.432061,0.000054,
2356,2443,2.15854865609287,-4.41640193197746,0.000599524000222118,-0.000260,-0.015900,0.003175,-0.029382,-0.691882,323.826001,22.930542,0.998780,0.981205,0.005364,0.462892,0.000144,0.000117,0.000043,0.000176,0.000085,36.290940,0.000266,
2131,2803,-2.80149794799953,3.42636020842328,-0.0118595805528798,0.000223,-0.014868,0.009912,-0.024442,-0.605773,318.342003,23.753274,0.999530,0.992202,0.003592,0.471112,0.000031,0.000024,0.000010,0.000039,0.000017,35.160569,0.000057,
2251,2053,-0.0609503654989787,-12.958508816939,0.0219454272579469,-0.001851,-0.018283,0.000170,-0.092039,-0.801917,330.318675,22.556198,0.998970,0.978668,0.005583,0.337383,0.000561,0.000648,0.000017,0.000651,0.000558,79.267822,0.001210,
2131,2788,-2.79911069567877,3.10025423866961,-0.0136807033021,0.000185,-0.015111,0.008618,-0.022336,-0.610801,318.572565,23.748453,0.999600,0.992767,0.003418,0.465333,0.000032,0.000025,0.000006,0.000036,0.000021,31.066913,0.000058,
2161,2938,-2.17107986035719,6.36068401226967,0.00538493649162319,0.000683,-0.015204,0.011563,-0.009210,-0.615304,316.186486,23.882604,0.999226,0.988644,0.004286,0.446946,0.000017,0.000047,0.000019,0.000056,0.000008,64.625565,0.000070,
2446,2878,4.03431142373379,5.07428449380198,-0.00993517797178356,0.000964,-0.015306,0.009575,0.002272,-0.619918,316.783323,24.289668,0.999484,0.991624,0.003677,0.463294,0.000020,0.000016,0.000019,0.000038,-0.000001,41.982659,0.000043,
2056,2473,-4.37901096173127,-3.76312493783951,-0.00614381732566471,-0.000525,-0.015138,0.005328,-0.043946,-0.634380,324.083232,23.886228,0.999274,0.986402,0.004912,0.347211,0.000108,0.000022,0.000025,0.000115,0.000015,15.205916,0.000142,
2191,3028,-1.53433741092541,8.31550220230141,0.0203142686237925,0.000729,-0.015304,0.014020,-0.015810,-0.621165,314.735499,24.012709,0.999539,0.991915,0.003852,0.460621,0.000013,0.000024,0.000014,0.000034,0.000004,55.698707,0.000041,
2116,2713,-3.1130618453347,1.46853681576129,-0.0176392003515957,0.000041,-0.015012,0.007721,-0.026007,-0.626708,319.818618,23.764929,0.999308,0.989327,0.004133,0.404105,0.000044,0.000008,0.000002,0.000044,0.000008,2.628370,0.000056,
2026,2443,-5.0274597352841,-4.41753773535576,-0.00806009126904428,-0.001004,-0.014694,0.007207,-0.070512,-0.610802,324.701225,23.982835,0.999348,0.989476,0.004194,0.360309,0.000168,-0.000008,0.000032,0.000174,-0.000013,10.063781,0.000193,
2191,3103,-1.54529089436282,9.94195730325556,0.0383233204102567,0.001352,-0.014984,0.012288,0.018493,-0.610616,313.695830,24.092052,0.999497,0.992310,0.003605,0.459341,0.000012,0.000024,0.000009,0.000029,0.000007,61.791789,0.000038,
2461,2998,4.33824302571924,7.68310866838592,0.00876761058225384,0.001236,-0.015557,0.012509,0.003241,-0.634586,315.009579,24.704010,0.999341,0.989490,0.004081,0.489216,0.000032,0.000013,0.000033,0.000057,-0.000012,37.045383,0.000060,
2341,2368,1.84508781437031,-6.05414042349267,-0.00857428729813137,-0.000227,-0.015328,0.000935,-0.019657,-0.651175,324.971697,22.819396,0.998974,0.984165,0.004974,0.464043,0.000166,0.000148,0.000024,0.000183,0.000131,34.551872,0.000315,
2176,3028,-1.85958948533544,8.31499732613357,0.0167759873180557,0.001100,-0.015069,0.011707,0.009180,-0.596294,314.779577,23.967240,0.999477,0.991099,0.003916,0.484172,0.000015,0.000024,0.000017,0.000038,0.000002,52.509789,0.000044,
2116,2743,-3.11892552445529,2.12261733724945,-0.0248655945163136,-0.000279,-0.014988,0.011102,-0.050665,-0.599249,319.246428,23.803204,0.999399,0.989714,0.004071,0.400651,0.000031,0.000009,0.000002,0.000031,0.000009,5.177137,0.000042,
2011,2398,-5.346612423119,-5.40172501650984,0.00233540396578746,-0.001292,-0.014839,0.007077,-0.083101,-0.606589,325.595798,23.971337,0.999204,0.987443,0.004455,0.446152,0.000206,0.000015,0.000004,0.000206,0.000015,1.298571,0.000248,
2161,2863,-2.15985093323496,4.73237061903973,-0.0104317988850653,0.000439,-0.015416,0.012640,-0.023867,-0.626683,317.260289,23.853739,0.999413,0.991161,0.003693,0.416495,0.000017,0.000045,0.000016,0.000052,0.000010,66.116468,0.000067,
2506,3253,5.26722764214678,13.2238778652103,0.0249598195044314,0.001880,-0.015093,0.009841,0.041969,-0.622886,311.114693,25.887061,0.999706,0.992573,0.003525,0.463854,0.000034,0.000050,0.000048,0.000091,-0.000007,49.581928,0.000101,
2281,2203,0.567320620359695,-9.66804673815022,0.0097394010208518,-0.000917,-0.016589,-0.000168,-0.047684,-0.725942,327.801180,22.692742,0.998739,0.978820,0.005691,0.390081,0.000343,0.000361,0.000009,0.000364,0.000339,67.227037,0.000704,
2296,2263,0.882804232233575,-8.351964591864,-0.00171736358356611,-0.000815,-0.016474,0.002211,-0.051087,-0.720709,326.717510,22.839720,0.999428,0.986928,0.004794,0.303166,0.000257,0.000232,-0.000005,0.000258,0.000231,-11.021939,0.000489,
2086,2743,-3.76914795707622,2.11918092482679,-0.0114672019004729,0.000139,-0.015216,0.010551,-0.029020,-0.612111,319.524925,23.713772,0.999424,0.989928,0.003991,0.467037,0.000024,0.000003,0.000004,0.000025,0.000003,9.459527,0.000030,
2221,3253,-0.92081504779161,13.1963677955133,0.0331435398528583,0.001459,-0.014861,0.009763,0.030600,-0.614642,311.123871,24.348351,0.999593,0.994025,0.003262,0.491259,0.000013,0.000023,0.000016,0.000035,0.000001,54.055287,0.000041,
2041,2488,-4.70712547985605,-3.43718384292441,-0.00745973710746739,-0.000376,-0.014821,0.002048,-0.027665,-0.623168,323.933182,23.802679,0.999307,0.987795,0.004545,0.470260,0.000123,0.000029,0.000033,0.000133,0.000018,17.686107,0.000166,
2041,2383,-4.69209240772937,-5.72879236402731,-0.0037492872763778,-0.001360,-0.014896,0.002355,-0.073754,-0.642695,325.611439,23.874619,0.999221,0.987337,0.004462,0.421747,0.000192,0.000075,0.000039,0.000204,0.000063,16.960980,0.000279,
2056,2593,-4.3982343647991,-1.14513133733594,-0.0223521248330485,-0.000113,-0.014739,0.009324,-0.036159,-0.591367,322.016466,23.848025,0.998915,0.987058,0.004423,0.393565,0.000053,0.000031,0.000005,0.000054,0.000030,10.872930,0.000085,
2491,3133,4.96484174877802,10.6176613445424,0.0249334396402219,0.001192,-0.015652,0.011509,0.004087,-0.634589,313.005730,25.333270,0.999521,0.990476,0.003665,0.465284,0.000035,0.000051,0.000029,0.000073,0.000013,52.778601,0.000092,
2326,2248,1.54082585706357,-8.68250958855517,0.00891020026995193,-0.000811,-0.016589,0.002747,-0.053057,-0.710868,327.027816,22.581130,0.998799,0.979437,0.005532,0.401593,0.000289,0.000258,-0.000010,0.000292,0.000255,-15.755441,0.000548,
2251,2143,-0.0767293027835692,-10.9831024269871,0.0141081761626083,-0.001448,-0.016878,-0.001711,-0.066974,-0.731373,328.829805,22.721073,0.998768,0.980368,0.005482,0.402174,0.000438,0.000489,0.000042,0.000513,0.000415,60.411566,0.000929,
2206,3298,-1.25522361059221,14.1708304226301,0.014094921408514,0.001702,-0.015218,0.012168,0.034457,-0.624767,310.271171,24.318107,0.999323,0.992672,0.003405,0.476993,0.000001,0.000050,0.000015,0.000054,-0.000004,74.167043,0.000061,
2251,2068,-0.0631109785255433,-12.6295901210196,0.025910653717574,-0.001692,-0.017711,-0.000060,-0.083834,-0.769936,330.118544,22.579085,0.999182,0.980198,0.005338,0.373053,0.000541,0.000629,0.000024,0.000635,0.000535,75.769275,0.001171,
2416,2728,3.41009727967682,1.80651868523068,-0.0200268694606507,0.000627,-0.015371,0.004740,0.005200,-0.649613,319.101686,23.712942,0.999621,0.990502,0.003895,0.485246,0.000030,0.000057,0.000019,0.000067,0.000019,62.510778,0.000090,
2071,2503,-4.05712048927076,-3.10952415066157,-0.00819646526815632,-0.000054,-0.014951,0.005054,-0.021707,-0.628784,323.522454,23.729379,0.999353,0.989805,0.004153,0.470791,0.000097,0.000033,0.000026,0.000106,0.000024,19.907358,0.000139,
2011,2413,-5.34919016960874,-5.07440069200002,-0.00146522499665025,-0.001623,-0.014692,0.004091,-0.090249,-0.619012,325.315657,23.929732,0.999177,0.987224,0.004481,0.465211,0.000196,-0.000006,0.000019,0.000198,-0.000008,5.305607,0.000224,
2191,3223,-1.56571204069469,12.543396739642,0.0473713219278125,0.001369,-0.015416,0.016599,0.005586,-0.623595,311.795969,24.231915,0.999700,0.994382,0.003225,0.412402,0.000010,0.000041,0.000009,0.000044,0.000008,75.643489,0.000055,
2101,2623,-3.42490066424798,-0.491458474949361,-0.0289436721081984,0.000107,-0.014787,0.003183,-0.009221,-0.610338,321.269259,23.654581,0.999051,0.986143,0.004664,0.520573,0.000056,0.000029,0.000011,0.000060,0.000025,20.050557,0.000087,
2266,2233,0.234931738944081,-9.01047275158021,0.005679251586173,-0.000599,-0.016224,-0.002419,-0.025531,-0.716923,327.325946,22.818097,0.998798,0.978214,0.005600,0.404932,0.000302,0.000295,0.000018,0.000317,0.000280,39.403018,0.000598,
2101,2683,-3.43410950854818,0.814055325962606,-0.0180812305881091,0.000131,-0.015221,0.008769,-0.024592,-0.615041,320.372940,23.662644,0.999463,0.991075,0.003754,0.514576,0.000044,0.000005,0.000009,0.000046,0.000003,12.793005,0.000055,
2071,2638,-4.07853588863224,-0.165883910107269,-0.0165125580817289,0.000085,-0.014866,0.006001,-0.017970,-0.603209,321.273268,23.760827,0.998889,0.986527,0.004621,0.443991,0.000053,0.000020,0.000006,0.000054,0.000019,10.275759,0.000076,
2386,2578,2.78593532357981,-1.46589187107347,-0.00796496212279862,0.000151,-0.016140,0.008757,-0.030906,-0.656002,321.575879,23.324380,0.999396,0.988352,0.004357,0.424642,0.000077,0.000041,0.000038,0.000101,0.000018,32.404660,0.000128,
2026,2353,-5.01413781747334,-6.38399578767188,0.000408474121343261,-0.001612,-0.015230,0.006165,-0.095707,-0.619911,326.197286,23.961527,0.999057,0.986040,0.004842,0.421522,0.000219,0.000074,0.000019,0.000221,0.000072,7.184301,0.000306,
2476,3073,4.65086579096362,9.31339349089533,0.0246370803783975,0.001228,-0.015386,0.010740,0.009188,-0.636887,313.954236,25.066080,0.999593,0.989977,0.003986,0.445803,0.000033,0.000048,0.000030,0.000072,0.000010,51.710221,0.000089,
2056,2488,-4.38153958216731,-3.43596435384767,-0.00826885553362899,-0.000708,-0.014940,0.004102,-0.048857,-0.627207,323.818580,23.852875,0.999352,0.988294,0.004513,0.383652,0.000101,0.000031,0.000027,0.000110,0.000022,18.685174,0.000141,
2116,2848,-3.13431159269884,4.40384648076066,-0.00966302752294723,0.000437,-0.015126,0.011814,-0.019883,-0.603549,317.699459,23.756003,0.999658,0.992805,0.003503,0.466763,0.000019,0.000037,0.000014,0.000045,0.000011,61.626794,0.000059,
2461,3013,4.33607408349439,8.00963247301522,0.0156923687097219,0.001262,-0.015326,0.009360,0.016428,-0.621583,314.834922,24.834936,0.999429,0.989467,0.003952,0.424917,0.000028,0.000026,0.000026,0.000054,0.000001,43.888202,0.000063,
2131,2818,-2.80370833551418,3.7519119231534,-0.00464317236350098,0.000081,-0.014968,0.011131,-0.034645,-0.601784,318.148544,23.753439,0.999314,0.990897,0.003955,0.480441,0.000029,0.000032,0.000012,0.000042,0.000019,47.898571,0.000063,
2371,2503,2.47383680163337,-3.10441426826417,-0.00138700112023571,-0.000050,-0.016137,0.007614,-0.035723,-0.670674,322.834741,23.119187,0.999458,0.987280,0.004466,0.424860,0.000116,0.000059,0.000044,0.000140,0.000035,28.715363,0.000185,
2431,2848,3.71336442795082,4.42057694021945,-0.00702972132523882,0.000535,-0.015460,0.012160,-0.026670,-0.619357,317.242919,24.190345,0.999329,0.987066,0.004204,0.439473,0.000023,0.000021,0.000011,0.000033,0.000012,42.299251,0.000046,
2086,2638,-3.75314562391689,-0.165696977231782,-0.0171342582889906,-0.000115,-0.015338,0.010264,-0.039901,-0.616292,321.168256,23.730662,0.999114,0.987510,0.004394,0.450571,0.000051,0.000024,0.000007,0.000052,0.000022,13.196165,0.000076,
2131,2923,-2.81945293241931,6.0327868817182,0.00466526416488477,0.000852,-0.015154,0.008778,0.007773,-0.637704,316.561293,23.802175,0.999287,0.988825,0.004209,0.432941,0.000017,0.000044,0.000018,0.000052,0.000008,63.644701,0.000066,
2146,2998,-2.50526818009955,7.66182119811423,0.0171016777684372,0.001015,-0.014451,0.006838,0.021139,-0.589947,315.394613,23.860721,0.999610,0.992697,0.003536,0.489372,0.000010,0.000031,0.000018,0.000042,-0.000001,60.191578,0.000047,
2011,2458,-5.35475150659271,-4.09234493829899,2.1893219809499E-05,-0.000735,-0.014417,0.002855,-0.045985,-0.616949,324.646614,23.925298,0.999416,0.989764,0.004058,0.439873,0.000166,-0.000021,0.000020,0.000168,-0.000023,5.902661,0.000182,
2206,3193,-1.23473183101126,11.894378340846,0.0445171565352211,0.001613,-0.014875,0.010854,0.034624,-0.608027,312.246885,24.235964,0.999761,0.996015,0.002982,0.468927,0.000013,0.000030,0.000009,0.000034,0.000009,67.225211,0.000046,
2161,2878,-2.16166537308237,5.05782696682014,-0.00387411787806968,0.000672,-0.015296,0.012186,-0.011706,-0.623580,317.083294,23.856937,0.999512,0.992281,0.003562,0.425988,0.000017,0.000058,0.000015,0.000063,0.000012,72.126174,0.000080,
2071,2518,-4.06001153389401,-2.78204289135243,-0.0118948174875868,-0.000345,-0.015117,0.005774,-0.037193,-0.626861,323.233841,23.726899,0.999429,0.990832,0.003915,0.473238,0.000086,0.000029,0.000024,0.000095,0.000020,19.932527,0.000123,
2161,2953,-2.17322815740014,6.68612642610874,0.00689114680261582,0.000752,-0.014959,0.008476,0.003513,-0.611564,315.967515,23.866407,0.999420,0.990955,0.003796,0.476392,0.000017,0.000039,0.000016,0.000047,0.000008,62.039800,0.000060,
2281,2323,0.54577683610416,-7.04024786764737,0.00624630947254445,-0.000534,-0.016008,0.001644,-0.035998,-0.679920,325.846643,22.960092,0.998964,0.982486,0.005356,0.409139,0.000191,0.000173,0.000009,0.000195,0.000170,22.273541,0.000365,
2311,2218,1.21944206433454,-9.34002272678151,0.00833435259340831,-0.000679,-0.016279,-0.001481,-0.032328,-0.706651,327.535506,22.515454,0.998945,0.976325,0.005785,0.470936,0.000327,0.000339,0.000001,0.000339,0.000327,83.541860,0.000666,
2116,2758,-3.11980800208904,2.44709539016779,-0.0123154596279278,0.000150,-0.014882,0.006434,-0.017121,-0.619376,319.141950,23.755729,0.999493,0.990644,0.003851,0.431227,0.000030,0.000012,0.000002,0.000030,0.000011,4.937322,0.000043,
2281,2218,0.564196568291418,-9.33904534588821,0.0091528734655526,-0.001296,-0.016512,-0.000049,-0.065467,-0.708241,327.536380,22.742429,0.998947,0.980364,0.005455,0.388497,0.000321,0.000327,0.000011,0.000336,0.000312,52.511758,0.000649,
2071,2653,-4.0813325169904,0.161148021477615,-0.0230523907537759,0.000114,-0.014952,0.007255,-0.020250,-0.613323,320.973602,23.750743,0.999203,0.988647,0.004245,0.441529,0.000050,0.000013,0.000007,0.000052,0.000012,10.373185,0.000068,
2266,2128,0.253305598822124,-11.3123451282893,0.0138541230522833,-0.001414,-0.017046,-0.002141,-0.064103,-0.729704,329.047771,22.583446,0.998881,0.979761,0.005547,0.429141,0.000466,0.000548,0.000030,0.000558,0.000457,72.050109,0.001016,
2326,2263,1.53857252956437,-8.35416034556047,0.00913801881767995,-0.000471,-0.016184,0.000582,-0.029848,-0.717839,326.810796,22.620471,0.999078,0.982409,0.005037,0.391620,0.000270,0.000221,-0.000015,0.000274,0.000217,-15.476271,0.000492,
2176,3013,-1.85713660586657,7.98975487007711,0.0160775806438096,0.001032,-0.014951,0.011545,0.006551,-0.600421,315.015699,23.987891,0.999324,0.989127,0.004109,0.447983,0.000016,0.000028,0.000021,0.000043,0.000000,52.887629,0.000050,
2176,3043,-1.86147015556059,8.64141345565791,0.0221280263580184,0.001171,-0.014495,0.008063,0.023890,-0.600390,314.593747,24.097242,0.999677,0.994923,0.003271,0.361334,0.000016,0.000021,0.000012,0.000031,0.000006,51.193472,0.000039,
2086,2758,-3.77179161958958,2.44628545709064,-0.0228628546094569,0.000463,-0.015014,0.008467,-0.008067,-0.617846,319.207181,23.702631,0.999474,0.990431,0.003926,0.471830,0.000022,0.000005,0.000004,0.000023,0.000004,11.461906,0.000030,
2341,2383,1.8417855710735,-5.72597710111926,-0.00590674964945492,-0.000497,-0.016212,0.006443,-0.051518,-0.673315,324.719320,22.922807,0.999376,0.985091,0.004798,0.376851,0.000162,0.000141,0.000026,0.000179,0.000124,33.946163,0.000304,
2296,2218,0.89209530199912,-9.33902231169254,0.00942634319613944,-0.000806,-0.016035,-0.001684,-0.037383,-0.694275,327.550599,22.669577,0.998825,0.977813,0.005692,0.402053,0.000318,0.000332,0.000003,0.000333,0.000317,78.138880,0.000650,
2236,2068,-0.39048058210992,-12.6305896366195,0.0343310503357088,-0.001913,-0.018704,0.004201,-0.107966,-0.790707,330.193450,22.668240,0.999015,0.978916,0.005571,0.357942,0.000535,0.000621,0.000029,0.000630,0.000526,72.758386,0.001157,
2491,3148,4.96211796878138,10.9432584101277,0.0315323276323625,0.001204,-0.015729,0.014147,-0.005531,-0.632842,312.805296,25.419044,0.999478,0.989479,0.003881,0.438806,0.000036,0.000037,0.000026,0.000063,0.000010,45.304643,0.000079,
2251,2083,-0.0669749465850451,-12.299106418809,0.0154772626535191,-0.001904,-0.018382,0.003704,-0.106045,-0.780839,329.768001,22.633917,0.999281,0.980653,0.005396,0.334474,0.000522,0.000608,0.000029,0.000617,0.000513,72.905337,0.001132,
2146,2908,-2.49143264443554,5.70812790433221,0.00138985318432105,0.000903,-0.015075,0.007180,0.014743,-0.606976,316.722966,23.801274,0.999395,0.988877,0.004147,0.488380,0.000012,0.000043,0.000015,0.000050,0.000006,67.868754,0.000061,
2026,2368,-5.01611603256903,-6.05743920170395,0.00401284519148248,-0.001507,-0.015376,0.007554,-0.094753,-0.617359,325.987156,23.891305,0.999126,0.986403,0.004798,0.486179,0.000221,0.000080,0.000026,0.000225,0.000075,10.002417,0.000313,
2296,2278,0.88084046996558,-8.02541074338981,0.0086921134436011,-0.000586,-0.016892,0.005593,-0.052116,-0.697288,326.561632,22.793251,0.999373,0.985611,0.004797,0.404849,0.000244,0.000228,-0.000008,0.000247,0.000225,-21.530061,0.000472,
2056,2608,-4.40023887345359,-0.819956990302458,-0.0189092170296021,-0.000242,-0.014808,0.005858,-0.032373,-0.618066,321.807180,23.754676,0.999060,0.988351,0.004292,0.455370,0.000058,0.000024,0.000001,0.000058,0.000024,1.035819,0.000084,
2266,2248,0.23142043261247,-8.68174206031546,0.00504128233490064,-0.000925,-0.016560,0.004137,-0.062233,-0.694967,327.041819,22.848987,0.998796,0.981164,0.005460,0.424084,0.000285,0.000260,0.000015,0.000292,0.000253,24.801745,0.000546,
2221,1993,-0.704513437417777,-14.2775857347805,0.0367536809791318,-0.001964,-0.019398,-0.002076,-0.090307,-0.841923,331.469294,22.601452,0.999531,0.988283,0.004663,0.355867,0.000692,0.000673,-0.000001,0.000692,0.000673,-2.622579,0.001364,
2401,2668,3.09520577955393,0.498344439831129,-0.0143797776688075,0.000375,-0.015657,0.006197,-0.011559,-0.650296,320.091428,23.588433,0.999335,0.988230,0.004395,0.423257,0.000037,0.000027,0.000018,0.000051,0.000013,37.846228,0.000067,
2356,2458,2.15515247607746,-4.08664340665531,-0.00767802663023076,-0.000080,-0.015842,0.004339,-0.025165,-0.683955,323.517160,23.071769,0.999229,0.985620,0.004703,0.370056,0.000134,0.000103,0.000048,0.000169,0.000069,36.105925,0.000244,
2506,3268,5.26345069832442,13.5500362966715,0.0207884068708495,0.001810,-0.015447,0.012931,0.026694,-0.620983,310.817269,25.992231,0.999840,0.995356,0.002902,0.420112,0.000038,0.000022,0.000055,0.000086,-0.000026,41.044258,0.000088,
2041,2398,-4.69421881118496,-5.40176284074292,-0.00809497384580027,-0.000981,-0.014883,0.002238,-0.056013,-0.638783,325.351586,23.780370,0.999133,0.988043,0.004378,0.514139,0.000180,0.000055,0.000035,0.000189,0.000046,14.581837,0.000249,
2071,2533,-4.06199338614952,-2.45436900087994,-0.00852273041601848,-0.000171,-0.014643,0.006410,-0.030831,-0.583261,323.025296,23.768903,0.999394,0.990277,0.004046,0.472630,0.000077,0.000032,0.000026,0.000089,0.000020,24.273608,0.000116,
2191,3238,-1.56741157661328,12.8677264261887,0.0528272297690364,0.001498,-0.014785,0.010792,0.029971,-0.611035,311.620542,24.197698,0.999756,0.994005,0.003208,0.472438,0.000010,0.000037,0.000008,0.000039,0.000008,75.510721,0.000050,
2086,2653,-3.7547080209784,0.160480190689796,-0.0115534641006434,0.000409,-0.015363,0.011438,-0.019172,-0.608314,320.992601,23.725954,0.999429,0.989397,0.003989,0.462641,0.000048,0.000017,0.000007,0.000049,0.000016,12.531837,0.000068,
2101,2698,-3.43660363951448,1.14118476409948,-0.0148858386746156,-0.000122,-0.015224,0.009464,-0.038265,-0.608663,320.142441,23.740471,0.999309,0.990082,0.003988,0.444471,0.000047,0.000006,0.000009,0.000049,0.000004,12.026270,0.000059,
2026,2458,-5.03005609263592,-4.09054609688067,-0.0207505294626458,-0.000680,-0.014846,0.006032,-0.052441,-0.614182,324.372158,23.835940,0.999421,0.989821,0.004086,0.495794,0.000152,0.000004,0.000026,0.000156,-0.000001,9.793875,0.000180,
2011,2428,-5.35128847272537,-4.74680132266735,-0.00166316468539662,-0.001464,-0.014692,0.004823,-0.084914,-0.621978,325.077508,23.943171,0.999093,0.986042,0.004638,0.438382,0.000184,-0.000021,0.000024,0.000187,-0.000023,6.683288,0.000204,
2416,2743,3.4071662922896,2.13376504913457,-0.0179598158752583,0.000627,-0.015494,0.006549,-0.001489,-0.647725,318.867661,23.815290,0.999517,0.989465,0.004010,0.432431,0.000030,0.000059,0.000020,0.000069,0.000020,63.108608,0.000093,
2071,2668,-4.08405273640803,0.487558683639563,-0.0225904863735877,-0.000196,-0.015077,0.008832,-0.039054,-0.612882,320.715905,23.736910,0.999189,0.988732,0.004242,0.453040,0.000042,-0.000001,0.000008,0.000044,-0.000003,10.102995,0.000049,
2491,3163,4.95932321297257,11.2687356845636,0.0298149835009553,0.001303,-0.015457,0.010386,0.013589,-0.635166,312.563966,25.450800,0.999574,0.990955,0.003622,0.462737,0.000034,0.000041,0.000032,0.000070,0.000006,47.951829,0.000084,
2251,2158,-0.0786408105697767,-10.654890349105,0.0175889269791014,-0.001184,-0.016534,-0.004507,-0.045642,-0.744829,328.638806,22.750918,0.998491,0.980564,0.005404,0.384779,0.000414,0.000451,0.000042,0.000478,0.000387,56.817236,0.000867,
2446,2893,4.02998748907938,5.40133834997872,-0.020175007787202,0.000673,-0.015782,0.011960,-0.020166,-0.627795,316.429858,24.337066,0.999341,0.991313,0.003875,0.459911,0.000021,0.000004,0.000025,0.000039,-0.000014,35.482507,0.000039,
2461,3028,4.33320621740368,8.33548527013336,0.0209643514527329,0.001108,-0.015445,0.010896,0.003528,-0.621883,314.620629,24.909594,0.999673,0.991334,0.003762,0.403603,0.000024,0.000040,0.000025,0.000059,0.000006,53.525085,0.000071,
2101,2638,-3.42792574574507,-0.164644351384233,-0.0255019186000141,-0.000470,-0.015057,0.007496,-0.048490,-0.612126,321.015864,23.697052,0.999030,0.986489,0.004527,0.478137,0.000055,0.000025,0.000011,0.000058,0.000021,17.640514,0.000082,
2056,2503,-4.38439524604346,-3.1095212507238,-0.0133139718052462,-0.000677,-0.015401,0.008754,-0.060678,-0.632176,323.523145,23.744655,0.999318,0.988722,0.004345,0.482585,0.000096,0.000033,0.000025,0.000105,0.000025,19.104761,0.000137,
2011,2473,-5.35768020842267,-3.76465314147831,-0.00406485947991087,-0.001034,-0.014804,0.005845,-0.067927,-0.609080,324.348727,23.915393,0.999152,0.986978,0.004462,0.447112,0.000155,-0.000014,0.000027,0.000160,-0.000019,8.940250,0.000175,
2431,2863,3.71057847251294,4.74680058992283,-0.00570551863938817,0.000473,-0.015520,0.010412,-0.023090,-0.632320,317.012900,24.241488,0.999499,0.989978,0.003826,0.424886,0.000021,0.000016,0.000009,0.000028,0.000010,36.957609,0.000039,
2161,2968,-2.17569339246801,7.01219243237824,0.00816644338021888,0.000825,-0.015151,0.009890,0.002474,-0.621446,315.732585,23.923543,0.999616,0.992626,0.003455,0.418807,0.000020,0.000035,0.000017,0.000046,0.000009,57.295780,0.000059,
2026,2383,-5.01828257853354,-5.72921492229327,0.00299490887493903,-0.001574,-0.014863,0.004459,-0.089184,-0.608439,325.742295,23.927123,0.999418,0.988760,0.004125,0.451317,0.000214,0.000055,0.000024,0.000217,0.000052,8.388011,0.000285,
2041,2413,-4.69758525030903,-5.07319599057307,-0.014459318427555,-0.001491,-0.015364,0.005676,-0.089133,-0.636144,325.023517,23.814532,0.998851,0.983871,0.004939,0.476917,0.000170,0.000032,0.000037,0.000179,0.000023,14.014095,0.000222,
2476,3088,4.64785014669328,9.63936049672062,0.0268674476247952,0.001394,-0.015676,0.014582,0.002071,-0.633625,313.719844,25.142600,0.999420,0.991331,0.003790,0.428095,0.000038,0.000053,0.000026,0.000072,0.000019,52.802021,0.000096,
2236,2083,-0.394150886462466,-12.2997680759943,0.0241526214113037,-0.002348,-0.018434,0.002933,-0.123752,-0.766129,329.851178,22.720417,0.999327,0.981199,0.005351,0.355273,0.000517,0.000600,0.000034,0.000613,0.000505,70.323956,0.001119,
2116,2863,-3.13603165190672,4.72934225699603,-0.00324013509282395,0.000771,-0.015206,0.012255,-0.005836,-0.608721,317.523398,23.765261,0.999642,0.992314,0.003558,0.455315,0.000019,0.000039,0.000014,0.000046,0.000012,62.799980,0.000061,
2266,2143,0.250718803145585,-10.9811840608706,0.0132538723422044,-0.001175,-0.016988,-0.000674,-0.057959,-0.731332,328.806191,22.821942,0.999453,0.983855,0.005124,0.217373,0.000441,0.000489,0.000033,0.000506,0.000424,63.047793,0.000931,
2146,3013,-2.50761212650822,7.9880103067843,0.0171698590029337,0.001135,-0.014396,0.006225,0.028549,-0.595435,315.157728,23.927801,0.999411,0.990041,0.004028,0.424095,0.000011,0.000030,0.000020,0.000042,-0.000001,57.625319,0.000048,
2191,3118,-1.54788590616246,10.2668904778801,0.0433576168094874,0.001042,-0.015017,0.012870,0.002301,-0.621272,313.476901,24.107071,0.999585,0.992663,0.003492,0.447159,0.000011,0.000020,0.000007,0.000024,0.000007,61.850574,0.000032,
2206,3208,-1.23771760537187,12.2193781710324,0.0461875028823329,0.001371,-0.015106,0.014281,0.012572,-0.597981,311.993315,24.237967,0.999573,0.994232,0.003334,0.492358,0.000014,0.000032,0.000010,0.000036,0.000009,65.852957,0.000048,
2221,2008,-0.708538263346334,-13.9455298566639,0.0212345825481179,-0.002436,-0.018797,-0.003602,-0.106863,-0.830388,331.082027,22.686875,0.999441,0.986734,0.004977,0.305479,0.000648,0.000672,0.000009,0.000675,0.000645,72.547131,0.001320,
2296,2293,0.877951521259455,-7.69652533917063,0.0089551577950715,-0.000806,-0.016641,0.005099,-0.060459,-0.697830,326.312967,22.885586,0.999309,0.985162,0.004831,0.343980,0.000224,0.000219,-0.000003,0.000226,0.000217,-26.866159,0.000443,
2506,3283,5.25992989662753,13.8747959717755,0.0157016360917055,0.001717,-0.015585,0.011882,0.026382,-0.640465,310.527908,25.988847,0.999823,0.995584,0.002812,0.463473,0.000043,0.000005,0.000056,0.000083,-0.000035,35.718436,0.000084,
2221,3268,-0.923519240053711,13.521079679724,0.0300675656011435,0.001668,-0.014908,0.010462,0.037956,-0.624079,310.859777,24.332618,0.999453,0.993688,0.003390,0.514960,0.000011,0.000027,0.000015,0.000036,0.000002,59.042970,0.000043,
2311,2233,1.21697873838271,-9.01060970312004,0.0076735338162166,-0.000377,-0.016291,-0.002007,-0.016683,-0.715376,327.303199,22.634023,0.998756,0.977284,0.005783,0.378178,0.000302,0.000303,0.000001,0.000304,0.000302,55.330241,0.000606,
2281,2233,0.561947082710294,-9.01023942572505,0.00954658154563504,-0.000980,-0.016471,-0.001406,-0.046446,-0.717709,327.316611,22.816675,0.998940,0.979462,0.005502,0.334907,0.000294,0.000296,0.000008,0.000303,0.000287,50.137096,0.000590,
2401,2683,3.09198646513611,0.825868666669258,-0.0149705199661412,0.000360,-0.015450,0.009169,-0.022892,-0.629741,319.830708,23.657518,0.999393,0.987947,0.004343,0.420906,0.000035,0.000038,0.000018,0.000054,0.000018,47.202390,0.000075,
2491,3178,4.95776572980224,11.5938213502101,0.0411723008926401,0.001743,-0.015335,0.009006,0.039175,-0.627331,312.438814,25.517877,0.999589,0.990522,0.003786,0.461062,0.000034,0.000042,0.000033,0.000071,0.000005,48.778251,0.000085,
2191,3253,-1.57087824540057,13.193204837676,0.0439174898298234,0.001462,-0.014899,0.013960,0.018418,-0.591287,311.288421,24.185177,0.999663,0.993835,0.003254,0.517710,0.000009,0.000034,0.000013,0.000039,0.000004,67.399743,0.000048,
2146,2923,-2.49379184094927,6.03376248429399,0.00615914790563465,0.000765,-0.014955,0.007781,0.006563,-0.616910,316.510568,23.831448,0.999164,0.986391,0.004483,0.455718,0.000012,0.000045,0.000016,0.000052,0.000005,67.751702,0.000063,
2131,2833,-2.80601925991186,4.07887658321228,-0.0127102701309809,0.000434,-0.014828,0.006093,-0.003255,-0.617328,317.868436,23.790851,0.999524,0.992197,0.003673,0.433196,0.000027,0.000031,0.000011,0.000041,0.000018,49.510664,0.000060,
2176,3148,-1.87860131209309,10.9170932722098,0.0369528006942801,0.001283,-0.014955,0.012421,0.015413,-0.603294,312.994918,24.085543,0.999442,0.993034,0.003605,0.448810,0.000011,0.000025,0.000009,0.000029,0.000007,63.186779,0.000038,
2341,2398,1.8393120664628,-5.39835361230443,-0.00208822649238982,-0.000493,-0.015867,0.005956,-0.049518,-0.658827,324.510413,22.955747,0.999654,0.987347,0.004519,0.396623,0.000155,0.000143,0.000030,0.000180,0.000119,39.091863,0.000300,
2506,3298,5.25718904752317,14.199995811746,0.019291626870654,0.001718,-0.015393,0.011396,0.028408,-0.631202,310.313263,26.048342,0.999703,0.993379,0.003302,0.472886,0.000027,-0.000028,0.000032,0.000041,-0.000042,24.432625,0.000048,
2026,2473,-5.03246813016736,-3.76304628592053,-0.0179350958849227,-0.000865,-0.015001,0.008669,-0.068222,-0.599701,324.137665,23.867188,0.998960,0.985248,0.004769,0.470558,0.000144,0.000009,0.000031,0.000151,0.000002,12.443160,0.000175,
2071,2548,-4.0646109511004,-2.12730469020841,-0.0143687579185325,-0.000038,-0.014768,0.007386,-0.027531,-0.592061,322.737605,23.729979,0.999461,0.990903,0.003997,0.500661,0.000077,0.000030,0.000029,0.000091,0.000016,25.222663,0.000115,
2161,3073,-2.19107459987793,9.28864847101501,0.0385951327956491,0.001175,-0.014804,0.010468,0.016949,-0.600287,314.289498,23.928857,0.999621,0.994114,0.003329,0.499243,0.000017,0.000024,0.000007,0.000028,0.000013,58.662982,0.000042,
2371,2518,2.47092598928343,-2.77679840026156,-0.0086276750231491,0.000135,-0.015734,0.003358,-0.012008,-0.672640,322.554790,23.105426,0.999376,0.985909,0.004757,0.479145,0.000104,0.000053,0.000042,0.000127,0.000029,29.495221,0.000167,
2296,2353,0.867366308509286,-6.38494137233686,0.0110202694712029,-0.000633,-0.016267,0.005494,-0.053727,-0.680278,325.367922,22.933971,0.999557,0.987979,0.004307,0.441001,0.000168,0.000160,0.000004,0.000170,0.000158,24.250588,0.000328,
2281,2338,0.543320060526224,-6.71137008867789,0.00228953059308878,-0.000145,-0.015348,-0.000257,-0.011584,-0.671914,325.595375,23.016832,0.999031,0.984456,0.005001,0.390011,0.000176,0.000175,0.000007,0.000182,0.000169,43.255377,0.000351,
2461,3043,4.3303864831194,8.66024281793012,0.0238338668176539,0.001222,-0.015799,0.012751,0.001612,-0.637690,314.397796,24.886329,0.999537,0.989864,0.003952,0.464407,0.000021,0.000046,0.000030,0.000066,0.000001,56.181223,0.000076,
2011,2683,-5.38817235827738,0.810501649469444,-0.0111523957258441,0.000196,-0.015080,0.008585,-0.018864,-0.609842,320.945547,23.712219,0.999793,0.995885,0.002918,0.492873,0.000047,-0.000032,0.000019,0.000051,-0.000036,13.104131,0.000053,
2056,2623,-4.40215607147725,-0.493493528811442,-0.0174481096305499,-0.000054,-0.014811,0.004024,-0.018540,-0.629578,321.590589,23.751559,0.999147,0.989811,0.004133,0.442302,0.000056,0.000018,-0.000001,0.000056,0.000018,-1.174010,0.000077,
2026,2518,-5.03902197095438,-2.78289054952533,-0.0172848378834374,-0.000735,-0.015203,0.008829,-0.062779,-0.620589,323.422940,23.766991,0.999714,0.993607,0.003431,0.523855,0.000109,0.000013,0.000026,0.000116,0.000006,14.266833,0.000138,
2011,2488,-5.36024120725813,-3.43670726535222,-0.0157511897926952,-0.000888,-0.014361,0.002553,-0.052164,-0.605709,324.025023,23.869103,0.999335,0.987176,0.004393,0.486388,0.000144,-0.000005,0.000031,0.000150,-0.000011,11.221300,0.000168,
2056,2518,-4.38611637246502,-2.78246371855921,-0.0080342273157612,-0.000527,-0.015095,0.007136,-0.049135,-0.624025,323.336208,23.777885,0.999254,0.989115,0.004253,0.453247,0.000084,0.000026,0.000022,0.000091,0.000019,18.808011,0.000118,
2041,2503,-4.71004136477639,-3.10991024160528,-0.00921762380016844,-0.000595,-0.014937,0.007379,-0.052591,-0.612170,323.651558,23.784001,0.999379,0.989492,0.004186,0.493404,0.000115,0.000032,0.000031,0.000125,0.000022,18.261115,0.000158,
2386,2593,2.78312878489691,-1.13846609095691,-0.00853694619445378,0.000367,-0.015864,0.009837,-0.024786,-0.653912,321.333483,23.374056,0.999486,0.988340,0.004353,0.421173,0.000075,0.000031,0.000037,0.000096,0.000010,29.592796,0.000117,
2086,2773,-3.77345446476852,2.77266035377457,-0.0175734720367586,0.000843,-0.014979,0.008391,0.009669,-0.616832,319.025398,23.754272,0.999543,0.990814,0.003971,0.420210,0.000023,0.000015,0.000007,0.000027,0.000011,30.085314,0.000039,
2236,2098,-0.396032462492567,-11.970952848246,0.0224698912709869,-0.001786,-0.017678,-0.000815,-0.085670,-0.756937,329.634085,22.704632,0.999200,0.979813,0.005557,0.404253,0.000499,0.000578,0.000042,0.000596,0.000481,66.814532,0.001079,
2131,2938,-2.82116380213361,6.35896787123748,0.0119087221012251,0.001166,-0.014952,0.009120,0.021321,-0.621688,316.390713,23.877434,0.999641,0.991927,0.003713,0.378509,0.000017,0.000044,0.000016,0.000052,0.000010,64.811392,0.000066,
2251,2098,-0.068989567804465,-11.970680573551,0.0200895046840515,-0.001631,-0.018140,0.003649,-0.093309,-0.773038,329.577942,22.653852,0.999275,0.978959,0.005706,0.348673,0.000503,0.000581,0.000035,0.000595,0.000490,69.103479,0.001086,
2116,2773,-3.12209866016849,2.77340849779809,-0.0126678232637119,0.000441,-0.014884,0.008415,-0.009552,-0.609677,318.902995,23.748891,0.999641,0.992287,0.003539,0.451218,0.000030,0.000021,0.000005,0.000032,0.000018,24.587707,0.000051,
2356,2473,2.15253399629285,-3.75887401131774,-0.00566727069070794,0.000007,-0.015688,0.004627,-0.022102,-0.663361,323.293709,23.119044,0.999565,0.987910,0.004267,0.383423,0.000126,0.000090,0.000048,0.000159,0.000057,34.538867,0.000224,
2086,2668,-3.7572411461454,0.486823436252521,-0.0132057579299385,0.000281,-0.015239,0.010412,-0.022081,-0.613890,320.733162,23.693832,0.999404,0.990051,0.003927,0.488735,0.000041,0.000004,0.000007,0.000042,0.000003,10.241485,0.000050,
2026,2488,-5.03374411593302,-3.4376720466683,-0.0116177561175732,-0.000446,-0.015017,0.006066,-0.041856,-0.630023,323.975361,23.784898,0.999280,0.987111,0.004391,0.513819,0.000136,0.000019,0.000033,0.000144,0.000010,14.727054,0.000173,
2101,2773,-3.44849232462986,2.77347934815616,-0.0182105840801228,0.000295,-0.015092,0.010720,-0.022740,-0.606714,318.913350,23.761951,0.999558,0.991002,0.003810,0.431927,0.000030,0.000017,0.000009,0.000034,0.000013,26.598139,0.000048,
2011,2923,-5.42301930221543,6.02665503427902,0.00661882201347908,0.000527,-0.014673,0.010393,-0.008431,-0.589615,317.210994,23.596375,0.999367,0.992209,0.003472,0.435495,0.000010,0.000011,-0.000004,0.000015,0.000006,-46.891626,0.000021,
2266,2263,0.230014705735552,-8.35370268415525,0.0197988053397467,-0.000613,-0.016288,0.005818,-0.053372,-0.692574,326.931366,22.998114,0.999543,0.988408,0.004596,0.304686,0.000266,0.000223,0.000010,0.000269,0.000221,11.997279,0.000490,
2161,2983,-2.1785342386963,7.33849420366191,0.00415837231810201,0.000887,-0.014923,0.011447,0.000614,-0.606089,315.452396,23.945070,0.999536,0.992727,0.003516,0.422142,0.000018,0.000034,0.000017,0.000045,0.000007,57.352511,0.000057,
2041,2428,-4.69967400391462,-4.74515640880368,-0.0140384477001021,-0.001411,-0.015024,0.004607,-0.082412,-0.629791,324.791507,23.866346,0.998793,0.983810,0.004976,0.425326,0.000160,0.000022,0.000045,0.000173,0.000008,16.466873,0.000205,
2101,2713,-3.43890417823234,1.46746460382803,-0.0166369865478941,0.000085,-0.015207,0.009435,-0.028663,-0.616107,319.894357,23.718137,0.999305,0.989526,0.004078,0.460940,0.000047,0.000004,0.000005,0.000047,0.000004,6.394823,0.000057,
2446,2908,4.02769392130096,5.72716122728934,-0.0140631312391406,0.000723,-0.015583,0.010093,-0.010809,-0.627641,316.245527,24.386363,0.999404,0.990549,0.003937,0.462523,0.000026,-0.000012,0.000028,0.000040,-0.000027,27.890383,0.000041,
2011,2503,-5.36279517265254,-3.10802938550395,-0.0199861272857902,-0.000859,-0.014534,0.004428,-0.056025,-0.619200,323.743255,23.980643,0.999688,0.991964,0.003779,0.350449,0.000130,-0.000002,0.000030,0.000136,-0.000009,12.246421,0.000153,
2326,2278,1.53486971439995,-8.02493844202753,0.00204443805421306,-0.000817,-0.016458,0.001068,-0.047521,-0.726595,326.491537,22.672611,0.999085,0.982367,0.005093,0.367810,0.000253,0.000215,-0.000011,0.000256,0.000212,-15.382252,0.000469,
2071,2683,-4.0860993052405,0.813626578030856,-0.0181209494481323,-0.000201,-0.015006,0.008487,-0.038270,-0.606177,320.511086,23.722851,0.999386,0.990412,0.003915,0.470849,0.000037,-0.000007,0.000009,0.000039,-0.000008,10.868929,0.000041,
2416,2758,3.40444632298127,2.46004334290755,-0.0166533936923656,0.000765,-0.015473,0.006780,0.004051,-0.640060,318.639925,23.821059,0.999486,0.988539,0.004162,0.482359,0.000034,0.000061,0.000018,0.000070,0.000025,63.350875,0.000099,
2491,3193,4.95525614585367,11.9189503930179,0.0482217471860622,0.001833,-0.015198,0.010509,0.037612,-0.616041,312.250210,25.562608,0.999517,0.990936,0.003754,0.485281,0.000034,0.000034,0.000037,0.000071,-0.000003,45.195280,0.000080,
2266,2158,0.248235242877026,-10.654381566941,0.0198328037350279,-0.001331,-0.017116,0.001535,-0.072420,-0.725382,328.605775,22.737314,0.999245,0.982507,0.005225,0.336285,0.000416,0.000449,0.000034,0.000470,0.000395,58.079782,0.000867,
2281,2248,0.559335722284025,-8.68242248181621,0.00707773306606896,-0.000855,-0.016119,-0.003137,-0.034801,-0.712150,327.066081,22.761433,0.999017,0.980355,0.005451,0.425839,0.000275,0.000262,0.000005,0.000277,0.000260,18.373484,0.000537,
2056,2638,-4.40483392849056,-0.166581476205977,-0.0178947944007746,-0.000150,-0.015148,0.007943,-0.034103,-0.628044,321.328525,23.765006,0.999128,0.988913,0.004276,0.425544,0.000063,0.000013,0.000001,0.000063,0.000013,1.736529,0.000081,
2011,2938,-5.42528834222197,6.35249097251414,0.00191189517306611,0.000742,-0.014621,0.009182,0.004808,-0.589245,316.940978,23.568461,0.999516,0.993332,0.003392,0.451185,0.000012,0.000011,0.000001,0.000013,0.000011,23.845881,0.000023,
2146,2938,-2.49613051110144,6.3602240135723,0.00785763489716373,0.000935,-0.014952,0.009572,0.008974,-0.606056,316.282497,23.898804,0.999405,0.989503,0.004050,0.406433,0.000012,0.000045,0.000016,0.000051,0.000005,67.829901,0.000062,
2176,3163,-1.88081582929143,11.2420003104975,0.0456515154622821,0.001113,-0.015006,0.013346,0.004711,-0.598861,312.811810,24.115527,0.999815,0.996340,0.002877,0.434260,0.000013,0.000032,0.000010,0.000037,0.000008,66.552852,0.000048,
2296,2368,0.864784371608973,-6.05712423903584,0.0117690396925809,-0.000752,-0.015631,0.002769,-0.049779,-0.668905,325.135649,22.946620,0.999309,0.984717,0.004813,0.471446,0.000156,0.000149,0.000003,0.000157,0.000148,20.920065,0.000305,
2221,3283,-0.927180748915337,13.8480650834341,0.0175816691063346,0.001477,-0.015105,0.009606,0.031992,-0.603399,310.502242,24.449570,0.999399,0.992410,0.003467,0.435839,0.000006,0.000036,0.000015,0.000042,0.000000,68.087298,0.000049,
2401,2698,3.08844767336137,1.15300917210404,-0.0249860084550164,0.000498,-0.015732,0.008657,-0.014865,-0.648416,319.511006,23.658132,0.999461,0.990021,0.004011,0.447481,0.000035,0.000046,0.000020,0.000062,0.000020,52.226872,0.000085,
2476,3103,4.6451157426615,9.96488191511705,0.0301682909836813,0.001225,-0.015567,0.012138,0.003655,-0.639388,313.503342,25.197418,0.999443,0.990715,0.003838,0.422907,0.000033,0.000042,0.000030,0.000068,0.000007,48.954280,0.000083,
2071,2563,-4.06747640328206,-1.80009878360205,-0.0156312951970108,-0.000276,-0.015321,0.010864,-0.048611,-0.611567,322.463627,23.760620,0.999174,0.988552,0.004351,0.448419,0.000070,0.000037,0.000018,0.000078,0.000029,23.908477,0.000111,
2191,3133,-1.55044891455526,10.5927858393856,0.0423893519241005,0.001110,-0.015037,0.012450,0.006878,-0.597754,313.227759,24.142957,0.999445,0.992579,0.003646,0.448125,0.000010,0.000023,0.000006,0.000026,0.000007,69.163117,0.000035,
2176,3058,-1.86381497547044,8.96480522147096,0.0337225416962497,0.000975,-0.015012,0.013637,-0.002586,-0.597447,314.420389,23.985802,0.999700,0.994991,0.003219,0.487106,0.000018,0.000017,0.000011,0.000028,0.000007,43.125528,0.000037,
2311,2248,1.21422010627591,-8.6826001412752,0.00858658827968384,-0.000511,-0.016159,-0.002707,-0.020435,-0.707143,327.065164,22.628993,0.998759,0.979385,0.005550,0.426036,0.000285,0.000267,0.000000,0.000285,0.000267,-0.379108,0.000552,
2236,2113,-0.398981092192439,-11.6437760563859,0.0247088732231191,-0.002115,-0.018260,0.001887,-0.109667,-0.787623,329.388499,22.627772,0.999205,0.980236,0.005504,0.474861,0.000480,0.000559,0.000043,0.000578,0.000461,66.143709,0.001041,
2431,2878,3.70787886353925,5.07368070001829,-0.00842757851614806,0.000836,-0.015311,0.008784,-0.000259,-0.615283,316.767757,24.297463,0.999484,0.991015,0.003680,0.435948,0.000017,0.000016,0.000017,0.000033,0.000000,44.401773,0.000039,
2086,2788,-3.77603843147179,3.09757579570768,-0.0109852177120615,0.000384,-0.015251,0.010971,-0.018958,-0.610501,318.808934,23.680593,0.999438,0.990137,0.003989,0.498884,0.000021,0.000017,0.000008,0.000028,0.000011,37.750135,0.000040,
2356,2488,2.14990288660518,-3.43245918259181,-0.00026118676129272,-0.000106,-0.015725,0.005967,-0.032002,-0.651273,323.086238,23.086408,0.999460,0.987267,0.004394,0.468234,0.000118,0.000081,0.000045,0.000148,0.000050,34.001920,0.000206,
2266,2278,0.226489790511803,-8.02514408950225,0.00688434994231102,-0.000751,-0.016181,0.002941,-0.050162,-0.701585,326.585224,22.929347,0.999453,0.986033,0.004813,0.392552,0.000253,0.000220,0.000008,0.000255,0.000218,12.543978,0.000473,
2101,2788,-3.45034789647246,3.09838317920119,-0.00945962688575719,0.000463,-0.015477,0.013504,-0.023254,-0.607468,318.742885,23.711274,0.999555,0.991145,0.003834,0.482936,0.000025,0.000020,0.000009,0.000031,0.000014,36.406572,0.000046,
2161,2998,-2.18054094956788,7.6637868940394,0.0105481915834957,0.000812,-0.014566,0.008926,0.005086,-0.589522,315.265722,23.947627,0.999589,0.992540,0.003676,0.445329,0.000018,0.000034,0.000020,0.000047,0.000004,56.027459,0.000057,
2461,3058,4.32702867649729,8.98663684858033,0.022280685492035,0.000824,-0.015392,0.010452,-0.007850,-0.632271,314.129329,24.967658,0.999511,0.988655,0.004223,0.441875,0.000024,0.000047,0.000035,0.000072,-0.000001,54.091527,0.000082,
2206,3223,-1.24154125899383,12.5458926107582,0.0356769250000184,0.000956,-0.015354,0.015076,-0.009214,-0.621274,311.637474,24.346731,0.999791,0.995515,0.003020,0.375310,0.000014,0.000038,0.000009,0.000042,0.000011,71.293313,0.000055,
2056,2533,-4.3880835431386,-2.45593626990357,-0.00408699720969707,-0.000384,-0.014965,0.008077,-0.045154,-0.595998,323.130783,23.735009,0.999068,0.987260,0.004493,0.519649,0.000076,0.000030,0.000023,0.000085,0.000021,22.294588,0.000112,
2251,2173,-0.0823660833043824,-10.3263811268854,0.0149225017645449,-0.001746,-0.017294,0.000263,-0.087242,-0.742077,328.333694,22.731663,0.999055,0.983660,0.005093,0.433362,0.000394,0.000412,0.000040,0.000444,0.000362,51.125376,0.000808,
2131,2848,-2.80906497270643,4.40553714922814,-0.0193745403882417,0.000395,-0.015104,0.007669,-0.009839,-0.615621,317.562164,23.799252,0.999601,0.992583,0.003554,0.431959,0.000023,0.000037,0.000014,0.000046,0.000014,58.084918,0.000063,
2296,2308,0.87486491163822,-7.368853240244,0.00354497251555586,-0.000707,-0.016484,0.006071,-0.059145,-0.679085,326.027285,22.796223,0.999219,0.984457,0.005071,0.484286,0.000208,0.000197,0.000002,0.000208,0.000197,10.266535,0.000405,
2341,2413,1.83818872592567,-5.07154292378173,0.010512473985159,-0.000066,-0.015493,0.002109,-0.016435,-0.679027,324.406165,23.036604,0.999647,0.989475,0.004276,0.333059,0.000143,0.000149,0.000032,0.000178,0.000113,47.538135,0.000294,
2026,2533,-5.04077143955904,-2.45517556603812,-0.0176450936211836,-0.000457,-0.015019,0.004803,-0.038901,-0.635845,323.201178,23.837343,0.999365,0.989598,0.004074,0.429383,0.000105,0.000020,0.000027,0.000113,0.000012,16.442367,0.000138,
2161,3088,-2.1942949668417,9.61503683500911,0.032836422001651,0.001117,-0.015251,0.013964,0.003441,-0.604215,313.982552,23.994796,0.999404,0.990718,0.003852,0.438182,0.000012,0.000020,0.000006,0.000023,0.000009,62.189439,0.000033,
2026,2503,-5.03701412539477,-3.10796188650242,-0.0215321584374237,-0.000756,-0.015007,0.007975,-0.061343,-0.612313,323.630180,23.908458,0.999697,0.992357,0.003651,0.399327,0.000124,0.000023,0.000032,0.000133,0.000014,15.904636,0.000163,
2221,2023,-0.71108615759837,-13.617529948612,0.0271218919922376,-0.002390,-0.019530,0.002825,-0.125479,-0.838572,330.872058,22.671888,0.999023,0.980972,0.005509,0.334649,0.000614,0.000670,0.000018,0.000675,0.000609,73.845706,0.001285,
2116,2878,-3.13891788362036,5.05509193355343,-0.00470756993979649,0.000348,-0.015004,0.011130,-0.021954,-0.620341,317.251361,23.749955,0.999521,0.992014,0.003743,0.462228,0.000018,0.000053,0.000016,0.000059,0.000012,68.646569,0.000076,
2071,2578,-4.07002907614304,-1.47286615522133,-0.0189864851425909,-0.000280,-0.015195,0.011021,-0.049162,-0.597610,322.192408,23.746986,0.998981,0.988108,0.004510,0.473717,0.000051,0.000036,0.000011,0.000057,0.000030,28.128679,0.000088,
2281,2353,0.539900577706568,-6.3853516560341,0.012423383782675,-0.000769,-0.016670,0.011328,-0.079328,-0.684208,325.370670,22.975971,0.999202,0.984292,0.004946,0.448006,0.000163,0.000162,0.000004,0.000167,0.000159,41.902700,0.000326,
2041,2443,-4.70051787753316,-4.41919359975182,7.58172375299182E-05,-0.000761,-0.014705,0.006238,-0.056969,-0.606987,324.692652,23.844615,0.998635,0.982251,0.005341,0.463135,0.000146,0.000011,0.000037,0.000156,0.000001,14.440519,0.000181,
2146,3028,-2.5100789191583,8.31257879462608,0.019276017955292,0.001216,-0.015085,0.008928,0.023881,-0.611112,314.926601,23.873559,0.999433,0.990550,0.003918,0.469505,0.000011,0.000028,0.000017,0.000038,0.000001,58.220222,0.000045,
2011,2698,-5.39028197042324,1.13757247256794,-0.0161227584370067,0.000383,-0.014249,0.004560,0.000843,-0.606866,320.680606,23.718781,0.999804,0.995505,0.002990,0.477740,0.000052,-0.000028,0.000025,0.000059,-0.000035,16.249544,0.000059,
2251,2113,-0.0717997910676225,-11.6415439963365,0.0196769658015796,-0.001932,-0.017556,0.001641,-0.100331,-0.745428,329.325964,22.669044,0.998983,0.979117,0.005667,0.387588,0.000483,0.000560,0.000036,0.000574,0.000469,68.590361,0.001045,
2191,3268,-1.57429383834128,13.5186885767197,0.0304672961719916,0.001499,-0.014846,0.012896,0.023387,-0.610245,310.934892,24.191647,0.999418,0.991870,0.003641,0.505483,0.000009,0.000036,0.000013,0.000041,0.000004,68.711503,0.000050,
2461,3073,4.32343301935174,9.3125283283867,0.0173541737337928,0.000852,-0.015445,0.012838,-0.015597,-0.626109,313.834494,24.984509,0.999620,0.991217,0.003807,0.485007,0.000025,0.000050,0.000030,0.000070,0.000005,56.148024,0.000083,
2371,2533,2.46744128814459,-2.44834159072862,-0.00730729574053157,-0.000310,-0.015527,0.006847,-0.044685,-0.635105,322.289015,23.211902,0.999356,0.986717,0.004658,0.452295,0.000096,0.000051,0.000039,0.000118,0.000029,29.796101,0.000156,
2326,2293,1.53181583088489,-7.69630621248375,-0.00143573302551658,-0.001025,-0.016230,-0.001511,-0.048062,-0.717439,326.219557,22.695365,0.999083,0.982387,0.005135,0.391103,0.000233,0.000205,-0.000008,0.000236,0.000203,-15.356396,0.000439,
2221,2038,-0.713957662132859,-13.2874255997923,0.0200857141448409,-0.002397,-0.018710,0.000116,-0.116885,-0.821170,330.580912,22.682679,0.998793,0.976757,0.005839,0.363870,0.000590,0.000638,0.000019,0.000645,0.000583,70.675033,0.001229,
2011,2518,-5.36471941673313,-2.78317443606065,-0.0101903891094253,-0.000903,-0.014896,0.008733,-0.069770,-0.601733,323.569866,23.843265,0.999694,0.992636,0.003640,0.494161,0.000116,-0.000013,0.000022,0.000120,-0.000017,9.357790,0.000129,
2266,2173,0.244377740505872,-10.3266788711545,0.0154764328842703,-0.001871,-0.017803,0.006384,-0.113404,-0.737416,328.287700,22.641369,0.999527,0.983446,0.005104,0.448817,0.000396,0.000411,0.000032,0.000436,0.000371,51.602288,0.000808,
2131,2953,-2.82393692537194,6.6841482286375,0.0109332066407433,0.000957,-0.014902,0.009523,0.010556,-0.609079,316.127794,23.810016,0.999640,0.991907,0.003585,0.463869,0.000018,0.000036,0.000015,0.000045,0.000009,60.442508,0.000058,
2296,2323,0.872163461564252,-7.04055381317842,0.00480151373892568,-0.000891,-0.016365,0.004538,-0.062361,-0.681147,325.792131,22.856911,0.998968,0.983119,0.005335,0.453680,0.000193,0.000173,0.000005,0.000194,0.000172,11.946530,0.000366,
2026,2548,-5.04262759682449,-2.12818906888171,-0.0121155915985582,-0.000317,-0.014590,0.006193,-0.036138,-0.612386,323.007444,23.859563,0.999510,0.990305,0.003774,0.421807,0.000100,0.000018,0.000026,0.000107,0.000010,16.246621,0.000130,
2056,2668,-4.40910158710136,0.485987174641743,-0.0122994034186377,-0.000090,-0.015099,0.008681,-0.033432,-0.620228,320.890328,23.739917,0.999317,0.989394,0.004160,0.448450,0.000051,-0.000010,0.000007,0.000051,-0.000011,6.263068,0.000054,
2161,3103,-2.19645604508875,9.93983371443818,0.0362515259735119,0.001102,-0.014920,0.011506,0.010370,-0.603830,313.773274,23.972239,0.999593,0.993459,0.003322,0.470250,0.000011,0.000022,0.000009,0.000027,0.000006,61.580644,0.000036,
2386,2608,2.78054722069882,-0.811280427525354,-0.0104473068233801,0.000613,-0.015542,0.007099,-0.003578,-0.648468,321.095049,23.391594,0.999314,0.987864,0.004351,0.453178,0.000067,0.000024,0.000036,0.000087,0.000004,29.878332,0.000103,
2011,2953,-5.4271207154383,6.67791479727457,0.00784338368970339,0.000791,-0.014460,0.008397,0.009245,-0.585286,316.750954,23.578194,0.999664,0.994383,0.003066,0.432880,0.000020,-0.000008,0.000008,0.000022,-0.000010,14.956921,0.000022,
2491,3208,4.95146206839184,12.2451854897649,0.0428211952643096,0.001589,-0.015119,0.010847,0.025114,-0.618056,311.945657,25.653543,0.999369,0.991637,0.003764,0.449712,0.000036,0.000033,0.000036,0.000071,-0.000001,43.936171,0.000081,
2041,2518,-4.7123068779152,-2.78295720626396,-0.00853116880102789,-0.000499,-0.015187,0.009596,-0.054396,-0.613947,323.413348,23.775672,0.999203,0.989646,0.004259,0.493541,0.000100,0.000024,0.000028,0.000109,0.000014,18.087497,0.000135,
2026,2758,-5.07399487328667,2.44282347560023,-0.0139998955147007,0.000426,-0.015300,0.011796,-0.017528,-0.604498,319.612366,23.650759,0.999095,0.988902,0.004345,0.508076,0.000021,0.000001,0.000012,0.000026,-0.000005,25.174586,0.000028,
2191,3148,-1.55307498620379,10.9185028179762,0.0383633775243197,0.001268,-0.014910,0.011201,0.018085,-0.603265,312.959829,24.176821,0.999150,0.991444,0.003968,0.421871,0.000011,0.000027,0.000008,0.000030,0.000008,67.281278,0.000040,
2131,2863,-2.81091457351415,4.73021255634374,-0.00486558672844239,0.000262,-0.015321,0.010745,-0.025327,-0.629974,317.424535,23.803201,0.999545,0.992034,0.003624,0.418642,0.000023,0.000038,0.000013,0.000045,0.000015,59.572691,0.000063,
2251,2188,-0.0851077798296451,-9.99477890755577,0.00851043933153051,-0.001323,-0.016658,0.001077,-0.070307,-0.707102,328.054053,22.928565,0.999476,0.988474,0.004549,0.297805,0.000370,0.000380,0.000032,0.000408,0.000343,49.314628,0.000752,
2086,2683,-3.7599696030826,0.813617455291421,-0.0176903921020539,0.000099,-0.015103,0.008737,-0.025577,-0.615661,320.449232,23.680746,0.999535,0.991505,0.003615,0.499593,0.000037,-0.000001,0.000006,0.000038,-0.000002,8.850783,0.000043,
2206,3238,-1.24331427884066,12.869942563673,0.0403318793465246,0.001303,-0.015008,0.012476,0.015114,-0.618169,311.455453,24.292740,0.999736,0.994585,0.003137,0.448088,0.000013,0.000034,0.000009,0.000037,0.000010,69.803726,0.000050,
2116,2788,-3.12487672873611,3.09898704247348,-0.0102753254598724,0.000285,-0.015581,0.013728,-0.032695,-0.619158,318.656715,23.719585,0.999589,0.992203,0.003569,0.474388,0.000026,0.000024,0.000006,0.000031,0.000019,40.313669,0.000050,
2011,2713,-5.39359395099281,1.4644686356776,-0.0193095463272925,-0.000132,-0.014800,0.010677,-0.039621,-0.606112,320.370719,23.731431,0.999695,0.993873,0.003447,0.454146,0.000047,-0.000016,0.000025,0.000056,-0.000025,19.484767,0.000056,
2071,2698,-4.0886677055869,1.14028859761741,-0.0179193741546442,-0.000427,-0.014640,0.008655,-0.049046,-0.587987,320.258818,23.720971,0.999394,0.990811,0.003852,0.487869,0.000044,-0.000004,0.000011,0.000046,-0.000006,12.235883,0.000050,
2401,2713,3.08515926853105,1.4798087411647,-0.028850986836801,0.000247,-0.015608,0.006285,-0.017723,-0.653122,319.231756,23.669320,0.999581,0.990484,0.003897,0.477570,0.000030,0.000051,0.000019,0.000062,0.000019,59.467968,0.000085,
2416,2773,3.40175844064939,2.78628347615881,-0.0126219280998612,0.000729,-0.015275,0.007165,0.001098,-0.624569,318.426347,23.841142,0.999513,0.987889,0.004266,0.525504,0.000033,0.000052,0.000017,0.000062,0.000023,60.105772,0.000088,
2251,2248,-0.0960471565321122,-8.68012447441411,0.00294813325200494,-0.001292,-0.016266,0.001667,-0.070691,-0.674995,327.039890,23.018697,0.997827,0.977681,0.006191,0.342996,0.000291,0.000265,0.000028,0.000309,0.000247,32.546568,0.000556,
2281,2263,0.555234338456092,-8.3509322352344,-0.00222913575794337,-0.001078,-0.016273,0.003513,-0.067241,-0.704767,326.712686,22.976081,0.999397,0.985780,0.004865,0.249034,0.000256,0.000227,0.000001,0.000256,0.000227,1.455960,0.000484,
2101,2728,-3.44149150600906,1.79476470366636,-0.0241446032922568,0.000272,-0.014820,0.007748,-0.015007,-0.598205,319.601643,23.722714,0.999302,0.988793,0.004180,0.475872,0.000037,0.000003,0.000004,0.000037,0.000003,6.324398,0.000044,
2221,2053,-0.717410869230829,-12.9575417441836,0.0173651214869892,-0.002923,-0.018638,0.002537,-0.148690,-0.806821,330.285219,22.731205,0.998729,0.976555,0.005858,0.352316,0.000564,0.000627,0.000027,0.000637,0.000554,69.548955,0.001192,
2221,3298,-0.930580040133417,14.1727241592685,0.011384141446797,0.001372,-0.015199,0.012593,0.017430,-0.620416,310.190025,24.428740,0.999408,0.992593,0.003375,0.456906,0.000002,0.000045,0.000012,0.000048,-0.000001,75.779494,0.000054,
2476,3118,4.6422363806506,10.2900163675098,0.0325756262723758,0.001329,-0.015792,0.013831,0.001924,-0.640857,313.276130,25.210213,0.999548,0.990625,0.003703,0.464213,0.000032,0.000049,0.000033,0.000075,0.000007,51.916836,0.000090,
2341,2428,1.83570558526961,-4.74531596955266,0.0156588709884886,-0.000064,-0.015483,0.003138,-0.019900,-0.650386,324.203363,22.948337,0.999715,0.993578,0.003759,0.488010,0.000136,0.000134,0.000029,0.000165,0.000106,44.020569,0.000273,
2146,3043,-2.51293646040986,8.63808319815838,0.0216377671692953,0.000994,-0.015328,0.013166,0.000687,-0.616791,314.678555,23.900958,0.999491,0.992378,0.003451,0.443352,0.000011,0.000025,0.000012,0.000031,0.000004,60.857721,0.000039,
2446,2923,4.02523659116563,6.0539600603303,-0.00989816704753821,0.000751,-0.015213,0.007952,-0.001422,-0.624003,316.044344,24.511565,0.999628,0.993024,0.003655,0.392386,0.000028,-0.000015,0.000027,0.000041,-0.000029,25.863892,0.000042,
2236,2128,-0.40163953855701,-11.3119877907218,0.0197397524874532,-0.001936,-0.017128,0.000105,-0.095294,-0.747781,329.118588,22.828125,0.998803,0.979124,0.005595,0.338627,0.000462,0.000537,0.000044,0.000558,0.000442,65.181316,0.001002,
2281,2368,0.537243444677454,-6.0578842102795,0.0168957121691733,-0.001014,-0.016660,0.011948,-0.092639,-0.679627,325.152366,22.999275,0.999129,0.981614,0.005262,0.458576,0.000150,0.000153,0.000002,0.000154,0.000149,59.922704,0.000303,
2176,3073,-1.86644709775194,9.28911993851099,0.03371006877029,0.000808,-0.015043,0.012240,-0.005991,-0.609863,314.172631,23.902403,0.999675,0.994990,0.003160,0.569492,0.000017,0.000023,0.000008,0.000029,0.000011,54.352151,0.000042,
2056,2683,-4.41081819518604,0.812107262768023,-0.0100913130060576,0.000106,-0.014764,0.004352,-0.012092,-0.612988,320.687152,23.710364,0.999426,0.990599,0.003951,0.480253,0.000046,-0.000016,0.000011,0.000048,-0.000018,9.779750,0.000048,
2026,2563,-5.04481162882722,-1.80140251137259,-0.0123372299887592,-0.000350,-0.014486,0.004361,-0.032592,-0.595488,322.766775,23.823469,0.999565,0.989727,0.003864,0.465739,0.000086,0.000030,0.000014,0.000089,0.000027,13.255797,0.000122,
2296,2383,0.861320004905316,-5.72706513699453,-0.000508202914375033,-0.000786,-0.015466,-0.000109,-0.041551,-0.686605,324.798217,23.072890,0.998931,0.981095,0.005422,0.359360,0.000148,0.000139,0.000006,0.000151,0.000136,25.602927,0.000287,
2161,3013,-2.18276006011255,7.98928716842967,0.0108725129429104,0.001127,-0.014524,0.009279,0.018535,-0.579814,315.037211,23.938663,0.999423,0.990035,0.004061,0.473315,0.000019,0.000032,0.000021,0.000048,0.000003,53.841710,0.000057,
2146,2953,-2.4989167448532,6.68574746897304,0.00324995683513407,0.000901,-0.014891,0.008780,0.009840,-0.604522,316.000703,23.849170,0.999591,0.991052,0.003717,0.465000,0.000011,0.000037,0.000015,0.000044,0.000004,65.808877,0.000053,
2296,2338,0.869486556692859,-6.71176673862105,-0.00220598854559739,-0.000468,-0.016315,0.002593,-0.036367,-0.681707,325.517131,22.884198,0.999177,0.984672,0.004903,0.457765,0.000179,0.000172,0.000004,0.000181,0.000170,25.362550,0.000351,
2056,2653,-4.40775815236818,0.159894627406466,-0.0239873618176034,-0.000307,-0.015467,0.009225,-0.045110,-0.648216,321.024284,23.717535,0.999304,0.989933,0.004130,0.448099,0.000059,0.000007,0.000003,0.000059,0.000007,3.824596,0.000072,
2461,3088,4.32037027085374,9.6390637527754,0.0145960640974749,0.000968,-0.015399,0.011963,-0.006952,-0.630111,313.573878,25.089318,0.999672,0.993530,0.003506,0.429434,0.000031,0.000053,0.000025,0.000069,0.000014,57.010580,0.000090,
2206,3253,-1.24618066857525,13.1948355380916,0.0392482407569332,0.001212,-0.014848,0.013560,0.007569,-0.602130,311.193065,24.274749,0.999755,0.994943,0.003025,0.497166,0.000012,0.000028,0.000013,0.000035,0.000004,60.698142,0.000043,
2086,2803,-3.77816439269434,3.4240316672742,-0.00921169345429007,0.000481,-0.015284,0.010169,-0.012171,-0.614474,318.586804,23.724961,0.999346,0.990482,0.003907,0.449635,0.000022,0.000021,0.000012,0.000033,0.000010,42.787807,0.000045,
2041,2458,-4.70282609773432,-4.09183591624844,-0.00519161102471344,-0.000581,-0.014778,0.004730,-0.044500,-0.613835,324.419405,23.803227,0.998858,0.981974,0.005337,0.491618,0.000133,0.000016,0.000028,0.000139,0.000009,12.714973,0.000167,
2026,2773,-5.07688454739195,2.77068351334964,-0.0222162748406163,0.000204,-0.015127,0.009998,-0.022791,-0.614376,319.294758,23.742054,0.999391,0.990760,0.004091,0.397361,0.000018,0.000014,0.000012,0.000028,0.000004,40.404186,0.000035,
2266,2293,0.223719504769413,-7.69666266487948,0.00228375769631839,-0.000698,-0.016157,0.000516,-0.039742,-0.701713,326.315204,22.935095,0.999349,0.983945,0.005094,0.414587,0.000234,0.000215,0.000012,0.000240,0.000209,26.739499,0.000449,
2326,2308,1.52921900580792,-7.36780789615479,0.00120079453955668,-0.000653,-0.016461,0.003597,-0.048696,-0.685652,325.998192,22.749948,0.998943,0.982310,0.005233,0.404484,0.000217,0.000183,0.000000,0.000217,0.000183,-0.545378,0.000400,
2116,2893,-3.14182829095784,5.38169773316608,-0.0127748970283506,0.000293,-0.015016,0.009378,-0.019300,-0.621462,316.942407,23.759381,0.999324,0.992085,0.004009,0.454749,0.000013,0.000048,0.000018,0.000055,0.000005,67.136680,0.000067,
2266,2188,0.243054771373718,-9.99654521418017,0.0155128108116287,-0.000825,-0.016934,0.002298,-0.051696,-0.720435,328.107075,22.790067,0.999150,0.982798,0.005233,0.345032,0.000372,0.000382,0.000023,0.000401,0.000353,50.686063,0.000754,
2011,2968,-5.42925479903503,7.00296092962233,0.0103703438743992,0.000836,-0.014658,0.009203,0.009044,-0.598980,316.528156,23.550623,0.999624,0.994500,0.003040,0.434055,0.000026,-0.000019,0.000007,0.000028,-0.000020,9.160760,0.000028,
2191,3283,-1.57649090523411,13.8439945360024,0.0300791922254575,0.001643,-0.014560,0.008637,0.043560,-0.601314,310.705650,24.230493,0.999592,0.994329,0.003172,0.488526,0.000005,0.000046,0.000017,0.000052,-0.000001,70.038210,0.000060,
2011,2728,-5.39575956930586,1.79024872659756,-0.01694946323164,-0.000114,-0.014924,0.012021,-0.042438,-0.592303,320.144771,23.678091,0.999590,0.992047,0.003714,0.509606,0.000024,-0.000014,0.000026,0.000037,-0.000027,26.687524,0.000038,
2161,3118,-2.19867827631476,10.2653728453206,0.0383697566197156,0.001222,-0.014889,0.010621,0.018575,-0.618635,313.554076,24.028567,0.999570,0.993144,0.003409,0.408191,0.000011,0.000018,0.000007,0.000023,0.000006,58.688681,0.000030,
2101,2803,-3.45316382453494,3.4248425656625,-0.0128403952608096,0.000268,-0.015443,0.013427,-0.032053,-0.624316,318.462341,23.729501,0.999462,0.991643,0.003719,0.448880,0.000025,0.000022,0.000013,0.000036,0.000011,40.962915,0.000049,
2191,3163,-1.55669045681271,11.2445870973438,0.0279157205376919,0.000955,-0.014994,0.011065,0.003998,-0.617051,312.612765,24.218791,0.999627,0.994815,0.003217,0.379519,0.000014,0.000034,0.000010,0.000038,0.000010,68.103732,0.000050,
2431,2893,3.70473637186598,5.40006100916584,-0.0108696488264854,0.000750,-0.015242,0.007384,0.001006,-0.616143,316.503616,24.332133,0.999494,0.990814,0.003789,0.449808,0.000017,0.000005,0.000022,0.000034,-0.000012,37.706737,0.000034,
2386,2623,2.77695559464197,-0.48436275818294,-0.0133020965072319,0.000329,-0.015999,0.009512,-0.025439,-0.664487,320.805793,23.403057,0.999178,0.987259,0.004406,0.469684,0.000056,0.000021,0.000034,0.000077,0.000000,31.508076,0.000089,
2071,2593,-4.07228585569083,-1.14573109128841,-0.0194878488118775,-0.000223,-0.014907,0.010221,-0.044179,-0.585455,321.950378,23.756063,0.999068,0.988053,0.004356,0.474227,0.000049,0.000034,0.000013,0.000057,0.000027,29.207504,0.000085,
2491,3223,4.94830577766259,12.5710417943055,0.0407234654578019,0.001739,-0.015229,0.011591,0.029151,-0.616235,311.685469,25.729080,0.999420,0.991124,0.003814,0.433488,0.000040,0.000020,0.000032,0.000063,-0.000003,36.244689,0.000071,
2086,2818,-3.78027224010498,3.75044306352857,-0.0120216781005524,0.000725,-0.014976,0.006819,0.008849,-0.610281,318.340552,23.726360,0.999452,0.991929,0.003709,0.451411,0.000020,0.000030,0.000012,0.000038,0.000012,57.093790,0.000052,
2011,2533,-5.36648337209719,-2.45636853199856,-0.00811445729578963,-0.000608,-0.015219,0.008118,-0.054634,-0.612352,323.360136,23.846744,0.999291,0.987842,0.004410,0.468985,0.000111,0.000001,0.000026,0.000117,-0.000005,12.740166,0.000132,
2356,2503,2.14643753744333,-3.10473392411889,-0.00192294812200089,-0.000401,-0.016166,0.008565,-0.054867,-0.663923,322.806288,23.138551,0.999405,0.987053,0.004549,0.443537,0.000105,0.000065,0.000043,0.000133,0.000037,32.382700,0.000179,
2236,1993,-0.377587114706316,-14.2779420359761,0.0302115988255878,-0.002094,-0.019350,-0.001423,-0.098352,-0.840906,331.374600,22.425880,0.999584,0.988144,0.004697,0.426905,0.000682,0.000698,-0.000009,0.000703,0.000678,-65.912526,0.001381,
2371,2548,2.46478992194131,-2.12114217918034,-0.00574196852494424,-0.000209,-0.015402,0.006966,-0.040449,-0.637134,322.062978,23.249261,0.999273,0.986097,0.004783,0.454932,0.000088,0.000041,0.000037,0.000108,0.000021,28.636071,0.000139,
2311,2263,1.21138264385444,-8.35383369107595,0.0105151782016719,-0.000476,-0.016295,0.000833,-0.030918,-0.709157,326.828391,22.718796,0.999105,0.982911,0.005081,0.368634,0.000267,0.000230,-0.000004,0.000268,0.000229,-5.835568,0.000497,
2176,3178,-1.88257582258682,11.56574439309,0.0550772975488485,0.001349,-0.015092,0.014301,0.012579,-0.605474,312.653847,24.056252,0.999755,0.995097,0.003067,0.497925,0.000011,0.000035,0.000012,0.000040,0.000006,66.950929,0.000050,
2341,2443,1.83159512907765,-4.41561421375215,0.00237333281125984,-0.000217,-0.015962,0.004740,-0.032661,-0.681265,323.836245,23.069534,0.999346,0.987579,0.004498,0.374411,0.000131,0.000121,0.000032,0.000158,0.000093,40.261683,0.000255,
2056,2698,-4.41342233269028,1.13921467248329,-0.0145469941956549,0.000236,-0.014634,0.006634,-0.012439,-0.591191,320.406317,23.706779,0.999314,0.990437,0.003936,0.500742,0.000053,-0.000011,0.000016,0.000057,-0.000015,13.684505,0.000059,
2221,2068,-0.719789889620618,-12.6275620668447,0.0154195555045931,-0.002798,-0.017842,-0.000300,-0.133658,-0.779225,330.042466,22.789503,0.998786,0.977709,0.005776,0.343950,0.000542,0.000604,0.000032,0.000617,0.000529,67.144578,0.001148,
2101,2743,-3.44404136365002,2.12083511891755,-0.0168113873847346,-0.000157,-0.015162,0.010671,-0.043368,-0.600312,319.391305,23.758163,0.999404,0.989549,0.004035,0.439552,0.000032,0.000006,0.000005,0.000033,0.000005,10.525192,0.000041,
2401,2728,3.08290567176671,1.80647019753728,-0.022004795319333,0.000530,-0.015855,0.008262,-0.011994,-0.660003,319.050522,23.761086,0.999580,0.989959,0.004074,0.424358,0.000024,0.000056,0.000020,0.000066,0.000014,64.601199,0.000085,
2131,2968,-2.82656070626288,7.01002563507179,0.01117682178824,0.000746,-0.014987,0.008737,0.003091,-0.623628,315.878049,23.846450,0.999764,0.993768,0.003165,0.417602,0.000022,0.000031,0.000015,0.000043,0.000011,53.624490,0.000057,
2131,2878,-2.8123516821626,5.0543495562723,0.00436184276389895,0.000575,-0.015234,0.009091,-0.005951,-0.644465,317.277794,23.721254,0.999512,0.991417,0.003702,0.491261,0.000022,0.000051,0.000014,0.000057,0.000016,67.754501,0.000077,
2146,3058,-2.51512110258522,8.96332390220117,0.0267403108751409,0.000933,-0.014977,0.012414,0.000265,-0.608614,314.476051,23.911701,0.999549,0.993859,0.003377,0.447500,0.000011,0.000020,0.000010,0.000027,0.000004,57.593893,0.000034,
2041,2593,-4.72345319051396,-1.14634902388343,-0.0166727432493303,0.000060,-0.014351,0.006836,-0.020721,-0.572817,322.166055,23.822879,0.999047,0.988671,0.004237,0.454077,0.000055,0.000029,0.000004,0.000056,0.000028,9.480047,0.000085,
2011,2983,-5.43222044226478,7.32862083140127,0.00850075156336061,0.000566,-0.014984,0.014275,-0.017257,-0.595220,316.242304,23.535893,0.999160,0.991810,0.003609,0.439900,0.000016,-0.000013,0.000012,0.000020,-0.000017,19.973070,0.000022,
2116,2803,-3.12648416317854,3.42508490624733,-0.00412761135345363,0.000500,-0.015243,0.010403,-0.012870,-0.621825,318.484116,23.763907,0.999558,0.992612,0.003485,0.430708,0.000026,0.000023,0.000010,0.000035,0.000014,41.403767,0.000051,
2446,2938,4.02194442159984,6.37960899330786,-0.0131319923207229,0.000637,-0.015420,0.006965,-0.003034,-0.634914,315.770828,24.496937,0.999606,0.991972,0.003773,0.447947,0.000028,-0.000013,0.000024,0.000039,-0.000024,24.789744,0.000040,
2281,2398,0.531220219115337,-5.39969475826734,0.000893631535006989,-0.000648,-0.016569,0.009371,-0.067231,-0.680812,324.558416,23.128486,0.999052,0.984516,0.005153,0.387631,0.000132,0.000141,0.000011,0.000148,0.000125,55.770246,0.000273,
2026,2578,-5.04761335780561,-1.47431434671832,-0.0148590342164994,-0.000476,-0.015039,0.008905,-0.051027,-0.612002,322.485072,23.833041,0.999200,0.988918,0.004223,0.430731,0.000069,0.000032,0.000004,0.000070,0.000031,5.807134,0.000103,
2011,2548,-5.36845456614923,-2.12964289194506,-0.00811380818998941,-0.000233,-0.015127,0.010296,-0.043291,-0.612913,323.129314,23.818988,0.999456,0.988418,0.004071,0.485221,0.000107,0.000002,0.000030,0.000115,-0.000006,14.815655,0.000130,
2206,3268,-1.24926887872801,13.5208257139259,0.0253127521002057,0.001675,-0.014801,0.012955,0.030849,-0.607717,310.853354,24.312495,0.999500,0.993198,0.003382,0.469201,0.000010,0.000030,0.000013,0.000036,0.000004,63.918912,0.000044,
2296,2398,0.858744036512437,-5.3992489296912,-0.00209108523773693,-0.000611,-0.015248,-0.001323,-0.029364,-0.669848,324.554575,23.068517,0.999188,0.984693,0.005015,0.412117,0.000141,0.000136,0.000009,0.000148,0.000129,37.762142,0.000277,
2251,2263,-0.0979315826657476,-8.35308952288811,0.00946583532936529,-0.000946,-0.016119,0.002676,-0.058045,-0.675005,326.865384,22.994475,0.998944,0.983214,0.005265,0.392683,0.000272,0.000228,0.000023,0.000282,0.000218,23.000892,0.000501,
2296,2473,0.844470319052565,-3.75972921222672,-0.0116633465491986,0.000012,-0.015674,0.006097,-0.026013,-0.685220,323.263913,23.248488,0.998721,0.982113,0.005334,0.373950,0.000107,0.000074,0.000023,0.000119,0.000062,26.863165,0.000184,
2431,2908,3.70163455615208,5.7257149000578,-0.0128064434807698,0.000852,-0.015451,0.008346,0.002027,-0.635053,316.243837,24.326231,0.999632,0.990678,0.003735,0.486330,0.000019,-0.000009,0.000023,0.000033,-0.000022,29.587911,0.000033,
2476,3133,4.63940816336138,10.6166260941735,0.0302771380469835,0.001498,-0.015543,0.010935,0.020847,-0.636558,313.029314,25.327961,0.999554,0.989901,0.003744,0.406628,0.000037,0.000045,0.000030,0.000071,0.000011,48.716549,0.000088,
2491,3238,4.94420148326354,12.8967026625577,0.0299753984149902,0.001546,-0.015530,0.010904,0.022748,-0.641639,311.342401,25.769054,0.999593,0.991961,0.003651,0.425543,0.000041,0.000027,0.000033,0.000068,0.000000,39.194026,0.000078,
2071,2713,-4.09093633833002,1.46753518333654,-0.0267547443155536,0.000172,-0.014728,0.008137,-0.020031,-0.603980,319.970717,23.737983,0.999233,0.989755,0.004029,0.452267,0.000045,-0.000002,0.000008,0.000046,-0.000003,9.287798,0.000051,
2326,2323,1.5261434878188,-7.03974639818799,0.00031068919054178,-0.000835,-0.016447,0.004248,-0.059276,-0.691901,325.737893,22.772412,0.998967,0.980631,0.005463,0.412275,0.000200,0.000160,0.000005,0.000200,0.000159,6.755081,0.000360,
2086,3058,-3.81577685326203,8.95840534261733,0.0292069477603718,0.001151,-0.014627,0.008579,0.023458,-0.605283,314.794794,23.660146,0.999459,0.992149,0.003548,0.497786,0.000017,0.000031,0.000016,0.000041,0.000007,56.171494,0.000052,
2026,2788,-5.07876117087913,3.09679091593954,-0.0221231279581957,0.000436,-0.014559,0.007273,-0.004379,-0.583277,319.070395,23.701644,0.999525,0.991605,0.003733,0.458796,0.000017,0.000016,0.000012,0.000028,0.000005,43.519732,0.000035,
2236,2008,-0.38075010685748,-13.9485071253529,0.0263323414018259,-0.002378,-0.019502,-0.001228,-0.112042,-0.841066,331.087938,22.417117,0.999483,0.987066,0.004865,0.460622,0.000637,0.000695,0.000001,0.000695,0.000637,88.781570,0.001333,
2461,3103,4.31822944970616,9.96375694641614,0.0267552887785882,0.000933,-0.015492,0.013057,-0.012751,-0.636707,313.424646,25.124971,0.999594,0.991828,0.003697,0.440491,0.000027,0.000044,0.000029,0.000066,0.000005,53.152427,0.000079,
2071,2608,-4.07469117294246,-0.817862704134271,-0.026405943951147,-0.000069,-0.014758,0.006861,-0.027475,-0.599798,321.666324,23.808385,0.999274,0.989293,0.004087,0.405306,0.000052,0.000028,0.000010,0.000056,0.000025,19.925770,0.000082,
2011,2743,-5.3988379344431,2.11891473760762,-0.0321171984338662,-0.000266,-0.014496,0.008210,-0.038991,-0.593816,319.777776,23.769407,0.999595,0.992224,0.003550,0.405162,0.000018,0.000000,0.000024,0.000035,-0.000017,35.208704,0.000035,
2101,2818,-3.45490221848927,3.75154594936609,-0.0169168639727104,0.000814,-0.014841,0.007373,0.011037,-0.615144,318.227288,23.743618,0.999389,0.992333,0.003652,0.445291,0.000023,0.000031,0.000013,0.000041,0.000013,53.540902,0.000056,
2416,2788,3.39823326840753,3.11498110468026,-0.0191740170549792,0.000591,-0.015271,0.005956,-0.000823,-0.625069,318.124108,24.024976,0.999469,0.988015,0.004323,0.388897,0.000030,0.000048,0.000012,0.000054,0.000023,62.969783,0.000079,
2056,2908,-4.44499749012762,5.70383144599003,-0.00201806695491769,0.000748,-0.014712,0.009605,0.002710,-0.594091,317.117672,23.668425,0.999469,0.991978,0.003696,0.459248,0.000022,0.000036,0.000005,0.000037,0.000020,73.193109,0.000058,
2041,2533,-4.71468658051433,-2.45485957461083,-0.0151123583803496,-0.000556,-0.014747,0.003823,-0.040849,-0.630378,323.129432,23.826464,0.999106,0.988911,0.004206,0.419860,0.000091,0.000029,0.000027,0.000101,0.000018,20.762502,0.000129,
2236,2143,-0.4036392670811,-10.9834770407672,0.0167129825800885,-0.001274,-0.016919,-0.001973,-0.058207,-0.734398,328.889219,22.782793,0.998602,0.979312,0.005560,0.421143,0.000436,0.000487,0.000051,0.000519,0.000404,58.435154,0.000925,
2011,2998,-5.43391315392637,7.65354332250577,0.0173289861862145,0.000622,-0.014902,0.014031,-0.014027,-0.597162,316.075265,23.535729,0.999357,0.992348,0.003487,0.425276,0.000009,0.000007,0.000016,0.000024,-0.000009,43.057183,0.000025,
2266,2323,0.218400060421953,-7.04003336378644,0.0109726249852429,-0.000937,-0.016239,0.005678,-0.067758,-0.677164,325.874761,23.086092,0.998583,0.979149,0.005861,0.342989,0.000201,0.000178,0.000016,0.000209,0.000170,27.520730,0.000380,
2026,2593,-5.05009294095359,-1.14627320272855,-0.0220977648601774,-0.000243,-0.014663,0.009298,-0.041261,-0.592306,322.191441,23.858018,0.999005,0.988293,0.004480,0.416661,0.000064,0.000031,0.000008,0.000066,0.000030,12.223059,0.000098,
2386,2638,2.77400423249798,-0.157300915767081,-0.0131892141501453,0.000119,-0.016251,0.007657,-0.028526,-0.687457,320.559945,23.464772,0.999210,0.986803,0.004453,0.428767,0.000049,0.000024,0.000029,0.000069,0.000004,33.541233,0.000082,
2191,3298,-1.58066690942677,14.1706643347637,0.00907204676389028,0.001463,-0.014569,0.007887,0.037600,-0.609814,310.277117,24.305662,0.999753,0.995958,0.002841,0.417491,0.000001,0.000057,0.000019,0.000063,-0.000005,72.734956,0.000070,
2251,2203,-0.0873684971586499,-9.66842623138406,0.00770503899906316,-0.000920,-0.016780,0.000974,-0.051547,-0.711649,327.825621,22.750540,0.999035,0.983860,0.005116,0.496929,0.000350,0.000353,0.000030,0.000381,0.000322,46.225465,0.000703,
2161,3028,-2.18511162060951,8.31399785985361,0.0171156680866034,0.001016,-0.015077,0.011152,0.007447,-0.605968,314.834181,23.936131,0.999369,0.988431,0.004433,0.458791,0.000019,0.000029,0.000017,0.000042,0.000006,53.529317,0.000052,
2491,3253,4.93999701784285,13.2227326401623,0.0182630715058281,0.001324,-0.015216,0.010113,0.015755,-0.622517,310.990117,25.798510,0.999718,0.993056,0.003416,0.472640,0.000043,0.000044,0.000037,0.000081,0.000006,45.351170,0.000098,
2281,2413,0.528574857379951,-5.07196569473277,-0.000573015325358028,-0.000763,-0.016068,0.005653,-0.059936,-0.681926,324.310937,23.139873,0.999268,0.986252,0.004758,0.404572,0.000122,0.000137,0.000012,0.000144,0.000115,61.507365,0.000259,
2176,3088,-1.86941449399805,9.61615878959631,0.0301482151574533,0.000891,-0.015418,0.015785,-0.013292,-0.615735,313.889861,24.044734,0.999530,0.992812,0.003497,0.432511,0.000013,0.000020,0.000008,0.000025,0.000008,57.001122,0.000035,
2281,2383,0.533887760151465,-5.72798875683702,0.0013653080142717,-0.001048,-0.015854,0.004873,-0.070332,-0.683673,324.802039,23.064967,0.998852,0.981564,0.005384,0.418892,0.000140,0.000143,0.000006,0.000148,0.000135,50.796812,0.000283,
2011,2563,-5.37096644244056,-1.80267694658808,-0.00822393926671339,-0.000540,-0.015326,0.009900,-0.056369,-0.617206,322.873113,23.820809,0.999342,0.987687,0.004249,0.468170,0.000090,0.000019,0.000017,0.000093,0.000016,12.852895,0.000118,
2356,2518,2.14398300257637,-2.77719539714948,-0.00324351099862952,-0.000152,-0.015826,0.005512,-0.032586,-0.674641,322.574336,23.179621,0.999288,0.985442,0.004707,0.431571,0.000097,0.000056,0.000042,0.000123,0.000030,31.774042,0.000162,
2161,3133,-2.20146247452043,10.5902598327859,0.0391986947435612,0.001046,-0.015064,0.012412,0.004949,-0.611897,313.302466,23.999159,0.999457,0.992727,0.003631,0.453044,0.000011,0.000019,0.000005,0.000021,0.000009,65.610098,0.000031,
2086,2833,-3.78268220224292,4.07656315305358,-0.00753597251514293,0.000549,-0.014876,0.008855,-0.005158,-0.604490,318.120277,23.759285,0.999734,0.994418,0.003169,0.423069,0.000017,0.000026,0.000010,0.000032,0.000011,57.420401,0.000044,
2041,2608,-4.72566574790827,-0.820128967016075,-0.0180291417652256,0.000134,-0.014496,0.005612,-0.013945,-0.581983,321.919271,23.765946,0.998903,0.987241,0.004527,0.494951,0.000056,0.000022,-0.000002,0.000056,0.000022,-3.407010,0.000081,
2191,3178,-1.55829248065765,11.5690561983666,0.0338025498280103,0.001526,-0.014772,0.010809,0.031218,-0.607303,312.444022,24.190518,0.999821,0.996392,0.002905,0.430751,0.000013,0.000036,0.000012,0.000041,0.000008,66.878153,0.000053,
2026,2803,-5.08092720707937,3.4223303793177,-0.0213773077764472,0.000586,-0.014693,0.008606,-0.001227,-0.595718,318.836728,23.661906,0.999553,0.991872,0.003618,0.476471,0.000021,0.000018,0.000014,0.000033,0.000006,41.845576,0.000042,
2311,2278,1.20904601172002,-8.02505016611244,0.0110338509934422,-0.000154,-0.016204,0.000092,-0.013598,-0.694581,326.607525,22.784144,0.999156,0.982923,0.004942,0.352139,0.000253,0.000224,-0.000005,0.000254,0.000223,-9.303202,0.000477,
2326,2338,1.52493391841038,-6.71256002520678,0.0103925191697272,-0.000322,-0.015846,0.000418,-0.022338,-0.680047,325.616597,22.809737,0.999135,0.982648,0.005087,0.422595,0.000186,0.000156,0.000008,0.000188,0.000155,13.452406,0.000343,
2206,3283,-1.25198268858965,13.8464329150492,0.0194885747538933,0.001782,-0.014778,0.009887,0.045623,-0.599454,310.573050,24.350915,0.999374,0.992289,0.003471,0.454124,0.000004,0.000039,0.000015,0.000045,-0.000001,69.460750,0.000051,
2041,2548,-4.71734604769539,-2.12759848329448,-0.0205076738820935,-0.000408,-0.014954,0.007207,-0.043529,-0.615261,322.839410,23.785562,0.999413,0.989759,0.003958,0.469395,0.000086,0.000026,0.000025,0.000095,0.000017,20.099338,0.000120,
2056,2713,-4.41569449861817,1.46631067620496,-0.0198076054018088,0.000643,-0.014782,0.007143,0.004794,-0.600888,320.136334,23.732107,0.999097,0.989281,0.004076,0.460534,0.000054,-0.000006,0.000015,0.000058,-0.000009,12.958664,0.000062,
2026,2608,-5.0521801336172,-0.818861816994975,-0.0299244369234088,0.000273,-0.014747,0.007250,-0.011890,-0.595377,321.912738,23.848595,0.998925,0.986345,0.004716,0.414008,0.000065,0.000025,-0.000001,0.000065,0.000025,-1.281835,0.000093,
2011,2578,-5.37407583716026,-1.47527050314152,-0.0122885812024265,-0.001222,-0.015004,0.009264,-0.085955,-0.596955,322.567226,23.808878,0.998997,0.985842,0.004810,0.489303,0.000075,0.000020,0.000006,0.000076,0.000020,6.032853,0.000101,
2341,2458,1.82789805922373,-4.08739253173994,-0.00453592717894935,-0.000320,-0.016095,0.008084,-0.049097,-0.670562,323.518991,23.079693,0.999521,0.987559,0.004366,0.413281,0.000122,0.000106,0.000039,0.000153,0.000075,39.440607,0.000233,
2116,2818,-3.12899538918778,3.75152723501649,-0.00945335244631451,0.000700,-0.015073,0.009336,-0.000398,-0.611402,318.208278,23.743114,0.999469,0.992045,0.003695,0.465447,0.000024,0.000032,0.000012,0.000041,0.000016,54.439594,0.000058,
2146,2968,-2.50137533328645,7.01101063707693,0.00938488627480183,0.000753,-0.015264,0.012017,-0.006898,-0.612760,315.791112,23.864418,0.999669,0.992919,0.003377,0.448486,0.000014,0.000032,0.000015,0.000041,0.000005,60.664505,0.000051,
2071,2743,-4.09465862540233,2.11864901345491,-0.0161564763585034,0.000487,-0.015051,0.008163,-0.005753,-0.628520,319.587658,23.696880,0.999345,0.990228,0.003978,0.462594,0.000031,0.000002,0.000009,0.000033,-0.000001,15.456408,0.000038,
2101,2758,-3.44537727934344,2.44629324624201,-0.0134477903800416,0.000396,-0.014790,0.006017,-0.004230,-0.602513,319.215325,23.709437,0.999493,0.989762,0.003897,0.487235,0.000030,0.000007,0.000006,0.000031,0.000006,13.119934,0.000040,
2431,2923,3.6987294141081,6.05255559605988,-0.00727628274142944,0.000606,-0.015420,0.009949,-0.015205,-0.628874,316.027406,24.462306,0.999660,0.991738,0.003691,0.405680,0.000019,-0.000012,0.000023,0.000031,-0.000024,27.719931,0.000033,
2011,3013,-5.4356977006194,7.9785114485603,0.0173277217622285,0.000954,-0.014849,0.011139,0.009167,-0.601928,315.854373,23.486239,0.999479,0.993178,0.003467,0.457224,0.000018,0.000023,0.000035,0.000055,-0.000014,47.288385,0.000057,
2251,2278,-0.10065700287986,-8.02514511818079,0.00998869397653834,-0.000961,-0.016180,0.004284,-0.064008,-0.687740,326.622032,23.009735,0.999319,0.984349,0.004945,0.390186,0.000260,0.000222,0.000020,0.000269,0.000213,23.555606,0.000483,
2266,2338,0.215400475565215,-6.71099889316271,-0.00127116796210203,-0.000715,-0.015606,0.001110,-0.042258,-0.670777,325.555697,23.076705,0.998878,0.982581,0.005333,0.386738,0.000185,0.000182,0.000013,0.000197,0.000170,41.543689,0.000367,
2266,2308,0.221478694941723,-7.36888936404072,0.0112301835560515,-0.000699,-0.015989,0.003613,-0.049941,-0.674544,326.137267,22.989880,0.998913,0.981455,0.005465,0.414189,0.000214,0.000195,0.000016,0.000223,0.000186,29.463500,0.000410,
2386,2653,2.7713069794541,0.169701163765055,-0.0113188239847659,0.000392,-0.016215,0.010498,-0.026163,-0.664200,320.333936,23.494174,0.999213,0.986012,0.004592,0.466378,0.000044,0.000025,0.000026,0.000062,0.000007,34.856939,0.000076,
2251,2218,-0.0890204677780702,-9.3395131690727,0.0116420738244187,-0.000494,-0.016289,-0.002873,-0.019292,-0.712203,327.648525,22.856842,0.998561,0.978228,0.005795,0.415616,0.000332,0.000324,0.000031,0.000359,0.000296,41.447901,0.000657,
2476,3148,4.6361622528931,10.9422352598246,0.0332674070897383,0.001182,-0.015488,0.012554,0.000170,-0.629757,312.787548,25.387410,0.999511,0.989080,0.003864,0.409192,0.000037,0.000031,0.000027,0.000061,0.000007,41.931267,0.000075,
2041,2623,-4.7281921973183,-0.493693588611762,-0.0198238853024577,-0.000105,-0.014513,0.003900,-0.020293,-0.616579,321.655721,23.755215,0.998864,0.987163,0.004578,0.464095,0.000051,0.000012,-0.000004,0.000052,0.000012,-6.080569,0.000067,
2461,3118,4.31567969073426,10.289231716028,0.0257003631451767,0.001426,-0.015412,0.012290,0.012831,-0.638225,313.195647,25.147685,0.999533,0.990167,0.003902,0.469789,0.000029,0.000048,0.000032,0.000072,0.000005,53.160193,0.000086,
2116,2908,-3.14324673509409,5.70698301945754,-0.00126641974594577,0.000556,-0.014997,0.009049,-0.006176,-0.608543,316.807600,23.779536,0.999239,0.990284,0.004145,0.450330,0.000015,0.000043,0.000018,0.000052,0.000006,64.572865,0.000064,
2131,2893,-2.81539840708514,5.38111900894435,0.00356268487138323,0.000138,-0.015278,0.010370,-0.029918,-0.634114,317.002762,23.786787,0.999419,0.990379,0.004011,0.441278,0.000016,0.000046,0.000017,0.000054,0.000009,66.153070,0.000067,
2011,2758,-5.4006165783588,2.44424296685091,-0.0298892758166289,-0.000037,-0.014433,0.006406,-0.023514,-0.594222,319.569018,23.697207,0.999438,0.991553,0.003771,0.465040,0.000016,0.000003,0.000019,0.000030,-0.000011,35.259414,0.000030,
2236,2023,-0.382411630315033,-13.6195866749232,0.0365539069377974,-0.002165,-0.018838,-0.001092,-0.102516,-0.805876,330.941216,22.491347,0.998953,0.980957,0.005597,0.445864,0.000604,0.000689,0.000014,0.000692,0.000602,80.757472,0.001294,
2011,2593,-5.37595926570622,-1.14780982526221,-0.0120596027023794,-0.000790,-0.014657,0.010988,-0.070657,-0.582839,322.341504,23.850265,0.999048,0.986402,0.004865,0.450460,0.000070,0.000016,0.000008,0.000071,0.000015,8.299036,0.000092,
2026,2818,-5.08321139982228,3.74774521018365,-0.017982259143082,0.000441,-0.014894,0.009608,-0.010693,-0.593219,318.612474,23.620317,0.999359,0.991443,0.003719,0.510666,0.000016,0.000030,0.000014,0.000039,0.000007,58.214933,0.000049,
2221,2098,-0.723797709302335,-11.9705659239135,0.0194290181532324,-0.001925,-0.018049,0.000178,-0.095305,-0.775792,329.632210,22.791210,0.998992,0.978859,0.005666,0.389610,0.000502,0.000569,0.000043,0.000590,0.000481,63.816188,0.001073,
2236,2158,-0.406963777726123,-10.6529677561893,0.00568539576005378,-0.001265,-0.016627,-0.002745,-0.055188,-0.733681,328.558400,22.853010,0.998652,0.981336,0.005408,0.375991,0.000411,0.000452,0.000049,0.000485,0.000378,56.245171,0.000865,
2131,2983,-2.82901925201725,7.33571937299136,0.00934983113313592,0.000884,-0.014626,0.008718,0.009666,-0.604076,315.624823,23.821942,0.999727,0.993877,0.003215,0.466969,0.000019,0.000032,0.000017,0.000044,0.000008,55.474515,0.000056,
2026,2623,-5.05381821285618,-0.493511764065175,-0.0231616685256313,0.000284,-0.014559,0.003981,-0.002396,-0.619081,321.736588,23.800860,0.999033,0.987044,0.004634,0.428851,0.000059,0.000009,-0.000004,0.000059,0.000008,-4.449004,0.000074,
2086,2848,-3.78496176833892,4.4012511611706,-0.000130686623094789,0.000319,-0.014863,0.010951,-0.021769,-0.592788,317.922343,23.680345,0.999657,0.993063,0.003433,0.512216,0.000015,0.000029,0.000012,0.000036,0.000008,60.980395,0.000047,
2296,2413,0.856240150871493,-5.07143608032112,-0.0026056459088295,-0.000211,-0.015649,0.000534,-0.017466,-0.701708,324.319667,23.127709,0.999359,0.985967,0.004773,0.352515,0.000129,0.000132,0.000011,0.000142,0.000119,49.523585,0.000262,
2491,3268,4.93656506869428,13.5487955128851,0.0161104544753243,0.001446,-0.015493,0.013742,0.007294,-0.627119,310.716584,25.912772,0.999833,0.994806,0.002983,0.411020,0.000047,0.000021,0.000044,0.000081,-0.000012,36.924693,0.000087,
2056,2728,-4.41856587176546,1.79289301813924,-0.021334851283882,0.000333,-0.014935,0.009477,-0.016105,-0.602033,319.859618,23.737168,0.999245,0.989852,0.003991,0.449251,0.000043,-0.000010,0.000014,0.000046,-0.000014,13.693802,0.000048,
2206,1993,-1.03358147461758,-14.2761808572188,0.0246464743639763,-0.002652,-0.019329,-0.001789,-0.122674,-0.861790,331.373201,22.678550,0.999201,0.983025,0.005190,0.365619,0.000713,0.000652,0.000006,0.000713,0.000651,5.591176,0.001365,
2041,2563,-4.71902074854976,-1.80078323540565,-0.0177371870573779,-0.000199,-0.014484,0.003568,-0.023636,-0.598151,322.639784,23.779033,0.999520,0.989741,0.003886,0.486363,0.000076,0.000032,0.000014,0.000080,0.000028,15.766547,0.000112,
2101,2833,-3.45750382039996,4.07734964216827,-0.0125452093427043,0.000610,-0.015189,0.011488,-0.010564,-0.623820,317.998701,23.761735,0.999628,0.993269,0.003430,0.419463,0.000020,0.000028,0.000011,0.000036,0.000012,54.434427,0.000050,
2296,2488,0.842003165421769,-3.43277730111893,-0.0091809977548678,0.000057,-0.015654,0.005693,-0.022563,-0.674751,323.045312,23.239501,0.999320,0.987914,0.004420,0.424706,0.000099,0.000069,0.000020,0.000109,0.000060,26.068076,0.000171,
2101,2893,-3.46595755676629,5.37996849679834,-0.00476849130933488,0.000992,-0.014656,0.006291,0.022433,-0.615879,317.121520,23.703227,0.999402,0.992476,0.003825,0.489526,0.000014,0.000046,0.000017,0.000053,0.000007,67.052716,0.000066,
2116,2833,-3.13225635421162,4.07850229099118,-0.0127373531194053,0.000245,-0.015242,0.011691,-0.028386,-0.617251,317.908898,23.808101,0.999614,0.992337,0.003689,0.397814,0.000022,0.000031,0.000011,0.000038,0.000014,55.924195,0.000054,
2056,2923,-4.44694098609622,6.02897796881138,0.00169027506211705,0.000894,-0.014901,0.009108,0.010781,-0.604499,316.913026,23.644925,0.999457,0.992037,0.003693,0.466542,0.000017,0.000033,0.000006,0.000035,0.000015,71.103216,0.000051,
2416,2803,3.39518450554968,3.44076473460073,-0.0176685295673451,0.000377,-0.015042,0.006136,-0.011234,-0.626786,317.882117,24.009412,0.999382,0.987227,0.004536,0.450474,0.000027,0.000040,0.000015,0.000050,0.000017,56.887438,0.000070,
2041,2638,-4.73040041429914,-0.167373850682871,-0.0135548772494758,-0.000090,-0.014599,0.009185,-0.034272,-0.592014,321.451290,23.747967,0.999173,0.989378,0.004220,0.488849,0.000059,0.000009,0.000002,0.000059,0.000009,1.952482,0.000074,
2491,3283,4.93355948209986,13.8732181298171,0.0130076662770193,0.001671,-0.015584,0.012656,0.021755,-0.643244,310.458876,25.885814,0.999835,0.995232,0.002971,0.479477,0.000055,0.000009,0.000047,0.000084,-0.000020,32.235913,0.000088,
2401,2743,3.07994121487241,2.13325794470568,-0.0254819897908192,0.000735,-0.015762,0.007928,-0.001316,-0.652098,318.787830,23.771027,0.999517,0.989726,0.004053,0.468134,0.000024,0.000058,0.000019,0.000066,0.000015,65.430636,0.000087,
2446,2953,4.01953024765207,6.70570694928539,-0.0130927355291988,0.001127,-0.015278,0.005869,0.023614,-0.633409,315.552629,24.538666,0.999657,0.993039,0.003612,0.459565,0.000029,-0.000007,0.000026,0.000043,-0.000021,27.885992,0.000043,
2251,2293,-0.103535142811698,-7.69663340904027,0.00378775795451247,-0.000977,-0.015923,0.001257,-0.054760,-0.686899,326.337584,23.000771,0.999088,0.983320,0.005091,0.425434,0.000242,0.000216,0.000025,0.000257,0.000201,31.348808,0.000459,
2221,2083,-0.72212108774422,-12.2986983548585,0.0127036889643364,-0.002571,-0.017810,-0.003100,-0.114326,-0.785267,329.798269,22.776882,0.999030,0.978901,0.005626,0.372572,0.000522,0.000587,0.000036,0.000603,0.000506,66.200984,0.001111,
2071,2758,-4.0972887433081,2.44549912673719,-0.0209648690981794,0.000427,-0.014913,0.006827,-0.004622,-0.617977,319.305121,23.698190,0.999438,0.991218,0.003847,0.468950,0.000030,0.000004,0.000007,0.000032,0.000002,14.872766,0.000038,
2176,3103,-1.87155888320553,9.9410144617798,0.033022660222457,0.000938,-0.015208,0.013178,-0.002972,-0.624009,313.679437,24.033297,0.999578,0.993616,0.003292,0.446791,0.000012,0.000024,0.000010,0.000030,0.000006,60.016754,0.000039,
2086,3073,-3.81858204931698,9.28408323419618,0.0287296538431292,0.000899,-0.015051,0.010222,0.006950,-0.623311,314.529685,23.703280,0.999406,0.991039,0.003655,0.434609,0.000014,0.000037,0.000015,0.000045,0.000006,63.602191,0.000056,
2146,3073,-2.5180422063235,9.28945589654836,0.0187966769184413,0.001056,-0.014850,0.012463,0.005810,-0.606520,314.170049,23.930085,0.999746,0.995943,0.002950,0.438434,0.000009,0.000025,0.000008,0.000028,0.000005,67.356046,0.000036,
2071,2728,-4.09270838494589,1.793393660539,-0.0211542527760571,0.000394,-0.014665,0.008067,-0.009580,-0.594581,319.784764,23.724050,0.999140,0.989026,0.004177,0.472595,0.000034,-0.000006,0.000007,0.000035,-0.000007,9.656769,0.000037,
2161,3043,-2.18655594252347,8.63898533004162,0.0278384814982928,0.001240,-0.015060,0.008938,0.024531,-0.621960,314.696363,23.981399,0.999549,0.992634,0.003627,0.406792,0.000018,0.000025,0.000011,0.000033,0.000010,54.778319,0.000045,
2251,2233,-0.0924516220614038,-9.01030627201335,0.0042743207023932,-0.000619,-0.016332,-0.000870,-0.031574,-0.709425,327.332913,22.874877,0.998561,0.979465,0.005625,0.426385,0.000308,0.000300,0.000029,0.000333,0.000274,41.074471,0.000608,
2461,3133,4.31272351605218,10.6153615533922,0.0264508495019413,0.001328,-0.015307,0.011058,0.013042,-0.637365,312.955918,25.243719,0.999504,0.989274,0.003946,0.427775,0.000033,0.000043,0.000030,0.000068,0.000008,49.986060,0.000084,
2266,2563,0.175089311388117,-1.79745711205078,-0.00861546708875949,-0.000095,-0.015637,0.005492,-0.028304,-0.655048,321.867729,23.358881,0.999504,0.989371,0.004172,0.524155,0.000064,0.000048,0.000022,0.000079,0.000033,34.522901,0.000115,
2371,2563,2.4618535248728,-1.79348064112617,-0.00695302123301644,-0.000049,-0.015733,0.008663,-0.039258,-0.647169,321.810470,23.317138,0.999367,0.988250,0.004420,0.418928,0.000079,0.000042,0.000035,0.000101,0.000020,31.174815,0.000130,
2116,2923,-3.14525723602437,6.03238375645853,0.00217571672834538,0.000592,-0.014736,0.006300,0.003694,-0.611706,316.602244,23.771540,0.998995,0.988721,0.004352,0.458112,0.000015,0.000043,0.000018,0.000052,0.000006,63.291645,0.000064,
2146,2983,-2.50368938193284,7.33659574369847,0.00693510344706283,0.000980,-0.015070,0.010131,0.009288,-0.621003,315.542431,23.853750,0.999706,0.994230,0.003170,0.458236,0.000011,0.000032,0.000016,0.000041,0.000002,61.402417,0.000049,
2026,2638,-5.05600322227344,-0.168591193858298,-0.00928287401285388,-0.000204,-0.014830,0.008586,-0.037587,-0.608985,321.575149,23.744021,0.999284,0.990213,0.004051,0.486184,0.000065,0.000006,0.000005,0.000066,0.000005,4.567713,0.000079,
2281,2638,0.488221883150626,-0.159734768727262,-0.0160011743080872,0.000563,-0.015326,0.005576,0.001527,-0.633201,320.596423,23.570506,0.999356,0.985667,0.004400,0.454794,0.000048,0.000038,0.000031,0.000074,0.000012,40.291222,0.000093,
2236,2038,-0.385107678304429,-13.2894476052983,0.0288456901397467,-0.001681,-0.018547,-0.000524,-0.082066,-0.809250,330.656363,22.517991,0.998908,0.978369,0.005691,0.440682,0.000579,0.000657,0.000016,0.000660,0.000576,78.562367,0.001237,
2011,2608,-5.37903413746222,-0.819641912542579,-0.0256335870316207,-0.000639,-0.015270,0.014166,-0.072496,-0.597527,321.983768,23.871444,0.999546,0.991405,0.003900,0.403733,0.000071,0.000010,0.000000,0.000071,0.000010,0.431221,0.000089,
2311,2293,1.20524443278633,-7.69705256685393,0.00689518012120516,-0.000825,-0.016148,0.001125,-0.047833,-0.689971,326.296818,22.746118,0.999219,0.984200,0.004951,0.429411,0.000233,0.000212,-0.000003,0.000233,0.000212,-9.030161,0.000445,
2161,3148,-2.20425340063328,10.915934725214,0.0341012146826074,0.001145,-0.014937,0.012455,0.009433,-0.609351,313.018925,24.014258,0.999399,0.991957,0.003822,0.449546,0.000011,0.000021,0.000006,0.000023,0.000009,65.926024,0.000033,
2341,2473,1.82552410903157,-3.7596726659631,-0.00327949949871709,-0.000130,-0.015734,0.006115,-0.033392,-0.652970,323.301983,23.118006,0.999494,0.987406,0.004328,0.430490,0.000116,0.000093,0.000039,0.000145,0.000064,36.569917,0.000214,
2026,2833,-5.0853427465041,4.07424557929976,-0.0181903262251808,0.000489,-0.014750,0.007589,-0.002921,-0.603297,318.374793,23.667556,0.999654,0.993872,0.003475,0.443082,0.000010,0.000025,0.000010,0.000030,0.000005,64.435785,0.000037,
2056,2938,-4.44945043883494,6.35412236299528,0.00802211082827853,0.000604,-0.015209,0.013316,-0.014551,-0.610594,316.696932,23.639210,0.999279,0.991140,0.003838,0.459911,0.000017,0.000029,0.000007,0.000032,0.000013,64.945738,0.000047,
2191,3193,-1.56022366178513,11.8930056061208,0.0445706876453755,0.001459,-0.014839,0.010899,0.027826,-0.608217,312.285825,24.156664,0.999729,0.995557,0.003072,0.477201,0.000011,0.000031,0.000010,0.000035,0.000007,67.816566,0.000045,
2056,2743,-4.42121674076036,2.1188110527156,-0.022883189110928,0.000101,-0.015010,0.009470,-0.026865,-0.617995,319.593132,23.700559,0.999378,0.990741,0.003896,0.464625,0.000041,0.000001,0.000015,0.000046,-0.000004,18.043886,0.000051,
2296,2428,0.853717523170214,-4.74387830264303,0.00215670485403052,-0.000012,-0.015788,0.005239,-0.024215,-0.658561,324.109717,23.143524,0.999511,0.987975,0.004446,0.411172,0.000123,0.000110,0.000008,0.000127,0.000106,25.135982,0.000233,
2236,2173,-0.4094705181036,-10.3246210619107,0.00893731795366648,-0.001500,-0.016383,-0.004106,-0.061495,-0.738690,328.337754,22.889850,0.998726,0.982156,0.005317,0.358063,0.000391,0.000411,0.000047,0.000450,0.000353,51.068405,0.000804,
2326,2353,1.5216746300317,-6.38312788128638,0.00287585680825941,-0.000148,-0.015809,0.001462,-0.017947,-0.674053,325.315221,22.890208,0.999032,0.980663,0.005137,0.384846,0.000177,0.000150,0.000013,0.000183,0.000145,21.744531,0.000328,
2221,2113,-0.726614801870344,-11.6419143996354,0.0210049728910349,-0.002148,-0.017817,0.002198,-0.111853,-0.782502,329.387712,22.817642,0.998951,0.980083,0.005482,0.378379,0.000482,0.000549,0.000045,0.000572,0.000459,63.221314,0.001033,
2071,2983,-4.13052794780374,7.33117599831797,0.0117132150585917,0.001040,-0.015339,0.012773,0.006481,-0.622215,315.933081,23.631647,0.999280,0.990804,0.003804,0.478054,0.000016,0.000017,0.000012,0.000028,0.000005,46.414516,0.000036,
2176,3193,-1.88423645776703,11.888953360838,0.0669560746558204,0.001327,-0.015151,0.012417,0.017316,-0.627319,312.513552,23.979711,0.999822,0.996421,0.002833,0.563887,0.000008,0.000029,0.000011,0.000033,0.000004,67.078533,0.000041,
2431,2938,3.69615609000316,6.3782807561382,-0.00499950767397195,0.000782,-0.015318,0.009497,-0.005413,-0.628582,315.811358,24.481976,0.999675,0.991432,0.003754,0.435841,0.000018,-0.000008,0.000020,0.000029,-0.000019,28.097168,0.000029,
2146,3088,-2.52019284216672,9.61530572244323,0.0201414038630787,0.001230,-0.014830,0.010889,0.018645,-0.598642,313.948899,23.980795,0.999705,0.994567,0.003161,0.402500,0.000004,0.000022,0.000008,0.000024,0.000001,69.611107,0.000029,
2116,2968,-3.15207497730936,7.00920259796759,0.0109650526131873,0.000783,-0.015034,0.009712,0.002326,-0.607536,315.941657,23.802394,0.999651,0.992288,0.003460,0.439832,0.000023,0.000027,0.000017,0.000043,0.000008,48.615878,0.000054,
2131,2998,-2.83104974782743,7.66070770335781,0.0127279401637566,0.001019,-0.014317,0.007295,0.020244,-0.593854,315.419336,23.781446,0.999732,0.993978,0.003271,0.522471,0.000016,0.000032,0.000019,0.000045,0.000004,56.223775,0.000054,
2086,3088,-3.82087284228406,9.60954609307144,0.0288444223952524,0.000994,-0.014666,0.009795,0.012711,-0.600286,314.291454,23.693502,0.999437,0.990468,0.003777,0.465560,0.000008,0.000036,0.000014,0.000042,0.000002,67.300373,0.000050,
2476,3163,4.6331354162304,11.2682183906501,0.0309250759418092,0.001254,-0.015305,0.010871,0.009970,-0.629781,312.531395,25.459560,0.999532,0.990125,0.003805,0.392561,0.000035,0.000038,0.000032,0.000069,0.000004,46.184965,0.000082,
2086,2863,-3.78704086689952,4.72827327103384,-0.00467962587816828,0.000756,-0.014719,0.008330,0.006001,-0.592869,317.667771,23.742206,0.999471,0.990693,0.003937,0.449216,0.000016,0.000032,0.000011,0.000038,0.000010,62.845331,0.000051,
2131,2908,-2.81703666573471,5.70610846323581,0.00757864097346328,0.000699,-0.015379,0.010256,-0.003768,-0.637635,316.818670,23.741386,0.999350,0.988260,0.004287,0.488506,0.000018,0.000042,0.000017,0.000051,0.000009,63.124637,0.000064,
2026,2653,-5.0588500366105,0.159106561140128,-0.0201879638957507,-0.000167,-0.014722,0.008025,-0.034319,-0.610997,321.244486,23.748796,0.999333,0.990688,0.003904,0.470403,0.000058,0.000002,0.000002,0.000058,0.000002,2.415870,0.000068,
2011,3028,-5.43720565766171,8.30348157958338,0.0258320324444981,0.001244,-0.015071,0.011312,0.022044,-0.603500,315.694041,23.494207,0.999511,0.993265,0.003504,0.434730,0.000026,0.000037,0.000037,0.000069,-0.000006,49.372883,0.000076,
2386,2668,2.76809091436784,0.497239083730662,-0.0137522930791647,0.000159,-0.015789,0.009191,-0.031968,-0.644721,320.063501,23.545182,0.999322,0.987641,0.004397,0.478817,0.000041,0.000031,0.000022,0.000058,0.000014,38.268583,0.000076,
2071,2773,-4.09892155696038,2.77141182122768,-0.0151669255907905,0.000743,-0.014887,0.006109,0.011929,-0.628169,319.126713,23.722090,0.999357,0.989525,0.004102,0.431476,0.000029,0.000015,0.000009,0.000033,0.000011,24.983634,0.000046,
2011,2773,-5.40236958988026,2.77015017411845,-0.0240936400839473,0.000185,-0.014739,0.007499,-0.016356,-0.597356,319.381323,23.712850,0.999498,0.991054,0.003888,0.434155,0.000013,0.000017,0.000017,0.000032,-0.000002,47.946663,0.000036,
2101,2908,-3.46808606076672,5.70572804146634,0.00448332294712372,0.000831,-0.014768,0.008421,0.008810,-0.604687,316.941073,23.751666,0.999288,0.992071,0.003930,0.452937,0.000016,0.000042,0.000015,0.000049,0.000009,65.151921,0.000062,
2356,2533,2.14100717094768,-2.45010321938185,-0.00400884479097385,-0.000040,-0.016012,0.008007,-0.036282,-0.676540,322.321132,23.181040,0.999303,0.985811,0.004726,0.468232,0.000091,0.000052,0.000038,0.000114,0.000029,31.469317,0.000151,
2491,3298,4.93060945021948,14.1993268269756,0.00962737321270879,0.001717,-0.014897,0.008450,0.040415,-0.609190,310.201826,25.967074,0.999694,0.992675,0.003526,0.489458,0.000045,-0.000008,0.000035,0.000062,-0.000026,26.515932,0.000062,
2041,2653,-4.73327262695805,0.160030539366758,-0.0246343121394261,0.000027,-0.014845,0.009614,-0.030207,-0.617697,321.120178,23.748613,0.999385,0.989680,0.004081,0.455793,0.000055,0.000004,0.000004,0.000055,0.000004,4.026106,0.000066,
2206,2008,-1.03565809490843,-13.9475974712527,0.0279498456062584,-0.002561,-0.018924,-0.003621,-0.112563,-0.864044,331.170297,22.675705,0.999025,0.979179,0.005630,0.386314,0.000671,0.000654,0.000015,0.000680,0.000645,30.061601,0.001325,
2011,2623,-5.380258582294,-0.494251637014635,-0.0205320157552364,-0.000309,-0.014744,0.007969,-0.040365,-0.602720,321.816223,23.794109,0.999560,0.991674,0.003758,0.464279,0.000067,-0.000009,0.000003,0.000068,-0.000009,2.023836,0.000073,
2281,2428,0.526393787042636,-4.74388127255521,-0.00120565243167903,-0.000312,-0.015487,0.004125,-0.033925,-0.657130,324.088688,23.170887,0.999495,0.988020,0.004472,0.427472,0.000116,0.000115,0.000009,0.000125,0.000106,42.952202,0.000232,
2296,2503,0.838143936670697,-3.10323309914498,-0.0193672142700052,-0.000307,-0.015371,0.005741,-0.039322,-0.654586,322.699585,23.347968,0.999620,0.992127,0.003830,0.367857,0.000089,0.000054,0.000019,0.000097,0.000046,23.433312,0.000146,
2056,2953,-4.45122516733347,6.67997711498392,0.00920969824551321,0.000895,-0.014678,0.009824,0.008887,-0.587603,316.485859,23.637071,0.999131,0.991395,0.003867,0.479069,0.000018,0.000013,0.000009,0.000025,0.000006,37.455690,0.000033,
2416,2818,3.39293337978053,3.76628669675983,-0.0111718335843989,0.000758,-0.015534,0.008720,-0.003387,-0.631775,317.700189,24.015167,0.999302,0.988247,0.004360,0.487107,0.000028,0.000031,0.000015,0.000045,0.000014,47.997096,0.000062,
2056,2758,-4.42278425561411,2.44439719883222,-0.0140478480166735,0.000322,-0.015053,0.009578,-0.016979,-0.610706,319.433556,23.696821,0.999310,0.990011,0.004069,0.470284,0.000039,0.000003,0.000013,0.000043,-0.000001,17.333558,0.000049,
2176,3118,-1.87358377082436,10.2661347123711,0.0366220371827239,0.001054,-0.014959,0.010498,0.010752,-0.623494,313.478202,24.045491,0.999534,0.992954,0.003486,0.446501,0.000011,0.000020,0.000009,0.000025,0.000006,57.785858,0.000033,
2371,2578,2.45915458078565,-1.46670004904582,-0.00868256570822723,0.000118,-0.015966,0.006947,-0.025584,-0.657185,321.566505,23.304551,0.999378,0.988201,0.004424,0.463305,0.000075,0.000045,0.000037,0.000099,0.000020,34.088176,0.000128,
2446,2968,4.01697497501423,7.03169264861539,-0.00343809812994778,0.000940,-0.015447,0.007803,0.007711,-0.642218,315.372300,24.651186,0.999636,0.992200,0.003683,0.389553,0.000029,0.000002,0.000029,0.000048,-0.000017,32.330623,0.000048,
2041,2578,-4.72155052288321,-1.47443312596812,-0.0195144570453749,-0.000069,-0.015229,0.008109,-0.030494,-0.619653,322.376124,23.733158,0.999214,0.988952,0.004144,0.503949,0.000058,0.000030,0.000002,0.000059,0.000030,4.744512,0.000090,
2146,3118,-2.52462257460504,10.2646575132279,0.0340809091779306,0.000928,-0.014645,0.011142,0.004027,-0.588812,313.561395,23.953259,0.999646,0.994566,0.003188,0.453052,0.000003,0.000022,0.000009,0.000025,-0.000001,68.041689,0.000029,
2191,3208,-1.56296150091071,12.2179524730831,0.0461004436032795,0.001399,-0.015182,0.013586,0.016547,-0.612818,312.041965,24.167244,0.999511,0.993399,0.003568,0.474969,0.000010,0.000034,0.000010,0.000038,0.000006,69.628913,0.000048,
2071,2788,-4.10142843193443,3.09663085492451,-0.00872328633312236,0.000398,-0.015051,0.009487,-0.013597,-0.616427,318.911987,23.669259,0.999308,0.988107,0.004244,0.492779,0.000027,0.000016,0.000008,0.000031,0.000012,28.316567,0.000045,
2461,3148,4.31012816334684,10.9407884988807,0.0301718181678439,0.001377,-0.015199,0.010232,0.018505,-0.628648,312.746587,25.288893,0.999409,0.988888,0.003939,0.444546,0.000033,0.000031,0.000027,0.000059,0.000004,43.899560,0.000071,
2101,2848,-3.4599428795459,4.40305420447918,-0.0144779483523507,0.000595,-0.014780,0.009748,-0.005973,-0.594993,317.743413,23.689973,0.999776,0.993988,0.003211,0.521054,0.000018,0.000033,0.000014,0.000042,0.000010,59.336989,0.000054,
2266,2353,0.21251914803879,-6.38362654810889,0.00104955685509367,-0.000704,-0.016081,0.006572,-0.059958,-0.670872,325.315315,23.071007,0.999090,0.983117,0.005216,0.419732,0.000170,0.000168,0.000009,0.000179,0.000160,42.305677,0.000339,
2251,2308,-0.105842223346226,-7.36847541691887,0.00619211874368375,-0.000921,-0.015714,-0.000173,-0.047482,-0.687676,326.122724,23.052937,0.998445,0.979505,0.005680,0.397956,0.000224,0.000195,0.000026,0.000240,0.000180,30.455176,0.000421,
2086,3103,-3.82310882737071,9.93469369701689,0.032235166160774,0.001060,-0.014663,0.011287,0.011487,-0.588304,314.073756,23.690245,0.999714,0.993282,0.003276,0.478771,0.000007,0.000039,0.000022,0.000050,-0.000004,63.220360,0.000055,
2011,2788,-5.4040731982515,3.09591683406927,-0.0184939118740317,0.000351,-0.014439,0.006631,-0.006217,-0.574375,319.194811,23.691702,0.999497,0.991359,0.003817,0.466200,0.000015,0.000019,0.000017,0.000034,0.000000,48.238940,0.000040,
2221,2338,-0.767361514945854,-6.7103282757486,-0.0127684874477154,-0.001375,-0.016674,0.009417,-0.099222,-0.687637,325.491463,23.227621,0.999606,0.989951,0.004196,0.384884,0.000184,0.000175,0.000027,0.000207,0.000152,40.296743,0.000360,
2131,3013,-2.83335728111654,7.98690907909607,0.016699254934224,0.000994,-0.014508,0.008158,0.016515,-0.588633,315.203900,23.865155,0.999418,0.991125,0.003786,0.448695,0.000018,0.000033,0.000020,0.000047,0.000004,54.894404,0.000057,
2506,1993,5.53051831971054,-14.2853818478764,0.027220031816455,0.002173,-0.019200,-0.009674,0.128083,-0.876643,331.737577,20.553993,0.998906,0.971434,0.006570,0.342340,0.000990,0.000648,-0.000055,0.000999,0.000639,-8.917114,0.001651,
2326,2368,1.51822190865539,-6.05499817421854,-0.00391704580778196,-0.000272,-0.015660,0.001978,-0.025355,-0.670907,325.008667,22.867557,0.999292,0.984968,0.004747,0.447054,0.000165,0.000145,0.000015,0.000173,0.000137,27.646672,0.000310,
2221,2128,-0.728779495744341,-11.3124126461639,0.0223200612190908,-0.001929,-0.016979,0.000874,-0.097297,-0.752352,329.171379,22.887055,0.998878,0.979208,0.005477,0.360957,0.000462,0.000527,0.000047,0.000552,0.000438,62.131560,0.000991,
2251,2488,-0.137747568101993,-3.43478469150727,-0.00149579197227467,-0.000057,-0.015723,0.007011,-0.031337,-0.651710,323.164951,23.282113,0.999670,0.989397,0.003962,0.504073,0.000083,0.000070,0.000022,0.000100,0.000054,36.634342,0.000156,
2341,2488,1.82286622741232,-3.43279731833536,0.000392923410345247,-0.000261,-0.015439,0.006141,-0.039379,-0.638247,323.083774,23.108700,0.999430,0.987202,0.004309,0.492107,0.000110,0.000085,0.000037,0.000137,0.000058,35.992668,0.000200,
2281,2653,0.485765873737087,0.16764195800188,-0.0184923673696744,0.000745,-0.014740,0.002121,0.021636,-0.630224,320.351938,23.616687,0.999462,0.988403,0.004162,0.439816,0.000045,0.000038,0.000027,0.000069,0.000015,41.503995,0.000089,
2116,2983,-3.15344708510226,7.33376207891261,0.0191502494483871,0.001241,-0.014719,0.008280,0.027812,-0.593705,315.791421,23.747383,0.999707,0.993531,0.003256,0.511606,0.000019,0.000028,0.000019,0.000043,0.000004,51.679137,0.000053,
2266,2578,0.172157161703087,-1.46895388552092,-0.0149809476990868,0.000187,-0.015616,0.006432,-0.018444,-0.641423,321.580598,23.438834,0.999273,0.987749,0.004430,0.484175,0.000065,0.000050,0.000025,0.000083,0.000031,36.517206,0.000118,
2401,2758,3.07734803555933,2.45969640887152,-0.0188828855610836,0.000726,-0.015496,0.010302,-0.010268,-0.642227,318.589719,23.831501,0.999354,0.988262,0.004309,0.463129,0.000027,0.000059,0.000018,0.000067,0.000019,66.279260,0.000090,
2026,2848,-5.0886145387492,4.39914634162853,-0.0366702997291668,0.000197,-0.014215,0.000741,0.002515,-0.624522,317.983400,23.447043,0.999684,0.995090,0.003256,0.632865,0.000012,0.000024,0.000010,0.000030,0.000007,61.480226,0.000039,
2296,2443,0.849583846458248,-4.41729618254357,-0.00655382043061081,-0.000409,-0.016706,0.010275,-0.059754,-0.681550,323.759677,23.014402,0.999570,0.988390,0.004362,0.549216,0.000120,0.000102,0.000013,0.000127,0.000095,28.348985,0.000222,
2431,2953,3.69279976608259,6.70464278230657,-0.0108058436688339,0.000865,-0.015511,0.009451,-0.001474,-0.631769,315.521429,24.511233,0.999730,0.992734,0.003578,0.452906,0.000018,-0.000003,0.000022,0.000031,-0.000017,32.134067,0.000031,
2086,2878,-3.78939880914247,5.05312900659459,-0.00163767646307633,0.000631,-0.014979,0.008864,-0.001464,-0.615751,317.442518,23.688474,0.999423,0.991397,0.003895,0.478702,0.000017,0.000047,0.000012,0.000052,0.000012,70.671739,0.000068,
2041,2833,-4.75960553745259,4.07439792621118,-0.0115406541071366,0.000502,-0.014872,0.009654,-0.008401,-0.592069,318.333136,23.670254,0.999007,0.988103,0.004276,0.469853,0.000019,0.000026,0.000012,0.000035,0.000010,53.466089,0.000048,
2461,3163,4.30777195168679,11.2661712625102,0.033423627115269,0.001552,-0.015215,0.007550,0.036667,-0.633937,312.546070,25.344496,0.999530,0.990340,0.003837,0.436869,0.000031,0.000039,0.000032,0.000068,0.000003,48.427594,0.000080,
2446,2983,4.01343452593234,7.3575721921675,-0.00197383547970276,0.000651,-0.015693,0.012394,-0.022736,-0.629671,315.108727,24.679407,0.999603,0.990733,0.003900,0.425359,0.000030,0.000005,0.000028,0.000048,-0.000013,33.128925,0.000050,
2011,3043,-5.43968959281161,8.62847291308928,0.0281493148540335,0.000917,-0.014755,0.011347,0.006922,-0.599094,315.454184,23.460552,0.999453,0.993436,0.003578,0.460160,0.000024,0.000041,0.000033,0.000067,-0.000002,52.247105,0.000076,
2056,2968,-4.45346443645275,7.00485820736473,0.0128390030585592,0.000946,-0.015027,0.012416,0.003684,-0.629550,316.267423,23.631044,0.999203,0.990581,0.003862,0.437145,0.000023,0.000009,0.000008,0.000027,0.000005,24.947553,0.000034,
2146,3133,-2.52687644510787,10.5888861127623,0.0387797288983052,0.001094,-0.015117,0.014350,0.001782,-0.608995,313.353965,23.913762,0.999458,0.993411,0.003542,0.479182,0.000003,0.000023,0.000006,0.000025,0.000001,73.190170,0.000029,
2026,2668,-5.06098828741673,0.484854363190713,-0.0196393837679238,-0.000066,-0.015049,0.008212,-0.030282,-0.616821,321.010715,23.679876,0.999250,0.990391,0.003952,0.524120,0.000050,-0.000019,0.000003,0.000050,-0.000019,2.328708,0.000051,
2236,2188,-0.411763989667438,-9.99513049689389,0.01109244132806,-0.001167,-0.016314,-0.001685,-0.054006,-0.704198,328.120912,22.984925,0.999041,0.985023,0.004985,0.321269,0.000365,0.000381,0.000038,0.000412,0.000333,50.870918,0.000747,
2071,2803,-4.10406616406654,3.42351288466112,-0.0130208278819737,0.000505,-0.015233,0.011336,-0.014012,-0.615372,318.631932,23.700675,0.999305,0.989670,0.004097,0.459366,0.000027,0.000020,0.000011,0.000035,0.000012,36.270759,0.000049,
2281,2443,0.523298441602307,-4.41691892484678,-0.00231687100256295,-0.000340,-0.016244,0.008069,-0.048624,-0.661527,323.822439,23.129033,0.999605,0.988853,0.004292,0.493981,0.000110,0.000108,0.000013,0.000123,0.000096,42.419085,0.000219,
2131,3043,-2.83797432689514,8.63677302116449,0.0276126614137979,0.001014,-0.015447,0.013956,-0.000286,-0.618628,314.789774,23.869371,0.999455,0.992255,0.003611,0.423990,0.000016,0.000028,0.000013,0.000036,0.000008,57.491042,0.000047,
2506,2008,5.52686257338991,-13.9568532004714,0.0324348174025317,0.001761,-0.019691,-0.003040,0.083553,-0.875838,331.494942,20.568378,0.999009,0.974209,0.006397,0.393637,0.000960,0.000641,-0.000071,0.000975,0.000626,-11.964383,0.001613,
2356,2548,2.13806771265288,-2.12244299071611,-0.00587536740459882,-0.000135,-0.015583,0.006215,-0.034199,-0.668785,322.064101,23.220016,0.999247,0.985580,0.004735,0.476919,0.000084,0.000043,0.000036,0.000105,0.000022,30.345193,0.000136,
2161,3058,-2.18828585522667,8.96281377528518,0.0445764299477105,0.001137,-0.014901,0.012149,0.009936,-0.615423,314.577593,23.939204,0.999659,0.994805,0.003354,0.464354,0.000019,0.000021,0.000009,0.000029,0.000011,47.850489,0.000041,
2206,2263,-1.07932241603689,-8.35356614888902,0.0067051502116442,-0.001193,-0.016401,0.001618,-0.065685,-0.718426,326.936016,23.155332,0.998967,0.981139,0.005323,0.386783,0.000263,0.000234,0.000045,0.000295,0.000201,36.074573,0.000500,
2101,2923,-3.47079806401394,6.03139145716915,0.00597558393064901,0.000533,-0.014914,0.009760,-0.008879,-0.604237,316.691917,23.749701,0.999216,0.990377,0.004064,0.455993,0.000016,0.000040,0.000015,0.000047,0.000008,64.131741,0.000059,
2071,2998,-4.13179145444867,7.65638592020888,0.0252541232358681,0.001097,-0.014807,0.009276,0.019325,-0.606248,315.814579,23.673111,0.999489,0.992096,0.003514,0.448578,0.000011,0.000026,0.000014,0.000035,0.000003,58.461212,0.000041,
2161,3163,-2.2064169671453,11.240897215114,0.0401075256067429,0.001132,-0.014997,0.012530,0.008636,-0.600661,312.823151,24.028830,0.999595,0.992810,0.003491,0.452657,0.000012,0.000031,0.000006,0.000033,0.000010,73.591560,0.000045,
2236,2413,-0.453517587553211,-5.06851556398114,-0.0259934579734136,-0.000610,-0.016098,0.005951,-0.053093,-0.669383,324.180554,23.384126,0.999653,0.990392,0.003889,0.305933,0.000108,0.000127,0.000010,0.000131,0.000104,66.843840,0.000236,
2116,2938,-3.14772888671074,6.35874985049912,-0.000211729259035565,0.000742,-0.014527,0.006556,0.009961,-0.597526,316.344024,23.797660,0.999381,0.990413,0.003958,0.449087,0.000017,0.000042,0.000017,0.000050,0.000008,63.183112,0.000063,
2296,2518,0.835133920762246,-2.77595857924771,-0.0237392833984131,-0.000211,-0.015377,0.006493,-0.037444,-0.649360,322.422030,23.321956,0.999611,0.990927,0.003897,0.430230,0.000087,0.000046,0.000020,0.000096,0.000037,22.276733,0.000137,
2206,2023,-1.03761456697439,-13.6193029484579,0.038741742260811,-0.002382,-0.019170,0.001486,-0.120608,-0.827746,331.011175,22.697743,0.998904,0.979441,0.005624,0.420441,0.000636,0.000648,0.000021,0.000663,0.000620,53.154558,0.001284,
2176,3208,-1.88798955107277,12.2169717994409,0.0463714943207947,0.001402,-0.014809,0.010258,0.027607,-0.615940,312.104728,24.127476,0.999672,0.994583,0.003173,0.438284,0.000008,0.000031,0.000011,0.000036,0.000004,67.787795,0.000044,
2251,2323,-0.108649606698879,-7.03936520219695,-0.0013439068886214,-0.000475,-0.015661,0.000835,-0.030288,-0.669727,325.834526,23.079748,0.998582,0.981951,0.005439,0.414467,0.000209,0.000180,0.000024,0.000223,0.000166,29.349676,0.000390,
2476,3178,4.6304397181489,11.5933070072173,0.033415806695416,0.001479,-0.015387,0.011900,0.016400,-0.622481,312.312717,25.474722,0.999607,0.991703,0.003631,0.440212,0.000033,0.000039,0.000031,0.000067,0.000005,47.743461,0.000081,
2371,2593,2.45607923263895,-1.13972246985657,-0.00838362989333064,0.000048,-0.016112,0.009040,-0.036311,-0.668334,321.314851,23.333796,0.999298,0.987771,0.004430,0.464829,0.000072,0.000034,0.000036,0.000094,0.000012,30.767888,0.000116,
2176,3133,-1.87555669294952,10.591622279473,0.0407894997690619,0.001232,-0.014883,0.008498,0.025355,-0.597196,313.282186,24.072723,0.999403,0.992394,0.003751,0.456661,0.000010,0.000022,0.000007,0.000025,0.000007,63.829284,0.000034,
2146,3103,-2.52257403132555,9.93925382073282,0.0243078266917109,0.001058,-0.014771,0.010453,0.012099,-0.588678,313.732854,23.875913,0.999822,0.996359,0.002734,0.524114,0.000002,0.000024,0.000011,0.000029,-0.000002,67.204709,0.000032,
2221,2353,-0.769396696812873,-6.38398026242923,-0.00712132942987864,-0.001227,-0.016798,0.009476,-0.092666,-0.667088,325.303483,23.140159,0.999344,0.988139,0.004495,0.513467,0.000169,0.000158,0.000021,0.000185,0.000142,37.341942,0.000328,
2056,2773,-4.42486534344564,2.7699667104085,-0.00708889890728415,0.000184,-0.015088,0.010300,-0.025363,-0.609952,319.240165,23.686672,0.999139,0.987961,0.004346,0.475759,0.000038,0.000015,0.000015,0.000045,0.000007,26.760644,0.000057,
2266,2593,0.169178246880673,-1.14194735111176,-0.0159041361882259,0.000127,-0.015840,0.008816,-0.029192,-0.651911,321.319014,23.458453,0.999115,0.986438,0.004630,0.480457,0.000062,0.000037,0.000023,0.000076,0.000023,30.504933,0.000104,
2341,2503,1.81918063427111,-3.10470313972989,-0.00742054611350795,-0.000522,-0.015673,0.006330,-0.052107,-0.650530,322.762590,23.138165,0.999312,0.986079,0.004493,0.488518,0.000098,0.000067,0.000037,0.000123,0.000043,33.824887,0.000172,
2251,2503,-0.141065506624948,-3.10569584178346,-0.00577473889791236,-0.000289,-0.015675,0.008735,-0.047580,-0.641275,322.869357,23.410906,0.999552,0.988736,0.004180,0.410314,0.000076,0.000056,0.000023,0.000091,0.000041,33.496545,0.000135,
2416,2833,3.38981172344095,4.09318882992869,-0.0111634169967942,0.000799,-0.015872,0.011369,-0.011380,-0.652890,317.447468,24.118560,0.998872,0.986352,0.004523,0.410211,0.000030,0.000027,0.000017,0.000046,0.000011,42.600320,0.000061,
2011,2638,-5.38259691856857,-0.167056275381682,-0.0263949958157355,-0.000098,-0.014813,0.007438,-0.029212,-0.607366,321.535707,23.793050,0.999080,0.986525,0.004513,0.449323,0.000075,-0.000006,0.000017,0.000079,-0.000009,11.169828,0.000086,
2041,2848,-4.76195259872322,4.40061775261881,-0.0183494872779875,0.000794,-0.014604,0.008207,0.009083,-0.608750,318.050192,23.653277,0.999125,0.989861,0.004141,0.462560,0.000021,0.000026,0.000010,0.000034,0.000013,51.189018,0.000048,
2131,3028,-2.83601194400127,8.31176732899571,0.0195276375555409,0.000902,-0.014998,0.012185,0.000079,-0.590442,314.966895,23.828307,0.999462,0.991352,0.003760,0.488687,0.000017,0.000031,0.000018,0.000043,0.000005,55.468943,0.000053,
2101,2863,-3.46132431948859,4.72870126411648,-0.004495793643855,0.001035,-0.015049,0.010401,0.012305,-0.606961,317.601207,23.746225,0.999623,0.992308,0.003602,0.453483,0.000019,0.000035,0.000014,0.000043,0.000011,60.321885,0.000058,
2011,3058,-5.44125128547071,8.95309717279491,0.0392311560968324,0.001019,-0.014649,0.011773,0.010512,-0.593840,315.306096,23.452784,0.999264,0.992326,0.003606,0.460032,0.000018,0.000055,0.000037,0.000078,-0.000005,58.077121,0.000087,
2011,2803,-5.40674356143091,3.42171022546519,-0.0228155943177057,0.000273,-0.014565,0.008004,-0.013653,-0.601391,318.908440,23.650311,0.999484,0.991678,0.003732,0.468479,0.000020,0.000019,0.000018,0.000037,0.000001,44.736382,0.000044,
2056,2983,-4.45578033530691,7.33075439503083,0.0137356962713397,0.001034,-0.015023,0.014057,0.003156,-0.618206,316.029973,23.650204,0.999195,0.988748,0.004028,0.423351,0.000016,0.000012,0.000010,0.000024,0.000004,38.622489,0.000030,
2086,3118,-3.82547642927787,10.2599400882864,0.0341632839612771,0.001020,-0.014641,0.011687,0.008504,-0.585497,313.842019,23.699607,0.999729,0.993835,0.003104,0.469882,0.000005,0.000035,0.000019,0.000043,-0.000004,64.526915,0.000048,
2461,3178,4.30473062624052,11.591641328308,0.0381382625045603,0.001507,-0.015491,0.011964,0.017809,-0.637398,312.320586,25.418552,0.999617,0.991598,0.003676,0.412333,0.000030,0.000040,0.000031,0.000066,0.000004,49.670640,0.000078,
2026,2863,-5.08952609417996,4.72627130321613,-0.0206184264517333,0.000904,-0.014673,0.005469,0.022024,-0.614195,317.892192,23.661530,0.999334,0.991470,0.003973,0.418398,0.000017,0.000020,0.000012,0.000030,0.000006,48.905599,0.000039,
2101,2938,-3.47304065726908,6.35784973308895,0.00228613526104482,0.000743,-0.014375,0.006476,0.010542,-0.594379,316.435949,23.778791,0.999326,0.990124,0.004020,0.437542,0.000015,0.000038,0.000014,0.000045,0.000008,64.572297,0.000057,
2236,2203,-0.414092939501931,-9.6694858730484,0.0164286952205543,-0.001132,-0.016402,0.000598,-0.059790,-0.705858,327.919341,22.803320,0.999421,0.988069,0.004549,0.524735,0.000344,0.000352,0.000036,0.000384,0.000312,48.055348,0.000697,
2026,2683,-5.06450057886844,0.813887664705021,-0.0362683685455636,-0.000216,-0.015173,0.009735,-0.041379,-0.609353,320.617232,23.762031,0.999789,0.995716,0.002989,0.440319,0.000043,-0.000033,0.000011,0.000045,-0.000035,7.694192,0.000047,
2041,2668,-4.73492315267803,0.486115128834093,-0.0204108016014857,0.000126,-0.014526,0.004990,-0.012683,-0.611236,320.930097,23.729436,0.999349,0.988310,0.004319,0.474121,0.000046,-0.000016,0.000006,0.000046,-0.000017,5.585348,0.000047,
2161,3193,-2.21141556081351,11.8900350391891,0.0457700040121267,0.000978,-0.015279,0.014409,-0.004404,-0.622304,312.367495,23.996166,0.999657,0.993550,0.003247,0.481084,0.000008,0.000029,0.000005,0.000030,0.000007,77.973252,0.000040,
2086,2893,-3.79148060288704,5.3788544325139,8.57003016676572E-05,0.000848,-0.015192,0.009065,0.007898,-0.629630,317.222452,23.699879,0.999391,0.993509,0.003659,0.452081,0.000010,0.000045,0.000012,0.000048,0.000007,72.534442,0.000060,
2116,2998,-3.15638737632311,7.66013271646304,0.0129164577800793,0.001189,-0.014748,0.008690,0.024215,-0.592410,315.491018,23.776895,0.999529,0.992472,0.003490,0.486045,0.000016,0.000030,0.000021,0.000045,0.000000,54.091536,0.000053,
2386,2683,2.76469742501364,0.826741867501362,-0.026011563521422,0.000470,-0.015093,0.007121,-0.009961,-0.615258,319.737743,23.690540,0.999350,0.987562,0.004258,0.407031,0.000039,0.000041,0.000021,0.000061,0.000019,46.104460,0.000084,
2446,2998,4.0116089485781,7.68273387502342,0.00969005890408425,0.000957,-0.015604,0.013495,-0.012727,-0.617738,314.971356,24.714971,0.999346,0.987626,0.004230,0.453016,0.000032,0.000014,0.000027,0.000052,-0.000006,35.456249,0.000057,
2071,3013,-4.13406541394215,7.98156397023662,0.0279158343202539,0.001037,-0.014669,0.009179,0.016834,-0.602414,315.590098,23.653115,0.999359,0.991127,0.003737,0.468434,0.000017,0.000032,0.000019,0.000045,0.000004,55.637524,0.000055,
2236,2428,-0.454952907436304,-4.74348241881088,-0.0112922948636083,-0.000406,-0.015834,0.007089,-0.047318,-0.655980,324.067322,23.292892,0.999471,0.989538,0.004105,0.432651,0.000102,0.000105,0.000011,0.000115,0.000093,48.787589,0.000208,
2176,3268,-1.89968792569986,13.5176501824877,0.0276574441940625,0.001615,-0.015302,0.015091,0.022270,-0.628571,310.960005,24.143524,0.999613,0.993805,0.003277,0.453050,0.000014,0.000033,0.000016,0.000042,0.000004,60.455401,0.000051,
2326,2383,1.51491379869576,-5.72634520700414,-0.00346242181024081,-0.000579,-0.016005,0.005260,-0.050873,-0.687704,324.743997,22.988564,0.999545,0.986862,0.004618,0.345229,0.000160,0.000138,0.000017,0.000169,0.000128,28.522557,0.000298,
2176,3223,-1.89012234089148,12.5421551618723,0.0530595706944155,0.001499,-0.014874,0.011819,0.027283,-0.609100,311.914698,24.181167,0.999740,0.994608,0.003105,0.402255,0.000009,0.000038,0.000011,0.000041,0.000005,72.081431,0.000051,
2476,3193,4.62749198253091,11.9188498309853,0.0314654653191724,0.001544,-0.015019,0.009602,0.028302,-0.613043,312.061965,25.507122,0.999508,0.991668,0.003599,0.472597,0.000031,0.000032,0.000034,0.000065,-0.000003,45.369393,0.000074,
2416,2848,3.3869246479668,4.41952969265066,-0.00940792405015145,0.000570,-0.015422,0.009554,-0.015017,-0.633319,317.213715,24.147096,0.999250,0.988029,0.004225,0.448732,0.000027,0.000024,0.000013,0.000038,0.000013,42.072524,0.000053,
2011,2818,-5.40897209013233,3.74665546885391,-0.019168714944783,0.000423,-0.015265,0.013696,-0.022399,-0.609551,318.687324,23.577895,0.999187,0.990556,0.003892,0.520593,0.000017,0.000031,0.000018,0.000043,0.000005,55.856493,0.000053,
2206,2038,-1.04121099646736,-13.2882360337631,0.0278526568555435,-0.002740,-0.018640,0.000681,-0.134304,-0.813633,330.665464,22.755306,0.998833,0.979043,0.005609,0.397826,0.000607,0.000614,0.000021,0.000632,0.000589,49.415347,0.001222,
2041,2863,-4.76386825764368,4.72619813991207,-0.00860486660178594,0.000700,-0.014595,0.009824,0.000278,-0.596507,317.879064,23.676571,0.999173,0.989770,0.004286,0.443229,0.000023,0.000025,0.000011,0.000035,0.000013,47.698006,0.000050,
2311,2308,1.20097610885526,-7.36710511588137,-0.0060917910005287,-0.001037,-0.016427,0.005495,-0.072571,-0.690033,325.920964,22.808413,0.999325,0.986328,0.004894,0.401833,0.000215,0.000189,0.000002,0.000216,0.000189,4.304697,0.000405,
2431,2968,3.68987814862418,7.0300020232118,-0.0105390947357478,0.000755,-0.015653,0.007762,-0.000423,-0.663215,315.279993,24.523372,0.999840,0.994845,0.003170,0.458494,0.000016,0.000004,0.000024,0.000035,-0.000015,37.667253,0.000035,
2506,2023,5.52391351838602,-13.6253403611825,0.0264253850044156,0.002476,-0.019038,-0.002871,0.115874,-0.841462,331.234403,20.698981,0.999047,0.971089,0.006609,0.362202,0.000945,0.000669,-0.000108,0.000982,0.000631,-19.078987,0.001626,
2131,3283,-2.87750381672748,13.8390601791276,0.0241471468204963,0.001513,-0.014575,0.010644,0.032957,-0.599357,310.870483,23.916672,0.999700,0.995063,0.002962,0.466881,0.000003,0.000036,0.000013,0.000040,-0.000001,71.174801,0.000045,
2116,2953,-3.15000495469626,6.68457871707979,0.00176141242036465,0.000910,-0.014572,0.008392,0.012230,-0.594607,316.118437,23.820588,0.999564,0.990881,0.003746,0.432050,0.000018,0.000032,0.000018,0.000045,0.000006,56.095411,0.000055,
2146,3148,-2.52979763765694,10.9149663855413,0.03312845146462,0.001051,-0.014575,0.014071,0.000824,-0.587935,313.060107,23.944124,0.999515,0.992550,0.003580,0.476612,0.000003,0.000024,0.000006,0.000026,0.000001,75.752480,0.000030,
2371,2608,2.4534059551807,-0.811725016665385,-0.0118449636667606,0.000253,-0.015346,0.005720,-0.014791,-0.644180,321.063318,23.393606,0.999150,0.986908,0.004482,0.471084,0.000064,0.000025,0.000036,0.000085,0.000004,30.802829,0.000100,
2281,2458,0.520585437311833,-4.08843996104565,-0.00116770512863695,-0.000344,-0.015953,0.009285,-0.052748,-0.638553,323.584536,23.224740,0.999751,0.990040,0.004088,0.450598,0.000103,0.000089,0.000019,0.000116,0.000076,34.317751,0.000193,
2056,2788,-4.42767121025974,3.09699025314963,-0.0124983666435696,0.000165,-0.015285,0.012239,-0.031779,-0.608784,318.944952,23.717202,0.999194,0.988245,0.004264,0.440920,0.000033,0.000016,0.000014,0.000041,0.000008,29.102554,0.000053,
2041,2683,-4.73758963067466,0.81327718791907,-0.0254580338869914,0.000142,-0.014592,0.006353,-0.015745,-0.606245,320.641829,23.738245,0.999408,0.990955,0.003940,0.463052,0.000039,-0.000026,0.000011,0.000041,-0.000028,9.791135,0.000042,
2026,2698,-5.06674125224268,1.13980295181531,-0.036801796115185,-0.000320,-0.014759,0.007078,-0.038823,-0.614285,320.372707,23.708940,0.999813,0.995361,0.003037,0.479099,0.000049,-0.000030,0.000016,0.000052,-0.000033,11.017947,0.000053,
2086,3133,-3.82733799057823,10.5850145187156,0.0370023264352426,0.001305,-0.014471,0.010109,0.026254,-0.590775,313.638564,23.710368,0.999700,0.993627,0.003085,0.451905,0.000004,0.000031,0.000012,0.000036,-0.000001,69.065189,0.000041,
2011,2653,-5.38478044504737,0.159778700374801,-0.0326013614737235,0.000170,-0.014346,0.004917,-0.009934,-0.601218,321.260435,23.750784,0.998904,0.986040,0.004658,0.486559,0.000065,-0.000001,0.000012,0.000067,-0.000003,10.055823,0.000076,
2296,2533,0.83202207438087,-2.44932227033706,-0.0312633726774152,-0.000166,-0.015218,0.004845,-0.029751,-0.651814,322.124316,23.222347,0.999710,0.993144,0.003518,0.558554,0.000083,0.000044,0.000018,0.000090,0.000037,21.602814,0.000131,
2296,2458,0.847236312909612,-4.08740870045018,-0.00974665802766594,0.000005,-0.015953,0.007399,-0.030767,-0.672315,323.518001,23.212879,0.999369,0.986975,0.004582,0.391262,0.000111,0.000083,0.000019,0.000121,0.000073,26.883201,0.000196,
2341,2518,1.81698436439569,-2.77654735374664,-0.00551774041377939,-0.000029,-0.015582,0.006565,-0.030276,-0.653363,322.556699,23.257163,0.999070,0.982997,0.004797,0.404273,0.000092,0.000056,0.000038,0.000116,0.000033,32.324264,0.000156,
2236,2218,-0.417265484280033,-9.3391461219726,0.00831923072445306,-0.001083,-0.016635,0.001028,-0.059027,-0.718912,327.610216,22.926468,0.999009,0.983024,0.005103,0.412556,0.000327,0.000324,0.000037,0.000363,0.000289,43.905329,0.000653,
2206,2278,-1.08154346381786,-8.02544062466384,0.00983775363584982,-0.000914,-0.016608,0.004010,-0.060533,-0.716466,326.725378,23.198276,0.998958,0.982464,0.005193,0.364482,0.000248,0.000226,0.000041,0.000279,0.000195,37.351333,0.000477,
2476,3208,4.62460313147095,12.2438965176912,0.0361880392109697,0.001250,-0.015015,0.008943,0.017227,-0.622711,311.844407,25.555634,0.999389,0.991112,0.003733,0.469638,0.000031,0.000029,0.000032,0.000062,-0.000002,44.057558,0.000070,
2176,3283,-1.9027415890815,13.8430683223306,0.0228397709059891,0.001280,-0.015031,0.012275,0.015708,-0.616489,310.667002,24.165471,0.999679,0.994685,0.003080,0.453769,0.000015,0.000043,0.000023,0.000056,0.000002,60.624179,0.000066,
2011,2833,-5.41033065273951,4.0732994465544,-0.00792527412534128,0.000398,-0.014780,0.009239,-0.011328,-0.612052,318.548181,23.716748,0.999670,0.994031,0.003484,0.366936,0.000010,0.000026,0.000013,0.000033,0.000003,61.182057,0.000040,
2131,3058,-2.84022743882079,8.96233568717368,0.026949730860963,0.001023,-0.014974,0.009841,0.012557,-0.622157,314.552280,23.883223,0.999300,0.992310,0.003751,0.411432,0.000017,0.000023,0.000011,0.000031,0.000009,53.851798,0.000042,
2221,2143,-0.731101036745095,-10.9835418652395,0.0197365024411624,-0.001458,-0.017133,0.001461,-0.077674,-0.730012,328.928072,22.870041,0.998895,0.981218,0.005358,0.422271,0.000434,0.000481,0.000053,0.000516,0.000399,56.748642,0.000917,
2401,2773,3.07477779815364,2.78552299902218,-0.0114831534810946,0.000414,-0.015607,0.009384,-0.021269,-0.645953,318.396559,23.859132,0.999401,0.987954,0.004310,0.477249,0.000025,0.000050,0.000015,0.000057,0.000018,64.394996,0.000079,
2161,3178,-2.20883646121047,11.5655686723966,0.0459367364863397,0.001063,-0.015214,0.015392,-0.003445,-0.605856,312.614802,24.032416,0.999562,0.991233,0.003654,0.452348,0.000011,0.000034,0.000007,0.000036,0.000009,74.407978,0.000048,
2071,2818,-4.10602721371508,3.74938130418806,-0.00955101509873657,0.000559,-0.014865,0.009297,-0.005539,-0.598271,318.425738,23.687117,0.999337,0.990483,0.004108,0.486652,0.000024,0.000031,0.000011,0.000039,0.000015,53.773030,0.000056,
2116,3013,-3.15849215329842,7.98520619422417,0.0184749168229814,0.001172,-0.014634,0.008521,0.023883,-0.605828,315.292902,23.785714,0.999065,0.989132,0.004087,0.466300,0.000019,0.000033,0.000023,0.000050,0.000002,53.301750,0.000059,
2266,2608,0.166372908052903,-0.814324871017327,-0.0188557458504306,0.000120,-0.015877,0.007445,-0.025041,-0.673046,321.055054,23.532542,0.999236,0.986853,0.004529,0.411407,0.000056,0.000034,0.000032,0.000079,0.000011,35.405230,0.000098,
2281,2668,0.48302726462396,0.495276974202454,-0.017673626121848,0.000800,-0.015171,0.003985,0.017771,-0.633116,320.110906,23.725002,0.999680,0.990834,0.003941,0.356923,0.000042,0.000045,0.000022,0.000066,0.000021,46.836281,0.000091,
2011,3073,-5.4437897114665,9.27838166232334,0.0353873912031872,0.001071,-0.014858,0.012848,0.009904,-0.599725,315.029035,23.423507,0.999253,0.992965,0.003616,0.470687,0.000015,0.000062,0.000043,0.000088,-0.000011,59.331461,0.000095,
2176,3238,-1.89294345761535,12.8670842883319,0.0505327468115411,0.001557,-0.014698,0.013745,0.024069,-0.591594,311.644697,24.151594,0.999734,0.994323,0.003141,0.460334,0.000010,0.000033,0.000010,0.000037,0.000006,69.311611,0.000046,
2101,2878,-3.46404638519301,5.05431880248452,-0.0073637926601009,0.000871,-0.015053,0.009748,0.006617,-0.623586,317.328010,23.713241,0.999604,0.992238,0.003700,0.470864,0.000020,0.000050,0.000015,0.000057,0.000013,67.454088,0.000074,
2356,2563,2.13483668965795,-1.79352761552342,-0.0115583482972852,-0.000224,-0.015380,0.004344,-0.031612,-0.651463,321.774977,23.336012,0.999393,0.988909,0.004324,0.418052,0.000075,0.000043,0.000036,0.000098,0.000020,32.884408,0.000126,
2236,2443,-0.457210800508985,-4.41548030959582,-0.00202914939529819,-0.000559,-0.015960,0.009046,-0.060709,-0.656347,323.888200,23.439210,0.999632,0.991198,0.004003,0.308149,0.000094,0.000104,0.000015,0.000115,0.000084,54.256672,0.000200,
2086,2908,-3.79399535296346,5.70499198108187,-0.000245371452081145,0.000745,-0.015144,0.008947,0.003461,-0.635184,316.971198,23.730157,0.999363,0.992027,0.003804,0.414634,0.000011,0.000040,0.000010,0.000043,0.000009,72.892378,0.000055,
2431,2983,3.68801666880423,7.35491998370042,0.00625332641294563,0.000823,-0.015610,0.011712,-0.011806,-0.635673,315.164246,24.553178,0.999645,0.991075,0.003743,0.505637,0.000018,0.000006,0.000024,0.000036,-0.000013,38.364729,0.000037,
2251,2338,-0.111899838797463,-6.71166638623107,0.00177785085543292,-0.000980,-0.016256,0.005428,-0.068684,-0.697004,325.580223,23.133856,0.998810,0.983603,0.005252,0.358542,0.000192,0.000180,0.000021,0.000208,0.000165,36.678951,0.000373,
2461,3193,4.30182588989394,11.9167688744206,0.0387428613057068,0.001462,-0.015270,0.010655,0.020873,-0.612848,312.082565,25.412030,0.999573,0.990918,0.003732,0.496915,0.000027,0.000033,0.000033,0.000063,-0.000003,47.394842,0.000071,
2146,3163,-2.53108229926774,11.2396225273539,0.0438729534039908,0.001517,-0.014701,0.013133,0.025170,-0.587738,312.929199,23.967044,0.999603,0.991708,0.003613,0.460731,0.000004,0.000035,0.000005,0.000036,0.000003,81.005654,0.000043,
2206,2053,-1.04473190923976,-12.9569945208853,0.0165881269164743,-0.002978,-0.018465,0.000059,-0.143200,-0.814525,330.321281,22.846592,0.998572,0.975197,0.005996,0.326338,0.000579,0.000606,0.000031,0.000626,0.000559,56.798577,0.001185,
2161,3208,-2.2133174074034,12.2153778668025,0.0484302553562657,0.001270,-0.014881,0.011716,0.017477,-0.611345,312.165911,24.033484,0.999616,0.993905,0.003186,0.463492,0.000008,0.000030,0.000005,0.000031,0.000007,78.520538,0.000040,
2506,2038,5.52098398836972,-13.2972745076318,0.0348233470222681,0.002313,-0.019374,0.001343,0.092072,-0.848307,331.039107,20.724875,0.998844,0.968924,0.006812,0.393865,0.000913,0.000695,-0.000118,0.000964,0.000643,-23.645046,0.001618,
2026,2713,-5.06865009931991,1.46611895432181,-0.0321992773380089,-0.000184,-0.014927,0.007928,-0.034928,-0.612717,320.171907,23.732271,0.999707,0.993618,0.003493,0.447661,0.000046,-0.000020,0.000016,0.000049,-0.000024,12.759581,0.000049,
2416,2863,3.38427098194778,4.7458087129635,-0.00570602395845299,0.000615,-0.015597,0.010141,-0.015139,-0.632293,316.999798,24.206966,0.999442,0.988789,0.004068,0.437252,0.000026,0.000019,0.000011,0.000034,0.000011,36.877713,0.000047,
2026,2878,-5.09159812216637,5.05134301446445,-0.0142184235504033,0.000834,-0.014985,0.007036,0.014376,-0.625732,317.694684,23.640708,0.998964,0.987787,0.004454,0.417397,0.000019,0.000028,0.000012,0.000036,0.000010,55.501930,0.000049,
2311,2323,1.19888554413008,-7.03940115320314,-0.00166031155117707,-0.000711,-0.016527,0.005465,-0.057571,-0.701467,325.730709,22.856294,0.999103,0.983303,0.005165,0.376431,0.000198,0.000163,0.000006,0.000199,0.000162,8.940670,0.000362,
2176,3298,-1.90586965459725,14.1683166427345,0.0140386702092314,0.001273,-0.015039,0.011391,0.018084,-0.623383,310.349666,24.173618,0.999785,0.996225,0.002656,0.449451,0.000017,0.000053,0.000027,0.000068,0.000002,61.739660,0.000080,
2266,2368,0.209358290715187,-6.05493162387988,-0.00299827932241215,-0.000737,-0.016102,0.008829,-0.068930,-0.661580,325.029894,23.119834,0.998984,0.982853,0.005218,0.407719,0.000153,0.000159,0.000006,0.000163,0.000149,57.011369,0.000312,
2131,3073,-2.84250460185241,9.28768061379634,0.0291530480349138,0.001176,-0.014748,0.011149,0.015784,-0.611340,314.329084,23.885282,0.999651,0.994055,0.003378,0.424817,0.000013,0.000028,0.000009,0.000032,0.000009,65.805417,0.000044,
2251,2518,-0.144039875784422,-2.77817887253334,-0.00775700021046077,-0.000532,-0.015432,0.007928,-0.055976,-0.615289,322.601360,23.406309,0.999361,0.986320,0.004528,0.465460,0.000074,0.000053,0.000027,0.000092,0.000035,34.155673,0.000131,
2371,2623,2.44995588204702,-0.484454506885612,-0.0159553886921913,0.000092,-0.015530,0.007020,-0.026861,-0.641566,320.773159,23.408018,0.999185,0.987296,0.004419,0.501102,0.000053,0.000022,0.000033,0.000074,0.000001,32.346868,0.000086,
2161,2038,-2.02435034226897,-13.2852055693336,0.0179899213276258,-0.003094,-0.018840,0.002097,-0.154637,-0.819302,330.699649,23.127352,0.998863,0.983213,0.005223,0.317977,0.000631,0.000587,0.000057,0.000670,0.000547,34.443133,0.001220,
2041,2878,-4.7664903358201,5.05271284320421,-0.0147091821627328,0.000690,-0.014695,0.008534,0.003408,-0.603093,317.587336,23.691209,0.998807,0.986579,0.004682,0.414235,0.000025,0.000038,0.000012,0.000045,0.000018,59.159627,0.000065,
2206,2293,-1.08350162357358,-7.69633697796601,0.0043821264187045,-0.000431,-0.015498,-0.003020,-0.015765,-0.693022,326.482273,23.227474,0.999159,0.984686,0.004878,0.377573,0.000233,0.000215,0.000043,0.000267,0.000180,39.200202,0.000450,
2326,2398,1.51328848615698,-5.4004723924746,0.00756505512680405,-0.000447,-0.015657,0.002907,-0.036562,-0.682759,324.608365,22.939300,0.999529,0.987115,0.004622,0.435096,0.000155,0.000140,0.000023,0.000172,0.000123,35.758121,0.000297,
2506,2053,5.51690175191949,-12.967009674626,0.0343200596466318,0.002069,-0.020439,0.009028,0.050896,-0.863043,330.751253,20.864312,0.999039,0.980802,0.005674,0.304568,0.000880,0.000689,-0.000125,0.000942,0.000627,-26.366533,0.001579,
2056,2998,-4.4580211293061,7.65639015645932,0.015668173420238,0.000883,-0.014856,0.011592,0.003253,-0.600281,315.801785,23.649884,0.999168,0.989241,0.004069,0.435498,0.000008,0.000023,0.000012,0.000030,0.000002,60.841664,0.000036,
2026,2728,-5.07007806337989,1.790906847015,-0.0153651861539288,-0.000034,-0.015157,0.013280,-0.042750,-0.597881,320.061840,23.704305,0.999577,0.991740,0.003719,0.480626,0.000028,-0.000019,0.000017,0.000034,-0.000025,17.652063,0.000035,
2221,2368,-0.770846107982024,-6.05497494945151,-0.00112387446375806,-0.000706,-0.015959,0.006641,-0.059367,-0.632443,325.143537,23.289155,0.999528,0.988927,0.004368,0.419494,0.000151,0.000148,0.000017,0.000166,0.000132,42.332557,0.000299,
2011,2848,-5.41278074589728,4.39763348466794,-0.00801907795113266,0.000361,-0.015279,0.011752,-0.019951,-0.616307,318.296166,23.563552,0.999740,0.994762,0.003338,0.503776,0.000014,0.000026,0.000011,0.000032,0.000007,58.681060,0.000042,
2131,3298,-2.87960484044312,14.1632955323082,0.0277407319430836,0.001792,-0.014844,0.012172,0.041146,-0.615330,310.663295,23.905919,0.999635,0.993517,0.003275,0.465889,0.000009,0.000048,0.000016,0.000054,0.000003,69.705047,0.000064,
2011,2668,-5.38657629757365,0.48534951083122,-0.0238726063163313,0.000233,-0.014719,0.007302,-0.013564,-0.596216,321.087112,23.723320,0.998880,0.987274,0.004465,0.507214,0.000053,-0.000016,0.000012,0.000055,-0.000018,9.278361,0.000056,
2476,3223,4.62174854864986,12.5698277978568,0.036729510477187,0.001501,-0.015098,0.010214,0.023956,-0.614681,311.609008,25.647282,0.999359,0.991305,0.003728,0.441405,0.000033,0.000019,0.000029,0.000056,-0.000004,38.502579,0.000062,
2266,2623,0.163869438819059,-0.48770590811236,-0.0162679379810697,0.000225,-0.016043,0.009049,-0.025545,-0.660975,320.832861,23.533769,0.999335,0.988154,0.004340,0.448505,0.000051,0.000041,0.000033,0.000079,0.000013,40.561043,0.000099,
2011,3088,-5.44569499021433,9.60329698088164,0.040658582608728,0.001100,-0.014959,0.011946,0.013687,-0.609782,314.832474,23.426777,0.999507,0.994735,0.003170,0.444359,0.000008,0.000055,0.000035,0.000074,-0.000010,62.268781,0.000080,
2116,3208,-3.18836479802956,12.2114708846921,0.0534029011485018,0.001338,-0.014733,0.011133,0.023878,-0.591513,312.401570,23.816451,0.999653,0.993636,0.003277,0.480555,-0.000003,0.000036,0.000001,0.000036,-0.000003,89.014351,0.000040,
2506,2068,5.51528631707012,-12.6382993246953,0.0494379850953806,0.002010,-0.019393,0.005676,0.061556,-0.819100,330.645617,20.981886,0.999359,0.982715,0.005284,0.294564,0.000842,0.000676,-0.000132,0.000915,0.000604,-28.944054,0.001529,
2221,2158,-0.733549049629335,-10.6533679357618,0.0109821424931056,-0.001152,-0.016131,-0.004709,-0.043583,-0.722474,328.647310,22.926513,0.998790,0.983310,0.005349,0.395007,0.000409,0.000448,0.000051,0.000483,0.000374,55.601992,0.000860,
2401,2788,3.0714476470605,3.11337628305233,-0.016516191342248,0.000472,-0.015698,0.010137,-0.021389,-0.640083,318.109268,23.970475,0.999488,0.987582,0.004375,0.417344,0.000023,0.000046,0.000011,0.000050,0.000018,67.686844,0.000071,
2386,2698,2.76228490512783,1.15218548869551,-0.0196999162881752,0.000399,-0.015409,0.006454,-0.011001,-0.640198,319.546181,23.675622,0.999458,0.989727,0.003935,0.440532,0.000039,0.000048,0.000022,0.000066,0.000021,50.774975,0.000090,
2056,2803,-4.42984597758731,3.42313782279632,-0.0130322992429228,0.000534,-0.015635,0.015119,-0.022986,-0.611092,318.705819,23.713347,0.999230,0.989609,0.004131,0.437054,0.000036,0.000020,0.000015,0.000045,0.000011,31.158945,0.000059,
2071,3028,-4.13686014194574,8.30718446585822,0.0257373971818424,0.000998,-0.014928,0.012894,0.004347,-0.604166,315.315030,23.651025,0.999462,0.992739,0.003500,0.464776,0.000016,0.000035,0.000018,0.000047,0.000005,58.705117,0.000057,
2461,3208,4.29875804116179,12.2424046235115,0.0381673297243879,0.001397,-0.015164,0.009877,0.020837,-0.619277,311.831364,25.480289,0.999523,0.988948,0.004025,0.475142,0.000028,0.000027,0.000032,0.000060,-0.000004,44.700386,0.000067,
2296,2548,0.830253014894907,-2.12149254268371,-0.0175013609369898,-0.000122,-0.014968,0.006102,-0.031883,-0.622052,321.993160,23.394580,0.999384,0.988559,0.004300,0.446638,0.000076,0.000043,0.000019,0.000084,0.000035,24.590276,0.000122,
2086,3148,-3.8293807368634,10.9095016162648,0.0487419363641379,0.001216,-0.014644,0.014334,0.009916,-0.575357,313.475609,23.704048,0.999772,0.995346,0.002856,0.471335,0.000002,0.000031,0.000010,0.000034,-0.000001,73.130939,0.000039,
2146,1993,-2.3444007738606,-14.2742809104929,0.0284911554603582,-0.003896,-0.019244,0.001156,-0.188559,-0.829582,331.529834,23.134802,0.998953,0.981630,0.005306,0.364527,0.000740,0.000629,0.000067,0.000772,0.000597,25.164002,0.001373,
2206,2068,-1.04578324859138,-12.6289278321563,0.0245746367273227,-0.002144,-0.017837,-0.001198,-0.100803,-0.783730,330.189132,22.837092,0.998941,0.978559,0.005667,0.386044,0.000554,0.000587,0.000037,0.000611,0.000531,56.970125,0.001143,
2071,2833,-4.10830188147115,4.07576673659532,-0.00365517932800685,0.000335,-0.014838,0.010150,-0.018341,-0.601432,318.218361,23.763428,0.999428,0.991118,0.003805,0.403696,0.000021,0.000025,0.000008,0.000031,0.000015,51.541644,0.000047,
2116,3028,-3.16096656558114,8.31080431748147,0.0194406076864766,0.001235,-0.014815,0.010667,0.020433,-0.597711,315.052895,23.794211,0.999355,0.991147,0.003761,0.468664,0.000018,0.000031,0.000021,0.000047,0.000003,53.719770,0.000055,
2176,3253,-1.89611330302096,13.1919551197091,0.0456472923721662,0.001591,-0.015281,0.018065,0.012081,-0.594296,311.346277,24.127747,0.999721,0.994522,0.003141,0.492276,0.000012,0.000031,0.000015,0.000039,0.000003,60.981199,0.000047,
2026,2743,-5.07227570741088,2.11731946813546,-0.0162219846689027,-0.000003,-0.014990,0.011676,-0.036883,-0.599927,319.817401,23.703535,0.999364,0.989739,0.004109,0.469759,0.000024,-0.000002,0.000018,0.000034,-0.000011,26.832217,0.000034,
2011,2863,-5.41439058439624,4.72445109206851,-0.0123384941894074,0.001092,-0.014978,0.008661,0.022243,-0.605435,318.058045,23.596189,0.999398,0.991113,0.004024,0.469625,0.000020,0.000017,0.000011,0.000029,0.000007,41.090141,0.000038,
2131,3088,-2.84415732533964,9.61228841188749,0.0339616908219682,0.001475,-0.014817,0.007719,0.039871,-0.616484,314.148786,23.855546,0.999849,0.995249,0.003108,0.454374,0.000007,0.000025,0.000009,0.000028,0.000004,68.108693,0.000035,
2251,2353,-0.113741156604615,-6.38509681165501,0.0108030777024055,-0.000674,-0.016651,0.007646,-0.062049,-0.691825,325.420280,23.114417,0.998992,0.984703,0.005069,0.407998,0.000177,0.000167,0.000017,0.000189,0.000154,36.947056,0.000344,
2161,2053,-2.02610248414179,-12.956874498464,0.0246944298872336,-0.002920,-0.018238,0.001151,-0.143633,-0.785186,330.525615,23.118714,0.999075,0.983166,0.005098,0.373796,0.000597,0.000582,0.000064,0.000655,0.000525,41.586472,0.001182,
2041,2893,-4.76832034318013,5.37753851231984,-0.00278598249326478,0.000530,-0.014659,0.009791,-0.007445,-0.590225,317.432539,23.667335,0.999181,0.991380,0.003849,0.442806,0.000018,0.000039,0.000010,0.000043,0.000014,67.075206,0.000059,
2431,2998,3.68564306799366,7.6814806923616,0.0114936906028902,0.001089,-0.015645,0.012791,-0.003544,-0.624740,314.970672,24.674372,0.999291,0.984631,0.004600,0.444467,0.000018,0.000014,0.000021,0.000037,-0.000005,42.065244,0.000041,
2011,3103,-5.44802694690575,9.92848764522406,0.0436846095115015,0.000909,-0.014887,0.012220,0.004188,-0.591954,314.603615,23.416795,0.999510,0.994663,0.003134,0.459125,0.000004,0.000060,0.000040,0.000081,-0.000017,62.420938,0.000085,
2296,2713,0.799408714842745,1.47586874795029,-0.0292536911968568,0.000228,-0.015413,0.009355,-0.026945,-0.629817,319.220880,23.682518,0.999725,0.992566,0.003643,0.487420,0.000036,0.000045,0.000014,0.000055,0.000026,54.027449,0.000083,
2146,3178,-2.53356400440651,11.5642930476183,0.0487138244840821,0.001331,-0.014761,0.014499,0.012393,-0.587330,312.711895,23.958535,0.999515,0.990722,0.003676,0.476264,0.000004,0.000037,0.000006,0.000038,0.000003,80.637139,0.000045,
2281,2683,0.480356577027376,0.820695724776584,-0.0146102606959175,0.000939,-0.015626,0.008491,0.008960,-0.631540,319.884684,23.648462,0.999657,0.991206,0.003812,0.463039,0.000042,0.000048,0.000017,0.000063,0.000027,49.854538,0.000092,
2041,2698,-4.73975698628317,1.13962527054205,-0.0232472615226698,0.000233,-0.014870,0.007974,-0.016137,-0.600659,320.416896,23.736343,0.999339,0.991054,0.003866,0.463352,0.000044,-0.000020,0.000017,0.000048,-0.000024,14.072495,0.000048,
2026,2893,-5.09400876782583,5.37655556283724,-0.0023151808911166,0.000312,-0.015144,0.012176,-0.023869,-0.616180,317.512352,23.655221,0.999276,0.992158,0.003666,0.401906,0.000012,0.000032,0.000011,0.000037,0.000007,65.983873,0.000047,
2446,3013,4.00883863961639,8.00913295498555,0.00448082073694422,0.001039,-0.015058,0.006521,0.017287,-0.621999,314.712156,24.770042,0.999150,0.985651,0.004340,0.445288,0.000032,0.000026,0.000022,0.000051,0.000007,40.882301,0.000064,
2176,2113,-1.70874829631735,-11.6401354331605,0.0109496457747582,-0.002152,-0.017496,-0.001226,-0.100947,-0.783208,329.439735,23.067968,0.999143,0.979169,0.005581,0.392225,0.000492,0.000521,0.000074,0.000582,0.000432,50.674709,0.001017,
2236,2233,-0.420518699015179,-9.00986076202104,0.00107046792641086,-0.001068,-0.016619,0.003115,-0.065086,-0.705358,327.301764,22.942121,0.999057,0.983737,0.004913,0.434225,0.000302,0.000299,0.000035,0.000336,0.000265,43.968685,0.000603,
2506,2083,5.51197810535906,-12.3083672185985,0.0343433976715914,0.002316,-0.017443,-0.003485,0.111607,-0.740071,330.327705,20.845909,0.999411,0.984355,0.004929,0.574694,0.000802,0.000668,-0.000133,0.000884,0.000586,-31.689119,0.001480,
2101,3133,-3.50197319024489,10.5864065211873,0.0384571790243626,0.001418,-0.014571,0.009955,0.031432,-0.601355,313.580439,23.813024,0.999795,0.995261,0.002883,0.400723,0.000002,0.000028,0.000010,0.000032,-0.000001,71.745185,0.000036,
2341,2533,1.81402357238628,-2.44888369500963,-0.00941810938689969,-0.000038,-0.015294,0.004510,-0.023420,-0.643474,322.287616,23.271119,0.999204,0.983965,0.004776,0.437898,0.000087,0.000052,0.000033,0.000106,0.000032,30.979138,0.000145,
2056,3013,-4.46039039766703,7.98224004929651,0.0100881255771128,0.000960,-0.014335,0.007398,0.018798,-0.593412,315.526174,23.633733,0.998818,0.986205,0.004761,0.452452,0.000013,0.000031,0.000018,0.000043,0.000002,57.980320,0.000051,
2191,1993,-1.36096386570832,-14.2760761027283,0.0285253623268318,-0.002769,-0.019349,-0.000881,-0.130891,-0.853685,331.438419,22.791981,0.999354,0.983714,0.005191,0.365854,0.000713,0.000634,0.000039,0.000729,0.000619,22.267695,0.001349,
2086,2923,-3.79658480961089,6.0308481769793,0.000733313696855475,0.000673,-0.015292,0.011809,-0.008102,-0.622164,316.723724,23.729721,0.999256,0.990592,0.003954,0.426794,0.000010,0.000037,0.000010,0.000041,0.000007,71.711593,0.000051,
2116,3223,-3.19083526778429,12.535901442349,0.0525365962037085,0.001447,-0.015042,0.011754,0.026937,-0.611572,312.152387,23.782614,0.999688,0.994318,0.003161,0.496450,-0.000004,0.000039,-0.000002,0.000039,-0.000004,-87.482501,0.000043,
2356,2578,2.13248046376179,-1.46702159538346,-0.0067154908166458,0.000035,-0.015674,0.006299,-0.026711,-0.652917,321.577147,23.347234,0.999239,0.987521,0.004458,0.445025,0.000072,0.000046,0.000038,0.000099,0.000019,35.806300,0.000127,
2161,3223,-2.21547465006762,12.540316201884,0.0519629752816968,0.001424,-0.014815,0.011622,0.024880,-0.608668,311.957361,24.050226,0.999678,0.994088,0.003136,0.458082,0.000008,0.000035,0.000004,0.000036,0.000007,82.177007,0.000046,
2026,2998,-5.1084434103231,7.65430781384947,0.0181557228963811,0.000703,-0.014727,0.010996,-0.002457,-0.600806,315.997179,23.569074,0.999280,0.992002,0.003664,0.430783,0.000008,0.000012,0.000014,0.000024,-0.000004,49.411143,0.000025,
2221,2173,-0.736266901142464,-10.3255715155986,0.0133178723598917,-0.001481,-0.016126,-0.004905,-0.058063,-0.734140,328.411288,22.909493,0.998830,0.983108,0.005251,0.422173,0.000389,0.000408,0.000049,0.000448,0.000349,50.655724,0.000799,
2011,3163,-5.45672921420698,11.2286994091888,0.0476734620366983,0.001046,-0.014453,0.009510,0.017969,-0.590849,313.671747,23.382114,0.999455,0.993389,0.003500,0.442295,-0.000011,0.000063,0.000009,0.000064,-0.000012,83.232283,0.000068,
2071,2848,-4.11137153261085,4.40271899830131,-0.0124872890565939,0.000242,-0.014793,0.011125,-0.025363,-0.598384,317.893643,23.779175,0.999646,0.993153,0.003416,0.387605,0.000021,0.000027,0.000009,0.000033,0.000014,54.183815,0.000048,
2161,2068,-2.02849789822819,-12.6279381089699,0.0269280483295802,-0.002880,-0.017996,0.003261,-0.148167,-0.762568,330.298735,23.131762,0.999352,0.984347,0.004976,0.396831,0.000568,0.000569,0.000068,0.000636,0.000501,45.227697,0.001140,
2401,2803,3.06850238968052,3.43957108712844,-0.0164103874980697,0.000349,-0.015529,0.009030,-0.022916,-0.625232,317.864221,23.965011,0.999542,0.989631,0.004166,0.483166,0.000021,0.000039,0.000015,0.000047,0.000013,60.947427,0.000063,
2026,2908,-5.09524975298561,5.70172643620202,0.00753960972576806,0.000703,-0.014850,0.010980,-0.002394,-0.598233,317.372206,23.645216,0.999322,0.991852,0.003675,0.419517,0.000017,0.000030,0.000005,0.000032,0.000016,71.162139,0.000048,
2146,3193,-2.5360513527205,11.889351833585,0.0472652395848172,0.001355,-0.015036,0.012809,0.018491,-0.616151,312.460723,23.981160,0.999630,0.992640,0.003316,0.431257,0.000001,0.000032,0.000003,0.000033,0.000001,85.141670,0.000038,
2431,3013,3.68291297880461,8.00768726792695,0.0100595375988064,0.001156,-0.015465,0.009175,0.012961,-0.628711,314.729673,24.736466,0.999319,0.985852,0.004395,0.427397,0.000019,0.000025,0.000015,0.000038,0.000006,51.030714,0.000047,
2236,2458,-0.459716154113231,-4.0886384815139,-0.000648359376157259,-0.000690,-0.015722,0.007065,-0.060250,-0.647350,323.657847,23.400407,0.999489,0.989360,0.004282,0.378514,0.000089,0.000087,0.000018,0.000106,0.000070,43.895759,0.000177,
2041,2713,-4.74234911813659,1.46629278118055,-0.0271755427945095,0.000198,-0.015155,0.008340,-0.018865,-0.623408,320.138472,23.746502,0.999163,0.989364,0.004202,0.423402,0.000043,-0.000012,0.000016,0.000047,-0.000016,14.887172,0.000048,
2221,2383,-0.773519373742939,-5.7281223658211,-0.00308692824359014,-0.000745,-0.015930,0.005484,-0.057486,-0.673587,324.887527,23.244562,0.999437,0.988209,0.004393,0.443492,0.000135,0.000141,0.000020,0.000157,0.000118,49.151141,0.000276,
2101,2953,-3.47563459217271,6.68378623123763,0.00102080086969636,0.000892,-0.014510,0.010150,0.006681,-0.578654,316.177161,23.775789,0.999441,0.990983,0.003797,0.457013,0.000015,0.000028,0.000016,0.000039,0.000004,55.755796,0.000047,
2206,2083,-1.04907054746737,-12.2997525407514,0.0182974419178663,-0.002316,-0.018217,0.000878,-0.115375,-0.796840,329.881544,22.819962,0.999013,0.977839,0.005710,0.410350,0.000532,0.000573,0.000042,0.000599,0.000506,58.042180,0.001106,
2296,2728,0.797169369202887,1.80221241241468,-0.0211753822277387,0.000143,-0.015370,0.009535,-0.031418,-0.618505,319.040001,23.735463,0.999575,0.990912,0.003850,0.475800,0.000033,0.000048,0.000015,0.000057,0.000023,57.754289,0.000083,
2011,3118,-5.45024666529432,10.2542365255208,0.0375200976741326,0.001343,-0.014613,0.011941,0.025030,-0.593981,314.327987,23.424312,0.999636,0.995306,0.002947,0.436577,0.000006,0.000068,0.000038,0.000087,-0.000012,64.592004,0.000094,
2146,2008,-2.34589319450213,-13.9461704879929,0.0338306224062421,-0.003460,-0.018488,-0.000598,-0.163013,-0.806877,331.359475,23.085771,0.998537,0.981696,0.005511,0.447369,0.000700,0.000627,0.000069,0.000741,0.000585,31.081370,0.001329,
2461,3223,4.29566955168205,12.5683806837511,0.0344292818010103,0.001648,-0.015048,0.010011,0.031961,-0.611401,311.564492,25.551434,0.999556,0.991252,0.003701,0.465060,0.000030,0.000020,0.000030,0.000055,-0.000005,39.867993,0.000061,
2476,3238,4.61786474868835,12.8957748460032,0.0222448231734234,0.001724,-0.015320,0.008505,0.040621,-0.631195,311.257566,25.683730,0.999703,0.993652,0.003239,0.443670,0.000032,0.000025,0.000031,0.000059,-0.000002,41.327933,0.000067,
2341,2548,1.81112759026524,-2.12150267434128,-0.00885518779767835,-0.000205,-0.015009,0.004007,-0.029184,-0.623978,322.043103,23.294550,0.999018,0.981505,0.005109,0.471645,0.000079,0.000045,0.000030,0.000096,0.000028,30.167561,0.000130,
2281,2473,0.517319873163942,-3.76113715652168,-0.00225423505304434,-0.000667,-0.016097,0.011524,-0.075132,-0.641334,323.310453,23.222674,0.999479,0.988561,0.004335,0.479100,0.000099,0.000077,0.000022,0.000113,0.000063,31.698360,0.000178,
2266,2638,0.161372957440459,-0.160431198968674,-0.0175483102788121,0.000354,-0.015576,0.007000,-0.012670,-0.648923,320.591375,23.566741,0.999244,0.987409,0.004352,0.453767,0.000044,0.000037,0.000028,0.000069,0.000012,41.280053,0.000088,
2056,2818,-4.43195517639469,3.7492706953259,-0.01172741620735,0.000583,-0.015197,0.013569,-0.016186,-0.586567,318.479791,23.699886,0.999193,0.989067,0.004199,0.469586,0.000032,0.000032,0.000016,0.000048,0.000016,44.723593,0.000067,
2206,2308,-1.08606540756187,-7.36878885357601,0.00599359911728925,-0.000620,-0.015240,-0.003885,-0.021590,-0.683832,326.248159,23.205344,0.999023,0.984549,0.004841,0.427700,0.000214,0.000192,0.000039,0.000243,0.000163,37.162101,0.000409,
2191,2008,-1.36377289271207,-13.9470234962369,0.0229175809753315,-0.002733,-0.019376,-0.001387,-0.127667,-0.854288,331.154699,22.728559,0.999142,0.982523,0.005387,0.447105,0.000671,0.000635,0.000043,0.000699,0.000607,33.732259,0.001307,
2056,3028,-4.4626221637351,8.30726242250371,0.0124557293150929,0.001131,-0.014531,0.010414,0.018083,-0.602794,315.301091,23.615243,0.999342,0.991125,0.003867,0.455415,0.000013,0.000036,0.000018,0.000046,0.000003,61.692057,0.000055,
2416,2878,3.3814263749267,5.07272690565192,-0.0102253063159878,0.000914,-0.015210,0.008062,0.006384,-0.615918,316.738336,24.253756,0.999468,0.990365,0.003833,0.454406,0.000023,0.000019,0.000017,0.000039,0.000004,42.120074,0.000047,
2011,2878,-5.41704781677792,5.05092592149735,-0.0124541228386761,0.000670,-0.014458,0.007993,0.004757,-0.592095,317.795707,23.630806,0.999167,0.990189,0.004061,0.436114,0.000020,0.000021,0.000009,0.000029,0.000011,46.406660,0.000042,
2326,2413,1.50997058026911,-5.07266225827611,-0.00508393066479584,-0.000227,-0.015590,0.000337,-0.017617,-0.694951,324.279403,22.863123,0.999506,0.987059,0.004639,0.535491,0.000145,0.000143,0.000026,0.000171,0.000118,44.379798,0.000290,
2026,3013,-5.11051425839393,7.98082151299398,0.0138701268560908,0.000986,-0.014311,0.007363,0.020745,-0.589093,315.739700,23.616887,0.999481,0.992992,0.003567,0.384170,0.000016,0.000026,0.000028,0.000049,-0.000007,50.434131,0.000053,
2071,2863,-4.11328308730618,4.7272149584318,-0.0046920629312126,0.000251,-0.015029,0.011818,-0.027020,-0.602806,317.713962,23.705310,0.999403,0.990945,0.003892,0.453455,0.000023,0.000030,0.000009,0.000036,0.000016,55.437852,0.000054,
2371,2638,2.44734269438183,-0.15657889644887,-0.0182558661200005,0.000440,-0.015513,0.005855,-0.006750,-0.643808,320.529902,23.503241,0.999232,0.987344,0.004391,0.445246,0.000047,0.000024,0.000028,0.000066,0.000005,33.924178,0.000079,
2011,3178,-5.45868491576698,11.5531014477491,0.0513235625476227,0.001208,-0.014605,0.009844,0.024488,-0.603100,313.464149,23.351025,0.999712,0.995228,0.002843,0.448132,-0.000013,0.000065,0.000010,0.000066,-0.000014,83.047279,0.000070,
2071,3043,-4.13980741701791,8.63327288162119,0.0239804783716977,0.000660,-0.014964,0.014631,-0.016148,-0.587899,315.035092,23.681187,0.999479,0.992671,0.003497,0.446657,0.000016,0.000033,0.000013,0.000040,0.000009,62.342798,0.000052,
2011,3133,-5.45249663872265,10.5795465540138,0.0349093551739657,0.001529,-0.014601,0.011475,0.034876,-0.590117,314.071166,23.412215,0.999659,0.994344,0.003090,0.439474,0.000003,0.000063,0.000027,0.000073,-0.000008,68.874799,0.000081,
2116,3238,-3.19374874742924,12.8614085831306,0.0451619736185762,0.001521,-0.015006,0.012126,0.029225,-0.614240,311.847320,23.797779,0.999671,0.994534,0.003025,0.480680,-0.000005,0.000031,-0.000002,0.000031,-0.000005,-86.954123,0.000033,
2251,2368,-0.117827222056544,-6.05482665316825,-0.00390006552174782,-0.001010,-0.016432,0.008315,-0.079540,-0.680354,325.037040,23.200923,0.999423,0.987650,0.004697,0.358400,0.000157,0.000156,0.000013,0.000169,0.000143,44.113122,0.000313,
2476,3253,4.61418336899031,13.2211870177813,0.0198407453567597,0.001526,-0.015363,0.011413,0.020445,-0.627499,310.970596,25.723911,0.999694,0.993050,0.003297,0.462370,0.000035,0.000041,0.000035,0.000073,0.000003,47.439634,0.000086,
2311,2338,1.19653771815992,-6.71157512547786,-0.000860711012876436,-0.000271,-0.016498,0.006801,-0.041893,-0.680131,325.510650,22.851356,0.999152,0.983133,0.004968,0.436823,0.000185,0.000158,0.000007,0.000187,0.000156,13.364594,0.000343,
2176,2128,-1.71153546414249,-11.3106345142534,0.011008768599595,-0.002300,-0.017546,0.001088,-0.114918,-0.773747,329.184766,23.144443,0.998944,0.979955,0.005530,0.340479,0.000468,0.000496,0.000074,0.000558,0.000406,50.267453,0.000968,
2506,2098,5.5074399360725,-11.9744855289678,0.0240215758488489,0.002042,-0.017150,-0.000835,0.089061,-0.739512,329.974695,21.209206,0.999491,0.985750,0.004902,0.276663,0.000761,0.000652,-0.000137,0.000855,0.000559,-34.174712,0.001424,
2116,3043,-3.16316304982479,8.63686608014479,0.0289799290753763,0.000964,-0.015099,0.011839,0.004298,-0.618617,314.871686,23.934457,0.999568,0.992979,0.003483,0.309814,0.000017,0.000029,0.000015,0.000039,0.000007,55.336333,0.000049,
2431,3028,3.68005054007971,8.33334478149859,0.0144026234211196,0.000939,-0.015553,0.009483,0.001818,-0.634802,314.509554,24.792810,0.999399,0.987044,0.004319,0.414049,0.000016,0.000037,0.000017,0.000046,0.000007,60.822561,0.000058,
2446,3028,4.00656417091661,8.33505831122479,0.0110063922440418,0.001174,-0.015033,0.005843,0.026020,-0.628936,314.530053,24.866883,0.999368,0.987805,0.004168,0.392751,0.000029,0.000039,0.000023,0.000057,0.000011,50.724969,0.000073,
2206,2098,-1.05173682273521,-11.970324798105,0.0200171581106474,-0.002389,-0.017964,0.003387,-0.126553,-0.761169,329.643133,22.870965,0.999025,0.981089,0.005435,0.415042,0.000511,0.000557,0.000049,0.000589,0.000479,57.679303,0.001070,
2461,3238,4.29287403300949,12.8938640175953,0.0349734022848338,0.001822,-0.015321,0.009923,0.040090,-0.635492,311.330866,25.637548,0.999765,0.993755,0.003224,0.407549,0.000032,0.000022,0.000030,0.000057,-0.000004,40.174588,0.000064,
2146,2023,-2.34897531676039,-13.6151033705916,0.0282028645497689,-0.003376,-0.018747,0.004971,-0.176080,-0.775060,331.058204,23.178073,0.997994,0.981015,0.005643,0.398926,0.000660,0.000604,0.000061,0.000699,0.000565,32.750584,0.001266,
2191,2188,-1.3940109477529,-9.99562453672042,0.0136645770294876,-0.001944,-0.016630,0.002728,-0.103522,-0.716593,328.206234,23.172349,0.998525,0.976650,0.005865,0.352933,0.000361,0.000373,0.000055,0.000423,0.000312,48.038238,0.000737,
2146,3208,-2.53831080194389,12.2145532102794,0.0498926114340748,0.001435,-0.014483,0.012580,0.023112,-0.583078,312.241634,23.982866,0.999647,0.993544,0.003202,0.469152,0.000001,0.000033,0.000002,0.000034,0.000001,86.713506,0.000039,
2041,2908,-4.77013127216507,5.70297940599747,0.000837988593218597,0.000769,-0.014535,0.008951,0.005954,-0.587325,317.232380,23.652752,0.999452,0.991476,0.003680,0.452395,0.000024,0.000033,0.000007,0.000037,0.000020,60.808229,0.000059,
2086,2938,-3.79784441356614,6.35624279690528,0.00808439823106255,0.001090,-0.014571,0.007718,0.023201,-0.597800,316.572113,23.724412,0.999316,0.990787,0.003890,0.454873,0.000009,0.000035,0.000010,0.000039,0.000006,71.043532,0.000049,
2086,3163,-3.83253214404825,11.235514418495,0.0354178990369292,0.001098,-0.014627,0.010550,0.015345,-0.596668,313.124385,23.726619,0.999811,0.995451,0.002870,0.425460,-0.000002,0.000045,0.000006,0.000046,-0.000002,82.949592,0.000052,
2296,2563,0.82809499207271,-1.79484378932044,-0.00759789899331054,-0.000203,-0.015298,0.007146,-0.039212,-0.625064,321.825395,23.460196,0.999038,0.986862,0.004829,0.408566,0.000066,0.000048,0.000022,0.000081,0.000034,33.216417,0.000117,
2161,3238,-2.21850751597018,12.8659711573988,0.0451671918710304,0.001402,-0.014685,0.011619,0.023894,-0.606705,311.653652,24.078695,0.999718,0.994155,0.003112,0.440335,0.000009,0.000028,0.000003,0.000029,0.000008,80.670904,0.000039,
2251,2533,-0.147348648783886,-2.44946113487063,-0.0174137432969701,-0.000414,-0.015481,0.009031,-0.054217,-0.614654,322.279030,23.473522,0.999627,0.991579,0.003735,0.423599,0.000070,0.000048,0.000023,0.000085,0.000033,32.421712,0.000122,
2221,2188,-0.738821536309484,-9.99623753791327,0.0113494525845681,-0.001121,-0.016283,-0.002060,-0.050687,-0.726729,328.160386,22.973319,0.998543,0.981391,0.005525,0.387360,0.000363,0.000381,0.000042,0.000414,0.000329,51.218709,0.000745,
2161,2083,-2.03061111277101,-12.2975042233642,0.0237640214840553,-0.002702,-0.017247,-0.002348,-0.122634,-0.763769,330.056339,23.250605,0.999275,0.983327,0.005157,0.290170,0.000541,0.000559,0.000070,0.000620,0.000479,48.651514,0.001103,
2071,2878,-4.1158444517385,5.05326086389699,-0.00937303521948252,0.000192,-0.014995,0.009292,-0.022518,-0.611644,317.435621,23.689962,0.999228,0.989150,0.004283,0.456508,0.000023,0.000044,0.000010,0.000048,0.000020,68.775653,0.000070,
2011,3148,-5.45479873862809,10.9038585373529,0.0386108493741517,0.001266,-0.014437,0.010624,0.025126,-0.583115,313.847918,23.347759,0.999647,0.993576,0.003339,0.497731,-0.000005,0.000047,0.000017,0.000052,-0.000010,73.357173,0.000055,
2026,2923,-5.09764931406004,6.02728693661342,0.00675741265928309,0.000685,-0.014812,0.011573,-0.004848,-0.594477,317.119469,23.612363,0.999415,0.992221,0.003610,0.445986,0.000014,0.000023,0.000004,0.000024,0.000012,67.332122,0.000037,
2131,3103,-2.84705379963167,9.93754658131643,0.0394605242405532,0.001019,-0.014853,0.012406,0.004841,-0.593449,313.914831,23.865407,0.999812,0.995546,0.002987,0.471730,0.000005,0.000027,0.000013,0.000033,-0.000001,65.790947,0.000037,
2056,3043,-4.46526712130499,8.63230430661261,0.0194327771437202,0.000818,-0.015141,0.016831,-0.014522,-0.584359,315.082502,23.604893,0.999628,0.994082,0.003321,0.477573,0.000011,0.000035,0.000011,0.000039,0.000007,67.837088,0.000050,
2386,2713,2.76012591466216,1.47792718503008,-0.0137559809716663,0.000580,-0.015664,0.005379,0.001020,-0.671334,319.364424,23.694892,0.999628,0.991186,0.003647,0.433206,0.000033,0.000051,0.000020,0.000064,0.000020,57.027879,0.000088,
2041,2728,-4.74418102340507,1.79216550284449,-0.0193179307761397,0.000300,-0.014917,0.010254,-0.019413,-0.602068,319.960352,23.739497,0.999365,0.990360,0.003816,0.444131,0.000031,-0.000015,0.000016,0.000036,-0.000020,17.097915,0.000036,
2266,2383,0.206704668669776,-5.7269180136147,-0.0100601708769545,-0.000479,-0.015982,0.005136,-0.044865,-0.674717,324.752773,23.105164,0.998295,0.979030,0.005698,0.436411,0.000142,0.000149,0.000010,0.000156,0.000134,54.825335,0.000291,
2116,3253,-3.19662557551839,13.1872477438394,0.0439608752990921,0.001279,-0.014834,0.013178,0.015036,-0.597588,311.577094,23.863561,0.999710,0.995927,0.002727,0.433345,-0.000003,0.000023,-0.000001,0.000023,-0.000003,-87.485086,0.000026,
2506,2113,5.50410147868994,-11.6467823887315,0.0246280543970556,0.001806,-0.017148,-0.000330,0.076376,-0.753571,329.725643,21.148871,0.999540,0.985917,0.004909,0.387196,0.000721,0.000622,-0.000142,0.000822,0.000522,-35.406100,0.001355,
2356,2593,2.12956861469965,-1.13904729236852,-0.0111402788377291,0.000318,-0.015793,0.006417,-0.014188,-0.658363,321.308868,23.420896,0.999176,0.987636,0.004462,0.405549,0.000072,0.000032,0.000038,0.000095,0.000009,31.115528,0.000115,
2011,2893,-5.41926018150957,5.37615803904314,-0.00674593538877843,0.000496,-0.014620,0.009793,-0.008234,-0.596535,317.586965,23.615537,0.999248,0.992131,0.003655,0.434343,0.000013,0.000023,0.000006,0.000026,0.000010,65.698672,0.000037,
2056,2833,-4.43397808071719,4.075426248004,-0.0112003278518955,0.000630,-0.014838,0.009765,-0.003222,-0.598279,318.253512,23.722887,0.998994,0.986418,0.004529,0.429142,0.000029,0.000027,0.000012,0.000040,0.000016,42.178272,0.000058,
2401,2818,3.06643267515443,3.76582691961492,-0.0117805759816747,0.000800,-0.015649,0.008613,-0.000667,-0.623661,317.680724,24.017168,0.999450,0.988962,0.004339,0.477889,0.000021,0.000032,0.000014,0.000042,0.000011,54.890783,0.000056,
2101,2968,-3.47794784811371,7.00841075921396,0.0137713113124391,0.000372,-0.015045,0.012951,-0.025701,-0.601906,316.007679,23.792240,0.999570,0.990971,0.003672,0.417520,0.000019,0.000023,0.000015,0.000037,0.000005,48.276960,0.000046,
2101,3148,-3.50414463245335,10.9100895511534,0.0472932728447404,0.001441,-0.014751,0.014798,0.018263,-0.589536,313.396775,23.718861,0.999866,0.996400,0.002712,0.507118,-0.000001,0.000029,0.000008,0.000032,-0.000003,75.683875,0.000035,
2236,2473,-0.462178519286329,-3.76251433173052,0.00188271233366777,-0.000754,-0.015410,0.006642,-0.061691,-0.629471,323.435416,23.302324,0.999472,0.990420,0.004132,0.516690,0.000086,0.000075,0.000023,0.000104,0.000057,37.985244,0.000163,
2161,3253,-2.22191641205425,13.1911234196541,0.0331695483635599,0.001402,-0.014916,0.012358,0.021617,-0.607719,311.305304,24.039488,0.999678,0.994066,0.003177,0.487142,0.000010,0.000024,0.000008,0.000027,0.000006,65.839464,0.000035,
2011,3193,-5.46063949808399,11.8780580136297,0.0491379221739976,0.001672,-0.014625,0.009361,0.047219,-0.604623,313.223532,23.329387,0.999714,0.995354,0.002758,0.454935,-0.000015,0.000072,0.000005,0.000072,-0.000016,86.792364,0.000076,
2071,3058,-4.14160552794861,8.95793475395436,0.02349156843934,0.001147,-0.015010,0.012456,0.012469,-0.608302,314.815397,23.628995,0.999243,0.992030,0.003590,0.474625,0.000015,0.000033,0.000014,0.000040,0.000008,61.633951,0.000051,
2041,2743,-4.7466597024638,2.11819494505948,-0.0205556636008737,0.000216,-0.015089,0.010592,-0.024301,-0.609055,319.702229,23.706142,0.999456,0.990923,0.003839,0.462871,0.000029,-0.000001,0.000016,0.000036,-0.000008,23.571965,0.000038,
2221,2398,-0.775988296828203,-5.39953464365936,0.00191774102916042,-0.000856,-0.016033,0.007128,-0.067837,-0.650715,324.675906,23.366746,0.999629,0.991040,0.003885,0.364575,0.000123,0.000133,0.000019,0.000147,0.000109,52.137758,0.000257,
2071,2893,-4.11813502819934,5.37959674085022,-0.00779302948637906,0.000265,-0.014903,0.010745,-0.023239,-0.593925,317.203880,23.725196,0.999397,0.991764,0.003839,0.435460,0.000015,0.000042,0.000008,0.000045,0.000013,74.829284,0.000061,
2266,2653,0.158698052232008,0.167978073016187,-0.0233824256253001,0.000586,-0.015147,0.004185,0.007448,-0.643610,320.318533,23.677191,0.999490,0.989611,0.004112,0.374869,0.000043,0.000035,0.000024,0.000063,0.000015,40.303038,0.000083,
2191,2023,-1.3661903889906,-13.6169132314416,0.027312441588208,-0.002702,-0.018995,0.002142,-0.137161,-0.815486,330.940231,22.841386,0.998896,0.982661,0.005314,0.391180,0.000636,0.000623,0.000044,0.000674,0.000585,40.776845,0.001259,
2026,3028,-5.11221768424332,8.30463536677643,0.0247286351061007,0.001158,-0.014637,0.010939,0.018788,-0.586848,315.584772,23.531010,0.999441,0.991680,0.003828,0.461660,0.000021,0.000038,0.000029,0.000060,-0.000001,53.098430,0.000068,
2161,2098,-2.03291032909933,-11.9693153552534,0.0243490080425204,-0.002454,-0.017217,-0.000184,-0.117849,-0.749465,329.825349,23.196393,0.999550,0.984012,0.005029,0.371872,0.000516,0.000540,0.000075,0.000604,0.000453,49.600750,0.001060,
2281,2488,0.513946513226504,-3.43433759884355,-0.0093077653251612,-0.000818,-0.016120,0.011686,-0.082650,-0.658666,323.001812,23.139436,0.999653,0.990525,0.004072,0.574104,0.000092,0.000073,0.000019,0.000104,0.000062,31.812625,0.000167,
2326,2428,1.505862948765,-4.74218633623182,-0.0156713291395363,-0.000329,-0.016143,0.005709,-0.040995,-0.671050,323.923583,23.021325,0.999553,0.989534,0.004270,0.437463,0.000139,0.000128,0.000024,0.000158,0.000110,38.694718,0.000269,
2296,2578,0.825626577393354,-1.46764378473728,-0.0114506856574508,0.000055,-0.015225,0.003221,-0.014080,-0.636093,321.575163,23.467546,0.999287,0.988769,0.004314,0.421034,0.000070,0.000051,0.000027,0.000089,0.000032,35.444912,0.000125,
2011,2908,-5.42081388624672,5.70139569293964,0.0011165343491939,0.000726,-0.014689,0.009416,0.003421,-0.592023,317.420524,23.610710,0.999179,0.991849,0.003698,0.431109,0.000014,0.000022,-0.000003,0.000022,0.000014,-71.988817,0.000036,
2416,2893,3.37881024309266,5.39882802784587,-0.00737172810977427,0.001042,-0.015427,0.008366,0.011040,-0.627493,316.522106,24.311838,0.999520,0.990249,0.003867,0.432121,0.000024,0.000010,0.000022,0.000040,-0.000006,36.293337,0.000043,
2506,2128,5.50035371057607,-11.3178525616611,0.0221136682727092,0.001650,-0.017769,0.002632,0.057544,-0.735487,329.443611,21.139959,0.999605,0.983957,0.005094,0.478601,0.000684,0.000603,-0.000137,0.000787,0.000501,-36.815812,0.001298,
2011,3208,-5.46276148878549,12.2030189480923,0.0523060703921487,0.001811,-0.014574,0.011532,0.047801,-0.590062,313.005420,23.327295,0.999550,0.993527,0.003251,0.458245,-0.000016,0.000073,0.000002,0.000073,-0.000016,88.730832,0.000076,
2131,3118,-2.85000941469059,10.2631117669043,0.0359254147628008,0.000859,-0.014932,0.013456,-0.005776,-0.607648,313.629713,23.887640,0.999734,0.995350,0.003067,0.439800,0.000005,0.000023,0.000010,0.000028,0.000000,66.671517,0.000032,
2341,2563,1.8082998882931,-1.79386207874032,-0.0106483010293346,-0.000010,-0.015480,0.004901,-0.023550,-0.643705,321.790324,23.364872,0.999051,0.984725,0.004777,0.419206,0.000071,0.000045,0.000032,0.000092,0.000024,33.600644,0.000123,
2116,3268,-3.19904088935432,13.512175291703,0.0401214717031166,0.001473,-0.014707,0.011194,0.029900,-0.600898,311.314194,23.854487,0.999736,0.995506,0.002854,0.441301,-0.000001,0.000022,0.000000,0.000022,-0.000001,-89.719981,0.000025,
2041,2923,-4.77222217038031,6.02771914513265,0.00216186948540553,0.000871,-0.014778,0.008150,0.012807,-0.604173,317.006921,23.580785,0.999427,0.991825,0.003659,0.499382,0.000021,0.000029,0.000008,0.000034,0.000016,57.748644,0.000051,
2026,3238,-5.14225717298664,12.8530097046983,0.0669464300729032,0.001347,-0.014682,0.012702,0.022641,-0.593350,312.515706,23.378232,0.999543,0.994439,0.003129,0.455056,-0.000029,0.000038,-0.000016,0.000042,-0.000032,-77.526000,0.000044,
2026,2938,-5.10025247962977,6.35306173752882,0.00784997870118787,0.000501,-0.014957,0.014618,-0.021716,-0.587459,316.867819,23.613521,0.999220,0.990626,0.003950,0.441521,0.000014,0.000019,0.000006,0.000023,0.000010,55.117362,0.000034,
2431,3043,3.6772288094218,8.65935768930559,0.0134055670260977,0.001355,-0.015471,0.011768,0.012556,-0.617651,314.266261,24.827032,0.999446,0.988526,0.004155,0.446242,0.000012,0.000044,0.000020,0.000054,0.000003,63.921302,0.000063,
2251,2383,-0.119979015718666,-5.72941139176591,-0.00300972802091337,-0.000711,-0.016769,0.006746,-0.060855,-0.705299,324.822111,23.036757,0.999095,0.985638,0.004870,0.522419,0.000143,0.000145,0.000017,0.000161,0.000127,47.107989,0.000289,
2296,2743,0.795682884138309,2.12837331392234,-0.016365004552199,0.000798,-0.015109,0.006286,0.009751,-0.619242,318.877542,23.760843,0.999415,0.989868,0.004027,0.479610,0.000033,0.000040,0.000016,0.000053,0.000020,51.104953,0.000075,
2371,2653,2.44398013900897,0.170979759138866,-0.022868223933699,0.000345,-0.015388,0.006363,-0.012870,-0.637466,320.241153,23.546517,0.999296,0.987048,0.004501,0.450038,0.000042,0.000026,0.000024,0.000059,0.000009,35.359163,0.000074,
2236,2248,-0.422684626714371,-8.6819557525497,0.0082128347889352,-0.001014,-0.016396,0.004860,-0.068177,-0.685066,327.116298,22.978735,0.998709,0.981573,0.005420,0.441106,0.000284,0.000267,0.000036,0.000313,0.000238,38.161989,0.000552,
2086,3178,-3.83397429222106,11.5585737788596,0.0477827945886133,0.001306,-0.014873,0.010574,0.024819,-0.607351,312.993023,23.624617,0.999746,0.995295,0.002859,0.514796,-0.000002,0.000047,0.000008,0.000048,-0.000003,81.276077,0.000054,
2206,2323,-1.08913901504561,-7.04105963774244,0.0081884976811466,-0.000902,-0.015691,0.001757,-0.052530,-0.688499,325.993723,23.224335,0.999087,0.984887,0.004659,0.422606,0.000199,0.000171,0.000034,0.000222,0.000149,33.645486,0.000373,
2206,2113,-1.05385070433813,-11.6414688459408,0.0200288756620353,-0.002031,-0.017498,0.002483,-0.107162,-0.749719,329.421382,22.880476,0.998729,0.982028,0.005281,0.436470,0.000489,0.000538,0.000052,0.000571,0.000456,57.456390,0.001029,
2176,2143,-1.71393026753199,-10.9824925730636,0.0188585495980078,-0.002453,-0.017464,0.005444,-0.135381,-0.730610,328.988361,23.152419,0.998611,0.979939,0.005596,0.390671,0.000436,0.000461,0.000077,0.000527,0.000370,49.781354,0.000901,
2041,2758,-4.74819957764141,2.44309037949772,-0.0156195055464536,0.000667,-0.015250,0.010494,-0.003274,-0.610028,319.521699,23.615995,0.999284,0.990125,0.004187,0.544478,0.000027,0.000002,0.000012,0.000031,-0.000003,21.434469,0.000035,
2086,2953,-3.8005112969075,6.68215686318848,0.00601045130588318,0.001033,-0.014699,0.008906,0.017097,-0.593398,316.304469,23.724248,0.999303,0.991955,0.003748,0.457860,0.000011,0.000023,0.000013,0.000032,0.000002,57.939953,0.000038,
2056,3058,-4.46736670921495,8.95804480700786,0.0176272760388088,0.000946,-0.014833,0.012740,0.003044,-0.580547,314.840192,23.619283,0.999499,0.992938,0.003487,0.460937,0.000009,0.000036,0.000011,0.000040,0.000005,70.118192,0.000049,
2506,2143,5.49689279785361,-10.9879953814474,0.024215882517808,0.001283,-0.017769,0.004263,0.034521,-0.763746,329.195354,21.317495,0.999139,0.974568,0.006058,0.336606,0.000651,0.000602,-0.000140,0.000768,0.000485,-39.975315,0.001264,
2041,3073,-4.79375389498776,9.2807806212085,0.0322595573428544,0.001048,-0.014450,0.011066,0.012945,-0.585998,314.816494,23.521355,0.999484,0.992022,0.003695,0.493521,0.000010,0.000049,0.000021,0.000058,0.000001,66.979057,0.000068,
2056,2848,-4.43624735349681,4.40133143730738,-0.0128364956333371,0.000668,-0.014559,0.007629,0.004607,-0.599008,318.004087,23.700113,0.999258,0.990055,0.004004,0.445574,0.000029,0.000027,0.000011,0.000039,0.000017,42.645144,0.000057,
2146,3223,-2.5406447581889,12.5390839995448,0.053794381089574,0.001437,-0.014609,0.013556,0.020229,-0.585560,312.026179,23.968925,0.999638,0.993683,0.003143,0.487147,0.000001,0.000039,0.000000,0.000039,0.000001,-89.973840,0.000045,
2281,2698,0.477700569698971,1.14717435261282,-0.00767308206445705,0.000650,-0.015701,0.010718,-0.011831,-0.632751,319.678182,23.707803,0.999788,0.993083,0.003555,0.430524,0.000037,0.000044,0.000013,0.000054,0.000027,52.511784,0.000083,
2386,2728,2.75713707856184,1.80470292162607,-0.0118391672385201,0.000636,-0.015941,0.009190,-0.010124,-0.648594,319.124991,23.726785,0.999587,0.990720,0.003843,0.467766,0.000027,0.000055,0.000021,0.000066,0.000015,61.514886,0.000087,
2116,3058,-3.16562090363071,8.96063009734832,0.0261273159047164,0.001074,-0.014803,0.010688,0.012884,-0.614444,314.612539,23.760545,0.999545,0.992925,0.003577,0.490606,0.000018,0.000024,0.000013,0.000034,0.000008,52.280235,0.000044,
2071,2908,-4.12026468796904,5.7049921425693,-0.00604202360551653,0.000418,-0.014880,0.011081,-0.017209,-0.607929,316.980836,23.710864,0.999518,0.991935,0.003672,0.432103,0.000017,0.000037,0.000005,0.000038,0.000016,76.884591,0.000055,
2311,2353,1.19372848379478,-6.38308381766125,-0.000168477314957727,-0.000387,-0.016382,0.006672,-0.046734,-0.685752,325.268878,22.938180,0.999340,0.984989,0.004668,0.378509,0.000176,0.000148,0.000009,0.000178,0.000146,15.953682,0.000325,
2461,3253,4.28897361912196,13.2193811303457,0.0293630040134758,0.001620,-0.015334,0.012564,0.020892,-0.622828,311.017934,25.659508,0.999734,0.993688,0.003191,0.451247,0.000036,0.000033,0.000032,0.000067,0.000002,43.765854,0.000078,
2071,3073,-4.14409723807921,9.28308175555181,0.0246757156623403,0.000834,-0.014988,0.010179,0.004550,-0.608393,314.572885,23.616126,0.999334,0.991349,0.003725,0.483140,0.000012,0.000039,0.000013,0.000044,0.000007,68.676623,0.000055,
2221,2413,-0.77807291013923,-5.07191228780247,0.000531299185297485,-0.000425,-0.015636,0.004761,-0.040361,-0.646835,324.449429,23.363066,0.999662,0.990761,0.003911,0.392633,0.000113,0.000123,0.000013,0.000131,0.000104,55.403684,0.000236,
2026,3253,-5.14534723180827,13.1787436655993,0.0530993387504282,0.001354,-0.014385,0.011295,0.026879,-0.591993,312.158555,23.375296,0.999832,0.995998,0.002684,0.448123,-0.000022,0.000029,-0.000024,0.000038,-0.000032,-68.779350,0.000041,
2296,2593,0.824156258021052,-1.14195972795101,0.00051898260244343,0.000415,-0.015020,0.003073,0.003001,-0.631011,321.449314,23.462073,0.999591,0.991252,0.003748,0.462117,0.000068,0.000039,0.000025,0.000082,0.000025,30.108024,0.000112,
2011,3223,-5.46584785319629,12.5285623929055,0.0490853613405307,0.001313,-0.014674,0.012779,0.021394,-0.586879,312.706864,23.357044,0.999321,0.992209,0.003638,0.418237,-0.000017,0.000067,-0.000006,0.000068,-0.000017,-85.863638,0.000070,
2101,2983,-3.48015116428506,7.33365622891422,0.0143492987648983,0.000590,-0.015169,0.013385,-0.016973,-0.604275,315.777076,23.763971,0.999587,0.992567,0.003459,0.443988,0.000016,0.000024,0.000017,0.000038,0.000002,51.390970,0.000045,
2101,3163,-3.50708002730945,11.2357312222809,0.0400637575502856,0.001262,-0.014760,0.012305,0.017289,-0.602804,313.090172,23.736256,0.999769,0.995064,0.002961,0.476251,-0.000005,0.000043,0.000006,0.000044,-0.000006,83.294669,0.000047,
2221,2203,-0.741601895645164,-9.6672517988217,0.00647371968943844,-0.001089,-0.015766,-0.003498,-0.044456,-0.703002,327.884249,22.964262,0.998924,0.983035,0.005194,0.441739,0.000342,0.000353,0.000040,0.000388,0.000307,49.151584,0.000697,
2476,3268,4.61086753225062,13.5472413378132,0.015671204828891,0.001671,-0.015378,0.012253,0.023924,-0.626398,310.692123,25.820260,0.999828,0.995045,0.002916,0.422192,0.000038,0.000024,0.000043,0.000075,-0.000013,40.140885,0.000080,
2146,2038,-2.35130767928794,-13.2847406023737,0.0189201920822484,-0.003026,-0.018047,-0.000301,-0.143925,-0.787520,330.772204,23.215538,0.998737,0.982180,0.005394,0.360577,0.000630,0.000573,0.000059,0.000667,0.000536,32.184690,0.001205,
2116,3283,-3.20168360100175,13.8367566063606,0.0364962561433799,0.001599,-0.014677,0.011867,0.033733,-0.597968,311.042138,23.812707,0.999737,0.995344,0.002961,0.487907,-0.000002,0.000029,0.000007,0.000031,-0.000003,77.325510,0.000034,
2191,2203,-1.3961436668715,-9.6661149935068,0.00348479260401291,-0.001307,-0.015592,-0.003717,-0.053827,-0.698299,327.929304,23.160224,0.998501,0.978236,0.005805,0.400532,0.000341,0.000354,0.000055,0.000403,0.000292,48.378980,0.000698,
2161,2113,-2.03559746797656,-11.6399852644505,0.0200804346794712,-0.002381,-0.017216,0.000147,-0.115519,-0.758471,329.551117,23.222008,0.999371,0.982001,0.005241,0.350538,0.000493,0.000522,0.000076,0.000585,0.000430,50.538784,0.001019,
2446,3043,4.00380182771849,8.66012438909344,0.0174491258715648,0.001233,-0.015446,0.010156,0.012484,-0.628259,314.325275,24.879622,0.999250,0.987190,0.004252,0.432013,0.000024,0.000045,0.000027,0.000064,0.000006,55.809296,0.000077,
2251,2548,-0.149470397406898,-2.12351223937218,-0.0139208497039363,-0.000167,-0.015787,0.008673,-0.041815,-0.636820,322.078226,23.432429,0.999687,0.993437,0.003498,0.466492,0.000068,0.000045,0.000023,0.000082,0.000031,31.578745,0.000116,
2266,2398,0.204209296146793,-5.398452135184,-0.00994267680954408,-0.000490,-0.015584,0.002644,-0.037026,-0.654365,324.518637,23.173155,0.998945,0.984699,0.004981,0.416048,0.000132,0.000146,0.000015,0.000155,0.000123,58.236304,0.000279,
2401,2833,3.06307783622247,4.09285667166954,-0.0145792724574676,0.000758,-0.015682,0.010706,-0.010289,-0.639553,317.402862,24.105775,0.999299,0.988152,0.004331,0.418709,0.000023,0.000028,0.000016,0.000042,0.000009,49.045156,0.000055,
2371,2668,2.44101570892234,0.49760043191651,-0.0195391796472677,0.000053,-0.015456,0.007197,-0.029246,-0.635161,320.008808,23.579037,0.999391,0.988759,0.004345,0.461465,0.000039,0.000032,0.000020,0.000056,0.000015,40.222240,0.000075,
2326,2443,1.50375254477902,-4.41511064356055,-0.00817290257515424,-0.000249,-0.015662,0.005436,-0.036220,-0.655318,323.748135,23.051860,0.999368,0.987976,0.004505,0.458432,0.000134,0.000119,0.000028,0.000156,0.000098,37.540305,0.000256,
2356,2608,2.12689185282269,-0.811932109791023,-0.0113314998482679,0.000262,-0.015179,0.003430,-0.005972,-0.637215,321.071800,23.430915,0.999215,0.987104,0.004473,0.456394,0.000065,0.000023,0.000039,0.000088,-0.000001,30.610330,0.000102,
2461,3268,4.28417887530441,13.5458641652662,0.00846599876672371,0.001553,-0.015313,0.012377,0.018508,-0.624258,310.593089,25.705033,0.999720,0.994021,0.003104,0.457314,0.000042,0.000017,0.000040,0.000071,-0.000012,36.384314,0.000076,
2026,3268,-5.14850728834998,13.5038304176702,0.0412448363341014,0.001316,-0.014442,0.012273,0.022441,-0.590404,311.809611,23.329166,0.999845,0.996625,0.002547,0.484567,-0.000018,0.000023,-0.000021,0.000031,-0.000027,-67.249805,0.000034,
2026,3043,-5.11460546997636,8.62918509958932,0.0270116749100566,0.000913,-0.014589,0.010335,0.009162,-0.585091,315.350286,23.459585,0.999400,0.991594,0.003891,0.524225,0.000018,0.000042,0.000025,0.000057,0.000002,57.789978,0.000067,
2281,2503,0.511735077171956,-3.10422510248199,-0.0126416098126469,-0.000369,-0.015830,0.007560,-0.048119,-0.650808,322.764152,23.373980,0.999670,0.991498,0.003934,0.376444,0.000084,0.000059,0.000019,0.000094,0.000049,28.066842,0.000146,
2506,2158,5.49381381918039,-10.6586555157524,0.0221063584988883,0.001091,-0.017030,-0.000629,0.044906,-0.758461,328.945651,21.374178,0.999230,0.976476,0.005725,0.349270,0.000620,0.000549,-0.000159,0.000747,0.000422,-38.638991,0.001184,
2041,2938,-4.77546260542221,6.35319786492691,0.00331335238661268,0.000316,-0.015254,0.015203,-0.032555,-0.598466,316.727547,23.557221,0.999148,0.990652,0.003955,0.520493,0.000020,0.000025,0.000009,0.000032,0.000013,52.691381,0.000046,
2026,2953,-5.10148119899926,6.67835546156307,0.0115119919049675,0.000996,-0.014586,0.008619,0.017698,-0.591725,316.693727,23.603488,0.999449,0.991622,0.003637,0.436926,0.000018,0.000000,0.000010,0.000022,-0.000004,24.202363,0.000023,
2086,3193,-3.83634012718386,11.8841700026628,0.0511546874366218,0.001339,-0.014728,0.013368,0.018315,-0.589479,312.769179,23.677252,0.999512,0.993944,0.003104,0.477515,-0.000006,0.000042,0.000002,0.000042,-0.000006,87.666290,0.000046,
2206,2338,-1.09226552394432,-6.71158321139855,0.00203049406354694,-0.001013,-0.015611,0.002133,-0.058827,-0.682908,325.693452,23.315344,0.999479,0.988357,0.004376,0.356143,0.000183,0.000169,0.000030,0.000206,0.000145,38.465736,0.000353,
2476,3283,4.60911420026953,13.8716281070668,0.0275006671462279,0.001853,-0.015310,0.010804,0.037766,-0.642268,310.559148,25.870803,0.999824,0.995461,0.002956,0.410759,0.000045,0.000014,0.000048,0.000080,-0.000021,36.257711,0.000083,
2161,3268,-2.22460851942176,13.5160828471817,0.0313863909459542,0.001472,-0.014997,0.013619,0.020963,-0.607312,311.044001,24.042735,0.999634,0.994146,0.003247,0.493115,0.000010,0.000025,0.000009,0.000029,0.000006,64.987593,0.000037,
2281,2713,0.474872283387349,1.47341502380075,-0.00865629214695218,0.000385,-0.015477,0.007758,-0.014034,-0.642685,319.424297,23.693368,0.999719,0.992610,0.003608,0.462931,0.000035,0.000040,0.000009,0.000047,0.000028,52.388451,0.000076,
2266,2668,0.155659815049191,0.493886313220585,-0.0219177531095056,0.000296,-0.015524,0.006595,-0.013955,-0.635868,320.066246,23.621985,0.999545,0.990756,0.003920,0.463597,0.000042,0.000040,0.000019,0.000060,0.000023,43.830276,0.000085,
2116,3298,-3.20443908981663,14.1618477088561,0.0318013572103837,0.001593,-0.014604,0.011125,0.035675,-0.595087,310.758917,23.816408,0.999652,0.993314,0.003397,0.488934,0.000004,0.000043,0.000011,0.000046,0.000001,75.113697,0.000054,
2311,2368,1.19089515828463,-6.05530315431799,-0.00290874088898363,-0.000330,-0.015999,0.005841,-0.041176,-0.653885,325.009078,22.894194,0.999618,0.988182,0.004261,0.488323,0.000165,0.000139,0.000008,0.000167,0.000137,15.980261,0.000304,
2416,2908,3.37579552698807,5.72452951701909,-0.00807795467409278,0.001136,-0.015678,0.009697,0.010363,-0.640246,316.270901,24.312604,0.999594,0.990804,0.003783,0.465904,0.000027,-0.000004,0.000023,0.000039,-0.000016,27.992787,0.000039,
2071,2923,-4.12190064816498,6.02987343876377,0.00129803486476021,0.000579,-0.014961,0.009187,-0.004355,-0.603442,316.811239,23.674616,0.999403,0.991260,0.003789,0.469260,0.000013,0.000034,0.000006,0.000036,0.000012,74.835881,0.000049,
2236,2488,-0.465142327438219,-3.43337345312893,-0.0109523812254224,-0.000241,-0.015633,0.005773,-0.035442,-0.646749,323.111308,23.379474,0.999484,0.988558,0.004218,0.445027,0.000077,0.000069,0.000022,0.000095,0.000051,40.036775,0.000148,
2341,2578,1.80551994206484,-1.46691777241726,-0.0115044458829061,0.000052,-0.015341,0.004476,-0.019150,-0.647686,321.544319,23.368814,0.999010,0.985340,0.004624,0.448742,0.000072,0.000044,0.000034,0.000095,0.000021,34.086364,0.000124,
2056,3073,-4.46941530247181,9.28225489935284,0.0225770144246553,0.000848,-0.014807,0.010910,0.003647,-0.595476,314.638146,23.559207,0.999426,0.991573,0.003828,0.499671,0.000006,0.000042,0.000012,0.000046,0.000003,73.170813,0.000054,
2146,3238,-2.54393196961114,12.8651328826992,0.0455127329836387,0.001352,-0.014853,0.015367,0.010765,-0.584506,311.701460,24.025796,0.999652,0.993783,0.003135,0.437764,0.000002,0.000032,-0.000001,0.000032,0.000002,-87.624050,0.000038,
2056,2863,-4.43782825711313,4.7266673715517,-0.00609602867058356,0.000904,-0.014421,0.005891,0.020454,-0.600627,317.832617,23.692419,0.999268,0.990787,0.003932,0.446082,0.000030,0.000029,0.000011,0.000040,0.000019,43.352715,0.000061,
2071,3088,-4.146412249158,9.6081716806911,0.0274805911853377,0.000950,-0.015011,0.013560,0.000228,-0.606812,314.347413,23.610433,0.999260,0.990754,0.003825,0.486477,0.000006,0.000039,0.000011,0.000042,0.000003,73.405976,0.000050,
2191,2038,-1.3690409352724,-13.2850081818711,0.0149597548914926,-0.002438,-0.018227,-0.001472,-0.113529,-0.807684,330.619249,22.965579,0.999064,0.984777,0.004975,0.293253,0.000608,0.000590,0.000041,0.000642,0.000557,38.764899,0.001199,
2101,2998,-3.48259414496223,7.66003853094846,0.00868696014509851,0.000725,-0.014704,0.009992,-0.000631,-0.592173,315.501258,23.787616,0.999612,0.993248,0.003346,0.433112,0.000013,0.000028,0.000021,0.000042,-0.000001,55.417925,0.000048,
2236,2263,-0.42530091327567,-8.35347567052109,0.0143111121477091,-0.001278,-0.016415,0.007335,-0.088282,-0.672218,326.904840,23.068942,0.999088,0.982418,0.005327,0.386931,0.000267,0.000233,0.000033,0.000287,0.000213,31.276178,0.000501,
2176,2158,-1.71971732677291,-10.6469430913714,-0.0296297046079417,-0.002641,-0.016603,0.002555,-0.134813,-0.719067,328.342159,23.271016,0.999338,0.958642,0.006984,0.300736,0.000409,0.000430,0.000071,0.000491,0.000347,49.221696,0.000843,
2101,3178,-3.5097891186402,11.5602078343892,0.0350789805697218,0.001246,-0.014915,0.011063,0.020143,-0.612522,312.806572,23.660986,0.999826,0.995526,0.002799,0.542141,-0.000006,0.000044,0.000007,0.000045,-0.000007,82.198505,0.000049,
2026,3058,-5.11662209787903,8.95452381037273,0.0307105136856762,0.001039,-0.014949,0.011054,0.012825,-0.608901,315.140496,23.498995,0.999235,0.989831,0.004023,0.450284,0.000010,0.000051,0.000026,0.000064,-0.000003,63.826595,0.000072,
2386,2743,2.75433051110144,2.13120156766824,-0.0113270626955568,0.000403,-0.015627,0.005645,-0.007947,-0.643993,318.887316,23.744352,0.999619,0.991218,0.003821,0.498258,0.000027,0.000056,0.000022,0.000068,0.000015,61.920876,0.000088,
2041,3088,-4.79630308199446,9.60687061440452,0.0274356458219813,0.001223,-0.014931,0.012386,0.017208,-0.601177,314.535586,23.574670,0.999648,0.993812,0.003210,0.416557,0.000006,0.000048,0.000018,0.000054,-0.000001,69.925893,0.000062,
2161,2128,-2.03843800909462,-11.3103191534095,0.00930754781950327,-0.002111,-0.016966,-0.000800,-0.100211,-0.746106,329.235571,23.192642,0.999356,0.980876,0.005357,0.405770,0.000468,0.000497,0.000075,0.000559,0.000406,50.448253,0.000969,
2026,3283,-5.15011511843146,13.8283361477163,0.0488076887661464,0.001614,-0.014617,0.012336,0.035937,-0.601818,311.640971,23.353305,0.999804,0.996182,0.002660,0.437721,-0.000021,0.000034,-0.000010,0.000036,-0.000023,-79.841451,0.000037,
2041,2773,-4.75112226614411,2.77055888311526,-0.0198365939529594,0.000311,-0.015228,0.010546,-0.019827,-0.621824,319.226306,23.705030,0.999090,0.988754,0.004291,0.436182,0.000023,0.000014,0.000013,0.000033,0.000005,35.627197,0.000041,
2251,2398,-0.122272714250624,-5.40026736780175,-0.00127223281930355,-0.000531,-0.016188,0.006042,-0.050093,-0.682718,324.604034,23.179284,0.999267,0.988743,0.004438,0.427617,0.000131,0.000140,0.000019,0.000155,0.000116,51.842907,0.000272,
2011,3238,-5.46723806468496,12.8522510866381,0.0563351321468986,0.001621,-0.014581,0.009469,0.044606,-0.600642,312.545920,23.296046,0.999433,0.992835,0.003564,0.452256,-0.000014,0.000038,-0.000014,0.000042,-0.000018,-75.944943,0.000042,
2026,2968,-5.10384774297406,7.0031241916992,0.0143886129009729,0.000824,-0.014830,0.009649,0.006785,-0.611582,316.463341,23.559105,0.999475,0.991804,0.003532,0.451086,0.000024,-0.000009,0.000008,0.000026,-0.000011,13.550159,0.000026,
2326,2458,1.50067593108941,-4.08700717351127,-0.0105166639874597,-0.000245,-0.015719,0.007016,-0.041468,-0.643303,323.480159,23.092769,0.999445,0.987461,0.004446,0.465450,0.000124,0.000102,0.000034,0.000148,0.000078,36.249134,0.000230,
2221,2428,-0.779773451185218,-4.74771582585331,0.0100808134039312,-0.000393,-0.015060,0.002443,-0.031307,-0.667840,324.297299,23.178936,0.999725,0.990139,0.003973,0.575775,0.000107,0.000101,0.000016,0.000120,0.000088,39.965962,0.000209,
2041,2953,-4.77696098927602,6.67928987293002,0.00709693251633325,0.000592,-0.014637,0.009857,-0.004726,-0.583858,316.542429,23.603304,0.999404,0.992213,0.003557,0.480760,0.000022,0.000008,0.000011,0.000028,0.000002,28.072779,0.000034,
2056,2878,-4.44032354988054,5.05205350513426,-0.00514720132531465,0.000833,-0.014891,0.008163,0.010661,-0.603963,317.587306,23.652051,0.999189,0.989745,0.004160,0.477445,0.000030,0.000043,0.000011,0.000049,0.000024,60.382233,0.000074,
2431,3058,3.67425647100407,8.98561007499971,0.0136204136372271,0.001259,-0.015501,0.010766,0.011805,-0.628607,314.021550,24.923520,0.999547,0.989904,0.004075,0.387821,0.000013,0.000044,0.000025,0.000058,-0.000001,60.753704,0.000066,
2116,3073,-3.16832498464531,9.28726596354134,0.0185400610804436,0.001247,-0.014542,0.009425,0.024658,-0.613701,314.315560,23.828309,0.999709,0.992717,0.003702,0.426041,0.000015,0.000030,0.000011,0.000036,0.000009,62.236442,0.000048,
2506,2173,5.49108881416246,-10.329661123084,0.0225326925080367,0.001354,-0.016410,-0.001761,0.061543,-0.724858,328.723269,21.403498,0.998803,0.975294,0.005969,0.417568,0.000578,0.000526,-0.000160,0.000714,0.000390,-40.376519,0.001119,
2476,3298,4.60512931725291,14.1977298457403,0.0139925415373909,0.001960,-0.015063,0.009903,0.046231,-0.627745,310.207034,25.915447,0.999584,0.992759,0.003608,0.435831,0.000032,0.000000,0.000042,0.000061,-0.000029,34.393698,0.000061,
2191,2218,-1.39840253436886,-9.33861740017768,0.0102140061127329,-0.001150,-0.016245,0.001561,-0.063340,-0.715121,327.734670,23.182037,0.998597,0.980404,0.005696,0.378623,0.000319,0.000332,0.000053,0.000378,0.000273,48.534211,0.000654,
2296,2758,0.792289011710984,2.454889387904,-0.0189488153293951,0.000463,-0.015434,0.008015,-0.011608,-0.633492,318.590738,23.778037,0.999432,0.989637,0.004070,0.478094,0.000032,0.000045,0.000014,0.000054,0.000023,57.992812,0.000079,
2161,3283,-2.22727279187209,13.8411005124391,0.0337416399962649,0.001263,-0.014844,0.014406,0.008941,-0.601334,310.805848,24.072279,0.999676,0.994721,0.003064,0.477809,0.000012,0.000037,0.000018,0.000046,0.000003,62.584552,0.000055,
2191,2053,-1.37219344372687,-12.9562246068642,0.0129661171254725,-0.002829,-0.018015,0.000385,-0.137205,-0.774385,330.338309,22.902922,0.999048,0.981747,0.005273,0.407129,0.000580,0.000584,0.000049,0.000630,0.000533,46.302690,0.001165,
2011,3253,-5.46971552294758,13.1776490056514,0.0543063498763559,0.001528,-0.014253,0.008386,0.043373,-0.581807,312.282124,23.311056,0.999820,0.995480,0.002846,0.442652,-0.000004,0.000028,-0.000025,0.000042,-0.000018,-61.623401,0.000042,
2086,2968,-3.80312233700158,7.00708890560917,0.0138736538692683,0.000544,-0.015062,0.012308,-0.015406,-0.605481,316.093923,23.723408,0.999327,0.991325,0.003774,0.444878,0.000017,0.000019,0.000014,0.000032,0.000005,47.458122,0.000040,
2206,2128,-1.05619615484215,-11.311945096134,0.0180681699553134,-0.001858,-0.016821,0.000218,-0.091832,-0.735337,329.178772,22.932056,0.998896,0.981029,0.005347,0.419044,0.000468,0.000513,0.000055,0.000550,0.000431,56.073221,0.000984,
2026,3298,-5.15280181976856,14.1532596843968,0.043962231541002,0.001532,-0.014378,0.011613,0.034231,-0.590332,311.353127,23.329203,0.999485,0.993763,0.003255,0.462116,-0.000024,0.000039,-0.000008,0.000040,-0.000025,-83.103035,0.000041,
2221,2218,-0.744347673050623,-9.33837755551123,0.0102366308058208,-0.001310,-0.016178,-0.000539,-0.064174,-0.700510,327.653932,23.062005,0.998998,0.982061,0.005157,0.367939,0.000324,0.000326,0.000042,0.000367,0.000283,45.652557,0.000651,
2041,3103,-4.79848059910365,9.931628044532,0.0300186904530619,0.001017,-0.014462,0.008761,0.017962,-0.592297,314.313405,23.532590,0.999648,0.994217,0.003148,0.458721,0.000003,0.000050,0.000026,0.000062,-0.000009,66.074805,0.000067,
2011,3268,-5.47193666456763,13.5017243927656,0.0566186049923658,0.001579,-0.014269,0.009739,0.042032,-0.584372,312.055140,23.253435,0.999830,0.995666,0.002787,0.484551,0.000000,0.000025,-0.000019,0.000035,-0.000010,-61.172672,0.000036,
2206,2353,-1.09478308546394,-6.38436298525525,0.00120927349780686,-0.000870,-0.015635,0.002926,-0.054734,-0.658547,325.448867,23.239392,0.999598,0.989234,0.004305,0.475061,0.000166,0.000152,0.000022,0.000182,0.000136,36.321630,0.000320,
2086,3208,-3.83806855630507,12.2092259572335,0.0528937732599388,0.001637,-0.014304,0.008620,0.045949,-0.584428,312.565913,23.686682,0.999503,0.993602,0.003284,0.470980,-0.000007,0.000041,0.000000,0.000041,-0.000007,89.789497,0.000044,
2341,2593,1.80254342212796,-1.1392835655171,-0.0104235721418604,0.000223,-0.015861,0.009864,-0.030267,-0.643418,321.298455,23.449484,0.999284,0.987583,0.004359,0.409640,0.000072,0.000029,0.000033,0.000090,0.000011,28.333750,0.000111,
2026,3073,-5.11877135700671,9.27948257402219,0.0324197066685201,0.001155,-0.014892,0.011839,0.016114,-0.596041,314.913628,23.457692,0.999221,0.991731,0.003786,0.493706,0.000008,0.000058,0.000031,0.000072,-0.000007,64.521897,0.000080,
2056,3088,-4.47143683008436,9.60732436407472,0.028012891320941,0.001018,-0.015217,0.013393,0.004290,-0.616826,314.439740,23.590943,0.999439,0.991951,0.003628,0.440230,0.000002,0.000042,0.000010,0.000044,0.000000,77.025748,0.000051,
2371,2683,2.43755704721187,0.825907082462642,-0.0302570130662616,0.000442,-0.015467,0.009001,-0.017781,-0.632077,319.686156,23.653863,0.999408,0.989070,0.004112,0.431366,0.000036,0.000043,0.000018,0.000058,0.000021,49.823740,0.000082,
2131,1993,-2.67206768418312,-14.2732209288615,0.0229490615754457,-0.004200,-0.018878,-0.003559,-0.188191,-0.843262,331.542604,23.249707,0.998891,0.979139,0.005611,0.341767,0.000735,0.000631,0.000075,0.000774,0.000592,27.581262,0.001370,
2056,2893,-4.44307096636477,5.37828165673083,0.00027627683192577,0.000371,-0.014924,0.012594,-0.023078,-0.578071,317.354809,23.696607,0.999451,0.992463,0.003741,0.452706,0.000020,0.000042,0.000009,0.000045,0.000016,70.587499,0.000064,
2071,2938,-4.12366951675349,6.35546970081847,0.00573810253638385,0.000868,-0.014804,0.008530,0.010923,-0.593501,316.619418,23.681366,0.999381,0.990477,0.003838,0.468563,0.000013,0.000031,0.000007,0.000033,0.000010,72.150858,0.000046,
2401,2848,3.06051791535783,4.41832491082415,-0.00786122765322261,0.000593,-0.015607,0.010842,-0.018314,-0.634219,317.206746,24.105430,0.999357,0.989909,0.004105,0.469679,0.000022,0.000024,0.000013,0.000036,0.000010,47.309972,0.000048,
2236,2278,-0.428167084991376,-8.0249539581712,0.00592108214391374,-0.000997,-0.016628,0.006563,-0.072997,-0.700555,326.608522,23.061714,0.999141,0.983845,0.005010,0.389410,0.000255,0.000226,0.000029,0.000273,0.000208,31.791082,0.000483,
2296,2608,0.820167732136806,-0.813799633342406,-0.00658014997782175,0.000097,-0.015604,0.008550,-0.030312,-0.633367,321.112936,23.530575,0.999481,0.989375,0.004017,0.422184,0.000062,0.000035,0.000031,0.000082,0.000014,33.399153,0.000104,
2071,3103,-4.14784054278966,9.93305819196439,0.0377278375190713,0.001233,-0.014842,0.012780,0.015544,-0.601034,314.203589,23.632068,0.999537,0.992484,0.003437,0.466271,0.000006,0.000042,0.000019,0.000050,-0.000002,66.314741,0.000057,
2461,3283,4.28073242530193,13.8712253496667,0.00469421469250619,0.001475,-0.015344,0.012856,0.013086,-0.632728,310.309375,25.753776,0.999476,0.990992,0.003779,0.452938,0.000056,0.000008,0.000043,0.000081,-0.000017,30.354126,0.000085,
2146,3253,-2.54677981772423,13.1902027980812,0.0353348491162819,0.001503,-0.014799,0.012213,0.027239,-0.600671,311.387186,24.003855,0.999638,0.993443,0.003209,0.449877,0.000003,0.000027,0.000002,0.000027,0.000003,86.056188,0.000033,
2506,2188,5.4871976993598,-9.99928806924423,0.015893456281276,0.001133,-0.016295,-0.002072,0.052698,-0.692804,328.415758,21.491258,0.998568,0.974030,0.006295,0.426208,0.000552,0.000523,-0.000143,0.000681,0.000393,-42.137418,0.001087,
2041,2788,-4.75314241323994,3.09696771679992,-0.0174994084056834,0.000405,-0.015124,0.009711,-0.013119,-0.605735,319.008888,23.724802,0.999097,0.987303,0.004336,0.424775,0.000020,0.000016,0.000013,0.000031,0.000005,40.743306,0.000038,
2281,2518,0.509454975668849,-2.77885528788458,-0.00721666512112051,-0.000263,-0.016107,0.008796,-0.047509,-0.662427,322.568011,23.277778,0.999704,0.991751,0.003901,0.489643,0.000084,0.000050,0.000022,0.000095,0.000039,25.820309,0.000138,
2446,3058,4.00069622323422,8.98620141713772,0.0170727155972372,0.001193,-0.015503,0.010606,0.008882,-0.641277,314.072826,24.958065,0.999503,0.989614,0.004016,0.391585,0.000024,0.000046,0.000032,0.000069,0.000001,54.375511,0.000080,
2491,1993,5.202139431677,-14.2853851862461,0.0280015057760465,0.002339,-0.019375,-0.006517,0.123317,-0.869534,331.693309,20.620950,0.998729,0.965828,0.007188,0.389795,0.000976,0.000670,-0.000034,0.000980,0.000666,-6.280833,0.001656,
2146,2053,-2.35335704641643,-12.9564750875432,0.0226267230671056,-0.002968,-0.017887,-0.001165,-0.138624,-0.786869,330.567897,23.200578,0.998919,0.981582,0.005259,0.387213,0.000598,0.000571,0.000065,0.000650,0.000518,39.089011,0.001171,
2041,3118,-4.80062848737158,10.2565190354145,0.03226593854356,0.001246,-0.014510,0.011401,0.021152,-0.582480,314.090692,23.503345,0.999645,0.994447,0.003085,0.489273,0.000001,0.000052,0.000020,0.000059,-0.000006,70.736074,0.000065,
2041,1993,-4.63638482928294,-14.2701345906449,0.0210901843428246,-0.005289,-0.018068,-0.001749,-0.243359,-0.789795,331.913715,23.867123,0.998717,0.979719,0.005712,0.409807,0.000773,0.000612,0.000158,0.000870,0.000515,31.466199,0.001400,
2431,3073,3.67099987278371,9.31050546466238,0.0127930040562774,0.000978,-0.015401,0.010033,0.001628,-0.627617,313.759219,24.880333,0.999644,0.991430,0.003757,0.481240,0.000015,0.000048,0.000021,0.000058,0.000004,63.901151,0.000070,
2236,2503,-0.468190488958882,-3.10573616643781,-0.0131823544433587,-0.000425,-0.015343,0.007017,-0.047783,-0.636424,322.837454,23.394431,0.999475,0.987638,0.004297,0.462717,0.000071,0.000059,0.000024,0.000090,0.000040,37.750459,0.000133,
2011,3283,-5.47455163620983,13.8264801701923,0.0507844795590131,0.001588,-0.014516,0.008837,0.044846,-0.598527,311.763902,23.229071,0.999811,0.996000,0.002731,0.481046,-0.000002,0.000041,-0.000008,0.000042,-0.000004,-80.305196,0.000047,
2311,2383,1.18871711436615,-5.72751558054986,0.0036638827709794,-0.000516,-0.015355,0.002272,-0.037274,-0.655922,324.825120,22.979791,0.999376,0.985833,0.004754,0.434340,0.000158,0.000132,0.000010,0.000161,0.000128,19.210954,0.000290,
2266,2683,0.152862466770888,0.820870653359975,-0.0215857582348349,0.000266,-0.015457,0.008072,-0.020205,-0.634654,319.819042,23.667038,0.999497,0.991886,0.003728,0.445588,0.000043,0.000044,0.000012,0.000055,0.000031,46.161227,0.000088,
2296,2773,0.789779455157369,2.78162722546591,-0.0169582982040879,0.000420,-0.015181,0.006294,-0.007654,-0.625644,318.367074,23.834066,0.999390,0.988489,0.004231,0.460026,0.000031,0.000044,0.000013,0.000052,0.000024,57.913989,0.000077,
2101,3193,-3.51191123150306,11.885376567915,0.0479237397773318,0.001004,-0.014832,0.014859,-0.002104,-0.598876,312.646404,23.735222,0.999640,0.993937,0.003172,0.481197,-0.000011,0.000040,0.000002,0.000040,-0.000011,87.436937,0.000041,
2026,2983,-5.10640068761866,7.32872329466129,0.012320312519762,0.000773,-0.014866,0.010812,0.001220,-0.616451,316.196475,23.546027,0.999195,0.991548,0.003793,0.448881,0.000016,-0.000005,0.000010,0.000020,-0.000010,22.416343,0.000020,
2416,2923,3.37308170440803,6.05109331482112,-0.0026960300143628,0.001039,-0.015685,0.010921,0.001432,-0.637929,316.061744,24.425443,0.999704,0.991818,0.003621,0.402656,0.000026,-0.000007,0.000022,0.000037,-0.000018,25.982745,0.000037,
2461,3298,4.27852428023698,14.1964307016188,0.00540019089419275,0.001959,-0.015048,0.009598,0.047798,-0.619436,310.103328,25.794487,0.999462,0.992814,0.003610,0.478551,0.000056,-0.000006,0.000039,0.000074,-0.000024,25.617941,0.000076,
2131,3133,-2.8521103622532,10.5880672978808,0.0388605064945864,0.001023,-0.015013,0.012836,0.003579,-0.614291,313.418694,23.890286,0.999663,0.994675,0.003157,0.435006,0.000006,0.000023,0.000007,0.000026,0.000003,70.126835,0.000032,
2116,3088,-3.17020288943114,9.612318009568,0.0233889787389785,0.001437,-0.014711,0.008084,0.037389,-0.615050,314.124068,23.836408,0.999692,0.992498,0.003551,0.418948,0.000009,0.000028,0.000011,0.000033,0.000004,64.993788,0.000040,
2011,3298,-5.47705800124322,14.1515980638019,0.0476532767841604,0.001626,-0.014238,0.009242,0.045542,-0.592806,311.492752,23.237281,0.999359,0.992736,0.003573,0.465125,-0.000009,0.000044,-0.000003,0.000044,-0.000009,-87.164882,0.000047,
2041,2008,-4.63983155848748,-13.9394240999814,0.0170682323643518,-0.006045,-0.018154,0.002120,-0.288818,-0.769391,331.594262,23.949579,0.997797,0.978108,0.006157,0.344411,0.000758,0.000606,0.000160,0.000859,0.000505,32.290238,0.001379,
2056,3103,-4.47307435346353,9.93217508334286,0.0344316705406413,0.001191,-0.014849,0.010666,0.020112,-0.603854,314.264458,23.577711,0.999421,0.991667,0.003648,0.459923,0.000002,0.000045,0.000019,0.000052,-0.000006,69.348407,0.000057,
2191,2233,-1.40089761149157,-9.01002818498867,0.0113145258442273,-0.001149,-0.016320,0.002306,-0.065656,-0.702106,327.499740,23.219932,0.998797,0.982100,0.005385,0.370658,0.000294,0.000303,0.000048,0.000347,0.000251,47.727882,0.000600,
2026,3088,-5.12084214308874,9.60541858660565,0.0352558700592454,0.001163,-0.014882,0.010547,0.020020,-0.603399,314.696340,23.537292,0.999553,0.994157,0.003281,0.395895,0.000003,0.000055,0.000026,0.000066,-0.000008,67.202614,0.000072,
2161,2143,-2.04107347057149,-10.9813205331659,0.00798548618496397,-0.002137,-0.016531,0.000261,-0.104472,-0.722894,328.979004,23.199970,0.999295,0.971858,0.006153,0.434527,0.000435,0.000462,0.000076,0.000525,0.000371,50.162530,0.000901,
2191,2068,-1.37501030459528,-12.6272853628614,0.00410629931872109,-0.002682,-0.017936,-0.001707,-0.123909,-0.796672,330.037434,22.839393,0.999393,0.983492,0.005187,0.466674,0.000554,0.000566,0.000053,0.000613,0.000507,48.334296,0.001122,
2041,2968,-4.77910291466216,7.00379583601837,0.010558404562687,0.000574,-0.014821,0.009948,-0.005993,-0.619317,316.326683,23.554971,0.999507,0.992324,0.003436,0.485431,0.000027,0.000002,0.000010,0.000030,-0.000002,19.166613,0.000034,
2176,2173,-1.72447806646953,-10.3133002367319,-0.0629026735604157,-0.002633,-0.016397,0.002676,-0.134746,-0.695628,327.822279,23.377249,0.999788,0.924883,0.008961,0.234352,0.000388,0.000394,0.000066,0.000458,0.000325,46.426721,0.000786,
2326,2473,1.49873497565997,-3.76051814908492,-0.00221731655602753,-0.000158,-0.015572,0.005392,-0.031822,-0.649908,323.316507,23.107634,0.999459,0.986953,0.004369,0.479366,0.000120,0.000089,0.000035,0.000142,0.000066,32.955249,0.000213,
2401,2863,3.05784622316326,4.7455363268524,-0.0118301994972967,0.000926,-0.015251,0.007888,0.007853,-0.630136,316.954564,24.190847,0.999426,0.989793,0.003976,0.433577,0.000021,0.000019,0.000011,0.000031,0.000009,43.126790,0.000042,
2056,3148,-4.4793943828546,10.9068045289488,0.0459519067408678,0.001317,-0.014845,0.010993,0.025004,-0.608044,313.631457,23.559334,0.999497,0.993613,0.003235,0.454428,-0.000009,0.000037,0.000003,0.000037,-0.000009,85.723134,0.000038,
2131,2008,-2.67359976547529,-13.944861644443,0.0258476761790689,-0.003677,-0.018364,-0.005503,-0.158280,-0.821693,331.356309,23.196864,0.998938,0.982730,0.005504,0.425152,0.000693,0.000627,0.000077,0.000744,0.000576,33.440352,0.001323,
2206,2143,-1.058800957015,-10.9821390347899,0.0181460797435875,-0.001777,-0.016935,0.002257,-0.094636,-0.724697,328.934741,23.040735,0.999310,0.983042,0.005045,0.340559,0.000436,0.000471,0.000061,0.000517,0.000390,52.896159,0.000910,
2476,1993,4.87474381713866,-14.2858323270879,0.0359247719604809,0.002550,-0.019439,-0.006911,0.134308,-0.880322,331.728797,20.747097,0.998169,0.969959,0.006638,0.359498,0.000936,0.000695,0.000004,0.000936,0.000695,0.863020,0.001637,
2206,2368,-1.09720421556886,-6.05542338123304,-0.00463443401980612,-0.000415,-0.015366,0.001632,-0.029688,-0.649333,325.182531,23.292128,0.999446,0.987811,0.004491,0.450125,0.000147,0.000145,0.000019,0.000165,0.000127,43.227884,0.000292,
2266,2413,0.202107110135003,-5.07223268709376,0.000662173452553816,-0.000670,-0.015604,0.003028,-0.046532,-0.666386,324.355625,23.172445,0.999165,0.986505,0.004635,0.431387,0.000121,0.000142,0.000014,0.000149,0.000114,63.455126,0.000264,
2371,2698,2.43525140604487,1.15147687173882,-0.0236317468635434,0.000435,-0.015533,0.008374,-0.015922,-0.639845,319.499989,23.636042,0.999394,0.990138,0.003824,0.482635,0.000035,0.000047,0.000019,0.000061,0.000021,53.912471,0.000085,
2251,2413,-0.124727368781148,-5.07214915862956,-0.000251850539768839,-0.000604,-0.015631,0.003424,-0.044674,-0.671998,324.375178,23.237773,0.999239,0.988016,0.004379,0.404724,0.000119,0.000135,0.000015,0.000144,0.000110,59.372708,0.000255,
2386,2758,2.75079940391022,2.45866018391405,-0.0171665533853798,0.000582,-0.015751,0.010134,-0.015940,-0.651853,318.585906,23.816922,0.999319,0.988414,0.004195,0.461246,0.000028,0.000058,0.000020,0.000068,0.000018,63.577411,0.000091,
2251,2563,-0.152055822963231,-1.79676210761362,-0.013196382528065,-0.000247,-0.015599,0.007415,-0.041310,-0.636895,321.841895,23.422689,0.999583,0.990992,0.003832,0.500317,0.000061,0.000049,0.000022,0.000078,0.000032,37.282816,0.000113,
2221,2443,-0.782649792220301,-4.41791675675053,0.00361002773274777,0.000049,-0.016086,0.006109,-0.023079,-0.669113,324.008059,23.341634,0.999297,0.987490,0.004528,0.432276,0.000099,0.000101,0.000019,0.000119,0.000081,46.681808,0.000202,
2056,1993,-4.30924134871107,-14.2712811447291,0.024130739500265,-0.005378,-0.018404,-0.001362,-0.248599,-0.813865,331.849678,23.752762,0.998639,0.978441,0.005793,0.394965,0.000760,0.000603,0.000133,0.000836,0.000527,29.721118,0.001375,
2086,3223,-3.84034421064427,12.5337809135068,0.0558816300384706,0.001661,-0.014540,0.009421,0.044579,-0.609964,312.344567,23.691175,0.999378,0.992665,0.003612,0.438703,-0.000009,0.000043,-0.000004,0.000043,-0.000010,-85.594657,0.000045,
2221,2233,-0.746752235605822,-9.01102819849545,0.0124055716455587,-0.001160,-0.016415,0.001425,-0.063656,-0.707943,327.431355,23.018605,0.999001,0.982784,0.005170,0.425182,0.000300,0.000298,0.000042,0.000341,0.000258,44.325141,0.000600,
2086,2983,-3.80558358567702,7.33223523826025,0.0128004563254649,0.000579,-0.015440,0.012655,-0.014950,-0.621765,315.841476,23.688279,0.999458,0.992517,0.003561,0.462202,0.000015,0.000022,0.000016,0.000034,0.000002,51.202481,0.000041,
2041,2023,-4.64069151887992,-13.6111262661188,0.019721608079692,-0.005002,-0.017794,-0.000061,-0.234843,-0.754705,331.430058,23.899115,0.997671,0.977957,0.006214,0.405037,0.000721,0.000502,0.000132,0.000784,0.000440,25.156149,0.001239,
2026,1993,-4.96315679546219,-14.2704223036991,0.0317051866298357,-0.005507,-0.018186,0.000959,-0.260766,-0.801128,332.073256,24.042299,0.998763,0.981176,0.005553,0.327997,0.000720,0.000625,0.000173,0.000852,0.000493,37.400207,0.001361,
2041,2803,-4.75511086225009,3.42254771016557,-0.0158385749145964,0.000721,-0.015208,0.011027,-0.002270,-0.617162,318.790435,23.694787,0.999303,0.989625,0.003951,0.435748,0.000024,0.000019,0.000015,0.000036,0.000006,39.682108,0.000046,
2146,3268,-2.54946171176051,13.515236581418,0.0334669486550752,0.001444,-0.014792,0.011675,0.026144,-0.609880,311.124793,24.022611,0.999646,0.994086,0.003146,0.428358,0.000003,0.000029,0.000003,0.000030,0.000003,84.183511,0.000036,
2101,3208,-3.51370374337035,12.2111594362951,0.0519147971107259,0.001244,-0.014442,0.012155,0.017084,-0.581217,312.453102,23.812680,0.999606,0.993852,0.003224,0.421333,-0.000012,0.000039,0.000001,0.000039,-0.000012,88.678575,0.000040,
2101,3013,-3.48454868470281,7.98479473894695,0.0105139960538736,0.001048,-0.014528,0.009397,0.015988,-0.600161,315.289025,23.736785,0.999416,0.991744,0.003580,0.476336,0.000018,0.000034,0.000023,0.000050,0.000001,54.533414,0.000058,
2161,3298,-2.22985730957683,14.1656916870845,0.0323084181617901,0.001395,-0.015038,0.015285,0.012169,-0.621637,310.551467,24.071640,0.999781,0.996206,0.002663,0.466753,0.000017,0.000048,0.000023,0.000060,0.000005,62.087550,0.000072,
2146,2068,-2.35571197385805,-12.6268883759169,0.0251435392838175,-0.002849,-0.017794,0.002160,-0.143186,-0.751966,330.342974,23.263634,0.998768,0.980113,0.005505,0.370257,0.000570,0.000561,0.000069,0.000634,0.000497,43.101012,0.001134,
2266,2698,0.150907870428682,1.14691938739079,-0.0155599485281641,0.000539,-0.015609,0.007805,-0.006823,-0.644412,319.639356,23.688131,0.999620,0.992271,0.003619,0.440669,0.000038,0.000041,0.000007,0.000047,0.000032,51.275181,0.000080,
2491,2008,5.19873926174352,-13.9561694856657,0.0315532938137153,0.002024,-0.019679,-0.003149,0.095944,-0.862311,331.453735,20.672415,0.999064,0.971323,0.006499,0.408078,0.000947,0.000668,-0.000056,0.000957,0.000657,-10.920998,0.001624,
2356,2623,2.12322842864211,-0.484617634808806,-0.0111916603059399,-0.000312,-0.015486,0.006767,-0.044153,-0.628109,320.790956,23.478968,0.999180,0.987673,0.004395,0.456803,0.000055,0.000021,0.000037,0.000078,-0.000003,32.725044,0.000089,
2506,2203,5.48427728933936,-9.67136830915884,0.0216513521983188,0.001090,-0.016430,0.000861,0.039391,-0.686977,328.208192,21.517110,0.998829,0.972282,0.006360,0.469563,0.000524,0.000444,-0.000119,0.000610,0.000358,-35.818986,0.000979,
2476,2008,4.86962172817399,-13.9553933127922,0.0271554321387839,0.001624,-0.019882,-0.002220,0.074100,-0.881649,331.353500,20.778013,0.998954,0.975344,0.005957,0.388419,0.000910,0.000692,-0.000020,0.000912,0.000690,-5.177102,0.001607,
2071,3118,-4.14947819894921,10.2574916691885,0.0496892279717258,0.001293,-0.015089,0.013476,0.016261,-0.609438,314.059786,23.639308,0.999751,0.994234,0.002999,0.446180,0.000003,0.000039,0.000015,0.000045,-0.000003,69.802258,0.000050,
2281,2728,0.471379664790934,1.80098675814527,-0.0156229652374122,0.000190,-0.015395,0.008752,-0.026242,-0.621974,319.109594,23.727239,0.999653,0.991874,0.003669,0.477996,0.000035,0.000041,0.000010,0.000048,0.000027,54.025341,0.000077,
2401,2878,3.05445726617841,5.07245597541777,-0.0161438492922912,0.000846,-0.015300,0.008419,0.002259,-0.624360,316.667758,24.250225,0.999424,0.991409,0.003717,0.425095,0.000018,0.000019,0.000016,0.000035,0.000002,45.923898,0.000042,
2026,2008,-4.96657784480277,-13.9390877674543,0.0169422461905242,-0.005748,-0.017952,0.002891,-0.277095,-0.755579,331.693677,24.033475,0.998520,0.981714,0.005629,0.377030,0.000713,0.000613,0.000174,0.000845,0.000482,36.972161,0.001343,
2026,3103,-5.12326229188416,9.93025252299137,0.0362049359046637,0.001010,-0.014608,0.010512,0.013145,-0.586206,314.452895,23.482837,0.999509,0.993822,0.003373,0.456848,0.000000,0.000058,0.000034,0.000073,-0.000016,65.057548,0.000077,
2071,2953,-4.12627431167065,6.68149251173395,0.00276640102032388,0.000912,-0.014732,0.009903,0.009075,-0.586155,316.348488,23.681820,0.999198,0.990921,0.003892,0.471764,0.000014,0.000018,0.000010,0.000026,0.000006,50.060565,0.000034,
2041,2983,-4.78131323522638,7.32954551551438,0.0166745180532075,0.000592,-0.015093,0.014319,-0.017407,-0.616197,316.122078,23.604372,0.999366,0.991452,0.003680,0.430673,0.000020,0.000006,0.000012,0.000026,-0.000001,29.493015,0.000030,
2236,2518,-0.470787127746817,-2.77740679716597,-0.019896346487883,-0.000212,-0.015045,0.002906,-0.024610,-0.639536,322.561341,23.450835,0.999472,0.987830,0.004248,0.425573,0.000071,0.000059,0.000029,0.000094,0.000035,39.366084,0.000134,
2431,3088,3.66971175800721,9.63540052170119,0.0323994868708724,0.001113,-0.015277,0.010511,0.006118,-0.628897,313.682640,24.973218,0.999704,0.992437,0.003564,0.435651,0.000019,0.000050,0.000017,0.000057,0.000012,66.682139,0.000074,
2131,2023,-2.6764967073243,-13.6126441908165,0.0137700002296697,-0.003174,-0.018446,-0.002324,-0.144765,-0.817324,331.027706,23.348665,0.998844,0.982640,0.005534,0.287555,0.000653,0.000598,0.000068,0.000698,0.000552,33.940076,0.001253,
2296,2788,0.786973196362823,3.10774493814495,-0.0111934703372185,0.000319,-0.015476,0.011568,-0.030228,-0.611715,318.148613,23.860577,0.999366,0.989348,0.004093,0.477192,0.000033,0.000043,0.000011,0.000050,0.000026,57.311537,0.000077,
2161,2158,-2.04611974516367,-10.6453271936482,-0.0325604694714343,-0.001855,-0.016543,0.002056,-0.097026,-0.734865,328.405420,23.467639,0.999839,0.945299,0.008336,0.169633,0.000411,0.000432,0.000068,0.000490,0.000353,49.351807,0.000847,
2311,2398,1.18771762282416,-5.40269215060639,0.0217376780946665,-0.000192,-0.015792,0.001378,-0.019539,-0.683612,324.752241,22.933715,0.999410,0.987193,0.004714,0.485954,0.000152,0.000133,0.000015,0.000161,0.000124,28.751609,0.000286,
2416,2938,3.37021189884522,6.37693904613418,8.8518988945907E-05,0.000937,-0.015329,0.011502,-0.005228,-0.619575,315.833349,24.441313,0.999663,0.991370,0.003765,0.452091,0.000026,-0.000003,0.000018,0.000034,-0.000012,25.247002,0.000035,
2491,2023,5.1962590102841,-13.6261400656563,0.0358424523741974,0.001933,-0.018729,-0.007329,0.108191,-0.849338,331.259475,20.805565,0.999041,0.971182,0.006435,0.350133,0.000928,0.000675,-0.000087,0.000955,0.000648,-17.243081,0.001613,
2041,3133,-4.80239646917022,10.5815382913066,0.0383313198773862,0.001344,-0.014496,0.009422,0.031202,-0.591546,313.906635,23.531703,0.999360,0.992760,0.003475,0.442995,-0.000003,0.000048,0.000010,0.000050,-0.000005,78.826529,0.000056,
2176,1993,-1.6876467683656,-14.2767188698371,0.0360997845087923,-0.002673,-0.019520,-0.002896,-0.120298,-0.873257,331.557805,22.907189,0.999308,0.981548,0.005271,0.336361,0.000748,0.000641,0.000056,0.000772,0.000617,23.094301,0.001392,
2056,3118,-4.47528724818117,10.2572044271957,0.0383542475945546,0.001235,-0.015029,0.012646,0.016535,-0.602071,314.048956,23.579650,0.999472,0.993197,0.003299,0.453286,0.000000,0.000044,0.000015,0.000049,-0.000005,73.188434,0.000054,
2146,3283,-2.55265255695759,13.8406972775426,0.0241609158725282,0.001426,-0.014768,0.011968,0.024388,-0.615096,310.799197,24.040269,0.999600,0.993939,0.003214,0.411807,0.000003,0.000040,0.000012,0.000044,0.000000,73.602758,0.000050,
2086,3238,-3.84338817926652,12.8589927913781,0.0489230577301214,0.001606,-0.014795,0.011162,0.036964,-0.611461,312.033347,23.679437,0.999543,0.993615,0.003310,0.446573,-0.000012,0.000031,-0.000005,0.000031,-0.000012,-83.348140,0.000031,
2116,3103,-3.17221682439312,9.93686084836034,0.0361215261058874,0.001338,-0.015044,0.012236,0.020446,-0.608877,313.969002,23.843007,0.999844,0.995228,0.003040,0.420940,0.000007,0.000030,0.000015,0.000037,-0.000001,63.467266,0.000043,
2266,2713,0.148580285076015,1.47330013847895,-0.00978083793171436,0.000324,-0.015332,0.005687,-0.009618,-0.648718,319.441190,23.736028,0.999710,0.992919,0.003565,0.414166,0.000038,0.000036,0.000003,0.000040,0.000034,36.874772,0.000074,
2446,3073,3.99705626236036,9.31146645367122,0.0153371598271406,0.000946,-0.015768,0.013752,-0.014337,-0.647714,313.789638,24.950511,0.999705,0.992706,0.003513,0.443811,0.000024,0.000049,0.000028,0.000067,0.000006,56.842644,0.000081,
2026,2023,-4.96781367491353,-13.6103181180457,0.0165252067755546,-0.005107,-0.017024,-0.002363,-0.233055,-0.753781,331.494059,24.003897,0.998387,0.980293,0.005870,0.401955,0.000683,0.000495,0.000144,0.000761,0.000417,28.440330,0.001195,
2296,2623,0.817337557089441,-0.486803685220131,-0.0131645040891044,0.000321,-0.015430,0.006337,-0.012457,-0.635109,320.832465,23.501568,0.999471,0.988276,0.004078,0.480177,0.000056,0.000041,0.000033,0.000082,0.000015,38.497070,0.000104,
2326,2488,1.49588630138703,-3.43296124612583,0.00258994161208648,-0.000303,-0.015657,0.009121,-0.051353,-0.623295,323.093830,23.159055,0.999380,0.987028,0.004359,0.490057,0.000113,0.000081,0.000033,0.000133,0.000061,32.154253,0.000199,
2041,2038,-4.64262142909789,-13.2833395286531,0.0238149959752718,-0.004889,-0.017910,0.001478,-0.233929,-0.786948,331.225377,23.870356,0.998281,0.978731,0.005882,0.397459,0.000686,0.000453,0.000128,0.000742,0.000397,23.869067,0.001156,
2506,2218,5.48081265828035,-9.34240529899626,0.0165448244841286,0.001159,-0.016743,0.000571,0.043533,-0.725015,327.927333,21.573564,0.999037,0.973768,0.006098,0.438755,0.000496,0.000373,-0.000096,0.000548,0.000321,-28.758261,0.000879,
2221,2248,-0.749549923078209,-8.68223310283031,0.00237882241015086,-0.000813,-0.015995,-0.000445,-0.041637,-0.686479,327.128058,22.958204,0.998864,0.982456,0.005250,0.528784,0.000281,0.000265,0.000042,0.000316,0.000231,39.603471,0.000548,
2071,3133,-4.15202187814809,10.5829708583151,0.0415250329860442,0.001432,-0.014849,0.009821,0.033200,-0.613626,313.763495,23.617270,0.999559,0.994051,0.003077,0.459991,0.000001,0.000034,0.000008,0.000036,-0.000001,77.534549,0.000041,
2191,2248,-1.40311256445816,-8.68174334519009,0.00582805879878379,-0.000904,-0.015823,-0.003993,-0.034582,-0.715056,327.243654,23.193346,0.998719,0.982986,0.005276,0.401349,0.000273,0.000276,0.000046,0.000321,0.000228,45.881704,0.000552,
2056,3163,-4.48166731085991,11.232158129486,0.0446259453942162,0.001478,-0.014675,0.010477,0.033913,-0.601388,313.384123,23.564802,0.999629,0.992394,0.003388,0.449298,-0.000014,0.000052,-0.000001,0.000052,-0.000014,-89.329385,0.000054,
2236,2293,-0.431165317902238,-7.69654844894782,-0.00148250243267967,-0.001117,-0.016231,0.003027,-0.066930,-0.700950,326.311023,23.032262,0.999237,0.985481,0.004647,0.442012,0.000237,0.000216,0.000031,0.000259,0.000193,35.656493,0.000454,
2191,2083,-1.37674186196383,-12.2972427314705,0.0110767104990259,-0.002355,-0.017637,-0.001426,-0.109693,-0.780814,329.867700,23.019315,0.999327,0.982930,0.005249,0.320108,0.000530,0.000556,0.000056,0.000601,0.000485,51.497529,0.001088,
2101,3223,-3.51566572323859,12.5350665247363,0.0558312902361422,0.001478,-0.014819,0.011934,0.028311,-0.614507,312.252379,23.770895,0.999586,0.993720,0.003284,0.429606,-0.000014,0.000040,-0.000002,0.000041,-0.000014,-88.059634,0.000041,
2371,2713,2.43249707710583,1.47904094091717,-0.0246243864228859,0.000482,-0.015249,0.006479,-0.006913,-0.638525,319.256242,23.734196,0.999517,0.990803,0.003749,0.427222,0.000030,0.000050,0.000018,0.000060,0.000019,59.408162,0.000083,
2401,2893,3.05217691904733,5.39795156884608,-0.00854659590038409,0.000771,-0.015151,0.007020,0.003956,-0.617278,316.488468,24.268651,0.999487,0.991021,0.003804,0.459098,0.000019,0.000012,0.000021,0.000037,-0.000006,40.033587,0.000040,
2131,2038,-2.67932013253452,-13.2841599191523,0.0106516894570632,-0.003351,-0.018100,-0.001258,-0.155927,-0.790646,330.750446,23.246121,0.999172,0.982910,0.005451,0.426022,0.000623,0.000567,0.000068,0.000669,0.000521,33.786094,0.001192,
2041,3148,-4.8044743993748,10.905631081271,0.048120663613588,0.001221,-0.014727,0.012604,0.016583,-0.592094,313.729459,23.492014,0.999571,0.993715,0.003329,0.473347,-0.000009,0.000042,0.000005,0.000043,-0.000010,84.915493,0.000045,
2341,2608,1.79891054420571,-0.810879159858231,-0.0256416248951723,0.000347,-0.015532,0.006978,-0.014407,-0.639256,320.943220,23.465402,0.999352,0.986200,0.004553,0.435792,0.000068,0.000022,0.000034,0.000086,0.000004,28.175913,0.000101,
2176,2008,-1.69159547577046,-13.9453722786445,0.0173527858403304,-0.002977,-0.018925,-0.004350,-0.129533,-0.848852,331.151678,22.877808,0.999067,0.983115,0.005226,0.407177,0.000700,0.000632,0.000055,0.000731,0.000601,28.957875,0.001334,
2221,2458,-0.785783018913328,-4.08957289782931,-0.000230573457201899,-0.000471,-0.015211,0.002605,-0.035457,-0.653882,323.720720,23.385040,0.999097,0.984975,0.004954,0.424459,0.000094,0.000084,0.000020,0.000110,0.000068,38.341373,0.000179,
2041,2998,-4.78329763760699,7.65528818525892,0.0179424686979246,0.000709,-0.014951,0.011729,-0.004726,-0.611648,315.900919,23.622097,0.999170,0.989914,0.003973,0.409222,0.000012,0.000020,0.000015,0.000031,0.000001,52.491200,0.000036,
2041,2818,-4.75737104429009,3.74846903423857,-0.0140274104184073,0.000581,-0.014902,0.009734,-0.005004,-0.594602,318.559292,23.667605,0.999212,0.989757,0.004031,0.477887,0.000021,0.000031,0.000016,0.000043,0.000009,53.323681,0.000056,
2041,2053,-4.64684869196375,-12.9484470080988,-0.0164510292524369,-0.004611,-0.017338,-0.001362,-0.213186,-0.760099,330.669555,23.940402,0.999624,0.991442,0.003918,0.351846,0.000651,0.000477,0.000128,0.000719,0.000409,27.923588,0.001142,
2416,2953,3.36695524427726,6.70367910712284,-0.005489833194531,0.000990,-0.015636,0.010393,0.001167,-0.631135,315.547682,24.514792,0.999749,0.991620,0.003776,0.414298,0.000027,-0.000001,0.000020,0.000037,-0.000011,27.478935,0.000038,
2131,3148,-2.85446221670756,10.9130862141689,0.0421061292054787,0.000964,-0.014693,0.012956,0.000705,-0.585451,313.197777,23.868828,0.999601,0.993124,0.003343,0.490075,0.000005,0.000025,0.000007,0.000027,0.000003,73.049751,0.000032,
2026,2038,-4.96928824573573,-13.2830167773239,0.0224628637424189,-0.004743,-0.017300,-0.001918,-0.217677,-0.779035,331.319271,23.944506,0.998252,0.978443,0.005910,0.429575,0.000657,0.000447,0.000137,0.000725,0.000379,26.340700,0.001122,
2251,2578,-0.154172879634086,-1.46983461988083,-0.00973034375664383,0.000091,-0.015725,0.008128,-0.028177,-0.645852,321.640858,23.466578,0.999456,0.988989,0.004126,0.471495,0.000061,0.000051,0.000024,0.000080,0.000031,39.188169,0.000115,
2206,2383,-1.10039731320068,-5.72776079271399,-0.00470470274871104,-0.000732,-0.015765,0.006163,-0.058709,-0.653219,324.910866,23.302798,0.999196,0.985740,0.004675,0.454111,0.000130,0.000139,0.000020,0.000156,0.000114,50.883873,0.000271,
2086,2998,-3.80740807600361,7.65821246862492,0.0154075832896297,0.000833,-0.015157,0.010029,0.004479,-0.616709,315.637990,23.737412,0.999556,0.992833,0.003398,0.416167,0.000013,0.000028,0.000019,0.000040,0.000000,55.864722,0.000046,
2476,2023,4.86677389987636,-13.6242509595522,0.0265767133878967,0.001829,-0.018976,-0.003103,0.087217,-0.847903,331.119057,20.937058,0.999314,0.980994,0.005364,0.323348,0.000891,0.000686,-0.000045,0.000900,0.000676,-11.809505,0.001582,
2431,3103,3.66619343659911,9.96157579954782,0.0253060525998876,0.001137,-0.015476,0.010439,0.007413,-0.636768,313.378558,25.024263,0.999766,0.993745,0.003363,0.425654,0.000016,0.000047,0.000020,0.000056,0.000007,63.842325,0.000069,
2386,2773,2.74781558796089,2.78499222974581,-0.0135059196420002,0.000383,-0.015903,0.012391,-0.033240,-0.647669,318.354948,23.853581,0.999250,0.988082,0.004290,0.472122,0.000027,0.000051,0.000017,0.000060,0.000018,62.572099,0.000082,
2356,2638,2.12126023949225,-0.158189097059747,-0.00384857527689064,0.000162,-0.015865,0.008933,-0.030184,-0.648620,320.622855,23.540609,0.999285,0.986988,0.004473,0.413864,0.000049,0.000023,0.000031,0.000070,0.000002,33.889356,0.000082,
2056,2008,-4.31067561869401,-13.9428926460304,0.0292868757868519,-0.004821,-0.018860,-0.000101,-0.226717,-0.841186,331.674425,23.775380,0.998640,0.980060,0.005729,0.342983,0.000744,0.000598,0.000136,0.000825,0.000516,30.849889,0.001353,
2491,2038,5.19321561121477,-13.296992233537,0.035339354231894,0.001977,-0.018107,-0.007867,0.112537,-0.840344,331.017919,20.813421,0.999010,0.971004,0.006579,0.413589,0.000891,0.000683,-0.000096,0.000929,0.000646,-21.349598,0.001583,
2161,2173,-2.04934039355626,-10.3192854685644,-0.0424963394585234,-0.001835,-0.016591,0.004223,-0.102790,-0.710633,328.077303,23.126822,0.999795,0.931824,0.008730,0.548026,0.000391,0.000398,0.000066,0.000460,0.000329,46.418016,0.000792,
2266,2428,0.199328738445047,-4.74341648390192,-0.00150790893889052,-0.000428,-0.015186,0.005628,-0.043875,-0.621198,324.096829,23.235390,0.999284,0.987478,0.004477,0.441085,0.000115,0.000118,0.000011,0.000127,0.000105,48.814717,0.000233,
2281,2743,0.469188796839685,2.12743214470862,-0.0146867604276508,0.000688,-0.015502,0.009346,-0.005420,-0.628308,318.894408,23.752945,0.999430,0.989674,0.003991,0.473729,0.000034,0.000034,0.000011,0.000045,0.000023,46.139545,0.000069,
2281,2533,0.507488955780897,-2.4525554113337,-0.00295265182984394,0.000015,-0.015887,0.006878,-0.028240,-0.668017,322.380250,23.254354,0.999652,0.992344,0.003701,0.535891,0.000079,0.000047,0.000020,0.000088,0.000038,25.580506,0.000129,
2071,2968,-4.12884034506806,7.00703305737862,0.00228516937727363,0.000888,-0.014924,0.012015,0.001830,-0.594753,316.093194,23.675625,0.998978,0.989857,0.004115,0.465651,0.000021,0.000014,0.000010,0.000029,0.000007,36.292363,0.000038,
2176,2188,-1.72177635404018,-9.99437974504559,0.00474383662754008,-0.002097,-0.016522,0.002308,-0.109045,-0.709710,328.172467,23.249545,0.999048,0.947274,0.007626,0.359930,0.000363,0.000371,0.000062,0.000428,0.000305,46.889744,0.000737,
2146,2083,-2.3591894686817,-12.2964438301166,0.0145450534595852,-0.003205,-0.017917,0.002075,-0.159271,-0.769445,329.997687,23.317900,0.998664,0.980194,0.005606,0.310175,0.000543,0.000551,0.000071,0.000619,0.000476,46.524409,0.001098,
2056,3133,-4.4776803976713,10.5822372468364,0.0357146078441701,0.001265,-0.014912,0.010723,0.023310,-0.609525,313.788938,23.554165,0.999072,0.992440,0.003465,0.464722,-0.000004,0.000040,0.000007,0.000041,-0.000005,81.237925,0.000045,
2086,3253,-3.84561834729544,13.1835310484546,0.054184165491904,0.001599,-0.014720,0.012959,0.031456,-0.605181,311.826530,23.670742,0.999693,0.994497,0.003107,0.458855,-0.000012,0.000025,-0.000009,0.000027,-0.000014,-77.092814,0.000027,
2296,2803,0.783690390495501,3.43531284431534,-0.0185768537643867,0.000224,-0.015306,0.010167,-0.029775,-0.606590,317.842645,23.931689,0.999335,0.988539,0.004160,0.441429,0.000030,0.000034,0.000015,0.000047,0.000017,48.428143,0.000067,
2206,2158,-1.06153319202409,-10.6540672600737,0.0118260153015513,-0.001778,-0.016682,-0.001185,-0.083691,-0.739239,328.652342,22.953400,0.999119,0.984094,0.005063,0.433148,0.000410,0.000440,0.000058,0.000485,0.000365,52.101859,0.000853,
2056,2023,-4.31275131958973,-13.6118922060107,0.0216458939551103,-0.004169,-0.018305,0.000173,-0.197495,-0.779305,331.398850,23.807330,0.998288,0.982756,0.005585,0.371278,0.000710,0.000510,0.000112,0.000760,0.000460,24.135921,0.001232,
2446,3088,3.99551803380498,9.63761572593989,0.0253027954681215,0.001449,-0.015382,0.011993,0.015548,-0.627562,313.656987,25.076287,0.999702,0.992893,0.003532,0.389541,0.000028,0.000052,0.000023,0.000066,0.000014,58.315855,0.000085,
2041,3163,-4.80700091740769,11.2307721614654,0.0450634617361629,0.001286,-0.014755,0.013365,0.017436,-0.596115,313.459862,23.477674,0.999636,0.993334,0.003379,0.474790,-0.000016,0.000059,-0.000002,0.000059,-0.000016,-88.621103,0.000061,
2116,3118,-3.17505991547309,10.2617974908907,0.0362293592655192,0.001017,-0.015059,0.013140,0.002961,-0.606749,313.707722,23.813666,0.999798,0.995398,0.002960,0.454872,0.000006,0.000026,0.000012,0.000032,0.000000,64.859672,0.000037,
2026,3118,-5.12537778273352,10.2561098012939,0.0340881270042814,0.001334,-0.014309,0.010220,0.029011,-0.570559,314.205900,23.508783,0.999643,0.994518,0.003157,0.435496,0.000001,0.000062,0.000031,0.000075,-0.000012,67.397797,0.000081,
2311,2413,1.18374610609301,-5.07275123125587,0.00332927520469184,-0.000169,-0.015487,-0.000524,-0.011900,-0.684942,324.362971,22.985906,0.999474,0.987436,0.004575,0.466570,0.000141,0.000134,0.000019,0.000157,0.000118,39.890735,0.000276,
2191,2263,-1.40677488400095,-8.35222893831983,-0.000252687574857191,-0.001484,-0.015613,-0.001937,-0.067549,-0.697314,326.917891,23.248624,0.998827,0.981319,0.005410,0.380923,0.000258,0.000244,0.000044,0.000295,0.000207,40.617593,0.000504,
2341,2623,1.79632042235609,-0.484877946885454,-0.0168215431846761,0.000022,-0.015719,0.008652,-0.035220,-0.639304,320.752871,23.476793,0.999380,0.987310,0.004353,0.461385,0.000058,0.000023,0.000034,0.000079,0.000003,31.050903,0.000092,
2176,2023,-1.69331566842157,-13.6162076027952,0.0250011839852391,-0.002602,-0.018457,-0.002262,-0.118671,-0.819993,330.985018,22.951203,0.998474,0.983903,0.005269,0.378039,0.000660,0.000615,0.000054,0.000696,0.000579,33.565449,0.001277,
2296,2638,0.814554782761466,-0.160164185923122,-0.0105981710802325,0.000013,-0.015244,0.005406,-0.023432,-0.630741,320.599509,23.516761,0.999399,0.987416,0.004175,0.499779,0.000051,0.000039,0.000031,0.000077,0.000013,39.592111,0.000097,
2236,2533,-0.472644168219563,-2.45137114031581,-0.00541204205387658,-0.000262,-0.015360,0.005912,-0.036781,-0.647756,322.427479,23.497462,0.999712,0.991434,0.003684,0.392544,0.000069,0.000054,0.000027,0.000089,0.000034,37.032772,0.000127,
2251,2428,-0.127334474420614,-4.74581850401862,0.00324852662305375,-0.000410,-0.015728,0.009265,-0.054893,-0.658043,324.152174,23.157690,0.998873,0.986424,0.004555,0.523505,0.000113,0.000113,0.000014,0.000127,0.000099,45.061413,0.000226,
2251,2593,-0.157088843990866,-1.142175470212,-0.0146181526785085,0.000155,-0.015428,0.007810,-0.024072,-0.635306,321.360696,23.490066,0.999331,0.986848,0.004477,0.482813,0.000058,0.000039,0.000022,0.000073,0.000024,33.166806,0.000101,
2101,3028,-3.48664686309158,8.30996278434754,0.0138087652308627,0.001239,-0.014685,0.010390,0.021819,-0.608835,315.078023,23.738089,0.999323,0.991127,0.003713,0.467039,0.000016,0.000033,0.000021,0.000048,0.000002,56.001336,0.000056,
2056,2038,-4.31539465978637,-13.2821782269865,0.0154127683865681,-0.004308,-0.017578,-0.001645,-0.198534,-0.775567,331.105638,23.802627,0.998260,0.979872,0.005755,0.378106,0.000676,0.000466,0.000111,0.000724,0.000418,23.294066,0.001155,
2101,3238,-3.51818765873294,12.8600399515229,0.0510054688589889,0.001700,-0.014836,0.011511,0.039838,-0.609290,311.978065,23.742834,0.999671,0.994044,0.003139,0.463110,-0.000016,0.000030,-0.000002,0.000030,-0.000016,-87.576869,0.000030,
2041,3013,-4.78592411800424,7.98205805264928,0.0100112171888327,0.000739,-0.014533,0.009021,0.004373,-0.595623,315.598834,23.665181,0.999359,0.991203,0.003883,0.374041,0.000017,0.000030,0.000024,0.000048,-0.000001,52.870997,0.000055,
2431,3118,3.66296511106565,10.2881610212108,0.0151666185784052,0.001622,-0.015462,0.009419,0.033492,-0.634845,313.073421,25.089294,0.999822,0.994962,0.003130,0.411717,0.000019,0.000046,0.000022,0.000058,0.000007,61.155044,0.000071,
2191,2098,-1.38034297573137,-11.9691481419623,0.00131791871439191,-0.002500,-0.017900,0.002841,-0.129763,-0.761115,329.526183,22.839478,0.999364,0.985631,0.005083,0.537732,0.000507,0.000541,0.000062,0.000588,0.000460,52.721778,0.001051,
2491,2053,5.18813634874918,-12.9642081627366,0.013988301100369,0.001984,-0.018662,-0.005883,0.105082,-0.874326,330.589577,20.968902,0.999043,0.976609,0.005972,0.287434,0.000856,0.000683,-0.000103,0.000904,0.000635,-24.910336,0.001547,
2356,2653,2.1181037494784,0.169453066003719,-0.0139614244565109,0.000371,-0.015510,0.005619,-0.008832,-0.652615,320.315781,23.554455,0.999350,0.986078,0.004677,0.435644,0.000046,0.000026,0.000027,0.000065,0.000007,35.114121,0.000079,
2221,2473,-0.788884643143646,-3.76194797838401,-0.00447239022906842,-0.000637,-0.015175,0.003294,-0.045276,-0.651439,323.432939,23.377129,0.999296,0.986483,0.004676,0.455307,0.000091,0.000073,0.000024,0.000108,0.000056,34.891615,0.000167,
2146,2098,-2.36116408156829,-11.9682480405259,0.0177398916504785,-0.002873,-0.017768,0.003655,-0.148774,-0.759749,329.794046,23.297810,0.999141,0.982750,0.005205,0.350800,0.000519,0.000531,0.000074,0.000600,0.000450,47.375318,0.001054,
2326,2503,1.49208968220406,-3.10416428445582,-0.00818244687570768,-0.000584,-0.015959,0.007932,-0.060287,-0.648028,322.751548,23.238125,0.999344,0.987065,0.004315,0.422175,0.000101,0.000066,0.000032,0.000120,0.000047,30.763231,0.000172,
2176,2203,-1.7236937137532,-9.66704124493213,0.00906593863794569,-0.001831,-0.016757,0.002221,-0.096672,-0.739947,327.979963,23.239830,0.998146,0.975268,0.006112,0.354002,0.000341,0.000349,0.000059,0.000405,0.000286,46.964713,0.000694,
2266,2728,0.14512175710427,1.80084951212612,-0.0187226653846437,0.000320,-0.015224,0.007324,-0.015140,-0.621786,319.116721,23.745605,0.999519,0.990784,0.003805,0.457413,0.000039,0.000037,0.000004,0.000043,0.000034,37.533531,0.000077,
2506,2233,5.47806406450139,-9.01234962802381,0.0188901320965442,0.001186,-0.016335,-0.001299,0.052179,-0.713805,327.712079,21.763649,0.998979,0.978647,0.005639,0.323152,0.000479,0.000371,-0.000066,0.000510,0.000340,-25.348849,0.000856,
2236,2308,-0.433623285360955,-7.36735448672717,-0.00640667433395947,-0.000771,-0.015802,0.000801,-0.043734,-0.681432,326.050585,23.085835,0.998815,0.984275,0.004948,0.431291,0.000218,0.000194,0.000029,0.000238,0.000174,33.935417,0.000413,
2071,3148,-4.15455219568001,10.9080046163753,0.0470119641084352,0.001204,-0.014748,0.013662,0.011776,-0.585664,313.542960,23.610203,0.999713,0.995905,0.002759,0.490391,-0.000002,0.000033,0.000005,0.000034,-0.000003,81.729834,0.000038,
2071,3223,-4.1656508652192,12.5327767570296,0.0540544312649445,0.001598,-0.014581,0.011705,0.035571,-0.592541,312.400029,23.613462,0.999450,0.993304,0.003362,0.458321,-0.000009,0.000047,-0.000009,0.000049,-0.000011,-81.009941,0.000051,
2071,2068,-3.9914313940892,-12.6253141043055,0.0340655851936162,-0.003891,-0.016867,-0.000125,-0.183502,-0.750770,330.713929,23.838885,0.997965,0.964765,0.007229,0.267623,0.000594,0.000503,0.000103,0.000661,0.000436,32.979413,0.001105,
2206,2173,-1.06413855609022,-10.3254417793079,0.0128311780314334,-0.001931,-0.016631,-0.001489,-0.089749,-0.741255,328.413250,22.987950,0.999262,0.985577,0.004814,0.416219,0.000390,0.000400,0.000054,0.000450,0.000341,47.587396,0.000793,
2386,2788,2.74474661047816,3.11264606906749,-0.0183628175383319,0.000460,-0.015777,0.010658,-0.023438,-0.650099,318.079243,23.956159,0.999606,0.991129,0.003868,0.410439,0.000025,0.000047,0.000013,0.000053,0.000019,65.132065,0.000074,
2026,2053,-4.97145218790135,-12.9524785321329,0.0269253000116692,-0.004735,-0.017916,0.002157,-0.228659,-0.768948,331.104110,24.132854,0.999658,0.992143,0.003770,0.244740,0.000635,0.000475,0.000137,0.000713,0.000396,29.886439,0.001124,
2131,3163,-2.85653497809404,11.2378916456637,0.0413921218885207,0.001289,-0.014988,0.010667,0.022447,-0.604020,312.968583,23.854526,0.999510,0.991254,0.003635,0.490249,0.000004,0.000037,0.000006,0.000038,0.000003,79.802564,0.000045,
2086,3013,-3.80995910858258,7.98302011369782,0.0153299790313781,0.000731,-0.015038,0.010602,-0.001894,-0.619892,315.386973,23.673038,0.999666,0.993471,0.003173,0.475771,0.000019,0.000033,0.000022,0.000050,0.000003,53.922481,0.000059,
2056,3178,-4.48377736569838,11.5566538935314,0.0519419919402253,0.001357,-0.014631,0.011374,0.025874,-0.590292,313.192398,23.542175,0.999693,0.993888,0.003154,0.476192,-0.000014,0.000055,0.000001,0.000055,-0.000014,88.823984,0.000058,
2086,3268,-3.84840512572185,13.5093918418093,0.0434210351437514,0.001795,-0.014308,0.010718,0.047149,-0.584381,311.506063,23.684134,0.999708,0.995317,0.002936,0.464049,-0.000012,0.000021,-0.000011,0.000024,-0.000016,-72.880591,0.000025,
2296,2653,0.811172962908906,0.167610135353023,-0.0183088762875059,0.000030,-0.015383,0.006624,-0.026820,-0.643810,320.287888,23.571636,0.999324,0.987501,0.004197,0.462701,0.000048,0.000041,0.000027,0.000072,0.000017,41.097527,0.000094,
2056,2053,-4.31705333052139,-12.9514659260373,0.00839874828312759,-0.003659,-0.015905,-0.007512,-0.151770,-0.741287,330.852729,23.855843,0.997697,0.974666,0.006310,0.357285,0.000643,0.000486,0.000115,0.000704,0.000425,27.811632,0.001140,
2281,2548,0.504074648367723,-2.12227297172009,-0.0155006046102244,0.000173,-0.015496,0.006001,-0.017931,-0.654584,322.041310,23.432141,0.999443,0.989359,0.004152,0.400743,0.000073,0.000044,0.000020,0.000084,0.000034,26.981258,0.000121,
2371,2728,2.43002222263836,1.80559149535803,-0.0185649172415197,0.000596,-0.015421,0.008924,-0.010417,-0.622872,319.059211,23.786318,0.999521,0.990515,0.003830,0.431836,0.000024,0.000052,0.000019,0.000062,0.000015,63.455547,0.000081,
2191,2113,-1.38078732003149,-11.6408318232674,0.0198883168886823,-0.001782,-0.017666,0.001692,-0.093181,-0.780921,329.475744,23.033676,0.998975,0.981666,0.005383,0.340201,0.000485,0.000524,0.000064,0.000572,0.000437,53.461122,0.001012,
2431,3133,3.66005460661464,10.6131043033382,0.0238339935783074,0.001202,-0.015217,0.012172,0.004154,-0.608596,312.870955,25.099655,0.999720,0.992789,0.003412,0.476406,0.000024,0.000043,0.000020,0.000056,0.000012,57.534131,0.000072,
2101,3253,-3.52100779492701,13.1857820178337,0.049748936603919,0.001525,-0.014648,0.013057,0.027333,-0.589792,311.709124,23.795772,0.999714,0.995102,0.002946,0.429058,-0.000016,0.000023,-0.000003,0.000023,-0.000016,-84.928823,0.000024,
2041,3178,-4.80926984457329,11.5554526134496,0.0459085377684687,0.001283,-0.014556,0.012648,0.019363,-0.591023,313.223988,23.439259,0.999723,0.993611,0.003277,0.509868,-0.000018,0.000062,-0.000001,0.000062,-0.000018,-89.272168,0.000064,
2476,2038,4.86388620166127,-13.2950503992302,0.0264757768055119,0.001924,-0.018200,-0.004135,0.095803,-0.833545,330.885071,20.949408,0.999221,0.978329,0.005795,0.385494,0.000858,0.000680,-0.000058,0.000875,0.000663,-16.479822,0.001543,
2041,2068,-4.64879470570544,-12.6210047654155,-0.0102872299386831,-0.004649,-0.016946,0.000034,-0.218708,-0.731547,330.475314,23.855584,0.999576,0.991566,0.003861,0.460681,0.000616,0.000496,0.000126,0.000696,0.000416,32.317941,0.001124,
2296,2818,0.781629623530112,3.76085758060822,-0.0146390712359903,0.000434,-0.015283,0.007763,-0.012047,-0.629783,317.649519,23.936672,0.999485,0.989953,0.003940,0.442977,0.000029,0.000033,0.000012,0.000043,0.000018,50.078294,0.000063,
2446,3103,3.99279776457787,9.96223670050491,0.0294821526569535,0.001322,-0.015235,0.011290,0.012397,-0.620252,313.443552,25.040338,0.999729,0.992899,0.003544,0.484126,0.000025,0.000045,0.000027,0.000064,0.000006,55.693953,0.000077,
2101,3043,-3.48908033776328,8.63542608226739,0.0220406674162632,0.000787,-0.015029,0.011437,-0.002219,-0.622071,314.878307,23.807155,0.999519,0.992408,0.003536,0.384701,0.000015,0.000031,0.000015,0.000040,0.000006,59.508322,0.000050,
2491,2068,5.18432379834001,-12.6341796429862,0.0139540100452109,0.001845,-0.018701,0.000888,0.072872,-0.820714,330.314379,21.030494,0.999320,0.978321,0.005789,0.342060,0.000819,0.000678,-0.000107,0.000876,0.000620,-28.268219,0.001504,
2041,3028,-4.78794598240301,8.30574885321226,0.0200262156253075,0.000740,-0.014836,0.013880,-0.009261,-0.605288,315.425371,23.574909,0.999458,0.991473,0.003885,0.445998,0.000018,0.000038,0.000024,0.000054,0.000002,56.305532,0.000064,
2086,2143,-3.67651497491493,-10.9805023868953,0.0081169069585485,-0.002812,-0.016433,0.000170,-0.134857,-0.702435,329.267125,23.582268,0.998973,0.984124,0.005094,0.489927,0.000446,0.000439,0.000100,0.000543,0.000342,43.919485,0.000893,
2146,3298,-2.55526421259162,14.1647227225969,0.0266958545853413,0.001325,-0.015030,0.014082,0.013156,-0.628446,310.563868,24.002242,0.999625,0.994852,0.002945,0.442701,0.000008,0.000051,0.000016,0.000057,0.000003,71.940508,0.000067,
2266,2443,0.197188854742219,-4.41527339516121,-0.00257466143790452,-0.000084,-0.015340,0.001898,-0.015810,-0.658668,323.873228,23.334681,0.999603,0.988961,0.004247,0.331010,0.000107,0.000111,0.000014,0.000123,0.000095,49.586925,0.000219,
2161,2188,-2.04889393733543,-9.99774523027168,0.00383372100225188,-0.002205,-0.016393,0.002192,-0.113480,-0.705099,328.213034,22.992701,0.999734,0.912295,0.009568,0.698464,0.000366,0.000373,0.000064,0.000433,0.000306,46.418150,0.000743,
2251,2443,-0.130321745528416,-4.41634478870033,0.0006658963626478,-0.000515,-0.016434,0.009765,-0.061613,-0.674588,323.880488,23.343268,0.999465,0.989357,0.004211,0.346076,0.000104,0.000110,0.000017,0.000124,0.000090,50.218063,0.000215,
2071,2083,-3.99637283793446,-12.2935330370887,0.00669058563397584,-0.004468,-0.017354,0.005943,-0.227404,-0.724294,330.201658,23.784596,0.998412,0.966576,0.006969,0.349966,0.000563,0.000512,0.000104,0.000644,0.000431,38.120507,0.001082,
2086,3298,-3.85482267514918,14.1593170437154,0.0314540569422093,0.001073,-0.014508,0.011464,0.011651,-0.587458,310.879315,23.656929,0.999578,0.994477,0.003056,0.483008,-0.000011,0.000036,-0.000009,0.000038,-0.000013,-79.374165,0.000038,
2221,2263,-0.752624422181871,-8.35282645648233,0.00514842977287344,-0.001103,-0.016480,0.005114,-0.072881,-0.682789,326.877445,23.108492,0.998960,0.982286,0.005255,0.403224,0.000264,0.000232,0.000039,0.000290,0.000206,34.067356,0.000498,
2056,3193,-4.4865248295287,11.8821237924164,0.0479425798860689,0.001232,-0.014659,0.011180,0.020604,-0.598072,312.908500,23.564545,0.999582,0.993289,0.003287,0.439523,-0.000018,0.000051,-0.000005,0.000052,-0.000018,-85.482294,0.000052,
2281,2758,0.465677772433988,2.45413683891186,-0.0167676484563799,0.000328,-0.015985,0.013217,-0.035092,-0.644687,318.603461,23.793234,0.999345,0.988864,0.004114,0.444969,0.000032,0.000039,0.000010,0.000046,0.000026,54.742672,0.000073,
2311,2428,1.18018024027645,-4.74355545026684,-0.00347588240168761,-0.000030,-0.015958,0.005266,-0.025421,-0.666134,324.049244,23.066788,0.999621,0.989524,0.004175,0.438653,0.000135,0.000115,0.000016,0.000144,0.000106,29.463500,0.000251,
2401,2908,3.04914142571386,5.72415477087551,-0.00465771144916971,0.000747,-0.015855,0.011992,-0.015491,-0.642648,316.256739,24.361222,0.999520,0.990473,0.003908,0.385865,0.000022,-0.000001,0.000022,0.000035,-0.000014,31.081522,0.000036,
2326,2518,1.48934395294056,-2.77663072705163,-0.0101647709377062,-0.000390,-0.015888,0.008018,-0.051670,-0.660775,322.500503,23.274911,0.999312,0.985575,0.004480,0.408122,0.000095,0.000057,0.000034,0.000116,0.000036,30.332495,0.000159,
2176,2038,-1.6958633695286,-13.2862659628251,0.025291692514088,-0.002567,-0.018619,-0.000464,-0.122639,-0.832330,330.742360,23.058451,0.998891,0.983854,0.005100,0.274393,0.000628,0.000585,0.000052,0.000663,0.000551,33.686505,0.001215,
2026,3133,-5.12750135474423,10.5808262357044,0.0383294509410916,0.001296,-0.014304,0.010376,0.026863,-0.566771,313.994591,23.484840,0.999584,0.993970,0.003254,0.452304,-0.000002,0.000057,0.000021,0.000063,-0.000009,72.569717,0.000069,
2266,2743,0.14293285238514,2.12711414718083,-0.015172125306492,0.000711,-0.015233,0.009418,-0.004061,-0.613978,318.913659,23.761433,0.999307,0.988089,0.004153,0.475167,0.000036,0.000032,0.000006,0.000041,0.000027,35.559117,0.000069,
2071,3163,-4.15689629596072,11.2339097369329,0.0464252830346936,0.001144,-0.014508,0.011089,0.016360,-0.596987,313.297310,23.689069,0.999747,0.995002,0.002920,0.395964,-0.000006,0.000049,0.000001,0.000049,-0.000006,88.710940,0.000054,
2056,2068,-4.31961281788596,-12.6230386767547,0.0133565698428129,-0.003822,-0.016805,-0.000030,-0.180533,-0.741592,330.624967,23.874767,0.998496,0.977642,0.005721,0.335908,0.000610,0.000493,0.000115,0.000680,0.000423,31.498247,0.001113,
2251,2608,-0.160012188545242,-0.81513753110729,-0.015697230361468,-0.000260,-0.015181,0.004717,-0.032954,-0.646758,321.099622,23.516688,0.999309,0.985570,0.004635,0.468768,0.000054,0.000037,0.000030,0.000077,0.000014,36.697344,0.000098,
2221,2488,-0.791601956830778,-3.43428908618165,-0.00512990146484071,-0.000462,-0.015688,0.006877,-0.048851,-0.648535,323.181078,23.410078,0.999322,0.986776,0.004482,0.445340,0.000083,0.000068,0.000023,0.000100,0.000051,36.303498,0.000153,
2476,2053,4.86031635433782,-12.9663096910688,0.0288103101817683,0.001756,-0.019573,0.002130,0.063870,-0.873559,330.631073,21.007058,0.999328,0.981359,0.005430,0.347889,0.000826,0.000679,-0.000067,0.000852,0.000652,-21.219942,0.001509,
2086,3028,-3.81209388922622,8.30878510803376,0.0180619153912858,0.000879,-0.014653,0.011288,0.003133,-0.591784,315.170008,23.688218,0.999509,0.992292,0.003490,0.487043,0.000019,0.000035,0.000021,0.000050,0.000004,55.409862,0.000060,
2131,2053,-2.68119303815332,-12.9547243915047,0.0146724169803747,-0.003121,-0.017853,-0.001628,-0.144236,-0.786345,330.554487,23.337853,0.998731,0.979529,0.005599,0.347460,0.000592,0.000565,0.000074,0.000654,0.000503,39.954212,0.001160,
2131,3178,-2.85903987651563,11.5631008472788,0.0416522603569547,0.001132,-0.014836,0.008577,0.021577,-0.599354,312.724595,23.864060,0.999266,0.987305,0.004123,0.489647,0.000004,0.000038,0.000007,0.000039,0.000002,79.371701,0.000047,
2101,1993,-3.32595444081643,-14.27248210303,0.0323348168893176,-0.004383,-0.018250,-0.006557,-0.187782,-0.833896,331.750627,23.551238,0.999549,0.990346,0.004412,0.259967,0.000751,0.000619,0.000084,0.000792,0.000578,25.907819,0.001375,
2041,3193,-4.81125622691762,11.8808924501472,0.0487942407425521,0.001294,-0.014550,0.009469,0.028793,-0.584229,313.012155,23.484698,0.999656,0.993309,0.003318,0.462138,-0.000024,0.000058,-0.000010,0.000059,-0.000025,-83.305614,0.000059,
2071,3238,-4.16801806382842,12.8574054182133,0.0551132035211026,0.001575,-0.014801,0.011596,0.034738,-0.605269,312.162932,23.604210,0.999429,0.993254,0.003383,0.450129,-0.000010,0.000034,-0.000009,0.000036,-0.000012,-78.457152,0.000037,
2176,2218,-1.72630351788168,-9.3384513654651,0.0113164493193949,-0.001778,-0.016998,0.007011,-0.109155,-0.726069,327.744563,23.283565,0.998594,0.979322,0.005621,0.338952,0.000317,0.000327,0.000054,0.000376,0.000268,47.854567,0.000647,
2146,2113,-2.36270574812376,-11.6411506862203,0.031818423193215,-0.002961,-0.017356,0.003271,-0.151531,-0.740387,329.667774,23.291239,0.999436,0.983945,0.004995,0.386943,0.000496,0.000514,0.000075,0.000581,0.000429,48.384562,0.001013,
2506,2248,5.47429700318373,-8.68485267706804,0.0171841711547813,0.000858,-0.016567,0.000865,0.028722,-0.733237,327.432337,21.713854,0.998773,0.979445,0.005774,0.417038,0.000442,0.000360,-0.000062,0.000475,0.000327,-28.057695,0.000806,
2116,3133,-3.17787431584673,10.5881554660228,0.0303515963118457,0.001030,-0.014706,0.012717,0.004869,-0.604307,313.414971,23.881977,0.999861,0.996818,0.002676,0.391005,0.000006,0.000025,0.000008,0.000028,0.000003,69.797090,0.000034,
2056,3208,-4.48841647671518,12.2068084474827,0.0503606234677818,0.001447,-0.014457,0.009008,0.036756,-0.589737,312.699686,23.540006,0.999524,0.993359,0.003278,0.465878,-0.000018,0.000051,-0.000007,0.000052,-0.000018,-83.983112,0.000053,
2236,2548,-0.476153140581904,-2.12324813370634,-0.0187421894571003,-0.000175,-0.015581,0.006272,-0.034037,-0.658183,322.075882,23.493717,0.999695,0.992194,0.003578,0.408210,0.000067,0.000050,0.000026,0.000086,0.000031,36.199066,0.000121,
2416,2968,3.36470636737819,7.02910356038209,0.00135191409481195,0.000947,-0.015494,0.008002,0.007965,-0.639844,315.366900,24.555108,0.999823,0.993845,0.003370,0.412439,0.000026,0.000006,0.000022,0.000040,-0.000009,32.732756,0.000042,
2341,2638,1.79417025745282,-0.158458218907384,-0.00983141603313697,0.000124,-0.015507,0.008312,-0.029275,-0.634370,320.573707,23.509463,0.999377,0.986858,0.004429,0.470563,0.000054,0.000025,0.000029,0.000072,0.000007,31.765054,0.000087,
2266,2458,0.193109431050438,-4.08632544232736,-0.0135461677293733,-0.000326,-0.015695,0.006920,-0.043664,-0.647000,323.510666,23.372020,0.999725,0.990354,0.004055,0.332626,0.000101,0.000092,0.000018,0.000115,0.000078,38.638663,0.000194,
2356,2668,2.11498852500246,0.496173382641153,-0.0120758407193193,0.000221,-0.015567,0.009125,-0.028065,-0.632393,320.068449,23.565418,0.999475,0.988994,0.004252,0.484311,0.000042,0.000034,0.000024,0.000062,0.000013,40.408428,0.000081,
2236,2323,-0.436248982761274,-7.03950225587074,-0.00672335670446955,-0.000487,-0.016033,0.004747,-0.043534,-0.677520,325.806148,23.083882,0.998491,0.985547,0.004960,0.460140,0.000202,0.000177,0.000025,0.000218,0.000161,31.784402,0.000381,
2476,2068,4.85750821203553,-12.6364335685545,0.0306413094185132,0.001670,-0.018703,-0.000195,0.069113,-0.834636,330.409133,21.088780,0.999336,0.978904,0.005678,0.365054,0.000789,0.000670,-0.000075,0.000825,0.000634,-25.707120,0.001463,
2206,2188,-1.06658814628105,-9.99629174619012,0.014545146675971,-0.001700,-0.016783,0.002122,-0.090642,-0.729632,328.184757,23.069367,0.998766,0.981059,0.005437,0.365502,0.000366,0.000376,0.000049,0.000420,0.000322,48.031651,0.000745,
2371,2743,2.42710216005494,2.13196762294172,-0.0213656083883507,0.000634,-0.015527,0.007286,-0.002927,-0.644168,318.799416,23.792394,0.999444,0.989781,0.003914,0.445734,0.000024,0.000053,0.000019,0.000063,0.000014,63.611685,0.000082,
2491,2083,5.18155221803212,-12.3053140065143,0.015546987253515,0.001547,-0.017592,-0.004816,0.081519,-0.791463,330.094316,21.033564,0.999372,0.978030,0.005628,0.430377,0.000781,0.000671,-0.000106,0.000845,0.000606,-31.281519,0.001458,
2296,2668,0.80893798327725,0.49460942194181,-0.0111191203892531,0.000095,-0.015564,0.007875,-0.028110,-0.647229,320.102830,23.675270,0.999618,0.989804,0.003949,0.385665,0.000045,0.000050,0.000023,0.000071,0.000024,47.842713,0.000099,
2056,3223,-4.49074880526357,12.5314883317822,0.0523042811527716,0.001505,-0.014485,0.010935,0.033972,-0.589672,312.468052,23.524034,0.999478,0.993350,0.003254,0.475014,-0.000018,0.000050,-0.000012,0.000052,-0.000020,-80.398898,0.000053,
2191,2128,-1.38298340118722,-11.3113739653398,0.0142278324516951,-0.001403,-0.016760,-0.002973,-0.060910,-0.761466,329.219434,23.033918,0.998666,0.979837,0.005586,0.377125,0.000464,0.000500,0.000067,0.000551,0.000412,52.604379,0.000967,
2101,3268,-3.5232313345183,13.5105981972077,0.0455849318827291,0.001888,-0.014582,0.010773,0.050811,-0.592733,311.452171,23.773514,0.999781,0.995939,0.002814,0.448456,-0.000015,0.000019,-0.000004,0.000020,-0.000016,-83.444368,0.000021,
2431,3148,3.65671885811235,10.9392786925177,0.0178979732505127,0.001054,-0.015051,0.008878,0.009517,-0.626802,312.580420,25.181906,0.999688,0.993007,0.003332,0.424779,0.000024,0.000033,0.000018,0.000047,0.000011,51.548110,0.000061,
2191,2278,-1.40886688627899,-8.02422436324508,0.00398440566317504,-0.001064,-0.016009,0.002144,-0.061157,-0.689714,326.717725,23.286301,0.998784,0.980897,0.005451,0.367321,0.000243,0.000233,0.000038,0.000276,0.000200,41.210096,0.000478,
2041,3208,-4.81348765681287,12.2054411884229,0.0492990481658921,0.001293,-0.014500,0.007751,0.033509,-0.597605,312.776217,23.457794,0.999521,0.992854,0.003374,0.466879,-0.000025,0.000057,-0.000013,0.000059,-0.000027,-81.325349,0.000059,
2131,2068,-2.68317362866476,-12.6265266617071,0.0274289223482356,-0.003246,-0.017731,0.003053,-0.163897,-0.748079,330.400031,23.384777,0.998138,0.974329,0.006179,0.347403,0.000565,0.000556,0.000079,0.000639,0.000482,43.299463,0.001124,
2041,3043,-4.78979000282687,8.63069305723443,0.026604040462928,0.000881,-0.014886,0.014591,-0.004707,-0.593218,315.240513,23.558295,0.999692,0.994362,0.003170,0.466266,0.000016,0.000039,0.000018,0.000048,0.000006,61.812529,0.000060,
2071,2098,-3.99678466746373,-11.9663237047324,0.0255769451281935,-0.004100,-0.016713,0.000956,-0.196196,-0.720251,330.149177,23.850829,0.998283,0.975488,0.006014,0.286824,0.000535,0.000502,0.000103,0.000623,0.000415,40.373349,0.001044,
2476,2083,4.85358966925225,-12.3059569461863,0.0222136450319113,0.001566,-0.018423,0.000289,0.062643,-0.809176,330.089913,21.130947,0.999381,0.979657,0.005500,0.408718,0.000751,0.000661,-0.000077,0.000795,0.000617,-29.795730,0.001416,
2146,2128,-2.36456279143891,-11.3114775347727,0.0264603432036097,-0.002312,-0.016908,-0.000878,-0.109133,-0.744679,329.424195,23.336371,0.999270,0.981663,0.005266,0.348403,0.000470,0.000490,0.000075,0.000556,0.000405,48.693391,0.000964,
2176,2053,-1.6985012360919,-12.9567204557317,0.022426176849649,-0.002436,-0.018395,0.001017,-0.121190,-0.780593,330.478829,23.036006,0.999165,0.983523,0.004935,0.364441,0.000596,0.000579,0.000059,0.000647,0.000527,40.890455,0.001177,
2056,3238,-4.492707505339,12.8559402474168,0.0587716937468485,0.001643,-0.014885,0.012567,0.035597,-0.604857,312.278714,23.531249,0.999539,0.994085,0.003173,0.445911,-0.000017,0.000035,-0.000012,0.000037,-0.000019,-77.641298,0.000037,
2161,1993,-2.01678476275763,-14.2725205497045,0.023053998581986,-0.003596,-0.018389,-0.003980,-0.158965,-0.813783,331.458917,23.149093,0.999056,0.982405,0.005256,0.260560,0.000752,0.000637,0.000063,0.000780,0.000609,23.803458,0.001393,
2056,2083,-4.3228031808124,-12.2934157653593,0.0066353970904629,-0.004141,-0.017231,0.003404,-0.205005,-0.740689,330.304157,23.877640,0.998747,0.979571,0.005483,0.332347,0.000576,0.000509,0.000115,0.000662,0.000423,36.821542,0.001093,
2086,2158,-3.67921634960681,-10.650830351334,0.00600658039667223,-0.002952,-0.016749,0.001914,-0.146416,-0.728114,328.996774,23.695417,0.998943,0.983112,0.005233,0.353216,0.000424,0.000412,0.000090,0.000508,0.000328,43.127956,0.000842,
2101,3058,-3.49081947568232,8.95967883989684,0.0268264816204464,0.001086,-0.014735,0.009987,0.015954,-0.607926,314.692195,23.717973,0.999602,0.993695,0.003373,0.488578,0.000015,0.000028,0.000014,0.000037,0.000006,57.459166,0.000046,
2071,3253,-4.17082860336292,13.1829656851577,0.050414912376084,0.001528,-0.014682,0.012424,0.030256,-0.599719,311.873459,23.634080,0.999656,0.994762,0.003063,0.421030,-0.000008,0.000029,-0.000013,0.000033,-0.000012,-72.193011,0.000034,
2086,3283,-3.85119194094669,13.8338120301096,0.045264533769739,0.001519,-0.014852,0.013595,0.025926,-0.602357,311.255078,23.677214,0.999589,0.994862,0.003022,0.450307,-0.000014,0.000025,-0.000007,0.000026,-0.000015,-79.395286,0.000026,
2326,2533,1.48657247532133,-2.44938524305655,-0.0122242964119437,-0.000300,-0.015761,0.007003,-0.044002,-0.659866,322.247862,23.276071,0.999426,0.985548,0.004471,0.443354,0.000090,0.000054,0.000030,0.000107,0.000037,29.549433,0.000149,
2161,2203,-2.05151249812837,-9.66590541793053,0.00583077125611453,-0.002298,-0.016806,0.004753,-0.125708,-0.702538,327.974201,23.336580,0.998861,0.960956,0.006722,0.369837,0.000345,0.000348,0.000061,0.000407,0.000286,45.846862,0.000696,
2176,2233,-1.72872678082588,-9.01005635104721,0.00944939669483347,-0.001616,-0.016796,0.006591,-0.100368,-0.684277,327.496115,23.244041,0.998788,0.982127,0.005209,0.435116,0.000292,0.000299,0.000048,0.000344,0.000247,47.282242,0.000593,
2221,2503,-0.794376580481963,-3.10623530477034,-0.00913766120686432,-0.000293,-0.015266,0.007867,-0.044128,-0.634386,322.909279,23.442508,0.999413,0.987048,0.004406,0.447363,0.000077,0.000057,0.000026,0.000095,0.000040,34.433548,0.000138,
2041,3223,-4.81590397605905,12.5302872982838,0.0506957504633192,0.001371,-0.014692,0.011203,0.027366,-0.602617,312.536658,23.458780,0.999437,0.992991,0.003335,0.451951,-0.000025,0.000055,-0.000018,0.000059,-0.000029,-77.760901,0.000059,
2281,2773,0.463507383142332,2.78065954145389,-0.0135712712126406,0.000298,-0.015523,0.008577,-0.020752,-0.635887,318.400372,23.837554,0.999241,0.987659,0.004316,0.437185,0.000032,0.000039,0.000010,0.000046,0.000025,55.474268,0.000072,
2296,2833,0.77956413229683,4.0868394258956,-0.00688348219358659,0.000656,-0.015428,0.009360,-0.007290,-0.639655,317.474938,24.001194,0.999708,0.992346,0.003645,0.398317,0.000027,0.000034,0.000014,0.000045,0.000016,51.630495,0.000064,
2401,2923,3.04670955049634,6.04950117913305,-0.000538776923633577,0.000798,-0.015493,0.010629,-0.008088,-0.631814,316.053988,24.344016,0.999526,0.990547,0.003896,0.459044,0.000023,-0.000003,0.000021,0.000035,-0.000015,29.269835,0.000035,
2491,2098,5.1803009208489,-11.9784523910102,0.0398183626481341,0.001694,-0.018130,-0.000703,0.072323,-0.818946,330.045969,21.164217,0.999540,0.983846,0.005069,0.333002,0.000740,0.000648,-0.000113,0.000816,0.000573,-33.921293,0.001396,
2206,2398,-1.10268340994422,-5.40038311382283,0.00145332358948735,-0.000784,-0.016203,0.007611,-0.065812,-0.640130,324.712788,23.334919,0.999390,0.988258,0.004383,0.453108,0.000118,0.000132,0.000018,0.000144,0.000106,56.287816,0.000251,
2071,3178,-4.15921761372121,11.5582358868995,0.0474168520646572,0.001185,-0.014762,0.011350,0.017437,-0.604150,313.061996,23.631717,0.999836,0.996258,0.002665,0.441608,-0.000005,0.000051,0.000003,0.000051,-0.000005,86.932724,0.000056,
2386,2803,2.74162313674676,3.43945975409047,-0.0253795387324089,0.000614,-0.015352,0.008523,-0.008498,-0.628433,317.790858,23.945956,0.999847,0.994755,0.003415,0.485957,0.000022,0.000040,0.000016,0.000049,0.000012,59.260828,0.000065,
2041,3058,-4.79141436648187,8.955497602848,0.0335485927990362,0.001090,-0.014767,0.013144,0.009011,-0.588763,315.067861,23.541867,0.999698,0.994066,0.003208,0.478711,0.000011,0.000044,0.000018,0.000052,0.000003,66.316977,0.000062,
2281,2563,0.500862461293963,-1.79563826959063,-0.0158049889578251,-0.000313,-0.015393,0.006058,-0.040388,-0.649472,321.773435,23.398265,0.999251,0.987947,0.004486,0.468434,0.000064,0.000048,0.000022,0.000079,0.000033,34.906843,0.000116,
2311,2443,1.17771568909448,-4.41750387112866,0.00733860765092231,-0.000281,-0.016205,0.008935,-0.049563,-0.666624,323.873143,23.049801,0.999498,0.988312,0.004397,0.488403,0.000129,0.000107,0.000020,0.000141,0.000095,30.712616,0.000238,
2251,2458,-0.132864579366224,-4.08885684877083,-0.00106714961628995,-0.000409,-0.016014,0.008139,-0.051272,-0.664865,323.633723,23.333990,0.999755,0.990846,0.004040,0.389933,0.000098,0.000093,0.000021,0.000116,0.000074,41.802172,0.000192,
2431,3163,3.6547742801662,11.2644819691051,0.0272752006982842,0.001518,-0.015091,0.011291,0.021997,-0.611022,312.425560,25.237211,0.999655,0.992119,0.003535,0.433949,0.000024,0.000041,0.000020,0.000055,0.000011,56.016518,0.000070,
2101,3283,-3.52649511999551,13.835516287457,0.0349419780184803,0.001755,-0.014582,0.010496,0.045404,-0.603531,311.112202,23.737600,0.999724,0.996113,0.002800,0.473200,-0.000018,0.000025,0.000002,0.000025,-0.000018,87.168157,0.000026,
2101,2008,-3.32792787074674,-13.9464732928632,0.0381358797279745,-0.004112,-0.019051,-0.001656,-0.189898,-0.857067,331.557990,23.360936,0.999621,0.990856,0.004433,0.431807,0.000708,0.000613,0.000084,0.000757,0.000564,30.233209,0.001326,
2041,2083,-4.64888859025377,-12.2944634452906,0.0170224911367427,-0.004327,-0.016454,-0.002102,-0.197871,-0.736274,330.482659,23.958861,0.999213,0.986355,0.004642,0.346997,0.000578,0.000518,0.000124,0.000675,0.000421,38.091864,0.001106,
2506,2263,5.47039372223994,-8.35509148812707,0.013948880636633,0.000784,-0.017029,0.005855,0.005912,-0.730201,327.139120,21.838536,0.998559,0.974795,0.006065,0.359240,0.000412,0.000306,-0.000061,0.000440,0.000278,-24.464923,0.000724,
2086,3043,-3.81406728729628,8.6332507809895,0.0306019133760742,0.000571,-0.014746,0.011972,-0.013124,-0.598934,315.014467,23.687046,0.999583,0.991832,0.003575,0.478949,0.000017,0.000033,0.000016,0.000042,0.000008,58.068379,0.000054,
2071,3268,-4.17380838748997,13.5082692713706,0.0395827848836916,0.001612,-0.014387,0.011905,0.035720,-0.585492,311.542581,23.602239,0.999770,0.995970,0.002801,0.462700,-0.000007,0.000025,-0.000014,0.000030,-0.000012,-69.355940,0.000030,
2221,2278,-0.754958905665578,-8.02526964368082,0.0119013391065437,-0.001166,-0.016947,0.007485,-0.083514,-0.701540,326.681461,23.157179,0.998920,0.983133,0.005121,0.356859,0.000250,0.000226,0.000035,0.000276,0.000201,35.554314,0.000479,
2236,2563,-0.477681371796226,-1.79815437481552,-0.00630068460651501,0.000019,-0.015146,0.006167,-0.024591,-0.638260,321.946803,23.415334,0.999685,0.992172,0.003531,0.528053,0.000060,0.000054,0.000024,0.000082,0.000032,41.094777,0.000118,
2476,2098,4.85035112092782,-11.9755833934802,0.0196728631638621,0.001287,-0.017848,-0.003641,0.065004,-0.801872,329.828464,21.252977,0.999335,0.978663,0.005615,0.353997,0.000710,0.000634,-0.000088,0.000767,0.000576,-33.286366,0.001348,
2041,3238,-4.81807949261892,12.8547589202539,0.0525305135196277,0.001533,-0.015003,0.012490,0.031177,-0.610733,312.310764,23.434362,0.999518,0.994411,0.003092,0.459202,-0.000024,0.000039,-0.000020,0.000045,-0.000030,-73.690215,0.000046,
2086,2173,-3.68082816982723,-10.3230879369782,0.0108378936883469,-0.002563,-0.016775,0.001890,-0.128530,-0.714311,328.813967,23.672299,0.998961,0.983387,0.005092,0.391597,0.000404,0.000380,0.000089,0.000482,0.000303,41.111093,0.000791,
2176,2068,-1.70059701173799,-12.6282715414365,0.0251744888486769,-0.002248,-0.018048,0.001030,-0.112466,-0.781571,330.269738,23.034234,0.999362,0.984030,0.005029,0.380591,0.000567,0.000563,0.000063,0.000628,0.000502,44.191060,0.001133,
2131,2083,-2.6866039500136,-12.2961788082441,0.0100990361213462,-0.003267,-0.017629,0.001290,-0.159557,-0.769402,330.019514,23.359464,0.998511,0.978273,0.005823,0.361098,0.000540,0.000547,0.000082,0.000625,0.000462,46.283996,0.001091,
2101,2218,-3.36114388059515,-9.33658763176008,0.00523544188746428,-0.002176,-0.016001,0.004002,-0.116829,-0.653391,327.982554,23.637331,0.998138,0.980548,0.005700,0.420324,0.000337,0.000328,0.000075,0.000408,0.000257,43.370227,0.000671,
2131,3193,-2.86145135906062,11.8881073383486,0.0435446806291111,0.001302,-0.014976,0.011649,0.020019,-0.620295,312.493729,23.893786,0.999553,0.991580,0.003541,0.443484,0.000000,0.000034,0.000003,0.000034,0.000000,84.675100,0.000039,
2056,3253,-4.49556036867988,13.1813361928526,0.057501053605165,0.001260,-0.014833,0.012479,0.018133,-0.609331,312.005157,23.574488,0.999732,0.995326,0.002963,0.391168,-0.000012,0.000029,-0.000016,0.000034,-0.000018,-71.156010,0.000034,
2101,2023,-3.3309371188019,-13.6140056039413,0.0286616168584715,-0.003863,-0.018566,0.003260,-0.192669,-0.798851,331.234485,23.509813,0.999227,0.985638,0.005207,0.346432,0.000666,0.000567,0.000069,0.000701,0.000532,27.065998,0.001237,
2206,2203,-1.0689546257778,-9.66587373045348,0.00586651164974228,-0.001123,-0.015991,-0.000893,-0.054396,-0.697811,327.906275,23.142605,0.998736,0.980620,0.005545,0.343811,0.000345,0.000352,0.000048,0.000396,0.000301,47.211788,0.000699,
2071,3283,-4.17678985178244,13.8330493076776,0.0315337540170049,0.001588,-0.014623,0.012440,0.033035,-0.593987,311.227140,23.565132,0.999722,0.996105,0.002805,0.486391,-0.000010,0.000029,-0.000009,0.000031,-0.000012,-78.426358,0.000032,
2401,2938,3.04414702183078,6.37526204601625,0.00367798289227039,0.000829,-0.015187,0.010733,-0.006912,-0.617480,315.845516,24.365824,0.999527,0.990611,0.003908,0.496561,0.000023,0.000002,0.000018,0.000033,-0.000008,29.743091,0.000035,
2251,2623,-0.162173313533891,-0.488853988019898,-0.00885127865882396,0.000015,-0.015639,0.008520,-0.032928,-0.647236,320.913699,23.535471,0.999160,0.986369,0.004552,0.473373,0.000050,0.000044,0.000029,0.000076,0.000018,42.000741,0.000100,
2161,2008,-2.01921411739765,-13.9440253958279,0.0230514989420953,-0.003414,-0.018374,-0.001306,-0.158757,-0.806904,331.218931,23.091018,0.998807,0.984357,0.005166,0.339346,0.000705,0.000632,0.000063,0.000742,0.000596,29.865631,0.001340,
2266,2758,0.13955971664608,2.45451225742352,-0.0221007801484348,0.000711,-0.015312,0.011900,-0.012331,-0.607475,318.603222,23.804055,0.999240,0.988041,0.004242,0.464596,0.000034,0.000036,0.000005,0.000040,0.000030,48.748315,0.000070,
2236,2338,-0.439070924657269,-6.71215396863735,0.00606225373269353,-0.001187,-0.016601,0.010614,-0.094802,-0.685774,325.619408,23.182198,0.998887,0.985886,0.004880,0.376283,0.000184,0.000176,0.000021,0.000201,0.000159,39.345770,0.000361,
2506,2278,5.46687247663376,-8.02609222136074,0.00784583448319154,0.000457,-0.016463,0.000631,0.011306,-0.732064,326.850664,21.874926,0.998838,0.975254,0.005770,0.384616,0.000382,0.000280,-0.000038,0.000394,0.000267,-18.257990,0.000666,
2491,2113,5.17716306750106,-11.6505473844705,0.0456111592376942,0.001345,-0.018237,0.001529,0.047785,-0.802137,329.827937,21.146699,0.999547,0.984188,0.005017,0.429187,0.000699,0.000622,-0.000116,0.000783,0.000538,-35.841628,0.001329,
2116,3148,-3.18017337532849,10.9121910399175,0.0361823109314514,0.001020,-0.014704,0.015702,-0.004342,-0.574684,313.209835,23.785188,0.999725,0.994805,0.003049,0.519884,0.000005,0.000027,0.000007,0.000029,0.000003,73.910853,0.000035,
2371,2758,2.42400745588164,2.45973272997648,-0.025993652314412,0.000572,-0.014949,0.004724,0.003556,-0.630640,318.522374,23.881805,0.999052,0.986095,0.004358,0.411183,0.000025,0.000056,0.000017,0.000064,0.000018,65.747570,0.000086,
2101,3073,-3.49299341656826,9.28564188153238,0.0272998868339869,0.001209,-0.014671,0.008168,0.026993,-0.610624,314.462167,23.778602,0.999521,0.991063,0.003771,0.425506,0.000012,0.000034,0.000013,0.000040,0.000006,65.191821,0.000051,
2056,2098,-4.32447267538032,-11.9653733342744,0.00821807851872336,-0.003926,-0.016669,-0.000719,-0.183426,-0.721219,330.098489,23.814991,0.998730,0.979513,0.005560,0.412072,0.000545,0.000499,0.000114,0.000639,0.000405,39.244420,0.001053,
2026,3148,-5.12963451830983,10.9049191620098,0.0463540429519185,0.001118,-0.014345,0.012116,0.013847,-0.566542,313.804298,23.433325,0.999643,0.994633,0.003120,0.492994,-0.000010,0.000045,0.000013,0.000048,-0.000013,77.720071,0.000049,
2071,3193,-4.16166719893766,11.8836351637328,0.0491624756405713,0.001198,-0.014675,0.013933,0.010725,-0.593011,312.824528,23.663080,0.999611,0.994359,0.003063,0.417017,-0.000009,0.000047,-0.000003,0.000047,-0.000009,-86.548359,0.000050,
2266,2473,0.190976878067634,-3.76118655315213,-0.0030722684958846,-0.000499,-0.015748,0.007726,-0.054255,-0.646767,323.345683,23.275898,0.999793,0.991567,0.003846,0.455524,0.000098,0.000078,0.000022,0.000113,0.000063,32.866702,0.000178,
2311,2458,1.17437611899325,-4.08841365008188,-0.00346457705308012,-0.000160,-0.015887,0.007514,-0.039025,-0.654529,323.550094,23.101082,0.999432,0.987357,0.004545,0.483272,0.000119,0.000092,0.000026,0.000134,0.000076,31.363625,0.000213,
2161,2218,-2.05327302853291,-9.33802313996847,0.0110527365654889,-0.001856,-0.016885,0.006155,-0.109775,-0.717795,327.792300,23.375485,0.998844,0.979489,0.005466,0.327775,0.000320,0.000324,0.000055,0.000377,0.000267,45.927016,0.000647,
2341,2653,1.79062949678915,0.169657100873657,-0.0213722393916669,0.000230,-0.015528,0.007630,-0.022014,-0.637217,320.240420,23.553899,0.999459,0.988297,0.004295,0.460639,0.000051,0.000026,0.000026,0.000067,0.000010,32.078593,0.000083,
2281,2578,0.499640348173664,-1.46943062638078,-0.00496639519650444,0.000209,-0.015251,0.003803,-0.008804,-0.641702,321.652455,23.424387,0.999017,0.986196,0.004792,0.478358,0.000067,0.000051,0.000026,0.000086,0.000032,36.325749,0.000122,
2416,2983,3.36176408168942,7.35428289034826,0.00450024369797575,0.000924,-0.015402,0.010862,-0.003481,-0.623502,315.136873,24.525813,0.999847,0.994090,0.003304,0.505241,0.000028,0.000007,0.000022,0.000042,-0.000007,32.544653,0.000045,
2116,2293,-3.04579002570133,-7.69493154614413,-9.70500040011757E-05,-0.001490,-0.015295,0.001930,-0.079216,-0.636660,326.700027,23.629758,0.998732,0.985878,0.004945,0.401035,0.000259,0.000214,0.000049,0.000290,0.000183,32.668196,0.000477,
2071,2113,-3.9984971067505,-11.6371246370613,0.0217373055195935,-0.003286,-0.016536,0.001165,-0.159392,-0.708916,329.913093,23.846953,0.998664,0.980839,0.005520,0.302032,0.000511,0.000482,0.000101,0.000599,0.000395,40.979295,0.001000,
2056,3268,-4.49830133122842,13.5060578688756,0.0541061001168828,0.001172,-0.014668,0.013238,0.011995,-0.601736,311.725262,23.535759,0.999721,0.995191,0.002914,0.430600,-0.000011,0.000024,-0.000014,0.000029,-0.000016,-70.276386,0.000029,
2191,2143,-1.38613433431606,-10.9825225840985,0.0179850969680047,-0.001927,-0.017049,0.002433,-0.101942,-0.728764,328.968235,23.073195,0.998926,0.981817,0.005318,0.387982,0.000431,0.000463,0.000070,0.000519,0.000375,51.412749,0.000898,
2071,3298,-4.17937127272787,14.1580193495762,0.0303244585473408,0.001506,-0.014583,0.012420,0.029322,-0.594353,310.967619,23.578945,0.999456,0.994439,0.003168,0.467556,-0.000008,0.000039,-0.000008,0.000041,-0.000010,-80.401327,0.000042,
2101,3298,-3.52970476175918,14.1605798028429,0.0277111988287402,0.001440,-0.014429,0.009912,0.032715,-0.586905,310.793178,23.711275,0.999587,0.994349,0.003168,0.515807,-0.000015,0.000038,0.000005,0.000039,-0.000015,84.974054,0.000039,
2221,2518,-0.796672820592089,-2.77945675256022,-0.00628539817597584,-0.000281,-0.015066,0.006684,-0.039741,-0.628687,322.694822,23.433722,0.999342,0.985926,0.004482,0.481498,0.000075,0.000056,0.000031,0.000097,0.000033,36.293886,0.000136,
2296,2848,0.776661415460627,4.41202076723713,-0.0043388106280986,0.000524,-0.015538,0.012331,-0.023421,-0.623090,317.236187,23.930159,0.999670,0.992438,0.003679,0.515747,0.000028,0.000038,0.000016,0.000049,0.000016,54.190755,0.000068,
2176,2248,-1.73083900840074,-8.6813164047652,0.00489987423475213,-0.001378,-0.016002,-0.000002,-0.068813,-0.675966,327.247983,23.247280,0.998800,0.981145,0.005340,0.454860,0.000271,0.000274,0.000047,0.000319,0.000226,45.987114,0.000548,
2086,2188,-3.68292649345161,-9.9937225576376,0.00636735157655721,-0.002317,-0.015737,-0.002046,-0.105570,-0.685896,328.558166,23.689374,0.998747,0.982884,0.005288,0.404823,0.000382,0.000361,0.000090,0.000462,0.000281,41.668761,0.000750,
2101,2038,-3.3339101421778,-13.2848226379427,0.0148012280762941,-0.003794,-0.018338,0.000740,-0.182193,-0.765072,330.889668,23.341694,0.999341,0.984959,0.005302,0.553755,0.000634,0.000538,0.000071,0.000672,0.000500,27.909241,0.001176,
2191,2293,-1.41135657225669,-7.69583429279766,0.00301243943260943,-0.001026,-0.015631,0.001261,-0.056525,-0.652790,326.472159,23.282223,0.998847,0.982328,0.005267,0.424932,0.000228,0.000220,0.000039,0.000263,0.000186,42.162412,0.000451,
2431,3178,3.65237158807316,11.5889994247118,0.034866160341835,0.001470,-0.015259,0.011264,0.019715,-0.635609,312.241443,25.261574,0.999635,0.991720,0.003567,0.433579,0.000027,0.000040,0.000020,0.000054,0.000013,54.360902,0.000072,
2476,2113,4.8462035844079,-11.6459967715994,0.0159468887292178,0.000936,-0.018255,0.001342,0.029912,-0.789183,329.519924,21.290843,0.999260,0.976265,0.005931,0.388847,0.000669,0.000612,-0.000091,0.000736,0.000545,-36.204583,0.001286,
2356,2683,2.11192141217584,0.824379340510461,-0.0195573399814748,0.000400,-0.015409,0.006823,-0.011650,-0.632900,319.777874,23.660501,0.999496,0.989820,0.004020,0.428086,0.000037,0.000044,0.000023,0.000064,0.000018,49.332797,0.000086,
2116,2053,-3.00868995705449,-12.9547231781905,0.0149654926269704,-0.003330,-0.017901,0.001015,-0.161643,-0.767716,330.602776,23.389780,0.998695,0.979294,0.005509,0.410870,0.000591,0.000561,0.000071,0.000649,0.000503,38.980234,0.001155,
2251,2473,-0.135006991554299,-3.76261883706219,0.00576557741715078,-0.000430,-0.015766,0.007763,-0.050906,-0.648042,323.448780,23.287258,0.999672,0.990558,0.003995,0.477712,0.000093,0.000077,0.000025,0.000112,0.000059,36.257772,0.000174,
2506,2293,5.46366656052208,-7.69714060404409,0.0093280486349272,0.000317,-0.016398,0.001431,0.001851,-0.721659,326.610319,21.977071,0.999263,0.976981,0.005540,0.355907,0.000354,0.000234,-0.000020,0.000357,0.000231,-9.291083,0.000593,
2326,2548,1.48384815767007,-2.12170199474608,-0.0145675458586538,-0.000009,-0.015577,0.007706,-0.032964,-0.630272,321.995769,23.291284,0.999143,0.983768,0.004833,0.493074,0.000080,0.000048,0.000027,0.000096,0.000032,29.499992,0.000133,
2401,2953,3.04070509450083,6.70180752053231,-0.000879205771809666,0.000728,-0.015575,0.011410,-0.014155,-0.635096,315.554913,24.434167,0.999594,0.991257,0.003811,0.455563,0.000025,0.000004,0.000019,0.000036,-0.000008,30.580636,0.000038,
2206,2413,-1.10334034669971,-5.07235742747496,0.0165682834272047,-0.000032,-0.015058,0.006118,-0.026179,-0.616851,324.635276,23.505061,0.999640,0.991471,0.003899,0.324150,0.000107,0.000119,0.000011,0.000126,0.000100,59.206024,0.000227,
2041,3253,-4.82069836619175,13.1795085672432,0.0530653379468049,0.001269,-0.014693,0.012730,0.018415,-0.597346,312.057191,23.410416,0.999624,0.994210,0.003021,0.487504,-0.000020,0.000033,-0.000027,0.000044,-0.000031,-67.515576,0.000045,
2086,1993,-3.65390013638576,-14.2715706974834,0.0254459984391247,-0.004601,-0.018275,-0.005033,-0.202391,-0.808871,331.750262,23.599079,0.999000,0.983069,0.005217,0.342882,0.000746,0.000613,0.000100,0.000800,0.000559,28.230303,0.001366,
2101,2233,-3.36302013260896,-9.00872252666244,0.00498597644372012,-0.001914,-0.015768,0.000552,-0.094689,-0.662524,327.761531,23.615878,0.998506,0.982305,0.005354,0.436151,0.000319,0.000302,0.000070,0.000381,0.000240,41.662792,0.000627,
2266,2773,0.137501522436541,2.78115330267619,-0.0200468548041499,0.000851,-0.014904,0.007181,0.009879,-0.614395,318.398503,23.866114,0.999181,0.986959,0.004362,0.421138,0.000032,0.000036,0.000006,0.000040,0.000028,53.153651,0.000069,
2386,2818,2.73888176372138,3.76578054633145,-0.0198499847750213,0.000567,-0.015548,0.011480,-0.021333,-0.625497,317.579746,24.010156,0.999663,0.991462,0.003884,0.467636,0.000022,0.000033,0.000015,0.000044,0.000011,55.765047,0.000058,
2131,3208,-2.86324588873648,12.2131033362671,0.0493695315755645,0.001505,-0.014772,0.009713,0.035417,-0.593907,312.312262,23.901649,0.999703,0.993949,0.003165,0.466185,-0.000001,0.000034,0.000002,0.000035,-0.000001,86.432438,0.000039,
2041,2098,-4.65031520911836,-11.9660837824089,0.0201061534289693,-0.003825,-0.016152,-0.003645,-0.170467,-0.708537,330.295029,23.934025,0.999004,0.981548,0.005269,0.394967,0.000544,0.000506,0.000120,0.000646,0.000403,40.462093,0.001059,
2296,2683,0.806088609621373,0.820563198695467,-0.0115751983579457,0.000152,-0.015852,0.009765,-0.031968,-0.639970,319.851880,23.612902,0.999662,0.989021,0.004022,0.485786,0.000043,0.000054,0.000020,0.000070,0.000028,52.014551,0.000100,
2491,2128,5.17468859109641,-11.3214156488778,0.0483065043536612,0.001540,-0.017606,-0.000830,0.065941,-0.749885,329.626103,21.176632,0.999608,0.987425,0.004616,0.513323,0.000664,0.000603,-0.000112,0.000750,0.000518,-37.320877,0.001274,
2146,2143,-2.36815881744787,-10.981754570987,0.0120649304218432,-0.002489,-0.016587,-0.000210,-0.119188,-0.710333,329.053220,23.256929,0.999374,0.981316,0.005323,0.473662,0.000439,0.000457,0.000077,0.000525,0.000371,48.472868,0.000900,
2116,1993,-3.00046284886774,-14.2678763152808,0.00174320804012496,-0.004076,-0.017857,-0.005741,-0.175828,-0.804972,331.439618,23.523967,0.999579,0.989902,0.004357,0.212279,0.000736,0.000626,0.000072,0.000771,0.000590,26.401475,0.001365,
2056,2113,-4.32605400792746,-11.6371621135471,0.00536757574832336,-0.003313,-0.016575,-0.004313,-0.145157,-0.747840,329.872757,23.770551,0.998886,0.981445,0.005476,0.427477,0.000518,0.000478,0.000112,0.000612,0.000384,39.837009,0.001005,
2161,2023,-2.02166963653118,-13.6153219507718,0.0240565582885779,-0.003307,-0.018773,0.001519,-0.162626,-0.808626,330.983048,23.077377,0.998535,0.983122,0.005325,0.364787,0.000663,0.000616,0.000059,0.000703,0.000577,34.060358,0.001282,
2446,3118,3.9902541927328,10.2877823369745,0.0293062637004482,0.001718,-0.015482,0.010411,0.033790,-0.635306,313.217785,25.088231,0.999650,0.991542,0.003694,0.472112,0.000026,0.000047,0.000029,0.000067,0.000006,54.607517,0.000081,
2236,2578,-0.480932662187755,-1.46972792792265,-0.0149655516822236,0.000034,-0.015427,0.006450,-0.024918,-0.646544,321.630606,23.489426,0.999468,0.988994,0.004079,0.468084,0.000058,0.000053,0.000026,0.000082,0.000029,42.411391,0.000116,
2281,2788,0.461311546370471,3.10657384781373,-0.00706011350956715,0.000608,-0.015952,0.012221,-0.018835,-0.638256,318.212824,23.866859,0.999047,0.986325,0.004557,0.433250,0.000033,0.000040,0.000008,0.000045,0.000027,56.456822,0.000073,
2056,3283,-4.50091570561389,13.8307986758427,0.0453232158474748,0.001451,-0.014619,0.012464,0.027084,-0.597452,311.421360,23.476896,0.999722,0.995540,0.002852,0.487086,-0.000016,0.000030,-0.000006,0.000031,-0.000017,-82.568138,0.000031,
2341,2668,1.78854552608711,0.496348816915919,-0.0123034444307564,0.000705,-0.016076,0.013294,-0.020172,-0.647048,320.074262,23.652182,0.999662,0.991319,0.003965,0.389398,0.000048,0.000032,0.000023,0.000064,0.000015,35.363413,0.000084,
2071,3208,-4.16342651023397,12.2079304281522,0.0511844669447328,0.001466,-0.014520,0.009784,0.035054,-0.587357,312.620718,23.603298,0.999515,0.993945,0.003198,0.478207,-0.000008,0.000046,-0.000005,0.000047,-0.000009,-84.780397,0.000050,
2206,2218,-1.07166998177208,-9.33824822863516,0.0101203714737039,-0.001262,-0.016615,0.003835,-0.075916,-0.703639,327.678982,23.139565,0.998854,0.981492,0.005439,0.359928,0.000326,0.000326,0.000048,0.000374,0.000277,45.029539,0.000653,
2266,2488,0.18803867291313,-3.43354752052303,-0.0151873683009285,-0.000078,-0.015831,0.005087,-0.026285,-0.670825,323.030000,23.229678,0.999704,0.990769,0.003954,0.504865,0.000091,0.000072,0.000019,0.000103,0.000060,32.157121,0.000165,
2476,2128,4.84377131217148,-11.3173427722864,0.019299561252069,0.001144,-0.018105,-0.000402,0.046099,-0.797296,329.322098,21.346637,0.999068,0.974140,0.006159,0.384351,0.000636,0.000596,-0.000088,0.000706,0.000526,-38.612009,0.001237,
2221,2533,-0.799529118297489,-2.45120638469241,-0.0066681664249586,-0.000433,-0.015299,0.007756,-0.050229,-0.629347,322.437793,23.541678,0.999556,0.989449,0.003995,0.392951,0.000073,0.000049,0.000030,0.000093,0.000029,33.800270,0.000128,
2236,2353,-0.441403439958645,-6.38462353133347,0.00568323539056337,-0.001043,-0.016751,0.008355,-0.080945,-0.695925,325.388151,23.173504,0.998643,0.984443,0.005111,0.397700,0.000168,0.000162,0.000015,0.000181,0.000149,39.087583,0.000331,
2371,2773,2.42140844780053,2.78509733239403,-0.0170973875913205,0.000419,-0.015502,0.008215,-0.016078,-0.639094,318.333392,23.883579,0.999422,0.989538,0.003959,0.441810,0.000025,0.000050,0.000015,0.000057,0.000018,65.523881,0.000078,
2221,2293,-0.757101000503376,-7.69737942727281,0.00966355630083626,-0.000988,-0.016026,0.001666,-0.056411,-0.688468,326.448099,23.118344,0.999100,0.984967,0.004788,0.429512,0.000233,0.000215,0.000038,0.000263,0.000186,38.291416,0.000451,
2041,3268,-4.82335942325534,13.5054028590816,0.0476034128920446,0.001336,-0.014583,0.013055,0.020687,-0.585035,311.767837,23.463567,0.999662,0.993929,0.003041,0.437545,-0.000019,0.000028,-0.000026,0.000039,-0.000030,-66.088136,0.000041,
2416,2998,3.35915160817965,7.68013213900473,0.00913854972958461,0.001089,-0.015849,0.013347,-0.005203,-0.639557,314.928794,24.604333,0.999536,0.988513,0.004080,0.457344,0.000027,0.000014,0.000019,0.000040,0.000001,35.598620,0.000047,
2311,2473,1.17171454226272,-3.76053712008119,-0.00183120763819034,-0.000351,-0.015649,0.005311,-0.040198,-0.663119,323.319466,23.182930,0.999224,0.985829,0.004673,0.426118,0.000115,0.000081,0.000028,0.000131,0.000065,29.713775,0.000199,
2086,2203,-3.68572511206922,-9.66553005819537,0.00909997691724129,-0.002597,-0.016237,0.003920,-0.135765,-0.672848,328.309721,23.696190,0.998433,0.980773,0.005477,0.412606,0.000364,0.000341,0.000087,0.000440,0.000265,41.195907,0.000712,
2116,2008,-3.00293892380327,-13.9430927760718,0.0127263367510864,-0.004538,-0.019307,0.000371,-0.215490,-0.859088,331.253164,23.314399,0.999590,0.991153,0.004406,0.374488,0.000693,0.000622,0.000073,0.000739,0.000576,32.083035,0.001319,
2206,2428,-1.10630416081115,-4.74746673222719,0.0119903112030784,-0.000036,-0.016157,0.007501,-0.031099,-0.635921,324.351480,23.248183,0.999230,0.987832,0.004487,0.580055,0.000101,0.000097,0.000016,0.000115,0.000083,40.820893,0.000199,
2131,2098,-2.68841793732145,-11.9664102119511,0.00834727173565852,-0.002492,-0.017649,0.002483,-0.127618,-0.744161,329.795406,23.413047,0.998913,0.982848,0.005188,0.341363,0.000517,0.000528,0.000085,0.000607,0.000437,46.834526,0.001049,
2056,3298,-4.5035957612769,14.1561151329694,0.0376544879218841,0.001633,-0.014429,0.012273,0.036143,-0.588692,311.120372,23.477517,0.999505,0.993791,0.003205,0.488463,-0.000018,0.000038,-0.000005,0.000039,-0.000019,-84.674682,0.000039,
2191,2158,-1.38788107061149,-10.6549158808381,0.0266957064246753,-0.002004,-0.016310,-0.001022,-0.094417,-0.723458,328.807199,23.083688,0.999116,0.984448,0.005043,0.399572,0.000406,0.000433,0.000065,0.000485,0.000353,50.872942,0.000842,
2251,2638,-0.165059582953401,-0.160935939522936,-0.0128571265609594,0.000254,-0.015905,0.010996,-0.030143,-0.649379,320.639220,23.617865,0.998795,0.986205,0.004556,0.412791,0.000044,0.000042,0.000023,0.000066,0.000020,43.650130,0.000090,
2026,3163,-5.13183757244811,11.2299487313002,0.0484047281996709,0.001098,-0.014413,0.011600,0.014247,-0.580609,313.577037,23.449112,0.999583,0.993693,0.003353,0.452412,-0.000016,0.000060,0.000004,0.000061,-0.000016,86.899659,0.000063,
2116,2068,-3.01059253238728,-12.625119495558,0.0128256234538071,-0.002955,-0.017103,-0.002341,-0.134261,-0.764768,330.371342,23.434504,0.998511,0.969488,0.006676,0.375844,0.000564,0.000552,0.000077,0.000635,0.000481,42.669345,0.001120,
2086,2008,-3.65578489120168,-13.9427979436955,0.0275795476170515,-0.004260,-0.018135,-0.003872,-0.190057,-0.795238,331.540076,23.582153,0.999204,0.985936,0.004976,0.376085,0.000710,0.000605,0.000101,0.000772,0.000544,31.327255,0.001322,
2251,2728,-0.180955043564399,1.79962141829107,-0.0171347863625329,0.000451,-0.015526,0.008744,-0.013551,-0.633670,319.158415,23.713312,0.999407,0.990253,0.003834,0.475443,0.000042,0.000035,0.000004,0.000044,0.000033,25.208071,0.000077,
2401,2968,3.03915308817573,7.02738144166806,0.0113898634153884,0.000998,-0.015486,0.009807,0.004126,-0.630862,315.430910,24.512279,0.999855,0.994825,0.003229,0.426358,0.000023,0.000009,0.000021,0.000039,-0.000006,35.760201,0.000042,
2041,3283,-4.82592524146989,13.8297584747108,0.0434660546702617,0.001388,-0.014698,0.012877,0.023558,-0.589544,311.490877,23.403351,0.999605,0.993771,0.003108,0.484117,-0.000024,0.000036,-0.000018,0.000041,-0.000029,-74.579731,0.000042,
2476,2143,4.84066914496345,-10.9866104008047,0.0152713443109178,0.001360,-0.017478,-0.001522,0.060486,-0.775995,329.059820,21.488427,0.998396,0.975207,0.005958,0.323668,0.000603,0.000580,-0.000095,0.000687,0.000496,-41.626400,0.001188,
2176,2083,-1.70357322694704,-12.2977978874838,0.0175264138547959,-0.002396,-0.017664,-0.001541,-0.111205,-0.780691,329.965944,23.105771,0.999536,0.984756,0.005017,0.325934,0.000540,0.000555,0.000066,0.000614,0.000481,48.201576,0.001097,
2326,2563,1.48126918999199,-1.79435512222588,-0.0098907410702509,-0.000059,-0.015742,0.008950,-0.039599,-0.633301,321.784731,23.375163,0.998783,0.983148,0.005050,0.441308,0.000071,0.000049,0.000030,0.000092,0.000028,34.950965,0.000126,
2071,2128,-4.00136528057843,-11.3076932391753,0.0145332209185653,-0.003340,-0.016415,0.002581,-0.165878,-0.704352,329.605905,23.840791,0.998958,0.983503,0.005198,0.312972,0.000480,0.000456,0.000102,0.000571,0.000365,41.644866,0.000944,
2146,2158,-2.37081071001487,-10.6513716055475,0.0106179795449179,-0.002489,-0.016746,0.001570,-0.124587,-0.724511,328.793861,23.431412,0.999687,0.965661,0.006467,0.295744,0.000416,0.000430,0.000070,0.000493,0.000353,47.846084,0.000849,
2161,2278,-2.06275193044869,-8.02452668405268,0.00702791771442435,-0.001131,-0.016607,0.007436,-0.080323,-0.682052,326.821629,23.407403,0.998308,0.977629,0.005970,0.381259,0.000247,0.000223,0.000036,0.000273,0.000197,35.468107,0.000472,
2431,3193,3.64990153766079,11.913979115737,0.0411558302182016,0.001439,-0.015424,0.010959,0.019349,-0.643484,312.047944,25.307025,0.999598,0.990962,0.003703,0.428802,0.000027,0.000034,0.000021,0.000051,0.000010,50.010444,0.000066,
2356,2698,2.10912398888525,1.14935442475906,-0.0107028282832857,0.000181,-0.016091,0.012341,-0.041347,-0.631266,319.579047,23.596068,0.999526,0.990978,0.003811,0.533067,0.000036,0.000049,0.000024,0.000067,0.000018,52.410149,0.000090,
2491,2143,5.16997744048526,-10.9880382356349,0.0259128047553645,0.001688,-0.017320,-0.002575,0.079536,-0.748953,329.209082,21.381031,0.999034,0.980053,0.005617,0.372692,0.000627,0.000593,-0.000115,0.000727,0.000493,-40.862358,0.001228,
2296,2698,0.802896711431941,1.14801625020522,-0.01605794515973,0.000060,-0.015735,0.010157,-0.037454,-0.624096,319.564822,23.651310,0.999737,0.991639,0.003726,0.493684,0.000039,0.000050,0.000017,0.000063,0.000027,53.920030,0.000092,
2176,2263,-1.73341119317291,-8.3520452421516,0.007207974734456,-0.001638,-0.015458,-0.000414,-0.079279,-0.657213,327.014417,23.364432,0.998839,0.980256,0.005592,0.370971,0.000256,0.000244,0.000043,0.000294,0.000207,40.962266,0.000503,
2101,2248,-3.36552955996918,-8.68065230294225,0.00273433004946355,-0.001921,-0.015810,0.000768,-0.095618,-0.682527,327.500801,23.608795,0.998653,0.984194,0.005201,0.426994,0.000299,0.000287,0.000065,0.000358,0.000228,42.226786,0.000591,
2281,2593,0.496337136586405,-1.14174550639508,-0.00772395023113859,0.000081,-0.015631,0.007398,-0.026833,-0.643280,321.367891,23.481013,0.999227,0.987785,0.004420,0.448753,0.000065,0.000038,0.000024,0.000079,0.000024,30.045467,0.000108,
2131,2128,-2.69298434374832,-11.310314763814,0.0122379632990715,-0.002476,-0.017722,0.003426,-0.129736,-0.767672,329.344562,23.377347,0.998916,0.980514,0.005387,0.370964,0.000471,0.000484,0.000085,0.000563,0.000392,47.315852,0.000960,
2191,2308,-1.41418103726026,-7.36924125902274,0.00634150634471098,-0.001428,-0.016419,0.003177,-0.081261,-0.699350,326.234248,23.245463,0.998759,0.982056,0.005320,0.431619,0.000210,0.000194,0.000033,0.000236,0.000168,37.874373,0.000406,
2116,2083,-3.01273726104965,-12.2953525894964,0.0104129574808667,-0.002676,-0.016889,-0.003838,-0.117031,-0.755602,330.127330,23.490708,0.998330,0.975723,0.006317,0.335599,0.000540,0.000546,0.000081,0.000624,0.000461,46.130965,0.001090,
2086,2218,-3.68752593645677,-9.33660071043479,0.00718067024342872,-0.002179,-0.015500,0.000463,-0.106434,-0.629170,328.081360,23.696040,0.998392,0.981580,0.005382,0.457941,0.000343,0.000331,0.000084,0.000421,0.000253,43.080747,0.000681,
2206,2443,-1.11116253353197,-4.41632381922374,-0.0139196394082433,-0.000737,-0.015750,0.004426,-0.053428,-0.646889,323.869586,23.361538,0.998735,0.983650,0.005181,0.474754,0.000095,0.000096,0.000019,0.000114,0.000077,46.340144,0.000192,
2221,2548,-0.801466301407107,-2.1247604916072,-0.00400076783387249,-0.000088,-0.015267,0.006003,-0.028720,-0.622907,322.238881,23.508997,0.999695,0.991733,0.003597,0.451875,0.000071,0.000045,0.000030,0.000090,0.000026,33.363308,0.000122,
2086,2023,-3.65931002815233,-13.6118362155997,0.0173161771791683,-0.004549,-0.018100,0.000694,-0.216471,-0.768606,331.187518,23.617119,0.998676,0.982828,0.005552,0.371001,0.000670,0.000547,0.000083,0.000712,0.000505,26.606172,0.001223,
2041,2113,-4.65186272210053,-11.638063718002,0.0198386194765021,-0.003092,-0.016633,-0.002812,-0.139304,-0.726446,330.083719,23.890432,0.998777,0.980341,0.005625,0.415886,0.000513,0.000482,0.000115,0.000613,0.000381,41.182692,0.001003,
2041,3298,-4.82824657080039,14.1549880498826,0.0423061392068576,0.001568,-0.014571,0.013721,0.029603,-0.581887,311.241376,23.431766,0.999565,0.994441,0.003166,0.454341,-0.000028,0.000043,-0.000019,0.000048,-0.000033,-76.149877,0.000049,
2221,2308,-0.759717766609118,-7.3689531519239,0.00644082794963197,-0.000819,-0.015866,0.001374,-0.047679,-0.679155,326.187870,23.127936,0.999086,0.986567,0.004505,0.450380,0.000214,0.000194,0.000035,0.000241,0.000168,36.988222,0.000411,
2116,2308,-3.04806288019024,-7.36840810393259,0.00541785356375613,-0.001523,-0.015833,0.005331,-0.090953,-0.659860,326.493351,23.583950,0.998948,0.984969,0.005041,0.428901,0.000239,0.000181,0.000033,0.000254,0.000167,24.363526,0.000424,
2446,3133,3.9867235302495,10.6143639557089,0.0276415714663472,0.001393,-0.015188,0.011280,0.015722,-0.620650,312.939239,25.196962,0.999517,0.988142,0.004201,0.429239,0.000031,0.000043,0.000026,0.000064,0.000010,51.413329,0.000080,
2281,2803,0.458181096048602,3.43456102381415,-0.0174373238631347,0.000727,-0.015308,0.009079,-0.002615,-0.615068,317.897363,23.934894,0.999222,0.987807,0.004360,0.416265,0.000030,0.000032,0.000013,0.000043,0.000018,47.111590,0.000063,
2506,2308,5.46092052644026,-7.3698416080646,0.014328747711204,0.000299,-0.016694,0.001887,-0.000839,-0.723766,326.406902,21.980544,0.999226,0.979377,0.005403,0.413294,0.000339,0.000207,-0.000012,0.000340,0.000206,-5.209048,0.000551,
2326,2578,1.47844554148649,-1.46722870394447,-0.00987695673910594,-0.000232,-0.015634,0.007185,-0.041424,-0.644814,321.539733,23.410684,0.999224,0.987603,0.004340,0.429541,0.000073,0.000049,0.000034,0.000097,0.000025,35.197901,0.000129,
2491,2158,5.16603426226276,-10.6589147820988,0.0230922398425264,0.001156,-0.017147,-0.001607,0.051617,-0.747895,328.915233,21.414502,0.998995,0.978630,0.005757,0.402145,0.000594,0.000532,-0.000131,0.000697,0.000428,-38.320185,0.001136,
2266,2788,0.134698513930505,3.10681167162761,-0.0171769665268471,0.000473,-0.015164,0.006418,-0.005051,-0.618645,318.163921,23.845856,0.999201,0.987247,0.004452,0.462684,0.000031,0.000037,0.000005,0.000040,0.000028,60.211024,0.000069,
2101,2053,-3.33525674345642,-12.9543966989863,0.0244196863826573,-0.003414,-0.017585,0.000812,-0.164687,-0.739914,330.745246,23.564266,0.998873,0.972838,0.006312,0.360443,0.000604,0.000543,0.000079,0.000657,0.000489,34.418443,0.001150,
2296,2863,0.7738422513311,4.73943918552622,-0.00860848222100685,0.000576,-0.015616,0.009685,-0.012115,-0.629407,316.966837,24.041080,0.999617,0.992379,0.003629,0.428252,0.000025,0.000033,0.000011,0.000041,0.000017,55.389611,0.000059,
2071,1993,-3.98200877201427,-14.2706102958321,0.0211804754470677,-0.005126,-0.018297,-0.002380,-0.234146,-0.802056,331.758907,23.699655,0.998415,0.977325,0.005968,0.354786,0.000749,0.000606,0.000117,0.000815,0.000541,29.211651,0.001365,
2056,2128,-4.3289146294884,-11.3072913278863,0.00523200185494943,-0.003479,-0.016925,0.002680,-0.172553,-0.728424,329.602994,23.866825,0.998747,0.981319,0.005592,0.348689,0.000484,0.000450,0.000115,0.000583,0.000351,40.730830,0.000944,
2431,3208,3.64661851048291,12.2394418372094,0.0385357629480723,0.001500,-0.015453,0.012943,0.014826,-0.641525,311.775224,25.338599,0.999548,0.989573,0.004016,0.447723,0.000028,0.000027,0.000020,0.000047,0.000008,43.909181,0.000060,
2401,2983,3.03609157216682,7.35373786087528,0.00790998772106377,0.001077,-0.015063,0.009076,0.010585,-0.611930,315.162777,24.542500,0.999714,0.991913,0.003686,0.459971,0.000024,0.000010,0.000021,0.000039,-0.000005,35.438707,0.000043,
2131,3223,-2.86592052674454,12.537828051934,0.0514448693422764,0.001360,-0.014732,0.012134,0.021451,-0.589567,312.070397,23.888092,0.999661,0.993950,0.003136,0.488438,-0.000001,0.000038,0.000000,0.000038,-0.000001,-89.894800,0.000044,
2386,2833,2.73562751855738,4.09248102954672,-0.0177180269101882,0.000158,-0.015678,0.012939,-0.045393,-0.624909,317.328754,24.089650,0.999519,0.987383,0.004358,0.431671,0.000023,0.000031,0.000017,0.000044,0.000010,51.713927,0.000057,
2116,3163,-3.18214179228682,11.2370143574672,0.0408519583789371,0.001040,-0.014876,0.012815,0.005030,-0.602736,313.013375,23.814399,0.999572,0.992879,0.003463,0.464823,0.000003,0.000039,0.000005,0.000040,0.000002,81.709712,0.000048,
2101,3088,-3.49511201356658,9.61030612519143,0.0309664870542861,0.001290,-0.014770,0.008012,0.031123,-0.613418,314.252472,23.744028,0.999367,0.986799,0.004354,0.457464,0.000006,0.000033,0.000013,0.000038,0.000001,68.400855,0.000045,
2311,2488,1.16921412832563,-3.43368579720229,0.00682597023541121,-0.000436,-0.015906,0.009418,-0.058211,-0.642926,323.130793,23.211088,0.999285,0.986892,0.004444,0.451412,0.000107,0.000074,0.000025,0.000120,0.000061,28.164271,0.000184,
2281,2608,0.492779746553776,-0.813832392013055,-0.0133232542254405,0.000043,-0.016454,0.012798,-0.046973,-0.672932,321.057474,23.567280,0.999184,0.987252,0.004510,0.361218,0.000059,0.000033,0.000032,0.000081,0.000012,34.097692,0.000101,
2416,3013,3.35657517943921,8.0067756824642,0.00677695127598099,0.001341,-0.015423,0.009477,0.020739,-0.634066,314.689238,24.690966,0.999435,0.986081,0.004323,0.423264,0.000027,0.000023,0.000014,0.000040,0.000011,41.046644,0.000053,
2161,2233,-2.05544661110374,-9.0104720830445,0.0151658965101547,-0.001990,-0.016500,0.004072,-0.109454,-0.697941,327.585588,23.342281,0.998848,0.980193,0.005317,0.393198,0.000296,0.000295,0.000049,0.000344,0.000246,44.839956,0.000593,
2371,2788,2.41904732569196,3.11255770406628,-0.0102606195858925,0.000518,-0.015384,0.009710,-0.016809,-0.631403,318.144893,24.049022,0.999841,0.994096,0.003392,0.325193,0.000024,0.000047,0.000012,0.000052,0.000019,66.831015,0.000073,
2341,2683,1.78512329307344,0.823559318862962,-0.0202179722826941,0.000410,-0.015756,0.009484,-0.020313,-0.645984,319.764074,23.650614,0.999645,0.991290,0.003880,0.429258,0.000043,0.000040,0.000022,0.000064,0.000019,43.045405,0.000088,
2206,2458,-1.11255141428947,-4.08935582879472,-0.0049270239770749,-0.000302,-0.015199,0.002813,-0.028163,-0.636788,323.727246,23.404041,0.999066,0.984731,0.005008,0.460230,0.000088,0.000081,0.000018,0.000103,0.000066,39.461305,0.000171,
2476,2158,4.83764085385074,-10.6582124069164,0.0155964770469268,0.001306,-0.017425,-0.002237,0.060764,-0.793250,328.820893,21.508044,0.998353,0.972245,0.006378,0.346181,0.000570,0.000516,-0.000109,0.000655,0.000432,-38.010860,0.001094,
2176,2098,-1.70682001495963,-11.9689100485623,0.00552018046857938,-0.002270,-0.017535,-0.000227,-0.109476,-0.768539,329.627221,22.980388,0.999398,0.983392,0.005177,0.479187,0.000515,0.000538,0.000071,0.000599,0.000454,49.531098,0.001056,
2071,2143,-4.00276828425767,-10.9793270993401,0.0152398885525145,-0.002565,-0.016203,0.001736,-0.127858,-0.677161,329.408821,23.806018,0.998941,0.983416,0.005255,0.374404,0.000453,0.000434,0.000102,0.000546,0.000341,42.377089,0.000895,
2251,2743,-0.183210807177915,2.12607940203404,-0.0132828663863052,0.000667,-0.015668,0.009932,-0.007587,-0.640158,318.952765,23.763209,0.999215,0.988212,0.004246,0.442395,0.000038,0.000030,0.000006,0.000042,0.000027,28.176373,0.000069,
2116,2098,-3.01453136377019,-11.9662684318305,0.0150134581535895,-0.002357,-0.016828,-0.003116,-0.104508,-0.744904,329.936937,23.565661,0.998895,0.974832,0.006194,0.277693,0.000517,0.000527,0.000085,0.000607,0.000437,46.720557,0.001048,
2086,2233,-3.69018483443012,-9.00742698612285,-0.000570779560177925,-0.002002,-0.015523,0.000878,-0.099518,-0.634811,327.782365,23.712788,0.998769,0.984642,0.004888,0.437251,0.000324,0.000305,0.000078,0.000393,0.000236,41.635808,0.000635,
2236,2368,-0.443920036535079,-6.05517665259168,-0.00108645144837283,-0.000610,-0.016115,0.006278,-0.054136,-0.666504,325.115440,23.243676,0.999247,0.987037,0.004705,0.380179,0.000149,0.000150,0.000011,0.000160,0.000138,46.610184,0.000299,
2026,3178,-5.13379412711564,11.5542755689535,0.0527532506769717,0.001187,-0.014571,0.011088,0.019756,-0.588586,313.374250,23.411309,0.999661,0.993366,0.003286,0.470974,-0.000019,0.000063,0.000006,0.000064,-0.000019,86.133156,0.000065,
2071,2008,-3.98415462088682,-13.9401444601023,0.0143799836130256,-0.004670,-0.017967,-0.003801,-0.209120,-0.793745,331.486654,23.740687,0.998679,0.981398,0.005501,0.322708,0.000726,0.000599,0.000117,0.000796,0.000529,30.866792,0.001334,
2086,2038,-3.66079819170969,-13.2834142703393,0.0161258500731947,-0.004033,-0.017638,-0.004997,-0.176308,-0.777958,330.977632,23.565087,0.998842,0.982404,0.005458,0.415878,0.000638,0.000512,0.000085,0.000681,0.000470,26.635485,0.001157,
2296,2953,0.7589383819064,6.69583725586637,0.00671788665289341,0.001052,-0.014794,0.010121,0.008642,-0.594182,315.647663,24.276247,0.999021,0.987913,0.004339,0.405211,0.000018,0.000033,0.000009,0.000037,0.000013,64.194301,0.000052,
2491,2173,5.16372008449796,-10.3310950979009,0.0278714546035985,0.001418,-0.016930,-0.002898,0.068607,-0.747644,328.730204,21.415836,0.998273,0.969469,0.006561,0.462496,0.000553,0.000507,-0.000132,0.000664,0.000396,-39.968988,0.001071,
2056,2143,-4.33042837009725,-10.9797449015693,0.00932914138093111,-0.003090,-0.016402,0.001311,-0.150711,-0.697209,329.418329,23.790105,0.998797,0.982604,0.005501,0.453824,0.000457,0.000430,0.000114,0.000558,0.000329,41.583345,0.000897,
2131,2113,-2.69098226902803,-11.6391201554238,0.0165602101748163,-0.002934,-0.018233,0.006662,-0.160551,-0.763295,329.590611,23.399197,0.999133,0.983040,0.005121,0.344724,0.000495,0.000509,0.000085,0.000587,0.000417,47.359261,0.001009,
2191,2173,-1.39129869668248,-10.3246517244193,0.0111155622624324,-0.001859,-0.016164,-0.001364,-0.086681,-0.703318,328.443489,23.068588,0.999172,0.967890,0.006171,0.452704,0.000385,0.000395,0.000061,0.000452,0.000329,47.158733,0.000783,
2101,3103,-3.49742109720253,9.93589736181361,0.0381627645633102,0.001258,-0.014910,0.012545,0.016358,-0.602074,314.052835,23.806348,0.999669,0.992377,0.003432,0.406487,0.000004,0.000035,0.000018,0.000043,-0.000004,65.539221,0.000048,
2206,2233,-1.07390848430915,-9.01184256837878,0.0154494403762442,-0.001094,-0.017545,0.007251,-0.079331,-0.724702,327.479300,23.055985,0.999084,0.982883,0.005360,0.441566,0.000301,0.000297,0.000047,0.000346,0.000252,43.813357,0.000601,
2176,2278,-1.73549099648829,-8.02578719829581,0.0128255062260791,-0.001265,-0.016433,0.004709,-0.078348,-0.695494,326.821438,23.301529,0.998655,0.980114,0.005608,0.409709,0.000243,0.000231,0.000037,0.000274,0.000200,40.190680,0.000476,
2236,2593,-0.483171436224115,-1.14325350037901,-0.00909088150319803,0.000096,-0.015476,0.007760,-0.026334,-0.640854,321.435218,23.502438,0.999446,0.986397,0.004516,0.482263,0.000056,0.000043,0.000026,0.000077,0.000022,37.791314,0.000104,
2131,3238,-2.86892102267889,12.8633742231774,0.0423941594423809,0.001438,-0.014902,0.011772,0.026040,-0.603448,311.753613,23.908965,0.999615,0.993849,0.003076,0.457946,-0.000001,0.000031,-0.000001,0.000031,-0.000001,-88.835382,0.000036,
2191,2323,-1.4167178714739,-7.04069959609306,0.00509558493894247,-0.001444,-0.015656,0.001902,-0.077738,-0.668922,325.985072,23.269206,0.999055,0.984318,0.004921,0.454884,0.000197,0.000169,0.000028,0.000214,0.000153,31.519245,0.000369,
2116,2023,-3.00444535591335,-13.6129079641496,0.0172838071811157,-0.003854,-0.018411,0.002370,-0.189779,-0.790319,331.075153,23.405186,0.999270,0.983907,0.005540,0.359203,0.000652,0.000587,0.000061,0.000689,0.000550,31.189392,0.001242,
2266,2503,0.185579123770662,-3.10498213916846,-0.0121653708347935,-0.000085,-0.015514,0.004952,-0.026009,-0.646735,322.811794,23.364287,0.999702,0.991588,0.003934,0.420984,0.000084,0.000057,0.000021,0.000095,0.000046,28.429504,0.000144,
2221,2563,-0.804728254950479,-1.79702813406368,-0.0121021082179027,-0.000083,-0.015345,0.007440,-0.033135,-0.625922,321.923784,23.513425,0.999562,0.990804,0.003777,0.464542,0.000066,0.000050,0.000027,0.000086,0.000030,36.810607,0.000121,
2131,2143,-2.69579601999869,-10.9809899940831,0.00939358364365717,-0.002790,-0.016960,0.002184,-0.140208,-0.727016,329.069058,23.379963,0.999095,0.982317,0.005261,0.417794,0.000440,0.000453,0.000087,0.000534,0.000359,47.107886,0.000899,
2071,2023,-3.98652339242058,-13.611192835227,0.0137493373176767,-0.004570,-0.017833,-0.001058,-0.212297,-0.759375,331.237947,23.694153,0.998604,0.982579,0.005470,0.404190,0.000690,0.000527,0.000097,0.000735,0.000482,24.872420,0.001226,
2356,2713,2.10664456485192,1.47737826200303,-0.0119221055784919,0.000702,-0.015882,0.013091,-0.020035,-0.638040,319.345565,23.741523,0.999525,0.991374,0.003694,0.419975,0.000035,0.000052,0.000021,0.000066,0.000021,55.867213,0.000091,
2086,2053,-3.66207276455259,-12.9545437423934,0.026711903203477,-0.003483,-0.017608,-0.001945,-0.159897,-0.747580,330.840986,23.651231,0.998576,0.978494,0.005736,0.362189,0.000608,0.000521,0.000091,0.000665,0.000464,32.263789,0.001135,
2476,2173,4.83440325463291,-10.3286066255827,0.016179693904121,0.001157,-0.017277,-0.001442,0.051016,-0.760040,328.573104,21.595613,0.997432,0.963579,0.007235,0.351284,0.000532,0.000492,-0.000108,0.000622,0.000403,-39.810768,0.001032,
2146,2173,-2.37054951322958,-10.3278754076783,0.0415500608510229,-0.001875,-0.016802,0.001543,-0.096396,-0.724384,328.839733,23.311851,0.999818,0.944819,0.008055,0.424670,0.000398,0.000399,0.000068,0.000466,0.000330,45.206435,0.000800,
2116,2323,-3.05054317799045,-7.03961123292609,0.000644508478217176,-0.001461,-0.015667,0.002956,-0.081029,-0.663734,326.221536,23.628938,0.999181,0.986586,0.004703,0.385700,0.000223,0.000157,0.000026,0.000232,0.000148,18.974934,0.000383,
2281,2818,0.456216509799326,3.75973375030105,-0.00921233504823249,0.000659,-0.015181,0.006160,0.004037,-0.638813,317.729178,23.938593,0.999312,0.989142,0.004030,0.416384,0.000028,0.000032,0.000011,0.000041,0.000019,49.820884,0.000062,
2101,2263,-3.36803125976986,-8.35369921118328,0.00896763455557448,-0.001997,-0.016759,0.008232,-0.121191,-0.702102,327.286363,23.591236,0.998761,0.983025,0.005212,0.428213,0.000281,0.000256,0.000062,0.000332,0.000206,39.283136,0.000542,
2266,2803,0.131652949517655,3.4336684044854,-0.0163618193132038,0.000326,-0.015202,0.010072,-0.023938,-0.608530,317.907478,23.909620,0.999193,0.987222,0.004690,0.434542,0.000028,0.000031,0.000009,0.000038,0.000021,50.914270,0.000060,
2131,2368,-2.73087416824881,-6.05591991415601,-0.00488959566354197,-0.001019,-0.015023,-0.000494,-0.050402,-0.643112,325.416264,23.543786,0.999050,0.985981,0.004692,0.456972,0.000174,0.000131,0.000015,0.000178,0.000126,17.522366,0.000306,
2161,2293,-2.06453038260454,-7.69577590445589,-0.00135860916054753,-0.000640,-0.015074,-0.003803,-0.022935,-0.666674,326.567121,23.382353,0.998596,0.981042,0.005481,0.433970,0.000236,0.000209,0.000035,0.000260,0.000185,34.344215,0.000447,
2251,2653,-0.167435385980863,0.165742198942795,-0.0117864707200965,0.000311,-0.015760,0.008962,-0.020836,-0.653688,320.414104,23.636398,0.999286,0.988783,0.004234,0.413919,0.000045,0.000039,0.000020,0.000062,0.000022,40.825336,0.000087,
2341,2698,1.78282250489589,1.1489109839179,-0.00875204059343559,0.000220,-0.015812,0.011786,-0.037031,-0.620153,319.599728,23.617740,0.999688,0.992582,0.003707,0.524703,0.000041,0.000046,0.000024,0.000068,0.000019,47.999276,0.000092,
2311,2503,1.1664352227435,-3.10587824121929,-0.00241337026881183,-0.000138,-0.015577,0.004484,-0.027626,-0.671326,322.841366,23.216398,0.999415,0.988193,0.004232,0.451175,0.000095,0.000060,0.000024,0.000107,0.000048,26.573176,0.000159,
2431,3223,3.64362204096926,12.5650717111663,0.0402756723119637,0.001355,-0.015484,0.013162,0.007404,-0.625122,311.535901,25.400286,0.999522,0.990782,0.003831,0.451096,0.000030,0.000024,0.000017,0.000044,0.000009,40.050900,0.000057,
2371,2803,2.41657786147427,3.43739091479293,-0.00800526071890317,0.000801,-0.015610,0.010563,-0.006883,-0.632205,317.930116,23.949686,0.999835,0.994525,0.003392,0.464714,0.000022,0.000038,0.000015,0.000047,0.000013,60.001430,0.000063,
2206,2473,-1.11573766740142,-3.76112783568092,-0.014322434750909,-0.000509,-0.014573,-0.000570,-0.026783,-0.651239,323.407593,23.420757,0.999294,0.983762,0.005136,0.447111,0.000085,0.000071,0.000020,0.000100,0.000057,35.493044,0.000159,
2116,3178,-3.18411075798262,11.5615878904971,0.046714309729964,0.001057,-0.014777,0.011069,0.010997,-0.610317,312.823416,23.810488,0.999570,0.992034,0.003486,0.463553,0.000002,0.000041,0.000006,0.000042,0.000001,81.077098,0.000049,
2176,2353,-1.74888433005974,-6.38287268064792,-0.0062688609867223,-0.000873,-0.015398,0.004755,-0.060151,-0.639981,325.469914,23.407078,0.998681,0.981408,0.005385,0.431872,0.000166,0.000141,0.000008,0.000168,0.000138,16.101068,0.000307,
2386,2848,2.733852305172,4.41851679815119,-0.0152885515680623,0.000687,-0.015212,0.007868,-0.002677,-0.615124,317.147290,24.104868,0.999492,0.988959,0.004114,0.469505,0.000023,0.000027,0.000013,0.000039,0.000011,49.793177,0.000052,
2296,2878,0.771095462806404,5.0654428587771,-0.00939244833097064,0.000528,-0.015039,0.008332,-0.009535,-0.621397,316.718436,24.038135,0.999635,0.991809,0.003677,0.468853,0.000021,0.000036,0.000012,0.000043,0.000014,60.087203,0.000060,
2446,3148,3.98415506821523,10.939581721362,0.0322529021696596,0.001314,-0.015027,0.009708,0.018062,-0.616713,312.734401,25.232786,0.999544,0.990196,0.003850,0.448405,0.000031,0.000031,0.000024,0.000055,0.000007,45.050821,0.000068,
2071,2158,-4.00544783256798,-10.6517004055865,0.0132338904167568,-0.002840,-0.016622,0.001815,-0.140834,-0.710626,329.139123,23.740801,0.999036,0.983435,0.005226,0.405741,0.000431,0.000406,0.000090,0.000509,0.000327,40.952768,0.000843,
2026,3193,-5.13593942219638,11.8792103432378,0.0535379431767069,0.001268,-0.014578,0.009951,0.026635,-0.585469,313.142635,23.400761,0.999611,0.992999,0.003317,0.473762,-0.000025,0.000065,-0.000001,0.000065,-0.000025,-89.434408,0.000065,
2041,2128,-4.65457810144385,-11.3086505990067,0.0142367415899116,-0.003163,-0.016520,-0.001416,-0.146398,-0.724135,329.789317,23.901619,0.998348,0.977726,0.006194,0.402769,0.000476,0.000453,0.000115,0.000580,0.000349,42.100329,0.000938,
2281,2623,0.490429515190186,-0.48685109081346,-0.015999979844139,0.000351,-0.015886,0.009494,-0.021537,-0.639574,320.817000,23.535411,0.999337,0.987337,0.004332,0.455166,0.000054,0.000041,0.000033,0.000081,0.000014,39.249459,0.000102,
2056,2158,-4.33286221274658,-10.6505687206163,0.0131668734937875,-0.003071,-0.016984,0.008313,-0.169683,-0.689420,329.190066,23.887416,0.999031,0.985023,0.005061,0.361570,0.000433,0.000400,0.000099,0.000517,0.000316,40.239103,0.000841,
2086,2068,-3.66543552247374,-12.6242869142921,0.0125775666937784,-0.003720,-0.017154,-0.002956,-0.167660,-0.766912,330.475221,23.643602,0.998518,0.959586,0.007703,0.353644,0.000580,0.000518,0.000094,0.000648,0.000450,35.987504,0.001104,
2071,2038,-3.98810457771515,-13.2821653095737,0.0133033368468887,-0.004200,-0.016955,-0.006476,-0.179679,-0.762527,331.026389,23.699398,0.998775,0.983335,0.005242,0.396064,0.000658,0.000487,0.000097,0.000702,0.000443,24.416857,0.001155,
2401,2998,3.03289136068613,7.68043124457279,0.00438554565891991,0.000989,-0.015124,0.007903,0.010786,-0.625340,314.887913,24.640428,0.999573,0.989250,0.004095,0.393456,0.000023,0.000016,0.000017,0.000037,0.000002,39.191850,0.000044,
2101,2068,-3.33696157052479,-12.6261037798519,0.0218935051676681,-0.002806,-0.017308,-0.001834,-0.129020,-0.752341,330.519693,23.499674,0.998880,0.948606,0.008698,0.417040,0.000576,0.000537,0.000083,0.000642,0.000471,38.397484,0.001118,
2221,2323,-0.763125708012449,-7.04016728753732,-0.00320569438156326,-0.000715,-0.016281,0.004955,-0.054533,-0.687563,325.858546,23.130080,0.999067,0.986738,0.004580,0.461150,0.000200,0.000177,0.000031,0.000222,0.000155,34.494546,0.000379,
2161,2248,-2.05798045534719,-8.68136061081567,0.00571365906569099,-0.001537,-0.016395,0.002436,-0.083619,-0.690202,327.290958,23.329127,0.998853,0.979209,0.005284,0.426802,0.000277,0.000269,0.000046,0.000319,0.000227,42.619790,0.000548,
2431,3238,3.64016814493128,12.8908106108253,0.0305008024099038,0.001661,-0.015359,0.013124,0.021641,-0.627952,311.221691,25.429680,0.999497,0.992204,0.003642,0.467635,0.000030,0.000021,0.000017,0.000043,0.000009,37.454133,0.000055,
2116,2338,-3.05313760849622,-6.71188632396618,-0.00459276735358571,-0.001188,-0.015790,0.005223,-0.075225,-0.663693,325.942216,23.573310,0.999243,0.986009,0.004746,0.446876,0.000205,0.000150,0.000022,0.000213,0.000143,19.496229,0.000358,
2116,2113,-3.01720875590159,-11.6392736236194,0.0187870030252952,-0.002490,-0.017215,0.003668,-0.130734,-0.753692,329.702240,23.465586,0.999265,0.984853,0.004912,0.375536,0.000495,0.000508,0.000086,0.000588,0.000415,47.148834,0.001008,
2476,2188,4.83121691394861,-9.99951682655384,0.020464351446833,0.000648,-0.016841,-0.001839,0.029393,-0.743731,328.344444,21.697258,0.998026,0.967733,0.006985,0.325237,0.000511,0.000484,-0.000098,0.000596,0.000398,-41.045672,0.001001,
2491,2188,5.15922973439739,-9.99990609221928,0.0200013886550892,0.001115,-0.017193,0.002022,0.035858,-0.721097,328.388135,21.570285,0.998174,0.969069,0.006623,0.396678,0.000531,0.000503,-0.000119,0.000637,0.000397,-41.549292,0.001043,
2116,2038,-3.00684752929201,-13.284334173677,0.0130999901559221,-0.003793,-0.018257,-0.000025,-0.179911,-0.779453,330.810101,23.313986,0.999120,0.982768,0.005450,0.468219,0.000621,0.000559,0.000064,0.000661,0.000519,32.089584,0.001183,
2236,2383,-0.445942748902009,-5.72867649107297,0.00301263939996943,-0.000438,-0.016050,0.004588,-0.040763,-0.683616,324.921299,23.201427,0.999393,0.987128,0.004646,0.427987,0.000133,0.000141,0.000014,0.000152,0.000122,52.177054,0.000274,
2086,2248,-3.69272328055421,-8.68055855651735,0.00203520168133764,-0.002173,-0.016182,0.004340,-0.117546,-0.649141,327.545531,23.640305,0.998782,0.983965,0.005014,0.496790,0.000303,0.000292,0.000073,0.000371,0.000225,42.857151,0.000602,
2296,2968,0.756384376312983,7.02125328885392,0.00310474820173567,0.001246,-0.015087,0.006503,0.029682,-0.625920,315.394071,24.263963,0.999355,0.990848,0.003765,0.415122,0.000013,0.000030,0.000011,0.000036,0.000008,63.650763,0.000046,
2131,3253,-2.87171174294001,13.1883821256856,0.0401513443565591,0.001289,-0.014855,0.011536,0.019853,-0.611671,311.483150,23.917609,0.999669,0.994508,0.002982,0.445222,0.000001,0.000025,0.000001,0.000025,0.000001,86.649933,0.000030,
2506,2323,5.45761069840943,-7.04078030828849,0.0112740807790601,0.000459,-0.015875,0.003009,0.002509,-0.669180,326.141210,22.013121,0.998947,0.983010,0.005135,0.498809,0.000309,0.000196,-0.000005,0.000309,0.000195,-2.509137,0.000508,
2311,2518,1.16318203144265,-2.7774125815325,-0.0060831493865976,-0.000256,-0.015409,0.005816,-0.037508,-0.653536,322.557197,23.292367,0.999409,0.986688,0.004338,0.426340,0.000091,0.000051,0.000026,0.000104,0.000039,26.115279,0.000148,
2431,3253,3.63652325576053,13.2171402523854,0.0195789938648545,0.001801,-0.015348,0.012226,0.031514,-0.620145,310.893029,25.501745,0.999506,0.992123,0.003574,0.451910,0.000031,0.000026,0.000017,0.000045,0.000012,41.095032,0.000060,
2251,2668,-0.170192446765689,0.492384829229394,-0.0119546848110303,0.000213,-0.015725,0.008849,-0.024898,-0.638582,320.165159,23.626535,0.999513,0.990691,0.003899,0.462441,0.000045,0.000042,0.000016,0.000059,0.000027,42.472994,0.000089,
2326,2593,1.47589319128542,-1.14010211898629,-0.010810809282134,0.000324,-0.015838,0.010519,-0.027448,-0.636879,321.302454,23.423271,0.999598,0.991157,0.003798,0.460074,0.000072,0.000035,0.000032,0.000090,0.000016,30.243701,0.000115,
2101,2278,-3.36960498419868,-8.0246708636861,0.00405426711051859,-0.001305,-0.015626,0.001998,-0.070892,-0.668142,327.053623,23.601121,0.998699,0.981593,0.005340,0.455923,0.000270,0.000237,0.000058,0.000314,0.000193,37.127475,0.000512,
2251,2758,-0.186973014970885,2.45417899554292,-0.0234822182437142,0.000496,-0.015408,0.012642,-0.024244,-0.622624,318.606315,23.833096,0.999128,0.988250,0.004339,0.413684,0.000037,0.000032,0.000005,0.000040,0.000028,31.191797,0.000069,
2086,2083,-3.67003493648059,-12.291151807958,-0.0210514456110218,-0.003569,-0.017473,0.001973,-0.175068,-0.754343,329.946705,23.659327,0.998652,0.946478,0.009149,0.354205,0.000552,0.000522,0.000098,0.000636,0.000438,40.679992,0.001080,
2416,3028,3.35309677486098,8.33245002080852,0.00663265005368885,0.000995,-0.015713,0.011634,-0.003189,-0.638945,314.418772,24.717992,0.999513,0.988004,0.004163,0.438257,0.000024,0.000034,0.000017,0.000047,0.000011,53.049473,0.000062,
2101,3118,-3.5002057300196,10.2608606042534,0.0348215552095894,0.001158,-0.014938,0.012928,0.010635,-0.598753,313.774476,23.756355,0.999752,0.994198,0.003057,0.459932,0.000003,0.000031,0.000015,0.000037,-0.000004,66.502997,0.000041,
2236,2608,-0.485632421683118,-0.816202889284014,-0.0116596134022302,0.000327,-0.015355,0.006118,-0.010379,-0.645106,321.186533,23.509515,0.999263,0.985062,0.004678,0.492804,0.000056,0.000040,0.000033,0.000082,0.000014,37.948003,0.000103,
2356,2728,2.1041398793051,1.8037130435841,-0.00774443456162999,0.000566,-0.015787,0.011139,-0.019330,-0.630634,319.137233,23.765830,0.999488,0.990290,0.003861,0.442161,0.000031,0.000055,0.000023,0.000069,0.000017,58.933612,0.000090,
2131,2158,-2.69636788553273,-10.653747962222,0.0271821322342021,-0.002467,-0.016466,-0.002918,-0.110010,-0.747757,329.006222,23.479352,0.999717,0.991208,0.004155,0.304982,0.000417,0.000426,0.000080,0.000502,0.000342,46.572581,0.000848,
2206,2248,-1.07717842107258,-8.68084739906094,-0.000580673565650613,-0.001077,-0.016483,0.001781,-0.060885,-0.701886,327.121509,23.133165,0.998908,0.982366,0.005302,0.406839,0.000280,0.000266,0.000046,0.000320,0.000226,40.739489,0.000549,
2146,2443,-2.41677986177117,-4.41757732962353,-0.00778392767273317,-0.000635,-0.015491,0.005742,-0.051858,-0.660673,324.120107,23.557186,0.999184,0.986603,0.004784,0.422856,0.000113,0.000064,0.000009,0.000114,0.000063,9.824148,0.000179,
2266,2818,0.129642054572741,3.75904114304551,-0.0109929013511874,0.000514,-0.015320,0.008674,-0.010762,-0.633091,317.721899,23.910441,0.999344,0.989074,0.004227,0.434418,0.000026,0.000034,0.000008,0.000039,0.000020,57.562966,0.000060,
2266,2518,0.183563438869168,-2.77949026436185,-0.00235966090775719,-0.000067,-0.015703,0.006000,-0.028750,-0.652972,322.648709,23.313096,0.999629,0.991195,0.003898,0.492038,0.000083,0.000050,0.000025,0.000096,0.000037,28.386243,0.000138,
2131,2383,-2.73348018469498,-5.72881495681339,0.000220504942660682,-0.001208,-0.015673,0.004595,-0.074520,-0.654987,325.193073,23.559918,0.998839,0.985129,0.004840,0.436298,0.000159,0.000115,0.000018,0.000166,0.000109,19.599054,0.000276,
2116,3193,-3.18669025508927,11.8866238778311,0.0477839020933288,0.001016,-0.015004,0.013025,0.003204,-0.618384,312.579414,23.824622,0.999615,0.992426,0.003560,0.443355,-0.000002,0.000037,0.000002,0.000037,-0.000002,87.309671,0.000041,
2161,2308,-2.06706283535285,-7.36774865085733,0.00995775530077481,-0.000759,-0.016012,0.006604,-0.060523,-0.652823,326.381731,23.495863,0.998889,0.981136,0.005330,0.346199,0.000218,0.000182,0.000024,0.000230,0.000170,26.422696,0.000402,
2221,2578,-0.807158472569029,-1.46993340730533,-0.0137515255970584,0.000091,-0.015216,0.005885,-0.020148,-0.634841,321.680003,23.527408,0.999284,0.988420,0.004142,0.461180,0.000062,0.000049,0.000028,0.000084,0.000027,38.588438,0.000116,
2281,2833,0.453028195434101,4.08591019063535,-0.00924481315570347,0.000494,-0.015417,0.010303,-0.017509,-0.633859,317.463177,23.946963,0.999466,0.990971,0.003880,0.440484,0.000028,0.000033,0.000014,0.000044,0.000016,50.911032,0.000063,
2101,2083,-3.34136629477184,-12.2958397062448,0.00555409104254068,-0.003506,-0.017837,0.003283,-0.176214,-0.767754,330.096228,23.471774,0.998734,0.956678,0.008131,0.435171,0.000549,0.000535,0.000088,0.000630,0.000454,42.648682,0.001089,
2131,3268,-2.87465417716694,13.5139912834207,0.0297763815622147,0.001437,-0.014680,0.009988,0.031334,-0.616071,311.161865,23.937064,0.999715,0.994815,0.002915,0.425501,0.000002,0.000026,0.000003,0.000027,0.000002,82.292901,0.000032,
2371,2818,2.41342440685893,3.76361037155345,-0.0117705802526302,0.000903,-0.015629,0.011770,-0.006528,-0.632592,317.654680,23.935655,0.999837,0.994746,0.003426,0.519258,0.000021,0.000035,0.000014,0.000043,0.000012,58.562240,0.000058,
2146,2188,-2.3736254720979,-9.99881474928439,0.033108543323749,-0.002049,-0.016495,0.000283,-0.100492,-0.720231,328.524204,23.282614,0.999378,0.954109,0.007128,0.469118,0.000376,0.000375,0.000068,0.000444,0.000307,44.817462,0.000755,
2296,2893,0.768703073426199,5.39165022012001,-0.00692886267444237,0.000647,-0.015030,0.007610,-0.001632,-0.628004,316.502363,24.096472,0.999600,0.991776,0.003611,0.433558,0.000019,0.000030,0.000014,0.000040,0.000010,55.292507,0.000052,
2026,3208,-5.13802652725364,12.2039049020263,0.0580737412387862,0.001383,-0.014508,0.012140,0.025938,-0.578368,312.934817,23.389546,0.999485,0.992836,0.003402,0.481008,-0.000027,0.000064,-0.000004,0.000065,-0.000028,-87.421429,0.000065,
2446,3163,3.98184516421767,11.2652874487303,0.0351112323365896,0.001666,-0.014967,0.008459,0.038978,-0.611096,312.533147,25.304608,0.999563,0.990749,0.003926,0.433000,0.000030,0.000040,0.000027,0.000062,0.000008,50.271613,0.000077,
2161,2263,-2.06160127593275,-8.35142735106879,-0.000111664100984399,-0.001925,-0.016428,0.007974,-0.118377,-0.673780,326.965438,23.426051,0.998690,0.979765,0.005563,0.359180,0.000261,0.000238,0.000041,0.000292,0.000207,37.291700,0.000501,
2191,2428,-1.43357804573148,-4.74562281626032,-0.00180313279577149,-0.000057,-0.015451,0.002908,-0.017165,-0.660651,324.292633,23.371813,0.998822,0.986070,0.004896,0.473856,0.000101,0.000082,0.000007,0.000104,0.000080,18.923945,0.000184,
2431,3268,3.63294669971381,13.543008625676,0.0123331075531041,0.001794,-0.015538,0.012326,0.030724,-0.625746,310.584717,25.570191,0.999607,0.992953,0.003458,0.426127,0.000033,0.000015,0.000021,0.000048,0.000001,33.537228,0.000056,
2086,2098,-3.67160902916075,-11.9626504167253,-0.00705520271219484,-0.003810,-0.017054,0.000592,-0.182016,-0.734088,329.815005,23.776104,0.998635,0.965197,0.007228,0.259267,0.000526,0.000508,0.000099,0.000617,0.000417,42.450301,0.001041,
2476,2203,4.82822265040311,-9.67056538049423,0.0160487645244416,0.001228,-0.016946,-0.000123,0.049418,-0.734906,328.085236,21.707168,0.997978,0.968424,0.006778,0.383526,0.000482,0.000422,-0.000081,0.000539,0.000365,-34.829375,0.000910,
2221,2818,-0.848122295058175,3.7566313981693,-0.00588516629045444,0.000613,-0.015466,0.010505,-0.011036,-0.634408,317.857708,23.891757,0.999504,0.990228,0.004001,0.404358,0.000023,0.000039,0.000013,0.000047,0.000015,61.254338,0.000065,
2116,2128,-3.01964572750591,-11.3107752524107,0.0158397068178715,-0.002567,-0.017159,0.000697,-0.125502,-0.769071,329.442363,23.441230,0.998889,0.982132,0.005355,0.391096,0.000469,0.000482,0.000087,0.000563,0.000389,47.142888,0.000957,
2401,3013,3.03030673787148,8.00610703000346,0.0054943296134411,0.001246,-0.015048,0.007995,0.022278,-0.624316,314.663478,24.665843,0.999572,0.988650,0.004072,0.413875,0.000025,0.000023,0.000014,0.000038,0.000009,42.564696,0.000051,
2071,2173,-4.00776992726025,-10.3236849591198,0.0185873081891259,-0.002889,-0.017173,0.007028,-0.158081,-0.709103,328.925638,23.759667,0.998936,0.984667,0.005081,0.388012,0.000411,0.000375,0.000087,0.000482,0.000304,39.260256,0.000793,
2191,2338,-1.41831923941265,-6.71249398631642,0.018745370597685,-0.001142,-0.015842,0.006362,-0.077899,-0.654400,325.856040,23.429848,0.999623,0.989356,0.004345,0.324760,0.000181,0.000165,0.000023,0.000197,0.000149,35.221624,0.000348,
2251,2683,-0.172717387865866,0.818979320857707,-0.0116049533300497,0.000175,-0.015417,0.006837,-0.019965,-0.631739,319.929489,23.629350,0.999477,0.990639,0.003846,0.490382,0.000045,0.000045,0.000011,0.000055,0.000034,44.254959,0.000090,
2086,2263,-3.69441812633456,-8.35345268086201,0.0090411790143321,-0.001789,-0.016236,0.007596,-0.109320,-0.662330,327.371061,23.637794,0.998906,0.983095,0.005041,0.487156,0.000284,0.000264,0.000069,0.000344,0.000204,40.771805,0.000554,
2176,2293,-1.73799693854091,-7.69618924210216,0.0101124390792506,-0.001246,-0.015651,0.002382,-0.069999,-0.646519,326.564490,23.377385,0.998688,0.981673,0.005419,0.397500,0.000230,0.000216,0.000036,0.000259,0.000187,39.335501,0.000448,
2161,2518,-2.10376769310732,-2.77858339895021,-0.0256169264848154,-0.000376,-0.015208,0.007040,-0.044073,-0.633302,322.710046,23.578703,0.998901,0.986539,0.004776,0.446106,0.000078,0.000050,0.000019,0.000087,0.000041,26.961886,0.000131,
2206,2488,-1.11866397347261,-3.43275025929045,-0.0188976941998931,-0.000445,-0.014980,0.000887,-0.028585,-0.634723,323.124513,23.470566,0.999296,0.985244,0.004823,0.431835,0.000078,0.000067,0.000019,0.000092,0.000052,37.009559,0.000146,
2506,2338,5.45464844823527,-6.71115636356551,0.00989732319999348,0.000438,-0.015638,-0.000574,0.015502,-0.680596,325.899067,22.185264,0.999222,0.985543,0.005100,0.378085,0.000299,0.000178,0.000012,0.000300,0.000177,5.607102,0.000482,
2431,3283,3.62967411788089,13.8682906678365,0.00954077032264422,0.001701,-0.015180,0.012111,0.027322,-0.624848,310.311313,25.606963,0.999720,0.993732,0.003246,0.438872,0.000041,0.000007,0.000019,0.000049,-0.000002,24.499896,0.000056,
2176,2593,-1.78897911620651,-1.14421084982894,-0.0137250064585146,-0.000172,-0.015489,0.006813,-0.034420,-0.652913,321.553298,23.616369,0.999068,0.987048,0.004463,0.426127,0.000052,0.000041,0.000016,0.000063,0.000030,35.468145,0.000095,
2131,2173,-2.69984535785747,-10.3241395855407,0.009619023990183,-0.002122,-0.016305,0.001361,-0.106892,-0.705929,328.622004,23.360762,0.999443,0.975529,0.005634,0.474754,0.000398,0.000394,0.000078,0.000474,0.000318,44.305991,0.000797,
2296,2983,0.754122234171898,7.34718720215702,0.00989772843189485,0.001236,-0.014807,0.006555,0.029192,-0.604385,315.205310,24.322112,0.999204,0.988342,0.004141,0.407676,0.000015,0.000027,0.000013,0.000035,0.000007,58.259233,0.000045,
2071,2053,-3.99013032824382,-12.9532008627647,0.0167544755682343,-0.004095,-0.016584,-0.005179,-0.178436,-0.745126,330.815695,23.727519,0.998253,0.975315,0.006129,0.385372,0.000625,0.000502,0.000102,0.000683,0.000444,29.401876,0.001135,
2236,2623,-0.488433687237258,-0.488502265613626,-0.0120807845309514,0.000159,-0.015162,0.005731,-0.016783,-0.646208,320.932975,23.596479,0.999200,0.985549,0.004677,0.426540,0.000052,0.000047,0.000031,0.000081,0.000018,42.850959,0.000105,
2116,2353,-3.05598450214829,-6.38244721315315,-0.00854152222825633,-0.001273,-0.015488,0.006968,-0.084179,-0.631894,325.657741,23.661108,0.999283,0.983920,0.004949,0.396311,0.000188,0.000136,0.000014,0.000191,0.000132,14.073831,0.000325,
2176,2368,-1.75119411572695,-6.05503196618442,-0.00754469948748238,-0.000677,-0.015478,0.003549,-0.047459,-0.642431,325.229905,23.415318,0.999069,0.986406,0.004718,0.435083,0.000151,0.000133,0.000007,0.000154,0.000131,18.721643,0.000285,
2311,2533,1.16052884608447,-2.45039035971765,-0.00708140249008693,-0.000092,-0.015650,0.005626,-0.029436,-0.667207,322.314029,23.296601,0.999472,0.987563,0.004257,0.441853,0.000087,0.000050,0.000022,0.000097,0.000040,25.522094,0.000141,
2281,2878,0.444998477323431,5.06434453217129,-0.0108473917355809,0.000456,-0.014876,0.006469,-0.006242,-0.625425,316.727981,23.984542,0.999722,0.992866,0.003587,0.493773,0.000021,0.000041,0.000011,0.000046,0.000016,65.193681,0.000064,
2206,2503,-1.12091127452186,-3.10692991047358,-0.00925945057082345,-0.000454,-0.015396,0.005880,-0.044971,-0.646859,322.946473,23.449263,0.999512,0.987854,0.004363,0.458632,0.000073,0.000057,0.000022,0.000088,0.000042,34.954686,0.000133,
2056,2173,-4.33511691478507,-10.3218998475132,0.00915416583728756,-0.002816,-0.016817,0.008513,-0.158479,-0.699059,328.927097,23.877403,0.999014,0.987578,0.004696,0.359466,0.000411,0.000372,0.000093,0.000487,0.000296,39.111485,0.000791,
2386,2863,2.73160036208006,4.74489726908501,-0.00975413336271913,0.000872,-0.014894,0.007557,0.007094,-0.595827,316.958501,24.169405,0.999480,0.989063,0.004013,0.467290,0.000022,0.000022,0.000012,0.000034,0.000011,45.833684,0.000046,
2281,2848,0.449758136958309,4.41344030795925,-0.0107195943459146,0.000372,-0.015439,0.014620,-0.037576,-0.615499,317.185767,24.059985,0.999539,0.992680,0.003797,0.373383,0.000028,0.000039,0.000016,0.000051,0.000017,54.165659,0.000070,
2146,2203,-2.37858296506285,-9.66647940342771,0.00629704046673396,-0.002472,-0.017305,0.004951,-0.134253,-0.740732,328.025132,23.391297,0.998719,0.976773,0.005742,0.351633,0.000357,0.000348,0.000065,0.000417,0.000287,43.040078,0.000708,
2161,2323,-2.06981449686021,-7.04044426881533,0.00408909184955064,-0.001007,-0.015475,0.001391,-0.055827,-0.665483,326.096308,23.402971,0.999075,0.983246,0.005045,0.438680,0.000206,0.000159,0.000018,0.000212,0.000153,18.677059,0.000366,
2491,2203,5.15580796405693,-9.67028145406107,0.0139099342850955,0.000948,-0.016392,-0.002144,0.044500,-0.710805,328.103168,21.622911,0.998272,0.970788,0.006447,0.415961,0.000503,0.000435,-0.000099,0.000574,0.000364,-35.489399,0.000945,
2446,3178,3.97861066503281,11.590898563474,0.034378441132958,0.001602,-0.015323,0.009839,0.030662,-0.635143,312.272638,25.379627,0.999614,0.991382,0.003699,0.384869,0.000030,0.000040,0.000025,0.000060,0.000010,50.755209,0.000076,
2131,2398,-2.73475704878026,-5.40228447364962,0.00878625681457379,-0.000794,-0.015618,0.002099,-0.048008,-0.678262,325.049264,23.571961,0.998489,0.984058,0.005061,0.407829,0.000146,0.000102,0.000014,0.000150,0.000097,16.536742,0.000250,
2296,2908,0.766741268269232,5.71717792978352,0.000540599078135529,0.000902,-0.015210,0.007916,0.009007,-0.629627,316.331080,24.127237,0.999605,0.992314,0.003524,0.430379,0.000018,0.000025,0.000014,0.000036,0.000007,52.296848,0.000046,
2026,3223,-5.14063553837893,12.5292401326062,0.0568985792839953,0.001239,-0.014619,0.012943,0.016999,-0.589571,312.670849,23.426053,0.999436,0.992965,0.003375,0.421871,-0.000030,0.000060,-0.000011,0.000061,-0.000031,-82.881748,0.000061,
2506,2353,5.45185200671591,-6.38381942306484,0.0156869824904788,0.000531,-0.015977,0.002566,0.007480,-0.668571,325.696548,22.200027,0.999206,0.985153,0.005166,0.438078,0.000289,0.000174,0.000030,0.000296,0.000166,13.842989,0.000469,
2266,2533,0.180855307679533,-2.45200343572044,-0.00968842185983476,0.000370,-0.015605,0.005175,-0.005906,-0.658035,322.367438,23.293755,0.999751,0.995123,0.003230,0.533084,0.000077,0.000047,0.000023,0.000089,0.000035,28.263233,0.000128,
2431,3298,3.62605522806352,14.1932984564396,0.00145928223417968,0.001633,-0.015088,0.011208,0.027580,-0.628484,309.997272,25.598616,0.999713,0.993785,0.003197,0.491992,0.000043,-0.000004,0.000013,0.000046,-0.000007,14.857017,0.000050,
2326,2608,1.47285073604631,-0.812212451410581,-0.0163292993113942,0.000290,-0.015616,0.007890,-0.019921,-0.651232,321.020141,23.493603,0.999560,0.989147,0.004029,0.410640,0.000065,0.000030,0.000034,0.000085,0.000010,31.407635,0.000105,
2146,2458,-2.41942173990357,-4.08835341906563,-0.0157056157013358,-0.000418,-0.014889,0.003882,-0.035998,-0.611758,323.826612,23.609046,0.999218,0.986980,0.004736,0.429371,0.000103,0.000058,0.000004,0.000103,0.000057,4.378886,0.000163,
2476,2218,4.82465119972063,-9.34015300396116,0.0132721531420543,0.000875,-0.016141,-0.001143,0.037476,-0.698559,327.806607,21.846193,0.998768,0.978591,0.005982,0.340225,0.000450,0.000367,-0.000070,0.000490,0.000327,-29.721350,0.000822,
2176,2308,-1.74061413384091,-7.36824360770251,0.00948231029008184,-0.001424,-0.015242,0.000973,-0.073688,-0.642955,326.313814,23.373916,0.998772,0.981460,0.005357,0.418948,0.000212,0.000188,0.000026,0.000229,0.000171,32.363590,0.000401,
2371,2833,2.40993696706989,4.09135335249182,-0.0156012120964419,0.000498,-0.015508,0.010593,-0.020849,-0.625937,317.363098,24.059172,0.999674,0.990508,0.003915,0.443550,0.000022,0.000034,0.000015,0.000045,0.000012,55.751568,0.000059,
2341,2713,1.77970405185829,1.47704545799045,-0.0176211536376059,0.000477,-0.015517,0.010181,-0.019596,-0.635162,319.298566,23.719277,0.999459,0.989589,0.004030,0.445203,0.000039,0.000049,0.000023,0.000067,0.000021,51.191828,0.000092,
2356,2743,2.10116030211888,2.13040618540273,-0.0108563365017744,0.000242,-0.015312,0.005609,-0.014661,-0.646171,318.871879,23.791848,0.999586,0.991295,0.003645,0.439684,0.000032,0.000054,0.000023,0.000069,0.000017,57.996480,0.000091,
2191,2353,-1.42108285508188,-6.38554584086637,0.0113585612266434,-0.000973,-0.015648,0.005047,-0.065983,-0.663148,325.565099,23.296484,0.999341,0.986836,0.004662,0.465719,0.000166,0.000146,0.000014,0.000173,0.000138,27.378614,0.000312,
2221,2593,-0.809948640384992,-1.14301901653474,-0.0145276212643353,0.000151,-0.015691,0.008685,-0.026467,-0.629960,321.424170,23.523687,0.999247,0.986041,0.004497,0.489677,0.000059,0.000040,0.000028,0.000079,0.000020,36.025503,0.000105,
2251,2773,-0.188802261074716,2.7793445556297,-0.0124064467458425,0.000401,-0.015091,0.010833,-0.022564,-0.619163,318.457084,23.819745,0.999228,0.987773,0.004293,0.453549,0.000037,0.000033,0.000007,0.000043,0.000027,36.126657,0.000071,
2281,2893,0.442159033727965,5.39141379800684,-0.012037675749184,0.000641,-0.015104,0.009359,-0.007437,-0.610573,316.471785,24.074102,0.999648,0.992016,0.003578,0.446420,0.000020,0.000036,0.000014,0.000043,0.000012,60.149612,0.000058,
2116,2143,-3.02243107594374,-10.9808224466549,0.0120938922433425,-0.002686,-0.016793,0.001535,-0.133322,-0.725670,329.161745,23.488142,0.998375,0.976231,0.006178,0.394106,0.000438,0.000452,0.000089,0.000534,0.000356,47.175183,0.000896,
2101,2293,-3.37215180516268,-7.6957309833434,0.00201824478216395,-0.001257,-0.015504,0.003700,-0.073596,-0.648420,326.791989,23.652065,0.999001,0.985483,0.004949,0.428070,0.000264,0.000222,0.000055,0.000301,0.000184,34.535486,0.000490,
2146,2218,-2.38033018370588,-9.33791614730507,0.0144181335227813,-0.002297,-0.016228,0.005446,-0.127364,-0.679692,327.857585,23.446125,0.998721,0.978519,0.005549,0.367745,0.000333,0.000324,0.000060,0.000389,0.000268,42.903445,0.000661,
2311,2548,1.15753363524237,-2.12279674938745,-0.0103079905270533,0.000125,-0.015848,0.008459,-0.029178,-0.646331,322.043941,23.303933,0.999344,0.984871,0.004701,0.488669,0.000078,0.000047,0.000022,0.000089,0.000036,27.699560,0.000129,
2206,2743,-1.16235122107455,2.12517547712591,-0.0180361457235563,0.000225,-0.015166,0.010254,-0.027521,-0.620131,318.998362,23.788035,0.999388,0.989853,0.004091,0.423475,0.000036,0.000022,0.000002,0.000036,0.000022,9.820831,0.000059,
2206,2518,-1.12355544700928,-2.77965775582444,-0.0134411585951284,-0.000324,-0.015340,0.004714,-0.035272,-0.644015,322.678601,23.424946,0.999403,0.987644,0.004404,0.503548,0.000070,0.000054,0.000027,0.000090,0.000034,36.931347,0.000129,
2221,2833,-0.850887923394581,4.08242076504261,-0.00658619553030348,0.000418,-0.015380,0.009197,-0.015747,-0.629641,317.603296,23.858413,0.999395,0.990031,0.003959,0.461486,0.000024,0.000040,0.000017,0.000051,0.000013,58.005965,0.000067,
2446,1993,4.21494372106541,-14.2828212010921,0.0192955294845092,0.000838,-0.020168,-0.004077,0.044951,-0.908764,331.429852,20.991574,0.999210,0.976032,0.005864,0.302061,0.000867,0.000752,-0.000043,0.000881,0.000738,-18.430940,0.001621,
2296,2998,0.751275278098376,7.67178399083922,0.0149178824819955,0.001042,-0.015261,0.010288,0.007422,-0.622720,314.981290,24.288209,0.999349,0.990327,0.003869,0.452389,0.000014,0.000025,0.000008,0.000029,0.000010,60.901035,0.000041,
2236,2398,-0.449755062234306,-5.3993422867137,-0.00654732732886032,-0.000993,-0.015728,0.004029,-0.064329,-0.671598,324.575076,23.263394,0.999485,0.989326,0.004214,0.401060,0.000121,0.000134,0.000015,0.000144,0.000111,57.432566,0.000255,
2251,2698,-0.175262810419124,1.14578146014792,-0.01309168233729,0.000434,-0.015325,0.007391,-0.009865,-0.636381,319.683533,23.652185,0.999487,0.991196,0.003627,0.486465,0.000042,0.000042,0.000006,0.000048,0.000035,45.337007,0.000084,
2506,2368,5.44910947746849,-6.0551730290947,0.00872537510826987,0.001232,-0.014987,-0.000463,0.051699,-0.648335,325.439426,22.206713,0.998538,0.979551,0.005903,0.514877,0.000275,0.000160,0.000040,0.000287,0.000147,17.398066,0.000442,
2401,3028,3.02732461402013,8.33112279018376,0.0112448707654949,0.000943,-0.015473,0.010682,-0.001527,-0.621627,314.442808,24.663635,0.999630,0.988925,0.004040,0.463435,0.000023,0.000033,0.000017,0.000046,0.000011,53.157389,0.000060,
2176,2383,-1.7534614526968,-5.72778834642389,-0.00719236427147507,-0.000321,-0.015318,0.005779,-0.037968,-0.641428,325.000435,23.386398,0.999069,0.987823,0.004604,0.478971,0.000136,0.000124,0.000010,0.000141,0.000118,28.821529,0.000260,
2491,2218,5.15186864773584,-9.3397204845777,0.00928143778463664,0.000651,-0.016309,-0.000404,0.024295,-0.704416,327.800854,21.786537,0.998842,0.979422,0.005758,0.320547,0.000474,0.000372,-0.000082,0.000519,0.000326,-29.022017,0.000852,
2446,3193,3.97573765082707,11.9157726906171,0.0398311073749937,0.001269,-0.015318,0.009731,0.015806,-0.628884,312.057557,25.396574,0.999643,0.991460,0.003628,0.425077,0.000027,0.000033,0.000026,0.000056,0.000004,48.317020,0.000068,
2191,2443,-1.43718720980911,-4.41724814067173,-0.00524613114907879,-0.000802,-0.015667,0.004211,-0.055508,-0.651928,323.982911,23.423014,0.998983,0.985626,0.004886,0.447417,0.000093,0.000082,0.000010,0.000099,0.000075,30.204299,0.000175,
2266,2833,0.126514109209445,4.08582480648089,-0.0153504574499834,0.000482,-0.015376,0.009869,-0.016195,-0.626377,317.435611,23.940081,0.999304,0.989716,0.004047,0.437037,0.000026,0.000036,0.000012,0.000043,0.000018,56.841501,0.000063,
2056,2188,-4.33688268813876,-9.99383823792794,0.0110965027054135,-0.002577,-0.016193,0.006475,-0.141638,-0.686870,328.719159,23.858735,0.998769,0.984552,0.005139,0.387515,0.000384,0.000355,0.000096,0.000467,0.000272,40.735819,0.000748,
2236,2638,-0.490714331658683,-0.161613563096786,-0.0127162314640259,0.000614,-0.015179,0.006609,0.001301,-0.632576,320.702331,23.597121,0.999064,0.986488,0.004615,0.461363,0.000047,0.000046,0.000026,0.000072,0.000021,44.897129,0.000098,
2191,2668,-1.47540804165429,0.491455468441416,-0.0157089226343601,0.000016,-0.015148,0.006659,-0.025444,-0.629673,320.281357,23.726534,0.999743,0.994059,0.003297,0.397010,0.000046,0.000033,0.000017,0.000057,0.000022,34.414595,0.000081,
2446,2008,4.21289317678389,-13.9556344477485,0.0316066146007756,0.000944,-0.020129,-0.001997,0.042103,-0.892274,331.288707,20.948511,0.999153,0.976691,0.005938,0.416913,0.000850,0.000746,-0.000053,0.000872,0.000724,-22.714411,0.001598,
2236,2893,-0.534371024289324,5.3874279277212,0.00682882413644847,0.000605,-0.014906,0.009375,-0.007890,-0.601563,316.710529,23.995326,0.999701,0.991689,0.003638,0.453564,0.000014,0.000046,0.000015,0.000052,0.000008,68.611844,0.000065,
2161,2533,-2.10573275239342,-2.45207397662396,-0.017542558742548,-0.000338,-0.015381,0.007904,-0.045030,-0.631977,322.533893,23.600998,0.999086,0.987206,0.004472,0.436108,0.000074,0.000047,0.000019,0.000084,0.000037,27.124414,0.000124,
2086,2113,-3.67209573590107,-11.6367717333236,0.00916611928647626,-0.003170,-0.016739,-0.001581,-0.146296,-0.737852,329.745614,23.705267,0.998531,0.982919,0.005390,0.327571,0.000504,0.000489,0.000100,0.000597,0.000397,42.848478,0.001000,
2101,2098,-3.34160098543606,-11.964818251236,0.0180886943267637,-0.002518,-0.016734,-0.001812,-0.115682,-0.758838,330.018285,23.811564,0.999073,0.955903,0.008358,0.107571,0.000524,0.000518,0.000090,0.000611,0.000431,44.013181,0.001047,
2116,2368,-3.05718409972993,-6.05658036188071,0.0019611331225633,-0.000869,-0.015640,0.005445,-0.061174,-0.636125,325.526955,23.603853,0.999068,0.984292,0.004953,0.453962,0.000173,0.000127,0.000015,0.000177,0.000123,16.431992,0.000302,
2371,2848,2.40739368550593,4.41790595152861,-0.017315858291056,0.000673,-0.015003,0.006924,0.000390,-0.620759,317.125302,24.095297,0.999613,0.989480,0.003981,0.453262,0.000022,0.000032,0.000013,0.000041,0.000013,55.405414,0.000056,
2071,2188,-4.00972405750778,-9.99428527292455,0.00665668109917306,-0.002138,-0.016164,0.001921,-0.108778,-0.692039,328.634365,23.711747,0.998731,0.984268,0.005310,0.452898,0.000387,0.000358,0.000090,0.000463,0.000281,40.442809,0.000752,
2356,2758,2.09704929765201,2.45847270461472,-0.0234147450086084,0.000060,-0.015149,0.007094,-0.028118,-0.616221,318.508508,23.829100,0.999446,0.989307,0.003938,0.471717,0.000033,0.000056,0.000020,0.000068,0.000021,59.777022,0.000092,
2206,2758,-1.16443487716968,2.45101498564037,-0.0133460979436677,0.000349,-0.015230,0.009520,-0.019508,-0.616335,318.802019,23.781012,0.999374,0.989805,0.004063,0.451170,0.000033,0.000021,0.000003,0.000034,0.000021,12.128275,0.000055,
2386,2878,2.72879656654814,5.07158870736571,-0.00981125137610661,0.000898,-0.014993,0.006609,0.011628,-0.609277,316.717668,24.257827,0.999451,0.991288,0.003788,0.408139,0.000020,0.000022,0.000016,0.000037,0.000005,47.183132,0.000046,
2251,2968,-0.221646845408497,7.01867344784907,0.0081938575415279,0.000773,-0.014787,0.010618,-0.004569,-0.593297,315.470646,24.186439,0.999551,0.992924,0.003518,0.411719,0.000005,0.000035,0.000012,0.000039,0.000001,70.708765,0.000045,
2281,2863,0.447328495682534,4.7398191631809,-0.0154126111236224,0.000716,-0.015428,0.010668,-0.008516,-0.630581,316.931223,24.081106,0.999638,0.992981,0.003624,0.364678,0.000025,0.000036,0.000011,0.000042,0.000018,58.246296,0.000062,
2281,2908,0.439669442670727,5.71739492837531,-0.0116344223235387,0.000810,-0.015089,0.008905,0.001849,-0.616065,316.239940,24.099757,0.999672,0.992825,0.003360,0.442701,0.000017,0.000030,0.000014,0.000039,0.000009,57.752103,0.000051,
2446,2023,4.20999842825011,-13.6240407721069,0.0260779596372345,0.001290,-0.019193,-0.004833,0.068857,-0.864940,331.026732,21.098528,0.999176,0.979302,0.005480,0.350082,0.000827,0.000730,-0.000063,0.000858,0.000699,-26.138740,0.001560,
2221,2608,-0.812746814776272,-0.81605496237345,-0.0174438768182199,0.000151,-0.015739,0.008592,-0.026241,-0.640414,321.157008,23.526225,0.999097,0.982731,0.004884,0.496088,0.000058,0.000037,0.000033,0.000083,0.000013,36.244958,0.000104,
2446,3208,3.97286423727618,12.241019352226,0.0402898236142732,0.001407,-0.015220,0.010391,0.019711,-0.627072,311.819165,25.426420,0.999572,0.990246,0.003874,0.447806,0.000027,0.000026,0.000025,0.000052,0.000002,44.415680,0.000061,
2146,2233,-2.38235268362138,-9.00913981037937,0.00715264625898726,-0.001740,-0.015790,0.000423,-0.086506,-0.683299,327.596428,23.430098,0.998907,0.979948,0.005308,0.390445,0.000309,0.000294,0.000053,0.000355,0.000248,40.877782,0.000606,
2281,3118,0.403684258613477,10.2759861228105,0.019632606430946,0.000948,-0.015200,0.011980,-0.002121,-0.623977,313.068128,24.506157,0.999741,0.994555,0.003193,0.405508,0.000019,0.000024,0.000003,0.000025,0.000018,67.087377,0.000044,
2296,2923,0.764316759541455,6.04146771233626,0.00823927390570134,0.000964,-0.015451,0.012172,-0.002587,-0.617359,316.139990,24.035159,0.999571,0.992462,0.003477,0.564289,0.000018,0.000025,0.000014,0.000035,0.000007,52.292846,0.000045,
2131,2188,-2.70134392928997,-9.99550987124007,0.0190692811060558,-0.001948,-0.016123,-0.000364,-0.093702,-0.709110,328.472189,23.489675,0.999242,0.982548,0.005148,0.350475,0.000376,0.000371,0.000078,0.000451,0.000296,44.157100,0.000753,
2086,2278,-3.69638244989327,-8.02352280707741,-0.000193616450246736,-0.001258,-0.015611,0.000991,-0.065693,-0.657514,327.095551,23.715072,0.999267,0.987512,0.004562,0.416178,0.000273,0.000244,0.000067,0.000327,0.000190,38.836519,0.000523,
2191,2368,-1.42371770059014,-6.05624140060791,0.00167117789931126,-0.000612,-0.015273,0.002112,-0.040097,-0.661904,325.267582,23.352278,0.999461,0.987344,0.004615,0.427830,0.000149,0.000136,0.000013,0.000157,0.000128,31.684554,0.000286,
2161,2338,-2.07299033019868,-6.71129503045557,-0.00258724212972083,-0.001193,-0.015446,0.002395,-0.067433,-0.640982,325.786687,23.439639,0.999336,0.987727,0.004394,0.438781,0.000189,0.000154,0.000015,0.000194,0.000148,20.048940,0.000343,
2416,3043,3.35110595782433,8.65782190606761,0.0150698708117147,0.001118,-0.015427,0.009684,0.009744,-0.630700,314.257055,24.764306,0.999587,0.989967,0.003972,0.447111,0.000021,0.000041,0.000020,0.000053,0.000008,58.036232,0.000067,
2206,2533,-1.12551139769097,-2.45219677926038,-0.00554070363529036,-0.000227,-0.015238,0.005146,-0.032117,-0.633989,322.504478,23.524100,0.999477,0.988701,0.004218,0.432005,0.000069,0.000048,0.000026,0.000086,0.000031,34.080000,0.000122,
2266,3043,0.09205302084656,8.64661296213614,0.0206107500984558,0.001194,-0.015177,0.009845,0.016746,-0.632279,314.344936,24.298114,0.999600,0.991628,0.003606,0.422658,0.000013,0.000027,0.000005,0.000028,0.000011,73.002917,0.000041,
2251,2788,-0.191773860623652,3.10567112796991,-0.0131748920524046,-0.000058,-0.015240,0.007932,-0.034251,-0.634845,318.195152,23.843277,0.999381,0.988482,0.004200,0.437634,0.000036,0.000034,0.000007,0.000042,0.000028,42.782155,0.000071,
2236,2908,-0.537166538991837,5.71402547356891,0.00292255443116574,0.000635,-0.015004,0.007948,-0.001984,-0.619080,316.439205,24.056595,0.999693,0.992237,0.003599,0.395618,0.000013,0.000040,0.000015,0.000046,0.000006,65.829111,0.000057,
2146,2473,-2.42152487317813,-3.76217662558155,-0.00847260078580803,-0.000663,-0.014588,0.002209,-0.042123,-0.611813,323.638859,23.576501,0.999163,0.985848,0.005049,0.470772,0.000096,0.000055,0.000005,0.000097,0.000055,6.906158,0.000153,
2086,2128,-3.67519970260096,-11.3071978178324,0.00428233423468782,-0.003450,-0.016718,0.001704,-0.168641,-0.706896,329.441582,23.712097,0.998866,0.984369,0.005157,0.353991,0.000477,0.000464,0.000101,0.000571,0.000369,43.165252,0.000948,
2476,2233,4.82119218119834,-9.01285535137338,0.017231172589959,0.000262,-0.016551,0.000286,0.003843,-0.714654,327.564048,21.828250,0.999024,0.981043,0.005663,0.401034,0.000428,0.000351,-0.000053,0.000455,0.000324,-26.839318,0.000782,
2266,2548,0.178132469572382,-2.12324182048661,-0.0103044771058762,0.000431,-0.015737,0.005894,-0.005511,-0.658127,322.118835,23.451704,0.999596,0.991823,0.003763,0.401498,0.000072,0.000044,0.000022,0.000084,0.000032,28.320510,0.000120,
2221,2848,-0.854017334865564,4.40925005001283,-0.0122604581801511,0.000303,-0.015399,0.009154,-0.020886,-0.615191,317.306297,23.878284,0.999310,0.990285,0.003863,0.474722,0.000023,0.000044,0.000020,0.000056,0.000011,58.578835,0.000072,
2371,2863,2.40488822324347,4.74393117446587,-0.0107071617809424,0.000727,-0.015086,0.009540,-0.006416,-0.613115,316.929174,24.146758,0.999521,0.990394,0.003893,0.450408,0.000021,0.000026,0.000011,0.000034,0.000012,52.463412,0.000048,
2311,2563,1.15488486939024,-1.79588514471949,-0.00619029613761768,0.000005,-0.016102,0.009501,-0.038333,-0.662482,321.826061,23.355571,0.999167,0.986412,0.004617,0.453616,0.000068,0.000051,0.000025,0.000086,0.000034,35.754866,0.000123,
2296,3013,0.74817184502556,7.99804459762115,0.0092481094343384,0.001063,-0.015271,0.009642,0.010617,-0.615820,314.691789,24.313987,0.999073,0.987464,0.004312,0.462850,0.000015,0.000024,0.000009,0.000029,0.000010,58.180379,0.000040,
2326,2623,1.47074974105367,-0.48633133524568,-0.00935895471991444,0.000265,-0.015350,0.005533,-0.012796,-0.638139,320.842341,23.464126,0.999612,0.988511,0.004036,0.488040,0.000056,0.000034,0.000034,0.000081,0.000009,35.945582,0.000099,
2491,2233,5.14813928367473,-9.01185568293658,0.00664687994310498,0.000486,-0.016930,0.002634,0.004895,-0.714799,327.517347,21.746951,0.998926,0.979568,0.005834,0.411262,0.000456,0.000361,-0.000057,0.000483,0.000334,-25.176769,0.000821,
2341,2728,1.77674316159045,1.80480633372541,-0.0218244541833315,0.000487,-0.015474,0.007934,-0.011248,-0.632560,319.027256,23.812240,0.999320,0.987975,0.004276,0.391827,0.000036,0.000054,0.000024,0.000071,0.000019,55.244289,0.000095,
2191,2458,-1.43984496461584,-4.08960213512933,-0.00964312516663313,-0.000666,-0.015468,0.003602,-0.047348,-0.668606,323.712032,23.429230,0.999136,0.986536,0.004759,0.440705,0.000088,0.000070,0.000008,0.000091,0.000067,21.964406,0.000159,
2386,2893,2.72584841763227,5.3971462667888,-0.00894728056721306,0.000651,-0.014819,0.005035,0.006016,-0.603776,316.474786,24.234033,0.999481,0.991953,0.003722,0.480433,0.000021,0.000015,0.000020,0.000039,-0.000002,41.201497,0.000043,
2236,2653,-0.493194615217707,0.165022383702677,0.000561684852243616,0.000263,-0.015778,0.012767,-0.034994,-0.641274,320.533479,23.718324,0.999345,0.988626,0.004367,0.352672,0.000048,0.000043,0.000024,0.000070,0.000021,41.945079,0.000095,
2281,2923,0.437113127299522,6.04279537803328,-0.00288843930286475,0.000634,-0.015354,0.012997,-0.019977,-0.607567,316.046853,24.121746,0.999611,0.992260,0.003572,0.456457,0.000018,0.000030,0.000013,0.000038,0.000009,57.819348,0.000050,
2056,2203,-4.33931767743248,-9.66453390943456,0.00701334471608561,-0.002546,-0.015988,0.005735,-0.138102,-0.650348,328.447242,23.871264,0.998356,0.980473,0.005643,0.408884,0.000362,0.000337,0.000094,0.000444,0.000255,41.065125,0.000708,
2176,2608,-1.79160160851177,-0.816390951207453,-0.017786441087253,0.000068,-0.015305,0.007757,-0.026217,-0.616115,321.284012,23.639542,0.999052,0.987433,0.004486,0.452801,0.000053,0.000033,0.000019,0.000065,0.000022,31.188977,0.000090,
2116,2158,-3.02501863424412,-10.6514679468802,0.00604755444942384,-0.002432,-0.016919,0.002783,-0.125382,-0.737338,328.878224,23.516681,0.998972,0.983120,0.005258,0.360513,0.000416,0.000425,0.000081,0.000502,0.000339,46.620154,0.000846,
2251,2713,-0.178278297497787,1.47292999716253,-0.0171970656741678,0.000423,-0.015469,0.008068,-0.012655,-0.646652,319.402644,23.696042,0.999502,0.991091,0.003696,0.456124,0.000042,0.000035,0.000003,0.000043,0.000034,21.158463,0.000077,
2296,2938,0.761389224474765,6.36911061699992,0.00758829397778982,0.000824,-0.015327,0.011958,-0.008253,-0.610879,315.883309,24.201594,0.999280,0.990013,0.003965,0.433759,0.000018,0.000033,0.000013,0.000040,0.000010,60.283242,0.000053,
2266,2848,0.12448319083083,4.41138591137943,-0.00728816746322991,0.000687,-0.015465,0.011643,-0.012626,-0.616842,317.262492,23.952253,0.999456,0.992059,0.003793,0.459646,0.000027,0.000042,0.000015,0.000051,0.000017,57.744226,0.000071,
2101,2308,-3.3743993359994,-7.36867748229077,0.00698218660113525,-0.001358,-0.015901,0.005453,-0.083488,-0.677973,326.582373,23.655044,0.998968,0.983325,0.005378,0.398793,0.000245,0.000186,0.000039,0.000264,0.000166,26.514151,0.000434,
2131,2413,-2.73803408880719,-5.07204515001715,-0.0065320190731768,-0.000416,-0.015270,0.005515,-0.040699,-0.616853,324.685615,23.616123,0.998812,0.985977,0.004906,0.432775,0.000135,0.000081,0.000009,0.000136,0.000079,8.999746,0.000218,
2401,3043,3.02541645985263,8.65666648312073,0.0186907034695878,0.001196,-0.015133,0.008541,0.018053,-0.610981,314.279369,24.716345,0.999647,0.990535,0.003850,0.465899,0.000021,0.000039,0.000019,0.000051,0.000009,57.562914,0.000065,
2296,3193,0.717630799609299,11.9028124406183,0.0409263492472292,0.001438,-0.014983,0.012055,0.019877,-0.601762,312.021679,24.697039,0.999702,0.992718,0.003394,0.440757,0.000029,0.000028,0.000014,0.000042,0.000015,43.917346,0.000059,
2416,3058,3.3481313636736,8.98330491312579,0.0171577262347569,0.001153,-0.015834,0.012537,0.000698,-0.650047,314.020192,24.810148,0.999607,0.990607,0.003900,0.428428,0.000021,0.000041,0.000026,0.000059,0.000004,55.157679,0.000070,
2446,2038,4.20716146697643,-13.2945462451452,0.0296681513862609,0.001331,-0.018747,-0.002831,0.063471,-0.823074,330.809184,21.151480,0.999040,0.977799,0.005769,0.394598,0.000795,0.000701,-0.000065,0.000829,0.000668,-27.074513,0.001500,
2311,3043,1.06937237138634,8.64979310343591,0.0247015337427001,0.000999,-0.015407,0.012653,-0.003119,-0.627878,314.303159,24.458767,0.999572,0.991410,0.003670,0.413043,0.000018,0.000032,0.000011,0.000038,0.000012,61.285772,0.000052,
2191,2683,-1.47695819386143,0.816728776805483,-0.00732762015485378,0.000496,-0.015235,0.007483,-0.006008,-0.630592,320.127900,23.681221,0.999610,0.992965,0.003526,0.456076,0.000042,0.000032,0.000013,0.000051,0.000023,35.684530,0.000076,
2251,2983,-0.224086810642884,7.34378888130817,0.0124066563167275,0.000744,-0.015064,0.011143,-0.007736,-0.609650,315.258357,24.188328,0.999529,0.992226,0.003666,0.415805,0.000007,0.000032,0.000012,0.000037,0.000002,68.477183,0.000044,
2176,2398,-1.75597915264106,-5.40016607109951,-0.00545660351701827,-0.000657,-0.015291,0.002765,-0.044060,-0.643281,324.766648,23.413176,0.998966,0.985884,0.004825,0.464141,0.000123,0.000117,0.000005,0.000126,0.000114,29.519197,0.000240,
2356,2773,2.09480235721461,2.78490404231205,-0.0166287657728503,0.000163,-0.015297,0.007447,-0.024702,-0.623401,318.324436,23.910664,0.999547,0.989879,0.003795,0.421602,0.000031,0.000050,0.000017,0.000060,0.000021,59.597051,0.000084,
2221,2863,-0.856587229286443,4.73574735260472,-0.0124107542074512,0.000361,-0.015174,0.009141,-0.018089,-0.611520,317.063437,23.924379,0.999337,0.991054,0.003714,0.451072,0.000020,0.000042,0.000016,0.000051,0.000011,62.150420,0.000066,
2311,2803,1.1105918139769,3.43490910182874,-0.0118692766257595,0.000394,-0.015488,0.010036,-0.022037,-0.625705,317.893381,23.909713,0.999507,0.991300,0.003807,0.457817,0.000028,0.000036,0.000018,0.000050,0.000014,51.416360,0.000068,
2101,2113,-3.34337325769954,-11.6395432734957,0.0266317941578222,-0.002435,-0.016681,-0.000361,-0.116094,-0.754519,329.849662,23.592942,0.998967,0.977651,0.005901,0.334662,0.000502,0.000499,0.000091,0.000592,0.000409,44.440184,0.001007,
2116,2383,-3.05976853495482,-5.72967151386091,-0.00122051303765147,-0.000874,-0.015976,0.005248,-0.060982,-0.680783,325.259458,23.554067,0.999101,0.984640,0.004879,0.464488,0.000159,0.000110,0.000018,0.000165,0.000104,18.531759,0.000271,
2491,2248,5.14493093672691,-8.6836069017719,0.0084172699167766,0.000527,-0.016866,0.006323,-0.007324,-0.700011,327.277277,21.768070,0.998864,0.980053,0.005684,0.466231,0.000424,0.000346,-0.000053,0.000451,0.000319,-26.859263,0.000774,
2146,2248,-2.38469662894544,-8.68052753753022,0.00436907102300665,-0.001487,-0.015542,0.000111,-0.073894,-0.667820,327.344185,23.432340,0.998888,0.980853,0.005290,0.414158,0.000289,0.000269,0.000048,0.000328,0.000230,39.059631,0.000560,
2326,3118,1.38218456765,10.2784966191184,0.0309652180433204,0.001304,-0.015133,0.010547,0.017916,-0.607785,313.139689,24.639180,0.999369,0.992117,0.003683,0.468925,0.000023,0.000031,0.000009,0.000036,0.000017,57.336253,0.000054,
2176,2323,-1.74390602336927,-7.03991109011929,-0.00102259338069643,-0.001620,-0.015281,-0.000678,-0.077620,-0.651505,325.980700,23.325295,0.998751,0.980975,0.005360,0.473702,0.000199,0.000164,0.000020,0.000208,0.000155,24.341381,0.000365,
2341,2038,1.90838870293311,-13.2901051090811,0.0114010198413439,-0.000446,-0.018873,-0.002707,-0.018412,-0.859115,330.467744,21.847519,0.998947,0.979918,0.005614,0.364346,0.000676,0.000686,-0.000029,0.000711,0.000652,-49.870269,0.001363,
2236,2668,-0.495544628008322,0.491779831876102,-0.00151476939828399,0.000301,-0.015144,0.007314,-0.015320,-0.620204,320.292284,23.696000,0.999446,0.990149,0.004034,0.417614,0.000048,0.000042,0.000021,0.000067,0.000023,40.896576,0.000093,
2236,2923,-0.540660117287008,6.03925416196537,-0.00290209064240798,0.000510,-0.015218,0.012366,-0.022125,-0.619875,316.126384,23.966540,0.999687,0.992472,0.003569,0.505676,0.000012,0.000042,0.000015,0.000048,0.000006,67.876853,0.000059,
2341,2743,1.77429465194914,2.13004248553369,-0.0151545995433935,0.000324,-0.015591,0.007704,-0.018012,-0.638550,318.832833,23.773594,0.999521,0.989798,0.003961,0.461144,0.000038,0.000051,0.000025,0.000070,0.000018,52.502443,0.000094,
2071,2203,-4.0121708423586,-9.66613015836324,0.0135669205682802,-0.002495,-0.016115,0.005709,-0.135927,-0.672537,328.423588,23.752025,0.998436,0.981467,0.005473,0.431162,0.000368,0.000339,0.000089,0.000443,0.000264,40.392189,0.000715,
2161,2353,-2.0755267928804,-6.38344787692759,-0.00552264087593812,-0.000970,-0.015568,0.003781,-0.061482,-0.654739,325.526372,23.437899,0.999084,0.985977,0.004684,0.438791,0.000171,0.000138,0.000008,0.000172,0.000136,12.263542,0.000309,
2401,3058,3.02246101813248,8.98250342312184,0.0204857992998768,0.001276,-0.015415,0.011726,0.010031,-0.621101,314.040889,24.783244,0.999674,0.991882,0.003674,0.433269,0.000021,0.000039,0.000025,0.000057,0.000003,54.701414,0.000068,
2371,2878,2.40257106771153,5.07015349612716,-0.00656185948702159,0.000982,-0.015527,0.009793,0.004161,-0.643613,316.729871,24.239703,0.999417,0.992727,0.003701,0.367451,0.000018,0.000025,0.000014,0.000036,0.000007,52.401093,0.000047,
2251,2803,-0.194863859766659,3.43256174838184,-0.0172012207455055,-0.000005,-0.015225,0.010560,-0.040369,-0.607725,317.911004,23.855432,0.999411,0.988686,0.004304,0.475914,0.000033,0.000030,0.000010,0.000041,0.000021,40.367444,0.000064,
2326,2638,1.46733573150056,-0.158594622195501,-0.0130820719608096,0.000129,-0.015484,0.008248,-0.028459,-0.629368,320.551600,23.522646,0.999470,0.988130,0.004150,0.473473,0.000051,0.000034,0.000032,0.000075,0.000009,37.452654,0.000093,
2446,2053,4.20391054383743,-12.9663852800103,0.0312969799260827,0.001132,-0.019448,-0.000624,0.045902,-0.856057,330.564110,21.140780,0.998868,0.977957,0.005811,0.428033,0.000765,0.000694,-0.000064,0.000803,0.000656,-30.547817,0.001462,
2206,2773,-1.1668559099394,2.77768365673182,-0.011792755175577,0.000329,-0.015258,0.008379,-0.016827,-0.625663,318.573775,23.842508,0.999320,0.989693,0.004188,0.396897,0.000033,0.000024,0.000006,0.000037,0.000021,26.936546,0.000059,
2101,2323,-3.37568606547063,-7.04031922880855,0.0067766805757401,-0.000700,-0.014849,-0.001163,-0.033649,-0.652686,326.388315,23.675551,0.999115,0.986397,0.004830,0.406706,0.000227,0.000158,0.000032,0.000240,0.000145,21.410376,0.000389,
2446,3223,3.96958710719506,12.5666003248677,0.0394622192440579,0.001367,-0.015356,0.012507,0.009952,-0.621310,311.556024,25.479605,0.999576,0.991002,0.003826,0.451351,0.000028,0.000021,0.000022,0.000047,0.000003,40.433911,0.000056,
2206,2548,-1.12854678234328,-2.1240593977533,-0.0126851747359069,-0.000242,-0.015048,0.004472,-0.030607,-0.625043,322.203129,23.556676,0.999550,0.990255,0.003954,0.426176,0.000067,0.000045,0.000026,0.000084,0.000028,33.251723,0.000117,
2086,2293,-3.69940417726306,-7.69548188878359,-0.00246856365743042,-0.001744,-0.015627,0.002086,-0.091188,-0.670812,326.809931,23.714527,0.999606,0.991136,0.004135,0.404801,0.000269,0.000228,0.000063,0.000315,0.000182,35.977524,0.000503,
2341,2053,1.90670642415902,-12.962123029978,0.0299344116303928,-0.000599,-0.018628,-0.000787,-0.031953,-0.823520,330.366978,21.940761,0.999063,0.979985,0.005476,0.346201,0.000652,0.000676,-0.000023,0.000690,0.000639,-59.071947,0.001329,
2116,2173,-3.02698915870391,-10.3235884709066,0.0169700535217316,-0.002568,-0.016995,0.005456,-0.139549,-0.712083,328.713757,23.559870,0.998996,0.983540,0.005180,0.348224,0.000398,0.000392,0.000081,0.000475,0.000314,43.978583,0.000795,
2131,2428,-2.74149841734296,-4.74331325573971,-0.0150996639736718,-0.000781,-0.015154,0.007239,-0.062595,-0.605827,324.349838,23.643441,0.999132,0.987399,0.004630,0.424040,0.000126,0.000060,0.000015,0.000129,0.000057,12.136880,0.000191,
2476,2248,4.81834325446528,-8.6855771674495,0.020220076369867,0.000315,-0.016516,0.001467,0.001795,-0.708613,327.344925,21.780945,0.999056,0.981430,0.005422,0.513596,0.000399,0.000334,-0.000049,0.000425,0.000308,-28.166410,0.000736,
2131,2203,-2.70523081732853,-9.66650443386866,0.00763589830529554,-0.002453,-0.016746,0.003172,-0.127640,-0.723656,328.102184,23.450091,0.998581,0.978502,0.005610,0.384517,0.000356,0.000344,0.000072,0.000423,0.000277,42.563669,0.000705,
2191,2473,-1.44263824380937,-3.76133814837488,-0.0148173209743732,-0.000565,-0.015343,0.003622,-0.042686,-0.655144,323.430638,23.460335,0.999167,0.984378,0.005076,0.438851,0.000085,0.000064,0.000011,0.000090,0.000059,22.347824,0.000150,
2281,2938,0.434464086660142,6.36831844789661,-0.0010992534351999,0.000520,-0.015203,0.012236,-0.022684,-0.612760,315.814682,24.122547,0.999515,0.991479,0.003744,0.477575,0.000018,0.000037,0.000013,0.000044,0.000012,63.086015,0.000058,
2311,2578,1.15106860628686,-1.46630510762538,-0.0202462343964953,-0.000208,-0.015524,0.006628,-0.038090,-0.643735,321.464535,23.462604,0.999503,0.990767,0.003887,0.398980,0.000070,0.000053,0.000030,0.000093,0.000030,37.155772,0.000128,
2326,2878,1.423959826702,5.06634131242505,-0.00420741600379415,0.000873,-0.015525,0.009821,0.000309,-0.633860,316.748640,24.062188,0.999519,0.990751,0.003875,0.481202,0.000021,0.000031,0.000018,0.000045,0.000007,53.126953,0.000056,
2146,2488,-2.42462288627818,-3.43524482233222,-0.0101437694802371,-0.000816,-0.015552,0.007910,-0.066734,-0.630768,323.358318,23.554440,0.999065,0.985518,0.004947,0.482854,0.000089,0.000056,0.000003,0.000090,0.000055,5.733826,0.000147,
2176,2623,-1.7940794353315,-0.489708622188928,-0.0192802296790546,0.000080,-0.015215,0.005823,-0.019696,-0.648570,321.035255,23.654593,0.999351,0.987845,0.004351,0.418011,0.000052,0.000036,0.000017,0.000062,0.000025,31.596751,0.000090,
2311,3283,1.02509693889163,13.8562119025671,0.0162468577146342,0.001771,-0.014918,0.011055,0.038126,-0.622519,310.341821,24.930028,0.999526,0.993619,0.003127,0.442788,0.000023,0.000026,0.000006,0.000030,0.000018,51.714272,0.000049,
2176,2413,-1.7585378263574,-5.07217229265306,-0.00524793131501156,-0.000892,-0.014771,0.000326,-0.047088,-0.610511,324.522788,23.429661,0.998784,0.984707,0.004925,0.494339,0.000113,0.000099,-0.000002,0.000113,0.000098,-9.094179,0.000212,
2341,2953,1.73659460981542,6.69790757905084,0.00565752887087001,0.000753,-0.015293,0.010751,-0.008755,-0.622821,315.592751,24.327301,0.999395,0.990457,0.003843,0.432333,0.000021,0.000020,0.000013,0.000034,0.000007,44.136494,0.000043,
2266,2863,0.123220949941036,4.73627708163617,0.00516294370157766,0.001081,-0.015477,0.009814,0.011547,-0.632822,317.146982,23.963888,0.999675,0.994000,0.003483,0.457103,0.000023,0.000040,0.000011,0.000045,0.000017,64.302628,0.000065,
2176,2338,-1.74661384298843,-6.71077285130522,-0.00247180580601025,-0.001223,-0.015675,0.006722,-0.082381,-0.631143,325.721252,23.417085,0.999098,0.984867,0.004871,0.416373,0.000182,0.000159,0.000016,0.000190,0.000151,26.820321,0.000342,
2221,2623,-0.815777339632536,-0.488895585267159,-0.0163260491984829,-0.000197,-0.015901,0.010843,-0.049525,-0.650795,320.899789,23.586132,0.999135,0.984634,0.004799,0.445302,0.000053,0.000043,0.000030,0.000078,0.000017,40.294220,0.000102,
2311,3058,1.066734411439,8.97526616644554,0.023599616575666,0.001056,-0.015075,0.010463,0.007124,-0.620293,314.059003,24.453916,0.999706,0.992996,0.003379,0.457081,0.000017,0.000029,0.000014,0.000038,0.000008,56.608359,0.000049,
2161,2548,-2.10819349771367,-2.12549177646588,-0.0166613357422989,-0.000409,-0.015318,0.007367,-0.046627,-0.632466,322.297181,23.571681,0.999197,0.987126,0.004351,0.475855,0.000074,0.000043,0.000019,0.000083,0.000034,25.216706,0.000121,
2341,2068,1.90317907949412,-12.634387110211,0.028910945935877,-0.000998,-0.019329,0.002587,-0.062230,-0.846869,330.087645,21.856553,0.998800,0.975010,0.006014,0.447139,0.000625,0.000662,-0.000019,0.000670,0.000617,-67.482664,0.001288,
2296,3028,0.746328455404761,8.32396965801819,0.0117837379775665,0.001547,-0.014794,0.006431,0.043955,-0.602429,314.501044,24.361592,0.999265,0.988984,0.004052,0.458010,0.000018,0.000024,0.000008,0.000030,0.000013,55.114204,0.000044,
2071,2218,-4.01414016198652,-9.336856725385,0.0130706544392183,-0.002235,-0.015682,0.004207,-0.119638,-0.641498,328.193956,23.810051,0.998226,0.980355,0.005463,0.403607,0.000345,0.000331,0.000089,0.000428,0.000249,42.809166,0.000684,
2491,2263,5.1424647781354,-8.35435265675279,0.00887765931133799,0.000765,-0.016367,0.002115,0.019864,-0.704965,327.065296,21.892340,0.998823,0.978055,0.005491,0.397975,0.000395,0.000294,-0.000051,0.000416,0.000272,-22.642646,0.000693,
2251,2998,-0.226390120837035,7.66855096132236,0.0172657973590162,0.000950,-0.015241,0.013689,-0.006689,-0.612193,315.055702,24.151813,0.999541,0.991476,0.003740,0.472456,0.000007,0.000027,0.000008,0.000030,0.000004,70.640967,0.000038,
2386,2908,2.72210958102611,5.72352285290715,-0.0126599764078037,0.000628,-0.015705,0.011692,-0.019375,-0.637078,316.173544,24.295666,0.999430,0.990293,0.003962,0.428278,0.000023,0.000003,0.000021,0.000036,-0.000010,32.514499,0.000037,
2206,2563,-1.13107092408947,-1.79770802585811,-0.00780238634916941,-0.000314,-0.015228,0.007693,-0.044221,-0.636979,321.987703,23.558015,0.999586,0.990890,0.003837,0.430412,0.000065,0.000051,0.000022,0.000081,0.000035,36.226573,0.000119,
2416,3073,3.34550642600098,9.30888067122902,0.0195286253122617,0.001153,-0.015536,0.010889,0.006863,-0.638485,313.800641,24.839160,0.999620,0.990674,0.003878,0.457922,0.000022,0.000045,0.000022,0.000059,0.000008,58.427026,0.000073,
2236,2683,-0.498736961765825,0.819022640980407,-0.0109534675139571,0.000284,-0.014882,0.005552,-0.010317,-0.612354,319.974831,23.675699,0.999410,0.988782,0.004129,0.467611,0.000047,0.000042,0.000018,0.000063,0.000027,40.770228,0.000092,
2356,2788,2.09248551187799,3.11103712575699,-0.0127369462398406,0.000408,-0.015148,0.007716,-0.014278,-0.610913,318.123193,23.926217,0.999707,0.992854,0.003514,0.457441,0.000030,0.000048,0.000013,0.000055,0.000023,62.317667,0.000080,
2236,2938,-0.542853733376976,6.3654192417908,0.0028943136964017,0.000731,-0.015350,0.014829,-0.019996,-0.622551,315.932264,24.051361,0.999593,0.992594,0.003541,0.438482,0.000010,0.000047,0.000013,0.000051,0.000006,72.754091,0.000063,
2296,3208,0.71442972937648,12.2280319485217,0.0369845129052351,0.001212,-0.014923,0.011011,0.013041,-0.603729,311.736058,24.700582,0.999767,0.993583,0.003198,0.463820,0.000030,0.000024,0.000015,0.000043,0.000012,39.124963,0.000057,
2146,2263,-2.38747646234961,-8.35173964629055,0.00301426612770683,-0.001411,-0.015964,0.005058,-0.085456,-0.642707,327.079474,23.461245,0.998758,0.981965,0.005407,0.420674,0.000272,0.000237,0.000042,0.000299,0.000209,33.573728,0.000511,
2221,2878,-0.858610162251061,5.06062274627728,-0.00306106397823669,0.000417,-0.015204,0.010833,-0.020973,-0.614030,316.894959,23.901534,0.999376,0.992629,0.003466,0.489745,0.000016,0.000050,0.000015,0.000056,0.000010,68.839979,0.000071,
2446,3238,3.96623498415293,12.8925302178348,0.0312873511402358,0.001624,-0.015324,0.011829,0.024295,-0.628194,311.255223,25.539955,0.999649,0.992722,0.003458,0.434727,0.000029,0.000021,0.000021,0.000046,0.000003,39.972968,0.000056,
2191,2698,-1.47961333621916,1.14260897041346,-0.0103693557781526,0.000549,-0.014998,0.006776,-0.001264,-0.620898,319.864213,23.591156,0.999688,0.994225,0.003254,0.570832,0.000039,0.000030,0.000012,0.000047,0.000022,34.783468,0.000070,
2326,3133,1.3788170122617,10.6038410983489,0.0276298848478973,0.000953,-0.015252,0.010003,0.003490,-0.628257,312.851948,24.656922,0.999211,0.991336,0.003749,0.463683,0.000022,0.000034,0.000009,0.000039,0.000017,61.226626,0.000058,
2101,2128,-3.34654115222737,-11.3108944882837,0.0196977359022412,-0.002900,-0.017035,-0.001528,-0.134188,-0.772975,329.533563,23.541585,0.999001,0.986929,0.004945,0.372089,0.000475,0.000473,0.000092,0.000566,0.000382,44.690672,0.000954,
2266,3058,0.0891516417172085,8.97251684972332,0.0215920456463436,0.001021,-0.014894,0.011133,0.004663,-0.602003,314.095657,24.323472,0.999535,0.991928,0.003614,0.452288,0.000014,0.000021,0.000007,0.000026,0.000009,57.571582,0.000036,
2191,2383,-1.42690038199192,-5.72868401111776,0.00139147316843946,-0.000993,-0.015499,0.005831,-0.069294,-0.657013,324.994077,23.341854,0.999206,0.986422,0.004742,0.459365,0.000133,0.000128,0.000014,0.000145,0.000116,39.786338,0.000262,
2086,2308,-3.70229278435496,-7.36785174403895,-0.00148021909598128,-0.002082,-0.015996,0.006657,-0.120006,-0.679779,326.548161,23.710128,0.999374,0.988758,0.004530,0.401336,0.000251,0.000188,0.000046,0.000276,0.000163,27.877008,0.000444,
2446,2068,4.20008407767461,-12.6357017577148,0.0277861709103036,0.000681,-0.018887,0.000276,0.022191,-0.825387,330.268504,21.244841,0.998703,0.976698,0.006079,0.410724,0.000732,0.000682,-0.000065,0.000777,0.000637,-34.593512,0.001416,
2401,3073,3.01950851198382,9.3083080380773,0.0196061672871224,0.001242,-0.015222,0.010780,0.011944,-0.619997,313.789839,24.822527,0.999616,0.991047,0.003793,0.439682,0.000023,0.000043,0.000022,0.000057,0.000008,56.942698,0.000072,
2311,2818,1.10784601081639,3.76147051674067,-0.0114250023881937,0.000363,-0.015655,0.009748,-0.022564,-0.648665,317.652305,23.981135,0.999584,0.989785,0.003924,0.395184,0.000026,0.000035,0.000015,0.000046,0.000014,53.151834,0.000063,
2251,2818,-0.196438326482987,3.7578135795624,-0.00820058689424741,0.000262,-0.015152,0.008095,-0.020020,-0.623239,317.762927,23.863538,0.999567,0.990217,0.004142,0.475543,0.000030,0.000034,0.000010,0.000042,0.000022,50.087909,0.000065,
2206,2788,-1.16946714017947,3.10344163944968,-0.0146705114586325,0.000465,-0.015395,0.007855,-0.008971,-0.640901,318.314159,23.796142,0.999049,0.987759,0.004482,0.444832,0.000032,0.000028,0.000005,0.000035,0.000024,35.765340,0.000060,
2326,2653,1.46385056054296,0.169640951921366,-0.0246533542850216,0.000261,-0.015495,0.007587,-0.020111,-0.624573,320.219092,23.570253,0.999448,0.988932,0.004109,0.465946,0.000048,0.000033,0.000028,0.000070,0.000012,37.502779,0.000088,
2176,2428,-1.76050747679399,-4.74400337772052,-0.00917420515776257,-0.000047,-0.014989,0.000901,-0.010176,-0.630371,324.284447,23.480478,0.999027,0.985750,0.004792,0.437485,0.000104,0.000079,0.000004,0.000105,0.000079,8.242673,0.000184,
2371,2893,2.39980311739048,5.39538597666892,-0.00395539008854939,0.000730,-0.015185,0.007912,-0.000560,-0.631621,316.502617,24.191744,0.999440,0.991364,0.003812,0.468241,0.000018,0.000019,0.000018,0.000036,0.000001,45.290067,0.000042,
2146,2503,-2.42689091663808,-3.10704827738171,-0.0221480919056489,-0.000249,-0.015198,0.001591,-0.021481,-0.666674,323.060811,23.576148,0.998963,0.984389,0.005000,0.434543,0.000089,0.000048,0.000007,0.000090,0.000047,9.232996,0.000139,
2311,2593,1.14935000479724,-1.14060066576346,-0.010655604338524,0.000210,-0.015519,0.007972,-0.023471,-0.632319,321.316338,23.432929,0.999592,0.990974,0.003791,0.472637,0.000068,0.000040,0.000029,0.000086,0.000022,32.007434,0.000114,
2101,2338,-3.37868881503359,-6.71280171871454,0.00115651282158069,-0.000948,-0.015414,-0.000548,-0.047027,-0.682463,326.087032,23.626268,0.999189,0.987927,0.004572,0.429531,0.000208,0.000149,0.000030,0.000220,0.000137,22.480501,0.000361,
2131,2218,-2.70755454417106,-9.33747685754732,0.00913452469421827,-0.002389,-0.016110,0.004443,-0.128321,-0.686574,327.872111,23.502059,0.998416,0.977865,0.005681,0.377725,0.000334,0.000325,0.000067,0.000397,0.000262,42.886061,0.000664,
2161,2368,-2.07746017305476,-6.05546638695571,-0.00378804996370263,-0.000623,-0.015338,0.002646,-0.041975,-0.633574,325.318007,23.464292,0.999065,0.989048,0.004267,0.445103,0.000156,0.000130,0.000007,0.000158,0.000128,14.263333,0.000286,
2131,2443,-2.74319035249873,-4.4182188534076,-0.00820298496216765,-0.000530,-0.015354,0.006959,-0.050333,-0.635426,324.178509,23.529011,0.999174,0.987489,0.004681,0.515710,0.000117,0.000058,0.000015,0.000120,0.000054,13.275151,0.000178,
2116,2188,-3.02969105229158,-9.99484260264988,0.0120698884129524,-0.002523,-0.017067,0.006386,-0.140268,-0.716010,328.431209,23.548412,0.998762,0.981504,0.005368,0.362165,0.000376,0.000370,0.000082,0.000455,0.000292,44.009110,0.000752,
2341,2968,1.73400085750739,7.02459466473921,0.00240411580494992,0.001122,-0.015360,0.009272,0.013318,-0.634987,315.342349,24.415709,0.999909,0.997658,0.002548,0.367762,0.000016,0.000018,0.000015,0.000031,0.000002,46.940359,0.000038,
2281,2953,0.432184456800023,6.69442099684085,0.0024374360599495,0.000656,-0.015096,0.011543,-0.014072,-0.612108,315.608008,24.186943,0.999269,0.989120,0.004103,0.441004,0.000019,0.000035,0.000009,0.000039,0.000015,66.355558,0.000056,
2491,2278,5.13982433463765,-8.02518442531839,0.00944384474126991,0.000938,-0.015994,-0.000676,0.038637,-0.686412,326.845612,21.991491,0.999137,0.980672,0.005191,0.378452,0.000365,0.000265,-0.000030,0.000373,0.000257,-15.706558,0.000633,
2476,2263,4.81543390723331,-8.35512400686709,0.016345745652643,0.000567,-0.015568,-0.001326,0.024340,-0.682180,327.091494,21.938334,0.999068,0.979280,0.005354,0.441491,0.000373,0.000286,-0.000049,0.000395,0.000264,-24.349522,0.000663,
2071,2233,-4.01685043435645,-9.0078646221357,0.00853288930449025,-0.002402,-0.015537,0.003720,-0.125871,-0.636307,327.908615,23.831908,0.998737,0.983909,0.005018,0.386593,0.000325,0.000303,0.000083,0.000398,0.000230,41.309931,0.000636,
2281,3133,0.401894519917022,10.6002661302251,0.0300691136980049,0.001403,-0.015132,0.015767,0.006169,-0.610414,312.918751,24.476412,0.999654,0.994085,0.003365,0.475709,0.000018,0.000028,0.000004,0.000029,0.000016,69.117886,0.000046,
2116,2398,-3.06213433081372,-5.40131400616493,-0.00315203688643351,-0.000876,-0.015410,0.002862,-0.053857,-0.651873,325.008039,23.580760,0.998955,0.984968,0.004853,0.471657,0.000143,0.000096,0.000014,0.000147,0.000093,15.081547,0.000242,
2176,2638,-1.79647472825729,-0.163191524144395,-0.0168037064379405,0.000222,-0.015298,0.008536,-0.021563,-0.629574,320.810928,23.641629,0.999537,0.989809,0.004062,0.462802,0.000048,0.000033,0.000015,0.000057,0.000024,31.386055,0.000083,
2086,2323,-3.70383159488064,-7.03966239186575,-0.00321291530372037,-0.001277,-0.015312,0.005214,-0.078690,-0.640750,326.333010,23.686735,0.999122,0.987749,0.004666,0.464586,0.000235,0.000154,0.000041,0.000252,0.000137,22.652108,0.000394,
2311,3073,1.06434156283808,9.30121933554051,0.0276242407784935,0.001029,-0.015114,0.008922,0.011144,-0.621204,313.851228,24.538885,0.999672,0.994207,0.003213,0.402294,0.000017,0.000032,0.000013,0.000040,0.000010,60.592401,0.000052,
2206,2578,-1.1334969236866,-1.47059549691412,-0.0100304107523357,-0.000076,-0.015119,0.006810,-0.030461,-0.631851,321.739844,23.554011,0.999358,0.989045,0.004098,0.457057,0.000060,0.000051,0.000023,0.000079,0.000032,39.592935,0.000114,
2191,2488,-1.4453203527857,-3.43371746125875,-0.0172816828924169,-0.000611,-0.015338,0.002574,-0.041532,-0.644108,323.168526,23.465359,0.999056,0.982583,0.005309,0.460698,0.000079,0.000062,0.000012,0.000086,0.000055,27.054476,0.000142,
2161,2563,-2.10987625647519,-1.79921347226839,-0.007401897885984,-0.000166,-0.015613,0.008223,-0.038158,-0.637253,322.140275,23.597049,0.999127,0.986071,0.004512,0.456350,0.000073,0.000047,0.000014,0.000079,0.000041,24.123522,0.000122,
2266,2878,0.119914704450213,5.06254043640023,0.00124689890293439,0.000727,-0.015122,0.009466,-0.003526,-0.628519,316.854782,23.964168,0.999641,0.991923,0.003666,0.486365,0.000019,0.000046,0.000011,0.000050,0.000015,69.740661,0.000068,
2101,2143,-3.34956585820114,-10.9811494483244,0.0164206985311921,-0.002928,-0.017244,0.005462,-0.155901,-0.732020,329.243181,23.576519,0.998787,0.982196,0.005435,0.382573,0.000444,0.000445,0.000092,0.000537,0.000352,45.132067,0.000895,
2446,2083,4.19658108948588,-12.3051915735891,0.0261257102317245,0.000803,-0.019334,0.005992,0.006340,-0.793404,329.996125,21.358133,0.998539,0.975551,0.006366,0.384945,0.000698,0.000670,-0.000063,0.000749,0.000619,-38.767122,0.001370,
2476,2278,4.8112058263691,-8.02518944240675,0.00918642728356645,0.000314,-0.016316,0.002290,-0.001258,-0.692569,326.762817,22.057831,0.999375,0.980535,0.005237,0.370896,0.000342,0.000260,-0.000031,0.000352,0.000250,-18.345783,0.000605,
2236,2698,-0.501731485516988,1.14598157165072,-0.0160018438184011,0.000390,-0.015160,0.007086,-0.010513,-0.615927,319.688873,23.682521,0.999484,0.990885,0.003712,0.478660,0.000045,0.000039,0.000015,0.000057,0.000027,39.673856,0.000086,
2311,3298,1.021860729964,14.1809445900332,0.0105458959367297,0.001724,-0.014943,0.010722,0.037084,-0.626993,310.046908,24.907752,0.999615,0.994164,0.003023,0.491298,0.000019,0.000031,0.000006,0.000034,0.000016,67.744085,0.000051,
2296,3223,0.711623607465487,12.5523118857058,0.036731344666407,0.001227,-0.015050,0.011579,0.011735,-0.612532,311.487262,24.649709,0.999832,0.994562,0.003008,0.534687,0.000031,0.000032,0.000015,0.000047,0.000016,45.225166,0.000065,
2221,2638,-0.818666339756945,-0.161763683359652,-0.0274099129695173,-0.000029,-0.015651,0.006274,-0.027070,-0.648091,320.586446,23.531758,0.998914,0.985573,0.004860,0.522337,0.000046,0.000042,0.000026,0.000070,0.000018,42.960894,0.000093,
2251,3013,-0.229042370612607,7.99451065594871,0.0157663054954469,0.000940,-0.015060,0.011680,-0.000456,-0.601951,314.804340,24.173578,0.999448,0.989775,0.003896,0.483600,0.000008,0.000024,0.000005,0.000026,0.000006,74.535442,0.000034,
2341,2083,1.9002236248567,-12.3021343967867,0.0248956112513383,-0.000806,-0.018571,0.002839,-0.054029,-0.795277,329.819131,22.081891,0.999240,0.980521,0.005432,0.313367,0.000597,0.000648,-0.000016,0.000653,0.000592,-73.943724,0.001245,
2266,3073,0.0872072035049349,9.29742860392444,0.0312477641005557,0.001014,-0.014798,0.010187,0.007543,-0.599620,313.934414,24.344804,0.999371,0.990816,0.003895,0.457880,0.000014,0.000025,0.000006,0.000028,0.000011,67.063674,0.000040,
2341,2983,1.73144096285374,7.34941107079749,0.00937563941494091,0.000909,-0.015417,0.010035,0.000843,-0.636391,315.143706,24.395855,0.999798,0.994959,0.003046,0.421855,0.000017,0.000017,0.000014,0.000031,0.000003,44.991658,0.000038,
2146,2278,-2.38987680648647,-8.0245466352569,-6.90891470753741E-05,-0.001294,-0.016002,0.003312,-0.074838,-0.686481,326.823584,23.400970,0.998582,0.981425,0.005493,0.447316,0.000259,0.000222,0.000037,0.000282,0.000199,31.767127,0.000483,
2341,2758,1.77158866692453,2.45654596434001,-0.0104866619212771,0.000256,-0.015532,0.010031,-0.029174,-0.621273,318.616461,23.815912,0.999600,0.989959,0.003955,0.472750,0.000038,0.000052,0.000022,0.000068,0.000021,53.647180,0.000093,
2446,3253,3.9635617202835,13.2177311561188,0.0350649345612055,0.001598,-0.015186,0.011343,0.024996,-0.621627,311.041197,25.591198,0.999757,0.993928,0.003141,0.440873,0.000030,0.000028,0.000021,0.000050,0.000008,44.153876,0.000063,
2341,3193,1.69421616539959,11.9063550488511,0.042905976531415,0.001184,-0.015423,0.016147,-0.007853,-0.639135,311.979698,24.922284,0.999623,0.993098,0.003526,0.391134,0.000024,0.000031,0.000014,0.000042,0.000013,52.358771,0.000057,
2146,2518,-2.42982481359038,-2.77932924405041,-0.0246658089551488,-0.000245,-0.015553,0.006274,-0.035559,-0.652917,322.782962,23.596768,0.999051,0.986130,0.004702,0.436738,0.000087,0.000043,0.000012,0.000090,0.000040,14.903555,0.000133,
2296,3043,0.743893724219173,8.64909337211625,0.0217268746635568,0.001361,-0.015151,0.009554,0.024713,-0.610822,314.320159,24.409630,0.999337,0.989456,0.003995,0.430309,0.000017,0.000029,0.000007,0.000032,0.000014,65.918259,0.000048,
2311,2833,1.10613948410306,4.08733327754756,-0.000399118035488755,0.000657,-0.015722,0.010487,-0.011609,-0.647345,317.511202,24.048180,0.999738,0.991832,0.003685,0.361230,0.000025,0.000036,0.000017,0.000048,0.000013,54.285799,0.000064,
2326,2893,1.42096028407231,5.39276647095588,-0.00440946030653322,0.000672,-0.015614,0.009626,-0.008280,-0.634510,316.493614,24.115401,0.999284,0.990367,0.003937,0.461440,0.000020,0.000024,0.000022,0.000044,0.000000,47.953497,0.000051,
2281,3148,0.399724769105319,10.9251705047876,0.0370666497004777,0.001351,-0.015293,0.014327,0.008608,-0.609427,312.734447,24.498329,0.999545,0.992671,0.003759,0.481099,0.000020,0.000027,0.000005,0.000030,0.000017,60.727577,0.000047,
2401,3088,3.01711568805912,9.63404099516625,0.0223061324923606,0.001378,-0.015119,0.008493,0.026588,-0.614371,313.581431,24.877511,0.999549,0.990468,0.003861,0.434913,0.000027,0.000044,0.000017,0.000055,0.000016,58.168574,0.000075,
2416,3088,3.34294293342471,9.63497311806825,0.0222367770633127,0.001229,-0.015310,0.009732,0.014724,-0.629112,313.585281,24.923803,0.999671,0.992065,0.003629,0.429646,0.000025,0.000047,0.000018,0.000057,0.000015,60.908810,0.000076,
2251,2833,-0.198706397477153,4.08459750228004,-0.00968757774160167,0.000769,-0.015233,0.008083,0.003307,-0.630369,317.529416,23.928098,0.999422,0.990531,0.003973,0.426996,0.000029,0.000035,0.000013,0.000045,0.000018,51.042573,0.000065,
2311,2608,1.14653532682685,-0.81336281597995,-0.0119621207763885,0.000260,-0.015498,0.008059,-0.021468,-0.635017,321.063930,23.467801,0.999678,0.990721,0.003731,0.467991,0.000062,0.000036,0.000032,0.000083,0.000014,34.028177,0.000105,
2356,2803,2.09039400565421,3.43679007754243,-0.00586700878301372,0.000654,-0.015177,0.008037,-0.004123,-0.613777,317.946746,23.948912,0.999817,0.994503,0.003335,0.470613,0.000026,0.000040,0.000015,0.000050,0.000016,57.699717,0.000069,
2326,2668,1.46126033299884,0.49736333349675,-0.0213719557271475,0.000209,-0.015350,0.007491,-0.022112,-0.631821,320.000309,23.712513,0.999662,0.990888,0.003885,0.351239,0.000046,0.000039,0.000025,0.000067,0.000018,40.936796,0.000090,
2236,2953,-0.544608847605609,6.69155334394527,0.005483433627262,0.001054,-0.014814,0.009346,0.012870,-0.609096,315.741883,24.098152,0.999440,0.991485,0.003795,0.425699,0.000006,0.000042,0.000009,0.000044,0.000004,76.369831,0.000053,
2116,2413,-3.06448193728817,-5.07277530772338,-0.00135720955154284,-0.000818,-0.015421,0.004757,-0.056774,-0.634231,324.777419,23.675889,0.999165,0.986586,0.004754,0.399271,0.000131,0.000075,0.000007,0.000132,0.000074,7.334863,0.000209,
2071,2248,-4.01904685951209,-8.68087251743494,0.00976226515285816,-0.002304,-0.016070,0.005100,-0.125453,-0.647248,327.678702,23.752219,0.998801,0.983930,0.004924,0.454126,0.000305,0.000294,0.000077,0.000376,0.000222,42.949728,0.000605,
2116,2203,-3.03190650919487,-9.66603045454946,0.00805985034531886,-0.002319,-0.016501,0.003144,-0.121168,-0.719675,328.175627,23.557916,0.997945,0.976820,0.005869,0.355182,0.000356,0.000344,0.000076,0.000426,0.000274,42.889114,0.000705,
2266,2893,0.117116028081732,5.38941931243119,-0.00174356414913746,0.000860,-0.015328,0.009682,0.001891,-0.615838,316.590317,24.024186,0.999598,0.990598,0.003755,0.464393,0.000018,0.000040,0.000014,0.000047,0.000011,63.611586,0.000062,
2311,3088,1.06187066971984,9.62597026524443,0.0295824440478327,0.001194,-0.015180,0.008999,0.018466,-0.627469,313.630023,24.508741,0.999695,0.994995,0.003088,0.457231,0.000019,0.000027,0.000008,0.000032,0.000014,59.819721,0.000047,
2446,2098,4.19326970166945,-11.9746750798505,0.0154296323050289,0.000618,-0.018155,-0.003278,0.032802,-0.795383,329.691173,21.412502,0.999190,0.978736,0.005877,0.384316,0.000660,0.000639,-0.000071,0.000722,0.000578,-40.715237,0.001302,
2386,2923,2.72024542816654,6.04900626377373,-0.00383230801014633,0.000944,-0.015620,0.011424,-0.003862,-0.641959,316.018312,24.340655,0.999354,0.989286,0.004147,0.421246,0.000023,0.000003,0.000021,0.000036,-0.000010,32.367627,0.000037,
2281,2968,0.430023662688846,7.02043869904956,0.00461259417767224,0.000844,-0.015055,0.008565,0.004572,-0.620936,315.399994,24.247238,0.999301,0.989834,0.003981,0.398916,0.000014,0.000033,0.000011,0.000038,0.000010,65.962454,0.000050,
2176,2653,-1.79997904024573,0.165058522093936,-0.0287766252026245,-0.000048,-0.015080,0.006982,-0.029082,-0.618983,320.459732,23.679265,0.999539,0.989615,0.004138,0.448727,0.000047,0.000027,0.000013,0.000053,0.000021,26.182199,0.000076,
2191,2713,-1.48354672815951,1.47149442841032,-0.0221103572639549,0.000206,-0.015380,0.009979,-0.027203,-0.617716,319.495848,23.718002,0.999242,0.989981,0.003995,0.462086,0.000039,0.000023,0.000007,0.000042,0.000020,20.417775,0.000063,
2101,2353,-3.38200016823224,-6.38292916671138,-0.00992818348157698,-0.001042,-0.014922,0.001714,-0.057779,-0.626798,325.741291,23.659549,0.998912,0.983694,0.005095,0.455328,0.000190,0.000134,0.000020,0.000196,0.000127,17.886046,0.000326,
2206,2803,-1.17257355023922,3.42962750032515,-0.0136688723295606,0.000224,-0.015765,0.012849,-0.036010,-0.635542,318.051677,23.803266,0.998637,0.984228,0.004974,0.459653,0.000030,0.000029,0.000008,0.000038,0.000021,43.133598,0.000060,
2476,2293,4.80776292390009,-7.69882597520048,0.0120283246774875,-0.000092,-0.016783,0.005004,-0.030300,-0.707789,326.515732,21.962208,0.999480,0.981514,0.005131,0.510085,0.000316,0.000227,-0.000022,0.000321,0.000222,-13.329223,0.000546,
2176,2443,-1.76391450460858,-4.41711391175473,-0.00733182875063676,-0.000822,-0.015477,0.004634,-0.057469,-0.644974,324.010662,23.468737,0.999240,0.986247,0.004707,0.448364,0.000095,0.000077,0.000008,0.000098,0.000074,20.446907,0.000173,
2221,2893,-0.860549244367423,5.38659247964348,0.00293147399423788,0.000578,-0.014883,0.009401,-0.008846,-0.598957,316.712719,23.940299,0.999624,0.992769,0.003519,0.484464,0.000013,0.000046,0.000016,0.000053,0.000006,68.558834,0.000065,
2491,2293,5.13624236467268,-7.69735722557252,0.00773521421001533,0.000611,-0.016047,-0.000362,0.022441,-0.709678,326.572746,21.992135,0.999294,0.981495,0.005050,0.415381,0.000338,0.000226,-0.000019,0.000341,0.000223,-9.285526,0.000568,
2371,2908,2.39667296029459,5.7219082258725,-0.00794870686058857,0.000821,-0.015306,0.008379,0.001915,-0.629104,316.226701,24.228331,0.999365,0.989461,0.004070,0.474726,0.000020,0.000007,0.000018,0.000033,-0.000006,35.255342,0.000034,
2131,2233,-2.70893043916726,-9.00910004980378,0.0107383166305794,-0.001688,-0.015953,0.001033,-0.085941,-0.679311,327.686183,23.530296,0.998705,0.979984,0.005444,0.364510,0.000313,0.000297,0.000061,0.000366,0.000244,41.216067,0.000614,
2326,1993,1.58921008045004,-14.2796163334968,0.028277622117173,-0.001159,-0.019992,0.001292,-0.065177,-0.876909,331.287805,21.884931,0.997973,0.971603,0.006663,0.294516,0.000701,0.000760,-0.000045,0.000785,0.000676,-61.710300,0.001463,
2251,2848,-0.201628253922241,4.41053522777326,-0.00950874234797539,0.000678,-0.015596,0.010539,-0.009038,-0.632670,317.274521,23.927218,0.999306,0.991841,0.003847,0.448646,0.000029,0.000040,0.000017,0.000052,0.000017,54.643525,0.000072,
2341,2098,1.89693236094588,-11.9725693884985,0.0188687008065358,-0.000812,-0.018282,0.003168,-0.055324,-0.785097,329.525958,22.087516,0.999392,0.982570,0.005161,0.358032,0.000564,0.000618,-0.000016,0.000623,0.000560,-74.572682,0.001183,
2281,3163,0.397034748146069,11.2510581347592,0.0393049640744039,0.001379,-0.015293,0.016294,0.003337,-0.598437,312.502000,24.575270,0.999527,0.991989,0.003667,0.441692,0.000024,0.000032,0.000009,0.000038,0.000019,58.172348,0.000057,
2161,2383,-2.08052437024388,-5.72712676030053,-0.0100593004781331,-0.000794,-0.015144,0.002632,-0.049735,-0.637264,325.015838,23.476057,0.998941,0.987233,0.004574,0.441917,0.000142,0.000118,0.000010,0.000146,0.000114,20.407592,0.000260,
2341,2773,1.76953919547776,2.7827675448516,-0.00378500004967464,0.000653,-0.015902,0.011840,-0.017429,-0.644040,318.440239,23.891942,0.999619,0.991773,0.003666,0.410500,0.000036,0.000048,0.000020,0.000063,0.000021,53.682868,0.000088,
2266,3088,0.084237678964687,9.62267626229331,0.0332783697016907,0.000749,-0.015343,0.012162,-0.011417,-0.619943,313.687495,24.374014,0.999581,0.991945,0.003656,0.432538,0.000014,0.000020,0.000004,0.000022,0.000012,64.642630,0.000035,
2071,2263,-4.02107773591867,-8.3528710080639,0.00975288324298162,-0.001913,-0.016355,0.007162,-0.113474,-0.665061,327.449426,23.763828,0.999144,0.986229,0.004744,0.423971,0.000284,0.000267,0.000073,0.000350,0.000202,41.612095,0.000558,
2191,2398,-1.42920984757566,-5.4023831240721,0.0124483249723539,-0.001386,-0.016125,0.007956,-0.094218,-0.668257,324.819645,23.345938,0.999096,0.984781,0.005074,0.459722,0.000120,0.000121,0.000010,0.000130,0.000111,45.551161,0.000241,
2191,2503,-1.44729589731617,-3.10719831519041,-0.00942166994497029,-0.000404,-0.015567,0.005276,-0.040568,-0.665951,322.992714,23.501144,0.999186,0.985633,0.004847,0.418374,0.000077,0.000053,0.000017,0.000086,0.000044,27.624206,0.000132,
2326,2683,1.45840136279987,0.823572798852872,-0.0221559639859379,0.000287,-0.015282,0.008724,-0.022752,-0.615535,319.749572,23.663051,0.999734,0.991440,0.003826,0.451675,0.000042,0.000046,0.000023,0.000067,0.000021,47.246701,0.000091,
2161,2578,-2.11306466684107,-1.47180857380697,-0.0121135103647703,-0.000411,-0.015508,0.010272,-0.055662,-0.626970,321.840546,23.592308,0.999171,0.985859,0.004479,0.482313,0.000063,0.000045,0.000012,0.000069,0.000039,26.997819,0.000110,
2086,2338,-3.70537672568174,-6.71277558719247,0.00605073394297051,-0.001252,-0.015261,0.002500,-0.069672,-0.655000,326.177750,23.710948,0.998830,0.985427,0.004924,0.426652,0.000217,0.000142,0.000040,0.000234,0.000125,23.201238,0.000365,
2326,2908,1.41862820616904,5.71903037112821,-0.00114126717107865,0.000978,-0.015605,0.010782,0.001793,-0.639370,316.286256,24.187179,0.999209,0.989704,0.004078,0.418730,0.000022,0.000018,0.000023,0.000043,-0.000003,42.782424,0.000048,
2326,3148,1.37682142040011,10.9291396966045,0.0331469511007754,0.001420,-0.015257,0.010972,0.021695,-0.620651,312.670703,24.700409,0.999460,0.992483,0.003634,0.461376,0.000020,0.000029,0.000009,0.000035,0.000015,58.021784,0.000051,
2101,2158,-3.35130589978968,-10.6527757665414,0.022330374266005,-0.002727,-0.016998,0.005172,-0.145760,-0.719369,329.061320,23.618213,0.998800,0.981502,0.005522,0.357432,0.000421,0.000419,0.000083,0.000503,0.000337,44.607857,0.000845,
2446,3268,3.95876968843373,13.5437016387873,0.0165218018320843,0.001486,-0.015365,0.013416,0.012051,-0.616578,310.625812,25.595339,0.999696,0.993345,0.003284,0.492553,0.000033,0.000015,0.000026,0.000051,-0.000003,35.538922,0.000057,
2131,2458,-2.74581044734612,-4.08792087095684,-0.0140856376395959,-0.000395,-0.014826,0.005915,-0.040803,-0.588928,323.895143,23.700224,0.999247,0.987830,0.004650,0.398259,0.000108,0.000051,0.000007,0.000109,0.000050,7.284692,0.000163,
2311,3103,1.05912592029002,9.9521130275562,0.0291518585636936,0.001214,-0.014948,0.008343,0.021784,-0.608466,313.383912,24.570338,0.999439,0.992643,0.003603,0.445876,0.000020,0.000033,0.000006,0.000035,0.000017,67.654410,0.000053,
2176,2668,-1.80135445372974,0.490069990779894,-0.0125754294394369,0.000036,-0.015278,0.007515,-0.026929,-0.619454,320.354389,23.671154,0.999582,0.991942,0.003695,0.468691,0.000043,0.000022,0.000011,0.000048,0.000018,23.102650,0.000068,
2296,3058,0.741129662970064,8.97428776417805,0.0186168947703891,0.001419,-0.014943,0.007390,0.034708,-0.618118,314.059211,24.380910,0.999530,0.992333,0.003582,0.481042,0.000018,0.000026,0.000010,0.000033,0.000010,55.669292,0.000045,
2266,2908,0.114558473050895,5.71557430564139,0.000339855762547359,0.000738,-0.015073,0.008166,0.001344,-0.628813,316.362681,24.084434,0.999677,0.992147,0.003551,0.415959,0.000016,0.000034,0.000016,0.000043,0.000007,59.827531,0.000055,
2476,2308,4.80549047974793,-7.36789334268897,0.00903374026296433,0.000283,-0.015770,-0.003179,0.018275,-0.680583,326.295179,22.188379,0.999205,0.977630,0.005749,0.369608,0.000300,0.000197,-0.000012,0.000301,0.000196,-6.490665,0.000501,
2341,3208,1.69206111525764,12.2306727447844,0.0456281315964588,0.001462,-0.015209,0.013670,0.013733,-0.621728,311.778538,24.862336,0.999596,0.992745,0.003513,0.504247,0.000026,0.000028,0.000015,0.000042,0.000012,47.108491,0.000057,
2206,2818,-1.17468135688661,3.75512123449888,-0.0106481717863289,0.000383,-0.015851,0.011241,-0.023677,-0.653165,317.845687,23.789197,0.998985,0.987079,0.004492,0.472616,0.000026,0.000036,0.000010,0.000042,0.000019,58.237582,0.000063,
2221,2653,-0.8209181658906,0.164640105946084,-0.020541434062693,0.000047,-0.015648,0.009247,-0.033074,-0.648702,320.394528,23.570574,0.999265,0.988137,0.004425,0.501919,0.000047,0.000039,0.000024,0.000068,0.000019,40.416609,0.000091,
2116,2428,-3.06697174316979,-4.74601046335413,0.000640447966532065,-0.000942,-0.015533,0.006376,-0.067291,-0.647277,324.541907,23.646035,0.999211,0.987326,0.004614,0.420755,0.000122,0.000054,0.000015,0.000126,0.000051,11.745616,0.000182,
2326,2008,1.58719820767491,-13.9502886405023,0.0311156642056858,-0.000813,-0.019450,-0.001313,-0.040217,-0.880324,331.095168,21.947189,0.998276,0.972627,0.006607,0.266570,0.000691,0.000762,-0.000035,0.000776,0.000677,-67.524421,0.001454,
2446,2113,4.19135325354648,-11.6458291631709,0.0217971776800141,0.001117,-0.017405,-0.004101,0.059022,-0.779078,329.528382,21.488783,0.999333,0.978385,0.005826,0.379226,0.000625,0.000615,-0.000074,0.000693,0.000546,-42.978032,0.001242,
2206,2593,-1.13586338656838,-1.14408686762248,-0.00242962624133725,0.000059,-0.016068,0.013350,-0.045247,-0.628310,321.545552,23.586436,0.999163,0.986617,0.004446,0.445399,0.000056,0.000043,0.000025,0.000075,0.000024,37.402143,0.000103,
2401,3103,3.01474662295836,9.95913062112022,0.0291100575526571,0.001386,-0.014889,0.008436,0.027276,-0.607050,313.393660,24.900926,0.999553,0.992207,0.003558,0.463301,0.000025,0.000045,0.000019,0.000057,0.000013,58.467606,0.000075,
2251,3028,-0.231594388570521,8.32049280445516,0.0127467927638349,0.001070,-0.014950,0.008684,0.015338,-0.617616,314.549859,24.217444,0.999446,0.988682,0.003945,0.446635,0.000009,0.000022,0.000003,0.000023,0.000008,76.553175,0.000032,
2341,2113,1.89505789867695,-11.644231349559,0.0253056577044504,-0.000458,-0.018096,0.002126,-0.035425,-0.775752,329.357935,22.123795,0.999452,0.982915,0.005079,0.370612,0.000533,0.000597,-0.000016,0.000601,0.000529,-76.411456,0.001130,
2281,2983,0.427229732831027,7.34571252017898,0.00314861330002714,0.000901,-0.014918,0.008852,0.006252,-0.618323,315.144859,24.206678,0.999335,0.989961,0.003972,0.469293,0.000016,0.000032,0.000012,0.000038,0.000010,61.060044,0.000051,
2236,2713,-0.504830068274583,1.47259960799393,-0.0189424269651681,0.000259,-0.015623,0.008844,-0.022448,-0.651159,319.409007,23.712003,0.999406,0.989993,0.003756,0.435475,0.000044,0.000031,0.000010,0.000049,0.000026,27.904230,0.000077,
2236,2968,-0.547421133332197,7.01694724200118,0.00898759681552974,0.000766,-0.014907,0.011082,-0.006048,-0.608847,315.507840,24.100337,0.999437,0.991570,0.003758,0.444206,0.000003,0.000038,0.000010,0.000041,0.000001,74.655490,0.000047,
2416,3103,3.34032804786473,9.96092931953276,0.024420140137579,0.001289,-0.015122,0.008492,0.022117,-0.623806,313.365070,25.000268,0.999810,0.994683,0.003214,0.405002,0.000023,0.000046,0.000020,0.000058,0.000011,60.129834,0.000074,
2491,2308,5.13307221387248,-7.36831786129051,0.00936890471865581,0.000400,-0.016151,-0.000387,0.012831,-0.703919,326.333438,22.113412,0.998998,0.979547,0.005390,0.360957,0.000324,0.000195,-0.000010,0.000325,0.000194,-4.489448,0.000525,
2146,2533,-2.43174221325397,-2.453009322273,-0.0148520611169261,-0.000362,-0.015305,0.006181,-0.040566,-0.631513,322.617270,23.596891,0.999300,0.987666,0.004296,0.466560,0.000083,0.000041,0.000015,0.000088,0.000036,18.279382,0.000127,
2101,2368,-3.38313302812697,-6.05709176652128,0.000894172430832896,-0.000510,-0.015256,0.001745,-0.033541,-0.628514,325.614413,23.599989,0.998839,0.982625,0.005291,0.515637,0.000177,0.000125,0.000022,0.000185,0.000117,19.831233,0.000304,
2116,2218,-3.03421263982883,-9.33735011916343,0.00952736573520951,-0.002309,-0.016263,0.003717,-0.122332,-0.689264,327.945075,23.584214,0.998240,0.978767,0.005719,0.365089,0.000334,0.000327,0.000071,0.000402,0.000259,43.778347,0.000666,
2311,2623,1.14407847730789,-0.486783192535214,-0.00790201373320087,0.000140,-0.015395,0.006469,-0.021506,-0.626264,320.854407,23.481456,0.999551,0.988931,0.003968,0.495892,0.000054,0.000040,0.000032,0.000080,0.000014,38.622301,0.000102,
2326,2923,1.4160588851603,6.04431825026161,0.00331863981011793,0.000958,-0.015355,0.012005,-0.003311,-0.632361,316.074046,24.169647,0.998825,0.986775,0.004563,0.477075,0.000022,0.000018,0.000021,0.000041,-0.000002,42.662848,0.000047,
2356,2818,2.08769138251336,3.76318628904532,-0.00529806301119606,0.000832,-0.015098,0.009079,0.000387,-0.616360,317.711625,23.985959,0.999664,0.992084,0.003681,0.469486,0.000024,0.000037,0.000014,0.000046,0.000015,57.336643,0.000064,
2221,2908,-0.862639498708234,5.7125596174205,0.00729532668725597,0.000777,-0.014888,0.009022,0.001510,-0.614717,316.515209,24.001295,0.999631,0.991894,0.003810,0.426103,0.000014,0.000040,0.000016,0.000047,0.000006,64.727765,0.000058,
2086,2353,-3.70811640498908,-6.38416253776859,0.00100918928728788,-0.001330,-0.015199,0.002648,-0.073666,-0.640266,325.889779,23.728222,0.998338,0.980302,0.005571,0.425244,0.000198,0.000125,0.000030,0.000209,0.000114,20.000242,0.000327,
2191,2728,-1.4852516392448,1.79757022936515,-0.0189818602315199,0.000599,-0.015083,0.006464,0.002018,-0.623266,319.307752,23.721061,0.999240,0.989545,0.004041,0.467937,0.000039,0.000023,0.000006,0.000041,0.000021,18.932230,0.000063,
2311,2848,1.1036457624581,4.41242549411322,0.000314054121304252,0.000675,-0.015218,0.007867,-0.001575,-0.620796,317.283267,23.944970,0.999815,0.992348,0.003643,0.523110,0.000025,0.000038,0.000018,0.000050,0.000013,55.240825,0.000066,
2326,2698,1.45567862138063,1.14910021080524,-0.0165170186158434,-0.000031,-0.015265,0.009348,-0.039512,-0.611882,319.536628,23.620788,0.999624,0.990584,0.003916,0.532322,0.000038,0.000048,0.000023,0.000066,0.000020,51.261006,0.000090,
2371,2923,2.39384894712459,6.04829708560064,-0.00347738128954234,0.000611,-0.015221,0.009513,-0.011710,-0.617014,316.005370,24.308257,0.999348,0.989345,0.004082,0.447511,0.000019,0.000007,0.000018,0.000032,-0.000006,36.205521,0.000034,
2101,2173,-3.3536924599067,-10.3231464660744,0.0148333838632766,-0.002328,-0.016700,0.004603,-0.125746,-0.702279,328.777501,23.632480,0.998905,0.982884,0.005267,0.364393,0.000402,0.000386,0.000082,0.000476,0.000311,42.226046,0.000793,
2341,3223,1.6889830460757,12.5571627307331,0.0401082211540142,0.001502,-0.015114,0.011861,0.022031,-0.610727,311.493920,24.965489,0.999530,0.991961,0.003511,0.447076,0.000028,0.000032,0.000014,0.000045,0.000016,49.335154,0.000063,
2146,2293,-2.39241248707398,-7.69666559909411,0.00355486774122937,-0.001714,-0.016139,0.002041,-0.090370,-0.697668,326.596670,23.444043,0.998498,0.983731,0.005206,0.402955,0.000248,0.000210,0.000037,0.000270,0.000187,31.161809,0.000460,
2341,2128,1.89141946782471,-11.314155510815,0.0170165311734536,-0.000864,-0.017402,-0.000549,-0.044466,-0.773715,329.037816,22.171378,0.999565,0.986798,0.004606,0.365058,0.000506,0.000581,-0.000012,0.000582,0.000504,-80.969648,0.001088,
2176,2458,-1.76581143418326,-4.09013947208913,-0.00392841992322701,-0.000431,-0.015354,0.004836,-0.040113,-0.647122,323.814099,23.471223,0.999209,0.986263,0.004756,0.456941,0.000088,0.000070,0.000006,0.000090,0.000068,16.082630,0.000158,
2071,2278,-4.02285451252088,-8.02283768382207,0.00250571653270981,-0.001318,-0.015309,0.001062,-0.068486,-0.653576,327.191707,23.863627,0.999857,0.994222,0.003730,0.334811,0.000272,0.000245,0.000072,0.000331,0.000185,39.663667,0.000523,
2161,2398,-2.08192124554727,-5.40100806024275,-0.00355084023965446,-0.000443,-0.014974,-0.001594,-0.020648,-0.662669,324.857680,23.434201,0.998913,0.986225,0.004697,0.469723,0.000129,0.000110,0.000007,0.000131,0.000108,17.671403,0.000240,
2266,3103,0.0818959395635801,9.94865595539038,0.0287049093956284,0.001215,-0.014905,0.008951,0.020837,-0.607502,313.435847,24.400031,0.999688,0.993431,0.003422,0.443772,0.000017,0.000026,0.000002,0.000026,0.000016,75.164327,0.000043,
2341,2998,1.72873708968255,7.67521686133747,0.0121223031168824,0.000963,-0.015451,0.011906,-0.003156,-0.620586,314.917542,24.424430,0.999883,0.997036,0.002821,0.445197,0.000014,0.000019,0.000010,0.000027,0.000006,52.477577,0.000035,
2341,2788,1.76673328546665,3.10964900085438,-0.00606389735406765,0.000691,-0.015358,0.009918,-0.008729,-0.620599,318.185357,23.916398,0.999624,0.992939,0.003532,0.446187,0.000034,0.000048,0.000016,0.000058,0.000024,57.153136,0.000084,
2296,3238,0.708966119479573,12.87824574791,0.0338362325043136,0.001589,-0.014920,0.012126,0.026667,-0.596868,311.231514,24.715801,0.999673,0.992525,0.003386,0.512988,0.000033,0.000024,0.000011,0.000041,0.000016,34.196776,0.000059,
2326,2023,1.58356738435578,-13.6203324919547,0.0257361932106051,-0.001022,-0.019292,0.001952,-0.060926,-0.841475,330.788172,21.937072,0.998695,0.977919,0.006065,0.353941,0.000668,0.000745,-0.000020,0.000750,0.000664,-76.441827,0.001415,
2446,2128,4.18787240667851,-11.3170493134096,0.0252558998989798,0.000760,-0.017693,0.000768,0.024470,-0.775899,329.280555,21.545465,0.999344,0.977786,0.005954,0.380903,0.000593,0.000600,-0.000071,0.000667,0.000526,-46.256521,0.001196,
2311,3118,1.05630729617146,10.2775476544156,0.0301604393392836,0.001095,-0.015023,0.008254,0.016548,-0.616043,313.141713,24.606196,0.999253,0.991375,0.003891,0.433510,0.000022,0.000029,0.000009,0.000035,0.000016,54.867181,0.000052,
2191,2413,-1.43226279173728,-5.07209517556797,-0.00497342072469564,-0.001130,-0.015099,0.001780,-0.062778,-0.640570,324.462473,23.408958,0.999085,0.986757,0.004698,0.441107,0.000109,0.000104,0.000003,0.000110,0.000103,22.358448,0.000213,
2251,2863,-0.204056442963367,4.73664242293054,-0.0106826687824082,0.000905,-0.015498,0.009191,0.005866,-0.635820,317.035364,23.936962,0.999460,0.991598,0.003750,0.458756,0.000023,0.000039,0.000012,0.000045,0.000016,61.164190,0.000064,
2386,2938,2.71733569935775,6.37487434256114,0.000598140387353396,0.000782,-0.015741,0.013953,-0.020459,-0.646200,315.793909,24.392506,0.999356,0.989113,0.004137,0.407597,0.000021,0.000008,0.000017,0.000033,-0.000004,35.033517,0.000036,
2476,2323,4.80193542572072,-7.03964290546354,0.00519158323260172,0.000467,-0.015780,0.001175,0.010232,-0.663969,326.012195,22.177101,0.999090,0.978931,0.005547,0.456543,0.000276,0.000177,-0.000001,0.000276,0.000177,-0.595069,0.000457,
2131,2473,-2.74809421708096,-3.7616664182824,-0.0104063873345126,-0.000534,-0.015137,0.005346,-0.045614,-0.627436,323.679354,23.679989,0.999235,0.987001,0.004726,0.386546,0.000102,0.000050,0.000010,0.000103,0.000048,10.436437,0.000155,
2326,3163,1.37457131674534,11.2544675855371,0.0356831142067335,0.001718,-0.015263,0.010076,0.038519,-0.622014,312.463082,24.740782,0.999653,0.993436,0.003457,0.452714,0.000021,0.000035,0.000011,0.000041,0.000015,61.863684,0.000058,
2281,3178,0.394741624382267,11.5757187983802,0.0442913991088858,0.001362,-0.015348,0.015004,0.006824,-0.615254,312.301985,24.586664,0.999569,0.992744,0.003421,0.439964,0.000026,0.000031,0.000010,0.000039,0.000018,50.944885,0.000058,
2146,2548,-2.43397498262513,-2.12679006999142,-0.0104981622477567,-0.000401,-0.015411,0.006549,-0.043510,-0.635025,322.408338,23.567640,0.999075,0.985890,0.004568,0.501182,0.000082,0.000037,0.000018,0.000089,0.000030,19.375924,0.000124,
2236,2728,-0.50703283991179,1.79923860198099,-0.0169755380601373,0.000438,-0.015429,0.007244,-0.008930,-0.635696,319.195088,23.737099,0.999257,0.989047,0.004057,0.447109,0.000043,0.000029,0.000009,0.000048,0.000025,26.892208,0.000074,
2191,2518,-1.44934513351123,-2.78132363205686,2.24202167942167E-05,-0.000309,-0.015652,0.009032,-0.047994,-0.632440,322.821710,23.440730,0.999281,0.988097,0.004551,0.527578,0.000075,0.000050,0.000024,0.000089,0.000036,31.043981,0.000128,
2446,3283,3.95496303323569,13.8694687523543,0.00828100117030317,0.001439,-0.015490,0.014521,0.005618,-0.638162,310.303501,25.669632,0.999700,0.992476,0.003433,0.447116,0.000044,0.000006,0.000025,0.000057,-0.000007,26.452620,0.000062,
2326,2713,1.4529872770583,1.47795127559365,-0.0216297992071759,0.000241,-0.015016,0.006400,-0.016741,-0.620944,319.271770,23.812940,0.999302,0.986426,0.004444,0.365766,0.000034,0.000048,0.000021,0.000063,0.000019,53.935445,0.000086,
2311,2638,1.14104137106625,-0.159594329652364,-0.0081571932792599,-0.000067,-0.015365,0.007124,-0.033240,-0.625224,320.596871,23.526390,0.999443,0.988218,0.004027,0.484727,0.000050,0.000038,0.000030,0.000075,0.000013,39.394061,0.000094,
2176,2683,-1.80388026097686,0.816548768504013,-0.0186136731361444,0.000323,-0.015328,0.005732,-0.008229,-0.636907,320.079608,23.633658,0.999356,0.990737,0.003940,0.501716,0.000038,0.000024,0.000009,0.000042,0.000020,24.570258,0.000063,
2206,2833,-1.17609306922676,4.08138686319328,-0.000176179109757868,0.000768,-0.015481,0.010253,-0.002628,-0.626766,317.709834,23.862239,0.999259,0.989262,0.004119,0.442278,0.000026,0.000036,0.000014,0.000045,0.000016,55.340143,0.000064,
2311,2863,1.10090174659812,4.73938902563528,-0.00115034484133503,0.000846,-0.015360,0.008288,0.004767,-0.632615,317.032610,24.040236,0.999681,0.991646,0.003725,0.447952,0.000023,0.000030,0.000014,0.000041,0.000012,52.669703,0.000056,
2326,2038,1.58000693384297,-13.2882181586783,0.0162926132312577,-0.001367,-0.018032,-0.001762,-0.063485,-0.804274,330.464377,22.085916,0.999186,0.982766,0.005223,0.280846,0.000642,0.000697,-0.000021,0.000705,0.000635,-71.209479,0.001340,
2161,2593,-2.1156002355069,-1.14478590002649,-0.0130330368371574,-0.000372,-0.015959,0.010542,-0.054868,-0.649380,321.590859,23.623253,0.999151,0.987654,0.004441,0.439879,0.000058,0.000037,0.000014,0.000065,0.000030,26.367622,0.000097,
2296,3253,0.7057571462874,13.2041480243499,0.0273014981753477,0.001650,-0.015044,0.012407,0.028475,-0.603508,310.932225,24.785147,0.999646,0.990566,0.003681,0.465266,0.000034,0.000018,0.000014,0.000042,0.000010,30.393500,0.000055,
2371,2938,2.39136252019891,6.37382558852121,0.00483841026522214,0.000736,-0.015573,0.014477,-0.023782,-0.623824,315.818202,24.358581,0.999297,0.988581,0.004162,0.430826,0.000017,0.000012,0.000015,0.000030,-0.000001,40.314131,0.000034,
2491,2323,5.12949855592848,-7.03897168724761,0.00437458890701237,0.000793,-0.016239,0.005001,0.010230,-0.668917,326.045605,22.172689,0.998861,0.980566,0.005378,0.397923,0.000297,0.000178,-0.000001,0.000297,0.000178,-0.464871,0.000479,
2131,2248,-2.71238400552311,-8.68092762668451,0.004188926798804,-0.002236,-0.016182,0.002185,-0.114583,-0.700457,327.362086,23.489952,0.999036,0.982289,0.005160,0.392101,0.000294,0.000274,0.000055,0.000340,0.000228,39.931970,0.000571,
2341,2143,1.88740063076711,-10.9831132782071,0.000353648502539272,-0.000666,-0.017340,0.001208,-0.041474,-0.739162,328.659467,22.191255,0.999249,0.983651,0.005102,0.419947,0.000481,0.000527,-0.000009,0.000528,0.000479,-79.350545,0.001008,
2356,2833,2.08468024633263,4.08996167184391,-0.00912646950087037,0.000964,-0.015353,0.009081,0.006334,-0.628600,317.440983,24.038652,0.999728,0.990423,0.003895,0.443379,0.000025,0.000036,0.000016,0.000047,0.000014,54.960105,0.000064,
2101,2188,-3.35667214176818,-9.99411446889845,0.00880322111623855,-0.002693,-0.016079,0.002903,-0.137332,-0.682694,328.474573,23.611714,0.998862,0.983106,0.005274,0.409143,0.000379,0.000365,0.000083,0.000455,0.000289,42.550898,0.000750,
2281,2998,0.424698231709858,7.67153547180467,0.0113376143984851,0.000793,-0.015213,0.012878,-0.012278,-0.617108,314.949866,24.287817,0.999253,0.989366,0.004050,0.416136,0.000016,0.000027,0.000008,0.000032,0.000012,62.358516,0.000045,
2221,2668,-0.823193563589179,0.491719512026705,-0.0163519173730151,0.000118,-0.015512,0.009726,-0.031313,-0.643418,320.187587,23.646861,0.999517,0.992496,0.003739,0.450268,0.000047,0.000039,0.000021,0.000065,0.000021,39.875064,0.000090,
2281,3193,0.392199501466752,11.9008296705769,0.0446439537263359,0.001421,-0.015243,0.013488,0.014651,-0.611913,312.067106,24.595423,0.999651,0.992912,0.003338,0.460926,0.000029,0.000028,0.000011,0.000039,0.000017,43.652741,0.000058,
2251,3043,-0.233801258607944,8.64624829904069,0.0198521287343851,0.001230,-0.015053,0.011397,0.013801,-0.614245,314.362630,24.292432,0.999599,0.991098,0.003626,0.397340,0.000008,0.000023,-0.000001,0.000023,0.000008,-86.417723,0.000033,
2236,2743,-0.509831743210487,2.12564366190449,-0.012110711226228,0.000372,-0.015838,0.013477,-0.032262,-0.628444,318.968641,23.776341,0.999019,0.986256,0.004658,0.436040,0.000038,0.000024,0.000011,0.000044,0.000018,27.818522,0.000063,
2356,2113,2.22174060733781,-11.6423129557636,0.0139017655365024,-0.000696,-0.017534,0.000097,-0.039137,-0.755657,329.260240,22.089699,0.999456,0.980856,0.005230,0.336637,0.000550,0.000597,-0.000025,0.000608,0.000539,-66.360271,0.001147,
2191,2743,-1.48726314612134,2.12376942280745,-0.0116447837706346,0.000720,-0.015044,0.007588,0.004037,-0.618184,319.127411,23.762495,0.999355,0.989907,0.004072,0.446270,0.000034,0.000022,0.000007,0.000037,0.000018,24.660970,0.000056,
2296,3073,0.73898416964327,9.29975110914563,0.0309878574507252,0.001188,-0.015166,0.008369,0.020695,-0.622755,313.903520,24.478233,0.999589,0.994123,0.003399,0.407729,0.000017,0.000029,0.000009,0.000034,0.000012,60.982194,0.000048,
2416,3118,3.33751358472783,10.286501798569,0.0250568254047607,0.001359,-0.015276,0.008328,0.025940,-0.622109,313.128464,25.039028,0.999837,0.995012,0.003056,0.414646,0.000024,0.000045,0.000022,0.000059,0.000010,57.800597,0.000075,
2131,2488,-2.75104018938038,-3.4360336089634,-0.00876821818258122,-0.000915,-0.015900,0.009167,-0.074814,-0.641147,323.422442,23.563927,0.999241,0.986401,0.004771,0.495787,0.000096,0.000050,0.000009,0.000098,0.000048,10.134039,0.000149,
2446,3298,3.95189185216791,14.1942518031375,0.00282248319575729,0.001608,-0.015325,0.012085,0.022613,-0.630503,310.028251,25.643520,0.999708,0.993213,0.003341,0.531771,0.000049,-0.000007,0.000020,0.000055,-0.000013,17.768810,0.000058,
2341,3238,1.68574722655756,12.8828016202123,0.0367652903333919,0.001506,-0.015068,0.013844,0.015236,-0.617236,311.212880,25.024518,0.999462,0.991177,0.003591,0.416844,0.000030,0.000025,0.000011,0.000039,0.000016,39.308675,0.000057,
2101,2383,-3.38627667571059,-5.72848661013021,-0.00145742696412299,-0.000768,-0.015647,0.007503,-0.062318,-0.645420,325.323994,23.685481,0.998769,0.982820,0.005151,0.416457,0.000165,0.000106,0.000026,0.000174,0.000097,20.520085,0.000275,
2146,2308,-2.39390126607448,-7.36933854965595,0.0122985100790061,-0.001052,-0.016112,0.006490,-0.073400,-0.680655,326.444687,23.463925,0.998905,0.983025,0.005192,0.409723,0.000230,0.000182,0.000026,0.000242,0.000171,23.375051,0.000415,
2491,2338,5.12633634339309,-6.70948151588604,0.00200451864446904,0.000520,-0.015271,0.000195,0.016483,-0.648999,325.788394,22.291874,0.998960,0.984566,0.005340,0.359636,0.000284,0.000165,0.000014,0.000286,0.000163,6.423057,0.000455,
2386,2953,2.71426995667523,6.70039244892081,0.0027050534260411,0.000488,-0.016042,0.014467,-0.035955,-0.660464,315.551332,24.409503,0.999247,0.987973,0.004331,0.419089,0.000021,0.000009,0.000017,0.000033,-0.000003,35.634832,0.000036,
2221,2923,-0.86544842348211,6.03895971486017,0.00612583820003465,0.000797,-0.014724,0.010777,-0.003110,-0.588736,316.256051,24.024784,0.999580,0.991785,0.003706,0.447027,0.000014,0.000044,0.000017,0.000051,0.000006,66.208693,0.000063,
2116,2233,-3.03604920482502,-9.00864392646128,0.00951786279057387,-0.001813,-0.015983,0.003035,-0.097484,-0.667915,327.728118,23.611595,0.998462,0.979835,0.005627,0.364778,0.000314,0.000300,0.000066,0.000373,0.000241,41.973168,0.000618,
2116,2443,-3.06944003168119,-4.41994522619707,-0.00129287239900577,-0.000822,-0.015707,0.007550,-0.065305,-0.654172,324.286454,23.513911,0.999131,0.988126,0.004660,0.550927,0.000113,0.000051,0.000014,0.000116,0.000049,12.163006,0.000169,
2206,2608,-1.13896840409837,-0.816520027460257,-0.0101261771733334,-0.000057,-0.015750,0.011644,-0.045086,-0.621153,321.238192,23.584531,0.999025,0.984692,0.004755,0.472170,0.000057,0.000038,0.000029,0.000078,0.000016,35.959827,0.000101,
2206,2848,-1.17958821612143,4.40817567121044,-0.00634129264904004,0.000407,-0.015441,0.011889,-0.024458,-0.625496,317.392239,23.887202,0.999310,0.990069,0.003905,0.435145,0.000023,0.000041,0.000017,0.000051,0.000012,58.977472,0.000067,
2356,3268,2.00393169758347,13.5355243143796,0.0155853980840561,0.001357,-0.015328,0.013812,0.007954,-0.612331,310.533326,25.140876,0.999624,0.992832,0.003316,0.457804,0.000031,0.000027,0.000015,0.000044,0.000014,41.129653,0.000061,
2236,2758,-0.512622718724845,2.45271053053025,-0.0160749353466372,0.000350,-0.015405,0.011380,-0.026314,-0.613772,318.697339,23.803013,0.999199,0.987817,0.004325,0.445559,0.000036,0.000024,0.000009,0.000041,0.000019,28.252320,0.000061,
2161,2413,-2.08531054498961,-5.07228443189539,-0.004465156386118,-0.000906,-0.015341,0.004096,-0.059431,-0.631458,324.568534,23.508073,0.998855,0.985694,0.004860,0.438792,0.000119,0.000094,0.000000,0.000119,0.000094,0.990243,0.000214,
2326,2053,1.57813967774677,-12.9609884694116,0.0212200296008405,-0.000652,-0.018544,0.000822,-0.039853,-0.805402,330.288576,21.994788,0.999541,0.986345,0.004666,0.408286,0.000619,0.000683,-0.000015,0.000686,0.000616,-77.769940,0.001303,
2131,2503,-2.7533539795312,-3.10810666135412,-0.018970257935564,-0.000249,-0.015483,0.007379,-0.038762,-0.645003,323.130787,23.545001,0.999069,0.985283,0.004821,0.517830,0.000095,0.000043,0.000010,0.000097,0.000041,11.029501,0.000141,
2251,2878,-0.206763935353248,5.0630942591299,-0.00837715410273177,0.000716,-0.015353,0.009366,-0.003418,-0.646020,316.800889,24.015493,0.999567,0.990229,0.003840,0.393142,0.000018,0.000046,0.000012,0.000050,0.000013,68.950777,0.000067,
2311,2878,1.09751334108015,5.06665832946932,-0.00836210489313771,0.000791,-0.015208,0.008567,0.001347,-0.622943,316.723842,24.104624,0.999602,0.990214,0.003879,0.425238,0.000021,0.000031,0.000017,0.000044,0.000008,53.847169,0.000056,
2341,3013,1.72625065024014,8.00069208973763,0.0148287016531299,0.000945,-0.015281,0.009954,0.002820,-0.636479,314.701272,24.457632,0.999656,0.992653,0.003491,0.431998,0.000014,0.000023,0.000009,0.000028,0.000009,57.595206,0.000039,
2476,2338,4.79860022739907,-6.7107844233359,0.0071137298638746,0.000258,-0.015994,0.003787,-0.009344,-0.665878,325.765299,22.302455,0.998737,0.979651,0.005661,0.387880,0.000266,0.000167,0.000012,0.000268,0.000165,6.931576,0.000437,
2341,2158,1.8849847353178,-10.6559263275237,0.00230127694845805,-0.000621,-0.016838,-0.001120,-0.031154,-0.739297,328.445005,22.100126,0.999359,0.984870,0.004972,0.550349,0.000451,0.000472,-0.000011,0.000477,0.000446,-66.115422,0.000923,
2326,2938,1.41366299858169,6.37031773154219,0.00603380085556182,0.001064,-0.015402,0.010789,0.005753,-0.637805,315.861041,24.221263,0.999010,0.987450,0.004438,0.453849,0.000020,0.000023,0.000018,0.000040,0.000003,47.745805,0.000048,
2191,2533,-1.45281766863436,-2.45264340680747,-0.00801558109696998,-0.000525,-0.015777,0.011346,-0.065178,-0.626089,322.494171,23.511732,0.999287,0.988497,0.004349,0.478759,0.000072,0.000048,0.000024,0.000087,0.000034,31.463905,0.000124,
2461,1993,4.54451222064444,-14.283931243794,0.0248598676378151,0.001627,-0.019811,-0.005438,0.086291,-0.893739,331.550733,20.873088,0.998583,0.968020,0.006680,0.327958,0.000909,0.000736,-0.000022,0.000912,0.000733,-6.971357,0.001648,
2446,2143,4.18347555225074,-10.98613683104,0.0100096761667032,0.000327,-0.017183,-0.002856,0.018378,-0.764775,328.904613,21.592705,0.999161,0.978344,0.005897,0.400682,0.000561,0.000565,-0.000079,0.000642,0.000484,-45.862963,0.001130,
2236,2983,-0.549327395439406,7.34255382691826,0.0155513178672777,0.000968,-0.014857,0.009968,0.006893,-0.607951,315.330953,24.145920,0.999440,0.992201,0.003691,0.419874,0.000004,0.000035,0.000011,0.000038,0.000001,72.369804,0.000044,
2356,2128,2.21914067113665,-11.3140625966265,0.0147330317669798,-0.000568,-0.017326,-0.000326,-0.031706,-0.760671,329.033218,22.077258,0.999273,0.981641,0.005233,0.385672,0.000523,0.000581,-0.000022,0.000588,0.000516,-71.519949,0.001105,
2296,3268,0.702497149904588,13.5291087180077,0.024630361735035,0.001353,-0.015178,0.012412,0.014682,-0.614922,310.650113,24.798366,0.999604,0.992102,0.003458,0.469139,0.000036,0.000025,0.000015,0.000046,0.000014,35.226890,0.000063,
2341,2803,1.76369610325742,3.43676643089516,-0.0125495238381745,0.000825,-0.015361,0.008013,0.004059,-0.623113,317.899357,23.960888,0.999533,0.992236,0.003664,0.435891,0.000030,0.000040,0.000018,0.000054,0.000017,52.557912,0.000073,
2266,3118,0.0796411601941251,10.2733772351331,0.0383474267135853,0.001217,-0.015029,0.012361,0.009587,-0.606378,313.260268,24.414414,0.999663,0.993615,0.003372,0.454914,0.000017,0.000020,0.000003,0.000022,0.000015,56.940102,0.000037,
2326,3178,1.37149406552931,11.5798793307446,0.0311053992014649,0.001708,-0.015308,0.008938,0.041975,-0.625330,312.182426,24.752214,0.999677,0.993691,0.003445,0.471167,0.000022,0.000035,0.000011,0.000042,0.000016,59.843918,0.000059,
2281,3013,0.421471533589443,7.99730594345232,0.00944167100414006,0.000498,-0.015346,0.013777,-0.028840,-0.605561,314.672438,24.289208,0.999208,0.988790,0.004082,0.453274,0.000016,0.000025,0.000007,0.000029,0.000012,61.721110,0.000042,
2191,2758,-1.48959631528857,2.45027928630393,-0.0128457556641592,0.000886,-0.014917,0.005530,0.018239,-0.611346,318.887816,23.766774,0.999360,0.990315,0.003941,0.463300,0.000032,0.000021,0.000007,0.000035,0.000017,26.307369,0.000053,
2146,2563,-2.43605392080392,-1.79956426963724,-0.00778535700351313,-0.000269,-0.015142,0.005460,-0.034037,-0.628856,322.197477,23.610607,0.999058,0.985329,0.004636,0.472778,0.000080,0.000044,0.000014,0.000085,0.000039,18.851532,0.000127,
2221,2683,-0.825649205402147,0.818782436840849,-0.0196444285799089,0.000304,-0.015085,0.006951,-0.013732,-0.625736,319.933962,23.651612,0.999554,0.991921,0.003704,0.482578,0.000044,0.000040,0.000018,0.000060,0.000023,42.146484,0.000086,
2281,3208,0.390314877816667,12.2260786470859,0.0544471746832187,0.001521,-0.015074,0.012984,0.021043,-0.607877,311.909748,24.674694,0.999829,0.994824,0.002932,0.412241,0.000029,0.000023,0.000013,0.000039,0.000013,38.081334,0.000055,
2401,3118,3.01235718357797,10.2846598014271,0.0376411797632841,0.001280,-0.014891,0.008877,0.020848,-0.597541,313.212922,24.976431,0.999861,0.995358,0.002898,0.441733,0.000026,0.000043,0.000022,0.000058,0.000011,56.237152,0.000074,
2101,2203,-3.35896601505834,-9.66614099730206,0.0111635370186605,-0.002593,-0.016513,0.006065,-0.142119,-0.693680,328.248506,23.618622,0.998345,0.980312,0.005580,0.394785,0.000359,0.000342,0.000079,0.000429,0.000271,41.819351,0.000707,
2356,2848,2.08104919986391,4.41674342424153,-0.0147438060798777,0.000771,-0.015436,0.011142,-0.009850,-0.634889,317.133136,24.077617,0.999654,0.990352,0.003862,0.436844,0.000025,0.000035,0.000014,0.000045,0.000016,54.712593,0.000063,
2416,3133,3.33439801103176,10.6105936233404,0.0285056982321521,0.001179,-0.015402,0.011678,0.005299,-0.619684,312.891594,24.961715,0.999855,0.995045,0.002984,0.540958,0.000028,0.000043,0.000021,0.000059,0.000013,54.439805,0.000076,
2341,3253,1.68204331752726,13.207940606006,0.0248230197162798,0.001562,-0.015549,0.014053,0.016936,-0.632997,310.868487,25.002890,0.999500,0.992079,0.003461,0.457757,0.000030,0.000019,0.000013,0.000039,0.000010,32.834531,0.000051,
2476,2353,4.79584700704236,-6.38307436070946,0.00867484644646765,0.000637,-0.016346,0.006229,-0.001364,-0.659938,325.543517,22.316007,0.998785,0.981452,0.005688,0.438576,0.000255,0.000158,0.000023,0.000261,0.000153,12.866132,0.000418,
2371,2953,2.38813242036396,6.70028797500739,0.00150197076368386,0.000412,-0.015418,0.011551,-0.028218,-0.627974,315.540677,24.413871,0.999413,0.988804,0.004134,0.411698,0.000018,0.000013,0.000014,0.000029,0.000001,40.014015,0.000035,
2311,2653,1.13828125773944,0.16725761036453,-0.00884385290470391,0.000056,-0.015649,0.008059,-0.030881,-0.645186,320.350014,23.562385,0.999505,0.989128,0.003993,0.461291,0.000047,0.000037,0.000026,0.000068,0.000016,39.388727,0.000089,
2116,2458,-3.0714907865762,-4.09048224698709,-0.00603463530325143,-0.000363,-0.015387,0.004371,-0.034724,-0.637348,324.034153,23.647981,0.999247,0.987854,0.004550,0.438602,0.000104,0.000046,0.000006,0.000104,0.000045,5.452340,0.000153,
2296,3088,0.735996518294872,9.62448022539857,0.0298880901282246,0.001229,-0.015408,0.011003,0.013602,-0.624574,313.642354,24.421806,0.999568,0.993171,0.003528,0.491478,0.000017,0.000024,0.000005,0.000027,0.000015,62.346361,0.000042,
2491,2353,5.12356384187525,-6.38268953959059,0.00699715688955393,0.000372,-0.015022,-0.000188,0.011309,-0.630447,325.582386,22.242858,0.998771,0.984694,0.005505,0.487711,0.000271,0.000161,0.000027,0.000277,0.000155,13.042160,0.000438,
2206,2623,-1.1415045924622,-0.489068907438067,-0.0111975900624088,-0.000164,-0.014951,0.008492,-0.039770,-0.615981,320.991095,23.636156,0.999326,0.984684,0.004777,0.443036,0.000053,0.000041,0.000026,0.000074,0.000021,38.302029,0.000100,
2101,2398,-3.38851271442385,-5.40160279291035,0.00341363765721781,-0.000958,-0.015365,0.007475,-0.070881,-0.627949,325.114289,23.653618,0.999066,0.984590,0.004716,0.468472,0.000148,0.000090,0.000021,0.000155,0.000084,17.826924,0.000242,
2326,2728,1.450419527537,1.80411964101196,-0.024001671352778,0.000447,-0.014952,0.003845,0.001525,-0.633120,319.026586,23.789141,0.999426,0.988426,0.004188,0.412136,0.000031,0.000053,0.000023,0.000067,0.000017,57.916156,0.000089,
2311,3133,1.0532176302168,10.6026776273191,0.0338704126399421,0.000886,-0.015314,0.013288,-0.010445,-0.621236,312.900440,24.632045,0.999424,0.992237,0.003668,0.433319,0.000023,0.000031,0.000010,0.000038,0.000016,56.319867,0.000055,
2356,3028,2.0494295505108,8.3279841855452,0.0153387560205829,0.000935,-0.015383,0.010196,0.001092,-0.632883,314.457144,24.574679,0.999590,0.991442,0.003736,0.400890,0.000016,0.000027,0.000010,0.000032,0.000010,59.517490,0.000045,
2356,3283,2.00030516527502,13.8610570320597,0.00468511604651667,0.001331,-0.015327,0.012545,0.011138,-0.624728,310.198671,25.168726,0.999594,0.992466,0.003389,0.454962,0.000030,0.000032,0.000010,0.000040,0.000021,48.184736,0.000062,
2266,3133,0.0776292748387917,10.5975520274568,0.0438016133213637,0.001499,-0.014973,0.012104,0.023414,-0.609559,313.074918,24.359502,0.999631,0.994806,0.003210,0.531227,0.000015,0.000024,0.000005,0.000026,0.000013,65.994098,0.000040,
2161,2608,-2.11704988010768,-0.817555794690719,-0.00800287381531462,0.000251,-0.015216,0.009294,-0.022116,-0.598393,321.421961,23.655832,0.999276,0.990104,0.004217,0.469110,0.000060,0.000029,0.000016,0.000066,0.000022,22.723833,0.000092,
2131,2263,-2.71420637151296,-8.3538028878629,0.0121860976424273,-0.002104,-0.016264,0.003328,-0.112016,-0.699226,327.190024,23.485640,0.998836,0.982462,0.005305,0.405240,0.000277,0.000243,0.000050,0.000313,0.000208,35.707865,0.000524,
2146,2323,-2.39680707613629,-7.04095278519134,0.0107441918136146,-0.001304,-0.016145,0.008129,-0.089949,-0.666558,326.173257,23.485509,0.999325,0.983145,0.005096,0.411986,0.000217,0.000159,0.000019,0.000222,0.000153,16.630728,0.000378,
2266,2923,0.111995764416577,6.04085355395989,0.00434770640100623,0.000820,-0.015283,0.011474,-0.005923,-0.629733,316.144708,24.069791,0.999687,0.992274,0.003708,0.454872,0.000017,0.000034,0.000016,0.000044,0.000007,59.504812,0.000055,
2461,2008,4.54109664319209,-13.9543902383918,0.0283186510983455,0.001254,-0.019773,-0.001950,0.056212,-0.875673,331.307549,20.942309,0.998826,0.972926,0.006233,0.335006,0.000891,0.000728,-0.000036,0.000898,0.000721,-11.892214,0.001622,
2236,2773,-0.515181699845872,2.77895211872814,-0.0174432007801784,0.000290,-0.015019,0.008098,-0.018293,-0.608513,318.450130,23.788603,0.999220,0.987402,0.004271,0.486478,0.000037,0.000028,0.000012,0.000045,0.000020,34.393904,0.000067,
2446,2158,4.18087360262982,-10.6577130850043,0.0160452342727808,0.000450,-0.017377,-0.000277,0.014336,-0.765045,328.708793,21.658789,0.999261,0.978758,0.005610,0.389074,0.000535,0.000500,-0.000087,0.000607,0.000429,-39.401029,0.001040,
2146,2578,-2.43919368522177,-1.47137542816671,-0.0162688089346261,-0.000229,-0.015140,0.007732,-0.039043,-0.609500,321.878427,23.635450,0.999220,0.987605,0.004436,0.476308,0.000070,0.000042,0.000011,0.000074,0.000039,18.841585,0.000115,
2416,3148,3.33242523202057,10.9361450267048,0.0365188938359893,0.001411,-0.015343,0.010397,0.020622,-0.640440,312.728268,25.073158,0.999774,0.993928,0.003154,0.455266,0.000028,0.000034,0.000020,0.000051,0.000011,49.026126,0.000066,
2206,2863,-1.18159709174923,4.73384179948788,-0.00150862095864568,0.000436,-0.014908,0.008757,-0.012999,-0.613895,317.200011,23.885151,0.999370,0.990982,0.003698,0.465187,0.000020,0.000041,0.000014,0.000048,0.000014,63.546945,0.000065,
2296,3283,0.699809533864389,13.8548010036201,0.0184063010657383,0.001720,-0.014730,0.010090,0.039655,-0.596964,310.376339,24.834425,0.999490,0.991872,0.003467,0.479680,0.000034,0.000034,0.000013,0.000047,0.000020,44.907581,0.000069,
2176,2473,-1.76890629212118,-3.76179958860629,-0.00821485999171045,-0.000645,-0.015494,0.005963,-0.053483,-0.642285,323.522167,23.525448,0.999181,0.984631,0.005098,0.421417,0.000084,0.000066,0.000008,0.000087,0.000063,20.532045,0.000151,
2281,3223,0.38728963373562,12.5505835986166,0.055069375211815,0.001216,-0.014996,0.013367,0.005747,-0.599645,311.654149,24.631158,0.999807,0.994489,0.003094,0.490399,0.000030,0.000031,0.000013,0.000043,0.000017,45.982644,0.000062,
2191,2548,-1.45544732226739,-2.12599866052437,-0.00347090244548554,-0.000863,-0.015853,0.012264,-0.083592,-0.617957,322.271023,23.511942,0.999443,0.989697,0.004165,0.502047,0.000070,0.000047,0.000024,0.000084,0.000032,32.093940,0.000120,
2116,2248,-3.03899385743473,-8.68129305368459,0.00970158714108038,-0.002231,-0.016399,0.005617,-0.124433,-0.692621,327.462028,23.568583,0.998734,0.982385,0.005313,0.389015,0.000294,0.000279,0.000059,0.000347,0.000227,41.518707,0.000578,
2461,2023,4.53787903237138,-13.6232680036895,0.0231310626375603,0.001357,-0.019028,-0.003826,0.068265,-0.847251,331.033871,21.052556,0.999136,0.977823,0.005711,0.311438,0.000868,0.000716,-0.000051,0.000883,0.000700,-17.016764,0.001587,
2386,2968,2.71141814499395,7.0273508723343,-0.00241807936293981,0.000768,-0.015903,0.012275,-0.015102,-0.647864,315.283698,24.486073,0.999581,0.990401,0.003946,0.397755,0.000018,0.000014,0.000018,0.000035,-0.000003,42.110210,0.000039,
2116,2473,-3.07432580589395,-3.76272100733337,-0.00935512883597767,-0.000572,-0.015427,0.004539,-0.044831,-0.649743,323.754084,23.674302,0.999289,0.987924,0.004435,0.404736,0.000096,0.000047,0.000008,0.000098,0.000046,9.370039,0.000146,
2221,2698,-0.828115939014314,1.14512710880628,-0.0171645635615505,0.000388,-0.015252,0.008654,-0.015362,-0.627692,319.709645,23.662292,0.999635,0.993569,0.003335,0.489021,0.000041,0.000038,0.000015,0.000055,0.000024,42.003672,0.000080,
2326,2068,1.57502149048166,-12.6322989097904,0.0180534718678018,-0.000692,-0.018699,0.001786,-0.045025,-0.825575,330.016090,21.970929,0.999290,0.981319,0.005326,0.449939,0.000594,0.000671,-0.000011,0.000672,0.000593,-82.010939,0.001266,
2221,2938,-0.868227249423537,6.36473539930095,0.00210001748695277,0.000987,-0.015021,0.011683,0.002652,-0.598544,315.983818,24.010756,0.999596,0.992709,0.003496,0.469904,0.000012,0.000048,0.000014,0.000053,0.000007,70.621648,0.000065,
2401,3133,3.00859953438687,10.6105891920106,0.0295388561829668,0.001242,-0.015076,0.010774,0.012108,-0.599953,312.890351,25.001368,0.999801,0.994480,0.003086,0.458940,0.000028,0.000042,0.000020,0.000056,0.000014,54.676163,0.000074,
2341,3268,1.67828149612227,13.5342494315672,0.0123405468757483,0.001576,-0.015127,0.013912,0.018285,-0.608011,310.518292,25.050988,0.999530,0.992663,0.003335,0.470058,0.000032,0.000019,0.000015,0.000042,0.000009,33.004259,0.000054,
2131,2518,-2.75528527449373,-2.78102261993694,-0.00853674053274744,-0.000403,-0.015226,0.007815,-0.047037,-0.632407,322.966747,23.624635,0.999039,0.985926,0.004733,0.457328,0.000090,0.000037,0.000014,0.000093,0.000034,13.730707,0.000132,
2356,2143,2.21653837886115,-10.9850068967401,0.0159303723523863,-0.000387,-0.017401,0.000198,-0.025292,-0.752274,328.807641,22.134111,0.998719,0.978608,0.005718,0.379009,0.000499,0.000529,-0.000019,0.000538,0.000490,-64.282532,0.001029,
2476,2368,4.79160047807641,-6.05293728583724,0.00211588247270811,0.000012,-0.015729,0.006296,-0.029996,-0.635567,325.215959,22.459534,0.999500,0.985600,0.005092,0.378259,0.000245,0.000148,0.000034,0.000255,0.000137,17.317762,0.000398,
2236,2998,-0.551998285278735,7.66758748148468,0.0162807340489053,0.001066,-0.015111,0.012352,0.003553,-0.611450,315.089320,24.106934,0.999438,0.990855,0.003843,0.475813,0.000004,0.000030,0.000008,0.000032,0.000001,74.384698,0.000037,
2161,2428,-2.08727186588527,-4.74484059589364,-0.00376586187496741,-0.000341,-0.015712,0.005503,-0.037919,-0.648790,324.353681,23.533322,0.999262,0.985978,0.004641,0.407689,0.000110,0.000076,0.000006,0.000111,0.000075,10.455078,0.000188,
2311,3148,1.05050650846573,10.9283606756727,0.0317044814692622,0.000980,-0.015110,0.011434,0.000369,-0.612116,312.647331,24.662190,0.999536,0.991929,0.003732,0.443597,0.000022,0.000026,0.000010,0.000034,0.000015,50.379445,0.000050,
2326,2953,1.41066059493525,6.69729350692091,0.00690475118500444,0.000909,-0.015077,0.012267,-0.006299,-0.604182,315.610735,24.314773,0.999074,0.987394,0.004603,0.427964,0.000019,0.000023,0.000014,0.000035,0.000007,48.536839,0.000045,
2341,2173,1.88235482027271,-10.326700388212,0.00859159846169177,-0.000483,-0.017466,0.004559,-0.044796,-0.744687,328.241465,22.251582,0.999100,0.982640,0.005225,0.432866,0.000425,0.000439,-0.000013,0.000447,0.000418,-59.174136,0.000865,
2251,2893,-0.209160208865171,5.38871197366383,-0.00227435590420555,0.000561,-0.015135,0.009498,-0.010806,-0.606403,316.600086,23.999179,0.999655,0.991352,0.003653,0.471946,0.000016,0.000041,0.000015,0.000048,0.000009,65.300638,0.000062,
2176,2698,-1.8066789275512,1.14448936893049,-0.023930980822513,0.000293,-0.014722,0.003923,-0.003779,-0.609082,319.795548,23.696497,0.999416,0.990482,0.003862,0.479392,0.000036,0.000022,0.000007,0.000039,0.000019,22.266458,0.000059,
2491,2368,5.12020076037795,-6.05356303169236,0.00047868863180156,0.000800,-0.015279,0.001575,0.024069,-0.651581,325.297358,22.339820,0.998210,0.982514,0.005628,0.430275,0.000258,0.000152,0.000038,0.000270,0.000140,17.751374,0.000417,
2146,2338,-2.39933220541585,-6.71224453452448,0.00282037874478647,-0.001086,-0.015711,0.004746,-0.069584,-0.654235,325.885488,23.480875,0.999308,0.985550,0.004736,0.439074,0.000197,0.000153,0.000014,0.000202,0.000149,16.217634,0.000352,
2191,2773,-1.49362447918062,2.77761314448719,-0.0244749076995276,0.000593,-0.015448,0.010981,-0.012559,-0.619185,318.515999,23.784621,0.999223,0.989023,0.004272,0.452425,0.000030,0.000024,0.000010,0.000038,0.000017,37.008611,0.000056,
2251,3058,-0.234873071806046,8.97007739173379,0.0370598860767473,0.001393,-0.014672,0.008461,0.031071,-0.599050,314.279440,24.246788,0.999677,0.992509,0.003401,0.480588,0.000011,0.000018,0.000001,0.000018,0.000011,82.227128,0.000029,
2311,2668,1.13534145813624,0.495437673198552,-0.0134908632218185,0.000086,-0.015417,0.006105,-0.022760,-0.639536,320.074995,23.666510,0.999806,0.991860,0.003637,0.395785,0.000046,0.000045,0.000022,0.000067,0.000024,44.113292,0.000094,
2281,3028,0.419705769269974,8.32280343785322,0.0140350504606204,0.000890,-0.015098,0.010580,-0.000019,-0.607515,314.494706,24.326161,0.999069,0.988078,0.004163,0.441541,0.000018,0.000025,0.000006,0.000028,0.000015,60.863515,0.000043,
2356,2863,2.07829490185354,4.74283334762337,-0.0143944253024415,0.000869,-0.015460,0.011593,-0.006875,-0.620165,316.894456,24.081208,0.999576,0.990308,0.003878,0.486403,0.000025,0.000029,0.000011,0.000038,0.000016,50.604509,0.000056,
2206,2638,-1.14408985600938,-0.162737274738461,-0.0111271935424497,-0.000077,-0.015435,0.009970,-0.040610,-0.631924,320.747960,23.620666,0.999258,0.986187,0.004642,0.459780,0.000048,0.000040,0.000022,0.000066,0.000021,39.850175,0.000091,
2326,3193,1.36957531610153,11.9038198900605,0.0439373484387602,0.001847,-0.015577,0.011857,0.038107,-0.643502,312.040961,24.749304,0.999737,0.994536,0.003180,0.489023,0.000023,0.000031,0.000012,0.000039,0.000014,54.257790,0.000055,
2341,3028,1.72383518435302,8.32623815860293,0.0229961983798717,0.000889,-0.015676,0.011987,-0.006976,-0.643757,314.514752,24.528737,0.999728,0.993778,0.003373,0.389069,0.000016,0.000027,0.000010,0.000033,0.000010,60.368911,0.000045,
2356,3298,1.99767731656587,14.1873319251152,-0.00149975898676757,0.001835,-0.014886,0.009892,0.043911,-0.609641,309.932510,25.268094,0.999680,0.992820,0.003450,0.408128,0.000024,0.000029,0.000006,0.000033,0.000020,56.958039,0.000053,
2266,3148,0.0742678415015057,10.9233057561441,0.0410049716180652,0.001295,-0.015584,0.015433,0.002720,-0.633872,312.785335,24.424336,0.999280,0.991071,0.003887,0.466239,0.000018,0.000025,0.000006,0.000028,0.000015,61.538595,0.000044,
2101,2413,-3.39107252146391,-5.07365273927932,0.00116351498218137,-0.001067,-0.015409,0.006519,-0.073138,-0.633190,324.851217,23.678599,0.999136,0.985763,0.004664,0.441240,0.000136,0.000067,0.000016,0.000140,0.000064,12.136563,0.000208,
2296,3298,0.695618279267453,14.1806696110559,0.00479887401797896,0.001567,-0.014964,0.013679,0.020292,-0.614616,309.996428,24.887367,0.999641,0.993853,0.003222,0.437094,0.000032,0.000040,0.000015,0.000052,0.000021,52.146339,0.000075,
2446,2173,4.17853272063632,-10.3284989133481,0.0229007235080871,0.000656,-0.017313,0.000858,0.019546,-0.746031,328.528473,21.790950,0.999457,0.983445,0.004996,0.330379,0.000504,0.000472,-0.000085,0.000575,0.000401,-39.714616,0.000981,
2326,2743,1.44786674411813,2.13031340841599,-0.0183720140673245,0.000397,-0.014900,0.005685,-0.007041,-0.608078,318.821062,23.799161,0.999577,0.989963,0.003969,0.461542,0.000033,0.000049,0.000024,0.000066,0.000016,54.511452,0.000087,
2191,2563,-1.45707951662418,-1.79942205898537,-0.00206120492458695,-0.000384,-0.015448,0.007421,-0.046322,-0.636668,322.077395,23.509013,0.999377,0.989203,0.004137,0.501294,0.000067,0.000054,0.000020,0.000082,0.000040,36.280381,0.000124,
2326,2968,1.40787121077335,7.02391773488429,0.0037204148576393,0.000994,-0.015202,0.010043,0.005239,-0.624243,315.350490,24.405483,0.999695,0.994832,0.003100,0.350798,0.000014,0.000021,0.000015,0.000033,0.000002,51.373151,0.000039,
2476,2383,4.78796168196911,-5.72459403007309,-0.0075904639751343,-0.000032,-0.015618,0.003039,-0.019594,-0.640791,324.902309,22.443874,0.999527,0.984786,0.005106,0.447337,0.000235,0.000127,0.000028,0.000242,0.000120,13.924732,0.000368,
2311,2893,1.09409108266411,5.39346279934179,-0.0095732606338288,0.000397,-0.015340,0.010762,-0.024325,-0.628355,316.443184,24.190296,0.999516,0.991138,0.003769,0.365933,0.000019,0.000026,0.000020,0.000043,0.000002,49.546656,0.000051,
2236,2788,-0.517427636988923,3.10517374185547,-0.0154329617599842,0.000418,-0.015035,0.006369,-0.006837,-0.618033,318.234523,23.817898,0.999368,0.988836,0.004173,0.468705,0.000034,0.000032,0.000010,0.000043,0.000023,43.108013,0.000067,
2131,2278,-2.71647379337969,-8.02565208021036,0.00979994367850168,-0.001568,-0.016858,0.006970,-0.098462,-0.712185,326.942250,23.488204,0.998766,0.982373,0.005388,0.397488,0.000265,0.000228,0.000046,0.000296,0.000197,33.878712,0.000496,
2341,3283,1.67511520494596,13.8594690732407,0.00491163139048467,0.001763,-0.015238,0.013278,0.028962,-0.629376,310.220472,25.077744,0.999609,0.993430,0.003189,0.457040,0.000031,0.000024,0.000012,0.000040,0.000015,37.448869,0.000057,
2371,2188,2.53581168792585,-9.99788332361919,0.013868292083373,-0.000033,-0.016722,-0.000266,-0.007239,-0.734214,328.088199,22.215289,0.998893,0.982041,0.005344,0.363071,0.000430,0.000419,-0.000033,0.000458,0.000391,-40.128812,0.000850,
2266,2938,0.109089967950361,6.36632182656753,0.00102692104837843,0.000930,-0.015490,0.012565,-0.004521,-0.627826,315.873989,24.021667,0.999522,0.991179,0.003776,0.529976,0.000017,0.000041,0.000016,0.000049,0.000009,63.283822,0.000063,
2176,2713,-1.80896381300164,1.47073499545297,-0.016086951197849,0.000276,-0.015111,0.007892,-0.017007,-0.617776,319.604461,23.752150,0.999312,0.989515,0.004042,0.427384,0.000036,0.000017,0.000002,0.000037,0.000017,7.248670,0.000055,
2161,2623,-2.12023457801493,-0.489467199613983,-0.0184057145158931,0.000230,-0.015218,0.008810,-0.021656,-0.622976,321.092311,23.715157,0.999486,0.990558,0.004040,0.395968,0.000058,0.000030,0.000014,0.000064,0.000024,22.628220,0.000091,
2296,3103,0.733580363231891,9.95049721398781,0.0327549014003239,0.001336,-0.015090,0.010706,0.019694,-0.608684,313.426713,24.495353,0.999330,0.990944,0.003961,0.462844,0.000019,0.000030,0.000003,0.000031,0.000018,74.294678,0.000049,
2341,2818,1.76071513726995,3.76326600053333,-0.0144399586013719,0.000798,-0.015097,0.007907,0.003264,-0.619714,317.638339,23.983035,0.999273,0.988663,0.004067,0.453821,0.000029,0.000038,0.000017,0.000051,0.000016,52.571738,0.000070,
2491,2383,5.11622672468394,-5.72557644580207,-5.86312989412363E-05,0.000193,-0.015765,0.004332,-0.014499,-0.670140,325.011172,22.393642,0.998494,0.980603,0.005588,0.418704,0.000245,0.000132,0.000029,0.000252,0.000125,13.709046,0.000384,
2371,2968,2.38570797957401,7.02679616413736,0.00335238043771824,0.000873,-0.015674,0.013511,-0.014039,-0.619691,315.324976,24.501417,0.999640,0.989319,0.004108,0.373029,0.000016,0.000016,0.000017,0.000033,-0.000001,45.577034,0.000038,
2176,2488,-1.77188676882669,-3.43452640986316,-0.00791566971815882,-0.001073,-0.015589,0.006893,-0.076037,-0.626800,323.259611,23.518844,0.999007,0.984161,0.005135,0.457019,0.000079,0.000064,0.000009,0.000083,0.000060,24.017017,0.000143,
2356,2158,2.21440116873034,-10.6559119197977,0.0183091752157907,-0.000088,-0.016987,-0.002594,-0.001660,-0.756159,328.609039,22.224545,0.999134,0.981522,0.005404,0.326152,0.000470,0.000472,-0.000021,0.000492,0.000450,-45.821359,0.000942,
2221,2713,-0.830861089327936,1.47164647189872,-0.0137015091364106,0.000137,-0.015548,0.010478,-0.032846,-0.628124,319.477529,23.699705,0.999241,0.989972,0.003928,0.470308,0.000041,0.000030,0.000010,0.000047,0.000024,29.500029,0.000072,
2356,2878,2.07602497841275,5.0685629251764,-0.00663110123321076,0.000768,-0.015495,0.010572,-0.007997,-0.641037,316.713913,24.145834,0.999498,0.991283,0.003818,0.439381,0.000022,0.000029,0.000014,0.000040,0.000011,51.757651,0.000053,
2131,2533,-2.75780502431024,-2.45391859381519,-0.00866947199568813,-0.000467,-0.015395,0.008021,-0.050646,-0.626361,322.719478,23.621616,0.999017,0.985706,0.004705,0.473023,0.000083,0.000034,0.000017,0.000088,0.000029,17.135899,0.000122,
2356,3043,2.04638977252252,8.65327222498797,0.0161847419757919,0.001008,-0.015526,0.014479,-0.010586,-0.607684,314.207341,24.545244,0.999585,0.991480,0.003715,0.493668,0.000015,0.000031,0.000011,0.000037,0.000009,62.137880,0.000049,
2416,3163,3.32972301184027,11.2616600882364,0.0388288930908516,0.001582,-0.015319,0.011761,0.023551,-0.625558,312.504510,25.114248,0.999735,0.993000,0.003313,0.475678,0.000027,0.000041,0.000022,0.000057,0.000011,54.077054,0.000073,
2326,3208,1.36669088983851,12.2296481165555,0.0449549259075184,0.001531,-0.014879,0.009694,0.031308,-0.619682,311.796387,24.812205,0.999631,0.992870,0.003400,0.482853,0.000024,0.000025,0.000013,0.000037,0.000012,46.240180,0.000052,
2116,2488,-3.07665769678322,-3.43657726890336,-0.00608098702451798,-0.000566,-0.015753,0.006910,-0.051666,-0.648933,323.532742,23.605020,0.999206,0.986792,0.004565,0.479501,0.000091,0.000048,0.000009,0.000093,0.000046,11.883022,0.000142,
2191,2788,-1.49623523220864,3.10345765385423,-0.0211193570430623,0.000244,-0.015249,0.010001,-0.025496,-0.621251,318.287533,23.782061,0.998873,0.986479,0.004725,0.467286,0.000027,0.000027,0.000010,0.000037,0.000017,44.292838,0.000056,
2371,1993,2.57402056519269,-14.2827487751087,0.0388740616917858,-0.000503,-0.020751,0.005900,-0.052172,-0.867438,331.396640,21.511589,0.998792,0.959362,0.007706,0.357104,0.000772,0.000745,-0.000053,0.000813,0.000704,-37.738748,0.001518,
2221,2953,-0.870770494346171,6.69045517516263,0.0053532512692982,0.000801,-0.015156,0.011101,-0.004106,-0.605158,315.759797,24.044010,0.999448,0.991437,0.003754,0.448116,0.000010,0.000044,0.000010,0.000047,0.000007,74.613111,0.000058,
2476,2398,4.78555273962363,-5.39719022074252,-1.54515435042413E-05,0.000059,-0.016110,0.003867,-0.018779,-0.663724,324.723465,22.531650,0.999549,0.985827,0.004821,0.394469,0.000225,0.000116,0.000027,0.000231,0.000110,13.096909,0.000348,
2206,2878,-1.18429094120645,5.0603936625803,-0.004904681820733,0.000685,-0.015254,0.010349,-0.006741,-0.630095,316.933559,23.935568,0.999582,0.993338,0.003354,0.414922,0.000019,0.000051,0.000013,0.000055,0.000014,70.915509,0.000074,
2446,2188,4.17536894715893,-9.99960077912171,0.0242098742646135,0.000557,-0.017032,0.002908,0.007562,-0.717923,328.284888,21.831139,0.999564,0.985718,0.004775,0.373540,0.000478,0.000456,-0.000076,0.000544,0.000390,-40.816086,0.000939,
2311,3163,1.04863530257941,11.2528710745692,0.0394163881368286,0.001364,-0.015359,0.012085,0.015694,-0.623527,312.482025,24.668153,0.999651,0.992844,0.003517,0.457086,0.000024,0.000031,0.000011,0.000039,0.000016,54.782678,0.000057,
2236,3013,-0.554470231990134,7.99356231118313,0.0151068334244542,0.001216,-0.014951,0.010718,0.015889,-0.593940,314.846755,24.124813,0.999367,0.988692,0.004093,0.495939,0.000005,0.000024,0.000006,0.000026,0.000003,74.158022,0.000032,
2326,2083,1.57163544268449,-12.300068596448,0.0118191657767284,-0.000999,-0.018389,-0.000712,-0.050402,-0.808569,329.715797,22.204959,0.999408,0.983260,0.005316,0.271007,0.000567,0.000652,-0.000008,0.000653,0.000567,-84.454101,0.001221,
2326,2758,1.44470704712801,2.45636278596702,-0.0175810866447819,0.000379,-0.015600,0.011110,-0.026881,-0.623965,318.564094,23.802328,0.999615,0.991390,0.003804,0.476993,0.000031,0.000050,0.000021,0.000063,0.000017,57.024712,0.000085,
2251,2908,-0.210480839072247,5.71433726453836,0.0112947920960096,0.000745,-0.014891,0.006787,0.006650,-0.612769,316.486584,24.086424,0.999753,0.992894,0.003380,0.400925,0.000014,0.000034,0.000015,0.000043,0.000006,61.948079,0.000053,
2341,3043,1.72059552773718,8.65143436790063,0.0182388462416725,0.000852,-0.015564,0.012207,-0.009383,-0.629629,314.227494,24.464348,0.999656,0.992787,0.003483,0.503704,0.000015,0.000031,0.000009,0.000035,0.000010,65.241717,0.000048,
2311,1993,1.26165119704754,-14.2794087976869,0.0287742055782019,-0.001111,-0.019942,-0.000888,-0.055461,-0.889507,331.308176,21.988789,0.999161,0.978327,0.006172,0.284178,0.000665,0.000758,-0.000048,0.000778,0.000644,-67.074703,0.001425,
2191,2578,-1.45956799172528,-1.47189478218512,-0.00880209297520196,-0.000016,-0.015046,0.005251,-0.022448,-0.621380,321.801851,23.492802,0.999397,0.990251,0.003966,0.548377,0.000059,0.000054,0.000022,0.000078,0.000035,42.136179,0.000116,
2206,2653,-1.14659744112543,0.164321084993098,-0.016187586521653,0.000479,-0.015724,0.011907,-0.021311,-0.637288,320.481666,23.622848,0.999282,0.985852,0.004735,0.469711,0.000050,0.000037,0.000021,0.000065,0.000021,36.220768,0.000090,
2386,2983,2.70949320541576,7.35295975148449,0.00313274837884592,0.001205,-0.015404,0.011042,0.009630,-0.631890,315.109816,24.512918,0.999580,0.989489,0.004114,0.429714,0.000020,0.000015,0.000018,0.000035,-0.000001,40.884229,0.000040,
2281,3238,0.383930729409151,12.8769087808902,0.040946894189176,0.001494,-0.014983,0.011467,0.024878,-0.609520,311.308593,24.693853,0.999783,0.993463,0.003304,0.444290,0.000031,0.000022,0.000010,0.000038,0.000016,33.736737,0.000055,
2131,2293,-2.71922111210635,-7.69660895997767,0.000647809024542312,-0.001562,-0.016245,0.003070,-0.086356,-0.693171,326.636208,23.477971,0.998726,0.984017,0.005169,0.434852,0.000256,0.000214,0.000044,0.000284,0.000186,32.459246,0.000473,
2461,2038,4.53482044189031,-13.2936706170497,0.0226662395559174,0.001401,-0.018531,-0.003484,0.069206,-0.815867,330.788955,21.080149,0.999228,0.978071,0.005767,0.373298,0.000833,0.000697,-0.000058,0.000855,0.000676,-20.178016,0.001534,
2236,2803,-0.520192117896059,3.43168397579316,-0.0182461662340074,0.000624,-0.015048,0.008229,-0.003391,-0.612412,317.970384,23.825738,0.999504,0.988823,0.004182,0.487508,0.000032,0.000032,0.000012,0.000044,0.000020,45.181360,0.000065,
2266,3163,0.071751088503607,11.2496686852479,0.0429554071389475,0.001212,-0.014955,0.013518,0.005556,-0.602449,312.558259,24.522413,0.999302,0.989588,0.004064,0.423735,0.000022,0.000032,0.000009,0.000038,0.000017,58.847406,0.000056,
2341,3298,1.67211095836203,14.1849141857842,0.00201328878523555,0.001713,-0.015046,0.011933,0.031463,-0.618579,309.952066,25.122286,0.999691,0.992995,0.003276,0.458382,0.000026,0.000027,0.000011,0.000038,0.000015,45.890064,0.000055,
2161,2638,-2.12310489453444,-0.162537280950637,-0.020149297665057,0.000031,-0.015344,0.009670,-0.033485,-0.624002,320.822859,23.724073,0.999748,0.993137,0.003565,0.396802,0.000054,0.000026,0.000013,0.000059,0.000022,20.879254,0.000084,
2401,3148,3.00690479849269,10.9347969692562,0.0415797228517363,0.001611,-0.015214,0.012007,0.024495,-0.620655,312.758529,25.013047,0.999818,0.994660,0.002986,0.470841,0.000028,0.000034,0.000019,0.000050,0.000012,49.350058,0.000065,
2116,2263,-3.0415219316755,-8.35282899200578,0.00577315090600905,-0.002019,-0.016416,0.007289,-0.119670,-0.690922,327.192621,23.564044,0.998785,0.983220,0.005265,0.401005,0.000277,0.000247,0.000055,0.000319,0.000205,37.304254,0.000528,
2326,3223,1.36345444813049,12.5551052373138,0.0417385821025391,0.001338,-0.014968,0.009580,0.022821,-0.622922,311.514918,24.847339,0.999485,0.991971,0.003450,0.477522,0.000026,0.000030,0.000011,0.000039,0.000016,50.004280,0.000057,
2371,2008,2.57028002199276,-13.9505283537804,0.0258198868489217,-0.000429,-0.020352,0.004897,-0.045114,-0.842932,331.052580,21.628854,0.998419,0.971884,0.006573,0.309730,0.000759,0.000747,-0.000045,0.000799,0.000707,-41.031152,0.001507,
2446,2203,4.17129867736516,-9.67003284133501,0.0164147421623397,0.000014,-0.016324,0.001503,-0.011792,-0.691478,327.957817,21.844027,0.999594,0.984975,0.004833,0.442347,0.000450,0.000408,-0.000060,0.000493,0.000365,-35.350673,0.000861,
2176,2503,-1.77425727285138,-3.10751433897428,-0.00997935542397954,-0.000820,-0.015856,0.006487,-0.063308,-0.660452,323.012860,23.520553,0.998897,0.983998,0.005165,0.435201,0.000078,0.000055,0.000013,0.000084,0.000049,24.451337,0.000134,
2251,3073,-0.23872451240414,9.29630429447505,0.0272277835888985,0.001197,-0.015004,0.012192,0.009714,-0.600046,313.930486,24.266237,0.999580,0.991645,0.003588,0.482689,0.000011,0.000024,0.000000,0.000024,0.000011,89.333117,0.000036,
2281,3043,0.41704898487912,8.6481830031573,0.021008822658473,0.000781,-0.015519,0.015059,-0.020227,-0.616875,314.287936,24.378850,0.999374,0.990480,0.003829,0.406142,0.000017,0.000029,0.000004,0.000030,0.000016,74.269052,0.000046,
2266,2953,0.106834721695325,6.69300203228026,0.00737154471772783,0.000927,-0.015195,0.012692,-0.004944,-0.609581,315.681395,24.140886,0.999239,0.987255,0.004348,0.453788,0.000015,0.000038,0.000014,0.000045,0.000009,65.153209,0.000057,
2311,3178,1.04606542489967,11.578286336282,0.0379259476570155,0.001559,-0.015309,0.010337,0.030661,-0.628523,312.238765,24.699354,0.999725,0.993058,0.003453,0.452040,0.000025,0.000031,0.000011,0.000040,0.000016,51.986361,0.000057,
2341,3058,1.71764320505377,8.97685603136764,0.0151561840571048,0.000919,-0.015741,0.011669,-0.004429,-0.632435,313.961489,24.453182,0.999645,0.993640,0.003278,0.547842,0.000013,0.000028,0.000014,0.000037,0.000004,59.201722,0.000045,
2161,2443,-2.09009910050849,-4.41823034381008,-0.000808001265397706,-0.000784,-0.015870,0.007125,-0.063267,-0.656384,324.111203,23.498729,0.999241,0.986616,0.004648,0.446115,0.000100,0.000074,0.000011,0.000103,0.000070,20.181125,0.000175,
2311,2683,1.13304189230958,0.821427959445522,-0.012187756836056,0.000408,-0.015224,0.005601,-0.006118,-0.620478,319.859080,23.610516,0.999744,0.991052,0.003793,0.503290,0.000044,0.000051,0.000021,0.000068,0.000026,49.954448,0.000097,
2416,3178,3.32656885280627,11.5873007184483,0.0374527577134813,0.001388,-0.015113,0.010518,0.019216,-0.624245,312.242522,25.162193,0.999625,0.991985,0.003513,0.475450,0.000028,0.000041,0.000022,0.000058,0.000012,52.937555,0.000074,
2356,1993,2.24474786387111,-14.2819299004532,0.0331842451527109,-0.001476,-0.020869,0.004816,-0.092668,-0.878522,331.302089,21.598815,0.998727,0.960085,0.007787,0.365947,0.000760,0.000738,-0.000048,0.000798,0.000699,-38.471651,0.001499,
2236,3028,-0.556817399496218,8.31917887551552,0.0174531846126342,0.001144,-0.014854,0.007706,0.022363,-0.609215,314.628027,24.170025,0.999533,0.990615,0.003724,0.455475,0.000007,0.000020,0.000005,0.000022,0.000005,70.825602,0.000029,
2146,2353,-2.40135234122298,-6.38471920517103,0.00101087735680494,-0.000755,-0.015598,0.001595,-0.044814,-0.674041,325.653514,23.465996,0.999253,0.985725,0.004690,0.443700,0.000180,0.000139,0.000006,0.000181,0.000138,8.715245,0.000320,
2386,2998,2.70695413118559,7.6779761477928,0.0136873885693376,0.000952,-0.015668,0.013818,-0.012120,-0.638766,314.931631,24.545426,0.999599,0.989973,0.003963,0.432600,0.000019,0.000019,0.000014,0.000033,0.000004,44.580911,0.000041,
2131,2308,-2.72155986981551,-7.36862561534182,0.00600949461232858,-0.001576,-0.016378,0.007095,-0.099080,-0.670280,326.426255,23.518274,0.998910,0.984088,0.005138,0.424998,0.000238,0.000185,0.000032,0.000253,0.000170,25.064538,0.000425,
2341,2833,1.75810761288682,4.08964608619736,-0.00986944130590928,0.000834,-0.015539,0.010143,-0.003011,-0.635625,317.425875,24.066875,0.999637,0.990783,0.003795,0.390314,0.000029,0.000040,0.000018,0.000054,0.000016,53.051320,0.000073,
2356,2173,2.21105063510423,-10.3287512089561,0.0206520865291964,-0.000469,-0.017344,0.001679,-0.034239,-0.758965,328.354861,22.142150,0.999097,0.981481,0.005464,0.447256,0.000444,0.000439,-0.000022,0.000464,0.000419,-41.453280,0.000883,
2371,2023,2.56800794144964,-13.6216218863631,0.0259640602661761,-0.000478,-0.019277,-0.003020,-0.018909,-0.852619,330.838909,21.634629,0.998425,0.972720,0.006605,0.338755,0.000738,0.000725,-0.000039,0.000771,0.000693,-40.191055,0.001464,
2326,3238,1.36006037611115,12.8815501325238,0.0357449908171361,0.001479,-0.014990,0.013156,0.016929,-0.617459,311.212148,24.953455,0.999437,0.991678,0.003535,0.409904,0.000027,0.000024,0.000007,0.000032,0.000019,38.923591,0.000051,
2401,3163,3.00348282600909,11.2605401836685,0.0394118570794149,0.001421,-0.015684,0.013672,0.009532,-0.630845,312.479403,25.072876,0.999644,0.992620,0.003428,0.444858,0.000026,0.000040,0.000020,0.000055,0.000012,54.560518,0.000071,
2146,2593,-2.44171564457847,-1.14431739400714,-0.0206584750916363,-0.000249,-0.014838,0.003901,-0.028293,-0.604558,321.609675,23.612330,0.999089,0.987605,0.004605,0.513228,0.000066,0.000036,0.000012,0.000070,0.000032,19.252313,0.000104,
2341,2188,1.88032307758434,-9.99697591133007,0.00739680690156774,-0.000036,-0.017052,-0.001006,-0.004837,-0.763790,328.029105,22.387637,0.999175,0.985516,0.004933,0.316619,0.000397,0.000414,-0.000016,0.000423,0.000387,-59.419374,0.000811,
2236,2818,-0.522110462164658,3.75735092996305,-0.0108308137415634,0.000735,-0.014862,0.007053,0.005574,-0.617417,317.797476,23.849304,0.999521,0.989904,0.004045,0.479706,0.000029,0.000038,0.000012,0.000047,0.000020,55.816396,0.000069,
2206,2668,-1.14944724507537,0.491796092863297,-0.0146436352475803,-0.000147,-0.015113,0.008318,-0.038507,-0.626161,320.233591,23.707132,0.999549,0.991312,0.003846,0.413623,0.000049,0.000035,0.000018,0.000061,0.000023,34.243394,0.000087,
2116,2503,-3.07889671424682,-3.1089465350226,-0.0114031011498241,-0.000221,-0.015363,0.004401,-0.028277,-0.636067,323.269150,23.586133,0.999033,0.984416,0.004781,0.515796,0.000089,0.000043,0.000012,0.000092,0.000041,13.399764,0.000136,
2326,2983,1.40521557146145,7.34865400334605,0.00784654972801491,0.000840,-0.015250,0.010282,-0.002666,-0.622629,315.132680,24.355457,0.999903,0.996972,0.002651,0.436374,0.000016,0.000020,0.000016,0.000034,0.000001,48.596614,0.000040,
2101,2428,-3.39390035462923,-4.74583635602443,-0.00161835061391002,-0.001276,-0.015547,0.007660,-0.086112,-0.641107,324.573052,23.694334,0.999416,0.987192,0.004410,0.420514,0.000128,0.000047,0.000025,0.000134,0.000040,15.674254,0.000183,
2266,3178,0.0692259378938509,11.574190905839,0.0411583861269378,0.001410,-0.015142,0.011874,0.019980,-0.626117,312.312535,24.487120,0.999447,0.991293,0.003670,0.459595,0.000024,0.000031,0.000011,0.000039,0.000016,54.529096,0.000057,
2176,2728,-1.81191601367379,1.79666235110238,-0.0191522405470437,0.000215,-0.015316,0.010197,-0.027019,-0.615996,319.325733,23.684013,0.999373,0.989678,0.004091,0.509857,0.000036,0.000018,0.000001,0.000036,0.000018,4.851436,0.000055,
2296,3118,0.730610494286903,10.2760407964617,0.0329638688654086,0.001192,-0.015144,0.011833,0.009177,-0.614386,313.172521,24.533939,0.999505,0.992795,0.003586,0.447398,0.000022,0.000025,0.000005,0.000029,0.000018,54.005751,0.000047,
2311,2008,1.25915802556962,-13.949857205288,0.02818157738335,-0.000874,-0.019451,-0.001577,-0.042101,-0.864692,331.075321,22.004104,0.999151,0.978978,0.006113,0.329667,0.000652,0.000754,-0.000038,0.000766,0.000639,-71.689619,0.001408,
2311,2908,1.09226847701773,5.71860832039561,9.22151185704934E-05,0.000495,-0.015175,0.009073,-0.014017,-0.629520,316.290083,24.201659,0.999577,0.992194,0.003647,0.385094,0.000020,0.000022,0.000020,0.000041,0.000001,46.463727,0.000048,
2131,2548,-2.76000247171953,-2.12692295492566,-0.00791140511000776,-0.000313,-0.015245,0.007529,-0.042051,-0.622248,322.491744,23.623244,0.998746,0.983440,0.004991,0.482157,0.000081,0.000031,0.000019,0.000087,0.000025,18.553491,0.000118,
2476,2413,4.78330395105085,-5.06990288946815,0.00336938639532036,0.000313,-0.015452,0.000666,0.005254,-0.650029,324.532816,22.536160,0.999461,0.986722,0.004726,0.461881,0.000211,0.000106,0.000031,0.000219,0.000098,15.349203,0.000325,
2371,2203,2.53297589345308,-9.66879817507646,0.0107765756404206,0.000168,-0.016292,-0.001108,0.005088,-0.709918,327.832436,22.235268,0.998680,0.979654,0.005648,0.411159,0.000405,0.000385,-0.000023,0.000420,0.000370,-33.235066,0.000790,
2416,3193,3.32418930401911,11.9126009524868,0.0415797053166784,0.001598,-0.015241,0.010151,0.030164,-0.634755,312.042104,25.226774,0.999566,0.991095,0.003601,0.446829,0.000027,0.000035,0.000023,0.000054,0.000008,49.697059,0.000067,
2371,2983,2.38343807443178,7.35156841147761,0.00931289360448773,0.000914,-0.015493,0.012307,-0.007821,-0.622215,315.136547,24.471969,0.999577,0.989446,0.004050,0.440004,0.000018,0.000016,0.000016,0.000033,0.000001,43.358557,0.000039,
2281,3253,0.38016289768106,13.2030926515882,0.0248071544715458,0.001669,-0.014972,0.011744,0.032040,-0.608336,310.934078,24.727029,0.999715,0.992675,0.003449,0.438543,0.000032,0.000017,0.000014,0.000040,0.000009,31.336847,0.000052,
2446,2218,4.1682272211429,-9.34037862131764,0.00769437323577904,0.000480,-0.016123,-0.000775,0.018067,-0.700572,327.672369,21.896877,0.999387,0.983504,0.005099,0.435330,0.000422,0.000362,-0.000049,0.000450,0.000334,-29.162335,0.000787,
2191,2593,-1.46258519111155,-1.14413495551095,-0.0104813705593187,-0.000132,-0.015597,0.008656,-0.038672,-0.633583,321.528359,23.574940,0.999035,0.987163,0.004447,0.469211,0.000053,0.000047,0.000023,0.000073,0.000027,40.920465,0.000103,
2191,2803,-1.49827589941274,3.4300025594881,-0.017968739710625,0.000486,-0.015034,0.009060,-0.011265,-0.602408,318.083898,23.825259,0.998876,0.986184,0.004709,0.457259,0.000025,0.000026,0.000012,0.000037,0.000013,46.286795,0.000052,
2326,2773,1.44280898607766,2.78393117087541,-0.0155410104729299,0.000756,-0.015133,0.006245,0.007407,-0.628446,318.370733,23.947606,0.999706,0.994315,0.003383,0.361641,0.000029,0.000047,0.000018,0.000058,0.000017,57.876846,0.000079,
2311,3193,1.0436504872449,11.9035379962805,0.0411529551764147,0.001672,-0.015083,0.010141,0.036691,-0.612045,312.025949,24.725761,0.999717,0.993135,0.003371,0.472943,0.000025,0.000029,0.000012,0.000039,0.000015,49.018229,0.000056,
2221,2728,-0.833196043527973,1.79821886719124,-0.0133356773342825,0.000203,-0.015280,0.007888,-0.021419,-0.619696,319.248288,23.712231,0.999195,0.989687,0.003979,0.485492,0.000040,0.000030,0.000008,0.000044,0.000025,29.152812,0.000070,
2146,2368,-2.40372474627661,-6.0565864847389,-0.000499735664845957,-0.000524,-0.015638,0.002455,-0.036825,-0.651089,325.406694,23.472277,0.999021,0.986647,0.004595,0.470164,0.000166,0.000130,0.000007,0.000168,0.000129,10.253921,0.000297,
2311,2698,1.12997265930662,1.14765698165372,-0.01005732094319,0.000160,-0.015616,0.008515,-0.027614,-0.624222,319.611860,23.610483,0.999772,0.991887,0.003685,0.532243,0.000039,0.000049,0.000019,0.000064,0.000025,52.355620,0.000091,
2326,2098,1.56929038308643,-11.9738895277453,0.0165530710140729,-0.000869,-0.018228,0.000418,-0.048292,-0.798853,329.517137,22.020718,0.999364,0.982143,0.005324,0.502120,0.000537,0.000621,-0.000008,0.000622,0.000536,-84.650819,0.001159,
2356,2893,2.07353948272967,5.39463624474622,0.00351622758620351,0.000462,-0.015345,0.012061,-0.027219,-0.626231,316.534761,24.227043,0.999496,0.991316,0.003757,0.411253,0.000020,0.000020,0.000017,0.000037,0.000004,44.470725,0.000045,
2221,2968,-0.87328795021919,7.01594067631947,0.00805017315781242,0.000697,-0.015240,0.010767,-0.007902,-0.619649,315.534166,24.063432,0.999314,0.989669,0.004030,0.432520,0.000009,0.000041,0.000010,0.000044,0.000006,73.296793,0.000055,
2281,3058,0.414596727162202,8.97370177358244,0.019581332098312,0.001009,-0.015137,0.012978,-0.002597,-0.602171,314.048432,24.368764,0.999490,0.992757,0.003554,0.457779,0.000018,0.000025,0.000008,0.000030,0.000012,57.158842,0.000043,
2356,3058,2.04403047810594,8.97894565013763,0.0221043478454135,0.001138,-0.015597,0.015688,-0.008868,-0.599874,314.013202,24.605484,0.999610,0.992647,0.003482,0.479171,0.000015,0.000030,0.000017,0.000041,0.000004,56.326843,0.000050,
2251,3088,-0.241759506644446,9.62228640905369,0.0225602782653596,0.001098,-0.014975,0.011041,0.008944,-0.605976,313.645304,24.306177,0.999610,0.990911,0.003642,0.459046,0.000011,0.000019,0.000000,0.000019,0.000011,-89.994325,0.000031,
2356,2008,2.24245654528867,-13.9503482143107,0.0224219822253531,-0.000518,-0.019678,-0.000582,-0.029453,-0.853680,331.033593,21.683552,0.998509,0.973954,0.006565,0.348720,0.000747,0.000744,-0.000039,0.000784,0.000707,-43.769093,0.001492,
2401,3178,3.00021892171076,11.5861729266857,0.035663878036587,0.001194,-0.015168,0.011356,0.007701,-0.620610,312.200041,25.096883,0.999565,0.992125,0.003571,0.475603,0.000028,0.000040,0.000021,0.000056,0.000012,53.165053,0.000073,
2461,2053,4.53218295386784,-12.96569090612,0.0307514786529168,0.001354,-0.019242,-0.000796,0.056749,-0.856163,330.602667,21.132915,0.999148,0.979412,0.005637,0.337590,0.000801,0.000690,-0.000062,0.000828,0.000663,-24.055989,0.001494,
2491,2398,5.11281621034453,-5.39754058813206,-1.08718891169701E-05,-0.000041,-0.016403,0.005372,-0.029497,-0.701886,324.753446,22.475760,0.999329,0.987157,0.004648,0.365229,0.000235,0.000116,0.000029,0.000242,0.000109,13.150012,0.000360,
2131,2323,-2.7232329767829,-7.0406020441082,0.00778226029927964,-0.001070,-0.015954,0.005338,-0.070424,-0.658301,326.227689,23.541790,0.999184,0.984856,0.004925,0.421169,0.000224,0.000161,0.000025,0.000232,0.000152,19.326737,0.000387,
2176,2518,-1.77615914007602,-2.77994744595733,-0.0111217189003128,-0.000162,-0.015370,0.006066,-0.031589,-0.641835,322.792065,23.534295,0.999006,0.986532,0.004739,0.453250,0.000076,0.000051,0.000020,0.000087,0.000040,28.523595,0.000129,
2341,3073,1.71498704460803,9.30387124745145,0.0133160800749579,0.000916,-0.015337,0.007490,0.010147,-0.633040,313.714589,24.599051,0.999614,0.993605,0.003272,0.437018,0.000014,0.000032,0.000012,0.000039,0.000008,62.856596,0.000050,
2386,2023,2.89595816503294,-13.6212946286608,0.0197948574106022,-0.000067,-0.019041,-0.004323,0.004701,-0.864380,330.822025,21.540469,0.998304,0.969849,0.006839,0.319051,0.000750,0.000725,-0.000054,0.000793,0.000682,-38.691555,0.001476,
2161,2653,-2.12605572192647,0.164364933613513,-0.0289484468331693,-0.000081,-0.015139,0.005987,-0.027314,-0.635285,320.512580,23.686403,0.999668,0.991666,0.003737,0.433739,0.000052,0.000021,0.000009,0.000055,0.000018,15.437955,0.000076,
2311,2023,1.25607066081945,-13.6204909833298,0.0260422674659821,-0.001152,-0.018826,-0.002712,-0.050718,-0.841432,330.807699,21.992340,0.999068,0.980956,0.005618,0.400716,0.000628,0.000740,-0.000021,0.000744,0.000624,-79.536383,0.001370,
2341,2203,1.8773825179982,-9.6684313143836,0.00800603608530537,-0.000192,-0.016585,-0.000597,-0.013235,-0.721034,327.783636,22.378720,0.999019,0.982906,0.005291,0.407662,0.000369,0.000378,-0.000013,0.000387,0.000360,-54.852361,0.000748,
2206,2683,-1.15164670830235,0.818678073899413,-0.0187519315226155,0.000339,-0.014847,0.005757,-0.007946,-0.619461,319.986302,23.699091,0.999653,0.992839,0.003614,0.445518,0.000045,0.000037,0.000014,0.000056,0.000026,36.563054,0.000084,
2476,2428,4.77974471411887,-4.74186017521831,0.0014096766465741,0.000110,-0.015709,0.002256,-0.010188,-0.658833,324.257688,22.586636,0.999400,0.986100,0.004712,0.460871,0.000198,0.000095,0.000034,0.000208,0.000085,16.583248,0.000301,
2146,2383,-2.406351360699,-5.72926683049149,0.00403502997136229,-0.000955,-0.015545,0.003255,-0.058982,-0.657121,325.180499,23.496643,0.998716,0.985836,0.004730,0.449051,0.000153,0.000115,0.000009,0.000155,0.000113,12.771622,0.000269,
2326,2998,1.40282062453077,7.67387500899963,0.0136464187212368,0.000908,-0.015342,0.011637,-0.004216,-0.615623,314.934868,24.359529,0.999772,0.994804,0.003098,0.472818,0.000014,0.000021,0.000011,0.000029,0.000006,54.327513,0.000037,
2281,3268,0.376731084118255,13.5278500234528,0.0218642338357427,0.001459,-0.015135,0.015371,0.010160,-0.602811,310.641655,24.703052,0.999731,0.993114,0.003388,0.494255,0.000033,0.000026,0.000014,0.000044,0.000015,38.135278,0.000061,
2251,2923,-0.213726513995564,6.04012092745918,0.00620077410155773,0.000859,-0.015172,0.011292,-0.003021,-0.614204,316.189998,24.052876,0.999694,0.992837,0.003490,0.455938,0.000013,0.000036,0.000016,0.000044,0.000005,62.669757,0.000054,
2266,3193,0.0663752358284029,11.8999186615214,0.0407947076832897,0.001418,-0.015170,0.013490,0.015043,-0.613789,312.058590,24.539599,0.999505,0.991362,0.003603,0.444024,0.000026,0.000027,0.000011,0.000037,0.000015,45.866391,0.000054,
2206,2893,-1.18773111225788,5.38717296548121,-0.0158859072590189,0.000588,-0.015280,0.010138,-0.010489,-0.616938,316.593464,23.927379,0.999790,0.994862,0.003162,0.452751,0.000015,0.000047,0.000014,0.000053,0.000010,69.243099,0.000068,
2191,2818,-1.50060667019484,3.75523564120854,-0.0147541669503539,0.000485,-0.015424,0.008888,-0.010932,-0.625167,317.867745,23.793926,0.998540,0.984597,0.004874,0.480104,0.000021,0.000034,0.000013,0.000042,0.000013,58.073138,0.000057,
2311,3208,1.04113758899373,12.2290819667021,0.0463657511758129,0.001534,-0.014733,0.009852,0.031447,-0.600203,311.818296,24.798649,0.999705,0.992228,0.003458,0.442547,0.000025,0.000024,0.000014,0.000038,0.000011,43.372646,0.000051,
2371,2998,2.38106992197522,7.67695467131005,0.0189167616446753,0.000673,-0.015555,0.012325,-0.018987,-0.628857,314.960839,24.531197,0.999591,0.990808,0.003815,0.414284,0.000018,0.000019,0.000012,0.000030,0.000007,45.662733,0.000040,
2296,3133,0.727902750250102,10.6018144977761,0.0317542595717555,0.001382,-0.014769,0.012520,0.015735,-0.599103,312.923202,24.567935,0.999698,0.994308,0.003300,0.457667,0.000021,0.000028,0.000007,0.000033,0.000017,57.943501,0.000051,
2326,3253,1.35610575112728,13.2065999743567,0.0250058899042642,0.001232,-0.015330,0.014308,0.001472,-0.621011,310.860708,24.918031,0.999367,0.992057,0.003546,0.474702,0.000026,0.000018,0.000007,0.000030,0.000013,31.070079,0.000045,
2266,2968,0.10404984375678,7.01897738354876,0.00400420606308671,0.000868,-0.015281,0.009672,0.002315,-0.624367,315.415793,24.164368,0.999418,0.990579,0.003890,0.440445,0.000010,0.000036,0.000014,0.000042,0.000004,65.676208,0.000051,
2236,2833,-0.52477152941956,4.08399492537764,-0.00871043918857595,0.000795,-0.015370,0.010233,-0.002152,-0.623525,317.563173,23.927224,0.999509,0.990349,0.003855,0.416837,0.000029,0.000038,0.000016,0.000050,0.000017,53.115314,0.000070,
2386,3013,2.70499865402865,8.00361292751879,0.0179227438809448,0.001237,-0.015401,0.009687,0.015943,-0.638123,314.749998,24.587663,0.999652,0.990345,0.003829,0.433637,0.000021,0.000022,0.000012,0.000034,0.000009,45.614417,0.000045,
2251,3103,-0.243476847720462,9.94715014536903,0.0315927345208706,0.001402,-0.015073,0.010820,0.023613,-0.617435,313.490587,24.339225,0.999619,0.992139,0.003545,0.436717,0.000014,0.000025,0.000000,0.000025,0.000014,-88.781446,0.000040,
2356,2188,2.20819082679737,-9.99827938861094,0.0205644186465292,-0.000394,-0.017201,0.002726,-0.034423,-0.750599,328.111001,22.330186,0.999032,0.983023,0.005241,0.309247,0.000417,0.000415,-0.000024,0.000440,0.000392,-43.476655,0.000832,
2371,2218,2.53036864574906,-9.34055589739886,0.0152066843958778,0.000156,-0.016629,-0.000128,0.000953,-0.726329,327.623220,22.302879,0.998308,0.975048,0.006293,0.370602,0.000384,0.000344,-0.000012,0.000387,0.000340,-15.542829,0.000728,
2281,3073,0.411716738864616,9.30016048940471,0.0124601309137233,0.001098,-0.015021,0.009083,0.014555,-0.616669,313.760436,24.442061,0.999527,0.992579,0.003628,0.396899,0.000017,0.000029,0.000007,0.000032,0.000014,66.376968,0.000046,
2356,3073,2.04183053368522,9.30479957089359,0.0212767212831295,0.001397,-0.015075,0.009768,0.024034,-0.609128,313.793714,24.659160,0.999571,0.992521,0.003501,0.454177,0.000017,0.000034,0.000015,0.000043,0.000009,60.264099,0.000055,
2221,2743,-0.836463655966966,2.12521118251083,-0.0180563794762634,0.000157,-0.015798,0.011861,-0.036458,-0.637491,318.950077,23.753538,0.999258,0.988789,0.004190,0.445413,0.000033,0.000026,0.000008,0.000038,0.000020,33.874230,0.000059,
2461,2068,4.52982398430445,-12.6368178622491,0.0359811570075976,0.001574,-0.018600,-0.001063,0.068058,-0.823696,330.415629,21.166985,0.999166,0.980261,0.005539,0.393448,0.000765,0.000679,-0.000066,0.000801,0.000643,-28.550276,0.001446,
2371,2038,2.56484577977337,-13.2917382972473,0.0201578937450222,-0.000283,-0.018687,-0.002382,-0.011983,-0.821238,330.555817,21.627235,0.998610,0.975960,0.006208,0.422356,0.000710,0.000679,-0.000042,0.000739,0.000650,-34.900699,0.001390,
2371,3103,2.36222847379817,9.95688961545927,0.0286723282577555,0.001203,-0.015450,0.012378,0.005312,-0.619066,313.349007,24.810074,0.999337,0.990101,0.004005,0.426687,0.000025,0.000036,0.000015,0.000047,0.000014,54.639538,0.000063,
2131,2338,-2.72591368619434,-6.71251381771228,0.00690107962151387,-0.001184,-0.015845,0.006789,-0.080006,-0.652779,325.968931,23.556558,0.999320,0.985603,0.004763,0.419285,0.000205,0.000155,0.000021,0.000212,0.000147,20.127059,0.000362,
2356,2023,2.23984817448467,-13.6216383842623,0.0201116074655374,-0.000456,-0.018970,-0.004820,-0.011504,-0.855900,330.791427,21.636315,0.998367,0.973187,0.006798,0.436097,0.000726,0.000727,-0.000027,0.000753,0.000700,-45.258252,0.001453,
2446,2233,4.16543518274333,-9.01232057004798,0.0169456996841859,0.000020,-0.016069,0.000238,-0.006720,-0.696576,327.482268,21.983120,0.998956,0.978507,0.005670,0.407313,0.000399,0.000341,-0.000038,0.000418,0.000322,-26.558402,0.000742,
2236,3043,-0.559210590121822,8.64473430742822,0.0240052659918319,0.001140,-0.015046,0.010479,0.013083,-0.620950,314.428661,24.237457,0.999672,0.991572,0.003553,0.396522,0.000008,0.000018,0.000002,0.000019,0.000008,77.826574,0.000027,
2281,3283,0.37383179807674,13.8529411650877,0.015546428848495,0.001618,-0.015204,0.013367,0.024149,-0.618289,310.356644,24.716464,0.999501,0.992041,0.003458,0.491702,0.000032,0.000032,0.000014,0.000046,0.000018,45.186897,0.000066,
2326,2788,1.43962553323682,3.10911813897955,-0.0189699786723736,0.000715,-0.015167,0.007555,0.000972,-0.627675,318.092133,23.830743,0.999610,0.993532,0.003515,0.513917,0.000028,0.000047,0.000015,0.000056,0.000020,60.787826,0.000079,
2341,2848,1.75436178743922,4.41561117312936,-0.0140427925524023,0.000465,-0.015838,0.013288,-0.031097,-0.644182,317.118668,24.043687,0.999700,0.991198,0.003693,0.441476,0.000030,0.000040,0.000017,0.000052,0.000017,53.921365,0.000073,
2356,2908,2.07056349986823,5.72132183881786,-0.00556823463466571,0.000924,-0.015335,0.010624,-0.000891,-0.614775,316.240068,24.232310,0.999347,0.990077,0.003985,0.456187,0.000022,0.000009,0.000018,0.000034,-0.000004,34.881327,0.000037,
2326,3268,1.35287001474384,13.5329195336466,0.0166261326319841,0.001347,-0.015105,0.013057,0.011240,-0.608204,310.553417,25.001597,0.999515,0.992942,0.003306,0.436905,0.000026,0.000021,0.000008,0.000032,0.000015,35.263864,0.000048,
2311,2923,1.08939270956726,6.04442598181495,-0.000610650908811294,0.000619,-0.014749,0.011465,-0.016246,-0.584427,316.037172,24.157790,0.999246,0.989907,0.003997,0.505963,0.000020,0.000021,0.000019,0.000040,0.000001,45.425421,0.000046,
2176,2533,-1.77877594128038,-2.45278239811971,-0.00993269590935597,-0.000287,-0.015412,0.006933,-0.040012,-0.637073,322.550833,23.550998,0.998946,0.987494,0.004464,0.454625,0.000073,0.000049,0.000019,0.000083,0.000039,29.193394,0.000125,
2176,2743,-1.81348989643235,2.1228251393489,-0.00772102201983671,0.000411,-0.015236,0.010372,-0.018531,-0.614340,319.186016,23.757800,0.999431,0.989915,0.004215,0.449963,0.000031,0.000020,0.000003,0.000032,0.000019,12.647766,0.000052,
2416,3208,3.32116653953797,12.237668039991,0.0449870100844691,0.001437,-0.015432,0.012477,0.014170,-0.638309,311.808684,25.262064,0.999509,0.990618,0.003801,0.454335,0.000028,0.000028,0.000022,0.000050,0.000006,44.760910,0.000061,
2401,3193,2.99756286252529,11.9115929806095,0.0378518610306742,0.001203,-0.015304,0.010252,0.012124,-0.622684,311.976762,25.152695,0.999539,0.991612,0.003588,0.461848,0.000027,0.000034,0.000022,0.000053,0.000009,49.458366,0.000066,
2161,2458,-2.0924180789498,-4.08991712531332,-0.0079380334213397,-0.000404,-0.015067,0.003261,-0.033738,-0.619844,323.838403,23.486659,0.999277,0.987638,0.004461,0.506318,0.000091,0.000068,0.000008,0.000094,0.000065,17.753031,0.000159,
2281,3298,0.370552843391739,14.1792112401311,0.00895813289417902,0.001542,-0.014991,0.013037,0.021841,-0.614489,310.052304,24.822611,0.999577,0.993662,0.003266,0.415373,0.000036,0.000037,0.000016,0.000053,0.000021,45.580433,0.000076,
2221,2983,-0.875610166434154,7.34186328980654,0.0086249842847792,0.000809,-0.014885,0.008594,0.004366,-0.609874,315.306404,24.088081,0.999400,0.991095,0.003809,0.435812,0.000010,0.000039,0.000011,0.000043,0.000006,71.323116,0.000054,
2146,2608,-2.44393904165754,-0.816576736043224,-0.0216919486849179,0.000141,-0.015072,0.004996,-0.013736,-0.601783,321.372195,23.688034,0.999329,0.989438,0.004312,0.448678,0.000069,0.000031,0.000012,0.000073,0.000027,15.851479,0.000103,
2386,2038,2.89284275895208,-13.2912800880878,0.0172255847333531,-0.000013,-0.018646,-0.003355,0.003834,-0.819853,330.557792,21.568858,0.998608,0.974264,0.006339,0.382262,0.000720,0.000678,-0.000057,0.000759,0.000638,-34.760672,0.001399,
2341,2218,1.87472426185608,-9.34022910713806,0.00891499002437968,-0.000297,-0.016466,-0.002949,-0.009825,-0.715185,327.552723,22.383627,0.998834,0.981888,0.005494,0.447818,0.000349,0.000338,-0.000006,0.000352,0.000335,-24.554200,0.000687,
2206,2908,-1.18901487853688,5.71133422028102,0.0011731427206314,0.000762,-0.015463,0.010829,-0.004728,-0.626347,316.498217,23.908349,0.999652,0.992864,0.003543,0.478503,0.000016,0.000041,0.000016,0.000049,0.000009,64.193894,0.000062,
2266,2983,0.101160233514253,7.34470943232289,0.00650962823658574,0.000666,-0.015356,0.011993,-0.014696,-0.620761,315.174965,24.192002,0.999582,0.992304,0.003714,0.441182,0.000013,0.000035,0.000016,0.000043,0.000005,62.638618,0.000052,
2251,3118,-0.246374156012383,10.2727774242532,0.0327836233020093,0.001038,-0.014872,0.009873,0.010050,-0.602008,313.241516,24.369883,0.999593,0.991667,0.003663,0.443726,0.000014,0.000019,-0.000001,0.000019,0.000014,-83.826414,0.000034,
2116,2278,-3.04243095290959,-8.02386780568556,0.00585571902342963,-0.000973,-0.015371,0.000796,-0.052138,-0.660336,327.018467,23.622105,0.998745,0.983266,0.005234,0.379029,0.000267,0.000229,0.000052,0.000303,0.000193,35.052914,0.000500,
2491,2413,5.10961670656056,-5.06967116929906,-0.0105439237510723,0.000038,-0.015489,-0.002756,0.005641,-0.693291,324.457660,22.406551,0.999374,0.987711,0.004577,0.503664,0.000219,0.000103,0.000037,0.000230,0.000092,16.009075,0.000332,
2236,2848,-0.528143449195369,4.41030261170574,-0.0172046702978719,0.000614,-0.015545,0.009490,-0.008100,-0.630038,317.242162,23.899423,0.999354,0.990699,0.003849,0.459096,0.000028,0.000042,0.000019,0.000055,0.000015,55.041168,0.000074,
2191,2608,-1.46497989271307,-0.817040381635216,-0.0133170520456929,0.000070,-0.015503,0.006550,-0.022752,-0.637764,321.277508,23.583010,0.998512,0.984734,0.004914,0.472326,0.000054,0.000041,0.000026,0.000075,0.000020,38.150742,0.000100,
2311,2713,1.12704772353295,1.47520076178136,-0.0120729734130691,0.000126,-0.015328,0.008162,-0.027908,-0.632578,319.350505,23.706366,0.999576,0.990055,0.003959,0.460370,0.000035,0.000047,0.000017,0.000059,0.000023,53.915385,0.000085,
2311,2038,1.25331781160518,-13.2895301057596,0.0233163201630759,-0.001265,-0.017951,-0.006916,-0.041264,-0.830927,330.552375,22.137811,0.999560,0.986881,0.004549,0.301436,0.000604,0.000692,-0.000022,0.000697,0.000599,-76.728002,0.001298,
2476,2443,4.77596832924499,-4.4133137098109,-0.00140326639393606,-0.000035,-0.016178,0.006244,-0.032154,-0.672954,323.968578,22.685871,0.999238,0.985125,0.004851,0.405551,0.000194,0.000067,0.000033,0.000202,0.000059,13.561082,0.000274,
2326,3283,1.34968874752794,13.8580991333686,0.00714859085127273,0.001653,-0.015199,0.012531,0.027065,-0.620830,310.243587,25.004250,0.999613,0.994192,0.003050,0.454610,0.000023,0.000028,0.000003,0.000029,0.000021,65.350278,0.000051,
2296,3148,0.725266688577594,10.927131273304,0.0335472249342956,0.001180,-0.014874,0.009911,0.015232,-0.609143,312.692238,24.607416,0.999618,0.992965,0.003554,0.436889,0.000023,0.000026,0.000008,0.000032,0.000016,51.552109,0.000050,
2251,2938,-0.216295349516987,6.3651227622784,0.00562503619164545,0.001115,-0.015487,0.012873,0.003487,-0.619535,315.947616,23.988026,0.999648,0.993709,0.003305,0.538409,0.000013,0.000042,0.000015,0.000049,0.000006,67.340877,0.000060,
2296,1993,0.933705318598559,-14.2785311426026,0.0237714883206195,-0.001094,-0.019432,-0.003193,-0.046712,-0.855760,331.285828,22.044683,0.998961,0.965524,0.007287,0.368688,0.000667,0.000747,-0.000039,0.000763,0.000651,-67.803854,0.001415,
2326,3013,1.40006653606969,7.99971699105491,0.0133705512782285,0.000864,-0.015459,0.010141,-0.001239,-0.647213,314.690591,24.421867,0.999440,0.989072,0.003947,0.412380,0.000014,0.000024,0.000011,0.000031,0.000007,56.991803,0.000041,
2461,2083,4.52594857163119,-12.3063671502681,0.0317265239064,0.001372,-0.018691,0.002275,0.046288,-0.804913,330.115828,21.259030,0.999134,0.979041,0.005722,0.378487,0.000728,0.000668,-0.000067,0.000771,0.000625,-32.993365,0.001399,
2146,2398,-2.40892532765395,-5.40170821963869,0.0023962613682329,-0.000801,-0.016061,0.005833,-0.059911,-0.682650,324.924077,23.507583,0.998645,0.985496,0.004917,0.422189,0.000140,0.000104,0.000006,0.000141,0.000103,8.559401,0.000245,
2356,2203,2.20404794220193,-9.6689598237118,0.011387306622737,-0.000667,-0.017446,0.006990,-0.061973,-0.723421,327.764729,22.304535,0.998962,0.983052,0.005225,0.404133,0.000391,0.000381,-0.000018,0.000405,0.000367,-37.142226,0.000772,
2341,3088,1.71188041496778,9.62920436203826,0.0131391283474045,0.000939,-0.015619,0.011274,-0.002151,-0.640083,313.455539,24.611289,0.999538,0.993546,0.003322,0.453369,0.000019,0.000030,0.000006,0.000033,0.000016,65.571727,0.000050,
2131,2563,-2.76272728812243,-1.79835174859902,-0.0159410482843327,0.000045,-0.015384,0.009283,-0.030889,-0.625256,322.192630,23.703688,0.999138,0.986916,0.004568,0.405451,0.000077,0.000040,0.000014,0.000082,0.000035,18.255903,0.000120,
2326,2803,1.43662655907287,3.4356185392141,-0.0164227778781765,0.000284,-0.015504,0.007078,-0.017326,-0.640242,317.850866,23.898744,0.999416,0.992838,0.003722,0.467463,0.000025,0.000038,0.000019,0.000051,0.000012,54.158712,0.000067,
2221,2758,-0.83859265174441,2.45224410730211,-0.0189923423954497,0.000515,-0.015214,0.009164,-0.011099,-0.614113,318.723392,23.792385,0.999428,0.989361,0.004033,0.449037,0.000029,0.000026,0.000008,0.000035,0.000019,38.734854,0.000055,
2401,3208,2.99493068612294,12.2361775239533,0.0457122126409786,0.001175,-0.015587,0.014065,-0.003209,-0.634860,311.781642,25.177924,0.999457,0.991455,0.003748,0.468309,0.000028,0.000028,0.000022,0.000050,0.000006,45.381333,0.000061,
2311,2938,1.08673224918882,6.36999481113163,-0.00113350638571319,0.000692,-0.015230,0.010411,-0.009488,-0.615998,315.795187,24.173091,0.999011,0.988196,0.004302,0.490803,0.000019,0.000026,0.000017,0.000040,0.000006,50.836856,0.000049,
2416,3223,3.31782063263569,12.5631896267327,0.0428175277863829,0.001195,-0.015496,0.012228,0.003951,-0.635860,311.533960,25.304710,0.999465,0.990350,0.003840,0.460360,0.000029,0.000027,0.000020,0.000048,0.000008,43.231903,0.000060,
2206,2698,-1.1551509784575,1.14529156917551,-0.0278655490249093,0.000236,-0.015158,0.008514,-0.021530,-0.627834,319.653405,23.645885,0.999426,0.991817,0.003712,0.507529,0.000043,0.000035,0.000011,0.000051,0.000027,35.235440,0.000079,
2371,3013,2.37861216757446,8.00323173383341,0.0143948379375729,0.001068,-0.014947,0.007533,0.016503,-0.605950,314.712959,24.550901,0.999572,0.990416,0.003875,0.458097,0.000021,0.000021,0.000010,0.000031,0.000010,45.252311,0.000043,
2386,2263,2.84660821105428,-8.35177151538382,-0.0119271851098119,-0.000393,-0.016097,-0.001121,-0.020501,-0.696969,326.657598,22.350799,0.999165,0.983637,0.005048,0.416821,0.000322,0.000255,-0.000020,0.000327,0.000250,-15.196457,0.000579,
2371,2053,2.56196687598868,-12.9615854264049,0.0231628952065535,-0.000502,-0.018539,-0.002076,-0.023022,-0.813479,330.327673,21.772712,0.998966,0.978227,0.005782,0.329213,0.000685,0.000671,-0.000035,0.000714,0.000643,-39.170502,0.001357,
2281,3088,0.409632085554971,9.62409445435906,0.0241969018750865,0.000839,-0.015349,0.008486,0.004531,-0.634033,313.604208,24.410488,0.999656,0.992621,0.003664,0.437774,0.000016,0.000024,0.000003,0.000025,0.000015,72.107789,0.000041,
2326,3298,1.34675327933719,14.1828474150825,0.00702813175081474,0.001535,-0.015084,0.012496,0.021852,-0.609540,309.991135,24.998525,0.999700,0.994504,0.003012,0.504495,0.000017,0.000034,0.000002,0.000035,0.000016,82.098992,0.000052,
2236,3058,-0.561271567480372,8.96926686414747,0.0315622500937707,0.001165,-0.015068,0.010001,0.015786,-0.618256,314.250007,24.205927,0.999697,0.992681,0.003343,0.450915,0.000011,0.000012,0.000003,0.000015,0.000008,51.552765,0.000023,
2386,3028,2.70167028513628,8.32986617243644,0.0129895803912632,0.001174,-0.015460,0.009404,0.014080,-0.636787,314.461305,24.628808,0.999614,0.990105,0.003905,0.436250,0.000020,0.000030,0.000014,0.000041,0.000010,54.735897,0.000054,
2161,2668,-2.12646332995913,0.488509319870253,-0.00398359479072496,0.000372,-0.015242,0.006607,-0.008337,-0.615696,320.497321,23.651225,0.999691,0.993359,0.003404,0.498687,0.000047,0.000015,0.000008,0.000049,0.000013,13.005610,0.000066,
2446,2248,4.16219643665871,-8.68310756386479,0.0137548637343343,0.000070,-0.016210,0.000439,-0.005226,-0.693614,327.214366,22.052137,0.999023,0.978625,0.005607,0.396116,0.000375,0.000319,-0.000038,0.000394,0.000300,-26.729918,0.000696,
2356,2038,2.23755101261873,-13.2919422566121,0.0228384835313591,0.000027,-0.018990,-0.002811,0.003560,-0.850617,330.587475,21.733883,0.998722,0.976933,0.006058,0.386018,0.000698,0.000680,-0.000029,0.000719,0.000658,-36.515961,0.001378,
2266,3208,0.0632888723535068,12.2255362767725,0.0402777085593584,0.001155,-0.015317,0.014445,-0.000251,-0.609033,311.793034,24.592501,0.999706,0.994051,0.003207,0.420004,0.000026,0.000024,0.000012,0.000037,0.000013,41.635773,0.000052,
2296,2008,0.930483151580511,-13.949245847451,0.025527087355556,-0.001669,-0.019463,-0.002298,-0.076057,-0.858632,331.030055,22.090396,0.998845,0.976879,0.006060,0.353849,0.000647,0.000743,-0.000026,0.000749,0.000640,-75.827904,0.001391,
2311,2728,1.12441100527705,1.80189289363169,-0.0127892232365525,0.000300,-0.015265,0.008065,-0.019562,-0.627601,319.108909,23.725972,0.999505,0.989341,0.004062,0.478374,0.000032,0.000052,0.000020,0.000064,0.000020,58.139319,0.000088,
2311,3223,1.03816819833245,12.5537155736085,0.0453418474226055,0.001384,-0.014880,0.009293,0.026398,-0.608498,311.559103,24.775070,0.999614,0.992567,0.003367,0.488926,0.000025,0.000028,0.000012,0.000039,0.000014,48.866441,0.000055,
2341,2863,1.75209045507946,4.74141351304212,-0.00715329183816493,0.000309,-0.015509,0.010960,-0.030000,-0.628553,316.932924,24.068083,0.999617,0.990982,0.003814,0.469037,0.000029,0.000034,0.000014,0.000045,0.000017,50.415648,0.000064,
2326,2113,1.566947768982,-11.6449828334493,0.0250734084197575,-0.000810,-0.018774,0.003922,-0.057825,-0.800007,329.336737,22.142100,0.999394,0.981437,0.005318,0.416826,0.000507,0.000599,-0.000008,0.000600,0.000506,-85.105744,0.001107,
2191,2833,-1.50293418575836,4.08144628025597,-0.0101094623194626,0.000566,-0.015245,0.011250,-0.014580,-0.619980,317.658828,23.839245,0.999191,0.989377,0.004081,0.454177,0.000020,0.000034,0.000016,0.000045,0.000010,57.032905,0.000058,
2146,2623,-2.4464940514788,-0.489334083043403,-0.0234532687640012,0.000282,-0.014793,0.006689,-0.012311,-0.616709,321.115837,23.734428,0.999570,0.991148,0.004029,0.396021,0.000069,0.000034,0.000009,0.000071,0.000032,13.217554,0.000105,
2461,2098,4.52231637041035,-11.9751133381134,0.0197983967195796,0.001252,-0.018023,-0.004044,0.064758,-0.805317,329.792193,21.365398,0.999448,0.980696,0.005483,0.329424,0.000688,0.000638,-0.000076,0.000743,0.000583,-35.813489,0.001330,
2356,3088,2.03916271500981,9.6302707521056,0.0271394724241532,0.001314,-0.015172,0.012161,0.011740,-0.608267,313.585076,24.714239,0.999469,0.991730,0.003699,0.437687,0.000022,0.000034,0.000009,0.000039,0.000017,61.778307,0.000057,
2161,2473,-2.09471770983322,-3.76184998329559,-0.00840145841470985,-0.000365,-0.014562,0.000652,-0.023759,-0.611775,323.601681,23.547815,0.999128,0.985888,0.004894,0.464561,0.000085,0.000064,0.000010,0.000089,0.000060,22.300872,0.000150,
2341,2233,1.87216951696474,-9.01165115685748,0.012205879594319,-0.000126,-0.016233,-0.000687,-0.009752,-0.700336,327.337930,22.443596,0.998565,0.978280,0.005817,0.441479,0.000322,0.000300,-0.000005,0.000324,0.000299,-13.194181,0.000623,
2386,2053,2.89107001436509,-12.9626295007508,0.0296149778386052,0.000031,-0.018196,-0.004606,0.010503,-0.815442,330.425986,21.685707,0.998970,0.978819,0.005931,0.315958,0.000696,0.000669,-0.000049,0.000733,0.000632,-37.554512,0.001366,
2476,2458,4.7730514690667,-4.08551592839827,-0.000501721031184843,-0.000050,-0.015941,0.005281,-0.029102,-0.667930,323.735722,22.737093,0.999256,0.986133,0.004715,0.417500,0.000191,0.000055,0.000033,0.000199,0.000047,12.725453,0.000261,
2176,2758,-1.81673936290541,2.4498937356294,-0.0156020425156953,0.000302,-0.015263,0.011434,-0.026823,-0.604094,318.868074,23.756815,0.999296,0.989094,0.004205,0.473500,0.000030,0.000022,0.000004,0.000031,0.000021,20.284810,0.000052,
2356,2923,2.06762505113577,6.04750777588628,-0.00474842186531532,0.000662,-0.015243,0.009224,-0.007952,-0.613053,315.994974,24.277516,0.999377,0.990051,0.003950,0.451066,0.000020,0.000010,0.000018,0.000034,-0.000003,37.126985,0.000037,
2146,2413,-2.41198222075832,-5.07262599262481,-0.00743706497883068,-0.000611,-0.015995,0.007975,-0.057645,-0.653346,324.601640,23.530691,0.998461,0.985867,0.005179,0.438232,0.000131,0.000085,0.000001,0.000131,0.000085,0.740366,0.000218,
2491,2428,5.10705656352318,-4.74102844809743,-0.00844876322332766,0.000594,-0.015634,-0.000401,0.022045,-0.664839,324.247703,22.513971,0.999386,0.986204,0.004704,0.484996,0.000208,0.000089,0.000042,0.000222,0.000076,17.769311,0.000310,
2251,2953,-0.218948594412982,6.69277166996089,0.00621538276618594,0.000924,-0.014920,0.010429,0.002945,-0.601115,315.706383,24.155445,0.999470,0.991343,0.003741,0.412096,0.000009,0.000039,0.000012,0.000043,0.000005,70.696884,0.000052,
2326,3028,1.39764513398857,8.32526476038342,0.0179809271436966,0.000967,-0.015484,0.011093,0.000245,-0.642043,314.485556,24.456962,0.999603,0.991510,0.003656,0.416061,0.000017,0.000028,0.000012,0.000036,0.000009,57.555283,0.000047,
2176,2548,-1.78171517748392,-2.12570042141566,-0.0135023725373458,-0.000410,-0.015903,0.007784,-0.048498,-0.660800,322.270054,23.550944,0.999167,0.987572,0.004390,0.444285,0.000071,0.000047,0.000019,0.000081,0.000037,29.247124,0.000121,
2416,3238,3.31441130727132,12.8895369439155,0.031071648801742,0.001503,-0.015173,0.010051,0.026228,-0.629690,311.210963,25.369742,0.999397,0.990987,0.003765,0.447933,0.000029,0.000023,0.000019,0.000045,0.000007,39.998132,0.000056,
2311,2053,1.25093732068813,-12.96089865605,0.0245428773396839,-0.000821,-0.017886,-0.004493,-0.029157,-0.809836,330.333573,22.110363,0.999384,0.983925,0.004962,0.385686,0.000584,0.000677,-0.000015,0.000680,0.000582,-81.076270,0.001263,
2131,2353,-2.72831961090806,-6.38400177423703,0.00156311523517161,-0.000949,-0.015630,0.004885,-0.063440,-0.659716,325.698973,23.584054,0.999227,0.985307,0.004774,0.392663,0.000188,0.000140,0.000014,0.000191,0.000136,15.042427,0.000329,
2266,2998,0.0991836148104035,7.6699256976631,0.0133453998961386,0.000942,-0.015371,0.012638,-0.004170,-0.628441,314.998057,24.216424,0.999454,0.990849,0.003827,0.433867,0.000013,0.000030,0.000012,0.000036,0.000006,62.195946,0.000046,
2356,2218,2.20194833897414,-9.3406363888439,0.0159225493400754,-0.000491,-0.017014,0.004320,-0.044360,-0.715867,327.578031,22.356395,0.998542,0.978817,0.005811,0.400777,0.000369,0.000341,-0.000009,0.000372,0.000338,-16.113666,0.000710,
2341,1993,1.91727578069134,-14.2815085354078,0.034024317059675,-0.000905,-0.021329,0.007556,-0.075978,-0.884289,331.323423,21.719020,0.998412,0.976950,0.006319,0.346269,0.000738,0.000747,-0.000053,0.000796,0.000690,-47.342277,0.001487,
2251,3133,-0.248798987073979,10.5976578991832,0.0389361701922439,0.001283,-0.015202,0.015809,0.001825,-0.593098,313.039597,24.372440,0.999367,0.991582,0.003765,0.472149,0.000013,0.000024,0.000001,0.000024,0.000013,82.283927,0.000038,
2386,3043,2.69847589685708,8.65548310178706,0.0153350325065844,0.001055,-0.015609,0.013996,-0.007961,-0.630335,314.213538,24.658825,0.999698,0.991365,0.003715,0.455256,0.000018,0.000036,0.000017,0.000045,0.000008,59.333205,0.000057,
2446,2263,4.15969024771507,-8.35342635125618,0.0101393286115581,0.000474,-0.015495,-0.004408,0.031592,-0.662579,326.977855,22.137106,0.999060,0.978808,0.005636,0.396592,0.000349,0.000277,-0.000043,0.000369,0.000256,-25.058925,0.000629,
2296,3163,0.723261271052358,11.2520754995025,0.0446806759358083,0.001245,-0.014972,0.011722,0.012120,-0.598453,312.536831,24.651545,0.999691,0.992953,0.003423,0.432139,0.000025,0.000032,0.000011,0.000039,0.000017,54.059544,0.000058,
2371,2068,2.55894303237862,-12.6322815951882,0.0192836716340707,-0.000430,-0.017774,-0.002834,-0.016753,-0.787090,330.060041,21.750822,0.999320,0.979462,0.005378,0.421991,0.000658,0.000656,-0.000031,0.000688,0.000627,-44.228818,0.001315,
2371,3028,2.37540957750484,8.32915301997223,0.0126495945655734,0.000919,-0.015178,0.008079,0.007608,-0.620299,314.444193,24.598350,0.999475,0.989786,0.004034,0.436713,0.000021,0.000028,0.000012,0.000037,0.000012,52.784480,0.000051,
2221,2998,-0.878246566565114,7.66708539139374,0.0124270654268912,0.000748,-0.015091,0.011663,-0.008338,-0.611821,315.081021,24.085945,0.999403,0.991052,0.003849,0.454090,0.000008,0.000035,0.000009,0.000038,0.000005,72.719605,0.000047,
2191,2623,-1.46749694833921,-0.490201170935713,-0.0109979916129532,-0.000102,-0.015307,0.005915,-0.028649,-0.650321,321.047895,23.625068,0.999175,0.986476,0.004559,0.432630,0.000052,0.000044,0.000023,0.000072,0.000025,39.967773,0.000100,
2281,3103,0.407029333442889,9.95001371440063,0.0222918085976289,0.001250,-0.015213,0.010420,0.017054,-0.618852,313.355151,24.445916,0.999604,0.992888,0.003560,0.444284,0.000018,0.000030,0.000001,0.000030,0.000018,83.335914,0.000048,
2236,3073,-0.564888407356559,9.29551391126887,0.0212751276035306,0.001016,-0.015147,0.011121,0.005309,-0.608019,313.908077,24.213194,0.999662,0.992343,0.003416,0.474208,0.000012,0.000019,0.000001,0.000019,0.000011,79.803950,0.000031,
2401,3223,2.99157998516437,12.5620896935349,0.0389620791908101,0.001080,-0.015312,0.011465,0.001940,-0.636518,311.483773,25.234225,0.999487,0.991588,0.003634,0.454767,0.000028,0.000030,0.000020,0.000049,0.000009,46.091628,0.000062,
2266,3223,0.0603636331258315,12.5504525550445,0.0388970555992501,0.001056,-0.015136,0.014608,-0.005280,-0.602920,311.530749,24.578278,0.999786,0.995110,0.003131,0.464550,0.000027,0.000033,0.000013,0.000043,0.000016,51.669505,0.000061,
2131,2578,-2.76575398646735,-1.47008077438757,-0.0228493875245022,-0.000014,-0.015185,0.010429,-0.036910,-0.595398,321.885617,23.739629,0.999563,0.991627,0.004026,0.405840,0.000067,0.000037,0.000010,0.000070,0.000034,17.378176,0.000106,
2371,2233,2.52696608958755,-9.01164278235499,0.0157537422579139,-0.000058,-0.017052,0.004543,-0.025565,-0.717048,327.358799,22.370746,0.998705,0.978988,0.005869,0.355555,0.000362,0.000313,-0.000007,0.000363,0.000311,-8.403878,0.000675,
2386,3178,2.6745464740739,11.5851189164321,0.0389807332836654,0.001282,-0.015082,0.012863,0.006832,-0.611431,312.215308,25.062657,0.999535,0.991550,0.003611,0.450101,0.000023,0.000038,0.000021,0.000053,0.000008,55.348280,0.000066,
2311,2743,1.12227417113536,2.12838635456534,-0.00991427850567561,0.000593,-0.015087,0.006464,-0.000522,-0.614263,318.907936,23.752152,0.999519,0.990124,0.003991,0.497828,0.000033,0.000047,0.000021,0.000062,0.000018,53.835285,0.000084,
2161,2488,-2.09819688675825,-3.43459295682646,-0.0125902267055835,-0.000735,-0.015194,0.005806,-0.056745,-0.612888,323.291564,23.515047,0.998892,0.985433,0.004969,0.507645,0.000079,0.000063,0.000010,0.000084,0.000059,25.780471,0.000143,
2491,2443,5.10409926469459,-4.41298191556857,-0.000460082568054077,0.000458,-0.015896,0.004377,-0.002563,-0.653210,324.046048,22.643597,0.999087,0.982342,0.005013,0.427320,0.000206,0.000062,0.000040,0.000217,0.000052,14.654073,0.000285,
2341,2878,1.74873261305378,5.06740606174436,-0.0143552503715227,0.000298,-0.015552,0.010687,-0.029554,-0.627896,316.628708,24.024952,0.999502,0.990781,0.003938,0.549170,0.000025,0.000034,0.000017,0.000047,0.000012,52.211936,0.000062,
2401,2338,3.16046473535632,-6.7117671343207,0.00770099761672327,-0.000761,-0.015623,0.001501,-0.046664,-0.660363,325.596611,22.525116,0.998983,0.981261,0.005080,0.449583,0.000233,0.000168,0.000014,0.000236,0.000165,11.620479,0.000403,
2326,2818,1.43430933340957,3.76148153728995,-0.00948746442202264,0.000358,-0.015648,0.008694,-0.019569,-0.644623,317.662494,23.937373,0.999530,0.991033,0.003810,0.458824,0.000024,0.000036,0.000017,0.000048,0.000012,54.744895,0.000063,
2161,2683,-2.1296892709706,0.816001222771945,-0.0129220813320785,0.000324,-0.015341,0.007740,-0.014096,-0.628939,320.173530,23.677777,0.999442,0.990342,0.003869,0.469436,0.000043,0.000017,0.000006,0.000044,0.000016,12.399419,0.000062,
2386,3058,2.69626595275696,8.98117049465449,0.0220938462774143,0.001129,-0.015449,0.012922,-0.000607,-0.624939,314.032016,24.728654,0.999658,0.991840,0.003646,0.433014,0.000018,0.000035,0.000023,0.000051,0.000002,55.377842,0.000060,
2371,3118,2.35922463935357,10.2824493058321,0.0261290361627857,0.001274,-0.015441,0.012381,0.008584,-0.611784,313.085302,24.821448,0.999587,0.991233,0.003788,0.462596,0.000024,0.000036,0.000018,0.000049,0.000011,54.027247,0.000064,
2311,3238,1.03466891772768,12.8799795074269,0.0386367366053832,0.001455,-0.014925,0.013053,0.016788,-0.604570,311.246802,24.861522,0.999433,0.991509,0.003552,0.436897,0.000025,0.000021,0.000008,0.000031,0.000015,37.284072,0.000047,
2191,2848,-1.5050267731537,4.40685823968364,-0.00367370192287808,0.000655,-0.015536,0.012080,-0.013224,-0.637608,317.470286,23.850986,0.999303,0.989746,0.003938,0.439050,0.000017,0.000040,0.000020,0.000052,0.000005,60.155696,0.000063,
2446,2278,4.15638313069835,-8.02515600739073,0.0126775680851665,0.000313,-0.016087,-0.000183,0.008290,-0.675199,326.733144,22.204942,0.999210,0.979035,0.005593,0.370442,0.000319,0.000256,-0.000029,0.000330,0.000245,-21.157590,0.000577,
2206,2713,-1.15760924056076,1.47092802809232,-0.0176985259045637,-0.000097,-0.015718,0.012116,-0.048424,-0.635219,319.468284,23.664010,0.998727,0.986637,0.004643,0.498785,0.000043,0.000026,0.000005,0.000045,0.000025,15.369852,0.000070,
2236,2863,-0.530148656218746,4.73657197910384,-0.0100587716872269,0.000785,-0.015119,0.010045,-0.001862,-0.608291,317.063606,23.961128,0.999292,0.990322,0.003830,0.439736,0.000023,0.000041,0.000014,0.000049,0.000016,61.015275,0.000067,
2386,2278,2.84483626515414,-8.02481241003243,0.00842712758066,-0.000529,-0.016604,0.003264,-0.042612,-0.714000,326.563070,22.484354,0.999641,0.991403,0.003851,0.310933,0.000299,0.000244,-0.000011,0.000301,0.000242,-11.093524,0.000544,
2371,2083,2.55597702958783,-12.3023844679935,0.0178658448971305,-0.000236,-0.017857,-0.000494,-0.016223,-0.765652,329.806688,21.821151,0.999247,0.977928,0.005587,0.417485,0.000630,0.000644,-0.000027,0.000665,0.000609,-52.661799,0.001274,
2401,3253,2.98467592064402,13.2142105212766,0.0200617348611445,0.001563,-0.015114,0.011889,0.022795,-0.619997,310.852776,25.338429,0.999476,0.991496,0.003618,0.455409,0.000028,0.000028,0.000017,0.000045,0.000011,44.878268,0.000059,
2386,2068,2.88724661673712,-12.6328721243809,0.0201017631784453,0.000038,-0.018040,-0.002113,0.001990,-0.793967,330.096557,21.647387,0.999173,0.977933,0.005819,0.422799,0.000668,0.000655,-0.000045,0.000707,0.000617,-41.068664,0.001324,
2206,2923,-1.19147397756349,6.03866809939994,-0.000461058129133107,0.000918,-0.014727,0.009408,0.007232,-0.599479,316.251271,24.013605,0.999408,0.990065,0.003950,0.416228,0.000016,0.000046,0.000018,0.000054,0.000007,64.605761,0.000067,
2191,2638,-1.46975333131008,-0.163459683778157,-0.0132958802371377,0.000353,-0.015132,0.006024,-0.007975,-0.638862,320.806185,23.599472,0.999510,0.988640,0.004196,0.484954,0.000047,0.000043,0.000021,0.000066,0.000024,41.998054,0.000093,
2221,2773,-0.840970031694543,2.77802856391985,-0.0133846113541836,0.000290,-0.015000,0.008255,-0.018472,-0.607295,318.519254,23.788985,0.999334,0.989273,0.004133,0.478095,0.000030,0.000029,0.000010,0.000040,0.000019,43.782588,0.000060,
2341,3103,1.71030533179404,9.95385802903017,0.0288305192345888,0.001064,-0.015656,0.012193,0.000409,-0.638990,313.344368,24.656392,0.999512,0.992605,0.003572,0.444768,0.000021,0.000035,0.000006,0.000037,0.000018,68.140281,0.000057,
2146,2638,-2.44937128064582,-0.163427199012631,-0.0230376826456222,-0.000036,-0.015132,0.008492,-0.032549,-0.622707,320.856568,23.672843,0.999678,0.991779,0.003757,0.460020,0.000067,0.000032,0.000007,0.000068,0.000030,11.446404,0.000101,
2326,3043,1.39507431689455,8.65078078070047,0.0237806370894305,0.000843,-0.015308,0.012202,-0.009134,-0.613527,314.279425,24.477095,0.999665,0.992251,0.003567,0.458168,0.000016,0.000033,0.000012,0.000039,0.000010,62.941399,0.000051,
2476,2473,4.7694756485675,-3.75587229710916,-0.0202945239750534,0.000742,-0.015443,0.001166,0.023007,-0.667558,323.378513,22.775954,0.999510,0.989325,0.004234,0.437313,0.000169,0.000048,0.000023,0.000173,0.000044,10.624403,0.000229,
2401,2098,3.20859326851364,-11.9737400423382,0.0190081069124517,-0.000268,-0.018158,0.001445,-0.024901,-0.774610,329.591506,21.711183,0.999012,0.972808,0.006361,0.380499,0.000609,0.000625,-0.000056,0.000673,0.000560,-49.068122,0.001235,
2221,3013,-0.880231937188483,7.99267633643551,0.0162035325571992,0.001031,-0.014821,0.010282,0.009216,-0.598694,314.885261,24.106020,0.999453,0.990954,0.003771,0.465207,0.000010,0.000029,0.000008,0.000032,0.000007,70.333928,0.000042,
2326,2128,1.56445822222838,-11.3151283839982,0.0248156418396093,-0.001061,-0.017515,-0.003447,-0.043550,-0.785230,329.106674,22.243280,0.999369,0.983898,0.005063,0.367661,0.000482,0.000581,-0.000006,0.000581,0.000482,-86.453669,0.001065,
2356,2938,2.06492341661933,6.37354126898371,-0.00420503007103434,0.000856,-0.015430,0.010389,-0.003226,-0.630158,315.759452,24.329615,0.999317,0.988852,0.004083,0.420018,0.000018,0.000016,0.000015,0.000032,0.000002,42.812365,0.000038,
2176,2773,-1.81952465374914,2.77654079388529,-0.0216030210801819,0.000464,-0.015421,0.011515,-0.019691,-0.618122,318.581408,23.761545,0.999340,0.989605,0.004232,0.467263,0.000028,0.000028,0.000007,0.000035,0.000021,44.743774,0.000057,
2491,2458,5.10059951852777,-4.08521914337627,0.000829075104206822,0.000361,-0.016234,0.009426,-0.026484,-0.646589,323.789349,22.693796,0.999205,0.984405,0.004754,0.444160,0.000203,0.000049,0.000043,0.000214,0.000038,14.494946,0.000272,
2341,2008,1.91450838813968,-13.9509595130155,0.0307934259528793,-0.000888,-0.020235,0.004107,-0.062807,-0.864437,331.067918,21.800197,0.998420,0.974466,0.006595,0.325447,0.000727,0.000752,-0.000042,0.000784,0.000696,-53.335757,0.001481,
2461,2113,4.51839984342368,-11.6449169527415,0.00922270774776734,0.001157,-0.017408,-0.005106,0.064665,-0.778549,329.461510,21.370004,0.999354,0.977707,0.005820,0.409644,0.000651,0.000614,-0.000079,0.000713,0.000552,-38.434216,0.001269,
2416,3253,3.31124150672153,13.2154600662542,0.0256945422970034,0.001933,-0.015225,0.012781,0.036152,-0.601623,310.928983,25.414743,0.999164,0.989409,0.004057,0.477450,0.000030,0.000026,0.000018,0.000046,0.000009,42.252142,0.000060,
2311,3253,1.03104702338156,13.205611099865,0.0287017513630872,0.001365,-0.015076,0.013065,0.012529,-0.608223,310.913052,24.883882,0.999499,0.991747,0.003518,0.441592,0.000024,0.000014,0.000009,0.000030,0.000009,30.693974,0.000040,
2356,2053,2.23522704403853,-12.9637656272604,0.0367329662395832,-0.000419,-0.018900,-0.001236,-0.022312,-0.835186,330.435868,21.812676,0.998963,0.978668,0.005611,0.364485,0.000673,0.000670,-0.000023,0.000695,0.000648,-43.162836,0.001343,
2356,3103,2.03598820495015,9.95616460816909,0.0241295620752453,0.001112,-0.015234,0.010706,0.007536,-0.625271,313.310071,24.773518,0.999499,0.991117,0.003874,0.399135,0.000024,0.000037,0.000010,0.000043,0.000018,61.880522,0.000063,
2146,2428,-2.41397929651763,-4.74455018496279,-0.00656245349154005,-0.000384,-0.015443,0.005426,-0.039332,-0.648783,324.384655,23.593512,0.999010,0.986461,0.004809,0.389018,0.000122,0.000066,0.000006,0.000123,0.000065,6.173999,0.000191,
2311,2953,1.08433020734492,6.69605847700267,0.00452146439181433,0.000656,-0.015069,0.010603,-0.011712,-0.603921,315.595291,24.237807,0.999250,0.990202,0.003960,0.469556,0.000018,0.000026,0.000013,0.000035,0.000009,52.784809,0.000047,
2371,2098,2.55252498313992,-11.9731157591939,0.0155097658428076,-0.000417,-0.018369,0.002375,-0.034822,-0.791326,329.526858,21.876673,0.999155,0.976655,0.005791,0.380854,0.000597,0.000620,-0.000029,0.000639,0.000577,-55.937834,0.001217,
2311,2068,1.24786748223014,-12.6312625587428,0.0194481696977959,-0.000584,-0.017847,-0.002041,-0.026653,-0.804585,330.052211,22.125593,0.999412,0.980661,0.005307,0.411237,0.000562,0.000665,-0.000010,0.000666,0.000561,-84.634788,0.001229,
2356,2233,2.19918315272867,-9.01161181835941,0.0125082322749108,-0.000110,-0.016970,0.004933,-0.029046,-0.699535,327.322506,22.386084,0.998064,0.975278,0.006232,0.429100,0.000345,0.000306,-0.000007,0.000346,0.000304,-9.483932,0.000651,
2386,3193,2.6724598714703,11.9101880567423,0.0423349309739933,0.001661,-0.015038,0.010672,0.032194,-0.614093,312.022965,25.093018,0.999566,0.991773,0.003432,0.458991,0.000022,0.000032,0.000022,0.000050,0.000005,51.491984,0.000061,
2371,2248,2.52301412745951,-8.68153716176799,0.000954377088476122,-0.000121,-0.016608,0.002886,-0.022391,-0.697102,326.995796,22.384564,0.999251,0.983138,0.005389,0.405643,0.000341,0.000282,-0.000008,0.000342,0.000281,-7.510644,0.000623,
2416,2413,3.47332515278324,-5.07054284085672,0.0041563038388972,0.000116,-0.016407,0.006041,-0.023434,-0.670722,324.393762,22.752699,0.999613,0.987083,0.004578,0.403121,0.000186,0.000131,0.000040,0.000207,0.000110,27.978986,0.000322,
2161,2503,-2.1008389057401,-3.10647041898055,-0.0223018961067396,-0.000220,-0.015375,0.006081,-0.034049,-0.642550,322.990601,23.545099,0.998913,0.985090,0.004978,0.459493,0.000079,0.000055,0.000013,0.000085,0.000049,24.144157,0.000135,
2236,2878,-0.531846932694858,5.06117376919154,0.00295629183028723,0.000820,-0.015248,0.010244,-0.001036,-0.631306,316.929646,23.960524,0.999484,0.991217,0.003693,0.437864,0.000018,0.000050,0.000013,0.000055,0.000014,69.997312,0.000072,
2251,3148,-0.251210792809875,10.9225338757206,0.0372390068653772,0.001293,-0.015349,0.010406,0.019828,-0.638857,312.798428,24.384413,0.998641,0.987218,0.004515,0.436762,0.000016,0.000026,0.000003,0.000027,0.000015,74.051050,0.000043,
2176,2563,-1.78411841937853,-1.79782968359961,-0.0151790849471354,-0.000257,-0.015482,0.006675,-0.037856,-0.642136,322.023377,23.602731,0.999081,0.985972,0.004582,0.424370,0.000068,0.000052,0.000014,0.000076,0.000043,30.701772,0.000121,
2491,2473,5.09799765800648,-3.75660238585891,-0.00499225289894412,0.000712,-0.015267,0.002037,0.018287,-0.647760,323.541762,22.768966,0.999276,0.984883,0.004722,0.427973,0.000178,0.000041,0.000033,0.000185,0.000033,12.719499,0.000236,
2296,3178,0.720214115646211,11.5772186915787,0.0416742536424408,0.001240,-0.015153,0.012539,0.009020,-0.615210,312.263072,24.659865,0.999672,0.992868,0.003423,0.435747,0.000027,0.000030,0.000012,0.000041,0.000017,48.385997,0.000059,
2401,3238,2.98850712057417,12.8880543117085,0.0316200160535232,0.001394,-0.015150,0.009923,0.022098,-0.631044,311.195802,25.289590,0.999464,0.991983,0.003520,0.448995,0.000028,0.000024,0.000018,0.000044,0.000008,42.152521,0.000056,
2266,3013,0.0966806902110697,7.99519182576773,0.0160693467123565,0.000867,-0.015197,0.011580,-0.004026,-0.610099,314.776181,24.195113,0.999439,0.990251,0.003805,0.498475,0.000012,0.000027,0.000010,0.000032,0.000007,63.313760,0.000042,
2236,3088,-0.567229273461894,9.62131972608765,0.0266698496512277,0.001006,-0.015028,0.011865,0.002429,-0.616285,313.705048,24.303273,0.999571,0.992112,0.003488,0.395998,0.000011,0.000015,0.000002,0.000016,0.000010,65.618123,0.000027,
2341,2893,1.74717747460509,5.39395188696749,-0.00357588323834079,0.000703,-0.015367,0.010130,-0.008912,-0.620428,316.494510,24.161731,0.999358,0.990486,0.003949,0.455972,0.000023,0.000026,0.000020,0.000044,0.000004,47.095213,0.000054,
2416,3268,3.30729155196061,13.5410077297536,0.0142683331224589,0.001747,-0.015274,0.011518,0.032210,-0.604729,310.582656,25.427451,0.999513,0.991503,0.003691,0.508030,0.000033,0.000017,0.000021,0.000048,0.000002,34.648372,0.000057,
2206,2728,-1.15983091205753,1.79831385440696,-0.0200965097753283,0.000134,-0.015196,0.007805,-0.023974,-0.621873,319.228585,23.724076,0.999138,0.988931,0.004188,0.469035,0.000042,0.000025,0.000003,0.000042,0.000025,8.874233,0.000068,
2476,2488,4.76686438140144,-3.42885504991258,-0.0124845797531066,0.000266,-0.014832,-0.002020,0.013558,-0.658041,323.190924,22.825419,0.999503,0.986737,0.004431,0.455126,0.000160,0.000041,0.000020,0.000163,0.000037,9.284475,0.000213,
2341,2023,1.91213429947249,-13.6217067885267,0.0257855182034632,-0.000521,-0.019210,-0.001534,-0.026010,-0.860366,330.821976,21.764841,0.998607,0.976373,0.006268,0.405058,0.000704,0.000735,-0.000027,0.000751,0.000689,-59.694322,0.001440,
2326,2833,1.43081670324152,4.08996979077815,-0.018514161170458,0.000501,-0.015547,0.010713,-0.019877,-0.630267,317.341252,24.081686,0.999847,0.992848,0.003527,0.363162,0.000024,0.000037,0.000018,0.000050,0.000011,54.310054,0.000065,
2386,2083,2.88421695423807,-12.3031533025413,0.0214036741512587,-0.000035,-0.018000,-0.000036,-0.008773,-0.774384,329.854525,21.733434,0.999151,0.974350,0.005942,0.403015,0.000639,0.000645,-0.000041,0.000683,0.000601,-47.239382,0.001285,
2446,2293,4.15284080879561,-7.69815719535957,0.0138632118411124,0.000022,-0.016322,0.004156,-0.021270,-0.688136,326.471509,22.148011,0.999294,0.980280,0.005433,0.468845,0.000297,0.000233,-0.000021,0.000303,0.000227,-16.618790,0.000532,
2386,3073,2.69324259396491,9.30733843148578,0.0131958193219361,0.001326,-0.015023,0.008117,0.025942,-0.615679,313.738305,24.741395,0.999619,0.991165,0.003757,0.472149,0.000020,0.000038,0.000021,0.000051,0.000006,56.786430,0.000063,
2311,3268,1.0280504953041,13.5311706795529,0.0208971341617143,0.001497,-0.014870,0.009823,0.029792,-0.611824,310.618583,24.916340,0.999550,0.992857,0.003295,0.436350,0.000025,0.000017,0.000010,0.000032,0.000011,33.742344,0.000044,
2161,2698,-2.13265805441238,1.14297478841867,-0.0169470021621123,0.000156,-0.015265,0.008169,-0.023110,-0.619827,319.887461,23.680469,0.999308,0.987451,0.004210,0.486408,0.000041,0.000018,0.000005,0.000042,0.000017,11.144082,0.000061,
2221,2788,-0.842835404837921,3.10367246931796,-0.00852231850296903,0.000494,-0.015019,0.005397,0.000075,-0.621588,318.334859,23.791503,0.999367,0.990637,0.004039,0.479875,0.000027,0.000032,0.000009,0.000039,0.000020,52.464155,0.000060,
2146,2653,-2.45135755980083,0.162573246084158,-0.0210739258722015,0.000193,-0.015283,0.006629,-0.016415,-0.638328,320.646328,23.646805,0.999694,0.990556,0.003841,0.478690,0.000064,0.000028,0.000005,0.000065,0.000027,8.028977,0.000095,
2401,3268,2.98057042297667,13.5404334743976,0.00443620340837469,0.001702,-0.015248,0.012857,0.025660,-0.618985,310.477722,25.386422,0.999628,0.992067,0.003573,0.452500,0.000031,0.000022,0.000018,0.000045,0.000007,37.806743,0.000057,
2221,3028,-0.883023438308825,8.31812001047679,0.0129455291749991,0.001014,-0.015100,0.009076,0.012207,-0.614728,314.616356,24.098588,0.999648,0.993514,0.003306,0.474819,0.000012,0.000026,0.000006,0.000028,0.000010,68.708217,0.000040,
2491,2488,5.09524109504615,-3.42947145717252,0.000461812309936249,0.000561,-0.015378,0.001806,0.012209,-0.650812,323.337889,22.818900,0.999373,0.985331,0.004625,0.434898,0.000168,0.000030,0.000029,0.000173,0.000025,11.293905,0.000216,
2311,2758,1.11932587701787,2.4545776767595,-0.0092912732404784,0.000648,-0.015705,0.010251,-0.011186,-0.629648,318.658711,23.765676,0.999578,0.991325,0.003907,0.501142,0.000031,0.000050,0.000018,0.000061,0.000020,59.020595,0.000084,
2416,2173,3.52071024513044,-10.3283166527202,0.0113730928766813,-0.000214,-0.018315,0.006784,-0.042055,-0.785833,328.319819,21.853545,0.998835,0.979550,0.005353,0.389266,0.000475,0.000455,-0.000065,0.000530,0.000400,-40.699907,0.000933,
2371,3043,2.37266804208965,8.65444026444809,0.019298954483304,0.000915,-0.015346,0.012980,-0.010062,-0.611278,314.237004,24.623481,0.999600,0.991395,0.003725,0.460755,0.000019,0.000032,0.000014,0.000041,0.000010,57.484844,0.000054,
2416,2428,3.46950917426506,-4.74193954832192,-0.00206335293285065,-0.000390,-0.016172,0.004306,-0.040222,-0.677886,324.081701,22.812076,0.999413,0.986080,0.004752,0.386094,0.000177,0.000117,0.000039,0.000197,0.000098,26.164890,0.000300,
2191,2653,-1.47246250740232,0.164010256257626,-0.0166254885810417,0.000413,-0.015234,0.005835,-0.004661,-0.645105,320.538195,23.654713,0.999518,0.989542,0.004091,0.438460,0.000048,0.000038,0.000019,0.000063,0.000023,37.192141,0.000089,
2386,3208,2.66895625426283,12.2352084006807,0.0413319608430811,0.001291,-0.015362,0.012613,0.008006,-0.629413,311.744548,25.109811,0.999525,0.991874,0.003568,0.468870,0.000023,0.000029,0.000023,0.000049,0.000003,48.516225,0.000058,
2176,2788,-1.82182424001806,3.10313758118532,-0.0215509065340029,0.000351,-0.014920,0.006421,-0.008937,-0.622660,318.348687,23.804367,0.999305,0.988939,0.004307,0.432051,0.000024,0.000032,0.000007,0.000036,0.000020,59.987267,0.000057,
2371,3133,2.35675202755894,10.60794644539,0.0301214247629673,0.001336,-0.015458,0.011974,0.012890,-0.618993,312.877379,24.885945,0.999589,0.991533,0.003702,0.430676,0.000025,0.000037,0.000017,0.000049,0.000013,54.840508,0.000066,
2386,2293,2.84228224598385,-7.6972015736871,0.0069422313718519,-0.000147,-0.016536,0.002431,-0.022112,-0.702103,326.329086,22.431223,0.999856,0.994221,0.003327,0.421497,0.000279,0.000231,-0.000005,0.000280,0.000231,-6.433666,0.000511,
2446,2323,4.14621834342529,-7.04005100464012,0.00502487367521098,-0.000015,-0.015869,0.002285,-0.015810,-0.675301,325.917055,22.274823,0.999198,0.979851,0.005341,0.463803,0.000259,0.000181,-0.000005,0.000260,0.000180,-3.378462,0.000442,
2356,3118,2.03380311294842,10.2807747090109,0.0294966654548148,0.001263,-0.015106,0.009406,0.019125,-0.621847,313.121436,24.750421,0.999526,0.991530,0.003778,0.463622,0.000022,0.000036,0.000011,0.000042,0.000016,59.984595,0.000060,
2326,2143,1.5614781286699,-10.9842732142851,0.0142526219950128,-0.000256,-0.017154,-0.000719,-0.015937,-0.735819,328.803664,22.295912,0.999355,0.984329,0.005113,0.402219,0.000460,0.000525,-0.000003,0.000525,0.000459,-87.306996,0.000985,
2401,2353,3.15712270207396,-6.38320486262431,0.0032565208269375,-0.000592,-0.016425,0.004418,-0.049763,-0.685396,325.313647,22.588166,0.998683,0.981304,0.005252,0.409137,0.000222,0.000156,0.000021,0.000228,0.000149,16.420399,0.000380,
2266,3238,0.0580946565906153,12.8752240770008,0.0348650868361915,0.001443,-0.014936,0.009744,0.028689,-0.616685,311.285298,24.559389,0.999760,0.994409,0.003209,0.493800,0.000027,0.000025,0.000012,0.000038,0.000014,42.815598,0.000054,
2461,2398,4.45778412795535,-5.39829692691201,0.0023937459437775,-0.000366,-0.016374,0.005140,-0.042958,-0.668846,324.683969,22.520522,0.999559,0.985695,0.004842,0.447402,0.000225,0.000122,0.000025,0.000231,0.000116,13.215569,0.000353,
2356,2068,2.23225991123599,-12.634219497295,0.0380305263139462,-0.000444,-0.018660,0.001496,-0.032939,-0.803907,330.194181,21.864324,0.999111,0.978596,0.005560,0.386406,0.000645,0.000657,-0.000021,0.000673,0.000629,-52.571509,0.001302,
2191,2863,-1.50783586872287,4.73366634459243,-0.00954467668941561,0.000590,-0.015099,0.008776,-0.005658,-0.620381,317.184311,23.868629,0.999377,0.990607,0.003743,0.452888,0.000017,0.000042,0.000018,0.000051,0.000007,62.508275,0.000064,
2416,3283,3.30375379272636,13.867195837929,0.00658699368904081,0.001736,-0.015147,0.011013,0.033561,-0.608146,310.272605,25.525276,0.999653,0.991582,0.003675,0.452742,0.000039,0.000010,0.000018,0.000047,0.000002,25.364211,0.000056,
2446,2563,4.09697070503809,-1.79109335087431,-0.0111707780006896,0.000360,-0.015694,0.005050,-0.008817,-0.649040,321.894267,23.201381,0.999549,0.988561,0.004383,0.421356,0.000110,0.000016,0.000023,0.000116,0.000011,13.177646,0.000141,
2461,2128,4.51579138484944,-11.3166397879991,0.0167781053404497,0.001239,-0.017987,-0.001765,0.055675,-0.790729,329.273609,21.441372,0.999376,0.975483,0.006039,0.383206,0.000618,0.000599,-0.000076,0.000685,0.000532,-41.355419,0.001221,
2356,2248,2.1958961214873,-8.68259643757432,0.0108538237407743,-0.000228,-0.016858,0.007597,-0.043777,-0.690830,327.051492,22.446445,0.998938,0.980972,0.005457,0.418644,0.000325,0.000271,-0.000008,0.000326,0.000270,-7.929238,0.000597,
2161,2713,-2.13534874355692,1.47016544866495,-0.0172715511675392,0.000015,-0.015390,0.008487,-0.030633,-0.634338,319.633611,23.761694,0.999412,0.989460,0.004062,0.400845,0.000042,0.000017,-0.000001,0.000042,0.000017,-3.243563,0.000061,
2371,2113,2.54977621299957,-11.643692245122,0.0128320354603488,-0.000403,-0.017878,-0.001574,-0.020025,-0.786913,329.277465,21.918372,0.999199,0.976750,0.005697,0.387727,0.000566,0.000597,-0.000030,0.000615,0.000548,-58.495036,0.001163,
2431,2008,3.88463018282085,-13.954374112421,0.0312224997408066,0.000634,-0.019701,-0.004711,0.038076,-0.881269,331.252422,21.113779,0.999061,0.975273,0.006144,0.367406,0.000817,0.000755,-0.000054,0.000848,0.000724,-29.901530,0.001574,
2236,3103,-0.569764193504856,9.94545698477206,0.0277752390366004,0.001202,-0.015543,0.013994,0.004300,-0.641533,313.471742,24.232875,0.999586,0.992546,0.003454,0.461109,0.000013,0.000023,0.000003,0.000023,0.000012,75.863446,0.000036,
2431,2488,3.78469363481121,-3.43094015830039,-0.00446458979126874,-0.000148,-0.016094,0.006965,-0.039135,-0.670414,323.112226,22.903334,0.999141,0.982040,0.004995,0.465304,0.000138,0.000053,0.000019,0.000142,0.000049,12.222754,0.000199,
2326,2848,1.42842513145721,4.41458139114059,-0.0120205593209448,0.000321,-0.015222,0.009594,-0.024230,-0.630970,317.147548,24.006218,0.999763,0.992009,0.003652,0.472025,0.000025,0.000038,0.000017,0.000050,0.000013,55.158825,0.000066,
2371,2263,2.52037937815745,-8.35288850776277,0.00289903546791948,-0.000239,-0.016274,0.000363,-0.018737,-0.690199,326.773139,22.456131,0.999403,0.986129,0.004743,0.384337,0.000317,0.000246,-0.000013,0.000319,0.000243,-9.716957,0.000564,
2266,3028,0.0945026382917291,8.32130855566617,0.0173780698525547,0.001134,-0.014999,0.009304,0.015862,-0.620674,314.561837,24.275207,0.999389,0.989660,0.003880,0.432444,0.000014,0.000025,0.000009,0.000029,0.000009,61.444172,0.000040,
2461,2638,4.40825885204701,-0.152679150970101,-0.0225708354183212,0.000385,-0.015016,0.001892,0.004257,-0.641795,320.622484,23.467950,0.999629,0.989285,0.003988,0.415598,0.000075,-0.000003,0.000014,0.000077,-0.000005,9.728493,0.000087,
2311,2083,1.24455465208583,-12.3005796528599,0.0189126214618796,-0.000873,-0.018402,0.000951,-0.050257,-0.794081,329.781870,22.287557,0.999336,0.982025,0.005322,0.295579,0.000539,0.000646,-0.000006,0.000646,0.000538,-87.055016,0.001186,
2431,2248,3.83419580034202,-8.68294478015319,0.0116530643820738,-0.000065,-0.016163,0.001035,-0.013475,-0.698768,327.160964,22.113972,0.999164,0.979464,0.005501,0.398289,0.000364,0.000314,-0.000037,0.000383,0.000295,-27.765844,0.000680,
2326,3058,1.39216419210685,8.97650918695763,0.0195510315661522,0.001026,-0.015310,0.011825,0.000628,-0.604970,314.008456,24.474785,0.999679,0.993400,0.003303,0.502518,0.000015,0.000031,0.000015,0.000040,0.000006,59.019335,0.000049,
2206,2938,-1.1940609360637,6.36349618319556,0.00391318161388199,0.000709,-0.015083,0.010615,-0.006381,-0.611360,316.030362,23.973972,0.999477,0.991622,0.003710,0.460104,0.000014,0.000048,0.000016,0.000054,0.000008,68.109680,0.000067,
2401,2113,3.20633078071968,-11.6446089627358,0.0223627846896761,-0.000038,-0.017755,-0.000587,-0.006849,-0.780793,329.395566,21.802506,0.999045,0.974575,0.006063,0.331381,0.000577,0.000602,-0.000057,0.000648,0.000531,-51.033027,0.001181,
2356,2953,2.06219400512864,6.69967551587612,-0.00707377320651403,0.000937,-0.015149,0.007036,0.012368,-0.637675,315.506086,24.361689,0.999466,0.989343,0.003935,0.418751,0.000018,0.000015,0.000013,0.000030,0.000004,41.810305,0.000037,
2176,2578,-1.78662230617877,-1.47108512462819,-0.0172003046826603,-0.000218,-0.015098,0.005074,-0.031022,-0.633587,321.770580,23.563416,0.999179,0.987283,0.004372,0.485366,0.000057,0.000050,0.000014,0.000068,0.000039,37.744457,0.000109,
2476,2503,4.76397281073436,-3.10213782421881,-0.00433760591732835,0.000255,-0.015577,0.004016,-0.010135,-0.655776,322.991988,22.861504,0.999523,0.988046,0.004318,0.478930,0.000152,0.000024,0.000021,0.000156,0.000021,9.008575,0.000193,
2266,3253,0.0552608046278458,13.2009953410373,0.0331864176978911,0.001648,-0.015028,0.012477,0.029144,-0.598557,311.025325,24.618443,0.999700,0.993558,0.003421,0.477115,0.000026,0.000020,0.000015,0.000038,0.000007,38.956127,0.000049,
2401,3283,2.97728971153608,13.8655681759816,-0.00425054889586818,0.001927,-0.015424,0.011468,0.040969,-0.631384,310.173821,25.390938,0.999618,0.991245,0.003772,0.479438,0.000034,0.000018,0.000013,0.000041,0.000011,29.673889,0.000055,
2251,3163,-0.253595822946718,11.2482486168403,0.0451851212481529,0.001188,-0.015190,0.012625,0.007849,-0.612366,312.607100,24.463691,0.999176,0.989692,0.004017,0.405912,0.000020,0.000034,0.000007,0.000037,0.000017,66.921118,0.000056,
2491,2548,5.08103996324093,-2.11831564520578,-0.00810652021419855,-0.000104,-0.015876,0.007475,-0.040219,-0.674901,322.238677,23.043306,0.999669,0.988128,0.004226,0.426185,0.000120,-0.000016,0.000027,0.000125,-0.000022,10.753328,0.000134,
2476,2713,4.7197569539848,1.48177744865449,-0.0158330144956267,0.000275,-0.015571,0.010113,-0.032313,-0.622132,319.456237,23.631626,0.999635,0.989332,0.004184,0.545355,0.000032,0.000049,0.000022,0.000064,0.000017,55.266875,0.000086,
2446,2308,4.14937883240863,-7.36704941508353,0.00634684884295211,0.000096,-0.016094,0.002892,-0.013092,-0.673215,326.172889,22.357088,0.999139,0.979779,0.005433,0.329357,0.000280,0.000206,-0.000014,0.000283,0.000203,-10.364355,0.000489,
2341,3118,1.70849145098253,10.2792851631508,0.0349710804588881,0.001402,-0.015254,0.009464,0.025665,-0.626100,313.175434,24.703361,0.999533,0.992499,0.003622,0.446333,0.000022,0.000032,0.000008,0.000036,0.000018,62.384918,0.000056,
2386,2308,2.83866093845378,-7.36816411905576,-0.0019246090318461,-0.000109,-0.016209,0.003342,-0.023491,-0.680795,326.010931,22.430916,0.999790,0.993930,0.003447,0.488833,0.000262,0.000203,0.000003,0.000262,0.000203,2.959716,0.000466,
2191,2878,-1.51007572584918,5.06063877148912,-0.00437928778296737,0.000726,-0.015084,0.011060,-0.006558,-0.614986,316.981858,23.999228,0.999794,0.994880,0.003090,0.341769,0.000016,0.000053,0.000016,0.000059,0.000010,69.214807,0.000074,
2461,2158,4.50918781863461,-10.6569902725816,0.0101316373250029,0.001133,-0.017098,-0.003347,0.057158,-0.780744,328.734511,21.612986,0.999112,0.974925,0.005865,0.336473,0.000559,0.000507,-0.000094,0.000630,0.000435,-37.265475,0.001071,
2491,2503,5.09144775936869,-3.10112677784105,-0.00347381864224872,0.000300,-0.015352,0.003166,-0.004940,-0.649199,323.043880,22.894350,0.999415,0.986148,0.004614,0.421255,0.000157,0.000014,0.000029,0.000163,0.000009,10.890966,0.000193,
2461,2413,4.45582573821217,-5.07030466242572,0.00193677473276921,0.000353,-0.015421,0.000462,0.007944,-0.660344,324.487931,22.557883,0.999517,0.986122,0.004788,0.474638,0.000210,0.000117,0.000030,0.000219,0.000108,16.147674,0.000333,
2431,2023,3.88109331224421,-13.623442877103,0.0265739030037935,0.000628,-0.019658,-0.002681,0.030401,-0.882890,330.963786,21.242323,0.998968,0.976092,0.005963,0.291027,0.000795,0.000734,-0.000060,0.000832,0.000697,-31.466589,0.001530,
2416,3298,3.29943674889955,14.1923105694226,-0.00759597188329053,0.001583,-0.015314,0.012010,0.022737,-0.625592,309.896342,25.507919,0.999683,0.991984,0.003566,0.498977,0.000041,0.000001,0.000012,0.000044,-0.000002,15.052185,0.000050,
2401,2368,3.15413761091901,-6.05570977073891,0.00434276706027958,-0.000428,-0.016882,0.008410,-0.056891,-0.694836,325.073072,22.597329,0.998627,0.980884,0.005282,0.437569,0.000208,0.000147,0.000026,0.000217,0.000138,20.205900,0.000358,
2311,2773,1.11716226074973,2.78137549475927,-0.00615672055437244,0.000655,-0.015083,0.005422,0.005873,-0.625083,318.457648,23.838929,0.999592,0.992042,0.003736,0.464754,0.000030,0.000046,0.000016,0.000056,0.000021,58.593501,0.000079,
2386,3223,2.66570078087508,12.5612425340544,0.0352320851232548,0.001255,-0.015288,0.010532,0.013856,-0.638646,311.452844,25.188758,0.999562,0.992564,0.003430,0.422323,0.000023,0.000032,0.000022,0.000050,0.000005,50.655930,0.000060,
2491,2788,5.0313516365072,3.11858106332956,-0.0222562433175426,0.000633,-0.015392,0.006878,-0.003849,-0.638067,318.246112,24.054637,0.999381,0.987118,0.004281,0.401026,0.000016,0.000046,0.000003,0.000047,0.000016,84.779217,0.000065,
2446,2338,4.14375082776136,-6.71223841855992,0.0165698290080627,0.000016,-0.016546,0.007562,-0.034311,-0.669761,325.751930,22.391455,0.999065,0.979962,0.005370,0.406531,0.000249,0.000171,0.000008,0.000250,0.000171,5.977433,0.000423,
2386,2098,2.88007333102865,-11.973715216509,0.0164598991857474,-0.000649,-0.018510,0.003116,-0.048283,-0.795302,329.532132,21.771332,0.999038,0.973250,0.006121,0.391075,0.000605,0.000621,-0.000042,0.000656,0.000570,-50.225079,0.001227,
2416,2443,3.46653706874029,-4.41453434580008,-0.0025070991906091,-0.000271,-0.016139,0.005702,-0.039848,-0.668723,323.835385,22.805191,0.999442,0.986706,0.004634,0.451420,0.000171,0.000095,0.000038,0.000187,0.000079,22.210462,0.000273,
2461,2143,4.51209301548306,-10.9861015968984,0.0079241735614346,0.001134,-0.017162,-0.003915,0.059288,-0.752203,328.960506,21.496429,0.999011,0.975990,0.005940,0.424563,0.000587,0.000572,-0.000083,0.000663,0.000496,-42.525896,0.001163,
2506,2623,5.39324211503633,-0.481883147758943,-0.00629071665321135,0.000306,-0.015846,0.008357,-0.025093,-0.665195,321.093383,23.214011,0.999856,0.994324,0.003375,0.549859,0.000062,-0.000054,0.000008,0.000062,-0.000055,4.163982,0.000068,
2176,2803,-1.82387443208782,3.4285459894402,-0.0119756018885937,0.000203,-0.014662,0.006666,-0.016426,-0.603934,318.177572,23.792462,0.999454,0.989430,0.004262,0.474778,0.000022,0.000030,0.000009,0.000036,0.000017,58.042566,0.000054,
2431,1993,3.88734886154667,-14.2828250233211,0.0271648353393061,0.000631,-0.019968,-0.005706,0.041519,-0.902083,331.463281,21.140425,0.999154,0.975913,0.005922,0.266467,0.000834,0.000760,-0.000047,0.000857,0.000737,-26.113635,0.001595,
2401,3298,2.97388957935366,14.1907294122865,-0.0110409621286749,0.002035,-0.015279,0.012025,0.043939,-0.634173,309.873307,25.403431,0.999639,0.992258,0.003654,0.508169,0.000033,0.000009,0.000008,0.000035,0.000006,17.059360,0.000045,
2371,3148,2.35440892652919,10.9332378567712,0.0368473345727693,0.001447,-0.015269,0.013260,0.013413,-0.618721,312.688549,24.943960,0.999613,0.990769,0.003713,0.412874,0.000026,0.000031,0.000016,0.000044,0.000012,49.783264,0.000060,
2371,2128,2.54698181802307,-11.314694878145,0.013763871436538,-0.000368,-0.017391,-0.001002,-0.020249,-0.757191,329.043026,21.940765,0.999351,0.980304,0.005379,0.439046,0.000539,0.000580,-0.000028,0.000594,0.000525,-63.375207,0.001120,
2206,2953,-1.19732348616615,6.68940725544864,-0.00173309014576262,0.000513,-0.015162,0.011717,-0.018883,-0.610089,315.726206,23.954465,0.999441,0.991887,0.003693,0.497119,0.000012,0.000042,0.000012,0.000047,0.000008,70.644318,0.000059,
2371,2278,2.5186325950353,-8.02574336447975,0.0182616227045855,-0.000337,-0.016407,0.000152,-0.022514,-0.709426,326.655408,22.557065,0.999798,0.993718,0.003577,0.306850,0.000294,0.000234,-0.000005,0.000295,0.000234,-5.179544,0.000530,
2401,2128,3.20430682421278,-11.3152193666819,0.0275794751847229,0.000309,-0.017083,-0.002312,0.015523,-0.761583,329.219079,21.917107,0.999254,0.978942,0.005552,0.284215,0.000550,0.000587,-0.000053,0.000624,0.000512,-54.555617,0.001138,
2446,2578,4.09280762126227,-1.46172948448454,-0.0255768349419441,0.000459,-0.015316,0.005993,-0.007630,-0.627478,321.530350,23.284788,0.999622,0.991402,0.003992,0.412879,0.000105,0.000017,0.000022,0.000110,0.000012,13.123195,0.000134,
2386,3088,2.69052837597598,9.63186195477431,0.023868805523648,0.001011,-0.015607,0.012426,-0.004346,-0.639770,313.552478,24.765631,0.999358,0.989922,0.003994,0.465722,0.000024,0.000038,0.000016,0.000048,0.000014,56.742028,0.000065,
2431,2038,3.87847384346417,-13.2941247196707,0.0314658132321597,0.000796,-0.019046,-0.000103,0.028844,-0.827247,330.760951,21.279851,0.998887,0.975865,0.006016,0.362516,0.000764,0.000700,-0.000062,0.000801,0.000662,-31.169883,0.001466,
2461,2653,4.40552856038078,0.173873554953396,-0.0154364294045877,0.000484,-0.015504,0.006631,-0.009220,-0.646234,320.424728,23.529462,0.999622,0.989319,0.003972,0.404381,0.000063,0.000003,0.000010,0.000064,0.000002,9.017149,0.000075,
2461,2428,4.45165858866003,-4.74196568562797,-0.00477200974421521,-0.000050,-0.015665,0.002617,-0.018718,-0.664625,324.161865,22.586203,0.999381,0.984484,0.004882,0.498074,0.000198,0.000105,0.000032,0.000207,0.000095,17.027075,0.000309,
2341,3133,1.70518840173797,10.6050562768507,0.0312707838132269,0.001310,-0.015190,0.010770,0.016897,-0.621900,312.889908,24.733485,0.999418,0.992084,0.003700,0.455780,0.000022,0.000036,0.000008,0.000039,0.000018,66.346638,0.000059,
2326,2863,1.4260663644051,4.74035469639232,-0.00788095932534816,0.000462,-0.015609,0.009817,-0.018671,-0.650054,316.943517,24.041868,0.999689,0.991641,0.003746,0.451248,0.000023,0.000030,0.000014,0.000041,0.000012,52.484023,0.000056,
2341,2908,1.74466998542986,5.7204099397292,-0.00229870734813176,0.000998,-0.015269,0.011138,0.001174,-0.614961,316.270345,24.226910,0.999151,0.989480,0.004164,0.432375,0.000024,0.000016,0.000020,0.000040,0.000000,39.584465,0.000046,
2311,2968,1.0826478150466,7.02182997823321,0.0157307852765598,0.000865,-0.015301,0.009963,-0.000062,-0.632972,315.455977,24.358404,0.999893,0.997304,0.002599,0.351273,0.000014,0.000024,0.000014,0.000034,0.000004,54.619377,0.000042,
2356,2083,2.22795303150134,-12.3021710791926,0.0215358496664066,-0.000553,-0.018399,0.002532,-0.041489,-0.784385,329.805615,21.965203,0.999362,0.981244,0.005238,0.347948,0.000616,0.000645,-0.000020,0.000655,0.000606,-63.059437,0.001262,
2431,2263,3.83064096108013,-8.35277673831843,0.0025558315922467,0.000460,-0.016426,0.005417,-0.005721,-0.692626,326.849645,22.212590,0.999115,0.979540,0.005546,0.358410,0.000339,0.000273,-0.000043,0.000360,0.000252,-26.202848,0.000615,
2476,2518,4.76107683162232,-2.7743495142546,-0.00358110226397912,0.000402,-0.015764,0.004567,-0.005579,-0.660434,322.759143,22.939722,0.999324,0.984015,0.004699,0.453627,0.000135,0.000026,0.000025,0.000140,0.000021,12.208238,0.000175,
2491,2518,5.08797219821067,-2.77353830176695,-0.00967460252059027,0.000504,-0.015360,0.004092,0.000875,-0.647238,322.754316,22.884997,0.999437,0.986330,0.004476,0.492518,0.000135,0.000023,0.000032,0.000144,0.000014,14.764183,0.000175,
2161,2728,-2.1378940440052,1.79622487921287,-0.0169729184883636,0.000093,-0.015219,0.010611,-0.033491,-0.620056,319.389942,23.719992,0.999509,0.989734,0.004065,0.466946,0.000039,0.000019,-0.000003,0.000039,0.000018,-6.848353,0.000059,
2491,2563,5.07762324630295,-1.79003976306559,-0.0129672934187397,-0.000016,-0.015565,0.007622,-0.036563,-0.648988,321.957371,23.100949,0.999516,0.988775,0.004389,0.454725,0.000114,-0.000003,0.000020,0.000117,-0.000007,9.574646,0.000131,
2506,2383,5.44514251958818,-5.72623144287682,0.00654884254362287,0.000684,-0.015539,0.000802,0.021467,-0.685033,325.147476,22.349848,0.998527,0.980444,0.005539,0.397781,0.000256,0.000136,0.000029,0.000262,0.000129,12.971168,0.000399,
2221,2803,-0.846432545360809,3.43079354992471,-0.0162220741056558,0.000387,-0.015387,0.010149,-0.020240,-0.623562,318.006038,23.824842,0.999253,0.988479,0.004299,0.463636,0.000025,0.000032,0.000011,0.000041,0.000017,53.635679,0.000059,
2356,2263,2.19296294264756,-8.35396822670547,0.0076133266462648,-0.000556,-0.016122,0.001430,-0.036855,-0.689176,326.789105,22.467656,0.999400,0.984024,0.004959,0.440337,0.000301,0.000233,-0.000012,0.000304,0.000231,-10.044223,0.000536,
2461,2173,4.50576995711797,-10.3273543825455,0.00547529901558619,0.001069,-0.016717,-0.004185,0.057500,-0.746348,328.453308,21.646750,0.998893,0.977263,0.005719,0.394676,0.000523,0.000481,-0.000093,0.000597,0.000407,-38.526765,0.001010,
2251,3178,-0.255693548729102,11.5727259762321,0.0473663339956829,0.001493,-0.015109,0.010824,0.027812,-0.618377,312.400143,24.429806,0.999410,0.991478,0.003592,0.455992,0.000022,0.000034,0.000009,0.000039,0.000017,61.552460,0.000058,
2416,1993,3.56006491508452,-14.2847211668007,0.0440216404211355,0.000491,-0.020138,-0.000853,0.017240,-0.887518,331.555696,21.211901,0.999035,0.974361,0.006215,0.315725,0.000804,0.000759,-0.000058,0.000844,0.000719,-34.494603,0.001564,
2401,2383,3.1517124529681,-5.72611314006778,-0.000446316782245049,0.000059,-0.015759,0.003470,-0.016262,-0.671509,324.830060,22.714220,0.999130,0.984083,0.004965,0.391648,0.000201,0.000136,0.000030,0.000212,0.000124,21.289179,0.000340,
2506,2863,5.34253692208475,4.75214773979138,-0.0203373997098311,0.000582,-0.015393,0.009707,-0.017376,-0.620180,317.067080,24.324894,0.999718,0.992433,0.003508,0.464394,0.000019,0.000022,0.000023,0.000043,-0.000002,47.273973,0.000049,
2491,2803,5.02827042422944,3.44482717470979,-0.0174757732859234,0.000680,-0.015608,0.012306,-0.022567,-0.627865,318.022684,24.095881,0.999393,0.986249,0.004528,0.428845,0.000015,0.000042,0.000003,0.000042,0.000014,84.682731,0.000059,
2311,2788,1.11451861842025,3.10712421067707,-0.00245482345542314,0.000665,-0.015056,0.007659,-0.001310,-0.622059,318.237570,23.825826,0.999694,0.994038,0.003423,0.512855,0.000032,0.000046,0.000014,0.000054,0.000023,58.719775,0.000079,
2476,2728,4.71747931924069,1.80985832435865,-0.0145627118492371,0.000813,-0.015459,0.008453,-0.001273,-0.630175,319.252922,23.810024,0.999612,0.991125,0.003676,0.415755,0.000025,0.000061,0.000021,0.000070,0.000016,65.533566,0.000091,
2446,2353,4.14113639639942,-6.38435504498043,0.0137100288428655,0.000335,-0.016146,0.003898,-0.005912,-0.673015,325.513847,22.385805,0.999230,0.980629,0.005490,0.462831,0.000238,0.000162,0.000016,0.000241,0.000159,11.666863,0.000403,
2371,3058,2.36964698343664,8.98055837806566,0.0199021565883868,0.000910,-0.015638,0.015358,-0.018855,-0.612786,313.987660,24.699517,0.999641,0.992949,0.003436,0.423170,0.000019,0.000031,0.000020,0.000046,0.000004,52.732827,0.000056,
2356,3133,2.03091445715667,10.6064367449035,0.0328832765113702,0.001108,-0.015239,0.011219,0.005567,-0.616384,312.890453,24.813361,0.999487,0.991270,0.003829,0.443767,0.000022,0.000037,0.000010,0.000043,0.000017,63.136139,0.000062,
2386,3238,2.66203473869325,12.8872397536961,0.0234344520484342,0.001430,-0.015126,0.010669,0.021470,-0.632899,311.114988,25.221807,0.999594,0.992759,0.003345,0.437031,0.000022,0.000027,0.000020,0.000044,0.000005,48.494892,0.000053,
2326,2158,1.55832604418278,-10.6565740144147,0.0148488662062505,-0.000510,-0.017515,0.001617,-0.035725,-0.753962,328.547744,22.254070,0.999200,0.983321,0.005175,0.463229,0.000431,0.000472,-0.000005,0.000472,0.000430,-82.955674,0.000903,
2431,2503,3.78223516016252,-3.10422832631042,0.00162476145374058,-0.000075,-0.016180,0.007625,-0.038258,-0.672161,322.920891,22.923133,0.999351,0.985935,0.004546,0.494686,0.000131,0.000040,0.000018,0.000135,0.000036,10.982980,0.000181,
2461,2443,4.44949747253046,-4.41427522866089,0.00291313266700399,0.000323,-0.015834,0.004253,-0.007821,-0.669411,323.993609,22.696072,0.999140,0.984349,0.004927,0.438947,0.000193,0.000077,0.000032,0.000201,0.000069,14.612715,0.000280,
2386,3103,2.68803125159539,9.9572409834211,0.0284919752543829,0.001025,-0.015485,0.012105,-0.002474,-0.629857,313.347499,24.799125,0.998994,0.988319,0.004259,0.484436,0.000023,0.000040,0.000018,0.000052,0.000012,57.775850,0.000067,
2446,2593,4.08984726610107,-1.13555269498724,-0.0251485096426904,0.000268,-0.015374,0.003671,-0.007791,-0.655510,321.290637,23.260561,0.999692,0.992449,0.003816,0.462038,0.000101,0.000009,0.000024,0.000107,0.000003,13.709025,0.000125,
2401,2143,3.20060015858401,-10.9866812356917,0.0189688569412283,0.000043,-0.016839,-0.004243,0.010408,-0.751917,328.900685,21.819725,0.999179,0.977485,0.005593,0.439912,0.000523,0.000541,-0.000055,0.000588,0.000477,-49.773192,0.001066,
2326,3073,1.38955331943059,9.30319749296804,0.0213083474476434,0.001040,-0.014961,0.011180,0.003593,-0.602026,313.780233,24.609600,0.999701,0.994714,0.002986,0.404209,0.000016,0.000034,0.000014,0.000041,0.000009,61.604142,0.000053,
2356,2968,2.05958274211508,7.02587890889017,-0.00228333740841435,0.000878,-0.015283,0.007956,0.006424,-0.630798,315.295027,24.443370,0.999628,0.991123,0.003689,0.381986,0.000015,0.000017,0.000015,0.000031,0.000001,46.853904,0.000037,
2476,2533,4.75760767464115,-2.44587203153686,-0.00825452422861872,0.000363,-0.015564,0.004339,-0.006418,-0.662713,322.475148,23.034979,0.999625,0.987504,0.004161,0.414067,0.000127,0.000031,0.000027,0.000134,0.000024,14.527696,0.000170,
2386,2323,2.83511141139072,-7.03911049495582,-0.00847522035178372,-0.000197,-0.016302,0.003981,-0.029847,-0.689922,325.707076,22.491849,0.999653,0.992052,0.003939,0.464257,0.000239,0.000171,0.000008,0.000240,0.000170,6.774159,0.000412,
2416,2458,3.46330527620455,-4.08611274963444,-0.00749915290583658,-0.000073,-0.016024,0.006692,-0.034356,-0.655514,323.555667,22.850116,0.999378,0.985866,0.004756,0.468982,0.000162,0.000075,0.000039,0.000177,0.000060,20.826547,0.000247,
2371,2143,2.5441335603431,-10.9849311839237,0.01296626672098,-0.000401,-0.017210,-0.002491,-0.016440,-0.750103,328.797864,22.042376,0.999080,0.978290,0.005650,0.388458,0.000513,0.000533,-0.000028,0.000553,0.000493,-54.510903,0.001047,
2491,2533,5.08456365516053,-2.44598462525791,-0.00680538203437209,0.000227,-0.015690,0.007508,-0.025046,-0.662216,322.508576,22.976328,0.999670,0.989018,0.003995,0.446014,0.000131,0.000024,0.000035,0.000142,0.000014,16.762411,0.000172,
2461,2668,4.40234500280087,0.500077411923513,-0.0154187805997026,0.000500,-0.015737,0.008803,-0.016777,-0.651664,320.173605,23.504351,0.999519,0.987268,0.004232,0.478856,0.000057,0.000011,0.000008,0.000059,0.000010,9.556001,0.000074,
2416,2188,3.51942920938267,-9.99917517913433,0.0231038761197055,0.000002,-0.017127,0.000363,-0.008286,-0.759093,328.208592,22.027460,0.999201,0.982846,0.005100,0.291888,0.000449,0.000436,-0.000061,0.000504,0.000381,-41.954235,0.000888,
2371,2293,2.51630844873955,-7.69803076357724,0.0206045195031379,0.000133,-0.016394,0.001665,-0.006350,-0.695326,326.448889,22.548666,0.999776,0.994015,0.003507,0.372209,0.000275,0.000223,0.000001,0.000275,0.000223,0.833687,0.000499,
2491,2578,5.07555668574025,-1.46301142986746,-0.00563752128573469,0.000474,-0.015710,0.008691,-0.018236,-0.639860,321.793143,23.172747,0.998789,0.981804,0.005276,0.451448,0.000102,-0.000008,0.000019,0.000105,-0.000011,9.674786,0.000115,
2506,2398,5.44059422621969,-5.39731922042336,-0.00250669587609309,0.000294,-0.016205,0.003959,-0.008831,-0.702463,324.797987,22.410537,0.998537,0.982674,0.005235,0.382832,0.000244,0.000106,0.000028,0.000249,0.000101,11.079146,0.000360,
2431,2278,3.82751537297848,-8.02529572824836,-0.000221259161889975,0.000229,-0.016084,0.001757,-0.002677,-0.693869,326.587527,22.143329,0.999100,0.977219,0.005866,0.478657,0.000311,0.000256,-0.000029,0.000323,0.000243,-23.376812,0.000568,
2506,2638,5.38994745870726,-0.153550738588251,-0.00774522864998062,0.000316,-0.016040,0.009119,-0.027692,-0.671546,320.833878,23.363317,0.999683,0.991844,0.003865,0.456103,0.000052,-0.000024,0.000006,0.000053,-0.000024,4.757756,0.000053,
2491,2818,5.02561175107835,3.77094368878913,-0.0167819521971637,0.000778,-0.015444,0.009250,-0.006267,-0.633706,317.800271,24.113722,0.999455,0.987460,0.004444,0.464072,0.000015,0.000028,0.000014,0.000037,0.000007,58.150990,0.000047,
2461,2188,4.50178176465197,-9.9970544779934,-0.00585441195903513,0.001177,-0.016656,-0.002739,0.057073,-0.734164,328.115509,21.699049,0.999571,0.987106,0.004779,0.412100,0.000499,0.000467,-0.000083,0.000568,0.000399,-39.499455,0.000971,
2386,2113,2.8773692320147,-11.6443540173272,0.0163929128988229,-0.000567,-0.018285,0.001690,-0.039360,-0.786547,329.298501,21.831540,0.998835,0.969188,0.006390,0.385822,0.000574,0.000598,-0.000044,0.000632,0.000541,-52.673000,0.001173,
2356,2098,2.22435587146333,-11.9721370583696,0.0139649239637265,-0.000712,-0.018313,0.002791,-0.049609,-0.784329,329.492542,22.007268,0.999341,0.980331,0.005355,0.348450,0.000582,0.000619,-0.000023,0.000630,0.000571,-64.218511,0.001201,
2341,3148,1.70304943209228,10.9305383075562,0.0366281312788601,0.001588,-0.015076,0.010705,0.029950,-0.620801,312.702099,24.799392,0.999441,0.993229,0.003598,0.426666,0.000020,0.000031,0.000008,0.000035,0.000016,62.209829,0.000052,
2431,2053,3.87508151030524,-12.9639665724176,0.025075726239038,0.000807,-0.019052,-0.001331,0.033846,-0.832640,330.470804,21.333888,0.998619,0.975272,0.006183,0.356930,0.000735,0.000692,-0.000060,0.000777,0.000650,-35.220248,0.001429,
2476,2743,4.71372888184272,2.13645047921815,-0.0207785437333428,0.000551,-0.015739,0.007505,-0.009800,-0.643519,318.948121,23.801769,0.999707,0.992268,0.003569,0.467666,0.000021,0.000071,0.000020,0.000078,0.000015,70.979927,0.000100,
2341,2923,1.74154511343048,6.04682286885772,-0.0040161067897202,0.000782,-0.015314,0.010537,-0.006656,-0.614204,316.003207,24.275461,0.999121,0.988435,0.004240,0.420907,0.000023,0.000017,0.000020,0.000040,0.000000,41.236375,0.000046,
2461,2458,4.44666887107988,-4.08599690309998,0.00262075500268111,0.000226,-0.015255,0.000320,0.002722,-0.664177,323.758101,22.779556,0.999395,0.985751,0.004708,0.416559,0.000186,0.000062,0.000033,0.000194,0.000053,14.017331,0.000261,
2371,3163,2.35185114661232,11.2580527845329,0.0383747181235208,0.001552,-0.015384,0.012045,0.022590,-0.616212,312.464997,24.927526,0.999511,0.991167,0.003770,0.471730,0.000026,0.000038,0.000017,0.000050,0.000013,55.020475,0.000067,
2506,2413,5.43829454344024,-5.06946767132301,0.00044901264402597,0.000467,-0.015183,-0.000580,0.017064,-0.658919,324.605132,22.433227,0.998926,0.983466,0.005185,0.466354,0.000228,0.000088,0.000033,0.000236,0.000080,12.744746,0.000328,
2416,2008,3.55751335109948,-13.9569913585785,0.0498632809598689,0.000809,-0.020351,0.004178,0.013373,-0.853537,331.359602,21.125302,0.999099,0.972630,0.006292,0.487653,0.000787,0.000755,-0.000060,0.000833,0.000709,-37.405240,0.001544,
2356,2278,2.18891776809853,-8.02449089784183,-0.00566833465603622,-0.000704,-0.016475,0.001854,-0.045291,-0.710265,326.427459,22.493308,0.999455,0.988074,0.004450,0.435110,0.000279,0.000222,-0.000007,0.000280,0.000222,-6.886236,0.000503,
2386,2338,2.83331418618357,-6.71158226566419,0.00365234223863808,-0.000240,-0.015846,0.001670,-0.023342,-0.673296,325.572048,22.577313,0.999087,0.985034,0.004812,0.440131,0.000228,0.000162,0.000018,0.000233,0.000157,14.208066,0.000392,
2311,2983,1.08035697572257,7.3467469340013,0.0166541368618027,0.001118,-0.015183,0.007846,0.018820,-0.641261,315.238165,24.311820,0.999716,0.994689,0.003092,0.421071,0.000016,0.000022,0.000015,0.000034,0.000004,50.419727,0.000042,
2386,3118,2.68542766941588,10.2834345983208,0.0279479372593983,0.001274,-0.015400,0.010931,0.013276,-0.629126,313.112699,24.888061,0.999528,0.991942,0.003605,0.438575,0.000023,0.000039,0.000020,0.000053,0.000009,55.995613,0.000067,
2431,2518,3.77997022231395,-2.77680780217981,0.00296717310231998,0.000214,-0.015715,0.003806,-0.010696,-0.664874,322.716231,22.959987,0.999142,0.984388,0.004776,0.516160,0.000121,0.000037,0.000021,0.000126,0.000032,13.098832,0.000167,
2371,3073,2.36761810159798,9.30604334287927,0.0165626283864526,0.001306,-0.015150,0.006255,0.031926,-0.627435,313.765223,24.708755,0.999525,0.991592,0.003698,0.439599,0.000021,0.000033,0.000018,0.000046,0.000008,54.610741,0.000058,
2506,2878,5.34113487972248,5.07668108737321,-0.0046888759239323,0.000837,-0.015539,0.008421,-0.000824,-0.647272,316.970621,24.345515,0.999707,0.993084,0.003401,0.477061,0.000012,0.000022,0.000026,0.000043,-0.000009,50.284757,0.000046,
2356,2983,2.05722954533734,7.35117381856779,0.00462914489520472,0.001016,-0.015236,0.010250,0.004708,-0.617167,315.106296,24.452660,0.999495,0.988171,0.004163,0.424505,0.000016,0.000017,0.000015,0.000031,0.000002,45.526982,0.000037,
2506,2653,5.38605500163153,0.175661309494167,-0.0176894841614512,0.000399,-0.015919,0.009300,-0.024457,-0.639387,320.508595,23.488607,0.999490,0.987483,0.004566,0.424791,0.000047,-0.000008,0.000005,0.000047,-0.000009,5.580412,0.000050,
2461,2683,4.39883470046336,0.828059023509113,-0.0223717366887399,0.000379,-0.015746,0.006191,-0.012459,-0.650248,319.875127,23.582799,0.999515,0.988043,0.004222,0.456752,0.000050,0.000026,0.000010,0.000054,0.000022,20.201900,0.000079,
2401,2158,3.198163571063,-10.658078839836,0.0239090034668266,0.000630,-0.017553,0.001953,0.014633,-0.778397,328.704185,21.915483,0.999272,0.978430,0.005433,0.365682,0.000495,0.000480,-0.000058,0.000546,0.000429,-41.303251,0.000977,
2491,2593,5.07265399998276,-1.1353498856325,-0.00717816987884135,0.000496,-0.015491,0.005268,-0.004023,-0.646920,321.550436,23.245736,0.999843,0.994487,0.003423,0.430940,0.000094,-0.000011,0.000026,0.000100,-0.000017,13.075969,0.000107,
2446,2608,4.08789880271613,-0.809103672003268,-0.0077781643368553,0.000477,-0.016005,0.010691,-0.024581,-0.639484,321.175180,23.367571,0.999414,0.988268,0.004279,0.423633,0.000095,-0.000001,0.000020,0.000099,-0.000004,11.142369,0.000112,
2431,2068,3.87108867316617,-12.6336989950538,0.0212773826430634,0.000120,-0.018608,-0.001128,0.001916,-0.816200,330.164911,21.411392,0.998236,0.973022,0.006598,0.349513,0.000703,0.000679,-0.000061,0.000753,0.000629,-39.448698,0.001384,
2371,2308,2.51225616442205,-7.36937855898014,0.0124119098010738,-0.000161,-0.016434,0.004988,-0.031632,-0.687145,326.112762,22.531934,0.999853,0.995315,0.003116,0.440934,0.000258,0.000197,0.000009,0.000259,0.000195,8.269816,0.000456,
2386,3253,2.65841953082658,13.213006179934,0.0163219041459115,0.001451,-0.015196,0.012873,0.014542,-0.617634,310.801808,25.255659,0.999646,0.992526,0.003323,0.460478,0.000021,0.000031,0.000019,0.000045,0.000006,52.351412,0.000056,
2326,3088,1.38743417798278,9.62678561495283,0.027756366606809,0.001300,-0.015460,0.012070,0.012258,-0.629732,313.598606,24.522891,0.999603,0.994129,0.003217,0.496378,0.000020,0.000030,0.000008,0.000034,0.000015,59.935687,0.000051,
2461,2203,4.49788225051295,-9.66831523698749,-0.00736313108029663,0.000670,-0.016887,0.000082,0.023222,-0.746050,327.826682,21.742668,0.999145,0.981539,0.005359,0.413713,0.000471,0.000412,-0.000069,0.000517,0.000367,-33.459308,0.000887,
2431,2293,3.82433044181706,-7.69734553644249,0.0101408943580736,-0.000425,-0.016650,0.006558,-0.050533,-0.697381,326.383376,22.257089,0.999099,0.979960,0.005494,0.413176,0.000289,0.000235,-0.000022,0.000296,0.000228,-19.474115,0.000525,
2416,2203,3.51572568659544,-9.67124760912694,0.0183000610061299,-0.000262,-0.017180,0.001813,-0.025652,-0.742873,327.909402,21.931776,0.999282,0.981524,0.005311,0.454461,0.000422,0.000398,-0.000048,0.000459,0.000361,-37.830998,0.000822,
2416,2473,3.46119311680267,-3.75941322463995,-0.00102991796637752,-0.000085,-0.015474,0.002694,-0.020062,-0.659651,323.381138,22.865796,0.999222,0.985547,0.004771,0.497829,0.000148,0.000063,0.000036,0.000161,0.000050,20.031860,0.000220,
2476,2758,4.71130272439247,2.4608387158704,-0.00514254787418622,0.000455,-0.016393,0.014592,-0.041403,-0.651097,318.803825,23.763089,0.999583,0.990343,0.003863,0.555259,0.000030,0.000069,0.000022,0.000079,0.000020,66.206288,0.000105,
2461,2473,4.44310874837914,-3.75781454252591,-0.0014573271619156,0.000396,-0.015751,0.004673,-0.006064,-0.670213,323.471688,22.835651,0.999498,0.986914,0.004517,0.410317,0.000165,0.000054,0.000025,0.000170,0.000049,12.341882,0.000230,
2386,2128,2.87477594264653,-11.3147104888149,0.0137930661436485,-0.000127,-0.017648,0.000912,-0.016169,-0.776183,329.057877,21.893880,0.999082,0.975388,0.005841,0.380205,0.000546,0.000583,-0.000041,0.000609,0.000520,-57.157300,0.001130,
2446,2368,4.1376872909771,-6.05500543827773,0.00470873029127006,0.000239,-0.015731,-0.000900,0.007696,-0.691611,325.209016,22.475634,0.999352,0.984286,0.005078,0.408533,0.000227,0.000151,0.000024,0.000234,0.000144,16.231593,0.000382,
2401,2398,3.14885095341502,-5.39860384980911,0.00131003617934766,0.000006,-0.015868,0.003849,-0.020087,-0.663900,324.598109,22.724207,0.999261,0.985035,0.004870,0.436097,0.000190,0.000131,0.000034,0.000206,0.000115,24.697453,0.000325,
2476,2548,4.75445772262169,-2.11867704194769,-0.0108450145898473,0.000268,-0.015378,0.001783,-0.001001,-0.668854,322.215399,23.040371,0.999565,0.986774,0.004374,0.460079,0.000116,-0.000002,0.000021,0.000120,-0.000005,9.913517,0.000135,
2356,3148,2.02853013273992,10.9315429187425,0.0372518005108873,0.001322,-0.015400,0.012281,0.011599,-0.626842,312.687574,24.850275,0.999490,0.991717,0.003767,0.433991,0.000022,0.000031,0.000010,0.000038,0.000016,57.901882,0.000055,
2416,2023,3.5523399219599,-13.6224429280366,0.0301547893095062,-0.000241,-0.019304,-0.001302,-0.014236,-0.852881,330.924216,21.409814,0.998748,0.973927,0.006213,0.256269,0.000766,0.000732,-0.000060,0.000811,0.000686,-37.202183,0.001499,
2506,2893,5.33892518370755,5.40380020747369,0.000882080112717176,0.001221,-0.015349,0.007985,0.018632,-0.629695,316.791116,24.488404,0.999542,0.990319,0.004003,0.412508,0.000018,0.000008,0.000028,0.000041,-0.000015,39.594279,0.000042,
2371,2158,2.54186157925977,-10.6565371521022,0.0192155995425765,-0.000084,-0.017552,0.000242,-0.011714,-0.771389,328.612893,22.127980,0.999360,0.981128,0.005461,0.325191,0.000485,0.000474,-0.000033,0.000512,0.000446,-39.999250,0.000959,
2491,2833,5.02256873864499,4.09722823342898,-0.0165139973912574,0.000704,-0.015536,0.008262,-0.005954,-0.648466,317.558140,24.157082,0.999419,0.988041,0.004279,0.464385,0.000021,0.000024,0.000022,0.000044,0.000000,46.877883,0.000051,
2506,2668,5.38368935971667,0.501516193057292,-0.0116136170836967,0.000668,-0.015869,0.009908,-0.014460,-0.637989,320.325711,23.475475,0.999371,0.985996,0.004737,0.500789,0.000044,-0.000007,0.000004,0.000044,-0.000007,4.673229,0.000048,
2461,2698,4.39639082803828,1.15540148017476,-0.0171222667553934,0.000488,-0.015347,0.005682,-0.005362,-0.627280,319.681472,23.686305,0.999658,0.988097,0.004330,0.431040,0.000047,0.000041,0.000015,0.000059,0.000029,39.811853,0.000090,
2431,2083,3.86760140584662,-12.3026174500102,0.0138947711496371,0.000434,-0.018618,0.001481,0.006648,-0.788953,329.865410,21.518725,0.998712,0.976283,0.006272,0.322859,0.000671,0.000667,-0.000059,0.000728,0.000610,-44.079052,0.001340,
2506,2428,5.4357506797211,-4.74228869338888,0.00754925322496547,0.000578,-0.015586,0.001109,0.015454,-0.669142,324.419751,22.491819,0.998852,0.980987,0.005533,0.459945,0.000216,0.000077,0.000041,0.000228,0.000066,15.412594,0.000308,
2431,2308,3.82221880258446,-7.36790778616189,0.0119184739141929,-0.000076,-0.015819,0.001884,-0.016994,-0.664797,326.188326,22.388513,0.999127,0.982617,0.005108,0.366324,0.000273,0.000207,-0.000013,0.000275,0.000205,-10.536084,0.000482,
2371,3178,2.34837130940047,11.5837143597829,0.0339103936733522,0.001214,-0.015248,0.010974,0.010894,-0.617136,312.169886,24.960796,0.999551,0.991606,0.003599,0.477497,0.000028,0.000039,0.000019,0.000053,0.000014,53.636636,0.000071,
2341,2938,1.7393622833322,6.37165729317972,0.00133990747428925,0.001009,-0.015573,0.010528,0.003694,-0.634405,315.814198,24.253951,0.999129,0.987433,0.004284,0.457980,0.000021,0.000022,0.000018,0.000039,0.000004,45.938841,0.000048,
2386,3133,2.68322321790441,10.6087216856179,0.0349762773246312,0.001413,-0.015320,0.010865,0.019940,-0.624178,312.932574,24.939752,0.999670,0.992859,0.003477,0.433899,0.000024,0.000039,0.000019,0.000052,0.000011,56.070836,0.000068,
2476,2773,4.70768977219134,2.79051216941799,-0.0204446596080174,0.000628,-0.015734,0.007967,-0.008030,-0.642240,318.463193,23.953895,0.999214,0.986340,0.004412,0.430311,0.000023,0.000055,0.000021,0.000066,0.000013,63.819282,0.000084,
2431,2533,3.77699910760321,-2.44803565413171,0.00110999034615133,0.000325,-0.015755,0.003154,-0.003249,-0.683268,322.464075,23.122579,0.999352,0.987387,0.004425,0.386027,0.000114,0.000038,0.000021,0.000120,0.000032,14.576869,0.000160,
2461,2488,4.44035816495289,-3.43024889070472,-0.000674785616013196,0.000521,-0.015369,0.003625,0.003773,-0.654537,323.244585,22.863378,0.999550,0.985611,0.004626,0.453748,0.000156,0.000047,0.000021,0.000160,0.000043,10.617588,0.000214,
2356,2998,2.054378953192,7.67692774443723,0.0109223561357794,0.000708,-0.015325,0.012562,-0.017608,-0.612481,314.891524,24.512191,0.999635,0.991685,0.003655,0.407709,0.000014,0.000019,0.000010,0.000027,0.000006,52.369628,0.000035,
2401,2173,3.19414659124948,-10.32867949465,0.0194368536423326,0.000001,-0.017659,0.003333,-0.019188,-0.763347,328.390739,21.947509,0.999116,0.980862,0.005331,0.397622,0.000466,0.000447,-0.000056,0.000514,0.000400,-40.155725,0.000916,
2356,2293,2.18673025213635,-7.69468322785043,-0.00478751564526192,-0.000090,-0.016314,0.002151,-0.018129,-0.689977,326.218658,22.657065,0.999598,0.992806,0.004007,0.332580,0.000259,0.000214,-0.000003,0.000260,0.000214,-3.492980,0.000474,
2386,3268,2.65536077545953,13.5384335442692,0.0131982912083686,0.001487,-0.015203,0.012176,0.018719,-0.616240,310.533332,25.298736,0.999658,0.992464,0.003423,0.460680,0.000022,0.000029,0.000018,0.000044,0.000007,49.851825,0.000055,
2341,3163,1.7004106805831,11.2561799128357,0.0385540640980935,0.001498,-0.014584,0.008942,0.032190,-0.597413,312.474473,24.840356,0.999527,0.992999,0.003668,0.444426,0.000021,0.000036,0.000011,0.000042,0.000015,62.853129,0.000059,
2491,2608,5.06988438162572,-0.809053796376631,-0.00145256948928818,0.000377,-0.015583,0.005926,-0.012043,-0.644410,321.346670,23.251272,0.999856,0.994180,0.003497,0.487553,0.000090,-0.000024,0.000020,0.000093,-0.000027,9.839925,0.000096,
2416,2488,3.45766225588502,-3.43142261905845,-0.00743900003072895,0.000068,-0.016124,0.005413,-0.023256,-0.679497,323.081116,22.901724,0.999332,0.986227,0.004580,0.491466,0.000142,0.000058,0.000034,0.000154,0.000046,19.449283,0.000209,
2311,2998,1.07770558324635,7.67224915027192,0.0197368806444729,0.001096,-0.015247,0.008980,0.014000,-0.617536,315.014174,24.305863,0.999864,0.996138,0.002975,0.482296,0.000015,0.000022,0.000009,0.000029,0.000009,54.722361,0.000039,
2446,2623,4.0849250966858,-0.482158007392499,-0.00494504892128589,0.000203,-0.015894,0.009864,-0.034009,-0.642842,320.945576,23.417872,0.999536,0.988541,0.004111,0.422783,0.000084,-0.000003,0.000019,0.000088,-0.000007,11.562476,0.000097,
2386,2143,2.87134019796077,-10.9849704227393,0.00922443101330828,-0.000473,-0.017191,-0.001160,-0.024446,-0.750573,328.769201,21.934544,0.998889,0.973119,0.006044,0.411677,0.000520,0.000536,-0.000042,0.000571,0.000485,-50.582518,0.001057,
2416,2218,3.51224570401145,-9.34066356599278,0.0108207578430211,-0.000295,-0.016908,0.000391,-0.021880,-0.729593,327.607638,22.059803,0.999380,0.982996,0.005171,0.390321,0.000400,0.000357,-0.000035,0.000420,0.000337,-29.188864,0.000759,
2326,3103,1.3849362951743,9.9523892792473,0.0322328528272351,0.001254,-0.015384,0.011872,0.010859,-0.628911,313.389177,24.584139,0.999479,0.993259,0.003472,0.469282,0.000021,0.000034,0.000007,0.000037,0.000018,65.849631,0.000056,
2371,3088,2.36477869185653,9.63063080390014,0.0282683379608102,0.001018,-0.015684,0.013805,-0.008464,-0.638228,313.577862,24.731765,0.999268,0.989736,0.004099,0.445709,0.000025,0.000032,0.000013,0.000042,0.000015,53.022765,0.000059,
2461,2218,4.49568727509397,-9.34037665878309,0.00138376425013575,0.000851,-0.016756,0.000877,0.028571,-0.716900,327.662572,21.784068,0.999436,0.985652,0.005047,0.458398,0.000440,0.000362,-0.000060,0.000472,0.000330,-28.476395,0.000806,
2371,2173,2.53879305964189,-10.3291462472615,0.0189537981518697,-0.000171,-0.017306,0.001718,-0.020838,-0.754226,328.360297,22.019037,0.999164,0.981788,0.005391,0.495281,0.000457,0.000442,-0.000033,0.000483,0.000415,-38.502566,0.000899,
2506,2443,5.43220070330466,-4.41360266050749,0.00325823930609204,0.000468,-0.015342,0.000631,0.012387,-0.657999,324.136997,22.564495,0.998976,0.981595,0.005359,0.461102,0.000211,0.000054,0.000038,0.000220,0.000045,12.911891,0.000283,
2461,2713,4.39328440098641,1.48224040368753,-0.0172702604284609,0.000643,-0.015411,0.008397,-0.008502,-0.617293,319.432732,23.716655,0.999668,0.990305,0.003953,0.465379,0.000040,0.000052,0.000016,0.000063,0.000029,54.448959,0.000094,
2491,2848,5.01982493533811,4.42463859713851,-0.0124891782907071,0.000699,-0.015478,0.008218,-0.005935,-0.631373,317.346308,24.304626,0.999579,0.991748,0.003691,0.392608,0.000018,0.000024,0.000016,0.000037,0.000005,49.900646,0.000046,
2401,2413,3.14627522689881,-5.07073521674305,0.00219652021257843,0.000299,-0.015773,0.004099,-0.007510,-0.660752,324.375084,22.767971,0.999375,0.985470,0.004786,0.442633,0.000174,0.000132,0.000039,0.000197,0.000109,30.760893,0.000310,
2476,2563,4.75071422962514,-1.78962458678004,-0.017509690414613,0.000297,-0.015166,0.003636,-0.006598,-0.640210,321.909384,23.150761,0.998583,0.982556,0.005220,0.436039,0.000111,0.000008,0.000019,0.000114,0.000005,9.908175,0.000134,
2506,2683,5.37916254177825,0.830419825404014,-0.0246407269994506,0.000296,-0.015819,0.009154,-0.028580,-0.643595,319.957416,23.595823,0.999594,0.989894,0.004001,0.436531,0.000037,0.000003,0.000012,0.000040,-0.000001,17.294804,0.000046,
2371,2323,2.50869651598072,-7.04182486479994,0.0147877454646732,-0.000667,-0.017070,0.009827,-0.072209,-0.711365,325.849830,22.558159,0.999562,0.991573,0.003913,0.433476,0.000237,0.000166,0.000014,0.000240,0.000164,10.688221,0.000406,
2386,2353,2.83045823951499,-6.38426069110115,0.00166759395028748,-0.000100,-0.016083,0.001070,-0.014883,-0.687744,325.321771,22.540348,0.998696,0.981775,0.005336,0.508026,0.000216,0.000149,0.000025,0.000225,0.000141,18.262876,0.000369,
2446,2383,4.13456823885186,-5.72597651790948,0.00342200897199518,0.000287,-0.015460,-0.000254,0.007618,-0.668615,324.954575,22.575260,0.999701,0.987826,0.004624,0.385868,0.000220,0.000133,0.000024,0.000226,0.000127,14.742787,0.000358,
2506,2908,5.33454555801111,5.7303415162072,-0.00592092651163512,0.000771,-0.015681,0.010978,-0.013737,-0.629510,316.456387,24.510171,0.999475,0.988625,0.004206,0.451840,0.000027,-0.000026,0.000031,0.000041,-0.000040,24.687360,0.000047,
2491,2623,5.06614264434544,-0.482384406758555,-0.00471780759562535,0.000198,-0.016106,0.008429,-0.030067,-0.670262,321.057688,23.246721,0.999851,0.994044,0.003440,0.525704,0.000077,-0.000038,0.000016,0.000079,-0.000040,7.813631,0.000079,
2371,3193,2.34629098693417,11.9087974221932,0.0409633346864098,0.001506,-0.015252,0.011528,0.022325,-0.628203,311.994647,25.022705,0.999549,0.991615,0.003603,0.444098,0.000028,0.000034,0.000020,0.000052,0.000011,49.495199,0.000067,
2431,2323,3.81877181173597,-7.04048154729939,0.00756635087799395,-0.000297,-0.015909,0.000712,-0.022835,-0.681236,325.904043,22.329173,0.999115,0.981856,0.005102,0.461174,0.000252,0.000180,-0.000002,0.000252,0.000180,-1.912291,0.000434,
2506,2458,5.42862613727381,-4.08498661911837,-0.00265613924517538,0.000709,-0.015532,0.002933,0.014437,-0.646401,323.845782,22.620754,0.999085,0.985056,0.004832,0.479113,0.000209,0.000040,0.000044,0.000220,0.000029,13.790337,0.000273,
2386,3283,2.65256864471576,13.8634166267454,0.0120463758029246,0.001566,-0.015052,0.010629,0.028000,-0.616299,310.286639,25.317099,0.999625,0.991483,0.003627,0.484036,0.000022,0.000027,0.000013,0.000038,0.000012,50.359822,0.000052,
2416,2038,3.54889147336076,-13.2933441949535,0.0241573256181482,-0.000044,-0.019163,0.001500,-0.015370,-0.829621,330.631770,21.337028,0.998667,0.974117,0.006228,0.403837,0.000736,0.000694,-0.000060,0.000779,0.000651,-35.427907,0.001432,
2416,2503,3.45416739839686,-3.10187094591676,-0.0178604569840104,0.000244,-0.015457,0.003930,-0.009515,-0.666656,322.763538,23.017384,0.999556,0.989492,0.004135,0.437776,0.000132,0.000045,0.000032,0.000143,0.000035,18.190385,0.000188,
2386,2158,2.86886121281533,-10.655954007292,0.0132619120514619,-0.000206,-0.017500,0.000957,-0.019921,-0.771647,328.565290,22.053596,0.999207,0.978795,0.005558,0.317419,0.000491,0.000476,-0.000046,0.000531,0.000437,-40.455288,0.000969,
2431,2548,3.77421278209243,-2.12057618240306,0.00701629560410311,0.000230,-0.015703,0.005551,-0.016417,-0.673473,322.256469,23.210645,0.999670,0.989885,0.003966,0.358624,0.000107,0.000018,0.000021,0.000111,0.000014,12.499443,0.000137,
2356,3163,2.02606822146423,11.256602705469,0.0399981395377722,0.001357,-0.015132,0.010411,0.019908,-0.620598,312.473245,24.859770,0.999420,0.991598,0.003927,0.468508,0.000023,0.000038,0.000012,0.000045,0.000016,61.001604,0.000063,
2356,3013,2.051588490921,8.00271120074564,0.00764162058408147,0.000695,-0.014941,0.008359,-0.003321,-0.618860,314.633246,24.524436,0.999572,0.990725,0.003822,0.427318,0.000015,0.000021,0.000009,0.000027,0.000009,54.232213,0.000038,
2431,2098,3.86446285394224,-11.9736019322387,0.0184547870102278,-0.000006,-0.018471,0.002578,-0.017446,-0.780494,329.637266,21.593744,0.999441,0.980310,0.005832,0.309436,0.000635,0.000637,-0.000067,0.000703,0.000569,-45.631822,0.001274,
2446,2638,4.08158090976454,-0.154013419848617,-0.0127772720693997,0.000235,-0.015469,0.006600,-0.020205,-0.638657,320.649500,23.484753,0.999612,0.989651,0.003990,0.412834,0.000073,0.000005,0.000015,0.000076,0.000001,11.951966,0.000089,
2386,3148,2.68091485490233,10.9334781925025,0.0431458487058762,0.001482,-0.015392,0.012391,0.017515,-0.642113,312.753234,24.975248,0.999640,0.992246,0.003504,0.422603,0.000024,0.000032,0.000018,0.000046,0.000009,51.327316,0.000059,
2356,2308,2.18463568666929,-7.36896321294412,0.00552733967151653,-0.000055,-0.016499,0.003516,-0.021367,-0.694709,326.060077,22.571312,0.999393,0.990473,0.004066,0.454034,0.000242,0.000188,0.000007,0.000243,0.000187,7.606309,0.000431,
2491,2863,5.01673633551808,4.75035016471521,-0.011577571033115,0.000629,-0.015517,0.008520,-0.010307,-0.629834,317.104919,24.292128,0.999579,0.991461,0.003698,0.465264,0.000023,0.000020,0.000012,0.000033,0.000009,41.203913,0.000045,
2461,2503,4.43694124639847,-3.10295842515227,0.00257127415068226,0.000096,-0.015772,0.006404,-0.026302,-0.646120,322.998112,22.900419,0.999465,0.986299,0.004472,0.480861,0.000150,0.000031,0.000022,0.000154,0.000027,10.394022,0.000195,
2476,2788,4.70490293445131,3.1174915210401,-0.0190603783337338,0.000725,-0.015413,0.007346,-0.001107,-0.638140,318.236843,24.037864,0.999320,0.985094,0.004471,0.406857,0.000019,0.000048,0.000013,0.000053,0.000014,68.786329,0.000071,
2506,2473,5.42482106651654,-3.7564246211579,-0.00511601225611003,0.000433,-0.015777,0.005312,-0.007479,-0.657446,323.559363,22.732425,0.999263,0.984785,0.004704,0.418911,0.000181,0.000029,0.000037,0.000190,0.000021,12.910372,0.000232,
2461,2728,4.39087425218188,1.80904575879419,-0.00952246133175549,0.000949,-0.015636,0.012379,-0.009536,-0.631862,319.252111,23.836462,0.999644,0.992100,0.003579,0.385356,0.000033,0.000063,0.000016,0.000070,0.000026,66.489887,0.000100,
2491,2638,5.06193614144091,-0.152384876951778,-0.0193277668273595,0.000367,-0.015898,0.009056,-0.024645,-0.648045,320.695421,23.409071,0.999487,0.988556,0.004205,0.445541,0.000071,-0.000018,0.000013,0.000073,-0.000020,8.430002,0.000075,
2401,2188,3.19172827465023,-9.99883861337112,0.0157071908865305,0.000198,-0.016653,-0.004275,0.017709,-0.752341,328.153939,22.037382,0.999052,0.982964,0.005242,0.366879,0.000441,0.000426,-0.000054,0.000488,0.000379,-41.187028,0.000870,
2431,2338,3.81575444765059,-6.71131637450722,0.00615074856312958,0.000061,-0.016175,0.004129,-0.019101,-0.680178,325.652682,22.446048,0.999073,0.982613,0.004914,0.397402,0.000240,0.000171,0.000010,0.000241,0.000170,7.895972,0.000413,
2461,2233,4.49216054536405,-9.01179826275286,0.0108699613564909,-0.000103,-0.017110,0.004676,-0.029509,-0.721188,327.440770,21.929319,0.999082,0.980731,0.005500,0.365506,0.000416,0.000343,-0.000047,0.000439,0.000321,-25.985257,0.000763,
2401,2428,3.14285993038343,-4.7429421301194,0.000275160824003251,-0.000099,-0.015892,0.003392,-0.023272,-0.667019,324.100312,22.792721,0.999322,0.985023,0.004838,0.458746,0.000166,0.000118,0.000038,0.000187,0.000097,28.657072,0.000289,
2311,3013,1.07400112529727,7.99918524221857,0.00914540737755942,0.001078,-0.015642,0.010521,0.007736,-0.643354,314.673869,24.393431,0.999489,0.990903,0.003743,0.400465,0.000016,0.000024,0.000010,0.000031,0.000009,55.387088,0.000041,
2506,2698,5.37692113227747,1.15650440781678,-0.0166180485275049,0.000387,-0.015780,0.008110,-0.020401,-0.659281,319.788773,23.645635,0.999574,0.990671,0.003858,0.432221,0.000038,0.000025,0.000019,0.000052,0.000011,35.603563,0.000067,
2371,3208,2.34328945383591,12.2336471362561,0.0372034620717159,0.001648,-0.015509,0.011182,0.029962,-0.644700,311.725100,25.008756,0.999515,0.991705,0.003662,0.481275,0.000029,0.000032,0.000021,0.000052,0.000009,46.897478,0.000066,
2506,2923,5.33026422943674,6.05822090799138,-0.0205246234997958,0.000823,-0.015674,0.010886,-0.010988,-0.637718,316.090831,24.613084,0.999358,0.985737,0.004413,0.401451,0.000026,-0.000021,0.000031,0.000042,-0.000036,26.632098,0.000045,
2341,3178,1.69715714634686,11.5814035612098,0.0342155564609357,0.001316,-0.014844,0.007751,0.027806,-0.619309,312.188145,24.854460,0.999595,0.993734,0.003689,0.443882,0.000023,0.000036,0.000013,0.000044,0.000015,58.608479,0.000062,
2476,2578,4.74733354437873,-1.46246619692232,-0.0113503090273639,0.000071,-0.015854,0.010960,-0.045003,-0.633909,321.678482,23.227520,0.998132,0.983372,0.005289,0.423173,0.000101,0.000005,0.000019,0.000104,0.000002,10.690948,0.000121,
2416,2053,3.54706876470372,-12.9637654822623,0.0267338106295938,0.000537,-0.018692,-0.002768,0.026964,-0.836186,330.453762,21.439659,0.998486,0.974246,0.006305,0.345441,0.000710,0.000687,-0.000056,0.000756,0.000641,-39.238446,0.001398,
2446,2653,4.07869892551996,0.173080112335128,-0.0131048919553223,0.000488,-0.015457,0.007929,-0.013553,-0.638198,320.409362,23.527552,0.999691,0.990541,0.003849,0.423187,0.000062,0.000009,0.000011,0.000064,0.000007,11.131340,0.000078,
2371,2338,2.50595830084469,-6.7123008035432,0.00568874774796768,-0.000286,-0.016405,0.003949,-0.033659,-0.692331,325.569316,22.612936,0.999016,0.985049,0.004893,0.440961,0.000227,0.000159,0.000023,0.000234,0.000153,16.906441,0.000389,
2461,2743,4.38665248505196,2.13573296621952,-0.0216714434254186,0.000521,-0.015984,0.009557,-0.018748,-0.664108,318.897149,23.808085,0.999603,0.991085,0.003774,0.436357,0.000031,0.000070,0.000015,0.000075,0.000026,71.506623,0.000105,
2506,2488,5.42172500805114,-3.42909342862634,-0.00349295031787733,0.000337,-0.015830,0.005643,-0.013154,-0.649537,323.323757,22.754832,0.999352,0.985213,0.004713,0.466537,0.000165,0.000016,0.000033,0.000172,0.000009,11.793297,0.000203,
2416,2233,3.50961677528561,-9.01200961665455,0.0136804836774331,-0.000123,-0.016556,0.001429,-0.017627,-0.716812,327.393219,22.125056,0.999440,0.984263,0.005027,0.387844,0.000380,0.000333,-0.000027,0.000393,0.000321,-24.327762,0.000714,
2386,2368,2.82670021750826,-6.05505245965499,-0.00205354539792779,-0.000253,-0.016457,0.006305,-0.040789,-0.675459,325.021434,22.637967,0.998778,0.982358,0.005207,0.467830,0.000204,0.000142,0.000030,0.000216,0.000130,21.884840,0.000350,
2431,2563,3.77068981228259,-1.79313824367409,0.00476816172141525,0.000303,-0.016126,0.010973,-0.033227,-0.659498,321.977138,23.224768,0.999481,0.988865,0.004192,0.409440,0.000104,0.000023,0.000021,0.000109,0.000018,13.782920,0.000137,
2431,2113,3.86258518621529,-11.6456864611061,0.0228152131163597,0.000544,-0.017805,0.000301,0.016396,-0.777609,329.466033,21.576281,0.999339,0.978747,0.005915,0.382461,0.000600,0.000613,-0.000070,0.000677,0.000536,-47.639594,0.001216,
2446,2398,4.13062874424677,-5.39838033571549,-0.00121304015345913,0.000157,-0.016206,0.004988,-0.018148,-0.672135,324.647308,22.543462,0.999655,0.987045,0.004709,0.468345,0.000211,0.000125,0.000027,0.000218,0.000118,15.941239,0.000341,
2386,3298,2.64840952087434,14.1895490461655,-0.00336330903598991,0.001750,-0.015118,0.013520,0.025979,-0.621618,309.908428,25.374202,0.999627,0.992443,0.003621,0.463295,0.000019,0.000019,0.000008,0.000026,0.000011,44.746877,0.000039,
2386,2173,2.86587049594871,-10.3277695082,0.0117922804454906,0.000001,-0.017371,0.003505,-0.019503,-0.746372,328.311696,21.996756,0.999305,0.982504,0.005297,0.445807,0.000462,0.000444,-0.000046,0.000500,0.000406,-39.250489,0.000908,
2491,2653,5.0592337564342,0.175099229897853,-0.0170838091322594,0.000532,-0.015628,0.008763,-0.015814,-0.639931,320.478583,23.502543,0.999434,0.987728,0.004384,0.419330,0.000064,-0.000007,0.000010,0.000065,-0.000008,8.100533,0.000071,
2476,2803,4.70160232374466,3.44424170204464,-0.0156960738793259,0.000582,-0.015569,0.011991,-0.025376,-0.631878,317.995807,24.118183,0.999317,0.984640,0.004667,0.389380,0.000015,0.000041,0.000014,0.000047,0.000008,66.321649,0.000060,
2461,2518,4.43420040165461,-2.77567163441587,0.00500758255230949,0.000083,-0.015879,0.005189,-0.022391,-0.676626,322.779056,22.972985,0.999223,0.983720,0.004663,0.432998,0.000136,0.000030,0.000026,0.000142,0.000024,13.084136,0.000179,
2416,2518,3.45190605498708,-2.77552544653255,-0.0119530589162196,0.000347,-0.015577,0.002635,-0.000072,-0.669669,322.579407,23.008392,0.999382,0.987497,0.004443,0.492196,0.000119,0.000042,0.000031,0.000130,0.000032,19.367752,0.000171,
2491,2878,5.01433394391209,5.07543058959322,-0.00477527909157516,0.000653,-0.015342,0.007697,-0.006056,-0.643332,316.921785,24.283922,0.999546,0.992619,0.003523,0.518590,0.000020,0.000020,0.000015,0.000036,0.000005,44.719383,0.000044,
2356,3178,2.02324635507975,11.5822257587262,0.0392161618223099,0.001349,-0.014947,0.009097,0.024231,-0.619573,312.225046,24.908992,0.999532,0.992079,0.003734,0.457849,0.000025,0.000038,0.000014,0.000047,0.000016,57.245401,0.000066,
2431,2353,3.81270330497575,-6.38299503179174,0.00232528767890017,0.000119,-0.016189,0.001926,-0.008354,-0.679919,325.388656,22.468202,0.998926,0.981697,0.005216,0.427400,0.000228,0.000161,0.000017,0.000232,0.000157,13.680744,0.000391,
2311,3028,1.07217044648299,8.32408856478169,0.0185886577933161,0.001308,-0.015509,0.010410,0.018740,-0.640304,314.519121,24.403383,0.999579,0.990938,0.003739,0.424552,0.000019,0.000026,0.000011,0.000034,0.000011,54.172541,0.000047,
2506,2938,5.32867195294024,6.3831531484953,-0.00215781984621799,0.000993,-0.015751,0.013552,-0.013532,-0.633900,315.997344,24.671438,0.999543,0.989683,0.003957,0.407201,0.000021,-0.000022,0.000023,0.000031,-0.000032,23.341052,0.000036,
2386,3163,2.67749354438959,11.2591580977551,0.0405408095271582,0.001273,-0.015397,0.013741,0.003133,-0.622702,312.470941,24.996746,0.999458,0.990695,0.003842,0.462502,0.000021,0.000038,0.000019,0.000051,0.000009,56.689487,0.000064,
2401,2203,3.18859137496131,-9.67089008524179,0.0168770854132845,0.000013,-0.016762,-0.002630,0.003251,-0.741465,327.907349,22.011839,0.999032,0.981069,0.005447,0.451383,0.000413,0.000392,-0.000043,0.000447,0.000358,-37.881216,0.000806,
2506,2713,5.37421271942422,1.48398812346899,-0.0154262808929957,0.000571,-0.015760,0.006751,-0.006651,-0.644853,319.567694,23.741979,0.999605,0.990124,0.003911,0.411816,0.000028,0.000035,0.000021,0.000053,0.000011,49.632053,0.000068,
2461,2248,4.48997768237477,-8.68383712354157,0.0137974745308611,0.000194,-0.016681,0.000950,-0.001749,-0.713450,327.250669,21.942341,0.998911,0.977721,0.005621,0.416718,0.000389,0.000324,-0.000044,0.000411,0.000302,-26.552441,0.000716,
2401,1993,3.231363197606,-14.2834143895616,0.0307909317854751,0.000310,-0.019508,-0.008563,0.037098,-0.898276,331.445593,21.256430,0.998558,0.967347,0.006850,0.367756,0.000790,0.000755,-0.000069,0.000844,0.000701,-37.940502,0.001547,
2476,2593,4.74479057694945,-1.13517139222319,-0.0124766872730788,0.000364,-0.015484,0.007224,-0.017263,-0.631729,321.452973,23.261414,0.998562,0.983019,0.004978,0.448716,0.000095,-0.000001,0.000024,0.000100,-0.000007,13.388715,0.000112,
2371,3223,2.34014349475214,12.5594364390464,0.0362081571759063,0.001489,-0.015542,0.011545,0.021349,-0.640631,311.461784,25.081149,0.999590,0.992545,0.003422,0.452620,0.000029,0.000036,0.000020,0.000053,0.000012,49.770782,0.000070,
2506,2503,5.41860252097802,-3.10071876547301,-0.0060789980848881,0.000586,-0.015911,0.006056,-0.003404,-0.664074,323.067993,22.861739,0.999336,0.985464,0.004866,0.407486,0.000151,-0.000002,0.000032,0.000158,-0.000008,11.355002,0.000177,
2476,2818,4.69874115687083,3.77018731782588,-0.0146929764072752,0.000484,-0.015541,0.009590,-0.020736,-0.634972,317.764398,24.119693,0.999434,0.986433,0.004520,0.441301,0.000018,0.000028,0.000019,0.000043,0.000003,52.175704,0.000051,
2401,2443,3.14024019715898,-4.41547956819891,0.00528157732867385,-0.000066,-0.016013,0.005038,-0.027728,-0.658913,323.894562,22.842827,0.999315,0.986490,0.004744,0.463446,0.000160,0.000097,0.000037,0.000177,0.000080,24.909235,0.000263,
2416,2068,3.54380931986806,-12.6341793112312,0.0215633660019989,0.000618,-0.018630,-0.003075,0.031774,-0.830669,330.173751,21.450270,0.998652,0.975654,0.006305,0.391665,0.000681,0.000674,-0.000055,0.000732,0.000622,-43.134057,0.001356,
2461,2758,4.38340089950715,2.4630563413324,-0.022887320404152,0.000407,-0.015541,0.009698,-0.024339,-0.644211,318.636470,23.878580,0.999530,0.989609,0.004023,0.440477,0.000038,0.000072,0.000017,0.000079,0.000031,67.462518,0.000113,
2431,2578,3.76750309585529,-1.46431235089976,-0.000724159158721704,0.000429,-0.015714,0.009576,-0.022124,-0.633688,321.697837,23.331058,0.999713,0.993077,0.003653,0.380023,0.000100,0.000024,0.000020,0.000105,0.000019,14.042404,0.000133,
2461,2533,4.43112294746006,-2.44660992277712,-0.00201291019033079,0.000416,-0.015263,0.002728,0.002381,-0.663662,322.500835,23.084744,0.999442,0.987511,0.004278,0.389973,0.000128,0.000033,0.000026,0.000135,0.000026,14.409276,0.000172,
2491,2668,5.05668946446517,0.501523400107601,-0.0176291320981363,0.000778,-0.015347,0.004847,0.010592,-0.646821,320.256627,23.494711,0.999377,0.986790,0.004462,0.479644,0.000059,-0.000002,0.000007,0.000060,-0.000003,6.683638,0.000067,
2446,2413,4.12824728904691,-5.07003445948421,0.00537471874434914,0.000320,-0.015611,0.005945,-0.013980,-0.631607,324.462801,22.648419,0.999668,0.987586,0.004703,0.457414,0.000197,0.000122,0.000032,0.000208,0.000110,20.134522,0.000324,
2416,2248,3.50703075313701,-8.68336796717294,0.014799135385033,-0.000020,-0.016051,-0.000682,-0.005047,-0.693999,327.172547,22.166095,0.999218,0.982356,0.005252,0.419926,0.000360,0.000308,-0.000029,0.000373,0.000295,-24.017329,0.000670,
2506,2953,5.32668443138119,6.70826415163877,0.0064030830318984,0.001197,-0.015918,0.011460,0.003757,-0.666998,315.841694,24.716219,0.999552,0.990329,0.003944,0.389586,0.000025,-0.000010,0.000028,0.000041,-0.000025,29.047777,0.000041,
2446,2668,4.07615738208802,0.499646475098288,-0.0115678401182322,0.000681,-0.015549,0.006230,0.001585,-0.644027,320.193515,23.548365,0.999511,0.988771,0.004151,0.449181,0.000057,0.000016,0.000010,0.000059,0.000014,13.256521,0.000078,
2491,2893,5.01062615270986,5.40365568489882,-0.0125368113159539,0.000954,-0.015729,0.010942,-0.004826,-0.645535,316.611994,24.451487,0.998873,0.986837,0.004398,0.407231,0.000024,0.000006,0.000019,0.000036,-0.000007,32.649717,0.000038,
2371,2353,2.50371449325563,-6.38473467865635,0.00690822969539795,-0.000018,-0.016015,0.000720,-0.009751,-0.682098,325.360947,22.604623,0.998987,0.984603,0.004977,0.502291,0.000215,0.000148,0.000029,0.000226,0.000137,20.753649,0.000367,
2431,2128,3.85989013546286,-11.3174008912489,0.0324661876759365,-0.000003,-0.017506,-0.000267,-0.006408,-0.771684,329.281699,21.651795,0.999504,0.978933,0.006056,0.365446,0.000571,0.000598,-0.000067,0.000652,0.000516,-50.797359,0.001171,
2386,2188,2.86322293734482,-9.99745031299966,0.0108349344625367,0.000042,-0.016789,-0.000165,-0.004263,-0.725786,328.075977,22.150426,0.998952,0.981496,0.005403,0.358738,0.000436,0.000422,-0.000046,0.000475,0.000382,-40.701677,0.000859,
2386,2383,2.82418464932634,-5.72666777558359,-0.000700130474967864,-0.000031,-0.016164,0.005663,-0.028226,-0.677001,324.802231,22.728328,0.998980,0.983361,0.005198,0.420784,0.000198,0.000133,0.000034,0.000213,0.000119,23.032093,0.000336,
2416,2533,3.4487128312414,-2.44722880950317,-0.00958823938435671,0.000256,-0.015937,0.006819,-0.019716,-0.674296,322.335525,23.152366,0.999359,0.988075,0.004442,0.392510,0.000109,0.000044,0.000030,0.000120,0.000032,21.253891,0.000161,
2476,2608,4.74109653978487,-0.807646703537443,-0.0158751742862933,0.000007,-0.015536,0.007208,-0.033598,-0.635655,321.164136,23.308048,0.999101,0.984374,0.004603,0.455733,0.000089,-0.000011,0.000020,0.000093,-0.000015,10.895138,0.000100,
2506,2728,5.3716483381368,1.81043536010213,-0.0111776358208431,0.000788,-0.015607,0.007240,0.001519,-0.631553,319.367033,23.773149,0.999538,0.988939,0.004036,0.455162,0.000019,0.000052,0.000012,0.000055,0.000015,72.259370,0.000074,
2506,2518,5.41453294080575,-2.77307158230856,-0.00937125203165579,-0.000042,-0.015940,0.006670,-0.034576,-0.661874,322.765506,22.884206,0.999382,0.985906,0.004806,0.449669,0.000127,0.000018,0.000036,0.000138,0.000007,16.739932,0.000163,
2476,2833,4.69665848283562,4.09626499404252,-0.00991768479724442,0.000797,-0.015162,0.006552,0.005303,-0.641686,317.585853,24.169592,0.999490,0.987857,0.004116,0.441205,0.000021,0.000023,0.000025,0.000047,-0.000002,46.071665,0.000053,
2431,2368,3.80995086690677,-6.05485291681801,0.00387250751481361,-0.000023,-0.015701,-0.001029,-0.003787,-0.688489,325.163199,22.540543,0.998975,0.982250,0.005149,0.398235,0.000217,0.000151,0.000024,0.000225,0.000143,18.237032,0.000370,
2401,2008,3.22791594883347,-13.9526111303443,0.0267740111407306,0.000409,-0.019411,-0.004789,0.028064,-0.875122,331.160997,21.349554,0.998353,0.965791,0.006952,0.347283,0.000773,0.000751,-0.000069,0.000832,0.000692,-40.416084,0.001527,
2461,2548,4.42811185353753,-2.1184221770955,-0.00300572335623883,0.000405,-0.015253,0.001318,0.007190,-0.657400,322.253267,23.182415,0.999682,0.991621,0.003771,0.353874,0.000118,0.000004,0.000022,0.000122,0.000000,10.571798,0.000141,
2431,2593,3.76448867291993,-1.1393621490167,0.00555814703659507,-0.000067,-0.015876,0.010397,-0.048011,-0.656772,321.481867,23.238218,0.999569,0.991006,0.003957,0.500241,0.000097,0.000015,0.000021,0.000102,0.000010,13.269366,0.000124,
2416,2083,3.54086340637535,-12.3036453388332,0.0247031225918022,0.000599,-0.018056,-0.000312,0.021113,-0.785072,329.946432,21.605164,0.998632,0.976247,0.006292,0.333444,0.000652,0.000662,-0.000053,0.000711,0.000604,-47.661803,0.001316,
2371,3238,2.33724549584808,12.885299463466,0.0356423302501412,0.001556,-0.015045,0.012079,0.022760,-0.616444,311.211862,25.146578,0.999705,0.993963,0.003108,0.451024,0.000029,0.000032,0.000017,0.000048,0.000013,47.801277,0.000064,
2401,2458,3.13705542990827,-4.0874439076905,-0.00179283109588368,0.000380,-0.016193,0.006910,-0.014129,-0.661207,323.605950,22.847786,0.999431,0.985950,0.004816,0.503344,0.000151,0.000077,0.000040,0.000168,0.000060,23.651404,0.000236,
2461,2773,4.38018695640413,2.7901752709767,-0.0275667657500662,0.000185,-0.015337,0.004614,-0.015214,-0.632763,318.361657,23.916233,0.999388,0.987440,0.004316,0.468882,0.000032,0.000060,0.000017,0.000068,0.000024,64.482691,0.000095,
2461,2263,4.48659531304724,-8.35364423391918,0.00658872853176717,0.000281,-0.016218,-0.001093,0.010090,-0.704893,326.959029,22.060185,0.999106,0.978911,0.005513,0.364393,0.000364,0.000280,-0.000048,0.000386,0.000258,-24.518818,0.000648,
2491,2908,5.00787094517696,5.73003699542401,-0.00569834234761402,0.000705,-0.015670,0.011020,-0.016505,-0.639174,316.412258,24.551223,0.999063,0.986410,0.004535,0.372292,0.000028,-0.000021,0.000025,0.000039,-0.000032,23.025747,0.000041,
2431,2143,3.85555199256524,-10.9863870888182,0.0168217253723242,0.000109,-0.017783,0.002111,-0.010183,-0.771925,328.904843,21.714707,0.999320,0.978761,0.005745,0.355892,0.000540,0.000558,-0.000072,0.000622,0.000476,-48.629354,0.001101,
2446,2428,4.12376662564812,-4.74149228877477,-0.00367586888955884,-0.000059,-0.016652,0.010237,-0.047762,-0.681730,324.110258,22.718746,0.999218,0.984903,0.004952,0.390935,0.000187,0.000109,0.000034,0.000200,0.000097,20.651283,0.000302,
2491,2683,5.05270020262328,0.828990336117855,-0.0203252444234749,0.000475,-0.015932,0.009313,-0.020664,-0.645161,319.958209,23.561316,0.999634,0.989993,0.003920,0.474240,0.000051,0.000011,0.000009,0.000053,0.000009,12.797460,0.000067,
2506,2533,5.41149995009721,-2.44466104013985,-0.00834479461173032,0.000053,-0.015773,0.007846,-0.034661,-0.647600,322.529676,23.008430,0.999582,0.987752,0.004387,0.401735,0.000127,0.000016,0.000042,0.000141,0.000002,18.641157,0.000164,
2506,2968,5.32364238827052,7.03499729859712,0.00412244734911837,0.001175,-0.015344,0.008288,0.015369,-0.639621,315.588356,24.778029,0.999466,0.989221,0.004240,0.415714,0.000030,0.000006,0.000031,0.000051,-0.000015,34.271217,0.000053,
2476,2623,4.73870390128929,-0.479959824223641,-0.0175377312743876,0.000592,-0.015514,0.004594,0.003171,-0.656388,320.942931,23.406146,0.999629,0.990156,0.003861,0.393899,0.000079,-0.000019,0.000017,0.000082,-0.000022,9.621431,0.000084,
2371,2368,2.49960539204807,-6.05523737942689,-0.000314725827422535,-0.000503,-0.016010,0.003163,-0.040639,-0.668945,325.026400,22.693320,0.998811,0.983410,0.005010,0.470140,0.000203,0.000143,0.000033,0.000217,0.000128,23.914310,0.000349,
2401,2218,3.18518353401835,-9.34023849213639,0.0167414597626703,-0.000284,-0.016494,-0.000544,-0.017743,-0.724057,327.641809,22.218318,0.999238,0.981313,0.005502,0.310609,0.000391,0.000352,-0.000031,0.000408,0.000335,-28.892751,0.000744,
2476,2848,4.69299960200446,4.42328981147308,-0.0164392014143573,0.001007,-0.015579,0.009834,0.002276,-0.650997,317.283139,24.228614,0.999360,0.987729,0.004162,0.429378,0.000019,0.000022,0.000019,0.000040,0.000001,47.836477,0.000047,
2356,3193,2.02009878791226,11.9083728292239,0.0362387712323766,0.001396,-0.014839,0.010500,0.021470,-0.612658,311.950994,24.991792,0.999563,0.991377,0.003720,0.419583,0.000026,0.000033,0.000015,0.000045,0.000014,50.943107,0.000062,
2506,2743,5.36682984346846,2.13923320641786,-0.0217364811005609,0.000363,-0.015815,0.011770,-0.035627,-0.632548,318.995919,23.920901,0.999739,0.989606,0.003883,0.367927,0.000005,0.000071,0.000008,0.000072,0.000004,83.189110,0.000085,
2416,2263,3.50408619984058,-8.35466543692898,0.0150047102968074,0.000119,-0.016279,0.001169,-0.005506,-0.715911,326.931309,22.253202,0.999137,0.982670,0.005182,0.360745,0.000336,0.000268,-0.000033,0.000350,0.000254,-22.152096,0.000606,
2431,2383,3.80653498534157,-5.7260169954782,-0.000897541821302639,0.000011,-0.015778,-0.000005,-0.006033,-0.683181,324.877814,22.606521,0.999504,0.986050,0.004737,0.389317,0.000210,0.000136,0.000026,0.000218,0.000128,17.299828,0.000350,
2386,2398,2.82140667564241,-5.40009800928714,0.00871632834025604,-0.000537,-0.016268,0.007277,-0.057231,-0.670160,324.609372,22.726273,0.999239,0.985159,0.004890,0.474304,0.000187,0.000130,0.000038,0.000206,0.000111,26.360632,0.000322,
2386,2203,2.85989876101038,-9.66766331666937,0.00162774437688995,0.000163,-0.016465,-0.002363,0.009290,-0.725240,327.770321,22.194626,0.998557,0.978474,0.005732,0.361094,0.000409,0.000389,-0.000035,0.000435,0.000362,-36.962282,0.000799,
2401,2023,3.22388994595838,-13.6221157778636,0.0202723392636699,-0.000126,-0.018766,-0.004100,0.001408,-0.868508,330.838287,21.409287,0.998488,0.970499,0.006596,0.343767,0.000751,0.000725,-0.000068,0.000807,0.000669,-39.687158,0.001478,
2461,2563,4.42352692168243,-1.79002167479243,-0.0188498336443672,0.000471,-0.015328,0.005139,-0.004147,-0.638903,321.865382,23.161662,0.999337,0.988564,0.004373,0.448966,0.000114,0.000011,0.000020,0.000118,0.000007,10.677453,0.000140,
2461,2788,4.37824406056869,3.11573479196848,-0.013594740347628,0.000341,-0.015374,0.007408,-0.018594,-0.628597,318.230956,23.967561,0.999315,0.985926,0.004439,0.475789,0.000027,0.000053,0.000010,0.000056,0.000023,70.719513,0.000082,
2506,2548,5.40984323311391,-2.1181823701488,0.00713233113049228,0.000202,-0.015879,0.007962,-0.028335,-0.658565,322.421899,23.113511,0.999778,0.990071,0.004005,0.347328,0.000116,-0.000034,0.000031,0.000122,-0.000040,11.383694,0.000125,
2431,2608,3.76062262940075,-0.809652488046432,-0.0130377605599392,0.000321,-0.015494,0.007502,-0.019343,-0.648331,321.110287,23.340529,0.999360,0.987556,0.004422,0.457607,0.000090,0.000006,0.000017,0.000094,0.000003,10.842286,0.000110,
2446,2443,4.12182490554707,-4.41496603230647,0.0064377092546124,-0.000017,-0.016205,0.007985,-0.037271,-0.670178,323.962398,22.728116,0.998547,0.982036,0.005266,0.446430,0.000182,0.000083,0.000035,0.000193,0.000072,17.798318,0.000274,
2416,2548,3.44519108896989,-2.11944299131996,-0.0148043893019008,0.000075,-0.015732,0.006514,-0.026829,-0.665689,322.041119,23.173464,0.999347,0.987798,0.004433,0.428832,0.000099,0.000027,0.000028,0.000109,0.000017,19.137908,0.000136,
2506,2758,5.36346148097392,2.46517929153457,-0.0241051654547277,0.000349,-0.015955,0.012437,-0.038897,-0.634201,318.728639,23.877627,0.999716,0.990494,0.003771,0.470929,0.000015,0.000062,0.000009,0.000063,0.000013,79.832199,0.000082,
2476,2638,4.73537669045187,-0.153332150115112,-0.0185029546829583,0.000455,-0.015656,0.005309,-0.005864,-0.646112,320.681949,23.386971,0.999689,0.990210,0.003776,0.480733,0.000070,-0.000004,0.000016,0.000074,-0.000007,11.864077,0.000081,
2491,2923,5.00361960744277,6.05746305675777,-0.0196327998835955,0.000646,-0.015494,0.010385,-0.016667,-0.625649,316.049564,24.595283,0.999412,0.986800,0.004289,0.400481,0.000025,-0.000018,0.000027,0.000038,-0.000031,25.736126,0.000040,
2431,2158,3.85398167480995,-10.6593671512385,0.026067716928253,0.000361,-0.017177,-0.002735,0.019438,-0.768813,328.770191,21.682706,0.999314,0.978319,0.005683,0.443290,0.000513,0.000494,-0.000079,0.000583,0.000424,-41.535831,0.001011,
2491,2698,5.04936254418572,1.15719285086043,-0.0236728053100137,0.000276,-0.015530,0.006618,-0.019310,-0.648119,319.686596,23.699668,0.999680,0.989820,0.003951,0.392049,0.000047,0.000031,0.000014,0.000055,0.000023,29.388458,0.000081,
2371,3253,2.33388892597497,13.2103665642585,0.0308554911025567,0.001595,-0.015374,0.013924,0.017866,-0.625776,310.920755,25.152339,0.999681,0.993172,0.003243,0.475526,0.000028,0.000034,0.000017,0.000048,0.000013,50.081825,0.000064,
2506,2983,5.32014575030642,7.36092555084839,0.00234649741389603,0.000974,-0.015584,0.008861,0.003845,-0.633455,315.316477,24.794928,0.999264,0.987612,0.004383,0.465503,0.000026,0.000015,0.000030,0.000051,-0.000011,39.757688,0.000054,
2446,2683,4.07243230245089,0.827512138777443,-0.016860591282807,0.000326,-0.015413,0.005421,-0.011650,-0.644839,319.891434,23.631719,0.999272,0.987812,0.004280,0.418015,0.000052,0.000030,0.000012,0.000058,0.000025,24.513443,0.000085,
2476,2863,4.68992798947134,4.74963286570991,-0.0117779537981164,0.000532,-0.015231,0.009080,-0.016489,-0.628430,317.058282,24.281169,0.999208,0.985813,0.004393,0.455569,0.000022,0.000017,0.000016,0.000036,0.000004,40.832528,0.000043,
2416,2098,3.53703119231259,-11.9743399668126,0.0176345966477243,0.000190,-0.017902,-0.001440,0.006544,-0.777191,329.631206,21.578882,0.999041,0.976682,0.006108,0.418850,0.000619,0.000634,-0.000059,0.000686,0.000567,-48.576990,0.001255,
2371,2383,2.49680471295004,-5.726481573308,0.000264540924547418,-0.000485,-0.015627,0.003109,-0.039475,-0.648600,324.789091,22.788077,0.999133,0.984065,0.004980,0.438510,0.000196,0.000136,0.000037,0.000213,0.000119,25.351609,0.000337,
2401,2473,3.13433966288703,-3.75975165785557,0.0033947288719105,0.000096,-0.015977,0.005929,-0.023539,-0.668729,323.396537,22.945527,0.999370,0.986960,0.004621,0.444515,0.000137,0.000063,0.000037,0.000153,0.000047,22.605866,0.000209,
2461,2803,4.37434668184747,3.44400876037979,-0.0206923261820862,0.000371,-0.015549,0.011160,-0.031410,-0.626726,317.913220,24.111440,0.999391,0.986691,0.004388,0.388134,0.000021,0.000044,0.000011,0.000049,0.000016,67.735835,0.000068,
2431,2398,3.80343712300899,-5.39884941540944,0.00114647910947951,0.000149,-0.016337,0.005300,-0.019467,-0.682635,324.638766,22.595412,0.999690,0.987074,0.004666,0.452554,0.000202,0.000129,0.000028,0.000212,0.000119,18.824006,0.000335,
2461,2278,4.48388336121348,-8.02554439993315,0.0117259275023116,0.000144,-0.016083,-0.001497,0.005423,-0.700868,326.754581,22.122406,0.999386,0.979834,0.005439,0.362762,0.000334,0.000257,-0.000032,0.000346,0.000245,-19.901732,0.000594,
2416,2278,3.50046326506594,-8.02598427773106,0.00788381412183981,-0.000046,-0.016523,0.000384,-0.010301,-0.725739,326.624680,22.257304,0.999214,0.983412,0.005018,0.397056,0.000311,0.000252,-0.000021,0.000318,0.000246,-17.698221,0.000565,
2401,2038,3.22091446285935,-13.2927072324692,0.0224240716890449,-0.000225,-0.018320,-0.002460,-0.008912,-0.802802,330.603937,21.414422,0.998547,0.972430,0.006378,0.453551,0.000722,0.000682,-0.000068,0.000773,0.000631,-36.922375,0.001406,
2386,2413,2.81920380218655,-5.07224811499551,0.00771857473699811,-0.000044,-0.015927,0.003805,-0.022062,-0.680981,324.393392,22.763584,0.999305,0.984739,0.004860,0.471008,0.000172,0.000132,0.000043,0.000199,0.000105,32.244193,0.000309,
2461,2578,4.41952176338974,-1.46212811787692,-0.0276185679919649,0.000476,-0.015455,0.008265,-0.015737,-0.634919,321.536483,23.177681,0.999533,0.991519,0.004118,0.492647,0.000105,0.000010,0.000018,0.000109,0.000007,10.599417,0.000130,
2506,2563,5.40734486234821,-1.7923281007897,0.0079895150148559,0.000940,-0.016055,0.010456,-0.004208,-0.651653,322.210184,23.017225,0.999783,0.990838,0.003934,0.512391,0.000107,-0.000018,0.000018,0.000110,-0.000020,7.879703,0.000117,
2506,2773,5.36111754510778,2.79172984435166,-0.0242858618523769,0.000647,-0.015605,0.006849,-0.003512,-0.654321,318.518109,23.930183,0.999676,0.990957,0.003789,0.459255,0.000014,0.000050,0.000010,0.000052,0.000011,75.386307,0.000068,
2401,2233,3.1817314777184,-9.01215353618807,0.0176154850305466,-0.000555,-0.017014,0.003636,-0.045460,-0.717430,327.379257,22.216773,0.999252,0.982773,0.005347,0.366922,0.000371,0.000327,-0.000023,0.000381,0.000318,-22.853286,0.000699,
2491,2938,5.00140332019446,6.38343763555617,-0.00977246588416847,0.000912,-0.015576,0.013212,-0.015322,-0.613846,315.888208,24.681445,0.999505,0.989411,0.003871,0.384096,0.000018,-0.000020,0.000020,0.000026,-0.000028,23.157689,0.000032,
2476,2653,4.73256933639604,0.173775582507112,-0.0151457524785314,0.000573,-0.015576,0.007132,-0.007356,-0.646998,320.464332,23.464041,0.999649,0.990182,0.003818,0.459853,0.000060,0.000004,0.000014,0.000063,0.000001,12.853255,0.000074,
2386,2218,2.85774479454168,-9.33990923321691,0.0102457352718375,0.000162,-0.016488,-0.003110,0.011893,-0.738704,327.602842,22.259030,0.998825,0.979331,0.005772,0.328663,0.000387,0.000350,-0.000023,0.000398,0.000339,-25.391867,0.000738,
2371,3268,2.3302434928045,13.5360095845173,0.0207191907883839,0.001469,-0.015498,0.011989,0.018887,-0.638725,310.590359,25.189788,0.999731,0.993781,0.003169,0.464716,0.000029,0.000034,0.000016,0.000048,0.000015,49.820324,0.000065,
2356,3208,2.01770143076424,12.2329114063692,0.0398075094224168,0.001554,-0.014972,0.010199,0.029800,-0.615433,311.743641,24.977994,0.999563,0.991944,0.003596,0.468041,0.000028,0.000030,0.000017,0.000046,0.000013,46.489764,0.000062,
2476,2878,4.68635588584832,5.07689390490243,-0.0170647044772068,0.000735,-0.015517,0.012474,-0.020170,-0.634157,316.764921,24.377161,0.998793,0.986217,0.004632,0.410329,0.000020,0.000017,0.000021,0.000039,-0.000003,43.076520,0.000044,
2491,2713,5.04605451511764,1.48369688575106,-0.026802386758277,0.000345,-0.015482,0.007099,-0.017949,-0.637832,319.417549,23.675503,0.999657,0.989526,0.004176,0.485852,0.000036,0.000041,0.000016,0.000055,0.000022,49.410171,0.000079,
2446,2458,4.11868913710411,-4.08603143897955,0.000394863332019213,-0.000146,-0.015239,0.001968,-0.020402,-0.659089,323.684984,22.812047,0.999224,0.985004,0.004820,0.427462,0.000172,0.000065,0.000036,0.000183,0.000054,17.055490,0.000248,
2431,2623,3.75713814159437,-0.48231398305407,-0.0144114746780701,0.000035,-0.015855,0.008863,-0.037647,-0.654525,320.836534,23.394117,0.999451,0.988581,0.004197,0.448557,0.000081,0.000004,0.000016,0.000084,0.000001,11.282901,0.000098,
2506,2998,5.31699459283851,7.6869895168551,0.00748266436715994,0.000675,-0.015712,0.011122,-0.018701,-0.642335,315.091352,24.890639,0.999421,0.989206,0.004042,0.421066,0.000026,0.000021,0.000031,0.000054,-0.000007,42.346864,0.000059,
2416,2563,3.44235051260195,-1.79213316053086,-0.0149664020072464,0.000154,-0.015696,0.006022,-0.021335,-0.654078,321.801618,23.197847,0.998992,0.983935,0.004767,0.464684,0.000092,0.000030,0.000028,0.000103,0.000019,21.189735,0.000131,
2431,2173,3.85041038637204,-10.3293864155546,0.0248155625696427,0.000171,-0.017504,0.000852,-0.002586,-0.759517,328.494911,21.807840,0.999310,0.982165,0.005131,0.380515,0.000484,0.000463,-0.000078,0.000552,0.000394,-41.182244,0.000951,
2446,2698,4.06845709930161,1.15501267591977,-0.025087475303053,0.000308,-0.015814,0.008882,-0.025515,-0.646052,319.564317,23.663302,0.999612,0.989844,0.004002,0.437785,0.000050,0.000044,0.000016,0.000063,0.000031,40.022736,0.000095,
2431,2413,3.80022248412894,-5.07104179391746,0.00386710160148596,-0.000006,-0.016354,0.009073,-0.040461,-0.645992,324.397195,22.618001,0.999562,0.986813,0.004726,0.518226,0.000188,0.000127,0.000032,0.000202,0.000114,23.053853,0.000320,
2461,2293,4.48040350182275,-7.69839331497072,0.0135371615385793,-0.000066,-0.016480,0.003289,-0.022307,-0.709432,326.499833,22.081512,0.999274,0.979499,0.005463,0.451410,0.000312,0.000230,-0.000024,0.000319,0.000224,-15.165307,0.000545,
2416,2293,3.49711066538542,-7.6974555996008,0.00696768561260797,-0.000244,-0.016781,0.002001,-0.025394,-0.737326,326.359325,22.317796,0.998875,0.979722,0.005571,0.374786,0.000290,0.000234,-0.000014,0.000293,0.000231,-13.580463,0.000525,
2416,2113,3.53552371752379,-11.6459891194435,0.0266657505471812,0.000723,-0.017288,-0.003672,0.039336,-0.760704,329.497434,21.638303,0.999078,0.977363,0.005948,0.426211,0.000587,0.000610,-0.000061,0.000661,0.000536,-50.324010,0.001200,
2461,2593,4.41761228077172,-1.13617239049873,-0.0139921014946367,0.000397,-0.015715,0.007414,-0.016268,-0.655665,321.406560,23.240500,0.999214,0.987878,0.004419,0.463738,0.000100,0.000002,0.000022,0.000105,-0.000003,12.124006,0.000120,
2506,2788,5.3581497730932,3.11850283750323,-0.0223944353568868,0.000540,-0.015623,0.005882,-0.004701,-0.663932,318.287969,24.013392,0.999549,0.989879,0.004053,0.427465,0.000009,0.000045,0.000002,0.000045,0.000009,87.218032,0.000058,
2461,2818,4.372058165103,3.76932562188853,-0.014738385523458,0.000572,-0.015732,0.010689,-0.020487,-0.633165,317.729869,24.096336,0.999317,0.986538,0.004517,0.451017,0.000022,0.000031,0.000015,0.000042,0.000011,52.929469,0.000056,
2401,2488,3.13105062631964,-3.43214539920589,0.00594889892204264,-0.000048,-0.016718,0.011263,-0.049718,-0.677932,323.148382,23.017208,0.999408,0.987830,0.004419,0.410459,0.000130,0.000058,0.000037,0.000146,0.000042,23.026584,0.000198,
2506,2578,5.40241468701016,-1.46161598361788,-0.0106462348630316,0.000360,-0.015486,0.006266,-0.014346,-0.632815,321.798717,23.189415,0.999581,0.987155,0.004576,0.421623,0.000095,-0.000025,0.000014,0.000096,-0.000027,6.661745,0.000100,
2491,2953,4.99914235931163,6.70830870230602,-0.00567689452338982,0.001148,-0.015896,0.010514,0.005659,-0.658136,315.699075,24.684519,0.999378,0.989020,0.004033,0.395039,0.000021,-0.000011,0.000024,0.000034,-0.000024,27.885371,0.000035,
2401,2053,3.21785384811659,-12.9614696447933,0.0187974694520676,0.000244,-0.018903,0.001336,-0.001360,-0.806736,330.338770,21.596613,0.998814,0.976149,0.006160,0.316451,0.000697,0.000674,-0.000061,0.000747,0.000624,-39.701097,0.001373,
2476,2668,4.72906951459339,0.500147055215415,-0.0179668893738381,0.000475,-0.015861,0.008545,-0.017379,-0.660829,320.186947,23.439245,0.999481,0.987809,0.004182,0.528088,0.000054,0.000010,0.000011,0.000057,0.000007,13.331178,0.000070,
2401,2248,3.17851478209457,-8.68353887010017,0.00994301673568998,-0.000304,-0.016431,0.002960,-0.031297,-0.682969,327.087111,22.153069,0.999132,0.983027,0.005296,0.513195,0.000351,0.000301,-0.000024,0.000361,0.000291,-22.196289,0.000653,
2386,2428,2.81646170610322,-4.74319939586017,0.00403525899520218,0.000170,-0.015333,0.000870,-0.001487,-0.650787,324.139539,22.849581,0.999338,0.987564,0.004622,0.460272,0.000165,0.000118,0.000042,0.000189,0.000094,30.470729,0.000288,
2476,2893,4.68390921883261,5.40320200094399,-0.0165601089721576,0.001094,-0.015609,0.010050,0.005492,-0.642250,316.549840,24.434817,0.998825,0.986345,0.004580,0.400896,0.000022,0.000004,0.000026,0.000040,-0.000015,35.106843,0.000041,
2371,3283,2.3270741708399,13.8614609233596,0.0137430674754455,0.001540,-0.015305,0.009645,0.030551,-0.647252,310.297069,25.227414,0.999671,0.993079,0.003324,0.458010,0.000029,0.000038,0.000009,0.000043,0.000024,58.002130,0.000068,
2506,3013,5.31460469326096,8.01307422765641,0.00803419226775759,0.001119,-0.015462,0.008595,0.011559,-0.644957,314.880677,24.954479,0.999427,0.990486,0.003798,0.415284,0.000026,0.000029,0.000020,0.000048,0.000007,46.970587,0.000060,
2356,3223,2.01444260163333,12.5587101226409,0.0370837351069326,0.001384,-0.014937,0.010480,0.021031,-0.605845,311.465692,25.035473,0.999577,0.991949,0.003488,0.457782,0.000030,0.000034,0.000016,0.000048,0.000016,49.136370,0.000067,
2431,2188,3.84801115720837,-10.0000844425543,0.0302646385712819,0.000157,-0.016978,-0.001075,0.004096,-0.749179,328.304334,21.945942,0.999633,0.987345,0.004492,0.305075,0.000459,0.000445,-0.000072,0.000524,0.000380,-42.200418,0.000908,
2431,2638,3.75400459190962,-0.155302489155083,-0.0146290791756769,-0.000090,-0.015910,0.009087,-0.044221,-0.661055,320.584264,23.432616,0.999590,0.990236,0.004013,0.454045,0.000073,0.000010,0.000013,0.000075,0.000008,10.963632,0.000092,
2491,2728,5.04331516001519,1.81137666446412,-0.0270823645853966,0.000647,-0.015434,0.006328,-0.001099,-0.638363,319.187188,23.798055,0.999617,0.991670,0.003617,0.421918,0.000025,0.000056,0.000010,0.000059,0.000022,73.395700,0.000084,
2446,2473,4.11596355685012,-3.75879379471858,0.00959850342491109,-0.000021,-0.016087,0.009271,-0.042187,-0.670055,323.496787,22.908990,0.999537,0.986969,0.004501,0.372709,0.000153,0.000056,0.000029,0.000161,0.000048,15.516580,0.000219,
2506,2803,5.35473037301336,3.44574787446246,-0.0215794799233322,0.000612,-0.015637,0.011272,-0.022208,-0.639508,318.031964,24.101970,0.999158,0.985694,0.004923,0.424282,0.000008,0.000045,0.000001,0.000045,0.000008,88.868926,0.000058,
2386,2233,2.85468075764134,-9.0128308252696,0.029032743270534,-0.000508,-0.017672,0.009347,-0.063806,-0.714465,327.441611,22.333402,0.999197,0.982487,0.005562,0.323900,0.000367,0.000321,-0.000016,0.000372,0.000316,-17.664129,0.000689,
2416,2578,3.4394260253543,-1.46360790401876,-0.0176298583189123,0.000347,-0.015843,0.005361,-0.010135,-0.656921,321.546315,23.331111,0.999378,0.988757,0.004215,0.377142,0.000088,0.000032,0.000029,0.000100,0.000020,22.825714,0.000128,
2416,2308,3.49492339584567,-7.36952284800093,0.0121894969279879,-0.000077,-0.016153,-0.000125,-0.009719,-0.699624,326.175839,22.340942,0.999216,0.984703,0.004783,0.439040,0.000274,0.000205,-0.000005,0.000274,0.000205,-4.267206,0.000481,
2461,2833,4.36867779265107,4.09790598270147,-0.0256430222493691,0.000838,-0.015162,0.007240,0.004903,-0.627367,317.418231,24.245550,0.999561,0.989814,0.003908,0.362179,0.000024,0.000026,0.000019,0.000044,0.000006,46.041672,0.000055,
2446,2713,4.06513500771775,1.48204596965202,-0.0269881490237935,0.000188,-0.015804,0.009456,-0.033151,-0.636335,319.296364,23.698004,0.999734,0.991690,0.003721,0.465409,0.000044,0.000053,0.000015,0.000064,0.000033,53.848225,0.000098,
2491,2968,4.996816221908,7.03402283687088,-0.00117077598821425,0.001104,-0.015412,0.005666,0.022502,-0.645155,315.508426,24.714462,0.999204,0.986927,0.004473,0.436387,0.000027,0.000001,0.000027,0.000044,-0.000017,32.445218,0.000044,
2461,2608,4.41475936650399,-0.809505729919408,-0.00738933459876989,0.000205,-0.016288,0.009552,-0.033326,-0.654921,321.200929,23.289597,0.999069,0.984526,0.004766,0.470461,0.000095,-0.000009,0.000018,0.000098,-0.000012,9.490506,0.000107,
2401,2503,3.1275369970106,-3.10225353026464,-0.00947575984758942,0.000197,-0.015828,0.006315,-0.020220,-0.664976,322.804783,23.117339,0.999511,0.988652,0.004270,0.370374,0.000120,0.000046,0.000036,0.000134,0.000031,22.194046,0.000176,
2506,2593,5.39879719528789,-1.13255628719885,-0.0211704708833622,0.000590,-0.015523,0.004335,0.003634,-0.645687,321.484053,23.319224,0.999847,0.994069,0.003524,0.340954,0.000087,-0.000026,0.000021,0.000090,-0.000030,10.257989,0.000092,
2461,2308,4.47719108468801,-7.36768773246621,0.00459588478344131,0.000372,-0.016377,0.001621,0.004048,-0.702304,326.207775,22.247445,0.998937,0.976367,0.005850,0.349531,0.000296,0.000202,-0.000016,0.000299,0.000199,-9.397924,0.000502,
2476,2683,4.72560549384921,0.828490118630683,-0.0212820021126845,0.000355,-0.015884,0.008639,-0.023192,-0.652549,319.908422,23.574397,0.999612,0.988995,0.004045,0.458372,0.000046,0.000022,0.000013,0.000052,0.000017,23.938254,0.000071,
2431,2428,3.7969371725151,-4.74152998964032,-0.000378365678102455,-0.000207,-0.016141,0.006031,-0.038402,-0.678574,324.120033,22.804717,0.999275,0.985508,0.004956,0.350332,0.000180,0.000114,0.000032,0.000193,0.000101,21.882524,0.000299,
2506,3028,5.31199935189264,8.33860297479533,0.0122829498495207,0.001250,-0.015247,0.008645,0.017432,-0.643144,314.676696,24.991283,0.999551,0.992372,0.003577,0.440471,0.000026,0.000046,0.000019,0.000057,0.000015,58.799887,0.000076,
2416,2128,3.53078090582925,-11.314571793438,0.0129345858165948,0.000259,-0.017689,-0.001038,0.008360,-0.771474,329.109214,21.763145,0.999284,0.978672,0.005724,0.342122,0.000560,0.000595,-0.000058,0.000638,0.000517,-53.352009,0.001157,
2371,3298,2.32358340833447,14.1874626532747,0.00546071129150505,0.001749,-0.015116,0.011865,0.032394,-0.619178,309.982424,25.277009,0.999629,0.993296,0.003386,0.476169,0.000025,0.000034,0.000003,0.000034,0.000024,73.910529,0.000059,
2476,2908,4.68139790155722,5.72861808740675,-0.0108226109395559,0.001091,-0.015933,0.009330,0.007936,-0.667777,316.355738,24.469718,0.998886,0.984472,0.004795,0.396407,0.000026,-0.000018,0.000032,0.000042,-0.000035,27.571186,0.000045,
2506,2818,5.35211038454721,3.77245948384576,-0.0189324182536552,0.000826,-0.015655,0.010754,-0.010356,-0.633362,317.821020,24.177900,0.999397,0.988262,0.004330,0.415580,0.000011,0.000035,0.000018,0.000045,0.000001,61.537345,0.000052,
2401,2068,3.21414945393076,-12.6321424541928,0.00766899235640039,0.000224,-0.018686,-0.000085,0.002913,-0.812802,330.009013,21.529525,0.999253,0.979103,0.006025,0.426617,0.000669,0.000661,-0.000057,0.000722,0.000608,-43.047502,0.001332,
2431,2203,3.84427634424492,-9.67221751314152,0.0259448693230979,-0.000006,-0.017116,0.002075,-0.015013,-0.750481,328.007486,21.866940,0.999517,0.984682,0.004870,0.435567,0.000433,0.000402,-0.000056,0.000475,0.000360,-37.104017,0.000838,
2356,3238,2.01140559245679,12.8838788405245,0.0353595046276496,0.001403,-0.014988,0.011350,0.018760,-0.615870,311.202952,25.064193,0.999596,0.992377,0.003389,0.456392,0.000030,0.000029,0.000013,0.000043,0.000017,43.280938,0.000061,
2386,2443,2.81247184631311,-4.41447809404267,-0.00431369573516349,0.000100,-0.015524,0.005540,-0.021511,-0.644190,323.806396,22.891171,0.999065,0.988279,0.004690,0.470191,0.000158,0.000100,0.000043,0.000180,0.000077,27.953344,0.000264,
2491,2743,5.0398316861223,2.1380722383131,-0.0288158723909078,0.000511,-0.015712,0.007803,-0.013130,-0.641751,318.916168,23.826097,0.999704,0.991521,0.003654,0.449609,0.000017,0.000071,0.000007,0.000072,0.000016,82.527783,0.000094,
2461,2623,4.41135284481581,-0.479851408652017,-0.0208925769710504,0.000506,-0.015166,0.004217,0.000999,-0.641359,320.877295,23.432381,0.999466,0.988127,0.004181,0.396466,0.000085,-0.000013,0.000016,0.000088,-0.000016,8.995566,0.000093,
2401,2263,3.17514266849602,-8.35300769171451,0.00231835475858588,0.000034,-0.016966,0.005048,-0.023604,-0.697120,326.787964,22.319953,0.999295,0.985843,0.004745,0.380151,0.000327,0.000264,-0.000027,0.000337,0.000254,-20.363232,0.000593,
2446,2488,4.11309941357735,-3.43191607315044,0.00668589150137677,-0.000014,-0.015647,0.004858,-0.025276,-0.668812,323.246457,22.853309,0.999448,0.985610,0.004600,0.483071,0.000146,0.000050,0.000024,0.000152,0.000044,13.103669,0.000205,
2446,2728,4.06283817906406,1.80774068972912,-0.0219733794555168,0.000471,-0.015971,0.009404,-0.020062,-0.664596,319.107735,23.707932,0.999660,0.991492,0.003717,0.479343,0.000035,0.000062,0.000014,0.000068,0.000029,66.732653,0.000100,
2431,2653,3.75201770299116,0.171296249254809,-0.00844983116678577,0.000413,-0.015946,0.009297,-0.021918,-0.649248,320.414345,23.473083,0.999579,0.989661,0.004102,0.475621,0.000064,0.000013,0.000010,0.000066,0.000011,10.448987,0.000083,
2506,3043,5.30866184456216,8.66534364225285,0.014223472306071,0.001159,-0.015581,0.012322,-0.001062,-0.635777,314.428206,25.122691,0.999715,0.992597,0.003696,0.376457,0.000027,0.000040,0.000032,0.000067,0.000001,50.640643,0.000078,
2401,2518,3.12477066058073,-2.77600047149999,-0.0107494972396012,0.000215,-0.015431,0.003472,-0.008949,-0.647506,322.562631,23.013955,0.999469,0.988032,0.004419,0.538012,0.000106,0.000043,0.000034,0.000121,0.000029,23.544620,0.000159,
2491,2983,4.99327287253582,7.36101217265176,-0.00155719004368393,0.000812,-0.015344,0.007371,0.002557,-0.636736,315.239210,24.836657,0.999123,0.987339,0.004346,0.380785,0.000026,0.000007,0.000026,0.000045,-0.000012,34.825204,0.000046,
2476,2698,4.72279148524212,1.15563413799862,-0.0162186355603922,0.000288,-0.015764,0.010016,-0.031433,-0.636001,319.697942,23.664695,0.999660,0.988452,0.004220,0.441539,0.000041,0.000038,0.000018,0.000058,0.000021,42.922096,0.000082,
2386,2248,2.85052320457298,-8.68204981843706,0.00772187174146666,-0.000348,-0.016865,0.006122,-0.044654,-0.686282,327.040051,22.333093,0.999186,0.983072,0.005324,0.399001,0.000347,0.000291,-0.000017,0.000351,0.000286,-15.920307,0.000639,
2416,2593,3.43570772355263,-1.13744466703,-0.0145409164239823,-0.000339,-0.016267,0.009582,-0.057225,-0.679754,321.281866,23.322795,0.999511,0.990941,0.003937,0.411167,0.000086,0.000022,0.000028,0.000097,0.000011,20.569201,0.000119,
2506,2608,5.39571785625168,-0.806485667644274,-0.0177750299816353,0.000318,-0.015318,0.004302,-0.008630,-0.644745,321.256655,23.286748,0.999847,0.993657,0.003632,0.436008,0.000081,-0.000036,0.000013,0.000082,-0.000038,6.467538,0.000083,
2416,2323,3.491495368432,-7.04040724777298,0.0114275243931274,-0.000462,-0.015849,0.000242,-0.028551,-0.674012,325.907370,22.429609,0.999062,0.982343,0.005047,0.426010,0.000252,0.000177,0.000004,0.000252,0.000177,3.144537,0.000431,
2386,1993,2.90263829437017,-14.2832481319303,0.0346105915045314,-0.000267,-0.020039,-0.003338,-0.008399,-0.884239,331.416317,21.367626,0.998642,0.951195,0.008018,0.377568,0.000788,0.000752,-0.000061,0.000833,0.000706,-36.652524,0.001541,
2431,2443,3.79393243302981,-4.41341145194663,-0.00624249297527513,0.000089,-0.015758,0.004213,-0.017972,-0.660683,323.848200,22.803704,0.999171,0.984877,0.004916,0.420928,0.000174,0.000089,0.000031,0.000184,0.000079,18.213589,0.000270,
2461,2323,4.47383780389402,-7.04012423197877,0.00348230542385863,0.000206,-0.016246,0.002475,-0.006717,-0.705645,325.945269,22.220496,0.998997,0.977976,0.005618,0.429596,0.000274,0.000180,-0.000006,0.000274,0.000179,-3.872276,0.000457,
2401,2083,3.21250459509248,-12.3035302212001,0.022645328176111,0.000265,-0.018261,-0.000658,0.007050,-0.799886,329.895937,21.672960,0.999012,0.975627,0.006155,0.344388,0.000641,0.000651,-0.000053,0.000700,0.000592,-47.443273,0.001293,
2416,2143,3.5272787327612,-10.9857408829219,0.00990361295708908,-0.000128,-0.017361,-0.001940,-0.005945,-0.763307,328.827726,21.755161,0.999301,0.979450,0.005342,0.409161,0.000533,0.000552,-0.000061,0.000604,0.000480,-49.398522,0.001087,
2506,2833,5.34960726283513,4.09823159718228,-0.012439414468588,0.000661,-0.015396,0.008305,-0.008379,-0.638874,317.632810,24.212117,0.999545,0.989346,0.004097,0.436714,0.000018,0.000032,0.000030,0.000056,-0.000006,51.589452,0.000061,
2356,3253,2.00846072907764,13.2085589956378,0.036916484845392,0.001409,-0.015395,0.014145,0.009096,-0.621180,310.960448,25.065436,0.999641,0.992418,0.003371,0.487067,0.000030,0.000026,0.000014,0.000042,0.000014,40.749036,0.000058,
2491,2758,5.03713703567115,2.46354937227755,-0.0208849258123109,0.000440,-0.015998,0.010407,-0.026505,-0.655871,318.725181,23.833885,0.999566,0.988801,0.004009,0.486330,0.000026,0.000066,0.000010,0.000068,0.000024,76.459608,0.000095,
2506,3058,5.30608906637001,8.98975928866926,0.0204993524401402,0.001183,-0.015714,0.012801,-0.001872,-0.639898,314.234962,25.083084,0.999729,0.992123,0.003860,0.472246,0.000029,0.000042,0.000037,0.000073,-0.000001,49.948945,0.000084,
2386,2458,2.80994991292907,-4.08583061300361,-0.00729206671508109,0.000822,-0.015597,0.006960,0.006511,-0.640134,323.566004,22.984337,0.999241,0.987137,0.004700,0.425877,0.000148,0.000082,0.000046,0.000172,0.000058,27.356209,0.000239,
2431,2218,3.84198896259132,-9.34358562079299,0.0276625254808209,0.000376,-0.016806,-0.000008,0.010263,-0.741429,327.804724,21.915946,0.999560,0.984883,0.004844,0.448133,0.000408,0.000359,-0.000044,0.000434,0.000334,-30.452027,0.000770,
2446,2503,4.10954619204489,-3.10382370014812,0.00561689268187138,-0.000236,-0.015970,0.007758,-0.046342,-0.645638,322.972605,22.909230,0.999563,0.987820,0.004280,0.503661,0.000140,0.000036,0.000024,0.000145,0.000031,12.276593,0.000188,
2401,2278,3.17035409666941,-8.02247659370397,-0.0095602218873978,-0.000719,-0.016990,0.007070,-0.065416,-0.715240,326.403810,22.454260,0.999746,0.994037,0.003453,0.276024,0.000304,0.000251,-0.000016,0.000309,0.000246,-15.922008,0.000556,
2446,2743,4.06065114806164,2.13409707646721,-0.0133321139428517,0.000514,-0.015987,0.008633,-0.015226,-0.673337,318.940614,23.791884,0.999532,0.990364,0.003926,0.438889,0.000033,0.000066,0.000014,0.000071,0.000027,69.881125,0.000102,
2431,2668,3.74775703474036,0.501060100093817,-0.0264376209185571,0.000229,-0.015630,0.004792,-0.013609,-0.664431,320.027096,23.634127,0.999561,0.989462,0.004241,0.350088,0.000060,0.000020,0.000009,0.000062,0.000019,12.062633,0.000084,
2386,2008,2.89930463960524,-13.9522529053061,0.0302289389589987,-0.000076,-0.020227,0.000193,-0.012353,-0.870737,331.133777,21.483294,0.998591,0.969864,0.006512,0.322609,0.000772,0.000750,-0.000058,0.000820,0.000702,-39.610581,0.001523,
2401,2533,3.12196173232221,-2.44718789844778,-0.00730966166457847,0.000157,-0.015205,0.004665,-0.015810,-0.628249,322.340162,23.190675,0.999416,0.988613,0.004446,0.426986,0.000097,0.000044,0.000032,0.000113,0.000029,25.247008,0.000149,
2416,2608,3.43307928525737,-0.809191235287905,-0.0201571061208483,0.000113,-0.015535,0.005599,-0.021624,-0.646366,321.026162,23.379284,0.999408,0.988859,0.004191,0.436480,0.000079,0.000014,0.000026,0.000087,0.000005,19.199332,0.000104,
2461,2338,4.47072405131057,-6.71139973748976,0.00724686204296177,0.000096,-0.016454,0.005803,-0.024338,-0.676654,325.715643,22.320798,0.998762,0.976754,0.005735,0.414779,0.000264,0.000169,0.000007,0.000264,0.000169,4.385219,0.000436,
2416,2338,3.48819737658522,-6.7110269553445,0.00657706000083635,-0.000489,-0.015482,-0.000645,-0.026389,-0.666063,325.625760,22.525048,0.998886,0.981878,0.005088,0.388335,0.000241,0.000168,0.000016,0.000245,0.000165,12.015621,0.000412,
2431,2458,3.79105493978543,-4.08575737710512,-0.00659315917687309,0.000239,-0.015462,0.004554,-0.012209,-0.641443,323.607749,22.815811,0.999418,0.985259,0.004805,0.479405,0.000163,0.000070,0.000031,0.000172,0.000060,16.826562,0.000241,
2506,2848,5.34635411642306,4.42547811988506,-0.0107068536469797,0.000431,-0.015490,0.009071,-0.021907,-0.633565,317.388332,24.339139,0.999676,0.991811,0.003611,0.375664,0.000018,0.000029,0.000024,0.000049,-0.000002,51.472461,0.000055,
2491,2773,5.03438329726625,2.79148264283242,-0.0231141180402119,0.000590,-0.015395,0.006073,-0.002693,-0.631542,318.485009,23.952809,0.999241,0.986977,0.004326,0.450660,0.000020,0.000052,0.000011,0.000056,0.000017,71.913891,0.000076,
2416,2158,3.52420540634219,-10.6570050741539,0.0106933324321972,-0.000344,-0.017279,-0.002279,-0.014534,-0.795400,328.583831,21.825266,0.999181,0.978937,0.005453,0.357421,0.000505,0.000488,-0.000065,0.000562,0.000431,-41.410345,0.000996,
2446,2758,4.05671317112165,2.46226787955867,-0.02554938115901,0.000411,-0.015331,0.006620,-0.012180,-0.650664,318.596270,23.849877,0.999529,0.989100,0.004100,0.456117,0.000040,0.000069,0.000016,0.000076,0.000033,65.714203,0.000112,
2446,2518,4.1062582232262,-2.77531074846372,-0.00307203884909768,-0.000070,-0.015588,0.004574,-0.026721,-0.651312,322.675824,22.968737,0.999291,0.985782,0.004559,0.492050,0.000129,0.000034,0.000027,0.000136,0.000027,14.586643,0.000175,
2431,2233,3.83770385294971,-9.01262112192526,0.0206733167334505,-0.000214,-0.016422,0.001704,-0.022865,-0.717483,327.469689,22.078604,0.999280,0.981779,0.005261,0.362078,0.000386,0.000338,-0.000035,0.000404,0.000319,-27.866297,0.000725,
2431,2683,3.745045490832,0.827289719466243,-0.0228598022118263,0.000256,-0.015669,0.005517,-0.015043,-0.658840,319.811743,23.634774,0.999510,0.988756,0.004226,0.405423,0.000056,0.000033,0.000011,0.000060,0.000029,21.980527,0.000091,
2401,2293,3.16762997136498,-7.69517703339017,-0.00914712637222692,-0.000527,-0.016992,0.007559,-0.058350,-0.708403,326.172287,22.398291,0.999569,0.990528,0.003939,0.386481,0.000284,0.000236,-0.000011,0.000286,0.000234,-12.118993,0.000521,
2461,2353,4.46705399864898,-6.38231645904316,-0.000277203047915009,0.000219,-0.016622,0.007436,-0.024901,-0.671694,325.408979,22.372106,0.999070,0.981319,0.005491,0.424910,0.000253,0.000160,0.000017,0.000256,0.000157,10.211399,0.000417,
2431,2473,3.78857050950036,-3.75857162897089,3.90360508504273E-05,0.000305,-0.015784,0.005929,-0.014391,-0.652138,323.417818,22.884277,0.999330,0.984954,0.004768,0.451343,0.000145,0.000059,0.000025,0.000152,0.000052,14.955853,0.000212,
2416,2353,3.48506895361587,-6.3831272837589,0.00526989946484946,-0.000399,-0.015883,0.001412,-0.029962,-0.667884,325.368626,22.535180,0.998428,0.981297,0.005310,0.425949,0.000231,0.000157,0.000024,0.000238,0.000150,16.537008,0.000392,
2446,2533,4.10391904880338,-2.44581991063019,-0.00735892832733498,0.000558,-0.015127,-0.000285,0.020335,-0.661400,322.442633,23.167670,0.999236,0.987199,0.004517,0.336262,0.000122,0.000035,0.000027,0.000130,0.000027,15.955392,0.000168,
2461,2368,4.4647404171759,-6.0540628153789,0.00648791252956471,0.000098,-0.015932,0.004025,-0.017333,-0.660246,325.229744,22.485776,0.999504,0.986441,0.005049,0.378678,0.000244,0.000150,0.000026,0.000250,0.000143,14.524760,0.000399,
2401,2308,3.16498616771073,-7.36752079935123,-0.010112536718168,-0.000279,-0.016501,0.006356,-0.042446,-0.674810,325.937757,22.339474,0.999798,0.994132,0.003404,0.526593,0.000266,0.000208,-0.000003,0.000266,0.000208,-3.170277,0.000475,
2416,2368,3.48258966875482,-6.05610045635218,0.00885718381977085,-0.000195,-0.016133,0.001764,-0.021992,-0.690293,325.164251,22.538671,0.998920,0.982871,0.005063,0.449263,0.000218,0.000148,0.000030,0.000229,0.000137,20.365406,0.000370,
2446,2548,4.1003010317825,-2.11842794642727,-0.0100451504656576,0.000456,-0.015360,0.003337,0.002104,-0.639299,322.158235,23.161812,0.999534,0.989317,0.004159,0.417568,0.000114,0.000011,0.000024,0.000119,0.000006,12.319237,0.000142,
2416,2383,3.48041426631174,-5.72746808565235,0.0161544330325682,-0.000020,-0.015819,0.001534,-0.012996,-0.679853,324.990703,22.696591,0.999649,0.987051,0.004511,0.351090,0.000210,0.000135,0.000033,0.000223,0.000123,20.546903,0.000351,
2461,2383,4.46099632955623,-5.72557023811621,0.000834421332513102,-0.000091,-0.016036,0.004695,-0.028535,-0.656245,324.928122,22.513266,0.999573,0.986187,0.004905,0.411289,0.000234,0.000131,0.000025,0.000240,0.000125,12.926510,0.000371,
2401,2323,3.16291385236081,-7.0397017134848,0.00698470387465022,-0.000852,-0.016157,0.005518,-0.065562,-0.660063,325.814310,22.498849,0.999374,0.987447,0.004367,0.428871,0.000243,0.000177,0.000003,0.000243,0.000177,2.757344,0.000422,
2416,2398,3.47667286853585,-5.40011527124101,0.00890340864987138,0.000064,-0.016476,0.005282,-0.023100,-0.688943,324.677621,22.621782,0.999554,0.986561,0.004656,0.466474,0.000201,0.000130,0.000037,0.000217,0.000115,23.094519,0.000337,
